# vtk DataFile Version 3.0 
vtk output 
ASCII 
DATASET UNSTRUCTURED_GRID 
POINTS 175 float 
-0.021472 -2.538297 0.000000 
-0.101404 -2.459224 0.000000 
-0.052354 -2.467265 0.000000 
-0.028029 -2.420169 0.000000 
-0.175966 -2.399684 0.000000 
-0.131154 -2.400319 0.000000 
-0.113966 -2.345414 0.000000 
-0.059327 -2.361436 0.000000 
-0.029269 -2.321614 0.000000 
-0.265933 -2.329119 0.000000 
-0.215648 -2.336546 0.000000 
-0.201680 -2.273460 0.000000 
-0.146054 -2.282962 0.000000 
-0.121569 -2.230433 0.000000 
-0.059030 -2.253161 0.000000 
-0.030055 -2.212803 0.000000 
-0.347443 -2.275801 0.000000 
-0.303432 -2.267669 0.000000 
-0.288219 -2.203776 0.000000 
-0.239234 -2.210402 0.000000 
-0.214257 -2.170732 0.000000 
-0.153835 -2.176857 0.000000 
-0.122137 -2.141666 0.000000 
-0.061087 -2.155263 0.000000 
-0.029372 -2.126904 0.000000 
-0.050439 -2.588595 0.000000 
-0.142271 -2.611057 0.000000 
-0.108072 -2.567786 0.000000 
-0.129468 -2.509005 0.000000 
-0.230936 -2.617013 0.000000 
-0.202165 -2.583555 0.000000 
-0.235315 -2.517320 0.000000 
-0.191417 -2.492256 0.000000 
-0.207525 -2.444573 0.000000 
-0.337431 -2.634392 0.000000 
-0.303679 -2.595518 0.000000 
-0.337898 -2.536137 0.000000 
-0.303252 -2.498903 0.000000 
-0.328702 -2.450973 0.000000 
-0.278434 -2.421131 0.000000 
-0.298022 -2.377033 0.000000 
-0.408381 -2.654555 0.000000 
-0.399359 -2.617934 0.000000 
-0.437907 -2.550453 0.000000 
-0.407114 -2.520122 0.000000 
-0.434698 -2.476758 0.000000 
-0.398136 -2.436236 0.000000 
-0.417174 -2.392037 0.000000 
-0.369719 -2.360309 0.000000 
-0.384801 -2.324858 0.000000 
-0.040616 -2.644222 0.000000 
-0.084373 -2.744020 0.000000 
-0.088888 -2.686519 0.000000 
-0.128144 -2.669535 0.000000 
-0.113519 -2.836356 0.000000 
-0.121507 -2.783655 0.000000 
-0.170604 -2.756436 0.000000 
-0.170928 -2.704353 0.000000 
-0.216085 -2.676624 0.000000 
-0.179147 -2.923913 0.000000 
-0.158695 -2.863174 0.000000 
-0.209399 -2.844655 0.000000 
-0.217824 -2.796584 0.000000 
-0.280908 -2.777094 0.000000 
-0.277490 -2.718354 0.000000 
-0.327328 -2.697483 0.000000 
-0.324360 -3.166896 0.000000 
-0.284662 -3.021615 0.000000 
-0.420058 -3.047207 0.000000 
-0.311183 -2.889624 0.000000 
-0.328609 -2.838695 0.000000 
-0.327863 -2.802547 0.000000 
-0.377800 -2.780659 0.000000 
-0.380598 -2.736127 0.000000 
-0.397497 -2.720651 0.000000 
-0.000000 -2.666983 0.000000 
0.039879 -2.768099 0.000000 
-0.000000 -2.739187 0.000000 
-0.039879 -2.768099 0.000000 
0.080714 -2.862808 0.000000 
0.041228 -2.836347 0.000000 
-0.000000 -2.879822 0.000000 
-0.041228 -2.836347 0.000000 
-0.080714 -2.862808 0.000000 
0.144834 -2.963207 0.000000 
0.097284 -2.933661 0.000000 
0.072664 -3.007895 0.000000 
-0.000000 -2.955497 0.000000 
-0.072664 -3.007895 0.000000 
-0.097284 -2.933661 0.000000 
-0.144834 -2.963207 0.000000 
0.232698 -3.183688 0.000000 
0.160544 -3.072785 0.000000 
0.178465 -3.223614 0.000000 
0.105133 -3.103525 0.000000 
-0.000000 -3.283357 0.000000 
-0.105133 -3.103525 0.000000 
-0.178465 -3.223614 0.000000 
-0.160544 -3.072785 0.000000 
-0.232698 -3.183688 0.000000 
0.040616 -2.644222 0.000000 
0.128144 -2.669535 0.000000 
0.088888 -2.686519 0.000000 
0.084373 -2.744020 0.000000 
0.216085 -2.676624 0.000000 
0.170928 -2.704353 0.000000 
0.170604 -2.756436 0.000000 
0.121507 -2.783655 0.000000 
0.113519 -2.836356 0.000000 
0.327328 -2.697483 0.000000 
0.277490 -2.718354 0.000000 
0.280908 -2.777094 0.000000 
0.217824 -2.796584 0.000000 
0.209399 -2.844655 0.000000 
0.158695 -2.863174 0.000000 
0.179147 -2.923913 0.000000 
0.397497 -2.720651 0.000000 
0.380598 -2.736127 0.000000 
0.377800 -2.780659 0.000000 
0.327863 -2.802547 0.000000 
0.328609 -2.838695 0.000000 
0.311183 -2.889624 0.000000 
0.420058 -3.047207 0.000000 
0.284662 -3.021615 0.000000 
0.324360 -3.166896 0.000000 
0.050439 -2.588595 0.000000 
0.129468 -2.509005 0.000000 
0.108072 -2.567786 0.000000 
0.142271 -2.611057 0.000000 
0.207525 -2.444573 0.000000 
0.191417 -2.492256 0.000000 
0.235315 -2.517320 0.000000 
0.202165 -2.583555 0.000000 
0.230936 -2.617013 0.000000 
0.298022 -2.377033 0.000000 
0.278434 -2.421131 0.000000 
0.328702 -2.450973 0.000000 
0.303252 -2.498903 0.000000 
0.337898 -2.536137 0.000000 
0.303679 -2.595518 0.000000 
0.337431 -2.634392 0.000000 
0.384801 -2.324858 0.000000 
0.369719 -2.360309 0.000000 
0.417174 -2.392037 0.000000 
0.398136 -2.436236 0.000000 
0.434698 -2.476758 0.000000 
0.407114 -2.520122 0.000000 
0.437907 -2.550453 0.000000 
0.399359 -2.617934 0.000000 
0.408381 -2.654555 0.000000 
0.021472 -2.538297 0.000000 
0.028029 -2.420169 0.000000 
0.052354 -2.467265 0.000000 
0.101404 -2.459224 0.000000 
0.029269 -2.321614 0.000000 
0.059327 -2.361436 0.000000 
0.113966 -2.345414 0.000000 
0.131154 -2.400319 0.000000 
0.175966 -2.399684 0.000000 
0.030055 -2.212803 0.000000 
0.059030 -2.253161 0.000000 
0.121569 -2.230433 0.000000 
0.146054 -2.282962 0.000000 
0.201680 -2.273460 0.000000 
0.215648 -2.336546 0.000000 
0.265933 -2.329119 0.000000 
0.029372 -2.126904 0.000000 
0.061087 -2.155263 0.000000 
0.122137 -2.141666 0.000000 
0.153835 -2.176857 0.000000 
0.214257 -2.170732 0.000000 
0.239234 -2.210402 0.000000 
0.288219 -2.203776 0.000000 
0.303432 -2.267669 0.000000 
0.347443 -2.275801 0.000000 
CELLS 175 350 
1 0 
1 1 
1 2 
1 3 
1 4 
1 5 
1 6 
1 7 
1 8 
1 9 
1 10 
1 11 
1 12 
1 13 
1 14 
1 15 
1 16 
1 17 
1 18 
1 19 
1 20 
1 21 
1 22 
1 23 
1 24 
1 25 
1 26 
1 27 
1 28 
1 29 
1 30 
1 31 
1 32 
1 33 
1 34 
1 35 
1 36 
1 37 
1 38 
1 39 
1 40 
1 41 
1 42 
1 43 
1 44 
1 45 
1 46 
1 47 
1 48 
1 49 
1 50 
1 51 
1 52 
1 53 
1 54 
1 55 
1 56 
1 57 
1 58 
1 59 
1 60 
1 61 
1 62 
1 63 
1 64 
1 65 
1 66 
1 67 
1 68 
1 69 
1 70 
1 71 
1 72 
1 73 
1 74 
1 75 
1 76 
1 77 
1 78 
1 79 
1 80 
1 81 
1 82 
1 83 
1 84 
1 85 
1 86 
1 87 
1 88 
1 89 
1 90 
1 91 
1 92 
1 93 
1 94 
1 95 
1 96 
1 97 
1 98 
1 99 
1 100 
1 101 
1 102 
1 103 
1 104 
1 105 
1 106 
1 107 
1 108 
1 109 
1 110 
1 111 
1 112 
1 113 
1 114 
1 115 
1 116 
1 117 
1 118 
1 119 
1 120 
1 121 
1 122 
1 123 
1 124 
1 125 
1 126 
1 127 
1 128 
1 129 
1 130 
1 131 
1 132 
1 133 
1 134 
1 135 
1 136 
1 137 
1 138 
1 139 
1 140 
1 141 
1 142 
1 143 
1 144 
1 145 
1 146 
1 147 
1 148 
1 149 
1 150 
1 151 
1 152 
1 153 
1 154 
1 155 
1 156 
1 157 
1 158 
1 159 
1 160 
1 161 
1 162 
1 163 
1 164 
1 165 
1 166 
1 167 
1 168 
1 169 
1 170 
1 171 
1 172 
1 173 
1 174 
CELL_TYPES 175 
1 
1 
1 
1 
1 
1 
1 
1 
1 
1 
1 
1 
1 
1 
1 
1 
1 
1 
1 
1 
1 
1 
1 
1 
1 
1 
1 
1 
1 
1 
1 
1 
1 
1 
1 
1 
1 
1 
1 
1 
1 
1 
1 
1 
1 
1 
1 
1 
1 
1 
1 
1 
1 
1 
1 
1 
1 
1 
1 
1 
1 
1 
1 
1 
1 
1 
1 
1 
1 
1 
1 
1 
1 
1 
1 
1 
1 
1 
1 
1 
1 
1 
1 
1 
1 
1 
1 
1 
1 
1 
1 
1 
1 
1 
1 
1 
1 
1 
1 
1 
1 
1 
1 
1 
1 
1 
1 
1 
1 
1 
1 
1 
1 
1 
1 
1 
1 
1 
1 
1 
1 
1 
1 
1 
1 
1 
1 
1 
1 
1 
1 
1 
1 
1 
1 
1 
1 
1 
1 
1 
1 
1 
1 
1 
1 
1 
1 
1 
1 
1 
1 
1 
1 
1 
1 
1 
1 
1 
1 
1 
1 
1 
1 
1 
1 
1 
1 
1 
1 
1 
1 
1 
1 
1 
1 
POINT_DATA 175 
VECTORS X_GC float 
-0.021472 -2.538297 0.000000 
-0.101404 -2.459224 0.000000 
-0.052354 -2.467265 0.000000 
-0.028029 -2.420169 0.000000 
-0.175966 -2.399684 0.000000 
-0.131154 -2.400319 0.000000 
-0.113966 -2.345414 0.000000 
-0.059327 -2.361436 0.000000 
-0.029269 -2.321614 0.000000 
-0.265933 -2.329119 0.000000 
-0.215648 -2.336546 0.000000 
-0.201680 -2.273460 0.000000 
-0.146054 -2.282962 0.000000 
-0.121569 -2.230433 0.000000 
-0.059030 -2.253161 0.000000 
-0.030055 -2.212803 0.000000 
-0.347443 -2.275801 0.000000 
-0.303432 -2.267669 0.000000 
-0.288219 -2.203776 0.000000 
-0.239234 -2.210402 0.000000 
-0.214257 -2.170732 0.000000 
-0.153835 -2.176857 0.000000 
-0.122137 -2.141666 0.000000 
-0.061087 -2.155263 0.000000 
-0.029372 -2.126904 0.000000 
-0.050439 -2.588595 0.000000 
-0.142271 -2.611057 0.000000 
-0.108072 -2.567786 0.000000 
-0.129468 -2.509005 0.000000 
-0.230936 -2.617013 0.000000 
-0.202165 -2.583555 0.000000 
-0.235315 -2.517320 0.000000 
-0.191417 -2.492256 0.000000 
-0.207525 -2.444573 0.000000 
-0.337431 -2.634392 0.000000 
-0.303679 -2.595518 0.000000 
-0.337898 -2.536137 0.000000 
-0.303252 -2.498903 0.000000 
-0.328702 -2.450973 0.000000 
-0.278434 -2.421131 0.000000 
-0.298022 -2.377033 0.000000 
-0.408381 -2.654555 0.000000 
-0.399359 -2.617934 0.000000 
-0.437907 -2.550453 0.000000 
-0.407114 -2.520122 0.000000 
-0.434698 -2.476758 0.000000 
-0.398136 -2.436236 0.000000 
-0.417174 -2.392037 0.000000 
-0.369719 -2.360309 0.000000 
-0.384801 -2.324858 0.000000 
-0.040616 -2.644222 0.000000 
-0.084373 -2.744020 0.000000 
-0.088888 -2.686519 0.000000 
-0.128144 -2.669535 0.000000 
-0.113519 -2.836356 0.000000 
-0.121507 -2.783655 0.000000 
-0.170604 -2.756436 0.000000 
-0.170928 -2.704353 0.000000 
-0.216085 -2.676624 0.000000 
-0.179147 -2.923913 0.000000 
-0.158695 -2.863174 0.000000 
-0.209399 -2.844655 0.000000 
-0.217824 -2.796584 0.000000 
-0.280908 -2.777094 0.000000 
-0.277490 -2.718354 0.000000 
-0.327328 -2.697483 0.000000 
-0.324360 -3.166896 0.000000 
-0.284662 -3.021615 0.000000 
-0.420058 -3.047207 0.000000 
-0.311183 -2.889624 0.000000 
-0.328609 -2.838695 0.000000 
-0.327863 -2.802547 0.000000 
-0.377800 -2.780659 0.000000 
-0.380598 -2.736127 0.000000 
-0.397497 -2.720651 0.000000 
-0.000000 -2.666983 0.000000 
0.039879 -2.768099 0.000000 
-0.000000 -2.739187 0.000000 
-0.039879 -2.768099 0.000000 
0.080714 -2.862808 0.000000 
0.041228 -2.836347 0.000000 
-0.000000 -2.879822 0.000000 
-0.041228 -2.836347 0.000000 
-0.080714 -2.862808 0.000000 
0.144834 -2.963207 0.000000 
0.097284 -2.933661 0.000000 
0.072664 -3.007895 0.000000 
-0.000000 -2.955497 0.000000 
-0.072664 -3.007895 0.000000 
-0.097284 -2.933661 0.000000 
-0.144834 -2.963207 0.000000 
0.232698 -3.183688 0.000000 
0.160544 -3.072785 0.000000 
0.178465 -3.223614 0.000000 
0.105133 -3.103525 0.000000 
-0.000000 -3.283357 0.000000 
-0.105133 -3.103525 0.000000 
-0.178465 -3.223614 0.000000 
-0.160544 -3.072785 0.000000 
-0.232698 -3.183688 0.000000 
0.040616 -2.644222 0.000000 
0.128144 -2.669535 0.000000 
0.088888 -2.686519 0.000000 
0.084373 -2.744020 0.000000 
0.216085 -2.676624 0.000000 
0.170928 -2.704353 0.000000 
0.170604 -2.756436 0.000000 
0.121507 -2.783655 0.000000 
0.113519 -2.836356 0.000000 
0.327328 -2.697483 0.000000 
0.277490 -2.718354 0.000000 
0.280908 -2.777094 0.000000 
0.217824 -2.796584 0.000000 
0.209399 -2.844655 0.000000 
0.158695 -2.863174 0.000000 
0.179147 -2.923913 0.000000 
0.397497 -2.720651 0.000000 
0.380598 -2.736127 0.000000 
0.377800 -2.780659 0.000000 
0.327863 -2.802547 0.000000 
0.328609 -2.838695 0.000000 
0.311183 -2.889624 0.000000 
0.420058 -3.047207 0.000000 
0.284662 -3.021615 0.000000 
0.324360 -3.166896 0.000000 
0.050439 -2.588595 0.000000 
0.129468 -2.509005 0.000000 
0.108072 -2.567786 0.000000 
0.142271 -2.611057 0.000000 
0.207525 -2.444573 0.000000 
0.191417 -2.492256 0.000000 
0.235315 -2.517320 0.000000 
0.202165 -2.583555 0.000000 
0.230936 -2.617013 0.000000 
0.298022 -2.377033 0.000000 
0.278434 -2.421131 0.000000 
0.328702 -2.450973 0.000000 
0.303252 -2.498903 0.000000 
0.337898 -2.536137 0.000000 
0.303679 -2.595518 0.000000 
0.337431 -2.634392 0.000000 
0.384801 -2.324858 0.000000 
0.369719 -2.360309 0.000000 
0.417174 -2.392037 0.000000 
0.398136 -2.436236 0.000000 
0.434698 -2.476758 0.000000 
0.407114 -2.520122 0.000000 
0.437907 -2.550453 0.000000 
0.399359 -2.617934 0.000000 
0.408381 -2.654555 0.000000 
0.021472 -2.538297 0.000000 
0.028029 -2.420169 0.000000 
0.052354 -2.467265 0.000000 
0.101404 -2.459224 0.000000 
0.029269 -2.321614 0.000000 
0.059327 -2.361436 0.000000 
0.113966 -2.345414 0.000000 
0.131154 -2.400319 0.000000 
0.175966 -2.399684 0.000000 
0.030055 -2.212803 0.000000 
0.059030 -2.253161 0.000000 
0.121569 -2.230433 0.000000 
0.146054 -2.282962 0.000000 
0.201680 -2.273460 0.000000 
0.215648 -2.336546 0.000000 
0.265933 -2.329119 0.000000 
0.029372 -2.126904 0.000000 
0.061087 -2.155263 0.000000 
0.122137 -2.141666 0.000000 
0.153835 -2.176857 0.000000 
0.214257 -2.170732 0.000000 
0.239234 -2.210402 0.000000 
0.288219 -2.203776 0.000000 
0.303432 -2.267669 0.000000 
0.347443 -2.275801 0.000000 
VECTORS X_EC float 
0.279134 0.767006 0.000000 
-0.681748 -0.300479 0.000000 
0.680603 -0.191921 0.000000 
0.364378 -0.827716 0.000000 
0.287558 0.895728 0.000000 
-0.295003 0.904303 0.000000 
-0.518436 0.163091 0.000000 
0.771247 0.379384 0.000000 
0.380501 -0.158214 0.000000 
-0.542873 -0.056895 0.000000 
0.803430 0.043369 0.000000 
0.621841 -0.808293 0.000000 
-0.101301 -0.680009 0.000000 
-0.419604 0.610848 0.000000 
0.767385 0.917671 0.000000 
0.390717 0.372845 0.000000 
0.516762 -0.776683 0.000000 
-0.055385 -0.886472 0.000000 
-0.253159 0.250978 0.000000 
-0.889957 0.340422 0.000000 
0.785339 -0.195123 0.000000 
-0.000140 -0.112433 0.000000 
-0.412223 -0.587503 0.000000 
0.794136 -0.403951 0.000000 
0.381842 -0.786794 0.000000 
0.655707 -0.553972 0.000000 
-0.150477 -0.250724 0.000000 
-0.595068 -0.834894 0.000000 
-0.316910 0.371566 0.000000 
-0.997826 -0.170331 0.000000 
0.628144 -0.622007 0.000000 
-0.940899 0.483822 0.000000 
0.488416 0.145452 0.000000 
0.697828 -0.498258 0.000000 
0.386601 0.064297 0.000000 
-0.052168 -0.460512 0.000000 
0.392675 0.737847 0.000000 
-0.057724 0.235194 0.000000 
0.273127 -0.411865 0.000000 
-0.380364 -0.814731 0.000000 
-0.125712 0.589942 0.000000 
-0.691049 0.336487 0.000000 
-0.808337 -0.157890 0.000000 
-0.307208 0.931119 0.000000 
-0.707514 0.521643 0.000000 
-0.348920 -0.063772 0.000000 
-0.824231 -0.610809 0.000000 
-0.576740 0.792494 0.000000 
0.806351 0.364172 0.000000 
-0.997583 -0.114418 0.000000 
0.528002 0.197001 0.000000 
-0.903154 -0.455736 0.000000 
-0.844460 0.768010 0.000000 
-0.334130 0.538717 0.000000 
-0.524258 0.790811 0.000000 
-0.420411 0.079340 0.000000 
0.217856 -0.288110 0.000000 
0.222059 -0.991235 0.000000 
0.809102 0.634420 0.000000 
0.328910 -0.027169 0.000000 
0.063036 -0.847153 0.000000 
0.722185 0.902836 0.000000 
0.831706 0.253882 0.000000 
-0.348200 -0.009234 0.000000 
-0.392632 -0.802224 0.000000 
0.255269 0.916014 0.000000 
0.808930 0.945648 0.000000 
0.822002 0.973845 0.000000 
0.315175 0.903630 0.000000 
0.045385 -0.490074 0.000000 
0.271913 0.822386 0.000000 
0.262216 0.334381 0.000000 
0.911400 0.038898 0.000000 
0.947776 -0.562290 0.000000 
-0.832539 -0.771214 0.000000 
0.000000 0.504269 0.000000 
-0.518423 -0.130664 0.000000 
0.000000 -0.520974 0.000000 
0.518423 -0.130664 0.000000 
0.950713 -0.852093 0.000000 
-0.535968 0.790688 0.000000 
0.000000 -0.622409 0.000000 
0.535968 0.790688 0.000000 
-0.950713 -0.852093 0.000000 
0.117155 0.503289 0.000000 
0.735308 0.104419 0.000000 
0.748521 0.978687 0.000000 
0.000000 0.399214 0.000000 
-0.748521 0.978687 0.000000 
-0.735308 0.104419 0.000000 
-0.117155 0.503289 0.000000 
0.704269 0.937207 0.000000 
-0.724313 0.961051 0.000000 
0.412755 0.887080 0.000000 
0.791852 0.988079 0.000000 
0.000000 0.760633 0.000000 
-0.791852 0.988079 0.000000 
-0.412755 0.887080 0.000000 
0.724313 0.961051 0.000000 
-0.704269 0.937207 0.000000 
-0.528002 0.197001 0.000000 
0.334130 0.538717 0.000000 
0.844460 0.768010 0.000000 
0.903154 -0.455736 0.000000 
-0.809102 0.634420 0.000000 
-0.222059 -0.991235 0.000000 
-0.217856 -0.288110 0.000000 
0.420411 0.079340 0.000000 
0.524258 0.790811 0.000000 
-0.255269 0.916014 0.000000 
0.392632 -0.802224 0.000000 
0.348200 -0.009234 0.000000 
-0.831706 0.253882 0.000000 
-0.722185 0.902836 0.000000 
-0.063036 -0.847153 0.000000 
-0.328910 -0.027169 0.000000 
0.832539 -0.771214 0.000000 
-0.947776 -0.562290 0.000000 
-0.911400 0.038898 0.000000 
-0.262216 0.334381 0.000000 
-0.271913 0.822386 0.000000 
-0.045385 -0.490074 0.000000 
-0.315175 0.903630 0.000000 
-0.822002 0.973845 0.000000 
-0.808930 0.945648 0.000000 
-0.655707 -0.553972 0.000000 
0.316910 0.371566 0.000000 
0.595068 -0.834894 0.000000 
0.150477 -0.250724 0.000000 
-0.697828 -0.498258 0.000000 
-0.488416 0.145452 0.000000 
0.940899 0.483822 0.000000 
-0.628144 -0.622007 0.000000 
0.997826 -0.170331 0.000000 
0.125712 0.589942 0.000000 
0.380364 -0.814731 0.000000 
-0.273127 -0.411865 0.000000 
0.057724 0.235194 0.000000 
-0.392675 0.737847 0.000000 
0.052168 -0.460512 0.000000 
-0.386601 0.064297 0.000000 
0.997583 -0.114418 0.000000 
-0.806351 0.364172 0.000000 
0.576741 0.792494 0.000000 
0.824231 -0.610809 0.000000 
0.348920 -0.063772 0.000000 
0.707514 0.521643 0.000000 
0.307208 0.931120 0.000000 
0.808337 -0.157890 0.000000 
0.691049 0.336487 0.000000 
-0.279134 0.767006 0.000000 
-0.364378 -0.827716 0.000000 
-0.680603 -0.191921 0.000000 
0.681748 -0.300479 0.000000 
-0.380501 -0.158214 0.000000 
-0.771247 0.379384 0.000000 
0.518436 0.163091 0.000000 
0.295003 0.904303 0.000000 
-0.287558 0.895728 0.000000 
-0.390717 0.372845 0.000000 
-0.767385 0.917671 0.000000 
0.419604 0.610848 0.000000 
0.101301 -0.680009 0.000000 
-0.621841 -0.808293 0.000000 
-0.803430 0.043369 0.000000 
0.542873 -0.056895 0.000000 
-0.381842 -0.786794 0.000000 
-0.794136 -0.403951 0.000000 
0.412223 -0.587503 0.000000 
0.000140 -0.112433 0.000000 
-0.785339 -0.195123 0.000000 
0.889957 0.340422 0.000000 
0.253159 0.250978 0.000000 
0.055385 -0.886472 0.000000 
-0.516762 -0.776683 0.000000 
CELL_DATA 175 
SCALARS MASS float 
LOOKUP_TABLE default 
0.781831 
0.864274 
0.946717 
0.864274 
0.881307 
0.921110 
0.858535 
0.921110 
0.881307 
0.887046 
0.910001 
0.869829 
0.915556 
0.869829 
0.910001 
0.887046 
0.892784 
0.915740 
0.892784 
0.927218 
0.892784 
0.927218 
0.892784 
0.915740 
0.892784 
0.781831 
0.864274 
0.946717 
0.864274 
0.881307 
0.921110 
0.858535 
0.921110 
0.881307 
0.887046 
0.910001 
0.869829 
0.915556 
0.869829 
0.910001 
0.887046 
0.892784 
0.915740 
0.892784 
0.927218 
0.892784 
0.927218 
0.892784 
0.915740 
0.892784 
0.781831 
0.864274 
0.946717 
0.864274 
0.881307 
0.921110 
0.858535 
0.921110 
0.881307 
0.887046 
0.910001 
0.869829 
0.915556 
0.869829 
0.910001 
0.887046 
0.892784 
0.915740 
0.892784 
0.927218 
0.892784 
0.927218 
0.892784 
0.915740 
0.892784 
0.781831 
0.864274 
0.946717 
0.864274 
0.881307 
0.921110 
0.858535 
0.921110 
0.881307 
0.887046 
0.910001 
0.869829 
0.915556 
0.869829 
0.910001 
0.887046 
0.892784 
0.915740 
0.892784 
0.927218 
0.892784 
0.927218 
0.892784 
0.915740 
0.892784 
0.781831 
0.864274 
0.946717 
0.864274 
0.881307 
0.921110 
0.858535 
0.921110 
0.881307 
0.887046 
0.910001 
0.869829 
0.915556 
0.869829 
0.910001 
0.887046 
0.892784 
0.915740 
0.892784 
0.927218 
0.892784 
0.927218 
0.892784 
0.915740 
0.892784 
0.781831 
0.864274 
0.946717 
0.864274 
0.881307 
0.921110 
0.858535 
0.921110 
0.881307 
0.887046 
0.910001 
0.869829 
0.915556 
0.869829 
0.910001 
0.887046 
0.892784 
0.915740 
0.892784 
0.927218 
0.892784 
0.927218 
0.892784 
0.915740 
0.892784 
0.781831 
0.864274 
0.946717 
0.864274 
0.881307 
0.921110 
0.858535 
0.921110 
0.881307 
0.887046 
0.910001 
0.869829 
0.915556 
0.869829 
0.910001 
0.887046 
0.892784 
0.915740 
0.892784 
0.927218 
0.892784 
0.927218 
0.892784 
0.915740 
0.892784 
SCALARS MASS float 
LOOKUP_TABLE default 
0.781831 
0.864274 
0.946717 
0.864274 
0.881307 
0.921110 
0.858535 
0.921110 
0.881307 
0.887046 
0.910001 
0.869829 
0.915556 
0.869829 
0.910001 
0.887046 
0.892784 
0.915740 
0.892784 
0.927218 
0.892784 
0.927218 
0.892784 
0.915740 
0.892784 
0.781831 
0.864274 
0.946717 
0.864274 
0.881307 
0.921110 
0.858535 
0.921110 
0.881307 
0.887046 
0.910001 
0.869829 
0.915556 
0.869829 
0.910001 
0.887046 
0.892784 
0.915740 
0.892784 
0.927218 
0.892784 
0.927218 
0.892784 
0.915740 
0.892784 
0.781831 
0.864274 
0.946717 
0.864274 
0.881307 
0.921110 
0.858535 
0.921110 
0.881307 
0.887046 
0.910001 
0.869829 
0.915556 
0.869829 
0.910001 
0.887046 
0.892784 
0.915740 
0.892784 
0.927218 
0.892784 
0.927218 
0.892784 
0.915740 
0.892784 
0.781831 
0.864274 
0.946717 
0.864274 
0.881307 
0.921110 
0.858535 
0.921110 
0.881307 
0.887046 
0.910001 
0.869829 
0.915556 
0.869829 
0.910001 
0.887046 
0.892784 
0.915740 
0.892784 
0.927218 
0.892784 
0.927218 
0.892784 
0.915740 
0.892784 
0.781831 
0.864274 
0.946717 
0.864274 
0.881307 
0.921110 
0.858535 
0.921110 
0.881307 
0.887046 
0.910001 
0.869829 
0.915556 
0.869829 
0.910001 
0.887046 
0.892784 
0.915740 
0.892784 
0.927218 
0.892784 
0.927218 
0.892784 
0.915740 
0.892784 
0.781831 
0.864274 
0.946717 
0.864274 
0.881307 
0.921110 
0.858535 
0.921110 
0.881307 
0.887046 
0.910001 
0.869829 
0.915556 
0.869829 
0.910001 
0.887046 
0.892784 
0.915740 
0.892784 
0.927218 
0.892784 
0.927218 
0.892784 
0.915740 
0.892784 
0.781831 
0.864274 
0.946717 
0.864274 
0.881307 
0.921110 
0.858535 
0.921110 
0.881307 
0.887046 
0.910001 
0.869829 
0.915556 
0.869829 
0.910001 
0.887046 
0.892784 
0.915740 
0.892784 
0.927218 
0.892784 
0.927218 
0.892784 
0.915740 
0.892784 
SCALARS DENSITY float 
LOOKUP_TABLE default 
291.465257 
257.793436 
306.076282 
118.740845 
148.063298 
148.838347 
238.523987 
213.139523 
331.645917 
309.993506 
2255.525043 
390.385001 
240.822574 
173.493472 
312.818935 
155.312152 
278.253896 
129.621064 
395.739849 
213.298559 
243.880058 
255.623064 
467.804536 
303.442963 
285.425625 
2496.090598 
285.913541 
293.749547 
124.631269 
208.788630 
1059.379818 
72.470020 
530.570832 
134.867882 
364.297959 
614.281438 
357.384976 
260.778013 
727.202567 
133.138871 
240.345250 
467.118950 
164.849752 
767.679259 
90.366111 
302.355121 
320.802797 
318.464042 
328.263432 
227.925218 
543.226221 
273.317918 
131.155673 
213.457121 
14269836.057752 
82.304098 
61.785062 
511.521527 
203.564126 
14686562849.292168 
139370820.646289 
481.879363 
510.788365 
665.365559 
121.013139 
824.088047 
28784446891522.179688 
1093561.343356 
-3476825.141244 
9811.700600 
382.788381 
115.360139 
576.243331 
255.264067 
155.430438 
70.440529 
137.908524 
716.990617 
137.908530 
311554701.409097 
722.094260 
54416062.091943 
722.094162 
311554704.801730 
112751128229097209856.000000 
2046340823891560.000000 
560620888665802944.000000 
800694440.346549 
560620809420765888.000000 
2046339581278371.750000 
112751108232085929984.000000 
147451541574.221741 
1906794025399791265507150968657631248384.000000 
-11582857904587860649653882060800.000000 
76517370799220727337610357505709803838204991766528.000000 
113472448.655568 
76516959568687795368827500560505030915148319031296.000000 
-11582860291412080850532393025536.000000 
1906790294895024324804698138347644649472.000000 
147451803758.542572 
543.226220 
213.457117 
131.155681 
273.317911 
203.564134 
511.521456 
61.785064 
82.304098 
14269833.214797 
824.088039 
121.013141 
665.365487 
510.788333 
481.879345 
139370741.428222 
14686559832.830307 
155.430444 
255.264075 
576.243311 
115.360132 
382.788475 
9811.696466 
-3476761.129171 
1093560.961688 
28784407285624.992188 
2496.090719 
124.631268 
293.749550 
285.913529 
134.867881 
530.570830 
72.470018 
1059.379819 
208.788636 
240.345245 
133.138872 
727.202563 
260.778030 
357.384971 
614.281435 
364.297951 
227.925213 
328.263439 
318.464052 
320.802800 
302.355123 
90.366110 
767.679310 
164.849743 
467.119003 
291.465247 
118.740843 
306.076283 
257.793453 
331.645920 
213.139524 
238.523991 
148.838348 
148.063296 
155.312153 
312.818944 
173.493470 
240.822569 
390.385003 
2255.525142 
309.993505 
285.425625 
303.442963 
467.804537 
255.623064 
243.880054 
213.298562 
395.739876 
129.621062 
278.253893 
SCALARS ELEM_i float 
LOOKUP_TABLE default 
165 
192 
165 
165 
193 
193 
193 
166 
166 
220 
193 
193 
193 
194 
167 
167 
220 
220 
221 
221 
194 
194 
194 
167 
167 
164 
191 
191 
192 
218 
191 
219 
192 
192 
218 
218 
219 
219 
219 
219 
220 
245 
245 
246 
246 
246 
246 
247 
220 
247 
164 
190 
191 
191 
190 
190 
190 
190 
191 
189 
189 
190 
190 
217 
217 
218 
216 
216 
243 
216 
217 
217 
217 
217 
244 
164 
163 
163 
163 
135 
163 
162 
163 
189 
135 
135 
135 
162 
189 
189 
189 
108 
135 
135 
135 
162 
189 
189 
189 
216 
164 
137 
137 
136 
137 
136 
136 
136 
136 
110 
109 
109 
136 
136 
135 
135 
82 
109 
109 
109 
109 
108 
81 
108 
108 
164 
138 
137 
137 
138 
138 
111 
137 
110 
112 
111 
111 
111 
111 
110 
110 
85 
112 
85 
84 
84 
84 
84 
83 
83 
165 
165 
165 
138 
166 
166 
139 
139 
139 
167 
167 
140 
139 
139 
139 
112 
167 
167 
140 
140 
140 
113 
113 
112 
112 
VECTORS VELOCITY float 
1.110051 4.452164 0.000000 
-1.346271 5.054982 0.000000 
-1.008015 5.963298 0.000000 
0.163794 5.327869 0.000000 
0.426692 1.777177 0.000000 
-1.021718 2.489439 0.000000 
-0.628663 1.661784 0.000000 
-1.144522 2.596897 0.000000 
0.278427 1.822415 0.000000 
-1.620438 2.459590 0.000000 
-0.725772 1.093395 0.000000 
-1.024943 3.735734 0.000000 
-0.887383 2.937852 0.000000 
0.361045 6.044487 0.000000 
0.821067 4.622589 0.000000 
0.756754 6.409875 0.000000 
-2.141950 -1.745540 0.000000 
-1.687005 2.363867 0.000000 
-2.703782 1.785695 0.000000 
-2.634090 4.467531 0.000000 
-2.980410 -2.198675 0.000000 
-0.973550 2.847077 0.000000 
0.003128 -1.098870 0.000000 
0.724669 4.664363 0.000000 
0.743372 0.198455 0.000000 
1.243007 2.681642 0.000000 
0.059864 1.019085 0.000000 
0.629140 3.239798 0.000000 
-0.108691 4.972232 0.000000 
1.937740 0.942164 0.000000 
0.542023 0.920694 0.000000 
0.220141 4.441900 0.000000 
0.168184 3.719208 0.000000 
-0.120262 2.153344 0.000000 
-2.167007 1.221356 0.000000 
0.222607 3.709058 0.000000 
-0.056757 3.707173 0.000000 
0.553450 5.209688 0.000000 
0.040409 4.072583 0.000000 
0.256961 2.584642 0.000000 
-0.955569 1.591278 0.000000 
10.298711 -3.411914 0.000000 
0.213514 -2.147589 0.000000 
1.323920 2.025884 0.000000 
-1.180129 0.897687 0.000000 
-1.021997 -2.895601 0.000000 
-2.239741 1.333181 0.000000 
-0.494023 -0.708800 0.000000 
-1.486953 2.278936 0.000000 
-4.026160 -1.166021 0.000000 
0.860013 1.532037 0.000000 
-2.264438 4.937969 0.000000 
-2.366692 2.955484 0.000000 
0.487670 2.827499 0.000000 
2.981824 7.504380 0.000000 
2.708203 8.285823 0.000000 
4.357480 6.146220 0.000000 
2.645859 3.240095 0.000000 
2.511211 1.350425 0.000000 
4.415297 -12.213563 0.000000 
7.010737 1.906118 0.000000 
5.497315 2.539247 0.000000 
3.404268 0.444885 0.000000 
-1.171503 1.261616 0.000000 
0.351997 1.867611 0.000000 
-3.558979 0.100884 0.000000 
1.237789 -130.475014 0.000000 
5.064077 -51.747837 0.000000 
5.345308 -67.802708 0.000000 
-0.087573 -4.931753 0.000000 
7.553699 9.905523 0.000000 
2.760894 3.420245 0.000000 
2.606706 5.934159 0.000000 
-2.947674 -1.514733 0.000000 
9.258336 -5.076148 0.000000 
-0.000000 2.020048 0.000000 
1.060683 6.353098 0.000000 
-0.000000 4.288026 0.000000 
-1.060683 6.353098 0.000000 
0.577602 6.291951 0.000000 
0.440675 10.372566 0.000000 
-0.000000 3.371568 0.000000 
-0.440675 10.372567 0.000000 
-0.577602 6.291951 0.000000 
-1.558255 -20.842667 0.000000 
-1.312698 -8.251855 0.000000 
-1.900595 -36.232204 0.000000 
0.000000 -14.392653 0.000000 
1.900596 -36.232204 0.000000 
1.312698 -8.251854 0.000000 
1.558255 -20.842666 0.000000 
-3.543340 -140.434115 0.000000 
-1.095308 -73.672959 0.000000 
2.723478 -160.261529 0.000000 
-1.160941 -86.849302 0.000000 
-0.000000 -191.927231 0.000000 
1.160941 -86.849303 0.000000 
-2.723478 -160.261528 0.000000 
1.095308 -73.672958 0.000000 
3.543340 -140.434116 0.000000 
-0.860013 1.532037 0.000000 
-0.487670 2.827499 0.000000 
2.366692 2.955484 0.000000 
2.264438 4.937968 0.000000 
-2.511211 1.350425 0.000000 
-2.645859 3.240094 0.000000 
-4.357480 6.146220 0.000000 
-2.708203 8.285824 0.000000 
-2.981823 7.504380 0.000000 
3.558978 0.100885 0.000000 
-0.351997 1.867612 0.000000 
1.171502 1.261616 0.000000 
-3.404268 0.444885 0.000000 
-5.497314 2.539247 0.000000 
-7.010736 1.906118 0.000000 
-4.415297 -12.213563 0.000000 
-9.258335 -5.076147 0.000000 
2.947673 -1.514733 0.000000 
-2.606706 5.934158 0.000000 
-2.760895 3.420245 0.000000 
-7.553699 9.905522 0.000000 
0.087573 -4.931754 0.000000 
-5.345309 -67.802708 0.000000 
-5.064077 -51.747839 0.000000 
-1.237789 -130.475015 0.000000 
-1.243008 2.681643 0.000000 
0.108691 4.972232 0.000000 
-0.629140 3.239798 0.000000 
-0.059864 1.019085 0.000000 
0.120262 2.153344 0.000000 
-0.168184 3.719208 0.000000 
-0.220142 4.441901 0.000000 
-0.542023 0.920694 0.000000 
-1.937740 0.942164 0.000000 
0.955569 1.591278 0.000000 
-0.256961 2.584642 0.000000 
-0.040409 4.072583 0.000000 
-0.553450 5.209688 0.000000 
0.056758 3.707173 0.000000 
-0.222607 3.709058 0.000000 
2.167007 1.221356 0.000000 
4.026160 -1.166021 0.000000 
1.486952 2.278936 0.000000 
0.494023 -0.708800 0.000000 
2.239741 1.333181 0.000000 
1.021997 -2.895601 0.000000 
1.180129 0.897687 0.000000 
-1.323920 2.025884 0.000000 
-0.213514 -2.147589 0.000000 
-10.298710 -3.411914 0.000000 
-1.110051 4.452164 0.000000 
-0.163794 5.327869 0.000000 
1.008015 5.963298 0.000000 
1.346271 5.054981 0.000000 
-0.278427 1.822415 0.000000 
1.144522 2.596897 0.000000 
0.628663 1.661784 0.000000 
1.021718 2.489439 0.000000 
-0.426692 1.777177 0.000000 
-0.756754 6.409875 0.000000 
-0.821067 4.622589 0.000000 
-0.361045 6.044487 0.000000 
0.887383 2.937853 0.000000 
1.024943 3.735734 0.000000 
0.725772 1.093395 0.000000 
1.620438 2.459590 0.000000 
-0.743372 0.198455 0.000000 
-0.724669 4.664363 0.000000 
-0.003128 -1.098870 0.000000 
0.973550 2.847077 0.000000 
2.980410 -2.198675 0.000000 
2.634090 4.467531 0.000000 
2.703782 1.785695 0.000000 
1.687005 2.363867 0.000000 
2.141950 -1.745540 0.000000 
TENSORS STRESS float 
-27.357824 2.985676 0.000000 
0.000000 16.804739 0.000000 
0.000000 0.000000 0.000000 

-6.252957 0.098918 0.000000 
0.000000 19.809742 0.000000 
0.000000 0.000000 0.000000 

-46.385391 -8.398146 0.000000 
0.000000 -9.963491 0.000000 
0.000000 0.000000 0.000000 

128.763824 -1.147087 0.000000 
0.000000 175.418076 0.000000 
0.000000 0.000000 0.000000 

94.188798 -10.215956 0.000000 
0.000000 147.203123 0.000000 
0.000000 0.000000 0.000000 

107.278095 -6.402383 0.000000 
0.000000 166.703029 0.000000 
0.000000 0.000000 0.000000 

-33.972770 -3.485566 0.000000 
0.000000 -18.148946 0.000000 
0.000000 0.000000 0.000000 

-4.239254 -17.422638 0.000000 
0.000000 15.229814 0.000000 
0.000000 0.000000 0.000000 

-5.978408 -0.621700 0.000000 
0.000000 -8.739037 0.000000 
0.000000 0.000000 0.000000 

-48.853773 9.295465 0.000000 
0.000000 -38.962749 0.000000 
0.000000 0.000000 0.000000 

-19.512688 -2.410077 0.000000 
0.000000 -16.484440 0.000000 
0.000000 0.000000 0.000000 

6.941591 -12.010739 0.000000 
0.000000 4.705613 0.000000 
0.000000 0.000000 0.000000 

23.115180 1.138483 0.000000 
0.000000 26.495207 0.000000 
0.000000 0.000000 0.000000 

14.616039 13.658929 0.000000 
0.000000 -1.220636 0.000000 
0.000000 0.000000 0.000000 

55.758134 -9.546711 0.000000 
0.000000 51.115731 0.000000 
0.000000 0.000000 0.000000 

137.589597 1.826476 0.000000 
0.000000 98.623256 0.000000 
0.000000 0.000000 0.000000 

11.161219 28.946206 0.000000 
0.000000 42.810570 0.000000 
0.000000 0.000000 0.000000 

175.434395 54.818256 0.000000 
0.000000 239.513868 0.000000 
0.000000 0.000000 0.000000 

-46.062247 20.724690 0.000000 
0.000000 -12.112405 0.000000 
0.000000 0.000000 0.000000 

-86.459582 11.680966 0.000000 
0.000000 -74.461824 0.000000 
0.000000 0.000000 0.000000 

33.482390 14.313357 0.000000 
0.000000 27.146630 0.000000 
0.000000 0.000000 0.000000 

13.392478 9.503403 0.000000 
0.000000 0.993807 0.000000 
0.000000 0.000000 0.000000 

4.816989 5.824009 0.000000 
0.000000 1.300813 0.000000 
0.000000 0.000000 0.000000 

30.800321 2.474396 0.000000 
0.000000 13.570953 0.000000 
0.000000 0.000000 0.000000 

102.009687 6.003367 0.000000 
0.000000 97.513155 0.000000 
0.000000 0.000000 0.000000 

-42.210635 -3.254485 0.000000 
0.000000 -36.209605 0.000000 
0.000000 0.000000 0.000000 

-78.438087 -34.535553 0.000000 
0.000000 -38.224837 0.000000 
0.000000 0.000000 0.000000 

31.104381 11.316268 0.000000 
0.000000 77.956680 0.000000 
0.000000 0.000000 0.000000 

6.164408 26.370929 0.000000 
0.000000 78.359604 0.000000 
0.000000 0.000000 0.000000 

128.833492 30.129149 0.000000 
0.000000 149.784656 0.000000 
0.000000 0.000000 0.000000 

-28.587884 -8.936839 0.000000 
0.000000 -21.297494 0.000000 
0.000000 0.000000 0.000000 

97.761591 39.079159 0.000000 
0.000000 137.424299 0.000000 
0.000000 0.000000 0.000000 

-103.545008 -5.113877 0.000000 
0.000000 -87.516932 0.000000 
0.000000 0.000000 0.000000 

151.221210 11.609528 0.000000 
0.000000 203.808010 0.000000 
0.000000 0.000000 0.000000 

33.286178 -2.747082 0.000000 
0.000000 52.029731 0.000000 
0.000000 0.000000 0.000000 

-0.565242 10.452513 0.000000 
0.000000 17.962893 0.000000 
0.000000 0.000000 0.000000 

-19.355598 -14.201295 0.000000 
0.000000 -2.137429 0.000000 
0.000000 0.000000 0.000000 

-16.848749 25.129177 0.000000 
0.000000 15.307909 0.000000 
0.000000 0.000000 0.000000 

-41.462559 3.549258 0.000000 
0.000000 -30.414072 0.000000 
0.000000 0.000000 0.000000 

232.571694 -7.978837 0.000000 
0.000000 265.291950 0.000000 
0.000000 0.000000 0.000000 

19.102278 10.856250 0.000000 
0.000000 37.240691 0.000000 
0.000000 0.000000 0.000000 

-116.699574 13.728265 0.000000 
0.000000 -93.590122 0.000000 
0.000000 0.000000 0.000000 

-56.013452 11.389783 0.000000 
0.000000 -3.443410 0.000000 
0.000000 0.000000 0.000000 

-55.578213 -0.788072 0.000000 
0.000000 -60.078698 0.000000 
0.000000 0.000000 0.000000 

203.690677 -0.741889 0.000000 
0.000000 242.300598 0.000000 
0.000000 0.000000 0.000000 

-8.461884 -3.349511 0.000000 
0.000000 4.988142 0.000000 
0.000000 0.000000 0.000000 

9.604489 -7.015662 0.000000 
0.000000 24.773785 0.000000 
0.000000 0.000000 0.000000 

-33.503169 0.987978 0.000000 
0.000000 -11.547187 0.000000 
0.000000 0.000000 0.000000 

-50.422998 -12.035401 0.000000 
0.000000 -45.415418 0.000000 
0.000000 0.000000 0.000000 

11.081068 33.538631 0.000000 
0.000000 26.223240 0.000000 
0.000000 0.000000 0.000000 

-145.155032 6.044702 0.000000 
0.000000 -127.292222 0.000000 
0.000000 0.000000 0.000000 

-90.299784 -2.495997 0.000000 
0.000000 -18.304286 0.000000 
0.000000 0.000000 0.000000 

288.590497 27.193262 0.000000 
0.000000 460.400193 0.000000 
0.000000 0.000000 0.000000 

-83.908334 7.225380 0.000000 
0.000000 -14.498725 0.000000 
0.000000 0.000000 0.000000 

-0.026248 0.000362 0.000000 
0.000000 -0.026083 0.000000 
0.000000 0.000000 0.000000 

-688.329209 -32.457046 0.000000 
0.000000 -414.139049 0.000000 
0.000000 0.000000 0.000000 

-183.060064 -201.754840 0.000000 
0.000000 50.523185 0.000000 
0.000000 0.000000 0.000000 

-19.631291 -31.555032 0.000000 
0.000000 7.580068 0.000000 
0.000000 0.000000 0.000000 

197.599759 19.014487 0.000000 
0.000000 220.516140 0.000000 
0.000000 0.000000 0.000000 

-0.000031 0.000001 0.000000 
0.000000 -0.000033 0.000000 
0.000000 0.000000 0.000000 

-0.003480 0.000230 0.000000 
0.000000 -0.003606 0.000000 
0.000000 0.000000 0.000000 

-128.511352 -3.818465 0.000000 
0.000000 -142.905374 0.000000 
0.000000 0.000000 0.000000 

3.113213 -19.872309 0.000000 
0.000000 3.438103 0.000000 
0.000000 0.000000 0.000000 

-67.102438 -12.159128 0.000000 
0.000000 -65.828393 0.000000 
0.000000 0.000000 0.000000 

17.019153 42.145306 0.000000 
0.000000 40.906967 0.000000 
0.000000 0.000000 0.000000 

-3.495125 4.354539 0.000000 
0.000000 7.661401 0.000000 
0.000000 0.000000 0.000000 

-0.000000 0.000000 0.000000 
0.000000 -0.000000 0.000000 
0.000000 0.000000 0.000000 

-0.180693 0.051483 0.000000 
0.000000 -0.230787 0.000000 
0.000000 0.000000 0.000000 

0.290279 -0.027808 0.000000 
0.000000 0.340272 0.000000 
0.000000 0.000000 0.000000 

-9.129596 6.242273 0.000000 
0.000000 -13.693330 0.000000 
0.000000 0.000000 0.000000 

-212.724034 34.608463 0.000000 
0.000000 -222.483202 0.000000 
0.000000 0.000000 0.000000 

-152.474608 13.654008 0.000000 
0.000000 -228.873061 0.000000 
0.000000 0.000000 0.000000 

-64.778232 78.984321 0.000000 
0.000000 -46.047650 0.000000 
0.000000 0.000000 0.000000 

-162.180988 38.196682 0.000000 
0.000000 -151.259113 0.000000 
0.000000 0.000000 0.000000 

757.272224 116.766522 0.000000 
0.000000 940.322980 0.000000 
0.000000 0.000000 0.000000 

-395.599014 -0.000002 0.000000 
0.000000 -213.407214 0.000000 
0.000000 0.000000 0.000000 

48.910057 -11.011123 0.000000 
0.000000 180.658014 0.000000 
0.000000 0.000000 0.000000 

-19.412496 -0.000000 0.000000 
0.000000 6.613588 0.000000 
0.000000 0.000000 0.000000 

48.910060 11.011120 0.000000 
0.000000 180.658011 0.000000 
0.000000 0.000000 0.000000 

-0.001624 -0.000042 0.000000 
0.000000 -0.001667 0.000000 
0.000000 0.000000 0.000000 

-100.378449 -4.072048 0.000000 
0.000000 -91.718325 0.000000 
0.000000 0.000000 0.000000 

-0.006542 0.000000 0.000000 
0.000000 -0.007131 0.000000 
0.000000 0.000000 0.000000 

-100.378457 4.072049 0.000000 
0.000000 -91.718331 0.000000 
0.000000 0.000000 0.000000 

-0.001624 0.000042 0.000000 
0.000000 -0.001667 0.000000 
0.000000 0.000000 0.000000 

-0.000000 -0.000000 0.000000 
0.000000 -0.000000 0.000000 
0.000000 0.000000 0.000000 

-0.000000 -0.000000 0.000000 
0.000000 -0.000000 0.000000 
0.000000 0.000000 0.000000 

-0.000000 -0.000000 0.000000 
0.000000 -0.000000 0.000000 
0.000000 0.000000 0.000000 

-0.000378 0.000000 0.000000 
0.000000 -0.000469 0.000000 
0.000000 0.000000 0.000000 

-0.000000 0.000000 0.000000 
0.000000 -0.000000 0.000000 
0.000000 0.000000 0.000000 

-0.000000 0.000000 0.000000 
0.000000 -0.000000 0.000000 
0.000000 0.000000 0.000000 

-0.000000 0.000000 0.000000 
0.000000 -0.000000 0.000000 
0.000000 0.000000 0.000000 

-0.000002 -0.000000 0.000000 
0.000000 -0.000003 0.000000 
0.000000 0.000000 0.000000 

-0.000000 -0.000000 0.000000 
0.000000 -0.000000 0.000000 
0.000000 0.000000 0.000000 

0.000000 0.000000 0.000000 
0.000000 0.000000 0.000000 
0.000000 0.000000 0.000000 

-0.000000 -0.000000 0.000000 
0.000000 -0.000000 0.000000 
0.000000 0.000000 0.000000 

-0.000880 0.000000 0.000000 
0.000000 -0.002295 0.000000 
0.000000 0.000000 0.000000 

-0.000000 0.000000 0.000000 
0.000000 -0.000000 0.000000 
0.000000 0.000000 0.000000 

0.000000 -0.000000 0.000000 
0.000000 0.000000 0.000000 
0.000000 0.000000 0.000000 

-0.000000 0.000000 0.000000 
0.000000 -0.000000 0.000000 
0.000000 0.000000 0.000000 

-0.000002 0.000000 0.000000 
0.000000 -0.000003 0.000000 
0.000000 0.000000 0.000000 

-145.155035 -6.044702 0.000000 
0.000000 -127.292225 0.000000 
0.000000 0.000000 0.000000 

-83.908319 -7.225381 0.000000 
0.000000 -14.498711 0.000000 
0.000000 0.000000 0.000000 

288.590484 -27.193265 0.000000 
0.000000 460.400166 0.000000 
0.000000 0.000000 0.000000 

-90.299781 2.495995 0.000000 
0.000000 -18.304282 0.000000 
0.000000 0.000000 0.000000 

197.599745 -19.014489 0.000000 
0.000000 220.516128 0.000000 
0.000000 0.000000 0.000000 

-19.631292 31.555034 0.000000 
0.000000 7.580070 0.000000 
0.000000 0.000000 0.000000 

-183.060066 201.754823 0.000000 
0.000000 50.523168 0.000000 
0.000000 0.000000 0.000000 

-688.329200 32.457039 0.000000 
0.000000 -414.139043 0.000000 
0.000000 0.000000 0.000000 

-0.026248 -0.000362 0.000000 
0.000000 -0.026083 0.000000 
0.000000 0.000000 0.000000 

-3.495135 -4.354539 0.000000 
0.000000 7.661391 0.000000 
0.000000 0.000000 0.000000 

17.019150 -42.145315 0.000000 
0.000000 40.906970 0.000000 
0.000000 0.000000 0.000000 

-67.102439 12.159127 0.000000 
0.000000 -65.828393 0.000000 
0.000000 0.000000 0.000000 

3.113217 19.872307 0.000000 
0.000000 3.438106 0.000000 
0.000000 0.000000 0.000000 

-128.511350 3.818463 0.000000 
0.000000 -142.905374 0.000000 
0.000000 0.000000 0.000000 

-0.003480 -0.000230 0.000000 
0.000000 -0.003606 0.000000 
0.000000 0.000000 0.000000 

-0.000031 -0.000001 0.000000 
0.000000 -0.000033 0.000000 
0.000000 0.000000 0.000000 

757.272262 -116.766489 0.000000 
0.000000 940.322988 0.000000 
0.000000 0.000000 0.000000 

-162.180993 -38.196673 0.000000 
0.000000 -151.259126 0.000000 
0.000000 0.000000 0.000000 

-64.778223 -78.984306 0.000000 
0.000000 -46.047643 0.000000 
0.000000 0.000000 0.000000 

-152.474565 -13.654000 0.000000 
0.000000 -228.873018 0.000000 
0.000000 0.000000 0.000000 

-212.724004 -34.608443 0.000000 
0.000000 -222.483168 0.000000 
0.000000 0.000000 0.000000 

-9.129599 -6.242276 0.000000 
0.000000 -13.693335 0.000000 
0.000000 0.000000 0.000000 

0.290285 0.027808 0.000000 
0.000000 0.340278 0.000000 
0.000000 0.000000 0.000000 

-0.180693 -0.051483 0.000000 
0.000000 -0.230787 0.000000 
0.000000 0.000000 0.000000 

-0.000000 -0.000000 0.000000 
0.000000 -0.000000 0.000000 
0.000000 0.000000 0.000000 

-42.210634 3.254485 0.000000 
0.000000 -36.209604 0.000000 
0.000000 0.000000 0.000000 

6.164399 -26.370928 0.000000 
0.000000 78.359595 0.000000 
0.000000 0.000000 0.000000 

31.104381 -11.316269 0.000000 
0.000000 77.956679 0.000000 
0.000000 0.000000 0.000000 

-78.438082 34.535554 0.000000 
0.000000 -38.224831 0.000000 
0.000000 0.000000 0.000000 

151.221216 -11.609529 0.000000 
0.000000 203.808015 0.000000 
0.000000 0.000000 0.000000 

-103.545005 5.113877 0.000000 
0.000000 -87.516929 0.000000 
0.000000 0.000000 0.000000 

97.761606 -39.079164 0.000000 
0.000000 137.424315 0.000000 
0.000000 0.000000 0.000000 

-28.587883 8.936839 0.000000 
0.000000 -21.297493 0.000000 
0.000000 0.000000 0.000000 

128.833479 -30.129150 0.000000 
0.000000 149.784643 0.000000 
0.000000 0.000000 0.000000 

19.102281 -10.856249 0.000000 
0.000000 37.240695 0.000000 
0.000000 0.000000 0.000000 

232.571692 7.978837 0.000000 
0.000000 265.291949 0.000000 
0.000000 0.000000 0.000000 

-41.462559 -3.549258 0.000000 
0.000000 -30.414071 0.000000 
0.000000 0.000000 0.000000 

-16.848747 -25.129174 0.000000 
0.000000 15.307909 0.000000 
0.000000 0.000000 0.000000 

-19.355596 14.201294 0.000000 
0.000000 -2.137426 0.000000 
0.000000 0.000000 0.000000 

-0.565248 -10.452513 0.000000 
0.000000 17.962888 0.000000 
0.000000 0.000000 0.000000 

33.286166 2.747083 0.000000 
0.000000 52.029719 0.000000 
0.000000 0.000000 0.000000 

11.081069 -33.538633 0.000000 
0.000000 26.223242 0.000000 
0.000000 0.000000 0.000000 

-50.423005 12.035400 0.000000 
0.000000 -45.415424 0.000000 
0.000000 0.000000 0.000000 

-33.503164 -0.987980 0.000000 
0.000000 -11.547184 0.000000 
0.000000 0.000000 0.000000 

9.604486 7.015661 0.000000 
0.000000 24.773782 0.000000 
0.000000 0.000000 0.000000 

-8.461893 3.349511 0.000000 
0.000000 4.988133 0.000000 
0.000000 0.000000 0.000000 

203.690658 0.741890 0.000000 
0.000000 242.300577 0.000000 
0.000000 0.000000 0.000000 

-55.578220 0.788071 0.000000 
0.000000 -60.078704 0.000000 
0.000000 0.000000 0.000000 

-56.013434 -11.389777 0.000000 
0.000000 -3.443399 0.000000 
0.000000 0.000000 0.000000 

-116.699557 -13.728262 0.000000 
0.000000 -93.590113 0.000000 
0.000000 0.000000 0.000000 

-27.357824 -2.985676 0.000000 
0.000000 16.804740 0.000000 
0.000000 0.000000 0.000000 

128.763830 1.147091 0.000000 
0.000000 175.418083 0.000000 
0.000000 0.000000 0.000000 

-46.385388 8.398148 0.000000 
0.000000 -9.963487 0.000000 
0.000000 0.000000 0.000000 

-6.252961 -0.098917 0.000000 
0.000000 19.809736 0.000000 
0.000000 0.000000 0.000000 

-5.978409 0.621701 0.000000 
0.000000 -8.739038 0.000000 
0.000000 0.000000 0.000000 

-4.239257 17.422639 0.000000 
0.000000 15.229811 0.000000 
0.000000 0.000000 0.000000 

-33.972775 3.485567 0.000000 
0.000000 -18.148951 0.000000 
0.000000 0.000000 0.000000 

107.278092 6.402385 0.000000 
0.000000 166.703029 0.000000 
0.000000 0.000000 0.000000 

94.188798 10.215958 0.000000 
0.000000 147.203124 0.000000 
0.000000 0.000000 0.000000 

137.589598 -1.826474 0.000000 
0.000000 98.623257 0.000000 
0.000000 0.000000 0.000000 

55.758132 9.546711 0.000000 
0.000000 51.115729 0.000000 
0.000000 0.000000 0.000000 

14.616046 -13.658927 0.000000 
0.000000 -1.220629 0.000000 
0.000000 0.000000 0.000000 

23.115183 -1.138482 0.000000 
0.000000 26.495210 0.000000 
0.000000 0.000000 0.000000 

6.941591 12.010739 0.000000 
0.000000 4.705613 0.000000 
0.000000 0.000000 0.000000 

-19.512688 2.410077 0.000000 
0.000000 -16.484440 0.000000 
0.000000 0.000000 0.000000 

-48.853774 -9.295464 0.000000 
0.000000 -38.962751 0.000000 
0.000000 0.000000 0.000000 

102.009688 -6.003366 0.000000 
0.000000 97.513156 0.000000 
0.000000 0.000000 0.000000 

30.800323 -2.474395 0.000000 
0.000000 13.570955 0.000000 
0.000000 0.000000 0.000000 

4.816989 -5.824008 0.000000 
0.000000 1.300814 0.000000 
0.000000 0.000000 0.000000 

13.392482 -9.503403 0.000000 
0.000000 0.993812 0.000000 
0.000000 0.000000 0.000000 

33.482398 -14.313357 0.000000 
0.000000 27.146639 0.000000 
0.000000 0.000000 0.000000 

-86.459574 -11.680965 0.000000 
0.000000 -74.461815 0.000000 
0.000000 0.000000 0.000000 

-46.062233 -20.724690 0.000000 
0.000000 -12.112391 0.000000 
0.000000 0.000000 0.000000 

175.434394 -54.818258 0.000000 
0.000000 239.513869 0.000000 
0.000000 0.000000 0.000000 

11.161216 -28.946207 0.000000 
0.000000 42.810569 0.000000 
0.000000 0.000000 0.000000 

TENSORS STRAIN float 
-0.122996 0.016473 0.000000 
0.000000 0.120667 0.000000 
0.000000 0.000000 0.000000 

-0.056330 0.000437 0.000000 
0.000000 0.058724 0.000000 
0.000000 0.000000 0.000000 

-0.092530 -0.040184 0.000000 
0.000000 0.081745 0.000000 
0.000000 0.000000 0.000000 

-0.035062 -0.002332 0.000000 
0.000000 0.059802 0.000000 
0.000000 0.000000 0.000000 

-0.053905 -0.025402 0.000000 
0.000000 0.077913 0.000000 
0.000000 0.000000 0.000000 

-0.057952 -0.015311 0.000000 
0.000000 0.084161 0.000000 
0.000000 0.000000 0.000000 

-0.036819 -0.014332 0.000000 
0.000000 0.028246 0.000000 
0.000000 0.000000 0.000000 

-0.032584 -0.059666 0.000000 
0.000000 0.034090 0.000000 
0.000000 0.000000 0.000000 

0.006048 -0.003463 0.000000 
0.000000 -0.009327 0.000000 
0.000000 0.000000 0.000000 

-0.034663 0.048077 0.000000 
0.000000 0.016495 0.000000 
0.000000 0.000000 0.000000 

-0.081953 -0.088409 0.000000 
0.000000 0.029133 0.000000 
0.000000 0.000000 0.000000 

0.008973 -0.079779 0.000000 
0.000000 -0.005879 0.000000 
0.000000 0.000000 0.000000 

-0.002716 0.004432 0.000000 
0.000000 0.010442 0.000000 
0.000000 0.000000 0.000000 

0.024166 0.040321 0.000000 
0.000000 -0.022584 0.000000 
0.000000 0.000000 0.000000 

0.022684 -0.048570 0.000000 
0.000000 -0.000935 0.000000 
0.000000 0.000000 0.000000 

0.062729 0.004733 0.000000 
0.000000 -0.038245 0.000000 
0.000000 0.000000 0.000000 

-0.068016 0.133521 0.000000 
0.000000 0.077974 0.000000 
0.000000 0.000000 0.000000 

-0.049735 0.114839 0.000000 
0.000000 0.084506 0.000000 
0.000000 0.000000 0.000000 

-0.118994 0.135961 0.000000 
0.000000 0.103728 0.000000 
0.000000 0.000000 0.000000 

-0.031381 0.039769 0.000000 
0.000000 0.009466 0.000000 
0.000000 0.000000 0.000000 

0.017710 0.057867 0.000000 
0.000000 -0.007905 0.000000 
0.000000 0.000000 0.000000 

0.026468 0.038776 0.000000 
0.000000 -0.024120 0.000000 
0.000000 0.000000 0.000000 

0.014583 0.045165 0.000000 
0.000000 -0.012685 0.000000 
0.000000 0.000000 0.000000 

0.046600 0.012135 0.000000 
0.000000 -0.037896 0.000000 
0.000000 0.000000 0.000000 

0.029519 0.028406 0.000000 
0.000000 0.008243 0.000000 
0.000000 0.000000 0.000000 

-0.215885 -0.153777 0.000000 
0.000000 0.067668 0.000000 
0.000000 0.000000 0.000000 

-0.109867 -0.169087 0.000000 
0.000000 0.087019 0.000000 
0.000000 0.000000 0.000000 

-0.097561 0.051966 0.000000 
0.000000 0.117594 0.000000 
0.000000 0.000000 0.000000 

-0.073432 0.056281 0.000000 
0.000000 0.080648 0.000000 
0.000000 0.000000 0.000000 

-0.017192 0.105640 0.000000 
0.000000 0.056268 0.000000 
0.000000 0.000000 0.000000 

-0.079030 -0.152120 0.000000 
0.000000 0.045065 0.000000 
0.000000 0.000000 0.000000 

-0.018899 0.048821 0.000000 
0.000000 0.030651 0.000000 
0.000000 0.000000 0.000000 

-0.100896 -0.043596 0.000000 
0.000000 0.035744 0.000000 
0.000000 0.000000 0.000000 

-0.043469 0.026294 0.000000 
0.000000 0.075633 0.000000 
0.000000 0.000000 0.000000 

-0.046592 -0.016697 0.000000 
0.000000 0.067334 0.000000 
0.000000 0.000000 0.000000 

-0.089076 0.104426 0.000000 
0.000000 0.096029 0.000000 
0.000000 0.000000 0.000000 

-0.054964 -0.086356 0.000000 
0.000000 0.049737 0.000000 
0.000000 0.000000 0.000000 

-0.067908 0.105932 0.000000 
0.000000 0.067648 0.000000 
0.000000 0.000000 0.000000 

-0.086140 0.043916 0.000000 
0.000000 0.050566 0.000000 
0.000000 0.000000 0.000000 

-0.013864 -0.017277 0.000000 
0.000000 0.056986 0.000000 
0.000000 0.000000 0.000000 

-0.031849 0.043534 0.000000 
0.000000 0.040887 0.000000 
0.000000 0.000000 0.000000 

-0.122043 0.106306 0.000000 
0.000000 0.056907 0.000000 
0.000000 0.000000 0.000000 

-0.073198 0.030345 0.000000 
0.000000 0.066862 0.000000 
0.000000 0.000000 0.000000 

-0.000800 -0.010029 0.000000 
0.000000 -0.058074 0.000000 
0.000000 0.000000 0.000000 

-0.014980 -0.001070 0.000000 
0.000000 0.040711 0.000000 
0.000000 0.000000 0.000000 

-0.034056 -0.016789 0.000000 
0.000000 0.033359 0.000000 
0.000000 0.000000 0.000000 

-0.035317 -0.035924 0.000000 
0.000000 0.042358 0.000000 
0.000000 0.000000 0.000000 

-0.062713 0.005216 0.000000 
0.000000 0.053199 0.000000 
0.000000 0.000000 0.000000 

-0.023452 -0.063852 0.000000 
0.000000 0.003114 0.000000 
0.000000 0.000000 0.000000 

-0.025788 0.126722 0.000000 
0.000000 0.031426 0.000000 
0.000000 0.000000 0.000000 

-0.147876 0.062159 0.000000 
0.000000 0.035811 0.000000 
0.000000 0.000000 0.000000 

-0.178648 -0.011682 0.000000 
0.000000 0.158316 0.000000 
0.000000 0.000000 0.000000 

-0.145421 0.055756 0.000000 
0.000000 0.206849 0.000000 
0.000000 0.000000 0.000000 

-0.134050 0.026411 0.000000 
0.000000 0.119662 0.000000 
0.000000 0.000000 0.000000 

-0.270563 0.086867 0.000000 
0.000000 -0.231047 0.000000 
0.000000 0.000000 0.000000 

-0.210457 -0.042922 0.000000 
0.000000 0.152139 0.000000 
0.000000 0.000000 0.000000 

-0.127217 -0.214887 0.000000 
0.000000 0.121571 0.000000 
0.000000 0.000000 0.000000 

-0.113805 -0.259348 0.000000 
0.000000 0.109843 0.000000 
0.000000 0.000000 0.000000 

-0.010583 0.065001 0.000000 
0.000000 0.067756 0.000000 
0.000000 0.000000 0.000000 

-0.010381 0.351025 0.000000 
0.000000 -0.618443 0.000000 
0.000000 0.000000 0.000000 

-0.178022 0.521375 0.000000 
0.000000 -0.464490 0.000000 
0.000000 0.000000 0.000000 

0.014502 -0.031308 0.000000 
0.000000 -0.103517 0.000000 
0.000000 0.000000 0.000000 

-0.000259 -0.164084 0.000000 
0.000000 0.002423 0.000000 
0.000000 0.000000 0.000000 

-0.037310 -0.137655 0.000000 
0.000000 -0.022887 0.000000 
0.000000 0.000000 0.000000 

-0.021227 0.082947 0.000000 
0.000000 0.025787 0.000000 
0.000000 0.000000 0.000000 

-0.075553 0.059873 0.000000 
0.000000 0.077844 0.000000 
0.000000 0.000000 0.000000 

0.497479 1.087979 0.000000 
0.000000 -0.982127 0.000000 
0.000000 0.000000 0.000000 

0.297228 0.909901 0.000000 
0.000000 -0.588127 0.000000 
0.000000 0.000000 0.000000 

0.713832 1.602729 0.000000 
0.000000 -2.167543 0.000000 
0.000000 0.000000 0.000000 

0.285880 0.977613 0.000000 
0.000000 -0.428854 0.000000 
0.000000 0.000000 0.000000 

-0.024269 0.219612 0.000000 
0.000000 -0.086197 0.000000 
0.000000 0.000000 0.000000 

0.056294 0.025142 0.000000 
0.000000 -0.084382 0.000000 
0.000000 0.000000 0.000000 

-0.110636 0.754505 0.000000 
0.000000 0.068289 0.000000 
0.000000 0.000000 0.000000 

-0.048391 0.157581 0.000000 
0.000000 -0.003333 0.000000 
0.000000 0.000000 0.000000 

-0.148345 0.300864 0.000000 
0.000000 0.323308 0.000000 
0.000000 0.000000 0.000000 

-0.137712 -0.000000 0.000000 
0.000000 0.105229 0.000000 
0.000000 0.000000 0.000000 

-0.144723 -0.026004 0.000000 
0.000000 0.166409 0.000000 
0.000000 0.000000 0.000000 

-0.148728 -0.000000 0.000000 
0.000000 0.142990 0.000000 
0.000000 0.000000 0.000000 

-0.144723 0.026004 0.000000 
0.000000 0.166409 0.000000 
0.000000 0.000000 0.000000 

-0.233597 -0.220999 0.000000 
0.000000 -0.455210 0.000000 
0.000000 0.000000 0.000000 

-0.094814 -0.047245 0.000000 
0.000000 0.005663 0.000000 
0.000000 0.000000 0.000000 

0.019477 0.000000 0.000000 
0.000000 -0.532507 0.000000 
0.000000 0.000000 0.000000 

-0.094814 0.047245 0.000000 
0.000000 0.005663 0.000000 
0.000000 0.000000 0.000000 

-0.233597 0.220999 0.000000 
0.000000 -0.455210 0.000000 
0.000000 0.000000 0.000000 

-0.094211 -0.433137 0.000000 
0.000000 -0.779704 0.000000 
0.000000 0.000000 0.000000 

-0.109460 -0.461474 0.000000 
0.000000 -0.696624 0.000000 
0.000000 0.000000 0.000000 

0.185873 -0.602084 0.000000 
0.000000 -0.943003 0.000000 
0.000000 0.000000 0.000000 

0.372452 0.000000 0.000000 
0.000000 -0.810933 0.000000 
0.000000 0.000000 0.000000 

0.185873 0.602084 0.000000 
0.000000 -0.943003 0.000000 
0.000000 0.000000 0.000000 

-0.109460 0.461474 0.000000 
0.000000 -0.696624 0.000000 
0.000000 0.000000 0.000000 

-0.094211 0.433137 0.000000 
0.000000 -0.779704 0.000000 
0.000000 0.000000 0.000000 

0.702695 -0.841276 0.000000 
0.000000 -1.128482 0.000000 
0.000000 0.000000 0.000000 

-0.190957 -0.707158 0.000000 
0.000000 -1.048328 0.000000 
0.000000 0.000000 0.000000 

-0.167818 -0.728727 0.000000 
0.000000 -1.436173 0.000000 
0.000000 0.000000 0.000000 

-0.023435 -0.635854 0.000000 
0.000000 -1.123728 0.000000 
0.000000 0.000000 0.000000 

1.211188 0.000000 0.000000 
0.000000 -1.450120 0.000000 
0.000000 0.000000 0.000000 

-0.023435 0.635854 0.000000 
0.000000 -1.123728 0.000000 
0.000000 0.000000 0.000000 

-0.167818 0.728728 0.000000 
0.000000 -1.436173 0.000000 
0.000000 0.000000 0.000000 

-0.190957 0.707158 0.000000 
0.000000 -1.048328 0.000000 
0.000000 0.000000 0.000000 

0.702695 0.841276 0.000000 
0.000000 -1.128482 0.000000 
0.000000 0.000000 0.000000 

-0.147876 -0.062159 0.000000 
0.000000 0.035811 0.000000 
0.000000 0.000000 0.000000 

-0.134050 -0.026411 0.000000 
0.000000 0.119662 0.000000 
0.000000 0.000000 0.000000 

-0.145421 -0.055756 0.000000 
0.000000 0.206849 0.000000 
0.000000 0.000000 0.000000 

-0.178648 0.011682 0.000000 
0.000000 0.158316 0.000000 
0.000000 0.000000 0.000000 

-0.010583 -0.065001 0.000000 
0.000000 0.067756 0.000000 
0.000000 0.000000 0.000000 

-0.113805 0.259348 0.000000 
0.000000 0.109843 0.000000 
0.000000 0.000000 0.000000 

-0.127217 0.214887 0.000000 
0.000000 0.121571 0.000000 
0.000000 0.000000 0.000000 

-0.210457 0.042922 0.000000 
0.000000 0.152139 0.000000 
0.000000 0.000000 0.000000 

-0.270563 -0.086867 0.000000 
0.000000 -0.231047 0.000000 
0.000000 0.000000 0.000000 

-0.075553 -0.059873 0.000000 
0.000000 0.077844 0.000000 
0.000000 0.000000 0.000000 

-0.021227 -0.082947 0.000000 
0.000000 0.025787 0.000000 
0.000000 0.000000 0.000000 

-0.037310 0.137655 0.000000 
0.000000 -0.022887 0.000000 
0.000000 0.000000 0.000000 

-0.000259 0.164084 0.000000 
0.000000 0.002423 0.000000 
0.000000 0.000000 0.000000 

0.014502 0.031308 0.000000 
0.000000 -0.103517 0.000000 
0.000000 0.000000 0.000000 

-0.178022 -0.521375 0.000000 
0.000000 -0.464490 0.000000 
0.000000 0.000000 0.000000 

-0.010381 -0.351025 0.000000 
0.000000 -0.618443 0.000000 
0.000000 0.000000 0.000000 

-0.148345 -0.300863 0.000000 
0.000000 0.323308 0.000000 
0.000000 0.000000 0.000000 

-0.048391 -0.157581 0.000000 
0.000000 -0.003333 0.000000 
0.000000 0.000000 0.000000 

-0.110636 -0.754504 0.000000 
0.000000 0.068289 0.000000 
0.000000 0.000000 0.000000 

0.056294 -0.025142 0.000000 
0.000000 -0.084382 0.000000 
0.000000 0.000000 0.000000 

-0.024269 -0.219612 0.000000 
0.000000 -0.086197 0.000000 
0.000000 0.000000 0.000000 

0.285880 -0.977613 0.000000 
0.000000 -0.428854 0.000000 
0.000000 0.000000 0.000000 

0.713832 -1.602729 0.000000 
0.000000 -2.167543 0.000000 
0.000000 0.000000 0.000000 

0.297228 -0.909901 0.000000 
0.000000 -0.588127 0.000000 
0.000000 0.000000 0.000000 

0.497479 -1.087979 0.000000 
0.000000 -0.982127 0.000000 
0.000000 0.000000 0.000000 

-0.215885 0.153777 0.000000 
0.000000 0.067668 0.000000 
0.000000 0.000000 0.000000 

-0.073432 -0.056281 0.000000 
0.000000 0.080648 0.000000 
0.000000 0.000000 0.000000 

-0.097561 -0.051966 0.000000 
0.000000 0.117594 0.000000 
0.000000 0.000000 0.000000 

-0.109867 0.169087 0.000000 
0.000000 0.087019 0.000000 
0.000000 0.000000 0.000000 

-0.043469 -0.026294 0.000000 
0.000000 0.075633 0.000000 
0.000000 0.000000 0.000000 

-0.100896 0.043596 0.000000 
0.000000 0.035744 0.000000 
0.000000 0.000000 0.000000 

-0.018899 -0.048821 0.000000 
0.000000 0.030651 0.000000 
0.000000 0.000000 0.000000 

-0.079030 0.152120 0.000000 
0.000000 0.045065 0.000000 
0.000000 0.000000 0.000000 

-0.017192 -0.105640 0.000000 
0.000000 0.056268 0.000000 
0.000000 0.000000 0.000000 

-0.031849 -0.043534 0.000000 
0.000000 0.040887 0.000000 
0.000000 0.000000 0.000000 

-0.013864 0.017277 0.000000 
0.000000 0.056986 0.000000 
0.000000 0.000000 0.000000 

-0.086140 -0.043916 0.000000 
0.000000 0.050566 0.000000 
0.000000 0.000000 0.000000 

-0.067908 -0.105932 0.000000 
0.000000 0.067648 0.000000 
0.000000 0.000000 0.000000 

-0.054964 0.086356 0.000000 
0.000000 0.049737 0.000000 
0.000000 0.000000 0.000000 

-0.089076 -0.104426 0.000000 
0.000000 0.096029 0.000000 
0.000000 0.000000 0.000000 

-0.046592 0.016697 0.000000 
0.000000 0.067334 0.000000 
0.000000 0.000000 0.000000 

-0.025788 -0.126722 0.000000 
0.000000 0.031426 0.000000 
0.000000 0.000000 0.000000 

-0.023452 0.063852 0.000000 
0.000000 0.003114 0.000000 
0.000000 0.000000 0.000000 

-0.062713 -0.005216 0.000000 
0.000000 0.053199 0.000000 
0.000000 0.000000 0.000000 

-0.035317 0.035924 0.000000 
0.000000 0.042358 0.000000 
0.000000 0.000000 0.000000 

-0.034056 0.016789 0.000000 
0.000000 0.033359 0.000000 
0.000000 0.000000 0.000000 

-0.014980 0.001070 0.000000 
0.000000 0.040711 0.000000 
0.000000 0.000000 0.000000 

-0.000800 0.010029 0.000000 
0.000000 -0.058074 0.000000 
0.000000 0.000000 0.000000 

-0.073198 -0.030345 0.000000 
0.000000 0.066862 0.000000 
0.000000 0.000000 0.000000 

-0.122043 -0.106306 0.000000 
0.000000 0.056907 0.000000 
0.000000 0.000000 0.000000 

-0.122996 -0.016473 0.000000 
0.000000 0.120667 0.000000 
0.000000 0.000000 0.000000 

-0.035062 0.002332 0.000000 
0.000000 0.059802 0.000000 
0.000000 0.000000 0.000000 

-0.092530 0.040184 0.000000 
0.000000 0.081745 0.000000 
0.000000 0.000000 0.000000 

-0.056330 -0.000437 0.000000 
0.000000 0.058724 0.000000 
0.000000 0.000000 0.000000 

0.006048 0.003463 0.000000 
0.000000 -0.009327 0.000000 
0.000000 0.000000 0.000000 

-0.032584 0.059666 0.000000 
0.000000 0.034090 0.000000 
0.000000 0.000000 0.000000 

-0.036819 0.014332 0.000000 
0.000000 0.028246 0.000000 
0.000000 0.000000 0.000000 

-0.057952 0.015311 0.000000 
0.000000 0.084161 0.000000 
0.000000 0.000000 0.000000 

-0.053905 0.025402 0.000000 
0.000000 0.077913 0.000000 
0.000000 0.000000 0.000000 

0.062729 -0.004733 0.000000 
0.000000 -0.038245 0.000000 
0.000000 0.000000 0.000000 

0.022684 0.048570 0.000000 
0.000000 -0.000935 0.000000 
0.000000 0.000000 0.000000 

0.024166 -0.040321 0.000000 
0.000000 -0.022584 0.000000 
0.000000 0.000000 0.000000 

-0.002716 -0.004432 0.000000 
0.000000 0.010442 0.000000 
0.000000 0.000000 0.000000 

0.008973 0.079779 0.000000 
0.000000 -0.005879 0.000000 
0.000000 0.000000 0.000000 

-0.081953 0.088409 0.000000 
0.000000 0.029133 0.000000 
0.000000 0.000000 0.000000 

-0.034663 -0.048077 0.000000 
0.000000 0.016495 0.000000 
0.000000 0.000000 0.000000 

0.029519 -0.028406 0.000000 
0.000000 0.008243 0.000000 
0.000000 0.000000 0.000000 

0.046600 -0.012135 0.000000 
0.000000 -0.037896 0.000000 
0.000000 0.000000 0.000000 

0.014583 -0.045165 0.000000 
0.000000 -0.012685 0.000000 
0.000000 0.000000 0.000000 

0.026468 -0.038776 0.000000 
0.000000 -0.024120 0.000000 
0.000000 0.000000 0.000000 

0.017710 -0.057867 0.000000 
0.000000 -0.007905 0.000000 
0.000000 0.000000 0.000000 

-0.031381 -0.039769 0.000000 
0.000000 0.009466 0.000000 
0.000000 0.000000 0.000000 

-0.118994 -0.135961 0.000000 
0.000000 0.103728 0.000000 
0.000000 0.000000 0.000000 

-0.049735 -0.114839 0.000000 
0.000000 0.084506 0.000000 
0.000000 0.000000 0.000000 

-0.068016 -0.133521 0.000000 
0.000000 0.077974 0.000000 
0.000000 0.000000 0.000000 

