# vtk DataFile Version 3.0 
vtk output 
ASCII 
DATASET UNSTRUCTURED_GRID 
POINTS 184 float 
-0.029668 -2.039977 0.000000 
-0.363106 -2.908796 0.000000 
0.473455 -2.538440 0.000000 
-0.445349 -2.351030 0.000000 
0.183256 -3.095694 0.000000 
0.220505 -2.092524 0.000000 
-0.286293 -2.132448 0.000000 
-0.111487 -3.135124 0.000000 
0.418035 -2.288080 0.000000 
-0.464511 -2.614511 0.000000 
0.392729 -2.825257 0.000000 
-0.164201 -2.068317 0.000000 
-0.235070 -3.036035 0.000000 
0.464018 -2.412652 0.000000 
-0.472573 -2.487106 0.000000 
0.292990 -2.964345 0.000000 
0.095476 -2.049874 0.000000 
-0.376872 -2.223880 0.000000 
0.052694 -3.158536 0.000000 
0.337289 -2.172227 0.000000 
-0.426538 -2.736458 0.000000 
0.445931 -2.669116 0.000000 
-0.119267 -2.055093 0.000000 
-0.313075 -2.954037 0.000000 
0.473077 -2.492488 0.000000 
-0.458690 -2.399194 0.000000 
0.256661 -3.018151 0.000000 
0.173867 -2.073792 0.000000 
-0.347034 -2.187245 0.000000 
-0.058189 -3.144307 0.000000 
0.367619 -2.208172 0.000000 
-0.452566 -2.656525 0.000000 
0.427804 -2.717423 0.000000 
-0.208259 -2.086964 0.000000 
-0.158857 -3.105756 0.000000 
0.437894 -2.332464 0.000000 
-0.472906 -2.532257 0.000000 
0.338374 -2.933948 0.000000 
0.016121 -2.039586 0.000000 
-0.425939 -2.305532 0.000000 
0.104363 -3.145010 0.000000 
0.301621 -2.142308 0.000000 
-0.392637 -2.846626 0.000000 
0.458602 -2.626270 0.000000 
-0.079328 -2.070246 0.000000 
0.368461 -2.254816 0.000000 
0.046183 -2.066143 0.000000 
0.213934 -2.982125 0.000000 
-0.170597 -3.006165 0.000000 
-0.377472 -2.775879 0.000000 
0.389211 -2.732552 0.000000 
-0.306969 -2.184469 0.000000 
-0.386385 -2.285094 0.000000 
0.424847 -2.373037 0.000000 
0.137228 -2.086012 0.000000 
0.123086 -3.036758 0.000000 
-0.261584 -2.925871 0.000000 
-0.416631 -2.674488 0.000000 
0.439936 -2.585160 0.000000 
0.334237 -2.845913 0.000000 
-0.009625 -3.030032 0.000000 
-0.227390 -2.123032 0.000000 
-0.442961 -2.437962 0.000000 
-0.445158 -2.565714 0.000000 
0.255334 -2.141092 0.000000 
0.445323 -2.462736 0.000000 
-0.080492 -2.124720 0.000000 
-0.131759 -2.169067 0.000000 
-0.193238 -2.164503 0.000000 
-0.112853 -2.228897 0.000000 
-0.225255 -2.220426 0.000000 
-0.172293 -2.257763 0.000000 
-0.056480 -2.243041 0.000000 
-0.280264 -2.231367 0.000000 
-0.041025 -2.299244 0.000000 
-0.015916 -2.201144 0.000000 
-0.297756 -2.291404 0.000000 
-0.349464 -2.322182 0.000000 
-0.351319 -2.389682 0.000000 
-0.255923 -2.330501 0.000000 
-0.391230 -2.438319 0.000000 
-0.369886 -2.495920 0.000000 
-0.285831 -2.388620 0.000000 
-0.394858 -2.551599 0.000000 
-0.360302 -2.593715 0.000000 
-0.313392 -2.494909 0.000000 
-0.370555 -2.647378 0.000000 
-0.323374 -2.676228 0.000000 
-0.307492 -2.554392 0.000000 
-0.319088 -2.740631 0.000000 
-0.260813 -2.766878 0.000000 
-0.272284 -2.651709 0.000000 
-0.237453 -2.839357 0.000000 
-0.173733 -2.841631 0.000000 
-0.232957 -2.698560 0.000000 
-0.135695 -2.905291 0.000000 
-0.073510 -2.879855 0.000000 
-0.145636 -2.777765 0.000000 
-0.017370 -2.918608 0.000000 
0.038352 -2.882627 0.000000 
-0.084001 -2.801273 0.000000 
0.095768 -2.920483 0.000000 
0.134555 -2.863715 0.000000 
0.028551 -2.813182 0.000000 
0.195791 -2.877259 0.000000 
0.226812 -2.803916 0.000000 
0.091161 -2.799605 0.000000 
0.283108 -2.784405 0.000000 
0.296067 -2.711667 0.000000 
0.191012 -2.743694 0.000000 
0.347459 -2.683874 0.000000 
0.346336 -2.627643 0.000000 
0.235137 -2.693417 0.000000 
0.387219 -2.583311 0.000000 
0.369168 -2.527914 0.000000 
0.293005 -2.606849 0.000000 
0.394652 -2.477318 0.000000 
0.360771 -2.432355 0.000000 
0.306785 -2.549352 0.000000 
0.372683 -2.378620 0.000000 
0.325948 -2.337921 0.000000 
0.304551 -2.444207 0.000000 
0.320090 -2.276227 0.000000 
0.260990 -2.247427 0.000000 
0.282123 -2.383628 0.000000 
0.233053 -2.189244 0.000000 
0.170087 -2.183223 0.000000 
0.218787 -2.289354 0.000000 
0.132087 -2.136756 0.000000 
0.077102 -2.146838 0.000000 
0.032740 -2.112071 0.000000 
-0.021130 -2.142420 0.000000 
0.166109 -2.250727 0.000000 
0.046922 -2.201327 0.000000 
-0.185576 -2.307679 0.000000 
-0.268096 -2.437649 0.000000 
-0.037814 -2.773211 0.000000 
0.232529 -2.647384 0.000000 
0.277284 -2.510830 0.000000 
0.116312 -2.748670 0.000000 
0.234021 -2.364226 0.000000 
-0.266355 -2.584043 0.000000 
-0.181235 -2.703891 0.000000 
-0.081527 -2.341504 0.000000 
0.015031 -2.313791 0.000000 
-0.142786 -2.344565 0.000000 
-0.171367 -2.403063 0.000000 
-0.215766 -2.441611 0.000000 
-0.205183 -2.502109 0.000000 
-0.129798 -2.439343 0.000000 
-0.218222 -2.558513 0.000000 
-0.148159 -2.494353 0.000000 
-0.173730 -2.601453 0.000000 
-0.077579 -2.405595 0.000000 
-0.154531 -2.656510 0.000000 
-0.125502 -2.574553 0.000000 
-0.074287 -2.599407 0.000000 
-0.112890 -2.523458 0.000000 
-0.052203 -2.507291 0.000000 
-0.031619 -2.558523 0.000000 
-0.035195 -2.444744 0.000000 
0.030554 -2.370846 0.000000 
0.062337 -2.257589 0.000000 
-0.088173 -2.655175 0.000000 
0.008402 -2.428978 0.000000 
0.051101 -2.476716 0.000000 
0.053363 -2.530281 0.000000 
0.097540 -2.448663 0.000000 
0.011601 -2.571764 0.000000 
0.028860 -2.626716 0.000000 
0.018942 -2.677948 0.000000 
0.078342 -2.703426 0.000000 
0.083313 -2.626304 0.000000 
0.117624 -2.662378 0.000000 
0.178184 -2.636220 0.000000 
0.098400 -2.571243 0.000000 
0.164965 -2.458829 0.000000 
0.087366 -2.391125 0.000000 
0.160710 -2.573187 0.000000 
0.190731 -2.402156 0.000000 
0.131552 -2.358948 0.000000 
0.121985 -2.282142 0.000000 
-0.039666 -2.693889 0.000000 
0.196846 -2.517389 0.000000 
CELLS 184 368 
1 0 
1 1 
1 2 
1 3 
1 4 
1 5 
1 6 
1 7 
1 8 
1 9 
1 10 
1 11 
1 12 
1 13 
1 14 
1 15 
1 16 
1 17 
1 18 
1 19 
1 20 
1 21 
1 22 
1 23 
1 24 
1 25 
1 26 
1 27 
1 28 
1 29 
1 30 
1 31 
1 32 
1 33 
1 34 
1 35 
1 36 
1 37 
1 38 
1 39 
1 40 
1 41 
1 42 
1 43 
1 44 
1 45 
1 46 
1 47 
1 48 
1 49 
1 50 
1 51 
1 52 
1 53 
1 54 
1 55 
1 56 
1 57 
1 58 
1 59 
1 60 
1 61 
1 62 
1 63 
1 64 
1 65 
1 66 
1 67 
1 68 
1 69 
1 70 
1 71 
1 72 
1 73 
1 74 
1 75 
1 76 
1 77 
1 78 
1 79 
1 80 
1 81 
1 82 
1 83 
1 84 
1 85 
1 86 
1 87 
1 88 
1 89 
1 90 
1 91 
1 92 
1 93 
1 94 
1 95 
1 96 
1 97 
1 98 
1 99 
1 100 
1 101 
1 102 
1 103 
1 104 
1 105 
1 106 
1 107 
1 108 
1 109 
1 110 
1 111 
1 112 
1 113 
1 114 
1 115 
1 116 
1 117 
1 118 
1 119 
1 120 
1 121 
1 122 
1 123 
1 124 
1 125 
1 126 
1 127 
1 128 
1 129 
1 130 
1 131 
1 132 
1 133 
1 134 
1 135 
1 136 
1 137 
1 138 
1 139 
1 140 
1 141 
1 142 
1 143 
1 144 
1 145 
1 146 
1 147 
1 148 
1 149 
1 150 
1 151 
1 152 
1 153 
1 154 
1 155 
1 156 
1 157 
1 158 
1 159 
1 160 
1 161 
1 162 
1 163 
1 164 
1 165 
1 166 
1 167 
1 168 
1 169 
1 170 
1 171 
1 172 
1 173 
1 174 
1 175 
1 176 
1 177 
1 178 
1 179 
1 180 
1 181 
1 182 
1 183 
CELL_TYPES 184 
1 
1 
1 
1 
1 
1 
1 
1 
1 
1 
1 
1 
1 
1 
1 
1 
1 
1 
1 
1 
1 
1 
1 
1 
1 
1 
1 
1 
1 
1 
1 
1 
1 
1 
1 
1 
1 
1 
1 
1 
1 
1 
1 
1 
1 
1 
1 
1 
1 
1 
1 
1 
1 
1 
1 
1 
1 
1 
1 
1 
1 
1 
1 
1 
1 
1 
1 
1 
1 
1 
1 
1 
1 
1 
1 
1 
1 
1 
1 
1 
1 
1 
1 
1 
1 
1 
1 
1 
1 
1 
1 
1 
1 
1 
1 
1 
1 
1 
1 
1 
1 
1 
1 
1 
1 
1 
1 
1 
1 
1 
1 
1 
1 
1 
1 
1 
1 
1 
1 
1 
1 
1 
1 
1 
1 
1 
1 
1 
1 
1 
1 
1 
1 
1 
1 
1 
1 
1 
1 
1 
1 
1 
1 
1 
1 
1 
1 
1 
1 
1 
1 
1 
1 
1 
1 
1 
1 
1 
1 
1 
1 
1 
1 
1 
1 
1 
1 
1 
1 
1 
1 
1 
1 
1 
1 
1 
1 
1 
1 
1 
1 
1 
1 
1 
POINT_DATA 184 
VECTORS X_GC float 
-0.029668 -2.039977 0.000000 
-0.363106 -2.908796 0.000000 
0.473455 -2.538440 0.000000 
-0.445349 -2.351030 0.000000 
0.183256 -3.095694 0.000000 
0.220505 -2.092524 0.000000 
-0.286293 -2.132448 0.000000 
-0.111487 -3.135124 0.000000 
0.418035 -2.288080 0.000000 
-0.464511 -2.614511 0.000000 
0.392729 -2.825257 0.000000 
-0.164201 -2.068317 0.000000 
-0.235070 -3.036035 0.000000 
0.464018 -2.412652 0.000000 
-0.472573 -2.487106 0.000000 
0.292990 -2.964345 0.000000 
0.095476 -2.049874 0.000000 
-0.376872 -2.223880 0.000000 
0.052694 -3.158536 0.000000 
0.337289 -2.172227 0.000000 
-0.426538 -2.736458 0.000000 
0.445931 -2.669116 0.000000 
-0.119267 -2.055093 0.000000 
-0.313075 -2.954037 0.000000 
0.473077 -2.492488 0.000000 
-0.458690 -2.399194 0.000000 
0.256661 -3.018151 0.000000 
0.173867 -2.073792 0.000000 
-0.347034 -2.187245 0.000000 
-0.058189 -3.144307 0.000000 
0.367619 -2.208172 0.000000 
-0.452566 -2.656525 0.000000 
0.427804 -2.717423 0.000000 
-0.208259 -2.086964 0.000000 
-0.158857 -3.105756 0.000000 
0.437894 -2.332464 0.000000 
-0.472906 -2.532257 0.000000 
0.338374 -2.933948 0.000000 
0.016121 -2.039586 0.000000 
-0.425939 -2.305532 0.000000 
0.104363 -3.145010 0.000000 
0.301621 -2.142308 0.000000 
-0.392637 -2.846626 0.000000 
0.458602 -2.626270 0.000000 
-0.079328 -2.070246 0.000000 
0.368461 -2.254816 0.000000 
0.046183 -2.066143 0.000000 
0.213934 -2.982125 0.000000 
-0.170597 -3.006165 0.000000 
-0.377472 -2.775879 0.000000 
0.389211 -2.732552 0.000000 
-0.306969 -2.184469 0.000000 
-0.386385 -2.285094 0.000000 
0.424847 -2.373037 0.000000 
0.137228 -2.086012 0.000000 
0.123086 -3.036758 0.000000 
-0.261584 -2.925871 0.000000 
-0.416631 -2.674488 0.000000 
0.439936 -2.585160 0.000000 
0.334237 -2.845913 0.000000 
-0.009625 -3.030032 0.000000 
-0.227390 -2.123032 0.000000 
-0.442961 -2.437962 0.000000 
-0.445158 -2.565714 0.000000 
0.255334 -2.141092 0.000000 
0.445323 -2.462736 0.000000 
-0.080492 -2.124720 0.000000 
-0.131759 -2.169067 0.000000 
-0.193238 -2.164503 0.000000 
-0.112853 -2.228897 0.000000 
-0.225255 -2.220426 0.000000 
-0.172293 -2.257763 0.000000 
-0.056480 -2.243041 0.000000 
-0.280264 -2.231367 0.000000 
-0.041025 -2.299244 0.000000 
-0.015916 -2.201144 0.000000 
-0.297756 -2.291404 0.000000 
-0.349464 -2.322182 0.000000 
-0.351319 -2.389682 0.000000 
-0.255923 -2.330501 0.000000 
-0.391230 -2.438319 0.000000 
-0.369886 -2.495920 0.000000 
-0.285831 -2.388620 0.000000 
-0.394858 -2.551599 0.000000 
-0.360302 -2.593715 0.000000 
-0.313392 -2.494909 0.000000 
-0.370555 -2.647378 0.000000 
-0.323374 -2.676228 0.000000 
-0.307492 -2.554392 0.000000 
-0.319088 -2.740631 0.000000 
-0.260813 -2.766878 0.000000 
-0.272284 -2.651709 0.000000 
-0.237453 -2.839357 0.000000 
-0.173733 -2.841631 0.000000 
-0.232957 -2.698560 0.000000 
-0.135695 -2.905291 0.000000 
-0.073510 -2.879855 0.000000 
-0.145636 -2.777765 0.000000 
-0.017370 -2.918608 0.000000 
0.038352 -2.882627 0.000000 
-0.084001 -2.801273 0.000000 
0.095768 -2.920483 0.000000 
0.134555 -2.863715 0.000000 
0.028551 -2.813182 0.000000 
0.195791 -2.877259 0.000000 
0.226812 -2.803916 0.000000 
0.091161 -2.799605 0.000000 
0.283108 -2.784405 0.000000 
0.296067 -2.711667 0.000000 
0.191012 -2.743694 0.000000 
0.347459 -2.683874 0.000000 
0.346336 -2.627643 0.000000 
0.235137 -2.693417 0.000000 
0.387219 -2.583311 0.000000 
0.369168 -2.527914 0.000000 
0.293005 -2.606849 0.000000 
0.394652 -2.477318 0.000000 
0.360771 -2.432355 0.000000 
0.306785 -2.549352 0.000000 
0.372683 -2.378620 0.000000 
0.325948 -2.337921 0.000000 
0.304551 -2.444207 0.000000 
0.320090 -2.276227 0.000000 
0.260990 -2.247427 0.000000 
0.282123 -2.383628 0.000000 
0.233053 -2.189244 0.000000 
0.170087 -2.183223 0.000000 
0.218787 -2.289354 0.000000 
0.132087 -2.136756 0.000000 
0.077102 -2.146838 0.000000 
0.032740 -2.112071 0.000000 
-0.021130 -2.142420 0.000000 
0.166109 -2.250727 0.000000 
0.046922 -2.201327 0.000000 
-0.185576 -2.307679 0.000000 
-0.268096 -2.437649 0.000000 
-0.037814 -2.773211 0.000000 
0.232529 -2.647384 0.000000 
0.277284 -2.510830 0.000000 
0.116312 -2.748670 0.000000 
0.234021 -2.364226 0.000000 
-0.266355 -2.584043 0.000000 
-0.181235 -2.703891 0.000000 
-0.081527 -2.341504 0.000000 
0.015031 -2.313791 0.000000 
-0.142786 -2.344565 0.000000 
-0.171367 -2.403063 0.000000 
-0.215766 -2.441611 0.000000 
-0.205183 -2.502109 0.000000 
-0.129798 -2.439343 0.000000 
-0.218222 -2.558513 0.000000 
-0.148159 -2.494353 0.000000 
-0.173730 -2.601453 0.000000 
-0.077579 -2.405595 0.000000 
-0.154531 -2.656510 0.000000 
-0.125502 -2.574553 0.000000 
-0.074287 -2.599407 0.000000 
-0.112890 -2.523458 0.000000 
-0.052203 -2.507291 0.000000 
-0.031619 -2.558523 0.000000 
-0.035195 -2.444744 0.000000 
0.030554 -2.370846 0.000000 
0.062337 -2.257589 0.000000 
-0.088173 -2.655175 0.000000 
0.008402 -2.428978 0.000000 
0.051101 -2.476716 0.000000 
0.053363 -2.530281 0.000000 
0.097540 -2.448663 0.000000 
0.011601 -2.571764 0.000000 
0.028860 -2.626716 0.000000 
0.018942 -2.677948 0.000000 
0.078342 -2.703426 0.000000 
0.083313 -2.626304 0.000000 
0.117624 -2.662378 0.000000 
0.178184 -2.636220 0.000000 
0.098400 -2.571243 0.000000 
0.164965 -2.458829 0.000000 
0.087366 -2.391125 0.000000 
0.160710 -2.573187 0.000000 
0.190731 -2.402156 0.000000 
0.131552 -2.358948 0.000000 
0.121985 -2.282142 0.000000 
-0.039666 -2.693889 0.000000 
0.196846 -2.517389 0.000000 
VECTORS X_EC float 
-0.802211 0.599848 0.000000 
-0.579292 0.391971 0.000000 
-0.156367 -0.077064 0.000000 
-0.031005 0.673533 0.000000 
-0.248183 0.946404 0.000000 
-0.470035 0.950161 0.000000 
0.908623 -0.783677 0.000000 
-0.208874 0.964511 0.000000 
0.213100 0.253867 0.000000 
0.096740 0.430072 0.000000 
0.381805 -0.164952 0.000000 
0.094675 0.788778 0.000000 
0.626334 0.986501 0.000000 
-0.093454 -0.915655 0.000000 
0.150490 -0.419295 0.000000 
-0.953264 0.762301 0.000000 
0.363493 0.665823 0.000000 
-0.487521 -0.174130 0.000000 
0.674495 0.937567 0.000000 
0.751406 -0.518490 0.000000 
-0.156415 -0.756944 0.000000 
0.027129 0.794104 0.000000 
-0.204884 0.700618 0.000000 
-0.912830 0.693582 0.000000 
-0.153849 -0.383413 0.000000 
0.057936 0.994623 0.000000 
-0.678778 0.992812 0.000000 
-0.159113 0.825277 0.000000 
-0.686438 -0.418368 0.000000 
-0.572427 0.921027 0.000000 
0.549204 -0.278852 0.000000 
0.017110 0.710164 0.000000 
0.147975 -0.883849 0.000000 
0.388390 0.913096 0.000000 
0.119212 0.951185 0.000000 
0.080708 0.549759 0.000000 
0.152708 -0.118287 0.000000 
0.744175 0.559650 0.000000 
0.892527 0.597237 0.000000 
-0.160410 0.370214 0.000000 
0.304228 0.957028 0.000000 
0.989195 -0.717946 0.000000 
-0.382418 -0.022494 0.000000 
-0.057346 0.508467 0.000000 
-0.471148 0.801642 0.000000 
0.543595 0.032104 0.000000 
0.692114 0.774285 0.000000 
-0.426227 0.880833 0.000000 
0.144528 0.997078 0.000000 
-0.483520 -0.494139 0.000000 
0.405263 -0.782984 0.000000 
-0.953538 -0.436872 0.000000 
-0.424098 0.233961 0.000000 
0.167684 0.820248 0.000000 
0.085145 0.906747 0.000000 
0.184510 0.990440 0.000000 
0.743891 0.505805 0.000000 
-0.222458 0.829921 0.000000 
0.067091 0.234403 0.000000 
0.771754 -0.027248 0.000000 
-0.895255 0.999530 0.000000 
0.515932 -0.846451 0.000000 
-0.046928 -0.746919 0.000000 
-0.032278 0.104757 0.000000 
-0.702230 -0.726050 0.000000 
0.031179 -0.581762 0.000000 
-0.463389 -0.835200 0.000000 
-0.121607 -0.539554 0.000000 
0.288252 -0.569983 0.000000 
-0.247649 -0.140688 0.000000 
0.501699 -0.197158 0.000000 
0.148621 0.051755 0.000000 
-0.623468 -0.046391 0.000000 
0.868425 -0.124222 0.000000 
-0.726502 0.328294 0.000000 
-0.893890 -0.325707 0.000000 
0.985042 0.276029 0.000000 
-0.670238 0.481211 0.000000 
-0.657871 0.931215 0.000000 
0.706155 0.536673 0.000000 
-0.391801 -0.744538 0.000000 
-0.534097 -0.360536 0.000000 
0.905542 0.924133 0.000000 
-0.367617 0.010662 0.000000 
-0.597984 0.291436 0.000000 
-0.910719 -0.367275 0.000000 
-0.529633 0.649188 0.000000 
-0.844176 0.841517 0.000000 
-0.950056 0.029281 0.000000 
-0.872748 -0.729127 0.000000 
0.738752 -0.554146 0.000000 
0.815226 0.678060 0.000000 
0.583021 -0.070954 0.000000 
0.158217 -0.055792 0.000000 
0.553045 0.990401 0.000000 
-0.095367 0.368609 0.000000 
-0.509933 0.199034 0.000000 
-0.029091 -0.481569 0.000000 
-0.884200 0.457385 0.000000 
0.744323 0.217511 0.000000 
-0.439994 -0.324848 0.000000 
0.361548 0.469887 0.000000 
0.102965 0.091436 0.000000 
0.809663 -0.245453 0.000000 
-0.305270 0.181725 0.000000 
-0.512078 -0.307229 0.000000 
0.392260 -0.335969 0.000000 
-0.887385 -0.437303 0.000000 
-0.973781 -0.922218 0.000000 
-0.273410 -0.708709 0.000000 
0.683608 0.892491 0.000000 
0.691093 0.517623 0.000000 
-0.567577 0.956111 0.000000 
0.418543 0.222071 0.000000 
0.538879 -0.147242 0.000000 
-0.953368 0.378994 0.000000 
0.368984 -0.484547 0.000000 
0.594859 -0.784302 0.000000 
0.954769 -0.004317 0.000000 
0.515444 0.857464 0.000000 
0.827012 0.586140 0.000000 
0.969661 -0.705285 0.000000 
0.866065 0.174843 0.000000 
-0.739930 -0.017156 0.000000 
-0.880817 0.890853 0.000000 
-0.553688 -0.405038 0.000000 
-0.133914 -0.445179 0.000000 
-0.458581 0.262361 0.000000 
0.119420 -0.754963 0.000000 
0.485987 -0.687746 0.000000 
0.781735 -0.919526 0.000000 
-0.859131 -0.717198 0.000000 
-0.107395 0.004846 0.000000 
0.687189 -0.324484 0.000000 
0.237173 0.384525 0.000000 
0.787307 -0.749008 0.000000 
-0.747908 -0.511927 0.000000 
-0.550194 0.649227 0.000000 
-0.848562 -0.261135 0.000000 
0.224588 -0.675531 0.000000 
-0.560137 0.761507 0.000000 
0.775698 0.226954 0.000000 
0.208231 -0.974058 0.000000 
-0.456489 0.610026 0.000000 
0.899796 0.425270 0.000000 
-0.048093 0.630436 0.000000 
0.142444 -0.979578 0.000000 
0.438442 -0.722595 0.000000 
0.367888 -0.319277 0.000000 
-0.134679 -0.737714 0.000000 
0.454811 0.056755 0.000000 
-0.012274 -0.370979 0.000000 
0.158202 0.343023 0.000000 
-0.482804 -0.962697 0.000000 
0.030208 0.710065 0.000000 
-0.163321 0.163684 0.000000 
-0.504757 0.329383 0.000000 
-0.247401 -0.176944 0.000000 
-0.651981 -0.284727 0.000000 
-0.789209 0.056823 0.000000 
-0.765365 -0.701710 0.000000 
0.796306 0.805641 0.000000 
0.584423 0.050590 0.000000 
-0.412180 0.701166 0.000000 
0.943985 -0.806810 0.000000 
0.659324 -0.488561 0.000000 
0.644246 -0.131461 0.000000 
0.349733 -0.675579 0.000000 
0.922663 0.145092 0.000000 
0.807601 0.511437 0.000000 
0.873718 0.852988 0.000000 
0.477723 -0.977160 0.000000 
0.444582 0.508691 0.000000 
0.215840 0.749189 0.000000 
-0.187892 0.574802 0.000000 
0.344003 0.141617 0.000000 
-0.099766 -0.607803 0.000000 
0.417561 0.940835 0.000000 
-0.071399 0.154578 0.000000 
-0.271537 -0.985625 0.000000 
0.122985 0.726320 0.000000 
0.186768 0.214281 0.000000 
-0.735561 0.959259 0.000000 
-0.312304 -0.217410 0.000000 
CELL_DATA 184 
SCALARS MASS float 
LOOKUP_TABLE default 
0.051252 
0.046008 
0.051531 
0.046188 
0.052854 
0.051531 
0.052854 
0.052854 
0.051531 
0.050859 
0.052854 
0.047395 
0.052854 
0.052854 
0.051434 
0.045995 
0.052854 
0.051281 
0.051530 
0.046441 
0.052854 
0.052854 
0.050612 
0.049065 
0.052975 
0.049197 
0.049245 
0.052975 
0.052990 
0.055938 
0.049713 
0.052094 
0.055938 
0.050456 
0.055938 
0.053198 
0.052878 
0.049051 
0.052807 
0.049481 
0.052974 
0.049465 
0.049257 
0.055938 
0.105225 
0.104629 
0.082126 
0.094264 
0.094771 
0.094259 
0.094771 
0.083366 
0.104047 
0.083092 
0.081316 
0.081315 
0.092719 
0.079469 
0.108073 
0.092710 
0.108073 
0.093129 
0.104035 
0.094961 
0.104398 
0.081316 
0.125285 
0.099128 
0.098320 
0.087841 
0.082650 
0.097481 
0.086914 
0.081921 
0.086680 
0.086680 
0.081485 
0.107769 
0.088711 
0.084874 
0.107874 
0.082612 
0.095190 
0.095229 
0.083942 
0.085089 
0.079923 
0.081132 
0.095301 
0.097917 
0.090576 
0.085268 
0.095896 
0.081062 
0.095454 
0.090083 
0.081027 
0.085251 
0.101961 
0.083022 
0.095445 
0.080604 
0.081018 
0.085240 
0.097826 
0.090495 
0.095435 
0.095845 
0.081023 
0.085241 
0.090072 
0.081024 
0.095436 
0.101966 
0.083028 
0.085242 
0.080610 
0.081024 
0.095437 
0.082345 
0.082694 
0.085242 
0.109264 
0.089885 
0.095437 
0.108636 
0.083028 
0.085242 
0.080610 
0.074817 
0.073569 
0.082490 
0.095437 
0.095617 
0.133784 
0.138292 
0.139667 
0.139695 
0.139694 
0.139689 
0.139693 
0.140105 
0.139774 
0.086622 
0.086622 
0.089038 
0.077179 
0.079159 
0.072465 
0.084345 
0.092656 
0.093083 
0.084037 
0.098826 
0.101847 
0.085968 
0.086444 
0.074619 
0.064825 
0.094138 
0.124406 
0.086607 
0.131576 
0.102571 
0.084703 
0.076503 
0.084191 
0.084191 
0.086793 
0.075696 
0.084714 
0.090949 
0.084009 
0.076569 
0.086383 
0.098391 
0.110757 
0.093222 
0.143196 
0.101090 
0.091038 
0.150913 
0.178131 
0.206980 
SCALARS MASS float 
LOOKUP_TABLE default 
0.051252 
0.046008 
0.051531 
0.046188 
0.052854 
0.051531 
0.052854 
0.052854 
0.051531 
0.050859 
0.052854 
0.047395 
0.052854 
0.052854 
0.051434 
0.045995 
0.052854 
0.051281 
0.051530 
0.046441 
0.052854 
0.052854 
0.050612 
0.049065 
0.052975 
0.049197 
0.049245 
0.052975 
0.052990 
0.055938 
0.049713 
0.052094 
0.055938 
0.050456 
0.055938 
0.053198 
0.052878 
0.049051 
0.052807 
0.049481 
0.052974 
0.049465 
0.049257 
0.055938 
0.105225 
0.104629 
0.082126 
0.094264 
0.094771 
0.094259 
0.094771 
0.083366 
0.104047 
0.083092 
0.081316 
0.081315 
0.092719 
0.079469 
0.108073 
0.092710 
0.108073 
0.093129 
0.104035 
0.094961 
0.104398 
0.081316 
0.125285 
0.099128 
0.098320 
0.087841 
0.082650 
0.097481 
0.086914 
0.081921 
0.086680 
0.086680 
0.081485 
0.107769 
0.088711 
0.084874 
0.107874 
0.082612 
0.095190 
0.095229 
0.083942 
0.085089 
0.079923 
0.081132 
0.095301 
0.097917 
0.090576 
0.085268 
0.095896 
0.081062 
0.095454 
0.090083 
0.081027 
0.085251 
0.101961 
0.083022 
0.095445 
0.080604 
0.081018 
0.085240 
0.097826 
0.090495 
0.095435 
0.095845 
0.081023 
0.085241 
0.090072 
0.081024 
0.095436 
0.101966 
0.083028 
0.085242 
0.080610 
0.081024 
0.095437 
0.082345 
0.082694 
0.085242 
0.109264 
0.089885 
0.095437 
0.108636 
0.083028 
0.085242 
0.080610 
0.074817 
0.073569 
0.082490 
0.095437 
0.095617 
0.133784 
0.138292 
0.139667 
0.139695 
0.139694 
0.139689 
0.139693 
0.140105 
0.139774 
0.086622 
0.086622 
0.089038 
0.077179 
0.079159 
0.072465 
0.084345 
0.092656 
0.093083 
0.084037 
0.098826 
0.101847 
0.085968 
0.086444 
0.074619 
0.064825 
0.094138 
0.124406 
0.086607 
0.131576 
0.102571 
0.084703 
0.076503 
0.084191 
0.084191 
0.086793 
0.075696 
0.084714 
0.090949 
0.084009 
0.076569 
0.086383 
0.098391 
0.110757 
0.093222 
0.143196 
0.101090 
0.091038 
0.150913 
0.178131 
0.206980 
SCALARS DENSITY float 
LOOKUP_TABLE default 
19.972053 
213006930682032.875000 
35.082509 
30.385078 
460852239123229359816401892214972675791259596488704.000000 
16.579748 
16.840513 
89858546061595939993063428429278424915114631102464.000000 
24.980974 
61.916431 
7748463169.507648 
20.915679 
121183999428915404226385319601463361536.000000 
19.850852 
50.865617 
18520436088378458808405458944.000000 
23.083375 
22.577114 
1624045950145126135975208465625548505276946391878317549719388160.000000 
13.854952 
52108.835337 
42.503613 
20.478805 
33255157109657800704.000000 
38.246551 
124.614459 
11011881998782808473126813215408259072.000000 
24.649067 
14.372430 
270153272948777160194221387869452113785210417473956872192.000000 
15.135400 
57.722947 
8724.912720 
21.544103 
1896163524297390838679180845642913598626856960.000000 
26.790389 
68.682115 
1929273061474906112.000000 
21.958212 
28.534081 
252552747330938452219857573146443991502983439607204194794489249792.000000 
79.323680 
56900137566.440033 
41.648574 
20.235054 
23.743765 
21.399683 
1177564374361870853795061044346880.000000 
6743506410344585379616839874641920.000000 
8319340.881715 
37232.103406 
15.748471 
29.123383 
28.171242 
23.365021 
8283482510514256724707084163893268499132317696.000000 
467602925356481125732581376.000000 
43.566115 
27.380136 
57473111535103.921875 
305521032318413362183352706251252722349079789568.000000 
13.043728 
8.309486 
35.777940 
16.788720 
16.118975 
13.759835 
19.298008 
18.509403 
26.748968 
23.947258 
27.974245 
26.806945 
26.696356 
21.934239 
24.678965 
28.542462 
29.321837 
30.576307 
28.447787 
15.386384 
50.381830 
28.088008 
23.823943 
29.033478 
37.424385 
34.643724 
23.700104 
10.639606 
26747.598745 
161576605.362033 
22.205263 
14739360630242052.000000 
673947449900236800.000000 
114.913685 
124565532797547631869952.000000 
513980697825364475904.000000 
6437097413.408231 
639583945233628148661223424.000000 
247668717570577726963712.000000 
2186478511046.399658 
110987491072957877623046799360.000000 
102586627574460284928.000000 
91538294236368.718750 
37269381083723192074240.000000 
22429077810305.039062 
4058556999779.892090 
24288775892.330158 
1103.600976 
4015331.195631 
31.001660 
31.694086 
63.624099 
22.498280 
24.915458 
23.157406 
32.170348 
13.891490 
11.754908 
26.302315 
24.386591 
33.686894 
24.779760 
26.532839 
25.778534 
18.454300 
18.670923 
24.286316 
15.342883 
18.436282 
15.268295 
17.544881 
25.883355 
23.706157 
25.653255 
27.690765 
22133608573.319443 
23.231105 
18.853169 
62028668.443015 
26.372732 
20.769093 
195.336235 
28.013112 
24.120180 
28.251244 
22.002040 
25.450905 
16.028372 
20.609791 
17.092419 
12.360967 
37.012394 
20.987194 
20.938975 
37.990399 
58.435539 
16.916489 
11.416266 
49.928221 
11.941964 
27.620259 
25.073279 
20.702375 
24.034786 
5.712688 
24.686490 
15.385588 
75.003058 
37.470724 
18.182049 
372.118657 
34.334819 
20.336449 
25.882127 
43.764181 
13.793903 
38.713938 
29.699325 
23.329560 
27.081773 
23.163828 
56.545671 
17.595037 
SCALARS ELEM_i float 
LOOKUP_TABLE default 
203 
220 
161 
222 
180 
183 
202 
200 
162 
221 
160 
203 
200 
161 
221 
180 
183 
222 
180 
162 
220 
161 
203 
220 
161 
222 
180 
183 
222 
200 
162 
221 
160 
203 
200 
162 
221 
160 
183 
222 
180 
162 
220 
161 
203 
162 
183 
180 
200 
220 
160 
222 
222 
162 
183 
180 
200 
221 
161 
160 
200 
202 
221 
221 
182 
161 
202 
202 
202 
202 
202 
202 
202 
202 
202 
202 
202 
222 
222 
202 
221 
221 
202 
221 
221 
221 
221 
221 
221 
220 
200 
201 
200 
200 
201 
200 
200 
200 
200 
180 
200 
180 
180 
180 
180 
180 
180 
180 
180 
180 
161 
161 
181 
161 
161 
181 
161 
161 
161 
162 
162 
161 
162 
182 
182 
182 
182 
182 
182 
182 
182 
202 
182 
182 
202 
201 
200 
181 
181 
180 
182 
201 
200 
202 
182 
202 
201 
201 
201 
201 
201 
201 
201 
201 
201 
201 
201 
201 
201 
201 
201 
182 
182 
201 
181 
181 
181 
181 
181 
181 
181 
180 
181 
181 
181 
181 
181 
182 
181 
181 
182 
182 
201 
181 
VECTORS VELOCITY float 
-0.060861 -0.407680 0.000000 
-2.540889 -51.325132 0.000000 
0.076212 0.500775 0.000000 
0.498628 -1.340911 0.000000 
1.471339 -144.217254 0.000000 
-0.160113 -0.103697 0.000000 
-0.548409 -0.180659 0.000000 
-2.335299 -167.701762 0.000000 
0.144762 -0.125809 0.000000 
0.010146 2.239892 0.000000 
0.732373 -23.372624 0.000000 
1.542161 -1.571196 0.000000 
0.658676 -109.582621 0.000000 
0.165602 -2.149582 0.000000 
0.370111 -0.565100 0.000000 
-1.330589 -72.247836 0.000000 
-1.753728 -0.325354 0.000000 
-0.067570 0.808846 0.000000 
1.739341 -183.568578 0.000000 
0.949070 0.930150 0.000000 
-0.380831 -0.881066 0.000000 
0.688397 3.788603 0.000000 
1.229075 -1.437244 0.000000 
-0.309783 -68.920790 0.000000 
-0.016131 -0.285754 0.000000 
0.654746 -2.779427 0.000000 
-0.675947 -99.757611 0.000000 
-1.847466 -0.486259 0.000000 
-0.406783 0.842221 0.000000 
-1.731916 -173.781414 0.000000 
0.587397 0.906019 0.000000 
-0.243941 3.539232 0.000000 
0.281381 0.589256 0.000000 
1.234013 -1.149638 0.000000 
-1.753037 -149.774916 0.000000 
0.028429 -0.980976 0.000000 
0.602485 0.137505 0.000000 
1.744652 -61.829640 0.000000 
-0.704081 -0.105603 0.000000 
0.318578 -0.287613 0.000000 
2.525853 -174.183810 0.000000 
1.034330 0.309474 0.000000 
-1.741320 -28.601006 0.000000 
0.608318 2.561057 0.000000 
0.462476 0.131948 0.000000 
0.366139 0.162585 0.000000 
-0.571946 0.711110 0.000000 
-0.770047 -78.134155 0.000000 
0.451720 -89.729597 0.000000 
-0.322149 -6.251382 0.000000 
-0.261646 0.133309 0.000000 
-0.691413 -0.085106 0.000000 
0.015187 -0.055424 0.000000 
-0.013793 -1.773641 0.000000 
-0.763998 0.326337 0.000000 
0.501689 -107.180905 0.000000 
1.554676 -52.458203 0.000000 
-0.207533 5.037176 0.000000 
0.281590 2.022255 0.000000 
0.308103 -24.984306 0.000000 
-0.090430 -101.382433 0.000000 
-0.353571 0.181440 0.000000 
-0.303003 -1.120041 0.000000 
0.283673 1.328907 0.000000 
0.680624 0.298659 0.000000 
0.284093 -0.501488 0.000000 
0.009596 1.086699 0.000000 
-0.183180 0.304425 0.000000 
-0.349578 0.142832 0.000000 
-0.104557 -0.230052 0.000000 
-0.322714 -0.341664 0.000000 
-0.213286 -0.471262 0.000000 
-0.008768 -0.248402 0.000000 
-0.409819 -0.485560 0.000000 
-0.017655 -0.629903 0.000000 
0.084452 0.188860 0.000000 
-0.468746 -0.596316 0.000000 
-0.281508 -0.564135 0.000000 
-0.175620 -1.286780 0.000000 
-0.424658 -0.724898 0.000000 
-0.302869 -0.999979 0.000000 
0.039694 -0.158760 0.000000 
-0.421949 -0.880500 0.000000 
0.148618 1.460519 0.000000 
0.072344 3.433142 0.000000 
-0.209207 -0.004343 0.000000 
0.100250 5.294469 0.000000 
0.290874 7.911486 0.000000 
-0.195597 2.563628 0.000000 
0.320026 4.593001 0.000000 
0.524960 2.168434 0.000000 
0.521910 7.361820 0.000000 
0.827995 -16.853330 0.000000 
0.652950 -16.114279 0.000000 
0.545268 9.312288 0.000000 
0.794627 -38.240190 0.000000 
0.419984 -25.772558 0.000000 
0.390346 0.401308 0.000000 
0.157866 -38.630241 0.000000 
-0.138103 -25.065635 0.000000 
0.317424 -3.903311 0.000000 
-0.440395 -42.790689 0.000000 
-0.587644 -22.293295 0.000000 
0.029924 -5.558480 0.000000 
-0.923050 -29.328517 0.000000 
-0.708732 -6.380442 0.000000 
-0.179530 -3.671910 0.000000 
-0.825373 -1.883009 0.000000 
-1.246770 8.754595 0.000000 
-0.517360 6.029354 0.000000 
-0.574899 7.564801 0.000000 
-0.507080 5.168799 0.000000 
-0.947490 9.703336 0.000000 
-0.042611 2.752421 0.000000 
-0.142855 0.931751 0.000000 
-0.868101 5.404338 0.000000 
-0.006634 -0.417928 0.000000 
0.317091 -0.999274 0.000000 
-0.334182 2.409082 0.000000 
0.151672 -1.482061 0.000000 
0.400781 -0.758311 0.000000 
-0.077349 -1.029095 0.000000 
0.466960 -0.377843 0.000000 
0.440121 -0.427316 0.000000 
0.316099 -1.023257 0.000000 
0.594686 0.004562 0.000000 
0.487442 0.175382 0.000000 
0.365968 -0.590697 0.000000 
0.440030 0.835575 0.000000 
0.345626 0.882716 0.000000 
0.261713 1.418265 0.000000 
0.129100 1.109544 0.000000 
0.304412 -0.375343 0.000000 
0.202409 0.162358 0.000000 
-0.293144 -0.690249 0.000000 
-0.199326 -1.114159 0.000000 
0.239996 1.777477 0.000000 
-0.866430 7.182285 0.000000 
-0.244009 0.587935 0.000000 
-0.204379 5.392765 0.000000 
0.296575 -1.086110 0.000000 
0.076656 3.791929 0.000000 
0.486888 9.063598 0.000000 
-0.126951 -1.141104 0.000000 
0.081107 -0.827116 0.000000 
-0.236684 -1.067955 0.000000 
-0.230217 -1.471582 0.000000 
-0.132492 -1.189490 0.000000 
-0.113361 0.205326 0.000000 
-0.079329 -1.385390 0.000000 
-0.042283 2.334297 0.000000 
-0.046916 -0.002794 0.000000 
0.230069 3.804232 0.000000 
-0.129881 -1.862263 0.000000 
0.425476 7.023060 0.000000 
0.117151 2.265165 0.000000 
0.207549 2.855196 0.000000 
0.022335 0.700281 0.000000 
0.070463 0.251796 0.000000 
0.158000 1.125318 0.000000 
-0.026478 -1.423603 0.000000 
0.054651 -1.769924 0.000000 
0.163773 -0.329944 0.000000 
0.350142 6.593560 0.000000 
-0.008944 -1.935651 0.000000 
0.011145 -0.443895 0.000000 
0.093454 0.652212 0.000000 
-0.049972 -1.281380 0.000000 
0.169229 1.292761 0.000000 
0.094620 4.119844 0.000000 
0.187866 8.168607 0.000000 
-0.097439 8.999438 0.000000 
-0.138619 4.570968 0.000000 
-0.335862 7.428051 0.000000 
-0.577817 6.044877 0.000000 
-0.048221 1.982041 0.000000 
-0.116027 -0.975228 0.000000 
0.071489 -1.932076 0.000000 
-0.213864 2.570767 0.000000 
0.090976 -1.522410 0.000000 
0.177119 -1.337145 0.000000 
0.233680 -0.530879 0.000000 
0.353073 8.950040 0.000000 
-0.129708 0.714905 0.000000 
TENSORS STRESS float 
-1.630071 -0.809749 0.000000 
0.000000 0.108728 0.000000 
0.000000 0.000000 0.000000 

0.000000 0.000000 0.000000 
0.000000 -0.000000 0.000000 
0.000000 0.000000 0.000000 

0.180553 -0.124662 0.000000 
0.000000 0.492324 0.000000 
0.000000 0.000000 0.000000 

-1.535379 1.654530 0.000000 
0.000000 -1.016772 0.000000 
0.000000 0.000000 0.000000 

-0.000000 -0.000000 0.000000 
0.000000 -0.000000 0.000000 
0.000000 0.000000 0.000000 

1.218094 -3.588521 0.000000 
0.000000 5.583868 0.000000 
0.000000 0.000000 0.000000 

2.887501 -2.789502 0.000000 
0.000000 6.898322 0.000000 
0.000000 0.000000 0.000000 

-0.000000 0.000000 0.000000 
0.000000 -0.000000 0.000000 
0.000000 0.000000 0.000000 

-0.777801 -0.262708 0.000000 
0.000000 -2.212188 0.000000 
0.000000 0.000000 0.000000 

0.344327 0.762745 0.000000 
0.000000 -1.994403 0.000000 
0.000000 0.000000 0.000000 

-0.000000 -0.000000 0.000000 
0.000000 -0.000000 0.000000 
0.000000 0.000000 0.000000 

0.182580 1.439978 0.000000 
0.000000 2.396249 0.000000 
0.000000 0.000000 0.000000 

-0.000000 0.000000 0.000000 
0.000000 -0.000000 0.000000 
0.000000 0.000000 0.000000 

2.992050 5.972901 0.000000 
0.000000 2.917771 0.000000 
0.000000 0.000000 0.000000 

-0.936194 1.124157 0.000000 
0.000000 -1.678056 0.000000 
0.000000 0.000000 0.000000 

-0.000000 -0.000000 0.000000 
0.000000 -0.000000 0.000000 
0.000000 0.000000 0.000000 

-2.701851 0.048748 0.000000 
0.000000 -0.258481 0.000000 
0.000000 0.000000 0.000000 

-3.971811 2.006498 0.000000 
0.000000 0.015333 0.000000 
0.000000 0.000000 0.000000 

-0.000000 -0.000000 0.000000 
0.000000 -0.000000 0.000000 
0.000000 0.000000 0.000000 

-0.358742 0.165712 0.000000 
0.000000 2.081602 0.000000 
0.000000 0.000000 0.000000 

0.001747 0.013486 0.000000 
0.000000 -0.016663 0.000000 
0.000000 0.000000 0.000000 

-0.556672 -1.425108 0.000000 
0.000000 -0.944525 0.000000 
0.000000 0.000000 0.000000 

-0.473541 0.637920 0.000000 
0.000000 1.792364 0.000000 
0.000000 0.000000 0.000000 

0.000000 0.000000 0.000000 
0.000000 -0.000000 0.000000 
0.000000 0.000000 0.000000 

0.093413 0.004434 0.000000 
0.000000 0.724305 0.000000 
0.000000 0.000000 0.000000 

-1.128517 1.122834 0.000000 
0.000000 -2.363835 0.000000 
0.000000 0.000000 0.000000 

-0.000000 -0.000000 0.000000 
0.000000 -0.000000 0.000000 
0.000000 0.000000 0.000000 

-1.144782 -2.460822 0.000000 
0.000000 0.616825 0.000000 
0.000000 0.000000 0.000000 

-5.952397 1.560513 0.000000 
0.000000 3.483266 0.000000 
0.000000 0.000000 0.000000 

-0.000000 -0.000000 0.000000 
0.000000 -0.000000 0.000000 
0.000000 0.000000 0.000000 

-0.315784 0.187773 0.000000 
0.000000 0.868825 0.000000 
0.000000 0.000000 0.000000 

0.809983 0.703273 0.000000 
0.000000 -2.050797 0.000000 
0.000000 0.000000 0.000000 

-0.024573 -0.062851 0.000000 
0.000000 -0.082902 0.000000 
0.000000 0.000000 0.000000 

0.917809 2.605608 0.000000 
0.000000 3.195685 0.000000 
0.000000 0.000000 0.000000 

-0.000000 0.000000 0.000000 
0.000000 -0.000000 0.000000 
0.000000 0.000000 0.000000 

-0.765350 -0.035424 0.000000 
0.000000 -2.770045 0.000000 
0.000000 0.000000 0.000000 

-0.502364 0.999598 0.000000 
0.000000 -1.895964 0.000000 
0.000000 0.000000 0.000000 

-0.000000 -0.000000 0.000000 
0.000000 -0.000000 0.000000 
0.000000 0.000000 0.000000 

-3.861095 2.466331 0.000000 
0.000000 -1.209109 0.000000 
0.000000 0.000000 0.000000 

-2.275437 1.767460 0.000000 
0.000000 -0.939808 0.000000 
0.000000 0.000000 0.000000 

-0.000000 -0.000000 0.000000 
0.000000 -0.000000 0.000000 
0.000000 0.000000 0.000000 

-3.374227 -2.357457 0.000000 
0.000000 -0.973220 0.000000 
0.000000 0.000000 0.000000 

0.000000 0.000000 0.000000 
0.000000 -0.000000 0.000000 
0.000000 0.000000 0.000000 

-0.305851 -1.090053 0.000000 
0.000000 -0.662981 0.000000 
0.000000 0.000000 0.000000 

-0.615516 0.595608 0.000000 
0.000000 2.690790 0.000000 
0.000000 0.000000 0.000000 

-1.471268 -1.131415 0.000000 
0.000000 -2.381246 0.000000 
0.000000 0.000000 0.000000 

-3.323341 2.311116 0.000000 
0.000000 -0.498554 0.000000 
0.000000 0.000000 0.000000 

-0.000000 -0.000000 0.000000 
0.000000 -0.000000 0.000000 
0.000000 0.000000 0.000000 

-0.000000 0.000000 0.000000 
0.000000 -0.000000 0.000000 
0.000000 0.000000 0.000000 

0.000040 0.000097 0.000000 
0.000000 -0.000300 0.000000 
0.000000 0.000000 0.000000 

-0.009621 -0.020103 0.000000 
0.000000 -0.040986 0.000000 
0.000000 0.000000 0.000000 

-8.759482 2.567849 0.000000 
0.000000 5.809310 0.000000 
0.000000 0.000000 0.000000 

-5.023345 3.355711 0.000000 
0.000000 -1.097381 0.000000 
0.000000 0.000000 0.000000 

-0.826829 0.334476 0.000000 
0.000000 -4.008430 0.000000 
0.000000 0.000000 0.000000 

-1.054555 -2.511474 0.000000 
0.000000 0.929247 0.000000 
0.000000 0.000000 0.000000 

-0.000000 -0.000000 0.000000 
0.000000 -0.000000 0.000000 
0.000000 0.000000 0.000000 

-0.000000 0.000000 0.000000 
0.000000 -0.000000 0.000000 
0.000000 0.000000 0.000000 

2.445582 0.661902 0.000000 
0.000000 -3.108735 0.000000 
0.000000 0.000000 0.000000 

0.531399 -0.918813 0.000000 
0.000000 0.667777 0.000000 
0.000000 0.000000 0.000000 

-0.000000 -0.000000 0.000000 
0.000000 -0.000000 0.000000 
0.000000 0.000000 0.000000 

-0.000000 -0.000000 0.000000 
0.000000 -0.000000 0.000000 
0.000000 0.000000 0.000000 

6.924437 -4.661823 0.000000 
0.000000 16.519792 0.000000 
0.000000 0.000000 0.000000 

7.493261 -14.113176 0.000000 
0.000000 25.566562 0.000000 
0.000000 0.000000 0.000000 

0.871861 1.496690 0.000000 
0.000000 -3.617750 0.000000 
0.000000 0.000000 0.000000 

1.294047 3.137931 0.000000 
0.000000 4.817097 0.000000 
0.000000 0.000000 0.000000 

4.047233 4.502009 0.000000 
0.000000 10.539667 0.000000 
0.000000 0.000000 0.000000 

3.370037 -5.778434 0.000000 
0.000000 8.601851 0.000000 
0.000000 0.000000 0.000000 

0.586198 -3.356078 0.000000 
0.000000 2.927442 0.000000 
0.000000 0.000000 0.000000 

2.084393 -4.448877 0.000000 
0.000000 6.233438 0.000000 
0.000000 0.000000 0.000000 

-1.241932 -0.395982 0.000000 
0.000000 -1.035358 0.000000 
0.000000 0.000000 0.000000 

0.463833 -1.062699 0.000000 
0.000000 3.013163 0.000000 
0.000000 0.000000 0.000000 

-0.812730 0.224649 0.000000 
0.000000 0.107174 0.000000 
0.000000 0.000000 0.000000 

-1.945845 -0.052675 0.000000 
0.000000 -2.707263 0.000000 
0.000000 0.000000 0.000000 

0.697065 -0.561554 0.000000 
0.000000 3.402404 0.000000 
0.000000 0.000000 0.000000 

-2.192922 0.780474 0.000000 
0.000000 -2.932112 0.000000 
0.000000 0.000000 0.000000 

-2.157052 -0.757565 0.000000 
0.000000 -3.258178 0.000000 
0.000000 0.000000 0.000000 

0.441033 0.354671 0.000000 
0.000000 2.787516 0.000000 
0.000000 0.000000 0.000000 

-3.381100 2.097787 0.000000 
0.000000 0.463299 0.000000 
0.000000 0.000000 0.000000 

-0.743979 1.076996 0.000000 
0.000000 0.803485 0.000000 
0.000000 0.000000 0.000000 

-0.139494 0.883019 0.000000 
0.000000 1.629953 0.000000 
0.000000 0.000000 0.000000 

0.008320 -4.244463 0.000000 
0.000000 4.959840 0.000000 
0.000000 0.000000 0.000000 

-1.328131 0.898970 0.000000 
0.000000 -2.722175 0.000000 
0.000000 0.000000 0.000000 

-0.042608 2.094308 0.000000 
0.000000 2.341632 0.000000 
0.000000 0.000000 0.000000 

2.087537 0.603438 0.000000 
0.000000 -2.005096 0.000000 
0.000000 0.000000 0.000000 

2.667854 0.175453 0.000000 
0.000000 -2.569670 0.000000 
0.000000 0.000000 0.000000 

-1.260541 0.091852 0.000000 
0.000000 -2.409081 0.000000 
0.000000 0.000000 0.000000 

3.053522 0.409338 0.000000 
0.000000 -2.803057 0.000000 
0.000000 0.000000 0.000000 

6.764113 -1.418556 0.000000 
0.000000 -1.514868 0.000000 
0.000000 0.000000 0.000000 

11.586705 -7.272445 0.000000 
0.000000 9.805563 0.000000 
0.000000 0.000000 0.000000 

0.009628 0.005129 0.000000 
0.000000 -0.056646 0.000000 
0.000000 0.000000 0.000000 

-0.000007 0.000001 0.000000 
0.000000 -0.000018 0.000000 
0.000000 0.000000 0.000000 

-1.144668 4.484201 0.000000 
0.000000 -3.989663 0.000000 
0.000000 0.000000 0.000000 

-0.000000 0.000000 0.000000 
0.000000 -0.000000 0.000000 
0.000000 0.000000 0.000000 

-0.000000 0.000000 0.000000 
0.000000 -0.000000 0.000000 
0.000000 0.000000 0.000000 

-1.387462 -1.199762 0.000000 
0.000000 -3.992563 0.000000 
0.000000 0.000000 0.000000 

-0.000000 0.000000 0.000000 
0.000000 -0.000000 0.000000 
0.000000 0.000000 0.000000 

-0.000000 0.000000 0.000000 
0.000000 -0.000000 0.000000 
0.000000 0.000000 0.000000 

-0.000000 0.000000 0.000000 
0.000000 -0.000001 0.000000 
0.000000 0.000000 0.000000 

-0.000000 -0.000000 0.000000 
0.000000 -0.000000 0.000000 
0.000000 0.000000 0.000000 

-0.000000 -0.000000 0.000000 
0.000000 -0.000000 0.000000 
0.000000 0.000000 0.000000 

-0.000000 0.000000 0.000000 
0.000000 -0.000000 0.000000 
0.000000 0.000000 0.000000 

-0.000000 -0.000000 0.000000 
0.000000 -0.000000 0.000000 
0.000000 0.000000 0.000000 

-0.000000 -0.000000 0.000000 
0.000000 -0.000000 0.000000 
0.000000 0.000000 0.000000 

-0.000000 -0.000000 0.000000 
0.000000 -0.000000 0.000000 
0.000000 0.000000 0.000000 

-0.000000 -0.000000 0.000000 
0.000000 -0.000000 0.000000 
0.000000 0.000000 0.000000 

-0.000000 -0.000000 0.000000 
0.000000 -0.000000 0.000000 
0.000000 0.000000 0.000000 

-0.000000 -0.000000 0.000000 
0.000000 -0.000000 0.000000 
0.000000 0.000000 0.000000 

-0.000000 -0.000000 0.000000 
0.000000 -0.000000 0.000000 
0.000000 0.000000 0.000000 

-0.402588 -0.043848 0.000000 
0.000000 -0.706259 0.000000 
0.000000 0.000000 0.000000 

-0.000227 -0.000013 0.000000 
0.000000 -0.000529 0.000000 
0.000000 0.000000 0.000000 

-1.754175 -3.462886 0.000000 
0.000000 -3.634737 0.000000 
0.000000 0.000000 0.000000 

-1.173053 -2.402833 0.000000 
0.000000 -3.027005 0.000000 
0.000000 0.000000 0.000000 

-2.561468 1.264230 0.000000 
0.000000 -6.429881 0.000000 
0.000000 0.000000 0.000000 

0.306961 -0.927541 0.000000 
0.000000 -0.162152 0.000000 
0.000000 0.000000 0.000000 

-0.354451 0.402715 0.000000 
0.000000 -0.427650 0.000000 
0.000000 0.000000 0.000000 

-2.288056 -0.563986 0.000000 
0.000000 -4.563391 0.000000 
0.000000 0.000000 0.000000 

-0.424508 0.381195 0.000000 
0.000000 0.063186 0.000000 
0.000000 0.000000 0.000000 

4.778813 11.599458 0.000000 
0.000000 7.934664 0.000000 
0.000000 0.000000 0.000000 

1.927178 2.685452 0.000000 
0.000000 3.580583 0.000000 
0.000000 0.000000 0.000000 

0.101878 1.160635 0.000000 
0.000000 -2.198066 0.000000 
0.000000 0.000000 0.000000 

0.388550 1.244496 0.000000 
0.000000 -0.436242 0.000000 
0.000000 0.000000 0.000000 

-1.198974 1.458541 0.000000 
0.000000 -2.836459 0.000000 
0.000000 0.000000 0.000000 

-0.829892 -0.413175 0.000000 
0.000000 -0.698804 0.000000 
0.000000 0.000000 0.000000 

-0.669815 -1.070952 0.000000 
0.000000 -0.329618 0.000000 
0.000000 0.000000 0.000000 

0.009022 -2.371281 0.000000 
0.000000 -0.365643 0.000000 
0.000000 0.000000 0.000000 

0.220016 2.178798 0.000000 
0.000000 3.005896 0.000000 
0.000000 0.000000 0.000000 

-0.389865 1.710110 0.000000 
0.000000 0.934159 0.000000 
0.000000 0.000000 0.000000 

-0.559114 -1.033207 0.000000 
0.000000 -0.643240 0.000000 
0.000000 0.000000 0.000000 

0.324615 1.759381 0.000000 
0.000000 2.383630 0.000000 
0.000000 0.000000 0.000000 

-0.888447 1.561907 0.000000 
0.000000 -0.730873 0.000000 
0.000000 0.000000 0.000000 

-0.748170 1.539711 0.000000 
0.000000 0.277997 0.000000 
0.000000 0.000000 0.000000 

-0.562635 -2.375375 0.000000 
0.000000 -0.601502 0.000000 
0.000000 0.000000 0.000000 

-1.311506 -0.784895 0.000000 
0.000000 -1.768444 0.000000 
0.000000 0.000000 0.000000 

-2.177886 0.509438 0.000000 
0.000000 -3.207267 0.000000 
0.000000 0.000000 0.000000 

-0.944298 0.994609 0.000000 
0.000000 0.946624 0.000000 
0.000000 0.000000 0.000000 

-3.537287 2.620367 0.000000 
0.000000 -5.025438 0.000000 
0.000000 0.000000 0.000000 

-0.000000 -0.000000 0.000000 
0.000000 -0.000000 0.000000 
0.000000 0.000000 0.000000 

-3.237364 -4.366343 0.000000 
0.000000 -7.477003 0.000000 
0.000000 0.000000 0.000000 

-2.378530 2.908950 0.000000 
0.000000 -3.729151 0.000000 
0.000000 0.000000 0.000000 

-0.000029 -0.000002 0.000000 
0.000000 -0.000067 0.000000 
0.000000 0.000000 0.000000 

-0.639768 -2.719820 0.000000 
0.000000 -1.755981 0.000000 
0.000000 0.000000 0.000000 

-3.058143 2.654092 0.000000 
0.000000 -3.886748 0.000000 
0.000000 0.000000 0.000000 

-1.201644 -0.811970 0.000000 
0.000000 -3.397793 0.000000 
0.000000 0.000000 0.000000 

-2.002089 1.077778 0.000000 
0.000000 -2.841568 0.000000 
0.000000 0.000000 0.000000 

-1.816980 -0.463410 0.000000 
0.000000 -3.940603 0.000000 
0.000000 0.000000 0.000000 

-1.411362 1.159079 0.000000 
0.000000 -1.340031 0.000000 
0.000000 0.000000 0.000000 

-1.290609 2.304221 0.000000 
0.000000 -0.648514 0.000000 
0.000000 0.000000 0.000000 

-1.781046 1.716541 0.000000 
0.000000 -2.216380 0.000000 
0.000000 0.000000 0.000000 

-0.445970 -0.486845 0.000000 
0.000000 0.744606 0.000000 
0.000000 0.000000 0.000000 

-1.165250 1.897087 0.000000 
0.000000 -0.167923 0.000000 
0.000000 0.000000 0.000000 

-1.263001 -0.638084 0.000000 
0.000000 -0.125998 0.000000 
0.000000 0.000000 0.000000 

1.639311 -0.175779 0.000000 
0.000000 6.759425 0.000000 
0.000000 0.000000 0.000000 

-1.663482 1.073972 0.000000 
0.000000 -3.122072 0.000000 
0.000000 0.000000 0.000000 

-1.069380 2.258579 0.000000 
0.000000 0.582191 0.000000 
0.000000 0.000000 0.000000 

-0.405503 3.188934 0.000000 
0.000000 -3.078588 0.000000 
0.000000 0.000000 0.000000 

-1.633366 0.152647 0.000000 
0.000000 -2.690258 0.000000 
0.000000 0.000000 0.000000 

-1.396093 0.342748 0.000000 
0.000000 -2.757960 0.000000 
0.000000 0.000000 0.000000 

-0.054338 -0.651772 0.000000 
0.000000 1.696870 0.000000 
0.000000 0.000000 0.000000 

2.462576 -0.367725 0.000000 
0.000000 7.874011 0.000000 
0.000000 0.000000 0.000000 

-1.485583 -0.054035 0.000000 
0.000000 -2.542783 0.000000 
0.000000 0.000000 0.000000 

3.528500 3.385531 0.000000 
0.000000 14.283600 0.000000 
0.000000 0.000000 0.000000 

-1.611614 -0.872400 0.000000 
0.000000 -4.131208 0.000000 
0.000000 0.000000 0.000000 

-2.725621 -0.548167 0.000000 
0.000000 -4.687858 0.000000 
0.000000 0.000000 0.000000 

0.025171 1.854664 0.000000 
0.000000 -2.070340 0.000000 
0.000000 0.000000 0.000000 

0.112539 -2.365537 0.000000 
0.000000 0.459602 0.000000 
0.000000 0.000000 0.000000 

16.279090 -4.594095 0.000000 
0.000000 40.054260 0.000000 
0.000000 0.000000 0.000000 

-0.521242 0.765368 0.000000 
0.000000 -0.309259 0.000000 
0.000000 0.000000 0.000000 

1.503068 -3.210702 0.000000 
0.000000 4.429604 0.000000 
0.000000 0.000000 0.000000 

-1.218128 -0.027815 0.000000 
0.000000 -2.374798 0.000000 
0.000000 0.000000 0.000000 

-1.210278 -0.528244 0.000000 
0.000000 -2.380922 0.000000 
0.000000 0.000000 0.000000 

0.042040 -0.424363 0.000000 
0.000000 -1.081187 0.000000 
0.000000 0.000000 0.000000 

-0.637240 -0.160476 0.000000 
0.000000 -1.470830 0.000000 
0.000000 0.000000 0.000000 

-1.517388 -0.902327 0.000000 
0.000000 -3.006844 0.000000 
0.000000 0.000000 0.000000 

-0.926406 -1.507128 0.000000 
0.000000 -2.600427 0.000000 
0.000000 0.000000 0.000000 

-1.831895 -1.981526 0.000000 
0.000000 -3.863661 0.000000 
0.000000 0.000000 0.000000 

-1.783733 0.069303 0.000000 
0.000000 -3.235118 0.000000 
0.000000 0.000000 0.000000 

2.071825 -4.399848 0.000000 
0.000000 6.325520 0.000000 
0.000000 0.000000 0.000000 

-2.323029 1.153412 0.000000 
0.000000 -5.723057 0.000000 
0.000000 0.000000 0.000000 

-2.936428 0.288478 0.000000 
0.000000 -4.819243 0.000000 
0.000000 0.000000 0.000000 

-0.373313 -4.373258 0.000000 
0.000000 -1.328110 0.000000 
0.000000 0.000000 0.000000 

-1.112968 -1.252688 0.000000 
0.000000 -2.774134 0.000000 
0.000000 0.000000 0.000000 

-2.036739 -1.270399 0.000000 
0.000000 -3.382403 0.000000 
0.000000 0.000000 0.000000 

-2.326373 -0.305404 0.000000 
0.000000 -7.739259 0.000000 
0.000000 0.000000 0.000000 

-1.447969 3.818643 0.000000 
0.000000 -0.466406 0.000000 
0.000000 0.000000 0.000000 

TENSORS STRAIN float 
-0.005946 -0.004102 0.000000 
0.000000 0.002863 0.000000 
0.000000 0.000000 0.000000 

0.321095 0.117864 0.000000 
0.000000 -0.516721 0.000000 
0.000000 0.000000 0.000000 

-0.000189 -0.001103 0.000000 
0.000000 0.002571 0.000000 
0.000000 0.000000 0.000000 

-0.006583 0.014150 0.000000 
0.000000 -0.002148 0.000000 
0.000000 0.000000 0.000000 

0.048559 -0.068694 0.000000 
0.000000 -0.867457 0.000000 
0.000000 0.000000 0.000000 

-0.003440 -0.015010 0.000000 
0.000000 0.014820 0.000000 
0.000000 0.000000 0.000000 

-0.000200 -0.011554 0.000000 
0.000000 0.016413 0.000000 
0.000000 0.000000 0.000000 

0.110130 0.025069 0.000000 
0.000000 -0.917321 0.000000 
0.000000 0.000000 0.000000 

0.000751 -0.001656 0.000000 
0.000000 -0.008288 0.000000 
0.000000 0.000000 0.000000 

0.013284 0.012072 0.000000 
0.000000 -0.023730 0.000000 
0.000000 0.000000 0.000000 

0.110946 -0.101813 0.000000 
0.000000 -0.334505 0.000000 
0.000000 0.000000 0.000000 

-0.003391 0.008261 0.000000 
0.000000 0.009309 0.000000 
0.000000 0.000000 0.000000 

0.064879 0.085546 0.000000 
0.000000 -0.784814 0.000000 
0.000000 0.000000 0.000000 

0.005952 0.029163 0.000000 
0.000000 0.005590 0.000000 
0.000000 0.000000 0.000000 

-0.001953 0.014453 0.000000 
0.000000 -0.011491 0.000000 
0.000000 0.000000 0.000000 

0.051335 -0.100032 0.000000 
0.000000 -0.662051 0.000000 
0.000000 0.000000 0.000000 

-0.010298 0.000277 0.000000 
0.000000 0.003575 0.000000 
0.000000 0.000000 0.000000 

-0.015939 0.011484 0.000000 
0.000000 0.006881 0.000000 
0.000000 0.000000 0.000000 

0.078938 -0.022783 0.000000 
0.000000 -0.959217 0.000000 
0.000000 0.000000 0.000000 

-0.003396 0.000643 0.000000 
0.000000 0.006069 0.000000 
0.000000 0.000000 0.000000 

0.079739 0.172845 0.000000 
0.000000 -0.156207 0.000000 
0.000000 0.000000 0.000000 

-0.001111 -0.014898 0.000000 
0.000000 -0.005166 0.000000 
0.000000 0.000000 0.000000 

-0.004572 0.003356 0.000000 
0.000000 0.007347 0.000000 
0.000000 0.000000 0.000000 

0.377176 0.095682 0.000000 
0.000000 -0.633201 0.000000 
0.000000 0.000000 0.000000 

-0.001426 0.000042 0.000000 
0.000000 0.004496 0.000000 
0.000000 0.000000 0.000000 

-0.002661 0.036973 0.000000 
0.000000 -0.043338 0.000000 
0.000000 0.000000 0.000000 

0.020956 -0.094248 0.000000 
0.000000 -0.736161 0.000000 
0.000000 0.000000 0.000000 

-0.005967 -0.014885 0.000000 
0.000000 0.004689 0.000000 
0.000000 0.000000 0.000000 

-0.018376 0.005502 0.000000 
0.000000 0.014894 0.000000 
0.000000 0.000000 0.000000 

0.118030 -0.000148 0.000000 
0.000000 -0.960823 0.000000 
0.000000 0.000000 0.000000 

-0.001907 0.000743 0.000000 
0.000000 0.002782 0.000000 
0.000000 0.000000 0.000000 

0.017030 0.010130 0.000000 
0.000000 -0.024179 0.000000 
0.000000 0.000000 0.000000 

0.015552 -0.127442 0.000000 
0.000000 -0.102722 0.000000 
0.000000 0.000000 0.000000 

-0.001755 0.014463 0.000000 
0.000000 0.010889 0.000000 
0.000000 0.000000 0.000000 

0.096145 0.048657 0.000000 
0.000000 -0.872900 0.000000 
0.000000 0.000000 0.000000 

0.001933 -0.000232 0.000000 
0.000000 -0.011191 0.000000 
0.000000 0.000000 0.000000 

0.003666 0.016879 0.000000 
0.000000 -0.019865 0.000000 
0.000000 0.000000 0.000000 

0.200189 -0.086826 0.000000 
0.000000 -0.552015 0.000000 
0.000000 0.000000 0.000000 

-0.012649 0.013332 0.000000 
0.000000 0.001686 0.000000 
0.000000 0.000000 0.000000 

-0.009827 0.013250 0.000000 
0.000000 0.000186 0.000000 
0.000000 0.000000 0.000000 

0.070170 -0.039850 0.000000 
0.000000 -0.958126 0.000000 
0.000000 0.000000 0.000000 

-0.043153 -0.049146 0.000000 
0.000000 0.006901 0.000000 
0.000000 0.000000 0.000000 

0.236901 0.138510 0.000000 
0.000000 -0.402995 0.000000 
0.000000 0.000000 0.000000 

-0.000147 -0.010551 0.000000 
0.000000 -0.003604 0.000000 
0.000000 0.000000 0.000000 

-0.003095 0.001489 0.000000 
0.000000 0.005170 0.000000 
0.000000 0.000000 0.000000 

-0.000931 -0.003338 0.000000 
0.000000 -0.003615 0.000000 
0.000000 0.000000 0.000000 

-0.007374 0.007829 0.000000 
0.000000 0.002195 0.000000 
0.000000 0.000000 0.000000 

0.018148 -0.079211 0.000000 
0.000000 -0.692526 0.000000 
0.000000 0.000000 0.000000 

0.060314 0.055505 0.000000 
0.000000 -0.736787 0.000000 
0.000000 0.000000 0.000000 

0.135664 0.111283 0.000000 
0.000000 -0.254658 0.000000 
0.000000 0.000000 0.000000 

0.028401 -0.102674 0.000000 
0.000000 -0.131785 0.000000 
0.000000 0.000000 0.000000 

-0.019338 0.006306 0.000000 
0.000000 0.016440 0.000000 
0.000000 0.000000 0.000000 

-0.011597 0.012211 0.000000 
0.000000 0.002688 0.000000 
0.000000 0.000000 0.000000 

0.002749 0.001474 0.000000 
0.000000 -0.011274 0.000000 
0.000000 0.000000 0.000000 

-0.003799 -0.009381 0.000000 
0.000000 0.003611 0.000000 
0.000000 0.000000 0.000000 

0.033253 -0.050028 0.000000 
0.000000 -0.822505 0.000000 
0.000000 0.000000 0.000000 

0.035187 0.091232 0.000000 
0.000000 -0.628601 0.000000 
0.000000 0.000000 0.000000 

0.018847 0.004717 0.000000 
0.000000 -0.020737 0.000000 
0.000000 0.000000 0.000000 

0.000565 -0.003026 0.000000 
0.000000 0.001014 0.000000 
0.000000 0.000000 0.000000 

0.130784 -0.063728 0.000000 
0.000000 -0.432720 0.000000 
0.000000 0.000000 0.000000 

0.079443 -0.019259 0.000000 
0.000000 -0.870546 0.000000 
0.000000 0.000000 0.000000 

-0.000198 -0.008488 0.000000 
0.000000 0.017273 0.000000 
0.000000 0.000000 0.000000 

-0.002518 -0.014654 0.000000 
0.000000 0.016249 0.000000 
0.000000 0.000000 0.000000 

0.008305 0.007331 0.000000 
0.000000 -0.013685 0.000000 
0.000000 0.000000 0.000000 

-0.001127 0.006560 0.000000 
0.000000 0.006238 0.000000 
0.000000 0.000000 0.000000 

-0.000847 0.011601 0.000000 
0.000000 0.015883 0.000000 
0.000000 0.000000 0.000000 

-0.000316 -0.008250 0.000000 
0.000000 0.007154 0.000000 
0.000000 0.000000 0.000000 

-0.001184 -0.008494 0.000000 
0.000000 0.004741 0.000000 
0.000000 0.000000 0.000000 

-0.001006 -0.010888 0.000000 
0.000000 0.009148 0.000000 
0.000000 0.000000 0.000000 

-0.002212 -0.001568 0.000000 
0.000000 -0.001394 0.000000 
0.000000 0.000000 0.000000 

-0.002182 -0.004003 0.000000 
0.000000 0.007421 0.000000 
0.000000 0.000000 0.000000 

-0.002242 0.000838 0.000000 
0.000000 0.001189 0.000000 
0.000000 0.000000 0.000000 

-0.002205 -0.000211 0.000000 
0.000000 -0.005258 0.000000 
0.000000 0.000000 0.000000 

-0.002257 -0.002379 0.000000 
0.000000 0.009204 0.000000 
0.000000 0.000000 0.000000 

-0.002156 0.002567 0.000000 
0.000000 -0.004588 0.000000 
0.000000 0.000000 0.000000 

-0.001971 -0.002804 0.000000 
0.000000 -0.006046 0.000000 
0.000000 0.000000 0.000000 

-0.002402 0.001615 0.000000 
0.000000 0.008283 0.000000 
0.000000 0.000000 0.000000 

-0.008863 0.007420 0.000000 
0.000000 0.004735 0.000000 
0.000000 0.000000 0.000000 

-0.003414 0.004826 0.000000 
0.000000 0.003520 0.000000 
0.000000 0.000000 0.000000 

-0.002556 0.003848 0.000000 
0.000000 0.005154 0.000000 
0.000000 0.000000 0.000000 

-0.002748 -0.007870 0.000000 
0.000000 0.006433 0.000000 
0.000000 0.000000 0.000000 

-0.000896 0.007127 0.000000 
0.000000 -0.011948 0.000000 
0.000000 0.000000 0.000000 

-0.002809 0.008034 0.000000 
0.000000 0.006337 0.000000 
0.000000 0.000000 0.000000 

0.006709 0.001963 0.000000 
0.000000 -0.006602 0.000000 
0.000000 0.000000 0.000000 

0.011863 0.000789 0.000000 
0.000000 -0.011687 0.000000 
0.000000 0.000000 0.000000 

-0.000913 0.000525 0.000000 
0.000000 -0.007480 0.000000 
0.000000 0.000000 0.000000 

0.016783 0.002307 0.000000 
0.000000 -0.016219 0.000000 
0.000000 0.000000 0.000000 

0.019707 -0.005387 0.000000 
0.000000 -0.011733 0.000000 
0.000000 0.000000 0.000000 

0.007502 -0.010555 0.000000 
0.000000 0.004917 0.000000 
0.000000 0.000000 0.000000 

0.084280 0.018214 0.000000 
0.000000 -0.151068 0.000000 
0.000000 0.000000 0.000000 

0.007475 0.018285 0.000000 
0.000000 -0.241265 0.000000 
0.000000 0.000000 0.000000 

0.001339 0.015181 0.000000 
0.000000 -0.008292 0.000000 
0.000000 0.000000 0.000000 

0.017345 0.043880 0.000000 
0.000000 -0.438485 0.000000 
0.000000 0.000000 0.000000 

0.018233 0.033462 0.000000 
0.000000 -0.471010 0.000000 
0.000000 0.000000 0.000000 

0.003545 -0.018776 0.000000 
0.000000 -0.037225 0.000000 
0.000000 0.000000 0.000000 

0.033465 0.033393 0.000000 
0.000000 -0.574020 0.000000 
0.000000 0.000000 0.000000 

0.028177 0.007973 0.000000 
0.000000 -0.530324 0.000000 
0.000000 0.000000 0.000000 

0.008740 0.007315 0.000000 
0.000000 -0.284678 0.000000 
0.000000 0.000000 0.000000 

0.041522 -0.012657 0.000000 
0.000000 -0.633747 0.000000 
0.000000 0.000000 0.000000 

0.007256 -0.026822 0.000000 
0.000000 -0.558232 0.000000 
0.000000 0.000000 0.000000 

0.011983 0.002294 0.000000 
0.000000 -0.349860 0.000000 
0.000000 0.000000 0.000000 

0.012254 -0.042650 0.000000 
0.000000 -0.640754 0.000000 
0.000000 0.000000 0.000000 

0.003662 -0.042911 0.000000 
0.000000 -0.498451 0.000000 
0.000000 0.000000 0.000000 

0.000115 -0.021121 0.000000 
0.000000 -0.378571 0.000000 
0.000000 0.000000 0.000000 

0.004474 -0.059389 0.000000 
0.000000 -0.540767 0.000000 
0.000000 0.000000 0.000000 

-0.000274 -0.032131 0.000000 
0.000000 -0.361496 0.000000 
0.000000 0.000000 0.000000 

-0.000443 -0.020771 0.000000 
0.000000 -0.346410 0.000000 
0.000000 0.000000 0.000000 

-0.000475 -0.020335 0.000000 
0.000000 -0.289469 0.000000 
0.000000 0.000000 0.000000 

-0.012383 -0.007764 0.000000 
0.000000 -0.066154 0.000000 
0.000000 0.000000 0.000000 

-0.000303 -0.007839 0.000000 
0.000000 -0.184855 0.000000 
0.000000 0.000000 0.000000 

-0.000615 -0.015494 0.000000 
0.000000 -0.009030 0.000000 
0.000000 0.000000 0.000000 

0.000442 -0.012219 0.000000 
0.000000 -0.008985 0.000000 
0.000000 0.000000 0.000000 

0.001178 0.010957 0.000000 
0.000000 -0.032348 0.000000 
0.000000 0.000000 0.000000 

0.000756 -0.002661 0.000000 
0.000000 -0.000590 0.000000 
0.000000 0.000000 0.000000 

-0.000467 0.001571 0.000000 
0.000000 -0.000753 0.000000 
0.000000 0.000000 0.000000 

-0.000822 -0.001992 0.000000 
0.000000 -0.008857 0.000000 
0.000000 0.000000 0.000000 

-0.001640 0.001978 0.000000 
0.000000 0.000890 0.000000 
0.000000 0.000000 0.000000 

0.002150 0.025853 0.000000 
0.000000 0.009184 0.000000 
0.000000 0.000000 0.000000 

0.000440 0.004300 0.000000 
0.000000 0.003088 0.000000 
0.000000 0.000000 0.000000 

0.003034 0.004819 0.000000 
0.000000 -0.006516 0.000000 
0.000000 0.000000 0.000000 

0.001544 0.004771 0.000000 
0.000000 -0.001618 0.000000 
0.000000 0.000000 0.000000 

0.000060 0.007493 0.000000 
0.000000 -0.008353 0.000000 
0.000000 0.000000 0.000000 

-0.001095 -0.001218 0.000000 
0.000000 -0.000708 0.000000 
0.000000 0.000000 0.000000 

-0.001420 -0.004110 0.000000 
0.000000 -0.000114 0.000000 
0.000000 0.000000 0.000000 

0.000407 -0.008327 0.000000 
0.000000 -0.000908 0.000000 
0.000000 0.000000 0.000000 

-0.001651 0.004812 0.000000 
0.000000 0.004501 0.000000 
0.000000 0.000000 0.000000 

-0.001617 0.004999 0.000000 
0.000000 0.002254 0.000000 
0.000000 0.000000 0.000000 

-0.000735 -0.003827 0.000000 
0.000000 -0.001046 0.000000 
0.000000 0.000000 0.000000 

-0.001207 0.004353 0.000000 
0.000000 0.003888 0.000000 
0.000000 0.000000 0.000000 

-0.001290 0.005003 0.000000 
0.000000 -0.000785 0.000000 
0.000000 0.000000 0.000000 

-0.001638 0.004154 0.000000 
0.000000 0.001131 0.000000 
0.000000 0.000000 0.000000 

-0.000590 -0.006568 0.000000 
0.000000 -0.000697 0.000000 
0.000000 0.000000 0.000000 

-0.001366 -0.002767 0.000000 
0.000000 -0.002977 0.000000 
0.000000 0.000000 0.000000 

-0.001812 0.001642 0.000000 
0.000000 -0.005130 0.000000 
0.000000 0.000000 0.000000 

-0.002356 0.002479 0.000000 
0.000000 0.002358 0.000000 
0.000000 0.000000 0.000000 

-0.002521 0.006821 0.000000 
0.000000 -0.006395 0.000000 
0.000000 0.000000 0.000000 

0.008393 -0.007886 0.000000 
0.000000 -0.297238 0.000000 
0.000000 0.000000 0.000000 

-0.000050 -0.009440 0.000000 
0.000000 -0.009215 0.000000 
0.000000 0.000000 0.000000 

-0.000958 0.005104 0.000000 
0.000000 -0.003328 0.000000 
0.000000 0.000000 0.000000 

-0.000535 -0.009247 0.000000 
0.000000 -0.220672 0.000000 
0.000000 0.000000 0.000000 

0.000194 -0.006675 0.000000 
0.000000 -0.002546 0.000000 
0.000000 0.000000 0.000000 

-0.001878 0.005115 0.000000 
0.000000 -0.003475 0.000000 
0.000000 0.000000 0.000000 

0.003237 -0.014752 0.000000 
0.000000 -0.036662 0.000000 
0.000000 0.000000 0.000000 

-0.002308 0.004531 0.000000 
0.000000 -0.005837 0.000000 
0.000000 0.000000 0.000000 

-0.000325 -0.001677 0.000000 
0.000000 -0.008012 0.000000 
0.000000 0.000000 0.000000 

-0.002417 0.004781 0.000000 
0.000000 -0.002123 0.000000 
0.000000 0.000000 0.000000 

-0.002627 0.008540 0.000000 
0.000000 -0.000247 0.000000 
0.000000 0.000000 0.000000 

-0.002432 0.007175 0.000000 
0.000000 -0.004251 0.000000 
0.000000 0.000000 0.000000 

-0.001540 -0.001400 0.000000 
0.000000 0.001883 0.000000 
0.000000 0.000000 0.000000 

-0.002431 0.006026 0.000000 
0.000000 0.000737 0.000000 
0.000000 0.000000 0.000000 

-0.002030 -0.001530 0.000000 
0.000000 0.000697 0.000000 
0.000000 0.000000 0.000000 

-0.001520 -0.000303 0.000000 
0.000000 0.007319 0.000000 
0.000000 0.000000 0.000000 

-0.001304 0.006149 0.000000 
0.000000 -0.009656 0.000000 
0.000000 0.000000 0.000000 

-0.002549 0.006235 0.000000 
0.000000 0.002011 0.000000 
0.000000 0.000000 0.000000 

0.001710 0.008523 0.000000 
0.000000 -0.005435 0.000000 
0.000000 0.000000 0.000000 

-0.001932 0.000877 0.000000 
0.000000 -0.008004 0.000000 
0.000000 0.000000 0.000000 

-0.001317 0.003012 0.000000 
0.000000 -0.013285 0.000000 
0.000000 0.000000 0.000000 

-0.001612 -0.001921 0.000000 
0.000000 0.003549 0.000000 
0.000000 0.000000 0.000000 

-0.001462 -0.000842 0.000000 
0.000000 0.010927 0.000000 
0.000000 0.000000 0.000000 

-0.001910 -0.000373 0.000000 
0.000000 -0.009200 0.000000 
0.000000 0.000000 0.000000 

-0.002265 0.004225 0.000000 
0.000000 0.011156 0.000000 
0.000000 0.000000 0.000000 

0.000461 -0.003617 0.000000 
0.000000 -0.009985 0.000000 
0.000000 0.000000 0.000000 

-0.001243 -0.001358 0.000000 
0.000000 -0.006104 0.000000 
0.000000 0.000000 0.000000 

0.001676 0.004866 0.000000 
0.000000 -0.003822 0.000000 
0.000000 0.000000 0.000000 

-0.000218 -0.008726 0.000000 
0.000000 0.001062 0.000000 
0.000000 0.000000 0.000000 

-0.000603 -0.004460 0.000000 
0.000000 0.022477 0.000000 
0.000000 0.000000 0.000000 

-0.001037 0.002917 0.000000 
0.000000 -0.000229 0.000000 
0.000000 0.000000 0.000000 

-0.000657 -0.007628 0.000000 
0.000000 0.006295 0.000000 
0.000000 0.000000 0.000000 

-0.001576 -0.000312 0.000000 
0.000000 -0.014570 0.000000 
0.000000 0.000000 0.000000 

-0.000855 -0.003399 0.000000 
0.000000 -0.008389 0.000000 
0.000000 0.000000 0.000000 

0.000987 -0.001184 0.000000 
0.000000 -0.002147 0.000000 
0.000000 0.000000 0.000000 

-0.000256 -0.008536 0.000000 
0.000000 -0.044595 0.000000 
0.000000 0.000000 0.000000 

-0.000851 -0.004794 0.000000 
0.000000 -0.008764 0.000000 
0.000000 0.000000 0.000000 

0.000455 -0.005204 0.000000 
0.000000 -0.005325 0.000000 
0.000000 0.000000 0.000000 

-0.000480 -0.007718 0.000000 
0.000000 -0.008394 0.000000 
0.000000 0.000000 0.000000 

-0.001608 0.000401 0.000000 
0.000000 -0.010000 0.000000 
0.000000 0.000000 0.000000 

-0.000724 -0.007124 0.000000 
0.000000 0.006163 0.000000 
0.000000 0.000000 0.000000 

0.000490 0.006227 0.000000 
0.000000 -0.017866 0.000000 
0.000000 0.000000 0.000000 

-0.001644 0.000778 0.000000 
0.000000 -0.006721 0.000000 
0.000000 0.000000 0.000000 

0.000411 -0.013120 0.000000 
0.000000 -0.002453 0.000000 
0.000000 0.000000 0.000000 

0.000206 -0.004844 0.000000 
0.000000 -0.006218 0.000000 
0.000000 0.000000 0.000000 

-0.000820 -0.002535 0.000000 
0.000000 -0.003505 0.000000 
0.000000 0.000000 0.000000 

0.002861 -0.001260 0.000000 
0.000000 -0.019476 0.000000 
0.000000 0.000000 0.000000 

-0.000965 0.004220 0.000000 
0.000000 0.000119 0.000000 
0.000000 0.000000 0.000000 

