# vtk DataFile Version 3.0 
vtk output 
ASCII 
DATASET UNSTRUCTURED_GRID 
POINTS 175 float 
-0.022154 -2.512320 0.000000 
-0.099686 -2.440247 0.000000 
-0.050829 -2.446586 0.000000 
-0.026115 -2.403000 0.000000 
-0.177408 -2.386238 0.000000 
-0.129863 -2.385551 0.000000 
-0.114324 -2.332268 0.000000 
-0.057809 -2.346352 0.000000 
-0.029488 -2.307813 0.000000 
-0.270425 -2.321930 0.000000 
-0.219854 -2.327756 0.000000 
-0.206063 -2.267522 0.000000 
-0.149717 -2.273809 0.000000 
-0.126142 -2.220636 0.000000 
-0.062341 -2.241026 0.000000 
-0.031941 -2.200310 0.000000 
-0.355148 -2.270180 0.000000 
-0.310383 -2.262549 0.000000 
-0.299957 -2.197399 0.000000 
-0.245280 -2.206057 0.000000 
-0.219298 -2.165913 0.000000 
-0.158906 -2.168583 0.000000 
-0.127593 -2.131332 0.000000 
-0.065509 -2.142283 0.000000 
-0.031639 -2.113685 0.000000 
-0.052871 -2.563203 0.000000 
-0.142307 -2.593374 0.000000 
-0.111354 -2.543268 0.000000 
-0.130592 -2.488790 0.000000 
-0.226526 -2.605714 0.000000 
-0.201697 -2.568589 0.000000 
-0.236831 -2.504125 0.000000 
-0.193225 -2.476680 0.000000 
-0.210380 -2.430765 0.000000 
-0.330493 -2.629541 0.000000 
-0.298962 -2.585657 0.000000 
-0.333913 -2.524597 0.000000 
-0.301920 -2.487837 0.000000 
-0.327323 -2.442399 0.000000 
-0.280435 -2.411018 0.000000 
-0.300478 -2.369130 0.000000 
-0.401474 -2.649619 0.000000 
-0.392948 -2.611815 0.000000 
-0.439355 -2.541919 0.000000 
-0.404605 -2.511396 0.000000 
-0.438806 -2.471785 0.000000 
-0.396610 -2.431471 0.000000 
-0.426548 -2.387161 0.000000 
-0.371090 -2.355210 0.000000 
-0.390596 -2.319247 0.000000 
-0.041525 -2.626010 0.000000 
-0.080648 -2.732018 0.000000 
-0.088280 -2.674111 0.000000 
-0.125761 -2.656572 0.000000 
-0.101528 -2.819957 0.000000 
-0.112591 -2.770943 0.000000 
-0.160204 -2.747455 0.000000 
-0.163547 -2.695560 0.000000 
-0.207581 -2.667241 0.000000 
-0.166656 -2.919031 0.000000 
-0.143731 -2.851605 0.000000 
-0.191882 -2.838772 0.000000 
-0.202216 -2.790832 0.000000 
-0.265825 -2.773311 0.000000 
-0.265641 -2.714770 0.000000 
-0.318006 -2.698014 0.000000 
-0.308276 -3.168153 0.000000 
-0.268573 -3.023015 0.000000 
-0.354160 -3.049447 0.000000 
-0.293937 -2.885724 0.000000 
-0.310354 -2.833521 0.000000 
-0.311943 -2.798878 0.000000 
-0.365239 -2.779793 0.000000 
-0.370624 -2.739203 0.000000 
-0.386187 -2.723519 0.000000 
-0.000000 -2.651708 0.000000 
0.037292 -2.753884 0.000000 
0.000000 -2.727330 0.000000 
-0.037292 -2.753884 0.000000 
0.069395 -2.841744 0.000000 
0.035963 -2.816567 0.000000 
0.000000 -2.861259 0.000000 
-0.035963 -2.816567 0.000000 
-0.069395 -2.841744 0.000000 
0.135918 -2.959853 0.000000 
0.088745 -2.924555 0.000000 
0.067434 -3.007825 0.000000 
-0.000000 -2.948702 0.000000 
-0.067434 -3.007825 0.000000 
-0.088745 -2.924555 0.000000 
-0.135918 -2.959853 0.000000 
0.221165 -3.184049 0.000000 
0.150834 -3.072939 0.000000 
0.171871 -3.222855 0.000000 
0.100067 -3.103541 0.000000 
-0.000000 -3.280841 0.000000 
-0.100067 -3.103541 0.000000 
-0.171871 -3.222855 0.000000 
-0.150834 -3.072939 0.000000 
-0.221165 -3.184049 0.000000 
0.041525 -2.626010 0.000000 
0.125761 -2.656572 0.000000 
0.088280 -2.674111 0.000000 
0.080648 -2.732018 0.000000 
0.207581 -2.667241 0.000000 
0.163547 -2.695560 0.000000 
0.160204 -2.747455 0.000000 
0.112591 -2.770943 0.000000 
0.101528 -2.819957 0.000000 
0.318006 -2.698014 0.000000 
0.265641 -2.714770 0.000000 
0.265825 -2.773311 0.000000 
0.202216 -2.790832 0.000000 
0.191882 -2.838772 0.000000 
0.143731 -2.851605 0.000000 
0.166656 -2.919031 0.000000 
0.386187 -2.723519 0.000000 
0.370624 -2.739203 0.000000 
0.365239 -2.779793 0.000000 
0.311943 -2.798878 0.000000 
0.310354 -2.833521 0.000000 
0.293937 -2.885724 0.000000 
0.354160 -3.049447 0.000000 
0.268573 -3.023015 0.000000 
0.308276 -3.168153 0.000000 
0.052871 -2.563203 0.000000 
0.130592 -2.488790 0.000000 
0.111354 -2.543268 0.000000 
0.142307 -2.593374 0.000000 
0.210380 -2.430765 0.000000 
0.193225 -2.476680 0.000000 
0.236831 -2.504125 0.000000 
0.201697 -2.568589 0.000000 
0.226526 -2.605714 0.000000 
0.300478 -2.369130 0.000000 
0.280435 -2.411018 0.000000 
0.327323 -2.442399 0.000000 
0.301920 -2.487837 0.000000 
0.333913 -2.524597 0.000000 
0.298962 -2.585657 0.000000 
0.330493 -2.629541 0.000000 
0.390596 -2.319247 0.000000 
0.371090 -2.355210 0.000000 
0.426548 -2.387161 0.000000 
0.396610 -2.431471 0.000000 
0.438806 -2.471785 0.000000 
0.404605 -2.511396 0.000000 
0.439355 -2.541919 0.000000 
0.392948 -2.611815 0.000000 
0.401474 -2.649619 0.000000 
0.022154 -2.512320 0.000000 
0.026115 -2.403000 0.000000 
0.050829 -2.446586 0.000000 
0.099686 -2.440247 0.000000 
0.029488 -2.307813 0.000000 
0.057809 -2.346352 0.000000 
0.114324 -2.332268 0.000000 
0.129863 -2.385551 0.000000 
0.177408 -2.386238 0.000000 
0.031941 -2.200310 0.000000 
0.062341 -2.241026 0.000000 
0.126142 -2.220636 0.000000 
0.149717 -2.273809 0.000000 
0.206063 -2.267522 0.000000 
0.219854 -2.327756 0.000000 
0.270425 -2.321930 0.000000 
0.031639 -2.113685 0.000000 
0.065509 -2.142283 0.000000 
0.127593 -2.131332 0.000000 
0.158906 -2.168583 0.000000 
0.219298 -2.165913 0.000000 
0.245280 -2.206057 0.000000 
0.299957 -2.197399 0.000000 
0.310383 -2.262549 0.000000 
0.355148 -2.270180 0.000000 
CELLS 175 350 
1 0 
1 1 
1 2 
1 3 
1 4 
1 5 
1 6 
1 7 
1 8 
1 9 
1 10 
1 11 
1 12 
1 13 
1 14 
1 15 
1 16 
1 17 
1 18 
1 19 
1 20 
1 21 
1 22 
1 23 
1 24 
1 25 
1 26 
1 27 
1 28 
1 29 
1 30 
1 31 
1 32 
1 33 
1 34 
1 35 
1 36 
1 37 
1 38 
1 39 
1 40 
1 41 
1 42 
1 43 
1 44 
1 45 
1 46 
1 47 
1 48 
1 49 
1 50 
1 51 
1 52 
1 53 
1 54 
1 55 
1 56 
1 57 
1 58 
1 59 
1 60 
1 61 
1 62 
1 63 
1 64 
1 65 
1 66 
1 67 
1 68 
1 69 
1 70 
1 71 
1 72 
1 73 
1 74 
1 75 
1 76 
1 77 
1 78 
1 79 
1 80 
1 81 
1 82 
1 83 
1 84 
1 85 
1 86 
1 87 
1 88 
1 89 
1 90 
1 91 
1 92 
1 93 
1 94 
1 95 
1 96 
1 97 
1 98 
1 99 
1 100 
1 101 
1 102 
1 103 
1 104 
1 105 
1 106 
1 107 
1 108 
1 109 
1 110 
1 111 
1 112 
1 113 
1 114 
1 115 
1 116 
1 117 
1 118 
1 119 
1 120 
1 121 
1 122 
1 123 
1 124 
1 125 
1 126 
1 127 
1 128 
1 129 
1 130 
1 131 
1 132 
1 133 
1 134 
1 135 
1 136 
1 137 
1 138 
1 139 
1 140 
1 141 
1 142 
1 143 
1 144 
1 145 
1 146 
1 147 
1 148 
1 149 
1 150 
1 151 
1 152 
1 153 
1 154 
1 155 
1 156 
1 157 
1 158 
1 159 
1 160 
1 161 
1 162 
1 163 
1 164 
1 165 
1 166 
1 167 
1 168 
1 169 
1 170 
1 171 
1 172 
1 173 
1 174 
CELL_TYPES 175 
1 
1 
1 
1 
1 
1 
1 
1 
1 
1 
1 
1 
1 
1 
1 
1 
1 
1 
1 
1 
1 
1 
1 
1 
1 
1 
1 
1 
1 
1 
1 
1 
1 
1 
1 
1 
1 
1 
1 
1 
1 
1 
1 
1 
1 
1 
1 
1 
1 
1 
1 
1 
1 
1 
1 
1 
1 
1 
1 
1 
1 
1 
1 
1 
1 
1 
1 
1 
1 
1 
1 
1 
1 
1 
1 
1 
1 
1 
1 
1 
1 
1 
1 
1 
1 
1 
1 
1 
1 
1 
1 
1 
1 
1 
1 
1 
1 
1 
1 
1 
1 
1 
1 
1 
1 
1 
1 
1 
1 
1 
1 
1 
1 
1 
1 
1 
1 
1 
1 
1 
1 
1 
1 
1 
1 
1 
1 
1 
1 
1 
1 
1 
1 
1 
1 
1 
1 
1 
1 
1 
1 
1 
1 
1 
1 
1 
1 
1 
1 
1 
1 
1 
1 
1 
1 
1 
1 
1 
1 
1 
1 
1 
1 
1 
1 
1 
1 
1 
1 
1 
1 
1 
1 
1 
1 
POINT_DATA 175 
VECTORS X_GC float 
-0.022154 -2.512320 0.000000 
-0.099686 -2.440247 0.000000 
-0.050829 -2.446586 0.000000 
-0.026115 -2.403000 0.000000 
-0.177408 -2.386238 0.000000 
-0.129863 -2.385551 0.000000 
-0.114324 -2.332268 0.000000 
-0.057809 -2.346352 0.000000 
-0.029488 -2.307813 0.000000 
-0.270425 -2.321930 0.000000 
-0.219854 -2.327756 0.000000 
-0.206063 -2.267522 0.000000 
-0.149717 -2.273809 0.000000 
-0.126142 -2.220636 0.000000 
-0.062341 -2.241026 0.000000 
-0.031941 -2.200310 0.000000 
-0.355148 -2.270180 0.000000 
-0.310383 -2.262549 0.000000 
-0.299957 -2.197399 0.000000 
-0.245280 -2.206057 0.000000 
-0.219298 -2.165913 0.000000 
-0.158906 -2.168583 0.000000 
-0.127593 -2.131332 0.000000 
-0.065509 -2.142283 0.000000 
-0.031639 -2.113685 0.000000 
-0.052871 -2.563203 0.000000 
-0.142307 -2.593374 0.000000 
-0.111354 -2.543268 0.000000 
-0.130592 -2.488790 0.000000 
-0.226526 -2.605714 0.000000 
-0.201697 -2.568589 0.000000 
-0.236831 -2.504125 0.000000 
-0.193225 -2.476680 0.000000 
-0.210380 -2.430765 0.000000 
-0.330493 -2.629541 0.000000 
-0.298962 -2.585657 0.000000 
-0.333913 -2.524597 0.000000 
-0.301920 -2.487837 0.000000 
-0.327323 -2.442399 0.000000 
-0.280435 -2.411018 0.000000 
-0.300478 -2.369130 0.000000 
-0.401474 -2.649619 0.000000 
-0.392948 -2.611815 0.000000 
-0.439355 -2.541919 0.000000 
-0.404605 -2.511396 0.000000 
-0.438806 -2.471785 0.000000 
-0.396610 -2.431471 0.000000 
-0.426548 -2.387161 0.000000 
-0.371090 -2.355210 0.000000 
-0.390596 -2.319247 0.000000 
-0.041525 -2.626010 0.000000 
-0.080648 -2.732018 0.000000 
-0.088280 -2.674111 0.000000 
-0.125761 -2.656572 0.000000 
-0.101528 -2.819957 0.000000 
-0.112591 -2.770943 0.000000 
-0.160204 -2.747455 0.000000 
-0.163547 -2.695560 0.000000 
-0.207581 -2.667241 0.000000 
-0.166656 -2.919031 0.000000 
-0.143731 -2.851605 0.000000 
-0.191882 -2.838772 0.000000 
-0.202216 -2.790832 0.000000 
-0.265825 -2.773311 0.000000 
-0.265641 -2.714770 0.000000 
-0.318006 -2.698014 0.000000 
-0.308276 -3.168153 0.000000 
-0.268573 -3.023015 0.000000 
-0.354160 -3.049447 0.000000 
-0.293937 -2.885724 0.000000 
-0.310354 -2.833521 0.000000 
-0.311943 -2.798878 0.000000 
-0.365239 -2.779793 0.000000 
-0.370624 -2.739203 0.000000 
-0.386187 -2.723519 0.000000 
-0.000000 -2.651708 0.000000 
0.037292 -2.753884 0.000000 
0.000000 -2.727330 0.000000 
-0.037292 -2.753884 0.000000 
0.069395 -2.841744 0.000000 
0.035963 -2.816567 0.000000 
0.000000 -2.861259 0.000000 
-0.035963 -2.816567 0.000000 
-0.069395 -2.841744 0.000000 
0.135918 -2.959853 0.000000 
0.088745 -2.924555 0.000000 
0.067434 -3.007825 0.000000 
-0.000000 -2.948702 0.000000 
-0.067434 -3.007825 0.000000 
-0.088745 -2.924555 0.000000 
-0.135918 -2.959853 0.000000 
0.221165 -3.184049 0.000000 
0.150834 -3.072939 0.000000 
0.171871 -3.222855 0.000000 
0.100067 -3.103541 0.000000 
-0.000000 -3.280841 0.000000 
-0.100067 -3.103541 0.000000 
-0.171871 -3.222855 0.000000 
-0.150834 -3.072939 0.000000 
-0.221165 -3.184049 0.000000 
0.041525 -2.626010 0.000000 
0.125761 -2.656572 0.000000 
0.088280 -2.674111 0.000000 
0.080648 -2.732018 0.000000 
0.207581 -2.667241 0.000000 
0.163547 -2.695560 0.000000 
0.160204 -2.747455 0.000000 
0.112591 -2.770943 0.000000 
0.101528 -2.819957 0.000000 
0.318006 -2.698014 0.000000 
0.265641 -2.714770 0.000000 
0.265825 -2.773311 0.000000 
0.202216 -2.790832 0.000000 
0.191882 -2.838772 0.000000 
0.143731 -2.851605 0.000000 
0.166656 -2.919031 0.000000 
0.386187 -2.723519 0.000000 
0.370624 -2.739203 0.000000 
0.365239 -2.779793 0.000000 
0.311943 -2.798878 0.000000 
0.310354 -2.833521 0.000000 
0.293937 -2.885724 0.000000 
0.354160 -3.049447 0.000000 
0.268573 -3.023015 0.000000 
0.308276 -3.168153 0.000000 
0.052871 -2.563203 0.000000 
0.130592 -2.488790 0.000000 
0.111354 -2.543268 0.000000 
0.142307 -2.593374 0.000000 
0.210380 -2.430765 0.000000 
0.193225 -2.476680 0.000000 
0.236831 -2.504125 0.000000 
0.201697 -2.568589 0.000000 
0.226526 -2.605714 0.000000 
0.300478 -2.369130 0.000000 
0.280435 -2.411018 0.000000 
0.327323 -2.442399 0.000000 
0.301920 -2.487837 0.000000 
0.333913 -2.524597 0.000000 
0.298962 -2.585657 0.000000 
0.330493 -2.629541 0.000000 
0.390596 -2.319247 0.000000 
0.371090 -2.355210 0.000000 
0.426548 -2.387161 0.000000 
0.396610 -2.431471 0.000000 
0.438806 -2.471785 0.000000 
0.404605 -2.511396 0.000000 
0.439355 -2.541919 0.000000 
0.392948 -2.611815 0.000000 
0.401474 -2.649619 0.000000 
0.022154 -2.512320 0.000000 
0.026115 -2.403000 0.000000 
0.050829 -2.446586 0.000000 
0.099686 -2.440247 0.000000 
0.029488 -2.307813 0.000000 
0.057809 -2.346352 0.000000 
0.114324 -2.332268 0.000000 
0.129863 -2.385551 0.000000 
0.177408 -2.386238 0.000000 
0.031941 -2.200310 0.000000 
0.062341 -2.241026 0.000000 
0.126142 -2.220636 0.000000 
0.149717 -2.273809 0.000000 
0.206063 -2.267522 0.000000 
0.219854 -2.327756 0.000000 
0.270425 -2.321930 0.000000 
0.031639 -2.113685 0.000000 
0.065509 -2.142283 0.000000 
0.127593 -2.131332 0.000000 
0.158906 -2.168583 0.000000 
0.219298 -2.165913 0.000000 
0.245280 -2.206057 0.000000 
0.299957 -2.197399 0.000000 
0.310383 -2.262549 0.000000 
0.355148 -2.270180 0.000000 
VECTORS X_EC float 
0.287998 0.416317 0.000000 
-0.704086 -0.556662 0.000000 
0.660780 -0.471094 0.000000 
0.339495 0.940500 0.000000 
0.306305 0.714215 0.000000 
-0.311783 0.704934 0.000000 
-0.513784 -0.014376 0.000000 
0.751514 0.175759 0.000000 
0.383349 -0.344520 0.000000 
-0.484472 -0.153946 0.000000 
0.858099 -0.075297 0.000000 
0.678823 -0.888457 0.000000 
-0.053673 -0.803578 0.000000 
-0.360151 0.478586 0.000000 
0.810434 0.753849 0.000000 
0.415228 0.204184 0.000000 
0.616927 -0.852568 0.000000 
0.034982 -0.955587 0.000000 
-0.100557 0.164886 0.000000 
-0.811357 0.281770 0.000000 
0.850876 -0.260173 0.000000 
0.065774 -0.224129 0.000000 
-0.341288 -0.727022 0.000000 
0.851620 -0.579173 0.000000 
0.411304 -0.965250 0.000000 
0.687319 -0.896755 0.000000 
-0.150013 -0.489448 0.000000 
-0.552393 0.834113 0.000000 
-0.302301 0.098665 0.000000 
0.944834 -0.322867 0.000000 
0.622057 -0.824047 0.000000 
-0.921191 0.305681 0.000000 
0.511930 -0.064818 0.000000 
0.734945 -0.684676 0.000000 
0.296403 -0.001200 0.000000 
-0.113489 -0.593635 0.000000 
0.340868 0.582057 0.000000 
-0.075044 0.085797 0.000000 
0.255199 -0.527609 0.000000 
-0.354339 -0.951257 0.000000 
-0.093791 0.483250 0.000000 
-0.780833 0.269853 0.000000 
-0.891671 -0.240496 0.000000 
-0.288391 0.815903 0.000000 
-0.740137 0.403842 0.000000 
-0.295523 -0.130904 0.000000 
-0.844064 -0.675141 0.000000 
-0.454877 0.726674 0.000000 
0.824176 0.295339 0.000000 
-0.922247 -0.190162 0.000000 
0.539828 -0.048859 0.000000 
-0.951574 -0.617759 0.000000 
-0.852360 0.600498 0.000000 
-0.365105 0.363725 0.000000 
-0.680136 0.569423 0.000000 
-0.536323 -0.092268 0.000000 
0.082654 -0.409361 0.000000 
0.126106 0.890063 0.000000 
0.698551 0.507751 0.000000 
0.166530 -0.093087 0.000000 
-0.131500 0.996662 0.000000 
0.494472 0.823419 0.000000 
0.628807 0.176230 0.000000 
-0.544276 -0.060301 0.000000 
-0.546670 -0.850603 0.000000 
0.134075 0.923186 0.000000 
0.808930 0.945648 0.000000 
0.822002 0.973845 0.000000 
0.315175 0.903630 0.000000 
-0.178820 -0.542722 0.000000 
0.034598 0.752540 0.000000 
0.055256 0.284850 0.000000 
0.748106 0.027203 0.000000 
0.818115 -0.520756 0.000000 
-0.979574 -0.732499 0.000000 
0.000000 0.298065 0.000000 
-0.484800 -0.322564 0.000000 
-0.000000 -0.681043 0.000000 
0.484800 -0.322564 0.000000 
-0.902129 0.863548 0.000000 
-0.467523 0.523649 0.000000 
-0.000000 -0.873009 0.000000 
0.467523 0.523649 0.000000 
0.902129 0.863548 0.000000 
0.233061 0.458022 0.000000 
0.846316 -0.018508 0.000000 
0.748521 0.978687 0.000000 
0.000000 0.307481 0.000000 
-0.748521 0.978687 0.000000 
-0.846316 -0.018508 0.000000 
-0.233061 0.458022 0.000000 
0.704269 0.937207 0.000000 
-0.724313 0.961051 0.000000 
0.412755 0.887080 0.000000 
0.791852 0.988079 0.000000 
0.000000 0.760633 0.000000 
-0.791852 0.988079 0.000000 
-0.412755 0.887080 0.000000 
0.724313 0.961051 0.000000 
-0.704269 0.937207 0.000000 
-0.539828 -0.048859 0.000000 
0.365105 0.363725 0.000000 
0.852360 0.600498 0.000000 
0.951574 -0.617759 0.000000 
-0.698551 0.507751 0.000000 
-0.126106 0.890063 0.000000 
-0.082654 -0.409361 0.000000 
0.536323 -0.092268 0.000000 
0.680136 0.569423 0.000000 
-0.134075 0.923186 0.000000 
0.546670 -0.850603 0.000000 
0.544276 -0.060301 0.000000 
-0.628807 0.176230 0.000000 
-0.494472 0.823419 0.000000 
0.131500 0.996662 0.000000 
-0.166530 -0.093087 0.000000 
0.979574 -0.732499 0.000000 
-0.818115 -0.520756 0.000000 
-0.748106 0.027203 0.000000 
-0.055256 0.284850 0.000000 
-0.034598 0.752540 0.000000 
0.178820 -0.542722 0.000000 
-0.315175 0.903630 0.000000 
-0.822002 0.973845 0.000000 
-0.808930 0.945648 0.000000 
-0.687319 -0.896755 0.000000 
0.302301 0.098665 0.000000 
0.552393 0.834113 0.000000 
0.150013 -0.489448 0.000000 
-0.734945 -0.684676 0.000000 
-0.511930 -0.064818 0.000000 
0.921191 0.305681 0.000000 
-0.622057 -0.824047 0.000000 
-0.944834 -0.322867 0.000000 
0.093791 0.483250 0.000000 
0.354339 -0.951257 0.000000 
-0.255199 -0.527609 0.000000 
0.075044 0.085797 0.000000 
-0.340868 0.582057 0.000000 
0.113489 -0.593635 0.000000 
-0.296403 -0.001200 0.000000 
0.922247 -0.190162 0.000000 
-0.824176 0.295339 0.000000 
0.454877 0.726674 0.000000 
0.844064 -0.675141 0.000000 
0.295523 -0.130904 0.000000 
0.740137 0.403843 0.000000 
0.288391 0.815903 0.000000 
0.891671 -0.240496 0.000000 
0.780833 0.269853 0.000000 
-0.287998 0.416317 0.000000 
-0.339495 0.940500 0.000000 
-0.660780 -0.471094 0.000000 
0.704086 -0.556662 0.000000 
-0.383349 -0.344520 0.000000 
-0.751514 0.175759 0.000000 
0.513784 -0.014376 0.000000 
0.311783 0.704934 0.000000 
-0.306305 0.714215 0.000000 
-0.415228 0.204184 0.000000 
-0.810434 0.753849 0.000000 
0.360151 0.478586 0.000000 
0.053673 -0.803578 0.000000 
-0.678823 -0.888457 0.000000 
-0.858099 -0.075297 0.000000 
0.484471 -0.153946 0.000000 
-0.411304 -0.965250 0.000000 
-0.851620 -0.579173 0.000000 
0.341288 -0.727022 0.000000 
-0.065774 -0.224129 0.000000 
-0.850876 -0.260173 0.000000 
0.811357 0.281770 0.000000 
0.100557 0.164886 0.000000 
-0.034982 -0.955587 0.000000 
-0.616927 -0.852568 0.000000 
CELL_DATA 175 
SCALARS MASS float 
LOOKUP_TABLE default 
0.781831 
0.864274 
0.946717 
0.864274 
0.881307 
0.921110 
0.858535 
0.921110 
0.881307 
0.887046 
0.910001 
0.869829 
0.915556 
0.869829 
0.910001 
0.887046 
0.892784 
0.915740 
0.892784 
0.927218 
0.892784 
0.927218 
0.892784 
0.915740 
0.892784 
0.781831 
0.864274 
0.946717 
0.864274 
0.881307 
0.921110 
0.858535 
0.921110 
0.881307 
0.887046 
0.910001 
0.869829 
0.915556 
0.869829 
0.910001 
0.887046 
0.892784 
0.915740 
0.892784 
0.927218 
0.892784 
0.927218 
0.892784 
0.915740 
0.892784 
0.781831 
0.864274 
0.946717 
0.864274 
0.881307 
0.921110 
0.858535 
0.921110 
0.881307 
0.887046 
0.910001 
0.869829 
0.915556 
0.869829 
0.910001 
0.887046 
0.892784 
0.915740 
0.892784 
0.927218 
0.892784 
0.927218 
0.892784 
0.915740 
0.892784 
0.781831 
0.864274 
0.946717 
0.864274 
0.881307 
0.921110 
0.858535 
0.921110 
0.881307 
0.887046 
0.910001 
0.869829 
0.915556 
0.869829 
0.910001 
0.887046 
0.892784 
0.915740 
0.892784 
0.927218 
0.892784 
0.927218 
0.892784 
0.915740 
0.892784 
0.781831 
0.864274 
0.946717 
0.864274 
0.881307 
0.921110 
0.858535 
0.921110 
0.881307 
0.887046 
0.910001 
0.869829 
0.915556 
0.869829 
0.910001 
0.887046 
0.892784 
0.915740 
0.892784 
0.927218 
0.892784 
0.927218 
0.892784 
0.915740 
0.892784 
0.781831 
0.864274 
0.946717 
0.864274 
0.881307 
0.921110 
0.858535 
0.921110 
0.881307 
0.887046 
0.910001 
0.869829 
0.915556 
0.869829 
0.910001 
0.887046 
0.892784 
0.915740 
0.892784 
0.927218 
0.892784 
0.927218 
0.892784 
0.915740 
0.892784 
0.781831 
0.864274 
0.946717 
0.864274 
0.881307 
0.921110 
0.858535 
0.921110 
0.881307 
0.887046 
0.910001 
0.869829 
0.915556 
0.869829 
0.910001 
0.887046 
0.892784 
0.915740 
0.892784 
0.927218 
0.892784 
0.927218 
0.892784 
0.915740 
0.892784 
SCALARS MASS float 
LOOKUP_TABLE default 
0.781831 
0.864274 
0.946717 
0.864274 
0.881307 
0.921110 
0.858535 
0.921110 
0.881307 
0.887046 
0.910001 
0.869829 
0.915556 
0.869829 
0.910001 
0.887046 
0.892784 
0.915740 
0.892784 
0.927218 
0.892784 
0.927218 
0.892784 
0.915740 
0.892784 
0.781831 
0.864274 
0.946717 
0.864274 
0.881307 
0.921110 
0.858535 
0.921110 
0.881307 
0.887046 
0.910001 
0.869829 
0.915556 
0.869829 
0.910001 
0.887046 
0.892784 
0.915740 
0.892784 
0.927218 
0.892784 
0.927218 
0.892784 
0.915740 
0.892784 
0.781831 
0.864274 
0.946717 
0.864274 
0.881307 
0.921110 
0.858535 
0.921110 
0.881307 
0.887046 
0.910001 
0.869829 
0.915556 
0.869829 
0.910001 
0.887046 
0.892784 
0.915740 
0.892784 
0.927218 
0.892784 
0.927218 
0.892784 
0.915740 
0.892784 
0.781831 
0.864274 
0.946717 
0.864274 
0.881307 
0.921110 
0.858535 
0.921110 
0.881307 
0.887046 
0.910001 
0.869829 
0.915556 
0.869829 
0.910001 
0.887046 
0.892784 
0.915740 
0.892784 
0.927218 
0.892784 
0.927218 
0.892784 
0.915740 
0.892784 
0.781831 
0.864274 
0.946717 
0.864274 
0.881307 
0.921110 
0.858535 
0.921110 
0.881307 
0.887046 
0.910001 
0.869829 
0.915556 
0.869829 
0.910001 
0.887046 
0.892784 
0.915740 
0.892784 
0.927218 
0.892784 
0.927218 
0.892784 
0.915740 
0.892784 
0.781831 
0.864274 
0.946717 
0.864274 
0.881307 
0.921110 
0.858535 
0.921110 
0.881307 
0.887046 
0.910001 
0.869829 
0.915556 
0.869829 
0.910001 
0.887046 
0.892784 
0.915740 
0.892784 
0.927218 
0.892784 
0.927218 
0.892784 
0.915740 
0.892784 
0.781831 
0.864274 
0.946717 
0.864274 
0.881307 
0.921110 
0.858535 
0.921110 
0.881307 
0.887046 
0.910001 
0.869829 
0.915556 
0.869829 
0.910001 
0.887046 
0.892784 
0.915740 
0.892784 
0.927218 
0.892784 
0.927218 
0.892784 
0.915740 
0.892784 
SCALARS DENSITY float 
LOOKUP_TABLE default 
291.324384 
262.188084 
304.261736 
104.302533 
143.339073 
142.603948 
242.402257 
207.286605 
332.425198 
327.642625 
2643.773259 
365.806918 
222.708314 
168.600234 
318.727213 
157.978770 
274.856689 
118.152588 
391.711851 
233.073651 
227.344756 
243.883161 
441.871998 
326.239917 
282.019070 
4144.662642 
317.866908 
289.534403 
125.797667 
183.850891 
1168.248547 
72.311910 
678.266380 
127.613736 
318.270946 
564.684024 
374.339319 
265.659129 
802.531790 
114.968927 
234.758646 
671.055543 
175.237978 
930.132993 
87.627523 
320.019472 
321.764131 
345.642681 
355.296279 
252.661451 
798.900389 
254.193849 
120.337408 
238.853518 
98074873.879098 
87.982123 
56.022671 
484.736176 
177.110681 
403475840209.928040 
4707335079.670938 
590.155567 
463.032490 
690.773913 
109.354327 
777.458628 
228679228157131.031250 
3265050.034428 
-193427214.441267 
15521.966316 
489.161154 
115.899071 
821.431535 
350.895575 
132.734702 
80.017858 
112.518991 
608.152602 
112.518995 
14781878051.728630 
906.655013 
617178408.966853 
906.654864 
14781881383.032948 
100183589699849860153344.000000 
357356725880287232.000000 
38864405766786260992.000000 
5123053609.742955 
38864406524843458560.000000 
357356578587233728.000000 
100183619571137906737152.000000 
915899221163.848389 
-99704731002963532273592289423040052199424.000000 
50731878803475547592344163319808.000000 
-25686683700378923235176971490312799288981742459813888.000000 
274424482.479545 
-25686528810516018844355677683819587470979152088137728.000000 
50731880700288217921360104521728.000000 
-99704498551452969731682043041746652233728.000000 
915901186823.664795 
798.900389 
238.853509 
120.337414 
254.193841 
177.110689 
484.736111 
56.022673 
87.982123 
98074848.229360 
777.458667 
109.354331 
690.773842 
463.032461 
590.155536 
4707330892.370658 
403475646386.369507 
132.734702 
350.895595 
821.431570 
115.899060 
489.161294 
15521.959973 
-192741446.725738 
3265048.650235 
228678873360650.906250 
4144.662859 
125.797668 
289.534404 
317.866890 
127.613736 
678.266377 
72.311909 
1168.248539 
183.850899 
234.758640 
114.968928 
802.531781 
265.659145 
374.339310 
564.684034 
318.270951 
252.661444 
355.296289 
345.642688 
321.764133 
320.019474 
87.627523 
930.133066 
175.237968 
671.055614 
291.324374 
104.302531 
304.261737 
262.188104 
332.425201 
207.286606 
242.402262 
142.603948 
143.339073 
157.978771 
318.727224 
168.600233 
222.708309 
365.806921 
2643.773406 
327.642625 
282.019071 
326.239918 
441.872002 
243.883161 
227.344752 
233.073655 
391.711875 
118.152587 
274.856687 
SCALARS ELEM_i float 
LOOKUP_TABLE default 
165 
192 
165 
166 
193 
193 
193 
166 
166 
220 
193 
193 
193 
194 
167 
167 
220 
220 
221 
221 
194 
194 
194 
167 
167 
164 
191 
192 
192 
191 
191 
219 
192 
192 
218 
218 
219 
219 
219 
219 
220 
245 
245 
246 
246 
246 
246 
247 
220 
247 
164 
190 
191 
191 
190 
190 
190 
191 
191 
189 
190 
190 
190 
217 
217 
218 
216 
216 
243 
216 
217 
217 
217 
217 
244 
164 
163 
163 
163 
163 
163 
162 
163 
163 
135 
135 
135 
162 
189 
189 
189 
108 
135 
135 
135 
162 
189 
189 
189 
216 
164 
137 
137 
136 
137 
137 
136 
136 
136 
110 
109 
109 
136 
136 
136 
135 
82 
109 
109 
109 
109 
108 
81 
108 
108 
164 
138 
138 
137 
138 
138 
111 
137 
137 
112 
111 
111 
111 
111 
110 
110 
85 
112 
85 
84 
84 
84 
84 
83 
83 
165 
166 
165 
138 
166 
166 
139 
139 
139 
167 
167 
140 
139 
139 
139 
112 
167 
167 
140 
140 
140 
113 
113 
112 
112 
VECTORS VELOCITY float 
0.863287 6.836005 0.000000 
0.230499 4.634173 0.000000 
0.276623 5.865499 0.000000 
1.504358 3.585346 0.000000 
0.681550 0.613778 0.000000 
0.639656 0.961876 0.000000 
0.267974 -0.450277 0.000000 
0.248181 0.412501 0.000000 
0.389710 -0.586661 0.000000 
-1.000137 1.240627 0.000000 
-0.653152 -0.680757 0.000000 
-0.095733 1.003607 0.000000 
-0.911892 0.321896 0.000000 
-0.520124 3.942193 0.000000 
-0.674895 2.099298 0.000000 
-0.129206 4.797893 0.000000 
-1.086099 -0.693347 0.000000 
-0.532823 2.069770 0.000000 
-3.061503 1.751480 0.000000 
-0.973690 2.932063 0.000000 
-1.031160 -3.125257 0.000000 
-0.986871 1.887279 0.000000 
-1.130518 -1.209175 0.000000 
-1.442276 4.342250 0.000000 
-0.385535 0.512051 0.000000 
0.133291 4.546413 0.000000 
-0.644969 0.415452 0.000000 
-1.017483 5.310127 0.000000 
-0.431091 5.529773 0.000000 
2.299699 -0.773521 0.000000 
-0.155309 -0.019241 0.000000 
-0.913337 3.387341 0.000000 
-0.670717 3.217262 0.000000 
-1.128728 1.459713 0.000000 
-2.137664 0.677218 0.000000 
0.472418 3.319315 0.000000 
0.949443 4.309604 0.000000 
1.054123 4.946018 0.000000 
1.584947 3.509723 0.000000 
0.273926 1.833801 0.000000 
-0.044662 0.793088 0.000000 
7.706734 -0.464922 0.000000 
-0.694037 -0.427722 0.000000 
-1.088050 3.245971 0.000000 
-0.700878 1.904765 0.000000 
-2.562774 -2.593121 0.000000 
0.143914 0.737780 0.000000 
-2.346789 0.002728 0.000000 
1.096592 2.096957 0.000000 
-2.716155 -0.025846 0.000000 
0.372473 -0.379165 0.000000 
-1.904653 1.844382 0.000000 
-2.520611 -1.621849 0.000000 
0.628765 -0.302538 0.000000 
3.758794 12.254595 0.000000 
3.385836 8.795019 0.000000 
5.321148 5.056408 0.000000 
4.068986 -0.468461 0.000000 
4.052127 -0.916249 0.000000 
4.341387 -9.987619 0.000000 
7.136504 6.641941 0.000000 
5.040552 5.707444 0.000000 
3.830816 1.413764 0.000000 
-0.599474 1.484048 0.000000 
1.476705 0.260356 0.000000 
-3.813453 -1.629081 0.000000 
0.757185 -131.162390 0.000000 
4.550994 -52.476481 0.000000 
8.881976 -63.924034 0.000000 
0.105443 -3.285742 0.000000 
8.197827 11.705643 0.000000 
3.182086 4.293188 0.000000 
1.772056 5.846895 0.000000 
-4.316991 -2.614499 0.000000 
7.698998 -4.091398 0.000000 
-0.000000 -1.436077 0.000000 
0.788298 5.388487 0.000000 
-0.000000 0.649832 0.000000 
-0.788298 5.388487 0.000000 
-0.627782 13.370831 0.000000 
-0.175465 15.719123 0.000000 
-0.000000 9.595574 0.000000 
0.175464 15.719124 0.000000 
0.627782 13.370832 0.000000 
-1.661209 -19.545391 0.000000 
-1.793651 -5.114329 0.000000 
-1.918876 -36.228565 0.000000 
0.000000 -12.126438 0.000000 
1.918876 -36.228565 0.000000 
1.793651 -5.114328 0.000000 
1.661209 -19.545390 0.000000 
-3.487929 -140.589071 0.000000 
-1.131286 -73.736238 0.000000 
2.669487 -160.001262 0.000000 
-1.173365 -86.875454 0.000000 
-0.000000 -191.096611 0.000000 
1.173365 -86.875455 0.000000 
-2.669487 -160.001261 0.000000 
1.131286 -73.736238 0.000000 
3.487929 -140.589072 0.000000 
-0.372474 -0.379165 0.000000 
-0.628765 -0.302538 0.000000 
2.520611 -1.621849 0.000000 
1.904653 1.844382 0.000000 
-4.052127 -0.916249 0.000000 
-4.068986 -0.468461 0.000000 
-5.321148 5.056408 0.000000 
-3.385836 8.795019 0.000000 
-3.758794 12.254595 0.000000 
3.813452 -1.629080 0.000000 
-1.476706 0.260357 0.000000 
0.599474 1.484048 0.000000 
-3.830816 1.413764 0.000000 
-5.040551 5.707444 0.000000 
-7.136503 6.641941 0.000000 
-4.341386 -9.987620 0.000000 
-7.698997 -4.091398 0.000000 
4.316991 -2.614498 0.000000 
-1.772054 5.846894 0.000000 
-3.182086 4.293188 0.000000 
-8.197826 11.705642 0.000000 
-0.105442 -3.285744 0.000000 
-8.881979 -63.924033 0.000000 
-4.550994 -52.476484 0.000000 
-0.757185 -131.162391 0.000000 
-0.133291 4.546413 0.000000 
0.431090 5.529773 0.000000 
1.017483 5.310127 0.000000 
0.644969 0.415452 0.000000 
1.128728 1.459713 0.000000 
0.670716 3.217262 0.000000 
0.913337 3.387341 0.000000 
0.155309 -0.019240 0.000000 
-2.299699 -0.773520 0.000000 
0.044662 0.793088 0.000000 
-0.273926 1.833801 0.000000 
-1.584947 3.509723 0.000000 
-1.054123 4.946018 0.000000 
-0.949443 4.309604 0.000000 
-0.472418 3.319316 0.000000 
2.137664 0.677219 0.000000 
2.716155 -0.025846 0.000000 
-1.096592 2.096957 0.000000 
2.346789 0.002728 0.000000 
-0.143914 0.737780 0.000000 
2.562774 -2.593121 0.000000 
0.700879 1.904765 0.000000 
1.088050 3.245970 0.000000 
0.694037 -0.427723 0.000000 
-7.706734 -0.464923 0.000000 
-0.863287 6.836005 0.000000 
-1.504358 3.585346 0.000000 
-0.276623 5.865498 0.000000 
-0.230499 4.634173 0.000000 
-0.389710 -0.586661 0.000000 
-0.248181 0.412501 0.000000 
-0.267974 -0.450277 0.000000 
-0.639656 0.961876 0.000000 
-0.681550 0.613778 0.000000 
0.129206 4.797893 0.000000 
0.674895 2.099298 0.000000 
0.520124 3.942193 0.000000 
0.911892 0.321897 0.000000 
0.095733 1.003607 0.000000 
0.653152 -0.680757 0.000000 
1.000137 1.240627 0.000000 
0.385535 0.512051 0.000000 
1.442276 4.342250 0.000000 
1.130518 -1.209175 0.000000 
0.986871 1.887279 0.000000 
1.031160 -3.125257 0.000000 
0.973690 2.932063 0.000000 
3.061503 1.751480 0.000000 
0.532823 2.069770 0.000000 
1.086100 -0.693347 0.000000 
TENSORS STRESS float 
-18.095704 2.365843 0.000000 
0.000000 23.622807 0.000000 
0.000000 0.000000 0.000000 

-47.666113 6.329349 0.000000 
0.000000 -21.874138 0.000000 
0.000000 0.000000 0.000000 

-4.608793 -10.225322 0.000000 
0.000000 26.816543 0.000000 
0.000000 0.000000 0.000000 

313.374657 -3.837868 0.000000 
0.000000 348.387405 0.000000 
0.000000 0.000000 0.000000 

-33.123698 -1.824171 0.000000 
0.000000 12.287267 0.000000 
0.000000 0.000000 0.000000 

-18.426141 9.798957 0.000000 
0.000000 34.347999 0.000000 
0.000000 0.000000 0.000000 

-40.501825 7.487020 0.000000 
0.000000 -34.810414 0.000000 
0.000000 0.000000 0.000000 

2.160085 -15.074682 0.000000 
0.000000 9.345952 0.000000 
0.000000 0.000000 0.000000 

-16.806763 0.215407 0.000000 
0.000000 -26.084273 0.000000 
0.000000 0.000000 0.000000 

-59.450948 10.057888 0.000000 
0.000000 -59.392463 0.000000 
0.000000 0.000000 0.000000 

-17.497825 -1.881619 0.000000 
0.000000 -16.019623 0.000000 
0.000000 0.000000 0.000000 

51.299847 -10.431216 0.000000 
0.000000 37.599895 0.000000 
0.000000 0.000000 0.000000 

96.018041 11.108535 0.000000 
0.000000 81.521859 0.000000 
0.000000 0.000000 0.000000 

100.645502 30.871197 0.000000 
0.000000 52.059084 0.000000 
0.000000 0.000000 0.000000 

-15.866753 -8.905825 0.000000 
0.000000 -28.433412 0.000000 
0.000000 0.000000 0.000000 

-13.099667 2.266185 0.000000 
0.000000 -66.643079 0.000000 
0.000000 0.000000 0.000000 

-21.643441 31.812260 0.000000 
0.000000 -1.937299 0.000000 
0.000000 0.000000 0.000000 

133.163811 66.217120 0.000000 
0.000000 175.726860 0.000000 
0.000000 0.000000 0.000000 

17.209298 18.676394 0.000000 
0.000000 47.384440 0.000000 
0.000000 0.000000 0.000000 

-91.197207 10.073074 0.000000 
0.000000 -97.086179 0.000000 
0.000000 0.000000 0.000000 

119.825934 24.948095 0.000000 
0.000000 85.123002 0.000000 
0.000000 0.000000 0.000000 

99.927653 21.593807 0.000000 
0.000000 60.728438 0.000000 
0.000000 0.000000 0.000000 

62.372370 13.204664 0.000000 
0.000000 44.154130 0.000000 
0.000000 0.000000 0.000000 

-51.388249 2.779028 0.000000 
0.000000 -74.578424 0.000000 
0.000000 0.000000 0.000000 

9.716062 6.334701 0.000000 
0.000000 -2.664391 0.000000 
0.000000 0.000000 0.000000 

-25.800523 -2.022856 0.000000 
0.000000 -22.326308 0.000000 
0.000000 0.000000 0.000000 

-105.651077 -26.728737 0.000000 
0.000000 -63.706350 0.000000 
0.000000 0.000000 0.000000 

-35.010294 17.650809 0.000000 
0.000000 13.282493 0.000000 
0.000000 0.000000 0.000000 

-107.416769 36.516351 0.000000 
0.000000 -35.672996 0.000000 
0.000000 0.000000 0.000000 

171.326235 40.653139 0.000000 
0.000000 211.720250 0.000000 
0.000000 0.000000 0.000000 

-23.266916 -7.833291 0.000000 
0.000000 -14.513211 0.000000 
0.000000 0.000000 0.000000 

-110.247271 64.209731 0.000000 
0.000000 -82.287012 0.000000 
0.000000 0.000000 0.000000 

-108.633897 -2.078140 0.000000 
0.000000 -96.605075 0.000000 
0.000000 0.000000 0.000000 

23.868196 23.603686 0.000000 
0.000000 75.232485 0.000000 
0.000000 0.000000 0.000000 

123.563364 2.000307 0.000000 
0.000000 160.986048 0.000000 
0.000000 0.000000 0.000000 

41.741274 13.381879 0.000000 
0.000000 69.513960 0.000000 
0.000000 0.000000 0.000000 

-58.294067 -12.280002 0.000000 
0.000000 -42.518182 0.000000 
0.000000 0.000000 0.000000 

-54.501126 27.973829 0.000000 
0.000000 -26.519589 0.000000 
0.000000 0.000000 0.000000 

-37.505820 3.630215 0.000000 
0.000000 -29.355156 0.000000 
0.000000 0.000000 0.000000 

303.802744 -0.708433 0.000000 
0.000000 322.825810 0.000000 
0.000000 0.000000 0.000000 

-4.289368 12.085393 0.000000 
0.000000 0.602949 0.000000 
0.000000 0.000000 0.000000 

-174.405130 9.103081 0.000000 
0.000000 -136.511934 0.000000 
0.000000 0.000000 0.000000 

-159.097111 6.652824 0.000000 
0.000000 -45.785109 0.000000 
0.000000 0.000000 0.000000 

-62.020502 -1.032015 0.000000 
0.000000 -66.690233 0.000000 
0.000000 0.000000 0.000000 

66.133570 -10.027523 0.000000 
0.000000 94.635505 0.000000 
0.000000 0.000000 0.000000 

-56.357913 -3.808451 0.000000 
0.000000 -48.869139 0.000000 
0.000000 0.000000 0.000000 

-6.811166 -4.814074 0.000000 
0.000000 4.375714 0.000000 
0.000000 0.000000 0.000000 

-76.026024 7.132221 0.000000 
0.000000 -61.286849 0.000000 
0.000000 0.000000 0.000000 

-74.048403 -10.135719 0.000000 
0.000000 -79.617366 0.000000 
0.000000 0.000000 0.000000 

-137.542351 31.647307 0.000000 
0.000000 -129.613164 0.000000 
0.000000 0.000000 0.000000 

-105.495948 3.850383 0.000000 
0.000000 -93.704135 0.000000 
0.000000 0.000000 0.000000 

33.229060 -0.899023 0.000000 
0.000000 146.065789 0.000000 
0.000000 0.000000 0.000000 

21.857278 57.387055 0.000000 
0.000000 227.030200 0.000000 
0.000000 0.000000 0.000000 

-170.347089 16.396714 0.000000 
0.000000 -98.535361 0.000000 
0.000000 0.000000 0.000000 

-0.003653 0.000052 0.000000 
0.000000 -0.003523 0.000000 
0.000000 0.000000 0.000000 

-337.736077 -31.443115 0.000000 
0.000000 33.976917 0.000000 
0.000000 0.000000 0.000000 

317.022125 -235.568173 0.000000 
0.000000 735.792658 0.000000 
0.000000 0.000000 0.000000 

-0.878395 -30.755114 0.000000 
0.000000 40.795888 0.000000 
0.000000 0.000000 0.000000 

169.338003 31.056637 0.000000 
0.000000 216.840442 0.000000 
0.000000 0.000000 0.000000 

-0.000001 0.000000 0.000000 
0.000000 -0.000001 0.000000 
0.000000 0.000000 0.000000 

-0.000114 0.000008 0.000000 
0.000000 -0.000116 0.000000 
0.000000 0.000000 0.000000 

-83.153543 -4.608366 0.000000 
0.000000 -77.350779 0.000000 
0.000000 0.000000 0.000000 

51.970208 -24.255631 0.000000 
0.000000 74.399980 0.000000 
0.000000 0.000000 0.000000 

-4.800204 -15.633784 0.000000 
0.000000 0.746812 0.000000 
0.000000 0.000000 0.000000 

223.050737 54.365775 0.000000 
0.000000 294.910723 0.000000 
0.000000 0.000000 0.000000 

21.086894 8.369185 0.000000 
0.000000 39.765662 0.000000 
0.000000 0.000000 0.000000 

-0.000000 0.000000 0.000000 
0.000000 -0.000000 0.000000 
0.000000 0.000000 0.000000 

-0.065581 0.017030 0.000000 
0.000000 -0.080887 0.000000 
0.000000 0.000000 0.000000 

0.008388 -0.000709 0.000000 
0.000000 0.009883 0.000000 
0.000000 0.000000 0.000000 

-4.603589 3.912182 0.000000 
0.000000 -7.538593 0.000000 
0.000000 0.000000 0.000000 

-106.746489 15.924298 0.000000 
0.000000 -117.153720 0.000000 
0.000000 0.000000 0.000000 

3.636121 -13.899978 0.000000 
0.000000 -76.698796 0.000000 
0.000000 0.000000 0.000000 

-107.466083 51.852048 0.000000 
0.000000 -96.123493 0.000000 
0.000000 0.000000 0.000000 

-276.433469 32.797754 0.000000 
0.000000 -273.951891 0.000000 
0.000000 0.000000 0.000000 

-287.259639 277.832447 0.000000 
0.000000 56.646787 0.000000 
0.000000 0.000000 0.000000 

-435.840213 -0.000004 0.000000 
0.000000 -277.478235 0.000000 
0.000000 0.000000 0.000000 

348.379136 1.547924 0.000000 
0.000000 590.547890 0.000000 
0.000000 0.000000 0.000000 

64.851551 -0.000001 0.000000 
0.000000 109.636508 0.000000 
0.000000 0.000000 0.000000 

348.379147 -1.547930 0.000000 
0.000000 590.547893 0.000000 
0.000000 0.000000 0.000000 

-0.000037 -0.000001 0.000000 
0.000000 -0.000037 0.000000 
0.000000 0.000000 0.000000 

-86.907227 -1.240671 0.000000 
0.000000 -65.867117 0.000000 
0.000000 0.000000 0.000000 

-0.000656 0.000000 0.000000 
0.000000 -0.000693 0.000000 
0.000000 0.000000 0.000000 

-86.907233 1.240671 0.000000 
0.000000 -65.867119 0.000000 
0.000000 0.000000 0.000000 

-0.000037 0.000001 0.000000 
0.000000 -0.000037 0.000000 
0.000000 0.000000 0.000000 

-0.000000 -0.000000 0.000000 
0.000000 -0.000000 0.000000 
0.000000 0.000000 0.000000 

-0.000000 -0.000000 0.000000 
0.000000 -0.000000 0.000000 
0.000000 0.000000 0.000000 

-0.000000 -0.000000 0.000000 
0.000000 -0.000000 0.000000 
0.000000 0.000000 0.000000 

-0.000064 0.000000 0.000000 
0.000000 -0.000077 0.000000 
0.000000 0.000000 0.000000 

-0.000000 0.000000 0.000000 
0.000000 -0.000000 0.000000 
0.000000 0.000000 0.000000 

-0.000000 0.000000 0.000000 
0.000000 -0.000000 0.000000 
0.000000 0.000000 0.000000 

-0.000000 0.000000 0.000000 
0.000000 -0.000000 0.000000 
0.000000 0.000000 0.000000 

-0.000000 -0.000000 0.000000 
0.000000 -0.000000 0.000000 
0.000000 0.000000 0.000000 

0.000000 0.000000 0.000000 
0.000000 0.000000 0.000000 
0.000000 0.000000 0.000000 

-0.000000 -0.000000 0.000000 
0.000000 -0.000000 0.000000 
0.000000 0.000000 0.000000 

0.000000 0.000000 0.000000 
0.000000 0.000000 0.000000 
0.000000 0.000000 0.000000 

-0.000421 0.000000 0.000000 
0.000000 -0.000982 0.000000 
0.000000 0.000000 0.000000 

0.000000 -0.000000 0.000000 
0.000000 0.000000 0.000000 
0.000000 0.000000 0.000000 

-0.000000 0.000000 0.000000 
0.000000 -0.000000 0.000000 
0.000000 0.000000 0.000000 

0.000000 -0.000000 0.000000 
0.000000 0.000000 0.000000 
0.000000 0.000000 0.000000 

-0.000000 0.000000 0.000000 
0.000000 -0.000000 0.000000 
0.000000 0.000000 0.000000 

-105.495948 -3.850384 0.000000 
0.000000 -93.704135 0.000000 
0.000000 0.000000 0.000000 

-170.347073 -16.396715 0.000000 
0.000000 -98.535344 0.000000 
0.000000 0.000000 0.000000 

21.857294 -57.387057 0.000000 
0.000000 227.030205 0.000000 
0.000000 0.000000 0.000000 

33.229059 0.899020 0.000000 
0.000000 146.065789 0.000000 
0.000000 0.000000 0.000000 

169.337991 -31.056639 0.000000 
0.000000 216.840432 0.000000 
0.000000 0.000000 0.000000 

-0.878396 30.755115 0.000000 
0.000000 40.795891 0.000000 
0.000000 0.000000 0.000000 

317.022066 235.568144 0.000000 
0.000000 735.792566 0.000000 
0.000000 0.000000 0.000000 

-337.736069 31.443106 0.000000 
0.000000 33.976919 0.000000 
0.000000 0.000000 0.000000 

-0.003653 -0.000052 0.000000 
0.000000 -0.003523 0.000000 
0.000000 0.000000 0.000000 

21.086866 -8.369184 0.000000 
0.000000 39.765633 0.000000 
0.000000 0.000000 0.000000 

223.050618 -54.365792 0.000000 
0.000000 294.910613 0.000000 
0.000000 0.000000 0.000000 

-4.800216 15.633781 0.000000 
0.000000 0.746801 0.000000 
0.000000 0.000000 0.000000 

51.970213 24.255627 0.000000 
0.000000 74.399983 0.000000 
0.000000 0.000000 0.000000 

-83.153538 4.608363 0.000000 
0.000000 -77.350777 0.000000 
0.000000 0.000000 0.000000 

-0.000114 -0.000008 0.000000 
0.000000 -0.000116 0.000000 
0.000000 0.000000 0.000000 

-0.000001 -0.000000 0.000000 
0.000000 -0.000001 0.000000 
0.000000 0.000000 0.000000 

-287.259561 -277.832388 0.000000 
0.000000 56.646835 0.000000 
0.000000 0.000000 0.000000 

-276.433485 -32.797749 0.000000 
0.000000 -273.951909 0.000000 
0.000000 0.000000 0.000000 

-107.466095 -51.852033 0.000000 
0.000000 -96.123506 0.000000 
0.000000 0.000000 0.000000 

3.636095 13.899978 0.000000 
0.000000 -76.698818 0.000000 
0.000000 0.000000 0.000000 

-106.746495 -15.924287 0.000000 
0.000000 -117.153722 0.000000 
0.000000 0.000000 0.000000 

-4.603590 -3.912184 0.000000 
0.000000 -7.538596 0.000000 
0.000000 0.000000 0.000000 

0.008418 0.000712 0.000000 
0.000000 0.009918 0.000000 
0.000000 0.000000 0.000000 

-0.065581 -0.017030 0.000000 
0.000000 -0.080887 0.000000 
0.000000 0.000000 0.000000 

-0.000000 -0.000000 0.000000 
0.000000 -0.000000 0.000000 
0.000000 0.000000 0.000000 

-25.800522 2.022856 0.000000 
0.000000 -22.326307 0.000000 
0.000000 0.000000 0.000000 

-107.416790 -36.516348 0.000000 
0.000000 -35.673018 0.000000 
0.000000 0.000000 0.000000 

-35.010290 -17.650809 0.000000 
0.000000 13.282498 0.000000 
0.000000 0.000000 0.000000 

-105.651071 26.728738 0.000000 
0.000000 -63.706342 0.000000 
0.000000 0.000000 0.000000 

23.868187 -23.603685 0.000000 
0.000000 75.232475 0.000000 
0.000000 0.000000 0.000000 

-108.633897 2.078140 0.000000 
0.000000 -96.605076 0.000000 
0.000000 0.000000 0.000000 

-110.247283 -64.209742 0.000000 
0.000000 -82.287024 0.000000 
0.000000 0.000000 0.000000 

-23.266915 7.833291 0.000000 
0.000000 -14.513210 0.000000 
0.000000 0.000000 0.000000 

171.326216 -40.653140 0.000000 
0.000000 211.720233 0.000000 
0.000000 0.000000 0.000000 

-4.289368 -12.085393 0.000000 
0.000000 0.602949 0.000000 
0.000000 0.000000 0.000000 

303.802741 0.708431 0.000000 
0.000000 322.825808 0.000000 
0.000000 0.000000 0.000000 

-37.505818 -3.630216 0.000000 
0.000000 -29.355154 0.000000 
0.000000 0.000000 0.000000 

-54.501120 -27.973827 0.000000 
0.000000 -26.519583 0.000000 
0.000000 0.000000 0.000000 

-58.294061 12.280000 0.000000 
0.000000 -42.518174 0.000000 
0.000000 0.000000 0.000000 

41.741257 -13.381879 0.000000 
0.000000 69.513943 0.000000 
0.000000 0.000000 0.000000 

123.563317 -2.000306 0.000000 
0.000000 160.986002 0.000000 
0.000000 0.000000 0.000000 

-137.542355 -31.647308 0.000000 
0.000000 -129.613167 0.000000 
0.000000 0.000000 0.000000 

-74.048409 10.135718 0.000000 
0.000000 -79.617371 0.000000 
0.000000 0.000000 0.000000 

-76.026015 -7.132222 0.000000 
0.000000 -61.286840 0.000000 
0.000000 0.000000 0.000000 

-6.811157 4.814072 0.000000 
0.000000 4.375725 0.000000 
0.000000 0.000000 0.000000 

-56.357907 3.808449 0.000000 
0.000000 -48.869132 0.000000 
0.000000 0.000000 0.000000 

66.133584 10.027518 0.000000 
0.000000 94.635524 0.000000 
0.000000 0.000000 0.000000 

-62.020500 1.032014 0.000000 
0.000000 -66.690229 0.000000 
0.000000 0.000000 0.000000 

-159.097122 -6.652818 0.000000 
0.000000 -45.785128 0.000000 
0.000000 0.000000 0.000000 

-174.405110 -9.103079 0.000000 
0.000000 -136.511922 0.000000 
0.000000 0.000000 0.000000 

-18.095705 -2.365843 0.000000 
0.000000 23.622807 0.000000 
0.000000 0.000000 0.000000 

313.374664 3.837871 0.000000 
0.000000 348.387413 0.000000 
0.000000 0.000000 0.000000 

-4.608792 10.225323 0.000000 
0.000000 26.816543 0.000000 
0.000000 0.000000 0.000000 

-47.666122 -6.329347 0.000000 
0.000000 -21.874149 0.000000 
0.000000 0.000000 0.000000 

-16.806762 -0.215405 0.000000 
0.000000 -26.084272 0.000000 
0.000000 0.000000 0.000000 

2.160090 15.074684 0.000000 
0.000000 9.345957 0.000000 
0.000000 0.000000 0.000000 

-40.501827 -7.487018 0.000000 
0.000000 -34.810415 0.000000 
0.000000 0.000000 0.000000 

-18.426145 -9.798953 0.000000 
0.000000 34.347998 0.000000 
0.000000 0.000000 0.000000 

-33.123706 1.824174 0.000000 
0.000000 12.287263 0.000000 
0.000000 0.000000 0.000000 

-13.099669 -2.266183 0.000000 
0.000000 -66.643082 0.000000 
0.000000 0.000000 0.000000 

-15.866757 8.905825 0.000000 
0.000000 -28.433416 0.000000 
0.000000 0.000000 0.000000 

100.645497 -30.871197 0.000000 
0.000000 52.059078 0.000000 
0.000000 0.000000 0.000000 

96.018048 -11.108535 0.000000 
0.000000 81.521866 0.000000 
0.000000 0.000000 0.000000 

51.299845 10.431217 0.000000 
0.000000 37.599894 0.000000 
0.000000 0.000000 0.000000 

-17.497825 1.881619 0.000000 
0.000000 -16.019624 0.000000 
0.000000 0.000000 0.000000 

-59.450952 -10.057888 0.000000 
0.000000 -59.392466 0.000000 
0.000000 0.000000 0.000000 

9.716060 -6.334701 0.000000 
0.000000 -2.664393 0.000000 
0.000000 0.000000 0.000000 

-51.388252 -2.779028 0.000000 
0.000000 -74.578427 0.000000 
0.000000 0.000000 0.000000 

62.372365 -13.204663 0.000000 
0.000000 44.154125 0.000000 
0.000000 0.000000 0.000000 

99.927647 -21.593808 0.000000 
0.000000 60.728431 0.000000 
0.000000 0.000000 0.000000 

119.825931 -24.948096 0.000000 
0.000000 85.122999 0.000000 
0.000000 0.000000 0.000000 

-91.197215 -10.073075 0.000000 
0.000000 -97.086185 0.000000 
0.000000 0.000000 0.000000 

17.209296 -18.676395 0.000000 
0.000000 47.384438 0.000000 
0.000000 0.000000 0.000000 

133.163802 -66.217121 0.000000 
0.000000 175.726854 0.000000 
0.000000 0.000000 0.000000 

-21.643447 -31.812261 0.000000 
0.000000 -1.937303 0.000000 
0.000000 0.000000 0.000000 

TENSORS STRAIN float 
-0.114424 0.013047 0.000000 
0.000000 0.115643 0.000000 
0.000000 0.000000 0.000000 

-0.064144 0.028417 0.000000 
0.000000 0.051656 0.000000 
0.000000 0.000000 0.000000 

-0.072625 -0.048637 0.000000 
0.000000 0.076850 0.000000 
0.000000 0.000000 0.000000 

-0.007629 -0.006855 0.000000 
0.000000 0.054908 0.000000 
0.000000 0.000000 0.000000 

-0.055658 -0.004391 0.000000 
0.000000 0.053652 0.000000 
0.000000 0.000000 0.000000 

-0.059731 0.022452 0.000000 
0.000000 0.061190 0.000000 
0.000000 0.000000 0.000000 

-0.018185 0.031286 0.000000 
0.000000 0.005597 0.000000 
0.000000 0.000000 0.000000 

-0.011200 -0.050208 0.000000 
0.000000 0.012733 0.000000 
0.000000 0.000000 0.000000 

0.021107 0.001203 0.000000 
0.000000 -0.030685 0.000000 
0.000000 0.000000 0.000000 

-0.013153 0.054982 0.000000 
0.000000 -0.012833 0.000000 
0.000000 0.000000 0.000000 

-0.060603 -0.080905 0.000000 
0.000000 0.002956 0.000000 
0.000000 0.000000 0.000000 

0.053702 -0.064925 0.000000 
0.000000 -0.031569 0.000000 
0.000000 0.000000 0.000000 

0.038877 0.039992 0.000000 
0.000000 -0.013311 0.000000 
0.000000 0.000000 0.000000 

0.078451 0.088560 0.000000 
0.000000 -0.060929 0.000000 
0.000000 0.000000 0.000000 

0.027978 -0.046165 0.000000 
0.000000 -0.037164 0.000000 
0.000000 0.000000 0.000000 

0.066361 0.005973 0.000000 
0.000000 -0.074769 0.000000 
0.000000 0.000000 0.000000 

-0.047043 0.144949 0.000000 
0.000000 0.042746 0.000000 
0.000000 0.000000 0.000000 

-0.028841 0.126445 0.000000 
0.000000 0.052435 0.000000 
0.000000 0.000000 0.000000 

-0.089583 0.121276 0.000000 
0.000000 0.106361 0.000000 
0.000000 0.000000 0.000000 

-0.003055 0.037474 0.000000 
0.000000 -0.024963 0.000000 
0.000000 0.000000 0.000000 

0.080842 0.094024 0.000000 
0.000000 -0.049946 0.000000 
0.000000 0.000000 0.000000 

0.088805 0.084060 0.000000 
0.000000 -0.063789 0.000000 
0.000000 0.000000 0.000000 

0.082331 0.096725 0.000000 
0.000000 -0.051119 0.000000 
0.000000 0.000000 0.000000 

0.047853 0.014653 0.000000 
0.000000 -0.074420 0.000000 
0.000000 0.000000 0.000000 

0.029599 0.029616 0.000000 
0.000000 -0.028281 0.000000 
0.000000 0.000000 0.000000 

-0.211809 -0.158709 0.000000 
0.000000 0.060771 0.000000 
0.000000 0.000000 0.000000 

-0.132594 -0.145490 0.000000 
0.000000 0.095720 0.000000 
0.000000 0.000000 0.000000 

-0.111260 0.079893 0.000000 
0.000000 0.107327 0.000000 
0.000000 0.000000 0.000000 

-0.083439 0.078663 0.000000 
0.000000 0.071110 0.000000 
0.000000 0.000000 0.000000 

-0.038705 0.125515 0.000000 
0.000000 0.086010 0.000000 
0.000000 0.000000 0.000000 

-0.096341 -0.147038 0.000000 
0.000000 0.067974 0.000000 
0.000000 0.000000 0.000000 

-0.022227 0.080041 0.000000 
0.000000 0.012627 0.000000 
0.000000 0.000000 0.000000 

-0.110280 -0.022648 0.000000 
0.000000 0.020811 0.000000 
0.000000 0.000000 0.000000 

-0.050791 0.050584 0.000000 
0.000000 0.059286 0.000000 
0.000000 0.000000 0.000000 

-0.069141 0.010622 0.000000 
0.000000 0.129582 0.000000 
0.000000 0.000000 0.000000 

-0.107095 0.122897 0.000000 
0.000000 0.147965 0.000000 
0.000000 0.000000 0.000000 

-0.063083 -0.078215 0.000000 
0.000000 0.037399 0.000000 
0.000000 0.000000 0.000000 

-0.067041 0.120131 0.000000 
0.000000 0.053123 0.000000 
0.000000 0.000000 0.000000 

-0.073908 0.049570 0.000000 
0.000000 0.037389 0.000000 
0.000000 0.000000 0.000000 

0.005649 -0.001325 0.000000 
0.000000 0.041219 0.000000 
0.000000 0.000000 0.000000 

-0.009870 0.047337 0.000000 
0.000000 0.009292 0.000000 
0.000000 0.000000 0.000000 

-0.279943 0.101266 0.000000 
0.000000 0.141593 0.000000 
0.000000 0.000000 0.000000 

-0.172064 0.018842 0.000000 
0.000000 0.148854 0.000000 
0.000000 0.000000 0.000000 

-0.003691 -0.015913 0.000000 
0.000000 -0.075694 0.000000 
0.000000 0.000000 0.000000 

-0.015435 -0.014025 0.000000 
0.000000 0.024430 0.000000 
0.000000 0.000000 0.000000 

-0.031029 -0.020204 0.000000 
0.000000 0.008700 0.000000 
0.000000 0.000000 0.000000 

-0.028978 -0.024725 0.000000 
0.000000 0.028477 0.000000 
0.000000 0.000000 0.000000 

-0.057962 0.040866 0.000000 
0.000000 0.026491 0.000000 
0.000000 0.000000 0.000000 

-0.001659 -0.058202 0.000000 
0.000000 -0.033637 0.000000 
0.000000 0.000000 0.000000 

-0.038985 0.132553 0.000000 
0.000000 -0.005774 0.000000 
0.000000 0.000000 0.000000 

-0.149415 0.058230 0.000000 
0.000000 0.028914 0.000000 
0.000000 0.000000 0.000000 

-0.229973 -0.003913 0.000000 
0.000000 0.261190 0.000000 
0.000000 0.000000 0.000000 

-0.183625 0.107958 0.000000 
0.000000 0.202353 0.000000 
0.000000 0.000000 0.000000 

-0.168857 0.067065 0.000000 
0.000000 0.124866 0.000000 
0.000000 0.000000 0.000000 

-0.343848 0.086411 0.000000 
0.000000 -0.128940 0.000000 
0.000000 0.000000 0.000000 

-0.271326 -0.044450 0.000000 
0.000000 0.254149 0.000000 
0.000000 0.000000 0.000000 

-0.181880 -0.227501 0.000000 
0.000000 0.222550 0.000000 
0.000000 0.000000 0.000000 

-0.156073 -0.239537 0.000000 
0.000000 0.168509 0.000000 
0.000000 0.000000 0.000000 

-0.047670 0.092371 0.000000 
0.000000 0.093614 0.000000 
0.000000 0.000000 0.000000 

-0.069068 0.443962 0.000000 
0.000000 -0.613103 0.000000 
0.000000 0.000000 0.000000 

-0.253309 0.635860 0.000000 
0.000000 -0.449800 0.000000 
0.000000 0.000000 0.000000 

-0.061368 -0.046274 0.000000 
0.000000 -0.003100 0.000000 
0.000000 0.000000 0.000000 

-0.065025 -0.181552 0.000000 
0.000000 0.102860 0.000000 
0.000000 0.000000 0.000000 

-0.033551 -0.183750 0.000000 
0.000000 0.031645 0.000000 
0.000000 0.000000 0.000000 

-0.045478 0.096690 0.000000 
0.000000 0.082326 0.000000 
0.000000 0.000000 0.000000 

-0.105360 0.108562 0.000000 
0.000000 0.136934 0.000000 
0.000000 0.000000 0.000000 

0.450753 1.076590 0.000000 
0.000000 -0.952761 0.000000 
0.000000 0.000000 0.000000 

0.249254 0.898635 0.000000 
0.000000 -0.558412 0.000000 
0.000000 0.000000 0.000000 

1.224557 2.274866 0.000000 
0.000000 -3.568065 0.000000 
0.000000 0.000000 0.000000 

0.303418 0.969272 0.000000 
0.000000 -0.423751 0.000000 
0.000000 0.000000 0.000000 

0.005884 0.129130 0.000000 
0.000000 -0.078508 0.000000 
0.000000 0.000000 0.000000 

0.071604 -0.025714 0.000000 
0.000000 -0.077011 0.000000 
0.000000 0.000000 0.000000 

-0.132673 0.706077 0.000000 
0.000000 0.021781 0.000000 
0.000000 0.000000 0.000000 

-0.069462 0.185999 0.000000 
0.000000 -0.055389 0.000000 
0.000000 0.000000 0.000000 

-0.388513 0.611340 0.000000 
0.000000 0.368215 0.000000 
0.000000 0.000000 0.000000 

-0.141548 -0.000000 0.000000 
0.000000 0.098328 0.000000 
0.000000 0.000000 0.000000 

-0.197123 0.002983 0.000000 
0.000000 0.269488 0.000000 
0.000000 0.000000 0.000000 

-0.179713 -0.000000 0.000000 
0.000000 0.246069 0.000000 
0.000000 0.000000 0.000000 

-0.197123 -0.002983 0.000000 
0.000000 0.269488 0.000000 
0.000000 0.000000 0.000000 

-0.333270 -0.288959 0.000000 
0.000000 -0.407543 0.000000 
0.000000 0.000000 0.000000 

-0.197765 -0.018074 0.000000 
0.000000 0.108742 0.000000 
0.000000 0.000000 0.000000 

-0.089815 0.000000 0.000000 
0.000000 -0.484329 0.000000 
0.000000 0.000000 0.000000 

-0.197765 0.018074 0.000000 
0.000000 0.108742 0.000000 
0.000000 0.000000 0.000000 

-0.333270 0.288959 0.000000 
0.000000 -0.407543 0.000000 
0.000000 0.000000 0.000000 

-0.142257 -0.499638 0.000000 
0.000000 -0.759891 0.000000 
0.000000 0.000000 0.000000 

-0.165663 -0.528614 0.000000 
0.000000 -0.656037 0.000000 
0.000000 0.000000 0.000000 

0.147431 -0.639870 0.000000 
0.000000 -0.903263 0.000000 
0.000000 0.000000 0.000000 

0.295974 0.000000 0.000000 
0.000000 -0.762754 0.000000 
0.000000 0.000000 0.000000 

0.147431 0.639870 0.000000 
0.000000 -0.903263 0.000000 
0.000000 0.000000 0.000000 

-0.165663 0.528614 0.000000 
0.000000 -0.656037 0.000000 
0.000000 0.000000 0.000000 

-0.142257 0.499638 0.000000 
0.000000 -0.759891 0.000000 
0.000000 0.000000 0.000000 

0.656343 -0.899231 0.000000 
0.000000 -1.139521 0.000000 
0.000000 0.000000 0.000000 

-0.229750 -0.775894 0.000000 
0.000000 -1.058012 0.000000 
0.000000 0.000000 0.000000 

-0.208080 -0.776399 0.000000 
0.000000 -1.407700 0.000000 
0.000000 0.000000 0.000000 

-0.061691 -0.672442 0.000000 
0.000000 -1.082534 0.000000 
0.000000 0.000000 0.000000 

1.146631 0.000000 0.000000 
0.000000 -1.401942 0.000000 
0.000000 0.000000 0.000000 

-0.061691 0.672442 0.000000 
0.000000 -1.082534 0.000000 
0.000000 0.000000 0.000000 

-0.208080 0.776399 0.000000 
0.000000 -1.407700 0.000000 
0.000000 0.000000 0.000000 

-0.229750 0.775894 0.000000 
0.000000 -1.058012 0.000000 
0.000000 0.000000 0.000000 

0.656343 0.899231 0.000000 
0.000000 -1.139521 0.000000 
0.000000 0.000000 0.000000 

-0.149415 -0.058230 0.000000 
0.000000 0.028914 0.000000 
0.000000 0.000000 0.000000 

-0.168857 -0.067065 0.000000 
0.000000 0.124866 0.000000 
0.000000 0.000000 0.000000 

-0.183625 -0.107958 0.000000 
0.000000 0.202353 0.000000 
0.000000 0.000000 0.000000 

-0.229973 0.003913 0.000000 
0.000000 0.261190 0.000000 
0.000000 0.000000 0.000000 

-0.047670 -0.092371 0.000000 
0.000000 0.093614 0.000000 
0.000000 0.000000 0.000000 

-0.156073 0.239537 0.000000 
0.000000 0.168509 0.000000 
0.000000 0.000000 0.000000 

-0.181880 0.227501 0.000000 
0.000000 0.222550 0.000000 
0.000000 0.000000 0.000000 

-0.271326 0.044450 0.000000 
0.000000 0.254149 0.000000 
0.000000 0.000000 0.000000 

-0.343848 -0.086411 0.000000 
0.000000 -0.128940 0.000000 
0.000000 0.000000 0.000000 

-0.105360 -0.108562 0.000000 
0.000000 0.136934 0.000000 
0.000000 0.000000 0.000000 

-0.045478 -0.096690 0.000000 
0.000000 0.082326 0.000000 
0.000000 0.000000 0.000000 

-0.033551 0.183750 0.000000 
0.000000 0.031645 0.000000 
0.000000 0.000000 0.000000 

-0.065025 0.181552 0.000000 
0.000000 0.102860 0.000000 
0.000000 0.000000 0.000000 

-0.061368 0.046274 0.000000 
0.000000 -0.003100 0.000000 
0.000000 0.000000 0.000000 

-0.253309 -0.635860 0.000000 
0.000000 -0.449800 0.000000 
0.000000 0.000000 0.000000 

-0.069068 -0.443962 0.000000 
0.000000 -0.613103 0.000000 
0.000000 0.000000 0.000000 

-0.388513 -0.611339 0.000000 
0.000000 0.368215 0.000000 
0.000000 0.000000 0.000000 

-0.069462 -0.185999 0.000000 
0.000000 -0.055389 0.000000 
0.000000 0.000000 0.000000 

-0.132673 -0.706077 0.000000 
0.000000 0.021781 0.000000 
0.000000 0.000000 0.000000 

0.071604 0.025714 0.000000 
0.000000 -0.077011 0.000000 
0.000000 0.000000 0.000000 

0.005884 -0.129130 0.000000 
0.000000 -0.078508 0.000000 
0.000000 0.000000 0.000000 

0.303418 -0.969272 0.000000 
0.000000 -0.423751 0.000000 
0.000000 0.000000 0.000000 

1.224557 -2.274866 0.000000 
0.000000 -3.568065 0.000000 
0.000000 0.000000 0.000000 

0.249254 -0.898635 0.000000 
0.000000 -0.558412 0.000000 
0.000000 0.000000 0.000000 

0.450753 -1.076590 0.000000 
0.000000 -0.952761 0.000000 
0.000000 0.000000 0.000000 

-0.211809 0.158709 0.000000 
0.000000 0.060771 0.000000 
0.000000 0.000000 0.000000 

-0.083439 -0.078663 0.000000 
0.000000 0.071110 0.000000 
0.000000 0.000000 0.000000 

-0.111260 -0.079893 0.000000 
0.000000 0.107327 0.000000 
0.000000 0.000000 0.000000 

-0.132594 0.145490 0.000000 
0.000000 0.095720 0.000000 
0.000000 0.000000 0.000000 

-0.050791 -0.050584 0.000000 
0.000000 0.059286 0.000000 
0.000000 0.000000 0.000000 

-0.110280 0.022648 0.000000 
0.000000 0.020811 0.000000 
0.000000 0.000000 0.000000 

-0.022227 -0.080041 0.000000 
0.000000 0.012627 0.000000 
0.000000 0.000000 0.000000 

-0.096341 0.147038 0.000000 
0.000000 0.067974 0.000000 
0.000000 0.000000 0.000000 

-0.038705 -0.125515 0.000000 
0.000000 0.086010 0.000000 
0.000000 0.000000 0.000000 

-0.009870 -0.047337 0.000000 
0.000000 0.009292 0.000000 
0.000000 0.000000 0.000000 

0.005649 0.001325 0.000000 
0.000000 0.041219 0.000000 
0.000000 0.000000 0.000000 

-0.073908 -0.049570 0.000000 
0.000000 0.037389 0.000000 
0.000000 0.000000 0.000000 

-0.067041 -0.120131 0.000000 
0.000000 0.053123 0.000000 
0.000000 0.000000 0.000000 

-0.063083 0.078215 0.000000 
0.000000 0.037399 0.000000 
0.000000 0.000000 0.000000 

-0.107095 -0.122897 0.000000 
0.000000 0.147965 0.000000 
0.000000 0.000000 0.000000 

-0.069141 -0.010622 0.000000 
0.000000 0.129582 0.000000 
0.000000 0.000000 0.000000 

-0.038985 -0.132553 0.000000 
0.000000 -0.005774 0.000000 
0.000000 0.000000 0.000000 

-0.001659 0.058202 0.000000 
0.000000 -0.033637 0.000000 
0.000000 0.000000 0.000000 

-0.057962 -0.040866 0.000000 
0.000000 0.026491 0.000000 
0.000000 0.000000 0.000000 

-0.028978 0.024725 0.000000 
0.000000 0.028477 0.000000 
0.000000 0.000000 0.000000 

-0.031029 0.020204 0.000000 
0.000000 0.008700 0.000000 
0.000000 0.000000 0.000000 

-0.015435 0.014025 0.000000 
0.000000 0.024430 0.000000 
0.000000 0.000000 0.000000 

-0.003691 0.015913 0.000000 
0.000000 -0.075694 0.000000 
0.000000 0.000000 0.000000 

-0.172064 -0.018842 0.000000 
0.000000 0.148854 0.000000 
0.000000 0.000000 0.000000 

-0.279943 -0.101266 0.000000 
0.000000 0.141593 0.000000 
0.000000 0.000000 0.000000 

-0.114424 -0.013047 0.000000 
0.000000 0.115643 0.000000 
0.000000 0.000000 0.000000 

-0.007629 0.006855 0.000000 
0.000000 0.054908 0.000000 
0.000000 0.000000 0.000000 

-0.072625 0.048637 0.000000 
0.000000 0.076850 0.000000 
0.000000 0.000000 0.000000 

-0.064144 -0.028417 0.000000 
0.000000 0.051656 0.000000 
0.000000 0.000000 0.000000 

0.021107 -0.001203 0.000000 
0.000000 -0.030685 0.000000 
0.000000 0.000000 0.000000 

-0.011200 0.050208 0.000000 
0.000000 0.012733 0.000000 
0.000000 0.000000 0.000000 

-0.018185 -0.031286 0.000000 
0.000000 0.005597 0.000000 
0.000000 0.000000 0.000000 

-0.059731 -0.022452 0.000000 
0.000000 0.061190 0.000000 
0.000000 0.000000 0.000000 

-0.055658 0.004391 0.000000 
0.000000 0.053652 0.000000 
0.000000 0.000000 0.000000 

0.066361 -0.005973 0.000000 
0.000000 -0.074769 0.000000 
0.000000 0.000000 0.000000 

0.027978 0.046165 0.000000 
0.000000 -0.037164 0.000000 
0.000000 0.000000 0.000000 

0.078451 -0.088560 0.000000 
0.000000 -0.060929 0.000000 
0.000000 0.000000 0.000000 

0.038877 -0.039992 0.000000 
0.000000 -0.013311 0.000000 
0.000000 0.000000 0.000000 

0.053702 0.064925 0.000000 
0.000000 -0.031569 0.000000 
0.000000 0.000000 0.000000 

-0.060603 0.080905 0.000000 
0.000000 0.002956 0.000000 
0.000000 0.000000 0.000000 

-0.013153 -0.054982 0.000000 
0.000000 -0.012833 0.000000 
0.000000 0.000000 0.000000 

0.029599 -0.029616 0.000000 
0.000000 -0.028281 0.000000 
0.000000 0.000000 0.000000 

0.047853 -0.014653 0.000000 
0.000000 -0.074420 0.000000 
0.000000 0.000000 0.000000 

0.082331 -0.096725 0.000000 
0.000000 -0.051119 0.000000 
0.000000 0.000000 0.000000 

0.088805 -0.084060 0.000000 
0.000000 -0.063789 0.000000 
0.000000 0.000000 0.000000 

0.080842 -0.094024 0.000000 
0.000000 -0.049946 0.000000 
0.000000 0.000000 0.000000 

-0.003055 -0.037474 0.000000 
0.000000 -0.024963 0.000000 
0.000000 0.000000 0.000000 

-0.089583 -0.121276 0.000000 
0.000000 0.106361 0.000000 
0.000000 0.000000 0.000000 

-0.028841 -0.126445 0.000000 
0.000000 0.052435 0.000000 
0.000000 0.000000 0.000000 

-0.047043 -0.144949 0.000000 
0.000000 0.042746 0.000000 
0.000000 0.000000 0.000000 

