# vtk DataFile Version 3.0 
vtk output 
ASCII 
DATASET UNSTRUCTURED_GRID 
POINTS 175 float 
-0.026061 -2.024623 0.000000 
-0.106992 -1.956567 0.000000 
-0.054870 -1.964800 0.000000 
-0.028809 -1.918916 0.000000 
-0.186430 -1.892492 0.000000 
-0.137056 -1.895018 0.000000 
-0.114311 -1.841371 0.000000 
-0.058186 -1.857036 0.000000 
-0.029377 -1.816859 0.000000 
-0.265318 -1.829336 0.000000 
-0.217198 -1.830136 0.000000 
-0.196633 -1.772839 0.000000 
-0.143120 -1.781548 0.000000 
-0.116563 -1.734279 0.000000 
-0.058945 -1.753925 0.000000 
-0.029568 -1.715805 0.000000 
-0.344206 -1.766180 0.000000 
-0.296791 -1.766173 0.000000 
-0.278030 -1.706230 0.000000 
-0.225992 -1.712097 0.000000 
-0.201664 -1.659979 0.000000 
-0.145749 -1.673453 0.000000 
-0.117890 -1.629111 0.000000 
-0.059328 -1.651817 0.000000 
-0.029759 -1.614751 0.000000 
-0.058559 -2.065373 0.000000 
-0.162226 -2.086216 0.000000 
-0.123292 -2.050598 0.000000 
-0.142917 -2.001615 0.000000 
-0.261851 -2.108372 0.000000 
-0.229092 -2.071345 0.000000 
-0.256854 -2.020114 0.000000 
-0.209613 -1.986001 0.000000 
-0.223062 -1.938427 0.000000 
-0.360414 -2.130673 0.000000 
-0.329787 -2.093550 0.000000 
-0.361761 -2.041748 0.000000 
-0.321587 -2.005339 0.000000 
-0.341985 -1.955105 0.000000 
-0.290702 -1.922306 0.000000 
-0.302189 -1.875571 0.000000 
-0.458977 -2.152973 0.000000 
-0.429420 -2.115898 0.000000 
-0.464588 -2.063856 0.000000 
-0.427556 -2.026829 0.000000 
-0.453135 -1.975314 0.000000 
-0.407738 -1.939999 0.000000 
-0.425037 -1.890571 0.000000 
-0.370772 -1.858941 0.000000 
-0.381315 -1.812714 0.000000 
-0.046960 -2.116189 0.000000 
-0.095301 -2.210235 0.000000 
-0.098873 -2.157587 0.000000 
-0.149405 -2.142390 0.000000 
-0.140093 -2.301939 0.000000 
-0.148617 -2.253240 0.000000 
-0.205981 -2.243003 0.000000 
-0.203197 -2.184800 0.000000 
-0.248777 -2.165653 0.000000 
-0.184111 -2.392902 0.000000 
-0.194039 -2.345811 0.000000 
-0.254475 -2.338512 0.000000 
-0.257893 -2.284402 0.000000 
-0.309886 -2.269029 0.000000 
-0.303554 -2.208484 0.000000 
-0.347255 -2.188326 0.000000 
-0.228129 -2.483866 0.000000 
-0.238687 -2.437641 0.000000 
-0.301302 -2.432689 0.000000 
-0.307162 -2.380651 0.000000 
-0.363386 -2.368530 0.000000 
-0.362692 -2.311018 0.000000 
-0.412122 -2.293725 0.000000 
-0.403017 -2.231578 0.000000 
-0.445733 -2.210999 0.000000 
-0.000000 -2.138804 0.000000 
0.043388 -2.235234 0.000000 
-0.000000 -2.205202 0.000000 
-0.043388 -2.235234 0.000000 
0.087158 -2.327431 0.000000 
0.043769 -2.303732 0.000000 
-0.000000 -2.342198 0.000000 
-0.043769 -2.303732 0.000000 
-0.087158 -2.327431 0.000000 
0.130831 -2.418560 0.000000 
0.087824 -2.396962 0.000000 
0.044436 -2.439661 0.000000 
-0.000000 -2.408596 0.000000 
-0.044436 -2.439661 0.000000 
-0.087824 -2.396962 0.000000 
-0.130831 -2.418560 0.000000 
0.174505 -2.509690 0.000000 
0.131782 -2.489124 0.000000 
0.088871 -2.534991 0.000000 
0.044532 -2.507127 0.000000 
-0.000000 -2.543527 0.000000 
-0.044532 -2.507127 0.000000 
-0.088871 -2.534991 0.000000 
-0.131782 -2.489124 0.000000 
-0.174505 -2.509690 0.000000 
0.046960 -2.116189 0.000000 
0.149405 -2.142390 0.000000 
0.098873 -2.157587 0.000000 
0.095301 -2.210235 0.000000 
0.248777 -2.165653 0.000000 
0.203197 -2.184800 0.000000 
0.205981 -2.243003 0.000000 
0.148617 -2.253240 0.000000 
0.140093 -2.301939 0.000000 
0.347255 -2.188326 0.000000 
0.303554 -2.208484 0.000000 
0.309886 -2.269029 0.000000 
0.257893 -2.284402 0.000000 
0.254475 -2.338512 0.000000 
0.194039 -2.345811 0.000000 
0.184111 -2.392902 0.000000 
0.445733 -2.210999 0.000000 
0.403017 -2.231578 0.000000 
0.412122 -2.293725 0.000000 
0.362692 -2.311018 0.000000 
0.363386 -2.368530 0.000000 
0.307162 -2.380651 0.000000 
0.301302 -2.432689 0.000000 
0.238687 -2.437641 0.000000 
0.228129 -2.483866 0.000000 
0.058559 -2.065373 0.000000 
0.142917 -2.001615 0.000000 
0.123292 -2.050598 0.000000 
0.162226 -2.086216 0.000000 
0.223062 -1.938427 0.000000 
0.209613 -1.986001 0.000000 
0.256854 -2.020114 0.000000 
0.229092 -2.071345 0.000000 
0.261851 -2.108372 0.000000 
0.302189 -1.875571 0.000000 
0.290702 -1.922306 0.000000 
0.341985 -1.955105 0.000000 
0.321587 -2.005339 0.000000 
0.361761 -2.041748 0.000000 
0.329787 -2.093550 0.000000 
0.360414 -2.130673 0.000000 
0.381315 -1.812714 0.000000 
0.370772 -1.858941 0.000000 
0.425037 -1.890571 0.000000 
0.407738 -1.939999 0.000000 
0.453135 -1.975314 0.000000 
0.427556 -2.026829 0.000000 
0.464588 -2.063856 0.000000 
0.429420 -2.115898 0.000000 
0.458977 -2.152973 0.000000 
0.026061 -2.024623 0.000000 
0.028809 -1.918916 0.000000 
0.054870 -1.964800 0.000000 
0.106992 -1.956567 0.000000 
0.029377 -1.816859 0.000000 
0.058186 -1.857036 0.000000 
0.114311 -1.841371 0.000000 
0.137056 -1.895018 0.000000 
0.186430 -1.892492 0.000000 
0.029568 -1.715805 0.000000 
0.058945 -1.753925 0.000000 
0.116563 -1.734279 0.000000 
0.143120 -1.781548 0.000000 
0.196633 -1.772839 0.000000 
0.217198 -1.830136 0.000000 
0.265318 -1.829336 0.000000 
0.029759 -1.614751 0.000000 
0.059328 -1.651817 0.000000 
0.117890 -1.629111 0.000000 
0.145749 -1.673453 0.000000 
0.201664 -1.659979 0.000000 
0.225992 -1.712097 0.000000 
0.278030 -1.706230 0.000000 
0.296791 -1.766173 0.000000 
0.344206 -1.766180 0.000000 
CELLS 175 350 
1 0 
1 1 
1 2 
1 3 
1 4 
1 5 
1 6 
1 7 
1 8 
1 9 
1 10 
1 11 
1 12 
1 13 
1 14 
1 15 
1 16 
1 17 
1 18 
1 19 
1 20 
1 21 
1 22 
1 23 
1 24 
1 25 
1 26 
1 27 
1 28 
1 29 
1 30 
1 31 
1 32 
1 33 
1 34 
1 35 
1 36 
1 37 
1 38 
1 39 
1 40 
1 41 
1 42 
1 43 
1 44 
1 45 
1 46 
1 47 
1 48 
1 49 
1 50 
1 51 
1 52 
1 53 
1 54 
1 55 
1 56 
1 57 
1 58 
1 59 
1 60 
1 61 
1 62 
1 63 
1 64 
1 65 
1 66 
1 67 
1 68 
1 69 
1 70 
1 71 
1 72 
1 73 
1 74 
1 75 
1 76 
1 77 
1 78 
1 79 
1 80 
1 81 
1 82 
1 83 
1 84 
1 85 
1 86 
1 87 
1 88 
1 89 
1 90 
1 91 
1 92 
1 93 
1 94 
1 95 
1 96 
1 97 
1 98 
1 99 
1 100 
1 101 
1 102 
1 103 
1 104 
1 105 
1 106 
1 107 
1 108 
1 109 
1 110 
1 111 
1 112 
1 113 
1 114 
1 115 
1 116 
1 117 
1 118 
1 119 
1 120 
1 121 
1 122 
1 123 
1 124 
1 125 
1 126 
1 127 
1 128 
1 129 
1 130 
1 131 
1 132 
1 133 
1 134 
1 135 
1 136 
1 137 
1 138 
1 139 
1 140 
1 141 
1 142 
1 143 
1 144 
1 145 
1 146 
1 147 
1 148 
1 149 
1 150 
1 151 
1 152 
1 153 
1 154 
1 155 
1 156 
1 157 
1 158 
1 159 
1 160 
1 161 
1 162 
1 163 
1 164 
1 165 
1 166 
1 167 
1 168 
1 169 
1 170 
1 171 
1 172 
1 173 
1 174 
CELL_TYPES 175 
1 
1 
1 
1 
1 
1 
1 
1 
1 
1 
1 
1 
1 
1 
1 
1 
1 
1 
1 
1 
1 
1 
1 
1 
1 
1 
1 
1 
1 
1 
1 
1 
1 
1 
1 
1 
1 
1 
1 
1 
1 
1 
1 
1 
1 
1 
1 
1 
1 
1 
1 
1 
1 
1 
1 
1 
1 
1 
1 
1 
1 
1 
1 
1 
1 
1 
1 
1 
1 
1 
1 
1 
1 
1 
1 
1 
1 
1 
1 
1 
1 
1 
1 
1 
1 
1 
1 
1 
1 
1 
1 
1 
1 
1 
1 
1 
1 
1 
1 
1 
1 
1 
1 
1 
1 
1 
1 
1 
1 
1 
1 
1 
1 
1 
1 
1 
1 
1 
1 
1 
1 
1 
1 
1 
1 
1 
1 
1 
1 
1 
1 
1 
1 
1 
1 
1 
1 
1 
1 
1 
1 
1 
1 
1 
1 
1 
1 
1 
1 
1 
1 
1 
1 
1 
1 
1 
1 
1 
1 
1 
1 
1 
1 
1 
1 
1 
1 
1 
1 
1 
1 
1 
1 
1 
1 
POINT_DATA 175 
VECTORS X_GC float 
-0.026061 -2.024623 0.000000 
-0.106992 -1.956567 0.000000 
-0.054870 -1.964800 0.000000 
-0.028809 -1.918916 0.000000 
-0.186430 -1.892492 0.000000 
-0.137056 -1.895018 0.000000 
-0.114311 -1.841371 0.000000 
-0.058186 -1.857036 0.000000 
-0.029377 -1.816859 0.000000 
-0.265318 -1.829336 0.000000 
-0.217198 -1.830136 0.000000 
-0.196633 -1.772839 0.000000 
-0.143120 -1.781548 0.000000 
-0.116563 -1.734279 0.000000 
-0.058945 -1.753925 0.000000 
-0.029568 -1.715805 0.000000 
-0.344206 -1.766180 0.000000 
-0.296791 -1.766173 0.000000 
-0.278030 -1.706230 0.000000 
-0.225992 -1.712097 0.000000 
-0.201664 -1.659979 0.000000 
-0.145749 -1.673453 0.000000 
-0.117890 -1.629111 0.000000 
-0.059328 -1.651817 0.000000 
-0.029759 -1.614751 0.000000 
-0.058559 -2.065373 0.000000 
-0.162226 -2.086216 0.000000 
-0.123292 -2.050598 0.000000 
-0.142917 -2.001615 0.000000 
-0.261851 -2.108372 0.000000 
-0.229092 -2.071345 0.000000 
-0.256854 -2.020114 0.000000 
-0.209613 -1.986001 0.000000 
-0.223062 -1.938427 0.000000 
-0.360414 -2.130673 0.000000 
-0.329787 -2.093550 0.000000 
-0.361761 -2.041748 0.000000 
-0.321587 -2.005339 0.000000 
-0.341985 -1.955105 0.000000 
-0.290702 -1.922306 0.000000 
-0.302189 -1.875571 0.000000 
-0.458977 -2.152973 0.000000 
-0.429420 -2.115898 0.000000 
-0.464588 -2.063856 0.000000 
-0.427556 -2.026829 0.000000 
-0.453135 -1.975314 0.000000 
-0.407738 -1.939999 0.000000 
-0.425037 -1.890571 0.000000 
-0.370772 -1.858941 0.000000 
-0.381315 -1.812714 0.000000 
-0.046960 -2.116189 0.000000 
-0.095301 -2.210235 0.000000 
-0.098873 -2.157587 0.000000 
-0.149405 -2.142390 0.000000 
-0.140093 -2.301939 0.000000 
-0.148617 -2.253240 0.000000 
-0.205981 -2.243003 0.000000 
-0.203197 -2.184800 0.000000 
-0.248777 -2.165653 0.000000 
-0.184111 -2.392902 0.000000 
-0.194039 -2.345811 0.000000 
-0.254475 -2.338512 0.000000 
-0.257893 -2.284402 0.000000 
-0.309886 -2.269029 0.000000 
-0.303554 -2.208484 0.000000 
-0.347255 -2.188326 0.000000 
-0.228129 -2.483866 0.000000 
-0.238687 -2.437641 0.000000 
-0.301302 -2.432689 0.000000 
-0.307162 -2.380651 0.000000 
-0.363386 -2.368530 0.000000 
-0.362692 -2.311018 0.000000 
-0.412122 -2.293725 0.000000 
-0.403017 -2.231578 0.000000 
-0.445733 -2.210999 0.000000 
-0.000000 -2.138804 0.000000 
0.043388 -2.235234 0.000000 
-0.000000 -2.205202 0.000000 
-0.043388 -2.235234 0.000000 
0.087158 -2.327431 0.000000 
0.043769 -2.303732 0.000000 
-0.000000 -2.342198 0.000000 
-0.043769 -2.303732 0.000000 
-0.087158 -2.327431 0.000000 
0.130831 -2.418560 0.000000 
0.087824 -2.396962 0.000000 
0.044436 -2.439661 0.000000 
-0.000000 -2.408596 0.000000 
-0.044436 -2.439661 0.000000 
-0.087824 -2.396962 0.000000 
-0.130831 -2.418560 0.000000 
0.174505 -2.509690 0.000000 
0.131782 -2.489124 0.000000 
0.088871 -2.534991 0.000000 
0.044532 -2.507127 0.000000 
-0.000000 -2.543527 0.000000 
-0.044532 -2.507127 0.000000 
-0.088871 -2.534991 0.000000 
-0.131782 -2.489124 0.000000 
-0.174505 -2.509690 0.000000 
0.046960 -2.116189 0.000000 
0.149405 -2.142390 0.000000 
0.098873 -2.157587 0.000000 
0.095301 -2.210235 0.000000 
0.248777 -2.165653 0.000000 
0.203197 -2.184800 0.000000 
0.205981 -2.243003 0.000000 
0.148617 -2.253240 0.000000 
0.140093 -2.301939 0.000000 
0.347255 -2.188326 0.000000 
0.303554 -2.208484 0.000000 
0.309886 -2.269029 0.000000 
0.257893 -2.284402 0.000000 
0.254475 -2.338512 0.000000 
0.194039 -2.345811 0.000000 
0.184111 -2.392902 0.000000 
0.445733 -2.210999 0.000000 
0.403017 -2.231578 0.000000 
0.412122 -2.293725 0.000000 
0.362692 -2.311018 0.000000 
0.363386 -2.368530 0.000000 
0.307162 -2.380651 0.000000 
0.301302 -2.432689 0.000000 
0.238687 -2.437641 0.000000 
0.228129 -2.483866 0.000000 
0.058559 -2.065373 0.000000 
0.142917 -2.001615 0.000000 
0.123292 -2.050598 0.000000 
0.162226 -2.086216 0.000000 
0.223062 -1.938427 0.000000 
0.209613 -1.986001 0.000000 
0.256854 -2.020114 0.000000 
0.229092 -2.071345 0.000000 
0.261851 -2.108372 0.000000 
0.302189 -1.875571 0.000000 
0.290702 -1.922306 0.000000 
0.341985 -1.955105 0.000000 
0.321587 -2.005339 0.000000 
0.361761 -2.041748 0.000000 
0.329787 -2.093550 0.000000 
0.360414 -2.130673 0.000000 
0.381315 -1.812714 0.000000 
0.370772 -1.858941 0.000000 
0.425037 -1.890571 0.000000 
0.407738 -1.939999 0.000000 
0.453135 -1.975314 0.000000 
0.427556 -2.026829 0.000000 
0.464588 -2.063856 0.000000 
0.429420 -2.115898 0.000000 
0.458977 -2.152973 0.000000 
0.026061 -2.024623 0.000000 
0.028809 -1.918916 0.000000 
0.054870 -1.964800 0.000000 
0.106992 -1.956567 0.000000 
0.029377 -1.816859 0.000000 
0.058186 -1.857036 0.000000 
0.114311 -1.841371 0.000000 
0.137056 -1.895018 0.000000 
0.186430 -1.892492 0.000000 
0.029568 -1.715805 0.000000 
0.058945 -1.753925 0.000000 
0.116563 -1.734279 0.000000 
0.143120 -1.781548 0.000000 
0.196633 -1.772839 0.000000 
0.217198 -1.830136 0.000000 
0.265318 -1.829336 0.000000 
0.029759 -1.614751 0.000000 
0.059328 -1.651817 0.000000 
0.117890 -1.629111 0.000000 
0.145749 -1.673453 0.000000 
0.201664 -1.659979 0.000000 
0.225992 -1.712097 0.000000 
0.278030 -1.706230 0.000000 
0.296791 -1.766173 0.000000 
0.344206 -1.766180 0.000000 
VECTORS X_EC float 
0.338794 -0.167594 0.000000 
-0.609100 0.913658 0.000000 
0.713312 -0.975202 0.000000 
0.374519 0.405369 0.000000 
0.423588 0.048638 0.000000 
-0.218274 0.082742 0.000000 
-0.513962 -0.641497 0.000000 
0.756418 -0.430011 0.000000 
0.381900 -0.972403 0.000000 
-0.550868 -0.803965 0.000000 
0.823577 -0.793169 0.000000 
0.556234 0.433327 0.000000 
-0.139443 0.550895 0.000000 
-0.484677 -0.087229 0.000000 
0.766286 0.177986 0.000000 
0.384386 -0.336634 0.000000 
0.474677 0.343432 0.000000 
-0.141715 0.343336 0.000000 
-0.385608 -0.465893 0.000000 
0.937896 -0.386697 0.000000 
0.621631 0.909723 0.000000 
-0.105264 -0.908378 0.000000 
-0.467428 0.492996 0.000000 
0.771260 0.799524 0.000000 
0.386873 0.299135 0.000000 
0.761262 0.382541 0.000000 
0.108942 0.663917 0.000000 
-0.397202 0.183078 0.000000 
-0.142083 -0.478197 0.000000 
-0.595936 0.963028 0.000000 
0.978194 0.463162 0.000000 
-0.660903 -0.228463 0.000000 
0.724964 -0.688983 0.000000 
0.899809 0.668768 0.000000 
0.685384 -0.735920 0.000000 
0.287229 0.762922 0.000000 
0.702895 0.063593 0.000000 
0.180633 -0.427926 0.000000 
0.445811 0.893915 0.000000 
-0.220880 0.451129 0.000000 
-0.071546 -0.179797 0.000000 
-0.033296 -0.434868 0.000000 
-0.417537 -0.935377 0.000000 
0.039645 0.362060 0.000000 
-0.441768 -0.137811 0.000000 
-0.109248 -0.833262 0.000000 
-0.699407 0.689983 0.000000 
-0.474522 0.022703 0.000000 
0.820030 -0.404290 0.000000 
0.957100 0.971638 0.000000 
0.610485 -0.931453 0.000000 
-0.761092 0.338166 0.000000 
-0.714655 -0.372571 0.000000 
-0.057734 -0.577738 0.000000 
-0.178789 -0.423830 0.000000 
-0.067979 0.918744 0.000000 
0.677748 0.780541 0.000000 
0.641556 -0.005204 0.000000 
-0.765897 -0.263683 0.000000 
0.393446 0.804180 0.000000 
0.522510 0.168450 0.000000 
-0.691820 0.069905 0.000000 
-0.647393 -0.660577 0.000000 
0.028512 -0.868104 0.000000 
-0.053800 0.314536 0.000000 
0.514316 0.042405 0.000000 
0.965681 0.032189 0.000000 
-0.897068 -0.591840 0.000000 
-0.083078 -0.658693 0.000000 
-0.006893 0.638782 0.000000 
0.724017 0.475149 0.000000 
0.714996 -0.301254 0.000000 
-0.642413 -0.534712 0.000000 
-0.760780 0.626308 0.000000 
-0.205471 0.348493 0.000000 
0.000000 -0.626152 0.000000 
-0.564049 0.675661 0.000000 
0.000000 0.270225 0.000000 
0.564049 0.675661 0.000000 
0.866949 -0.079683 0.000000 
-0.569003 -0.399615 0.000000 
0.000000 0.119674 0.000000 
0.569003 -0.399615 0.000000 
-0.866949 -0.079683 0.000000 
0.299194 -0.849433 0.000000 
0.858290 0.858983 0.000000 
-0.577662 -0.564571 0.000000 
0.000000 -0.983949 0.000000 
0.577662 -0.564571 0.000000 
-0.858290 0.858983 0.000000 
-0.299194 -0.849433 0.000000 
-0.268560 0.380817 0.000000 
0.286830 0.103175 0.000000 
0.844677 0.722373 0.000000 
-0.578910 0.346211 0.000000 
0.000000 0.837614 0.000000 
0.578910 0.346211 0.000000 
-0.844677 0.722373 0.000000 
-0.286830 0.103175 0.000000 
0.268560 0.380817 0.000000 
-0.610485 -0.931453 0.000000 
0.057734 -0.577738 0.000000 
0.714655 -0.372571 0.000000 
0.761092 0.338166 0.000000 
0.765897 -0.263683 0.000000 
-0.641556 -0.005204 0.000000 
-0.677748 0.780541 0.000000 
0.067979 0.918744 0.000000 
0.178789 -0.423830 0.000000 
-0.514316 0.042405 0.000000 
0.053800 0.314536 0.000000 
-0.028512 -0.868104 0.000000 
0.647393 -0.660577 0.000000 
0.691820 0.069905 0.000000 
-0.522510 0.168450 0.000000 
-0.393446 0.804180 0.000000 
0.205471 0.348493 0.000000 
0.760780 0.626308 0.000000 
0.642413 -0.534712 0.000000 
-0.714996 -0.301254 0.000000 
-0.724017 0.475149 0.000000 
0.006894 0.638782 0.000000 
0.083078 -0.658693 0.000000 
0.897068 -0.591840 0.000000 
-0.965681 0.032189 0.000000 
-0.761262 0.382541 0.000000 
0.142083 -0.478197 0.000000 
0.397202 0.183078 0.000000 
-0.108942 0.663917 0.000000 
-0.899809 0.668768 0.000000 
-0.724964 -0.688983 0.000000 
0.660903 -0.228463 0.000000 
-0.978194 0.463162 0.000000 
0.595936 0.963028 0.000000 
0.071546 -0.179797 0.000000 
0.220880 0.451129 0.000000 
-0.445811 0.893915 0.000000 
-0.180633 -0.427926 0.000000 
-0.702895 0.063593 0.000000 
-0.287229 0.762922 0.000000 
-0.685384 -0.735920 0.000000 
-0.957100 0.971638 0.000000 
-0.820030 -0.404290 0.000000 
0.474522 0.022703 0.000000 
0.699407 0.689983 0.000000 
0.109248 -0.833262 0.000000 
0.441768 -0.137811 0.000000 
-0.039645 0.362060 0.000000 
0.417537 -0.935377 0.000000 
0.033296 -0.434868 0.000000 
-0.338794 -0.167594 0.000000 
-0.374519 0.405369 0.000000 
-0.713312 -0.975202 0.000000 
0.609100 0.913658 0.000000 
-0.381900 -0.972403 0.000000 
-0.756418 -0.430011 0.000000 
0.513962 -0.641497 0.000000 
0.218274 0.082742 0.000000 
-0.423588 0.048638 0.000000 
-0.384386 -0.336634 0.000000 
-0.766286 0.177986 0.000000 
0.484677 -0.087229 0.000000 
0.139443 0.550895 0.000000 
-0.556234 0.433327 0.000000 
-0.823577 -0.793169 0.000000 
0.550868 -0.803965 0.000000 
-0.386873 0.299135 0.000000 
-0.771260 0.799524 0.000000 
0.467428 0.492996 0.000000 
0.105264 -0.908378 0.000000 
-0.621631 0.909723 0.000000 
-0.937896 -0.386697 0.000000 
0.385608 -0.465893 0.000000 
0.141715 0.343336 0.000000 
-0.474677 0.343432 0.000000 
CELL_DATA 175 
SCALARS MASS float 
LOOKUP_TABLE default 
0.781831 
0.864274 
0.946717 
0.864274 
0.881307 
0.921110 
0.858535 
0.921110 
0.881307 
0.887046 
0.910001 
0.869829 
0.915556 
0.869829 
0.910001 
0.887046 
0.892784 
0.915740 
0.892784 
0.927218 
0.892784 
0.927218 
0.892784 
0.915740 
0.892784 
0.781831 
0.864274 
0.946717 
0.864274 
0.881307 
0.921110 
0.858535 
0.921110 
0.881307 
0.887046 
0.910001 
0.869829 
0.915556 
0.869829 
0.910001 
0.887046 
0.892784 
0.915740 
0.892784 
0.927218 
0.892784 
0.927218 
0.892784 
0.915740 
0.892784 
0.781831 
0.864274 
0.946717 
0.864274 
0.881307 
0.921110 
0.858535 
0.921110 
0.881307 
0.887046 
0.910001 
0.869829 
0.915556 
0.869829 
0.910001 
0.887046 
0.892784 
0.915740 
0.892784 
0.927218 
0.892784 
0.927218 
0.892784 
0.915740 
0.892784 
0.781831 
0.864274 
0.946717 
0.864274 
0.881307 
0.921110 
0.858535 
0.921110 
0.881307 
0.887046 
0.910001 
0.869829 
0.915556 
0.869829 
0.910001 
0.887046 
0.892784 
0.915740 
0.892784 
0.927218 
0.892784 
0.927218 
0.892784 
0.915740 
0.892784 
0.781831 
0.864274 
0.946717 
0.864274 
0.881307 
0.921110 
0.858535 
0.921110 
0.881307 
0.887046 
0.910001 
0.869829 
0.915556 
0.869829 
0.910001 
0.887046 
0.892784 
0.915740 
0.892784 
0.927218 
0.892784 
0.927218 
0.892784 
0.915740 
0.892784 
0.781831 
0.864274 
0.946717 
0.864274 
0.881307 
0.921110 
0.858535 
0.921110 
0.881307 
0.887046 
0.910001 
0.869829 
0.915556 
0.869829 
0.910001 
0.887046 
0.892784 
0.915740 
0.892784 
0.927218 
0.892784 
0.927218 
0.892784 
0.915740 
0.892784 
0.781831 
0.864274 
0.946717 
0.864274 
0.881307 
0.921110 
0.858535 
0.921110 
0.881307 
0.887046 
0.910001 
0.869829 
0.915556 
0.869829 
0.910001 
0.887046 
0.892784 
0.915740 
0.892784 
0.927218 
0.892784 
0.927218 
0.892784 
0.915740 
0.892784 
SCALARS MASS float 
LOOKUP_TABLE default 
0.781831 
0.864274 
0.946717 
0.864274 
0.881307 
0.921110 
0.858535 
0.921110 
0.881307 
0.887046 
0.910001 
0.869829 
0.915556 
0.869829 
0.910001 
0.887046 
0.892784 
0.915740 
0.892784 
0.927218 
0.892784 
0.927218 
0.892784 
0.915740 
0.892784 
0.781831 
0.864274 
0.946717 
0.864274 
0.881307 
0.921110 
0.858535 
0.921110 
0.881307 
0.887046 
0.910001 
0.869829 
0.915556 
0.869829 
0.910001 
0.887046 
0.892784 
0.915740 
0.892784 
0.927218 
0.892784 
0.927218 
0.892784 
0.915740 
0.892784 
0.781831 
0.864274 
0.946717 
0.864274 
0.881307 
0.921110 
0.858535 
0.921110 
0.881307 
0.887046 
0.910001 
0.869829 
0.915556 
0.869829 
0.910001 
0.887046 
0.892784 
0.915740 
0.892784 
0.927218 
0.892784 
0.927218 
0.892784 
0.915740 
0.892784 
0.781831 
0.864274 
0.946717 
0.864274 
0.881307 
0.921110 
0.858535 
0.921110 
0.881307 
0.887046 
0.910001 
0.869829 
0.915556 
0.869829 
0.910001 
0.887046 
0.892784 
0.915740 
0.892784 
0.927218 
0.892784 
0.927218 
0.892784 
0.915740 
0.892784 
0.781831 
0.864274 
0.946717 
0.864274 
0.881307 
0.921110 
0.858535 
0.921110 
0.881307 
0.887046 
0.910001 
0.869829 
0.915556 
0.869829 
0.910001 
0.887046 
0.892784 
0.915740 
0.892784 
0.927218 
0.892784 
0.927218 
0.892784 
0.915740 
0.892784 
0.781831 
0.864274 
0.946717 
0.864274 
0.881307 
0.921110 
0.858535 
0.921110 
0.881307 
0.887046 
0.910001 
0.869829 
0.915556 
0.869829 
0.910001 
0.887046 
0.892784 
0.915740 
0.892784 
0.927218 
0.892784 
0.927218 
0.892784 
0.915740 
0.892784 
0.781831 
0.864274 
0.946717 
0.864274 
0.881307 
0.921110 
0.858535 
0.921110 
0.881307 
0.887046 
0.910001 
0.869829 
0.915556 
0.869829 
0.910001 
0.887046 
0.892784 
0.915740 
0.892784 
0.927218 
0.892784 
0.927218 
0.892784 
0.915740 
0.892784 
SCALARS DENSITY float 
LOOKUP_TABLE default 
200.000000 
200.000000 
200.000000 
200.000000 
200.000000 
200.000000 
200.000000 
200.000000 
200.000000 
200.000000 
200.000000 
200.000000 
200.000000 
200.000000 
200.000000 
200.000000 
200.000000 
200.000000 
200.000000 
200.000000 
200.000000 
200.000000 
200.000000 
200.000000 
200.000000 
200.000000 
200.000000 
200.000000 
200.000000 
200.000000 
200.000000 
200.000000 
200.000000 
200.000000 
200.000000 
200.000000 
200.000000 
200.000000 
200.000000 
200.000000 
200.000000 
200.000000 
200.000000 
200.000000 
200.000000 
200.000000 
200.000000 
200.000000 
200.000000 
200.000000 
200.000000 
200.000000 
200.000000 
200.000000 
200.000000 
200.000000 
200.000000 
200.000000 
200.000000 
200.000000 
200.000000 
200.000000 
200.000000 
200.000000 
200.000000 
200.000000 
200.000000 
200.000000 
200.000000 
200.000000 
200.000000 
200.000000 
200.000000 
200.000000 
200.000000 
200.000000 
200.000000 
200.000000 
200.000000 
200.000000 
200.000000 
200.000000 
200.000000 
200.000000 
200.000000 
200.000000 
200.000000 
200.000000 
200.000000 
200.000000 
200.000000 
200.000000 
200.000000 
200.000000 
200.000000 
200.000000 
200.000000 
200.000000 
200.000000 
200.000000 
200.000000 
200.000000 
200.000000 
200.000000 
200.000000 
200.000000 
200.000000 
200.000000 
200.000000 
200.000000 
200.000000 
200.000000 
200.000000 
200.000000 
200.000000 
200.000000 
200.000000 
200.000000 
200.000000 
200.000000 
200.000000 
200.000000 
200.000000 
200.000000 
200.000000 
200.000000 
200.000000 
200.000000 
200.000000 
200.000000 
200.000000 
200.000000 
200.000000 
200.000000 
200.000000 
200.000000 
200.000000 
200.000000 
200.000000 
200.000000 
200.000000 
200.000000 
200.000000 
200.000000 
200.000000 
200.000000 
200.000000 
200.000000 
200.000000 
200.000000 
200.000000 
200.000000 
200.000000 
200.000000 
200.000000 
200.000000 
200.000000 
200.000000 
200.000000 
200.000000 
200.000000 
200.000000 
200.000000 
200.000000 
200.000000 
200.000000 
200.000000 
200.000000 
200.000000 
200.000000 
200.000000 
200.000000 
200.000000 
200.000000 
200.000000 
SCALARS ELEM_i float 
LOOKUP_TABLE default 
168 
196 
168 
169 
196 
196 
196 
169 
169 
223 
196 
197 
197 
197 
170 
170 
224 
224 
224 
197 
198 
197 
198 
171 
171 
168 
195 
195 
195 
222 
195 
222 
195 
196 
221 
222 
222 
222 
223 
223 
223 
248 
248 
249 
249 
249 
250 
250 
223 
224 
167 
194 
194 
194 
193 
194 
194 
194 
221 
193 
193 
220 
220 
220 
221 
221 
192 
219 
219 
220 
220 
220 
247 
248 
248 
167 
167 
167 
167 
139 
166 
166 
166 
193 
138 
139 
165 
165 
165 
193 
192 
138 
138 
138 
165 
165 
165 
192 
192 
192 
167 
140 
140 
140 
113 
140 
140 
140 
139 
113 
113 
112 
112 
112 
139 
139 
86 
86 
85 
112 
112 
112 
111 
111 
138 
168 
141 
141 
141 
142 
141 
114 
141 
114 
115 
115 
115 
114 
114 
114 
113 
116 
115 
88 
88 
87 
87 
87 
86 
86 
168 
169 
168 
142 
169 
169 
142 
142 
142 
170 
170 
143 
143 
143 
142 
115 
171 
171 
144 
143 
144 
143 
116 
116 
116 
VECTORS VELOCITY float 
0.000000 -6.376500 0.000000 
-0.000000 -6.376500 0.000000 
-0.000000 -6.376500 0.000000 
-0.000000 -6.376500 0.000000 
0.000000 -6.376500 0.000000 
-0.000000 -6.376500 0.000000 
-0.000000 -6.376500 0.000000 
-0.000000 -6.376500 0.000000 
-0.000000 -6.376500 0.000000 
0.000000 -6.376500 0.000000 
0.000000 -6.376500 0.000000 
0.000000 -6.376500 0.000000 
0.000000 -6.376500 0.000000 
0.000000 -6.376500 0.000000 
0.000000 -6.376500 0.000000 
-0.000000 -6.376500 0.000000 
0.000000 -6.376500 0.000000 
0.000000 -6.376500 0.000000 
0.000000 -6.376500 0.000000 
0.000000 -6.376500 0.000000 
0.000000 -6.376500 0.000000 
0.000000 -6.376500 0.000000 
-0.000000 -6.376500 0.000000 
-0.000000 -6.376500 0.000000 
0.000000 -6.376500 0.000000 
0.000000 -6.376500 0.000000 
-0.000000 -6.376500 0.000000 
0.000000 -6.376500 0.000000 
-0.000000 -6.376500 0.000000 
-0.000000 -6.376500 0.000000 
-0.000000 -6.376500 0.000000 
-0.000000 -6.376500 0.000000 
-0.000000 -6.376500 0.000000 
-0.000000 -6.376500 0.000000 
0.000000 -6.376500 0.000000 
-0.000000 -6.376500 0.000000 
0.000000 -6.376500 0.000000 
0.000000 -6.376500 0.000000 
0.000000 -6.376500 0.000000 
0.000000 -6.376500 0.000000 
0.000000 -6.376500 0.000000 
0.000000 -6.376500 0.000000 
0.000000 -6.376500 0.000000 
-0.000000 -6.376500 0.000000 
-0.000000 -6.376500 0.000000 
-0.000000 -6.376500 0.000000 
0.000000 -6.376500 0.000000 
0.000000 -6.376500 0.000000 
-0.000000 -6.376500 0.000000 
-0.000000 -6.376500 0.000000 
-0.000000 -6.376500 0.000000 
0.000000 -6.376500 0.000000 
-0.000000 -6.376500 0.000000 
-0.000000 -6.376500 0.000000 
0.000000 -6.376500 0.000000 
-0.000000 -6.376500 0.000000 
-0.000000 -6.376500 0.000000 
-0.000000 -6.376500 0.000000 
-0.000000 -6.376500 0.000000 
0.000000 -6.376500 0.000000 
0.000000 -6.376500 0.000000 
0.000000 -6.376500 0.000000 
-0.000000 -6.376500 0.000000 
0.000000 -6.376500 0.000000 
0.000000 -6.376500 0.000000 
0.000000 -6.376500 0.000000 
0.000000 -6.376500 0.000000 
0.000000 -6.376500 0.000000 
0.000000 -6.376500 0.000000 
0.000000 -6.376500 0.000000 
0.000000 -6.376500 0.000000 
0.000000 -6.376500 0.000000 
-0.000000 -6.376500 0.000000 
0.000000 -6.376500 0.000000 
-0.000000 -6.376500 0.000000 
-0.000000 -6.376500 0.000000 
0.000000 -6.376500 0.000000 
0.000000 -6.376500 0.000000 
0.000000 -6.376500 0.000000 
-0.000000 -6.376500 0.000000 
-0.000000 -6.376500 0.000000 
-0.000000 -6.376500 0.000000 
0.000000 -6.376500 0.000000 
-0.000000 -6.376500 0.000000 
0.000000 -6.376500 0.000000 
-0.000000 -6.376500 0.000000 
0.000000 -6.376500 0.000000 
-0.000000 -6.376500 0.000000 
-0.000000 -6.376500 0.000000 
-0.000000 -6.376500 0.000000 
-0.000000 -6.376500 0.000000 
0.000000 -6.376500 0.000000 
-0.000000 -6.376500 0.000000 
0.000000 -6.376500 0.000000 
-0.000000 -6.376500 0.000000 
0.000000 -6.376500 0.000000 
0.000000 -6.376500 0.000000 
-0.000000 -6.376500 0.000000 
0.000000 -6.376500 0.000000 
0.000000 -6.376500 0.000000 
-0.000000 -6.376500 0.000000 
-0.000000 -6.376500 0.000000 
0.000000 -6.376500 0.000000 
0.000000 -6.376500 0.000000 
-0.000000 -6.376500 0.000000 
-0.000000 -6.376500 0.000000 
-0.000000 -6.376500 0.000000 
-0.000000 -6.376500 0.000000 
-0.000000 -6.376500 0.000000 
-0.000000 -6.376500 0.000000 
-0.000000 -6.376500 0.000000 
-0.000000 -6.376500 0.000000 
-0.000000 -6.376500 0.000000 
-0.000000 -6.376500 0.000000 
-0.000000 -6.376500 0.000000 
0.000000 -6.376500 0.000000 
0.000000 -6.376500 0.000000 
0.000000 -6.376500 0.000000 
0.000000 -6.376500 0.000000 
0.000000 -6.376500 0.000000 
0.000000 -6.376500 0.000000 
0.000000 -6.376500 0.000000 
-0.000000 -6.376500 0.000000 
0.000000 -6.376500 0.000000 
0.000000 -6.376500 0.000000 
-0.000000 -6.376500 0.000000 
-0.000000 -6.376500 0.000000 
-0.000000 -6.376500 0.000000 
-0.000000 -6.376500 0.000000 
-0.000000 -6.376500 0.000000 
-0.000000 -6.376500 0.000000 
-0.000000 -6.376500 0.000000 
-0.000000 -6.376500 0.000000 
-0.000000 -6.376500 0.000000 
-0.000000 -6.376500 0.000000 
-0.000000 -6.376500 0.000000 
0.000000 -6.376500 0.000000 
0.000000 -6.376500 0.000000 
0.000000 -6.376500 0.000000 
0.000000 -6.376500 0.000000 
0.000000 -6.376500 0.000000 
0.000000 -6.376500 0.000000 
0.000000 -6.376500 0.000000 
0.000000 -6.376500 0.000000 
0.000000 -6.376500 0.000000 
-0.000000 -6.376500 0.000000 
0.000000 -6.376500 0.000000 
-0.000000 -6.376500 0.000000 
-0.000000 -6.376500 0.000000 
-0.000000 -6.376500 0.000000 
0.000000 -6.376500 0.000000 
0.000000 -6.376500 0.000000 
0.000000 -6.376500 0.000000 
-0.000000 -6.376500 0.000000 
-0.000000 -6.376500 0.000000 
0.000000 -6.376500 0.000000 
-0.000000 -6.376500 0.000000 
-0.000000 -6.376500 0.000000 
-0.000000 -6.376500 0.000000 
-0.000000 -6.376500 0.000000 
-0.000000 -6.376500 0.000000 
-0.000000 -6.376500 0.000000 
-0.000000 -6.376500 0.000000 
0.000000 -6.376500 0.000000 
-0.000000 -6.376500 0.000000 
-0.000000 -6.376500 0.000000 
0.000000 -6.376500 0.000000 
-0.000000 -6.376500 0.000000 
0.000000 -6.376500 0.000000 
-0.000000 -6.376500 0.000000 
0.000000 -6.376500 0.000000 
0.000000 -6.376500 0.000000 
-0.000000 -6.376500 0.000000 
0.000000 -6.376500 0.000000 
0.000000 -6.376500 0.000000 
TENSORS STRESS float 
0.000000 -0.000000 0.000000 
0.000000 0.000000 0.000000 
0.000000 0.000000 0.000000 

0.000000 0.000000 0.000000 
0.000000 0.000000 0.000000 
0.000000 0.000000 0.000000 

0.000000 -0.000000 0.000000 
0.000000 0.000000 0.000000 
0.000000 0.000000 0.000000 

0.000000 -0.000000 0.000000 
0.000000 0.000000 0.000000 
0.000000 0.000000 0.000000 

0.000000 0.000000 0.000000 
0.000000 -0.000000 0.000000 
0.000000 0.000000 0.000000 

-0.000000 -0.000000 0.000000 
0.000000 -0.000000 0.000000 
0.000000 0.000000 0.000000 

0.000000 0.000000 0.000000 
0.000000 0.000000 0.000000 
0.000000 0.000000 0.000000 

-0.000000 0.000000 0.000000 
0.000000 -0.000000 0.000000 
0.000000 0.000000 0.000000 

0.000000 0.000000 0.000000 
0.000000 0.000000 0.000000 
0.000000 0.000000 0.000000 

0.000000 0.000000 0.000000 
0.000000 0.000000 0.000000 
0.000000 0.000000 0.000000 

0.000000 0.000000 0.000000 
0.000000 0.000000 0.000000 
0.000000 0.000000 0.000000 

0.000000 0.000000 0.000000 
0.000000 0.000000 0.000000 
0.000000 0.000000 0.000000 

0.000000 0.000000 0.000000 
0.000000 0.000000 0.000000 
0.000000 0.000000 0.000000 

0.000000 -0.000000 0.000000 
0.000000 0.000000 0.000000 
0.000000 0.000000 0.000000 

0.000000 -0.000000 0.000000 
0.000000 0.000000 0.000000 
0.000000 0.000000 0.000000 

-0.000000 -0.000000 0.000000 
0.000000 -0.000000 0.000000 
0.000000 0.000000 0.000000 

-0.000000 -0.000000 0.000000 
0.000000 -0.000000 0.000000 
0.000000 0.000000 0.000000 

0.000000 -0.000000 0.000000 
0.000000 0.000000 0.000000 
0.000000 0.000000 0.000000 

0.000000 0.000000 0.000000 
0.000000 0.000000 0.000000 
0.000000 0.000000 0.000000 

-0.000000 -0.000000 0.000000 
0.000000 -0.000000 0.000000 
0.000000 0.000000 0.000000 

0.000000 0.000000 0.000000 
0.000000 0.000000 0.000000 
0.000000 0.000000 0.000000 

0.000000 0.000000 0.000000 
0.000000 0.000000 0.000000 
0.000000 0.000000 0.000000 

0.000000 -0.000000 0.000000 
0.000000 0.000000 0.000000 
0.000000 0.000000 0.000000 

0.000000 0.000000 0.000000 
0.000000 0.000000 0.000000 
0.000000 0.000000 0.000000 

0.000000 -0.000000 0.000000 
0.000000 0.000000 0.000000 
0.000000 0.000000 0.000000 

0.000000 -0.000000 0.000000 
0.000000 0.000000 0.000000 
0.000000 0.000000 0.000000 

0.000000 -0.000000 0.000000 
0.000000 0.000000 0.000000 
0.000000 0.000000 0.000000 

-0.000000 -0.000000 0.000000 
0.000000 -0.000000 0.000000 
0.000000 0.000000 0.000000 

-0.000000 -0.000000 0.000000 
0.000000 -0.000000 0.000000 
0.000000 0.000000 0.000000 

-0.000000 -0.000000 0.000000 
0.000000 -0.000000 0.000000 
0.000000 0.000000 0.000000 

0.000000 0.000000 0.000000 
0.000000 0.000000 0.000000 
0.000000 0.000000 0.000000 

0.000000 -0.000000 0.000000 
0.000000 0.000000 0.000000 
0.000000 0.000000 0.000000 

-0.000000 0.000000 0.000000 
0.000000 -0.000000 0.000000 
0.000000 0.000000 0.000000 

0.000000 0.000000 0.000000 
0.000000 0.000000 0.000000 
0.000000 0.000000 0.000000 

0.000000 -0.000000 0.000000 
0.000000 0.000000 0.000000 
0.000000 0.000000 0.000000 

-0.000000 -0.000000 0.000000 
0.000000 -0.000000 0.000000 
0.000000 0.000000 0.000000 

-0.000000 -0.000000 0.000000 
0.000000 -0.000000 0.000000 
0.000000 0.000000 0.000000 

-0.000000 -0.000000 0.000000 
0.000000 -0.000000 0.000000 
0.000000 0.000000 0.000000 

-0.000000 -0.000000 0.000000 
0.000000 -0.000000 0.000000 
0.000000 0.000000 0.000000 

-0.000000 -0.000000 0.000000 
0.000000 -0.000000 0.000000 
0.000000 0.000000 0.000000 

-0.000000 -0.000000 0.000000 
0.000000 -0.000000 0.000000 
0.000000 0.000000 0.000000 

-0.000000 0.000000 0.000000 
0.000000 -0.000000 0.000000 
0.000000 0.000000 0.000000 

-0.000000 0.000000 0.000000 
0.000000 -0.000000 0.000000 
0.000000 0.000000 0.000000 

-0.000000 -0.000000 0.000000 
0.000000 -0.000000 0.000000 
0.000000 0.000000 0.000000 

0.000000 -0.000000 0.000000 
0.000000 0.000000 0.000000 
0.000000 0.000000 0.000000 

-0.000000 0.000000 0.000000 
0.000000 -0.000000 0.000000 
0.000000 0.000000 0.000000 

-0.000000 0.000000 0.000000 
0.000000 -0.000000 0.000000 
0.000000 0.000000 0.000000 

-0.000000 0.000000 0.000000 
0.000000 0.000000 0.000000 
0.000000 0.000000 0.000000 

0.000000 -0.000000 0.000000 
0.000000 0.000000 0.000000 
0.000000 0.000000 0.000000 

-0.000000 -0.000000 0.000000 
0.000000 -0.000000 0.000000 
0.000000 0.000000 0.000000 

0.000000 0.000000 0.000000 
0.000000 0.000000 0.000000 
0.000000 0.000000 0.000000 

-0.000000 -0.000000 0.000000 
0.000000 -0.000000 0.000000 
0.000000 0.000000 0.000000 

0.000000 0.000000 0.000000 
0.000000 0.000000 0.000000 
0.000000 0.000000 0.000000 

0.000000 0.000000 0.000000 
0.000000 0.000000 0.000000 
0.000000 0.000000 0.000000 

0.000000 -0.000000 0.000000 
0.000000 0.000000 0.000000 
0.000000 0.000000 0.000000 

-0.000000 -0.000000 0.000000 
0.000000 -0.000000 0.000000 
0.000000 0.000000 0.000000 

0.000000 -0.000000 0.000000 
0.000000 0.000000 0.000000 
0.000000 0.000000 0.000000 

-0.000000 0.000000 0.000000 
0.000000 -0.000000 0.000000 
0.000000 0.000000 0.000000 

0.000000 0.000000 0.000000 
0.000000 0.000000 0.000000 
0.000000 0.000000 0.000000 

-0.000000 0.000000 0.000000 
0.000000 -0.000000 0.000000 
0.000000 0.000000 0.000000 

-0.000000 0.000000 0.000000 
0.000000 -0.000000 0.000000 
0.000000 0.000000 0.000000 

-0.000000 -0.000000 0.000000 
0.000000 -0.000000 0.000000 
0.000000 0.000000 0.000000 

0.000000 -0.000000 0.000000 
0.000000 0.000000 0.000000 
0.000000 0.000000 0.000000 

0.000000 -0.000000 0.000000 
0.000000 0.000000 0.000000 
0.000000 0.000000 0.000000 

0.000000 -0.000000 0.000000 
0.000000 0.000000 0.000000 
0.000000 0.000000 0.000000 

0.000000 -0.000000 0.000000 
0.000000 0.000000 0.000000 
0.000000 0.000000 0.000000 

0.000000 0.000000 0.000000 
0.000000 0.000000 0.000000 
0.000000 0.000000 0.000000 

-0.000000 0.000000 0.000000 
0.000000 -0.000000 0.000000 
0.000000 0.000000 0.000000 

-0.000000 -0.000000 0.000000 
0.000000 -0.000000 0.000000 
0.000000 0.000000 0.000000 

0.000000 0.000000 0.000000 
0.000000 0.000000 0.000000 
0.000000 0.000000 0.000000 

-0.000000 0.000000 0.000000 
0.000000 -0.000000 0.000000 
0.000000 0.000000 0.000000 

0.000000 -0.000000 0.000000 
0.000000 0.000000 0.000000 
0.000000 0.000000 0.000000 

0.000000 0.000000 0.000000 
0.000000 0.000000 0.000000 
0.000000 0.000000 0.000000 

-0.000000 -0.000000 0.000000 
0.000000 -0.000000 0.000000 
0.000000 0.000000 0.000000 

0.000000 0.000000 0.000000 
0.000000 0.000000 0.000000 
0.000000 0.000000 0.000000 

-0.000000 0.000000 0.000000 
0.000000 -0.000000 0.000000 
0.000000 0.000000 0.000000 

-0.000000 0.000000 0.000000 
0.000000 -0.000000 0.000000 
0.000000 0.000000 0.000000 

-0.000000 0.000000 0.000000 
0.000000 -0.000000 0.000000 
0.000000 0.000000 0.000000 

-0.000000 0.000000 0.000000 
0.000000 -0.000000 0.000000 
0.000000 0.000000 0.000000 

0.000000 0.000000 0.000000 
0.000000 0.000000 0.000000 
0.000000 0.000000 0.000000 

-0.000000 -0.000000 0.000000 
0.000000 0.000000 0.000000 
0.000000 0.000000 0.000000 

0.000000 0.000000 0.000000 
0.000000 0.000000 0.000000 
0.000000 0.000000 0.000000 

-0.000000 -0.000000 0.000000 
0.000000 -0.000000 0.000000 
0.000000 0.000000 0.000000 

0.000000 -0.000000 0.000000 
0.000000 0.000000 0.000000 
0.000000 0.000000 0.000000 

-0.000000 0.000000 0.000000 
0.000000 -0.000000 0.000000 
0.000000 0.000000 0.000000 

0.000000 0.000000 0.000000 
0.000000 0.000000 0.000000 
0.000000 0.000000 0.000000 

0.000000 0.000000 0.000000 
0.000000 0.000000 0.000000 
0.000000 0.000000 0.000000 

-0.000000 0.000000 0.000000 
0.000000 -0.000000 0.000000 
0.000000 0.000000 0.000000 

-0.000000 0.000000 0.000000 
0.000000 -0.000000 0.000000 
0.000000 0.000000 0.000000 

0.000000 0.000000 0.000000 
0.000000 0.000000 0.000000 
0.000000 0.000000 0.000000 

0.000000 0.000000 0.000000 
0.000000 0.000000 0.000000 
0.000000 0.000000 0.000000 

0.000000 -0.000000 0.000000 
0.000000 0.000000 0.000000 
0.000000 0.000000 0.000000 

-0.000000 -0.000000 0.000000 
0.000000 -0.000000 0.000000 
0.000000 0.000000 0.000000 

0.000000 -0.000000 0.000000 
0.000000 0.000000 0.000000 
0.000000 0.000000 0.000000 

0.000000 -0.000000 0.000000 
0.000000 0.000000 0.000000 
0.000000 0.000000 0.000000 

-0.000000 0.000000 0.000000 
0.000000 -0.000000 0.000000 
0.000000 0.000000 0.000000 

0.000000 0.000000 0.000000 
0.000000 0.000000 0.000000 
0.000000 0.000000 0.000000 

0.000000 -0.000000 0.000000 
0.000000 0.000000 0.000000 
0.000000 0.000000 0.000000 

0.000000 0.000000 0.000000 
0.000000 -0.000000 0.000000 
0.000000 0.000000 0.000000 

0.000000 0.000000 0.000000 
0.000000 0.000000 0.000000 
0.000000 0.000000 0.000000 

0.000000 0.000000 0.000000 
0.000000 0.000000 0.000000 
0.000000 0.000000 0.000000 

-0.000000 -0.000000 0.000000 
0.000000 -0.000000 0.000000 
0.000000 0.000000 0.000000 

0.000000 -0.000000 0.000000 
0.000000 0.000000 0.000000 
0.000000 0.000000 0.000000 

0.000000 0.000000 0.000000 
0.000000 0.000000 0.000000 
0.000000 0.000000 0.000000 

0.000000 0.000000 0.000000 
0.000000 0.000000 0.000000 
0.000000 0.000000 0.000000 

0.000000 0.000000 0.000000 
0.000000 0.000000 0.000000 
0.000000 0.000000 0.000000 

0.000000 0.000000 0.000000 
0.000000 0.000000 0.000000 
0.000000 0.000000 0.000000 

-0.000000 0.000000 0.000000 
0.000000 -0.000000 0.000000 
0.000000 0.000000 0.000000 

0.000000 -0.000000 0.000000 
0.000000 0.000000 0.000000 
0.000000 0.000000 0.000000 

-0.000000 -0.000000 0.000000 
0.000000 -0.000000 0.000000 
0.000000 0.000000 0.000000 

0.000000 0.000000 0.000000 
0.000000 0.000000 0.000000 
0.000000 0.000000 0.000000 

0.000000 0.000000 0.000000 
0.000000 0.000000 0.000000 
0.000000 0.000000 0.000000 

-0.000000 -0.000000 0.000000 
0.000000 -0.000000 0.000000 
0.000000 0.000000 0.000000 

-0.000000 0.000000 0.000000 
0.000000 -0.000000 0.000000 
0.000000 0.000000 0.000000 

0.000000 0.000000 0.000000 
0.000000 0.000000 0.000000 
0.000000 0.000000 0.000000 

0.000000 0.000000 0.000000 
0.000000 -0.000000 0.000000 
0.000000 0.000000 0.000000 

0.000000 0.000000 0.000000 
0.000000 0.000000 0.000000 
0.000000 0.000000 0.000000 

-0.000000 0.000000 0.000000 
0.000000 -0.000000 0.000000 
0.000000 0.000000 0.000000 

0.000000 0.000000 0.000000 
0.000000 0.000000 0.000000 
0.000000 0.000000 0.000000 

-0.000000 0.000000 0.000000 
0.000000 -0.000000 0.000000 
0.000000 0.000000 0.000000 

-0.000000 0.000000 0.000000 
0.000000 -0.000000 0.000000 
0.000000 0.000000 0.000000 

-0.000000 0.000000 0.000000 
0.000000 0.000000 0.000000 
0.000000 0.000000 0.000000 

0.000000 0.000000 0.000000 
0.000000 0.000000 0.000000 
0.000000 0.000000 0.000000 

-0.000000 -0.000000 0.000000 
0.000000 -0.000000 0.000000 
0.000000 0.000000 0.000000 

0.000000 0.000000 0.000000 
0.000000 0.000000 0.000000 
0.000000 0.000000 0.000000 

0.000000 0.000000 0.000000 
0.000000 0.000000 0.000000 
0.000000 0.000000 0.000000 

0.000000 0.000000 0.000000 
0.000000 0.000000 0.000000 
0.000000 0.000000 0.000000 

0.000000 0.000000 0.000000 
0.000000 0.000000 0.000000 
0.000000 0.000000 0.000000 

0.000000 0.000000 0.000000 
0.000000 -0.000000 0.000000 
0.000000 0.000000 0.000000 

-0.000000 -0.000000 0.000000 
0.000000 -0.000000 0.000000 
0.000000 0.000000 0.000000 

-0.000000 -0.000000 0.000000 
0.000000 -0.000000 0.000000 
0.000000 0.000000 0.000000 

-0.000000 0.000000 0.000000 
0.000000 0.000000 0.000000 
0.000000 0.000000 0.000000 

0.000000 -0.000000 0.000000 
0.000000 0.000000 0.000000 
0.000000 0.000000 0.000000 

-0.000000 0.000000 0.000000 
0.000000 -0.000000 0.000000 
0.000000 0.000000 0.000000 

-0.000000 -0.000000 0.000000 
0.000000 -0.000000 0.000000 
0.000000 0.000000 0.000000 

-0.000000 0.000000 0.000000 
0.000000 -0.000000 0.000000 
0.000000 0.000000 0.000000 

0.000000 0.000000 0.000000 
0.000000 0.000000 0.000000 
0.000000 0.000000 0.000000 

-0.000000 0.000000 0.000000 
0.000000 -0.000000 0.000000 
0.000000 0.000000 0.000000 

-0.000000 -0.000000 0.000000 
0.000000 -0.000000 0.000000 
0.000000 0.000000 0.000000 

-0.000000 0.000000 0.000000 
0.000000 -0.000000 0.000000 
0.000000 0.000000 0.000000 

0.000000 0.000000 0.000000 
0.000000 0.000000 0.000000 
0.000000 0.000000 0.000000 

-0.000000 -0.000000 0.000000 
0.000000 -0.000000 0.000000 
0.000000 0.000000 0.000000 

0.000000 -0.000000 0.000000 
0.000000 0.000000 0.000000 
0.000000 0.000000 0.000000 

0.000000 -0.000000 0.000000 
0.000000 0.000000 0.000000 
0.000000 0.000000 0.000000 

-0.000000 -0.000000 0.000000 
0.000000 -0.000000 0.000000 
0.000000 0.000000 0.000000 

0.000000 0.000000 0.000000 
0.000000 0.000000 0.000000 
0.000000 0.000000 0.000000 

0.000000 0.000000 0.000000 
0.000000 0.000000 0.000000 
0.000000 0.000000 0.000000 

0.000000 0.000000 0.000000 
0.000000 0.000000 0.000000 
0.000000 0.000000 0.000000 

0.000000 0.000000 0.000000 
0.000000 0.000000 0.000000 
0.000000 0.000000 0.000000 

-0.000000 -0.000000 0.000000 
0.000000 -0.000000 0.000000 
0.000000 0.000000 0.000000 

-0.000000 0.000000 0.000000 
0.000000 -0.000000 0.000000 
0.000000 0.000000 0.000000 

0.000000 -0.000000 0.000000 
0.000000 0.000000 0.000000 
0.000000 0.000000 0.000000 

0.000000 -0.000000 0.000000 
0.000000 0.000000 0.000000 
0.000000 0.000000 0.000000 

0.000000 -0.000000 0.000000 
0.000000 0.000000 0.000000 
0.000000 0.000000 0.000000 

0.000000 0.000000 0.000000 
0.000000 0.000000 0.000000 
0.000000 0.000000 0.000000 

0.000000 0.000000 0.000000 
0.000000 0.000000 0.000000 
0.000000 0.000000 0.000000 

-0.000000 -0.000000 0.000000 
0.000000 -0.000000 0.000000 
0.000000 0.000000 0.000000 

0.000000 -0.000000 0.000000 
0.000000 0.000000 0.000000 
0.000000 0.000000 0.000000 

0.000000 -0.000000 0.000000 
0.000000 0.000000 0.000000 
0.000000 0.000000 0.000000 

-0.000000 -0.000000 0.000000 
0.000000 -0.000000 0.000000 
0.000000 0.000000 0.000000 

0.000000 -0.000000 0.000000 
0.000000 -0.000000 0.000000 
0.000000 0.000000 0.000000 

-0.000000 -0.000000 0.000000 
0.000000 -0.000000 0.000000 
0.000000 0.000000 0.000000 

-0.000000 -0.000000 0.000000 
0.000000 -0.000000 0.000000 
0.000000 0.000000 0.000000 

-0.000000 -0.000000 0.000000 
0.000000 -0.000000 0.000000 
0.000000 0.000000 0.000000 

0.000000 -0.000000 0.000000 
0.000000 0.000000 0.000000 
0.000000 0.000000 0.000000 

0.000000 -0.000000 0.000000 
0.000000 0.000000 0.000000 
0.000000 0.000000 0.000000 

0.000000 -0.000000 0.000000 
0.000000 0.000000 0.000000 
0.000000 0.000000 0.000000 

0.000000 -0.000000 0.000000 
0.000000 0.000000 0.000000 
0.000000 0.000000 0.000000 

0.000000 0.000000 0.000000 
0.000000 0.000000 0.000000 
0.000000 0.000000 0.000000 

0.000000 -0.000000 0.000000 
0.000000 0.000000 0.000000 
0.000000 0.000000 0.000000 

-0.000000 0.000000 0.000000 
0.000000 -0.000000 0.000000 
0.000000 0.000000 0.000000 

-0.000000 -0.000000 0.000000 
0.000000 -0.000000 0.000000 
0.000000 0.000000 0.000000 

0.000000 -0.000000 0.000000 
0.000000 0.000000 0.000000 
0.000000 0.000000 0.000000 

0.000000 0.000000 0.000000 
0.000000 0.000000 0.000000 
0.000000 0.000000 0.000000 

-0.000000 0.000000 0.000000 
0.000000 -0.000000 0.000000 
0.000000 0.000000 0.000000 

TENSORS STRAIN float 
-0.000000 -0.000000 0.000000 
0.000000 0.000000 0.000000 
0.000000 0.000000 0.000000 

0.000000 0.000000 0.000000 
0.000000 0.000000 0.000000 
0.000000 0.000000 0.000000 

0.000000 -0.000000 0.000000 
0.000000 -0.000000 0.000000 
0.000000 0.000000 0.000000 

0.000000 -0.000000 0.000000 
0.000000 0.000000 0.000000 
0.000000 0.000000 0.000000 

0.000000 0.000000 0.000000 
0.000000 -0.000000 0.000000 
0.000000 0.000000 0.000000 

0.000000 -0.000000 0.000000 
0.000000 -0.000000 0.000000 
0.000000 0.000000 0.000000 

-0.000000 0.000000 0.000000 
0.000000 0.000000 0.000000 
0.000000 0.000000 0.000000 

0.000000 0.000000 0.000000 
0.000000 -0.000000 0.000000 
0.000000 0.000000 0.000000 

0.000000 0.000000 0.000000 
0.000000 -0.000000 0.000000 
0.000000 0.000000 0.000000 

-0.000000 0.000000 0.000000 
0.000000 0.000000 0.000000 
0.000000 0.000000 0.000000 

-0.000000 0.000000 0.000000 
0.000000 0.000000 0.000000 
0.000000 0.000000 0.000000 

-0.000000 0.000000 0.000000 
0.000000 0.000000 0.000000 
0.000000 0.000000 0.000000 

-0.000000 0.000000 0.000000 
0.000000 0.000000 0.000000 
0.000000 0.000000 0.000000 

-0.000000 -0.000000 0.000000 
0.000000 0.000000 0.000000 
0.000000 0.000000 0.000000 

0.000000 -0.000000 0.000000 
0.000000 -0.000000 0.000000 
0.000000 0.000000 0.000000 

0.000000 -0.000000 0.000000 
0.000000 -0.000000 0.000000 
0.000000 0.000000 0.000000 

0.000000 -0.000000 0.000000 
0.000000 -0.000000 0.000000 
0.000000 0.000000 0.000000 

0.000000 -0.000000 0.000000 
0.000000 0.000000 0.000000 
0.000000 0.000000 0.000000 

0.000000 0.000000 0.000000 
0.000000 -0.000000 0.000000 
0.000000 0.000000 0.000000 

-0.000000 -0.000000 0.000000 
0.000000 0.000000 0.000000 
0.000000 0.000000 0.000000 

-0.000000 0.000000 0.000000 
0.000000 0.000000 0.000000 
0.000000 0.000000 0.000000 

-0.000000 0.000000 0.000000 
0.000000 0.000000 0.000000 
0.000000 0.000000 0.000000 

-0.000000 -0.000000 0.000000 
0.000000 0.000000 0.000000 
0.000000 0.000000 0.000000 

0.000000 0.000000 0.000000 
0.000000 -0.000000 0.000000 
0.000000 0.000000 0.000000 

0.000000 -0.000000 0.000000 
0.000000 0.000000 0.000000 
0.000000 0.000000 0.000000 

-0.000000 -0.000000 0.000000 
0.000000 0.000000 0.000000 
0.000000 0.000000 0.000000 

0.000000 -0.000000 0.000000 
0.000000 -0.000000 0.000000 
0.000000 0.000000 0.000000 

0.000000 -0.000000 0.000000 
0.000000 -0.000000 0.000000 
0.000000 0.000000 0.000000 

0.000000 -0.000000 0.000000 
0.000000 -0.000000 0.000000 
0.000000 0.000000 0.000000 

0.000000 -0.000000 0.000000 
0.000000 -0.000000 0.000000 
0.000000 0.000000 0.000000 

0.000000 0.000000 0.000000 
0.000000 0.000000 0.000000 
0.000000 0.000000 0.000000 

0.000000 -0.000000 0.000000 
0.000000 -0.000000 0.000000 
0.000000 0.000000 0.000000 

0.000000 0.000000 0.000000 
0.000000 -0.000000 0.000000 
0.000000 0.000000 0.000000 

0.000000 0.000000 0.000000 
0.000000 0.000000 0.000000 
0.000000 0.000000 0.000000 

0.000000 -0.000000 0.000000 
0.000000 0.000000 0.000000 
0.000000 0.000000 0.000000 

0.000000 -0.000000 0.000000 
0.000000 -0.000000 0.000000 
0.000000 0.000000 0.000000 

0.000000 -0.000000 0.000000 
0.000000 -0.000000 0.000000 
0.000000 0.000000 0.000000 

0.000000 -0.000000 0.000000 
0.000000 -0.000000 0.000000 
0.000000 0.000000 0.000000 

-0.000000 -0.000000 0.000000 
0.000000 -0.000000 0.000000 
0.000000 0.000000 0.000000 

-0.000000 -0.000000 0.000000 
0.000000 -0.000000 0.000000 
0.000000 0.000000 0.000000 

-0.000000 -0.000000 0.000000 
0.000000 0.000000 0.000000 
0.000000 0.000000 0.000000 

0.000000 0.000000 0.000000 
0.000000 -0.000000 0.000000 
0.000000 0.000000 0.000000 

0.000000 0.000000 0.000000 
0.000000 -0.000000 0.000000 
0.000000 0.000000 0.000000 

0.000000 -0.000000 0.000000 
0.000000 -0.000000 0.000000 
0.000000 0.000000 0.000000 

0.000000 -0.000000 0.000000 
0.000000 0.000000 0.000000 
0.000000 0.000000 0.000000 

-0.000000 0.000000 0.000000 
0.000000 0.000000 0.000000 
0.000000 0.000000 0.000000 

-0.000000 0.000000 0.000000 
0.000000 0.000000 0.000000 
0.000000 0.000000 0.000000 

-0.000000 0.000000 0.000000 
0.000000 0.000000 0.000000 
0.000000 0.000000 0.000000 

-0.000000 -0.000000 0.000000 
0.000000 0.000000 0.000000 
0.000000 0.000000 0.000000 

-0.000000 -0.000000 0.000000 
0.000000 -0.000000 0.000000 
0.000000 0.000000 0.000000 

-0.000000 0.000000 0.000000 
0.000000 0.000000 0.000000 
0.000000 0.000000 0.000000 

0.000000 -0.000000 0.000000 
0.000000 -0.000000 0.000000 
0.000000 0.000000 0.000000 

0.000000 0.000000 0.000000 
0.000000 0.000000 0.000000 
0.000000 0.000000 0.000000 

0.000000 0.000000 0.000000 
0.000000 0.000000 0.000000 
0.000000 0.000000 0.000000 

0.000000 -0.000000 0.000000 
0.000000 -0.000000 0.000000 
0.000000 0.000000 0.000000 

0.000000 -0.000000 0.000000 
0.000000 -0.000000 0.000000 
0.000000 0.000000 0.000000 

0.000000 -0.000000 0.000000 
0.000000 0.000000 0.000000 
0.000000 0.000000 0.000000 

0.000000 0.000000 0.000000 
0.000000 -0.000000 0.000000 
0.000000 0.000000 0.000000 

0.000000 0.000000 0.000000 
0.000000 -0.000000 0.000000 
0.000000 0.000000 0.000000 

-0.000000 0.000000 0.000000 
0.000000 -0.000000 0.000000 
0.000000 0.000000 0.000000 

0.000000 0.000000 0.000000 
0.000000 -0.000000 0.000000 
0.000000 0.000000 0.000000 

0.000000 -0.000000 0.000000 
0.000000 -0.000000 0.000000 
0.000000 0.000000 0.000000 

0.000000 -0.000000 0.000000 
0.000000 -0.000000 0.000000 
0.000000 0.000000 0.000000 

0.000000 -0.000000 0.000000 
0.000000 -0.000000 0.000000 
0.000000 0.000000 0.000000 

0.000000 -0.000000 0.000000 
0.000000 0.000000 0.000000 
0.000000 0.000000 0.000000 

0.000000 -0.000000 0.000000 
0.000000 0.000000 0.000000 
0.000000 0.000000 0.000000 

0.000000 0.000000 0.000000 
0.000000 0.000000 0.000000 
0.000000 0.000000 0.000000 

-0.000000 0.000000 0.000000 
0.000000 0.000000 0.000000 
0.000000 0.000000 0.000000 

-0.000000 -0.000000 0.000000 
0.000000 -0.000000 0.000000 
0.000000 0.000000 0.000000 

0.000000 0.000000 0.000000 
0.000000 0.000000 0.000000 
0.000000 0.000000 0.000000 

0.000000 0.000000 0.000000 
0.000000 -0.000000 0.000000 
0.000000 0.000000 0.000000 

0.000000 -0.000000 0.000000 
0.000000 0.000000 0.000000 
0.000000 0.000000 0.000000 

0.000000 0.000000 0.000000 
0.000000 -0.000000 0.000000 
0.000000 0.000000 0.000000 

0.000000 -0.000000 0.000000 
0.000000 -0.000000 0.000000 
0.000000 0.000000 0.000000 

0.000000 0.000000 0.000000 
0.000000 -0.000000 0.000000 
0.000000 0.000000 0.000000 

-0.000000 0.000000 0.000000 
0.000000 -0.000000 0.000000 
0.000000 0.000000 0.000000 

-0.000000 0.000000 0.000000 
0.000000 -0.000000 0.000000 
0.000000 0.000000 0.000000 

-0.000000 0.000000 0.000000 
0.000000 0.000000 0.000000 
0.000000 0.000000 0.000000 

-0.000000 0.000000 0.000000 
0.000000 0.000000 0.000000 
0.000000 0.000000 0.000000 

0.000000 0.000000 0.000000 
0.000000 -0.000000 0.000000 
0.000000 0.000000 0.000000 

-0.000000 -0.000000 0.000000 
0.000000 0.000000 0.000000 
0.000000 0.000000 0.000000 

-0.000000 0.000000 0.000000 
0.000000 0.000000 0.000000 
0.000000 0.000000 0.000000 

-0.000000 -0.000000 0.000000 
0.000000 0.000000 0.000000 
0.000000 0.000000 0.000000 

0.000000 -0.000000 0.000000 
0.000000 -0.000000 0.000000 
0.000000 0.000000 0.000000 

0.000000 0.000000 0.000000 
0.000000 -0.000000 0.000000 
0.000000 0.000000 0.000000 

0.000000 0.000000 0.000000 
0.000000 0.000000 0.000000 
0.000000 0.000000 0.000000 

-0.000000 0.000000 0.000000 
0.000000 0.000000 0.000000 
0.000000 0.000000 0.000000 

-0.000000 0.000000 0.000000 
0.000000 0.000000 0.000000 
0.000000 0.000000 0.000000 

-0.000000 0.000000 0.000000 
0.000000 0.000000 0.000000 
0.000000 0.000000 0.000000 

-0.000000 0.000000 0.000000 
0.000000 0.000000 0.000000 
0.000000 0.000000 0.000000 

-0.000000 0.000000 0.000000 
0.000000 0.000000 0.000000 
0.000000 0.000000 0.000000 

-0.000000 -0.000000 0.000000 
0.000000 0.000000 0.000000 
0.000000 0.000000 0.000000 

-0.000000 -0.000000 0.000000 
0.000000 -0.000000 0.000000 
0.000000 0.000000 0.000000 

-0.000000 -0.000000 0.000000 
0.000000 0.000000 0.000000 
0.000000 0.000000 0.000000 

-0.000000 -0.000000 0.000000 
0.000000 0.000000 0.000000 
0.000000 0.000000 0.000000 

0.000000 0.000000 0.000000 
0.000000 -0.000000 0.000000 
0.000000 0.000000 0.000000 

-0.000000 0.000000 0.000000 
0.000000 0.000000 0.000000 
0.000000 0.000000 0.000000 

0.000000 -0.000000 0.000000 
0.000000 0.000000 0.000000 
0.000000 0.000000 0.000000 

0.000000 0.000000 0.000000 
0.000000 -0.000000 0.000000 
0.000000 0.000000 0.000000 

0.000000 0.000000 0.000000 
0.000000 -0.000000 0.000000 
0.000000 0.000000 0.000000 

-0.000000 0.000000 0.000000 
0.000000 0.000000 0.000000 
0.000000 0.000000 0.000000 

0.000000 -0.000000 0.000000 
0.000000 -0.000000 0.000000 
0.000000 0.000000 0.000000 

0.000000 -0.000000 0.000000 
0.000000 0.000000 0.000000 
0.000000 0.000000 0.000000 

0.000000 0.000000 0.000000 
0.000000 0.000000 0.000000 
0.000000 0.000000 0.000000 

-0.000000 0.000000 0.000000 
0.000000 0.000000 0.000000 
0.000000 0.000000 0.000000 

0.000000 0.000000 0.000000 
0.000000 0.000000 0.000000 
0.000000 0.000000 0.000000 

0.000000 0.000000 0.000000 
0.000000 0.000000 0.000000 
0.000000 0.000000 0.000000 

0.000000 0.000000 0.000000 
0.000000 -0.000000 0.000000 
0.000000 0.000000 0.000000 

0.000000 -0.000000 0.000000 
0.000000 -0.000000 0.000000 
0.000000 0.000000 0.000000 

-0.000000 -0.000000 0.000000 
0.000000 -0.000000 0.000000 
0.000000 0.000000 0.000000 

-0.000000 0.000000 0.000000 
0.000000 0.000000 0.000000 
0.000000 0.000000 0.000000 

-0.000000 0.000000 0.000000 
0.000000 0.000000 0.000000 
0.000000 0.000000 0.000000 

-0.000000 -0.000000 0.000000 
0.000000 -0.000000 0.000000 
0.000000 0.000000 0.000000 

-0.000000 0.000000 0.000000 
0.000000 -0.000000 0.000000 
0.000000 0.000000 0.000000 

0.000000 0.000000 0.000000 
0.000000 0.000000 0.000000 
0.000000 0.000000 0.000000 

0.000000 0.000000 0.000000 
0.000000 -0.000000 0.000000 
0.000000 0.000000 0.000000 

0.000000 0.000000 0.000000 
0.000000 0.000000 0.000000 
0.000000 0.000000 0.000000 

0.000000 0.000000 0.000000 
0.000000 -0.000000 0.000000 
0.000000 0.000000 0.000000 

0.000000 0.000000 0.000000 
0.000000 -0.000000 0.000000 
0.000000 0.000000 0.000000 

-0.000000 0.000000 0.000000 
0.000000 0.000000 0.000000 
0.000000 0.000000 0.000000 

-0.000000 0.000000 0.000000 
0.000000 0.000000 0.000000 
0.000000 0.000000 0.000000 

-0.000000 0.000000 0.000000 
0.000000 0.000000 0.000000 
0.000000 0.000000 0.000000 

-0.000000 0.000000 0.000000 
0.000000 0.000000 0.000000 
0.000000 0.000000 0.000000 

-0.000000 -0.000000 0.000000 
0.000000 0.000000 0.000000 
0.000000 0.000000 0.000000 

-0.000000 0.000000 0.000000 
0.000000 0.000000 0.000000 
0.000000 0.000000 0.000000 

-0.000000 0.000000 0.000000 
0.000000 0.000000 0.000000 
0.000000 0.000000 0.000000 

0.000000 0.000000 0.000000 
0.000000 0.000000 0.000000 
0.000000 0.000000 0.000000 

0.000000 0.000000 0.000000 
0.000000 -0.000000 0.000000 
0.000000 0.000000 0.000000 

0.000000 0.000000 0.000000 
0.000000 -0.000000 0.000000 
0.000000 0.000000 0.000000 

0.000000 -0.000000 0.000000 
0.000000 -0.000000 0.000000 
0.000000 0.000000 0.000000 

0.000000 -0.000000 0.000000 
0.000000 -0.000000 0.000000 
0.000000 0.000000 0.000000 

-0.000000 0.000000 0.000000 
0.000000 0.000000 0.000000 
0.000000 0.000000 0.000000 

0.000000 -0.000000 0.000000 
0.000000 -0.000000 0.000000 
0.000000 0.000000 0.000000 

-0.000000 0.000000 0.000000 
0.000000 0.000000 0.000000 
0.000000 0.000000 0.000000 

-0.000000 -0.000000 0.000000 
0.000000 -0.000000 0.000000 
0.000000 0.000000 0.000000 

-0.000000 0.000000 0.000000 
0.000000 0.000000 0.000000 
0.000000 0.000000 0.000000 

-0.000000 0.000000 0.000000 
0.000000 0.000000 0.000000 
0.000000 0.000000 0.000000 

-0.000000 0.000000 0.000000 
0.000000 0.000000 0.000000 
0.000000 0.000000 0.000000 

-0.000000 -0.000000 0.000000 
0.000000 -0.000000 0.000000 
0.000000 0.000000 0.000000 

-0.000000 0.000000 0.000000 
0.000000 -0.000000 0.000000 
0.000000 0.000000 0.000000 

-0.000000 0.000000 0.000000 
0.000000 0.000000 0.000000 
0.000000 0.000000 0.000000 

-0.000000 -0.000000 0.000000 
0.000000 -0.000000 0.000000 
0.000000 0.000000 0.000000 

-0.000000 -0.000000 0.000000 
0.000000 0.000000 0.000000 
0.000000 0.000000 0.000000 

-0.000000 -0.000000 0.000000 
0.000000 0.000000 0.000000 
0.000000 0.000000 0.000000 

0.000000 -0.000000 0.000000 
0.000000 -0.000000 0.000000 
0.000000 0.000000 0.000000 

0.000000 0.000000 0.000000 
0.000000 -0.000000 0.000000 
0.000000 0.000000 0.000000 

0.000000 0.000000 0.000000 
0.000000 0.000000 0.000000 
0.000000 0.000000 0.000000 

-0.000000 0.000000 0.000000 
0.000000 0.000000 0.000000 
0.000000 0.000000 0.000000 

-0.000000 0.000000 0.000000 
0.000000 0.000000 0.000000 
0.000000 0.000000 0.000000 

-0.000000 -0.000000 0.000000 
0.000000 0.000000 0.000000 
0.000000 0.000000 0.000000 

-0.000000 0.000000 0.000000 
0.000000 0.000000 0.000000 
0.000000 0.000000 0.000000 

0.000000 -0.000000 0.000000 
0.000000 0.000000 0.000000 
0.000000 0.000000 0.000000 

0.000000 -0.000000 0.000000 
0.000000 0.000000 0.000000 
0.000000 0.000000 0.000000 

-0.000000 -0.000000 0.000000 
0.000000 0.000000 0.000000 
0.000000 0.000000 0.000000 

0.000000 0.000000 0.000000 
0.000000 -0.000000 0.000000 
0.000000 0.000000 0.000000 

0.000000 0.000000 0.000000 
0.000000 0.000000 0.000000 
0.000000 0.000000 0.000000 

0.000000 -0.000000 0.000000 
0.000000 -0.000000 0.000000 
0.000000 0.000000 0.000000 

0.000000 -0.000000 0.000000 
0.000000 0.000000 0.000000 
0.000000 0.000000 0.000000 

0.000000 -0.000000 0.000000 
0.000000 0.000000 0.000000 
0.000000 0.000000 0.000000 

0.000000 -0.000000 0.000000 
0.000000 -0.000000 0.000000 
0.000000 0.000000 0.000000 

0.000000 -0.000000 0.000000 
0.000000 -0.000000 0.000000 
0.000000 0.000000 0.000000 

-0.000000 -0.000000 0.000000 
0.000000 0.000000 0.000000 
0.000000 0.000000 0.000000 

-0.000000 -0.000000 0.000000 
0.000000 -0.000000 0.000000 
0.000000 0.000000 0.000000 

-0.000000 -0.000000 0.000000 
0.000000 -0.000000 0.000000 
0.000000 0.000000 0.000000 

-0.000000 -0.000000 0.000000 
0.000000 0.000000 0.000000 
0.000000 0.000000 0.000000 

-0.000000 -0.000000 0.000000 
0.000000 0.000000 0.000000 
0.000000 0.000000 0.000000 

0.000000 -0.000000 0.000000 
0.000000 0.000000 0.000000 
0.000000 0.000000 0.000000 

0.000000 -0.000000 0.000000 
0.000000 0.000000 0.000000 
0.000000 0.000000 0.000000 

-0.000000 0.000000 0.000000 
0.000000 0.000000 0.000000 
0.000000 0.000000 0.000000 

-0.000000 -0.000000 0.000000 
0.000000 0.000000 0.000000 
0.000000 0.000000 0.000000 

-0.000000 0.000000 0.000000 
0.000000 0.000000 0.000000 
0.000000 0.000000 0.000000 

-0.000000 -0.000000 0.000000 
0.000000 0.000000 0.000000 
0.000000 0.000000 0.000000 

0.000000 -0.000000 0.000000 
0.000000 -0.000000 0.000000 
0.000000 0.000000 0.000000 

0.000000 0.000000 0.000000 
0.000000 0.000000 0.000000 
0.000000 0.000000 0.000000 

0.000000 0.000000 0.000000 
0.000000 -0.000000 0.000000 
0.000000 0.000000 0.000000 

