# vtk DataFile Version 3.0 
vtk output 
ASCII 
DATASET UNSTRUCTURED_GRID 
POINTS 184 float 
-0.028811 -0.471361 0.000000 
-0.337228 -1.282967 0.000000 
0.473826 -0.973741 0.000000 
-0.447224 -0.778984 0.000000 
0.165656 -1.389434 0.000000 
0.222713 -0.526103 0.000000 
-0.284076 -0.565811 0.000000 
-0.100762 -1.408488 0.000000 
0.418839 -0.721939 0.000000 
-0.462804 -1.052245 0.000000 
0.379480 -1.229367 0.000000 
-0.166786 -0.498848 0.000000 
-0.227178 -1.361338 0.000000 
0.463197 -0.844529 0.000000 
-0.473871 -0.916843 0.000000 
0.286252 -1.327147 0.000000 
0.100762 -0.482095 0.000000 
-0.377333 -0.657122 0.000000 
0.039274 -1.418344 0.000000 
0.337021 -0.607695 0.000000 
-0.416046 -1.172470 0.000000 
0.444142 -1.110948 0.000000 
-0.121270 -0.485484 0.000000 
-0.301377 -1.314033 0.000000 
0.473826 -0.926302 0.000000 
-0.460589 -0.824501 0.000000 
0.246344 -1.352794 0.000000 
0.179561 -0.506396 0.000000 
-0.346268 -0.621270 0.000000 
-0.053807 -1.415240 0.000000 
0.368087 -0.643547 0.000000 
-0.449439 -1.097761 0.000000 
0.424436 -1.154099 0.000000 
-0.209938 -0.518555 0.000000 
-0.146279 -1.395124 0.000000 
0.438546 -0.765090 0.000000 
-0.473871 -0.964281 0.000000 
0.322103 -1.296081 0.000000 
0.018627 -0.471361 0.000000 
-0.427517 -0.735833 0.000000 
0.086229 -1.411593 0.000000 
0.301170 -0.576630 0.000000 
-0.368294 -1.247116 0.000000 
0.457507 -1.065431 0.000000 
-0.079407 -0.503106 0.000000 
0.369154 -0.688680 0.000000 
0.048715 -0.499717 0.000000 
0.205703 -1.345206 0.000000 
-0.167159 -1.359440 0.000000 
-0.366567 -1.205808 0.000000 
0.386144 -1.169689 0.000000 
-0.305135 -0.617100 0.000000 
-0.387078 -0.716149 0.000000 
0.425252 -0.804238 0.000000 
0.140413 -0.519690 0.000000 
0.111975 -1.379244 0.000000 
-0.260069 -1.312306 0.000000 
-0.413756 -1.118642 0.000000 
0.439780 -1.023206 0.000000 
0.326273 -1.254948 0.000000 
-0.014533 -1.391685 0.000000 
-0.225527 -0.556847 0.000000 
-0.442908 -0.866727 0.000000 
-0.445123 -1.000560 0.000000 
0.255396 -0.575213 0.000000 
0.445470 -0.896215 0.000000 
-0.079333 -0.559380 0.000000 
-0.130417 -0.602190 0.000000 
-0.191597 -0.597572 0.000000 
-0.111867 -0.660798 0.000000 
-0.224051 -0.652093 0.000000 
-0.171272 -0.689092 0.000000 
-0.055594 -0.675026 0.000000 
-0.279041 -0.662657 0.000000 
-0.040187 -0.730748 0.000000 
-0.015041 -0.633822 0.000000 
-0.296573 -0.721921 0.000000 
-0.349226 -0.752206 0.000000 
-0.351226 -0.817910 0.000000 
-0.254824 -0.760676 0.000000 
-0.391103 -0.867231 0.000000 
-0.370336 -0.926835 0.000000 
-0.284940 -0.817862 0.000000 
-0.395089 -0.986328 0.000000 
-0.360392 -1.032503 0.000000 
-0.313327 -0.926260 0.000000 
-0.369688 -1.090851 0.000000 
-0.323258 -1.124646 0.000000 
-0.307698 -0.990921 0.000000 
-0.317847 -1.185774 0.000000 
-0.261652 -1.210970 0.000000 
-0.273358 -1.098453 0.000000 
-0.237999 -1.265129 0.000000 
-0.174943 -1.271000 0.000000 
-0.233858 -1.150040 0.000000 
-0.136993 -1.316280 0.000000 
-0.076092 -1.307112 0.000000 
-0.147100 -1.222022 0.000000 
-0.021468 -1.340082 0.000000 
0.034383 -1.314129 0.000000 
-0.085997 -1.244055 0.000000 
0.090783 -1.331686 0.000000 
0.131601 -1.290818 0.000000 
0.025861 -1.257655 0.000000 
0.192839 -1.294148 0.000000 
0.225790 -1.242120 0.000000 
0.089168 -1.243139 0.000000 
0.282731 -1.226397 0.000000 
0.297512 -1.164818 0.000000 
0.190626 -1.194087 0.000000 
0.347718 -1.133691 0.000000 
0.347308 -1.072106 0.000000 
0.236036 -1.147648 0.000000 
0.387714 -1.022728 0.000000 
0.369971 -0.963753 0.000000 
0.294872 -1.051531 0.000000 
0.395378 -0.910425 0.000000 
0.360736 -0.864206 0.000000 
0.307967 -0.987913 0.000000 
0.372882 -0.809705 0.000000 
0.326072 -0.769685 0.000000 
0.305499 -0.875246 0.000000 
0.320446 -0.708679 0.000000 
0.261463 -0.679643 0.000000 
0.282122 -0.814647 0.000000 
0.233332 -0.622376 0.000000 
0.170485 -0.616423 0.000000 
0.219133 -0.721200 0.000000 
0.132530 -0.571158 0.000000 
0.077667 -0.581015 0.000000 
0.033502 -0.547169 0.000000 
-0.020231 -0.576784 0.000000 
0.166704 -0.682860 0.000000 
0.047676 -0.634070 0.000000 
-0.184513 -0.738411 0.000000 
-0.267808 -0.866608 0.000000 
-0.039895 -1.220552 0.000000 
0.233804 -1.095946 0.000000 
0.278138 -0.945625 0.000000 
0.115242 -1.198437 0.000000 
0.234165 -0.795199 0.000000 
-0.267095 -1.023076 0.000000 
-0.182363 -1.155220 0.000000 
-0.080635 -0.771973 0.000000 
0.015739 -0.745164 0.000000 
-0.141814 -0.774782 0.000000 
-0.170613 -0.832245 0.000000 
-0.215488 -0.870971 0.000000 
-0.205084 -0.934291 0.000000 
-0.129406 -0.869191 0.000000 
-0.218571 -0.994786 0.000000 
-0.148068 -0.926377 0.000000 
-0.174593 -1.041161 0.000000 
-0.076799 -0.835070 0.000000 
-0.155573 -1.103260 0.000000 
-0.126037 -1.011132 0.000000 
-0.074980 -1.037743 0.000000 
-0.112999 -0.956843 0.000000 
-0.052249 -0.940071 0.000000 
-0.031995 -0.993055 0.000000 
-0.034711 -0.875483 0.000000 
0.031192 -0.800798 0.000000 
0.063050 -0.689690 0.000000 
-0.089197 -1.101383 0.000000 
0.009049 -0.859079 0.000000 
0.051424 -0.908975 0.000000 
0.053332 -0.964113 0.000000 
0.098177 -0.879683 0.000000 
0.011239 -1.006957 0.000000 
0.028372 -1.068394 0.000000 
0.017947 -1.127820 0.000000 
0.077740 -1.155709 0.000000 
0.083331 -1.069035 0.000000 
0.117710 -1.111174 0.000000 
0.179025 -1.082244 0.000000 
0.098599 -1.008136 0.000000 
0.165702 -0.890257 0.000000 
0.087920 -0.820863 0.000000 
0.161326 -1.011510 0.000000 
0.191154 -0.832397 0.000000 
0.131959 -0.789547 0.000000 
0.122542 -0.714008 0.000000 
-0.040916 -1.145253 0.000000 
0.197397 -0.952056 0.000000 
CELLS 184 368 
1 0 
1 1 
1 2 
1 3 
1 4 
1 5 
1 6 
1 7 
1 8 
1 9 
1 10 
1 11 
1 12 
1 13 
1 14 
1 15 
1 16 
1 17 
1 18 
1 19 
1 20 
1 21 
1 22 
1 23 
1 24 
1 25 
1 26 
1 27 
1 28 
1 29 
1 30 
1 31 
1 32 
1 33 
1 34 
1 35 
1 36 
1 37 
1 38 
1 39 
1 40 
1 41 
1 42 
1 43 
1 44 
1 45 
1 46 
1 47 
1 48 
1 49 
1 50 
1 51 
1 52 
1 53 
1 54 
1 55 
1 56 
1 57 
1 58 
1 59 
1 60 
1 61 
1 62 
1 63 
1 64 
1 65 
1 66 
1 67 
1 68 
1 69 
1 70 
1 71 
1 72 
1 73 
1 74 
1 75 
1 76 
1 77 
1 78 
1 79 
1 80 
1 81 
1 82 
1 83 
1 84 
1 85 
1 86 
1 87 
1 88 
1 89 
1 90 
1 91 
1 92 
1 93 
1 94 
1 95 
1 96 
1 97 
1 98 
1 99 
1 100 
1 101 
1 102 
1 103 
1 104 
1 105 
1 106 
1 107 
1 108 
1 109 
1 110 
1 111 
1 112 
1 113 
1 114 
1 115 
1 116 
1 117 
1 118 
1 119 
1 120 
1 121 
1 122 
1 123 
1 124 
1 125 
1 126 
1 127 
1 128 
1 129 
1 130 
1 131 
1 132 
1 133 
1 134 
1 135 
1 136 
1 137 
1 138 
1 139 
1 140 
1 141 
1 142 
1 143 
1 144 
1 145 
1 146 
1 147 
1 148 
1 149 
1 150 
1 151 
1 152 
1 153 
1 154 
1 155 
1 156 
1 157 
1 158 
1 159 
1 160 
1 161 
1 162 
1 163 
1 164 
1 165 
1 166 
1 167 
1 168 
1 169 
1 170 
1 171 
1 172 
1 173 
1 174 
1 175 
1 176 
1 177 
1 178 
1 179 
1 180 
1 181 
1 182 
1 183 
CELL_TYPES 184 
1 
1 
1 
1 
1 
1 
1 
1 
1 
1 
1 
1 
1 
1 
1 
1 
1 
1 
1 
1 
1 
1 
1 
1 
1 
1 
1 
1 
1 
1 
1 
1 
1 
1 
1 
1 
1 
1 
1 
1 
1 
1 
1 
1 
1 
1 
1 
1 
1 
1 
1 
1 
1 
1 
1 
1 
1 
1 
1 
1 
1 
1 
1 
1 
1 
1 
1 
1 
1 
1 
1 
1 
1 
1 
1 
1 
1 
1 
1 
1 
1 
1 
1 
1 
1 
1 
1 
1 
1 
1 
1 
1 
1 
1 
1 
1 
1 
1 
1 
1 
1 
1 
1 
1 
1 
1 
1 
1 
1 
1 
1 
1 
1 
1 
1 
1 
1 
1 
1 
1 
1 
1 
1 
1 
1 
1 
1 
1 
1 
1 
1 
1 
1 
1 
1 
1 
1 
1 
1 
1 
1 
1 
1 
1 
1 
1 
1 
1 
1 
1 
1 
1 
1 
1 
1 
1 
1 
1 
1 
1 
1 
1 
1 
1 
1 
1 
1 
1 
1 
1 
1 
1 
1 
1 
1 
1 
1 
1 
1 
1 
1 
1 
1 
1 
POINT_DATA 184 
VECTORS X_GC float 
-0.028811 -0.471361 0.000000 
-0.337228 -1.282967 0.000000 
0.473826 -0.973741 0.000000 
-0.447224 -0.778984 0.000000 
0.165656 -1.389434 0.000000 
0.222713 -0.526103 0.000000 
-0.284076 -0.565811 0.000000 
-0.100762 -1.408488 0.000000 
0.418839 -0.721939 0.000000 
-0.462804 -1.052245 0.000000 
0.379480 -1.229367 0.000000 
-0.166786 -0.498848 0.000000 
-0.227178 -1.361338 0.000000 
0.463197 -0.844529 0.000000 
-0.473871 -0.916843 0.000000 
0.286252 -1.327147 0.000000 
0.100762 -0.482095 0.000000 
-0.377333 -0.657122 0.000000 
0.039274 -1.418344 0.000000 
0.337021 -0.607695 0.000000 
-0.416046 -1.172470 0.000000 
0.444142 -1.110948 0.000000 
-0.121270 -0.485484 0.000000 
-0.301377 -1.314033 0.000000 
0.473826 -0.926302 0.000000 
-0.460589 -0.824501 0.000000 
0.246344 -1.352794 0.000000 
0.179561 -0.506396 0.000000 
-0.346268 -0.621270 0.000000 
-0.053807 -1.415240 0.000000 
0.368087 -0.643547 0.000000 
-0.449439 -1.097761 0.000000 
0.424436 -1.154099 0.000000 
-0.209938 -0.518555 0.000000 
-0.146279 -1.395124 0.000000 
0.438546 -0.765090 0.000000 
-0.473871 -0.964281 0.000000 
0.322103 -1.296081 0.000000 
0.018627 -0.471361 0.000000 
-0.427517 -0.735833 0.000000 
0.086229 -1.411593 0.000000 
0.301170 -0.576630 0.000000 
-0.368294 -1.247116 0.000000 
0.457507 -1.065431 0.000000 
-0.079407 -0.503106 0.000000 
0.369154 -0.688680 0.000000 
0.048715 -0.499717 0.000000 
0.205703 -1.345206 0.000000 
-0.167159 -1.359440 0.000000 
-0.366567 -1.205808 0.000000 
0.386144 -1.169689 0.000000 
-0.305135 -0.617100 0.000000 
-0.387078 -0.716149 0.000000 
0.425252 -0.804238 0.000000 
0.140413 -0.519690 0.000000 
0.111975 -1.379244 0.000000 
-0.260069 -1.312306 0.000000 
-0.413756 -1.118642 0.000000 
0.439780 -1.023206 0.000000 
0.326273 -1.254948 0.000000 
-0.014533 -1.391685 0.000000 
-0.225527 -0.556847 0.000000 
-0.442908 -0.866727 0.000000 
-0.445123 -1.000560 0.000000 
0.255396 -0.575213 0.000000 
0.445470 -0.896215 0.000000 
-0.079333 -0.559380 0.000000 
-0.130417 -0.602190 0.000000 
-0.191597 -0.597572 0.000000 
-0.111867 -0.660798 0.000000 
-0.224051 -0.652093 0.000000 
-0.171272 -0.689092 0.000000 
-0.055594 -0.675026 0.000000 
-0.279041 -0.662657 0.000000 
-0.040187 -0.730748 0.000000 
-0.015041 -0.633822 0.000000 
-0.296573 -0.721921 0.000000 
-0.349226 -0.752206 0.000000 
-0.351226 -0.817910 0.000000 
-0.254824 -0.760676 0.000000 
-0.391103 -0.867231 0.000000 
-0.370336 -0.926835 0.000000 
-0.284940 -0.817862 0.000000 
-0.395089 -0.986328 0.000000 
-0.360392 -1.032503 0.000000 
-0.313327 -0.926260 0.000000 
-0.369688 -1.090851 0.000000 
-0.323258 -1.124646 0.000000 
-0.307698 -0.990921 0.000000 
-0.317847 -1.185774 0.000000 
-0.261652 -1.210970 0.000000 
-0.273358 -1.098453 0.000000 
-0.237999 -1.265129 0.000000 
-0.174943 -1.271000 0.000000 
-0.233858 -1.150040 0.000000 
-0.136993 -1.316280 0.000000 
-0.076092 -1.307112 0.000000 
-0.147100 -1.222022 0.000000 
-0.021468 -1.340082 0.000000 
0.034383 -1.314129 0.000000 
-0.085997 -1.244055 0.000000 
0.090783 -1.331686 0.000000 
0.131601 -1.290818 0.000000 
0.025861 -1.257655 0.000000 
0.192839 -1.294148 0.000000 
0.225790 -1.242120 0.000000 
0.089168 -1.243139 0.000000 
0.282731 -1.226397 0.000000 
0.297512 -1.164818 0.000000 
0.190626 -1.194087 0.000000 
0.347718 -1.133691 0.000000 
0.347308 -1.072106 0.000000 
0.236036 -1.147648 0.000000 
0.387714 -1.022728 0.000000 
0.369971 -0.963753 0.000000 
0.294872 -1.051531 0.000000 
0.395378 -0.910425 0.000000 
0.360736 -0.864206 0.000000 
0.307967 -0.987913 0.000000 
0.372882 -0.809705 0.000000 
0.326072 -0.769685 0.000000 
0.305499 -0.875246 0.000000 
0.320446 -0.708679 0.000000 
0.261463 -0.679643 0.000000 
0.282122 -0.814647 0.000000 
0.233332 -0.622376 0.000000 
0.170485 -0.616423 0.000000 
0.219133 -0.721200 0.000000 
0.132530 -0.571158 0.000000 
0.077667 -0.581015 0.000000 
0.033502 -0.547169 0.000000 
-0.020231 -0.576784 0.000000 
0.166704 -0.682860 0.000000 
0.047676 -0.634070 0.000000 
-0.184513 -0.738411 0.000000 
-0.267808 -0.866608 0.000000 
-0.039895 -1.220552 0.000000 
0.233804 -1.095946 0.000000 
0.278138 -0.945625 0.000000 
0.115242 -1.198437 0.000000 
0.234165 -0.795199 0.000000 
-0.267095 -1.023076 0.000000 
-0.182363 -1.155220 0.000000 
-0.080635 -0.771973 0.000000 
0.015739 -0.745164 0.000000 
-0.141814 -0.774782 0.000000 
-0.170613 -0.832245 0.000000 
-0.215488 -0.870971 0.000000 
-0.205084 -0.934291 0.000000 
-0.129406 -0.869191 0.000000 
-0.218571 -0.994786 0.000000 
-0.148068 -0.926377 0.000000 
-0.174593 -1.041161 0.000000 
-0.076799 -0.835070 0.000000 
-0.155573 -1.103260 0.000000 
-0.126037 -1.011132 0.000000 
-0.074980 -1.037743 0.000000 
-0.112999 -0.956843 0.000000 
-0.052249 -0.940071 0.000000 
-0.031995 -0.993055 0.000000 
-0.034711 -0.875483 0.000000 
0.031192 -0.800798 0.000000 
0.063050 -0.689690 0.000000 
-0.089197 -1.101383 0.000000 
0.009049 -0.859079 0.000000 
0.051424 -0.908975 0.000000 
0.053332 -0.964113 0.000000 
0.098177 -0.879683 0.000000 
0.011239 -1.006957 0.000000 
0.028372 -1.068394 0.000000 
0.017947 -1.127820 0.000000 
0.077740 -1.155709 0.000000 
0.083331 -1.069035 0.000000 
0.117710 -1.111174 0.000000 
0.179025 -1.082244 0.000000 
0.098599 -1.008136 0.000000 
0.165702 -0.890257 0.000000 
0.087920 -0.820863 0.000000 
0.161326 -1.011510 0.000000 
0.191154 -0.832397 0.000000 
0.131959 -0.789547 0.000000 
0.122542 -0.714008 0.000000 
-0.040916 -1.145253 0.000000 
0.197397 -0.952056 0.000000 
VECTORS X_EC float 
-0.807924 0.142408 0.000000 
-0.751813 -0.446886 0.000000 
-0.158839 -0.508396 0.000000 
-0.018508 0.193226 0.000000 
-0.104376 0.262892 0.000000 
-0.484750 0.507351 0.000000 
0.893837 0.772074 0.000000 
-0.328251 0.389923 0.000000 
0.207737 -0.187074 0.000000 
0.085362 0.014965 0.000000 
0.470130 -0.804219 0.000000 
0.111910 0.325657 0.000000 
0.514522 0.075585 0.000000 
-0.087979 0.630195 0.000000 
0.159142 -0.887712 0.000000 
-0.908345 -0.152356 0.000000 
0.328251 0.213965 0.000000 
-0.484444 -0.619189 0.000000 
0.738177 0.455625 0.000000 
0.753192 -0.948698 0.000000 
-0.226359 0.816466 0.000000 
0.039052 0.406321 0.000000 
-0.191535 0.236557 0.000000 
-0.990822 -0.239783 0.000000 
-0.158839 -0.824651 0.000000 
0.070591 0.496671 0.000000 
-0.642294 0.018625 0.000000 
-0.197074 0.375974 0.000000 
-0.691547 -0.858199 0.000000 
-0.641287 0.434931 0.000000 
0.546089 -0.709688 0.000000 
-0.003737 0.318409 0.000000 
0.170429 0.693996 0.000000 
0.399586 0.457034 0.000000 
-0.024807 0.300824 0.000000 
0.076360 0.100602 0.000000 
0.159142 -0.571457 0.000000 
0.852645 -0.359459 0.000000 
0.875821 0.142408 0.000000 
-0.149885 -0.094449 0.000000 
0.425140 0.410617 0.000000 
0.992201 0.844199 0.000000 
-0.544710 -0.685896 0.000000 
-0.050047 0.102876 0.000000 
-0.470623 0.354037 0.000000 
0.538976 -0.408799 0.000000 
0.675236 0.331445 0.000000 
-0.371350 -0.031959 0.000000 
0.114395 0.062933 0.000000 
-0.556219 -0.961281 0.000000 
0.425709 0.797926 0.000000 
-0.965767 -0.885998 0.000000 
-0.419479 -0.225675 0.000000 
0.164988 0.361589 0.000000 
0.063913 0.464602 0.000000 
0.253500 0.194958 0.000000 
0.733793 -0.251293 0.000000 
-0.241628 0.457611 0.000000 
0.068130 -0.178628 0.000000 
0.824846 -0.633679 0.000000 
-0.903111 0.277898 0.000000 
0.503515 0.712314 0.000000 
-0.047282 0.778178 0.000000 
-0.032511 -0.329600 0.000000 
-0.702641 0.834756 0.000000 
0.030198 0.974764 0.000000 
-0.471115 0.729202 0.000000 
-0.130555 -0.985402 0.000000 
0.277311 0.983812 0.000000 
-0.254217 -0.594683 0.000000 
0.493676 -0.652716 0.000000 
0.141813 -0.406056 0.000000 
-0.629371 -0.499827 0.000000 
0.860276 -0.582286 0.000000 
-0.732087 -0.128347 0.000000 
-0.899724 -0.774521 0.000000 
0.977153 -0.187194 0.000000 
-0.671826 0.014707 0.000000 
-0.658496 0.452736 0.000000 
0.698824 0.071174 0.000000 
-0.392645 0.781537 0.000000 
-0.531093 -0.821103 0.000000 
0.899598 0.452415 0.000000 
-0.366074 -0.424477 0.000000 
-0.597389 -0.116646 0.000000 
-0.911153 -0.824933 0.000000 
-0.535415 0.272341 0.000000 
-0.844949 0.497639 0.000000 
-0.948677 -0.393862 0.000000 
-0.881021 0.905163 0.000000 
0.744349 -0.926865 0.000000 
0.822387 0.323023 0.000000 
0.586663 -0.565808 0.000000 
0.166285 -0.526666 0.000000 
0.559054 0.666932 0.000000 
-0.086713 -0.224802 0.000000 
-0.492723 -0.285919 0.000000 
-0.019331 -0.853185 0.000000 
-0.856883 -0.066118 0.000000 
0.770780 -0.239142 0.000000 
-0.426685 -0.706300 0.000000 
0.394783 -0.122095 0.000000 
0.122661 -0.394545 0.000000 
0.827591 -0.615631 0.000000 
-0.285596 -0.372344 0.000000 
-0.505268 -0.719203 0.000000 
0.405544 -0.712409 0.000000 
-0.884872 -0.824019 0.000000 
-0.983414 0.765452 0.000000 
-0.270837 0.960583 0.000000 
0.681883 0.557937 0.000000 
0.684612 0.147376 0.000000 
-0.573571 0.650989 0.000000 
0.415238 -0.181814 0.000000 
0.533524 -0.574977 0.000000 
-0.965812 0.010207 0.000000 
0.364144 -0.930502 0.000000 
0.595096 0.761371 0.000000 
0.946884 -0.413911 0.000000 
0.514118 0.398032 0.000000 
0.826186 0.131233 0.000000 
0.963337 0.834972 0.000000 
0.863696 -0.275471 0.000000 
-0.743089 -0.469048 0.000000 
-0.880813 0.430982 0.000000 
-0.555549 -0.850828 0.000000 
-0.136568 -0.890514 0.000000 
-0.460886 -0.192002 0.000000 
0.116466 0.807722 0.000000 
0.482219 0.873431 0.000000 
0.776650 0.647790 0.000000 
-0.865130 0.845228 0.000000 
-0.111363 -0.447600 0.000000 
0.682158 -0.772867 0.000000 
0.230085 -0.077259 0.000000 
0.785388 0.777386 0.000000 
-0.734034 -0.862989 0.000000 
-0.558696 0.306305 0.000000 
-0.854255 -0.695836 0.000000 
0.231718 0.989579 0.000000 
-0.561100 0.301324 0.000000 
0.780632 -0.179491 0.000000 
0.215752 0.701469 0.000000 
-0.462433 0.146490 0.000000 
0.895071 -0.032239 0.000000 
-0.054573 0.165216 0.000000 
0.137421 0.548298 0.000000 
0.436584 0.806475 0.000000 
0.367225 -0.771393 0.000000 
-0.137294 0.794609 0.000000 
0.457138 -0.368091 0.000000 
-0.012881 -0.824154 0.000000 
0.163955 -0.058926 0.000000 
-0.488009 0.567133 0.000000 
0.037156 0.355065 0.000000 
-0.159751 -0.259117 0.000000 
-0.500136 -0.081711 0.000000 
-0.246673 -0.621044 0.000000 
-0.651673 -0.732858 0.000000 
-0.786702 -0.379631 0.000000 
-0.768596 0.836555 0.000000 
0.792053 0.338653 0.000000 
0.579669 -0.402065 0.000000 
-0.405356 0.342551 0.000000 
0.939676 0.727194 0.000000 
0.657172 -0.940170 0.000000 
0.644454 -0.572582 0.000000 
0.345486 0.864551 0.000000 
0.925074 -0.286954 0.000000 
0.810853 0.122626 0.000000 
0.880351 0.518798 0.000000 
0.481737 0.704729 0.000000 
0.444460 0.126898 0.000000 
0.215264 0.407829 0.000000 
-0.193502 0.214961 0.000000 
0.342676 -0.279091 0.000000 
-0.104683 0.935046 0.000000 
0.413868 0.472417 0.000000 
-0.075508 -0.256599 0.000000 
-0.274359 0.549316 0.000000 
0.120271 0.263647 0.000000 
0.183054 -0.239944 0.000000 
-0.727227 0.635023 0.000000 
-0.315983 -0.652962 0.000000 
CELL_DATA 184 
SCALARS MASS float 
LOOKUP_TABLE default 
0.051252 
0.046008 
0.051531 
0.046188 
0.052854 
0.051531 
0.052854 
0.052854 
0.051531 
0.050859 
0.052854 
0.047395 
0.052854 
0.052854 
0.051434 
0.045995 
0.052854 
0.051281 
0.051530 
0.046441 
0.052854 
0.052854 
0.050612 
0.049065 
0.052975 
0.049197 
0.049245 
0.052975 
0.052990 
0.055938 
0.049713 
0.052094 
0.055938 
0.050456 
0.055938 
0.053198 
0.052878 
0.049051 
0.052807 
0.049481 
0.052974 
0.049465 
0.049257 
0.055938 
0.105225 
0.104629 
0.082126 
0.094264 
0.094771 
0.094259 
0.094771 
0.083366 
0.104047 
0.083092 
0.081316 
0.081315 
0.092719 
0.079469 
0.108073 
0.092710 
0.108073 
0.093129 
0.104035 
0.094961 
0.104398 
0.081316 
0.125285 
0.099128 
0.098320 
0.087841 
0.082650 
0.097481 
0.086914 
0.081921 
0.086680 
0.086680 
0.081485 
0.107769 
0.088711 
0.084874 
0.107874 
0.082612 
0.095190 
0.095229 
0.083942 
0.085089 
0.079923 
0.081132 
0.095301 
0.097917 
0.090576 
0.085268 
0.095896 
0.081062 
0.095454 
0.090083 
0.081027 
0.085251 
0.101961 
0.083022 
0.095445 
0.080604 
0.081018 
0.085240 
0.097826 
0.090495 
0.095435 
0.095845 
0.081023 
0.085241 
0.090072 
0.081024 
0.095436 
0.101966 
0.083028 
0.085242 
0.080610 
0.081024 
0.095437 
0.082345 
0.082694 
0.085242 
0.109264 
0.089885 
0.095437 
0.108636 
0.083028 
0.085242 
0.080610 
0.074817 
0.073569 
0.082490 
0.095437 
0.095617 
0.133784 
0.138292 
0.139667 
0.139695 
0.139694 
0.139689 
0.139693 
0.140105 
0.139774 
0.086622 
0.086622 
0.089038 
0.077179 
0.079159 
0.072465 
0.084345 
0.092656 
0.093083 
0.084037 
0.098826 
0.101847 
0.085968 
0.086444 
0.074619 
0.064825 
0.094138 
0.124406 
0.086607 
0.131576 
0.102571 
0.084703 
0.076503 
0.084191 
0.084191 
0.086793 
0.075696 
0.084714 
0.090949 
0.084009 
0.076569 
0.086383 
0.098391 
0.110757 
0.093222 
0.143196 
0.101090 
0.091038 
0.150913 
0.178131 
0.206980 
SCALARS MASS float 
LOOKUP_TABLE default 
0.051252 
0.046008 
0.051531 
0.046188 
0.052854 
0.051531 
0.052854 
0.052854 
0.051531 
0.050859 
0.052854 
0.047395 
0.052854 
0.052854 
0.051434 
0.045995 
0.052854 
0.051281 
0.051530 
0.046441 
0.052854 
0.052854 
0.050612 
0.049065 
0.052975 
0.049197 
0.049245 
0.052975 
0.052990 
0.055938 
0.049713 
0.052094 
0.055938 
0.050456 
0.055938 
0.053198 
0.052878 
0.049051 
0.052807 
0.049481 
0.052974 
0.049465 
0.049257 
0.055938 
0.105225 
0.104629 
0.082126 
0.094264 
0.094771 
0.094259 
0.094771 
0.083366 
0.104047 
0.083092 
0.081316 
0.081315 
0.092719 
0.079469 
0.108073 
0.092710 
0.108073 
0.093129 
0.104035 
0.094961 
0.104398 
0.081316 
0.125285 
0.099128 
0.098320 
0.087841 
0.082650 
0.097481 
0.086914 
0.081921 
0.086680 
0.086680 
0.081485 
0.107769 
0.088711 
0.084874 
0.107874 
0.082612 
0.095190 
0.095229 
0.083942 
0.085089 
0.079923 
0.081132 
0.095301 
0.097917 
0.090576 
0.085268 
0.095896 
0.081062 
0.095454 
0.090083 
0.081027 
0.085251 
0.101961 
0.083022 
0.095445 
0.080604 
0.081018 
0.085240 
0.097826 
0.090495 
0.095435 
0.095845 
0.081023 
0.085241 
0.090072 
0.081024 
0.095436 
0.101966 
0.083028 
0.085242 
0.080610 
0.081024 
0.095437 
0.082345 
0.082694 
0.085242 
0.109264 
0.089885 
0.095437 
0.108636 
0.083028 
0.085242 
0.080610 
0.074817 
0.073569 
0.082490 
0.095437 
0.095617 
0.133784 
0.138292 
0.139667 
0.139695 
0.139694 
0.139689 
0.139693 
0.140105 
0.139774 
0.086622 
0.086622 
0.089038 
0.077179 
0.079159 
0.072465 
0.084345 
0.092656 
0.093083 
0.084037 
0.098826 
0.101847 
0.085968 
0.086444 
0.074619 
0.064825 
0.094138 
0.124406 
0.086607 
0.131576 
0.102571 
0.084703 
0.076503 
0.084191 
0.084191 
0.086793 
0.075696 
0.084714 
0.090949 
0.084009 
0.076569 
0.086383 
0.098391 
0.110757 
0.093222 
0.143196 
0.101090 
0.091038 
0.150913 
0.178131 
0.206980 
SCALARS DENSITY float 
LOOKUP_TABLE default 
20.000000 
20.000000 
20.000000 
20.000000 
20.000000 
20.000000 
20.000000 
20.000000 
20.000000 
20.000000 
20.000000 
20.000000 
20.000000 
20.000000 
20.000000 
20.000000 
20.000000 
20.000000 
20.000000 
20.000000 
20.000000 
20.000000 
20.000000 
20.000000 
20.000000 
20.000000 
20.000000 
20.000000 
20.000000 
20.000000 
20.000000 
20.000000 
20.000000 
20.000000 
20.000000 
20.000000 
20.000000 
20.000000 
20.000000 
20.000000 
20.000000 
20.000000 
20.000000 
20.000000 
20.000000 
20.000000 
20.000000 
20.000000 
20.000000 
20.000000 
20.000000 
20.000000 
20.000000 
20.000000 
20.000000 
20.000000 
20.000000 
20.000000 
20.000000 
20.000000 
20.000000 
20.000000 
20.000000 
20.000000 
20.000000 
20.000000 
20.000000 
20.000000 
20.000000 
20.000000 
20.000000 
20.000000 
20.000000 
20.000000 
20.000000 
20.000000 
20.000000 
20.000000 
20.000000 
20.000000 
20.000000 
20.000000 
20.000000 
20.000000 
20.000000 
20.000000 
20.000000 
20.000000 
20.000000 
20.000000 
20.000000 
20.000000 
20.000000 
20.000000 
20.000000 
20.000000 
20.000000 
20.000000 
20.000000 
20.000000 
20.000000 
20.000000 
20.000000 
20.000000 
20.000000 
20.000000 
20.000000 
20.000000 
20.000000 
20.000000 
20.000000 
20.000000 
20.000000 
20.000000 
20.000000 
20.000000 
20.000000 
20.000000 
20.000000 
20.000000 
20.000000 
20.000000 
20.000000 
20.000000 
20.000000 
20.000000 
20.000000 
20.000000 
20.000000 
20.000000 
20.000000 
20.000000 
20.000000 
20.000000 
20.000000 
20.000000 
20.000000 
20.000000 
20.000000 
20.000000 
20.000000 
20.000000 
20.000000 
20.000000 
20.000000 
20.000000 
20.000000 
20.000000 
20.000000 
20.000000 
20.000000 
20.000000 
20.000000 
20.000000 
20.000000 
20.000000 
20.000000 
20.000000 
20.000000 
20.000000 
20.000000 
20.000000 
20.000000 
20.000000 
20.000000 
20.000000 
20.000000 
20.000000 
20.000000 
20.000000 
20.000000 
20.000000 
20.000000 
20.000000 
20.000000 
20.000000 
20.000000 
20.000000 
20.000000 
20.000000 
20.000000 
20.000000 
20.000000 
20.000000 
SCALARS ELEM_i float 
LOOKUP_TABLE default 
208 
225 
166 
227 
185 
188 
208 
205 
167 
226 
165 
208 
205 
167 
226 
185 
188 
227 
185 
167 
226 
166 
208 
225 
166 
227 
185 
188 
227 
205 
167 
226 
166 
208 
205 
167 
226 
165 
188 
227 
185 
168 
225 
166 
208 
167 
188 
185 
205 
225 
166 
227 
227 
167 
188 
185 
205 
226 
166 
165 
205 
208 
227 
226 
188 
167 
208 
207 
208 
207 
207 
207 
207 
207 
207 
207 
207 
227 
227 
207 
227 
226 
207 
226 
226 
226 
226 
226 
226 
226 
205 
206 
205 
205 
206 
205 
205 
205 
205 
185 
205 
185 
185 
185 
185 
185 
185 
185 
186 
186 
166 
166 
186 
166 
166 
186 
166 
167 
166 
167 
167 
167 
167 
187 
187 
187 
187 
187 
188 
188 
188 
208 
187 
187 
207 
207 
205 
186 
186 
186 
187 
206 
206 
207 
187 
207 
207 
207 
206 
207 
206 
206 
206 
207 
206 
206 
206 
206 
206 
206 
207 
187 
187 
206 
187 
186 
186 
187 
186 
186 
186 
186 
186 
186 
186 
186 
187 
187 
186 
187 
187 
187 
206 
186 
VECTORS VELOCITY float 
0.000000 -4.296780 0.000000 
0.000000 -4.296780 0.000000 
-0.000000 -4.296780 0.000000 
0.000000 -4.296780 0.000000 
-0.000000 -4.296780 0.000000 
-0.000000 -4.296780 0.000000 
0.000000 -4.296780 0.000000 
0.000000 -4.296780 0.000000 
-0.000000 -4.296780 0.000000 
0.000000 -4.296780 0.000000 
-0.000000 -4.296780 0.000000 
0.000000 -4.296780 0.000000 
0.000000 -4.296780 0.000000 
-0.000000 -4.296780 0.000000 
0.000000 -4.296780 0.000000 
-0.000000 -4.296780 0.000000 
0.000000 -4.296780 0.000000 
0.000000 -4.296780 0.000000 
-0.000000 -4.296780 0.000000 
-0.000000 -4.296780 0.000000 
0.000000 -4.296780 0.000000 
-0.000000 -4.296780 0.000000 
0.000000 -4.296780 0.000000 
0.000000 -4.296780 0.000000 
-0.000000 -4.296780 0.000000 
0.000000 -4.296780 0.000000 
-0.000000 -4.296780 0.000000 
0.000000 -4.296780 0.000000 
0.000000 -4.296780 0.000000 
0.000000 -4.296780 0.000000 
-0.000000 -4.296780 0.000000 
0.000000 -4.296780 0.000000 
-0.000000 -4.296780 0.000000 
-0.000000 -4.296780 0.000000 
0.000000 -4.296780 0.000000 
-0.000000 -4.296780 0.000000 
0.000000 -4.296780 0.000000 
-0.000000 -4.296780 0.000000 
0.000000 -4.296780 0.000000 
0.000000 -4.296780 0.000000 
-0.000000 -4.296780 0.000000 
-0.000000 -4.296780 0.000000 
0.000000 -4.296780 0.000000 
-0.000000 -4.296780 0.000000 
0.000000 -4.296780 0.000000 
-0.000000 -4.296780 0.000000 
0.000000 -4.296780 0.000000 
-0.000000 -4.296780 0.000000 
0.000000 -4.296780 0.000000 
0.000000 -4.296780 0.000000 
-0.000000 -4.296780 0.000000 
0.000000 -4.296780 0.000000 
0.000000 -4.296780 0.000000 
-0.000000 -4.296780 0.000000 
0.000000 -4.296780 0.000000 
-0.000000 -4.296780 0.000000 
0.000000 -4.296780 0.000000 
0.000000 -4.296780 0.000000 
-0.000000 -4.296780 0.000000 
-0.000000 -4.296780 0.000000 
-0.000000 -4.296780 0.000000 
-0.000000 -4.296780 0.000000 
0.000000 -4.296780 0.000000 
0.000000 -4.296780 0.000000 
0.000000 -4.296780 0.000000 
-0.000000 -4.296780 0.000000 
-0.000000 -4.296780 0.000000 
-0.000000 -4.296780 0.000000 
0.000000 -4.296780 0.000000 
-0.000000 -4.296780 0.000000 
0.000000 -4.296780 0.000000 
0.000000 -4.296780 0.000000 
-0.000000 -4.296780 0.000000 
0.000000 -4.296780 0.000000 
-0.000000 -4.296780 0.000000 
-0.000000 -4.296780 0.000000 
0.000000 -4.296780 0.000000 
0.000000 -4.296780 0.000000 
-0.000000 -4.296780 0.000000 
-0.000000 -4.296780 0.000000 
-0.000000 -4.296780 0.000000 
-0.000000 -4.296780 0.000000 
-0.000000 -4.296780 0.000000 
-0.000000 -4.296780 0.000000 
-0.000000 -4.296780 0.000000 
-0.000000 -4.296780 0.000000 
-0.000000 -4.296780 0.000000 
-0.000000 -4.296780 0.000000 
-0.000000 -4.296780 0.000000 
-0.000000 -4.296780 0.000000 
-0.000000 -4.296780 0.000000 
-0.000000 -4.296780 0.000000 
0.000000 -4.296780 0.000000 
0.000000 -4.296780 0.000000 
-0.000000 -4.296780 0.000000 
-0.000000 -4.296780 0.000000 
-0.000000 -4.296780 0.000000 
-0.000000 -4.296780 0.000000 
-0.000000 -4.296780 0.000000 
-0.000000 -4.296780 0.000000 
-0.000000 -4.296780 0.000000 
-0.000000 -4.296780 0.000000 
-0.000000 -4.296780 0.000000 
-0.000000 -4.296780 0.000000 
-0.000000 -4.296780 0.000000 
0.000000 -4.296780 0.000000 
-0.000000 -4.296780 0.000000 
0.000000 -4.296780 0.000000 
0.000000 -4.296780 0.000000 
0.000000 -4.296780 0.000000 
-0.000000 -4.296780 0.000000 
-0.000000 -4.296780 0.000000 
-0.000000 -4.296780 0.000000 
-0.000000 -4.296780 0.000000 
-0.000000 -4.296780 0.000000 
0.000000 -4.296780 0.000000 
-0.000000 -4.296780 0.000000 
-0.000000 -4.296780 0.000000 
0.000000 -4.296780 0.000000 
-0.000000 -4.296780 0.000000 
0.000000 -4.296780 0.000000 
0.000000 -4.296780 0.000000 
0.000000 -4.296780 0.000000 
0.000000 -4.296780 0.000000 
0.000000 -4.296780 0.000000 
0.000000 -4.296780 0.000000 
0.000000 -4.296780 0.000000 
0.000000 -4.296780 0.000000 
-0.000000 -4.296780 0.000000 
-0.000000 -4.296780 0.000000 
-0.000000 -4.296780 0.000000 
-0.000000 -4.296780 0.000000 
0.000000 -4.296780 0.000000 
-0.000000 -4.296780 0.000000 
-0.000000 -4.296780 0.000000 
-0.000000 -4.296780 0.000000 
-0.000000 -4.296780 0.000000 
0.000000 -4.296780 0.000000 
0.000000 -4.296780 0.000000 
0.000000 -4.296780 0.000000 
0.000000 -4.296780 0.000000 
-0.000000 -4.296780 0.000000 
-0.000000 -4.296780 0.000000 
0.000000 -4.296780 0.000000 
0.000000 -4.296780 0.000000 
-0.000000 -4.296780 0.000000 
-0.000000 -4.296780 0.000000 
-0.000000 -4.296780 0.000000 
-0.000000 -4.296780 0.000000 
-0.000000 -4.296780 0.000000 
-0.000000 -4.296780 0.000000 
-0.000000 -4.296780 0.000000 
-0.000000 -4.296780 0.000000 
0.000000 -4.296780 0.000000 
-0.000000 -4.296780 0.000000 
-0.000000 -4.296780 0.000000 
0.000000 -4.296780 0.000000 
-0.000000 -4.296780 0.000000 
0.000000 -4.296780 0.000000 
0.000000 -4.296780 0.000000 
0.000000 -4.296780 0.000000 
0.000000 -4.296780 0.000000 
-0.000000 -4.296780 0.000000 
-0.000000 -4.296780 0.000000 
0.000000 -4.296780 0.000000 
0.000000 -4.296780 0.000000 
0.000000 -4.296780 0.000000 
0.000000 -4.296780 0.000000 
0.000000 -4.296780 0.000000 
0.000000 -4.296780 0.000000 
0.000000 -4.296780 0.000000 
0.000000 -4.296780 0.000000 
0.000000 -4.296780 0.000000 
0.000000 -4.296780 0.000000 
0.000000 -4.296780 0.000000 
0.000000 -4.296780 0.000000 
0.000000 -4.296780 0.000000 
0.000000 -4.296780 0.000000 
0.000000 -4.296780 0.000000 
0.000000 -4.296780 0.000000 
0.000000 -4.296780 0.000000 
0.000000 -4.296780 0.000000 
0.000000 -4.296780 0.000000 
0.000000 -4.296780 0.000000 
TENSORS STRESS float 
-0.000000 -0.000000 0.000000 
0.000000 -0.000000 0.000000 
0.000000 0.000000 0.000000 

-0.000000 -0.000000 0.000000 
0.000000 -0.000000 0.000000 
0.000000 0.000000 0.000000 

-0.000000 -0.000000 0.000000 
0.000000 -0.000000 0.000000 
0.000000 0.000000 0.000000 

0.000000 -0.000000 0.000000 
0.000000 0.000000 0.000000 
0.000000 0.000000 0.000000 

0.000000 -0.000000 0.000000 
0.000000 0.000000 0.000000 
0.000000 0.000000 0.000000 

-0.000000 0.000000 0.000000 
0.000000 -0.000000 0.000000 
0.000000 0.000000 0.000000 

-0.000000 -0.000000 0.000000 
0.000000 -0.000000 0.000000 
0.000000 0.000000 0.000000 

0.000000 0.000000 0.000000 
0.000000 0.000000 0.000000 
0.000000 0.000000 0.000000 

0.000000 0.000000 0.000000 
0.000000 0.000000 0.000000 
0.000000 0.000000 0.000000 

-0.000000 0.000000 0.000000 
0.000000 -0.000000 0.000000 
0.000000 0.000000 0.000000 

-0.000000 0.000000 0.000000 
0.000000 -0.000000 0.000000 
0.000000 0.000000 0.000000 

-0.000000 -0.000000 0.000000 
0.000000 -0.000000 0.000000 
0.000000 0.000000 0.000000 

0.000000 0.000000 0.000000 
0.000000 0.000000 0.000000 
0.000000 0.000000 0.000000 

0.000000 0.000000 0.000000 
0.000000 0.000000 0.000000 
0.000000 0.000000 0.000000 

0.000000 -0.000000 0.000000 
0.000000 0.000000 0.000000 
0.000000 0.000000 0.000000 

0.000000 0.000000 0.000000 
0.000000 0.000000 0.000000 
0.000000 0.000000 0.000000 

0.000000 0.000000 0.000000 
0.000000 -0.000000 0.000000 
0.000000 0.000000 0.000000 

-0.000000 0.000000 0.000000 
0.000000 -0.000000 0.000000 
0.000000 0.000000 0.000000 

0.000000 -0.000000 0.000000 
0.000000 -0.000000 0.000000 
0.000000 0.000000 0.000000 

0.000000 0.000000 0.000000 
0.000000 -0.000000 0.000000 
0.000000 0.000000 0.000000 

0.000000 0.000000 0.000000 
0.000000 -0.000000 0.000000 
0.000000 0.000000 0.000000 

-0.000000 0.000000 0.000000 
0.000000 0.000000 0.000000 
0.000000 0.000000 0.000000 

-0.000000 0.000000 0.000000 
0.000000 -0.000000 0.000000 
0.000000 0.000000 0.000000 

-0.000000 -0.000000 0.000000 
0.000000 0.000000 0.000000 
0.000000 0.000000 0.000000 

-0.000000 -0.000000 0.000000 
0.000000 -0.000000 0.000000 
0.000000 0.000000 0.000000 

0.000000 0.000000 0.000000 
0.000000 0.000000 0.000000 
0.000000 0.000000 0.000000 

-0.000000 0.000000 0.000000 
0.000000 -0.000000 0.000000 
0.000000 0.000000 0.000000 

0.000000 0.000000 0.000000 
0.000000 0.000000 0.000000 
0.000000 0.000000 0.000000 

-0.000000 -0.000000 0.000000 
0.000000 0.000000 0.000000 
0.000000 0.000000 0.000000 

0.000000 0.000000 0.000000 
0.000000 0.000000 0.000000 
0.000000 0.000000 0.000000 

0.000000 0.000000 0.000000 
0.000000 0.000000 0.000000 
0.000000 0.000000 0.000000 

0.000000 -0.000000 0.000000 
0.000000 0.000000 0.000000 
0.000000 0.000000 0.000000 

-0.000000 0.000000 0.000000 
0.000000 -0.000000 0.000000 
0.000000 0.000000 0.000000 

-0.000000 -0.000000 0.000000 
0.000000 -0.000000 0.000000 
0.000000 0.000000 0.000000 

0.000000 0.000000 0.000000 
0.000000 0.000000 0.000000 
0.000000 0.000000 0.000000 

0.000000 0.000000 0.000000 
0.000000 0.000000 0.000000 
0.000000 0.000000 0.000000 

0.000000 -0.000000 0.000000 
0.000000 0.000000 0.000000 
0.000000 0.000000 0.000000 

-0.000000 0.000000 0.000000 
0.000000 -0.000000 0.000000 
0.000000 0.000000 0.000000 

0.000000 -0.000000 0.000000 
0.000000 -0.000000 0.000000 
0.000000 0.000000 0.000000 

0.000000 -0.000000 0.000000 
0.000000 0.000000 0.000000 
0.000000 0.000000 0.000000 

-0.000000 0.000000 0.000000 
0.000000 -0.000000 0.000000 
0.000000 0.000000 0.000000 

0.000000 0.000000 0.000000 
0.000000 -0.000000 0.000000 
0.000000 0.000000 0.000000 

-0.000000 0.000000 0.000000 
0.000000 -0.000000 0.000000 
0.000000 0.000000 0.000000 

-0.000000 0.000000 0.000000 
0.000000 -0.000000 0.000000 
0.000000 0.000000 0.000000 

0.000000 -0.000000 0.000000 
0.000000 -0.000000 0.000000 
0.000000 0.000000 0.000000 

0.000000 0.000000 0.000000 
0.000000 -0.000000 0.000000 
0.000000 0.000000 0.000000 

0.000000 0.000000 0.000000 
0.000000 -0.000000 0.000000 
0.000000 0.000000 0.000000 

-0.000000 0.000000 0.000000 
0.000000 -0.000000 0.000000 
0.000000 0.000000 0.000000 

0.000000 0.000000 0.000000 
0.000000 0.000000 0.000000 
0.000000 0.000000 0.000000 

0.000000 0.000000 0.000000 
0.000000 -0.000000 0.000000 
0.000000 0.000000 0.000000 

-0.000000 0.000000 0.000000 
0.000000 -0.000000 0.000000 
0.000000 0.000000 0.000000 

-0.000000 -0.000000 0.000000 
0.000000 -0.000000 0.000000 
0.000000 0.000000 0.000000 

-0.000000 0.000000 0.000000 
0.000000 0.000000 0.000000 
0.000000 0.000000 0.000000 

-0.000000 0.000000 0.000000 
0.000000 0.000000 0.000000 
0.000000 0.000000 0.000000 

-0.000000 -0.000000 0.000000 
0.000000 -0.000000 0.000000 
0.000000 0.000000 0.000000 

0.000000 -0.000000 0.000000 
0.000000 0.000000 0.000000 
0.000000 0.000000 0.000000 

0.000000 0.000000 0.000000 
0.000000 0.000000 0.000000 
0.000000 0.000000 0.000000 

0.000000 0.000000 0.000000 
0.000000 0.000000 0.000000 
0.000000 0.000000 0.000000 

-0.000000 0.000000 0.000000 
0.000000 -0.000000 0.000000 
0.000000 0.000000 0.000000 

-0.000000 -0.000000 0.000000 
0.000000 -0.000000 0.000000 
0.000000 0.000000 0.000000 

0.000000 0.000000 0.000000 
0.000000 0.000000 0.000000 
0.000000 0.000000 0.000000 

-0.000000 -0.000000 0.000000 
0.000000 -0.000000 0.000000 
0.000000 0.000000 0.000000 

-0.000000 -0.000000 0.000000 
0.000000 -0.000000 0.000000 
0.000000 0.000000 0.000000 

0.000000 0.000000 0.000000 
0.000000 0.000000 0.000000 
0.000000 0.000000 0.000000 

-0.000000 0.000000 0.000000 
0.000000 -0.000000 0.000000 
0.000000 0.000000 0.000000 

-0.000000 0.000000 0.000000 
0.000000 -0.000000 0.000000 
0.000000 0.000000 0.000000 

-0.000000 -0.000000 0.000000 
0.000000 -0.000000 0.000000 
0.000000 0.000000 0.000000 

-0.000000 -0.000000 0.000000 
0.000000 -0.000000 0.000000 
0.000000 0.000000 0.000000 

-0.000000 -0.000000 0.000000 
0.000000 -0.000000 0.000000 
0.000000 0.000000 0.000000 

-0.000000 -0.000000 0.000000 
0.000000 -0.000000 0.000000 
0.000000 0.000000 0.000000 

-0.000000 -0.000000 0.000000 
0.000000 -0.000000 0.000000 
0.000000 0.000000 0.000000 

-0.000000 0.000000 0.000000 
0.000000 0.000000 0.000000 
0.000000 0.000000 0.000000 

-0.000000 0.000000 0.000000 
0.000000 -0.000000 0.000000 
0.000000 0.000000 0.000000 

-0.000000 0.000000 0.000000 
0.000000 0.000000 0.000000 
0.000000 0.000000 0.000000 

-0.000000 -0.000000 0.000000 
0.000000 -0.000000 0.000000 
0.000000 0.000000 0.000000 

-0.000000 -0.000000 0.000000 
0.000000 -0.000000 0.000000 
0.000000 0.000000 0.000000 

0.000000 0.000000 0.000000 
0.000000 0.000000 0.000000 
0.000000 0.000000 0.000000 

0.000000 -0.000000 0.000000 
0.000000 0.000000 0.000000 
0.000000 0.000000 0.000000 

0.000000 -0.000000 0.000000 
0.000000 0.000000 0.000000 
0.000000 0.000000 0.000000 

-0.000000 -0.000000 0.000000 
0.000000 -0.000000 0.000000 
0.000000 0.000000 0.000000 

-0.000000 -0.000000 0.000000 
0.000000 -0.000000 0.000000 
0.000000 0.000000 0.000000 

0.000000 -0.000000 0.000000 
0.000000 0.000000 0.000000 
0.000000 0.000000 0.000000 

0.000000 0.000000 0.000000 
0.000000 0.000000 0.000000 
0.000000 0.000000 0.000000 

0.000000 -0.000000 0.000000 
0.000000 0.000000 0.000000 
0.000000 0.000000 0.000000 

0.000000 0.000000 0.000000 
0.000000 0.000000 0.000000 
0.000000 0.000000 0.000000 

0.000000 -0.000000 0.000000 
0.000000 0.000000 0.000000 
0.000000 0.000000 0.000000 

0.000000 -0.000000 0.000000 
0.000000 0.000000 0.000000 
0.000000 0.000000 0.000000 

0.000000 0.000000 0.000000 
0.000000 0.000000 0.000000 
0.000000 0.000000 0.000000 

-0.000000 0.000000 0.000000 
0.000000 -0.000000 0.000000 
0.000000 0.000000 0.000000 

-0.000000 0.000000 0.000000 
0.000000 -0.000000 0.000000 
0.000000 0.000000 0.000000 

-0.000000 0.000000 0.000000 
0.000000 -0.000000 0.000000 
0.000000 0.000000 0.000000 

0.000000 -0.000000 0.000000 
0.000000 0.000000 0.000000 
0.000000 0.000000 0.000000 

0.000000 0.000000 0.000000 
0.000000 0.000000 0.000000 
0.000000 0.000000 0.000000 

0.000000 0.000000 0.000000 
0.000000 0.000000 0.000000 
0.000000 0.000000 0.000000 

0.000000 0.000000 0.000000 
0.000000 0.000000 0.000000 
0.000000 0.000000 0.000000 

0.000000 0.000000 0.000000 
0.000000 0.000000 0.000000 
0.000000 0.000000 0.000000 

0.000000 0.000000 0.000000 
0.000000 -0.000000 0.000000 
0.000000 0.000000 0.000000 

0.000000 0.000000 0.000000 
0.000000 -0.000000 0.000000 
0.000000 0.000000 0.000000 

-0.000000 0.000000 0.000000 
0.000000 -0.000000 0.000000 
0.000000 0.000000 0.000000 

0.000000 0.000000 0.000000 
0.000000 0.000000 0.000000 
0.000000 0.000000 0.000000 

0.000000 0.000000 0.000000 
0.000000 -0.000000 0.000000 
0.000000 0.000000 0.000000 

0.000000 -0.000000 0.000000 
0.000000 0.000000 0.000000 
0.000000 0.000000 0.000000 

0.000000 0.000000 0.000000 
0.000000 -0.000000 0.000000 
0.000000 0.000000 0.000000 

0.000000 -0.000000 0.000000 
0.000000 -0.000000 0.000000 
0.000000 0.000000 0.000000 

0.000000 0.000000 0.000000 
0.000000 -0.000000 0.000000 
0.000000 0.000000 0.000000 

0.000000 -0.000000 0.000000 
0.000000 -0.000000 0.000000 
0.000000 0.000000 0.000000 

-0.000000 -0.000000 0.000000 
0.000000 -0.000000 0.000000 
0.000000 0.000000 0.000000 

0.000000 -0.000000 0.000000 
0.000000 0.000000 0.000000 
0.000000 0.000000 0.000000 

0.000000 -0.000000 0.000000 
0.000000 0.000000 0.000000 
0.000000 0.000000 0.000000 

-0.000000 -0.000000 0.000000 
0.000000 -0.000000 0.000000 
0.000000 0.000000 0.000000 

-0.000000 0.000000 0.000000 
0.000000 -0.000000 0.000000 
0.000000 0.000000 0.000000 

-0.000000 0.000000 0.000000 
0.000000 -0.000000 0.000000 
0.000000 0.000000 0.000000 

-0.000000 -0.000000 0.000000 
0.000000 -0.000000 0.000000 
0.000000 0.000000 0.000000 

-0.000000 0.000000 0.000000 
0.000000 -0.000000 0.000000 
0.000000 0.000000 0.000000 

-0.000000 0.000000 0.000000 
0.000000 -0.000000 0.000000 
0.000000 0.000000 0.000000 

-0.000000 -0.000000 0.000000 
0.000000 -0.000000 0.000000 
0.000000 0.000000 0.000000 

0.000000 0.000000 0.000000 
0.000000 0.000000 0.000000 
0.000000 0.000000 0.000000 

-0.000000 0.000000 0.000000 
0.000000 -0.000000 0.000000 
0.000000 0.000000 0.000000 

0.000000 -0.000000 0.000000 
0.000000 0.000000 0.000000 
0.000000 0.000000 0.000000 

0.000000 0.000000 0.000000 
0.000000 0.000000 0.000000 
0.000000 0.000000 0.000000 

0.000000 0.000000 0.000000 
0.000000 0.000000 0.000000 
0.000000 0.000000 0.000000 

-0.000000 0.000000 0.000000 
0.000000 -0.000000 0.000000 
0.000000 0.000000 0.000000 

0.000000 0.000000 0.000000 
0.000000 0.000000 0.000000 
0.000000 0.000000 0.000000 

0.000000 -0.000000 0.000000 
0.000000 0.000000 0.000000 
0.000000 0.000000 0.000000 

0.000000 0.000000 0.000000 
0.000000 0.000000 0.000000 
0.000000 0.000000 0.000000 

0.000000 0.000000 0.000000 
0.000000 -0.000000 0.000000 
0.000000 0.000000 0.000000 

0.000000 0.000000 0.000000 
0.000000 -0.000000 0.000000 
0.000000 0.000000 0.000000 

0.000000 0.000000 0.000000 
0.000000 0.000000 0.000000 
0.000000 0.000000 0.000000 

-0.000000 0.000000 0.000000 
0.000000 -0.000000 0.000000 
0.000000 0.000000 0.000000 

-0.000000 0.000000 0.000000 
0.000000 -0.000000 0.000000 
0.000000 0.000000 0.000000 

0.000000 -0.000000 0.000000 
0.000000 -0.000000 0.000000 
0.000000 0.000000 0.000000 

-0.000000 -0.000000 0.000000 
0.000000 -0.000000 0.000000 
0.000000 0.000000 0.000000 

0.000000 0.000000 0.000000 
0.000000 0.000000 0.000000 
0.000000 0.000000 0.000000 

-0.000000 0.000000 0.000000 
0.000000 -0.000000 0.000000 
0.000000 0.000000 0.000000 

-0.000000 -0.000000 0.000000 
0.000000 0.000000 0.000000 
0.000000 0.000000 0.000000 

-0.000000 0.000000 0.000000 
0.000000 -0.000000 0.000000 
0.000000 0.000000 0.000000 

0.000000 0.000000 0.000000 
0.000000 -0.000000 0.000000 
0.000000 0.000000 0.000000 

0.000000 -0.000000 0.000000 
0.000000 0.000000 0.000000 
0.000000 0.000000 0.000000 

-0.000000 -0.000000 0.000000 
0.000000 -0.000000 0.000000 
0.000000 0.000000 0.000000 

0.000000 -0.000000 0.000000 
0.000000 -0.000000 0.000000 
0.000000 0.000000 0.000000 

0.000000 0.000000 0.000000 
0.000000 -0.000000 0.000000 
0.000000 0.000000 0.000000 

0.000000 0.000000 0.000000 
0.000000 0.000000 0.000000 
0.000000 0.000000 0.000000 

0.000000 0.000000 0.000000 
0.000000 0.000000 0.000000 
0.000000 0.000000 0.000000 

-0.000000 0.000000 0.000000 
0.000000 -0.000000 0.000000 
0.000000 0.000000 0.000000 

-0.000000 0.000000 0.000000 
0.000000 -0.000000 0.000000 
0.000000 0.000000 0.000000 

-0.000000 0.000000 0.000000 
0.000000 0.000000 0.000000 
0.000000 0.000000 0.000000 

-0.000000 0.000000 0.000000 
0.000000 -0.000000 0.000000 
0.000000 0.000000 0.000000 

-0.000000 0.000000 0.000000 
0.000000 -0.000000 0.000000 
0.000000 0.000000 0.000000 

-0.000000 0.000000 0.000000 
0.000000 0.000000 0.000000 
0.000000 0.000000 0.000000 

-0.000000 0.000000 0.000000 
0.000000 -0.000000 0.000000 
0.000000 0.000000 0.000000 

-0.000000 0.000000 0.000000 
0.000000 -0.000000 0.000000 
0.000000 0.000000 0.000000 

-0.000000 0.000000 0.000000 
0.000000 -0.000000 0.000000 
0.000000 0.000000 0.000000 

-0.000000 0.000000 0.000000 
0.000000 -0.000000 0.000000 
0.000000 0.000000 0.000000 

-0.000000 0.000000 0.000000 
0.000000 0.000000 0.000000 
0.000000 0.000000 0.000000 

-0.000000 0.000000 0.000000 
0.000000 -0.000000 0.000000 
0.000000 0.000000 0.000000 

0.000000 0.000000 0.000000 
0.000000 0.000000 0.000000 
0.000000 0.000000 0.000000 

-0.000000 0.000000 0.000000 
0.000000 -0.000000 0.000000 
0.000000 0.000000 0.000000 

0.000000 0.000000 0.000000 
0.000000 0.000000 0.000000 
0.000000 0.000000 0.000000 

0.000000 0.000000 0.000000 
0.000000 0.000000 0.000000 
0.000000 0.000000 0.000000 

-0.000000 -0.000000 0.000000 
0.000000 -0.000000 0.000000 
0.000000 0.000000 0.000000 

-0.000000 0.000000 0.000000 
0.000000 -0.000000 0.000000 
0.000000 0.000000 0.000000 

0.000000 -0.000000 0.000000 
0.000000 -0.000000 0.000000 
0.000000 0.000000 0.000000 

0.000000 0.000000 0.000000 
0.000000 0.000000 0.000000 
0.000000 0.000000 0.000000 

-0.000000 0.000000 0.000000 
0.000000 -0.000000 0.000000 
0.000000 0.000000 0.000000 

0.000000 -0.000000 0.000000 
0.000000 0.000000 0.000000 
0.000000 0.000000 0.000000 

0.000000 -0.000000 0.000000 
0.000000 0.000000 0.000000 
0.000000 0.000000 0.000000 

0.000000 -0.000000 0.000000 
0.000000 0.000000 0.000000 
0.000000 0.000000 0.000000 

0.000000 -0.000000 0.000000 
0.000000 -0.000000 0.000000 
0.000000 0.000000 0.000000 

-0.000000 -0.000000 0.000000 
0.000000 -0.000000 0.000000 
0.000000 0.000000 0.000000 

0.000000 -0.000000 0.000000 
0.000000 0.000000 0.000000 
0.000000 0.000000 0.000000 

0.000000 -0.000000 0.000000 
0.000000 0.000000 0.000000 
0.000000 0.000000 0.000000 

-0.000000 -0.000000 0.000000 
0.000000 -0.000000 0.000000 
0.000000 0.000000 0.000000 

0.000000 -0.000000 0.000000 
0.000000 0.000000 0.000000 
0.000000 0.000000 0.000000 

-0.000000 -0.000000 0.000000 
0.000000 -0.000000 0.000000 
0.000000 0.000000 0.000000 

-0.000000 0.000000 0.000000 
0.000000 -0.000000 0.000000 
0.000000 0.000000 0.000000 

0.000000 -0.000000 0.000000 
0.000000 0.000000 0.000000 
0.000000 0.000000 0.000000 

0.000000 -0.000000 0.000000 
0.000000 -0.000000 0.000000 
0.000000 0.000000 0.000000 

0.000000 -0.000000 0.000000 
0.000000 -0.000000 0.000000 
0.000000 0.000000 0.000000 

0.000000 -0.000000 0.000000 
0.000000 0.000000 0.000000 
0.000000 0.000000 0.000000 

0.000000 -0.000000 0.000000 
0.000000 0.000000 0.000000 
0.000000 0.000000 0.000000 

0.000000 0.000000 0.000000 
0.000000 0.000000 0.000000 
0.000000 0.000000 0.000000 

0.000000 -0.000000 0.000000 
0.000000 0.000000 0.000000 
0.000000 0.000000 0.000000 

0.000000 0.000000 0.000000 
0.000000 -0.000000 0.000000 
0.000000 0.000000 0.000000 

-0.000000 -0.000000 0.000000 
0.000000 -0.000000 0.000000 
0.000000 0.000000 0.000000 

TENSORS STRAIN float 
-0.000000 -0.000000 0.000000 
0.000000 -0.000000 0.000000 
0.000000 0.000000 0.000000 

-0.000000 -0.000000 0.000000 
0.000000 -0.000000 0.000000 
0.000000 0.000000 0.000000 

-0.000000 -0.000000 0.000000 
0.000000 -0.000000 0.000000 
0.000000 0.000000 0.000000 

-0.000000 -0.000000 0.000000 
0.000000 0.000000 0.000000 
0.000000 0.000000 0.000000 

0.000000 -0.000000 0.000000 
0.000000 -0.000000 0.000000 
0.000000 0.000000 0.000000 

0.000000 0.000000 0.000000 
0.000000 -0.000000 0.000000 
0.000000 0.000000 0.000000 

-0.000000 -0.000000 0.000000 
0.000000 -0.000000 0.000000 
0.000000 0.000000 0.000000 

0.000000 0.000000 0.000000 
0.000000 0.000000 0.000000 
0.000000 0.000000 0.000000 

0.000000 0.000000 0.000000 
0.000000 0.000000 0.000000 
0.000000 0.000000 0.000000 

0.000000 0.000000 0.000000 
0.000000 -0.000000 0.000000 
0.000000 0.000000 0.000000 

-0.000000 0.000000 0.000000 
0.000000 -0.000000 0.000000 
0.000000 0.000000 0.000000 

0.000000 -0.000000 0.000000 
0.000000 -0.000000 0.000000 
0.000000 0.000000 0.000000 

0.000000 0.000000 0.000000 
0.000000 0.000000 0.000000 
0.000000 0.000000 0.000000 

-0.000000 0.000000 0.000000 
0.000000 0.000000 0.000000 
0.000000 0.000000 0.000000 

0.000000 -0.000000 0.000000 
0.000000 0.000000 0.000000 
0.000000 0.000000 0.000000 

0.000000 0.000000 0.000000 
0.000000 0.000000 0.000000 
0.000000 0.000000 0.000000 

0.000000 0.000000 0.000000 
0.000000 -0.000000 0.000000 
0.000000 0.000000 0.000000 

-0.000000 0.000000 0.000000 
0.000000 -0.000000 0.000000 
0.000000 0.000000 0.000000 

0.000000 -0.000000 0.000000 
0.000000 -0.000000 0.000000 
0.000000 0.000000 0.000000 

0.000000 0.000000 0.000000 
0.000000 -0.000000 0.000000 
0.000000 0.000000 0.000000 

0.000000 0.000000 0.000000 
0.000000 -0.000000 0.000000 
0.000000 0.000000 0.000000 

-0.000000 0.000000 0.000000 
0.000000 0.000000 0.000000 
0.000000 0.000000 0.000000 

0.000000 0.000000 0.000000 
0.000000 -0.000000 0.000000 
0.000000 0.000000 0.000000 

-0.000000 -0.000000 0.000000 
0.000000 0.000000 0.000000 
0.000000 0.000000 0.000000 

-0.000000 -0.000000 0.000000 
0.000000 -0.000000 0.000000 
0.000000 0.000000 0.000000 

0.000000 0.000000 0.000000 
0.000000 0.000000 0.000000 
0.000000 0.000000 0.000000 

0.000000 0.000000 0.000000 
0.000000 -0.000000 0.000000 
0.000000 0.000000 0.000000 

0.000000 0.000000 0.000000 
0.000000 0.000000 0.000000 
0.000000 0.000000 0.000000 

-0.000000 -0.000000 0.000000 
0.000000 0.000000 0.000000 
0.000000 0.000000 0.000000 

0.000000 0.000000 0.000000 
0.000000 -0.000000 0.000000 
0.000000 0.000000 0.000000 

0.000000 0.000000 0.000000 
0.000000 0.000000 0.000000 
0.000000 0.000000 0.000000 

0.000000 -0.000000 0.000000 
0.000000 0.000000 0.000000 
0.000000 0.000000 0.000000 

-0.000000 0.000000 0.000000 
0.000000 -0.000000 0.000000 
0.000000 0.000000 0.000000 

0.000000 -0.000000 0.000000 
0.000000 -0.000000 0.000000 
0.000000 0.000000 0.000000 

0.000000 0.000000 0.000000 
0.000000 0.000000 0.000000 
0.000000 0.000000 0.000000 

-0.000000 0.000000 0.000000 
0.000000 0.000000 0.000000 
0.000000 0.000000 0.000000 

0.000000 -0.000000 0.000000 
0.000000 0.000000 0.000000 
0.000000 0.000000 0.000000 

-0.000000 0.000000 0.000000 
0.000000 -0.000000 0.000000 
0.000000 0.000000 0.000000 

0.000000 -0.000000 0.000000 
0.000000 -0.000000 0.000000 
0.000000 0.000000 0.000000 

-0.000000 -0.000000 0.000000 
0.000000 0.000000 0.000000 
0.000000 0.000000 0.000000 

0.000000 0.000000 0.000000 
0.000000 -0.000000 0.000000 
0.000000 0.000000 0.000000 

0.000000 0.000000 0.000000 
0.000000 -0.000000 0.000000 
0.000000 0.000000 0.000000 

0.000000 0.000000 0.000000 
0.000000 -0.000000 0.000000 
0.000000 0.000000 0.000000 

-0.000000 0.000000 0.000000 
0.000000 -0.000000 0.000000 
0.000000 0.000000 0.000000 

0.000000 -0.000000 0.000000 
0.000000 -0.000000 0.000000 
0.000000 0.000000 0.000000 

0.000000 0.000000 0.000000 
0.000000 -0.000000 0.000000 
0.000000 0.000000 0.000000 

0.000000 0.000000 0.000000 
0.000000 -0.000000 0.000000 
0.000000 0.000000 0.000000 

0.000000 0.000000 0.000000 
0.000000 -0.000000 0.000000 
0.000000 0.000000 0.000000 

0.000000 0.000000 0.000000 
0.000000 -0.000000 0.000000 
0.000000 0.000000 0.000000 

0.000000 0.000000 0.000000 
0.000000 -0.000000 0.000000 
0.000000 0.000000 0.000000 

-0.000000 0.000000 0.000000 
0.000000 0.000000 0.000000 
0.000000 0.000000 0.000000 

-0.000000 -0.000000 0.000000 
0.000000 0.000000 0.000000 
0.000000 0.000000 0.000000 

-0.000000 0.000000 0.000000 
0.000000 0.000000 0.000000 
0.000000 0.000000 0.000000 

-0.000000 0.000000 0.000000 
0.000000 0.000000 0.000000 
0.000000 0.000000 0.000000 

0.000000 -0.000000 0.000000 
0.000000 -0.000000 0.000000 
0.000000 0.000000 0.000000 

0.000000 -0.000000 0.000000 
0.000000 -0.000000 0.000000 
0.000000 0.000000 0.000000 

0.000000 0.000000 0.000000 
0.000000 0.000000 0.000000 
0.000000 0.000000 0.000000 

0.000000 0.000000 0.000000 
0.000000 0.000000 0.000000 
0.000000 0.000000 0.000000 

-0.000000 0.000000 0.000000 
0.000000 -0.000000 0.000000 
0.000000 0.000000 0.000000 

-0.000000 -0.000000 0.000000 
0.000000 -0.000000 0.000000 
0.000000 0.000000 0.000000 

0.000000 0.000000 0.000000 
0.000000 0.000000 0.000000 
0.000000 0.000000 0.000000 

-0.000000 -0.000000 0.000000 
0.000000 -0.000000 0.000000 
0.000000 0.000000 0.000000 

0.000000 -0.000000 0.000000 
0.000000 -0.000000 0.000000 
0.000000 0.000000 0.000000 

0.000000 0.000000 0.000000 
0.000000 0.000000 0.000000 
0.000000 0.000000 0.000000 

0.000000 0.000000 0.000000 
0.000000 -0.000000 0.000000 
0.000000 0.000000 0.000000 

-0.000000 0.000000 0.000000 
0.000000 -0.000000 0.000000 
0.000000 0.000000 0.000000 

-0.000000 -0.000000 0.000000 
0.000000 -0.000000 0.000000 
0.000000 0.000000 0.000000 

-0.000000 -0.000000 0.000000 
0.000000 -0.000000 0.000000 
0.000000 0.000000 0.000000 

-0.000000 -0.000000 0.000000 
0.000000 -0.000000 0.000000 
0.000000 0.000000 0.000000 

-0.000000 -0.000000 0.000000 
0.000000 -0.000000 0.000000 
0.000000 0.000000 0.000000 

-0.000000 -0.000000 0.000000 
0.000000 -0.000000 0.000000 
0.000000 0.000000 0.000000 

-0.000000 0.000000 0.000000 
0.000000 0.000000 0.000000 
0.000000 0.000000 0.000000 

-0.000000 0.000000 0.000000 
0.000000 -0.000000 0.000000 
0.000000 0.000000 0.000000 

-0.000000 0.000000 0.000000 
0.000000 0.000000 0.000000 
0.000000 0.000000 0.000000 

-0.000000 -0.000000 0.000000 
0.000000 -0.000000 0.000000 
0.000000 0.000000 0.000000 

-0.000000 -0.000000 0.000000 
0.000000 -0.000000 0.000000 
0.000000 0.000000 0.000000 

-0.000000 0.000000 0.000000 
0.000000 0.000000 0.000000 
0.000000 0.000000 0.000000 

-0.000000 -0.000000 0.000000 
0.000000 0.000000 0.000000 
0.000000 0.000000 0.000000 

-0.000000 -0.000000 0.000000 
0.000000 0.000000 0.000000 
0.000000 0.000000 0.000000 

-0.000000 -0.000000 0.000000 
0.000000 -0.000000 0.000000 
0.000000 0.000000 0.000000 

0.000000 -0.000000 0.000000 
0.000000 -0.000000 0.000000 
0.000000 0.000000 0.000000 

0.000000 -0.000000 0.000000 
0.000000 0.000000 0.000000 
0.000000 0.000000 0.000000 

-0.000000 0.000000 0.000000 
0.000000 0.000000 0.000000 
0.000000 0.000000 0.000000 

0.000000 -0.000000 0.000000 
0.000000 0.000000 0.000000 
0.000000 0.000000 0.000000 

0.000000 0.000000 0.000000 
0.000000 0.000000 0.000000 
0.000000 0.000000 0.000000 

0.000000 -0.000000 0.000000 
0.000000 0.000000 0.000000 
0.000000 0.000000 0.000000 

0.000000 -0.000000 0.000000 
0.000000 -0.000000 0.000000 
0.000000 0.000000 0.000000 

0.000000 0.000000 0.000000 
0.000000 0.000000 0.000000 
0.000000 0.000000 0.000000 

0.000000 0.000000 0.000000 
0.000000 -0.000000 0.000000 
0.000000 0.000000 0.000000 

0.000000 0.000000 0.000000 
0.000000 -0.000000 0.000000 
0.000000 0.000000 0.000000 

0.000000 0.000000 0.000000 
0.000000 -0.000000 0.000000 
0.000000 0.000000 0.000000 

0.000000 -0.000000 0.000000 
0.000000 0.000000 0.000000 
0.000000 0.000000 0.000000 

0.000000 0.000000 0.000000 
0.000000 0.000000 0.000000 
0.000000 0.000000 0.000000 

0.000000 0.000000 0.000000 
0.000000 0.000000 0.000000 
0.000000 0.000000 0.000000 

0.000000 0.000000 0.000000 
0.000000 -0.000000 0.000000 
0.000000 0.000000 0.000000 

0.000000 0.000000 0.000000 
0.000000 -0.000000 0.000000 
0.000000 0.000000 0.000000 

0.000000 0.000000 0.000000 
0.000000 -0.000000 0.000000 
0.000000 0.000000 0.000000 

0.000000 0.000000 0.000000 
0.000000 -0.000000 0.000000 
0.000000 0.000000 0.000000 

0.000000 0.000000 0.000000 
0.000000 -0.000000 0.000000 
0.000000 0.000000 0.000000 

0.000000 0.000000 0.000000 
0.000000 -0.000000 0.000000 
0.000000 0.000000 0.000000 

0.000000 0.000000 0.000000 
0.000000 -0.000000 0.000000 
0.000000 0.000000 0.000000 

0.000000 -0.000000 0.000000 
0.000000 -0.000000 0.000000 
0.000000 0.000000 0.000000 

0.000000 0.000000 0.000000 
0.000000 -0.000000 0.000000 
0.000000 0.000000 0.000000 

0.000000 -0.000000 0.000000 
0.000000 -0.000000 0.000000 
0.000000 0.000000 0.000000 

0.000000 0.000000 0.000000 
0.000000 -0.000000 0.000000 
0.000000 0.000000 0.000000 

0.000000 -0.000000 0.000000 
0.000000 -0.000000 0.000000 
0.000000 0.000000 0.000000 

0.000000 -0.000000 0.000000 
0.000000 -0.000000 0.000000 
0.000000 0.000000 0.000000 

0.000000 -0.000000 0.000000 
0.000000 -0.000000 0.000000 
0.000000 0.000000 0.000000 

0.000000 -0.000000 0.000000 
0.000000 0.000000 0.000000 
0.000000 0.000000 0.000000 

0.000000 -0.000000 0.000000 
0.000000 -0.000000 0.000000 
0.000000 0.000000 0.000000 

-0.000000 0.000000 0.000000 
0.000000 -0.000000 0.000000 
0.000000 0.000000 0.000000 

-0.000000 0.000000 0.000000 
0.000000 -0.000000 0.000000 
0.000000 0.000000 0.000000 

0.000000 -0.000000 0.000000 
0.000000 -0.000000 0.000000 
0.000000 0.000000 0.000000 

-0.000000 0.000000 0.000000 
0.000000 -0.000000 0.000000 
0.000000 0.000000 0.000000 

-0.000000 0.000000 0.000000 
0.000000 -0.000000 0.000000 
0.000000 0.000000 0.000000 

0.000000 -0.000000 0.000000 
0.000000 -0.000000 0.000000 
0.000000 0.000000 0.000000 

-0.000000 0.000000 0.000000 
0.000000 0.000000 0.000000 
0.000000 0.000000 0.000000 

-0.000000 0.000000 0.000000 
0.000000 -0.000000 0.000000 
0.000000 0.000000 0.000000 

-0.000000 -0.000000 0.000000 
0.000000 0.000000 0.000000 
0.000000 0.000000 0.000000 

-0.000000 0.000000 0.000000 
0.000000 0.000000 0.000000 
0.000000 0.000000 0.000000 

-0.000000 0.000000 0.000000 
0.000000 0.000000 0.000000 
0.000000 0.000000 0.000000 

-0.000000 0.000000 0.000000 
0.000000 -0.000000 0.000000 
0.000000 0.000000 0.000000 

0.000000 0.000000 0.000000 
0.000000 0.000000 0.000000 
0.000000 0.000000 0.000000 

0.000000 -0.000000 0.000000 
0.000000 0.000000 0.000000 
0.000000 0.000000 0.000000 

0.000000 0.000000 0.000000 
0.000000 0.000000 0.000000 
0.000000 0.000000 0.000000 

0.000000 0.000000 0.000000 
0.000000 -0.000000 0.000000 
0.000000 0.000000 0.000000 

0.000000 0.000000 0.000000 
0.000000 -0.000000 0.000000 
0.000000 0.000000 0.000000 

0.000000 0.000000 0.000000 
0.000000 0.000000 0.000000 
0.000000 0.000000 0.000000 

0.000000 0.000000 0.000000 
0.000000 -0.000000 0.000000 
0.000000 0.000000 0.000000 

0.000000 0.000000 0.000000 
0.000000 -0.000000 0.000000 
0.000000 0.000000 0.000000 

0.000000 -0.000000 0.000000 
0.000000 -0.000000 0.000000 
0.000000 0.000000 0.000000 

-0.000000 -0.000000 0.000000 
0.000000 -0.000000 0.000000 
0.000000 0.000000 0.000000 

0.000000 0.000000 0.000000 
0.000000 0.000000 0.000000 
0.000000 0.000000 0.000000 

0.000000 0.000000 0.000000 
0.000000 -0.000000 0.000000 
0.000000 0.000000 0.000000 

-0.000000 -0.000000 0.000000 
0.000000 0.000000 0.000000 
0.000000 0.000000 0.000000 

-0.000000 0.000000 0.000000 
0.000000 -0.000000 0.000000 
0.000000 0.000000 0.000000 

0.000000 0.000000 0.000000 
0.000000 -0.000000 0.000000 
0.000000 0.000000 0.000000 

-0.000000 -0.000000 0.000000 
0.000000 0.000000 0.000000 
0.000000 0.000000 0.000000 

0.000000 -0.000000 0.000000 
0.000000 -0.000000 0.000000 
0.000000 0.000000 0.000000 

0.000000 -0.000000 0.000000 
0.000000 -0.000000 0.000000 
0.000000 0.000000 0.000000 

0.000000 0.000000 0.000000 
0.000000 -0.000000 0.000000 
0.000000 0.000000 0.000000 

-0.000000 0.000000 0.000000 
0.000000 0.000000 0.000000 
0.000000 0.000000 0.000000 

0.000000 0.000000 0.000000 
0.000000 0.000000 0.000000 
0.000000 0.000000 0.000000 

-0.000000 0.000000 0.000000 
0.000000 -0.000000 0.000000 
0.000000 0.000000 0.000000 

0.000000 0.000000 0.000000 
0.000000 -0.000000 0.000000 
0.000000 0.000000 0.000000 

-0.000000 0.000000 0.000000 
0.000000 0.000000 0.000000 
0.000000 0.000000 0.000000 

-0.000000 0.000000 0.000000 
0.000000 -0.000000 0.000000 
0.000000 0.000000 0.000000 

-0.000000 0.000000 0.000000 
0.000000 -0.000000 0.000000 
0.000000 0.000000 0.000000 

-0.000000 0.000000 0.000000 
0.000000 0.000000 0.000000 
0.000000 0.000000 0.000000 

-0.000000 0.000000 0.000000 
0.000000 -0.000000 0.000000 
0.000000 0.000000 0.000000 

-0.000000 0.000000 0.000000 
0.000000 -0.000000 0.000000 
0.000000 0.000000 0.000000 

-0.000000 0.000000 0.000000 
0.000000 -0.000000 0.000000 
0.000000 0.000000 0.000000 

-0.000000 0.000000 0.000000 
0.000000 -0.000000 0.000000 
0.000000 0.000000 0.000000 

-0.000000 0.000000 0.000000 
0.000000 0.000000 0.000000 
0.000000 0.000000 0.000000 

0.000000 0.000000 0.000000 
0.000000 -0.000000 0.000000 
0.000000 0.000000 0.000000 

-0.000000 0.000000 0.000000 
0.000000 0.000000 0.000000 
0.000000 0.000000 0.000000 

-0.000000 0.000000 0.000000 
0.000000 -0.000000 0.000000 
0.000000 0.000000 0.000000 

-0.000000 0.000000 0.000000 
0.000000 0.000000 0.000000 
0.000000 0.000000 0.000000 

-0.000000 0.000000 0.000000 
0.000000 0.000000 0.000000 
0.000000 0.000000 0.000000 

-0.000000 -0.000000 0.000000 
0.000000 -0.000000 0.000000 
0.000000 0.000000 0.000000 

-0.000000 0.000000 0.000000 
0.000000 0.000000 0.000000 
0.000000 0.000000 0.000000 

0.000000 -0.000000 0.000000 
0.000000 -0.000000 0.000000 
0.000000 0.000000 0.000000 

0.000000 0.000000 0.000000 
0.000000 0.000000 0.000000 
0.000000 0.000000 0.000000 

0.000000 0.000000 0.000000 
0.000000 -0.000000 0.000000 
0.000000 0.000000 0.000000 

0.000000 -0.000000 0.000000 
0.000000 0.000000 0.000000 
0.000000 0.000000 0.000000 

0.000000 -0.000000 0.000000 
0.000000 0.000000 0.000000 
0.000000 0.000000 0.000000 

0.000000 -0.000000 0.000000 
0.000000 0.000000 0.000000 
0.000000 0.000000 0.000000 

0.000000 -0.000000 0.000000 
0.000000 -0.000000 0.000000 
0.000000 0.000000 0.000000 

0.000000 -0.000000 0.000000 
0.000000 -0.000000 0.000000 
0.000000 0.000000 0.000000 

0.000000 -0.000000 0.000000 
0.000000 0.000000 0.000000 
0.000000 0.000000 0.000000 

0.000000 -0.000000 0.000000 
0.000000 -0.000000 0.000000 
0.000000 0.000000 0.000000 

0.000000 -0.000000 0.000000 
0.000000 -0.000000 0.000000 
0.000000 0.000000 0.000000 

0.000000 -0.000000 0.000000 
0.000000 0.000000 0.000000 
0.000000 0.000000 0.000000 

-0.000000 -0.000000 0.000000 
0.000000 -0.000000 0.000000 
0.000000 0.000000 0.000000 

-0.000000 0.000000 0.000000 
0.000000 -0.000000 0.000000 
0.000000 0.000000 0.000000 

0.000000 -0.000000 0.000000 
0.000000 0.000000 0.000000 
0.000000 0.000000 0.000000 

0.000000 -0.000000 0.000000 
0.000000 -0.000000 0.000000 
0.000000 0.000000 0.000000 

0.000000 -0.000000 0.000000 
0.000000 -0.000000 0.000000 
0.000000 0.000000 0.000000 

0.000000 -0.000000 0.000000 
0.000000 0.000000 0.000000 
0.000000 0.000000 0.000000 

0.000000 -0.000000 0.000000 
0.000000 0.000000 0.000000 
0.000000 0.000000 0.000000 

0.000000 0.000000 0.000000 
0.000000 -0.000000 0.000000 
0.000000 0.000000 0.000000 

0.000000 -0.000000 0.000000 
0.000000 0.000000 0.000000 
0.000000 0.000000 0.000000 

0.000000 0.000000 0.000000 
0.000000 -0.000000 0.000000 
0.000000 0.000000 0.000000 

0.000000 -0.000000 0.000000 
0.000000 -0.000000 0.000000 
0.000000 0.000000 0.000000 

