# vtk DataFile Version 3.0 
vtk output 
ASCII 
DATASET UNSTRUCTURED_GRID 
POINTS 184 float 
-0.031160 -2.040367 0.000000 
-0.364917 -2.909197 0.000000 
0.472523 -2.540789 0.000000 
-0.447767 -2.351493 0.000000 
0.183394 -3.095981 0.000000 
0.221360 -2.093160 0.000000 
-0.285035 -2.136422 0.000000 
-0.111525 -3.135448 0.000000 
0.418248 -2.289055 0.000000 
-0.463251 -2.615500 0.000000 
0.393821 -2.825546 0.000000 
-0.165957 -2.070709 0.000000 
-0.235404 -3.036396 0.000000 
0.462353 -2.416840 0.000000 
-0.472138 -2.488412 0.000000 
0.293119 -2.964706 0.000000 
0.098258 -2.050619 0.000000 
-0.380912 -2.224332 0.000000 
0.052907 -3.158823 0.000000 
0.337724 -2.171864 0.000000 
-0.426114 -2.737139 0.000000 
0.445983 -2.669396 0.000000 
-0.121539 -2.056669 0.000000 
-0.313989 -2.954412 0.000000 
0.471841 -2.495598 0.000000 
-0.458865 -2.400472 0.000000 
0.256752 -3.018423 0.000000 
0.176691 -2.074691 0.000000 
-0.349591 -2.188748 0.000000 
-0.058110 -3.144609 0.000000 
0.368292 -2.207848 0.000000 
-0.451209 -2.657386 0.000000 
0.428237 -2.717455 0.000000 
-0.208452 -2.090394 0.000000 
-0.159020 -3.106094 0.000000 
0.437457 -2.334630 0.000000 
-0.472141 -2.533472 0.000000 
0.339190 -2.934321 0.000000 
0.015933 -2.039810 0.000000 
-0.429828 -2.305517 0.000000 
0.104548 -3.145297 0.000000 
0.301451 -2.142374 0.000000 
-0.394119 -2.847106 0.000000 
0.458337 -2.627134 0.000000 
-0.080440 -2.071854 0.000000 
0.368830 -2.254956 0.000000 
0.046705 -2.066937 0.000000 
0.214064 -2.982428 0.000000 
-0.170752 -3.006507 0.000000 
-0.378066 -2.776407 0.000000 
0.389781 -2.732886 0.000000 
-0.306344 -2.187337 0.000000 
-0.389373 -2.285321 0.000000 
0.423917 -2.375774 0.000000 
0.138211 -2.086913 0.000000 
0.123262 -3.037042 0.000000 
-0.262129 -2.926227 0.000000 
-0.415760 -2.675190 0.000000 
0.439534 -2.586523 0.000000 
0.334912 -2.846453 0.000000 
-0.009403 -3.030333 0.000000 
-0.226416 -2.126635 0.000000 
-0.442861 -2.438977 0.000000 
-0.444387 -2.566631 0.000000 
0.255129 -2.141395 0.000000 
0.444171 -2.465747 0.000000 
-0.080301 -2.126949 0.000000 
-0.131288 -2.171381 0.000000 
-0.192493 -2.167266 0.000000 
-0.112430 -2.230640 0.000000 
-0.224468 -2.222587 0.000000 
-0.171705 -2.259337 0.000000 
-0.056207 -2.244580 0.000000 
-0.279329 -2.233502 0.000000 
-0.040676 -2.300589 0.000000 
-0.015868 -2.202671 0.000000 
-0.296969 -2.292433 0.000000 
-0.350301 -2.322496 0.000000 
-0.351235 -2.389452 0.000000 
-0.255306 -2.330938 0.000000 
-0.391087 -2.438644 0.000000 
-0.369738 -2.496077 0.000000 
-0.285366 -2.387874 0.000000 
-0.394537 -2.552090 0.000000 
-0.360279 -2.594006 0.000000 
-0.313430 -2.494439 0.000000 
-0.370434 -2.647850 0.000000 
-0.324037 -2.676581 0.000000 
-0.307834 -2.554129 0.000000 
-0.319952 -2.741056 0.000000 
-0.261730 -2.767212 0.000000 
-0.273141 -2.651858 0.000000 
-0.238140 -2.839679 0.000000 
-0.174250 -2.841897 0.000000 
-0.233949 -2.698840 0.000000 
-0.135973 -2.905564 0.000000 
-0.073686 -2.880065 0.000000 
-0.146223 -2.777968 0.000000 
-0.017322 -2.918819 0.000000 
0.038403 -2.882841 0.000000 
-0.084374 -2.801425 0.000000 
0.095901 -2.920776 0.000000 
0.134689 -2.864078 0.000000 
0.028475 -2.813326 0.000000 
0.195989 -2.877705 0.000000 
0.227113 -2.804541 0.000000 
0.091190 -2.799896 0.000000 
0.283555 -2.785218 0.000000 
0.296683 -2.712713 0.000000 
0.191273 -2.744311 0.000000 
0.347932 -2.684583 0.000000 
0.346656 -2.628400 0.000000 
0.235568 -2.694242 0.000000 
0.387149 -2.584361 0.000000 
0.369022 -2.529049 0.000000 
0.293521 -2.607457 0.000000 
0.394080 -2.479140 0.000000 
0.360385 -2.433622 0.000000 
0.307185 -2.549742 0.000000 
0.372192 -2.380102 0.000000 
0.325968 -2.338089 0.000000 
0.304811 -2.444092 0.000000 
0.320180 -2.276197 0.000000 
0.260989 -2.247501 0.000000 
0.282364 -2.383316 0.000000 
0.232947 -2.189566 0.000000 
0.169984 -2.183862 0.000000 
0.218896 -2.289580 0.000000 
0.131878 -2.137632 0.000000 
0.076922 -2.147958 0.000000 
0.032464 -2.113417 0.000000 
-0.021212 -2.144071 0.000000 
0.166163 -2.251294 0.000000 
0.046897 -2.202552 0.000000 
-0.185004 -2.308658 0.000000 
-0.267846 -2.436974 0.000000 
-0.038125 -2.773285 0.000000 
0.232937 -2.648066 0.000000 
0.277673 -2.511003 0.000000 
0.116367 -2.749043 0.000000 
0.234272 -2.364239 0.000000 
-0.266852 -2.583936 0.000000 
-0.182083 -2.704102 0.000000 
-0.081061 -2.342541 0.000000 
0.015345 -2.315120 0.000000 
-0.142277 -2.345298 0.000000 
-0.170890 -2.403043 0.000000 
-0.215495 -2.441312 0.000000 
-0.205185 -2.501993 0.000000 
-0.129448 -2.439638 0.000000 
-0.218508 -2.558459 0.000000 
-0.148056 -2.494519 0.000000 
-0.174132 -2.601572 0.000000 
-0.077062 -2.406330 0.000000 
-0.155130 -2.656671 0.000000 
-0.125698 -2.574774 0.000000 
-0.074482 -2.599702 0.000000 
-0.112860 -2.523772 0.000000 
-0.052030 -2.507912 0.000000 
-0.031591 -2.559048 0.000000 
-0.034787 -2.445675 0.000000 
0.031020 -2.372057 0.000000 
0.062461 -2.258695 0.000000 
-0.088608 -2.655335 0.000000 
0.008884 -2.430179 0.000000 
0.051443 -2.477549 0.000000 
0.053579 -2.530943 0.000000 
0.097932 -2.449374 0.000000 
0.011657 -2.572318 0.000000 
0.028792 -2.627051 0.000000 
0.018705 -2.678056 0.000000 
0.078247 -2.703670 0.000000 
0.083372 -2.626717 0.000000 
0.117711 -2.662807 0.000000 
0.178456 -2.636776 0.000000 
0.098586 -2.571761 0.000000 
0.165326 -2.459243 0.000000 
0.087830 -2.391981 0.000000 
0.160986 -2.573679 0.000000 
0.191102 -2.402375 0.000000 
0.131890 -2.359572 0.000000 
0.122139 -2.282906 0.000000 
-0.040117 -2.693912 0.000000 
0.197188 -2.517771 0.000000 
CELLS 184 368 
1 0 
1 1 
1 2 
1 3 
1 4 
1 5 
1 6 
1 7 
1 8 
1 9 
1 10 
1 11 
1 12 
1 13 
1 14 
1 15 
1 16 
1 17 
1 18 
1 19 
1 20 
1 21 
1 22 
1 23 
1 24 
1 25 
1 26 
1 27 
1 28 
1 29 
1 30 
1 31 
1 32 
1 33 
1 34 
1 35 
1 36 
1 37 
1 38 
1 39 
1 40 
1 41 
1 42 
1 43 
1 44 
1 45 
1 46 
1 47 
1 48 
1 49 
1 50 
1 51 
1 52 
1 53 
1 54 
1 55 
1 56 
1 57 
1 58 
1 59 
1 60 
1 61 
1 62 
1 63 
1 64 
1 65 
1 66 
1 67 
1 68 
1 69 
1 70 
1 71 
1 72 
1 73 
1 74 
1 75 
1 76 
1 77 
1 78 
1 79 
1 80 
1 81 
1 82 
1 83 
1 84 
1 85 
1 86 
1 87 
1 88 
1 89 
1 90 
1 91 
1 92 
1 93 
1 94 
1 95 
1 96 
1 97 
1 98 
1 99 
1 100 
1 101 
1 102 
1 103 
1 104 
1 105 
1 106 
1 107 
1 108 
1 109 
1 110 
1 111 
1 112 
1 113 
1 114 
1 115 
1 116 
1 117 
1 118 
1 119 
1 120 
1 121 
1 122 
1 123 
1 124 
1 125 
1 126 
1 127 
1 128 
1 129 
1 130 
1 131 
1 132 
1 133 
1 134 
1 135 
1 136 
1 137 
1 138 
1 139 
1 140 
1 141 
1 142 
1 143 
1 144 
1 145 
1 146 
1 147 
1 148 
1 149 
1 150 
1 151 
1 152 
1 153 
1 154 
1 155 
1 156 
1 157 
1 158 
1 159 
1 160 
1 161 
1 162 
1 163 
1 164 
1 165 
1 166 
1 167 
1 168 
1 169 
1 170 
1 171 
1 172 
1 173 
1 174 
1 175 
1 176 
1 177 
1 178 
1 179 
1 180 
1 181 
1 182 
1 183 
CELL_TYPES 184 
1 
1 
1 
1 
1 
1 
1 
1 
1 
1 
1 
1 
1 
1 
1 
1 
1 
1 
1 
1 
1 
1 
1 
1 
1 
1 
1 
1 
1 
1 
1 
1 
1 
1 
1 
1 
1 
1 
1 
1 
1 
1 
1 
1 
1 
1 
1 
1 
1 
1 
1 
1 
1 
1 
1 
1 
1 
1 
1 
1 
1 
1 
1 
1 
1 
1 
1 
1 
1 
1 
1 
1 
1 
1 
1 
1 
1 
1 
1 
1 
1 
1 
1 
1 
1 
1 
1 
1 
1 
1 
1 
1 
1 
1 
1 
1 
1 
1 
1 
1 
1 
1 
1 
1 
1 
1 
1 
1 
1 
1 
1 
1 
1 
1 
1 
1 
1 
1 
1 
1 
1 
1 
1 
1 
1 
1 
1 
1 
1 
1 
1 
1 
1 
1 
1 
1 
1 
1 
1 
1 
1 
1 
1 
1 
1 
1 
1 
1 
1 
1 
1 
1 
1 
1 
1 
1 
1 
1 
1 
1 
1 
1 
1 
1 
1 
1 
1 
1 
1 
1 
1 
1 
1 
1 
1 
1 
1 
1 
1 
1 
1 
1 
1 
1 
POINT_DATA 184 
VECTORS X_GC float 
-0.031160 -2.040367 0.000000 
-0.364917 -2.909197 0.000000 
0.472523 -2.540789 0.000000 
-0.447767 -2.351493 0.000000 
0.183394 -3.095981 0.000000 
0.221360 -2.093160 0.000000 
-0.285035 -2.136422 0.000000 
-0.111525 -3.135448 0.000000 
0.418248 -2.289055 0.000000 
-0.463251 -2.615500 0.000000 
0.393821 -2.825546 0.000000 
-0.165957 -2.070709 0.000000 
-0.235404 -3.036396 0.000000 
0.462353 -2.416840 0.000000 
-0.472138 -2.488412 0.000000 
0.293119 -2.964706 0.000000 
0.098258 -2.050619 0.000000 
-0.380912 -2.224332 0.000000 
0.052907 -3.158823 0.000000 
0.337724 -2.171864 0.000000 
-0.426114 -2.737139 0.000000 
0.445983 -2.669396 0.000000 
-0.121539 -2.056669 0.000000 
-0.313989 -2.954412 0.000000 
0.471841 -2.495598 0.000000 
-0.458865 -2.400472 0.000000 
0.256752 -3.018423 0.000000 
0.176691 -2.074691 0.000000 
-0.349591 -2.188748 0.000000 
-0.058110 -3.144609 0.000000 
0.368292 -2.207848 0.000000 
-0.451209 -2.657386 0.000000 
0.428237 -2.717455 0.000000 
-0.208452 -2.090394 0.000000 
-0.159020 -3.106094 0.000000 
0.437457 -2.334630 0.000000 
-0.472141 -2.533472 0.000000 
0.339190 -2.934321 0.000000 
0.015933 -2.039810 0.000000 
-0.429828 -2.305517 0.000000 
0.104548 -3.145297 0.000000 
0.301451 -2.142374 0.000000 
-0.394119 -2.847106 0.000000 
0.458337 -2.627134 0.000000 
-0.080440 -2.071854 0.000000 
0.368830 -2.254956 0.000000 
0.046705 -2.066937 0.000000 
0.214064 -2.982428 0.000000 
-0.170752 -3.006507 0.000000 
-0.378066 -2.776407 0.000000 
0.389781 -2.732886 0.000000 
-0.306344 -2.187337 0.000000 
-0.389373 -2.285321 0.000000 
0.423917 -2.375774 0.000000 
0.138211 -2.086913 0.000000 
0.123262 -3.037042 0.000000 
-0.262129 -2.926227 0.000000 
-0.415760 -2.675190 0.000000 
0.439534 -2.586523 0.000000 
0.334912 -2.846453 0.000000 
-0.009403 -3.030333 0.000000 
-0.226416 -2.126635 0.000000 
-0.442861 -2.438977 0.000000 
-0.444387 -2.566631 0.000000 
0.255129 -2.141395 0.000000 
0.444171 -2.465747 0.000000 
-0.080301 -2.126949 0.000000 
-0.131288 -2.171381 0.000000 
-0.192493 -2.167266 0.000000 
-0.112430 -2.230640 0.000000 
-0.224468 -2.222587 0.000000 
-0.171705 -2.259337 0.000000 
-0.056207 -2.244580 0.000000 
-0.279329 -2.233502 0.000000 
-0.040676 -2.300589 0.000000 
-0.015868 -2.202671 0.000000 
-0.296969 -2.292433 0.000000 
-0.350301 -2.322496 0.000000 
-0.351235 -2.389452 0.000000 
-0.255306 -2.330938 0.000000 
-0.391087 -2.438644 0.000000 
-0.369738 -2.496077 0.000000 
-0.285366 -2.387874 0.000000 
-0.394537 -2.552090 0.000000 
-0.360279 -2.594006 0.000000 
-0.313430 -2.494439 0.000000 
-0.370434 -2.647850 0.000000 
-0.324037 -2.676581 0.000000 
-0.307834 -2.554129 0.000000 
-0.319952 -2.741056 0.000000 
-0.261730 -2.767212 0.000000 
-0.273141 -2.651858 0.000000 
-0.238140 -2.839679 0.000000 
-0.174250 -2.841897 0.000000 
-0.233949 -2.698840 0.000000 
-0.135973 -2.905564 0.000000 
-0.073686 -2.880065 0.000000 
-0.146223 -2.777968 0.000000 
-0.017322 -2.918819 0.000000 
0.038403 -2.882841 0.000000 
-0.084374 -2.801425 0.000000 
0.095901 -2.920776 0.000000 
0.134689 -2.864078 0.000000 
0.028475 -2.813326 0.000000 
0.195989 -2.877705 0.000000 
0.227113 -2.804541 0.000000 
0.091190 -2.799896 0.000000 
0.283555 -2.785218 0.000000 
0.296683 -2.712713 0.000000 
0.191273 -2.744311 0.000000 
0.347932 -2.684583 0.000000 
0.346656 -2.628400 0.000000 
0.235568 -2.694242 0.000000 
0.387149 -2.584361 0.000000 
0.369022 -2.529049 0.000000 
0.293521 -2.607457 0.000000 
0.394080 -2.479140 0.000000 
0.360385 -2.433622 0.000000 
0.307185 -2.549742 0.000000 
0.372192 -2.380102 0.000000 
0.325968 -2.338089 0.000000 
0.304811 -2.444092 0.000000 
0.320180 -2.276197 0.000000 
0.260989 -2.247501 0.000000 
0.282364 -2.383316 0.000000 
0.232947 -2.189566 0.000000 
0.169984 -2.183862 0.000000 
0.218896 -2.289580 0.000000 
0.131878 -2.137632 0.000000 
0.076922 -2.147958 0.000000 
0.032464 -2.113417 0.000000 
-0.021212 -2.144071 0.000000 
0.166163 -2.251294 0.000000 
0.046897 -2.202552 0.000000 
-0.185004 -2.308658 0.000000 
-0.267846 -2.436974 0.000000 
-0.038125 -2.773285 0.000000 
0.232937 -2.648066 0.000000 
0.277673 -2.511003 0.000000 
0.116367 -2.749043 0.000000 
0.234272 -2.364239 0.000000 
-0.266852 -2.583936 0.000000 
-0.182083 -2.704102 0.000000 
-0.081061 -2.342541 0.000000 
0.015345 -2.315120 0.000000 
-0.142277 -2.345298 0.000000 
-0.170890 -2.403043 0.000000 
-0.215495 -2.441312 0.000000 
-0.205185 -2.501993 0.000000 
-0.129448 -2.439638 0.000000 
-0.218508 -2.558459 0.000000 
-0.148056 -2.494519 0.000000 
-0.174132 -2.601572 0.000000 
-0.077062 -2.406330 0.000000 
-0.155130 -2.656671 0.000000 
-0.125698 -2.574774 0.000000 
-0.074482 -2.599702 0.000000 
-0.112860 -2.523772 0.000000 
-0.052030 -2.507912 0.000000 
-0.031591 -2.559048 0.000000 
-0.034787 -2.445675 0.000000 
0.031020 -2.372057 0.000000 
0.062461 -2.258695 0.000000 
-0.088608 -2.655335 0.000000 
0.008884 -2.430179 0.000000 
0.051443 -2.477549 0.000000 
0.053579 -2.530943 0.000000 
0.097932 -2.449374 0.000000 
0.011657 -2.572318 0.000000 
0.028792 -2.627051 0.000000 
0.018705 -2.678056 0.000000 
0.078247 -2.703670 0.000000 
0.083372 -2.626717 0.000000 
0.117711 -2.662807 0.000000 
0.178456 -2.636776 0.000000 
0.098586 -2.571761 0.000000 
0.165326 -2.459243 0.000000 
0.087830 -2.391981 0.000000 
0.160986 -2.573679 0.000000 
0.191102 -2.402375 0.000000 
0.131890 -2.359572 0.000000 
0.122139 -2.282906 0.000000 
-0.040117 -2.693912 0.000000 
0.197188 -2.517771 0.000000 
VECTORS X_EC float 
-0.792268 0.602445 0.000000 
-0.567221 0.394647 0.000000 
-0.150156 -0.061406 0.000000 
-0.014889 0.676621 0.000000 
-0.248183 0.946404 0.000000 
-0.475736 0.954399 0.000000 
0.900230 -0.757188 0.000000 
-0.208874 0.964511 0.000000 
0.211681 0.260365 0.000000 
0.088340 0.436668 0.000000 
0.374528 -0.163027 0.000000 
0.106379 0.804728 0.000000 
0.626334 0.986501 0.000000 
-0.082353 -0.887732 0.000000 
0.147588 -0.410585 0.000000 
-0.954125 0.764704 0.000000 
0.344947 0.670796 0.000000 
-0.460584 -0.171123 0.000000 
0.674495 0.937567 0.000000 
0.748509 -0.520904 0.000000 
-0.159242 -0.752409 0.000000 
0.026780 0.795975 0.000000 
-0.189741 0.711125 0.000000 
-0.906742 0.696083 0.000000 
-0.145605 -0.362677 0.000000 
0.059098 -0.996852 0.000000 
-0.678778 0.992812 0.000000 
-0.177939 0.831273 0.000000 
-0.669395 -0.408348 0.000000 
-0.572427 0.921027 0.000000 
0.544723 -0.281014 0.000000 
0.008060 0.715907 0.000000 
0.145084 -0.883633 0.000000 
0.389679 0.935963 0.000000 
0.119212 0.951185 0.000000 
0.083620 0.564200 0.000000 
0.147608 -0.110188 0.000000 
0.738732 0.562137 0.000000 
0.893782 0.598733 0.000000 
-0.134477 0.370111 0.000000 
0.304228 0.957028 0.000000 
0.990326 -0.717506 0.000000 
-0.372542 -0.019291 0.000000 
-0.055581 0.514223 0.000000 
-0.463733 0.812363 0.000000 
0.541132 0.033041 0.000000 
0.688634 0.779577 0.000000 
-0.427093 0.882853 0.000000 
0.144528 0.997078 0.000000 
-0.479560 -0.490617 0.000000 
0.401459 -0.780758 0.000000 
-0.957707 -0.417753 0.000000 
-0.404183 0.235477 0.000000 
0.173885 0.838494 0.000000 
0.078594 0.912751 0.000000 
0.184510 0.990440 0.000000 
0.747529 0.508179 0.000000 
-0.228265 0.834601 0.000000 
0.069771 0.243484 0.000000 
0.767255 -0.023644 0.000000 
-0.895255 0.999530 0.000000 
0.509438 -0.822436 0.000000 
-0.047596 -0.740151 0.000000 
-0.037418 0.110872 0.000000 
-0.700859 -0.724031 0.000000 
0.038863 -0.561687 0.000000 
-0.464659 -0.820342 0.000000 
-0.124748 -0.524128 0.000000 
0.283285 -0.551557 0.000000 
-0.250469 -0.129068 0.000000 
0.496452 -0.182753 0.000000 
0.144703 0.062244 0.000000 
-0.625288 -0.036131 0.000000 
0.862193 -0.109983 0.000000 
-0.728824 0.337260 0.000000 
-0.894211 -0.315528 0.000000 
0.979792 0.282887 0.000000 
-0.664658 0.483308 0.000000 
-0.658431 0.929682 0.000000 
0.702041 0.539589 0.000000 
-0.392752 -0.742373 0.000000 
-0.535077 -0.359485 0.000000 
0.902437 0.919161 0.000000 
-0.369753 0.013934 0.000000 
-0.598140 0.293372 0.000000 
-0.910466 -0.370408 0.000000 
-0.530440 0.652332 0.000000 
-0.839754 0.843873 0.000000 
-0.947773 0.027527 0.000000 
-0.866984 -0.726295 0.000000 
0.744867 -0.551921 0.000000 
0.820941 0.679053 0.000000 
0.587599 -0.068804 0.000000 
0.161665 -0.054018 0.000000 
0.559660 0.992269 0.000000 
-0.093516 0.370426 0.000000 
-0.508758 0.200435 0.000000 
-0.025177 -0.480216 0.000000 
-0.884517 0.458794 0.000000 
0.743982 0.218937 0.000000 
-0.437506 -0.323836 0.000000 
0.360660 0.471841 0.000000 
0.102070 0.093855 0.000000 
0.810165 -0.244492 0.000000 
-0.306590 0.184703 0.000000 
-0.514087 -0.303061 0.000000 
0.392064 -0.334028 0.000000 
-0.890364 -0.431881 0.000000 
-0.977889 -0.915249 0.000000 
-0.275151 -0.704595 0.000000 
0.680456 0.897218 0.000000 
0.688960 0.522669 0.000000 
-0.570455 0.961615 0.000000 
0.419007 0.229073 0.000000 
0.539852 -0.139672 0.000000 
-0.956807 0.383050 0.000000 
0.372799 -0.472401 0.000000 
0.597435 -0.775855 0.000000 
0.952097 -0.001723 0.000000 
0.518720 0.867345 0.000000 
0.826882 0.587263 0.000000 
0.967926 -0.706051 0.000000 
0.865463 0.174646 0.000000 
-0.739929 -0.016657 0.000000 
-0.882425 0.888776 0.000000 
-0.552983 -0.402891 0.000000 
-0.133224 -0.440922 0.000000 
-0.459305 0.263870 0.000000 
0.120812 -0.749119 0.000000 
0.487184 -0.680278 0.000000 
0.783571 -0.910552 0.000000 
-0.858588 -0.706192 0.000000 
-0.107754 0.008625 0.000000 
0.687353 -0.316321 0.000000 
0.233357 0.391056 0.000000 
0.785642 -0.753506 0.000000 
-0.745831 -0.511432 0.000000 
-0.552915 0.653774 0.000000 
-0.851151 -0.259981 0.000000 
0.224222 -0.673049 0.000000 
-0.561815 0.761591 0.000000 
0.779013 0.226239 0.000000 
0.213888 -0.972656 0.000000 
-0.459595 0.616938 0.000000 
0.897700 0.434135 0.000000 
-0.051487 0.635323 0.000000 
0.139264 -0.979715 0.000000 
0.436632 -0.724585 0.000000 
0.367899 -0.320049 0.000000 
-0.137015 -0.735750 0.000000 
0.456719 0.056394 0.000000 
-0.012960 -0.369876 0.000000 
0.160879 0.343814 0.000000 
-0.486253 -0.957798 0.000000 
0.034202 0.711142 0.000000 
-0.162014 0.165163 0.000000 
-0.503453 0.331345 0.000000 
-0.247599 -0.174851 0.000000 
-0.653134 -0.280588 0.000000 
-0.789390 0.060321 0.000000 
-0.768084 -0.695503 0.000000 
0.793197 0.813713 0.000000 
0.583591 0.057965 0.000000 
-0.409283 0.702235 0.000000 
0.940774 -0.798806 0.000000 
0.657049 -0.483008 0.000000 
0.642808 -0.127043 0.000000 
0.347121 -0.670839 0.000000 
0.922289 0.148786 0.000000 
0.808050 0.513675 0.000000 
0.875298 0.853706 0.000000 
0.478355 -0.975531 0.000000 
0.444190 0.511445 0.000000 
0.215258 0.752044 0.000000 
-0.189704 0.578509 0.000000 
0.342763 0.145076 0.000000 
-0.102172 -0.605045 0.000000 
0.414470 0.946538 0.000000 
-0.073241 0.157862 0.000000 
-0.274016 -0.984165 0.000000 
0.120736 0.730482 0.000000 
0.185738 0.219376 0.000000 
-0.732552 0.959413 0.000000 
-0.314584 -0.214862 0.000000 
CELL_DATA 184 
SCALARS MASS float 
LOOKUP_TABLE default 
0.051252 
0.046008 
0.051531 
0.046188 
0.052854 
0.051531 
0.052854 
0.052854 
0.051531 
0.050859 
0.052854 
0.047395 
0.052854 
0.052854 
0.051434 
0.045995 
0.052854 
0.051281 
0.051530 
0.046441 
0.052854 
0.052854 
0.050612 
0.049065 
0.052975 
0.049197 
0.049245 
0.052975 
0.052990 
0.055938 
0.049713 
0.052094 
0.055938 
0.050456 
0.055938 
0.053198 
0.052878 
0.049051 
0.052807 
0.049481 
0.052974 
0.049465 
0.049257 
0.055938 
0.105225 
0.104629 
0.082126 
0.094264 
0.094771 
0.094259 
0.094771 
0.083366 
0.104047 
0.083092 
0.081316 
0.081315 
0.092719 
0.079469 
0.108073 
0.092710 
0.108073 
0.093129 
0.104035 
0.094961 
0.104398 
0.081316 
0.125285 
0.099128 
0.098320 
0.087841 
0.082650 
0.097481 
0.086914 
0.081921 
0.086680 
0.086680 
0.081485 
0.107769 
0.088711 
0.084874 
0.107874 
0.082612 
0.095190 
0.095229 
0.083942 
0.085089 
0.079923 
0.081132 
0.095301 
0.097917 
0.090576 
0.085268 
0.095896 
0.081062 
0.095454 
0.090083 
0.081027 
0.085251 
0.101961 
0.083022 
0.095445 
0.080604 
0.081018 
0.085240 
0.097826 
0.090495 
0.095435 
0.095845 
0.081023 
0.085241 
0.090072 
0.081024 
0.095436 
0.101966 
0.083028 
0.085242 
0.080610 
0.081024 
0.095437 
0.082345 
0.082694 
0.085242 
0.109264 
0.089885 
0.095437 
0.108636 
0.083028 
0.085242 
0.080610 
0.074817 
0.073569 
0.082490 
0.095437 
0.095617 
0.133784 
0.138292 
0.139667 
0.139695 
0.139694 
0.139689 
0.139693 
0.140105 
0.139774 
0.086622 
0.086622 
0.089038 
0.077179 
0.079159 
0.072465 
0.084345 
0.092656 
0.093083 
0.084037 
0.098826 
0.101847 
0.085968 
0.086444 
0.074619 
0.064825 
0.094138 
0.124406 
0.086607 
0.131576 
0.102571 
0.084703 
0.076503 
0.084191 
0.084191 
0.086793 
0.075696 
0.084714 
0.090949 
0.084009 
0.076569 
0.086383 
0.098391 
0.110757 
0.093222 
0.143196 
0.101090 
0.091038 
0.150913 
0.178131 
0.206980 
SCALARS MASS float 
LOOKUP_TABLE default 
0.051252 
0.046008 
0.051531 
0.046188 
0.052854 
0.051531 
0.052854 
0.052854 
0.051531 
0.050859 
0.052854 
0.047395 
0.052854 
0.052854 
0.051434 
0.045995 
0.052854 
0.051281 
0.051530 
0.046441 
0.052854 
0.052854 
0.050612 
0.049065 
0.052975 
0.049197 
0.049245 
0.052975 
0.052990 
0.055938 
0.049713 
0.052094 
0.055938 
0.050456 
0.055938 
0.053198 
0.052878 
0.049051 
0.052807 
0.049481 
0.052974 
0.049465 
0.049257 
0.055938 
0.105225 
0.104629 
0.082126 
0.094264 
0.094771 
0.094259 
0.094771 
0.083366 
0.104047 
0.083092 
0.081316 
0.081315 
0.092719 
0.079469 
0.108073 
0.092710 
0.108073 
0.093129 
0.104035 
0.094961 
0.104398 
0.081316 
0.125285 
0.099128 
0.098320 
0.087841 
0.082650 
0.097481 
0.086914 
0.081921 
0.086680 
0.086680 
0.081485 
0.107769 
0.088711 
0.084874 
0.107874 
0.082612 
0.095190 
0.095229 
0.083942 
0.085089 
0.079923 
0.081132 
0.095301 
0.097917 
0.090576 
0.085268 
0.095896 
0.081062 
0.095454 
0.090083 
0.081027 
0.085251 
0.101961 
0.083022 
0.095445 
0.080604 
0.081018 
0.085240 
0.097826 
0.090495 
0.095435 
0.095845 
0.081023 
0.085241 
0.090072 
0.081024 
0.095436 
0.101966 
0.083028 
0.085242 
0.080610 
0.081024 
0.095437 
0.082345 
0.082694 
0.085242 
0.109264 
0.089885 
0.095437 
0.108636 
0.083028 
0.085242 
0.080610 
0.074817 
0.073569 
0.082490 
0.095437 
0.095617 
0.133784 
0.138292 
0.139667 
0.139695 
0.139694 
0.139689 
0.139693 
0.140105 
0.139774 
0.086622 
0.086622 
0.089038 
0.077179 
0.079159 
0.072465 
0.084345 
0.092656 
0.093083 
0.084037 
0.098826 
0.101847 
0.085968 
0.086444 
0.074619 
0.064825 
0.094138 
0.124406 
0.086607 
0.131576 
0.102571 
0.084703 
0.076503 
0.084191 
0.084191 
0.086793 
0.075696 
0.084714 
0.090949 
0.084009 
0.076569 
0.086383 
0.098391 
0.110757 
0.093222 
0.143196 
0.101090 
0.091038 
0.150913 
0.178131 
0.206980 
SCALARS DENSITY float 
LOOKUP_TABLE default 
20.944963 
471471288583381.875000 
34.592338 
31.825675 
447671533741370249998450867037532208986732413134569472.000000 
15.874973 
16.053930 
64801090105397899703707474368271062880517039438430208.000000 
25.550191 
64.475891 
20326653821.230129 
21.275513 
19380185859057331092027299525262959443968.000000 
19.127037 
54.158486 
821784196322641564450317926400.000000 
24.078913 
23.640727 
8664751174688014968142357017545753115144567608697458832961169260544.000000 
13.637208 
70332.498678 
42.680083 
21.077622 
98276437054395285504.000000 
37.800616 
152.556649 
1710689681432039249792194702426660405248.000000 
24.959650 
14.731764 
445741606975584872141381474766375863411230888824180765097984.000000 
14.987717 
59.106448 
12179.110785 
21.618390 
756323848841187348093593119159751903849849290752.000000 
27.585533 
73.693420 
10183448484039598080.000000 
23.416316 
29.955623 
1746545433157945861712683282304636591210187403763811932737213447536640.000000 
91.612975 
111463253016.446732 
41.634304 
20.713664 
24.053900 
22.140481 
107330714114380876182455929454723072.000000 
610946703116727372406143802677395456.000000 
13371927.057756 
55687.450565 
16.198397 
30.606316 
28.976010 
23.521665 
4380762451344800429105275461536241598418441469952.000000 
16996051088118498208761511936.000000 
43.581445 
26.884343 
228673050192153.031250 
162217656845838016250584873608569399898093169672192.000000 
12.298829 
7.958439 
36.624342 
16.217626 
15.215329 
13.253305 
18.948798 
17.991487 
26.941809 
23.632236 
28.100120 
27.212957 
26.353418 
22.142683 
24.986107 
28.342427 
30.496019 
31.447340 
28.451326 
15.317870 
53.344576 
28.080029 
23.853863 
28.944611 
38.867925 
34.351313 
22.742654 
10.121090 
34453.606426 
470321563.698862 
22.886740 
131462522528606432.000000 
7552624608406016000.000000 
132.532902 
2806234191133173526560768.000000 
8442055511752246820864.000000 
23602648078.130108 
23412508262675737396471922688.000000 
6332556755187058708840448.000000 
11492281714699.824219 
6050323632123304001753843761152.000000 
1626772280118576414720.000000 
635009161692305.125000 
831463237189322376478720.000000 
139033916367494.312500 
23030953517468.234375 
97990985628.068649 
1567.426022 
9359282.717517 
31.294954 
32.052273 
73.686506 
22.143132 
24.781671 
24.337262 
32.172661 
13.277628 
11.398609 
26.605757 
24.384034 
34.648402 
24.921497 
26.418980 
25.707584 
17.995903 
18.305579 
24.187953 
14.868897 
18.163044 
14.897228 
17.315009 
25.940017 
23.820453 
25.690750 
28.477083 
87644804851.037460 
24.499629 
19.241289 
173770673.947015 
26.413116 
21.203362 
225.407625 
28.578169 
24.425362 
28.637523 
22.096887 
25.975530 
15.954135 
20.656080 
17.168483 
12.050231 
38.764898 
20.928698 
21.365220 
39.617432 
62.249224 
16.783402 
10.998976 
52.387188 
11.502296 
28.180366 
25.303072 
21.020711 
24.052814 
5.274261 
25.092204 
15.091350 
81.349477 
39.678653 
18.719472 
459.829867 
36.354015 
21.165544 
27.269555 
46.478795 
13.526119 
40.919571 
31.078379 
23.442944 
27.374869 
23.185018 
61.057841 
17.761615 
SCALARS ELEM_i float 
LOOKUP_TABLE default 
203 
220 
161 
222 
180 
183 
202 
200 
162 
221 
160 
203 
200 
161 
221 
180 
183 
222 
180 
162 
220 
161 
203 
220 
161 
221 
180 
183 
222 
200 
162 
221 
160 
203 
200 
162 
221 
160 
183 
222 
180 
162 
220 
161 
203 
162 
183 
180 
200 
220 
160 
222 
222 
162 
183 
180 
200 
221 
161 
160 
200 
202 
221 
221 
182 
161 
202 
202 
202 
202 
202 
202 
202 
202 
202 
202 
202 
222 
222 
202 
221 
221 
202 
221 
221 
221 
221 
221 
221 
220 
200 
201 
200 
200 
201 
200 
200 
200 
200 
180 
200 
180 
180 
180 
180 
180 
180 
180 
180 
180 
161 
161 
181 
161 
161 
181 
161 
161 
161 
162 
162 
161 
162 
182 
182 
182 
182 
182 
182 
182 
182 
202 
182 
182 
202 
201 
200 
181 
181 
180 
182 
201 
200 
202 
182 
202 
201 
201 
201 
201 
201 
201 
201 
201 
201 
201 
201 
201 
201 
201 
201 
182 
182 
201 
181 
181 
181 
181 
181 
181 
181 
180 
181 
181 
181 
181 
181 
182 
181 
181 
182 
182 
201 
181 
VECTORS VELOCITY float 
-0.663329 -0.124441 0.000000 
-2.633971 -51.507782 0.000000 
-0.476394 0.012094 0.000000 
-0.479510 -1.186641 0.000000 
1.480462 -144.355091 0.000000 
-0.200521 -0.413279 0.000000 
0.306363 -0.893364 0.000000 
-2.362895 -167.860510 0.000000 
-0.140782 -0.168504 0.000000 
0.571075 2.079440 0.000000 
1.045038 -23.378271 0.000000 
0.637340 -1.677378 0.000000 
0.629651 -109.763248 0.000000 
-0.748739 -3.351077 0.000000 
0.580744 -0.811899 0.000000 
-1.196585 -72.414184 0.000000 
-0.241707 -0.496691 0.000000 
-1.628415 1.226398 0.000000 
1.726190 -183.701103 0.000000 
0.524702 1.155420 0.000000 
-0.032202 -1.034687 0.000000 
0.751549 4.011156 0.000000 
0.071474 -1.296103 0.000000 
-0.452224 -69.118093 0.000000 
-0.716380 -1.061638 0.000000 
0.630108 -3.029534 0.000000 
-0.679097 -99.893243 0.000000 
-0.608271 -0.852462 0.000000 
-1.270329 0.949811 0.000000 
-1.764468 -173.921577 0.000000 
0.346428 1.219342 0.000000 
0.331659 3.396630 0.000000 
0.561787 0.842571 0.000000 
1.201403 -1.689929 0.000000 
-1.788913 -149.940865 0.000000 
-0.463343 -1.439917 0.000000 
0.957002 -0.080018 0.000000 
1.943162 -61.980264 0.000000 
-0.588417 0.067155 0.000000 
-1.264743 0.135402 0.000000 
2.520584 -174.320978 0.000000 
0.269460 0.239914 0.000000 
-1.724499 -28.774111 0.000000 
0.440036 2.595425 0.000000 
-0.060273 -0.061793 0.000000 
0.070333 0.295659 0.000000 
-0.259260 0.481316 0.000000 
-0.731423 -78.274394 0.000000 
0.430395 -89.900494 0.000000 
-0.413190 -6.445877 0.000000 
0.248492 0.174118 0.000000 
-0.091062 -0.508215 0.000000 
-1.093779 0.281752 0.000000 
-0.663282 -2.502162 0.000000 
-0.505917 -0.065562 0.000000 
0.493501 -107.321756 0.000000 
1.324946 -52.644829 0.000000 
0.072795 4.877696 0.000000 
0.093692 1.825722 0.000000 
0.799461 -25.173722 0.000000 
-0.103814 -101.532695 0.000000 
0.299605 -0.543108 0.000000 
-0.189267 -1.306938 0.000000 
0.630068 1.163788 0.000000 
-0.009319 0.136059 0.000000 
-0.360711 -1.303132 0.000000 
0.135994 0.427238 0.000000 
0.134198 -0.232891 0.000000 
0.168205 -0.423123 0.000000 
0.170213 -0.576320 0.000000 
0.268658 -0.712456 0.000000 
0.222161 -0.716418 0.000000 
0.120078 -0.557123 0.000000 
0.326968 -0.813292 0.000000 
0.118790 -0.781964 0.000000 
0.060540 -0.238385 0.000000 
0.249310 -0.686202 0.000000 
-0.365202 -0.417490 0.000000 
0.156268 -1.137932 0.000000 
0.166458 -0.681765 0.000000 
-0.084319 -1.025212 0.000000 
0.200431 -0.173399 0.000000 
0.169202 -0.596419 0.000000 
0.296513 1.358523 0.000000 
0.008728 3.329220 0.000000 
-0.084400 0.108005 0.000000 
-0.000771 5.131967 0.000000 
-0.302444 7.689893 0.000000 
-0.358042 2.571798 0.000000 
-0.316331 4.337825 0.000000 
-0.144815 1.975484 0.000000 
-0.125440 7.226074 0.000000 
0.385451 -17.012372 0.000000 
0.287423 -16.190800 0.000000 
-0.246421 9.183585 0.000000 
0.594000 -38.323273 0.000000 
0.223711 -25.769961 0.000000 
-0.071036 0.412760 0.000000 
0.053237 -38.638393 0.000000 
-0.191822 -25.034880 0.000000 
-0.011564 -3.812350 0.000000 
-0.402354 -42.857996 0.000000 
-0.425193 -22.355112 0.000000 
-0.079887 -5.405689 0.000000 
-0.649773 -29.467322 0.000000 
-0.164192 -6.576620 0.000000 
-0.083693 -3.614861 0.000000 
-0.020327 -2.198965 0.000000 
-0.104819 8.341739 0.000000 
0.041369 5.901259 0.000000 
0.231459 7.388875 0.000000 
0.074144 4.976635 0.000000 
-0.087368 9.460353 0.000000 
0.096473 2.549438 0.000000 
-0.110339 0.657937 0.000000 
-0.095245 5.171397 0.000000 
-0.317880 -0.888308 0.000000 
0.012978 -1.335362 0.000000 
0.162833 2.269170 0.000000 
-0.314754 -1.865426 0.000000 
0.072069 -0.761455 0.000000 
-0.033735 -0.973937 0.000000 
0.060189 -0.328262 0.000000 
-0.010670 -0.449600 0.000000 
0.164819 -0.870398 0.000000 
0.060276 -0.128461 0.000000 
0.062621 -0.056030 0.000000 
0.076674 -0.597602 0.000000 
0.006570 0.460221 0.000000 
0.046508 0.437508 0.000000 
0.010042 0.815166 0.000000 
0.060741 0.521485 0.000000 
0.018107 -0.494688 0.000000 
0.043371 -0.201459 0.000000 
0.163655 -0.761012 0.000000 
0.177614 -0.865334 0.000000 
-0.060296 1.987116 0.000000 
-0.161679 7.008276 0.000000 
0.093874 0.558048 0.000000 
0.025444 5.441315 0.000000 
0.152644 -0.976885 0.000000 
-0.241302 3.784966 0.000000 
-0.194525 9.052097 0.000000 
0.123246 -1.152035 0.000000 
0.122928 -0.944777 0.000000 
0.130346 -1.035608 0.000000 
0.171709 -1.237979 0.000000 
0.173958 -0.967588 0.000000 
-0.059872 0.356855 0.000000 
0.149908 -1.195309 0.000000 
-0.220195 2.412832 0.000000 
0.017300 0.167370 0.000000 
-0.086288 3.887864 0.000000 
0.131532 -1.701366 0.000000 
-0.061314 7.100765 0.000000 
-0.072742 2.418755 0.000000 
-0.013152 3.068270 0.000000 
-0.010883 0.873149 0.000000 
0.072464 0.445928 0.000000 
0.055496 1.363447 0.000000 
0.097497 -1.267420 0.000000 
0.151083 -1.735144 0.000000 
0.058588 -0.543495 0.000000 
-0.029538 6.796320 0.000000 
0.104442 -1.808895 0.000000 
0.082046 -0.293133 0.000000 
0.138042 0.829272 0.000000 
0.037631 -1.156761 0.000000 
0.087794 1.554366 0.000000 
0.000792 4.397495 0.000000 
-0.003898 8.511512 0.000000 
-0.015141 9.188873 0.000000 
-0.035998 4.735160 0.000000 
-0.081825 7.515537 0.000000 
-0.114001 6.004288 0.000000 
0.087334 2.112239 0.000000 
-0.009865 -0.873088 0.000000 
0.137271 -1.830319 0.000000 
0.079890 2.605916 0.000000 
0.074617 -1.377389 0.000000 
0.140651 -1.284267 0.000000 
0.074760 -0.634788 0.000000 
-0.031283 9.268690 0.000000 
0.122584 0.749200 0.000000 
TENSORS STRESS float 
-4.293030 0.584008 0.000000 
0.000000 -3.548056 0.000000 
0.000000 0.000000 0.000000 

0.000000 0.000000 0.000000 
0.000000 -0.000000 0.000000 
0.000000 0.000000 0.000000 

0.653378 -1.026911 0.000000 
0.000000 0.011903 0.000000 
0.000000 0.000000 0.000000 

-1.964649 1.391870 0.000000 
0.000000 -1.464689 0.000000 
0.000000 0.000000 0.000000 

-0.000000 -0.000000 0.000000 
0.000000 -0.000000 0.000000 
0.000000 0.000000 0.000000 

1.965904 -9.785549 0.000000 
0.000000 3.959601 0.000000 
0.000000 0.000000 0.000000 

1.827221 -0.643607 0.000000 
0.000000 2.832232 0.000000 
0.000000 0.000000 0.000000 

-0.000000 0.000000 0.000000 
0.000000 -0.000000 0.000000 
0.000000 0.000000 0.000000 

-0.536773 -0.810586 0.000000 
0.000000 -1.237962 0.000000 
0.000000 0.000000 0.000000 

0.386457 1.005474 0.000000 
0.000000 -1.951615 0.000000 
0.000000 0.000000 0.000000 

-0.000000 -0.000000 0.000000 
0.000000 -0.000000 0.000000 
0.000000 0.000000 0.000000 

-2.147121 4.774469 0.000000 
0.000000 -2.265578 0.000000 
0.000000 0.000000 0.000000 

-0.000000 0.000000 0.000000 
0.000000 -0.000000 0.000000 
0.000000 0.000000 0.000000 

1.929765 3.810657 0.000000 
0.000000 1.336570 0.000000 
0.000000 0.000000 0.000000 

-1.191048 1.476553 0.000000 
0.000000 -1.789499 0.000000 
0.000000 0.000000 0.000000 

-0.000000 -0.000000 0.000000 
0.000000 -0.000000 0.000000 
0.000000 0.000000 0.000000 

-3.203709 -2.382986 0.000000 
0.000000 -2.234556 0.000000 
0.000000 0.000000 0.000000 

-3.337089 0.757296 0.000000 
0.000000 -1.284883 0.000000 
0.000000 0.000000 0.000000 

-0.000000 -0.000000 0.000000 
0.000000 -0.000000 0.000000 
0.000000 0.000000 0.000000 

0.146459 -0.033701 0.000000 
0.000000 2.759733 0.000000 
0.000000 0.000000 0.000000 

0.001897 0.011205 0.000000 
0.000000 -0.012204 0.000000 
0.000000 0.000000 0.000000 

0.870707 -1.673802 0.000000 
0.000000 -0.789647 0.000000 
0.000000 0.000000 0.000000 

-3.151611 3.506864 0.000000 
0.000000 -2.827809 0.000000 
0.000000 0.000000 0.000000 

0.000000 0.000000 0.000000 
0.000000 -0.000000 0.000000 
0.000000 0.000000 0.000000 

0.150295 -0.990367 0.000000 
0.000000 0.110963 0.000000 
0.000000 0.000000 0.000000 

-1.110328 1.007960 0.000000 
0.000000 -2.030742 0.000000 
0.000000 0.000000 0.000000 

-0.000000 -0.000000 0.000000 
0.000000 -0.000000 0.000000 
0.000000 0.000000 0.000000 

-1.126459 -5.781244 0.000000 
0.000000 -0.900184 0.000000 
0.000000 0.000000 0.000000 

-4.643047 -0.662617 0.000000 
0.000000 0.613942 0.000000 
0.000000 0.000000 0.000000 

-0.000000 0.000000 0.000000 
0.000000 -0.000000 0.000000 
0.000000 0.000000 0.000000 

0.172954 -0.210530 0.000000 
0.000000 1.861116 0.000000 
0.000000 0.000000 0.000000 

0.973294 0.949213 0.000000 
0.000000 -1.982289 0.000000 
0.000000 0.000000 0.000000 

-0.010693 -0.049683 0.000000 
0.000000 -0.057391 0.000000 
0.000000 0.000000 0.000000 

-1.166011 6.768071 0.000000 
0.000000 -1.968605 0.000000 
0.000000 0.000000 0.000000 

-0.000000 0.000000 0.000000 
0.000000 -0.000000 0.000000 
0.000000 0.000000 0.000000 

-0.600042 -0.744678 0.000000 
0.000000 -1.702330 0.000000 
0.000000 0.000000 0.000000 

-0.603394 1.228917 0.000000 
0.000000 -1.885474 0.000000 
0.000000 0.000000 0.000000 

-0.000000 -0.000000 0.000000 
0.000000 -0.000000 0.000000 
0.000000 0.000000 0.000000 

-4.578932 0.881642 0.000000 
0.000000 -3.483102 0.000000 
0.000000 0.000000 0.000000 

-2.369905 1.194897 0.000000 
0.000000 -1.527483 0.000000 
0.000000 0.000000 0.000000 

-0.000000 -0.000000 0.000000 
0.000000 -0.000000 0.000000 
0.000000 0.000000 0.000000 

-2.850667 -2.051306 0.000000 
0.000000 -0.813586 0.000000 
0.000000 0.000000 0.000000 

0.000000 0.000000 0.000000 
0.000000 -0.000000 0.000000 
0.000000 0.000000 0.000000 

0.863317 -1.559533 0.000000 
0.000000 -0.717595 0.000000 
0.000000 0.000000 0.000000 

-4.772675 4.857879 0.000000 
0.000000 -5.451387 0.000000 
0.000000 0.000000 0.000000 

-1.132897 -2.145874 0.000000 
0.000000 -1.189814 0.000000 
0.000000 0.000000 0.000000 

-3.730617 -0.837191 0.000000 
0.000000 -3.788248 0.000000 
0.000000 0.000000 0.000000 

-0.000000 -0.000000 0.000000 
0.000000 -0.000000 0.000000 
0.000000 0.000000 0.000000 

-0.000000 0.000000 0.000000 
0.000000 -0.000000 0.000000 
0.000000 0.000000 0.000000 

0.000035 0.000069 0.000000 
0.000000 -0.000183 0.000000 
0.000000 0.000000 0.000000 

-0.003715 -0.014972 0.000000 
0.000000 -0.026528 0.000000 
0.000000 0.000000 0.000000 

-7.605830 0.100297 0.000000 
0.000000 -0.224750 0.000000 
0.000000 0.000000 0.000000 

-5.276675 2.330548 0.000000 
0.000000 -3.374697 0.000000 
0.000000 0.000000 0.000000 

-0.852124 -1.057594 0.000000 
0.000000 -2.675617 0.000000 
0.000000 0.000000 0.000000 

-0.677731 -7.235606 0.000000 
0.000000 -1.498339 0.000000 
0.000000 0.000000 0.000000 

-0.000000 -0.000000 0.000000 
0.000000 -0.000000 0.000000 
0.000000 0.000000 0.000000 

-0.000000 0.000000 0.000000 
0.000000 -0.000000 0.000000 
0.000000 0.000000 0.000000 

2.954988 1.067434 0.000000 
0.000000 -2.947706 0.000000 
0.000000 0.000000 0.000000 

3.175052 -2.464416 0.000000 
0.000000 0.399484 0.000000 
0.000000 0.000000 0.000000 

-0.000000 -0.000000 0.000000 
0.000000 -0.000000 0.000000 
0.000000 0.000000 0.000000 

-0.000000 -0.000000 0.000000 
0.000000 -0.000000 0.000000 
0.000000 0.000000 0.000000 

5.928727 0.415574 0.000000 
0.000000 10.648428 0.000000 
0.000000 0.000000 0.000000 

1.724264 -9.211918 0.000000 
0.000000 23.337953 0.000000 
0.000000 0.000000 0.000000 

0.666734 2.352868 0.000000 
0.000000 -3.765491 0.000000 
0.000000 0.000000 0.000000 

5.243120 5.235037 0.000000 
0.000000 7.123794 0.000000 
0.000000 0.000000 0.000000 

3.795571 1.114863 0.000000 
0.000000 8.989077 0.000000 
0.000000 0.000000 0.000000 

6.114806 0.040045 0.000000 
0.000000 10.569142 0.000000 
0.000000 0.000000 0.000000 

1.381275 -0.937382 0.000000 
0.000000 1.992863 0.000000 
0.000000 0.000000 0.000000 

1.885984 -1.737139 0.000000 
0.000000 2.900012 0.000000 
0.000000 0.000000 0.000000 

-0.397933 0.306275 0.000000 
0.000000 -1.125353 0.000000 
0.000000 0.000000 0.000000 

0.102981 -0.030127 0.000000 
0.000000 0.044688 0.000000 
0.000000 0.000000 0.000000 

-0.493244 0.638299 0.000000 
0.000000 -1.482351 0.000000 
0.000000 0.000000 0.000000 

-0.495438 0.363901 0.000000 
0.000000 -1.421274 0.000000 
0.000000 0.000000 0.000000 

-0.133233 0.294280 0.000000 
0.000000 -0.475622 0.000000 
0.000000 0.000000 0.000000 

-0.066558 0.328413 0.000000 
0.000000 -0.857418 0.000000 
0.000000 0.000000 0.000000 

-0.256963 0.254755 0.000000 
0.000000 -0.878589 0.000000 
0.000000 0.000000 0.000000 

-0.358345 0.457222 0.000000 
0.000000 -1.135895 0.000000 
0.000000 0.000000 0.000000 

-5.121950 2.284651 0.000000 
0.000000 -3.538232 0.000000 
0.000000 0.000000 0.000000 

-3.414819 2.219119 0.000000 
0.000000 -2.882164 0.000000 
0.000000 0.000000 0.000000 

-0.488158 0.443117 0.000000 
0.000000 -1.504566 0.000000 
0.000000 0.000000 0.000000 

-3.096168 -1.933481 0.000000 
0.000000 3.588455 0.000000 
0.000000 0.000000 0.000000 

-1.644451 1.245083 0.000000 
0.000000 -2.721438 0.000000 
0.000000 0.000000 0.000000 

-0.608005 0.818757 0.000000 
0.000000 -1.904083 0.000000 
0.000000 0.000000 0.000000 

1.721500 1.655667 0.000000 
0.000000 -2.207164 0.000000 
0.000000 0.000000 0.000000 

2.839162 0.684470 0.000000 
0.000000 -2.450579 0.000000 
0.000000 0.000000 0.000000 

-1.712928 0.431034 0.000000 
0.000000 -2.395649 0.000000 
0.000000 0.000000 0.000000 

3.586444 0.781923 0.000000 
0.000000 -2.585836 0.000000 
0.000000 0.000000 0.000000 

8.226628 -1.276741 0.000000 
0.000000 -0.882186 0.000000 
0.000000 0.000000 0.000000 

11.798838 -6.633133 0.000000 
0.000000 10.788703 0.000000 
0.000000 0.000000 0.000000 

0.010201 0.006145 0.000000 
0.000000 -0.042705 0.000000 
0.000000 0.000000 0.000000 

-0.000002 0.000000 0.000000 
0.000000 -0.000006 0.000000 
0.000000 0.000000 0.000000 

-1.350240 1.994376 0.000000 
0.000000 -3.818524 0.000000 
0.000000 0.000000 0.000000 

-0.000000 0.000000 0.000000 
0.000000 -0.000000 0.000000 
0.000000 0.000000 0.000000 

-0.000000 0.000000 0.000000 
0.000000 -0.000000 0.000000 
0.000000 0.000000 0.000000 

-1.341347 -1.431306 0.000000 
0.000000 -3.525982 0.000000 
0.000000 0.000000 0.000000 

-0.000000 0.000000 0.000000 
0.000000 -0.000000 0.000000 
0.000000 0.000000 0.000000 

-0.000000 0.000000 0.000000 
0.000000 -0.000000 0.000000 
0.000000 0.000000 0.000000 

-0.000000 0.000000 0.000000 
0.000000 -0.000000 0.000000 
0.000000 0.000000 0.000000 

-0.000000 -0.000000 0.000000 
0.000000 -0.000000 0.000000 
0.000000 0.000000 0.000000 

-0.000000 -0.000000 0.000000 
0.000000 -0.000000 0.000000 
0.000000 0.000000 0.000000 

-0.000000 0.000000 0.000000 
0.000000 -0.000000 0.000000 
0.000000 0.000000 0.000000 

-0.000000 -0.000000 0.000000 
0.000000 -0.000000 0.000000 
0.000000 0.000000 0.000000 

-0.000000 -0.000000 0.000000 
0.000000 -0.000000 0.000000 
0.000000 0.000000 0.000000 

-0.000000 -0.000000 0.000000 
0.000000 -0.000000 0.000000 
0.000000 0.000000 0.000000 

-0.000000 -0.000000 0.000000 
0.000000 -0.000000 0.000000 
0.000000 0.000000 0.000000 

-0.000000 -0.000000 0.000000 
0.000000 -0.000000 0.000000 
0.000000 0.000000 0.000000 

-0.000000 -0.000000 0.000000 
0.000000 -0.000000 0.000000 
0.000000 0.000000 0.000000 

-0.000000 -0.000000 0.000000 
0.000000 -0.000000 0.000000 
0.000000 0.000000 0.000000 

-0.331203 -0.047823 0.000000 
0.000000 -0.522064 0.000000 
0.000000 0.000000 0.000000 

-0.000105 -0.000007 0.000000 
0.000000 -0.000232 0.000000 
0.000000 0.000000 0.000000 

2.333349 -2.938885 0.000000 
0.000000 -1.973264 0.000000 
0.000000 0.000000 0.000000 

1.559193 -2.268105 0.000000 
0.000000 -1.921405 0.000000 
0.000000 0.000000 0.000000 

-3.344312 1.874433 0.000000 
0.000000 -5.999821 0.000000 
0.000000 0.000000 0.000000 

3.700201 -1.875174 0.000000 
0.000000 0.486198 0.000000 
0.000000 0.000000 0.000000 

1.090698 -0.499817 0.000000 
0.000000 -0.189857 0.000000 
0.000000 0.000000 0.000000 

-4.055610 2.269169 0.000000 
0.000000 -4.766987 0.000000 
0.000000 0.000000 0.000000 

-0.218502 -0.811505 0.000000 
0.000000 -0.346010 0.000000 
0.000000 0.000000 0.000000 

4.192247 9.297023 0.000000 
0.000000 7.435096 0.000000 
0.000000 0.000000 0.000000 

7.593256 2.728841 0.000000 
0.000000 6.893439 0.000000 
0.000000 0.000000 0.000000 

-0.275925 -0.532021 0.000000 
0.000000 -1.565038 0.000000 
0.000000 0.000000 0.000000 

-0.089995 -0.392641 0.000000 
0.000000 -0.358015 0.000000 
0.000000 0.000000 0.000000 

-1.080461 0.815592 0.000000 
0.000000 -2.469066 0.000000 
0.000000 0.000000 0.000000 

-1.051223 -1.877271 0.000000 
0.000000 -0.515111 0.000000 
0.000000 0.000000 0.000000 

0.737662 0.456263 0.000000 
0.000000 0.483655 0.000000 
0.000000 0.000000 0.000000 

0.586616 0.018519 0.000000 
0.000000 -0.032898 0.000000 
0.000000 0.000000 0.000000 

3.505330 4.334151 0.000000 
0.000000 5.169340 0.000000 
0.000000 0.000000 0.000000 

2.387920 3.000773 0.000000 
0.000000 3.180696 0.000000 
0.000000 0.000000 0.000000 

0.782521 0.589347 0.000000 
0.000000 0.419802 0.000000 
0.000000 0.000000 0.000000 

4.304110 2.788344 0.000000 
0.000000 5.773466 0.000000 
0.000000 0.000000 0.000000 

2.258071 2.150640 0.000000 
0.000000 2.251932 0.000000 
0.000000 0.000000 0.000000 

3.533293 1.815962 0.000000 
0.000000 4.494241 0.000000 
0.000000 0.000000 0.000000 

1.704578 0.161798 0.000000 
0.000000 2.324866 0.000000 
0.000000 0.000000 0.000000 

0.528980 0.539250 0.000000 
0.000000 -0.111509 0.000000 
0.000000 0.000000 0.000000 

0.643486 1.216615 0.000000 
0.000000 -0.168098 0.000000 
0.000000 0.000000 0.000000 

-0.485671 0.556648 0.000000 
0.000000 -1.864454 0.000000 
0.000000 0.000000 0.000000 

-1.496139 -1.396188 0.000000 
0.000000 -3.878201 0.000000 
0.000000 0.000000 0.000000 

-0.000000 -0.000000 0.000000 
0.000000 -0.000000 0.000000 
0.000000 0.000000 0.000000 

-7.168441 -0.469585 0.000000 
0.000000 -8.701745 0.000000 
0.000000 0.000000 0.000000 

-3.919965 9.116417 0.000000 
0.000000 -3.702812 0.000000 
0.000000 0.000000 0.000000 

-0.000011 -0.000001 0.000000 
0.000000 -0.000024 0.000000 
0.000000 0.000000 0.000000 

0.606577 0.312719 0.000000 
0.000000 -0.631853 0.000000 
0.000000 0.000000 0.000000 

-2.470051 -1.916765 0.000000 
0.000000 -3.355901 0.000000 
0.000000 0.000000 0.000000 

-1.178588 -0.750707 0.000000 
0.000000 -3.046427 0.000000 
0.000000 0.000000 0.000000 

-0.619706 0.228246 0.000000 
0.000000 -2.061922 0.000000 
0.000000 0.000000 0.000000 

0.096135 0.567275 0.000000 
0.000000 -1.267626 0.000000 
0.000000 0.000000 0.000000 

-0.609760 0.341099 0.000000 
0.000000 -1.980998 0.000000 
0.000000 0.000000 0.000000 

0.155210 -0.223942 0.000000 
0.000000 -0.318924 0.000000 
0.000000 0.000000 0.000000 

-0.656108 -0.583290 0.000000 
0.000000 -1.791361 0.000000 
0.000000 0.000000 0.000000 

0.544200 -3.567982 0.000000 
0.000000 0.985571 0.000000 
0.000000 0.000000 0.000000 

0.087166 -0.711137 0.000000 
0.000000 -0.180580 0.000000 
0.000000 0.000000 0.000000 

-0.696624 -4.118731 0.000000 
0.000000 -0.021008 0.000000 
0.000000 0.000000 0.000000 

3.212278 -4.917459 0.000000 
0.000000 6.727217 0.000000 
0.000000 0.000000 0.000000 

-1.628803 -0.173086 0.000000 
0.000000 -3.171706 0.000000 
0.000000 0.000000 0.000000 

0.558845 -0.575113 0.000000 
0.000000 0.344210 0.000000 
0.000000 0.000000 0.000000 

-1.118198 0.830409 0.000000 
0.000000 -3.819928 0.000000 
0.000000 0.000000 0.000000 

-1.547661 -0.972950 0.000000 
0.000000 -2.874501 0.000000 
0.000000 0.000000 0.000000 

-1.420106 -0.276045 0.000000 
0.000000 -2.917331 0.000000 
0.000000 0.000000 0.000000 

0.441933 -3.075981 0.000000 
0.000000 1.233561 0.000000 
0.000000 0.000000 0.000000 

3.188798 -3.223481 0.000000 
0.000000 7.088573 0.000000 
0.000000 0.000000 0.000000 

-1.447492 -0.792527 0.000000 
0.000000 -2.895743 0.000000 
0.000000 0.000000 0.000000 

6.177634 -2.052111 0.000000 
0.000000 13.192292 0.000000 
0.000000 0.000000 0.000000 

-0.295159 0.305602 0.000000 
0.000000 -2.014342 0.000000 
0.000000 0.000000 0.000000 

0.349677 0.831258 0.000000 
0.000000 -1.128133 0.000000 
0.000000 0.000000 0.000000 

-0.908905 -0.124212 0.000000 
0.000000 -3.343995 0.000000 
0.000000 0.000000 0.000000 

-0.361248 -0.900115 0.000000 
0.000000 -0.738455 0.000000 
0.000000 0.000000 0.000000 

13.765590 1.599832 0.000000 
0.000000 38.480375 0.000000 
0.000000 0.000000 0.000000 

-2.016055 2.116193 0.000000 
0.000000 -1.689189 0.000000 
0.000000 0.000000 0.000000 

0.768668 -0.086515 0.000000 
0.000000 3.296447 0.000000 
0.000000 0.000000 0.000000 

-1.784661 0.278158 0.000000 
0.000000 -2.769874 0.000000 
0.000000 0.000000 0.000000 

-2.660260 0.008033 0.000000 
0.000000 -3.384299 0.000000 
0.000000 0.000000 0.000000 

-4.383231 0.479807 0.000000 
0.000000 -4.159966 0.000000 
0.000000 0.000000 0.000000 

-0.718129 -0.127129 0.000000 
0.000000 -1.322726 0.000000 
0.000000 0.000000 0.000000 

-3.176822 0.008598 0.000000 
0.000000 -4.002375 0.000000 
0.000000 0.000000 0.000000 

-3.976440 0.016445 0.000000 
0.000000 -4.300865 0.000000 
0.000000 0.000000 0.000000 

-4.019164 -0.143685 0.000000 
0.000000 -4.800607 0.000000 
0.000000 0.000000 0.000000 

-2.855279 1.028382 0.000000 
0.000000 -3.886404 0.000000 
0.000000 0.000000 0.000000 

1.108959 1.191230 0.000000 
0.000000 5.469865 0.000000 
0.000000 0.000000 0.000000 

-1.450316 2.140179 0.000000 
0.000000 -4.230510 0.000000 
0.000000 0.000000 0.000000 

-5.187775 2.924710 0.000000 
0.000000 -5.963562 0.000000 
0.000000 0.000000 0.000000 

0.016883 -0.908741 0.000000 
0.000000 -1.292151 0.000000 
0.000000 0.000000 0.000000 

0.037927 0.301793 0.000000 
0.000000 -1.263973 0.000000 
0.000000 0.000000 0.000000 

1.131756 1.044619 0.000000 
0.000000 0.034062 0.000000 
0.000000 0.000000 0.000000 

-3.050457 -1.175502 0.000000 
0.000000 -8.266741 0.000000 
0.000000 0.000000 0.000000 

-4.927828 11.932945 0.000000 
0.000000 -2.233019 0.000000 
0.000000 0.000000 0.000000 

TENSORS STRAIN float 
-0.010310 0.003103 0.000000 
0.000000 -0.006352 0.000000 
0.000000 0.000000 0.000000 

0.345407 0.129593 0.000000 
0.000000 -0.517117 0.000000 
0.000000 0.000000 0.000000 

0.003960 -0.008962 0.000000 
0.000000 -0.001638 0.000000 
0.000000 0.000000 0.000000 

-0.008383 0.012468 0.000000 
0.000000 -0.003905 0.000000 
0.000000 0.000000 0.000000 

0.047677 -0.072488 0.000000 
0.000000 -0.868889 0.000000 
0.000000 0.000000 0.000000 

0.000754 -0.039190 0.000000 
0.000000 0.008738 0.000000 
0.000000 0.000000 0.000000 

0.001695 -0.002541 0.000000 
0.000000 0.005664 0.000000 
0.000000 0.000000 0.000000 

0.112386 0.026428 0.000000 
0.000000 -0.918628 0.000000 
0.000000 0.000000 0.000000 

-0.000028 -0.005225 0.000000 
0.000000 -0.004548 0.000000 
0.000000 0.000000 0.000000 

0.014108 0.016571 0.000000 
0.000000 -0.024426 0.000000 
0.000000 0.000000 0.000000 

0.126723 -0.112790 0.000000 
0.000000 -0.336094 0.000000 
0.000000 0.000000 0.000000 

-0.004805 0.027862 0.000000 
0.000000 -0.005496 0.000000 
0.000000 0.000000 0.000000 

0.067176 0.088505 0.000000 
0.000000 -0.784773 0.000000 
0.000000 0.000000 0.000000 

0.004469 0.017927 0.000000 
0.000000 0.001678 0.000000 
0.000000 0.000000 0.000000 

-0.004064 0.020212 0.000000 
0.000000 -0.012256 0.000000 
0.000000 0.000000 0.000000 

0.049898 -0.105789 0.000000 
0.000000 -0.662833 0.000000 
0.000000 0.000000 0.000000 

-0.009311 -0.014113 0.000000 
0.000000 -0.003572 0.000000 
0.000000 0.000000 0.000000 

-0.011689 0.004538 0.000000 
0.000000 0.000610 0.000000 
0.000000 0.000000 0.000000 

0.078029 -0.023775 0.000000 
0.000000 -0.961501 0.000000 
0.000000 0.000000 0.000000 

-0.002769 -0.000129 0.000000 
0.000000 0.007207 0.000000 
0.000000 0.000000 0.000000 

0.086308 0.193835 0.000000 
0.000000 -0.157624 0.000000 
0.000000 0.000000 0.000000 

0.008885 -0.017571 0.000000 
0.000000 -0.008545 0.000000 
0.000000 0.000000 0.000000 

-0.007351 0.018986 0.000000 
0.000000 -0.005598 0.000000 
0.000000 0.000000 0.000000 

0.406148 0.101481 0.000000 
0.000000 -0.632774 0.000000 
0.000000 0.000000 0.000000 

0.000667 -0.009187 0.000000 
0.000000 0.000302 0.000000 
0.000000 0.000000 0.000000 

-0.006773 0.040633 0.000000 
0.000000 -0.043877 0.000000 
0.000000 0.000000 0.000000 

0.020215 -0.099388 0.000000 
0.000000 -0.737195 0.000000 
0.000000 0.000000 0.000000 

-0.003176 -0.035410 0.000000 
0.000000 -0.001790 0.000000 
0.000000 0.000000 0.000000 

-0.012412 -0.002395 0.000000 
0.000000 0.006587 0.000000 
0.000000 0.000000 0.000000 

0.120204 0.000461 0.000000 
0.000000 -0.962717 0.000000 
0.000000 0.000000 0.000000 

-0.001714 -0.000825 0.000000 
0.000000 0.004903 0.000000 
0.000000 0.000000 0.000000 

0.018821 0.014001 0.000000 
0.000000 -0.024774 0.000000 
0.000000 0.000000 0.000000 

0.027546 -0.140627 0.000000 
0.000000 -0.104629 0.000000 
0.000000 0.000000 0.000000 

-0.001257 0.037698 0.000000 
0.000000 -0.005727 0.000000 
0.000000 0.000000 0.000000 

0.098376 0.050609 0.000000 
0.000000 -0.873677 0.000000 
0.000000 0.000000 0.000000 

0.000611 -0.005020 0.000000 
0.000000 -0.006819 0.000000 
0.000000 0.000000 0.000000 

0.002596 0.022265 0.000000 
0.000000 -0.020632 0.000000 
0.000000 0.000000 0.000000 

0.219777 -0.094899 0.000000 
0.000000 -0.553105 0.000000 
0.000000 0.000000 0.000000 

-0.012453 0.005082 0.000000 
0.000000 -0.006136 0.000000 
0.000000 0.000000 0.000000 

-0.009450 0.009404 0.000000 
0.000000 -0.002820 0.000000 
0.000000 0.000000 0.000000 

0.069320 -0.041981 0.000000 
0.000000 -0.960068 0.000000 
0.000000 0.000000 0.000000 

-0.042168 -0.049389 0.000000 
0.000000 0.006879 0.000000 
0.000000 0.000000 0.000000 

0.254812 0.154284 0.000000 
0.000000 -0.403871 0.000000 
0.000000 0.000000 0.000000 

0.007930 -0.015090 0.000000 
0.000000 -0.007366 0.000000 
0.000000 0.000000 0.000000 

-0.004364 0.012432 0.000000 
0.000000 -0.006101 0.000000 
0.000000 0.000000 0.000000 

-0.001303 -0.006413 0.000000 
0.000000 -0.001473 0.000000 
0.000000 0.000000 0.000000 

-0.005169 -0.002934 0.000000 
0.000000 -0.005371 0.000000 
0.000000 0.000000 0.000000 

0.017070 -0.083483 0.000000 
0.000000 -0.693793 0.000000 
0.000000 0.000000 0.000000 

0.062631 0.057579 0.000000 
0.000000 -0.737524 0.000000 
0.000000 0.000000 0.000000 

0.146287 0.126612 0.000000 
0.000000 -0.255280 0.000000 
0.000000 0.000000 0.000000 

0.040929 -0.114365 0.000000 
0.000000 -0.133339 0.000000 
0.000000 0.000000 0.000000 

-0.013278 0.000253 0.000000 
0.000000 0.005366 0.000000 
0.000000 0.000000 0.000000 

-0.010253 0.008912 0.000000 
0.000000 -0.002980 0.000000 
0.000000 0.000000 0.000000 

0.000935 -0.004795 0.000000 
0.000000 -0.007332 0.000000 
0.000000 0.000000 0.000000 

-0.000094 -0.027209 0.000000 
0.000000 -0.003179 0.000000 
0.000000 0.000000 0.000000 

0.032505 -0.052552 0.000000 
0.000000 -0.824337 0.000000 
0.000000 0.000000 0.000000 

0.036585 0.093637 0.000000 
0.000000 -0.628370 0.000000 
0.000000 0.000000 0.000000 

0.021051 0.007610 0.000000 
0.000000 -0.021031 0.000000 
0.000000 0.000000 0.000000 

0.006800 -0.007970 0.000000 
0.000000 -0.002176 0.000000 
0.000000 0.000000 0.000000 

0.147289 -0.072456 0.000000 
0.000000 -0.433771 0.000000 
0.000000 0.000000 0.000000 

0.081764 -0.019129 0.000000 
0.000000 -0.872961 0.000000 
0.000000 0.000000 0.000000 

0.001641 0.000713 0.000000 
0.000000 0.009743 0.000000 
0.000000 0.000000 0.000000 

-0.005762 -0.009161 0.000000 
0.000000 0.015732 0.000000 
0.000000 0.000000 0.000000 

0.008004 0.011797 0.000000 
0.000000 -0.014218 0.000000 
0.000000 0.000000 0.000000 

0.003096 0.010572 0.000000 
0.000000 0.006894 0.000000 
0.000000 0.000000 0.000000 

-0.000097 0.002712 0.000000 
0.000000 0.012536 0.000000 
0.000000 0.000000 0.000000 

0.001526 0.000055 0.000000 
0.000000 0.007652 0.000000 
0.000000 0.000000 0.000000 

0.000917 -0.002329 0.000000 
0.000000 0.002437 0.000000 
0.000000 0.000000 0.000000 

0.001071 -0.004132 0.000000 
0.000000 0.003483 0.000000 
0.000000 0.000000 0.000000 

0.000235 0.001221 0.000000 
0.000000 -0.002665 0.000000 
0.000000 0.000000 0.000000 

0.000218 -0.000112 0.000000 
0.000000 0.000001 0.000000 
0.000000 0.000000 0.000000 

0.000373 0.002392 0.000000 
0.000000 -0.003334 0.000000 
0.000000 0.000000 0.000000 

0.000324 0.001481 0.000000 
0.000000 -0.003445 0.000000 
0.000000 0.000000 0.000000 

0.000207 0.001231 0.000000 
0.000000 -0.001225 0.000000 
0.000000 0.000000 0.000000 

0.000699 0.001091 0.000000 
0.000000 -0.001927 0.000000 
0.000000 0.000000 0.000000 

0.000314 0.000955 0.000000 
0.000000 -0.002016 0.000000 
0.000000 0.000000 0.000000 

0.000407 0.002067 0.000000 
0.000000 -0.003109 0.000000 
0.000000 0.000000 0.000000 

-0.009285 0.008405 0.000000 
0.000000 -0.003459 0.000000 
0.000000 0.000000 0.000000 

-0.007031 0.010227 0.000000 
0.000000 -0.004576 0.000000 
0.000000 0.000000 0.000000 

0.000478 0.001931 0.000000 
0.000000 -0.003951 0.000000 
0.000000 0.000000 0.000000 

-0.005988 -0.003569 0.000000 
0.000000 0.006352 0.000000 
0.000000 0.000000 0.000000 

-0.002809 0.010452 0.000000 
0.000000 -0.011850 0.000000 
0.000000 0.000000 0.000000 

0.000558 0.003140 0.000000 
0.000000 -0.004412 0.000000 
0.000000 0.000000 0.000000 

0.006080 0.005391 0.000000 
0.000000 -0.006713 0.000000 
0.000000 0.000000 0.000000 

0.012204 0.003068 0.000000 
0.000000 -0.011508 0.000000 
0.000000 0.000000 0.000000 

-0.002852 0.002560 0.000000 
0.000000 -0.006907 0.000000 
0.000000 0.000000 0.000000 

0.018362 0.004369 0.000000 
0.000000 -0.016125 0.000000 
0.000000 0.000000 0.000000 

0.021950 -0.004653 0.000000 
0.000000 -0.011244 0.000000 
0.000000 0.000000 0.000000 

0.006934 -0.009158 0.000000 
0.000000 0.005540 0.000000 
0.000000 0.000000 0.000000 

0.091267 0.028109 0.000000 
0.000000 -0.150738 0.000000 
0.000000 0.000000 0.000000 

0.006888 0.018969 0.000000 
0.000000 -0.241041 0.000000 
0.000000 0.000000 0.000000 

0.000699 0.006959 0.000000 
0.000000 -0.007913 0.000000 
0.000000 0.000000 0.000000 

0.017663 0.045053 0.000000 
0.000000 -0.438513 0.000000 
0.000000 0.000000 0.000000 

0.018580 0.033864 0.000000 
0.000000 -0.471724 0.000000 
0.000000 0.000000 0.000000 

0.002145 -0.025835 0.000000 
0.000000 -0.037287 0.000000 
0.000000 0.000000 0.000000 

0.034606 0.034004 0.000000 
0.000000 -0.575144 0.000000 
0.000000 0.000000 0.000000 

0.029001 0.007534 0.000000 
0.000000 -0.532118 0.000000 
0.000000 0.000000 0.000000 

0.008289 0.006679 0.000000 
0.000000 -0.285694 0.000000 
0.000000 0.000000 0.000000 

0.042829 -0.013381 0.000000 
0.000000 -0.636145 0.000000 
0.000000 0.000000 0.000000 

0.004170 -0.026940 0.000000 
0.000000 -0.560580 0.000000 
0.000000 0.000000 0.000000 

0.011825 0.001140 0.000000 
0.000000 -0.351540 0.000000 
0.000000 0.000000 0.000000 

0.009931 -0.044159 0.000000 
0.000000 -0.642749 0.000000 
0.000000 0.000000 0.000000 

0.000195 -0.044852 0.000000 
0.000000 -0.500208 0.000000 
0.000000 0.000000 0.000000 

-0.004373 -0.020613 0.000000 
0.000000 -0.380980 0.000000 
0.000000 0.000000 0.000000 

0.001280 -0.062649 0.000000 
0.000000 -0.542147 0.000000 
0.000000 0.000000 0.000000 

-0.004948 -0.035565 0.000000 
0.000000 -0.362685 0.000000 
0.000000 0.000000 0.000000 

-0.005204 -0.021443 0.000000 
0.000000 -0.348433 0.000000 
0.000000 0.000000 0.000000 

-0.005542 -0.024784 0.000000 
0.000000 -0.290311 0.000000 
0.000000 0.000000 0.000000 

-0.018918 -0.012027 0.000000 
0.000000 -0.066917 0.000000 
0.000000 0.000000 0.000000 

-0.006192 -0.010180 0.000000 
0.000000 -0.186264 0.000000 
0.000000 0.000000 0.000000 

0.010051 -0.013274 0.000000 
0.000000 -0.009401 0.000000 
0.000000 0.000000 0.000000 

0.008577 -0.011664 0.000000 
0.000000 -0.009322 0.000000 
0.000000 0.000000 0.000000 

-0.005431 0.018814 0.000000 
0.000000 -0.032085 0.000000 
0.000000 0.000000 0.000000 

0.006900 -0.005294 0.000000 
0.000000 -0.002173 0.000000 
0.000000 0.000000 0.000000 

0.003183 -0.001939 0.000000 
0.000000 -0.001785 0.000000 
0.000000 0.000000 0.000000 

-0.005229 0.008422 0.000000 
0.000000 -0.007869 0.000000 
0.000000 0.000000 0.000000 

-0.000255 -0.004210 0.000000 
0.000000 -0.000917 0.000000 
0.000000 0.000000 0.000000 

0.001500 0.019806 0.000000 
0.000000 0.008408 0.000000 
0.000000 0.000000 0.000000 

0.005042 0.004237 0.000000 
0.000000 0.003955 0.000000 
0.000000 0.000000 0.000000 

0.001161 -0.002235 0.000000 
0.000000 -0.004254 0.000000 
0.000000 0.000000 0.000000 

0.000170 -0.001505 0.000000 
0.000000 -0.000857 0.000000 
0.000000 0.000000 0.000000 

-0.000082 0.004310 0.000000 
0.000000 -0.007420 0.000000 
0.000000 0.000000 0.000000 

-0.001724 -0.005566 0.000000 
0.000000 -0.000134 0.000000 
0.000000 0.000000 0.000000 

0.001419 0.001743 0.000000 
0.000000 0.000448 0.000000 
0.000000 0.000000 0.000000 

0.001473 0.000065 0.000000 
0.000000 -0.000697 0.000000 
0.000000 0.000000 0.000000 

0.001944 0.009334 0.000000 
0.000000 0.005528 0.000000 
0.000000 0.000000 0.000000 

0.002056 0.008601 0.000000 
0.000000 0.004328 0.000000 
0.000000 0.000000 0.000000 

0.001556 0.002174 0.000000 
0.000000 0.000218 0.000000 
0.000000 0.000000 0.000000 

0.003071 0.006686 0.000000 
0.000000 0.006595 0.000000 
0.000000 0.000000 0.000000 

0.002856 0.006787 0.000000 
0.000000 0.002837 0.000000 
0.000000 0.000000 0.000000 

0.002962 0.004780 0.000000 
0.000000 0.005491 0.000000 
0.000000 0.000000 0.000000 

0.001353 0.000442 0.000000 
0.000000 0.003045 0.000000 
0.000000 0.000000 0.000000 

0.001427 0.001905 0.000000 
0.000000 -0.000837 0.000000 
0.000000 0.000000 0.000000 

0.001622 0.003940 0.000000 
0.000000 -0.001006 0.000000 
0.000000 0.000000 0.000000 

0.000548 0.001390 0.000000 
0.000000 -0.002894 0.000000 
0.000000 0.000000 0.000000 

0.000311 -0.003738 0.000000 
0.000000 -0.006066 0.000000 
0.000000 0.000000 0.000000 

0.007885 -0.009919 0.000000 
0.000000 -0.299415 0.000000 
0.000000 0.000000 0.000000 

-0.005489 -0.001071 0.000000 
0.000000 -0.008984 0.000000 
0.000000 0.000000 0.000000 

-0.002924 0.016324 0.000000 
0.000000 -0.002535 0.000000 
0.000000 0.000000 0.000000 

-0.006324 -0.010112 0.000000 
0.000000 -0.222541 0.000000 
0.000000 0.000000 0.000000 

0.001510 0.000769 0.000000 
0.000000 -0.001534 0.000000 
0.000000 0.000000 0.000000 

-0.001421 -0.003771 0.000000 
0.000000 -0.003164 0.000000 
0.000000 0.000000 0.000000 

0.001864 -0.015738 0.000000 
0.000000 -0.037294 0.000000 
0.000000 0.000000 0.000000 

0.000793 0.000979 0.000000 
0.000000 -0.005393 0.000000 
0.000000 0.000000 0.000000 

0.001641 0.002079 0.000000 
0.000000 -0.003358 0.000000 
0.000000 0.000000 0.000000 

0.000700 0.001426 0.000000 
0.000000 -0.005033 0.000000 
0.000000 0.000000 0.000000 

0.000760 -0.000834 0.000000 
0.000000 -0.001004 0.000000 
0.000000 0.000000 0.000000 

0.000333 -0.002488 0.000000 
0.000000 -0.004510 0.000000 
0.000000 0.000000 0.000000 

0.000244 -0.010212 0.000000 
0.000000 0.001507 0.000000 
0.000000 0.000000 0.000000 

0.000367 -0.002264 0.000000 
0.000000 -0.000486 0.000000 
0.000000 0.000000 0.000000 

-0.001159 -0.009921 0.000000 
0.000000 0.000468 0.000000 
0.000000 0.000000 0.000000 

0.000388 -0.008276 0.000000 
0.000000 0.006303 0.000000 
0.000000 0.000000 0.000000 

-0.001131 -0.001038 0.000000 
0.000000 -0.010384 0.000000 
0.000000 0.000000 0.000000 

0.000793 -0.001583 0.000000 
0.000000 0.000202 0.000000 
0.000000 0.000000 0.000000 

0.000991 0.002265 0.000000 
0.000000 -0.006377 0.000000 
0.000000 0.000000 0.000000 

-0.001324 -0.005829 0.000000 
0.000000 -0.009273 0.000000 
0.000000 0.000000 0.000000 

-0.001113 -0.002584 0.000000 
0.000000 -0.015129 0.000000 
0.000000 0.000000 0.000000 

-0.000178 -0.008994 0.000000 
0.000000 0.002137 0.000000 
0.000000 0.000000 0.000000 

0.000233 -0.007110 0.000000 
0.000000 0.008835 0.000000 
0.000000 0.000000 0.000000 

-0.001046 -0.005733 0.000000 
0.000000 -0.011523 0.000000 
0.000000 0.000000 0.000000 

0.000441 -0.002467 0.000000 
0.000000 0.008872 0.000000 
0.000000 0.000000 0.000000 

0.001682 0.001293 0.000000 
0.000000 -0.005590 0.000000 
0.000000 0.000000 0.000000 

0.001458 0.002078 0.000000 
0.000000 -0.002236 0.000000 
0.000000 0.000000 0.000000 

0.000978 -0.000331 0.000000 
0.000000 -0.005510 0.000000 
0.000000 0.000000 0.000000 

-0.000116 -0.003323 0.000000 
0.000000 -0.001508 0.000000 
0.000000 0.000000 0.000000 

-0.001710 0.001434 0.000000 
0.000000 0.020440 0.000000 
0.000000 0.000000 0.000000 

-0.003504 0.008199 0.000000 
0.000000 -0.002238 0.000000 
0.000000 0.000000 0.000000 

-0.001051 -0.000202 0.000000 
0.000000 0.004840 0.000000 
0.000000 0.000000 0.000000 

-0.005097 0.003389 0.000000 
0.000000 -0.017101 0.000000 
0.000000 0.000000 0.000000 

-0.005771 0.000055 0.000000 
0.000000 -0.010705 0.000000 
0.000000 0.000000 0.000000 

-0.005229 0.001378 0.000000 
0.000000 -0.004588 0.000000 
0.000000 0.000000 0.000000 

-0.006959 -0.008356 0.000000 
0.000000 -0.046697 0.000000 
0.000000 0.000000 0.000000 

-0.005755 0.000048 0.000000 
0.000000 -0.010400 0.000000 
0.000000 0.000000 0.000000 

-0.005366 0.000059 0.000000 
0.000000 -0.006532 0.000000 
0.000000 0.000000 0.000000 

-0.005636 -0.000590 0.000000 
0.000000 -0.008842 0.000000 
0.000000 0.000000 0.000000 

-0.005114 0.006315 0.000000 
0.000000 -0.011446 0.000000 
0.000000 0.000000 0.000000 

-0.001373 0.001891 0.000000 
0.000000 0.005551 0.000000 
0.000000 0.000000 0.000000 

0.001449 0.012213 0.000000 
0.000000 -0.014416 0.000000 
0.000000 0.000000 0.000000 

-0.005198 0.008252 0.000000 
0.000000 -0.007387 0.000000 
0.000000 0.000000 0.000000 

0.001204 -0.002740 0.000000 
0.000000 -0.002742 0.000000 
0.000000 0.000000 0.000000 

0.001586 0.001180 0.000000 
0.000000 -0.003503 0.000000 
0.000000 0.000000 0.000000 

0.001562 0.002086 0.000000 
0.000000 -0.000630 0.000000 
0.000000 0.000000 0.000000 

0.001536 -0.005238 0.000000 
0.000000 -0.021708 0.000000 
0.000000 0.000000 0.000000 

-0.003101 0.013312 0.000000 
0.000000 -0.000095 0.000000 
0.000000 0.000000 0.000000 

