# vtk DataFile Version 3.0 
vtk output 
ASCII 
DATASET UNSTRUCTURED_GRID 
POINTS 184 float 
-0.028811 -0.387191 0.000000 
-0.337228 -1.198797 0.000000 
0.473826 -0.889571 0.000000 
-0.447224 -0.694814 0.000000 
0.165656 -1.305264 0.000000 
0.222713 -0.441933 0.000000 
-0.284076 -0.481641 0.000000 
-0.100762 -1.324319 0.000000 
0.418839 -0.637769 0.000000 
-0.462804 -0.968075 0.000000 
0.379480 -1.145197 0.000000 
-0.166786 -0.414679 0.000000 
-0.227178 -1.277168 0.000000 
0.463197 -0.760359 0.000000 
-0.473871 -0.832673 0.000000 
0.286252 -1.242977 0.000000 
0.100762 -0.397925 0.000000 
-0.377333 -0.572952 0.000000 
0.039274 -1.334174 0.000000 
0.337021 -0.523526 0.000000 
-0.416046 -1.088300 0.000000 
0.444142 -1.026778 0.000000 
-0.121270 -0.401314 0.000000 
-0.301377 -1.229863 0.000000 
0.473826 -0.842133 0.000000 
-0.460589 -0.740331 0.000000 
0.246344 -1.268624 0.000000 
0.179561 -0.422226 0.000000 
-0.346268 -0.537100 0.000000 
-0.053807 -1.331070 0.000000 
0.368087 -0.559377 0.000000 
-0.449439 -1.013592 0.000000 
0.424436 -1.069930 0.000000 
-0.209938 -0.434385 0.000000 
-0.146279 -1.310954 0.000000 
0.438546 -0.680920 0.000000 
-0.473871 -0.880112 0.000000 
0.322103 -1.211911 0.000000 
0.018627 -0.387191 0.000000 
-0.427517 -0.651663 0.000000 
0.086229 -1.327423 0.000000 
0.301170 -0.492460 0.000000 
-0.368294 -1.162946 0.000000 
0.457507 -0.981262 0.000000 
-0.079407 -0.418936 0.000000 
0.369154 -0.604510 0.000000 
0.048715 -0.415547 0.000000 
0.205703 -1.261036 0.000000 
-0.167159 -1.275270 0.000000 
-0.366567 -1.121638 0.000000 
0.386144 -1.085519 0.000000 
-0.305135 -0.532931 0.000000 
-0.387078 -0.631979 0.000000 
0.425252 -0.720069 0.000000 
0.140413 -0.435520 0.000000 
0.111975 -1.295074 0.000000 
-0.260069 -1.228136 0.000000 
-0.413756 -1.034472 0.000000 
0.439780 -0.939036 0.000000 
0.326273 -1.170778 0.000000 
-0.014533 -1.307515 0.000000 
-0.225527 -0.472677 0.000000 
-0.442908 -0.782557 0.000000 
-0.445123 -0.916390 0.000000 
0.255396 -0.491044 0.000000 
0.445470 -0.812045 0.000000 
-0.079333 -0.475211 0.000000 
-0.130417 -0.518020 0.000000 
-0.191597 -0.513402 0.000000 
-0.111867 -0.576628 0.000000 
-0.224051 -0.567923 0.000000 
-0.171272 -0.604922 0.000000 
-0.055594 -0.590856 0.000000 
-0.279041 -0.578487 0.000000 
-0.040187 -0.646578 0.000000 
-0.015041 -0.549652 0.000000 
-0.296573 -0.637751 0.000000 
-0.349226 -0.668036 0.000000 
-0.351226 -0.733741 0.000000 
-0.254824 -0.676506 0.000000 
-0.391103 -0.783061 0.000000 
-0.370336 -0.842665 0.000000 
-0.284940 -0.733692 0.000000 
-0.395089 -0.902159 0.000000 
-0.360392 -0.948333 0.000000 
-0.313327 -0.842090 0.000000 
-0.369688 -1.006681 0.000000 
-0.323258 -1.040476 0.000000 
-0.307698 -0.906751 0.000000 
-0.317847 -1.101605 0.000000 
-0.261652 -1.126800 0.000000 
-0.273358 -1.014284 0.000000 
-0.237999 -1.180959 0.000000 
-0.174943 -1.186830 0.000000 
-0.233858 -1.065870 0.000000 
-0.136993 -1.232110 0.000000 
-0.076092 -1.222942 0.000000 
-0.147100 -1.137852 0.000000 
-0.021468 -1.255913 0.000000 
0.034383 -1.229959 0.000000 
-0.085997 -1.159885 0.000000 
0.090783 -1.247516 0.000000 
0.131601 -1.206648 0.000000 
0.025861 -1.173486 0.000000 
0.192839 -1.209979 0.000000 
0.225790 -1.157950 0.000000 
0.089168 -1.158969 0.000000 
0.282731 -1.142227 0.000000 
0.297512 -1.080648 0.000000 
0.190626 -1.109918 0.000000 
0.347718 -1.049521 0.000000 
0.347308 -0.987937 0.000000 
0.236036 -1.063479 0.000000 
0.387714 -0.938558 0.000000 
0.369971 -0.879584 0.000000 
0.294872 -0.967361 0.000000 
0.395378 -0.826255 0.000000 
0.360736 -0.780036 0.000000 
0.307967 -0.903744 0.000000 
0.372882 -0.725535 0.000000 
0.326072 -0.685515 0.000000 
0.305499 -0.791076 0.000000 
0.320446 -0.624510 0.000000 
0.261463 -0.595473 0.000000 
0.282122 -0.730477 0.000000 
0.233332 -0.538206 0.000000 
0.170485 -0.532253 0.000000 
0.219133 -0.637030 0.000000 
0.132530 -0.486989 0.000000 
0.077667 -0.496845 0.000000 
0.033502 -0.462999 0.000000 
-0.020231 -0.492614 0.000000 
0.166704 -0.598690 0.000000 
0.047676 -0.549900 0.000000 
-0.184513 -0.654241 0.000000 
-0.267808 -0.782438 0.000000 
-0.039895 -1.136382 0.000000 
0.233804 -1.011776 0.000000 
0.278138 -0.861455 0.000000 
0.115242 -1.114267 0.000000 
0.234165 -0.711029 0.000000 
-0.267095 -0.938907 0.000000 
-0.182363 -1.071051 0.000000 
-0.080635 -0.687804 0.000000 
0.015739 -0.660994 0.000000 
-0.141814 -0.690613 0.000000 
-0.170613 -0.748075 0.000000 
-0.215488 -0.786801 0.000000 
-0.205084 -0.850121 0.000000 
-0.129406 -0.785022 0.000000 
-0.218571 -0.910617 0.000000 
-0.148068 -0.842207 0.000000 
-0.174593 -0.956991 0.000000 
-0.076799 -0.750900 0.000000 
-0.155573 -1.019090 0.000000 
-0.126037 -0.926963 0.000000 
-0.074980 -0.953573 0.000000 
-0.112999 -0.872674 0.000000 
-0.052249 -0.855902 0.000000 
-0.031995 -0.908886 0.000000 
-0.034711 -0.791313 0.000000 
0.031192 -0.716628 0.000000 
0.063050 -0.605521 0.000000 
-0.089197 -1.017213 0.000000 
0.009049 -0.774909 0.000000 
0.051424 -0.824805 0.000000 
0.053332 -0.879943 0.000000 
0.098177 -0.795513 0.000000 
0.011239 -0.922787 0.000000 
0.028372 -0.984224 0.000000 
0.017947 -1.043650 0.000000 
0.077740 -1.071540 0.000000 
0.083331 -0.984865 0.000000 
0.117710 -1.027005 0.000000 
0.179025 -0.998074 0.000000 
0.098599 -0.923967 0.000000 
0.165702 -0.806087 0.000000 
0.087920 -0.736693 0.000000 
0.161326 -0.927340 0.000000 
0.191154 -0.748228 0.000000 
0.131959 -0.705377 0.000000 
0.122542 -0.629839 0.000000 
-0.040916 -1.061084 0.000000 
0.197397 -0.867886 0.000000 
CELLS 184 368 
1 0 
1 1 
1 2 
1 3 
1 4 
1 5 
1 6 
1 7 
1 8 
1 9 
1 10 
1 11 
1 12 
1 13 
1 14 
1 15 
1 16 
1 17 
1 18 
1 19 
1 20 
1 21 
1 22 
1 23 
1 24 
1 25 
1 26 
1 27 
1 28 
1 29 
1 30 
1 31 
1 32 
1 33 
1 34 
1 35 
1 36 
1 37 
1 38 
1 39 
1 40 
1 41 
1 42 
1 43 
1 44 
1 45 
1 46 
1 47 
1 48 
1 49 
1 50 
1 51 
1 52 
1 53 
1 54 
1 55 
1 56 
1 57 
1 58 
1 59 
1 60 
1 61 
1 62 
1 63 
1 64 
1 65 
1 66 
1 67 
1 68 
1 69 
1 70 
1 71 
1 72 
1 73 
1 74 
1 75 
1 76 
1 77 
1 78 
1 79 
1 80 
1 81 
1 82 
1 83 
1 84 
1 85 
1 86 
1 87 
1 88 
1 89 
1 90 
1 91 
1 92 
1 93 
1 94 
1 95 
1 96 
1 97 
1 98 
1 99 
1 100 
1 101 
1 102 
1 103 
1 104 
1 105 
1 106 
1 107 
1 108 
1 109 
1 110 
1 111 
1 112 
1 113 
1 114 
1 115 
1 116 
1 117 
1 118 
1 119 
1 120 
1 121 
1 122 
1 123 
1 124 
1 125 
1 126 
1 127 
1 128 
1 129 
1 130 
1 131 
1 132 
1 133 
1 134 
1 135 
1 136 
1 137 
1 138 
1 139 
1 140 
1 141 
1 142 
1 143 
1 144 
1 145 
1 146 
1 147 
1 148 
1 149 
1 150 
1 151 
1 152 
1 153 
1 154 
1 155 
1 156 
1 157 
1 158 
1 159 
1 160 
1 161 
1 162 
1 163 
1 164 
1 165 
1 166 
1 167 
1 168 
1 169 
1 170 
1 171 
1 172 
1 173 
1 174 
1 175 
1 176 
1 177 
1 178 
1 179 
1 180 
1 181 
1 182 
1 183 
CELL_TYPES 184 
1 
1 
1 
1 
1 
1 
1 
1 
1 
1 
1 
1 
1 
1 
1 
1 
1 
1 
1 
1 
1 
1 
1 
1 
1 
1 
1 
1 
1 
1 
1 
1 
1 
1 
1 
1 
1 
1 
1 
1 
1 
1 
1 
1 
1 
1 
1 
1 
1 
1 
1 
1 
1 
1 
1 
1 
1 
1 
1 
1 
1 
1 
1 
1 
1 
1 
1 
1 
1 
1 
1 
1 
1 
1 
1 
1 
1 
1 
1 
1 
1 
1 
1 
1 
1 
1 
1 
1 
1 
1 
1 
1 
1 
1 
1 
1 
1 
1 
1 
1 
1 
1 
1 
1 
1 
1 
1 
1 
1 
1 
1 
1 
1 
1 
1 
1 
1 
1 
1 
1 
1 
1 
1 
1 
1 
1 
1 
1 
1 
1 
1 
1 
1 
1 
1 
1 
1 
1 
1 
1 
1 
1 
1 
1 
1 
1 
1 
1 
1 
1 
1 
1 
1 
1 
1 
1 
1 
1 
1 
1 
1 
1 
1 
1 
1 
1 
1 
1 
1 
1 
1 
1 
1 
1 
1 
1 
1 
1 
1 
1 
1 
1 
1 
1 
POINT_DATA 184 
VECTORS X_GC float 
-0.028811 -0.387191 0.000000 
-0.337228 -1.198797 0.000000 
0.473826 -0.889571 0.000000 
-0.447224 -0.694814 0.000000 
0.165656 -1.305264 0.000000 
0.222713 -0.441933 0.000000 
-0.284076 -0.481641 0.000000 
-0.100762 -1.324319 0.000000 
0.418839 -0.637769 0.000000 
-0.462804 -0.968075 0.000000 
0.379480 -1.145197 0.000000 
-0.166786 -0.414679 0.000000 
-0.227178 -1.277168 0.000000 
0.463197 -0.760359 0.000000 
-0.473871 -0.832673 0.000000 
0.286252 -1.242977 0.000000 
0.100762 -0.397925 0.000000 
-0.377333 -0.572952 0.000000 
0.039274 -1.334174 0.000000 
0.337021 -0.523526 0.000000 
-0.416046 -1.088300 0.000000 
0.444142 -1.026778 0.000000 
-0.121270 -0.401314 0.000000 
-0.301377 -1.229863 0.000000 
0.473826 -0.842133 0.000000 
-0.460589 -0.740331 0.000000 
0.246344 -1.268624 0.000000 
0.179561 -0.422226 0.000000 
-0.346268 -0.537100 0.000000 
-0.053807 -1.331070 0.000000 
0.368087 -0.559377 0.000000 
-0.449439 -1.013592 0.000000 
0.424436 -1.069930 0.000000 
-0.209938 -0.434385 0.000000 
-0.146279 -1.310954 0.000000 
0.438546 -0.680920 0.000000 
-0.473871 -0.880112 0.000000 
0.322103 -1.211911 0.000000 
0.018627 -0.387191 0.000000 
-0.427517 -0.651663 0.000000 
0.086229 -1.327423 0.000000 
0.301170 -0.492460 0.000000 
-0.368294 -1.162946 0.000000 
0.457507 -0.981262 0.000000 
-0.079407 -0.418936 0.000000 
0.369154 -0.604510 0.000000 
0.048715 -0.415547 0.000000 
0.205703 -1.261036 0.000000 
-0.167159 -1.275270 0.000000 
-0.366567 -1.121638 0.000000 
0.386144 -1.085519 0.000000 
-0.305135 -0.532931 0.000000 
-0.387078 -0.631979 0.000000 
0.425252 -0.720069 0.000000 
0.140413 -0.435520 0.000000 
0.111975 -1.295074 0.000000 
-0.260069 -1.228136 0.000000 
-0.413756 -1.034472 0.000000 
0.439780 -0.939036 0.000000 
0.326273 -1.170778 0.000000 
-0.014533 -1.307515 0.000000 
-0.225527 -0.472677 0.000000 
-0.442908 -0.782557 0.000000 
-0.445123 -0.916390 0.000000 
0.255396 -0.491044 0.000000 
0.445470 -0.812045 0.000000 
-0.079333 -0.475211 0.000000 
-0.130417 -0.518020 0.000000 
-0.191597 -0.513402 0.000000 
-0.111867 -0.576628 0.000000 
-0.224051 -0.567923 0.000000 
-0.171272 -0.604922 0.000000 
-0.055594 -0.590856 0.000000 
-0.279041 -0.578487 0.000000 
-0.040187 -0.646578 0.000000 
-0.015041 -0.549652 0.000000 
-0.296573 -0.637751 0.000000 
-0.349226 -0.668036 0.000000 
-0.351226 -0.733741 0.000000 
-0.254824 -0.676506 0.000000 
-0.391103 -0.783061 0.000000 
-0.370336 -0.842665 0.000000 
-0.284940 -0.733692 0.000000 
-0.395089 -0.902159 0.000000 
-0.360392 -0.948333 0.000000 
-0.313327 -0.842090 0.000000 
-0.369688 -1.006681 0.000000 
-0.323258 -1.040476 0.000000 
-0.307698 -0.906751 0.000000 
-0.317847 -1.101605 0.000000 
-0.261652 -1.126800 0.000000 
-0.273358 -1.014284 0.000000 
-0.237999 -1.180959 0.000000 
-0.174943 -1.186830 0.000000 
-0.233858 -1.065870 0.000000 
-0.136993 -1.232110 0.000000 
-0.076092 -1.222942 0.000000 
-0.147100 -1.137852 0.000000 
-0.021468 -1.255913 0.000000 
0.034383 -1.229959 0.000000 
-0.085997 -1.159885 0.000000 
0.090783 -1.247516 0.000000 
0.131601 -1.206648 0.000000 
0.025861 -1.173486 0.000000 
0.192839 -1.209979 0.000000 
0.225790 -1.157950 0.000000 
0.089168 -1.158969 0.000000 
0.282731 -1.142227 0.000000 
0.297512 -1.080648 0.000000 
0.190626 -1.109918 0.000000 
0.347718 -1.049521 0.000000 
0.347308 -0.987937 0.000000 
0.236036 -1.063479 0.000000 
0.387714 -0.938558 0.000000 
0.369971 -0.879584 0.000000 
0.294872 -0.967361 0.000000 
0.395378 -0.826255 0.000000 
0.360736 -0.780036 0.000000 
0.307967 -0.903744 0.000000 
0.372882 -0.725535 0.000000 
0.326072 -0.685515 0.000000 
0.305499 -0.791076 0.000000 
0.320446 -0.624510 0.000000 
0.261463 -0.595473 0.000000 
0.282122 -0.730477 0.000000 
0.233332 -0.538206 0.000000 
0.170485 -0.532253 0.000000 
0.219133 -0.637030 0.000000 
0.132530 -0.486989 0.000000 
0.077667 -0.496845 0.000000 
0.033502 -0.462999 0.000000 
-0.020231 -0.492614 0.000000 
0.166704 -0.598690 0.000000 
0.047676 -0.549900 0.000000 
-0.184513 -0.654241 0.000000 
-0.267808 -0.782438 0.000000 
-0.039895 -1.136382 0.000000 
0.233804 -1.011776 0.000000 
0.278138 -0.861455 0.000000 
0.115242 -1.114267 0.000000 
0.234165 -0.711029 0.000000 
-0.267095 -0.938907 0.000000 
-0.182363 -1.071051 0.000000 
-0.080635 -0.687804 0.000000 
0.015739 -0.660994 0.000000 
-0.141814 -0.690613 0.000000 
-0.170613 -0.748075 0.000000 
-0.215488 -0.786801 0.000000 
-0.205084 -0.850121 0.000000 
-0.129406 -0.785022 0.000000 
-0.218571 -0.910617 0.000000 
-0.148068 -0.842207 0.000000 
-0.174593 -0.956991 0.000000 
-0.076799 -0.750900 0.000000 
-0.155573 -1.019090 0.000000 
-0.126037 -0.926963 0.000000 
-0.074980 -0.953573 0.000000 
-0.112999 -0.872674 0.000000 
-0.052249 -0.855902 0.000000 
-0.031995 -0.908886 0.000000 
-0.034711 -0.791313 0.000000 
0.031192 -0.716628 0.000000 
0.063050 -0.605521 0.000000 
-0.089197 -1.017213 0.000000 
0.009049 -0.774909 0.000000 
0.051424 -0.824805 0.000000 
0.053332 -0.879943 0.000000 
0.098177 -0.795513 0.000000 
0.011239 -0.922787 0.000000 
0.028372 -0.984224 0.000000 
0.017947 -1.043650 0.000000 
0.077740 -1.071540 0.000000 
0.083331 -0.984865 0.000000 
0.117710 -1.027005 0.000000 
0.179025 -0.998074 0.000000 
0.098599 -0.923967 0.000000 
0.165702 -0.806087 0.000000 
0.087920 -0.736693 0.000000 
0.161326 -0.927340 0.000000 
0.191154 -0.748228 0.000000 
0.131959 -0.705377 0.000000 
0.122542 -0.629839 0.000000 
-0.040916 -1.061084 0.000000 
0.197397 -0.867886 0.000000 
VECTORS X_EC float 
-0.807924 -0.418724 0.000000 
-0.751813 0.991982 0.000000 
-0.158839 0.930472 0.000000 
-0.018508 -0.367906 0.000000 
-0.104376 -0.298240 0.000000 
-0.484750 -0.053781 0.000000 
0.893837 0.210942 0.000000 
-0.328251 -0.171209 0.000000 
0.207737 -0.748206 0.000000 
0.085362 -0.546167 0.000000 
0.470130 0.634649 0.000000 
0.111910 -0.235475 0.000000 
0.514522 -0.485547 0.000000 
-0.087979 0.069063 0.000000 
0.159142 0.551156 0.000000 
-0.908345 -0.713488 0.000000 
0.328251 -0.347167 0.000000 
-0.484444 0.819679 0.000000 
0.738177 -0.105507 0.000000 
0.753192 0.490170 0.000000 
-0.226359 0.255334 0.000000 
0.039052 -0.154811 0.000000 
-0.191535 -0.324575 0.000000 
-0.990822 -0.800915 0.000000 
-0.158839 0.614217 0.000000 
0.070591 -0.064461 0.000000 
-0.642294 -0.542507 0.000000 
-0.197074 -0.185158 0.000000 
-0.691547 0.580669 0.000000 
-0.641287 -0.126201 0.000000 
0.546089 0.729180 0.000000 
-0.003737 -0.242723 0.000000 
0.170429 0.132864 0.000000 
0.399586 -0.104098 0.000000 
-0.024807 -0.260308 0.000000 
0.076360 -0.460530 0.000000 
0.159142 0.867411 0.000000 
0.852645 -0.920591 0.000000 
0.875821 -0.418724 0.000000 
-0.149885 -0.655581 0.000000 
0.425140 -0.150515 0.000000 
0.992201 0.283067 0.000000 
-0.544710 0.752972 0.000000 
-0.050047 -0.458256 0.000000 
-0.470623 -0.207095 0.000000 
0.538976 -0.969931 0.000000 
0.675236 -0.229687 0.000000 
-0.371350 -0.593091 0.000000 
0.114395 -0.498199 0.000000 
-0.556219 0.477587 0.000000 
0.425709 0.236794 0.000000 
-0.965766 0.552870 0.000000 
-0.419479 -0.786807 0.000000 
0.164988 -0.199543 0.000000 
0.063913 -0.096530 0.000000 
0.253500 -0.366174 0.000000 
0.733793 -0.812425 0.000000 
-0.241628 -0.103521 0.000000 
0.068130 -0.739760 0.000000 
0.824846 0.805189 0.000000 
-0.903111 -0.283234 0.000000 
0.503515 0.151182 0.000000 
-0.047282 0.217046 0.000000 
-0.032511 -0.890732 0.000000 
-0.702641 0.273624 0.000000 
0.030198 0.413632 0.000000 
-0.471115 0.168070 0.000000 
-0.130555 0.453466 0.000000 
0.277311 0.422680 0.000000 
-0.254217 0.844185 0.000000 
0.493676 0.786152 0.000000 
0.141813 -0.967188 0.000000 
-0.629371 0.939041 0.000000 
0.860276 0.856582 0.000000 
-0.732087 -0.689479 0.000000 
-0.899724 0.664347 0.000000 
0.977153 -0.748326 0.000000 
-0.671826 -0.546425 0.000000 
-0.658496 -0.108396 0.000000 
0.698824 -0.489958 0.000000 
-0.392645 0.220405 0.000000 
-0.531093 0.617765 0.000000 
0.899598 -0.108717 0.000000 
-0.366074 -0.985609 0.000000 
-0.597389 -0.677778 0.000000 
-0.911153 0.613935 0.000000 
-0.535415 -0.288791 0.000000 
-0.844949 -0.063493 0.000000 
-0.948677 -0.954994 0.000000 
-0.881021 0.344031 0.000000 
0.744349 0.512003 0.000000 
0.822387 -0.238109 0.000000 
0.586663 0.873060 0.000000 
0.166285 0.912202 0.000000 
0.559054 0.105800 0.000000 
-0.086713 -0.785934 0.000000 
-0.492723 -0.847051 0.000000 
-0.019331 0.585683 0.000000 
-0.856883 -0.627250 0.000000 
0.770780 -0.800274 0.000000 
-0.426685 0.732568 0.000000 
0.394783 -0.683227 0.000000 
0.122661 -0.955677 0.000000 
0.827591 0.823237 0.000000 
-0.285596 -0.933476 0.000000 
-0.505268 0.719665 0.000000 
0.405544 0.726459 0.000000 
-0.884872 0.614849 0.000000 
-0.983414 0.204320 0.000000 
-0.270837 0.399451 0.000000 
0.681883 -0.003195 0.000000 
0.684612 -0.413756 0.000000 
-0.573571 0.089857 0.000000 
0.415238 -0.742946 0.000000 
0.533524 0.863891 0.000000 
-0.965812 -0.550925 0.000000 
0.364144 0.508366 0.000000 
0.595096 0.200239 0.000000 
0.946884 -0.975043 0.000000 
0.514118 -0.163100 0.000000 
0.826186 -0.429899 0.000000 
0.963337 0.273840 0.000000 
0.863696 -0.836603 0.000000 
-0.743089 0.969820 0.000000 
-0.880813 -0.130150 0.000000 
-0.555549 0.588040 0.000000 
-0.136568 0.548354 0.000000 
-0.460886 -0.753134 0.000000 
0.116466 0.246590 0.000000 
0.482219 0.312299 0.000000 
0.776650 0.086658 0.000000 
-0.865130 0.284096 0.000000 
-0.111363 0.991268 0.000000 
0.682158 0.666001 0.000000 
0.230085 -0.638391 0.000000 
0.785388 0.216254 0.000000 
-0.734034 0.575879 0.000000 
-0.558696 -0.254827 0.000000 
-0.854255 0.743032 0.000000 
0.231718 0.428447 0.000000 
-0.561100 -0.259808 0.000000 
0.780632 -0.740623 0.000000 
0.215752 0.140337 0.000000 
-0.462433 -0.414642 0.000000 
0.895071 -0.593371 0.000000 
-0.054573 -0.395916 0.000000 
0.137421 -0.012834 0.000000 
0.436584 0.245343 0.000000 
0.367225 0.667475 0.000000 
-0.137294 0.233477 0.000000 
0.457138 -0.929223 0.000000 
-0.012881 0.614714 0.000000 
0.163955 -0.620058 0.000000 
-0.488009 0.006001 0.000000 
0.037156 -0.206067 0.000000 
-0.159751 -0.820249 0.000000 
-0.500136 -0.642843 0.000000 
-0.246673 0.817824 0.000000 
-0.651673 0.706010 0.000000 
-0.786702 -0.940763 0.000000 
-0.768596 0.275423 0.000000 
0.792053 -0.222479 0.000000 
0.579669 -0.963197 0.000000 
-0.405356 -0.218581 0.000000 
0.939676 0.166062 0.000000 
0.657172 0.498698 0.000000 
0.644454 0.866286 0.000000 
0.345486 0.303419 0.000000 
0.925074 -0.848086 0.000000 
0.810853 -0.438506 0.000000 
0.880351 -0.042334 0.000000 
0.481737 0.143597 0.000000 
0.444460 -0.434234 0.000000 
0.215264 -0.153303 0.000000 
-0.193502 -0.346171 0.000000 
0.342676 -0.840223 0.000000 
-0.104683 0.373914 0.000000 
0.413868 -0.088715 0.000000 
-0.075508 -0.817731 0.000000 
-0.274359 -0.011816 0.000000 
0.120271 -0.297485 0.000000 
0.183054 -0.801076 0.000000 
-0.727227 0.073891 0.000000 
-0.315983 0.785906 0.000000 
CELL_DATA 184 
SCALARS MASS float 
LOOKUP_TABLE default 
0.051252 
0.046008 
0.051531 
0.046188 
0.052854 
0.051531 
0.052854 
0.052854 
0.051531 
0.050859 
0.052854 
0.047395 
0.052854 
0.052854 
0.051434 
0.045995 
0.052854 
0.051281 
0.051530 
0.046441 
0.052854 
0.052854 
0.050612 
0.049065 
0.052975 
0.049197 
0.049245 
0.052975 
0.052990 
0.055938 
0.049713 
0.052094 
0.055938 
0.050456 
0.055938 
0.053198 
0.052878 
0.049051 
0.052807 
0.049481 
0.052974 
0.049465 
0.049257 
0.055938 
0.105225 
0.104629 
0.082126 
0.094264 
0.094771 
0.094259 
0.094771 
0.083366 
0.104047 
0.083092 
0.081316 
0.081315 
0.092719 
0.079469 
0.108073 
0.092710 
0.108073 
0.093129 
0.104035 
0.094961 
0.104398 
0.081316 
0.125285 
0.099128 
0.098320 
0.087841 
0.082650 
0.097481 
0.086914 
0.081921 
0.086680 
0.086680 
0.081485 
0.107769 
0.088711 
0.084874 
0.107874 
0.082612 
0.095190 
0.095229 
0.083942 
0.085089 
0.079923 
0.081132 
0.095301 
0.097917 
0.090576 
0.085268 
0.095896 
0.081062 
0.095454 
0.090083 
0.081027 
0.085251 
0.101961 
0.083022 
0.095445 
0.080604 
0.081018 
0.085240 
0.097826 
0.090495 
0.095435 
0.095845 
0.081023 
0.085241 
0.090072 
0.081024 
0.095436 
0.101966 
0.083028 
0.085242 
0.080610 
0.081024 
0.095437 
0.082345 
0.082694 
0.085242 
0.109264 
0.089885 
0.095437 
0.108636 
0.083028 
0.085242 
0.080610 
0.074817 
0.073569 
0.082490 
0.095437 
0.095617 
0.133784 
0.138292 
0.139667 
0.139695 
0.139694 
0.139689 
0.139693 
0.140105 
0.139774 
0.086622 
0.086622 
0.089038 
0.077179 
0.079159 
0.072465 
0.084345 
0.092656 
0.093083 
0.084037 
0.098826 
0.101847 
0.085968 
0.086444 
0.074619 
0.064825 
0.094138 
0.124406 
0.086607 
0.131576 
0.102571 
0.084703 
0.076503 
0.084191 
0.084191 
0.086793 
0.075696 
0.084714 
0.090949 
0.084009 
0.076569 
0.086383 
0.098391 
0.110757 
0.093222 
0.143196 
0.101090 
0.091038 
0.150913 
0.178131 
0.206980 
SCALARS MASS float 
LOOKUP_TABLE default 
0.051252 
0.046008 
0.051531 
0.046188 
0.052854 
0.051531 
0.052854 
0.052854 
0.051531 
0.050859 
0.052854 
0.047395 
0.052854 
0.052854 
0.051434 
0.045995 
0.052854 
0.051281 
0.051530 
0.046441 
0.052854 
0.052854 
0.050612 
0.049065 
0.052975 
0.049197 
0.049245 
0.052975 
0.052990 
0.055938 
0.049713 
0.052094 
0.055938 
0.050456 
0.055938 
0.053198 
0.052878 
0.049051 
0.052807 
0.049481 
0.052974 
0.049465 
0.049257 
0.055938 
0.105225 
0.104629 
0.082126 
0.094264 
0.094771 
0.094259 
0.094771 
0.083366 
0.104047 
0.083092 
0.081316 
0.081315 
0.092719 
0.079469 
0.108073 
0.092710 
0.108073 
0.093129 
0.104035 
0.094961 
0.104398 
0.081316 
0.125285 
0.099128 
0.098320 
0.087841 
0.082650 
0.097481 
0.086914 
0.081921 
0.086680 
0.086680 
0.081485 
0.107769 
0.088711 
0.084874 
0.107874 
0.082612 
0.095190 
0.095229 
0.083942 
0.085089 
0.079923 
0.081132 
0.095301 
0.097917 
0.090576 
0.085268 
0.095896 
0.081062 
0.095454 
0.090083 
0.081027 
0.085251 
0.101961 
0.083022 
0.095445 
0.080604 
0.081018 
0.085240 
0.097826 
0.090495 
0.095435 
0.095845 
0.081023 
0.085241 
0.090072 
0.081024 
0.095436 
0.101966 
0.083028 
0.085242 
0.080610 
0.081024 
0.095437 
0.082345 
0.082694 
0.085242 
0.109264 
0.089885 
0.095437 
0.108636 
0.083028 
0.085242 
0.080610 
0.074817 
0.073569 
0.082490 
0.095437 
0.095617 
0.133784 
0.138292 
0.139667 
0.139695 
0.139694 
0.139689 
0.139693 
0.140105 
0.139774 
0.086622 
0.086622 
0.089038 
0.077179 
0.079159 
0.072465 
0.084345 
0.092656 
0.093083 
0.084037 
0.098826 
0.101847 
0.085968 
0.086444 
0.074619 
0.064825 
0.094138 
0.124406 
0.086607 
0.131576 
0.102571 
0.084703 
0.076503 
0.084191 
0.084191 
0.086793 
0.075696 
0.084714 
0.090949 
0.084009 
0.076569 
0.086383 
0.098391 
0.110757 
0.093222 
0.143196 
0.101090 
0.091038 
0.150913 
0.178131 
0.206980 
SCALARS DENSITY float 
LOOKUP_TABLE default 
20.000000 
20.000000 
20.000000 
20.000000 
20.000000 
20.000000 
20.000000 
20.000000 
20.000000 
20.000000 
20.000000 
20.000000 
20.000000 
20.000000 
20.000000 
20.000000 
20.000000 
20.000000 
20.000000 
20.000000 
20.000000 
20.000000 
20.000000 
20.000000 
20.000000 
20.000000 
20.000000 
20.000000 
20.000000 
20.000000 
20.000000 
20.000000 
20.000000 
20.000000 
20.000000 
20.000000 
20.000000 
20.000000 
20.000000 
20.000000 
20.000000 
20.000000 
20.000000 
20.000000 
20.000000 
20.000000 
20.000000 
20.000000 
20.000000 
20.000000 
20.000000 
20.000000 
20.000000 
20.000000 
20.000000 
20.000000 
20.000000 
20.000000 
20.000000 
20.000000 
20.000000 
20.000000 
20.000000 
20.000000 
20.000000 
20.000000 
20.000000 
20.000000 
20.000000 
20.000000 
20.000000 
20.000000 
20.000000 
20.000000 
20.000000 
20.000000 
20.000000 
20.000000 
20.000000 
20.000000 
20.000000 
20.000000 
20.000000 
20.000000 
20.000000 
20.000000 
20.000000 
20.000000 
20.000000 
20.000000 
20.000000 
20.000000 
20.000000 
20.000000 
20.000000 
20.000000 
20.000000 
20.000000 
20.000000 
20.000000 
20.000000 
20.000000 
20.000000 
20.000000 
20.000000 
20.000000 
20.000000 
20.000000 
20.000000 
20.000000 
20.000000 
20.000000 
20.000000 
20.000000 
20.000000 
20.000000 
20.000000 
20.000000 
20.000000 
20.000000 
20.000000 
20.000000 
20.000000 
20.000000 
20.000000 
20.000000 
20.000000 
20.000000 
20.000000 
20.000000 
20.000000 
20.000000 
20.000000 
20.000000 
20.000000 
20.000000 
20.000000 
20.000000 
20.000000 
20.000000 
20.000000 
20.000000 
20.000000 
20.000000 
20.000000 
20.000000 
20.000000 
20.000000 
20.000000 
20.000000 
20.000000 
20.000000 
20.000000 
20.000000 
20.000000 
20.000000 
20.000000 
20.000000 
20.000000 
20.000000 
20.000000 
20.000000 
20.000000 
20.000000 
20.000000 
20.000000 
20.000000 
20.000000 
20.000000 
20.000000 
20.000000 
20.000000 
20.000000 
20.000000 
20.000000 
20.000000 
20.000000 
20.000000 
20.000000 
20.000000 
20.000000 
20.000000 
20.000000 
20.000000 
SCALARS ELEM_i float 
LOOKUP_TABLE default 
208 
226 
167 
227 
185 
188 
208 
205 
167 
226 
166 
208 
205 
167 
227 
185 
188 
228 
185 
168 
226 
166 
208 
225 
167 
227 
185 
188 
228 
205 
168 
226 
166 
208 
205 
167 
227 
165 
188 
227 
185 
168 
226 
166 
208 
167 
188 
185 
205 
226 
166 
228 
227 
167 
188 
185 
205 
226 
166 
166 
205 
208 
227 
226 
188 
167 
208 
208 
208 
208 
208 
207 
208 
208 
207 
208 
207 
227 
227 
207 
227 
227 
207 
226 
226 
227 
226 
226 
226 
226 
206 
206 
206 
206 
206 
205 
205 
206 
205 
185 
206 
185 
185 
186 
185 
186 
186 
186 
186 
186 
166 
166 
186 
166 
167 
186 
167 
167 
166 
167 
167 
167 
167 
188 
187 
188 
188 
187 
188 
188 
188 
208 
188 
188 
207 
207 
206 
186 
187 
186 
187 
206 
206 
207 
187 
207 
207 
207 
207 
207 
206 
207 
206 
207 
206 
206 
206 
207 
207 
206 
207 
187 
187 
206 
187 
187 
187 
187 
186 
186 
186 
186 
186 
186 
186 
186 
187 
187 
186 
187 
187 
187 
206 
187 
VECTORS VELOCITY float 
-0.000000 -4.100580 0.000000 
0.000000 -4.100580 0.000000 
-0.000000 -4.100580 0.000000 
0.000000 -4.100580 0.000000 
-0.000000 -4.100580 0.000000 
-0.000000 -4.100580 0.000000 
0.000000 -4.100580 0.000000 
0.000000 -4.100580 0.000000 
-0.000000 -4.100580 0.000000 
0.000000 -4.100580 0.000000 
-0.000000 -4.100580 0.000000 
0.000000 -4.100580 0.000000 
0.000000 -4.100580 0.000000 
-0.000000 -4.100580 0.000000 
0.000000 -4.100580 0.000000 
-0.000000 -4.100580 0.000000 
0.000000 -4.100580 0.000000 
0.000000 -4.100580 0.000000 
0.000000 -4.100580 0.000000 
0.000000 -4.100580 0.000000 
-0.000000 -4.100580 0.000000 
-0.000000 -4.100580 0.000000 
0.000000 -4.100580 0.000000 
-0.000000 -4.100580 0.000000 
-0.000000 -4.100580 0.000000 
0.000000 -4.100580 0.000000 
-0.000000 -4.100580 0.000000 
-0.000000 -4.100580 0.000000 
0.000000 -4.100580 0.000000 
0.000000 -4.100580 0.000000 
-0.000000 -4.100580 0.000000 
-0.000000 -4.100580 0.000000 
-0.000000 -4.100580 0.000000 
-0.000000 -4.100580 0.000000 
0.000000 -4.100580 0.000000 
-0.000000 -4.100580 0.000000 
0.000000 -4.100580 0.000000 
-0.000000 -4.100580 0.000000 
-0.000000 -4.100580 0.000000 
0.000000 -4.100580 0.000000 
-0.000000 -4.100580 0.000000 
-0.000000 -4.100580 0.000000 
0.000000 -4.100580 0.000000 
0.000000 -4.100580 0.000000 
0.000000 -4.100580 0.000000 
-0.000000 -4.100580 0.000000 
0.000000 -4.100580 0.000000 
-0.000000 -4.100580 0.000000 
0.000000 -4.100580 0.000000 
-0.000000 -4.100580 0.000000 
0.000000 -4.100580 0.000000 
-0.000000 -4.100580 0.000000 
0.000000 -4.100580 0.000000 
-0.000000 -4.100580 0.000000 
-0.000000 -4.100580 0.000000 
-0.000000 -4.100580 0.000000 
-0.000000 -4.100580 0.000000 
0.000000 -4.100580 0.000000 
0.000000 -4.100580 0.000000 
-0.000000 -4.100580 0.000000 
0.000000 -4.100580 0.000000 
-0.000000 -4.100580 0.000000 
0.000000 -4.100580 0.000000 
0.000000 -4.100580 0.000000 
-0.000000 -4.100580 0.000000 
-0.000000 -4.100580 0.000000 
-0.000000 -4.100580 0.000000 
-0.000000 -4.100580 0.000000 
0.000000 -4.100580 0.000000 
-0.000000 -4.100580 0.000000 
-0.000000 -4.100580 0.000000 
-0.000000 -4.100580 0.000000 
-0.000000 -4.100580 0.000000 
-0.000000 -4.100580 0.000000 
-0.000000 -4.100580 0.000000 
0.000000 -4.100580 0.000000 
-0.000000 -4.100580 0.000000 
-0.000000 -4.100580 0.000000 
0.000000 -4.100580 0.000000 
-0.000000 -4.100580 0.000000 
0.000000 -4.100580 0.000000 
0.000000 -4.100580 0.000000 
-0.000000 -4.100580 0.000000 
0.000000 -4.100580 0.000000 
0.000000 -4.100580 0.000000 
-0.000000 -4.100580 0.000000 
-0.000000 -4.100580 0.000000 
0.000000 -4.100580 0.000000 
-0.000000 -4.100580 0.000000 
-0.000000 -4.100580 0.000000 
-0.000000 -4.100580 0.000000 
-0.000000 -4.100580 0.000000 
-0.000000 -4.100580 0.000000 
0.000000 -4.100580 0.000000 
0.000000 -4.100580 0.000000 
0.000000 -4.100580 0.000000 
0.000000 -4.100580 0.000000 
0.000000 -4.100580 0.000000 
0.000000 -4.100580 0.000000 
0.000000 -4.100580 0.000000 
0.000000 -4.100580 0.000000 
0.000000 -4.100580 0.000000 
0.000000 -4.100580 0.000000 
0.000000 -4.100580 0.000000 
0.000000 -4.100580 0.000000 
-0.000000 -4.100580 0.000000 
0.000000 -4.100580 0.000000 
-0.000000 -4.100580 0.000000 
-0.000000 -4.100580 0.000000 
0.000000 -4.100580 0.000000 
-0.000000 -4.100580 0.000000 
0.000000 -4.100580 0.000000 
-0.000000 -4.100580 0.000000 
0.000000 -4.100580 0.000000 
0.000000 -4.100580 0.000000 
-0.000000 -4.100580 0.000000 
-0.000000 -4.100580 0.000000 
-0.000000 -4.100580 0.000000 
0.000000 -4.100580 0.000000 
-0.000000 -4.100580 0.000000 
-0.000000 -4.100580 0.000000 
0.000000 -4.100580 0.000000 
-0.000000 -4.100580 0.000000 
-0.000000 -4.100580 0.000000 
0.000000 -4.100580 0.000000 
0.000000 -4.100580 0.000000 
0.000000 -4.100580 0.000000 
-0.000000 -4.100580 0.000000 
-0.000000 -4.100580 0.000000 
-0.000000 -4.100580 0.000000 
-0.000000 -4.100580 0.000000 
-0.000000 -4.100580 0.000000 
-0.000000 -4.100580 0.000000 
0.000000 -4.100580 0.000000 
-0.000000 -4.100580 0.000000 
-0.000000 -4.100580 0.000000 
0.000000 -4.100580 0.000000 
-0.000000 -4.100580 0.000000 
0.000000 -4.100580 0.000000 
0.000000 -4.100580 0.000000 
0.000000 -4.100580 0.000000 
-0.000000 -4.100580 0.000000 
0.000000 -4.100580 0.000000 
0.000000 -4.100580 0.000000 
-0.000000 -4.100580 0.000000 
-0.000000 -4.100580 0.000000 
-0.000000 -4.100580 0.000000 
-0.000000 -4.100580 0.000000 
-0.000000 -4.100580 0.000000 
-0.000000 -4.100580 0.000000 
-0.000000 -4.100580 0.000000 
-0.000000 -4.100580 0.000000 
0.000000 -4.100580 0.000000 
-0.000000 -4.100580 0.000000 
0.000000 -4.100580 0.000000 
0.000000 -4.100580 0.000000 
0.000000 -4.100580 0.000000 
-0.000000 -4.100580 0.000000 
-0.000000 -4.100580 0.000000 
0.000000 -4.100580 0.000000 
-0.000000 -4.100580 0.000000 
0.000000 -4.100580 0.000000 
-0.000000 -4.100580 0.000000 
0.000000 -4.100580 0.000000 
-0.000000 -4.100580 0.000000 
-0.000000 -4.100580 0.000000 
0.000000 -4.100580 0.000000 
0.000000 -4.100580 0.000000 
0.000000 -4.100580 0.000000 
0.000000 -4.100580 0.000000 
0.000000 -4.100580 0.000000 
0.000000 -4.100580 0.000000 
0.000000 -4.100580 0.000000 
0.000000 -4.100580 0.000000 
0.000000 -4.100580 0.000000 
0.000000 -4.100580 0.000000 
0.000000 -4.100580 0.000000 
0.000000 -4.100580 0.000000 
0.000000 -4.100580 0.000000 
0.000000 -4.100580 0.000000 
0.000000 -4.100580 0.000000 
-0.000000 -4.100580 0.000000 
0.000000 -4.100580 0.000000 
0.000000 -4.100580 0.000000 
TENSORS STRESS float 
-0.000000 -0.000000 0.000000 
0.000000 -0.000000 0.000000 
0.000000 0.000000 0.000000 

-0.000000 0.000000 0.000000 
0.000000 -0.000000 0.000000 
0.000000 0.000000 0.000000 

-0.000000 0.000000 0.000000 
0.000000 0.000000 0.000000 
0.000000 0.000000 0.000000 

0.000000 -0.000000 0.000000 
0.000000 0.000000 0.000000 
0.000000 0.000000 0.000000 

0.000000 -0.000000 0.000000 
0.000000 0.000000 0.000000 
0.000000 0.000000 0.000000 

-0.000000 0.000000 0.000000 
0.000000 -0.000000 0.000000 
0.000000 0.000000 0.000000 

-0.000000 0.000000 0.000000 
0.000000 -0.000000 0.000000 
0.000000 0.000000 0.000000 

-0.000000 0.000000 0.000000 
0.000000 -0.000000 0.000000 
0.000000 0.000000 0.000000 

0.000000 0.000000 0.000000 
0.000000 0.000000 0.000000 
0.000000 0.000000 0.000000 

-0.000000 0.000000 0.000000 
0.000000 -0.000000 0.000000 
0.000000 0.000000 0.000000 

-0.000000 -0.000000 0.000000 
0.000000 -0.000000 0.000000 
0.000000 0.000000 0.000000 

-0.000000 0.000000 0.000000 
0.000000 -0.000000 0.000000 
0.000000 0.000000 0.000000 

-0.000000 0.000000 0.000000 
0.000000 -0.000000 0.000000 
0.000000 0.000000 0.000000 

0.000000 0.000000 0.000000 
0.000000 0.000000 0.000000 
0.000000 0.000000 0.000000 

-0.000000 0.000000 0.000000 
0.000000 0.000000 0.000000 
0.000000 0.000000 0.000000 

0.000000 0.000000 0.000000 
0.000000 0.000000 0.000000 
0.000000 0.000000 0.000000 

0.000000 0.000000 0.000000 
0.000000 0.000000 0.000000 
0.000000 0.000000 0.000000 

-0.000000 0.000000 0.000000 
0.000000 -0.000000 0.000000 
0.000000 0.000000 0.000000 

-0.000000 -0.000000 0.000000 
0.000000 -0.000000 0.000000 
0.000000 0.000000 0.000000 

0.000000 0.000000 0.000000 
0.000000 0.000000 0.000000 
0.000000 0.000000 0.000000 

-0.000000 0.000000 0.000000 
0.000000 -0.000000 0.000000 
0.000000 0.000000 0.000000 

-0.000000 0.000000 0.000000 
0.000000 0.000000 0.000000 
0.000000 0.000000 0.000000 

-0.000000 0.000000 0.000000 
0.000000 0.000000 0.000000 
0.000000 0.000000 0.000000 

-0.000000 0.000000 0.000000 
0.000000 -0.000000 0.000000 
0.000000 0.000000 0.000000 

-0.000000 -0.000000 0.000000 
0.000000 0.000000 0.000000 
0.000000 0.000000 0.000000 

0.000000 0.000000 0.000000 
0.000000 0.000000 0.000000 
0.000000 0.000000 0.000000 

-0.000000 0.000000 0.000000 
0.000000 -0.000000 0.000000 
0.000000 0.000000 0.000000 

0.000000 0.000000 0.000000 
0.000000 0.000000 0.000000 
0.000000 0.000000 0.000000 

-0.000000 0.000000 0.000000 
0.000000 0.000000 0.000000 
0.000000 0.000000 0.000000 

-0.000000 0.000000 0.000000 
0.000000 -0.000000 0.000000 
0.000000 0.000000 0.000000 

0.000000 0.000000 0.000000 
0.000000 0.000000 0.000000 
0.000000 0.000000 0.000000 

-0.000000 -0.000000 0.000000 
0.000000 0.000000 0.000000 
0.000000 0.000000 0.000000 

-0.000000 0.000000 0.000000 
0.000000 0.000000 0.000000 
0.000000 0.000000 0.000000 

-0.000000 -0.000000 0.000000 
0.000000 -0.000000 0.000000 
0.000000 0.000000 0.000000 

-0.000000 0.000000 0.000000 
0.000000 0.000000 0.000000 
0.000000 0.000000 0.000000 

0.000000 0.000000 0.000000 
0.000000 0.000000 0.000000 
0.000000 0.000000 0.000000 

0.000000 0.000000 0.000000 
0.000000 0.000000 0.000000 
0.000000 0.000000 0.000000 

-0.000000 0.000000 0.000000 
0.000000 -0.000000 0.000000 
0.000000 0.000000 0.000000 

0.000000 0.000000 0.000000 
0.000000 0.000000 0.000000 
0.000000 0.000000 0.000000 

0.000000 -0.000000 0.000000 
0.000000 0.000000 0.000000 
0.000000 0.000000 0.000000 

-0.000000 0.000000 0.000000 
0.000000 -0.000000 0.000000 
0.000000 0.000000 0.000000 

0.000000 0.000000 0.000000 
0.000000 0.000000 0.000000 
0.000000 0.000000 0.000000 

-0.000000 0.000000 0.000000 
0.000000 0.000000 0.000000 
0.000000 0.000000 0.000000 

-0.000000 0.000000 0.000000 
0.000000 -0.000000 0.000000 
0.000000 0.000000 0.000000 

-0.000000 -0.000000 0.000000 
0.000000 0.000000 0.000000 
0.000000 0.000000 0.000000 

-0.000000 0.000000 0.000000 
0.000000 -0.000000 0.000000 
0.000000 0.000000 0.000000 

0.000000 0.000000 0.000000 
0.000000 0.000000 0.000000 
0.000000 0.000000 0.000000 

-0.000000 0.000000 0.000000 
0.000000 -0.000000 0.000000 
0.000000 0.000000 0.000000 

-0.000000 0.000000 0.000000 
0.000000 -0.000000 0.000000 
0.000000 0.000000 0.000000 

-0.000000 0.000000 0.000000 
0.000000 -0.000000 0.000000 
0.000000 0.000000 0.000000 

-0.000000 -0.000000 0.000000 
0.000000 0.000000 0.000000 
0.000000 0.000000 0.000000 

-0.000000 0.000000 0.000000 
0.000000 0.000000 0.000000 
0.000000 0.000000 0.000000 

-0.000000 0.000000 0.000000 
0.000000 -0.000000 0.000000 
0.000000 0.000000 0.000000 

-0.000000 0.000000 0.000000 
0.000000 0.000000 0.000000 
0.000000 0.000000 0.000000 

-0.000000 -0.000000 0.000000 
0.000000 -0.000000 0.000000 
0.000000 0.000000 0.000000 

0.000000 -0.000000 0.000000 
0.000000 0.000000 0.000000 
0.000000 0.000000 0.000000 

-0.000000 0.000000 0.000000 
0.000000 -0.000000 0.000000 
0.000000 0.000000 0.000000 

-0.000000 0.000000 0.000000 
0.000000 0.000000 0.000000 
0.000000 0.000000 0.000000 

-0.000000 0.000000 0.000000 
0.000000 -0.000000 0.000000 
0.000000 0.000000 0.000000 

-0.000000 -0.000000 0.000000 
0.000000 -0.000000 0.000000 
0.000000 0.000000 0.000000 

-0.000000 0.000000 0.000000 
0.000000 -0.000000 0.000000 
0.000000 0.000000 0.000000 

-0.000000 -0.000000 0.000000 
0.000000 -0.000000 0.000000 
0.000000 0.000000 0.000000 

-0.000000 -0.000000 0.000000 
0.000000 -0.000000 0.000000 
0.000000 0.000000 0.000000 

-0.000000 0.000000 0.000000 
0.000000 0.000000 0.000000 
0.000000 0.000000 0.000000 

-0.000000 0.000000 0.000000 
0.000000 -0.000000 0.000000 
0.000000 0.000000 0.000000 

-0.000000 0.000000 0.000000 
0.000000 -0.000000 0.000000 
0.000000 0.000000 0.000000 

-0.000000 -0.000000 0.000000 
0.000000 -0.000000 0.000000 
0.000000 0.000000 0.000000 

0.000000 -0.000000 0.000000 
0.000000 0.000000 0.000000 
0.000000 0.000000 0.000000 

-0.000000 0.000000 0.000000 
0.000000 -0.000000 0.000000 
0.000000 0.000000 0.000000 

-0.000000 -0.000000 0.000000 
0.000000 -0.000000 0.000000 
0.000000 0.000000 0.000000 

-0.000000 -0.000000 0.000000 
0.000000 -0.000000 0.000000 
0.000000 0.000000 0.000000 

-0.000000 0.000000 0.000000 
0.000000 -0.000000 0.000000 
0.000000 0.000000 0.000000 

0.000000 0.000000 0.000000 
0.000000 0.000000 0.000000 
0.000000 0.000000 0.000000 

-0.000000 0.000000 0.000000 
0.000000 -0.000000 0.000000 
0.000000 0.000000 0.000000 

-0.000000 -0.000000 0.000000 
0.000000 -0.000000 0.000000 
0.000000 0.000000 0.000000 

-0.000000 -0.000000 0.000000 
0.000000 -0.000000 0.000000 
0.000000 0.000000 0.000000 

0.000000 -0.000000 0.000000 
0.000000 0.000000 0.000000 
0.000000 0.000000 0.000000 

-0.000000 -0.000000 0.000000 
0.000000 -0.000000 0.000000 
0.000000 0.000000 0.000000 

0.000000 0.000000 0.000000 
0.000000 0.000000 0.000000 
0.000000 0.000000 0.000000 

-0.000000 -0.000000 0.000000 
0.000000 -0.000000 0.000000 
0.000000 0.000000 0.000000 

-0.000000 0.000000 0.000000 
0.000000 -0.000000 0.000000 
0.000000 0.000000 0.000000 

-0.000000 0.000000 0.000000 
0.000000 -0.000000 0.000000 
0.000000 0.000000 0.000000 

-0.000000 -0.000000 0.000000 
0.000000 -0.000000 0.000000 
0.000000 0.000000 0.000000 

-0.000000 0.000000 0.000000 
0.000000 0.000000 0.000000 
0.000000 0.000000 0.000000 

-0.000000 0.000000 0.000000 
0.000000 0.000000 0.000000 
0.000000 0.000000 0.000000 

-0.000000 0.000000 0.000000 
0.000000 -0.000000 0.000000 
0.000000 0.000000 0.000000 

-0.000000 0.000000 0.000000 
0.000000 0.000000 0.000000 
0.000000 0.000000 0.000000 

-0.000000 0.000000 0.000000 
0.000000 0.000000 0.000000 
0.000000 0.000000 0.000000 

-0.000000 0.000000 0.000000 
0.000000 -0.000000 0.000000 
0.000000 0.000000 0.000000 

-0.000000 0.000000 0.000000 
0.000000 -0.000000 0.000000 
0.000000 0.000000 0.000000 

0.000000 0.000000 0.000000 
0.000000 0.000000 0.000000 
0.000000 0.000000 0.000000 

0.000000 -0.000000 0.000000 
0.000000 0.000000 0.000000 
0.000000 0.000000 0.000000 

0.000000 0.000000 0.000000 
0.000000 0.000000 0.000000 
0.000000 0.000000 0.000000 

-0.000000 0.000000 0.000000 
0.000000 -0.000000 0.000000 
0.000000 0.000000 0.000000 

0.000000 0.000000 0.000000 
0.000000 0.000000 0.000000 
0.000000 0.000000 0.000000 

-0.000000 0.000000 0.000000 
0.000000 -0.000000 0.000000 
0.000000 0.000000 0.000000 

-0.000000 0.000000 0.000000 
0.000000 -0.000000 0.000000 
0.000000 0.000000 0.000000 

0.000000 0.000000 0.000000 
0.000000 0.000000 0.000000 
0.000000 0.000000 0.000000 

-0.000000 0.000000 0.000000 
0.000000 -0.000000 0.000000 
0.000000 0.000000 0.000000 

-0.000000 0.000000 0.000000 
0.000000 -0.000000 0.000000 
0.000000 0.000000 0.000000 

-0.000000 0.000000 0.000000 
0.000000 -0.000000 0.000000 
0.000000 0.000000 0.000000 

-0.000000 0.000000 0.000000 
0.000000 -0.000000 0.000000 
0.000000 0.000000 0.000000 

-0.000000 0.000000 0.000000 
0.000000 -0.000000 0.000000 
0.000000 0.000000 0.000000 

-0.000000 0.000000 0.000000 
0.000000 -0.000000 0.000000 
0.000000 0.000000 0.000000 

-0.000000 0.000000 0.000000 
0.000000 -0.000000 0.000000 
0.000000 0.000000 0.000000 

-0.000000 -0.000000 0.000000 
0.000000 0.000000 0.000000 
0.000000 0.000000 0.000000 

-0.000000 0.000000 0.000000 
0.000000 -0.000000 0.000000 
0.000000 0.000000 0.000000 

-0.000000 -0.000000 0.000000 
0.000000 0.000000 0.000000 
0.000000 0.000000 0.000000 

-0.000000 -0.000000 0.000000 
0.000000 0.000000 0.000000 
0.000000 0.000000 0.000000 

-0.000000 -0.000000 0.000000 
0.000000 -0.000000 0.000000 
0.000000 0.000000 0.000000 

-0.000000 -0.000000 0.000000 
0.000000 -0.000000 0.000000 
0.000000 0.000000 0.000000 

-0.000000 0.000000 0.000000 
0.000000 -0.000000 0.000000 
0.000000 0.000000 0.000000 

-0.000000 -0.000000 0.000000 
0.000000 -0.000000 0.000000 
0.000000 0.000000 0.000000 

-0.000000 0.000000 0.000000 
0.000000 -0.000000 0.000000 
0.000000 0.000000 0.000000 

-0.000000 0.000000 0.000000 
0.000000 0.000000 0.000000 
0.000000 0.000000 0.000000 

-0.000000 -0.000000 0.000000 
0.000000 -0.000000 0.000000 
0.000000 0.000000 0.000000 

0.000000 0.000000 0.000000 
0.000000 0.000000 0.000000 
0.000000 0.000000 0.000000 

-0.000000 0.000000 0.000000 
0.000000 -0.000000 0.000000 
0.000000 0.000000 0.000000 

-0.000000 0.000000 0.000000 
0.000000 0.000000 0.000000 
0.000000 0.000000 0.000000 

-0.000000 0.000000 0.000000 
0.000000 0.000000 0.000000 
0.000000 0.000000 0.000000 

-0.000000 0.000000 0.000000 
0.000000 0.000000 0.000000 
0.000000 0.000000 0.000000 

-0.000000 0.000000 0.000000 
0.000000 -0.000000 0.000000 
0.000000 0.000000 0.000000 

-0.000000 -0.000000 0.000000 
0.000000 0.000000 0.000000 
0.000000 0.000000 0.000000 

0.000000 -0.000000 0.000000 
0.000000 0.000000 0.000000 
0.000000 0.000000 0.000000 

0.000000 0.000000 0.000000 
0.000000 0.000000 0.000000 
0.000000 0.000000 0.000000 

0.000000 0.000000 0.000000 
0.000000 0.000000 0.000000 
0.000000 0.000000 0.000000 

0.000000 0.000000 0.000000 
0.000000 0.000000 0.000000 
0.000000 0.000000 0.000000 

0.000000 0.000000 0.000000 
0.000000 0.000000 0.000000 
0.000000 0.000000 0.000000 

-0.000000 0.000000 0.000000 
0.000000 0.000000 0.000000 
0.000000 0.000000 0.000000 

-0.000000 0.000000 0.000000 
0.000000 -0.000000 0.000000 
0.000000 0.000000 0.000000 

-0.000000 -0.000000 0.000000 
0.000000 0.000000 0.000000 
0.000000 0.000000 0.000000 

-0.000000 -0.000000 0.000000 
0.000000 -0.000000 0.000000 
0.000000 0.000000 0.000000 

0.000000 0.000000 0.000000 
0.000000 0.000000 0.000000 
0.000000 0.000000 0.000000 

-0.000000 0.000000 0.000000 
0.000000 -0.000000 0.000000 
0.000000 0.000000 0.000000 

-0.000000 -0.000000 0.000000 
0.000000 -0.000000 0.000000 
0.000000 0.000000 0.000000 

-0.000000 -0.000000 0.000000 
0.000000 -0.000000 0.000000 
0.000000 0.000000 0.000000 

0.000000 0.000000 0.000000 
0.000000 0.000000 0.000000 
0.000000 0.000000 0.000000 

-0.000000 0.000000 0.000000 
0.000000 0.000000 0.000000 
0.000000 0.000000 0.000000 

-0.000000 0.000000 0.000000 
0.000000 0.000000 0.000000 
0.000000 0.000000 0.000000 

-0.000000 0.000000 0.000000 
0.000000 0.000000 0.000000 
0.000000 0.000000 0.000000 

-0.000000 0.000000 0.000000 
0.000000 -0.000000 0.000000 
0.000000 0.000000 0.000000 

0.000000 0.000000 0.000000 
0.000000 0.000000 0.000000 
0.000000 0.000000 0.000000 

0.000000 0.000000 0.000000 
0.000000 0.000000 0.000000 
0.000000 0.000000 0.000000 

-0.000000 0.000000 0.000000 
0.000000 -0.000000 0.000000 
0.000000 0.000000 0.000000 

-0.000000 0.000000 0.000000 
0.000000 -0.000000 0.000000 
0.000000 0.000000 0.000000 

-0.000000 0.000000 0.000000 
0.000000 0.000000 0.000000 
0.000000 0.000000 0.000000 

-0.000000 0.000000 0.000000 
0.000000 -0.000000 0.000000 
0.000000 0.000000 0.000000 

-0.000000 -0.000000 0.000000 
0.000000 -0.000000 0.000000 
0.000000 0.000000 0.000000 

-0.000000 -0.000000 0.000000 
0.000000 -0.000000 0.000000 
0.000000 0.000000 0.000000 

-0.000000 -0.000000 0.000000 
0.000000 -0.000000 0.000000 
0.000000 0.000000 0.000000 

-0.000000 -0.000000 0.000000 
0.000000 -0.000000 0.000000 
0.000000 0.000000 0.000000 

-0.000000 -0.000000 0.000000 
0.000000 -0.000000 0.000000 
0.000000 0.000000 0.000000 

-0.000000 0.000000 0.000000 
0.000000 -0.000000 0.000000 
0.000000 0.000000 0.000000 

-0.000000 -0.000000 0.000000 
0.000000 0.000000 0.000000 
0.000000 0.000000 0.000000 

-0.000000 -0.000000 0.000000 
0.000000 -0.000000 0.000000 
0.000000 0.000000 0.000000 

0.000000 -0.000000 0.000000 
0.000000 0.000000 0.000000 
0.000000 0.000000 0.000000 

-0.000000 0.000000 0.000000 
0.000000 -0.000000 0.000000 
0.000000 0.000000 0.000000 

0.000000 -0.000000 0.000000 
0.000000 0.000000 0.000000 
0.000000 0.000000 0.000000 

-0.000000 -0.000000 0.000000 
0.000000 0.000000 0.000000 
0.000000 0.000000 0.000000 

-0.000000 -0.000000 0.000000 
0.000000 -0.000000 0.000000 
0.000000 0.000000 0.000000 

-0.000000 -0.000000 0.000000 
0.000000 0.000000 0.000000 
0.000000 0.000000 0.000000 

0.000000 0.000000 0.000000 
0.000000 0.000000 0.000000 
0.000000 0.000000 0.000000 

0.000000 0.000000 0.000000 
0.000000 0.000000 0.000000 
0.000000 0.000000 0.000000 

-0.000000 -0.000000 0.000000 
0.000000 -0.000000 0.000000 
0.000000 0.000000 0.000000 

0.000000 -0.000000 0.000000 
0.000000 0.000000 0.000000 
0.000000 0.000000 0.000000 

-0.000000 -0.000000 0.000000 
0.000000 -0.000000 0.000000 
0.000000 0.000000 0.000000 

0.000000 -0.000000 0.000000 
0.000000 0.000000 0.000000 
0.000000 0.000000 0.000000 

-0.000000 -0.000000 0.000000 
0.000000 0.000000 0.000000 
0.000000 0.000000 0.000000 

-0.000000 -0.000000 0.000000 
0.000000 -0.000000 0.000000 
0.000000 0.000000 0.000000 

0.000000 -0.000000 0.000000 
0.000000 0.000000 0.000000 
0.000000 0.000000 0.000000 

-0.000000 0.000000 0.000000 
0.000000 0.000000 0.000000 
0.000000 0.000000 0.000000 

-0.000000 -0.000000 0.000000 
0.000000 -0.000000 0.000000 
0.000000 0.000000 0.000000 

0.000000 -0.000000 0.000000 
0.000000 0.000000 0.000000 
0.000000 0.000000 0.000000 

-0.000000 -0.000000 0.000000 
0.000000 -0.000000 0.000000 
0.000000 0.000000 0.000000 

-0.000000 0.000000 0.000000 
0.000000 -0.000000 0.000000 
0.000000 0.000000 0.000000 

-0.000000 -0.000000 0.000000 
0.000000 0.000000 0.000000 
0.000000 0.000000 0.000000 

-0.000000 -0.000000 0.000000 
0.000000 -0.000000 0.000000 
0.000000 0.000000 0.000000 

-0.000000 0.000000 0.000000 
0.000000 -0.000000 0.000000 
0.000000 0.000000 0.000000 

0.000000 -0.000000 0.000000 
0.000000 0.000000 0.000000 
0.000000 0.000000 0.000000 

0.000000 -0.000000 0.000000 
0.000000 0.000000 0.000000 
0.000000 0.000000 0.000000 

0.000000 0.000000 0.000000 
0.000000 0.000000 0.000000 
0.000000 0.000000 0.000000 

0.000000 -0.000000 0.000000 
0.000000 0.000000 0.000000 
0.000000 0.000000 0.000000 

0.000000 0.000000 0.000000 
0.000000 0.000000 0.000000 
0.000000 0.000000 0.000000 

0.000000 0.000000 0.000000 
0.000000 0.000000 0.000000 
0.000000 0.000000 0.000000 

TENSORS STRAIN float 
-0.000000 -0.000000 0.000000 
0.000000 0.000000 0.000000 
0.000000 0.000000 0.000000 

-0.000000 0.000000 0.000000 
0.000000 -0.000000 0.000000 
0.000000 0.000000 0.000000 

-0.000000 0.000000 0.000000 
0.000000 0.000000 0.000000 
0.000000 0.000000 0.000000 

-0.000000 -0.000000 0.000000 
0.000000 0.000000 0.000000 
0.000000 0.000000 0.000000 

-0.000000 -0.000000 0.000000 
0.000000 0.000000 0.000000 
0.000000 0.000000 0.000000 

0.000000 0.000000 0.000000 
0.000000 -0.000000 0.000000 
0.000000 0.000000 0.000000 

-0.000000 0.000000 0.000000 
0.000000 -0.000000 0.000000 
0.000000 0.000000 0.000000 

-0.000000 0.000000 0.000000 
0.000000 -0.000000 0.000000 
0.000000 0.000000 0.000000 

-0.000000 0.000000 0.000000 
0.000000 0.000000 0.000000 
0.000000 0.000000 0.000000 

-0.000000 0.000000 0.000000 
0.000000 -0.000000 0.000000 
0.000000 0.000000 0.000000 

-0.000000 -0.000000 0.000000 
0.000000 0.000000 0.000000 
0.000000 0.000000 0.000000 

-0.000000 0.000000 0.000000 
0.000000 -0.000000 0.000000 
0.000000 0.000000 0.000000 

-0.000000 0.000000 0.000000 
0.000000 -0.000000 0.000000 
0.000000 0.000000 0.000000 

-0.000000 0.000000 0.000000 
0.000000 0.000000 0.000000 
0.000000 0.000000 0.000000 

-0.000000 0.000000 0.000000 
0.000000 0.000000 0.000000 
0.000000 0.000000 0.000000 

-0.000000 0.000000 0.000000 
0.000000 0.000000 0.000000 
0.000000 0.000000 0.000000 

0.000000 0.000000 0.000000 
0.000000 0.000000 0.000000 
0.000000 0.000000 0.000000 

-0.000000 0.000000 0.000000 
0.000000 -0.000000 0.000000 
0.000000 0.000000 0.000000 

-0.000000 -0.000000 0.000000 
0.000000 -0.000000 0.000000 
0.000000 0.000000 0.000000 

0.000000 0.000000 0.000000 
0.000000 0.000000 0.000000 
0.000000 0.000000 0.000000 

-0.000000 0.000000 0.000000 
0.000000 -0.000000 0.000000 
0.000000 0.000000 0.000000 

-0.000000 0.000000 0.000000 
0.000000 0.000000 0.000000 
0.000000 0.000000 0.000000 

-0.000000 0.000000 0.000000 
0.000000 0.000000 0.000000 
0.000000 0.000000 0.000000 

-0.000000 0.000000 0.000000 
0.000000 -0.000000 0.000000 
0.000000 0.000000 0.000000 

-0.000000 -0.000000 0.000000 
0.000000 0.000000 0.000000 
0.000000 0.000000 0.000000 

-0.000000 0.000000 0.000000 
0.000000 0.000000 0.000000 
0.000000 0.000000 0.000000 

-0.000000 0.000000 0.000000 
0.000000 -0.000000 0.000000 
0.000000 0.000000 0.000000 

0.000000 0.000000 0.000000 
0.000000 0.000000 0.000000 
0.000000 0.000000 0.000000 

-0.000000 0.000000 0.000000 
0.000000 0.000000 0.000000 
0.000000 0.000000 0.000000 

-0.000000 0.000000 0.000000 
0.000000 -0.000000 0.000000 
0.000000 0.000000 0.000000 

0.000000 0.000000 0.000000 
0.000000 0.000000 0.000000 
0.000000 0.000000 0.000000 

-0.000000 -0.000000 0.000000 
0.000000 0.000000 0.000000 
0.000000 0.000000 0.000000 

-0.000000 0.000000 0.000000 
0.000000 0.000000 0.000000 
0.000000 0.000000 0.000000 

-0.000000 -0.000000 0.000000 
0.000000 -0.000000 0.000000 
0.000000 0.000000 0.000000 

-0.000000 0.000000 0.000000 
0.000000 0.000000 0.000000 
0.000000 0.000000 0.000000 

-0.000000 0.000000 0.000000 
0.000000 0.000000 0.000000 
0.000000 0.000000 0.000000 

-0.000000 0.000000 0.000000 
0.000000 0.000000 0.000000 
0.000000 0.000000 0.000000 

-0.000000 0.000000 0.000000 
0.000000 0.000000 0.000000 
0.000000 0.000000 0.000000 

0.000000 0.000000 0.000000 
0.000000 0.000000 0.000000 
0.000000 0.000000 0.000000 

0.000000 -0.000000 0.000000 
0.000000 0.000000 0.000000 
0.000000 0.000000 0.000000 

0.000000 0.000000 0.000000 
0.000000 -0.000000 0.000000 
0.000000 0.000000 0.000000 

0.000000 0.000000 0.000000 
0.000000 0.000000 0.000000 
0.000000 0.000000 0.000000 

-0.000000 0.000000 0.000000 
0.000000 0.000000 0.000000 
0.000000 0.000000 0.000000 

-0.000000 0.000000 0.000000 
0.000000 -0.000000 0.000000 
0.000000 0.000000 0.000000 

-0.000000 -0.000000 0.000000 
0.000000 0.000000 0.000000 
0.000000 0.000000 0.000000 

-0.000000 0.000000 0.000000 
0.000000 -0.000000 0.000000 
0.000000 0.000000 0.000000 

0.000000 0.000000 0.000000 
0.000000 0.000000 0.000000 
0.000000 0.000000 0.000000 

-0.000000 0.000000 0.000000 
0.000000 -0.000000 0.000000 
0.000000 0.000000 0.000000 

-0.000000 0.000000 0.000000 
0.000000 -0.000000 0.000000 
0.000000 0.000000 0.000000 

-0.000000 0.000000 0.000000 
0.000000 -0.000000 0.000000 
0.000000 0.000000 0.000000 

-0.000000 -0.000000 0.000000 
0.000000 0.000000 0.000000 
0.000000 0.000000 0.000000 

-0.000000 0.000000 0.000000 
0.000000 0.000000 0.000000 
0.000000 0.000000 0.000000 

0.000000 0.000000 0.000000 
0.000000 -0.000000 0.000000 
0.000000 0.000000 0.000000 

-0.000000 0.000000 0.000000 
0.000000 0.000000 0.000000 
0.000000 0.000000 0.000000 

0.000000 -0.000000 0.000000 
0.000000 -0.000000 0.000000 
0.000000 0.000000 0.000000 

-0.000000 -0.000000 0.000000 
0.000000 0.000000 0.000000 
0.000000 0.000000 0.000000 

-0.000000 0.000000 0.000000 
0.000000 -0.000000 0.000000 
0.000000 0.000000 0.000000 

-0.000000 0.000000 0.000000 
0.000000 0.000000 0.000000 
0.000000 0.000000 0.000000 

-0.000000 0.000000 0.000000 
0.000000 -0.000000 0.000000 
0.000000 0.000000 0.000000 

-0.000000 -0.000000 0.000000 
0.000000 0.000000 0.000000 
0.000000 0.000000 0.000000 

-0.000000 0.000000 0.000000 
0.000000 -0.000000 0.000000 
0.000000 0.000000 0.000000 

-0.000000 -0.000000 0.000000 
0.000000 -0.000000 0.000000 
0.000000 0.000000 0.000000 

-0.000000 -0.000000 0.000000 
0.000000 -0.000000 0.000000 
0.000000 0.000000 0.000000 

-0.000000 0.000000 0.000000 
0.000000 0.000000 0.000000 
0.000000 0.000000 0.000000 

-0.000000 0.000000 0.000000 
0.000000 -0.000000 0.000000 
0.000000 0.000000 0.000000 

-0.000000 0.000000 0.000000 
0.000000 -0.000000 0.000000 
0.000000 0.000000 0.000000 

-0.000000 -0.000000 0.000000 
0.000000 -0.000000 0.000000 
0.000000 0.000000 0.000000 

-0.000000 -0.000000 0.000000 
0.000000 0.000000 0.000000 
0.000000 0.000000 0.000000 

-0.000000 0.000000 0.000000 
0.000000 -0.000000 0.000000 
0.000000 0.000000 0.000000 

-0.000000 -0.000000 0.000000 
0.000000 -0.000000 0.000000 
0.000000 0.000000 0.000000 

-0.000000 -0.000000 0.000000 
0.000000 -0.000000 0.000000 
0.000000 0.000000 0.000000 

-0.000000 0.000000 0.000000 
0.000000 -0.000000 0.000000 
0.000000 0.000000 0.000000 

-0.000000 0.000000 0.000000 
0.000000 0.000000 0.000000 
0.000000 0.000000 0.000000 

-0.000000 0.000000 0.000000 
0.000000 -0.000000 0.000000 
0.000000 0.000000 0.000000 

0.000000 -0.000000 0.000000 
0.000000 -0.000000 0.000000 
0.000000 0.000000 0.000000 

-0.000000 -0.000000 0.000000 
0.000000 -0.000000 0.000000 
0.000000 0.000000 0.000000 

0.000000 -0.000000 0.000000 
0.000000 0.000000 0.000000 
0.000000 0.000000 0.000000 

0.000000 -0.000000 0.000000 
0.000000 -0.000000 0.000000 
0.000000 0.000000 0.000000 

-0.000000 0.000000 0.000000 
0.000000 0.000000 0.000000 
0.000000 0.000000 0.000000 

-0.000000 -0.000000 0.000000 
0.000000 -0.000000 0.000000 
0.000000 0.000000 0.000000 

-0.000000 0.000000 0.000000 
0.000000 -0.000000 0.000000 
0.000000 0.000000 0.000000 

-0.000000 0.000000 0.000000 
0.000000 -0.000000 0.000000 
0.000000 0.000000 0.000000 

-0.000000 -0.000000 0.000000 
0.000000 0.000000 0.000000 
0.000000 0.000000 0.000000 

-0.000000 0.000000 0.000000 
0.000000 0.000000 0.000000 
0.000000 0.000000 0.000000 

-0.000000 0.000000 0.000000 
0.000000 0.000000 0.000000 
0.000000 0.000000 0.000000 

-0.000000 0.000000 0.000000 
0.000000 0.000000 0.000000 
0.000000 0.000000 0.000000 

-0.000000 0.000000 0.000000 
0.000000 0.000000 0.000000 
0.000000 0.000000 0.000000 

-0.000000 0.000000 0.000000 
0.000000 0.000000 0.000000 
0.000000 0.000000 0.000000 

-0.000000 0.000000 0.000000 
0.000000 0.000000 0.000000 
0.000000 0.000000 0.000000 

-0.000000 0.000000 0.000000 
0.000000 -0.000000 0.000000 
0.000000 0.000000 0.000000 

-0.000000 0.000000 0.000000 
0.000000 0.000000 0.000000 
0.000000 0.000000 0.000000 

-0.000000 -0.000000 0.000000 
0.000000 0.000000 0.000000 
0.000000 0.000000 0.000000 

-0.000000 0.000000 0.000000 
0.000000 0.000000 0.000000 
0.000000 0.000000 0.000000 

-0.000000 0.000000 0.000000 
0.000000 -0.000000 0.000000 
0.000000 0.000000 0.000000 

-0.000000 0.000000 0.000000 
0.000000 0.000000 0.000000 
0.000000 0.000000 0.000000 

-0.000000 0.000000 0.000000 
0.000000 -0.000000 0.000000 
0.000000 0.000000 0.000000 

-0.000000 0.000000 0.000000 
0.000000 -0.000000 0.000000 
0.000000 0.000000 0.000000 

-0.000000 0.000000 0.000000 
0.000000 0.000000 0.000000 
0.000000 0.000000 0.000000 

-0.000000 0.000000 0.000000 
0.000000 -0.000000 0.000000 
0.000000 0.000000 0.000000 

-0.000000 0.000000 0.000000 
0.000000 -0.000000 0.000000 
0.000000 0.000000 0.000000 

-0.000000 0.000000 0.000000 
0.000000 -0.000000 0.000000 
0.000000 0.000000 0.000000 

-0.000000 0.000000 0.000000 
0.000000 0.000000 0.000000 
0.000000 0.000000 0.000000 

-0.000000 0.000000 0.000000 
0.000000 0.000000 0.000000 
0.000000 0.000000 0.000000 

-0.000000 0.000000 0.000000 
0.000000 -0.000000 0.000000 
0.000000 0.000000 0.000000 

-0.000000 0.000000 0.000000 
0.000000 0.000000 0.000000 
0.000000 0.000000 0.000000 

-0.000000 -0.000000 0.000000 
0.000000 0.000000 0.000000 
0.000000 0.000000 0.000000 

-0.000000 0.000000 0.000000 
0.000000 -0.000000 0.000000 
0.000000 0.000000 0.000000 

-0.000000 -0.000000 0.000000 
0.000000 0.000000 0.000000 
0.000000 0.000000 0.000000 

-0.000000 -0.000000 0.000000 
0.000000 0.000000 0.000000 
0.000000 0.000000 0.000000 

-0.000000 -0.000000 0.000000 
0.000000 -0.000000 0.000000 
0.000000 0.000000 0.000000 

-0.000000 -0.000000 0.000000 
0.000000 0.000000 0.000000 
0.000000 0.000000 0.000000 

-0.000000 0.000000 0.000000 
0.000000 -0.000000 0.000000 
0.000000 0.000000 0.000000 

-0.000000 -0.000000 0.000000 
0.000000 -0.000000 0.000000 
0.000000 0.000000 0.000000 

-0.000000 0.000000 0.000000 
0.000000 0.000000 0.000000 
0.000000 0.000000 0.000000 

-0.000000 0.000000 0.000000 
0.000000 0.000000 0.000000 
0.000000 0.000000 0.000000 

-0.000000 -0.000000 0.000000 
0.000000 -0.000000 0.000000 
0.000000 0.000000 0.000000 

-0.000000 0.000000 0.000000 
0.000000 0.000000 0.000000 
0.000000 0.000000 0.000000 

-0.000000 0.000000 0.000000 
0.000000 -0.000000 0.000000 
0.000000 0.000000 0.000000 

-0.000000 0.000000 0.000000 
0.000000 0.000000 0.000000 
0.000000 0.000000 0.000000 

-0.000000 0.000000 0.000000 
0.000000 0.000000 0.000000 
0.000000 0.000000 0.000000 

-0.000000 0.000000 0.000000 
0.000000 0.000000 0.000000 
0.000000 0.000000 0.000000 

-0.000000 0.000000 0.000000 
0.000000 -0.000000 0.000000 
0.000000 0.000000 0.000000 

-0.000000 -0.000000 0.000000 
0.000000 0.000000 0.000000 
0.000000 0.000000 0.000000 

-0.000000 -0.000000 0.000000 
0.000000 0.000000 0.000000 
0.000000 0.000000 0.000000 

0.000000 0.000000 0.000000 
0.000000 0.000000 0.000000 
0.000000 0.000000 0.000000 

-0.000000 0.000000 0.000000 
0.000000 0.000000 0.000000 
0.000000 0.000000 0.000000 

-0.000000 0.000000 0.000000 
0.000000 0.000000 0.000000 
0.000000 0.000000 0.000000 

0.000000 0.000000 0.000000 
0.000000 0.000000 0.000000 
0.000000 0.000000 0.000000 

-0.000000 0.000000 0.000000 
0.000000 0.000000 0.000000 
0.000000 0.000000 0.000000 

-0.000000 0.000000 0.000000 
0.000000 -0.000000 0.000000 
0.000000 0.000000 0.000000 

-0.000000 -0.000000 0.000000 
0.000000 0.000000 0.000000 
0.000000 0.000000 0.000000 

-0.000000 -0.000000 0.000000 
0.000000 -0.000000 0.000000 
0.000000 0.000000 0.000000 

-0.000000 0.000000 0.000000 
0.000000 0.000000 0.000000 
0.000000 0.000000 0.000000 

-0.000000 0.000000 0.000000 
0.000000 -0.000000 0.000000 
0.000000 0.000000 0.000000 

0.000000 -0.000000 0.000000 
0.000000 -0.000000 0.000000 
0.000000 0.000000 0.000000 

-0.000000 -0.000000 0.000000 
0.000000 -0.000000 0.000000 
0.000000 0.000000 0.000000 

-0.000000 0.000000 0.000000 
0.000000 0.000000 0.000000 
0.000000 0.000000 0.000000 

-0.000000 0.000000 0.000000 
0.000000 0.000000 0.000000 
0.000000 0.000000 0.000000 

-0.000000 0.000000 0.000000 
0.000000 0.000000 0.000000 
0.000000 0.000000 0.000000 

-0.000000 0.000000 0.000000 
0.000000 0.000000 0.000000 
0.000000 0.000000 0.000000 

0.000000 0.000000 0.000000 
0.000000 -0.000000 0.000000 
0.000000 0.000000 0.000000 

-0.000000 0.000000 0.000000 
0.000000 0.000000 0.000000 
0.000000 0.000000 0.000000 

-0.000000 0.000000 0.000000 
0.000000 0.000000 0.000000 
0.000000 0.000000 0.000000 

-0.000000 0.000000 0.000000 
0.000000 -0.000000 0.000000 
0.000000 0.000000 0.000000 

-0.000000 0.000000 0.000000 
0.000000 -0.000000 0.000000 
0.000000 0.000000 0.000000 

-0.000000 0.000000 0.000000 
0.000000 0.000000 0.000000 
0.000000 0.000000 0.000000 

-0.000000 0.000000 0.000000 
0.000000 -0.000000 0.000000 
0.000000 0.000000 0.000000 

-0.000000 -0.000000 0.000000 
0.000000 -0.000000 0.000000 
0.000000 0.000000 0.000000 

-0.000000 -0.000000 0.000000 
0.000000 -0.000000 0.000000 
0.000000 0.000000 0.000000 

-0.000000 -0.000000 0.000000 
0.000000 -0.000000 0.000000 
0.000000 0.000000 0.000000 

-0.000000 -0.000000 0.000000 
0.000000 -0.000000 0.000000 
0.000000 0.000000 0.000000 

-0.000000 -0.000000 0.000000 
0.000000 -0.000000 0.000000 
0.000000 0.000000 0.000000 

-0.000000 0.000000 0.000000 
0.000000 -0.000000 0.000000 
0.000000 0.000000 0.000000 

-0.000000 -0.000000 0.000000 
0.000000 0.000000 0.000000 
0.000000 0.000000 0.000000 

-0.000000 -0.000000 0.000000 
0.000000 -0.000000 0.000000 
0.000000 0.000000 0.000000 

-0.000000 -0.000000 0.000000 
0.000000 0.000000 0.000000 
0.000000 0.000000 0.000000 

-0.000000 0.000000 0.000000 
0.000000 -0.000000 0.000000 
0.000000 0.000000 0.000000 

-0.000000 -0.000000 0.000000 
0.000000 0.000000 0.000000 
0.000000 0.000000 0.000000 

-0.000000 -0.000000 0.000000 
0.000000 0.000000 0.000000 
0.000000 0.000000 0.000000 

-0.000000 -0.000000 0.000000 
0.000000 -0.000000 0.000000 
0.000000 0.000000 0.000000 

-0.000000 -0.000000 0.000000 
0.000000 0.000000 0.000000 
0.000000 0.000000 0.000000 

0.000000 0.000000 0.000000 
0.000000 0.000000 0.000000 
0.000000 0.000000 0.000000 

-0.000000 0.000000 0.000000 
0.000000 0.000000 0.000000 
0.000000 0.000000 0.000000 

-0.000000 -0.000000 0.000000 
0.000000 -0.000000 0.000000 
0.000000 0.000000 0.000000 

-0.000000 -0.000000 0.000000 
0.000000 0.000000 0.000000 
0.000000 0.000000 0.000000 

-0.000000 -0.000000 0.000000 
0.000000 -0.000000 0.000000 
0.000000 0.000000 0.000000 

-0.000000 -0.000000 0.000000 
0.000000 0.000000 0.000000 
0.000000 0.000000 0.000000 

-0.000000 -0.000000 0.000000 
0.000000 0.000000 0.000000 
0.000000 0.000000 0.000000 

-0.000000 -0.000000 0.000000 
0.000000 -0.000000 0.000000 
0.000000 0.000000 0.000000 

-0.000000 -0.000000 0.000000 
0.000000 0.000000 0.000000 
0.000000 0.000000 0.000000 

-0.000000 0.000000 0.000000 
0.000000 0.000000 0.000000 
0.000000 0.000000 0.000000 

-0.000000 -0.000000 0.000000 
0.000000 -0.000000 0.000000 
0.000000 0.000000 0.000000 

-0.000000 -0.000000 0.000000 
0.000000 0.000000 0.000000 
0.000000 0.000000 0.000000 

-0.000000 -0.000000 0.000000 
0.000000 -0.000000 0.000000 
0.000000 0.000000 0.000000 

-0.000000 0.000000 0.000000 
0.000000 0.000000 0.000000 
0.000000 0.000000 0.000000 

-0.000000 -0.000000 0.000000 
0.000000 0.000000 0.000000 
0.000000 0.000000 0.000000 

-0.000000 -0.000000 0.000000 
0.000000 0.000000 0.000000 
0.000000 0.000000 0.000000 

0.000000 0.000000 0.000000 
0.000000 -0.000000 0.000000 
0.000000 0.000000 0.000000 

-0.000000 -0.000000 0.000000 
0.000000 0.000000 0.000000 
0.000000 0.000000 0.000000 

-0.000000 -0.000000 0.000000 
0.000000 0.000000 0.000000 
0.000000 0.000000 0.000000 

0.000000 0.000000 0.000000 
0.000000 0.000000 0.000000 
0.000000 0.000000 0.000000 

0.000000 -0.000000 0.000000 
0.000000 0.000000 0.000000 
0.000000 0.000000 0.000000 

-0.000000 0.000000 0.000000 
0.000000 0.000000 0.000000 
0.000000 0.000000 0.000000 

-0.000000 0.000000 0.000000 
0.000000 0.000000 0.000000 
0.000000 0.000000 0.000000 

