# vtk DataFile Version 3.0 
vtk output 
ASCII 
DATASET UNSTRUCTURED_GRID 
POINTS 184 float 
-0.031581 -2.096952 0.000000 
-0.390272 -2.943829 0.000000 
0.472893 -2.594160 0.000000 
-0.448735 -2.406070 0.000000 
0.182637 -3.114034 0.000000 
0.222199 -2.150601 0.000000 
-0.285813 -2.191114 0.000000 
-0.105466 -3.156564 0.000000 
0.418772 -2.344361 0.000000 
-0.464883 -2.669250 0.000000 
0.404544 -2.866366 0.000000 
-0.167326 -2.123196 0.000000 
-0.228756 -3.059814 0.000000 
0.464259 -2.467797 0.000000 
-0.474533 -2.541618 0.000000 
0.288996 -2.984887 0.000000 
0.098304 -2.104466 0.000000 
-0.380480 -2.282242 0.000000 
0.056805 -3.177630 0.000000 
0.337406 -2.229563 0.000000 
-0.437186 -2.786727 0.000000 
0.445689 -2.724790 0.000000 
-0.127213 -2.111008 0.000000 
-0.317600 -2.983676 0.000000 
0.472804 -2.548039 0.000000 
-0.461763 -2.453649 0.000000 
0.253668 -3.035285 0.000000 
0.174697 -2.130910 0.000000 
-0.349525 -2.245953 0.000000 
-0.052384 -3.165245 0.000000 
0.368331 -2.265528 0.000000 
-0.452693 -2.711261 0.000000 
0.431073 -2.769602 0.000000 
-0.210636 -2.145480 0.000000 
-0.152816 -3.128462 0.000000 
0.438146 -2.387632 0.000000 
-0.474243 -2.586817 0.000000 
0.346037 -2.960903 0.000000 
0.017148 -2.096174 0.000000 
-0.429937 -2.361837 0.000000 
0.106583 -3.163535 0.000000 
0.300484 -2.199064 0.000000 
-0.420318 -2.887503 0.000000 
0.457893 -2.682394 0.000000 
-0.081334 -2.127189 0.000000 
0.368907 -2.311112 0.000000 
0.045007 -2.123420 0.000000 
0.212205 -3.000737 0.000000 
-0.164363 -3.028231 0.000000 
-0.389557 -2.822961 0.000000 
0.393461 -2.783266 0.000000 
-0.307511 -2.242365 0.000000 
-0.389647 -2.341944 0.000000 
0.425066 -2.427705 0.000000 
0.138118 -2.143974 0.000000 
0.124671 -3.054617 0.000000 
-0.256374 -2.956980 0.000000 
-0.417553 -2.729379 0.000000 
0.439792 -2.641202 0.000000 
0.339073 -2.883031 0.000000 
-0.003670 -3.048730 0.000000 
-0.227378 -2.181762 0.000000 
-0.445487 -2.492544 0.000000 
-0.446392 -2.620538 0.000000 
0.253956 -2.198129 0.000000 
0.445422 -2.518040 0.000000 
-0.081837 -2.183370 0.000000 
-0.132613 -2.227200 0.000000 
-0.193683 -2.222706 0.000000 
-0.113728 -2.286314 0.000000 
-0.225785 -2.277948 0.000000 
-0.173071 -2.314817 0.000000 
-0.057431 -2.300309 0.000000 
-0.280714 -2.288765 0.000000 
-0.041668 -2.355849 0.000000 
-0.017256 -2.258923 0.000000 
-0.298768 -2.348018 0.000000 
-0.351619 -2.378211 0.000000 
-0.353362 -2.444535 0.000000 
-0.257172 -2.386604 0.000000 
-0.393548 -2.493111 0.000000 
-0.372090 -2.551047 0.000000 
-0.287270 -2.443632 0.000000 
-0.396776 -2.606779 0.000000 
-0.362621 -2.649350 0.000000 
-0.315766 -2.550358 0.000000 
-0.372663 -2.703146 0.000000 
-0.325388 -2.732496 0.000000 
-0.310336 -2.610246 0.000000 
-0.321212 -2.791343 0.000000 
-0.259881 -2.814118 0.000000 
-0.275233 -2.707703 0.000000 
-0.234512 -2.878647 0.000000 
-0.170577 -2.879087 0.000000 
-0.233613 -2.751949 0.000000 
-0.131103 -2.935483 0.000000 
-0.069376 -2.911057 0.000000 
-0.143780 -2.820855 0.000000 
-0.012563 -2.944699 0.000000 
0.041805 -2.912066 0.000000 
-0.081336 -2.840435 0.000000 
0.098058 -2.946237 0.000000 
0.136074 -2.895876 0.000000 
0.031493 -2.849468 0.000000 
0.196005 -2.908336 0.000000 
0.227632 -2.844121 0.000000 
0.093373 -2.838225 0.000000 
0.283812 -2.827942 0.000000 
0.298703 -2.764895 0.000000 
0.192937 -2.790446 0.000000 
0.349776 -2.739904 0.000000 
0.348569 -2.684692 0.000000 
0.237843 -2.747188 0.000000 
0.388177 -2.639579 0.000000 
0.370155 -2.583606 0.000000 
0.296087 -2.663751 0.000000 
0.395121 -2.532519 0.000000 
0.361188 -2.486867 0.000000 
0.308959 -2.605373 0.000000 
0.372804 -2.432655 0.000000 
0.325680 -2.391822 0.000000 
0.305247 -2.498489 0.000000 
0.319742 -2.331238 0.000000 
0.260128 -2.302830 0.000000 
0.282009 -2.437109 0.000000 
0.231879 -2.245695 0.000000 
0.168788 -2.240134 0.000000 
0.218115 -2.344425 0.000000 
0.130426 -2.194509 0.000000 
0.075393 -2.204777 0.000000 
0.030656 -2.170694 0.000000 
-0.022879 -2.200875 0.000000 
0.165208 -2.306734 0.000000 
0.045574 -2.258785 0.000000 
-0.186491 -2.364102 0.000000 
-0.269644 -2.492641 0.000000 
-0.035369 -2.813908 0.000000 
0.235652 -2.703153 0.000000 
0.278902 -2.565998 0.000000 
0.118376 -2.793250 0.000000 
0.233790 -2.418085 0.000000 
-0.268981 -2.639534 0.000000 
-0.181308 -2.755305 0.000000 
-0.082093 -2.397566 0.000000 
0.014576 -2.370161 0.000000 
-0.143618 -2.400546 0.000000 
-0.171995 -2.457810 0.000000 
-0.216907 -2.496354 0.000000 
-0.206547 -2.556644 0.000000 
-0.130237 -2.493676 0.000000 
-0.220039 -2.613123 0.000000 
-0.148902 -2.548331 0.000000 
-0.175145 -2.655096 0.000000 
-0.077610 -2.460177 0.000000 
-0.155636 -2.709486 0.000000 
-0.126174 -2.627477 0.000000 
-0.074284 -2.651029 0.000000 
-0.113322 -2.576744 0.000000 
-0.051980 -2.560071 0.000000 
-0.031092 -2.610073 0.000000 
-0.034900 -2.498517 0.000000 
0.030587 -2.426121 0.000000 
0.061432 -2.314253 0.000000 
-0.088321 -2.706409 0.000000 
0.008929 -2.482949 0.000000 
0.051864 -2.529919 0.000000 
0.054405 -2.582653 0.000000 
0.098191 -2.502445 0.000000 
0.012627 -2.622696 0.000000 
0.030214 -2.676933 0.000000 
0.020533 -2.726847 0.000000 
0.080341 -2.751942 0.000000 
0.085079 -2.677951 0.000000 
0.119848 -2.714650 0.000000 
0.180775 -2.690377 0.000000 
0.099898 -2.623822 0.000000 
0.165751 -2.512789 0.000000 
0.087577 -2.445531 0.000000 
0.162566 -2.626951 0.000000 
0.190941 -2.456088 0.000000 
0.131398 -2.413692 0.000000 
0.121266 -2.338048 0.000000 
-0.038492 -2.742339 0.000000 
0.198295 -2.571672 0.000000 
CELLS 184 368 
1 0 
1 1 
1 2 
1 3 
1 4 
1 5 
1 6 
1 7 
1 8 
1 9 
1 10 
1 11 
1 12 
1 13 
1 14 
1 15 
1 16 
1 17 
1 18 
1 19 
1 20 
1 21 
1 22 
1 23 
1 24 
1 25 
1 26 
1 27 
1 28 
1 29 
1 30 
1 31 
1 32 
1 33 
1 34 
1 35 
1 36 
1 37 
1 38 
1 39 
1 40 
1 41 
1 42 
1 43 
1 44 
1 45 
1 46 
1 47 
1 48 
1 49 
1 50 
1 51 
1 52 
1 53 
1 54 
1 55 
1 56 
1 57 
1 58 
1 59 
1 60 
1 61 
1 62 
1 63 
1 64 
1 65 
1 66 
1 67 
1 68 
1 69 
1 70 
1 71 
1 72 
1 73 
1 74 
1 75 
1 76 
1 77 
1 78 
1 79 
1 80 
1 81 
1 82 
1 83 
1 84 
1 85 
1 86 
1 87 
1 88 
1 89 
1 90 
1 91 
1 92 
1 93 
1 94 
1 95 
1 96 
1 97 
1 98 
1 99 
1 100 
1 101 
1 102 
1 103 
1 104 
1 105 
1 106 
1 107 
1 108 
1 109 
1 110 
1 111 
1 112 
1 113 
1 114 
1 115 
1 116 
1 117 
1 118 
1 119 
1 120 
1 121 
1 122 
1 123 
1 124 
1 125 
1 126 
1 127 
1 128 
1 129 
1 130 
1 131 
1 132 
1 133 
1 134 
1 135 
1 136 
1 137 
1 138 
1 139 
1 140 
1 141 
1 142 
1 143 
1 144 
1 145 
1 146 
1 147 
1 148 
1 149 
1 150 
1 151 
1 152 
1 153 
1 154 
1 155 
1 156 
1 157 
1 158 
1 159 
1 160 
1 161 
1 162 
1 163 
1 164 
1 165 
1 166 
1 167 
1 168 
1 169 
1 170 
1 171 
1 172 
1 173 
1 174 
1 175 
1 176 
1 177 
1 178 
1 179 
1 180 
1 181 
1 182 
1 183 
CELL_TYPES 184 
1 
1 
1 
1 
1 
1 
1 
1 
1 
1 
1 
1 
1 
1 
1 
1 
1 
1 
1 
1 
1 
1 
1 
1 
1 
1 
1 
1 
1 
1 
1 
1 
1 
1 
1 
1 
1 
1 
1 
1 
1 
1 
1 
1 
1 
1 
1 
1 
1 
1 
1 
1 
1 
1 
1 
1 
1 
1 
1 
1 
1 
1 
1 
1 
1 
1 
1 
1 
1 
1 
1 
1 
1 
1 
1 
1 
1 
1 
1 
1 
1 
1 
1 
1 
1 
1 
1 
1 
1 
1 
1 
1 
1 
1 
1 
1 
1 
1 
1 
1 
1 
1 
1 
1 
1 
1 
1 
1 
1 
1 
1 
1 
1 
1 
1 
1 
1 
1 
1 
1 
1 
1 
1 
1 
1 
1 
1 
1 
1 
1 
1 
1 
1 
1 
1 
1 
1 
1 
1 
1 
1 
1 
1 
1 
1 
1 
1 
1 
1 
1 
1 
1 
1 
1 
1 
1 
1 
1 
1 
1 
1 
1 
1 
1 
1 
1 
1 
1 
1 
1 
1 
1 
1 
1 
1 
1 
1 
1 
1 
1 
1 
1 
1 
1 
POINT_DATA 184 
VECTORS X_GC float 
-0.031581 -2.096952 0.000000 
-0.390272 -2.943829 0.000000 
0.472893 -2.594160 0.000000 
-0.448735 -2.406070 0.000000 
0.182637 -3.114034 0.000000 
0.222199 -2.150601 0.000000 
-0.285813 -2.191114 0.000000 
-0.105466 -3.156564 0.000000 
0.418772 -2.344361 0.000000 
-0.464883 -2.669250 0.000000 
0.404544 -2.866366 0.000000 
-0.167326 -2.123196 0.000000 
-0.228756 -3.059814 0.000000 
0.464259 -2.467797 0.000000 
-0.474533 -2.541618 0.000000 
0.288996 -2.984887 0.000000 
0.098304 -2.104466 0.000000 
-0.380480 -2.282242 0.000000 
0.056805 -3.177630 0.000000 
0.337406 -2.229563 0.000000 
-0.437186 -2.786727 0.000000 
0.445689 -2.724790 0.000000 
-0.127213 -2.111008 0.000000 
-0.317600 -2.983676 0.000000 
0.472804 -2.548039 0.000000 
-0.461763 -2.453649 0.000000 
0.253668 -3.035285 0.000000 
0.174697 -2.130910 0.000000 
-0.349525 -2.245953 0.000000 
-0.052384 -3.165245 0.000000 
0.368331 -2.265528 0.000000 
-0.452693 -2.711261 0.000000 
0.431073 -2.769602 0.000000 
-0.210636 -2.145480 0.000000 
-0.152816 -3.128462 0.000000 
0.438146 -2.387632 0.000000 
-0.474243 -2.586817 0.000000 
0.346037 -2.960903 0.000000 
0.017148 -2.096174 0.000000 
-0.429937 -2.361837 0.000000 
0.106583 -3.163535 0.000000 
0.300484 -2.199064 0.000000 
-0.420318 -2.887503 0.000000 
0.457893 -2.682394 0.000000 
-0.081334 -2.127189 0.000000 
0.368907 -2.311112 0.000000 
0.045007 -2.123420 0.000000 
0.212205 -3.000737 0.000000 
-0.164363 -3.028231 0.000000 
-0.389557 -2.822961 0.000000 
0.393461 -2.783266 0.000000 
-0.307511 -2.242365 0.000000 
-0.389647 -2.341944 0.000000 
0.425066 -2.427705 0.000000 
0.138118 -2.143974 0.000000 
0.124671 -3.054617 0.000000 
-0.256374 -2.956980 0.000000 
-0.417553 -2.729379 0.000000 
0.439792 -2.641202 0.000000 
0.339073 -2.883031 0.000000 
-0.003670 -3.048730 0.000000 
-0.227378 -2.181762 0.000000 
-0.445487 -2.492544 0.000000 
-0.446392 -2.620538 0.000000 
0.253956 -2.198129 0.000000 
0.445422 -2.518040 0.000000 
-0.081837 -2.183370 0.000000 
-0.132613 -2.227200 0.000000 
-0.193683 -2.222706 0.000000 
-0.113728 -2.286314 0.000000 
-0.225785 -2.277948 0.000000 
-0.173071 -2.314817 0.000000 
-0.057431 -2.300309 0.000000 
-0.280714 -2.288765 0.000000 
-0.041668 -2.355849 0.000000 
-0.017256 -2.258923 0.000000 
-0.298768 -2.348018 0.000000 
-0.351619 -2.378211 0.000000 
-0.353362 -2.444535 0.000000 
-0.257172 -2.386604 0.000000 
-0.393548 -2.493111 0.000000 
-0.372090 -2.551047 0.000000 
-0.287270 -2.443632 0.000000 
-0.396776 -2.606779 0.000000 
-0.362621 -2.649350 0.000000 
-0.315766 -2.550358 0.000000 
-0.372663 -2.703146 0.000000 
-0.325388 -2.732496 0.000000 
-0.310336 -2.610246 0.000000 
-0.321212 -2.791343 0.000000 
-0.259881 -2.814118 0.000000 
-0.275233 -2.707703 0.000000 
-0.234512 -2.878647 0.000000 
-0.170577 -2.879087 0.000000 
-0.233613 -2.751949 0.000000 
-0.131103 -2.935483 0.000000 
-0.069376 -2.911057 0.000000 
-0.143780 -2.820855 0.000000 
-0.012563 -2.944699 0.000000 
0.041805 -2.912066 0.000000 
-0.081336 -2.840435 0.000000 
0.098058 -2.946237 0.000000 
0.136074 -2.895876 0.000000 
0.031493 -2.849468 0.000000 
0.196005 -2.908336 0.000000 
0.227632 -2.844121 0.000000 
0.093373 -2.838225 0.000000 
0.283812 -2.827942 0.000000 
0.298703 -2.764895 0.000000 
0.192937 -2.790446 0.000000 
0.349776 -2.739904 0.000000 
0.348569 -2.684692 0.000000 
0.237843 -2.747188 0.000000 
0.388177 -2.639579 0.000000 
0.370155 -2.583606 0.000000 
0.296087 -2.663751 0.000000 
0.395121 -2.532519 0.000000 
0.361188 -2.486867 0.000000 
0.308959 -2.605373 0.000000 
0.372804 -2.432655 0.000000 
0.325680 -2.391822 0.000000 
0.305247 -2.498489 0.000000 
0.319742 -2.331238 0.000000 
0.260128 -2.302830 0.000000 
0.282009 -2.437109 0.000000 
0.231879 -2.245695 0.000000 
0.168788 -2.240134 0.000000 
0.218115 -2.344425 0.000000 
0.130426 -2.194509 0.000000 
0.075393 -2.204777 0.000000 
0.030656 -2.170694 0.000000 
-0.022879 -2.200875 0.000000 
0.165208 -2.306734 0.000000 
0.045574 -2.258785 0.000000 
-0.186491 -2.364102 0.000000 
-0.269644 -2.492641 0.000000 
-0.035369 -2.813908 0.000000 
0.235652 -2.703153 0.000000 
0.278902 -2.565998 0.000000 
0.118376 -2.793250 0.000000 
0.233790 -2.418085 0.000000 
-0.268981 -2.639534 0.000000 
-0.181308 -2.755305 0.000000 
-0.082093 -2.397566 0.000000 
0.014576 -2.370161 0.000000 
-0.143618 -2.400546 0.000000 
-0.171995 -2.457810 0.000000 
-0.216907 -2.496354 0.000000 
-0.206547 -2.556644 0.000000 
-0.130237 -2.493676 0.000000 
-0.220039 -2.613123 0.000000 
-0.148902 -2.548331 0.000000 
-0.175145 -2.655096 0.000000 
-0.077610 -2.460177 0.000000 
-0.155636 -2.709486 0.000000 
-0.126174 -2.627477 0.000000 
-0.074284 -2.651029 0.000000 
-0.113322 -2.576744 0.000000 
-0.051980 -2.560071 0.000000 
-0.031092 -2.610073 0.000000 
-0.034900 -2.498517 0.000000 
0.030587 -2.426121 0.000000 
0.061432 -2.314253 0.000000 
-0.088321 -2.706409 0.000000 
0.008929 -2.482949 0.000000 
0.051864 -2.529919 0.000000 
0.054405 -2.582653 0.000000 
0.098191 -2.502445 0.000000 
0.012627 -2.622696 0.000000 
0.030214 -2.676933 0.000000 
0.020533 -2.726847 0.000000 
0.080341 -2.751942 0.000000 
0.085079 -2.677951 0.000000 
0.119848 -2.714650 0.000000 
0.180775 -2.690377 0.000000 
0.099898 -2.623822 0.000000 
0.165751 -2.512789 0.000000 
0.087577 -2.445531 0.000000 
0.162566 -2.626951 0.000000 
0.190941 -2.456088 0.000000 
0.131398 -2.413692 0.000000 
0.121266 -2.338048 0.000000 
-0.038492 -2.742339 0.000000 
0.198295 -2.571672 0.000000 
VECTORS X_EC float 
-0.789461 0.979680 0.000000 
-0.398186 0.625528 0.000000 
-0.152620 0.294400 0.000000 
-0.008431 -0.959537 0.000000 
-0.248183 0.946404 0.000000 
-0.481330 -0.662660 0.000000 
0.905417 -0.392571 0.000000 
-0.208874 0.964511 0.000000 
0.208188 0.629072 0.000000 
0.099220 0.795001 0.000000 
0.303041 0.109103 0.000000 
0.115506 -0.845361 0.000000 
0.626334 0.986501 0.000000 
-0.095057 -0.548020 0.000000 
0.163556 -0.055880 0.000000 
-0.926639 0.899244 0.000000 
0.344642 -0.970227 0.000000 
-0.463467 0.214949 0.000000 
0.674495 0.937567 0.000000 
0.750625 -0.136247 0.000000 
-0.085426 -0.421818 0.000000 
0.028738 -0.834734 0.000000 
-0.151911 -0.926615 0.000000 
-0.882664 0.891172 0.000000 
-0.152025 -0.013074 0.000000 
0.078421 -0.642342 0.000000 
-0.678778 0.992812 0.000000 
-0.164646 -0.793931 0.000000 
-0.669836 -0.026977 0.000000 
-0.572427 0.921027 0.000000 
0.544460 0.103521 0.000000 
0.017953 -0.924926 0.000000 
0.126178 -0.535989 0.000000 
0.404241 -0.696799 0.000000 
0.119212 0.951185 0.000000 
0.079027 0.917544 0.000000 
0.161619 0.245448 0.000000 
0.693087 0.739352 0.000000 
0.885683 0.974494 0.000000 
-0.133753 0.745578 0.000000 
0.304228 0.957028 0.000000 
0.996773 -0.339574 0.000000 
-0.197877 0.250018 0.000000 
-0.052617 0.882628 0.000000 
-0.457770 -0.818737 0.000000 
0.540622 0.407413 0.000000 
0.699956 -0.843866 0.000000 
-0.416986 0.999438 0.000000 
0.144528 0.997078 0.000000 
-0.402955 -0.180259 0.000000 
0.376925 -0.444893 0.000000 
-0.949924 -0.050900 0.000000 
-0.402350 0.612963 0.000000 
0.166224 -0.815298 0.000000 
0.079215 -0.706840 0.000000 
0.184510 0.990440 0.000000 
0.709163 0.713200 0.000000 
-0.216313 -0.804139 0.000000 
0.068057 0.608012 0.000000 
0.739514 0.220203 0.000000 
-0.895255 0.999530 0.000000 
0.515857 -0.454920 0.000000 
-0.030088 -0.383042 0.000000 
-0.024052 0.470253 0.000000 
-0.693042 -0.345808 0.000000 
0.030521 -0.213067 0.000000 
-0.454423 -0.444198 0.000000 
-0.115911 -0.151999 0.000000 
0.291221 -0.181957 0.000000 
-0.241815 0.242093 0.000000 
0.505234 0.186321 0.000000 
0.153808 0.432111 0.000000 
-0.617124 0.335392 0.000000 
0.871430 0.258436 0.000000 
-0.722216 0.705663 0.000000 
-0.884957 0.059485 0.000000 
0.991788 0.653452 0.000000 
-0.655875 0.854742 0.000000 
-0.644252 -0.703100 0.000000 
0.714480 0.910690 0.000000 
-0.376349 -0.379261 0.000000 
-0.519402 0.006980 0.000000 
0.915136 -0.709120 0.000000 
-0.354827 0.378525 0.000000 
-0.582525 0.662335 0.000000 
-0.894893 0.002386 0.000000 
-0.515583 -0.979025 0.000000 
-0.830750 -0.783362 0.000000 
-0.931092 0.401639 0.000000 
-0.858590 -0.391043 0.000000 
0.732543 -0.239212 0.000000 
0.834887 -0.948645 0.000000 
0.563414 0.190979 0.000000 
0.137178 0.193915 0.000000 
0.557417 -0.653672 0.000000 
-0.125982 0.569890 0.000000 
-0.537497 0.407044 0.000000 
-0.041468 -0.194299 0.000000 
-0.916245 0.631324 0.000000 
0.721301 0.413771 0.000000 
-0.457760 -0.063764 0.000000 
0.346283 0.641583 0.000000 
0.092838 0.305841 0.000000 
0.790050 -0.003550 0.000000 
-0.306700 0.388906 0.000000 
-0.517546 -0.039194 0.000000 
0.377514 -0.078501 0.000000 
-0.892077 -0.147052 0.000000 
-0.991354 -0.567370 0.000000 
-0.286244 -0.397025 0.000000 
0.668160 -0.733976 0.000000 
0.676206 0.897944 0.000000 
-0.585621 -0.685414 0.000000 
0.412150 0.597193 0.000000 
0.532302 0.224041 0.000000 
-0.973911 0.758339 0.000000 
0.365859 -0.116539 0.000000 
0.592081 -0.420888 0.000000 
0.940272 0.369151 0.000000 
0.514639 -0.782302 0.000000 
0.828802 0.945481 0.000000 
0.965022 -0.343409 0.000000 
0.868388 0.541588 0.000000 
-0.734188 0.352198 0.000000 
-0.880062 -0.752606 0.000000 
-0.545861 -0.028698 0.000000 
-0.125253 -0.065775 0.000000 
-0.454099 0.629502 0.000000 
0.130492 -0.369937 0.000000 
0.497381 -0.301486 0.000000 
0.795628 -0.528707 0.000000 
-0.847476 -0.327499 0.000000 
-0.101384 0.378225 0.000000 
0.696174 0.058567 0.000000 
0.243277 0.760681 0.000000 
0.797625 -0.382395 0.000000 
-0.764206 -0.240616 0.000000 
-0.571015 -0.978982 0.000000 
-0.859349 0.106655 0.000000 
0.210825 -0.378333 0.000000 
-0.558600 -0.879432 0.000000 
0.793208 0.596895 0.000000 
0.208718 -0.631303 0.000000 
-0.452714 0.983775 0.000000 
0.902827 0.801070 0.000000 
-0.042548 -0.996362 0.000000 
0.146634 -0.614602 0.000000 
0.446044 -0.357638 0.000000 
0.376981 0.044294 0.000000 
-0.131753 -0.375491 0.000000 
0.466929 0.420818 0.000000 
-0.007319 -0.011126 0.000000 
0.167630 0.700641 0.000000 
-0.482598 -0.598822 0.000000 
0.037575 -0.936757 0.000000 
-0.158839 0.516511 0.000000 
-0.504777 0.673530 0.000000 
-0.244520 0.178295 0.000000 
-0.653465 0.067141 0.000000 
-0.792717 0.400486 0.000000 
-0.767332 -0.343222 0.000000 
0.796088 -0.825857 0.000000 
0.590451 0.428356 0.000000 
-0.411190 -0.957272 0.000000 
0.940473 -0.447005 0.000000 
0.654240 -0.133871 0.000000 
0.637301 0.217689 0.000000 
0.345395 -0.317034 0.000000 
0.915819 0.484638 0.000000 
0.798576 0.846222 0.000000 
0.863115 -0.821020 0.000000 
0.464392 -0.653720 0.000000 
0.432804 0.853007 0.000000 
0.201014 -0.902333 0.000000 
-0.205165 0.935850 0.000000 
0.334010 0.492149 0.000000 
-0.105005 -0.248076 0.000000 
0.416156 -0.696457 0.000000 
-0.083775 0.513008 0.000000 
-0.272939 -0.626082 0.000000 
0.124014 -0.908720 0.000000 
0.191563 0.586987 0.000000 
-0.743388 -0.717739 0.000000 
-0.321970 0.144483 0.000000 
CELL_DATA 184 
SCALARS MASS float 
LOOKUP_TABLE default 
0.051252 
0.046008 
0.051531 
0.046188 
0.052854 
0.051531 
0.052854 
0.052854 
0.051531 
0.050859 
0.052854 
0.047395 
0.052854 
0.052854 
0.051434 
0.045995 
0.052854 
0.051281 
0.051530 
0.046441 
0.052854 
0.052854 
0.050612 
0.049065 
0.052975 
0.049197 
0.049245 
0.052975 
0.052990 
0.055938 
0.049713 
0.052094 
0.055938 
0.050456 
0.055938 
0.053198 
0.052878 
0.049051 
0.052807 
0.049481 
0.052974 
0.049465 
0.049257 
0.055938 
0.105225 
0.104629 
0.082126 
0.094264 
0.094771 
0.094259 
0.094771 
0.083366 
0.104047 
0.083092 
0.081316 
0.081315 
0.092719 
0.079469 
0.108073 
0.092710 
0.108073 
0.093129 
0.104035 
0.094961 
0.104398 
0.081316 
0.125285 
0.099128 
0.098320 
0.087841 
0.082650 
0.097481 
0.086914 
0.081921 
0.086680 
0.086680 
0.081485 
0.107769 
0.088711 
0.084874 
0.107874 
0.082612 
0.095190 
0.095229 
0.083942 
0.085089 
0.079923 
0.081132 
0.095301 
0.097917 
0.090576 
0.085268 
0.095896 
0.081062 
0.095454 
0.090083 
0.081027 
0.085251 
0.101961 
0.083022 
0.095445 
0.080604 
0.081018 
0.085240 
0.097826 
0.090495 
0.095435 
0.095845 
0.081023 
0.085241 
0.090072 
0.081024 
0.095436 
0.101966 
0.083028 
0.085242 
0.080610 
0.081024 
0.095437 
0.082345 
0.082694 
0.085242 
0.109264 
0.089885 
0.095437 
0.108636 
0.083028 
0.085242 
0.080610 
0.074817 
0.073569 
0.082490 
0.095437 
0.095617 
0.133784 
0.138292 
0.139667 
0.139695 
0.139694 
0.139689 
0.139693 
0.140105 
0.139774 
0.086622 
0.086622 
0.089038 
0.077179 
0.079159 
0.072465 
0.084345 
0.092656 
0.093083 
0.084037 
0.098826 
0.101847 
0.085968 
0.086444 
0.074619 
0.064825 
0.094138 
0.124406 
0.086607 
0.131576 
0.102571 
0.084703 
0.076503 
0.084191 
0.084191 
0.086793 
0.075696 
0.084714 
0.090949 
0.084009 
0.076569 
0.086383 
0.098391 
0.110757 
0.093222 
0.143196 
0.101090 
0.091038 
0.150913 
0.178131 
0.206980 
SCALARS MASS float 
LOOKUP_TABLE default 
0.051252 
0.046008 
0.051531 
0.046188 
0.052854 
0.051531 
0.052854 
0.052854 
0.051531 
0.050859 
0.052854 
0.047395 
0.052854 
0.052854 
0.051434 
0.045995 
0.052854 
0.051281 
0.051530 
0.046441 
0.052854 
0.052854 
0.050612 
0.049065 
0.052975 
0.049197 
0.049245 
0.052975 
0.052990 
0.055938 
0.049713 
0.052094 
0.055938 
0.050456 
0.055938 
0.053198 
0.052878 
0.049051 
0.052807 
0.049481 
0.052974 
0.049465 
0.049257 
0.055938 
0.105225 
0.104629 
0.082126 
0.094264 
0.094771 
0.094259 
0.094771 
0.083366 
0.104047 
0.083092 
0.081316 
0.081315 
0.092719 
0.079469 
0.108073 
0.092710 
0.108073 
0.093129 
0.104035 
0.094961 
0.104398 
0.081316 
0.125285 
0.099128 
0.098320 
0.087841 
0.082650 
0.097481 
0.086914 
0.081921 
0.086680 
0.086680 
0.081485 
0.107769 
0.088711 
0.084874 
0.107874 
0.082612 
0.095190 
0.095229 
0.083942 
0.085089 
0.079923 
0.081132 
0.095301 
0.097917 
0.090576 
0.085268 
0.095896 
0.081062 
0.095454 
0.090083 
0.081027 
0.085251 
0.101961 
0.083022 
0.095445 
0.080604 
0.081018 
0.085240 
0.097826 
0.090495 
0.095435 
0.095845 
0.081023 
0.085241 
0.090072 
0.081024 
0.095436 
0.101966 
0.083028 
0.085242 
0.080610 
0.081024 
0.095437 
0.082345 
0.082694 
0.085242 
0.109264 
0.089885 
0.095437 
0.108636 
0.083028 
0.085242 
0.080610 
0.074817 
0.073569 
0.082490 
0.095437 
0.095617 
0.133784 
0.138292 
0.139667 
0.139695 
0.139694 
0.139689 
0.139693 
0.140105 
0.139774 
0.086622 
0.086622 
0.089038 
0.077179 
0.079159 
0.072465 
0.084345 
0.092656 
0.093083 
0.084037 
0.098826 
0.101847 
0.085968 
0.086444 
0.074619 
0.064825 
0.094138 
0.124406 
0.086607 
0.131576 
0.102571 
0.084703 
0.076503 
0.084191 
0.084191 
0.086793 
0.075696 
0.084714 
0.090949 
0.084009 
0.076569 
0.086383 
0.098391 
0.110757 
0.093222 
0.143196 
0.101090 
0.091038 
0.150913 
0.178131 
0.206980 
SCALARS DENSITY float 
LOOKUP_TABLE default 
22.022794 
92960554982811104.000000 
65.183918 
42.871094 
76641023005418817884995093785344472434878322748537896934819747722319433158137575577244975772194722251519456774774157325626740047872.000000 
22.125188 
14.688465 
139141568999795112739880273160523521762406911007044862152407705001901211457913832103186942034313427781557797177373229056.000000 
27.226150 
426.322638 
1048720765465158272.000000 
19.356606 
20750698136243223129855628900860783395700083950834039786549526189552794990544592293593088.000000 
23.312590 
323.892547 
13284350322547971118810321980784608222681558159457402838551887872.000000 
25.632334 
20.609329 
-531422779969734893283538503551981557300129468796574855059245608620107167650061850662094290999670245070622076815040800593401055063024214040788016890009914179584.000000 
9.676010 
898169552.886150 
253.744862 
21.004569 
69203679495062091202560.000000 
74.849505 
7353.334695 
107595871240065056836471900639999105728050580684451078852280296007178010141696936869101568.000000 
34.251088 
9.178482 
-47311177786093389452893534114156155588449350681584763137782913617481843073331372645008075969885781626320719705663947466024232740932987534704640.000000 
10.453504 
406.058837 
865633854.422274 
48.290192 
17848346229144307685072145213620411156922881090401848031502803009115218997184878013025472978462045177380864.000000 
32.332123 
611.428290 
405944723386557728016845242368.000000 
24.202194 
30.923955 
-620047261331205123261991149145308931350889863675132906987680928959579910361514669237745006658362732788487642222657718661788323365588987152965282054589456760963072.000000 
7545.153962 
259099985643890.750000 
91.818732 
26.473694 
27.006090 
18.879458 
5692727897352764210507497744752077336906917308750373312249330128646137232490496.000000 
463839300142801072097467770868763183082519251020106011494334434459714764931072.000000 
200117122961.096771 
8247889100.719957 
14.492999 
37.061751 
48.214190 
42.109543 
96857094498746736719595009373495607630074863942111329039420703674473499336802772564999424876585132673930023007158272.000000 
89807227343818094320268612882158170797659588996931005282516992.000000 
635.074757 
39.579618 
8765107464497732306075648.000000 
1756641721461934495566772654642916815931128721352973793787715940324647886590375775080012351293382707267313336320.000000 
7.864869 
5.221750 
134.934608 
13.278991 
11.591469 
8.125473 
18.269426 
17.360563 
36.779563 
31.302310 
42.431235 
35.816336 
40.833318 
24.054248 
28.903240 
48.884047 
47.455523 
71.026298 
47.766501 
16.417094 
200.976198 
53.208439 
46.091602 
54.372332 
83.199157 
78.757105 
218.020625 
5.726057 
125218931.175882 
197820759830131212288.000000 
39.742773 
196528695646229683271704702096179724288.000000 
992844569904751457106046765079484134588416.000000 
771818.604196 
358048446697655275870026978902746645954502907939258368.000000 
1463328242441695851600085511625845315938251964416.000000 
696413642226825659678720.000000 
47020958486235170805464328332866192979653460714639836672163840.000000 
29646813593319531932361579358391419240745698619744583680.000000 
327164509725332277652996751360.000000 
787037707030462965841598614314274452137424267474958676782916105666560.000000 
387225353960627430788912138016906488643546251264.000000 
4330144920446969636976660909654016.000000 
359712629239207145928017673988791263119771410681036800.000000 
158682132383640394663620885086208.000000 
3181669833845107385291589550080.000000 
22234290310634652353691648.000000 
355253133.466656 
34088689394065720.000000 
1312.435541 
50.705727 
93904.467721 
26.398848 
32.931237 
32.263505 
53.734311 
8.428682 
7.125099 
39.938151 
31.359876 
61.602336 
33.491515 
35.973576 
35.744598 
16.526058 
16.781395 
30.481255 
10.596098 
15.831861 
10.287599 
13.588442 
34.128824 
27.657170 
36.638835 
40.643728 
9507336131969445712101376.000000 
38.507498 
20.631327 
20418546436473757696.000000 
37.360880 
25.081203 
1495990.081521 
40.609818 
30.012896 
43.349977 
26.661698 
36.778117 
14.474479 
26.178189 
17.300664 
8.703916 
89.735719 
27.994407 
47.494018 
96.735298 
249.022964 
17.817990 
8.081775 
181.161764 
9.020888 
47.921289 
31.962486 
45.072378 
46.724265 
1.911368 
43.684074 
15.315047 
453.126403 
118.882239 
301.087875 
6136935.429298 
93.430493 
58.822671 
47.992770 
139.953560 
11.101048 
91.239291 
60.266060 
32.298702 
37.509307 
27.552155 
48533.419403 
19.160753 
SCALARS ELEM_i float 
LOOKUP_TABLE default 
203 
220 
161 
221 
180 
182 
202 
200 
162 
221 
160 
202 
200 
161 
221 
180 
182 
222 
180 
162 
220 
160 
202 
220 
161 
221 
180 
182 
222 
200 
162 
220 
160 
202 
200 
162 
221 
160 
183 
222 
180 
162 
220 
161 
202 
162 
182 
180 
200 
220 
160 
222 
222 
161 
182 
180 
200 
220 
161 
160 
200 
202 
221 
221 
182 
161 
202 
202 
202 
202 
202 
202 
202 
202 
202 
202 
202 
222 
221 
202 
221 
221 
201 
221 
221 
221 
220 
220 
221 
220 
200 
200 
200 
200 
200 
200 
200 
200 
200 
180 
200 
180 
180 
180 
180 
180 
180 
180 
180 
180 
160 
161 
180 
161 
161 
181 
161 
161 
161 
161 
162 
161 
162 
182 
181 
182 
182 
182 
182 
182 
182 
202 
182 
182 
202 
201 
200 
180 
181 
180 
181 
201 
200 
202 
182 
201 
201 
201 
201 
201 
201 
201 
201 
201 
200 
201 
201 
201 
201 
201 
201 
181 
182 
200 
181 
181 
181 
181 
181 
181 
180 
180 
181 
180 
181 
181 
181 
181 
181 
181 
181 
182 
200 
181 
VECTORS VELOCITY float 
0.139023 -0.528075 0.000000 
-1.807956 -61.840581 0.000000 
-0.366178 0.662640 0.000000 
0.155484 0.135563 0.000000 
0.959112 -152.670000 0.000000 
1.213555 -1.282927 0.000000 
0.548615 -0.344027 0.000000 
-1.903446 -177.955041 0.000000 
0.110244 -0.741847 0.000000 
0.000190 2.642368 0.000000 
0.386415 -29.812877 0.000000 
1.040956 0.088221 0.000000 
1.514339 -121.290205 0.000000 
-0.004555 -1.272623 0.000000 
0.040785 0.715855 0.000000 
-1.987149 -80.138734 0.000000 
0.202186 0.579256 0.000000 
-0.212574 0.032080 0.000000 
1.645804 -192.303451 0.000000 
1.153057 -0.407142 0.000000 
-0.155217 -4.183647 0.000000 
0.289215 2.888000 0.000000 
-1.595201 -0.619633 0.000000 
0.547021 -80.592396 0.000000 
-0.353496 0.140559 0.000000 
0.120412 -1.073682 0.000000 
-1.442668 -108.227009 0.000000 
-1.131568 -0.996366 0.000000 
-0.198856 0.054837 0.000000 
-1.489292 -183.221798 0.000000 
0.872601 -0.571260 0.000000 
-0.267068 3.578572 0.000000 
-0.069188 -2.164538 0.000000 
1.058629 -1.280179 0.000000 
-1.174797 -160.480028 0.000000 
-0.392917 -0.617130 0.000000 
0.408580 1.131896 0.000000 
1.144848 -70.424094 0.000000 
0.740824 -0.201014 0.000000 
-0.121197 0.226182 0.000000 
2.258174 -182.880729 0.000000 
0.809848 -0.409292 0.000000 
-1.218084 -36.702554 0.000000 
0.164043 2.136435 0.000000 
0.423781 0.315833 0.000000 
0.354883 -0.611102 0.000000 
-0.436839 0.249242 0.000000 
-1.365095 -86.563340 0.000000 
1.078802 -100.723805 0.000000 
-0.347358 -11.448615 0.000000 
-0.053832 -3.184814 0.000000 
-0.023318 -0.169240 0.000000 
-0.158003 0.009502 0.000000 
-0.339251 -0.997218 0.000000 
0.107153 -0.626197 0.000000 
0.159362 -115.984261 0.000000 
2.055247 -62.495760 0.000000 
-0.477690 4.269660 0.000000 
0.100107 1.728710 0.000000 
0.457456 -31.158750 0.000000 
0.018417 -110.725230 0.000000 
0.446519 -0.179077 0.000000 
-0.713235 0.172245 0.000000 
0.048020 1.863073 0.000000 
0.343732 -0.500392 0.000000 
0.092950 -0.005283 0.000000 
-0.010256 0.184873 0.000000 
0.054269 -0.261802 0.000000 
0.181617 -0.252440 0.000000 
0.033240 -0.648080 0.000000 
0.220864 -0.556805 0.000000 
0.088109 -0.699332 0.000000 
-0.052318 -0.719832 0.000000 
0.291137 -0.587447 0.000000 
-0.045219 -0.852592 0.000000 
-0.157934 -0.584277 0.000000 
0.052656 -0.628646 0.000000 
-0.159155 -0.226092 0.000000 
-0.211714 -0.715865 0.000000 
-0.110277 -0.742017 0.000000 
-0.601712 -0.248220 0.000000 
-0.373952 0.071392 0.000000 
-0.207734 -0.827803 0.000000 
-0.320677 1.627182 0.000000 
-0.685318 3.080220 0.000000 
-0.669206 -0.315720 0.000000 
-0.744440 4.748114 0.000000 
-0.943453 6.066821 0.000000 
-1.037813 1.940863 0.000000 
-0.519643 0.423568 0.000000 
-0.110259 -2.607495 0.000000 
-0.691900 6.379101 0.000000 
0.710581 -23.759781 0.000000 
0.557809 -22.379018 0.000000 
-0.460894 7.104474 0.000000 
0.962590 -46.168674 0.000000 
0.439445 -32.169805 0.000000 
0.026884 -3.450795 0.000000 
0.178973 -45.663454 0.000000 
-0.139065 -30.824614 0.000000 
0.129274 -7.846312 0.000000 
-0.519335 -49.735103 0.000000 
-0.465830 -27.724785 0.000000 
0.057110 -9.124914 0.000000 
-0.816969 -35.252305 0.000000 
-0.051253 -10.683611 0.000000 
0.061813 -7.149027 0.000000 
0.187157 -6.075030 0.000000 
0.559759 5.916239 0.000000 
0.390934 3.385895 0.000000 
0.589391 5.559813 0.000000 
0.603693 4.056217 0.000000 
0.516418 7.890264 0.000000 
0.347145 2.184178 0.000000 
0.179726 0.669284 0.000000 
0.606227 4.270848 0.000000 
-0.013472 -0.216149 0.000000 
0.194475 -0.606066 0.000000 
0.610429 1.707831 0.000000 
-0.237457 -0.731246 0.000000 
-0.262326 -0.210927 0.000000 
-0.074954 -0.927795 0.000000 
0.033186 -0.412257 0.000000 
-0.062603 -0.550972 0.000000 
-0.229672 -0.425206 0.000000 
0.193025 -0.523759 0.000000 
0.100713 -0.471317 0.000000 
-0.143304 -0.513379 0.000000 
0.049109 -0.136360 0.000000 
-0.054972 -0.114352 0.000000 
-0.197688 0.142494 0.000000 
-0.187047 0.048728 0.000000 
-0.101261 -0.624383 0.000000 
-0.129670 -0.569675 0.000000 
-0.036346 -0.781983 0.000000 
-0.207875 -1.207221 0.000000 
0.065937 -0.742086 0.000000 
0.572299 6.353791 0.000000 
0.317715 0.263636 0.000000 
0.297577 3.188021 0.000000 
-0.228395 -0.535449 0.000000 
-0.784805 3.197524 0.000000 
-0.317607 7.249192 0.000000 
-0.053729 -1.153085 0.000000 
-0.025801 -0.975036 0.000000 
-0.088918 -1.070528 0.000000 
-0.085979 -1.172895 0.000000 
-0.150642 -1.099388 0.000000 
-0.409052 0.215795 0.000000 
-0.074155 -0.978887 0.000000 
-0.629730 2.147474 0.000000 
-0.233617 0.307048 0.000000 
-0.408955 3.860351 0.000000 
-0.054334 -1.310790 0.000000 
-0.301934 7.035654 0.000000 
-0.279013 2.690147 0.000000 
-0.092917 3.672556 0.000000 
-0.199894 1.194517 0.000000 
-0.020455 1.058075 0.000000 
0.040757 2.165080 0.000000 
-0.023640 -0.673044 0.000000 
-0.017068 -1.430015 0.000000 
-0.111661 -0.712103 0.000000 
-0.108777 7.269260 0.000000 
0.016692 -1.135629 0.000000 
0.066612 0.343813 0.000000 
0.223333 1.501802 0.000000 
-0.031766 -0.658544 0.000000 
0.189722 2.498624 0.000000 
0.216183 5.319329 0.000000 
0.229776 8.949700 0.000000 
0.311406 8.402860 0.000000 
0.295976 5.263179 0.000000 
0.346958 7.576361 0.000000 
0.458978 5.815962 0.000000 
0.316903 2.556298 0.000000 
-0.047692 -0.567750 0.000000 
-0.059904 -1.317207 0.000000 
0.410015 2.682951 0.000000 
-0.165017 -0.980965 0.000000 
-0.135628 -0.962651 0.000000 
-0.112146 -0.666905 0.000000 
0.058858 8.992494 0.000000 
0.304593 0.783230 0.000000 
TENSORS STRESS float 
2.197331 -6.660615 0.000000 
0.000000 4.031947 0.000000 
0.000000 0.000000 0.000000 

0.000000 0.000000 0.000000 
0.000000 -0.000000 0.000000 
0.000000 0.000000 0.000000 

-0.361843 -0.450447 0.000000 
0.000000 -0.729912 0.000000 
0.000000 0.000000 0.000000 

-0.724207 0.993428 0.000000 
0.000000 -0.948569 0.000000 
0.000000 0.000000 0.000000 

-0.000000 -0.000000 0.000000 
0.000000 -0.000000 0.000000 
0.000000 0.000000 0.000000 

-1.430172 7.285248 0.000000 
0.000000 -1.734635 0.000000 
0.000000 0.000000 0.000000 

1.979117 -0.711331 0.000000 
0.000000 2.709571 0.000000 
0.000000 0.000000 0.000000 

-0.000000 0.000000 0.000000 
0.000000 -0.000000 0.000000 
0.000000 0.000000 0.000000 

1.123137 -1.523987 0.000000 
0.000000 1.661009 0.000000 
0.000000 0.000000 0.000000 

-0.101395 0.106083 0.000000 
0.000000 -0.507191 0.000000 
0.000000 0.000000 0.000000 

0.000000 -0.000000 0.000000 
0.000000 -0.000000 0.000000 
0.000000 0.000000 0.000000 

1.568098 4.661769 0.000000 
0.000000 4.178604 0.000000 
0.000000 0.000000 0.000000 

-0.000000 0.000000 0.000000 
0.000000 -0.000000 0.000000 
0.000000 0.000000 0.000000 

0.803765 2.863153 0.000000 
0.000000 -0.397326 0.000000 
0.000000 0.000000 0.000000 

-0.299227 0.254390 0.000000 
0.000000 -0.544773 0.000000 
0.000000 0.000000 0.000000 

-0.000000 -0.000000 0.000000 
0.000000 -0.000000 0.000000 
0.000000 0.000000 0.000000 

-0.445769 3.160989 0.000000 
0.000000 1.936178 0.000000 
0.000000 0.000000 0.000000 

0.416948 -0.208269 0.000000 
0.000000 2.412590 0.000000 
0.000000 0.000000 0.000000 

0.000000 0.000000 0.000000 
0.000000 0.000000 0.000000 
0.000000 0.000000 0.000000 

2.049949 2.435201 0.000000 
0.000000 5.272001 0.000000 
0.000000 0.000000 0.000000 

0.000000 0.000002 0.000000 
0.000000 -0.000002 0.000000 
0.000000 0.000000 0.000000 

-1.079804 -0.652852 0.000000 
0.000000 -2.677165 0.000000 
0.000000 0.000000 0.000000 

0.082085 -4.341210 0.000000 
0.000000 0.842904 0.000000 
0.000000 0.000000 0.000000 

0.000000 0.000000 0.000000 
0.000000 -0.000000 0.000000 
0.000000 0.000000 0.000000 

-0.419584 -0.469737 0.000000 
0.000000 -0.541450 0.000000 
0.000000 0.000000 0.000000 

-0.023567 0.023664 0.000000 
0.000000 -0.050495 0.000000 
0.000000 0.000000 0.000000 

-0.000000 -0.000000 0.000000 
0.000000 -0.000000 0.000000 
0.000000 0.000000 0.000000 

-0.756395 -3.746435 0.000000 
0.000000 -1.440956 0.000000 
0.000000 0.000000 0.000000 

1.856348 -4.295895 0.000000 
0.000000 7.781690 0.000000 
0.000000 0.000000 0.000000 

0.000000 0.000000 0.000000 
0.000000 0.000000 0.000000 
0.000000 0.000000 0.000000 

3.001876 0.944351 0.000000 
0.000000 6.266278 0.000000 
0.000000 0.000000 0.000000 

-0.286105 0.136745 0.000000 
0.000000 -1.101536 0.000000 
0.000000 0.000000 0.000000 

-0.000001 -0.000001 0.000000 
0.000000 -0.000002 0.000000 
0.000000 0.000000 0.000000 

-0.556801 -3.286300 0.000000 
0.000000 -1.709873 0.000000 
0.000000 0.000000 0.000000 

-0.000000 0.000000 0.000000 
0.000000 -0.000000 0.000000 
0.000000 0.000000 0.000000 

1.043463 -1.972802 0.000000 
0.000000 1.438307 0.000000 
0.000000 0.000000 0.000000 

-0.149757 0.138141 0.000000 
0.000000 -0.369894 0.000000 
0.000000 0.000000 0.000000 

0.000000 -0.000000 0.000000 
0.000000 -0.000000 0.000000 
0.000000 0.000000 0.000000 

0.499620 -1.267397 0.000000 
0.000000 4.007292 0.000000 
0.000000 0.000000 0.000000 

0.323124 1.393637 0.000000 
0.000000 1.727281 0.000000 
0.000000 0.000000 0.000000 

0.000000 0.000000 0.000000 
0.000000 0.000000 0.000000 
0.000000 0.000000 0.000000 

-0.067911 -0.040518 0.000000 
0.000000 -0.026264 0.000000 
0.000000 0.000000 0.000000 

0.000000 0.000000 0.000000 
0.000000 -0.000000 0.000000 
0.000000 0.000000 0.000000 

-0.371986 -0.564742 0.000000 
0.000000 -0.957945 0.000000 
0.000000 0.000000 0.000000 

-1.714109 5.527788 0.000000 
0.000000 -3.998571 0.000000 
0.000000 0.000000 0.000000 

1.121108 -2.488185 0.000000 
0.000000 1.846978 0.000000 
0.000000 0.000000 0.000000 

-1.137608 -3.854174 0.000000 
0.000000 -0.762552 0.000000 
0.000000 0.000000 0.000000 

-0.000000 -0.000000 0.000000 
0.000000 -0.000000 0.000000 
0.000000 0.000000 0.000000 

-0.000000 0.000000 0.000000 
0.000000 -0.000000 0.000000 
0.000000 0.000000 0.000000 

0.000000 0.000000 0.000000 
0.000000 -0.000000 0.000000 
0.000000 0.000000 0.000000 

-0.000000 -0.000000 0.000000 
0.000000 -0.000000 0.000000 
0.000000 0.000000 0.000000 

-1.312188 -1.583180 0.000000 
0.000000 2.661704 0.000000 
0.000000 0.000000 0.000000 

-0.232225 2.183697 0.000000 
0.000000 1.439176 0.000000 
0.000000 0.000000 0.000000 

-0.501750 -0.632379 0.000000 
0.000000 -2.015219 0.000000 
0.000000 0.000000 0.000000 

-1.362536 4.948588 0.000000 
0.000000 -3.060593 0.000000 
0.000000 0.000000 0.000000 

-0.000000 -0.000000 0.000000 
0.000000 -0.000000 0.000000 
0.000000 0.000000 0.000000 

-0.000000 0.000000 0.000000 
0.000000 -0.000000 0.000000 
0.000000 0.000000 0.000000 

-0.429436 0.404434 0.000000 
0.000000 -1.791238 0.000000 
0.000000 0.000000 0.000000 

-0.718784 -1.341214 0.000000 
0.000000 -2.157928 0.000000 
0.000000 0.000000 0.000000 

0.000000 -0.000000 0.000000 
0.000000 -0.000000 0.000000 
0.000000 0.000000 0.000000 

-0.000000 -0.000000 0.000000 
0.000000 -0.000000 0.000000 
0.000000 0.000000 0.000000 

8.361643 -0.204826 0.000000 
0.000000 13.778737 0.000000 
0.000000 0.000000 0.000000 

-2.409481 -7.536157 0.000000 
0.000000 11.148853 0.000000 
0.000000 0.000000 0.000000 

-0.523795 0.533257 0.000000 
0.000000 -2.102858 0.000000 
0.000000 0.000000 0.000000 

1.485241 1.167028 0.000000 
0.000000 3.749784 0.000000 
0.000000 0.000000 0.000000 

1.275237 0.874722 0.000000 
0.000000 7.037030 0.000000 
0.000000 0.000000 0.000000 

6.773886 -3.191181 0.000000 
0.000000 8.583673 0.000000 
0.000000 0.000000 0.000000 

1.039447 -1.575318 0.000000 
0.000000 -0.168218 0.000000 
0.000000 0.000000 0.000000 

1.803896 -2.099813 0.000000 
0.000000 1.399844 0.000000 
0.000000 0.000000 0.000000 

-0.219057 0.070632 0.000000 
0.000000 -1.781940 0.000000 
0.000000 0.000000 0.000000 

0.370724 0.118589 0.000000 
0.000000 -0.416433 0.000000 
0.000000 0.000000 0.000000 

-0.008138 0.512106 0.000000 
0.000000 -1.560075 0.000000 
0.000000 0.000000 0.000000 

-0.351460 -0.001900 0.000000 
0.000000 -2.310493 0.000000 
0.000000 0.000000 0.000000 

0.274636 0.453351 0.000000 
0.000000 -0.399043 0.000000 
0.000000 0.000000 0.000000 

0.340127 0.022121 0.000000 
0.000000 -2.548769 0.000000 
0.000000 0.000000 0.000000 

-0.552624 -0.383918 0.000000 
0.000000 -2.652602 0.000000 
0.000000 0.000000 0.000000 

0.308706 0.661532 0.000000 
0.000000 -0.599360 0.000000 
0.000000 0.000000 0.000000 

-0.941232 2.730349 0.000000 
0.000000 -0.317594 0.000000 
0.000000 0.000000 0.000000 

-1.435245 1.644815 0.000000 
0.000000 -2.428768 0.000000 
0.000000 0.000000 0.000000 

0.332048 0.687499 0.000000 
0.000000 -0.933370 0.000000 
0.000000 0.000000 0.000000 

-3.473937 1.522899 0.000000 
0.000000 -2.288958 0.000000 
0.000000 0.000000 0.000000 

-0.586070 0.476535 0.000000 
0.000000 -1.071746 0.000000 
0.000000 0.000000 0.000000 

-0.173960 -1.481758 0.000000 
0.000000 -2.550704 0.000000 
0.000000 0.000000 0.000000 

-0.700000 0.978973 0.000000 
0.000000 -3.538756 0.000000 
0.000000 0.000000 0.000000 

0.092113 0.364891 0.000000 
0.000000 -2.895742 0.000000 
0.000000 0.000000 0.000000 

-0.987779 0.760058 0.000000 
0.000000 -1.582828 0.000000 
0.000000 0.000000 0.000000 

-0.332691 -0.926748 0.000000 
0.000000 -3.849872 0.000000 
0.000000 0.000000 0.000000 

-1.107536 -0.820190 0.000000 
0.000000 -5.390600 0.000000 
0.000000 0.000000 0.000000 

12.074495 -6.400124 0.000000 
0.000000 9.563502 0.000000 
0.000000 0.000000 0.000000 

0.000005 0.000003 0.000000 
0.000000 -0.000026 0.000000 
0.000000 0.000000 0.000000 

-0.000000 0.000000 0.000000 
0.000000 -0.000000 0.000000 
0.000000 0.000000 0.000000 

-2.524865 -0.555312 0.000000 
0.000000 -10.247884 0.000000 
0.000000 0.000000 0.000000 

-0.000000 0.000000 0.000000 
0.000000 -0.000000 0.000000 
0.000000 0.000000 0.000000 

-0.000000 0.000000 0.000000 
0.000000 -0.000000 0.000000 
0.000000 0.000000 0.000000 

-0.001425 -0.000285 0.000000 
0.000000 -0.003511 0.000000 
0.000000 0.000000 0.000000 

-0.000000 0.000000 0.000000 
0.000000 -0.000000 0.000000 
0.000000 0.000000 0.000000 

-0.000000 -0.000000 0.000000 
0.000000 -0.000000 0.000000 
0.000000 0.000000 0.000000 

-0.000000 -0.000000 0.000000 
0.000000 -0.000000 0.000000 
0.000000 0.000000 0.000000 

-0.000000 -0.000000 0.000000 
0.000000 -0.000000 0.000000 
0.000000 0.000000 0.000000 

-0.000000 -0.000000 0.000000 
0.000000 -0.000000 0.000000 
0.000000 0.000000 0.000000 

-0.000000 -0.000000 0.000000 
0.000000 -0.000000 0.000000 
0.000000 0.000000 0.000000 

-0.000000 -0.000000 0.000000 
0.000000 -0.000000 0.000000 
0.000000 0.000000 0.000000 

-0.000000 -0.000000 0.000000 
0.000000 -0.000000 0.000000 
0.000000 0.000000 0.000000 

-0.000000 -0.000000 0.000000 
0.000000 -0.000000 0.000000 
0.000000 0.000000 0.000000 

-0.000000 -0.000000 0.000000 
0.000000 -0.000000 0.000000 
0.000000 0.000000 0.000000 

-0.000000 -0.000000 0.000000 
0.000000 -0.000000 0.000000 
0.000000 0.000000 0.000000 

-0.000000 -0.000000 0.000000 
0.000000 -0.000000 0.000000 
0.000000 0.000000 0.000000 

-0.000000 -0.000000 0.000000 
0.000000 -0.000000 0.000000 
0.000000 0.000000 0.000000 

-0.000004 -0.000001 0.000000 
0.000000 -0.000008 0.000000 
0.000000 0.000000 0.000000 

-0.000000 -0.000000 0.000000 
0.000000 -0.000000 0.000000 
0.000000 0.000000 0.000000 

-0.491523 -0.066095 0.000000 
0.000000 -1.336337 0.000000 
0.000000 0.000000 0.000000 

-0.824835 -1.417153 0.000000 
0.000000 -2.198129 0.000000 
0.000000 0.000000 0.000000 

-0.012429 0.001256 0.000000 
0.000000 -0.026960 0.000000 
0.000000 0.000000 0.000000 

-0.676951 -1.567962 0.000000 
0.000000 -2.234274 0.000000 
0.000000 0.000000 0.000000 

-0.952305 -0.773121 0.000000 
0.000000 -1.418439 0.000000 
0.000000 0.000000 0.000000 

-2.822158 -0.946542 0.000000 
0.000000 -3.500753 0.000000 
0.000000 0.000000 0.000000 

-0.899027 -0.780647 0.000000 
0.000000 -0.967328 0.000000 
0.000000 0.000000 0.000000 

4.180359 10.919237 0.000000 
0.000000 8.980521 0.000000 
0.000000 0.000000 0.000000 

2.544478 0.887070 0.000000 
0.000000 6.915202 0.000000 
0.000000 0.000000 0.000000 

-0.350850 -1.324961 0.000000 
0.000000 -1.737122 0.000000 
0.000000 0.000000 0.000000 

0.483570 -2.667795 0.000000 
0.000000 -0.066385 0.000000 
0.000000 0.000000 0.000000 

-0.902153 -0.266706 0.000000 
0.000000 -1.505399 0.000000 
0.000000 0.000000 0.000000 

-0.116599 -2.647716 0.000000 
0.000000 -0.381422 0.000000 
0.000000 0.000000 0.000000 

0.048540 -1.600868 0.000000 
0.000000 -0.723183 0.000000 
0.000000 0.000000 0.000000 

0.355325 0.580553 0.000000 
0.000000 -1.267572 0.000000 
0.000000 0.000000 0.000000 

0.926057 0.354722 0.000000 
0.000000 1.896558 0.000000 
0.000000 0.000000 0.000000 

0.217143 0.640205 0.000000 
0.000000 0.263973 0.000000 
0.000000 0.000000 0.000000 

0.478606 -1.543622 0.000000 
0.000000 -0.809388 0.000000 
0.000000 0.000000 0.000000 

0.956205 0.673200 0.000000 
0.000000 2.278299 0.000000 
0.000000 0.000000 0.000000 

-0.447993 0.926271 0.000000 
0.000000 -1.230375 0.000000 
0.000000 0.000000 0.000000 

-0.434945 1.015937 0.000000 
0.000000 0.031430 0.000000 
0.000000 0.000000 0.000000 

0.802663 -1.319743 0.000000 
0.000000 -1.131767 0.000000 
0.000000 0.000000 0.000000 

-0.229772 -1.192213 0.000000 
0.000000 -1.592596 0.000000 
0.000000 0.000000 0.000000 

-1.019669 0.036417 0.000000 
0.000000 -2.760761 0.000000 
0.000000 0.000000 0.000000 

0.565448 0.816200 0.000000 
0.000000 -1.976516 0.000000 
0.000000 0.000000 0.000000 

0.459901 -0.042783 0.000000 
0.000000 -3.463240 0.000000 
0.000000 0.000000 0.000000 

-0.000000 -0.000000 0.000000 
0.000000 -0.000000 0.000000 
0.000000 0.000000 0.000000 

-7.464662 -2.584292 0.000000 
0.000000 -12.905536 0.000000 
0.000000 0.000000 0.000000 

-3.330364 4.107429 0.000000 
0.000000 -3.934071 0.000000 
0.000000 0.000000 0.000000 

-0.000000 -0.000000 0.000000 
0.000000 -0.000000 0.000000 
0.000000 0.000000 0.000000 

0.220954 1.125259 0.000000 
0.000000 -2.861253 0.000000 
0.000000 0.000000 0.000000 

1.889546 2.369349 0.000000 
0.000000 -3.390593 0.000000 
0.000000 0.000000 0.000000 

-0.001084 -0.000161 0.000000 
0.000000 -0.002664 0.000000 
0.000000 0.000000 0.000000 

0.054995 0.199402 0.000000 
0.000000 -2.234486 0.000000 
0.000000 0.000000 0.000000 

-0.128083 -0.319290 0.000000 
0.000000 -2.843430 0.000000 
0.000000 0.000000 0.000000 

0.184639 0.439601 0.000000 
0.000000 -1.801868 0.000000 
0.000000 0.000000 0.000000 

0.588262 0.055833 0.000000 
0.000000 -2.411524 0.000000 
0.000000 0.000000 0.000000 

0.252265 0.098314 0.000000 
0.000000 -2.302928 0.000000 
0.000000 0.000000 0.000000 

2.717711 -1.907457 0.000000 
0.000000 -1.332100 0.000000 
0.000000 0.000000 0.000000 

0.500806 -0.081387 0.000000 
0.000000 -3.112159 0.000000 
0.000000 0.000000 0.000000 

2.299478 -0.957394 0.000000 
0.000000 -1.987320 0.000000 
0.000000 0.000000 0.000000 

7.452524 -3.345459 0.000000 
0.000000 0.967636 0.000000 
0.000000 0.000000 0.000000 

-0.195881 0.543215 0.000000 
0.000000 -1.891501 0.000000 
0.000000 0.000000 0.000000 

0.242677 -0.409527 0.000000 
0.000000 -4.037387 0.000000 
0.000000 0.000000 0.000000 

-3.903945 -0.536307 0.000000 
0.000000 -13.627014 0.000000 
0.000000 0.000000 0.000000 

-0.291716 0.070855 0.000000 
0.000000 -1.911546 0.000000 
0.000000 0.000000 0.000000 

-0.243593 0.118383 0.000000 
0.000000 -1.099359 0.000000 
0.000000 0.000000 0.000000 

1.498840 -1.347993 0.000000 
0.000000 -2.753215 0.000000 
0.000000 0.000000 0.000000 

5.078301 -2.287297 0.000000 
0.000000 -0.444434 0.000000 
0.000000 0.000000 0.000000 

-0.342136 -0.031826 0.000000 
0.000000 -1.522794 0.000000 
0.000000 0.000000 0.000000 

6.926631 -1.596461 0.000000 
0.000000 -2.465357 0.000000 
0.000000 0.000000 0.000000 

-0.779923 -1.828591 0.000000 
0.000000 -3.430900 0.000000 
0.000000 0.000000 0.000000 

-0.740426 -0.790420 0.000000 
0.000000 -3.581470 0.000000 
0.000000 0.000000 0.000000 

-3.324389 -0.420392 0.000000 
0.000000 -12.637047 0.000000 
0.000000 0.000000 0.000000 

-1.326375 -1.155443 0.000000 
0.000000 -3.526901 0.000000 
0.000000 0.000000 0.000000 

16.775963 -17.311075 0.000000 
0.000000 47.074851 0.000000 
0.000000 0.000000 0.000000 

-2.186220 -0.191200 0.000000 
0.000000 -3.798628 0.000000 
0.000000 0.000000 0.000000 

-1.481178 -2.500334 0.000000 
0.000000 -3.277704 0.000000 
0.000000 0.000000 0.000000 

-0.445005 -0.117663 0.000000 
0.000000 -0.829275 0.000000 
0.000000 0.000000 0.000000 

-1.280041 -0.675993 0.000000 
0.000000 -2.168027 0.000000 
0.000000 0.000000 0.000000 

-2.097608 -0.354280 0.000000 
0.000000 -4.464821 0.000000 
0.000000 0.000000 0.000000 

-0.000207 -0.000030 0.000000 
0.000000 -0.000445 0.000000 
0.000000 0.000000 0.000000 

-1.659033 -0.956298 0.000000 
0.000000 -2.714493 0.000000 
0.000000 0.000000 0.000000 

-5.482815 -2.464993 0.000000 
0.000000 -11.233518 0.000000 
0.000000 0.000000 0.000000 

-2.675488 -2.076319 0.000000 
0.000000 -3.965236 0.000000 
0.000000 0.000000 0.000000 

-1.245139 -0.272309 0.000000 
0.000000 -2.126302 0.000000 
0.000000 0.000000 0.000000 

-1.015897 -3.218583 0.000000 
0.000000 -1.021257 0.000000 
0.000000 0.000000 0.000000 

-0.463545 0.562737 0.000000 
0.000000 -1.789133 0.000000 
0.000000 0.000000 0.000000 

-3.289954 -0.583045 0.000000 
0.000000 -4.970514 0.000000 
0.000000 0.000000 0.000000 

-0.512710 -1.472577 0.000000 
0.000000 -2.852296 0.000000 
0.000000 0.000000 0.000000 

0.485626 -0.119402 0.000000 
0.000000 -1.241482 0.000000 
0.000000 0.000000 0.000000 

0.249801 -1.844057 0.000000 
0.000000 -2.936494 0.000000 
0.000000 0.000000 0.000000 

-0.035727 -0.001555 0.000000 
0.000000 -0.088900 0.000000 
0.000000 0.000000 0.000000 

-6.296867 3.743573 0.000000 
0.000000 -8.247961 0.000000 
0.000000 0.000000 0.000000 

TENSORS STRAIN float 
0.001835 -0.037206 0.000000 
0.000000 0.012083 0.000000 
0.000000 0.000000 0.000000 

0.720085 0.249857 0.000000 
0.000000 -0.698405 0.000000 
0.000000 0.000000 0.000000 

-0.000564 -0.007407 0.000000 
0.000000 -0.006617 0.000000 
0.000000 0.000000 0.000000 

-0.002683 0.011987 0.000000 
0.000000 -0.005391 0.000000 
0.000000 0.000000 0.000000 

0.020326 -0.068447 0.000000 
0.000000 -1.045990 0.000000 
0.000000 0.000000 0.000000 

-0.002683 0.040664 0.000000 
0.000000 -0.004383 0.000000 
0.000000 0.000000 0.000000 

0.002068 -0.002570 0.000000 
0.000000 0.004707 0.000000 
0.000000 0.000000 0.000000 

0.114987 0.009236 0.000000 
0.000000 -1.092747 0.000000 
0.000000 0.000000 0.000000 

0.001977 -0.010467 0.000000 
0.000000 0.005672 0.000000 
0.000000 0.000000 0.000000 

0.008847 0.011560 0.000000 
0.000000 -0.035374 0.000000 
0.000000 0.000000 0.000000 

0.251548 -0.189674 0.000000 
0.000000 -0.516957 0.000000 
0.000000 0.000000 0.000000 

-0.000828 0.024751 0.000000 
0.000000 0.013032 0.000000 
0.000000 0.000000 0.000000 

0.069713 0.068728 0.000000 
0.000000 -0.964288 0.000000 
0.000000 0.000000 0.000000 

0.003910 0.016417 0.000000 
0.000000 -0.002977 0.000000 
0.000000 0.000000 0.000000 

-0.003768 0.020825 0.000000 
0.000000 -0.023869 0.000000 
0.000000 0.000000 0.000000 

0.058841 -0.092836 0.000000 
0.000000 -0.844444 0.000000 
0.000000 0.000000 0.000000 

-0.005629 0.019929 0.000000 
0.000000 0.009388 0.000000 
0.000000 0.000000 0.000000 

-0.002257 -0.001088 0.000000 
0.000000 0.008170 0.000000 
0.000000 0.000000 0.000000 

0.050817 -0.034204 0.000000 
0.000000 -1.132618 0.000000 
0.000000 0.000000 0.000000 

-0.000397 0.006596 0.000000 
0.000000 0.008330 0.000000 
0.000000 0.000000 0.000000 

0.175390 0.397908 0.000000 
0.000000 -0.338368 0.000000 
0.000000 0.000000 0.000000 

0.002951 -0.040745 0.000000 
0.000000 -0.096742 0.000000 
0.000000 0.000000 0.000000 

-0.001054 -0.023422 0.000000 
0.000000 0.003050 0.000000 
0.000000 0.000000 0.000000 

0.855341 0.119641 0.000000 
0.000000 -0.814399 0.000000 
0.000000 0.000000 0.000000 

-0.002411 -0.008628 0.000000 
0.000000 -0.004650 0.000000 
0.000000 0.000000 0.000000 

-0.002620 0.045982 0.000000 
0.000000 -0.054943 0.000000 
0.000000 0.000000 0.000000 

-0.007861 -0.088320 0.000000 
0.000000 -0.917087 0.000000 
0.000000 0.000000 0.000000 

-0.000817 -0.031489 0.000000 
0.000000 -0.006571 0.000000 
0.000000 0.000000 0.000000 

-0.002331 -0.009673 0.000000 
0.000000 0.011012 0.000000 
0.000000 0.000000 0.000000 

0.122932 -0.015387 0.000000 
0.000000 -1.134487 0.000000 
0.000000 0.000000 0.000000 

0.000605 0.002581 0.000000 
0.000000 0.009529 0.000000 
0.000000 0.000000 0.000000 

0.013192 0.013857 0.000000 
0.000000 -0.069436 0.000000 
0.000000 0.000000 0.000000 

0.052557 -0.242071 0.000000 
0.000000 -0.284638 0.000000 
0.000000 0.000000 0.000000 

0.001533 -0.040888 0.000000 
0.000000 -0.012814 0.000000 
0.000000 0.000000 0.000000 

0.101016 0.032543 0.000000 
0.000000 -1.049916 0.000000 
0.000000 0.000000 0.000000 

0.002362 -0.015587 0.000000 
0.000000 0.005482 0.000000 
0.000000 0.000000 0.000000 

0.000923 0.020765 0.000000 
0.000000 -0.032168 0.000000 
0.000000 0.000000 0.000000 

0.444030 -0.122281 0.000000 
0.000000 -0.734736 0.000000 
0.000000 0.000000 0.000000 

-0.005079 -0.007551 0.000000 
0.000000 0.015820 0.000000 
0.000000 0.000000 0.000000 

-0.002372 0.011323 0.000000 
0.000000 0.009036 0.000000 
0.000000 0.000000 0.000000 

0.041804 -0.046500 0.000000 
0.000000 -1.133587 0.000000 
0.000000 0.000000 0.000000 

-0.078640 -0.080345 0.000000 
0.000000 0.003943 0.000000 
0.000000 0.000000 0.000000 

0.526619 0.322055 0.000000 
0.000000 -0.584924 0.000000 
0.000000 0.000000 0.000000 

0.000576 -0.012051 0.000000 
0.000000 -0.011928 0.000000 
0.000000 0.000000 0.000000 

-0.000001 0.018080 0.000000 
0.000000 -0.007473 0.000000 
0.000000 0.000000 0.000000 

0.000774 -0.008349 0.000000 
0.000000 0.003210 0.000000 
0.000000 0.000000 0.000000 

-0.001696 -0.011518 0.000000 
0.000000 -0.000575 0.000000 
0.000000 0.000000 0.000000 

-0.011122 -0.076430 0.000000 
0.000000 -0.872018 0.000000 
0.000000 0.000000 0.000000 

0.065136 0.039142 0.000000 
0.000000 -0.913926 0.000000 
0.000000 0.000000 0.000000 

0.301909 0.251007 0.000000 
0.000000 -0.436464 0.000000 
0.000000 0.000000 0.000000 

0.080914 -0.180617 0.000000 
0.000000 -0.313969 0.000000 
0.000000 0.000000 0.000000 

-0.003881 -0.003578 0.000000 
0.000000 0.005101 0.000000 
0.000000 0.000000 0.000000 

-0.002752 0.010112 0.000000 
0.000000 0.004988 0.000000 
0.000000 0.000000 0.000000 

0.001911 -0.004770 0.000000 
0.000000 -0.009506 0.000000 
0.000000 0.000000 0.000000 

-0.000240 0.033314 0.000000 
0.000000 -0.011671 0.000000 
0.000000 0.000000 0.000000 

0.004466 -0.054984 0.000000 
0.000000 -0.998631 0.000000 
0.000000 0.000000 0.000000 

0.037969 0.076634 0.000000 
0.000000 -0.808804 0.000000 
0.000000 0.000000 0.000000 

0.024597 0.042016 0.000000 
0.000000 -0.116879 0.000000 
0.000000 0.000000 0.000000 

0.000687 -0.006386 0.000000 
0.000000 -0.006165 0.000000 
0.000000 0.000000 0.000000 

0.291607 -0.091388 0.000000 
0.000000 -0.615319 0.000000 
0.000000 0.000000 0.000000 

0.084263 -0.034540 0.000000 
0.000000 -1.042645 0.000000 
0.000000 0.000000 0.000000 

0.001888 -0.000225 0.000000 
0.000000 0.007835 0.000000 
0.000000 0.000000 0.000000 

-0.003283 -0.004917 0.000000 
0.000000 0.005564 0.000000 
0.000000 0.000000 0.000000 

0.004880 0.009850 0.000000 
0.000000 -0.024289 0.000000 
0.000000 0.000000 0.000000 

-0.000141 0.001930 0.000000 
0.000000 0.003604 0.000000 
0.000000 0.000000 0.000000 

-0.002258 0.001621 0.000000 
0.000000 0.008419 0.000000 
0.000000 0.000000 0.000000 

0.001827 -0.002691 0.000000 
0.000000 0.003353 0.000000 
0.000000 0.000000 0.000000 

0.001864 -0.003774 0.000000 
0.000000 -0.001029 0.000000 
0.000000 0.000000 0.000000 

0.001935 -0.004820 0.000000 
0.000000 0.001007 0.000000 
0.000000 0.000000 0.000000 

0.002075 0.000384 0.000000 
0.000000 -0.006432 0.000000 
0.000000 0.000000 0.000000 

0.001893 0.000584 0.000000 
0.000000 -0.001983 0.000000 
0.000000 0.000000 0.000000 

0.002616 0.002898 0.000000 
0.000000 -0.006166 0.000000 
0.000000 0.000000 0.000000 

0.002395 -0.000010 0.000000 
0.000000 -0.008100 0.000000 
0.000000 0.000000 0.000000 

0.002021 0.002938 0.000000 
0.000000 -0.002344 0.000000 
0.000000 0.000000 0.000000 

0.003617 0.000080 0.000000 
0.000000 -0.006805 0.000000 
0.000000 0.000000 0.000000 

0.001773 -0.001664 0.000000 
0.000000 -0.007330 0.000000 
0.000000 0.000000 0.000000 

0.003088 0.005159 0.000000 
0.000000 -0.003994 0.000000 
0.000000 0.000000 0.000000 

-0.003226 0.015630 0.000000 
0.000000 0.000344 0.000000 
0.000000 0.000000 0.000000 

-0.002873 0.017120 0.000000 
0.000000 -0.013214 0.000000 
0.000000 0.000000 0.000000 

0.003749 0.005030 0.000000 
0.000000 -0.005509 0.000000 
0.000000 0.000000 0.000000 

-0.003453 0.003013 0.000000 
0.000000 -0.001108 0.000000 
0.000000 0.000000 0.000000 

-0.002806 0.015071 0.000000 
0.000000 -0.018166 0.000000 
0.000000 0.000000 0.000000 

0.004676 -0.010767 0.000000 
0.000000 -0.012595 0.000000 
0.000000 0.000000 0.000000 

0.003597 0.006160 0.000000 
0.000000 -0.014265 0.000000 
0.000000 0.000000 0.000000 

0.007858 0.003073 0.000000 
0.000000 -0.017301 0.000000 
0.000000 0.000000 0.000000 

-0.002753 0.009661 0.000000 
0.000000 -0.010317 0.000000 
0.000000 0.000000 0.000000 

0.011812 -0.011872 0.000000 
0.000000 -0.033244 0.000000 
0.000000 0.000000 0.000000 

0.029411 -0.028653 0.000000 
0.000000 -0.120214 0.000000 
0.000000 0.000000 0.000000 

0.004361 -0.004999 0.000000 
0.000000 0.002400 0.000000 
0.000000 0.000000 0.000000 

0.190878 0.042498 0.000000 
0.000000 -0.332461 0.000000 
0.000000 0.000000 0.000000 

0.009853 0.008147 0.000000 
0.000000 -0.421381 0.000000 
0.000000 0.000000 0.000000 

0.007919 -0.003365 0.000000 
0.000000 -0.038876 0.000000 
0.000000 0.000000 0.000000 

0.019948 0.031890 0.000000 
0.000000 -0.617866 0.000000 
0.000000 0.000000 0.000000 

0.020953 0.021896 0.000000 
0.000000 -0.648309 0.000000 
0.000000 0.000000 0.000000 

0.005851 -0.029987 0.000000 
0.000000 -0.213387 0.000000 
0.000000 0.000000 0.000000 

0.036406 0.020273 0.000000 
0.000000 -0.750070 0.000000 
0.000000 0.000000 0.000000 

0.031161 -0.003950 0.000000 
0.000000 -0.704335 0.000000 
0.000000 0.000000 0.000000 

0.011351 -0.002188 0.000000 
0.000000 -0.461062 0.000000 
0.000000 0.000000 0.000000 

0.044693 -0.025324 0.000000 
0.000000 -0.805893 0.000000 
0.000000 0.000000 0.000000 

-0.014928 -0.042134 0.000000 
0.000000 -0.731299 0.000000 
0.000000 0.000000 0.000000 

0.014760 -0.007396 0.000000 
0.000000 -0.524239 0.000000 
0.000000 0.000000 0.000000 

-0.012652 -0.051806 0.000000 
0.000000 -0.815942 0.000000 
0.000000 0.000000 0.000000 

-0.017265 -0.050759 0.000000 
0.000000 -0.675057 0.000000 
0.000000 0.000000 0.000000 

-0.017118 -0.039739 0.000000 
0.000000 -0.551237 0.000000 
0.000000 0.000000 0.000000 

-0.017457 -0.061608 0.000000 
0.000000 -0.719628 0.000000 
0.000000 0.000000 0.000000 

-0.017113 -0.034146 0.000000 
0.000000 -0.541528 0.000000 
0.000000 0.000000 0.000000 

-0.016795 -0.034522 0.000000 
0.000000 -0.521398 0.000000 
0.000000 0.000000 0.000000 

-0.016036 -0.018170 0.000000 
0.000000 -0.471607 0.000000 
0.000000 0.000000 0.000000 

-0.009243 -0.032036 0.000000 
0.000000 -0.248873 0.000000 
0.000000 0.000000 0.000000 

-0.012877 -0.014922 0.000000 
0.000000 -0.363570 0.000000 
0.000000 0.000000 0.000000 

0.010766 -0.012520 0.000000 
0.000000 -0.149261 0.000000 
0.000000 0.000000 0.000000 

0.000668 -0.011529 0.000000 
0.000000 -0.010505 0.000000 
0.000000 0.000000 0.000000 

-0.007837 0.016060 0.000000 
0.000000 -0.193701 0.000000 
0.000000 0.000000 0.000000 

0.000661 -0.005277 0.000000 
0.000000 -0.004580 0.000000 
0.000000 0.000000 0.000000 

-0.001243 -0.003986 0.000000 
0.000000 -0.003647 0.000000 
0.000000 0.000000 0.000000 

-0.004553 -0.004657 0.000000 
0.000000 -0.007892 0.000000 
0.000000 0.000000 0.000000 

-0.002939 -0.006765 0.000000 
0.000000 -0.003531 0.000000 
0.000000 0.000000 0.000000 

0.000314 0.014767 0.000000 
0.000000 0.006805 0.000000 
0.000000 0.000000 0.000000 

-0.000285 0.000861 0.000000 
0.000000 0.003957 0.000000 
0.000000 0.000000 0.000000 

0.001737 -0.008354 0.000000 
0.000000 -0.007003 0.000000 
0.000000 0.000000 0.000000 

0.001767 -0.013152 0.000000 
0.000000 -0.000944 0.000000 
0.000000 0.000000 0.000000 

-0.001690 -0.002506 0.000000 
0.000000 -0.007357 0.000000 
0.000000 0.000000 0.000000 

0.000131 -0.010550 0.000000 
0.000000 -0.000925 0.000000 
0.000000 0.000000 0.000000 

0.001306 -0.008329 0.000000 
0.000000 -0.002710 0.000000 
0.000000 0.000000 0.000000 

0.003063 0.002827 0.000000 
0.000000 -0.004839 0.000000 
0.000000 0.000000 0.000000 

0.000157 0.000701 0.000000 
0.000000 0.002076 0.000000 
0.000000 0.000000 0.000000 

0.000191 0.001682 0.000000 
0.000000 0.000314 0.000000 
0.000000 0.000000 0.000000 

0.002686 -0.007176 0.000000 
0.000000 -0.003301 0.000000 
0.000000 0.000000 0.000000 

-0.000024 0.001150 0.000000 
0.000000 0.002235 0.000000 
0.000000 0.000000 0.000000 

0.000153 0.002548 0.000000 
0.000000 -0.002000 0.000000 
0.000000 0.000000 0.000000 

-0.000571 0.001847 0.000000 
0.000000 0.000277 0.000000 
0.000000 0.000000 0.000000 

0.001930 -0.002826 0.000000 
0.000000 -0.002212 0.000000 
0.000000 0.000000 0.000000 

0.001473 -0.005542 0.000000 
0.000000 -0.004862 0.000000 
0.000000 0.000000 0.000000 

0.000430 0.000137 0.000000 
0.000000 -0.006117 0.000000 
0.000000 0.000000 0.000000 

0.003520 0.002906 0.000000 
0.000000 -0.005530 0.000000 
0.000000 0.000000 0.000000 

0.005200 -0.000163 0.000000 
0.000000 -0.009789 0.000000 
0.000000 0.000000 0.000000 

0.011184 -0.016369 0.000000 
0.000000 -0.470128 0.000000 
0.000000 0.000000 0.000000 

-0.004851 -0.009261 0.000000 
0.000000 -0.024348 0.000000 
0.000000 0.000000 0.000000 

-0.002210 0.007886 0.000000 
0.000000 -0.003369 0.000000 
0.000000 0.000000 0.000000 

-0.013328 -0.022603 0.000000 
0.000000 -0.396589 0.000000 
0.000000 0.000000 0.000000 

0.003522 0.003912 0.000000 
0.000000 -0.007194 0.000000 
0.000000 0.000000 0.000000 

0.005445 0.005514 0.000000 
0.000000 -0.006843 0.000000 
0.000000 0.000000 0.000000 

0.005602 -0.022429 0.000000 
0.000000 -0.214196 0.000000 
0.000000 0.000000 0.000000 

0.004320 0.001215 0.000000 
0.000000 -0.009633 0.000000 
0.000000 0.000000 0.000000 

0.003438 -0.001438 0.000000 
0.000000 -0.008792 0.000000 
0.000000 0.000000 0.000000 

0.004239 0.002782 0.000000 
0.000000 -0.008334 0.000000 
0.000000 0.000000 0.000000 

0.005098 0.000251 0.000000 
0.000000 -0.008373 0.000000 
0.000000 0.000000 0.000000 

0.005239 0.000594 0.000000 
0.000000 -0.010194 0.000000 
0.000000 0.000000 0.000000 

0.005978 -0.004953 0.000000 
0.000000 -0.004538 0.000000 
0.000000 0.000000 0.000000 

0.005182 -0.000328 0.000000 
0.000000 -0.009396 0.000000 
0.000000 0.000000 0.000000 

0.005354 -0.002324 0.000000 
0.000000 -0.005051 0.000000 
0.000000 0.000000 0.000000 

0.005989 -0.004067 0.000000 
0.000000 -0.001894 0.000000 
0.000000 0.000000 0.000000 

0.005974 0.007541 0.000000 
0.000000 -0.017564 0.000000 
0.000000 0.000000 0.000000 

0.005086 -0.001508 0.000000 
0.000000 -0.010675 0.000000 
0.000000 0.000000 0.000000 

0.008216 -0.003251 0.000000 
0.000000 -0.050727 0.000000 
0.000000 0.000000 0.000000 

0.005402 0.001036 0.000000 
0.000000 -0.018294 0.000000 
0.000000 0.000000 0.000000 

0.005965 0.004433 0.000000 
0.000000 -0.026083 0.000000 
0.000000 0.000000 0.000000 

0.005821 -0.004184 0.000000 
0.000000 -0.007378 0.000000 
0.000000 0.000000 0.000000 

0.005977 -0.003707 0.000000 
0.000000 -0.002973 0.000000 
0.000000 0.000000 0.000000 

0.005437 -0.000796 0.000000 
0.000000 -0.024100 0.000000 
0.000000 0.000000 0.000000 

0.005268 -0.001505 0.000000 
0.000000 -0.003586 0.000000 
0.000000 0.000000 0.000000 

0.003477 -0.013153 0.000000 
0.000000 -0.015592 0.000000 
0.000000 0.000000 0.000000 

0.001756 -0.002496 0.000000 
0.000000 -0.007216 0.000000 
0.000000 0.000000 0.000000 

0.008363 -0.002402 0.000000 
0.000000 -0.044836 0.000000 
0.000000 0.000000 0.000000 

0.000929 -0.008286 0.000000 
0.000000 -0.014851 0.000000 
0.000000 0.000000 0.000000 

-0.000773 -0.005623 0.000000 
0.000000 0.009068 0.000000 
0.000000 0.000000 0.000000 

-0.002636 -0.001290 0.000000 
0.000000 -0.013512 0.000000 
0.000000 0.000000 0.000000 

-0.000127 -0.005913 0.000000 
0.000000 -0.004375 0.000000 
0.000000 0.000000 0.000000 

-0.004257 -0.007986 0.000000 
0.000000 -0.030337 0.000000 
0.000000 0.000000 0.000000 

-0.005015 -0.013802 0.000000 
0.000000 -0.023145 0.000000 
0.000000 0.000000 0.000000 

-0.005955 -0.016369 0.000000 
0.000000 -0.115330 0.000000 
0.000000 0.000000 0.000000 

-0.009778 -0.026748 0.000000 
0.000000 -0.219074 0.000000 
0.000000 0.000000 0.000000 

-0.005017 -0.013826 0.000000 
0.000000 -0.020276 0.000000 
0.000000 0.000000 0.000000 

-0.004673 -0.024618 0.000000 
0.000000 -0.062105 0.000000 
0.000000 0.000000 0.000000 

-0.004935 -0.014996 0.000000 
0.000000 -0.014250 0.000000 
0.000000 0.000000 0.000000 

-0.004322 -0.005035 0.000000 
0.000000 -0.020616 0.000000 
0.000000 0.000000 0.000000 

-0.000527 -0.004194 0.000000 
0.000000 -0.000534 0.000000 
0.000000 0.000000 0.000000 

0.002701 0.007160 0.000000 
0.000000 -0.014166 0.000000 
0.000000 0.000000 0.000000 

-0.004442 -0.003190 0.000000 
0.000000 -0.013636 0.000000 
0.000000 0.000000 0.000000 

0.002063 -0.006116 0.000000 
0.000000 -0.007654 0.000000 
0.000000 0.000000 0.000000 

0.003816 -0.000640 0.000000 
0.000000 -0.005435 0.000000 
0.000000 0.000000 0.000000 

0.002506 -0.004377 0.000000 
0.000000 -0.005057 0.000000 
0.000000 0.000000 0.000000 

0.005884 -0.005509 0.000000 
0.000000 -0.182454 0.000000 
0.000000 0.000000 0.000000 

-0.002327 0.004505 0.000000 
0.000000 -0.004675 0.000000 
0.000000 0.000000 0.000000 

