# vtk DataFile Version 3.0 
vtk output 
ASCII 
DATASET UNSTRUCTURED_GRID 
POINTS 184 float 
-0.028811 -1.147780 0.000000 
-0.337228 -1.959386 0.000000 
0.473826 -1.650160 0.000000 
-0.447224 -1.455403 0.000000 
0.165656 -2.065853 0.000000 
0.222713 -1.202522 0.000000 
-0.284076 -1.242230 0.000000 
-0.100762 -2.084908 0.000000 
0.418839 -1.398358 0.000000 
-0.462804 -1.728664 0.000000 
0.379480 -1.905786 0.000000 
-0.166786 -1.175268 0.000000 
-0.227178 -2.037757 0.000000 
0.463197 -1.520948 0.000000 
-0.473871 -1.593262 0.000000 
0.286252 -2.003566 0.000000 
0.100762 -1.158514 0.000000 
-0.377333 -1.333541 0.000000 
0.039274 -2.094763 0.000000 
0.337021 -1.284114 0.000000 
-0.416046 -1.848889 0.000000 
0.444142 -1.787367 0.000000 
-0.121270 -1.161903 0.000000 
-0.301377 -1.990452 0.000000 
0.473826 -1.602721 0.000000 
-0.460589 -1.500920 0.000000 
0.246344 -2.029213 0.000000 
0.179561 -1.182815 0.000000 
-0.346268 -1.297689 0.000000 
-0.053807 -2.091659 0.000000 
0.368087 -1.319966 0.000000 
-0.449439 -1.774181 0.000000 
0.424436 -1.830519 0.000000 
-0.209938 -1.194974 0.000000 
-0.146279 -2.071543 0.000000 
0.438546 -1.441509 0.000000 
-0.473871 -1.640701 0.000000 
0.322103 -1.972500 0.000000 
0.018627 -1.147780 0.000000 
-0.427517 -1.412252 0.000000 
0.086229 -2.088012 0.000000 
0.301170 -1.253049 0.000000 
-0.368294 -1.923535 0.000000 
0.457507 -1.741850 0.000000 
-0.079407 -1.179525 0.000000 
0.369154 -1.365099 0.000000 
0.048715 -1.176136 0.000000 
0.205703 -2.021625 0.000000 
-0.167159 -2.035859 0.000000 
-0.366567 -1.882227 0.000000 
0.386144 -1.846108 0.000000 
-0.305135 -1.293519 0.000000 
-0.387078 -1.392568 0.000000 
0.425252 -1.480657 0.000000 
0.140413 -1.196109 0.000000 
0.111975 -2.055663 0.000000 
-0.260069 -1.988725 0.000000 
-0.413756 -1.795061 0.000000 
0.439780 -1.699625 0.000000 
0.326273 -1.931367 0.000000 
-0.014533 -2.068104 0.000000 
-0.225527 -1.233266 0.000000 
-0.442908 -1.543146 0.000000 
-0.445123 -1.676979 0.000000 
0.255396 -1.251633 0.000000 
0.445470 -1.572634 0.000000 
-0.079333 -1.235799 0.000000 
-0.130417 -1.278609 0.000000 
-0.191597 -1.273991 0.000000 
-0.111867 -1.337217 0.000000 
-0.224051 -1.328512 0.000000 
-0.171272 -1.365511 0.000000 
-0.055594 -1.351445 0.000000 
-0.279041 -1.339076 0.000000 
-0.040187 -1.407167 0.000000 
-0.015041 -1.310241 0.000000 
-0.296573 -1.398340 0.000000 
-0.349226 -1.428625 0.000000 
-0.351226 -1.494329 0.000000 
-0.254824 -1.437095 0.000000 
-0.391103 -1.543650 0.000000 
-0.370336 -1.603254 0.000000 
-0.284940 -1.494281 0.000000 
-0.395089 -1.662748 0.000000 
-0.360392 -1.708922 0.000000 
-0.313327 -1.602679 0.000000 
-0.369688 -1.767270 0.000000 
-0.323258 -1.801065 0.000000 
-0.307698 -1.667340 0.000000 
-0.317847 -1.862194 0.000000 
-0.261652 -1.887389 0.000000 
-0.273358 -1.774873 0.000000 
-0.237999 -1.941548 0.000000 
-0.174943 -1.947419 0.000000 
-0.233858 -1.826459 0.000000 
-0.136993 -1.992699 0.000000 
-0.076092 -1.983531 0.000000 
-0.147100 -1.898441 0.000000 
-0.021468 -2.016501 0.000000 
0.034383 -1.990548 0.000000 
-0.085997 -1.920474 0.000000 
0.090783 -2.008105 0.000000 
0.131601 -1.967237 0.000000 
0.025861 -1.934074 0.000000 
0.192839 -1.970568 0.000000 
0.225790 -1.918539 0.000000 
0.089168 -1.919558 0.000000 
0.282731 -1.902816 0.000000 
0.297512 -1.841237 0.000000 
0.190626 -1.870507 0.000000 
0.347718 -1.810110 0.000000 
0.347308 -1.748526 0.000000 
0.236036 -1.824067 0.000000 
0.387714 -1.699147 0.000000 
0.369971 -1.640173 0.000000 
0.294872 -1.727950 0.000000 
0.395378 -1.586844 0.000000 
0.360736 -1.540625 0.000000 
0.307967 -1.664333 0.000000 
0.372882 -1.486124 0.000000 
0.326072 -1.446104 0.000000 
0.305499 -1.551665 0.000000 
0.320446 -1.385098 0.000000 
0.261463 -1.356062 0.000000 
0.282122 -1.491066 0.000000 
0.233332 -1.298795 0.000000 
0.170485 -1.292842 0.000000 
0.219133 -1.397619 0.000000 
0.132530 -1.247577 0.000000 
0.077667 -1.257434 0.000000 
0.033502 -1.223588 0.000000 
-0.020231 -1.253203 0.000000 
0.166704 -1.359279 0.000000 
0.047676 -1.310489 0.000000 
-0.184513 -1.414830 0.000000 
-0.267808 -1.543027 0.000000 
-0.039895 -1.896971 0.000000 
0.233804 -1.772365 0.000000 
0.278138 -1.622044 0.000000 
0.115242 -1.874856 0.000000 
0.234165 -1.471618 0.000000 
-0.267095 -1.699495 0.000000 
-0.182363 -1.831639 0.000000 
-0.080635 -1.448393 0.000000 
0.015739 -1.421583 0.000000 
-0.141814 -1.451202 0.000000 
-0.170613 -1.508664 0.000000 
-0.215488 -1.547390 0.000000 
-0.205084 -1.610710 0.000000 
-0.129406 -1.545610 0.000000 
-0.218571 -1.671205 0.000000 
-0.148068 -1.602796 0.000000 
-0.174593 -1.717580 0.000000 
-0.076799 -1.511489 0.000000 
-0.155573 -1.779679 0.000000 
-0.126037 -1.687552 0.000000 
-0.074980 -1.714162 0.000000 
-0.112999 -1.633263 0.000000 
-0.052249 -1.616490 0.000000 
-0.031995 -1.669474 0.000000 
-0.034711 -1.551902 0.000000 
0.031192 -1.477217 0.000000 
0.063050 -1.366109 0.000000 
-0.089197 -1.777802 0.000000 
0.009049 -1.535498 0.000000 
0.051424 -1.585394 0.000000 
0.053332 -1.640532 0.000000 
0.098177 -1.556102 0.000000 
0.011239 -1.683376 0.000000 
0.028372 -1.744813 0.000000 
0.017947 -1.804239 0.000000 
0.077740 -1.832129 0.000000 
0.083331 -1.745454 0.000000 
0.117710 -1.787594 0.000000 
0.179025 -1.758663 0.000000 
0.098599 -1.684556 0.000000 
0.165702 -1.566676 0.000000 
0.087920 -1.497282 0.000000 
0.161326 -1.687929 0.000000 
0.191154 -1.508817 0.000000 
0.131959 -1.465966 0.000000 
0.122542 -1.390428 0.000000 
-0.040916 -1.821673 0.000000 
0.197397 -1.628475 0.000000 
CELLS 184 368 
1 0 
1 1 
1 2 
1 3 
1 4 
1 5 
1 6 
1 7 
1 8 
1 9 
1 10 
1 11 
1 12 
1 13 
1 14 
1 15 
1 16 
1 17 
1 18 
1 19 
1 20 
1 21 
1 22 
1 23 
1 24 
1 25 
1 26 
1 27 
1 28 
1 29 
1 30 
1 31 
1 32 
1 33 
1 34 
1 35 
1 36 
1 37 
1 38 
1 39 
1 40 
1 41 
1 42 
1 43 
1 44 
1 45 
1 46 
1 47 
1 48 
1 49 
1 50 
1 51 
1 52 
1 53 
1 54 
1 55 
1 56 
1 57 
1 58 
1 59 
1 60 
1 61 
1 62 
1 63 
1 64 
1 65 
1 66 
1 67 
1 68 
1 69 
1 70 
1 71 
1 72 
1 73 
1 74 
1 75 
1 76 
1 77 
1 78 
1 79 
1 80 
1 81 
1 82 
1 83 
1 84 
1 85 
1 86 
1 87 
1 88 
1 89 
1 90 
1 91 
1 92 
1 93 
1 94 
1 95 
1 96 
1 97 
1 98 
1 99 
1 100 
1 101 
1 102 
1 103 
1 104 
1 105 
1 106 
1 107 
1 108 
1 109 
1 110 
1 111 
1 112 
1 113 
1 114 
1 115 
1 116 
1 117 
1 118 
1 119 
1 120 
1 121 
1 122 
1 123 
1 124 
1 125 
1 126 
1 127 
1 128 
1 129 
1 130 
1 131 
1 132 
1 133 
1 134 
1 135 
1 136 
1 137 
1 138 
1 139 
1 140 
1 141 
1 142 
1 143 
1 144 
1 145 
1 146 
1 147 
1 148 
1 149 
1 150 
1 151 
1 152 
1 153 
1 154 
1 155 
1 156 
1 157 
1 158 
1 159 
1 160 
1 161 
1 162 
1 163 
1 164 
1 165 
1 166 
1 167 
1 168 
1 169 
1 170 
1 171 
1 172 
1 173 
1 174 
1 175 
1 176 
1 177 
1 178 
1 179 
1 180 
1 181 
1 182 
1 183 
CELL_TYPES 184 
1 
1 
1 
1 
1 
1 
1 
1 
1 
1 
1 
1 
1 
1 
1 
1 
1 
1 
1 
1 
1 
1 
1 
1 
1 
1 
1 
1 
1 
1 
1 
1 
1 
1 
1 
1 
1 
1 
1 
1 
1 
1 
1 
1 
1 
1 
1 
1 
1 
1 
1 
1 
1 
1 
1 
1 
1 
1 
1 
1 
1 
1 
1 
1 
1 
1 
1 
1 
1 
1 
1 
1 
1 
1 
1 
1 
1 
1 
1 
1 
1 
1 
1 
1 
1 
1 
1 
1 
1 
1 
1 
1 
1 
1 
1 
1 
1 
1 
1 
1 
1 
1 
1 
1 
1 
1 
1 
1 
1 
1 
1 
1 
1 
1 
1 
1 
1 
1 
1 
1 
1 
1 
1 
1 
1 
1 
1 
1 
1 
1 
1 
1 
1 
1 
1 
1 
1 
1 
1 
1 
1 
1 
1 
1 
1 
1 
1 
1 
1 
1 
1 
1 
1 
1 
1 
1 
1 
1 
1 
1 
1 
1 
1 
1 
1 
1 
1 
1 
1 
1 
1 
1 
1 
1 
1 
1 
1 
1 
1 
1 
1 
1 
1 
1 
POINT_DATA 184 
VECTORS X_GC float 
-0.028811 -1.147780 0.000000 
-0.337228 -1.959386 0.000000 
0.473826 -1.650160 0.000000 
-0.447224 -1.455403 0.000000 
0.165656 -2.065853 0.000000 
0.222713 -1.202522 0.000000 
-0.284076 -1.242230 0.000000 
-0.100762 -2.084908 0.000000 
0.418839 -1.398358 0.000000 
-0.462804 -1.728664 0.000000 
0.379480 -1.905786 0.000000 
-0.166786 -1.175268 0.000000 
-0.227178 -2.037757 0.000000 
0.463197 -1.520948 0.000000 
-0.473871 -1.593262 0.000000 
0.286252 -2.003566 0.000000 
0.100762 -1.158514 0.000000 
-0.377333 -1.333541 0.000000 
0.039274 -2.094763 0.000000 
0.337021 -1.284114 0.000000 
-0.416046 -1.848889 0.000000 
0.444142 -1.787367 0.000000 
-0.121270 -1.161903 0.000000 
-0.301377 -1.990452 0.000000 
0.473826 -1.602721 0.000000 
-0.460589 -1.500920 0.000000 
0.246344 -2.029213 0.000000 
0.179561 -1.182815 0.000000 
-0.346268 -1.297689 0.000000 
-0.053807 -2.091659 0.000000 
0.368087 -1.319966 0.000000 
-0.449439 -1.774181 0.000000 
0.424436 -1.830519 0.000000 
-0.209938 -1.194974 0.000000 
-0.146279 -2.071543 0.000000 
0.438546 -1.441509 0.000000 
-0.473871 -1.640701 0.000000 
0.322103 -1.972500 0.000000 
0.018627 -1.147780 0.000000 
-0.427517 -1.412252 0.000000 
0.086229 -2.088012 0.000000 
0.301170 -1.253049 0.000000 
-0.368294 -1.923535 0.000000 
0.457507 -1.741850 0.000000 
-0.079407 -1.179525 0.000000 
0.369154 -1.365099 0.000000 
0.048715 -1.176136 0.000000 
0.205703 -2.021625 0.000000 
-0.167159 -2.035859 0.000000 
-0.366567 -1.882227 0.000000 
0.386144 -1.846108 0.000000 
-0.305135 -1.293519 0.000000 
-0.387078 -1.392568 0.000000 
0.425252 -1.480657 0.000000 
0.140413 -1.196109 0.000000 
0.111975 -2.055663 0.000000 
-0.260069 -1.988725 0.000000 
-0.413756 -1.795061 0.000000 
0.439780 -1.699625 0.000000 
0.326273 -1.931367 0.000000 
-0.014533 -2.068104 0.000000 
-0.225527 -1.233266 0.000000 
-0.442908 -1.543146 0.000000 
-0.445123 -1.676979 0.000000 
0.255396 -1.251633 0.000000 
0.445470 -1.572634 0.000000 
-0.079333 -1.235799 0.000000 
-0.130417 -1.278609 0.000000 
-0.191597 -1.273991 0.000000 
-0.111867 -1.337217 0.000000 
-0.224051 -1.328512 0.000000 
-0.171272 -1.365511 0.000000 
-0.055594 -1.351445 0.000000 
-0.279041 -1.339076 0.000000 
-0.040187 -1.407167 0.000000 
-0.015041 -1.310241 0.000000 
-0.296573 -1.398340 0.000000 
-0.349226 -1.428625 0.000000 
-0.351226 -1.494329 0.000000 
-0.254824 -1.437095 0.000000 
-0.391103 -1.543650 0.000000 
-0.370336 -1.603254 0.000000 
-0.284940 -1.494281 0.000000 
-0.395089 -1.662748 0.000000 
-0.360392 -1.708922 0.000000 
-0.313327 -1.602679 0.000000 
-0.369688 -1.767270 0.000000 
-0.323258 -1.801065 0.000000 
-0.307698 -1.667340 0.000000 
-0.317847 -1.862194 0.000000 
-0.261652 -1.887389 0.000000 
-0.273358 -1.774873 0.000000 
-0.237999 -1.941548 0.000000 
-0.174943 -1.947419 0.000000 
-0.233858 -1.826459 0.000000 
-0.136993 -1.992699 0.000000 
-0.076092 -1.983531 0.000000 
-0.147100 -1.898441 0.000000 
-0.021468 -2.016501 0.000000 
0.034383 -1.990548 0.000000 
-0.085997 -1.920474 0.000000 
0.090783 -2.008105 0.000000 
0.131601 -1.967237 0.000000 
0.025861 -1.934074 0.000000 
0.192839 -1.970568 0.000000 
0.225790 -1.918539 0.000000 
0.089168 -1.919558 0.000000 
0.282731 -1.902816 0.000000 
0.297512 -1.841237 0.000000 
0.190626 -1.870507 0.000000 
0.347718 -1.810110 0.000000 
0.347308 -1.748526 0.000000 
0.236036 -1.824067 0.000000 
0.387714 -1.699147 0.000000 
0.369971 -1.640173 0.000000 
0.294872 -1.727950 0.000000 
0.395378 -1.586844 0.000000 
0.360736 -1.540625 0.000000 
0.307967 -1.664333 0.000000 
0.372882 -1.486124 0.000000 
0.326072 -1.446104 0.000000 
0.305499 -1.551665 0.000000 
0.320446 -1.385098 0.000000 
0.261463 -1.356062 0.000000 
0.282122 -1.491066 0.000000 
0.233332 -1.298795 0.000000 
0.170485 -1.292842 0.000000 
0.219133 -1.397619 0.000000 
0.132530 -1.247577 0.000000 
0.077667 -1.257434 0.000000 
0.033502 -1.223588 0.000000 
-0.020231 -1.253203 0.000000 
0.166704 -1.359279 0.000000 
0.047676 -1.310489 0.000000 
-0.184513 -1.414830 0.000000 
-0.267808 -1.543027 0.000000 
-0.039895 -1.896971 0.000000 
0.233804 -1.772365 0.000000 
0.278138 -1.622044 0.000000 
0.115242 -1.874856 0.000000 
0.234165 -1.471618 0.000000 
-0.267095 -1.699495 0.000000 
-0.182363 -1.831639 0.000000 
-0.080635 -1.448393 0.000000 
0.015739 -1.421583 0.000000 
-0.141814 -1.451202 0.000000 
-0.170613 -1.508664 0.000000 
-0.215488 -1.547390 0.000000 
-0.205084 -1.610710 0.000000 
-0.129406 -1.545610 0.000000 
-0.218571 -1.671205 0.000000 
-0.148068 -1.602796 0.000000 
-0.174593 -1.717580 0.000000 
-0.076799 -1.511489 0.000000 
-0.155573 -1.779679 0.000000 
-0.126037 -1.687552 0.000000 
-0.074980 -1.714162 0.000000 
-0.112999 -1.633263 0.000000 
-0.052249 -1.616490 0.000000 
-0.031995 -1.669474 0.000000 
-0.034711 -1.551902 0.000000 
0.031192 -1.477217 0.000000 
0.063050 -1.366109 0.000000 
-0.089197 -1.777802 0.000000 
0.009049 -1.535498 0.000000 
0.051424 -1.585394 0.000000 
0.053332 -1.640532 0.000000 
0.098177 -1.556102 0.000000 
0.011239 -1.683376 0.000000 
0.028372 -1.744813 0.000000 
0.017947 -1.804239 0.000000 
0.077740 -1.832129 0.000000 
0.083331 -1.745454 0.000000 
0.117710 -1.787594 0.000000 
0.179025 -1.758663 0.000000 
0.098599 -1.684556 0.000000 
0.165702 -1.566676 0.000000 
0.087920 -1.497282 0.000000 
0.161326 -1.687929 0.000000 
0.191154 -1.508817 0.000000 
0.131959 -1.465966 0.000000 
0.122542 -1.390428 0.000000 
-0.040916 -1.821673 0.000000 
0.197397 -1.628475 0.000000 
VECTORS X_EC float 
-0.807924 0.651869 0.000000 
-0.751813 0.062575 0.000000 
-0.158839 0.001065 0.000000 
-0.018508 0.702687 0.000000 
-0.104376 0.772353 0.000000 
-0.484750 -0.983188 0.000000 
0.893837 -0.718465 0.000000 
-0.328251 0.899384 0.000000 
0.207737 0.322387 0.000000 
0.085362 0.524425 0.000000 
0.470130 -0.294758 0.000000 
0.111910 0.835117 0.000000 
0.514522 0.585045 0.000000 
-0.087979 -0.860344 0.000000 
0.159142 -0.378252 0.000000 
-0.908345 0.357105 0.000000 
0.328251 0.723426 0.000000 
-0.484444 -0.109728 0.000000 
0.738177 0.965086 0.000000 
0.753192 -0.439237 0.000000 
-0.226359 -0.674073 0.000000 
0.039052 0.915781 0.000000 
-0.191535 0.746018 0.000000 
-0.990822 0.269678 0.000000 
-0.158839 -0.315190 0.000000 
0.070591 -0.993868 0.000000 
-0.642294 0.528085 0.000000 
-0.197074 0.885435 0.000000 
-0.691547 -0.348738 0.000000 
-0.641287 0.944392 0.000000 
0.546089 -0.200227 0.000000 
-0.003737 0.827870 0.000000 
0.170429 -0.796543 0.000000 
0.399586 0.966495 0.000000 
-0.024807 0.810284 0.000000 
0.076360 0.610063 0.000000 
0.159142 -0.061996 0.000000 
0.852645 0.150002 0.000000 
0.875821 0.651869 0.000000 
-0.149885 0.415011 0.000000 
0.425140 0.920078 0.000000 
0.992201 -0.646340 0.000000 
-0.544710 -0.176435 0.000000 
-0.050047 0.612337 0.000000 
-0.470623 0.863498 0.000000 
0.538976 0.100662 0.000000 
0.675236 0.840906 0.000000 
-0.371350 0.477502 0.000000 
0.114395 0.572393 0.000000 
-0.556219 -0.451820 0.000000 
0.425709 -0.692613 0.000000 
-0.965766 -0.376537 0.000000 
-0.419479 0.283785 0.000000 
0.164988 0.871050 0.000000 
0.063913 0.974063 0.000000 
0.253500 0.704419 0.000000 
0.733793 0.258168 0.000000 
-0.241628 0.967072 0.000000 
0.068130 0.330833 0.000000 
0.824846 -0.124218 0.000000 
-0.903111 0.787358 0.000000 
0.503515 -0.778225 0.000000 
-0.047282 -0.712361 0.000000 
-0.032511 0.179861 0.000000 
-0.702641 -0.655783 0.000000 
0.030198 -0.515775 0.000000 
-0.471115 -0.761337 0.000000 
-0.130555 -0.475941 0.000000 
0.277311 -0.506727 0.000000 
-0.254217 -0.085222 0.000000 
0.493676 -0.143255 0.000000 
0.141813 0.103405 0.000000 
-0.629371 0.009634 0.000000 
0.860276 -0.072826 0.000000 
-0.732087 0.381114 0.000000 
-0.899724 -0.265060 0.000000 
0.977153 0.322267 0.000000 
-0.671826 0.524168 0.000000 
-0.658496 0.962197 0.000000 
0.698824 0.580635 0.000000 
-0.392645 -0.709002 0.000000 
-0.531093 -0.311642 0.000000 
0.899598 0.961876 0.000000 
-0.366074 0.084984 0.000000 
-0.597389 0.392815 0.000000 
-0.911153 -0.315472 0.000000 
-0.535415 0.781801 0.000000 
-0.844949 -0.992900 0.000000 
-0.948677 0.115599 0.000000 
-0.881021 -0.585377 0.000000 
0.744349 -0.417404 0.000000 
0.822387 0.832484 0.000000 
0.586663 -0.056348 0.000000 
0.166285 -0.017205 0.000000 
0.559054 -0.823608 0.000000 
-0.086713 0.284659 0.000000 
-0.492723 0.223542 0.000000 
-0.019331 -0.343724 0.000000 
-0.856883 0.443343 0.000000 
0.770780 0.270319 0.000000 
-0.426685 -0.196839 0.000000 
0.394783 0.387366 0.000000 
0.122661 0.114915 0.000000 
0.827591 -0.106170 0.000000 
-0.285596 0.137117 0.000000 
-0.505268 -0.209742 0.000000 
0.405544 -0.202948 0.000000 
-0.884872 -0.314558 0.000000 
-0.983414 -0.725087 0.000000 
-0.270837 -0.529956 0.000000 
0.681883 -0.932602 0.000000 
0.684612 0.656837 0.000000 
-0.573571 -0.839550 0.000000 
0.415238 0.327646 0.000000 
0.533524 -0.065516 0.000000 
-0.965812 0.519668 0.000000 
0.364144 -0.421042 0.000000 
0.595096 -0.729168 0.000000 
0.946884 0.095550 0.000000 
0.514118 0.907493 0.000000 
0.826186 0.640693 0.000000 
0.963337 -0.655567 0.000000 
0.863696 0.233990 0.000000 
-0.743089 0.040413 0.000000 
-0.880813 0.940443 0.000000 
-0.555549 -0.341367 0.000000 
-0.136568 -0.381053 0.000000 
-0.460886 0.317459 0.000000 
0.116466 -0.682817 0.000000 
0.482219 -0.617109 0.000000 
0.776650 -0.842749 0.000000 
-0.865130 -0.645312 0.000000 
-0.111363 0.061861 0.000000 
0.682158 -0.263406 0.000000 
0.230085 0.432202 0.000000 
0.785388 -0.713153 0.000000 
-0.734034 -0.353528 0.000000 
-0.558696 0.815766 0.000000 
-0.854255 -0.186375 0.000000 
0.231718 -0.500960 0.000000 
-0.561100 0.810785 0.000000 
0.780632 0.329970 0.000000 
0.215752 -0.789070 0.000000 
-0.462433 0.655950 0.000000 
0.895071 0.477222 0.000000 
-0.054573 0.674677 0.000000 
0.137421 -0.942241 0.000000 
0.436584 -0.684064 0.000000 
0.367225 -0.261933 0.000000 
-0.137294 -0.695930 0.000000 
0.457138 0.141369 0.000000 
-0.012881 -0.314693 0.000000 
0.163955 0.450535 0.000000 
-0.488009 -0.923407 0.000000 
0.037156 0.864526 0.000000 
-0.159751 0.250343 0.000000 
-0.500136 0.427749 0.000000 
-0.246673 -0.111583 0.000000 
-0.651673 -0.223397 0.000000 
-0.786702 0.129830 0.000000 
-0.768596 -0.653984 0.000000 
0.792053 0.848113 0.000000 
0.579669 0.107396 0.000000 
-0.405356 0.852012 0.000000 
0.939676 -0.763345 0.000000 
0.657172 -0.430709 0.000000 
0.644454 -0.063122 0.000000 
0.345486 -0.625989 0.000000 
0.925074 0.222506 0.000000 
0.810853 0.632087 0.000000 
0.880351 -0.971741 0.000000 
0.481737 -0.785810 0.000000 
0.444460 0.636358 0.000000 
0.215264 0.917290 0.000000 
-0.193502 0.724421 0.000000 
0.342676 0.230370 0.000000 
-0.104683 -0.555493 0.000000 
0.413868 0.981878 0.000000 
-0.075508 0.252862 0.000000 
-0.274359 -0.941223 0.000000 
0.120271 0.773108 0.000000 
0.183054 0.269517 0.000000 
-0.727227 -0.855516 0.000000 
-0.315983 -0.143502 0.000000 
CELL_DATA 184 
SCALARS MASS float 
LOOKUP_TABLE default 
0.051252 
0.046008 
0.051531 
0.046188 
0.052854 
0.051531 
0.052854 
0.052854 
0.051531 
0.050859 
0.052854 
0.047395 
0.052854 
0.052854 
0.051434 
0.045995 
0.052854 
0.051281 
0.051530 
0.046441 
0.052854 
0.052854 
0.050612 
0.049065 
0.052975 
0.049197 
0.049245 
0.052975 
0.052990 
0.055938 
0.049713 
0.052094 
0.055938 
0.050456 
0.055938 
0.053198 
0.052878 
0.049051 
0.052807 
0.049481 
0.052974 
0.049465 
0.049257 
0.055938 
0.105225 
0.104629 
0.082126 
0.094264 
0.094771 
0.094259 
0.094771 
0.083366 
0.104047 
0.083092 
0.081316 
0.081315 
0.092719 
0.079469 
0.108073 
0.092710 
0.108073 
0.093129 
0.104035 
0.094961 
0.104398 
0.081316 
0.125285 
0.099128 
0.098320 
0.087841 
0.082650 
0.097481 
0.086914 
0.081921 
0.086680 
0.086680 
0.081485 
0.107769 
0.088711 
0.084874 
0.107874 
0.082612 
0.095190 
0.095229 
0.083942 
0.085089 
0.079923 
0.081132 
0.095301 
0.097917 
0.090576 
0.085268 
0.095896 
0.081062 
0.095454 
0.090083 
0.081027 
0.085251 
0.101961 
0.083022 
0.095445 
0.080604 
0.081018 
0.085240 
0.097826 
0.090495 
0.095435 
0.095845 
0.081023 
0.085241 
0.090072 
0.081024 
0.095436 
0.101966 
0.083028 
0.085242 
0.080610 
0.081024 
0.095437 
0.082345 
0.082694 
0.085242 
0.109264 
0.089885 
0.095437 
0.108636 
0.083028 
0.085242 
0.080610 
0.074817 
0.073569 
0.082490 
0.095437 
0.095617 
0.133784 
0.138292 
0.139667 
0.139695 
0.139694 
0.139689 
0.139693 
0.140105 
0.139774 
0.086622 
0.086622 
0.089038 
0.077179 
0.079159 
0.072465 
0.084345 
0.092656 
0.093083 
0.084037 
0.098826 
0.101847 
0.085968 
0.086444 
0.074619 
0.064825 
0.094138 
0.124406 
0.086607 
0.131576 
0.102571 
0.084703 
0.076503 
0.084191 
0.084191 
0.086793 
0.075696 
0.084714 
0.090949 
0.084009 
0.076569 
0.086383 
0.098391 
0.110757 
0.093222 
0.143196 
0.101090 
0.091038 
0.150913 
0.178131 
0.206980 
SCALARS MASS float 
LOOKUP_TABLE default 
0.051252 
0.046008 
0.051531 
0.046188 
0.052854 
0.051531 
0.052854 
0.052854 
0.051531 
0.050859 
0.052854 
0.047395 
0.052854 
0.052854 
0.051434 
0.045995 
0.052854 
0.051281 
0.051530 
0.046441 
0.052854 
0.052854 
0.050612 
0.049065 
0.052975 
0.049197 
0.049245 
0.052975 
0.052990 
0.055938 
0.049713 
0.052094 
0.055938 
0.050456 
0.055938 
0.053198 
0.052878 
0.049051 
0.052807 
0.049481 
0.052974 
0.049465 
0.049257 
0.055938 
0.105225 
0.104629 
0.082126 
0.094264 
0.094771 
0.094259 
0.094771 
0.083366 
0.104047 
0.083092 
0.081316 
0.081315 
0.092719 
0.079469 
0.108073 
0.092710 
0.108073 
0.093129 
0.104035 
0.094961 
0.104398 
0.081316 
0.125285 
0.099128 
0.098320 
0.087841 
0.082650 
0.097481 
0.086914 
0.081921 
0.086680 
0.086680 
0.081485 
0.107769 
0.088711 
0.084874 
0.107874 
0.082612 
0.095190 
0.095229 
0.083942 
0.085089 
0.079923 
0.081132 
0.095301 
0.097917 
0.090576 
0.085268 
0.095896 
0.081062 
0.095454 
0.090083 
0.081027 
0.085251 
0.101961 
0.083022 
0.095445 
0.080604 
0.081018 
0.085240 
0.097826 
0.090495 
0.095435 
0.095845 
0.081023 
0.085241 
0.090072 
0.081024 
0.095436 
0.101966 
0.083028 
0.085242 
0.080610 
0.081024 
0.095437 
0.082345 
0.082694 
0.085242 
0.109264 
0.089885 
0.095437 
0.108636 
0.083028 
0.085242 
0.080610 
0.074817 
0.073569 
0.082490 
0.095437 
0.095617 
0.133784 
0.138292 
0.139667 
0.139695 
0.139694 
0.139689 
0.139693 
0.140105 
0.139774 
0.086622 
0.086622 
0.089038 
0.077179 
0.079159 
0.072465 
0.084345 
0.092656 
0.093083 
0.084037 
0.098826 
0.101847 
0.085968 
0.086444 
0.074619 
0.064825 
0.094138 
0.124406 
0.086607 
0.131576 
0.102571 
0.084703 
0.076503 
0.084191 
0.084191 
0.086793 
0.075696 
0.084714 
0.090949 
0.084009 
0.076569 
0.086383 
0.098391 
0.110757 
0.093222 
0.143196 
0.101090 
0.091038 
0.150913 
0.178131 
0.206980 
SCALARS DENSITY float 
LOOKUP_TABLE default 
20.000000 
20.000000 
20.000000 
20.000000 
20.000000 
20.000000 
20.000000 
20.000000 
20.000000 
20.000000 
20.000000 
20.000000 
20.000000 
20.000000 
20.000000 
20.000000 
20.000000 
20.000000 
20.000000 
20.000000 
20.000000 
20.000000 
20.000000 
20.000000 
20.000000 
20.000000 
20.000000 
20.000000 
20.000000 
20.000000 
20.000000 
20.000000 
20.000000 
20.000000 
20.000000 
20.000000 
20.000000 
20.000000 
20.000000 
20.000000 
20.000000 
20.000000 
20.000000 
20.000000 
20.000000 
20.000000 
20.000000 
20.000000 
20.000000 
20.000000 
20.000000 
20.000000 
20.000000 
20.000000 
20.000000 
20.000000 
20.000000 
20.000000 
20.000000 
20.000000 
20.000000 
20.000000 
20.000000 
20.000000 
20.000000 
20.000000 
20.000000 
20.000000 
20.000000 
20.000000 
20.000000 
20.000000 
20.000000 
20.000000 
20.000000 
20.000000 
20.000000 
20.000000 
20.000000 
20.000000 
20.000000 
20.000000 
20.000000 
20.000000 
20.000000 
20.000000 
20.000000 
20.000000 
20.000000 
20.000000 
20.000000 
20.000000 
20.000000 
20.000000 
20.000000 
20.000000 
20.000000 
20.000000 
20.000000 
20.000000 
20.000000 
20.000000 
20.000000 
20.000000 
20.000000 
20.000000 
20.000000 
20.000000 
20.000000 
20.000000 
20.000000 
20.000000 
20.000000 
20.000000 
20.000000 
20.000000 
20.000000 
20.000000 
20.000000 
20.000000 
20.000000 
20.000000 
20.000000 
20.000000 
20.000000 
20.000000 
20.000000 
20.000000 
20.000000 
20.000000 
20.000000 
20.000000 
20.000000 
20.000000 
20.000000 
20.000000 
20.000000 
20.000000 
20.000000 
20.000000 
20.000000 
20.000000 
20.000000 
20.000000 
20.000000 
20.000000 
20.000000 
20.000000 
20.000000 
20.000000 
20.000000 
20.000000 
20.000000 
20.000000 
20.000000 
20.000000 
20.000000 
20.000000 
20.000000 
20.000000 
20.000000 
20.000000 
20.000000 
20.000000 
20.000000 
20.000000 
20.000000 
20.000000 
20.000000 
20.000000 
20.000000 
20.000000 
20.000000 
20.000000 
20.000000 
20.000000 
20.000000 
20.000000 
20.000000 
20.000000 
20.000000 
20.000000 
20.000000 
20.000000 
SCALARS ELEM_i float 
LOOKUP_TABLE default 
206 
223 
164 
225 
183 
185 
205 
203 
165 
224 
163 
206 
203 
164 
224 
183 
186 
225 
183 
165 
223 
164 
206 
223 
164 
224 
183 
186 
225 
203 
165 
224 
163 
206 
203 
165 
224 
163 
186 
225 
183 
165 
223 
164 
206 
165 
186 
183 
203 
223 
163 
225 
225 
165 
186 
183 
203 
224 
164 
163 
203 
205 
224 
224 
185 
164 
205 
205 
205 
205 
205 
205 
205 
205 
205 
205 
205 
225 
225 
205 
224 
224 
205 
224 
224 
224 
224 
223 
224 
223 
203 
204 
203 
203 
203 
203 
203 
203 
203 
183 
203 
183 
183 
183 
183 
183 
183 
183 
183 
183 
163 
164 
183 
164 
164 
184 
164 
164 
164 
165 
165 
164 
165 
185 
185 
185 
185 
185 
185 
185 
185 
205 
185 
185 
205 
204 
203 
184 
184 
183 
185 
204 
203 
205 
185 
205 
204 
204 
204 
204 
204 
204 
204 
204 
204 
204 
204 
204 
204 
204 
204 
185 
185 
204 
184 
184 
184 
184 
184 
184 
183 
183 
184 
184 
184 
184 
184 
185 
184 
184 
185 
185 
203 
184 
VECTORS VELOCITY float 
-0.000000 -5.630940 0.000000 
-0.000000 -5.630940 0.000000 
-0.000000 -5.630940 0.000000 
0.000000 -5.630940 0.000000 
-0.000000 -5.630940 0.000000 
-0.000000 -5.630940 0.000000 
0.000000 -5.630940 0.000000 
0.000000 -5.630940 0.000000 
-0.000000 -5.630940 0.000000 
0.000000 -5.630940 0.000000 
0.000000 -5.630940 0.000000 
-0.000000 -5.630940 0.000000 
0.000000 -5.630940 0.000000 
-0.000000 -5.630940 0.000000 
0.000000 -5.630940 0.000000 
-0.000000 -5.630940 0.000000 
0.000000 -5.630940 0.000000 
-0.000000 -5.630940 0.000000 
-0.000000 -5.630940 0.000000 
0.000000 -5.630940 0.000000 
-0.000000 -5.630940 0.000000 
0.000000 -5.630940 0.000000 
-0.000000 -5.630940 0.000000 
0.000000 -5.630940 0.000000 
-0.000000 -5.630940 0.000000 
0.000000 -5.630940 0.000000 
-0.000000 -5.630940 0.000000 
0.000000 -5.630940 0.000000 
-0.000000 -5.630940 0.000000 
-0.000000 -5.630940 0.000000 
0.000000 -5.630940 0.000000 
-0.000000 -5.630940 0.000000 
0.000000 -5.630940 0.000000 
-0.000000 -5.630940 0.000000 
0.000000 -5.630940 0.000000 
-0.000000 -5.630940 0.000000 
0.000000 -5.630940 0.000000 
0.000000 -5.630940 0.000000 
0.000000 -5.630940 0.000000 
0.000000 -5.630940 0.000000 
-0.000000 -5.630940 0.000000 
0.000000 -5.630940 0.000000 
-0.000000 -5.630940 0.000000 
-0.000000 -5.630940 0.000000 
-0.000000 -5.630940 0.000000 
-0.000000 -5.630940 0.000000 
-0.000000 -5.630940 0.000000 
-0.000000 -5.630940 0.000000 
0.000000 -5.630940 0.000000 
-0.000000 -5.630940 0.000000 
0.000000 -5.630940 0.000000 
-0.000000 -5.630940 0.000000 
0.000000 -5.630940 0.000000 
-0.000000 -5.630940 0.000000 
-0.000000 -5.630940 0.000000 
-0.000000 -5.630940 0.000000 
0.000000 -5.630940 0.000000 
0.000000 -5.630940 0.000000 
-0.000000 -5.630940 0.000000 
0.000000 -5.630940 0.000000 
-0.000000 -5.630940 0.000000 
0.000000 -5.630940 0.000000 
0.000000 -5.630940 0.000000 
0.000000 -5.630940 0.000000 
0.000000 -5.630940 0.000000 
-0.000000 -5.630940 0.000000 
-0.000000 -5.630940 0.000000 
-0.000000 -5.630940 0.000000 
0.000000 -5.630940 0.000000 
0.000000 -5.630940 0.000000 
0.000000 -5.630940 0.000000 
0.000000 -5.630940 0.000000 
0.000000 -5.630940 0.000000 
0.000000 -5.630940 0.000000 
0.000000 -5.630940 0.000000 
-0.000000 -5.630940 0.000000 
0.000000 -5.630940 0.000000 
0.000000 -5.630940 0.000000 
0.000000 -5.630940 0.000000 
-0.000000 -5.630940 0.000000 
0.000000 -5.630940 0.000000 
0.000000 -5.630940 0.000000 
0.000000 -5.630940 0.000000 
0.000000 -5.630940 0.000000 
0.000000 -5.630940 0.000000 
0.000000 -5.630940 0.000000 
0.000000 -5.630940 0.000000 
0.000000 -5.630940 0.000000 
0.000000 -5.630940 0.000000 
0.000000 -5.630940 0.000000 
0.000000 -5.630940 0.000000 
0.000000 -5.630940 0.000000 
0.000000 -5.630940 0.000000 
0.000000 -5.630940 0.000000 
0.000000 -5.630940 0.000000 
0.000000 -5.630940 0.000000 
0.000000 -5.630940 0.000000 
0.000000 -5.630940 0.000000 
-0.000000 -5.630940 0.000000 
-0.000000 -5.630940 0.000000 
0.000000 -5.630940 0.000000 
-0.000000 -5.630940 0.000000 
-0.000000 -5.630940 0.000000 
0.000000 -5.630940 0.000000 
-0.000000 -5.630940 0.000000 
0.000000 -5.630940 0.000000 
0.000000 -5.630940 0.000000 
0.000000 -5.630940 0.000000 
0.000000 -5.630940 0.000000 
0.000000 -5.630940 0.000000 
0.000000 -5.630940 0.000000 
-0.000000 -5.630940 0.000000 
0.000000 -5.630940 0.000000 
-0.000000 -5.630940 0.000000 
-0.000000 -5.630940 0.000000 
-0.000000 -5.630940 0.000000 
-0.000000 -5.630940 0.000000 
-0.000000 -5.630940 0.000000 
-0.000000 -5.630940 0.000000 
-0.000000 -5.630940 0.000000 
-0.000000 -5.630940 0.000000 
-0.000000 -5.630940 0.000000 
-0.000000 -5.630940 0.000000 
-0.000000 -5.630940 0.000000 
-0.000000 -5.630940 0.000000 
0.000000 -5.630940 0.000000 
0.000000 -5.630940 0.000000 
0.000000 -5.630940 0.000000 
0.000000 -5.630940 0.000000 
0.000000 -5.630940 0.000000 
-0.000000 -5.630940 0.000000 
-0.000000 -5.630940 0.000000 
-0.000000 -5.630940 0.000000 
-0.000000 -5.630940 0.000000 
0.000000 -5.630940 0.000000 
0.000000 -5.630940 0.000000 
-0.000000 -5.630940 0.000000 
-0.000000 -5.630940 0.000000 
-0.000000 -5.630940 0.000000 
0.000000 -5.630940 0.000000 
-0.000000 -5.630940 0.000000 
0.000000 -5.630940 0.000000 
0.000000 -5.630940 0.000000 
0.000000 -5.630940 0.000000 
0.000000 -5.630940 0.000000 
0.000000 -5.630940 0.000000 
0.000000 -5.630940 0.000000 
0.000000 -5.630940 0.000000 
0.000000 -5.630940 0.000000 
0.000000 -5.630940 0.000000 
0.000000 -5.630940 0.000000 
0.000000 -5.630940 0.000000 
0.000000 -5.630940 0.000000 
0.000000 -5.630940 0.000000 
0.000000 -5.630940 0.000000 
0.000000 -5.630940 0.000000 
-0.000000 -5.630940 0.000000 
-0.000000 -5.630940 0.000000 
-0.000000 -5.630940 0.000000 
-0.000000 -5.630940 0.000000 
-0.000000 -5.630940 0.000000 
0.000000 -5.630940 0.000000 
0.000000 -5.630940 0.000000 
-0.000000 -5.630940 0.000000 
-0.000000 -5.630940 0.000000 
-0.000000 -5.630940 0.000000 
-0.000000 -5.630940 0.000000 
-0.000000 -5.630940 0.000000 
-0.000000 -5.630940 0.000000 
-0.000000 -5.630940 0.000000 
-0.000000 -5.630940 0.000000 
-0.000000 -5.630940 0.000000 
-0.000000 -5.630940 0.000000 
-0.000000 -5.630940 0.000000 
-0.000000 -5.630940 0.000000 
-0.000000 -5.630940 0.000000 
-0.000000 -5.630940 0.000000 
-0.000000 -5.630940 0.000000 
-0.000000 -5.630940 0.000000 
-0.000000 -5.630940 0.000000 
0.000000 -5.630940 0.000000 
0.000000 -5.630940 0.000000 
-0.000000 -5.630940 0.000000 
-0.000000 -5.630940 0.000000 
TENSORS STRESS float 
0.000000 -0.000000 0.000000 
0.000000 0.000000 0.000000 
0.000000 0.000000 0.000000 

0.000000 -0.000000 0.000000 
0.000000 0.000000 0.000000 
0.000000 0.000000 0.000000 

-0.000000 0.000000 0.000000 
0.000000 -0.000000 0.000000 
0.000000 0.000000 0.000000 

0.000000 -0.000000 0.000000 
0.000000 0.000000 0.000000 
0.000000 0.000000 0.000000 

-0.000000 -0.000000 0.000000 
0.000000 -0.000000 0.000000 
0.000000 0.000000 0.000000 

0.000000 -0.000000 0.000000 
0.000000 0.000000 0.000000 
0.000000 0.000000 0.000000 

0.000000 0.000000 0.000000 
0.000000 -0.000000 0.000000 
0.000000 0.000000 0.000000 

-0.000000 -0.000000 0.000000 
0.000000 0.000000 0.000000 
0.000000 0.000000 0.000000 

0.000000 -0.000000 0.000000 
0.000000 0.000000 0.000000 
0.000000 0.000000 0.000000 

-0.000000 0.000000 0.000000 
0.000000 -0.000000 0.000000 
0.000000 0.000000 0.000000 

0.000000 0.000000 0.000000 
0.000000 0.000000 0.000000 
0.000000 0.000000 0.000000 

0.000000 0.000000 0.000000 
0.000000 0.000000 0.000000 
0.000000 0.000000 0.000000 

-0.000000 -0.000000 0.000000 
0.000000 0.000000 0.000000 
0.000000 0.000000 0.000000 

0.000000 0.000000 0.000000 
0.000000 0.000000 0.000000 
0.000000 0.000000 0.000000 

-0.000000 0.000000 0.000000 
0.000000 -0.000000 0.000000 
0.000000 0.000000 0.000000 

-0.000000 -0.000000 0.000000 
0.000000 -0.000000 0.000000 
0.000000 0.000000 0.000000 

0.000000 0.000000 0.000000 
0.000000 0.000000 0.000000 
0.000000 0.000000 0.000000 

0.000000 0.000000 0.000000 
0.000000 -0.000000 0.000000 
0.000000 0.000000 0.000000 

0.000000 0.000000 0.000000 
0.000000 0.000000 0.000000 
0.000000 0.000000 0.000000 

-0.000000 0.000000 0.000000 
0.000000 -0.000000 0.000000 
0.000000 0.000000 0.000000 

0.000000 -0.000000 0.000000 
0.000000 0.000000 0.000000 
0.000000 0.000000 0.000000 

-0.000000 0.000000 0.000000 
0.000000 -0.000000 0.000000 
0.000000 0.000000 0.000000 

0.000000 0.000000 0.000000 
0.000000 0.000000 0.000000 
0.000000 0.000000 0.000000 

0.000000 -0.000000 0.000000 
0.000000 -0.000000 0.000000 
0.000000 0.000000 0.000000 

-0.000000 -0.000000 0.000000 
0.000000 -0.000000 0.000000 
0.000000 0.000000 0.000000 

0.000000 -0.000000 0.000000 
0.000000 0.000000 0.000000 
0.000000 0.000000 0.000000 

-0.000000 -0.000000 0.000000 
0.000000 -0.000000 0.000000 
0.000000 0.000000 0.000000 

0.000000 0.000000 0.000000 
0.000000 0.000000 0.000000 
0.000000 0.000000 0.000000 

0.000000 -0.000000 0.000000 
0.000000 0.000000 0.000000 
0.000000 0.000000 0.000000 

-0.000000 -0.000000 0.000000 
0.000000 0.000000 0.000000 
0.000000 0.000000 0.000000 

-0.000000 -0.000000 0.000000 
0.000000 -0.000000 0.000000 
0.000000 0.000000 0.000000 

-0.000000 -0.000000 0.000000 
0.000000 -0.000000 0.000000 
0.000000 0.000000 0.000000 

0.000000 -0.000000 0.000000 
0.000000 0.000000 0.000000 
0.000000 0.000000 0.000000 

0.000000 -0.000000 0.000000 
0.000000 -0.000000 0.000000 
0.000000 0.000000 0.000000 

-0.000000 -0.000000 0.000000 
0.000000 0.000000 0.000000 
0.000000 0.000000 0.000000 

0.000000 -0.000000 0.000000 
0.000000 0.000000 0.000000 
0.000000 0.000000 0.000000 

0.000000 0.000000 0.000000 
0.000000 -0.000000 0.000000 
0.000000 0.000000 0.000000 

0.000000 0.000000 0.000000 
0.000000 -0.000000 0.000000 
0.000000 0.000000 0.000000 

0.000000 -0.000000 0.000000 
0.000000 0.000000 0.000000 
0.000000 0.000000 0.000000 

0.000000 -0.000000 0.000000 
0.000000 0.000000 0.000000 
0.000000 0.000000 0.000000 

-0.000000 0.000000 0.000000 
0.000000 -0.000000 0.000000 
0.000000 0.000000 0.000000 

-0.000000 0.000000 0.000000 
0.000000 0.000000 0.000000 
0.000000 0.000000 0.000000 

0.000000 -0.000000 0.000000 
0.000000 0.000000 0.000000 
0.000000 0.000000 0.000000 

-0.000000 -0.000000 0.000000 
0.000000 -0.000000 0.000000 
0.000000 0.000000 0.000000 

0.000000 0.000000 0.000000 
0.000000 0.000000 0.000000 
0.000000 0.000000 0.000000 

-0.000000 -0.000000 0.000000 
0.000000 -0.000000 0.000000 
0.000000 0.000000 0.000000 

0.000000 -0.000000 0.000000 
0.000000 -0.000000 0.000000 
0.000000 0.000000 0.000000 

-0.000000 -0.000000 0.000000 
0.000000 -0.000000 0.000000 
0.000000 0.000000 0.000000 

-0.000000 -0.000000 0.000000 
0.000000 0.000000 0.000000 
0.000000 0.000000 0.000000 

0.000000 -0.000000 0.000000 
0.000000 -0.000000 0.000000 
0.000000 0.000000 0.000000 

0.000000 -0.000000 0.000000 
0.000000 0.000000 0.000000 
0.000000 0.000000 0.000000 

0.000000 0.000000 0.000000 
0.000000 0.000000 0.000000 
0.000000 0.000000 0.000000 

0.000000 0.000000 0.000000 
0.000000 0.000000 0.000000 
0.000000 0.000000 0.000000 

0.000000 -0.000000 0.000000 
0.000000 -0.000000 0.000000 
0.000000 0.000000 0.000000 

0.000000 -0.000000 0.000000 
0.000000 -0.000000 0.000000 
0.000000 0.000000 0.000000 

-0.000000 0.000000 0.000000 
0.000000 -0.000000 0.000000 
0.000000 0.000000 0.000000 

-0.000000 0.000000 0.000000 
0.000000 -0.000000 0.000000 
0.000000 0.000000 0.000000 

-0.000000 -0.000000 0.000000 
0.000000 -0.000000 0.000000 
0.000000 0.000000 0.000000 

0.000000 0.000000 0.000000 
0.000000 0.000000 0.000000 
0.000000 0.000000 0.000000 

0.000000 0.000000 0.000000 
0.000000 0.000000 0.000000 
0.000000 0.000000 0.000000 

0.000000 -0.000000 0.000000 
0.000000 0.000000 0.000000 
0.000000 0.000000 0.000000 

0.000000 0.000000 0.000000 
0.000000 0.000000 0.000000 
0.000000 0.000000 0.000000 

-0.000000 0.000000 0.000000 
0.000000 -0.000000 0.000000 
0.000000 0.000000 0.000000 

0.000000 -0.000000 0.000000 
0.000000 0.000000 0.000000 
0.000000 0.000000 0.000000 

0.000000 -0.000000 0.000000 
0.000000 0.000000 0.000000 
0.000000 0.000000 0.000000 

0.000000 0.000000 0.000000 
0.000000 0.000000 0.000000 
0.000000 0.000000 0.000000 

0.000000 0.000000 0.000000 
0.000000 0.000000 0.000000 
0.000000 0.000000 0.000000 

0.000000 -0.000000 0.000000 
0.000000 0.000000 0.000000 
0.000000 0.000000 0.000000 

0.000000 -0.000000 0.000000 
0.000000 0.000000 0.000000 
0.000000 0.000000 0.000000 

0.000000 0.000000 0.000000 
0.000000 -0.000000 0.000000 
0.000000 0.000000 0.000000 

0.000000 -0.000000 0.000000 
0.000000 0.000000 0.000000 
0.000000 0.000000 0.000000 

0.000000 0.000000 0.000000 
0.000000 0.000000 0.000000 
0.000000 0.000000 0.000000 

0.000000 0.000000 0.000000 
0.000000 -0.000000 0.000000 
0.000000 0.000000 0.000000 

0.000000 0.000000 0.000000 
0.000000 0.000000 0.000000 
0.000000 0.000000 0.000000 

-0.000000 0.000000 0.000000 
0.000000 -0.000000 0.000000 
0.000000 0.000000 0.000000 

0.000000 -0.000000 0.000000 
0.000000 0.000000 0.000000 
0.000000 0.000000 0.000000 

0.000000 -0.000000 0.000000 
0.000000 0.000000 0.000000 
0.000000 0.000000 0.000000 

0.000000 -0.000000 0.000000 
0.000000 0.000000 0.000000 
0.000000 0.000000 0.000000 

0.000000 -0.000000 0.000000 
0.000000 0.000000 0.000000 
0.000000 0.000000 0.000000 

0.000000 -0.000000 0.000000 
0.000000 0.000000 0.000000 
0.000000 0.000000 0.000000 

0.000000 0.000000 0.000000 
0.000000 0.000000 0.000000 
0.000000 0.000000 0.000000 

-0.000000 0.000000 0.000000 
0.000000 -0.000000 0.000000 
0.000000 0.000000 0.000000 

0.000000 -0.000000 0.000000 
0.000000 0.000000 0.000000 
0.000000 0.000000 0.000000 

0.000000 -0.000000 0.000000 
0.000000 -0.000000 0.000000 
0.000000 0.000000 0.000000 

0.000000 0.000000 0.000000 
0.000000 -0.000000 0.000000 
0.000000 0.000000 0.000000 

-0.000000 -0.000000 0.000000 
0.000000 -0.000000 0.000000 
0.000000 0.000000 0.000000 

0.000000 -0.000000 0.000000 
0.000000 -0.000000 0.000000 
0.000000 0.000000 0.000000 

0.000000 -0.000000 0.000000 
0.000000 0.000000 0.000000 
0.000000 0.000000 0.000000 

0.000000 -0.000000 0.000000 
0.000000 -0.000000 0.000000 
0.000000 0.000000 0.000000 

0.000000 -0.000000 0.000000 
0.000000 -0.000000 0.000000 
0.000000 0.000000 0.000000 

-0.000000 0.000000 0.000000 
0.000000 -0.000000 0.000000 
0.000000 0.000000 0.000000 

0.000000 -0.000000 0.000000 
0.000000 0.000000 0.000000 
0.000000 0.000000 0.000000 

-0.000000 0.000000 0.000000 
0.000000 -0.000000 0.000000 
0.000000 0.000000 0.000000 

-0.000000 0.000000 0.000000 
0.000000 0.000000 0.000000 
0.000000 0.000000 0.000000 

0.000000 0.000000 0.000000 
0.000000 0.000000 0.000000 
0.000000 0.000000 0.000000 

-0.000000 -0.000000 0.000000 
0.000000 -0.000000 0.000000 
0.000000 0.000000 0.000000 

-0.000000 0.000000 0.000000 
0.000000 0.000000 0.000000 
0.000000 0.000000 0.000000 

-0.000000 0.000000 0.000000 
0.000000 -0.000000 0.000000 
0.000000 0.000000 0.000000 

-0.000000 0.000000 0.000000 
0.000000 -0.000000 0.000000 
0.000000 0.000000 0.000000 

0.000000 -0.000000 0.000000 
0.000000 0.000000 0.000000 
0.000000 0.000000 0.000000 

-0.000000 0.000000 0.000000 
0.000000 -0.000000 0.000000 
0.000000 0.000000 0.000000 

0.000000 -0.000000 0.000000 
0.000000 0.000000 0.000000 
0.000000 0.000000 0.000000 

-0.000000 -0.000000 0.000000 
0.000000 -0.000000 0.000000 
0.000000 0.000000 0.000000 

0.000000 -0.000000 0.000000 
0.000000 0.000000 0.000000 
0.000000 0.000000 0.000000 

-0.000000 -0.000000 0.000000 
0.000000 -0.000000 0.000000 
0.000000 0.000000 0.000000 

0.000000 0.000000 0.000000 
0.000000 0.000000 0.000000 
0.000000 0.000000 0.000000 

-0.000000 0.000000 0.000000 
0.000000 0.000000 0.000000 
0.000000 0.000000 0.000000 

0.000000 0.000000 0.000000 
0.000000 0.000000 0.000000 
0.000000 0.000000 0.000000 

0.000000 0.000000 0.000000 
0.000000 0.000000 0.000000 
0.000000 0.000000 0.000000 

-0.000000 0.000000 0.000000 
0.000000 -0.000000 0.000000 
0.000000 0.000000 0.000000 

0.000000 -0.000000 0.000000 
0.000000 0.000000 0.000000 
0.000000 0.000000 0.000000 

-0.000000 0.000000 0.000000 
0.000000 -0.000000 0.000000 
0.000000 0.000000 0.000000 

0.000000 -0.000000 0.000000 
0.000000 0.000000 0.000000 
0.000000 0.000000 0.000000 

0.000000 0.000000 0.000000 
0.000000 0.000000 0.000000 
0.000000 0.000000 0.000000 

-0.000000 0.000000 0.000000 
0.000000 -0.000000 0.000000 
0.000000 0.000000 0.000000 

-0.000000 -0.000000 0.000000 
0.000000 -0.000000 0.000000 
0.000000 0.000000 0.000000 

0.000000 0.000000 0.000000 
0.000000 0.000000 0.000000 
0.000000 0.000000 0.000000 

-0.000000 -0.000000 0.000000 
0.000000 -0.000000 0.000000 
0.000000 0.000000 0.000000 

0.000000 0.000000 0.000000 
0.000000 0.000000 0.000000 
0.000000 0.000000 0.000000 

0.000000 -0.000000 0.000000 
0.000000 -0.000000 0.000000 
0.000000 0.000000 0.000000 

-0.000000 -0.000000 0.000000 
0.000000 -0.000000 0.000000 
0.000000 0.000000 0.000000 

-0.000000 -0.000000 0.000000 
0.000000 -0.000000 0.000000 
0.000000 0.000000 0.000000 

-0.000000 -0.000000 0.000000 
0.000000 -0.000000 0.000000 
0.000000 0.000000 0.000000 

0.000000 -0.000000 0.000000 
0.000000 0.000000 0.000000 
0.000000 0.000000 0.000000 

0.000000 -0.000000 0.000000 
0.000000 0.000000 0.000000 
0.000000 0.000000 0.000000 

0.000000 -0.000000 0.000000 
0.000000 -0.000000 0.000000 
0.000000 0.000000 0.000000 

0.000000 -0.000000 0.000000 
0.000000 0.000000 0.000000 
0.000000 0.000000 0.000000 

0.000000 -0.000000 0.000000 
0.000000 0.000000 0.000000 
0.000000 0.000000 0.000000 

0.000000 0.000000 0.000000 
0.000000 0.000000 0.000000 
0.000000 0.000000 0.000000 

0.000000 0.000000 0.000000 
0.000000 0.000000 0.000000 
0.000000 0.000000 0.000000 

0.000000 -0.000000 0.000000 
0.000000 0.000000 0.000000 
0.000000 0.000000 0.000000 

0.000000 0.000000 0.000000 
0.000000 0.000000 0.000000 
0.000000 0.000000 0.000000 

0.000000 -0.000000 0.000000 
0.000000 0.000000 0.000000 
0.000000 0.000000 0.000000 

-0.000000 -0.000000 0.000000 
0.000000 -0.000000 0.000000 
0.000000 0.000000 0.000000 

0.000000 -0.000000 0.000000 
0.000000 0.000000 0.000000 
0.000000 0.000000 0.000000 

0.000000 0.000000 0.000000 
0.000000 0.000000 0.000000 
0.000000 0.000000 0.000000 

-0.000000 0.000000 0.000000 
0.000000 -0.000000 0.000000 
0.000000 0.000000 0.000000 

-0.000000 0.000000 0.000000 
0.000000 0.000000 0.000000 
0.000000 0.000000 0.000000 

-0.000000 0.000000 0.000000 
0.000000 -0.000000 0.000000 
0.000000 0.000000 0.000000 

-0.000000 0.000000 0.000000 
0.000000 0.000000 0.000000 
0.000000 0.000000 0.000000 

0.000000 -0.000000 0.000000 
0.000000 -0.000000 0.000000 
0.000000 0.000000 0.000000 

0.000000 -0.000000 0.000000 
0.000000 0.000000 0.000000 
0.000000 0.000000 0.000000 

0.000000 0.000000 0.000000 
0.000000 0.000000 0.000000 
0.000000 0.000000 0.000000 

0.000000 0.000000 0.000000 
0.000000 0.000000 0.000000 
0.000000 0.000000 0.000000 

0.000000 -0.000000 0.000000 
0.000000 -0.000000 0.000000 
0.000000 0.000000 0.000000 

0.000000 0.000000 0.000000 
0.000000 0.000000 0.000000 
0.000000 0.000000 0.000000 

0.000000 0.000000 0.000000 
0.000000 0.000000 0.000000 
0.000000 0.000000 0.000000 

-0.000000 0.000000 0.000000 
0.000000 -0.000000 0.000000 
0.000000 0.000000 0.000000 

0.000000 -0.000000 0.000000 
0.000000 0.000000 0.000000 
0.000000 0.000000 0.000000 

-0.000000 0.000000 0.000000 
0.000000 -0.000000 0.000000 
0.000000 0.000000 0.000000 

-0.000000 -0.000000 0.000000 
0.000000 -0.000000 0.000000 
0.000000 0.000000 0.000000 

0.000000 -0.000000 0.000000 
0.000000 0.000000 0.000000 
0.000000 0.000000 0.000000 

-0.000000 0.000000 0.000000 
0.000000 -0.000000 0.000000 
0.000000 0.000000 0.000000 

0.000000 0.000000 0.000000 
0.000000 0.000000 0.000000 
0.000000 0.000000 0.000000 

-0.000000 -0.000000 0.000000 
0.000000 -0.000000 0.000000 
0.000000 0.000000 0.000000 

0.000000 -0.000000 0.000000 
0.000000 0.000000 0.000000 
0.000000 0.000000 0.000000 

-0.000000 0.000000 0.000000 
0.000000 -0.000000 0.000000 
0.000000 0.000000 0.000000 

0.000000 0.000000 0.000000 
0.000000 0.000000 0.000000 
0.000000 0.000000 0.000000 

0.000000 -0.000000 0.000000 
0.000000 0.000000 0.000000 
0.000000 0.000000 0.000000 

-0.000000 -0.000000 0.000000 
0.000000 -0.000000 0.000000 
0.000000 0.000000 0.000000 

-0.000000 0.000000 0.000000 
0.000000 -0.000000 0.000000 
0.000000 0.000000 0.000000 

0.000000 -0.000000 0.000000 
0.000000 0.000000 0.000000 
0.000000 0.000000 0.000000 

0.000000 -0.000000 0.000000 
0.000000 0.000000 0.000000 
0.000000 0.000000 0.000000 

-0.000000 -0.000000 0.000000 
0.000000 -0.000000 0.000000 
0.000000 0.000000 0.000000 

0.000000 -0.000000 0.000000 
0.000000 0.000000 0.000000 
0.000000 0.000000 0.000000 

0.000000 -0.000000 0.000000 
0.000000 0.000000 0.000000 
0.000000 0.000000 0.000000 

0.000000 -0.000000 0.000000 
0.000000 0.000000 0.000000 
0.000000 0.000000 0.000000 

0.000000 -0.000000 0.000000 
0.000000 -0.000000 0.000000 
0.000000 0.000000 0.000000 

-0.000000 -0.000000 0.000000 
0.000000 -0.000000 0.000000 
0.000000 0.000000 0.000000 

0.000000 -0.000000 0.000000 
0.000000 0.000000 0.000000 
0.000000 0.000000 0.000000 

-0.000000 -0.000000 0.000000 
0.000000 -0.000000 0.000000 
0.000000 0.000000 0.000000 

0.000000 0.000000 0.000000 
0.000000 0.000000 0.000000 
0.000000 0.000000 0.000000 

0.000000 -0.000000 0.000000 
0.000000 0.000000 0.000000 
0.000000 0.000000 0.000000 

-0.000000 -0.000000 0.000000 
0.000000 -0.000000 0.000000 
0.000000 0.000000 0.000000 

0.000000 0.000000 0.000000 
0.000000 0.000000 0.000000 
0.000000 0.000000 0.000000 

0.000000 -0.000000 0.000000 
0.000000 0.000000 0.000000 
0.000000 0.000000 0.000000 

0.000000 0.000000 0.000000 
0.000000 0.000000 0.000000 
0.000000 0.000000 0.000000 

0.000000 0.000000 0.000000 
0.000000 0.000000 0.000000 
0.000000 0.000000 0.000000 

0.000000 0.000000 0.000000 
0.000000 0.000000 0.000000 
0.000000 0.000000 0.000000 

0.000000 -0.000000 0.000000 
0.000000 0.000000 0.000000 
0.000000 0.000000 0.000000 

0.000000 -0.000000 0.000000 
0.000000 0.000000 0.000000 
0.000000 0.000000 0.000000 

0.000000 -0.000000 0.000000 
0.000000 0.000000 0.000000 
0.000000 0.000000 0.000000 

0.000000 0.000000 0.000000 
0.000000 0.000000 0.000000 
0.000000 0.000000 0.000000 

0.000000 0.000000 0.000000 
0.000000 0.000000 0.000000 
0.000000 0.000000 0.000000 

TENSORS STRAIN float 
0.000000 -0.000000 0.000000 
0.000000 -0.000000 0.000000 
0.000000 0.000000 0.000000 

0.000000 -0.000000 0.000000 
0.000000 -0.000000 0.000000 
0.000000 0.000000 0.000000 

-0.000000 0.000000 0.000000 
0.000000 -0.000000 0.000000 
0.000000 0.000000 0.000000 

0.000000 -0.000000 0.000000 
0.000000 0.000000 0.000000 
0.000000 0.000000 0.000000 

-0.000000 -0.000000 0.000000 
0.000000 -0.000000 0.000000 
0.000000 0.000000 0.000000 

0.000000 -0.000000 0.000000 
0.000000 0.000000 0.000000 
0.000000 0.000000 0.000000 

0.000000 0.000000 0.000000 
0.000000 -0.000000 0.000000 
0.000000 0.000000 0.000000 

-0.000000 -0.000000 0.000000 
0.000000 0.000000 0.000000 
0.000000 0.000000 0.000000 

0.000000 -0.000000 0.000000 
0.000000 0.000000 0.000000 
0.000000 0.000000 0.000000 

0.000000 0.000000 0.000000 
0.000000 -0.000000 0.000000 
0.000000 0.000000 0.000000 

0.000000 0.000000 0.000000 
0.000000 -0.000000 0.000000 
0.000000 0.000000 0.000000 

0.000000 0.000000 0.000000 
0.000000 0.000000 0.000000 
0.000000 0.000000 0.000000 

-0.000000 -0.000000 0.000000 
0.000000 0.000000 0.000000 
0.000000 0.000000 0.000000 

0.000000 0.000000 0.000000 
0.000000 0.000000 0.000000 
0.000000 0.000000 0.000000 

0.000000 0.000000 0.000000 
0.000000 -0.000000 0.000000 
0.000000 0.000000 0.000000 

-0.000000 -0.000000 0.000000 
0.000000 -0.000000 0.000000 
0.000000 0.000000 0.000000 

0.000000 0.000000 0.000000 
0.000000 0.000000 0.000000 
0.000000 0.000000 0.000000 

0.000000 0.000000 0.000000 
0.000000 -0.000000 0.000000 
0.000000 0.000000 0.000000 

-0.000000 0.000000 0.000000 
0.000000 0.000000 0.000000 
0.000000 0.000000 0.000000 

-0.000000 0.000000 0.000000 
0.000000 -0.000000 0.000000 
0.000000 0.000000 0.000000 

0.000000 -0.000000 0.000000 
0.000000 -0.000000 0.000000 
0.000000 0.000000 0.000000 

-0.000000 0.000000 0.000000 
0.000000 -0.000000 0.000000 
0.000000 0.000000 0.000000 

0.000000 0.000000 0.000000 
0.000000 0.000000 0.000000 
0.000000 0.000000 0.000000 

0.000000 -0.000000 0.000000 
0.000000 -0.000000 0.000000 
0.000000 0.000000 0.000000 

-0.000000 -0.000000 0.000000 
0.000000 -0.000000 0.000000 
0.000000 0.000000 0.000000 

0.000000 -0.000000 0.000000 
0.000000 0.000000 0.000000 
0.000000 0.000000 0.000000 

-0.000000 -0.000000 0.000000 
0.000000 -0.000000 0.000000 
0.000000 0.000000 0.000000 

0.000000 0.000000 0.000000 
0.000000 0.000000 0.000000 
0.000000 0.000000 0.000000 

0.000000 -0.000000 0.000000 
0.000000 0.000000 0.000000 
0.000000 0.000000 0.000000 

-0.000000 -0.000000 0.000000 
0.000000 0.000000 0.000000 
0.000000 0.000000 0.000000 

-0.000000 -0.000000 0.000000 
0.000000 -0.000000 0.000000 
0.000000 0.000000 0.000000 

0.000000 -0.000000 0.000000 
0.000000 -0.000000 0.000000 
0.000000 0.000000 0.000000 

0.000000 -0.000000 0.000000 
0.000000 -0.000000 0.000000 
0.000000 0.000000 0.000000 

0.000000 -0.000000 0.000000 
0.000000 -0.000000 0.000000 
0.000000 0.000000 0.000000 

-0.000000 -0.000000 0.000000 
0.000000 0.000000 0.000000 
0.000000 0.000000 0.000000 

0.000000 -0.000000 0.000000 
0.000000 0.000000 0.000000 
0.000000 0.000000 0.000000 

0.000000 0.000000 0.000000 
0.000000 -0.000000 0.000000 
0.000000 0.000000 0.000000 

0.000000 0.000000 0.000000 
0.000000 -0.000000 0.000000 
0.000000 0.000000 0.000000 

0.000000 -0.000000 0.000000 
0.000000 0.000000 0.000000 
0.000000 0.000000 0.000000 

0.000000 -0.000000 0.000000 
0.000000 0.000000 0.000000 
0.000000 0.000000 0.000000 

-0.000000 0.000000 0.000000 
0.000000 -0.000000 0.000000 
0.000000 0.000000 0.000000 

-0.000000 0.000000 0.000000 
0.000000 0.000000 0.000000 
0.000000 0.000000 0.000000 

0.000000 -0.000000 0.000000 
0.000000 0.000000 0.000000 
0.000000 0.000000 0.000000 

-0.000000 -0.000000 0.000000 
0.000000 -0.000000 0.000000 
0.000000 0.000000 0.000000 

0.000000 0.000000 0.000000 
0.000000 0.000000 0.000000 
0.000000 0.000000 0.000000 

-0.000000 -0.000000 0.000000 
0.000000 -0.000000 0.000000 
0.000000 0.000000 0.000000 

0.000000 -0.000000 0.000000 
0.000000 -0.000000 0.000000 
0.000000 0.000000 0.000000 

-0.000000 -0.000000 0.000000 
0.000000 -0.000000 0.000000 
0.000000 0.000000 0.000000 

-0.000000 -0.000000 0.000000 
0.000000 0.000000 0.000000 
0.000000 0.000000 0.000000 

0.000000 -0.000000 0.000000 
0.000000 -0.000000 0.000000 
0.000000 0.000000 0.000000 

0.000000 -0.000000 0.000000 
0.000000 0.000000 0.000000 
0.000000 0.000000 0.000000 

0.000000 0.000000 0.000000 
0.000000 0.000000 0.000000 
0.000000 0.000000 0.000000 

0.000000 0.000000 0.000000 
0.000000 -0.000000 0.000000 
0.000000 0.000000 0.000000 

0.000000 -0.000000 0.000000 
0.000000 -0.000000 0.000000 
0.000000 0.000000 0.000000 

0.000000 -0.000000 0.000000 
0.000000 -0.000000 0.000000 
0.000000 0.000000 0.000000 

-0.000000 0.000000 0.000000 
0.000000 -0.000000 0.000000 
0.000000 0.000000 0.000000 

-0.000000 0.000000 0.000000 
0.000000 -0.000000 0.000000 
0.000000 0.000000 0.000000 

0.000000 -0.000000 0.000000 
0.000000 -0.000000 0.000000 
0.000000 0.000000 0.000000 

-0.000000 0.000000 0.000000 
0.000000 0.000000 0.000000 
0.000000 0.000000 0.000000 

0.000000 0.000000 0.000000 
0.000000 0.000000 0.000000 
0.000000 0.000000 0.000000 

-0.000000 -0.000000 0.000000 
0.000000 0.000000 0.000000 
0.000000 0.000000 0.000000 

0.000000 0.000000 0.000000 
0.000000 0.000000 0.000000 
0.000000 0.000000 0.000000 

-0.000000 0.000000 0.000000 
0.000000 -0.000000 0.000000 
0.000000 0.000000 0.000000 

0.000000 -0.000000 0.000000 
0.000000 -0.000000 0.000000 
0.000000 0.000000 0.000000 

0.000000 -0.000000 0.000000 
0.000000 0.000000 0.000000 
0.000000 0.000000 0.000000 

-0.000000 0.000000 0.000000 
0.000000 0.000000 0.000000 
0.000000 0.000000 0.000000 

0.000000 0.000000 0.000000 
0.000000 0.000000 0.000000 
0.000000 0.000000 0.000000 

0.000000 -0.000000 0.000000 
0.000000 -0.000000 0.000000 
0.000000 0.000000 0.000000 

0.000000 -0.000000 0.000000 
0.000000 0.000000 0.000000 
0.000000 0.000000 0.000000 

0.000000 0.000000 0.000000 
0.000000 -0.000000 0.000000 
0.000000 0.000000 0.000000 

0.000000 -0.000000 0.000000 
0.000000 0.000000 0.000000 
0.000000 0.000000 0.000000 

0.000000 0.000000 0.000000 
0.000000 0.000000 0.000000 
0.000000 0.000000 0.000000 

0.000000 0.000000 0.000000 
0.000000 -0.000000 0.000000 
0.000000 0.000000 0.000000 

0.000000 0.000000 0.000000 
0.000000 0.000000 0.000000 
0.000000 0.000000 0.000000 

0.000000 0.000000 0.000000 
0.000000 -0.000000 0.000000 
0.000000 0.000000 0.000000 

0.000000 -0.000000 0.000000 
0.000000 0.000000 0.000000 
0.000000 0.000000 0.000000 

0.000000 -0.000000 0.000000 
0.000000 0.000000 0.000000 
0.000000 0.000000 0.000000 

0.000000 -0.000000 0.000000 
0.000000 0.000000 0.000000 
0.000000 0.000000 0.000000 

0.000000 -0.000000 0.000000 
0.000000 0.000000 0.000000 
0.000000 0.000000 0.000000 

0.000000 -0.000000 0.000000 
0.000000 0.000000 0.000000 
0.000000 0.000000 0.000000 

-0.000000 0.000000 0.000000 
0.000000 0.000000 0.000000 
0.000000 0.000000 0.000000 

0.000000 0.000000 0.000000 
0.000000 -0.000000 0.000000 
0.000000 0.000000 0.000000 

0.000000 -0.000000 0.000000 
0.000000 0.000000 0.000000 
0.000000 0.000000 0.000000 

0.000000 -0.000000 0.000000 
0.000000 -0.000000 0.000000 
0.000000 0.000000 0.000000 

0.000000 0.000000 0.000000 
0.000000 -0.000000 0.000000 
0.000000 0.000000 0.000000 

0.000000 -0.000000 0.000000 
0.000000 -0.000000 0.000000 
0.000000 0.000000 0.000000 

0.000000 -0.000000 0.000000 
0.000000 -0.000000 0.000000 
0.000000 0.000000 0.000000 

0.000000 -0.000000 0.000000 
0.000000 0.000000 0.000000 
0.000000 0.000000 0.000000 

0.000000 -0.000000 0.000000 
0.000000 -0.000000 0.000000 
0.000000 0.000000 0.000000 

0.000000 -0.000000 0.000000 
0.000000 -0.000000 0.000000 
0.000000 0.000000 0.000000 

-0.000000 0.000000 0.000000 
0.000000 -0.000000 0.000000 
0.000000 0.000000 0.000000 

-0.000000 -0.000000 0.000000 
0.000000 0.000000 0.000000 
0.000000 0.000000 0.000000 

-0.000000 0.000000 0.000000 
0.000000 -0.000000 0.000000 
0.000000 0.000000 0.000000 

-0.000000 0.000000 0.000000 
0.000000 0.000000 0.000000 
0.000000 0.000000 0.000000 

-0.000000 0.000000 0.000000 
0.000000 0.000000 0.000000 
0.000000 0.000000 0.000000 

-0.000000 -0.000000 0.000000 
0.000000 -0.000000 0.000000 
0.000000 0.000000 0.000000 

-0.000000 0.000000 0.000000 
0.000000 0.000000 0.000000 
0.000000 0.000000 0.000000 

-0.000000 0.000000 0.000000 
0.000000 -0.000000 0.000000 
0.000000 0.000000 0.000000 

-0.000000 0.000000 0.000000 
0.000000 0.000000 0.000000 
0.000000 0.000000 0.000000 

-0.000000 -0.000000 0.000000 
0.000000 0.000000 0.000000 
0.000000 0.000000 0.000000 

-0.000000 0.000000 0.000000 
0.000000 0.000000 0.000000 
0.000000 0.000000 0.000000 

-0.000000 -0.000000 0.000000 
0.000000 0.000000 0.000000 
0.000000 0.000000 0.000000 

-0.000000 -0.000000 0.000000 
0.000000 -0.000000 0.000000 
0.000000 0.000000 0.000000 

-0.000000 -0.000000 0.000000 
0.000000 0.000000 0.000000 
0.000000 0.000000 0.000000 

-0.000000 -0.000000 0.000000 
0.000000 -0.000000 0.000000 
0.000000 0.000000 0.000000 

-0.000000 0.000000 0.000000 
0.000000 0.000000 0.000000 
0.000000 0.000000 0.000000 

-0.000000 0.000000 0.000000 
0.000000 0.000000 0.000000 
0.000000 0.000000 0.000000 

-0.000000 0.000000 0.000000 
0.000000 0.000000 0.000000 
0.000000 0.000000 0.000000 

-0.000000 0.000000 0.000000 
0.000000 0.000000 0.000000 
0.000000 0.000000 0.000000 

-0.000000 0.000000 0.000000 
0.000000 -0.000000 0.000000 
0.000000 0.000000 0.000000 

0.000000 -0.000000 0.000000 
0.000000 0.000000 0.000000 
0.000000 0.000000 0.000000 

-0.000000 0.000000 0.000000 
0.000000 -0.000000 0.000000 
0.000000 0.000000 0.000000 

-0.000000 -0.000000 0.000000 
0.000000 0.000000 0.000000 
0.000000 0.000000 0.000000 

-0.000000 0.000000 0.000000 
0.000000 0.000000 0.000000 
0.000000 0.000000 0.000000 

-0.000000 0.000000 0.000000 
0.000000 -0.000000 0.000000 
0.000000 0.000000 0.000000 

-0.000000 -0.000000 0.000000 
0.000000 -0.000000 0.000000 
0.000000 0.000000 0.000000 

-0.000000 0.000000 0.000000 
0.000000 0.000000 0.000000 
0.000000 0.000000 0.000000 

0.000000 -0.000000 0.000000 
0.000000 -0.000000 0.000000 
0.000000 0.000000 0.000000 

-0.000000 0.000000 0.000000 
0.000000 0.000000 0.000000 
0.000000 0.000000 0.000000 

0.000000 -0.000000 0.000000 
0.000000 -0.000000 0.000000 
0.000000 0.000000 0.000000 

0.000000 -0.000000 0.000000 
0.000000 -0.000000 0.000000 
0.000000 0.000000 0.000000 

-0.000000 -0.000000 0.000000 
0.000000 -0.000000 0.000000 
0.000000 0.000000 0.000000 

-0.000000 -0.000000 0.000000 
0.000000 -0.000000 0.000000 
0.000000 0.000000 0.000000 

0.000000 -0.000000 0.000000 
0.000000 0.000000 0.000000 
0.000000 0.000000 0.000000 

0.000000 -0.000000 0.000000 
0.000000 0.000000 0.000000 
0.000000 0.000000 0.000000 

0.000000 -0.000000 0.000000 
0.000000 -0.000000 0.000000 
0.000000 0.000000 0.000000 

0.000000 -0.000000 0.000000 
0.000000 0.000000 0.000000 
0.000000 0.000000 0.000000 

0.000000 -0.000000 0.000000 
0.000000 -0.000000 0.000000 
0.000000 0.000000 0.000000 

0.000000 0.000000 0.000000 
0.000000 0.000000 0.000000 
0.000000 0.000000 0.000000 

0.000000 0.000000 0.000000 
0.000000 0.000000 0.000000 
0.000000 0.000000 0.000000 

0.000000 -0.000000 0.000000 
0.000000 0.000000 0.000000 
0.000000 0.000000 0.000000 

0.000000 0.000000 0.000000 
0.000000 0.000000 0.000000 
0.000000 0.000000 0.000000 

0.000000 -0.000000 0.000000 
0.000000 0.000000 0.000000 
0.000000 0.000000 0.000000 

0.000000 -0.000000 0.000000 
0.000000 -0.000000 0.000000 
0.000000 0.000000 0.000000 

0.000000 -0.000000 0.000000 
0.000000 0.000000 0.000000 
0.000000 0.000000 0.000000 

0.000000 0.000000 0.000000 
0.000000 0.000000 0.000000 
0.000000 0.000000 0.000000 

-0.000000 0.000000 0.000000 
0.000000 -0.000000 0.000000 
0.000000 0.000000 0.000000 

-0.000000 0.000000 0.000000 
0.000000 0.000000 0.000000 
0.000000 0.000000 0.000000 

0.000000 0.000000 0.000000 
0.000000 -0.000000 0.000000 
0.000000 0.000000 0.000000 

-0.000000 0.000000 0.000000 
0.000000 0.000000 0.000000 
0.000000 0.000000 0.000000 

0.000000 -0.000000 0.000000 
0.000000 -0.000000 0.000000 
0.000000 0.000000 0.000000 

-0.000000 -0.000000 0.000000 
0.000000 0.000000 0.000000 
0.000000 0.000000 0.000000 

-0.000000 0.000000 0.000000 
0.000000 0.000000 0.000000 
0.000000 0.000000 0.000000 

0.000000 0.000000 0.000000 
0.000000 0.000000 0.000000 
0.000000 0.000000 0.000000 

0.000000 -0.000000 0.000000 
0.000000 -0.000000 0.000000 
0.000000 0.000000 0.000000 

0.000000 0.000000 0.000000 
0.000000 0.000000 0.000000 
0.000000 0.000000 0.000000 

0.000000 0.000000 0.000000 
0.000000 0.000000 0.000000 
0.000000 0.000000 0.000000 

0.000000 0.000000 0.000000 
0.000000 -0.000000 0.000000 
0.000000 0.000000 0.000000 

-0.000000 -0.000000 0.000000 
0.000000 0.000000 0.000000 
0.000000 0.000000 0.000000 

0.000000 0.000000 0.000000 
0.000000 -0.000000 0.000000 
0.000000 0.000000 0.000000 

-0.000000 -0.000000 0.000000 
0.000000 -0.000000 0.000000 
0.000000 0.000000 0.000000 

-0.000000 -0.000000 0.000000 
0.000000 0.000000 0.000000 
0.000000 0.000000 0.000000 

-0.000000 0.000000 0.000000 
0.000000 -0.000000 0.000000 
0.000000 0.000000 0.000000 

0.000000 0.000000 0.000000 
0.000000 0.000000 0.000000 
0.000000 0.000000 0.000000 

-0.000000 -0.000000 0.000000 
0.000000 -0.000000 0.000000 
0.000000 0.000000 0.000000 

-0.000000 -0.000000 0.000000 
0.000000 0.000000 0.000000 
0.000000 0.000000 0.000000 

-0.000000 0.000000 0.000000 
0.000000 -0.000000 0.000000 
0.000000 0.000000 0.000000 

-0.000000 0.000000 0.000000 
0.000000 0.000000 0.000000 
0.000000 0.000000 0.000000 

-0.000000 -0.000000 0.000000 
0.000000 0.000000 0.000000 
0.000000 0.000000 0.000000 

-0.000000 -0.000000 0.000000 
0.000000 -0.000000 0.000000 
0.000000 0.000000 0.000000 

0.000000 0.000000 0.000000 
0.000000 -0.000000 0.000000 
0.000000 0.000000 0.000000 

0.000000 -0.000000 0.000000 
0.000000 0.000000 0.000000 
0.000000 0.000000 0.000000 

0.000000 -0.000000 0.000000 
0.000000 0.000000 0.000000 
0.000000 0.000000 0.000000 

-0.000000 -0.000000 0.000000 
0.000000 -0.000000 0.000000 
0.000000 0.000000 0.000000 

0.000000 -0.000000 0.000000 
0.000000 0.000000 0.000000 
0.000000 0.000000 0.000000 

0.000000 -0.000000 0.000000 
0.000000 0.000000 0.000000 
0.000000 0.000000 0.000000 

-0.000000 -0.000000 0.000000 
0.000000 0.000000 0.000000 
0.000000 0.000000 0.000000 

0.000000 -0.000000 0.000000 
0.000000 -0.000000 0.000000 
0.000000 0.000000 0.000000 

-0.000000 -0.000000 0.000000 
0.000000 -0.000000 0.000000 
0.000000 0.000000 0.000000 

-0.000000 -0.000000 0.000000 
0.000000 0.000000 0.000000 
0.000000 0.000000 0.000000 

-0.000000 -0.000000 0.000000 
0.000000 -0.000000 0.000000 
0.000000 0.000000 0.000000 

-0.000000 0.000000 0.000000 
0.000000 0.000000 0.000000 
0.000000 0.000000 0.000000 

-0.000000 -0.000000 0.000000 
0.000000 0.000000 0.000000 
0.000000 0.000000 0.000000 

-0.000000 -0.000000 0.000000 
0.000000 -0.000000 0.000000 
0.000000 0.000000 0.000000 

-0.000000 0.000000 0.000000 
0.000000 0.000000 0.000000 
0.000000 0.000000 0.000000 

-0.000000 -0.000000 0.000000 
0.000000 0.000000 0.000000 
0.000000 0.000000 0.000000 

0.000000 0.000000 0.000000 
0.000000 -0.000000 0.000000 
0.000000 0.000000 0.000000 

0.000000 0.000000 0.000000 
0.000000 0.000000 0.000000 
0.000000 0.000000 0.000000 

-0.000000 0.000000 0.000000 
0.000000 0.000000 0.000000 
0.000000 0.000000 0.000000 

0.000000 -0.000000 0.000000 
0.000000 0.000000 0.000000 
0.000000 0.000000 0.000000 

0.000000 -0.000000 0.000000 
0.000000 0.000000 0.000000 
0.000000 0.000000 0.000000 

0.000000 -0.000000 0.000000 
0.000000 0.000000 0.000000 
0.000000 0.000000 0.000000 

-0.000000 0.000000 0.000000 
0.000000 0.000000 0.000000 
0.000000 0.000000 0.000000 

0.000000 0.000000 0.000000 
0.000000 0.000000 0.000000 
0.000000 0.000000 0.000000 

