# vtk DataFile Version 3.0 
vtk output 
ASCII 
DATASET UNSTRUCTURED_GRID 
POINTS 184 float 
-0.034194 -2.093244 0.000000 
-0.389862 -2.940204 0.000000 
0.472519 -2.588914 0.000000 
-0.446285 -2.406604 0.000000 
0.183416 -3.111917 0.000000 
0.220105 -2.145720 0.000000 
-0.286513 -2.187630 0.000000 
-0.107803 -3.153739 0.000000 
0.418396 -2.340365 0.000000 
-0.462331 -2.665634 0.000000 
0.404252 -2.862798 0.000000 
-0.167521 -2.120612 0.000000 
-0.231912 -3.056395 0.000000 
0.464939 -2.464059 0.000000 
-0.471997 -2.540176 0.000000 
0.290950 -2.982828 0.000000 
0.098115 -2.101934 0.000000 
-0.378394 -2.279851 0.000000 
0.055810 -3.175407 0.000000 
0.334942 -2.224134 0.000000 
-0.434812 -2.782942 0.000000 
0.444263 -2.719111 0.000000 
-0.127003 -2.108947 0.000000 
-0.320065 -2.980071 0.000000 
0.472833 -2.543321 0.000000 
-0.459241 -2.453620 0.000000 
0.255374 -3.033231 0.000000 
0.173230 -2.126794 0.000000 
-0.348295 -2.242925 0.000000 
-0.054351 -3.162704 0.000000 
0.366326 -2.260417 0.000000 
-0.450082 -2.707261 0.000000 
0.429909 -2.764694 0.000000 
-0.211145 -2.142420 0.000000 
-0.155422 -3.125423 0.000000 
0.438911 -2.384419 0.000000 
-0.471717 -2.584571 0.000000 
0.347251 -2.958525 0.000000 
0.014643 -2.092314 0.000000 
-0.427315 -2.361364 0.000000 
0.106310 -3.161347 0.000000 
0.297878 -2.193565 0.000000 
-0.418699 -2.883820 0.000000 
0.456606 -2.676438 0.000000 
-0.080625 -2.125526 0.000000 
0.367837 -2.306801 0.000000 
0.045766 -2.121803 0.000000 
0.213403 -2.998645 0.000000 
-0.167089 -3.025136 0.000000 
-0.387866 -2.819578 0.000000 
0.392279 -2.779114 0.000000 
-0.307473 -2.239197 0.000000 
-0.387426 -2.340578 0.000000 
0.425899 -2.424589 0.000000 
0.137324 -2.140517 0.000000 
0.124661 -3.052436 0.000000 
-0.258734 -2.953746 0.000000 
-0.414897 -2.725836 0.000000 
0.438721 -2.635987 0.000000 
0.339195 -2.880275 0.000000 
-0.005401 -3.046349 0.000000 
-0.227766 -2.178608 0.000000 
-0.442982 -2.491740 0.000000 
-0.443786 -2.617835 0.000000 
0.251920 -2.193180 0.000000 
0.445532 -2.513936 0.000000 
-0.081196 -2.181161 0.000000 
-0.132242 -2.224415 0.000000 
-0.193603 -2.219739 0.000000 
-0.113229 -2.283163 0.000000 
-0.225441 -2.274959 0.000000 
-0.172499 -2.311686 0.000000 
-0.056922 -2.296909 0.000000 
-0.280326 -2.285890 0.000000 
-0.041352 -2.351702 0.000000 
-0.016543 -2.256021 0.000000 
-0.297691 -2.345605 0.000000 
-0.349750 -2.376832 0.000000 
-0.351201 -2.443228 0.000000 
-0.255857 -2.384077 0.000000 
-0.391120 -2.491877 0.000000 
-0.369491 -2.549223 0.000000 
-0.285395 -2.441514 0.000000 
-0.394047 -2.604465 0.000000 
-0.359633 -2.646905 0.000000 
-0.313135 -2.548416 0.000000 
-0.369554 -2.700241 0.000000 
-0.322599 -2.730092 0.000000 
-0.307352 -2.608255 0.000000 
-0.319641 -2.788690 0.000000 
-0.259294 -2.811698 0.000000 
-0.272235 -2.705841 0.000000 
-0.235325 -2.875961 0.000000 
-0.171569 -2.876674 0.000000 
-0.232066 -2.749995 0.000000 
-0.132835 -2.932930 0.000000 
-0.070850 -2.908908 0.000000 
-0.144138 -2.818879 0.000000 
-0.014138 -2.942623 0.000000 
0.040622 -2.910161 0.000000 
-0.082273 -2.838614 0.000000 
0.097467 -2.944166 0.000000 
0.135494 -2.893860 0.000000 
0.030203 -2.847848 0.000000 
0.195958 -2.906209 0.000000 
0.226976 -2.841880 0.000000 
0.092256 -2.836441 0.000000 
0.283066 -2.825474 0.000000 
0.296880 -2.762186 0.000000 
0.191588 -2.788317 0.000000 
0.347822 -2.736205 0.000000 
0.346247 -2.680874 0.000000 
0.235893 -2.744790 0.000000 
0.386681 -2.635262 0.000000 
0.369085 -2.579897 0.000000 
0.293593 -2.660918 0.000000 
0.394754 -2.528815 0.000000 
0.361067 -2.483752 0.000000 
0.307171 -2.602475 0.000000 
0.373313 -2.429750 0.000000 
0.326115 -2.389088 0.000000 
0.304649 -2.495811 0.000000 
0.319133 -2.327577 0.000000 
0.259305 -2.298914 0.000000 
0.282067 -2.434429 0.000000 
0.230609 -2.241376 0.000000 
0.168060 -2.236257 0.000000 
0.217896 -2.340826 0.000000 
0.129916 -2.191049 0.000000 
0.075570 -2.201904 0.000000 
0.031489 -2.168751 0.000000 
-0.021910 -2.198794 0.000000 
0.164888 -2.302941 0.000000 
0.045958 -2.255635 0.000000 
-0.185657 -2.360947 0.000000 
-0.267649 -2.490460 0.000000 
-0.036447 -2.812419 0.000000 
0.233114 -2.700717 0.000000 
0.277554 -2.563268 0.000000 
0.117060 -2.791469 0.000000 
0.233987 -2.415025 0.000000 
-0.266248 -2.637619 0.000000 
-0.180436 -2.753540 0.000000 
-0.081691 -2.393298 0.000000 
0.014667 -2.365581 0.000000 
-0.142854 -2.396887 0.000000 
-0.170944 -2.454802 0.000000 
-0.215372 -2.493865 0.000000 
-0.204921 -2.554385 0.000000 
-0.129491 -2.490646 0.000000 
-0.218067 -2.611142 0.000000 
-0.147921 -2.545832 0.000000 
-0.173662 -2.653368 0.000000 
-0.077300 -2.456450 0.000000 
-0.154477 -2.708079 0.000000 
-0.125399 -2.625590 0.000000 
-0.074226 -2.649427 0.000000 
-0.112721 -2.574387 0.000000 
-0.052062 -2.557379 0.000000 
-0.031536 -2.607988 0.000000 
-0.035021 -2.494963 0.000000 
0.030448 -2.421518 0.000000 
0.061597 -2.310477 0.000000 
-0.088150 -2.705281 0.000000 
0.008543 -2.478997 0.000000 
0.051236 -2.526732 0.000000 
0.053507 -2.580101 0.000000 
0.097666 -2.499091 0.000000 
0.011689 -2.620747 0.000000 
0.028969 -2.675653 0.000000 
0.019234 -2.725830 0.000000 
0.078878 -2.750463 0.000000 
0.083540 -2.676356 0.000000 
0.118052 -2.713016 0.000000 
0.178626 -2.688277 0.000000 
0.098617 -2.621624 0.000000 
0.165095 -2.509734 0.000000 
0.087396 -2.441564 0.000000 
0.161017 -2.624582 0.000000 
0.190747 -2.452852 0.000000 
0.131475 -2.409770 0.000000 
0.121237 -2.334180 0.000000 
-0.039235 -2.741215 0.000000 
0.197089 -2.568958 0.000000 
CELLS 184 368 
1 0 
1 1 
1 2 
1 3 
1 4 
1 5 
1 6 
1 7 
1 8 
1 9 
1 10 
1 11 
1 12 
1 13 
1 14 
1 15 
1 16 
1 17 
1 18 
1 19 
1 20 
1 21 
1 22 
1 23 
1 24 
1 25 
1 26 
1 27 
1 28 
1 29 
1 30 
1 31 
1 32 
1 33 
1 34 
1 35 
1 36 
1 37 
1 38 
1 39 
1 40 
1 41 
1 42 
1 43 
1 44 
1 45 
1 46 
1 47 
1 48 
1 49 
1 50 
1 51 
1 52 
1 53 
1 54 
1 55 
1 56 
1 57 
1 58 
1 59 
1 60 
1 61 
1 62 
1 63 
1 64 
1 65 
1 66 
1 67 
1 68 
1 69 
1 70 
1 71 
1 72 
1 73 
1 74 
1 75 
1 76 
1 77 
1 78 
1 79 
1 80 
1 81 
1 82 
1 83 
1 84 
1 85 
1 86 
1 87 
1 88 
1 89 
1 90 
1 91 
1 92 
1 93 
1 94 
1 95 
1 96 
1 97 
1 98 
1 99 
1 100 
1 101 
1 102 
1 103 
1 104 
1 105 
1 106 
1 107 
1 108 
1 109 
1 110 
1 111 
1 112 
1 113 
1 114 
1 115 
1 116 
1 117 
1 118 
1 119 
1 120 
1 121 
1 122 
1 123 
1 124 
1 125 
1 126 
1 127 
1 128 
1 129 
1 130 
1 131 
1 132 
1 133 
1 134 
1 135 
1 136 
1 137 
1 138 
1 139 
1 140 
1 141 
1 142 
1 143 
1 144 
1 145 
1 146 
1 147 
1 148 
1 149 
1 150 
1 151 
1 152 
1 153 
1 154 
1 155 
1 156 
1 157 
1 158 
1 159 
1 160 
1 161 
1 162 
1 163 
1 164 
1 165 
1 166 
1 167 
1 168 
1 169 
1 170 
1 171 
1 172 
1 173 
1 174 
1 175 
1 176 
1 177 
1 178 
1 179 
1 180 
1 181 
1 182 
1 183 
CELL_TYPES 184 
1 
1 
1 
1 
1 
1 
1 
1 
1 
1 
1 
1 
1 
1 
1 
1 
1 
1 
1 
1 
1 
1 
1 
1 
1 
1 
1 
1 
1 
1 
1 
1 
1 
1 
1 
1 
1 
1 
1 
1 
1 
1 
1 
1 
1 
1 
1 
1 
1 
1 
1 
1 
1 
1 
1 
1 
1 
1 
1 
1 
1 
1 
1 
1 
1 
1 
1 
1 
1 
1 
1 
1 
1 
1 
1 
1 
1 
1 
1 
1 
1 
1 
1 
1 
1 
1 
1 
1 
1 
1 
1 
1 
1 
1 
1 
1 
1 
1 
1 
1 
1 
1 
1 
1 
1 
1 
1 
1 
1 
1 
1 
1 
1 
1 
1 
1 
1 
1 
1 
1 
1 
1 
1 
1 
1 
1 
1 
1 
1 
1 
1 
1 
1 
1 
1 
1 
1 
1 
1 
1 
1 
1 
1 
1 
1 
1 
1 
1 
1 
1 
1 
1 
1 
1 
1 
1 
1 
1 
1 
1 
1 
1 
1 
1 
1 
1 
1 
1 
1 
1 
1 
1 
1 
1 
1 
1 
1 
1 
1 
1 
1 
1 
1 
1 
POINT_DATA 184 
VECTORS X_GC float 
-0.034194 -2.093244 0.000000 
-0.389862 -2.940204 0.000000 
0.472519 -2.588914 0.000000 
-0.446285 -2.406604 0.000000 
0.183416 -3.111917 0.000000 
0.220105 -2.145720 0.000000 
-0.286513 -2.187630 0.000000 
-0.107803 -3.153739 0.000000 
0.418396 -2.340365 0.000000 
-0.462331 -2.665634 0.000000 
0.404252 -2.862798 0.000000 
-0.167521 -2.120612 0.000000 
-0.231912 -3.056395 0.000000 
0.464939 -2.464059 0.000000 
-0.471997 -2.540176 0.000000 
0.290950 -2.982828 0.000000 
0.098115 -2.101934 0.000000 
-0.378394 -2.279851 0.000000 
0.055810 -3.175407 0.000000 
0.334942 -2.224134 0.000000 
-0.434812 -2.782942 0.000000 
0.444263 -2.719111 0.000000 
-0.127003 -2.108947 0.000000 
-0.320065 -2.980071 0.000000 
0.472833 -2.543321 0.000000 
-0.459241 -2.453620 0.000000 
0.255374 -3.033231 0.000000 
0.173230 -2.126794 0.000000 
-0.348295 -2.242925 0.000000 
-0.054351 -3.162704 0.000000 
0.366326 -2.260417 0.000000 
-0.450082 -2.707261 0.000000 
0.429909 -2.764694 0.000000 
-0.211145 -2.142420 0.000000 
-0.155422 -3.125423 0.000000 
0.438911 -2.384419 0.000000 
-0.471717 -2.584571 0.000000 
0.347251 -2.958525 0.000000 
0.014643 -2.092314 0.000000 
-0.427315 -2.361364 0.000000 
0.106310 -3.161347 0.000000 
0.297878 -2.193565 0.000000 
-0.418699 -2.883820 0.000000 
0.456606 -2.676438 0.000000 
-0.080625 -2.125526 0.000000 
0.367837 -2.306801 0.000000 
0.045766 -2.121803 0.000000 
0.213403 -2.998645 0.000000 
-0.167089 -3.025136 0.000000 
-0.387866 -2.819578 0.000000 
0.392279 -2.779114 0.000000 
-0.307473 -2.239197 0.000000 
-0.387426 -2.340578 0.000000 
0.425899 -2.424589 0.000000 
0.137324 -2.140517 0.000000 
0.124661 -3.052436 0.000000 
-0.258734 -2.953746 0.000000 
-0.414897 -2.725836 0.000000 
0.438721 -2.635987 0.000000 
0.339195 -2.880275 0.000000 
-0.005401 -3.046349 0.000000 
-0.227766 -2.178608 0.000000 
-0.442982 -2.491740 0.000000 
-0.443786 -2.617835 0.000000 
0.251920 -2.193180 0.000000 
0.445532 -2.513936 0.000000 
-0.081196 -2.181161 0.000000 
-0.132242 -2.224415 0.000000 
-0.193603 -2.219739 0.000000 
-0.113229 -2.283163 0.000000 
-0.225441 -2.274959 0.000000 
-0.172499 -2.311686 0.000000 
-0.056922 -2.296909 0.000000 
-0.280326 -2.285890 0.000000 
-0.041352 -2.351702 0.000000 
-0.016543 -2.256021 0.000000 
-0.297691 -2.345605 0.000000 
-0.349750 -2.376832 0.000000 
-0.351201 -2.443228 0.000000 
-0.255857 -2.384077 0.000000 
-0.391120 -2.491877 0.000000 
-0.369491 -2.549223 0.000000 
-0.285395 -2.441514 0.000000 
-0.394047 -2.604465 0.000000 
-0.359633 -2.646905 0.000000 
-0.313135 -2.548416 0.000000 
-0.369554 -2.700241 0.000000 
-0.322599 -2.730092 0.000000 
-0.307352 -2.608255 0.000000 
-0.319641 -2.788690 0.000000 
-0.259294 -2.811698 0.000000 
-0.272235 -2.705841 0.000000 
-0.235325 -2.875961 0.000000 
-0.171569 -2.876674 0.000000 
-0.232066 -2.749995 0.000000 
-0.132835 -2.932930 0.000000 
-0.070850 -2.908908 0.000000 
-0.144138 -2.818879 0.000000 
-0.014138 -2.942623 0.000000 
0.040622 -2.910161 0.000000 
-0.082273 -2.838614 0.000000 
0.097467 -2.944166 0.000000 
0.135494 -2.893860 0.000000 
0.030203 -2.847848 0.000000 
0.195958 -2.906209 0.000000 
0.226976 -2.841880 0.000000 
0.092256 -2.836441 0.000000 
0.283066 -2.825474 0.000000 
0.296880 -2.762186 0.000000 
0.191588 -2.788317 0.000000 
0.347822 -2.736205 0.000000 
0.346247 -2.680874 0.000000 
0.235893 -2.744790 0.000000 
0.386681 -2.635262 0.000000 
0.369085 -2.579897 0.000000 
0.293593 -2.660918 0.000000 
0.394754 -2.528815 0.000000 
0.361067 -2.483752 0.000000 
0.307171 -2.602475 0.000000 
0.373313 -2.429750 0.000000 
0.326115 -2.389088 0.000000 
0.304649 -2.495811 0.000000 
0.319133 -2.327577 0.000000 
0.259305 -2.298914 0.000000 
0.282067 -2.434429 0.000000 
0.230609 -2.241376 0.000000 
0.168060 -2.236257 0.000000 
0.217896 -2.340826 0.000000 
0.129916 -2.191049 0.000000 
0.075570 -2.201904 0.000000 
0.031489 -2.168751 0.000000 
-0.021910 -2.198794 0.000000 
0.164888 -2.302941 0.000000 
0.045958 -2.255635 0.000000 
-0.185657 -2.360947 0.000000 
-0.267649 -2.490460 0.000000 
-0.036447 -2.812419 0.000000 
0.233114 -2.700717 0.000000 
0.277554 -2.563268 0.000000 
0.117060 -2.791469 0.000000 
0.233987 -2.415025 0.000000 
-0.266248 -2.637619 0.000000 
-0.180436 -2.753540 0.000000 
-0.081691 -2.393298 0.000000 
0.014667 -2.365581 0.000000 
-0.142854 -2.396887 0.000000 
-0.170944 -2.454802 0.000000 
-0.215372 -2.493865 0.000000 
-0.204921 -2.554385 0.000000 
-0.129491 -2.490646 0.000000 
-0.218067 -2.611142 0.000000 
-0.147921 -2.545832 0.000000 
-0.173662 -2.653368 0.000000 
-0.077300 -2.456450 0.000000 
-0.154477 -2.708079 0.000000 
-0.125399 -2.625590 0.000000 
-0.074226 -2.649427 0.000000 
-0.112721 -2.574387 0.000000 
-0.052062 -2.557379 0.000000 
-0.031536 -2.607988 0.000000 
-0.035021 -2.494963 0.000000 
0.030448 -2.421518 0.000000 
0.061597 -2.310477 0.000000 
-0.088150 -2.705281 0.000000 
0.008543 -2.478997 0.000000 
0.051236 -2.526732 0.000000 
0.053507 -2.580101 0.000000 
0.097666 -2.499091 0.000000 
0.011689 -2.620747 0.000000 
0.028969 -2.675653 0.000000 
0.019234 -2.725830 0.000000 
0.078878 -2.750463 0.000000 
0.083540 -2.676356 0.000000 
0.118052 -2.713016 0.000000 
0.178626 -2.688277 0.000000 
0.098617 -2.621624 0.000000 
0.165095 -2.509734 0.000000 
0.087396 -2.441564 0.000000 
0.161017 -2.624582 0.000000 
0.190747 -2.452852 0.000000 
0.131475 -2.409770 0.000000 
0.121237 -2.334180 0.000000 
-0.039235 -2.741215 0.000000 
0.197089 -2.568958 0.000000 
VECTORS X_EC float 
-0.772041 0.954962 0.000000 
-0.400920 0.601360 0.000000 
-0.150124 0.259427 0.000000 
-0.024769 -0.955975 0.000000 
-0.248183 0.946404 0.000000 
-0.467366 -0.695198 0.000000 
0.910089 -0.415802 0.000000 
-0.208874 0.964511 0.000000 
0.210692 0.602430 0.000000 
0.082204 0.770892 0.000000 
0.304985 0.085318 0.000000 
0.116807 -0.862587 0.000000 
0.626334 0.986501 0.000000 
-0.099595 -0.572942 0.000000 
0.146646 -0.065490 0.000000 
-0.939664 0.885521 0.000000 
0.345902 -0.987105 0.000000 
-0.477370 0.199003 0.000000 
0.674495 0.937567 0.000000 
0.767056 -0.172440 0.000000 
-0.101252 -0.447056 0.000000 
0.038245 -0.872591 0.000000 
-0.153315 -0.940356 0.000000 
-0.866231 0.867139 0.000000 
-0.152218 -0.044528 0.000000 
0.061610 -0.642536 0.000000 
-0.678778 0.992812 0.000000 
-0.154865 -0.821371 0.000000 
-0.678033 -0.047168 0.000000 
-0.572427 0.921027 0.000000 
0.557829 0.069449 0.000000 
0.000545 -0.951591 0.000000 
0.133940 -0.568706 0.000000 
0.407630 -0.717197 0.000000 
0.119212 0.951185 0.000000 
0.073924 0.896125 0.000000 
0.144782 0.230472 0.000000 
0.684992 0.723499 0.000000 
0.902381 0.948761 0.000000 
-0.151234 0.742425 0.000000 
0.304228 0.957028 0.000000 
-0.985851 -0.376232 0.000000 
-0.208671 0.225470 0.000000 
-0.044038 0.842922 0.000000 
-0.462501 -0.829826 0.000000 
0.547751 0.378671 0.000000 
0.694896 -0.854646 0.000000 
-0.422684 0.990967 0.000000 
0.144528 0.997078 0.000000 
-0.414226 -0.202816 0.000000 
0.384809 -0.472575 0.000000 
-0.950182 -0.072020 0.000000 
-0.417158 0.603851 0.000000 
0.160676 -0.836076 0.000000 
0.084507 -0.729884 0.000000 
0.184510 0.990440 0.000000 
0.724891 0.691638 0.000000 
-0.234018 -0.827763 0.000000 
0.075192 0.573250 0.000000 
0.738699 0.201836 0.000000 
-0.895255 0.999530 0.000000 
0.518441 -0.475949 0.000000 
-0.046789 -0.388399 0.000000 
-0.041429 0.452234 0.000000 
-0.679465 -0.378803 0.000000 
0.029785 -0.240425 0.000000 
-0.458696 -0.458930 0.000000 
-0.118386 -0.170569 0.000000 
0.290687 -0.201741 0.000000 
-0.245141 0.221086 0.000000 
0.502939 0.166394 0.000000 
0.149991 0.411237 0.000000 
-0.620521 0.312726 0.000000 
0.868842 0.239266 0.000000 
-0.724323 0.678013 0.000000 
-0.889716 0.040142 0.000000 
0.984606 0.637369 0.000000 
-0.668331 0.845547 0.000000 
-0.658662 -0.711815 0.000000 
0.705712 0.893849 0.000000 
-0.392531 -0.387486 0.000000 
-0.536729 -0.005179 0.000000 
0.902633 -0.723240 0.000000 
-0.373023 0.363102 0.000000 
-0.602445 0.646031 0.000000 
-0.912430 -0.010559 0.000000 
-0.536305 -0.998393 0.000000 
-0.849338 -0.799385 0.000000 
-0.950985 0.388366 0.000000 
-0.869062 -0.408730 0.000000 
0.728627 -0.255348 0.000000 
0.814902 -0.961061 0.000000 
0.568832 0.173073 0.000000 
0.143795 0.177826 0.000000 
0.547104 -0.666702 0.000000 
-0.114432 0.552866 0.000000 
-0.527663 0.392717 0.000000 
-0.039080 -0.207474 0.000000 
-0.905745 0.617487 0.000000 
0.729188 0.401070 0.000000 
-0.451511 -0.075909 0.000000 
0.350223 0.627775 0.000000 
0.096703 0.292400 0.000000 
0.798649 -0.014344 0.000000 
-0.306384 0.374729 0.000000 
-0.513173 -0.054135 0.000000 
0.384959 -0.090391 0.000000 
-0.887109 -0.163505 0.000000 
-0.979197 -0.585424 0.000000 
-0.277251 -0.411223 0.000000 
0.681186 -0.758635 0.000000 
0.691686 0.872494 0.000000 
-0.572617 -0.701398 0.000000 
0.422128 0.568416 0.000000 
0.539430 0.199312 0.000000 
-0.957288 0.739457 0.000000 
0.368309 -0.141235 0.000000 
0.592887 -0.441653 0.000000 
0.952191 0.349833 0.000000 
0.511244 -0.801664 0.000000 
0.825899 0.927256 0.000000 
0.969007 -0.361262 0.000000 
0.872449 0.517182 0.000000 
-0.728700 0.326093 0.000000 
-0.880445 -0.770473 0.000000 
-0.537391 -0.057496 0.000000 
-0.120398 -0.091621 0.000000 
-0.452641 0.605507 0.000000 
0.133891 -0.393006 0.000000 
0.496202 -0.320642 0.000000 
0.790073 -0.541658 0.000000 
-0.853931 -0.341374 0.000000 
-0.099254 0.352943 0.000000 
0.693616 0.037566 0.000000 
0.237711 0.739645 0.000000 
0.784324 -0.396935 0.000000 
-0.757018 -0.250540 0.000000 
-0.554095 -0.995222 0.000000 
-0.850360 0.088450 0.000000 
0.219599 -0.390205 0.000000 
-0.559910 -0.899830 0.000000 
0.774986 0.584125 0.000000 
0.202909 -0.643066 0.000000 
-0.455396 0.955318 0.000000 
0.902220 0.770542 0.000000 
-0.047638 0.979247 0.000000 
0.139630 -0.634656 0.000000 
0.435814 -0.374231 0.000000 
0.366142 0.029233 0.000000 
-0.136728 -0.395696 0.000000 
0.453782 0.407613 0.000000 
-0.013857 -0.027789 0.000000 
0.157747 0.689121 0.000000 
-0.484667 -0.623663 0.000000 
0.029849 -0.946139 0.000000 
-0.164007 0.503934 0.000000 
-0.505162 0.662845 0.000000 
-0.248525 0.162581 0.000000 
-0.652917 0.049193 0.000000 
-0.789763 0.386586 0.000000 
-0.766529 -0.366914 0.000000 
0.797013 -0.856547 0.000000 
0.589350 0.403178 0.000000 
-0.412336 -0.964795 0.000000 
0.943045 -0.473356 0.000000 
0.658429 -0.155118 0.000000 
0.643286 0.200676 0.000000 
0.348895 -0.339395 0.000000 
0.922073 0.471649 0.000000 
0.806875 0.837686 0.000000 
0.871776 -0.827801 0.000000 
0.474148 -0.663578 0.000000 
0.443068 0.842375 0.000000 
0.212985 -0.913229 0.000000 
-0.190841 0.921848 0.000000 
0.342555 0.477495 0.000000 
-0.100631 -0.268439 0.000000 
0.417361 -0.722906 0.000000 
-0.073445 0.497215 0.000000 
-0.271649 -0.647651 0.000000 
0.123497 -0.934866 0.000000 
0.191756 0.561203 0.000000 
-0.738436 -0.725234 0.000000 
-0.313929 0.126390 0.000000 
CELL_DATA 184 
SCALARS MASS float 
LOOKUP_TABLE default 
0.051252 
0.046008 
0.051531 
0.046188 
0.052854 
0.051531 
0.052854 
0.052854 
0.051531 
0.050859 
0.052854 
0.047395 
0.052854 
0.052854 
0.051434 
0.045995 
0.052854 
0.051281 
0.051530 
0.046441 
0.052854 
0.052854 
0.050612 
0.049065 
0.052975 
0.049197 
0.049245 
0.052975 
0.052990 
0.055938 
0.049713 
0.052094 
0.055938 
0.050456 
0.055938 
0.053198 
0.052878 
0.049051 
0.052807 
0.049481 
0.052974 
0.049465 
0.049257 
0.055938 
0.105225 
0.104629 
0.082126 
0.094264 
0.094771 
0.094259 
0.094771 
0.083366 
0.104047 
0.083092 
0.081316 
0.081315 
0.092719 
0.079469 
0.108073 
0.092710 
0.108073 
0.093129 
0.104035 
0.094961 
0.104398 
0.081316 
0.125285 
0.099128 
0.098320 
0.087841 
0.082650 
0.097481 
0.086914 
0.081921 
0.086680 
0.086680 
0.081485 
0.107769 
0.088711 
0.084874 
0.107874 
0.082612 
0.095190 
0.095229 
0.083942 
0.085089 
0.079923 
0.081132 
0.095301 
0.097917 
0.090576 
0.085268 
0.095896 
0.081062 
0.095454 
0.090083 
0.081027 
0.085251 
0.101961 
0.083022 
0.095445 
0.080604 
0.081018 
0.085240 
0.097826 
0.090495 
0.095435 
0.095845 
0.081023 
0.085241 
0.090072 
0.081024 
0.095436 
0.101966 
0.083028 
0.085242 
0.080610 
0.081024 
0.095437 
0.082345 
0.082694 
0.085242 
0.109264 
0.089885 
0.095437 
0.108636 
0.083028 
0.085242 
0.080610 
0.074817 
0.073569 
0.082490 
0.095437 
0.095617 
0.133784 
0.138292 
0.139667 
0.139695 
0.139694 
0.139689 
0.139693 
0.140105 
0.139774 
0.086622 
0.086622 
0.089038 
0.077179 
0.079159 
0.072465 
0.084345 
0.092656 
0.093083 
0.084037 
0.098826 
0.101847 
0.085968 
0.086444 
0.074619 
0.064825 
0.094138 
0.124406 
0.086607 
0.131576 
0.102571 
0.084703 
0.076503 
0.084191 
0.084191 
0.086793 
0.075696 
0.084714 
0.090949 
0.084009 
0.076569 
0.086383 
0.098391 
0.110757 
0.093222 
0.143196 
0.101090 
0.091038 
0.150913 
0.178131 
0.206980 
SCALARS MASS float 
LOOKUP_TABLE default 
0.051252 
0.046008 
0.051531 
0.046188 
0.052854 
0.051531 
0.052854 
0.052854 
0.051531 
0.050859 
0.052854 
0.047395 
0.052854 
0.052854 
0.051434 
0.045995 
0.052854 
0.051281 
0.051530 
0.046441 
0.052854 
0.052854 
0.050612 
0.049065 
0.052975 
0.049197 
0.049245 
0.052975 
0.052990 
0.055938 
0.049713 
0.052094 
0.055938 
0.050456 
0.055938 
0.053198 
0.052878 
0.049051 
0.052807 
0.049481 
0.052974 
0.049465 
0.049257 
0.055938 
0.105225 
0.104629 
0.082126 
0.094264 
0.094771 
0.094259 
0.094771 
0.083366 
0.104047 
0.083092 
0.081316 
0.081315 
0.092719 
0.079469 
0.108073 
0.092710 
0.108073 
0.093129 
0.104035 
0.094961 
0.104398 
0.081316 
0.125285 
0.099128 
0.098320 
0.087841 
0.082650 
0.097481 
0.086914 
0.081921 
0.086680 
0.086680 
0.081485 
0.107769 
0.088711 
0.084874 
0.107874 
0.082612 
0.095190 
0.095229 
0.083942 
0.085089 
0.079923 
0.081132 
0.095301 
0.097917 
0.090576 
0.085268 
0.095896 
0.081062 
0.095454 
0.090083 
0.081027 
0.085251 
0.101961 
0.083022 
0.095445 
0.080604 
0.081018 
0.085240 
0.097826 
0.090495 
0.095435 
0.095845 
0.081023 
0.085241 
0.090072 
0.081024 
0.095436 
0.101966 
0.083028 
0.085242 
0.080610 
0.081024 
0.095437 
0.082345 
0.082694 
0.085242 
0.109264 
0.089885 
0.095437 
0.108636 
0.083028 
0.085242 
0.080610 
0.074817 
0.073569 
0.082490 
0.095437 
0.095617 
0.133784 
0.138292 
0.139667 
0.139695 
0.139694 
0.139689 
0.139693 
0.140105 
0.139774 
0.086622 
0.086622 
0.089038 
0.077179 
0.079159 
0.072465 
0.084345 
0.092656 
0.093083 
0.084037 
0.098826 
0.101847 
0.085968 
0.086444 
0.074619 
0.064825 
0.094138 
0.124406 
0.086607 
0.131576 
0.102571 
0.084703 
0.076503 
0.084191 
0.084191 
0.086793 
0.075696 
0.084714 
0.090949 
0.084009 
0.076569 
0.086383 
0.098391 
0.110757 
0.093222 
0.143196 
0.101090 
0.091038 
0.150913 
0.178131 
0.206980 
SCALARS DENSITY float 
LOOKUP_TABLE default 
23.106442 
99423797028675920.000000 
62.499100 
40.552170 
-99930010701434183288859751075422187978006056993437788111856637367803385562231818050125746200594131935633346358486291709952.000000 
21.228277 
15.063179 
1765906153952455907916416843362186433395047944939664473591907000504804819329011585674084389642584087708152365056.000000 
28.245298 
366.439672 
230799269633234208.000000 
20.469954 
334958960127471062093950422154712325133909088354261973321996683989350994334495801344.000000 
23.154039 
276.355674 
7289049178140757882210381568802854837756500262192625659936768.000000 
25.803338 
20.948070 
1246452953806132993970666858802084449692106802311041502837913118172129038815211843463570284347191307898378360281020040393314987993996722300297238309502976.000000 
9.985705 
369436073.529855 
162.596531 
21.129295 
80267110758408519680000.000000 
71.647286 
5371.610873 
429588842583558760285221072085740563955685557670882994336775358388941108619253907456.000000 
32.728330 
9.437771 
723328221089731619740363776684379470955528939985684128156770604878298511699484588240826379131725991718861986049287442504071749042176.000000 
10.928386 
310.707277 
242184866.905412 
45.348689 
9281027204800754464782913491384553576280517315739899472086821181163924416933793970282891866498138112.000000 
33.664852 
512.124849 
73222532609292830717243293696.000000 
24.593575 
31.709197 
2648164952970597068839829233374044625237744200537890109162995592039711565434850486639916368936292511888031109623196690028156240425980908487625071456119947264.000000 
5104.576327 
186805881192938.406250 
86.683465 
25.375864 
27.468612 
18.408173 
172674204679788314113165490928378974869728150894274741426559519769409617920.000000 
42485681372230101519311923182794760318080974401191791394623517837657899008.000000 
95994718564.960464 
2277747957.566968 
14.359081 
37.134135 
45.929836 
39.280502 
24258239339885275135449820288227110249809638687634544285101621941885655264404683603159675019406114662907904.000000 
61234736483287133348140337191280270800733802396461968654336.000000 
397.600491 
38.466999 
1263706893886901056438272.000000 
350831737712160444375315743417254964082913979379717356937813793926649808589794407041952743079031045357568.000000 
8.189550 
5.206691 
120.589204 
13.465100 
11.863918 
8.274006 
18.160246 
17.441177 
35.509980 
30.881794 
41.065333 
34.325415 
40.209397 
23.279740 
27.783923 
47.843612 
46.473566 
65.350330 
46.459802 
15.927506 
179.959864 
50.491364 
43.353491 
51.702890 
78.147943 
72.036253 
136.817654 
5.945736 
57973844.446342 
13900755924888788992.000000 
33.355885 
2097874073891929627250543352933777408.000000 
7242498252882052596934415003078868598784.000000 
237709.485006 
721270049038075196611104722700585971344910302838784.000000 
5608053277750619445691979787440254576561750016.000000 
34957196968337617190912.000000 
38552409934631284768882878749303229574789992206109304160256.000000 
34750603470807154769889160380746711810745794276884480.000000 
9274924946821724917404270592.000000 
139923884072050225325477232372644063135269959230435687514213711872.000000 
1175490114016605129718719477118023782002327552.000000 
68364002388378631550851644129280.000000 
511426858042350591517793980190936793360210732253184.000000 
2839541190263360322010901118976.000000 
70389190348936552116679344128.000000 
832541171154771983204352.000000 
82693547.058841 
3340138550012423.000000 
646.608874 
48.668546 
31349.263733 
25.963283 
32.188177 
30.338562 
51.871464 
8.712624 
7.312087 
38.666024 
31.593242 
59.023820 
33.332746 
35.704624 
35.387344 
16.659962 
16.725997 
30.352049 
10.622537 
15.520710 
10.136866 
13.453914 
33.409588 
26.598170 
35.640875 
39.129972 
436684805746541486669824.000000 
33.868456 
20.074313 
1515286866778005760.000000 
36.705657 
24.320361 
457597.688518 
38.793704 
28.955491 
41.653251 
25.986781 
35.403790 
14.341151 
25.378608 
16.977236 
8.761751 
82.848441 
27.059512 
37.489333 
89.033586 
221.002319 
17.428315 
8.114016 
162.650858 
9.036542 
45.527339 
30.837083 
36.672462 
44.060023 
2.011746 
40.701499 
15.088433 
385.061076 
104.418605 
160.119776 
1711298.055305 
83.076884 
42.350430 
43.847401 
124.503365 
11.095727 
86.771667 
55.371274 
31.501666 
37.396096 
27.057087 
18036.572518 
18.576905 
SCALARS ELEM_i float 
LOOKUP_TABLE default 
203 
220 
161 
221 
180 
182 
202 
200 
162 
221 
160 
202 
200 
161 
221 
180 
182 
222 
180 
162 
220 
160 
202 
220 
161 
221 
180 
182 
222 
200 
162 
220 
160 
202 
200 
162 
221 
160 
183 
222 
180 
182 
220 
161 
202 
162 
182 
180 
200 
220 
160 
222 
222 
161 
182 
180 
200 
220 
161 
160 
200 
202 
221 
221 
182 
161 
202 
202 
202 
202 
202 
202 
202 
202 
202 
202 
202 
222 
221 
202 
221 
221 
201 
221 
221 
221 
220 
220 
221 
220 
200 
200 
200 
200 
200 
200 
200 
200 
200 
180 
200 
180 
180 
180 
180 
180 
180 
180 
180 
180 
160 
161 
180 
161 
161 
181 
161 
161 
161 
161 
162 
161 
162 
182 
181 
182 
182 
182 
182 
182 
182 
202 
182 
182 
202 
201 
200 
180 
181 
180 
181 
201 
200 
202 
182 
202 
201 
201 
201 
201 
201 
201 
201 
201 
200 
201 
201 
201 
201 
201 
201 
181 
182 
200 
181 
181 
181 
181 
181 
181 
180 
180 
181 
180 
181 
181 
181 
181 
181 
181 
181 
182 
200 
181 
VECTORS VELOCITY float 
-1.105771 -0.378837 0.000000 
-1.697221 -60.302190 0.000000 
-0.434085 0.837030 0.000000 
0.553865 -0.808652 0.000000 
1.089699 -151.650340 0.000000 
0.587287 -0.833660 0.000000 
0.047350 0.315088 0.000000 
-1.833149 -176.559972 0.000000 
0.529350 -0.611462 0.000000 
0.177980 2.918815 0.000000 
0.063344 -29.104652 0.000000 
1.043958 0.053519 0.000000 
1.556183 -119.588181 0.000000 
0.712174 -1.464691 0.000000 
0.361877 0.372460 0.000000 
-1.872669 -79.205341 0.000000 
0.371560 -0.084678 0.000000 
0.266049 0.485139 0.000000 
1.748408 -191.224822 0.000000 
0.524883 0.363147 0.000000 
0.018875 -3.410358 0.000000 
-0.476857 3.304413 0.000000 
-1.368406 -1.032164 0.000000 
0.611187 -78.862687 0.000000 
-0.123450 0.186341 0.000000 
0.519090 -1.834464 0.000000 
-1.273429 -107.206140 0.000000 
-1.499281 -0.911971 0.000000 
-0.013267 0.722086 0.000000 
-1.404336 -181.989294 0.000000 
0.529097 0.075237 0.000000 
-0.095956 4.018009 0.000000 
-0.707396 -1.675499 0.000000 
0.842060 -0.970862 0.000000 
-1.111317 -158.985186 0.000000 
0.496074 -0.869475 0.000000 
0.672400 1.017376 0.000000 
1.160847 -69.511780 0.000000 
-0.435589 -0.088214 0.000000 
0.429036 -0.195331 0.000000 
2.374429 -181.813129 0.000000 
-0.011964 0.352884 0.000000 
-1.078861 -35.436898 0.000000 
-0.510792 2.489496 0.000000 
0.862076 -0.447187 0.000000 
0.371539 -0.326677 0.000000 
0.099845 -0.818739 0.000000 
-1.207022 -85.520621 0.000000 
1.133355 -99.177469 0.000000 
-0.122700 -10.595747 0.000000 
-0.703082 -2.797194 0.000000 
-0.381204 0.315832 0.000000 
0.216417 -0.140623 0.000000 
0.476154 -1.338971 0.000000 
0.002339 -0.834229 0.000000 
0.287694 -114.899589 0.000000 
2.164269 -61.042183 0.000000 
-0.229402 4.682928 0.000000 
-0.361369 1.906449 0.000000 
0.144442 -30.573429 0.000000 
0.105508 -109.534941 0.000000 
0.169430 0.175645 0.000000 
-0.383520 -0.381102 0.000000 
0.293672 1.872918 0.000000 
-0.262211 0.011610 0.000000 
0.421767 -0.104361 0.000000 
0.302588 -0.321741 0.000000 
0.107504 -0.376722 0.000000 
0.038012 -0.128735 0.000000 
0.053014 -0.657441 0.000000 
-0.002312 -0.423240 0.000000 
-0.032944 -0.634667 0.000000 
0.050732 -0.713662 0.000000 
-0.041312 -0.422778 0.000000 
-0.074656 -0.503218 0.000000 
0.160002 -0.905194 0.000000 
-0.208263 -0.776015 0.000000 
-0.102183 -0.666639 0.000000 
-0.116309 -1.251191 0.000000 
-0.290141 -0.954311 0.000000 
-0.368124 -0.729718 0.000000 
-0.126994 -0.227181 0.000000 
-0.270428 -1.186216 0.000000 
-0.036794 1.509652 0.000000 
-0.332979 3.019428 0.000000 
-0.458126 -0.616532 0.000000 
-0.360383 4.858769 0.000000 
-0.483190 6.196432 0.000000 
-0.694819 1.710281 0.000000 
-0.146391 0.919898 0.000000 
0.228256 -2.079052 0.000000 
-0.167706 6.233212 0.000000 
0.936330 -22.857520 0.000000 
0.758627 -21.593234 0.000000 
-0.049465 7.189867 0.000000 
1.091666 -45.113376 0.000000 
0.579303 -31.385228 0.000000 
0.279282 -3.071830 0.000000 
0.290967 -44.800265 0.000000 
-0.061711 -30.179410 0.000000 
0.326342 -7.455676 0.000000 
-0.464086 -48.919256 0.000000 
-0.523802 -27.175787 0.000000 
0.138676 -8.822895 0.000000 
-0.923348 -34.647851 0.000000 
-0.407405 -10.386019 0.000000 
-0.001546 -6.899656 0.000000 
-0.362624 -5.842766 0.000000 
-0.307025 5.871790 0.000000 
-0.034236 3.418174 0.000000 
-0.308147 5.609834 0.000000 
-0.351127 3.930804 0.000000 
-0.197094 7.735475 0.000000 
-0.244151 2.160221 0.000000 
-0.134811 0.495982 0.000000 
-0.328660 3.926647 0.000000 
0.053830 -0.402231 0.000000 
0.410103 -0.935987 0.000000 
-0.009712 1.357018 0.000000 
0.337498 -1.121135 0.000000 
0.225303 -0.616684 0.000000 
-0.127675 -1.354190 0.000000 
0.086796 -0.416336 0.000000 
-0.185643 -0.445364 0.000000 
0.007398 -0.826628 0.000000 
-0.120888 -0.266923 0.000000 
-0.024922 -0.415054 0.000000 
-0.067231 -0.517454 0.000000 
0.023517 -0.302951 0.000000 
0.170251 -0.538201 0.000000 
0.315286 -0.734715 0.000000 
0.305933 -0.676425 0.000000 
-0.098714 -0.556871 0.000000 
0.110483 -0.817814 0.000000 
-0.191557 -0.736498 0.000000 
-0.160560 -1.484805 0.000000 
0.252368 -0.583830 0.000000 
-0.282541 5.991062 0.000000 
-0.079308 -0.099304 0.000000 
0.107691 3.209135 0.000000 
0.023010 -0.744220 0.000000 
-0.399089 2.977991 0.000000 
0.039245 7.280770 0.000000 
-0.208894 -0.700660 0.000000 
-0.057701 -0.464196 0.000000 
-0.252735 -0.858548 0.000000 
-0.142493 -1.152672 0.000000 
-0.115335 -1.244599 0.000000 
-0.253333 0.050637 0.000000 
-0.077138 -0.902271 0.000000 
-0.346136 1.934599 0.000000 
-0.129110 0.236556 0.000000 
-0.081828 3.606250 0.000000 
-0.129157 -0.994502 0.000000 
0.080830 6.747817 0.000000 
-0.049491 2.476927 0.000000 
0.126334 3.387813 0.000000 
-0.068101 1.108211 0.000000 
0.044094 1.094364 0.000000 
0.160819 2.028790 0.000000 
-0.055416 -0.371724 0.000000 
-0.105899 -0.832208 0.000000 
-0.005816 -0.627673 0.000000 
0.198736 6.876628 0.000000 
-0.046203 -0.702747 0.000000 
0.020326 0.473566 0.000000 
0.177603 1.433379 0.000000 
-0.088042 -0.551555 0.000000 
0.263490 2.309129 0.000000 
0.272558 4.898038 0.000000 
0.341805 8.569986 0.000000 
0.200108 8.191947 0.000000 
0.132213 4.856510 0.000000 
0.031557 7.192724 0.000000 
-0.122383 5.422505 0.000000 
0.144509 2.310538 0.000000 
-0.139955 -0.659400 0.000000 
-0.074870 -1.007081 0.000000 
0.053105 2.394433 0.000000 
-0.098820 -1.062185 0.000000 
-0.049392 -0.739449 0.000000 
-0.050991 -0.532642 0.000000 
0.288013 8.743367 0.000000 
0.015868 0.541089 0.000000 
TENSORS STRESS float 
0.747473 -2.685220 0.000000 
0.000000 0.432011 0.000000 
0.000000 0.000000 0.000000 

0.000000 0.000000 0.000000 
0.000000 -0.000000 0.000000 
0.000000 0.000000 0.000000 

-0.452633 -0.235293 0.000000 
0.000000 -1.331155 0.000000 
0.000000 0.000000 0.000000 

-0.762899 1.776763 0.000000 
0.000000 -1.785537 0.000000 
0.000000 0.000000 0.000000 

0.000000 0.000000 0.000000 
0.000000 0.000000 0.000000 
0.000000 0.000000 0.000000 

-2.276274 7.406349 0.000000 
0.000000 -1.631659 0.000000 
0.000000 0.000000 0.000000 

0.582777 -1.416320 0.000000 
0.000000 0.659429 0.000000 
0.000000 0.000000 0.000000 

-0.000000 0.000000 0.000000 
0.000000 -0.000000 0.000000 
0.000000 0.000000 0.000000 

-0.139119 -2.245107 0.000000 
0.000000 1.293394 0.000000 
0.000000 0.000000 0.000000 

-0.153865 0.050293 0.000000 
0.000000 -0.714947 0.000000 
0.000000 0.000000 0.000000 

0.000000 -0.000000 0.000000 
0.000000 -0.000000 0.000000 
0.000000 0.000000 0.000000 

1.296095 4.579598 0.000000 
0.000000 3.384834 0.000000 
0.000000 0.000000 0.000000 

-0.000000 0.000000 0.000000 
0.000000 -0.000000 0.000000 
0.000000 0.000000 0.000000 

-0.468101 2.844269 0.000000 
0.000000 -2.370664 0.000000 
0.000000 0.000000 0.000000 

-0.386103 0.303661 0.000000 
0.000000 -0.811963 0.000000 
0.000000 0.000000 0.000000 

-0.000000 -0.000000 0.000000 
0.000000 -0.000000 0.000000 
0.000000 0.000000 0.000000 

-1.252464 3.112127 0.000000 
0.000000 1.833775 0.000000 
0.000000 0.000000 0.000000 

-0.491419 0.974152 0.000000 
0.000000 0.724820 0.000000 
0.000000 0.000000 0.000000 

-0.000000 -0.000000 0.000000 
0.000000 -0.000000 0.000000 
0.000000 0.000000 0.000000 

-3.176395 0.855042 0.000000 
0.000000 3.920801 0.000000 
0.000000 0.000000 0.000000 

0.000000 0.000004 0.000000 
0.000000 -0.000005 0.000000 
0.000000 0.000000 0.000000 

-1.194890 -0.765614 0.000000 
0.000000 -3.346066 0.000000 
0.000000 0.000000 0.000000 

0.055613 -3.940316 0.000000 
0.000000 0.478810 0.000000 
0.000000 0.000000 0.000000 

0.000000 0.000000 0.000000 
0.000000 -0.000000 0.000000 
0.000000 0.000000 0.000000 

-0.636566 -0.366775 0.000000 
0.000000 -1.133252 0.000000 
0.000000 0.000000 0.000000 

-0.032980 0.036262 0.000000 
0.000000 -0.076486 0.000000 
0.000000 0.000000 0.000000 

-0.000000 -0.000000 0.000000 
0.000000 -0.000000 0.000000 
0.000000 0.000000 0.000000 

-1.361741 -4.004448 0.000000 
0.000000 -1.463396 0.000000 
0.000000 0.000000 0.000000 

-0.962140 -1.684395 0.000000 
0.000000 3.688008 0.000000 
0.000000 0.000000 0.000000 

-0.000000 -0.000000 0.000000 
0.000000 -0.000000 0.000000 
0.000000 0.000000 0.000000 

-1.568446 -0.773706 0.000000 
0.000000 4.918451 0.000000 
0.000000 0.000000 0.000000 

-0.274076 0.114013 0.000000 
0.000000 -1.199233 0.000000 
0.000000 0.000000 0.000000 

-0.000002 -0.000004 0.000000 
0.000000 -0.000008 0.000000 
0.000000 0.000000 0.000000 

-0.797243 -3.527752 0.000000 
0.000000 -2.219797 0.000000 
0.000000 0.000000 0.000000 

-0.000000 0.000000 0.000000 
0.000000 -0.000000 0.000000 
0.000000 0.000000 0.000000 

0.218975 -2.584157 0.000000 
0.000000 1.193556 0.000000 
0.000000 0.000000 0.000000 

-0.202013 0.147496 0.000000 
0.000000 -0.539185 0.000000 
0.000000 0.000000 0.000000 

0.000000 -0.000000 0.000000 
0.000000 -0.000000 0.000000 
0.000000 0.000000 0.000000 

-2.203349 1.253769 0.000000 
0.000000 -0.371087 0.000000 
0.000000 0.000000 0.000000 

0.186110 2.176234 0.000000 
0.000000 0.733914 0.000000 
0.000000 0.000000 0.000000 

-0.000000 -0.000000 0.000000 
0.000000 -0.000000 0.000000 
0.000000 0.000000 0.000000 

-0.103288 -0.061599 0.000000 
0.000000 -0.037497 0.000000 
0.000000 0.000000 0.000000 

0.000000 0.000000 0.000000 
0.000000 -0.000000 0.000000 
0.000000 0.000000 0.000000 

-0.215439 -0.248578 0.000000 
0.000000 -1.322485 0.000000 
0.000000 0.000000 0.000000 

-1.878024 6.669713 0.000000 
0.000000 -4.504692 0.000000 
0.000000 0.000000 0.000000 

-1.868346 -3.708530 0.000000 
0.000000 1.229840 0.000000 
0.000000 0.000000 0.000000 

-2.968228 -3.975570 0.000000 
0.000000 -1.158075 0.000000 
0.000000 0.000000 0.000000 

-0.000000 -0.000000 0.000000 
0.000000 -0.000000 0.000000 
0.000000 0.000000 0.000000 

-0.000000 0.000000 0.000000 
0.000000 -0.000000 0.000000 
0.000000 0.000000 0.000000 

0.000000 0.000000 0.000000 
0.000000 -0.000000 0.000000 
0.000000 0.000000 0.000000 

-0.000000 -0.000001 0.000000 
0.000000 -0.000001 0.000000 
0.000000 0.000000 0.000000 

-4.118361 0.459915 0.000000 
0.000000 -1.013479 0.000000 
0.000000 0.000000 0.000000 

-0.617064 3.443953 0.000000 
0.000000 -0.203515 0.000000 
0.000000 0.000000 0.000000 

-1.681246 -0.720947 0.000000 
0.000000 -3.481958 0.000000 
0.000000 0.000000 0.000000 

-2.201926 5.210030 0.000000 
0.000000 -3.281585 0.000000 
0.000000 0.000000 0.000000 

-0.000000 -0.000000 0.000000 
0.000000 -0.000000 0.000000 
0.000000 0.000000 0.000000 

-0.000000 0.000000 0.000000 
0.000000 -0.000000 0.000000 
0.000000 0.000000 0.000000 

-0.637409 0.642427 0.000000 
0.000000 -2.621451 0.000000 
0.000000 0.000000 0.000000 

-0.307248 -0.037787 0.000000 
0.000000 -3.525921 0.000000 
0.000000 0.000000 0.000000 

0.000000 -0.000000 0.000000 
0.000000 -0.000000 0.000000 
0.000000 0.000000 0.000000 

-0.000000 -0.000000 0.000000 
0.000000 -0.000000 0.000000 
0.000000 0.000000 0.000000 

4.538517 -1.274063 0.000000 
0.000000 8.250394 0.000000 
0.000000 0.000000 0.000000 

-3.514357 -2.381874 0.000000 
0.000000 -2.618521 0.000000 
0.000000 0.000000 0.000000 

-0.711182 0.356939 0.000000 
0.000000 -2.935700 0.000000 
0.000000 0.000000 0.000000 

-0.744318 0.296415 0.000000 
0.000000 4.558480 0.000000 
0.000000 0.000000 0.000000 

-1.017737 1.900107 0.000000 
0.000000 2.109115 0.000000 
0.000000 0.000000 0.000000 

3.762242 -0.794857 0.000000 
0.000000 6.101247 0.000000 
0.000000 0.000000 0.000000 

-0.946713 -1.485640 0.000000 
0.000000 -1.861859 0.000000 
0.000000 0.000000 0.000000 

-0.473506 -2.553745 0.000000 
0.000000 -0.998854 0.000000 
0.000000 0.000000 0.000000 

-1.530580 0.036222 0.000000 
0.000000 -2.709198 0.000000 
0.000000 0.000000 0.000000 

-1.219636 -0.413074 0.000000 
0.000000 -1.916286 0.000000 
0.000000 0.000000 0.000000 

-1.581977 0.174921 0.000000 
0.000000 -2.804046 0.000000 
0.000000 0.000000 0.000000 

-1.687539 0.167241 0.000000 
0.000000 -3.060742 0.000000 
0.000000 0.000000 0.000000 

-1.096396 -0.163561 0.000000 
0.000000 -1.790560 0.000000 
0.000000 0.000000 0.000000 

-2.161873 0.143846 0.000000 
0.000000 -3.741154 0.000000 
0.000000 0.000000 0.000000 

-1.709473 0.168851 0.000000 
0.000000 -3.147413 0.000000 
0.000000 0.000000 0.000000 

-1.165571 -0.011602 0.000000 
0.000000 -1.959813 0.000000 
0.000000 0.000000 0.000000 

-0.894922 3.568035 0.000000 
0.000000 -1.412518 0.000000 
0.000000 0.000000 0.000000 

-1.166913 2.486814 0.000000 
0.000000 -2.587227 0.000000 
0.000000 0.000000 0.000000 

-1.395719 0.022196 0.000000 
0.000000 -2.346249 0.000000 
0.000000 0.000000 0.000000 

-2.785523 3.474690 0.000000 
0.000000 -4.311901 0.000000 
0.000000 0.000000 0.000000 

-0.588848 0.548578 0.000000 
0.000000 -1.261472 0.000000 
0.000000 0.000000 0.000000 

-1.716599 -1.467685 0.000000 
0.000000 -2.850521 0.000000 
0.000000 0.000000 0.000000 

-0.706968 0.554266 0.000000 
0.000000 -4.531540 0.000000 
0.000000 0.000000 0.000000 

0.254128 -0.256092 0.000000 
0.000000 -3.205537 0.000000 
0.000000 0.000000 0.000000 

-0.691330 0.879827 0.000000 
0.000000 -1.362349 0.000000 
0.000000 0.000000 0.000000 

0.325714 -0.599781 0.000000 
0.000000 -2.817586 0.000000 
0.000000 0.000000 0.000000 

-1.726567 -0.788797 0.000000 
0.000000 -8.054042 0.000000 
0.000000 0.000000 0.000000 

16.462070 -9.333698 0.000000 
0.000000 14.334926 0.000000 
0.000000 0.000000 0.000000 

0.000009 0.000007 0.000000 
0.000000 -0.000056 0.000000 
0.000000 0.000000 0.000000 

-0.000000 0.000000 0.000000 
0.000000 -0.000000 0.000000 
0.000000 0.000000 0.000000 

-6.372611 2.696295 0.000000 
0.000000 -11.589691 0.000000 
0.000000 0.000000 0.000000 

-0.000000 0.000000 0.000000 
0.000000 -0.000000 0.000000 
0.000000 0.000000 0.000000 

-0.000000 0.000000 0.000000 
0.000000 -0.000000 0.000000 
0.000000 0.000000 0.000000 

-0.005006 -0.000474 0.000000 
0.000000 -0.011246 0.000000 
0.000000 0.000000 0.000000 

-0.000000 0.000000 0.000000 
0.000000 -0.000000 0.000000 
0.000000 0.000000 0.000000 

-0.000000 0.000000 0.000000 
0.000000 -0.000000 0.000000 
0.000000 0.000000 0.000000 

-0.000000 0.000000 0.000000 
0.000000 -0.000000 0.000000 
0.000000 0.000000 0.000000 

-0.000000 -0.000000 0.000000 
0.000000 -0.000000 0.000000 
0.000000 0.000000 0.000000 

-0.000000 -0.000000 0.000000 
0.000000 -0.000000 0.000000 
0.000000 0.000000 0.000000 

-0.000000 -0.000000 0.000000 
0.000000 -0.000000 0.000000 
0.000000 0.000000 0.000000 

-0.000000 -0.000000 0.000000 
0.000000 -0.000000 0.000000 
0.000000 0.000000 0.000000 

-0.000000 -0.000000 0.000000 
0.000000 -0.000000 0.000000 
0.000000 0.000000 0.000000 

-0.000000 -0.000000 0.000000 
0.000000 -0.000000 0.000000 
0.000000 0.000000 0.000000 

-0.000000 -0.000000 0.000000 
0.000000 -0.000000 0.000000 
0.000000 0.000000 0.000000 

-0.000000 -0.000000 0.000000 
0.000000 -0.000000 0.000000 
0.000000 0.000000 0.000000 

-0.000000 -0.000000 0.000000 
0.000000 -0.000000 0.000000 
0.000000 0.000000 0.000000 

-0.000000 -0.000000 0.000000 
0.000000 -0.000000 0.000000 
0.000000 0.000000 0.000000 

-0.000014 -0.000003 0.000000 
0.000000 -0.000031 0.000000 
0.000000 0.000000 0.000000 

-0.000000 -0.000000 0.000000 
0.000000 -0.000000 0.000000 
0.000000 0.000000 0.000000 

-0.834280 -0.090654 0.000000 
0.000000 -2.432309 0.000000 
0.000000 0.000000 0.000000 

-0.027640 -0.157174 0.000000 
0.000000 -2.263146 0.000000 
0.000000 0.000000 0.000000 

-0.033466 0.003332 0.000000 
0.000000 -0.075581 0.000000 
0.000000 0.000000 0.000000 

0.287081 0.719078 0.000000 
0.000000 -3.200694 0.000000 
0.000000 0.000000 0.000000 

-0.799153 0.465059 0.000000 
0.000000 -2.094987 0.000000 
0.000000 0.000000 0.000000 

-2.083754 0.256681 0.000000 
0.000000 -3.373004 0.000000 
0.000000 0.000000 0.000000 

-1.206768 -0.340386 0.000000 
0.000000 -1.696084 0.000000 
0.000000 0.000000 0.000000 

1.370777 12.988358 0.000000 
0.000000 5.233383 0.000000 
0.000000 0.000000 0.000000 

6.014870 9.726532 0.000000 
0.000000 7.527295 0.000000 
0.000000 0.000000 0.000000 

-1.467048 -1.161936 0.000000 
0.000000 -2.888964 0.000000 
0.000000 0.000000 0.000000 

-0.575950 -3.058590 0.000000 
0.000000 0.089854 0.000000 
0.000000 0.000000 0.000000 

-1.136000 0.320718 0.000000 
0.000000 -1.718892 0.000000 
0.000000 0.000000 0.000000 

-2.281815 -3.295616 0.000000 
0.000000 -0.522270 0.000000 
0.000000 0.000000 0.000000 

-0.512033 -2.021779 0.000000 
0.000000 -0.372587 0.000000 
0.000000 0.000000 0.000000 

-0.186161 0.913673 0.000000 
0.000000 -1.482037 0.000000 
0.000000 0.000000 0.000000 

-0.814084 -0.468008 0.000000 
0.000000 2.558211 0.000000 
0.000000 0.000000 0.000000 

-1.230471 0.134608 0.000000 
0.000000 0.508852 0.000000 
0.000000 0.000000 0.000000 

-0.120888 -2.023636 0.000000 
0.000000 -0.486829 0.000000 
0.000000 0.000000 0.000000 

-1.564530 0.158033 0.000000 
0.000000 2.314948 0.000000 
0.000000 0.000000 0.000000 

-2.124581 0.682390 0.000000 
0.000000 -1.440449 0.000000 
0.000000 0.000000 0.000000 

-3.212397 0.862701 0.000000 
0.000000 -0.583139 0.000000 
0.000000 0.000000 0.000000 

-0.380749 0.118702 0.000000 
0.000000 -1.513247 0.000000 
0.000000 0.000000 0.000000 

-0.962783 -1.598180 0.000000 
0.000000 -1.448746 0.000000 
0.000000 0.000000 0.000000 

-2.231062 -0.216313 0.000000 
0.000000 -3.051623 0.000000 
0.000000 0.000000 0.000000 

-2.507319 -0.014223 0.000000 
0.000000 -4.253227 0.000000 
0.000000 0.000000 0.000000 

-2.924451 0.096605 0.000000 
0.000000 -4.049117 0.000000 
0.000000 0.000000 0.000000 

-0.000000 -0.000000 0.000000 
0.000000 -0.000000 0.000000 
0.000000 0.000000 0.000000 

-4.169020 -3.225491 0.000000 
0.000000 -8.019094 0.000000 
0.000000 0.000000 0.000000 

-2.648876 6.470500 0.000000 
0.000000 -3.569803 0.000000 
0.000000 0.000000 0.000000 

-0.000000 -0.000000 0.000000 
0.000000 -0.000000 0.000000 
0.000000 0.000000 0.000000 

-0.512221 1.746342 0.000000 
0.000000 -2.785727 0.000000 
0.000000 0.000000 0.000000 

-6.379019 1.938786 0.000000 
0.000000 -5.417760 0.000000 
0.000000 0.000000 0.000000 

-0.003827 -0.000261 0.000000 
0.000000 -0.008598 0.000000 
0.000000 0.000000 0.000000 

-1.806136 0.021669 0.000000 
0.000000 -3.300243 0.000000 
0.000000 0.000000 0.000000 

-0.948689 -0.673205 0.000000 
0.000000 -3.093456 0.000000 
0.000000 0.000000 0.000000 

-1.723373 0.043564 0.000000 
0.000000 -3.060968 0.000000 
0.000000 0.000000 0.000000 

-1.719250 0.810948 0.000000 
0.000000 -2.259498 0.000000 
0.000000 0.000000 0.000000 

-1.838419 0.405251 0.000000 
0.000000 -2.507620 0.000000 
0.000000 0.000000 0.000000 

-2.972963 -1.409871 0.000000 
0.000000 -1.953657 0.000000 
0.000000 0.000000 0.000000 

-2.382745 0.914752 0.000000 
0.000000 -2.923724 0.000000 
0.000000 0.000000 0.000000 

-4.895196 -0.827828 0.000000 
0.000000 -3.231135 0.000000 
0.000000 0.000000 0.000000 

-3.914678 -1.015043 0.000000 
0.000000 0.750030 0.000000 
0.000000 0.000000 0.000000 

-1.667816 0.663514 0.000000 
0.000000 -2.262859 0.000000 
0.000000 0.000000 0.000000 

-2.401184 1.142649 0.000000 
0.000000 -3.391574 0.000000 
0.000000 0.000000 0.000000 

-8.558128 1.291724 0.000000 
0.000000 -16.780409 0.000000 
0.000000 0.000000 0.000000 

-1.583422 0.260410 0.000000 
0.000000 -2.170306 0.000000 
0.000000 0.000000 0.000000 

-0.804595 0.237489 0.000000 
0.000000 -1.258399 0.000000 
0.000000 0.000000 0.000000 

-3.329272 -0.269978 0.000000 
0.000000 -2.836936 0.000000 
0.000000 0.000000 0.000000 

-3.247170 0.825149 0.000000 
0.000000 0.460413 0.000000 
0.000000 0.000000 0.000000 

-1.070527 0.186328 0.000000 
0.000000 -1.653100 0.000000 
0.000000 0.000000 0.000000 

-4.434099 4.946198 0.000000 
0.000000 0.660270 0.000000 
0.000000 0.000000 0.000000 

-0.718251 -1.073860 0.000000 
0.000000 -2.506706 0.000000 
0.000000 0.000000 0.000000 

-1.996434 -1.257540 0.000000 
0.000000 -3.811406 0.000000 
0.000000 0.000000 0.000000 

-7.925169 0.582660 0.000000 
0.000000 -15.178575 0.000000 
0.000000 0.000000 0.000000 

-0.990800 -0.140877 0.000000 
0.000000 -2.399432 0.000000 
0.000000 0.000000 0.000000 

26.650367 5.519341 0.000000 
0.000000 68.780422 0.000000 
0.000000 0.000000 0.000000 

-1.505353 1.149954 0.000000 
0.000000 -2.668669 0.000000 
0.000000 0.000000 0.000000 

-0.595519 0.097297 0.000000 
0.000000 -0.643043 0.000000 
0.000000 0.000000 0.000000 

-0.399396 0.035920 0.000000 
0.000000 -0.788007 0.000000 
0.000000 0.000000 0.000000 

-0.976834 -0.165813 0.000000 
0.000000 -1.856938 0.000000 
0.000000 0.000000 0.000000 

-3.461206 -0.446894 0.000000 
0.000000 -7.811376 0.000000 
0.000000 0.000000 0.000000 

-0.000684 -0.000097 0.000000 
0.000000 -0.001528 0.000000 
0.000000 0.000000 0.000000 

-1.256597 -0.307395 0.000000 
0.000000 -2.346008 0.000000 
0.000000 0.000000 0.000000 

-5.862184 -3.075353 0.000000 
0.000000 -13.185266 0.000000 
0.000000 0.000000 0.000000 

-1.898541 -0.996127 0.000000 
0.000000 -3.437556 0.000000 
0.000000 0.000000 0.000000 

-1.040494 0.212506 0.000000 
0.000000 -1.913515 0.000000 
0.000000 0.000000 0.000000 

0.094729 0.732526 0.000000 
0.000000 2.098598 0.000000 
0.000000 0.000000 0.000000 

-0.447730 1.020781 0.000000 
0.000000 -1.398068 0.000000 
0.000000 0.000000 0.000000 

-2.570858 0.853677 0.000000 
0.000000 -4.271476 0.000000 
0.000000 0.000000 0.000000 

-0.698727 -0.628526 0.000000 
0.000000 -2.325668 0.000000 
0.000000 0.000000 0.000000 

0.269639 0.588091 0.000000 
0.000000 -0.514226 0.000000 
0.000000 0.000000 0.000000 

-1.155448 -2.624100 0.000000 
0.000000 -2.806199 0.000000 
0.000000 0.000000 0.000000 

-0.106738 -0.002597 0.000000 
0.000000 -0.236946 0.000000 
0.000000 0.000000 0.000000 

-4.082999 8.784882 0.000000 
0.000000 -5.301176 0.000000 
0.000000 0.000000 0.000000 

TENSORS STRAIN float 
0.002307 -0.015738 0.000000 
0.000000 0.000458 0.000000 
0.000000 0.000000 0.000000 

0.690844 0.257493 0.000000 
0.000000 -0.689003 0.000000 
0.000000 0.000000 0.000000 

0.001301 -0.003710 0.000000 
0.000000 -0.012551 0.000000 
0.000000 0.000000 0.000000 

0.000019 0.020280 0.000000 
0.000000 -0.011654 0.000000 
0.000000 0.000000 0.000000 

0.032723 -0.073444 0.000000 
0.000000 -1.036289 0.000000 
0.000000 0.000000 0.000000 

-0.005912 0.039664 0.000000 
0.000000 -0.002460 0.000000 
0.000000 0.000000 0.000000 

0.000778 -0.005247 0.000000 
0.000000 0.001062 0.000000 
0.000000 0.000000 0.000000 

0.120641 0.017630 0.000000 
0.000000 -1.086106 0.000000 
0.000000 0.000000 0.000000 

-0.003459 -0.015998 0.000000 
0.000000 0.006749 0.000000 
0.000000 0.000000 0.000000 

0.010002 0.004711 0.000000 
0.000000 -0.042553 0.000000 
0.000000 0.000000 0.000000 

0.247209 -0.187303 0.000000 
0.000000 -0.501102 0.000000 
0.000000 0.000000 0.000000 

-0.000607 0.025713 0.000000 
0.000000 0.011120 0.000000 
0.000000 0.000000 0.000000 

0.075580 0.085218 0.000000 
0.000000 -0.957081 0.000000 
0.000000 0.000000 0.000000 

0.002184 0.016198 0.000000 
0.000000 -0.008651 0.000000 
0.000000 0.000000 0.000000 

-0.001864 0.021211 0.000000 
0.000000 -0.031610 0.000000 
0.000000 0.000000 0.000000 

0.070981 -0.100916 0.000000 
0.000000 -0.832768 0.000000 
0.000000 0.000000 0.000000 

-0.009056 0.019751 0.000000 
0.000000 0.010531 0.000000 
0.000000 0.000000 0.000000 

-0.002981 0.005173 0.000000 
0.000000 0.003477 0.000000 
0.000000 0.000000 0.000000 

0.063172 -0.034803 0.000000 
0.000000 -1.125576 0.000000 
0.000000 0.000000 0.000000 

-0.009503 0.002390 0.000000 
0.000000 0.010335 0.000000 
0.000000 0.000000 0.000000 

0.165779 0.396441 0.000000 
0.000000 -0.327977 0.000000 
0.000000 0.000000 0.000000 

0.006695 -0.030619 0.000000 
0.000000 -0.079336 0.000000 
0.000000 0.000000 0.000000 

-0.000568 -0.021385 0.000000 
0.000000 0.001728 0.000000 
0.000000 0.000000 0.000000 

0.821123 0.136998 0.000000 
0.000000 -0.806532 0.000000 
0.000000 0.000000 0.000000 

-0.001857 -0.006449 0.000000 
0.000000 -0.010590 0.000000 
0.000000 0.000000 0.000000 

-0.000199 0.051471 0.000000 
0.000000 -0.061952 0.000000 
0.000000 0.000000 0.000000 

0.004757 -0.095492 0.000000 
0.000000 -0.906146 0.000000 
0.000000 0.000000 0.000000 

-0.004130 -0.032161 0.000000 
0.000000 -0.004946 0.000000 
0.000000 0.000000 0.000000 

-0.004121 -0.003900 0.000000 
0.000000 0.006646 0.000000 
0.000000 0.000000 0.000000 

0.128166 -0.010540 0.000000 
0.000000 -1.128092 0.000000 
0.000000 0.000000 0.000000 

-0.007354 -0.002211 0.000000 
0.000000 0.011184 0.000000 
0.000000 0.000000 0.000000 

0.013020 0.008840 0.000000 
0.000000 -0.058714 0.000000 
0.000000 0.000000 0.000000 

0.053739 -0.234494 0.000000 
0.000000 -0.267786 0.000000 
0.000000 0.000000 0.000000 

0.001260 -0.041218 0.000000 
0.000000 -0.015361 0.000000 
0.000000 0.000000 0.000000 

0.106541 0.044103 0.000000 
0.000000 -1.043053 0.000000 
0.000000 0.000000 0.000000 

-0.001685 -0.021259 0.000000 
0.000000 0.006333 0.000000 
0.000000 0.000000 0.000000 

0.002562 0.018571 0.000000 
0.000000 -0.039890 0.000000 
0.000000 0.000000 0.000000 

0.434301 -0.126817 0.000000 
0.000000 -0.721089 0.000000 
0.000000 0.000000 0.000000 

-0.008664 0.007591 0.000000 
0.000000 0.002429 0.000000 
0.000000 0.000000 0.000000 

-0.000749 0.018130 0.000000 
0.000000 0.003815 0.000000 
0.000000 0.000000 0.000000 

0.054251 -0.048910 0.000000 
0.000000 -1.125477 0.000000 
0.000000 0.000000 0.000000 

-0.081904 -0.082637 0.000000 
0.000000 0.006356 0.000000 
0.000000 0.000000 0.000000 

0.504416 0.324813 0.000000 
0.000000 -0.574888 0.000000 
0.000000 0.000000 0.000000 

0.004955 -0.005008 0.000000 
0.000000 -0.017347 0.000000 
0.000000 0.000000 0.000000 

0.000115 0.020910 0.000000 
0.000000 -0.008119 0.000000 
0.000000 0.000000 0.000000 

-0.005723 -0.012657 0.000000 
0.000000 0.004851 0.000000 
0.000000 0.000000 0.000000 

-0.005042 -0.011584 0.000000 
0.000000 0.000233 0.000000 
0.000000 0.000000 0.000000 

0.001515 -0.082377 0.000000 
0.000000 -0.861824 0.000000 
0.000000 0.000000 0.000000 

0.071106 0.050978 0.000000 
0.000000 -0.907046 0.000000 
0.000000 0.000000 0.000000 

0.287744 0.256220 0.000000 
0.000000 -0.427092 0.000000 
0.000000 0.000000 0.000000 

0.081301 -0.175709 0.000000 
0.000000 -0.298558 0.000000 
0.000000 0.000000 0.000000 

-0.005774 0.001030 0.000000 
0.000000 0.001178 0.000000 
0.000000 0.000000 0.000000 

-0.001721 0.015979 0.000000 
0.000000 0.000198 0.000000 
0.000000 0.000000 0.000000 

-0.000951 -0.005181 0.000000 
0.000000 -0.013890 0.000000 
0.000000 0.000000 0.000000 

-0.003497 0.032718 0.000000 
0.000000 -0.010277 0.000000 
0.000000 0.000000 0.000000 

0.017072 -0.058058 0.000000 
0.000000 -0.990177 0.000000 
0.000000 0.000000 0.000000 

0.041078 0.093810 0.000000 
0.000000 -0.801536 0.000000 
0.000000 0.000000 0.000000 

0.022130 0.041784 0.000000 
0.000000 -0.106915 0.000000 
0.000000 0.000000 0.000000 

0.003899 -0.000175 0.000000 
0.000000 -0.010994 0.000000 
0.000000 0.000000 0.000000 

0.286302 -0.093366 0.000000 
0.000000 -0.601962 0.000000 
0.000000 0.000000 0.000000 

0.090256 -0.032763 0.000000 
0.000000 -1.036470 0.000000 
0.000000 0.000000 0.000000 

0.000802 -0.001456 0.000000 
0.000000 0.005046 0.000000 
0.000000 0.000000 0.000000 

-0.001089 -0.001550 0.000000 
0.000000 -0.000507 0.000000 
0.000000 0.000000 0.000000 

0.006321 0.005892 0.000000 
0.000000 -0.030403 0.000000 
0.000000 0.000000 0.000000 

-0.003167 0.000497 0.000000 
0.000000 0.005725 0.000000 
0.000000 0.000000 0.000000 

-0.002551 0.003604 0.000000 
0.000000 0.003379 0.000000 
0.000000 0.000000 0.000000 

0.000690 -0.000682 0.000000 
0.000000 0.002698 0.000000 
0.000000 0.000000 0.000000 

-0.000248 -0.003538 0.000000 
0.000000 -0.002428 0.000000 
0.000000 0.000000 0.000000 

-0.000073 -0.005889 0.000000 
0.000000 -0.001285 0.000000 
0.000000 0.000000 0.000000 

-0.001359 0.000190 0.000000 
0.000000 -0.007553 0.000000 
0.000000 0.000000 0.000000 

-0.001355 -0.002006 0.000000 
0.000000 -0.004738 0.000000 
0.000000 0.000000 0.000000 

-0.001458 0.000958 0.000000 
0.000000 -0.008150 0.000000 
0.000000 0.000000 0.000000 

-0.001351 0.000859 0.000000 
0.000000 -0.008401 0.000000 
0.000000 0.000000 0.000000 

-0.001470 -0.001044 0.000000 
0.000000 -0.005899 0.000000 
0.000000 0.000000 0.000000 

-0.001365 0.000502 0.000000 
0.000000 -0.006879 0.000000 
0.000000 0.000000 0.000000 

-0.001052 0.000704 0.000000 
0.000000 -0.007044 0.000000 
0.000000 0.000000 0.000000 

-0.001740 -0.000089 0.000000 
0.000000 -0.007802 0.000000 
0.000000 0.000000 0.000000 

-0.001136 0.020003 0.000000 
0.000000 -0.004038 0.000000 
0.000000 0.000000 0.000000 

-0.000389 0.023815 0.000000 
0.000000 -0.013991 0.000000 
0.000000 0.000000 0.000000 

-0.001944 0.000158 0.000000 
0.000000 -0.008708 0.000000 
0.000000 0.000000 0.000000 

-0.001260 0.006669 0.000000 
0.000000 -0.004190 0.000000 
0.000000 0.000000 0.000000 

-0.000956 0.015535 0.000000 
0.000000 -0.020004 0.000000 
0.000000 0.000000 0.000000 

-0.002389 -0.010121 0.000000 
0.000000 -0.010208 0.000000 
0.000000 0.000000 0.000000 

0.005117 0.003280 0.000000 
0.000000 -0.017518 0.000000 
0.000000 0.000000 0.000000 

0.009125 -0.002051 0.000000 
0.000000 -0.018578 0.000000 
0.000000 0.000000 0.000000 

-0.000898 0.010505 0.000000 
0.000000 -0.008910 0.000000 
0.000000 0.000000 0.000000 

0.012576 -0.007028 0.000000 
0.000000 -0.024255 0.000000 
0.000000 0.000000 0.000000 

0.026474 -0.017293 0.000000 
0.000000 -0.112241 0.000000 
0.000000 0.000000 0.000000 

0.005858 -0.007570 0.000000 
0.000000 0.004133 0.000000 
0.000000 0.000000 0.000000 

0.180610 0.055559 0.000000 
0.000000 -0.324564 0.000000 
0.000000 0.000000 0.000000 

0.003775 0.024799 0.000000 
0.000000 -0.414104 0.000000 
0.000000 0.000000 0.000000 

-0.005004 0.013712 0.000000 
0.000000 -0.031535 0.000000 
0.000000 0.000000 0.000000 

0.018023 0.047247 0.000000 
0.000000 -0.610700 0.000000 
0.000000 0.000000 0.000000 

0.019065 0.033138 0.000000 
0.000000 -0.641432 0.000000 
0.000000 0.000000 0.000000 

-0.004221 -0.015345 0.000000 
0.000000 -0.206231 0.000000 
0.000000 0.000000 0.000000 

0.038152 0.029251 0.000000 
0.000000 -0.743370 0.000000 
0.000000 0.000000 0.000000 

0.031345 0.000928 0.000000 
0.000000 -0.697915 0.000000 
0.000000 0.000000 0.000000 

0.005722 0.007039 0.000000 
0.000000 -0.454308 0.000000 
0.000000 0.000000 0.000000 

0.047049 -0.023953 0.000000 
0.000000 -0.799729 0.000000 
0.000000 0.000000 0.000000 

-0.005086 -0.040963 0.000000 
0.000000 -0.724404 0.000000 
0.000000 0.000000 0.000000 

0.010399 -0.002088 0.000000 
0.000000 -0.517766 0.000000 
0.000000 0.000000 0.000000 

-0.001733 -0.053074 0.000000 
0.000000 -0.807961 0.000000 
0.000000 0.000000 0.000000 

-0.007936 -0.052261 0.000000 
0.000000 -0.666346 0.000000 
0.000000 0.000000 0.000000 

-0.009250 -0.037042 0.000000 
0.000000 -0.544541 0.000000 
0.000000 0.000000 0.000000 

-0.007736 -0.065248 0.000000 
0.000000 -0.709760 0.000000 
0.000000 0.000000 0.000000 

-0.009422 -0.037540 0.000000 
0.000000 -0.531061 0.000000 
0.000000 0.000000 0.000000 

-0.009284 -0.033563 0.000000 
0.000000 -0.513512 0.000000 
0.000000 0.000000 0.000000 

-0.008859 -0.023021 0.000000 
0.000000 -0.460064 0.000000 
0.000000 0.000000 0.000000 

-0.004062 -0.036126 0.000000 
0.000000 -0.237058 0.000000 
0.000000 0.000000 0.000000 

-0.006880 -0.016180 0.000000 
0.000000 -0.353778 0.000000 
0.000000 0.000000 0.000000 

0.013597 -0.008460 0.000000 
0.000000 -0.135538 0.000000 
0.000000 0.000000 0.000000 

0.005151 -0.001227 0.000000 
0.000000 -0.012306 0.000000 
0.000000 0.000000 0.000000 

-0.003210 0.014230 0.000000 
0.000000 -0.183054 0.000000 
0.000000 0.000000 0.000000 

0.003844 0.002380 0.000000 
0.000000 -0.007701 0.000000 
0.000000 0.000000 0.000000 

0.000348 0.002344 0.000000 
0.000000 -0.006183 0.000000 
0.000000 0.000000 0.000000 

-0.002067 0.001188 0.000000 
0.000000 -0.008032 0.000000 
0.000000 0.000000 0.000000 

-0.002810 -0.002847 0.000000 
0.000000 -0.006903 0.000000 
0.000000 0.000000 0.000000 

-0.000853 0.018157 0.000000 
0.000000 0.004546 0.000000 
0.000000 0.000000 0.000000 

0.001944 0.009688 0.000000 
0.000000 0.003451 0.000000 
0.000000 0.000000 0.000000 

-0.000978 -0.007093 0.000000 
0.000000 -0.009658 0.000000 
0.000000 0.000000 0.000000 

-0.002136 -0.015191 0.000000 
0.000000 0.001171 0.000000 
0.000000 0.000000 0.000000 

-0.002516 0.002887 0.000000 
0.000000 -0.007763 0.000000 
0.000000 0.000000 0.000000 

-0.005713 -0.013070 0.000000 
0.000000 0.001265 0.000000 
0.000000 0.000000 0.000000 

-0.001274 -0.010440 0.000000 
0.000000 -0.000554 0.000000 
0.000000 0.000000 0.000000 

0.001515 0.004404 0.000000 
0.000000 -0.004732 0.000000 
0.000000 0.000000 0.000000 

-0.002666 -0.000933 0.000000 
0.000000 0.004057 0.000000 
0.000000 0.000000 0.000000 

-0.002655 0.000353 0.000000 
0.000000 0.001900 0.000000 
0.000000 0.000000 0.000000 

0.000284 -0.009367 0.000000 
0.000000 -0.001410 0.000000 
0.000000 0.000000 0.000000 

-0.003066 0.000271 0.000000 
0.000000 0.003580 0.000000 
0.000000 0.000000 0.000000 

-0.002845 0.001840 0.000000 
0.000000 -0.001000 0.000000 
0.000000 0.000000 0.000000 

-0.003715 0.001545 0.000000 
0.000000 0.000995 0.000000 
0.000000 0.000000 0.000000 

0.000397 0.000252 0.000000 
0.000000 -0.002004 0.000000 
0.000000 0.000000 0.000000 

-0.001089 -0.007273 0.000000 
0.000000 -0.003301 0.000000 
0.000000 0.000000 0.000000 

-0.002337 -0.000782 0.000000 
0.000000 -0.005304 0.000000 
0.000000 0.000000 0.000000 

-0.001659 -0.000049 0.000000 
0.000000 -0.007706 0.000000 
0.000000 0.000000 0.000000 

-0.003062 0.000355 0.000000 
0.000000 -0.007199 0.000000 
0.000000 0.000000 0.000000 

0.005123 -0.014142 0.000000 
0.000000 -0.463862 0.000000 
0.000000 0.000000 0.000000 

-0.001616 -0.010166 0.000000 
0.000000 -0.013750 0.000000 
0.000000 0.000000 0.000000 

-0.001463 0.012088 0.000000 
0.000000 -0.003184 0.000000 
0.000000 0.000000 0.000000 

-0.007238 -0.021567 0.000000 
0.000000 -0.388225 0.000000 
0.000000 0.000000 0.000000 

0.001630 0.005965 0.000000 
0.000000 -0.006136 0.000000 
0.000000 0.000000 0.000000 

-0.006409 0.004375 0.000000 
0.000000 -0.004240 0.000000 
0.000000 0.000000 0.000000 

-0.004248 -0.011122 0.000000 
0.000000 -0.207275 0.000000 
0.000000 0.000000 0.000000 

-0.001597 0.000126 0.000000 
0.000000 -0.010295 0.000000 
0.000000 0.000000 0.000000 

0.001147 -0.002925 0.000000 
0.000000 -0.008173 0.000000 
0.000000 0.000000 0.000000 

-0.001752 0.000265 0.000000 
0.000000 -0.009887 0.000000 
0.000000 0.000000 0.000000 

-0.002301 0.003550 0.000000 
0.000000 -0.004666 0.000000 
0.000000 0.000000 0.000000 

-0.003108 0.002356 0.000000 
0.000000 -0.006999 0.000000 
0.000000 0.000000 0.000000 

-0.003846 -0.003627 0.000000 
0.000000 -0.001224 0.000000 
0.000000 0.000000 0.000000 

-0.003093 0.003578 0.000000 
0.000000 -0.005209 0.000000 
0.000000 0.000000 0.000000 

-0.005853 -0.001972 0.000000 
0.000000 -0.001889 0.000000 
0.000000 0.000000 0.000000 

-0.003629 -0.001242 0.000000 
0.000000 0.002080 0.000000 
0.000000 0.000000 0.000000 

-0.006262 0.008504 0.000000 
0.000000 -0.013888 0.000000 
0.000000 0.000000 0.000000 

-0.002361 0.004067 0.000000 
0.000000 -0.005887 0.000000 
0.000000 0.000000 0.000000 

-0.004577 0.006181 0.000000 
0.000000 -0.043923 0.000000 
0.000000 0.000000 0.000000 

-0.006157 0.003506 0.000000 
0.000000 -0.014058 0.000000 
0.000000 0.000000 0.000000 

-0.006172 0.007893 0.000000 
0.000000 -0.021254 0.000000 
0.000000 0.000000 0.000000 

-0.004492 -0.000820 0.000000 
0.000000 -0.002997 0.000000 
0.000000 0.000000 0.000000 

-0.003923 0.001343 0.000000 
0.000000 0.002110 0.000000 
0.000000 0.000000 0.000000 

-0.005693 0.004185 0.000000 
0.000000 -0.018778 0.000000 
0.000000 0.000000 0.000000 

-0.003118 0.004671 0.000000 
0.000000 0.001693 0.000000 
0.000000 0.000000 0.000000 

0.001703 -0.007339 0.000000 
0.000000 -0.010519 0.000000 
0.000000 0.000000 0.000000 

-0.000774 -0.003831 0.000000 
0.000000 -0.006304 0.000000 
0.000000 0.000000 0.000000 

-0.004620 0.002708 0.000000 
0.000000 -0.038334 0.000000 
0.000000 0.000000 0.000000 

0.000178 -0.000953 0.000000 
0.000000 -0.009348 0.000000 
0.000000 0.000000 0.000000 

-0.000676 0.001887 0.000000 
0.000000 0.013726 0.000000 
0.000000 0.000000 0.000000 

-0.001591 0.007227 0.000000 
0.000000 -0.008902 0.000000 
0.000000 0.000000 0.000000 

-0.000522 0.000227 0.000000 
0.000000 -0.000632 0.000000 
0.000000 0.000000 0.000000 

-0.002490 0.002072 0.000000 
0.000000 -0.024903 0.000000 
0.000000 0.000000 0.000000 

-0.002272 -0.002973 0.000000 
0.000000 -0.018055 0.000000 
0.000000 0.000000 0.000000 

-0.001952 -0.010981 0.000000 
0.000000 -0.108843 0.000000 
0.000000 0.000000 0.000000 

-0.004989 -0.023720 0.000000 
0.000000 -0.211442 0.000000 
0.000000 0.000000 0.000000 

-0.002260 -0.003952 0.000000 
0.000000 -0.016265 0.000000 
0.000000 0.000000 0.000000 

-0.001064 -0.022113 0.000000 
0.000000 -0.053719 0.000000 
0.000000 0.000000 0.000000 

-0.001965 -0.006573 0.000000 
0.000000 -0.012120 0.000000 
0.000000 0.000000 0.000000 

-0.002538 0.003496 0.000000 
0.000000 -0.016899 0.000000 
0.000000 0.000000 0.000000 

-0.000734 0.000954 0.000000 
0.000000 0.001876 0.000000 
0.000000 0.000000 0.000000 

0.001283 0.012352 0.000000 
0.000000 -0.010217 0.000000 
0.000000 0.000000 0.000000 

-0.002605 0.004291 0.000000 
0.000000 -0.011154 0.000000 
0.000000 0.000000 0.000000 

0.000845 -0.002546 0.000000 
0.000000 -0.005746 0.000000 
0.000000 0.000000 0.000000 

0.001832 0.003140 0.000000 
0.000000 -0.002354 0.000000 
0.000000 0.000000 0.000000 

0.000077 -0.006116 0.000000 
0.000000 -0.003770 0.000000 
0.000000 0.000000 0.000000 

-0.004782 -0.003419 0.000000 
0.000000 -0.176175 0.000000 
0.000000 0.000000 0.000000 

-0.001479 0.010250 0.000000 
0.000000 -0.002901 0.000000 
0.000000 0.000000 0.000000 

