# vtk DataFile Version 3.0 
vtk output 
ASCII 
DATASET UNSTRUCTURED_GRID 
POINTS 184 float 
-0.028811 0.451917 0.000000 
-0.337228 -0.359689 0.000000 
0.473826 -0.050463 0.000000 
-0.447224 0.144294 0.000000 
0.165656 -0.466156 0.000000 
0.222713 0.397175 0.000000 
-0.284076 0.357467 0.000000 
-0.100762 -0.485211 0.000000 
0.418839 0.201339 0.000000 
-0.462804 -0.128967 0.000000 
0.379481 -0.306089 0.000000 
-0.166786 0.424429 0.000000 
-0.227178 -0.438060 0.000000 
0.463197 0.078749 0.000000 
-0.473871 0.006435 0.000000 
0.286252 -0.403869 0.000000 
0.100762 0.441183 0.000000 
-0.377333 0.266156 0.000000 
0.039274 -0.495066 0.000000 
0.337021 0.315583 0.000000 
-0.416046 -0.249192 0.000000 
0.444142 -0.187670 0.000000 
-0.121270 0.437794 0.000000 
-0.301377 -0.390755 0.000000 
0.473826 -0.003024 0.000000 
-0.460589 0.098777 0.000000 
0.246344 -0.429516 0.000000 
0.179561 0.416882 0.000000 
-0.346268 0.302008 0.000000 
-0.053807 -0.491962 0.000000 
0.368087 0.279731 0.000000 
-0.449439 -0.174483 0.000000 
0.424436 -0.230822 0.000000 
-0.209938 0.404723 0.000000 
-0.146279 -0.471846 0.000000 
0.438546 0.158188 0.000000 
-0.473871 -0.041003 0.000000 
0.322103 -0.372803 0.000000 
0.018627 0.451917 0.000000 
-0.427517 0.187445 0.000000 
0.086229 -0.488315 0.000000 
0.301170 0.346648 0.000000 
-0.368294 -0.323838 0.000000 
0.457507 -0.142153 0.000000 
-0.079407 0.420172 0.000000 
0.369154 0.234598 0.000000 
0.048715 0.423561 0.000000 
0.205702 -0.421928 0.000000 
-0.167159 -0.436162 0.000000 
-0.366567 -0.282530 0.000000 
0.386144 -0.246411 0.000000 
-0.305135 0.306178 0.000000 
-0.387078 0.207129 0.000000 
0.425252 0.119040 0.000000 
0.140413 0.403588 0.000000 
0.111975 -0.455966 0.000000 
-0.260069 -0.389028 0.000000 
-0.413756 -0.195364 0.000000 
0.439780 -0.099928 0.000000 
0.326273 -0.331670 0.000000 
-0.014533 -0.468407 0.000000 
-0.225527 0.366431 0.000000 
-0.442908 0.056551 0.000000 
-0.445123 -0.077282 0.000000 
0.255396 0.348065 0.000000 
0.445470 0.027063 0.000000 
-0.079333 0.363898 0.000000 
-0.130417 0.321088 0.000000 
-0.191597 0.325706 0.000000 
-0.111867 0.262480 0.000000 
-0.224051 0.271185 0.000000 
-0.171272 0.234186 0.000000 
-0.055594 0.248252 0.000000 
-0.279041 0.260621 0.000000 
-0.040187 0.192530 0.000000 
-0.015041 0.289456 0.000000 
-0.296573 0.201357 0.000000 
-0.349226 0.171072 0.000000 
-0.351226 0.105368 0.000000 
-0.254824 0.162602 0.000000 
-0.391103 0.056047 0.000000 
-0.370336 -0.003557 0.000000 
-0.284940 0.105416 0.000000 
-0.395089 -0.063051 0.000000 
-0.360392 -0.109225 0.000000 
-0.313327 -0.002982 0.000000 
-0.369688 -0.167573 0.000000 
-0.323258 -0.201368 0.000000 
-0.307698 -0.067643 0.000000 
-0.317847 -0.262496 0.000000 
-0.261652 -0.287692 0.000000 
-0.273358 -0.175176 0.000000 
-0.237999 -0.341851 0.000000 
-0.174943 -0.347722 0.000000 
-0.233858 -0.226762 0.000000 
-0.136993 -0.393002 0.000000 
-0.076092 -0.383834 0.000000 
-0.147100 -0.298744 0.000000 
-0.021468 -0.416804 0.000000 
0.034383 -0.390851 0.000000 
-0.085997 -0.320777 0.000000 
0.090783 -0.408408 0.000000 
0.131601 -0.367540 0.000000 
0.025861 -0.334377 0.000000 
0.192839 -0.370870 0.000000 
0.225790 -0.318842 0.000000 
0.089168 -0.319861 0.000000 
0.282731 -0.303119 0.000000 
0.297512 -0.241540 0.000000 
0.190625 -0.270809 0.000000 
0.347718 -0.210413 0.000000 
0.347308 -0.148828 0.000000 
0.236036 -0.224370 0.000000 
0.387714 -0.099450 0.000000 
0.369971 -0.040476 0.000000 
0.294872 -0.128253 0.000000 
0.395378 0.012853 0.000000 
0.360736 0.059072 0.000000 
0.307967 -0.064635 0.000000 
0.372882 0.113573 0.000000 
0.326072 0.153593 0.000000 
0.305499 0.048032 0.000000 
0.320446 0.214599 0.000000 
0.261463 0.243635 0.000000 
0.282122 0.108631 0.000000 
0.233332 0.300902 0.000000 
0.170485 0.306855 0.000000 
0.219133 0.202078 0.000000 
0.132530 0.352120 0.000000 
0.077667 0.342263 0.000000 
0.033502 0.376109 0.000000 
-0.020231 0.346494 0.000000 
0.166704 0.240418 0.000000 
0.047676 0.289208 0.000000 
-0.184513 0.184867 0.000000 
-0.267808 0.056670 0.000000 
-0.039895 -0.297274 0.000000 
0.233804 -0.172668 0.000000 
0.278138 -0.022347 0.000000 
0.115242 -0.275159 0.000000 
0.234165 0.128079 0.000000 
-0.267095 -0.099798 0.000000 
-0.182363 -0.231942 0.000000 
-0.080635 0.151305 0.000000 
0.015739 0.178114 0.000000 
-0.141814 0.148495 0.000000 
-0.170613 0.091033 0.000000 
-0.215488 0.052307 0.000000 
-0.205084 -0.011013 0.000000 
-0.129406 0.054087 0.000000 
-0.218571 -0.071508 0.000000 
-0.148068 -0.003099 0.000000 
-0.174593 -0.117883 0.000000 
-0.076799 0.088208 0.000000 
-0.155573 -0.179982 0.000000 
-0.126037 -0.087854 0.000000 
-0.074980 -0.114465 0.000000 
-0.112999 -0.033565 0.000000 
-0.052249 -0.016793 0.000000 
-0.031995 -0.069777 0.000000 
-0.034711 0.047795 0.000000 
0.031192 0.122480 0.000000 
0.063050 0.233588 0.000000 
-0.089197 -0.178105 0.000000 
0.009049 0.064199 0.000000 
0.051424 0.014303 0.000000 
0.053332 -0.040835 0.000000 
0.098177 0.043595 0.000000 
0.011239 -0.083679 0.000000 
0.028372 -0.145116 0.000000 
0.017947 -0.204542 0.000000 
0.077740 -0.232431 0.000000 
0.083331 -0.145757 0.000000 
0.117710 -0.187896 0.000000 
0.179025 -0.158966 0.000000 
0.098599 -0.084858 0.000000 
0.165702 0.033021 0.000000 
0.087920 0.102415 0.000000 
0.161326 -0.088232 0.000000 
0.191154 0.090880 0.000000 
0.131959 0.133731 0.000000 
0.122542 0.209270 0.000000 
-0.040916 -0.221976 0.000000 
0.197397 -0.028778 0.000000 
CELLS 184 368 
1 0 
1 1 
1 2 
1 3 
1 4 
1 5 
1 6 
1 7 
1 8 
1 9 
1 10 
1 11 
1 12 
1 13 
1 14 
1 15 
1 16 
1 17 
1 18 
1 19 
1 20 
1 21 
1 22 
1 23 
1 24 
1 25 
1 26 
1 27 
1 28 
1 29 
1 30 
1 31 
1 32 
1 33 
1 34 
1 35 
1 36 
1 37 
1 38 
1 39 
1 40 
1 41 
1 42 
1 43 
1 44 
1 45 
1 46 
1 47 
1 48 
1 49 
1 50 
1 51 
1 52 
1 53 
1 54 
1 55 
1 56 
1 57 
1 58 
1 59 
1 60 
1 61 
1 62 
1 63 
1 64 
1 65 
1 66 
1 67 
1 68 
1 69 
1 70 
1 71 
1 72 
1 73 
1 74 
1 75 
1 76 
1 77 
1 78 
1 79 
1 80 
1 81 
1 82 
1 83 
1 84 
1 85 
1 86 
1 87 
1 88 
1 89 
1 90 
1 91 
1 92 
1 93 
1 94 
1 95 
1 96 
1 97 
1 98 
1 99 
1 100 
1 101 
1 102 
1 103 
1 104 
1 105 
1 106 
1 107 
1 108 
1 109 
1 110 
1 111 
1 112 
1 113 
1 114 
1 115 
1 116 
1 117 
1 118 
1 119 
1 120 
1 121 
1 122 
1 123 
1 124 
1 125 
1 126 
1 127 
1 128 
1 129 
1 130 
1 131 
1 132 
1 133 
1 134 
1 135 
1 136 
1 137 
1 138 
1 139 
1 140 
1 141 
1 142 
1 143 
1 144 
1 145 
1 146 
1 147 
1 148 
1 149 
1 150 
1 151 
1 152 
1 153 
1 154 
1 155 
1 156 
1 157 
1 158 
1 159 
1 160 
1 161 
1 162 
1 163 
1 164 
1 165 
1 166 
1 167 
1 168 
1 169 
1 170 
1 171 
1 172 
1 173 
1 174 
1 175 
1 176 
1 177 
1 178 
1 179 
1 180 
1 181 
1 182 
1 183 
CELL_TYPES 184 
1 
1 
1 
1 
1 
1 
1 
1 
1 
1 
1 
1 
1 
1 
1 
1 
1 
1 
1 
1 
1 
1 
1 
1 
1 
1 
1 
1 
1 
1 
1 
1 
1 
1 
1 
1 
1 
1 
1 
1 
1 
1 
1 
1 
1 
1 
1 
1 
1 
1 
1 
1 
1 
1 
1 
1 
1 
1 
1 
1 
1 
1 
1 
1 
1 
1 
1 
1 
1 
1 
1 
1 
1 
1 
1 
1 
1 
1 
1 
1 
1 
1 
1 
1 
1 
1 
1 
1 
1 
1 
1 
1 
1 
1 
1 
1 
1 
1 
1 
1 
1 
1 
1 
1 
1 
1 
1 
1 
1 
1 
1 
1 
1 
1 
1 
1 
1 
1 
1 
1 
1 
1 
1 
1 
1 
1 
1 
1 
1 
1 
1 
1 
1 
1 
1 
1 
1 
1 
1 
1 
1 
1 
1 
1 
1 
1 
1 
1 
1 
1 
1 
1 
1 
1 
1 
1 
1 
1 
1 
1 
1 
1 
1 
1 
1 
1 
1 
1 
1 
1 
1 
1 
1 
1 
1 
1 
1 
1 
1 
1 
1 
1 
1 
1 
POINT_DATA 184 
VECTORS X_GC float 
-0.028811 0.451917 0.000000 
-0.337228 -0.359689 0.000000 
0.473826 -0.050463 0.000000 
-0.447224 0.144294 0.000000 
0.165656 -0.466156 0.000000 
0.222713 0.397175 0.000000 
-0.284076 0.357467 0.000000 
-0.100762 -0.485211 0.000000 
0.418839 0.201339 0.000000 
-0.462804 -0.128967 0.000000 
0.379481 -0.306089 0.000000 
-0.166786 0.424429 0.000000 
-0.227178 -0.438060 0.000000 
0.463197 0.078749 0.000000 
-0.473871 0.006435 0.000000 
0.286252 -0.403869 0.000000 
0.100762 0.441183 0.000000 
-0.377333 0.266156 0.000000 
0.039274 -0.495066 0.000000 
0.337021 0.315583 0.000000 
-0.416046 -0.249192 0.000000 
0.444142 -0.187670 0.000000 
-0.121270 0.437794 0.000000 
-0.301377 -0.390755 0.000000 
0.473826 -0.003024 0.000000 
-0.460589 0.098777 0.000000 
0.246344 -0.429516 0.000000 
0.179561 0.416882 0.000000 
-0.346268 0.302008 0.000000 
-0.053807 -0.491962 0.000000 
0.368087 0.279731 0.000000 
-0.449439 -0.174483 0.000000 
0.424436 -0.230822 0.000000 
-0.209938 0.404723 0.000000 
-0.146279 -0.471846 0.000000 
0.438546 0.158188 0.000000 
-0.473871 -0.041003 0.000000 
0.322103 -0.372803 0.000000 
0.018627 0.451917 0.000000 
-0.427517 0.187445 0.000000 
0.086229 -0.488315 0.000000 
0.301170 0.346648 0.000000 
-0.368294 -0.323838 0.000000 
0.457507 -0.142153 0.000000 
-0.079407 0.420172 0.000000 
0.369154 0.234598 0.000000 
0.048715 0.423561 0.000000 
0.205702 -0.421928 0.000000 
-0.167159 -0.436162 0.000000 
-0.366567 -0.282530 0.000000 
0.386144 -0.246411 0.000000 
-0.305135 0.306178 0.000000 
-0.387078 0.207129 0.000000 
0.425252 0.119040 0.000000 
0.140413 0.403588 0.000000 
0.111975 -0.455966 0.000000 
-0.260069 -0.389028 0.000000 
-0.413756 -0.195364 0.000000 
0.439780 -0.099928 0.000000 
0.326273 -0.331670 0.000000 
-0.014533 -0.468407 0.000000 
-0.225527 0.366431 0.000000 
-0.442908 0.056551 0.000000 
-0.445123 -0.077282 0.000000 
0.255396 0.348065 0.000000 
0.445470 0.027063 0.000000 
-0.079333 0.363898 0.000000 
-0.130417 0.321088 0.000000 
-0.191597 0.325706 0.000000 
-0.111867 0.262480 0.000000 
-0.224051 0.271185 0.000000 
-0.171272 0.234186 0.000000 
-0.055594 0.248252 0.000000 
-0.279041 0.260621 0.000000 
-0.040187 0.192530 0.000000 
-0.015041 0.289456 0.000000 
-0.296573 0.201357 0.000000 
-0.349226 0.171072 0.000000 
-0.351226 0.105368 0.000000 
-0.254824 0.162602 0.000000 
-0.391103 0.056047 0.000000 
-0.370336 -0.003557 0.000000 
-0.284940 0.105416 0.000000 
-0.395089 -0.063051 0.000000 
-0.360392 -0.109225 0.000000 
-0.313327 -0.002982 0.000000 
-0.369688 -0.167573 0.000000 
-0.323258 -0.201368 0.000000 
-0.307698 -0.067643 0.000000 
-0.317847 -0.262496 0.000000 
-0.261652 -0.287692 0.000000 
-0.273358 -0.175176 0.000000 
-0.237999 -0.341851 0.000000 
-0.174943 -0.347722 0.000000 
-0.233858 -0.226762 0.000000 
-0.136993 -0.393002 0.000000 
-0.076092 -0.383834 0.000000 
-0.147100 -0.298744 0.000000 
-0.021468 -0.416804 0.000000 
0.034383 -0.390851 0.000000 
-0.085997 -0.320777 0.000000 
0.090783 -0.408408 0.000000 
0.131601 -0.367540 0.000000 
0.025861 -0.334377 0.000000 
0.192839 -0.370870 0.000000 
0.225790 -0.318842 0.000000 
0.089168 -0.319861 0.000000 
0.282731 -0.303119 0.000000 
0.297512 -0.241540 0.000000 
0.190625 -0.270809 0.000000 
0.347718 -0.210413 0.000000 
0.347308 -0.148828 0.000000 
0.236036 -0.224370 0.000000 
0.387714 -0.099450 0.000000 
0.369971 -0.040476 0.000000 
0.294872 -0.128253 0.000000 
0.395378 0.012853 0.000000 
0.360736 0.059072 0.000000 
0.307967 -0.064635 0.000000 
0.372882 0.113573 0.000000 
0.326072 0.153593 0.000000 
0.305499 0.048032 0.000000 
0.320446 0.214599 0.000000 
0.261463 0.243635 0.000000 
0.282122 0.108631 0.000000 
0.233332 0.300902 0.000000 
0.170485 0.306855 0.000000 
0.219133 0.202078 0.000000 
0.132530 0.352120 0.000000 
0.077667 0.342263 0.000000 
0.033502 0.376109 0.000000 
-0.020231 0.346494 0.000000 
0.166704 0.240418 0.000000 
0.047676 0.289208 0.000000 
-0.184513 0.184867 0.000000 
-0.267808 0.056670 0.000000 
-0.039895 -0.297274 0.000000 
0.233804 -0.172668 0.000000 
0.278138 -0.022347 0.000000 
0.115242 -0.275159 0.000000 
0.234165 0.128079 0.000000 
-0.267095 -0.099798 0.000000 
-0.182363 -0.231942 0.000000 
-0.080635 0.151305 0.000000 
0.015739 0.178114 0.000000 
-0.141814 0.148495 0.000000 
-0.170613 0.091033 0.000000 
-0.215488 0.052307 0.000000 
-0.205084 -0.011013 0.000000 
-0.129406 0.054087 0.000000 
-0.218571 -0.071508 0.000000 
-0.148068 -0.003099 0.000000 
-0.174593 -0.117883 0.000000 
-0.076799 0.088208 0.000000 
-0.155573 -0.179982 0.000000 
-0.126037 -0.087854 0.000000 
-0.074980 -0.114465 0.000000 
-0.112999 -0.033565 0.000000 
-0.052249 -0.016793 0.000000 
-0.031995 -0.069777 0.000000 
-0.034711 0.047795 0.000000 
0.031192 0.122480 0.000000 
0.063050 0.233588 0.000000 
-0.089197 -0.178105 0.000000 
0.009049 0.064199 0.000000 
0.051424 0.014303 0.000000 
0.053332 -0.040835 0.000000 
0.098177 0.043595 0.000000 
0.011239 -0.083679 0.000000 
0.028372 -0.145116 0.000000 
0.017947 -0.204542 0.000000 
0.077740 -0.232431 0.000000 
0.083331 -0.145757 0.000000 
0.117710 -0.187896 0.000000 
0.179025 -0.158966 0.000000 
0.098599 -0.084858 0.000000 
0.165702 0.033021 0.000000 
0.087920 0.102415 0.000000 
0.161326 -0.088232 0.000000 
0.191154 0.090880 0.000000 
0.131959 0.133731 0.000000 
0.122542 0.209270 0.000000 
-0.040916 -0.221976 0.000000 
0.197397 -0.028778 0.000000 
VECTORS X_EC float 
-0.423772 -0.038335 0.000000 
-0.255438 0.193782 0.000000 
-0.476516 0.009254 0.000000 
-0.055525 0.114120 0.000000 
-0.313129 0.323118 0.000000 
0.545750 -0.943506 0.000000 
0.681511 -0.149337 0.000000 
-0.984754 0.704210 0.000000 
0.623212 0.973219 0.000000 
0.256087 -0.420665 0.000000 
-0.589610 -0.878216 0.000000 
0.335730 0.511411 0.000000 
-0.456432 -0.238805 0.000000 
-0.263937 -0.574973 0.000000 
0.477427 0.871304 0.000000 
-0.725036 -0.922627 0.000000 
0.984754 0.176336 0.000000 
0.546670 -0.323127 0.000000 
0.214529 0.901317 0.000000 
0.259575 0.688347 0.000000 
-0.679078 -0.016160 0.000000 
0.117156 0.753402 0.000000 
-0.574604 0.244113 0.000000 
-0.972467 0.815092 0.000000 
-0.476516 -0.939512 0.000000 
0.211773 -0.975546 0.000000 
0.073117 -0.409684 0.000000 
-0.591223 0.662362 0.000000 
-0.074640 0.959844 0.000000 
0.076138 0.839234 0.000000 
-0.361734 -0.594623 0.000000 
-0.011211 0.489669 0.000000 
0.511288 -0.383570 0.000000 
-0.801243 0.905542 0.000000 
-0.074420 0.436912 0.000000 
0.229081 -0.163754 0.000000 
0.477427 -0.179931 0.000000 
0.557935 0.456064 0.000000 
0.627462 -0.038335 0.000000 
-0.449656 -0.748908 0.000000 
-0.724580 0.766293 0.000000 
0.976604 0.067038 0.000000 
0.365871 -0.523247 0.000000 
-0.150142 -0.156932 0.000000 
0.588132 0.596553 0.000000 
-0.383072 0.308044 0.000000 
0.025707 0.528776 0.000000 
0.885951 -0.561436 0.000000 
0.343186 -0.276761 0.000000 
0.331343 0.650598 0.000000 
-0.722872 -0.071781 0.000000 
-0.897299 0.876447 0.000000 
0.741563 0.857415 0.000000 
0.494965 0.619208 0.000000 
0.191739 0.928247 0.000000 
0.760499 0.119316 0.000000 
0.201378 0.780563 0.000000 
-0.724884 0.907275 0.000000 
0.204390 0.998558 0.000000 
0.474538 -0.366595 0.000000 
-0.709333 0.368134 0.000000 
-0.489454 -0.328617 0.000000 
-0.141847 -0.131024 0.000000 
-0.097533 0.545640 0.000000 
-0.107924 0.038709 0.000000 
0.090595 0.458734 0.000000 
0.586655 -0.277953 0.000000 
-0.391666 0.578234 0.000000 
0.831934 0.485878 0.000000 
-0.762652 -0.249607 0.000000 
-0.518973 -0.423707 0.000000 
0.425440 0.316272 0.000000 
0.111886 0.034961 0.000000 
0.580828 -0.212419 0.000000 
-0.196259 -0.850601 0.000000 
-0.699172 -0.789122 0.000000 
0.931460 0.972859 0.000000 
-0.015478 -0.421438 0.000000 
0.024513 0.892648 0.000000 
0.096473 -0.252037 0.000000 
0.822064 -0.120949 0.000000 
0.406721 -0.928868 0.000000 
0.698793 0.891685 0.000000 
0.901777 0.261011 0.000000 
0.207833 -0.815498 0.000000 
-0.733459 -0.940357 0.000000 
0.393754 0.351463 0.000000 
-0.534846 -0.972641 0.000000 
-0.846031 0.352856 0.000000 
-0.643063 0.249929 0.000000 
0.233047 0.753845 0.000000 
0.467160 0.503510 0.000000 
-0.240011 -0.162985 0.000000 
0.498854 -0.045557 0.000000 
-0.322838 -0.464764 0.000000 
-0.260138 0.860035 0.000000 
0.521832 0.676685 0.000000 
-0.057994 0.974883 0.000000 
-0.570648 -0.663913 0.000000 
0.312339 0.817016 0.000000 
0.719944 -0.584461 0.000000 
-0.815651 -0.831843 0.000000 
0.367982 0.350804 0.000000 
0.482773 -0.312454 0.000000 
-0.856788 0.417409 0.000000 
0.484196 -0.623169 0.000000 
-0.783369 -0.602787 0.000000 
-0.654616 -0.937616 0.000000 
-0.950244 -0.169203 0.000000 
-0.812509 0.416190 0.000000 
0.045649 -0.791748 0.000000 
0.053835 -0.023431 0.000000 
0.279289 -0.512593 0.000000 
-0.754286 0.988997 0.000000 
-0.399428 -0.190490 0.000000 
-0.897435 -0.434939 0.000000 
-0.907569 0.742934 0.000000 
-0.214714 -0.181445 0.000000 
0.840652 0.292709 0.000000 
-0.457647 0.728537 0.000000 
0.478557 -0.071862 0.000000 
0.890011 0.039356 0.000000 
0.591088 0.708027 0.000000 
-0.229267 0.127297 0.000000 
-0.642438 0.827386 0.000000 
0.333354 0.981956 0.000000 
-0.409704 0.862898 0.000000 
0.617341 0.958436 0.000000 
0.349399 -0.042392 0.000000 
-0.553343 0.154733 0.000000 
0.329951 -0.522189 0.000000 
-0.595389 0.070124 0.000000 
-0.334089 0.191640 0.000000 
0.046474 -0.784161 0.000000 
0.690254 -0.697335 0.000000 
0.356164 -0.133401 0.000000 
-0.202101 0.945472 0.000000 
0.323912 0.453355 0.000000 
-0.562764 -0.553067 0.000000 
0.695155 0.503178 0.000000 
0.316702 0.438414 0.000000 
0.341897 0.995967 0.000000 
0.647256 -0.361152 0.000000 
0.612701 -0.026091 0.000000 
0.685214 -0.562276 0.000000 
-0.163720 0.030090 0.000000 
0.412263 -0.820665 0.000000 
-0.690250 -0.046135 0.000000 
-0.898327 -0.779740 0.000000 
-0.411883 -0.081732 0.000000 
-0.628585 0.430166 0.000000 
-0.038643 -0.938022 0.000000 
0.491864 -0.642337 0.000000 
0.535975 -0.764162 0.000000 
0.111468 0.599638 0.000000 
-0.479253 0.757088 0.000000 
0.499593 -0.710693 0.000000 
-0.740019 -0.328690 0.000000 
0.044981 -0.664132 0.000000 
-0.360104 0.395548 0.000000 
-0.305786 0.044106 0.000000 
0.376159 0.550398 0.000000 
-0.260994 0.328247 0.000000 
0.783932 0.562096 0.000000 
0.819029 -0.283978 0.000000 
-0.028487 0.713932 0.000000 
-0.066641 -0.183306 0.000000 
-0.963547 0.128093 0.000000 
0.775223 0.673578 0.000000 
0.432560 -0.097680 0.000000 
0.641053 -0.909162 0.000000 
-0.554790 -0.351371 0.000000 
-0.666622 -0.084866 0.000000 
0.645791 0.757930 0.000000 
-0.580504 0.179322 0.000000 
-0.971977 0.697168 0.000000 
-0.314048 0.339581 0.000000 
-0.758399 0.951694 0.000000 
-0.226524 0.764644 0.000000 
-0.823075 -0.817609 0.000000 
0.360812 0.325382 0.000000 
0.549161 0.814610 0.000000 
-0.181680 -0.560488 0.000000 
-0.947946 -0.424446 0.000000 
CELL_DATA 184 
SCALARS MASS float 
LOOKUP_TABLE default 
0.051252 
0.046008 
0.051531 
0.046188 
0.052854 
0.051531 
0.052854 
0.052854 
0.051531 
0.050859 
0.052854 
0.047395 
0.052854 
0.052854 
0.051434 
0.045995 
0.052854 
0.051281 
0.051530 
0.046441 
0.052854 
0.052854 
0.050612 
0.049065 
0.052975 
0.049197 
0.049245 
0.052975 
0.052990 
0.055938 
0.049713 
0.052094 
0.055938 
0.050456 
0.055938 
0.053198 
0.052878 
0.049051 
0.052807 
0.049481 
0.052974 
0.049465 
0.049257 
0.055938 
0.105225 
0.104629 
0.082126 
0.094264 
0.094771 
0.094259 
0.094771 
0.083366 
0.104047 
0.083092 
0.081316 
0.081315 
0.092719 
0.079469 
0.108073 
0.092710 
0.108073 
0.093129 
0.104035 
0.094961 
0.104398 
0.081316 
0.125285 
0.099128 
0.098320 
0.087841 
0.082650 
0.097481 
0.086914 
0.081921 
0.086680 
0.086680 
0.081485 
0.107769 
0.088711 
0.084874 
0.107874 
0.082612 
0.095190 
0.095229 
0.083942 
0.085089 
0.079923 
0.081132 
0.095301 
0.097917 
0.090576 
0.085268 
0.095896 
0.081062 
0.095454 
0.090083 
0.081027 
0.085251 
0.101961 
0.083022 
0.095445 
0.080604 
0.081018 
0.085240 
0.097826 
0.090495 
0.095435 
0.095845 
0.081023 
0.085241 
0.090072 
0.081024 
0.095436 
0.101966 
0.083028 
0.085242 
0.080610 
0.081024 
0.095437 
0.082345 
0.082694 
0.085242 
0.109264 
0.089885 
0.095437 
0.108636 
0.083028 
0.085242 
0.080610 
0.074817 
0.073569 
0.082490 
0.095437 
0.095617 
0.133784 
0.138292 
0.139667 
0.139695 
0.139694 
0.139689 
0.139693 
0.140105 
0.139774 
0.086622 
0.086622 
0.089038 
0.077179 
0.079159 
0.072465 
0.084345 
0.092656 
0.093083 
0.084037 
0.098826 
0.101847 
0.085968 
0.086444 
0.074619 
0.064825 
0.094138 
0.124406 
0.086607 
0.131576 
0.102571 
0.084703 
0.076503 
0.084191 
0.084191 
0.086793 
0.075696 
0.084714 
0.090949 
0.084009 
0.076569 
0.086383 
0.098391 
0.110757 
0.093222 
0.143196 
0.101090 
0.091038 
0.150913 
0.178131 
0.206980 
SCALARS MASS float 
LOOKUP_TABLE default 
0.051252 
0.046008 
0.051531 
0.046188 
0.052854 
0.051531 
0.052854 
0.052854 
0.051531 
0.050859 
0.052854 
0.047395 
0.052854 
0.052854 
0.051434 
0.045995 
0.052854 
0.051281 
0.051530 
0.046441 
0.052854 
0.052854 
0.050612 
0.049065 
0.052975 
0.049197 
0.049245 
0.052975 
0.052990 
0.055938 
0.049713 
0.052094 
0.055938 
0.050456 
0.055938 
0.053198 
0.052878 
0.049051 
0.052807 
0.049481 
0.052974 
0.049465 
0.049257 
0.055938 
0.105225 
0.104629 
0.082126 
0.094264 
0.094771 
0.094259 
0.094771 
0.083366 
0.104047 
0.083092 
0.081316 
0.081315 
0.092719 
0.079469 
0.108073 
0.092710 
0.108073 
0.093129 
0.104035 
0.094961 
0.104398 
0.081316 
0.125285 
0.099128 
0.098320 
0.087841 
0.082650 
0.097481 
0.086914 
0.081921 
0.086680 
0.086680 
0.081485 
0.107769 
0.088711 
0.084874 
0.107874 
0.082612 
0.095190 
0.095229 
0.083942 
0.085089 
0.079923 
0.081132 
0.095301 
0.097917 
0.090576 
0.085268 
0.095896 
0.081062 
0.095454 
0.090083 
0.081027 
0.085251 
0.101961 
0.083022 
0.095445 
0.080604 
0.081018 
0.085240 
0.097826 
0.090495 
0.095435 
0.095845 
0.081023 
0.085241 
0.090072 
0.081024 
0.095436 
0.101966 
0.083028 
0.085242 
0.080610 
0.081024 
0.095437 
0.082345 
0.082694 
0.085242 
0.109264 
0.089885 
0.095437 
0.108636 
0.083028 
0.085242 
0.080610 
0.074817 
0.073569 
0.082490 
0.095437 
0.095617 
0.133784 
0.138292 
0.139667 
0.139695 
0.139694 
0.139689 
0.139693 
0.140105 
0.139774 
0.086622 
0.086622 
0.089038 
0.077179 
0.079159 
0.072465 
0.084345 
0.092656 
0.093083 
0.084037 
0.098826 
0.101847 
0.085968 
0.086444 
0.074619 
0.064825 
0.094138 
0.124406 
0.086607 
0.131576 
0.102571 
0.084703 
0.076503 
0.084191 
0.084191 
0.086793 
0.075696 
0.084714 
0.090949 
0.084009 
0.076569 
0.086383 
0.098391 
0.110757 
0.093222 
0.143196 
0.101090 
0.091038 
0.150913 
0.178131 
0.206980 
SCALARS DENSITY float 
LOOKUP_TABLE default 
20.000000 
20.000001 
20.000000 
20.000000 
19.999999 
20.000000 
20.000001 
20.000002 
20.000000 
20.000000 
20.000000 
20.000000 
20.000001 
20.000000 
20.000000 
20.000006 
20.000000 
20.000001 
20.000003 
20.000000 
20.000000 
20.000000 
20.000000 
20.000001 
20.000000 
20.000000 
20.000006 
20.000000 
20.000000 
20.000003 
20.000000 
20.000001 
20.000000 
20.000000 
20.000002 
20.000000 
20.000000 
20.000000 
20.000000 
20.000000 
20.000003 
20.000000 
20.000001 
20.000000 
20.000000 
20.000000 
20.000000 
20.000006 
20.000002 
20.000000 
20.000001 
20.000000 
20.000001 
20.000000 
20.000000 
19.999999 
20.000002 
20.000001 
20.000000 
20.000001 
20.000003 
20.000001 
20.000000 
20.000000 
20.000000 
20.000000 
20.000000 
20.000000 
20.000000 
19.999999 
20.000001 
19.999999 
19.999999 
20.000001 
19.999999 
19.999999 
20.000001 
20.000000 
20.000000 
20.000000 
20.000000 
20.000000 
20.000000 
20.000000 
20.000001 
20.000000 
20.000001 
19.999998 
19.999999 
20.000000 
19.999999 
20.000002 
20.000002 
20.000002 
19.999999 
20.000003 
20.000004 
19.999993 
20.000003 
20.000005 
20.000003 
20.000003 
19.999998 
20.000005 
19.999998 
20.000005 
20.000004 
20.000005 
20.000002 
19.999996 
20.000001 
20.000000 
20.000002 
20.000000 
20.000000 
20.000002 
20.000001 
20.000001 
20.000000 
20.000001 
20.000001 
20.000001 
20.000000 
20.000000 
20.000002 
20.000000 
20.000000 
20.000000 
20.000000 
20.000000 
20.000000 
20.000000 
19.999999 
19.999999 
19.999999 
20.000000 
19.999990 
20.000002 
20.000002 
19.999995 
20.000002 
20.000000 
19.999995 
19.999999 
20.000003 
19.999999 
19.999998 
20.000000 
20.000000 
19.999998 
20.000000 
19.999999 
20.000001 
20.000000 
20.000002 
20.000000 
20.000003 
20.000000 
20.000002 
20.000002 
20.000000 
20.000006 
20.000000 
20.000002 
20.000006 
20.000005 
20.000006 
20.000005 
20.000008 
20.000008 
19.999990 
19.999999 
20.000007 
19.999998 
19.999996 
20.000005 
19.999991 
20.000007 
19.999991 
19.999993 
19.999998 
19.999999 
19.999990 
19.999989 
SCALARS ELEM_i float 
LOOKUP_TABLE default 
634 
806 
329 
871 
505 
453 
753 
685 
332 
868 
386 
694 
745 
330 
870 
445 
514 
812 
565 
393 
867 
328 
694 
806 
329 
870 
445 
514 
813 
625 
392 
868 
327 
754 
685 
331 
869 
386 
574 
871 
565 
393 
806 
328 
634 
392 
574 
445 
685 
807 
387 
813 
812 
331 
514 
505 
746 
868 
329 
386 
625 
753 
870 
869 
453 
330 
633 
693 
693 
692 
752 
692 
632 
752 
631 
632 
752 
811 
811 
751 
810 
809 
751 
809 
808 
809 
808 
807 
809 
807 
747 
748 
746 
686 
747 
686 
626 
687 
625 
566 
626 
565 
506 
566 
506 
446 
566 
446 
447 
507 
387 
388 
447 
389 
389 
448 
390 
390 
389 
391 
391 
390 
392 
452 
451 
453 
513 
452 
513 
573 
573 
633 
512 
572 
691 
750 
627 
448 
449 
507 
451 
749 
687 
631 
571 
691 
690 
750 
749 
690 
749 
689 
688 
630 
688 
689 
628 
689 
629 
629 
630 
571 
572 
628 
570 
570 
569 
570 
569 
568 
567 
567 
568 
508 
508 
569 
510 
571 
509 
510 
511 
512 
627 
509 
VECTORS VELOCITY float 
-0.000000 -0.647460 0.000000 
-0.000010 -0.647468 0.000000 
-0.000001 -0.647460 0.000000 
-0.000001 -0.647459 0.000000 
-0.000012 -0.647486 0.000000 
0.000000 -0.647460 0.000000 
-0.000007 -0.647453 0.000000 
-0.000006 -0.647478 0.000000 
0.000001 -0.647458 0.000000 
-0.000002 -0.647458 0.000000 
0.000008 -0.647480 0.000000 
-0.000001 -0.647459 0.000000 
-0.000014 -0.647476 0.000000 
0.000001 -0.647460 0.000000 
0.000002 -0.647462 0.000000 
0.000062 -0.647467 0.000000 
0.000000 -0.647460 0.000000 
-0.000007 -0.647453 0.000000 
0.000009 -0.647483 0.000000 
-0.000000 -0.647462 0.000000 
-0.000001 -0.647463 0.000000 
-0.000000 -0.647459 0.000000 
-0.000001 -0.647460 0.000000 
-0.000010 -0.647473 0.000000 
0.000000 -0.647462 0.000000 
0.000001 -0.647459 0.000000 
0.000022 -0.647491 0.000000 
0.000001 -0.647460 0.000000 
-0.000007 -0.647450 0.000000 
-0.000004 -0.647482 0.000000 
0.000000 -0.647461 0.000000 
-0.000002 -0.647463 0.000000 
0.000001 -0.647465 0.000000 
-0.000001 -0.647458 0.000000 
-0.000011 -0.647478 0.000000 
0.000001 -0.647458 0.000000 
0.000001 -0.647460 0.000000 
0.000056 -0.647473 0.000000 
0.000000 -0.647460 0.000000 
-0.000003 -0.647460 0.000000 
0.000023 -0.647479 0.000000 
0.000001 -0.647460 0.000000 
-0.000007 -0.647461 0.000000 
-0.000001 -0.647459 0.000000 
0.000000 -0.647461 0.000000 
0.000003 -0.647457 0.000000 
0.000000 -0.647461 0.000000 
-0.000031 -0.647468 0.000000 
-0.000010 -0.647474 0.000000 
-0.000001 -0.647456 0.000000 
0.000004 -0.647468 0.000000 
-0.000004 -0.647454 0.000000 
-0.000003 -0.647461 0.000000 
0.000003 -0.647458 0.000000 
0.000000 -0.647461 0.000000 
0.000025 -0.647474 0.000000 
-0.000008 -0.647468 0.000000 
0.000001 -0.647467 0.000000 
0.000000 -0.647459 0.000000 
0.000029 -0.647469 0.000000 
-0.000002 -0.647477 0.000000 
0.000000 -0.647458 0.000000 
0.000001 -0.647461 0.000000 
-0.000001 -0.647457 0.000000 
-0.000000 -0.647461 0.000000 
0.000002 -0.647462 0.000000 
0.000001 -0.647463 0.000000 
0.000004 -0.647465 0.000000 
0.000006 -0.647462 0.000000 
0.000003 -0.647464 0.000000 
0.000007 -0.647462 0.000000 
0.000009 -0.647465 0.000000 
-0.000005 -0.647457 0.000000 
0.000001 -0.647460 0.000000 
-0.000017 -0.647445 0.000000 
-0.000003 -0.647461 0.000000 
-0.000001 -0.647466 0.000000 
-0.000001 -0.647463 0.000000 
0.000001 -0.647462 0.000000 
0.000006 -0.647466 0.000000 
0.000001 -0.647462 0.000000 
0.000001 -0.647463 0.000000 
0.000003 -0.647463 0.000000 
-0.000001 -0.647457 0.000000 
-0.000002 -0.647454 0.000000 
0.000001 -0.647464 0.000000 
0.000001 -0.647464 0.000000 
0.000003 -0.647470 0.000000 
-0.000002 -0.647457 0.000000 
0.000002 -0.647455 0.000000 
0.000010 -0.647440 0.000000 
0.000005 -0.647470 0.000000 
0.000004 -0.647446 0.000000 
0.000006 -0.647437 0.000000 
0.000016 -0.647471 0.000000 
-0.000005 -0.647463 0.000000 
-0.000004 -0.647449 0.000000 
0.000015 -0.647400 0.000000 
-0.000001 -0.647462 0.000000 
0.000010 -0.647449 0.000000 
-0.000001 -0.647390 0.000000 
0.000039 -0.647464 0.000000 
0.000010 -0.647452 0.000000 
-0.000022 -0.647393 0.000000 
-0.000041 -0.647448 0.000000 
-0.000039 -0.647443 0.000000 
0.000019 -0.647431 0.000000 
-0.000001 -0.647453 0.000000 
0.000009 -0.647456 0.000000 
-0.000050 -0.647440 0.000000 
0.000007 -0.647459 0.000000 
0.000006 -0.647459 0.000000 
-0.000026 -0.647450 0.000000 
0.000004 -0.647460 0.000000 
0.000005 -0.647462 0.000000 
0.000005 -0.647457 0.000000 
0.000006 -0.647463 0.000000 
0.000004 -0.647460 0.000000 
0.000005 -0.647460 0.000000 
0.000004 -0.647458 0.000000 
0.000004 -0.647455 0.000000 
0.000002 -0.647461 0.000000 
0.000006 -0.647452 0.000000 
0.000001 -0.647456 0.000000 
-0.000007 -0.647465 0.000000 
-0.000002 -0.647462 0.000000 
-0.000002 -0.647463 0.000000 
-0.000004 -0.647456 0.000000 
-0.000001 -0.647462 0.000000 
-0.000001 -0.647463 0.000000 
-0.000000 -0.647462 0.000000 
-0.000000 -0.647463 0.000000 
-0.000003 -0.647457 0.000000 
-0.000002 -0.647461 0.000000 
0.000012 -0.647467 0.000000 
0.000004 -0.647462 0.000000 
-0.000032 -0.647360 0.000000 
-0.000027 -0.647443 0.000000 
-0.000014 -0.647464 0.000000 
0.000010 -0.647449 0.000000 
-0.000022 -0.647476 0.000000 
-0.000005 -0.647451 0.000000 
0.000023 -0.647473 0.000000 
-0.000013 -0.647455 0.000000 
-0.000021 -0.647438 0.000000 
0.000001 -0.647462 0.000000 
0.000003 -0.647461 0.000000 
0.000007 -0.647460 0.000000 
0.000005 -0.647454 0.000000 
-0.000006 -0.647456 0.000000 
-0.000004 -0.647449 0.000000 
-0.000003 -0.647452 0.000000 
-0.000005 -0.647456 0.000000 
-0.000020 -0.647455 0.000000 
0.000018 -0.647499 0.000000 
-0.000015 -0.647448 0.000000 
-0.000023 -0.647471 0.000000 
-0.000012 -0.647450 0.000000 
-0.000023 -0.647450 0.000000 
-0.000040 -0.647466 0.000000 
-0.000031 -0.647447 0.000000 
-0.000009 -0.647452 0.000000 
-0.000004 -0.647446 0.000000 
0.000014 -0.647521 0.000000 
-0.000031 -0.647446 0.000000 
0.000063 -0.647451 0.000000 
0.000058 -0.647452 0.000000 
0.000130 -0.647469 0.000000 
-0.000035 -0.647475 0.000000 
-0.000013 -0.647507 0.000000 
-0.000022 -0.647551 0.000000 
0.000008 -0.647483 0.000000 
0.000053 -0.647472 0.000000 
0.000020 -0.647482 0.000000 
-0.000024 -0.647439 0.000000 
0.000121 -0.647434 0.000000 
0.000000 -0.647485 0.000000 
0.000074 -0.647484 0.000000 
0.000012 -0.647422 0.000000 
-0.000037 -0.647496 0.000000 
0.000033 -0.647476 0.000000 
0.000002 -0.647445 0.000000 
-0.000011 -0.647514 0.000000 
-0.000071 -0.647468 0.000000 
TENSORS STRESS float 
-0.000001 0.000000 0.000000 
0.000000 -0.000003 0.000000 
0.000000 0.000000 0.000000 

-0.000014 -0.000012 0.000000 
0.000000 -0.000022 0.000000 
0.000000 0.000000 0.000000 

0.000007 -0.000002 0.000000 
0.000000 0.000005 0.000000 
0.000000 0.000000 0.000000 

0.000001 0.000004 0.000000 
0.000000 -0.000001 0.000000 
0.000000 0.000000 0.000000 

0.000056 0.000009 0.000000 
0.000000 -0.000005 0.000000 
0.000000 0.000000 0.000000 

-0.000000 -0.000001 0.000000 
0.000000 0.000000 0.000000 
0.000000 0.000000 0.000000 

-0.000013 0.000008 0.000000 
0.000000 -0.000007 0.000000 
0.000000 0.000000 0.000000 

-0.000032 -0.000003 0.000000 
0.000000 -0.000053 0.000000 
0.000000 0.000000 0.000000 

0.000003 0.000003 0.000000 
0.000000 0.000004 0.000000 
0.000000 0.000000 0.000000 

-0.000005 -0.000001 0.000000 
0.000000 -0.000010 0.000000 
0.000000 0.000000 0.000000 

-0.000014 0.000045 0.000000 
0.000000 -0.000003 0.000000 
0.000000 0.000000 0.000000 

-0.000000 0.000004 0.000000 
0.000000 -0.000001 0.000000 
0.000000 0.000000 0.000000 

-0.000018 -0.000012 0.000000 
0.000000 -0.000030 0.000000 
0.000000 0.000000 0.000000 

0.000001 -0.000000 0.000000 
0.000000 -0.000004 0.000000 
0.000000 0.000000 0.000000 

0.000001 0.000000 0.000000 
0.000000 0.000001 0.000000 
0.000000 0.000000 0.000000 

-0.000120 -0.000009 0.000000 
0.000000 -0.000072 0.000000 
0.000000 0.000000 0.000000 

-0.000001 -0.000001 0.000000 
0.000000 -0.000002 0.000000 
0.000000 0.000000 0.000000 

-0.000014 0.000007 0.000000 
0.000000 -0.000019 0.000000 
0.000000 0.000000 0.000000 

-0.000057 -0.000001 0.000000 
0.000000 -0.000061 0.000000 
0.000000 0.000000 0.000000 

-0.000000 0.000001 0.000000 
0.000000 0.000002 0.000000 
0.000000 0.000000 0.000000 

-0.000000 -0.000003 0.000000 
0.000000 0.000003 0.000000 
0.000000 0.000000 0.000000 

0.000008 0.000000 0.000000 
0.000000 0.000002 0.000000 
0.000000 0.000000 0.000000 

-0.000001 0.000004 0.000000 
0.000000 -0.000002 0.000000 
0.000000 0.000000 0.000000 

-0.000014 -0.000012 0.000000 
0.000000 -0.000026 0.000000 
0.000000 0.000000 0.000000 

0.000008 -0.000002 0.000000 
0.000000 0.000004 0.000000 
0.000000 0.000000 0.000000 

-0.000000 0.000004 0.000000 
0.000000 -0.000001 0.000000 
0.000000 0.000000 0.000000 

-0.000115 0.000006 0.000000 
0.000000 -0.000074 0.000000 
0.000000 0.000000 0.000000 

-0.000001 -0.000001 0.000000 
0.000000 -0.000001 0.000000 
0.000000 0.000000 0.000000 

-0.000009 0.000003 0.000000 
0.000000 -0.000005 0.000000 
0.000000 0.000000 0.000000 

-0.000040 -0.000002 0.000000 
0.000000 -0.000060 0.000000 
0.000000 0.000000 0.000000 

0.000000 0.000001 0.000000 
0.000000 0.000004 0.000000 
0.000000 0.000000 0.000000 

-0.000007 0.000001 0.000000 
0.000000 -0.000012 0.000000 
0.000000 0.000000 0.000000 

0.000002 0.000003 0.000000 
0.000000 -0.000017 0.000000 
0.000000 0.000000 0.000000 

-0.000008 0.000005 0.000000 
0.000000 -0.000002 0.000000 
0.000000 0.000000 0.000000 

-0.000029 -0.000007 0.000000 
0.000000 -0.000047 0.000000 
0.000000 0.000000 0.000000 

0.000001 0.000002 0.000000 
0.000000 -0.000002 0.000000 
0.000000 0.000000 0.000000 

0.000003 -0.000003 0.000000 
0.000000 0.000005 0.000000 
0.000000 0.000000 0.000000 

-0.000003 0.000041 0.000000 
0.000000 -0.000011 0.000000 
0.000000 0.000000 0.000000 

-0.000001 -0.000000 0.000000 
0.000000 -0.000003 0.000000 
0.000000 0.000000 0.000000 

0.000001 0.000005 0.000000 
0.000000 -0.000001 0.000000 
0.000000 0.000000 0.000000 

-0.000057 -0.000002 0.000000 
0.000000 -0.000058 0.000000 
0.000000 0.000000 0.000000 

-0.000000 0.000001 0.000000 
0.000000 0.000002 0.000000 
0.000000 0.000000 0.000000 

-0.000017 -0.000013 0.000000 
0.000000 -0.000021 0.000000 
0.000000 0.000000 0.000000 

0.000007 0.000001 0.000000 
0.000000 0.000002 0.000000 
0.000000 0.000000 0.000000 

-0.000001 0.000001 0.000000 
0.000000 -0.000005 0.000000 
0.000000 0.000000 0.000000 

-0.000000 0.000004 0.000000 
0.000000 0.000009 0.000000 
0.000000 0.000000 0.000000 

-0.000001 -0.000001 0.000000 
0.000000 -0.000003 0.000000 
0.000000 0.000000 0.000000 

-0.000229 0.000038 0.000000 
0.000000 -0.000147 0.000000 
0.000000 0.000000 0.000000 

-0.000040 -0.000021 0.000000 
0.000000 -0.000070 0.000000 
0.000000 0.000000 0.000000 

-0.000015 -0.000014 0.000000 
0.000000 0.000010 0.000000 
0.000000 0.000000 0.000000 

-0.000048 0.000037 0.000000 
0.000000 -0.000053 0.000000 
0.000000 0.000000 0.000000 

-0.000013 0.000006 0.000000 
0.000000 -0.000007 0.000000 
0.000000 0.000000 0.000000 

-0.000027 0.000016 0.000000 
0.000000 -0.000037 0.000000 
0.000000 0.000000 0.000000 

0.000002 0.000003 0.000000 
0.000000 -0.000003 0.000000 
0.000000 0.000000 0.000000 

-0.000002 -0.000001 0.000000 
0.000000 -0.000003 0.000000 
0.000000 0.000000 0.000000 

0.000089 0.000003 0.000000 
0.000000 -0.000011 0.000000 
0.000000 0.000000 0.000000 

-0.000039 -0.000042 0.000000 
0.000000 -0.000065 0.000000 
0.000000 0.000000 0.000000 

-0.000013 0.000003 0.000000 
0.000000 -0.000021 0.000000 
0.000000 0.000000 0.000000 

0.000014 -0.000005 0.000000 
0.000000 0.000009 0.000000 
0.000000 0.000000 0.000000 

-0.000024 0.000086 0.000000 
0.000000 -0.000026 0.000000 
0.000000 0.000000 0.000000 

-0.000075 -0.000002 0.000000 
0.000000 -0.000116 0.000000 
0.000000 0.000000 0.000000 

-0.000024 0.000018 0.000000 
0.000000 -0.000017 0.000000 
0.000000 0.000000 0.000000 

0.000003 0.000001 0.000000 
0.000000 0.000003 0.000000 
0.000000 0.000000 0.000000 

0.000006 -0.000007 0.000000 
0.000000 0.000010 0.000000 
0.000000 0.000000 0.000000 

-0.000004 -0.000003 0.000000 
0.000000 0.000000 0.000000 
0.000000 0.000000 0.000000 

0.000005 -0.000000 0.000000 
0.000000 -0.000005 0.000000 
0.000000 0.000000 0.000000 

0.000007 -0.000002 0.000000 
0.000000 0.000001 0.000000 
0.000000 0.000000 0.000000 

0.000008 0.000008 0.000000 
0.000000 -0.000002 0.000000 
0.000000 0.000000 0.000000 

0.000005 0.000013 0.000000 
0.000000 -0.000006 0.000000 
0.000000 0.000000 0.000000 

0.000028 -0.000012 0.000000 
0.000000 0.000023 0.000000 
0.000000 0.000000 0.000000 

-0.000033 0.000015 0.000000 
0.000000 -0.000026 0.000000 
0.000000 0.000000 0.000000 

0.000033 -0.000008 0.000000 
0.000000 0.000011 0.000000 
0.000000 0.000000 0.000000 

0.000035 -0.000030 0.000000 
0.000000 0.000040 0.000000 
0.000000 0.000000 0.000000 

-0.000037 0.000014 0.000000 
0.000000 -0.000035 0.000000 
0.000000 0.000000 0.000000 

0.000026 -0.000032 0.000000 
0.000000 0.000004 0.000000 
0.000000 0.000000 0.000000 

0.000033 -0.000027 0.000000 
0.000000 0.000049 0.000000 
0.000000 0.000000 0.000000 

-0.000038 0.000009 0.000000 
0.000000 -0.000038 0.000000 
0.000000 0.000000 0.000000 

-0.000012 0.000014 0.000000 
0.000000 -0.000005 0.000000 
0.000000 0.000000 0.000000 

-0.000008 0.000010 0.000000 
0.000000 -0.000004 0.000000 
0.000000 0.000000 0.000000 

-0.000017 0.000000 0.000000 
0.000000 -0.000002 0.000000 
0.000000 0.000000 0.000000 

-0.000005 0.000002 0.000000 
0.000000 0.000001 0.000000 
0.000000 0.000000 0.000000 

0.000002 -0.000005 0.000000 
0.000000 0.000011 0.000000 
0.000000 0.000000 0.000000 

-0.000005 0.000002 0.000000 
0.000000 0.000002 0.000000 
0.000000 0.000000 0.000000 

0.000005 -0.000008 0.000000 
0.000000 0.000012 0.000000 
0.000000 0.000000 0.000000 

-0.000012 0.000005 0.000000 
0.000000 -0.000028 0.000000 
0.000000 0.000000 0.000000 

0.000004 -0.000007 0.000000 
0.000000 0.000016 0.000000 
0.000000 0.000000 0.000000 

-0.000025 0.000008 0.000000 
0.000000 -0.000031 0.000000 
0.000000 0.000000 0.000000 

-0.000000 -0.000007 0.000000 
0.000000 0.000044 0.000000 
0.000000 0.000000 0.000000 

0.000008 -0.000011 0.000000 
0.000000 0.000019 0.000000 
0.000000 0.000000 0.000000 

-0.000010 -0.000012 0.000000 
0.000000 0.000026 0.000000 
0.000000 0.000000 0.000000 

-0.000003 -0.000027 0.000000 
0.000000 0.000057 0.000000 
0.000000 0.000000 0.000000 

-0.000046 0.000038 0.000000 
0.000000 -0.000058 0.000000 
0.000000 0.000000 0.000000 

-0.000054 -0.000054 0.000000 
0.000000 -0.000078 0.000000 
0.000000 0.000000 0.000000 

-0.000014 -0.000069 0.000000 
0.000000 -0.000079 0.000000 
0.000000 0.000000 0.000000 

0.000004 0.000001 0.000000 
0.000000 0.000082 0.000000 
0.000000 0.000000 0.000000 

-0.000061 -0.000035 0.000000 
0.000000 -0.000141 0.000000 
0.000000 0.000000 0.000000 

-0.000073 0.000006 0.000000 
0.000000 -0.000161 0.000000 
0.000000 0.000000 0.000000 

0.000153 -0.000084 0.000000 
0.000000 0.000255 0.000000 
0.000000 0.000000 0.000000 

-0.000064 -0.000004 0.000000 
0.000000 -0.000107 0.000000 
0.000000 0.000000 0.000000 

-0.000118 0.000048 0.000000 
0.000000 -0.000143 0.000000 
0.000000 0.000000 0.000000 

-0.000037 0.000010 0.000000 
0.000000 -0.000170 0.000000 
0.000000 0.000000 0.000000 

-0.000091 0.000004 0.000000 
0.000000 -0.000089 0.000000 
0.000000 0.000000 0.000000 

0.000117 0.000028 0.000000 
0.000000 0.000015 0.000000 
0.000000 0.000000 0.000000 

-0.000139 0.000086 0.000000 
0.000000 -0.000163 0.000000 
0.000000 0.000000 0.000000 

0.000140 0.000033 0.000000 
0.000000 0.000016 0.000000 
0.000000 0.000000 0.000000 

-0.000168 0.000065 0.000000 
0.000000 -0.000109 0.000000 
0.000000 0.000000 0.000000 

-0.000126 0.000097 0.000000 
0.000000 -0.000105 0.000000 
0.000000 0.000000 0.000000 

-0.000162 0.000093 0.000000 
0.000000 -0.000104 0.000000 
0.000000 0.000000 0.000000 

-0.000102 0.000034 0.000000 
0.000000 -0.000063 0.000000 
0.000000 0.000000 0.000000 

0.000141 -0.000033 0.000000 
0.000000 0.000061 0.000000 
0.000000 0.000000 0.000000 

-0.000045 0.000033 0.000000 
0.000000 -0.000046 0.000000 
0.000000 0.000000 0.000000 

-0.000016 0.000009 0.000000 
0.000000 -0.000001 0.000000 
0.000000 0.000000 0.000000 

-0.000106 0.000018 0.000000 
0.000000 -0.000060 0.000000 
0.000000 0.000000 0.000000 

-0.000011 0.000003 0.000000 
0.000000 -0.000000 0.000000 
0.000000 0.000000 0.000000 

-0.000020 -0.000000 0.000000 
0.000000 -0.000003 0.000000 
0.000000 0.000000 0.000000 

-0.000067 0.000021 0.000000 
0.000000 -0.000015 0.000000 
0.000000 0.000000 0.000000 

-0.000033 -0.000003 0.000000 
0.000000 -0.000022 0.000000 
0.000000 0.000000 0.000000 

-0.000030 -0.000006 0.000000 
0.000000 -0.000019 0.000000 
0.000000 0.000000 0.000000 

-0.000013 0.000010 0.000000 
0.000000 0.000009 0.000000 
0.000000 0.000000 0.000000 

-0.000026 -0.000008 0.000000 
0.000000 -0.000018 0.000000 
0.000000 0.000000 0.000000 

-0.000021 -0.000010 0.000000 
0.000000 -0.000023 0.000000 
0.000000 0.000000 0.000000 

-0.000030 -0.000008 0.000000 
0.000000 -0.000016 0.000000 
0.000000 0.000000 0.000000 

0.000000 0.000004 0.000000 
0.000000 0.000012 0.000000 
0.000000 0.000000 0.000000 

-0.000006 -0.000003 0.000000 
0.000000 0.000007 0.000000 
0.000000 0.000000 0.000000 

-0.000066 -0.000054 0.000000 
0.000000 -0.000058 0.000000 
0.000000 0.000000 0.000000 

-0.000008 -0.000005 0.000000 
0.000000 -0.000002 0.000000 
0.000000 0.000000 0.000000 

0.000001 0.000002 0.000000 
0.000000 0.000003 0.000000 
0.000000 0.000000 0.000000 

-0.000009 -0.000005 0.000000 
0.000000 0.000004 0.000000 
0.000000 0.000000 0.000000 

0.000003 -0.000000 0.000000 
0.000000 0.000007 0.000000 
0.000000 0.000000 0.000000 

0.000003 -0.000005 0.000000 
0.000000 0.000008 0.000000 
0.000000 0.000000 0.000000 

0.000003 -0.000004 0.000000 
0.000000 0.000007 0.000000 
0.000000 0.000000 0.000000 

0.000009 -0.000005 0.000000 
0.000000 0.000007 0.000000 
0.000000 0.000000 0.000000 

0.000019 0.000015 0.000000 
0.000000 0.000022 0.000000 
0.000000 0.000000 0.000000 

0.000011 -0.000010 0.000000 
0.000000 0.000039 0.000000 
0.000000 0.000000 0.000000 

0.000073 -0.000036 0.000000 
0.000000 0.000043 0.000000 
0.000000 0.000000 0.000000 

0.000003 -0.000015 0.000000 
0.000000 0.000019 0.000000 
0.000000 0.000000 0.000000 

0.000340 -0.000016 0.000000 
0.000000 0.000625 0.000000 
0.000000 0.000000 0.000000 

-0.000120 0.000025 0.000000 
0.000000 -0.000045 0.000000 
0.000000 0.000000 0.000000 

-0.000187 0.000013 0.000000 
0.000000 -0.000032 0.000000 
0.000000 0.000000 0.000000 

0.000296 -0.000048 0.000000 
0.000000 0.000252 0.000000 
0.000000 0.000000 0.000000 

-0.000105 -0.000084 0.000000 
0.000000 -0.000126 0.000000 
0.000000 0.000000 0.000000 

0.000008 -0.000010 0.000000 
0.000000 0.000016 0.000000 
0.000000 0.000000 0.000000 

0.000181 0.000007 0.000000 
0.000000 0.000283 0.000000 
0.000000 0.000000 0.000000 

0.000021 -0.000032 0.000000 
0.000000 0.000009 0.000000 
0.000000 0.000000 0.000000 

-0.000103 0.000028 0.000000 
0.000000 -0.000067 0.000000 
0.000000 0.000000 0.000000 

0.000053 -0.000026 0.000000 
0.000000 0.000028 0.000000 
0.000000 0.000000 0.000000 

0.000059 -0.000012 0.000000 
0.000000 0.000043 0.000000 
0.000000 0.000000 0.000000 

0.000006 -0.000009 0.000000 
0.000000 0.000020 0.000000 
0.000000 0.000000 0.000000 

-0.000004 -0.000017 0.000000 
0.000000 -0.000006 0.000000 
0.000000 0.000000 0.000000 

0.000062 -0.000011 0.000000 
0.000000 0.000044 0.000000 
0.000000 0.000000 0.000000 

-0.000001 -0.000012 0.000000 
0.000000 -0.000003 0.000000 
0.000000 0.000000 0.000000 

0.000049 -0.000012 0.000000 
0.000000 0.000003 0.000000 
0.000000 0.000000 0.000000 

0.000007 0.000062 0.000000 
0.000000 -0.000066 0.000000 
0.000000 0.000000 0.000000 

0.000012 -0.000008 0.000000 
0.000000 0.000018 0.000000 
0.000000 0.000000 0.000000 

-0.000001 0.000102 0.000000 
0.000000 -0.000096 0.000000 
0.000000 0.000000 0.000000 

0.000029 0.000010 0.000000 
0.000000 -0.000020 0.000000 
0.000000 0.000000 0.000000 

-0.000042 0.000050 0.000000 
0.000000 -0.000131 0.000000 
0.000000 0.000000 0.000000 

0.000027 -0.000002 0.000000 
0.000000 -0.000020 0.000000 
0.000000 0.000000 0.000000 

-0.000041 -0.000010 0.000000 
0.000000 -0.000055 0.000000 
0.000000 0.000000 0.000000 

-0.000034 -0.000013 0.000000 
0.000000 -0.000073 0.000000 
0.000000 0.000000 0.000000 

-0.000017 0.000013 0.000000 
0.000000 -0.000002 0.000000 
0.000000 0.000000 0.000000 

-0.000208 0.000065 0.000000 
0.000000 -0.000120 0.000000 
0.000000 0.000000 0.000000 

-0.000031 0.000003 0.000000 
0.000000 0.000029 0.000000 
0.000000 0.000000 0.000000 

-0.000015 0.000072 0.000000 
0.000000 -0.000138 0.000000 
0.000000 0.000000 0.000000 

-0.000233 0.000056 0.000000 
0.000000 -0.000098 0.000000 
0.000000 0.000000 0.000000 

-0.000208 0.000039 0.000000 
0.000000 -0.000070 0.000000 
0.000000 0.000000 0.000000 

-0.000258 -0.000035 0.000000 
0.000000 -0.000118 0.000000 
0.000000 0.000000 0.000000 

-0.000213 0.000057 0.000000 
0.000000 -0.000049 0.000000 
0.000000 0.000000 0.000000 

-0.000300 -0.000073 0.000000 
0.000000 -0.000177 0.000000 
0.000000 0.000000 0.000000 

-0.000225 -0.000070 0.000000 
0.000000 -0.000198 0.000000 
0.000000 0.000000 0.000000 

0.000065 -0.000079 0.000000 
0.000000 0.000323 0.000000 
0.000000 0.000000 0.000000 

-0.000020 -0.000048 0.000000 
0.000000 0.000140 0.000000 
0.000000 0.000000 0.000000 

-0.000239 -0.000135 0.000000 
0.000000 -0.000198 0.000000 
0.000000 0.000000 0.000000 

0.000107 -0.000121 0.000000 
0.000000 -0.000022 0.000000 
0.000000 0.000000 0.000000 

0.000193 -0.000067 0.000000 
0.000000 0.000062 0.000000 
0.000000 0.000000 0.000000 

-0.000290 -0.000066 0.000000 
0.000000 -0.000083 0.000000 
0.000000 0.000000 0.000000 

0.000465 -0.000004 0.000000 
0.000000 0.000239 0.000000 
0.000000 0.000000 0.000000 

-0.000280 0.000141 0.000000 
0.000000 -0.000187 0.000000 
0.000000 0.000000 0.000000 

0.000562 0.000041 0.000000 
0.000000 0.000353 0.000000 
0.000000 0.000000 0.000000 

0.000316 -0.000041 0.000000 
0.000000 0.000165 0.000000 
0.000000 0.000000 0.000000 

0.000137 0.000076 0.000000 
0.000000 -0.000013 0.000000 
0.000000 0.000000 0.000000 

0.000046 0.000037 0.000000 
0.000000 0.000052 0.000000 
0.000000 0.000000 0.000000 

0.000436 0.000011 0.000000 
0.000000 0.000798 0.000000 
0.000000 0.000000 0.000000 

0.000992 0.000162 0.000000 
0.000000 0.000629 0.000000 
0.000000 0.000000 0.000000 

TENSORS STRAIN float 
0.000000 0.000000 0.000000 
0.000000 -0.000000 0.000000 
0.000000 0.000000 0.000000 

-0.000000 -0.000000 0.000000 
0.000000 -0.000000 0.000000 
0.000000 0.000000 0.000000 

0.000000 -0.000000 0.000000 
0.000000 0.000000 0.000000 
0.000000 0.000000 0.000000 

0.000000 0.000000 0.000000 
0.000000 -0.000000 0.000000 
0.000000 0.000000 0.000000 

0.000000 0.000000 0.000000 
0.000000 -0.000000 0.000000 
0.000000 0.000000 0.000000 

-0.000000 -0.000000 0.000000 
0.000000 0.000000 0.000000 
0.000000 0.000000 0.000000 

-0.000000 0.000000 0.000000 
0.000000 -0.000000 0.000000 
0.000000 0.000000 0.000000 

-0.000000 -0.000000 0.000000 
0.000000 -0.000000 0.000000 
0.000000 0.000000 0.000000 

0.000000 0.000000 0.000000 
0.000000 0.000000 0.000000 
0.000000 0.000000 0.000000 

-0.000000 -0.000000 0.000000 
0.000000 -0.000000 0.000000 
0.000000 0.000000 0.000000 

-0.000000 0.000000 0.000000 
0.000000 0.000000 0.000000 
0.000000 0.000000 0.000000 

-0.000000 0.000000 0.000000 
0.000000 -0.000000 0.000000 
0.000000 0.000000 0.000000 

-0.000000 -0.000000 0.000000 
0.000000 -0.000000 0.000000 
0.000000 0.000000 0.000000 

0.000000 -0.000000 0.000000 
0.000000 -0.000000 0.000000 
0.000000 0.000000 0.000000 

0.000000 0.000000 0.000000 
0.000000 0.000000 0.000000 
0.000000 0.000000 0.000000 

-0.000000 -0.000000 0.000000 
0.000000 -0.000000 0.000000 
0.000000 0.000000 0.000000 

-0.000000 -0.000000 0.000000 
0.000000 -0.000000 0.000000 
0.000000 0.000000 0.000000 

-0.000000 0.000000 0.000000 
0.000000 -0.000000 0.000000 
0.000000 0.000000 0.000000 

-0.000000 -0.000000 0.000000 
0.000000 -0.000000 0.000000 
0.000000 0.000000 0.000000 

-0.000000 0.000000 0.000000 
0.000000 0.000000 0.000000 
0.000000 0.000000 0.000000 

-0.000000 -0.000000 0.000000 
0.000000 0.000000 0.000000 
0.000000 0.000000 0.000000 

0.000000 0.000000 0.000000 
0.000000 -0.000000 0.000000 
0.000000 0.000000 0.000000 

-0.000000 0.000000 0.000000 
0.000000 -0.000000 0.000000 
0.000000 0.000000 0.000000 

-0.000000 -0.000000 0.000000 
0.000000 -0.000000 0.000000 
0.000000 0.000000 0.000000 

0.000000 -0.000000 0.000000 
0.000000 0.000000 0.000000 
0.000000 0.000000 0.000000 

0.000000 0.000000 0.000000 
0.000000 -0.000000 0.000000 
0.000000 0.000000 0.000000 

-0.000000 0.000000 0.000000 
0.000000 -0.000000 0.000000 
0.000000 0.000000 0.000000 

-0.000000 -0.000000 0.000000 
0.000000 -0.000000 0.000000 
0.000000 0.000000 0.000000 

-0.000000 0.000000 0.000000 
0.000000 -0.000000 0.000000 
0.000000 0.000000 0.000000 

-0.000000 -0.000000 0.000000 
0.000000 -0.000000 0.000000 
0.000000 0.000000 0.000000 

-0.000000 0.000000 0.000000 
0.000000 0.000000 0.000000 
0.000000 0.000000 0.000000 

-0.000000 0.000000 0.000000 
0.000000 -0.000000 0.000000 
0.000000 0.000000 0.000000 

0.000000 0.000000 0.000000 
0.000000 -0.000000 0.000000 
0.000000 0.000000 0.000000 

-0.000000 0.000000 0.000000 
0.000000 0.000000 0.000000 
0.000000 0.000000 0.000000 

-0.000000 -0.000000 0.000000 
0.000000 -0.000000 0.000000 
0.000000 0.000000 0.000000 

0.000000 0.000000 0.000000 
0.000000 -0.000000 0.000000 
0.000000 0.000000 0.000000 

0.000000 -0.000000 0.000000 
0.000000 0.000000 0.000000 
0.000000 0.000000 0.000000 

0.000000 0.000000 0.000000 
0.000000 -0.000000 0.000000 
0.000000 0.000000 0.000000 

-0.000000 -0.000000 0.000000 
0.000000 -0.000000 0.000000 
0.000000 0.000000 0.000000 

0.000000 0.000000 0.000000 
0.000000 -0.000000 0.000000 
0.000000 0.000000 0.000000 

-0.000000 -0.000000 0.000000 
0.000000 -0.000000 0.000000 
0.000000 0.000000 0.000000 

-0.000000 0.000000 0.000000 
0.000000 0.000000 0.000000 
0.000000 0.000000 0.000000 

-0.000000 -0.000000 0.000000 
0.000000 -0.000000 0.000000 
0.000000 0.000000 0.000000 

0.000000 0.000000 0.000000 
0.000000 -0.000000 0.000000 
0.000000 0.000000 0.000000 

0.000000 0.000000 0.000000 
0.000000 -0.000000 0.000000 
0.000000 0.000000 0.000000 

-0.000000 0.000000 0.000000 
0.000000 0.000000 0.000000 
0.000000 0.000000 0.000000 

0.000000 -0.000000 0.000000 
0.000000 -0.000000 0.000000 
0.000000 0.000000 0.000000 

-0.000000 0.000000 0.000000 
0.000000 -0.000000 0.000000 
0.000000 0.000000 0.000000 

-0.000000 -0.000000 0.000000 
0.000000 -0.000000 0.000000 
0.000000 0.000000 0.000000 

-0.000000 -0.000000 0.000000 
0.000000 0.000000 0.000000 
0.000000 0.000000 0.000000 

-0.000000 0.000000 0.000000 
0.000000 -0.000000 0.000000 
0.000000 0.000000 0.000000 

-0.000000 0.000000 0.000000 
0.000000 -0.000000 0.000000 
0.000000 0.000000 0.000000 

-0.000000 0.000000 0.000000 
0.000000 -0.000000 0.000000 
0.000000 0.000000 0.000000 

0.000000 0.000000 0.000000 
0.000000 -0.000000 0.000000 
0.000000 0.000000 0.000000 

-0.000000 -0.000000 0.000000 
0.000000 -0.000000 0.000000 
0.000000 0.000000 0.000000 

0.000000 0.000000 0.000000 
0.000000 -0.000000 0.000000 
0.000000 0.000000 0.000000 

-0.000000 -0.000000 0.000000 
0.000000 -0.000000 0.000000 
0.000000 0.000000 0.000000 

-0.000000 0.000000 0.000000 
0.000000 -0.000000 0.000000 
0.000000 0.000000 0.000000 

0.000000 -0.000000 0.000000 
0.000000 0.000000 0.000000 
0.000000 0.000000 0.000000 

-0.000000 0.000000 0.000000 
0.000000 -0.000000 0.000000 
0.000000 0.000000 0.000000 

-0.000000 -0.000000 0.000000 
0.000000 -0.000000 0.000000 
0.000000 0.000000 0.000000 

-0.000000 0.000000 0.000000 
0.000000 -0.000000 0.000000 
0.000000 0.000000 0.000000 

0.000000 0.000000 0.000000 
0.000000 0.000000 0.000000 
0.000000 0.000000 0.000000 

0.000000 -0.000000 0.000000 
0.000000 0.000000 0.000000 
0.000000 0.000000 0.000000 

-0.000000 -0.000000 0.000000 
0.000000 0.000000 0.000000 
0.000000 0.000000 0.000000 

0.000000 -0.000000 0.000000 
0.000000 -0.000000 0.000000 
0.000000 0.000000 0.000000 

0.000000 -0.000000 0.000000 
0.000000 -0.000000 0.000000 
0.000000 0.000000 0.000000 

0.000000 0.000000 0.000000 
0.000000 -0.000000 0.000000 
0.000000 0.000000 0.000000 

0.000000 0.000000 0.000000 
0.000000 -0.000000 0.000000 
0.000000 0.000000 0.000000 

0.000000 -0.000000 0.000000 
0.000000 0.000000 0.000000 
0.000000 0.000000 0.000000 

-0.000000 0.000000 0.000000 
0.000000 -0.000000 0.000000 
0.000000 0.000000 0.000000 

0.000000 -0.000000 0.000000 
0.000000 -0.000000 0.000000 
0.000000 0.000000 0.000000 

0.000000 -0.000000 0.000000 
0.000000 0.000000 0.000000 
0.000000 0.000000 0.000000 

-0.000000 0.000000 0.000000 
0.000000 -0.000000 0.000000 
0.000000 0.000000 0.000000 

0.000000 -0.000000 0.000000 
0.000000 -0.000000 0.000000 
0.000000 0.000000 0.000000 

0.000000 -0.000000 0.000000 
0.000000 0.000000 0.000000 
0.000000 0.000000 0.000000 

-0.000000 0.000000 0.000000 
0.000000 -0.000000 0.000000 
0.000000 0.000000 0.000000 

-0.000000 0.000000 0.000000 
0.000000 0.000000 0.000000 
0.000000 0.000000 0.000000 

-0.000000 0.000000 0.000000 
0.000000 -0.000000 0.000000 
0.000000 0.000000 0.000000 

-0.000000 0.000000 0.000000 
0.000000 0.000000 0.000000 
0.000000 0.000000 0.000000 

-0.000000 0.000000 0.000000 
0.000000 0.000000 0.000000 
0.000000 0.000000 0.000000 

-0.000000 -0.000000 0.000000 
0.000000 0.000000 0.000000 
0.000000 0.000000 0.000000 

-0.000000 0.000000 0.000000 
0.000000 0.000000 0.000000 
0.000000 0.000000 0.000000 

-0.000000 -0.000000 0.000000 
0.000000 0.000000 0.000000 
0.000000 0.000000 0.000000 

-0.000000 0.000000 0.000000 
0.000000 -0.000000 0.000000 
0.000000 0.000000 0.000000 

-0.000000 -0.000000 0.000000 
0.000000 0.000000 0.000000 
0.000000 0.000000 0.000000 

-0.000000 0.000000 0.000000 
0.000000 -0.000000 0.000000 
0.000000 0.000000 0.000000 

-0.000000 -0.000000 0.000000 
0.000000 0.000000 0.000000 
0.000000 0.000000 0.000000 

-0.000000 -0.000000 0.000000 
0.000000 0.000000 0.000000 
0.000000 0.000000 0.000000 

-0.000000 -0.000000 0.000000 
0.000000 0.000000 0.000000 
0.000000 0.000000 0.000000 

-0.000000 -0.000000 0.000000 
0.000000 0.000000 0.000000 
0.000000 0.000000 0.000000 

-0.000000 0.000000 0.000000 
0.000000 -0.000000 0.000000 
0.000000 0.000000 0.000000 

-0.000000 -0.000000 0.000000 
0.000000 -0.000000 0.000000 
0.000000 0.000000 0.000000 

0.000000 -0.000000 0.000000 
0.000000 -0.000000 0.000000 
0.000000 0.000000 0.000000 

-0.000000 0.000000 0.000000 
0.000000 0.000000 0.000000 
0.000000 0.000000 0.000000 

-0.000000 -0.000000 0.000000 
0.000000 -0.000000 0.000000 
0.000000 0.000000 0.000000 

-0.000000 0.000000 0.000000 
0.000000 -0.000000 0.000000 
0.000000 0.000000 0.000000 

0.000000 -0.000000 0.000000 
0.000000 0.000000 0.000000 
0.000000 0.000000 0.000000 

-0.000000 -0.000000 0.000000 
0.000000 -0.000000 0.000000 
0.000000 0.000000 0.000000 

-0.000000 0.000000 0.000000 
0.000000 -0.000000 0.000000 
0.000000 0.000000 0.000000 

0.000000 0.000000 0.000000 
0.000000 -0.000000 0.000000 
0.000000 0.000000 0.000000 

-0.000000 0.000000 0.000000 
0.000000 -0.000000 0.000000 
0.000000 0.000000 0.000000 

0.000000 0.000000 0.000000 
0.000000 -0.000000 0.000000 
0.000000 0.000000 0.000000 

-0.000000 0.000000 0.000000 
0.000000 -0.000000 0.000000 
0.000000 0.000000 0.000000 

0.000000 0.000000 0.000000 
0.000000 -0.000000 0.000000 
0.000000 0.000000 0.000000 

-0.000000 0.000000 0.000000 
0.000000 -0.000000 0.000000 
0.000000 0.000000 0.000000 

-0.000000 0.000000 0.000000 
0.000000 -0.000000 0.000000 
0.000000 0.000000 0.000000 

-0.000000 0.000000 0.000000 
0.000000 -0.000000 0.000000 
0.000000 0.000000 0.000000 

-0.000000 0.000000 0.000000 
0.000000 -0.000000 0.000000 
0.000000 0.000000 0.000000 

0.000000 -0.000000 0.000000 
0.000000 0.000000 0.000000 
0.000000 0.000000 0.000000 

-0.000000 0.000000 0.000000 
0.000000 -0.000000 0.000000 
0.000000 0.000000 0.000000 

-0.000000 0.000000 0.000000 
0.000000 0.000000 0.000000 
0.000000 0.000000 0.000000 

-0.000000 0.000000 0.000000 
0.000000 -0.000000 0.000000 
0.000000 0.000000 0.000000 

-0.000000 0.000000 0.000000 
0.000000 0.000000 0.000000 
0.000000 0.000000 0.000000 

-0.000000 -0.000000 0.000000 
0.000000 0.000000 0.000000 
0.000000 0.000000 0.000000 

-0.000000 0.000000 0.000000 
0.000000 0.000000 0.000000 
0.000000 0.000000 0.000000 

-0.000000 -0.000000 0.000000 
0.000000 -0.000000 0.000000 
0.000000 0.000000 0.000000 

-0.000000 -0.000000 0.000000 
0.000000 -0.000000 0.000000 
0.000000 0.000000 0.000000 

-0.000000 0.000000 0.000000 
0.000000 0.000000 0.000000 
0.000000 0.000000 0.000000 

-0.000000 -0.000000 0.000000 
0.000000 -0.000000 0.000000 
0.000000 0.000000 0.000000 

-0.000000 -0.000000 0.000000 
0.000000 -0.000000 0.000000 
0.000000 0.000000 0.000000 

-0.000000 -0.000000 0.000000 
0.000000 -0.000000 0.000000 
0.000000 0.000000 0.000000 

-0.000000 0.000000 0.000000 
0.000000 0.000000 0.000000 
0.000000 0.000000 0.000000 

-0.000000 -0.000000 0.000000 
0.000000 0.000000 0.000000 
0.000000 0.000000 0.000000 

-0.000000 -0.000000 0.000000 
0.000000 -0.000000 0.000000 
0.000000 0.000000 0.000000 

-0.000000 -0.000000 0.000000 
0.000000 0.000000 0.000000 
0.000000 0.000000 0.000000 

-0.000000 0.000000 0.000000 
0.000000 0.000000 0.000000 
0.000000 0.000000 0.000000 

-0.000000 -0.000000 0.000000 
0.000000 0.000000 0.000000 
0.000000 0.000000 0.000000 

-0.000000 -0.000000 0.000000 
0.000000 0.000000 0.000000 
0.000000 0.000000 0.000000 

-0.000000 -0.000000 0.000000 
0.000000 0.000000 0.000000 
0.000000 0.000000 0.000000 

0.000000 -0.000000 0.000000 
0.000000 0.000000 0.000000 
0.000000 0.000000 0.000000 

0.000000 -0.000000 0.000000 
0.000000 0.000000 0.000000 
0.000000 0.000000 0.000000 

0.000000 0.000000 0.000000 
0.000000 0.000000 0.000000 
0.000000 0.000000 0.000000 

-0.000000 -0.000000 0.000000 
0.000000 0.000000 0.000000 
0.000000 0.000000 0.000000 

0.000000 -0.000000 0.000000 
0.000000 0.000000 0.000000 
0.000000 0.000000 0.000000 

-0.000000 -0.000000 0.000000 
0.000000 0.000000 0.000000 
0.000000 0.000000 0.000000 

0.000000 -0.000000 0.000000 
0.000000 0.000001 0.000000 
0.000000 0.000000 0.000000 

-0.000000 0.000000 0.000000 
0.000000 0.000000 0.000000 
0.000000 0.000000 0.000000 

-0.000000 0.000000 0.000000 
0.000000 0.000000 0.000000 
0.000000 0.000000 0.000000 

0.000000 -0.000000 0.000000 
0.000000 0.000000 0.000000 
0.000000 0.000000 0.000000 

-0.000000 -0.000000 0.000000 
0.000000 -0.000000 0.000000 
0.000000 0.000000 0.000000 

0.000000 -0.000000 0.000000 
0.000000 0.000000 0.000000 
0.000000 0.000000 0.000000 

0.000000 0.000000 0.000000 
0.000000 0.000000 0.000000 
0.000000 0.000000 0.000000 

0.000000 -0.000000 0.000000 
0.000000 -0.000000 0.000000 
0.000000 0.000000 0.000000 

-0.000000 0.000000 0.000000 
0.000000 -0.000000 0.000000 
0.000000 0.000000 0.000000 

0.000000 -0.000000 0.000000 
0.000000 0.000000 0.000000 
0.000000 0.000000 0.000000 

0.000000 -0.000000 0.000000 
0.000000 0.000000 0.000000 
0.000000 0.000000 0.000000 

-0.000000 -0.000000 0.000000 
0.000000 0.000000 0.000000 
0.000000 0.000000 0.000000 

-0.000000 -0.000000 0.000000 
0.000000 -0.000000 0.000000 
0.000000 0.000000 0.000000 

0.000000 -0.000000 0.000000 
0.000000 0.000000 0.000000 
0.000000 0.000000 0.000000 

-0.000000 -0.000000 0.000000 
0.000000 -0.000000 0.000000 
0.000000 0.000000 0.000000 

0.000000 -0.000000 0.000000 
0.000000 -0.000000 0.000000 
0.000000 0.000000 0.000000 

0.000000 0.000000 0.000000 
0.000000 -0.000000 0.000000 
0.000000 0.000000 0.000000 

0.000000 -0.000000 0.000000 
0.000000 0.000000 0.000000 
0.000000 0.000000 0.000000 

0.000000 0.000000 0.000000 
0.000000 -0.000000 0.000000 
0.000000 0.000000 0.000000 

0.000000 0.000000 0.000000 
0.000000 -0.000000 0.000000 
0.000000 0.000000 0.000000 

0.000000 0.000000 0.000000 
0.000000 -0.000000 0.000000 
0.000000 0.000000 0.000000 

0.000000 -0.000000 0.000000 
0.000000 -0.000000 0.000000 
0.000000 0.000000 0.000000 

-0.000000 -0.000000 0.000000 
0.000000 -0.000000 0.000000 
0.000000 0.000000 0.000000 

-0.000000 -0.000000 0.000000 
0.000000 -0.000000 0.000000 
0.000000 0.000000 0.000000 

-0.000000 0.000000 0.000000 
0.000000 0.000000 0.000000 
0.000000 0.000000 0.000000 

-0.000000 0.000000 0.000000 
0.000000 -0.000000 0.000000 
0.000000 0.000000 0.000000 

-0.000000 0.000000 0.000000 
0.000000 0.000000 0.000000 
0.000000 0.000000 0.000000 

0.000000 0.000000 0.000000 
0.000000 -0.000000 0.000000 
0.000000 0.000000 0.000000 

-0.000000 0.000000 0.000000 
0.000000 0.000000 0.000000 
0.000000 0.000000 0.000000 

-0.000000 0.000000 0.000000 
0.000000 0.000000 0.000000 
0.000000 0.000000 0.000000 

-0.000000 -0.000000 0.000000 
0.000000 -0.000000 0.000000 
0.000000 0.000000 0.000000 

-0.000000 0.000000 0.000000 
0.000000 0.000000 0.000000 
0.000000 0.000000 0.000000 

-0.000000 -0.000000 0.000000 
0.000000 -0.000000 0.000000 
0.000000 0.000000 0.000000 

-0.000000 -0.000000 0.000000 
0.000000 -0.000000 0.000000 
0.000000 0.000000 0.000000 

-0.000000 -0.000000 0.000000 
0.000000 0.000001 0.000000 
0.000000 0.000000 0.000000 

-0.000000 -0.000000 0.000000 
0.000000 0.000000 0.000000 
0.000000 0.000000 0.000000 

-0.000000 -0.000000 0.000000 
0.000000 -0.000000 0.000000 
0.000000 0.000000 0.000000 

0.000000 -0.000000 0.000000 
0.000000 -0.000000 0.000000 
0.000000 0.000000 0.000000 

0.000000 -0.000000 0.000000 
0.000000 -0.000000 0.000000 
0.000000 0.000000 0.000000 

-0.000000 -0.000000 0.000000 
0.000000 0.000000 0.000000 
0.000000 0.000000 0.000000 

0.000001 -0.000000 0.000000 
0.000000 0.000000 0.000000 
0.000000 0.000000 0.000000 

-0.000000 0.000000 0.000000 
0.000000 -0.000000 0.000000 
0.000000 0.000000 0.000000 

0.000001 0.000000 0.000000 
0.000000 0.000000 0.000000 
0.000000 0.000000 0.000000 

0.000000 -0.000000 0.000000 
0.000000 0.000000 0.000000 
0.000000 0.000000 0.000000 

0.000000 0.000000 0.000000 
0.000000 -0.000000 0.000000 
0.000000 0.000000 0.000000 

0.000000 0.000000 0.000000 
0.000000 0.000000 0.000000 
0.000000 0.000000 0.000000 

0.000000 0.000000 0.000000 
0.000000 0.000001 0.000000 
0.000000 0.000000 0.000000 

0.000001 0.000000 0.000000 
0.000000 0.000000 0.000000 
0.000000 0.000000 0.000000 

