# vtk DataFile Version 3.0 
vtk output 
ASCII 
DATASET UNSTRUCTURED_GRID 
POINTS 175 float 
-0.026061 -1.167229 0.000000 
-0.106992 -1.099173 0.000000 
-0.054870 -1.107406 0.000000 
-0.028809 -1.061522 0.000000 
-0.186430 -1.035098 0.000000 
-0.137056 -1.037624 0.000000 
-0.114311 -0.983977 0.000000 
-0.058186 -0.999642 0.000000 
-0.029377 -0.959465 0.000000 
-0.265318 -0.971942 0.000000 
-0.217198 -0.972742 0.000000 
-0.196633 -0.915445 0.000000 
-0.143120 -0.924154 0.000000 
-0.116563 -0.876885 0.000000 
-0.058945 -0.896531 0.000000 
-0.029568 -0.858411 0.000000 
-0.344206 -0.908786 0.000000 
-0.296791 -0.908779 0.000000 
-0.278030 -0.848836 0.000000 
-0.225992 -0.854703 0.000000 
-0.201664 -0.802585 0.000000 
-0.145749 -0.816059 0.000000 
-0.117890 -0.771717 0.000000 
-0.059328 -0.794423 0.000000 
-0.029759 -0.757357 0.000000 
-0.058559 -1.207979 0.000000 
-0.162226 -1.228822 0.000000 
-0.123292 -1.193204 0.000000 
-0.142917 -1.144221 0.000000 
-0.261851 -1.250978 0.000000 
-0.229092 -1.213951 0.000000 
-0.256854 -1.162720 0.000000 
-0.209613 -1.128607 0.000000 
-0.223062 -1.081033 0.000000 
-0.360414 -1.273279 0.000000 
-0.329787 -1.236156 0.000000 
-0.361761 -1.184354 0.000000 
-0.321587 -1.147945 0.000000 
-0.341985 -1.097711 0.000000 
-0.290702 -1.064912 0.000000 
-0.302189 -1.018177 0.000000 
-0.458977 -1.295579 0.000000 
-0.429420 -1.258504 0.000000 
-0.464588 -1.206462 0.000000 
-0.427556 -1.169435 0.000000 
-0.453135 -1.117920 0.000000 
-0.407738 -1.082605 0.000000 
-0.425037 -1.033177 0.000000 
-0.370772 -1.001547 0.000000 
-0.381315 -0.955320 0.000000 
-0.046960 -1.258795 0.000000 
-0.095301 -1.352841 0.000000 
-0.098873 -1.300193 0.000000 
-0.149405 -1.284996 0.000000 
-0.140093 -1.444545 0.000000 
-0.148617 -1.395846 0.000000 
-0.205981 -1.385609 0.000000 
-0.203197 -1.327406 0.000000 
-0.248777 -1.308259 0.000000 
-0.184111 -1.535508 0.000000 
-0.194039 -1.488417 0.000000 
-0.254475 -1.481118 0.000000 
-0.257893 -1.427008 0.000000 
-0.309886 -1.411635 0.000000 
-0.303554 -1.351090 0.000000 
-0.347255 -1.330932 0.000000 
-0.228129 -1.626472 0.000000 
-0.238687 -1.580247 0.000000 
-0.301302 -1.575295 0.000000 
-0.307162 -1.523257 0.000000 
-0.363386 -1.511136 0.000000 
-0.362692 -1.453624 0.000000 
-0.412122 -1.436331 0.000000 
-0.403017 -1.374184 0.000000 
-0.445733 -1.353605 0.000000 
-0.000000 -1.281410 0.000000 
0.043388 -1.377840 0.000000 
-0.000000 -1.347808 0.000000 
-0.043388 -1.377840 0.000000 
0.087158 -1.470037 0.000000 
0.043769 -1.446338 0.000000 
-0.000000 -1.484804 0.000000 
-0.043769 -1.446338 0.000000 
-0.087158 -1.470037 0.000000 
0.130831 -1.561166 0.000000 
0.087824 -1.539568 0.000000 
0.044436 -1.582267 0.000000 
-0.000000 -1.551202 0.000000 
-0.044436 -1.582267 0.000000 
-0.087824 -1.539568 0.000000 
-0.130831 -1.561166 0.000000 
0.174505 -1.652296 0.000000 
0.131782 -1.631730 0.000000 
0.088871 -1.677597 0.000000 
0.044532 -1.649733 0.000000 
-0.000000 -1.686133 0.000000 
-0.044532 -1.649733 0.000000 
-0.088871 -1.677597 0.000000 
-0.131782 -1.631730 0.000000 
-0.174505 -1.652296 0.000000 
0.046960 -1.258795 0.000000 
0.149405 -1.284996 0.000000 
0.098873 -1.300193 0.000000 
0.095301 -1.352841 0.000000 
0.248777 -1.308259 0.000000 
0.203197 -1.327406 0.000000 
0.205981 -1.385609 0.000000 
0.148617 -1.395846 0.000000 
0.140093 -1.444545 0.000000 
0.347255 -1.330932 0.000000 
0.303554 -1.351090 0.000000 
0.309886 -1.411635 0.000000 
0.257893 -1.427008 0.000000 
0.254475 -1.481118 0.000000 
0.194039 -1.488417 0.000000 
0.184111 -1.535508 0.000000 
0.445733 -1.353605 0.000000 
0.403017 -1.374184 0.000000 
0.412122 -1.436331 0.000000 
0.362692 -1.453624 0.000000 
0.363386 -1.511136 0.000000 
0.307162 -1.523257 0.000000 
0.301302 -1.575295 0.000000 
0.238687 -1.580247 0.000000 
0.228129 -1.626472 0.000000 
0.058559 -1.207979 0.000000 
0.142917 -1.144221 0.000000 
0.123292 -1.193204 0.000000 
0.162226 -1.228822 0.000000 
0.223062 -1.081033 0.000000 
0.209613 -1.128607 0.000000 
0.256854 -1.162720 0.000000 
0.229092 -1.213951 0.000000 
0.261851 -1.250978 0.000000 
0.302189 -1.018177 0.000000 
0.290702 -1.064912 0.000000 
0.341985 -1.097711 0.000000 
0.321587 -1.147945 0.000000 
0.361761 -1.184354 0.000000 
0.329787 -1.236156 0.000000 
0.360414 -1.273279 0.000000 
0.381315 -0.955320 0.000000 
0.370772 -1.001547 0.000000 
0.425037 -1.033177 0.000000 
0.407738 -1.082605 0.000000 
0.453135 -1.117920 0.000000 
0.427556 -1.169435 0.000000 
0.464588 -1.206462 0.000000 
0.429420 -1.258504 0.000000 
0.458977 -1.295579 0.000000 
0.026061 -1.167229 0.000000 
0.028809 -1.061522 0.000000 
0.054870 -1.107406 0.000000 
0.106992 -1.099173 0.000000 
0.029377 -0.959465 0.000000 
0.058186 -0.999642 0.000000 
0.114311 -0.983977 0.000000 
0.137056 -1.037624 0.000000 
0.186430 -1.035098 0.000000 
0.029568 -0.858411 0.000000 
0.058945 -0.896531 0.000000 
0.116563 -0.876885 0.000000 
0.143120 -0.924154 0.000000 
0.196633 -0.915445 0.000000 
0.217198 -0.972742 0.000000 
0.265318 -0.971942 0.000000 
0.029759 -0.757357 0.000000 
0.059328 -0.794423 0.000000 
0.117890 -0.771717 0.000000 
0.145749 -0.816059 0.000000 
0.201664 -0.802585 0.000000 
0.225992 -0.854703 0.000000 
0.278030 -0.848836 0.000000 
0.296791 -0.908779 0.000000 
0.344206 -0.908786 0.000000 
CELLS 175 350 
1 0 
1 1 
1 2 
1 3 
1 4 
1 5 
1 6 
1 7 
1 8 
1 9 
1 10 
1 11 
1 12 
1 13 
1 14 
1 15 
1 16 
1 17 
1 18 
1 19 
1 20 
1 21 
1 22 
1 23 
1 24 
1 25 
1 26 
1 27 
1 28 
1 29 
1 30 
1 31 
1 32 
1 33 
1 34 
1 35 
1 36 
1 37 
1 38 
1 39 
1 40 
1 41 
1 42 
1 43 
1 44 
1 45 
1 46 
1 47 
1 48 
1 49 
1 50 
1 51 
1 52 
1 53 
1 54 
1 55 
1 56 
1 57 
1 58 
1 59 
1 60 
1 61 
1 62 
1 63 
1 64 
1 65 
1 66 
1 67 
1 68 
1 69 
1 70 
1 71 
1 72 
1 73 
1 74 
1 75 
1 76 
1 77 
1 78 
1 79 
1 80 
1 81 
1 82 
1 83 
1 84 
1 85 
1 86 
1 87 
1 88 
1 89 
1 90 
1 91 
1 92 
1 93 
1 94 
1 95 
1 96 
1 97 
1 98 
1 99 
1 100 
1 101 
1 102 
1 103 
1 104 
1 105 
1 106 
1 107 
1 108 
1 109 
1 110 
1 111 
1 112 
1 113 
1 114 
1 115 
1 116 
1 117 
1 118 
1 119 
1 120 
1 121 
1 122 
1 123 
1 124 
1 125 
1 126 
1 127 
1 128 
1 129 
1 130 
1 131 
1 132 
1 133 
1 134 
1 135 
1 136 
1 137 
1 138 
1 139 
1 140 
1 141 
1 142 
1 143 
1 144 
1 145 
1 146 
1 147 
1 148 
1 149 
1 150 
1 151 
1 152 
1 153 
1 154 
1 155 
1 156 
1 157 
1 158 
1 159 
1 160 
1 161 
1 162 
1 163 
1 164 
1 165 
1 166 
1 167 
1 168 
1 169 
1 170 
1 171 
1 172 
1 173 
1 174 
CELL_TYPES 175 
1 
1 
1 
1 
1 
1 
1 
1 
1 
1 
1 
1 
1 
1 
1 
1 
1 
1 
1 
1 
1 
1 
1 
1 
1 
1 
1 
1 
1 
1 
1 
1 
1 
1 
1 
1 
1 
1 
1 
1 
1 
1 
1 
1 
1 
1 
1 
1 
1 
1 
1 
1 
1 
1 
1 
1 
1 
1 
1 
1 
1 
1 
1 
1 
1 
1 
1 
1 
1 
1 
1 
1 
1 
1 
1 
1 
1 
1 
1 
1 
1 
1 
1 
1 
1 
1 
1 
1 
1 
1 
1 
1 
1 
1 
1 
1 
1 
1 
1 
1 
1 
1 
1 
1 
1 
1 
1 
1 
1 
1 
1 
1 
1 
1 
1 
1 
1 
1 
1 
1 
1 
1 
1 
1 
1 
1 
1 
1 
1 
1 
1 
1 
1 
1 
1 
1 
1 
1 
1 
1 
1 
1 
1 
1 
1 
1 
1 
1 
1 
1 
1 
1 
1 
1 
1 
1 
1 
1 
1 
1 
1 
1 
1 
1 
1 
1 
1 
1 
1 
1 
1 
1 
1 
1 
1 
POINT_DATA 175 
VECTORS X_GC float 
-0.026061 -1.167229 0.000000 
-0.106992 -1.099173 0.000000 
-0.054870 -1.107406 0.000000 
-0.028809 -1.061522 0.000000 
-0.186430 -1.035098 0.000000 
-0.137056 -1.037624 0.000000 
-0.114311 -0.983977 0.000000 
-0.058186 -0.999642 0.000000 
-0.029377 -0.959465 0.000000 
-0.265318 -0.971942 0.000000 
-0.217198 -0.972742 0.000000 
-0.196633 -0.915445 0.000000 
-0.143120 -0.924154 0.000000 
-0.116563 -0.876885 0.000000 
-0.058945 -0.896531 0.000000 
-0.029568 -0.858411 0.000000 
-0.344206 -0.908786 0.000000 
-0.296791 -0.908779 0.000000 
-0.278030 -0.848836 0.000000 
-0.225992 -0.854703 0.000000 
-0.201664 -0.802585 0.000000 
-0.145749 -0.816059 0.000000 
-0.117890 -0.771717 0.000000 
-0.059328 -0.794423 0.000000 
-0.029759 -0.757357 0.000000 
-0.058559 -1.207979 0.000000 
-0.162226 -1.228822 0.000000 
-0.123292 -1.193204 0.000000 
-0.142917 -1.144221 0.000000 
-0.261851 -1.250978 0.000000 
-0.229092 -1.213951 0.000000 
-0.256854 -1.162720 0.000000 
-0.209613 -1.128607 0.000000 
-0.223062 -1.081033 0.000000 
-0.360414 -1.273279 0.000000 
-0.329787 -1.236156 0.000000 
-0.361761 -1.184354 0.000000 
-0.321587 -1.147945 0.000000 
-0.341985 -1.097711 0.000000 
-0.290702 -1.064912 0.000000 
-0.302189 -1.018177 0.000000 
-0.458977 -1.295579 0.000000 
-0.429420 -1.258504 0.000000 
-0.464588 -1.206462 0.000000 
-0.427556 -1.169435 0.000000 
-0.453135 -1.117920 0.000000 
-0.407738 -1.082605 0.000000 
-0.425037 -1.033177 0.000000 
-0.370772 -1.001547 0.000000 
-0.381315 -0.955320 0.000000 
-0.046960 -1.258795 0.000000 
-0.095301 -1.352841 0.000000 
-0.098873 -1.300193 0.000000 
-0.149405 -1.284996 0.000000 
-0.140093 -1.444545 0.000000 
-0.148617 -1.395846 0.000000 
-0.205981 -1.385609 0.000000 
-0.203197 -1.327406 0.000000 
-0.248777 -1.308259 0.000000 
-0.184111 -1.535508 0.000000 
-0.194039 -1.488417 0.000000 
-0.254475 -1.481118 0.000000 
-0.257893 -1.427008 0.000000 
-0.309886 -1.411635 0.000000 
-0.303554 -1.351090 0.000000 
-0.347255 -1.330932 0.000000 
-0.228129 -1.626472 0.000000 
-0.238687 -1.580247 0.000000 
-0.301302 -1.575295 0.000000 
-0.307162 -1.523257 0.000000 
-0.363386 -1.511136 0.000000 
-0.362692 -1.453624 0.000000 
-0.412122 -1.436331 0.000000 
-0.403017 -1.374184 0.000000 
-0.445733 -1.353605 0.000000 
-0.000000 -1.281410 0.000000 
0.043388 -1.377840 0.000000 
-0.000000 -1.347808 0.000000 
-0.043388 -1.377840 0.000000 
0.087158 -1.470037 0.000000 
0.043769 -1.446338 0.000000 
-0.000000 -1.484804 0.000000 
-0.043769 -1.446338 0.000000 
-0.087158 -1.470037 0.000000 
0.130831 -1.561166 0.000000 
0.087824 -1.539568 0.000000 
0.044436 -1.582267 0.000000 
-0.000000 -1.551202 0.000000 
-0.044436 -1.582267 0.000000 
-0.087824 -1.539568 0.000000 
-0.130831 -1.561166 0.000000 
0.174505 -1.652296 0.000000 
0.131782 -1.631730 0.000000 
0.088871 -1.677597 0.000000 
0.044532 -1.649733 0.000000 
-0.000000 -1.686133 0.000000 
-0.044532 -1.649733 0.000000 
-0.088871 -1.677597 0.000000 
-0.131782 -1.631730 0.000000 
-0.174505 -1.652296 0.000000 
0.046960 -1.258795 0.000000 
0.149405 -1.284996 0.000000 
0.098873 -1.300193 0.000000 
0.095301 -1.352841 0.000000 
0.248777 -1.308259 0.000000 
0.203197 -1.327406 0.000000 
0.205981 -1.385609 0.000000 
0.148617 -1.395846 0.000000 
0.140093 -1.444545 0.000000 
0.347255 -1.330932 0.000000 
0.303554 -1.351090 0.000000 
0.309886 -1.411635 0.000000 
0.257893 -1.427008 0.000000 
0.254475 -1.481118 0.000000 
0.194039 -1.488417 0.000000 
0.184111 -1.535508 0.000000 
0.445733 -1.353605 0.000000 
0.403017 -1.374184 0.000000 
0.412122 -1.436331 0.000000 
0.362692 -1.453624 0.000000 
0.363386 -1.511136 0.000000 
0.307162 -1.523257 0.000000 
0.301302 -1.575295 0.000000 
0.238687 -1.580247 0.000000 
0.228129 -1.626472 0.000000 
0.058559 -1.207979 0.000000 
0.142917 -1.144221 0.000000 
0.123292 -1.193204 0.000000 
0.162226 -1.228822 0.000000 
0.223062 -1.081033 0.000000 
0.209613 -1.128607 0.000000 
0.256854 -1.162720 0.000000 
0.229092 -1.213951 0.000000 
0.261851 -1.250978 0.000000 
0.302189 -1.018177 0.000000 
0.290702 -1.064912 0.000000 
0.341985 -1.097711 0.000000 
0.321587 -1.147945 0.000000 
0.361761 -1.184354 0.000000 
0.329787 -1.236156 0.000000 
0.360414 -1.273279 0.000000 
0.381315 -0.955320 0.000000 
0.370772 -1.001547 0.000000 
0.425037 -1.033177 0.000000 
0.407738 -1.082605 0.000000 
0.453135 -1.117920 0.000000 
0.427556 -1.169435 0.000000 
0.464588 -1.206462 0.000000 
0.429420 -1.258504 0.000000 
0.458977 -1.295579 0.000000 
0.026061 -1.167229 0.000000 
0.028809 -1.061522 0.000000 
0.054870 -1.107406 0.000000 
0.106992 -1.099173 0.000000 
0.029377 -0.959465 0.000000 
0.058186 -0.999642 0.000000 
0.114311 -0.983977 0.000000 
0.137056 -1.037624 0.000000 
0.186430 -1.035098 0.000000 
0.029568 -0.858411 0.000000 
0.058945 -0.896531 0.000000 
0.116563 -0.876885 0.000000 
0.143120 -0.924154 0.000000 
0.196633 -0.915445 0.000000 
0.217198 -0.972742 0.000000 
0.265318 -0.971942 0.000000 
0.029759 -0.757357 0.000000 
0.059328 -0.794423 0.000000 
0.117890 -0.771717 0.000000 
0.145749 -0.816059 0.000000 
0.201664 -0.802585 0.000000 
0.225992 -0.854703 0.000000 
0.278030 -0.848836 0.000000 
0.296791 -0.908779 0.000000 
0.344206 -0.908786 0.000000 
VECTORS X_EC float 
0.338794 0.257587 0.000000 
-0.609100 -0.661161 0.000000 
0.713312 -0.550021 0.000000 
0.374519 0.830550 0.000000 
0.423588 0.473819 0.000000 
-0.218274 0.507923 0.000000 
-0.513962 -0.216316 0.000000 
0.756418 -0.004830 0.000000 
0.381900 -0.547222 0.000000 
-0.550868 -0.378784 0.000000 
0.823577 -0.367988 0.000000 
0.556234 0.858508 0.000000 
-0.139443 0.976076 0.000000 
-0.484677 0.337952 0.000000 
0.766286 0.603167 0.000000 
0.384386 0.088547 0.000000 
0.474677 0.768613 0.000000 
-0.141715 0.768517 0.000000 
-0.385608 -0.040712 0.000000 
0.937896 0.038484 0.000000 
0.621631 -0.665096 0.000000 
-0.105264 -0.483197 0.000000 
-0.467428 0.918177 0.000000 
0.771260 -0.775295 0.000000 
0.386873 0.724316 0.000000 
0.761262 0.807722 0.000000 
0.108942 -0.910902 0.000000 
-0.397202 0.608259 0.000000 
-0.142083 -0.053016 0.000000 
-0.595936 -0.611791 0.000000 
0.978194 0.888343 0.000000 
-0.660903 0.196718 0.000000 
0.724964 -0.263802 0.000000 
0.899809 -0.906051 0.000000 
0.685384 -0.310739 0.000000 
0.287229 -0.811897 0.000000 
0.702895 0.488774 0.000000 
0.180633 -0.002745 0.000000 
0.445811 -0.680904 0.000000 
-0.220880 0.876310 0.000000 
-0.071546 0.245384 0.000000 
-0.033296 -0.009687 0.000000 
-0.417537 -0.510196 0.000000 
0.039645 0.787241 0.000000 
-0.441768 0.287370 0.000000 
-0.109248 -0.408081 0.000000 
-0.699407 -0.884836 0.000000 
-0.474522 0.447884 0.000000 
0.820030 0.020891 0.000000 
0.957100 -0.603181 0.000000 
0.610485 -0.506272 0.000000 
-0.761092 0.763347 0.000000 
-0.714655 0.052610 0.000000 
-0.057734 -0.152557 0.000000 
-0.178789 0.001351 0.000000 
-0.067979 -0.656075 0.000000 
0.677748 -0.794278 0.000000 
0.641556 0.419977 0.000000 
-0.765897 0.161498 0.000000 
0.393446 -0.770639 0.000000 
0.522510 0.593631 0.000000 
-0.691820 0.495086 0.000000 
-0.647393 -0.235396 0.000000 
0.028512 -0.442923 0.000000 
-0.053800 0.739717 0.000000 
0.514316 0.467586 0.000000 
0.965681 0.457370 0.000000 
-0.897068 -0.166659 0.000000 
-0.083078 -0.233512 0.000000 
-0.006893 -0.936037 0.000000 
0.724017 0.900330 0.000000 
0.714996 0.123927 0.000000 
-0.642413 -0.109531 0.000000 
-0.760780 -0.948511 0.000000 
-0.205471 0.773674 0.000000 
0.000000 -0.200970 0.000000 
-0.564049 -0.899158 0.000000 
0.000000 0.695406 0.000000 
0.564049 -0.899158 0.000000 
0.866949 0.345498 0.000000 
-0.569003 0.025566 0.000000 
0.000000 0.544855 0.000000 
0.569003 0.025566 0.000000 
-0.866949 0.345498 0.000000 
0.299194 -0.424252 0.000000 
0.858290 -0.715836 0.000000 
-0.577662 -0.139390 0.000000 
0.000000 -0.558768 0.000000 
0.577662 -0.139390 0.000000 
-0.858290 -0.715836 0.000000 
-0.299194 -0.424252 0.000000 
-0.268560 0.805998 0.000000 
0.286830 0.528356 0.000000 
0.844677 -0.852446 0.000000 
-0.578910 0.771392 0.000000 
0.000000 -0.737204 0.000000 
0.578910 0.771392 0.000000 
-0.844677 -0.852446 0.000000 
-0.286830 0.528356 0.000000 
0.268560 0.805998 0.000000 
-0.610485 -0.506272 0.000000 
0.057734 -0.152557 0.000000 
0.714655 0.052610 0.000000 
0.761092 0.763347 0.000000 
0.765897 0.161498 0.000000 
-0.641556 0.419977 0.000000 
-0.677748 -0.794278 0.000000 
0.067979 -0.656075 0.000000 
0.178789 0.001351 0.000000 
-0.514316 0.467586 0.000000 
0.053800 0.739717 0.000000 
-0.028512 -0.442923 0.000000 
0.647393 -0.235396 0.000000 
0.691820 0.495086 0.000000 
-0.522510 0.593631 0.000000 
-0.393446 -0.770639 0.000000 
0.205471 0.773674 0.000000 
0.760780 -0.948511 0.000000 
0.642413 -0.109531 0.000000 
-0.714996 0.123927 0.000000 
-0.724017 0.900330 0.000000 
0.006894 -0.936037 0.000000 
0.083078 -0.233512 0.000000 
0.897068 -0.166659 0.000000 
-0.965681 0.457370 0.000000 
-0.761262 0.807722 0.000000 
0.142083 -0.053016 0.000000 
0.397202 0.608259 0.000000 
-0.108942 -0.910902 0.000000 
-0.899809 -0.906051 0.000000 
-0.724964 -0.263802 0.000000 
0.660903 0.196718 0.000000 
-0.978194 0.888343 0.000000 
0.595936 -0.611791 0.000000 
0.071546 0.245384 0.000000 
0.220880 0.876310 0.000000 
-0.445811 -0.680904 0.000000 
-0.180633 -0.002745 0.000000 
-0.702895 0.488774 0.000000 
-0.287229 -0.811897 0.000000 
-0.685384 -0.310739 0.000000 
-0.957100 -0.603181 0.000000 
-0.820030 0.020891 0.000000 
0.474522 0.447884 0.000000 
0.699407 -0.884836 0.000000 
0.109248 -0.408081 0.000000 
0.441768 0.287370 0.000000 
-0.039645 0.787241 0.000000 
0.417537 -0.510196 0.000000 
0.033296 -0.009687 0.000000 
-0.338794 0.257587 0.000000 
-0.374519 0.830550 0.000000 
-0.713312 -0.550021 0.000000 
0.609100 -0.661161 0.000000 
-0.381900 -0.547222 0.000000 
-0.756418 -0.004830 0.000000 
0.513962 -0.216316 0.000000 
0.218274 0.507923 0.000000 
-0.423588 0.473819 0.000000 
-0.384386 0.088547 0.000000 
-0.766286 0.603167 0.000000 
0.484677 0.337952 0.000000 
0.139443 0.976076 0.000000 
-0.556234 0.858508 0.000000 
-0.823577 -0.367988 0.000000 
0.550868 -0.378784 0.000000 
-0.386873 0.724316 0.000000 
-0.771260 -0.775295 0.000000 
0.467428 0.918177 0.000000 
0.105264 -0.483197 0.000000 
-0.621631 -0.665096 0.000000 
-0.937896 0.038484 0.000000 
0.385608 -0.040712 0.000000 
0.141715 0.768517 0.000000 
-0.474677 0.768613 0.000000 
CELL_DATA 175 
SCALARS MASS float 
LOOKUP_TABLE default 
0.781831 
0.864274 
0.946717 
0.864274 
0.881307 
0.921110 
0.858535 
0.921110 
0.881307 
0.887046 
0.910001 
0.869829 
0.915556 
0.869829 
0.910001 
0.887046 
0.892784 
0.915740 
0.892784 
0.927218 
0.892784 
0.927218 
0.892784 
0.915740 
0.892784 
0.781831 
0.864274 
0.946717 
0.864274 
0.881307 
0.921110 
0.858535 
0.921110 
0.881307 
0.887046 
0.910001 
0.869829 
0.915556 
0.869829 
0.910001 
0.887046 
0.892784 
0.915740 
0.892784 
0.927218 
0.892784 
0.927218 
0.892784 
0.915740 
0.892784 
0.781831 
0.864274 
0.946717 
0.864274 
0.881307 
0.921110 
0.858535 
0.921110 
0.881307 
0.887046 
0.910001 
0.869829 
0.915556 
0.869829 
0.910001 
0.887046 
0.892784 
0.915740 
0.892784 
0.927218 
0.892784 
0.927218 
0.892784 
0.915740 
0.892784 
0.781831 
0.864274 
0.946717 
0.864274 
0.881307 
0.921110 
0.858535 
0.921110 
0.881307 
0.887046 
0.910001 
0.869829 
0.915556 
0.869829 
0.910001 
0.887046 
0.892784 
0.915740 
0.892784 
0.927218 
0.892784 
0.927218 
0.892784 
0.915740 
0.892784 
0.781831 
0.864274 
0.946717 
0.864274 
0.881307 
0.921110 
0.858535 
0.921110 
0.881307 
0.887046 
0.910001 
0.869829 
0.915556 
0.869829 
0.910001 
0.887046 
0.892784 
0.915740 
0.892784 
0.927218 
0.892784 
0.927218 
0.892784 
0.915740 
0.892784 
0.781831 
0.864274 
0.946717 
0.864274 
0.881307 
0.921110 
0.858535 
0.921110 
0.881307 
0.887046 
0.910001 
0.869829 
0.915556 
0.869829 
0.910001 
0.887046 
0.892784 
0.915740 
0.892784 
0.927218 
0.892784 
0.927218 
0.892784 
0.915740 
0.892784 
0.781831 
0.864274 
0.946717 
0.864274 
0.881307 
0.921110 
0.858535 
0.921110 
0.881307 
0.887046 
0.910001 
0.869829 
0.915556 
0.869829 
0.910001 
0.887046 
0.892784 
0.915740 
0.892784 
0.927218 
0.892784 
0.927218 
0.892784 
0.915740 
0.892784 
SCALARS MASS float 
LOOKUP_TABLE default 
0.781831 
0.864274 
0.946717 
0.864274 
0.881307 
0.921110 
0.858535 
0.921110 
0.881307 
0.887046 
0.910001 
0.869829 
0.915556 
0.869829 
0.910001 
0.887046 
0.892784 
0.915740 
0.892784 
0.927218 
0.892784 
0.927218 
0.892784 
0.915740 
0.892784 
0.781831 
0.864274 
0.946717 
0.864274 
0.881307 
0.921110 
0.858535 
0.921110 
0.881307 
0.887046 
0.910001 
0.869829 
0.915556 
0.869829 
0.910001 
0.887046 
0.892784 
0.915740 
0.892784 
0.927218 
0.892784 
0.927218 
0.892784 
0.915740 
0.892784 
0.781831 
0.864274 
0.946717 
0.864274 
0.881307 
0.921110 
0.858535 
0.921110 
0.881307 
0.887046 
0.910001 
0.869829 
0.915556 
0.869829 
0.910001 
0.887046 
0.892784 
0.915740 
0.892784 
0.927218 
0.892784 
0.927218 
0.892784 
0.915740 
0.892784 
0.781831 
0.864274 
0.946717 
0.864274 
0.881307 
0.921110 
0.858535 
0.921110 
0.881307 
0.887046 
0.910001 
0.869829 
0.915556 
0.869829 
0.910001 
0.887046 
0.892784 
0.915740 
0.892784 
0.927218 
0.892784 
0.927218 
0.892784 
0.915740 
0.892784 
0.781831 
0.864274 
0.946717 
0.864274 
0.881307 
0.921110 
0.858535 
0.921110 
0.881307 
0.887046 
0.910001 
0.869829 
0.915556 
0.869829 
0.910001 
0.887046 
0.892784 
0.915740 
0.892784 
0.927218 
0.892784 
0.927218 
0.892784 
0.915740 
0.892784 
0.781831 
0.864274 
0.946717 
0.864274 
0.881307 
0.921110 
0.858535 
0.921110 
0.881307 
0.887046 
0.910001 
0.869829 
0.915556 
0.869829 
0.910001 
0.887046 
0.892784 
0.915740 
0.892784 
0.927218 
0.892784 
0.927218 
0.892784 
0.915740 
0.892784 
0.781831 
0.864274 
0.946717 
0.864274 
0.881307 
0.921110 
0.858535 
0.921110 
0.881307 
0.887046 
0.910001 
0.869829 
0.915556 
0.869829 
0.910001 
0.887046 
0.892784 
0.915740 
0.892784 
0.927218 
0.892784 
0.927218 
0.892784 
0.915740 
0.892784 
SCALARS DENSITY float 
LOOKUP_TABLE default 
200.000000 
200.000000 
200.000000 
200.000000 
200.000000 
200.000000 
200.000000 
200.000000 
200.000000 
200.000000 
200.000000 
200.000000 
200.000000 
200.000000 
200.000000 
200.000000 
200.000000 
200.000000 
200.000000 
200.000000 
200.000000 
200.000000 
200.000000 
200.000000 
200.000000 
200.000000 
200.000000 
200.000000 
200.000000 
200.000000 
200.000000 
200.000000 
200.000000 
200.000000 
200.000000 
200.000000 
200.000000 
200.000000 
200.000000 
200.000000 
200.000000 
200.000000 
200.000000 
200.000000 
200.000000 
200.000000 
200.000000 
200.000000 
200.000000 
200.000000 
200.000000 
200.000000 
200.000000 
200.000000 
200.000000 
200.000000 
200.000000 
200.000000 
200.000000 
200.000000 
200.000000 
200.000000 
200.000000 
200.000000 
200.000000 
200.000000 
200.000000 
200.000000 
200.000000 
200.000000 
200.000000 
200.000000 
200.000000 
200.000000 
200.000000 
200.000000 
200.000000 
200.000000 
200.000000 
200.000000 
200.000000 
200.000000 
200.000000 
200.000000 
200.000000 
200.000000 
200.000000 
200.000000 
200.000000 
200.000000 
200.000000 
200.000000 
200.000000 
200.000000 
200.000000 
200.000000 
200.000000 
200.000000 
200.000000 
200.000000 
200.000000 
200.000000 
200.000000 
200.000000 
200.000000 
200.000000 
200.000000 
200.000000 
200.000000 
200.000000 
200.000000 
200.000000 
200.000000 
200.000000 
200.000000 
200.000000 
200.000000 
200.000000 
200.000000 
200.000000 
200.000000 
200.000000 
200.000000 
200.000000 
200.000000 
200.000000 
200.000000 
200.000000 
200.000000 
200.000000 
200.000000 
200.000000 
200.000000 
200.000000 
200.000000 
200.000000 
200.000000 
200.000000 
200.000000 
200.000000 
200.000000 
200.000000 
200.000000 
200.000000 
200.000000 
200.000000 
200.000000 
200.000000 
200.000000 
200.000000 
200.000000 
200.000000 
200.000000 
200.000000 
200.000000 
200.000000 
200.000000 
200.000000 
200.000000 
200.000000 
200.000000 
200.000000 
200.000000 
200.000000 
200.000000 
200.000000 
200.000000 
200.000000 
200.000000 
200.000000 
200.000000 
200.000000 
200.000000 
200.000000 
200.000000 
SCALARS ELEM_i float 
LOOKUP_TABLE default 
174 
201 
174 
175 
202 
202 
202 
175 
175 
229 
202 
203 
203 
203 
176 
176 
230 
230 
230 
203 
203 
203 
204 
176 
177 
174 
200 
201 
201 
227 
201 
228 
201 
201 
227 
227 
228 
228 
228 
229 
229 
254 
254 
255 
255 
255 
255 
256 
229 
229 
173 
200 
200 
200 
199 
199 
199 
200 
227 
198 
199 
226 
226 
226 
227 
227 
198 
225 
225 
225 
226 
226 
253 
253 
254 
173 
172 
173 
172 
145 
172 
172 
172 
199 
144 
144 
171 
171 
171 
198 
198 
144 
144 
143 
171 
170 
171 
197 
198 
198 
173 
146 
146 
146 
119 
146 
145 
145 
145 
119 
119 
118 
118 
118 
145 
144 
92 
91 
91 
118 
118 
117 
117 
117 
144 
174 
147 
147 
146 
147 
147 
120 
147 
119 
121 
121 
120 
120 
120 
119 
119 
121 
121 
94 
93 
93 
93 
93 
92 
92 
174 
175 
174 
147 
175 
175 
148 
148 
148 
176 
176 
149 
149 
149 
148 
121 
177 
176 
150 
149 
149 
149 
122 
122 
122 
VECTORS VELOCITY float 
-0.000000 -4.885380 0.000000 
-0.000000 -4.885380 0.000000 
-0.000000 -4.885380 0.000000 
-0.000000 -4.885380 0.000000 
-0.000000 -4.885380 0.000000 
0.000000 -4.885380 0.000000 
0.000000 -4.885380 0.000000 
0.000000 -4.885380 0.000000 
0.000000 -4.885380 0.000000 
0.000000 -4.885380 0.000000 
0.000000 -4.885380 0.000000 
0.000000 -4.885380 0.000000 
0.000000 -4.885380 0.000000 
-0.000000 -4.885380 0.000000 
-0.000000 -4.885380 0.000000 
0.000000 -4.885380 0.000000 
-0.000000 -4.885380 0.000000 
-0.000000 -4.885380 0.000000 
-0.000000 -4.885380 0.000000 
0.000000 -4.885380 0.000000 
0.000000 -4.885380 0.000000 
0.000000 -4.885380 0.000000 
-0.000000 -4.885380 0.000000 
-0.000000 -4.885380 0.000000 
-0.000000 -4.885380 0.000000 
-0.000000 -4.885380 0.000000 
-0.000000 -4.885380 0.000000 
-0.000000 -4.885380 0.000000 
-0.000000 -4.885380 0.000000 
-0.000000 -4.885380 0.000000 
-0.000000 -4.885380 0.000000 
-0.000000 -4.885380 0.000000 
-0.000000 -4.885380 0.000000 
-0.000000 -4.885380 0.000000 
0.000000 -4.885380 0.000000 
0.000000 -4.885380 0.000000 
0.000000 -4.885380 0.000000 
0.000000 -4.885380 0.000000 
0.000000 -4.885380 0.000000 
-0.000000 -4.885380 0.000000 
0.000000 -4.885380 0.000000 
0.000000 -4.885380 0.000000 
0.000000 -4.885380 0.000000 
-0.000000 -4.885380 0.000000 
0.000000 -4.885380 0.000000 
0.000000 -4.885380 0.000000 
0.000000 -4.885380 0.000000 
-0.000000 -4.885380 0.000000 
0.000000 -4.885380 0.000000 
0.000000 -4.885380 0.000000 
-0.000000 -4.885380 0.000000 
-0.000000 -4.885380 0.000000 
0.000000 -4.885380 0.000000 
-0.000000 -4.885380 0.000000 
-0.000000 -4.885380 0.000000 
0.000000 -4.885380 0.000000 
0.000000 -4.885380 0.000000 
0.000000 -4.885380 0.000000 
0.000000 -4.885380 0.000000 
0.000000 -4.885380 0.000000 
0.000000 -4.885380 0.000000 
-0.000000 -4.885380 0.000000 
0.000000 -4.885380 0.000000 
0.000000 -4.885380 0.000000 
0.000000 -4.885380 0.000000 
-0.000000 -4.885380 0.000000 
-0.000000 -4.885380 0.000000 
-0.000000 -4.885380 0.000000 
-0.000000 -4.885380 0.000000 
-0.000000 -4.885380 0.000000 
-0.000000 -4.885380 0.000000 
0.000000 -4.885380 0.000000 
-0.000000 -4.885380 0.000000 
-0.000000 -4.885380 0.000000 
-0.000000 -4.885380 0.000000 
-0.000000 -4.885380 0.000000 
-0.000000 -4.885380 0.000000 
-0.000000 -4.885380 0.000000 
-0.000000 -4.885380 0.000000 
0.000000 -4.885380 0.000000 
-0.000000 -4.885380 0.000000 
0.000000 -4.885380 0.000000 
-0.000000 -4.885380 0.000000 
-0.000000 -4.885380 0.000000 
-0.000000 -4.885380 0.000000 
-0.000000 -4.885380 0.000000 
-0.000000 -4.885380 0.000000 
0.000000 -4.885380 0.000000 
0.000000 -4.885380 0.000000 
0.000000 -4.885380 0.000000 
0.000000 -4.885380 0.000000 
-0.000000 -4.885380 0.000000 
-0.000000 -4.885380 0.000000 
0.000000 -4.885380 0.000000 
0.000000 -4.885380 0.000000 
0.000000 -4.885380 0.000000 
0.000000 -4.885380 0.000000 
0.000000 -4.885380 0.000000 
-0.000000 -4.885380 0.000000 
-0.000000 -4.885380 0.000000 
-0.000000 -4.885380 0.000000 
0.000000 -4.885380 0.000000 
-0.000000 -4.885380 0.000000 
0.000000 -4.885380 0.000000 
0.000000 -4.885380 0.000000 
0.000000 -4.885380 0.000000 
0.000000 -4.885380 0.000000 
0.000000 -4.885380 0.000000 
0.000000 -4.885380 0.000000 
0.000000 -4.885380 0.000000 
0.000000 -4.885380 0.000000 
0.000000 -4.885380 0.000000 
0.000000 -4.885380 0.000000 
-0.000000 -4.885380 0.000000 
0.000000 -4.885380 0.000000 
-0.000000 -4.885380 0.000000 
-0.000000 -4.885380 0.000000 
0.000000 -4.885380 0.000000 
0.000000 -4.885380 0.000000 
0.000000 -4.885380 0.000000 
-0.000000 -4.885380 0.000000 
-0.000000 -4.885380 0.000000 
-0.000000 -4.885380 0.000000 
-0.000000 -4.885380 0.000000 
0.000000 -4.885380 0.000000 
0.000000 -4.885380 0.000000 
0.000000 -4.885380 0.000000 
0.000000 -4.885380 0.000000 
0.000000 -4.885380 0.000000 
0.000000 -4.885380 0.000000 
-0.000000 -4.885380 0.000000 
-0.000000 -4.885380 0.000000 
-0.000000 -4.885380 0.000000 
0.000000 -4.885380 0.000000 
0.000000 -4.885380 0.000000 
0.000000 -4.885380 0.000000 
-0.000000 -4.885380 0.000000 
-0.000000 -4.885380 0.000000 
-0.000000 -4.885380 0.000000 
-0.000000 -4.885380 0.000000 
0.000000 -4.885380 0.000000 
0.000000 -4.885380 0.000000 
-0.000000 -4.885380 0.000000 
0.000000 -4.885380 0.000000 
0.000000 -4.885380 0.000000 
0.000000 -4.885380 0.000000 
-0.000000 -4.885380 0.000000 
-0.000000 -4.885380 0.000000 
0.000000 -4.885380 0.000000 
0.000000 -4.885380 0.000000 
0.000000 -4.885380 0.000000 
-0.000000 -4.885380 0.000000 
-0.000000 -4.885380 0.000000 
-0.000000 -4.885380 0.000000 
-0.000000 -4.885380 0.000000 
-0.000000 -4.885380 0.000000 
-0.000000 -4.885380 0.000000 
-0.000000 -4.885380 0.000000 
0.000000 -4.885380 0.000000 
0.000000 -4.885380 0.000000 
0.000000 -4.885380 0.000000 
0.000000 -4.885380 0.000000 
-0.000000 -4.885380 0.000000 
-0.000000 -4.885380 0.000000 
-0.000000 -4.885380 0.000000 
-0.000000 -4.885380 0.000000 
-0.000000 -4.885380 0.000000 
0.000000 -4.885380 0.000000 
0.000000 -4.885380 0.000000 
0.000000 -4.885380 0.000000 
0.000000 -4.885380 0.000000 
0.000000 -4.885380 0.000000 
-0.000000 -4.885380 0.000000 
-0.000000 -4.885380 0.000000 
0.000000 -4.885380 0.000000 
TENSORS STRESS float 
-0.000000 0.000000 0.000000 
0.000000 0.000000 0.000000 
0.000000 0.000000 0.000000 

-0.000000 0.000000 0.000000 
0.000000 -0.000000 0.000000 
0.000000 0.000000 0.000000 

0.000000 -0.000000 0.000000 
0.000000 0.000000 0.000000 
0.000000 0.000000 0.000000 

-0.000000 0.000000 0.000000 
0.000000 -0.000000 0.000000 
0.000000 0.000000 0.000000 

-0.000000 0.000000 0.000000 
0.000000 -0.000000 0.000000 
0.000000 0.000000 0.000000 

-0.000000 -0.000000 0.000000 
0.000000 -0.000000 0.000000 
0.000000 0.000000 0.000000 

-0.000000 -0.000000 0.000000 
0.000000 -0.000000 0.000000 
0.000000 0.000000 0.000000 

0.000000 -0.000000 0.000000 
0.000000 0.000000 0.000000 
0.000000 0.000000 0.000000 

-0.000000 -0.000000 0.000000 
0.000000 -0.000000 0.000000 
0.000000 0.000000 0.000000 

0.000000 -0.000000 0.000000 
0.000000 0.000000 0.000000 
0.000000 0.000000 0.000000 

0.000000 0.000000 0.000000 
0.000000 0.000000 0.000000 
0.000000 0.000000 0.000000 

0.000000 0.000000 0.000000 
0.000000 0.000000 0.000000 
0.000000 0.000000 0.000000 

0.000000 -0.000000 0.000000 
0.000000 0.000000 0.000000 
0.000000 0.000000 0.000000 

0.000000 -0.000000 0.000000 
0.000000 0.000000 0.000000 
0.000000 0.000000 0.000000 

0.000000 -0.000000 0.000000 
0.000000 0.000000 0.000000 
0.000000 0.000000 0.000000 

0.000000 0.000000 0.000000 
0.000000 0.000000 0.000000 
0.000000 0.000000 0.000000 

-0.000000 -0.000000 0.000000 
0.000000 -0.000000 0.000000 
0.000000 0.000000 0.000000 

-0.000000 -0.000000 0.000000 
0.000000 -0.000000 0.000000 
0.000000 0.000000 0.000000 

-0.000000 0.000000 0.000000 
0.000000 -0.000000 0.000000 
0.000000 0.000000 0.000000 

-0.000000 -0.000000 0.000000 
0.000000 0.000000 0.000000 
0.000000 0.000000 0.000000 

-0.000000 0.000000 0.000000 
0.000000 -0.000000 0.000000 
0.000000 0.000000 0.000000 

-0.000000 0.000000 0.000000 
0.000000 -0.000000 0.000000 
0.000000 0.000000 0.000000 

-0.000000 0.000000 0.000000 
0.000000 -0.000000 0.000000 
0.000000 0.000000 0.000000 

0.000000 0.000000 0.000000 
0.000000 0.000000 0.000000 
0.000000 0.000000 0.000000 

-0.000000 0.000000 0.000000 
0.000000 -0.000000 0.000000 
0.000000 0.000000 0.000000 

-0.000000 0.000000 0.000000 
0.000000 -0.000000 0.000000 
0.000000 0.000000 0.000000 

-0.000000 -0.000000 0.000000 
0.000000 -0.000000 0.000000 
0.000000 0.000000 0.000000 

-0.000000 -0.000000 0.000000 
0.000000 -0.000000 0.000000 
0.000000 0.000000 0.000000 

0.000000 0.000000 0.000000 
0.000000 -0.000000 0.000000 
0.000000 0.000000 0.000000 

0.000000 -0.000000 0.000000 
0.000000 0.000000 0.000000 
0.000000 0.000000 0.000000 

0.000000 -0.000000 0.000000 
0.000000 0.000000 0.000000 
0.000000 0.000000 0.000000 

-0.000000 0.000000 0.000000 
0.000000 -0.000000 0.000000 
0.000000 0.000000 0.000000 

0.000000 0.000000 0.000000 
0.000000 0.000000 0.000000 
0.000000 0.000000 0.000000 

0.000000 0.000000 0.000000 
0.000000 -0.000000 0.000000 
0.000000 0.000000 0.000000 

0.000000 0.000000 0.000000 
0.000000 0.000000 0.000000 
0.000000 0.000000 0.000000 

-0.000000 -0.000000 0.000000 
0.000000 0.000000 0.000000 
0.000000 0.000000 0.000000 

0.000000 -0.000000 0.000000 
0.000000 0.000000 0.000000 
0.000000 0.000000 0.000000 

-0.000000 -0.000000 0.000000 
0.000000 -0.000000 0.000000 
0.000000 0.000000 0.000000 

-0.000000 0.000000 0.000000 
0.000000 -0.000000 0.000000 
0.000000 0.000000 0.000000 

0.000000 -0.000000 0.000000 
0.000000 0.000000 0.000000 
0.000000 0.000000 0.000000 

-0.000000 -0.000000 0.000000 
0.000000 -0.000000 0.000000 
0.000000 0.000000 0.000000 

0.000000 -0.000000 0.000000 
0.000000 0.000000 0.000000 
0.000000 0.000000 0.000000 

-0.000000 -0.000000 0.000000 
0.000000 -0.000000 0.000000 
0.000000 0.000000 0.000000 

0.000000 -0.000000 0.000000 
0.000000 0.000000 0.000000 
0.000000 0.000000 0.000000 

-0.000000 -0.000000 0.000000 
0.000000 -0.000000 0.000000 
0.000000 0.000000 0.000000 

0.000000 -0.000000 0.000000 
0.000000 0.000000 0.000000 
0.000000 0.000000 0.000000 

-0.000000 0.000000 0.000000 
0.000000 -0.000000 0.000000 
0.000000 0.000000 0.000000 

0.000000 -0.000000 0.000000 
0.000000 0.000000 0.000000 
0.000000 0.000000 0.000000 

0.000000 -0.000000 0.000000 
0.000000 0.000000 0.000000 
0.000000 0.000000 0.000000 

0.000000 -0.000000 0.000000 
0.000000 0.000000 0.000000 
0.000000 0.000000 0.000000 

-0.000000 -0.000000 0.000000 
0.000000 -0.000000 0.000000 
0.000000 0.000000 0.000000 

-0.000000 -0.000000 0.000000 
0.000000 -0.000000 0.000000 
0.000000 0.000000 0.000000 

0.000000 -0.000000 0.000000 
0.000000 0.000000 0.000000 
0.000000 0.000000 0.000000 

0.000000 -0.000000 0.000000 
0.000000 0.000000 0.000000 
0.000000 0.000000 0.000000 

-0.000000 -0.000000 0.000000 
0.000000 -0.000000 0.000000 
0.000000 0.000000 0.000000 

-0.000000 0.000000 0.000000 
0.000000 -0.000000 0.000000 
0.000000 0.000000 0.000000 

0.000000 -0.000000 0.000000 
0.000000 0.000000 0.000000 
0.000000 0.000000 0.000000 

-0.000000 -0.000000 0.000000 
0.000000 -0.000000 0.000000 
0.000000 0.000000 0.000000 

-0.000000 0.000000 0.000000 
0.000000 -0.000000 0.000000 
0.000000 0.000000 0.000000 

-0.000000 -0.000000 0.000000 
0.000000 -0.000000 0.000000 
0.000000 0.000000 0.000000 

-0.000000 0.000000 0.000000 
0.000000 -0.000000 0.000000 
0.000000 0.000000 0.000000 

-0.000000 -0.000000 0.000000 
0.000000 -0.000000 0.000000 
0.000000 0.000000 0.000000 

-0.000000 -0.000000 0.000000 
0.000000 -0.000000 0.000000 
0.000000 0.000000 0.000000 

-0.000000 -0.000000 0.000000 
0.000000 -0.000000 0.000000 
0.000000 0.000000 0.000000 

0.000000 -0.000000 0.000000 
0.000000 0.000000 0.000000 
0.000000 0.000000 0.000000 

-0.000000 0.000000 0.000000 
0.000000 -0.000000 0.000000 
0.000000 0.000000 0.000000 

0.000000 -0.000000 0.000000 
0.000000 0.000000 0.000000 
0.000000 0.000000 0.000000 

-0.000000 0.000000 0.000000 
0.000000 0.000000 0.000000 
0.000000 0.000000 0.000000 

0.000000 -0.000000 0.000000 
0.000000 0.000000 0.000000 
0.000000 0.000000 0.000000 

0.000000 -0.000000 0.000000 
0.000000 0.000000 0.000000 
0.000000 0.000000 0.000000 

0.000000 -0.000000 0.000000 
0.000000 0.000000 0.000000 
0.000000 0.000000 0.000000 

0.000000 -0.000000 0.000000 
0.000000 0.000000 0.000000 
0.000000 0.000000 0.000000 

0.000000 0.000000 0.000000 
0.000000 0.000000 0.000000 
0.000000 0.000000 0.000000 

-0.000000 -0.000000 0.000000 
0.000000 -0.000000 0.000000 
0.000000 0.000000 0.000000 

-0.000000 -0.000000 0.000000 
0.000000 -0.000000 0.000000 
0.000000 0.000000 0.000000 

-0.000000 -0.000000 0.000000 
0.000000 -0.000000 0.000000 
0.000000 0.000000 0.000000 

-0.000000 0.000000 0.000000 
0.000000 -0.000000 0.000000 
0.000000 0.000000 0.000000 

0.000000 -0.000000 0.000000 
0.000000 0.000000 0.000000 
0.000000 0.000000 0.000000 

0.000000 0.000000 0.000000 
0.000000 0.000000 0.000000 
0.000000 0.000000 0.000000 

0.000000 -0.000000 0.000000 
0.000000 0.000000 0.000000 
0.000000 0.000000 0.000000 

0.000000 -0.000000 0.000000 
0.000000 -0.000000 0.000000 
0.000000 0.000000 0.000000 

0.000000 0.000000 0.000000 
0.000000 0.000000 0.000000 
0.000000 0.000000 0.000000 

-0.000000 -0.000000 0.000000 
0.000000 -0.000000 0.000000 
0.000000 0.000000 0.000000 

-0.000000 0.000000 0.000000 
0.000000 -0.000000 0.000000 
0.000000 0.000000 0.000000 

-0.000000 -0.000000 0.000000 
0.000000 -0.000000 0.000000 
0.000000 0.000000 0.000000 

0.000000 -0.000000 0.000000 
0.000000 0.000000 0.000000 
0.000000 0.000000 0.000000 

0.000000 -0.000000 0.000000 
0.000000 0.000000 0.000000 
0.000000 0.000000 0.000000 

-0.000000 0.000000 0.000000 
0.000000 -0.000000 0.000000 
0.000000 0.000000 0.000000 

0.000000 -0.000000 0.000000 
0.000000 0.000000 0.000000 
0.000000 0.000000 0.000000 

0.000000 -0.000000 0.000000 
0.000000 0.000000 0.000000 
0.000000 0.000000 0.000000 

-0.000000 0.000000 0.000000 
0.000000 -0.000000 0.000000 
0.000000 0.000000 0.000000 

-0.000000 0.000000 0.000000 
0.000000 -0.000000 0.000000 
0.000000 0.000000 0.000000 

-0.000000 -0.000000 0.000000 
0.000000 -0.000000 0.000000 
0.000000 0.000000 0.000000 

-0.000000 -0.000000 0.000000 
0.000000 -0.000000 0.000000 
0.000000 0.000000 0.000000 

0.000000 -0.000000 0.000000 
0.000000 0.000000 0.000000 
0.000000 0.000000 0.000000 

-0.000000 -0.000000 0.000000 
0.000000 -0.000000 0.000000 
0.000000 0.000000 0.000000 

0.000000 -0.000000 0.000000 
0.000000 -0.000000 0.000000 
0.000000 0.000000 0.000000 

-0.000000 -0.000000 0.000000 
0.000000 -0.000000 0.000000 
0.000000 0.000000 0.000000 

-0.000000 -0.000000 0.000000 
0.000000 -0.000000 0.000000 
0.000000 0.000000 0.000000 

-0.000000 -0.000000 0.000000 
0.000000 -0.000000 0.000000 
0.000000 0.000000 0.000000 

0.000000 -0.000000 0.000000 
0.000000 0.000000 0.000000 
0.000000 0.000000 0.000000 

-0.000000 -0.000000 0.000000 
0.000000 -0.000000 0.000000 
0.000000 0.000000 0.000000 

0.000000 -0.000000 0.000000 
0.000000 0.000000 0.000000 
0.000000 0.000000 0.000000 

0.000000 -0.000000 0.000000 
0.000000 0.000000 0.000000 
0.000000 0.000000 0.000000 

0.000000 -0.000000 0.000000 
0.000000 0.000000 0.000000 
0.000000 0.000000 0.000000 

0.000000 -0.000000 0.000000 
0.000000 0.000000 0.000000 
0.000000 0.000000 0.000000 

0.000000 -0.000000 0.000000 
0.000000 -0.000000 0.000000 
0.000000 0.000000 0.000000 

-0.000000 -0.000000 0.000000 
0.000000 -0.000000 0.000000 
0.000000 0.000000 0.000000 

-0.000000 -0.000000 0.000000 
0.000000 -0.000000 0.000000 
0.000000 0.000000 0.000000 

-0.000000 -0.000000 0.000000 
0.000000 -0.000000 0.000000 
0.000000 0.000000 0.000000 

-0.000000 0.000000 0.000000 
0.000000 -0.000000 0.000000 
0.000000 0.000000 0.000000 

0.000000 -0.000000 0.000000 
0.000000 0.000000 0.000000 
0.000000 0.000000 0.000000 

-0.000000 -0.000000 0.000000 
0.000000 -0.000000 0.000000 
0.000000 0.000000 0.000000 

-0.000000 -0.000000 0.000000 
0.000000 -0.000000 0.000000 
0.000000 0.000000 0.000000 

0.000000 -0.000000 0.000000 
0.000000 0.000000 0.000000 
0.000000 0.000000 0.000000 

0.000000 -0.000000 0.000000 
0.000000 0.000000 0.000000 
0.000000 0.000000 0.000000 

0.000000 0.000000 0.000000 
0.000000 0.000000 0.000000 
0.000000 0.000000 0.000000 

0.000000 0.000000 0.000000 
0.000000 0.000000 0.000000 
0.000000 0.000000 0.000000 

0.000000 -0.000000 0.000000 
0.000000 0.000000 0.000000 
0.000000 0.000000 0.000000 

-0.000000 -0.000000 0.000000 
0.000000 -0.000000 0.000000 
0.000000 0.000000 0.000000 

0.000000 -0.000000 0.000000 
0.000000 0.000000 0.000000 
0.000000 0.000000 0.000000 

0.000000 -0.000000 0.000000 
0.000000 0.000000 0.000000 
0.000000 0.000000 0.000000 

0.000000 -0.000000 0.000000 
0.000000 -0.000000 0.000000 
0.000000 0.000000 0.000000 

-0.000000 -0.000000 0.000000 
0.000000 -0.000000 0.000000 
0.000000 0.000000 0.000000 

-0.000000 0.000000 0.000000 
0.000000 -0.000000 0.000000 
0.000000 0.000000 0.000000 

-0.000000 -0.000000 0.000000 
0.000000 -0.000000 0.000000 
0.000000 0.000000 0.000000 

-0.000000 0.000000 0.000000 
0.000000 -0.000000 0.000000 
0.000000 0.000000 0.000000 

0.000000 0.000000 0.000000 
0.000000 0.000000 0.000000 
0.000000 0.000000 0.000000 

-0.000000 0.000000 0.000000 
0.000000 -0.000000 0.000000 
0.000000 0.000000 0.000000 

-0.000000 0.000000 0.000000 
0.000000 -0.000000 0.000000 
0.000000 0.000000 0.000000 

-0.000000 0.000000 0.000000 
0.000000 0.000000 0.000000 
0.000000 0.000000 0.000000 

-0.000000 -0.000000 0.000000 
0.000000 -0.000000 0.000000 
0.000000 0.000000 0.000000 

0.000000 -0.000000 0.000000 
0.000000 0.000000 0.000000 
0.000000 0.000000 0.000000 

0.000000 0.000000 0.000000 
0.000000 0.000000 0.000000 
0.000000 0.000000 0.000000 

-0.000000 0.000000 0.000000 
0.000000 -0.000000 0.000000 
0.000000 0.000000 0.000000 

-0.000000 -0.000000 0.000000 
0.000000 0.000000 0.000000 
0.000000 0.000000 0.000000 

0.000000 -0.000000 0.000000 
0.000000 0.000000 0.000000 
0.000000 0.000000 0.000000 

-0.000000 -0.000000 0.000000 
0.000000 -0.000000 0.000000 
0.000000 0.000000 0.000000 

-0.000000 -0.000000 0.000000 
0.000000 -0.000000 0.000000 
0.000000 0.000000 0.000000 

-0.000000 0.000000 0.000000 
0.000000 -0.000000 0.000000 
0.000000 0.000000 0.000000 

0.000000 0.000000 0.000000 
0.000000 0.000000 0.000000 
0.000000 0.000000 0.000000 

-0.000000 -0.000000 0.000000 
0.000000 -0.000000 0.000000 
0.000000 0.000000 0.000000 

-0.000000 -0.000000 0.000000 
0.000000 -0.000000 0.000000 
0.000000 0.000000 0.000000 

-0.000000 -0.000000 0.000000 
0.000000 -0.000000 0.000000 
0.000000 0.000000 0.000000 

0.000000 -0.000000 0.000000 
0.000000 0.000000 0.000000 
0.000000 0.000000 0.000000 

-0.000000 -0.000000 0.000000 
0.000000 -0.000000 0.000000 
0.000000 0.000000 0.000000 

-0.000000 -0.000000 0.000000 
0.000000 -0.000000 0.000000 
0.000000 0.000000 0.000000 

-0.000000 -0.000000 0.000000 
0.000000 -0.000000 0.000000 
0.000000 0.000000 0.000000 

-0.000000 0.000000 0.000000 
0.000000 -0.000000 0.000000 
0.000000 0.000000 0.000000 

-0.000000 -0.000000 0.000000 
0.000000 -0.000000 0.000000 
0.000000 0.000000 0.000000 

-0.000000 0.000000 0.000000 
0.000000 -0.000000 0.000000 
0.000000 0.000000 0.000000 

0.000000 -0.000000 0.000000 
0.000000 0.000000 0.000000 
0.000000 0.000000 0.000000 

-0.000000 -0.000000 0.000000 
0.000000 -0.000000 0.000000 
0.000000 0.000000 0.000000 

-0.000000 0.000000 0.000000 
0.000000 -0.000000 0.000000 
0.000000 0.000000 0.000000 

0.000000 -0.000000 0.000000 
0.000000 0.000000 0.000000 
0.000000 0.000000 0.000000 

0.000000 0.000000 0.000000 
0.000000 0.000000 0.000000 
0.000000 0.000000 0.000000 

0.000000 0.000000 0.000000 
0.000000 0.000000 0.000000 
0.000000 0.000000 0.000000 

-0.000000 0.000000 0.000000 
0.000000 -0.000000 0.000000 
0.000000 0.000000 0.000000 

0.000000 0.000000 0.000000 
0.000000 0.000000 0.000000 
0.000000 0.000000 0.000000 

-0.000000 0.000000 0.000000 
0.000000 -0.000000 0.000000 
0.000000 0.000000 0.000000 

0.000000 0.000000 0.000000 
0.000000 0.000000 0.000000 
0.000000 0.000000 0.000000 

0.000000 0.000000 0.000000 
0.000000 -0.000000 0.000000 
0.000000 0.000000 0.000000 

0.000000 0.000000 0.000000 
0.000000 0.000000 0.000000 
0.000000 0.000000 0.000000 

0.000000 0.000000 0.000000 
0.000000 0.000000 0.000000 
0.000000 0.000000 0.000000 

0.000000 -0.000000 0.000000 
0.000000 0.000000 0.000000 
0.000000 0.000000 0.000000 

-0.000000 -0.000000 0.000000 
0.000000 -0.000000 0.000000 
0.000000 0.000000 0.000000 

0.000000 -0.000000 0.000000 
0.000000 0.000000 0.000000 
0.000000 0.000000 0.000000 

0.000000 0.000000 0.000000 
0.000000 0.000000 0.000000 
0.000000 0.000000 0.000000 

-0.000000 -0.000000 0.000000 
0.000000 -0.000000 0.000000 
0.000000 0.000000 0.000000 

0.000000 -0.000000 0.000000 
0.000000 0.000000 0.000000 
0.000000 0.000000 0.000000 

0.000000 -0.000000 0.000000 
0.000000 0.000000 0.000000 
0.000000 0.000000 0.000000 

0.000000 0.000000 0.000000 
0.000000 0.000000 0.000000 
0.000000 0.000000 0.000000 

-0.000000 0.000000 0.000000 
0.000000 -0.000000 0.000000 
0.000000 0.000000 0.000000 

-0.000000 0.000000 0.000000 
0.000000 -0.000000 0.000000 
0.000000 0.000000 0.000000 

-0.000000 0.000000 0.000000 
0.000000 -0.000000 0.000000 
0.000000 0.000000 0.000000 

TENSORS STRAIN float 
-0.000000 0.000000 0.000000 
0.000000 0.000000 0.000000 
0.000000 0.000000 0.000000 

0.000000 0.000000 0.000000 
0.000000 -0.000000 0.000000 
0.000000 0.000000 0.000000 

-0.000000 -0.000000 0.000000 
0.000000 0.000000 0.000000 
0.000000 0.000000 0.000000 

-0.000000 0.000000 0.000000 
0.000000 0.000000 0.000000 
0.000000 0.000000 0.000000 

0.000000 0.000000 0.000000 
0.000000 -0.000000 0.000000 
0.000000 0.000000 0.000000 

0.000000 -0.000000 0.000000 
0.000000 -0.000000 0.000000 
0.000000 0.000000 0.000000 

0.000000 -0.000000 0.000000 
0.000000 -0.000000 0.000000 
0.000000 0.000000 0.000000 

-0.000000 -0.000000 0.000000 
0.000000 0.000000 0.000000 
0.000000 0.000000 0.000000 

-0.000000 -0.000000 0.000000 
0.000000 0.000000 0.000000 
0.000000 0.000000 0.000000 

-0.000000 -0.000000 0.000000 
0.000000 0.000000 0.000000 
0.000000 0.000000 0.000000 

0.000000 0.000000 0.000000 
0.000000 0.000000 0.000000 
0.000000 0.000000 0.000000 

-0.000000 0.000000 0.000000 
0.000000 0.000000 0.000000 
0.000000 0.000000 0.000000 

-0.000000 -0.000000 0.000000 
0.000000 0.000000 0.000000 
0.000000 0.000000 0.000000 

-0.000000 -0.000000 0.000000 
0.000000 0.000000 0.000000 
0.000000 0.000000 0.000000 

0.000000 -0.000000 0.000000 
0.000000 0.000000 0.000000 
0.000000 0.000000 0.000000 

0.000000 0.000000 0.000000 
0.000000 -0.000000 0.000000 
0.000000 0.000000 0.000000 

0.000000 -0.000000 0.000000 
0.000000 -0.000000 0.000000 
0.000000 0.000000 0.000000 

0.000000 -0.000000 0.000000 
0.000000 -0.000000 0.000000 
0.000000 0.000000 0.000000 

0.000000 0.000000 0.000000 
0.000000 -0.000000 0.000000 
0.000000 0.000000 0.000000 

-0.000000 -0.000000 0.000000 
0.000000 0.000000 0.000000 
0.000000 0.000000 0.000000 

-0.000000 0.000000 0.000000 
0.000000 -0.000000 0.000000 
0.000000 0.000000 0.000000 

-0.000000 0.000000 0.000000 
0.000000 0.000000 0.000000 
0.000000 0.000000 0.000000 

0.000000 0.000000 0.000000 
0.000000 -0.000000 0.000000 
0.000000 0.000000 0.000000 

0.000000 0.000000 0.000000 
0.000000 -0.000000 0.000000 
0.000000 0.000000 0.000000 

0.000000 0.000000 0.000000 
0.000000 -0.000000 0.000000 
0.000000 0.000000 0.000000 

-0.000000 0.000000 0.000000 
0.000000 -0.000000 0.000000 
0.000000 0.000000 0.000000 

0.000000 -0.000000 0.000000 
0.000000 -0.000000 0.000000 
0.000000 0.000000 0.000000 

0.000000 -0.000000 0.000000 
0.000000 -0.000000 0.000000 
0.000000 0.000000 0.000000 

0.000000 0.000000 0.000000 
0.000000 -0.000000 0.000000 
0.000000 0.000000 0.000000 

-0.000000 -0.000000 0.000000 
0.000000 0.000000 0.000000 
0.000000 0.000000 0.000000 

0.000000 -0.000000 0.000000 
0.000000 -0.000000 0.000000 
0.000000 0.000000 0.000000 

-0.000000 0.000000 0.000000 
0.000000 -0.000000 0.000000 
0.000000 0.000000 0.000000 

0.000000 0.000000 0.000000 
0.000000 0.000000 0.000000 
0.000000 0.000000 0.000000 

0.000000 0.000000 0.000000 
0.000000 -0.000000 0.000000 
0.000000 0.000000 0.000000 

-0.000000 0.000000 0.000000 
0.000000 0.000000 0.000000 
0.000000 0.000000 0.000000 

-0.000000 -0.000000 0.000000 
0.000000 0.000000 0.000000 
0.000000 0.000000 0.000000 

-0.000000 -0.000000 0.000000 
0.000000 0.000000 0.000000 
0.000000 0.000000 0.000000 

0.000000 -0.000000 0.000000 
0.000000 -0.000000 0.000000 
0.000000 0.000000 0.000000 

0.000000 0.000000 0.000000 
0.000000 -0.000000 0.000000 
0.000000 0.000000 0.000000 

0.000000 -0.000000 0.000000 
0.000000 -0.000000 0.000000 
0.000000 0.000000 0.000000 

0.000000 -0.000000 0.000000 
0.000000 -0.000000 0.000000 
0.000000 0.000000 0.000000 

0.000000 -0.000000 0.000000 
0.000000 -0.000000 0.000000 
0.000000 0.000000 0.000000 

0.000000 -0.000000 0.000000 
0.000000 -0.000000 0.000000 
0.000000 0.000000 0.000000 

0.000000 -0.000000 0.000000 
0.000000 -0.000000 0.000000 
0.000000 0.000000 0.000000 

0.000000 -0.000000 0.000000 
0.000000 -0.000000 0.000000 
0.000000 0.000000 0.000000 

-0.000000 -0.000000 0.000000 
0.000000 0.000000 0.000000 
0.000000 0.000000 0.000000 

-0.000000 0.000000 0.000000 
0.000000 0.000000 0.000000 
0.000000 0.000000 0.000000 

0.000000 -0.000000 0.000000 
0.000000 -0.000000 0.000000 
0.000000 0.000000 0.000000 

-0.000000 -0.000000 0.000000 
0.000000 0.000000 0.000000 
0.000000 0.000000 0.000000 

-0.000000 -0.000000 0.000000 
0.000000 0.000000 0.000000 
0.000000 0.000000 0.000000 

-0.000000 -0.000000 0.000000 
0.000000 -0.000000 0.000000 
0.000000 0.000000 0.000000 

-0.000000 -0.000000 0.000000 
0.000000 -0.000000 0.000000 
0.000000 0.000000 0.000000 

-0.000000 -0.000000 0.000000 
0.000000 0.000000 0.000000 
0.000000 0.000000 0.000000 

-0.000000 -0.000000 0.000000 
0.000000 0.000000 0.000000 
0.000000 0.000000 0.000000 

0.000000 -0.000000 0.000000 
0.000000 -0.000000 0.000000 
0.000000 0.000000 0.000000 

-0.000000 0.000000 0.000000 
0.000000 -0.000000 0.000000 
0.000000 0.000000 0.000000 

-0.000000 -0.000000 0.000000 
0.000000 0.000000 0.000000 
0.000000 0.000000 0.000000 

-0.000000 -0.000000 0.000000 
0.000000 0.000000 0.000000 
0.000000 0.000000 0.000000 

0.000000 0.000000 0.000000 
0.000000 -0.000000 0.000000 
0.000000 0.000000 0.000000 

-0.000000 -0.000000 0.000000 
0.000000 -0.000000 0.000000 
0.000000 0.000000 0.000000 

-0.000000 0.000000 0.000000 
0.000000 -0.000000 0.000000 
0.000000 0.000000 0.000000 

-0.000000 -0.000000 0.000000 
0.000000 -0.000000 0.000000 
0.000000 0.000000 0.000000 

-0.000000 -0.000000 0.000000 
0.000000 -0.000000 0.000000 
0.000000 0.000000 0.000000 

-0.000000 -0.000000 0.000000 
0.000000 -0.000000 0.000000 
0.000000 0.000000 0.000000 

0.000000 -0.000000 0.000000 
0.000000 0.000000 0.000000 
0.000000 0.000000 0.000000 

0.000000 0.000000 0.000000 
0.000000 -0.000000 0.000000 
0.000000 0.000000 0.000000 

-0.000000 -0.000000 0.000000 
0.000000 0.000000 0.000000 
0.000000 0.000000 0.000000 

-0.000000 0.000000 0.000000 
0.000000 0.000000 0.000000 
0.000000 0.000000 0.000000 

-0.000000 -0.000000 0.000000 
0.000000 0.000000 0.000000 
0.000000 0.000000 0.000000 

-0.000000 -0.000000 0.000000 
0.000000 0.000000 0.000000 
0.000000 0.000000 0.000000 

-0.000000 -0.000000 0.000000 
0.000000 0.000000 0.000000 
0.000000 0.000000 0.000000 

-0.000000 -0.000000 0.000000 
0.000000 0.000000 0.000000 
0.000000 0.000000 0.000000 

0.000000 0.000000 0.000000 
0.000000 0.000000 0.000000 
0.000000 0.000000 0.000000 

0.000000 -0.000000 0.000000 
0.000000 -0.000000 0.000000 
0.000000 0.000000 0.000000 

0.000000 -0.000000 0.000000 
0.000000 -0.000000 0.000000 
0.000000 0.000000 0.000000 

0.000000 -0.000000 0.000000 
0.000000 -0.000000 0.000000 
0.000000 0.000000 0.000000 

0.000000 0.000000 0.000000 
0.000000 -0.000000 0.000000 
0.000000 0.000000 0.000000 

0.000000 -0.000000 0.000000 
0.000000 -0.000000 0.000000 
0.000000 0.000000 0.000000 

0.000000 0.000000 0.000000 
0.000000 -0.000000 0.000000 
0.000000 0.000000 0.000000 

0.000000 -0.000000 0.000000 
0.000000 -0.000000 0.000000 
0.000000 0.000000 0.000000 

0.000000 -0.000000 0.000000 
0.000000 -0.000000 0.000000 
0.000000 0.000000 0.000000 

-0.000000 0.000000 0.000000 
0.000000 0.000000 0.000000 
0.000000 0.000000 0.000000 

0.000000 -0.000000 0.000000 
0.000000 -0.000000 0.000000 
0.000000 0.000000 0.000000 

0.000000 0.000000 0.000000 
0.000000 -0.000000 0.000000 
0.000000 0.000000 0.000000 

0.000000 -0.000000 0.000000 
0.000000 -0.000000 0.000000 
0.000000 0.000000 0.000000 

0.000000 -0.000000 0.000000 
0.000000 0.000000 0.000000 
0.000000 0.000000 0.000000 

0.000000 -0.000000 0.000000 
0.000000 0.000000 0.000000 
0.000000 0.000000 0.000000 

-0.000000 0.000000 0.000000 
0.000000 -0.000000 0.000000 
0.000000 0.000000 0.000000 

0.000000 -0.000000 0.000000 
0.000000 0.000000 0.000000 
0.000000 0.000000 0.000000 

-0.000000 -0.000000 0.000000 
0.000000 0.000000 0.000000 
0.000000 0.000000 0.000000 

-0.000000 0.000000 0.000000 
0.000000 -0.000000 0.000000 
0.000000 0.000000 0.000000 

0.000000 0.000000 0.000000 
0.000000 -0.000000 0.000000 
0.000000 0.000000 0.000000 

0.000000 -0.000000 0.000000 
0.000000 -0.000000 0.000000 
0.000000 0.000000 0.000000 

-0.000000 -0.000000 0.000000 
0.000000 -0.000000 0.000000 
0.000000 0.000000 0.000000 

0.000000 -0.000000 0.000000 
0.000000 -0.000000 0.000000 
0.000000 0.000000 0.000000 

0.000000 -0.000000 0.000000 
0.000000 -0.000000 0.000000 
0.000000 0.000000 0.000000 

0.000000 -0.000000 0.000000 
0.000000 -0.000000 0.000000 
0.000000 0.000000 0.000000 

-0.000000 -0.000000 0.000000 
0.000000 0.000000 0.000000 
0.000000 0.000000 0.000000 

-0.000000 -0.000000 0.000000 
0.000000 -0.000000 0.000000 
0.000000 0.000000 0.000000 

-0.000000 -0.000000 0.000000 
0.000000 -0.000000 0.000000 
0.000000 0.000000 0.000000 

-0.000000 -0.000000 0.000000 
0.000000 0.000000 0.000000 
0.000000 0.000000 0.000000 

-0.000000 -0.000000 0.000000 
0.000000 -0.000000 0.000000 
0.000000 0.000000 0.000000 

-0.000000 -0.000000 0.000000 
0.000000 0.000000 0.000000 
0.000000 0.000000 0.000000 

0.000000 -0.000000 0.000000 
0.000000 0.000000 0.000000 
0.000000 0.000000 0.000000 

-0.000000 -0.000000 0.000000 
0.000000 0.000000 0.000000 
0.000000 0.000000 0.000000 

-0.000000 -0.000000 0.000000 
0.000000 0.000000 0.000000 
0.000000 0.000000 0.000000 

0.000000 -0.000000 0.000000 
0.000000 -0.000000 0.000000 
0.000000 0.000000 0.000000 

0.000000 -0.000000 0.000000 
0.000000 -0.000000 0.000000 
0.000000 0.000000 0.000000 

0.000000 -0.000000 0.000000 
0.000000 -0.000000 0.000000 
0.000000 0.000000 0.000000 

-0.000000 -0.000000 0.000000 
0.000000 0.000000 0.000000 
0.000000 0.000000 0.000000 

-0.000000 0.000000 0.000000 
0.000000 0.000000 0.000000 
0.000000 0.000000 0.000000 

-0.000000 -0.000000 0.000000 
0.000000 0.000000 0.000000 
0.000000 0.000000 0.000000 

-0.000000 -0.000000 0.000000 
0.000000 0.000000 0.000000 
0.000000 0.000000 0.000000 

-0.000000 -0.000000 0.000000 
0.000000 -0.000000 0.000000 
0.000000 0.000000 0.000000 

0.000000 -0.000000 0.000000 
0.000000 -0.000000 0.000000 
0.000000 0.000000 0.000000 

0.000000 -0.000000 0.000000 
0.000000 -0.000000 0.000000 
0.000000 0.000000 0.000000 

-0.000000 0.000000 0.000000 
0.000000 0.000000 0.000000 
0.000000 0.000000 0.000000 

-0.000000 0.000000 0.000000 
0.000000 0.000000 0.000000 
0.000000 0.000000 0.000000 

0.000000 -0.000000 0.000000 
0.000000 -0.000000 0.000000 
0.000000 0.000000 0.000000 

-0.000000 -0.000000 0.000000 
0.000000 0.000000 0.000000 
0.000000 0.000000 0.000000 

-0.000000 -0.000000 0.000000 
0.000000 0.000000 0.000000 
0.000000 0.000000 0.000000 

0.000000 -0.000000 0.000000 
0.000000 0.000000 0.000000 
0.000000 0.000000 0.000000 

0.000000 -0.000000 0.000000 
0.000000 -0.000000 0.000000 
0.000000 0.000000 0.000000 

0.000000 -0.000000 0.000000 
0.000000 -0.000000 0.000000 
0.000000 0.000000 0.000000 

0.000000 0.000000 0.000000 
0.000000 -0.000000 0.000000 
0.000000 0.000000 0.000000 

-0.000000 -0.000000 0.000000 
0.000000 -0.000000 0.000000 
0.000000 0.000000 0.000000 

-0.000000 0.000000 0.000000 
0.000000 -0.000000 0.000000 
0.000000 0.000000 0.000000 

-0.000000 0.000000 0.000000 
0.000000 0.000000 0.000000 
0.000000 0.000000 0.000000 

0.000000 0.000000 0.000000 
0.000000 -0.000000 0.000000 
0.000000 0.000000 0.000000 

-0.000000 0.000000 0.000000 
0.000000 -0.000000 0.000000 
0.000000 0.000000 0.000000 

-0.000000 0.000000 0.000000 
0.000000 0.000000 0.000000 
0.000000 0.000000 0.000000 

-0.000000 -0.000000 0.000000 
0.000000 0.000000 0.000000 
0.000000 0.000000 0.000000 

0.000000 -0.000000 0.000000 
0.000000 -0.000000 0.000000 
0.000000 0.000000 0.000000 

-0.000000 0.000000 0.000000 
0.000000 0.000000 0.000000 
0.000000 0.000000 0.000000 

-0.000000 0.000000 0.000000 
0.000000 0.000000 0.000000 
0.000000 0.000000 0.000000 

-0.000000 -0.000000 0.000000 
0.000000 0.000000 0.000000 
0.000000 0.000000 0.000000 

-0.000000 -0.000000 0.000000 
0.000000 0.000000 0.000000 
0.000000 0.000000 0.000000 

-0.000000 -0.000000 0.000000 
0.000000 0.000000 0.000000 
0.000000 0.000000 0.000000 

-0.000000 -0.000000 0.000000 
0.000000 -0.000000 0.000000 
0.000000 0.000000 0.000000 

-0.000000 0.000000 0.000000 
0.000000 0.000000 0.000000 
0.000000 0.000000 0.000000 

-0.000000 0.000000 0.000000 
0.000000 0.000000 0.000000 
0.000000 0.000000 0.000000 

-0.000000 -0.000000 0.000000 
0.000000 -0.000000 0.000000 
0.000000 0.000000 0.000000 

-0.000000 -0.000000 0.000000 
0.000000 -0.000000 0.000000 
0.000000 0.000000 0.000000 

-0.000000 -0.000000 0.000000 
0.000000 0.000000 0.000000 
0.000000 0.000000 0.000000 

0.000000 -0.000000 0.000000 
0.000000 -0.000000 0.000000 
0.000000 0.000000 0.000000 

0.000000 -0.000000 0.000000 
0.000000 -0.000000 0.000000 
0.000000 0.000000 0.000000 

0.000000 -0.000000 0.000000 
0.000000 -0.000000 0.000000 
0.000000 0.000000 0.000000 

0.000000 -0.000000 0.000000 
0.000000 -0.000000 0.000000 
0.000000 0.000000 0.000000 

-0.000000 0.000000 0.000000 
0.000000 0.000000 0.000000 
0.000000 0.000000 0.000000 

-0.000000 -0.000000 0.000000 
0.000000 -0.000000 0.000000 
0.000000 0.000000 0.000000 

-0.000000 0.000000 0.000000 
0.000000 -0.000000 0.000000 
0.000000 0.000000 0.000000 

-0.000000 -0.000000 0.000000 
0.000000 0.000000 0.000000 
0.000000 0.000000 0.000000 

-0.000000 -0.000000 0.000000 
0.000000 -0.000000 0.000000 
0.000000 0.000000 0.000000 

-0.000000 0.000000 0.000000 
0.000000 0.000000 0.000000 
0.000000 0.000000 0.000000 

-0.000000 -0.000000 0.000000 
0.000000 0.000000 0.000000 
0.000000 0.000000 0.000000 

-0.000000 0.000000 0.000000 
0.000000 0.000000 0.000000 
0.000000 0.000000 0.000000 

0.000000 0.000000 0.000000 
0.000000 -0.000000 0.000000 
0.000000 0.000000 0.000000 

0.000000 0.000000 0.000000 
0.000000 -0.000000 0.000000 
0.000000 0.000000 0.000000 

0.000000 0.000000 0.000000 
0.000000 0.000000 0.000000 
0.000000 0.000000 0.000000 

0.000000 0.000000 0.000000 
0.000000 -0.000000 0.000000 
0.000000 0.000000 0.000000 

0.000000 0.000000 0.000000 
0.000000 -0.000000 0.000000 
0.000000 0.000000 0.000000 

0.000000 0.000000 0.000000 
0.000000 -0.000000 0.000000 
0.000000 0.000000 0.000000 

0.000000 0.000000 0.000000 
0.000000 -0.000000 0.000000 
0.000000 0.000000 0.000000 

0.000000 0.000000 0.000000 
0.000000 0.000000 0.000000 
0.000000 0.000000 0.000000 

0.000000 -0.000000 0.000000 
0.000000 0.000000 0.000000 
0.000000 0.000000 0.000000 

-0.000000 -0.000000 0.000000 
0.000000 0.000000 0.000000 
0.000000 0.000000 0.000000 

0.000000 -0.000000 0.000000 
0.000000 0.000000 0.000000 
0.000000 0.000000 0.000000 

0.000000 0.000000 0.000000 
0.000000 -0.000000 0.000000 
0.000000 0.000000 0.000000 

-0.000000 -0.000000 0.000000 
0.000000 0.000000 0.000000 
0.000000 0.000000 0.000000 

0.000000 -0.000000 0.000000 
0.000000 0.000000 0.000000 
0.000000 0.000000 0.000000 

0.000000 -0.000000 0.000000 
0.000000 0.000000 0.000000 
0.000000 0.000000 0.000000 

0.000000 0.000000 0.000000 
0.000000 -0.000000 0.000000 
0.000000 0.000000 0.000000 

0.000000 0.000000 0.000000 
0.000000 -0.000000 0.000000 
0.000000 0.000000 0.000000 

-0.000000 0.000000 0.000000 
0.000000 0.000000 0.000000 
0.000000 0.000000 0.000000 

-0.000000 0.000000 0.000000 
0.000000 0.000000 0.000000 
0.000000 0.000000 0.000000 

