# vtk DataFile Version 3.0 
vtk output 
ASCII 
DATASET UNSTRUCTURED_GRID 
POINTS 184 float 
-0.028182 -2.022205 0.000000 
-0.357950 -2.845907 0.000000 
0.475681 -2.520454 0.000000 
-0.447419 -2.325992 0.000000 
0.187016 -3.030820 0.000000 
0.221879 -2.076438 0.000000 
-0.283348 -2.115468 0.000000 
-0.120710 -3.075423 0.000000 
0.419347 -2.270502 0.000000 
-0.467497 -2.598592 0.000000 
0.393176 -2.773253 0.000000 
-0.165824 -2.049238 0.000000 
-0.248045 -2.963963 0.000000 
0.465794 -2.388533 0.000000 
-0.474891 -2.463056 0.000000 
0.300924 -2.899346 0.000000 
0.100599 -2.033033 0.000000 
-0.375852 -2.207126 0.000000 
0.049452 -3.106629 0.000000 
0.336700 -2.157667 0.000000 
-0.425022 -2.713205 0.000000 
0.449711 -2.657093 0.000000 
-0.120382 -2.036072 0.000000 
-0.320841 -2.885873 0.000000 
0.474953 -2.472269 0.000000 
-0.461774 -2.369994 0.000000 
0.263561 -2.947327 0.000000 
0.178926 -2.057056 0.000000 
-0.345146 -2.171130 0.000000 
-0.065709 -3.090970 0.000000 
0.367667 -2.193574 0.000000 
-0.455851 -2.642850 0.000000 
0.431340 -2.697879 0.000000 
-0.208971 -2.068675 0.000000 
-0.169466 -3.041529 0.000000 
0.439812 -2.312133 0.000000 
-0.475465 -2.511131 0.000000 
0.342015 -2.863255 0.000000 
0.019029 -2.022290 0.000000 
-0.426883 -2.284249 0.000000 
0.103911 -3.087529 0.000000 
0.300418 -2.126606 0.000000 
-0.384446 -2.796180 0.000000 
0.461726 -2.612499 0.000000 
-0.078703 -2.053564 0.000000 
0.368786 -2.238852 0.000000 
0.048904 -2.050370 0.000000 
0.218217 -2.920061 0.000000 
-0.181156 -2.942205 0.000000 
-0.376440 -2.742590 0.000000 
0.393478 -2.708649 0.000000 
-0.304429 -2.167245 0.000000 
-0.386236 -2.265722 0.000000 
0.426761 -2.351016 0.000000 
0.140055 -2.070123 0.000000 
0.123544 -2.977019 0.000000 
-0.272435 -2.868036 0.000000 
-0.420326 -2.660618 0.000000 
0.442901 -2.569586 0.000000 
0.339249 -2.796584 0.000000 
-0.015908 -2.979944 0.000000 
-0.224776 -2.106549 0.000000 
-0.444630 -2.412215 0.000000 
-0.447853 -2.546869 0.000000 
0.254784 -2.125180 0.000000 
0.446882 -2.442001 0.000000 
-0.078808 -2.109335 0.000000 
-0.129965 -2.152760 0.000000 
-0.191088 -2.147874 0.000000 
-0.111397 -2.211951 0.000000 
-0.223284 -2.203117 0.000000 
-0.170743 -2.240269 0.000000 
-0.055295 -2.226133 0.000000 
-0.278139 -2.213769 0.000000 
-0.040050 -2.281579 0.000000 
-0.014787 -2.185050 0.000000 
-0.296064 -2.273346 0.000000 
-0.348973 -2.302339 0.000000 
-0.351611 -2.367757 0.000000 
-0.254612 -2.312170 0.000000 
-0.392258 -2.415150 0.000000 
-0.371510 -2.475378 0.000000 
-0.284948 -2.369824 0.000000 
-0.397336 -2.532418 0.000000 
-0.363340 -2.575874 0.000000 
-0.314606 -2.475885 0.000000 
-0.374299 -2.631157 0.000000 
-0.327942 -2.659234 0.000000 
-0.309867 -2.535914 0.000000 
-0.324345 -2.714909 0.000000 
-0.267749 -2.737256 0.000000 
-0.276529 -2.634067 0.000000 
-0.245712 -2.798227 0.000000 
-0.180821 -2.803743 0.000000 
-0.237666 -2.681358 0.000000 
-0.143315 -2.859844 0.000000 
-0.079297 -2.842422 0.000000 
-0.150890 -2.751387 0.000000 
-0.022542 -2.879907 0.000000 
0.035703 -2.847928 0.000000 
-0.088605 -2.774374 0.000000 
0.095169 -2.876843 0.000000 
0.136137 -2.826117 0.000000 
0.026418 -2.788088 0.000000 
0.199805 -2.834052 0.000000 
0.232375 -2.771623 0.000000 
0.091611 -2.773632 0.000000 
0.290797 -2.753415 0.000000 
0.304141 -2.693860 0.000000 
0.195536 -2.722852 0.000000 
0.353659 -2.670524 0.000000 
0.351348 -2.613195 0.000000 
0.240908 -2.679567 0.000000 
0.390774 -2.567869 0.000000 
0.371848 -2.511216 0.000000 
0.298217 -2.591865 0.000000 
0.396332 -2.458685 0.000000 
0.361487 -2.413744 0.000000 
0.310406 -2.533892 0.000000 
0.373610 -2.358824 0.000000 
0.325859 -2.320925 0.000000 
0.305323 -2.427885 0.000000 
0.319743 -2.260025 0.000000 
0.260486 -2.231282 0.000000 
0.281675 -2.367343 0.000000 
0.232679 -2.173233 0.000000 
0.170114 -2.167285 0.000000 
0.218546 -2.272880 0.000000 
0.132389 -2.121273 0.000000 
0.077767 -2.131443 0.000000 
0.033766 -2.097275 0.000000 
-0.019827 -2.127215 0.000000 
0.166146 -2.234290 0.000000 
0.047696 -2.185299 0.000000 
-0.184252 -2.289625 0.000000 
-0.268005 -2.418808 0.000000 
-0.041116 -2.752425 0.000000 
0.237320 -2.633595 0.000000 
0.279721 -2.495237 0.000000 
0.118169 -2.729259 0.000000 
0.233759 -2.347508 0.000000 
-0.269173 -2.566176 0.000000 
-0.185457 -2.687586 0.000000 
-0.080573 -2.323179 0.000000 
0.015768 -2.296029 0.000000 
-0.141728 -2.326145 0.000000 
-0.170696 -2.384179 0.000000 
-0.215704 -2.423072 0.000000 
-0.206131 -2.484429 0.000000 
-0.129584 -2.421218 0.000000 
-0.220215 -2.541334 0.000000 
-0.148758 -2.477195 0.000000 
-0.176095 -2.585755 0.000000 
-0.076889 -2.386911 0.000000 
-0.157538 -2.642235 0.000000 
-0.127078 -2.559371 0.000000 
-0.075736 -2.585917 0.000000 
-0.113716 -2.507358 0.000000 
-0.052526 -2.491585 0.000000 
-0.032306 -2.544708 0.000000 
-0.034850 -2.427292 0.000000 
0.031122 -2.352287 0.000000 
0.062936 -2.240818 0.000000 
-0.090400 -2.642787 0.000000 
0.008927 -2.411078 0.000000 
0.051515 -2.460559 0.000000 
0.053721 -2.515779 0.000000 
0.098068 -2.431814 0.000000 
0.011224 -2.558897 0.000000 
0.028531 -2.615516 0.000000 
0.018101 -2.668631 0.000000 
0.079293 -2.691480 0.000000 
0.084239 -2.614317 0.000000 
0.119579 -2.650770 0.000000 
0.181431 -2.623090 0.000000 
0.099441 -2.557615 0.000000 
0.165732 -2.442449 0.000000 
0.087756 -2.372819 0.000000 
0.162793 -2.559078 0.000000 
0.190866 -2.384902 0.000000 
0.131728 -2.341359 0.000000 
0.122246 -2.265276 0.000000 
-0.041720 -2.683255 0.000000 
0.198638 -2.502070 0.000000 
CELLS 184 368 
1 0 
1 1 
1 2 
1 3 
1 4 
1 5 
1 6 
1 7 
1 8 
1 9 
1 10 
1 11 
1 12 
1 13 
1 14 
1 15 
1 16 
1 17 
1 18 
1 19 
1 20 
1 21 
1 22 
1 23 
1 24 
1 25 
1 26 
1 27 
1 28 
1 29 
1 30 
1 31 
1 32 
1 33 
1 34 
1 35 
1 36 
1 37 
1 38 
1 39 
1 40 
1 41 
1 42 
1 43 
1 44 
1 45 
1 46 
1 47 
1 48 
1 49 
1 50 
1 51 
1 52 
1 53 
1 54 
1 55 
1 56 
1 57 
1 58 
1 59 
1 60 
1 61 
1 62 
1 63 
1 64 
1 65 
1 66 
1 67 
1 68 
1 69 
1 70 
1 71 
1 72 
1 73 
1 74 
1 75 
1 76 
1 77 
1 78 
1 79 
1 80 
1 81 
1 82 
1 83 
1 84 
1 85 
1 86 
1 87 
1 88 
1 89 
1 90 
1 91 
1 92 
1 93 
1 94 
1 95 
1 96 
1 97 
1 98 
1 99 
1 100 
1 101 
1 102 
1 103 
1 104 
1 105 
1 106 
1 107 
1 108 
1 109 
1 110 
1 111 
1 112 
1 113 
1 114 
1 115 
1 116 
1 117 
1 118 
1 119 
1 120 
1 121 
1 122 
1 123 
1 124 
1 125 
1 126 
1 127 
1 128 
1 129 
1 130 
1 131 
1 132 
1 133 
1 134 
1 135 
1 136 
1 137 
1 138 
1 139 
1 140 
1 141 
1 142 
1 143 
1 144 
1 145 
1 146 
1 147 
1 148 
1 149 
1 150 
1 151 
1 152 
1 153 
1 154 
1 155 
1 156 
1 157 
1 158 
1 159 
1 160 
1 161 
1 162 
1 163 
1 164 
1 165 
1 166 
1 167 
1 168 
1 169 
1 170 
1 171 
1 172 
1 173 
1 174 
1 175 
1 176 
1 177 
1 178 
1 179 
1 180 
1 181 
1 182 
1 183 
CELL_TYPES 184 
1 
1 
1 
1 
1 
1 
1 
1 
1 
1 
1 
1 
1 
1 
1 
1 
1 
1 
1 
1 
1 
1 
1 
1 
1 
1 
1 
1 
1 
1 
1 
1 
1 
1 
1 
1 
1 
1 
1 
1 
1 
1 
1 
1 
1 
1 
1 
1 
1 
1 
1 
1 
1 
1 
1 
1 
1 
1 
1 
1 
1 
1 
1 
1 
1 
1 
1 
1 
1 
1 
1 
1 
1 
1 
1 
1 
1 
1 
1 
1 
1 
1 
1 
1 
1 
1 
1 
1 
1 
1 
1 
1 
1 
1 
1 
1 
1 
1 
1 
1 
1 
1 
1 
1 
1 
1 
1 
1 
1 
1 
1 
1 
1 
1 
1 
1 
1 
1 
1 
1 
1 
1 
1 
1 
1 
1 
1 
1 
1 
1 
1 
1 
1 
1 
1 
1 
1 
1 
1 
1 
1 
1 
1 
1 
1 
1 
1 
1 
1 
1 
1 
1 
1 
1 
1 
1 
1 
1 
1 
1 
1 
1 
1 
1 
1 
1 
1 
1 
1 
1 
1 
1 
1 
1 
1 
1 
1 
1 
1 
1 
1 
1 
1 
1 
POINT_DATA 184 
VECTORS X_GC float 
-0.028182 -2.022205 0.000000 
-0.357950 -2.845907 0.000000 
0.475681 -2.520454 0.000000 
-0.447419 -2.325992 0.000000 
0.187016 -3.030820 0.000000 
0.221879 -2.076438 0.000000 
-0.283348 -2.115468 0.000000 
-0.120710 -3.075423 0.000000 
0.419347 -2.270502 0.000000 
-0.467497 -2.598592 0.000000 
0.393176 -2.773253 0.000000 
-0.165824 -2.049238 0.000000 
-0.248045 -2.963963 0.000000 
0.465794 -2.388533 0.000000 
-0.474891 -2.463056 0.000000 
0.300924 -2.899346 0.000000 
0.100599 -2.033033 0.000000 
-0.375852 -2.207126 0.000000 
0.049452 -3.106629 0.000000 
0.336700 -2.157667 0.000000 
-0.425022 -2.713205 0.000000 
0.449711 -2.657093 0.000000 
-0.120382 -2.036072 0.000000 
-0.320841 -2.885873 0.000000 
0.474953 -2.472269 0.000000 
-0.461774 -2.369994 0.000000 
0.263561 -2.947327 0.000000 
0.178926 -2.057056 0.000000 
-0.345146 -2.171130 0.000000 
-0.065709 -3.090970 0.000000 
0.367667 -2.193574 0.000000 
-0.455851 -2.642850 0.000000 
0.431340 -2.697879 0.000000 
-0.208971 -2.068675 0.000000 
-0.169466 -3.041529 0.000000 
0.439812 -2.312133 0.000000 
-0.475465 -2.511131 0.000000 
0.342015 -2.863255 0.000000 
0.019029 -2.022290 0.000000 
-0.426883 -2.284249 0.000000 
0.103911 -3.087529 0.000000 
0.300418 -2.126606 0.000000 
-0.384446 -2.796180 0.000000 
0.461726 -2.612499 0.000000 
-0.078703 -2.053564 0.000000 
0.368786 -2.238852 0.000000 
0.048904 -2.050370 0.000000 
0.218217 -2.920061 0.000000 
-0.181156 -2.942205 0.000000 
-0.376440 -2.742590 0.000000 
0.393478 -2.708649 0.000000 
-0.304429 -2.167245 0.000000 
-0.386236 -2.265722 0.000000 
0.426761 -2.351016 0.000000 
0.140055 -2.070123 0.000000 
0.123544 -2.977019 0.000000 
-0.272435 -2.868036 0.000000 
-0.420326 -2.660618 0.000000 
0.442901 -2.569586 0.000000 
0.339249 -2.796584 0.000000 
-0.015908 -2.979944 0.000000 
-0.224776 -2.106549 0.000000 
-0.444630 -2.412215 0.000000 
-0.447853 -2.546869 0.000000 
0.254784 -2.125180 0.000000 
0.446882 -2.442001 0.000000 
-0.078808 -2.109335 0.000000 
-0.129965 -2.152760 0.000000 
-0.191088 -2.147874 0.000000 
-0.111397 -2.211951 0.000000 
-0.223284 -2.203117 0.000000 
-0.170743 -2.240269 0.000000 
-0.055295 -2.226133 0.000000 
-0.278139 -2.213769 0.000000 
-0.040050 -2.281579 0.000000 
-0.014787 -2.185050 0.000000 
-0.296064 -2.273346 0.000000 
-0.348973 -2.302339 0.000000 
-0.351611 -2.367757 0.000000 
-0.254612 -2.312170 0.000000 
-0.392258 -2.415150 0.000000 
-0.371510 -2.475378 0.000000 
-0.284948 -2.369824 0.000000 
-0.397336 -2.532418 0.000000 
-0.363340 -2.575874 0.000000 
-0.314606 -2.475885 0.000000 
-0.374299 -2.631157 0.000000 
-0.327942 -2.659234 0.000000 
-0.309867 -2.535914 0.000000 
-0.324345 -2.714909 0.000000 
-0.267749 -2.737256 0.000000 
-0.276529 -2.634067 0.000000 
-0.245712 -2.798227 0.000000 
-0.180821 -2.803743 0.000000 
-0.237666 -2.681358 0.000000 
-0.143315 -2.859844 0.000000 
-0.079297 -2.842422 0.000000 
-0.150890 -2.751387 0.000000 
-0.022542 -2.879907 0.000000 
0.035703 -2.847928 0.000000 
-0.088605 -2.774374 0.000000 
0.095169 -2.876843 0.000000 
0.136137 -2.826117 0.000000 
0.026418 -2.788088 0.000000 
0.199805 -2.834052 0.000000 
0.232375 -2.771623 0.000000 
0.091611 -2.773632 0.000000 
0.290797 -2.753415 0.000000 
0.304141 -2.693860 0.000000 
0.195536 -2.722852 0.000000 
0.353659 -2.670524 0.000000 
0.351348 -2.613195 0.000000 
0.240908 -2.679567 0.000000 
0.390774 -2.567869 0.000000 
0.371848 -2.511216 0.000000 
0.298217 -2.591865 0.000000 
0.396332 -2.458685 0.000000 
0.361487 -2.413744 0.000000 
0.310406 -2.533892 0.000000 
0.373610 -2.358824 0.000000 
0.325859 -2.320925 0.000000 
0.305323 -2.427885 0.000000 
0.319743 -2.260025 0.000000 
0.260486 -2.231282 0.000000 
0.281675 -2.367343 0.000000 
0.232679 -2.173233 0.000000 
0.170114 -2.167285 0.000000 
0.218546 -2.272880 0.000000 
0.132389 -2.121273 0.000000 
0.077767 -2.131443 0.000000 
0.033766 -2.097275 0.000000 
-0.019827 -2.127215 0.000000 
0.166146 -2.234290 0.000000 
0.047696 -2.185299 0.000000 
-0.184252 -2.289625 0.000000 
-0.268005 -2.418808 0.000000 
-0.041116 -2.752425 0.000000 
0.237320 -2.633595 0.000000 
0.279721 -2.495237 0.000000 
0.118169 -2.729259 0.000000 
0.233759 -2.347508 0.000000 
-0.269173 -2.566176 0.000000 
-0.185457 -2.687586 0.000000 
-0.080573 -2.323179 0.000000 
0.015768 -2.296029 0.000000 
-0.141728 -2.326145 0.000000 
-0.170696 -2.384179 0.000000 
-0.215704 -2.423072 0.000000 
-0.206131 -2.484429 0.000000 
-0.129584 -2.421218 0.000000 
-0.220215 -2.541334 0.000000 
-0.148758 -2.477195 0.000000 
-0.176095 -2.585755 0.000000 
-0.076889 -2.386911 0.000000 
-0.157538 -2.642235 0.000000 
-0.127078 -2.559371 0.000000 
-0.075736 -2.585917 0.000000 
-0.113716 -2.507358 0.000000 
-0.052526 -2.491585 0.000000 
-0.032306 -2.544708 0.000000 
-0.034850 -2.427292 0.000000 
0.031122 -2.352287 0.000000 
0.062936 -2.240818 0.000000 
-0.090400 -2.642787 0.000000 
0.008927 -2.411078 0.000000 
0.051515 -2.460559 0.000000 
0.053721 -2.515779 0.000000 
0.098068 -2.431814 0.000000 
0.011224 -2.558897 0.000000 
0.028531 -2.615516 0.000000 
0.018101 -2.668631 0.000000 
0.079293 -2.691480 0.000000 
0.084239 -2.614317 0.000000 
0.119579 -2.650770 0.000000 
0.181431 -2.623090 0.000000 
0.099441 -2.557615 0.000000 
0.165732 -2.442449 0.000000 
0.087756 -2.372819 0.000000 
0.162793 -2.559078 0.000000 
0.190866 -2.384902 0.000000 
0.131728 -2.341359 0.000000 
0.122246 -2.265276 0.000000 
-0.041720 -2.683255 0.000000 
0.198638 -2.502070 0.000000 
VECTORS X_EC float 
-0.812123 0.481369 0.000000 
-0.613666 -0.027286 0.000000 
-0.171207 -0.196972 0.000000 
-0.017208 0.506615 0.000000 
-0.248183 0.946404 0.000000 
-0.479196 0.842922 0.000000 
0.888987 -0.896882 0.000000 
-0.208874 0.964511 0.000000 
0.204354 0.136677 0.000000 
0.116650 0.323944 0.000000 
0.378828 -0.511644 0.000000 
0.105490 0.661589 0.000000 
0.653630 0.759752 0.000000 
-0.105293 0.923553 0.000000 
0.165938 -0.579628 0.000000 
0.993838 0.328971 0.000000 
0.329339 0.553551 0.000000 
-0.494322 -0.285824 0.000000 
0.674495 0.937567 0.000000 
0.755331 -0.615551 0.000000 
-0.166522 -0.911969 0.000000 
0.001923 0.713951 0.000000 
-0.197456 0.573813 0.000000 
-0.861062 0.239153 0.000000 
-0.166356 -0.518210 0.000000 
0.078492 0.799958 0.000000 
-0.757075 0.648849 0.000000 
-0.192841 0.713708 0.000000 
-0.699028 -0.525803 0.000000 
-0.572427 0.921027 0.000000 
0.548887 -0.376173 0.000000 
0.039006 0.619001 0.000000 
0.124399 0.985861 0.000000 
0.393143 0.791169 0.000000 
0.119212 0.951185 0.000000 
0.067922 0.414220 0.000000 
0.169769 -0.259129 0.000000 
0.719898 0.088365 0.000000 
0.873139 0.481932 0.000000 
-0.154115 0.228324 0.000000 
0.304228 0.957028 0.000000 
0.997212 -0.822626 0.000000 
-0.437026 -0.358803 0.000000 
-0.078171 0.416663 0.000000 
-0.475316 0.690424 0.000000 
0.541429 -0.074318 0.000000 
0.673976 0.669131 0.000000 
-0.454779 0.467072 0.000000 
0.207706 0.614703 0.000000 
-0.490398 -0.716064 0.000000 
0.376815 -0.942342 0.000000 
-0.970476 -0.551701 0.000000 
-0.425091 0.104811 0.000000 
0.154925 0.673439 0.000000 
0.066303 0.800822 0.000000 
0.176374 0.846794 0.000000 
0.816233 0.120238 0.000000 
-0.197827 0.737451 0.000000 
0.047330 0.130571 0.000000 
0.738338 -0.356105 0.000000 
-0.893947 0.866291 0.000000 
0.498510 -0.956340 0.000000 
-0.035798 -0.918564 0.000000 
-0.014313 -0.020876 0.000000 
-0.698563 -0.832132 0.000000 
0.020784 -0.719995 0.000000 
-0.474614 -0.937766 0.000000 
-0.133565 -0.648268 0.000000 
0.273919 -0.680837 0.000000 
-0.257355 -0.253662 0.000000 
0.488560 -0.312553 0.000000 
0.138290 -0.064872 0.000000 
-0.631365 -0.159111 0.000000 
0.854263 -0.241540 0.000000 
-0.732997 0.210528 0.000000 
-0.901422 -0.433003 0.000000 
0.973760 0.155642 0.000000 
-0.673516 0.348925 0.000000 
-0.655924 0.785044 0.000000 
0.697415 0.414468 0.000000 
-0.384949 -0.899001 0.000000 
-0.523268 -0.497477 0.000000 
0.899652 0.798828 0.000000 
-0.351092 -0.117216 0.000000 
-0.577734 0.172492 0.000000 
-0.902629 -0.494101 0.000000 
-0.504674 0.541047 0.000000 
-0.813721 0.728225 0.000000 
-0.934219 -0.093904 0.000000 
-0.837702 -0.900605 0.000000 
0.784993 -0.751627 0.000000 
0.843524 0.560449 0.000000 
0.638082 -0.345151 0.000000 
0.205473 -0.308377 0.000000 
0.584438 0.875719 0.000000 
-0.044566 0.065627 0.000000 
-0.471354 -0.050522 0.000000 
0.005935 -0.657421 0.000000 
-0.849721 0.199381 0.000000 
0.761980 -0.013812 0.000000 
-0.409301 -0.504174 0.000000 
0.365541 0.178953 0.000000 
0.092418 -0.159218 0.000000 
0.823882 -0.412744 0.000000 
-0.332033 -0.106320 0.000000 
-0.549166 -0.522512 0.000000 
0.389258 -0.509123 0.000000 
-0.938645 -0.643902 0.000000 
0.972392 0.959069 0.000000 
-0.303574 -0.847654 0.000000 
0.642275 0.803492 0.000000 
0.657679 0.421297 0.000000 
-0.606054 0.863779 0.000000 
0.394842 0.119129 0.000000 
0.521012 -0.258561 0.000000 
-0.988116 0.279100 0.000000 
0.357788 -0.608765 0.000000 
0.590086 -0.908371 0.000000 
0.930626 -0.107385 0.000000 
0.509270 0.725493 0.000000 
0.827609 0.472834 0.000000 
0.964512 -0.814098 0.000000 
0.868377 0.066836 0.000000 
-0.736573 -0.124787 0.000000 
-0.877836 0.782285 0.000000 
-0.551191 -0.511780 0.000000 
-0.134093 -0.551433 0.000000 
-0.456976 0.152536 0.000000 
0.117408 -0.858178 0.000000 
0.481552 -0.790381 0.000000 
0.774892 0.981835 0.000000 
-0.867819 -0.818569 0.000000 
-0.107642 -0.104732 0.000000 
0.682027 -0.431340 0.000000 
0.228347 0.264169 0.000000 
0.786698 -0.874616 0.000000 
-0.725890 -0.650497 0.000000 
-0.582130 0.557298 0.000000 
-0.864804 -0.365087 0.000000 
0.212206 -0.804940 0.000000 
-0.558390 0.650055 0.000000 
0.794488 0.107841 0.000000 
0.236380 0.917241 0.000000 
-0.462846 0.487858 0.000000 
0.894880 0.306862 0.000000 
-0.055146 0.507635 0.000000 
0.137976 0.894524 0.000000 
0.438024 -0.846189 0.000000 
0.374208 -0.437138 0.000000 
-0.136109 -0.858546 0.000000 
0.468101 -0.057771 0.000000 
-0.008279 -0.485367 0.000000 
0.173965 0.238365 0.000000 
-0.487404 0.912741 0.000000 
0.050254 0.614902 0.000000 
-0.152813 0.062471 0.000000 
-0.495092 0.239445 0.000000 
-0.241891 -0.284278 0.000000 
-0.649826 -0.389433 0.000000 
-0.784630 -0.035277 0.000000 
-0.767666 -0.818053 0.000000 
0.792523 0.681912 0.000000 
0.580429 -0.061211 0.000000 
-0.397335 0.618581 0.000000 
0.940488 -0.926148 0.000000 
0.656567 -0.596276 0.000000 
0.641860 -0.228143 0.000000 
0.346210 -0.787910 0.000000 
0.925176 0.059314 0.000000 
0.809795 0.436774 0.000000 
0.879326 0.790872 0.000000 
0.471377 0.943197 0.000000 
0.438404 0.428783 0.000000 
0.202810 0.671802 0.000000 
-0.209543 0.487264 0.000000 
0.337061 0.050769 0.000000 
-0.104879 -0.717004 0.000000 
0.414960 0.818797 0.000000 
-0.085286 0.060521 0.000000 
-0.272442 0.899346 0.000000 
0.121812 0.609059 0.000000 
0.185026 0.101839 0.000000 
-0.721868 0.888365 0.000000 
-0.324253 -0.319533 0.000000 
CELL_DATA 184 
SCALARS MASS float 
LOOKUP_TABLE default 
0.051252 
0.046008 
0.051531 
0.046188 
0.052854 
0.051531 
0.052854 
0.052854 
0.051531 
0.050859 
0.052854 
0.047395 
0.052854 
0.052854 
0.051434 
0.045995 
0.052854 
0.051281 
0.051530 
0.046441 
0.052854 
0.052854 
0.050612 
0.049065 
0.052975 
0.049197 
0.049245 
0.052975 
0.052990 
0.055938 
0.049713 
0.052094 
0.055938 
0.050456 
0.055938 
0.053198 
0.052878 
0.049051 
0.052807 
0.049481 
0.052974 
0.049465 
0.049257 
0.055938 
0.105225 
0.104629 
0.082126 
0.094264 
0.094771 
0.094259 
0.094771 
0.083366 
0.104047 
0.083092 
0.081316 
0.081315 
0.092719 
0.079469 
0.108073 
0.092710 
0.108073 
0.093129 
0.104035 
0.094961 
0.104398 
0.081316 
0.125285 
0.099128 
0.098320 
0.087841 
0.082650 
0.097481 
0.086914 
0.081921 
0.086680 
0.086680 
0.081485 
0.107769 
0.088711 
0.084874 
0.107874 
0.082612 
0.095190 
0.095229 
0.083942 
0.085089 
0.079923 
0.081132 
0.095301 
0.097917 
0.090576 
0.085268 
0.095896 
0.081062 
0.095454 
0.090083 
0.081027 
0.085251 
0.101961 
0.083022 
0.095445 
0.080604 
0.081018 
0.085240 
0.097826 
0.090495 
0.095435 
0.095845 
0.081023 
0.085241 
0.090072 
0.081024 
0.095436 
0.101966 
0.083028 
0.085242 
0.080610 
0.081024 
0.095437 
0.082345 
0.082694 
0.085242 
0.109264 
0.089885 
0.095437 
0.108636 
0.083028 
0.085242 
0.080610 
0.074817 
0.073569 
0.082490 
0.095437 
0.095617 
0.133784 
0.138292 
0.139667 
0.139695 
0.139694 
0.139689 
0.139693 
0.140105 
0.139774 
0.086622 
0.086622 
0.089038 
0.077179 
0.079159 
0.072465 
0.084345 
0.092656 
0.093083 
0.084037 
0.098826 
0.101847 
0.085968 
0.086444 
0.074619 
0.064825 
0.094138 
0.124406 
0.086607 
0.131576 
0.102571 
0.084703 
0.076503 
0.084191 
0.084191 
0.086793 
0.075696 
0.084714 
0.090949 
0.084009 
0.076569 
0.086383 
0.098391 
0.110757 
0.093222 
0.143196 
0.101090 
0.091038 
0.150913 
0.178131 
0.206980 
SCALARS MASS float 
LOOKUP_TABLE default 
0.051252 
0.046008 
0.051531 
0.046188 
0.052854 
0.051531 
0.052854 
0.052854 
0.051531 
0.050859 
0.052854 
0.047395 
0.052854 
0.052854 
0.051434 
0.045995 
0.052854 
0.051281 
0.051530 
0.046441 
0.052854 
0.052854 
0.050612 
0.049065 
0.052975 
0.049197 
0.049245 
0.052975 
0.052990 
0.055938 
0.049713 
0.052094 
0.055938 
0.050456 
0.055938 
0.053198 
0.052878 
0.049051 
0.052807 
0.049481 
0.052974 
0.049465 
0.049257 
0.055938 
0.105225 
0.104629 
0.082126 
0.094264 
0.094771 
0.094259 
0.094771 
0.083366 
0.104047 
0.083092 
0.081316 
0.081315 
0.092719 
0.079469 
0.108073 
0.092710 
0.108073 
0.093129 
0.104035 
0.094961 
0.104398 
0.081316 
0.125285 
0.099128 
0.098320 
0.087841 
0.082650 
0.097481 
0.086914 
0.081921 
0.086680 
0.086680 
0.081485 
0.107769 
0.088711 
0.084874 
0.107874 
0.082612 
0.095190 
0.095229 
0.083942 
0.085089 
0.079923 
0.081132 
0.095301 
0.097917 
0.090576 
0.085268 
0.095896 
0.081062 
0.095454 
0.090083 
0.081027 
0.085251 
0.101961 
0.083022 
0.095445 
0.080604 
0.081018 
0.085240 
0.097826 
0.090495 
0.095435 
0.095845 
0.081023 
0.085241 
0.090072 
0.081024 
0.095436 
0.101966 
0.083028 
0.085242 
0.080610 
0.081024 
0.095437 
0.082345 
0.082694 
0.085242 
0.109264 
0.089885 
0.095437 
0.108636 
0.083028 
0.085242 
0.080610 
0.074817 
0.073569 
0.082490 
0.095437 
0.095617 
0.133784 
0.138292 
0.139667 
0.139695 
0.139694 
0.139689 
0.139693 
0.140105 
0.139774 
0.086622 
0.086622 
0.089038 
0.077179 
0.079159 
0.072465 
0.084345 
0.092656 
0.093083 
0.084037 
0.098826 
0.101847 
0.085968 
0.086444 
0.074619 
0.064825 
0.094138 
0.124406 
0.086607 
0.131576 
0.102571 
0.084703 
0.076503 
0.084191 
0.084191 
0.086793 
0.075696 
0.084714 
0.090949 
0.084009 
0.076569 
0.086383 
0.098391 
0.110757 
0.093222 
0.143196 
0.101090 
0.091038 
0.150913 
0.178131 
0.206980 
SCALARS DENSITY float 
LOOKUP_TABLE default 
21.062863 
1793.748485 
25.176018 
21.769719 
27698405.614303 
21.018223 
21.240278 
94454973.781898 
21.752606 
26.375524 
93.263774 
21.182591 
1016049.757382 
21.720433 
26.190948 
38149.695349 
21.140279 
20.777797 
884697633.374518 
19.566835 
25.323666 
25.067442 
21.172964 
37007.219270 
26.739891 
21.771596 
316273.777846 
21.090105 
19.093886 
712294343.251403 
19.896014 
26.123294 
24.096335 
21.137119 
17737940.151755 
21.748542 
26.688100 
5268.842595 
21.070830 
21.635559 
1234502700.728539 
20.708871 
221.837168 
25.418917 
20.933356 
21.850718 
20.898151 
86197.711515 
216343.896194 
41.634855 
23.380094 
19.495582 
21.974855 
22.016984 
20.914764 
5726365.386368 
13696.268630 
24.544644 
22.922642 
437.285707 
29425155.015352 
20.907279 
21.907337 
22.937898 
21.346891 
23.674250 
20.533648 
20.902631 
20.959116 
21.700046 
21.665557 
21.937286 
21.424863 
22.263807 
20.102397 
21.212467 
22.245598 
22.288269 
22.725299 
21.952018 
22.521186 
24.449454 
21.701800 
20.875297 
22.116714 
22.555453 
23.342189 
21.490953 
17.285983 
22.842364 
32.609305 
19.791533 
316.458737 
540.721452 
18.297061 
3615.825679 
1469.895629 
46.629594 
14910.675366 
2937.109562 
89.076572 
22128.872956 
943.285173 
126.573203 
2357.191168 
120.376123 
89.906878 
54.189882 
18.145311 
23.722132 
22.352522 
22.823350 
18.464781 
21.346144 
21.911941 
20.172857 
24.552907 
22.647749 
17.714836 
22.431294 
22.541490 
23.479370 
22.389163 
22.498821 
21.681351 
21.220865 
21.059603 
21.569905 
20.844870 
20.961871 
20.510423 
20.626963 
21.902573 
21.309446 
21.271763 
21.190877 
52.400602 
19.995879 
19.312488 
29.550801 
21.747851 
19.885583 
18.181284 
21.423905 
20.622847 
21.600567 
21.201827 
20.910469 
19.498464 
20.453649 
19.379749 
19.160540 
23.453311 
20.908464 
19.687331 
24.103221 
27.015398 
20.460694 
19.637845 
26.703556 
19.377110 
21.271657 
21.226170 
19.774221 
20.508331 
17.572728 
22.472806 
19.868477 
29.175566 
23.597605 
18.899148 
18.194197 
22.868146 
19.389404 
20.806305 
24.897974 
19.557704 
21.158201 
22.204206 
21.255553 
21.564608 
20.953048 
18.547690 
19.707689 
SCALARS ELEM_i float 
LOOKUP_TABLE default 
203 
220 
161 
222 
180 
183 
202 
200 
162 
221 
160 
203 
200 
162 
221 
160 
183 
222 
180 
162 
220 
161 
203 
220 
161 
222 
180 
183 
222 
200 
162 
221 
161 
203 
200 
162 
221 
160 
183 
222 
180 
162 
220 
161 
203 
162 
183 
180 
200 
220 
160 
222 
222 
162 
183 
180 
200 
221 
161 
160 
200 
202 
221 
221 
182 
161 
202 
202 
202 
202 
202 
202 
202 
202 
202 
202 
202 
222 
222 
202 
221 
221 
202 
221 
221 
221 
221 
221 
221 
220 
200 
201 
200 
200 
201 
200 
200 
200 
200 
180 
200 
180 
180 
180 
180 
180 
180 
180 
161 
180 
161 
161 
181 
161 
161 
181 
161 
161 
161 
162 
162 
161 
162 
182 
182 
182 
182 
182 
182 
182 
183 
202 
182 
182 
202 
201 
200 
181 
181 
180 
182 
201 
201 
202 
182 
202 
202 
201 
201 
201 
201 
201 
201 
202 
201 
201 
201 
201 
201 
201 
201 
182 
182 
201 
181 
181 
181 
181 
181 
181 
181 
181 
181 
181 
181 
181 
181 
182 
181 
182 
182 
182 
201 
181 
VECTORS VELOCITY float 
-0.037596 -2.133536 0.000000 
-2.453447 -26.250942 0.000000 
-0.453134 -2.610966 0.000000 
-0.156103 -1.925601 0.000000 
1.291295 -112.079023 0.000000 
0.178580 -1.851847 0.000000 
-0.567293 -1.715772 0.000000 
-2.452492 -138.053469 0.000000 
0.455091 -2.380085 0.000000 
0.227902 -3.342085 0.000000 
0.810680 -7.031684 0.000000 
-0.374361 -2.103863 0.000000 
0.316717 -74.443828 0.000000 
1.574486 -0.290351 0.000000 
-0.174786 -1.468841 0.000000 
-1.650599 -43.635402 0.000000 
0.142772 -2.206213 0.000000 
0.356095 -2.931330 0.000000 
1.809917 -157.948777 0.000000 
0.302791 -2.125315 0.000000 
0.117488 -1.860589 0.000000 
-1.130736 -3.951513 0.000000 
-0.273169 -2.157480 0.000000 
-0.375707 -39.477483 0.000000 
0.108159 -1.542418 0.000000 
-0.661169 -1.093700 0.000000 
-1.103006 -66.119150 0.000000 
0.183066 -2.059107 0.000000 
-0.011634 -2.513623 0.000000 
-1.725381 -147.547280 0.000000 
0.171122 -2.535791 0.000000 
0.192951 -3.297292 0.000000 
-1.177789 -3.124260 0.000000 
-0.451456 -1.979350 0.000000 
-1.986095 -117.948145 0.000000 
0.826734 -1.767627 0.000000 
0.325800 -2.463461 0.000000 
2.070341 -31.967024 0.000000 
0.060561 -2.132072 0.000000 
0.222702 -2.585395 0.000000 
2.494417 -145.677028 0.000000 
0.280883 -1.555918 0.000000 
-1.494168 -12.000792 0.000000 
-0.936796 -3.872473 0.000000 
-0.156658 -1.929882 0.000000 
0.151564 -2.597753 0.000000 
0.081028 -1.923129 0.000000 
-1.027598 -50.166941 0.000000 
0.359188 -59.965857 0.000000 
-0.024203 -0.574208 0.000000 
-0.858157 -0.319206 0.000000 
-0.497604 -2.027095 0.000000 
0.203423 -2.783759 0.000000 
0.955479 -1.463435 0.000000 
0.136113 -1.837780 0.000000 
0.432440 -77.773556 0.000000 
1.439706 -28.835702 0.000000 
0.238435 -1.544048 0.000000 
-0.576486 -2.739150 0.000000 
0.633731 -8.394576 0.000000 
0.058407 -76.751005 0.000000 
-0.430687 -1.639536 0.000000 
-0.897974 -0.856894 0.000000 
0.268614 -2.452568 0.000000 
0.225949 -1.501059 0.000000 
0.697183 -1.042189 0.000000 
-0.132427 -1.456099 0.000000 
-0.247244 -1.812647 0.000000 
-0.375347 -1.818040 0.000000 
-0.108975 -2.084082 0.000000 
-0.220202 -2.243529 0.000000 
-0.107777 -2.289276 0.000000 
-0.061488 -1.964114 0.000000 
-0.225819 -2.426588 0.000000 
-0.044166 -1.849998 0.000000 
-0.038635 -1.887061 0.000000 
-0.139901 -2.819840 0.000000 
-0.070711 -2.707598 0.000000 
-0.169351 -2.670740 0.000000 
-0.076579 -2.862988 0.000000 
-0.479303 -1.903391 0.000000 
0.090753 -2.502668 0.000000 
0.083511 -3.406291 0.000000 
0.204466 -1.858046 0.000000 
0.266459 -0.530451 0.000000 
0.130602 -2.892460 0.000000 
0.381414 0.284849 0.000000 
0.508690 3.489440 0.000000 
0.083425 -0.711985 0.000000 
0.489233 5.624614 0.000000 
0.454206 6.433981 0.000000 
0.508328 3.684391 0.000000 
0.742438 -4.293004 0.000000 
0.564764 -4.697797 0.000000 
0.445770 5.707043 0.000000 
0.731916 -20.814811 0.000000 
0.371860 -12.791927 0.000000 
0.276593 4.238006 0.000000 
0.185120 -23.554747 0.000000 
-0.120162 -13.053772 0.000000 
0.204404 1.358370 0.000000 
-0.418252 -25.414502 0.000000 
-0.478635 -9.753702 0.000000 
-0.015631 -0.340349 0.000000 
-0.799711 -13.820001 0.000000 
-0.259182 1.380148 0.000000 
-0.067460 1.339147 0.000000 
-0.125853 4.425520 0.000000 
-0.118087 6.274172 0.000000 
0.046442 6.424040 0.000000 
-0.495095 1.848359 0.000000 
-0.410476 0.400953 0.000000 
-0.049574 5.339201 0.000000 
-0.366576 -1.586284 0.000000 
-0.176242 -2.171503 0.000000 
-0.125751 1.591295 0.000000 
0.111618 -2.176021 0.000000 
0.392370 -2.409717 0.000000 
-0.015440 -1.081414 0.000000 
0.506527 -2.213731 0.000000 
0.090631 -2.798098 0.000000 
-0.321021 -3.730104 0.000000 
0.025090 -2.636214 0.000000 
-0.047009 -2.410040 0.000000 
-0.207654 -3.417631 0.000000 
0.154499 -1.910746 0.000000 
0.127314 -1.846819 0.000000 
-0.057665 -2.489449 0.000000 
0.122814 -1.458369 0.000000 
0.093759 -1.546445 0.000000 
0.050570 -1.445200 0.000000 
-0.020737 -1.522499 0.000000 
-0.044647 -2.203950 0.000000 
0.002898 -1.902860 0.000000 
-0.089400 -2.454586 0.000000 
0.231634 -3.672612 0.000000 
0.090223 3.470476 0.000000 
-0.126737 2.870663 0.000000 
-0.086375 -2.572070 0.000000 
0.047345 5.523203 0.000000 
-0.142630 -3.056662 0.000000 
0.211858 0.428055 0.000000 
0.353109 5.437378 0.000000 
-0.044675 -2.229850 0.000000 
-0.035846 -1.794931 0.000000 
-0.043887 -2.502921 0.000000 
0.051463 -3.073122 0.000000 
0.183407 -3.459833 0.000000 
0.082281 -2.556073 0.000000 
0.080343 -3.108743 0.000000 
0.073713 -0.925495 0.000000 
0.066460 -2.523422 0.000000 
0.210309 0.052265 0.000000 
-0.006861 -2.725704 0.000000 
0.294017 2.560438 0.000000 
0.083020 -1.282602 0.000000 
0.086590 -1.199557 0.000000 
0.042496 -2.135056 0.000000 
0.029300 -2.216032 0.000000 
0.039081 -2.285567 0.000000 
-0.022631 -2.661530 0.000000 
-0.061659 -2.262769 0.000000 
-0.038323 -1.943009 0.000000 
0.172459 1.704139 0.000000 
-0.071113 -2.636109 0.000000 
-0.075066 -2.351227 0.000000 
0.030064 -2.265261 0.000000 
-0.167308 -2.940560 0.000000 
0.022361 -2.414936 0.000000 
-0.018685 -0.670001 0.000000 
0.016885 2.304338 0.000000 
0.014306 4.329690 0.000000 
-0.047887 -0.027386 0.000000 
-0.044726 2.400780 0.000000 
-0.101873 1.637083 0.000000 
0.014627 -1.678492 0.000000 
-0.230484 -3.165632 0.000000 
-0.104541 -2.671643 0.000000 
0.004615 -1.090620 0.000000 
-0.185281 -3.198642 0.000000 
-0.093466 -2.588839 0.000000 
-0.045278 -2.126063 0.000000 
0.101409 3.505777 0.000000 
-0.032573 -2.306466 0.000000 
TENSORS STRESS float 
-1.825545 -0.420107 0.000000 
0.000000 1.226103 0.000000 
0.000000 0.000000 0.000000 

-0.499268 0.115340 0.000000 
0.000000 -1.423283 0.000000 
0.000000 0.000000 0.000000 

-2.410653 -3.777561 0.000000 
0.000000 -7.205560 0.000000 
0.000000 0.000000 0.000000 

1.011024 -2.365951 0.000000 
0.000000 1.881071 0.000000 
0.000000 0.000000 0.000000 

-0.000061 -0.000011 0.000000 
0.000000 -0.000192 0.000000 
0.000000 0.000000 0.000000 

-0.980017 -1.093694 0.000000 
0.000000 2.222735 0.000000 
0.000000 0.000000 0.000000 

-1.446891 0.605163 0.000000 
0.000000 0.025219 0.000000 
0.000000 0.000000 0.000000 

-0.000017 0.000002 0.000000 
0.000000 -0.000059 0.000000 
0.000000 0.000000 0.000000 

1.067771 3.908945 0.000000 
0.000000 0.994657 0.000000 
0.000000 0.000000 0.000000 

-0.780800 2.556765 0.000000 
0.000000 -7.245376 0.000000 
0.000000 0.000000 0.000000 

-5.457737 -0.836110 0.000000 
0.000000 -17.683529 0.000000 
0.000000 0.000000 0.000000 

-1.279159 0.545389 0.000000 
0.000000 1.476871 0.000000 
0.000000 0.000000 0.000000 

-0.001479 0.000442 0.000000 
0.000000 -0.004651 0.000000 
0.000000 0.000000 0.000000 

-0.816324 2.775883 0.000000 
0.000000 0.893734 0.000000 
0.000000 0.000000 0.000000 

-3.545116 3.654084 0.000000 
0.000000 -5.961167 0.000000 
0.000000 0.000000 0.000000 

-0.027070 -0.010125 0.000000 
0.000000 -0.089170 0.000000 
0.000000 0.000000 0.000000 

-1.782689 -0.077222 0.000000 
0.000000 1.562868 0.000000 
0.000000 0.000000 0.000000 

3.593323 -4.400969 0.000000 
0.000000 2.466122 0.000000 
0.000000 0.000000 0.000000 

-0.000002 -0.000000 0.000000 
0.000000 -0.000007 0.000000 
0.000000 0.000000 0.000000 

3.790604 6.308704 0.000000 
0.000000 2.638421 0.000000 
0.000000 0.000000 0.000000 

-1.891202 2.294219 0.000000 
0.000000 -15.744318 0.000000 
0.000000 0.000000 0.000000 

0.965592 -2.458290 0.000000 
0.000000 -6.810117 0.000000 
0.000000 0.000000 0.000000 

-1.559799 0.249792 0.000000 
0.000000 1.433663 0.000000 
0.000000 0.000000 0.000000 

-0.035266 0.010030 0.000000 
0.000000 -0.094850 0.000000 
0.000000 0.000000 0.000000 

-3.834538 -4.546443 0.000000 
0.000000 -7.215129 0.000000 
0.000000 0.000000 0.000000 

0.269951 -1.892035 0.000000 
0.000000 1.925157 0.000000 
0.000000 0.000000 0.000000 

-0.004354 -0.001261 0.000000 
0.000000 -0.013165 0.000000 
0.000000 0.000000 0.000000 

-1.338740 -0.741985 0.000000 
0.000000 2.004138 0.000000 
0.000000 0.000000 0.000000 

5.813396 -6.643837 0.000000 
0.000000 4.555007 0.000000 
0.000000 0.000000 0.000000 

-0.000003 0.000000 0.000000 
0.000000 -0.000009 0.000000 
0.000000 0.000000 0.000000 

3.206586 5.892422 0.000000 
0.000000 2.693676 0.000000 
0.000000 0.000000 0.000000 

0.198021 2.136737 0.000000 
0.000000 -7.094240 0.000000 
0.000000 0.000000 0.000000 

2.405933 -1.743006 0.000000 
0.000000 -6.490633 0.000000 
0.000000 0.000000 0.000000 

-1.094519 0.904345 0.000000 
0.000000 1.750023 0.000000 
0.000000 0.000000 0.000000 

-0.000093 0.000017 0.000000 
0.000000 -0.000315 0.000000 
0.000000 0.000000 0.000000 

0.470845 3.724744 0.000000 
0.000000 1.052855 0.000000 
0.000000 0.000000 0.000000 

-3.004044 3.805640 0.000000 
0.000000 -7.594612 0.000000 
0.000000 0.000000 0.000000 

-0.204309 -0.044140 0.000000 
0.000000 -0.568544 0.000000 
0.000000 0.000000 0.000000 

-2.054180 0.582113 0.000000 
0.000000 1.208368 0.000000 
0.000000 0.000000 0.000000 

1.807326 -3.085041 0.000000 
0.000000 2.022232 0.000000 
0.000000 0.000000 0.000000 

-0.000001 -0.000000 0.000000 
0.000000 -0.000005 0.000000 
0.000000 0.000000 0.000000 

0.618773 3.112449 0.000000 
0.000000 0.330938 0.000000 
0.000000 0.000000 0.000000 

-2.957439 0.634542 0.000000 
0.000000 -8.929638 0.000000 
0.000000 0.000000 0.000000 

-0.147499 -3.133529 0.000000 
0.000000 -7.651429 0.000000 
0.000000 0.000000 0.000000 

-2.873676 -0.055878 0.000000 
0.000000 3.071920 0.000000 
0.000000 0.000000 0.000000 

2.471501 7.468684 0.000000 
0.000000 0.504508 0.000000 
0.000000 0.000000 0.000000 

-2.538068 0.451792 0.000000 
0.000000 2.336212 0.000000 
0.000000 0.000000 0.000000 

-0.028939 -0.007097 0.000000 
0.000000 -0.086640 0.000000 
0.000000 0.000000 0.000000 

-0.011671 0.002624 0.000000 
0.000000 -0.036678 0.000000 
0.000000 0.000000 0.000000 

-13.537512 3.745590 0.000000 
0.000000 -47.113809 0.000000 
0.000000 0.000000 0.000000 

1.607525 -3.157485 0.000000 
0.000000 -18.838433 0.000000 
0.000000 0.000000 0.000000 

7.967945 -8.876030 0.000000 
0.000000 4.540680 0.000000 
0.000000 0.000000 0.000000 

3.430418 -5.718192 0.000000 
0.000000 2.049222 0.000000 
0.000000 0.000000 0.000000 

-0.741673 4.552965 0.000000 
0.000000 0.434053 0.000000 
0.000000 0.000000 0.000000 

-1.877888 -0.722611 0.000000 
0.000000 3.005924 0.000000 
0.000000 0.000000 0.000000 

-0.000445 -0.000051 0.000000 
0.000000 -0.001360 0.000000 
0.000000 0.000000 0.000000 

-0.161292 0.058778 0.000000 
0.000000 -0.474839 0.000000 
0.000000 0.000000 0.000000 

1.885798 2.074459 0.000000 
0.000000 -9.298200 0.000000 
0.000000 0.000000 0.000000 

-0.864522 -5.528995 0.000000 
0.000000 -12.962956 0.000000 
0.000000 0.000000 0.000000 

-3.249765 -0.495988 0.000000 
0.000000 -9.576023 0.000000 
0.000000 0.000000 0.000000 

-0.000118 -0.000000 0.000000 
0.000000 -0.000373 0.000000 
0.000000 0.000000 0.000000 

-1.468708 1.581891 0.000000 
0.000000 2.938036 0.000000 
0.000000 0.000000 0.000000 

-1.144982 -1.204956 0.000000 
0.000000 3.689529 0.000000 
0.000000 0.000000 0.000000 

-2.003754 4.558906 0.000000 
0.000000 -10.884891 0.000000 
0.000000 0.000000 0.000000 

-3.427390 0.242665 0.000000 
0.000000 -1.037726 0.000000 
0.000000 0.000000 0.000000 

-4.845588 -5.161116 0.000000 
0.000000 -5.981572 0.000000 
0.000000 0.000000 0.000000 

-1.908539 -0.471229 0.000000 
0.000000 4.073522 0.000000 
0.000000 0.000000 0.000000 

-2.793945 -0.817089 0.000000 
0.000000 -0.488638 0.000000 
0.000000 0.000000 0.000000 

-2.733254 -0.730301 0.000000 
0.000000 -0.392823 0.000000 
0.000000 0.000000 0.000000 

-3.020212 -0.003783 0.000000 
0.000000 -2.825737 0.000000 
0.000000 0.000000 0.000000 

-2.759265 0.607780 0.000000 
0.000000 -2.212422 0.000000 
0.000000 0.000000 0.000000 

-3.171655 0.843151 0.000000 
0.000000 -3.801653 0.000000 
0.000000 0.000000 0.000000 

-2.763772 -0.477551 0.000000 
0.000000 -2.685616 0.000000 
0.000000 0.000000 0.000000 

-2.954729 1.365682 0.000000 
0.000000 -3.090805 0.000000 
0.000000 0.000000 0.000000 

-1.451208 -0.951322 0.000000 
0.000000 -1.365000 0.000000 
0.000000 0.000000 0.000000 

-2.895785 -0.905336 0.000000 
0.000000 -1.856624 0.000000 
0.000000 0.000000 0.000000 

-2.468525 1.399261 0.000000 
0.000000 -3.758088 0.000000 
0.000000 0.000000 0.000000 

0.854401 -3.881763 0.000000 
0.000000 -0.903736 0.000000 
0.000000 0.000000 0.000000 

-1.765052 -1.157132 0.000000 
0.000000 -2.029683 0.000000 
0.000000 0.000000 0.000000 

-2.067962 0.895422 0.000000 
0.000000 -3.829709 0.000000 
0.000000 0.000000 0.000000 

-3.535394 1.169942 0.000000 
0.000000 -1.681288 0.000000 
0.000000 0.000000 0.000000 

-5.108725 4.265485 0.000000 
0.000000 -8.934720 0.000000 
0.000000 0.000000 0.000000 

-1.556737 1.290434 0.000000 
0.000000 -4.475011 0.000000 
0.000000 0.000000 0.000000 

-1.003072 3.362125 0.000000 
0.000000 -7.237512 0.000000 
0.000000 0.000000 0.000000 

0.861768 2.142405 0.000000 
0.000000 -7.050422 0.000000 
0.000000 0.000000 0.000000 

-4.378497 2.835505 0.000000 
0.000000 -6.897731 0.000000 
0.000000 0.000000 0.000000 

2.094483 1.910487 0.000000 
0.000000 -7.632437 0.000000 
0.000000 0.000000 0.000000 

4.939080 -0.201846 0.000000 
0.000000 -4.944412 0.000000 
0.000000 0.000000 0.000000 

3.740074 -1.160212 0.000000 
0.000000 1.791768 0.000000 
0.000000 0.000000 0.000000 

-3.174093 0.517692 0.000000 
0.000000 -32.031841 0.000000 
0.000000 0.000000 0.000000 

-15.920295 7.110329 0.000000 
0.000000 -55.125205 0.000000 
0.000000 0.000000 0.000000 

5.160513 5.205245 0.000000 
0.000000 -3.857810 0.000000 
0.000000 0.000000 0.000000 

-4.728867 1.425002 0.000000 
0.000000 -13.898836 0.000000 
0.000000 0.000000 0.000000 

-2.626801 0.562080 0.000000 
0.000000 -7.586015 0.000000 
0.000000 0.000000 0.000000 

9.581378 4.534110 0.000000 
0.000000 -2.860992 0.000000 
0.000000 0.000000 0.000000 

-0.530948 0.096228 0.000000 
0.000000 -1.588073 0.000000 
0.000000 0.000000 0.000000 

-1.088629 0.092027 0.000000 
0.000000 -3.230666 0.000000 
0.000000 0.000000 0.000000 

-15.224273 2.659063 0.000000 
0.000000 -48.158664 0.000000 
0.000000 0.000000 0.000000 

-0.163760 0.000550 0.000000 
0.000000 -0.492824 0.000000 
0.000000 0.000000 0.000000 

-0.612223 -0.022258 0.000000 
0.000000 -1.776125 0.000000 
0.000000 0.000000 0.000000 

-12.575459 1.060635 0.000000 
0.000000 -37.814713 0.000000 
0.000000 0.000000 0.000000 

-0.091767 -0.009330 0.000000 
0.000000 -0.266917 0.000000 
0.000000 0.000000 0.000000 

-1.618638 -0.246222 0.000000 
0.000000 -4.708630 0.000000 
0.000000 0.000000 0.000000 

-8.873366 -0.120527 0.000000 
0.000000 -26.585156 0.000000 
0.000000 0.000000 0.000000 

-0.869007 -0.194967 0.000000 
0.000000 -2.499220 0.000000 
0.000000 0.000000 0.000000 

-9.145443 -2.110611 0.000000 
0.000000 -27.574257 0.000000 
0.000000 0.000000 0.000000 

-12.218422 -0.745664 0.000000 
0.000000 -37.230428 0.000000 
0.000000 0.000000 0.000000 

-14.566104 -4.229115 0.000000 
0.000000 -47.649163 0.000000 
0.000000 0.000000 0.000000 

12.178233 3.462924 0.000000 
0.000000 -3.204476 0.000000 
0.000000 0.000000 0.000000 

-10.072149 -1.991452 0.000000 
0.000000 -47.934092 0.000000 
0.000000 0.000000 0.000000 

4.953935 -1.309724 0.000000 
0.000000 -7.653424 0.000000 
0.000000 0.000000 0.000000 

2.037030 -2.372014 0.000000 
0.000000 -7.595420 0.000000 
0.000000 0.000000 0.000000 

10.753495 -4.933522 0.000000 
0.000000 -3.943220 0.000000 
0.000000 0.000000 0.000000 

0.666770 -3.529918 0.000000 
0.000000 -9.547844 0.000000 
0.000000 0.000000 0.000000 

-2.640632 -3.300945 0.000000 
0.000000 -7.926099 0.000000 
0.000000 0.000000 0.000000 

3.998527 -3.306180 0.000000 
0.000000 -5.109863 0.000000 
0.000000 0.000000 0.000000 

-5.640369 -5.317273 0.000000 
0.000000 -8.968704 0.000000 
0.000000 0.000000 0.000000 

-3.874202 0.124385 0.000000 
0.000000 -3.609946 0.000000 
0.000000 0.000000 0.000000 

2.524007 0.507819 0.000000 
0.000000 -1.247349 0.000000 
0.000000 0.000000 0.000000 

-1.789287 3.422154 0.000000 
0.000000 -1.627035 0.000000 
0.000000 0.000000 0.000000 

-1.362889 3.587418 0.000000 
0.000000 -2.662768 0.000000 
0.000000 0.000000 0.000000 

-6.169380 -2.651133 0.000000 
0.000000 -8.430496 0.000000 
0.000000 0.000000 0.000000 

0.440665 5.944579 0.000000 
0.000000 -2.569648 0.000000 
0.000000 0.000000 0.000000 

-3.624803 -1.557565 0.000000 
0.000000 -4.123736 0.000000 
0.000000 0.000000 0.000000 

-2.130334 -1.029743 0.000000 
0.000000 -4.609583 0.000000 
0.000000 0.000000 0.000000 

-3.666224 0.635866 0.000000 
0.000000 -1.555813 0.000000 
0.000000 0.000000 0.000000 

-2.709926 0.833795 0.000000 
0.000000 -0.912808 0.000000 
0.000000 0.000000 0.000000 

-2.679014 -0.646179 0.000000 
0.000000 -3.298054 0.000000 
0.000000 0.000000 0.000000 

-2.031912 0.251420 0.000000 
0.000000 0.800047 0.000000 
0.000000 0.000000 0.000000 

-2.285380 0.843603 0.000000 
0.000000 -0.315641 0.000000 
0.000000 0.000000 0.000000 

-1.417732 0.435505 0.000000 
0.000000 2.453295 0.000000 
0.000000 0.000000 0.000000 

-1.928253 -0.847527 0.000000 
0.000000 0.735776 0.000000 
0.000000 0.000000 0.000000 

-3.552931 -0.654423 0.000000 
0.000000 -3.693187 0.000000 
0.000000 0.000000 0.000000 

-3.512060 0.868064 0.000000 
0.000000 -2.181764 0.000000 
0.000000 0.000000 0.000000 

-3.113716 0.520203 0.000000 
0.000000 -4.629669 0.000000 
0.000000 0.000000 0.000000 

-1.975113 3.075978 0.000000 
0.000000 -8.678359 0.000000 
0.000000 0.000000 0.000000 

-25.030963 -0.021627 0.000000 
0.000000 -76.634706 0.000000 
0.000000 0.000000 0.000000 

9.836385 -7.167578 0.000000 
0.000000 -7.429244 0.000000 
0.000000 0.000000 0.000000 

2.317519 -1.005182 0.000000 
0.000000 -6.337243 0.000000 
0.000000 0.000000 0.000000 

-23.215770 0.056860 0.000000 
0.000000 -86.804064 0.000000 
0.000000 0.000000 0.000000 

-3.398649 -0.846353 0.000000 
0.000000 -6.513518 0.000000 
0.000000 0.000000 0.000000 

4.900903 2.755328 0.000000 
0.000000 -4.120107 0.000000 
0.000000 0.000000 0.000000 

14.953716 3.757435 0.000000 
0.000000 -3.103199 0.000000 
0.000000 0.000000 0.000000 

-1.649842 -0.739196 0.000000 
0.000000 -3.210398 0.000000 
0.000000 0.000000 0.000000 

-1.960230 1.344265 0.000000 
0.000000 -2.213802 0.000000 
0.000000 0.000000 0.000000 

-1.786466 -0.153036 0.000000 
0.000000 -3.590581 0.000000 
0.000000 0.000000 0.000000 

-0.841534 0.008565 0.000000 
0.000000 -3.129229 0.000000 
0.000000 0.000000 0.000000 

-0.629268 1.271039 0.000000 
0.000000 -4.076064 0.000000 
0.000000 0.000000 0.000000 

2.261492 -1.220388 0.000000 
0.000000 -0.294995 0.000000 
0.000000 0.000000 0.000000 

0.324238 -0.098862 0.000000 
0.000000 -2.023239 0.000000 
0.000000 0.000000 0.000000 

3.653575 -1.305014 0.000000 
0.000000 -0.638466 0.000000 
0.000000 0.000000 0.000000 

4.189786 -2.052525 0.000000 
0.000000 2.830727 0.000000 
0.000000 0.000000 0.000000 

1.646000 0.744357 0.000000 
0.000000 -5.146693 0.000000 
0.000000 0.000000 0.000000 

-0.790402 -1.094688 0.000000 
0.000000 -3.517423 0.000000 
0.000000 0.000000 0.000000 

7.110269 1.885295 0.000000 
0.000000 -3.079678 0.000000 
0.000000 0.000000 0.000000 

1.115469 -1.262596 0.000000 
0.000000 -4.831002 0.000000 
0.000000 0.000000 0.000000 

0.606448 -1.038060 0.000000 
0.000000 -6.485845 0.000000 
0.000000 0.000000 0.000000 

2.780977 -2.324514 0.000000 
0.000000 0.357996 0.000000 
0.000000 0.000000 0.000000 

3.640612 -2.473018 0.000000 
0.000000 3.327327 0.000000 
0.000000 0.000000 0.000000 

0.437109 -2.604121 0.000000 
0.000000 -5.777794 0.000000 
0.000000 0.000000 0.000000 

4.454628 -2.929700 0.000000 
0.000000 5.420835 0.000000 
0.000000 0.000000 0.000000 

-1.677776 1.327184 0.000000 
0.000000 -3.268031 0.000000 
0.000000 0.000000 0.000000 

-4.341840 0.716952 0.000000 
0.000000 -3.963910 0.000000 
0.000000 0.000000 0.000000 

7.371382 -0.547679 0.000000 
0.000000 -2.327035 0.000000 
0.000000 0.000000 0.000000 

-0.649128 1.382626 0.000000 
0.000000 -2.704829 0.000000 
0.000000 0.000000 0.000000 

6.492399 1.769249 0.000000 
0.000000 10.506595 0.000000 
0.000000 0.000000 0.000000 

2.386959 3.543048 0.000000 
0.000000 -1.676467 0.000000 
0.000000 0.000000 0.000000 

1.223367 -0.391926 0.000000 
0.000000 0.547875 0.000000 
0.000000 0.000000 0.000000 

0.380882 2.731208 0.000000 
0.000000 -6.695980 0.000000 
0.000000 0.000000 0.000000 

3.565536 1.820708 0.000000 
0.000000 -3.677947 0.000000 
0.000000 0.000000 0.000000 

9.901940 3.481396 0.000000 
0.000000 0.032046 0.000000 
0.000000 0.000000 0.000000 

12.272726 1.789475 0.000000 
0.000000 -0.416380 0.000000 
0.000000 0.000000 0.000000 

4.027370 0.585322 0.000000 
0.000000 -4.341993 0.000000 
0.000000 0.000000 0.000000 

7.198539 -0.278008 0.000000 
0.000000 -1.913387 0.000000 
0.000000 0.000000 0.000000 

5.314702 -2.457677 0.000000 
0.000000 -4.320496 0.000000 
0.000000 0.000000 0.000000 

1.570335 1.933928 0.000000 
0.000000 -6.378647 0.000000 
0.000000 0.000000 0.000000 

2.155724 -2.480380 0.000000 
0.000000 0.951756 0.000000 
0.000000 0.000000 0.000000 

-1.592025 0.925129 0.000000 
0.000000 -3.652944 0.000000 
0.000000 0.000000 0.000000 

3.942758 1.101301 0.000000 
0.000000 -7.404787 0.000000 
0.000000 0.000000 0.000000 

-1.753214 -0.081892 0.000000 
0.000000 -4.375403 0.000000 
0.000000 0.000000 0.000000 

-2.104618 0.393791 0.000000 
0.000000 -3.845042 0.000000 
0.000000 0.000000 0.000000 

-4.323736 0.205978 0.000000 
0.000000 -4.339930 0.000000 
0.000000 0.000000 0.000000 

18.882309 -5.023128 0.000000 
0.000000 -1.190262 0.000000 
0.000000 0.000000 0.000000 

5.960692 2.561983 0.000000 
0.000000 -4.288875 0.000000 
0.000000 0.000000 0.000000 

TENSORS STRAIN float 
-0.008792 -0.002244 0.000000 
0.000000 0.007511 0.000000 
0.000000 0.000000 0.000000 

0.039279 0.058459 0.000000 
0.000000 -0.429052 0.000000 
0.000000 0.000000 0.000000 

0.003012 -0.023992 0.000000 
0.000000 -0.027442 0.000000 
0.000000 0.000000 0.000000 

0.000879 -0.014497 0.000000 
0.000000 0.006210 0.000000 
0.000000 0.000000 0.000000 

0.102878 -0.072571 0.000000 
0.000000 -0.793246 0.000000 
0.000000 0.000000 0.000000 

-0.007173 -0.005799 0.000000 
0.000000 0.009809 0.000000 
0.000000 0.000000 0.000000 

-0.005331 0.003162 0.000000 
0.000000 0.002360 0.000000 
0.000000 0.000000 0.000000 

0.134497 0.046114 0.000000 
0.000000 -0.841364 0.000000 
0.000000 0.000000 0.000000 

0.002464 0.021451 0.000000 
0.000000 0.002063 0.000000 
0.000000 0.000000 0.000000 

0.010969 0.017237 0.000000 
0.000000 -0.032614 0.000000 
0.000000 0.000000 0.000000 

0.034056 -0.019180 0.000000 
0.000000 -0.246393 0.000000 
0.000000 0.000000 0.000000 

-0.007777 0.003169 0.000000 
0.000000 0.008236 0.000000 
0.000000 0.000000 0.000000 

0.089998 0.110436 0.000000 
0.000000 -0.702736 0.000000 
0.000000 0.000000 0.000000 

-0.004485 0.014830 0.000000 
0.000000 0.004651 0.000000 
0.000000 0.000000 0.000000 

-0.004589 0.024189 0.000000 
0.000000 -0.020583 0.000000 
0.000000 0.000000 0.000000 

0.084126 -0.109178 0.000000 
0.000000 -0.585480 0.000000 
0.000000 0.000000 0.000000 

-0.008926 -0.000402 0.000000 
0.000000 0.008469 0.000000 
0.000000 0.000000 0.000000 

0.009352 -0.023181 0.000000 
0.000000 0.003415 0.000000 
0.000000 0.000000 0.000000 

0.133105 -0.010677 0.000000 
0.000000 -0.887960 0.000000 
0.000000 0.000000 0.000000 

0.010198 0.034555 0.000000 
0.000000 0.003887 0.000000 
0.000000 0.000000 0.000000 

0.021174 0.014290 0.000000 
0.000000 -0.065112 0.000000 
0.000000 0.000000 0.000000 

0.016764 -0.015157 0.000000 
0.000000 -0.031178 0.000000 
0.000000 0.000000 0.000000 

-0.008277 0.001358 0.000000 
0.000000 0.008003 0.000000 
0.000000 0.000000 0.000000 

0.036956 0.098348 0.000000 
0.000000 -0.547289 0.000000 
0.000000 0.000000 0.000000 

-0.003410 -0.029833 0.000000 
0.000000 -0.025593 0.000000 
0.000000 0.000000 0.000000 

-0.002236 -0.010885 0.000000 
0.000000 0.007287 0.000000 
0.000000 0.000000 0.000000 

0.075277 -0.105300 0.000000 
0.000000 -0.660334 0.000000 
0.000000 0.000000 0.000000 

-0.007962 -0.003840 0.000000 
0.000000 0.009339 0.000000 
0.000000 0.000000 0.000000 

0.012661 -0.031121 0.000000 
0.000000 0.006766 0.000000 
0.000000 0.000000 0.000000 

0.142189 0.018851 0.000000 
0.000000 -0.887505 0.000000 
0.000000 0.000000 0.000000 

0.007474 0.030657 0.000000 
0.000000 0.004805 0.000000 
0.000000 0.000000 0.000000 

0.014778 0.013929 0.000000 
0.000000 -0.032760 0.000000 
0.000000 0.000000 0.000000 

0.020336 -0.009761 0.000000 
0.000000 -0.029485 0.000000 
0.000000 0.000000 0.000000 

-0.007032 0.004925 0.000000 
0.000000 0.008460 0.000000 
0.000000 0.000000 0.000000 

0.120448 0.071168 0.000000 
0.000000 -0.794561 0.000000 
0.000000 0.000000 0.000000 

0.000073 0.019796 0.000000 
0.000000 0.003166 0.000000 
0.000000 0.000000 0.000000 

0.001152 0.024970 0.000000 
0.000000 -0.028968 0.000000 
0.000000 0.000000 0.000000 

0.038467 -0.061638 0.000000 
0.000000 -0.470155 0.000000 
0.000000 0.000000 0.000000 

-0.009339 0.003020 0.000000 
0.000000 0.007584 0.000000 
0.000000 0.000000 0.000000 

0.003743 -0.017536 0.000000 
0.000000 0.004964 0.000000 
0.000000 0.000000 0.000000 

0.124674 -0.034209 0.000000 
0.000000 -0.885684 0.000000 
0.000000 0.000000 0.000000 

0.001817 0.016939 0.000000 
0.000000 0.000250 0.000000 
0.000000 0.000000 0.000000 

0.035637 0.037151 0.000000 
0.000000 -0.314020 0.000000 
0.000000 0.000000 0.000000 

0.012950 -0.018511 0.000000 
0.000000 -0.031379 0.000000 
0.000000 0.000000 0.000000 

-0.007586 -0.000145 0.000000 
0.000000 0.007791 0.000000 
0.000000 0.000000 0.000000 

0.004286 0.020277 0.000000 
0.000000 -0.001054 0.000000 
0.000000 0.000000 0.000000 

-0.008196 0.001495 0.000000 
0.000000 0.007929 0.000000 
0.000000 0.000000 0.000000 

0.068171 -0.084361 0.000000 
0.000000 -0.617758 0.000000 
0.000000 0.000000 0.000000 

0.084099 0.077859 0.000000 
0.000000 -0.658029 0.000000 
0.000000 0.000000 0.000000 

0.026746 0.021508 0.000000 
0.000000 -0.166055 0.000000 
0.000000 0.000000 0.000000 

0.021734 -0.010126 0.000000 
0.000000 -0.043839 0.000000 
0.000000 0.000000 0.000000 

0.012815 -0.026984 0.000000 
0.000000 0.002396 0.000000 
0.000000 0.000000 0.000000 

0.004905 -0.015700 0.000000 
0.000000 0.001113 0.000000 
0.000000 0.000000 0.000000 

-0.002237 0.015683 0.000000 
0.000000 0.001813 0.000000 
0.000000 0.000000 0.000000 

-0.007411 -0.002416 0.000000 
0.000000 0.008919 0.000000 
0.000000 0.000000 0.000000 

0.088519 -0.046373 0.000000 
0.000000 -0.749660 0.000000 
0.000000 0.000000 0.000000 

0.056740 0.112873 0.000000 
0.000000 -0.545373 0.000000 
0.000000 0.000000 0.000000 

0.016500 0.008329 0.000000 
0.000000 -0.028405 0.000000 
0.000000 0.000000 0.000000 

0.009054 -0.015245 0.000000 
0.000000 -0.024305 0.000000 
0.000000 0.000000 0.000000 

0.036666 -0.030413 0.000000 
0.000000 -0.351242 0.000000 
0.000000 0.000000 0.000000 

0.104341 -0.001285 0.000000 
0.000000 -0.799574 0.000000 
0.000000 0.000000 0.000000 

-0.005573 0.004617 0.000000 
0.000000 0.007288 0.000000 
0.000000 0.000000 0.000000 

-0.005224 -0.003299 0.000000 
0.000000 0.008010 0.000000 
0.000000 0.000000 0.000000 

0.005850 0.014316 0.000000 
0.000000 -0.022039 0.000000 
0.000000 0.000000 0.000000 

-0.005550 0.000645 0.000000 
0.000000 0.000802 0.000000 
0.000000 0.000000 0.000000 

-0.006046 -0.019534 0.000000 
0.000000 -0.010345 0.000000 
0.000000 0.000000 0.000000 

-0.005450 -0.001004 0.000000 
0.000000 0.007295 0.000000 
0.000000 0.000000 0.000000 

-0.004959 -0.002240 0.000000 
0.000000 0.001360 0.000000 
0.000000 0.000000 0.000000 

-0.004976 -0.002024 0.000000 
0.000000 0.001510 0.000000 
0.000000 0.000000 0.000000 

-0.004067 -0.000012 0.000000 
0.000000 -0.003443 0.000000 
0.000000 0.000000 0.000000 

-0.004320 0.002071 0.000000 
0.000000 -0.002457 0.000000 
0.000000 0.000000 0.000000 

-0.003159 0.002467 0.000000 
0.000000 -0.005002 0.000000 
0.000000 0.000000 0.000000 

-0.003618 -0.001530 0.000000 
0.000000 -0.003367 0.000000 
0.000000 0.000000 0.000000 

-0.004031 0.004825 0.000000 
0.000000 -0.004512 0.000000 
0.000000 0.000000 0.000000 

-0.001828 -0.002868 0.000000 
0.000000 -0.001568 0.000000 
0.000000 0.000000 0.000000 

-0.004677 -0.002880 0.000000 
0.000000 -0.001371 0.000000 
0.000000 0.000000 0.000000 

-0.002131 0.004966 0.000000 
0.000000 -0.006708 0.000000 
0.000000 0.000000 0.000000 

0.002337 -0.010436 0.000000 
0.000000 -0.002390 0.000000 
0.000000 0.000000 0.000000 

-0.002087 -0.003854 0.000000 
0.000000 -0.002968 0.000000 
0.000000 0.000000 0.000000 

-0.001004 0.003011 0.000000 
0.000000 -0.006928 0.000000 
0.000000 0.000000 0.000000 

-0.005348 0.003175 0.000000 
0.000000 -0.000316 0.000000 
0.000000 0.000000 0.000000 

-0.003446 0.016411 0.000000 
0.000000 -0.018166 0.000000 
0.000000 0.000000 0.000000 

0.000749 0.003825 0.000000 
0.000000 -0.007900 0.000000 
0.000000 0.000000 0.000000 

0.004187 0.009581 0.000000 
0.000000 -0.013580 0.000000 
0.000000 0.000000 0.000000 

0.009311 0.007338 0.000000 
0.000000 -0.017790 0.000000 
0.000000 0.000000 0.000000 

-0.003431 0.009771 0.000000 
0.000000 -0.012112 0.000000 
0.000000 0.000000 0.000000 

0.014260 0.007254 0.000000 
0.000000 -0.022671 0.000000 
0.000000 0.000000 0.000000 

0.017014 -0.000695 0.000000 
0.000000 -0.017021 0.000000 
0.000000 0.000000 0.000000 

0.004906 -0.002736 0.000000 
0.000000 0.000312 0.000000 
0.000000 0.000000 0.000000 

0.022404 0.001570 0.000000 
0.000000 -0.065112 0.000000 
0.000000 0.000000 0.000000 

0.025242 0.033278 0.000000 
0.000000 -0.158248 0.000000 
0.000000 0.000000 0.000000 

0.014392 0.015706 0.000000 
0.000000 -0.012820 0.000000 
0.000000 0.000000 0.000000 

0.036870 0.061133 0.000000 
0.000000 -0.356524 0.000000 
0.000000 0.000000 0.000000 

0.037899 0.048741 0.000000 
0.000000 -0.392143 0.000000 
0.000000 0.000000 0.000000 

0.018852 0.011299 0.000000 
0.000000 -0.012153 0.000000 
0.000000 0.000000 0.000000 

0.054663 0.050212 0.000000 
0.000000 -0.496950 0.000000 
0.000000 0.000000 0.000000 

0.048854 0.021703 0.000000 
0.000000 -0.456303 0.000000 
0.000000 0.000000 0.000000 

0.026953 0.018907 0.000000 
0.000000 -0.207229 0.000000 
0.000000 0.000000 0.000000 

0.063145 0.001047 0.000000 
0.000000 -0.562439 0.000000 
0.000000 0.000000 0.000000 

0.047959 -0.010236 0.000000 
0.000000 -0.487325 0.000000 
0.000000 0.000000 0.000000 

0.030836 0.012868 0.000000 
0.000000 -0.275382 0.000000 
0.000000 0.000000 0.000000 

0.056527 -0.033300 0.000000 
0.000000 -0.568585 0.000000 
0.000000 0.000000 0.000000 

0.042311 -0.037268 0.000000 
0.000000 -0.425386 0.000000 
0.000000 0.000000 0.000000 

0.034055 -0.002327 0.000000 
0.000000 -0.307847 0.000000 
0.000000 0.000000 0.000000 

0.044312 -0.061072 0.000000 
0.000000 -0.466343 0.000000 
0.000000 0.000000 0.000000 

0.032345 -0.036498 0.000000 
0.000000 -0.286336 0.000000 
0.000000 0.000000 0.000000 

0.032041 -0.009132 0.000000 
0.000000 -0.274279 0.000000 
0.000000 0.000000 0.000000 

0.030124 -0.031084 0.000000 
0.000000 -0.213039 0.000000 
0.000000 0.000000 0.000000 

0.027618 0.010082 0.000000 
0.000000 -0.017167 0.000000 
0.000000 0.000000 0.000000 

0.026518 -0.007205 0.000000 
0.000000 -0.110460 0.000000 
0.000000 0.000000 0.000000 

0.018595 -0.004225 0.000000 
0.000000 -0.022078 0.000000 
0.000000 0.000000 0.000000 

0.013566 -0.008686 0.000000 
0.000000 -0.021708 0.000000 
0.000000 0.000000 0.000000 

0.021909 -0.012409 0.000000 
0.000000 -0.015057 0.000000 
0.000000 0.000000 0.000000 

0.009066 -0.009607 0.000000 
0.000000 -0.018733 0.000000 
0.000000 0.000000 0.000000 

0.001816 -0.011325 0.000000 
0.000000 -0.016317 0.000000 
0.000000 0.000000 0.000000 

0.013327 -0.010171 0.000000 
0.000000 -0.014695 0.000000 
0.000000 0.000000 0.000000 

-0.004980 -0.021055 0.000000 
0.000000 -0.018159 0.000000 
0.000000 0.000000 0.000000 

-0.005919 0.000452 0.000000 
0.000000 -0.004959 0.000000 
0.000000 0.000000 0.000000 

0.005166 0.001225 0.000000 
0.000000 -0.003934 0.000000 
0.000000 0.000000 0.000000 

-0.002707 0.012119 0.000000 
0.000000 -0.002132 0.000000 
0.000000 0.000000 0.000000 

-0.000550 0.012713 0.000000 
0.000000 -0.005156 0.000000 
0.000000 0.000000 0.000000 

-0.006407 -0.009493 0.000000 
0.000000 -0.014504 0.000000 
0.000000 0.000000 0.000000 

0.002875 0.015835 0.000000 
0.000000 -0.005144 0.000000 
0.000000 0.000000 0.000000 

-0.004231 -0.005068 0.000000 
0.000000 -0.005854 0.000000 
0.000000 0.000000 0.000000 

-0.000320 -0.003041 0.000000 
0.000000 -0.007642 0.000000 
0.000000 0.000000 0.000000 

-0.005332 0.001615 0.000000 
0.000000 0.000027 0.000000 
0.000000 0.000000 0.000000 

-0.005352 0.002749 0.000000 
0.000000 0.000574 0.000000 
0.000000 0.000000 0.000000 

-0.002914 -0.002126 0.000000 
0.000000 -0.004951 0.000000 
0.000000 0.000000 0.000000 

-0.005588 0.000845 0.000000 
0.000000 0.003932 0.000000 
0.000000 0.000000 0.000000 

-0.005482 0.003073 0.000000 
0.000000 0.001692 0.000000 
0.000000 0.000000 0.000000 

-0.006264 0.001578 0.000000 
0.000000 0.007766 0.000000 
0.000000 0.000000 0.000000 

-0.005105 -0.002755 0.000000 
0.000000 0.003555 0.000000 
0.000000 0.000000 0.000000 

-0.004115 -0.001952 0.000000 
0.000000 -0.004533 0.000000 
0.000000 0.000000 0.000000 

-0.005226 0.002515 0.000000 
0.000000 -0.001372 0.000000 
0.000000 0.000000 0.000000 

-0.001634 0.001075 0.000000 
0.000000 -0.004768 0.000000 
0.000000 0.000000 0.000000 

0.002432 0.006127 0.000000 
0.000000 -0.010921 0.000000 
0.000000 0.000000 0.000000 

0.026673 -0.000105 0.000000 
0.000000 -0.225018 0.000000 
0.000000 0.000000 0.000000 

0.016960 -0.013338 0.000000 
0.000000 -0.015168 0.000000 
0.000000 0.000000 0.000000 

0.006332 -0.001807 0.000000 
0.000000 -0.009222 0.000000 
0.000000 0.000000 0.000000 

0.026924 0.000156 0.000000 
0.000000 -0.147951 0.000000 
0.000000 0.000000 0.000000 

-0.000860 -0.001713 0.000000 
0.000000 -0.007164 0.000000 
0.000000 0.000000 0.000000 

0.008611 0.005084 0.000000 
0.000000 -0.008034 0.000000 
0.000000 0.000000 0.000000 

0.019275 0.006354 0.000000 
0.000000 -0.011259 0.000000 
0.000000 0.000000 0.000000 

-0.000617 -0.002377 0.000000 
0.000000 -0.005634 0.000000 
0.000000 0.000000 0.000000 

-0.002191 0.004161 0.000000 
0.000000 -0.002976 0.000000 
0.000000 0.000000 0.000000 

-0.000547 -0.000483 0.000000 
0.000000 -0.006237 0.000000 
0.000000 0.000000 0.000000 

0.001249 0.000031 0.000000 
0.000000 -0.006921 0.000000 
0.000000 0.000000 0.000000 

0.002687 0.004365 0.000000 
0.000000 -0.009150 0.000000 
0.000000 0.000000 0.000000 

0.005847 -0.004269 0.000000 
0.000000 -0.003095 0.000000 
0.000000 0.000000 0.000000 

0.002629 -0.000312 0.000000 
0.000000 -0.004771 0.000000 
0.000000 0.000000 0.000000 

0.007475 -0.003548 0.000000 
0.000000 -0.004195 0.000000 
0.000000 0.000000 0.000000 

0.005576 -0.005493 0.000000 
0.000000 0.001939 0.000000 
0.000000 0.000000 0.000000 

0.009782 0.002701 0.000000 
0.000000 -0.014862 0.000000 
0.000000 0.000000 0.000000 

0.001381 -0.003011 0.000000 
0.000000 -0.006120 0.000000 
0.000000 0.000000 0.000000 

0.014829 0.004738 0.000000 
0.000000 -0.010778 0.000000 
0.000000 0.000000 0.000000 

0.008129 -0.004602 0.000000 
0.000000 -0.013546 0.000000 
0.000000 0.000000 0.000000 

0.009630 -0.004217 0.000000 
0.000000 -0.019184 0.000000 
0.000000 0.000000 0.000000 

0.006556 -0.008286 0.000000 
0.000000 -0.002081 0.000000 
0.000000 0.000000 0.000000 

0.006105 -0.009739 0.000000 
0.000000 0.004871 0.000000 
0.000000 0.000000 0.000000 

0.007520 -0.009603 0.000000 
0.000000 -0.015398 0.000000 
0.000000 0.000000 0.000000 

0.003021 -0.005932 0.000000 
0.000000 0.004977 0.000000 
0.000000 0.000000 0.000000 

-0.000620 0.004238 0.000000 
0.000000 -0.005697 0.000000 
0.000000 0.000000 0.000000 

-0.003880 0.001504 0.000000 
0.000000 -0.003087 0.000000 
0.000000 0.000000 0.000000 

0.014682 -0.001373 0.000000 
0.000000 -0.009625 0.000000 
0.000000 0.000000 0.000000 

0.001124 0.004352 0.000000 
0.000000 -0.005347 0.000000 
0.000000 0.000000 0.000000 

0.004159 0.005283 0.000000 
0.000000 0.016146 0.000000 
0.000000 0.000000 0.000000 

0.007543 0.012295 0.000000 
0.000000 -0.006557 0.000000 
0.000000 0.000000 0.000000 

0.002123 -0.001202 0.000000 
0.000000 0.000051 0.000000 
0.000000 0.000000 0.000000 

0.009944 0.011935 0.000000 
0.000000 -0.020982 0.000000 
0.000000 0.000000 0.000000 

0.014587 0.007379 0.000000 
0.000000 -0.014769 0.000000 
0.000000 0.000000 0.000000 

0.020075 0.010097 0.000000 
0.000000 -0.008550 0.000000 
0.000000 0.000000 0.000000 

0.022667 0.004654 0.000000 
0.000000 -0.010333 0.000000 
0.000000 0.000000 0.000000 

0.014586 0.002071 0.000000 
0.000000 -0.015031 0.000000 
0.000000 0.000000 0.000000 

0.018478 -0.000915 0.000000 
0.000000 -0.011518 0.000000 
0.000000 0.000000 0.000000 

0.015707 -0.007695 0.000000 
0.000000 -0.014462 0.000000 
0.000000 0.000000 0.000000 

0.009911 0.006362 0.000000 
0.000000 -0.016238 0.000000 
0.000000 0.000000 0.000000 

0.002809 -0.005694 0.000000 
0.000000 0.000045 0.000000 
0.000000 0.000000 0.000000 

-0.000055 0.002730 0.000000 
0.000000 -0.006136 0.000000 
0.000000 0.000000 0.000000 

0.010041 0.002220 0.000000 
0.000000 -0.012833 0.000000 
0.000000 0.000000 0.000000 

0.000233 -0.000224 0.000000 
0.000000 -0.006934 0.000000 
0.000000 0.000000 0.000000 

-0.000985 0.001213 0.000000 
0.000000 -0.006344 0.000000 
0.000000 0.000000 0.000000 

-0.003113 0.000372 0.000000 
0.000000 -0.003142 0.000000 
0.000000 0.000000 0.000000 

0.018375 -0.006799 0.000000 
0.000000 -0.008796 0.000000 
0.000000 0.000000 0.000000 

0.006757 0.003171 0.000000 
0.000000 -0.005930 0.000000 
0.000000 0.000000 0.000000 

