# vtk DataFile Version 3.0 
vtk output 
ASCII 
DATASET UNSTRUCTURED_GRID 
POINTS 184 float 
-0.027212 -2.050720 0.000000 
-0.353850 -2.898181 0.000000 
0.474309 -2.548639 0.000000 
-0.448278 -2.358089 0.000000 
0.178737 -3.077878 0.000000 
0.222065 -2.105664 0.000000 
-0.284180 -2.144933 0.000000 
-0.115439 -3.116425 0.000000 
0.419850 -2.299307 0.000000 
-0.462529 -2.625682 0.000000 
0.386662 -2.822270 0.000000 
-0.164051 -2.079712 0.000000 
-0.238697 -3.014412 0.000000 
0.463819 -2.422505 0.000000 
-0.472625 -2.494954 0.000000 
0.289154 -2.949199 0.000000 
0.097294 -2.063941 0.000000 
-0.379985 -2.233693 0.000000 
0.048431 -3.142230 0.000000 
0.337882 -2.185063 0.000000 
-0.420683 -2.744716 0.000000 
0.448217 -2.680444 0.000000 
-0.117931 -2.066438 0.000000 
-0.313713 -2.937310 0.000000 
0.473568 -2.502486 0.000000 
-0.460148 -2.405439 0.000000 
0.251817 -2.998922 0.000000 
0.176488 -2.087780 0.000000 
-0.348542 -2.198095 0.000000 
-0.062207 -3.127452 0.000000 
0.369285 -2.220490 0.000000 
-0.450440 -2.668669 0.000000 
0.428435 -2.726016 0.000000 
-0.209609 -2.098234 0.000000 
-0.162681 -3.086279 0.000000 
0.438847 -2.343185 0.000000 
-0.472140 -2.541282 0.000000 
0.331390 -2.920711 0.000000 
0.018350 -2.050705 0.000000 
-0.429664 -2.313502 0.000000 
0.099947 -3.127830 0.000000 
0.300359 -2.155624 0.000000 
-0.381464 -2.843146 0.000000 
0.460320 -2.637163 0.000000 
-0.078077 -2.082259 0.000000 
0.369518 -2.266922 0.000000 
0.048095 -2.078876 0.000000 
0.209624 -2.965903 0.000000 
-0.174434 -2.986218 0.000000 
-0.373317 -2.779305 0.000000 
0.389877 -2.740085 0.000000 
-0.305100 -2.196366 0.000000 
-0.388588 -2.294145 0.000000 
0.424526 -2.383779 0.000000 
0.139797 -2.098842 0.000000 
0.118520 -3.018840 0.000000 
-0.265573 -2.912457 0.000000 
-0.416020 -2.686677 0.000000 
0.441481 -2.596147 0.000000 
0.331557 -2.842235 0.000000 
-0.013914 -3.012842 0.000000 
-0.225504 -2.135686 0.000000 
-0.443436 -2.445141 0.000000 
-0.444331 -2.575714 0.000000 
0.254408 -2.154382 0.000000 
0.445583 -2.473102 0.000000 
-0.079057 -2.137569 0.000000 
-0.130210 -2.181280 0.000000 
-0.191441 -2.176728 0.000000 
-0.111446 -2.240355 0.000000 
-0.223258 -2.232014 0.000000 
-0.170563 -2.268887 0.000000 
-0.055410 -2.254308 0.000000 
-0.277958 -2.242866 0.000000 
-0.040202 -2.309747 0.000000 
-0.014931 -2.212999 0.000000 
-0.295211 -2.302302 0.000000 
-0.348991 -2.331703 0.000000 
-0.349879 -2.398432 0.000000 
-0.253572 -2.340895 0.000000 
-0.390937 -2.446537 0.000000 
-0.369887 -2.505264 0.000000 
-0.283141 -2.398433 0.000000 
-0.394994 -2.561531 0.000000 
-0.361513 -2.604303 0.000000 
-0.313489 -2.504902 0.000000 
-0.371953 -2.658691 0.000000 
-0.327331 -2.687392 0.000000 
-0.309170 -2.564728 0.000000 
-0.322545 -2.746680 0.000000 
-0.265643 -2.770256 0.000000 
-0.276621 -2.662603 0.000000 
-0.241654 -2.835559 0.000000 
-0.177284 -2.838873 0.000000 
-0.237500 -2.709711 0.000000 
-0.139167 -2.896557 0.000000 
-0.076432 -2.875048 0.000000 
-0.148658 -2.782325 0.000000 
-0.020456 -2.910801 0.000000 
0.036098 -2.878672 0.000000 
-0.086299 -2.804582 0.000000 
0.092969 -2.911947 0.000000 
0.133209 -2.860773 0.000000 
0.027454 -2.816670 0.000000 
0.194424 -2.872259 0.000000 
0.227779 -2.806303 0.000000 
0.090923 -2.803874 0.000000 
0.285255 -2.788241 0.000000 
0.300785 -2.723012 0.000000 
0.193295 -2.752791 0.000000 
0.351556 -2.696769 0.000000 
0.349534 -2.640336 0.000000 
0.239262 -2.707231 0.000000 
0.389265 -2.595161 0.000000 
0.370542 -2.539848 0.000000 
0.296396 -2.620195 0.000000 
0.395166 -2.488625 0.000000 
0.360625 -2.444095 0.000000 
0.308988 -2.562414 0.000000 
0.372026 -2.390169 0.000000 
0.325256 -2.350416 0.000000 
0.304655 -2.456960 0.000000 
0.319518 -2.289011 0.000000 
0.260061 -2.260348 0.000000 
0.281175 -2.396295 0.000000 
0.232303 -2.202250 0.000000 
0.169804 -2.195995 0.000000 
0.218118 -2.301739 0.000000 
0.132166 -2.149790 0.000000 
0.077606 -2.159654 0.000000 
0.033722 -2.125230 0.000000 
-0.019915 -2.155109 0.000000 
0.165780 -2.262963 0.000000 
0.047496 -2.213404 0.000000 
-0.183742 -2.318218 0.000000 
-0.266711 -2.447536 0.000000 
-0.039152 -2.780417 0.000000 
0.235994 -2.661302 0.000000 
0.278681 -2.523844 0.000000 
0.117484 -2.758045 0.000000 
0.233272 -2.376360 0.000000 
-0.268791 -2.594724 0.000000 
-0.184724 -2.715541 0.000000 
-0.080488 -2.351484 0.000000 
0.015414 -2.324156 0.000000 
-0.141263 -2.354590 0.000000 
-0.169786 -2.412624 0.000000 
-0.214666 -2.451602 0.000000 
-0.205311 -2.512740 0.000000 
-0.128940 -2.449442 0.000000 
-0.219584 -2.569572 0.000000 
-0.148012 -2.505231 0.000000 
-0.175439 -2.613516 0.000000 
-0.076648 -2.415098 0.000000 
-0.156822 -2.669600 0.000000 
-0.126259 -2.586868 0.000000 
-0.074679 -2.612856 0.000000 
-0.112970 -2.535046 0.000000 
-0.051883 -2.519020 0.000000 
-0.031347 -2.571616 0.000000 
-0.034632 -2.455126 0.000000 
0.030664 -2.380558 0.000000 
0.062639 -2.269057 0.000000 
-0.089212 -2.669492 0.000000 
0.008834 -2.438971 0.000000 
0.051628 -2.488223 0.000000 
0.054122 -2.543014 0.000000 
0.097900 -2.459909 0.000000 
0.012241 -2.585519 0.000000 
0.029767 -2.641779 0.000000 
0.019841 -2.694369 0.000000 
0.079939 -2.717978 0.000000 
0.084808 -2.640999 0.000000 
0.119802 -2.677464 0.000000 
0.180836 -2.650432 0.000000 
0.099656 -2.584812 0.000000 
0.165380 -2.470771 0.000000 
0.087255 -2.401278 0.000000 
0.162436 -2.586670 0.000000 
0.190382 -2.413634 0.000000 
0.131263 -2.369922 0.000000 
0.121876 -2.293774 0.000000 
-0.039990 -2.709361 0.000000 
0.198065 -2.530206 0.000000 
CELLS 184 368 
1 0 
1 1 
1 2 
1 3 
1 4 
1 5 
1 6 
1 7 
1 8 
1 9 
1 10 
1 11 
1 12 
1 13 
1 14 
1 15 
1 16 
1 17 
1 18 
1 19 
1 20 
1 21 
1 22 
1 23 
1 24 
1 25 
1 26 
1 27 
1 28 
1 29 
1 30 
1 31 
1 32 
1 33 
1 34 
1 35 
1 36 
1 37 
1 38 
1 39 
1 40 
1 41 
1 42 
1 43 
1 44 
1 45 
1 46 
1 47 
1 48 
1 49 
1 50 
1 51 
1 52 
1 53 
1 54 
1 55 
1 56 
1 57 
1 58 
1 59 
1 60 
1 61 
1 62 
1 63 
1 64 
1 65 
1 66 
1 67 
1 68 
1 69 
1 70 
1 71 
1 72 
1 73 
1 74 
1 75 
1 76 
1 77 
1 78 
1 79 
1 80 
1 81 
1 82 
1 83 
1 84 
1 85 
1 86 
1 87 
1 88 
1 89 
1 90 
1 91 
1 92 
1 93 
1 94 
1 95 
1 96 
1 97 
1 98 
1 99 
1 100 
1 101 
1 102 
1 103 
1 104 
1 105 
1 106 
1 107 
1 108 
1 109 
1 110 
1 111 
1 112 
1 113 
1 114 
1 115 
1 116 
1 117 
1 118 
1 119 
1 120 
1 121 
1 122 
1 123 
1 124 
1 125 
1 126 
1 127 
1 128 
1 129 
1 130 
1 131 
1 132 
1 133 
1 134 
1 135 
1 136 
1 137 
1 138 
1 139 
1 140 
1 141 
1 142 
1 143 
1 144 
1 145 
1 146 
1 147 
1 148 
1 149 
1 150 
1 151 
1 152 
1 153 
1 154 
1 155 
1 156 
1 157 
1 158 
1 159 
1 160 
1 161 
1 162 
1 163 
1 164 
1 165 
1 166 
1 167 
1 168 
1 169 
1 170 
1 171 
1 172 
1 173 
1 174 
1 175 
1 176 
1 177 
1 178 
1 179 
1 180 
1 181 
1 182 
1 183 
CELL_TYPES 184 
1 
1 
1 
1 
1 
1 
1 
1 
1 
1 
1 
1 
1 
1 
1 
1 
1 
1 
1 
1 
1 
1 
1 
1 
1 
1 
1 
1 
1 
1 
1 
1 
1 
1 
1 
1 
1 
1 
1 
1 
1 
1 
1 
1 
1 
1 
1 
1 
1 
1 
1 
1 
1 
1 
1 
1 
1 
1 
1 
1 
1 
1 
1 
1 
1 
1 
1 
1 
1 
1 
1 
1 
1 
1 
1 
1 
1 
1 
1 
1 
1 
1 
1 
1 
1 
1 
1 
1 
1 
1 
1 
1 
1 
1 
1 
1 
1 
1 
1 
1 
1 
1 
1 
1 
1 
1 
1 
1 
1 
1 
1 
1 
1 
1 
1 
1 
1 
1 
1 
1 
1 
1 
1 
1 
1 
1 
1 
1 
1 
1 
1 
1 
1 
1 
1 
1 
1 
1 
1 
1 
1 
1 
1 
1 
1 
1 
1 
1 
1 
1 
1 
1 
1 
1 
1 
1 
1 
1 
1 
1 
1 
1 
1 
1 
1 
1 
1 
1 
1 
1 
1 
1 
1 
1 
1 
1 
1 
1 
1 
1 
1 
1 
1 
1 
POINT_DATA 184 
VECTORS X_GC float 
-0.027212 -2.050720 0.000000 
-0.353850 -2.898181 0.000000 
0.474309 -2.548639 0.000000 
-0.448278 -2.358089 0.000000 
0.178737 -3.077878 0.000000 
0.222065 -2.105664 0.000000 
-0.284180 -2.144933 0.000000 
-0.115439 -3.116425 0.000000 
0.419850 -2.299307 0.000000 
-0.462529 -2.625682 0.000000 
0.386662 -2.822270 0.000000 
-0.164051 -2.079712 0.000000 
-0.238697 -3.014412 0.000000 
0.463819 -2.422505 0.000000 
-0.472625 -2.494954 0.000000 
0.289154 -2.949199 0.000000 
0.097294 -2.063941 0.000000 
-0.379985 -2.233693 0.000000 
0.048431 -3.142230 0.000000 
0.337882 -2.185063 0.000000 
-0.420683 -2.744716 0.000000 
0.448217 -2.680444 0.000000 
-0.117931 -2.066438 0.000000 
-0.313713 -2.937310 0.000000 
0.473568 -2.502486 0.000000 
-0.460148 -2.405439 0.000000 
0.251817 -2.998922 0.000000 
0.176488 -2.087780 0.000000 
-0.348542 -2.198095 0.000000 
-0.062207 -3.127452 0.000000 
0.369285 -2.220490 0.000000 
-0.450440 -2.668669 0.000000 
0.428435 -2.726016 0.000000 
-0.209609 -2.098234 0.000000 
-0.162681 -3.086279 0.000000 
0.438847 -2.343185 0.000000 
-0.472140 -2.541282 0.000000 
0.331390 -2.920711 0.000000 
0.018350 -2.050705 0.000000 
-0.429664 -2.313502 0.000000 
0.099947 -3.127830 0.000000 
0.300359 -2.155624 0.000000 
-0.381464 -2.843146 0.000000 
0.460320 -2.637163 0.000000 
-0.078077 -2.082259 0.000000 
0.369518 -2.266922 0.000000 
0.048095 -2.078876 0.000000 
0.209624 -2.965903 0.000000 
-0.174434 -2.986218 0.000000 
-0.373317 -2.779305 0.000000 
0.389877 -2.740085 0.000000 
-0.305100 -2.196366 0.000000 
-0.388588 -2.294145 0.000000 
0.424526 -2.383779 0.000000 
0.139797 -2.098842 0.000000 
0.118520 -3.018840 0.000000 
-0.265573 -2.912457 0.000000 
-0.416020 -2.686677 0.000000 
0.441481 -2.596147 0.000000 
0.331557 -2.842235 0.000000 
-0.013914 -3.012842 0.000000 
-0.225504 -2.135686 0.000000 
-0.443436 -2.445141 0.000000 
-0.444331 -2.575714 0.000000 
0.254408 -2.154382 0.000000 
0.445583 -2.473102 0.000000 
-0.079057 -2.137569 0.000000 
-0.130210 -2.181280 0.000000 
-0.191441 -2.176728 0.000000 
-0.111446 -2.240355 0.000000 
-0.223258 -2.232014 0.000000 
-0.170563 -2.268887 0.000000 
-0.055410 -2.254308 0.000000 
-0.277958 -2.242866 0.000000 
-0.040202 -2.309747 0.000000 
-0.014931 -2.212999 0.000000 
-0.295211 -2.302302 0.000000 
-0.348991 -2.331703 0.000000 
-0.349879 -2.398432 0.000000 
-0.253572 -2.340895 0.000000 
-0.390937 -2.446537 0.000000 
-0.369887 -2.505264 0.000000 
-0.283141 -2.398433 0.000000 
-0.394994 -2.561531 0.000000 
-0.361513 -2.604303 0.000000 
-0.313489 -2.504902 0.000000 
-0.371953 -2.658691 0.000000 
-0.327331 -2.687392 0.000000 
-0.309170 -2.564728 0.000000 
-0.322545 -2.746680 0.000000 
-0.265643 -2.770256 0.000000 
-0.276621 -2.662603 0.000000 
-0.241654 -2.835559 0.000000 
-0.177284 -2.838873 0.000000 
-0.237500 -2.709711 0.000000 
-0.139167 -2.896557 0.000000 
-0.076432 -2.875048 0.000000 
-0.148658 -2.782325 0.000000 
-0.020456 -2.910801 0.000000 
0.036098 -2.878672 0.000000 
-0.086299 -2.804582 0.000000 
0.092969 -2.911947 0.000000 
0.133209 -2.860773 0.000000 
0.027454 -2.816670 0.000000 
0.194424 -2.872259 0.000000 
0.227779 -2.806303 0.000000 
0.090923 -2.803874 0.000000 
0.285255 -2.788241 0.000000 
0.300785 -2.723012 0.000000 
0.193295 -2.752791 0.000000 
0.351556 -2.696769 0.000000 
0.349534 -2.640336 0.000000 
0.239262 -2.707231 0.000000 
0.389265 -2.595161 0.000000 
0.370542 -2.539848 0.000000 
0.296396 -2.620195 0.000000 
0.395166 -2.488625 0.000000 
0.360625 -2.444095 0.000000 
0.308988 -2.562414 0.000000 
0.372026 -2.390169 0.000000 
0.325256 -2.350416 0.000000 
0.304655 -2.456960 0.000000 
0.319518 -2.289011 0.000000 
0.260061 -2.260348 0.000000 
0.281175 -2.396295 0.000000 
0.232303 -2.202250 0.000000 
0.169804 -2.195995 0.000000 
0.218118 -2.301739 0.000000 
0.132166 -2.149790 0.000000 
0.077606 -2.159654 0.000000 
0.033722 -2.125230 0.000000 
-0.019915 -2.155109 0.000000 
0.165780 -2.262963 0.000000 
0.047496 -2.213404 0.000000 
-0.183742 -2.318218 0.000000 
-0.266711 -2.447536 0.000000 
-0.039152 -2.780417 0.000000 
0.235994 -2.661302 0.000000 
0.278681 -2.523844 0.000000 
0.117484 -2.758045 0.000000 
0.233272 -2.376360 0.000000 
-0.268791 -2.594724 0.000000 
-0.184724 -2.715541 0.000000 
-0.080488 -2.351484 0.000000 
0.015414 -2.324156 0.000000 
-0.141263 -2.354590 0.000000 
-0.169786 -2.412624 0.000000 
-0.214666 -2.451602 0.000000 
-0.205311 -2.512740 0.000000 
-0.128940 -2.449442 0.000000 
-0.219584 -2.569572 0.000000 
-0.148012 -2.505231 0.000000 
-0.175439 -2.613516 0.000000 
-0.076648 -2.415098 0.000000 
-0.156822 -2.669600 0.000000 
-0.126259 -2.586868 0.000000 
-0.074679 -2.612856 0.000000 
-0.112970 -2.535046 0.000000 
-0.051883 -2.519020 0.000000 
-0.031347 -2.571616 0.000000 
-0.034632 -2.455126 0.000000 
0.030664 -2.380558 0.000000 
0.062639 -2.269057 0.000000 
-0.089212 -2.669492 0.000000 
0.008834 -2.438971 0.000000 
0.051628 -2.488223 0.000000 
0.054122 -2.543014 0.000000 
0.097900 -2.459909 0.000000 
0.012241 -2.585519 0.000000 
0.029767 -2.641779 0.000000 
0.019841 -2.694369 0.000000 
0.079939 -2.717978 0.000000 
0.084808 -2.640999 0.000000 
0.119802 -2.677464 0.000000 
0.180836 -2.650432 0.000000 
0.099656 -2.584812 0.000000 
0.165380 -2.470771 0.000000 
0.087255 -2.401278 0.000000 
0.162436 -2.586670 0.000000 
0.190382 -2.413634 0.000000 
0.131263 -2.369922 0.000000 
0.121876 -2.293774 0.000000 
-0.039990 -2.709361 0.000000 
0.198065 -2.530206 0.000000 
VECTORS X_EC float 
-0.818586 0.671466 0.000000 
-0.640997 0.321205 0.000000 
-0.162063 -0.009075 0.000000 
-0.011477 0.720591 0.000000 
-0.248183 0.946404 0.000000 
-0.480436 -0.962240 0.000000 
0.894535 -0.700450 0.000000 
-0.208874 0.964511 0.000000 
0.201000 0.328717 0.000000 
0.083528 0.504550 0.000000 
0.422253 -0.184867 0.000000 
0.093672 0.864745 0.000000 
0.626334 0.986501 0.000000 
-0.092125 -0.849964 0.000000 
0.150832 -0.366972 0.000000 
-0.927696 0.661326 0.000000 
0.351371 0.759607 0.000000 
-0.466768 -0.108716 0.000000 
0.674495 0.937567 0.000000 
0.747456 -0.432914 0.000000 
-0.195447 -0.701891 0.000000 
0.011886 0.869624 0.000000 
-0.213795 0.776257 0.000000 
-0.908580 0.582067 0.000000 
-0.157122 -0.316758 0.000000 
0.067651 -0.963740 0.000000 
-0.678778 0.992812 0.000000 
-0.176585 0.918534 0.000000 
-0.676388 -0.346034 0.000000 
-0.572427 0.921027 0.000000 
0.538101 -0.196735 0.000000 
0.002935 0.791126 0.000000 
0.143764 -0.826563 0.000000 
0.397394 0.988229 0.000000 
0.119212 0.951185 0.000000 
0.074355 0.621236 0.000000 
0.147601 -0.058123 0.000000 
0.790736 0.471406 0.000000 
0.877664 0.671367 0.000000 
-0.135571 0.423348 0.000000 
0.304228 0.957028 0.000000 
0.997607 -0.629175 0.000000 
-0.456907 -0.045695 0.000000 
-0.068801 0.581085 0.000000 
-0.479484 0.881724 0.000000 
0.536544 0.112815 0.000000 
0.679366 0.859171 0.000000 
-0.397492 0.772686 0.000000 
0.162891 0.908117 0.000000 
-0.511221 -0.471301 0.000000 
0.400817 -0.732765 0.000000 
-0.966000 -0.357559 0.000000 
-0.409412 0.294301 0.000000 
0.169829 0.891859 0.000000 
0.068021 0.992282 0.000000 
0.184510 0.990440 0.000000 
0.770488 0.416377 0.000000 
-0.226536 0.911177 0.000000 
0.056792 0.307649 0.000000 
0.789618 -0.051765 0.000000 
-0.895255 0.999530 0.000000 
0.503360 -0.762096 0.000000 
-0.043762 -0.699058 0.000000 
-0.037794 0.171427 0.000000 
-0.696055 -0.637455 0.000000 
0.029446 -0.512655 0.000000 
-0.472954 -0.749542 0.000000 
-0.131935 -0.458133 0.000000 
0.276271 -0.488478 0.000000 
-0.257026 -0.064298 0.000000 
0.488389 -0.119909 0.000000 
0.137085 0.125916 0.000000 
-0.630599 0.028717 0.000000 
0.853056 -0.047558 0.000000 
-0.731988 0.398310 0.000000 
-0.900462 -0.246674 0.000000 
0.968071 0.348679 0.000000 
-0.673394 0.544686 0.000000 
-0.667474 0.989547 0.000000 
0.690481 0.605965 0.000000 
-0.393752 -0.689756 0.000000 
-0.534084 -0.298243 0.000000 
0.887606 0.989555 0.000000 
-0.366710 0.076876 0.000000 
-0.589913 0.362022 0.000000 
-0.910072 -0.300655 0.000000 
-0.520314 0.724606 0.000000 
-0.817796 0.915947 0.000000 
-0.938864 0.098187 0.000000 
-0.849698 -0.688798 0.000000 
0.770957 -0.531627 0.000000 
0.844141 0.750689 0.000000 
0.611026 -0.096275 0.000000 
0.181896 -0.074181 0.000000 
0.583336 -0.935263 0.000000 
-0.072217 0.310383 0.000000 
-0.490454 0.166987 0.000000 
-0.008948 -0.451166 0.000000 
-0.863624 0.405339 0.000000 
0.759349 0.191149 0.000000 
-0.424671 -0.302787 0.000000 
0.380207 0.412983 0.000000 
0.111942 0.071821 0.000000 
0.816974 -0.222199 0.000000 
-0.296157 0.148395 0.000000 
-0.518525 -0.291311 0.000000 
0.393850 -0.307506 0.000000 
-0.901702 -0.411729 0.000000 
0.994769 -0.846586 0.000000 
-0.288635 -0.648062 0.000000 
0.656290 0.978461 0.000000 
0.669775 0.602237 0.000000 
-0.595082 -0.951794 0.000000 
0.404898 0.301074 0.000000 
0.529720 -0.067681 0.000000 
-0.975971 0.467970 0.000000 
0.365563 -0.409166 0.000000 
0.595836 -0.706034 0.000000 
0.940082 0.082758 0.000000 
0.519824 0.934457 0.000000 
0.831624 0.669440 0.000000 
0.968970 -0.620265 0.000000 
0.869878 0.260071 0.000000 
-0.733737 0.068983 0.000000 
-0.874502 0.975302 0.000000 
-0.548689 -0.318333 0.000000 
-0.132027 -0.360030 0.000000 
-0.454122 0.344930 0.000000 
0.118893 -0.668067 0.000000 
0.482624 -0.602304 0.000000 
0.775183 -0.831797 0.000000 
-0.867230 -0.632609 0.000000 
-0.105202 0.086417 0.000000 
0.683357 -0.243973 0.000000 
0.224946 0.454784 0.000000 
0.778077 -0.683092 0.000000 
-0.738986 -0.463884 0.000000 
-0.573292 0.742014 0.000000 
-0.857874 -0.174374 0.000000 
0.216770 -0.613037 0.000000 
-0.555147 0.842398 0.000000 
0.791941 0.298159 0.000000 
0.231495 -0.896394 0.000000 
-0.463412 0.676558 0.000000 
0.897239 0.494376 0.000000 
-0.058247 0.697264 0.000000 
0.131906 -0.915840 0.000000 
0.431104 -0.655986 0.000000 
0.368738 -0.248400 0.000000 
-0.140397 -0.670390 0.000000 
0.463890 0.130482 0.000000 
-0.013251 -0.298460 0.000000 
0.169595 0.423441 0.000000 
-0.489016 -0.899347 0.000000 
0.045482 0.797331 0.000000 
-0.158273 0.245787 0.000000 
-0.502138 0.419042 0.000000 
-0.246863 -0.099695 0.000000 
-0.654115 -0.206533 0.000000 
-0.791020 0.144106 0.000000 
-0.769120 -0.632496 0.000000 
0.795574 0.870386 0.000000 
0.582406 0.127046 0.000000 
-0.405253 0.796616 0.000000 
0.941106 -0.740190 0.000000 
0.655815 -0.411844 0.000000 
0.639185 -0.046571 0.000000 
0.347334 -0.600605 0.000000 
0.918393 0.236790 0.000000 
0.801553 0.611858 0.000000 
0.867729 0.962458 0.000000 
0.467076 -0.880148 0.000000 
0.434614 0.606657 0.000000 
0.201318 0.849759 0.000000 
-0.205576 0.669544 0.000000 
0.335630 0.232080 0.000000 
-0.102534 -0.528195 0.000000 
0.418298 -0.991477 0.000000 
-0.082906 0.244467 0.000000 
-0.269216 -0.909109 0.000000 
0.124914 0.799482 0.000000 
0.187495 0.291830 0.000000 
-0.733400 -0.937590 0.000000 
-0.320430 -0.131957 0.000000 
CELL_DATA 184 
SCALARS MASS float 
LOOKUP_TABLE default 
0.051252 
0.046008 
0.051531 
0.046188 
0.052854 
0.051531 
0.052854 
0.052854 
0.051531 
0.050859 
0.052854 
0.047395 
0.052854 
0.052854 
0.051434 
0.045995 
0.052854 
0.051281 
0.051530 
0.046441 
0.052854 
0.052854 
0.050612 
0.049065 
0.052975 
0.049197 
0.049245 
0.052975 
0.052990 
0.055938 
0.049713 
0.052094 
0.055938 
0.050456 
0.055938 
0.053198 
0.052878 
0.049051 
0.052807 
0.049481 
0.052974 
0.049465 
0.049257 
0.055938 
0.105225 
0.104629 
0.082126 
0.094264 
0.094771 
0.094259 
0.094771 
0.083366 
0.104047 
0.083092 
0.081316 
0.081315 
0.092719 
0.079469 
0.108073 
0.092710 
0.108073 
0.093129 
0.104035 
0.094961 
0.104398 
0.081316 
0.125285 
0.099128 
0.098320 
0.087841 
0.082650 
0.097481 
0.086914 
0.081921 
0.086680 
0.086680 
0.081485 
0.107769 
0.088711 
0.084874 
0.107874 
0.082612 
0.095190 
0.095229 
0.083942 
0.085089 
0.079923 
0.081132 
0.095301 
0.097917 
0.090576 
0.085268 
0.095896 
0.081062 
0.095454 
0.090083 
0.081027 
0.085251 
0.101961 
0.083022 
0.095445 
0.080604 
0.081018 
0.085240 
0.097826 
0.090495 
0.095435 
0.095845 
0.081023 
0.085241 
0.090072 
0.081024 
0.095436 
0.101966 
0.083028 
0.085242 
0.080610 
0.081024 
0.095437 
0.082345 
0.082694 
0.085242 
0.109264 
0.089885 
0.095437 
0.108636 
0.083028 
0.085242 
0.080610 
0.074817 
0.073569 
0.082490 
0.095437 
0.095617 
0.133784 
0.138292 
0.139667 
0.139695 
0.139694 
0.139689 
0.139693 
0.140105 
0.139774 
0.086622 
0.086622 
0.089038 
0.077179 
0.079159 
0.072465 
0.084345 
0.092656 
0.093083 
0.084037 
0.098826 
0.101847 
0.085968 
0.086444 
0.074619 
0.064825 
0.094138 
0.124406 
0.086607 
0.131576 
0.102571 
0.084703 
0.076503 
0.084191 
0.084191 
0.086793 
0.075696 
0.084714 
0.090949 
0.084009 
0.076569 
0.086383 
0.098391 
0.110757 
0.093222 
0.143196 
0.101090 
0.091038 
0.150913 
0.178131 
0.206980 
SCALARS MASS float 
LOOKUP_TABLE default 
0.051252 
0.046008 
0.051531 
0.046188 
0.052854 
0.051531 
0.052854 
0.052854 
0.051531 
0.050859 
0.052854 
0.047395 
0.052854 
0.052854 
0.051434 
0.045995 
0.052854 
0.051281 
0.051530 
0.046441 
0.052854 
0.052854 
0.050612 
0.049065 
0.052975 
0.049197 
0.049245 
0.052975 
0.052990 
0.055938 
0.049713 
0.052094 
0.055938 
0.050456 
0.055938 
0.053198 
0.052878 
0.049051 
0.052807 
0.049481 
0.052974 
0.049465 
0.049257 
0.055938 
0.105225 
0.104629 
0.082126 
0.094264 
0.094771 
0.094259 
0.094771 
0.083366 
0.104047 
0.083092 
0.081316 
0.081315 
0.092719 
0.079469 
0.108073 
0.092710 
0.108073 
0.093129 
0.104035 
0.094961 
0.104398 
0.081316 
0.125285 
0.099128 
0.098320 
0.087841 
0.082650 
0.097481 
0.086914 
0.081921 
0.086680 
0.086680 
0.081485 
0.107769 
0.088711 
0.084874 
0.107874 
0.082612 
0.095190 
0.095229 
0.083942 
0.085089 
0.079923 
0.081132 
0.095301 
0.097917 
0.090576 
0.085268 
0.095896 
0.081062 
0.095454 
0.090083 
0.081027 
0.085251 
0.101961 
0.083022 
0.095445 
0.080604 
0.081018 
0.085240 
0.097826 
0.090495 
0.095435 
0.095845 
0.081023 
0.085241 
0.090072 
0.081024 
0.095436 
0.101966 
0.083028 
0.085242 
0.080610 
0.081024 
0.095437 
0.082345 
0.082694 
0.085242 
0.109264 
0.089885 
0.095437 
0.108636 
0.083028 
0.085242 
0.080610 
0.074817 
0.073569 
0.082490 
0.095437 
0.095617 
0.133784 
0.138292 
0.139667 
0.139695 
0.139694 
0.139689 
0.139693 
0.140105 
0.139774 
0.086622 
0.086622 
0.089038 
0.077179 
0.079159 
0.072465 
0.084345 
0.092656 
0.093083 
0.084037 
0.098826 
0.101847 
0.085968 
0.086444 
0.074619 
0.064825 
0.094138 
0.124406 
0.086607 
0.131576 
0.102571 
0.084703 
0.076503 
0.084191 
0.084191 
0.086793 
0.075696 
0.084714 
0.090949 
0.084009 
0.076569 
0.086383 
0.098391 
0.110757 
0.093222 
0.143196 
0.101090 
0.091038 
0.150913 
0.178131 
0.206980 
SCALARS DENSITY float 
LOOKUP_TABLE default 
22.057865 
20044150.323888 
26.260536 
27.457309 
1597426114566497792.000000 
19.822247 
19.502067 
7387729501147458560.000000 
25.343791 
29.666442 
24692.573886 
20.948433 
224944572912221.343750 
19.577343 
29.108731 
45133028692.172340 
21.105753 
24.303550 
15622318949357919928320.000000 
20.055944 
214.558023 
27.856755 
21.332671 
14558503455.357658 
28.158895 
27.459919 
29034767367863.843750 
20.381555 
19.767539 
1421250839403960467456.000000 
20.996091 
28.673262 
105.246634 
20.542546 
138136596535003104.000000 
25.145552 
31.587508 
291834011.709600 
21.774360 
27.017907 
50154363558979191177216.000000 
25.271054 
175265.138244 
27.852694 
21.469216 
24.465813 
21.339183 
1327998603950.847900 
6478637552108.057617 
1876.599690 
166.455886 
19.589776 
26.530798 
24.294595 
20.561416 
38726735877965896.000000 
12147679379.951099 
25.785066 
23.185191 
1153460.463882 
859478659518987392.000000 
18.104698 
15.874922 
23.698621 
19.658030 
20.438989 
18.554882 
20.456465 
20.072094 
23.005191 
21.900881 
23.208316 
22.977679 
22.817209 
20.673197 
22.506534 
23.052783 
25.121082 
24.838497 
22.878920 
19.945545 
29.483578 
22.385889 
20.512364 
22.804633 
26.549780 
24.289560 
21.013516 
15.075869 
168.401797 
1708.772713 
21.465682 
1299921.725321 
5627805.902090 
24.871719 
565749553.677782 
71357957.431510 
6367.091162 
16859351447.656506 
486731394.899534 
51255.315471 
58407629682.941017 
26576059.962776 
161037.542436 
238454349.331281 
101578.504463 
53839.494224 
8902.112210 
41.809785 
480.134763 
24.564683 
25.121251 
21.050262 
21.332857 
22.580058 
21.836139 
26.086345 
19.662765 
16.076310 
22.902823 
22.325671 
26.592678 
23.353443 
23.213649 
22.317166 
20.155997 
20.272710 
22.079839 
19.114847 
20.360203 
19.086488 
20.102500 
22.897932 
22.231513 
22.002199 
24.083324 
10241.885439 
21.140080 
20.280814 
1216.196601 
22.676903 
21.126012 
28.943260 
22.968808 
21.954022 
22.937839 
22.001731 
22.957439 
19.060992 
20.787034 
19.380350 
17.216517 
27.368812 
20.945762 
20.406452 
27.773858 
33.616681 
19.548998 
16.699910 
31.523739 
16.682627 
23.301082 
22.497372 
20.063304 
21.272746 
12.676406 
22.711010 
18.735831 
36.774286 
25.761732 
17.642722 
32.873001 
24.981455 
19.171664 
22.120198 
28.919905 
18.288336 
22.750343 
24.301485 
22.862823 
23.053426 
21.620886 
22.552754 
19.659618 
SCALARS ELEM_i float 
LOOKUP_TABLE default 
203 
220 
161 
222 
180 
182 
202 
200 
162 
221 
160 
203 
200 
161 
221 
180 
183 
222 
180 
162 
220 
161 
203 
220 
161 
221 
180 
183 
222 
200 
162 
221 
160 
203 
200 
162 
221 
160 
183 
222 
180 
162 
220 
161 
203 
162 
183 
180 
200 
220 
160 
222 
222 
162 
183 
180 
200 
221 
161 
160 
200 
202 
221 
221 
182 
161 
202 
202 
202 
202 
202 
202 
202 
202 
202 
202 
202 
222 
222 
202 
221 
221 
202 
221 
221 
221 
221 
221 
221 
220 
200 
201 
200 
200 
200 
200 
200 
200 
200 
180 
200 
180 
180 
180 
180 
180 
180 
180 
160 
180 
161 
161 
180 
161 
161 
181 
161 
161 
161 
162 
162 
161 
162 
182 
182 
182 
182 
182 
182 
182 
182 
202 
182 
182 
202 
201 
200 
181 
181 
180 
182 
201 
200 
202 
182 
202 
201 
201 
201 
201 
201 
201 
201 
201 
201 
201 
201 
201 
201 
201 
201 
182 
182 
201 
181 
181 
181 
181 
181 
181 
181 
180 
181 
181 
181 
181 
181 
181 
181 
181 
182 
182 
200 
181 
VECTORS VELOCITY float 
0.887342 0.142948 0.000000 
-1.971319 -44.576359 0.000000 
-0.463841 0.600604 0.000000 
-0.527230 -0.811113 0.000000 
0.549581 -135.153215 0.000000 
-0.512460 -0.855361 0.000000 
-0.234938 -0.524090 0.000000 
-1.723002 -158.253050 0.000000 
0.984725 0.552545 0.000000 
0.749310 1.292609 0.000000 
0.319406 -19.097975 0.000000 
1.310689 -1.139316 0.000000 
1.759639 -98.738047 0.000000 
-0.286712 -1.081064 0.000000 
0.498631 -0.435924 0.000000 
-2.474381 -63.991894 0.000000 
-1.716685 -1.467036 0.000000 
-1.620848 1.218427 0.000000 
1.629845 -175.223800 0.000000 
0.780406 0.642625 0.000000 
0.175073 -0.800178 0.000000 
0.404621 2.703658 0.000000 
1.650863 -1.013704 0.000000 
0.467463 -59.824314 0.000000 
-0.530896 0.202570 0.000000 
0.365506 -2.195124 0.000000 
-2.039879 -90.122707 0.000000 
-1.651195 -1.590882 0.000000 
-1.426812 1.004560 0.000000 
-1.336966 -165.121208 0.000000 
1.212902 1.043923 0.000000 
0.535711 2.272719 0.000000 
0.024006 0.522264 0.000000 
0.088155 -0.706189 0.000000 
-0.971659 -139.906207 0.000000 
0.356943 -0.191381 0.000000 
0.977709 -0.114228 0.000000 
0.793432 -54.051770 0.000000 
-0.027949 0.185031 0.000000 
-1.181944 0.279518 0.000000 
2.083661 -165.464748 0.000000 
-0.453536 -0.509321 0.000000 
-1.304855 -24.432926 0.000000 
0.176747 1.856787 0.000000 
0.684133 0.120158 0.000000 
0.769172 0.349862 0.000000 
-0.262194 0.212009 0.000000 
-1.681385 -69.641442 0.000000 
1.247965 -79.746517 0.000000 
-0.286143 -4.446650 0.000000 
-0.137873 0.622939 0.000000 
-0.360014 -0.381476 0.000000 
-0.993297 0.289719 0.000000 
-0.326721 -1.117456 0.000000 
-0.398901 -0.224856 0.000000 
-0.067904 -98.193471 0.000000 
1.981549 -44.548499 0.000000 
0.116341 3.752517 0.000000 
0.008690 1.596258 0.000000 
0.106736 -20.465606 0.000000 
0.148381 -92.785932 0.000000 
-0.115723 -0.230008 0.000000 
-0.289142 -0.740098 0.000000 
0.679062 0.778661 0.000000 
-0.572781 -0.506893 0.000000 
-0.099012 0.035179 0.000000 
0.138912 0.587721 0.000000 
0.003979 -0.005968 0.000000 
-0.083780 -0.191274 0.000000 
0.072275 -0.290373 0.000000 
0.083897 -0.563245 0.000000 
0.123149 -0.518375 0.000000 
0.038366 -0.167178 0.000000 
0.137183 -0.757772 0.000000 
-0.047161 -0.241103 0.000000 
0.082563 0.101043 0.000000 
0.269915 -0.856220 0.000000 
-0.197638 -0.526646 0.000000 
0.418356 -1.271545 0.000000 
0.272530 -0.811795 0.000000 
-0.036513 -0.887384 0.000000 
0.205558 -0.405068 0.000000 
0.509770 -1.004968 0.000000 
0.259518 0.973513 0.000000 
-0.143557 2.732268 0.000000 
-0.065184 -0.391611 0.000000 
-0.175827 4.314299 0.000000 
-0.745779 6.952358 0.000000 
-0.543516 2.016258 0.000000 
-0.565357 5.547793 0.000000 
-0.433174 4.175245 0.000000 
-0.750874 6.631768 0.000000 
0.545947 -12.329847 0.000000 
0.494601 -11.968646 0.000000 
-0.819145 8.641853 0.000000 
1.002313 -32.128892 0.000000 
0.526376 -21.038141 0.000000 
-0.051049 2.090487 0.000000 
0.324969 -33.039492 0.000000 
-0.063952 -20.674016 0.000000 
0.167933 -1.785439 0.000000 
-0.563049 -36.901583 0.000000 
-0.581044 -18.135308 0.000000 
0.144812 -3.494083 0.000000 
-1.056654 -24.461679 0.000000 
-0.310775 -3.872173 0.000000 
0.038230 -1.823505 0.000000 
-0.151308 0.177236 0.000000 
0.177884 8.344951 0.000000 
0.224672 6.365243 0.000000 
0.303377 6.271632 0.000000 
0.193165 4.185013 0.000000 
0.295894 8.465096 0.000000 
0.140719 2.150913 0.000000 
0.032400 0.583994 0.000000 
0.249765 4.431712 0.000000 
-0.126103 -0.323138 0.000000 
0.221982 -0.886246 0.000000 
0.398724 1.668058 0.000000 
-0.092153 -1.153988 0.000000 
0.195410 -0.850774 0.000000 
0.134222 -1.361814 0.000000 
0.073894 -0.656416 0.000000 
-0.310565 -0.894679 0.000000 
0.280388 -1.139886 0.000000 
-0.338225 -0.601177 0.000000 
-0.214311 -0.339041 0.000000 
-0.108580 -0.788724 0.000000 
-0.192729 0.173437 0.000000 
0.004820 0.355677 0.000000 
0.161570 0.778019 0.000000 
0.201283 0.696323 0.000000 
-0.197855 -0.585057 0.000000 
-0.000433 -0.018655 0.000000 
0.137839 -0.616885 0.000000 
0.338974 -1.285623 0.000000 
0.164893 2.656719 0.000000 
0.202893 5.954746 0.000000 
0.327574 0.003581 0.000000 
0.242555 5.633169 0.000000 
0.133742 -1.057502 0.000000 
-0.590539 3.214099 0.000000 
-0.546289 8.327556 0.000000 
-0.033293 -0.651193 0.000000 
-0.119928 -0.294437 0.000000 
0.083566 -0.747881 0.000000 
0.201306 -1.137404 0.000000 
0.230869 -1.215660 0.000000 
-0.142182 -0.075905 0.000000 
0.071378 -1.132379 0.000000 
-0.435843 1.798288 0.000000 
-0.074539 -0.165692 0.000000 
-0.326454 3.003856 0.000000 
-0.050864 -1.147779 0.000000 
-0.328486 5.847342 0.000000 
-0.201782 1.560516 0.000000 
-0.043724 1.872314 0.000000 
-0.115955 0.367625 0.000000 
-0.027584 0.104725 0.000000 
0.049350 0.475179 0.000000 
-0.105800 -0.921390 0.000000 
-0.194738 -0.952757 0.000000 
-0.085904 -0.241066 0.000000 
-0.068479 5.173081 0.000000 
-0.187930 -1.127321 0.000000 
-0.032875 -0.295943 0.000000 
0.149365 0.254157 0.000000 
-0.072357 -1.008427 0.000000 
0.158669 0.481828 0.000000 
0.219361 2.721346 0.000000 
0.334079 6.197078 0.000000 
0.321443 7.604848 0.000000 
0.214855 3.254761 0.000000 
0.262192 5.864428 0.000000 
0.208317 4.791809 0.000000 
0.231765 1.168406 0.000000 
0.000962 -1.002485 0.000000 
-0.112033 -1.202953 0.000000 
0.280984 1.735998 0.000000 
0.041279 -1.259859 0.000000 
-0.034696 -0.934448 0.000000 
-0.109464 -0.474337 0.000000 
0.152876 7.212944 0.000000 
0.268413 0.223393 0.000000 
TENSORS STRESS float 
-0.226486 -1.708260 0.000000 
0.000000 1.101274 0.000000 
0.000000 0.000000 0.000000 

-0.000044 0.000013 0.000000 
0.000000 -0.000157 0.000000 
0.000000 0.000000 0.000000 

1.070820 -0.358700 0.000000 
0.000000 -1.463750 0.000000 
0.000000 0.000000 0.000000 

-0.491081 -0.373808 0.000000 
0.000000 -3.622610 0.000000 
0.000000 0.000000 0.000000 

-0.000000 -0.000000 0.000000 
0.000000 -0.000000 0.000000 
0.000000 0.000000 0.000000 

1.885383 3.964337 0.000000 
0.000000 2.888715 0.000000 
0.000000 0.000000 0.000000 

0.648318 -1.810011 0.000000 
0.000000 2.764139 0.000000 
0.000000 0.000000 0.000000 

-0.000000 0.000000 0.000000 
0.000000 -0.000000 0.000000 
0.000000 0.000000 0.000000 

-1.390458 -0.937259 0.000000 
0.000000 -3.708725 0.000000 
0.000000 0.000000 0.000000 

-1.247966 0.863367 0.000000 
0.000000 -3.328963 0.000000 
0.000000 0.000000 0.000000 

-0.031542 -0.005114 0.000000 
0.000000 -0.099797 0.000000 
0.000000 0.000000 0.000000 

-0.231548 -1.233623 0.000000 
0.000000 0.627379 0.000000 
0.000000 0.000000 0.000000 

-0.000000 0.000000 0.000000 
0.000000 -0.000000 0.000000 
0.000000 0.000000 0.000000 

4.418078 4.571792 0.000000 
0.000000 0.212022 0.000000 
0.000000 0.000000 0.000000 

-0.614297 0.119917 0.000000 
0.000000 -0.668786 0.000000 
0.000000 0.000000 0.000000 

-0.000000 -0.000000 0.000000 
0.000000 -0.000000 0.000000 
0.000000 0.000000 0.000000 

1.159450 1.254397 0.000000 
0.000000 1.619988 0.000000 
0.000000 0.000000 0.000000 

0.099094 0.974614 0.000000 
0.000000 -1.263071 0.000000 
0.000000 0.000000 0.000000 

-0.000000 -0.000000 0.000000 
0.000000 -0.000000 0.000000 
0.000000 0.000000 0.000000 

-3.510235 -0.632152 0.000000 
0.000000 0.203260 0.000000 
0.000000 0.000000 0.000000 

-2.100346 1.239541 0.000000 
0.000000 -6.010626 0.000000 
0.000000 0.000000 0.000000 

-0.068106 -1.505274 0.000000 
0.000000 -3.252047 0.000000 
0.000000 0.000000 0.000000 

-0.260184 -1.441473 0.000000 
0.000000 0.810290 0.000000 
0.000000 0.000000 0.000000 

-0.000000 0.000000 0.000000 
0.000000 -0.000000 0.000000 
0.000000 0.000000 0.000000 

0.967743 -0.490952 0.000000 
0.000000 -1.041270 0.000000 
0.000000 0.000000 0.000000 

-0.774710 0.728140 0.000000 
0.000000 -4.884845 0.000000 
0.000000 0.000000 0.000000 

-0.000000 -0.000000 0.000000 
0.000000 -0.000000 0.000000 
0.000000 0.000000 0.000000 

1.238621 1.062898 0.000000 
0.000000 1.443415 0.000000 
0.000000 0.000000 0.000000 

1.459454 0.643328 0.000000 
0.000000 1.825610 0.000000 
0.000000 0.000000 0.000000 

-0.000000 0.000000 0.000000 
0.000000 -0.000000 0.000000 
0.000000 0.000000 0.000000 

-2.903577 -0.832719 0.000000 
0.000000 -1.042219 0.000000 
0.000000 0.000000 0.000000 

-1.551197 1.149319 0.000000 
0.000000 -3.859735 0.000000 
0.000000 0.000000 0.000000 

-3.319641 -1.197320 0.000000 
0.000000 -9.201854 0.000000 
0.000000 0.000000 0.000000 

-0.199387 -1.192170 0.000000 
0.000000 0.535016 0.000000 
0.000000 0.000000 0.000000 

-0.000000 0.000000 0.000000 
0.000000 -0.000000 0.000000 
0.000000 0.000000 0.000000 

-0.308917 -0.405302 0.000000 
0.000000 -4.283239 0.000000 
0.000000 0.000000 0.000000 

-1.128120 0.751083 0.000000 
0.000000 -2.406232 0.000000 
0.000000 0.000000 0.000000 

-0.000004 -0.000001 0.000000 
0.000000 -0.000013 0.000000 
0.000000 0.000000 0.000000 

1.134464 1.431179 0.000000 
0.000000 1.799762 0.000000 
0.000000 0.000000 0.000000 

-0.427435 0.058746 0.000000 
0.000000 -3.214050 0.000000 
0.000000 0.000000 0.000000 

-0.000000 -0.000000 0.000000 
0.000000 -0.000000 0.000000 
0.000000 0.000000 0.000000 

-6.464177 -3.367790 0.000000 
0.000000 -0.428666 0.000000 
0.000000 0.000000 0.000000 

-0.004480 0.001456 0.000000 
0.000000 -0.015356 0.000000 
0.000000 0.000000 0.000000 

0.366238 -1.206879 0.000000 
0.000000 -3.021501 0.000000 
0.000000 0.000000 0.000000 

-0.167770 -3.386746 0.000000 
0.000000 2.105481 0.000000 
0.000000 0.000000 0.000000 

-3.589400 -1.667510 0.000000 
0.000000 -4.152100 0.000000 
0.000000 0.000000 0.000000 

2.019499 2.224354 0.000000 
0.000000 2.816297 0.000000 
0.000000 0.000000 0.000000 

-0.000000 -0.000000 0.000000 
0.000000 -0.000000 0.000000 
0.000000 0.000000 0.000000 

-0.000000 0.000000 0.000000 
0.000000 -0.000000 0.000000 
0.000000 0.000000 0.000000 

-0.588515 0.201340 0.000000 
0.000000 -1.833724 0.000000 
0.000000 0.000000 0.000000 

-4.220958 -1.168445 0.000000 
0.000000 -12.080483 0.000000 
0.000000 0.000000 0.000000 

2.872133 1.647881 0.000000 
0.000000 4.928629 0.000000 
0.000000 0.000000 0.000000 

-0.244738 0.724538 0.000000 
0.000000 -4.566263 0.000000 
0.000000 0.000000 0.000000 

2.047918 1.095573 0.000000 
0.000000 -5.370478 0.000000 
0.000000 0.000000 0.000000 

2.058435 1.838549 0.000000 
0.000000 2.434420 0.000000 
0.000000 0.000000 0.000000 

-0.000000 -0.000000 0.000000 
0.000000 -0.000000 0.000000 
0.000000 0.000000 0.000000 

-0.000000 0.000000 0.000000 
0.000000 -0.000001 0.000000 
0.000000 0.000000 0.000000 

-2.415825 1.786176 0.000000 
0.000000 -6.015200 0.000000 
0.000000 0.000000 0.000000 

2.846071 -0.817562 0.000000 
0.000000 -3.439385 0.000000 
0.000000 0.000000 0.000000 

-0.001561 -0.000159 0.000000 
0.000000 -0.004802 0.000000 
0.000000 0.000000 0.000000 

-0.000000 -0.000000 0.000000 
0.000000 -0.000000 0.000000 
0.000000 0.000000 0.000000 

1.829740 -2.377448 0.000000 
0.000000 6.657807 0.000000 
0.000000 0.000000 0.000000 

11.317946 -14.156298 0.000000 
0.000000 22.096310 0.000000 
0.000000 0.000000 0.000000 

-0.955929 0.303492 0.000000 
0.000000 -3.010971 0.000000 
0.000000 0.000000 0.000000 

3.569177 6.507965 0.000000 
0.000000 6.884342 0.000000 
0.000000 0.000000 0.000000 

5.326138 2.086990 0.000000 
0.000000 4.680048 0.000000 
0.000000 0.000000 0.000000 

-0.389049 -3.816327 0.000000 
0.000000 2.209616 0.000000 
0.000000 0.000000 0.000000 

-1.683968 -2.946588 0.000000 
0.000000 -0.839738 0.000000 
0.000000 0.000000 0.000000 

-0.723172 -3.636056 0.000000 
0.000000 1.274627 0.000000 
0.000000 0.000000 0.000000 

-2.964909 -0.663011 0.000000 
0.000000 -3.769269 0.000000 
0.000000 0.000000 0.000000 

-1.515174 -1.080377 0.000000 
0.000000 -0.419911 0.000000 
0.000000 0.000000 0.000000 

-2.855408 -0.010284 0.000000 
0.000000 -3.343316 0.000000 
0.000000 0.000000 0.000000 

-3.495177 -0.444284 0.000000 
0.000000 -5.094062 0.000000 
0.000000 0.000000 0.000000 

-1.307924 -0.542315 0.000000 
0.000000 -0.086185 0.000000 
0.000000 0.000000 0.000000 

-3.466810 0.080280 0.000000 
0.000000 -4.996936 0.000000 
0.000000 0.000000 0.000000 

-3.527368 -1.108837 0.000000 
0.000000 -5.169124 0.000000 
0.000000 0.000000 0.000000 

-1.437552 0.179387 0.000000 
0.000000 -0.662346 0.000000 
0.000000 0.000000 0.000000 

1.218179 -1.045998 0.000000 
0.000000 -2.424413 0.000000 
0.000000 0.000000 0.000000 

1.672315 -2.724956 0.000000 
0.000000 -2.261593 0.000000 
0.000000 0.000000 0.000000 

-1.966606 0.506357 0.000000 
0.000000 -1.818123 0.000000 
0.000000 0.000000 0.000000 

5.108980 -6.727799 0.000000 
0.000000 8.812049 0.000000 
0.000000 0.000000 0.000000 

-1.997913 0.926593 0.000000 
0.000000 -3.480445 0.000000 
0.000000 0.000000 0.000000 

-2.039327 1.518764 0.000000 
0.000000 -1.750743 0.000000 
0.000000 0.000000 0.000000 

-0.174649 -0.044191 0.000000 
0.000000 -0.975130 0.000000 
0.000000 0.000000 0.000000 

-1.202356 1.317720 0.000000 
0.000000 -4.121397 0.000000 
0.000000 0.000000 0.000000 

-2.063101 0.805694 0.000000 
0.000000 -3.468137 0.000000 
0.000000 0.000000 0.000000 

-2.001825 2.094040 0.000000 
0.000000 -5.520631 0.000000 
0.000000 0.000000 0.000000 

-2.000934 2.114464 0.000000 
0.000000 -5.626115 0.000000 
0.000000 0.000000 0.000000 

2.415342 -1.789154 0.000000 
0.000000 4.256094 0.000000 
0.000000 0.000000 0.000000 

-4.594025 0.628869 0.000000 
0.000000 -13.605245 0.000000 
0.000000 0.000000 0.000000 

-0.721826 0.095692 0.000000 
0.000000 -1.901337 0.000000 
0.000000 0.000000 0.000000 

3.360273 4.326175 0.000000 
0.000000 -2.398755 0.000000 
0.000000 0.000000 0.000000 

-0.001763 0.000294 0.000000 
0.000000 -0.004577 0.000000 
0.000000 0.000000 0.000000 

-0.000371 0.000047 0.000000 
0.000000 -0.000960 0.000000 
0.000000 0.000000 0.000000 

-5.504635 -3.656892 0.000000 
0.000000 -25.917269 0.000000 
0.000000 0.000000 0.000000 

-0.000005 0.000001 0.000000 
0.000000 -0.000013 0.000000 
0.000000 0.000000 0.000000 

-0.000032 0.000002 0.000000 
0.000000 -0.000085 0.000000 
0.000000 0.000000 0.000000 

-0.216950 0.014929 0.000000 
0.000000 -0.565130 0.000000 
0.000000 0.000000 0.000000 

-0.000000 0.000000 0.000000 
0.000000 -0.000001 0.000000 
0.000000 0.000000 0.000000 

-0.000006 -0.000000 0.000000 
0.000000 -0.000014 0.000000 
0.000000 0.000000 0.000000 

-0.036698 0.001596 0.000000 
0.000000 -0.095187 0.000000 
0.000000 0.000000 0.000000 

-0.000000 -0.000000 0.000000 
0.000000 -0.000000 0.000000 
0.000000 0.000000 0.000000 

-0.000090 -0.000006 0.000000 
0.000000 -0.000219 0.000000 
0.000000 0.000000 0.000000 

-0.012303 -0.000071 0.000000 
0.000000 -0.029693 0.000000 
0.000000 0.000000 0.000000 

-0.000013 -0.000001 0.000000 
0.000000 -0.000032 0.000000 
0.000000 0.000000 0.000000 

-0.019757 -0.001121 0.000000 
0.000000 -0.047607 0.000000 
0.000000 0.000000 0.000000 

-0.037999 -0.000331 0.000000 
0.000000 -0.091616 0.000000 
0.000000 0.000000 0.000000 

-0.194185 -0.004497 0.000000 
0.000000 -0.470005 0.000000 
0.000000 0.000000 0.000000 

-7.134581 3.531848 0.000000 
0.000000 -25.044715 0.000000 
0.000000 0.000000 0.000000 

-2.149706 0.125521 0.000000 
0.000000 -5.284341 0.000000 
0.000000 0.000000 0.000000 

-0.018338 -3.190980 0.000000 
0.000000 -6.351912 0.000000 
0.000000 0.000000 0.000000 

0.623112 -2.550932 0.000000 
0.000000 -5.239216 0.000000 
0.000000 0.000000 0.000000 

-6.550833 6.778607 0.000000 
0.000000 -22.685083 0.000000 
0.000000 0.000000 0.000000 

3.183794 -0.834622 0.000000 
0.000000 -3.173450 0.000000 
0.000000 0.000000 0.000000 

2.132415 -0.113436 0.000000 
0.000000 -2.322894 0.000000 
0.000000 0.000000 0.000000 

-2.401286 -2.665800 0.000000 
0.000000 -6.778672 0.000000 
0.000000 0.000000 0.000000 

1.520598 -0.497104 0.000000 
0.000000 -1.848439 0.000000 
0.000000 0.000000 0.000000 

6.630351 6.339386 0.000000 
0.000000 3.947656 0.000000 
0.000000 0.000000 0.000000 

6.267253 1.371810 0.000000 
0.000000 1.574385 0.000000 
0.000000 0.000000 0.000000 

4.257478 3.461090 0.000000 
0.000000 -1.491170 0.000000 
0.000000 0.000000 0.000000 

3.393624 3.892161 0.000000 
0.000000 1.320448 0.000000 
0.000000 0.000000 0.000000 

1.473890 0.563019 0.000000 
0.000000 -3.838347 0.000000 
0.000000 0.000000 0.000000 

-0.703583 1.433094 0.000000 
0.000000 0.301320 0.000000 
0.000000 0.000000 0.000000 

-0.813826 1.076926 0.000000 
0.000000 0.854612 0.000000 
0.000000 0.000000 0.000000 

-2.586586 -0.717416 0.000000 
0.000000 -0.020211 0.000000 
0.000000 0.000000 0.000000 

1.385101 5.261359 0.000000 
0.000000 4.711069 0.000000 
0.000000 0.000000 0.000000 

0.354707 3.500062 0.000000 
0.000000 1.714628 0.000000 
0.000000 0.000000 0.000000 

-1.582406 0.541551 0.000000 
0.000000 -0.244139 0.000000 
0.000000 0.000000 0.000000 

1.695681 3.330177 0.000000 
0.000000 2.768817 0.000000 
0.000000 0.000000 0.000000 

0.043918 2.578476 0.000000 
0.000000 -0.529331 0.000000 
0.000000 0.000000 0.000000 

0.695663 2.303657 0.000000 
0.000000 0.180847 0.000000 
0.000000 0.000000 0.000000 

-1.897237 -2.070441 0.000000 
0.000000 -2.369036 0.000000 
0.000000 0.000000 0.000000 

-2.047684 0.616934 0.000000 
0.000000 -1.750584 0.000000 
0.000000 0.000000 0.000000 

-2.535046 1.217859 0.000000 
0.000000 -4.089295 0.000000 
0.000000 0.000000 0.000000 

-3.684179 0.299515 0.000000 
0.000000 -4.052801 0.000000 
0.000000 0.000000 0.000000 

-2.748244 4.181091 0.000000 
0.000000 -5.384861 0.000000 
0.000000 0.000000 0.000000 

-0.234175 0.000713 0.000000 
0.000000 -0.605927 0.000000 
0.000000 0.000000 0.000000 

-1.570917 -6.542772 0.000000 
0.000000 -9.401820 0.000000 
0.000000 0.000000 0.000000 

-5.265386 -2.164999 0.000000 
0.000000 -7.838025 0.000000 
0.000000 0.000000 0.000000 

-1.637184 0.080899 0.000000 
0.000000 -3.990579 0.000000 
0.000000 0.000000 0.000000 

-4.272620 -0.876839 0.000000 
0.000000 -2.000921 0.000000 
0.000000 0.000000 0.000000 

2.687665 2.603147 0.000000 
0.000000 -1.638140 0.000000 
0.000000 0.000000 0.000000 

-11.483082 -3.900785 0.000000 
0.000000 -42.927726 0.000000 
0.000000 0.000000 0.000000 

-3.532864 0.481385 0.000000 
0.000000 -5.532701 0.000000 
0.000000 0.000000 0.000000 

-4.330824 -0.962942 0.000000 
0.000000 -6.184493 0.000000 
0.000000 0.000000 0.000000 

-3.105662 0.608841 0.000000 
0.000000 -4.436073 0.000000 
0.000000 0.000000 0.000000 

-0.692874 2.269224 0.000000 
0.000000 0.102988 0.000000 
0.000000 0.000000 0.000000 

-0.962456 2.106452 0.000000 
0.000000 -1.811582 0.000000 
0.000000 0.000000 0.000000 

1.753593 -0.591918 0.000000 
0.000000 1.828328 0.000000 
0.000000 0.000000 0.000000 

0.309487 1.204642 0.000000 
0.000000 1.322620 0.000000 
0.000000 0.000000 0.000000 

2.656937 -0.985546 0.000000 
0.000000 1.741271 0.000000 
0.000000 0.000000 0.000000 

4.291909 -1.134404 0.000000 
0.000000 7.148737 0.000000 
0.000000 0.000000 0.000000 

0.841690 0.665642 0.000000 
0.000000 -2.507845 0.000000 
0.000000 0.000000 0.000000 

0.189857 1.008677 0.000000 
0.000000 2.561238 0.000000 
0.000000 0.000000 0.000000 

5.842927 1.408879 0.000000 
0.000000 0.316632 0.000000 
0.000000 0.000000 0.000000 

0.651290 -0.855538 0.000000 
0.000000 -1.778159 0.000000 
0.000000 0.000000 0.000000 

0.343481 -0.696551 0.000000 
0.000000 -2.819121 0.000000 
0.000000 0.000000 0.000000 

2.733524 -1.761460 0.000000 
0.000000 3.573076 0.000000 
0.000000 0.000000 0.000000 

4.449756 -2.004126 0.000000 
0.000000 7.917326 0.000000 
0.000000 0.000000 0.000000 

0.460695 -1.766978 0.000000 
0.000000 -1.675742 0.000000 
0.000000 0.000000 0.000000 

6.018318 -0.742558 0.000000 
0.000000 14.542472 0.000000 
0.000000 0.000000 0.000000 

-4.997628 -1.681483 0.000000 
0.000000 -6.924947 0.000000 
0.000000 0.000000 0.000000 

-4.704750 -0.033827 0.000000 
0.000000 -6.568352 0.000000 
0.000000 0.000000 0.000000 

6.666814 -0.817175 0.000000 
0.000000 2.140431 0.000000 
0.000000 0.000000 0.000000 

-1.525445 -3.030687 0.000000 
0.000000 1.444158 0.000000 
0.000000 0.000000 0.000000 

5.822860 -2.767976 0.000000 
0.000000 19.057725 0.000000 
0.000000 0.000000 0.000000 

-0.540157 0.804896 0.000000 
0.000000 0.662471 0.000000 
0.000000 0.000000 0.000000 

-0.842910 -4.049517 0.000000 
0.000000 3.321285 0.000000 
0.000000 0.000000 0.000000 

-1.834528 0.421502 0.000000 
0.000000 -3.624043 0.000000 
0.000000 0.000000 0.000000 

-0.243896 0.023767 0.000000 
0.000000 -1.805064 0.000000 
0.000000 0.000000 0.000000 

3.794322 1.514297 0.000000 
0.000000 2.290348 0.000000 
0.000000 0.000000 0.000000 

-11.496492 2.356335 0.000000 
0.000000 -30.782240 0.000000 
0.000000 0.000000 0.000000 

-0.642248 -0.859009 0.000000 
0.000000 -2.944995 0.000000 
0.000000 0.000000 0.000000 

1.223502 -1.220749 0.000000 
0.000000 -1.578149 0.000000 
0.000000 0.000000 0.000000 

-0.854381 -2.845646 0.000000 
0.000000 -4.491866 0.000000 
0.000000 0.000000 0.000000 

-2.235794 -0.064259 0.000000 
0.000000 -4.281039 0.000000 
0.000000 0.000000 0.000000 

-1.589725 -6.304262 0.000000 
0.000000 2.898468 0.000000 
0.000000 0.000000 0.000000 

-4.706939 -2.112651 0.000000 
0.000000 -5.305223 0.000000 
0.000000 0.000000 0.000000 

-3.307028 -0.977136 0.000000 
0.000000 -6.218342 0.000000 
0.000000 0.000000 0.000000 

-4.097516 -7.545169 0.000000 
0.000000 -3.680595 0.000000 
0.000000 0.000000 0.000000 

-3.928033 -1.035336 0.000000 
0.000000 -4.260706 0.000000 
0.000000 0.000000 0.000000 

-4.469860 0.071581 0.000000 
0.000000 -4.473812 0.000000 
0.000000 0.000000 0.000000 

-8.340637 -2.979211 0.000000 
0.000000 -45.408958 0.000000 
0.000000 0.000000 0.000000 

-4.280463 -1.382133 0.000000 
0.000000 -3.689614 0.000000 
0.000000 0.000000 0.000000 

TENSORS STRAIN float 
-0.002735 -0.009558 0.000000 
0.000000 0.004693 0.000000 
0.000000 0.000000 0.000000 

0.092121 0.074953 0.000000 
0.000000 -0.548342 0.000000 
0.000000 0.000000 0.000000 

0.007875 -0.002376 0.000000 
0.000000 -0.008916 0.000000 
0.000000 0.000000 0.000000 

0.005742 -0.002889 0.000000 
0.000000 -0.018459 0.000000 
0.000000 0.000000 0.000000 

0.058597 -0.054687 0.000000 
0.000000 -0.906349 0.000000 
0.000000 0.000000 0.000000 

0.002266 0.019824 0.000000 
0.000000 0.007283 0.000000 
0.000000 0.000000 0.000000 

-0.001801 -0.008682 0.000000 
0.000000 0.008348 0.000000 
0.000000 0.000000 0.000000 

0.114976 0.040188 0.000000 
0.000000 -0.954628 0.000000 
0.000000 0.000000 0.000000 

0.000891 -0.005992 0.000000 
0.000000 -0.013931 0.000000 
0.000000 0.000000 0.000000 

0.000949 0.006547 0.000000 
0.000000 -0.014832 0.000000 
0.000000 0.000000 0.000000 

0.047733 -0.031060 0.000000 
0.000000 -0.366803 0.000000 
0.000000 0.000000 0.000000 

-0.002013 -0.007088 0.000000 
0.000000 0.002923 0.000000 
0.000000 0.000000 0.000000 

0.069673 0.098792 0.000000 
0.000000 -0.817585 0.000000 
0.000000 0.000000 0.000000 

0.014586 0.022014 0.000000 
0.000000 -0.005668 0.000000 
0.000000 0.000000 0.000000 

-0.001688 0.000882 0.000000 
0.000000 -0.002088 0.000000 
0.000000 0.000000 0.000000 

0.060070 -0.086937 0.000000 
0.000000 -0.699548 0.000000 
0.000000 0.000000 0.000000 

0.001690 0.006512 0.000000 
0.000000 0.004081 0.000000 
0.000000 0.000000 0.000000 

0.002762 0.006005 0.000000 
0.000000 -0.005630 0.000000 
0.000000 0.000000 0.000000 

0.088953 -0.006311 0.000000 
0.000000 -1.000114 0.000000 
0.000000 0.000000 0.000000 

-0.014137 -0.003549 0.000000 
0.000000 0.006711 0.000000 
0.000000 0.000000 0.000000 

0.017570 0.065414 0.000000 
0.000000 -0.188786 0.000000 
0.000000 0.000000 0.000000 

0.006358 -0.010314 0.000000 
0.000000 -0.015457 0.000000 
0.000000 0.000000 0.000000 

-0.002330 -0.007899 0.000000 
0.000000 0.003536 0.000000 
0.000000 0.000000 0.000000 

0.104757 0.097345 0.000000 
0.000000 -0.664138 0.000000 
0.000000 0.000000 0.000000 

0.006840 -0.003393 0.000000 
0.000000 -0.007043 0.000000 
0.000000 0.000000 0.000000 

0.006699 0.005283 0.000000 
0.000000 -0.023125 0.000000 
0.000000 0.000000 0.000000 

0.031118 -0.081484 0.000000 
0.000000 -0.774117 0.000000 
0.000000 0.000000 0.000000 

0.002171 0.005316 0.000000 
0.000000 0.003195 0.000000 
0.000000 0.000000 0.000000 

0.002298 0.003120 0.000000 
0.000000 0.004074 0.000000 
0.000000 0.000000 0.000000 

0.122980 0.015603 0.000000 
0.000000 -1.000105 0.000000 
0.000000 0.000000 0.000000 

-0.009443 -0.004572 0.000000 
0.000000 0.000777 0.000000 
0.000000 0.000000 0.000000 

0.000516 0.008224 0.000000 
0.000000 -0.016003 0.000000 
0.000000 0.000000 0.000000 

0.010684 -0.029286 0.000000 
0.000000 -0.133192 0.000000 
0.000000 0.000000 0.000000 

-0.001588 -0.006310 0.000000 
0.000000 0.002299 0.000000 
0.000000 0.000000 0.000000 

0.101023 0.062921 0.000000 
0.000000 -0.908425 0.000000 
0.000000 0.000000 0.000000 

0.006567 -0.002491 0.000000 
0.000000 -0.017854 0.000000 
0.000000 0.000000 0.000000 

-0.000527 0.005833 0.000000 
0.000000 -0.010452 0.000000 
0.000000 0.000000 0.000000 

0.078063 -0.052916 0.000000 
0.000000 -0.587140 0.000000 
0.000000 0.000000 0.000000 

0.001363 0.007672 0.000000 
0.000000 0.004929 0.000000 
0.000000 0.000000 0.000000 

0.004720 0.000417 0.000000 
0.000000 -0.015060 0.000000 
0.000000 0.000000 0.000000 

0.080236 -0.024402 0.000000 
0.000000 -0.998219 0.000000 
0.000000 0.000000 0.000000 

-0.029198 -0.022367 0.000000 
0.000000 0.010887 0.000000 
0.000000 0.000000 0.000000 

0.068029 0.067353 0.000000 
0.000000 -0.435043 0.000000 
0.000000 0.000000 0.000000 

0.007527 -0.007812 0.000000 
0.000000 -0.014402 0.000000 
0.000000 0.000000 0.000000 

-0.001987 -0.008983 0.000000 
0.000000 0.004043 0.000000 
0.000000 0.000000 0.000000 

-0.003851 -0.005069 0.000000 
0.000000 -0.005562 0.000000 
0.000000 0.000000 0.000000 

0.001921 0.007514 0.000000 
0.000000 0.004613 0.000000 
0.000000 0.000000 0.000000 

0.027136 -0.064910 0.000000 
0.000000 -0.731187 0.000000 
0.000000 0.000000 0.000000 

0.064585 0.069925 0.000000 
0.000000 -0.772109 0.000000 
0.000000 0.000000 0.000000 

0.035757 0.052110 0.000000 
0.000000 -0.286523 0.000000 
0.000000 0.000000 0.000000 

0.015286 -0.026679 0.000000 
0.000000 -0.164173 0.000000 
0.000000 0.000000 0.000000 

0.001625 0.005034 0.000000 
0.000000 0.007907 0.000000 
0.000000 0.000000 0.000000 

0.003973 0.002402 0.000000 
0.000000 -0.010352 0.000000 
0.000000 0.000000 0.000000 

0.011573 0.004164 0.000000 
0.000000 -0.016624 0.000000 
0.000000 0.000000 0.000000 

0.002336 0.006044 0.000000 
0.000000 0.003572 0.000000 
0.000000 0.000000 0.000000 

0.043408 -0.034969 0.000000 
0.000000 -0.862337 0.000000 
0.000000 0.000000 0.000000 

0.040675 0.101509 0.000000 
0.000000 -0.660552 0.000000 
0.000000 0.000000 0.000000 

0.000479 0.007534 0.000000 
0.000000 -0.014704 0.000000 
0.000000 0.000000 0.000000 

0.008434 -0.002280 0.000000 
0.000000 -0.009096 0.000000 
0.000000 0.000000 0.000000 

0.056257 -0.025721 0.000000 
0.000000 -0.467951 0.000000 
0.000000 0.000000 0.000000 

0.084205 -0.002312 0.000000 
0.000000 -0.911581 0.000000 
0.000000 0.000000 0.000000 

-0.001811 -0.006008 0.000000 
0.000000 0.010391 0.000000 
0.000000 0.000000 0.000000 

0.002566 -0.028082 0.000000 
0.000000 0.023947 0.000000 
0.000000 0.000000 0.000000 

0.000760 0.000985 0.000000 
0.000000 -0.005908 0.000000 
0.000000 0.000000 0.000000 

0.001060 0.015931 0.000000 
0.000000 0.009175 0.000000 
0.000000 0.000000 0.000000 

0.007595 0.006819 0.000000 
0.000000 0.005484 0.000000 
0.000000 0.000000 0.000000 

-0.001801 -0.007348 0.000000 
0.000000 0.003203 0.000000 
0.000000 0.000000 0.000000 

-0.002486 -0.007905 0.000000 
0.000000 -0.000222 0.000000 
0.000000 0.000000 0.000000 

-0.002358 -0.009650 0.000000 
0.000000 0.002944 0.000000 
0.000000 0.000000 0.000000 

-0.003216 -0.002257 0.000000 
0.000000 -0.005955 0.000000 
0.000000 0.000000 0.000000 

-0.003220 -0.003722 0.000000 
0.000000 0.000553 0.000000 
0.000000 0.000000 0.000000 

-0.003082 -0.000032 0.000000 
0.000000 -0.004592 0.000000 
0.000000 0.000000 0.000000 

-0.003156 -0.001527 0.000000 
0.000000 -0.008652 0.000000 
0.000000 0.000000 0.000000 

-0.003221 -0.001964 0.000000 
0.000000 0.001202 0.000000 
0.000000 0.000000 0.000000 

-0.002876 0.000249 0.000000 
0.000000 -0.007620 0.000000 
0.000000 0.000000 0.000000 

-0.003100 -0.003743 0.000000 
0.000000 -0.008642 0.000000 
0.000000 0.000000 0.000000 

-0.002970 0.000660 0.000000 
0.000000 -0.000119 0.000000 
0.000000 0.000000 0.000000 

0.004788 -0.003170 0.000000 
0.000000 -0.006250 0.000000 
0.000000 0.000000 0.000000 

0.006731 -0.009919 0.000000 
0.000000 -0.007589 0.000000 
0.000000 0.000000 0.000000 

-0.002913 0.001774 0.000000 
0.000000 -0.002392 0.000000 
0.000000 0.000000 0.000000 

0.002242 -0.016171 0.000000 
0.000000 0.011143 0.000000 
0.000000 0.000000 0.000000 

-0.001644 0.004299 0.000000 
0.000000 -0.008523 0.000000 
0.000000 0.000000 0.000000 

-0.002759 0.004643 0.000000 
0.000000 -0.001876 0.000000 
0.000000 0.000000 0.000000 

0.000477 -0.000124 0.000000 
0.000000 -0.001765 0.000000 
0.000000 0.000000 0.000000 

0.001394 0.004654 0.000000 
0.000000 -0.008915 0.000000 
0.000000 0.000000 0.000000 

-0.001638 0.003268 0.000000 
0.000000 -0.007337 0.000000 
0.000000 0.000000 0.000000 

0.001007 0.008273 0.000000 
0.000000 -0.012895 0.000000 
0.000000 0.000000 0.000000 

0.000967 0.007120 0.000000 
0.000000 -0.011239 0.000000 
0.000000 0.000000 0.000000 

0.000851 -0.003679 0.000000 
0.000000 0.004637 0.000000 
0.000000 0.000000 0.000000 

0.019356 0.014060 0.000000 
0.000000 -0.182115 0.000000 
0.000000 0.000000 0.000000 

0.015972 0.023469 0.000000 
0.000000 -0.273307 0.000000 
0.000000 0.000000 0.000000 

0.010053 0.014158 0.000000 
0.000000 -0.008794 0.000000 
0.000000 0.000000 0.000000 

0.024493 0.051737 0.000000 
0.000000 -0.471346 0.000000 
0.000000 0.000000 0.000000 

0.025399 0.042337 0.000000 
0.000000 -0.506182 0.000000 
0.000000 0.000000 0.000000 

0.013285 -0.012387 0.000000 
0.000000 -0.055859 0.000000 
0.000000 0.000000 0.000000 

0.039443 0.044941 0.000000 
0.000000 -0.610546 0.000000 
0.000000 0.000000 0.000000 

0.034698 0.019620 0.000000 
0.000000 -0.569116 0.000000 
0.000000 0.000000 0.000000 

0.017160 0.014495 0.000000 
0.000000 -0.320895 0.000000 
0.000000 0.000000 0.000000 

0.047334 0.001162 0.000000 
0.000000 -0.674558 0.000000 
0.000000 0.000000 0.000000 

0.015191 -0.008398 0.000000 
0.000000 -0.599382 0.000000 
0.000000 0.000000 0.000000 

0.020016 0.011143 0.000000 
0.000000 -0.388304 0.000000 
0.000000 0.000000 0.000000 

0.020588 -0.025658 0.000000 
0.000000 -0.681086 0.000000 
0.000000 0.000000 0.000000 

0.011311 -0.026028 0.000000 
0.000000 -0.538173 0.000000 
0.000000 0.000000 0.000000 

0.007258 -0.001755 0.000000 
0.000000 -0.419828 0.000000 
0.000000 0.000000 0.000000 

0.012239 -0.043750 0.000000 
0.000000 -0.579598 0.000000 
0.000000 0.000000 0.000000 

0.006603 -0.016355 0.000000 
0.000000 -0.399799 0.000000 
0.000000 0.000000 0.000000 

0.006494 -0.002425 0.000000 
0.000000 -0.386728 0.000000 
0.000000 0.000000 0.000000 

0.006124 -0.005430 0.000000 
0.000000 -0.326913 0.000000 
0.000000 0.000000 0.000000 

0.016900 0.023693 0.000000 
0.000000 -0.103247 0.000000 
0.000000 0.000000 0.000000 

0.005895 0.009191 0.000000 
0.000000 -0.223636 0.000000 
0.000000 0.000000 0.000000 

0.006711 -0.011313 0.000000 
0.000000 -0.015745 0.000000 
0.000000 0.000000 0.000000 

0.008093 -0.010282 0.000000 
0.000000 -0.015536 0.000000 
0.000000 0.000000 0.000000 

0.006365 0.019437 0.000000 
0.000000 -0.039898 0.000000 
0.000000 0.000000 0.000000 

0.008651 -0.002270 0.000000 
0.000000 -0.008640 0.000000 
0.000000 0.000000 0.000000 

0.007741 -0.000401 0.000000 
0.000000 -0.008010 0.000000 
0.000000 0.000000 0.000000 

0.001175 -0.008878 0.000000 
0.000000 -0.013403 0.000000 
0.000000 0.000000 0.000000 

0.006811 -0.002091 0.000000 
0.000000 -0.007363 0.000000 
0.000000 0.000000 0.000000 

0.010906 0.020000 0.000000 
0.000000 0.002443 0.000000 
0.000000 0.000000 0.000000 

0.008573 0.003004 0.000000 
0.000000 -0.001704 0.000000 
0.000000 0.000000 0.000000 

0.012393 0.012514 0.000000 
0.000000 -0.008392 0.000000 
0.000000 0.000000 0.000000 

0.006947 0.013660 0.000000 
0.000000 -0.000329 0.000000 
0.000000 0.000000 0.000000 

0.008854 0.002283 0.000000 
0.000000 -0.012690 0.000000 
0.000000 0.000000 0.000000 

-0.001620 0.003982 0.000000 
0.000000 0.001173 0.000000 
0.000000 0.000000 0.000000 

-0.002773 0.003616 0.000000 
0.000000 0.002828 0.000000 
0.000000 0.000000 0.000000 

-0.005486 -0.002181 0.000000 
0.000000 0.002316 0.000000 
0.000000 0.000000 0.000000 

-0.001070 0.012690 0.000000 
0.000000 0.006952 0.000000 
0.000000 0.000000 0.000000 

-0.000845 0.011110 0.000000 
0.000000 0.003472 0.000000 
0.000000 0.000000 0.000000 

-0.003483 0.001824 0.000000 
0.000000 0.001023 0.000000 
0.000000 0.000000 0.000000 

0.001098 0.010266 0.000000 
0.000000 0.004407 0.000000 
0.000000 0.000000 0.000000 

0.000671 0.009122 0.000000 
0.000000 -0.001357 0.000000 
0.000000 0.000000 0.000000 

0.001459 0.007770 0.000000 
0.000000 -0.000277 0.000000 
0.000000 0.000000 0.000000 

-0.001956 -0.006559 0.000000 
0.000000 -0.003450 0.000000 
0.000000 0.000000 0.000000 

-0.002833 0.001924 0.000000 
0.000000 -0.001906 0.000000 
0.000000 0.000000 0.000000 

-0.001656 0.003681 0.000000 
0.000000 -0.006353 0.000000 
0.000000 0.000000 0.000000 

-0.002914 0.000640 0.000000 
0.000000 -0.003702 0.000000 
0.000000 0.000000 0.000000 

-0.000698 0.009466 0.000000 
0.000000 -0.006667 0.000000 
0.000000 0.000000 0.000000 

0.017022 0.000680 0.000000 
0.000000 -0.337370 0.000000 
0.000000 0.000000 0.000000 

0.003386 -0.012872 0.000000 
0.000000 -0.012020 0.000000 
0.000000 0.000000 0.000000 

-0.002518 -0.004086 0.000000 
0.000000 -0.007374 0.000000 
0.000000 0.000000 0.000000 

0.005789 0.009157 0.000000 
0.000000 -0.260578 0.000000 
0.000000 0.000000 0.000000 

-0.005045 -0.001850 0.000000 
0.000000 -0.000251 0.000000 
0.000000 0.000000 0.000000 

0.004651 0.005103 0.000000 
0.000000 -0.003828 0.000000 
0.000000 0.000000 0.000000 

0.013029 -0.010501 0.000000 
0.000000 -0.071618 0.000000 
0.000000 0.000000 0.000000 

-0.002803 0.001659 0.000000 
0.000000 -0.009697 0.000000 
0.000000 0.000000 0.000000 

-0.003875 -0.003173 0.000000 
0.000000 -0.009983 0.000000 
0.000000 0.000000 0.000000 

-0.002824 0.002039 0.000000 
0.000000 -0.007279 0.000000 
0.000000 0.000000 0.000000 

-0.001912 0.008410 0.000000 
0.000000 0.001038 0.000000 
0.000000 0.000000 0.000000 

-0.000491 0.007942 0.000000 
0.000000 -0.003692 0.000000 
0.000000 0.000000 0.000000 

0.002322 -0.002024 0.000000 
0.000000 0.002577 0.000000 
0.000000 0.000000 0.000000 

-0.000577 0.003860 0.000000 
0.000000 0.002669 0.000000 
0.000000 0.000000 0.000000 

0.003637 -0.002680 0.000000 
0.000000 0.001147 0.000000 
0.000000 0.000000 0.000000 

0.002067 -0.002728 0.000000 
0.000000 0.008936 0.000000 
0.000000 0.000000 0.000000 

0.005680 0.002818 0.000000 
0.000000 -0.008501 0.000000 
0.000000 0.000000 0.000000 

-0.001751 0.002779 0.000000 
0.000000 0.004783 0.000000 
0.000000 0.000000 0.000000 

0.010406 0.003670 0.000000 
0.000000 -0.003988 0.000000 
0.000000 0.000000 0.000000 

0.004155 -0.003593 0.000000 
0.000000 -0.006048 0.000000 
0.000000 0.000000 0.000000 

0.005491 -0.003521 0.000000 
0.000000 -0.010497 0.000000 
0.000000 0.000000 0.000000 

0.002866 -0.005999 0.000000 
0.000000 0.005725 0.000000 
0.000000 0.000000 0.000000 

0.002477 -0.006712 0.000000 
0.000000 0.014090 0.000000 
0.000000 0.000000 0.000000 

0.003592 -0.007692 0.000000 
0.000000 -0.005708 0.000000 
0.000000 0.000000 0.000000 

-0.000261 -0.001294 0.000000 
0.000000 0.014599 0.000000 
0.000000 0.000000 0.000000 

-0.004970 -0.005881 0.000000 
0.000000 -0.011710 0.000000 
0.000000 0.000000 0.000000 

-0.002940 -0.000075 0.000000 
0.000000 -0.007083 0.000000 
0.000000 0.000000 0.000000 

0.010234 -0.002078 0.000000 
0.000000 -0.001276 0.000000 
0.000000 0.000000 0.000000 

-0.004901 -0.009895 0.000000 
0.000000 0.004795 0.000000 
0.000000 0.000000 0.000000 

-0.003536 -0.005962 0.000000 
0.000000 0.024974 0.000000 
0.000000 0.000000 0.000000 

-0.002023 0.002823 0.000000 
0.000000 0.002194 0.000000 
0.000000 0.000000 0.000000 

-0.004590 -0.011715 0.000000 
0.000000 0.007458 0.000000 
0.000000 0.000000 0.000000 

-0.001085 0.002322 0.000000 
0.000000 -0.010942 0.000000 
0.000000 0.000000 0.000000 

0.001640 0.000105 0.000000 
0.000000 -0.005267 0.000000 
0.000000 0.000000 0.000000 

0.005331 0.004100 0.000000 
0.000000 0.001259 0.000000 
0.000000 0.000000 0.000000 

0.005578 0.011072 0.000000 
0.000000 -0.085042 0.000000 
0.000000 0.000000 0.000000 

0.001677 -0.003321 0.000000 
0.000000 -0.007224 0.000000 
0.000000 0.000000 0.000000 

0.004329 -0.003974 0.000000 
0.000000 -0.004791 0.000000 
0.000000 0.000000 0.000000 

0.002495 -0.009473 0.000000 
0.000000 -0.009614 0.000000 
0.000000 0.000000 0.000000 

-0.001073 -0.000246 0.000000 
0.000000 -0.008888 0.000000 
0.000000 0.000000 0.000000 

-0.004255 -0.013533 0.000000 
0.000000 0.005379 0.000000 
0.000000 0.000000 0.000000 

-0.005404 -0.006703 0.000000 
0.000000 -0.007302 0.000000 
0.000000 0.000000 0.000000 

-0.000992 -0.002156 0.000000 
0.000000 -0.007414 0.000000 
0.000000 0.000000 0.000000 

-0.005187 -0.022184 0.000000 
0.000000 -0.003961 0.000000 
0.000000 0.000000 0.000000 

-0.004844 -0.003408 0.000000 
0.000000 -0.005939 0.000000 
0.000000 0.000000 0.000000 

-0.003328 0.000133 0.000000 
0.000000 -0.003335 0.000000 
0.000000 0.000000 0.000000 

0.012812 -0.004903 0.000000 
0.000000 -0.048199 0.000000 
0.000000 0.000000 0.000000 

-0.002333 -0.001707 0.000000 
0.000000 -0.001603 0.000000 
0.000000 0.000000 0.000000 

