# vtk DataFile Version 3.0 
vtk output 
ASCII 
DATASET UNSTRUCTURED_GRID 
POINTS 175 float 
-0.026061 -1.993452 0.000000 
-0.106992 -1.925397 0.000000 
-0.054870 -1.933630 0.000000 
-0.028809 -1.887746 0.000000 
-0.186430 -1.861321 0.000000 
-0.137056 -1.863848 0.000000 
-0.114311 -1.810200 0.000000 
-0.058186 -1.825866 0.000000 
-0.029377 -1.785689 0.000000 
-0.265318 -1.798166 0.000000 
-0.217198 -1.798965 0.000000 
-0.196633 -1.741669 0.000000 
-0.143120 -1.750378 0.000000 
-0.116563 -1.703109 0.000000 
-0.058945 -1.722755 0.000000 
-0.029568 -1.684635 0.000000 
-0.344206 -1.735010 0.000000 
-0.296791 -1.735003 0.000000 
-0.278030 -1.675060 0.000000 
-0.225992 -1.680926 0.000000 
-0.201664 -1.628809 0.000000 
-0.145749 -1.642283 0.000000 
-0.117890 -1.597941 0.000000 
-0.059328 -1.620646 0.000000 
-0.029759 -1.583580 0.000000 
-0.058559 -2.034203 0.000000 
-0.162226 -2.055046 0.000000 
-0.123292 -2.019428 0.000000 
-0.142917 -1.970445 0.000000 
-0.261851 -2.077202 0.000000 
-0.229092 -2.040175 0.000000 
-0.256854 -1.988944 0.000000 
-0.209613 -1.954831 0.000000 
-0.223062 -1.907257 0.000000 
-0.360414 -2.099502 0.000000 
-0.329787 -2.062379 0.000000 
-0.361761 -2.010577 0.000000 
-0.321587 -1.974169 0.000000 
-0.341985 -1.923935 0.000000 
-0.290702 -1.891136 0.000000 
-0.302189 -1.844400 0.000000 
-0.458977 -2.121802 0.000000 
-0.429420 -2.084728 0.000000 
-0.464588 -2.032686 0.000000 
-0.427556 -1.995659 0.000000 
-0.453135 -1.944144 0.000000 
-0.407738 -1.908828 0.000000 
-0.425037 -1.859400 0.000000 
-0.370772 -1.827771 0.000000 
-0.381315 -1.781544 0.000000 
-0.046960 -2.085018 0.000000 
-0.095301 -2.179064 0.000000 
-0.098873 -2.126417 0.000000 
-0.149405 -2.111219 0.000000 
-0.140093 -2.270768 0.000000 
-0.148617 -2.222070 0.000000 
-0.205981 -2.211833 0.000000 
-0.203197 -2.153629 0.000000 
-0.248777 -2.134483 0.000000 
-0.184111 -2.361732 0.000000 
-0.194039 -2.314641 0.000000 
-0.254475 -2.307341 0.000000 
-0.257893 -2.253231 0.000000 
-0.309886 -2.237859 0.000000 
-0.303554 -2.177314 0.000000 
-0.347255 -2.157156 0.000000 
-0.228129 -2.452696 0.000000 
-0.238687 -2.406471 0.000000 
-0.301302 -2.401519 0.000000 
-0.307162 -2.349480 0.000000 
-0.363386 -2.337359 0.000000 
-0.362692 -2.279848 0.000000 
-0.412122 -2.262555 0.000000 
-0.403017 -2.200408 0.000000 
-0.445733 -2.179829 0.000000 
-0.000000 -2.107633 0.000000 
0.043388 -2.204064 0.000000 
-0.000000 -2.174032 0.000000 
-0.043388 -2.204064 0.000000 
0.087158 -2.296261 0.000000 
0.043769 -2.272562 0.000000 
-0.000000 -2.311028 0.000000 
-0.043769 -2.272562 0.000000 
-0.087158 -2.296261 0.000000 
0.130831 -2.387390 0.000000 
0.087824 -2.365791 0.000000 
0.044436 -2.408491 0.000000 
-0.000000 -2.377426 0.000000 
-0.044436 -2.408491 0.000000 
-0.087824 -2.365791 0.000000 
-0.130831 -2.387390 0.000000 
0.174505 -2.478520 0.000000 
0.131782 -2.457954 0.000000 
0.088871 -2.503820 0.000000 
0.044532 -2.475956 0.000000 
-0.000000 -2.512357 0.000000 
-0.044532 -2.475956 0.000000 
-0.088871 -2.503820 0.000000 
-0.131782 -2.457954 0.000000 
-0.174505 -2.478520 0.000000 
0.046960 -2.085018 0.000000 
0.149405 -2.111219 0.000000 
0.098873 -2.126417 0.000000 
0.095301 -2.179064 0.000000 
0.248777 -2.134483 0.000000 
0.203197 -2.153629 0.000000 
0.205981 -2.211833 0.000000 
0.148617 -2.222070 0.000000 
0.140093 -2.270768 0.000000 
0.347255 -2.157156 0.000000 
0.303554 -2.177314 0.000000 
0.309886 -2.237859 0.000000 
0.257893 -2.253231 0.000000 
0.254475 -2.307341 0.000000 
0.194039 -2.314641 0.000000 
0.184111 -2.361732 0.000000 
0.445733 -2.179829 0.000000 
0.403017 -2.200408 0.000000 
0.412122 -2.262555 0.000000 
0.362692 -2.279848 0.000000 
0.363386 -2.337359 0.000000 
0.307162 -2.349480 0.000000 
0.301302 -2.401519 0.000000 
0.238687 -2.406471 0.000000 
0.228129 -2.452696 0.000000 
0.058559 -2.034203 0.000000 
0.142917 -1.970445 0.000000 
0.123292 -2.019428 0.000000 
0.162226 -2.055046 0.000000 
0.223062 -1.907257 0.000000 
0.209613 -1.954831 0.000000 
0.256854 -1.988944 0.000000 
0.229092 -2.040175 0.000000 
0.261851 -2.077202 0.000000 
0.302189 -1.844400 0.000000 
0.290702 -1.891136 0.000000 
0.341985 -1.923935 0.000000 
0.321587 -1.974169 0.000000 
0.361761 -2.010577 0.000000 
0.329787 -2.062379 0.000000 
0.360414 -2.099502 0.000000 
0.381315 -1.781544 0.000000 
0.370772 -1.827771 0.000000 
0.425037 -1.859400 0.000000 
0.407738 -1.908828 0.000000 
0.453135 -1.944144 0.000000 
0.427556 -1.995659 0.000000 
0.464588 -2.032686 0.000000 
0.429420 -2.084728 0.000000 
0.458977 -2.121802 0.000000 
0.026061 -1.993452 0.000000 
0.028809 -1.887746 0.000000 
0.054870 -1.933630 0.000000 
0.106992 -1.925397 0.000000 
0.029377 -1.785689 0.000000 
0.058186 -1.825866 0.000000 
0.114311 -1.810200 0.000000 
0.137056 -1.863848 0.000000 
0.186430 -1.861321 0.000000 
0.029568 -1.684635 0.000000 
0.058945 -1.722755 0.000000 
0.116563 -1.703109 0.000000 
0.143120 -1.750378 0.000000 
0.196633 -1.741669 0.000000 
0.217198 -1.798965 0.000000 
0.265318 -1.798166 0.000000 
0.029759 -1.583580 0.000000 
0.059328 -1.620646 0.000000 
0.117890 -1.597941 0.000000 
0.145749 -1.642283 0.000000 
0.201664 -1.628809 0.000000 
0.225992 -1.680926 0.000000 
0.278030 -1.675060 0.000000 
0.296791 -1.735003 0.000000 
0.344206 -1.735010 0.000000 
CELLS 175 350 
1 0 
1 1 
1 2 
1 3 
1 4 
1 5 
1 6 
1 7 
1 8 
1 9 
1 10 
1 11 
1 12 
1 13 
1 14 
1 15 
1 16 
1 17 
1 18 
1 19 
1 20 
1 21 
1 22 
1 23 
1 24 
1 25 
1 26 
1 27 
1 28 
1 29 
1 30 
1 31 
1 32 
1 33 
1 34 
1 35 
1 36 
1 37 
1 38 
1 39 
1 40 
1 41 
1 42 
1 43 
1 44 
1 45 
1 46 
1 47 
1 48 
1 49 
1 50 
1 51 
1 52 
1 53 
1 54 
1 55 
1 56 
1 57 
1 58 
1 59 
1 60 
1 61 
1 62 
1 63 
1 64 
1 65 
1 66 
1 67 
1 68 
1 69 
1 70 
1 71 
1 72 
1 73 
1 74 
1 75 
1 76 
1 77 
1 78 
1 79 
1 80 
1 81 
1 82 
1 83 
1 84 
1 85 
1 86 
1 87 
1 88 
1 89 
1 90 
1 91 
1 92 
1 93 
1 94 
1 95 
1 96 
1 97 
1 98 
1 99 
1 100 
1 101 
1 102 
1 103 
1 104 
1 105 
1 106 
1 107 
1 108 
1 109 
1 110 
1 111 
1 112 
1 113 
1 114 
1 115 
1 116 
1 117 
1 118 
1 119 
1 120 
1 121 
1 122 
1 123 
1 124 
1 125 
1 126 
1 127 
1 128 
1 129 
1 130 
1 131 
1 132 
1 133 
1 134 
1 135 
1 136 
1 137 
1 138 
1 139 
1 140 
1 141 
1 142 
1 143 
1 144 
1 145 
1 146 
1 147 
1 148 
1 149 
1 150 
1 151 
1 152 
1 153 
1 154 
1 155 
1 156 
1 157 
1 158 
1 159 
1 160 
1 161 
1 162 
1 163 
1 164 
1 165 
1 166 
1 167 
1 168 
1 169 
1 170 
1 171 
1 172 
1 173 
1 174 
CELL_TYPES 175 
1 
1 
1 
1 
1 
1 
1 
1 
1 
1 
1 
1 
1 
1 
1 
1 
1 
1 
1 
1 
1 
1 
1 
1 
1 
1 
1 
1 
1 
1 
1 
1 
1 
1 
1 
1 
1 
1 
1 
1 
1 
1 
1 
1 
1 
1 
1 
1 
1 
1 
1 
1 
1 
1 
1 
1 
1 
1 
1 
1 
1 
1 
1 
1 
1 
1 
1 
1 
1 
1 
1 
1 
1 
1 
1 
1 
1 
1 
1 
1 
1 
1 
1 
1 
1 
1 
1 
1 
1 
1 
1 
1 
1 
1 
1 
1 
1 
1 
1 
1 
1 
1 
1 
1 
1 
1 
1 
1 
1 
1 
1 
1 
1 
1 
1 
1 
1 
1 
1 
1 
1 
1 
1 
1 
1 
1 
1 
1 
1 
1 
1 
1 
1 
1 
1 
1 
1 
1 
1 
1 
1 
1 
1 
1 
1 
1 
1 
1 
1 
1 
1 
1 
1 
1 
1 
1 
1 
1 
1 
1 
1 
1 
1 
1 
1 
1 
1 
1 
1 
1 
1 
1 
1 
1 
1 
POINT_DATA 175 
VECTORS X_GC float 
-0.026061 -1.993452 0.000000 
-0.106992 -1.925397 0.000000 
-0.054870 -1.933630 0.000000 
-0.028809 -1.887746 0.000000 
-0.186430 -1.861321 0.000000 
-0.137056 -1.863848 0.000000 
-0.114311 -1.810200 0.000000 
-0.058186 -1.825866 0.000000 
-0.029377 -1.785689 0.000000 
-0.265318 -1.798166 0.000000 
-0.217198 -1.798965 0.000000 
-0.196633 -1.741669 0.000000 
-0.143120 -1.750378 0.000000 
-0.116563 -1.703109 0.000000 
-0.058945 -1.722755 0.000000 
-0.029568 -1.684635 0.000000 
-0.344206 -1.735010 0.000000 
-0.296791 -1.735003 0.000000 
-0.278030 -1.675060 0.000000 
-0.225992 -1.680926 0.000000 
-0.201664 -1.628809 0.000000 
-0.145749 -1.642283 0.000000 
-0.117890 -1.597941 0.000000 
-0.059328 -1.620646 0.000000 
-0.029759 -1.583580 0.000000 
-0.058559 -2.034203 0.000000 
-0.162226 -2.055046 0.000000 
-0.123292 -2.019428 0.000000 
-0.142917 -1.970445 0.000000 
-0.261851 -2.077202 0.000000 
-0.229092 -2.040175 0.000000 
-0.256854 -1.988944 0.000000 
-0.209613 -1.954831 0.000000 
-0.223062 -1.907257 0.000000 
-0.360414 -2.099502 0.000000 
-0.329787 -2.062379 0.000000 
-0.361761 -2.010577 0.000000 
-0.321587 -1.974169 0.000000 
-0.341985 -1.923935 0.000000 
-0.290702 -1.891136 0.000000 
-0.302189 -1.844400 0.000000 
-0.458977 -2.121802 0.000000 
-0.429420 -2.084728 0.000000 
-0.464588 -2.032686 0.000000 
-0.427556 -1.995659 0.000000 
-0.453135 -1.944144 0.000000 
-0.407738 -1.908828 0.000000 
-0.425037 -1.859400 0.000000 
-0.370772 -1.827771 0.000000 
-0.381315 -1.781544 0.000000 
-0.046960 -2.085018 0.000000 
-0.095301 -2.179064 0.000000 
-0.098873 -2.126417 0.000000 
-0.149405 -2.111219 0.000000 
-0.140093 -2.270768 0.000000 
-0.148617 -2.222070 0.000000 
-0.205981 -2.211833 0.000000 
-0.203197 -2.153629 0.000000 
-0.248777 -2.134483 0.000000 
-0.184111 -2.361732 0.000000 
-0.194039 -2.314641 0.000000 
-0.254475 -2.307341 0.000000 
-0.257893 -2.253231 0.000000 
-0.309886 -2.237859 0.000000 
-0.303554 -2.177314 0.000000 
-0.347255 -2.157156 0.000000 
-0.228129 -2.452696 0.000000 
-0.238687 -2.406471 0.000000 
-0.301302 -2.401519 0.000000 
-0.307162 -2.349480 0.000000 
-0.363386 -2.337359 0.000000 
-0.362692 -2.279848 0.000000 
-0.412122 -2.262555 0.000000 
-0.403017 -2.200408 0.000000 
-0.445733 -2.179829 0.000000 
-0.000000 -2.107633 0.000000 
0.043388 -2.204064 0.000000 
-0.000000 -2.174032 0.000000 
-0.043388 -2.204064 0.000000 
0.087158 -2.296261 0.000000 
0.043769 -2.272562 0.000000 
-0.000000 -2.311028 0.000000 
-0.043769 -2.272562 0.000000 
-0.087158 -2.296261 0.000000 
0.130831 -2.387390 0.000000 
0.087824 -2.365791 0.000000 
0.044436 -2.408491 0.000000 
-0.000000 -2.377426 0.000000 
-0.044436 -2.408491 0.000000 
-0.087824 -2.365791 0.000000 
-0.130831 -2.387390 0.000000 
0.174505 -2.478520 0.000000 
0.131782 -2.457954 0.000000 
0.088871 -2.503820 0.000000 
0.044532 -2.475956 0.000000 
-0.000000 -2.512357 0.000000 
-0.044532 -2.475956 0.000000 
-0.088871 -2.503820 0.000000 
-0.131782 -2.457954 0.000000 
-0.174505 -2.478520 0.000000 
0.046960 -2.085018 0.000000 
0.149405 -2.111219 0.000000 
0.098873 -2.126417 0.000000 
0.095301 -2.179064 0.000000 
0.248777 -2.134483 0.000000 
0.203197 -2.153629 0.000000 
0.205981 -2.211833 0.000000 
0.148617 -2.222070 0.000000 
0.140093 -2.270768 0.000000 
0.347255 -2.157156 0.000000 
0.303554 -2.177314 0.000000 
0.309886 -2.237859 0.000000 
0.257893 -2.253231 0.000000 
0.254475 -2.307341 0.000000 
0.194039 -2.314641 0.000000 
0.184111 -2.361732 0.000000 
0.445733 -2.179829 0.000000 
0.403017 -2.200408 0.000000 
0.412122 -2.262555 0.000000 
0.362692 -2.279848 0.000000 
0.363386 -2.337359 0.000000 
0.307162 -2.349480 0.000000 
0.301302 -2.401519 0.000000 
0.238687 -2.406471 0.000000 
0.228129 -2.452696 0.000000 
0.058559 -2.034203 0.000000 
0.142917 -1.970445 0.000000 
0.123292 -2.019428 0.000000 
0.162226 -2.055046 0.000000 
0.223062 -1.907257 0.000000 
0.209613 -1.954831 0.000000 
0.256854 -1.988944 0.000000 
0.229092 -2.040175 0.000000 
0.261851 -2.077202 0.000000 
0.302189 -1.844400 0.000000 
0.290702 -1.891136 0.000000 
0.341985 -1.923935 0.000000 
0.321587 -1.974169 0.000000 
0.361761 -2.010577 0.000000 
0.329787 -2.062379 0.000000 
0.360414 -2.099502 0.000000 
0.381315 -1.781544 0.000000 
0.370772 -1.827771 0.000000 
0.425037 -1.859400 0.000000 
0.407738 -1.908828 0.000000 
0.453135 -1.944144 0.000000 
0.427556 -1.995659 0.000000 
0.464588 -2.032686 0.000000 
0.429420 -2.084728 0.000000 
0.458977 -2.121802 0.000000 
0.026061 -1.993452 0.000000 
0.028809 -1.887746 0.000000 
0.054870 -1.933630 0.000000 
0.106992 -1.925397 0.000000 
0.029377 -1.785689 0.000000 
0.058186 -1.825866 0.000000 
0.114311 -1.810200 0.000000 
0.137056 -1.863848 0.000000 
0.186430 -1.861321 0.000000 
0.029568 -1.684635 0.000000 
0.058945 -1.722755 0.000000 
0.116563 -1.703109 0.000000 
0.143120 -1.750378 0.000000 
0.196633 -1.741669 0.000000 
0.217198 -1.798965 0.000000 
0.265318 -1.798166 0.000000 
0.029759 -1.583580 0.000000 
0.059328 -1.620646 0.000000 
0.117890 -1.597941 0.000000 
0.145749 -1.642283 0.000000 
0.201664 -1.628809 0.000000 
0.225992 -1.680926 0.000000 
0.278030 -1.675060 0.000000 
0.296791 -1.735003 0.000000 
0.344206 -1.735010 0.000000 
VECTORS X_EC float 
0.338794 -0.588393 0.000000 
-0.609100 0.492859 0.000000 
0.713312 0.604000 0.000000 
0.374519 -0.015430 0.000000 
0.423588 -0.372161 0.000000 
-0.218274 -0.338057 0.000000 
-0.513962 0.937704 0.000000 
0.756418 -0.850810 0.000000 
0.381900 0.606798 0.000000 
-0.550868 0.775236 0.000000 
0.823577 0.786032 0.000000 
0.556234 0.012528 0.000000 
-0.139443 0.130096 0.000000 
-0.484677 -0.508028 0.000000 
0.766286 -0.242813 0.000000 
0.384386 -0.757433 0.000000 
0.474677 -0.077367 0.000000 
-0.141715 -0.077463 0.000000 
-0.385608 -0.886692 0.000000 
0.937896 -0.807496 0.000000 
0.621631 0.488924 0.000000 
-0.105264 0.670823 0.000000 
-0.467428 0.072197 0.000000 
0.771260 0.378725 0.000000 
0.386873 -0.121664 0.000000 
0.761262 -0.038258 0.000000 
0.108942 0.243118 0.000000 
-0.397202 -0.237721 0.000000 
-0.142083 -0.898996 0.000000 
-0.595936 0.542229 0.000000 
0.978194 0.042363 0.000000 
-0.660903 -0.649262 0.000000 
0.724964 0.890218 0.000000 
0.899809 0.247969 0.000000 
0.685384 0.843281 0.000000 
0.287229 0.342123 0.000000 
0.702895 -0.357206 0.000000 
0.180633 -0.848725 0.000000 
0.445811 0.473116 0.000000 
-0.220880 0.030330 0.000000 
-0.071546 -0.600596 0.000000 
-0.033296 -0.855667 0.000000 
-0.417537 0.643824 0.000000 
0.039645 -0.058739 0.000000 
-0.441768 -0.558610 0.000000 
-0.109248 0.745939 0.000000 
-0.699407 0.269184 0.000000 
-0.474522 -0.398095 0.000000 
0.820030 -0.825089 0.000000 
0.957100 0.550839 0.000000 
0.610485 0.647748 0.000000 
-0.761092 -0.082633 0.000000 
-0.714655 -0.793370 0.000000 
-0.057734 -0.998537 0.000000 
-0.178789 -0.844628 0.000000 
-0.067979 0.497945 0.000000 
0.677748 0.359742 0.000000 
0.641556 -0.426003 0.000000 
-0.765897 -0.684482 0.000000 
0.393446 0.383381 0.000000 
0.522510 -0.252349 0.000000 
-0.691820 -0.350894 0.000000 
-0.647393 0.918624 0.000000 
0.028512 0.711097 0.000000 
-0.053800 -0.106263 0.000000 
0.514316 -0.378394 0.000000 
0.965681 -0.388610 0.000000 
-0.897068 0.987361 0.000000 
-0.083078 0.920508 0.000000 
-0.006893 0.217983 0.000000 
0.724017 0.054350 0.000000 
0.714996 -0.722053 0.000000 
-0.642413 -0.955511 0.000000 
-0.760780 0.205509 0.000000 
-0.205471 -0.072306 0.000000 
0.000000 0.953050 0.000000 
-0.564049 0.254862 0.000000 
0.000000 -0.150574 0.000000 
0.564049 0.254862 0.000000 
0.866949 -0.500482 0.000000 
-0.569003 -0.820413 0.000000 
0.000000 -0.301125 0.000000 
0.569003 -0.820413 0.000000 
-0.866949 -0.500482 0.000000 
0.299194 0.729768 0.000000 
0.858290 0.438184 0.000000 
-0.577662 -0.985370 0.000000 
0.000000 0.595252 0.000000 
0.577662 -0.985370 0.000000 
-0.858290 0.438184 0.000000 
-0.299194 0.729768 0.000000 
-0.268560 -0.039982 0.000000 
0.286830 -0.317624 0.000000 
0.844677 0.301574 0.000000 
-0.578910 -0.074588 0.000000 
0.000000 0.416816 0.000000 
0.578910 -0.074588 0.000000 
-0.844677 0.301574 0.000000 
-0.286830 -0.317624 0.000000 
0.268560 -0.039982 0.000000 
-0.610485 0.647748 0.000000 
0.057734 -0.998537 0.000000 
0.714655 -0.793370 0.000000 
0.761092 -0.082633 0.000000 
0.765897 -0.684482 0.000000 
-0.641556 -0.426003 0.000000 
-0.677748 0.359742 0.000000 
0.067979 0.497945 0.000000 
0.178789 -0.844628 0.000000 
-0.514316 -0.378394 0.000000 
0.053800 -0.106263 0.000000 
-0.028512 0.711097 0.000000 
0.647393 0.918624 0.000000 
0.691820 -0.350894 0.000000 
-0.522510 -0.252349 0.000000 
-0.393446 0.383381 0.000000 
0.205471 -0.072306 0.000000 
0.760780 0.205509 0.000000 
0.642413 -0.955511 0.000000 
-0.714996 -0.722053 0.000000 
-0.724017 0.054350 0.000000 
0.006894 0.217983 0.000000 
0.083078 0.920508 0.000000 
0.897068 0.987361 0.000000 
-0.965681 -0.388610 0.000000 
-0.761262 -0.038258 0.000000 
0.142083 -0.898996 0.000000 
0.397202 -0.237721 0.000000 
-0.108942 0.243118 0.000000 
-0.899809 0.247969 0.000000 
-0.724964 0.890218 0.000000 
0.660903 -0.649262 0.000000 
-0.978194 0.042363 0.000000 
0.595936 0.542229 0.000000 
0.071546 -0.600596 0.000000 
0.220880 0.030330 0.000000 
-0.445811 0.473116 0.000000 
-0.180633 -0.848725 0.000000 
-0.702895 -0.357206 0.000000 
-0.287229 0.342123 0.000000 
-0.685384 0.843281 0.000000 
-0.957100 0.550839 0.000000 
-0.820030 -0.825089 0.000000 
0.474522 -0.398095 0.000000 
0.699407 0.269184 0.000000 
0.109248 0.745939 0.000000 
0.441768 -0.558610 0.000000 
-0.039645 -0.058739 0.000000 
0.417537 0.643824 0.000000 
0.033296 -0.855667 0.000000 
-0.338794 -0.588393 0.000000 
-0.374519 -0.015430 0.000000 
-0.713312 0.604000 0.000000 
0.609100 0.492859 0.000000 
-0.381900 0.606798 0.000000 
-0.756418 -0.850810 0.000000 
0.513962 0.937704 0.000000 
0.218274 -0.338057 0.000000 
-0.423588 -0.372161 0.000000 
-0.384386 -0.757433 0.000000 
-0.766286 -0.242813 0.000000 
0.484677 -0.508028 0.000000 
0.139443 0.130096 0.000000 
-0.556234 0.012528 0.000000 
-0.823577 0.786032 0.000000 
0.550868 0.775236 0.000000 
-0.386873 -0.121664 0.000000 
-0.771260 0.378725 0.000000 
0.467428 0.072197 0.000000 
0.105264 0.670823 0.000000 
-0.621631 0.488924 0.000000 
-0.937896 -0.807496 0.000000 
0.385608 -0.886692 0.000000 
0.141715 -0.077463 0.000000 
-0.474677 -0.077367 0.000000 
CELL_DATA 175 
SCALARS MASS float 
LOOKUP_TABLE default 
0.781831 
0.864274 
0.946717 
0.864274 
0.881307 
0.921110 
0.858535 
0.921110 
0.881307 
0.887046 
0.910001 
0.869829 
0.915556 
0.869829 
0.910001 
0.887046 
0.892784 
0.915740 
0.892784 
0.927218 
0.892784 
0.927218 
0.892784 
0.915740 
0.892784 
0.781831 
0.864274 
0.946717 
0.864274 
0.881307 
0.921110 
0.858535 
0.921110 
0.881307 
0.887046 
0.910001 
0.869829 
0.915556 
0.869829 
0.910001 
0.887046 
0.892784 
0.915740 
0.892784 
0.927218 
0.892784 
0.927218 
0.892784 
0.915740 
0.892784 
0.781831 
0.864274 
0.946717 
0.864274 
0.881307 
0.921110 
0.858535 
0.921110 
0.881307 
0.887046 
0.910001 
0.869829 
0.915556 
0.869829 
0.910001 
0.887046 
0.892784 
0.915740 
0.892784 
0.927218 
0.892784 
0.927218 
0.892784 
0.915740 
0.892784 
0.781831 
0.864274 
0.946717 
0.864274 
0.881307 
0.921110 
0.858535 
0.921110 
0.881307 
0.887046 
0.910001 
0.869829 
0.915556 
0.869829 
0.910001 
0.887046 
0.892784 
0.915740 
0.892784 
0.927218 
0.892784 
0.927218 
0.892784 
0.915740 
0.892784 
0.781831 
0.864274 
0.946717 
0.864274 
0.881307 
0.921110 
0.858535 
0.921110 
0.881307 
0.887046 
0.910001 
0.869829 
0.915556 
0.869829 
0.910001 
0.887046 
0.892784 
0.915740 
0.892784 
0.927218 
0.892784 
0.927218 
0.892784 
0.915740 
0.892784 
0.781831 
0.864274 
0.946717 
0.864274 
0.881307 
0.921110 
0.858535 
0.921110 
0.881307 
0.887046 
0.910001 
0.869829 
0.915556 
0.869829 
0.910001 
0.887046 
0.892784 
0.915740 
0.892784 
0.927218 
0.892784 
0.927218 
0.892784 
0.915740 
0.892784 
0.781831 
0.864274 
0.946717 
0.864274 
0.881307 
0.921110 
0.858535 
0.921110 
0.881307 
0.887046 
0.910001 
0.869829 
0.915556 
0.869829 
0.910001 
0.887046 
0.892784 
0.915740 
0.892784 
0.927218 
0.892784 
0.927218 
0.892784 
0.915740 
0.892784 
SCALARS MASS float 
LOOKUP_TABLE default 
0.781831 
0.864274 
0.946717 
0.864274 
0.881307 
0.921110 
0.858535 
0.921110 
0.881307 
0.887046 
0.910001 
0.869829 
0.915556 
0.869829 
0.910001 
0.887046 
0.892784 
0.915740 
0.892784 
0.927218 
0.892784 
0.927218 
0.892784 
0.915740 
0.892784 
0.781831 
0.864274 
0.946717 
0.864274 
0.881307 
0.921110 
0.858535 
0.921110 
0.881307 
0.887046 
0.910001 
0.869829 
0.915556 
0.869829 
0.910001 
0.887046 
0.892784 
0.915740 
0.892784 
0.927218 
0.892784 
0.927218 
0.892784 
0.915740 
0.892784 
0.781831 
0.864274 
0.946717 
0.864274 
0.881307 
0.921110 
0.858535 
0.921110 
0.881307 
0.887046 
0.910001 
0.869829 
0.915556 
0.869829 
0.910001 
0.887046 
0.892784 
0.915740 
0.892784 
0.927218 
0.892784 
0.927218 
0.892784 
0.915740 
0.892784 
0.781831 
0.864274 
0.946717 
0.864274 
0.881307 
0.921110 
0.858535 
0.921110 
0.881307 
0.887046 
0.910001 
0.869829 
0.915556 
0.869829 
0.910001 
0.887046 
0.892784 
0.915740 
0.892784 
0.927218 
0.892784 
0.927218 
0.892784 
0.915740 
0.892784 
0.781831 
0.864274 
0.946717 
0.864274 
0.881307 
0.921110 
0.858535 
0.921110 
0.881307 
0.887046 
0.910001 
0.869829 
0.915556 
0.869829 
0.910001 
0.887046 
0.892784 
0.915740 
0.892784 
0.927218 
0.892784 
0.927218 
0.892784 
0.915740 
0.892784 
0.781831 
0.864274 
0.946717 
0.864274 
0.881307 
0.921110 
0.858535 
0.921110 
0.881307 
0.887046 
0.910001 
0.869829 
0.915556 
0.869829 
0.910001 
0.887046 
0.892784 
0.915740 
0.892784 
0.927218 
0.892784 
0.927218 
0.892784 
0.915740 
0.892784 
0.781831 
0.864274 
0.946717 
0.864274 
0.881307 
0.921110 
0.858535 
0.921110 
0.881307 
0.887046 
0.910001 
0.869829 
0.915556 
0.869829 
0.910001 
0.887046 
0.892784 
0.915740 
0.892784 
0.927218 
0.892784 
0.927218 
0.892784 
0.915740 
0.892784 
SCALARS DENSITY float 
LOOKUP_TABLE default 
200.000000 
200.000000 
200.000000 
200.000000 
200.000000 
200.000000 
200.000000 
200.000000 
200.000000 
200.000000 
200.000000 
200.000000 
200.000000 
200.000000 
200.000000 
200.000000 
200.000000 
200.000000 
200.000000 
200.000000 
200.000000 
200.000000 
200.000000 
200.000000 
200.000000 
200.000000 
200.000000 
200.000000 
200.000000 
200.000000 
200.000000 
200.000000 
200.000000 
200.000000 
200.000000 
200.000000 
200.000000 
200.000000 
200.000000 
200.000000 
200.000000 
200.000000 
200.000000 
200.000000 
200.000000 
200.000000 
200.000000 
200.000000 
200.000000 
200.000000 
200.000000 
200.000000 
200.000000 
200.000000 
200.000000 
200.000000 
200.000000 
200.000000 
200.000000 
200.000000 
200.000000 
200.000000 
200.000000 
200.000000 
200.000000 
200.000000 
200.000000 
200.000000 
200.000000 
200.000000 
200.000000 
200.000000 
200.000000 
200.000000 
200.000000 
200.000000 
200.000000 
200.000000 
200.000000 
200.000000 
200.000000 
200.000000 
200.000000 
200.000000 
200.000000 
200.000000 
200.000000 
200.000000 
200.000000 
200.000000 
200.000000 
200.000000 
200.000000 
200.000000 
200.000000 
200.000000 
200.000000 
200.000000 
200.000000 
200.000000 
200.000000 
200.000000 
200.000000 
200.000000 
200.000000 
200.000000 
200.000000 
200.000000 
200.000000 
200.000000 
200.000000 
200.000000 
200.000000 
200.000000 
200.000000 
200.000000 
200.000000 
200.000000 
200.000000 
200.000000 
200.000000 
200.000000 
200.000000 
200.000000 
200.000000 
200.000000 
200.000000 
200.000000 
200.000000 
200.000000 
200.000000 
200.000000 
200.000000 
200.000000 
200.000000 
200.000000 
200.000000 
200.000000 
200.000000 
200.000000 
200.000000 
200.000000 
200.000000 
200.000000 
200.000000 
200.000000 
200.000000 
200.000000 
200.000000 
200.000000 
200.000000 
200.000000 
200.000000 
200.000000 
200.000000 
200.000000 
200.000000 
200.000000 
200.000000 
200.000000 
200.000000 
200.000000 
200.000000 
200.000000 
200.000000 
200.000000 
200.000000 
200.000000 
200.000000 
200.000000 
200.000000 
200.000000 
200.000000 
200.000000 
200.000000 
SCALARS ELEM_i float 
LOOKUP_TABLE default 
168 
196 
169 
169 
196 
196 
197 
169 
170 
224 
197 
197 
197 
197 
170 
170 
224 
224 
224 
197 
198 
198 
198 
171 
171 
168 
195 
195 
195 
222 
195 
222 
196 
196 
222 
222 
222 
222 
223 
223 
223 
248 
249 
249 
249 
250 
250 
250 
223 
224 
168 
194 
194 
194 
193 
194 
194 
194 
221 
193 
193 
220 
221 
221 
221 
221 
192 
220 
220 
220 
220 
220 
247 
248 
248 
168 
167 
167 
167 
139 
166 
166 
166 
193 
139 
139 
165 
166 
165 
193 
193 
138 
138 
138 
165 
165 
165 
192 
192 
192 
168 
140 
140 
140 
113 
140 
140 
140 
139 
113 
113 
113 
113 
112 
139 
139 
86 
86 
85 
112 
112 
112 
112 
112 
138 
168 
141 
141 
141 
142 
142 
114 
141 
114 
115 
115 
115 
114 
114 
114 
114 
116 
115 
88 
88 
88 
87 
87 
87 
86 
168 
169 
169 
142 
170 
169 
143 
142 
142 
170 
170 
143 
143 
143 
143 
116 
171 
171 
144 
144 
144 
143 
116 
116 
116 
VECTORS VELOCITY float 
-0.000000 -6.337260 0.000000 
0.000000 -6.337260 0.000000 
0.000000 -6.337260 0.000000 
0.000000 -6.337260 0.000000 
-0.000000 -6.337260 0.000000 
0.000000 -6.337260 0.000000 
0.000000 -6.337260 0.000000 
0.000000 -6.337260 0.000000 
0.000000 -6.337260 0.000000 
-0.000000 -6.337260 0.000000 
-0.000000 -6.337260 0.000000 
0.000000 -6.337260 0.000000 
0.000000 -6.337260 0.000000 
0.000000 -6.337260 0.000000 
0.000000 -6.337260 0.000000 
0.000000 -6.337260 0.000000 
0.000000 -6.337260 0.000000 
0.000000 -6.337260 0.000000 
0.000000 -6.337260 0.000000 
0.000000 -6.337260 0.000000 
0.000000 -6.337260 0.000000 
0.000000 -6.337260 0.000000 
0.000000 -6.337260 0.000000 
0.000000 -6.337260 0.000000 
0.000000 -6.337260 0.000000 
0.000000 -6.337260 0.000000 
0.000000 -6.337260 0.000000 
0.000000 -6.337260 0.000000 
0.000000 -6.337260 0.000000 
0.000000 -6.337260 0.000000 
0.000000 -6.337260 0.000000 
0.000000 -6.337260 0.000000 
-0.000000 -6.337260 0.000000 
-0.000000 -6.337260 0.000000 
-0.000000 -6.337260 0.000000 
-0.000000 -6.337260 0.000000 
-0.000000 -6.337260 0.000000 
-0.000000 -6.337260 0.000000 
-0.000000 -6.337260 0.000000 
-0.000000 -6.337260 0.000000 
-0.000000 -6.337260 0.000000 
-0.000000 -6.337260 0.000000 
-0.000000 -6.337260 0.000000 
-0.000000 -6.337260 0.000000 
-0.000000 -6.337260 0.000000 
0.000000 -6.337260 0.000000 
0.000000 -6.337260 0.000000 
0.000000 -6.337260 0.000000 
0.000000 -6.337260 0.000000 
0.000000 -6.337260 0.000000 
0.000000 -6.337260 0.000000 
0.000000 -6.337260 0.000000 
0.000000 -6.337260 0.000000 
-0.000000 -6.337260 0.000000 
0.000000 -6.337260 0.000000 
-0.000000 -6.337260 0.000000 
-0.000000 -6.337260 0.000000 
-0.000000 -6.337260 0.000000 
-0.000000 -6.337260 0.000000 
-0.000000 -6.337260 0.000000 
-0.000000 -6.337260 0.000000 
-0.000000 -6.337260 0.000000 
-0.000000 -6.337260 0.000000 
-0.000000 -6.337260 0.000000 
0.000000 -6.337260 0.000000 
0.000000 -6.337260 0.000000 
-0.000000 -6.337260 0.000000 
-0.000000 -6.337260 0.000000 
0.000000 -6.337260 0.000000 
0.000000 -6.337260 0.000000 
0.000000 -6.337260 0.000000 
0.000000 -6.337260 0.000000 
-0.000000 -6.337260 0.000000 
0.000000 -6.337260 0.000000 
-0.000000 -6.337260 0.000000 
0.000000 -6.337260 0.000000 
0.000000 -6.337260 0.000000 
0.000000 -6.337260 0.000000 
0.000000 -6.337260 0.000000 
-0.000000 -6.337260 0.000000 
-0.000000 -6.337260 0.000000 
-0.000000 -6.337260 0.000000 
0.000000 -6.337260 0.000000 
0.000000 -6.337260 0.000000 
-0.000000 -6.337260 0.000000 
-0.000000 -6.337260 0.000000 
-0.000000 -6.337260 0.000000 
-0.000000 -6.337260 0.000000 
-0.000000 -6.337260 0.000000 
-0.000000 -6.337260 0.000000 
-0.000000 -6.337260 0.000000 
0.000000 -6.337260 0.000000 
-0.000000 -6.337260 0.000000 
0.000000 -6.337260 0.000000 
-0.000000 -6.337260 0.000000 
-0.000000 -6.337260 0.000000 
-0.000000 -6.337260 0.000000 
-0.000000 -6.337260 0.000000 
-0.000000 -6.337260 0.000000 
-0.000000 -6.337260 0.000000 
0.000000 -6.337260 0.000000 
0.000000 -6.337260 0.000000 
0.000000 -6.337260 0.000000 
0.000000 -6.337260 0.000000 
-0.000000 -6.337260 0.000000 
-0.000000 -6.337260 0.000000 
0.000000 -6.337260 0.000000 
0.000000 -6.337260 0.000000 
-0.000000 -6.337260 0.000000 
0.000000 -6.337260 0.000000 
0.000000 -6.337260 0.000000 
0.000000 -6.337260 0.000000 
0.000000 -6.337260 0.000000 
0.000000 -6.337260 0.000000 
0.000000 -6.337260 0.000000 
-0.000000 -6.337260 0.000000 
-0.000000 -6.337260 0.000000 
0.000000 -6.337260 0.000000 
0.000000 -6.337260 0.000000 
-0.000000 -6.337260 0.000000 
-0.000000 -6.337260 0.000000 
-0.000000 -6.337260 0.000000 
-0.000000 -6.337260 0.000000 
-0.000000 -6.337260 0.000000 
-0.000000 -6.337260 0.000000 
-0.000000 -6.337260 0.000000 
-0.000000 -6.337260 0.000000 
-0.000000 -6.337260 0.000000 
-0.000000 -6.337260 0.000000 
0.000000 -6.337260 0.000000 
0.000000 -6.337260 0.000000 
0.000000 -6.337260 0.000000 
-0.000000 -6.337260 0.000000 
-0.000000 -6.337260 0.000000 
-0.000000 -6.337260 0.000000 
0.000000 -6.337260 0.000000 
0.000000 -6.337260 0.000000 
0.000000 -6.337260 0.000000 
-0.000000 -6.337260 0.000000 
0.000000 -6.337260 0.000000 
0.000000 -6.337260 0.000000 
0.000000 -6.337260 0.000000 
0.000000 -6.337260 0.000000 
-0.000000 -6.337260 0.000000 
-0.000000 -6.337260 0.000000 
-0.000000 -6.337260 0.000000 
0.000000 -6.337260 0.000000 
-0.000000 -6.337260 0.000000 
-0.000000 -6.337260 0.000000 
-0.000000 -6.337260 0.000000 
-0.000000 -6.337260 0.000000 
0.000000 -6.337260 0.000000 
-0.000000 -6.337260 0.000000 
-0.000000 -6.337260 0.000000 
0.000000 -6.337260 0.000000 
0.000000 -6.337260 0.000000 
0.000000 -6.337260 0.000000 
-0.000000 -6.337260 0.000000 
-0.000000 -6.337260 0.000000 
0.000000 -6.337260 0.000000 
0.000000 -6.337260 0.000000 
0.000000 -6.337260 0.000000 
0.000000 -6.337260 0.000000 
-0.000000 -6.337260 0.000000 
-0.000000 -6.337260 0.000000 
-0.000000 -6.337260 0.000000 
0.000000 -6.337260 0.000000 
0.000000 -6.337260 0.000000 
0.000000 -6.337260 0.000000 
0.000000 -6.337260 0.000000 
0.000000 -6.337260 0.000000 
0.000000 -6.337260 0.000000 
0.000000 -6.337260 0.000000 
0.000000 -6.337260 0.000000 
0.000000 -6.337260 0.000000 
TENSORS STRESS float 
0.000000 -0.000000 0.000000 
0.000000 0.000000 0.000000 
0.000000 0.000000 0.000000 

-0.000000 -0.000000 0.000000 
0.000000 -0.000000 0.000000 
0.000000 0.000000 0.000000 

0.000000 0.000000 0.000000 
0.000000 -0.000000 0.000000 
0.000000 0.000000 0.000000 

0.000000 0.000000 0.000000 
0.000000 0.000000 0.000000 
0.000000 0.000000 0.000000 

0.000000 -0.000000 0.000000 
0.000000 0.000000 0.000000 
0.000000 0.000000 0.000000 

0.000000 0.000000 0.000000 
0.000000 0.000000 0.000000 
0.000000 0.000000 0.000000 

0.000000 -0.000000 0.000000 
0.000000 0.000000 0.000000 
0.000000 0.000000 0.000000 

-0.000000 -0.000000 0.000000 
0.000000 -0.000000 0.000000 
0.000000 0.000000 0.000000 

0.000000 0.000000 0.000000 
0.000000 0.000000 0.000000 
0.000000 0.000000 0.000000 

0.000000 -0.000000 0.000000 
0.000000 0.000000 0.000000 
0.000000 0.000000 0.000000 

-0.000000 -0.000000 0.000000 
0.000000 -0.000000 0.000000 
0.000000 0.000000 0.000000 

-0.000000 0.000000 0.000000 
0.000000 -0.000000 0.000000 
0.000000 0.000000 0.000000 

0.000000 0.000000 0.000000 
0.000000 0.000000 0.000000 
0.000000 0.000000 0.000000 

0.000000 0.000000 0.000000 
0.000000 0.000000 0.000000 
0.000000 0.000000 0.000000 

0.000000 0.000000 0.000000 
0.000000 0.000000 0.000000 
0.000000 0.000000 0.000000 

0.000000 0.000000 0.000000 
0.000000 0.000000 0.000000 
0.000000 0.000000 0.000000 

0.000000 -0.000000 0.000000 
0.000000 0.000000 0.000000 
0.000000 0.000000 0.000000 

-0.000000 -0.000000 0.000000 
0.000000 -0.000000 0.000000 
0.000000 0.000000 0.000000 

0.000000 -0.000000 0.000000 
0.000000 0.000000 0.000000 
0.000000 0.000000 0.000000 

0.000000 -0.000000 0.000000 
0.000000 0.000000 0.000000 
0.000000 0.000000 0.000000 

0.000000 -0.000000 0.000000 
0.000000 0.000000 0.000000 
0.000000 0.000000 0.000000 

-0.000000 -0.000000 0.000000 
0.000000 -0.000000 0.000000 
0.000000 0.000000 0.000000 

-0.000000 0.000000 0.000000 
0.000000 -0.000000 0.000000 
0.000000 0.000000 0.000000 

-0.000000 0.000000 0.000000 
0.000000 -0.000000 0.000000 
0.000000 0.000000 0.000000 

-0.000000 0.000000 0.000000 
0.000000 -0.000000 0.000000 
0.000000 0.000000 0.000000 

-0.000000 -0.000000 0.000000 
0.000000 -0.000000 0.000000 
0.000000 0.000000 0.000000 

0.000000 0.000000 0.000000 
0.000000 0.000000 0.000000 
0.000000 0.000000 0.000000 

0.000000 -0.000000 0.000000 
0.000000 0.000000 0.000000 
0.000000 0.000000 0.000000 

-0.000000 0.000000 0.000000 
0.000000 -0.000000 0.000000 
0.000000 0.000000 0.000000 

-0.000000 -0.000000 0.000000 
0.000000 -0.000000 0.000000 
0.000000 0.000000 0.000000 

-0.000000 0.000000 0.000000 
0.000000 -0.000000 0.000000 
0.000000 0.000000 0.000000 

0.000000 0.000000 0.000000 
0.000000 0.000000 0.000000 
0.000000 0.000000 0.000000 

-0.000000 0.000000 0.000000 
0.000000 -0.000000 0.000000 
0.000000 0.000000 0.000000 

0.000000 -0.000000 0.000000 
0.000000 0.000000 0.000000 
0.000000 0.000000 0.000000 

0.000000 0.000000 0.000000 
0.000000 0.000000 0.000000 
0.000000 0.000000 0.000000 

-0.000000 0.000000 0.000000 
0.000000 -0.000000 0.000000 
0.000000 0.000000 0.000000 

-0.000000 0.000000 0.000000 
0.000000 -0.000000 0.000000 
0.000000 0.000000 0.000000 

-0.000000 -0.000000 0.000000 
0.000000 -0.000000 0.000000 
0.000000 0.000000 0.000000 

0.000000 -0.000000 0.000000 
0.000000 0.000000 0.000000 
0.000000 0.000000 0.000000 

0.000000 -0.000000 0.000000 
0.000000 0.000000 0.000000 
0.000000 0.000000 0.000000 

-0.000000 -0.000000 0.000000 
0.000000 0.000000 0.000000 
0.000000 0.000000 0.000000 

-0.000000 -0.000000 0.000000 
0.000000 -0.000000 0.000000 
0.000000 0.000000 0.000000 

-0.000000 -0.000000 0.000000 
0.000000 -0.000000 0.000000 
0.000000 0.000000 0.000000 

-0.000000 0.000000 0.000000 
0.000000 -0.000000 0.000000 
0.000000 0.000000 0.000000 

0.000000 0.000000 0.000000 
0.000000 0.000000 0.000000 
0.000000 0.000000 0.000000 

0.000000 -0.000000 0.000000 
0.000000 0.000000 0.000000 
0.000000 0.000000 0.000000 

-0.000000 -0.000000 0.000000 
0.000000 -0.000000 0.000000 
0.000000 0.000000 0.000000 

0.000000 -0.000000 0.000000 
0.000000 0.000000 0.000000 
0.000000 0.000000 0.000000 

0.000000 -0.000000 0.000000 
0.000000 0.000000 0.000000 
0.000000 0.000000 0.000000 

0.000000 -0.000000 0.000000 
0.000000 0.000000 0.000000 
0.000000 0.000000 0.000000 

0.000000 -0.000000 0.000000 
0.000000 0.000000 0.000000 
0.000000 0.000000 0.000000 

0.000000 0.000000 0.000000 
0.000000 0.000000 0.000000 
0.000000 0.000000 0.000000 

0.000000 0.000000 0.000000 
0.000000 0.000000 0.000000 
0.000000 0.000000 0.000000 

-0.000000 0.000000 0.000000 
0.000000 -0.000000 0.000000 
0.000000 0.000000 0.000000 

-0.000000 0.000000 0.000000 
0.000000 -0.000000 0.000000 
0.000000 0.000000 0.000000 

0.000000 0.000000 0.000000 
0.000000 0.000000 0.000000 
0.000000 0.000000 0.000000 

-0.000000 0.000000 0.000000 
0.000000 -0.000000 0.000000 
0.000000 0.000000 0.000000 

0.000000 -0.000000 0.000000 
0.000000 0.000000 0.000000 
0.000000 0.000000 0.000000 

0.000000 -0.000000 0.000000 
0.000000 0.000000 0.000000 
0.000000 0.000000 0.000000 

0.000000 0.000000 0.000000 
0.000000 0.000000 0.000000 
0.000000 0.000000 0.000000 

0.000000 0.000000 0.000000 
0.000000 0.000000 0.000000 
0.000000 0.000000 0.000000 

-0.000000 0.000000 0.000000 
0.000000 -0.000000 0.000000 
0.000000 0.000000 0.000000 

-0.000000 -0.000000 0.000000 
0.000000 -0.000000 0.000000 
0.000000 0.000000 0.000000 

0.000000 -0.000000 0.000000 
0.000000 0.000000 0.000000 
0.000000 0.000000 0.000000 

-0.000000 0.000000 0.000000 
0.000000 -0.000000 0.000000 
0.000000 0.000000 0.000000 

-0.000000 0.000000 0.000000 
0.000000 -0.000000 0.000000 
0.000000 0.000000 0.000000 

-0.000000 -0.000000 0.000000 
0.000000 -0.000000 0.000000 
0.000000 0.000000 0.000000 

-0.000000 0.000000 0.000000 
0.000000 -0.000000 0.000000 
0.000000 0.000000 0.000000 

-0.000000 0.000000 0.000000 
0.000000 -0.000000 0.000000 
0.000000 0.000000 0.000000 

-0.000000 0.000000 0.000000 
0.000000 -0.000000 0.000000 
0.000000 0.000000 0.000000 

-0.000000 0.000000 0.000000 
0.000000 -0.000000 0.000000 
0.000000 0.000000 0.000000 

-0.000000 0.000000 0.000000 
0.000000 -0.000000 0.000000 
0.000000 0.000000 0.000000 

0.000000 0.000000 0.000000 
0.000000 0.000000 0.000000 
0.000000 0.000000 0.000000 

-0.000000 -0.000000 0.000000 
0.000000 -0.000000 0.000000 
0.000000 0.000000 0.000000 

-0.000000 -0.000000 0.000000 
0.000000 -0.000000 0.000000 
0.000000 0.000000 0.000000 

-0.000000 -0.000000 0.000000 
0.000000 -0.000000 0.000000 
0.000000 0.000000 0.000000 

0.000000 -0.000000 0.000000 
0.000000 0.000000 0.000000 
0.000000 0.000000 0.000000 

-0.000000 -0.000000 0.000000 
0.000000 -0.000000 0.000000 
0.000000 0.000000 0.000000 

0.000000 -0.000000 0.000000 
0.000000 0.000000 0.000000 
0.000000 0.000000 0.000000 

-0.000000 -0.000000 0.000000 
0.000000 -0.000000 0.000000 
0.000000 0.000000 0.000000 

0.000000 -0.000000 0.000000 
0.000000 0.000000 0.000000 
0.000000 0.000000 0.000000 

-0.000000 0.000000 0.000000 
0.000000 -0.000000 0.000000 
0.000000 0.000000 0.000000 

0.000000 0.000000 0.000000 
0.000000 0.000000 0.000000 
0.000000 0.000000 0.000000 

0.000000 0.000000 0.000000 
0.000000 0.000000 0.000000 
0.000000 0.000000 0.000000 

-0.000000 0.000000 0.000000 
0.000000 -0.000000 0.000000 
0.000000 0.000000 0.000000 

0.000000 0.000000 0.000000 
0.000000 0.000000 0.000000 
0.000000 0.000000 0.000000 

0.000000 0.000000 0.000000 
0.000000 0.000000 0.000000 
0.000000 0.000000 0.000000 

0.000000 0.000000 0.000000 
0.000000 0.000000 0.000000 
0.000000 0.000000 0.000000 

0.000000 0.000000 0.000000 
0.000000 0.000000 0.000000 
0.000000 0.000000 0.000000 

0.000000 0.000000 0.000000 
0.000000 0.000000 0.000000 
0.000000 0.000000 0.000000 

-0.000000 -0.000000 0.000000 
0.000000 -0.000000 0.000000 
0.000000 0.000000 0.000000 

-0.000000 -0.000000 0.000000 
0.000000 -0.000000 0.000000 
0.000000 0.000000 0.000000 

0.000000 -0.000000 0.000000 
0.000000 0.000000 0.000000 
0.000000 0.000000 0.000000 

-0.000000 -0.000000 0.000000 
0.000000 -0.000000 0.000000 
0.000000 0.000000 0.000000 

-0.000000 0.000000 0.000000 
0.000000 -0.000000 0.000000 
0.000000 0.000000 0.000000 

0.000000 0.000000 0.000000 
0.000000 0.000000 0.000000 
0.000000 0.000000 0.000000 

-0.000000 0.000000 0.000000 
0.000000 -0.000000 0.000000 
0.000000 0.000000 0.000000 

0.000000 -0.000000 0.000000 
0.000000 0.000000 0.000000 
0.000000 0.000000 0.000000 

0.000000 -0.000000 0.000000 
0.000000 0.000000 0.000000 
0.000000 0.000000 0.000000 

0.000000 -0.000000 0.000000 
0.000000 0.000000 0.000000 
0.000000 0.000000 0.000000 

0.000000 -0.000000 0.000000 
0.000000 0.000000 0.000000 
0.000000 0.000000 0.000000 

-0.000000 -0.000000 0.000000 
0.000000 -0.000000 0.000000 
0.000000 0.000000 0.000000 

-0.000000 0.000000 0.000000 
0.000000 -0.000000 0.000000 
0.000000 0.000000 0.000000 

0.000000 -0.000000 0.000000 
0.000000 0.000000 0.000000 
0.000000 0.000000 0.000000 

-0.000000 0.000000 0.000000 
0.000000 -0.000000 0.000000 
0.000000 0.000000 0.000000 

0.000000 -0.000000 0.000000 
0.000000 0.000000 0.000000 
0.000000 0.000000 0.000000 

0.000000 -0.000000 0.000000 
0.000000 0.000000 0.000000 
0.000000 0.000000 0.000000 

0.000000 -0.000000 0.000000 
0.000000 0.000000 0.000000 
0.000000 0.000000 0.000000 

0.000000 -0.000000 0.000000 
0.000000 0.000000 0.000000 
0.000000 0.000000 0.000000 

0.000000 0.000000 0.000000 
0.000000 0.000000 0.000000 
0.000000 0.000000 0.000000 

-0.000000 0.000000 0.000000 
0.000000 -0.000000 0.000000 
0.000000 0.000000 0.000000 

-0.000000 0.000000 0.000000 
0.000000 0.000000 0.000000 
0.000000 0.000000 0.000000 

-0.000000 0.000000 0.000000 
0.000000 -0.000000 0.000000 
0.000000 0.000000 0.000000 

-0.000000 0.000000 0.000000 
0.000000 -0.000000 0.000000 
0.000000 0.000000 0.000000 

0.000000 -0.000000 0.000000 
0.000000 0.000000 0.000000 
0.000000 0.000000 0.000000 

-0.000000 -0.000000 0.000000 
0.000000 -0.000000 0.000000 
0.000000 0.000000 0.000000 

-0.000000 -0.000000 0.000000 
0.000000 -0.000000 0.000000 
0.000000 0.000000 0.000000 

0.000000 -0.000000 0.000000 
0.000000 0.000000 0.000000 
0.000000 0.000000 0.000000 

-0.000000 -0.000000 0.000000 
0.000000 -0.000000 0.000000 
0.000000 0.000000 0.000000 

0.000000 0.000000 0.000000 
0.000000 0.000000 0.000000 
0.000000 0.000000 0.000000 

-0.000000 0.000000 0.000000 
0.000000 -0.000000 0.000000 
0.000000 0.000000 0.000000 

0.000000 0.000000 0.000000 
0.000000 0.000000 0.000000 
0.000000 0.000000 0.000000 

-0.000000 0.000000 0.000000 
0.000000 -0.000000 0.000000 
0.000000 0.000000 0.000000 

-0.000000 0.000000 0.000000 
0.000000 -0.000000 0.000000 
0.000000 0.000000 0.000000 

0.000000 -0.000000 0.000000 
0.000000 0.000000 0.000000 
0.000000 0.000000 0.000000 

0.000000 -0.000000 0.000000 
0.000000 0.000000 0.000000 
0.000000 0.000000 0.000000 

-0.000000 0.000000 0.000000 
0.000000 -0.000000 0.000000 
0.000000 0.000000 0.000000 

0.000000 -0.000000 0.000000 
0.000000 0.000000 0.000000 
0.000000 0.000000 0.000000 

0.000000 -0.000000 0.000000 
0.000000 0.000000 0.000000 
0.000000 0.000000 0.000000 

0.000000 0.000000 0.000000 
0.000000 0.000000 0.000000 
0.000000 0.000000 0.000000 

-0.000000 0.000000 0.000000 
0.000000 -0.000000 0.000000 
0.000000 0.000000 0.000000 

0.000000 0.000000 0.000000 
0.000000 0.000000 0.000000 
0.000000 0.000000 0.000000 

0.000000 -0.000000 0.000000 
0.000000 0.000000 0.000000 
0.000000 0.000000 0.000000 

0.000000 0.000000 0.000000 
0.000000 0.000000 0.000000 
0.000000 0.000000 0.000000 

0.000000 -0.000000 0.000000 
0.000000 0.000000 0.000000 
0.000000 0.000000 0.000000 

-0.000000 -0.000000 0.000000 
0.000000 -0.000000 0.000000 
0.000000 0.000000 0.000000 

0.000000 -0.000000 0.000000 
0.000000 0.000000 0.000000 
0.000000 0.000000 0.000000 

0.000000 0.000000 0.000000 
0.000000 0.000000 0.000000 
0.000000 0.000000 0.000000 

0.000000 0.000000 0.000000 
0.000000 0.000000 0.000000 
0.000000 0.000000 0.000000 

0.000000 0.000000 0.000000 
0.000000 0.000000 0.000000 
0.000000 0.000000 0.000000 

0.000000 0.000000 0.000000 
0.000000 0.000000 0.000000 
0.000000 0.000000 0.000000 

0.000000 0.000000 0.000000 
0.000000 0.000000 0.000000 
0.000000 0.000000 0.000000 

0.000000 -0.000000 0.000000 
0.000000 0.000000 0.000000 
0.000000 0.000000 0.000000 

-0.000000 0.000000 0.000000 
0.000000 0.000000 0.000000 
0.000000 0.000000 0.000000 

-0.000000 0.000000 0.000000 
0.000000 0.000000 0.000000 
0.000000 0.000000 0.000000 

-0.000000 -0.000000 0.000000 
0.000000 -0.000000 0.000000 
0.000000 0.000000 0.000000 

0.000000 0.000000 0.000000 
0.000000 0.000000 0.000000 
0.000000 0.000000 0.000000 

0.000000 0.000000 0.000000 
0.000000 0.000000 0.000000 
0.000000 0.000000 0.000000 

0.000000 -0.000000 0.000000 
0.000000 0.000000 0.000000 
0.000000 0.000000 0.000000 

0.000000 -0.000000 0.000000 
0.000000 0.000000 0.000000 
0.000000 0.000000 0.000000 

0.000000 0.000000 0.000000 
0.000000 0.000000 0.000000 
0.000000 0.000000 0.000000 

-0.000000 0.000000 0.000000 
0.000000 -0.000000 0.000000 
0.000000 0.000000 0.000000 

0.000000 0.000000 0.000000 
0.000000 0.000000 0.000000 
0.000000 0.000000 0.000000 

-0.000000 -0.000000 0.000000 
0.000000 -0.000000 0.000000 
0.000000 0.000000 0.000000 

0.000000 0.000000 0.000000 
0.000000 0.000000 0.000000 
0.000000 0.000000 0.000000 

0.000000 -0.000000 0.000000 
0.000000 0.000000 0.000000 
0.000000 0.000000 0.000000 

0.000000 -0.000000 0.000000 
0.000000 0.000000 0.000000 
0.000000 0.000000 0.000000 

-0.000000 0.000000 0.000000 
0.000000 -0.000000 0.000000 
0.000000 0.000000 0.000000 

-0.000000 0.000000 0.000000 
0.000000 -0.000000 0.000000 
0.000000 0.000000 0.000000 

-0.000000 0.000000 0.000000 
0.000000 -0.000000 0.000000 
0.000000 0.000000 0.000000 

0.000000 0.000000 0.000000 
0.000000 0.000000 0.000000 
0.000000 0.000000 0.000000 

-0.000000 0.000000 0.000000 
0.000000 -0.000000 0.000000 
0.000000 0.000000 0.000000 

0.000000 -0.000000 0.000000 
0.000000 0.000000 0.000000 
0.000000 0.000000 0.000000 

0.000000 -0.000000 0.000000 
0.000000 0.000000 0.000000 
0.000000 0.000000 0.000000 

-0.000000 -0.000000 0.000000 
0.000000 -0.000000 0.000000 
0.000000 0.000000 0.000000 

-0.000000 0.000000 0.000000 
0.000000 -0.000000 0.000000 
0.000000 0.000000 0.000000 

-0.000000 0.000000 0.000000 
0.000000 -0.000000 0.000000 
0.000000 0.000000 0.000000 

-0.000000 0.000000 0.000000 
0.000000 -0.000000 0.000000 
0.000000 0.000000 0.000000 

-0.000000 -0.000000 0.000000 
0.000000 -0.000000 0.000000 
0.000000 0.000000 0.000000 

0.000000 0.000000 0.000000 
0.000000 0.000000 0.000000 
0.000000 0.000000 0.000000 

0.000000 0.000000 0.000000 
0.000000 0.000000 0.000000 
0.000000 0.000000 0.000000 

-0.000000 0.000000 0.000000 
0.000000 -0.000000 0.000000 
0.000000 0.000000 0.000000 

-0.000000 0.000000 0.000000 
0.000000 -0.000000 0.000000 
0.000000 0.000000 0.000000 

0.000000 0.000000 0.000000 
0.000000 0.000000 0.000000 
0.000000 0.000000 0.000000 

-0.000000 0.000000 0.000000 
0.000000 -0.000000 0.000000 
0.000000 0.000000 0.000000 

TENSORS STRAIN float 
0.000000 -0.000000 0.000000 
0.000000 -0.000000 0.000000 
0.000000 0.000000 0.000000 

-0.000000 -0.000000 0.000000 
0.000000 0.000000 0.000000 
0.000000 0.000000 0.000000 

0.000000 0.000000 0.000000 
0.000000 -0.000000 0.000000 
0.000000 0.000000 0.000000 

0.000000 0.000000 0.000000 
0.000000 -0.000000 0.000000 
0.000000 0.000000 0.000000 

-0.000000 -0.000000 0.000000 
0.000000 0.000000 0.000000 
0.000000 0.000000 0.000000 

-0.000000 0.000000 0.000000 
0.000000 0.000000 0.000000 
0.000000 0.000000 0.000000 

-0.000000 -0.000000 0.000000 
0.000000 0.000000 0.000000 
0.000000 0.000000 0.000000 

0.000000 -0.000000 0.000000 
0.000000 -0.000000 0.000000 
0.000000 0.000000 0.000000 

-0.000000 0.000000 0.000000 
0.000000 0.000000 0.000000 
0.000000 0.000000 0.000000 

-0.000000 -0.000000 0.000000 
0.000000 0.000000 0.000000 
0.000000 0.000000 0.000000 

-0.000000 -0.000000 0.000000 
0.000000 0.000000 0.000000 
0.000000 0.000000 0.000000 

-0.000000 0.000000 0.000000 
0.000000 0.000000 0.000000 
0.000000 0.000000 0.000000 

-0.000000 0.000000 0.000000 
0.000000 0.000000 0.000000 
0.000000 0.000000 0.000000 

-0.000000 0.000000 0.000000 
0.000000 0.000000 0.000000 
0.000000 0.000000 0.000000 

-0.000000 0.000000 0.000000 
0.000000 0.000000 0.000000 
0.000000 0.000000 0.000000 

-0.000000 0.000000 0.000000 
0.000000 0.000000 0.000000 
0.000000 0.000000 0.000000 

-0.000000 -0.000000 0.000000 
0.000000 0.000000 0.000000 
0.000000 0.000000 0.000000 

-0.000000 -0.000000 0.000000 
0.000000 -0.000000 0.000000 
0.000000 0.000000 0.000000 

-0.000000 -0.000000 0.000000 
0.000000 0.000000 0.000000 
0.000000 0.000000 0.000000 

-0.000000 -0.000000 0.000000 
0.000000 0.000000 0.000000 
0.000000 0.000000 0.000000 

0.000000 -0.000000 0.000000 
0.000000 0.000000 0.000000 
0.000000 0.000000 0.000000 

-0.000000 -0.000000 0.000000 
0.000000 -0.000000 0.000000 
0.000000 0.000000 0.000000 

0.000000 0.000000 0.000000 
0.000000 -0.000000 0.000000 
0.000000 0.000000 0.000000 

-0.000000 0.000000 0.000000 
0.000000 -0.000000 0.000000 
0.000000 0.000000 0.000000 

-0.000000 0.000000 0.000000 
0.000000 0.000000 0.000000 
0.000000 0.000000 0.000000 

-0.000000 -0.000000 0.000000 
0.000000 -0.000000 0.000000 
0.000000 0.000000 0.000000 

-0.000000 0.000000 0.000000 
0.000000 0.000000 0.000000 
0.000000 0.000000 0.000000 

-0.000000 -0.000000 0.000000 
0.000000 0.000000 0.000000 
0.000000 0.000000 0.000000 

-0.000000 0.000000 0.000000 
0.000000 -0.000000 0.000000 
0.000000 0.000000 0.000000 

-0.000000 -0.000000 0.000000 
0.000000 0.000000 0.000000 
0.000000 0.000000 0.000000 

-0.000000 0.000000 0.000000 
0.000000 -0.000000 0.000000 
0.000000 0.000000 0.000000 

-0.000000 0.000000 0.000000 
0.000000 0.000000 0.000000 
0.000000 0.000000 0.000000 

-0.000000 0.000000 0.000000 
0.000000 0.000000 0.000000 
0.000000 0.000000 0.000000 

-0.000000 -0.000000 0.000000 
0.000000 0.000000 0.000000 
0.000000 0.000000 0.000000 

-0.000000 0.000000 0.000000 
0.000000 0.000000 0.000000 
0.000000 0.000000 0.000000 

-0.000000 0.000000 0.000000 
0.000000 0.000000 0.000000 
0.000000 0.000000 0.000000 

-0.000000 0.000000 0.000000 
0.000000 0.000000 0.000000 
0.000000 0.000000 0.000000 

-0.000000 -0.000000 0.000000 
0.000000 0.000000 0.000000 
0.000000 0.000000 0.000000 

-0.000000 -0.000000 0.000000 
0.000000 0.000000 0.000000 
0.000000 0.000000 0.000000 

-0.000000 -0.000000 0.000000 
0.000000 0.000000 0.000000 
0.000000 0.000000 0.000000 

-0.000000 -0.000000 0.000000 
0.000000 0.000000 0.000000 
0.000000 0.000000 0.000000 

0.000000 -0.000000 0.000000 
0.000000 -0.000000 0.000000 
0.000000 0.000000 0.000000 

0.000000 -0.000000 0.000000 
0.000000 -0.000000 0.000000 
0.000000 0.000000 0.000000 

0.000000 0.000000 0.000000 
0.000000 -0.000000 0.000000 
0.000000 0.000000 0.000000 

-0.000000 0.000000 0.000000 
0.000000 0.000000 0.000000 
0.000000 0.000000 0.000000 

-0.000000 -0.000000 0.000000 
0.000000 0.000000 0.000000 
0.000000 0.000000 0.000000 

-0.000000 -0.000000 0.000000 
0.000000 0.000000 0.000000 
0.000000 0.000000 0.000000 

0.000000 -0.000000 0.000000 
0.000000 -0.000000 0.000000 
0.000000 0.000000 0.000000 

-0.000000 -0.000000 0.000000 
0.000000 0.000000 0.000000 
0.000000 0.000000 0.000000 

-0.000000 -0.000000 0.000000 
0.000000 0.000000 0.000000 
0.000000 0.000000 0.000000 

-0.000000 -0.000000 0.000000 
0.000000 0.000000 0.000000 
0.000000 0.000000 0.000000 

-0.000000 0.000000 0.000000 
0.000000 0.000000 0.000000 
0.000000 0.000000 0.000000 

-0.000000 0.000000 0.000000 
0.000000 0.000000 0.000000 
0.000000 0.000000 0.000000 

-0.000000 0.000000 0.000000 
0.000000 -0.000000 0.000000 
0.000000 0.000000 0.000000 

-0.000000 0.000000 0.000000 
0.000000 -0.000000 0.000000 
0.000000 0.000000 0.000000 

-0.000000 0.000000 0.000000 
0.000000 0.000000 0.000000 
0.000000 0.000000 0.000000 

-0.000000 0.000000 0.000000 
0.000000 -0.000000 0.000000 
0.000000 0.000000 0.000000 

-0.000000 -0.000000 0.000000 
0.000000 0.000000 0.000000 
0.000000 0.000000 0.000000 

-0.000000 -0.000000 0.000000 
0.000000 0.000000 0.000000 
0.000000 0.000000 0.000000 

0.000000 0.000000 0.000000 
0.000000 -0.000000 0.000000 
0.000000 0.000000 0.000000 

0.000000 0.000000 0.000000 
0.000000 0.000000 0.000000 
0.000000 0.000000 0.000000 

0.000000 0.000000 0.000000 
0.000000 -0.000000 0.000000 
0.000000 0.000000 0.000000 

0.000000 -0.000000 0.000000 
0.000000 -0.000000 0.000000 
0.000000 0.000000 0.000000 

0.000000 -0.000000 0.000000 
0.000000 0.000000 0.000000 
0.000000 0.000000 0.000000 

0.000000 0.000000 0.000000 
0.000000 -0.000000 0.000000 
0.000000 0.000000 0.000000 

0.000000 0.000000 0.000000 
0.000000 -0.000000 0.000000 
0.000000 0.000000 0.000000 

0.000000 -0.000000 0.000000 
0.000000 -0.000000 0.000000 
0.000000 0.000000 0.000000 

-0.000000 0.000000 0.000000 
0.000000 -0.000000 0.000000 
0.000000 0.000000 0.000000 

-0.000000 0.000000 0.000000 
0.000000 -0.000000 0.000000 
0.000000 0.000000 0.000000 

0.000000 0.000000 0.000000 
0.000000 -0.000000 0.000000 
0.000000 0.000000 0.000000 

0.000000 0.000000 0.000000 
0.000000 -0.000000 0.000000 
0.000000 0.000000 0.000000 

0.000000 0.000000 0.000000 
0.000000 -0.000000 0.000000 
0.000000 0.000000 0.000000 

0.000000 0.000000 0.000000 
0.000000 -0.000000 0.000000 
0.000000 0.000000 0.000000 

0.000000 -0.000000 0.000000 
0.000000 -0.000000 0.000000 
0.000000 0.000000 0.000000 

0.000000 -0.000000 0.000000 
0.000000 -0.000000 0.000000 
0.000000 0.000000 0.000000 

-0.000000 -0.000000 0.000000 
0.000000 -0.000000 0.000000 
0.000000 0.000000 0.000000 

-0.000000 -0.000000 0.000000 
0.000000 0.000000 0.000000 
0.000000 0.000000 0.000000 

-0.000000 -0.000000 0.000000 
0.000000 0.000000 0.000000 
0.000000 0.000000 0.000000 

-0.000000 -0.000000 0.000000 
0.000000 0.000000 0.000000 
0.000000 0.000000 0.000000 

-0.000000 -0.000000 0.000000 
0.000000 -0.000000 0.000000 
0.000000 0.000000 0.000000 

-0.000000 -0.000000 0.000000 
0.000000 0.000000 0.000000 
0.000000 0.000000 0.000000 

-0.000000 0.000000 0.000000 
0.000000 -0.000000 0.000000 
0.000000 0.000000 0.000000 

-0.000000 0.000000 0.000000 
0.000000 0.000000 0.000000 
0.000000 0.000000 0.000000 

0.000000 0.000000 0.000000 
0.000000 -0.000000 0.000000 
0.000000 0.000000 0.000000 

0.000000 0.000000 0.000000 
0.000000 -0.000000 0.000000 
0.000000 0.000000 0.000000 

0.000000 0.000000 0.000000 
0.000000 0.000000 0.000000 
0.000000 0.000000 0.000000 

-0.000000 0.000000 0.000000 
0.000000 0.000000 0.000000 
0.000000 0.000000 0.000000 

0.000000 0.000000 0.000000 
0.000000 0.000000 0.000000 
0.000000 0.000000 0.000000 

-0.000000 0.000000 0.000000 
0.000000 0.000000 0.000000 
0.000000 0.000000 0.000000 

0.000000 0.000000 0.000000 
0.000000 0.000000 0.000000 
0.000000 0.000000 0.000000 

0.000000 -0.000000 0.000000 
0.000000 -0.000000 0.000000 
0.000000 0.000000 0.000000 

0.000000 -0.000000 0.000000 
0.000000 -0.000000 0.000000 
0.000000 0.000000 0.000000 

0.000000 -0.000000 0.000000 
0.000000 -0.000000 0.000000 
0.000000 0.000000 0.000000 

0.000000 -0.000000 0.000000 
0.000000 -0.000000 0.000000 
0.000000 0.000000 0.000000 

-0.000000 0.000000 0.000000 
0.000000 0.000000 0.000000 
0.000000 0.000000 0.000000 

0.000000 0.000000 0.000000 
0.000000 0.000000 0.000000 
0.000000 0.000000 0.000000 

-0.000000 0.000000 0.000000 
0.000000 0.000000 0.000000 
0.000000 0.000000 0.000000 

0.000000 -0.000000 0.000000 
0.000000 -0.000000 0.000000 
0.000000 0.000000 0.000000 

0.000000 -0.000000 0.000000 
0.000000 -0.000000 0.000000 
0.000000 0.000000 0.000000 

0.000000 -0.000000 0.000000 
0.000000 -0.000000 0.000000 
0.000000 0.000000 0.000000 

-0.000000 -0.000000 0.000000 
0.000000 0.000000 0.000000 
0.000000 0.000000 0.000000 

-0.000000 -0.000000 0.000000 
0.000000 0.000000 0.000000 
0.000000 0.000000 0.000000 

-0.000000 0.000000 0.000000 
0.000000 -0.000000 0.000000 
0.000000 0.000000 0.000000 

-0.000000 -0.000000 0.000000 
0.000000 0.000000 0.000000 
0.000000 0.000000 0.000000 

0.000000 0.000000 0.000000 
0.000000 -0.000000 0.000000 
0.000000 0.000000 0.000000 

-0.000000 -0.000000 0.000000 
0.000000 0.000000 0.000000 
0.000000 0.000000 0.000000 

0.000000 -0.000000 0.000000 
0.000000 0.000000 0.000000 
0.000000 0.000000 0.000000 

0.000000 -0.000000 0.000000 
0.000000 0.000000 0.000000 
0.000000 0.000000 0.000000 

-0.000000 -0.000000 0.000000 
0.000000 0.000000 0.000000 
0.000000 0.000000 0.000000 

-0.000000 0.000000 0.000000 
0.000000 0.000000 0.000000 
0.000000 0.000000 0.000000 

-0.000000 0.000000 0.000000 
0.000000 0.000000 0.000000 
0.000000 0.000000 0.000000 

-0.000000 0.000000 0.000000 
0.000000 0.000000 0.000000 
0.000000 0.000000 0.000000 

-0.000000 0.000000 0.000000 
0.000000 0.000000 0.000000 
0.000000 0.000000 0.000000 

-0.000000 0.000000 0.000000 
0.000000 0.000000 0.000000 
0.000000 0.000000 0.000000 

-0.000000 -0.000000 0.000000 
0.000000 0.000000 0.000000 
0.000000 0.000000 0.000000 

0.000000 -0.000000 0.000000 
0.000000 -0.000000 0.000000 
0.000000 0.000000 0.000000 

-0.000000 -0.000000 0.000000 
0.000000 -0.000000 0.000000 
0.000000 0.000000 0.000000 

-0.000000 -0.000000 0.000000 
0.000000 0.000000 0.000000 
0.000000 0.000000 0.000000 

-0.000000 -0.000000 0.000000 
0.000000 0.000000 0.000000 
0.000000 0.000000 0.000000 

-0.000000 0.000000 0.000000 
0.000000 0.000000 0.000000 
0.000000 0.000000 0.000000 

-0.000000 0.000000 0.000000 
0.000000 -0.000000 0.000000 
0.000000 0.000000 0.000000 

-0.000000 0.000000 0.000000 
0.000000 0.000000 0.000000 
0.000000 0.000000 0.000000 

0.000000 0.000000 0.000000 
0.000000 -0.000000 0.000000 
0.000000 0.000000 0.000000 

0.000000 0.000000 0.000000 
0.000000 -0.000000 0.000000 
0.000000 0.000000 0.000000 

0.000000 -0.000000 0.000000 
0.000000 0.000000 0.000000 
0.000000 0.000000 0.000000 

-0.000000 -0.000000 0.000000 
0.000000 0.000000 0.000000 
0.000000 0.000000 0.000000 

-0.000000 0.000000 0.000000 
0.000000 0.000000 0.000000 
0.000000 0.000000 0.000000 

-0.000000 -0.000000 0.000000 
0.000000 0.000000 0.000000 
0.000000 0.000000 0.000000 

-0.000000 -0.000000 0.000000 
0.000000 0.000000 0.000000 
0.000000 0.000000 0.000000 

-0.000000 0.000000 0.000000 
0.000000 0.000000 0.000000 
0.000000 0.000000 0.000000 

-0.000000 0.000000 0.000000 
0.000000 0.000000 0.000000 
0.000000 0.000000 0.000000 

0.000000 0.000000 0.000000 
0.000000 -0.000000 0.000000 
0.000000 0.000000 0.000000 

-0.000000 -0.000000 0.000000 
0.000000 0.000000 0.000000 
0.000000 0.000000 0.000000 

0.000000 0.000000 0.000000 
0.000000 -0.000000 0.000000 
0.000000 0.000000 0.000000 

-0.000000 -0.000000 0.000000 
0.000000 0.000000 0.000000 
0.000000 0.000000 0.000000 

-0.000000 -0.000000 0.000000 
0.000000 -0.000000 0.000000 
0.000000 0.000000 0.000000 

0.000000 -0.000000 0.000000 
0.000000 0.000000 0.000000 
0.000000 0.000000 0.000000 

0.000000 0.000000 0.000000 
0.000000 0.000000 0.000000 
0.000000 0.000000 0.000000 

0.000000 0.000000 0.000000 
0.000000 0.000000 0.000000 
0.000000 0.000000 0.000000 

0.000000 0.000000 0.000000 
0.000000 -0.000000 0.000000 
0.000000 0.000000 0.000000 

0.000000 0.000000 0.000000 
0.000000 0.000000 0.000000 
0.000000 0.000000 0.000000 

-0.000000 0.000000 0.000000 
0.000000 0.000000 0.000000 
0.000000 0.000000 0.000000 

-0.000000 -0.000000 0.000000 
0.000000 0.000000 0.000000 
0.000000 0.000000 0.000000 

-0.000000 0.000000 0.000000 
0.000000 0.000000 0.000000 
0.000000 0.000000 0.000000 

-0.000000 0.000000 0.000000 
0.000000 0.000000 0.000000 
0.000000 0.000000 0.000000 

0.000000 -0.000000 0.000000 
0.000000 -0.000000 0.000000 
0.000000 0.000000 0.000000 

0.000000 0.000000 0.000000 
0.000000 -0.000000 0.000000 
0.000000 0.000000 0.000000 

0.000000 0.000000 0.000000 
0.000000 0.000000 0.000000 
0.000000 0.000000 0.000000 

0.000000 -0.000000 0.000000 
0.000000 0.000000 0.000000 
0.000000 0.000000 0.000000 

0.000000 -0.000000 0.000000 
0.000000 -0.000000 0.000000 
0.000000 0.000000 0.000000 

0.000000 0.000000 0.000000 
0.000000 0.000000 0.000000 
0.000000 0.000000 0.000000 

0.000000 0.000000 0.000000 
0.000000 -0.000000 0.000000 
0.000000 0.000000 0.000000 

0.000000 0.000000 0.000000 
0.000000 0.000000 0.000000 
0.000000 0.000000 0.000000 

-0.000000 -0.000000 0.000000 
0.000000 0.000000 0.000000 
0.000000 0.000000 0.000000 

-0.000000 0.000000 0.000000 
0.000000 0.000000 0.000000 
0.000000 0.000000 0.000000 

0.000000 -0.000000 0.000000 
0.000000 0.000000 0.000000 
0.000000 0.000000 0.000000 

-0.000000 -0.000000 0.000000 
0.000000 0.000000 0.000000 
0.000000 0.000000 0.000000 

-0.000000 0.000000 0.000000 
0.000000 0.000000 0.000000 
0.000000 0.000000 0.000000 

-0.000000 0.000000 0.000000 
0.000000 0.000000 0.000000 
0.000000 0.000000 0.000000 

-0.000000 0.000000 0.000000 
0.000000 -0.000000 0.000000 
0.000000 0.000000 0.000000 

-0.000000 0.000000 0.000000 
0.000000 0.000000 0.000000 
0.000000 0.000000 0.000000 

0.000000 0.000000 0.000000 
0.000000 -0.000000 0.000000 
0.000000 0.000000 0.000000 

-0.000000 -0.000000 0.000000 
0.000000 0.000000 0.000000 
0.000000 0.000000 0.000000 

-0.000000 -0.000000 0.000000 
0.000000 0.000000 0.000000 
0.000000 0.000000 0.000000 

-0.000000 -0.000000 0.000000 
0.000000 -0.000000 0.000000 
0.000000 0.000000 0.000000 

-0.000000 0.000000 0.000000 
0.000000 -0.000000 0.000000 
0.000000 0.000000 0.000000 

-0.000000 0.000000 0.000000 
0.000000 0.000000 0.000000 
0.000000 0.000000 0.000000 

-0.000000 0.000000 0.000000 
0.000000 -0.000000 0.000000 
0.000000 0.000000 0.000000 

0.000000 -0.000000 0.000000 
0.000000 -0.000000 0.000000 
0.000000 0.000000 0.000000 

0.000000 0.000000 0.000000 
0.000000 -0.000000 0.000000 
0.000000 0.000000 0.000000 

0.000000 0.000000 0.000000 
0.000000 -0.000000 0.000000 
0.000000 0.000000 0.000000 

0.000000 0.000000 0.000000 
0.000000 -0.000000 0.000000 
0.000000 0.000000 0.000000 

-0.000000 0.000000 0.000000 
0.000000 -0.000000 0.000000 
0.000000 0.000000 0.000000 

-0.000000 0.000000 0.000000 
0.000000 0.000000 0.000000 
0.000000 0.000000 0.000000 

-0.000000 0.000000 0.000000 
0.000000 0.000000 0.000000 
0.000000 0.000000 0.000000 

