# vtk DataFile Version 3.0 
vtk output 
ASCII 
DATASET UNSTRUCTURED_GRID 
POINTS 175 float 
-0.026061 0.031635 0.000000 
-0.106992 0.099691 0.000000 
-0.054870 0.091458 0.000000 
-0.028809 0.137342 0.000000 
-0.186430 0.163766 0.000000 
-0.137056 0.161240 0.000000 
-0.114311 0.214887 0.000000 
-0.058186 0.199222 0.000000 
-0.029377 0.239399 0.000000 
-0.265318 0.226922 0.000000 
-0.217198 0.226122 0.000000 
-0.196633 0.283419 0.000000 
-0.143120 0.274710 0.000000 
-0.116563 0.321979 0.000000 
-0.058945 0.302333 0.000000 
-0.029568 0.340453 0.000000 
-0.344206 0.290078 0.000000 
-0.296791 0.290085 0.000000 
-0.278030 0.350028 0.000000 
-0.225992 0.344161 0.000000 
-0.201664 0.396279 0.000000 
-0.145749 0.382805 0.000000 
-0.117890 0.427147 0.000000 
-0.059328 0.404441 0.000000 
-0.029759 0.441507 0.000000 
-0.058559 -0.009115 0.000000 
-0.162226 -0.029958 0.000000 
-0.123292 0.005660 0.000000 
-0.142917 0.054643 0.000000 
-0.261851 -0.052114 0.000000 
-0.229092 -0.015087 0.000000 
-0.256854 0.036144 0.000000 
-0.209613 0.070257 0.000000 
-0.223062 0.117831 0.000000 
-0.360414 -0.074415 0.000000 
-0.329787 -0.037292 0.000000 
-0.361761 0.014510 0.000000 
-0.321587 0.050919 0.000000 
-0.341985 0.101153 0.000000 
-0.290702 0.133952 0.000000 
-0.302189 0.180687 0.000000 
-0.458977 -0.096715 0.000000 
-0.429420 -0.059640 0.000000 
-0.464588 -0.007598 0.000000 
-0.427556 0.029429 0.000000 
-0.453135 0.080944 0.000000 
-0.407738 0.116259 0.000000 
-0.425037 0.165687 0.000000 
-0.370772 0.197317 0.000000 
-0.381315 0.243544 0.000000 
-0.046960 -0.059931 0.000000 
-0.095301 -0.153977 0.000000 
-0.098873 -0.101329 0.000000 
-0.149405 -0.086132 0.000000 
-0.140093 -0.245681 0.000000 
-0.148617 -0.196982 0.000000 
-0.205981 -0.186745 0.000000 
-0.203197 -0.128542 0.000000 
-0.248777 -0.109395 0.000000 
-0.184111 -0.336644 0.000000 
-0.194039 -0.289553 0.000000 
-0.254475 -0.282253 0.000000 
-0.257893 -0.228144 0.000000 
-0.309886 -0.212771 0.000000 
-0.303554 -0.152226 0.000000 
-0.347255 -0.132068 0.000000 
-0.228129 -0.427608 0.000000 
-0.238687 -0.381383 0.000000 
-0.301302 -0.376431 0.000000 
-0.307162 -0.324393 0.000000 
-0.363386 -0.312272 0.000000 
-0.362692 -0.254760 0.000000 
-0.412122 -0.237467 0.000000 
-0.403017 -0.175320 0.000000 
-0.445733 -0.154741 0.000000 
-0.000000 -0.082546 0.000000 
0.043388 -0.178976 0.000000 
-0.000000 -0.148944 0.000000 
-0.043388 -0.178976 0.000000 
0.087158 -0.271173 0.000000 
0.043769 -0.247474 0.000000 
-0.000000 -0.285940 0.000000 
-0.043769 -0.247474 0.000000 
-0.087158 -0.271173 0.000000 
0.130831 -0.362302 0.000000 
0.087824 -0.340704 0.000000 
0.044436 -0.383403 0.000000 
-0.000000 -0.352338 0.000000 
-0.044436 -0.383403 0.000000 
-0.087824 -0.340704 0.000000 
-0.130831 -0.362302 0.000000 
0.174505 -0.453432 0.000000 
0.131782 -0.432866 0.000000 
0.088871 -0.478733 0.000000 
0.044532 -0.450869 0.000000 
-0.000000 -0.487269 0.000000 
-0.044532 -0.450869 0.000000 
-0.088871 -0.478733 0.000000 
-0.131782 -0.432866 0.000000 
-0.174505 -0.453432 0.000000 
0.046960 -0.059931 0.000000 
0.149405 -0.086132 0.000000 
0.098873 -0.101329 0.000000 
0.095301 -0.153977 0.000000 
0.248777 -0.109395 0.000000 
0.203197 -0.128542 0.000000 
0.205981 -0.186745 0.000000 
0.148617 -0.196982 0.000000 
0.140093 -0.245681 0.000000 
0.347255 -0.132068 0.000000 
0.303554 -0.152226 0.000000 
0.309886 -0.212771 0.000000 
0.257893 -0.228144 0.000000 
0.254475 -0.282253 0.000000 
0.194039 -0.289553 0.000000 
0.184111 -0.336644 0.000000 
0.445733 -0.154741 0.000000 
0.403017 -0.175320 0.000000 
0.412122 -0.237467 0.000000 
0.362692 -0.254760 0.000000 
0.363386 -0.312272 0.000000 
0.307162 -0.324393 0.000000 
0.301302 -0.376431 0.000000 
0.238687 -0.381383 0.000000 
0.228129 -0.427608 0.000000 
0.058559 -0.009115 0.000000 
0.142917 0.054643 0.000000 
0.123292 0.005660 0.000000 
0.162226 -0.029958 0.000000 
0.223062 0.117831 0.000000 
0.209613 0.070257 0.000000 
0.256854 0.036144 0.000000 
0.229092 -0.015087 0.000000 
0.261851 -0.052114 0.000000 
0.302189 0.180687 0.000000 
0.290702 0.133952 0.000000 
0.341985 0.101153 0.000000 
0.321587 0.050919 0.000000 
0.361761 0.014510 0.000000 
0.329787 -0.037292 0.000000 
0.360414 -0.074415 0.000000 
0.381315 0.243544 0.000000 
0.370772 0.197317 0.000000 
0.425037 0.165687 0.000000 
0.407738 0.116259 0.000000 
0.453135 0.080944 0.000000 
0.427556 0.029429 0.000000 
0.464588 -0.007598 0.000000 
0.429420 -0.059640 0.000000 
0.458977 -0.096715 0.000000 
0.026061 0.031635 0.000000 
0.028809 0.137342 0.000000 
0.054870 0.091458 0.000000 
0.106992 0.099691 0.000000 
0.029377 0.239399 0.000000 
0.058186 0.199222 0.000000 
0.114311 0.214887 0.000000 
0.137056 0.161240 0.000000 
0.186430 0.163766 0.000000 
0.029568 0.340453 0.000000 
0.058945 0.302333 0.000000 
0.116563 0.321979 0.000000 
0.143120 0.274710 0.000000 
0.196633 0.283419 0.000000 
0.217198 0.226122 0.000000 
0.265318 0.226922 0.000000 
0.029759 0.441507 0.000000 
0.059328 0.404441 0.000000 
0.117890 0.427147 0.000000 
0.145749 0.382805 0.000000 
0.201664 0.396279 0.000000 
0.225992 0.344161 0.000000 
0.278030 0.350028 0.000000 
0.296791 0.290085 0.000000 
0.344206 0.290078 0.000000 
CELLS 175 350 
1 0 
1 1 
1 2 
1 3 
1 4 
1 5 
1 6 
1 7 
1 8 
1 9 
1 10 
1 11 
1 12 
1 13 
1 14 
1 15 
1 16 
1 17 
1 18 
1 19 
1 20 
1 21 
1 22 
1 23 
1 24 
1 25 
1 26 
1 27 
1 28 
1 29 
1 30 
1 31 
1 32 
1 33 
1 34 
1 35 
1 36 
1 37 
1 38 
1 39 
1 40 
1 41 
1 42 
1 43 
1 44 
1 45 
1 46 
1 47 
1 48 
1 49 
1 50 
1 51 
1 52 
1 53 
1 54 
1 55 
1 56 
1 57 
1 58 
1 59 
1 60 
1 61 
1 62 
1 63 
1 64 
1 65 
1 66 
1 67 
1 68 
1 69 
1 70 
1 71 
1 72 
1 73 
1 74 
1 75 
1 76 
1 77 
1 78 
1 79 
1 80 
1 81 
1 82 
1 83 
1 84 
1 85 
1 86 
1 87 
1 88 
1 89 
1 90 
1 91 
1 92 
1 93 
1 94 
1 95 
1 96 
1 97 
1 98 
1 99 
1 100 
1 101 
1 102 
1 103 
1 104 
1 105 
1 106 
1 107 
1 108 
1 109 
1 110 
1 111 
1 112 
1 113 
1 114 
1 115 
1 116 
1 117 
1 118 
1 119 
1 120 
1 121 
1 122 
1 123 
1 124 
1 125 
1 126 
1 127 
1 128 
1 129 
1 130 
1 131 
1 132 
1 133 
1 134 
1 135 
1 136 
1 137 
1 138 
1 139 
1 140 
1 141 
1 142 
1 143 
1 144 
1 145 
1 146 
1 147 
1 148 
1 149 
1 150 
1 151 
1 152 
1 153 
1 154 
1 155 
1 156 
1 157 
1 158 
1 159 
1 160 
1 161 
1 162 
1 163 
1 164 
1 165 
1 166 
1 167 
1 168 
1 169 
1 170 
1 171 
1 172 
1 173 
1 174 
CELL_TYPES 175 
1 
1 
1 
1 
1 
1 
1 
1 
1 
1 
1 
1 
1 
1 
1 
1 
1 
1 
1 
1 
1 
1 
1 
1 
1 
1 
1 
1 
1 
1 
1 
1 
1 
1 
1 
1 
1 
1 
1 
1 
1 
1 
1 
1 
1 
1 
1 
1 
1 
1 
1 
1 
1 
1 
1 
1 
1 
1 
1 
1 
1 
1 
1 
1 
1 
1 
1 
1 
1 
1 
1 
1 
1 
1 
1 
1 
1 
1 
1 
1 
1 
1 
1 
1 
1 
1 
1 
1 
1 
1 
1 
1 
1 
1 
1 
1 
1 
1 
1 
1 
1 
1 
1 
1 
1 
1 
1 
1 
1 
1 
1 
1 
1 
1 
1 
1 
1 
1 
1 
1 
1 
1 
1 
1 
1 
1 
1 
1 
1 
1 
1 
1 
1 
1 
1 
1 
1 
1 
1 
1 
1 
1 
1 
1 
1 
1 
1 
1 
1 
1 
1 
1 
1 
1 
1 
1 
1 
1 
1 
1 
1 
1 
1 
1 
1 
1 
1 
1 
1 
1 
1 
1 
1 
1 
1 
POINT_DATA 175 
VECTORS X_GC float 
-0.026061 0.031635 0.000000 
-0.106992 0.099691 0.000000 
-0.054870 0.091458 0.000000 
-0.028809 0.137342 0.000000 
-0.186430 0.163766 0.000000 
-0.137056 0.161240 0.000000 
-0.114311 0.214887 0.000000 
-0.058186 0.199222 0.000000 
-0.029377 0.239399 0.000000 
-0.265318 0.226922 0.000000 
-0.217198 0.226122 0.000000 
-0.196633 0.283419 0.000000 
-0.143120 0.274710 0.000000 
-0.116563 0.321979 0.000000 
-0.058945 0.302333 0.000000 
-0.029568 0.340453 0.000000 
-0.344206 0.290078 0.000000 
-0.296791 0.290085 0.000000 
-0.278030 0.350028 0.000000 
-0.225992 0.344161 0.000000 
-0.201664 0.396279 0.000000 
-0.145749 0.382805 0.000000 
-0.117890 0.427147 0.000000 
-0.059328 0.404441 0.000000 
-0.029759 0.441507 0.000000 
-0.058559 -0.009115 0.000000 
-0.162226 -0.029958 0.000000 
-0.123292 0.005660 0.000000 
-0.142917 0.054643 0.000000 
-0.261851 -0.052114 0.000000 
-0.229092 -0.015087 0.000000 
-0.256854 0.036144 0.000000 
-0.209613 0.070257 0.000000 
-0.223062 0.117831 0.000000 
-0.360414 -0.074415 0.000000 
-0.329787 -0.037292 0.000000 
-0.361761 0.014510 0.000000 
-0.321587 0.050919 0.000000 
-0.341985 0.101153 0.000000 
-0.290702 0.133952 0.000000 
-0.302189 0.180687 0.000000 
-0.458977 -0.096715 0.000000 
-0.429420 -0.059640 0.000000 
-0.464588 -0.007598 0.000000 
-0.427556 0.029429 0.000000 
-0.453135 0.080944 0.000000 
-0.407738 0.116259 0.000000 
-0.425037 0.165687 0.000000 
-0.370772 0.197317 0.000000 
-0.381315 0.243544 0.000000 
-0.046960 -0.059931 0.000000 
-0.095301 -0.153977 0.000000 
-0.098873 -0.101329 0.000000 
-0.149405 -0.086132 0.000000 
-0.140093 -0.245681 0.000000 
-0.148617 -0.196982 0.000000 
-0.205981 -0.186745 0.000000 
-0.203197 -0.128542 0.000000 
-0.248777 -0.109395 0.000000 
-0.184111 -0.336644 0.000000 
-0.194039 -0.289553 0.000000 
-0.254475 -0.282253 0.000000 
-0.257893 -0.228144 0.000000 
-0.309886 -0.212771 0.000000 
-0.303554 -0.152226 0.000000 
-0.347255 -0.132068 0.000000 
-0.228129 -0.427608 0.000000 
-0.238687 -0.381383 0.000000 
-0.301302 -0.376431 0.000000 
-0.307162 -0.324393 0.000000 
-0.363386 -0.312272 0.000000 
-0.362692 -0.254760 0.000000 
-0.412122 -0.237467 0.000000 
-0.403017 -0.175320 0.000000 
-0.445733 -0.154741 0.000000 
-0.000000 -0.082546 0.000000 
0.043388 -0.178976 0.000000 
-0.000000 -0.148944 0.000000 
-0.043388 -0.178976 0.000000 
0.087158 -0.271173 0.000000 
0.043769 -0.247474 0.000000 
-0.000000 -0.285940 0.000000 
-0.043769 -0.247474 0.000000 
-0.087158 -0.271173 0.000000 
0.130831 -0.362302 0.000000 
0.087824 -0.340704 0.000000 
0.044436 -0.383403 0.000000 
-0.000000 -0.352338 0.000000 
-0.044436 -0.383403 0.000000 
-0.087824 -0.340704 0.000000 
-0.130831 -0.362302 0.000000 
0.174505 -0.453432 0.000000 
0.131782 -0.432866 0.000000 
0.088871 -0.478733 0.000000 
0.044532 -0.450869 0.000000 
-0.000000 -0.487269 0.000000 
-0.044532 -0.450869 0.000000 
-0.088871 -0.478733 0.000000 
-0.131782 -0.432866 0.000000 
-0.174505 -0.453432 0.000000 
0.046960 -0.059931 0.000000 
0.149405 -0.086132 0.000000 
0.098873 -0.101329 0.000000 
0.095301 -0.153977 0.000000 
0.248777 -0.109395 0.000000 
0.203197 -0.128542 0.000000 
0.205981 -0.186745 0.000000 
0.148617 -0.196982 0.000000 
0.140093 -0.245681 0.000000 
0.347255 -0.132068 0.000000 
0.303554 -0.152226 0.000000 
0.309886 -0.212771 0.000000 
0.257893 -0.228144 0.000000 
0.254475 -0.282253 0.000000 
0.194039 -0.289553 0.000000 
0.184111 -0.336644 0.000000 
0.445733 -0.154741 0.000000 
0.403017 -0.175320 0.000000 
0.412122 -0.237467 0.000000 
0.362692 -0.254760 0.000000 
0.363386 -0.312272 0.000000 
0.307162 -0.324393 0.000000 
0.301302 -0.376431 0.000000 
0.238687 -0.381383 0.000000 
0.228129 -0.427608 0.000000 
0.058559 -0.009115 0.000000 
0.142917 0.054643 0.000000 
0.123292 0.005660 0.000000 
0.162226 -0.029958 0.000000 
0.223062 0.117831 0.000000 
0.209613 0.070257 0.000000 
0.256854 0.036144 0.000000 
0.229092 -0.015087 0.000000 
0.261851 -0.052114 0.000000 
0.302189 0.180687 0.000000 
0.290702 0.133952 0.000000 
0.341985 0.101153 0.000000 
0.321587 0.050919 0.000000 
0.361761 0.014510 0.000000 
0.329787 -0.037292 0.000000 
0.360414 -0.074415 0.000000 
0.381315 0.243544 0.000000 
0.370772 0.197317 0.000000 
0.425037 0.165687 0.000000 
0.407738 0.116259 0.000000 
0.453135 0.080944 0.000000 
0.427556 0.029429 0.000000 
0.464588 -0.007598 0.000000 
0.429420 -0.059640 0.000000 
0.458977 -0.096715 0.000000 
0.026061 0.031635 0.000000 
0.028809 0.137342 0.000000 
0.054870 0.091458 0.000000 
0.106992 0.099691 0.000000 
0.029377 0.239399 0.000000 
0.058186 0.199222 0.000000 
0.114311 0.214887 0.000000 
0.137056 0.161240 0.000000 
0.186430 0.163766 0.000000 
0.029568 0.340453 0.000000 
0.058945 0.302333 0.000000 
0.116563 0.321979 0.000000 
0.143120 0.274710 0.000000 
0.196633 0.283419 0.000000 
0.217198 0.226122 0.000000 
0.265318 0.226922 0.000000 
0.029759 0.441507 0.000000 
0.059328 0.404441 0.000000 
0.117890 0.427147 0.000000 
0.145749 0.382805 0.000000 
0.201664 0.396279 0.000000 
0.225992 0.344161 0.000000 
0.278030 0.350028 0.000000 
0.296791 0.290085 0.000000 
0.344206 0.290078 0.000000 
VECTORS X_EC float 
0.338794 0.072923 0.000000 
-0.609100 -0.845826 0.000000 
0.713312 -0.734685 0.000000 
0.374519 0.645886 0.000000 
0.423588 0.289155 0.000000 
-0.218274 0.323259 0.000000 
-0.513962 -0.400980 0.000000 
0.756418 -0.189494 0.000000 
0.381900 -0.731886 0.000000 
-0.550868 -0.563448 0.000000 
0.823577 -0.552652 0.000000 
0.556234 0.673844 0.000000 
-0.139443 0.791412 0.000000 
-0.484677 0.153288 0.000000 
0.766286 0.418503 0.000000 
0.384386 -0.096117 0.000000 
0.474677 0.583949 0.000000 
-0.141715 0.583852 0.000000 
-0.385608 -0.225376 0.000000 
0.937896 -0.146180 0.000000 
0.621631 -0.849760 0.000000 
-0.105264 -0.667861 0.000000 
-0.467428 0.733513 0.000000 
0.771260 -0.959959 0.000000 
0.386873 0.539652 0.000000 
0.761262 0.623057 0.000000 
0.108942 0.904434 0.000000 
-0.397202 0.423595 0.000000 
-0.142083 -0.237681 0.000000 
-0.595936 -0.796455 0.000000 
0.978194 0.703679 0.000000 
-0.660903 0.012054 0.000000 
0.724964 -0.448466 0.000000 
0.899809 0.909285 0.000000 
0.685384 -0.495403 0.000000 
0.287229 -0.996562 0.000000 
0.702895 0.304110 0.000000 
0.180633 -0.187409 0.000000 
0.445811 -0.865568 0.000000 
-0.220880 0.691646 0.000000 
-0.071546 0.060720 0.000000 
-0.033296 -0.194351 0.000000 
-0.417537 -0.694861 0.000000 
0.039645 0.602577 0.000000 
-0.441768 0.102706 0.000000 
-0.109248 -0.592745 0.000000 
-0.699407 0.930500 0.000000 
-0.474522 0.263220 0.000000 
0.820030 -0.163773 0.000000 
0.957100 -0.787845 0.000000 
0.610485 -0.690936 0.000000 
-0.761092 0.578683 0.000000 
-0.714655 -0.132054 0.000000 
-0.057734 -0.337222 0.000000 
-0.178789 -0.183313 0.000000 
-0.067979 -0.840739 0.000000 
0.677748 -0.978942 0.000000 
0.641556 0.235313 0.000000 
-0.765897 -0.023166 0.000000 
0.393446 -0.955304 0.000000 
0.522510 0.408966 0.000000 
-0.691820 0.310422 0.000000 
-0.647393 -0.420060 0.000000 
0.028512 -0.627587 0.000000 
-0.053800 0.555053 0.000000 
0.514316 0.282922 0.000000 
0.965681 0.272706 0.000000 
-0.897068 -0.351323 0.000000 
-0.083078 -0.418176 0.000000 
-0.006893 0.879299 0.000000 
0.724017 0.715666 0.000000 
0.714996 -0.060737 0.000000 
-0.642413 -0.294195 0.000000 
-0.760780 0.866825 0.000000 
-0.205471 0.589009 0.000000 
0.000000 -0.385635 0.000000 
-0.564049 0.916178 0.000000 
0.000000 0.510742 0.000000 
0.564049 0.916178 0.000000 
0.866949 0.160833 0.000000 
-0.569003 -0.159098 0.000000 
0.000000 0.360191 0.000000 
0.569003 -0.159098 0.000000 
-0.866949 0.160833 0.000000 
0.299194 -0.608916 0.000000 
0.858290 -0.900500 0.000000 
-0.577662 -0.324054 0.000000 
0.000000 -0.743433 0.000000 
0.577662 -0.324054 0.000000 
-0.858290 -0.900500 0.000000 
-0.299194 -0.608916 0.000000 
-0.268560 0.621334 0.000000 
0.286830 0.343692 0.000000 
0.844677 0.962890 0.000000 
-0.578910 0.586728 0.000000 
0.000000 -0.921869 0.000000 
0.578910 0.586728 0.000000 
-0.844677 0.962890 0.000000 
-0.286830 0.343692 0.000000 
0.268560 0.621334 0.000000 
-0.610485 -0.690936 0.000000 
0.057734 -0.337222 0.000000 
0.714655 -0.132054 0.000000 
0.761092 0.578683 0.000000 
0.765897 -0.023166 0.000000 
-0.641556 0.235313 0.000000 
-0.677748 -0.978942 0.000000 
0.067979 -0.840739 0.000000 
0.178789 -0.183313 0.000000 
-0.514316 0.282922 0.000000 
0.053800 0.555053 0.000000 
-0.028512 -0.627587 0.000000 
0.647393 -0.420060 0.000000 
0.691820 0.310422 0.000000 
-0.522510 0.408966 0.000000 
-0.393446 -0.955304 0.000000 
0.205471 0.589009 0.000000 
0.760780 0.866825 0.000000 
0.642413 -0.294195 0.000000 
-0.714996 -0.060737 0.000000 
-0.724017 0.715666 0.000000 
0.006894 0.879299 0.000000 
0.083078 -0.418176 0.000000 
0.897068 -0.351323 0.000000 
-0.965681 0.272706 0.000000 
-0.761262 0.623057 0.000000 
0.142083 -0.237681 0.000000 
0.397202 0.423595 0.000000 
-0.108942 0.904434 0.000000 
-0.899809 0.909285 0.000000 
-0.724964 -0.448466 0.000000 
0.660903 0.012054 0.000000 
-0.978194 0.703679 0.000000 
0.595936 -0.796455 0.000000 
0.071546 0.060720 0.000000 
0.220880 0.691646 0.000000 
-0.445811 -0.865568 0.000000 
-0.180633 -0.187409 0.000000 
-0.702895 0.304110 0.000000 
-0.287229 -0.996562 0.000000 
-0.685384 -0.495403 0.000000 
-0.957100 -0.787845 0.000000 
-0.820030 -0.163773 0.000000 
0.474522 0.263220 0.000000 
0.699407 0.930500 0.000000 
0.109248 -0.592745 0.000000 
0.441768 0.102706 0.000000 
-0.039645 0.602577 0.000000 
0.417537 -0.694861 0.000000 
0.033296 -0.194351 0.000000 
-0.338794 0.072923 0.000000 
-0.374519 0.645886 0.000000 
-0.713312 -0.734685 0.000000 
0.609100 -0.845826 0.000000 
-0.381900 -0.731886 0.000000 
-0.756418 -0.189494 0.000000 
0.513962 -0.400980 0.000000 
0.218274 0.323259 0.000000 
-0.423588 0.289155 0.000000 
-0.384386 -0.096117 0.000000 
-0.766286 0.418503 0.000000 
0.484677 0.153288 0.000000 
0.139443 0.791412 0.000000 
-0.556234 0.673844 0.000000 
-0.823577 -0.552652 0.000000 
0.550868 -0.563448 0.000000 
-0.386873 0.539652 0.000000 
-0.771260 -0.959959 0.000000 
0.467428 0.733513 0.000000 
0.105264 -0.667861 0.000000 
-0.621631 -0.849760 0.000000 
-0.937896 -0.146180 0.000000 
0.385608 -0.225376 0.000000 
0.141715 0.583852 0.000000 
-0.474677 0.583949 0.000000 
CELL_DATA 175 
SCALARS MASS float 
LOOKUP_TABLE default 
0.781831 
0.864274 
0.946717 
0.864274 
0.881307 
0.921110 
0.858535 
0.921110 
0.881307 
0.887046 
0.910001 
0.869829 
0.915556 
0.869829 
0.910001 
0.887046 
0.892784 
0.915740 
0.892784 
0.927218 
0.892784 
0.927218 
0.892784 
0.915740 
0.892784 
0.781831 
0.864274 
0.946717 
0.864274 
0.881307 
0.921110 
0.858535 
0.921110 
0.881307 
0.887046 
0.910001 
0.869829 
0.915556 
0.869829 
0.910001 
0.887046 
0.892784 
0.915740 
0.892784 
0.927218 
0.892784 
0.927218 
0.892784 
0.915740 
0.892784 
0.781831 
0.864274 
0.946717 
0.864274 
0.881307 
0.921110 
0.858535 
0.921110 
0.881307 
0.887046 
0.910001 
0.869829 
0.915556 
0.869829 
0.910001 
0.887046 
0.892784 
0.915740 
0.892784 
0.927218 
0.892784 
0.927218 
0.892784 
0.915740 
0.892784 
0.781831 
0.864274 
0.946717 
0.864274 
0.881307 
0.921110 
0.858535 
0.921110 
0.881307 
0.887046 
0.910001 
0.869829 
0.915556 
0.869829 
0.910001 
0.887046 
0.892784 
0.915740 
0.892784 
0.927218 
0.892784 
0.927218 
0.892784 
0.915740 
0.892784 
0.781831 
0.864274 
0.946717 
0.864274 
0.881307 
0.921110 
0.858535 
0.921110 
0.881307 
0.887046 
0.910001 
0.869829 
0.915556 
0.869829 
0.910001 
0.887046 
0.892784 
0.915740 
0.892784 
0.927218 
0.892784 
0.927218 
0.892784 
0.915740 
0.892784 
0.781831 
0.864274 
0.946717 
0.864274 
0.881307 
0.921110 
0.858535 
0.921110 
0.881307 
0.887046 
0.910001 
0.869829 
0.915556 
0.869829 
0.910001 
0.887046 
0.892784 
0.915740 
0.892784 
0.927218 
0.892784 
0.927218 
0.892784 
0.915740 
0.892784 
0.781831 
0.864274 
0.946717 
0.864274 
0.881307 
0.921110 
0.858535 
0.921110 
0.881307 
0.887046 
0.910001 
0.869829 
0.915556 
0.869829 
0.910001 
0.887046 
0.892784 
0.915740 
0.892784 
0.927218 
0.892784 
0.927218 
0.892784 
0.915740 
0.892784 
SCALARS MASS float 
LOOKUP_TABLE default 
0.781831 
0.864274 
0.946717 
0.864274 
0.881307 
0.921110 
0.858535 
0.921110 
0.881307 
0.887046 
0.910001 
0.869829 
0.915556 
0.869829 
0.910001 
0.887046 
0.892784 
0.915740 
0.892784 
0.927218 
0.892784 
0.927218 
0.892784 
0.915740 
0.892784 
0.781831 
0.864274 
0.946717 
0.864274 
0.881307 
0.921110 
0.858535 
0.921110 
0.881307 
0.887046 
0.910001 
0.869829 
0.915556 
0.869829 
0.910001 
0.887046 
0.892784 
0.915740 
0.892784 
0.927218 
0.892784 
0.927218 
0.892784 
0.915740 
0.892784 
0.781831 
0.864274 
0.946717 
0.864274 
0.881307 
0.921110 
0.858535 
0.921110 
0.881307 
0.887046 
0.910001 
0.869829 
0.915556 
0.869829 
0.910001 
0.887046 
0.892784 
0.915740 
0.892784 
0.927218 
0.892784 
0.927218 
0.892784 
0.915740 
0.892784 
0.781831 
0.864274 
0.946717 
0.864274 
0.881307 
0.921110 
0.858535 
0.921110 
0.881307 
0.887046 
0.910001 
0.869829 
0.915556 
0.869829 
0.910001 
0.887046 
0.892784 
0.915740 
0.892784 
0.927218 
0.892784 
0.927218 
0.892784 
0.915740 
0.892784 
0.781831 
0.864274 
0.946717 
0.864274 
0.881307 
0.921110 
0.858535 
0.921110 
0.881307 
0.887046 
0.910001 
0.869829 
0.915556 
0.869829 
0.910001 
0.887046 
0.892784 
0.915740 
0.892784 
0.927218 
0.892784 
0.927218 
0.892784 
0.915740 
0.892784 
0.781831 
0.864274 
0.946717 
0.864274 
0.881307 
0.921110 
0.858535 
0.921110 
0.881307 
0.887046 
0.910001 
0.869829 
0.915556 
0.869829 
0.910001 
0.887046 
0.892784 
0.915740 
0.892784 
0.927218 
0.892784 
0.927218 
0.892784 
0.915740 
0.892784 
0.781831 
0.864274 
0.946717 
0.864274 
0.881307 
0.921110 
0.858535 
0.921110 
0.881307 
0.887046 
0.910001 
0.869829 
0.915556 
0.869829 
0.910001 
0.887046 
0.892784 
0.915740 
0.892784 
0.927218 
0.892784 
0.927218 
0.892784 
0.915740 
0.892784 
SCALARS DENSITY float 
LOOKUP_TABLE default 
200.000000 
200.000000 
200.000000 
200.000000 
200.000000 
200.000000 
200.000000 
200.000000 
200.000000 
200.000000 
200.000000 
200.000000 
200.000000 
200.000000 
200.000000 
200.000000 
200.000000 
200.000000 
200.000000 
200.000000 
200.000000 
200.000000 
200.000000 
200.000000 
200.000000 
200.000000 
200.000000 
200.000000 
200.000000 
200.000000 
200.000000 
200.000000 
200.000000 
200.000000 
200.000000 
200.000000 
200.000000 
200.000000 
200.000000 
200.000000 
200.000000 
200.000000 
200.000000 
200.000000 
200.000000 
200.000000 
200.000000 
200.000000 
200.000000 
200.000000 
200.000000 
200.000000 
200.000000 
200.000000 
200.000000 
200.000000 
200.000000 
200.000000 
200.000000 
200.000000 
200.000000 
200.000000 
200.000000 
200.000000 
200.000000 
200.000000 
200.000000 
200.000000 
200.000000 
200.000000 
200.000000 
200.000000 
200.000000 
200.000000 
200.000000 
200.000000 
200.000000 
200.000000 
200.000000 
200.000000 
200.000000 
200.000000 
200.000000 
200.000000 
200.000000 
200.000000 
200.000000 
200.000000 
200.000000 
200.000000 
200.000000 
200.000000 
200.000000 
200.000000 
200.000000 
200.000000 
200.000000 
200.000000 
200.000000 
200.000000 
200.000000 
200.000000 
200.000000 
200.000000 
200.000000 
200.000000 
200.000000 
200.000000 
200.000000 
200.000000 
200.000000 
200.000000 
200.000000 
200.000000 
200.000000 
200.000000 
200.000000 
200.000000 
200.000000 
200.000000 
200.000000 
200.000000 
200.000000 
200.000000 
200.000000 
200.000000 
200.000000 
200.000000 
200.000000 
200.000000 
200.000000 
200.000000 
200.000000 
200.000000 
200.000000 
200.000000 
200.000000 
200.000000 
200.000000 
200.000000 
200.000000 
200.000000 
200.000000 
200.000000 
200.000000 
200.000000 
200.000000 
200.000000 
200.000000 
200.000000 
200.000000 
200.000000 
200.000000 
200.000000 
200.000000 
200.000000 
200.000000 
200.000000 
200.000000 
200.000000 
200.000000 
200.000000 
200.000000 
200.000000 
200.000000 
200.000000 
200.000000 
200.000000 
200.000000 
200.000000 
200.000000 
200.000000 
200.000000 
200.000000 
200.000000 
SCALARS ELEM_i float 
LOOKUP_TABLE default 
182 
209 
182 
183 
210 
210 
210 
183 
183 
237 
210 
211 
211 
211 
184 
184 
238 
238 
238 
211 
211 
211 
212 
184 
185 
182 
209 
209 
209 
235 
209 
236 
209 
210 
235 
235 
236 
236 
236 
237 
237 
262 
262 
263 
263 
263 
264 
264 
237 
237 
181 
208 
208 
208 
207 
207 
207 
208 
235 
206 
207 
234 
234 
234 
235 
235 
206 
233 
233 
234 
234 
234 
261 
262 
262 
181 
181 
181 
181 
153 
180 
180 
180 
207 
152 
152 
179 
179 
179 
206 
206 
152 
152 
152 
179 
178 
179 
206 
206 
206 
181 
154 
154 
154 
127 
154 
153 
153 
153 
127 
127 
126 
126 
126 
153 
152 
100 
100 
99 
126 
126 
126 
125 
125 
152 
182 
155 
155 
155 
156 
155 
128 
155 
127 
129 
129 
128 
128 
128 
127 
127 
129 
129 
102 
102 
101 
101 
101 
100 
100 
182 
183 
182 
155 
183 
183 
156 
156 
156 
184 
184 
157 
157 
157 
156 
129 
185 
184 
158 
157 
157 
157 
130 
130 
130 
VECTORS VELOCITY float 
-0.000000 -0.663156 0.000000 
-0.000000 -0.663156 0.000000 
0.000000 -0.663156 0.000000 
-0.000000 -0.663156 0.000000 
-0.000000 -0.663156 0.000000 
-0.000000 -0.663156 0.000000 
-0.000000 -0.663156 0.000000 
-0.000000 -0.663156 0.000000 
-0.000000 -0.663156 0.000000 
-0.000000 -0.663156 0.000000 
-0.000000 -0.663156 0.000000 
-0.000000 -0.663156 0.000000 
-0.000000 -0.663156 0.000000 
0.000000 -0.663156 0.000000 
-0.000000 -0.663156 0.000000 
0.000000 -0.663156 0.000000 
-0.000000 -0.663156 0.000000 
-0.000000 -0.663156 0.000000 
-0.000000 -0.663156 0.000000 
0.000000 -0.663156 0.000000 
0.000000 -0.663156 0.000000 
0.000000 -0.663156 0.000000 
0.000000 -0.663156 0.000000 
0.000000 -0.663156 0.000000 
0.000000 -0.663156 0.000000 
-0.000000 -0.663156 0.000000 
-0.000000 -0.663156 0.000000 
-0.000000 -0.663156 0.000000 
-0.000000 -0.663156 0.000000 
-0.000000 -0.663156 0.000000 
-0.000000 -0.663156 0.000000 
-0.000000 -0.663156 0.000000 
-0.000000 -0.663156 0.000000 
-0.000000 -0.663156 0.000000 
-0.000000 -0.663156 0.000000 
-0.000000 -0.663156 0.000000 
-0.000000 -0.663156 0.000000 
-0.000000 -0.663156 0.000000 
-0.000000 -0.663156 0.000000 
-0.000000 -0.663156 0.000000 
-0.000000 -0.663156 0.000000 
-0.000000 -0.663156 0.000000 
-0.000000 -0.663156 0.000000 
-0.000000 -0.663156 0.000000 
-0.000000 -0.663156 0.000000 
-0.000000 -0.663156 0.000000 
0.000000 -0.663156 0.000000 
-0.000000 -0.663156 0.000000 
-0.000000 -0.663156 0.000000 
-0.000000 -0.663156 0.000000 
-0.000000 -0.663156 0.000000 
0.000000 -0.663156 0.000000 
-0.000000 -0.663156 0.000000 
-0.000000 -0.663156 0.000000 
0.000000 -0.663156 0.000000 
0.000000 -0.663156 0.000000 
-0.000000 -0.663156 0.000000 
-0.000000 -0.663156 0.000000 
-0.000000 -0.663156 0.000000 
-0.000000 -0.663156 0.000000 
-0.000000 -0.663156 0.000000 
-0.000000 -0.663156 0.000000 
0.000000 -0.663156 0.000000 
0.000000 -0.663156 0.000000 
0.000000 -0.663156 0.000000 
0.000000 -0.663156 0.000000 
-0.000000 -0.663156 0.000000 
-0.000000 -0.663156 0.000000 
-0.000000 -0.663156 0.000000 
0.000000 -0.663156 0.000000 
0.000000 -0.663156 0.000000 
0.000000 -0.663156 0.000000 
-0.000000 -0.663156 0.000000 
0.000000 -0.663156 0.000000 
-0.000000 -0.663156 0.000000 
-0.000000 -0.663156 0.000000 
0.000000 -0.663156 0.000000 
0.000000 -0.663156 0.000000 
0.000000 -0.663156 0.000000 
-0.000000 -0.663156 0.000000 
-0.000000 -0.663156 0.000000 
-0.000000 -0.663156 0.000000 
0.000000 -0.663156 0.000000 
0.000000 -0.663156 0.000000 
-0.000000 -0.663156 0.000000 
-0.000000 -0.663156 0.000000 
-0.000000 -0.663156 0.000000 
-0.000000 -0.663156 0.000000 
0.000000 -0.663156 0.000000 
0.000000 -0.663156 0.000000 
0.000000 -0.663156 0.000000 
0.000000 -0.663156 0.000000 
0.000000 -0.663156 0.000000 
0.000000 -0.663156 0.000000 
0.000000 -0.663156 0.000000 
0.000000 -0.663156 0.000000 
0.000000 -0.663156 0.000000 
-0.000000 -0.663156 0.000000 
-0.000000 -0.663156 0.000000 
-0.000000 -0.663156 0.000000 
-0.000000 -0.663156 0.000000 
0.000000 -0.663156 0.000000 
0.000000 -0.663156 0.000000 
0.000000 -0.663156 0.000000 
0.000000 -0.663156 0.000000 
0.000000 -0.663156 0.000000 
-0.000000 -0.663156 0.000000 
-0.000000 -0.663156 0.000000 
-0.000000 -0.663156 0.000000 
0.000000 -0.663156 0.000000 
0.000000 -0.663156 0.000000 
0.000000 -0.663156 0.000000 
0.000000 -0.663156 0.000000 
0.000000 -0.663156 0.000000 
-0.000000 -0.663156 0.000000 
-0.000000 -0.663156 0.000000 
-0.000000 -0.663156 0.000000 
0.000000 -0.663156 0.000000 
-0.000000 -0.663156 0.000000 
0.000000 -0.663156 0.000000 
0.000000 -0.663156 0.000000 
0.000000 -0.663156 0.000000 
0.000000 -0.663156 0.000000 
0.000000 -0.663156 0.000000 
0.000000 -0.663156 0.000000 
-0.000000 -0.663156 0.000000 
0.000000 -0.663156 0.000000 
0.000000 -0.663156 0.000000 
0.000000 -0.663156 0.000000 
0.000000 -0.663156 0.000000 
0.000000 -0.663156 0.000000 
0.000000 -0.663156 0.000000 
0.000000 -0.663156 0.000000 
0.000000 -0.663156 0.000000 
0.000000 -0.663156 0.000000 
0.000000 -0.663156 0.000000 
0.000000 -0.663156 0.000000 
0.000000 -0.663156 0.000000 
0.000000 -0.663156 0.000000 
0.000000 -0.663156 0.000000 
0.000000 -0.663156 0.000000 
-0.000000 -0.663156 0.000000 
-0.000000 -0.663156 0.000000 
0.000000 -0.663156 0.000000 
0.000000 -0.663156 0.000000 
0.000000 -0.663156 0.000000 
0.000000 -0.663156 0.000000 
0.000000 -0.663156 0.000000 
-0.000000 -0.663156 0.000000 
-0.000000 -0.663156 0.000000 
-0.000000 -0.663156 0.000000 
-0.000000 -0.663156 0.000000 
-0.000000 -0.663156 0.000000 
-0.000000 -0.663156 0.000000 
-0.000000 -0.663156 0.000000 
-0.000000 -0.663156 0.000000 
0.000000 -0.663156 0.000000 
0.000000 -0.663156 0.000000 
0.000000 -0.663156 0.000000 
-0.000000 -0.663156 0.000000 
-0.000000 -0.663156 0.000000 
0.000000 -0.663156 0.000000 
0.000000 -0.663156 0.000000 
0.000000 -0.663156 0.000000 
0.000000 -0.663156 0.000000 
0.000000 -0.663156 0.000000 
-0.000000 -0.663156 0.000000 
-0.000000 -0.663156 0.000000 
-0.000000 -0.663156 0.000000 
-0.000000 -0.663156 0.000000 
-0.000000 -0.663156 0.000000 
0.000000 -0.663156 0.000000 
-0.000000 -0.663156 0.000000 
-0.000000 -0.663156 0.000000 
-0.000000 -0.663156 0.000000 
TENSORS STRESS float 
-0.000000 0.000000 0.000000 
0.000000 -0.000000 0.000000 
0.000000 0.000000 0.000000 

-0.000000 0.000000 0.000000 
0.000000 -0.000000 0.000000 
0.000000 0.000000 0.000000 

-0.000000 -0.000000 0.000000 
0.000000 -0.000000 0.000000 
0.000000 0.000000 0.000000 

0.000000 -0.000000 0.000000 
0.000000 0.000000 0.000000 
0.000000 0.000000 0.000000 

-0.000000 -0.000000 0.000000 
0.000000 -0.000000 0.000000 
0.000000 0.000000 0.000000 

0.000000 0.000000 0.000000 
0.000000 0.000000 0.000000 
0.000000 0.000000 0.000000 

-0.000000 -0.000000 0.000000 
0.000000 -0.000000 0.000000 
0.000000 0.000000 0.000000 

0.000000 -0.000000 0.000000 
0.000000 0.000000 0.000000 
0.000000 0.000000 0.000000 

0.000000 -0.000000 0.000000 
0.000000 0.000000 0.000000 
0.000000 0.000000 0.000000 

-0.000000 -0.000000 0.000000 
0.000000 -0.000000 0.000000 
0.000000 0.000000 0.000000 

-0.000000 0.000000 0.000000 
0.000000 -0.000000 0.000000 
0.000000 0.000000 0.000000 

0.000000 -0.000000 0.000000 
0.000000 0.000000 0.000000 
0.000000 0.000000 0.000000 

-0.000000 -0.000000 0.000000 
0.000000 -0.000000 0.000000 
0.000000 0.000000 0.000000 

0.000000 -0.000000 0.000000 
0.000000 0.000000 0.000000 
0.000000 0.000000 0.000000 

0.000000 0.000000 0.000000 
0.000000 0.000000 0.000000 
0.000000 0.000000 0.000000 

0.000000 0.000000 0.000000 
0.000000 0.000000 0.000000 
0.000000 0.000000 0.000000 

-0.000000 -0.000000 0.000000 
0.000000 0.000000 0.000000 
0.000000 0.000000 0.000000 

0.000000 -0.000000 0.000000 
0.000000 0.000000 0.000000 
0.000000 0.000000 0.000000 

-0.000000 -0.000000 0.000000 
0.000000 -0.000000 0.000000 
0.000000 0.000000 0.000000 

0.000000 -0.000000 0.000000 
0.000000 0.000000 0.000000 
0.000000 0.000000 0.000000 

0.000000 -0.000000 0.000000 
0.000000 0.000000 0.000000 
0.000000 0.000000 0.000000 

0.000000 -0.000000 0.000000 
0.000000 0.000000 0.000000 
0.000000 0.000000 0.000000 

-0.000000 -0.000000 0.000000 
0.000000 -0.000000 0.000000 
0.000000 0.000000 0.000000 

0.000000 0.000000 0.000000 
0.000000 0.000000 0.000000 
0.000000 0.000000 0.000000 

-0.000000 -0.000000 0.000000 
0.000000 -0.000000 0.000000 
0.000000 0.000000 0.000000 

-0.000000 -0.000000 0.000000 
0.000000 -0.000000 0.000000 
0.000000 0.000000 0.000000 

-0.000000 0.000000 0.000000 
0.000000 -0.000000 0.000000 
0.000000 0.000000 0.000000 

-0.000000 0.000000 0.000000 
0.000000 -0.000000 0.000000 
0.000000 0.000000 0.000000 

-0.000000 0.000000 0.000000 
0.000000 -0.000000 0.000000 
0.000000 0.000000 0.000000 

-0.000000 0.000000 0.000000 
0.000000 -0.000000 0.000000 
0.000000 0.000000 0.000000 

0.000000 0.000000 0.000000 
0.000000 0.000000 0.000000 
0.000000 0.000000 0.000000 

0.000000 -0.000000 0.000000 
0.000000 0.000000 0.000000 
0.000000 0.000000 0.000000 

-0.000000 0.000000 0.000000 
0.000000 -0.000000 0.000000 
0.000000 0.000000 0.000000 

-0.000000 -0.000000 0.000000 
0.000000 0.000000 0.000000 
0.000000 0.000000 0.000000 

-0.000000 0.000000 0.000000 
0.000000 -0.000000 0.000000 
0.000000 0.000000 0.000000 

0.000000 0.000000 0.000000 
0.000000 0.000000 0.000000 
0.000000 0.000000 0.000000 

0.000000 -0.000000 0.000000 
0.000000 0.000000 0.000000 
0.000000 0.000000 0.000000 

0.000000 -0.000000 0.000000 
0.000000 0.000000 0.000000 
0.000000 0.000000 0.000000 

-0.000000 -0.000000 0.000000 
0.000000 0.000000 0.000000 
0.000000 0.000000 0.000000 

-0.000000 -0.000000 0.000000 
0.000000 -0.000000 0.000000 
0.000000 0.000000 0.000000 

-0.000000 -0.000000 0.000000 
0.000000 -0.000000 0.000000 
0.000000 0.000000 0.000000 

-0.000000 -0.000000 0.000000 
0.000000 -0.000000 0.000000 
0.000000 0.000000 0.000000 

0.000000 -0.000000 0.000000 
0.000000 0.000000 0.000000 
0.000000 0.000000 0.000000 

0.000000 0.000000 0.000000 
0.000000 0.000000 0.000000 
0.000000 0.000000 0.000000 

0.000000 0.000000 0.000000 
0.000000 0.000000 0.000000 
0.000000 0.000000 0.000000 

-0.000000 0.000000 0.000000 
0.000000 0.000000 0.000000 
0.000000 0.000000 0.000000 

0.000000 0.000000 0.000000 
0.000000 0.000000 0.000000 
0.000000 0.000000 0.000000 

-0.000000 -0.000000 0.000000 
0.000000 -0.000000 0.000000 
0.000000 0.000000 0.000000 

-0.000000 -0.000000 0.000000 
0.000000 -0.000000 0.000000 
0.000000 0.000000 0.000000 

-0.000000 -0.000000 0.000000 
0.000000 -0.000000 0.000000 
0.000000 0.000000 0.000000 

0.000000 0.000000 0.000000 
0.000000 0.000000 0.000000 
0.000000 0.000000 0.000000 

0.000000 0.000000 0.000000 
0.000000 0.000000 0.000000 
0.000000 0.000000 0.000000 

0.000000 0.000000 0.000000 
0.000000 0.000000 0.000000 
0.000000 0.000000 0.000000 

-0.000000 0.000000 0.000000 
0.000000 -0.000000 0.000000 
0.000000 0.000000 0.000000 

-0.000000 -0.000000 0.000000 
0.000000 -0.000000 0.000000 
0.000000 0.000000 0.000000 

-0.000000 0.000000 0.000000 
0.000000 -0.000000 0.000000 
0.000000 0.000000 0.000000 

-0.000000 0.000000 0.000000 
0.000000 -0.000000 0.000000 
0.000000 0.000000 0.000000 

-0.000000 0.000000 0.000000 
0.000000 -0.000000 0.000000 
0.000000 0.000000 0.000000 

0.000000 0.000000 0.000000 
0.000000 0.000000 0.000000 
0.000000 0.000000 0.000000 

-0.000000 -0.000000 0.000000 
0.000000 -0.000000 0.000000 
0.000000 0.000000 0.000000 

0.000000 -0.000000 0.000000 
0.000000 0.000000 0.000000 
0.000000 0.000000 0.000000 

0.000000 0.000000 0.000000 
0.000000 0.000000 0.000000 
0.000000 0.000000 0.000000 

-0.000000 0.000000 0.000000 
0.000000 -0.000000 0.000000 
0.000000 0.000000 0.000000 

0.000000 0.000000 0.000000 
0.000000 -0.000000 0.000000 
0.000000 0.000000 0.000000 

-0.000000 0.000000 0.000000 
0.000000 -0.000000 0.000000 
0.000000 0.000000 0.000000 

-0.000000 0.000000 0.000000 
0.000000 -0.000000 0.000000 
0.000000 0.000000 0.000000 

0.000000 -0.000000 0.000000 
0.000000 0.000000 0.000000 
0.000000 0.000000 0.000000 

0.000000 -0.000000 0.000000 
0.000000 0.000000 0.000000 
0.000000 0.000000 0.000000 

-0.000000 0.000000 0.000000 
0.000000 -0.000000 0.000000 
0.000000 0.000000 0.000000 

0.000000 0.000000 0.000000 
0.000000 0.000000 0.000000 
0.000000 0.000000 0.000000 

0.000000 0.000000 0.000000 
0.000000 0.000000 0.000000 
0.000000 0.000000 0.000000 

0.000000 0.000000 0.000000 
0.000000 0.000000 0.000000 
0.000000 0.000000 0.000000 

-0.000000 -0.000000 0.000000 
0.000000 -0.000000 0.000000 
0.000000 0.000000 0.000000 

-0.000000 0.000000 0.000000 
0.000000 -0.000000 0.000000 
0.000000 0.000000 0.000000 

-0.000000 -0.000000 0.000000 
0.000000 -0.000000 0.000000 
0.000000 0.000000 0.000000 

-0.000000 0.000000 0.000000 
0.000000 -0.000000 0.000000 
0.000000 0.000000 0.000000 

0.000000 0.000000 0.000000 
0.000000 0.000000 0.000000 
0.000000 0.000000 0.000000 

-0.000000 0.000000 0.000000 
0.000000 -0.000000 0.000000 
0.000000 0.000000 0.000000 

0.000000 0.000000 0.000000 
0.000000 0.000000 0.000000 
0.000000 0.000000 0.000000 

0.000000 -0.000000 0.000000 
0.000000 0.000000 0.000000 
0.000000 0.000000 0.000000 

0.000000 0.000000 0.000000 
0.000000 0.000000 0.000000 
0.000000 0.000000 0.000000 

0.000000 -0.000000 0.000000 
0.000000 0.000000 0.000000 
0.000000 0.000000 0.000000 

0.000000 0.000000 0.000000 
0.000000 0.000000 0.000000 
0.000000 0.000000 0.000000 

0.000000 -0.000000 0.000000 
0.000000 0.000000 0.000000 
0.000000 0.000000 0.000000 

0.000000 0.000000 0.000000 
0.000000 0.000000 0.000000 
0.000000 0.000000 0.000000 

0.000000 0.000000 0.000000 
0.000000 0.000000 0.000000 
0.000000 0.000000 0.000000 

-0.000000 0.000000 0.000000 
0.000000 -0.000000 0.000000 
0.000000 0.000000 0.000000 

-0.000000 0.000000 0.000000 
0.000000 -0.000000 0.000000 
0.000000 0.000000 0.000000 

-0.000000 0.000000 0.000000 
0.000000 -0.000000 0.000000 
0.000000 0.000000 0.000000 

0.000000 -0.000000 0.000000 
0.000000 0.000000 0.000000 
0.000000 0.000000 0.000000 

0.000000 -0.000000 0.000000 
0.000000 0.000000 0.000000 
0.000000 0.000000 0.000000 

-0.000000 0.000000 0.000000 
0.000000 -0.000000 0.000000 
0.000000 0.000000 0.000000 

0.000000 0.000000 0.000000 
0.000000 0.000000 0.000000 
0.000000 0.000000 0.000000 

-0.000000 0.000000 0.000000 
0.000000 -0.000000 0.000000 
0.000000 0.000000 0.000000 

-0.000000 0.000000 0.000000 
0.000000 -0.000000 0.000000 
0.000000 0.000000 0.000000 

-0.000000 0.000000 0.000000 
0.000000 -0.000000 0.000000 
0.000000 0.000000 0.000000 

-0.000000 0.000000 0.000000 
0.000000 -0.000000 0.000000 
0.000000 0.000000 0.000000 

-0.000000 0.000000 0.000000 
0.000000 -0.000000 0.000000 
0.000000 0.000000 0.000000 

-0.000000 -0.000000 0.000000 
0.000000 -0.000000 0.000000 
0.000000 0.000000 0.000000 

0.000000 -0.000000 0.000000 
0.000000 0.000000 0.000000 
0.000000 0.000000 0.000000 

-0.000000 0.000000 0.000000 
0.000000 -0.000000 0.000000 
0.000000 0.000000 0.000000 

0.000000 -0.000000 0.000000 
0.000000 0.000000 0.000000 
0.000000 0.000000 0.000000 

0.000000 -0.000000 0.000000 
0.000000 0.000000 0.000000 
0.000000 0.000000 0.000000 

0.000000 -0.000000 0.000000 
0.000000 0.000000 0.000000 
0.000000 0.000000 0.000000 

0.000000 0.000000 0.000000 
0.000000 0.000000 0.000000 
0.000000 0.000000 0.000000 

0.000000 -0.000000 0.000000 
0.000000 0.000000 0.000000 
0.000000 0.000000 0.000000 

0.000000 -0.000000 0.000000 
0.000000 0.000000 0.000000 
0.000000 0.000000 0.000000 

0.000000 -0.000000 0.000000 
0.000000 -0.000000 0.000000 
0.000000 0.000000 0.000000 

0.000000 -0.000000 0.000000 
0.000000 0.000000 0.000000 
0.000000 0.000000 0.000000 

-0.000000 0.000000 0.000000 
0.000000 0.000000 0.000000 
0.000000 0.000000 0.000000 

0.000000 0.000000 0.000000 
0.000000 0.000000 0.000000 
0.000000 0.000000 0.000000 

-0.000000 0.000000 0.000000 
0.000000 -0.000000 0.000000 
0.000000 0.000000 0.000000 

-0.000000 0.000000 0.000000 
0.000000 -0.000000 0.000000 
0.000000 0.000000 0.000000 

-0.000000 0.000000 0.000000 
0.000000 -0.000000 0.000000 
0.000000 0.000000 0.000000 

-0.000000 -0.000000 0.000000 
0.000000 -0.000000 0.000000 
0.000000 0.000000 0.000000 

-0.000000 0.000000 0.000000 
0.000000 -0.000000 0.000000 
0.000000 0.000000 0.000000 

0.000000 0.000000 0.000000 
0.000000 0.000000 0.000000 
0.000000 0.000000 0.000000 

-0.000000 0.000000 0.000000 
0.000000 -0.000000 0.000000 
0.000000 0.000000 0.000000 

0.000000 0.000000 0.000000 
0.000000 0.000000 0.000000 
0.000000 0.000000 0.000000 

0.000000 0.000000 0.000000 
0.000000 0.000000 0.000000 
0.000000 0.000000 0.000000 

0.000000 -0.000000 0.000000 
0.000000 0.000000 0.000000 
0.000000 0.000000 0.000000 

0.000000 -0.000000 0.000000 
0.000000 0.000000 0.000000 
0.000000 0.000000 0.000000 

-0.000000 0.000000 0.000000 
0.000000 -0.000000 0.000000 
0.000000 0.000000 0.000000 

-0.000000 0.000000 0.000000 
0.000000 -0.000000 0.000000 
0.000000 0.000000 0.000000 

-0.000000 0.000000 0.000000 
0.000000 -0.000000 0.000000 
0.000000 0.000000 0.000000 

-0.000000 0.000000 0.000000 
0.000000 -0.000000 0.000000 
0.000000 0.000000 0.000000 

-0.000000 -0.000000 0.000000 
0.000000 -0.000000 0.000000 
0.000000 0.000000 0.000000 

-0.000000 -0.000000 0.000000 
0.000000 -0.000000 0.000000 
0.000000 0.000000 0.000000 

-0.000000 -0.000000 0.000000 
0.000000 -0.000000 0.000000 
0.000000 0.000000 0.000000 

0.000000 -0.000000 0.000000 
0.000000 0.000000 0.000000 
0.000000 0.000000 0.000000 

-0.000000 -0.000000 0.000000 
0.000000 -0.000000 0.000000 
0.000000 0.000000 0.000000 

-0.000000 0.000000 0.000000 
0.000000 -0.000000 0.000000 
0.000000 0.000000 0.000000 

-0.000000 -0.000000 0.000000 
0.000000 -0.000000 0.000000 
0.000000 0.000000 0.000000 

-0.000000 0.000000 0.000000 
0.000000 -0.000000 0.000000 
0.000000 0.000000 0.000000 

0.000000 0.000000 0.000000 
0.000000 0.000000 0.000000 
0.000000 0.000000 0.000000 

0.000000 0.000000 0.000000 
0.000000 0.000000 0.000000 
0.000000 0.000000 0.000000 

0.000000 0.000000 0.000000 
0.000000 0.000000 0.000000 
0.000000 0.000000 0.000000 

-0.000000 0.000000 0.000000 
0.000000 -0.000000 0.000000 
0.000000 0.000000 0.000000 

0.000000 0.000000 0.000000 
0.000000 0.000000 0.000000 
0.000000 0.000000 0.000000 

-0.000000 0.000000 0.000000 
0.000000 -0.000000 0.000000 
0.000000 0.000000 0.000000 

-0.000000 0.000000 0.000000 
0.000000 0.000000 0.000000 
0.000000 0.000000 0.000000 

-0.000000 0.000000 0.000000 
0.000000 -0.000000 0.000000 
0.000000 0.000000 0.000000 

-0.000000 0.000000 0.000000 
0.000000 -0.000000 0.000000 
0.000000 0.000000 0.000000 

0.000000 -0.000000 0.000000 
0.000000 0.000000 0.000000 
0.000000 0.000000 0.000000 

0.000000 -0.000000 0.000000 
0.000000 0.000000 0.000000 
0.000000 0.000000 0.000000 

0.000000 0.000000 0.000000 
0.000000 0.000000 0.000000 
0.000000 0.000000 0.000000 

0.000000 0.000000 0.000000 
0.000000 0.000000 0.000000 
0.000000 0.000000 0.000000 

0.000000 0.000000 0.000000 
0.000000 0.000000 0.000000 
0.000000 0.000000 0.000000 

0.000000 0.000000 0.000000 
0.000000 0.000000 0.000000 
0.000000 0.000000 0.000000 

-0.000000 0.000000 0.000000 
0.000000 -0.000000 0.000000 
0.000000 0.000000 0.000000 

-0.000000 0.000000 0.000000 
0.000000 -0.000000 0.000000 
0.000000 0.000000 0.000000 

-0.000000 0.000000 0.000000 
0.000000 -0.000000 0.000000 
0.000000 0.000000 0.000000 

-0.000000 0.000000 0.000000 
0.000000 -0.000000 0.000000 
0.000000 0.000000 0.000000 

-0.000000 -0.000000 0.000000 
0.000000 -0.000000 0.000000 
0.000000 0.000000 0.000000 

0.000000 0.000000 0.000000 
0.000000 0.000000 0.000000 
0.000000 0.000000 0.000000 

0.000000 0.000000 0.000000 
0.000000 0.000000 0.000000 
0.000000 0.000000 0.000000 

-0.000000 -0.000000 0.000000 
0.000000 -0.000000 0.000000 
0.000000 0.000000 0.000000 

0.000000 -0.000000 0.000000 
0.000000 0.000000 0.000000 
0.000000 0.000000 0.000000 

-0.000000 -0.000000 0.000000 
0.000000 -0.000000 0.000000 
0.000000 0.000000 0.000000 

0.000000 0.000000 0.000000 
0.000000 0.000000 0.000000 
0.000000 0.000000 0.000000 

0.000000 0.000000 0.000000 
0.000000 0.000000 0.000000 
0.000000 0.000000 0.000000 

-0.000000 -0.000000 0.000000 
0.000000 -0.000000 0.000000 
0.000000 0.000000 0.000000 

-0.000000 -0.000000 0.000000 
0.000000 -0.000000 0.000000 
0.000000 0.000000 0.000000 

-0.000000 0.000000 0.000000 
0.000000 -0.000000 0.000000 
0.000000 0.000000 0.000000 

0.000000 -0.000000 0.000000 
0.000000 0.000000 0.000000 
0.000000 0.000000 0.000000 

-0.000000 0.000000 0.000000 
0.000000 -0.000000 0.000000 
0.000000 0.000000 0.000000 

0.000000 -0.000000 0.000000 
0.000000 -0.000000 0.000000 
0.000000 0.000000 0.000000 

-0.000000 -0.000000 0.000000 
0.000000 -0.000000 0.000000 
0.000000 0.000000 0.000000 

0.000000 -0.000000 0.000000 
0.000000 0.000000 0.000000 
0.000000 0.000000 0.000000 

-0.000000 -0.000000 0.000000 
0.000000 -0.000000 0.000000 
0.000000 0.000000 0.000000 

-0.000000 -0.000000 0.000000 
0.000000 -0.000000 0.000000 
0.000000 0.000000 0.000000 

-0.000000 -0.000000 0.000000 
0.000000 -0.000000 0.000000 
0.000000 0.000000 0.000000 

-0.000000 0.000000 0.000000 
0.000000 -0.000000 0.000000 
0.000000 0.000000 0.000000 

-0.000000 0.000000 0.000000 
0.000000 -0.000000 0.000000 
0.000000 0.000000 0.000000 

0.000000 0.000000 0.000000 
0.000000 0.000000 0.000000 
0.000000 0.000000 0.000000 

TENSORS STRAIN float 
-0.000000 0.000000 0.000000 
0.000000 -0.000000 0.000000 
0.000000 0.000000 0.000000 

-0.000000 0.000000 0.000000 
0.000000 -0.000000 0.000000 
0.000000 0.000000 0.000000 

-0.000000 -0.000000 0.000000 
0.000000 -0.000000 0.000000 
0.000000 0.000000 0.000000 

0.000000 -0.000000 0.000000 
0.000000 -0.000000 0.000000 
0.000000 0.000000 0.000000 

-0.000000 -0.000000 0.000000 
0.000000 -0.000000 0.000000 
0.000000 0.000000 0.000000 

-0.000000 0.000000 0.000000 
0.000000 0.000000 0.000000 
0.000000 0.000000 0.000000 

-0.000000 -0.000000 0.000000 
0.000000 -0.000000 0.000000 
0.000000 0.000000 0.000000 

0.000000 -0.000000 0.000000 
0.000000 -0.000000 0.000000 
0.000000 0.000000 0.000000 

0.000000 -0.000000 0.000000 
0.000000 -0.000000 0.000000 
0.000000 0.000000 0.000000 

-0.000000 -0.000000 0.000000 
0.000000 -0.000000 0.000000 
0.000000 0.000000 0.000000 

-0.000000 0.000000 0.000000 
0.000000 -0.000000 0.000000 
0.000000 0.000000 0.000000 

0.000000 -0.000000 0.000000 
0.000000 0.000000 0.000000 
0.000000 0.000000 0.000000 

0.000000 -0.000000 0.000000 
0.000000 -0.000000 0.000000 
0.000000 0.000000 0.000000 

0.000000 -0.000000 0.000000 
0.000000 0.000000 0.000000 
0.000000 0.000000 0.000000 

0.000000 0.000000 0.000000 
0.000000 -0.000000 0.000000 
0.000000 0.000000 0.000000 

0.000000 0.000000 0.000000 
0.000000 -0.000000 0.000000 
0.000000 0.000000 0.000000 

-0.000000 -0.000000 0.000000 
0.000000 0.000000 0.000000 
0.000000 0.000000 0.000000 

-0.000000 -0.000000 0.000000 
0.000000 0.000000 0.000000 
0.000000 0.000000 0.000000 

-0.000000 -0.000000 0.000000 
0.000000 0.000000 0.000000 
0.000000 0.000000 0.000000 

0.000000 -0.000000 0.000000 
0.000000 0.000000 0.000000 
0.000000 0.000000 0.000000 

0.000000 -0.000000 0.000000 
0.000000 0.000000 0.000000 
0.000000 0.000000 0.000000 

0.000000 -0.000000 0.000000 
0.000000 -0.000000 0.000000 
0.000000 0.000000 0.000000 

0.000000 -0.000000 0.000000 
0.000000 -0.000000 0.000000 
0.000000 0.000000 0.000000 

0.000000 0.000000 0.000000 
0.000000 -0.000000 0.000000 
0.000000 0.000000 0.000000 

0.000000 -0.000000 0.000000 
0.000000 -0.000000 0.000000 
0.000000 0.000000 0.000000 

-0.000000 -0.000000 0.000000 
0.000000 -0.000000 0.000000 
0.000000 0.000000 0.000000 

-0.000000 0.000000 0.000000 
0.000000 0.000000 0.000000 
0.000000 0.000000 0.000000 

-0.000000 0.000000 0.000000 
0.000000 0.000000 0.000000 
0.000000 0.000000 0.000000 

-0.000000 0.000000 0.000000 
0.000000 -0.000000 0.000000 
0.000000 0.000000 0.000000 

0.000000 0.000000 0.000000 
0.000000 -0.000000 0.000000 
0.000000 0.000000 0.000000 

-0.000000 0.000000 0.000000 
0.000000 0.000000 0.000000 
0.000000 0.000000 0.000000 

0.000000 -0.000000 0.000000 
0.000000 0.000000 0.000000 
0.000000 0.000000 0.000000 

-0.000000 0.000000 0.000000 
0.000000 0.000000 0.000000 
0.000000 0.000000 0.000000 

-0.000000 -0.000000 0.000000 
0.000000 0.000000 0.000000 
0.000000 0.000000 0.000000 

0.000000 0.000000 0.000000 
0.000000 -0.000000 0.000000 
0.000000 0.000000 0.000000 

0.000000 0.000000 0.000000 
0.000000 0.000000 0.000000 
0.000000 0.000000 0.000000 

0.000000 -0.000000 0.000000 
0.000000 0.000000 0.000000 
0.000000 0.000000 0.000000 

0.000000 -0.000000 0.000000 
0.000000 0.000000 0.000000 
0.000000 0.000000 0.000000 

-0.000000 -0.000000 0.000000 
0.000000 0.000000 0.000000 
0.000000 0.000000 0.000000 

-0.000000 -0.000000 0.000000 
0.000000 -0.000000 0.000000 
0.000000 0.000000 0.000000 

-0.000000 -0.000000 0.000000 
0.000000 0.000000 0.000000 
0.000000 0.000000 0.000000 

0.000000 -0.000000 0.000000 
0.000000 -0.000000 0.000000 
0.000000 0.000000 0.000000 

0.000000 -0.000000 0.000000 
0.000000 -0.000000 0.000000 
0.000000 0.000000 0.000000 

0.000000 0.000000 0.000000 
0.000000 0.000000 0.000000 
0.000000 0.000000 0.000000 

0.000000 0.000000 0.000000 
0.000000 0.000000 0.000000 
0.000000 0.000000 0.000000 

-0.000000 0.000000 0.000000 
0.000000 0.000000 0.000000 
0.000000 0.000000 0.000000 

-0.000000 0.000000 0.000000 
0.000000 0.000000 0.000000 
0.000000 0.000000 0.000000 

-0.000000 -0.000000 0.000000 
0.000000 0.000000 0.000000 
0.000000 0.000000 0.000000 

-0.000000 -0.000000 0.000000 
0.000000 -0.000000 0.000000 
0.000000 0.000000 0.000000 

-0.000000 -0.000000 0.000000 
0.000000 -0.000000 0.000000 
0.000000 0.000000 0.000000 

-0.000000 0.000000 0.000000 
0.000000 0.000000 0.000000 
0.000000 0.000000 0.000000 

-0.000000 0.000000 0.000000 
0.000000 0.000000 0.000000 
0.000000 0.000000 0.000000 

-0.000000 0.000000 0.000000 
0.000000 0.000000 0.000000 
0.000000 0.000000 0.000000 

-0.000000 0.000000 0.000000 
0.000000 0.000000 0.000000 
0.000000 0.000000 0.000000 

0.000000 -0.000000 0.000000 
0.000000 -0.000000 0.000000 
0.000000 0.000000 0.000000 

0.000000 0.000000 0.000000 
0.000000 -0.000000 0.000000 
0.000000 0.000000 0.000000 

0.000000 0.000000 0.000000 
0.000000 -0.000000 0.000000 
0.000000 0.000000 0.000000 

-0.000000 0.000000 0.000000 
0.000000 -0.000000 0.000000 
0.000000 0.000000 0.000000 

0.000000 0.000000 0.000000 
0.000000 -0.000000 0.000000 
0.000000 0.000000 0.000000 

0.000000 -0.000000 0.000000 
0.000000 -0.000000 0.000000 
0.000000 0.000000 0.000000 

0.000000 -0.000000 0.000000 
0.000000 -0.000000 0.000000 
0.000000 0.000000 0.000000 

0.000000 0.000000 0.000000 
0.000000 0.000000 0.000000 
0.000000 0.000000 0.000000 

0.000000 0.000000 0.000000 
0.000000 -0.000000 0.000000 
0.000000 0.000000 0.000000 

0.000000 0.000000 0.000000 
0.000000 -0.000000 0.000000 
0.000000 0.000000 0.000000 

0.000000 0.000000 0.000000 
0.000000 -0.000000 0.000000 
0.000000 0.000000 0.000000 

0.000000 0.000000 0.000000 
0.000000 -0.000000 0.000000 
0.000000 0.000000 0.000000 

-0.000000 -0.000000 0.000000 
0.000000 0.000000 0.000000 
0.000000 0.000000 0.000000 

0.000000 -0.000000 0.000000 
0.000000 0.000000 0.000000 
0.000000 0.000000 0.000000 

0.000000 0.000000 0.000000 
0.000000 -0.000000 0.000000 
0.000000 0.000000 0.000000 

0.000000 0.000000 0.000000 
0.000000 -0.000000 0.000000 
0.000000 0.000000 0.000000 

0.000000 0.000000 0.000000 
0.000000 0.000000 0.000000 
0.000000 0.000000 0.000000 

0.000000 0.000000 0.000000 
0.000000 0.000000 0.000000 
0.000000 0.000000 0.000000 

-0.000000 -0.000000 0.000000 
0.000000 -0.000000 0.000000 
0.000000 0.000000 0.000000 

-0.000000 0.000000 0.000000 
0.000000 -0.000000 0.000000 
0.000000 0.000000 0.000000 

-0.000000 -0.000000 0.000000 
0.000000 -0.000000 0.000000 
0.000000 0.000000 0.000000 

-0.000000 0.000000 0.000000 
0.000000 0.000000 0.000000 
0.000000 0.000000 0.000000 

-0.000000 0.000000 0.000000 
0.000000 0.000000 0.000000 
0.000000 0.000000 0.000000 

-0.000000 0.000000 0.000000 
0.000000 0.000000 0.000000 
0.000000 0.000000 0.000000 

-0.000000 0.000000 0.000000 
0.000000 0.000000 0.000000 
0.000000 0.000000 0.000000 

0.000000 -0.000000 0.000000 
0.000000 0.000000 0.000000 
0.000000 0.000000 0.000000 

-0.000000 0.000000 0.000000 
0.000000 0.000000 0.000000 
0.000000 0.000000 0.000000 

-0.000000 -0.000000 0.000000 
0.000000 0.000000 0.000000 
0.000000 0.000000 0.000000 

-0.000000 0.000000 0.000000 
0.000000 0.000000 0.000000 
0.000000 0.000000 0.000000 

0.000000 -0.000000 0.000000 
0.000000 0.000000 0.000000 
0.000000 0.000000 0.000000 

0.000000 0.000000 0.000000 
0.000000 -0.000000 0.000000 
0.000000 0.000000 0.000000 

0.000000 0.000000 0.000000 
0.000000 0.000000 0.000000 
0.000000 0.000000 0.000000 

-0.000000 0.000000 0.000000 
0.000000 -0.000000 0.000000 
0.000000 0.000000 0.000000 

-0.000000 0.000000 0.000000 
0.000000 0.000000 0.000000 
0.000000 0.000000 0.000000 

-0.000000 0.000000 0.000000 
0.000000 -0.000000 0.000000 
0.000000 0.000000 0.000000 

0.000000 -0.000000 0.000000 
0.000000 0.000000 0.000000 
0.000000 0.000000 0.000000 

0.000000 -0.000000 0.000000 
0.000000 -0.000000 0.000000 
0.000000 0.000000 0.000000 

0.000000 0.000000 0.000000 
0.000000 -0.000000 0.000000 
0.000000 0.000000 0.000000 

0.000000 0.000000 0.000000 
0.000000 0.000000 0.000000 
0.000000 0.000000 0.000000 

0.000000 0.000000 0.000000 
0.000000 -0.000000 0.000000 
0.000000 0.000000 0.000000 

-0.000000 0.000000 0.000000 
0.000000 -0.000000 0.000000 
0.000000 0.000000 0.000000 

-0.000000 0.000000 0.000000 
0.000000 0.000000 0.000000 
0.000000 0.000000 0.000000 

-0.000000 0.000000 0.000000 
0.000000 0.000000 0.000000 
0.000000 0.000000 0.000000 

-0.000000 0.000000 0.000000 
0.000000 0.000000 0.000000 
0.000000 0.000000 0.000000 

-0.000000 -0.000000 0.000000 
0.000000 0.000000 0.000000 
0.000000 0.000000 0.000000 

-0.000000 -0.000000 0.000000 
0.000000 0.000000 0.000000 
0.000000 0.000000 0.000000 

-0.000000 0.000000 0.000000 
0.000000 0.000000 0.000000 
0.000000 0.000000 0.000000 

0.000000 -0.000000 0.000000 
0.000000 0.000000 0.000000 
0.000000 0.000000 0.000000 

0.000000 -0.000000 0.000000 
0.000000 0.000000 0.000000 
0.000000 0.000000 0.000000 

0.000000 -0.000000 0.000000 
0.000000 0.000000 0.000000 
0.000000 0.000000 0.000000 

-0.000000 0.000000 0.000000 
0.000000 0.000000 0.000000 
0.000000 0.000000 0.000000 

0.000000 -0.000000 0.000000 
0.000000 0.000000 0.000000 
0.000000 0.000000 0.000000 

0.000000 -0.000000 0.000000 
0.000000 0.000000 0.000000 
0.000000 0.000000 0.000000 

0.000000 -0.000000 0.000000 
0.000000 -0.000000 0.000000 
0.000000 0.000000 0.000000 

0.000000 -0.000000 0.000000 
0.000000 0.000000 0.000000 
0.000000 0.000000 0.000000 

-0.000000 0.000000 0.000000 
0.000000 0.000000 0.000000 
0.000000 0.000000 0.000000 

-0.000000 0.000000 0.000000 
0.000000 0.000000 0.000000 
0.000000 0.000000 0.000000 

0.000000 0.000000 0.000000 
0.000000 -0.000000 0.000000 
0.000000 0.000000 0.000000 

0.000000 0.000000 0.000000 
0.000000 -0.000000 0.000000 
0.000000 0.000000 0.000000 

0.000000 0.000000 0.000000 
0.000000 -0.000000 0.000000 
0.000000 0.000000 0.000000 

0.000000 -0.000000 0.000000 
0.000000 -0.000000 0.000000 
0.000000 0.000000 0.000000 

0.000000 0.000000 0.000000 
0.000000 -0.000000 0.000000 
0.000000 0.000000 0.000000 

0.000000 0.000000 0.000000 
0.000000 0.000000 0.000000 
0.000000 0.000000 0.000000 

0.000000 0.000000 0.000000 
0.000000 -0.000000 0.000000 
0.000000 0.000000 0.000000 

0.000000 0.000000 0.000000 
0.000000 -0.000000 0.000000 
0.000000 0.000000 0.000000 

0.000000 0.000000 0.000000 
0.000000 -0.000000 0.000000 
0.000000 0.000000 0.000000 

0.000000 -0.000000 0.000000 
0.000000 0.000000 0.000000 
0.000000 0.000000 0.000000 

0.000000 -0.000000 0.000000 
0.000000 -0.000000 0.000000 
0.000000 0.000000 0.000000 

0.000000 0.000000 0.000000 
0.000000 -0.000000 0.000000 
0.000000 0.000000 0.000000 

0.000000 0.000000 0.000000 
0.000000 -0.000000 0.000000 
0.000000 0.000000 0.000000 

0.000000 0.000000 0.000000 
0.000000 -0.000000 0.000000 
0.000000 0.000000 0.000000 

-0.000000 0.000000 0.000000 
0.000000 -0.000000 0.000000 
0.000000 0.000000 0.000000 

-0.000000 -0.000000 0.000000 
0.000000 -0.000000 0.000000 
0.000000 0.000000 0.000000 

0.000000 -0.000000 0.000000 
0.000000 -0.000000 0.000000 
0.000000 0.000000 0.000000 

0.000000 -0.000000 0.000000 
0.000000 -0.000000 0.000000 
0.000000 0.000000 0.000000 

-0.000000 -0.000000 0.000000 
0.000000 0.000000 0.000000 
0.000000 0.000000 0.000000 

-0.000000 -0.000000 0.000000 
0.000000 -0.000000 0.000000 
0.000000 0.000000 0.000000 

-0.000000 0.000000 0.000000 
0.000000 -0.000000 0.000000 
0.000000 0.000000 0.000000 

0.000000 -0.000000 0.000000 
0.000000 -0.000000 0.000000 
0.000000 0.000000 0.000000 

-0.000000 0.000000 0.000000 
0.000000 -0.000000 0.000000 
0.000000 0.000000 0.000000 

-0.000000 0.000000 0.000000 
0.000000 0.000000 0.000000 
0.000000 0.000000 0.000000 

0.000000 0.000000 0.000000 
0.000000 0.000000 0.000000 
0.000000 0.000000 0.000000 

0.000000 0.000000 0.000000 
0.000000 0.000000 0.000000 
0.000000 0.000000 0.000000 

-0.000000 0.000000 0.000000 
0.000000 0.000000 0.000000 
0.000000 0.000000 0.000000 

-0.000000 0.000000 0.000000 
0.000000 0.000000 0.000000 
0.000000 0.000000 0.000000 

-0.000000 0.000000 0.000000 
0.000000 0.000000 0.000000 
0.000000 0.000000 0.000000 

-0.000000 0.000000 0.000000 
0.000000 0.000000 0.000000 
0.000000 0.000000 0.000000 

-0.000000 0.000000 0.000000 
0.000000 -0.000000 0.000000 
0.000000 0.000000 0.000000 

-0.000000 0.000000 0.000000 
0.000000 -0.000000 0.000000 
0.000000 0.000000 0.000000 

-0.000000 -0.000000 0.000000 
0.000000 0.000000 0.000000 
0.000000 0.000000 0.000000 

0.000000 -0.000000 0.000000 
0.000000 0.000000 0.000000 
0.000000 0.000000 0.000000 

0.000000 0.000000 0.000000 
0.000000 -0.000000 0.000000 
0.000000 0.000000 0.000000 

0.000000 0.000000 0.000000 
0.000000 -0.000000 0.000000 
0.000000 0.000000 0.000000 

0.000000 0.000000 0.000000 
0.000000 -0.000000 0.000000 
0.000000 0.000000 0.000000 

0.000000 0.000000 0.000000 
0.000000 -0.000000 0.000000 
0.000000 0.000000 0.000000 

0.000000 0.000000 0.000000 
0.000000 -0.000000 0.000000 
0.000000 0.000000 0.000000 

-0.000000 0.000000 0.000000 
0.000000 -0.000000 0.000000 
0.000000 0.000000 0.000000 

0.000000 0.000000 0.000000 
0.000000 -0.000000 0.000000 
0.000000 0.000000 0.000000 

-0.000000 0.000000 0.000000 
0.000000 -0.000000 0.000000 
0.000000 0.000000 0.000000 

-0.000000 -0.000000 0.000000 
0.000000 -0.000000 0.000000 
0.000000 0.000000 0.000000 

0.000000 0.000000 0.000000 
0.000000 -0.000000 0.000000 
0.000000 0.000000 0.000000 

0.000000 0.000000 0.000000 
0.000000 -0.000000 0.000000 
0.000000 0.000000 0.000000 

-0.000000 -0.000000 0.000000 
0.000000 -0.000000 0.000000 
0.000000 0.000000 0.000000 

-0.000000 -0.000000 0.000000 
0.000000 0.000000 0.000000 
0.000000 0.000000 0.000000 

-0.000000 -0.000000 0.000000 
0.000000 0.000000 0.000000 
0.000000 0.000000 0.000000 

0.000000 0.000000 0.000000 
0.000000 -0.000000 0.000000 
0.000000 0.000000 0.000000 

0.000000 0.000000 0.000000 
0.000000 -0.000000 0.000000 
0.000000 0.000000 0.000000 

-0.000000 -0.000000 0.000000 
0.000000 -0.000000 0.000000 
0.000000 0.000000 0.000000 

-0.000000 -0.000000 0.000000 
0.000000 -0.000000 0.000000 
0.000000 0.000000 0.000000 

-0.000000 0.000000 0.000000 
0.000000 -0.000000 0.000000 
0.000000 0.000000 0.000000 

-0.000000 -0.000000 0.000000 
0.000000 0.000000 0.000000 
0.000000 0.000000 0.000000 

-0.000000 0.000000 0.000000 
0.000000 -0.000000 0.000000 
0.000000 0.000000 0.000000 

0.000000 -0.000000 0.000000 
0.000000 -0.000000 0.000000 
0.000000 0.000000 0.000000 

0.000000 -0.000000 0.000000 
0.000000 -0.000000 0.000000 
0.000000 0.000000 0.000000 

-0.000000 -0.000000 0.000000 
0.000000 0.000000 0.000000 
0.000000 0.000000 0.000000 

-0.000000 -0.000000 0.000000 
0.000000 -0.000000 0.000000 
0.000000 0.000000 0.000000 

-0.000000 -0.000000 0.000000 
0.000000 -0.000000 0.000000 
0.000000 0.000000 0.000000 

-0.000000 -0.000000 0.000000 
0.000000 -0.000000 0.000000 
0.000000 0.000000 0.000000 

-0.000000 0.000000 0.000000 
0.000000 -0.000000 0.000000 
0.000000 0.000000 0.000000 

-0.000000 0.000000 0.000000 
0.000000 0.000000 0.000000 
0.000000 0.000000 0.000000 

-0.000000 0.000000 0.000000 
0.000000 0.000000 0.000000 
0.000000 0.000000 0.000000 

