# vtk DataFile Version 3.0 
vtk output 
ASCII 
DATASET UNSTRUCTURED_GRID 
POINTS 175 float 
-0.026061 -1.812558 0.000000 
-0.106992 -1.744502 0.000000 
-0.054870 -1.752735 0.000000 
-0.028809 -1.706851 0.000000 
-0.186430 -1.680427 0.000000 
-0.137056 -1.682953 0.000000 
-0.114311 -1.629306 0.000000 
-0.058186 -1.644972 0.000000 
-0.029377 -1.604794 0.000000 
-0.265318 -1.617271 0.000000 
-0.217198 -1.618071 0.000000 
-0.196633 -1.560774 0.000000 
-0.143120 -1.569483 0.000000 
-0.116563 -1.522215 0.000000 
-0.058945 -1.541860 0.000000 
-0.029568 -1.503740 0.000000 
-0.344206 -1.554115 0.000000 
-0.296791 -1.554108 0.000000 
-0.278030 -1.494165 0.000000 
-0.225992 -1.500032 0.000000 
-0.201664 -1.447915 0.000000 
-0.145749 -1.461389 0.000000 
-0.117890 -1.417046 0.000000 
-0.059328 -1.439752 0.000000 
-0.029759 -1.402686 0.000000 
-0.058559 -1.853309 0.000000 
-0.162226 -1.874151 0.000000 
-0.123292 -1.838534 0.000000 
-0.142917 -1.789550 0.000000 
-0.261851 -1.896308 0.000000 
-0.229092 -1.859281 0.000000 
-0.256854 -1.808049 0.000000 
-0.209613 -1.773937 0.000000 
-0.223062 -1.726363 0.000000 
-0.360414 -1.918608 0.000000 
-0.329787 -1.881485 0.000000 
-0.361761 -1.829683 0.000000 
-0.321587 -1.793274 0.000000 
-0.341985 -1.743040 0.000000 
-0.290702 -1.710241 0.000000 
-0.302189 -1.663506 0.000000 
-0.458977 -1.940908 0.000000 
-0.429420 -1.903833 0.000000 
-0.464588 -1.851792 0.000000 
-0.427556 -1.814764 0.000000 
-0.453135 -1.763249 0.000000 
-0.407738 -1.727934 0.000000 
-0.425037 -1.678506 0.000000 
-0.370772 -1.646877 0.000000 
-0.381315 -1.600649 0.000000 
-0.046960 -1.904124 0.000000 
-0.095301 -1.998170 0.000000 
-0.098873 -1.945523 0.000000 
-0.149405 -1.930325 0.000000 
-0.140093 -2.089874 0.000000 
-0.148617 -2.041176 0.000000 
-0.205981 -2.030938 0.000000 
-0.203197 -1.972735 0.000000 
-0.248777 -1.953588 0.000000 
-0.184111 -2.180837 0.000000 
-0.194039 -2.133746 0.000000 
-0.254475 -2.126447 0.000000 
-0.257893 -2.072337 0.000000 
-0.309886 -2.056965 0.000000 
-0.303554 -1.996419 0.000000 
-0.347255 -1.976262 0.000000 
-0.228129 -2.271801 0.000000 
-0.238687 -2.225577 0.000000 
-0.301302 -2.220625 0.000000 
-0.307162 -2.168586 0.000000 
-0.363386 -2.156465 0.000000 
-0.362692 -2.098953 0.000000 
-0.412122 -2.081660 0.000000 
-0.403017 -2.019514 0.000000 
-0.445733 -1.998935 0.000000 
-0.000000 -1.926739 0.000000 
0.043388 -2.023169 0.000000 
-0.000000 -1.993137 0.000000 
-0.043388 -2.023169 0.000000 
0.087158 -2.115366 0.000000 
0.043769 -2.091668 0.000000 
-0.000000 -2.130133 0.000000 
-0.043769 -2.091668 0.000000 
-0.087158 -2.115366 0.000000 
0.130831 -2.206496 0.000000 
0.087824 -2.184897 0.000000 
0.044436 -2.227597 0.000000 
-0.000000 -2.196532 0.000000 
-0.044436 -2.227597 0.000000 
-0.087824 -2.184897 0.000000 
-0.130831 -2.206496 0.000000 
0.174505 -2.297625 0.000000 
0.131782 -2.277059 0.000000 
0.088871 -2.322926 0.000000 
0.044532 -2.295062 0.000000 
-0.000000 -2.331462 0.000000 
-0.044532 -2.295062 0.000000 
-0.088871 -2.322926 0.000000 
-0.131782 -2.277059 0.000000 
-0.174505 -2.297625 0.000000 
0.046960 -1.904124 0.000000 
0.149405 -1.930325 0.000000 
0.098873 -1.945523 0.000000 
0.095301 -1.998170 0.000000 
0.248777 -1.953588 0.000000 
0.203197 -1.972735 0.000000 
0.205981 -2.030938 0.000000 
0.148617 -2.041176 0.000000 
0.140093 -2.089874 0.000000 
0.347255 -1.976262 0.000000 
0.303554 -1.996419 0.000000 
0.309886 -2.056965 0.000000 
0.257893 -2.072337 0.000000 
0.254475 -2.126447 0.000000 
0.194039 -2.133746 0.000000 
0.184111 -2.180837 0.000000 
0.445733 -1.998935 0.000000 
0.403017 -2.019514 0.000000 
0.412122 -2.081660 0.000000 
0.362692 -2.098953 0.000000 
0.363386 -2.156465 0.000000 
0.307162 -2.168586 0.000000 
0.301302 -2.220625 0.000000 
0.238687 -2.225577 0.000000 
0.228129 -2.271801 0.000000 
0.058559 -1.853309 0.000000 
0.142917 -1.789550 0.000000 
0.123292 -1.838534 0.000000 
0.162226 -1.874151 0.000000 
0.223062 -1.726363 0.000000 
0.209613 -1.773937 0.000000 
0.256854 -1.808049 0.000000 
0.229092 -1.859281 0.000000 
0.261851 -1.896308 0.000000 
0.302189 -1.663506 0.000000 
0.290702 -1.710241 0.000000 
0.341985 -1.743040 0.000000 
0.321587 -1.793274 0.000000 
0.361761 -1.829683 0.000000 
0.329787 -1.881485 0.000000 
0.360414 -1.918608 0.000000 
0.381315 -1.600649 0.000000 
0.370772 -1.646877 0.000000 
0.425037 -1.678506 0.000000 
0.407738 -1.727934 0.000000 
0.453135 -1.763249 0.000000 
0.427556 -1.814764 0.000000 
0.464588 -1.851792 0.000000 
0.429420 -1.903833 0.000000 
0.458977 -1.940908 0.000000 
0.026061 -1.812558 0.000000 
0.028809 -1.706851 0.000000 
0.054870 -1.752735 0.000000 
0.106992 -1.744502 0.000000 
0.029377 -1.604794 0.000000 
0.058186 -1.644972 0.000000 
0.114311 -1.629306 0.000000 
0.137056 -1.682953 0.000000 
0.186430 -1.680427 0.000000 
0.029568 -1.503740 0.000000 
0.058945 -1.541860 0.000000 
0.116563 -1.522215 0.000000 
0.143120 -1.569483 0.000000 
0.196633 -1.560774 0.000000 
0.217198 -1.618071 0.000000 
0.265318 -1.617271 0.000000 
0.029759 -1.402686 0.000000 
0.059328 -1.439752 0.000000 
0.117890 -1.417046 0.000000 
0.145749 -1.461389 0.000000 
0.201664 -1.447915 0.000000 
0.225992 -1.500032 0.000000 
0.278030 -1.494165 0.000000 
0.296791 -1.554108 0.000000 
0.344206 -1.554115 0.000000 
CELLS 175 350 
1 0 
1 1 
1 2 
1 3 
1 4 
1 5 
1 6 
1 7 
1 8 
1 9 
1 10 
1 11 
1 12 
1 13 
1 14 
1 15 
1 16 
1 17 
1 18 
1 19 
1 20 
1 21 
1 22 
1 23 
1 24 
1 25 
1 26 
1 27 
1 28 
1 29 
1 30 
1 31 
1 32 
1 33 
1 34 
1 35 
1 36 
1 37 
1 38 
1 39 
1 40 
1 41 
1 42 
1 43 
1 44 
1 45 
1 46 
1 47 
1 48 
1 49 
1 50 
1 51 
1 52 
1 53 
1 54 
1 55 
1 56 
1 57 
1 58 
1 59 
1 60 
1 61 
1 62 
1 63 
1 64 
1 65 
1 66 
1 67 
1 68 
1 69 
1 70 
1 71 
1 72 
1 73 
1 74 
1 75 
1 76 
1 77 
1 78 
1 79 
1 80 
1 81 
1 82 
1 83 
1 84 
1 85 
1 86 
1 87 
1 88 
1 89 
1 90 
1 91 
1 92 
1 93 
1 94 
1 95 
1 96 
1 97 
1 98 
1 99 
1 100 
1 101 
1 102 
1 103 
1 104 
1 105 
1 106 
1 107 
1 108 
1 109 
1 110 
1 111 
1 112 
1 113 
1 114 
1 115 
1 116 
1 117 
1 118 
1 119 
1 120 
1 121 
1 122 
1 123 
1 124 
1 125 
1 126 
1 127 
1 128 
1 129 
1 130 
1 131 
1 132 
1 133 
1 134 
1 135 
1 136 
1 137 
1 138 
1 139 
1 140 
1 141 
1 142 
1 143 
1 144 
1 145 
1 146 
1 147 
1 148 
1 149 
1 150 
1 151 
1 152 
1 153 
1 154 
1 155 
1 156 
1 157 
1 158 
1 159 
1 160 
1 161 
1 162 
1 163 
1 164 
1 165 
1 166 
1 167 
1 168 
1 169 
1 170 
1 171 
1 172 
1 173 
1 174 
CELL_TYPES 175 
1 
1 
1 
1 
1 
1 
1 
1 
1 
1 
1 
1 
1 
1 
1 
1 
1 
1 
1 
1 
1 
1 
1 
1 
1 
1 
1 
1 
1 
1 
1 
1 
1 
1 
1 
1 
1 
1 
1 
1 
1 
1 
1 
1 
1 
1 
1 
1 
1 
1 
1 
1 
1 
1 
1 
1 
1 
1 
1 
1 
1 
1 
1 
1 
1 
1 
1 
1 
1 
1 
1 
1 
1 
1 
1 
1 
1 
1 
1 
1 
1 
1 
1 
1 
1 
1 
1 
1 
1 
1 
1 
1 
1 
1 
1 
1 
1 
1 
1 
1 
1 
1 
1 
1 
1 
1 
1 
1 
1 
1 
1 
1 
1 
1 
1 
1 
1 
1 
1 
1 
1 
1 
1 
1 
1 
1 
1 
1 
1 
1 
1 
1 
1 
1 
1 
1 
1 
1 
1 
1 
1 
1 
1 
1 
1 
1 
1 
1 
1 
1 
1 
1 
1 
1 
1 
1 
1 
1 
1 
1 
1 
1 
1 
1 
1 
1 
1 
1 
1 
1 
1 
1 
1 
1 
1 
POINT_DATA 175 
VECTORS X_GC float 
-0.026061 -1.812558 0.000000 
-0.106992 -1.744502 0.000000 
-0.054870 -1.752735 0.000000 
-0.028809 -1.706851 0.000000 
-0.186430 -1.680427 0.000000 
-0.137056 -1.682953 0.000000 
-0.114311 -1.629306 0.000000 
-0.058186 -1.644972 0.000000 
-0.029377 -1.604794 0.000000 
-0.265318 -1.617271 0.000000 
-0.217198 -1.618071 0.000000 
-0.196633 -1.560774 0.000000 
-0.143120 -1.569483 0.000000 
-0.116563 -1.522215 0.000000 
-0.058945 -1.541860 0.000000 
-0.029568 -1.503740 0.000000 
-0.344206 -1.554115 0.000000 
-0.296791 -1.554108 0.000000 
-0.278030 -1.494165 0.000000 
-0.225992 -1.500032 0.000000 
-0.201664 -1.447915 0.000000 
-0.145749 -1.461389 0.000000 
-0.117890 -1.417046 0.000000 
-0.059328 -1.439752 0.000000 
-0.029759 -1.402686 0.000000 
-0.058559 -1.853309 0.000000 
-0.162226 -1.874151 0.000000 
-0.123292 -1.838534 0.000000 
-0.142917 -1.789550 0.000000 
-0.261851 -1.896308 0.000000 
-0.229092 -1.859281 0.000000 
-0.256854 -1.808049 0.000000 
-0.209613 -1.773937 0.000000 
-0.223062 -1.726363 0.000000 
-0.360414 -1.918608 0.000000 
-0.329787 -1.881485 0.000000 
-0.361761 -1.829683 0.000000 
-0.321587 -1.793274 0.000000 
-0.341985 -1.743040 0.000000 
-0.290702 -1.710241 0.000000 
-0.302189 -1.663506 0.000000 
-0.458977 -1.940908 0.000000 
-0.429420 -1.903833 0.000000 
-0.464588 -1.851792 0.000000 
-0.427556 -1.814764 0.000000 
-0.453135 -1.763249 0.000000 
-0.407738 -1.727934 0.000000 
-0.425037 -1.678506 0.000000 
-0.370772 -1.646877 0.000000 
-0.381315 -1.600649 0.000000 
-0.046960 -1.904124 0.000000 
-0.095301 -1.998170 0.000000 
-0.098873 -1.945523 0.000000 
-0.149405 -1.930325 0.000000 
-0.140093 -2.089874 0.000000 
-0.148617 -2.041176 0.000000 
-0.205981 -2.030938 0.000000 
-0.203197 -1.972735 0.000000 
-0.248777 -1.953588 0.000000 
-0.184111 -2.180837 0.000000 
-0.194039 -2.133746 0.000000 
-0.254475 -2.126447 0.000000 
-0.257893 -2.072337 0.000000 
-0.309886 -2.056965 0.000000 
-0.303554 -1.996419 0.000000 
-0.347255 -1.976262 0.000000 
-0.228129 -2.271801 0.000000 
-0.238687 -2.225577 0.000000 
-0.301302 -2.220625 0.000000 
-0.307162 -2.168586 0.000000 
-0.363386 -2.156465 0.000000 
-0.362692 -2.098953 0.000000 
-0.412122 -2.081660 0.000000 
-0.403017 -2.019514 0.000000 
-0.445733 -1.998935 0.000000 
-0.000000 -1.926739 0.000000 
0.043388 -2.023169 0.000000 
-0.000000 -1.993137 0.000000 
-0.043388 -2.023169 0.000000 
0.087158 -2.115366 0.000000 
0.043769 -2.091668 0.000000 
-0.000000 -2.130133 0.000000 
-0.043769 -2.091668 0.000000 
-0.087158 -2.115366 0.000000 
0.130831 -2.206496 0.000000 
0.087824 -2.184897 0.000000 
0.044436 -2.227597 0.000000 
-0.000000 -2.196532 0.000000 
-0.044436 -2.227597 0.000000 
-0.087824 -2.184897 0.000000 
-0.130831 -2.206496 0.000000 
0.174505 -2.297625 0.000000 
0.131782 -2.277059 0.000000 
0.088871 -2.322926 0.000000 
0.044532 -2.295062 0.000000 
-0.000000 -2.331462 0.000000 
-0.044532 -2.295062 0.000000 
-0.088871 -2.322926 0.000000 
-0.131782 -2.277059 0.000000 
-0.174505 -2.297625 0.000000 
0.046960 -1.904124 0.000000 
0.149405 -1.930325 0.000000 
0.098873 -1.945523 0.000000 
0.095301 -1.998170 0.000000 
0.248777 -1.953588 0.000000 
0.203197 -1.972735 0.000000 
0.205981 -2.030938 0.000000 
0.148617 -2.041176 0.000000 
0.140093 -2.089874 0.000000 
0.347255 -1.976262 0.000000 
0.303554 -1.996419 0.000000 
0.309886 -2.056965 0.000000 
0.257893 -2.072337 0.000000 
0.254475 -2.126447 0.000000 
0.194039 -2.133746 0.000000 
0.184111 -2.180837 0.000000 
0.445733 -1.998935 0.000000 
0.403017 -2.019514 0.000000 
0.412122 -2.081660 0.000000 
0.362692 -2.098953 0.000000 
0.363386 -2.156465 0.000000 
0.307162 -2.168586 0.000000 
0.301302 -2.220625 0.000000 
0.238687 -2.225577 0.000000 
0.228129 -2.271801 0.000000 
0.058559 -1.853309 0.000000 
0.142917 -1.789550 0.000000 
0.123292 -1.838534 0.000000 
0.162226 -1.874151 0.000000 
0.223062 -1.726363 0.000000 
0.209613 -1.773937 0.000000 
0.256854 -1.808049 0.000000 
0.229092 -1.859281 0.000000 
0.261851 -1.896308 0.000000 
0.302189 -1.663506 0.000000 
0.290702 -1.710241 0.000000 
0.341985 -1.743040 0.000000 
0.321587 -1.793274 0.000000 
0.361761 -1.829683 0.000000 
0.329787 -1.881485 0.000000 
0.360414 -1.918608 0.000000 
0.381315 -1.600649 0.000000 
0.370772 -1.646877 0.000000 
0.425037 -1.678506 0.000000 
0.407738 -1.727934 0.000000 
0.453135 -1.763249 0.000000 
0.427556 -1.814764 0.000000 
0.464588 -1.851792 0.000000 
0.429420 -1.903833 0.000000 
0.458977 -1.940908 0.000000 
0.026061 -1.812558 0.000000 
0.028809 -1.706851 0.000000 
0.054870 -1.752735 0.000000 
0.106992 -1.744502 0.000000 
0.029377 -1.604794 0.000000 
0.058186 -1.644972 0.000000 
0.114311 -1.629306 0.000000 
0.137056 -1.682953 0.000000 
0.186430 -1.680427 0.000000 
0.029568 -1.503740 0.000000 
0.058945 -1.541860 0.000000 
0.116563 -1.522215 0.000000 
0.143120 -1.569483 0.000000 
0.196633 -1.560774 0.000000 
0.217198 -1.618071 0.000000 
0.265318 -1.617271 0.000000 
0.029759 -1.402686 0.000000 
0.059328 -1.439752 0.000000 
0.117890 -1.417046 0.000000 
0.145749 -1.461389 0.000000 
0.201664 -1.447915 0.000000 
0.225992 -1.500032 0.000000 
0.278030 -1.494165 0.000000 
0.296791 -1.554108 0.000000 
0.344206 -1.554115 0.000000 
VECTORS X_EC float 
0.338794 0.969532 0.000000 
-0.609100 0.050784 0.000000 
0.713312 0.161925 0.000000 
0.374519 -0.457505 0.000000 
0.423588 -0.814236 0.000000 
-0.218274 -0.780132 0.000000 
-0.513962 0.495629 0.000000 
0.756418 0.707115 0.000000 
0.381900 0.164723 0.000000 
-0.550868 0.333161 0.000000 
0.823577 0.343957 0.000000 
0.556234 -0.429547 0.000000 
-0.139443 -0.311978 0.000000 
-0.484677 -0.950103 0.000000 
0.766286 -0.684888 0.000000 
0.384386 0.800492 0.000000 
0.474677 -0.519442 0.000000 
-0.141715 -0.519538 0.000000 
-0.385608 0.671234 0.000000 
0.937896 0.750429 0.000000 
0.621631 0.046849 0.000000 
-0.105264 0.228748 0.000000 
-0.467428 -0.369878 0.000000 
0.771260 -0.063350 0.000000 
0.386873 -0.563739 0.000000 
0.761262 -0.480333 0.000000 
0.108942 -0.198957 0.000000 
-0.397202 -0.679796 0.000000 
-0.142083 0.658929 0.000000 
-0.595936 0.100154 0.000000 
0.978194 -0.399712 0.000000 
-0.660903 0.908663 0.000000 
0.724964 0.448143 0.000000 
0.899809 -0.194106 0.000000 
0.685384 0.401206 0.000000 
0.287229 -0.099952 0.000000 
0.702895 -0.799281 0.000000 
0.180633 0.709200 0.000000 
0.445811 0.031041 0.000000 
-0.220880 -0.411745 0.000000 
-0.071546 0.957329 0.000000 
-0.033296 0.702258 0.000000 
-0.417537 0.201749 0.000000 
0.039645 -0.500814 0.000000 
-0.441768 0.999315 0.000000 
-0.109248 0.303864 0.000000 
-0.699407 -0.172891 0.000000 
-0.474522 -0.840170 0.000000 
0.820030 0.732836 0.000000 
0.957100 0.108764 0.000000 
0.610485 0.205673 0.000000 
-0.761092 -0.524708 0.000000 
-0.714655 0.764555 0.000000 
-0.057734 0.559388 0.000000 
-0.178789 0.713297 0.000000 
-0.067979 0.055870 0.000000 
0.677748 -0.082333 0.000000 
0.641556 -0.868078 0.000000 
-0.765897 0.873443 0.000000 
0.393446 -0.058694 0.000000 
0.522510 -0.694424 0.000000 
-0.691820 -0.792969 0.000000 
-0.647393 0.476549 0.000000 
0.028512 0.269022 0.000000 
-0.053800 -0.548338 0.000000 
0.514316 -0.820469 0.000000 
0.965681 -0.830685 0.000000 
-0.897068 0.545286 0.000000 
-0.083078 0.478433 0.000000 
-0.006893 -0.224092 0.000000 
0.724017 -0.387725 0.000000 
0.714996 0.835872 0.000000 
-0.642413 0.602415 0.000000 
-0.760780 -0.236566 0.000000 
-0.205471 -0.514381 0.000000 
0.000000 0.510975 0.000000 
-0.564049 -0.187213 0.000000 
0.000000 -0.592648 0.000000 
0.564049 -0.187213 0.000000 
0.866949 -0.942557 0.000000 
-0.569003 0.737512 0.000000 
0.000000 -0.743200 0.000000 
0.569003 0.737512 0.000000 
-0.866949 -0.942557 0.000000 
0.299194 0.287693 0.000000 
0.858290 -0.003891 0.000000 
-0.577662 0.572555 0.000000 
0.000000 0.153177 0.000000 
0.577662 0.572555 0.000000 
-0.858290 -0.003891 0.000000 
-0.299194 0.287693 0.000000 
-0.268560 -0.482057 0.000000 
0.286830 -0.759699 0.000000 
0.844677 -0.140501 0.000000 
-0.578910 -0.516663 0.000000 
0.000000 -0.025259 0.000000 
0.578910 -0.516663 0.000000 
-0.844677 -0.140501 0.000000 
-0.286830 -0.759699 0.000000 
0.268560 -0.482057 0.000000 
-0.610485 0.205673 0.000000 
0.057734 0.559388 0.000000 
0.714655 0.764555 0.000000 
0.761092 -0.524708 0.000000 
0.765897 0.873443 0.000000 
-0.641556 -0.868078 0.000000 
-0.677748 -0.082333 0.000000 
0.067979 0.055870 0.000000 
0.178789 0.713297 0.000000 
-0.514316 -0.820469 0.000000 
0.053800 -0.548338 0.000000 
-0.028512 0.269022 0.000000 
0.647393 0.476549 0.000000 
0.691820 -0.792969 0.000000 
-0.522510 -0.694424 0.000000 
-0.393446 -0.058694 0.000000 
0.205471 -0.514381 0.000000 
0.760780 -0.236566 0.000000 
0.642413 0.602415 0.000000 
-0.714996 0.835872 0.000000 
-0.724017 -0.387725 0.000000 
0.006894 -0.224092 0.000000 
0.083078 0.478433 0.000000 
0.897068 0.545286 0.000000 
-0.965681 -0.830685 0.000000 
-0.761262 -0.480333 0.000000 
0.142083 0.658929 0.000000 
0.397202 -0.679796 0.000000 
-0.108942 -0.198957 0.000000 
-0.899809 -0.194106 0.000000 
-0.724964 0.448143 0.000000 
0.660903 0.908663 0.000000 
-0.978194 -0.399712 0.000000 
0.595936 0.100154 0.000000 
0.071546 0.957329 0.000000 
0.220880 -0.411745 0.000000 
-0.445811 0.031041 0.000000 
-0.180633 0.709200 0.000000 
-0.702895 -0.799281 0.000000 
-0.287229 -0.099952 0.000000 
-0.685384 0.401206 0.000000 
-0.957100 0.108764 0.000000 
-0.820030 0.732836 0.000000 
0.474522 -0.840170 0.000000 
0.699407 -0.172891 0.000000 
0.109248 0.303864 0.000000 
0.441768 0.999315 0.000000 
-0.039645 -0.500814 0.000000 
0.417537 0.201749 0.000000 
0.033296 0.702258 0.000000 
-0.338794 0.969532 0.000000 
-0.374519 -0.457505 0.000000 
-0.713312 0.161925 0.000000 
0.609100 0.050784 0.000000 
-0.381900 0.164723 0.000000 
-0.756418 0.707115 0.000000 
0.513962 0.495629 0.000000 
0.218274 -0.780132 0.000000 
-0.423588 -0.814236 0.000000 
-0.384386 0.800492 0.000000 
-0.766286 -0.684888 0.000000 
0.484677 -0.950103 0.000000 
0.139443 -0.311978 0.000000 
-0.556234 -0.429547 0.000000 
-0.823577 0.343957 0.000000 
0.550868 0.333161 0.000000 
-0.386873 -0.563739 0.000000 
-0.771260 -0.063350 0.000000 
0.467428 -0.369878 0.000000 
0.105264 0.228748 0.000000 
-0.621631 0.046849 0.000000 
-0.937896 0.750429 0.000000 
0.385608 0.671234 0.000000 
0.141715 -0.519538 0.000000 
-0.474677 -0.519442 0.000000 
CELL_DATA 175 
SCALARS MASS float 
LOOKUP_TABLE default 
0.781831 
0.864274 
0.946717 
0.864274 
0.881307 
0.921110 
0.858535 
0.921110 
0.881307 
0.887046 
0.910001 
0.869829 
0.915556 
0.869829 
0.910001 
0.887046 
0.892784 
0.915740 
0.892784 
0.927218 
0.892784 
0.927218 
0.892784 
0.915740 
0.892784 
0.781831 
0.864274 
0.946717 
0.864274 
0.881307 
0.921110 
0.858535 
0.921110 
0.881307 
0.887046 
0.910001 
0.869829 
0.915556 
0.869829 
0.910001 
0.887046 
0.892784 
0.915740 
0.892784 
0.927218 
0.892784 
0.927218 
0.892784 
0.915740 
0.892784 
0.781831 
0.864274 
0.946717 
0.864274 
0.881307 
0.921110 
0.858535 
0.921110 
0.881307 
0.887046 
0.910001 
0.869829 
0.915556 
0.869829 
0.910001 
0.887046 
0.892784 
0.915740 
0.892784 
0.927218 
0.892784 
0.927218 
0.892784 
0.915740 
0.892784 
0.781831 
0.864274 
0.946717 
0.864274 
0.881307 
0.921110 
0.858535 
0.921110 
0.881307 
0.887046 
0.910001 
0.869829 
0.915556 
0.869829 
0.910001 
0.887046 
0.892784 
0.915740 
0.892784 
0.927218 
0.892784 
0.927218 
0.892784 
0.915740 
0.892784 
0.781831 
0.864274 
0.946717 
0.864274 
0.881307 
0.921110 
0.858535 
0.921110 
0.881307 
0.887046 
0.910001 
0.869829 
0.915556 
0.869829 
0.910001 
0.887046 
0.892784 
0.915740 
0.892784 
0.927218 
0.892784 
0.927218 
0.892784 
0.915740 
0.892784 
0.781831 
0.864274 
0.946717 
0.864274 
0.881307 
0.921110 
0.858535 
0.921110 
0.881307 
0.887046 
0.910001 
0.869829 
0.915556 
0.869829 
0.910001 
0.887046 
0.892784 
0.915740 
0.892784 
0.927218 
0.892784 
0.927218 
0.892784 
0.915740 
0.892784 
0.781831 
0.864274 
0.946717 
0.864274 
0.881307 
0.921110 
0.858535 
0.921110 
0.881307 
0.887046 
0.910001 
0.869829 
0.915556 
0.869829 
0.910001 
0.887046 
0.892784 
0.915740 
0.892784 
0.927218 
0.892784 
0.927218 
0.892784 
0.915740 
0.892784 
SCALARS MASS float 
LOOKUP_TABLE default 
0.781831 
0.864274 
0.946717 
0.864274 
0.881307 
0.921110 
0.858535 
0.921110 
0.881307 
0.887046 
0.910001 
0.869829 
0.915556 
0.869829 
0.910001 
0.887046 
0.892784 
0.915740 
0.892784 
0.927218 
0.892784 
0.927218 
0.892784 
0.915740 
0.892784 
0.781831 
0.864274 
0.946717 
0.864274 
0.881307 
0.921110 
0.858535 
0.921110 
0.881307 
0.887046 
0.910001 
0.869829 
0.915556 
0.869829 
0.910001 
0.887046 
0.892784 
0.915740 
0.892784 
0.927218 
0.892784 
0.927218 
0.892784 
0.915740 
0.892784 
0.781831 
0.864274 
0.946717 
0.864274 
0.881307 
0.921110 
0.858535 
0.921110 
0.881307 
0.887046 
0.910001 
0.869829 
0.915556 
0.869829 
0.910001 
0.887046 
0.892784 
0.915740 
0.892784 
0.927218 
0.892784 
0.927218 
0.892784 
0.915740 
0.892784 
0.781831 
0.864274 
0.946717 
0.864274 
0.881307 
0.921110 
0.858535 
0.921110 
0.881307 
0.887046 
0.910001 
0.869829 
0.915556 
0.869829 
0.910001 
0.887046 
0.892784 
0.915740 
0.892784 
0.927218 
0.892784 
0.927218 
0.892784 
0.915740 
0.892784 
0.781831 
0.864274 
0.946717 
0.864274 
0.881307 
0.921110 
0.858535 
0.921110 
0.881307 
0.887046 
0.910001 
0.869829 
0.915556 
0.869829 
0.910001 
0.887046 
0.892784 
0.915740 
0.892784 
0.927218 
0.892784 
0.927218 
0.892784 
0.915740 
0.892784 
0.781831 
0.864274 
0.946717 
0.864274 
0.881307 
0.921110 
0.858535 
0.921110 
0.881307 
0.887046 
0.910001 
0.869829 
0.915556 
0.869829 
0.910001 
0.887046 
0.892784 
0.915740 
0.892784 
0.927218 
0.892784 
0.927218 
0.892784 
0.915740 
0.892784 
0.781831 
0.864274 
0.946717 
0.864274 
0.881307 
0.921110 
0.858535 
0.921110 
0.881307 
0.887046 
0.910001 
0.869829 
0.915556 
0.869829 
0.910001 
0.887046 
0.892784 
0.915740 
0.892784 
0.927218 
0.892784 
0.927218 
0.892784 
0.915740 
0.892784 
SCALARS DENSITY float 
LOOKUP_TABLE default 
200.000000 
200.000000 
200.000000 
200.000000 
200.000000 
200.000000 
200.000000 
200.000000 
200.000000 
200.000000 
200.000000 
200.000000 
200.000000 
200.000000 
200.000000 
200.000000 
200.000000 
200.000000 
200.000000 
200.000000 
200.000000 
200.000000 
200.000000 
200.000000 
200.000000 
200.000000 
200.000000 
200.000000 
200.000000 
200.000000 
200.000000 
200.000000 
200.000000 
200.000000 
200.000000 
200.000000 
200.000000 
200.000000 
200.000000 
200.000000 
200.000000 
200.000000 
200.000000 
200.000000 
200.000000 
200.000000 
200.000000 
200.000000 
200.000000 
200.000000 
200.000000 
200.000000 
200.000000 
200.000000 
200.000000 
200.000000 
200.000000 
200.000000 
200.000000 
200.000000 
200.000000 
200.000000 
200.000000 
200.000000 
200.000000 
200.000000 
200.000000 
200.000000 
200.000000 
200.000000 
200.000000 
200.000000 
200.000000 
200.000000 
200.000000 
200.000000 
200.000000 
200.000000 
200.000000 
200.000000 
200.000000 
200.000000 
200.000000 
200.000000 
200.000000 
200.000000 
200.000000 
200.000000 
200.000000 
200.000000 
200.000000 
200.000000 
200.000000 
200.000000 
200.000000 
200.000000 
200.000000 
200.000000 
200.000000 
200.000000 
200.000000 
200.000000 
200.000000 
200.000000 
200.000000 
200.000000 
200.000000 
200.000000 
200.000000 
200.000000 
200.000000 
200.000000 
200.000000 
200.000000 
200.000000 
200.000000 
200.000000 
200.000000 
200.000000 
200.000000 
200.000000 
200.000000 
200.000000 
200.000000 
200.000000 
200.000000 
200.000000 
200.000000 
200.000000 
200.000000 
200.000000 
200.000000 
200.000000 
200.000000 
200.000000 
200.000000 
200.000000 
200.000000 
200.000000 
200.000000 
200.000000 
200.000000 
200.000000 
200.000000 
200.000000 
200.000000 
200.000000 
200.000000 
200.000000 
200.000000 
200.000000 
200.000000 
200.000000 
200.000000 
200.000000 
200.000000 
200.000000 
200.000000 
200.000000 
200.000000 
200.000000 
200.000000 
200.000000 
200.000000 
200.000000 
200.000000 
200.000000 
200.000000 
200.000000 
200.000000 
200.000000 
200.000000 
200.000000 
200.000000 
200.000000 
SCALARS ELEM_i float 
LOOKUP_TABLE default 
170 
197 
170 
170 
197 
197 
198 
171 
171 
225 
198 
198 
198 
198 
171 
172 
225 
225 
226 
199 
199 
199 
199 
172 
172 
169 
196 
196 
197 
223 
196 
224 
197 
197 
223 
223 
223 
224 
224 
224 
225 
250 
250 
250 
251 
251 
251 
251 
225 
225 
169 
195 
196 
196 
195 
195 
195 
195 
223 
194 
194 
221 
222 
222 
222 
222 
193 
221 
221 
221 
221 
222 
249 
249 
249 
169 
168 
168 
168 
140 
168 
167 
168 
194 
140 
140 
167 
167 
167 
194 
194 
139 
139 
139 
166 
166 
166 
193 
193 
193 
169 
142 
142 
141 
115 
141 
141 
141 
141 
114 
114 
114 
114 
113 
140 
140 
87 
87 
87 
114 
113 
113 
113 
113 
139 
169 
143 
142 
142 
143 
143 
116 
142 
115 
117 
116 
116 
116 
115 
115 
115 
117 
117 
89 
89 
89 
89 
88 
88 
88 
170 
170 
170 
143 
171 
171 
144 
143 
143 
172 
171 
144 
144 
144 
144 
117 
172 
172 
145 
145 
145 
145 
118 
117 
117 
VECTORS VELOCITY float 
0.000000 -6.050808 0.000000 
0.000000 -6.050808 0.000000 
0.000000 -6.050808 0.000000 
0.000000 -6.050808 0.000000 
0.000000 -6.050808 0.000000 
0.000000 -6.050808 0.000000 
0.000000 -6.050808 0.000000 
0.000000 -6.050808 0.000000 
0.000000 -6.050808 0.000000 
0.000000 -6.050808 0.000000 
0.000000 -6.050808 0.000000 
0.000000 -6.050808 0.000000 
0.000000 -6.050808 0.000000 
-0.000000 -6.050808 0.000000 
-0.000000 -6.050808 0.000000 
-0.000000 -6.050808 0.000000 
0.000000 -6.050808 0.000000 
0.000000 -6.050808 0.000000 
0.000000 -6.050808 0.000000 
0.000000 -6.050808 0.000000 
0.000000 -6.050808 0.000000 
0.000000 -6.050808 0.000000 
0.000000 -6.050808 0.000000 
0.000000 -6.050808 0.000000 
0.000000 -6.050808 0.000000 
0.000000 -6.050808 0.000000 
0.000000 -6.050808 0.000000 
0.000000 -6.050808 0.000000 
0.000000 -6.050808 0.000000 
-0.000000 -6.050808 0.000000 
-0.000000 -6.050808 0.000000 
-0.000000 -6.050808 0.000000 
0.000000 -6.050808 0.000000 
0.000000 -6.050808 0.000000 
-0.000000 -6.050808 0.000000 
0.000000 -6.050808 0.000000 
0.000000 -6.050808 0.000000 
0.000000 -6.050808 0.000000 
0.000000 -6.050808 0.000000 
0.000000 -6.050808 0.000000 
0.000000 -6.050808 0.000000 
0.000000 -6.050808 0.000000 
-0.000000 -6.050808 0.000000 
-0.000000 -6.050808 0.000000 
0.000000 -6.050808 0.000000 
0.000000 -6.050808 0.000000 
0.000000 -6.050808 0.000000 
-0.000000 -6.050808 0.000000 
0.000000 -6.050808 0.000000 
0.000000 -6.050808 0.000000 
0.000000 -6.050808 0.000000 
-0.000000 -6.050808 0.000000 
-0.000000 -6.050808 0.000000 
-0.000000 -6.050808 0.000000 
0.000000 -6.050808 0.000000 
-0.000000 -6.050808 0.000000 
0.000000 -6.050808 0.000000 
-0.000000 -6.050808 0.000000 
0.000000 -6.050808 0.000000 
-0.000000 -6.050808 0.000000 
-0.000000 -6.050808 0.000000 
-0.000000 -6.050808 0.000000 
-0.000000 -6.050808 0.000000 
-0.000000 -6.050808 0.000000 
0.000000 -6.050808 0.000000 
0.000000 -6.050808 0.000000 
-0.000000 -6.050808 0.000000 
-0.000000 -6.050808 0.000000 
-0.000000 -6.050808 0.000000 
-0.000000 -6.050808 0.000000 
-0.000000 -6.050808 0.000000 
0.000000 -6.050808 0.000000 
-0.000000 -6.050808 0.000000 
0.000000 -6.050808 0.000000 
-0.000000 -6.050808 0.000000 
-0.000000 -6.050808 0.000000 
-0.000000 -6.050808 0.000000 
-0.000000 -6.050808 0.000000 
-0.000000 -6.050808 0.000000 
0.000000 -6.050808 0.000000 
0.000000 -6.050808 0.000000 
0.000000 -6.050808 0.000000 
0.000000 -6.050808 0.000000 
0.000000 -6.050808 0.000000 
-0.000000 -6.050808 0.000000 
-0.000000 -6.050808 0.000000 
-0.000000 -6.050808 0.000000 
-0.000000 -6.050808 0.000000 
-0.000000 -6.050808 0.000000 
0.000000 -6.050808 0.000000 
-0.000000 -6.050808 0.000000 
-0.000000 -6.050808 0.000000 
-0.000000 -6.050808 0.000000 
0.000000 -6.050808 0.000000 
0.000000 -6.050808 0.000000 
-0.000000 -6.050808 0.000000 
-0.000000 -6.050808 0.000000 
-0.000000 -6.050808 0.000000 
-0.000000 -6.050808 0.000000 
-0.000000 -6.050808 0.000000 
-0.000000 -6.050808 0.000000 
-0.000000 -6.050808 0.000000 
-0.000000 -6.050808 0.000000 
-0.000000 -6.050808 0.000000 
0.000000 -6.050808 0.000000 
0.000000 -6.050808 0.000000 
-0.000000 -6.050808 0.000000 
0.000000 -6.050808 0.000000 
0.000000 -6.050808 0.000000 
-0.000000 -6.050808 0.000000 
-0.000000 -6.050808 0.000000 
-0.000000 -6.050808 0.000000 
-0.000000 -6.050808 0.000000 
-0.000000 -6.050808 0.000000 
-0.000000 -6.050808 0.000000 
0.000000 -6.050808 0.000000 
0.000000 -6.050808 0.000000 
-0.000000 -6.050808 0.000000 
0.000000 -6.050808 0.000000 
-0.000000 -6.050808 0.000000 
-0.000000 -6.050808 0.000000 
0.000000 -6.050808 0.000000 
0.000000 -6.050808 0.000000 
0.000000 -6.050808 0.000000 
-0.000000 -6.050808 0.000000 
-0.000000 -6.050808 0.000000 
-0.000000 -6.050808 0.000000 
-0.000000 -6.050808 0.000000 
-0.000000 -6.050808 0.000000 
0.000000 -6.050808 0.000000 
-0.000000 -6.050808 0.000000 
-0.000000 -6.050808 0.000000 
-0.000000 -6.050808 0.000000 
-0.000000 -6.050808 0.000000 
0.000000 -6.050808 0.000000 
0.000000 -6.050808 0.000000 
0.000000 -6.050808 0.000000 
0.000000 -6.050808 0.000000 
0.000000 -6.050808 0.000000 
0.000000 -6.050808 0.000000 
0.000000 -6.050808 0.000000 
0.000000 -6.050808 0.000000 
0.000000 -6.050808 0.000000 
-0.000000 -6.050808 0.000000 
0.000000 -6.050808 0.000000 
-0.000000 -6.050808 0.000000 
0.000000 -6.050808 0.000000 
-0.000000 -6.050808 0.000000 
-0.000000 -6.050808 0.000000 
0.000000 -6.050808 0.000000 
0.000000 -6.050808 0.000000 
0.000000 -6.050808 0.000000 
-0.000000 -6.050808 0.000000 
-0.000000 -6.050808 0.000000 
0.000000 -6.050808 0.000000 
0.000000 -6.050808 0.000000 
0.000000 -6.050808 0.000000 
0.000000 -6.050808 0.000000 
0.000000 -6.050808 0.000000 
-0.000000 -6.050808 0.000000 
0.000000 -6.050808 0.000000 
0.000000 -6.050808 0.000000 
-0.000000 -6.050808 0.000000 
-0.000000 -6.050808 0.000000 
-0.000000 -6.050808 0.000000 
0.000000 -6.050808 0.000000 
-0.000000 -6.050808 0.000000 
-0.000000 -6.050808 0.000000 
-0.000000 -6.050808 0.000000 
-0.000000 -6.050808 0.000000 
-0.000000 -6.050808 0.000000 
-0.000000 -6.050808 0.000000 
-0.000000 -6.050808 0.000000 
0.000000 -6.050808 0.000000 
0.000000 -6.050808 0.000000 
TENSORS STRESS float 
0.000000 -0.000000 0.000000 
0.000000 0.000000 0.000000 
0.000000 0.000000 0.000000 

0.000000 -0.000000 0.000000 
0.000000 0.000000 0.000000 
0.000000 0.000000 0.000000 

0.000000 -0.000000 0.000000 
0.000000 0.000000 0.000000 
0.000000 0.000000 0.000000 

0.000000 0.000000 0.000000 
0.000000 0.000000 0.000000 
0.000000 0.000000 0.000000 

-0.000000 -0.000000 0.000000 
0.000000 -0.000000 0.000000 
0.000000 0.000000 0.000000 

0.000000 -0.000000 0.000000 
0.000000 0.000000 0.000000 
0.000000 0.000000 0.000000 

-0.000000 -0.000000 0.000000 
0.000000 -0.000000 0.000000 
0.000000 0.000000 0.000000 

-0.000000 -0.000000 0.000000 
0.000000 -0.000000 0.000000 
0.000000 0.000000 0.000000 

0.000000 -0.000000 0.000000 
0.000000 0.000000 0.000000 
0.000000 0.000000 0.000000 

0.000000 0.000000 0.000000 
0.000000 0.000000 0.000000 
0.000000 0.000000 0.000000 

-0.000000 -0.000000 0.000000 
0.000000 -0.000000 0.000000 
0.000000 0.000000 0.000000 

-0.000000 -0.000000 0.000000 
0.000000 -0.000000 0.000000 
0.000000 0.000000 0.000000 

0.000000 0.000000 0.000000 
0.000000 0.000000 0.000000 
0.000000 0.000000 0.000000 

0.000000 0.000000 0.000000 
0.000000 0.000000 0.000000 
0.000000 0.000000 0.000000 

-0.000000 0.000000 0.000000 
0.000000 -0.000000 0.000000 
0.000000 0.000000 0.000000 

0.000000 0.000000 0.000000 
0.000000 0.000000 0.000000 
0.000000 0.000000 0.000000 

-0.000000 0.000000 0.000000 
0.000000 -0.000000 0.000000 
0.000000 0.000000 0.000000 

-0.000000 0.000000 0.000000 
0.000000 -0.000000 0.000000 
0.000000 0.000000 0.000000 

0.000000 -0.000000 0.000000 
0.000000 0.000000 0.000000 
0.000000 0.000000 0.000000 

-0.000000 -0.000000 0.000000 
0.000000 -0.000000 0.000000 
0.000000 0.000000 0.000000 

0.000000 -0.000000 0.000000 
0.000000 0.000000 0.000000 
0.000000 0.000000 0.000000 

-0.000000 0.000000 0.000000 
0.000000 -0.000000 0.000000 
0.000000 0.000000 0.000000 

-0.000000 0.000000 0.000000 
0.000000 -0.000000 0.000000 
0.000000 0.000000 0.000000 

-0.000000 0.000000 0.000000 
0.000000 -0.000000 0.000000 
0.000000 0.000000 0.000000 

-0.000000 0.000000 0.000000 
0.000000 -0.000000 0.000000 
0.000000 0.000000 0.000000 

-0.000000 0.000000 0.000000 
0.000000 -0.000000 0.000000 
0.000000 0.000000 0.000000 

-0.000000 -0.000000 0.000000 
0.000000 -0.000000 0.000000 
0.000000 0.000000 0.000000 

-0.000000 -0.000000 0.000000 
0.000000 -0.000000 0.000000 
0.000000 0.000000 0.000000 

-0.000000 -0.000000 0.000000 
0.000000 -0.000000 0.000000 
0.000000 0.000000 0.000000 

-0.000000 -0.000000 0.000000 
0.000000 -0.000000 0.000000 
0.000000 0.000000 0.000000 

-0.000000 -0.000000 0.000000 
0.000000 -0.000000 0.000000 
0.000000 0.000000 0.000000 

0.000000 0.000000 0.000000 
0.000000 0.000000 0.000000 
0.000000 0.000000 0.000000 

-0.000000 -0.000000 0.000000 
0.000000 -0.000000 0.000000 
0.000000 0.000000 0.000000 

-0.000000 -0.000000 0.000000 
0.000000 -0.000000 0.000000 
0.000000 0.000000 0.000000 

0.000000 0.000000 0.000000 
0.000000 0.000000 0.000000 
0.000000 0.000000 0.000000 

0.000000 -0.000000 0.000000 
0.000000 0.000000 0.000000 
0.000000 0.000000 0.000000 

-0.000000 -0.000000 0.000000 
0.000000 -0.000000 0.000000 
0.000000 0.000000 0.000000 

-0.000000 -0.000000 0.000000 
0.000000 -0.000000 0.000000 
0.000000 0.000000 0.000000 

-0.000000 -0.000000 0.000000 
0.000000 -0.000000 0.000000 
0.000000 0.000000 0.000000 

0.000000 -0.000000 0.000000 
0.000000 0.000000 0.000000 
0.000000 0.000000 0.000000 

-0.000000 -0.000000 0.000000 
0.000000 -0.000000 0.000000 
0.000000 0.000000 0.000000 

0.000000 -0.000000 0.000000 
0.000000 0.000000 0.000000 
0.000000 0.000000 0.000000 

0.000000 0.000000 0.000000 
0.000000 0.000000 0.000000 
0.000000 0.000000 0.000000 

0.000000 0.000000 0.000000 
0.000000 0.000000 0.000000 
0.000000 0.000000 0.000000 

0.000000 0.000000 0.000000 
0.000000 0.000000 0.000000 
0.000000 0.000000 0.000000 

-0.000000 0.000000 0.000000 
0.000000 -0.000000 0.000000 
0.000000 0.000000 0.000000 

0.000000 0.000000 0.000000 
0.000000 0.000000 0.000000 
0.000000 0.000000 0.000000 

0.000000 0.000000 0.000000 
0.000000 0.000000 0.000000 
0.000000 0.000000 0.000000 

-0.000000 0.000000 0.000000 
0.000000 -0.000000 0.000000 
0.000000 0.000000 0.000000 

-0.000000 0.000000 0.000000 
0.000000 -0.000000 0.000000 
0.000000 0.000000 0.000000 

0.000000 0.000000 0.000000 
0.000000 0.000000 0.000000 
0.000000 0.000000 0.000000 

-0.000000 -0.000000 0.000000 
0.000000 -0.000000 0.000000 
0.000000 0.000000 0.000000 

-0.000000 -0.000000 0.000000 
0.000000 -0.000000 0.000000 
0.000000 0.000000 0.000000 

-0.000000 -0.000000 0.000000 
0.000000 -0.000000 0.000000 
0.000000 0.000000 0.000000 

-0.000000 -0.000000 0.000000 
0.000000 -0.000000 0.000000 
0.000000 0.000000 0.000000 

-0.000000 -0.000000 0.000000 
0.000000 -0.000000 0.000000 
0.000000 0.000000 0.000000 

0.000000 0.000000 0.000000 
0.000000 0.000000 0.000000 
0.000000 0.000000 0.000000 

-0.000000 -0.000000 0.000000 
0.000000 0.000000 0.000000 
0.000000 0.000000 0.000000 

0.000000 0.000000 0.000000 
0.000000 0.000000 0.000000 
0.000000 0.000000 0.000000 

0.000000 -0.000000 0.000000 
0.000000 0.000000 0.000000 
0.000000 0.000000 0.000000 

0.000000 -0.000000 0.000000 
0.000000 0.000000 0.000000 
0.000000 0.000000 0.000000 

-0.000000 -0.000000 0.000000 
0.000000 -0.000000 0.000000 
0.000000 0.000000 0.000000 

0.000000 -0.000000 0.000000 
0.000000 0.000000 0.000000 
0.000000 0.000000 0.000000 

0.000000 -0.000000 0.000000 
0.000000 0.000000 0.000000 
0.000000 0.000000 0.000000 

0.000000 0.000000 0.000000 
0.000000 0.000000 0.000000 
0.000000 0.000000 0.000000 

-0.000000 0.000000 0.000000 
0.000000 -0.000000 0.000000 
0.000000 0.000000 0.000000 

-0.000000 0.000000 0.000000 
0.000000 -0.000000 0.000000 
0.000000 0.000000 0.000000 

-0.000000 0.000000 0.000000 
0.000000 -0.000000 0.000000 
0.000000 0.000000 0.000000 

0.000000 -0.000000 0.000000 
0.000000 0.000000 0.000000 
0.000000 0.000000 0.000000 

0.000000 -0.000000 0.000000 
0.000000 0.000000 0.000000 
0.000000 0.000000 0.000000 

0.000000 -0.000000 0.000000 
0.000000 0.000000 0.000000 
0.000000 0.000000 0.000000 

0.000000 -0.000000 0.000000 
0.000000 0.000000 0.000000 
0.000000 0.000000 0.000000 

0.000000 0.000000 0.000000 
0.000000 0.000000 0.000000 
0.000000 0.000000 0.000000 

-0.000000 0.000000 0.000000 
0.000000 -0.000000 0.000000 
0.000000 0.000000 0.000000 

0.000000 -0.000000 0.000000 
0.000000 0.000000 0.000000 
0.000000 0.000000 0.000000 

-0.000000 0.000000 0.000000 
0.000000 -0.000000 0.000000 
0.000000 0.000000 0.000000 

0.000000 0.000000 0.000000 
0.000000 0.000000 0.000000 
0.000000 0.000000 0.000000 

0.000000 -0.000000 0.000000 
0.000000 0.000000 0.000000 
0.000000 0.000000 0.000000 

0.000000 -0.000000 0.000000 
0.000000 0.000000 0.000000 
0.000000 0.000000 0.000000 

-0.000000 -0.000000 0.000000 
0.000000 -0.000000 0.000000 
0.000000 0.000000 0.000000 

0.000000 0.000000 0.000000 
0.000000 0.000000 0.000000 
0.000000 0.000000 0.000000 

-0.000000 0.000000 0.000000 
0.000000 -0.000000 0.000000 
0.000000 0.000000 0.000000 

0.000000 -0.000000 0.000000 
0.000000 0.000000 0.000000 
0.000000 0.000000 0.000000 

-0.000000 -0.000000 0.000000 
0.000000 -0.000000 0.000000 
0.000000 0.000000 0.000000 

-0.000000 -0.000000 0.000000 
0.000000 -0.000000 0.000000 
0.000000 0.000000 0.000000 

0.000000 -0.000000 0.000000 
0.000000 0.000000 0.000000 
0.000000 0.000000 0.000000 

0.000000 -0.000000 0.000000 
0.000000 0.000000 0.000000 
0.000000 0.000000 0.000000 

0.000000 -0.000000 0.000000 
0.000000 0.000000 0.000000 
0.000000 0.000000 0.000000 

0.000000 -0.000000 0.000000 
0.000000 0.000000 0.000000 
0.000000 0.000000 0.000000 

0.000000 -0.000000 0.000000 
0.000000 0.000000 0.000000 
0.000000 0.000000 0.000000 

-0.000000 -0.000000 0.000000 
0.000000 -0.000000 0.000000 
0.000000 0.000000 0.000000 

0.000000 0.000000 0.000000 
0.000000 0.000000 0.000000 
0.000000 0.000000 0.000000 

0.000000 0.000000 0.000000 
0.000000 0.000000 0.000000 
0.000000 0.000000 0.000000 

-0.000000 -0.000000 0.000000 
0.000000 -0.000000 0.000000 
0.000000 0.000000 0.000000 

-0.000000 0.000000 0.000000 
0.000000 -0.000000 0.000000 
0.000000 0.000000 0.000000 

-0.000000 0.000000 0.000000 
0.000000 -0.000000 0.000000 
0.000000 0.000000 0.000000 

-0.000000 0.000000 0.000000 
0.000000 -0.000000 0.000000 
0.000000 0.000000 0.000000 

-0.000000 0.000000 0.000000 
0.000000 -0.000000 0.000000 
0.000000 0.000000 0.000000 

-0.000000 -0.000000 0.000000 
0.000000 -0.000000 0.000000 
0.000000 0.000000 0.000000 

0.000000 0.000000 0.000000 
0.000000 0.000000 0.000000 
0.000000 0.000000 0.000000 

0.000000 0.000000 0.000000 
0.000000 0.000000 0.000000 
0.000000 0.000000 0.000000 

-0.000000 0.000000 0.000000 
0.000000 -0.000000 0.000000 
0.000000 0.000000 0.000000 

-0.000000 0.000000 0.000000 
0.000000 -0.000000 0.000000 
0.000000 0.000000 0.000000 

-0.000000 -0.000000 0.000000 
0.000000 -0.000000 0.000000 
0.000000 0.000000 0.000000 

-0.000000 0.000000 0.000000 
0.000000 -0.000000 0.000000 
0.000000 0.000000 0.000000 

-0.000000 0.000000 0.000000 
0.000000 -0.000000 0.000000 
0.000000 0.000000 0.000000 

-0.000000 -0.000000 0.000000 
0.000000 -0.000000 0.000000 
0.000000 0.000000 0.000000 

-0.000000 -0.000000 0.000000 
0.000000 -0.000000 0.000000 
0.000000 0.000000 0.000000 

-0.000000 -0.000000 0.000000 
0.000000 -0.000000 0.000000 
0.000000 0.000000 0.000000 

-0.000000 0.000000 0.000000 
0.000000 -0.000000 0.000000 
0.000000 0.000000 0.000000 

-0.000000 0.000000 0.000000 
0.000000 -0.000000 0.000000 
0.000000 0.000000 0.000000 

0.000000 0.000000 0.000000 
0.000000 0.000000 0.000000 
0.000000 0.000000 0.000000 

0.000000 0.000000 0.000000 
0.000000 0.000000 0.000000 
0.000000 0.000000 0.000000 

0.000000 -0.000000 0.000000 
0.000000 0.000000 0.000000 
0.000000 0.000000 0.000000 

0.000000 -0.000000 0.000000 
0.000000 0.000000 0.000000 
0.000000 0.000000 0.000000 

-0.000000 -0.000000 0.000000 
0.000000 -0.000000 0.000000 
0.000000 0.000000 0.000000 

-0.000000 0.000000 0.000000 
0.000000 -0.000000 0.000000 
0.000000 0.000000 0.000000 

-0.000000 -0.000000 0.000000 
0.000000 -0.000000 0.000000 
0.000000 0.000000 0.000000 

-0.000000 -0.000000 0.000000 
0.000000 -0.000000 0.000000 
0.000000 0.000000 0.000000 

0.000000 0.000000 0.000000 
0.000000 0.000000 0.000000 
0.000000 0.000000 0.000000 

-0.000000 0.000000 0.000000 
0.000000 -0.000000 0.000000 
0.000000 0.000000 0.000000 

0.000000 0.000000 0.000000 
0.000000 0.000000 0.000000 
0.000000 0.000000 0.000000 

0.000000 -0.000000 0.000000 
0.000000 0.000000 0.000000 
0.000000 0.000000 0.000000 

-0.000000 -0.000000 0.000000 
0.000000 -0.000000 0.000000 
0.000000 0.000000 0.000000 

0.000000 0.000000 0.000000 
0.000000 0.000000 0.000000 
0.000000 0.000000 0.000000 

-0.000000 0.000000 0.000000 
0.000000 -0.000000 0.000000 
0.000000 0.000000 0.000000 

0.000000 -0.000000 0.000000 
0.000000 0.000000 0.000000 
0.000000 0.000000 0.000000 

0.000000 -0.000000 0.000000 
0.000000 -0.000000 0.000000 
0.000000 0.000000 0.000000 

0.000000 -0.000000 0.000000 
0.000000 0.000000 0.000000 
0.000000 0.000000 0.000000 

0.000000 0.000000 0.000000 
0.000000 0.000000 0.000000 
0.000000 0.000000 0.000000 

0.000000 -0.000000 0.000000 
0.000000 0.000000 0.000000 
0.000000 0.000000 0.000000 

-0.000000 -0.000000 0.000000 
0.000000 -0.000000 0.000000 
0.000000 0.000000 0.000000 

0.000000 -0.000000 0.000000 
0.000000 0.000000 0.000000 
0.000000 0.000000 0.000000 

-0.000000 -0.000000 0.000000 
0.000000 -0.000000 0.000000 
0.000000 0.000000 0.000000 

-0.000000 -0.000000 0.000000 
0.000000 -0.000000 0.000000 
0.000000 0.000000 0.000000 

-0.000000 -0.000000 0.000000 
0.000000 -0.000000 0.000000 
0.000000 0.000000 0.000000 

-0.000000 -0.000000 0.000000 
0.000000 -0.000000 0.000000 
0.000000 0.000000 0.000000 

0.000000 -0.000000 0.000000 
0.000000 0.000000 0.000000 
0.000000 0.000000 0.000000 

-0.000000 -0.000000 0.000000 
0.000000 -0.000000 0.000000 
0.000000 0.000000 0.000000 

-0.000000 -0.000000 0.000000 
0.000000 -0.000000 0.000000 
0.000000 0.000000 0.000000 

-0.000000 -0.000000 0.000000 
0.000000 -0.000000 0.000000 
0.000000 0.000000 0.000000 

0.000000 -0.000000 0.000000 
0.000000 0.000000 0.000000 
0.000000 0.000000 0.000000 

-0.000000 -0.000000 0.000000 
0.000000 -0.000000 0.000000 
0.000000 0.000000 0.000000 

-0.000000 0.000000 0.000000 
0.000000 0.000000 0.000000 
0.000000 0.000000 0.000000 

0.000000 -0.000000 0.000000 
0.000000 0.000000 0.000000 
0.000000 0.000000 0.000000 

0.000000 -0.000000 0.000000 
0.000000 0.000000 0.000000 
0.000000 0.000000 0.000000 

-0.000000 -0.000000 0.000000 
0.000000 -0.000000 0.000000 
0.000000 0.000000 0.000000 

-0.000000 -0.000000 0.000000 
0.000000 -0.000000 0.000000 
0.000000 0.000000 0.000000 

0.000000 -0.000000 0.000000 
0.000000 0.000000 0.000000 
0.000000 0.000000 0.000000 

-0.000000 -0.000000 0.000000 
0.000000 -0.000000 0.000000 
0.000000 0.000000 0.000000 

-0.000000 0.000000 0.000000 
0.000000 -0.000000 0.000000 
0.000000 0.000000 0.000000 

-0.000000 0.000000 0.000000 
0.000000 -0.000000 0.000000 
0.000000 0.000000 0.000000 

-0.000000 0.000000 0.000000 
0.000000 -0.000000 0.000000 
0.000000 0.000000 0.000000 

-0.000000 -0.000000 0.000000 
0.000000 -0.000000 0.000000 
0.000000 0.000000 0.000000 

0.000000 -0.000000 0.000000 
0.000000 0.000000 0.000000 
0.000000 0.000000 0.000000 

-0.000000 -0.000000 0.000000 
0.000000 -0.000000 0.000000 
0.000000 0.000000 0.000000 

-0.000000 0.000000 0.000000 
0.000000 -0.000000 0.000000 
0.000000 0.000000 0.000000 

-0.000000 0.000000 0.000000 
0.000000 -0.000000 0.000000 
0.000000 0.000000 0.000000 

-0.000000 0.000000 0.000000 
0.000000 -0.000000 0.000000 
0.000000 0.000000 0.000000 

0.000000 0.000000 0.000000 
0.000000 0.000000 0.000000 
0.000000 0.000000 0.000000 

0.000000 0.000000 0.000000 
0.000000 -0.000000 0.000000 
0.000000 0.000000 0.000000 

-0.000000 0.000000 0.000000 
0.000000 -0.000000 0.000000 
0.000000 0.000000 0.000000 

0.000000 0.000000 0.000000 
0.000000 0.000000 0.000000 
0.000000 0.000000 0.000000 

0.000000 0.000000 0.000000 
0.000000 0.000000 0.000000 
0.000000 0.000000 0.000000 

0.000000 0.000000 0.000000 
0.000000 0.000000 0.000000 
0.000000 0.000000 0.000000 

0.000000 -0.000000 0.000000 
0.000000 0.000000 0.000000 
0.000000 0.000000 0.000000 

-0.000000 0.000000 0.000000 
0.000000 -0.000000 0.000000 
0.000000 0.000000 0.000000 

-0.000000 -0.000000 0.000000 
0.000000 -0.000000 0.000000 
0.000000 0.000000 0.000000 

0.000000 -0.000000 0.000000 
0.000000 0.000000 0.000000 
0.000000 0.000000 0.000000 

-0.000000 0.000000 0.000000 
0.000000 -0.000000 0.000000 
0.000000 0.000000 0.000000 

0.000000 0.000000 0.000000 
0.000000 0.000000 0.000000 
0.000000 0.000000 0.000000 

0.000000 0.000000 0.000000 
0.000000 0.000000 0.000000 
0.000000 0.000000 0.000000 

-0.000000 -0.000000 0.000000 
0.000000 0.000000 0.000000 
0.000000 0.000000 0.000000 

0.000000 -0.000000 0.000000 
0.000000 0.000000 0.000000 
0.000000 0.000000 0.000000 

-0.000000 -0.000000 0.000000 
0.000000 -0.000000 0.000000 
0.000000 0.000000 0.000000 

TENSORS STRAIN float 
0.000000 -0.000000 0.000000 
0.000000 -0.000000 0.000000 
0.000000 0.000000 0.000000 

-0.000000 -0.000000 0.000000 
0.000000 0.000000 0.000000 
0.000000 0.000000 0.000000 

0.000000 -0.000000 0.000000 
0.000000 0.000000 0.000000 
0.000000 0.000000 0.000000 

0.000000 0.000000 0.000000 
0.000000 -0.000000 0.000000 
0.000000 0.000000 0.000000 

-0.000000 -0.000000 0.000000 
0.000000 0.000000 0.000000 
0.000000 0.000000 0.000000 

-0.000000 -0.000000 0.000000 
0.000000 0.000000 0.000000 
0.000000 0.000000 0.000000 

-0.000000 -0.000000 0.000000 
0.000000 0.000000 0.000000 
0.000000 0.000000 0.000000 

0.000000 -0.000000 0.000000 
0.000000 -0.000000 0.000000 
0.000000 0.000000 0.000000 

0.000000 -0.000000 0.000000 
0.000000 -0.000000 0.000000 
0.000000 0.000000 0.000000 

0.000000 0.000000 0.000000 
0.000000 -0.000000 0.000000 
0.000000 0.000000 0.000000 

-0.000000 -0.000000 0.000000 
0.000000 -0.000000 0.000000 
0.000000 0.000000 0.000000 

0.000000 -0.000000 0.000000 
0.000000 -0.000000 0.000000 
0.000000 0.000000 0.000000 

0.000000 0.000000 0.000000 
0.000000 0.000000 0.000000 
0.000000 0.000000 0.000000 

0.000000 0.000000 0.000000 
0.000000 -0.000000 0.000000 
0.000000 0.000000 0.000000 

0.000000 0.000000 0.000000 
0.000000 -0.000000 0.000000 
0.000000 0.000000 0.000000 

0.000000 0.000000 0.000000 
0.000000 -0.000000 0.000000 
0.000000 0.000000 0.000000 

0.000000 0.000000 0.000000 
0.000000 -0.000000 0.000000 
0.000000 0.000000 0.000000 

0.000000 0.000000 0.000000 
0.000000 -0.000000 0.000000 
0.000000 0.000000 0.000000 

0.000000 -0.000000 0.000000 
0.000000 -0.000000 0.000000 
0.000000 0.000000 0.000000 

0.000000 -0.000000 0.000000 
0.000000 -0.000000 0.000000 
0.000000 0.000000 0.000000 

0.000000 -0.000000 0.000000 
0.000000 -0.000000 0.000000 
0.000000 0.000000 0.000000 

0.000000 0.000000 0.000000 
0.000000 -0.000000 0.000000 
0.000000 0.000000 0.000000 

0.000000 0.000000 0.000000 
0.000000 -0.000000 0.000000 
0.000000 0.000000 0.000000 

-0.000000 0.000000 0.000000 
0.000000 -0.000000 0.000000 
0.000000 0.000000 0.000000 

-0.000000 0.000000 0.000000 
0.000000 0.000000 0.000000 
0.000000 0.000000 0.000000 

0.000000 0.000000 0.000000 
0.000000 -0.000000 0.000000 
0.000000 0.000000 0.000000 

-0.000000 -0.000000 0.000000 
0.000000 0.000000 0.000000 
0.000000 0.000000 0.000000 

-0.000000 -0.000000 0.000000 
0.000000 0.000000 0.000000 
0.000000 0.000000 0.000000 

-0.000000 -0.000000 0.000000 
0.000000 -0.000000 0.000000 
0.000000 0.000000 0.000000 

-0.000000 -0.000000 0.000000 
0.000000 0.000000 0.000000 
0.000000 0.000000 0.000000 

-0.000000 -0.000000 0.000000 
0.000000 -0.000000 0.000000 
0.000000 0.000000 0.000000 

-0.000000 0.000000 0.000000 
0.000000 0.000000 0.000000 
0.000000 0.000000 0.000000 

-0.000000 -0.000000 0.000000 
0.000000 0.000000 0.000000 
0.000000 0.000000 0.000000 

-0.000000 -0.000000 0.000000 
0.000000 0.000000 0.000000 
0.000000 0.000000 0.000000 

-0.000000 0.000000 0.000000 
0.000000 0.000000 0.000000 
0.000000 0.000000 0.000000 

-0.000000 -0.000000 0.000000 
0.000000 0.000000 0.000000 
0.000000 0.000000 0.000000 

-0.000000 -0.000000 0.000000 
0.000000 0.000000 0.000000 
0.000000 0.000000 0.000000 

-0.000000 -0.000000 0.000000 
0.000000 -0.000000 0.000000 
0.000000 0.000000 0.000000 

-0.000000 -0.000000 0.000000 
0.000000 0.000000 0.000000 
0.000000 0.000000 0.000000 

-0.000000 -0.000000 0.000000 
0.000000 0.000000 0.000000 
0.000000 0.000000 0.000000 

0.000000 -0.000000 0.000000 
0.000000 -0.000000 0.000000 
0.000000 0.000000 0.000000 

0.000000 -0.000000 0.000000 
0.000000 -0.000000 0.000000 
0.000000 0.000000 0.000000 

0.000000 0.000000 0.000000 
0.000000 -0.000000 0.000000 
0.000000 0.000000 0.000000 

0.000000 0.000000 0.000000 
0.000000 -0.000000 0.000000 
0.000000 0.000000 0.000000 

0.000000 0.000000 0.000000 
0.000000 -0.000000 0.000000 
0.000000 0.000000 0.000000 

0.000000 0.000000 0.000000 
0.000000 -0.000000 0.000000 
0.000000 0.000000 0.000000 

0.000000 0.000000 0.000000 
0.000000 -0.000000 0.000000 
0.000000 0.000000 0.000000 

0.000000 0.000000 0.000000 
0.000000 -0.000000 0.000000 
0.000000 0.000000 0.000000 

0.000000 0.000000 0.000000 
0.000000 -0.000000 0.000000 
0.000000 0.000000 0.000000 

0.000000 0.000000 0.000000 
0.000000 -0.000000 0.000000 
0.000000 0.000000 0.000000 

0.000000 0.000000 0.000000 
0.000000 0.000000 0.000000 
0.000000 0.000000 0.000000 

-0.000000 -0.000000 0.000000 
0.000000 0.000000 0.000000 
0.000000 0.000000 0.000000 

-0.000000 -0.000000 0.000000 
0.000000 0.000000 0.000000 
0.000000 0.000000 0.000000 

-0.000000 -0.000000 0.000000 
0.000000 -0.000000 0.000000 
0.000000 0.000000 0.000000 

0.000000 -0.000000 0.000000 
0.000000 -0.000000 0.000000 
0.000000 0.000000 0.000000 

-0.000000 -0.000000 0.000000 
0.000000 0.000000 0.000000 
0.000000 0.000000 0.000000 

-0.000000 0.000000 0.000000 
0.000000 0.000000 0.000000 
0.000000 0.000000 0.000000 

-0.000000 -0.000000 0.000000 
0.000000 0.000000 0.000000 
0.000000 0.000000 0.000000 

-0.000000 0.000000 0.000000 
0.000000 0.000000 0.000000 
0.000000 0.000000 0.000000 

-0.000000 -0.000000 0.000000 
0.000000 0.000000 0.000000 
0.000000 0.000000 0.000000 

0.000000 -0.000000 0.000000 
0.000000 0.000000 0.000000 
0.000000 0.000000 0.000000 

-0.000000 -0.000000 0.000000 
0.000000 0.000000 0.000000 
0.000000 0.000000 0.000000 

-0.000000 -0.000000 0.000000 
0.000000 0.000000 0.000000 
0.000000 0.000000 0.000000 

-0.000000 -0.000000 0.000000 
0.000000 0.000000 0.000000 
0.000000 0.000000 0.000000 

-0.000000 0.000000 0.000000 
0.000000 0.000000 0.000000 
0.000000 0.000000 0.000000 

-0.000000 0.000000 0.000000 
0.000000 -0.000000 0.000000 
0.000000 0.000000 0.000000 

-0.000000 0.000000 0.000000 
0.000000 -0.000000 0.000000 
0.000000 0.000000 0.000000 

-0.000000 0.000000 0.000000 
0.000000 0.000000 0.000000 
0.000000 0.000000 0.000000 

-0.000000 -0.000000 0.000000 
0.000000 0.000000 0.000000 
0.000000 0.000000 0.000000 

-0.000000 -0.000000 0.000000 
0.000000 0.000000 0.000000 
0.000000 0.000000 0.000000 

-0.000000 -0.000000 0.000000 
0.000000 0.000000 0.000000 
0.000000 0.000000 0.000000 

-0.000000 -0.000000 0.000000 
0.000000 0.000000 0.000000 
0.000000 0.000000 0.000000 

0.000000 0.000000 0.000000 
0.000000 -0.000000 0.000000 
0.000000 0.000000 0.000000 

-0.000000 0.000000 0.000000 
0.000000 0.000000 0.000000 
0.000000 0.000000 0.000000 

-0.000000 -0.000000 0.000000 
0.000000 0.000000 0.000000 
0.000000 0.000000 0.000000 

0.000000 0.000000 0.000000 
0.000000 -0.000000 0.000000 
0.000000 0.000000 0.000000 

0.000000 0.000000 0.000000 
0.000000 0.000000 0.000000 
0.000000 0.000000 0.000000 

0.000000 -0.000000 0.000000 
0.000000 -0.000000 0.000000 
0.000000 0.000000 0.000000 

0.000000 -0.000000 0.000000 
0.000000 0.000000 0.000000 
0.000000 0.000000 0.000000 

-0.000000 -0.000000 0.000000 
0.000000 -0.000000 0.000000 
0.000000 0.000000 0.000000 

0.000000 0.000000 0.000000 
0.000000 0.000000 0.000000 
0.000000 0.000000 0.000000 

-0.000000 0.000000 0.000000 
0.000000 -0.000000 0.000000 
0.000000 0.000000 0.000000 

0.000000 -0.000000 0.000000 
0.000000 0.000000 0.000000 
0.000000 0.000000 0.000000 

0.000000 -0.000000 0.000000 
0.000000 -0.000000 0.000000 
0.000000 0.000000 0.000000 

0.000000 -0.000000 0.000000 
0.000000 -0.000000 0.000000 
0.000000 0.000000 0.000000 

0.000000 -0.000000 0.000000 
0.000000 0.000000 0.000000 
0.000000 0.000000 0.000000 

-0.000000 -0.000000 0.000000 
0.000000 0.000000 0.000000 
0.000000 0.000000 0.000000 

-0.000000 -0.000000 0.000000 
0.000000 0.000000 0.000000 
0.000000 0.000000 0.000000 

-0.000000 -0.000000 0.000000 
0.000000 0.000000 0.000000 
0.000000 0.000000 0.000000 

-0.000000 -0.000000 0.000000 
0.000000 0.000000 0.000000 
0.000000 0.000000 0.000000 

-0.000000 -0.000000 0.000000 
0.000000 -0.000000 0.000000 
0.000000 0.000000 0.000000 

0.000000 0.000000 0.000000 
0.000000 -0.000000 0.000000 
0.000000 0.000000 0.000000 

0.000000 0.000000 0.000000 
0.000000 -0.000000 0.000000 
0.000000 0.000000 0.000000 

0.000000 -0.000000 0.000000 
0.000000 -0.000000 0.000000 
0.000000 0.000000 0.000000 

-0.000000 0.000000 0.000000 
0.000000 -0.000000 0.000000 
0.000000 0.000000 0.000000 

-0.000000 0.000000 0.000000 
0.000000 0.000000 0.000000 
0.000000 0.000000 0.000000 

-0.000000 0.000000 0.000000 
0.000000 -0.000000 0.000000 
0.000000 0.000000 0.000000 

0.000000 0.000000 0.000000 
0.000000 -0.000000 0.000000 
0.000000 0.000000 0.000000 

-0.000000 -0.000000 0.000000 
0.000000 -0.000000 0.000000 
0.000000 0.000000 0.000000 

0.000000 0.000000 0.000000 
0.000000 0.000000 0.000000 
0.000000 0.000000 0.000000 

0.000000 0.000000 0.000000 
0.000000 -0.000000 0.000000 
0.000000 0.000000 0.000000 

0.000000 0.000000 0.000000 
0.000000 -0.000000 0.000000 
0.000000 0.000000 0.000000 

0.000000 0.000000 0.000000 
0.000000 -0.000000 0.000000 
0.000000 0.000000 0.000000 

-0.000000 -0.000000 0.000000 
0.000000 -0.000000 0.000000 
0.000000 0.000000 0.000000 

0.000000 0.000000 0.000000 
0.000000 -0.000000 0.000000 
0.000000 0.000000 0.000000 

0.000000 0.000000 0.000000 
0.000000 -0.000000 0.000000 
0.000000 0.000000 0.000000 

-0.000000 -0.000000 0.000000 
0.000000 0.000000 0.000000 
0.000000 0.000000 0.000000 

-0.000000 -0.000000 0.000000 
0.000000 0.000000 0.000000 
0.000000 0.000000 0.000000 

-0.000000 -0.000000 0.000000 
0.000000 0.000000 0.000000 
0.000000 0.000000 0.000000 

0.000000 0.000000 0.000000 
0.000000 -0.000000 0.000000 
0.000000 0.000000 0.000000 

0.000000 0.000000 0.000000 
0.000000 -0.000000 0.000000 
0.000000 0.000000 0.000000 

0.000000 0.000000 0.000000 
0.000000 -0.000000 0.000000 
0.000000 0.000000 0.000000 

0.000000 0.000000 0.000000 
0.000000 -0.000000 0.000000 
0.000000 0.000000 0.000000 

-0.000000 -0.000000 0.000000 
0.000000 0.000000 0.000000 
0.000000 0.000000 0.000000 

0.000000 -0.000000 0.000000 
0.000000 0.000000 0.000000 
0.000000 0.000000 0.000000 

0.000000 -0.000000 0.000000 
0.000000 -0.000000 0.000000 
0.000000 0.000000 0.000000 

0.000000 0.000000 0.000000 
0.000000 -0.000000 0.000000 
0.000000 0.000000 0.000000 

0.000000 -0.000000 0.000000 
0.000000 -0.000000 0.000000 
0.000000 0.000000 0.000000 

-0.000000 -0.000000 0.000000 
0.000000 0.000000 0.000000 
0.000000 0.000000 0.000000 

0.000000 0.000000 0.000000 
0.000000 -0.000000 0.000000 
0.000000 0.000000 0.000000 

-0.000000 0.000000 0.000000 
0.000000 0.000000 0.000000 
0.000000 0.000000 0.000000 

-0.000000 0.000000 0.000000 
0.000000 0.000000 0.000000 
0.000000 0.000000 0.000000 

-0.000000 -0.000000 0.000000 
0.000000 0.000000 0.000000 
0.000000 0.000000 0.000000 

-0.000000 -0.000000 0.000000 
0.000000 -0.000000 0.000000 
0.000000 0.000000 0.000000 

0.000000 0.000000 0.000000 
0.000000 -0.000000 0.000000 
0.000000 0.000000 0.000000 

0.000000 0.000000 0.000000 
0.000000 -0.000000 0.000000 
0.000000 0.000000 0.000000 

0.000000 -0.000000 0.000000 
0.000000 -0.000000 0.000000 
0.000000 0.000000 0.000000 

0.000000 -0.000000 0.000000 
0.000000 -0.000000 0.000000 
0.000000 0.000000 0.000000 

0.000000 -0.000000 0.000000 
0.000000 0.000000 0.000000 
0.000000 0.000000 0.000000 

0.000000 0.000000 0.000000 
0.000000 0.000000 0.000000 
0.000000 0.000000 0.000000 

0.000000 -0.000000 0.000000 
0.000000 -0.000000 0.000000 
0.000000 0.000000 0.000000 

-0.000000 -0.000000 0.000000 
0.000000 -0.000000 0.000000 
0.000000 0.000000 0.000000 

0.000000 -0.000000 0.000000 
0.000000 0.000000 0.000000 
0.000000 0.000000 0.000000 

0.000000 -0.000000 0.000000 
0.000000 -0.000000 0.000000 
0.000000 0.000000 0.000000 

0.000000 -0.000000 0.000000 
0.000000 -0.000000 0.000000 
0.000000 0.000000 0.000000 

-0.000000 -0.000000 0.000000 
0.000000 -0.000000 0.000000 
0.000000 0.000000 0.000000 

-0.000000 -0.000000 0.000000 
0.000000 -0.000000 0.000000 
0.000000 0.000000 0.000000 

-0.000000 -0.000000 0.000000 
0.000000 0.000000 0.000000 
0.000000 0.000000 0.000000 

0.000000 -0.000000 0.000000 
0.000000 -0.000000 0.000000 
0.000000 0.000000 0.000000 

0.000000 -0.000000 0.000000 
0.000000 -0.000000 0.000000 
0.000000 0.000000 0.000000 

0.000000 -0.000000 0.000000 
0.000000 -0.000000 0.000000 
0.000000 0.000000 0.000000 

0.000000 -0.000000 0.000000 
0.000000 -0.000000 0.000000 
0.000000 0.000000 0.000000 

0.000000 -0.000000 0.000000 
0.000000 -0.000000 0.000000 
0.000000 0.000000 0.000000 

-0.000000 0.000000 0.000000 
0.000000 0.000000 0.000000 
0.000000 0.000000 0.000000 

0.000000 -0.000000 0.000000 
0.000000 0.000000 0.000000 
0.000000 0.000000 0.000000 

0.000000 -0.000000 0.000000 
0.000000 -0.000000 0.000000 
0.000000 0.000000 0.000000 

-0.000000 -0.000000 0.000000 
0.000000 -0.000000 0.000000 
0.000000 0.000000 0.000000 

0.000000 -0.000000 0.000000 
0.000000 -0.000000 0.000000 
0.000000 0.000000 0.000000 

0.000000 -0.000000 0.000000 
0.000000 -0.000000 0.000000 
0.000000 0.000000 0.000000 

0.000000 -0.000000 0.000000 
0.000000 -0.000000 0.000000 
0.000000 0.000000 0.000000 

0.000000 0.000000 0.000000 
0.000000 -0.000000 0.000000 
0.000000 0.000000 0.000000 

0.000000 0.000000 0.000000 
0.000000 -0.000000 0.000000 
0.000000 0.000000 0.000000 

0.000000 0.000000 0.000000 
0.000000 -0.000000 0.000000 
0.000000 0.000000 0.000000 

0.000000 -0.000000 0.000000 
0.000000 -0.000000 0.000000 
0.000000 0.000000 0.000000 

0.000000 -0.000000 0.000000 
0.000000 -0.000000 0.000000 
0.000000 0.000000 0.000000 

0.000000 -0.000000 0.000000 
0.000000 -0.000000 0.000000 
0.000000 0.000000 0.000000 

-0.000000 0.000000 0.000000 
0.000000 -0.000000 0.000000 
0.000000 0.000000 0.000000 

-0.000000 0.000000 0.000000 
0.000000 0.000000 0.000000 
0.000000 0.000000 0.000000 

-0.000000 0.000000 0.000000 
0.000000 -0.000000 0.000000 
0.000000 0.000000 0.000000 

0.000000 0.000000 0.000000 
0.000000 0.000000 0.000000 
0.000000 0.000000 0.000000 

0.000000 0.000000 0.000000 
0.000000 -0.000000 0.000000 
0.000000 0.000000 0.000000 

-0.000000 0.000000 0.000000 
0.000000 -0.000000 0.000000 
0.000000 0.000000 0.000000 

-0.000000 0.000000 0.000000 
0.000000 0.000000 0.000000 
0.000000 0.000000 0.000000 

-0.000000 0.000000 0.000000 
0.000000 0.000000 0.000000 
0.000000 0.000000 0.000000 

-0.000000 0.000000 0.000000 
0.000000 0.000000 0.000000 
0.000000 0.000000 0.000000 

0.000000 -0.000000 0.000000 
0.000000 0.000000 0.000000 
0.000000 0.000000 0.000000 

-0.000000 0.000000 0.000000 
0.000000 0.000000 0.000000 
0.000000 0.000000 0.000000 

-0.000000 -0.000000 0.000000 
0.000000 -0.000000 0.000000 
0.000000 0.000000 0.000000 

0.000000 -0.000000 0.000000 
0.000000 -0.000000 0.000000 
0.000000 0.000000 0.000000 

0.000000 0.000000 0.000000 
0.000000 -0.000000 0.000000 
0.000000 0.000000 0.000000 

0.000000 0.000000 0.000000 
0.000000 0.000000 0.000000 
0.000000 0.000000 0.000000 

-0.000000 0.000000 0.000000 
0.000000 0.000000 0.000000 
0.000000 0.000000 0.000000 

-0.000000 -0.000000 0.000000 
0.000000 0.000000 0.000000 
0.000000 0.000000 0.000000 

0.000000 -0.000000 0.000000 
0.000000 0.000000 0.000000 
0.000000 0.000000 0.000000 

0.000000 -0.000000 0.000000 
0.000000 -0.000000 0.000000 
0.000000 0.000000 0.000000 

