# vtk DataFile Version 3.0 
vtk output 
ASCII 
DATASET UNSTRUCTURED_GRID 
POINTS 175 float 
-0.026061 -1.135621 0.000000 
-0.106992 -1.067565 0.000000 
-0.054870 -1.075798 0.000000 
-0.028809 -1.029914 0.000000 
-0.186430 -1.003490 0.000000 
-0.137056 -1.006016 0.000000 
-0.114311 -0.952369 0.000000 
-0.058186 -0.968034 0.000000 
-0.029377 -0.927857 0.000000 
-0.265318 -0.940334 0.000000 
-0.217198 -0.941134 0.000000 
-0.196633 -0.883837 0.000000 
-0.143120 -0.892546 0.000000 
-0.116563 -0.845278 0.000000 
-0.058945 -0.864923 0.000000 
-0.029568 -0.826803 0.000000 
-0.344206 -0.877178 0.000000 
-0.296791 -0.877171 0.000000 
-0.278030 -0.817228 0.000000 
-0.225992 -0.823095 0.000000 
-0.201664 -0.770978 0.000000 
-0.145749 -0.784452 0.000000 
-0.117890 -0.740109 0.000000 
-0.059328 -0.762815 0.000000 
-0.029759 -0.725749 0.000000 
-0.058559 -1.176372 0.000000 
-0.162226 -1.197214 0.000000 
-0.123292 -1.161597 0.000000 
-0.142917 -1.112613 0.000000 
-0.261851 -1.219371 0.000000 
-0.229092 -1.182344 0.000000 
-0.256854 -1.131112 0.000000 
-0.209613 -1.096999 0.000000 
-0.223062 -1.049425 0.000000 
-0.360414 -1.241671 0.000000 
-0.329787 -1.204548 0.000000 
-0.361761 -1.152746 0.000000 
-0.321587 -1.116337 0.000000 
-0.341985 -1.066103 0.000000 
-0.290702 -1.033304 0.000000 
-0.302189 -0.986569 0.000000 
-0.458977 -1.263971 0.000000 
-0.429420 -1.226896 0.000000 
-0.464588 -1.174854 0.000000 
-0.427556 -1.137827 0.000000 
-0.453135 -1.086312 0.000000 
-0.407738 -1.050997 0.000000 
-0.425037 -1.001569 0.000000 
-0.370772 -0.969940 0.000000 
-0.381315 -0.923712 0.000000 
-0.046960 -1.227187 0.000000 
-0.095301 -1.321233 0.000000 
-0.098873 -1.268585 0.000000 
-0.149405 -1.253388 0.000000 
-0.140093 -1.412937 0.000000 
-0.148617 -1.364239 0.000000 
-0.205981 -1.354001 0.000000 
-0.203197 -1.295798 0.000000 
-0.248777 -1.276651 0.000000 
-0.184111 -1.503900 0.000000 
-0.194039 -1.456809 0.000000 
-0.254475 -1.449510 0.000000 
-0.257893 -1.395400 0.000000 
-0.309886 -1.380028 0.000000 
-0.303554 -1.319482 0.000000 
-0.347255 -1.299324 0.000000 
-0.228129 -1.594864 0.000000 
-0.238687 -1.548640 0.000000 
-0.301302 -1.543688 0.000000 
-0.307162 -1.491649 0.000000 
-0.363386 -1.479528 0.000000 
-0.362692 -1.422016 0.000000 
-0.412122 -1.404723 0.000000 
-0.403017 -1.342577 0.000000 
-0.445733 -1.321998 0.000000 
-0.000000 -1.249802 0.000000 
0.043388 -1.346232 0.000000 
-0.000000 -1.316200 0.000000 
-0.043388 -1.346232 0.000000 
0.087158 -1.438429 0.000000 
0.043769 -1.414730 0.000000 
-0.000000 -1.453196 0.000000 
-0.043769 -1.414730 0.000000 
-0.087158 -1.438429 0.000000 
0.130831 -1.529559 0.000000 
0.087824 -1.507960 0.000000 
0.044436 -1.550660 0.000000 
-0.000000 -1.519595 0.000000 
-0.044436 -1.550660 0.000000 
-0.087824 -1.507960 0.000000 
-0.130831 -1.529559 0.000000 
0.174505 -1.620688 0.000000 
0.131782 -1.600122 0.000000 
0.088871 -1.645989 0.000000 
0.044532 -1.618125 0.000000 
-0.000000 -1.654525 0.000000 
-0.044532 -1.618125 0.000000 
-0.088871 -1.645989 0.000000 
-0.131782 -1.600122 0.000000 
-0.174505 -1.620688 0.000000 
0.046960 -1.227187 0.000000 
0.149405 -1.253388 0.000000 
0.098873 -1.268585 0.000000 
0.095301 -1.321233 0.000000 
0.248777 -1.276651 0.000000 
0.203197 -1.295798 0.000000 
0.205981 -1.354001 0.000000 
0.148617 -1.364239 0.000000 
0.140093 -1.412937 0.000000 
0.347255 -1.299324 0.000000 
0.303554 -1.319482 0.000000 
0.309886 -1.380028 0.000000 
0.257893 -1.395400 0.000000 
0.254475 -1.449510 0.000000 
0.194039 -1.456809 0.000000 
0.184111 -1.503900 0.000000 
0.445733 -1.321998 0.000000 
0.403017 -1.342577 0.000000 
0.412122 -1.404723 0.000000 
0.362692 -1.422016 0.000000 
0.363386 -1.479528 0.000000 
0.307162 -1.491649 0.000000 
0.301302 -1.543688 0.000000 
0.238687 -1.548640 0.000000 
0.228129 -1.594864 0.000000 
0.058559 -1.176372 0.000000 
0.142917 -1.112613 0.000000 
0.123292 -1.161597 0.000000 
0.162226 -1.197214 0.000000 
0.223062 -1.049425 0.000000 
0.209613 -1.096999 0.000000 
0.256854 -1.131112 0.000000 
0.229092 -1.182344 0.000000 
0.261851 -1.219371 0.000000 
0.302189 -0.986569 0.000000 
0.290702 -1.033304 0.000000 
0.341985 -1.066103 0.000000 
0.321587 -1.116337 0.000000 
0.361761 -1.152746 0.000000 
0.329787 -1.204548 0.000000 
0.360414 -1.241671 0.000000 
0.381315 -0.923712 0.000000 
0.370772 -0.969940 0.000000 
0.425037 -1.001569 0.000000 
0.407738 -1.050997 0.000000 
0.453135 -1.086312 0.000000 
0.427556 -1.137827 0.000000 
0.464588 -1.174854 0.000000 
0.429420 -1.226896 0.000000 
0.458977 -1.263971 0.000000 
0.026061 -1.135621 0.000000 
0.028809 -1.029914 0.000000 
0.054870 -1.075798 0.000000 
0.106992 -1.067565 0.000000 
0.029377 -0.927857 0.000000 
0.058186 -0.968034 0.000000 
0.114311 -0.952369 0.000000 
0.137056 -1.006016 0.000000 
0.186430 -1.003490 0.000000 
0.029568 -0.826803 0.000000 
0.058945 -0.864923 0.000000 
0.116563 -0.845278 0.000000 
0.143120 -0.892546 0.000000 
0.196633 -0.883837 0.000000 
0.217198 -0.941134 0.000000 
0.265318 -0.940334 0.000000 
0.029759 -0.725749 0.000000 
0.059328 -0.762815 0.000000 
0.117890 -0.740109 0.000000 
0.145749 -0.784452 0.000000 
0.201664 -0.770978 0.000000 
0.225992 -0.823095 0.000000 
0.278030 -0.817228 0.000000 
0.296791 -0.877171 0.000000 
0.344206 -0.877178 0.000000 
CELLS 175 350 
1 0 
1 1 
1 2 
1 3 
1 4 
1 5 
1 6 
1 7 
1 8 
1 9 
1 10 
1 11 
1 12 
1 13 
1 14 
1 15 
1 16 
1 17 
1 18 
1 19 
1 20 
1 21 
1 22 
1 23 
1 24 
1 25 
1 26 
1 27 
1 28 
1 29 
1 30 
1 31 
1 32 
1 33 
1 34 
1 35 
1 36 
1 37 
1 38 
1 39 
1 40 
1 41 
1 42 
1 43 
1 44 
1 45 
1 46 
1 47 
1 48 
1 49 
1 50 
1 51 
1 52 
1 53 
1 54 
1 55 
1 56 
1 57 
1 58 
1 59 
1 60 
1 61 
1 62 
1 63 
1 64 
1 65 
1 66 
1 67 
1 68 
1 69 
1 70 
1 71 
1 72 
1 73 
1 74 
1 75 
1 76 
1 77 
1 78 
1 79 
1 80 
1 81 
1 82 
1 83 
1 84 
1 85 
1 86 
1 87 
1 88 
1 89 
1 90 
1 91 
1 92 
1 93 
1 94 
1 95 
1 96 
1 97 
1 98 
1 99 
1 100 
1 101 
1 102 
1 103 
1 104 
1 105 
1 106 
1 107 
1 108 
1 109 
1 110 
1 111 
1 112 
1 113 
1 114 
1 115 
1 116 
1 117 
1 118 
1 119 
1 120 
1 121 
1 122 
1 123 
1 124 
1 125 
1 126 
1 127 
1 128 
1 129 
1 130 
1 131 
1 132 
1 133 
1 134 
1 135 
1 136 
1 137 
1 138 
1 139 
1 140 
1 141 
1 142 
1 143 
1 144 
1 145 
1 146 
1 147 
1 148 
1 149 
1 150 
1 151 
1 152 
1 153 
1 154 
1 155 
1 156 
1 157 
1 158 
1 159 
1 160 
1 161 
1 162 
1 163 
1 164 
1 165 
1 166 
1 167 
1 168 
1 169 
1 170 
1 171 
1 172 
1 173 
1 174 
CELL_TYPES 175 
1 
1 
1 
1 
1 
1 
1 
1 
1 
1 
1 
1 
1 
1 
1 
1 
1 
1 
1 
1 
1 
1 
1 
1 
1 
1 
1 
1 
1 
1 
1 
1 
1 
1 
1 
1 
1 
1 
1 
1 
1 
1 
1 
1 
1 
1 
1 
1 
1 
1 
1 
1 
1 
1 
1 
1 
1 
1 
1 
1 
1 
1 
1 
1 
1 
1 
1 
1 
1 
1 
1 
1 
1 
1 
1 
1 
1 
1 
1 
1 
1 
1 
1 
1 
1 
1 
1 
1 
1 
1 
1 
1 
1 
1 
1 
1 
1 
1 
1 
1 
1 
1 
1 
1 
1 
1 
1 
1 
1 
1 
1 
1 
1 
1 
1 
1 
1 
1 
1 
1 
1 
1 
1 
1 
1 
1 
1 
1 
1 
1 
1 
1 
1 
1 
1 
1 
1 
1 
1 
1 
1 
1 
1 
1 
1 
1 
1 
1 
1 
1 
1 
1 
1 
1 
1 
1 
1 
1 
1 
1 
1 
1 
1 
1 
1 
1 
1 
1 
1 
1 
1 
1 
1 
1 
1 
POINT_DATA 175 
VECTORS X_GC float 
-0.026061 -1.135621 0.000000 
-0.106992 -1.067565 0.000000 
-0.054870 -1.075798 0.000000 
-0.028809 -1.029914 0.000000 
-0.186430 -1.003490 0.000000 
-0.137056 -1.006016 0.000000 
-0.114311 -0.952369 0.000000 
-0.058186 -0.968034 0.000000 
-0.029377 -0.927857 0.000000 
-0.265318 -0.940334 0.000000 
-0.217198 -0.941134 0.000000 
-0.196633 -0.883837 0.000000 
-0.143120 -0.892546 0.000000 
-0.116563 -0.845278 0.000000 
-0.058945 -0.864923 0.000000 
-0.029568 -0.826803 0.000000 
-0.344206 -0.877178 0.000000 
-0.296791 -0.877171 0.000000 
-0.278030 -0.817228 0.000000 
-0.225992 -0.823095 0.000000 
-0.201664 -0.770978 0.000000 
-0.145749 -0.784452 0.000000 
-0.117890 -0.740109 0.000000 
-0.059328 -0.762815 0.000000 
-0.029759 -0.725749 0.000000 
-0.058559 -1.176372 0.000000 
-0.162226 -1.197214 0.000000 
-0.123292 -1.161597 0.000000 
-0.142917 -1.112613 0.000000 
-0.261851 -1.219371 0.000000 
-0.229092 -1.182344 0.000000 
-0.256854 -1.131112 0.000000 
-0.209613 -1.096999 0.000000 
-0.223062 -1.049425 0.000000 
-0.360414 -1.241671 0.000000 
-0.329787 -1.204548 0.000000 
-0.361761 -1.152746 0.000000 
-0.321587 -1.116337 0.000000 
-0.341985 -1.066103 0.000000 
-0.290702 -1.033304 0.000000 
-0.302189 -0.986569 0.000000 
-0.458977 -1.263971 0.000000 
-0.429420 -1.226896 0.000000 
-0.464588 -1.174854 0.000000 
-0.427556 -1.137827 0.000000 
-0.453135 -1.086312 0.000000 
-0.407738 -1.050997 0.000000 
-0.425037 -1.001569 0.000000 
-0.370772 -0.969940 0.000000 
-0.381315 -0.923712 0.000000 
-0.046960 -1.227187 0.000000 
-0.095301 -1.321233 0.000000 
-0.098873 -1.268585 0.000000 
-0.149405 -1.253388 0.000000 
-0.140093 -1.412937 0.000000 
-0.148617 -1.364239 0.000000 
-0.205981 -1.354001 0.000000 
-0.203197 -1.295798 0.000000 
-0.248777 -1.276651 0.000000 
-0.184111 -1.503900 0.000000 
-0.194039 -1.456809 0.000000 
-0.254475 -1.449510 0.000000 
-0.257893 -1.395400 0.000000 
-0.309886 -1.380028 0.000000 
-0.303554 -1.319482 0.000000 
-0.347255 -1.299324 0.000000 
-0.228129 -1.594864 0.000000 
-0.238687 -1.548640 0.000000 
-0.301302 -1.543688 0.000000 
-0.307162 -1.491649 0.000000 
-0.363386 -1.479528 0.000000 
-0.362692 -1.422016 0.000000 
-0.412122 -1.404723 0.000000 
-0.403017 -1.342577 0.000000 
-0.445733 -1.321998 0.000000 
-0.000000 -1.249802 0.000000 
0.043388 -1.346232 0.000000 
-0.000000 -1.316200 0.000000 
-0.043388 -1.346232 0.000000 
0.087158 -1.438429 0.000000 
0.043769 -1.414730 0.000000 
-0.000000 -1.453196 0.000000 
-0.043769 -1.414730 0.000000 
-0.087158 -1.438429 0.000000 
0.130831 -1.529559 0.000000 
0.087824 -1.507960 0.000000 
0.044436 -1.550660 0.000000 
-0.000000 -1.519595 0.000000 
-0.044436 -1.550660 0.000000 
-0.087824 -1.507960 0.000000 
-0.130831 -1.529559 0.000000 
0.174505 -1.620688 0.000000 
0.131782 -1.600122 0.000000 
0.088871 -1.645989 0.000000 
0.044532 -1.618125 0.000000 
-0.000000 -1.654525 0.000000 
-0.044532 -1.618125 0.000000 
-0.088871 -1.645989 0.000000 
-0.131782 -1.600122 0.000000 
-0.174505 -1.620688 0.000000 
0.046960 -1.227187 0.000000 
0.149405 -1.253388 0.000000 
0.098873 -1.268585 0.000000 
0.095301 -1.321233 0.000000 
0.248777 -1.276651 0.000000 
0.203197 -1.295798 0.000000 
0.205981 -1.354001 0.000000 
0.148617 -1.364239 0.000000 
0.140093 -1.412937 0.000000 
0.347255 -1.299324 0.000000 
0.303554 -1.319482 0.000000 
0.309886 -1.380028 0.000000 
0.257893 -1.395400 0.000000 
0.254475 -1.449510 0.000000 
0.194039 -1.456809 0.000000 
0.184111 -1.503900 0.000000 
0.445733 -1.321998 0.000000 
0.403017 -1.342577 0.000000 
0.412122 -1.404723 0.000000 
0.362692 -1.422016 0.000000 
0.363386 -1.479528 0.000000 
0.307162 -1.491649 0.000000 
0.301302 -1.543688 0.000000 
0.238687 -1.548640 0.000000 
0.228129 -1.594864 0.000000 
0.058559 -1.176372 0.000000 
0.142917 -1.112613 0.000000 
0.123292 -1.161597 0.000000 
0.162226 -1.197214 0.000000 
0.223062 -1.049425 0.000000 
0.209613 -1.096999 0.000000 
0.256854 -1.131112 0.000000 
0.229092 -1.182344 0.000000 
0.261851 -1.219371 0.000000 
0.302189 -0.986569 0.000000 
0.290702 -1.033304 0.000000 
0.341985 -1.066103 0.000000 
0.321587 -1.116337 0.000000 
0.361761 -1.152746 0.000000 
0.329787 -1.204548 0.000000 
0.360414 -1.241671 0.000000 
0.381315 -0.923712 0.000000 
0.370772 -0.969940 0.000000 
0.425037 -1.001569 0.000000 
0.407738 -1.050997 0.000000 
0.453135 -1.086312 0.000000 
0.427556 -1.137827 0.000000 
0.464588 -1.174854 0.000000 
0.429420 -1.226896 0.000000 
0.458977 -1.263971 0.000000 
0.026061 -1.135621 0.000000 
0.028809 -1.029914 0.000000 
0.054870 -1.075798 0.000000 
0.106992 -1.067565 0.000000 
0.029377 -0.927857 0.000000 
0.058186 -0.968034 0.000000 
0.114311 -0.952369 0.000000 
0.137056 -1.006016 0.000000 
0.186430 -1.003490 0.000000 
0.029568 -0.826803 0.000000 
0.058945 -0.864923 0.000000 
0.116563 -0.845278 0.000000 
0.143120 -0.892546 0.000000 
0.196633 -0.883837 0.000000 
0.217198 -0.941134 0.000000 
0.265318 -0.940334 0.000000 
0.029759 -0.725749 0.000000 
0.059328 -0.762815 0.000000 
0.117890 -0.740109 0.000000 
0.145749 -0.784452 0.000000 
0.201664 -0.770978 0.000000 
0.225992 -0.823095 0.000000 
0.278030 -0.817228 0.000000 
0.296791 -0.877171 0.000000 
0.344206 -0.877178 0.000000 
VECTORS X_EC float 
0.338794 -0.169118 0.000000 
-0.609100 0.912133 0.000000 
0.713312 -0.976726 0.000000 
0.374519 0.403844 0.000000 
0.423588 0.047114 0.000000 
-0.218274 0.081217 0.000000 
-0.513962 -0.643021 0.000000 
0.756418 -0.431535 0.000000 
0.381900 -0.973928 0.000000 
-0.550868 -0.805489 0.000000 
0.823577 -0.794694 0.000000 
0.556234 0.431802 0.000000 
-0.139443 0.549371 0.000000 
-0.484677 -0.088754 0.000000 
0.766286 0.176462 0.000000 
0.384386 -0.338159 0.000000 
0.474677 0.341907 0.000000 
-0.141715 0.341811 0.000000 
-0.385608 -0.467417 0.000000 
0.937896 -0.388222 0.000000 
0.621631 0.908198 0.000000 
-0.105264 -0.909902 0.000000 
-0.467428 0.491471 0.000000 
0.771260 0.798000 0.000000 
0.386873 0.297610 0.000000 
0.761262 0.381016 0.000000 
0.108942 0.662393 0.000000 
-0.397202 0.181553 0.000000 
-0.142083 -0.479722 0.000000 
-0.595936 0.961503 0.000000 
0.978194 0.461637 0.000000 
-0.660903 -0.229988 0.000000 
0.724964 -0.690508 0.000000 
0.899809 0.667244 0.000000 
0.685384 -0.737445 0.000000 
0.287229 0.761397 0.000000 
0.702895 0.062069 0.000000 
0.180633 -0.429450 0.000000 
0.445811 0.892390 0.000000 
-0.220880 0.449604 0.000000 
-0.071546 -0.181321 0.000000 
-0.033296 -0.436392 0.000000 
-0.417537 -0.936902 0.000000 
0.039645 0.360536 0.000000 
-0.441768 -0.139336 0.000000 
-0.109248 -0.834786 0.000000 
-0.699407 0.688458 0.000000 
-0.474522 0.021179 0.000000 
0.820030 -0.405815 0.000000 
0.957100 0.970114 0.000000 
0.610485 -0.932978 0.000000 
-0.761092 0.336642 0.000000 
-0.714655 -0.374096 0.000000 
-0.057734 -0.579263 0.000000 
-0.178789 -0.425354 0.000000 
-0.067979 0.917220 0.000000 
0.677748 0.779016 0.000000 
0.641556 -0.006729 0.000000 
-0.765897 -0.265207 0.000000 
0.393446 0.802655 0.000000 
0.522510 0.166925 0.000000 
-0.691820 0.068381 0.000000 
-0.647393 -0.662102 0.000000 
0.028512 -0.869628 0.000000 
-0.053800 0.313011 0.000000 
0.514316 0.040880 0.000000 
0.965681 0.030664 0.000000 
-0.897068 -0.593365 0.000000 
-0.083078 -0.660218 0.000000 
-0.006893 0.637258 0.000000 
0.724017 0.473625 0.000000 
0.714996 -0.302779 0.000000 
-0.642413 -0.536236 0.000000 
-0.760780 0.624783 0.000000 
-0.205471 0.346968 0.000000 
0.000000 -0.627676 0.000000 
-0.564049 0.674137 0.000000 
0.000000 0.268701 0.000000 
0.564049 0.674137 0.000000 
0.866949 -0.081208 0.000000 
-0.569003 -0.401139 0.000000 
0.000000 0.118149 0.000000 
0.569003 -0.401139 0.000000 
-0.866949 -0.081208 0.000000 
0.299194 -0.850958 0.000000 
0.858290 0.857458 0.000000 
-0.577662 -0.566096 0.000000 
0.000000 -0.985474 0.000000 
0.577662 -0.566096 0.000000 
-0.858290 0.857458 0.000000 
-0.299194 -0.850958 0.000000 
-0.268560 0.379292 0.000000 
0.286830 0.101651 0.000000 
0.844677 0.720849 0.000000 
-0.578910 0.344686 0.000000 
0.000000 0.836090 0.000000 
0.578910 0.344686 0.000000 
-0.844677 0.720849 0.000000 
-0.286830 0.101651 0.000000 
0.268560 0.379292 0.000000 
-0.610485 -0.932978 0.000000 
0.057734 -0.579263 0.000000 
0.714655 -0.374096 0.000000 
0.761092 0.336642 0.000000 
0.765897 -0.265207 0.000000 
-0.641556 -0.006729 0.000000 
-0.677748 0.779016 0.000000 
0.067979 0.917220 0.000000 
0.178789 -0.425354 0.000000 
-0.514316 0.040880 0.000000 
0.053800 0.313011 0.000000 
-0.028512 -0.869628 0.000000 
0.647393 -0.662102 0.000000 
0.691820 0.068381 0.000000 
-0.522510 0.166925 0.000000 
-0.393446 0.802655 0.000000 
0.205471 0.346968 0.000000 
0.760780 0.624783 0.000000 
0.642413 -0.536236 0.000000 
-0.714996 -0.302779 0.000000 
-0.724017 0.473625 0.000000 
0.006894 0.637258 0.000000 
0.083078 -0.660218 0.000000 
0.897068 -0.593365 0.000000 
-0.965681 0.030664 0.000000 
-0.761262 0.381016 0.000000 
0.142083 -0.479722 0.000000 
0.397202 0.181553 0.000000 
-0.108942 0.662393 0.000000 
-0.899809 0.667244 0.000000 
-0.724964 -0.690508 0.000000 
0.660903 -0.229988 0.000000 
-0.978194 0.461637 0.000000 
0.595936 0.961503 0.000000 
0.071546 -0.181321 0.000000 
0.220880 0.449604 0.000000 
-0.445811 0.892390 0.000000 
-0.180633 -0.429450 0.000000 
-0.702895 0.062069 0.000000 
-0.287229 0.761397 0.000000 
-0.685384 -0.737445 0.000000 
-0.957100 0.970114 0.000000 
-0.820030 -0.405815 0.000000 
0.474522 0.021179 0.000000 
0.699407 0.688458 0.000000 
0.109248 -0.834786 0.000000 
0.441768 -0.139336 0.000000 
-0.039645 0.360536 0.000000 
0.417537 -0.936902 0.000000 
0.033296 -0.436392 0.000000 
-0.338794 -0.169118 0.000000 
-0.374519 0.403844 0.000000 
-0.713312 -0.976726 0.000000 
0.609100 0.912133 0.000000 
-0.381900 -0.973928 0.000000 
-0.756418 -0.431535 0.000000 
0.513962 -0.643021 0.000000 
0.218274 0.081217 0.000000 
-0.423588 0.047114 0.000000 
-0.384386 -0.338159 0.000000 
-0.766286 0.176462 0.000000 
0.484677 -0.088754 0.000000 
0.139443 0.549371 0.000000 
-0.556234 0.431802 0.000000 
-0.823577 -0.794694 0.000000 
0.550868 -0.805489 0.000000 
-0.386873 0.297610 0.000000 
-0.771260 0.798000 0.000000 
0.467428 0.491471 0.000000 
0.105264 -0.909902 0.000000 
-0.621631 0.908198 0.000000 
-0.937896 -0.388222 0.000000 
0.385608 -0.467417 0.000000 
0.141715 0.341811 0.000000 
-0.474677 0.341907 0.000000 
CELL_DATA 175 
SCALARS MASS float 
LOOKUP_TABLE default 
0.781831 
0.864274 
0.946717 
0.864274 
0.881307 
0.921110 
0.858535 
0.921110 
0.881307 
0.887046 
0.910001 
0.869829 
0.915556 
0.869829 
0.910001 
0.887046 
0.892784 
0.915740 
0.892784 
0.927218 
0.892784 
0.927218 
0.892784 
0.915740 
0.892784 
0.781831 
0.864274 
0.946717 
0.864274 
0.881307 
0.921110 
0.858535 
0.921110 
0.881307 
0.887046 
0.910001 
0.869829 
0.915556 
0.869829 
0.910001 
0.887046 
0.892784 
0.915740 
0.892784 
0.927218 
0.892784 
0.927218 
0.892784 
0.915740 
0.892784 
0.781831 
0.864274 
0.946717 
0.864274 
0.881307 
0.921110 
0.858535 
0.921110 
0.881307 
0.887046 
0.910001 
0.869829 
0.915556 
0.869829 
0.910001 
0.887046 
0.892784 
0.915740 
0.892784 
0.927218 
0.892784 
0.927218 
0.892784 
0.915740 
0.892784 
0.781831 
0.864274 
0.946717 
0.864274 
0.881307 
0.921110 
0.858535 
0.921110 
0.881307 
0.887046 
0.910001 
0.869829 
0.915556 
0.869829 
0.910001 
0.887046 
0.892784 
0.915740 
0.892784 
0.927218 
0.892784 
0.927218 
0.892784 
0.915740 
0.892784 
0.781831 
0.864274 
0.946717 
0.864274 
0.881307 
0.921110 
0.858535 
0.921110 
0.881307 
0.887046 
0.910001 
0.869829 
0.915556 
0.869829 
0.910001 
0.887046 
0.892784 
0.915740 
0.892784 
0.927218 
0.892784 
0.927218 
0.892784 
0.915740 
0.892784 
0.781831 
0.864274 
0.946717 
0.864274 
0.881307 
0.921110 
0.858535 
0.921110 
0.881307 
0.887046 
0.910001 
0.869829 
0.915556 
0.869829 
0.910001 
0.887046 
0.892784 
0.915740 
0.892784 
0.927218 
0.892784 
0.927218 
0.892784 
0.915740 
0.892784 
0.781831 
0.864274 
0.946717 
0.864274 
0.881307 
0.921110 
0.858535 
0.921110 
0.881307 
0.887046 
0.910001 
0.869829 
0.915556 
0.869829 
0.910001 
0.887046 
0.892784 
0.915740 
0.892784 
0.927218 
0.892784 
0.927218 
0.892784 
0.915740 
0.892784 
SCALARS MASS float 
LOOKUP_TABLE default 
0.781831 
0.864274 
0.946717 
0.864274 
0.881307 
0.921110 
0.858535 
0.921110 
0.881307 
0.887046 
0.910001 
0.869829 
0.915556 
0.869829 
0.910001 
0.887046 
0.892784 
0.915740 
0.892784 
0.927218 
0.892784 
0.927218 
0.892784 
0.915740 
0.892784 
0.781831 
0.864274 
0.946717 
0.864274 
0.881307 
0.921110 
0.858535 
0.921110 
0.881307 
0.887046 
0.910001 
0.869829 
0.915556 
0.869829 
0.910001 
0.887046 
0.892784 
0.915740 
0.892784 
0.927218 
0.892784 
0.927218 
0.892784 
0.915740 
0.892784 
0.781831 
0.864274 
0.946717 
0.864274 
0.881307 
0.921110 
0.858535 
0.921110 
0.881307 
0.887046 
0.910001 
0.869829 
0.915556 
0.869829 
0.910001 
0.887046 
0.892784 
0.915740 
0.892784 
0.927218 
0.892784 
0.927218 
0.892784 
0.915740 
0.892784 
0.781831 
0.864274 
0.946717 
0.864274 
0.881307 
0.921110 
0.858535 
0.921110 
0.881307 
0.887046 
0.910001 
0.869829 
0.915556 
0.869829 
0.910001 
0.887046 
0.892784 
0.915740 
0.892784 
0.927218 
0.892784 
0.927218 
0.892784 
0.915740 
0.892784 
0.781831 
0.864274 
0.946717 
0.864274 
0.881307 
0.921110 
0.858535 
0.921110 
0.881307 
0.887046 
0.910001 
0.869829 
0.915556 
0.869829 
0.910001 
0.887046 
0.892784 
0.915740 
0.892784 
0.927218 
0.892784 
0.927218 
0.892784 
0.915740 
0.892784 
0.781831 
0.864274 
0.946717 
0.864274 
0.881307 
0.921110 
0.858535 
0.921110 
0.881307 
0.887046 
0.910001 
0.869829 
0.915556 
0.869829 
0.910001 
0.887046 
0.892784 
0.915740 
0.892784 
0.927218 
0.892784 
0.927218 
0.892784 
0.915740 
0.892784 
0.781831 
0.864274 
0.946717 
0.864274 
0.881307 
0.921110 
0.858535 
0.921110 
0.881307 
0.887046 
0.910001 
0.869829 
0.915556 
0.869829 
0.910001 
0.887046 
0.892784 
0.915740 
0.892784 
0.927218 
0.892784 
0.927218 
0.892784 
0.915740 
0.892784 
SCALARS DENSITY float 
LOOKUP_TABLE default 
200.000000 
200.000000 
200.000000 
200.000000 
200.000000 
200.000000 
200.000000 
200.000000 
200.000000 
200.000000 
200.000000 
200.000000 
200.000000 
200.000000 
200.000000 
200.000000 
200.000000 
200.000000 
200.000000 
200.000000 
200.000000 
200.000000 
200.000000 
200.000000 
200.000000 
200.000000 
200.000000 
200.000000 
200.000000 
200.000000 
200.000000 
200.000000 
200.000000 
200.000000 
200.000000 
200.000000 
200.000000 
200.000000 
200.000000 
200.000000 
200.000000 
200.000000 
200.000000 
200.000000 
200.000000 
200.000000 
200.000000 
200.000000 
200.000000 
200.000000 
200.000000 
200.000000 
200.000000 
200.000000 
200.000000 
200.000000 
200.000000 
200.000000 
200.000000 
200.000000 
200.000000 
200.000000 
200.000000 
200.000000 
200.000000 
200.000000 
200.000000 
200.000000 
200.000000 
200.000000 
200.000000 
200.000000 
200.000000 
200.000000 
200.000000 
200.000000 
200.000000 
200.000000 
200.000000 
200.000000 
200.000000 
200.000000 
200.000000 
200.000000 
200.000000 
200.000000 
200.000000 
200.000000 
200.000000 
200.000000 
200.000000 
200.000000 
200.000000 
200.000000 
200.000000 
200.000000 
200.000000 
200.000000 
200.000000 
200.000000 
200.000000 
200.000000 
200.000000 
200.000000 
200.000000 
200.000000 
200.000000 
200.000000 
200.000000 
200.000000 
200.000000 
200.000000 
200.000000 
200.000000 
200.000000 
200.000000 
200.000000 
200.000000 
200.000000 
200.000000 
200.000000 
200.000000 
200.000000 
200.000000 
200.000000 
200.000000 
200.000000 
200.000000 
200.000000 
200.000000 
200.000000 
200.000000 
200.000000 
200.000000 
200.000000 
200.000000 
200.000000 
200.000000 
200.000000 
200.000000 
200.000000 
200.000000 
200.000000 
200.000000 
200.000000 
200.000000 
200.000000 
200.000000 
200.000000 
200.000000 
200.000000 
200.000000 
200.000000 
200.000000 
200.000000 
200.000000 
200.000000 
200.000000 
200.000000 
200.000000 
200.000000 
200.000000 
200.000000 
200.000000 
200.000000 
200.000000 
200.000000 
200.000000 
200.000000 
200.000000 
200.000000 
200.000000 
200.000000 
200.000000 
200.000000 
SCALARS ELEM_i float 
LOOKUP_TABLE default 
174 
202 
174 
175 
202 
202 
202 
175 
175 
229 
202 
203 
203 
203 
176 
176 
230 
230 
230 
203 
204 
203 
204 
177 
177 
174 
201 
201 
201 
228 
201 
228 
201 
202 
227 
228 
228 
228 
229 
229 
229 
254 
254 
255 
255 
255 
256 
256 
229 
230 
173 
200 
200 
200 
199 
200 
200 
200 
227 
199 
199 
226 
226 
226 
227 
227 
198 
225 
225 
226 
226 
226 
253 
254 
254 
173 
173 
173 
173 
145 
172 
172 
172 
199 
144 
145 
171 
171 
171 
199 
198 
144 
144 
144 
171 
171 
171 
198 
198 
198 
173 
146 
146 
146 
119 
146 
146 
146 
145 
119 
119 
118 
118 
118 
145 
145 
92 
92 
91 
118 
118 
118 
117 
117 
144 
174 
147 
147 
147 
148 
147 
120 
147 
120 
121 
121 
121 
120 
120 
120 
119 
122 
121 
94 
94 
93 
93 
93 
92 
92 
174 
175 
174 
148 
175 
175 
148 
148 
148 
176 
176 
149 
149 
149 
148 
121 
177 
177 
150 
149 
150 
149 
122 
122 
122 
VECTORS VELOCITY float 
0.000000 -4.826520 0.000000 
-0.000000 -4.826520 0.000000 
-0.000000 -4.826520 0.000000 
-0.000000 -4.826520 0.000000 
-0.000000 -4.826520 0.000000 
-0.000000 -4.826520 0.000000 
-0.000000 -4.826520 0.000000 
-0.000000 -4.826520 0.000000 
-0.000000 -4.826520 0.000000 
0.000000 -4.826520 0.000000 
-0.000000 -4.826520 0.000000 
0.000000 -4.826520 0.000000 
0.000000 -4.826520 0.000000 
-0.000000 -4.826520 0.000000 
-0.000000 -4.826520 0.000000 
-0.000000 -4.826520 0.000000 
-0.000000 -4.826520 0.000000 
0.000000 -4.826520 0.000000 
0.000000 -4.826520 0.000000 
0.000000 -4.826520 0.000000 
-0.000000 -4.826520 0.000000 
-0.000000 -4.826520 0.000000 
-0.000000 -4.826520 0.000000 
-0.000000 -4.826520 0.000000 
-0.000000 -4.826520 0.000000 
0.000000 -4.826520 0.000000 
-0.000000 -4.826520 0.000000 
0.000000 -4.826520 0.000000 
0.000000 -4.826520 0.000000 
-0.000000 -4.826520 0.000000 
-0.000000 -4.826520 0.000000 
0.000000 -4.826520 0.000000 
0.000000 -4.826520 0.000000 
0.000000 -4.826520 0.000000 
-0.000000 -4.826520 0.000000 
0.000000 -4.826520 0.000000 
0.000000 -4.826520 0.000000 
0.000000 -4.826520 0.000000 
0.000000 -4.826520 0.000000 
0.000000 -4.826520 0.000000 
0.000000 -4.826520 0.000000 
0.000000 -4.826520 0.000000 
0.000000 -4.826520 0.000000 
0.000000 -4.826520 0.000000 
0.000000 -4.826520 0.000000 
-0.000000 -4.826520 0.000000 
-0.000000 -4.826520 0.000000 
-0.000000 -4.826520 0.000000 
0.000000 -4.826520 0.000000 
0.000000 -4.826520 0.000000 
0.000000 -4.826520 0.000000 
-0.000000 -4.826520 0.000000 
0.000000 -4.826520 0.000000 
0.000000 -4.826520 0.000000 
-0.000000 -4.826520 0.000000 
0.000000 -4.826520 0.000000 
0.000000 -4.826520 0.000000 
0.000000 -4.826520 0.000000 
-0.000000 -4.826520 0.000000 
-0.000000 -4.826520 0.000000 
0.000000 -4.826520 0.000000 
-0.000000 -4.826520 0.000000 
0.000000 -4.826520 0.000000 
-0.000000 -4.826520 0.000000 
0.000000 -4.826520 0.000000 
-0.000000 -4.826520 0.000000 
0.000000 -4.826520 0.000000 
-0.000000 -4.826520 0.000000 
-0.000000 -4.826520 0.000000 
-0.000000 -4.826520 0.000000 
-0.000000 -4.826520 0.000000 
-0.000000 -4.826520 0.000000 
0.000000 -4.826520 0.000000 
-0.000000 -4.826520 0.000000 
0.000000 -4.826520 0.000000 
0.000000 -4.826520 0.000000 
0.000000 -4.826520 0.000000 
0.000000 -4.826520 0.000000 
-0.000000 -4.826520 0.000000 
0.000000 -4.826520 0.000000 
0.000000 -4.826520 0.000000 
0.000000 -4.826520 0.000000 
-0.000000 -4.826520 0.000000 
-0.000000 -4.826520 0.000000 
-0.000000 -4.826520 0.000000 
-0.000000 -4.826520 0.000000 
-0.000000 -4.826520 0.000000 
-0.000000 -4.826520 0.000000 
-0.000000 -4.826520 0.000000 
-0.000000 -4.826520 0.000000 
-0.000000 -4.826520 0.000000 
-0.000000 -4.826520 0.000000 
0.000000 -4.826520 0.000000 
-0.000000 -4.826520 0.000000 
0.000000 -4.826520 0.000000 
-0.000000 -4.826520 0.000000 
-0.000000 -4.826520 0.000000 
-0.000000 -4.826520 0.000000 
-0.000000 -4.826520 0.000000 
0.000000 -4.826520 0.000000 
-0.000000 -4.826520 0.000000 
-0.000000 -4.826520 0.000000 
-0.000000 -4.826520 0.000000 
0.000000 -4.826520 0.000000 
-0.000000 -4.826520 0.000000 
-0.000000 -4.826520 0.000000 
-0.000000 -4.826520 0.000000 
0.000000 -4.826520 0.000000 
0.000000 -4.826520 0.000000 
-0.000000 -4.826520 0.000000 
-0.000000 -4.826520 0.000000 
-0.000000 -4.826520 0.000000 
-0.000000 -4.826520 0.000000 
-0.000000 -4.826520 0.000000 
-0.000000 -4.826520 0.000000 
-0.000000 -4.826520 0.000000 
0.000000 -4.826520 0.000000 
-0.000000 -4.826520 0.000000 
0.000000 -4.826520 0.000000 
-0.000000 -4.826520 0.000000 
0.000000 -4.826520 0.000000 
0.000000 -4.826520 0.000000 
-0.000000 -4.826520 0.000000 
-0.000000 -4.826520 0.000000 
-0.000000 -4.826520 0.000000 
0.000000 -4.826520 0.000000 
-0.000000 -4.826520 0.000000 
-0.000000 -4.826520 0.000000 
-0.000000 -4.826520 0.000000 
0.000000 -4.826520 0.000000 
0.000000 -4.826520 0.000000 
0.000000 -4.826520 0.000000 
0.000000 -4.826520 0.000000 
0.000000 -4.826520 0.000000 
-0.000000 -4.826520 0.000000 
0.000000 -4.826520 0.000000 
0.000000 -4.826520 0.000000 
0.000000 -4.826520 0.000000 
0.000000 -4.826520 0.000000 
0.000000 -4.826520 0.000000 
0.000000 -4.826520 0.000000 
0.000000 -4.826520 0.000000 
-0.000000 -4.826520 0.000000 
-0.000000 -4.826520 0.000000 
0.000000 -4.826520 0.000000 
0.000000 -4.826520 0.000000 
-0.000000 -4.826520 0.000000 
-0.000000 -4.826520 0.000000 
0.000000 -4.826520 0.000000 
-0.000000 -4.826520 0.000000 
-0.000000 -4.826520 0.000000 
-0.000000 -4.826520 0.000000 
-0.000000 -4.826520 0.000000 
-0.000000 -4.826520 0.000000 
0.000000 -4.826520 0.000000 
0.000000 -4.826520 0.000000 
0.000000 -4.826520 0.000000 
0.000000 -4.826520 0.000000 
0.000000 -4.826520 0.000000 
-0.000000 -4.826520 0.000000 
0.000000 -4.826520 0.000000 
-0.000000 -4.826520 0.000000 
0.000000 -4.826520 0.000000 
-0.000000 -4.826520 0.000000 
-0.000000 -4.826520 0.000000 
-0.000000 -4.826520 0.000000 
-0.000000 -4.826520 0.000000 
-0.000000 -4.826520 0.000000 
0.000000 -4.826520 0.000000 
0.000000 -4.826520 0.000000 
0.000000 -4.826520 0.000000 
-0.000000 -4.826520 0.000000 
-0.000000 -4.826520 0.000000 
0.000000 -4.826520 0.000000 
0.000000 -4.826520 0.000000 
TENSORS STRESS float 
-0.000000 -0.000000 0.000000 
0.000000 -0.000000 0.000000 
0.000000 0.000000 0.000000 

0.000000 -0.000000 0.000000 
0.000000 0.000000 0.000000 
0.000000 0.000000 0.000000 

-0.000000 -0.000000 0.000000 
0.000000 -0.000000 0.000000 
0.000000 0.000000 0.000000 

-0.000000 0.000000 0.000000 
0.000000 -0.000000 0.000000 
0.000000 0.000000 0.000000 

-0.000000 -0.000000 0.000000 
0.000000 -0.000000 0.000000 
0.000000 0.000000 0.000000 

0.000000 -0.000000 0.000000 
0.000000 0.000000 0.000000 
0.000000 0.000000 0.000000 

0.000000 -0.000000 0.000000 
0.000000 0.000000 0.000000 
0.000000 0.000000 0.000000 

-0.000000 -0.000000 0.000000 
0.000000 -0.000000 0.000000 
0.000000 0.000000 0.000000 

-0.000000 -0.000000 0.000000 
0.000000 -0.000000 0.000000 
0.000000 0.000000 0.000000 

-0.000000 -0.000000 0.000000 
0.000000 -0.000000 0.000000 
0.000000 0.000000 0.000000 

-0.000000 -0.000000 0.000000 
0.000000 -0.000000 0.000000 
0.000000 0.000000 0.000000 

0.000000 0.000000 0.000000 
0.000000 0.000000 0.000000 
0.000000 0.000000 0.000000 

0.000000 0.000000 0.000000 
0.000000 0.000000 0.000000 
0.000000 0.000000 0.000000 

0.000000 0.000000 0.000000 
0.000000 0.000000 0.000000 
0.000000 0.000000 0.000000 

-0.000000 0.000000 0.000000 
0.000000 -0.000000 0.000000 
0.000000 0.000000 0.000000 

0.000000 0.000000 0.000000 
0.000000 0.000000 0.000000 
0.000000 0.000000 0.000000 

-0.000000 0.000000 0.000000 
0.000000 -0.000000 0.000000 
0.000000 0.000000 0.000000 

-0.000000 0.000000 0.000000 
0.000000 -0.000000 0.000000 
0.000000 0.000000 0.000000 

-0.000000 -0.000000 0.000000 
0.000000 -0.000000 0.000000 
0.000000 0.000000 0.000000 

-0.000000 -0.000000 0.000000 
0.000000 -0.000000 0.000000 
0.000000 0.000000 0.000000 

0.000000 -0.000000 0.000000 
0.000000 0.000000 0.000000 
0.000000 0.000000 0.000000 

0.000000 -0.000000 0.000000 
0.000000 0.000000 0.000000 
0.000000 0.000000 0.000000 

-0.000000 0.000000 0.000000 
0.000000 -0.000000 0.000000 
0.000000 0.000000 0.000000 

-0.000000 0.000000 0.000000 
0.000000 -0.000000 0.000000 
0.000000 0.000000 0.000000 

0.000000 -0.000000 0.000000 
0.000000 0.000000 0.000000 
0.000000 0.000000 0.000000 

0.000000 -0.000000 0.000000 
0.000000 0.000000 0.000000 
0.000000 0.000000 0.000000 

0.000000 -0.000000 0.000000 
0.000000 0.000000 0.000000 
0.000000 0.000000 0.000000 

-0.000000 0.000000 0.000000 
0.000000 -0.000000 0.000000 
0.000000 0.000000 0.000000 

0.000000 0.000000 0.000000 
0.000000 0.000000 0.000000 
0.000000 0.000000 0.000000 

0.000000 0.000000 0.000000 
0.000000 0.000000 0.000000 
0.000000 0.000000 0.000000 

0.000000 -0.000000 0.000000 
0.000000 0.000000 0.000000 
0.000000 0.000000 0.000000 

0.000000 0.000000 0.000000 
0.000000 0.000000 0.000000 
0.000000 0.000000 0.000000 

0.000000 0.000000 0.000000 
0.000000 0.000000 0.000000 
0.000000 0.000000 0.000000 

0.000000 -0.000000 0.000000 
0.000000 0.000000 0.000000 
0.000000 0.000000 0.000000 

0.000000 -0.000000 0.000000 
0.000000 -0.000000 0.000000 
0.000000 0.000000 0.000000 

0.000000 0.000000 0.000000 
0.000000 0.000000 0.000000 
0.000000 0.000000 0.000000 

-0.000000 0.000000 0.000000 
0.000000 -0.000000 0.000000 
0.000000 0.000000 0.000000 

0.000000 0.000000 0.000000 
0.000000 0.000000 0.000000 
0.000000 0.000000 0.000000 

-0.000000 0.000000 0.000000 
0.000000 -0.000000 0.000000 
0.000000 0.000000 0.000000 

-0.000000 0.000000 0.000000 
0.000000 -0.000000 0.000000 
0.000000 0.000000 0.000000 

-0.000000 0.000000 0.000000 
0.000000 -0.000000 0.000000 
0.000000 0.000000 0.000000 

-0.000000 -0.000000 0.000000 
0.000000 -0.000000 0.000000 
0.000000 0.000000 0.000000 

-0.000000 -0.000000 0.000000 
0.000000 -0.000000 0.000000 
0.000000 0.000000 0.000000 

-0.000000 -0.000000 0.000000 
0.000000 -0.000000 0.000000 
0.000000 0.000000 0.000000 

0.000000 0.000000 0.000000 
0.000000 0.000000 0.000000 
0.000000 0.000000 0.000000 

-0.000000 0.000000 0.000000 
0.000000 -0.000000 0.000000 
0.000000 0.000000 0.000000 

0.000000 -0.000000 0.000000 
0.000000 0.000000 0.000000 
0.000000 0.000000 0.000000 

0.000000 0.000000 0.000000 
0.000000 0.000000 0.000000 
0.000000 0.000000 0.000000 

-0.000000 0.000000 0.000000 
0.000000 -0.000000 0.000000 
0.000000 0.000000 0.000000 

0.000000 0.000000 0.000000 
0.000000 0.000000 0.000000 
0.000000 0.000000 0.000000 

0.000000 -0.000000 0.000000 
0.000000 0.000000 0.000000 
0.000000 0.000000 0.000000 

0.000000 -0.000000 0.000000 
0.000000 0.000000 0.000000 
0.000000 0.000000 0.000000 

0.000000 -0.000000 0.000000 
0.000000 -0.000000 0.000000 
0.000000 0.000000 0.000000 

-0.000000 -0.000000 0.000000 
0.000000 -0.000000 0.000000 
0.000000 0.000000 0.000000 

-0.000000 -0.000000 0.000000 
0.000000 -0.000000 0.000000 
0.000000 0.000000 0.000000 

-0.000000 0.000000 0.000000 
0.000000 0.000000 0.000000 
0.000000 0.000000 0.000000 

-0.000000 -0.000000 0.000000 
0.000000 -0.000000 0.000000 
0.000000 0.000000 0.000000 

-0.000000 -0.000000 0.000000 
0.000000 -0.000000 0.000000 
0.000000 0.000000 0.000000 

0.000000 0.000000 0.000000 
0.000000 0.000000 0.000000 
0.000000 0.000000 0.000000 

0.000000 0.000000 0.000000 
0.000000 0.000000 0.000000 
0.000000 0.000000 0.000000 

-0.000000 0.000000 0.000000 
0.000000 -0.000000 0.000000 
0.000000 0.000000 0.000000 

0.000000 0.000000 0.000000 
0.000000 0.000000 0.000000 
0.000000 0.000000 0.000000 

0.000000 0.000000 0.000000 
0.000000 0.000000 0.000000 
0.000000 0.000000 0.000000 

0.000000 0.000000 0.000000 
0.000000 0.000000 0.000000 
0.000000 0.000000 0.000000 

-0.000000 0.000000 0.000000 
0.000000 -0.000000 0.000000 
0.000000 0.000000 0.000000 

0.000000 0.000000 0.000000 
0.000000 0.000000 0.000000 
0.000000 0.000000 0.000000 

0.000000 0.000000 0.000000 
0.000000 0.000000 0.000000 
0.000000 0.000000 0.000000 

0.000000 0.000000 0.000000 
0.000000 0.000000 0.000000 
0.000000 0.000000 0.000000 

-0.000000 -0.000000 0.000000 
0.000000 0.000000 0.000000 
0.000000 0.000000 0.000000 

-0.000000 0.000000 0.000000 
0.000000 -0.000000 0.000000 
0.000000 0.000000 0.000000 

-0.000000 -0.000000 0.000000 
0.000000 -0.000000 0.000000 
0.000000 0.000000 0.000000 

0.000000 0.000000 0.000000 
0.000000 0.000000 0.000000 
0.000000 0.000000 0.000000 

0.000000 -0.000000 0.000000 
0.000000 0.000000 0.000000 
0.000000 0.000000 0.000000 

-0.000000 -0.000000 0.000000 
0.000000 -0.000000 0.000000 
0.000000 0.000000 0.000000 

0.000000 -0.000000 0.000000 
0.000000 0.000000 0.000000 
0.000000 0.000000 0.000000 

0.000000 -0.000000 0.000000 
0.000000 0.000000 0.000000 
0.000000 0.000000 0.000000 

0.000000 -0.000000 0.000000 
0.000000 0.000000 0.000000 
0.000000 0.000000 0.000000 

0.000000 -0.000000 0.000000 
0.000000 0.000000 0.000000 
0.000000 0.000000 0.000000 

0.000000 0.000000 0.000000 
0.000000 0.000000 0.000000 
0.000000 0.000000 0.000000 

0.000000 0.000000 0.000000 
0.000000 0.000000 0.000000 
0.000000 0.000000 0.000000 

0.000000 0.000000 0.000000 
0.000000 -0.000000 0.000000 
0.000000 0.000000 0.000000 

0.000000 0.000000 0.000000 
0.000000 0.000000 0.000000 
0.000000 0.000000 0.000000 

0.000000 -0.000000 0.000000 
0.000000 0.000000 0.000000 
0.000000 0.000000 0.000000 

0.000000 0.000000 0.000000 
0.000000 0.000000 0.000000 
0.000000 0.000000 0.000000 

0.000000 0.000000 0.000000 
0.000000 0.000000 0.000000 
0.000000 0.000000 0.000000 

-0.000000 0.000000 0.000000 
0.000000 -0.000000 0.000000 
0.000000 0.000000 0.000000 

0.000000 -0.000000 0.000000 
0.000000 0.000000 0.000000 
0.000000 0.000000 0.000000 

-0.000000 0.000000 0.000000 
0.000000 -0.000000 0.000000 
0.000000 0.000000 0.000000 

0.000000 0.000000 0.000000 
0.000000 0.000000 0.000000 
0.000000 0.000000 0.000000 

0.000000 -0.000000 0.000000 
0.000000 0.000000 0.000000 
0.000000 0.000000 0.000000 

0.000000 0.000000 0.000000 
0.000000 0.000000 0.000000 
0.000000 0.000000 0.000000 

-0.000000 0.000000 0.000000 
0.000000 -0.000000 0.000000 
0.000000 0.000000 0.000000 

0.000000 0.000000 0.000000 
0.000000 0.000000 0.000000 
0.000000 0.000000 0.000000 

0.000000 0.000000 0.000000 
0.000000 0.000000 0.000000 
0.000000 0.000000 0.000000 

-0.000000 -0.000000 0.000000 
0.000000 -0.000000 0.000000 
0.000000 0.000000 0.000000 

0.000000 -0.000000 0.000000 
0.000000 0.000000 0.000000 
0.000000 0.000000 0.000000 

-0.000000 -0.000000 0.000000 
0.000000 0.000000 0.000000 
0.000000 0.000000 0.000000 

0.000000 0.000000 0.000000 
0.000000 0.000000 0.000000 
0.000000 0.000000 0.000000 

0.000000 0.000000 0.000000 
0.000000 0.000000 0.000000 
0.000000 0.000000 0.000000 

0.000000 -0.000000 0.000000 
0.000000 0.000000 0.000000 
0.000000 0.000000 0.000000 

0.000000 -0.000000 0.000000 
0.000000 0.000000 0.000000 
0.000000 0.000000 0.000000 

-0.000000 -0.000000 0.000000 
0.000000 -0.000000 0.000000 
0.000000 0.000000 0.000000 

0.000000 -0.000000 0.000000 
0.000000 0.000000 0.000000 
0.000000 0.000000 0.000000 

0.000000 -0.000000 0.000000 
0.000000 0.000000 0.000000 
0.000000 0.000000 0.000000 

0.000000 -0.000000 0.000000 
0.000000 0.000000 0.000000 
0.000000 0.000000 0.000000 

-0.000000 -0.000000 0.000000 
0.000000 -0.000000 0.000000 
0.000000 0.000000 0.000000 

-0.000000 0.000000 0.000000 
0.000000 -0.000000 0.000000 
0.000000 0.000000 0.000000 

0.000000 0.000000 0.000000 
0.000000 0.000000 0.000000 
0.000000 0.000000 0.000000 

0.000000 0.000000 0.000000 
0.000000 0.000000 0.000000 
0.000000 0.000000 0.000000 

-0.000000 -0.000000 0.000000 
0.000000 -0.000000 0.000000 
0.000000 0.000000 0.000000 

-0.000000 -0.000000 0.000000 
0.000000 -0.000000 0.000000 
0.000000 0.000000 0.000000 

0.000000 -0.000000 0.000000 
0.000000 -0.000000 0.000000 
0.000000 0.000000 0.000000 

0.000000 0.000000 0.000000 
0.000000 0.000000 0.000000 
0.000000 0.000000 0.000000 

-0.000000 0.000000 0.000000 
0.000000 -0.000000 0.000000 
0.000000 0.000000 0.000000 

-0.000000 -0.000000 0.000000 
0.000000 -0.000000 0.000000 
0.000000 0.000000 0.000000 

0.000000 0.000000 0.000000 
0.000000 0.000000 0.000000 
0.000000 0.000000 0.000000 

0.000000 -0.000000 0.000000 
0.000000 0.000000 0.000000 
0.000000 0.000000 0.000000 

0.000000 0.000000 0.000000 
0.000000 0.000000 0.000000 
0.000000 0.000000 0.000000 

-0.000000 0.000000 0.000000 
0.000000 -0.000000 0.000000 
0.000000 0.000000 0.000000 

-0.000000 0.000000 0.000000 
0.000000 -0.000000 0.000000 
0.000000 0.000000 0.000000 

-0.000000 0.000000 0.000000 
0.000000 -0.000000 0.000000 
0.000000 0.000000 0.000000 

-0.000000 0.000000 0.000000 
0.000000 -0.000000 0.000000 
0.000000 0.000000 0.000000 

0.000000 -0.000000 0.000000 
0.000000 0.000000 0.000000 
0.000000 0.000000 0.000000 

0.000000 0.000000 0.000000 
0.000000 0.000000 0.000000 
0.000000 0.000000 0.000000 

-0.000000 -0.000000 0.000000 
0.000000 -0.000000 0.000000 
0.000000 0.000000 0.000000 

0.000000 -0.000000 0.000000 
0.000000 0.000000 0.000000 
0.000000 0.000000 0.000000 

0.000000 -0.000000 0.000000 
0.000000 0.000000 0.000000 
0.000000 0.000000 0.000000 

0.000000 0.000000 0.000000 
0.000000 0.000000 0.000000 
0.000000 0.000000 0.000000 

-0.000000 -0.000000 0.000000 
0.000000 -0.000000 0.000000 
0.000000 0.000000 0.000000 

-0.000000 -0.000000 0.000000 
0.000000 -0.000000 0.000000 
0.000000 0.000000 0.000000 

-0.000000 -0.000000 0.000000 
0.000000 -0.000000 0.000000 
0.000000 0.000000 0.000000 

-0.000000 -0.000000 0.000000 
0.000000 -0.000000 0.000000 
0.000000 0.000000 0.000000 

0.000000 -0.000000 0.000000 
0.000000 0.000000 0.000000 
0.000000 0.000000 0.000000 

-0.000000 -0.000000 0.000000 
0.000000 -0.000000 0.000000 
0.000000 0.000000 0.000000 

-0.000000 -0.000000 0.000000 
0.000000 -0.000000 0.000000 
0.000000 0.000000 0.000000 

0.000000 0.000000 0.000000 
0.000000 0.000000 0.000000 
0.000000 0.000000 0.000000 

0.000000 -0.000000 0.000000 
0.000000 0.000000 0.000000 
0.000000 0.000000 0.000000 

0.000000 -0.000000 0.000000 
0.000000 0.000000 0.000000 
0.000000 0.000000 0.000000 

-0.000000 -0.000000 0.000000 
0.000000 -0.000000 0.000000 
0.000000 0.000000 0.000000 

-0.000000 -0.000000 0.000000 
0.000000 -0.000000 0.000000 
0.000000 0.000000 0.000000 

-0.000000 -0.000000 0.000000 
0.000000 -0.000000 0.000000 
0.000000 0.000000 0.000000 

0.000000 -0.000000 0.000000 
0.000000 0.000000 0.000000 
0.000000 0.000000 0.000000 

-0.000000 -0.000000 0.000000 
0.000000 -0.000000 0.000000 
0.000000 0.000000 0.000000 

0.000000 0.000000 0.000000 
0.000000 0.000000 0.000000 
0.000000 0.000000 0.000000 

0.000000 0.000000 0.000000 
0.000000 0.000000 0.000000 
0.000000 0.000000 0.000000 

-0.000000 -0.000000 0.000000 
0.000000 -0.000000 0.000000 
0.000000 0.000000 0.000000 

-0.000000 0.000000 0.000000 
0.000000 -0.000000 0.000000 
0.000000 0.000000 0.000000 

0.000000 0.000000 0.000000 
0.000000 0.000000 0.000000 
0.000000 0.000000 0.000000 

-0.000000 0.000000 0.000000 
0.000000 -0.000000 0.000000 
0.000000 0.000000 0.000000 

0.000000 0.000000 0.000000 
0.000000 0.000000 0.000000 
0.000000 0.000000 0.000000 

-0.000000 -0.000000 0.000000 
0.000000 -0.000000 0.000000 
0.000000 0.000000 0.000000 

0.000000 -0.000000 0.000000 
0.000000 0.000000 0.000000 
0.000000 0.000000 0.000000 

0.000000 0.000000 0.000000 
0.000000 0.000000 0.000000 
0.000000 0.000000 0.000000 

0.000000 0.000000 0.000000 
0.000000 0.000000 0.000000 
0.000000 0.000000 0.000000 

-0.000000 -0.000000 0.000000 
0.000000 -0.000000 0.000000 
0.000000 0.000000 0.000000 

0.000000 0.000000 0.000000 
0.000000 0.000000 0.000000 
0.000000 0.000000 0.000000 

0.000000 -0.000000 0.000000 
0.000000 0.000000 0.000000 
0.000000 0.000000 0.000000 

-0.000000 -0.000000 0.000000 
0.000000 -0.000000 0.000000 
0.000000 0.000000 0.000000 

-0.000000 -0.000000 0.000000 
0.000000 -0.000000 0.000000 
0.000000 0.000000 0.000000 

-0.000000 0.000000 0.000000 
0.000000 -0.000000 0.000000 
0.000000 0.000000 0.000000 

-0.000000 -0.000000 0.000000 
0.000000 -0.000000 0.000000 
0.000000 0.000000 0.000000 

0.000000 -0.000000 0.000000 
0.000000 0.000000 0.000000 
0.000000 0.000000 0.000000 

-0.000000 0.000000 0.000000 
0.000000 -0.000000 0.000000 
0.000000 0.000000 0.000000 

-0.000000 0.000000 0.000000 
0.000000 -0.000000 0.000000 
0.000000 0.000000 0.000000 

0.000000 0.000000 0.000000 
0.000000 0.000000 0.000000 
0.000000 0.000000 0.000000 

0.000000 0.000000 0.000000 
0.000000 0.000000 0.000000 
0.000000 0.000000 0.000000 

0.000000 0.000000 0.000000 
0.000000 0.000000 0.000000 
0.000000 0.000000 0.000000 

-0.000000 0.000000 0.000000 
0.000000 -0.000000 0.000000 
0.000000 0.000000 0.000000 

0.000000 0.000000 0.000000 
0.000000 0.000000 0.000000 
0.000000 0.000000 0.000000 

0.000000 0.000000 0.000000 
0.000000 0.000000 0.000000 
0.000000 0.000000 0.000000 

-0.000000 0.000000 0.000000 
0.000000 -0.000000 0.000000 
0.000000 0.000000 0.000000 

-0.000000 -0.000000 0.000000 
0.000000 -0.000000 0.000000 
0.000000 0.000000 0.000000 

-0.000000 0.000000 0.000000 
0.000000 -0.000000 0.000000 
0.000000 0.000000 0.000000 

-0.000000 -0.000000 0.000000 
0.000000 -0.000000 0.000000 
0.000000 0.000000 0.000000 

-0.000000 -0.000000 0.000000 
0.000000 -0.000000 0.000000 
0.000000 0.000000 0.000000 

TENSORS STRAIN float 
0.000000 -0.000000 0.000000 
0.000000 -0.000000 0.000000 
0.000000 0.000000 0.000000 

0.000000 -0.000000 0.000000 
0.000000 0.000000 0.000000 
0.000000 0.000000 0.000000 

0.000000 -0.000000 0.000000 
0.000000 -0.000000 0.000000 
0.000000 0.000000 0.000000 

0.000000 0.000000 0.000000 
0.000000 -0.000000 0.000000 
0.000000 0.000000 0.000000 

0.000000 -0.000000 0.000000 
0.000000 -0.000000 0.000000 
0.000000 0.000000 0.000000 

0.000000 -0.000000 0.000000 
0.000000 -0.000000 0.000000 
0.000000 0.000000 0.000000 

-0.000000 -0.000000 0.000000 
0.000000 0.000000 0.000000 
0.000000 0.000000 0.000000 

0.000000 -0.000000 0.000000 
0.000000 -0.000000 0.000000 
0.000000 0.000000 0.000000 

0.000000 -0.000000 0.000000 
0.000000 -0.000000 0.000000 
0.000000 0.000000 0.000000 

-0.000000 -0.000000 0.000000 
0.000000 -0.000000 0.000000 
0.000000 0.000000 0.000000 

-0.000000 -0.000000 0.000000 
0.000000 0.000000 0.000000 
0.000000 0.000000 0.000000 

-0.000000 0.000000 0.000000 
0.000000 0.000000 0.000000 
0.000000 0.000000 0.000000 

-0.000000 0.000000 0.000000 
0.000000 0.000000 0.000000 
0.000000 0.000000 0.000000 

-0.000000 0.000000 0.000000 
0.000000 0.000000 0.000000 
0.000000 0.000000 0.000000 

0.000000 0.000000 0.000000 
0.000000 -0.000000 0.000000 
0.000000 0.000000 0.000000 

0.000000 0.000000 0.000000 
0.000000 -0.000000 0.000000 
0.000000 0.000000 0.000000 

-0.000000 0.000000 0.000000 
0.000000 -0.000000 0.000000 
0.000000 0.000000 0.000000 

-0.000000 0.000000 0.000000 
0.000000 -0.000000 0.000000 
0.000000 0.000000 0.000000 

-0.000000 -0.000000 0.000000 
0.000000 0.000000 0.000000 
0.000000 0.000000 0.000000 

0.000000 -0.000000 0.000000 
0.000000 -0.000000 0.000000 
0.000000 0.000000 0.000000 

0.000000 -0.000000 0.000000 
0.000000 -0.000000 0.000000 
0.000000 0.000000 0.000000 

0.000000 -0.000000 0.000000 
0.000000 -0.000000 0.000000 
0.000000 0.000000 0.000000 

0.000000 0.000000 0.000000 
0.000000 -0.000000 0.000000 
0.000000 0.000000 0.000000 

-0.000000 0.000000 0.000000 
0.000000 0.000000 0.000000 
0.000000 0.000000 0.000000 

0.000000 -0.000000 0.000000 
0.000000 -0.000000 0.000000 
0.000000 0.000000 0.000000 

0.000000 -0.000000 0.000000 
0.000000 0.000000 0.000000 
0.000000 0.000000 0.000000 

-0.000000 -0.000000 0.000000 
0.000000 0.000000 0.000000 
0.000000 0.000000 0.000000 

-0.000000 0.000000 0.000000 
0.000000 0.000000 0.000000 
0.000000 0.000000 0.000000 

0.000000 0.000000 0.000000 
0.000000 0.000000 0.000000 
0.000000 0.000000 0.000000 

0.000000 0.000000 0.000000 
0.000000 -0.000000 0.000000 
0.000000 0.000000 0.000000 

-0.000000 -0.000000 0.000000 
0.000000 0.000000 0.000000 
0.000000 0.000000 0.000000 

-0.000000 0.000000 0.000000 
0.000000 0.000000 0.000000 
0.000000 0.000000 0.000000 

0.000000 0.000000 0.000000 
0.000000 -0.000000 0.000000 
0.000000 0.000000 0.000000 

0.000000 -0.000000 0.000000 
0.000000 0.000000 0.000000 
0.000000 0.000000 0.000000 

0.000000 -0.000000 0.000000 
0.000000 -0.000000 0.000000 
0.000000 0.000000 0.000000 

0.000000 0.000000 0.000000 
0.000000 0.000000 0.000000 
0.000000 0.000000 0.000000 

0.000000 0.000000 0.000000 
0.000000 -0.000000 0.000000 
0.000000 0.000000 0.000000 

-0.000000 0.000000 0.000000 
0.000000 0.000000 0.000000 
0.000000 0.000000 0.000000 

-0.000000 0.000000 0.000000 
0.000000 0.000000 0.000000 
0.000000 0.000000 0.000000 

-0.000000 0.000000 0.000000 
0.000000 0.000000 0.000000 
0.000000 0.000000 0.000000 

-0.000000 0.000000 0.000000 
0.000000 -0.000000 0.000000 
0.000000 0.000000 0.000000 

-0.000000 -0.000000 0.000000 
0.000000 0.000000 0.000000 
0.000000 0.000000 0.000000 

-0.000000 -0.000000 0.000000 
0.000000 0.000000 0.000000 
0.000000 0.000000 0.000000 

-0.000000 -0.000000 0.000000 
0.000000 0.000000 0.000000 
0.000000 0.000000 0.000000 

-0.000000 0.000000 0.000000 
0.000000 0.000000 0.000000 
0.000000 0.000000 0.000000 

0.000000 0.000000 0.000000 
0.000000 -0.000000 0.000000 
0.000000 0.000000 0.000000 

0.000000 -0.000000 0.000000 
0.000000 -0.000000 0.000000 
0.000000 0.000000 0.000000 

0.000000 0.000000 0.000000 
0.000000 0.000000 0.000000 
0.000000 0.000000 0.000000 

-0.000000 0.000000 0.000000 
0.000000 -0.000000 0.000000 
0.000000 0.000000 0.000000 

-0.000000 0.000000 0.000000 
0.000000 0.000000 0.000000 
0.000000 0.000000 0.000000 

0.000000 -0.000000 0.000000 
0.000000 0.000000 0.000000 
0.000000 0.000000 0.000000 

0.000000 -0.000000 0.000000 
0.000000 -0.000000 0.000000 
0.000000 0.000000 0.000000 

0.000000 -0.000000 0.000000 
0.000000 -0.000000 0.000000 
0.000000 0.000000 0.000000 

0.000000 -0.000000 0.000000 
0.000000 -0.000000 0.000000 
0.000000 0.000000 0.000000 

-0.000000 -0.000000 0.000000 
0.000000 0.000000 0.000000 
0.000000 0.000000 0.000000 

-0.000000 0.000000 0.000000 
0.000000 0.000000 0.000000 
0.000000 0.000000 0.000000 

-0.000000 -0.000000 0.000000 
0.000000 -0.000000 0.000000 
0.000000 0.000000 0.000000 

0.000000 -0.000000 0.000000 
0.000000 -0.000000 0.000000 
0.000000 0.000000 0.000000 

0.000000 0.000000 0.000000 
0.000000 0.000000 0.000000 
0.000000 0.000000 0.000000 

0.000000 0.000000 0.000000 
0.000000 0.000000 0.000000 
0.000000 0.000000 0.000000 

-0.000000 0.000000 0.000000 
0.000000 -0.000000 0.000000 
0.000000 0.000000 0.000000 

0.000000 0.000000 0.000000 
0.000000 0.000000 0.000000 
0.000000 0.000000 0.000000 

0.000000 0.000000 0.000000 
0.000000 -0.000000 0.000000 
0.000000 0.000000 0.000000 

0.000000 0.000000 0.000000 
0.000000 -0.000000 0.000000 
0.000000 0.000000 0.000000 

0.000000 0.000000 0.000000 
0.000000 -0.000000 0.000000 
0.000000 0.000000 0.000000 

0.000000 0.000000 0.000000 
0.000000 -0.000000 0.000000 
0.000000 0.000000 0.000000 

0.000000 0.000000 0.000000 
0.000000 0.000000 0.000000 
0.000000 0.000000 0.000000 

-0.000000 0.000000 0.000000 
0.000000 0.000000 0.000000 
0.000000 0.000000 0.000000 

-0.000000 -0.000000 0.000000 
0.000000 0.000000 0.000000 
0.000000 0.000000 0.000000 

-0.000000 0.000000 0.000000 
0.000000 0.000000 0.000000 
0.000000 0.000000 0.000000 

0.000000 -0.000000 0.000000 
0.000000 -0.000000 0.000000 
0.000000 0.000000 0.000000 

0.000000 0.000000 0.000000 
0.000000 -0.000000 0.000000 
0.000000 0.000000 0.000000 

0.000000 -0.000000 0.000000 
0.000000 -0.000000 0.000000 
0.000000 0.000000 0.000000 

0.000000 -0.000000 0.000000 
0.000000 -0.000000 0.000000 
0.000000 0.000000 0.000000 

0.000000 -0.000000 0.000000 
0.000000 -0.000000 0.000000 
0.000000 0.000000 0.000000 

0.000000 -0.000000 0.000000 
0.000000 -0.000000 0.000000 
0.000000 0.000000 0.000000 

0.000000 -0.000000 0.000000 
0.000000 -0.000000 0.000000 
0.000000 0.000000 0.000000 

0.000000 -0.000000 0.000000 
0.000000 -0.000000 0.000000 
0.000000 0.000000 0.000000 

0.000000 0.000000 0.000000 
0.000000 -0.000000 0.000000 
0.000000 0.000000 0.000000 

-0.000000 0.000000 0.000000 
0.000000 0.000000 0.000000 
0.000000 0.000000 0.000000 

0.000000 0.000000 0.000000 
0.000000 -0.000000 0.000000 
0.000000 0.000000 0.000000 

0.000000 0.000000 0.000000 
0.000000 0.000000 0.000000 
0.000000 0.000000 0.000000 

0.000000 -0.000000 0.000000 
0.000000 -0.000000 0.000000 
0.000000 0.000000 0.000000 

-0.000000 0.000000 0.000000 
0.000000 0.000000 0.000000 
0.000000 0.000000 0.000000 

0.000000 0.000000 0.000000 
0.000000 0.000000 0.000000 
0.000000 0.000000 0.000000 

-0.000000 0.000000 0.000000 
0.000000 0.000000 0.000000 
0.000000 0.000000 0.000000 

-0.000000 -0.000000 0.000000 
0.000000 0.000000 0.000000 
0.000000 0.000000 0.000000 

-0.000000 0.000000 0.000000 
0.000000 -0.000000 0.000000 
0.000000 0.000000 0.000000 

-0.000000 0.000000 0.000000 
0.000000 0.000000 0.000000 
0.000000 0.000000 0.000000 

0.000000 -0.000000 0.000000 
0.000000 -0.000000 0.000000 
0.000000 0.000000 0.000000 

0.000000 0.000000 0.000000 
0.000000 -0.000000 0.000000 
0.000000 0.000000 0.000000 

0.000000 0.000000 0.000000 
0.000000 -0.000000 0.000000 
0.000000 0.000000 0.000000 

0.000000 0.000000 0.000000 
0.000000 0.000000 0.000000 
0.000000 0.000000 0.000000 

0.000000 0.000000 0.000000 
0.000000 -0.000000 0.000000 
0.000000 0.000000 0.000000 

-0.000000 -0.000000 0.000000 
0.000000 -0.000000 0.000000 
0.000000 0.000000 0.000000 

-0.000000 -0.000000 0.000000 
0.000000 0.000000 0.000000 
0.000000 0.000000 0.000000 

-0.000000 -0.000000 0.000000 
0.000000 0.000000 0.000000 
0.000000 0.000000 0.000000 

0.000000 0.000000 0.000000 
0.000000 0.000000 0.000000 
0.000000 0.000000 0.000000 

0.000000 0.000000 0.000000 
0.000000 0.000000 0.000000 
0.000000 0.000000 0.000000 

0.000000 -0.000000 0.000000 
0.000000 0.000000 0.000000 
0.000000 0.000000 0.000000 

0.000000 -0.000000 0.000000 
0.000000 0.000000 0.000000 
0.000000 0.000000 0.000000 

-0.000000 -0.000000 0.000000 
0.000000 0.000000 0.000000 
0.000000 0.000000 0.000000 

-0.000000 -0.000000 0.000000 
0.000000 0.000000 0.000000 
0.000000 0.000000 0.000000 

0.000000 -0.000000 0.000000 
0.000000 0.000000 0.000000 
0.000000 0.000000 0.000000 

-0.000000 -0.000000 0.000000 
0.000000 0.000000 0.000000 
0.000000 0.000000 0.000000 

0.000000 -0.000000 0.000000 
0.000000 -0.000000 0.000000 
0.000000 0.000000 0.000000 

0.000000 0.000000 0.000000 
0.000000 -0.000000 0.000000 
0.000000 0.000000 0.000000 

-0.000000 0.000000 0.000000 
0.000000 0.000000 0.000000 
0.000000 0.000000 0.000000 

-0.000000 0.000000 0.000000 
0.000000 0.000000 0.000000 
0.000000 0.000000 0.000000 

-0.000000 -0.000000 0.000000 
0.000000 0.000000 0.000000 
0.000000 0.000000 0.000000 

-0.000000 -0.000000 0.000000 
0.000000 0.000000 0.000000 
0.000000 0.000000 0.000000 

0.000000 -0.000000 0.000000 
0.000000 -0.000000 0.000000 
0.000000 0.000000 0.000000 

0.000000 0.000000 0.000000 
0.000000 -0.000000 0.000000 
0.000000 0.000000 0.000000 

0.000000 0.000000 0.000000 
0.000000 -0.000000 0.000000 
0.000000 0.000000 0.000000 

-0.000000 -0.000000 0.000000 
0.000000 -0.000000 0.000000 
0.000000 0.000000 0.000000 

-0.000000 0.000000 0.000000 
0.000000 0.000000 0.000000 
0.000000 0.000000 0.000000 

0.000000 -0.000000 0.000000 
0.000000 0.000000 0.000000 
0.000000 0.000000 0.000000 

0.000000 0.000000 0.000000 
0.000000 -0.000000 0.000000 
0.000000 0.000000 0.000000 

0.000000 0.000000 0.000000 
0.000000 -0.000000 0.000000 
0.000000 0.000000 0.000000 

0.000000 0.000000 0.000000 
0.000000 -0.000000 0.000000 
0.000000 0.000000 0.000000 

0.000000 0.000000 0.000000 
0.000000 -0.000000 0.000000 
0.000000 0.000000 0.000000 

0.000000 0.000000 0.000000 
0.000000 -0.000000 0.000000 
0.000000 0.000000 0.000000 

-0.000000 -0.000000 0.000000 
0.000000 0.000000 0.000000 
0.000000 0.000000 0.000000 

0.000000 0.000000 0.000000 
0.000000 0.000000 0.000000 
0.000000 0.000000 0.000000 

0.000000 -0.000000 0.000000 
0.000000 -0.000000 0.000000 
0.000000 0.000000 0.000000 

0.000000 -0.000000 0.000000 
0.000000 -0.000000 0.000000 
0.000000 0.000000 0.000000 

0.000000 -0.000000 0.000000 
0.000000 0.000000 0.000000 
0.000000 0.000000 0.000000 

-0.000000 0.000000 0.000000 
0.000000 0.000000 0.000000 
0.000000 0.000000 0.000000 

-0.000000 -0.000000 0.000000 
0.000000 0.000000 0.000000 
0.000000 0.000000 0.000000 

-0.000000 -0.000000 0.000000 
0.000000 0.000000 0.000000 
0.000000 0.000000 0.000000 

0.000000 -0.000000 0.000000 
0.000000 -0.000000 0.000000 
0.000000 0.000000 0.000000 

-0.000000 -0.000000 0.000000 
0.000000 -0.000000 0.000000 
0.000000 0.000000 0.000000 

-0.000000 -0.000000 0.000000 
0.000000 0.000000 0.000000 
0.000000 0.000000 0.000000 

-0.000000 -0.000000 0.000000 
0.000000 -0.000000 0.000000 
0.000000 0.000000 0.000000 

0.000000 -0.000000 0.000000 
0.000000 -0.000000 0.000000 
0.000000 0.000000 0.000000 

0.000000 0.000000 0.000000 
0.000000 0.000000 0.000000 
0.000000 0.000000 0.000000 

-0.000000 -0.000000 0.000000 
0.000000 0.000000 0.000000 
0.000000 0.000000 0.000000 

-0.000000 -0.000000 0.000000 
0.000000 0.000000 0.000000 
0.000000 0.000000 0.000000 

-0.000000 -0.000000 0.000000 
0.000000 -0.000000 0.000000 
0.000000 0.000000 0.000000 

-0.000000 -0.000000 0.000000 
0.000000 0.000000 0.000000 
0.000000 0.000000 0.000000 

-0.000000 -0.000000 0.000000 
0.000000 -0.000000 0.000000 
0.000000 0.000000 0.000000 

0.000000 -0.000000 0.000000 
0.000000 -0.000000 0.000000 
0.000000 0.000000 0.000000 

0.000000 -0.000000 0.000000 
0.000000 -0.000000 0.000000 
0.000000 0.000000 0.000000 

-0.000000 0.000000 0.000000 
0.000000 0.000000 0.000000 
0.000000 0.000000 0.000000 

0.000000 0.000000 0.000000 
0.000000 -0.000000 0.000000 
0.000000 0.000000 0.000000 

0.000000 -0.000000 0.000000 
0.000000 -0.000000 0.000000 
0.000000 0.000000 0.000000 

0.000000 0.000000 0.000000 
0.000000 -0.000000 0.000000 
0.000000 0.000000 0.000000 

0.000000 0.000000 0.000000 
0.000000 0.000000 0.000000 
0.000000 0.000000 0.000000 

-0.000000 0.000000 0.000000 
0.000000 -0.000000 0.000000 
0.000000 0.000000 0.000000 

-0.000000 0.000000 0.000000 
0.000000 0.000000 0.000000 
0.000000 0.000000 0.000000 

0.000000 -0.000000 0.000000 
0.000000 -0.000000 0.000000 
0.000000 0.000000 0.000000 

0.000000 -0.000000 0.000000 
0.000000 -0.000000 0.000000 
0.000