# vtk DataFile Version 3.0 
vtk output 
ASCII 
DATASET UNSTRUCTURED_GRID 
POINTS 175 float 
-0.026061 0.027618 0.000000 
-0.106992 0.095674 0.000000 
-0.054870 0.087441 0.000000 
-0.028809 0.133325 0.000000 
-0.186430 0.159749 0.000000 
-0.137056 0.157223 0.000000 
-0.114311 0.210870 0.000000 
-0.058186 0.195205 0.000000 
-0.029377 0.235382 0.000000 
-0.265318 0.222905 0.000000 
-0.217198 0.222105 0.000000 
-0.196633 0.279402 0.000000 
-0.143120 0.270693 0.000000 
-0.116563 0.317962 0.000000 
-0.058945 0.298316 0.000000 
-0.029568 0.336436 0.000000 
-0.344206 0.286061 0.000000 
-0.296791 0.286068 0.000000 
-0.278030 0.346011 0.000000 
-0.225992 0.340144 0.000000 
-0.201664 0.392262 0.000000 
-0.145749 0.378788 0.000000 
-0.117890 0.423130 0.000000 
-0.059328 0.400424 0.000000 
-0.029759 0.437490 0.000000 
-0.058559 -0.013132 0.000000 
-0.162226 -0.033975 0.000000 
-0.123292 0.001643 0.000000 
-0.142917 0.050626 0.000000 
-0.261851 -0.056131 0.000000 
-0.229092 -0.019104 0.000000 
-0.256854 0.032127 0.000000 
-0.209613 0.066240 0.000000 
-0.223062 0.113814 0.000000 
-0.360414 -0.078432 0.000000 
-0.329787 -0.041309 0.000000 
-0.361761 0.010493 0.000000 
-0.321587 0.046902 0.000000 
-0.341985 0.097136 0.000000 
-0.290702 0.129935 0.000000 
-0.302189 0.176670 0.000000 
-0.458977 -0.100732 0.000000 
-0.429420 -0.063657 0.000000 
-0.464588 -0.011615 0.000000 
-0.427556 0.025412 0.000000 
-0.453135 0.076927 0.000000 
-0.407738 0.112242 0.000000 
-0.425037 0.161670 0.000000 
-0.370772 0.193300 0.000000 
-0.381315 0.239527 0.000000 
-0.046960 -0.063948 0.000000 
-0.095301 -0.157994 0.000000 
-0.098873 -0.105346 0.000000 
-0.149405 -0.090149 0.000000 
-0.140093 -0.249698 0.000000 
-0.148617 -0.200999 0.000000 
-0.205981 -0.190762 0.000000 
-0.203197 -0.132559 0.000000 
-0.248777 -0.113412 0.000000 
-0.184111 -0.340661 0.000000 
-0.194039 -0.293570 0.000000 
-0.254475 -0.286270 0.000000 
-0.257893 -0.232161 0.000000 
-0.309886 -0.216788 0.000000 
-0.303554 -0.156243 0.000000 
-0.347255 -0.136085 0.000000 
-0.228129 -0.431625 0.000000 
-0.238687 -0.385400 0.000000 
-0.301302 -0.380448 0.000000 
-0.307162 -0.328410 0.000000 
-0.363386 -0.316289 0.000000 
-0.362692 -0.258777 0.000000 
-0.412122 -0.241484 0.000000 
-0.403017 -0.179337 0.000000 
-0.445733 -0.158758 0.000000 
-0.000000 -0.086563 0.000000 
0.043388 -0.182993 0.000000 
-0.000000 -0.152961 0.000000 
-0.043388 -0.182993 0.000000 
0.087158 -0.275190 0.000000 
0.043769 -0.251491 0.000000 
-0.000000 -0.289957 0.000000 
-0.043769 -0.251491 0.000000 
-0.087158 -0.275190 0.000000 
0.130831 -0.366319 0.000000 
0.087824 -0.344721 0.000000 
0.044436 -0.387420 0.000000 
-0.000000 -0.356355 0.000000 
-0.044436 -0.387420 0.000000 
-0.087824 -0.344721 0.000000 
-0.130831 -0.366319 0.000000 
0.174505 -0.457449 0.000000 
0.131782 -0.436883 0.000000 
0.088871 -0.482750 0.000000 
0.044532 -0.454886 0.000000 
-0.000000 -0.491286 0.000000 
-0.044532 -0.454886 0.000000 
-0.088871 -0.482750 0.000000 
-0.131782 -0.436883 0.000000 
-0.174505 -0.457449 0.000000 
0.046960 -0.063948 0.000000 
0.149405 -0.090149 0.000000 
0.098873 -0.105346 0.000000 
0.095301 -0.157994 0.000000 
0.248777 -0.113412 0.000000 
0.203197 -0.132559 0.000000 
0.205981 -0.190762 0.000000 
0.148617 -0.200999 0.000000 
0.140093 -0.249698 0.000000 
0.347255 -0.136085 0.000000 
0.303554 -0.156243 0.000000 
0.309886 -0.216788 0.000000 
0.257893 -0.232161 0.000000 
0.254475 -0.286270 0.000000 
0.194039 -0.293570 0.000000 
0.184111 -0.340661 0.000000 
0.445733 -0.158758 0.000000 
0.403017 -0.179337 0.000000 
0.412122 -0.241484 0.000000 
0.362692 -0.258777 0.000000 
0.363386 -0.316289 0.000000 
0.307162 -0.328410 0.000000 
0.301302 -0.380448 0.000000 
0.238687 -0.385400 0.000000 
0.228129 -0.431625 0.000000 
0.058559 -0.013132 0.000000 
0.142917 0.050626 0.000000 
0.123292 0.001643 0.000000 
0.162226 -0.033975 0.000000 
0.223062 0.113814 0.000000 
0.209613 0.066240 0.000000 
0.256854 0.032127 0.000000 
0.229092 -0.019104 0.000000 
0.261851 -0.056131 0.000000 
0.302189 0.176670 0.000000 
0.290702 0.129935 0.000000 
0.341985 0.097136 0.000000 
0.321587 0.046902 0.000000 
0.361761 0.010493 0.000000 
0.329787 -0.041309 0.000000 
0.360414 -0.078432 0.000000 
0.381315 0.239527 0.000000 
0.370772 0.193300 0.000000 
0.425037 0.161670 0.000000 
0.407738 0.112242 0.000000 
0.453135 0.076927 0.000000 
0.427556 0.025412 0.000000 
0.464588 -0.011615 0.000000 
0.429420 -0.063657 0.000000 
0.458977 -0.100732 0.000000 
0.026061 0.027618 0.000000 
0.028809 0.133325 0.000000 
0.054870 0.087441 0.000000 
0.106992 0.095674 0.000000 
0.029377 0.235382 0.000000 
0.058186 0.195205 0.000000 
0.114311 0.210870 0.000000 
0.137056 0.157223 0.000000 
0.186430 0.159749 0.000000 
0.029568 0.336436 0.000000 
0.058945 0.298316 0.000000 
0.116563 0.317962 0.000000 
0.143120 0.270693 0.000000 
0.196633 0.279402 0.000000 
0.217198 0.222105 0.000000 
0.265318 0.222905 0.000000 
0.029759 0.437490 0.000000 
0.059328 0.400424 0.000000 
0.117890 0.423130 0.000000 
0.145749 0.378788 0.000000 
0.201664 0.392262 0.000000 
0.225992 0.340144 0.000000 
0.278030 0.346011 0.000000 
0.296791 0.286068 0.000000 
0.344206 0.286061 0.000000 
CELLS 175 350 
1 0 
1 1 
1 2 
1 3 
1 4 
1 5 
1 6 
1 7 
1 8 
1 9 
1 10 
1 11 
1 12 
1 13 
1 14 
1 15 
1 16 
1 17 
1 18 
1 19 
1 20 
1 21 
1 22 
1 23 
1 24 
1 25 
1 26 
1 27 
1 28 
1 29 
1 30 
1 31 
1 32 
1 33 
1 34 
1 35 
1 36 
1 37 
1 38 
1 39 
1 40 
1 41 
1 42 
1 43 
1 44 
1 45 
1 46 
1 47 
1 48 
1 49 
1 50 
1 51 
1 52 
1 53 
1 54 
1 55 
1 56 
1 57 
1 58 
1 59 
1 60 
1 61 
1 62 
1 63 
1 64 
1 65 
1 66 
1 67 
1 68 
1 69 
1 70 
1 71 
1 72 
1 73 
1 74 
1 75 
1 76 
1 77 
1 78 
1 79 
1 80 
1 81 
1 82 
1 83 
1 84 
1 85 
1 86 
1 87 
1 88 
1 89 
1 90 
1 91 
1 92 
1 93 
1 94 
1 95 
1 96 
1 97 
1 98 
1 99 
1 100 
1 101 
1 102 
1 103 
1 104 
1 105 
1 106 
1 107 
1 108 
1 109 
1 110 
1 111 
1 112 
1 113 
1 114 
1 115 
1 116 
1 117 
1 118 
1 119 
1 120 
1 121 
1 122 
1 123 
1 124 
1 125 
1 126 
1 127 
1 128 
1 129 
1 130 
1 131 
1 132 
1 133 
1 134 
1 135 
1 136 
1 137 
1 138 
1 139 
1 140 
1 141 
1 142 
1 143 
1 144 
1 145 
1 146 
1 147 
1 148 
1 149 
1 150 
1 151 
1 152 
1 153 
1 154 
1 155 
1 156 
1 157 
1 158 
1 159 
1 160 
1 161 
1 162 
1 163 
1 164 
1 165 
1 166 
1 167 
1 168 
1 169 
1 170 
1 171 
1 172 
1 173 
1 174 
CELL_TYPES 175 
1 
1 
1 
1 
1 
1 
1 
1 
1 
1 
1 
1 
1 
1 
1 
1 
1 
1 
1 
1 
1 
1 
1 
1 
1 
1 
1 
1 
1 
1 
1 
1 
1 
1 
1 
1 
1 
1 
1 
1 
1 
1 
1 
1 
1 
1 
1 
1 
1 
1 
1 
1 
1 
1 
1 
1 
1 
1 
1 
1 
1 
1 
1 
1 
1 
1 
1 
1 
1 
1 
1 
1 
1 
1 
1 
1 
1 
1 
1 
1 
1 
1 
1 
1 
1 
1 
1 
1 
1 
1 
1 
1 
1 
1 
1 
1 
1 
1 
1 
1 
1 
1 
1 
1 
1 
1 
1 
1 
1 
1 
1 
1 
1 
1 
1 
1 
1 
1 
1 
1 
1 
1 
1 
1 
1 
1 
1 
1 
1 
1 
1 
1 
1 
1 
1 
1 
1 
1 
1 
1 
1 
1 
1 
1 
1 
1 
1 
1 
1 
1 
1 
1 
1 
1 
1 
1 
1 
1 
1 
1 
1 
1 
1 
1 
1 
1 
1 
1 
1 
1 
1 
1 
1 
1 
1 
POINT_DATA 175 
VECTORS X_GC float 
-0.026061 0.027618 0.000000 
-0.106992 0.095674 0.000000 
-0.054870 0.087441 0.000000 
-0.028809 0.133325 0.000000 
-0.186430 0.159749 0.000000 
-0.137056 0.157223 0.000000 
-0.114311 0.210870 0.000000 
-0.058186 0.195205 0.000000 
-0.029377 0.235382 0.000000 
-0.265318 0.222905 0.000000 
-0.217198 0.222105 0.000000 
-0.196633 0.279402 0.000000 
-0.143120 0.270693 0.000000 
-0.116563 0.317962 0.000000 
-0.058945 0.298316 0.000000 
-0.029568 0.336436 0.000000 
-0.344206 0.286061 0.000000 
-0.296791 0.286068 0.000000 
-0.278030 0.346011 0.000000 
-0.225992 0.340144 0.000000 
-0.201664 0.392262 0.000000 
-0.145749 0.378788 0.000000 
-0.117890 0.423130 0.000000 
-0.059328 0.400424 0.000000 
-0.029759 0.437490 0.000000 
-0.058559 -0.013132 0.000000 
-0.162226 -0.033975 0.000000 
-0.123292 0.001643 0.000000 
-0.142917 0.050626 0.000000 
-0.261851 -0.056131 0.000000 
-0.229092 -0.019104 0.000000 
-0.256854 0.032127 0.000000 
-0.209613 0.066240 0.000000 
-0.223062 0.113814 0.000000 
-0.360414 -0.078432 0.000000 
-0.329787 -0.041309 0.000000 
-0.361761 0.010493 0.000000 
-0.321587 0.046902 0.000000 
-0.341985 0.097136 0.000000 
-0.290702 0.129935 0.000000 
-0.302189 0.176670 0.000000 
-0.458977 -0.100732 0.000000 
-0.429420 -0.063657 0.000000 
-0.464588 -0.011615 0.000000 
-0.427556 0.025412 0.000000 
-0.453135 0.076927 0.000000 
-0.407738 0.112242 0.000000 
-0.425037 0.161670 0.000000 
-0.370772 0.193300 0.000000 
-0.381315 0.239527 0.000000 
-0.046960 -0.063948 0.000000 
-0.095301 -0.157994 0.000000 
-0.098873 -0.105346 0.000000 
-0.149405 -0.090149 0.000000 
-0.140093 -0.249698 0.000000 
-0.148617 -0.200999 0.000000 
-0.205981 -0.190762 0.000000 
-0.203197 -0.132559 0.000000 
-0.248777 -0.113412 0.000000 
-0.184111 -0.340661 0.000000 
-0.194039 -0.293570 0.000000 
-0.254475 -0.286270 0.000000 
-0.257893 -0.232161 0.000000 
-0.309886 -0.216788 0.000000 
-0.303554 -0.156243 0.000000 
-0.347255 -0.136085 0.000000 
-0.228129 -0.431625 0.000000 
-0.238687 -0.385400 0.000000 
-0.301302 -0.380448 0.000000 
-0.307162 -0.328410 0.000000 
-0.363386 -0.316289 0.000000 
-0.362692 -0.258777 0.000000 
-0.412122 -0.241484 0.000000 
-0.403017 -0.179337 0.000000 
-0.445733 -0.158758 0.000000 
-0.000000 -0.086563 0.000000 
0.043388 -0.182993 0.000000 
-0.000000 -0.152961 0.000000 
-0.043388 -0.182993 0.000000 
0.087158 -0.275190 0.000000 
0.043769 -0.251491 0.000000 
-0.000000 -0.289957 0.000000 
-0.043769 -0.251491 0.000000 
-0.087158 -0.275190 0.000000 
0.130831 -0.366319 0.000000 
0.087824 -0.344721 0.000000 
0.044436 -0.387420 0.000000 
-0.000000 -0.356355 0.000000 
-0.044436 -0.387420 0.000000 
-0.087824 -0.344721 0.000000 
-0.130831 -0.366319 0.000000 
0.174505 -0.457449 0.000000 
0.131782 -0.436883 0.000000 
0.088871 -0.482750 0.000000 
0.044532 -0.454886 0.000000 
-0.000000 -0.491286 0.000000 
-0.044532 -0.454886 0.000000 
-0.088871 -0.482750 0.000000 
-0.131782 -0.436883 0.000000 
-0.174505 -0.457449 0.000000 
0.046960 -0.063948 0.000000 
0.149405 -0.090149 0.000000 
0.098873 -0.105346 0.000000 
0.095301 -0.157994 0.000000 
0.248777 -0.113412 0.000000 
0.203197 -0.132559 0.000000 
0.205981 -0.190762 0.000000 
0.148617 -0.200999 0.000000 
0.140093 -0.249698 0.000000 
0.347255 -0.136085 0.000000 
0.303554 -0.156243 0.000000 
0.309886 -0.216788 0.000000 
0.257893 -0.232161 0.000000 
0.254475 -0.286270 0.000000 
0.194039 -0.293570 0.000000 
0.184111 -0.340661 0.000000 
0.445733 -0.158758 0.000000 
0.403017 -0.179337 0.000000 
0.412122 -0.241484 0.000000 
0.362692 -0.258777 0.000000 
0.363386 -0.316289 0.000000 
0.307162 -0.328410 0.000000 
0.301302 -0.380448 0.000000 
0.238687 -0.385400 0.000000 
0.228129 -0.431625 0.000000 
0.058559 -0.013132 0.000000 
0.142917 0.050626 0.000000 
0.123292 0.001643 0.000000 
0.162226 -0.033975 0.000000 
0.223062 0.113814 0.000000 
0.209613 0.066240 0.000000 
0.256854 0.032127 0.000000 
0.229092 -0.019104 0.000000 
0.261851 -0.056131 0.000000 
0.302189 0.176670 0.000000 
0.290702 0.129935 0.000000 
0.341985 0.097136 0.000000 
0.321587 0.046902 0.000000 
0.361761 0.010493 0.000000 
0.329787 -0.041309 0.000000 
0.360414 -0.078432 0.000000 
0.381315 0.239527 0.000000 
0.370772 0.193300 0.000000 
0.425037 0.161670 0.000000 
0.407738 0.112242 0.000000 
0.453135 0.076927 0.000000 
0.427556 0.025412 0.000000 
0.464588 -0.011615 0.000000 
0.429420 -0.063657 0.000000 
0.458977 -0.100732 0.000000 
0.026061 0.027618 0.000000 
0.028809 0.133325 0.000000 
0.054870 0.087441 0.000000 
0.106992 0.095674 0.000000 
0.029377 0.235382 0.000000 
0.058186 0.195205 0.000000 
0.114311 0.210870 0.000000 
0.137056 0.157223 0.000000 
0.186430 0.159749 0.000000 
0.029568 0.336436 0.000000 
0.058945 0.298316 0.000000 
0.116563 0.317962 0.000000 
0.143120 0.270693 0.000000 
0.196633 0.279402 0.000000 
0.217198 0.222105 0.000000 
0.265318 0.222905 0.000000 
0.029759 0.437490 0.000000 
0.059328 0.400424 0.000000 
0.117890 0.423130 0.000000 
0.145749 0.378788 0.000000 
0.201664 0.392262 0.000000 
0.225992 0.340144 0.000000 
0.278030 0.346011 0.000000 
0.296791 0.286068 0.000000 
0.344206 0.286061 0.000000 
VECTORS X_EC float 
0.338794 0.127152 0.000000 
-0.609100 -0.791596 0.000000 
0.713312 -0.680455 0.000000 
0.374519 0.700115 0.000000 
0.423588 0.343385 0.000000 
-0.218274 0.377488 0.000000 
-0.513962 -0.346751 0.000000 
0.756418 -0.135265 0.000000 
0.381900 -0.677657 0.000000 
-0.550868 -0.509218 0.000000 
0.823577 -0.498423 0.000000 
0.556234 0.728073 0.000000 
-0.139443 0.845642 0.000000 
-0.484677 0.207517 0.000000 
0.766286 0.472732 0.000000 
0.384386 -0.041888 0.000000 
0.474677 0.638178 0.000000 
-0.141715 0.638082 0.000000 
-0.385608 -0.171146 0.000000 
0.937896 -0.091951 0.000000 
0.621631 -0.795531 0.000000 
-0.105264 -0.613632 0.000000 
-0.467428 0.787742 0.000000 
0.771260 -0.905729 0.000000 
0.386873 0.593881 0.000000 
0.761262 0.677287 0.000000 
0.108942 0.958663 0.000000 
-0.397202 0.477824 0.000000 
-0.142083 -0.183451 0.000000 
-0.595936 -0.742226 0.000000 
0.978194 0.757908 0.000000 
-0.660903 0.066283 0.000000 
0.724964 -0.394237 0.000000 
0.899809 0.963515 0.000000 
0.685384 -0.441174 0.000000 
0.287229 -0.942332 0.000000 
0.702895 0.358339 0.000000 
0.180633 -0.133179 0.000000 
0.445811 -0.811339 0.000000 
-0.220880 0.745875 0.000000 
-0.071546 0.114950 0.000000 
-0.033296 -0.140122 0.000000 
-0.417537 -0.640631 0.000000 
0.039645 0.656806 0.000000 
-0.441768 0.156935 0.000000 
-0.109248 -0.538516 0.000000 
-0.699407 0.984729 0.000000 
-0.474522 0.317450 0.000000 
0.820030 -0.109544 0.000000 
0.957100 -0.733615 0.000000 
0.610485 -0.636707 0.000000 
-0.761092 0.632913 0.000000 
-0.714655 -0.077825 0.000000 
-0.057734 -0.282992 0.000000 
-0.178789 -0.129083 0.000000 
-0.067979 -0.786509 0.000000 
0.677748 -0.924713 0.000000 
0.641556 0.289542 0.000000 
-0.765897 0.031063 0.000000 
0.393446 -0.901074 0.000000 
0.522510 0.463196 0.000000 
-0.691820 0.364652 0.000000 
-0.647393 -0.365831 0.000000 
0.028512 -0.573358 0.000000 
-0.053800 0.609282 0.000000 
0.514316 0.337151 0.000000 
0.965681 0.326935 0.000000 
-0.897068 -0.297094 0.000000 
-0.083078 -0.363947 0.000000 
-0.006893 0.933529 0.000000 
0.724017 0.769896 0.000000 
0.714996 -0.006508 0.000000 
-0.642413 -0.239965 0.000000 
-0.760780 0.921054 0.000000 
-0.205471 0.643239 0.000000 
0.000000 -0.331405 0.000000 
-0.564049 0.970408 0.000000 
0.000000 0.564972 0.000000 
0.564049 0.970408 0.000000 
0.866949 0.215063 0.000000 
-0.569003 -0.104868 0.000000 
0.000000 0.414420 0.000000 
0.569003 -0.104868 0.000000 
-0.866949 0.215063 0.000000 
0.299194 -0.554687 0.000000 
0.858290 -0.846271 0.000000 
-0.577662 -0.269825 0.000000 
0.000000 -0.689203 0.000000 
0.577662 -0.269825 0.000000 
-0.858290 -0.846271 0.000000 
-0.299194 -0.554687 0.000000 
-0.268560 0.675563 0.000000 
0.286830 0.397922 0.000000 
0.844677 -0.982880 0.000000 
-0.578910 0.640957 0.000000 
0.000000 -0.867639 0.000000 
0.578910 0.640957 0.000000 
-0.844677 -0.982880 0.000000 
-0.286830 0.397922 0.000000 
0.268560 0.675563 0.000000 
-0.610485 -0.636707 0.000000 
0.057734 -0.282992 0.000000 
0.714655 -0.077825 0.000000 
0.761092 0.632913 0.000000 
0.765897 0.031063 0.000000 
-0.641556 0.289542 0.000000 
-0.677748 -0.924713 0.000000 
0.067979 -0.786509 0.000000 
0.178789 -0.129083 0.000000 
-0.514316 0.337151 0.000000 
0.053800 0.609282 0.000000 
-0.028512 -0.573358 0.000000 
0.647393 -0.365831 0.000000 
0.691820 0.364652 0.000000 
-0.522510 0.463196 0.000000 
-0.393446 -0.901074 0.000000 
0.205471 0.643239 0.000000 
0.760780 0.921054 0.000000 
0.642413 -0.239965 0.000000 
-0.714996 -0.006508 0.000000 
-0.724017 0.769896 0.000000 
0.006894 0.933529 0.000000 
0.083078 -0.363947 0.000000 
0.897068 -0.297094 0.000000 
-0.965681 0.326935 0.000000 
-0.761262 0.677287 0.000000 
0.142083 -0.183451 0.000000 
0.397202 0.477824 0.000000 
-0.108942 0.958663 0.000000 
-0.899809 0.963515 0.000000 
-0.724964 -0.394237 0.000000 
0.660903 0.066283 0.000000 
-0.978194 0.757908 0.000000 
0.595936 -0.742226 0.000000 
0.071546 0.114950 0.000000 
0.220880 0.745875 0.000000 
-0.445811 -0.811339 0.000000 
-0.180633 -0.133179 0.000000 
-0.702895 0.358339 0.000000 
-0.287229 -0.942332 0.000000 
-0.685384 -0.441174 0.000000 
-0.957100 -0.733615 0.000000 
-0.820030 -0.109544 0.000000 
0.474522 0.317450 0.000000 
0.699407 0.984729 0.000000 
0.109248 -0.538515 0.000000 
0.441768 0.156935 0.000000 
-0.039645 0.656806 0.000000 
0.417537 -0.640631 0.000000 
0.033296 -0.140122 0.000000 
-0.338794 0.127152 0.000000 
-0.374519 0.700115 0.000000 
-0.713312 -0.680455 0.000000 
0.609100 -0.791596 0.000000 
-0.381900 -0.677657 0.000000 
-0.756418 -0.135265 0.000000 
0.513962 -0.346751 0.000000 
0.218274 0.377488 0.000000 
-0.423588 0.343385 0.000000 
-0.384386 -0.041888 0.000000 
-0.766286 0.472732 0.000000 
0.484677 0.207517 0.000000 
0.139443 0.845642 0.000000 
-0.556234 0.728073 0.000000 
-0.823577 -0.498423 0.000000 
0.550868 -0.509218 0.000000 
-0.386873 0.593881 0.000000 
-0.771260 -0.905729 0.000000 
0.467428 0.787742 0.000000 
0.105264 -0.613632 0.000000 
-0.621631 -0.795531 0.000000 
-0.937896 -0.091951 0.000000 
0.385608 -0.171146 0.000000 
0.141715 0.638082 0.000000 
-0.474677 0.638178 0.000000 
CELL_DATA 175 
SCALARS MASS float 
LOOKUP_TABLE default 
0.781831 
0.864274 
0.946717 
0.864274 
0.881307 
0.921110 
0.858535 
0.921110 
0.881307 
0.887046 
0.910001 
0.869829 
0.915556 
0.869829 
0.910001 
0.887046 
0.892784 
0.915740 
0.892784 
0.927218 
0.892784 
0.927218 
0.892784 
0.915740 
0.892784 
0.781831 
0.864274 
0.946717 
0.864274 
0.881307 
0.921110 
0.858535 
0.921110 
0.881307 
0.887046 
0.910001 
0.869829 
0.915556 
0.869829 
0.910001 
0.887046 
0.892784 
0.915740 
0.892784 
0.927218 
0.892784 
0.927218 
0.892784 
0.915740 
0.892784 
0.781831 
0.864274 
0.946717 
0.864274 
0.881307 
0.921110 
0.858535 
0.921110 
0.881307 
0.887046 
0.910001 
0.869829 
0.915556 
0.869829 
0.910001 
0.887046 
0.892784 
0.915740 
0.892784 
0.927218 
0.892784 
0.927218 
0.892784 
0.915740 
0.892784 
0.781831 
0.864274 
0.946717 
0.864274 
0.881307 
0.921110 
0.858535 
0.921110 
0.881307 
0.887046 
0.910001 
0.869829 
0.915556 
0.869829 
0.910001 
0.887046 
0.892784 
0.915740 
0.892784 
0.927218 
0.892784 
0.927218 
0.892784 
0.915740 
0.892784 
0.781831 
0.864274 
0.946717 
0.864274 
0.881307 
0.921110 
0.858535 
0.921110 
0.881307 
0.887046 
0.910001 
0.869829 
0.915556 
0.869829 
0.910001 
0.887046 
0.892784 
0.915740 
0.892784 
0.927218 
0.892784 
0.927218 
0.892784 
0.915740 
0.892784 
0.781831 
0.864274 
0.946717 
0.864274 
0.881307 
0.921110 
0.858535 
0.921110 
0.881307 
0.887046 
0.910001 
0.869829 
0.915556 
0.869829 
0.910001 
0.887046 
0.892784 
0.915740 
0.892784 
0.927218 
0.892784 
0.927218 
0.892784 
0.915740 
0.892784 
0.781831 
0.864274 
0.946717 
0.864274 
0.881307 
0.921110 
0.858535 
0.921110 
0.881307 
0.887046 
0.910001 
0.869829 
0.915556 
0.869829 
0.910001 
0.887046 
0.892784 
0.915740 
0.892784 
0.927218 
0.892784 
0.927218 
0.892784 
0.915740 
0.892784 
SCALARS MASS float 
LOOKUP_TABLE default 
0.781831 
0.864274 
0.946717 
0.864274 
0.881307 
0.921110 
0.858535 
0.921110 
0.881307 
0.887046 
0.910001 
0.869829 
0.915556 
0.869829 
0.910001 
0.887046 
0.892784 
0.915740 
0.892784 
0.927218 
0.892784 
0.927218 
0.892784 
0.915740 
0.892784 
0.781831 
0.864274 
0.946717 
0.864274 
0.881307 
0.921110 
0.858535 
0.921110 
0.881307 
0.887046 
0.910001 
0.869829 
0.915556 
0.869829 
0.910001 
0.887046 
0.892784 
0.915740 
0.892784 
0.927218 
0.892784 
0.927218 
0.892784 
0.915740 
0.892784 
0.781831 
0.864274 
0.946717 
0.864274 
0.881307 
0.921110 
0.858535 
0.921110 
0.881307 
0.887046 
0.910001 
0.869829 
0.915556 
0.869829 
0.910001 
0.887046 
0.892784 
0.915740 
0.892784 
0.927218 
0.892784 
0.927218 
0.892784 
0.915740 
0.892784 
0.781831 
0.864274 
0.946717 
0.864274 
0.881307 
0.921110 
0.858535 
0.921110 
0.881307 
0.887046 
0.910001 
0.869829 
0.915556 
0.869829 
0.910001 
0.887046 
0.892784 
0.915740 
0.892784 
0.927218 
0.892784 
0.927218 
0.892784 
0.915740 
0.892784 
0.781831 
0.864274 
0.946717 
0.864274 
0.881307 
0.921110 
0.858535 
0.921110 
0.881307 
0.887046 
0.910001 
0.869829 
0.915556 
0.869829 
0.910001 
0.887046 
0.892784 
0.915740 
0.892784 
0.927218 
0.892784 
0.927218 
0.892784 
0.915740 
0.892784 
0.781831 
0.864274 
0.946717 
0.864274 
0.881307 
0.921110 
0.858535 
0.921110 
0.881307 
0.887046 
0.910001 
0.869829 
0.915556 
0.869829 
0.910001 
0.887046 
0.892784 
0.915740 
0.892784 
0.927218 
0.892784 
0.927218 
0.892784 
0.915740 
0.892784 
0.781831 
0.864274 
0.946717 
0.864274 
0.881307 
0.921110 
0.858535 
0.921110 
0.881307 
0.887046 
0.910001 
0.869829 
0.915556 
0.869829 
0.910001 
0.887046 
0.892784 
0.915740 
0.892784 
0.927218 
0.892784 
0.927218 
0.892784 
0.915740 
0.892784 
SCALARS DENSITY float 
LOOKUP_TABLE default 
200.000000 
200.000000 
200.000000 
200.000000 
200.000000 
200.000000 
200.000000 
200.000000 
200.000000 
200.000000 
200.000000 
200.000000 
200.000000 
200.000000 
200.000000 
200.000000 
200.000000 
200.000000 
200.000000 
200.000000 
200.000000 
200.000000 
200.000000 
200.000000 
200.000000 
200.000000 
200.000000 
200.000000 
200.000000 
200.000000 
200.000000 
200.000000 
200.000000 
200.000000 
200.000000 
200.000000 
200.000000 
200.000000 
200.000000 
200.000000 
200.000000 
200.000000 
200.000000 
200.000000 
200.000000 
200.000000 
200.000000 
200.000000 
200.000000 
200.000000 
200.000000 
200.000000 
200.000000 
200.000000 
200.000000 
200.000000 
200.000000 
200.000000 
200.000000 
200.000000 
200.000000 
200.000000 
200.000000 
200.000000 
200.000000 
200.000000 
200.000000 
200.000000 
200.000000 
200.000000 
200.000000 
200.000000 
200.000000 
200.000000 
200.000000 
200.000000 
200.000000 
200.000000 
200.000000 
200.000000 
200.000000 
200.000000 
200.000000 
200.000000 
200.000000 
200.000000 
200.000000 
200.000000 
200.000000 
200.000000 
200.000000 
200.000000 
200.000000 
200.000000 
200.000000 
200.000000 
200.000000 
200.000000 
200.000000 
200.000000 
200.000000 
200.000000 
200.000000 
200.000000 
200.000000 
200.000000 
200.000000 
200.000000 
200.000000 
200.000000 
200.000000 
200.000000 
200.000000 
200.000000 
200.000000 
200.000000 
200.000000 
200.000000 
200.000000 
200.000000 
200.000000 
200.000000 
200.000000 
200.000000 
200.000000 
200.000000 
200.000000 
200.000000 
200.000000 
200.000000 
200.000000 
200.000000 
200.000000 
200.000000 
200.000000 
200.000000 
200.000000 
200.000000 
200.000000 
200.000000 
200.000000 
200.000000 
200.000000 
200.000000 
200.000000 
200.000000 
200.000000 
200.000000 
200.000000 
200.000000 
200.000000 
200.000000 
200.000000 
200.000000 
200.000000 
200.000000 
200.000000 
200.000000 
200.000000 
200.000000 
200.000000 
200.000000 
200.000000 
200.000000 
200.000000 
200.000000 
200.000000 
200.000000 
200.000000 
200.000000 
200.000000 
200.000000 
200.000000 
200.000000 
200.000000 
SCALARS ELEM_i float 
LOOKUP_TABLE default 
182 
209 
182 
183 
210 
210 
210 
183 
183 
237 
210 
211 
211 
211 
184 
184 
238 
238 
238 
211 
211 
211 
212 
184 
185 
182 
209 
209 
209 
235 
209 
236 
209 
210 
235 
235 
236 
236 
236 
237 
237 
262 
262 
263 
263 
263 
264 
264 
237 
237 
181 
208 
208 
208 
207 
207 
207 
208 
235 
206 
207 
234 
234 
234 
235 
235 
206 
233 
233 
234 
234 
234 
261 
262 
262 
181 
181 
181 
181 
153 
180 
180 
180 
207 
152 
152 
179 
179 
179 
206 
206 
152 
152 
151 
179 
178 
179 
205 
206 
206 
181 
154 
154 
154 
127 
154 
153 
153 
153 
127 
127 
126 
126 
126 
153 
152 
100 
100 
99 
126 
126 
126 
125 
125 
152 
182 
155 
155 
155 
156 
155 
128 
155 
127 
129 
129 
128 
128 
128 
127 
127 
129 
129 
102 
102 
101 
101 
101 
100 
100 
182 
183 
182 
155 
183 
183 
156 
156 
156 
184 
184 
157 
157 
157 
156 
129 
185 
184 
158 
157 
157 
157 
130 
130 
130 
VECTORS VELOCITY float 
-0.000000 -0.720054 0.000000 
-0.000000 -0.720054 0.000000 
-0.000000 -0.720054 0.000000 
0.000000 -0.720054 0.000000 
-0.000000 -0.720054 0.000000 
-0.000000 -0.720054 0.000000 
-0.000000 -0.720054 0.000000 
-0.000000 -0.720054 0.000000 
-0.000000 -0.720054 0.000000 
-0.000000 -0.720054 0.000000 
-0.000000 -0.720054 0.000000 
-0.000000 -0.720054 0.000000 
-0.000000 -0.720054 0.000000 
-0.000000 -0.720054 0.000000 
-0.000000 -0.720054 0.000000 
-0.000000 -0.720054 0.000000 
-0.000000 -0.720054 0.000000 
-0.000000 -0.720054 0.000000 
-0.000000 -0.720054 0.000000 
-0.000000 -0.720054 0.000000 
0.000000 -0.720054 0.000000 
0.000000 -0.720054 0.000000 
-0.000000 -0.720054 0.000000 
-0.000000 -0.720054 0.000000 
0.000000 -0.720054 0.000000 
-0.000000 -0.720054 0.000000 
-0.000000 -0.720054 0.000000 
-0.000000 -0.720054 0.000000 
-0.000000 -0.720054 0.000000 
-0.000000 -0.720054 0.000000 
-0.000000 -0.720054 0.000000 
-0.000000 -0.720054 0.000000 
-0.000000 -0.720054 0.000000 
-0.000000 -0.720054 0.000000 
-0.000000 -0.720054 0.000000 
-0.000000 -0.720054 0.000000 
-0.000000 -0.720054 0.000000 
-0.000000 -0.720054 0.000000 
-0.000000 -0.720054 0.000000 
-0.000000 -0.720054 0.000000 
-0.000000 -0.720054 0.000000 
0.000000 -0.720054 0.000000 
0.000000 -0.720054 0.000000 
0.000000 -0.720054 0.000000 
0.000000 -0.720054 0.000000 
-0.000000 -0.720054 0.000000 
-0.000000 -0.720054 0.000000 
-0.000000 -0.720054 0.000000 
-0.000000 -0.720054 0.000000 
-0.000000 -0.720054 0.000000 
-0.000000 -0.720054 0.000000 
0.000000 -0.720054 0.000000 
0.000000 -0.720054 0.000000 
-0.000000 -0.720054 0.000000 
0.000000 -0.720054 0.000000 
0.000000 -0.720054 0.000000 
0.000000 -0.720054 0.000000 
-0.000000 -0.720054 0.000000 
-0.000000 -0.720054 0.000000 
0.000000 -0.720054 0.000000 
0.000000 -0.720054 0.000000 
0.000000 -0.720054 0.000000 
0.000000 -0.720054 0.000000 
0.000000 -0.720054 0.000000 
0.000000 -0.720054 0.000000 
0.000000 -0.720054 0.000000 
0.000000 -0.720054 0.000000 
0.000000 -0.720054 0.000000 
0.000000 -0.720054 0.000000 
0.000000 -0.720054 0.000000 
0.000000 -0.720054 0.000000 
0.000000 -0.720054 0.000000 
-0.000000 -0.720054 0.000000 
0.000000 -0.720054 0.000000 
0.000000 -0.720054 0.000000 
0.000000 -0.720054 0.000000 
0.000000 -0.720054 0.000000 
0.000000 -0.720054 0.000000 
0.000000 -0.720054 0.000000 
0.000000 -0.720054 0.000000 
0.000000 -0.720054 0.000000 
0.000000 -0.720054 0.000000 
0.000000 -0.720054 0.000000 
0.000000 -0.720054 0.000000 
-0.000000 -0.720054 0.000000 
0.000000 -0.720054 0.000000 
0.000000 -0.720054 0.000000 
-0.000000 -0.720054 0.000000 
-0.000000 -0.720054 0.000000 
-0.000000 -0.720054 0.000000 
-0.000000 -0.720054 0.000000 
-0.000000 -0.720054 0.000000 
0.000000 -0.720054 0.000000 
0.000000 -0.720054 0.000000 
0.000000 -0.720054 0.000000 
0.000000 -0.720054 0.000000 
-0.000000 -0.720054 0.000000 
-0.000000 -0.720054 0.000000 
0.000000 -0.720054 0.000000 
0.000000 -0.720054 0.000000 
0.000000 -0.720054 0.000000 
-0.000000 -0.720054 0.000000 
0.000000 -0.720054 0.000000 
0.000000 -0.720054 0.000000 
-0.000000 -0.720054 0.000000 
-0.000000 -0.720054 0.000000 
-0.000000 -0.720054 0.000000 
-0.000000 -0.720054 0.000000 
-0.000000 -0.720054 0.000000 
0.000000 -0.720054 0.000000 
-0.000000 -0.720054 0.000000 
-0.000000 -0.720054 0.000000 
-0.000000 -0.720054 0.000000 
-0.000000 -0.720054 0.000000 
-0.000000 -0.720054 0.000000 
-0.000000 -0.720054 0.000000 
0.000000 -0.720054 0.000000 
0.000000 -0.720054 0.000000 
0.000000 -0.720054 0.000000 
-0.000000 -0.720054 0.000000 
-0.000000 -0.720054 0.000000 
-0.000000 -0.720054 0.000000 
0.000000 -0.720054 0.000000 
-0.000000 -0.720054 0.000000 
-0.000000 -0.720054 0.000000 
0.000000 -0.720054 0.000000 
0.000000 -0.720054 0.000000 
0.000000 -0.720054 0.000000 
-0.000000 -0.720054 0.000000 
-0.000000 -0.720054 0.000000 
-0.000000 -0.720054 0.000000 
-0.000000 -0.720054 0.000000 
-0.000000 -0.720054 0.000000 
-0.000000 -0.720054 0.000000 
0.000000 -0.720054 0.000000 
0.000000 -0.720054 0.000000 
-0.000000 -0.720054 0.000000 
-0.000000 -0.720054 0.000000 
-0.000000 -0.720054 0.000000 
-0.000000 -0.720054 0.000000 
-0.000000 -0.720054 0.000000 
0.000000 -0.720054 0.000000 
0.000000 -0.720054 0.000000 
-0.000000 -0.720054 0.000000 
-0.000000 -0.720054 0.000000 
-0.000000 -0.720054 0.000000 
-0.000000 -0.720054 0.000000 
0.000000 -0.720054 0.000000 
0.000000 -0.720054 0.000000 
0.000000 -0.720054 0.000000 
0.000000 -0.720054 0.000000 
0.000000 -0.720054 0.000000 
0.000000 -0.720054 0.000000 
0.000000 -0.720054 0.000000 
-0.000000 -0.720054 0.000000 
0.000000 -0.720054 0.000000 
0.000000 -0.720054 0.000000 
0.000000 -0.720054 0.000000 
0.000000 -0.720054 0.000000 
0.000000 -0.720054 0.000000 
-0.000000 -0.720054 0.000000 
0.000000 -0.720054 0.000000 
0.000000 -0.720054 0.000000 
0.000000 -0.720054 0.000000 
0.000000 -0.720054 0.000000 
0.000000 -0.720054 0.000000 
0.000000 -0.720054 0.000000 
0.000000 -0.720054 0.000000 
0.000000 -0.720054 0.000000 
0.000000 -0.720054 0.000000 
-0.000000 -0.720054 0.000000 
-0.000000 -0.720054 0.000000 
-0.000000 -0.720054 0.000000 
0.000000 -0.720054 0.000000 
0.000000 -0.720054 0.000000 
TENSORS STRESS float 
0.000000 -0.000000 0.000000 
0.000000 0.000000 0.000000 
0.000000 0.000000 0.000000 

0.000000 0.000000 0.000000 
0.000000 0.000000 0.000000 
0.000000 0.000000 0.000000 

0.000000 -0.000000 0.000000 
0.000000 0.000000 0.000000 
0.000000 0.000000 0.000000 

-0.000000 -0.000000 0.000000 
0.000000 -0.000000 0.000000 
0.000000 0.000000 0.000000 

-0.000000 0.000000 0.000000 
0.000000 -0.000000 0.000000 
0.000000 0.000000 0.000000 

0.000000 0.000000 0.000000 
0.000000 0.000000 0.000000 
0.000000 0.000000 0.000000 

-0.000000 0.000000 0.000000 
0.000000 -0.000000 0.000000 
0.000000 0.000000 0.000000 

-0.000000 -0.000000 0.000000 
0.000000 -0.000000 0.000000 
0.000000 0.000000 0.000000 

-0.000000 -0.000000 0.000000 
0.000000 -0.000000 0.000000 
0.000000 0.000000 0.000000 

0.000000 -0.000000 0.000000 
0.000000 0.000000 0.000000 
0.000000 0.000000 0.000000 

-0.000000 0.000000 0.000000 
0.000000 -0.000000 0.000000 
0.000000 0.000000 0.000000 

-0.000000 0.000000 0.000000 
0.000000 -0.000000 0.000000 
0.000000 0.000000 0.000000 

-0.000000 0.000000 0.000000 
0.000000 -0.000000 0.000000 
0.000000 0.000000 0.000000 

0.000000 0.000000 0.000000 
0.000000 0.000000 0.000000 
0.000000 0.000000 0.000000 

0.000000 -0.000000 0.000000 
0.000000 0.000000 0.000000 
0.000000 0.000000 0.000000 

0.000000 0.000000 0.000000 
0.000000 0.000000 0.000000 
0.000000 0.000000 0.000000 

0.000000 0.000000 0.000000 
0.000000 0.000000 0.000000 
0.000000 0.000000 0.000000 

0.000000 0.000000 0.000000 
0.000000 0.000000 0.000000 
0.000000 0.000000 0.000000 

-0.000000 -0.000000 0.000000 
0.000000 -0.000000 0.000000 
0.000000 0.000000 0.000000 

-0.000000 0.000000 0.000000 
0.000000 -0.000000 0.000000 
0.000000 0.000000 0.000000 

0.000000 0.000000 0.000000 
0.000000 0.000000 0.000000 
0.000000 0.000000 0.000000 

0.000000 0.000000 0.000000 
0.000000 0.000000 0.000000 
0.000000 0.000000 0.000000 

-0.000000 -0.000000 0.000000 
0.000000 -0.000000 0.000000 
0.000000 0.000000 0.000000 

0.000000 0.000000 0.000000 
0.000000 0.000000 0.000000 
0.000000 0.000000 0.000000 

-0.000000 -0.000000 0.000000 
0.000000 -0.000000 0.000000 
0.000000 0.000000 0.000000 

0.000000 -0.000000 0.000000 
0.000000 0.000000 0.000000 
0.000000 0.000000 0.000000 

0.000000 -0.000000 0.000000 
0.000000 0.000000 0.000000 
0.000000 0.000000 0.000000 

0.000000 0.000000 0.000000 
0.000000 0.000000 0.000000 
0.000000 0.000000 0.000000 

0.000000 0.000000 0.000000 
0.000000 0.000000 0.000000 
0.000000 0.000000 0.000000 

0.000000 0.000000 0.000000 
0.000000 0.000000 0.000000 
0.000000 0.000000 0.000000 

0.000000 -0.000000 0.000000 
0.000000 0.000000 0.000000 
0.000000 0.000000 0.000000 

0.000000 -0.000000 0.000000 
0.000000 0.000000 0.000000 
0.000000 0.000000 0.000000 

0.000000 0.000000 0.000000 
0.000000 0.000000 0.000000 
0.000000 0.000000 0.000000 

0.000000 0.000000 0.000000 
0.000000 0.000000 0.000000 
0.000000 0.000000 0.000000 

-0.000000 0.000000 0.000000 
0.000000 -0.000000 0.000000 
0.000000 0.000000 0.000000 

0.000000 -0.000000 0.000000 
0.000000 0.000000 0.000000 
0.000000 0.000000 0.000000 

0.000000 -0.000000 0.000000 
0.000000 0.000000 0.000000 
0.000000 0.000000 0.000000 

0.000000 -0.000000 0.000000 
0.000000 0.000000 0.000000 
0.000000 0.000000 0.000000 

-0.000000 0.000000 0.000000 
0.000000 -0.000000 0.000000 
0.000000 0.000000 0.000000 

-0.000000 0.000000 0.000000 
0.000000 -0.000000 0.000000 
0.000000 0.000000 0.000000 

0.000000 -0.000000 0.000000 
0.000000 0.000000 0.000000 
0.000000 0.000000 0.000000 

0.000000 0.000000 0.000000 
0.000000 0.000000 0.000000 
0.000000 0.000000 0.000000 

0.000000 0.000000 0.000000 
0.000000 0.000000 0.000000 
0.000000 0.000000 0.000000 

-0.000000 0.000000 0.000000 
0.000000 -0.000000 0.000000 
0.000000 0.000000 0.000000 

-0.000000 0.000000 0.000000 
0.000000 -0.000000 0.000000 
0.000000 0.000000 0.000000 

-0.000000 0.000000 0.000000 
0.000000 -0.000000 0.000000 
0.000000 0.000000 0.000000 

0.000000 0.000000 0.000000 
0.000000 0.000000 0.000000 
0.000000 0.000000 0.000000 

0.000000 -0.000000 0.000000 
0.000000 0.000000 0.000000 
0.000000 0.000000 0.000000 

0.000000 -0.000000 0.000000 
0.000000 0.000000 0.000000 
0.000000 0.000000 0.000000 

0.000000 -0.000000 0.000000 
0.000000 0.000000 0.000000 
0.000000 0.000000 0.000000 

0.000000 -0.000000 0.000000 
0.000000 0.000000 0.000000 
0.000000 0.000000 0.000000 

0.000000 0.000000 0.000000 
0.000000 0.000000 0.000000 
0.000000 0.000000 0.000000 

0.000000 0.000000 0.000000 
0.000000 0.000000 0.000000 
0.000000 0.000000 0.000000 

0.000000 0.000000 0.000000 
0.000000 0.000000 0.000000 
0.000000 0.000000 0.000000 

-0.000000 0.000000 0.000000 
0.000000 -0.000000 0.000000 
0.000000 0.000000 0.000000 

0.000000 0.000000 0.000000 
0.000000 0.000000 0.000000 
0.000000 0.000000 0.000000 

0.000000 0.000000 0.000000 
0.000000 0.000000 0.000000 
0.000000 0.000000 0.000000 

0.000000 0.000000 0.000000 
0.000000 0.000000 0.000000 
0.000000 0.000000 0.000000 

0.000000 -0.000000 0.000000 
0.000000 0.000000 0.000000 
0.000000 0.000000 0.000000 

-0.000000 0.000000 0.000000 
0.000000 -0.000000 0.000000 
0.000000 0.000000 0.000000 

-0.000000 0.000000 0.000000 
0.000000 -0.000000 0.000000 
0.000000 0.000000 0.000000 

0.000000 -0.000000 0.000000 
0.000000 0.000000 0.000000 
0.000000 0.000000 0.000000 

-0.000000 -0.000000 0.000000 
0.000000 -0.000000 0.000000 
0.000000 0.000000 0.000000 

0.000000 -0.000000 0.000000 
0.000000 0.000000 0.000000 
0.000000 0.000000 0.000000 

0.000000 -0.000000 0.000000 
0.000000 0.000000 0.000000 
0.000000 0.000000 0.000000 

-0.000000 -0.000000 0.000000 
0.000000 -0.000000 0.000000 
0.000000 0.000000 0.000000 

0.000000 -0.000000 0.000000 
0.000000 0.000000 0.000000 
0.000000 0.000000 0.000000 

0.000000 -0.000000 0.000000 
0.000000 0.000000 0.000000 
0.000000 0.000000 0.000000 

-0.000000 -0.000000 0.000000 
0.000000 -0.000000 0.000000 
0.000000 0.000000 0.000000 

-0.000000 -0.000000 0.000000 
0.000000 -0.000000 0.000000 
0.000000 0.000000 0.000000 

0.000000 -0.000000 0.000000 
0.000000 0.000000 0.000000 
0.000000 0.000000 0.000000 

0.000000 -0.000000 0.000000 
0.000000 0.000000 0.000000 
0.000000 0.000000 0.000000 

-0.000000 -0.000000 0.000000 
0.000000 -0.000000 0.000000 
0.000000 0.000000 0.000000 

0.000000 0.000000 0.000000 
0.000000 0.000000 0.000000 
0.000000 0.000000 0.000000 

0.000000 0.000000 0.000000 
0.000000 0.000000 0.000000 
0.000000 0.000000 0.000000 

0.000000 -0.000000 0.000000 
0.000000 0.000000 0.000000 
0.000000 0.000000 0.000000 

0.000000 -0.000000 0.000000 
0.000000 0.000000 0.000000 
0.000000 0.000000 0.000000 

0.000000 -0.000000 0.000000 
0.000000 0.000000 0.000000 
0.000000 0.000000 0.000000 

0.000000 -0.000000 0.000000 
0.000000 0.000000 0.000000 
0.000000 0.000000 0.000000 

-0.000000 -0.000000 0.000000 
0.000000 -0.000000 0.000000 
0.000000 0.000000 0.000000 

-0.000000 0.000000 0.000000 
0.000000 -0.000000 0.000000 
0.000000 0.000000 0.000000 

-0.000000 0.000000 0.000000 
0.000000 -0.000000 0.000000 
0.000000 0.000000 0.000000 

-0.000000 0.000000 0.000000 
0.000000 -0.000000 0.000000 
0.000000 0.000000 0.000000 

-0.000000 0.000000 0.000000 
0.000000 -0.000000 0.000000 
0.000000 0.000000 0.000000 

0.000000 -0.000000 0.000000 
0.000000 0.000000 0.000000 
0.000000 0.000000 0.000000 

0.000000 -0.000000 0.000000 
0.000000 0.000000 0.000000 
0.000000 0.000000 0.000000 

0.000000 -0.000000 0.000000 
0.000000 0.000000 0.000000 
0.000000 0.000000 0.000000 

-0.000000 0.000000 0.000000 
0.000000 0.000000 0.000000 
0.000000 0.000000 0.000000 

-0.000000 0.000000 0.000000 
0.000000 -0.000000 0.000000 
0.000000 0.000000 0.000000 

-0.000000 0.000000 0.000000 
0.000000 -0.000000 0.000000 
0.000000 0.000000 0.000000 

-0.000000 0.000000 0.000000 
0.000000 -0.000000 0.000000 
0.000000 0.000000 0.000000 

-0.000000 0.000000 0.000000 
0.000000 -0.000000 0.000000 
0.000000 0.000000 0.000000 

0.000000 0.000000 0.000000 
0.000000 0.000000 0.000000 
0.000000 0.000000 0.000000 

-0.000000 0.000000 0.000000 
0.000000 -0.000000 0.000000 
0.000000 0.000000 0.000000 

0.000000 0.000000 0.000000 
0.000000 0.000000 0.000000 
0.000000 0.000000 0.000000 

0.000000 -0.000000 0.000000 
0.000000 0.000000 0.000000 
0.000000 0.000000 0.000000 

0.000000 0.000000 0.000000 
0.000000 0.000000 0.000000 
0.000000 0.000000 0.000000 

-0.000000 0.000000 0.000000 
0.000000 -0.000000 0.000000 
0.000000 0.000000 0.000000 

-0.000000 0.000000 0.000000 
0.000000 -0.000000 0.000000 
0.000000 0.000000 0.000000 

-0.000000 0.000000 0.000000 
0.000000 0.000000 0.000000 
0.000000 0.000000 0.000000 

0.000000 -0.000000 0.000000 
0.000000 0.000000 0.000000 
0.000000 0.000000 0.000000 

0.000000 -0.000000 0.000000 
0.000000 0.000000 0.000000 
0.000000 0.000000 0.000000 

-0.000000 -0.000000 0.000000 
0.000000 0.000000 0.000000 
0.000000 0.000000 0.000000 

0.000000 -0.000000 0.000000 
0.000000 0.000000 0.000000 
0.000000 0.000000 0.000000 

-0.000000 0.000000 0.000000 
0.000000 -0.000000 0.000000 
0.000000 0.000000 0.000000 

-0.000000 -0.000000 0.000000 
0.000000 -0.000000 0.000000 
0.000000 0.000000 0.000000 

0.000000 -0.000000 0.000000 
0.000000 0.000000 0.000000 
0.000000 0.000000 0.000000 

-0.000000 -0.000000 0.000000 
0.000000 -0.000000 0.000000 
0.000000 0.000000 0.000000 

-0.000000 -0.000000 0.000000 
0.000000 -0.000000 0.000000 
0.000000 0.000000 0.000000 

0.000000 0.000000 0.000000 
0.000000 0.000000 0.000000 
0.000000 0.000000 0.000000 

0.000000 0.000000 0.000000 
0.000000 0.000000 0.000000 
0.000000 0.000000 0.000000 

0.000000 -0.000000 0.000000 
0.000000 0.000000 0.000000 
0.000000 0.000000 0.000000 

0.000000 0.000000 0.000000 
0.000000 0.000000 0.000000 
0.000000 0.000000 0.000000 

0.000000 0.000000 0.000000 
0.000000 0.000000 0.000000 
0.000000 0.000000 0.000000 

-0.000000 -0.000000 0.000000 
0.000000 -0.000000 0.000000 
0.000000 0.000000 0.000000 

-0.000000 -0.000000 0.000000 
0.000000 -0.000000 0.000000 
0.000000 0.000000 0.000000 

0.000000 0.000000 0.000000 
0.000000 0.000000 0.000000 
0.000000 0.000000 0.000000 

-0.000000 0.000000 0.000000 
0.000000 -0.000000 0.000000 
0.000000 0.000000 0.000000 

-0.000000 0.000000 0.000000 
0.000000 -0.000000 0.000000 
0.000000 0.000000 0.000000 

0.000000 -0.000000 0.000000 
0.000000 0.000000 0.000000 
0.000000 0.000000 0.000000 

0.000000 -0.000000 0.000000 
0.000000 0.000000 0.000000 
0.000000 0.000000 0.000000 

0.000000 -0.000000 0.000000 
0.000000 0.000000 0.000000 
0.000000 0.000000 0.000000 

-0.000000 0.000000 0.000000 
0.000000 -0.000000 0.000000 
0.000000 0.000000 0.000000 

0.000000 0.000000 0.000000 
0.000000 0.000000 0.000000 
0.000000 0.000000 0.000000 

-0.000000 0.000000 0.000000 
0.000000 -0.000000 0.000000 
0.000000 0.000000 0.000000 

0.000000 -0.000000 0.000000 
0.000000 0.000000 0.000000 
0.000000 0.000000 0.000000 

0.000000 -0.000000 0.000000 
0.000000 0.000000 0.000000 
0.000000 0.000000 0.000000 

0.000000 -0.000000 0.000000 
0.000000 0.000000 0.000000 
0.000000 0.000000 0.000000 

0.000000 -0.000000 0.000000 
0.000000 0.000000 0.000000 
0.000000 0.000000 0.000000 

0.000000 -0.000000 0.000000 
0.000000 0.000000 0.000000 
0.000000 0.000000 0.000000 

0.000000 -0.000000 0.000000 
0.000000 0.000000 0.000000 
0.000000 0.000000 0.000000 

0.000000 0.000000 0.000000 
0.000000 0.000000 0.000000 
0.000000 0.000000 0.000000 

0.000000 -0.000000 0.000000 
0.000000 0.000000 0.000000 
0.000000 0.000000 0.000000 

-0.000000 0.000000 0.000000 
0.000000 -0.000000 0.000000 
0.000000 0.000000 0.000000 

-0.000000 0.000000 0.000000 
0.000000 -0.000000 0.000000 
0.000000 0.000000 0.000000 

0.000000 0.000000 0.000000 
0.000000 0.000000 0.000000 
0.000000 0.000000 0.000000 

0.000000 0.000000 0.000000 
0.000000 0.000000 0.000000 
0.000000 0.000000 0.000000 

0.000000 0.000000 0.000000 
0.000000 0.000000 0.000000 
0.000000 0.000000 0.000000 

0.000000 0.000000 0.000000 
0.000000 0.000000 0.000000 
0.000000 0.000000 0.000000 

-0.000000 0.000000 0.000000 
0.000000 -0.000000 0.000000 
0.000000 0.000000 0.000000 

0.000000 0.000000 0.000000 
0.000000 0.000000 0.000000 
0.000000 0.000000 0.000000 

-0.000000 0.000000 0.000000 
0.000000 -0.000000 0.000000 
0.000000 0.000000 0.000000 

-0.000000 0.000000 0.000000 
0.000000 -0.000000 0.000000 
0.000000 0.000000 0.000000 

-0.000000 -0.000000 0.000000 
0.000000 0.000000 0.000000 
0.000000 0.000000 0.000000 

0.000000 -0.000000 0.000000 
0.000000 0.000000 0.000000 
0.000000 0.000000 0.000000 

-0.000000 -0.000000 0.000000 
0.000000 -0.000000 0.000000 
0.000000 0.000000 0.000000 

-0.000000 -0.000000 0.000000 
0.000000 -0.000000 0.000000 
0.000000 0.000000 0.000000 

-0.000000 0.000000 0.000000 
0.000000 -0.000000 0.000000 
0.000000 0.000000 0.000000 

0.000000 0.000000 0.000000 
0.000000 0.000000 0.000000 
0.000000 0.000000 0.000000 

-0.000000 0.000000 0.000000 
0.000000 -0.000000 0.000000 
0.000000 0.000000 0.000000 

0.000000 -0.000000 0.000000 
0.000000 0.000000 0.000000 
0.000000 0.000000 0.000000 

-0.000000 -0.000000 0.000000 
0.000000 -0.000000 0.000000 
0.000000 0.000000 0.000000 

0.000000 -0.000000 0.000000 
0.000000 0.000000 0.000000 
0.000000 0.000000 0.000000 

0.000000 -0.000000 0.000000 
0.000000 0.000000 0.000000 
0.000000 0.000000 0.000000 

-0.000000 -0.000000 0.000000 
0.000000 -0.000000 0.000000 
0.000000 0.000000 0.000000 

-0.000000 -0.000000 0.000000 
0.000000 -0.000000 0.000000 
0.000000 0.000000 0.000000 

-0.000000 0.000000 0.000000 
0.000000 -0.000000 0.000000 
0.000000 0.000000 0.000000 

0.000000 -0.000000 0.000000 
0.000000 0.000000 0.000000 
0.000000 0.000000 0.000000 

-0.000000 -0.000000 0.000000 
0.000000 -0.000000 0.000000 
0.000000 0.000000 0.000000 

0.000000 0.000000 0.000000 
0.000000 0.000000 0.000000 
0.000000 0.000000 0.000000 

0.000000 0.000000 0.000000 
0.000000 0.000000 0.000000 
0.000000 0.000000 0.000000 

0.000000 0.000000 0.000000 
0.000000 0.000000 0.000000 
0.000000 0.000000 0.000000 

0.000000 0.000000 0.000000 
0.000000 0.000000 0.000000 
0.000000 0.000000 0.000000 

0.000000 0.000000 0.000000 
0.000000 0.000000 0.000000 
0.000000 0.000000 0.000000 

0.000000 0.000000 0.000000 
0.000000 0.000000 0.000000 
0.000000 0.000000 0.000000 

-0.000000 0.000000 0.000000 
0.000000 -0.000000 0.000000 
0.000000 0.000000 0.000000 

-0.000000 -0.000000 0.000000 
0.000000 -0.000000 0.000000 
0.000000 0.000000 0.000000 

-0.000000 -0.000000 0.000000 
0.000000 -0.000000 0.000000 
0.000000 0.000000 0.000000 

0.000000 0.000000 0.000000 
0.000000 0.000000 0.000000 
0.000000 0.000000 0.000000 

0.000000 0.000000 0.000000 
0.000000 0.000000 0.000000 
0.000000 0.000000 0.000000 

0.000000 0.000000 0.000000 
0.000000 0.000000 0.000000 
0.000000 0.000000 0.000000 

0.000000 0.000000 0.000000 
0.000000 0.000000 0.000000 
0.000000 0.000000 0.000000 

0.000000 0.000000 0.000000 
0.000000 0.000000 0.000000 
0.000000 0.000000 0.000000 

0.000000 0.000000 0.000000 
0.000000 0.000000 0.000000 
0.000000 0.000000 0.000000 

0.000000 0.000000 0.000000 
0.000000 0.000000 0.000000 
0.000000 0.000000 0.000000 

TENSORS STRAIN float 
0.000000 -0.000000 0.000000 
0.000000 0.000000 0.000000 
0.000000 0.000000 0.000000 

0.000000 0.000000 0.000000 
0.000000 0.000000 0.000000 
0.000000 0.000000 0.000000 

0.000000 -0.000000 0.000000 
0.000000 0.000000 0.000000 
0.000000 0.000000 0.000000 

0.000000 -0.000000 0.000000 
0.000000 -0.000000 0.000000 
0.000000 0.000000 0.000000 

0.000000 0.000000 0.000000 
0.000000 -0.000000 0.000000 
0.000000 0.000000 0.000000 

0.000000 0.000000 0.000000 
0.000000 0.000000 0.000000 
0.000000 0.000000 0.000000 

0.000000 0.000000 0.000000 
0.000000 -0.000000 0.000000 
0.000000 0.000000 0.000000 

0.000000 -0.000000 0.000000 
0.000000 -0.000000 0.000000 
0.000000 0.000000 0.000000 

0.000000 -0.000000 0.000000 
0.000000 -0.000000 0.000000 
0.000000 0.000000 0.000000 

0.000000 -0.000000 0.000000 
0.000000 -0.000000 0.000000 
0.000000 0.000000 0.000000 

0.000000 0.000000 0.000000 
0.000000 -0.000000 0.000000 
0.000000 0.000000 0.000000 

0.000000 0.000000 0.000000 
0.000000 -0.000000 0.000000 
0.000000 0.000000 0.000000 

0.000000 0.000000 0.000000 
0.000000 -0.000000 0.000000 
0.000000 0.000000 0.000000 

0.000000 0.000000 0.000000 
0.000000 0.000000 0.000000 
0.000000 0.000000 0.000000 

0.000000 -0.000000 0.000000 
0.000000 -0.000000 0.000000 
0.000000 0.000000 0.000000 

0.000000 0.000000 0.000000 
0.000000 -0.000000 0.000000 
0.000000 0.000000 0.000000 

-0.000000 0.000000 0.000000 
0.000000 0.000000 0.000000 
0.000000 0.000000 0.000000 

-0.000000 0.000000 0.000000 
0.000000 0.000000 0.000000 
0.000000 0.000000 0.000000 

-0.000000 -0.000000 0.000000 
0.000000 0.000000 0.000000 
0.000000 0.000000 0.000000 

0.000000 0.000000 0.000000 
0.000000 -0.000000 0.000000 
0.000000 0.000000 0.000000 

0.000000 0.000000 0.000000 
0.000000 -0.000000 0.000000 
0.000000 0.000000 0.000000 

0.000000 0.000000 0.000000 
0.000000 -0.000000 0.000000 
0.000000 0.000000 0.000000 

0.000000 -0.000000 0.000000 
0.000000 -0.000000 0.000000 
0.000000 0.000000 0.000000 

0.000000 0.000000 0.000000 
0.000000 -0.000000 0.000000 
0.000000 0.000000 0.000000 

0.000000 -0.000000 0.000000 
0.000000 -0.000000 0.000000 
0.000000 0.000000 0.000000 

0.000000 -0.000000 0.000000 
0.000000 0.000000 0.000000 
0.000000 0.000000 0.000000 

-0.000000 -0.000000 0.000000 
0.000000 0.000000 0.000000 
0.000000 0.000000 0.000000 

0.000000 0.000000 0.000000 
0.000000 0.000000 0.000000 
0.000000 0.000000 0.000000 

0.000000 0.000000 0.000000 
0.000000 0.000000 0.000000 
0.000000 0.000000 0.000000 

-0.000000 0.000000 0.000000 
0.000000 0.000000 0.000000 
0.000000 0.000000 0.000000 

0.000000 -0.000000 0.000000 
0.000000 0.000000 0.000000 
0.000000 0.000000 0.000000 

-0.000000 -0.000000 0.000000 
0.000000 0.000000 0.000000 
0.000000 0.000000 0.000000 

0.000000 0.000000 0.000000 
0.000000 0.000000 0.000000 
0.000000 0.000000 0.000000 

0.000000 0.000000 0.000000 
0.000000 0.000000 0.000000 
0.000000 0.000000 0.000000 

-0.000000 0.000000 0.000000 
0.000000 -0.000000 0.000000 
0.000000 0.000000 0.000000 

-0.000000 -0.000000 0.000000 
0.000000 0.000000 0.000000 
0.000000 0.000000 0.000000 

-0.000000 -0.000000 0.000000 
0.000000 0.000000 0.000000 
0.000000 0.000000 0.000000 

-0.000000 -0.000000 0.000000 
0.000000 0.000000 0.000000 
0.000000 0.000000 0.000000 

-0.000000 0.000000 0.000000 
0.000000 -0.000000 0.000000 
0.000000 0.000000 0.000000 

-0.000000 0.000000 0.000000 
0.000000 0.000000 0.000000 
0.000000 0.000000 0.000000 

-0.000000 -0.000000 0.000000 
0.000000 0.000000 0.000000 
0.000000 0.000000 0.000000 

0.000000 0.000000 0.000000 
0.000000 0.000000 0.000000 
0.000000 0.000000 0.000000 

0.000000 0.000000 0.000000 
0.000000 0.000000 0.000000 
0.000000 0.000000 0.000000 

0.000000 0.000000 0.000000 
0.000000 -0.000000 0.000000 
0.000000 0.000000 0.000000 

-0.000000 0.000000 0.000000 
0.000000 -0.000000 0.000000 
0.000000 0.000000 0.000000 

-0.000000 0.000000 0.000000 
0.000000 -0.000000 0.000000 
0.000000 0.000000 0.000000 

-0.000000 0.000000 0.000000 
0.000000 0.000000 0.000000 
0.000000 0.000000 0.000000 

-0.000000 -0.000000 0.000000 
0.000000 0.000000 0.000000 
0.000000 0.000000 0.000000 

-0.000000 -0.000000 0.000000 
0.000000 0.000000 0.000000 
0.000000 0.000000 0.000000 

0.000000 -0.000000 0.000000 
0.000000 0.000000 0.000000 
0.000000 0.000000 0.000000 

0.000000 -0.000000 0.000000 
0.000000 0.000000 0.000000 
0.000000 0.000000 0.000000 

0.000000 0.000000 0.000000 
0.000000 0.000000 0.000000 
0.000000 0.000000 0.000000 

0.000000 0.000000 0.000000 
0.000000 0.000000 0.000000 
0.000000 0.000000 0.000000 

0.000000 0.000000 0.000000 
0.000000 0.000000 0.000000 
0.000000 0.000000 0.000000 

0.000000 0.000000 0.000000 
0.000000 -0.000000 0.000000 
0.000000 0.000000 0.000000 

0.000000 0.000000 0.000000 
0.000000 -0.000000 0.000000 
0.000000 0.000000 0.000000 

0.000000 0.000000 0.000000 
0.000000 -0.000000 0.000000 
0.000000 0.000000 0.000000 

0.000000 0.000000 0.000000 
0.000000 0.000000 0.000000 
0.000000 0.000000 0.000000 

-0.000000 -0.000000 0.000000 
0.000000 0.000000 0.000000 
0.000000 0.000000 0.000000 

-0.000000 0.000000 0.000000 
0.000000 -0.000000 0.000000 
0.000000 0.000000 0.000000 

-0.000000 0.000000 0.000000 
0.000000 -0.000000 0.000000 
0.000000 0.000000 0.000000 

-0.000000 -0.000000 0.000000 
0.000000 0.000000 0.000000 
0.000000 0.000000 0.000000 

-0.000000 -0.000000 0.000000 
0.000000 -0.000000 0.000000 
0.000000 0.000000 0.000000 

0.000000 -0.000000 0.000000 
0.000000 0.000000 0.000000 
0.000000 0.000000 0.000000 

-0.000000 -0.000000 0.000000 
0.000000 0.000000 0.000000 
0.000000 0.000000 0.000000 

-0.000000 -0.000000 0.000000 
0.000000 -0.000000 0.000000 
0.000000 0.000000 0.000000 

-0.000000 -0.000000 0.000000 
0.000000 0.000000 0.000000 
0.000000 0.000000 0.000000 

-0.000000 -0.000000 0.000000 
0.000000 0.000000 0.000000 
0.000000 0.000000 0.000000 

-0.000000 -0.000000 0.000000 
0.000000 -0.000000 0.000000 
0.000000 0.000000 0.000000 

-0.000000 -0.000000 0.000000 
0.000000 0.000000 0.000000 
0.000000 0.000000 0.000000 

-0.000000 -0.000000 0.000000 
0.000000 0.000000 0.000000 
0.000000 0.000000 0.000000 

-0.000000 -0.000000 0.000000 
0.000000 0.000000 0.000000 
0.000000 0.000000 0.000000 

0.000000 -0.000000 0.000000 
0.000000 -0.000000 0.000000 
0.000000 0.000000 0.000000 

0.000000 0.000000 0.000000 
0.000000 -0.000000 0.000000 
0.000000 0.000000 0.000000 

0.000000 0.000000 0.000000 
0.000000 0.000000 0.000000 
0.000000 0.000000 0.000000 

0.000000 -0.000000 0.000000 
0.000000 0.000000 0.000000 
0.000000 0.000000 0.000000 

-0.000000 -0.000000 0.000000 
0.000000 0.000000 0.000000 
0.000000 0.000000 0.000000 

-0.000000 -0.000000 0.000000 
0.000000 0.000000 0.000000 
0.000000 0.000000 0.000000 

-0.000000 -0.000000 0.000000 
0.000000 0.000000 0.000000 
0.000000 0.000000 0.000000 

-0.000000 -0.000000 0.000000 
0.000000 -0.000000 0.000000 
0.000000 0.000000 0.000000 

-0.000000 0.000000 0.000000 
0.000000 0.000000 0.000000 
0.000000 0.000000 0.000000 

-0.000000 0.000000 0.000000 
0.000000 -0.000000 0.000000 
0.000000 0.000000 0.000000 

-0.000000 0.000000 0.000000 
0.000000 0.000000 0.000000 
0.000000 0.000000 0.000000 

-0.000000 0.000000 0.000000 
0.000000 -0.000000 0.000000 
0.000000 0.000000 0.000000 

-0.000000 -0.000000 0.000000 
0.000000 0.000000 0.000000 
0.000000 0.000000 0.000000 

-0.000000 -0.000000 0.000000 
0.000000 0.000000 0.000000 
0.000000 0.000000 0.000000 

-0.000000 -0.000000 0.000000 
0.000000 0.000000 0.000000 
0.000000 0.000000 0.000000 

-0.000000 0.000000 0.000000 
0.000000 0.000000 0.000000 
0.000000 0.000000 0.000000 

-0.000000 0.000000 0.000000 
0.000000 0.000000 0.000000 
0.000000 0.000000 0.000000 

-0.000000 0.000000 0.000000 
0.000000 0.000000 0.000000 
0.000000 0.000000 0.000000 

-0.000000 0.000000 0.000000 
0.000000 -0.000000 0.000000 
0.000000 0.000000 0.000000 

-0.000000 0.000000 0.000000 
0.000000 -0.000000 0.000000 
0.000000 0.000000 0.000000 

-0.000000 0.000000 0.000000 
0.000000 0.000000 0.000000 
0.000000 0.000000 0.000000 

-0.000000 0.000000 0.000000 
0.000000 -0.000000 0.000000 
0.000000 0.000000 0.000000 

0.000000 0.000000 0.000000 
0.000000 0.000000 0.000000 
0.000000 0.000000 0.000000 

0.000000 -0.000000 0.000000 
0.000000 0.000000 0.000000 
0.000000 0.000000 0.000000 

0.000000 0.000000 0.000000 
0.000000 0.000000 0.000000 
0.000000 0.000000 0.000000 

-0.000000 0.000000 0.000000 
0.000000 0.000000 0.000000 
0.000000 0.000000 0.000000 

-0.000000 0.000000 0.000000 
0.000000 0.000000 0.000000 
0.000000 0.000000 0.000000 

-0.000000 0.000000 0.000000 
0.000000 0.000000 0.000000 
0.000000 0.000000 0.000000 

0.000000 -0.000000 0.000000 
0.000000 0.000000 0.000000 
0.000000 0.000000 0.000000 

-0.000000 -0.000000 0.000000 
0.000000 0.000000 0.000000 
0.000000 0.000000 0.000000 

-0.000000 -0.000000 0.000000 
0.000000 0.000000 0.000000 
0.000000 0.000000 0.000000 

-0.000000 -0.000000 0.000000 
0.000000 0.000000 0.000000 
0.000000 0.000000 0.000000 

0.000000 0.000000 0.000000 
0.000000 -0.000000 0.000000 
0.000000 0.000000 0.000000 

-0.000000 -0.000000 0.000000 
0.000000 0.000000 0.000000 
0.000000 0.000000 0.000000 

-0.000000 -0.000000 0.000000 
0.000000 0.000000 0.000000 
0.000000 0.000000 0.000000 

-0.000000 -0.000000 0.000000 
0.000000 -0.000000 0.000000 
0.000000 0.000000 0.000000 

-0.000000 -0.000000 0.000000 
0.000000 0.000000 0.000000 
0.000000 0.000000 0.000000 

0.000000 0.000000 0.000000 
0.000000 0.000000 0.000000 
0.000000 0.000000 0.000000 

0.000000 0.000000 0.000000 
0.000000 0.000000 0.000000 
0.000000 0.000000 0.000000 

0.000000 -0.000000 0.000000 
0.000000 -0.000000 0.000000 
0.000000 0.000000 0.000000 

0.000000 0.000000 0.000000 
0.000000 -0.000000 0.000000 
0.000000 0.000000 0.000000 

0.000000 0.000000 0.000000 
0.000000 -0.000000 0.000000 
0.000000 0.000000 0.000000 

-0.000000 -0.000000 0.000000 
0.000000 -0.000000 0.000000 
0.000000 0.000000 0.000000 

-0.000000 -0.000000 0.000000 
0.000000 -0.000000 0.000000 
0.000000 0.000000 0.000000 

-0.000000 0.000000 0.000000 
0.000000 0.000000 0.000000 
0.000000 0.000000 0.000000 

-0.000000 0.000000 0.000000 
0.000000 0.000000 0.000000 
0.000000 0.000000 0.000000 

-0.000000 0.000000 0.000000 
0.000000 -0.000000 0.000000 
0.000000 0.000000 0.000000 

0.000000 -0.000000 0.000000 
0.000000 -0.000000 0.000000 
0.000000 0.000000 0.000000 

0.000000 -0.000000 0.000000 
0.000000 -0.000000 0.000000 
0.000000 0.000000 0.000000 

0.000000 -0.000000 0.000000 
0.000000 -0.000000 0.000000 
0.000000 0.000000 0.000000 

0.000000 0.000000 0.000000 
0.000000 -0.000000 0.000000 
0.000000 0.000000 0.000000 

0.000000 0.000000 0.000000 
0.000000 -0.000000 0.000000 
0.000000 0.000000 0.000000 

-0.000000 0.000000 0.000000 
0.000000 -0.000000 0.000000 
0.000000 0.000000 0.000000 

0.000000 -0.000000 0.000000 
0.000000 0.000000 0.000000 
0.000000 0.000000 0.000000 

0.000000 -0.000000 0.000000 
0.000000 0.000000 0.000000 
0.000000 0.000000 0.000000 

-0.000000 -0.000000 0.000000 
0.000000 0.000000 0.000000 
0.000000 0.000000 0.000000 

-0.000000 -0.000000 0.000000 
0.000000 0.000000 0.000000 
0.000000 0.000000 0.000000 

0.000000 -0.000000 0.000000 
0.000000 0.000000 0.000000 
0.000000 0.000000 0.000000 

0.000000 -0.000000 0.000000 
0.000000 0.000000 0.000000 
0.000000 0.000000 0.000000 

-0.000000 0.000000 0.000000 
0.000000 0.000000 0.000000 
0.000000 0.000000 0.000000 

-0.000000 -0.000000 0.000000 
0.000000 0.000000 0.000000 
0.000000 0.000000 0.000000 

-0.000000 0.000000 0.000000 
0.000000 -0.000000 0.000000 
0.000000 0.000000 0.000000 

-0.000000 0.000000 0.000000 
0.000000 -0.000000 0.000000 
0.000000 0.000000 0.000000 

0.000000 0.000000 0.000000 
0.000000 0.000000 0.000000 
0.000000 0.000000 0.000000 

0.000000 0.000000 0.000000 
0.000000 0.000000 0.000000 
0.000000 0.000000 0.000000 

-0.000000 0.000000 0.000000 
0.000000 0.000000 0.000000 
0.000000 0.000000 0.000000 

-0.000000 0.000000 0.000000 
0.000000 0.000000 0.000000 
0.000000 0.000000 0.000000 

-0.000000 0.000000 0.000000 
0.000000 0.000000 0.000000 
0.000000 0.000000 0.000000 

-0.000000 0.000000 0.000000 
0.000000 0.000000 0.000000 
0.000000 0.000000 0.000000 

-0.000000 0.000000 0.000000 
0.000000 -0.000000 0.000000 
0.000000 0.000000 0.000000 

-0.000000 0.000000 0.000000 
0.000000 -0.000000 0.000000 
0.000000 0.000000 0.000000 

-0.000000 -0.000000 0.000000 
0.000000 0.000000 0.000000 
0.000000 0.000000 0.000000 

0.000000 -0.000000 0.000000 
0.000000 -0.000000 0.000000 
0.000000 0.000000 0.000000 

0.000000 -0.000000 0.000000 
0.000000 -0.000000 0.000000 
0.000000 0.000000 0.000000 

0.000000 -0.000000 0.000000 
0.000000 -0.000000 0.000000 
0.000000 0.000000 0.000000 

0.000000 0.000000 0.000000 
0.000000 -0.000000 0.000000 
0.000000 0.000000 0.000000 

0.000000 0.000000 0.000000 
0.000000 0.000000 0.000000 
0.000000 0.000000 0.000000 

-0.000000 0.000000 0.000000 
0.000000 -0.000000 0.000000 
0.000000 0.000000 0.000000 

0.000000 -0.000000 0.000000 
0.000000 0.000000 0.000000 
0.000000 0.000000 0.000000 

0.000000 -0.000000 0.000000 
0.000000 -0.000000 0.000000 
0.000000 0.000000 0.000000 

0.000000 -0.000000 0.000000 
0.000000 0.000000 0.000000 
0.000000 0.000000 0.000000 

0.000000 -0.000000 0.000000 
0.000000 0.000000 0.000000 
0.000000 0.000000 0.000000 

0.000000 -0.000000 0.000000 
0.000000 -0.000000 0.000000 
0.000000 0.000000 0.000000 

0.000000 -0.000000 0.000000 
0.000000 -0.000000 0.000000 
0.000000 0.000000 0.000000 

0.000000 0.000000 0.000000 
0.000000 -0.000000 0.000000 
0.000000 0.000000 0.000000 

0.000000 -0.000000 0.000000 
0.000000 -0.000000 0.000000 
0.000000 0.000000 0.000000 

0.000000 -0.000000 0.000000 
0.000000 -0.000000 0.000000 
0.000000 0.000000 0.000000 

0.000000 0.000000 0.000000 
0.000000 0.000000 0.000000 
0.000000 0.000000 0.000000 

0.000000 0.000000 0.000000 
0.000000 0.000000 0.000000 
0.000000 0.000000 0.000000 

0.000000 0.000000 0.000000 
0.000000 0.000000 0.000000 
0.000000 0.000000 0.000000 

0.000000 0.000000 0.000000 
0.000000 0.000000 0.000000 
0.000000 0.000000 0.000000 

0.000000 0.000000 0.000000 
0.000000 0.000000 0.000000 
0.000000 0.000000 0.000000 

0.000000 0.000000 0.000000 
0.000000 -0.000000 0.000000 
0.000000 0.000000 0.000000 

-0.000000 0.000000 0.000000 
0.000000 -0.000000 0.000000 
0.000000 0.000000 0.000000 

0.000000 -0.000000 0.000000 
0.000000 -0.000000 0.000000 
0.000000 0.000000 0.000000 

0.000000 -0.000000 0.000000 
0.000000 -0.000000 0.000000 
0.000000 0.000000 0.000000 

0.000000 0.000000 0.000000 
0.000000 0.000000 0.000000 
0.000000 0.000000 0.000000 

0.000000 0.000000 0.000000 
0.000000 0.000000 0.000000 
0.000000 0.000000 0.000000 

0.000000 0.000000 0.000000 
0.000000 0.000000 0.000000 
0.000000 0.000000 0.000000 

0.000000 0.000000 0.000000 
0.000000 0.000000 0.000000 
0.000000 0.000000 0.000000 

0.000000 0.000000 0.000000 
0.000000 0.000000 0.000000 
0.000000 0.000000 0.000000 

-0.000000 0.000000 0.000000 
0.000000 0.000000 0.000000 
0.000000 0.000000 0.000000 

-0.000000 0.000000 0.000000 
0.000000 0.000000 0.000000 
0.000000 0.000000 0.000000 

