# vtk DataFile Version 3.0 
vtk output 
ASCII 
DATASET UNSTRUCTURED_GRID 
POINTS 175 float 
-0.026061 -0.619193 0.000000 
-0.106992 -0.551138 0.000000 
-0.054870 -0.559370 0.000000 
-0.028809 -0.513487 0.000000 
-0.186430 -0.487062 0.000000 
-0.137056 -0.489588 0.000000 
-0.114311 -0.435941 0.000000 
-0.058186 -0.451607 0.000000 
-0.029377 -0.411429 0.000000 
-0.265318 -0.423906 0.000000 
-0.217198 -0.424706 0.000000 
-0.196633 -0.367409 0.000000 
-0.143120 -0.376118 0.000000 
-0.116563 -0.328850 0.000000 
-0.058945 -0.348495 0.000000 
-0.029568 -0.310375 0.000000 
-0.344206 -0.360750 0.000000 
-0.296791 -0.360743 0.000000 
-0.278030 -0.300801 0.000000 
-0.225992 -0.306667 0.000000 
-0.201664 -0.254550 0.000000 
-0.145749 -0.268024 0.000000 
-0.117890 -0.223681 0.000000 
-0.059328 -0.246387 0.000000 
-0.029759 -0.209321 0.000000 
-0.058559 -0.659944 0.000000 
-0.162226 -0.680786 0.000000 
-0.123292 -0.645169 0.000000 
-0.142917 -0.596185 0.000000 
-0.261851 -0.702943 0.000000 
-0.229092 -0.665916 0.000000 
-0.256854 -0.614684 0.000000 
-0.209613 -0.580572 0.000000 
-0.223062 -0.532998 0.000000 
-0.360414 -0.725243 0.000000 
-0.329787 -0.688120 0.000000 
-0.361761 -0.636318 0.000000 
-0.321587 -0.599909 0.000000 
-0.341985 -0.549675 0.000000 
-0.290702 -0.516876 0.000000 
-0.302189 -0.470141 0.000000 
-0.458977 -0.747543 0.000000 
-0.429420 -0.710468 0.000000 
-0.464588 -0.658427 0.000000 
-0.427556 -0.621399 0.000000 
-0.453135 -0.569884 0.000000 
-0.407738 -0.534569 0.000000 
-0.425037 -0.485141 0.000000 
-0.370772 -0.453512 0.000000 
-0.381315 -0.407284 0.000000 
-0.046960 -0.710759 0.000000 
-0.095301 -0.804805 0.000000 
-0.098873 -0.752158 0.000000 
-0.149405 -0.736960 0.000000 
-0.140093 -0.896509 0.000000 
-0.148617 -0.847811 0.000000 
-0.205981 -0.837573 0.000000 
-0.203197 -0.779370 0.000000 
-0.248777 -0.760223 0.000000 
-0.184111 -0.987473 0.000000 
-0.194039 -0.940381 0.000000 
-0.254475 -0.933082 0.000000 
-0.257893 -0.878972 0.000000 
-0.309886 -0.863600 0.000000 
-0.303554 -0.803054 0.000000 
-0.347255 -0.782897 0.000000 
-0.228129 -1.078436 0.000000 
-0.238687 -1.032212 0.000000 
-0.301302 -1.027260 0.000000 
-0.307162 -0.975221 0.000000 
-0.363386 -0.963100 0.000000 
-0.362692 -0.905589 0.000000 
-0.412122 -0.888295 0.000000 
-0.403017 -0.826149 0.000000 
-0.445733 -0.805570 0.000000 
-0.000000 -0.733374 0.000000 
0.043388 -0.829805 0.000000 
-0.000000 -0.799772 0.000000 
-0.043388 -0.829805 0.000000 
0.087158 -0.922001 0.000000 
0.043769 -0.898303 0.000000 
-0.000000 -0.936768 0.000000 
-0.043769 -0.898303 0.000000 
-0.087158 -0.922001 0.000000 
0.130831 -1.013131 0.000000 
0.087824 -0.991532 0.000000 
0.044436 -1.034232 0.000000 
-0.000000 -1.003167 0.000000 
-0.044436 -1.034232 0.000000 
-0.087824 -0.991532 0.000000 
-0.130831 -1.013131 0.000000 
0.174505 -1.104260 0.000000 
0.131782 -1.083694 0.000000 
0.088871 -1.129561 0.000000 
0.044532 -1.101697 0.000000 
-0.000000 -1.138097 0.000000 
-0.044532 -1.101697 0.000000 
-0.088871 -1.129561 0.000000 
-0.131782 -1.083694 0.000000 
-0.174505 -1.104260 0.000000 
0.046960 -0.710759 0.000000 
0.149405 -0.736960 0.000000 
0.098873 -0.752158 0.000000 
0.095301 -0.804805 0.000000 
0.248777 -0.760223 0.000000 
0.203197 -0.779370 0.000000 
0.205981 -0.837573 0.000000 
0.148617 -0.847811 0.000000 
0.140093 -0.896509 0.000000 
0.347255 -0.782897 0.000000 
0.303554 -0.803054 0.000000 
0.309886 -0.863600 0.000000 
0.257893 -0.878972 0.000000 
0.254475 -0.933082 0.000000 
0.194039 -0.940381 0.000000 
0.184111 -0.987473 0.000000 
0.445733 -0.805570 0.000000 
0.403017 -0.826149 0.000000 
0.412122 -0.888295 0.000000 
0.362692 -0.905589 0.000000 
0.363386 -0.963100 0.000000 
0.307162 -0.975221 0.000000 
0.301302 -1.027260 0.000000 
0.238687 -1.032212 0.000000 
0.228129 -1.078436 0.000000 
0.058559 -0.659944 0.000000 
0.142917 -0.596185 0.000000 
0.123292 -0.645169 0.000000 
0.162226 -0.680786 0.000000 
0.223062 -0.532998 0.000000 
0.209613 -0.580572 0.000000 
0.256854 -0.614684 0.000000 
0.229092 -0.665916 0.000000 
0.261851 -0.702943 0.000000 
0.302189 -0.470141 0.000000 
0.290702 -0.516876 0.000000 
0.341985 -0.549675 0.000000 
0.321587 -0.599909 0.000000 
0.361761 -0.636318 0.000000 
0.329787 -0.688120 0.000000 
0.360414 -0.725243 0.000000 
0.381315 -0.407284 0.000000 
0.370772 -0.453512 0.000000 
0.425037 -0.485141 0.000000 
0.407738 -0.534569 0.000000 
0.453135 -0.569884 0.000000 
0.427556 -0.621399 0.000000 
0.464588 -0.658427 0.000000 
0.429420 -0.710468 0.000000 
0.458977 -0.747543 0.000000 
0.026061 -0.619193 0.000000 
0.028809 -0.513487 0.000000 
0.054870 -0.559370 0.000000 
0.106992 -0.551138 0.000000 
0.029377 -0.411429 0.000000 
0.058186 -0.451607 0.000000 
0.114311 -0.435941 0.000000 
0.137056 -0.489588 0.000000 
0.186430 -0.487062 0.000000 
0.029568 -0.310375 0.000000 
0.058945 -0.348495 0.000000 
0.116563 -0.328850 0.000000 
0.143120 -0.376118 0.000000 
0.196633 -0.367409 0.000000 
0.217198 -0.424706 0.000000 
0.265318 -0.423906 0.000000 
0.029759 -0.209321 0.000000 
0.059328 -0.246387 0.000000 
0.117890 -0.223681 0.000000 
0.145749 -0.268024 0.000000 
0.201664 -0.254550 0.000000 
0.225992 -0.306667 0.000000 
0.278030 -0.300801 0.000000 
0.296791 -0.360743 0.000000 
0.344206 -0.360750 0.000000 
CELLS 175 350 
1 0 
1 1 
1 2 
1 3 
1 4 
1 5 
1 6 
1 7 
1 8 
1 9 
1 10 
1 11 
1 12 
1 13 
1 14 
1 15 
1 16 
1 17 
1 18 
1 19 
1 20 
1 21 
1 22 
1 23 
1 24 
1 25 
1 26 
1 27 
1 28 
1 29 
1 30 
1 31 
1 32 
1 33 
1 34 
1 35 
1 36 
1 37 
1 38 
1 39 
1 40 
1 41 
1 42 
1 43 
1 44 
1 45 
1 46 
1 47 
1 48 
1 49 
1 50 
1 51 
1 52 
1 53 
1 54 
1 55 
1 56 
1 57 
1 58 
1 59 
1 60 
1 61 
1 62 
1 63 
1 64 
1 65 
1 66 
1 67 
1 68 
1 69 
1 70 
1 71 
1 72 
1 73 
1 74 
1 75 
1 76 
1 77 
1 78 
1 79 
1 80 
1 81 
1 82 
1 83 
1 84 
1 85 
1 86 
1 87 
1 88 
1 89 
1 90 
1 91 
1 92 
1 93 
1 94 
1 95 
1 96 
1 97 
1 98 
1 99 
1 100 
1 101 
1 102 
1 103 
1 104 
1 105 
1 106 
1 107 
1 108 
1 109 
1 110 
1 111 
1 112 
1 113 
1 114 
1 115 
1 116 
1 117 
1 118 
1 119 
1 120 
1 121 
1 122 
1 123 
1 124 
1 125 
1 126 
1 127 
1 128 
1 129 
1 130 
1 131 
1 132 
1 133 
1 134 
1 135 
1 136 
1 137 
1 138 
1 139 
1 140 
1 141 
1 142 
1 143 
1 144 
1 145 
1 146 
1 147 
1 148 
1 149 
1 150 
1 151 
1 152 
1 153 
1 154 
1 155 
1 156 
1 157 
1 158 
1 159 
1 160 
1 161 
1 162 
1 163 
1 164 
1 165 
1 166 
1 167 
1 168 
1 169 
1 170 
1 171 
1 172 
1 173 
1 174 
CELL_TYPES 175 
1 
1 
1 
1 
1 
1 
1 
1 
1 
1 
1 
1 
1 
1 
1 
1 
1 
1 
1 
1 
1 
1 
1 
1 
1 
1 
1 
1 
1 
1 
1 
1 
1 
1 
1 
1 
1 
1 
1 
1 
1 
1 
1 
1 
1 
1 
1 
1 
1 
1 
1 
1 
1 
1 
1 
1 
1 
1 
1 
1 
1 
1 
1 
1 
1 
1 
1 
1 
1 
1 
1 
1 
1 
1 
1 
1 
1 
1 
1 
1 
1 
1 
1 
1 
1 
1 
1 
1 
1 
1 
1 
1 
1 
1 
1 
1 
1 
1 
1 
1 
1 
1 
1 
1 
1 
1 
1 
1 
1 
1 
1 
1 
1 
1 
1 
1 
1 
1 
1 
1 
1 
1 
1 
1 
1 
1 
1 
1 
1 
1 
1 
1 
1 
1 
1 
1 
1 
1 
1 
1 
1 
1 
1 
1 
1 
1 
1 
1 
1 
1 
1 
1 
1 
1 
1 
1 
1 
1 
1 
1 
1 
1 
1 
1 
1 
1 
1 
1 
1 
1 
1 
1 
1 
1 
1 
POINT_DATA 175 
VECTORS X_GC float 
-0.026061 -0.619193 0.000000 
-0.106992 -0.551138 0.000000 
-0.054870 -0.559370 0.000000 
-0.028809 -0.513487 0.000000 
-0.186430 -0.487062 0.000000 
-0.137056 -0.489588 0.000000 
-0.114311 -0.435941 0.000000 
-0.058186 -0.451607 0.000000 
-0.029377 -0.411429 0.000000 
-0.265318 -0.423906 0.000000 
-0.217198 -0.424706 0.000000 
-0.196633 -0.367409 0.000000 
-0.143120 -0.376118 0.000000 
-0.116563 -0.328850 0.000000 
-0.058945 -0.348495 0.000000 
-0.029568 -0.310375 0.000000 
-0.344206 -0.360750 0.000000 
-0.296791 -0.360743 0.000000 
-0.278030 -0.300801 0.000000 
-0.225992 -0.306667 0.000000 
-0.201664 -0.254550 0.000000 
-0.145749 -0.268024 0.000000 
-0.117890 -0.223681 0.000000 
-0.059328 -0.246387 0.000000 
-0.029759 -0.209321 0.000000 
-0.058559 -0.659944 0.000000 
-0.162226 -0.680786 0.000000 
-0.123292 -0.645169 0.000000 
-0.142917 -0.596185 0.000000 
-0.261851 -0.702943 0.000000 
-0.229092 -0.665916 0.000000 
-0.256854 -0.614684 0.000000 
-0.209613 -0.580572 0.000000 
-0.223062 -0.532998 0.000000 
-0.360414 -0.725243 0.000000 
-0.329787 -0.688120 0.000000 
-0.361761 -0.636318 0.000000 
-0.321587 -0.599909 0.000000 
-0.341985 -0.549675 0.000000 
-0.290702 -0.516876 0.000000 
-0.302189 -0.470141 0.000000 
-0.458977 -0.747543 0.000000 
-0.429420 -0.710468 0.000000 
-0.464588 -0.658427 0.000000 
-0.427556 -0.621399 0.000000 
-0.453135 -0.569884 0.000000 
-0.407738 -0.534569 0.000000 
-0.425037 -0.485141 0.000000 
-0.370772 -0.453512 0.000000 
-0.381315 -0.407284 0.000000 
-0.046960 -0.710759 0.000000 
-0.095301 -0.804805 0.000000 
-0.098873 -0.752158 0.000000 
-0.149405 -0.736960 0.000000 
-0.140093 -0.896509 0.000000 
-0.148617 -0.847811 0.000000 
-0.205981 -0.837573 0.000000 
-0.203197 -0.779370 0.000000 
-0.248777 -0.760223 0.000000 
-0.184111 -0.987473 0.000000 
-0.194039 -0.940381 0.000000 
-0.254475 -0.933082 0.000000 
-0.257893 -0.878972 0.000000 
-0.309886 -0.863600 0.000000 
-0.303554 -0.803054 0.000000 
-0.347255 -0.782897 0.000000 
-0.228129 -1.078436 0.000000 
-0.238687 -1.032212 0.000000 
-0.301302 -1.027260 0.000000 
-0.307162 -0.975221 0.000000 
-0.363386 -0.963100 0.000000 
-0.362692 -0.905589 0.000000 
-0.412122 -0.888295 0.000000 
-0.403017 -0.826149 0.000000 
-0.445733 -0.805570 0.000000 
-0.000000 -0.733374 0.000000 
0.043388 -0.829805 0.000000 
-0.000000 -0.799772 0.000000 
-0.043388 -0.829805 0.000000 
0.087158 -0.922001 0.000000 
0.043769 -0.898303 0.000000 
-0.000000 -0.936768 0.000000 
-0.043769 -0.898303 0.000000 
-0.087158 -0.922001 0.000000 
0.130831 -1.013131 0.000000 
0.087824 -0.991532 0.000000 
0.044436 -1.034232 0.000000 
-0.000000 -1.003167 0.000000 
-0.044436 -1.034232 0.000000 
-0.087824 -0.991532 0.000000 
-0.130831 -1.013131 0.000000 
0.174505 -1.104260 0.000000 
0.131782 -1.083694 0.000000 
0.088871 -1.129561 0.000000 
0.044532 -1.101697 0.000000 
-0.000000 -1.138097 0.000000 
-0.044532 -1.101697 0.000000 
-0.088871 -1.129561 0.000000 
-0.131782 -1.083694 0.000000 
-0.174505 -1.104260 0.000000 
0.046960 -0.710759 0.000000 
0.149405 -0.736960 0.000000 
0.098873 -0.752158 0.000000 
0.095301 -0.804805 0.000000 
0.248777 -0.760223 0.000000 
0.203197 -0.779370 0.000000 
0.205981 -0.837573 0.000000 
0.148617 -0.847811 0.000000 
0.140093 -0.896509 0.000000 
0.347255 -0.782897 0.000000 
0.303554 -0.803054 0.000000 
0.309886 -0.863600 0.000000 
0.257893 -0.878972 0.000000 
0.254475 -0.933082 0.000000 
0.194039 -0.940381 0.000000 
0.184111 -0.987473 0.000000 
0.445733 -0.805570 0.000000 
0.403017 -0.826149 0.000000 
0.412122 -0.888295 0.000000 
0.362692 -0.905589 0.000000 
0.363386 -0.963100 0.000000 
0.307162 -0.975221 0.000000 
0.301302 -1.027260 0.000000 
0.238687 -1.032212 0.000000 
0.228129 -1.078436 0.000000 
0.058559 -0.659944 0.000000 
0.142917 -0.596185 0.000000 
0.123292 -0.645169 0.000000 
0.162226 -0.680786 0.000000 
0.223062 -0.532998 0.000000 
0.209613 -0.580572 0.000000 
0.256854 -0.614684 0.000000 
0.229092 -0.665916 0.000000 
0.261851 -0.702943 0.000000 
0.302189 -0.470141 0.000000 
0.290702 -0.516876 0.000000 
0.341985 -0.549675 0.000000 
0.321587 -0.599909 0.000000 
0.361761 -0.636318 0.000000 
0.329787 -0.688120 0.000000 
0.360414 -0.725243 0.000000 
0.381315 -0.407284 0.000000 
0.370772 -0.453512 0.000000 
0.425037 -0.485141 0.000000 
0.407738 -0.534569 0.000000 
0.453135 -0.569884 0.000000 
0.427556 -0.621399 0.000000 
0.464588 -0.658427 0.000000 
0.429420 -0.710468 0.000000 
0.458977 -0.747543 0.000000 
0.026061 -0.619193 0.000000 
0.028809 -0.513487 0.000000 
0.054870 -0.559370 0.000000 
0.106992 -0.551138 0.000000 
0.029377 -0.411429 0.000000 
0.058186 -0.451607 0.000000 
0.114311 -0.435941 0.000000 
0.137056 -0.489588 0.000000 
0.186430 -0.487062 0.000000 
0.029568 -0.310375 0.000000 
0.058945 -0.348495 0.000000 
0.116563 -0.328850 0.000000 
0.143120 -0.376118 0.000000 
0.196633 -0.367409 0.000000 
0.217198 -0.424706 0.000000 
0.265318 -0.423906 0.000000 
0.029759 -0.209321 0.000000 
0.059328 -0.246387 0.000000 
0.117890 -0.223681 0.000000 
0.145749 -0.268024 0.000000 
0.201664 -0.254550 0.000000 
0.225992 -0.306667 0.000000 
0.278030 -0.300801 0.000000 
0.296791 -0.360743 0.000000 
0.344206 -0.360750 0.000000 
VECTORS X_EC float 
0.338794 0.859106 0.000000 
-0.609100 -0.059643 0.000000 
0.713312 0.051498 0.000000 
0.374519 -0.567931 0.000000 
0.423588 -0.924662 0.000000 
-0.218274 -0.890558 0.000000 
-0.513962 0.385203 0.000000 
0.756418 0.596689 0.000000 
0.381900 0.054297 0.000000 
-0.550868 0.222735 0.000000 
0.823577 0.233530 0.000000 
0.556234 -0.539974 0.000000 
-0.139443 -0.422405 0.000000 
-0.484677 0.939471 0.000000 
0.766286 -0.795314 0.000000 
0.384386 0.690066 0.000000 
0.474677 -0.629868 0.000000 
-0.141715 -0.629965 0.000000 
-0.385608 0.560807 0.000000 
0.937896 0.640003 0.000000 
0.621631 -0.063577 0.000000 
-0.105264 0.118322 0.000000 
-0.467428 -0.480304 0.000000 
0.771260 -0.173776 0.000000 
0.386873 -0.674165 0.000000 
0.761262 -0.590760 0.000000 
0.108942 -0.309383 0.000000 
-0.397202 -0.790222 0.000000 
-0.142083 0.548502 0.000000 
-0.595936 -0.010272 0.000000 
0.978194 -0.510138 0.000000 
-0.660903 0.798237 0.000000 
0.724964 0.337717 0.000000 
0.899809 -0.304532 0.000000 
0.685384 0.290780 0.000000 
0.287229 -0.210379 0.000000 
0.702895 -0.909707 0.000000 
0.180633 0.598774 0.000000 
0.445811 -0.079386 0.000000 
-0.220880 -0.522172 0.000000 
-0.071546 0.846903 0.000000 
-0.033296 0.591832 0.000000 
-0.417537 0.091322 0.000000 
0.039645 -0.611240 0.000000 
-0.441768 0.888889 0.000000 
-0.109248 0.193438 0.000000 
-0.699407 -0.283318 0.000000 
-0.474522 -0.950597 0.000000 
0.820030 0.622410 0.000000 
0.957100 -0.001662 0.000000 
0.610485 0.095247 0.000000 
-0.761092 -0.635134 0.000000 
-0.714655 0.654128 0.000000 
-0.057734 0.448961 0.000000 
-0.178789 0.602870 0.000000 
-0.067979 -0.054556 0.000000 
0.677748 -0.192759 0.000000 
0.641556 -0.978505 0.000000 
-0.765897 0.763017 0.000000 
0.393446 -0.169121 0.000000 
0.522510 -0.804851 0.000000 
-0.691820 -0.903395 0.000000 
-0.647393 0.366122 0.000000 
0.028512 0.158596 0.000000 
-0.053800 -0.658765 0.000000 
0.514316 -0.930895 0.000000 
0.965681 -0.941112 0.000000 
-0.897068 0.434860 0.000000 
-0.083078 0.368007 0.000000 
-0.006893 -0.334518 0.000000 
0.724017 -0.498151 0.000000 
0.714996 0.725446 0.000000 
-0.642413 0.491988 0.000000 
-0.760780 -0.346992 0.000000 
-0.205471 -0.624808 0.000000 
0.000000 0.400548 0.000000 
-0.564049 -0.297639 0.000000 
0.000000 -0.703075 0.000000 
0.564049 -0.297639 0.000000 
0.866949 0.947016 0.000000 
-0.569003 0.627085 0.000000 
0.000000 -0.853627 0.000000 
0.569003 0.627085 0.000000 
-0.866949 0.947016 0.000000 
0.299194 0.177266 0.000000 
0.858290 -0.114317 0.000000 
-0.577662 0.462128 0.000000 
0.000000 0.042750 0.000000 
0.577662 0.462128 0.000000 
-0.858290 -0.114317 0.000000 
-0.299194 0.177266 0.000000 
-0.268560 -0.592483 0.000000 
0.286830 -0.870125 0.000000 
0.844677 -0.250927 0.000000 
-0.578910 -0.627090 0.000000 
0.000000 -0.135686 0.000000 
0.578910 -0.627090 0.000000 
-0.844677 -0.250927 0.000000 
-0.286830 -0.870125 0.000000 
0.268560 -0.592483 0.000000 
-0.610485 0.095247 0.000000 
0.057734 0.448961 0.000000 
0.714655 0.654128 0.000000 
0.761092 -0.635134 0.000000 
0.765897 0.763017 0.000000 
-0.641556 -0.978505 0.000000 
-0.677748 -0.192759 0.000000 
0.067979 -0.054556 0.000000 
0.178789 0.602870 0.000000 
-0.514316 -0.930895 0.000000 
0.053800 -0.658765 0.000000 
-0.028512 0.158596 0.000000 
0.647393 0.366122 0.000000 
0.691820 -0.903395 0.000000 
-0.522510 -0.804851 0.000000 
-0.393446 -0.169121 0.000000 
0.205471 -0.624808 0.000000 
0.760780 -0.346992 0.000000 
0.642413 0.491988 0.000000 
-0.714996 0.725446 0.000000 
-0.724017 -0.498151 0.000000 
0.006894 -0.334518 0.000000 
0.083078 0.368007 0.000000 
0.897068 0.434860 0.000000 
-0.965681 -0.941112 0.000000 
-0.761262 -0.590760 0.000000 
0.142083 0.548502 0.000000 
0.397202 -0.790222 0.000000 
-0.108942 -0.309383 0.000000 
-0.899809 -0.304532 0.000000 
-0.724964 0.337717 0.000000 
0.660903 0.798237 0.000000 
-0.978194 -0.510138 0.000000 
0.595936 -0.010272 0.000000 
0.071546 0.846903 0.000000 
0.220880 -0.522172 0.000000 
-0.445811 -0.079386 0.000000 
-0.180633 0.598774 0.000000 
-0.702895 -0.909707 0.000000 
-0.287229 -0.210379 0.000000 
-0.685384 0.290780 0.000000 
-0.957100 -0.001662 0.000000 
-0.820030 0.622410 0.000000 
0.474522 -0.950597 0.000000 
0.699407 -0.283318 0.000000 
0.109248 0.193438 0.000000 
0.441768 0.888889 0.000000 
-0.039645 -0.611240 0.000000 
0.417537 0.091322 0.000000 
0.033296 0.591832 0.000000 
-0.338794 0.859106 0.000000 
-0.374519 -0.567931 0.000000 
-0.713312 0.051498 0.000000 
0.609100 -0.059643 0.000000 
-0.381900 0.054297 0.000000 
-0.756418 0.596689 0.000000 
0.513962 0.385203 0.000000 
0.218274 -0.890558 0.000000 
-0.423588 -0.924662 0.000000 
-0.384386 0.690066 0.000000 
-0.766286 -0.795314 0.000000 
0.484677 0.939471 0.000000 
0.139443 -0.422405 0.000000 
-0.556234 -0.539974 0.000000 
-0.823577 0.233530 0.000000 
0.550868 0.222735 0.000000 
-0.386873 -0.674165 0.000000 
-0.771260 -0.173776 0.000000 
0.467428 -0.480304 0.000000 
0.105264 0.118322 0.000000 
-0.621631 -0.063577 0.000000 
-0.937896 0.640003 0.000000 
0.385608 0.560807 0.000000 
0.141715 -0.629965 0.000000 
-0.474677 -0.629868 0.000000 
CELL_DATA 175 
SCALARS MASS float 
LOOKUP_TABLE default 
0.781831 
0.864274 
0.946717 
0.864274 
0.881307 
0.921110 
0.858535 
0.921110 
0.881307 
0.887046 
0.910001 
0.869829 
0.915556 
0.869829 
0.910001 
0.887046 
0.892784 
0.915740 
0.892784 
0.927218 
0.892784 
0.927218 
0.892784 
0.915740 
0.892784 
0.781831 
0.864274 
0.946717 
0.864274 
0.881307 
0.921110 
0.858535 
0.921110 
0.881307 
0.887046 
0.910001 
0.869829 
0.915556 
0.869829 
0.910001 
0.887046 
0.892784 
0.915740 
0.892784 
0.927218 
0.892784 
0.927218 
0.892784 
0.915740 
0.892784 
0.781831 
0.864274 
0.946717 
0.864274 
0.881307 
0.921110 
0.858535 
0.921110 
0.881307 
0.887046 
0.910001 
0.869829 
0.915556 
0.869829 
0.910001 
0.887046 
0.892784 
0.915740 
0.892784 
0.927218 
0.892784 
0.927218 
0.892784 
0.915740 
0.892784 
0.781831 
0.864274 
0.946717 
0.864274 
0.881307 
0.921110 
0.858535 
0.921110 
0.881307 
0.887046 
0.910001 
0.869829 
0.915556 
0.869829 
0.910001 
0.887046 
0.892784 
0.915740 
0.892784 
0.927218 
0.892784 
0.927218 
0.892784 
0.915740 
0.892784 
0.781831 
0.864274 
0.946717 
0.864274 
0.881307 
0.921110 
0.858535 
0.921110 
0.881307 
0.887046 
0.910001 
0.869829 
0.915556 
0.869829 
0.910001 
0.887046 
0.892784 
0.915740 
0.892784 
0.927218 
0.892784 
0.927218 
0.892784 
0.915740 
0.892784 
0.781831 
0.864274 
0.946717 
0.864274 
0.881307 
0.921110 
0.858535 
0.921110 
0.881307 
0.887046 
0.910001 
0.869829 
0.915556 
0.869829 
0.910001 
0.887046 
0.892784 
0.915740 
0.892784 
0.927218 
0.892784 
0.927218 
0.892784 
0.915740 
0.892784 
0.781831 
0.864274 
0.946717 
0.864274 
0.881307 
0.921110 
0.858535 
0.921110 
0.881307 
0.887046 
0.910001 
0.869829 
0.915556 
0.869829 
0.910001 
0.887046 
0.892784 
0.915740 
0.892784 
0.927218 
0.892784 
0.927218 
0.892784 
0.915740 
0.892784 
SCALARS MASS float 
LOOKUP_TABLE default 
0.781831 
0.864274 
0.946717 
0.864274 
0.881307 
0.921110 
0.858535 
0.921110 
0.881307 
0.887046 
0.910001 
0.869829 
0.915556 
0.869829 
0.910001 
0.887046 
0.892784 
0.915740 
0.892784 
0.927218 
0.892784 
0.927218 
0.892784 
0.915740 
0.892784 
0.781831 
0.864274 
0.946717 
0.864274 
0.881307 
0.921110 
0.858535 
0.921110 
0.881307 
0.887046 
0.910001 
0.869829 
0.915556 
0.869829 
0.910001 
0.887046 
0.892784 
0.915740 
0.892784 
0.927218 
0.892784 
0.927218 
0.892784 
0.915740 
0.892784 
0.781831 
0.864274 
0.946717 
0.864274 
0.881307 
0.921110 
0.858535 
0.921110 
0.881307 
0.887046 
0.910001 
0.869829 
0.915556 
0.869829 
0.910001 
0.887046 
0.892784 
0.915740 
0.892784 
0.927218 
0.892784 
0.927218 
0.892784 
0.915740 
0.892784 
0.781831 
0.864274 
0.946717 
0.864274 
0.881307 
0.921110 
0.858535 
0.921110 
0.881307 
0.887046 
0.910001 
0.869829 
0.915556 
0.869829 
0.910001 
0.887046 
0.892784 
0.915740 
0.892784 
0.927218 
0.892784 
0.927218 
0.892784 
0.915740 
0.892784 
0.781831 
0.864274 
0.946717 
0.864274 
0.881307 
0.921110 
0.858535 
0.921110 
0.881307 
0.887046 
0.910001 
0.869829 
0.915556 
0.869829 
0.910001 
0.887046 
0.892784 
0.915740 
0.892784 
0.927218 
0.892784 
0.927218 
0.892784 
0.915740 
0.892784 
0.781831 
0.864274 
0.946717 
0.864274 
0.881307 
0.921110 
0.858535 
0.921110 
0.881307 
0.887046 
0.910001 
0.869829 
0.915556 
0.869829 
0.910001 
0.887046 
0.892784 
0.915740 
0.892784 
0.927218 
0.892784 
0.927218 
0.892784 
0.915740 
0.892784 
0.781831 
0.864274 
0.946717 
0.864274 
0.881307 
0.921110 
0.858535 
0.921110 
0.881307 
0.887046 
0.910001 
0.869829 
0.915556 
0.869829 
0.910001 
0.887046 
0.892784 
0.915740 
0.892784 
0.927218 
0.892784 
0.927218 
0.892784 
0.915740 
0.892784 
SCALARS DENSITY float 
LOOKUP_TABLE default 
200.000000 
200.000000 
200.000000 
200.000000 
200.000000 
200.000000 
200.000000 
200.000000 
200.000000 
200.000000 
200.000000 
200.000000 
200.000000 
200.000000 
200.000000 
200.000000 
200.000000 
200.000000 
200.000000 
200.000000 
200.000000 
200.000000 
200.000000 
200.000000 
200.000000 
200.000000 
200.000000 
200.000000 
200.000000 
200.000000 
200.000000 
200.000000 
200.000000 
200.000000 
200.000000 
200.000000 
200.000000 
200.000000 
200.000000 
200.000000 
200.000000 
200.000000 
200.000000 
200.000000 
200.000000 
200.000000 
200.000000 
200.000000 
200.000000 
200.000000 
200.000000 
200.000000 
200.000000 
200.000000 
200.000000 
200.000000 
200.000000 
200.000000 
200.000000 
200.000000 
200.000000 
200.000000 
200.000000 
200.000000 
200.000000 
200.000000 
200.000000 
200.000000 
200.000000 
200.000000 
200.000000 
200.000000 
200.000000 
200.000000 
200.000000 
200.000000 
200.000000 
200.000000 
200.000000 
200.000000 
200.000000 
200.000000 
200.000000 
200.000000 
200.000000 
200.000000 
200.000000 
200.000000 
200.000000 
200.000000 
200.000000 
200.000000 
200.000000 
200.000000 
200.000000 
200.000000 
200.000000 
200.000000 
200.000000 
200.000000 
200.000000 
200.000000 
200.000000 
200.000000 
200.000000 
200.000000 
200.000000 
200.000000 
200.000000 
200.000000 
200.000000 
200.000000 
200.000000 
200.000000 
200.000000 
200.000000 
200.000000 
200.000000 
200.000000 
200.000000 
200.000000 
200.000000 
200.000000 
200.000000 
200.000000 
200.000000 
200.000000 
200.000000 
200.000000 
200.000000 
200.000000 
200.000000 
200.000000 
200.000000 
200.000000 
200.000000 
200.000000 
200.000000 
200.000000 
200.000000 
200.000000 
200.000000 
200.000000 
200.000000 
200.000000 
200.000000 
200.000000 
200.000000 
200.000000 
200.000000 
200.000000 
200.000000 
200.000000 
200.000000 
200.000000 
200.000000 
200.000000 
200.000000 
200.000000 
200.000000 
200.000000 
200.000000 
200.000000 
200.000000 
200.000000 
200.000000 
200.000000 
200.000000 
200.000000 
200.000000 
200.000000 
200.000000 
200.000000 
200.000000 
200.000000 
SCALARS ELEM_i float 
LOOKUP_TABLE default 
178 
205 
178 
178 
205 
205 
206 
179 
179 
233 
206 
206 
206 
207 
179 
180 
233 
233 
234 
207 
207 
207 
207 
180 
180 
177 
204 
204 
205 
231 
204 
232 
205 
205 
231 
231 
231 
232 
232 
232 
233 
258 
258 
258 
259 
259 
259 
259 
233 
233 
177 
203 
204 
204 
203 
203 
203 
203 
231 
202 
202 
229 
230 
230 
230 
230 
201 
229 
229 
229 
229 
230 
257 
257 
257 
177 
176 
176 
176 
149 
176 
175 
176 
203 
148 
148 
175 
175 
175 
202 
202 
147 
147 
147 
174 
174 
174 
201 
201 
201 
177 
150 
150 
149 
123 
149 
149 
149 
149 
122 
122 
122 
122 
121 
148 
148 
95 
95 
95 
122 
121 
121 
121 
121 
147 
177 
151 
150 
150 
151 
151 
124 
150 
123 
125 
124 
124 
124 
123 
123 
123 
125 
125 
97 
97 
97 
97 
96 
96 
96 
178 
178 
178 
151 
179 
179 
152 
151 
151 
180 
179 
153 
152 
152 
152 
125 
180 
180 
153 
153 
153 
153 
126 
125 
125 
VECTORS VELOCITY float 
-0.000000 -3.629700 0.000000 
-0.000000 -3.629700 0.000000 
-0.000000 -3.629700 0.000000 
-0.000000 -3.629700 0.000000 
-0.000000 -3.629700 0.000000 
-0.000000 -3.629700 0.000000 
0.000000 -3.629700 0.000000 
-0.000000 -3.629700 0.000000 
-0.000000 -3.629700 0.000000 
0.000000 -3.629700 0.000000 
0.000000 -3.629700 0.000000 
0.000000 -3.629700 0.000000 
0.000000 -3.629700 0.000000 
0.000000 -3.629700 0.000000 
0.000000 -3.629700 0.000000 
0.000000 -3.629700 0.000000 
0.000000 -3.629700 0.000000 
0.000000 -3.629700 0.000000 
0.000000 -3.629700 0.000000 
-0.000000 -3.629700 0.000000 
-0.000000 -3.629700 0.000000 
0.000000 -3.629700 0.000000 
0.000000 -3.629700 0.000000 
0.000000 -3.629700 0.000000 
-0.000000 -3.629700 0.000000 
-0.000000 -3.629700 0.000000 
-0.000000 -3.629700 0.000000 
-0.000000 -3.629700 0.000000 
-0.000000 -3.629700 0.000000 
0.000000 -3.629700 0.000000 
0.000000 -3.629700 0.000000 
0.000000 -3.629700 0.000000 
0.000000 -3.629700 0.000000 
-0.000000 -3.629700 0.000000 
-0.000000 -3.629700 0.000000 
-0.000000 -3.629700 0.000000 
-0.000000 -3.629700 0.000000 
-0.000000 -3.629700 0.000000 
0.000000 -3.629700 0.000000 
-0.000000 -3.629700 0.000000 
0.000000 -3.629700 0.000000 
-0.000000 -3.629700 0.000000 
-0.000000 -3.629700 0.000000 
0.000000 -3.629700 0.000000 
-0.000000 -3.629700 0.000000 
0.000000 -3.629700 0.000000 
0.000000 -3.629700 0.000000 
0.000000 -3.629700 0.000000 
0.000000 -3.629700 0.000000 
0.000000 -3.629700 0.000000 
-0.000000 -3.629700 0.000000 
0.000000 -3.629700 0.000000 
0.000000 -3.629700 0.000000 
-0.000000 -3.629700 0.000000 
0.000000 -3.629700 0.000000 
0.000000 -3.629700 0.000000 
-0.000000 -3.629700 0.000000 
-0.000000 -3.629700 0.000000 
-0.000000 -3.629700 0.000000 
-0.000000 -3.629700 0.000000 
-0.000000 -3.629700 0.000000 
-0.000000 -3.629700 0.000000 
-0.000000 -3.629700 0.000000 
-0.000000 -3.629700 0.000000 
-0.000000 -3.629700 0.000000 
-0.000000 -3.629700 0.000000 
-0.000000 -3.629700 0.000000 
-0.000000 -3.629700 0.000000 
0.000000 -3.629700 0.000000 
-0.000000 -3.629700 0.000000 
-0.000000 -3.629700 0.000000 
-0.000000 -3.629700 0.000000 
-0.000000 -3.629700 0.000000 
-0.000000 -3.629700 0.000000 
0.000000 -3.629700 0.000000 
0.000000 -3.629700 0.000000 
-0.000000 -3.629700 0.000000 
0.000000 -3.629700 0.000000 
0.000000 -3.629700 0.000000 
-0.000000 -3.629700 0.000000 
-0.000000 -3.629700 0.000000 
0.000000 -3.629700 0.000000 
0.000000 -3.629700 0.000000 
0.000000 -3.629700 0.000000 
0.000000 -3.629700 0.000000 
0.000000 -3.629700 0.000000 
0.000000 -3.629700 0.000000 
0.000000 -3.629700 0.000000 
0.000000 -3.629700 0.000000 
0.000000 -3.629700 0.000000 
0.000000 -3.629700 0.000000 
-0.000000 -3.629700 0.000000 
0.000000 -3.629700 0.000000 
0.000000 -3.629700 0.000000 
0.000000 -3.629700 0.000000 
0.000000 -3.629700 0.000000 
0.000000 -3.629700 0.000000 
0.000000 -3.629700 0.000000 
0.000000 -3.629700 0.000000 
-0.000000 -3.629700 0.000000 
0.000000 -3.629700 0.000000 
0.000000 -3.629700 0.000000 
0.000000 -3.629700 0.000000 
-0.000000 -3.629700 0.000000 
-0.000000 -3.629700 0.000000 
0.000000 -3.629700 0.000000 
-0.000000 -3.629700 0.000000 
-0.000000 -3.629700 0.000000 
-0.000000 -3.629700 0.000000 
-0.000000 -3.629700 0.000000 
0.000000 -3.629700 0.000000 
0.000000 -3.629700 0.000000 
0.000000 -3.629700 0.000000 
-0.000000 -3.629700 0.000000 
-0.000000 -3.629700 0.000000 
-0.000000 -3.629700 0.000000 
-0.000000 -3.629700 0.000000 
-0.000000 -3.629700 0.000000 
-0.000000 -3.629700 0.000000 
0.000000 -3.629700 0.000000 
0.000000 -3.629700 0.000000 
-0.000000 -3.629700 0.000000 
-0.000000 -3.629700 0.000000 
-0.000000 -3.629700 0.000000 
-0.000000 -3.629700 0.000000 
0.000000 -3.629700 0.000000 
0.000000 -3.629700 0.000000 
0.000000 -3.629700 0.000000 
0.000000 -3.629700 0.000000 
0.000000 -3.629700 0.000000 
0.000000 -3.629700 0.000000 
0.000000 -3.629700 0.000000 
0.000000 -3.629700 0.000000 
0.000000 -3.629700 0.000000 
-0.000000 -3.629700 0.000000 
0.000000 -3.629700 0.000000 
-0.000000 -3.629700 0.000000 
-0.000000 -3.629700 0.000000 
-0.000000 -3.629700 0.000000 
-0.000000 -3.629700 0.000000 
-0.000000 -3.629700 0.000000 
-0.000000 -3.629700 0.000000 
-0.000000 -3.629700 0.000000 
-0.000000 -3.629700 0.000000 
-0.000000 -3.629700 0.000000 
0.000000 -3.629700 0.000000 
-0.000000 -3.629700 0.000000 
-0.000000 -3.629700 0.000000 
-0.000000 -3.629700 0.000000 
0.000000 -3.629700 0.000000 
0.000000 -3.629700 0.000000 
-0.000000 -3.629700 0.000000 
0.000000 -3.629700 0.000000 
0.000000 -3.629700 0.000000 
-0.000000 -3.629700 0.000000 
0.000000 -3.629700 0.000000 
0.000000 -3.629700 0.000000 
0.000000 -3.629700 0.000000 
0.000000 -3.629700 0.000000 
-0.000000 -3.629700 0.000000 
-0.000000 -3.629700 0.000000 
-0.000000 -3.629700 0.000000 
-0.000000 -3.629700 0.000000 
-0.000000 -3.629700 0.000000 
0.000000 -3.629700 0.000000 
0.000000 -3.629700 0.000000 
-0.000000 -3.629700 0.000000 
-0.000000 -3.629700 0.000000 
0.000000 -3.629700 0.000000 
0.000000 -3.629700 0.000000 
0.000000 -3.629700 0.000000 
-0.000000 -3.629700 0.000000 
0.000000 -3.629700 0.000000 
-0.000000 -3.629700 0.000000 
0.000000 -3.629700 0.000000 
TENSORS STRESS float 
-0.000000 -0.000000 0.000000 
0.000000 -0.000000 0.000000 
0.000000 0.000000 0.000000 

0.000000 0.000000 0.000000 
0.000000 0.000000 0.000000 
0.000000 0.000000 0.000000 

-0.000000 0.000000 0.000000 
0.000000 -0.000000 0.000000 
0.000000 0.000000 0.000000 

0.000000 0.000000 0.000000 
0.000000 0.000000 0.000000 
0.000000 0.000000 0.000000 

-0.000000 0.000000 0.000000 
0.000000 -0.000000 0.000000 
0.000000 0.000000 0.000000 

0.000000 0.000000 0.000000 
0.000000 0.000000 0.000000 
0.000000 0.000000 0.000000 

0.000000 0.000000 0.000000 
0.000000 0.000000 0.000000 
0.000000 0.000000 0.000000 

-0.000000 -0.000000 0.000000 
0.000000 -0.000000 0.000000 
0.000000 0.000000 0.000000 

0.000000 -0.000000 0.000000 
0.000000 0.000000 0.000000 
0.000000 0.000000 0.000000 

0.000000 0.000000 0.000000 
0.000000 0.000000 0.000000 
0.000000 0.000000 0.000000 

0.000000 0.000000 0.000000 
0.000000 0.000000 0.000000 
0.000000 0.000000 0.000000 

0.000000 -0.000000 0.000000 
0.000000 0.000000 0.000000 
0.000000 0.000000 0.000000 

-0.000000 0.000000 0.000000 
0.000000 -0.000000 0.000000 
0.000000 0.000000 0.000000 

0.000000 -0.000000 0.000000 
0.000000 -0.000000 0.000000 
0.000000 0.000000 0.000000 

0.000000 0.000000 0.000000 
0.000000 0.000000 0.000000 
0.000000 0.000000 0.000000 

-0.000000 -0.000000 0.000000 
0.000000 -0.000000 0.000000 
0.000000 0.000000 0.000000 

0.000000 0.000000 0.000000 
0.000000 0.000000 0.000000 
0.000000 0.000000 0.000000 

0.000000 -0.000000 0.000000 
0.000000 0.000000 0.000000 
0.000000 0.000000 0.000000 

-0.000000 -0.000000 0.000000 
0.000000 -0.000000 0.000000 
0.000000 0.000000 0.000000 

0.000000 -0.000000 0.000000 
0.000000 0.000000 0.000000 
0.000000 0.000000 0.000000 

-0.000000 -0.000000 0.000000 
0.000000 -0.000000 0.000000 
0.000000 0.000000 0.000000 

-0.000000 -0.000000 0.000000 
0.000000 -0.000000 0.000000 
0.000000 0.000000 0.000000 

0.000000 0.000000 0.000000 
0.000000 0.000000 0.000000 
0.000000 0.000000 0.000000 

0.000000 -0.000000 0.000000 
0.000000 0.000000 0.000000 
0.000000 0.000000 0.000000 

-0.000000 -0.000000 0.000000 
0.000000 -0.000000 0.000000 
0.000000 0.000000 0.000000 

0.000000 -0.000000 0.000000 
0.000000 0.000000 0.000000 
0.000000 0.000000 0.000000 

0.000000 0.000000 0.000000 
0.000000 0.000000 0.000000 
0.000000 0.000000 0.000000 

0.000000 0.000000 0.000000 
0.000000 0.000000 0.000000 
0.000000 0.000000 0.000000 

-0.000000 -0.000000 0.000000 
0.000000 -0.000000 0.000000 
0.000000 0.000000 0.000000 

-0.000000 0.000000 0.000000 
0.000000 -0.000000 0.000000 
0.000000 0.000000 0.000000 

-0.000000 0.000000 0.000000 
0.000000 -0.000000 0.000000 
0.000000 0.000000 0.000000 

0.000000 -0.000000 0.000000 
0.000000 0.000000 0.000000 
0.000000 0.000000 0.000000 

0.000000 0.000000 0.000000 
0.000000 0.000000 0.000000 
0.000000 0.000000 0.000000 

-0.000000 0.000000 0.000000 
0.000000 -0.000000 0.000000 
0.000000 0.000000 0.000000 

-0.000000 -0.000000 0.000000 
0.000000 -0.000000 0.000000 
0.000000 0.000000 0.000000 

0.000000 0.000000 0.000000 
0.000000 0.000000 0.000000 
0.000000 0.000000 0.000000 

0.000000 0.000000 0.000000 
0.000000 -0.000000 0.000000 
0.000000 0.000000 0.000000 

-0.000000 0.000000 0.000000 
0.000000 -0.000000 0.000000 
0.000000 0.000000 0.000000 

0.000000 0.000000 0.000000 
0.000000 0.000000 0.000000 
0.000000 0.000000 0.000000 

-0.000000 0.000000 0.000000 
0.000000 -0.000000 0.000000 
0.000000 0.000000 0.000000 

0.000000 0.000000 0.000000 
0.000000 0.000000 0.000000 
0.000000 0.000000 0.000000 

0.000000 -0.000000 0.000000 
0.000000 0.000000 0.000000 
0.000000 0.000000 0.000000 

0.000000 -0.000000 0.000000 
0.000000 0.000000 0.000000 
0.000000 0.000000 0.000000 

0.000000 -0.000000 0.000000 
0.000000 0.000000 0.000000 
0.000000 0.000000 0.000000 

0.000000 -0.000000 0.000000 
0.000000 0.000000 0.000000 
0.000000 0.000000 0.000000 

-0.000000 -0.000000 0.000000 
0.000000 -0.000000 0.000000 
0.000000 0.000000 0.000000 

-0.000000 -0.000000 0.000000 
0.000000 -0.000000 0.000000 
0.000000 0.000000 0.000000 

0.000000 0.000000 0.000000 
0.000000 0.000000 0.000000 
0.000000 0.000000 0.000000 

-0.000000 -0.000000 0.000000 
0.000000 -0.000000 0.000000 
0.000000 0.000000 0.000000 

0.000000 0.000000 0.000000 
0.000000 0.000000 0.000000 
0.000000 0.000000 0.000000 

0.000000 -0.000000 0.000000 
0.000000 0.000000 0.000000 
0.000000 0.000000 0.000000 

0.000000 -0.000000 0.000000 
0.000000 0.000000 0.000000 
0.000000 0.000000 0.000000 

0.000000 0.000000 0.000000 
0.000000 0.000000 0.000000 
0.000000 0.000000 0.000000 

-0.000000 0.000000 0.000000 
0.000000 -0.000000 0.000000 
0.000000 0.000000 0.000000 

0.000000 -0.000000 0.000000 
0.000000 0.000000 0.000000 
0.000000 0.000000 0.000000 

0.000000 0.000000 0.000000 
0.000000 0.000000 0.000000 
0.000000 0.000000 0.000000 

0.000000 -0.000000 0.000000 
0.000000 0.000000 0.000000 
0.000000 0.000000 0.000000 

0.000000 0.000000 0.000000 
0.000000 0.000000 0.000000 
0.000000 0.000000 0.000000 

0.000000 0.000000 0.000000 
0.000000 0.000000 0.000000 
0.000000 0.000000 0.000000 

0.000000 0.000000 0.000000 
0.000000 0.000000 0.000000 
0.000000 0.000000 0.000000 

0.000000 -0.000000 0.000000 
0.000000 0.000000 0.000000 
0.000000 0.000000 0.000000 

-0.000000 -0.000000 0.000000 
0.000000 -0.000000 0.000000 
0.000000 0.000000 0.000000 

-0.000000 0.000000 0.000000 
0.000000 -0.000000 0.000000 
0.000000 0.000000 0.000000 

-0.000000 0.000000 0.000000 
0.000000 -0.000000 0.000000 
0.000000 0.000000 0.000000 

-0.000000 0.000000 0.000000 
0.000000 -0.000000 0.000000 
0.000000 0.000000 0.000000 

0.000000 -0.000000 0.000000 
0.000000 0.000000 0.000000 
0.000000 0.000000 0.000000 

-0.000000 0.000000 0.000000 
0.000000 -0.000000 0.000000 
0.000000 0.000000 0.000000 

-0.000000 0.000000 0.000000 
0.000000 -0.000000 0.000000 
0.000000 0.000000 0.000000 

-0.000000 -0.000000 0.000000 
0.000000 -0.000000 0.000000 
0.000000 0.000000 0.000000 

-0.000000 -0.000000 0.000000 
0.000000 0.000000 0.000000 
0.000000 0.000000 0.000000 

-0.000000 -0.000000 0.000000 
0.000000 -0.000000 0.000000 
0.000000 0.000000 0.000000 

-0.000000 0.000000 0.000000 
0.000000 -0.000000 0.000000 
0.000000 0.000000 0.000000 

-0.000000 -0.000000 0.000000 
0.000000 -0.000000 0.000000 
0.000000 0.000000 0.000000 

-0.000000 -0.000000 0.000000 
0.000000 -0.000000 0.000000 
0.000000 0.000000 0.000000 

-0.000000 -0.000000 0.000000 
0.000000 -0.000000 0.000000 
0.000000 0.000000 0.000000 

0.000000 0.000000 0.000000 
0.000000 0.000000 0.000000 
0.000000 0.000000 0.000000 

-0.000000 0.000000 0.000000 
0.000000 -0.000000 0.000000 
0.000000 0.000000 0.000000 

0.000000 0.000000 0.000000 
0.000000 0.000000 0.000000 
0.000000 0.000000 0.000000 

0.000000 0.000000 0.000000 
0.000000 0.000000 0.000000 
0.000000 0.000000 0.000000 

-0.000000 0.000000 0.000000 
0.000000 -0.000000 0.000000 
0.000000 0.000000 0.000000 

-0.000000 0.000000 0.000000 
0.000000 -0.000000 0.000000 
0.000000 0.000000 0.000000 

-0.000000 0.000000 0.000000 
0.000000 -0.000000 0.000000 
0.000000 0.000000 0.000000 

-0.000000 0.000000 0.000000 
0.000000 -0.000000 0.000000 
0.000000 0.000000 0.000000 

0.000000 0.000000 0.000000 
0.000000 0.000000 0.000000 
0.000000 0.000000 0.000000 

0.000000 0.000000 0.000000 
0.000000 0.000000 0.000000 
0.000000 0.000000 0.000000 

0.000000 -0.000000 0.000000 
0.000000 0.000000 0.000000 
0.000000 0.000000 0.000000 

0.000000 0.000000 0.000000 
0.000000 0.000000 0.000000 
0.000000 0.000000 0.000000 

0.000000 0.000000 0.000000 
0.000000 0.000000 0.000000 
0.000000 0.000000 0.000000 

0.000000 0.000000 0.000000 
0.000000 0.000000 0.000000 
0.000000 0.000000 0.000000 

0.000000 0.000000 0.000000 
0.000000 0.000000 0.000000 
0.000000 0.000000 0.000000 

-0.000000 0.000000 0.000000 
0.000000 -0.000000 0.000000 
0.000000 0.000000 0.000000 

0.000000 0.000000 0.000000 
0.000000 0.000000 0.000000 
0.000000 0.000000 0.000000 

0.000000 0.000000 0.000000 
0.000000 0.000000 0.000000 
0.000000 0.000000 0.000000 

0.000000 0.000000 0.000000 
0.000000 0.000000 0.000000 
0.000000 0.000000 0.000000 

0.000000 -0.000000 0.000000 
0.000000 0.000000 0.000000 
0.000000 0.000000 0.000000 

-0.000000 -0.000000 0.000000 
0.000000 0.000000 0.000000 
0.000000 0.000000 0.000000 

0.000000 -0.000000 0.000000 
0.000000 0.000000 0.000000 
0.000000 0.000000 0.000000 

0.000000 -0.000000 0.000000 
0.000000 0.000000 0.000000 
0.000000 0.000000 0.000000 

0.000000 0.000000 0.000000 
0.000000 0.000000 0.000000 
0.000000 0.000000 0.000000 

-0.000000 0.000000 0.000000 
0.000000 -0.000000 0.000000 
0.000000 0.000000 0.000000 

0.000000 -0.000000 0.000000 
0.000000 0.000000 0.000000 
0.000000 0.000000 0.000000 

-0.000000 -0.000000 0.000000 
0.000000 -0.000000 0.000000 
0.000000 0.000000 0.000000 

0.000000 0.000000 0.000000 
0.000000 0.000000 0.000000 
0.000000 0.000000 0.000000 

0.000000 -0.000000 0.000000 
0.000000 0.000000 0.000000 
0.000000 0.000000 0.000000 

0.000000 -0.000000 0.000000 
0.000000 0.000000 0.000000 
0.000000 0.000000 0.000000 

0.000000 -0.000000 0.000000 
0.000000 0.000000 0.000000 
0.000000 0.000000 0.000000 

-0.000000 0.000000 0.000000 
0.000000 -0.000000 0.000000 
0.000000 0.000000 0.000000 

0.000000 0.000000 0.000000 
0.000000 0.000000 0.000000 
0.000000 0.000000 0.000000 

-0.000000 0.000000 0.000000 
0.000000 -0.000000 0.000000 
0.000000 0.000000 0.000000 

0.000000 -0.000000 0.000000 
0.000000 0.000000 0.000000 
0.000000 0.000000 0.000000 

0.000000 -0.000000 0.000000 
0.000000 0.000000 0.000000 
0.000000 0.000000 0.000000 

-0.000000 -0.000000 0.000000 
0.000000 -0.000000 0.000000 
0.000000 0.000000 0.000000 

0.000000 -0.000000 0.000000 
0.000000 0.000000 0.000000 
0.000000 0.000000 0.000000 

0.000000 -0.000000 0.000000 
0.000000 -0.000000 0.000000 
0.000000 0.000000 0.000000 

-0.000000 -0.000000 0.000000 
0.000000 -0.000000 0.000000 
0.000000 0.000000 0.000000 

0.000000 0.000000 0.000000 
0.000000 0.000000 0.000000 
0.000000 0.000000 0.000000 

-0.000000 0.000000 0.000000 
0.000000 -0.000000 0.000000 
0.000000 0.000000 0.000000 

-0.000000 0.000000 0.000000 
0.000000 -0.000000 0.000000 
0.000000 0.000000 0.000000 

0.000000 0.000000 0.000000 
0.000000 0.000000 0.000000 
0.000000 0.000000 0.000000 

-0.000000 -0.000000 0.000000 
0.000000 -0.000000 0.000000 
0.000000 0.000000 0.000000 

-0.000000 0.000000 0.000000 
0.000000 -0.000000 0.000000 
0.000000 0.000000 0.000000 

0.000000 0.000000 0.000000 
0.000000 0.000000 0.000000 
0.000000 0.000000 0.000000 

0.000000 -0.000000 0.000000 
0.000000 0.000000 0.000000 
0.000000 0.000000 0.000000 

-0.000000 -0.000000 0.000000 
0.000000 -0.000000 0.000000 
0.000000 0.000000 0.000000 

-0.000000 0.000000 0.000000 
0.000000 -0.000000 0.000000 
0.000000 0.000000 0.000000 

-0.000000 0.000000 0.000000 
0.000000 -0.000000 0.000000 
0.000000 0.000000 0.000000 

0.000000 0.000000 0.000000 
0.000000 0.000000 0.000000 
0.000000 0.000000 0.000000 

0.000000 0.000000 0.000000 
0.000000 0.000000 0.000000 
0.000000 0.000000 0.000000 

0.000000 -0.000000 0.000000 
0.000000 0.000000 0.000000 
0.000000 0.000000 0.000000 

-0.000000 0.000000 0.000000 
0.000000 -0.000000 0.000000 
0.000000 0.000000 0.000000 

-0.000000 0.000000 0.000000 
0.000000 -0.000000 0.000000 
0.000000 0.000000 0.000000 

0.000000 -0.000000 0.000000 
0.000000 0.000000 0.000000 
0.000000 0.000000 0.000000 

0.000000 -0.000000 0.000000 
0.000000 0.000000 0.000000 
0.000000 0.000000 0.000000 

0.000000 0.000000 0.000000 
0.000000 0.000000 0.000000 
0.000000 0.000000 0.000000 

-0.000000 0.000000 0.000000 
0.000000 -0.000000 0.000000 
0.000000 0.000000 0.000000 

0.000000 0.000000 0.000000 
0.000000 0.000000 0.000000 
0.000000 0.000000 0.000000 

0.000000 -0.000000 0.000000 
0.000000 0.000000 0.000000 
0.000000 0.000000 0.000000 

0.000000 -0.000000 0.000000 
0.000000 0.000000 0.000000 
0.000000 0.000000 0.000000 

-0.000000 -0.000000 0.000000 
0.000000 -0.000000 0.000000 
0.000000 0.000000 0.000000 

0.000000 -0.000000 0.000000 
0.000000 0.000000 0.000000 
0.000000 0.000000 0.000000 

0.000000 0.000000 0.000000 
0.000000 0.000000 0.000000 
0.000000 0.000000 0.000000 

0.000000 -0.000000 0.000000 
0.000000 0.000000 0.000000 
0.000000 0.000000 0.000000 

-0.000000 -0.000000 0.000000 
0.000000 -0.000000 0.000000 
0.000000 0.000000 0.000000 

-0.000000 0.000000 0.000000 
0.000000 -0.000000 0.000000 
0.000000 0.000000 0.000000 

-0.000000 0.000000 0.000000 
0.000000 -0.000000 0.000000 
0.000000 0.000000 0.000000 

-0.000000 -0.000000 0.000000 
0.000000 -0.000000 0.000000 
0.000000 0.000000 0.000000 

0.000000 -0.000000 0.000000 
0.000000 0.000000 0.000000 
0.000000 0.000000 0.000000 

0.000000 -0.000000 0.000000 
0.000000 0.000000 0.000000 
0.000000 0.000000 0.000000 

0.000000 -0.000000 0.000000 
0.000000 0.000000 0.000000 
0.000000 0.000000 0.000000 

0.000000 0.000000 0.000000 
0.000000 0.000000 0.000000 
0.000000 0.000000 0.000000 

0.000000 -0.000000 0.000000 
0.000000 0.000000 0.000000 
0.000000 0.000000 0.000000 

-0.000000 -0.000000 0.000000 
0.000000 -0.000000 0.000000 
0.000000 0.000000 0.000000 

-0.000000 0.000000 0.000000 
0.000000 -0.000000 0.000000 
0.000000 0.000000 0.000000 

-0.000000 0.000000 0.000000 
0.000000 -0.000000 0.000000 
0.000000 0.000000 0.000000 

0.000000 -0.000000 0.000000 
0.000000 0.000000 0.000000 
0.000000 0.000000 0.000000 

-0.000000 0.000000 0.000000 
0.000000 -0.000000 0.000000 
0.000000 0.000000 0.000000 

0.000000 0.000000 0.000000 
0.000000 0.000000 0.000000 
0.000000 0.000000 0.000000 

-0.000000 0.000000 0.000000 
0.000000 -0.000000 0.000000 
0.000000 0.000000 0.000000 

-0.000000 0.000000 0.000000 
0.000000 -0.000000 0.000000 
0.000000 0.000000 0.000000 

0.000000 -0.000000 0.000000 
0.000000 0.000000 0.000000 
0.000000 0.000000 0.000000 

0.000000 0.000000 0.000000 
0.000000 0.000000 0.000000 
0.000000 0.000000 0.000000 

-0.000000 0.000000 0.000000 
0.000000 -0.000000 0.000000 
0.000000 0.000000 0.000000 

-0.000000 0.000000 0.000000 
0.000000 -0.000000 0.000000 
0.000000 0.000000 0.000000 

0.000000 0.000000 0.000000 
0.000000 -0.000000 0.000000 
0.000000 0.000000 0.000000 

0.000000 0.000000 0.000000 
0.000000 0.000000 0.000000 
0.000000 0.000000 0.000000 

-0.000000 -0.000000 0.000000 
0.000000 -0.000000 0.000000 
0.000000 0.000000 0.000000 

-0.000000 -0.000000 0.000000 
0.000000 -0.000000 0.000000 
0.000000 0.000000 0.000000 

0.000000 -0.000000 0.000000 
0.000000 -0.000000 0.000000 
0.000000 0.000000 0.000000 

0.000000 -0.000000 0.000000 
0.000000 0.000000 0.000000 
0.000000 0.000000 0.000000 

-0.000000 0.000000 0.000000 
0.000000 -0.000000 0.000000 
0.000000 0.000000 0.000000 

-0.000000 0.000000 0.000000 
0.000000 -0.000000 0.000000 
0.000000 0.000000 0.000000 

-0.000000 0.000000 0.000000 
0.000000 -0.000000 0.000000 
0.000000 0.000000 0.000000 

-0.000000 -0.000000 0.000000 
0.000000 -0.000000 0.000000 
0.000000 0.000000 0.000000 

-0.000000 -0.000000 0.000000 
0.000000 -0.000000 0.000000 
0.000000 0.000000 0.000000 

-0.000000 -0.000000 0.000000 
0.000000 -0.000000 0.000000 
0.000000 0.000000 0.000000 

TENSORS STRAIN float 
0.000000 -0.000000 0.000000 
0.000000 -0.000000 0.000000 
0.000000 0.000000 0.000000 

0.000000 0.000000 0.000000 
0.000000 0.000000 0.000000 
0.000000 0.000000 0.000000 

0.000000 0.000000 0.000000 
0.000000 -0.000000 0.000000 
0.000000 0.000000 0.000000 

-0.000000 0.000000 0.000000 
0.000000 0.000000 0.000000 
0.000000 0.000000 0.000000 

0.000000 0.000000 0.000000 
0.000000 -0.000000 0.000000 
0.000000 0.000000 0.000000 

0.000000 0.000000 0.000000 
0.000000 -0.000000 0.000000 
0.000000 0.000000 0.000000 

0.000000 0.000000 0.000000 
0.000000 0.000000 0.000000 
0.000000 0.000000 0.000000 

0.000000 -0.000000 0.000000 
0.000000 -0.000000 0.000000 
0.000000 0.000000 0.000000 

0.000000 -0.000000 0.000000 
0.000000 0.000000 0.000000 
0.000000 0.000000 0.000000 

-0.000000 0.000000 0.000000 
0.000000 0.000000 0.000000 
0.000000 0.000000 0.000000 

0.000000 0.000000 0.000000 
0.000000 0.000000 0.000000 
0.000000 0.000000 0.000000 

0.000000 -0.000000 0.000000 
0.000000 0.000000 0.000000 
0.000000 0.000000 0.000000 

0.000000 0.000000 0.000000 
0.000000 -0.000000 0.000000 
0.000000 0.000000 0.000000 

0.000000 -0.000000 0.000000 
0.000000 -0.000000 0.000000 
0.000000 0.000000 0.000000 

0.000000 0.000000 0.000000 
0.000000 -0.000000 0.000000 
0.000000 0.000000 0.000000 

0.000000 -0.000000 0.000000 
0.000000 -0.000000 0.000000 
0.000000 0.000000 0.000000 

0.000000 0.000000 0.000000 
0.000000 -0.000000 0.000000 
0.000000 0.000000 0.000000 

0.000000 -0.000000 0.000000 
0.000000 0.000000 0.000000 
0.000000 0.000000 0.000000 

-0.000000 -0.000000 0.000000 
0.000000 0.000000 0.000000 
0.000000 0.000000 0.000000 

0.000000 -0.000000 0.000000 
0.000000 -0.000000 0.000000 
0.000000 0.000000 0.000000 

0.000000 -0.000000 0.000000 
0.000000 -0.000000 0.000000 
0.000000 0.000000 0.000000 

0.000000 -0.000000 0.000000 
0.000000 -0.000000 0.000000 
0.000000 0.000000 0.000000 

0.000000 0.000000 0.000000 
0.000000 0.000000 0.000000 
0.000000 0.000000 0.000000 

0.000000 -0.000000 0.000000 
0.000000 0.000000 0.000000 
0.000000 0.000000 0.000000 

0.000000 -0.000000 0.000000 
0.000000 -0.000000 0.000000 
0.000000 0.000000 0.000000 

0.000000 -0.000000 0.000000 
0.000000 -0.000000 0.000000 
0.000000 0.000000 0.000000 

0.000000 0.000000 0.000000 
0.000000 0.000000 0.000000 
0.000000 0.000000 0.000000 

-0.000000 0.000000 0.000000 
0.000000 0.000000 0.000000 
0.000000 0.000000 0.000000 

0.000000 -0.000000 0.000000 
0.000000 -0.000000 0.000000 
0.000000 0.000000 0.000000 

0.000000 0.000000 0.000000 
0.000000 -0.000000 0.000000 
0.000000 0.000000 0.000000 

-0.000000 0.000000 0.000000 
0.000000 -0.000000 0.000000 
0.000000 0.000000 0.000000 

0.000000 -0.000000 0.000000 
0.000000 -0.000000 0.000000 
0.000000 0.000000 0.000000 

0.000000 0.000000 0.000000 
0.000000 0.000000 0.000000 
0.000000 0.000000 0.000000 

0.000000 0.000000 0.000000 
0.000000 -0.000000 0.000000 
0.000000 0.000000 0.000000 

0.000000 -0.000000 0.000000 
0.000000 -0.000000 0.000000 
0.000000 0.000000 0.000000 

0.000000 0.000000 0.000000 
0.000000 -0.000000 0.000000 
0.000000 0.000000 0.000000 

0.000000 0.000000 0.000000 
0.000000 -0.000000 0.000000 
0.000000 0.000000 0.000000 

0.000000 0.000000 0.000000 
0.000000 -0.000000 0.000000 
0.000000 0.000000 0.000000 

-0.000000 0.000000 0.000000 
0.000000 0.000000 0.000000 
0.000000 0.000000 0.000000 

-0.000000 0.000000 0.000000 
0.000000 0.000000 0.000000 
0.000000 0.000000 0.000000 

-0.000000 0.000000 0.000000 
0.000000 0.000000 0.000000 
0.000000 0.000000 0.000000 

0.000000 -0.000000 0.000000 
0.000000 0.000000 0.000000 
0.000000 0.000000 0.000000 

0.000000 -0.000000 0.000000 
0.000000 0.000000 0.000000 
0.000000 0.000000 0.000000 

-0.000000 -0.000000 0.000000 
0.000000 0.000000 0.000000 
0.000000 0.000000 0.000000 

-0.000000 -0.000000 0.000000 
0.000000 0.000000 0.000000 
0.000000 0.000000 0.000000 

0.000000 -0.000000 0.000000 
0.000000 -0.000000 0.000000 
0.000000 0.000000 0.000000 

0.000000 -0.000000 0.000000 
0.000000 -0.000000 0.000000 
0.000000 0.000000 0.000000 

0.000000 0.000000 0.000000 
0.000000 -0.000000 0.000000 
0.000000 0.000000 0.000000 

-0.000000 -0.000000 0.000000 
0.000000 -0.000000 0.000000 
0.000000 0.000000 0.000000 

0.000000 0.000000 0.000000 
0.000000 0.000000 0.000000 
0.000000 0.000000 0.000000 

0.000000 -0.000000 0.000000 
0.000000 0.000000 0.000000 
0.000000 0.000000 0.000000 

-0.000000 -0.000000 0.000000 
0.000000 0.000000 0.000000 
0.000000 0.000000 0.000000 

-0.000000 0.000000 0.000000 
0.000000 0.000000 0.000000 
0.000000 0.000000 0.000000 

-0.000000 0.000000 0.000000 
0.000000 -0.000000 0.000000 
0.000000 0.000000 0.000000 

-0.000000 -0.000000 0.000000 
0.000000 0.000000 0.000000 
0.000000 0.000000 0.000000 

-0.000000 0.000000 0.000000 
0.000000 0.000000 0.000000 
0.000000 0.000000 0.000000 

-0.000000 -0.000000 0.000000 
0.000000 0.000000 0.000000 
0.000000 0.000000 0.000000 

-0.000000 0.000000 0.000000 
0.000000 0.000000 0.000000 
0.000000 0.000000 0.000000 

0.000000 0.000000 0.000000 
0.000000 0.000000 0.000000 
0.000000 0.000000 0.000000 

0.000000 0.000000 0.000000 
0.000000 0.000000 0.000000 
0.000000 0.000000 0.000000 

-0.000000 -0.000000 0.000000 
0.000000 0.000000 0.000000 
0.000000 0.000000 0.000000 

-0.000000 -0.000000 0.000000 
0.000000 0.000000 0.000000 
0.000000 0.000000 0.000000 

-0.000000 0.000000 0.000000 
0.000000 0.000000 0.000000 
0.000000 0.000000 0.000000 

-0.000000 0.000000 0.000000 
0.000000 0.000000 0.000000 
0.000000 0.000000 0.000000 

0.000000 0.000000 0.000000 
0.000000 -0.000000 0.000000 
0.000000 0.000000 0.000000 

0.000000 -0.000000 0.000000 
0.000000 -0.000000 0.000000 
0.000000 0.000000 0.000000 

0.000000 0.000000 0.000000 
0.000000 -0.000000 0.000000 
0.000000 0.000000 0.000000 

-0.000000 0.000000 0.000000 
0.000000 0.000000 0.000000 
0.000000 0.000000 0.000000 

-0.000000 -0.000000 0.000000 
0.000000 -0.000000 0.000000 
0.000000 0.000000 0.000000 

-0.000000 -0.000000 0.000000 
0.000000 0.000000 0.000000 
0.000000 0.000000 0.000000 

-0.000000 -0.000000 0.000000 
0.000000 -0.000000 0.000000 
0.000000 0.000000 0.000000 

-0.000000 0.000000 0.000000 
0.000000 -0.000000 0.000000 
0.000000 0.000000 0.000000 

-0.000000 -0.000000 0.000000 
0.000000 -0.000000 0.000000 
0.000000 0.000000 0.000000 

0.000000 -0.000000 0.000000 
0.000000 -0.000000 0.000000 
0.000000 0.000000 0.000000 

0.000000 -0.000000 0.000000 
0.000000 -0.000000 0.000000 
0.000000 0.000000 0.000000 

0.000000 0.000000 0.000000 
0.000000 0.000000 0.000000 
0.000000 0.000000 0.000000 

0.000000 0.000000 0.000000 
0.000000 -0.000000 0.000000 
0.000000 0.000000 0.000000 

0.000000 0.000000 0.000000 
0.000000 0.000000 0.000000 
0.000000 0.000000 0.000000 

0.000000 0.000000 0.000000 
0.000000 -0.000000 0.000000 
0.000000 0.000000 0.000000 

0.000000 0.000000 0.000000 
0.000000 -0.000000 0.000000 
0.000000 0.000000 0.000000 

0.000000 0.000000 0.000000 
0.000000 -0.000000 0.000000 
0.000000 0.000000 0.000000 

-0.000000 0.000000 0.000000 
0.000000 0.000000 0.000000 
0.000000 0.000000 0.000000 

0.000000 0.000000 0.000000 
0.000000 -0.000000 0.000000 
0.000000 0.000000 0.000000 

0.000000 0.000000 0.000000 
0.000000 0.000000 0.000000 
0.000000 0.000000 0.000000 

0.000000 0.000000 0.000000 
0.000000 0.000000 0.000000 
0.000000 0.000000 0.000000 

-0.000000 -0.000000 0.000000 
0.000000 0.000000 0.000000 
0.000000 0.000000 0.000000 

-0.000000 0.000000 0.000000 
0.000000 0.000000 0.000000 
0.000000 0.000000 0.000000 

-0.000000 0.000000 0.000000 
0.000000 0.000000 0.000000 
0.000000 0.000000 0.000000 

-0.000000 0.000000 0.000000 
0.000000 0.000000 0.000000 
0.000000 0.000000 0.000000 

0.000000 0.000000 0.000000 
0.000000 0.000000 0.000000 
0.000000 0.000000 0.000000 

0.000000 0.000000 0.000000 
0.000000 -0.000000 0.000000 
0.000000 0.000000 0.000000 

0.000000 0.000000 0.000000 
0.000000 0.000000 0.000000 
0.000000 0.000000 0.000000 

0.000000 0.000000 0.000000 
0.000000 0.000000 0.000000 
0.000000 0.000000 0.000000 

0.000000 0.000000 0.000000 
0.000000 -0.000000 0.000000 
0.000000 0.000000 0.000000 

-0.000000 -0.000000 0.000000 
0.000000 0.000000 0.000000 
0.000000 0.000000 0.000000 

-0.000000 -0.000000 0.000000 
0.000000 0.000000 0.000000 
0.000000 0.000000 0.000000 

-0.000000 -0.000000 0.000000 
0.000000 0.000000 0.000000 
0.000000 0.000000 0.000000 

0.000000 -0.000000 0.000000 
0.000000 -0.000000 0.000000 
0.000000 0.000000 0.000000 

0.000000 0.000000 0.000000 
0.000000 -0.000000 0.000000 
0.000000 0.000000 0.000000 

0.000000 0.000000 0.000000 
0.000000 -0.000000 0.000000 
0.000000 0.000000 0.000000 

0.000000 -0.000000 0.000000 
0.000000 0.000000 0.000000 
0.000000 0.000000 0.000000 

-0.000000 -0.000000 0.000000 
0.000000 0.000000 0.000000 
0.000000 0.000000 0.000000 

-0.000000 0.000000 0.000000 
0.000000 0.000000 0.000000 
0.000000 0.000000 0.000000 

0.000000 -0.000000 0.000000 
0.000000 -0.000000 0.000000 
0.000000 0.000000 0.000000 

-0.000000 -0.000000 0.000000 
0.000000 0.000000 0.000000 
0.000000 0.000000 0.000000 

0.000000 -0.000000 0.000000 
0.000000 -0.000000 0.000000 
0.000000 0.000000 0.000000 

0.000000 0.000000 0.000000 
0.000000 -0.000000 0.000000 
0.000000 0.000000 0.000000 

0.000000 0.000000 0.000000 
0.000000 0.000000 0.000000 
0.000000 0.000000 0.000000 

0.000000 0.000000 0.000000 
0.000000 -0.000000 0.000000 
0.000000 0.000000 0.000000 

-0.000000 -0.000000 0.000000 
0.000000 0.000000 0.000000 
0.000000 0.000000 0.000000 

-0.000000 -0.000000 0.000000 
0.000000 0.000000 0.000000 
0.000000 0.000000 0.000000 

-0.000000 -0.000000 0.000000 
0.000000 -0.000000 0.000000 
0.000000 0.000000 0.000000 

-0.000000 -0.000000 0.000000 
0.000000 0.000000 0.000000 
0.000000 0.000000 0.000000 

0.000000 -0.000000 0.000000 
0.000000 -0.000000 0.000000 
0.000000 0.000000 0.000000 

0.000000 -0.000000 0.000000 
0.000000 -0.000000 0.000000 
0.000000 0.000000 0.000000 

-0.000000 0.000000 0.000000 
0.000000 0.000000 0.000000 
0.000000 0.000000 0.000000 

-0.000000 0.000000 0.000000 
0.000000 0.000000 0.000000 
0.000000 0.000000 0.000000 

-0.000000 0.000000 0.000000 
0.000000 0.000000 0.000000 
0.000000 0.000000 0.000000 

0.000000 0.000000 0.000000 
0.000000 0.000000 0.000000 
0.000000 0.000000 0.000000 

0.000000 -0.000000 0.000000 
0.000000 -0.000000 0.000000 
0.000000 0.000000 0.000000 

0.000000 0.000000 0.000000 
0.000000 -0.000000 0.000000 
0.000000 0.000000 0.000000 

0.000000 0.000000 0.000000 
0.000000 0.000000 0.000000 
0.000000 0.000000 0.000000 

-0.000000 -0.000000 0.000000 
0.000000 0.000000 0.000000 
0.000000 0.000000 0.000000 

-0.000000 -0.000000 0.000000 
0.000000 -0.000000 0.000000 
0.000000 0.000000 0.000000 

0.000000 0.000000 0.000000 
0.000000 -0.000000 0.000000 
0.000000 0.000000 0.000000 

0.000000 0.000000 0.000000 
0.000000 -0.000000 0.000000 
0.000000 0.000000 0.000000 

-0.000000 0.000000 0.000000 
0.000000 0.000000 0.000000 
0.000000 0.000000 0.000000 

-0.000000 0.000000 0.000000 
0.000000 0.000000 0.000000 
0.000000 0.000000 0.000000 

-0.000000 -0.000000 0.000000 
0.000000 0.000000 0.000000 
0.000000 0.000000 0.000000 

-0.000000 0.000000 0.000000 
0.000000 -0.000000 0.000000 
0.000000 0.000000 0.000000 

0.000000 0.000000 0.000000 
0.000000 -0.000000 0.000000 
0.000000 0.000000 0.000000 

-0.000000 -0.000000 0.000000 
0.000000 0.000000 0.000000 
0.000000 0.000000 0.000000 

-0.000000 -0.000000 0.000000 
0.000000 0.000000 0.000000 
0.000000 0.000000 0.000000 

0.000000 0.000000 0.000000 
0.000000 0.000000 0.000000 
0.000000 0.000000 0.000000 

-0.000000 0.000000 0.000000 
0.000000 -0.000000 0.000000 
0.000000 0.000000 0.000000 

-0.000000 0.000000 0.000000 
0.000000 0.000000 0.000000 
0.000000 0.000000 0.000000 

-0.000000 -0.000000 0.000000 
0.000000 0.000000 0.000000 
0.000000 0.000000 0.000000 

-0.000000 -0.000000 0.000000 
0.000000 0.000000 0.000000 
0.000000 0.000000 0.000000 

-0.000000 -0.000000 0.000000 
0.000000 -0.000000 0.000000 
0.000000 0.000000 0.000000 

-0.000000 -0.000000 0.000000 
0.000000 0.000000 0.000000 
0.000000 0.000000 0.000000 

0.000000 0.000000 0.000000 
0.000000 0.000000 0.000000 
0.000000 0.000000 0.000000 

0.000000 -0.000000 0.000000 
0.000000 0.000000 0.000000 
0.000000 0.000000 0.000000 

-0.000000 -0.000000 0.000000 
0.000000 -0.000000 0.000000 
0.000000 0.000000 0.000000 

-0.000000 0.000000 0.000000 
0.000000 0.000000 0.000000 
0.000000 0.000000 0.000000 

0.000000 0.000000 0.000000 
0.000000 -0.000000 0.000000 
0.000000 0.000000 0.000000 

0.000000 -0.000000 0.000000 
0.000000 -0.000000 0.000000 
0.000000 0.000000 0.000000 

0.000000 -0.000000 0.000000 
0.000000 -0.000000 0.000000 
0.000000 0.000000 0.000000 

-0.000000 -0.000000 0.000000 
0.000000 0.000000 0.000000 
0.000000 0.000000 0.000000 

-0.000000 -0.000000 0.000000 
0.000000 0.000000 0.000000 
0.000000 0.000000 0.000000 

-0.000000 0.000000 0.000000 
0.000000 0.000000 0.000000 
0.000000 0.000000 0.000000 

0.000000 -0.000000 0.000000 
0.000000 0.000000 0.000000 
0.000000 0.000000 0.000000 

-0.000000 -0.000000 0.000000 
0.000000 -0.000000 0.000000 
0.000000 0.000000 