# vtk DataFile Version 3.0 
vtk output 
ASCII 
DATASET UNSTRUCTURED_GRID 
POINTS 175 float 
-0.026061 -0.097303 0.000000 
-0.106992 -0.029248 0.000000 
-0.054870 -0.037481 0.000000 
-0.028809 0.008403 0.000000 
-0.186430 0.034828 0.000000 
-0.137056 0.032301 0.000000 
-0.114311 0.085949 0.000000 
-0.058186 0.070283 0.000000 
-0.029377 0.110460 0.000000 
-0.265318 0.097983 0.000000 
-0.217198 0.097184 0.000000 
-0.196633 0.154480 0.000000 
-0.143120 0.145771 0.000000 
-0.116563 0.193040 0.000000 
-0.058945 0.173394 0.000000 
-0.029568 0.211514 0.000000 
-0.344206 0.161139 0.000000 
-0.296791 0.161146 0.000000 
-0.278030 0.221089 0.000000 
-0.225992 0.215223 0.000000 
-0.201664 0.267340 0.000000 
-0.145749 0.253866 0.000000 
-0.117890 0.298208 0.000000 
-0.059328 0.275503 0.000000 
-0.029759 0.312569 0.000000 
-0.058559 -0.138054 0.000000 
-0.162226 -0.158897 0.000000 
-0.123292 -0.123279 0.000000 
-0.142917 -0.074296 0.000000 
-0.261851 -0.181053 0.000000 
-0.229092 -0.144026 0.000000 
-0.256854 -0.092795 0.000000 
-0.209613 -0.058682 0.000000 
-0.223062 -0.011108 0.000000 
-0.360414 -0.203353 0.000000 
-0.329787 -0.166230 0.000000 
-0.361761 -0.114428 0.000000 
-0.321587 -0.078020 0.000000 
-0.341985 -0.027785 0.000000 
-0.290702 0.005013 0.000000 
-0.302189 0.051749 0.000000 
-0.458977 -0.225653 0.000000 
-0.429420 -0.188579 0.000000 
-0.464588 -0.136537 0.000000 
-0.427556 -0.099510 0.000000 
-0.453135 -0.047995 0.000000 
-0.407738 -0.012679 0.000000 
-0.425037 0.036749 0.000000 
-0.370772 0.068378 0.000000 
-0.381315 0.114605 0.000000 
-0.046960 -0.188869 0.000000 
-0.095301 -0.282915 0.000000 
-0.098873 -0.230268 0.000000 
-0.149405 -0.215070 0.000000 
-0.140093 -0.374619 0.000000 
-0.148617 -0.325921 0.000000 
-0.205981 -0.315684 0.000000 
-0.203197 -0.257480 0.000000 
-0.248777 -0.238334 0.000000 
-0.184111 -0.465583 0.000000 
-0.194039 -0.418492 0.000000 
-0.254475 -0.411192 0.000000 
-0.257893 -0.357082 0.000000 
-0.309886 -0.341710 0.000000 
-0.303554 -0.281165 0.000000 
-0.347255 -0.261007 0.000000 
-0.228129 -0.556547 0.000000 
-0.238687 -0.510322 0.000000 
-0.301302 -0.505370 0.000000 
-0.307162 -0.453331 0.000000 
-0.363386 -0.441210 0.000000 
-0.362692 -0.383699 0.000000 
-0.412122 -0.366406 0.000000 
-0.403017 -0.304259 0.000000 
-0.445733 -0.283680 0.000000 
-0.000000 -0.211484 0.000000 
0.043388 -0.307915 0.000000 
-0.000000 -0.277883 0.000000 
-0.043388 -0.307915 0.000000 
0.087158 -0.400112 0.000000 
0.043769 -0.376413 0.000000 
-0.000000 -0.414879 0.000000 
-0.043769 -0.376413 0.000000 
-0.087158 -0.400112 0.000000 
0.130831 -0.491241 0.000000 
0.087824 -0.469642 0.000000 
0.044436 -0.512342 0.000000 
-0.000000 -0.481277 0.000000 
-0.044436 -0.512342 0.000000 
-0.087824 -0.469642 0.000000 
-0.130831 -0.491241 0.000000 
0.174505 -0.582371 0.000000 
0.131782 -0.561805 0.000000 
0.088871 -0.607671 0.000000 
0.044532 -0.579807 0.000000 
-0.000000 -0.616208 0.000000 
-0.044532 -0.579807 0.000000 
-0.088871 -0.607671 0.000000 
-0.131782 -0.561805 0.000000 
-0.174505 -0.582371 0.000000 
0.046960 -0.188869 0.000000 
0.149405 -0.215070 0.000000 
0.098873 -0.230268 0.000000 
0.095301 -0.282915 0.000000 
0.248777 -0.238334 0.000000 
0.203197 -0.257480 0.000000 
0.205981 -0.315684 0.000000 
0.148617 -0.325921 0.000000 
0.140093 -0.374619 0.000000 
0.347255 -0.261007 0.000000 
0.303554 -0.281165 0.000000 
0.309886 -0.341710 0.000000 
0.257893 -0.357082 0.000000 
0.254475 -0.411192 0.000000 
0.194039 -0.418492 0.000000 
0.184111 -0.465583 0.000000 
0.445733 -0.283680 0.000000 
0.403017 -0.304259 0.000000 
0.412122 -0.366406 0.000000 
0.362692 -0.383699 0.000000 
0.363386 -0.441210 0.000000 
0.307162 -0.453331 0.000000 
0.301302 -0.505370 0.000000 
0.238687 -0.510322 0.000000 
0.228129 -0.556547 0.000000 
0.058559 -0.138054 0.000000 
0.142917 -0.074296 0.000000 
0.123292 -0.123279 0.000000 
0.162226 -0.158897 0.000000 
0.223062 -0.011108 0.000000 
0.209613 -0.058682 0.000000 
0.256854 -0.092795 0.000000 
0.229092 -0.144026 0.000000 
0.261851 -0.181053 0.000000 
0.302189 0.051749 0.000000 
0.290702 0.005013 0.000000 
0.341985 -0.027785 0.000000 
0.321587 -0.078020 0.000000 
0.361761 -0.114428 0.000000 
0.329787 -0.166230 0.000000 
0.360414 -0.203353 0.000000 
0.381315 0.114605 0.000000 
0.370772 0.068378 0.000000 
0.425037 0.036749 0.000000 
0.407738 -0.012679 0.000000 
0.453135 -0.047995 0.000000 
0.427556 -0.099510 0.000000 
0.464588 -0.136537 0.000000 
0.429420 -0.188579 0.000000 
0.458977 -0.225653 0.000000 
0.026061 -0.097303 0.000000 
0.028809 0.008403 0.000000 
0.054870 -0.037481 0.000000 
0.106992 -0.029248 0.000000 
0.029377 0.110460 0.000000 
0.058186 0.070283 0.000000 
0.114311 0.085949 0.000000 
0.137056 0.032301 0.000000 
0.186430 0.034828 0.000000 
0.029568 0.211514 0.000000 
0.058945 0.173394 0.000000 
0.116563 0.193040 0.000000 
0.143120 0.145771 0.000000 
0.196633 0.154480 0.000000 
0.217198 0.097184 0.000000 
0.265318 0.097983 0.000000 
0.029759 0.312569 0.000000 
0.059328 0.275503 0.000000 
0.117890 0.298208 0.000000 
0.145749 0.253866 0.000000 
0.201664 0.267340 0.000000 
0.225992 0.215223 0.000000 
0.278030 0.221089 0.000000 
0.296791 0.161146 0.000000 
0.344206 0.161139 0.000000 
CELLS 175 350 
1 0 
1 1 
1 2 
1 3 
1 4 
1 5 
1 6 
1 7 
1 8 
1 9 
1 10 
1 11 
1 12 
1 13 
1 14 
1 15 
1 16 
1 17 
1 18 
1 19 
1 20 
1 21 
1 22 
1 23 
1 24 
1 25 
1 26 
1 27 
1 28 
1 29 
1 30 
1 31 
1 32 
1 33 
1 34 
1 35 
1 36 
1 37 
1 38 
1 39 
1 40 
1 41 
1 42 
1 43 
1 44 
1 45 
1 46 
1 47 
1 48 
1 49 
1 50 
1 51 
1 52 
1 53 
1 54 
1 55 
1 56 
1 57 
1 58 
1 59 
1 60 
1 61 
1 62 
1 63 
1 64 
1 65 
1 66 
1 67 
1 68 
1 69 
1 70 
1 71 
1 72 
1 73 
1 74 
1 75 
1 76 
1 77 
1 78 
1 79 
1 80 
1 81 
1 82 
1 83 
1 84 
1 85 
1 86 
1 87 
1 88 
1 89 
1 90 
1 91 
1 92 
1 93 
1 94 
1 95 
1 96 
1 97 
1 98 
1 99 
1 100 
1 101 
1 102 
1 103 
1 104 
1 105 
1 106 
1 107 
1 108 
1 109 
1 110 
1 111 
1 112 
1 113 
1 114 
1 115 
1 116 
1 117 
1 118 
1 119 
1 120 
1 121 
1 122 
1 123 
1 124 
1 125 
1 126 
1 127 
1 128 
1 129 
1 130 
1 131 
1 132 
1 133 
1 134 
1 135 
1 136 
1 137 
1 138 
1 139 
1 140 
1 141 
1 142 
1 143 
1 144 
1 145 
1 146 
1 147 
1 148 
1 149 
1 150 
1 151 
1 152 
1 153 
1 154 
1 155 
1 156 
1 157 
1 158 
1 159 
1 160 
1 161 
1 162 
1 163 
1 164 
1 165 
1 166 
1 167 
1 168 
1 169 
1 170 
1 171 
1 172 
1 173 
1 174 
CELL_TYPES 175 
1 
1 
1 
1 
1 
1 
1 
1 
1 
1 
1 
1 
1 
1 
1 
1 
1 
1 
1 
1 
1 
1 
1 
1 
1 
1 
1 
1 
1 
1 
1 
1 
1 
1 
1 
1 
1 
1 
1 
1 
1 
1 
1 
1 
1 
1 
1 
1 
1 
1 
1 
1 
1 
1 
1 
1 
1 
1 
1 
1 
1 
1 
1 
1 
1 
1 
1 
1 
1 
1 
1 
1 
1 
1 
1 
1 
1 
1 
1 
1 
1 
1 
1 
1 
1 
1 
1 
1 
1 
1 
1 
1 
1 
1 
1 
1 
1 
1 
1 
1 
1 
1 
1 
1 
1 
1 
1 
1 
1 
1 
1 
1 
1 
1 
1 
1 
1 
1 
1 
1 
1 
1 
1 
1 
1 
1 
1 
1 
1 
1 
1 
1 
1 
1 
1 
1 
1 
1 
1 
1 
1 
1 
1 
1 
1 
1 
1 
1 
1 
1 
1 
1 
1 
1 
1 
1 
1 
1 
1 
1 
1 
1 
1 
1 
1 
1 
1 
1 
1 
1 
1 
1 
1 
1 
1 
POINT_DATA 175 
VECTORS X_GC float 
-0.026061 -0.097303 0.000000 
-0.106992 -0.029248 0.000000 
-0.054870 -0.037481 0.000000 
-0.028809 0.008403 0.000000 
-0.186430 0.034828 0.000000 
-0.137056 0.032301 0.000000 
-0.114311 0.085949 0.000000 
-0.058186 0.070283 0.000000 
-0.029377 0.110460 0.000000 
-0.265318 0.097983 0.000000 
-0.217198 0.097184 0.000000 
-0.196633 0.154480 0.000000 
-0.143120 0.145771 0.000000 
-0.116563 0.193040 0.000000 
-0.058945 0.173394 0.000000 
-0.029568 0.211514 0.000000 
-0.344206 0.161139 0.000000 
-0.296791 0.161146 0.000000 
-0.278030 0.221089 0.000000 
-0.225992 0.215223 0.000000 
-0.201664 0.267340 0.000000 
-0.145749 0.253866 0.000000 
-0.117890 0.298208 0.000000 
-0.059328 0.275503 0.000000 
-0.029759 0.312569 0.000000 
-0.058559 -0.138054 0.000000 
-0.162226 -0.158897 0.000000 
-0.123292 -0.123279 0.000000 
-0.142917 -0.074296 0.000000 
-0.261851 -0.181053 0.000000 
-0.229092 -0.144026 0.000000 
-0.256854 -0.092795 0.000000 
-0.209613 -0.058682 0.000000 
-0.223062 -0.011108 0.000000 
-0.360414 -0.203353 0.000000 
-0.329787 -0.166230 0.000000 
-0.361761 -0.114428 0.000000 
-0.321587 -0.078020 0.000000 
-0.341985 -0.027785 0.000000 
-0.290702 0.005013 0.000000 
-0.302189 0.051749 0.000000 
-0.458977 -0.225653 0.000000 
-0.429420 -0.188579 0.000000 
-0.464588 -0.136537 0.000000 
-0.427556 -0.099510 0.000000 
-0.453135 -0.047995 0.000000 
-0.407738 -0.012679 0.000000 
-0.425037 0.036749 0.000000 
-0.370772 0.068378 0.000000 
-0.381315 0.114605 0.000000 
-0.046960 -0.188869 0.000000 
-0.095301 -0.282915 0.000000 
-0.098873 -0.230268 0.000000 
-0.149405 -0.215070 0.000000 
-0.140093 -0.374619 0.000000 
-0.148617 -0.325921 0.000000 
-0.205981 -0.315684 0.000000 
-0.203197 -0.257480 0.000000 
-0.248777 -0.238334 0.000000 
-0.184111 -0.465583 0.000000 
-0.194039 -0.418492 0.000000 
-0.254475 -0.411192 0.000000 
-0.257893 -0.357082 0.000000 
-0.309886 -0.341710 0.000000 
-0.303554 -0.281165 0.000000 
-0.347255 -0.261007 0.000000 
-0.228129 -0.556547 0.000000 
-0.238687 -0.510322 0.000000 
-0.301302 -0.505370 0.000000 
-0.307162 -0.453331 0.000000 
-0.363386 -0.441210 0.000000 
-0.362692 -0.383699 0.000000 
-0.412122 -0.366406 0.000000 
-0.403017 -0.304259 0.000000 
-0.445733 -0.283680 0.000000 
-0.000000 -0.211484 0.000000 
0.043388 -0.307915 0.000000 
-0.000000 -0.277883 0.000000 
-0.043388 -0.307915 0.000000 
0.087158 -0.400112 0.000000 
0.043769 -0.376413 0.000000 
-0.000000 -0.414879 0.000000 
-0.043769 -0.376413 0.000000 
-0.087158 -0.400112 0.000000 
0.130831 -0.491241 0.000000 
0.087824 -0.469642 0.000000 
0.044436 -0.512342 0.000000 
-0.000000 -0.481277 0.000000 
-0.044436 -0.512342 0.000000 
-0.087824 -0.469642 0.000000 
-0.130831 -0.491241 0.000000 
0.174505 -0.582371 0.000000 
0.131782 -0.561805 0.000000 
0.088871 -0.607671 0.000000 
0.044532 -0.579807 0.000000 
-0.000000 -0.616208 0.000000 
-0.044532 -0.579807 0.000000 
-0.088871 -0.607671 0.000000 
-0.131782 -0.561805 0.000000 
-0.174505 -0.582371 0.000000 
0.046960 -0.188869 0.000000 
0.149405 -0.215070 0.000000 
0.098873 -0.230268 0.000000 
0.095301 -0.282915 0.000000 
0.248777 -0.238334 0.000000 
0.203197 -0.257480 0.000000 
0.205981 -0.315684 0.000000 
0.148617 -0.325921 0.000000 
0.140093 -0.374619 0.000000 
0.347255 -0.261007 0.000000 
0.303554 -0.281165 0.000000 
0.309886 -0.341710 0.000000 
0.257893 -0.357082 0.000000 
0.254475 -0.411192 0.000000 
0.194039 -0.418492 0.000000 
0.184111 -0.465583 0.000000 
0.445733 -0.283680 0.000000 
0.403017 -0.304259 0.000000 
0.412122 -0.366406 0.000000 
0.362692 -0.383699 0.000000 
0.363386 -0.441210 0.000000 
0.307162 -0.453331 0.000000 
0.301302 -0.505370 0.000000 
0.238687 -0.510322 0.000000 
0.228129 -0.556547 0.000000 
0.058559 -0.138054 0.000000 
0.142917 -0.074296 0.000000 
0.123292 -0.123279 0.000000 
0.162226 -0.158897 0.000000 
0.223062 -0.011108 0.000000 
0.209613 -0.058682 0.000000 
0.256854 -0.092795 0.000000 
0.229092 -0.144026 0.000000 
0.261851 -0.181053 0.000000 
0.302189 0.051749 0.000000 
0.290702 0.005013 0.000000 
0.341985 -0.027785 0.000000 
0.321587 -0.078020 0.000000 
0.361761 -0.114428 0.000000 
0.329787 -0.166230 0.000000 
0.360414 -0.203353 0.000000 
0.381315 0.114605 0.000000 
0.370772 0.068378 0.000000 
0.425037 0.036749 0.000000 
0.407738 -0.012679 0.000000 
0.453135 -0.047995 0.000000 
0.427556 -0.099510 0.000000 
0.464588 -0.136537 0.000000 
0.429420 -0.188579 0.000000 
0.458977 -0.225653 0.000000 
0.026061 -0.097303 0.000000 
0.028809 0.008403 0.000000 
0.054870 -0.037481 0.000000 
0.106992 -0.029248 0.000000 
0.029377 0.110460 0.000000 
0.058186 0.070283 0.000000 
0.114311 0.085949 0.000000 
0.137056 0.032301 0.000000 
0.186430 0.034828 0.000000 
0.029568 0.211514 0.000000 
0.058945 0.173394 0.000000 
0.116563 0.193040 0.000000 
0.143120 0.145771 0.000000 
0.196633 0.154480 0.000000 
0.217198 0.097184 0.000000 
0.265318 0.097983 0.000000 
0.029759 0.312569 0.000000 
0.059328 0.275503 0.000000 
0.117890 0.298208 0.000000 
0.145749 0.253866 0.000000 
0.201664 0.267340 0.000000 
0.225992 0.215223 0.000000 
0.278030 0.221089 0.000000 
0.296791 0.161146 0.000000 
0.344206 0.161139 0.000000 
VECTORS X_EC float 
0.338794 -0.186404 0.000000 
-0.609100 0.894847 0.000000 
0.713312 -0.994012 0.000000 
0.374519 0.386558 0.000000 
0.423588 0.029828 0.000000 
-0.218274 0.063931 0.000000 
-0.513962 -0.660307 0.000000 
0.756418 -0.448821 0.000000 
0.381900 -0.991214 0.000000 
-0.550868 -0.822775 0.000000 
0.823577 -0.811980 0.000000 
0.556234 0.414516 0.000000 
-0.139443 0.532085 0.000000 
-0.484677 -0.106040 0.000000 
0.766286 0.159176 0.000000 
0.384386 -0.355445 0.000000 
0.474677 0.324622 0.000000 
-0.141715 0.324525 0.000000 
-0.385608 -0.484703 0.000000 
0.937896 -0.405508 0.000000 
0.621631 0.890912 0.000000 
-0.105264 -0.927188 0.000000 
-0.467428 0.474185 0.000000 
0.771260 0.780714 0.000000 
0.386873 0.280324 0.000000 
0.761262 0.363730 0.000000 
0.108942 0.645107 0.000000 
-0.397202 0.164267 0.000000 
-0.142083 -0.497008 0.000000 
-0.595936 0.944217 0.000000 
0.978194 0.444351 0.000000 
-0.660903 -0.247274 0.000000 
0.724964 -0.707794 0.000000 
0.899809 0.649958 0.000000 
0.685384 -0.754731 0.000000 
0.287229 0.744111 0.000000 
0.702895 0.044783 0.000000 
0.180633 -0.446736 0.000000 
0.445811 0.875104 0.000000 
-0.220880 0.432318 0.000000 
-0.071546 -0.198607 0.000000 
-0.033296 -0.453678 0.000000 
-0.417537 -0.954188 0.000000 
0.039645 0.343250 0.000000 
-0.441768 -0.156622 0.000000 
-0.109248 -0.852072 0.000000 
-0.699407 0.671172 0.000000 
-0.474522 0.003893 0.000000 
0.820030 -0.423100 0.000000 
0.957100 0.952828 0.000000 
0.610485 -0.950264 0.000000 
-0.761092 0.319356 0.000000 
-0.714655 -0.391382 0.000000 
-0.057734 -0.596549 0.000000 
-0.178789 -0.442640 0.000000 
-0.067979 0.899934 0.000000 
0.677748 0.761730 0.000000 
0.641556 -0.024015 0.000000 
-0.765897 -0.282493 0.000000 
0.393446 0.785369 0.000000 
0.522510 0.149639 0.000000 
-0.691820 0.051095 0.000000 
-0.647393 -0.679388 0.000000 
0.028512 -0.886914 0.000000 
-0.053800 0.295725 0.000000 
0.514316 0.023594 0.000000 
0.965681 0.013378 0.000000 
-0.897068 -0.610651 0.000000 
-0.083078 -0.677504 0.000000 
-0.006893 0.619972 0.000000 
0.724017 0.456339 0.000000 
0.714996 -0.320065 0.000000 
-0.642413 -0.553522 0.000000 
-0.760780 0.607497 0.000000 
-0.205471 0.329682 0.000000 
0.000000 -0.644962 0.000000 
-0.564049 0.656851 0.000000 
0.000000 0.251415 0.000000 
0.564049 0.656851 0.000000 
0.866949 -0.098494 0.000000 
-0.569003 -0.418425 0.000000 
0.000000 0.100863 0.000000 
0.569003 -0.418425 0.000000 
-0.866949 -0.098494 0.000000 
0.299194 -0.868244 0.000000 
0.858290 0.840172 0.000000 
-0.577662 -0.583382 0.000000 
0.000000 0.997240 0.000000 
0.577662 -0.583382 0.000000 
-0.858290 0.840172 0.000000 
-0.299194 -0.868244 0.000000 
-0.268560 0.362006 0.000000 
0.286830 0.084365 0.000000 
0.844677 0.703563 0.000000 
-0.578910 0.327400 0.000000 
0.000000 0.818804 0.000000 
0.578910 0.327400 0.000000 
-0.844677 0.703563 0.000000 
-0.286830 0.084365 0.000000 
0.268560 0.362006 0.000000 
-0.610485 -0.950264 0.000000 
0.057734 -0.596549 0.000000 
0.714655 -0.391382 0.000000 
0.761092 0.319356 0.000000 
0.765897 -0.282493 0.000000 
-0.641556 -0.024015 0.000000 
-0.677748 0.761730 0.000000 
0.067979 0.899934 0.000000 
0.178789 -0.442640 0.000000 
-0.514316 0.023594 0.000000 
0.053800 0.295725 0.000000 
-0.028512 -0.886914 0.000000 
0.647393 -0.679388 0.000000 
0.691820 0.051095 0.000000 
-0.522510 0.149639 0.000000 
-0.393446 0.785369 0.000000 
0.205471 0.329682 0.000000 
0.760780 0.607497 0.000000 
0.642413 -0.553522 0.000000 
-0.714996 -0.320065 0.000000 
-0.724017 0.456339 0.000000 
0.006894 0.619972 0.000000 
0.083078 -0.677504 0.000000 
0.897068 -0.610651 0.000000 
-0.965681 0.013378 0.000000 
-0.761262 0.363730 0.000000 
0.142083 -0.497008 0.000000 
0.397202 0.164267 0.000000 
-0.108942 0.645107 0.000000 
-0.899809 0.649958 0.000000 
-0.724964 -0.707794 0.000000 
0.660903 -0.247274 0.000000 
-0.978194 0.444351 0.000000 
0.595936 0.944217 0.000000 
0.071546 -0.198607 0.000000 
0.220880 0.432318 0.000000 
-0.445811 0.875104 0.000000 
-0.180633 -0.446736 0.000000 
-0.702895 0.044783 0.000000 
-0.287229 0.744111 0.000000 
-0.685384 -0.754730 0.000000 
-0.957100 0.952828 0.000000 
-0.820030 -0.423100 0.000000 
0.474522 0.003893 0.000000 
0.699407 0.671172 0.000000 
0.109248 -0.852072 0.000000 
0.441768 -0.156622 0.000000 
-0.039645 0.343250 0.000000 
0.417537 -0.954188 0.000000 
0.033296 -0.453678 0.000000 
-0.338794 -0.186404 0.000000 
-0.374519 0.386558 0.000000 
-0.713312 -0.994012 0.000000 
0.609100 0.894847 0.000000 
-0.381900 -0.991214 0.000000 
-0.756418 -0.448821 0.000000 
0.513962 -0.660307 0.000000 
0.218274 0.063931 0.000000 
-0.423588 0.029828 0.000000 
-0.384386 -0.355445 0.000000 
-0.766286 0.159176 0.000000 
0.484677 -0.106040 0.000000 
0.139443 0.532085 0.000000 
-0.556234 0.414516 0.000000 
-0.823577 -0.811980 0.000000 
0.550868 -0.822775 0.000000 
-0.386873 0.280324 0.000000 
-0.771260 0.780714 0.000000 
0.467428 0.474185 0.000000 
0.105264 -0.927188 0.000000 
-0.621631 0.890912 0.000000 
-0.937896 -0.405508 0.000000 
0.385608 -0.484703 0.000000 
0.141715 0.324525 0.000000 
-0.474677 0.324622 0.000000 
CELL_DATA 175 
SCALARS MASS float 
LOOKUP_TABLE default 
0.781831 
0.864274 
0.946717 
0.864274 
0.881307 
0.921110 
0.858535 
0.921110 
0.881307 
0.887046 
0.910001 
0.869829 
0.915556 
0.869829 
0.910001 
0.887046 
0.892784 
0.915740 
0.892784 
0.927218 
0.892784 
0.927218 
0.892784 
0.915740 
0.892784 
0.781831 
0.864274 
0.946717 
0.864274 
0.881307 
0.921110 
0.858535 
0.921110 
0.881307 
0.887046 
0.910001 
0.869829 
0.915556 
0.869829 
0.910001 
0.887046 
0.892784 
0.915740 
0.892784 
0.927218 
0.892784 
0.927218 
0.892784 
0.915740 
0.892784 
0.781831 
0.864274 
0.946717 
0.864274 
0.881307 
0.921110 
0.858535 
0.921110 
0.881307 
0.887046 
0.910001 
0.869829 
0.915556 
0.869829 
0.910001 
0.887046 
0.892784 
0.915740 
0.892784 
0.927218 
0.892784 
0.927218 
0.892784 
0.915740 
0.892784 
0.781831 
0.864274 
0.946717 
0.864274 
0.881307 
0.921110 
0.858535 
0.921110 
0.881307 
0.887046 
0.910001 
0.869829 
0.915556 
0.869829 
0.910001 
0.887046 
0.892784 
0.915740 
0.892784 
0.927218 
0.892784 
0.927218 
0.892784 
0.915740 
0.892784 
0.781831 
0.864274 
0.946717 
0.864274 
0.881307 
0.921110 
0.858535 
0.921110 
0.881307 
0.887046 
0.910001 
0.869829 
0.915556 
0.869829 
0.910001 
0.887046 
0.892784 
0.915740 
0.892784 
0.927218 
0.892784 
0.927218 
0.892784 
0.915740 
0.892784 
0.781831 
0.864274 
0.946717 
0.864274 
0.881307 
0.921110 
0.858535 
0.921110 
0.881307 
0.887046 
0.910001 
0.869829 
0.915556 
0.869829 
0.910001 
0.887046 
0.892784 
0.915740 
0.892784 
0.927218 
0.892784 
0.927218 
0.892784 
0.915740 
0.892784 
0.781831 
0.864274 
0.946717 
0.864274 
0.881307 
0.921110 
0.858535 
0.921110 
0.881307 
0.887046 
0.910001 
0.869829 
0.915556 
0.869829 
0.910001 
0.887046 
0.892784 
0.915740 
0.892784 
0.927218 
0.892784 
0.927218 
0.892784 
0.915740 
0.892784 
SCALARS MASS float 
LOOKUP_TABLE default 
0.781831 
0.864274 
0.946717 
0.864274 
0.881307 
0.921110 
0.858535 
0.921110 
0.881307 
0.887046 
0.910001 
0.869829 
0.915556 
0.869829 
0.910001 
0.887046 
0.892784 
0.915740 
0.892784 
0.927218 
0.892784 
0.927218 
0.892784 
0.915740 
0.892784 
0.781831 
0.864274 
0.946717 
0.864274 
0.881307 
0.921110 
0.858535 
0.921110 
0.881307 
0.887046 
0.910001 
0.869829 
0.915556 
0.869829 
0.910001 
0.887046 
0.892784 
0.915740 
0.892784 
0.927218 
0.892784 
0.927218 
0.892784 
0.915740 
0.892784 
0.781831 
0.864274 
0.946717 
0.864274 
0.881307 
0.921110 
0.858535 
0.921110 
0.881307 
0.887046 
0.910001 
0.869829 
0.915556 
0.869829 
0.910001 
0.887046 
0.892784 
0.915740 
0.892784 
0.927218 
0.892784 
0.927218 
0.892784 
0.915740 
0.892784 
0.781831 
0.864274 
0.946717 
0.864274 
0.881307 
0.921110 
0.858535 
0.921110 
0.881307 
0.887046 
0.910001 
0.869829 
0.915556 
0.869829 
0.910001 
0.887046 
0.892784 
0.915740 
0.892784 
0.927218 
0.892784 
0.927218 
0.892784 
0.915740 
0.892784 
0.781831 
0.864274 
0.946717 
0.864274 
0.881307 
0.921110 
0.858535 
0.921110 
0.881307 
0.887046 
0.910001 
0.869829 
0.915556 
0.869829 
0.910001 
0.887046 
0.892784 
0.915740 
0.892784 
0.927218 
0.892784 
0.927218 
0.892784 
0.915740 
0.892784 
0.781831 
0.864274 
0.946717 
0.864274 
0.881307 
0.921110 
0.858535 
0.921110 
0.881307 
0.887046 
0.910001 
0.869829 
0.915556 
0.869829 
0.910001 
0.887046 
0.892784 
0.915740 
0.892784 
0.927218 
0.892784 
0.927218 
0.892784 
0.915740 
0.892784 
0.781831 
0.864274 
0.946717 
0.864274 
0.881307 
0.921110 
0.858535 
0.921110 
0.881307 
0.887046 
0.910001 
0.869829 
0.915556 
0.869829 
0.910001 
0.887046 
0.892784 
0.915740 
0.892784 
0.927218 
0.892784 
0.927218 
0.892784 
0.915740 
0.892784 
SCALARS DENSITY float 
LOOKUP_TABLE default 
200.000000 
200.000000 
200.000000 
200.000000 
200.000000 
200.000000 
200.000000 
200.000000 
200.000000 
200.000000 
200.000000 
200.000000 
200.000000 
200.000000 
200.000000 
200.000000 
200.000000 
200.000000 
200.000000 
200.000000 
200.000000 
200.000000 
200.000000 
200.000000 
200.000000 
200.000000 
200.000000 
200.000000 
200.000000 
200.000000 
200.000000 
200.000000 
200.000000 
200.000000 
200.000000 
200.000000 
200.000000 
200.000000 
200.000000 
200.000000 
200.000000 
200.000000 
200.000000 
200.000000 
200.000000 
200.000000 
200.000000 
200.000000 
200.000000 
200.000000 
200.000000 
200.000000 
200.000000 
200.000000 
200.000000 
200.000000 
200.000000 
200.000000 
200.000000 
200.000000 
200.000000 
200.000000 
200.000000 
200.000000 
200.000000 
200.000000 
200.000000 
200.000000 
200.000000 
200.000000 
200.000000 
200.000000 
200.000000 
200.000000 
200.000000 
200.000000 
200.000000 
200.000000 
200.000000 
200.000000 
200.000000 
200.000000 
200.000000 
200.000000 
200.000000 
200.000000 
200.000000 
200.000000 
200.000000 
200.000000 
200.000000 
200.000000 
200.000000 
200.000000 
200.000000 
200.000000 
200.000000 
200.000000 
200.000000 
200.000000 
200.000000 
200.000000 
200.000000 
200.000000 
200.000000 
200.000000 
200.000000 
200.000000 
200.000000 
200.000000 
200.000000 
200.000000 
200.000000 
200.000000 
200.000000 
200.000000 
200.000000 
200.000000 
200.000000 
200.000000 
200.000000 
200.000000 
200.000000 
200.000000 
200.000000 
200.000000 
200.000000 
200.000000 
200.000000 
200.000000 
200.000000 
200.000000 
200.000000 
200.000000 
200.000000 
200.000000 
200.000000 
200.000000 
200.000000 
200.000000 
200.000000 
200.000000 
200.000000 
200.000000 
200.000000 
200.000000 
200.000000 
200.000000 
200.000000 
200.000000 
200.000000 
200.000000 
200.000000 
200.000000 
200.000000 
200.000000 
200.000000 
200.000000 
200.000000 
200.000000 
200.000000 
200.000000 
200.000000 
200.000000 
200.000000 
200.000000 
200.000000 
200.000000 
200.000000 
200.000000 
200.000000 
200.000000 
200.000000 
200.000000 
200.000000 
SCALARS ELEM_i float 
LOOKUP_TABLE default 
181 
209 
181 
182 
209 
209 
209 
182 
182 
236 
209 
210 
210 
210 
183 
183 
237 
237 
237 
210 
211 
210 
211 
184 
184 
181 
208 
208 
208 
235 
208 
235 
208 
209 
234 
235 
235 
235 
236 
236 
236 
261 
261 
262 
262 
262 
263 
263 
236 
237 
180 
207 
207 
207 
206 
207 
207 
207 
234 
206 
206 
233 
233 
233 
234 
234 
205 
232 
232 
233 
233 
233 
260 
261 
261 
180 
180 
180 
180 
152 
179 
179 
179 
206 
151 
152 
178 
179 
178 
206 
205 
151 
151 
151 
178 
178 
178 
205 
205 
205 
180 
153 
153 
153 
126 
153 
153 
153 
152 
126 
126 
125 
125 
125 
152 
152 
99 
99 
98 
125 
125 
125 
124 
124 
151 
181 
154 
154 
154 
155 
154 
127 
154 
127 
128 
128 
128 
127 
127 
127 
126 
129 
128 
101 
101 
100 
100 
100 
99 
99 
181 
182 
181 
155 
182 
182 
155 
155 
155 
183 
183 
156 
156 
156 
155 
128 
184 
184 
157 
156 
157 
156 
129 
129 
129 
VECTORS VELOCITY float 
-0.000000 -1.722636 0.000000 
-0.000000 -1.722636 0.000000 
-0.000000 -1.722636 0.000000 
-0.000000 -1.722636 0.000000 
0.000000 -1.722636 0.000000 
0.000000 -1.722636 0.000000 
0.000000 -1.722636 0.000000 
0.000000 -1.722636 0.000000 
0.000000 -1.722636 0.000000 
-0.000000 -1.722636 0.000000 
-0.000000 -1.722636 0.000000 
0.000000 -1.722636 0.000000 
0.000000 -1.722636 0.000000 
0.000000 -1.722636 0.000000 
-0.000000 -1.722636 0.000000 
-0.000000 -1.722636 0.000000 
-0.000000 -1.722636 0.000000 
-0.000000 -1.722636 0.000000 
0.000000 -1.722636 0.000000 
0.000000 -1.722636 0.000000 
0.000000 -1.722636 0.000000 
0.000000 -1.722636 0.000000 
-0.000000 -1.722636 0.000000 
-0.000000 -1.722636 0.000000 
-0.000000 -1.722636 0.000000 
-0.000000 -1.722636 0.000000 
0.000000 -1.722636 0.000000 
0.000000 -1.722636 0.000000 
0.000000 -1.722636 0.000000 
-0.000000 -1.722636 0.000000 
0.000000 -1.722636 0.000000 
0.000000 -1.722636 0.000000 
0.000000 -1.722636 0.000000 
0.000000 -1.722636 0.000000 
0.000000 -1.722636 0.000000 
-0.000000 -1.722636 0.000000 
-0.000000 -1.722636 0.000000 
-0.000000 -1.722636 0.000000 
-0.000000 -1.722636 0.000000 
0.000000 -1.722636 0.000000 
-0.000000 -1.722636 0.000000 
-0.000000 -1.722636 0.000000 
-0.000000 -1.722636 0.000000 
0.000000 -1.722636 0.000000 
0.000000 -1.722636 0.000000 
0.000000 -1.722636 0.000000 
-0.000000 -1.722636 0.000000 
-0.000000 -1.722636 0.000000 
-0.000000 -1.722636 0.000000 
-0.000000 -1.722636 0.000000 
0.000000 -1.722636 0.000000 
0.000000 -1.722636 0.000000 
0.000000 -1.722636 0.000000 
0.000000 -1.722636 0.000000 
0.000000 -1.722636 0.000000 
0.000000 -1.722636 0.000000 
-0.000000 -1.722636 0.000000 
-0.000000 -1.722636 0.000000 
-0.000000 -1.722636 0.000000 
0.000000 -1.722636 0.000000 
0.000000 -1.722636 0.000000 
0.000000 -1.722636 0.000000 
0.000000 -1.722636 0.000000 
-0.000000 -1.722636 0.000000 
-0.000000 -1.722636 0.000000 
-0.000000 -1.722636 0.000000 
0.000000 -1.722636 0.000000 
0.000000 -1.722636 0.000000 
0.000000 -1.722636 0.000000 
-0.000000 -1.722636 0.000000 
-0.000000 -1.722636 0.000000 
-0.000000 -1.722636 0.000000 
-0.000000 -1.722636 0.000000 
-0.000000 -1.722636 0.000000 
-0.000000 -1.722636 0.000000 
0.000000 -1.722636 0.000000 
-0.000000 -1.722636 0.000000 
0.000000 -1.722636 0.000000 
0.000000 -1.722636 0.000000 
0.000000 -1.722636 0.000000 
-0.000000 -1.722636 0.000000 
-0.000000 -1.722636 0.000000 
0.000000 -1.722636 0.000000 
-0.000000 -1.722636 0.000000 
-0.000000 -1.722636 0.000000 
0.000000 -1.722636 0.000000 
-0.000000 -1.722636 0.000000 
-0.000000 -1.722636 0.000000 
-0.000000 -1.722636 0.000000 
-0.000000 -1.722636 0.000000 
-0.000000 -1.722636 0.000000 
-0.000000 -1.722636 0.000000 
-0.000000 -1.722636 0.000000 
-0.000000 -1.722636 0.000000 
-0.000000 -1.722636 0.000000 
-0.000000 -1.722636 0.000000 
-0.000000 -1.722636 0.000000 
-0.000000 -1.722636 0.000000 
-0.000000 -1.722636 0.000000 
0.000000 -1.722636 0.000000 
0.000000 -1.722636 0.000000 
0.000000 -1.722636 0.000000 
0.000000 -1.722636 0.000000 
-0.000000 -1.722636 0.000000 
0.000000 -1.722636 0.000000 
0.000000 -1.722636 0.000000 
0.000000 -1.722636 0.000000 
-0.000000 -1.722636 0.000000 
-0.000000 -1.722636 0.000000 
-0.000000 -1.722636 0.000000 
-0.000000 -1.722636 0.000000 
-0.000000 -1.722636 0.000000 
-0.000000 -1.722636 0.000000 
-0.000000 -1.722636 0.000000 
-0.000000 -1.722636 0.000000 
-0.000000 -1.722636 0.000000 
0.000000 -1.722636 0.000000 
-0.000000 -1.722636 0.000000 
-0.000000 -1.722636 0.000000 
-0.000000 -1.722636 0.000000 
0.000000 -1.722636 0.000000 
-0.000000 -1.722636 0.000000 
-0.000000 -1.722636 0.000000 
-0.000000 -1.722636 0.000000 
-0.000000 -1.722636 0.000000 
0.000000 -1.722636 0.000000 
0.000000 -1.722636 0.000000 
0.000000 -1.722636 0.000000 
0.000000 -1.722636 0.000000 
-0.000000 -1.722636 0.000000 
-0.000000 -1.722636 0.000000 
0.000000 -1.722636 0.000000 
0.000000 -1.722636 0.000000 
0.000000 -1.722636 0.000000 
-0.000000 -1.722636 0.000000 
-0.000000 -1.722636 0.000000 
-0.000000 -1.722636 0.000000 
-0.000000 -1.722636 0.000000 
-0.000000 -1.722636 0.000000 
-0.000000 -1.722636 0.000000 
-0.000000 -1.722636 0.000000 
-0.000000 -1.722636 0.000000 
-0.000000 -1.722636 0.000000 
-0.000000 -1.722636 0.000000 
0.000000 -1.722636 0.000000 
0.000000 -1.722636 0.000000 
-0.000000 -1.722636 0.000000 
-0.000000 -1.722636 0.000000 
-0.000000 -1.722636 0.000000 
-0.000000 -1.722636 0.000000 
0.000000 -1.722636 0.000000 
0.000000 -1.722636 0.000000 
0.000000 -1.722636 0.000000 
0.000000 -1.722636 0.000000 
0.000000 -1.722636 0.000000 
0.000000 -1.722636 0.000000 
0.000000 -1.722636 0.000000 
0.000000 -1.722636 0.000000 
0.000000 -1.722636 0.000000 
0.000000 -1.722636 0.000000 
0.000000 -1.722636 0.000000 
0.000000 -1.722636 0.000000 
0.000000 -1.722636 0.000000 
0.000000 -1.722636 0.000000 
0.000000 -1.722636 0.000000 
0.000000 -1.722636 0.000000 
0.000000 -1.722636 0.000000 
0.000000 -1.722636 0.000000 
0.000000 -1.722636 0.000000 
0.000000 -1.722636 0.000000 
-0.000000 -1.722636 0.000000 
-0.000000 -1.722636 0.000000 
0.000000 -1.722636 0.000000 
0.000000 -1.722636 0.000000 
0.000000 -1.722636 0.000000 
TENSORS STRESS float 
0.000000 -0.000000 0.000000 
0.000000 0.000000 0.000000 
0.000000 0.000000 0.000000 

0.000000 0.000000 0.000000 
0.000000 0.000000 0.000000 
0.000000 0.000000 0.000000 

0.000000 0.000000 0.000000 
0.000000 0.000000 0.000000 
0.000000 0.000000 0.000000 

-0.000000 0.000000 0.000000 
0.000000 -0.000000 0.000000 
0.000000 0.000000 0.000000 

0.000000 0.000000 0.000000 
0.000000 0.000000 0.000000 
0.000000 0.000000 0.000000 

0.000000 0.000000 0.000000 
0.000000 0.000000 0.000000 
0.000000 0.000000 0.000000 

0.000000 0.000000 0.000000 
0.000000 0.000000 0.000000 
0.000000 0.000000 0.000000 

0.000000 0.000000 0.000000 
0.000000 0.000000 0.000000 
0.000000 0.000000 0.000000 

-0.000000 -0.000000 0.000000 
0.000000 -0.000000 0.000000 
0.000000 0.000000 0.000000 

0.000000 -0.000000 0.000000 
0.000000 -0.000000 0.000000 
0.000000 0.000000 0.000000 

0.000000 0.000000 0.000000 
0.000000 -0.000000 0.000000 
0.000000 0.000000 0.000000 

0.000000 0.000000 0.000000 
0.000000 0.000000 0.000000 
0.000000 0.000000 0.000000 

-0.000000 0.000000 0.000000 
0.000000 -0.000000 0.000000 
0.000000 0.000000 0.000000 

-0.000000 0.000000 0.000000 
0.000000 -0.000000 0.000000 
0.000000 0.000000 0.000000 

-0.000000 0.000000 0.000000 
0.000000 -0.000000 0.000000 
0.000000 0.000000 0.000000 

0.000000 0.000000 0.000000 
0.000000 0.000000 0.000000 
0.000000 0.000000 0.000000 

0.000000 -0.000000 0.000000 
0.000000 0.000000 0.000000 
0.000000 0.000000 0.000000 

0.000000 -0.000000 0.000000 
0.000000 -0.000000 0.000000 
0.000000 0.000000 0.000000 

-0.000000 -0.000000 0.000000 
0.000000 -0.000000 0.000000 
0.000000 0.000000 0.000000 

-0.000000 0.000000 0.000000 
0.000000 -0.000000 0.000000 
0.000000 0.000000 0.000000 

-0.000000 0.000000 0.000000 
0.000000 -0.000000 0.000000 
0.000000 0.000000 0.000000 

-0.000000 0.000000 0.000000 
0.000000 -0.000000 0.000000 
0.000000 0.000000 0.000000 

-0.000000 0.000000 0.000000 
0.000000 -0.000000 0.000000 
0.000000 0.000000 0.000000 

0.000000 0.000000 0.000000 
0.000000 0.000000 0.000000 
0.000000 0.000000 0.000000 

0.000000 0.000000 0.000000 
0.000000 0.000000 0.000000 
0.000000 0.000000 0.000000 

-0.000000 0.000000 0.000000 
0.000000 -0.000000 0.000000 
0.000000 0.000000 0.000000 

0.000000 0.000000 0.000000 
0.000000 0.000000 0.000000 
0.000000 0.000000 0.000000 

0.000000 0.000000 0.000000 
0.000000 0.000000 0.000000 
0.000000 0.000000 0.000000 

0.000000 0.000000 0.000000 
0.000000 0.000000 0.000000 
0.000000 0.000000 0.000000 

-0.000000 0.000000 0.000000 
0.000000 -0.000000 0.000000 
0.000000 0.000000 0.000000 

0.000000 0.000000 0.000000 
0.000000 0.000000 0.000000 
0.000000 0.000000 0.000000 

-0.000000 0.000000 0.000000 
0.000000 0.000000 0.000000 
0.000000 0.000000 0.000000 

0.000000 0.000000 0.000000 
0.000000 0.000000 0.000000 
0.000000 0.000000 0.000000 

0.000000 0.000000 0.000000 
0.000000 0.000000 0.000000 
0.000000 0.000000 0.000000 

-0.000000 0.000000 0.000000 
0.000000 -0.000000 0.000000 
0.000000 0.000000 0.000000 

-0.000000 0.000000 0.000000 
0.000000 0.000000 0.000000 
0.000000 0.000000 0.000000 

0.000000 0.000000 0.000000 
0.000000 0.000000 0.000000 
0.000000 0.000000 0.000000 

-0.000000 -0.000000 0.000000 
0.000000 -0.000000 0.000000 
0.000000 0.000000 0.000000 

-0.000000 0.000000 0.000000 
0.000000 -0.000000 0.000000 
0.000000 0.000000 0.000000 

-0.000000 0.000000 0.000000 
0.000000 -0.000000 0.000000 
0.000000 0.000000 0.000000 

0.000000 0.000000 0.000000 
0.000000 0.000000 0.000000 
0.000000 0.000000 0.000000 

0.000000 0.000000 0.000000 
0.000000 0.000000 0.000000 
0.000000 0.000000 0.000000 

0.000000 -0.000000 0.000000 
0.000000 0.000000 0.000000 
0.000000 0.000000 0.000000 

0.000000 0.000000 0.000000 
0.000000 0.000000 0.000000 
0.000000 0.000000 0.000000 

-0.000000 0.000000 0.000000 
0.000000 -0.000000 0.000000 
0.000000 0.000000 0.000000 

-0.000000 0.000000 0.000000 
0.000000 -0.000000 0.000000 
0.000000 0.000000 0.000000 

0.000000 0.000000 0.000000 
0.000000 0.000000 0.000000 
0.000000 0.000000 0.000000 

0.000000 0.000000 0.000000 
0.000000 0.000000 0.000000 
0.000000 0.000000 0.000000 

0.000000 -0.000000 0.000000 
0.000000 0.000000 0.000000 
0.000000 0.000000 0.000000 

-0.000000 -0.000000 0.000000 
0.000000 -0.000000 0.000000 
0.000000 0.000000 0.000000 

0.000000 -0.000000 0.000000 
0.000000 0.000000 0.000000 
0.000000 0.000000 0.000000 

0.000000 0.000000 0.000000 
0.000000 0.000000 0.000000 
0.000000 0.000000 0.000000 

0.000000 -0.000000 0.000000 
0.000000 0.000000 0.000000 
0.000000 0.000000 0.000000 

-0.000000 0.000000 0.000000 
0.000000 -0.000000 0.000000 
0.000000 0.000000 0.000000 

-0.000000 0.000000 0.000000 
0.000000 -0.000000 0.000000 
0.000000 0.000000 0.000000 

0.000000 0.000000 0.000000 
0.000000 0.000000 0.000000 
0.000000 0.000000 0.000000 

0.000000 0.000000 0.000000 
0.000000 0.000000 0.000000 
0.000000 0.000000 0.000000 

-0.000000 -0.000000 0.000000 
0.000000 -0.000000 0.000000 
0.000000 0.000000 0.000000 

-0.000000 0.000000 0.000000 
0.000000 -0.000000 0.000000 
0.000000 0.000000 0.000000 

0.000000 0.000000 0.000000 
0.000000 0.000000 0.000000 
0.000000 0.000000 0.000000 

0.000000 0.000000 0.000000 
0.000000 0.000000 0.000000 
0.000000 0.000000 0.000000 

0.000000 0.000000 0.000000 
0.000000 0.000000 0.000000 
0.000000 0.000000 0.000000 

-0.000000 0.000000 0.000000 
0.000000 -0.000000 0.000000 
0.000000 0.000000 0.000000 

0.000000 0.000000 0.000000 
0.000000 0.000000 0.000000 
0.000000 0.000000 0.000000 

0.000000 0.000000 0.000000 
0.000000 0.000000 0.000000 
0.000000 0.000000 0.000000 

-0.000000 0.000000 0.000000 
0.000000 -0.000000 0.000000 
0.000000 0.000000 0.000000 

-0.000000 -0.000000 0.000000 
0.000000 -0.000000 0.000000 
0.000000 0.000000 0.000000 

0.000000 -0.000000 0.000000 
0.000000 0.000000 0.000000 
0.000000 0.000000 0.000000 

0.000000 0.000000 0.000000 
0.000000 0.000000 0.000000 
0.000000 0.000000 0.000000 

-0.000000 0.000000 0.000000 
0.000000 -0.000000 0.000000 
0.000000 0.000000 0.000000 

-0.000000 0.000000 0.000000 
0.000000 -0.000000 0.000000 
0.000000 0.000000 0.000000 

-0.000000 0.000000 0.000000 
0.000000 -0.000000 0.000000 
0.000000 0.000000 0.000000 

-0.000000 -0.000000 0.000000 
0.000000 -0.000000 0.000000 
0.000000 0.000000 0.000000 

-0.000000 -0.000000 0.000000 
0.000000 -0.000000 0.000000 
0.000000 0.000000 0.000000 

-0.000000 -0.000000 0.000000 
0.000000 -0.000000 0.000000 
0.000000 0.000000 0.000000 

-0.000000 0.000000 0.000000 
0.000000 -0.000000 0.000000 
0.000000 0.000000 0.000000 

0.000000 -0.000000 0.000000 
0.000000 0.000000 0.000000 
0.000000 0.000000 0.000000 

-0.000000 0.000000 0.000000 
0.000000 -0.000000 0.000000 
0.000000 0.000000 0.000000 

-0.000000 -0.000000 0.000000 
0.000000 -0.000000 0.000000 
0.000000 0.000000 0.000000 

0.000000 -0.000000 0.000000 
0.000000 0.000000 0.000000 
0.000000 0.000000 0.000000 

0.000000 -0.000000 0.000000 
0.000000 0.000000 0.000000 
0.000000 0.000000 0.000000 

-0.000000 -0.000000 0.000000 
0.000000 -0.000000 0.000000 
0.000000 0.000000 0.000000 

-0.000000 -0.000000 0.000000 
0.000000 -0.000000 0.000000 
0.000000 0.000000 0.000000 

-0.000000 0.000000 0.000000 
0.000000 -0.000000 0.000000 
0.000000 0.000000 0.000000 

-0.000000 0.000000 0.000000 
0.000000 -0.000000 0.000000 
0.000000 0.000000 0.000000 

0.000000 -0.000000 0.000000 
0.000000 0.000000 0.000000 
0.000000 0.000000 0.000000 

0.000000 -0.000000 0.000000 
0.000000 0.000000 0.000000 
0.000000 0.000000 0.000000 

0.000000 -0.000000 0.000000 
0.000000 0.000000 0.000000 
0.000000 0.000000 0.000000 

-0.000000 -0.000000 0.000000 
0.000000 -0.000000 0.000000 
0.000000 0.000000 0.000000 

0.000000 0.000000 0.000000 
0.000000 0.000000 0.000000 
0.000000 0.000000 0.000000 

0.000000 0.000000 0.000000 
0.000000 0.000000 0.000000 
0.000000 0.000000 0.000000 

-0.000000 -0.000000 0.000000 
0.000000 -0.000000 0.000000 
0.000000 0.000000 0.000000 

0.000000 0.000000 0.000000 
0.000000 0.000000 0.000000 
0.000000 0.000000 0.000000 

-0.000000 -0.000000 0.000000 
0.000000 -0.000000 0.000000 
0.000000 0.000000 0.000000 

-0.000000 -0.000000 0.000000 
0.000000 -0.000000 0.000000 
0.000000 0.000000 0.000000 

0.000000 -0.000000 0.000000 
0.000000 0.000000 0.000000 
0.000000 0.000000 0.000000 

0.000000 -0.000000 0.000000 
0.000000 0.000000 0.000000 
0.000000 0.000000 0.000000 

0.000000 0.000000 0.000000 
0.000000 0.000000 0.000000 
0.000000 0.000000 0.000000 

0.000000 0.000000 0.000000 
0.000000 0.000000 0.000000 
0.000000 0.000000 0.000000 

0.000000 0.000000 0.000000 
0.000000 0.000000 0.000000 
0.000000 0.000000 0.000000 

0.000000 0.000000 0.000000 
0.000000 0.000000 0.000000 
0.000000 0.000000 0.000000 

0.000000 0.000000 0.000000 
0.000000 0.000000 0.000000 
0.000000 0.000000 0.000000 

-0.000000 0.000000 0.000000 
0.000000 -0.000000 0.000000 
0.000000 0.000000 0.000000 

0.000000 -0.000000 0.000000 
0.000000 0.000000 0.000000 
0.000000 0.000000 0.000000 

-0.000000 -0.000000 0.000000 
0.000000 -0.000000 0.000000 
0.000000 0.000000 0.000000 

0.000000 0.000000 0.000000 
0.000000 0.000000 0.000000 
0.000000 0.000000 0.000000 

0.000000 -0.000000 0.000000 
0.000000 0.000000 0.000000 
0.000000 0.000000 0.000000 

-0.000000 -0.000000 0.000000 
0.000000 -0.000000 0.000000 
0.000000 0.000000 0.000000 

0.000000 -0.000000 0.000000 
0.000000 0.000000 0.000000 
0.000000 0.000000 0.000000 

-0.000000 0.000000 0.000000 
0.000000 -0.000000 0.000000 
0.000000 0.000000 0.000000 

0.000000 0.000000 0.000000 
0.000000 0.000000 0.000000 
0.000000 0.000000 0.000000 

-0.000000 0.000000 0.000000 
0.000000 -0.000000 0.000000 
0.000000 0.000000 0.000000 

0.000000 0.000000 0.000000 
0.000000 0.000000 0.000000 
0.000000 0.000000 0.000000 

0.000000 -0.000000 0.000000 
0.000000 0.000000 0.000000 
0.000000 0.000000 0.000000 

-0.000000 -0.000000 0.000000 
0.000000 -0.000000 0.000000 
0.000000 0.000000 0.000000 

-0.000000 -0.000000 0.000000 
0.000000 -0.000000 0.000000 
0.000000 0.000000 0.000000 

0.000000 0.000000 0.000000 
0.000000 0.000000 0.000000 
0.000000 0.000000 0.000000 

-0.000000 -0.000000 0.000000 
0.000000 -0.000000 0.000000 
0.000000 0.000000 0.000000 

-0.000000 0.000000 0.000000 
0.000000 -0.000000 0.000000 
0.000000 0.000000 0.000000 

0.000000 0.000000 0.000000 
0.000000 0.000000 0.000000 
0.000000 0.000000 0.000000 

0.000000 0.000000 0.000000 
0.000000 0.000000 0.000000 
0.000000 0.000000 0.000000 

0.000000 0.000000 0.000000 
0.000000 0.000000 0.000000 
0.000000 0.000000 0.000000 

-0.000000 0.000000 0.000000 
0.000000 -0.000000 0.000000 
0.000000 0.000000 0.000000 

0.000000 0.000000 0.000000 
0.000000 0.000000 0.000000 
0.000000 0.000000 0.000000 

0.000000 0.000000 0.000000 
0.000000 0.000000 0.000000 
0.000000 0.000000 0.000000 

0.000000 0.000000 0.000000 
0.000000 0.000000 0.000000 
0.000000 0.000000 0.000000 

-0.000000 -0.000000 0.000000 
0.000000 -0.000000 0.000000 
0.000000 0.000000 0.000000 

-0.000000 0.000000 0.000000 
0.000000 -0.000000 0.000000 
0.000000 0.000000 0.000000 

0.000000 0.000000 0.000000 
0.000000 -0.000000 0.000000 
0.000000 0.000000 0.000000 

-0.000000 0.000000 0.000000 
0.000000 -0.000000 0.000000 
0.000000 0.000000 0.000000 

-0.000000 -0.000000 0.000000 
0.000000 -0.000000 0.000000 
0.000000 0.000000 0.000000 

-0.000000 -0.000000 0.000000 
0.000000 -0.000000 0.000000 
0.000000 0.000000 0.000000 

-0.000000 0.000000 0.000000 
0.000000 -0.000000 0.000000 
0.000000 0.000000 0.000000 

-0.000000 -0.000000 0.000000 
0.000000 -0.000000 0.000000 
0.000000 0.000000 0.000000 

-0.000000 0.000000 0.000000 
0.000000 -0.000000 0.000000 
0.000000 0.000000 0.000000 

-0.000000 0.000000 0.000000 
0.000000 -0.000000 0.000000 
0.000000 0.000000 0.000000 

-0.000000 0.000000 0.000000 
0.000000 -0.000000 0.000000 
0.000000 0.000000 0.000000 

0.000000 -0.000000 0.000000 
0.000000 0.000000 0.000000 
0.000000 0.000000 0.000000 

0.000000 -0.000000 0.000000 
0.000000 0.000000 0.000000 
0.000000 0.000000 0.000000 

0.000000 0.000000 0.000000 
0.000000 0.000000 0.000000 
0.000000 0.000000 0.000000 

0.000000 -0.000000 0.000000 
0.000000 0.000000 0.000000 
0.000000 0.000000 0.000000 

0.000000 -0.000000 0.000000 
0.000000 0.000000 0.000000 
0.000000 0.000000 0.000000 

-0.000000 0.000000 0.000000 
0.000000 -0.000000 0.000000 
0.000000 0.000000 0.000000 

-0.000000 -0.000000 0.000000 
0.000000 -0.000000 0.000000 
0.000000 0.000000 0.000000 

0.000000 0.000000 0.000000 
0.000000 0.000000 0.000000 
0.000000 0.000000 0.000000 

-0.000000 0.000000 0.000000 
0.000000 -0.000000 0.000000 
0.000000 0.000000 0.000000 

0.000000 0.000000 0.000000 
0.000000 0.000000 0.000000 
0.000000 0.000000 0.000000 

0.000000 0.000000 0.000000 
0.000000 0.000000 0.000000 
0.000000 0.000000 0.000000 

0.000000 0.000000 0.000000 
0.000000 0.000000 0.000000 
0.000000 0.000000 0.000000 

-0.000000 0.000000 0.000000 
0.000000 -0.000000 0.000000 
0.000000 0.000000 0.000000 

0.000000 0.000000 0.000000 
0.000000 0.000000 0.000000 
0.000000 0.000000 0.000000 

-0.000000 0.000000 0.000000 
0.000000 -0.000000 0.000000 
0.000000 0.000000 0.000000 

0.000000 0.000000 0.000000 
0.000000 0.000000 0.000000 
0.000000 0.000000 0.000000 

-0.000000 0.000000 0.000000 
0.000000 -0.000000 0.000000 
0.000000 0.000000 0.000000 

-0.000000 -0.000000 0.000000 
0.000000 -0.000000 0.000000 
0.000000 0.000000 0.000000 

0.000000 0.000000 0.000000 
0.000000 0.000000 0.000000 
0.000000 0.000000 0.000000 

0.000000 0.000000 0.000000 
0.000000 0.000000 0.000000 
0.000000 0.000000 0.000000 

-0.000000 0.000000 0.000000 
0.000000 -0.000000 0.000000 
0.000000 0.000000 0.000000 

-0.000000 0.000000 0.000000 
0.000000 -0.000000 0.000000 
0.000000 0.000000 0.000000 

0.000000 0.000000 0.000000 
0.000000 0.000000 0.000000 
0.000000 0.000000 0.000000 

-0.000000 0.000000 0.000000 
0.000000 -0.000000 0.000000 
0.000000 0.000000 0.000000 

0.000000 -0.000000 0.000000 
0.000000 0.000000 0.000000 
0.000000 0.000000 0.000000 

0.000000 -0.000000 0.000000 
0.000000 0.000000 0.000000 
0.000000 0.000000 0.000000 

-0.000000 -0.000000 0.000000 
0.000000 -0.000000 0.000000 
0.000000 0.000000 0.000000 

0.000000 -0.000000 0.000000 
0.000000 0.000000 0.000000 
0.000000 0.000000 0.000000 

-0.000000 -0.000000 0.000000 
0.000000 -0.000000 0.000000 
0.000000 0.000000 0.000000 

0.000000 0.000000 0.000000 
0.000000 0.000000 0.000000 
0.000000 0.000000 0.000000 

0.000000 0.000000 0.000000 
0.000000 0.000000 0.000000 
0.000000 0.000000 0.000000 

0.000000 -0.000000 0.000000 
0.000000 0.000000 0.000000 
0.000000 0.000000 0.000000 

0.000000 -0.000000 0.000000 
0.000000 0.000000 0.000000 
0.000000 0.000000 0.000000 

-0.000000 -0.000000 0.000000 
0.000000 -0.000000 0.000000 
0.000000 0.000000 0.000000 

-0.000000 -0.000000 0.000000 
0.000000 -0.000000 0.000000 
0.000000 0.000000 0.000000 

-0.000000 -0.000000 0.000000 
0.000000 -0.000000 0.000000 
0.000000 0.000000 0.000000 

0.000000 0.000000 0.000000 
0.000000 0.000000 0.000000 
0.000000 0.000000 0.000000 

0.000000 0.000000 0.000000 
0.000000 0.000000 0.000000 
0.000000 0.000000 0.000000 

TENSORS STRAIN float 
0.000000 -0.000000 0.000000 
0.000000 -0.000000 0.000000 
0.000000 0.000000 0.000000 

0.000000 0.000000 0.000000 
0.000000 -0.000000 0.000000 
0.000000 0.000000 0.000000 

0.000000 0.000000 0.000000 
0.000000 -0.000000 0.000000 
0.000000 0.000000 0.000000 

0.000000 0.000000 0.000000 
0.000000 -0.000000 0.000000 
0.000000 0.000000 0.000000 

0.000000 0.000000 0.000000 
0.000000 -0.000000 0.000000 
0.000000 0.000000 0.000000 

0.000000 0.000000 0.000000 
0.000000 -0.000000 0.000000 
0.000000 0.000000 0.000000 

0.000000 0.000000 0.000000 
0.000000 0.000000 0.000000 
0.000000 0.000000 0.000000 

-0.000000 0.000000 0.000000 
0.000000 0.000000 0.000000 
0.000000 0.000000 0.000000 

-0.000000 -0.000000 0.000000 
0.000000 -0.000000 0.000000 
0.000000 0.000000 0.000000 

0.000000 -0.000000 0.000000 
0.000000 -0.000000 0.000000 
0.000000 0.000000 0.000000 

0.000000 0.000000 0.000000 
0.000000 -0.000000 0.000000 
0.000000 0.000000 0.000000 

0.000000 0.000000 0.000000 
0.000000 -0.000000 0.000000 
0.000000 0.000000 0.000000 

0.000000 0.000000 0.000000 
0.000000 -0.000000 0.000000 
0.000000 0.000000 0.000000 

0.000000 0.000000 0.000000 
0.000000 -0.000000 0.000000 
0.000000 0.000000 0.000000 

-0.000000 0.000000 0.000000 
0.000000 -0.000000 0.000000 
0.000000 0.000000 0.000000 

-0.000000 0.000000 0.000000 
0.000000 0.000000 0.000000 
0.000000 0.000000 0.000000 

0.000000 -0.000000 0.000000 
0.000000 -0.000000 0.000000 
0.000000 0.000000 0.000000 

0.000000 -0.000000 0.000000 
0.000000 -0.000000 0.000000 
0.000000 0.000000 0.000000 

0.000000 -0.000000 0.000000 
0.000000 -0.000000 0.000000 
0.000000 0.000000 0.000000 

-0.000000 0.000000 0.000000 
0.000000 -0.000000 0.000000 
0.000000 0.000000 0.000000 

-0.000000 0.000000 0.000000 
0.000000 0.000000 0.000000 
0.000000 0.000000 0.000000 

-0.000000 0.000000 0.000000 
0.000000 -0.000000 0.000000 
0.000000 0.000000 0.000000 

-0.000000 0.000000 0.000000 
0.000000 -0.000000 0.000000 
0.000000 0.000000 0.000000 

0.000000 0.000000 0.000000 
0.000000 0.000000 0.000000 
0.000000 0.000000 0.000000 

0.000000 0.000000 0.000000 
0.000000 -0.000000 0.000000 
0.000000 0.000000 0.000000 

0.000000 0.000000 0.000000 
0.000000 -0.000000 0.000000 
0.000000 0.000000 0.000000 

0.000000 0.000000 0.000000 
0.000000 -0.000000 0.000000 
0.000000 0.000000 0.000000 

0.000000 0.000000 0.000000 
0.000000 0.000000 0.000000 
0.000000 0.000000 0.000000 

0.000000 0.000000 0.000000 
0.000000 0.000000 0.000000 
0.000000 0.000000 0.000000 

-0.000000 0.000000 0.000000 
0.000000 -0.000000 0.000000 
0.000000 0.000000 0.000000 

0.000000 0.000000 0.000000 
0.000000 0.000000 0.000000 
0.000000 0.000000 0.000000 

-0.000000 0.000000 0.000000 
0.000000 0.000000 0.000000 
0.000000 0.000000 0.000000 

0.000000 0.000000 0.000000 
0.000000 -0.000000 0.000000 
0.000000 0.000000 0.000000 

0.000000 0.000000 0.000000 
0.000000 -0.000000 0.000000 
0.000000 0.000000 0.000000 

-0.000000 0.000000 0.000000 
0.000000 -0.000000 0.000000 
0.000000 0.000000 0.000000 

-0.000000 0.000000 0.000000 
0.000000 0.000000 0.000000 
0.000000 0.000000 0.000000 

-0.000000 0.000000 0.000000 
0.000000 0.000000 0.000000 
0.000000 0.000000 0.000000 

-0.000000 -0.000000 0.000000 
0.000000 0.000000 0.000000 
0.000000 0.000000 0.000000 

-0.000000 0.000000 0.000000 
0.000000 0.000000 0.000000 
0.000000 0.000000 0.000000 

-0.000000 0.000000 0.000000 
0.000000 -0.000000 0.000000 
0.000000 0.000000 0.000000 

-0.000000 0.000000 0.000000 
0.000000 0.000000 0.000000 
0.000000 0.000000 0.000000 

-0.000000 0.000000 0.000000 
0.000000 0.000000 0.000000 
0.000000 0.000000 0.000000 

0.000000 -0.000000 0.000000 
0.000000 0.000000 0.000000 
0.000000 0.000000 0.000000 

-0.000000 0.000000 0.000000 
0.000000 0.000000 0.000000 
0.000000 0.000000 0.000000 

-0.000000 0.000000 0.000000 
0.000000 -0.000000 0.000000 
0.000000 0.000000 0.000000 

-0.000000 0.000000 0.000000 
0.000000 0.000000 0.000000 
0.000000 0.000000 0.000000 

0.000000 0.000000 0.000000 
0.000000 0.000000 0.000000 
0.000000 0.000000 0.000000 

0.000000 0.000000 0.000000 
0.000000 -0.000000 0.000000 
0.000000 0.000000 0.000000 

0.000000 -0.000000 0.000000 
0.000000 0.000000 0.000000 
0.000000 0.000000 0.000000 

0.000000 -0.000000 0.000000 
0.000000 -0.000000 0.000000 
0.000000 0.000000 0.000000 

0.000000 -0.000000 0.000000 
0.000000 0.000000 0.000000 
0.000000 0.000000 0.000000 

0.000000 0.000000 0.000000 
0.000000 0.000000 0.000000 
0.000000 0.000000 0.000000 

0.000000 -0.000000 0.000000 
0.000000 0.000000 0.000000 
0.000000 0.000000 0.000000 

-0.000000 0.000000 0.000000 
0.000000 -0.000000 0.000000 
0.000000 0.000000 0.000000 

0.000000 0.000000 0.000000 
0.000000 -0.000000 0.000000 
0.000000 0.000000 0.000000 

0.000000 0.000000 0.000000 
0.000000 0.000000 0.000000 
0.000000 0.000000 0.000000 

0.000000 0.000000 0.000000 
0.000000 0.000000 0.000000 
0.000000 0.000000 0.000000 

0.000000 -0.000000 0.000000 
0.000000 -0.000000 0.000000 
0.000000 0.000000 0.000000 

-0.000000 0.000000 0.000000 
0.000000 -0.000000 0.000000 
0.000000 0.000000 0.000000 

0.000000 0.000000 0.000000 
0.000000 -0.000000 0.000000 
0.000000 0.000000 0.000000 

0.000000 0.000000 0.000000 
0.000000 -0.000000 0.000000 
0.000000 0.000000 0.000000 

0.000000 0.000000 0.000000 
0.000000 0.000000 0.000000 
0.000000 0.000000 0.000000 

0.000000 0.000000 0.000000 
0.000000 -0.000000 0.000000 
0.000000 0.000000 0.000000 

0.000000 0.000000 0.000000 
0.000000 0.000000 0.000000 
0.000000 0.000000 0.000000 

0.000000 0.000000 0.000000 
0.000000 -0.000000 0.000000 
0.000000 0.000000 0.000000 

0.000000 0.000000 0.000000 
0.000000 -0.000000 0.000000 
0.000000 0.000000 0.000000 

0.000000 -0.000000 0.000000 
0.000000 -0.000000 0.000000 
0.000000 0.000000 0.000000 

0.000000 -0.000000 0.000000 
0.000000 -0.000000 0.000000 
0.000000 0.000000 0.000000 

0.000000 0.000000 0.000000 
0.000000 0.000000 0.000000 
0.000000 0.000000 0.000000 

0.000000 0.000000 0.000000 
0.000000 -0.000000 0.000000 
0.000000 0.000000 0.000000 

0.000000 0.000000 0.000000 
0.000000 -0.000000 0.000000 
0.000000 0.000000 0.000000 

0.000000 0.000000 0.000000 
0.000000 -0.000000 0.000000 
0.000000 0.000000 0.000000 

0.000000 -0.000000 0.000000 
0.000000 -0.000000 0.000000 
0.000000 0.000000 0.000000 

-0.000000 -0.000000 0.000000 
0.000000 -0.000000 0.000000 
0.000000 0.000000 0.000000 

-0.000000 -0.000000 0.000000 
0.000000 -0.000000 0.000000 
0.000000 0.000000 0.000000 

-0.000000 0.000000 0.000000 
0.000000 -0.000000 0.000000 
0.000000 0.000000 0.000000 

-0.000000 -0.000000 0.000000 
0.000000 0.000000 0.000000 
0.000000 0.000000 0.000000 

-0.000000 0.000000 0.000000 
0.000000 -0.000000 0.000000 
0.000000 0.000000 0.000000 

-0.000000 -0.000000 0.000000 
0.000000 0.000000 0.000000 
0.000000 0.000000 0.000000 

-0.000000 -0.000000 0.000000 
0.000000 0.000000 0.000000 
0.000000 0.000000 0.000000 

0.000000 -0.000000 0.000000 
0.000000 0.000000 0.000000 
0.000000 0.000000 0.000000 

0.000000 -0.000000 0.000000 
0.000000 -0.000000 0.000000 
0.000000 0.000000 0.000000 

0.000000 -0.000000 0.000000 
0.000000 -0.000000 0.000000 
0.000000 0.000000 0.000000 

0.000000 0.000000 0.000000 
0.000000 -0.000000 0.000000 
0.000000 0.000000 0.000000 

-0.000000 0.000000 0.000000 
0.000000 -0.000000 0.000000 
0.000000 0.000000 0.000000 

-0.000000 -0.000000 0.000000 
0.000000 0.000000 0.000000 
0.000000 0.000000 0.000000 

0.000000 -0.000000 0.000000 
0.000000 0.000000 0.000000 
0.000000 0.000000 0.000000 

0.000000 -0.000000 0.000000 
0.000000 -0.000000 0.000000 
0.000000 0.000000 0.000000 

0.000000 -0.000000 0.000000 
0.000000 -0.000000 0.000000 
0.000000 0.000000 0.000000 

0.000000 0.000000 0.000000 
0.000000 -0.000000 0.000000 
0.000000 0.000000 0.000000 

0.000000 0.000000 0.000000 
0.000000 -0.000000 0.000000 
0.000000 0.000000 0.000000 

-0.000000 -0.000000 0.000000 
0.000000 0.000000 0.000000 
0.000000 0.000000 0.000000 

-0.000000 0.000000 0.000000 
0.000000 0.000000 0.000000 
0.000000 0.000000 0.000000 

-0.000000 -0.000000 0.000000 
0.000000 -0.000000 0.000000 
0.000000 0.000000 0.000000 

-0.000000 -0.000000 0.000000 
0.000000 0.000000 0.000000 
0.000000 0.000000 0.000000 

-0.000000 -0.000000 0.000000 
0.000000 0.000000 0.000000 
0.000000 0.000000 0.000000 

-0.000000 -0.000000 0.000000 
0.000000 0.000000 0.000000 
0.000000 0.000000 0.000000 

0.000000 0.000000 0.000000 
0.000000 0.000000 0.000000 
0.000000 0.000000 0.000000 

0.000000 0.000000 0.000000 
0.000000 -0.000000 0.000000 
0.000000 0.000000 0.000000 

0.000000 0.000000 0.000000 
0.000000 -0.000000 0.000000 
0.000000 0.000000 0.000000 

0.000000 0.000000 0.000000 
0.000000 0.000000 0.000000 
0.000000 0.000000 0.000000 

0.000000 0.000000 0.000000 
0.000000 0.000000 0.000000 
0.000000 0.000000 0.000000 

0.000000 0.000000 0.000000 
0.000000 -0.000000 0.000000 
0.000000 0.000000 0.000000 

0.000000 -0.000000 0.000000 
0.000000 0.000000 0.000000 
0.000000 0.000000 0.000000 

0.000000 -0.000000 0.000000 
0.000000 -0.000000 0.000000 
0.000000 0.000000 0.000000 

0.000000 0.000000 0.000000 
0.000000 0.000000 0.000000 
0.000000 0.000000 0.000000 

-0.000000 -0.000000 0.000000 
0.000000 0.000000 0.000000 
0.000000 0.000000 0.000000 

-0.000000 -0.000000 0.000000 
0.000000 -0.000000 0.000000 
0.000000 0.000000 0.000000 

-0.000000 -0.000000 0.000000 
0.000000 0.000000 0.000000 
0.000000 0.000000 0.000000 

0.000000 0.000000 0.000000 
0.000000 -0.000000 0.000000 
0.000000 0.000000 0.000000 

0.000000 0.000000 0.000000 
0.000000 -0.000000 0.000000 
0.000000 0.000000 0.000000 

0.000000 0.000000 0.000000 
0.000000 -0.000000 0.000000 
0.000000 0.000000 0.000000 

0.000000 0.000000 0.000000 
0.000000 -0.000000 0.000000 
0.000000 0.000000 0.000000 

0.000000 -0.000000 0.000000 
0.000000 -0.000000 0.000000 
0.000000 0.000000 0.000000 

-0.000000 -0.000000 0.000000 
0.000000 -0.000000 0.000000 
0.000000 0.000000 0.000000 

-0.000000 -0.000000 0.000000 
0.000000 -0.000000 0.000000 
0.000000 0.000000 0.000000 

0.000000 0.000000 0.000000 
0.000000 -0.000000 0.000000 
0.000000 0.000000 0.000000 

0.000000 -0.000000 0.000000 
0.000000 -0.000000 0.000000 
0.000000 0.000000 0.000000 

0.000000 0.000000 0.000000 
0.000000 -0.000000 0.000000 
0.000000 0.000000 0.000000 

0.000000 0.000000 0.000000 
0.000000 -0.000000 0.000000 
0.000000 0.000000 0.000000 

0.000000 0.000000 0.000000 
0.000000 -0.000000 0.000000 
0.000000 0.000000 0.000000 

0.000000 0.000000 0.000000 
0.000000 -0.000000 0.000000 
0.000000 0.000000 0.000000 

0.000000 0.000000 0.000000 
0.000000 -0.000000 0.000000 
0.000000 0.000000 0.000000 

0.000000 0.000000 0.000000 
0.000000 0.000000 0.000000 
0.000000 0.000000 0.000000 

-0.000000 0.000000 0.000000 
0.000000 0.000000 0.000000 
0.000000 0.000000 0.000000 

0.000000 0.000000 0.000000 
0.000000 -0.000000 0.000000 
0.000000 0.000000 0.000000 

0.000000 -0.000000 0.000000 
0.000000 -0.000000 0.000000 
0.000000 0.000000 0.000000 

0.000000 0.000000 0.000000 
0.000000 -0.000000 0.000000 
0.000000 0.000000 0.000000 

0.000000 0.000000 0.000000 
0.000000 -0.000000 0.000000 
0.000000 0.000000 0.000000 

0.000000 0.000000 0.000000 
0.000000 -0.000000 0.000000 
0.000000 0.000000 0.000000 

0.000000 -0.000000 0.000000 
0.000000 -0.000000 0.000000 
0.000000 0.000000 0.000000 

0.000000 -0.000000 0.000000 
0.000000 -0.000000 0.000000 
0.000000 0.000000 0.000000 

0.000000 0.000000 0.000000 
0.000000 -0.000000 0.000000 
0.000000 0.000000 0.000000 

0.000000 -0.000000 0.000000 
0.000000 -0.000000 0.000000 
0.000000 0.000000 0.000000 

0.000000 0.000000 0.000000 
0.000000 -0.000000 0.000000 
0.000000 0.000000 0.000000 

0.000000 0.000000 0.000000 
0.000000 -0.000000 0.000000 
0.000000 0.000000 0.000000 

0.000000 0.000000 0.000000 
0.000000 -0.000000 0.000000 
0.000000 0.000000 0.000000 

-0.000000 -0.000000 0.000000 
0.000000 0.000000 0.000000 
0.000000 0.000000 0.000000 

0.000000 -0.000000 0.000000 
0.000000 0.000000 0.000000 
0.000000 0.000000 0.000000 

0.000000 0.000000 0.000000 
0.000000 0.000000 0.000000 
0.000000 0.000000 0.000000 

0.000000 -0.000000 0.000000 
0.000000 0.000000 0.000000 
0.000000 0.000000 0.000000 

0.000000 -0.000000 0.000000 
0.000000 -0.000000 0.000000 
0.000000 0.000000 0.000000 

0.000000 0.000000 0.000000 
0.000000 -0.000000 0.000000 
0.000000 0.000000 0.000000 

0.000000 -0.000000 0.000000 
0.000000 -0.000000 0.000000 
0.000000 0.000000 0.000000 

0.000000 0.000000 0.000000 
0.000000 -0.000000 0.000000 
0.000000 0.000000 0.000000 

0.000000 0.000000 0.000000 
0.000000 -0.000000 0.000000 
0.000000 0.000000 0.000000 

0.000000 0.000000 0.000000 
0.000000 0.000000 0.000000 
0.000000 0.000000 0.000000 

0.000000 0.000000 0.000000 
0.000000 -0.000000 0.000000 
0.000000 0.000000 0.000000 

-0.000000 0.000000 0.000000 
0.000000 0.000000 0.000000 
0.000000 0.000000 0.000000 

0.000000 0.000000 0.000000 
0.000000 -0.000000 0.000000 
0.000000 0.000000 0.000000 

0.000000 0.000000 0.000000 
0.000000 -0.000000 0.000000 
0.000000 0.000000 0.000000 

0.000000 0.000000 0.000000 
0.000000 -0.000000 0.000000 
0.000000 0.000000 0.000000 

0.000000 0.000000 0.000000 
0.000000 -0.000000 0.000000 
0.000000 0.000000 0.000000 

0.000000 0.000000 0.000000 
0.000000 -0.000000 0.000000 
0.000000 0.000000 0.000000 

-0.000000 -0.000000 0.000000 
0.000000 0.000000 0.000000 
0.000000 0.000000 0.000000 

-0.000000 0.000000 0.000000 
0.000000 0.000000 0.000000 
0.000000 0.000000 0.000000 

0.000000 0.000000 0.000000 
0.000000 -0.000000 0.000000 
0.000000 0.000000 0.000000 

0.000000 0.000000 0.000000 
0.000000 -0.000000 0.000000 
0.000000 0.000000 0.000000 

0.000000 0.000000 0.000000 
0.000000 -0.000000 0.000000 
0.000000 0.000000 0.000000 

-0.000000 0.000000 0.000000 
0.000000 0.000000 0.000000 
0.000000 0.000000 0.000000 

-0.000000 0.000000 0.000000 
0.000000 0.000000 0.000000 
0.000000 0.000000 0.000000 

-0.000000 -0.000000 0.000000 
0.000000 0.000000 0.000000 
0.000000 0.000000 0.000000 

0.000000 -0.000000 0.000000 
0.000000 0.000000 0.000000 
0.000000 0.000000 0.000000 

0.000000 -0.000000 0.000000 
0.000000 -0.000000 0.000000 
0.000000 0.000000 0.000000 

0.000000 -0.000000 0.000000 
0.000000 0.000000 0.000000 
0.000000 0.000000 0.000000 

0.000000 -0.000000 0.000000 
0.000000 -0.000000 0.000000 
0.000000 0.000000 0.000000 

0.000000 0.000000 0.000000 
0.000000 -0.000000 0.000000 
0.000000 0.000000 0.000000 

0.000000 0.000000 0.000000 
0.000000 -0.000000 0.000000 
0.000000 0.000000 0.000000 

0.000000 -0.000000 0.000000 
0.000000 0.000000 0.000000 
0.000000 0.000000 0.000000 

0.000000 -0.000000 0.000000 
0.000000 -0.000000 0.000000 
0.000000 0.000000 0.000000 

0.000000 -0.000000 0.000000 
0.000000 -0.000000 0.000000 
0.000000 0.000000 0.000000 

-0.000000 -0.000000 0.000000 
0.000000 -0.000000 0.000000 
0.000000 0.000000 0.000000 

-0.000000 -0.000000 0.000000 
0.000000 -0.000000 0.000000 
0.000000 0.000000 0.000000 

0.000000 0.000000 0.000000 
0.000000 -0.000000 0.000000 
0.000000 0.000000 0.000000 

0.000000 0.000000 0.000000 
0.000000 -0.000000 0.000000 
0.000000 0.000000 0.000000 

