# vtk DataFile Version 3.0 
vtk output 
ASCII 
DATASET UNSTRUCTURED_GRID 
POINTS 175 float 
-0.026061 -0.343454 0.000000 
-0.106992 -0.275398 0.000000 
-0.054870 -0.283631 0.000000 
-0.028809 -0.237747 0.000000 
-0.186430 -0.211323 0.000000 
-0.137056 -0.213849 0.000000 
-0.114311 -0.160202 0.000000 
-0.058186 -0.175867 0.000000 
-0.029377 -0.135690 0.000000 
-0.265318 -0.148167 0.000000 
-0.217198 -0.148967 0.000000 
-0.196633 -0.091670 0.000000 
-0.143120 -0.100379 0.000000 
-0.116563 -0.053111 0.000000 
-0.058945 -0.072756 0.000000 
-0.029568 -0.034636 0.000000 
-0.344206 -0.085011 0.000000 
-0.296791 -0.085004 0.000000 
-0.278030 -0.025061 0.000000 
-0.225992 -0.030928 0.000000 
-0.201664 0.021189 0.000000 
-0.145749 0.007715 0.000000 
-0.117890 0.052058 0.000000 
-0.059328 0.029352 0.000000 
-0.029759 0.066418 0.000000 
-0.058559 -0.384205 0.000000 
-0.162226 -0.405047 0.000000 
-0.123292 -0.369430 0.000000 
-0.142917 -0.320446 0.000000 
-0.261851 -0.427204 0.000000 
-0.229092 -0.390177 0.000000 
-0.256854 -0.338945 0.000000 
-0.209613 -0.304833 0.000000 
-0.223062 -0.257259 0.000000 
-0.360414 -0.449504 0.000000 
-0.329787 -0.412381 0.000000 
-0.361761 -0.360579 0.000000 
-0.321587 -0.324170 0.000000 
-0.341985 -0.273936 0.000000 
-0.290702 -0.241137 0.000000 
-0.302189 -0.194402 0.000000 
-0.458977 -0.471804 0.000000 
-0.429420 -0.434729 0.000000 
-0.464588 -0.382688 0.000000 
-0.427556 -0.345660 0.000000 
-0.453135 -0.294145 0.000000 
-0.407738 -0.258830 0.000000 
-0.425037 -0.209402 0.000000 
-0.370772 -0.177773 0.000000 
-0.381315 -0.131545 0.000000 
-0.046960 -0.435020 0.000000 
-0.095301 -0.529066 0.000000 
-0.098873 -0.476419 0.000000 
-0.149405 -0.461221 0.000000 
-0.140093 -0.620770 0.000000 
-0.148617 -0.572072 0.000000 
-0.205981 -0.561834 0.000000 
-0.203197 -0.503631 0.000000 
-0.248777 -0.484484 0.000000 
-0.184111 -0.711733 0.000000 
-0.194039 -0.664642 0.000000 
-0.254475 -0.657343 0.000000 
-0.257893 -0.603233 0.000000 
-0.309886 -0.587861 0.000000 
-0.303554 -0.527315 0.000000 
-0.347255 -0.507158 0.000000 
-0.228129 -0.802697 0.000000 
-0.238687 -0.756473 0.000000 
-0.301302 -0.751521 0.000000 
-0.307162 -0.699482 0.000000 
-0.363386 -0.687361 0.000000 
-0.362692 -0.629849 0.000000 
-0.412122 -0.612556 0.000000 
-0.403017 -0.550410 0.000000 
-0.445733 -0.529831 0.000000 
-0.000000 -0.457635 0.000000 
0.043388 -0.554065 0.000000 
-0.000000 -0.524033 0.000000 
-0.043388 -0.554065 0.000000 
0.087158 -0.646262 0.000000 
0.043769 -0.622564 0.000000 
-0.000000 -0.661029 0.000000 
-0.043769 -0.622564 0.000000 
-0.087158 -0.646262 0.000000 
0.130831 -0.737392 0.000000 
0.087824 -0.715793 0.000000 
0.044436 -0.758493 0.000000 
-0.000000 -0.727428 0.000000 
-0.044436 -0.758493 0.000000 
-0.087824 -0.715793 0.000000 
-0.130831 -0.737392 0.000000 
0.174505 -0.828521 0.000000 
0.131782 -0.807955 0.000000 
0.088871 -0.853822 0.000000 
0.044532 -0.825958 0.000000 
-0.000000 -0.862358 0.000000 
-0.044532 -0.825958 0.000000 
-0.088871 -0.853822 0.000000 
-0.131782 -0.807955 0.000000 
-0.174505 -0.828521 0.000000 
0.046960 -0.435020 0.000000 
0.149405 -0.461221 0.000000 
0.098873 -0.476419 0.000000 
0.095301 -0.529066 0.000000 
0.248777 -0.484484 0.000000 
0.203197 -0.503631 0.000000 
0.205981 -0.561834 0.000000 
0.148617 -0.572072 0.000000 
0.140093 -0.620770 0.000000 
0.347255 -0.507158 0.000000 
0.303554 -0.527315 0.000000 
0.309886 -0.587861 0.000000 
0.257893 -0.603233 0.000000 
0.254475 -0.657343 0.000000 
0.194039 -0.664642 0.000000 
0.184111 -0.711733 0.000000 
0.445733 -0.529831 0.000000 
0.403017 -0.550410 0.000000 
0.412122 -0.612556 0.000000 
0.362692 -0.629849 0.000000 
0.363386 -0.687361 0.000000 
0.307162 -0.699482 0.000000 
0.301302 -0.751521 0.000000 
0.238687 -0.756473 0.000000 
0.228129 -0.802697 0.000000 
0.058559 -0.384205 0.000000 
0.142917 -0.320446 0.000000 
0.123292 -0.369430 0.000000 
0.162226 -0.405047 0.000000 
0.223062 -0.257259 0.000000 
0.209613 -0.304833 0.000000 
0.256854 -0.338945 0.000000 
0.229092 -0.390177 0.000000 
0.261851 -0.427204 0.000000 
0.302189 -0.194402 0.000000 
0.290702 -0.241137 0.000000 
0.341985 -0.273936 0.000000 
0.321587 -0.324170 0.000000 
0.361761 -0.360579 0.000000 
0.329787 -0.412381 0.000000 
0.360414 -0.449504 0.000000 
0.381315 -0.131545 0.000000 
0.370772 -0.177773 0.000000 
0.425037 -0.209402 0.000000 
0.407738 -0.258830 0.000000 
0.453135 -0.294145 0.000000 
0.427556 -0.345660 0.000000 
0.464588 -0.382688 0.000000 
0.429420 -0.434729 0.000000 
0.458977 -0.471804 0.000000 
0.026061 -0.343454 0.000000 
0.028809 -0.237747 0.000000 
0.054870 -0.283631 0.000000 
0.106992 -0.275398 0.000000 
0.029377 -0.135690 0.000000 
0.058186 -0.175867 0.000000 
0.114311 -0.160202 0.000000 
0.137056 -0.213849 0.000000 
0.186430 -0.211323 0.000000 
0.029568 -0.034636 0.000000 
0.058945 -0.072756 0.000000 
0.116563 -0.053111 0.000000 
0.143120 -0.100379 0.000000 
0.196633 -0.091670 0.000000 
0.217198 -0.148967 0.000000 
0.265318 -0.148167 0.000000 
0.029759 0.066418 0.000000 
0.059328 0.029352 0.000000 
0.117890 0.052058 0.000000 
0.145749 0.007715 0.000000 
0.201664 0.021189 0.000000 
0.225992 -0.030928 0.000000 
0.278030 -0.025061 0.000000 
0.296791 -0.085004 0.000000 
0.344206 -0.085011 0.000000 
CELLS 175 350 
1 0 
1 1 
1 2 
1 3 
1 4 
1 5 
1 6 
1 7 
1 8 
1 9 
1 10 
1 11 
1 12 
1 13 
1 14 
1 15 
1 16 
1 17 
1 18 
1 19 
1 20 
1 21 
1 22 
1 23 
1 24 
1 25 
1 26 
1 27 
1 28 
1 29 
1 30 
1 31 
1 32 
1 33 
1 34 
1 35 
1 36 
1 37 
1 38 
1 39 
1 40 
1 41 
1 42 
1 43 
1 44 
1 45 
1 46 
1 47 
1 48 
1 49 
1 50 
1 51 
1 52 
1 53 
1 54 
1 55 
1 56 
1 57 
1 58 
1 59 
1 60 
1 61 
1 62 
1 63 
1 64 
1 65 
1 66 
1 67 
1 68 
1 69 
1 70 
1 71 
1 72 
1 73 
1 74 
1 75 
1 76 
1 77 
1 78 
1 79 
1 80 
1 81 
1 82 
1 83 
1 84 
1 85 
1 86 
1 87 
1 88 
1 89 
1 90 
1 91 
1 92 
1 93 
1 94 
1 95 
1 96 
1 97 
1 98 
1 99 
1 100 
1 101 
1 102 
1 103 
1 104 
1 105 
1 106 
1 107 
1 108 
1 109 
1 110 
1 111 
1 112 
1 113 
1 114 
1 115 
1 116 
1 117 
1 118 
1 119 
1 120 
1 121 
1 122 
1 123 
1 124 
1 125 
1 126 
1 127 
1 128 
1 129 
1 130 
1 131 
1 132 
1 133 
1 134 
1 135 
1 136 
1 137 
1 138 
1 139 
1 140 
1 141 
1 142 
1 143 
1 144 
1 145 
1 146 
1 147 
1 148 
1 149 
1 150 
1 151 
1 152 
1 153 
1 154 
1 155 
1 156 
1 157 
1 158 
1 159 
1 160 
1 161 
1 162 
1 163 
1 164 
1 165 
1 166 
1 167 
1 168 
1 169 
1 170 
1 171 
1 172 
1 173 
1 174 
CELL_TYPES 175 
1 
1 
1 
1 
1 
1 
1 
1 
1 
1 
1 
1 
1 
1 
1 
1 
1 
1 
1 
1 
1 
1 
1 
1 
1 
1 
1 
1 
1 
1 
1 
1 
1 
1 
1 
1 
1 
1 
1 
1 
1 
1 
1 
1 
1 
1 
1 
1 
1 
1 
1 
1 
1 
1 
1 
1 
1 
1 
1 
1 
1 
1 
1 
1 
1 
1 
1 
1 
1 
1 
1 
1 
1 
1 
1 
1 
1 
1 
1 
1 
1 
1 
1 
1 
1 
1 
1 
1 
1 
1 
1 
1 
1 
1 
1 
1 
1 
1 
1 
1 
1 
1 
1 
1 
1 
1 
1 
1 
1 
1 
1 
1 
1 
1 
1 
1 
1 
1 
1 
1 
1 
1 
1 
1 
1 
1 
1 
1 
1 
1 
1 
1 
1 
1 
1 
1 
1 
1 
1 
1 
1 
1 
1 
1 
1 
1 
1 
1 
1 
1 
1 
1 
1 
1 
1 
1 
1 
1 
1 
1 
1 
1 
1 
1 
1 
1 
1 
1 
1 
1 
1 
1 
1 
1 
1 
POINT_DATA 175 
VECTORS X_GC float 
-0.026061 -0.343454 0.000000 
-0.106992 -0.275398 0.000000 
-0.054870 -0.283631 0.000000 
-0.028809 -0.237747 0.000000 
-0.186430 -0.211323 0.000000 
-0.137056 -0.213849 0.000000 
-0.114311 -0.160202 0.000000 
-0.058186 -0.175867 0.000000 
-0.029377 -0.135690 0.000000 
-0.265318 -0.148167 0.000000 
-0.217198 -0.148967 0.000000 
-0.196633 -0.091670 0.000000 
-0.143120 -0.100379 0.000000 
-0.116563 -0.053111 0.000000 
-0.058945 -0.072756 0.000000 
-0.029568 -0.034636 0.000000 
-0.344206 -0.085011 0.000000 
-0.296791 -0.085004 0.000000 
-0.278030 -0.025061 0.000000 
-0.225992 -0.030928 0.000000 
-0.201664 0.021189 0.000000 
-0.145749 0.007715 0.000000 
-0.117890 0.052058 0.000000 
-0.059328 0.029352 0.000000 
-0.029759 0.066418 0.000000 
-0.058559 -0.384205 0.000000 
-0.162226 -0.405047 0.000000 
-0.123292 -0.369430 0.000000 
-0.142917 -0.320446 0.000000 
-0.261851 -0.427204 0.000000 
-0.229092 -0.390177 0.000000 
-0.256854 -0.338945 0.000000 
-0.209613 -0.304833 0.000000 
-0.223062 -0.257259 0.000000 
-0.360414 -0.449504 0.000000 
-0.329787 -0.412381 0.000000 
-0.361761 -0.360579 0.000000 
-0.321587 -0.324170 0.000000 
-0.341985 -0.273936 0.000000 
-0.290702 -0.241137 0.000000 
-0.302189 -0.194402 0.000000 
-0.458977 -0.471804 0.000000 
-0.429420 -0.434729 0.000000 
-0.464588 -0.382688 0.000000 
-0.427556 -0.345660 0.000000 
-0.453135 -0.294145 0.000000 
-0.407738 -0.258830 0.000000 
-0.425037 -0.209402 0.000000 
-0.370772 -0.177773 0.000000 
-0.381315 -0.131545 0.000000 
-0.046960 -0.435020 0.000000 
-0.095301 -0.529066 0.000000 
-0.098873 -0.476419 0.000000 
-0.149405 -0.461221 0.000000 
-0.140093 -0.620770 0.000000 
-0.148617 -0.572072 0.000000 
-0.205981 -0.561834 0.000000 
-0.203197 -0.503631 0.000000 
-0.248777 -0.484484 0.000000 
-0.184111 -0.711733 0.000000 
-0.194039 -0.664642 0.000000 
-0.254475 -0.657343 0.000000 
-0.257893 -0.603233 0.000000 
-0.309886 -0.587861 0.000000 
-0.303554 -0.527315 0.000000 
-0.347255 -0.507158 0.000000 
-0.228129 -0.802697 0.000000 
-0.238687 -0.756473 0.000000 
-0.301302 -0.751521 0.000000 
-0.307162 -0.699482 0.000000 
-0.363386 -0.687361 0.000000 
-0.362692 -0.629849 0.000000 
-0.412122 -0.612556 0.000000 
-0.403017 -0.550410 0.000000 
-0.445733 -0.529831 0.000000 
-0.000000 -0.457635 0.000000 
0.043388 -0.554065 0.000000 
-0.000000 -0.524033 0.000000 
-0.043388 -0.554065 0.000000 
0.087158 -0.646262 0.000000 
0.043769 -0.622564 0.000000 
-0.000000 -0.661029 0.000000 
-0.043769 -0.622564 0.000000 
-0.087158 -0.646262 0.000000 
0.130831 -0.737392 0.000000 
0.087824 -0.715793 0.000000 
0.044436 -0.758493 0.000000 
-0.000000 -0.727428 0.000000 
-0.044436 -0.758493 0.000000 
-0.087824 -0.715793 0.000000 
-0.130831 -0.737392 0.000000 
0.174505 -0.828521 0.000000 
0.131782 -0.807955 0.000000 
0.088871 -0.853822 0.000000 
0.044532 -0.825958 0.000000 
-0.000000 -0.862358 0.000000 
-0.044532 -0.825958 0.000000 
-0.088871 -0.853822 0.000000 
-0.131782 -0.807955 0.000000 
-0.174505 -0.828521 0.000000 
0.046960 -0.435020 0.000000 
0.149405 -0.461221 0.000000 
0.098873 -0.476419 0.000000 
0.095301 -0.529066 0.000000 
0.248777 -0.484484 0.000000 
0.203197 -0.503631 0.000000 
0.205981 -0.561834 0.000000 
0.148617 -0.572072 0.000000 
0.140093 -0.620770 0.000000 
0.347255 -0.507158 0.000000 
0.303554 -0.527315 0.000000 
0.309886 -0.587861 0.000000 
0.257893 -0.603233 0.000000 
0.254475 -0.657343 0.000000 
0.194039 -0.664642 0.000000 
0.184111 -0.711733 0.000000 
0.445733 -0.529831 0.000000 
0.403017 -0.550410 0.000000 
0.412122 -0.612556 0.000000 
0.362692 -0.629849 0.000000 
0.363386 -0.687361 0.000000 
0.307162 -0.699482 0.000000 
0.301302 -0.751521 0.000000 
0.238687 -0.756473 0.000000 
0.228129 -0.802697 0.000000 
0.058559 -0.384205 0.000000 
0.142917 -0.320446 0.000000 
0.123292 -0.369430 0.000000 
0.162226 -0.405047 0.000000 
0.223062 -0.257259 0.000000 
0.209613 -0.304833 0.000000 
0.256854 -0.338945 0.000000 
0.229092 -0.390177 0.000000 
0.261851 -0.427204 0.000000 
0.302189 -0.194402 0.000000 
0.290702 -0.241137 0.000000 
0.341985 -0.273936 0.000000 
0.321587 -0.324170 0.000000 
0.361761 -0.360579 0.000000 
0.329787 -0.412381 0.000000 
0.360414 -0.449504 0.000000 
0.381315 -0.131545 0.000000 
0.370772 -0.177773 0.000000 
0.425037 -0.209402 0.000000 
0.407738 -0.258830 0.000000 
0.453135 -0.294145 0.000000 
0.427556 -0.345660 0.000000 
0.464588 -0.382688 0.000000 
0.429420 -0.434729 0.000000 
0.458977 -0.471804 0.000000 
0.026061 -0.343454 0.000000 
0.028809 -0.237747 0.000000 
0.054870 -0.283631 0.000000 
0.106992 -0.275398 0.000000 
0.029377 -0.135690 0.000000 
0.058186 -0.175867 0.000000 
0.114311 -0.160202 0.000000 
0.137056 -0.213849 0.000000 
0.186430 -0.211323 0.000000 
0.029568 -0.034636 0.000000 
0.058945 -0.072756 0.000000 
0.116563 -0.053111 0.000000 
0.143120 -0.100379 0.000000 
0.196633 -0.091670 0.000000 
0.217198 -0.148967 0.000000 
0.265318 -0.148167 0.000000 
0.029759 0.066418 0.000000 
0.059328 0.029352 0.000000 
0.117890 0.052058 0.000000 
0.145749 0.007715 0.000000 
0.201664 0.021189 0.000000 
0.225992 -0.030928 0.000000 
0.278030 -0.025061 0.000000 
0.296791 -0.085004 0.000000 
0.344206 -0.085011 0.000000 
VECTORS X_EC float 
0.338794 -0.863372 0.000000 
-0.609100 0.217880 0.000000 
0.713312 0.329020 0.000000 
0.374519 -0.290409 0.000000 
0.423588 -0.647140 0.000000 
-0.218274 -0.613036 0.000000 
-0.513962 0.662725 0.000000 
0.756418 0.874211 0.000000 
0.381900 0.331819 0.000000 
-0.550868 0.500257 0.000000 
0.823577 0.511053 0.000000 
0.556234 -0.262451 0.000000 
-0.139443 -0.144883 0.000000 
-0.484677 -0.783007 0.000000 
0.766286 -0.517792 0.000000 
0.384386 0.967588 0.000000 
0.474677 -0.352346 0.000000 
-0.141715 -0.352442 0.000000 
-0.385608 0.838330 0.000000 
0.937896 0.917525 0.000000 
0.621631 0.213945 0.000000 
-0.105264 0.395844 0.000000 
-0.467428 -0.202782 0.000000 
0.771260 0.103746 0.000000 
0.386873 -0.396643 0.000000 
0.761262 -0.313237 0.000000 
0.108942 -0.031861 0.000000 
-0.397202 -0.512700 0.000000 
-0.142083 0.826025 0.000000 
-0.595936 0.267250 0.000000 
0.978194 -0.232616 0.000000 
-0.660903 -0.924241 0.000000 
0.724964 0.615239 0.000000 
0.899809 -0.027010 0.000000 
0.685384 0.568302 0.000000 
0.287229 0.067144 0.000000 
0.702895 -0.632185 0.000000 
0.180633 0.876296 0.000000 
0.445811 0.198137 0.000000 
-0.220880 -0.244649 0.000000 
-0.071546 -0.875575 0.000000 
-0.033296 0.869354 0.000000 
-0.417537 0.368845 0.000000 
0.039645 -0.333718 0.000000 
-0.441768 -0.833589 0.000000 
-0.109248 0.470960 0.000000 
-0.699407 -0.005795 0.000000 
-0.474522 -0.673075 0.000000 
0.820030 0.899932 0.000000 
0.957100 0.275860 0.000000 
0.610485 0.372769 0.000000 
-0.761092 -0.357612 0.000000 
-0.714655 0.931651 0.000000 
-0.057734 0.726484 0.000000 
-0.178789 0.880393 0.000000 
-0.067979 0.222966 0.000000 
0.677748 0.084763 0.000000 
0.641556 -0.700982 0.000000 
-0.765897 -0.959461 0.000000 
0.393446 0.108402 0.000000 
0.522510 -0.527328 0.000000 
-0.691820 -0.625873 0.000000 
-0.647393 0.643645 0.000000 
0.028512 0.436118 0.000000 
-0.053800 -0.381242 0.000000 
0.514316 -0.653373 0.000000 
0.965681 -0.663589 0.000000 
-0.897068 0.712382 0.000000 
-0.083078 0.645529 0.000000 
-0.006893 -0.056996 0.000000 
0.724017 -0.220629 0.000000 
0.714996 -0.997032 0.000000 
-0.642413 0.769510 0.000000 
-0.760780 -0.069470 0.000000 
-0.205471 -0.347285 0.000000 
0.000000 0.678071 0.000000 
-0.564049 -0.020117 0.000000 
0.000000 -0.425553 0.000000 
0.564049 -0.020117 0.000000 
0.866949 -0.775461 0.000000 
-0.569003 0.904608 0.000000 
0.000000 -0.576104 0.000000 
0.569003 0.904608 0.000000 
-0.866949 -0.775461 0.000000 
0.299194 0.454789 0.000000 
0.858290 0.163205 0.000000 
-0.577662 0.739651 0.000000 
0.000000 0.320273 0.000000 
0.577662 0.739651 0.000000 
-0.858290 0.163205 0.000000 
-0.299194 0.454789 0.000000 
-0.268560 -0.314961 0.000000 
0.286830 -0.592603 0.000000 
0.844677 0.026595 0.000000 
-0.578910 -0.349567 0.000000 
0.000000 0.141837 0.000000 
0.578910 -0.349567 0.000000 
-0.844677 0.026595 0.000000 
-0.286830 -0.592603 0.000000 
0.268560 -0.314961 0.000000 
-0.610485 0.372769 0.000000 
0.057734 0.726484 0.000000 
0.714655 0.931651 0.000000 
0.761092 -0.357612 0.000000 
0.765897 -0.959461 0.000000 
-0.641556 -0.700982 0.000000 
-0.677748 0.084763 0.000000 
0.067979 0.222966 0.000000 
0.178789 0.880393 0.000000 
-0.514316 -0.653373 0.000000 
0.053800 -0.381242 0.000000 
-0.028512 0.436118 0.000000 
0.647393 0.643645 0.000000 
0.691820 -0.625873 0.000000 
-0.522510 -0.527328 0.000000 
-0.393446 0.108402 0.000000 
0.205471 -0.347285 0.000000 
0.760780 -0.069470 0.000000 
0.642413 0.769511 0.000000 
-0.714996 -0.997032 0.000000 
-0.724017 -0.220629 0.000000 
0.006894 -0.056996 0.000000 
0.083078 0.645529 0.000000 
0.897068 0.712382 0.000000 
-0.965681 -0.663589 0.000000 
-0.761262 -0.313237 0.000000 
0.142083 0.826025 0.000000 
0.397202 -0.512700 0.000000 
-0.108942 -0.031861 0.000000 
-0.899809 -0.027010 0.000000 
-0.724964 0.615239 0.000000 
0.660903 -0.924241 0.000000 
-0.978194 -0.232616 0.000000 
0.595936 0.267250 0.000000 
0.071546 -0.875575 0.000000 
0.220880 -0.244649 0.000000 
-0.445811 0.198137 0.000000 
-0.180633 0.876296 0.000000 
-0.702895 -0.632185 0.000000 
-0.287229 0.067144 0.000000 
-0.685384 0.568302 0.000000 
-0.957100 0.275860 0.000000 
-0.820030 0.899932 0.000000 
0.474522 -0.673075 0.000000 
0.699407 -0.005795 0.000000 
0.109248 0.470960 0.000000 
0.441768 -0.833589 0.000000 
-0.039645 -0.333718 0.000000 
0.417537 0.368845 0.000000 
0.033296 0.869354 0.000000 
-0.338794 -0.863372 0.000000 
-0.374519 -0.290409 0.000000 
-0.713312 0.329020 0.000000 
0.609100 0.217880 0.000000 
-0.381900 0.331819 0.000000 
-0.756418 0.874211 0.000000 
0.513962 0.662725 0.000000 
0.218274 -0.613036 0.000000 
-0.423588 -0.647140 0.000000 
-0.384386 0.967588 0.000000 
-0.766286 -0.517792 0.000000 
0.484677 -0.783007 0.000000 
0.139443 -0.144883 0.000000 
-0.556234 -0.262451 0.000000 
-0.823577 0.511053 0.000000 
0.550868 0.500257 0.000000 
-0.386873 -0.396643 0.000000 
-0.771260 0.103746 0.000000 
0.467428 -0.202782 0.000000 
0.105264 0.395844 0.000000 
-0.621631 0.213945 0.000000 
-0.937896 0.917525 0.000000 
0.385608 0.838330 0.000000 
0.141715 -0.352442 0.000000 
-0.474677 -0.352346 0.000000 
CELL_DATA 175 
SCALARS MASS float 
LOOKUP_TABLE default 
0.781831 
0.864274 
0.946717 
0.864274 
0.881307 
0.921110 
0.858535 
0.921110 
0.881307 
0.887046 
0.910001 
0.869829 
0.915556 
0.869829 
0.910001 
0.887046 
0.892784 
0.915740 
0.892784 
0.927218 
0.892784 
0.927218 
0.892784 
0.915740 
0.892784 
0.781831 
0.864274 
0.946717 
0.864274 
0.881307 
0.921110 
0.858535 
0.921110 
0.881307 
0.887046 
0.910001 
0.869829 
0.915556 
0.869829 
0.910001 
0.887046 
0.892784 
0.915740 
0.892784 
0.927218 
0.892784 
0.927218 
0.892784 
0.915740 
0.892784 
0.781831 
0.864274 
0.946717 
0.864274 
0.881307 
0.921110 
0.858535 
0.921110 
0.881307 
0.887046 
0.910001 
0.869829 
0.915556 
0.869829 
0.910001 
0.887046 
0.892784 
0.915740 
0.892784 
0.927218 
0.892784 
0.927218 
0.892784 
0.915740 
0.892784 
0.781831 
0.864274 
0.946717 
0.864274 
0.881307 
0.921110 
0.858535 
0.921110 
0.881307 
0.887046 
0.910001 
0.869829 
0.915556 
0.869829 
0.910001 
0.887046 
0.892784 
0.915740 
0.892784 
0.927218 
0.892784 
0.927218 
0.892784 
0.915740 
0.892784 
0.781831 
0.864274 
0.946717 
0.864274 
0.881307 
0.921110 
0.858535 
0.921110 
0.881307 
0.887046 
0.910001 
0.869829 
0.915556 
0.869829 
0.910001 
0.887046 
0.892784 
0.915740 
0.892784 
0.927218 
0.892784 
0.927218 
0.892784 
0.915740 
0.892784 
0.781831 
0.864274 
0.946717 
0.864274 
0.881307 
0.921110 
0.858535 
0.921110 
0.881307 
0.887046 
0.910001 
0.869829 
0.915556 
0.869829 
0.910001 
0.887046 
0.892784 
0.915740 
0.892784 
0.927218 
0.892784 
0.927218 
0.892784 
0.915740 
0.892784 
0.781831 
0.864274 
0.946717 
0.864274 
0.881307 
0.921110 
0.858535 
0.921110 
0.881307 
0.887046 
0.910001 
0.869829 
0.915556 
0.869829 
0.910001 
0.887046 
0.892784 
0.915740 
0.892784 
0.927218 
0.892784 
0.927218 
0.892784 
0.915740 
0.892784 
SCALARS MASS float 
LOOKUP_TABLE default 
0.781831 
0.864274 
0.946717 
0.864274 
0.881307 
0.921110 
0.858535 
0.921110 
0.881307 
0.887046 
0.910001 
0.869829 
0.915556 
0.869829 
0.910001 
0.887046 
0.892784 
0.915740 
0.892784 
0.927218 
0.892784 
0.927218 
0.892784 
0.915740 
0.892784 
0.781831 
0.864274 
0.946717 
0.864274 
0.881307 
0.921110 
0.858535 
0.921110 
0.881307 
0.887046 
0.910001 
0.869829 
0.915556 
0.869829 
0.910001 
0.887046 
0.892784 
0.915740 
0.892784 
0.927218 
0.892784 
0.927218 
0.892784 
0.915740 
0.892784 
0.781831 
0.864274 
0.946717 
0.864274 
0.881307 
0.921110 
0.858535 
0.921110 
0.881307 
0.887046 
0.910001 
0.869829 
0.915556 
0.869829 
0.910001 
0.887046 
0.892784 
0.915740 
0.892784 
0.927218 
0.892784 
0.927218 
0.892784 
0.915740 
0.892784 
0.781831 
0.864274 
0.946717 
0.864274 
0.881307 
0.921110 
0.858535 
0.921110 
0.881307 
0.887046 
0.910001 
0.869829 
0.915556 
0.869829 
0.910001 
0.887046 
0.892784 
0.915740 
0.892784 
0.927218 
0.892784 
0.927218 
0.892784 
0.915740 
0.892784 
0.781831 
0.864274 
0.946717 
0.864274 
0.881307 
0.921110 
0.858535 
0.921110 
0.881307 
0.887046 
0.910001 
0.869829 
0.915556 
0.869829 
0.910001 
0.887046 
0.892784 
0.915740 
0.892784 
0.927218 
0.892784 
0.927218 
0.892784 
0.915740 
0.892784 
0.781831 
0.864274 
0.946717 
0.864274 
0.881307 
0.921110 
0.858535 
0.921110 
0.881307 
0.887046 
0.910001 
0.869829 
0.915556 
0.869829 
0.910001 
0.887046 
0.892784 
0.915740 
0.892784 
0.927218 
0.892784 
0.927218 
0.892784 
0.915740 
0.892784 
0.781831 
0.864274 
0.946717 
0.864274 
0.881307 
0.921110 
0.858535 
0.921110 
0.881307 
0.887046 
0.910001 
0.869829 
0.915556 
0.869829 
0.910001 
0.887046 
0.892784 
0.915740 
0.892784 
0.927218 
0.892784 
0.927218 
0.892784 
0.915740 
0.892784 
SCALARS DENSITY float 
LOOKUP_TABLE default 
200.000000 
200.000000 
200.000000 
200.000000 
200.000000 
200.000000 
200.000000 
200.000000 
200.000000 
200.000000 
200.000000 
200.000000 
200.000000 
200.000000 
200.000000 
200.000000 
200.000000 
200.000000 
200.000000 
200.000000 
200.000000 
200.000000 
200.000000 
200.000000 
200.000000 
200.000000 
200.000000 
200.000000 
200.000000 
200.000000 
200.000000 
200.000000 
200.000000 
200.000000 
200.000000 
200.000000 
200.000000 
200.000000 
200.000000 
200.000000 
200.000000 
200.000000 
200.000000 
200.000000 
200.000000 
200.000000 
200.000000 
200.000000 
200.000000 
200.000000 
200.000000 
200.000000 
200.000000 
200.000000 
200.000000 
200.000000 
200.000000 
200.000000 
200.000000 
200.000000 
200.000000 
200.000000 
200.000000 
200.000000 
200.000000 
200.000000 
200.000000 
200.000000 
200.000000 
200.000000 
200.000000 
200.000000 
200.000000 
200.000000 
200.000000 
200.000000 
200.000000 
200.000000 
200.000000 
200.000000 
200.000000 
200.000000 
200.000000 
200.000000 
200.000000 
200.000000 
200.000000 
200.000000 
200.000000 
200.000000 
200.000000 
200.000000 
200.000000 
200.000000 
200.000000 
200.000000 
200.000000 
200.000000 
200.000000 
200.000000 
200.000000 
200.000000 
200.000000 
200.000000 
200.000000 
200.000000 
200.000000 
200.000000 
200.000000 
200.000000 
200.000000 
200.000000 
200.000000 
200.000000 
200.000000 
200.000000 
200.000000 
200.000000 
200.000000 
200.000000 
200.000000 
200.000000 
200.000000 
200.000000 
200.000000 
200.000000 
200.000000 
200.000000 
200.000000 
200.000000 
200.000000 
200.000000 
200.000000 
200.000000 
200.000000 
200.000000 
200.000000 
200.000000 
200.000000 
200.000000 
200.000000 
200.000000 
200.000000 
200.000000 
200.000000 
200.000000 
200.000000 
200.000000 
200.000000 
200.000000 
200.000000 
200.000000 
200.000000 
200.000000 
200.000000 
200.000000 
200.000000 
200.000000 
200.000000 
200.000000 
200.000000 
200.000000 
200.000000 
200.000000 
200.000000 
200.000000 
200.000000 
200.000000 
200.000000 
200.000000 
200.000000 
200.000000 
200.000000 
200.000000 
200.000000 
SCALARS ELEM_i float 
LOOKUP_TABLE default 
179 
207 
180 
180 
207 
207 
208 
181 
181 
235 
208 
208 
208 
208 
181 
182 
235 
235 
236 
209 
209 
209 
209 
182 
182 
179 
206 
206 
207 
233 
206 
233 
207 
207 
233 
233 
233 
234 
234 
234 
234 
260 
260 
260 
260 
261 
261 
261 
235 
235 
179 
205 
206 
206 
205 
205 
205 
205 
232 
204 
204 
231 
232 
232 
232 
232 
203 
231 
231 
231 
231 
231 
259 
259 
259 
179 
178 
178 
178 
150 
178 
177 
178 
204 
150 
150 
177 
177 
177 
204 
204 
149 
149 
149 
176 
176 
176 
203 
203 
203 
179 
152 
152 
151 
124 
151 
151 
151 
151 
124 
124 
124 
124 
123 
150 
150 
97 
97 
97 
123 
123 
123 
123 
123 
149 
179 
153 
152 
152 
153 
153 
125 
152 
125 
126 
126 
126 
126 
125 
125 
125 
127 
127 
99 
99 
99 
98 
98 
98 
98 
179 
180 
180 
153 
181 
181 
154 
153 
153 
182 
181 
154 
154 
154 
154 
127 
182 
182 
155 
155 
155 
155 
128 
127 
127 
VECTORS VELOCITY float 
-0.000000 -2.791926 0.000000 
-0.000000 -2.791926 0.000000 
-0.000000 -2.791926 0.000000 
-0.000000 -2.791926 0.000000 
0.000000 -2.791926 0.000000 
0.000000 -2.791926 0.000000 
-0.000000 -2.791926 0.000000 
-0.000000 -2.791926 0.000000 
-0.000000 -2.791926 0.000000 
0.000000 -2.791926 0.000000 
0.000000 -2.791926 0.000000 
-0.000000 -2.791926 0.000000 
-0.000000 -2.791926 0.000000 
0.000000 -2.791926 0.000000 
0.000000 -2.791926 0.000000 
0.000000 -2.791926 0.000000 
0.000000 -2.791926 0.000000 
0.000000 -2.791926 0.000000 
0.000000 -2.791926 0.000000 
-0.000000 -2.791926 0.000000 
-0.000000 -2.791926 0.000000 
-0.000000 -2.791926 0.000000 
-0.000000 -2.791926 0.000000 
-0.000000 -2.791926 0.000000 
-0.000000 -2.791926 0.000000 
0.000000 -2.791926 0.000000 
0.000000 -2.791926 0.000000 
-0.000000 -2.791926 0.000000 
-0.000000 -2.791926 0.000000 
0.000000 -2.791926 0.000000 
0.000000 -2.791926 0.000000 
0.000000 -2.791926 0.000000 
0.000000 -2.791926 0.000000 
0.000000 -2.791926 0.000000 
-0.000000 -2.791926 0.000000 
-0.000000 -2.791926 0.000000 
-0.000000 -2.791926 0.000000 
-0.000000 -2.791926 0.000000 
0.000000 -2.791926 0.000000 
0.000000 -2.791926 0.000000 
0.000000 -2.791926 0.000000 
-0.000000 -2.791926 0.000000 
-0.000000 -2.791926 0.000000 
0.000000 -2.791926 0.000000 
-0.000000 -2.791926 0.000000 
-0.000000 -2.791926 0.000000 
-0.000000 -2.791926 0.000000 
-0.000000 -2.791926 0.000000 
0.000000 -2.791926 0.000000 
-0.000000 -2.791926 0.000000 
0.000000 -2.791926 0.000000 
0.000000 -2.791926 0.000000 
0.000000 -2.791926 0.000000 
0.000000 -2.791926 0.000000 
0.000000 -2.791926 0.000000 
0.000000 -2.791926 0.000000 
0.000000 -2.791926 0.000000 
0.000000 -2.791926 0.000000 
0.000000 -2.791926 0.000000 
0.000000 -2.791926 0.000000 
0.000000 -2.791926 0.000000 
0.000000 -2.791926 0.000000 
0.000000 -2.791926 0.000000 
-0.000000 -2.791926 0.000000 
0.000000 -2.791926 0.000000 
-0.000000 -2.791926 0.000000 
-0.000000 -2.791926 0.000000 
-0.000000 -2.791926 0.000000 
0.000000 -2.791926 0.000000 
0.000000 -2.791926 0.000000 
-0.000000 -2.791926 0.000000 
-0.000000 -2.791926 0.000000 
-0.000000 -2.791926 0.000000 
-0.000000 -2.791926 0.000000 
-0.000000 -2.791926 0.000000 
0.000000 -2.791926 0.000000 
0.000000 -2.791926 0.000000 
0.000000 -2.791926 0.000000 
0.000000 -2.791926 0.000000 
0.000000 -2.791926 0.000000 
0.000000 -2.791926 0.000000 
-0.000000 -2.791926 0.000000 
-0.000000 -2.791926 0.000000 
-0.000000 -2.791926 0.000000 
-0.000000 -2.791926 0.000000 
-0.000000 -2.791926 0.000000 
0.000000 -2.791926 0.000000 
-0.000000 -2.791926 0.000000 
-0.000000 -2.791926 0.000000 
-0.000000 -2.791926 0.000000 
-0.000000 -2.791926 0.000000 
-0.000000 -2.791926 0.000000 
0.000000 -2.791926 0.000000 
-0.000000 -2.791926 0.000000 
0.000000 -2.791926 0.000000 
-0.000000 -2.791926 0.000000 
0.000000 -2.791926 0.000000 
0.000000 -2.791926 0.000000 
-0.000000 -2.791926 0.000000 
0.000000 -2.791926 0.000000 
-0.000000 -2.791926 0.000000 
-0.000000 -2.791926 0.000000 
-0.000000 -2.791926 0.000000 
-0.000000 -2.791926 0.000000 
0.000000 -2.791926 0.000000 
-0.000000 -2.791926 0.000000 
-0.000000 -2.791926 0.000000 
-0.000000 -2.791926 0.000000 
-0.000000 -2.791926 0.000000 
0.000000 -2.791926 0.000000 
0.000000 -2.791926 0.000000 
0.000000 -2.791926 0.000000 
-0.000000 -2.791926 0.000000 
-0.000000 -2.791926 0.000000 
-0.000000 -2.791926 0.000000 
-0.000000 -2.791926 0.000000 
-0.000000 -2.791926 0.000000 
0.000000 -2.791926 0.000000 
-0.000000 -2.791926 0.000000 
0.000000 -2.791926 0.000000 
0.000000 -2.791926 0.000000 
-0.000000 -2.791926 0.000000 
-0.000000 -2.791926 0.000000 
-0.000000 -2.791926 0.000000 
-0.000000 -2.791926 0.000000 
0.000000 -2.791926 0.000000 
0.000000 -2.791926 0.000000 
0.000000 -2.791926 0.000000 
-0.000000 -2.791926 0.000000 
0.000000 -2.791926 0.000000 
0.000000 -2.791926 0.000000 
-0.000000 -2.791926 0.000000 
-0.000000 -2.791926 0.000000 
-0.000000 -2.791926 0.000000 
0.000000 -2.791926 0.000000 
0.000000 -2.791926 0.000000 
-0.000000 -2.791926 0.000000 
-0.000000 -2.791926 0.000000 
0.000000 -2.791926 0.000000 
0.000000 -2.791926 0.000000 
0.000000 -2.791926 0.000000 
0.000000 -2.791926 0.000000 
0.000000 -2.791926 0.000000 
0.000000 -2.791926 0.000000 
-0.000000 -2.791926 0.000000 
0.000000 -2.791926 0.000000 
-0.000000 -2.791926 0.000000 
-0.000000 -2.791926 0.000000 
0.000000 -2.791926 0.000000 
-0.000000 -2.791926 0.000000 
-0.000000 -2.791926 0.000000 
-0.000000 -2.791926 0.000000 
0.000000 -2.791926 0.000000 
0.000000 -2.791926 0.000000 
0.000000 -2.791926 0.000000 
0.000000 -2.791926 0.000000 
0.000000 -2.791926 0.000000 
0.000000 -2.791926 0.000000 
0.000000 -2.791926 0.000000 
0.000000 -2.791926 0.000000 
0.000000 -2.791926 0.000000 
-0.000000 -2.791926 0.000000 
0.000000 -2.791926 0.000000 
-0.000000 -2.791926 0.000000 
0.000000 -2.791926 0.000000 
0.000000 -2.791926 0.000000 
0.000000 -2.791926 0.000000 
0.000000 -2.791926 0.000000 
0.000000 -2.791926 0.000000 
0.000000 -2.791926 0.000000 
0.000000 -2.791926 0.000000 
0.000000 -2.791926 0.000000 
0.000000 -2.791926 0.000000 
-0.000000 -2.791926 0.000000 
-0.000000 -2.791926 0.000000 
TENSORS STRESS float 
0.000000 -0.000000 0.000000 
0.000000 0.000000 0.000000 
0.000000 0.000000 0.000000 

-0.000000 -0.000000 0.000000 
0.000000 -0.000000 0.000000 
0.000000 0.000000 0.000000 

-0.000000 0.000000 0.000000 
0.000000 -0.000000 0.000000 
0.000000 0.000000 0.000000 

-0.000000 -0.000000 0.000000 
0.000000 -0.000000 0.000000 
0.000000 0.000000 0.000000 

0.000000 0.000000 0.000000 
0.000000 0.000000 0.000000 
0.000000 0.000000 0.000000 

-0.000000 0.000000 0.000000 
0.000000 -0.000000 0.000000 
0.000000 0.000000 0.000000 

0.000000 -0.000000 0.000000 
0.000000 0.000000 0.000000 
0.000000 0.000000 0.000000 

-0.000000 0.000000 0.000000 
0.000000 -0.000000 0.000000 
0.000000 0.000000 0.000000 

0.000000 -0.000000 0.000000 
0.000000 0.000000 0.000000 
0.000000 0.000000 0.000000 

0.000000 0.000000 0.000000 
0.000000 0.000000 0.000000 
0.000000 0.000000 0.000000 

0.000000 -0.000000 0.000000 
0.000000 0.000000 0.000000 
0.000000 0.000000 0.000000 

-0.000000 -0.000000 0.000000 
0.000000 -0.000000 0.000000 
0.000000 0.000000 0.000000 

0.000000 -0.000000 0.000000 
0.000000 0.000000 0.000000 
0.000000 0.000000 0.000000 

0.000000 0.000000 0.000000 
0.000000 0.000000 0.000000 
0.000000 0.000000 0.000000 

0.000000 0.000000 0.000000 
0.000000 0.000000 0.000000 
0.000000 0.000000 0.000000 

0.000000 0.000000 0.000000 
0.000000 0.000000 0.000000 
0.000000 0.000000 0.000000 

0.000000 -0.000000 0.000000 
0.000000 0.000000 0.000000 
0.000000 0.000000 0.000000 

0.000000 0.000000 0.000000 
0.000000 0.000000 0.000000 
0.000000 0.000000 0.000000 

-0.000000 0.000000 0.000000 
0.000000 -0.000000 0.000000 
0.000000 0.000000 0.000000 

-0.000000 -0.000000 0.000000 
0.000000 -0.000000 0.000000 
0.000000 0.000000 0.000000 

0.000000 -0.000000 0.000000 
0.000000 0.000000 0.000000 
0.000000 0.000000 0.000000 

0.000000 -0.000000 0.000000 
0.000000 -0.000000 0.000000 
0.000000 0.000000 0.000000 

-0.000000 -0.000000 0.000000 
0.000000 -0.000000 0.000000 
0.000000 0.000000 0.000000 

0.000000 0.000000 0.000000 
0.000000 0.000000 0.000000 
0.000000 0.000000 0.000000 

-0.000000 0.000000 0.000000 
0.000000 -0.000000 0.000000 
0.000000 0.000000 0.000000 

-0.000000 0.000000 0.000000 
0.000000 -0.000000 0.000000 
0.000000 0.000000 0.000000 

-0.000000 0.000000 0.000000 
0.000000 -0.000000 0.000000 
0.000000 0.000000 0.000000 

0.000000 0.000000 0.000000 
0.000000 0.000000 0.000000 
0.000000 0.000000 0.000000 

0.000000 -0.000000 0.000000 
0.000000 0.000000 0.000000 
0.000000 0.000000 0.000000 

-0.000000 -0.000000 0.000000 
0.000000 -0.000000 0.000000 
0.000000 0.000000 0.000000 

0.000000 0.000000 0.000000 
0.000000 0.000000 0.000000 
0.000000 0.000000 0.000000 

0.000000 -0.000000 0.000000 
0.000000 0.000000 0.000000 
0.000000 0.000000 0.000000 

-0.000000 0.000000 0.000000 
0.000000 -0.000000 0.000000 
0.000000 0.000000 0.000000 

0.000000 -0.000000 0.000000 
0.000000 0.000000 0.000000 
0.000000 0.000000 0.000000 

-0.000000 -0.000000 0.000000 
0.000000 -0.000000 0.000000 
0.000000 0.000000 0.000000 

-0.000000 -0.000000 0.000000 
0.000000 -0.000000 0.000000 
0.000000 0.000000 0.000000 

-0.000000 -0.000000 0.000000 
0.000000 -0.000000 0.000000 
0.000000 0.000000 0.000000 

0.000000 -0.000000 0.000000 
0.000000 -0.000000 0.000000 
0.000000 0.000000 0.000000 

0.000000 -0.000000 0.000000 
0.000000 0.000000 0.000000 
0.000000 0.000000 0.000000 

0.000000 -0.000000 0.000000 
0.000000 0.000000 0.000000 
0.000000 0.000000 0.000000 

0.000000 0.000000 0.000000 
0.000000 0.000000 0.000000 
0.000000 0.000000 0.000000 

-0.000000 -0.000000 0.000000 
0.000000 -0.000000 0.000000 
0.000000 0.000000 0.000000 

0.000000 -0.000000 0.000000 
0.000000 0.000000 0.000000 
0.000000 0.000000 0.000000 

0.000000 -0.000000 0.000000 
0.000000 0.000000 0.000000 
0.000000 0.000000 0.000000 

-0.000000 0.000000 0.000000 
0.000000 -0.000000 0.000000 
0.000000 0.000000 0.000000 

-0.000000 -0.000000 0.000000 
0.000000 -0.000000 0.000000 
0.000000 0.000000 0.000000 

0.000000 -0.000000 0.000000 
0.000000 0.000000 0.000000 
0.000000 0.000000 0.000000 

0.000000 0.000000 0.000000 
0.000000 -0.000000 0.000000 
0.000000 0.000000 0.000000 

-0.000000 0.000000 0.000000 
0.000000 -0.000000 0.000000 
0.000000 0.000000 0.000000 

0.000000 -0.000000 0.000000 
0.000000 0.000000 0.000000 
0.000000 0.000000 0.000000 

0.000000 -0.000000 0.000000 
0.000000 0.000000 0.000000 
0.000000 0.000000 0.000000 

0.000000 -0.000000 0.000000 
0.000000 0.000000 0.000000 
0.000000 0.000000 0.000000 

-0.000000 -0.000000 0.000000 
0.000000 -0.000000 0.000000 
0.000000 0.000000 0.000000 

-0.000000 -0.000000 0.000000 
0.000000 -0.000000 0.000000 
0.000000 0.000000 0.000000 

0.000000 0.000000 0.000000 
0.000000 0.000000 0.000000 
0.000000 0.000000 0.000000 

0.000000 0.000000 0.000000 
0.000000 0.000000 0.000000 
0.000000 0.000000 0.000000 

0.000000 0.000000 0.000000 
0.000000 0.000000 0.000000 
0.000000 0.000000 0.000000 

-0.000000 -0.000000 0.000000 
0.000000 -0.000000 0.000000 
0.000000 0.000000 0.000000 

-0.000000 -0.000000 0.000000 
0.000000 -0.000000 0.000000 
0.000000 0.000000 0.000000 

0.000000 0.000000 0.000000 
0.000000 0.000000 0.000000 
0.000000 0.000000 0.000000 

0.000000 -0.000000 0.000000 
0.000000 0.000000 0.000000 
0.000000 0.000000 0.000000 

-0.000000 -0.000000 0.000000 
0.000000 -0.000000 0.000000 
0.000000 0.000000 0.000000 

-0.000000 0.000000 0.000000 
0.000000 -0.000000 0.000000 
0.000000 0.000000 0.000000 

-0.000000 0.000000 0.000000 
0.000000 -0.000000 0.000000 
0.000000 0.000000 0.000000 

-0.000000 0.000000 0.000000 
0.000000 0.000000 0.000000 
0.000000 0.000000 0.000000 

-0.000000 -0.000000 0.000000 
0.000000 -0.000000 0.000000 
0.000000 0.000000 0.000000 

-0.000000 -0.000000 0.000000 
0.000000 -0.000000 0.000000 
0.000000 0.000000 0.000000 

0.000000 -0.000000 0.000000 
0.000000 0.000000 0.000000 
0.000000 0.000000 0.000000 

0.000000 -0.000000 0.000000 
0.000000 0.000000 0.000000 
0.000000 0.000000 0.000000 

-0.000000 -0.000000 0.000000 
0.000000 -0.000000 0.000000 
0.000000 0.000000 0.000000 

0.000000 -0.000000 0.000000 
0.000000 0.000000 0.000000 
0.000000 0.000000 0.000000 

0.000000 0.000000 0.000000 
0.000000 0.000000 0.000000 
0.000000 0.000000 0.000000 

-0.000000 0.000000 0.000000 
0.000000 -0.000000 0.000000 
0.000000 0.000000 0.000000 

0.000000 0.000000 0.000000 
0.000000 0.000000 0.000000 
0.000000 0.000000 0.000000 

0.000000 0.000000 0.000000 
0.000000 0.000000 0.000000 
0.000000 0.000000 0.000000 

-0.000000 -0.000000 0.000000 
0.000000 -0.000000 0.000000 
0.000000 0.000000 0.000000 

0.000000 -0.000000 0.000000 
0.000000 0.000000 0.000000 
0.000000 0.000000 0.000000 

-0.000000 -0.000000 0.000000 
0.000000 -0.000000 0.000000 
0.000000 0.000000 0.000000 

0.000000 -0.000000 0.000000 
0.000000 0.000000 0.000000 
0.000000 0.000000 0.000000 

0.000000 -0.000000 0.000000 
0.000000 0.000000 0.000000 
0.000000 0.000000 0.000000 

-0.000000 -0.000000 0.000000 
0.000000 -0.000000 0.000000 
0.000000 0.000000 0.000000 

0.000000 -0.000000 0.000000 
0.000000 0.000000 0.000000 
0.000000 0.000000 0.000000 

-0.000000 -0.000000 0.000000 
0.000000 -0.000000 0.000000 
0.000000 0.000000 0.000000 

0.000000 0.000000 0.000000 
0.000000 0.000000 0.000000 
0.000000 0.000000 0.000000 

-0.000000 -0.000000 0.000000 
0.000000 -0.000000 0.000000 
0.000000 0.000000 0.000000 

0.000000 -0.000000 0.000000 
0.000000 0.000000 0.000000 
0.000000 0.000000 0.000000 

0.000000 -0.000000 0.000000 
0.000000 0.000000 0.000000 
0.000000 0.000000 0.000000 

0.000000 -0.000000 0.000000 
0.000000 0.000000 0.000000 
0.000000 0.000000 0.000000 

-0.000000 -0.000000 0.000000 
0.000000 -0.000000 0.000000 
0.000000 0.000000 0.000000 

0.000000 0.000000 0.000000 
0.000000 0.000000 0.000000 
0.000000 0.000000 0.000000 

-0.000000 -0.000000 0.000000 
0.000000 -0.000000 0.000000 
0.000000 0.000000 0.000000 

0.000000 0.000000 0.000000 
0.000000 0.000000 0.000000 
0.000000 0.000000 0.000000 

-0.000000 0.000000 0.000000 
0.000000 -0.000000 0.000000 
0.000000 0.000000 0.000000 

-0.000000 0.000000 0.000000 
0.000000 -0.000000 0.000000 
0.000000 0.000000 0.000000 

0.000000 0.000000 0.000000 
0.000000 0.000000 0.000000 
0.000000 0.000000 0.000000 

0.000000 -0.000000 0.000000 
0.000000 0.000000 0.000000 
0.000000 0.000000 0.000000 

-0.000000 -0.000000 0.000000 
0.000000 -0.000000 0.000000 
0.000000 0.000000 0.000000 

0.000000 -0.000000 0.000000 
0.000000 0.000000 0.000000 
0.000000 0.000000 0.000000 

-0.000000 -0.000000 0.000000 
0.000000 -0.000000 0.000000 
0.000000 0.000000 0.000000 

0.000000 0.000000 0.000000 
0.000000 0.000000 0.000000 
0.000000 0.000000 0.000000 

0.000000 -0.000000 0.000000 
0.000000 0.000000 0.000000 
0.000000 0.000000 0.000000 

-0.000000 -0.000000 0.000000 
0.000000 0.000000 0.000000 
0.000000 0.000000 0.000000 

0.000000 -0.000000 0.000000 
0.000000 0.000000 0.000000 
0.000000 0.000000 0.000000 

-0.000000 -0.000000 0.000000 
0.000000 -0.000000 0.000000 
0.000000 0.000000 0.000000 

0.000000 -0.000000 0.000000 
0.000000 0.000000 0.000000 
0.000000 0.000000 0.000000 

-0.000000 -0.000000 0.000000 
0.000000 -0.000000 0.000000 
0.000000 0.000000 0.000000 

-0.000000 -0.000000 0.000000 
0.000000 -0.000000 0.000000 
0.000000 0.000000 0.000000 

-0.000000 -0.000000 0.000000 
0.000000 -0.000000 0.000000 
0.000000 0.000000 0.000000 

-0.000000 -0.000000 0.000000 
0.000000 -0.000000 0.000000 
0.000000 0.000000 0.000000 

0.000000 0.000000 0.000000 
0.000000 0.000000 0.000000 
0.000000 0.000000 0.000000 

0.000000 0.000000 0.000000 
0.000000 0.000000 0.000000 
0.000000 0.000000 0.000000 

-0.000000 0.000000 0.000000 
0.000000 -0.000000 0.000000 
0.000000 0.000000 0.000000 

0.000000 0.000000 0.000000 
0.000000 0.000000 0.000000 
0.000000 0.000000 0.000000 

-0.000000 -0.000000 0.000000 
0.000000 -0.000000 0.000000 
0.000000 0.000000 0.000000 

0.000000 -0.000000 0.000000 
0.000000 0.000000 0.000000 
0.000000 0.000000 0.000000 

0.000000 -0.000000 0.000000 
0.000000 0.000000 0.000000 
0.000000 0.000000 0.000000 

0.000000 -0.000000 0.000000 
0.000000 0.000000 0.000000 
0.000000 0.000000 0.000000 

0.000000 0.000000 0.000000 
0.000000 0.000000 0.000000 
0.000000 0.000000 0.000000 

0.000000 0.000000 0.000000 
0.000000 0.000000 0.000000 
0.000000 0.000000 0.000000 

0.000000 -0.000000 0.000000 
0.000000 0.000000 0.000000 
0.000000 0.000000 0.000000 

0.000000 -0.000000 0.000000 
0.000000 0.000000 0.000000 
0.000000 0.000000 0.000000 

0.000000 0.000000 0.000000 
0.000000 0.000000 0.000000 
0.000000 0.000000 0.000000 

-0.000000 -0.000000 0.000000 
0.000000 -0.000000 0.000000 
0.000000 0.000000 0.000000 

0.000000 -0.000000 0.000000 
0.000000 0.000000 0.000000 
0.000000 0.000000 0.000000 

-0.000000 0.000000 0.000000 
0.000000 -0.000000 0.000000 
0.000000 0.000000 0.000000 

0.000000 0.000000 0.000000 
0.000000 0.000000 0.000000 
0.000000 0.000000 0.000000 

-0.000000 -0.000000 0.000000 
0.000000 -0.000000 0.000000 
0.000000 0.000000 0.000000 

0.000000 0.000000 0.000000 
0.000000 0.000000 0.000000 
0.000000 0.000000 0.000000 

0.000000 -0.000000 0.000000 
0.000000 0.000000 0.000000 
0.000000 0.000000 0.000000 

0.000000 -0.000000 0.000000 
0.000000 0.000000 0.000000 
0.000000 0.000000 0.000000 

-0.000000 -0.000000 0.000000 
0.000000 -0.000000 0.000000 
0.000000 0.000000 0.000000 

-0.000000 0.000000 0.000000 
0.000000 -0.000000 0.000000 
0.000000 0.000000 0.000000 

0.000000 -0.000000 0.000000 
0.000000 0.000000 0.000000 
0.000000 0.000000 0.000000 

0.000000 -0.000000 0.000000 
0.000000 0.000000 0.000000 
0.000000 0.000000 0.000000 

-0.000000 0.000000 0.000000 
0.000000 -0.000000 0.000000 
0.000000 0.000000 0.000000 

-0.000000 0.000000 0.000000 
0.000000 -0.000000 0.000000 
0.000000 0.000000 0.000000 

0.000000 -0.000000 0.000000 
0.000000 0.000000 0.000000 
0.000000 0.000000 0.000000 

-0.000000 -0.000000 0.000000 
0.000000 -0.000000 0.000000 
0.000000 0.000000 0.000000 

0.000000 -0.000000 0.000000 
0.000000 0.000000 0.000000 
0.000000 0.000000 0.000000 

0.000000 -0.000000 0.000000 
0.000000 -0.000000 0.000000 
0.000000 0.000000 0.000000 

0.000000 -0.000000 0.000000 
0.000000 0.000000 0.000000 
0.000000 0.000000 0.000000 

0.000000 0.000000 0.000000 
0.000000 0.000000 0.000000 
0.000000 0.000000 0.000000 

0.000000 0.000000 0.000000 
0.000000 0.000000 0.000000 
0.000000 0.000000 0.000000 

-0.000000 -0.000000 0.000000 
0.000000 -0.000000 0.000000 
0.000000 0.000000 0.000000 

0.000000 0.000000 0.000000 
0.000000 0.000000 0.000000 
0.000000 0.000000 0.000000 

-0.000000 0.000000 0.000000 
0.000000 -0.000000 0.000000 
0.000000 0.000000 0.000000 

0.000000 0.000000 0.000000 
0.000000 0.000000 0.000000 
0.000000 0.000000 0.000000 

0.000000 0.000000 0.000000 
0.000000 0.000000 0.000000 
0.000000 0.000000 0.000000 

0.000000 0.000000 0.000000 
0.000000 0.000000 0.000000 
0.000000 0.000000 0.000000 

0.000000 -0.000000 0.000000 
0.000000 0.000000 0.000000 
0.000000 0.000000 0.000000 

0.000000 0.000000 0.000000 
0.000000 0.000000 0.000000 
0.000000 0.000000 0.000000 

-0.000000 0.000000 0.000000 
0.000000 -0.000000 0.000000 
0.000000 0.000000 0.000000 

0.000000 0.000000 0.000000 
0.000000 0.000000 0.000000 
0.000000 0.000000 0.000000 

-0.000000 -0.000000 0.000000 
0.000000 -0.000000 0.000000 
0.000000 0.000000 0.000000 

0.000000 -0.000000 0.000000 
0.000000 0.000000 0.000000 
0.000000 0.000000 0.000000 

0.000000 0.000000 0.000000 
0.000000 0.000000 0.000000 
0.000000 0.000000 0.000000 

-0.000000 -0.000000 0.000000 
0.000000 -0.000000 0.000000 
0.000000 0.000000 0.000000 

0.000000 -0.000000 0.000000 
0.000000 0.000000 0.000000 
0.000000 0.000000 0.000000 

0.000000 -0.000000 0.000000 
0.000000 0.000000 0.000000 
0.000000 0.000000 0.000000 

-0.000000 0.000000 0.000000 
0.000000 -0.000000 0.000000 
0.000000 0.000000 0.000000 

0.000000 0.000000 0.000000 
0.000000 0.000000 0.000000 
0.000000 0.000000 0.000000 

0.000000 -0.000000 0.000000 
0.000000 0.000000 0.000000 
0.000000 0.000000 0.000000 

-0.000000 -0.000000 0.000000 
0.000000 -0.000000 0.000000 
0.000000 0.000000 0.000000 

0.000000 -0.000000 0.000000 
0.000000 0.000000 0.000000 
0.000000 0.000000 0.000000 

-0.000000 -0.000000 0.000000 
0.000000 -0.000000 0.000000 
0.000000 0.000000 0.000000 

0.000000 0.000000 0.000000 
0.000000 -0.000000 0.000000 
0.000000 0.000000 0.000000 

0.000000 0.000000 0.000000 
0.000000 0.000000 0.000000 
0.000000 0.000000 0.000000 

-0.000000 -0.000000 0.000000 
0.000000 -0.000000 0.000000 
0.000000 0.000000 0.000000 

-0.000000 -0.000000 0.000000 
0.000000 -0.000000 0.000000 
0.000000 0.000000 0.000000 

0.000000 -0.000000 0.000000 
0.000000 -0.000000 0.000000 
0.000000 0.000000 0.000000 

0.000000 -0.000000 0.000000 
0.000000 0.000000 0.000000 
0.000000 0.000000 0.000000 

0.000000 -0.000000 0.000000 
0.000000 0.000000 0.000000 
0.000000 0.000000 0.000000 

0.000000 0.000000 0.000000 
0.000000 0.000000 0.000000 
0.000000 0.000000 0.000000 

0.000000 -0.000000 0.000000 
0.000000 0.000000 0.000000 
0.000000 0.000000 0.000000 

0.000000 -0.000000 0.000000 
0.000000 0.000000 0.000000 
0.000000 0.000000 0.000000 

TENSORS STRAIN float 
0.000000 -0.000000 0.000000 
0.000000 -0.000000 0.000000 
0.000000 0.000000 0.000000 

0.000000 -0.000000 0.000000 
0.000000 -0.000000 0.000000 
0.000000 0.000000 0.000000 

0.000000 0.000000 0.000000 
0.000000 -0.000000 0.000000 
0.000000 0.000000 0.000000 

0.000000 -0.000000 0.000000 
0.000000 -0.000000 0.000000 
0.000000 0.000000 0.000000 

0.000000 0.000000 0.000000 
0.000000 0.000000 0.000000 
0.000000 0.000000 0.000000 

0.000000 0.000000 0.000000 
0.000000 -0.000000 0.000000 
0.000000 0.000000 0.000000 

0.000000 -0.000000 0.000000 
0.000000 0.000000 0.000000 
0.000000 0.000000 0.000000 

0.000000 0.000000 0.000000 
0.000000 -0.000000 0.000000 
0.000000 0.000000 0.000000 

0.000000 -0.000000 0.000000 
0.000000 -0.000000 0.000000 
0.000000 0.000000 0.000000 

-0.000000 0.000000 0.000000 
0.000000 0.000000 0.000000 
0.000000 0.000000 0.000000 

0.000000 -0.000000 0.000000 
0.000000 0.000000 0.000000 
0.000000 0.000000 0.000000 

-0.000000 -0.000000 0.000000 
0.000000 0.000000 0.000000 
0.000000 0.000000 0.000000 

-0.000000 -0.000000 0.000000 
0.000000 0.000000 0.000000 
0.000000 0.000000 0.000000 

-0.000000 0.000000 0.000000 
0.000000 0.000000 0.000000 
0.000000 0.000000 0.000000 

0.000000 0.000000 0.000000 
0.000000 -0.000000 0.000000 
0.000000 0.000000 0.000000 

0.000000 0.000000 0.000000 
0.000000 -0.000000 0.000000 
0.000000 0.000000 0.000000 

0.000000 -0.000000 0.000000 
0.000000 -0.000000 0.000000 
0.000000 0.000000 0.000000 

0.000000 0.000000 0.000000 
0.000000 -0.000000 0.000000 
0.000000 0.000000 0.000000 

0.000000 0.000000 0.000000 
0.000000 -0.000000 0.000000 
0.000000 0.000000 0.000000 

0.000000 -0.000000 0.000000 
0.000000 -0.000000 0.000000 
0.000000 0.000000 0.000000 

0.000000 -0.000000 0.000000 
0.000000 -0.000000 0.000000 
0.000000 0.000000 0.000000 

0.000000 -0.000000 0.000000 
0.000000 -0.000000 0.000000 
0.000000 0.000000 0.000000 

0.000000 -0.000000 0.000000 
0.000000 -0.000000 0.000000 
0.000000 0.000000 0.000000 

-0.000000 0.000000 0.000000 
0.000000 0.000000 0.000000 
0.000000 0.000000 0.000000 

-0.000000 0.000000 0.000000 
0.000000 -0.000000 0.000000 
0.000000 0.000000 0.000000 

-0.000000 0.000000 0.000000 
0.000000 -0.000000 0.000000 
0.000000 0.000000 0.000000 

-0.000000 0.000000 0.000000 
0.000000 0.000000 0.000000 
0.000000 0.000000 0.000000 

-0.000000 0.000000 0.000000 
0.000000 0.000000 0.000000 
0.000000 0.000000 0.000000 

-0.000000 -0.000000 0.000000 
0.000000 0.000000 0.000000 
0.000000 0.000000 0.000000 

0.000000 -0.000000 0.000000 
0.000000 -0.000000 0.000000 
0.000000 0.000000 0.000000 

-0.000000 0.000000 0.000000 
0.000000 0.000000 0.000000 
0.000000 0.000000 0.000000 

0.000000 -0.000000 0.000000 
0.000000 0.000000 0.000000 
0.000000 0.000000 0.000000 

-0.000000 0.000000 0.000000 
0.000000 -0.000000 0.000000 
0.000000 0.000000 0.000000 

0.000000 -0.000000 0.000000 
0.000000 0.000000 0.000000 
0.000000 0.000000 0.000000 

0.000000 -0.000000 0.000000 
0.000000 -0.000000 0.000000 
0.000000 0.000000 0.000000 

0.000000 -0.000000 0.000000 
0.000000 -0.000000 0.000000 
0.000000 0.000000 0.000000 

0.000000 -0.000000 0.000000 
0.000000 -0.000000 0.000000 
0.000000 0.000000 0.000000 

0.000000 -0.000000 0.000000 
0.000000 -0.000000 0.000000 
0.000000 0.000000 0.000000 

0.000000 -0.000000 0.000000 
0.000000 -0.000000 0.000000 
0.000000 0.000000 0.000000 

0.000000 -0.000000 0.000000 
0.000000 0.000000 0.000000 
0.000000 0.000000 0.000000 

-0.000000 0.000000 0.000000 
0.000000 0.000000 0.000000 
0.000000 0.000000 0.000000 

0.000000 -0.000000 0.000000 
0.000000 -0.000000 0.000000 
0.000000 0.000000 0.000000 

0.000000 -0.000000 0.000000 
0.000000 -0.000000 0.000000 
0.000000 0.000000 0.000000 

0.000000 -0.000000 0.000000 
0.000000 -0.000000 0.000000 
0.000000 0.000000 0.000000 

0.000000 0.000000 0.000000 
0.000000 -0.000000 0.000000 
0.000000 0.000000 0.000000 

-0.000000 -0.000000 0.000000 
0.000000 0.000000 0.000000 
0.000000 0.000000 0.000000 

0.000000 -0.000000 0.000000 
0.000000 0.000000 0.000000 
0.000000 0.000000 0.000000 

0.000000 0.000000 0.000000 
0.000000 -0.000000 0.000000 
0.000000 0.000000 0.000000 

-0.000000 0.000000 0.000000 
0.000000 -0.000000 0.000000 
0.000000 0.000000 0.000000 

0.000000 -0.000000 0.000000 
0.000000 0.000000 0.000000 
0.000000 0.000000 0.000000 

-0.000000 -0.000000 0.000000 
0.000000 0.000000 0.000000 
0.000000 0.000000 0.000000 

-0.000000 -0.000000 0.000000 
0.000000 0.000000 0.000000 
0.000000 0.000000 0.000000 

-0.000000 -0.000000 0.000000 
0.000000 0.000000 0.000000 
0.000000 0.000000 0.000000 

-0.000000 -0.000000 0.000000 
0.000000 -0.000000 0.000000 
0.000000 0.000000 0.000000 

0.000000 0.000000 0.000000 
0.000000 0.000000 0.000000 
0.000000 0.000000 0.000000 

0.000000 0.000000 0.000000 
0.000000 0.000000 0.000000 
0.000000 0.000000 0.000000 

0.000000 0.000000 0.000000 
0.000000 0.000000 0.000000 
0.000000 0.000000 0.000000 

-0.000000 -0.000000 0.000000 
0.000000 0.000000 0.000000 
0.000000 0.000000 0.000000 

-0.000000 -0.000000 0.000000 
0.000000 -0.000000 0.000000 
0.000000 0.000000 0.000000 

0.000000 0.000000 0.000000 
0.000000 -0.000000 0.000000 
0.000000 0.000000 0.000000 

0.000000 -0.000000 0.000000 
0.000000 -0.000000 0.000000 
0.000000 0.000000 0.000000 

-0.000000 -0.000000 0.000000 
0.000000 0.000000 0.000000 
0.000000 0.000000 0.000000 

-0.000000 0.000000 0.000000 
0.000000 0.000000 0.000000 
0.000000 0.000000 0.000000 

-0.000000 0.000000 0.000000 
0.000000 0.000000 0.000000 
0.000000 0.000000 0.000000 

-0.000000 0.000000 0.000000 
0.000000 0.000000 0.000000 
0.000000 0.000000 0.000000 

-0.000000 -0.000000 0.000000 
0.000000 0.000000 0.000000 
0.000000 0.000000 0.000000 

-0.000000 -0.000000 0.000000 
0.000000 -0.000000 0.000000 
0.000000 0.000000 0.000000 

0.000000 -0.000000 0.000000 
0.000000 -0.000000 0.000000 
0.000000 0.000000 0.000000 

0.000000 -0.000000 0.000000 
0.000000 -0.000000 0.000000 
0.000000 0.000000 0.000000 

0.000000 -0.000000 0.000000 
0.000000 -0.000000 0.000000 
0.000000 0.000000 0.000000 

-0.000000 -0.000000 0.000000 
0.000000 0.000000 0.000000 
0.000000 0.000000 0.000000 

-0.000000 0.000000 0.000000 
0.000000 0.000000 0.000000 
0.000000 0.000000 0.000000 

0.000000 0.000000 0.000000 
0.000000 -0.000000 0.000000 
0.000000 0.000000 0.000000 

0.000000 0.000000 0.000000 
0.000000 0.000000 0.000000 
0.000000 0.000000 0.000000 

0.000000 0.000000 0.000000 
0.000000 -0.000000 0.000000 
0.000000 0.000000 0.000000 

-0.000000 -0.000000 0.000000 
0.000000 0.000000 0.000000 
0.000000 0.000000 0.000000 

-0.000000 -0.000000 0.000000 
0.000000 0.000000 0.000000 
0.000000 0.000000 0.000000 

-0.000000 -0.000000 0.000000 
0.000000 -0.000000 0.000000 
0.000000 0.000000 0.000000 

-0.000000 -0.000000 0.000000 
0.000000 0.000000 0.000000 
0.000000 0.000000 0.000000 

0.000000 -0.000000 0.000000 
0.000000 -0.000000 0.000000 
0.000000 0.000000 0.000000 

-0.000000 -0.000000 0.000000 
0.000000 -0.000000 0.000000 
0.000000 0.000000 0.000000 

-0.000000 -0.000000 0.000000 
0.000000 0.000000 0.000000 
0.000000 0.000000 0.000000 

-0.000000 -0.000000 0.000000 
0.000000 0.000000 0.000000 
0.000000 0.000000 0.000000 

0.000000 0.000000 0.000000 
0.000000 0.000000 0.000000 
0.000000 0.000000 0.000000 

0.000000 -0.000000 0.000000 
0.000000 -0.000000 0.000000 
0.000000 0.000000 0.000000 

0.000000 -0.000000 0.000000 
0.000000 0.000000 0.000000 
0.000000 0.000000 0.000000 

-0.000000 -0.000000 0.000000 
0.000000 0.000000 0.000000 
0.000000 0.000000 0.000000 

-0.000000 -0.000000 0.000000 
0.000000 0.000000 0.000000 
0.000000 0.000000 0.000000 

-0.000000 -0.000000 0.000000 
0.000000 -0.000000 0.000000 
0.000000 0.000000 0.000000 

0.000000 0.000000 0.000000 
0.000000 0.000000 0.000000 
0.000000 0.000000 0.000000 

0.000000 -0.000000 0.000000 
0.000000 -0.000000 0.000000 
0.000000 0.000000 0.000000 

0.000000 0.000000 0.000000 
0.000000 0.000000 0.000000 
0.000000 0.000000 0.000000 

0.000000 0.000000 0.000000 
0.000000 -0.000000 0.000000 
0.000000 0.000000 0.000000 

0.000000 0.000000 0.000000 
0.000000 -0.000000 0.000000 
0.000000 0.000000 0.000000 

-0.000000 0.000000 0.000000 
0.000000 0.000000 0.000000 
0.000000 0.000000 0.000000 

-0.000000 -0.000000 0.000000 
0.000000 0.000000 0.000000 
0.000000 0.000000 0.000000 

-0.000000 -0.000000 0.000000 
0.000000 0.000000 0.000000 
0.000000 0.000000 0.000000 

0.000000 -0.000000 0.000000 
0.000000 0.000000 0.000000 
0.000000 0.000000 0.000000 

-0.000000 -0.000000 0.000000 
0.000000 -0.000000 0.000000 
0.000000 0.000000 0.000000 

-0.000000 0.000000 0.000000 
0.000000 0.000000 0.000000 
0.000000 0.000000 0.000000 

-0.000000 -0.000000 0.000000 
0.000000 0.000000 0.000000 
0.000000 0.000000 0.000000 

-0.000000 -0.000000 0.000000 
0.000000 0.000000 0.000000 
0.000000 0.000000 0.000000 

-0.000000 -0.000000 0.000000 
0.000000 0.000000 0.000000 
0.000000 0.000000 0.000000 

-0.000000 -0.000000 0.000000 
0.000000 0.000000 0.000000 
0.000000 0.000000 0.000000 

0.000000 -0.000000 0.000000 
0.000000 -0.000000 0.000000 
0.000000 0.000000 0.000000 

-0.000000 -0.000000 0.000000 
0.000000 0.000000 0.000000 
0.000000 0.000000 0.000000 

-0.000000 -0.000000 0.000000 
0.000000 0.000000 0.000000 
0.000000 0.000000 0.000000 

-0.000000 -0.000000 0.000000 
0.000000 -0.000000 0.000000 
0.000000 0.000000 0.000000 

0.000000 -0.000000 0.000000 
0.000000 -0.000000 0.000000 
0.000000 0.000000 0.000000 

0.000000 0.000000 0.000000 
0.000000 -0.000000 0.000000 
0.000000 0.000000 0.000000 

0.000000 0.000000 0.000000 
0.000000 0.000000 0.000000 
0.000000 0.000000 0.000000 

-0.000000 0.000000 0.000000 
0.000000 -0.000000 0.000000 
0.000000 0.000000 0.000000 

-0.000000 0.000000 0.000000 
0.000000 0.000000 0.000000 
0.000000 0.000000 0.000000 

-0.000000 -0.000000 0.000000 
0.000000 0.000000 0.000000 
0.000000 0.000000 0.000000 

0.000000 -0.000000 0.000000 
0.000000 -0.000000 0.000000 
0.000000 0.000000 0.000000 

0.000000 -0.000000 0.000000 
0.000000 -0.000000 0.000000 
0.000000 0.000000 0.000000 

-0.000000 -0.000000 0.000000 
0.000000 0.000000 0.000000 
0.000000 0.000000 0.000000 

-0.000000 0.000000 0.000000 
0.000000 0.000000 0.000000 
0.000000 0.000000 0.000000 

-0.000000 0.000000 0.000000 
0.000000 0.000000 0.000000 
0.000000 0.000000 0.000000 

-0.000000 -0.000000 0.000000 
0.000000 0.000000 0.000000 
0.000000 0.000000 0.000000 

0.000000 -0.000000 0.000000 
0.000000 0.000000 0.000000 
0.000000 0.000000 0.000000 

0.000000 0.000000 0.000000 
0.000000 0.000000 0.000000 
0.000000 0.000000 0.000000 

0.000000 -0.000000 0.000000 
0.000000 -0.000000 0.000000 
0.000000 0.000000 0.000000 

0.000000 -0.000000 0.000000 
0.000000 -0.000000 0.000000 
0.000000 0.000000 0.000000 

0.000000 0.000000 0.000000 
0.000000 -0.000000 0.000000 
0.000000 0.000000 0.000000 

-0.000000 0.000000 0.000000 
0.000000 0.000000 0.000000 
0.000000 0.000000 0.000000 

-0.000000 -0.000000 0.000000 
0.000000 -0.000000 0.000000 
0.000000 0.000000 0.000000 

-0.000000 0.000000 0.000000 
0.000000 0.000000 0.000000 
0.000000 0.000000 0.000000 

-0.000000 -0.000000 0.000000 
0.000000 0.000000 0.000000 
0.000000 0.000000 0.000000 

0.000000 -0.000000 0.000000 
0.000000 0.000000 0.000000 
0.000000 0.000000 0.000000 

-0.000000 -0.000000 0.000000 
0.000000 -0.000000 0.000000 
0.000000 0.000000 0.000000 

0.000000 0.000000 0.000000 
0.000000 -0.000000 0.000000 
0.000000 0.000000 0.000000 

-0.000000 -0.000000 0.000000 
0.000000 0.000000 0.000000 
0.000000 0.000000 0.000000 

0.000000 -0.000000 0.000000 
0.000000 -0.000000 0.000000 
0.000000 0.000000 0.000000 

0.000000 0.000000 0.000000 
0.000000 -0.000000 0.000000 
0.000000 0.000000 0.000000 

0.000000 0.000000 0.000000 
0.000000 -0.000000 0.000000 
0.000000 0.000000 0.000000 

0.000000 -0.000000 0.000000 
0.000000 0.000000 0.000000 
0.000000 0.000000 0.000000 

0.000000 -0.000000 0.000000 
0.000000 -0.000000 0.000000 
0.000000 0.000000 0.000000 

0.000000 -0.000000 0.000000 
0.000000 -0.000000 0.000000 
0.000000 0.000000 0.000000 

0.000000 -0.000000 0.000000 
0.000000 -0.000000 0.000000 
0.000000 0.000000 0.000000 

0.000000 -0.000000 0.000000 
0.000000 -0.000000 0.000000 
0.000000 0.000000 0.000000 

0.000000 0.000000 0.000000 
0.000000 0.000000 0.000000 
0.000000 0.000000 0.000000 

0.000000 0.000000 0.000000 
0.000000 0.000000 0.000000 
0.000000 0.000000 0.000000 

0.000000 -0.000000 0.000000 
0.000000 -0.000000 0.000000 
0.000000 0.000000 0.000000 

0.000000 0.000000 0.000000 
0.000000 -0.000000 0.000000 
0.000000 0.000000 0.000000 

0.000000 0.000000 0.000000 
0.000000 -0.000000 0.000000 
0.000000 0.000000 0.000000 

0.000000 0.000000 0.000000 
0.000000 0.000000 0.000000 
0.000000 0.000000 0.000000 

0.000000 0.000000 0.000000 
0.000000 0.000000 0.000000 
0.000000 0.000000 0.000000 

-0.000000 0.000000 0.000000 
0.000000 0.000000 0.000000 
0.000000 0.000000 0.000000 

-0.000000 -0.000000 0.000000 
0.000000 0.000000 0.000000 
0.000000 0.000000 0.000000 

0.000000 0.000000 0.000000 
0.000000 -0.000000 0.000000 
0.000000 0.000000 0.000000 

0.000000 0.000000 0.000000 
0.000000 -0.000000 0.000000 
0.000000 0.000000 0.000000 

0.000000 0.000000 0.000000 
0.000000 -0.000000 0.000000 
0.000000 0.000000 0.000000 

-0.000000 -0.000000 0.000000 
0.000000 -0.000000 0.000000 
0.000000 0.000000 0.000000 

0.000000 -0.000000 0.000000 
0.000000 -0.000000 0.000000 
0.000000 0.000000 0.000000 

0.000000 0.000000 0.000000 
0.000000 -0.000000 0.000000 
0.000000 0.000000 0.000000 

0.000000 -0.000000 0.000000 
0.000000 -0.000000 0.000000 
0.000000 0.000000 0.000000 

0.000000 -0.000000 0.000000 
0.000000 -0.000000 0.000000 
0.000000 0.000000 0.000000 

0.000000 -0.000000 0.000000 
0.000000 0.000000 0.000000 
0.000000 0.000000 0.000000 

0.000000 0.000000 0.000000 
0.000000 -0.000000 0.000000 
0.000000 0.000000 0.000000 

0.000000 0.000000 0.000000 
0.000000 -0.000000 0.000000 
0.000000 0.000000 0.000000 

0.000000 -0.000000 0.000000 
0.000000 -0.000000 0.000000 
0.000000 0.000000 0.000000 

0.000000 -0.000000 0.000000 
0.000000 -0.000000 0.000000 
0.000000 0.000000 0.000000 

0.000000 -0.000000 0.000000 
0.000000 -0.000000 0.000000 
0.000000 0.000000 0.000000 

0.000000 -0.000000 0.000000 
0.000000 -0.000000 0.000000 
0.000000 0.000000 0.000000 

0.000000 0.000000 0.000000 
0.000000 -0.000000 0.000000 
0.000000 0.000000 0.000000 

-0.000000 0.000000 0.000000 
0.000000 0.000000 0.000000 
0.000000 0.000000 0.000000 

-0.000000 -0.000000 0.000000 
0.000000 0.000000 0.000000 
0.000000 0.000000 0.000000 

0.000000 -0.000000 0.000000 
0.000000 -0.000000 0.000000 
0.000000 0.000000 0.000000 

0.000000 -0.000000 0.000000 
0.000000 -0.000000 0.000000 
0.000000 0.000000 0.000000 

0.000000 -0.000000 0.000000 
0.000000 -0.000000 0.000000 
0.000000 0.000000 0.000000 

0.000000 -0.000000 0.000000 
0.000000 -0.000000 0.000000 
0.000000 0.000000 0.000000 

-0.000000 0.000000 0.000000 
0.000000 0.000000 0.000000 
0.000000 0.000000 0.000000 

0.000000 -0.000000 0.000000 
0.000000 -0.000000 0.000000 
0.000000 0.000000 0.000000 

0.000000 -0.000000 0.000000 
0.000000 0.000000 0.000000 
0.000000 0.000000 0.000000 

