# vtk DataFile Version 3.0 
vtk output 
ASCII 
DATASET UNSTRUCTURED_GRID 
POINTS 175 float 
-0.026061 -1.224176 0.000000 
-0.106992 -1.156120 0.000000 
-0.054870 -1.164353 0.000000 
-0.028809 -1.118469 0.000000 
-0.186430 -1.092045 0.000000 
-0.137056 -1.094571 0.000000 
-0.114311 -1.040924 0.000000 
-0.058186 -1.056589 0.000000 
-0.029377 -1.016412 0.000000 
-0.265318 -1.028889 0.000000 
-0.217198 -1.029689 0.000000 
-0.196633 -0.972392 0.000000 
-0.143120 -0.981101 0.000000 
-0.116563 -0.933832 0.000000 
-0.058945 -0.953478 0.000000 
-0.029568 -0.915358 0.000000 
-0.344206 -0.965733 0.000000 
-0.296791 -0.965726 0.000000 
-0.278030 -0.905783 0.000000 
-0.225992 -0.911650 0.000000 
-0.201664 -0.859533 0.000000 
-0.145749 -0.873007 0.000000 
-0.117890 -0.828664 0.000000 
-0.059328 -0.851370 0.000000 
-0.029759 -0.814304 0.000000 
-0.058559 -1.264926 0.000000 
-0.162226 -1.285769 0.000000 
-0.123292 -1.250151 0.000000 
-0.142917 -1.201168 0.000000 
-0.261851 -1.307925 0.000000 
-0.229092 -1.270898 0.000000 
-0.256854 -1.219667 0.000000 
-0.209613 -1.185554 0.000000 
-0.223062 -1.137980 0.000000 
-0.360414 -1.330226 0.000000 
-0.329787 -1.293103 0.000000 
-0.361761 -1.241301 0.000000 
-0.321587 -1.204892 0.000000 
-0.341985 -1.154658 0.000000 
-0.290702 -1.121859 0.000000 
-0.302189 -1.075124 0.000000 
-0.458977 -1.352526 0.000000 
-0.429420 -1.315451 0.000000 
-0.464588 -1.263409 0.000000 
-0.427556 -1.226382 0.000000 
-0.453135 -1.174867 0.000000 
-0.407738 -1.139552 0.000000 
-0.425037 -1.090124 0.000000 
-0.370772 -1.058495 0.000000 
-0.381315 -1.012267 0.000000 
-0.046960 -1.315742 0.000000 
-0.095301 -1.409788 0.000000 
-0.098873 -1.357140 0.000000 
-0.149405 -1.341943 0.000000 
-0.140093 -1.501492 0.000000 
-0.148617 -1.452793 0.000000 
-0.205981 -1.442556 0.000000 
-0.203197 -1.384353 0.000000 
-0.248777 -1.365206 0.000000 
-0.184111 -1.592455 0.000000 
-0.194039 -1.545364 0.000000 
-0.254475 -1.538065 0.000000 
-0.257893 -1.483955 0.000000 
-0.309886 -1.468582 0.000000 
-0.303554 -1.408037 0.000000 
-0.347255 -1.387879 0.000000 
-0.228129 -1.683419 0.000000 
-0.238687 -1.637195 0.000000 
-0.301302 -1.632242 0.000000 
-0.307162 -1.580204 0.000000 
-0.363386 -1.568083 0.000000 
-0.362692 -1.510571 0.000000 
-0.412122 -1.493278 0.000000 
-0.403017 -1.431131 0.000000 
-0.445733 -1.410553 0.000000 
-0.000000 -1.338357 0.000000 
0.043388 -1.434787 0.000000 
-0.000000 -1.404755 0.000000 
-0.043388 -1.434787 0.000000 
0.087158 -1.526984 0.000000 
0.043769 -1.503285 0.000000 
-0.000000 -1.541751 0.000000 
-0.043769 -1.503285 0.000000 
-0.087158 -1.526984 0.000000 
0.130831 -1.618114 0.000000 
0.087824 -1.596515 0.000000 
0.044436 -1.639214 0.000000 
-0.000000 -1.608149 0.000000 
-0.044436 -1.639214 0.000000 
-0.087824 -1.596515 0.000000 
-0.130831 -1.618114 0.000000 
0.174505 -1.709243 0.000000 
0.131782 -1.688677 0.000000 
0.088871 -1.734544 0.000000 
0.044532 -1.706680 0.000000 
-0.000000 -1.743080 0.000000 
-0.044532 -1.706680 0.000000 
-0.088871 -1.734544 0.000000 
-0.131782 -1.688677 0.000000 
-0.174505 -1.709243 0.000000 
0.046960 -1.315742 0.000000 
0.149405 -1.341943 0.000000 
0.098873 -1.357140 0.000000 
0.095301 -1.409788 0.000000 
0.248777 -1.365206 0.000000 
0.203197 -1.384353 0.000000 
0.205981 -1.442556 0.000000 
0.148617 -1.452793 0.000000 
0.140093 -1.501492 0.000000 
0.347255 -1.387879 0.000000 
0.303554 -1.408037 0.000000 
0.309886 -1.468582 0.000000 
0.257893 -1.483955 0.000000 
0.254475 -1.538065 0.000000 
0.194039 -1.545364 0.000000 
0.184111 -1.592455 0.000000 
0.445733 -1.410553 0.000000 
0.403017 -1.431131 0.000000 
0.412122 -1.493278 0.000000 
0.362692 -1.510571 0.000000 
0.363386 -1.568083 0.000000 
0.307162 -1.580204 0.000000 
0.301302 -1.632242 0.000000 
0.238687 -1.637195 0.000000 
0.228129 -1.683419 0.000000 
0.058559 -1.264926 0.000000 
0.142917 -1.201168 0.000000 
0.123292 -1.250151 0.000000 
0.162226 -1.285769 0.000000 
0.223062 -1.137980 0.000000 
0.209613 -1.185554 0.000000 
0.256854 -1.219667 0.000000 
0.229092 -1.270898 0.000000 
0.261851 -1.307925 0.000000 
0.302189 -1.075124 0.000000 
0.290702 -1.121859 0.000000 
0.341985 -1.154658 0.000000 
0.321587 -1.204892 0.000000 
0.361761 -1.241301 0.000000 
0.329787 -1.293103 0.000000 
0.360414 -1.330226 0.000000 
0.381315 -1.012267 0.000000 
0.370772 -1.058495 0.000000 
0.425037 -1.090124 0.000000 
0.407738 -1.139552 0.000000 
0.453135 -1.174867 0.000000 
0.427556 -1.226382 0.000000 
0.464588 -1.263409 0.000000 
0.429420 -1.315451 0.000000 
0.458977 -1.352526 0.000000 
0.026061 -1.224176 0.000000 
0.028809 -1.118469 0.000000 
0.054870 -1.164353 0.000000 
0.106992 -1.156120 0.000000 
0.029377 -1.016412 0.000000 
0.058186 -1.056589 0.000000 
0.114311 -1.040924 0.000000 
0.137056 -1.094571 0.000000 
0.186430 -1.092045 0.000000 
0.029568 -0.915358 0.000000 
0.058945 -0.953478 0.000000 
0.116563 -0.933832 0.000000 
0.143120 -0.981101 0.000000 
0.196633 -0.972392 0.000000 
0.217198 -1.029689 0.000000 
0.265318 -1.028889 0.000000 
0.029759 -0.814304 0.000000 
0.059328 -0.851370 0.000000 
0.117890 -0.828664 0.000000 
0.145749 -0.873007 0.000000 
0.201664 -0.859533 0.000000 
0.225992 -0.911650 0.000000 
0.278030 -0.905783 0.000000 
0.296791 -0.965726 0.000000 
0.344206 -0.965733 0.000000 
CELLS 175 350 
1 0 
1 1 
1 2 
1 3 
1 4 
1 5 
1 6 
1 7 
1 8 
1 9 
1 10 
1 11 
1 12 
1 13 
1 14 
1 15 
1 16 
1 17 
1 18 
1 19 
1 20 
1 21 
1 22 
1 23 
1 24 
1 25 
1 26 
1 27 
1 28 
1 29 
1 30 
1 31 
1 32 
1 33 
1 34 
1 35 
1 36 
1 37 
1 38 
1 39 
1 40 
1 41 
1 42 
1 43 
1 44 
1 45 
1 46 
1 47 
1 48 
1 49 
1 50 
1 51 
1 52 
1 53 
1 54 
1 55 
1 56 
1 57 
1 58 
1 59 
1 60 
1 61 
1 62 
1 63 
1 64 
1 65 
1 66 
1 67 
1 68 
1 69 
1 70 
1 71 
1 72 
1 73 
1 74 
1 75 
1 76 
1 77 
1 78 
1 79 
1 80 
1 81 
1 82 
1 83 
1 84 
1 85 
1 86 
1 87 
1 88 
1 89 
1 90 
1 91 
1 92 
1 93 
1 94 
1 95 
1 96 
1 97 
1 98 
1 99 
1 100 
1 101 
1 102 
1 103 
1 104 
1 105 
1 106 
1 107 
1 108 
1 109 
1 110 
1 111 
1 112 
1 113 
1 114 
1 115 
1 116 
1 117 
1 118 
1 119 
1 120 
1 121 
1 122 
1 123 
1 124 
1 125 
1 126 
1 127 
1 128 
1 129 
1 130 
1 131 
1 132 
1 133 
1 134 
1 135 
1 136 
1 137 
1 138 
1 139 
1 140 
1 141 
1 142 
1 143 
1 144 
1 145 
1 146 
1 147 
1 148 
1 149 
1 150 
1 151 
1 152 
1 153 
1 154 
1 155 
1 156 
1 157 
1 158 
1 159 
1 160 
1 161 
1 162 
1 163 
1 164 
1 165 
1 166 
1 167 
1 168 
1 169 
1 170 
1 171 
1 172 
1 173 
1 174 
CELL_TYPES 175 
1 
1 
1 
1 
1 
1 
1 
1 
1 
1 
1 
1 
1 
1 
1 
1 
1 
1 
1 
1 
1 
1 
1 
1 
1 
1 
1 
1 
1 
1 
1 
1 
1 
1 
1 
1 
1 
1 
1 
1 
1 
1 
1 
1 
1 
1 
1 
1 
1 
1 
1 
1 
1 
1 
1 
1 
1 
1 
1 
1 
1 
1 
1 
1 
1 
1 
1 
1 
1 
1 
1 
1 
1 
1 
1 
1 
1 
1 
1 
1 
1 
1 
1 
1 
1 
1 
1 
1 
1 
1 
1 
1 
1 
1 
1 
1 
1 
1 
1 
1 
1 
1 
1 
1 
1 
1 
1 
1 
1 
1 
1 
1 
1 
1 
1 
1 
1 
1 
1 
1 
1 
1 
1 
1 
1 
1 
1 
1 
1 
1 
1 
1 
1 
1 
1 
1 
1 
1 
1 
1 
1 
1 
1 
1 
1 
1 
1 
1 
1 
1 
1 
1 
1 
1 
1 
1 
1 
1 
1 
1 
1 
1 
1 
1 
1 
1 
1 
1 
1 
1 
1 
1 
1 
1 
1 
POINT_DATA 175 
VECTORS X_GC float 
-0.026061 -1.224176 0.000000 
-0.106992 -1.156120 0.000000 
-0.054870 -1.164353 0.000000 
-0.028809 -1.118469 0.000000 
-0.186430 -1.092045 0.000000 
-0.137056 -1.094571 0.000000 
-0.114311 -1.040924 0.000000 
-0.058186 -1.056589 0.000000 
-0.029377 -1.016412 0.000000 
-0.265318 -1.028889 0.000000 
-0.217198 -1.029689 0.000000 
-0.196633 -0.972392 0.000000 
-0.143120 -0.981101 0.000000 
-0.116563 -0.933832 0.000000 
-0.058945 -0.953478 0.000000 
-0.029568 -0.915358 0.000000 
-0.344206 -0.965733 0.000000 
-0.296791 -0.965726 0.000000 
-0.278030 -0.905783 0.000000 
-0.225992 -0.911650 0.000000 
-0.201664 -0.859533 0.000000 
-0.145749 -0.873007 0.000000 
-0.117890 -0.828664 0.000000 
-0.059328 -0.851370 0.000000 
-0.029759 -0.814304 0.000000 
-0.058559 -1.264926 0.000000 
-0.162226 -1.285769 0.000000 
-0.123292 -1.250151 0.000000 
-0.142917 -1.201168 0.000000 
-0.261851 -1.307925 0.000000 
-0.229092 -1.270898 0.000000 
-0.256854 -1.219667 0.000000 
-0.209613 -1.185554 0.000000 
-0.223062 -1.137980 0.000000 
-0.360414 -1.330226 0.000000 
-0.329787 -1.293103 0.000000 
-0.361761 -1.241301 0.000000 
-0.321587 -1.204892 0.000000 
-0.341985 -1.154658 0.000000 
-0.290702 -1.121859 0.000000 
-0.302189 -1.075124 0.000000 
-0.458977 -1.352526 0.000000 
-0.429420 -1.315451 0.000000 
-0.464588 -1.263409 0.000000 
-0.427556 -1.226382 0.000000 
-0.453135 -1.174867 0.000000 
-0.407738 -1.139552 0.000000 
-0.425037 -1.090124 0.000000 
-0.370772 -1.058495 0.000000 
-0.381315 -1.012267 0.000000 
-0.046960 -1.315742 0.000000 
-0.095301 -1.409788 0.000000 
-0.098873 -1.357140 0.000000 
-0.149405 -1.341943 0.000000 
-0.140093 -1.501492 0.000000 
-0.148617 -1.452793 0.000000 
-0.205981 -1.442556 0.000000 
-0.203197 -1.384353 0.000000 
-0.248777 -1.365206 0.000000 
-0.184111 -1.592455 0.000000 
-0.194039 -1.545364 0.000000 
-0.254475 -1.538065 0.000000 
-0.257893 -1.483955 0.000000 
-0.309886 -1.468582 0.000000 
-0.303554 -1.408037 0.000000 
-0.347255 -1.387879 0.000000 
-0.228129 -1.683419 0.000000 
-0.238687 -1.637195 0.000000 
-0.301302 -1.632242 0.000000 
-0.307162 -1.580204 0.000000 
-0.363386 -1.568083 0.000000 
-0.362692 -1.510571 0.000000 
-0.412122 -1.493278 0.000000 
-0.403017 -1.431131 0.000000 
-0.445733 -1.410553 0.000000 
-0.000000 -1.338357 0.000000 
0.043388 -1.434787 0.000000 
-0.000000 -1.404755 0.000000 
-0.043388 -1.434787 0.000000 
0.087158 -1.526984 0.000000 
0.043769 -1.503285 0.000000 
-0.000000 -1.541751 0.000000 
-0.043769 -1.503285 0.000000 
-0.087158 -1.526984 0.000000 
0.130831 -1.618114 0.000000 
0.087824 -1.596515 0.000000 
0.044436 -1.639214 0.000000 
-0.000000 -1.608149 0.000000 
-0.044436 -1.639214 0.000000 
-0.087824 -1.596515 0.000000 
-0.130831 -1.618114 0.000000 
0.174505 -1.709243 0.000000 
0.131782 -1.688677 0.000000 
0.088871 -1.734544 0.000000 
0.044532 -1.706680 0.000000 
-0.000000 -1.743080 0.000000 
-0.044532 -1.706680 0.000000 
-0.088871 -1.734544 0.000000 
-0.131782 -1.688677 0.000000 
-0.174505 -1.709243 0.000000 
0.046960 -1.315742 0.000000 
0.149405 -1.341943 0.000000 
0.098873 -1.357140 0.000000 
0.095301 -1.409788 0.000000 
0.248777 -1.365206 0.000000 
0.203197 -1.384353 0.000000 
0.205981 -1.442556 0.000000 
0.148617 -1.452793 0.000000 
0.140093 -1.501492 0.000000 
0.347255 -1.387879 0.000000 
0.303554 -1.408037 0.000000 
0.309886 -1.468582 0.000000 
0.257893 -1.483955 0.000000 
0.254475 -1.538065 0.000000 
0.194039 -1.545364 0.000000 
0.184111 -1.592455 0.000000 
0.445733 -1.410553 0.000000 
0.403017 -1.431131 0.000000 
0.412122 -1.493278 0.000000 
0.362692 -1.510571 0.000000 
0.363386 -1.568083 0.000000 
0.307162 -1.580204 0.000000 
0.301302 -1.632242 0.000000 
0.238687 -1.637195 0.000000 
0.228129 -1.683419 0.000000 
0.058559 -1.264926 0.000000 
0.142917 -1.201168 0.000000 
0.123292 -1.250151 0.000000 
0.162226 -1.285769 0.000000 
0.223062 -1.137980 0.000000 
0.209613 -1.185554 0.000000 
0.256854 -1.219667 0.000000 
0.229092 -1.270898 0.000000 
0.261851 -1.307925 0.000000 
0.302189 -1.075124 0.000000 
0.290702 -1.121859 0.000000 
0.341985 -1.154658 0.000000 
0.321587 -1.204892 0.000000 
0.361761 -1.241301 0.000000 
0.329787 -1.293103 0.000000 
0.360414 -1.330226 0.000000 
0.381315 -1.012267 0.000000 
0.370772 -1.058495 0.000000 
0.425037 -1.090124 0.000000 
0.407738 -1.139552 0.000000 
0.453135 -1.174867 0.000000 
0.427556 -1.226382 0.000000 
0.464588 -1.263409 0.000000 
0.429420 -1.315451 0.000000 
0.458977 -1.352526 0.000000 
0.026061 -1.224176 0.000000 
0.028809 -1.118469 0.000000 
0.054870 -1.164353 0.000000 
0.106992 -1.156120 0.000000 
0.029377 -1.016412 0.000000 
0.058186 -1.056589 0.000000 
0.114311 -1.040924 0.000000 
0.137056 -1.094571 0.000000 
0.186430 -1.092045 0.000000 
0.029568 -0.915358 0.000000 
0.058945 -0.953478 0.000000 
0.116563 -0.933832 0.000000 
0.143120 -0.981101 0.000000 
0.196633 -0.972392 0.000000 
0.217198 -1.029689 0.000000 
0.265318 -1.028889 0.000000 
0.029759 -0.814304 0.000000 
0.059328 -0.851370 0.000000 
0.117890 -0.828664 0.000000 
0.145749 -0.873007 0.000000 
0.201664 -0.859533 0.000000 
0.225992 -0.911650 0.000000 
0.278030 -0.905783 0.000000 
0.296791 -0.965726 0.000000 
0.344206 -0.965733 0.000000 
VECTORS X_EC float 
0.338794 -0.973628 0.000000 
-0.609100 0.107624 0.000000 
0.713312 0.218765 0.000000 
0.374519 -0.400665 0.000000 
0.423588 -0.757395 0.000000 
-0.218274 -0.723292 0.000000 
-0.513962 0.552469 0.000000 
0.756418 0.763955 0.000000 
0.381900 0.221563 0.000000 
-0.550868 0.390001 0.000000 
0.823577 0.400797 0.000000 
0.556234 -0.372707 0.000000 
-0.139443 -0.255138 0.000000 
-0.484677 -0.893263 0.000000 
0.766286 -0.628048 0.000000 
0.384386 0.857332 0.000000 
0.474677 -0.462602 0.000000 
-0.141715 -0.462698 0.000000 
-0.385608 0.728074 0.000000 
0.937896 0.807269 0.000000 
0.621631 0.103689 0.000000 
-0.105264 0.285588 0.000000 
-0.467428 -0.313038 0.000000 
0.771260 -0.006510 0.000000 
0.386873 -0.506899 0.000000 
0.761262 -0.423493 0.000000 
0.108942 -0.142117 0.000000 
-0.397202 -0.622956 0.000000 
-0.142083 0.715769 0.000000 
-0.595936 0.156994 0.000000 
0.978194 -0.342872 0.000000 
-0.660903 0.965503 0.000000 
0.724964 0.504983 0.000000 
0.899809 -0.137266 0.000000 
0.685384 0.458046 0.000000 
0.287229 -0.043112 0.000000 
0.702895 -0.742441 0.000000 
0.180633 0.766041 0.000000 
0.445811 0.087881 0.000000 
-0.220880 -0.354905 0.000000 
-0.071546 -0.985830 0.000000 
-0.033296 0.759098 0.000000 
-0.417537 0.258589 0.000000 
0.039645 -0.443974 0.000000 
-0.441768 -0.943845 0.000000 
-0.109248 0.360704 0.000000 
-0.699407 -0.116051 0.000000 
-0.474522 -0.783330 0.000000 
0.820030 0.789676 0.000000 
0.957100 0.165605 0.000000 
0.610485 0.262513 0.000000 
-0.761092 -0.467868 0.000000 
-0.714655 0.821395 0.000000 
-0.057734 0.616228 0.000000 
-0.178789 0.770137 0.000000 
-0.067979 0.112711 0.000000 
0.677748 -0.025493 0.000000 
0.641556 -0.811238 0.000000 
-0.765897 0.930283 0.000000 
0.393446 -0.001854 0.000000 
0.522510 -0.637584 0.000000 
-0.691820 -0.736129 0.000000 
-0.647393 0.533389 0.000000 
0.028512 0.325862 0.000000 
-0.053800 -0.491498 0.000000 
0.514316 -0.763629 0.000000 
0.965681 -0.773845 0.000000 
-0.897068 0.602126 0.000000 
-0.083078 0.535273 0.000000 
-0.006893 -0.167252 0.000000 
0.724017 -0.330885 0.000000 
0.714996 0.892712 0.000000 
-0.642413 0.659255 0.000000 
-0.760780 -0.179726 0.000000 
-0.205471 -0.457541 0.000000 
0.000000 0.567815 0.000000 
-0.564049 -0.130372 0.000000 
0.000000 -0.535808 0.000000 
0.564049 -0.130372 0.000000 
0.866949 -0.885717 0.000000 
-0.569003 0.794352 0.000000 
0.000000 -0.686360 0.000000 
0.569003 0.794352 0.000000 
-0.866949 -0.885717 0.000000 
0.299194 0.344533 0.000000 
0.858290 0.052949 0.000000 
-0.577662 0.629395 0.000000 
0.000000 0.210017 0.000000 
0.577662 0.629395 0.000000 
-0.858290 0.052949 0.000000 
-0.299194 0.344533 0.000000 
-0.268560 -0.425217 0.000000 
0.286830 -0.702859 0.000000 
0.844677 -0.083660 0.000000 
-0.578910 -0.459823 0.000000 
0.000000 0.031581 0.000000 
0.578910 -0.459823 0.000000 
-0.844677 -0.083660 0.000000 
-0.286830 -0.702859 0.000000 
0.268560 -0.425217 0.000000 
-0.610485 0.262513 0.000000 
0.057734 0.616228 0.000000 
0.714655 0.821395 0.000000 
0.761092 -0.467868 0.000000 
0.765897 0.930283 0.000000 
-0.641556 -0.811238 0.000000 
-0.677748 -0.025493 0.000000 
0.067979 0.112711 0.000000 
0.178789 0.770137 0.000000 
-0.514316 -0.763629 0.000000 
0.053800 -0.491498 0.000000 
-0.028512 0.325862 0.000000 
0.647393 0.533389 0.000000 
0.691820 -0.736129 0.000000 
-0.522510 -0.637584 0.000000 
-0.393446 -0.001854 0.000000 
0.205471 -0.457541 0.000000 
0.760780 -0.179726 0.000000 
0.642413 0.659255 0.000000 
-0.714996 0.892712 0.000000 
-0.724017 -0.330885 0.000000 
0.006894 -0.167252 0.000000 
0.083078 0.535273 0.000000 
0.897068 0.602126 0.000000 
-0.965681 -0.773845 0.000000 
-0.761262 -0.423493 0.000000 
0.142083 0.715769 0.000000 
0.397202 -0.622956 0.000000 
-0.108942 -0.142117 0.000000 
-0.899809 -0.137266 0.000000 
-0.724964 0.504983 0.000000 
0.660903 0.965503 0.000000 
-0.978194 -0.342872 0.000000 
0.595936 0.156994 0.000000 
0.071546 -0.985830 0.000000 
0.220880 -0.354905 0.000000 
-0.445811 0.087881 0.000000 
-0.180633 0.766041 0.000000 
-0.702895 -0.742441 0.000000 
-0.287229 -0.043112 0.000000 
-0.685384 0.458046 0.000000 
-0.957100 0.165605 0.000000 
-0.820030 0.789676 0.000000 
0.474522 -0.783330 0.000000 
0.699407 -0.116051 0.000000 
0.109248 0.360704 0.000000 
0.441768 -0.943845 0.000000 
-0.039645 -0.443974 0.000000 
0.417537 0.258589 0.000000 
0.033296 0.759098 0.000000 
-0.338794 -0.973628 0.000000 
-0.374519 -0.400665 0.000000 
-0.713312 0.218765 0.000000 
0.609100 0.107624 0.000000 
-0.381900 0.221563 0.000000 
-0.756418 0.763955 0.000000 
0.513962 0.552469 0.000000 
0.218274 -0.723292 0.000000 
-0.423588 -0.757395 0.000000 
-0.384386 0.857332 0.000000 
-0.766286 -0.628048 0.000000 
0.484677 -0.893263 0.000000 
0.139443 -0.255138 0.000000 
-0.556234 -0.372707 0.000000 
-0.823577 0.400797 0.000000 
0.550868 0.390001 0.000000 
-0.386873 -0.506899 0.000000 
-0.771260 -0.006510 0.000000 
0.467428 -0.313038 0.000000 
0.105264 0.285588 0.000000 
-0.621631 0.103689 0.000000 
-0.937896 0.807269 0.000000 
0.385608 0.728074 0.000000 
0.141715 -0.462698 0.000000 
-0.474677 -0.462602 0.000000 
CELL_DATA 175 
SCALARS MASS float 
LOOKUP_TABLE default 
0.781831 
0.864274 
0.946717 
0.864274 
0.881307 
0.921110 
0.858535 
0.921110 
0.881307 
0.887046 
0.910001 
0.869829 
0.915556 
0.869829 
0.910001 
0.887046 
0.892784 
0.915740 
0.892784 
0.927218 
0.892784 
0.927218 
0.892784 
0.915740 
0.892784 
0.781831 
0.864274 
0.946717 
0.864274 
0.881307 
0.921110 
0.858535 
0.921110 
0.881307 
0.887046 
0.910001 
0.869829 
0.915556 
0.869829 
0.910001 
0.887046 
0.892784 
0.915740 
0.892784 
0.927218 
0.892784 
0.927218 
0.892784 
0.915740 
0.892784 
0.781831 
0.864274 
0.946717 
0.864274 
0.881307 
0.921110 
0.858535 
0.921110 
0.881307 
0.887046 
0.910001 
0.869829 
0.915556 
0.869829 
0.910001 
0.887046 
0.892784 
0.915740 
0.892784 
0.927218 
0.892784 
0.927218 
0.892784 
0.915740 
0.892784 
0.781831 
0.864274 
0.946717 
0.864274 
0.881307 
0.921110 
0.858535 
0.921110 
0.881307 
0.887046 
0.910001 
0.869829 
0.915556 
0.869829 
0.910001 
0.887046 
0.892784 
0.915740 
0.892784 
0.927218 
0.892784 
0.927218 
0.892784 
0.915740 
0.892784 
0.781831 
0.864274 
0.946717 
0.864274 
0.881307 
0.921110 
0.858535 
0.921110 
0.881307 
0.887046 
0.910001 
0.869829 
0.915556 
0.869829 
0.910001 
0.887046 
0.892784 
0.915740 
0.892784 
0.927218 
0.892784 
0.927218 
0.892784 
0.915740 
0.892784 
0.781831 
0.864274 
0.946717 
0.864274 
0.881307 
0.921110 
0.858535 
0.921110 
0.881307 
0.887046 
0.910001 
0.869829 
0.915556 
0.869829 
0.910001 
0.887046 
0.892784 
0.915740 
0.892784 
0.927218 
0.892784 
0.927218 
0.892784 
0.915740 
0.892784 
0.781831 
0.864274 
0.946717 
0.864274 
0.881307 
0.921110 
0.858535 
0.921110 
0.881307 
0.887046 
0.910001 
0.869829 
0.915556 
0.869829 
0.910001 
0.887046 
0.892784 
0.915740 
0.892784 
0.927218 
0.892784 
0.927218 
0.892784 
0.915740 
0.892784 
SCALARS MASS float 
LOOKUP_TABLE default 
0.781831 
0.864274 
0.946717 
0.864274 
0.881307 
0.921110 
0.858535 
0.921110 
0.881307 
0.887046 
0.910001 
0.869829 
0.915556 
0.869829 
0.910001 
0.887046 
0.892784 
0.915740 
0.892784 
0.927218 
0.892784 
0.927218 
0.892784 
0.915740 
0.892784 
0.781831 
0.864274 
0.946717 
0.864274 
0.881307 
0.921110 
0.858535 
0.921110 
0.881307 
0.887046 
0.910001 
0.869829 
0.915556 
0.869829 
0.910001 
0.887046 
0.892784 
0.915740 
0.892784 
0.927218 
0.892784 
0.927218 
0.892784 
0.915740 
0.892784 
0.781831 
0.864274 
0.946717 
0.864274 
0.881307 
0.921110 
0.858535 
0.921110 
0.881307 
0.887046 
0.910001 
0.869829 
0.915556 
0.869829 
0.910001 
0.887046 
0.892784 
0.915740 
0.892784 
0.927218 
0.892784 
0.927218 
0.892784 
0.915740 
0.892784 
0.781831 
0.864274 
0.946717 
0.864274 
0.881307 
0.921110 
0.858535 
0.921110 
0.881307 
0.887046 
0.910001 
0.869829 
0.915556 
0.869829 
0.910001 
0.887046 
0.892784 
0.915740 
0.892784 
0.927218 
0.892784 
0.927218 
0.892784 
0.915740 
0.892784 
0.781831 
0.864274 
0.946717 
0.864274 
0.881307 
0.921110 
0.858535 
0.921110 
0.881307 
0.887046 
0.910001 
0.869829 
0.915556 
0.869829 
0.910001 
0.887046 
0.892784 
0.915740 
0.892784 
0.927218 
0.892784 
0.927218 
0.892784 
0.915740 
0.892784 
0.781831 
0.864274 
0.946717 
0.864274 
0.881307 
0.921110 
0.858535 
0.921110 
0.881307 
0.887046 
0.910001 
0.869829 
0.915556 
0.869829 
0.910001 
0.887046 
0.892784 
0.915740 
0.892784 
0.927218 
0.892784 
0.927218 
0.892784 
0.915740 
0.892784 
0.781831 
0.864274 
0.946717 
0.864274 
0.881307 
0.921110 
0.858535 
0.921110 
0.881307 
0.887046 
0.910001 
0.869829 
0.915556 
0.869829 
0.910001 
0.887046 
0.892784 
0.915740 
0.892784 
0.927218 
0.892784 
0.927218 
0.892784 
0.915740 
0.892784 
SCALARS DENSITY float 
LOOKUP_TABLE default 
200.000000 
200.000000 
200.000000 
200.000000 
200.000000 
200.000000 
200.000000 
200.000000 
200.000000 
200.000000 
200.000000 
200.000000 
200.000000 
200.000000 
200.000000 
200.000000 
200.000000 
200.000000 
200.000000 
200.000000 
200.000000 
200.000000 
200.000000 
200.000000 
200.000000 
200.000000 
200.000000 
200.000000 
200.000000 
200.000000 
200.000000 
200.000000 
200.000000 
200.000000 
200.000000 
200.000000 
200.000000 
200.000000 
200.000000 
200.000000 
200.000000 
200.000000 
200.000000 
200.000000 
200.000000 
200.000000 
200.000000 
200.000000 
200.000000 
200.000000 
200.000000 
200.000000 
200.000000 
200.000000 
200.000000 
200.000000 
200.000000 
200.000000 
200.000000 
200.000000 
200.000000 
200.000000 
200.000000 
200.000000 
200.000000 
200.000000 
200.000000 
200.000000 
200.000000 
200.000000 
200.000000 
200.000000 
200.000000 
200.000000 
200.000000 
200.000000 
200.000000 
200.000000 
200.000000 
200.000000 
200.000000 
200.000000 
200.000000 
200.000000 
200.000000 
200.000000 
200.000000 
200.000000 
200.000000 
200.000000 
200.000000 
200.000000 
200.000000 
200.000000 
200.000000 
200.000000 
200.000000 
200.000000 
200.000000 
200.000000 
200.000000 
200.000000 
200.000000 
200.000000 
200.000000 
200.000000 
200.000000 
200.000000 
200.000000 
200.000000 
200.000000 
200.000000 
200.000000 
200.000000 
200.000000 
200.000000 
200.000000 
200.000000 
200.000000 
200.000000 
200.000000 
200.000000 
200.000000 
200.000000 
200.000000 
200.000000 
200.000000 
200.000000 
200.000000 
200.000000 
200.000000 
200.000000 
200.000000 
200.000000 
200.000000 
200.000000 
200.000000 
200.000000 
200.000000 
200.000000 
200.000000 
200.000000 
200.000000 
200.000000 
200.000000 
200.000000 
200.000000 
200.000000 
200.000000 
200.000000 
200.000000 
200.000000 
200.000000 
200.000000 
200.000000 
200.000000 
200.000000 
200.000000 
200.000000 
200.000000 
200.000000 
200.000000 
200.000000 
200.000000 
200.000000 
200.000000 
200.000000 
200.000000 
200.000000 
200.000000 
200.000000 
200.000000 
200.000000 
200.000000 
200.000000 
SCALARS ELEM_i float 
LOOKUP_TABLE default 
173 
201 
174 
174 
201 
201 
202 
175 
175 
229 
202 
202 
202 
202 
175 
176 
229 
229 
230 
203 
203 
203 
203 
176 
176 
173 
200 
200 
201 
227 
200 
228 
201 
201 
227 
227 
227 
228 
228 
228 
228 
254 
254 
254 
254 
255 
255 
255 
229 
229 
173 
199 
200 
200 
199 
199 
199 
199 
227 
198 
198 
225 
226 
226 
226 
226 
197 
225 
225 
225 
225 
226 
253 
253 
253 
173 
172 
172 
172 
144 
172 
171 
172 
198 
144 
144 
171 
171 
171 
198 
198 
143 
143 
143 
170 
170 
170 
197 
197 
197 
173 
146 
146 
145 
119 
145 
145 
145 
145 
118 
118 
118 
118 
117 
144 
144 
91 
91 
91 
118 
117 
117 
117 
117 
143 
173 
147 
146 
146 
147 
147 
120 
146 
119 
120 
120 
120 
120 
119 
119 
119 
121 
121 
93 
93 
93 
92 
92 
92 
92 
173 
174 
174 
147 
175 
175 
148 
147 
147 
176 
175 
148 
148 
148 
148 
121 
176 
176 
149 
149 
149 
149 
122 
121 
121 
VECTORS VELOCITY float 
0.000000 -5.003100 0.000000 
0.000000 -5.003100 0.000000 
0.000000 -5.003100 0.000000 
0.000000 -5.003100 0.000000 
-0.000000 -5.003100 0.000000 
0.000000 -5.003100 0.000000 
0.000000 -5.003100 0.000000 
0.000000 -5.003100 0.000000 
0.000000 -5.003100 0.000000 
-0.000000 -5.003100 0.000000 
-0.000000 -5.003100 0.000000 
0.000000 -5.003100 0.000000 
-0.000000 -5.003100 0.000000 
-0.000000 -5.003100 0.000000 
-0.000000 -5.003100 0.000000 
-0.000000 -5.003100 0.000000 
0.000000 -5.003100 0.000000 
0.000000 -5.003100 0.000000 
-0.000000 -5.003100 0.000000 
0.000000 -5.003100 0.000000 
0.000000 -5.003100 0.000000 
0.000000 -5.003100 0.000000 
0.000000 -5.003100 0.000000 
0.000000 -5.003100 0.000000 
0.000000 -5.003100 0.000000 
-0.000000 -5.003100 0.000000 
-0.000000 -5.003100 0.000000 
-0.000000 -5.003100 0.000000 
0.000000 -5.003100 0.000000 
-0.000000 -5.003100 0.000000 
-0.000000 -5.003100 0.000000 
0.000000 -5.003100 0.000000 
0.000000 -5.003100 0.000000 
0.000000 -5.003100 0.000000 
-0.000000 -5.003100 0.000000 
0.000000 -5.003100 0.000000 
0.000000 -5.003100 0.000000 
0.000000 -5.003100 0.000000 
-0.000000 -5.003100 0.000000 
-0.000000 -5.003100 0.000000 
-0.000000 -5.003100 0.000000 
-0.000000 -5.003100 0.000000 
-0.000000 -5.003100 0.000000 
-0.000000 -5.003100 0.000000 
0.000000 -5.003100 0.000000 
-0.000000 -5.003100 0.000000 
-0.000000 -5.003100 0.000000 
-0.000000 -5.003100 0.000000 
0.000000 -5.003100 0.000000 
0.000000 -5.003100 0.000000 
0.000000 -5.003100 0.000000 
-0.000000 -5.003100 0.000000 
0.000000 -5.003100 0.000000 
0.000000 -5.003100 0.000000 
-0.000000 -5.003100 0.000000 
0.000000 -5.003100 0.000000 
-0.000000 -5.003100 0.000000 
0.000000 -5.003100 0.000000 
-0.000000 -5.003100 0.000000 
-0.000000 -5.003100 0.000000 
-0.000000 -5.003100 0.000000 
-0.000000 -5.003100 0.000000 
0.000000 -5.003100 0.000000 
-0.000000 -5.003100 0.000000 
-0.000000 -5.003100 0.000000 
-0.000000 -5.003100 0.000000 
-0.000000 -5.003100 0.000000 
-0.000000 -5.003100 0.000000 
-0.000000 -5.003100 0.000000 
0.000000 -5.003100 0.000000 
0.000000 -5.003100 0.000000 
0.000000 -5.003100 0.000000 
0.000000 -5.003100 0.000000 
-0.000000 -5.003100 0.000000 
-0.000000 -5.003100 0.000000 
0.000000 -5.003100 0.000000 
-0.000000 -5.003100 0.000000 
-0.000000 -5.003100 0.000000 
-0.000000 -5.003100 0.000000 
0.000000 -5.003100 0.000000 
0.000000 -5.003100 0.000000 
0.000000 -5.003100 0.000000 
-0.000000 -5.003100 0.000000 
-0.000000 -5.003100 0.000000 
0.000000 -5.003100 0.000000 
0.000000 -5.003100 0.000000 
0.000000 -5.003100 0.000000 
0.000000 -5.003100 0.000000 
0.000000 -5.003100 0.000000 
0.000000 -5.003100 0.000000 
-0.000000 -5.003100 0.000000 
0.000000 -5.003100 0.000000 
0.000000 -5.003100 0.000000 
0.000000 -5.003100 0.000000 
0.000000 -5.003100 0.000000 
-0.000000 -5.003100 0.000000 
-0.000000 -5.003100 0.000000 
0.000000 -5.003100 0.000000 
-0.000000 -5.003100 0.000000 
0.000000 -5.003100 0.000000 
-0.000000 -5.003100 0.000000 
-0.000000 -5.003100 0.000000 
-0.000000 -5.003100 0.000000 
-0.000000 -5.003100 0.000000 
-0.000000 -5.003100 0.000000 
-0.000000 -5.003100 0.000000 
0.000000 -5.003100 0.000000 
-0.000000 -5.003100 0.000000 
0.000000 -5.003100 0.000000 
0.000000 -5.003100 0.000000 
0.000000 -5.003100 0.000000 
-0.000000 -5.003100 0.000000 
0.000000 -5.003100 0.000000 
0.000000 -5.003100 0.000000 
0.000000 -5.003100 0.000000 
0.000000 -5.003100 0.000000 
0.000000 -5.003100 0.000000 
-0.000000 -5.003100 0.000000 
0.000000 -5.003100 0.000000 
-0.000000 -5.003100 0.000000 
-0.000000 -5.003100 0.000000 
0.000000 -5.003100 0.000000 
-0.000000 -5.003100 0.000000 
-0.000000 -5.003100 0.000000 
-0.000000 -5.003100 0.000000 
0.000000 -5.003100 0.000000 
-0.000000 -5.003100 0.000000 
0.000000 -5.003100 0.000000 
-0.000000 -5.003100 0.000000 
-0.000000 -5.003100 0.000000 
0.000000 -5.003100 0.000000 
0.000000 -5.003100 0.000000 
-0.000000 -5.003100 0.000000 
-0.000000 -5.003100 0.000000 
-0.000000 -5.003100 0.000000 
-0.000000 -5.003100 0.000000 
0.000000 -5.003100 0.000000 
0.000000 -5.003100 0.000000 
0.000000 -5.003100 0.000000 
0.000000 -5.003100 0.000000 
0.000000 -5.003100 0.000000 
0.000000 -5.003100 0.000000 
-0.000000 -5.003100 0.000000 
0.000000 -5.003100 0.000000 
0.000000 -5.003100 0.000000 
0.000000 -5.003100 0.000000 
-0.000000 -5.003100 0.000000 
-0.000000 -5.003100 0.000000 
0.000000 -5.003100 0.000000 
0.000000 -5.003100 0.000000 
-0.000000 -5.003100 0.000000 
-0.000000 -5.003100 0.000000 
0.000000 -5.003100 0.000000 
-0.000000 -5.003100 0.000000 
0.000000 -5.003100 0.000000 
0.000000 -5.003100 0.000000 
0.000000 -5.003100 0.000000 
-0.000000 -5.003100 0.000000 
-0.000000 -5.003100 0.000000 
-0.000000 -5.003100 0.000000 
0.000000 -5.003100 0.000000 
0.000000 -5.003100 0.000000 
0.000000 -5.003100 0.000000 
0.000000 -5.003100 0.000000 
0.000000 -5.003100 0.000000 
0.000000 -5.003100 0.000000 
-0.000000 -5.003100 0.000000 
-0.000000 -5.003100 0.000000 
-0.000000 -5.003100 0.000000 
-0.000000 -5.003100 0.000000 
-0.000000 -5.003100 0.000000 
-0.000000 -5.003100 0.000000 
-0.000000 -5.003100 0.000000 
0.000000 -5.003100 0.000000 
0.000000 -5.003100 0.000000 
TENSORS STRESS float 
-0.000000 -0.000000 0.000000 
0.000000 -0.000000 0.000000 
0.000000 0.000000 0.000000 

0.000000 -0.000000 0.000000 
0.000000 0.000000 0.000000 
0.000000 0.000000 0.000000 

-0.000000 -0.000000 0.000000 
0.000000 -0.000000 0.000000 
0.000000 0.000000 0.000000 

-0.000000 0.000000 0.000000 
0.000000 -0.000000 0.000000 
0.000000 0.000000 0.000000 

-0.000000 -0.000000 0.000000 
0.000000 -0.000000 0.000000 
0.000000 0.000000 0.000000 

-0.000000 -0.000000 0.000000 
0.000000 -0.000000 0.000000 
0.000000 0.000000 0.000000 

-0.000000 -0.000000 0.000000 
0.000000 0.000000 0.000000 
0.000000 0.000000 0.000000 

0.000000 -0.000000 0.000000 
0.000000 0.000000 0.000000 
0.000000 0.000000 0.000000 

0.000000 -0.000000 0.000000 
0.000000 -0.000000 0.000000 
0.000000 0.000000 0.000000 

0.000000 -0.000000 0.000000 
0.000000 0.000000 0.000000 
0.000000 0.000000 0.000000 

-0.000000 -0.000000 0.000000 
0.000000 0.000000 0.000000 
0.000000 0.000000 0.000000 

0.000000 0.000000 0.000000 
0.000000 0.000000 0.000000 
0.000000 0.000000 0.000000 

0.000000 0.000000 0.000000 
0.000000 0.000000 0.000000 
0.000000 0.000000 0.000000 

-0.000000 0.000000 0.000000 
0.000000 0.000000 0.000000 
0.000000 0.000000 0.000000 

0.000000 0.000000 0.000000 
0.000000 0.000000 0.000000 
0.000000 0.000000 0.000000 

0.000000 -0.000000 0.000000 
0.000000 0.000000 0.000000 
0.000000 0.000000 0.000000 

0.000000 0.000000 0.000000 
0.000000 0.000000 0.000000 
0.000000 0.000000 0.000000 

0.000000 0.000000 0.000000 
0.000000 0.000000 0.000000 
0.000000 0.000000 0.000000 

-0.000000 -0.000000 0.000000 
0.000000 -0.000000 0.000000 
0.000000 0.000000 0.000000 

-0.000000 -0.000000 0.000000 
0.000000 -0.000000 0.000000 
0.000000 0.000000 0.000000 

-0.000000 -0.000000 0.000000 
0.000000 -0.000000 0.000000 
0.000000 0.000000 0.000000 

0.000000 0.000000 0.000000 
0.000000 0.000000 0.000000 
0.000000 0.000000 0.000000 

-0.000000 0.000000 0.000000 
0.000000 -0.000000 0.000000 
0.000000 0.000000 0.000000 

-0.000000 0.000000 0.000000 
0.000000 -0.000000 0.000000 
0.000000 0.000000 0.000000 

0.000000 -0.000000 0.000000 
0.000000 0.000000 0.000000 
0.000000 0.000000 0.000000 

0.000000 -0.000000 0.000000 
0.000000 0.000000 0.000000 
0.000000 0.000000 0.000000 

0.000000 0.000000 0.000000 
0.000000 0.000000 0.000000 
0.000000 0.000000 0.000000 

-0.000000 0.000000 0.000000 
0.000000 -0.000000 0.000000 
0.000000 0.000000 0.000000 

0.000000 0.000000 0.000000 
0.000000 0.000000 0.000000 
0.000000 0.000000 0.000000 

0.000000 0.000000 0.000000 
0.000000 -0.000000 0.000000 
0.000000 0.000000 0.000000 

-0.000000 0.000000 0.000000 
0.000000 -0.000000 0.000000 
0.000000 0.000000 0.000000 

0.000000 -0.000000 0.000000 
0.000000 0.000000 0.000000 
0.000000 0.000000 0.000000 

-0.000000 0.000000 0.000000 
0.000000 -0.000000 0.000000 
0.000000 0.000000 0.000000 

-0.000000 -0.000000 0.000000 
0.000000 -0.000000 0.000000 
0.000000 0.000000 0.000000 

-0.000000 -0.000000 0.000000 
0.000000 -0.000000 0.000000 
0.000000 0.000000 0.000000 

0.000000 -0.000000 0.000000 
0.000000 0.000000 0.000000 
0.000000 0.000000 0.000000 

0.000000 -0.000000 0.000000 
0.000000 -0.000000 0.000000 
0.000000 0.000000 0.000000 

0.000000 0.000000 0.000000 
0.000000 0.000000 0.000000 
0.000000 0.000000 0.000000 

0.000000 -0.000000 0.000000 
0.000000 0.000000 0.000000 
0.000000 0.000000 0.000000 

0.000000 -0.000000 0.000000 
0.000000 0.000000 0.000000 
0.000000 0.000000 0.000000 

-0.000000 0.000000 0.000000 
0.000000 -0.000000 0.000000 
0.000000 0.000000 0.000000 

-0.000000 -0.000000 0.000000 
0.000000 -0.000000 0.000000 
0.000000 0.000000 0.000000 

-0.000000 0.000000 0.000000 
0.000000 -0.000000 0.000000 
0.000000 0.000000 0.000000 

-0.000000 0.000000 0.000000 
0.000000 -0.000000 0.000000 
0.000000 0.000000 0.000000 

-0.000000 0.000000 0.000000 
0.000000 -0.000000 0.000000 
0.000000 0.000000 0.000000 

-0.000000 0.000000 0.000000 
0.000000 -0.000000 0.000000 
0.000000 0.000000 0.000000 

0.000000 -0.000000 0.000000 
0.000000 0.000000 0.000000 
0.000000 0.000000 0.000000 

-0.000000 0.000000 0.000000 
0.000000 -0.000000 0.000000 
0.000000 0.000000 0.000000 

-0.000000 0.000000 0.000000 
0.000000 -0.000000 0.000000 
0.000000 0.000000 0.000000 

0.000000 0.000000 0.000000 
0.000000 0.000000 0.000000 
0.000000 0.000000 0.000000 

0.000000 0.000000 0.000000 
0.000000 0.000000 0.000000 
0.000000 0.000000 0.000000 

0.000000 0.000000 0.000000 
0.000000 0.000000 0.000000 
0.000000 0.000000 0.000000 

-0.000000 0.000000 0.000000 
0.000000 -0.000000 0.000000 
0.000000 0.000000 0.000000 

-0.000000 0.000000 0.000000 
0.000000 -0.000000 0.000000 
0.000000 0.000000 0.000000 

-0.000000 0.000000 0.000000 
0.000000 -0.000000 0.000000 
0.000000 0.000000 0.000000 

0.000000 0.000000 0.000000 
0.000000 0.000000 0.000000 
0.000000 0.000000 0.000000 

-0.000000 -0.000000 0.000000 
0.000000 -0.000000 0.000000 
0.000000 0.000000 0.000000 

-0.000000 0.000000 0.000000 
0.000000 -0.000000 0.000000 
0.000000 0.000000 0.000000 

0.000000 0.000000 0.000000 
0.000000 0.000000 0.000000 
0.000000 0.000000 0.000000 

-0.000000 0.000000 0.000000 
0.000000 -0.000000 0.000000 
0.000000 0.000000 0.000000 

-0.000000 0.000000 0.000000 
0.000000 -0.000000 0.000000 
0.000000 0.000000 0.000000 

0.000000 0.000000 0.000000 
0.000000 0.000000 0.000000 
0.000000 0.000000 0.000000 

0.000000 0.000000 0.000000 
0.000000 0.000000 0.000000 
0.000000 0.000000 0.000000 

-0.000000 -0.000000 0.000000 
0.000000 -0.000000 0.000000 
0.000000 0.000000 0.000000 

-0.000000 0.000000 0.000000 
0.000000 -0.000000 0.000000 
0.000000 0.000000 0.000000 

-0.000000 -0.000000 0.000000 
0.000000 -0.000000 0.000000 
0.000000 0.000000 0.000000 

-0.000000 -0.000000 0.000000 
0.000000 -0.000000 0.000000 
0.000000 0.000000 0.000000 

-0.000000 -0.000000 0.000000 
0.000000 -0.000000 0.000000 
0.000000 0.000000 0.000000 

-0.000000 -0.000000 0.000000 
0.000000 -0.000000 0.000000 
0.000000 0.000000 0.000000 

-0.000000 0.000000 0.000000 
0.000000 -0.000000 0.000000 
0.000000 0.000000 0.000000 

-0.000000 -0.000000 0.000000 
0.000000 -0.000000 0.000000 
0.000000 0.000000 0.000000 

-0.000000 0.000000 0.000000 
0.000000 -0.000000 0.000000 
0.000000 0.000000 0.000000 

-0.000000 -0.000000 0.000000 
0.000000 -0.000000 0.000000 
0.000000 0.000000 0.000000 

-0.000000 0.000000 0.000000 
0.000000 -0.000000 0.000000 
0.000000 0.000000 0.000000 

-0.000000 -0.000000 0.000000 
0.000000 -0.000000 0.000000 
0.000000 0.000000 0.000000 

-0.000000 0.000000 0.000000 
0.000000 -0.000000 0.000000 
0.000000 0.000000 0.000000 

0.000000 -0.000000 0.000000 
0.000000 0.000000 0.000000 
0.000000 0.000000 0.000000 

0.000000 0.000000 0.000000 
0.000000 0.000000 0.000000 
0.000000 0.000000 0.000000 

0.000000 0.000000 0.000000 
0.000000 0.000000 0.000000 
0.000000 0.000000 0.000000 

0.000000 -0.000000 0.000000 
0.000000 0.000000 0.000000 
0.000000 0.000000 0.000000 

0.000000 0.000000 0.000000 
0.000000 0.000000 0.000000 
0.000000 0.000000 0.000000 

0.000000 0.000000 0.000000 
0.000000 0.000000 0.000000 
0.000000 0.000000 0.000000 

0.000000 -0.000000 0.000000 
0.000000 0.000000 0.000000 
0.000000 0.000000 0.000000 

0.000000 0.000000 0.000000 
0.000000 0.000000 0.000000 
0.000000 0.000000 0.000000 

-0.000000 -0.000000 0.000000 
0.000000 -0.000000 0.000000 
0.000000 0.000000 0.000000 

-0.000000 -0.000000 0.000000 
0.000000 0.000000 0.000000 
0.000000 0.000000 0.000000 

-0.000000 0.000000 0.000000 
0.000000 -0.000000 0.000000 
0.000000 0.000000 0.000000 

-0.000000 0.000000 0.000000 
0.000000 -0.000000 0.000000 
0.000000 0.000000 0.000000 

-0.000000 0.000000 0.000000 
0.000000 -0.000000 0.000000 
0.000000 0.000000 0.000000 

-0.000000 0.000000 0.000000 
0.000000 -0.000000 0.000000 
0.000000 0.000000 0.000000 

-0.000000 0.000000 0.000000 
0.000000 -0.000000 0.000000 
0.000000 0.000000 0.000000 

-0.000000 -0.000000 0.000000 
0.000000 -0.000000 0.000000 
0.000000 0.000000 0.000000 

0.000000 -0.000000 0.000000 
0.000000 0.000000 0.000000 
0.000000 0.000000 0.000000 

-0.000000 0.000000 0.000000 
0.000000 -0.000000 0.000000 
0.000000 0.000000 0.000000 

-0.000000 0.000000 0.000000 
0.000000 -0.000000 0.000000 
0.000000 0.000000 0.000000 

-0.000000 -0.000000 0.000000 
0.000000 -0.000000 0.000000 
0.000000 0.000000 0.000000 

0.000000 -0.000000 0.000000 
0.000000 0.000000 0.000000 
0.000000 0.000000 0.000000 

0.000000 0.000000 0.000000 
0.000000 0.000000 0.000000 
0.000000 0.000000 0.000000 

-0.000000 0.000000 0.000000 
0.000000 -0.000000 0.000000 
0.000000 0.000000 0.000000 

0.000000 -0.000000 0.000000 
0.000000 0.000000 0.000000 
0.000000 0.000000 0.000000 

0.000000 0.000000 0.000000 
0.000000 0.000000 0.000000 
0.000000 0.000000 0.000000 

-0.000000 -0.000000 0.000000 
0.000000 -0.000000 0.000000 
0.000000 0.000000 0.000000 

0.000000 -0.000000 0.000000 
0.000000 0.000000 0.000000 
0.000000 0.000000 0.000000 

0.000000 -0.000000 0.000000 
0.000000 0.000000 0.000000 
0.000000 0.000000 0.000000 

0.000000 -0.000000 0.000000 
0.000000 0.000000 0.000000 
0.000000 0.000000 0.000000 

-0.000000 -0.000000 0.000000 
0.000000 -0.000000 0.000000 
0.000000 0.000000 0.000000 

-0.000000 -0.000000 0.000000 
0.000000 -0.000000 0.000000 
0.000000 0.000000 0.000000 

-0.000000 -0.000000 0.000000 
0.000000 -0.000000 0.000000 
0.000000 0.000000 0.000000 

-0.000000 -0.000000 0.000000 
0.000000 0.000000 0.000000 
0.000000 0.000000 0.000000 

-0.000000 0.000000 0.000000 
0.000000 -0.000000 0.000000 
0.000000 0.000000 0.000000 

-0.000000 -0.000000 0.000000 
0.000000 -0.000000 0.000000 
0.000000 0.000000 0.000000 

0.000000 -0.000000 0.000000 
0.000000 0.000000 0.000000 
0.000000 0.000000 0.000000 

0.000000 -0.000000 0.000000 
0.000000 0.000000 0.000000 
0.000000 0.000000 0.000000 

-0.000000 -0.000000 0.000000 
0.000000 -0.000000 0.000000 
0.000000 0.000000 0.000000 

-0.000000 -0.000000 0.000000 
0.000000 -0.000000 0.000000 
0.000000 0.000000 0.000000 

0.000000 -0.000000 0.000000 
0.000000 0.000000 0.000000 
0.000000 0.000000 0.000000 

0.000000 -0.000000 0.000000 
0.000000 0.000000 0.000000 
0.000000 0.000000 0.000000 

-0.000000 -0.000000 0.000000 
0.000000 -0.000000 0.000000 
0.000000 0.000000 0.000000 

-0.000000 0.000000 0.000000 
0.000000 -0.000000 0.000000 
0.000000 0.000000 0.000000 

0.000000 -0.000000 0.000000 
0.000000 0.000000 0.000000 
0.000000 0.000000 0.000000 

0.000000 0.000000 0.000000 
0.000000 0.000000 0.000000 
0.000000 0.000000 0.000000 

0.000000 0.000000 0.000000 
0.000000 0.000000 0.000000 
0.000000 0.000000 0.000000 

0.000000 -0.000000 0.000000 
0.000000 0.000000 0.000000 
0.000000 0.000000 0.000000 

0.000000 0.000000 0.000000 
0.000000 0.000000 0.000000 
0.000000 0.000000 0.000000 

0.000000 -0.000000 0.000000 
0.000000 -0.000000 0.000000 
0.000000 0.000000 0.000000 

0.000000 0.000000 0.000000 
0.000000 0.000000 0.000000 
0.000000 0.000000 0.000000 

0.000000 -0.000000 0.000000 
0.000000 0.000000 0.000000 
0.000000 0.000000 0.000000 

0.000000 0.000000 0.000000 
0.000000 0.000000 0.000000 
0.000000 0.000000 0.000000 

-0.000000 0.000000 0.000000 
0.000000 -0.000000 0.000000 
0.000000 0.000000 0.000000 

0.000000 -0.000000 0.000000 
0.000000 0.000000 0.000000 
0.000000 0.000000 0.000000 

-0.000000 -0.000000 0.000000 
0.000000 -0.000000 0.000000 
0.000000 0.000000 0.000000 

-0.000000 0.000000 0.000000 
0.000000 -0.000000 0.000000 
0.000000 0.000000 0.000000 

-0.000000 0.000000 0.000000 
0.000000 -0.000000 0.000000 
0.000000 0.000000 0.000000 

0.000000 0.000000 0.000000 
0.000000 0.000000 0.000000 
0.000000 0.000000 0.000000 

-0.000000 -0.000000 0.000000 
0.000000 -0.000000 0.000000 
0.000000 0.000000 0.000000 

-0.000000 -0.000000 0.000000 
0.000000 -0.000000 0.000000 
0.000000 0.000000 0.000000 

-0.000000 -0.000000 0.000000 
0.000000 0.000000 0.000000 
0.000000 0.000000 0.000000 

0.000000 -0.000000 0.000000 
0.000000 0.000000 0.000000 
0.000000 0.000000 0.000000 

-0.000000 -0.000000 0.000000 
0.000000 -0.000000 0.000000 
0.000000 0.000000 0.000000 

0.000000 0.000000 0.000000 
0.000000 0.000000 0.000000 
0.000000 0.000000 0.000000 

-0.000000 0.000000 0.000000 
0.000000 -0.000000 0.000000 
0.000000 0.000000 0.000000 

0.000000 0.000000 0.000000 
0.000000 0.000000 0.000000 
0.000000 0.000000 0.000000 

-0.000000 -0.000000 0.000000 
0.000000 -0.000000 0.000000 
0.000000 0.000000 0.000000 

0.000000 -0.000000 0.000000 
0.000000 0.000000 0.000000 
0.000000 0.000000 0.000000 

0.000000 -0.000000 0.000000 
0.000000 0.000000 0.000000 
0.000000 0.000000 0.000000 

-0.000000 -0.000000 0.000000 
0.000000 -0.000000 0.000000 
0.000000 0.000000 0.000000 

-0.000000 0.000000 0.000000 
0.000000 -0.000000 0.000000 
0.000000 0.000000 0.000000 

0.000000 0.000000 0.000000 
0.000000 0.000000 0.000000 
0.000000 0.000000 0.000000 

-0.000000 0.000000 0.000000 
0.000000 -0.000000 0.000000 
0.000000 0.000000 0.000000 

-0.000000 0.000000 0.000000 
0.000000 -0.000000 0.000000 
0.000000 0.000000 0.000000 

-0.000000 -0.000000 0.000000 
0.000000 -0.000000 0.000000 
0.000000 0.000000 0.000000 

-0.000000 -0.000000 0.000000 
0.000000 -0.000000 0.000000 
0.000000 0.000000 0.000000 

-0.000000 0.000000 0.000000 
0.000000 -0.000000 0.000000 
0.000000 0.000000 0.000000 

0.000000 0.000000 0.000000 
0.000000 0.000000 0.000000 
0.000000 0.000000 0.000000 

0.000000 -0.000000 0.000000 
0.000000 0.000000 0.000000 
0.000000 0.000000 0.000000 

0.000000 0.000000 0.000000 
0.000000 0.000000 0.000000 
0.000000 0.000000 0.000000 

0.000000 0.000000 0.000000 
0.000000 0.000000 0.000000 
0.000000 0.000000 0.000000 

0.000000 -0.000000 0.000000 
0.000000 0.000000 0.000000 
0.000000 0.000000 0.000000 

0.000000 -0.000000 0.000000 
0.000000 0.000000 0.000000 
0.000000 0.000000 0.000000 

0.000000 -0.000000 0.000000 
0.000000 0.000000 0.000000 
0.000000 0.000000 0.000000 

0.000000 -0.000000 0.000000 
0.000000 0.000000 0.000000 
0.000000 0.000000 0.000000 

0.000000 -0.000000 0.000000 
0.000000 0.000000 0.000000 
0.000000 0.000000 0.000000 

-0.000000 0.000000 0.000000 
0.000000 -0.000000 0.000000 
0.000000 0.000000 0.000000 

0.000000 -0.000000 0.000000 
0.000000 0.000000 0.000000 
0.000000 0.000000 0.000000 

0.000000 0.000000 0.000000 
0.000000 0.000000 0.000000 
0.000000 0.000000 0.000000 

-0.000000 0.000000 0.000000 
0.000000 -0.000000 0.000000 
0.000000 0.000000 0.000000 

0.000000 0.000000 0.000000 
0.000000 0.000000 0.000000 
0.000000 0.000000 0.000000 

-0.000000 -0.000000 0.000000 
0.000000 -0.000000 0.000000 
0.000000 0.000000 0.000000 

-0.000000 0.000000 0.000000 
0.000000 -0.000000 0.000000 
0.000000 0.000000 0.000000 

0.000000 0.000000 0.000000 
0.000000 0.000000 0.000000 
0.000000 0.000000 0.000000 

-0.000000 0.000000 0.000000 
0.000000 -0.000000 0.000000 
0.000000 0.000000 0.000000 

-0.000000 -0.000000 0.000000 
0.000000 -0.000000 0.000000 
0.000000 0.000000 0.000000 

-0.000000 -0.000000 0.000000 
0.000000 -0.000000 0.000000 
0.000000 0.000000 0.000000 

0.000000 -0.000000 0.000000 
0.000000 0.000000 0.000000 
0.000000 0.000000 0.000000 

-0.000000 -0.000000 0.000000 
0.000000 -0.000000 0.000000 
0.000000 0.000000 0.000000 

TENSORS STRAIN float 
0.000000 -0.000000 0.000000 
0.000000 -0.000000 0.000000 
0.000000 0.000000 0.000000 

-0.000000 -0.000000 0.000000 
0.000000 0.000000 0.000000 
0.000000 0.000000 0.000000 

0.000000 -0.000000 0.000000 
0.000000 -0.000000 0.000000 
0.000000 0.000000 0.000000 

0.000000 0.000000 0.000000 
0.000000 -0.000000 0.000000 
0.000000 0.000000 0.000000 

-0.000000 -0.000000 0.000000 
0.000000 -0.000000 0.000000 
0.000000 0.000000 0.000000 

-0.000000 -0.000000 0.000000 
0.000000 0.000000 0.000000 
0.000000 0.000000 0.000000 

-0.000000 -0.000000 0.000000 
0.000000 0.000000 0.000000 
0.000000 0.000000 0.000000 

0.000000 -0.000000 0.000000 
0.000000 -0.000000 0.000000 
0.000000 0.000000 0.000000 

0.000000 -0.000000 0.000000 
0.000000 -0.000000 0.000000 
0.000000 0.000000 0.000000 

0.000000 -0.000000 0.000000 
0.000000 0.000000 0.000000 
0.000000 0.000000 0.000000 

-0.000000 -0.000000 0.000000 
0.000000 0.000000 0.000000 
0.000000 0.000000 0.000000 

-0.000000 0.000000 0.000000 
0.000000 0.000000 0.000000 
0.000000 0.000000 0.000000 

-0.000000 0.000000 0.000000 
0.000000 0.000000 0.000000 
0.000000 0.000000 0.000000 

-0.000000 0.000000 0.000000 
0.000000 0.000000 0.000000 
0.000000 0.000000 0.000000 

0.000000 0.000000 0.000000 
0.000000 -0.000000 0.000000 
0.000000 0.000000 0.000000 

0.000000 -0.000000 0.000000 
0.000000 0.000000 0.000000 
0.000000 0.000000 0.000000 

0.000000 0.000000 0.000000 
0.000000 0.000000 0.000000 
0.000000 0.000000 0.000000 

0.000000 0.000000 0.000000 
0.000000 0.000000 0.000000 
0.000000 0.000000 0.000000 

-0.000000 -0.000000 0.000000 
0.000000 -0.000000 0.000000 
0.000000 0.000000 0.000000 

-0.000000 -0.000000 0.000000 
0.000000 -0.000000 0.000000 
0.000000 0.000000 0.000000 

0.000000 -0.000000 0.000000 
0.000000 -0.000000 0.000000 
0.000000 0.000000 0.000000 

0.000000 0.000000 0.000000 
0.000000 0.000000 0.000000 
0.000000 0.000000 0.000000 

0.000000 0.000000 0.000000 
0.000000 -0.000000 0.000000 
0.000000 0.000000 0.000000 

-0.000000 0.000000 0.000000 
0.000000 -0.000000 0.000000 
0.000000 0.000000 0.000000 

0.000000 -0.000000 0.000000 
0.000000 0.000000 0.000000 
0.000000 0.000000 0.000000 

0.000000 -0.000000 0.000000 
0.000000 0.000000 0.000000 
0.000000 0.000000 0.000000 

-0.000000 0.000000 0.000000 
0.000000 0.000000 0.000000 
0.000000 0.000000 0.000000 

-0.000000 0.000000 0.000000 
0.000000 -0.000000 0.000000 
0.000000 0.000000 0.000000 

-0.000000 0.000000 0.000000 
0.000000 0.000000 0.000000 
0.000000 0.000000 0.000000 

0.000000 0.000000 0.000000 
0.000000 -0.000000 0.000000 
0.000000 0.000000 0.000000 

-0.000000 0.000000 0.000000 
0.000000 0.000000 0.000000 
0.000000 0.000000 0.000000 

0.000000 -0.000000 0.000000 
0.000000 -0.000000 0.000000 
0.000000 0.000000 0.000000 

-0.000000 0.000000 0.000000 
0.000000 -0.000000 0.000000 
0.000000 0.000000 0.000000 

-0.000000 -0.000000 0.000000 
0.000000 0.000000 0.000000 
0.000000 0.000000 0.000000 

0.000000 -0.000000 0.000000 
0.000000 -0.000000 0.000000 
0.000000 0.000000 0.000000 

0.000000 -0.000000 0.000000 
0.000000 -0.000000 0.000000 
0.000000 0.000000 0.000000 

0.000000 -0.000000 0.000000 
0.000000 -0.000000 0.000000 
0.000000 0.000000 0.000000 

0.000000 0.000000 0.000000 
0.000000 0.000000 0.000000 
0.000000 0.000000 0.000000 

0.000000 -0.000000 0.000000 
0.000000 0.000000 0.000000 
0.000000 0.000000 0.000000 

0.000000 -0.000000 0.000000 
0.000000 -0.000000 0.000000 
0.000000 0.000000 0.000000 

0.000000 0.000000 0.000000 
0.000000 -0.000000 0.000000 
0.000000 0.000000 0.000000 

-0.000000 -0.000000 0.000000 
0.000000 0.000000 0.000000 
0.000000 0.000000 0.000000 

-0.000000 0.000000 0.000000 
0.000000 0.000000 0.000000 
0.000000 0.000000 0.000000 

-0.000000 0.000000 0.000000 
0.000000 0.000000 0.000000 
0.000000 0.000000 0.000000 

-0.000000 0.000000 0.000000 
0.000000 0.000000 0.000000 
0.000000 0.000000 0.000000 

-0.000000 0.000000 0.000000 
0.000000 -0.000000 0.000000 
0.000000 0.000000 0.000000 

0.000000 -0.000000 0.000000 
0.000000 0.000000 0.000000 
0.000000 0.000000 0.000000 

-0.000000 0.000000 0.000000 
0.000000 0.000000 0.000000 
0.000000 0.000000 0.000000 

0.000000 0.000000 0.000000 
0.000000 -0.000000 0.000000 
0.000000 0.000000 0.000000 

0.000000 0.000000 0.000000 
0.000000 -0.000000 0.000000 
0.000000 0.000000 0.000000 

-0.000000 0.000000 0.000000 
0.000000 0.000000 0.000000 
0.000000 0.000000 0.000000 

-0.000000 0.000000 0.000000 
0.000000 0.000000 0.000000 
0.000000 0.000000 0.000000 

0.000000 0.000000 0.000000 
0.000000 -0.000000 0.000000 
0.000000 0.000000 0.000000 

0.000000 0.000000 0.000000 
0.000000 -0.000000 0.000000 
0.000000 0.000000 0.000000 

-0.000000 0.000000 0.000000 
0.000000 0.000000 0.000000 
0.000000 0.000000 0.000000 

-0.000000 0.000000 0.000000 
0.000000 0.000000 0.000000 
0.000000 0.000000 0.000000 

-0.000000 -0.000000 0.000000 
0.000000 0.000000 0.000000 
0.000000 0.000000 0.000000 

-0.000000 0.000000 0.000000 
0.000000 -0.000000 0.000000 
0.000000 0.000000 0.000000 

-0.000000 0.000000 0.000000 
0.000000 0.000000 0.000000 
0.000000 0.000000 0.000000 

0.000000 0.000000 0.000000 
0.000000 -0.000000 0.000000 
0.000000 0.000000 0.000000 

-0.000000 0.000000 0.000000 
0.000000 -0.000000 0.000000 
0.000000 0.000000 0.000000 

-0.000000 0.000000 0.000000 
0.000000 0.000000 0.000000 
0.000000 0.000000 0.000000 

-0.000000 0.000000 0.000000 
0.000000 0.000000 0.000000 
0.000000 0.000000 0.000000 

-0.000000 -0.000000 0.000000 
0.000000 -0.000000 0.000000 
0.000000 0.000000 0.000000 

-0.000000 0.000000 0.000000 
0.000000 -0.000000 0.000000 
0.000000 0.000000 0.000000 

-0.000000 -0.000000 0.000000 
0.000000 0.000000 0.000000 
0.000000 0.000000 0.000000 

-0.000000 -0.000000 0.000000 
0.000000 -0.000000 0.000000 
0.000000 0.000000 0.000000 

-0.000000 -0.000000 0.000000 
0.000000 0.000000 0.000000 
0.000000 0.000000 0.000000 

-0.000000 -0.000000 0.000000 
0.000000 0.000000 0.000000 
0.000000 0.000000 0.000000 

-0.000000 0.000000 0.000000 
0.000000 -0.000000 0.000000 
0.000000 0.000000 0.000000 

-0.000000 -0.000000 0.000000 
0.000000 0.000000 0.000000 
0.000000 0.000000 0.000000 

-0.000000 0.000000 0.000000 
0.000000 -0.000000 0.000000 
0.000000 0.000000 0.000000 

-0.000000 -0.000000 0.000000 
0.000000 0.000000 0.000000 
0.000000 0.000000 0.000000 

-0.000000 0.000000 0.000000 
0.000000 0.000000 0.000000 
0.000000 0.000000 0.000000 

-0.000000 -0.000000 0.000000 
0.000000 -0.000000 0.000000 
0.000000 0.000000 0.000000 

0.000000 0.000000 0.000000 
0.000000 -0.000000 0.000000 
0.000000 0.000000 0.000000 

0.000000 -0.000000 0.000000 
0.000000 -0.000000 0.000000 
0.000000 0.000000 0.000000 

0.000000 0.000000 0.000000 
0.000000 0.000000 0.000000 
0.000000 0.000000 0.000000 

0.000000 0.000000 0.000000 
0.000000 -0.000000 0.000000 
0.000000 0.000000 0.000000 

-0.000000 -0.000000 0.000000 
0.000000 0.000000 0.000000 
0.000000 0.000000 0.000000 

0.000000 0.000000 0.000000 
0.000000 -0.000000 0.000000 
0.000000 0.000000 0.000000 

0.000000 0.000000 0.000000 
0.000000 0.000000 0.000000 
0.000000 0.000000 0.000000 

0.000000 -0.000000 0.000000 
0.000000 -0.000000 0.000000 
0.000000 0.000000 0.000000 

-0.000000 0.000000 0.000000 
0.000000 0.000000 0.000000 
0.000000 0.000000 0.000000 

0.000000 -0.000000 0.000000 
0.000000 -0.000000 0.000000 
0.000000 0.000000 0.000000 

-0.000000 -0.000000 0.000000 
0.000000 0.000000 0.000000 
0.000000 0.000000 0.000000 

0.000000 0.000000 0.000000 
0.000000 -0.000000 0.000000 
0.000000 0.000000 0.000000 

0.000000 0.000000 0.000000 
0.000000 -0.000000 0.000000 
0.000000 0.000000 0.000000 

0.000000 0.000000 0.000000 
0.000000 -0.000000 0.000000 
0.000000 0.000000 0.000000 

0.000000 0.000000 0.000000 
0.000000 -0.000000 0.000000 
0.000000 0.000000 0.000000 

0.000000 0.000000 0.000000 
0.000000 -0.000000 0.000000 
0.000000 0.000000 0.000000 

0.000000 -0.000000 0.000000 
0.000000 -0.000000 0.000000 
0.000000 0.000000 0.000000 

0.000000 -0.000000 0.000000 
0.000000 0.000000 0.000000 
0.000000 0.000000 0.000000 

0.000000 0.000000 0.000000 
0.000000 -0.000000 0.000000 
0.000000 0.000000 0.000000 

-0.000000 0.000000 0.000000 
0.000000 -0.000000 0.000000 
0.000000 0.000000 0.000000 

-0.000000 -0.000000 0.000000 
0.000000 0.000000 0.000000 
0.000000 0.000000 0.000000 

-0.000000 -0.000000 0.000000 
0.000000 0.000000 0.000000 
0.000000 0.000000 0.000000 

-0.000000 0.000000 0.000000 
0.000000 0.000000 0.000000 
0.000000 0.000000 0.000000 

-0.000000 0.000000 0.000000 
0.000000 -0.000000 0.000000 
0.000000 0.000000 0.000000 

-0.000000 -0.000000 0.000000 
0.000000 0.000000 0.000000 
0.000000 0.000000 0.000000 

-0.000000 0.000000 0.000000 
0.000000 0.000000 0.000000 
0.000000 0.000000 0.000000 

-0.000000 -0.000000 0.000000 
0.000000 0.000000 0.000000 
0.000000 0.000000 0.000000 

-0.000000 -0.000000 0.000000 
0.000000 0.000000 0.000000 
0.000000 0.000000 0.000000 

0.000000 -0.000000 0.000000 
0.000000 -0.000000 0.000000 
0.000000 0.000000 0.000000 

-0.000000 -0.000000 0.000000 
0.000000 0.000000 0.000000 
0.000000 0.000000 0.000000 

-0.000000 -0.000000 0.000000 
0.000000 -0.000000 0.000000 
0.000000 0.000000 0.000000 

-0.000000 -0.000000 0.000000 
0.000000 -0.000000 0.000000 
0.000000 0.000000 0.000000 

-0.000000 -0.000000 0.000000 
0.000000 0.000000 0.000000 
0.000000 0.000000 0.000000 

-0.000000 -0.000000 0.000000 
0.000000 0.000000 0.000000 
0.000000 0.000000 0.000000 

-0.000000 0.000000 0.000000 
0.000000 -0.000000 0.000000 
0.000000 0.000000 0.000000 

-0.000000 -0.000000 0.000000 
0.000000 0.000000 0.000000 
0.000000 0.000000 0.000000 

-0.000000 -0.000000 0.000000 
0.000000 0.000000 0.000000 
0.000000 0.000000 0.000000 

-0.000000 -0.000000 0.000000 
0.000000 0.000000 0.000000 
0.000000 0.000000 0.000000 

0.000000 -0.000000 0.000000 
0.000000 -0.000000 0.000000 
0.000000 0.000000 0.000000 

-0.000000 -0.000000 0.000000 
0.000000 -0.000000 0.000000 
0.000000 0.000000 0.000000 

-0.000000 -0.000000 0.000000 
0.000000 0.000000 0.000000 
0.000000 0.000000 0.000000 

0.000000 -0.000000 0.000000 
0.000000 0.000000 0.000000 
0.000000 0.000000 0.000000 

0.000000 -0.000000 0.000000 
0.000000 -0.000000 0.000000 
0.000000 0.000000 0.000000 

-0.000000 0.000000 0.000000 
0.000000 -0.000000 0.000000 
0.000000 0.000000 0.000000 

0.000000 -0.000000 0.000000 
0.000000 0.000000 0.000000 
0.000000 0.000000 0.000000 

0.000000 0.000000 0.000000 
0.000000 0.000000 0.000000 
0.000000 0.000000 0.000000 

0.000000 0.000000 0.000000 
0.000000 0.000000 0.000000 
0.000000 0.000000 0.000000 

0.000000 -0.000000 0.000000 
0.000000 0.000000 0.000000 
0.000000 0.000000 0.000000 

0.000000 0.000000 0.000000 
0.000000 -0.000000 0.000000 
0.000000 0.000000 0.000000 

0.000000 -0.000000 0.000000 
0.000000 -0.000000 0.000000 
0.000000 0.000000 0.000000 

0.000000 0.000000 0.000000 
0.000000 -0.000000 0.000000 
0.000000 0.000000 0.000000 

0.000000 -0.000000 0.000000 
0.000000 0.000000 0.000000 
0.000000 0.000000 0.000000 

-0.000000 0.000000 0.000000 
0.000000 0.000000 0.000000 
0.000000 0.000000 0.000000 

-0.000000 0.000000 0.000000 
0.000000 0.000000 0.000000 
0.000000 0.000000 0.000000 

0.000000 -0.000000 0.000000 
0.000000 0.000000 0.000000 
0.000000 0.000000 0.000000 

0.000000 -0.000000 0.000000 
0.000000 -0.000000 0.000000 
0.000000 0.000000 0.000000 

-0.000000 0.000000 0.000000 
0.000000 -0.000000 0.000000 
0.000000 0.000000 0.000000 

-0.000000 0.000000 0.000000 
0.000000 0.000000 0.000000 
0.000000 0.000000 0.000000 

0.000000 0.000000 0.000000 
0.000000 -0.000000 0.000000 
0.000000 0.000000 0.000000 

-0.000000 -0.000000 0.000000 
0.000000 -0.000000 0.000000 
0.000000 0.000000 0.000000 

-0.000000 -0.000000 0.000000 
0.000000 0.000000 0.000000 
0.000000 0.000000 0.000000 

-0.000000 -0.000000 0.000000 
0.000000 0.000000 0.000000 
0.000000 0.000000 0.000000 

-0.000000 -0.000000 0.000000 
0.000000 0.000000 0.000000 
0.000000 0.000000 0.000000 

0.000000 -0.000000 0.000000 
0.000000 -0.000000 0.000000 
0.000000 0.000000 0.000000 

0.000000 0.000000 0.000000 
0.000000 0.000000 0.000000 
0.000000 0.000000 0.000000 

0.000000 0.000000 0.000000 
0.000000 -0.000000 0.000000 
0.000000 0.000000 0.000000 

0.000000 0.000000 0.000000 
0.000000 -0.000000 0.000000 
0.000000 0.000000 0.000000 

0.000000 -0.000000 0.000000 
0.000000 -0.000000 0.000000 
0.000000 0.000000 0.000000 

-0.000000 -0.000000 0.000000 
0.000000 0.000000 0.000000 
0.000000 0.000000 0.000000 

0.000000 -0.000000 0.000000 
0.000000 -0.000000 0.000000 
0.000000 0.000000 0.000000 

0.000000 -0.000000 0.000000 
0.000000 -0.000000 0.000000 
0.000000 0.000000 0.000000 

0.000000 0.000000 0.000000 
0.000000 -0.000000 0.000000 
0.000000 0.000000 0.000000 

0.000000 0.000000 0.000000 
0.000000 0.000000 0.000000 
0.000000 0.000000 0.000000 

-0.000000 0.000000 0.000000 
0.000000 -0.000000 0.000000 
0.000000 0.000000 0.000000 

-0.000000 0.000000 0.000000 
0.000000 0.000000 0.000000 
0.000000 0.000000 0.000000 

0.000000 -0.000000 0.000000 
0.000000 -0.000000 0.000000 
0.000000 0.000000 0.000000 

0.000000 -0.000000 0.00