# vtk DataFile Version 3.0 
vtk output 
ASCII 
DATASET UNSTRUCTURED_GRID 
POINTS 175 float 
-0.026061 -2.296749 0.000000 
-0.106992 -2.228693 0.000000 
-0.054870 -2.236926 0.000000 
-0.028809 -2.191042 0.000000 
-0.186430 -2.164618 0.000000 
-0.137056 -2.167144 0.000000 
-0.114311 -2.113496 0.000000 
-0.058186 -2.129162 0.000000 
-0.029377 -2.088985 0.000000 
-0.265318 -2.101462 0.000000 
-0.217198 -2.102261 0.000000 
-0.196633 -2.044965 0.000000 
-0.143120 -2.053674 0.000000 
-0.116563 -2.006405 0.000000 
-0.058945 -2.026051 0.000000 
-0.029568 -1.987931 0.000000 
-0.344206 -2.038306 0.000000 
-0.296791 -2.038299 0.000000 
-0.278030 -1.978356 0.000000 
-0.225992 -1.984222 0.000000 
-0.201664 -1.932105 0.000000 
-0.145749 -1.945579 0.000000 
-0.117890 -1.901237 0.000000 
-0.059328 -1.923942 0.000000 
-0.029759 -1.886877 0.000000 
-0.058559 -2.337499 0.000000 
-0.162226 -2.358342 0.000000 
-0.123292 -2.322724 0.000000 
-0.142917 -2.273741 0.000000 
-0.261851 -2.380498 0.000000 
-0.229092 -2.343471 0.000000 
-0.256854 -2.292240 0.000000 
-0.209613 -2.258127 0.000000 
-0.223062 -2.210553 0.000000 
-0.360414 -2.402798 0.000000 
-0.329787 -2.365676 0.000000 
-0.361761 -2.313874 0.000000 
-0.321587 -2.277465 0.000000 
-0.341985 -2.227231 0.000000 
-0.290702 -2.194432 0.000000 
-0.302189 -2.147696 0.000000 
-0.458977 -2.425099 0.000000 
-0.429420 -2.388024 0.000000 
-0.464588 -2.335982 0.000000 
-0.427556 -2.298955 0.000000 
-0.453135 -2.247440 0.000000 
-0.407738 -2.212125 0.000000 
-0.425037 -2.162696 0.000000 
-0.370772 -2.131067 0.000000 
-0.381315 -2.084840 0.000000 
-0.046960 -2.388315 0.000000 
-0.095301 -2.482360 0.000000 
-0.098873 -2.429713 0.000000 
-0.149405 -2.414516 0.000000 
-0.140093 -2.574064 0.000000 
-0.148617 -2.525366 0.000000 
-0.205981 -2.515129 0.000000 
-0.203197 -2.456926 0.000000 
-0.248777 -2.437779 0.000000 
-0.184111 -2.665028 0.000000 
-0.194039 -2.617937 0.000000 
-0.254475 -2.610637 0.000000 
-0.257893 -2.556528 0.000000 
-0.309886 -2.541155 0.000000 
-0.303554 -2.480610 0.000000 
-0.347255 -2.460452 0.000000 
-0.228129 -2.755992 0.000000 
-0.238687 -2.709767 0.000000 
-0.301302 -2.704815 0.000000 
-0.307162 -2.652776 0.000000 
-0.363386 -2.640655 0.000000 
-0.362692 -2.583144 0.000000 
-0.412122 -2.565851 0.000000 
-0.403017 -2.503704 0.000000 
-0.445733 -2.483125 0.000000 
-0.000000 -2.410929 0.000000 
0.043388 -2.507360 0.000000 
-0.000000 -2.477328 0.000000 
-0.043388 -2.507360 0.000000 
0.087158 -2.599557 0.000000 
0.043769 -2.575858 0.000000 
-0.000000 -2.614324 0.000000 
-0.043769 -2.575858 0.000000 
-0.087158 -2.599557 0.000000 
0.130831 -2.690686 0.000000 
0.087824 -2.669088 0.000000 
0.044436 -2.711787 0.000000 
-0.000000 -2.680722 0.000000 
-0.044436 -2.711787 0.000000 
-0.087824 -2.669088 0.000000 
-0.130831 -2.690686 0.000000 
0.174505 -2.781816 0.000000 
0.131782 -2.761250 0.000000 
0.088871 -2.807116 0.000000 
0.044532 -2.779253 0.000000 
-0.000000 -2.815653 0.000000 
-0.044532 -2.779253 0.000000 
-0.088871 -2.807116 0.000000 
-0.131782 -2.761250 0.000000 
-0.174505 -2.781816 0.000000 
0.046960 -2.388315 0.000000 
0.149405 -2.414516 0.000000 
0.098873 -2.429713 0.000000 
0.095301 -2.482360 0.000000 
0.248777 -2.437779 0.000000 
0.203197 -2.456926 0.000000 
0.205981 -2.515129 0.000000 
0.148617 -2.525366 0.000000 
0.140093 -2.574064 0.000000 
0.347255 -2.460452 0.000000 
0.303554 -2.480610 0.000000 
0.309886 -2.541155 0.000000 
0.257893 -2.556528 0.000000 
0.254475 -2.610637 0.000000 
0.194039 -2.617937 0.000000 
0.184111 -2.665028 0.000000 
0.445733 -2.483125 0.000000 
0.403017 -2.503704 0.000000 
0.412122 -2.565851 0.000000 
0.362692 -2.583144 0.000000 
0.363386 -2.640655 0.000000 
0.307162 -2.652776 0.000000 
0.301302 -2.704815 0.000000 
0.238687 -2.709767 0.000000 
0.228129 -2.755992 0.000000 
0.058559 -2.337499 0.000000 
0.142917 -2.273741 0.000000 
0.123292 -2.322724 0.000000 
0.162226 -2.358342 0.000000 
0.223062 -2.210553 0.000000 
0.209613 -2.258127 0.000000 
0.256854 -2.292240 0.000000 
0.229092 -2.343471 0.000000 
0.261851 -2.380498 0.000000 
0.302189 -2.147696 0.000000 
0.290702 -2.194432 0.000000 
0.341985 -2.227231 0.000000 
0.321587 -2.277465 0.000000 
0.361761 -2.313874 0.000000 
0.329787 -2.365676 0.000000 
0.360414 -2.402798 0.000000 
0.381315 -2.084840 0.000000 
0.370772 -2.131067 0.000000 
0.425037 -2.162696 0.000000 
0.407738 -2.212125 0.000000 
0.453135 -2.247440 0.000000 
0.427556 -2.298955 0.000000 
0.464588 -2.335982 0.000000 
0.429420 -2.388024 0.000000 
0.458977 -2.425099 0.000000 
0.026061 -2.296749 0.000000 
0.028809 -2.191042 0.000000 
0.054870 -2.236926 0.000000 
0.106992 -2.228693 0.000000 
0.029377 -2.088985 0.000000 
0.058186 -2.129162 0.000000 
0.114311 -2.113496 0.000000 
0.137056 -2.167144 0.000000 
0.186430 -2.164618 0.000000 
0.029568 -1.987931 0.000000 
0.058945 -2.026051 0.000000 
0.116563 -2.006405 0.000000 
0.143120 -2.053674 0.000000 
0.196633 -2.044965 0.000000 
0.217198 -2.102261 0.000000 
0.265318 -2.101462 0.000000 
0.029759 -1.886877 0.000000 
0.059328 -1.923942 0.000000 
0.117890 -1.901237 0.000000 
0.145749 -1.945579 0.000000 
0.201664 -1.932105 0.000000 
0.225992 -1.984222 0.000000 
0.278030 -1.978356 0.000000 
0.296791 -2.038299 0.000000 
0.344206 -2.038306 0.000000 
CELLS 175 350 
1 0 
1 1 
1 2 
1 3 
1 4 
1 5 
1 6 
1 7 
1 8 
1 9 
1 10 
1 11 
1 12 
1 13 
1 14 
1 15 
1 16 
1 17 
1 18 
1 19 
1 20 
1 21 
1 22 
1 23 
1 24 
1 25 
1 26 
1 27 
1 28 
1 29 
1 30 
1 31 
1 32 
1 33 
1 34 
1 35 
1 36 
1 37 
1 38 
1 39 
1 40 
1 41 
1 42 
1 43 
1 44 
1 45 
1 46 
1 47 
1 48 
1 49 
1 50 
1 51 
1 52 
1 53 
1 54 
1 55 
1 56 
1 57 
1 58 
1 59 
1 60 
1 61 
1 62 
1 63 
1 64 
1 65 
1 66 
1 67 
1 68 
1 69 
1 70 
1 71 
1 72 
1 73 
1 74 
1 75 
1 76 
1 77 
1 78 
1 79 
1 80 
1 81 
1 82 
1 83 
1 84 
1 85 
1 86 
1 87 
1 88 
1 89 
1 90 
1 91 
1 92 
1 93 
1 94 
1 95 
1 96 
1 97 
1 98 
1 99 
1 100 
1 101 
1 102 
1 103 
1 104 
1 105 
1 106 
1 107 
1 108 
1 109 
1 110 
1 111 
1 112 
1 113 
1 114 
1 115 
1 116 
1 117 
1 118 
1 119 
1 120 
1 121 
1 122 
1 123 
1 124 
1 125 
1 126 
1 127 
1 128 
1 129 
1 130 
1 131 
1 132 
1 133 
1 134 
1 135 
1 136 
1 137 
1 138 
1 139 
1 140 
1 141 
1 142 
1 143 
1 144 
1 145 
1 146 
1 147 
1 148 
1 149 
1 150 
1 151 
1 152 
1 153 
1 154 
1 155 
1 156 
1 157 
1 158 
1 159 
1 160 
1 161 
1 162 
1 163 
1 164 
1 165 
1 166 
1 167 
1 168 
1 169 
1 170 
1 171 
1 172 
1 173 
1 174 
CELL_TYPES 175 
1 
1 
1 
1 
1 
1 
1 
1 
1 
1 
1 
1 
1 
1 
1 
1 
1 
1 
1 
1 
1 
1 
1 
1 
1 
1 
1 
1 
1 
1 
1 
1 
1 
1 
1 
1 
1 
1 
1 
1 
1 
1 
1 
1 
1 
1 
1 
1 
1 
1 
1 
1 
1 
1 
1 
1 
1 
1 
1 
1 
1 
1 
1 
1 
1 
1 
1 
1 
1 
1 
1 
1 
1 
1 
1 
1 
1 
1 
1 
1 
1 
1 
1 
1 
1 
1 
1 
1 
1 
1 
1 
1 
1 
1 
1 
1 
1 
1 
1 
1 
1 
1 
1 
1 
1 
1 
1 
1 
1 
1 
1 
1 
1 
1 
1 
1 
1 
1 
1 
1 
1 
1 
1 
1 
1 
1 
1 
1 
1 
1 
1 
1 
1 
1 
1 
1 
1 
1 
1 
1 
1 
1 
1 
1 
1 
1 
1 
1 
1 
1 
1 
1 
1 
1 
1 
1 
1 
1 
1 
1 
1 
1 
1 
1 
1 
1 
1 
1 
1 
1 
1 
1 
1 
1 
1 
POINT_DATA 175 
VECTORS X_GC float 
-0.026061 -2.296749 0.000000 
-0.106992 -2.228693 0.000000 
-0.054870 -2.236926 0.000000 
-0.028809 -2.191042 0.000000 
-0.186430 -2.164618 0.000000 
-0.137056 -2.167144 0.000000 
-0.114311 -2.113496 0.000000 
-0.058186 -2.129162 0.000000 
-0.029377 -2.088985 0.000000 
-0.265318 -2.101462 0.000000 
-0.217198 -2.102261 0.000000 
-0.196633 -2.044965 0.000000 
-0.143120 -2.053674 0.000000 
-0.116563 -2.006405 0.000000 
-0.058945 -2.026051 0.000000 
-0.029568 -1.987931 0.000000 
-0.344206 -2.038306 0.000000 
-0.296791 -2.038299 0.000000 
-0.278030 -1.978356 0.000000 
-0.225992 -1.984222 0.000000 
-0.201664 -1.932105 0.000000 
-0.145749 -1.945579 0.000000 
-0.117890 -1.901237 0.000000 
-0.059328 -1.923942 0.000000 
-0.029759 -1.886877 0.000000 
-0.058559 -2.337499 0.000000 
-0.162226 -2.358342 0.000000 
-0.123292 -2.322724 0.000000 
-0.142917 -2.273741 0.000000 
-0.261851 -2.380498 0.000000 
-0.229092 -2.343471 0.000000 
-0.256854 -2.292240 0.000000 
-0.209613 -2.258127 0.000000 
-0.223062 -2.210553 0.000000 
-0.360414 -2.402798 0.000000 
-0.329787 -2.365676 0.000000 
-0.361761 -2.313874 0.000000 
-0.321587 -2.277465 0.000000 
-0.341985 -2.227231 0.000000 
-0.290702 -2.194432 0.000000 
-0.302189 -2.147696 0.000000 
-0.458977 -2.425099 0.000000 
-0.429420 -2.388024 0.000000 
-0.464588 -2.335982 0.000000 
-0.427556 -2.298955 0.000000 
-0.453135 -2.247440 0.000000 
-0.407738 -2.212125 0.000000 
-0.425037 -2.162696 0.000000 
-0.370772 -2.131067 0.000000 
-0.381315 -2.084840 0.000000 
-0.046960 -2.388315 0.000000 
-0.095301 -2.482360 0.000000 
-0.098873 -2.429713 0.000000 
-0.149405 -2.414516 0.000000 
-0.140093 -2.574064 0.000000 
-0.148617 -2.525366 0.000000 
-0.205981 -2.515129 0.000000 
-0.203197 -2.456926 0.000000 
-0.248777 -2.437779 0.000000 
-0.184111 -2.665028 0.000000 
-0.194039 -2.617937 0.000000 
-0.254475 -2.610637 0.000000 
-0.257893 -2.556528 0.000000 
-0.309886 -2.541155 0.000000 
-0.303554 -2.480610 0.000000 
-0.347255 -2.460452 0.000000 
-0.228129 -2.755992 0.000000 
-0.238687 -2.709767 0.000000 
-0.301302 -2.704815 0.000000 
-0.307162 -2.652776 0.000000 
-0.363386 -2.640655 0.000000 
-0.362692 -2.583144 0.000000 
-0.412122 -2.565851 0.000000 
-0.403017 -2.503704 0.000000 
-0.445733 -2.483125 0.000000 
-0.000000 -2.410929 0.000000 
0.043388 -2.507360 0.000000 
-0.000000 -2.477328 0.000000 
-0.043388 -2.507360 0.000000 
0.087158 -2.599557 0.000000 
0.043769 -2.575858 0.000000 
-0.000000 -2.614324 0.000000 
-0.043769 -2.575858 0.000000 
-0.087158 -2.599557 0.000000 
0.130831 -2.690686 0.000000 
0.087824 -2.669088 0.000000 
0.044436 -2.711787 0.000000 
-0.000000 -2.680722 0.000000 
-0.044436 -2.711787 0.000000 
-0.087824 -2.669088 0.000000 
-0.130831 -2.690686 0.000000 
0.174505 -2.781816 0.000000 
0.131782 -2.761250 0.000000 
0.088871 -2.807116 0.000000 
0.044532 -2.779253 0.000000 
-0.000000 -2.815653 0.000000 
-0.044532 -2.779253 0.000000 
-0.088871 -2.807116 0.000000 
-0.131782 -2.761250 0.000000 
-0.174505 -2.781816 0.000000 
0.046960 -2.388315 0.000000 
0.149405 -2.414516 0.000000 
0.098873 -2.429713 0.000000 
0.095301 -2.482360 0.000000 
0.248777 -2.437779 0.000000 
0.203197 -2.456926 0.000000 
0.205981 -2.515129 0.000000 
0.148617 -2.525366 0.000000 
0.140093 -2.574064 0.000000 
0.347255 -2.460452 0.000000 
0.303554 -2.480610 0.000000 
0.309886 -2.541155 0.000000 
0.257893 -2.556528 0.000000 
0.254475 -2.610637 0.000000 
0.194039 -2.617937 0.000000 
0.184111 -2.665028 0.000000 
0.445733 -2.483125 0.000000 
0.403017 -2.503704 0.000000 
0.412122 -2.565851 0.000000 
0.362692 -2.583144 0.000000 
0.363386 -2.640655 0.000000 
0.307162 -2.652776 0.000000 
0.301302 -2.704815 0.000000 
0.238687 -2.709767 0.000000 
0.228129 -2.755992 0.000000 
0.058559 -2.337499 0.000000 
0.142917 -2.273741 0.000000 
0.123292 -2.322724 0.000000 
0.162226 -2.358342 0.000000 
0.223062 -2.210553 0.000000 
0.209613 -2.258127 0.000000 
0.256854 -2.292240 0.000000 
0.229092 -2.343471 0.000000 
0.261851 -2.380498 0.000000 
0.302189 -2.147696 0.000000 
0.290702 -2.194432 0.000000 
0.341985 -2.227231 0.000000 
0.321587 -2.277465 0.000000 
0.361761 -2.313874 0.000000 
0.329787 -2.365676 0.000000 
0.360414 -2.402798 0.000000 
0.381315 -2.084840 0.000000 
0.370772 -2.131067 0.000000 
0.425037 -2.162696 0.000000 
0.407738 -2.212125 0.000000 
0.453135 -2.247440 0.000000 
0.427556 -2.298955 0.000000 
0.464588 -2.335982 0.000000 
0.429420 -2.388024 0.000000 
0.458977 -2.425099 0.000000 
0.026061 -2.296749 0.000000 
0.028809 -2.191042 0.000000 
0.054870 -2.236926 0.000000 
0.106992 -2.228693 0.000000 
0.029377 -2.088985 0.000000 
0.058186 -2.129162 0.000000 
0.114311 -2.113496 0.000000 
0.137056 -2.167144 0.000000 
0.186430 -2.164618 0.000000 
0.029568 -1.987931 0.000000 
0.058945 -2.026051 0.000000 
0.116563 -2.006405 0.000000 
0.143120 -2.053674 0.000000 
0.196633 -2.044965 0.000000 
0.217198 -2.102261 0.000000 
0.265318 -2.101462 0.000000 
0.029759 -1.886877 0.000000 
0.059328 -1.923942 0.000000 
0.117890 -1.901237 0.000000 
0.145749 -1.945579 0.000000 
0.201664 -1.932105 0.000000 
0.225992 -1.984222 0.000000 
0.278030 -1.978356 0.000000 
0.296791 -2.038299 0.000000 
0.344206 -2.038306 0.000000 
VECTORS X_EC float 
0.338794 -0.493895 0.000000 
-0.609100 0.587357 0.000000 
0.713312 0.698498 0.000000 
0.374519 0.079068 0.000000 
0.423588 -0.277662 0.000000 
-0.218274 -0.243559 0.000000 
-0.513962 -0.967798 0.000000 
0.756418 -0.756312 0.000000 
0.381900 0.701296 0.000000 
-0.550868 0.869734 0.000000 
0.823577 0.880530 0.000000 
0.556234 0.107026 0.000000 
-0.139443 0.224595 0.000000 
-0.484677 -0.413530 0.000000 
0.766286 -0.148315 0.000000 
0.384386 -0.662935 0.000000 
0.474677 0.017131 0.000000 
-0.141715 0.017035 0.000000 
-0.385608 -0.792193 0.000000 
0.937896 -0.712998 0.000000 
0.621631 0.583422 0.000000 
-0.105264 0.765321 0.000000 
-0.467428 0.166695 0.000000 
0.771260 0.473224 0.000000 
0.386873 -0.027166 0.000000 
0.761262 0.056240 0.000000 
0.108942 0.337616 0.000000 
-0.397202 -0.143223 0.000000 
-0.142083 -0.804498 0.000000 
-0.595936 0.636727 0.000000 
0.978194 0.136861 0.000000 
-0.660903 -0.554764 0.000000 
0.724964 0.984716 0.000000 
0.899809 0.342467 0.000000 
0.685384 0.937779 0.000000 
0.287229 0.436621 0.000000 
0.702895 -0.262708 0.000000 
0.180633 -0.754226 0.000000 
0.445811 0.567614 0.000000 
-0.220880 0.124828 0.000000 
-0.071546 -0.506097 0.000000 
-0.033296 -0.761169 0.000000 
-0.417537 0.738322 0.000000 
0.039645 0.035759 0.000000 
-0.441768 -0.464112 0.000000 
-0.109248 0.840437 0.000000 
-0.699407 0.363682 0.000000 
-0.474522 -0.303597 0.000000 
0.820030 -0.730591 0.000000 
0.957100 0.645338 0.000000 
0.610485 0.742246 0.000000 
-0.761092 0.011865 0.000000 
-0.714655 -0.698872 0.000000 
-0.057734 -0.904039 0.000000 
-0.178789 -0.750130 0.000000 
-0.067979 0.592444 0.000000 
0.677748 0.454240 0.000000 
0.641556 -0.331505 0.000000 
-0.765897 -0.589984 0.000000 
0.393446 0.477879 0.000000 
0.522510 -0.157851 0.000000 
-0.691820 -0.256395 0.000000 
-0.647393 -0.986878 0.000000 
0.028512 0.805595 0.000000 
-0.053800 -0.011765 0.000000 
0.514316 -0.283896 0.000000 
0.965681 -0.294112 0.000000 
-0.897068 -0.918141 0.000000 
-0.083078 -0.984994 0.000000 
-0.006893 0.312481 0.000000 
0.724017 0.148849 0.000000 
0.714996 -0.627555 0.000000 
-0.642413 -0.861012 0.000000 
-0.760780 0.300007 0.000000 
-0.205471 0.022192 0.000000 
0.000000 -0.952452 0.000000 
-0.564049 0.349361 0.000000 
0.000000 -0.056075 0.000000 
0.564049 0.349361 0.000000 
0.866949 -0.405984 0.000000 
-0.569003 -0.725915 0.000000 
0.000000 -0.206627 0.000000 
0.569003 -0.725915 0.000000 
-0.866949 -0.405984 0.000000 
0.299194 0.824266 0.000000 
0.858290 0.532682 0.000000 
-0.577662 -0.890872 0.000000 
0.000000 0.689750 0.000000 
0.577662 -0.890872 0.000000 
-0.858290 0.532682 0.000000 
-0.299194 0.824266 0.000000 
-0.268560 0.054516 0.000000 
0.286830 -0.223126 0.000000 
0.844677 0.396073 0.000000 
-0.578910 0.019910 0.000000 
0.000000 0.511314 0.000000 
0.578910 0.019910 0.000000 
-0.844677 0.396073 0.000000 
-0.286830 -0.223126 0.000000 
0.268560 0.054516 0.000000 
-0.610485 0.742246 0.000000 
0.057734 -0.904039 0.000000 
0.714655 -0.698872 0.000000 
0.761092 0.011865 0.000000 
0.765897 -0.589984 0.000000 
-0.641556 -0.331505 0.000000 
-0.677748 0.454240 0.000000 
0.067979 0.592444 0.000000 
0.178789 -0.750130 0.000000 
-0.514316 -0.283896 0.000000 
0.053800 -0.011765 0.000000 
-0.028512 0.805595 0.000000 
0.647393 -0.986878 0.000000 
0.691820 -0.256395 0.000000 
-0.522510 -0.157851 0.000000 
-0.393446 0.477879 0.000000 
0.205471 0.022192 0.000000 
0.760780 0.300007 0.000000 
0.642413 -0.861012 0.000000 
-0.714996 -0.627555 0.000000 
-0.724017 0.148849 0.000000 
0.006894 0.312482 0.000000 
0.083078 -0.984994 0.000000 
0.897068 -0.918141 0.000000 
-0.965681 -0.294112 0.000000 
-0.761262 0.056240 0.000000 
0.142083 -0.804498 0.000000 
0.397202 -0.143223 0.000000 
-0.108942 0.337616 0.000000 
-0.899809 0.342467 0.000000 
-0.724964 0.984716 0.000000 
0.660903 -0.554764 0.000000 
-0.978194 0.136861 0.000000 
0.595936 0.636727 0.000000 
0.071546 -0.506097 0.000000 
0.220880 0.124828 0.000000 
-0.445811 0.567614 0.000000 
-0.180633 -0.754226 0.000000 
-0.702895 -0.262708 0.000000 
-0.287229 0.436621 0.000000 
-0.685384 0.937779 0.000000 
-0.957100 0.645338 0.000000 
-0.820030 -0.730591 0.000000 
0.474522 -0.303597 0.000000 
0.699407 0.363682 0.000000 
0.109248 0.840437 0.000000 
0.441768 -0.464112 0.000000 
-0.039645 0.035759 0.000000 
0.417537 0.738322 0.000000 
0.033296 -0.761169 0.000000 
-0.338794 -0.493895 0.000000 
-0.374519 0.079068 0.000000 
-0.713312 0.698498 0.000000 
0.609100 0.587357 0.000000 
-0.381900 0.701296 0.000000 
-0.756418 -0.756312 0.000000 
0.513962 -0.967798 0.000000 
0.218274 -0.243559 0.000000 
-0.423588 -0.277662 0.000000 
-0.384386 -0.662935 0.000000 
-0.766286 -0.148315 0.000000 
0.484677 -0.413530 0.000000 
0.139443 0.224595 0.000000 
-0.556234 0.107026 0.000000 
-0.823577 0.880530 0.000000 
0.550868 0.869734 0.000000 
-0.386873 -0.027166 0.000000 
-0.771260 0.473224 0.000000 
0.467428 0.166695 0.000000 
0.105264 0.765321 0.000000 
-0.621631 0.583422 0.000000 
-0.937896 -0.712998 0.000000 
0.385608 -0.792193 0.000000 
0.141715 0.017035 0.000000 
-0.474677 0.017131 0.000000 
CELL_DATA 175 
SCALARS MASS float 
LOOKUP_TABLE default 
0.781831 
0.864274 
0.946717 
0.864274 
0.881307 
0.921110 
0.858535 
0.921110 
0.881307 
0.887046 
0.910001 
0.869829 
0.915556 
0.869829 
0.910001 
0.887046 
0.892784 
0.915740 
0.892784 
0.927218 
0.892784 
0.927218 
0.892784 
0.915740 
0.892784 
0.781831 
0.864274 
0.946717 
0.864274 
0.881307 
0.921110 
0.858535 
0.921110 
0.881307 
0.887046 
0.910001 
0.869829 
0.915556 
0.869829 
0.910001 
0.887046 
0.892784 
0.915740 
0.892784 
0.927218 
0.892784 
0.927218 
0.892784 
0.915740 
0.892784 
0.781831 
0.864274 
0.946717 
0.864274 
0.881307 
0.921110 
0.858535 
0.921110 
0.881307 
0.887046 
0.910001 
0.869829 
0.915556 
0.869829 
0.910001 
0.887046 
0.892784 
0.915740 
0.892784 
0.927218 
0.892784 
0.927218 
0.892784 
0.915740 
0.892784 
0.781831 
0.864274 
0.946717 
0.864274 
0.881307 
0.921110 
0.858535 
0.921110 
0.881307 
0.887046 
0.910001 
0.869829 
0.915556 
0.869829 
0.910001 
0.887046 
0.892784 
0.915740 
0.892784 
0.927218 
0.892784 
0.927218 
0.892784 
0.915740 
0.892784 
0.781831 
0.864274 
0.946717 
0.864274 
0.881307 
0.921110 
0.858535 
0.921110 
0.881307 
0.887046 
0.910001 
0.869829 
0.915556 
0.869829 
0.910001 
0.887046 
0.892784 
0.915740 
0.892784 
0.927218 
0.892784 
0.927218 
0.892784 
0.915740 
0.892784 
0.781831 
0.864274 
0.946717 
0.864274 
0.881307 
0.921110 
0.858535 
0.921110 
0.881307 
0.887046 
0.910001 
0.869829 
0.915556 
0.869829 
0.910001 
0.887046 
0.892784 
0.915740 
0.892784 
0.927218 
0.892784 
0.927218 
0.892784 
0.915740 
0.892784 
0.781831 
0.864274 
0.946717 
0.864274 
0.881307 
0.921110 
0.858535 
0.921110 
0.881307 
0.887046 
0.910001 
0.869829 
0.915556 
0.869829 
0.910001 
0.887046 
0.892784 
0.915740 
0.892784 
0.927218 
0.892784 
0.927218 
0.892784 
0.915740 
0.892784 
SCALARS MASS float 
LOOKUP_TABLE default 
0.781831 
0.864274 
0.946717 
0.864274 
0.881307 
0.921110 
0.858535 
0.921110 
0.881307 
0.887046 
0.910001 
0.869829 
0.915556 
0.869829 
0.910001 
0.887046 
0.892784 
0.915740 
0.892784 
0.927218 
0.892784 
0.927218 
0.892784 
0.915740 
0.892784 
0.781831 
0.864274 
0.946717 
0.864274 
0.881307 
0.921110 
0.858535 
0.921110 
0.881307 
0.887046 
0.910001 
0.869829 
0.915556 
0.869829 
0.910001 
0.887046 
0.892784 
0.915740 
0.892784 
0.927218 
0.892784 
0.927218 
0.892784 
0.915740 
0.892784 
0.781831 
0.864274 
0.946717 
0.864274 
0.881307 
0.921110 
0.858535 
0.921110 
0.881307 
0.887046 
0.910001 
0.869829 
0.915556 
0.869829 
0.910001 
0.887046 
0.892784 
0.915740 
0.892784 
0.927218 
0.892784 
0.927218 
0.892784 
0.915740 
0.892784 
0.781831 
0.864274 
0.946717 
0.864274 
0.881307 
0.921110 
0.858535 
0.921110 
0.881307 
0.887046 
0.910001 
0.869829 
0.915556 
0.869829 
0.910001 
0.887046 
0.892784 
0.915740 
0.892784 
0.927218 
0.892784 
0.927218 
0.892784 
0.915740 
0.892784 
0.781831 
0.864274 
0.946717 
0.864274 
0.881307 
0.921110 
0.858535 
0.921110 
0.881307 
0.887046 
0.910001 
0.869829 
0.915556 
0.869829 
0.910001 
0.887046 
0.892784 
0.915740 
0.892784 
0.927218 
0.892784 
0.927218 
0.892784 
0.915740 
0.892784 
0.781831 
0.864274 
0.946717 
0.864274 
0.881307 
0.921110 
0.858535 
0.921110 
0.881307 
0.887046 
0.910001 
0.869829 
0.915556 
0.869829 
0.910001 
0.887046 
0.892784 
0.915740 
0.892784 
0.927218 
0.892784 
0.927218 
0.892784 
0.915740 
0.892784 
0.781831 
0.864274 
0.946717 
0.864274 
0.881307 
0.921110 
0.858535 
0.921110 
0.881307 
0.887046 
0.910001 
0.869829 
0.915556 
0.869829 
0.910001 
0.887046 
0.892784 
0.915740 
0.892784 
0.927218 
0.892784 
0.927218 
0.892784 
0.915740 
0.892784 
SCALARS DENSITY float 
LOOKUP_TABLE default 
200.000000 
200.000000 
200.000000 
200.000000 
200.000000 
200.000000 
200.000000 
200.000000 
200.000000 
200.000000 
200.000000 
200.000000 
200.000000 
200.000000 
200.000000 
200.000000 
200.000000 
200.000000 
200.000000 
200.000000 
200.000000 
200.000000 
200.000000 
200.000000 
200.000000 
200.000000 
200.000000 
200.000000 
200.000000 
200.000000 
200.000000 
200.000000 
200.000000 
200.000000 
200.000000 
200.000000 
200.000000 
200.000000 
200.000000 
200.000000 
200.000000 
200.000000 
200.000000 
200.000000 
200.000000 
200.000000 
200.000000 
200.000000 
200.000000 
200.000000 
200.000000 
200.000000 
200.000000 
200.000000 
200.000000 
200.000000 
200.000000 
200.000000 
200.000000 
200.000000 
200.000000 
200.000000 
200.000000 
200.000000 
200.000000 
200.000000 
200.000000 
200.000000 
200.000000 
200.000000 
200.000000 
200.000000 
200.000000 
200.000000 
200.000000 
200.000000 
200.000000 
200.000000 
200.000000 
200.000000 
200.000000 
200.000000 
200.000000 
200.000000 
200.000000 
200.000000 
200.000000 
200.000000 
200.000000 
200.000000 
200.000000 
200.000000 
200.000000 
200.000000 
200.000000 
200.000000 
200.000000 
200.000000 
200.000000 
200.000000 
200.000000 
200.000000 
200.000000 
200.000000 
200.000000 
200.000000 
200.000000 
200.000000 
200.000000 
200.000000 
200.000000 
200.000000 
200.000000 
200.000000 
200.000000 
200.000000 
200.000000 
200.000000 
200.000000 
200.000000 
200.000000 
200.000000 
200.000000 
200.000000 
200.000000 
200.000000 
200.000000 
200.000000 
200.000000 
200.000000 
200.000000 
200.000000 
200.000000 
200.000000 
200.000000 
200.000000 
200.000000 
200.000000 
200.000000 
200.000000 
200.000000 
200.000000 
200.000000 
200.000000 
200.000000 
200.000000 
200.000000 
200.000000 
200.000000 
200.000000 
200.000000 
200.000000 
200.000000 
200.000000 
200.000000 
200.000000 
200.000000 
200.000000 
200.000000 
200.000000 
200.000000 
200.000000 
200.000000 
200.000000 
200.000000 
200.000000 
200.000000 
200.000000 
200.000000 
200.000000 
200.000000 
200.000000 
200.000000 
200.000000 
200.000000 
SCALARS ELEM_i float 
LOOKUP_TABLE default 
166 
194 
167 
167 
194 
194 
194 
167 
168 
222 
195 
195 
195 
195 
168 
168 
222 
222 
222 
195 
196 
196 
196 
169 
169 
166 
193 
193 
193 
220 
193 
220 
194 
194 
220 
220 
220 
220 
221 
221 
221 
246 
247 
247 
247 
248 
248 
248 
221 
222 
166 
192 
192 
192 
191 
192 
192 
192 
219 
191 
191 
218 
218 
219 
219 
219 
190 
217 
217 
218 
218 
218 
245 
246 
246 
165 
165 
165 
165 
137 
164 
164 
164 
191 
137 
137 
163 
164 
163 
191 
191 
136 
136 
136 
163 
163 
163 
190 
190 
190 
166 
138 
138 
138 
111 
138 
138 
138 
137 
111 
111 
111 
110 
110 
137 
137 
84 
84 
83 
110 
110 
110 
109 
109 
136 
166 
139 
139 
139 
140 
140 
112 
139 
112 
113 
113 
113 
112 
112 
112 
112 
114 
113 
86 
86 
86 
85 
85 
85 
84 
166 
167 
167 
140 
168 
167 
140 
140 
140 
168 
168 
141 
141 
141 
141 
114 
169 
169 
142 
142 
142 
141 
114 
114 
114 
VECTORS VELOCITY float 
0.000000 -6.790482 0.000000 
-0.000000 -6.790482 0.000000 
-0.000000 -6.790482 0.000000 
-0.000000 -6.790482 0.000000 
0.000000 -6.790482 0.000000 
0.000000 -6.790482 0.000000 
-0.000000 -6.790482 0.000000 
-0.000000 -6.790482 0.000000 
-0.000000 -6.790482 0.000000 
0.000000 -6.790482 0.000000 
0.000000 -6.790482 0.000000 
-0.000000 -6.790482 0.000000 
-0.000000 -6.790482 0.000000 
-0.000000 -6.790482 0.000000 
-0.000000 -6.790482 0.000000 
-0.000000 -6.790482 0.000000 
0.000000 -6.790482 0.000000 
-0.000000 -6.790482 0.000000 
0.000000 -6.790482 0.000000 
-0.000000 -6.790482 0.000000 
0.000000 -6.790482 0.000000 
0.000000 -6.790482 0.000000 
0.000000 -6.790482 0.000000 
0.000000 -6.790482 0.000000 
-0.000000 -6.790482 0.000000 
-0.000000 -6.790482 0.000000 
-0.000000 -6.790482 0.000000 
-0.000000 -6.790482 0.000000 
0.000000 -6.790482 0.000000 
-0.000000 -6.790482 0.000000 
-0.000000 -6.790482 0.000000 
-0.000000 -6.790482 0.000000 
-0.000000 -6.790482 0.000000 
0.000000 -6.790482 0.000000 
0.000000 -6.790482 0.000000 
-0.000000 -6.790482 0.000000 
0.000000 -6.790482 0.000000 
0.000000 -6.790482 0.000000 
0.000000 -6.790482 0.000000 
0.000000 -6.790482 0.000000 
-0.000000 -6.790482 0.000000 
0.000000 -6.790482 0.000000 
0.000000 -6.790482 0.000000 
-0.000000 -6.790482 0.000000 
-0.000000 -6.790482 0.000000 
-0.000000 -6.790482 0.000000 
-0.000000 -6.790482 0.000000 
-0.000000 -6.790482 0.000000 
-0.000000 -6.790482 0.000000 
-0.000000 -6.790482 0.000000 
0.000000 -6.790482 0.000000 
0.000000 -6.790482 0.000000 
0.000000 -6.790482 0.000000 
-0.000000 -6.790482 0.000000 
-0.000000 -6.790482 0.000000 
0.000000 -6.790482 0.000000 
-0.000000 -6.790482 0.000000 
-0.000000 -6.790482 0.000000 
-0.000000 -6.790482 0.000000 
-0.000000 -6.790482 0.000000 
0.000000 -6.790482 0.000000 
0.000000 -6.790482 0.000000 
-0.000000 -6.790482 0.000000 
0.000000 -6.790482 0.000000 
0.000000 -6.790482 0.000000 
0.000000 -6.790482 0.000000 
-0.000000 -6.790482 0.000000 
-0.000000 -6.790482 0.000000 
-0.000000 -6.790482 0.000000 
-0.000000 -6.790482 0.000000 
-0.000000 -6.790482 0.000000 
0.000000 -6.790482 0.000000 
-0.000000 -6.790482 0.000000 
0.000000 -6.790482 0.000000 
-0.000000 -6.790482 0.000000 
0.000000 -6.790482 0.000000 
0.000000 -6.790482 0.000000 
0.000000 -6.790482 0.000000 
0.000000 -6.790482 0.000000 
0.000000 -6.790482 0.000000 
0.000000 -6.790482 0.000000 
-0.000000 -6.790482 0.000000 
0.000000 -6.790482 0.000000 
-0.000000 -6.790482 0.000000 
-0.000000 -6.790482 0.000000 
-0.000000 -6.790482 0.000000 
-0.000000 -6.790482 0.000000 
-0.000000 -6.790482 0.000000 
-0.000000 -6.790482 0.000000 
-0.000000 -6.790482 0.000000 
-0.000000 -6.790482 0.000000 
-0.000000 -6.790482 0.000000 
-0.000000 -6.790482 0.000000 
-0.000000 -6.790482 0.000000 
0.000000 -6.790482 0.000000 
-0.000000 -6.790482 0.000000 
-0.000000 -6.790482 0.000000 
-0.000000 -6.790482 0.000000 
-0.000000 -6.790482 0.000000 
-0.000000 -6.790482 0.000000 
0.000000 -6.790482 0.000000 
0.000000 -6.790482 0.000000 
0.000000 -6.790482 0.000000 
0.000000 -6.790482 0.000000 
0.000000 -6.790482 0.000000 
0.000000 -6.790482 0.000000 
-0.000000 -6.790482 0.000000 
0.000000 -6.790482 0.000000 
0.000000 -6.790482 0.000000 
-0.000000 -6.790482 0.000000 
0.000000 -6.790482 0.000000 
-0.000000 -6.790482 0.000000 
-0.000000 -6.790482 0.000000 
-0.000000 -6.790482 0.000000 
-0.000000 -6.790482 0.000000 
-0.000000 -6.790482 0.000000 
-0.000000 -6.790482 0.000000 
-0.000000 -6.790482 0.000000 
0.000000 -6.790482 0.000000 
0.000000 -6.790482 0.000000 
0.000000 -6.790482 0.000000 
0.000000 -6.790482 0.000000 
-0.000000 -6.790482 0.000000 
-0.000000 -6.790482 0.000000 
-0.000000 -6.790482 0.000000 
0.000000 -6.790482 0.000000 
0.000000 -6.790482 0.000000 
0.000000 -6.790482 0.000000 
-0.000000 -6.790482 0.000000 
0.000000 -6.790482 0.000000 
0.000000 -6.790482 0.000000 
-0.000000 -6.790482 0.000000 
-0.000000 -6.790482 0.000000 
-0.000000 -6.790482 0.000000 
0.000000 -6.790482 0.000000 
0.000000 -6.790482 0.000000 
0.000000 -6.790482 0.000000 
-0.000000 -6.790482 0.000000 
-0.000000 -6.790482 0.000000 
-0.000000 -6.790482 0.000000 
-0.000000 -6.790482 0.000000 
0.000000 -6.790482 0.000000 
0.000000 -6.790482 0.000000 
0.000000 -6.790482 0.000000 
0.000000 -6.790482 0.000000 
-0.000000 -6.790482 0.000000 
0.000000 -6.790482 0.000000 
0.000000 -6.790482 0.000000 
0.000000 -6.790482 0.000000 
-0.000000 -6.790482 0.000000 
0.000000 -6.790482 0.000000 
-0.000000 -6.790482 0.000000 
-0.000000 -6.790482 0.000000 
-0.000000 -6.790482 0.000000 
0.000000 -6.790482 0.000000 
-0.000000 -6.790482 0.000000 
0.000000 -6.790482 0.000000 
-0.000000 -6.790482 0.000000 
0.000000 -6.790482 0.000000 
-0.000000 -6.790482 0.000000 
-0.000000 -6.790482 0.000000 
-0.000000 -6.790482 0.000000 
0.000000 -6.790482 0.000000 
0.000000 -6.790482 0.000000 
0.000000 -6.790482 0.000000 
0.000000 -6.790482 0.000000 
0.000000 -6.790482 0.000000 
-0.000000 -6.790482 0.000000 
0.000000 -6.790482 0.000000 
0.000000 -6.790482 0.000000 
0.000000 -6.790482 0.000000 
0.000000 -6.790482 0.000000 
0.000000 -6.790482 0.000000 
0.000000 -6.790482 0.000000 
0.000000 -6.790482 0.000000 
TENSORS STRESS float 
-0.000000 -0.000000 0.000000 
0.000000 -0.000000 0.000000 
0.000000 0.000000 0.000000 

0.000000 -0.000000 0.000000 
0.000000 0.000000 0.000000 
0.000000 0.000000 0.000000 

0.000000 -0.000000 0.000000 
0.000000 0.000000 0.000000 
0.000000 0.000000 0.000000 

0.000000 -0.000000 0.000000 
0.000000 -0.000000 0.000000 
0.000000 0.000000 0.000000 

-0.000000 -0.000000 0.000000 
0.000000 -0.000000 0.000000 
0.000000 0.000000 0.000000 

0.000000 -0.000000 0.000000 
0.000000 0.000000 0.000000 
0.000000 0.000000 0.000000 

0.000000 -0.000000 0.000000 
0.000000 0.000000 0.000000 
0.000000 0.000000 0.000000 

-0.000000 -0.000000 0.000000 
0.000000 -0.000000 0.000000 
0.000000 0.000000 0.000000 

-0.000000 0.000000 0.000000 
0.000000 -0.000000 0.000000 
0.000000 0.000000 0.000000 

-0.000000 0.000000 0.000000 
0.000000 -0.000000 0.000000 
0.000000 0.000000 0.000000 

-0.000000 -0.000000 0.000000 
0.000000 -0.000000 0.000000 
0.000000 0.000000 0.000000 

0.000000 -0.000000 0.000000 
0.000000 0.000000 0.000000 
0.000000 0.000000 0.000000 

0.000000 -0.000000 0.000000 
0.000000 0.000000 0.000000 
0.000000 0.000000 0.000000 

0.000000 -0.000000 0.000000 
0.000000 0.000000 0.000000 
0.000000 0.000000 0.000000 

-0.000000 0.000000 0.000000 
0.000000 -0.000000 0.000000 
0.000000 0.000000 0.000000 

-0.000000 0.000000 0.000000 
0.000000 -0.000000 0.000000 
0.000000 0.000000 0.000000 

0.000000 -0.000000 0.000000 
0.000000 0.000000 0.000000 
0.000000 0.000000 0.000000 

0.000000 -0.000000 0.000000 
0.000000 0.000000 0.000000 
0.000000 0.000000 0.000000 

0.000000 0.000000 0.000000 
0.000000 0.000000 0.000000 
0.000000 0.000000 0.000000 

-0.000000 -0.000000 0.000000 
0.000000 -0.000000 0.000000 
0.000000 0.000000 0.000000 

0.000000 -0.000000 0.000000 
0.000000 0.000000 0.000000 
0.000000 0.000000 0.000000 

-0.000000 -0.000000 0.000000 
0.000000 -0.000000 0.000000 
0.000000 0.000000 0.000000 

-0.000000 -0.000000 0.000000 
0.000000 -0.000000 0.000000 
0.000000 0.000000 0.000000 

0.000000 0.000000 0.000000 
0.000000 0.000000 0.000000 
0.000000 0.000000 0.000000 

0.000000 0.000000 0.000000 
0.000000 0.000000 0.000000 
0.000000 0.000000 0.000000 

-0.000000 -0.000000 0.000000 
0.000000 -0.000000 0.000000 
0.000000 0.000000 0.000000 

0.000000 -0.000000 0.000000 
0.000000 0.000000 0.000000 
0.000000 0.000000 0.000000 

0.000000 -0.000000 0.000000 
0.000000 0.000000 0.000000 
0.000000 0.000000 0.000000 

0.000000 -0.000000 0.000000 
0.000000 0.000000 0.000000 
0.000000 0.000000 0.000000 

0.000000 0.000000 0.000000 
0.000000 0.000000 0.000000 
0.000000 0.000000 0.000000 

-0.000000 -0.000000 0.000000 
0.000000 -0.000000 0.000000 
0.000000 0.000000 0.000000 

0.000000 0.000000 0.000000 
0.000000 0.000000 0.000000 
0.000000 0.000000 0.000000 

0.000000 -0.000000 0.000000 
0.000000 0.000000 0.000000 
0.000000 0.000000 0.000000 

0.000000 -0.000000 0.000000 
0.000000 0.000000 0.000000 
0.000000 0.000000 0.000000 

0.000000 0.000000 0.000000 
0.000000 0.000000 0.000000 
0.000000 0.000000 0.000000 

-0.000000 0.000000 0.000000 
0.000000 -0.000000 0.000000 
0.000000 0.000000 0.000000 

-0.000000 0.000000 0.000000 
0.000000 -0.000000 0.000000 
0.000000 0.000000 0.000000 

0.000000 0.000000 0.000000 
0.000000 0.000000 0.000000 
0.000000 0.000000 0.000000 

0.000000 0.000000 0.000000 
0.000000 0.000000 0.000000 
0.000000 0.000000 0.000000 

0.000000 0.000000 0.000000 
0.000000 0.000000 0.000000 
0.000000 0.000000 0.000000 

-0.000000 0.000000 0.000000 
0.000000 -0.000000 0.000000 
0.000000 0.000000 0.000000 

-0.000000 -0.000000 0.000000 
0.000000 -0.000000 0.000000 
0.000000 0.000000 0.000000 

-0.000000 0.000000 0.000000 
0.000000 -0.000000 0.000000 
0.000000 0.000000 0.000000 

-0.000000 0.000000 0.000000 
0.000000 -0.000000 0.000000 
0.000000 0.000000 0.000000 

0.000000 0.000000 0.000000 
0.000000 0.000000 0.000000 
0.000000 0.000000 0.000000 

-0.000000 0.000000 0.000000 
0.000000 -0.000000 0.000000 
0.000000 0.000000 0.000000 

-0.000000 0.000000 0.000000 
0.000000 0.000000 0.000000 
0.000000 0.000000 0.000000 

0.000000 0.000000 0.000000 
0.000000 0.000000 0.000000 
0.000000 0.000000 0.000000 

0.000000 0.000000 0.000000 
0.000000 0.000000 0.000000 
0.000000 0.000000 0.000000 

-0.000000 -0.000000 0.000000 
0.000000 -0.000000 0.000000 
0.000000 0.000000 0.000000 

0.000000 -0.000000 0.000000 
0.000000 0.000000 0.000000 
0.000000 0.000000 0.000000 

-0.000000 0.000000 0.000000 
0.000000 -0.000000 0.000000 
0.000000 0.000000 0.000000 

0.000000 0.000000 0.000000 
0.000000 0.000000 0.000000 
0.000000 0.000000 0.000000 

0.000000 -0.000000 0.000000 
0.000000 -0.000000 0.000000 
0.000000 0.000000 0.000000 

-0.000000 -0.000000 0.000000 
0.000000 -0.000000 0.000000 
0.000000 0.000000 0.000000 

0.000000 0.000000 0.000000 
0.000000 0.000000 0.000000 
0.000000 0.000000 0.000000 

0.000000 0.000000 0.000000 
0.000000 0.000000 0.000000 
0.000000 0.000000 0.000000 

0.000000 -0.000000 0.000000 
0.000000 0.000000 0.000000 
0.000000 0.000000 0.000000 

0.000000 0.000000 0.000000 
0.000000 0.000000 0.000000 
0.000000 0.000000 0.000000 

0.000000 -0.000000 0.000000 
0.000000 0.000000 0.000000 
0.000000 0.000000 0.000000 

0.000000 -0.000000 0.000000 
0.000000 0.000000 0.000000 
0.000000 0.000000 0.000000 

-0.000000 0.000000 0.000000 
0.000000 -0.000000 0.000000 
0.000000 0.000000 0.000000 

-0.000000 -0.000000 0.000000 
0.000000 -0.000000 0.000000 
0.000000 0.000000 0.000000 

0.000000 -0.000000 0.000000 
0.000000 0.000000 0.000000 
0.000000 0.000000 0.000000 

0.000000 0.000000 0.000000 
0.000000 0.000000 0.000000 
0.000000 0.000000 0.000000 

-0.000000 0.000000 0.000000 
0.000000 -0.000000 0.000000 
0.000000 0.000000 0.000000 

-0.000000 0.000000 0.000000 
0.000000 -0.000000 0.000000 
0.000000 0.000000 0.000000 

-0.000000 0.000000 0.000000 
0.000000 -0.000000 0.000000 
0.000000 0.000000 0.000000 

-0.000000 -0.000000 0.000000 
0.000000 0.000000 0.000000 
0.000000 0.000000 0.000000 

-0.000000 0.000000 0.000000 
0.000000 -0.000000 0.000000 
0.000000 0.000000 0.000000 

-0.000000 0.000000 0.000000 
0.000000 -0.000000 0.000000 
0.000000 0.000000 0.000000 

0.000000 0.000000 0.000000 
0.000000 0.000000 0.000000 
0.000000 0.000000 0.000000 

-0.000000 0.000000 0.000000 
0.000000 -0.000000 0.000000 
0.000000 0.000000 0.000000 

-0.000000 -0.000000 0.000000 
0.000000 -0.000000 0.000000 
0.000000 0.000000 0.000000 

0.000000 -0.000000 0.000000 
0.000000 0.000000 0.000000 
0.000000 0.000000 0.000000 

-0.000000 0.000000 0.000000 
0.000000 -0.000000 0.000000 
0.000000 0.000000 0.000000 

0.000000 0.000000 0.000000 
0.000000 0.000000 0.000000 
0.000000 0.000000 0.000000 

-0.000000 -0.000000 0.000000 
0.000000 -0.000000 0.000000 
0.000000 0.000000 0.000000 

0.000000 -0.000000 0.000000 
0.000000 0.000000 0.000000 
0.000000 0.000000 0.000000 

0.000000 -0.000000 0.000000 
0.000000 0.000000 0.000000 
0.000000 0.000000 0.000000 

-0.000000 0.000000 0.000000 
0.000000 -0.000000 0.000000 
0.000000 0.000000 0.000000 

-0.000000 -0.000000 0.000000 
0.000000 -0.000000 0.000000 
0.000000 0.000000 0.000000 

0.000000 -0.000000 0.000000 
0.000000 0.000000 0.000000 
0.000000 0.000000 0.000000 

-0.000000 -0.000000 0.000000 
0.000000 -0.000000 0.000000 
0.000000 0.000000 0.000000 

-0.000000 -0.000000 0.000000 
0.000000 -0.000000 0.000000 
0.000000 0.000000 0.000000 

0.000000 -0.000000 0.000000 
0.000000 0.000000 0.000000 
0.000000 0.000000 0.000000 

0.000000 -0.000000 0.000000 
0.000000 0.000000 0.000000 
0.000000 0.000000 0.000000 

-0.000000 -0.000000 0.000000 
0.000000 0.000000 0.000000 
0.000000 0.000000 0.000000 

-0.000000 -0.000000 0.000000 
0.000000 -0.000000 0.000000 
0.000000 0.000000 0.000000 

-0.000000 -0.000000 0.000000 
0.000000 -0.000000 0.000000 
0.000000 0.000000 0.000000 

-0.000000 -0.000000 0.000000 
0.000000 -0.000000 0.000000 
0.000000 0.000000 0.000000 

-0.000000 -0.000000 0.000000 
0.000000 -0.000000 0.000000 
0.000000 0.000000 0.000000 

-0.000000 -0.000000 0.000000 
0.000000 -0.000000 0.000000 
0.000000 0.000000 0.000000 

0.000000 -0.000000 0.000000 
0.000000 0.000000 0.000000 
0.000000 0.000000 0.000000 

0.000000 -0.000000 0.000000 
0.000000 0.000000 0.000000 
0.000000 0.000000 0.000000 

0.000000 0.000000 0.000000 
0.000000 0.000000 0.000000 
0.000000 0.000000 0.000000 

-0.000000 -0.000000 0.000000 
0.000000 -0.000000 0.000000 
0.000000 0.000000 0.000000 

-0.000000 0.000000 0.000000 
0.000000 -0.000000 0.000000 
0.000000 0.000000 0.000000 

-0.000000 -0.000000 0.000000 
0.000000 -0.000000 0.000000 
0.000000 0.000000 0.000000 

0.000000 0.000000 0.000000 
0.000000 0.000000 0.000000 
0.000000 0.000000 0.000000 

0.000000 -0.000000 0.000000 
0.000000 0.000000 0.000000 
0.000000 0.000000 0.000000 

0.000000 0.000000 0.000000 
0.000000 0.000000 0.000000 
0.000000 0.000000 0.000000 

-0.000000 0.000000 0.000000 
0.000000 -0.000000 0.000000 
0.000000 0.000000 0.000000 

-0.000000 -0.000000 0.000000 
0.000000 -0.000000 0.000000 
0.000000 0.000000 0.000000 

0.000000 0.000000 0.000000 
0.000000 0.000000 0.000000 
0.000000 0.000000 0.000000 

-0.000000 -0.000000 0.000000 
0.000000 -0.000000 0.000000 
0.000000 0.000000 0.000000 

-0.000000 -0.000000 0.000000 
0.000000 -0.000000 0.000000 
0.000000 0.000000 0.000000 

-0.000000 -0.000000 0.000000 
0.000000 -0.000000 0.000000 
0.000000 0.000000 0.000000 

-0.000000 -0.000000 0.000000 
0.000000 -0.000000 0.000000 
0.000000 0.000000 0.000000 

0.000000 0.000000 0.000000 
0.000000 0.000000 0.000000 
0.000000 0.000000 0.000000 

0.000000 0.000000 0.000000 
0.000000 0.000000 0.000000 
0.000000 0.000000 0.000000 

0.000000 0.000000 0.000000 
0.000000 -0.000000 0.000000 
0.000000 0.000000 0.000000 

-0.000000 0.000000 0.000000 
0.000000 -0.000000 0.000000 
0.000000 0.000000 0.000000 

-0.000000 -0.000000 0.000000 
0.000000 -0.000000 0.000000 
0.000000 0.000000 0.000000 

0.000000 -0.000000 0.000000 
0.000000 0.000000 0.000000 
0.000000 0.000000 0.000000 

-0.000000 -0.000000 0.000000 
0.000000 -0.000000 0.000000 
0.000000 0.000000 0.000000 

0.000000 -0.000000 0.000000 
0.000000 0.000000 0.000000 
0.000000 0.000000 0.000000 

0.000000 -0.000000 0.000000 
0.000000 0.000000 0.000000 
0.000000 0.000000 0.000000 

0.000000 0.000000 0.000000 
0.000000 -0.000000 0.000000 
0.000000 0.000000 0.000000 

0.000000 0.000000 0.000000 
0.000000 0.000000 0.000000 
0.000000 0.000000 0.000000 

0.000000 0.000000 0.000000 
0.000000 0.000000 0.000000 
0.000000 0.000000 0.000000 

0.000000 -0.000000 0.000000 
0.000000 0.000000 0.000000 
0.000000 0.000000 0.000000 

0.000000 -0.000000 0.000000 
0.000000 0.000000 0.000000 
0.000000 0.000000 0.000000 

-0.000000 -0.000000 0.000000 
0.000000 -0.000000 0.000000 
0.000000 0.000000 0.000000 

0.000000 -0.000000 0.000000 
0.000000 0.000000 0.000000 
0.000000 0.000000 0.000000 

0.000000 -0.000000 0.000000 
0.000000 0.000000 0.000000 
0.000000 0.000000 0.000000 

-0.000000 -0.000000 0.000000 
0.000000 -0.000000 0.000000 
0.000000 0.000000 0.000000 

-0.000000 -0.000000 0.000000 
0.000000 -0.000000 0.000000 
0.000000 0.000000 0.000000 

0.000000 -0.000000 0.000000 
0.000000 0.000000 0.000000 
0.000000 0.000000 0.000000 

0.000000 -0.000000 0.000000 
0.000000 0.000000 0.000000 
0.000000 0.000000 0.000000 

0.000000 -0.000000 0.000000 
0.000000 0.000000 0.000000 
0.000000 0.000000 0.000000 

-0.000000 -0.000000 0.000000 
0.000000 -0.000000 0.000000 
0.000000 0.000000 0.000000 

0.000000 -0.000000 0.000000 
0.000000 0.000000 0.000000 
0.000000 0.000000 0.000000 

-0.000000 0.000000 0.000000 
0.000000 -0.000000 0.000000 
0.000000 0.000000 0.000000 

0.000000 -0.000000 0.000000 
0.000000 -0.000000 0.000000 
0.000000 0.000000 0.000000 

-0.000000 -0.000000 0.000000 
0.000000 -0.000000 0.000000 
0.000000 0.000000 0.000000 

0.000000 -0.000000 0.000000 
0.000000 0.000000 0.000000 
0.000000 0.000000 0.000000 

0.000000 -0.000000 0.000000 
0.000000 0.000000 0.000000 
0.000000 0.000000 0.000000 

-0.000000 -0.000000 0.000000 
0.000000 -0.000000 0.000000 
0.000000 0.000000 0.000000 

-0.000000 -0.000000 0.000000 
0.000000 -0.000000 0.000000 
0.000000 0.000000 0.000000 

0.000000 -0.000000 0.000000 
0.000000 0.000000 0.000000 
0.000000 0.000000 0.000000 

0.000000 0.000000 0.000000 
0.000000 0.000000 0.000000 
0.000000 0.000000 0.000000 

0.000000 -0.000000 0.000000 
0.000000 0.000000 0.000000 
0.000000 0.000000 0.000000 

-0.000000 0.000000 0.000000 
0.000000 -0.000000 0.000000 
0.000000 0.000000 0.000000 

0.000000 -0.000000 0.000000 
0.000000 0.000000 0.000000 
0.000000 0.000000 0.000000 

-0.000000 -0.000000 0.000000 
0.000000 -0.000000 0.000000 
0.000000 0.000000 0.000000 

0.000000 0.000000 0.000000 
0.000000 0.000000 0.000000 
0.000000 0.000000 0.000000 

-0.000000 0.000000 0.000000 
0.000000 -0.000000 0.000000 
0.000000 0.000000 0.000000 

0.000000 -0.000000 0.000000 
0.000000 0.000000 0.000000 
0.000000 0.000000 0.000000 

0.000000 -0.000000 0.000000 
0.000000 0.000000 0.000000 
0.000000 0.000000 0.000000 

-0.000000 -0.000000 0.000000 
0.000000 -0.000000 0.000000 
0.000000 0.000000 0.000000 

-0.000000 0.000000 0.000000 
0.000000 -0.000000 0.000000 
0.000000 0.000000 0.000000 

0.000000 -0.000000 0.000000 
0.000000 0.000000 0.000000 
0.000000 0.000000 0.000000 

0.000000 -0.000000 0.000000 
0.000000 0.000000 0.000000 
0.000000 0.000000 0.000000 

0.000000 0.000000 0.000000 
0.000000 0.000000 0.000000 
0.000000 0.000000 0.000000 

-0.000000 -0.000000 0.000000 
0.000000 -0.000000 0.000000 
0.000000 0.000000 0.000000 

-0.000000 -0.000000 0.000000 
0.000000 -0.000000 0.000000 
0.000000 0.000000 0.000000 

0.000000 -0.000000 0.000000 
0.000000 0.000000 0.000000 
0.000000 0.000000 0.000000 

0.000000 -0.000000 0.000000 
0.000000 0.000000 0.000000 
0.000000 0.000000 0.000000 

-0.000000 0.000000 0.000000 
0.000000 -0.000000 0.000000 
0.000000 0.000000 0.000000 

0.000000 0.000000 0.000000 
0.000000 0.000000 0.000000 
0.000000 0.000000 0.000000 

-0.000000 0.000000 0.000000 
0.000000 -0.000000 0.000000 
0.000000 0.000000 0.000000 

0.000000 0.000000 0.000000 
0.000000 0.000000 0.000000 
0.000000 0.000000 0.000000 

0.000000 0.000000 0.000000 
0.000000 0.000000 0.000000 
0.000000 0.000000 0.000000 

0.000000 -0.000000 0.000000 
0.000000 0.000000 0.000000 
0.000000 0.000000 0.000000 

0.000000 -0.000000 0.000000 
0.000000 0.000000 0.000000 
0.000000 0.000000 0.000000 

-0.000000 0.000000 0.000000 
0.000000 -0.000000 0.000000 
0.000000 0.000000 0.000000 

-0.000000 0.000000 0.000000 
0.000000 -0.000000 0.000000 
0.000000 0.000000 0.000000 

-0.000000 -0.000000 0.000000 
0.000000 -0.000000 0.000000 
0.000000 0.000000 0.000000 

0.000000 0.000000 0.000000 
0.000000 -0.000000 0.000000 
0.000000 0.000000 0.000000 

-0.000000 0.000000 0.000000 
0.000000 -0.000000 0.000000 
0.000000 0.000000 0.000000 

0.000000 0.000000 0.000000 
0.000000 0.000000 0.000000 
0.000000 0.000000 0.000000 

0.000000 0.000000 0.000000 
0.000000 0.000000 0.000000 
0.000000 0.000000 0.000000 

0.000000 0.000000 0.000000 
0.000000 0.000000 0.000000 
0.000000 0.000000 0.000000 

-0.000000 -0.000000 0.000000 
0.000000 -0.000000 0.000000 
0.000000 0.000000 0.000000 

TENSORS STRAIN float 
0.000000 -0.000000 0.000000 
0.000000 -0.000000 0.000000 
0.000000 0.000000 0.000000 

0.000000 -0.000000 0.000000 
0.000000 0.000000 0.000000 
0.000000 0.000000 0.000000 

0.000000 -0.000000 0.000000 
0.000000 -0.000000 0.000000 
0.000000 0.000000 0.000000 

0.000000 -0.000000 0.000000 
0.000000 -0.000000 0.000000 
0.000000 0.000000 0.000000 

0.000000 -0.000000 0.000000 
0.000000 -0.000000 0.000000 
0.000000 0.000000 0.000000 

0.000000 -0.000000 0.000000 
0.000000 0.000000 0.000000 
0.000000 0.000000 0.000000 

-0.000000 -0.000000 0.000000 
0.000000 0.000000 0.000000 
0.000000 0.000000 0.000000 

0.000000 -0.000000 0.000000 
0.000000 -0.000000 0.000000 
0.000000 0.000000 0.000000 

0.000000 0.000000 0.000000 
0.000000 -0.000000 0.000000 
0.000000 0.000000 0.000000 

-0.000000 0.000000 0.000000 
0.000000 0.000000 0.000000 
0.000000 0.000000 0.000000 

-0.000000 -0.000000 0.000000 
0.000000 -0.000000 0.000000 
0.000000 0.000000 0.000000 

0.000000 -0.000000 0.000000 
0.000000 0.000000 0.000000 
0.000000 0.000000 0.000000 

0.000000 -0.000000 0.000000 
0.000000 0.000000 0.000000 
0.000000 0.000000 0.000000 

0.000000 -0.000000 0.000000 
0.000000 0.000000 0.000000 
0.000000 0.000000 0.000000 

0.000000 0.000000 0.000000 
0.000000 -0.000000 0.000000 
0.000000 0.000000 0.000000 

0.000000 0.000000 0.000000 
0.000000 -0.000000 0.000000 
0.000000 0.000000 0.000000 

0.000000 -0.000000 0.000000 
0.000000 -0.000000 0.000000 
0.000000 0.000000 0.000000 

0.000000 -0.000000 0.000000 
0.000000 -0.000000 0.000000 
0.000000 0.000000 0.000000 

0.000000 0.000000 0.000000 
0.000000 -0.000000 0.000000 
0.000000 0.000000 0.000000 

0.000000 -0.000000 0.000000 
0.000000 -0.000000 0.000000 
0.000000 0.000000 0.000000 

0.000000 -0.000000 0.000000 
0.000000 0.000000 0.000000 
0.000000 0.000000 0.000000 

0.000000 -0.000000 0.000000 
0.000000 -0.000000 0.000000 
0.000000 0.000000 0.000000 

0.000000 -0.000000 0.000000 
0.000000 -0.000000 0.000000 
0.000000 0.000000 0.000000 

0.000000 0.000000 0.000000 
0.000000 0.000000 0.000000 
0.000000 0.000000 0.000000 

0.000000 0.000000 0.000000 
0.000000 0.000000 0.000000 
0.000000 0.000000 0.000000 

-0.000000 -0.000000 0.000000 
0.000000 -0.000000 0.000000 
0.000000 0.000000 0.000000 

0.000000 -0.000000 0.000000 
0.000000 -0.000000 0.000000 
0.000000 0.000000 0.000000 

0.000000 -0.000000 0.000000 
0.000000 0.000000 0.000000 
0.000000 0.000000 0.000000 

0.000000 -0.000000 0.000000 
0.000000 -0.000000 0.000000 
0.000000 0.000000 0.000000 

0.000000 0.000000 0.000000 
0.000000 0.000000 0.000000 
0.000000 0.000000 0.000000 

0.000000 -0.000000 0.000000 
0.000000 -0.000000 0.000000 
0.000000 0.000000 0.000000 

-0.000000 0.000000 0.000000 
0.000000 0.000000 0.000000 
0.000000 0.000000 0.000000 

0.000000 -0.000000 0.000000 
0.000000 -0.000000 0.000000 
0.000000 0.000000 0.000000 

0.000000 -0.000000 0.000000 
0.000000 -0.000000 0.000000 
0.000000 0.000000 0.000000 

0.000000 0.000000 0.000000 
0.000000 0.000000 0.000000 
0.000000 0.000000 0.000000 

0.000000 0.000000 0.000000 
0.000000 -0.000000 0.000000 
0.000000 0.000000 0.000000 

0.000000 0.000000 0.000000 
0.000000 -0.000000 0.000000 
0.000000 0.000000 0.000000 

-0.000000 0.000000 0.000000 
0.000000 0.000000 0.000000 
0.000000 0.000000 0.000000 

-0.000000 0.000000 0.000000 
0.000000 0.000000 0.000000 
0.000000 0.000000 0.000000 

-0.000000 0.000000 0.000000 
0.000000 0.000000 0.000000 
0.000000 0.000000 0.000000 

-0.000000 0.000000 0.000000 
0.000000 0.000000 0.000000 
0.000000 0.000000 0.000000 

0.000000 -0.000000 0.000000 
0.000000 -0.000000 0.000000 
0.000000 0.000000 0.000000 

0.000000 0.000000 0.000000 
0.000000 -0.000000 0.000000 
0.000000 0.000000 0.000000 

0.000000 0.000000 0.000000 
0.000000 -0.000000 0.000000 
0.000000 0.000000 0.000000 

-0.000000 0.000000 0.000000 
0.000000 0.000000 0.000000 
0.000000 0.000000 0.000000 

-0.000000 0.000000 0.000000 
0.000000 -0.000000 0.000000 
0.000000 0.000000 0.000000 

-0.000000 0.000000 0.000000 
0.000000 0.000000 0.000000 
0.000000 0.000000 0.000000 

-0.000000 0.000000 0.000000 
0.000000 0.000000 0.000000 
0.000000 0.000000 0.000000 

-0.000000 0.000000 0.000000 
0.000000 0.000000 0.000000 
0.000000 0.000000 0.000000 

-0.000000 -0.000000 0.000000 
0.000000 0.000000 0.000000 
0.000000 0.000000 0.000000 

0.000000 -0.000000 0.000000 
0.000000 0.000000 0.000000 
0.000000 0.000000 0.000000 

-0.000000 0.000000 0.000000 
0.000000 -0.000000 0.000000 
0.000000 0.000000 0.000000 

0.000000 0.000000 0.000000 
0.000000 0.000000 0.000000 
0.000000 0.000000 0.000000 

0.000000 -0.000000 0.000000 
0.000000 -0.000000 0.000000 
0.000000 0.000000 0.000000 

-0.000000 -0.000000 0.000000 
0.000000 -0.000000 0.000000 
0.000000 0.000000 0.000000 

-0.000000 0.000000 0.000000 
0.000000 0.000000 0.000000 
0.000000 0.000000 0.000000 

-0.000000 0.000000 0.000000 
0.000000 0.000000 0.000000 
0.000000 0.000000 0.000000 

-0.000000 -0.000000 0.000000 
0.000000 0.000000 0.000000 
0.000000 0.000000 0.000000 

0.000000 0.000000 0.000000 
0.000000 0.000000 0.000000 
0.000000 0.000000 0.000000 

-0.000000 -0.000000 0.000000 
0.000000 0.000000 0.000000 
0.000000 0.000000 0.000000 

-0.000000 -0.000000 0.000000 
0.000000 0.000000 0.000000 
0.000000 0.000000 0.000000 

-0.000000 0.000000 0.000000 
0.000000 0.000000 0.000000 
0.000000 0.000000 0.000000 

-0.000000 -0.000000 0.000000 
0.000000 0.000000 0.000000 
0.000000 0.000000 0.000000 

-0.000000 -0.000000 0.000000 
0.000000 0.000000 0.000000 
0.000000 0.000000 0.000000 

-0.000000 0.000000 0.000000 
0.000000 0.000000 0.000000 
0.000000 0.000000 0.000000 

0.000000 0.000000 0.000000 
0.000000 -0.000000 0.000000 
0.000000 0.000000 0.000000 

-0.000000 0.000000 0.000000 
0.000000 0.000000 0.000000 
0.000000 0.000000 0.000000 

-0.000000 0.000000 0.000000 
0.000000 0.000000 0.000000 
0.000000 0.000000 0.000000 

-0.000000 -0.000000 0.000000 
0.000000 0.000000 0.000000 
0.000000 0.000000 0.000000 

-0.000000 0.000000 0.000000 
0.000000 0.000000 0.000000 
0.000000 0.000000 0.000000 

-0.000000 0.000000 0.000000 
0.000000 0.000000 0.000000 
0.000000 0.000000 0.000000 

-0.000000 0.000000 0.000000 
0.000000 0.000000 0.000000 
0.000000 0.000000 0.000000 

-0.000000 0.000000 0.000000 
0.000000 -0.000000 0.000000 
0.000000 0.000000 0.000000 

-0.000000 -0.000000 0.000000 
0.000000 -0.000000 0.000000 
0.000000 0.000000 0.000000 

0.000000 -0.000000 0.000000 
0.000000 0.000000 0.000000 
0.000000 0.000000 0.000000 

0.000000 0.000000 0.000000 
0.000000 -0.000000 0.000000 
0.000000 0.000000 0.000000 

0.000000 0.000000 0.000000 
0.000000 0.000000 0.000000 
0.000000 0.000000 0.000000 

0.000000 -0.000000 0.000000 
0.000000 -0.000000 0.000000 
0.000000 0.000000 0.000000 

0.000000 -0.000000 0.000000 
0.000000 0.000000 0.000000 
0.000000 0.000000 0.000000 

0.000000 -0.000000 0.000000 
0.000000 0.000000 0.000000 
0.000000 0.000000 0.000000 

0.000000 0.000000 0.000000 
0.000000 -0.000000 0.000000 
0.000000 0.000000 0.000000 

-0.000000 -0.000000 0.000000 
0.000000 -0.000000 0.000000 
0.000000 0.000000 0.000000 

0.000000 -0.000000 0.000000 
0.000000 0.000000 0.000000 
0.000000 0.000000 0.000000 

-0.000000 -0.000000 0.000000 
0.000000 0.000000 0.000000 
0.000000 0.000000 0.000000 

0.000000 -0.000000 0.000000 
0.000000 -0.000000 0.000000 
0.000000 0.000000 0.000000 

0.000000 -0.000000 0.000000 
0.000000 0.000000 0.000000 
0.000000 0.000000 0.000000 

0.000000 -0.000000 0.000000 
0.000000 0.000000 0.000000 
0.000000 0.000000 0.000000 

-0.000000 -0.000000 0.000000 
0.000000 0.000000 0.000000 
0.000000 0.000000 0.000000 

0.000000 -0.000000 0.000000 
0.000000 -0.000000 0.000000 
0.000000 0.000000 0.000000 

-0.000000 -0.000000 0.000000 
0.000000 -0.000000 0.000000 
0.000000 0.000000 0.000000 

-0.000000 -0.000000 0.000000 
0.000000 -0.000000 0.000000 
0.000000 0.000000 0.000000 

0.000000 -0.000000 0.000000 
0.000000 -0.000000 0.000000 
0.000000 0.000000 0.000000 

0.000000 -0.000000 0.000000 
0.000000 -0.000000 0.000000 
0.000000 0.000000 0.000000 

0.000000 -0.000000 0.000000 
0.000000 0.000000 0.000000 
0.000000 0.000000 0.000000 

0.000000 -0.000000 0.000000 
0.000000 0.000000 0.000000 
0.000000 0.000000 0.000000 

0.000000 0.000000 0.000000 
0.000000 0.000000 0.000000 
0.000000 0.000000 0.000000 

0.000000 -0.000000 0.000000 
0.000000 -0.000000 0.000000 
0.000000 0.000000 0.000000 

0.000000 0.000000 0.000000 
0.000000 -0.000000 0.000000 
0.000000 0.000000 0.000000 

-0.000000 -0.000000 0.000000 
0.000000 -0.000000 0.000000 
0.000000 0.000000 0.000000 

0.000000 0.000000 0.000000 
0.000000 0.000000 0.000000 
0.000000 0.000000 0.000000 

0.000000 -0.000000 0.000000 
0.000000 0.000000 0.000000 
0.000000 0.000000 0.000000 

-0.000000 0.000000 0.000000 
0.000000 0.000000 0.000000 
0.000000 0.000000 0.000000 

-0.000000 0.000000 0.000000 
0.000000 -0.000000 0.000000 
0.000000 0.000000 0.000000 

-0.000000 -0.000000 0.000000 
0.000000 0.000000 0.000000 
0.000000 0.000000 0.000000 

0.000000 0.000000 0.000000 
0.000000 -0.000000 0.000000 
0.000000 0.000000 0.000000 

-0.000000 -0.000000 0.000000 
0.000000 -0.000000 0.000000 
0.000000 0.000000 0.000000 

-0.000000 -0.000000 0.000000 
0.000000 -0.000000 0.000000 
0.000000 0.000000 0.000000 

0.000000 -0.000000 0.000000 
0.000000 -0.000000 0.000000 
0.000000 0.000000 0.000000 

0.000000 -0.000000 0.000000 
0.000000 -0.000000 0.000000 
0.000000 0.000000 0.000000 

0.000000 0.000000 0.000000 
0.000000 -0.000000 0.000000 
0.000000 0.000000 0.000000 

0.000000 0.000000 0.000000 
0.000000 -0.000000 0.000000 
0.000000 0.000000 0.000000 

0.000000 0.000000 0.000000 
0.000000 -0.000000 0.000000 
0.000000 0.000000 0.000000 

0.000000 0.000000 0.000000 
0.000000 -0.000000 0.000000 
0.000000 0.000000 0.000000 

-0.000000 -0.000000 0.000000 
0.000000 -0.000000 0.000000 
0.000000 0.000000 0.000000 

0.000000 -0.000000 0.000000 
0.000000 -0.000000 0.000000 
0.000000 0.000000 0.000000 

0.000000 -0.000000 0.000000 
0.000000 -0.000000 0.000000 
0.000000 0.000000 0.000000 

-0.000000 -0.000000 0.000000 
0.000000 0.000000 0.000000 
0.000000 0.000000 0.000000 

0.000000 -0.000000 0.000000 
0.000000 0.000000 0.000000 
0.000000 0.000000 0.000000 

0.000000 0.000000 0.000000 
0.000000 -0.000000 0.000000 
0.000000 0.000000 0.000000 

0.000000 0.000000 0.000000 
0.000000 0.000000 0.000000 
0.000000 0.000000 0.000000 

-0.000000 0.000000 0.000000 
0.000000 0.000000 0.000000 
0.000000 0.000000 0.000000 

-0.000000 -0.000000 0.000000 
0.000000 0.000000 0.000000 
0.000000 0.000000 0.000000 

-0.000000 -0.000000 0.000000 
0.000000 0.000000 0.000000 
0.000000 0.000000 0.000000 

-0.000000 -0.000000 0.000000 
0.000000 -0.000000 0.000000 
0.000000 0.000000 0.000000 

0.000000 -0.000000 0.000000 
0.000000 -0.000000 0.000000 
0.000000 0.000000 0.000000 

-0.000000 -0.000000 0.000000 
0.000000 0.000000 0.000000 
0.000000 0.000000 0.000000 

0.000000 -0.000000 0.000000 
0.000000 -0.000000 0.000000 
0.000000 0.000000 0.000000 

0.000000 -0.000000 0.000000 
0.000000 -0.000000 0.000000 
0.000000 0.000000 0.000000 

-0.000000 -0.000000 0.000000 
0.000000 0.000000 0.000000 
0.000000 0.000000 0.000000 

0.000000 -0.000000 0.000000 
0.000000 0.000000 0.000000 
0.000000 0.000000 0.000000 

0.000000 -0.000000 0.000000 
0.000000 0.000000 0.000000 
0.000000 0.000000 0.000000 

-0.000000 -0.000000 0.000000 
0.000000 -0.000000 0.000000 
0.000000 0.000000 0.000000 

-0.000000 -0.000000 0.000000 
0.000000 0.000000 0.000000 
0.000000 0.000000 0.000000 

0.000000 0.000000 0.000000 
0.000000 -0.000000 0.000000 
0.000000 0.000000 0.000000 

0.000000 -0.000000 0.000000 
0.000000 -0.000000 0.000000 
0.000000 0.000000 0.000000 

-0.000000 -0.000000 0.000000 
0.000000 -0.000000 0.000000 
0.000000 0.000000 0.000000 

-0.000000 -0.000000 0.000000 
0.000000 0.000000 0.000000 
0.000000 0.000000 0.000000 

-0.000000 -0.000000 0.000000 
0.000000 0.000000 0.000000 
0.000000 0.000000 0.000000 

0.000000 -0.000000 0.000000 
0.000000 -0.000000 0.000000 
0.000000 0.000000 0.000000 

0.000000 -0.000000 0.000000 
0.000000 -0.000000 0.000000 
0.000000 0.000000 0.000000 

0.000000 -0.000000 0.000000 
0.000000 -0.000000 0.000000 
0.000000 0.000000 0.000000 

0.000000 0.000000 0.000000 
0.000000 -0.000000 0.000000 
0.000000 0.000000 0.000000 

0.000000 -0.000000 0.000000 
0.000000 -0.000000 0.000000 
0.000000 0.000000 0.000000 

-0.000000 0.000000 0.000000 
0.000000 0.000000 0.000000 
0.000000 0.000000 0.000000 

0.000000 -0.000000 0.000000 
0.000000 -0.000000 0.000000 
0.000000 0.000000 0.000000 

0.000000 -0.000000 0.000000 
0.000000 -0.000000 0.000000 
0.000000 0.000000 0.000000 

0.000000 0.000000 0.000000 
0.000000 -0.000000 0.000000 
0.000000 0.000000 0.000000 

0.000000 0.000000 0.000000 
0.000000 -0.000000 0.000000 
0.000000 0.000000 0.000000 

0.000000 -0.000000 0.000000 
0.000000 -0.000000 0.000000 
0.000000 0.000000 0.000000 

0.000000 -0.000000 0.000000 
0.000000 0.000000 0.000000 
0.000000 0.000000 0.000000 

0.000000 -0.000000 0.000000 
0.000000 -0.000000 0.000000 
0.000000 0.000000 0.000000 

0.000000 0.000000 0.000000 
0.000000 -0.000000 0.000000 
0.000000 0.000000 0.000000 

0.000000 -0.000000 0.000000 
0.000000 0.000000 0.000000 
0.000000 0.000000 0.000000 

0.000000 -0.000000 0.000000 
0.000000 0.000000 0.000000 
0.000000 0.000000 0.000000 

0.000000 0.000000 0.000000 
0.000000 -0.000000 0.000000 
0.000000 0.000000 0.000000 

0.000000 -0.000000 0.000000 
0.000000 -0.000000 0.000000 
0.000000 0.000000 0.000000 

0.000000 -0.000000 0.000000 
0.000000 -0.000000 0.000000 
0.000000 0.000000 0.000000 

-0.000000 -0.000000 0.000000 
0.000000 0.000000 0.000000 
0.000000 0.000000 0.000000 

-0.000000 -0.000000 0.000000 
0.000000 0.000000 0.000000 
0.000000 0.000000 0.000000 

0.000000 0.000000 0.000000 
0.000000 -0.000000 0.000000 
0.000000 0.000000 0.000000 

0.000000 0.000000 0.000000 
0.000000 0.000000 0.000000 
0.000000 0.000000 0.000000 

0.000000 0.000000 0.000000 
0.000000 -0.000000 0.000000 
0.000000 0.000000 0.000000 

0.000000 0.000000 0.000000 
0.000000 -0.000000 0.000000 
0.000000 0.000000 0.000000 

0.000000 0.000000 0.000000 
0.000000 -0.000000 0.000000 
0.000000 0.000000 0.000000 

0.000000 -0.000000 0.000000 
0.000000 0.000000 0.000000 
0.000000 0.000000 0.000000 

0.000000 -0.000000 0.000000 
0.000000 -0.000000 0.000000 
0.000000 0.000000 0.000000 

0.000000 0.000000 0.000000 
0.000000 -0.000000 0.000000 
0.000000 0.000000 0.000000 

0.000000 0.000000 0.000000 
0.000000 -0.000000 0.000000 
0.000000 0.000000 0.000000 

0.000000 -0.000000 0.000000 
0.000000 -0.000000 0.000000 
0.000000 0.000000 0.000000 

0.000000 0.000000 0.000000 
0.000000 -0.000000 0.000000 
0.000000 0.000000 0.000000 

0.000000 0.000000 0.000000 
0.000000 -0.000000 0.000000 
0.000000 0.000000 0.000000 

0.000000 0.000000 0.000000 
0.000000 -0.000000 0.000000 
0.000000 0.000000 0.000000 

0.000000 0.000000 0.000000 
0.000000 0.000000 0.000000 
0.000000 0.000000 0.000000 

0.000000 0.000000 0.000000 
0.000000 -0.000000 0.000000 
0.000000 0.000000 0.000000 

0.000000 -0.000000 0.000000 
0.000000 -0.000000 0.000000 
0.000000 0.000000 0.000000 

