# vtk DataFile Version 3.0 
vtk output 
ASCII 
DATASET UNSTRUCTURED_GRID 
POINTS 175 float 
-0.026061 -0.095242 0.000000 
-0.106992 -0.027187 0.000000 
-0.054870 -0.035419 0.000000 
-0.028809 0.010464 0.000000 
-0.186430 0.036889 0.000000 
-0.137056 0.034363 0.000000 
-0.114311 0.088010 0.000000 
-0.058186 0.072344 0.000000 
-0.029377 0.112522 0.000000 
-0.265318 0.100045 0.000000 
-0.217198 0.099245 0.000000 
-0.196633 0.156542 0.000000 
-0.143120 0.147833 0.000000 
-0.116563 0.195101 0.000000 
-0.058945 0.175456 0.000000 
-0.029568 0.213576 0.000000 
-0.344206 0.163200 0.000000 
-0.296791 0.163208 0.000000 
-0.278030 0.223150 0.000000 
-0.225992 0.217284 0.000000 
-0.201664 0.269401 0.000000 
-0.145749 0.255927 0.000000 
-0.117890 0.300270 0.000000 
-0.059328 0.277564 0.000000 
-0.029759 0.314630 0.000000 
-0.058559 -0.135993 0.000000 
-0.162226 -0.156836 0.000000 
-0.123292 -0.121218 0.000000 
-0.142917 -0.072234 0.000000 
-0.261851 -0.178992 0.000000 
-0.229092 -0.141965 0.000000 
-0.256854 -0.090733 0.000000 
-0.209613 -0.056621 0.000000 
-0.223062 -0.009047 0.000000 
-0.360414 -0.201292 0.000000 
-0.329787 -0.164169 0.000000 
-0.361761 -0.112367 0.000000 
-0.321587 -0.075958 0.000000 
-0.341985 -0.025724 0.000000 
-0.290702 0.007075 0.000000 
-0.302189 0.053810 0.000000 
-0.458977 -0.223592 0.000000 
-0.429420 -0.186517 0.000000 
-0.464588 -0.134476 0.000000 
-0.427556 -0.097448 0.000000 
-0.453135 -0.045933 0.000000 
-0.407738 -0.010618 0.000000 
-0.425037 0.038810 0.000000 
-0.370772 0.070439 0.000000 
-0.381315 0.116667 0.000000 
-0.046960 -0.186808 0.000000 
-0.095301 -0.280854 0.000000 
-0.098873 -0.228207 0.000000 
-0.149405 -0.213009 0.000000 
-0.140093 -0.372558 0.000000 
-0.148617 -0.323860 0.000000 
-0.205981 -0.313622 0.000000 
-0.203197 -0.255419 0.000000 
-0.248777 -0.236273 0.000000 
-0.184111 -0.463522 0.000000 
-0.194039 -0.416431 0.000000 
-0.254475 -0.409131 0.000000 
-0.257893 -0.355021 0.000000 
-0.309886 -0.339649 0.000000 
-0.303554 -0.279104 0.000000 
-0.347255 -0.258946 0.000000 
-0.228129 -0.554485 0.000000 
-0.238687 -0.508261 0.000000 
-0.301302 -0.503309 0.000000 
-0.307162 -0.451270 0.000000 
-0.363386 -0.439149 0.000000 
-0.362692 -0.381638 0.000000 
-0.412122 -0.364344 0.000000 
-0.403017 -0.302198 0.000000 
-0.445733 -0.281619 0.000000 
-0.000000 -0.209423 0.000000 
0.043388 -0.305854 0.000000 
-0.000000 -0.275821 0.000000 
-0.043388 -0.305854 0.000000 
0.087158 -0.398050 0.000000 
0.043769 -0.374352 0.000000 
-0.000000 -0.412817 0.000000 
-0.043769 -0.374352 0.000000 
-0.087158 -0.398050 0.000000 
0.130831 -0.489180 0.000000 
0.087824 -0.467581 0.000000 
0.044436 -0.510281 0.000000 
-0.000000 -0.479216 0.000000 
-0.044436 -0.510281 0.000000 
-0.087824 -0.467581 0.000000 
-0.130831 -0.489180 0.000000 
0.174505 -0.580310 0.000000 
0.131782 -0.559744 0.000000 
0.088871 -0.605610 0.000000 
0.044532 -0.577746 0.000000 
-0.000000 -0.614146 0.000000 
-0.044532 -0.577746 0.000000 
-0.088871 -0.605610 0.000000 
-0.131782 -0.559744 0.000000 
-0.174505 -0.580310 0.000000 
0.046960 -0.186808 0.000000 
0.149405 -0.213009 0.000000 
0.098873 -0.228207 0.000000 
0.095301 -0.280854 0.000000 
0.248777 -0.236273 0.000000 
0.203197 -0.255419 0.000000 
0.205981 -0.313622 0.000000 
0.148617 -0.323860 0.000000 
0.140093 -0.372558 0.000000 
0.347255 -0.258946 0.000000 
0.303554 -0.279104 0.000000 
0.309886 -0.339649 0.000000 
0.257893 -0.355021 0.000000 
0.254475 -0.409131 0.000000 
0.194039 -0.416431 0.000000 
0.184111 -0.463522 0.000000 
0.445733 -0.281619 0.000000 
0.403017 -0.302198 0.000000 
0.412122 -0.364344 0.000000 
0.362692 -0.381638 0.000000 
0.363386 -0.439149 0.000000 
0.307162 -0.451270 0.000000 
0.301302 -0.503309 0.000000 
0.238687 -0.508261 0.000000 
0.228129 -0.554485 0.000000 
0.058559 -0.135993 0.000000 
0.142917 -0.072234 0.000000 
0.123292 -0.121218 0.000000 
0.162226 -0.156836 0.000000 
0.223062 -0.009047 0.000000 
0.209613 -0.056621 0.000000 
0.256854 -0.090733 0.000000 
0.229092 -0.141965 0.000000 
0.261851 -0.178992 0.000000 
0.302189 0.053810 0.000000 
0.290702 0.007075 0.000000 
0.341985 -0.025724 0.000000 
0.321587 -0.075958 0.000000 
0.361761 -0.112367 0.000000 
0.329787 -0.164169 0.000000 
0.360414 -0.201292 0.000000 
0.381315 0.116667 0.000000 
0.370772 0.070439 0.000000 
0.425037 0.038810 0.000000 
0.407738 -0.010618 0.000000 
0.453135 -0.045933 0.000000 
0.427556 -0.097448 0.000000 
0.464588 -0.134476 0.000000 
0.429420 -0.186517 0.000000 
0.458977 -0.223592 0.000000 
0.026061 -0.095242 0.000000 
0.028809 0.010464 0.000000 
0.054870 -0.035419 0.000000 
0.106992 -0.027187 0.000000 
0.029377 0.112522 0.000000 
0.058186 0.072344 0.000000 
0.114311 0.088010 0.000000 
0.137056 0.034363 0.000000 
0.186430 0.036889 0.000000 
0.029568 0.213576 0.000000 
0.058945 0.175456 0.000000 
0.116563 0.195101 0.000000 
0.143120 0.147833 0.000000 
0.196633 0.156542 0.000000 
0.217198 0.099245 0.000000 
0.265318 0.100045 0.000000 
0.029759 0.314630 0.000000 
0.059328 0.277564 0.000000 
0.117890 0.300270 0.000000 
0.145749 0.255927 0.000000 
0.201664 0.269401 0.000000 
0.225992 0.217284 0.000000 
0.278030 0.223150 0.000000 
0.296791 0.163208 0.000000 
0.344206 0.163200 0.000000 
CELLS 175 350 
1 0 
1 1 
1 2 
1 3 
1 4 
1 5 
1 6 
1 7 
1 8 
1 9 
1 10 
1 11 
1 12 
1 13 
1 14 
1 15 
1 16 
1 17 
1 18 
1 19 
1 20 
1 21 
1 22 
1 23 
1 24 
1 25 
1 26 
1 27 
1 28 
1 29 
1 30 
1 31 
1 32 
1 33 
1 34 
1 35 
1 36 
1 37 
1 38 
1 39 
1 40 
1 41 
1 42 
1 43 
1 44 
1 45 
1 46 
1 47 
1 48 
1 49 
1 50 
1 51 
1 52 
1 53 
1 54 
1 55 
1 56 
1 57 
1 58 
1 59 
1 60 
1 61 
1 62 
1 63 
1 64 
1 65 
1 66 
1 67 
1 68 
1 69 
1 70 
1 71 
1 72 
1 73 
1 74 
1 75 
1 76 
1 77 
1 78 
1 79 
1 80 
1 81 
1 82 
1 83 
1 84 
1 85 
1 86 
1 87 
1 88 
1 89 
1 90 
1 91 
1 92 
1 93 
1 94 
1 95 
1 96 
1 97 
1 98 
1 99 
1 100 
1 101 
1 102 
1 103 
1 104 
1 105 
1 106 
1 107 
1 108 
1 109 
1 110 
1 111 
1 112 
1 113 
1 114 
1 115 
1 116 
1 117 
1 118 
1 119 
1 120 
1 121 
1 122 
1 123 
1 124 
1 125 
1 126 
1 127 
1 128 
1 129 
1 130 
1 131 
1 132 
1 133 
1 134 
1 135 
1 136 
1 137 
1 138 
1 139 
1 140 
1 141 
1 142 
1 143 
1 144 
1 145 
1 146 
1 147 
1 148 
1 149 
1 150 
1 151 
1 152 
1 153 
1 154 
1 155 
1 156 
1 157 
1 158 
1 159 
1 160 
1 161 
1 162 
1 163 
1 164 
1 165 
1 166 
1 167 
1 168 
1 169 
1 170 
1 171 
1 172 
1 173 
1 174 
CELL_TYPES 175 
1 
1 
1 
1 
1 
1 
1 
1 
1 
1 
1 
1 
1 
1 
1 
1 
1 
1 
1 
1 
1 
1 
1 
1 
1 
1 
1 
1 
1 
1 
1 
1 
1 
1 
1 
1 
1 
1 
1 
1 
1 
1 
1 
1 
1 
1 
1 
1 
1 
1 
1 
1 
1 
1 
1 
1 
1 
1 
1 
1 
1 
1 
1 
1 
1 
1 
1 
1 
1 
1 
1 
1 
1 
1 
1 
1 
1 
1 
1 
1 
1 
1 
1 
1 
1 
1 
1 
1 
1 
1 
1 
1 
1 
1 
1 
1 
1 
1 
1 
1 
1 
1 
1 
1 
1 
1 
1 
1 
1 
1 
1 
1 
1 
1 
1 
1 
1 
1 
1 
1 
1 
1 
1 
1 
1 
1 
1 
1 
1 
1 
1 
1 
1 
1 
1 
1 
1 
1 
1 
1 
1 
1 
1 
1 
1 
1 
1 
1 
1 
1 
1 
1 
1 
1 
1 
1 
1 
1 
1 
1 
1 
1 
1 
1 
1 
1 
1 
1 
1 
1 
1 
1 
1 
1 
1 
POINT_DATA 175 
VECTORS X_GC float 
-0.026061 -0.095242 0.000000 
-0.106992 -0.027187 0.000000 
-0.054870 -0.035419 0.000000 
-0.028809 0.010464 0.000000 
-0.186430 0.036889 0.000000 
-0.137056 0.034363 0.000000 
-0.114311 0.088010 0.000000 
-0.058186 0.072344 0.000000 
-0.029377 0.112522 0.000000 
-0.265318 0.100045 0.000000 
-0.217198 0.099245 0.000000 
-0.196633 0.156542 0.000000 
-0.143120 0.147833 0.000000 
-0.116563 0.195101 0.000000 
-0.058945 0.175456 0.000000 
-0.029568 0.213576 0.000000 
-0.344206 0.163200 0.000000 
-0.296791 0.163208 0.000000 
-0.278030 0.223150 0.000000 
-0.225992 0.217284 0.000000 
-0.201664 0.269401 0.000000 
-0.145749 0.255927 0.000000 
-0.117890 0.300270 0.000000 
-0.059328 0.277564 0.000000 
-0.029759 0.314630 0.000000 
-0.058559 -0.135993 0.000000 
-0.162226 -0.156836 0.000000 
-0.123292 -0.121218 0.000000 
-0.142917 -0.072234 0.000000 
-0.261851 -0.178992 0.000000 
-0.229092 -0.141965 0.000000 
-0.256854 -0.090733 0.000000 
-0.209613 -0.056621 0.000000 
-0.223062 -0.009047 0.000000 
-0.360414 -0.201292 0.000000 
-0.329787 -0.164169 0.000000 
-0.361761 -0.112367 0.000000 
-0.321587 -0.075958 0.000000 
-0.341985 -0.025724 0.000000 
-0.290702 0.007075 0.000000 
-0.302189 0.053810 0.000000 
-0.458977 -0.223592 0.000000 
-0.429420 -0.186517 0.000000 
-0.464588 -0.134476 0.000000 
-0.427556 -0.097448 0.000000 
-0.453135 -0.045933 0.000000 
-0.407738 -0.010618 0.000000 
-0.425037 0.038810 0.000000 
-0.370772 0.070439 0.000000 
-0.381315 0.116667 0.000000 
-0.046960 -0.186808 0.000000 
-0.095301 -0.280854 0.000000 
-0.098873 -0.228207 0.000000 
-0.149405 -0.213009 0.000000 
-0.140093 -0.372558 0.000000 
-0.148617 -0.323860 0.000000 
-0.205981 -0.313622 0.000000 
-0.203197 -0.255419 0.000000 
-0.248777 -0.236273 0.000000 
-0.184111 -0.463522 0.000000 
-0.194039 -0.416431 0.000000 
-0.254475 -0.409131 0.000000 
-0.257893 -0.355021 0.000000 
-0.309886 -0.339649 0.000000 
-0.303554 -0.279104 0.000000 
-0.347255 -0.258946 0.000000 
-0.228129 -0.554485 0.000000 
-0.238687 -0.508261 0.000000 
-0.301302 -0.503309 0.000000 
-0.307162 -0.451270 0.000000 
-0.363386 -0.439149 0.000000 
-0.362692 -0.381638 0.000000 
-0.412122 -0.364344 0.000000 
-0.403017 -0.302198 0.000000 
-0.445733 -0.281619 0.000000 
-0.000000 -0.209423 0.000000 
0.043388 -0.305854 0.000000 
-0.000000 -0.275821 0.000000 
-0.043388 -0.305854 0.000000 
0.087158 -0.398050 0.000000 
0.043769 -0.374352 0.000000 
-0.000000 -0.412817 0.000000 
-0.043769 -0.374352 0.000000 
-0.087158 -0.398050 0.000000 
0.130831 -0.489180 0.000000 
0.087824 -0.467581 0.000000 
0.044436 -0.510281 0.000000 
-0.000000 -0.479216 0.000000 
-0.044436 -0.510281 0.000000 
-0.087824 -0.467581 0.000000 
-0.130831 -0.489180 0.000000 
0.174505 -0.580310 0.000000 
0.131782 -0.559744 0.000000 
0.088871 -0.605610 0.000000 
0.044532 -0.577746 0.000000 
-0.000000 -0.614146 0.000000 
-0.044532 -0.577746 0.000000 
-0.088871 -0.605610 0.000000 
-0.131782 -0.559744 0.000000 
-0.174505 -0.580310 0.000000 
0.046960 -0.186808 0.000000 
0.149405 -0.213009 0.000000 
0.098873 -0.228207 0.000000 
0.095301 -0.280854 0.000000 
0.248777 -0.236273 0.000000 
0.203197 -0.255419 0.000000 
0.205981 -0.313622 0.000000 
0.148617 -0.323860 0.000000 
0.140093 -0.372558 0.000000 
0.347255 -0.258946 0.000000 
0.303554 -0.279104 0.000000 
0.309886 -0.339649 0.000000 
0.257893 -0.355021 0.000000 
0.254475 -0.409131 0.000000 
0.194039 -0.416431 0.000000 
0.184111 -0.463522 0.000000 
0.445733 -0.281619 0.000000 
0.403017 -0.302198 0.000000 
0.412122 -0.364344 0.000000 
0.362692 -0.381638 0.000000 
0.363386 -0.439149 0.000000 
0.307162 -0.451270 0.000000 
0.301302 -0.503309 0.000000 
0.238687 -0.508261 0.000000 
0.228129 -0.554485 0.000000 
0.058559 -0.135993 0.000000 
0.142917 -0.072234 0.000000 
0.123292 -0.121218 0.000000 
0.162226 -0.156836 0.000000 
0.223062 -0.009047 0.000000 
0.209613 -0.056621 0.000000 
0.256854 -0.090733 0.000000 
0.229092 -0.141965 0.000000 
0.261851 -0.178992 0.000000 
0.302189 0.053810 0.000000 
0.290702 0.007075 0.000000 
0.341985 -0.025724 0.000000 
0.321587 -0.075958 0.000000 
0.361761 -0.112367 0.000000 
0.329787 -0.164169 0.000000 
0.360414 -0.201292 0.000000 
0.381315 0.116667 0.000000 
0.370772 0.070439 0.000000 
0.425037 0.038810 0.000000 
0.407738 -0.010618 0.000000 
0.453135 -0.045933 0.000000 
0.427556 -0.097448 0.000000 
0.464588 -0.134476 0.000000 
0.429420 -0.186517 0.000000 
0.458977 -0.223592 0.000000 
0.026061 -0.095242 0.000000 
0.028809 0.010464 0.000000 
0.054870 -0.035419 0.000000 
0.106992 -0.027187 0.000000 
0.029377 0.112522 0.000000 
0.058186 0.072344 0.000000 
0.114311 0.088010 0.000000 
0.137056 0.034363 0.000000 
0.186430 0.036889 0.000000 
0.029568 0.213576 0.000000 
0.058945 0.175456 0.000000 
0.116563 0.195101 0.000000 
0.143120 0.147833 0.000000 
0.196633 0.156542 0.000000 
0.217198 0.099245 0.000000 
0.265318 0.100045 0.000000 
0.029759 0.314630 0.000000 
0.059328 0.277564 0.000000 
0.117890 0.300270 0.000000 
0.145749 0.255927 0.000000 
0.201664 0.269401 0.000000 
0.225992 0.217284 0.000000 
0.278030 0.223150 0.000000 
0.296791 0.163208 0.000000 
0.344206 0.163200 0.000000 
VECTORS X_EC float 
0.338794 -0.214232 0.000000 
-0.609100 0.867020 0.000000 
0.713312 0.978161 0.000000 
0.374519 0.358731 0.000000 
0.423588 0.002001 0.000000 
-0.218274 0.036104 0.000000 
-0.513962 -0.688135 0.000000 
0.756418 -0.476649 0.000000 
0.381900 0.980959 0.000000 
-0.550868 -0.850603 0.000000 
0.823577 -0.839807 0.000000 
0.556234 0.386689 0.000000 
-0.139443 0.504258 0.000000 
-0.484677 -0.133867 0.000000 
0.766286 0.131348 0.000000 
0.384386 -0.383272 0.000000 
0.474677 0.296794 0.000000 
-0.141715 0.296698 0.000000 
-0.385608 -0.512530 0.000000 
0.937896 -0.433335 0.000000 
0.621631 0.863085 0.000000 
-0.105264 -0.955016 0.000000 
-0.467428 0.446358 0.000000 
0.771260 0.752887 0.000000 
0.386873 0.252497 0.000000 
0.761262 0.335903 0.000000 
0.108942 0.617279 0.000000 
-0.397202 0.136440 0.000000 
-0.142083 -0.524835 0.000000 
-0.595936 0.916390 0.000000 
0.978194 0.416524 0.000000 
-0.660903 -0.275101 0.000000 
0.724964 -0.735621 0.000000 
0.899809 0.622131 0.000000 
0.685384 -0.782558 0.000000 
0.287229 0.716284 0.000000 
0.702895 0.016955 0.000000 
0.180633 -0.474563 0.000000 
0.445811 0.847277 0.000000 
-0.220880 0.404491 0.000000 
-0.071546 -0.226434 0.000000 
-0.033296 -0.481506 0.000000 
-0.417537 -0.982015 0.000000 
0.039645 0.315422 0.000000 
-0.441768 -0.184449 0.000000 
-0.109248 -0.879900 0.000000 
-0.699407 0.643345 0.000000 
-0.474522 -0.023934 0.000000 
0.820030 -0.450928 0.000000 
0.957100 0.925001 0.000000 
0.610485 -0.978091 0.000000 
-0.761092 0.291529 0.000000 
-0.714655 -0.419209 0.000000 
-0.057734 -0.624376 0.000000 
-0.178789 -0.470467 0.000000 
-0.067979 0.872107 0.000000 
0.677748 0.733903 0.000000 
0.641556 -0.051842 0.000000 
-0.765897 -0.310321 0.000000 
0.393446 0.757542 0.000000 
0.522510 0.121812 0.000000 
-0.691820 0.023268 0.000000 
-0.647393 -0.707215 0.000000 
0.028512 -0.914742 0.000000 
-0.053800 0.267898 0.000000 
0.514316 -0.004233 0.000000 
0.965681 -0.014449 0.000000 
-0.897068 -0.638478 0.000000 
-0.083078 -0.705331 0.000000 
-0.006893 0.592145 0.000000 
0.724017 0.428512 0.000000 
0.714996 -0.347892 0.000000 
-0.642413 -0.581349 0.000000 
-0.760780 0.579670 0.000000 
-0.205471 0.301855 0.000000 
0.000000 -0.672789 0.000000 
-0.564049 0.629024 0.000000 
0.000000 0.223588 0.000000 
0.564049 0.629024 0.000000 
0.866949 -0.126321 0.000000 
-0.569003 -0.446252 0.000000 
0.000000 0.073036 0.000000 
0.569003 -0.446252 0.000000 
-0.866949 -0.126321 0.000000 
0.299194 -0.896071 0.000000 
0.858290 0.812345 0.000000 
-0.577662 -0.611209 0.000000 
0.000000 0.969413 0.000000 
0.577662 -0.611209 0.000000 
-0.858290 0.812345 0.000000 
-0.299194 -0.896071 0.000000 
-0.268560 0.334179 0.000000 
0.286830 0.056537 0.000000 
0.844677 0.675736 0.000000 
-0.578910 0.299573 0.000000 
0.000000 0.790977 0.000000 
0.578910 0.299573 0.000000 
-0.844677 0.675736 0.000000 
-0.286830 0.056537 0.000000 
0.268560 0.334179 0.000000 
-0.610485 -0.978091 0.000000 
0.057734 -0.624376 0.000000 
0.714655 -0.419209 0.000000 
0.761092 0.291529 0.000000 
0.765897 -0.310321 0.000000 
-0.641556 -0.051842 0.000000 
-0.677748 0.733903 0.000000 
0.067979 0.872107 0.000000 
0.178789 -0.470467 0.000000 
-0.514316 -0.004233 0.000000 
0.053800 0.267898 0.000000 
-0.028512 -0.914742 0.000000 
0.647393 -0.707215 0.000000 
0.691820 0.023268 0.000000 
-0.522510 0.121812 0.000000 
-0.393446 0.757542 0.000000 
0.205471 0.301855 0.000000 
0.760780 0.579670 0.000000 
0.642413 -0.581349 0.000000 
-0.714996 -0.347892 0.000000 
-0.724017 0.428512 0.000000 
0.006894 0.592145 0.000000 
0.083078 -0.705331 0.000000 
0.897068 -0.638478 0.000000 
-0.965681 -0.014449 0.000000 
-0.761262 0.335903 0.000000 
0.142083 -0.524835 0.000000 
0.397202 0.136440 0.000000 
-0.108942 0.617279 0.000000 
-0.899809 0.622131 0.000000 
-0.724964 -0.735621 0.000000 
0.660903 -0.275101 0.000000 
-0.978194 0.416524 0.000000 
0.595936 0.916390 0.000000 
0.071546 -0.226434 0.000000 
0.220880 0.404491 0.000000 
-0.445811 0.847277 0.000000 
-0.180633 -0.474563 0.000000 
-0.702895 0.016955 0.000000 
-0.287229 0.716284 0.000000 
-0.685384 -0.782558 0.000000 
-0.957100 0.925001 0.000000 
-0.820030 -0.450928 0.000000 
0.474522 -0.023934 0.000000 
0.699407 0.643345 0.000000 
0.109248 -0.879900 0.000000 
0.441768 -0.184449 0.000000 
-0.039645 0.315422 0.000000 
0.417537 -0.982015 0.000000 
0.033296 -0.481506 0.000000 
-0.338794 -0.214232 0.000000 
-0.374519 0.358731 0.000000 
-0.713312 0.978161 0.000000 
0.609100 0.867020 0.000000 
-0.381900 0.980959 0.000000 
-0.756418 -0.476649 0.000000 
0.513962 -0.688135 0.000000 
0.218274 0.036104 0.000000 
-0.423588 0.002001 0.000000 
-0.384386 -0.383272 0.000000 
-0.766286 0.131348 0.000000 
0.484677 -0.133867 0.000000 
0.139443 0.504258 0.000000 
-0.556234 0.386689 0.000000 
-0.823577 -0.839807 0.000000 
0.550868 -0.850603 0.000000 
-0.386873 0.252497 0.000000 
-0.771260 0.752887 0.000000 
0.467428 0.446358 0.000000 
0.105264 -0.955016 0.000000 
-0.621631 0.863085 0.000000 
-0.937896 -0.433335 0.000000 
0.385608 -0.512530 0.000000 
0.141715 0.296698 0.000000 
-0.474677 0.296794 0.000000 
CELL_DATA 175 
SCALARS MASS float 
LOOKUP_TABLE default 
0.781831 
0.864274 
0.946717 
0.864274 
0.881307 
0.921110 
0.858535 
0.921110 
0.881307 
0.887046 
0.910001 
0.869829 
0.915556 
0.869829 
0.910001 
0.887046 
0.892784 
0.915740 
0.892784 
0.927218 
0.892784 
0.927218 
0.892784 
0.915740 
0.892784 
0.781831 
0.864274 
0.946717 
0.864274 
0.881307 
0.921110 
0.858535 
0.921110 
0.881307 
0.887046 
0.910001 
0.869829 
0.915556 
0.869829 
0.910001 
0.887046 
0.892784 
0.915740 
0.892784 
0.927218 
0.892784 
0.927218 
0.892784 
0.915740 
0.892784 
0.781831 
0.864274 
0.946717 
0.864274 
0.881307 
0.921110 
0.858535 
0.921110 
0.881307 
0.887046 
0.910001 
0.869829 
0.915556 
0.869829 
0.910001 
0.887046 
0.892784 
0.915740 
0.892784 
0.927218 
0.892784 
0.927218 
0.892784 
0.915740 
0.892784 
0.781831 
0.864274 
0.946717 
0.864274 
0.881307 
0.921110 
0.858535 
0.921110 
0.881307 
0.887046 
0.910001 
0.869829 
0.915556 
0.869829 
0.910001 
0.887046 
0.892784 
0.915740 
0.892784 
0.927218 
0.892784 
0.927218 
0.892784 
0.915740 
0.892784 
0.781831 
0.864274 
0.946717 
0.864274 
0.881307 
0.921110 
0.858535 
0.921110 
0.881307 
0.887046 
0.910001 
0.869829 
0.915556 
0.869829 
0.910001 
0.887046 
0.892784 
0.915740 
0.892784 
0.927218 
0.892784 
0.927218 
0.892784 
0.915740 
0.892784 
0.781831 
0.864274 
0.946717 
0.864274 
0.881307 
0.921110 
0.858535 
0.921110 
0.881307 
0.887046 
0.910001 
0.869829 
0.915556 
0.869829 
0.910001 
0.887046 
0.892784 
0.915740 
0.892784 
0.927218 
0.892784 
0.927218 
0.892784 
0.915740 
0.892784 
0.781831 
0.864274 
0.946717 
0.864274 
0.881307 
0.921110 
0.858535 
0.921110 
0.881307 
0.887046 
0.910001 
0.869829 
0.915556 
0.869829 
0.910001 
0.887046 
0.892784 
0.915740 
0.892784 
0.927218 
0.892784 
0.927218 
0.892784 
0.915740 
0.892784 
SCALARS MASS float 
LOOKUP_TABLE default 
0.781831 
0.864274 
0.946717 
0.864274 
0.881307 
0.921110 
0.858535 
0.921110 
0.881307 
0.887046 
0.910001 
0.869829 
0.915556 
0.869829 
0.910001 
0.887046 
0.892784 
0.915740 
0.892784 
0.927218 
0.892784 
0.927218 
0.892784 
0.915740 
0.892784 
0.781831 
0.864274 
0.946717 
0.864274 
0.881307 
0.921110 
0.858535 
0.921110 
0.881307 
0.887046 
0.910001 
0.869829 
0.915556 
0.869829 
0.910001 
0.887046 
0.892784 
0.915740 
0.892784 
0.927218 
0.892784 
0.927218 
0.892784 
0.915740 
0.892784 
0.781831 
0.864274 
0.946717 
0.864274 
0.881307 
0.921110 
0.858535 
0.921110 
0.881307 
0.887046 
0.910001 
0.869829 
0.915556 
0.869829 
0.910001 
0.887046 
0.892784 
0.915740 
0.892784 
0.927218 
0.892784 
0.927218 
0.892784 
0.915740 
0.892784 
0.781831 
0.864274 
0.946717 
0.864274 
0.881307 
0.921110 
0.858535 
0.921110 
0.881307 
0.887046 
0.910001 
0.869829 
0.915556 
0.869829 
0.910001 
0.887046 
0.892784 
0.915740 
0.892784 
0.927218 
0.892784 
0.927218 
0.892784 
0.915740 
0.892784 
0.781831 
0.864274 
0.946717 
0.864274 
0.881307 
0.921110 
0.858535 
0.921110 
0.881307 
0.887046 
0.910001 
0.869829 
0.915556 
0.869829 
0.910001 
0.887046 
0.892784 
0.915740 
0.892784 
0.927218 
0.892784 
0.927218 
0.892784 
0.915740 
0.892784 
0.781831 
0.864274 
0.946717 
0.864274 
0.881307 
0.921110 
0.858535 
0.921110 
0.881307 
0.887046 
0.910001 
0.869829 
0.915556 
0.869829 
0.910001 
0.887046 
0.892784 
0.915740 
0.892784 
0.927218 
0.892784 
0.927218 
0.892784 
0.915740 
0.892784 
0.781831 
0.864274 
0.946717 
0.864274 
0.881307 
0.921110 
0.858535 
0.921110 
0.881307 
0.887046 
0.910001 
0.869829 
0.915556 
0.869829 
0.910001 
0.887046 
0.892784 
0.915740 
0.892784 
0.927218 
0.892784 
0.927218 
0.892784 
0.915740 
0.892784 
SCALARS DENSITY float 
LOOKUP_TABLE default 
200.000000 
200.000000 
200.000000 
200.000000 
200.000000 
200.000000 
200.000000 
200.000000 
200.000000 
200.000000 
200.000000 
200.000000 
200.000000 
200.000000 
200.000000 
200.000000 
200.000000 
200.000000 
200.000000 
200.000000 
200.000000 
200.000000 
200.000000 
200.000000 
200.000000 
200.000000 
200.000000 
200.000000 
200.000000 
200.000000 
200.000000 
200.000000 
200.000000 
200.000000 
200.000000 
200.000000 
200.000000 
200.000000 
200.000000 
200.000000 
200.000000 
200.000000 
200.000000 
200.000000 
200.000000 
200.000000 
200.000000 
200.000000 
200.000000 
200.000000 
200.000000 
200.000000 
200.000000 
200.000000 
200.000000 
200.000000 
200.000000 
200.000000 
200.000000 
200.000000 
200.000000 
200.000000 
200.000000 
200.000000 
200.000000 
200.000000 
200.000000 
200.000000 
200.000000 
200.000000 
200.000000 
200.000000 
200.000000 
200.000000 
200.000000 
200.000000 
200.000000 
200.000000 
200.000000 
200.000000 
200.000000 
200.000000 
200.000000 
200.000000 
200.000000 
200.000000 
200.000000 
200.000000 
200.000000 
200.000000 
200.000000 
200.000000 
200.000000 
200.000000 
200.000000 
200.000000 
200.000000 
200.000000 
200.000000 
200.000000 
200.000000 
200.000000 
200.000000 
200.000000 
200.000000 
200.000000 
200.000000 
200.000000 
200.000000 
200.000000 
200.000000 
200.000000 
200.000000 
200.000000 
200.000000 
200.000000 
200.000000 
200.000000 
200.000000 
200.000000 
200.000000 
200.000000 
200.000000 
200.000000 
200.000000 
200.000000 
200.000000 
200.000000 
200.000000 
200.000000 
200.000000 
200.000000 
200.000000 
200.000000 
200.000000 
200.000000 
200.000000 
200.000000 
200.000000 
200.000000 
200.000000 
200.000000 
200.000000 
200.000000 
200.000000 
200.000000 
200.000000 
200.000000 
200.000000 
200.000000 
200.000000 
200.000000 
200.000000 
200.000000 
200.000000 
200.000000 
200.000000 
200.000000 
200.000000 
200.000000 
200.000000 
200.000000 
200.000000 
200.000000 
200.000000 
200.000000 
200.000000 
200.000000 
200.000000 
200.000000 
200.000000 
200.000000 
200.000000 
200.000000 
200.000000 
SCALARS ELEM_i float 
LOOKUP_TABLE default 
181 
209 
182 
182 
209 
209 
209 
182 
183 
236 
209 
210 
210 
210 
183 
183 
237 
237 
237 
210 
211 
210 
211 
184 
184 
181 
208 
208 
208 
235 
208 
235 
208 
209 
234 
235 
235 
235 
236 
236 
236 
261 
261 
262 
262 
262 
263 
263 
236 
237 
180 
207 
207 
207 
206 
207 
207 
207 
234 
206 
206 
233 
233 
233 
234 
234 
205 
232 
232 
233 
233 
233 
260 
261 
261 
180 
180 
180 
180 
152 
179 
179 
179 
206 
151 
152 
178 
179 
178 
206 
205 
151 
151 
151 
178 
178 
178 
205 
205 
205 
180 
153 
153 
153 
126 
153 
153 
153 
152 
126 
126 
125 
125 
125 
152 
152 
99 
99 
98 
125 
125 
125 
124 
124 
151 
181 
154 
154 
154 
155 
154 
127 
154 
127 
128 
128 
128 
127 
127 
127 
126 
129 
128 
101 
101 
100 
100 
100 
99 
99 
181 
182 
182 
155 
183 
182 
155 
155 
155 
183 
183 
156 
156 
156 
155 
128 
184 
184 
157 
156 
157 
156 
129 
129 
129 
VECTORS VELOCITY float 
-0.000000 -1.710864 0.000000 
-0.000000 -1.710864 0.000000 
-0.000000 -1.710864 0.000000 
0.000000 -1.710864 0.000000 
0.000000 -1.710864 0.000000 
0.000000 -1.710864 0.000000 
0.000000 -1.710864 0.000000 
0.000000 -1.710864 0.000000 
0.000000 -1.710864 0.000000 
-0.000000 -1.710864 0.000000 
-0.000000 -1.710864 0.000000 
0.000000 -1.710864 0.000000 
0.000000 -1.710864 0.000000 
0.000000 -1.710864 0.000000 
-0.000000 -1.710864 0.000000 
-0.000000 -1.710864 0.000000 
-0.000000 -1.710864 0.000000 
0.000000 -1.710864 0.000000 
0.000000 -1.710864 0.000000 
0.000000 -1.710864 0.000000 
0.000000 -1.710864 0.000000 
0.000000 -1.710864 0.000000 
-0.000000 -1.710864 0.000000 
-0.000000 -1.710864 0.000000 
-0.000000 -1.710864 0.000000 
-0.000000 -1.710864 0.000000 
-0.000000 -1.710864 0.000000 
-0.000000 -1.710864 0.000000 
0.000000 -1.710864 0.000000 
-0.000000 -1.710864 0.000000 
0.000000 -1.710864 0.000000 
0.000000 -1.710864 0.000000 
0.000000 -1.710864 0.000000 
0.000000 -1.710864 0.000000 
0.000000 -1.710864 0.000000 
-0.000000 -1.710864 0.000000 
-0.000000 -1.710864 0.000000 
-0.000000 -1.710864 0.000000 
-0.000000 -1.710864 0.000000 
0.000000 -1.710864 0.000000 
-0.000000 -1.710864 0.000000 
-0.000000 -1.710864 0.000000 
0.000000 -1.710864 0.000000 
0.000000 -1.710864 0.000000 
0.000000 -1.710864 0.000000 
0.000000 -1.710864 0.000000 
-0.000000 -1.710864 0.000000 
-0.000000 -1.710864 0.000000 
-0.000000 -1.710864 0.000000 
-0.000000 -1.710864 0.000000 
0.000000 -1.710864 0.000000 
0.000000 -1.710864 0.000000 
0.000000 -1.710864 0.000000 
-0.000000 -1.710864 0.000000 
0.000000 -1.710864 0.000000 
0.000000 -1.710864 0.000000 
-0.000000 -1.710864 0.000000 
-0.000000 -1.710864 0.000000 
-0.000000 -1.710864 0.000000 
-0.000000 -1.710864 0.000000 
-0.000000 -1.710864 0.000000 
-0.000000 -1.710864 0.000000 
-0.000000 -1.710864 0.000000 
-0.000000 -1.710864 0.000000 
-0.000000 -1.710864 0.000000 
-0.000000 -1.710864 0.000000 
0.000000 -1.710864 0.000000 
0.000000 -1.710864 0.000000 
-0.000000 -1.710864 0.000000 
-0.000000 -1.710864 0.000000 
-0.000000 -1.710864 0.000000 
-0.000000 -1.710864 0.000000 
-0.000000 -1.710864 0.000000 
-0.000000 -1.710864 0.000000 
0.000000 -1.710864 0.000000 
0.000000 -1.710864 0.000000 
-0.000000 -1.710864 0.000000 
0.000000 -1.710864 0.000000 
0.000000 -1.710864 0.000000 
-0.000000 -1.710864 0.000000 
-0.000000 -1.710864 0.000000 
-0.000000 -1.710864 0.000000 
0.000000 -1.710864 0.000000 
0.000000 -1.710864 0.000000 
-0.000000 -1.710864 0.000000 
0.000000 -1.710864 0.000000 
-0.000000 -1.710864 0.000000 
0.000000 -1.710864 0.000000 
-0.000000 -1.710864 0.000000 
-0.000000 -1.710864 0.000000 
-0.000000 -1.710864 0.000000 
-0.000000 -1.710864 0.000000 
-0.000000 -1.710864 0.000000 
-0.000000 -1.710864 0.000000 
-0.000000 -1.710864 0.000000 
-0.000000 -1.710864 0.000000 
-0.000000 -1.710864 0.000000 
-0.000000 -1.710864 0.000000 
-0.000000 -1.710864 0.000000 
0.000000 -1.710864 0.000000 
0.000000 -1.710864 0.000000 
0.000000 -1.710864 0.000000 
0.000000 -1.710864 0.000000 
-0.000000 -1.710864 0.000000 
0.000000 -1.710864 0.000000 
0.000000 -1.710864 0.000000 
0.000000 -1.710864 0.000000 
-0.000000 -1.710864 0.000000 
-0.000000 -1.710864 0.000000 
-0.000000 -1.710864 0.000000 
-0.000000 -1.710864 0.000000 
-0.000000 -1.710864 0.000000 
-0.000000 -1.710864 0.000000 
-0.000000 -1.710864 0.000000 
-0.000000 -1.710864 0.000000 
-0.000000 -1.710864 0.000000 
0.000000 -1.710864 0.000000 
-0.000000 -1.710864 0.000000 
-0.000000 -1.710864 0.000000 
-0.000000 -1.710864 0.000000 
0.000000 -1.710864 0.000000 
-0.000000 -1.710864 0.000000 
0.000000 -1.710864 0.000000 
-0.000000 -1.710864 0.000000 
-0.000000 -1.710864 0.000000 
0.000000 -1.710864 0.000000 
0.000000 -1.710864 0.000000 
0.000000 -1.710864 0.000000 
0.000000 -1.710864 0.000000 
-0.000000 -1.710864 0.000000 
-0.000000 -1.710864 0.000000 
-0.000000 -1.710864 0.000000 
0.000000 -1.710864 0.000000 
0.000000 -1.710864 0.000000 
-0.000000 -1.710864 0.000000 
-0.000000 -1.710864 0.000000 
-0.000000 -1.710864 0.000000 
-0.000000 -1.710864 0.000000 
-0.000000 -1.710864 0.000000 
-0.000000 -1.710864 0.000000 
-0.000000 -1.710864 0.000000 
-0.000000 -1.710864 0.000000 
-0.000000 -1.710864 0.000000 
-0.000000 -1.710864 0.000000 
0.000000 -1.710864 0.000000 
0.000000 -1.710864 0.000000 
-0.000000 -1.710864 0.000000 
-0.000000 -1.710864 0.000000 
-0.000000 -1.710864 0.000000 
-0.000000 -1.710864 0.000000 
0.000000 -1.710864 0.000000 
0.000000 -1.710864 0.000000 
0.000000 -1.710864 0.000000 
0.000000 -1.710864 0.000000 
0.000000 -1.710864 0.000000 
0.000000 -1.710864 0.000000 
0.000000 -1.710864 0.000000 
0.000000 -1.710864 0.000000 
0.000000 -1.710864 0.000000 
0.000000 -1.710864 0.000000 
0.000000 -1.710864 0.000000 
0.000000 -1.710864 0.000000 
0.000000 -1.710864 0.000000 
0.000000 -1.710864 0.000000 
0.000000 -1.710864 0.000000 
0.000000 -1.710864 0.000000 
0.000000 -1.710864 0.000000 
0.000000 -1.710864 0.000000 
0.000000 -1.710864 0.000000 
0.000000 -1.710864 0.000000 
-0.000000 -1.710864 0.000000 
0.000000 -1.710864 0.000000 
0.000000 -1.710864 0.000000 
0.000000 -1.710864 0.000000 
0.000000 -1.710864 0.000000 
TENSORS STRESS float 
0.000000 0.000000 0.000000 
0.000000 0.000000 0.000000 
0.000000 0.000000 0.000000 

0.000000 0.000000 0.000000 
0.000000 0.000000 0.000000 
0.000000 0.000000 0.000000 

0.000000 0.000000 0.000000 
0.000000 -0.000000 0.000000 
0.000000 0.000000 0.000000 

-0.000000 0.000000 0.000000 
0.000000 -0.000000 0.000000 
0.000000 0.000000 0.000000 

0.000000 0.000000 0.000000 
0.000000 0.000000 0.000000 
0.000000 0.000000 0.000000 

0.000000 0.000000 0.000000 
0.000000 0.000000 0.000000 
0.000000 0.000000 0.000000 

0.000000 0.000000 0.000000 
0.000000 0.000000 0.000000 
0.000000 0.000000 0.000000 

0.000000 0.000000 0.000000 
0.000000 0.000000 0.000000 
0.000000 0.000000 0.000000 

-0.000000 -0.000000 0.000000 
0.000000 -0.000000 0.000000 
0.000000 0.000000 0.000000 

-0.000000 -0.000000 0.000000 
0.000000 -0.000000 0.000000 
0.000000 0.000000 0.000000 

-0.000000 0.000000 0.000000 
0.000000 -0.000000 0.000000 
0.000000 0.000000 0.000000 

0.000000 0.000000 0.000000 
0.000000 0.000000 0.000000 
0.000000 0.000000 0.000000 

-0.000000 0.000000 0.000000 
0.000000 -0.000000 0.000000 
0.000000 0.000000 0.000000 

-0.000000 0.000000 0.000000 
0.000000 -0.000000 0.000000 
0.000000 0.000000 0.000000 

-0.000000 0.000000 0.000000 
0.000000 -0.000000 0.000000 
0.000000 0.000000 0.000000 

-0.000000 0.000000 0.000000 
0.000000 0.000000 0.000000 
0.000000 0.000000 0.000000 

0.000000 -0.000000 0.000000 
0.000000 -0.000000 0.000000 
0.000000 0.000000 0.000000 

-0.000000 -0.000000 0.000000 
0.000000 -0.000000 0.000000 
0.000000 0.000000 0.000000 

-0.000000 -0.000000 0.000000 
0.000000 -0.000000 0.000000 
0.000000 0.000000 0.000000 

-0.000000 0.000000 0.000000 
0.000000 -0.000000 0.000000 
0.000000 0.000000 0.000000 

-0.000000 0.000000 0.000000 
0.000000 -0.000000 0.000000 
0.000000 0.000000 0.000000 

-0.000000 0.000000 0.000000 
0.000000 -0.000000 0.000000 
0.000000 0.000000 0.000000 

-0.000000 0.000000 0.000000 
0.000000 -0.000000 0.000000 
0.000000 0.000000 0.000000 

0.000000 0.000000 0.000000 
0.000000 0.000000 0.000000 
0.000000 0.000000 0.000000 

0.000000 0.000000 0.000000 
0.000000 0.000000 0.000000 
0.000000 0.000000 0.000000 

-0.000000 0.000000 0.000000 
0.000000 -0.000000 0.000000 
0.000000 0.000000 0.000000 

-0.000000 0.000000 0.000000 
0.000000 -0.000000 0.000000 
0.000000 0.000000 0.000000 

0.000000 0.000000 0.000000 
0.000000 0.000000 0.000000 
0.000000 0.000000 0.000000 

0.000000 0.000000 0.000000 
0.000000 0.000000 0.000000 
0.000000 0.000000 0.000000 

-0.000000 0.000000 0.000000 
0.000000 -0.000000 0.000000 
0.000000 0.000000 0.000000 

0.000000 0.000000 0.000000 
0.000000 0.000000 0.000000 
0.000000 0.000000 0.000000 

-0.000000 0.000000 0.000000 
0.000000 -0.000000 0.000000 
0.000000 0.000000 0.000000 

0.000000 0.000000 0.000000 
0.000000 0.000000 0.000000 
0.000000 0.000000 0.000000 

0.000000 0.000000 0.000000 
0.000000 0.000000 0.000000 
0.000000 0.000000 0.000000 

-0.000000 0.000000 0.000000 
0.000000 -0.000000 0.000000 
0.000000 0.000000 0.000000 

-0.000000 0.000000 0.000000 
0.000000 -0.000000 0.000000 
0.000000 0.000000 0.000000 

0.000000 0.000000 0.000000 
0.000000 0.000000 0.000000 
0.000000 0.000000 0.000000 

-0.000000 -0.000000 0.000000 
0.000000 -0.000000 0.000000 
0.000000 0.000000 0.000000 

-0.000000 0.000000 0.000000 
0.000000 -0.000000 0.000000 
0.000000 0.000000 0.000000 

-0.000000 0.000000 0.000000 
0.000000 -0.000000 0.000000 
0.000000 0.000000 0.000000 

0.000000 0.000000 0.000000 
0.000000 0.000000 0.000000 
0.000000 0.000000 0.000000 

0.000000 0.000000 0.000000 
0.000000 0.000000 0.000000 
0.000000 0.000000 0.000000 

0.000000 -0.000000 0.000000 
0.000000 0.000000 0.000000 
0.000000 0.000000 0.000000 

0.000000 0.000000 0.000000 
0.000000 0.000000 0.000000 
0.000000 0.000000 0.000000 

-0.000000 0.000000 0.000000 
0.000000 -0.000000 0.000000 
0.000000 0.000000 0.000000 

-0.000000 0.000000 0.000000 
0.000000 -0.000000 0.000000 
0.000000 0.000000 0.000000 

0.000000 0.000000 0.000000 
0.000000 0.000000 0.000000 
0.000000 0.000000 0.000000 

0.000000 0.000000 0.000000 
0.000000 0.000000 0.000000 
0.000000 0.000000 0.000000 

0.000000 -0.000000 0.000000 
0.000000 0.000000 0.000000 
0.000000 0.000000 0.000000 

-0.000000 -0.000000 0.000000 
0.000000 -0.000000 0.000000 
0.000000 0.000000 0.000000 

0.000000 -0.000000 0.000000 
0.000000 0.000000 0.000000 
0.000000 0.000000 0.000000 

0.000000 0.000000 0.000000 
0.000000 0.000000 0.000000 
0.000000 0.000000 0.000000 

0.000000 0.000000 0.000000 
0.000000 0.000000 0.000000 
0.000000 0.000000 0.000000 

-0.000000 0.000000 0.000000 
0.000000 -0.000000 0.000000 
0.000000 0.000000 0.000000 

-0.000000 0.000000 0.000000 
0.000000 -0.000000 0.000000 
0.000000 0.000000 0.000000 

0.000000 0.000000 0.000000 
0.000000 0.000000 0.000000 
0.000000 0.000000 0.000000 

0.000000 0.000000 0.000000 
0.000000 0.000000 0.000000 
0.000000 0.000000 0.000000 

-0.000000 -0.000000 0.000000 
0.000000 -0.000000 0.000000 
0.000000 0.000000 0.000000 

-0.000000 0.000000 0.000000 
0.000000 -0.000000 0.000000 
0.000000 0.000000 0.000000 

0.000000 0.000000 0.000000 
0.000000 0.000000 0.000000 
0.000000 0.000000 0.000000 

0.000000 0.000000 0.000000 
0.000000 0.000000 0.000000 
0.000000 0.000000 0.000000 

0.000000 0.000000 0.000000 
0.000000 0.000000 0.000000 
0.000000 0.000000 0.000000 

-0.000000 0.000000 0.000000 
0.000000 -0.000000 0.000000 
0.000000 0.000000 0.000000 

0.000000 0.000000 0.000000 
0.000000 0.000000 0.000000 
0.000000 0.000000 0.000000 

0.000000 0.000000 0.000000 
0.000000 0.000000 0.000000 
0.000000 0.000000 0.000000 

-0.000000 0.000000 0.000000 
0.000000 -0.000000 0.000000 
0.000000 0.000000 0.000000 

0.000000 0.000000 0.000000 
0.000000 0.000000 0.000000 
0.000000 0.000000 0.000000 

-0.000000 -0.000000 0.000000 
0.000000 -0.000000 0.000000 
0.000000 0.000000 0.000000 

0.000000 0.000000 0.000000 
0.000000 0.000000 0.000000 
0.000000 0.000000 0.000000 

-0.000000 0.000000 0.000000 
0.000000 -0.000000 0.000000 
0.000000 0.000000 0.000000 

-0.000000 0.000000 0.000000 
0.000000 -0.000000 0.000000 
0.000000 0.000000 0.000000 

-0.000000 0.000000 0.000000 
0.000000 -0.000000 0.000000 
0.000000 0.000000 0.000000 

-0.000000 -0.000000 0.000000 
0.000000 -0.000000 0.000000 
0.000000 0.000000 0.000000 

-0.000000 -0.000000 0.000000 
0.000000 -0.000000 0.000000 
0.000000 0.000000 0.000000 

-0.000000 -0.000000 0.000000 
0.000000 -0.000000 0.000000 
0.000000 0.000000 0.000000 

-0.000000 -0.000000 0.000000 
0.000000 -0.000000 0.000000 
0.000000 0.000000 0.000000 

0.000000 -0.000000 0.000000 
0.000000 0.000000 0.000000 
0.000000 0.000000 0.000000 

-0.000000 -0.000000 0.000000 
0.000000 -0.000000 0.000000 
0.000000 0.000000 0.000000 

-0.000000 -0.000000 0.000000 
0.000000 -0.000000 0.000000 
0.000000 0.000000 0.000000 

0.000000 -0.000000 0.000000 
0.000000 0.000000 0.000000 
0.000000 0.000000 0.000000 

0.000000 -0.000000 0.000000 
0.000000 0.000000 0.000000 
0.000000 0.000000 0.000000 

-0.000000 -0.000000 0.000000 
0.000000 -0.000000 0.000000 
0.000000 0.000000 0.000000 

-0.000000 -0.000000 0.000000 
0.000000 -0.000000 0.000000 
0.000000 0.000000 0.000000 

-0.000000 0.000000 0.000000 
0.000000 -0.000000 0.000000 
0.000000 0.000000 0.000000 

-0.000000 0.000000 0.000000 
0.000000 -0.000000 0.000000 
0.000000 0.000000 0.000000 

0.000000 -0.000000 0.000000 
0.000000 0.000000 0.000000 
0.000000 0.000000 0.000000 

0.000000 -0.000000 0.000000 
0.000000 0.000000 0.000000 
0.000000 0.000000 0.000000 

-0.000000 -0.000000 0.000000 
0.000000 -0.000000 0.000000 
0.000000 0.000000 0.000000 

-0.000000 -0.000000 0.000000 
0.000000 -0.000000 0.000000 
0.000000 0.000000 0.000000 

0.000000 0.000000 0.000000 
0.000000 0.000000 0.000000 
0.000000 0.000000 0.000000 

0.000000 0.000000 0.000000 
0.000000 0.000000 0.000000 
0.000000 0.000000 0.000000 

-0.000000 -0.000000 0.000000 
0.000000 -0.000000 0.000000 
0.000000 0.000000 0.000000 

0.000000 -0.000000 0.000000 
0.000000 0.000000 0.000000 
0.000000 0.000000 0.000000 

-0.000000 -0.000000 0.000000 
0.000000 -0.000000 0.000000 
0.000000 0.000000 0.000000 

-0.000000 -0.000000 0.000000 
0.000000 0.000000 0.000000 
0.000000 0.000000 0.000000 

0.000000 -0.000000 0.000000 
0.000000 0.000000 0.000000 
0.000000 0.000000 0.000000 

0.000000 -0.000000 0.000000 
0.000000 0.000000 0.000000 
0.000000 0.000000 0.000000 

0.000000 0.000000 0.000000 
0.000000 0.000000 0.000000 
0.000000 0.000000 0.000000 

0.000000 0.000000 0.000000 
0.000000 0.000000 0.000000 
0.000000 0.000000 0.000000 

0.000000 0.000000 0.000000 
0.000000 0.000000 0.000000 
0.000000 0.000000 0.000000 

0.000000 0.000000 0.000000 
0.000000 0.000000 0.000000 
0.000000 0.000000 0.000000 

0.000000 0.000000 0.000000 
0.000000 0.000000 0.000000 
0.000000 0.000000 0.000000 

-0.000000 0.000000 0.000000 
0.000000 -0.000000 0.000000 
0.000000 0.000000 0.000000 

0.000000 -0.000000 0.000000 
0.000000 0.000000 0.000000 
0.000000 0.000000 0.000000 

0.000000 -0.000000 0.000000 
0.000000 -0.000000 0.000000 
0.000000 0.000000 0.000000 

0.000000 -0.000000 0.000000 
0.000000 0.000000 0.000000 
0.000000 0.000000 0.000000 

0.000000 -0.000000 0.000000 
0.000000 0.000000 0.000000 
0.000000 0.000000 0.000000 

-0.000000 -0.000000 0.000000 
0.000000 -0.000000 0.000000 
0.000000 0.000000 0.000000 

0.000000 -0.000000 0.000000 
0.000000 0.000000 0.000000 
0.000000 0.000000 0.000000 

-0.000000 0.000000 0.000000 
0.000000 -0.000000 0.000000 
0.000000 0.000000 0.000000 

0.000000 0.000000 0.000000 
0.000000 0.000000 0.000000 
0.000000 0.000000 0.000000 

-0.000000 0.000000 0.000000 
0.000000 -0.000000 0.000000 
0.000000 0.000000 0.000000 

0.000000 0.000000 0.000000 
0.000000 0.000000 0.000000 
0.000000 0.000000 0.000000 

0.000000 -0.000000 0.000000 
0.000000 0.000000 0.000000 
0.000000 0.000000 0.000000 

-0.000000 -0.000000 0.000000 
0.000000 -0.000000 0.000000 
0.000000 0.000000 0.000000 

-0.000000 -0.000000 0.000000 
0.000000 -0.000000 0.000000 
0.000000 0.000000 0.000000 

0.000000 0.000000 0.000000 
0.000000 0.000000 0.000000 
0.000000 0.000000 0.000000 

-0.000000 -0.000000 0.000000 
0.000000 -0.000000 0.000000 
0.000000 0.000000 0.000000 

-0.000000 0.000000 0.000000 
0.000000 -0.000000 0.000000 
0.000000 0.000000 0.000000 

0.000000 0.000000 0.000000 
0.000000 0.000000 0.000000 
0.000000 0.000000 0.000000 

0.000000 0.000000 0.000000 
0.000000 -0.000000 0.000000 
0.000000 0.000000 0.000000 

0.000000 0.000000 0.000000 
0.000000 0.000000 0.000000 
0.000000 0.000000 0.000000 

-0.000000 0.000000 0.000000 
0.000000 -0.000000 0.000000 
0.000000 0.000000 0.000000 

0.000000 0.000000 0.000000 
0.000000 0.000000 0.000000 
0.000000 0.000000 0.000000 

0.000000 0.000000 0.000000 
0.000000 0.000000 0.000000 
0.000000 0.000000 0.000000 

0.000000 0.000000 0.000000 
0.000000 0.000000 0.000000 
0.000000 0.000000 0.000000 

0.000000 -0.000000 0.000000 
0.000000 0.000000 0.000000 
0.000000 0.000000 0.000000 

-0.000000 0.000000 0.000000 
0.000000 -0.000000 0.000000 
0.000000 0.000000 0.000000 

0.000000 0.000000 0.000000 
0.000000 0.000000 0.000000 
0.000000 0.000000 0.000000 

-0.000000 0.000000 0.000000 
0.000000 -0.000000 0.000000 
0.000000 0.000000 0.000000 

-0.000000 -0.000000 0.000000 
0.000000 -0.000000 0.000000 
0.000000 0.000000 0.000000 

-0.000000 -0.000000 0.000000 
0.000000 -0.000000 0.000000 
0.000000 0.000000 0.000000 

-0.000000 0.000000 0.000000 
0.000000 -0.000000 0.000000 
0.000000 0.000000 0.000000 

-0.000000 -0.000000 0.000000 
0.000000 -0.000000 0.000000 
0.000000 0.000000 0.000000 

0.000000 0.000000 0.000000 
0.000000 0.000000 0.000000 
0.000000 0.000000 0.000000 

-0.000000 0.000000 0.000000 
0.000000 -0.000000 0.000000 
0.000000 0.000000 0.000000 

-0.000000 0.000000 0.000000 
0.000000 -0.000000 0.000000 
0.000000 0.000000 0.000000 

0.000000 -0.000000 0.000000 
0.000000 0.000000 0.000000 
0.000000 0.000000 0.000000 

0.000000 -0.000000 0.000000 
0.000000 0.000000 0.000000 
0.000000 0.000000 0.000000 

0.000000 0.000000 0.000000 
0.000000 0.000000 0.000000 
0.000000 0.000000 0.000000 

0.000000 -0.000000 0.000000 
0.000000 0.000000 0.000000 
0.000000 0.000000 0.000000 

0.000000 -0.000000 0.000000 
0.000000 0.000000 0.000000 
0.000000 0.000000 0.000000 

-0.000000 0.000000 0.000000 
0.000000 -0.000000 0.000000 
0.000000 0.000000 0.000000 

-0.000000 -0.000000 0.000000 
0.000000 -0.000000 0.000000 
0.000000 0.000000 0.000000 

0.000000 0.000000 0.000000 
0.000000 0.000000 0.000000 
0.000000 0.000000 0.000000 

-0.000000 0.000000 0.000000 
0.000000 -0.000000 0.000000 
0.000000 0.000000 0.000000 

0.000000 -0.000000 0.000000 
0.000000 0.000000 0.000000 
0.000000 0.000000 0.000000 

-0.000000 0.000000 0.000000 
0.000000 -0.000000 0.000000 
0.000000 0.000000 0.000000 

-0.000000 0.000000 0.000000 
0.000000 -0.000000 0.000000 
0.000000 0.000000 0.000000 

-0.000000 0.000000 0.000000 
0.000000 -0.000000 0.000000 
0.000000 0.000000 0.000000 

0.000000 0.000000 0.000000 
0.000000 0.000000 0.000000 
0.000000 0.000000 0.000000 

-0.000000 0.000000 0.000000 
0.000000 -0.000000 0.000000 
0.000000 0.000000 0.000000 

0.000000 0.000000 0.000000 
0.000000 0.000000 0.000000 
0.000000 0.000000 0.000000 

-0.000000 0.000000 0.000000 
0.000000 -0.000000 0.000000 
0.000000 0.000000 0.000000 

-0.000000 -0.000000 0.000000 
0.000000 -0.000000 0.000000 
0.000000 0.000000 0.000000 

0.000000 0.000000 0.000000 
0.000000 0.000000 0.000000 
0.000000 0.000000 0.000000 

0.000000 0.000000 0.000000 
0.000000 0.000000 0.000000 
0.000000 0.000000 0.000000 

-0.000000 0.000000 0.000000 
0.000000 -0.000000 0.000000 
0.000000 0.000000 0.000000 

-0.000000 0.000000 0.000000 
0.000000 -0.000000 0.000000 
0.000000 0.000000 0.000000 

0.000000 0.000000 0.000000 
0.000000 0.000000 0.000000 
0.000000 0.000000 0.000000 

-0.000000 0.000000 0.000000 
0.000000 -0.000000 0.000000 
0.000000 0.000000 0.000000 

0.000000 -0.000000 0.000000 
0.000000 0.000000 0.000000 
0.000000 0.000000 0.000000 

0.000000 -0.000000 0.000000 
0.000000 0.000000 0.000000 
0.000000 0.000000 0.000000 

-0.000000 -0.000000 0.000000 
0.000000 -0.000000 0.000000 
0.000000 0.000000 0.000000 

0.000000 -0.000000 0.000000 
0.000000 0.000000 0.000000 
0.000000 0.000000 0.000000 

0.000000 -0.000000 0.000000 
0.000000 0.000000 0.000000 
0.000000 0.000000 0.000000 

0.000000 0.000000 0.000000 
0.000000 0.000000 0.000000 
0.000000 0.000000 0.000000 

0.000000 0.000000 0.000000 
0.000000 0.000000 0.000000 
0.000000 0.000000 0.000000 

0.000000 -0.000000 0.000000 
0.000000 0.000000 0.000000 
0.000000 0.000000 0.000000 

0.000000 -0.000000 0.000000 
0.000000 0.000000 0.000000 
0.000000 0.000000 0.000000 

-0.000000 -0.000000 0.000000 
0.000000 -0.000000 0.000000 
0.000000 0.000000 0.000000 

-0.000000 -0.000000 0.000000 
0.000000 -0.000000 0.000000 
0.000000 0.000000 0.000000 

-0.000000 -0.000000 0.000000 
0.000000 -0.000000 0.000000 
0.000000 0.000000 0.000000 

0.000000 0.000000 0.000000 
0.000000 0.000000 0.000000 
0.000000 0.000000 0.000000 

0.000000 0.000000 0.000000 
0.000000 0.000000 0.000000 
0.000000 0.000000 0.000000 

TENSORS STRAIN float 
0.000000 0.000000 0.000000 
0.000000 -0.000000 0.000000 
0.000000 0.000000 0.000000 

0.000000 0.000000 0.000000 
0.000000 -0.000000 0.000000 
0.000000 0.000000 0.000000 

0.000000 0.000000 0.000000 
0.000000 -0.000000 0.000000 
0.000000 0.000000 0.000000 

0.000000 0.000000 0.000000 
0.000000 -0.000000 0.000000 
0.000000 0.000000 0.000000 

0.000000 0.000000 0.000000 
0.000000 -0.000000 0.000000 
0.000000 0.000000 0.000000 

0.000000 0.000000 0.000000 
0.000000 -0.000000 0.000000 
0.000000 0.000000 0.000000 

0.000000 0.000000 0.000000 
0.000000 0.000000 0.000000 
0.000000 0.000000 0.000000 

-0.000000 0.000000 0.000000 
0.000000 0.000000 0.000000 
0.000000 0.000000 0.000000 

-0.000000 -0.000000 0.000000 
0.000000 -0.000000 0.000000 
0.000000 0.000000 0.000000 

0.000000 -0.000000 0.000000 
0.000000 -0.000000 0.000000 
0.000000 0.000000 0.000000 

0.000000 0.000000 0.000000 
0.000000 -0.000000 0.000000 
0.000000 0.000000 0.000000 

0.000000 0.000000 0.000000 
0.000000 -0.000000 0.000000 
0.000000 0.000000 0.000000 

0.000000 0.000000 0.000000 
0.000000 -0.000000 0.000000 
0.000000 0.000000 0.000000 

0.000000 0.000000 0.000000 
0.000000 -0.000000 0.000000 
0.000000 0.000000 0.000000 

-0.000000 0.000000 0.000000 
0.000000 -0.000000 0.000000 
0.000000 0.000000 0.000000 

-0.000000 0.000000 0.000000 
0.000000 0.000000 0.000000 
0.000000 0.000000 0.000000 

0.000000 -0.000000 0.000000 
0.000000 -0.000000 0.000000 
0.000000 0.000000 0.000000 

0.000000 -0.000000 0.000000 
0.000000 -0.000000 0.000000 
0.000000 0.000000 0.000000 

0.000000 -0.000000 0.000000 
0.000000 -0.000000 0.000000 
0.000000 0.000000 0.000000 

-0.000000 0.000000 0.000000 
0.000000 -0.000000 0.000000 
0.000000 0.000000 0.000000 

-0.000000 0.000000 0.000000 
0.000000 0.000000 0.000000 
0.000000 0.000000 0.000000 

-0.000000 0.000000 0.000000 
0.000000 -0.000000 0.000000 
0.000000 0.000000 0.000000 

-0.000000 0.000000 0.000000 
0.000000 0.000000 0.000000 
0.000000 0.000000 0.000000 

0.000000 0.000000 0.000000 
0.000000 0.000000 0.000000 
0.000000 0.000000 0.000000 

0.000000 0.000000 0.000000 
0.000000 0.000000 0.000000 
0.000000 0.000000 0.000000 

0.000000 0.000000 0.000000 
0.000000 -0.000000 0.000000 
0.000000 0.000000 0.000000 

0.000000 0.000000 0.000000 
0.000000 -0.000000 0.000000 
0.000000 0.000000 0.000000 

0.000000 0.000000 0.000000 
0.000000 0.000000 0.000000 
0.000000 0.000000 0.000000 

0.000000 0.000000 0.000000 
0.000000 0.000000 0.000000 
0.000000 0.000000 0.000000 

-0.000000 0.000000 0.000000 
0.000000 -0.000000 0.000000 
0.000000 0.000000 0.000000 

0.000000 0.000000 0.000000 
0.000000 0.000000 0.000000 
0.000000 0.000000 0.000000 

-0.000000 0.000000 0.000000 
0.000000 0.000000 0.000000 
0.000000 0.000000 0.000000 

0.000000 0.000000 0.000000 
0.000000 -0.000000 0.000000 
0.000000 0.000000 0.000000 

0.000000 0.000000 0.000000 
0.000000 -0.000000 0.000000 
0.000000 0.000000 0.000000 

-0.000000 0.000000 0.000000 
0.000000 -0.000000 0.000000 
0.000000 0.000000 0.000000 

-0.000000 0.000000 0.000000 
0.000000 0.000000 0.000000 
0.000000 0.000000 0.000000 

-0.000000 0.000000 0.000000 
0.000000 0.000000 0.000000 
0.000000 0.000000 0.000000 

-0.000000 -0.000000 0.000000 
0.000000 0.000000 0.000000 
0.000000 0.000000 0.000000 

-0.000000 0.000000 0.000000 
0.000000 0.000000 0.000000 
0.000000 0.000000 0.000000 

-0.000000 0.000000 0.000000 
0.000000 -0.000000 0.000000 
0.000000 0.000000 0.000000 

-0.000000 0.000000 0.000000 
0.000000 0.000000 0.000000 
0.000000 0.000000 0.000000 

-0.000000 0.000000 0.000000 
0.000000 0.000000 0.000000 
0.000000 0.000000 0.000000 

0.000000 -0.000000 0.000000 
0.000000 0.000000 0.000000 
0.000000 0.000000 0.000000 

-0.000000 0.000000 0.000000 
0.000000 0.000000 0.000000 
0.000000 0.000000 0.000000 

-0.000000 0.000000 0.000000 
0.000000 -0.000000 0.000000 
0.000000 0.000000 0.000000 

-0.000000 0.000000 0.000000 
0.000000 0.000000 0.000000 
0.000000 0.000000 0.000000 

0.000000 0.000000 0.000000 
0.000000 0.000000 0.000000 
0.000000 0.000000 0.000000 

0.000000 0.000000 0.000000 
0.000000 -0.000000 0.000000 
0.000000 0.000000 0.000000 

-0.000000 -0.000000 0.000000 
0.000000 0.000000 0.000000 
0.000000 0.000000 0.000000 

0.000000 -0.000000 0.000000 
0.000000 -0.000000 0.000000 
0.000000 0.000000 0.000000 

0.000000 -0.000000 0.000000 
0.000000 0.000000 0.000000 
0.000000 0.000000 0.000000 

0.000000 0.000000 0.000000 
0.000000 -0.000000 0.000000 
0.000000 0.000000 0.000000 

0.000000 0.000000 0.000000 
0.000000 0.000000 0.000000 
0.000000 0.000000 0.000000 

-0.000000 0.000000 0.000000 
0.000000 -0.000000 0.000000 
0.000000 0.000000 0.000000 

0.000000 0.000000 0.000000 
0.000000 -0.000000 0.000000 
0.000000 0.000000 0.000000 

-0.000000 0.000000 0.000000 
0.000000 0.000000 0.000000 
0.000000 0.000000 0.000000 

-0.000000 0.000000 0.000000 
0.000000 0.000000 0.000000 
0.000000 0.000000 0.000000 

0.000000 -0.000000 0.000000 
0.000000 -0.000000 0.000000 
0.000000 0.000000 0.000000 

-0.000000 0.000000 0.000000 
0.000000 -0.000000 0.000000 
0.000000 0.000000 0.000000 

0.000000 0.000000 0.000000 
0.000000 -0.000000 0.000000 
0.000000 0.000000 0.000000 

0.000000 0.000000 0.000000 
0.000000 -0.000000 0.000000 
0.000000 0.000000 0.000000 

-0.000000 0.000000 0.000000 
0.000000 0.000000 0.000000 
0.000000 0.000000 0.000000 

0.000000 0.000000 0.000000 
0.000000 -0.000000 0.000000 
0.000000 0.000000 0.000000 

0.000000 0.000000 0.000000 
0.000000 0.000000 0.000000 
0.000000 0.000000 0.000000 

0.000000 0.000000 0.000000 
0.000000 -0.000000 0.000000 
0.000000 0.000000 0.000000 

0.000000 0.000000 0.000000 
0.000000 -0.000000 0.000000 
0.000000 0.000000 0.000000 

0.000000 0.000000 0.000000 
0.000000 -0.000000 0.000000 
0.000000 0.000000 0.000000 

-0.000000 -0.000000 0.000000 
0.000000 -0.000000 0.000000 
0.000000 0.000000 0.000000 

-0.000000 0.000000 0.000000 
0.000000 0.000000 0.000000 
0.000000 0.000000 0.000000 

-0.000000 0.000000 0.000000 
0.000000 -0.000000 0.000000 
0.000000 0.000000 0.000000 

-0.000000 0.000000 0.000000 
0.000000 -0.000000 0.000000 
0.000000 0.000000 0.000000 

0.000000 0.000000 0.000000 
0.000000 -0.000000 0.000000 
0.000000 0.000000 0.000000 

0.000000 -0.000000 0.000000 
0.000000 -0.000000 0.000000 
0.000000 0.000000 0.000000 

-0.000000 -0.000000 0.000000 
0.000000 -0.000000 0.000000 
0.000000 0.000000 0.000000 

-0.000000 -0.000000 0.000000 
0.000000 -0.000000 0.000000 
0.000000 0.000000 0.000000 

-0.000000 -0.000000 0.000000 
0.000000 -0.000000 0.000000 
0.000000 0.000000 0.000000 

-0.000000 -0.000000 0.000000 
0.000000 0.000000 0.000000 
0.000000 0.000000 0.000000 

-0.000000 -0.000000 0.000000 
0.000000 -0.000000 0.000000 
0.000000 0.000000 0.000000 

-0.000000 -0.000000 0.000000 
0.000000 -0.000000 0.000000 
0.000000 0.000000 0.000000 

-0.000000 -0.000000 0.000000 
0.000000 0.000000 0.000000 
0.000000 0.000000 0.000000 

0.000000 -0.000000 0.000000 
0.000000 -0.000000 0.000000 
0.000000 0.000000 0.000000 

0.000000 -0.000000 0.000000 
0.000000 -0.000000 0.000000 
0.000000 0.000000 0.000000 

0.000000 -0.000000 0.000000 
0.000000 -0.000000 0.000000 
0.000000 0.000000 0.000000 

0.000000 0.000000 0.000000 
0.000000 -0.000000 0.000000 
0.000000 0.000000 0.000000 

-0.000000 0.000000 0.000000 
0.000000 -0.000000 0.000000 
0.000000 0.000000 0.000000 

-0.000000 -0.000000 0.000000 
0.000000 0.000000 0.000000 
0.000000 0.000000 0.000000 

-0.000000 -0.000000 0.000000 
0.000000 0.000000 0.000000 
0.000000 0.000000 0.000000 

0.000000 -0.000000 0.000000 
0.000000 -0.000000 0.000000 
0.000000 0.000000 0.000000 

-0.000000 -0.000000 0.000000 
0.000000 -0.000000 0.000000 
0.000000 0.000000 0.000000 

0.000000 0.000000 0.000000 
0.000000 -0.000000 0.000000 
0.000000 0.000000 0.000000 

0.000000 0.000000 0.000000 
0.000000 -0.000000 0.000000 
0.000000 0.000000 0.000000 

-0.000000 -0.000000 0.000000 
0.000000 0.000000 0.000000 
0.000000 0.000000 0.000000 

-0.000000 -0.000000 0.000000 
0.000000 0.000000 0.000000 
0.000000 0.000000 0.000000 

-0.000000 -0.000000 0.000000 
0.000000 -0.000000 0.000000 
0.000000 0.000000 0.000000 

-0.000000 -0.000000 0.000000 
0.000000 0.000000 0.000000 
0.000000 0.000000 0.000000 

-0.000000 -0.000000 0.000000 
0.000000 0.000000 0.000000 
0.000000 0.000000 0.000000 

-0.000000 -0.000000 0.000000 
0.000000 0.000000 0.000000 
0.000000 0.000000 0.000000 

0.000000 0.000000 0.000000 
0.000000 0.000000 0.000000 
0.000000 0.000000 0.000000 

0.000000 0.000000 0.000000 
0.000000 -0.000000 0.000000 
0.000000 0.000000 0.000000 

0.000000 0.000000 0.000000 
0.000000 -0.000000 0.000000 
0.000000 0.000000 0.000000 

0.000000 0.000000 0.000000 
0.000000 0.000000 0.000000 
0.000000 0.000000 0.000000 

0.000000 0.000000 0.000000 
0.000000 0.000000 0.000000 
0.000000 0.000000 0.000000 

0.000000 0.000000 0.000000 
0.000000 -0.000000 0.000000 
0.000000 0.000000 0.000000 

0.000000 -0.000000 0.000000 
0.000000 0.000000 0.000000 
0.000000 0.000000 0.000000 

0.000000 -0.000000 0.000000 
0.000000 -0.000000 0.000000 
0.000000 0.000000 0.000000 

0.000000 -0.000000 0.000000 
0.000000 0.000000 0.000000 
0.000000 0.000000 0.000000 

-0.000000 -0.000000 0.000000 
0.000000 0.000000 0.000000 
0.000000 0.000000 0.000000 

-0.000000 -0.000000 0.000000 
0.000000 -0.000000 0.000000 
0.000000 0.000000 0.000000 

-0.000000 -0.000000 0.000000 
0.000000 0.000000 0.000000 
0.000000 0.000000 0.000000 

0.000000 0.000000 0.000000 
0.000000 -0.000000 0.000000 
0.000000 0.000000 0.000000 

0.000000 0.000000 0.000000 
0.000000 -0.000000 0.000000 
0.000000 0.000000 0.000000 

0.000000 0.000000 0.000000 
0.000000 -0.000000 0.000000 
0.000000 0.000000 0.000000 

0.000000 0.000000 0.000000 
0.000000 -0.000000 0.000000 
0.000000 0.000000 0.000000 

0.000000 -0.000000 0.000000 
0.000000 -0.000000 0.000000 
0.000000 0.000000 0.000000 

-0.000000 -0.000000 0.000000 
0.000000 -0.000000 0.000000 
0.000000 0.000000 0.000000 

-0.000000 -0.000000 0.000000 
0.000000 -0.000000 0.000000 
0.000000 0.000000 0.000000 

0.000000 0.000000 0.000000 
0.000000 -0.000000 0.000000 
0.000000 0.000000 0.000000 

0.000000 -0.000000 0.000000 
0.000000 -0.000000 0.000000 
0.000000 0.000000 0.000000 

0.000000 0.000000 0.000000 
0.000000 -0.000000 0.000000 
0.000000 0.000000 0.000000 

0.000000 0.000000 0.000000 
0.000000 -0.000000 0.000000 
0.000000 0.000000 0.000000 

0.000000 0.000000 0.000000 
0.000000 -0.000000 0.000000 
0.000000 0.000000 0.000000 

0.000000 0.000000 0.000000 
0.000000 -0.000000 0.000000 
0.000000 0.000000 0.000000 

0.000000 0.000000 0.000000 
0.000000 -0.000000 0.000000 
0.000000 0.000000 0.000000 

0.000000 0.000000 0.000000 
0.000000 0.000000 0.000000 
0.000000 0.000000 0.000000 

-0.000000 0.000000 0.000000 
0.000000 0.000000 0.000000 
0.000000 0.000000 0.000000 

0.000000 0.000000 0.000000 
0.000000 -0.000000 0.000000 
0.000000 0.000000 0.000000 

0.000000 -0.000000 0.000000 
0.000000 -0.000000 0.000000 
0.000000 0.000000 0.000000 

0.000000 0.000000 0.000000 
0.000000 -0.000000 0.000000 
0.000000 0.000000 0.000000 

0.000000 0.000000 0.000000 
0.000000 -0.000000 0.000000 
0.000000 0.000000 0.000000 

0.000000 0.000000 0.000000 
0.000000 -0.000000 0.000000 
0.000000 0.000000 0.000000 

0.000000 -0.000000 0.000000 
0.000000 -0.000000 0.000000 
0.000000 0.000000 0.000000 

0.000000 -0.000000 0.000000 
0.000000 -0.000000 0.000000 
0.000000 0.000000 0.000000 

0.000000 0.000000 0.000000 
0.000000 -0.000000 0.000000 
0.000000 0.000000 0.000000 

0.000000 -0.000000 0.000000 
0.000000 -0.000000 0.000000 
0.000000 0.000000 0.000000 

0.000000 0.000000 0.000000 
0.000000 -0.000000 0.000000 
0.000000 0.000000 0.000000 

0.000000 0.000000 0.000000 
0.000000 -0.000000 0.000000 
0.000000 0.000000 0.000000 

0.000000 0.000000 0.000000 
0.000000 -0.000000 0.000000 
0.000000 0.000000 0.000000 

-0.000000 -0.000000 0.000000 
0.000000 0.000000 0.000000 
0.000000 0.000000 0.000000 

0.000000 -0.000000 0.000000 
0.000000 0.000000 0.000000 
0.000000 0.000000 0.000000 

0.000000 0.000000 0.000000 
0.000000 0.000000 0.000000 
0.000000 0.000000 0.000000 

0.000000 -0.000000 0.000000 
0.000000 0.000000 0.000000 
0.000000 0.000000 0.000000 

0.000000 -0.000000 0.000000 
0.000000 -0.000000 0.000000 
0.000000 0.000000 0.000000 

0.000000 0.000000 0.000000 
0.000000 -0.000000 0.000000 
0.000000 0.000000 0.000000 

0.000000 -0.000000 0.000000 
0.000000 -0.000000 0.000000 
0.000000 0.000000 0.000000 

0.000000 0.000000 0.000000 
0.000000 -0.000000 0.000000 
0.000000 0.000000 0.000000 

0.000000 0.000000 0.000000 
0.000000 -0.000000 0.000000 
0.000000 0.000000 0.000000 

0.000000 -0.000000 0.000000 
0.000000 0.000000 0.000000 
0.000000 0.000000 0.000000 

0.000000 0.000000 0.000000 
0.000000 -0.000000 0.000000 
0.000000 0.000000 0.000000 

-0.000000 0.000000 0.000000 
0.000000 0.000000 0.000000 
0.000000 0.000000 0.000000 

0.000000 0.000000 0.000000 
0.000000 -0.000000 0.000000 
0.000000 0.000000 0.000000 

0.000000 0.000000 0.000000 
0.000000 -0.000000 0.000000 
0.000000 0.000000 0.000000 

0.000000 0.000000 0.000000 
0.000000 -0.000000 0.000000 
0.000000 0.000000 0.000000 

0.000000 0.000000 0.000000 
0.000000 -0.000000 0.000000 
0.000000 0.000000 0.000000 

0.000000 0.000000 0.000000 
0.000000 -0.000000 0.000000 
0.000000 0.000000 0.000000 

-0.000000 -0.000000 0.000000 
0.000000 0.000000 0.000000 
0.000000 0.000000 0.000000 

-0.000000 0.000000 0.000000 
0.000000 0.000000 0.000000 
0.000000 0.000000 0.000000 

0.000000 0.000000 0.000000 
0.000000 0.000000 0.000000 
0.000000 0.000000 0.000000 

0.000000 0.000000 0.000000 
0.000000 -0.000000 0.000000 
0.000000 0.000000 0.000000 

0.000000 0.000000 0.000000 
0.000000 -0.000000 0.000000 
0.000000 0.000000 0.000000 

-0.000000 0.000000 0.000000 
0.000000 0.000000 0.000000 
0.000000 0.000000 0.000000 

-0.000000 0.000000 0.000000 
0.000000 0.000000 0.000000 
0.000000 0.000000 0.000000 

-0.000000 -0.000000 0.000000 
0.000000 0.000000 0.000000 
0.000000 0.000000 0.000000 

0.000000 -0.000000 0.000000 
0.000000 0.000000 0.000000 
0.000000 0.000000 0.000000 

0.000000 -0.000000 0.000000 
0.000000 -0.000000 0.000000 
0.000000 0.000000 0.000000 

0.000000 -0.000000 0.000000 
0.000000 0.000000 0.000000 
0.000000 0.000000 0.000000 

0.000000 -0.000000 0.000000 
0.000000 -0.000000 0.000000 
0.000000 0.000000 0.000000 

0.000000 0.000000 0.000000 
0.000000 -0.000000 0.000000 
0.000000 0.000000 0.000000 

0.000000 0.000000 0.000000 
0.000000 0.000000 0.000000 
0.000000 0.000000 0.000000 

0.000000 -0.000000 0.000000 
0.000000 0.000000 0.000000 
0.000000 0.000000 0.000000 

0.000000 -0.000000 0.000000 
0.000000 -0.000000 0.000000 
0.000000 0.000000 0.000000 

0.000000 -0.000000 0.000000 
0.000000 -0.000000 0.000000 
0.000000 0.000000 0.000000 

-0.000000 -0.000000 0.000000 
0.000000 -0.000000 0.000000 
0.000000 0.000000 0.000000 

-0.000000 -0.000000 0.000000 
0.000000 -0.000000 0.000000 
0.000000 0.000000 0.000000 

0.000000 0.000000 0.000000 
0.000000 -0.000000 0.000000 
0.000000 0.000000 0.000000 

0.000000 0.000000 0.000000 
0.000000 -0.000000 0.000000 
0.000000 0.000000 0.000000 

