# vtk DataFile Version 3.0 
vtk output 
ASCII 
DATASET UNSTRUCTURED_GRID 
POINTS 175 float 
-0.026061 -2.023989 0.000000 
-0.106992 -1.955934 0.000000 
-0.054870 -1.964166 0.000000 
-0.028809 -1.918282 0.000000 
-0.186430 -1.891858 0.000000 
-0.137056 -1.894384 0.000000 
-0.114311 -1.840737 0.000000 
-0.058186 -1.856403 0.000000 
-0.029377 -1.816225 0.000000 
-0.265318 -1.828702 0.000000 
-0.217198 -1.829502 0.000000 
-0.196633 -1.772205 0.000000 
-0.143120 -1.780914 0.000000 
-0.116563 -1.733646 0.000000 
-0.058945 -1.753291 0.000000 
-0.029568 -1.715171 0.000000 
-0.344206 -1.765546 0.000000 
-0.296791 -1.765539 0.000000 
-0.278030 -1.705596 0.000000 
-0.225992 -1.711463 0.000000 
-0.201664 -1.659346 0.000000 
-0.145749 -1.672820 0.000000 
-0.117890 -1.628477 0.000000 
-0.059328 -1.651183 0.000000 
-0.029759 -1.614117 0.000000 
-0.058559 -2.064740 0.000000 
-0.162226 -2.085582 0.000000 
-0.123292 -2.049965 0.000000 
-0.142917 -2.000981 0.000000 
-0.261851 -2.107739 0.000000 
-0.229092 -2.070712 0.000000 
-0.256854 -2.019480 0.000000 
-0.209613 -1.985368 0.000000 
-0.223062 -1.937794 0.000000 
-0.360414 -2.130039 0.000000 
-0.329787 -2.092916 0.000000 
-0.361761 -2.041114 0.000000 
-0.321587 -2.004705 0.000000 
-0.341985 -1.954471 0.000000 
-0.290702 -1.921672 0.000000 
-0.302189 -1.874937 0.000000 
-0.458977 -2.152339 0.000000 
-0.429420 -2.115264 0.000000 
-0.464588 -2.063223 0.000000 
-0.427556 -2.026195 0.000000 
-0.453135 -1.974680 0.000000 
-0.407738 -1.939365 0.000000 
-0.425037 -1.889937 0.000000 
-0.370772 -1.858308 0.000000 
-0.381315 -1.812080 0.000000 
-0.046960 -2.115555 0.000000 
-0.095301 -2.209601 0.000000 
-0.098873 -2.156954 0.000000 
-0.149405 -2.141756 0.000000 
-0.140093 -2.301305 0.000000 
-0.148617 -2.252607 0.000000 
-0.205981 -2.242369 0.000000 
-0.203197 -2.184166 0.000000 
-0.248777 -2.165019 0.000000 
-0.184111 -2.392268 0.000000 
-0.194039 -2.345177 0.000000 
-0.254475 -2.337878 0.000000 
-0.257893 -2.283768 0.000000 
-0.309886 -2.268396 0.000000 
-0.303554 -2.207850 0.000000 
-0.347255 -2.187693 0.000000 
-0.228129 -2.483232 0.000000 
-0.238687 -2.437008 0.000000 
-0.301302 -2.432056 0.000000 
-0.307162 -2.380017 0.000000 
-0.363386 -2.367896 0.000000 
-0.362692 -2.310384 0.000000 
-0.412122 -2.293091 0.000000 
-0.403017 -2.230945 0.000000 
-0.445733 -2.210366 0.000000 
-0.000000 -2.138170 0.000000 
0.043388 -2.234600 0.000000 
-0.000000 -2.204568 0.000000 
-0.043388 -2.234600 0.000000 
0.087158 -2.326797 0.000000 
0.043769 -2.303099 0.000000 
-0.000000 -2.341564 0.000000 
-0.043769 -2.303099 0.000000 
-0.087158 -2.326797 0.000000 
0.130831 -2.417927 0.000000 
0.087824 -2.396328 0.000000 
0.044436 -2.439028 0.000000 
-0.000000 -2.407963 0.000000 
-0.044436 -2.439028 0.000000 
-0.087824 -2.396328 0.000000 
-0.130831 -2.417927 0.000000 
0.174505 -2.509056 0.000000 
0.131782 -2.488490 0.000000 
0.088871 -2.534357 0.000000 
0.044532 -2.506493 0.000000 
-0.000000 -2.542893 0.000000 
-0.044532 -2.506493 0.000000 
-0.088871 -2.534357 0.000000 
-0.131782 -2.488490 0.000000 
-0.174505 -2.509056 0.000000 
0.046960 -2.115555 0.000000 
0.149405 -2.141756 0.000000 
0.098873 -2.156954 0.000000 
0.095301 -2.209601 0.000000 
0.248777 -2.165019 0.000000 
0.203197 -2.184166 0.000000 
0.205981 -2.242369 0.000000 
0.148617 -2.252607 0.000000 
0.140093 -2.301305 0.000000 
0.347255 -2.187693 0.000000 
0.303554 -2.207850 0.000000 
0.309886 -2.268396 0.000000 
0.257893 -2.283768 0.000000 
0.254475 -2.337878 0.000000 
0.194039 -2.345177 0.000000 
0.184111 -2.392268 0.000000 
0.445733 -2.210366 0.000000 
0.403017 -2.230945 0.000000 
0.412122 -2.293091 0.000000 
0.362692 -2.310384 0.000000 
0.363386 -2.367896 0.000000 
0.307162 -2.380017 0.000000 
0.301302 -2.432056 0.000000 
0.238687 -2.437008 0.000000 
0.228129 -2.483232 0.000000 
0.058559 -2.064740 0.000000 
0.142917 -2.000981 0.000000 
0.123292 -2.049965 0.000000 
0.162226 -2.085582 0.000000 
0.223062 -1.937794 0.000000 
0.209613 -1.985368 0.000000 
0.256854 -2.019480 0.000000 
0.229092 -2.070712 0.000000 
0.261851 -2.107739 0.000000 
0.302189 -1.874937 0.000000 
0.290702 -1.921672 0.000000 
0.341985 -1.954471 0.000000 
0.321587 -2.004705 0.000000 
0.361761 -2.041114 0.000000 
0.329787 -2.092916 0.000000 
0.360414 -2.130039 0.000000 
0.381315 -1.812080 0.000000 
0.370772 -1.858308 0.000000 
0.425037 -1.889937 0.000000 
0.407738 -1.939365 0.000000 
0.453135 -1.974680 0.000000 
0.427556 -2.026195 0.000000 
0.464588 -2.063223 0.000000 
0.429420 -2.115264 0.000000 
0.458977 -2.152339 0.000000 
0.026061 -2.023989 0.000000 
0.028809 -1.918282 0.000000 
0.054870 -1.964166 0.000000 
0.106992 -1.955934 0.000000 
0.029377 -1.816225 0.000000 
0.058186 -1.856403 0.000000 
0.114311 -1.840737 0.000000 
0.137056 -1.894384 0.000000 
0.186430 -1.891858 0.000000 
0.029568 -1.715171 0.000000 
0.058945 -1.753291 0.000000 
0.116563 -1.733646 0.000000 
0.143120 -1.780914 0.000000 
0.196633 -1.772205 0.000000 
0.217198 -1.829502 0.000000 
0.265318 -1.828702 0.000000 
0.029759 -1.614117 0.000000 
0.059328 -1.651183 0.000000 
0.117890 -1.628477 0.000000 
0.145749 -1.672820 0.000000 
0.201664 -1.659346 0.000000 
0.225992 -1.711463 0.000000 
0.278030 -1.705596 0.000000 
0.296791 -1.765539 0.000000 
0.344206 -1.765546 0.000000 
CELLS 175 350 
1 0 
1 1 
1 2 
1 3 
1 4 
1 5 
1 6 
1 7 
1 8 
1 9 
1 10 
1 11 
1 12 
1 13 
1 14 
1 15 
1 16 
1 17 
1 18 
1 19 
1 20 
1 21 
1 22 
1 23 
1 24 
1 25 
1 26 
1 27 
1 28 
1 29 
1 30 
1 31 
1 32 
1 33 
1 34 
1 35 
1 36 
1 37 
1 38 
1 39 
1 40 
1 41 
1 42 
1 43 
1 44 
1 45 
1 46 
1 47 
1 48 
1 49 
1 50 
1 51 
1 52 
1 53 
1 54 
1 55 
1 56 
1 57 
1 58 
1 59 
1 60 
1 61 
1 62 
1 63 
1 64 
1 65 
1 66 
1 67 
1 68 
1 69 
1 70 
1 71 
1 72 
1 73 
1 74 
1 75 
1 76 
1 77 
1 78 
1 79 
1 80 
1 81 
1 82 
1 83 
1 84 
1 85 
1 86 
1 87 
1 88 
1 89 
1 90 
1 91 
1 92 
1 93 
1 94 
1 95 
1 96 
1 97 
1 98 
1 99 
1 100 
1 101 
1 102 
1 103 
1 104 
1 105 
1 106 
1 107 
1 108 
1 109 
1 110 
1 111 
1 112 
1 113 
1 114 
1 115 
1 116 
1 117 
1 118 
1 119 
1 120 
1 121 
1 122 
1 123 
1 124 
1 125 
1 126 
1 127 
1 128 
1 129 
1 130 
1 131 
1 132 
1 133 
1 134 
1 135 
1 136 
1 137 
1 138 
1 139 
1 140 
1 141 
1 142 
1 143 
1 144 
1 145 
1 146 
1 147 
1 148 
1 149 
1 150 
1 151 
1 152 
1 153 
1 154 
1 155 
1 156 
1 157 
1 158 
1 159 
1 160 
1 161 
1 162 
1 163 
1 164 
1 165 
1 166 
1 167 
1 168 
1 169 
1 170 
1 171 
1 172 
1 173 
1 174 
CELL_TYPES 175 
1 
1 
1 
1 
1 
1 
1 
1 
1 
1 
1 
1 
1 
1 
1 
1 
1 
1 
1 
1 
1 
1 
1 
1 
1 
1 
1 
1 
1 
1 
1 
1 
1 
1 
1 
1 
1 
1 
1 
1 
1 
1 
1 
1 
1 
1 
1 
1 
1 
1 
1 
1 
1 
1 
1 
1 
1 
1 
1 
1 
1 
1 
1 
1 
1 
1 
1 
1 
1 
1 
1 
1 
1 
1 
1 
1 
1 
1 
1 
1 
1 
1 
1 
1 
1 
1 
1 
1 
1 
1 
1 
1 
1 
1 
1 
1 
1 
1 
1 
1 
1 
1 
1 
1 
1 
1 
1 
1 
1 
1 
1 
1 
1 
1 
1 
1 
1 
1 
1 
1 
1 
1 
1 
1 
1 
1 
1 
1 
1 
1 
1 
1 
1 
1 
1 
1 
1 
1 
1 
1 
1 
1 
1 
1 
1 
1 
1 
1 
1 
1 
1 
1 
1 
1 
1 
1 
1 
1 
1 
1 
1 
1 
1 
1 
1 
1 
1 
1 
1 
1 
1 
1 
1 
1 
1 
POINT_DATA 175 
VECTORS X_GC float 
-0.026061 -2.023989 0.000000 
-0.106992 -1.955934 0.000000 
-0.054870 -1.964166 0.000000 
-0.028809 -1.918282 0.000000 
-0.186430 -1.891858 0.000000 
-0.137056 -1.894384 0.000000 
-0.114311 -1.840737 0.000000 
-0.058186 -1.856403 0.000000 
-0.029377 -1.816225 0.000000 
-0.265318 -1.828702 0.000000 
-0.217198 -1.829502 0.000000 
-0.196633 -1.772205 0.000000 
-0.143120 -1.780914 0.000000 
-0.116563 -1.733646 0.000000 
-0.058945 -1.753291 0.000000 
-0.029568 -1.715171 0.000000 
-0.344206 -1.765546 0.000000 
-0.296791 -1.765539 0.000000 
-0.278030 -1.705596 0.000000 
-0.225992 -1.711463 0.000000 
-0.201664 -1.659346 0.000000 
-0.145749 -1.672820 0.000000 
-0.117890 -1.628477 0.000000 
-0.059328 -1.651183 0.000000 
-0.029759 -1.614117 0.000000 
-0.058559 -2.064740 0.000000 
-0.162226 -2.085582 0.000000 
-0.123292 -2.049965 0.000000 
-0.142917 -2.000981 0.000000 
-0.261851 -2.107739 0.000000 
-0.229092 -2.070712 0.000000 
-0.256854 -2.019480 0.000000 
-0.209613 -1.985368 0.000000 
-0.223062 -1.937794 0.000000 
-0.360414 -2.130039 0.000000 
-0.329787 -2.092916 0.000000 
-0.361761 -2.041114 0.000000 
-0.321587 -2.004705 0.000000 
-0.341985 -1.954471 0.000000 
-0.290702 -1.921672 0.000000 
-0.302189 -1.874937 0.000000 
-0.458977 -2.152339 0.000000 
-0.429420 -2.115264 0.000000 
-0.464588 -2.063223 0.000000 
-0.427556 -2.026195 0.000000 
-0.453135 -1.974680 0.000000 
-0.407738 -1.939365 0.000000 
-0.425037 -1.889937 0.000000 
-0.370772 -1.858308 0.000000 
-0.381315 -1.812080 0.000000 
-0.046960 -2.115555 0.000000 
-0.095301 -2.209601 0.000000 
-0.098873 -2.156954 0.000000 
-0.149405 -2.141756 0.000000 
-0.140093 -2.301305 0.000000 
-0.148617 -2.252607 0.000000 
-0.205981 -2.242369 0.000000 
-0.203197 -2.184166 0.000000 
-0.248777 -2.165019 0.000000 
-0.184111 -2.392268 0.000000 
-0.194039 -2.345177 0.000000 
-0.254475 -2.337878 0.000000 
-0.257893 -2.283768 0.000000 
-0.309886 -2.268396 0.000000 
-0.303554 -2.207850 0.000000 
-0.347255 -2.187693 0.000000 
-0.228129 -2.483232 0.000000 
-0.238687 -2.437008 0.000000 
-0.301302 -2.432056 0.000000 
-0.307162 -2.380017 0.000000 
-0.363386 -2.367896 0.000000 
-0.362692 -2.310384 0.000000 
-0.412122 -2.293091 0.000000 
-0.403017 -2.230945 0.000000 
-0.445733 -2.210366 0.000000 
-0.000000 -2.138170 0.000000 
0.043388 -2.234600 0.000000 
-0.000000 -2.204568 0.000000 
-0.043388 -2.234600 0.000000 
0.087158 -2.326797 0.000000 
0.043769 -2.303099 0.000000 
-0.000000 -2.341564 0.000000 
-0.043769 -2.303099 0.000000 
-0.087158 -2.326797 0.000000 
0.130831 -2.417927 0.000000 
0.087824 -2.396328 0.000000 
0.044436 -2.439028 0.000000 
-0.000000 -2.407963 0.000000 
-0.044436 -2.439028 0.000000 
-0.087824 -2.396328 0.000000 
-0.130831 -2.417927 0.000000 
0.174505 -2.509056 0.000000 
0.131782 -2.488490 0.000000 
0.088871 -2.534357 0.000000 
0.044532 -2.506493 0.000000 
-0.000000 -2.542893 0.000000 
-0.044532 -2.506493 0.000000 
-0.088871 -2.534357 0.000000 
-0.131782 -2.488490 0.000000 
-0.174505 -2.509056 0.000000 
0.046960 -2.115555 0.000000 
0.149405 -2.141756 0.000000 
0.098873 -2.156954 0.000000 
0.095301 -2.209601 0.000000 
0.248777 -2.165019 0.000000 
0.203197 -2.184166 0.000000 
0.205981 -2.242369 0.000000 
0.148617 -2.252607 0.000000 
0.140093 -2.301305 0.000000 
0.347255 -2.187693 0.000000 
0.303554 -2.207850 0.000000 
0.309886 -2.268396 0.000000 
0.257893 -2.283768 0.000000 
0.254475 -2.337878 0.000000 
0.194039 -2.345177 0.000000 
0.184111 -2.392268 0.000000 
0.445733 -2.210366 0.000000 
0.403017 -2.230945 0.000000 
0.412122 -2.293091 0.000000 
0.362692 -2.310384 0.000000 
0.363386 -2.367896 0.000000 
0.307162 -2.380017 0.000000 
0.301302 -2.432056 0.000000 
0.238687 -2.437008 0.000000 
0.228129 -2.483232 0.000000 
0.058559 -2.064740 0.000000 
0.142917 -2.000981 0.000000 
0.123292 -2.049965 0.000000 
0.162226 -2.085582 0.000000 
0.223062 -1.937794 0.000000 
0.209613 -1.985368 0.000000 
0.256854 -2.019480 0.000000 
0.229092 -2.070712 0.000000 
0.261851 -2.107739 0.000000 
0.302189 -1.874937 0.000000 
0.290702 -1.921672 0.000000 
0.341985 -1.954471 0.000000 
0.321587 -2.004705 0.000000 
0.361761 -2.041114 0.000000 
0.329787 -2.092916 0.000000 
0.360414 -2.130039 0.000000 
0.381315 -1.812080 0.000000 
0.370772 -1.858308 0.000000 
0.425037 -1.889937 0.000000 
0.407738 -1.939365 0.000000 
0.453135 -1.974680 0.000000 
0.427556 -2.026195 0.000000 
0.464588 -2.063223 0.000000 
0.429420 -2.115264 0.000000 
0.458977 -2.152339 0.000000 
0.026061 -2.023989 0.000000 
0.028809 -1.918282 0.000000 
0.054870 -1.964166 0.000000 
0.106992 -1.955934 0.000000 
0.029377 -1.816225 0.000000 
0.058186 -1.856403 0.000000 
0.114311 -1.840737 0.000000 
0.137056 -1.894384 0.000000 
0.186430 -1.891858 0.000000 
0.029568 -1.715171 0.000000 
0.058945 -1.753291 0.000000 
0.116563 -1.733646 0.000000 
0.143120 -1.780914 0.000000 
0.196633 -1.772205 0.000000 
0.217198 -1.829502 0.000000 
0.265318 -1.828702 0.000000 
0.029759 -1.614117 0.000000 
0.059328 -1.651183 0.000000 
0.117890 -1.628477 0.000000 
0.145749 -1.672820 0.000000 
0.201664 -1.659346 0.000000 
0.225992 -1.711463 0.000000 
0.278030 -1.705596 0.000000 
0.296791 -1.765539 0.000000 
0.344206 -1.765546 0.000000 
VECTORS X_EC float 
0.338794 -0.176149 0.000000 
-0.609100 0.905102 0.000000 
0.713312 -0.983757 0.000000 
0.374519 0.396814 0.000000 
0.423588 0.040083 0.000000 
-0.218274 0.074187 0.000000 
-0.513962 -0.650052 0.000000 
0.756418 -0.438566 0.000000 
0.381900 -0.980958 0.000000 
-0.550868 -0.812520 0.000000 
0.823577 -0.801724 0.000000 
0.556234 0.424771 0.000000 
-0.139443 0.542340 0.000000 
-0.484677 -0.095784 0.000000 
0.766286 0.169431 0.000000 
0.384386 -0.345189 0.000000 
0.474677 0.334877 0.000000 
-0.141715 0.334780 0.000000 
-0.385608 -0.474448 0.000000 
0.937896 -0.395252 0.000000 
0.621631 0.901168 0.000000 
-0.105264 -0.916933 0.000000 
-0.467428 0.484440 0.000000 
0.771260 0.790969 0.000000 
0.386873 0.290580 0.000000 
0.761262 0.373985 0.000000 
0.108942 0.655362 0.000000 
-0.397202 0.174523 0.000000 
-0.142083 -0.486753 0.000000 
-0.595936 0.954473 0.000000 
0.978194 0.454607 0.000000 
-0.660903 -0.237018 0.000000 
0.724964 -0.697538 0.000000 
0.899809 0.660213 0.000000 
0.685384 -0.744475 0.000000 
0.287229 0.754366 0.000000 
0.702895 0.055038 0.000000 
0.180633 -0.436481 0.000000 
0.445811 0.885359 0.000000 
-0.220880 0.442573 0.000000 
-0.071546 -0.188352 0.000000 
-0.033296 -0.443423 0.000000 
-0.417537 -0.943933 0.000000 
0.039645 0.353505 0.000000 
-0.441768 -0.146366 0.000000 
-0.109248 -0.841817 0.000000 
-0.699407 0.681427 0.000000 
-0.474522 0.014148 0.000000 
0.820030 -0.412845 0.000000 
0.957100 0.963083 0.000000 
0.610485 -0.940008 0.000000 
-0.761092 0.329611 0.000000 
-0.714655 -0.381127 0.000000 
-0.057734 -0.586294 0.000000 
-0.178789 -0.432385 0.000000 
-0.067979 0.910189 0.000000 
0.677748 0.771986 0.000000 
0.641556 -0.013760 0.000000 
-0.765897 -0.272238 0.000000 
0.393446 0.795624 0.000000 
0.522510 0.159894 0.000000 
-0.691820 0.061350 0.000000 
-0.647393 -0.669133 0.000000 
0.028512 -0.876659 0.000000 
-0.053800 0.305980 0.000000 
0.514316 0.033850 0.000000 
0.965681 0.023633 0.000000 
-0.897068 -0.600396 0.000000 
-0.083078 -0.667249 0.000000 
-0.006893 0.630227 0.000000 
0.724017 0.466594 0.000000 
0.714996 -0.309810 0.000000 
-0.642413 -0.543267 0.000000 
-0.760780 0.617753 0.000000 
-0.205471 0.339937 0.000000 
0.000000 -0.634707 0.000000 
-0.564049 0.667106 0.000000 
0.000000 0.261670 0.000000 
0.564049 0.667106 0.000000 
0.866949 -0.088239 0.000000 
-0.569003 -0.408170 0.000000 
0.000000 0.111118 0.000000 
0.569003 -0.408170 0.000000 
-0.866949 -0.088239 0.000000 
0.299194 -0.857989 0.000000 
0.858290 0.850428 0.000000 
-0.577662 -0.573127 0.000000 
0.000000 -0.992505 0.000000 
0.577662 -0.573127 0.000000 
-0.858290 0.850428 0.000000 
-0.299194 -0.857989 0.000000 
-0.268560 0.372262 0.000000 
0.286830 0.094620 0.000000 
0.844677 0.713818 0.000000 
-0.578910 0.337655 0.000000 
0.000000 0.829059 0.000000 
0.578910 0.337655 0.000000 
-0.844677 0.713818 0.000000 
-0.286830 0.094620 0.000000 
0.268560 0.372261 0.000000 
-0.610485 -0.940008 0.000000 
0.057734 -0.586294 0.000000 
0.714655 -0.381127 0.000000 
0.761092 0.329611 0.000000 
0.765897 -0.272238 0.000000 
-0.641556 -0.013760 0.000000 
-0.677748 0.771986 0.000000 
0.067979 0.910189 0.000000 
0.178789 -0.432385 0.000000 
-0.514316 0.033850 0.000000 
0.053800 0.305980 0.000000 
-0.028512 -0.876659 0.000000 
0.647393 -0.669133 0.000000 
0.691820 0.061350 0.000000 
-0.522510 0.159894 0.000000 
-0.393446 0.795624 0.000000 
0.205471 0.339937 0.000000 
0.760780 0.617753 0.000000 
0.642413 -0.543267 0.000000 
-0.714996 -0.309810 0.000000 
-0.724017 0.466594 0.000000 
0.006894 0.630227 0.000000 
0.083078 -0.667248 0.000000 
0.897068 -0.600396 0.000000 
-0.965681 0.023633 0.000000 
-0.761262 0.373985 0.000000 
0.142083 -0.486753 0.000000 
0.397202 0.174523 0.000000 
-0.108942 0.655362 0.000000 
-0.899809 0.660213 0.000000 
-0.724964 -0.697538 0.000000 
0.660903 -0.237018 0.000000 
-0.978194 0.454607 0.000000 
0.595936 0.954473 0.000000 
0.071546 -0.188352 0.000000 
0.220880 0.442573 0.000000 
-0.445811 0.885359 0.000000 
-0.180633 -0.436481 0.000000 
-0.702895 0.055038 0.000000 
-0.287229 0.754366 0.000000 
-0.685384 -0.744475 0.000000 
-0.957100 0.963083 0.000000 
-0.820030 -0.412845 0.000000 
0.474522 0.014148 0.000000 
0.699407 0.681427 0.000000 
0.109248 -0.841817 0.000000 
0.441768 -0.146366 0.000000 
-0.039645 0.353505 0.000000 
0.417537 -0.943933 0.000000 
0.033296 -0.443423 0.000000 
-0.338794 -0.176149 0.000000 
-0.374519 0.396814 0.000000 
-0.713312 -0.983757 0.000000 
0.609100 0.905102 0.000000 
-0.381900 -0.980958 0.000000 
-0.756418 -0.438566 0.000000 
0.513962 -0.650052 0.000000 
0.218274 0.074187 0.000000 
-0.423588 0.040083 0.000000 
-0.384386 -0.345189 0.000000 
-0.766286 0.169431 0.000000 
0.484677 -0.095784 0.000000 
0.139443 0.542340 0.000000 
-0.556234 0.424771 0.000000 
-0.823577 -0.801724 0.000000 
0.550868 -0.812520 0.000000 
-0.386873 0.290580 0.000000 
-0.771260 0.790969 0.000000 
0.467428 0.484440 0.000000 
0.105264 -0.916933 0.000000 
-0.621631 0.901168 0.000000 
-0.937896 -0.395252 0.000000 
0.385608 -0.474448 0.000000 
0.141715 0.334780 0.000000 
-0.474677 0.334877 0.000000 
CELL_DATA 175 
SCALARS MASS float 
LOOKUP_TABLE default 
0.781831 
0.864274 
0.946717 
0.864274 
0.881307 
0.921110 
0.858535 
0.921110 
0.881307 
0.887046 
0.910001 
0.869829 
0.915556 
0.869829 
0.910001 
0.887046 
0.892784 
0.915740 
0.892784 
0.927218 
0.892784 
0.927218 
0.892784 
0.915740 
0.892784 
0.781831 
0.864274 
0.946717 
0.864274 
0.881307 
0.921110 
0.858535 
0.921110 
0.881307 
0.887046 
0.910001 
0.869829 
0.915556 
0.869829 
0.910001 
0.887046 
0.892784 
0.915740 
0.892784 
0.927218 
0.892784 
0.927218 
0.892784 
0.915740 
0.892784 
0.781831 
0.864274 
0.946717 
0.864274 
0.881307 
0.921110 
0.858535 
0.921110 
0.881307 
0.887046 
0.910001 
0.869829 
0.915556 
0.869829 
0.910001 
0.887046 
0.892784 
0.915740 
0.892784 
0.927218 
0.892784 
0.927218 
0.892784 
0.915740 
0.892784 
0.781831 
0.864274 
0.946717 
0.864274 
0.881307 
0.921110 
0.858535 
0.921110 
0.881307 
0.887046 
0.910001 
0.869829 
0.915556 
0.869829 
0.910001 
0.887046 
0.892784 
0.915740 
0.892784 
0.927218 
0.892784 
0.927218 
0.892784 
0.915740 
0.892784 
0.781831 
0.864274 
0.946717 
0.864274 
0.881307 
0.921110 
0.858535 
0.921110 
0.881307 
0.887046 
0.910001 
0.869829 
0.915556 
0.869829 
0.910001 
0.887046 
0.892784 
0.915740 
0.892784 
0.927218 
0.892784 
0.927218 
0.892784 
0.915740 
0.892784 
0.781831 
0.864274 
0.946717 
0.864274 
0.881307 
0.921110 
0.858535 
0.921110 
0.881307 
0.887046 
0.910001 
0.869829 
0.915556 
0.869829 
0.910001 
0.887046 
0.892784 
0.915740 
0.892784 
0.927218 
0.892784 
0.927218 
0.892784 
0.915740 
0.892784 
0.781831 
0.864274 
0.946717 
0.864274 
0.881307 
0.921110 
0.858535 
0.921110 
0.881307 
0.887046 
0.910001 
0.869829 
0.915556 
0.869829 
0.910001 
0.887046 
0.892784 
0.915740 
0.892784 
0.927218 
0.892784 
0.927218 
0.892784 
0.915740 
0.892784 
SCALARS MASS float 
LOOKUP_TABLE default 
0.781831 
0.864274 
0.946717 
0.864274 
0.881307 
0.921110 
0.858535 
0.921110 
0.881307 
0.887046 
0.910001 
0.869829 
0.915556 
0.869829 
0.910001 
0.887046 
0.892784 
0.915740 
0.892784 
0.927218 
0.892784 
0.927218 
0.892784 
0.915740 
0.892784 
0.781831 
0.864274 
0.946717 
0.864274 
0.881307 
0.921110 
0.858535 
0.921110 
0.881307 
0.887046 
0.910001 
0.869829 
0.915556 
0.869829 
0.910001 
0.887046 
0.892784 
0.915740 
0.892784 
0.927218 
0.892784 
0.927218 
0.892784 
0.915740 
0.892784 
0.781831 
0.864274 
0.946717 
0.864274 
0.881307 
0.921110 
0.858535 
0.921110 
0.881307 
0.887046 
0.910001 
0.869829 
0.915556 
0.869829 
0.910001 
0.887046 
0.892784 
0.915740 
0.892784 
0.927218 
0.892784 
0.927218 
0.892784 
0.915740 
0.892784 
0.781831 
0.864274 
0.946717 
0.864274 
0.881307 
0.921110 
0.858535 
0.921110 
0.881307 
0.887046 
0.910001 
0.869829 
0.915556 
0.869829 
0.910001 
0.887046 
0.892784 
0.915740 
0.892784 
0.927218 
0.892784 
0.927218 
0.892784 
0.915740 
0.892784 
0.781831 
0.864274 
0.946717 
0.864274 
0.881307 
0.921110 
0.858535 
0.921110 
0.881307 
0.887046 
0.910001 
0.869829 
0.915556 
0.869829 
0.910001 
0.887046 
0.892784 
0.915740 
0.892784 
0.927218 
0.892784 
0.927218 
0.892784 
0.915740 
0.892784 
0.781831 
0.864274 
0.946717 
0.864274 
0.881307 
0.921110 
0.858535 
0.921110 
0.881307 
0.887046 
0.910001 
0.869829 
0.915556 
0.869829 
0.910001 
0.887046 
0.892784 
0.915740 
0.892784 
0.927218 
0.892784 
0.927218 
0.892784 
0.915740 
0.892784 
0.781831 
0.864274 
0.946717 
0.864274 
0.881307 
0.921110 
0.858535 
0.921110 
0.881307 
0.887046 
0.910001 
0.869829 
0.915556 
0.869829 
0.910001 
0.887046 
0.892784 
0.915740 
0.892784 
0.927218 
0.892784 
0.927218 
0.892784 
0.915740 
0.892784 
SCALARS DENSITY float 
LOOKUP_TABLE default 
200.000000 
200.000000 
200.000000 
200.000000 
200.000000 
200.000000 
200.000000 
200.000000 
200.000000 
200.000000 
200.000000 
200.000000 
200.000000 
200.000000 
200.000000 
200.000000 
200.000000 
200.000000 
200.000000 
200.000000 
200.000000 
200.000000 
200.000000 
200.000000 
200.000000 
200.000000 
200.000000 
200.000000 
200.000000 
200.000000 
200.000000 
200.000000 
200.000000 
200.000000 
200.000000 
200.000000 
200.000000 
200.000000 
200.000000 
200.000000 
200.000000 
200.000000 
200.000000 
200.000000 
200.000000 
200.000000 
200.000000 
200.000000 
200.000000 
200.000000 
200.000000 
200.000000 
200.000000 
200.000000 
200.000000 
200.000000 
200.000000 
200.000000 
200.000000 
200.000000 
200.000000 
200.000000 
200.000000 
200.000000 
200.000000 
200.000000 
200.000000 
200.000000 
200.000000 
200.000000 
200.000000 
200.000000 
200.000000 
200.000000 
200.000000 
200.000000 
200.000000 
200.000000 
200.000000 
200.000000 
200.000000 
200.000000 
200.000000 
200.000000 
200.000000 
200.000000 
200.000000 
200.000000 
200.000000 
200.000000 
200.000000 
200.000000 
200.000000 
200.000000 
200.000000 
200.000000 
200.000000 
200.000000 
200.000000 
200.000000 
200.000000 
200.000000 
200.000000 
200.000000 
200.000000 
200.000000 
200.000000 
200.000000 
200.000000 
200.000000 
200.000000 
200.000000 
200.000000 
200.000000 
200.000000 
200.000000 
200.000000 
200.000000 
200.000000 
200.000000 
200.000000 
200.000000 
200.000000 
200.000000 
200.000000 
200.000000 
200.000000 
200.000000 
200.000000 
200.000000 
200.000000 
200.000000 
200.000000 
200.000000 
200.000000 
200.000000 
200.000000 
200.000000 
200.000000 
200.000000 
200.000000 
200.000000 
200.000000 
200.000000 
200.000000 
200.000000 
200.000000 
200.000000 
200.000000 
200.000000 
200.000000 
200.000000 
200.000000 
200.000000 
200.000000 
200.000000 
200.000000 
200.000000 
200.000000 
200.000000 
200.000000 
200.000000 
200.000000 
200.000000 
200.000000 
200.000000 
200.000000 
200.000000 
200.000000 
200.000000 
200.000000 
200.000000 
200.000000 
200.000000 
200.000000 
SCALARS ELEM_i float 
LOOKUP_TABLE default 
168 
196 
168 
169 
196 
196 
196 
169 
169 
223 
196 
197 
197 
197 
170 
170 
224 
224 
224 
197 
198 
197 
198 
171 
171 
168 
195 
195 
195 
222 
195 
222 
195 
196 
221 
222 
222 
222 
223 
223 
223 
248 
248 
249 
249 
249 
250 
250 
223 
224 
167 
194 
194 
194 
193 
194 
194 
194 
221 
193 
193 
220 
220 
220 
221 
221 
192 
219 
219 
220 
220 
220 
247 
248 
248 
167 
167 
167 
167 
139 
166 
166 
166 
193 
138 
139 
165 
165 
165 
193 
192 
138 
138 
138 
165 
165 
165 
192 
192 
192 
167 
140 
140 
140 
113 
140 
140 
140 
139 
113 
113 
112 
112 
112 
139 
139 
86 
86 
85 
112 
112 
112 
111 
111 
138 
168 
141 
141 
141 
142 
141 
114 
141 
114 
115 
115 
115 
114 
114 
114 
113 
116 
115 
88 
88 
87 
87 
87 
86 
86 
168 
169 
168 
142 
169 
169 
142 
142 
142 
170 
170 
143 
143 
143 
142 
115 
171 
171 
144 
143 
144 
143 
116 
116 
116 
VECTORS VELOCITY float 
-0.000000 -6.384348 0.000000 
-0.000000 -6.384348 0.000000 
-0.000000 -6.384348 0.000000 
-0.000000 -6.384348 0.000000 
0.000000 -6.384348 0.000000 
0.000000 -6.384348 0.000000 
0.000000 -6.384348 0.000000 
0.000000 -6.384348 0.000000 
0.000000 -6.384348 0.000000 
0.000000 -6.384348 0.000000 
0.000000 -6.384348 0.000000 
0.000000 -6.384348 0.000000 
0.000000 -6.384348 0.000000 
0.000000 -6.384348 0.000000 
0.000000 -6.384348 0.000000 
0.000000 -6.384348 0.000000 
0.000000 -6.384348 0.000000 
0.000000 -6.384348 0.000000 
0.000000 -6.384348 0.000000 
0.000000 -6.384348 0.000000 
0.000000 -6.384348 0.000000 
0.000000 -6.384348 0.000000 
0.000000 -6.384348 0.000000 
0.000000 -6.384348 0.000000 
0.000000 -6.384348 0.000000 
-0.000000 -6.384348 0.000000 
0.000000 -6.384348 0.000000 
-0.000000 -6.384348 0.000000 
0.000000 -6.384348 0.000000 
0.000000 -6.384348 0.000000 
0.000000 -6.384348 0.000000 
0.000000 -6.384348 0.000000 
0.000000 -6.384348 0.000000 
-0.000000 -6.384348 0.000000 
-0.000000 -6.384348 0.000000 
-0.000000 -6.384348 0.000000 
-0.000000 -6.384348 0.000000 
-0.000000 -6.384348 0.000000 
-0.000000 -6.384348 0.000000 
-0.000000 -6.384348 0.000000 
0.000000 -6.384348 0.000000 
0.000000 -6.384348 0.000000 
-0.000000 -6.384348 0.000000 
-0.000000 -6.384348 0.000000 
-0.000000 -6.384348 0.000000 
0.000000 -6.384348 0.000000 
0.000000 -6.384348 0.000000 
0.000000 -6.384348 0.000000 
0.000000 -6.384348 0.000000 
0.000000 -6.384348 0.000000 
-0.000000 -6.384348 0.000000 
-0.000000 -6.384348 0.000000 
-0.000000 -6.384348 0.000000 
-0.000000 -6.384348 0.000000 
0.000000 -6.384348 0.000000 
-0.000000 -6.384348 0.000000 
-0.000000 -6.384348 0.000000 
-0.000000 -6.384348 0.000000 
0.000000 -6.384348 0.000000 
0.000000 -6.384348 0.000000 
0.000000 -6.384348 0.000000 
0.000000 -6.384348 0.000000 
-0.000000 -6.384348 0.000000 
-0.000000 -6.384348 0.000000 
-0.000000 -6.384348 0.000000 
-0.000000 -6.384348 0.000000 
-0.000000 -6.384348 0.000000 
0.000000 -6.384348 0.000000 
-0.000000 -6.384348 0.000000 
0.000000 -6.384348 0.000000 
-0.000000 -6.384348 0.000000 
-0.000000 -6.384348 0.000000 
-0.000000 -6.384348 0.000000 
-0.000000 -6.384348 0.000000 
0.000000 -6.384348 0.000000 
0.000000 -6.384348 0.000000 
0.000000 -6.384348 0.000000 
0.000000 -6.384348 0.000000 
0.000000 -6.384348 0.000000 
-0.000000 -6.384348 0.000000 
-0.000000 -6.384348 0.000000 
-0.000000 -6.384348 0.000000 
-0.000000 -6.384348 0.000000 
0.000000 -6.384348 0.000000 
-0.000000 -6.384348 0.000000 
-0.000000 -6.384348 0.000000 
0.000000 -6.384348 0.000000 
-0.000000 -6.384348 0.000000 
-0.000000 -6.384348 0.000000 
-0.000000 -6.384348 0.000000 
0.000000 -6.384348 0.000000 
-0.000000 -6.384348 0.000000 
-0.000000 -6.384348 0.000000 
0.000000 -6.384348 0.000000 
0.000000 -6.384348 0.000000 
-0.000000 -6.384348 0.000000 
-0.000000 -6.384348 0.000000 
-0.000000 -6.384348 0.000000 
-0.000000 -6.384348 0.000000 
-0.000000 -6.384348 0.000000 
0.000000 -6.384348 0.000000 
0.000000 -6.384348 0.000000 
0.000000 -6.384348 0.000000 
0.000000 -6.384348 0.000000 
-0.000000 -6.384348 0.000000 
-0.000000 -6.384348 0.000000 
-0.000000 -6.384348 0.000000 
0.000000 -6.384348 0.000000 
-0.000000 -6.384348 0.000000 
-0.000000 -6.384348 0.000000 
-0.000000 -6.384348 0.000000 
-0.000000 -6.384348 0.000000 
-0.000000 -6.384348 0.000000 
-0.000000 -6.384348 0.000000 
-0.000000 -6.384348 0.000000 
-0.000000 -6.384348 0.000000 
0.000000 -6.384348 0.000000 
0.000000 -6.384348 0.000000 
0.000000 -6.384348 0.000000 
-0.000000 -6.384348 0.000000 
-0.000000 -6.384348 0.000000 
-0.000000 -6.384348 0.000000 
-0.000000 -6.384348 0.000000 
-0.000000 -6.384348 0.000000 
-0.000000 -6.384348 0.000000 
-0.000000 -6.384348 0.000000 
-0.000000 -6.384348 0.000000 
-0.000000 -6.384348 0.000000 
0.000000 -6.384348 0.000000 
0.000000 -6.384348 0.000000 
0.000000 -6.384348 0.000000 
0.000000 -6.384348 0.000000 
0.000000 -6.384348 0.000000 
0.000000 -6.384348 0.000000 
-0.000000 -6.384348 0.000000 
0.000000 -6.384348 0.000000 
-0.000000 -6.384348 0.000000 
-0.000000 -6.384348 0.000000 
-0.000000 -6.384348 0.000000 
-0.000000 -6.384348 0.000000 
0.000000 -6.384348 0.000000 
-0.000000 -6.384348 0.000000 
-0.000000 -6.384348 0.000000 
-0.000000 -6.384348 0.000000 
-0.000000 -6.384348 0.000000 
0.000000 -6.384348 0.000000 
0.000000 -6.384348 0.000000 
0.000000 -6.384348 0.000000 
-0.000000 -6.384348 0.000000 
-0.000000 -6.384348 0.000000 
-0.000000 -6.384348 0.000000 
-0.000000 -6.384348 0.000000 
-0.000000 -6.384348 0.000000 
-0.000000 -6.384348 0.000000 
0.000000 -6.384348 0.000000 
0.000000 -6.384348 0.000000 
0.000000 -6.384348 0.000000 
0.000000 -6.384348 0.000000 
0.000000 -6.384348 0.000000 
0.000000 -6.384348 0.000000 
0.000000 -6.384348 0.000000 
0.000000 -6.384348 0.000000 
0.000000 -6.384348 0.000000 
0.000000 -6.384348 0.000000 
0.000000 -6.384348 0.000000 
-0.000000 -6.384348 0.000000 
0.000000 -6.384348 0.000000 
0.000000 -6.384348 0.000000 
0.000000 -6.384348 0.000000 
0.000000 -6.384348 0.000000 
-0.000000 -6.384348 0.000000 
0.000000 -6.384348 0.000000 
0.000000 -6.384348 0.000000 
0.000000 -6.384348 0.000000 
0.000000 -6.384348 0.000000 
TENSORS STRESS float 
-0.000000 -0.000000 0.000000 
0.000000 -0.000000 0.000000 
0.000000 0.000000 0.000000 

0.000000 -0.000000 0.000000 
0.000000 0.000000 0.000000 
0.000000 0.000000 0.000000 

-0.000000 0.000000 0.000000 
0.000000 -0.000000 0.000000 
0.000000 0.000000 0.000000 

0.000000 0.000000 0.000000 
0.000000 0.000000 0.000000 
0.000000 0.000000 0.000000 

0.000000 -0.000000 0.000000 
0.000000 0.000000 0.000000 
0.000000 0.000000 0.000000 

0.000000 -0.000000 0.000000 
0.000000 0.000000 0.000000 
0.000000 0.000000 0.000000 

0.000000 -0.000000 0.000000 
0.000000 0.000000 0.000000 
0.000000 0.000000 0.000000 

-0.000000 0.000000 0.000000 
0.000000 -0.000000 0.000000 
0.000000 0.000000 0.000000 

0.000000 0.000000 0.000000 
0.000000 0.000000 0.000000 
0.000000 0.000000 0.000000 

-0.000000 0.000000 0.000000 
0.000000 -0.000000 0.000000 
0.000000 0.000000 0.000000 

-0.000000 -0.000000 0.000000 
0.000000 -0.000000 0.000000 
0.000000 0.000000 0.000000 

-0.000000 0.000000 0.000000 
0.000000 -0.000000 0.000000 
0.000000 0.000000 0.000000 

-0.000000 0.000000 0.000000 
0.000000 0.000000 0.000000 
0.000000 0.000000 0.000000 

-0.000000 0.000000 0.000000 
0.000000 0.000000 0.000000 
0.000000 0.000000 0.000000 

0.000000 0.000000 0.000000 
0.000000 0.000000 0.000000 
0.000000 0.000000 0.000000 

0.000000 0.000000 0.000000 
0.000000 0.000000 0.000000 
0.000000 0.000000 0.000000 

0.000000 -0.000000 0.000000 
0.000000 0.000000 0.000000 
0.000000 0.000000 0.000000 

-0.000000 -0.000000 0.000000 
0.000000 -0.000000 0.000000 
0.000000 0.000000 0.000000 

-0.000000 -0.000000 0.000000 
0.000000 -0.000000 0.000000 
0.000000 0.000000 0.000000 

-0.000000 -0.000000 0.000000 
0.000000 -0.000000 0.000000 
0.000000 0.000000 0.000000 

0.000000 -0.000000 0.000000 
0.000000 0.000000 0.000000 
0.000000 0.000000 0.000000 

-0.000000 -0.000000 0.000000 
0.000000 -0.000000 0.000000 
0.000000 0.000000 0.000000 

-0.000000 0.000000 0.000000 
0.000000 -0.000000 0.000000 
0.000000 0.000000 0.000000 

0.000000 0.000000 0.000000 
0.000000 0.000000 0.000000 
0.000000 0.000000 0.000000 

0.000000 0.000000 0.000000 
0.000000 0.000000 0.000000 
0.000000 0.000000 0.000000 

-0.000000 -0.000000 0.000000 
0.000000 -0.000000 0.000000 
0.000000 0.000000 0.000000 

0.000000 -0.000000 0.000000 
0.000000 0.000000 0.000000 
0.000000 0.000000 0.000000 

0.000000 -0.000000 0.000000 
0.000000 0.000000 0.000000 
0.000000 0.000000 0.000000 

-0.000000 -0.000000 0.000000 
0.000000 -0.000000 0.000000 
0.000000 0.000000 0.000000 

0.000000 -0.000000 0.000000 
0.000000 0.000000 0.000000 
0.000000 0.000000 0.000000 

0.000000 -0.000000 0.000000 
0.000000 0.000000 0.000000 
0.000000 0.000000 0.000000 

0.000000 0.000000 0.000000 
0.000000 0.000000 0.000000 
0.000000 0.000000 0.000000 

0.000000 -0.000000 0.000000 
0.000000 0.000000 0.000000 
0.000000 0.000000 0.000000 

0.000000 -0.000000 0.000000 
0.000000 0.000000 0.000000 
0.000000 0.000000 0.000000 

0.000000 0.000000 0.000000 
0.000000 0.000000 0.000000 
0.000000 0.000000 0.000000 

0.000000 0.000000 0.000000 
0.000000 0.000000 0.000000 
0.000000 0.000000 0.000000 

-0.000000 0.000000 0.000000 
0.000000 -0.000000 0.000000 
0.000000 0.000000 0.000000 

-0.000000 0.000000 0.000000 
0.000000 0.000000 0.000000 
0.000000 0.000000 0.000000 

-0.000000 0.000000 0.000000 
0.000000 0.000000 0.000000 
0.000000 0.000000 0.000000 

0.000000 -0.000000 0.000000 
0.000000 0.000000 0.000000 
0.000000 0.000000 0.000000 

-0.000000 -0.000000 0.000000 
0.000000 -0.000000 0.000000 
0.000000 0.000000 0.000000 

-0.000000 -0.000000 0.000000 
0.000000 -0.000000 0.000000 
0.000000 0.000000 0.000000 

-0.000000 -0.000000 0.000000 
0.000000 -0.000000 0.000000 
0.000000 0.000000 0.000000 

0.000000 0.000000 0.000000 
0.000000 0.000000 0.000000 
0.000000 0.000000 0.000000 

0.000000 0.000000 0.000000 
0.000000 0.000000 0.000000 
0.000000 0.000000 0.000000 

-0.000000 -0.000000 0.000000 
0.000000 0.000000 0.000000 
0.000000 0.000000 0.000000 

-0.000000 -0.000000 0.000000 
0.000000 -0.000000 0.000000 
0.000000 0.000000 0.000000 

-0.000000 -0.000000 0.000000 
0.000000 -0.000000 0.000000 
0.000000 0.000000 0.000000 

-0.000000 -0.000000 0.000000 
0.000000 -0.000000 0.000000 
0.000000 0.000000 0.000000 

0.000000 -0.000000 0.000000 
0.000000 0.000000 0.000000 
0.000000 0.000000 0.000000 

0.000000 -0.000000 0.000000 
0.000000 0.000000 0.000000 
0.000000 0.000000 0.000000 

0.000000 -0.000000 0.000000 
0.000000 0.000000 0.000000 
0.000000 0.000000 0.000000 

0.000000 -0.000000 0.000000 
0.000000 0.000000 0.000000 
0.000000 0.000000 0.000000 

-0.000000 -0.000000 0.000000 
0.000000 -0.000000 0.000000 
0.000000 0.000000 0.000000 

-0.000000 0.000000 0.000000 
0.000000 -0.000000 0.000000 
0.000000 0.000000 0.000000 

0.000000 -0.000000 0.000000 
0.000000 0.000000 0.000000 
0.000000 0.000000 0.000000 

-0.000000 -0.000000 0.000000 
0.000000 -0.000000 0.000000 
0.000000 0.000000 0.000000 

0.000000 -0.000000 0.000000 
0.000000 0.000000 0.000000 
0.000000 0.000000 0.000000 

0.000000 -0.000000 0.000000 
0.000000 0.000000 0.000000 
0.000000 0.000000 0.000000 

0.000000 0.000000 0.000000 
0.000000 0.000000 0.000000 
0.000000 0.000000 0.000000 

0.000000 0.000000 0.000000 
0.000000 0.000000 0.000000 
0.000000 0.000000 0.000000 

0.000000 0.000000 0.000000 
0.000000 0.000000 0.000000 
0.000000 0.000000 0.000000 

0.000000 -0.000000 0.000000 
0.000000 0.000000 0.000000 
0.000000 0.000000 0.000000 

0.000000 -0.000000 0.000000 
0.000000 0.000000 0.000000 
0.000000 0.000000 0.000000 

-0.000000 0.000000 0.000000 
0.000000 -0.000000 0.000000 
0.000000 0.000000 0.000000 

-0.000000 0.000000 0.000000 
0.000000 -0.000000 0.000000 
0.000000 0.000000 0.000000 

-0.000000 0.000000 0.000000 
0.000000 -0.000000 0.000000 
0.000000 0.000000 0.000000 

-0.000000 0.000000 0.000000 
0.000000 -0.000000 0.000000 
0.000000 0.000000 0.000000 

0.000000 0.000000 0.000000 
0.000000 0.000000 0.000000 
0.000000 0.000000 0.000000 

0.000000 0.000000 0.000000 
0.000000 0.000000 0.000000 
0.000000 0.000000 0.000000 

-0.000000 0.000000 0.000000 
0.000000 -0.000000 0.000000 
0.000000 0.000000 0.000000 

0.000000 0.000000 0.000000 
0.000000 0.000000 0.000000 
0.000000 0.000000 0.000000 

0.000000 0.000000 0.000000 
0.000000 0.000000 0.000000 
0.000000 0.000000 0.000000 

-0.000000 -0.000000 0.000000 
0.000000 -0.000000 0.000000 
0.000000 0.000000 0.000000 

-0.000000 -0.000000 0.000000 
0.000000 -0.000000 0.000000 
0.000000 0.000000 0.000000 

-0.000000 -0.000000 0.000000 
0.000000 -0.000000 0.000000 
0.000000 0.000000 0.000000 

0.000000 0.000000 0.000000 
0.000000 0.000000 0.000000 
0.000000 0.000000 0.000000 

-0.000000 -0.000000 0.000000 
0.000000 -0.000000 0.000000 
0.000000 0.000000 0.000000 

0.000000 -0.000000 0.000000 
0.000000 0.000000 0.000000 
0.000000 0.000000 0.000000 

-0.000000 -0.000000 0.000000 
0.000000 -0.000000 0.000000 
0.000000 0.000000 0.000000 

0.000000 0.000000 0.000000 
0.000000 0.000000 0.000000 
0.000000 0.000000 0.000000 

-0.000000 0.000000 0.000000 
0.000000 -0.000000 0.000000 
0.000000 0.000000 0.000000 

0.000000 0.000000 0.000000 
0.000000 0.000000 0.000000 
0.000000 0.000000 0.000000 

-0.000000 0.000000 0.000000 
0.000000 -0.000000 0.000000 
0.000000 0.000000 0.000000 

-0.000000 0.000000 0.000000 
0.000000 -0.000000 0.000000 
0.000000 0.000000 0.000000 

0.000000 0.000000 0.000000 
0.000000 0.000000 0.000000 
0.000000 0.000000 0.000000 

0.000000 0.000000 0.000000 
0.000000 0.000000 0.000000 
0.000000 0.000000 0.000000 

0.000000 0.000000 0.000000 
0.000000 0.000000 0.000000 
0.000000 0.000000 0.000000 

-0.000000 0.000000 0.000000 
0.000000 -0.000000 0.000000 
0.000000 0.000000 0.000000 

0.000000 0.000000 0.000000 
0.000000 0.000000 0.000000 
0.000000 0.000000 0.000000 

-0.000000 0.000000 0.000000 
0.000000 -0.000000 0.000000 
0.000000 0.000000 0.000000 

-0.000000 -0.000000 0.000000 
0.000000 -0.000000 0.000000 
0.000000 0.000000 0.000000 

0.000000 -0.000000 0.000000 
0.000000 0.000000 0.000000 
0.000000 0.000000 0.000000 

-0.000000 -0.000000 0.000000 
0.000000 -0.000000 0.000000 
0.000000 0.000000 0.000000 

-0.000000 -0.000000 0.000000 
0.000000 -0.000000 0.000000 
0.000000 0.000000 0.000000 

0.000000 0.000000 0.000000 
0.000000 0.000000 0.000000 
0.000000 0.000000 0.000000 

-0.000000 0.000000 0.000000 
0.000000 -0.000000 0.000000 
0.000000 0.000000 0.000000 

-0.000000 0.000000 0.000000 
0.000000 -0.000000 0.000000 
0.000000 0.000000 0.000000 

-0.000000 -0.000000 0.000000 
0.000000 -0.000000 0.000000 
0.000000 0.000000 0.000000 

0.000000 0.000000 0.000000 
0.000000 0.000000 0.000000 
0.000000 0.000000 0.000000 

0.000000 -0.000000 0.000000 
0.000000 0.000000 0.000000 
0.000000 0.000000 0.000000 

-0.000000 0.000000 0.000000 
0.000000 -0.000000 0.000000 
0.000000 0.000000 0.000000 

-0.000000 0.000000 0.000000 
0.000000 -0.000000 0.000000 
0.000000 0.000000 0.000000 

0.000000 -0.000000 0.000000 
0.000000 0.000000 0.000000 
0.000000 0.000000 0.000000 

-0.000000 0.000000 0.000000 
0.000000 -0.000000 0.000000 
0.000000 0.000000 0.000000 

0.000000 -0.000000 0.000000 
0.000000 0.000000 0.000000 
0.000000 0.000000 0.000000 

0.000000 -0.000000 0.000000 
0.000000 0.000000 0.000000 
0.000000 0.000000 0.000000 

0.000000 -0.000000 0.000000 
0.000000 0.000000 0.000000 
0.000000 0.000000 0.000000 

0.000000 -0.000000 0.000000 
0.000000 0.000000 0.000000 
0.000000 0.000000 0.000000 

0.000000 0.000000 0.000000 
0.000000 0.000000 0.000000 
0.000000 0.000000 0.000000 

-0.000000 0.000000 0.000000 
0.000000 -0.000000 0.000000 
0.000000 0.000000 0.000000 

0.000000 0.000000 0.000000 
0.000000 0.000000 0.000000 
0.000000 0.000000 0.000000 

-0.000000 0.000000 0.000000 
0.000000 -0.000000 0.000000 
0.000000 0.000000 0.000000 

0.000000 0.000000 0.000000 
0.000000 0.000000 0.000000 
0.000000 0.000000 0.000000 

0.000000 -0.000000 0.000000 
0.000000 0.000000 0.000000 
0.000000 0.000000 0.000000 

-0.000000 0.000000 0.000000 
0.000000 -0.000000 0.000000 
0.000000 0.000000 0.000000 

-0.000000 0.000000 0.000000 
0.000000 -0.000000 0.000000 
0.000000 0.000000 0.000000 

0.000000 -0.000000 0.000000 
0.000000 0.000000 0.000000 
0.000000 0.000000 0.000000 

-0.000000 0.000000 0.000000 
0.000000 0.000000 0.000000 
0.000000 0.000000 0.000000 

0.000000 0.000000 0.000000 
0.000000 0.000000 0.000000 
0.000000 0.000000 0.000000 

0.000000 0.000000 0.000000 
0.000000 0.000000 0.000000 
0.000000 0.000000 0.000000 

0.000000 0.000000 0.000000 
0.000000 0.000000 0.000000 
0.000000 0.000000 0.000000 

-0.000000 0.000000 0.000000 
0.000000 -0.000000 0.000000 
0.000000 0.000000 0.000000 

-0.000000 0.000000 0.000000 
0.000000 -0.000000 0.000000 
0.000000 0.000000 0.000000 

0.000000 -0.000000 0.000000 
0.000000 0.000000 0.000000 
0.000000 0.000000 0.000000 

0.000000 -0.000000 0.000000 
0.000000 0.000000 0.000000 
0.000000 0.000000 0.000000 

-0.000000 -0.000000 0.000000 
0.000000 -0.000000 0.000000 
0.000000 0.000000 0.000000 

0.000000 -0.000000 0.000000 
0.000000 0.000000 0.000000 
0.000000 0.000000 0.000000 

0.000000 -0.000000 0.000000 
0.000000 0.000000 0.000000 
0.000000 0.000000 0.000000 

0.000000 0.000000 0.000000 
0.000000 0.000000 0.000000 
0.000000 0.000000 0.000000 

0.000000 0.000000 0.000000 
0.000000 0.000000 0.000000 
0.000000 0.000000 0.000000 

-0.000000 -0.000000 0.000000 
0.000000 -0.000000 0.000000 
0.000000 0.000000 0.000000 

0.000000 -0.000000 0.000000 
0.000000 0.000000 0.000000 
0.000000 0.000000 0.000000 

-0.000000 0.000000 0.000000 
0.000000 -0.000000 0.000000 
0.000000 0.000000 0.000000 

0.000000 -0.000000 0.000000 
0.000000 0.000000 0.000000 
0.000000 0.000000 0.000000 

-0.000000 -0.000000 0.000000 
0.000000 -0.000000 0.000000 
0.000000 0.000000 0.000000 

0.000000 -0.000000 0.000000 
0.000000 0.000000 0.000000 
0.000000 0.000000 0.000000 

-0.000000 -0.000000 0.000000 
0.000000 -0.000000 0.000000 
0.000000 0.000000 0.000000 

-0.000000 0.000000 0.000000 
0.000000 -0.000000 0.000000 
0.000000 0.000000 0.000000 

-0.000000 0.000000 0.000000 
0.000000 -0.000000 0.000000 
0.000000 0.000000 0.000000 

0.000000 0.000000 0.000000 
0.000000 0.000000 0.000000 
0.000000 0.000000 0.000000 

0.000000 0.000000 0.000000 
0.000000 0.000000 0.000000 
0.000000 0.000000 0.000000 

0.000000 -0.000000 0.000000 
0.000000 0.000000 0.000000 
0.000000 0.000000 0.000000 

-0.000000 0.000000 0.000000 
0.000000 -0.000000 0.000000 
0.000000 0.000000 0.000000 

-0.000000 0.000000 0.000000 
0.000000 -0.000000 0.000000 
0.000000 0.000000 0.000000 

-0.000000 -0.000000 0.000000 
0.000000 -0.000000 0.000000 
0.000000 0.000000 0.000000 

-0.000000 0.000000 0.000000 
0.000000 -0.000000 0.000000 
0.000000 0.000000 0.000000 

-0.000000 0.000000 0.000000 
0.000000 -0.000000 0.000000 
0.000000 0.000000 0.000000 

0.000000 -0.000000 0.000000 
0.000000 0.000000 0.000000 
0.000000 0.000000 0.000000 

-0.000000 -0.000000 0.000000 
0.000000 -0.000000 0.000000 
0.000000 0.000000 0.000000 

-0.000000 -0.000000 0.000000 
0.000000 -0.000000 0.000000 
0.000000 0.000000 0.000000 

-0.000000 0.000000 0.000000 
0.000000 -0.000000 0.000000 
0.000000 0.000000 0.000000 

-0.000000 0.000000 0.000000 
0.000000 -0.000000 0.000000 
0.000000 0.000000 0.000000 

-0.000000 0.000000 0.000000 
0.000000 -0.000000 0.000000 
0.000000 0.000000 0.000000 

0.000000 0.000000 0.000000 
0.000000 0.000000 0.000000 
0.000000 0.000000 0.000000 

-0.000000 -0.000000 0.000000 
0.000000 0.000000 0.000000 
0.000000 0.000000 0.000000 

-0.000000 0.000000 0.000000 
0.000000 -0.000000 0.000000 
0.000000 0.000000 0.000000 

-0.000000 0.000000 0.000000 
0.000000 -0.000000 0.000000 
0.000000 0.000000 0.000000 

-0.000000 0.000000 0.000000 
0.000000 -0.000000 0.000000 
0.000000 0.000000 0.000000 

0.000000 0.000000 0.000000 
0.000000 0.000000 0.000000 
0.000000 0.000000 0.000000 

0.000000 0.000000 0.000000 
0.000000 0.000000 0.000000 
0.000000 0.000000 0.000000 

-0.000000 0.000000 0.000000 
0.000000 -0.000000 0.000000 
0.000000 0.000000 0.000000 

0.000000 0.000000 0.000000 
0.000000 0.000000 0.000000 
0.000000 0.000000 0.000000 

0.000000 0.000000 0.000000 
0.000000 0.000000 0.000000 
0.000000 0.000000 0.000000 

-0.000000 0.000000 0.000000 
0.000000 -0.000000 0.000000 
0.000000 0.000000 0.000000 

-0.000000 -0.000000 0.000000 
0.000000 -0.000000 0.000000 
0.000000 0.000000 0.000000 

0.000000 0.000000 0.000000 
0.000000 0.000000 0.000000 
0.000000 0.000000 0.000000 

0.000000 0.000000 0.000000 
0.000000 0.000000 0.000000 
0.000000 0.000000 0.000000 

-0.000000 0.000000 0.000000 
0.000000 -0.000000 0.000000 
0.000000 0.000000 0.000000 

0.000000 0.000000 0.000000 
0.000000 0.000000 0.000000 
0.000000 0.000000 0.000000 

-0.000000 0.000000 0.000000 
0.000000 -0.000000 0.000000 
0.000000 0.000000 0.000000 

0.000000 0.000000 0.000000 
0.000000 0.000000 0.000000 
0.000000 0.000000 0.000000 

-0.000000 0.000000 0.000000 
0.000000 -0.000000 0.000000 
0.000000 0.000000 0.000000 

0.000000 0.000000 0.000000 
0.000000 0.000000 0.000000 
0.000000 0.000000 0.000000 

0.000000 0.000000 0.000000 
0.000000 0.000000 0.000000 
0.000000 0.000000 0.000000 

TENSORS STRAIN float 
-0.000000 -0.000000 0.000000 
0.000000 -0.000000 0.000000 
0.000000 0.000000 0.000000 

-0.000000 -0.000000 0.000000 
0.000000 0.000000 0.000000 
0.000000 0.000000 0.000000 

0.000000 0.000000 0.000000 
0.000000 -0.000000 0.000000 
0.000000 0.000000 0.000000 

0.000000 0.000000 0.000000 
0.000000 -0.000000 0.000000 
0.000000 0.000000 0.000000 

-0.000000 -0.000000 0.000000 
0.000000 0.000000 0.000000 
0.000000 0.000000 0.000000 

-0.000000 -0.000000 0.000000 
0.000000 0.000000 0.000000 
0.000000 0.000000 0.000000 

-0.000000 -0.000000 0.000000 
0.000000 0.000000 0.000000 
0.000000 0.000000 0.000000 

-0.000000 0.000000 0.000000 
0.000000 -0.000000 0.000000 
0.000000 0.000000 0.000000 

-0.000000 0.000000 0.000000 
0.000000 0.000000 0.000000 
0.000000 0.000000 0.000000 

-0.000000 0.000000 0.000000 
0.000000 0.000000 0.000000 
0.000000 0.000000 0.000000 

-0.000000 -0.000000 0.000000 
0.000000 -0.000000 0.000000 
0.000000 0.000000 0.000000 

-0.000000 0.000000 0.000000 
0.000000 -0.000000 0.000000 
0.000000 0.000000 0.000000 

-0.000000 0.000000 0.000000 
0.000000 0.000000 0.000000 
0.000000 0.000000 0.000000 

-0.000000 0.000000 0.000000 
0.000000 0.000000 0.000000 
0.000000 0.000000 0.000000 

-0.000000 0.000000 0.000000 
0.000000 0.000000 0.000000 
0.000000 0.000000 0.000000 

0.000000 0.000000 0.000000 
0.000000 -0.000000 0.000000 
0.000000 0.000000 0.000000 

-0.000000 -0.000000 0.000000 
0.000000 0.000000 0.000000 
0.000000 0.000000 0.000000 

-0.000000 -0.000000 0.000000 
0.000000 -0.000000 0.000000 
0.000000 0.000000 0.000000 

-0.000000 -0.000000 0.000000 
0.000000 0.000000 0.000000 
0.000000 0.000000 0.000000 

-0.000000 -0.000000 0.000000 
0.000000 0.000000 0.000000 
0.000000 0.000000 0.000000 

-0.000000 -0.000000 0.000000 
0.000000 0.000000 0.000000 
0.000000 0.000000 0.000000 

-0.000000 -0.000000 0.000000 
0.000000 -0.000000 0.000000 
0.000000 0.000000 0.000000 

0.000000 0.000000 0.000000 
0.000000 -0.000000 0.000000 
0.000000 0.000000 0.000000 

0.000000 0.000000 0.000000 
0.000000 0.000000 0.000000 
0.000000 0.000000 0.000000 

-0.000000 0.000000 0.000000 
0.000000 0.000000 0.000000 
0.000000 0.000000 0.000000 

-0.000000 -0.000000 0.000000 
0.000000 -0.000000 0.000000 
0.000000 0.000000 0.000000 

-0.000000 -0.000000 0.000000 
0.000000 0.000000 0.000000 
0.000000 0.000000 0.000000 

-0.000000 -0.000000 0.000000 
0.000000 0.000000 0.000000 
0.000000 0.000000 0.000000 

-0.000000 -0.000000 0.000000 
0.000000 0.000000 0.000000 
0.000000 0.000000 0.000000 

-0.000000 -0.000000 0.000000 
0.000000 0.000000 0.000000 
0.000000 0.000000 0.000000 

-0.000000 -0.000000 0.000000 
0.000000 0.000000 0.000000 
0.000000 0.000000 0.000000 

-0.000000 0.000000 0.000000 
0.000000 0.000000 0.000000 
0.000000 0.000000 0.000000 

-0.000000 -0.000000 0.000000 
0.000000 0.000000 0.000000 
0.000000 0.000000 0.000000 

-0.000000 -0.000000 0.000000 
0.000000 0.000000 0.000000 
0.000000 0.000000 0.000000 

-0.000000 0.000000 0.000000 
0.000000 0.000000 0.000000 
0.000000 0.000000 0.000000 

-0.000000 0.000000 0.000000 
0.000000 0.000000 0.000000 
0.000000 0.000000 0.000000 

-0.000000 0.000000 0.000000 
0.000000 0.000000 0.000000 
0.000000 0.000000 0.000000 

-0.000000 0.000000 0.000000 
0.000000 0.000000 0.000000 
0.000000 0.000000 0.000000 

-0.000000 0.000000 0.000000 
0.000000 0.000000 0.000000 
0.000000 0.000000 0.000000 

-0.000000 -0.000000 0.000000 
0.000000 0.000000 0.000000 
0.000000 0.000000 0.000000 

-0.000000 -0.000000 0.000000 
0.000000 0.000000 0.000000 
0.000000 0.000000 0.000000 

0.000000 -0.000000 0.000000 
0.000000 -0.000000 0.000000 
0.000000 0.000000 0.000000 

0.000000 -0.000000 0.000000 
0.000000 -0.000000 0.000000 
0.000000 0.000000 0.000000 

0.000000 0.000000 0.000000 
0.000000 0.000000 0.000000 
0.000000 0.000000 0.000000 

-0.000000 0.000000 0.000000 
0.000000 0.000000 0.000000 
0.000000 0.000000 0.000000 

-0.000000 -0.000000 0.000000 
0.000000 0.000000 0.000000 
0.000000 0.000000 0.000000 

-0.000000 -0.000000 0.000000 
0.000000 0.000000 0.000000 
0.000000 0.000000 0.000000 

0.000000 -0.000000 0.000000 
0.000000 -0.000000 0.000000 
0.000000 0.000000 0.000000 

-0.000000 -0.000000 0.000000 
0.000000 0.000000 0.000000 
0.000000 0.000000 0.000000 

-0.000000 -0.000000 0.000000 
0.000000 0.000000 0.000000 
0.000000 0.000000 0.000000 

-0.000000 -0.000000 0.000000 
0.000000 0.000000 0.000000 
0.000000 0.000000 0.000000 

-0.000000 -0.000000 0.000000 
0.000000 0.000000 0.000000 
0.000000 0.000000 0.000000 

-0.000000 -0.000000 0.000000 
0.000000 0.000000 0.000000 
0.000000 0.000000 0.000000 

-0.000000 -0.000000 0.000000 
0.000000 0.000000 0.000000 
0.000000 0.000000 0.000000 

-0.000000 0.000000 0.000000 
0.000000 -0.000000 0.000000 
0.000000 0.000000 0.000000 

-0.000000 -0.000000 0.000000 
0.000000 0.000000 0.000000 
0.000000 0.000000 0.000000 

-0.000000 -0.000000 0.000000 
0.000000 -0.000000 0.000000 
0.000000 0.000000 0.000000 

-0.000000 -0.000000 0.000000 
0.000000 0.000000 0.000000 
0.000000 0.000000 0.000000 

0.000000 -0.000000 0.000000 
0.000000 0.000000 0.000000 
0.000000 0.000000 0.000000 

0.000000 0.000000 0.000000 
0.000000 0.000000 0.000000 
0.000000 0.000000 0.000000 

-0.000000 0.000000 0.000000 
0.000000 0.000000 0.000000 
0.000000 0.000000 0.000000 

0.000000 0.000000 0.000000 
0.000000 0.000000 0.000000 
0.000000 0.000000 0.000000 

0.000000 -0.000000 0.000000 
0.000000 -0.000000 0.000000 
0.000000 0.000000 0.000000 

0.000000 -0.000000 0.000000 
0.000000 0.000000 0.000000 
0.000000 0.000000 0.000000 

0.000000 0.000000 0.000000 
0.000000 -0.000000 0.000000 
0.000000 0.000000 0.000000 

0.000000 0.000000 0.000000 
0.000000 -0.000000 0.000000 
0.000000 0.000000 0.000000 

0.000000 0.000000 0.000000 
0.000000 -0.000000 0.000000 
0.000000 0.000000 0.000000 

-0.000000 0.000000 0.000000 
0.000000 -0.000000 0.000000 
0.000000 0.000000 0.000000 

-0.000000 0.000000 0.000000 
0.000000 0.000000 0.000000 
0.000000 0.000000 0.000000 

0.000000 0.000000 0.000000 
0.000000 -0.000000 0.000000 
0.000000 0.000000 0.000000 

0.000000 0.000000 0.000000 
0.000000 -0.000000 0.000000 
0.000000 0.000000 0.000000 

0.000000 0.000000 0.000000 
0.000000 -0.000000 0.000000 
0.000000 0.000000 0.000000 

0.000000 0.000000 0.000000 
0.000000 -0.000000 0.000000 
0.000000 0.000000 0.000000 

0.000000 -0.000000 0.000000 
0.000000 -0.000000 0.000000 
0.000000 0.000000 0.000000 

0.000000 -0.000000 0.000000 
0.000000 -0.000000 0.000000 
0.000000 0.000000 0.000000 

-0.000000 -0.000000 0.000000 
0.000000 -0.000000 0.000000 
0.000000 0.000000 0.000000 

-0.000000 0.000000 0.000000 
0.000000 0.000000 0.000000 
0.000000 0.000000 0.000000 

-0.000000 -0.000000 0.000000 
0.000000 0.000000 0.000000 
0.000000 0.000000 0.000000 

-0.000000 -0.000000 0.000000 
0.000000 0.000000 0.000000 
0.000000 0.000000 0.000000 

-0.000000 -0.000000 0.000000 
0.000000 -0.000000 0.000000 
0.000000 0.000000 0.000000 

-0.000000 0.000000 0.000000 
0.000000 0.000000 0.000000 
0.000000 0.000000 0.000000 

-0.000000 0.000000 0.000000 
0.000000 -0.000000 0.000000 
0.000000 0.000000 0.000000 

-0.000000 0.000000 0.000000 
0.000000 0.000000 0.000000 
0.000000 0.000000 0.000000 

-0.000000 0.000000 0.000000 
0.000000 -0.000000 0.000000 
0.000000 0.000000 0.000000 

0.000000 0.000000 0.000000 
0.000000 -0.000000 0.000000 
0.000000 0.000000 0.000000 

0.000000 0.000000 0.000000 
0.000000 0.000000 0.000000 
0.000000 0.000000 0.000000 

-0.000000 0.000000 0.000000 
0.000000 0.000000 0.000000 
0.000000 0.000000 0.000000 

-0.000000 0.000000 0.000000 
0.000000 0.000000 0.000000 
0.000000 0.000000 0.000000 

-0.000000 0.000000 0.000000 
0.000000 -0.000000 0.000000 
0.000000 0.000000 0.000000 

0.000000 0.000000 0.000000 
0.000000 0.000000 0.000000 
0.000000 0.000000 0.000000 

0.000000 0.000000 0.000000 
0.000000 -0.000000 0.000000 
0.000000 0.000000 0.000000 

0.000000 -0.000000 0.000000 
0.000000 -0.000000 0.000000 
0.000000 0.000000 0.000000 

0.000000 -0.000000 0.000000 
0.000000 -0.000000 0.000000 
0.000000 0.000000 0.000000 

-0.000000 -0.000000 0.000000 
0.000000 -0.000000 0.000000 
0.000000 0.000000 0.000000 

0.000000 -0.000000 0.000000 
0.000000 -0.000000 0.000000 
0.000000 0.000000 0.000000 

0.000000 0.000000 0.000000 
0.000000 -0.000000 0.000000 
0.000000 0.000000 0.000000 

0.000000 0.000000 0.000000 
0.000000 -0.000000 0.000000 
0.000000 0.000000 0.000000 

0.000000 0.000000 0.000000 
0.000000 -0.000000 0.000000 
0.000000 0.000000 0.000000 

0.000000 -0.000000 0.000000 
0.000000 -0.000000 0.000000 
0.000000 0.000000 0.000000 

0.000000 0.000000 0.000000 
0.000000 -0.000000 0.000000 
0.000000 0.000000 0.000000 

-0.000000 -0.000000 0.000000 
0.000000 0.000000 0.000000 
0.000000 0.000000 0.000000 

-0.000000 0.000000 0.000000 
0.000000 0.000000 0.000000 
0.000000 0.000000 0.000000 

-0.000000 0.000000 0.000000 
0.000000 -0.000000 0.000000 
0.000000 0.000000 0.000000 

-0.000000 -0.000000 0.000000 
0.000000 0.000000 0.000000 
0.000000 0.000000 0.000000 

0.000000 0.000000 0.000000 
0.000000 -0.000000 0.000000 
0.000000 0.000000 0.000000 

-0.000000 -0.000000 0.000000 
0.000000 0.000000 0.000000 
0.000000 0.000000 0.000000 

-0.000000 -0.000000 0.000000 
0.000000 0.000000 0.000000 
0.000000 0.000000 0.000000 

-0.000000 -0.000000 0.000000 
0.000000 0.000000 0.000000 
0.000000 0.000000 0.000000 

-0.000000 -0.000000 0.000000 
0.000000 0.000000 0.000000 
0.000000 0.000000 0.000000 

-0.000000 0.000000 0.000000 
0.000000 0.000000 0.000000 
0.000000 0.000000 0.000000 

-0.000000 0.000000 0.000000 
0.000000 0.000000 0.000000 
0.000000 0.000000 0.000000 

-0.000000 0.000000 0.000000 
0.000000 0.000000 0.000000 
0.000000 0.000000 0.000000 

-0.000000 0.000000 0.000000 
0.000000 0.000000 0.000000 
0.000000 0.000000 0.000000 

-0.000000 0.000000 0.000000 
0.000000 0.000000 0.000000 
0.000000 0.000000 0.000000 

-0.000000 -0.000000 0.000000 
0.000000 0.000000 0.000000 
0.000000 0.000000 0.000000 

0.000000 0.000000 0.000000 
0.000000 -0.000000 0.000000 
0.000000 0.000000 0.000000 

-0.000000 0.000000 0.000000 
0.000000 -0.000000 0.000000 
0.000000 0.000000 0.000000 

-0.000000 -0.000000 0.000000 
0.000000 0.000000 0.000000 
0.000000 0.000000 0.000000 

-0.000000 0.000000 0.000000 
0.000000 0.000000 0.000000 
0.000000 0.000000 0.000000 

-0.000000 0.000000 0.000000 
0.000000 0.000000 0.000000 
0.000000 0.000000 0.000000 

-0.000000 0.000000 0.000000 
0.000000 0.000000 0.000000 
0.000000 0.000000 0.000000 

0.000000 0.000000 0.000000 
0.000000 0.000000 0.000000 
0.000000 0.000000 0.000000 

0.000000 0.000000 0.000000 
0.000000 -0.000000 0.000000 
0.000000 0.000000 0.000000 

0.000000 0.000000 0.000000 
0.000000 -0.000000 0.000000 
0.000000 0.000000 0.000000 

0.000000 -0.000000 0.000000 
0.000000 0.000000 0.000000 
0.000000 0.000000 0.000000 

-0.000000 -0.000000 0.000000 
0.000000 0.000000 0.000000 
0.000000 0.000000 0.000000 

-0.000000 -0.000000 0.000000 
0.000000 -0.000000 0.000000 
0.000000 0.000000 0.000000 

-0.000000 -0.000000 0.000000 
0.000000 0.000000 0.000000 
0.000000 0.000000 0.000000 

-0.000000 -0.000000 0.000000 
0.000000 0.000000 0.000000 
0.000000 0.000000 0.000000 

-0.000000 0.000000 0.000000 
0.000000 0.000000 0.000000 
0.000000 0.000000 0.000000 

-0.000000 0.000000 0.000000 
0.000000 0.000000 0.000000 
0.000000 0.000000 0.000000 

0.000000 -0.000000 0.000000 
0.000000 -0.000000 0.000000 
0.000000 0.000000 0.000000 

-0.000000 -0.000000 0.000000 
0.000000 0.000000 0.000000 
0.000000 0.000000 0.000000 

0.000000 0.000000 0.000000 
0.000000 -0.000000 0.000000 
0.000000 0.000000 0.000000 

-0.000000 -0.000000 0.000000 
0.000000 0.000000 0.000000 
0.000000 0.000000 0.000000 

-0.000000 -0.000000 0.000000 
0.000000 -0.000000 0.000000 
0.000000 0.000000 0.000000 

-0.000000 -0.000000 0.000000 
0.000000 0.000000 0.000000 
0.000000 0.000000 0.000000 

0.000000 -0.000000 0.000000 
0.000000 -0.000000 0.000000 
0.000000 0.000000 0.000000 

0.000000 0.000000 0.000000 
0.000000 -0.000000 0.000000 
0.000000 0.000000 0.000000 

0.000000 0.000000 0.000000 
0.000000 -0.000000 0.000000 
0.000000 0.000000 0.000000 

0.000000 0.000000 0.000000 
0.000000 0.000000 0.000000 
0.000000 0.000000 0.000000 

-0.000000 0.000000 0.000000 
0.000000 0.000000 0.000000 
0.000000 0.000000 0.000000 

-0.000000 -0.000000 0.000000 
0.000000 0.000000 0.000000 
0.000000 0.000000 0.000000 

-0.000000 0.000000 0.000000 
0.000000 0.000000 0.000000 
0.000000 0.000000 0.000000 

-0.000000 0.000000 0.000000 
0.000000 0.000000 0.000000 
0.000000 0.000000 0.000000 

0.000000 -0.000000 0.000000 
0.000000 -0.000000 0.000000 
0.000000 0.000000 0.000000 

-0.000000 0.000000 0.000000 
0.000000 -0.000000 0.000000 
0.000000 0.000000 0.000000 

-0.000000 0.000000 0.000000 
0.000000 -0.000000 0.000000 
0.000000 0.000000 0.000000 

-0.000000 -0.000000 0.000000 
0.000000 0.000000 0.000000 
0.000000 0.000000 0.000000 

-0.000000 -0.000000 0.000000 
0.000000 -0.000000 0.000000 
0.000000 0.000000 0.000000 

-0.000000 -0.000000 0.000000 
0.000000 -0.000000 0.000000 
0.000000 0.000000 0.000000 

0.000000 0.000000 0.000000 
0.000000 -0.000000 0.000000 
0.000000 0.000000 0.000000 

0.000000 0.000000 0.000000 
0.000000 -0.000000 0.000000 
0.000000 0.000000 0.000000 

-0.000000 0.000000 0.000000 
0.000000 0.000000 0.000000 
0.000000 0.000000 0.000000 

-0.000000 0.000000 0.000000 
0.000000 0.000000 0.000000 
0.000000 0.000000 0.000000 

-0.000000 -0.000000 0.000000 
0.000000 0.000000 0.000000 
0.000000 0.000000 0.000000 

-0.000000 0.000000 0.000000 
0.000000 0.000000 0.000000 
0.000000 0.000000 0.000000 

-0.000000 0.000000 0.000000 
0.000000 0.000000 0.000000 
0.000000 0.000000 0.000000 

-0.000000 0.000000 0.000000 
0.000000 0.000000 0.000000 
0.000000 0.000000 0.000000 

0.000000 0.000000 0.000000 
0.000000 -0.000000 0.000000 
0.000000 0.000000 0.000000 

-0.000000 0.000000 0.000000 
0.000000 0.000000 0.000000 
0.000000 0.000000 0.000000 

-0.000000 0.000000 0.000000 
0.000000 -0.000000 0.000000 
0.000000 0.000000 0.000000 

-0.000000 0.000000 0.000000 
0.000000 0.000000 0.000000 
0.000000 0.000000 0.000000 

-0.000000 0.000000 0.000000 
0.000000 0.000000 0.000000 
0.000000 0.000000 0.000000 

-0.000000 0.000000 0.000000 
0.000000 0.000000 0.000000 
0.000000 0.000000 0.000000 

-0.000000 -0.000000 0.000000 
0.000000 -0.000000 0.000000 
0.000000 0.000000 0.000000 

-0.000000 0.000000 0.000000 
0.000000 0.000000 0.000000 
0.000000 0.000000 0.000000 

0.000000 0.000000 0.000000 
0.000000 0.000000 0.000000 
0.000000 0.000000 0.000000 

0.000000 0.000000 0.000000 
0.000000 -0.000000 0.000000 
0.000000 0.000000 0.000000 

0.000000 0.000000 0.000000 
0.000000 -0.000000 0.000000 
0.000000 0.000000 0.000000 

0.000000 0.000000 0.000000 
0.000000 -0.000000 0.000000 
0.000000 0.000000 0.000000 

-0.000000 0.000000 0.000000 
0.000000 0.000000 0.000000 
0.000000 0.000000 0.000000 

-0.000000 0.000000 0.000000 
0.000000 -0.000000 0.000000 
0.000000 0.000000 0.000000 

0.000000 0.000000 0.000000 
0.000000 0.000000 0.000000 
0.000000 0.000000 0.000000 

0.000000 0.000000 0.000000 
0.000000 0.000000 0.000000 
0.000000 0.000000 0.000000 

