# vtk DataFile Version 3.0 
vtk output 
ASCII 
DATASET UNSTRUCTURED_GRID 
POINTS 175 float 
-0.029212 -2.931759 0.000000 
-0.118242 -2.894677 0.000000 
-0.061477 -2.900317 0.000000 
-0.032110 -2.867062 0.000000 
-0.199606 -2.841583 0.000000 
-0.147704 -2.844946 0.000000 
-0.120993 -2.794694 0.000000 
-0.062688 -2.810483 0.000000 
-0.031105 -2.772245 0.000000 
-0.275803 -2.775850 0.000000 
-0.226253 -2.781105 0.000000 
-0.201181 -2.725215 0.000000 
-0.147104 -2.735765 0.000000 
-0.118102 -2.690136 0.000000 
-0.060093 -2.710843 0.000000 
-0.029840 -2.673441 0.000000 
-0.349598 -2.705874 0.000000 
-0.301985 -2.710670 0.000000 
-0.278947 -2.653407 0.000000 
-0.227636 -2.664444 0.000000 
-0.201299 -2.613512 0.000000 
-0.145802 -2.629366 0.000000 
-0.117068 -2.586397 0.000000 
-0.059057 -2.610966 0.000000 
-0.029596 -2.573650 0.000000 
-0.065569 -2.947207 0.000000 
-0.182175 -2.952986 0.000000 
-0.137633 -2.941609 0.000000 
-0.157698 -2.920590 0.000000 
-0.302926 -2.956881 0.000000 
-0.258355 -2.947136 0.000000 
-0.286424 -2.925861 0.000000 
-0.229492 -2.911517 0.000000 
-0.241839 -2.880372 0.000000 
-0.432234 -2.959198 0.000000 
-0.384202 -2.949797 0.000000 
-0.412851 -2.928632 0.000000 
-0.359187 -2.913621 0.000000 
-0.374577 -2.880227 0.000000 
-0.314040 -2.860047 0.000000 
-0.319951 -2.815289 0.000000 
-0.567345 -2.955705 0.000000 
-0.517367 -2.948013 0.000000 
-0.544456 -2.924353 0.000000 
-0.488246 -2.912266 0.000000 
-0.501701 -2.875859 0.000000 
-0.442956 -2.857725 0.000000 
-0.449450 -2.809525 0.000000 
-0.388853 -2.792202 0.000000 
-0.392420 -2.747350 0.000000 
-0.052135 -2.961729 0.000000 
-0.106782 -2.978985 0.000000 
-0.111671 -2.970329 0.000000 
-0.169994 -2.967027 0.000000 
-0.161357 -2.988491 0.000000 
-0.170638 -2.983916 0.000000 
-0.239922 -2.982451 0.000000 
-0.234247 -2.974526 0.000000 
-0.293291 -2.970280 0.000000 
-0.222081 -2.993882 0.000000 
-0.230284 -2.991376 0.000000 
-0.323428 -2.990479 0.000000 
-0.320341 -2.986147 0.000000 
-0.395754 -2.983968 0.000000 
-0.373607 -2.976375 0.000000 
-0.429811 -2.972110 0.000000 
-0.302433 -2.996995 0.000000 
-0.314611 -2.995517 0.000000 
-0.424612 -2.995057 0.000000 
-0.421098 -2.992584 0.000000 
-0.507890 -2.990688 0.000000 
-0.488527 -2.986516 0.000000 
-0.551966 -2.983180 0.000000 
-0.519387 -2.975728 0.000000 
-0.570073 -2.969681 0.000000 
-0.000000 -2.966728 0.000000 
0.047282 -2.982245 0.000000 
-0.000000 -2.978403 0.000000 
-0.047282 -2.982245 0.000000 
0.096668 -2.990510 0.000000 
0.047437 -2.988875 0.000000 
-0.000000 -2.991466 0.000000 
-0.047437 -2.988875 0.000000 
-0.096668 -2.990510 0.000000 
0.156166 -2.995022 0.000000 
0.100342 -2.994214 0.000000 
0.050078 -2.995833 0.000000 
-0.000000 -2.994716 0.000000 
-0.050078 -2.995833 0.000000 
-0.100342 -2.994214 0.000000 
-0.156166 -2.995022 0.000000 
0.217703 -2.997680 0.000000 
0.161004 -2.997200 0.000000 
0.106473 -2.998227 0.000000 
0.051199 -2.997652 0.000000 
-0.000000 -2.998394 0.000000 
-0.051199 -2.997652 0.000000 
-0.106473 -2.998227 0.000000 
-0.161004 -2.997200 0.000000 
-0.217703 -2.997680 0.000000 
0.052135 -2.961729 0.000000 
0.169994 -2.967027 0.000000 
0.111671 -2.970329 0.000000 
0.106782 -2.978985 0.000000 
0.293291 -2.970280 0.000000 
0.234247 -2.974526 0.000000 
0.239922 -2.982451 0.000000 
0.170638 -2.983916 0.000000 
0.161357 -2.988491 0.000000 
0.429811 -2.972110 0.000000 
0.373607 -2.976375 0.000000 
0.395754 -2.983968 0.000000 
0.320341 -2.986147 0.000000 
0.323428 -2.990479 0.000000 
0.230284 -2.991376 0.000000 
0.222081 -2.993882 0.000000 
0.570073 -2.969681 0.000000 
0.519387 -2.975728 0.000000 
0.551966 -2.983180 0.000000 
0.488527 -2.986516 0.000000 
0.507890 -2.990688 0.000000 
0.421098 -2.992584 0.000000 
0.424612 -2.995057 0.000000 
0.314611 -2.995517 0.000000 
0.302433 -2.996995 0.000000 
0.065569 -2.947207 0.000000 
0.157698 -2.920590 0.000000 
0.137633 -2.941609 0.000000 
0.182175 -2.952986 0.000000 
0.241839 -2.880372 0.000000 
0.229492 -2.911517 0.000000 
0.286424 -2.925861 0.000000 
0.258355 -2.947136 0.000000 
0.302926 -2.956881 0.000000 
0.319951 -2.815289 0.000000 
0.314040 -2.860047 0.000000 
0.374577 -2.880227 0.000000 
0.359187 -2.913621 0.000000 
0.412851 -2.928632 0.000000 
0.384202 -2.949797 0.000000 
0.432234 -2.959198 0.000000 
0.392420 -2.747350 0.000000 
0.388853 -2.792202 0.000000 
0.449450 -2.809525 0.000000 
0.442956 -2.857725 0.000000 
0.501701 -2.875859 0.000000 
0.488246 -2.912266 0.000000 
0.544456 -2.924353 0.000000 
0.517367 -2.948013 0.000000 
0.567345 -2.955705 0.000000 
0.029212 -2.931759 0.000000 
0.032110 -2.867062 0.000000 
0.061477 -2.900317 0.000000 
0.118242 -2.894677 0.000000 
0.031105 -2.772245 0.000000 
0.062688 -2.810483 0.000000 
0.120993 -2.794694 0.000000 
0.147704 -2.844946 0.000000 
0.199606 -2.841583 0.000000 
0.029840 -2.673441 0.000000 
0.060093 -2.710843 0.000000 
0.118102 -2.690136 0.000000 
0.147104 -2.735765 0.000000 
0.201181 -2.725215 0.000000 
0.226253 -2.781105 0.000000 
0.275803 -2.775850 0.000000 
0.029596 -2.573650 0.000000 
0.059057 -2.610966 0.000000 
0.117068 -2.586397 0.000000 
0.145802 -2.629366 0.000000 
0.201299 -2.613512 0.000000 
0.227636 -2.664444 0.000000 
0.278947 -2.653407 0.000000 
0.301985 -2.710670 0.000000 
0.349598 -2.705874 0.000000 
CELLS 175 350 
1 0 
1 1 
1 2 
1 3 
1 4 
1 5 
1 6 
1 7 
1 8 
1 9 
1 10 
1 11 
1 12 
1 13 
1 14 
1 15 
1 16 
1 17 
1 18 
1 19 
1 20 
1 21 
1 22 
1 23 
1 24 
1 25 
1 26 
1 27 
1 28 
1 29 
1 30 
1 31 
1 32 
1 33 
1 34 
1 35 
1 36 
1 37 
1 38 
1 39 
1 40 
1 41 
1 42 
1 43 
1 44 
1 45 
1 46 
1 47 
1 48 
1 49 
1 50 
1 51 
1 52 
1 53 
1 54 
1 55 
1 56 
1 57 
1 58 
1 59 
1 60 
1 61 
1 62 
1 63 
1 64 
1 65 
1 66 
1 67 
1 68 
1 69 
1 70 
1 71 
1 72 
1 73 
1 74 
1 75 
1 76 
1 77 
1 78 
1 79 
1 80 
1 81 
1 82 
1 83 
1 84 
1 85 
1 86 
1 87 
1 88 
1 89 
1 90 
1 91 
1 92 
1 93 
1 94 
1 95 
1 96 
1 97 
1 98 
1 99 
1 100 
1 101 
1 102 
1 103 
1 104 
1 105 
1 106 
1 107 
1 108 
1 109 
1 110 
1 111 
1 112 
1 113 
1 114 
1 115 
1 116 
1 117 
1 118 
1 119 
1 120 
1 121 
1 122 
1 123 
1 124 
1 125 
1 126 
1 127 
1 128 
1 129 
1 130 
1 131 
1 132 
1 133 
1 134 
1 135 
1 136 
1 137 
1 138 
1 139 
1 140 
1 141 
1 142 
1 143 
1 144 
1 145 
1 146 
1 147 
1 148 
1 149 
1 150 
1 151 
1 152 
1 153 
1 154 
1 155 
1 156 
1 157 
1 158 
1 159 
1 160 
1 161 
1 162 
1 163 
1 164 
1 165 
1 166 
1 167 
1 168 
1 169 
1 170 
1 171 
1 172 
1 173 
1 174 
CELL_TYPES 175 
1 
1 
1 
1 
1 
1 
1 
1 
1 
1 
1 
1 
1 
1 
1 
1 
1 
1 
1 
1 
1 
1 
1 
1 
1 
1 
1 
1 
1 
1 
1 
1 
1 
1 
1 
1 
1 
1 
1 
1 
1 
1 
1 
1 
1 
1 
1 
1 
1 
1 
1 
1 
1 
1 
1 
1 
1 
1 
1 
1 
1 
1 
1 
1 
1 
1 
1 
1 
1 
1 
1 
1 
1 
1 
1 
1 
1 
1 
1 
1 
1 
1 
1 
1 
1 
1 
1 
1 
1 
1 
1 
1 
1 
1 
1 
1 
1 
1 
1 
1 
1 
1 
1 
1 
1 
1 
1 
1 
1 
1 
1 
1 
1 
1 
1 
1 
1 
1 
1 
1 
1 
1 
1 
1 
1 
1 
1 
1 
1 
1 
1 
1 
1 
1 
1 
1 
1 
1 
1 
1 
1 
1 
1 
1 
1 
1 
1 
1 
1 
1 
1 
1 
1 
1 
1 
1 
1 
1 
1 
1 
1 
1 
1 
1 
1 
1 
1 
1 
1 
1 
1 
1 
1 
1 
1 
POINT_DATA 175 
VECTORS X_GC float 
-0.029212 -2.931759 0.000000 
-0.118242 -2.894677 0.000000 
-0.061477 -2.900317 0.000000 
-0.032110 -2.867062 0.000000 
-0.199606 -2.841583 0.000000 
-0.147704 -2.844946 0.000000 
-0.120993 -2.794694 0.000000 
-0.062688 -2.810483 0.000000 
-0.031105 -2.772245 0.000000 
-0.275803 -2.775850 0.000000 
-0.226253 -2.781105 0.000000 
-0.201181 -2.725215 0.000000 
-0.147104 -2.735765 0.000000 
-0.118102 -2.690136 0.000000 
-0.060093 -2.710843 0.000000 
-0.029840 -2.673441 0.000000 
-0.349598 -2.705874 0.000000 
-0.301985 -2.710670 0.000000 
-0.278947 -2.653407 0.000000 
-0.227636 -2.664444 0.000000 
-0.201299 -2.613512 0.000000 
-0.145802 -2.629366 0.000000 
-0.117068 -2.586397 0.000000 
-0.059057 -2.610966 0.000000 
-0.029596 -2.573650 0.000000 
-0.065569 -2.947207 0.000000 
-0.182175 -2.952986 0.000000 
-0.137633 -2.941609 0.000000 
-0.157698 -2.920590 0.000000 
-0.302926 -2.956881 0.000000 
-0.258355 -2.947136 0.000000 
-0.286424 -2.925861 0.000000 
-0.229492 -2.911517 0.000000 
-0.241839 -2.880372 0.000000 
-0.432234 -2.959198 0.000000 
-0.384202 -2.949797 0.000000 
-0.412851 -2.928632 0.000000 
-0.359187 -2.913621 0.000000 
-0.374577 -2.880227 0.000000 
-0.314040 -2.860047 0.000000 
-0.319951 -2.815289 0.000000 
-0.567345 -2.955705 0.000000 
-0.517367 -2.948013 0.000000 
-0.544456 -2.924353 0.000000 
-0.488246 -2.912266 0.000000 
-0.501701 -2.875859 0.000000 
-0.442956 -2.857725 0.000000 
-0.449450 -2.809525 0.000000 
-0.388853 -2.792202 0.000000 
-0.392420 -2.747350 0.000000 
-0.052135 -2.961729 0.000000 
-0.106782 -2.978985 0.000000 
-0.111671 -2.970329 0.000000 
-0.169994 -2.967027 0.000000 
-0.161357 -2.988491 0.000000 
-0.170638 -2.983916 0.000000 
-0.239922 -2.982451 0.000000 
-0.234247 -2.974526 0.000000 
-0.293291 -2.970280 0.000000 
-0.222081 -2.993882 0.000000 
-0.230284 -2.991376 0.000000 
-0.323428 -2.990479 0.000000 
-0.320341 -2.986147 0.000000 
-0.395754 -2.983968 0.000000 
-0.373607 -2.976375 0.000000 
-0.429811 -2.972110 0.000000 
-0.302433 -2.996995 0.000000 
-0.314611 -2.995517 0.000000 
-0.424612 -2.995057 0.000000 
-0.421098 -2.992584 0.000000 
-0.507890 -2.990688 0.000000 
-0.488527 -2.986516 0.000000 
-0.551966 -2.983180 0.000000 
-0.519387 -2.975728 0.000000 
-0.570073 -2.969681 0.000000 
-0.000000 -2.966728 0.000000 
0.047282 -2.982245 0.000000 
-0.000000 -2.978403 0.000000 
-0.047282 -2.982245 0.000000 
0.096668 -2.990510 0.000000 
0.047437 -2.988875 0.000000 
-0.000000 -2.991466 0.000000 
-0.047437 -2.988875 0.000000 
-0.096668 -2.990510 0.000000 
0.156166 -2.995022 0.000000 
0.100342 -2.994214 0.000000 
0.050078 -2.995833 0.000000 
-0.000000 -2.994716 0.000000 
-0.050078 -2.995833 0.000000 
-0.100342 -2.994214 0.000000 
-0.156166 -2.995022 0.000000 
0.217703 -2.997680 0.000000 
0.161004 -2.997200 0.000000 
0.106473 -2.998227 0.000000 
0.051199 -2.997652 0.000000 
-0.000000 -2.998394 0.000000 
-0.051199 -2.997652 0.000000 
-0.106473 -2.998227 0.000000 
-0.161004 -2.997200 0.000000 
-0.217703 -2.997680 0.000000 
0.052135 -2.961729 0.000000 
0.169994 -2.967027 0.000000 
0.111671 -2.970329 0.000000 
0.106782 -2.978985 0.000000 
0.293291 -2.970280 0.000000 
0.234247 -2.974526 0.000000 
0.239922 -2.982451 0.000000 
0.170638 -2.983916 0.000000 
0.161357 -2.988491 0.000000 
0.429811 -2.972110 0.000000 
0.373607 -2.976375 0.000000 
0.395754 -2.983968 0.000000 
0.320341 -2.986147 0.000000 
0.323428 -2.990479 0.000000 
0.230284 -2.991376 0.000000 
0.222081 -2.993882 0.000000 
0.570073 -2.969681 0.000000 
0.519387 -2.975728 0.000000 
0.551966 -2.983180 0.000000 
0.488527 -2.986516 0.000000 
0.507890 -2.990688 0.000000 
0.421098 -2.992584 0.000000 
0.424612 -2.995057 0.000000 
0.314611 -2.995517 0.000000 
0.302433 -2.996995 0.000000 
0.065569 -2.947207 0.000000 
0.157698 -2.920590 0.000000 
0.137633 -2.941609 0.000000 
0.182175 -2.952986 0.000000 
0.241839 -2.880372 0.000000 
0.229492 -2.911517 0.000000 
0.286424 -2.925861 0.000000 
0.258355 -2.947136 0.000000 
0.302926 -2.956881 0.000000 
0.319951 -2.815289 0.000000 
0.314040 -2.860047 0.000000 
0.374577 -2.880227 0.000000 
0.359187 -2.913621 0.000000 
0.412851 -2.928632 0.000000 
0.384202 -2.949797 0.000000 
0.432234 -2.959198 0.000000 
0.392420 -2.747350 0.000000 
0.388853 -2.792202 0.000000 
0.449450 -2.809525 0.000000 
0.442956 -2.857725 0.000000 
0.501701 -2.875859 0.000000 
0.488246 -2.912266 0.000000 
0.544456 -2.924353 0.000000 
0.517367 -2.948013 0.000000 
0.567345 -2.955705 0.000000 
0.029212 -2.931759 0.000000 
0.032110 -2.867062 0.000000 
0.061477 -2.900317 0.000000 
0.118242 -2.894677 0.000000 
0.031105 -2.772245 0.000000 
0.062688 -2.810483 0.000000 
0.120993 -2.794694 0.000000 
0.147704 -2.844946 0.000000 
0.199606 -2.841583 0.000000 
0.029840 -2.673441 0.000000 
0.060093 -2.710843 0.000000 
0.118102 -2.690136 0.000000 
0.147104 -2.735765 0.000000 
0.201181 -2.725215 0.000000 
0.226253 -2.781105 0.000000 
0.275803 -2.775850 0.000000 
0.029596 -2.573650 0.000000 
0.059057 -2.610966 0.000000 
0.117068 -2.586397 0.000000 
0.145802 -2.629366 0.000000 
0.201299 -2.613512 0.000000 
0.227636 -2.664444 0.000000 
0.278947 -2.653407 0.000000 
0.301985 -2.710670 0.000000 
0.349598 -2.705874 0.000000 
VECTORS X_EC float 
0.379760 0.078746 0.000000 
-0.462857 -0.421867 0.000000 
0.799207 -0.345714 0.000000 
0.417435 -0.794662 0.000000 
0.594874 0.861366 0.000000 
-0.079854 0.906768 0.000000 
-0.427092 0.228370 0.000000 
0.814939 0.441522 0.000000 
0.404366 -0.074691 0.000000 
-0.414555 -0.026019 0.000000 
0.941287 0.044914 0.000000 
0.615349 -0.709601 0.000000 
-0.087653 -0.567174 0.000000 
-0.464676 0.816833 0.000000 
0.781210 -0.903618 0.000000 
0.387923 0.591452 0.000000 
0.544768 -0.970707 0.000000 
-0.074199 -0.905951 0.000000 
-0.373684 0.320989 0.000000 
0.959269 0.470000 0.000000 
0.616893 -0.217591 0.000000 
-0.104580 -0.003554 0.000000 
-0.478114 -0.583640 0.000000 
0.767741 -0.251958 0.000000 
0.384754 -0.755724 0.000000 
0.852401 0.287292 0.000000 
0.368271 0.365315 0.000000 
-0.210773 0.211717 0.000000 
0.050078 -0.072041 0.000000 
-0.061956 0.417888 0.000000 
-0.641386 0.286331 0.000000 
-0.276489 -0.000875 0.000000 
0.983401 -0.194523 0.000000 
-0.856087 -0.614979 0.000000 
-0.380962 0.449167 0.000000 
0.994623 0.322259 0.000000 
-0.632940 0.036537 0.000000 
0.669434 -0.166111 0.000000 
0.869502 -0.616934 0.000000 
0.082516 -0.889364 0.000000 
0.159366 0.506401 0.000000 
-0.624514 0.402019 0.000000 
0.725771 0.298174 0.000000 
-0.922073 -0.021230 0.000000 
0.347203 -0.184413 0.000000 
0.522116 -0.675906 0.000000 
-0.241572 -0.920709 0.000000 
-0.157145 0.428587 0.000000 
-0.944911 0.194725 0.000000 
-0.898535 -0.410780 0.000000 
0.677753 0.483346 0.000000 
-0.611836 0.716291 0.000000 
-0.548279 0.599447 0.000000 
0.209928 0.554867 0.000000 
0.097643 0.844632 0.000000 
0.218300 0.782870 0.000000 
-0.881008 0.763094 0.000000 
-0.954791 0.656102 0.000000 
-0.187214 0.598780 0.000000 
0.887047 0.917403 0.000000 
0.993693 0.883572 0.000000 
0.204567 0.871465 0.000000 
0.164431 0.812989 0.000000 
-0.855203 0.783565 0.000000 
0.856893 0.681059 0.000000 
-0.412462 0.623488 0.000000 
-0.068376 0.959431 0.000000 
0.089938 0.939480 0.000000 
-0.480049 0.933269 0.000000 
-0.525732 0.899879 0.000000 
0.602569 0.874289 0.000000 
0.350851 0.817963 0.000000 
-0.824447 0.772932 0.000000 
0.752028 0.672335 0.000000 
-0.589053 0.590690 0.000000 
0.000000 0.550833 0.000000 
-0.614664 0.760307 0.000000 
0.000000 0.708436 0.000000 
0.614664 0.760307 0.000000 
0.743316 0.871880 0.000000 
-0.616686 0.849812 0.000000 
0.000000 0.884796 0.000000 
0.616686 0.849812 0.000000 
-0.743316 0.871880 0.000000 
-0.030152 0.932801 0.000000 
0.695559 0.921887 0.000000 
-0.651009 0.943749 0.000000 
0.000000 0.928665 0.000000 
0.651009 0.943749 0.000000 
-0.695559 0.921887 0.000000 
0.030152 0.932801 0.000000 
-0.830134 0.968681 0.000000 
-0.093051 0.962205 0.000000 
0.615852 0.976066 0.000000 
-0.665587 0.968307 0.000000 
0.000000 0.978319 0.000000 
0.665587 0.968307 0.000000 
-0.615852 0.976066 0.000000 
0.093051 0.962205 0.000000 
0.830134 0.968681 0.000000 
-0.677753 0.483346 0.000000 
-0.209928 0.554867 0.000000 
0.548279 0.599447 0.000000 
0.611836 0.716291 0.000000 
0.187214 0.598780 0.000000 
0.954791 0.656102 0.000000 
0.881008 0.763094 0.000000 
-0.218300 0.782870 0.000000 
-0.097643 0.844632 0.000000 
0.412462 0.623488 0.000000 
-0.856893 0.681059 0.000000 
0.855203 0.783565 0.000000 
-0.164431 0.812989 0.000000 
-0.204567 0.871465 0.000000 
-0.993693 0.883572 0.000000 
-0.887047 0.917403 0.000000 
0.589053 0.590690 0.000000 
-0.752028 0.672335 0.000000 
0.824447 0.772932 0.000000 
-0.350851 0.817963 0.000000 
-0.602569 0.874289 0.000000 
0.525732 0.899879 0.000000 
0.480049 0.933269 0.000000 
-0.089938 0.939480 0.000000 
0.068376 0.959431 0.000000 
-0.852401 0.287292 0.000000 
-0.050078 -0.072041 0.000000 
0.210773 0.211717 0.000000 
-0.368271 0.365315 0.000000 
0.856087 -0.614979 0.000000 
-0.983401 -0.194523 0.000000 
0.276489 -0.000875 0.000000 
0.641386 0.286331 0.000000 
0.061956 0.417888 0.000000 
-0.159366 0.506401 0.000000 
-0.082516 -0.889364 0.000000 
-0.869502 -0.616934 0.000000 
-0.669434 -0.166111 0.000000 
0.632940 0.036537 0.000000 
-0.994623 0.322259 0.000000 
0.380962 0.449167 0.000000 
0.898535 -0.410780 0.000000 
0.944911 0.194725 0.000000 
0.157145 0.428587 0.000000 
0.241572 -0.920709 0.000000 
-0.522116 -0.675906 0.000000 
-0.347203 -0.184413 0.000000 
0.922073 -0.021230 0.000000 
-0.725771 0.298174 0.000000 
0.624514 0.402019 0.000000 
-0.379760 0.078746 0.000000 
-0.417435 -0.794662 0.000000 
-0.799207 -0.345714 0.000000 
0.462857 -0.421867 0.000000 
-0.404366 -0.074691 0.000000 
-0.814939 0.441522 0.000000 
0.427092 0.228370 0.000000 
0.079854 0.906768 0.000000 
-0.594875 0.861366 0.000000 
-0.387923 0.591452 0.000000 
-0.781210 -0.903618 0.000000 
0.464676 0.816833 0.000000 
0.087653 -0.567174 0.000000 
-0.615349 -0.709601 0.000000 
-0.941287 0.044914 0.000000 
0.414555 -0.026019 0.000000 
-0.384754 -0.755724 0.000000 
-0.767741 -0.251958 0.000000 
0.478114 -0.583640 0.000000 
0.104580 -0.003554 0.000000 
-0.616893 -0.217591 0.000000 
-0.959269 0.470000 0.000000 
0.373684 0.320989 0.000000 
0.074199 -0.905951 0.000000 
-0.544768 -0.970707 0.000000 
CELL_DATA 175 
SCALARS MASS float 
LOOKUP_TABLE default 
0.781831 
0.864274 
0.946717 
0.864274 
0.881307 
0.921110 
0.858535 
0.921110 
0.881307 
0.887046 
0.910001 
0.869829 
0.915556 
0.869829 
0.910001 
0.887046 
0.892784 
0.915740 
0.892784 
0.927218 
0.892784 
0.927218 
0.892784 
0.915740 
0.892784 
0.781831 
0.864274 
0.946717 
0.864274 
0.881307 
0.921110 
0.858535 
0.921110 
0.881307 
0.887046 
0.910001 
0.869829 
0.915556 
0.869829 
0.910001 
0.887046 
0.892784 
0.915740 
0.892784 
0.927218 
0.892784 
0.927218 
0.892784 
0.915740 
0.892784 
0.781831 
0.864274 
0.946717 
0.864274 
0.881307 
0.921110 
0.858535 
0.921110 
0.881307 
0.887046 
0.910001 
0.869829 
0.915556 
0.869829 
0.910001 
0.887046 
0.892784 
0.915740 
0.892784 
0.927218 
0.892784 
0.927218 
0.892784 
0.915740 
0.892784 
0.781831 
0.864274 
0.946717 
0.864274 
0.881307 
0.921110 
0.858535 
0.921110 
0.881307 
0.887046 
0.910001 
0.869829 
0.915556 
0.869829 
0.910001 
0.887046 
0.892784 
0.915740 
0.892784 
0.927218 
0.892784 
0.927218 
0.892784 
0.915740 
0.892784 
0.781831 
0.864274 
0.946717 
0.864274 
0.881307 
0.921110 
0.858535 
0.921110 
0.881307 
0.887046 
0.910001 
0.869829 
0.915556 
0.869829 
0.910001 
0.887046 
0.892784 
0.915740 
0.892784 
0.927218 
0.892784 
0.927218 
0.892784 
0.915740 
0.892784 
0.781831 
0.864274 
0.946717 
0.864274 
0.881307 
0.921110 
0.858535 
0.921110 
0.881307 
0.887046 
0.910001 
0.869829 
0.915556 
0.869829 
0.910001 
0.887046 
0.892784 
0.915740 
0.892784 
0.927218 
0.892784 
0.927218 
0.892784 
0.915740 
0.892784 
0.781831 
0.864274 
0.946717 
0.864274 
0.881307 
0.921110 
0.858535 
0.921110 
0.881307 
0.887046 
0.910001 
0.869829 
0.915556 
0.869829 
0.910001 
0.887046 
0.892784 
0.915740 
0.892784 
0.927218 
0.892784 
0.927218 
0.892784 
0.915740 
0.892784 
SCALARS MASS float 
LOOKUP_TABLE default 
0.781831 
0.864274 
0.946717 
0.864274 
0.881307 
0.921110 
0.858535 
0.921110 
0.881307 
0.887046 
0.910001 
0.869829 
0.915556 
0.869829 
0.910001 
0.887046 
0.892784 
0.915740 
0.892784 
0.927218 
0.892784 
0.927218 
0.892784 
0.915740 
0.892784 
0.781831 
0.864274 
0.946717 
0.864274 
0.881307 
0.921110 
0.858535 
0.921110 
0.881307 
0.887046 
0.910001 
0.869829 
0.915556 
0.869829 
0.910001 
0.887046 
0.892784 
0.915740 
0.892784 
0.927218 
0.892784 
0.927218 
0.892784 
0.915740 
0.892784 
0.781831 
0.864274 
0.946717 
0.864274 
0.881307 
0.921110 
0.858535 
0.921110 
0.881307 
0.887046 
0.910001 
0.869829 
0.915556 
0.869829 
0.910001 
0.887046 
0.892784 
0.915740 
0.892784 
0.927218 
0.892784 
0.927218 
0.892784 
0.915740 
0.892784 
0.781831 
0.864274 
0.946717 
0.864274 
0.881307 
0.921110 
0.858535 
0.921110 
0.881307 
0.887046 
0.910001 
0.869829 
0.915556 
0.869829 
0.910001 
0.887046 
0.892784 
0.915740 
0.892784 
0.927218 
0.892784 
0.927218 
0.892784 
0.915740 
0.892784 
0.781831 
0.864274 
0.946717 
0.864274 
0.881307 
0.921110 
0.858535 
0.921110 
0.881307 
0.887046 
0.910001 
0.869829 
0.915556 
0.869829 
0.910001 
0.887046 
0.892784 
0.915740 
0.892784 
0.927218 
0.892784 
0.927218 
0.892784 
0.915740 
0.892784 
0.781831 
0.864274 
0.946717 
0.864274 
0.881307 
0.921110 
0.858535 
0.921110 
0.881307 
0.887046 
0.910001 
0.869829 
0.915556 
0.869829 
0.910001 
0.887046 
0.892784 
0.915740 
0.892784 
0.927218 
0.892784 
0.927218 
0.892784 
0.915740 
0.892784 
0.781831 
0.864274 
0.946717 
0.864274 
0.881307 
0.921110 
0.858535 
0.921110 
0.881307 
0.887046 
0.910001 
0.869829 
0.915556 
0.869829 
0.910001 
0.887046 
0.892784 
0.915740 
0.892784 
0.927218 
0.892784 
0.927218 
0.892784 
0.915740 
0.892784 
SCALARS DENSITY float 
LOOKUP_TABLE default 
41505863194831309999766960603136.000000 
1360337.155193 
8039834.429568 
5745.785470 
83.619403 
403.271438 
960.635779 
506.633105 
165.684366 
440.869344 
5407.034788 
170.957951 
197.414308 
398.454845 
121.305960 
555.267933 
541.497458 
157.301067 
1332.839483 
7663.295667 
135.575442 
499.150669 
498.831075 
630.289177 
205.348294 
56167615913206161566379417548671513678330302565312410916225024.000000 
4518547526019284826800235714017765231273009385630976328911761217091518516655292416.000000 
221928051849576382973646560326871857351360512.000000 
141036435976209600.000000 
7353561758322571107035936100857453578505730423100240488518912732909097786746567582023680.000000 
6417388573474799212986742337936363283405137701106614272.000000 
17210869763311663104.000000 
74575872591.443512 
56855.716631 
488696643257602818823163655229332909759337612884041432024047474225900068691035016703521062912.000000 
6884996785655264400675997574654707571211720348735111168.000000 
8013806586639130624.000000 
158229194306.712463 
50472.729022 
168.487612 
439.176250 
29700832936454714781877393419592608106665829457539571346566184107220510779616788480.000000 
248434711949736390834384197896079107280357818368.000000 
332281758056157413376.000000 
14961728459.609549 
324864.279834 
82.331498 
3279.625192 
905.524259 
788.929152 
-964843715220523873523617017428026209608598122495994104106868080766185282026276770273772761985137080532992.000000 
309646847667936733679470415970789930412485466874490819532479817934348575941446755052028063830767442547514695221248.000000 
-8189685729047232564139646760931103188944738775089031873921037331263521679830510797839429745549739490275229696.000000 
112060866430032760539600083224736545604037336316281344342037263990122624903429566041476446308325658218987520.000000 
8361136051793739736974972843696875547859192527603373113661958318925726063605985822656848314028104794982880116736.000000 
-121342384742651820708927831328560029750752733541718186169596752931069943405942676677110808361390773495250173296640.000000 
22269996595739244820305839158743701276115582089765863754047582392194214165602973808815287690939564474226891662400978422781962092544.000000 
10209942838435677701884554275778866426000892717658314156566427458910352612372205351658926216340554384660838219776.000000 
-79382834730094058140247861341069187966825883980097846465975630058245699637369039458679561014718886809461644976577314816.000000 
-4332836404101072244641284256849837682605471360775314775292532275273668523726429786871653667438592.000000 
-992277707452402057381977661725684692274386978565085679152364848844205963328841484248084302845815523026927616.000000 
-370111330471718936224111425574844005354722666730928378327384553426349105358938211245761803912708501700813691279000594091606016.000000 
-909137824278731020045193387782909725287389023697709240594423538499287546951076173041719180700258202517431712049259662369806614528.000000 
-2696522916900186091908397503966617718809431874497583531000337105058519541851419476990174682300702539447309634888776255382568745041920.000000 
-347486206868099847023266225587034886005023024500912409674118992617106463510165159106085820114809972079257193949044901136090267648.000000 
-222291936777605474658507809957861225677467709519799321349693733887592860444157073265593850220901527248906294199363780899901039349596160.000000 
435459664342502951708143888198042296237014523908173025739827581731517776227461888848429056.000000 
-12845417580703122363676860511354363204761086620685029845874544122443614717625866351306369724090970850459648.000000 
-375460576174746442598468681344533460208633353938421458044636467999249466511789379690145898365691392097838432256.000000 
717236494918809717396333079682117491353527379663742060938168994048693564696476958413475520300687968741550685484247678976.000000 
23692732356516015411019235981409907091184564523219498372634212075738962077740164305961841627094283748634525696.000000 
-81572414505555385923855593515027501099399525927797137295763897471160932465431081074551638714359396285386459622402756182016.000000 
-2485909235740838729003812175094661092155520193674841736691289125774369721713727044401358328747176983493613216559095192163607267007004672.000000 
-41628711939651644870922935854010492479214782612174000501374672234549764743565375247328490996078854762715445870317267338887432873638530505506816.000000 
-1320833956985520595520629050327822629988068569109607871266691042811822313902505089457280682670728772097286605513738957182535142967903447416832.000000 
-125966937583949817477981216811330860147511624497791252542518949922293123127254276685388432281978401365950464.000000 
-1562963153368046918563208291619750665946205338217028795599289886797341682217207646845600215129241317015552.000000 
-4457336504359852013241101319600436976593246400597687728236546340223352133950046643991300339387803076810244096.000000 
-1562963297852983142319338786038570159141986226188786404440196579059557442764146476154120616780406080929792.000000 
-727578209946112096980649387990903834411243230057319496543045058204885886603703257859709604032101253906432.000000 
5502627772268167371057939830018773606881159295858047477659599166831570618292592417616257357971456.000000 
431222548958996177186171169003703382536463873936858043933431009833886188741928867631988736.000000 
5502628261094616822151703145601835933098756740361984869206731758192907923658900906934673797545984.000000 
-727577823180027575131060443372648402192203295934724767241195500518299475233078792848973269777892302127104.000000 
-25504346241613382573629172497999995077625574099768412403432366390220628630708856815616.000000 
-1475821897837885143395829203735084090299234646368902565253722229992162736804358872297897984.000000 
-21705618888335725011016646868189076356163762319533685249465563217920.000000 
31694949341110414934154362854810644744702703192414112223741186035322716160.000000 
-21705617130862837755644043723852916218438205051070526666016081051648.000000 
-1475820193901590367454257165059447377115489324484404699780179276090168973315005868899565568.000000 
-25504359346808386251493960435750179165953883849947685890162565635405512407763220692992.000000 
89606480759889515281891327677932290638894278819786522624.000000 
821662781510277346612996300705621996064895881951517437830627328.000000 
-212700228557531105214312457471354717931044864.000000 
7702444127085830531036133594167306115630254522368.000000 
-286715409938765971090919950389497298944.000000 
7702443736554457782011441796546381959975502086144.000000 
-212700118171054440036836715801180586263969792.000000 
821662157259483444913061515765307207603093957860436082008522752.000000 
89606439087361766141114082427022613395680441220485611520.000000 
-964843466360783804201500864797193892099193003496323020898609609039357144859877308089765337830828124667904.000000 
112060745401717475862766809017594444102867869921919697746573682418477753781628982676214695120113976163172352.000000 
-8189693304150304769486356933439416872640363335693942644505811357508108944642079594466419811934462572408864768.000000 
309646839428030179409283787172130880083240460806964405595513064799980558315172831335455338147005174099558352814080.000000 
-79382810974086665951725078370174435396496124035692449369642445981453431818121152057668975269828372742355757273876267008.000000 
10209949415302397491268751984634339069781309446943503017737064024408000792047932662391843489160118418639780052992.000000 
22270027935405157584743551908612926240432775885353222851888414695270183636485265475927784906521587623581240281254825175768608276480.000000 
-121342368113734547951740720272556136996947745900050304700392466706519828120408561554371762602944151036937119989760.000000 
8361166810788861361026269196272299456704144508550861246564476998243430111177890727922232685919086161408414449664.000000 
-222291840843507295040344864598954725671476290616116196528592412851904865972849620921615762613956049890007333726057970361522571683299328.000000 
-347486407826487586960720513074113946555682962872238482030517583985842598561514502981134525968641149688599360528393762744400084992.000000 
-2696523089187567296230938463339995429145863724568501799394172135091674388165180387856712783399189521775694754080178240182186848288768.000000 
-909138072989254211201648772948300234746739992015147740413947211372725936792095363282736553291094519825220785596504750865371889664.000000 
-370110971610242103442377012638773315501297091012649329169504348990506995438379949842564938406082118309071950221335012015341568.000000 
-992278027067060863810351360387962115655714513104009143454060100556682339368013463121946795783901181128998912.000000 
-4332839436158729682713189789898076582972898819484241144323022427063847495626451635734823139540992.000000 
-1320851396071449839472889972521570893991525370324148776466905669835998434294917389454575793625797926171063831573670802651915626183566185988096.000000 
-41628644583721798783634431778312466589288532309745270089260375879437492974298741542823605497564057336080571412455946942283461868879335615627264.000000 
-2485908505922572721502147272465664743506863170868763479373544538466919304256187812946905417401286197817896598868585620874536873000697856.000000 
-81572361316502624565737446336565434753229452961745661829142236354840381604663362906438147499107061850522888889053285974016.000000 
23692711611460242278851736928544510201421330453522934880839283243578306204189744877515180135605294914426896384.000000 
717236828619859164480340502416718182457651917747555076843799501245872097288349642579490134010934383878167881698303279104.000000 
-375460661009085664262190783522232897459234467562739339490928682932757315571680984844306186338269526635050958848.000000 
-12845421442419715052397328746733154332950941002134188654055252243384883054098477659470975150605968229793792.000000 
435459797486374356238532531441761548296867319917321082529773960767386959266467388774678528.000000 
56167624588569137759646699166653606157244782016305775945711616.000000 
141036433006388944.000000 
221928082679478866778732060649268069810569216.000000 
4518548486793893388134306403753415592689361003588831633377991912154719330752266240.000000 
56855.714768 
74575874535.526749 
17210868818117101568.000000 
6417390280112778882266232020680408140581223432382840832.000000 
7353561670316936514333924993687245045861387070798384215868932785391770945533121088454656.000000 
439.176253 
168.487610 
50472.730635 
158229196578.290710 
8013807656406190080.000000 
6884995898546847358482787158726893772193256404760395776.000000 
488697026322152438862580789132618849628491408532678761602541816730026769745841765272529141760.000000 
788.929172 
905.524236 
3279.625117 
82.331497 
324864.228330 
14961727963.486206 
332281729124409671680.000000 
248434830233391081337668710587696508824746721280.000000 
29700944375974788610637406008568060804801126766517636344230048078657519815497875456.000000 
41505861516985923367716729651200.000000 
5745.785295 
8039834.349132 
1360337.220450 
165.684362 
506.633108 
960.635784 
403.271432 
83.619402 
555.267925 
121.305961 
398.454847 
197.414310 
170.957952 
5407.034728 
440.869360 
205.348295 
630.289194 
498.831099 
499.150657 
135.575442 
7663.295247 
1332.839537 
157.301069 
541.497406 
SCALARS ELEM_i float 
LOOKUP_TABLE default 
162 
189 
162 
162 
190 
190 
190 
163 
163 
217 
190 
190 
190 
191 
163 
164 
217 
217 
218 
191 
191 
191 
191 
164 
164 
162 
189 
189 
189 
216 
216 
216 
189 
216 
243 
216 
243 
216 
216 
216 
217 
270 
243 
270 
243 
243 
243 
244 
244 
244 
162 
189 
189 
189 
189 
189 
216 
216 
216 
189 
189 
216 
216 
243 
216 
243 
216 
216 
243 
243 
243 
243 
270 
243 
270 
162 
162 
162 
162 
135 
162 
162 
162 
189 
135 
135 
162 
162 
162 
189 
189 
135 
135 
135 
162 
162 
162 
189 
189 
189 
162 
135 
135 
135 
108 
108 
108 
135 
135 
81 
108 
81 
108 
108 
135 
135 
54 
81 
54 
81 
81 
81 
81 
108 
108 
162 
135 
135 
135 
108 
135 
108 
108 
108 
109 
108 
108 
108 
81 
108 
81 
82 
82 
82 
81 
81 
81 
54 
81 
54 
162 
162 
162 
135 
163 
163 
136 
136 
136 
164 
163 
137 
136 
136 
136 
109 
164 
164 
137 
137 
137 
137 
110 
109 
109 
VECTORS VELOCITY float 
-0.134382 -4.316479 0.000000 
-1.277296 -3.694064 0.000000 
-0.931142 -3.146432 0.000000 
-0.297304 -4.218561 0.000000 
-0.454903 -5.204762 0.000000 
-0.583471 -4.997842 0.000000 
-0.680181 -5.064263 0.000000 
-0.772254 -4.798406 0.000000 
0.017763 -5.046608 0.000000 
-0.724332 -5.243327 0.000000 
-0.518677 -5.289095 0.000000 
-0.954616 -4.290977 0.000000 
-0.034512 -4.716011 0.000000 
0.251778 -5.162746 0.000000 
0.731803 -5.133069 0.000000 
0.282360 -5.455484 0.000000 
-0.137949 -4.592066 0.000000 
-0.735354 -4.444598 0.000000 
-0.140912 -4.639686 0.000000 
-0.776430 -5.343703 0.000000 
-0.047912 -5.085913 0.000000 
0.031134 -5.420111 0.000000 
-0.105606 -5.165008 0.000000 
0.048816 -5.675597 0.000000 
-0.067391 -4.785225 0.000000 
-0.828170 -4.350341 0.000000 
-0.248883 -5.345910 0.000000 
-0.603262 -4.811627 0.000000 
-0.521695 -4.486127 0.000000 
-0.474453 -5.109511 0.000000 
-0.198732 -5.442676 0.000000 
-0.917593 -4.744555 0.000000 
-0.497993 -4.868212 0.000000 
-0.768309 -6.071800 0.000000 
-1.103599 -4.829384 0.000000 
-1.215106 -4.099739 0.000000 
-1.619675 -3.402437 0.000000 
-1.835501 -3.529077 0.000000 
-2.522165 -4.400658 0.000000 
-1.617592 -5.220134 0.000000 
-1.117278 -5.274605 0.000000 
-2.431301 -3.197850 0.000000 
-1.905681 -3.328961 0.000000 
-1.224845 -3.386304 0.000000 
-1.165555 -3.245924 0.000000 
0.351625 -3.631374 0.000000 
-1.001424 -4.389910 0.000000 
-0.521277 -5.452042 0.000000 
-1.390645 -5.554703 0.000000 
-0.813608 -5.454257 0.000000 
-0.303936 -6.280655 0.000000 
-0.707118 -7.150716 0.000000 
-0.392865 -6.275443 0.000000 
-0.244435 -6.536104 0.000000 
-0.143912 -8.701146 0.000000 
-0.178836 -7.635873 0.000000 
-0.517875 -7.228172 0.000000 
-0.645067 -6.916818 0.000000 
-0.817500 -6.645248 0.000000 
0.176137 -11.909081 0.000000 
0.310501 -9.960662 0.000000 
-0.404369 -10.036331 0.000000 
-0.836838 -8.334379 0.000000 
-0.801243 -8.400456 0.000000 
-0.808335 -7.211322 0.000000 
-0.649578 -6.732920 0.000000 
-1.022315 -24.530836 0.000000 
-0.406683 -18.194054 0.000000 
-3.246100 -22.043811 0.000000 
-1.924746 -14.487944 0.000000 
-3.766343 -14.055299 0.000000 
-1.187036 -10.270406 0.000000 
-3.532684 -10.527986 0.000000 
-1.887687 -7.207955 0.000000 
-3.035595 -5.627112 0.000000 
0.000000 -6.416533 0.000000 
0.013107 -7.853184 0.000000 
0.000000 -6.987736 0.000000 
-0.013107 -7.853184 0.000000 
-0.270832 -10.192463 0.000000 
-0.070255 -9.261181 0.000000 
0.000000 -10.602690 0.000000 
0.070255 -9.261181 0.000000 
0.270832 -10.192463 0.000000 
-0.106813 -12.559321 0.000000 
-0.364121 -10.782442 0.000000 
-0.002100 -12.422118 0.000000 
-0.000000 -10.942570 0.000000 
0.002100 -12.422118 0.000000 
0.364121 -10.782442 0.000000 
0.106813 -12.559321 0.000000 
0.622839 -28.271510 0.000000 
-0.003683 -18.984699 0.000000 
0.559841 -29.823211 0.000000 
-0.126527 -18.529200 0.000000 
-0.000000 -33.735040 0.000000 
0.126527 -18.529200 0.000000 
-0.559841 -29.823211 0.000000 
0.003683 -18.984699 0.000000 
-0.622839 -28.271510 0.000000 
0.303936 -6.280655 0.000000 
0.244435 -6.536104 0.000000 
0.392865 -6.275443 0.000000 
0.707118 -7.150716 0.000000 
0.817500 -6.645248 0.000000 
0.645067 -6.916818 0.000000 
0.517875 -7.228172 0.000000 
0.178836 -7.635873 0.000000 
0.143912 -8.701146 0.000000 
0.649578 -6.732920 0.000000 
0.808335 -7.211322 0.000000 
0.801243 -8.400456 0.000000 
0.836838 -8.334379 0.000000 
0.404369 -10.036331 0.000000 
-0.310501 -9.960662 0.000000 
-0.176137 -11.909081 0.000000 
3.035595 -5.627112 0.000000 
1.887687 -7.207955 0.000000 
3.532684 -10.527986 0.000000 
1.187036 -10.270406 0.000000 
3.766343 -14.055299 0.000000 
1.924746 -14.487944 0.000000 
3.246100 -22.043812 0.000000 
0.406683 -18.194054 0.000000 
1.022315 -24.530836 0.000000 
0.828170 -4.350341 0.000000 
0.521695 -4.486127 0.000000 
0.603262 -4.811627 0.000000 
0.248883 -5.345910 0.000000 
0.768309 -6.071800 0.000000 
0.497993 -4.868212 0.000000 
0.917593 -4.744555 0.000000 
0.198732 -5.442676 0.000000 
0.474453 -5.109511 0.000000 
1.117278 -5.274605 0.000000 
1.617592 -5.220134 0.000000 
2.522165 -4.400658 0.000000 
1.835501 -3.529077 0.000000 
1.619675 -3.402437 0.000000 
1.215106 -4.099739 0.000000 
1.103599 -4.829384 0.000000 
0.813608 -5.454257 0.000000 
1.390645 -5.554703 0.000000 
0.521277 -5.452042 0.000000 
1.001424 -4.389910 0.000000 
-0.351626 -3.631374 0.000000 
1.165556 -3.245924 0.000000 
1.224845 -3.386304 0.000000 
1.905681 -3.328961 0.000000 
2.431301 -3.197850 0.000000 
0.134382 -4.316479 0.000000 
0.297304 -4.218561 0.000000 
0.931142 -3.146432 0.000000 
1.277296 -3.694064 0.000000 
-0.017763 -5.046608 0.000000 
0.772254 -4.798406 0.000000 
0.680181 -5.064263 0.000000 
0.583471 -4.997842 0.000000 
0.454903 -5.204762 0.000000 
-0.282360 -5.455484 0.000000 
-0.731803 -5.133069 0.000000 
-0.251778 -5.162746 0.000000 
0.034512 -4.716011 0.000000 
0.954616 -4.290977 0.000000 
0.518677 -5.289095 0.000000 
0.724332 -5.243327 0.000000 
0.067391 -4.785225 0.000000 
-0.048816 -5.675597 0.000000 
0.105606 -5.165008 0.000000 
-0.031134 -5.420111 0.000000 
0.047912 -5.085913 0.000000 
0.776430 -5.343703 0.000000 
0.140912 -4.639686 0.000000 
0.735354 -4.444598 0.000000 
0.137949 -4.592066 0.000000 
TENSORS STRESS float 
-0.000000 -0.000000 0.000000 
0.000000 -0.000000 0.000000 
0.000000 0.000000 0.000000 

-0.166167 -0.001314 0.000000 
0.000000 -0.186288 0.000000 
0.000000 0.000000 0.000000 

-0.031616 -0.000099 0.000000 
0.000000 -0.036080 0.000000 
0.000000 0.000000 0.000000 

-9.079896 0.150918 0.000000 
0.000000 -12.090847 0.000000 
0.000000 0.000000 0.000000 

115.114450 38.222185 0.000000 
0.000000 42.451943 0.000000 
0.000000 0.000000 0.000000 

-1.611765 6.818956 0.000000 
0.000000 -19.856423 0.000000 
0.000000 0.000000 0.000000 

-7.648105 0.886044 0.000000 
0.000000 -12.796424 0.000000 
0.000000 0.000000 0.000000 

30.007164 2.677476 0.000000 
0.000000 14.123537 0.000000 
0.000000 0.000000 0.000000 

110.980363 5.166068 0.000000 
0.000000 77.402662 0.000000 
0.000000 0.000000 0.000000 

-6.144060 -0.381112 0.000000 
0.000000 -17.167261 0.000000 
0.000000 0.000000 0.000000 

-1.506187 0.685931 0.000000 
0.000000 -2.319615 0.000000 
0.000000 0.000000 0.000000 

77.006748 8.083739 0.000000 
0.000000 70.933348 0.000000 
0.000000 0.000000 0.000000 

29.641226 7.020069 0.000000 
0.000000 20.010774 0.000000 
0.000000 0.000000 0.000000 

-10.763378 -1.169835 0.000000 
0.000000 -14.735650 0.000000 
0.000000 0.000000 0.000000 

42.389016 12.067784 0.000000 
0.000000 23.009893 0.000000 
0.000000 0.000000 0.000000 

-9.616100 0.806526 0.000000 
0.000000 -12.895414 0.000000 
0.000000 0.000000 0.000000 

11.124675 -0.737602 0.000000 
0.000000 9.276570 0.000000 
0.000000 0.000000 0.000000 

38.861656 -7.582100 0.000000 
0.000000 31.458218 0.000000 
0.000000 0.000000 0.000000 

-7.347149 -2.424001 0.000000 
0.000000 -7.392163 0.000000 
0.000000 0.000000 0.000000 

-1.045439 0.027225 0.000000 
0.000000 -1.223066 0.000000 
0.000000 0.000000 0.000000 

21.837158 -2.906671 0.000000 
0.000000 24.211239 0.000000 
0.000000 0.000000 0.000000 

-15.265830 -1.975250 0.000000 
0.000000 -16.987125 0.000000 
0.000000 0.000000 0.000000 

-0.923660 -4.114841 0.000000 
0.000000 1.341368 0.000000 
0.000000 0.000000 0.000000 

-25.654262 0.798205 0.000000 
0.000000 -26.872238 0.000000 
0.000000 0.000000 0.000000 

48.845097 0.078542 0.000000 
0.000000 56.647233 0.000000 
0.000000 0.000000 0.000000 

-0.000000 -0.000000 0.000000 
0.000000 -0.000000 0.000000 
0.000000 0.000000 0.000000 

-0.000000 -0.000000 0.000000 
0.000000 -0.000000 0.000000 
0.000000 0.000000 0.000000 

-0.000000 -0.000000 0.000000 
0.000000 -0.000000 0.000000 
0.000000 0.000000 0.000000 

-0.000000 -0.000000 0.000000 
0.000000 -0.000000 0.000000 
0.000000 0.000000 0.000000 

-0.000000 0.000000 0.000000 
0.000000 -0.000000 0.000000 
0.000000 0.000000 0.000000 

-0.000000 0.000000 0.000000 
0.000000 -0.000000 0.000000 
0.000000 0.000000 0.000000 

-0.000000 -0.000000 0.000000 
0.000000 -0.000000 0.000000 
0.000000 0.000000 0.000000 

-0.000005 0.000000 0.000000 
0.000000 -0.000005 0.000000 
0.000000 0.000000 0.000000 

-2.426850 -0.058071 0.000000 
0.000000 -2.859819 0.000000 
0.000000 0.000000 0.000000 

-0.000000 0.000000 0.000000 
0.000000 -0.000000 0.000000 
0.000000 0.000000 0.000000 

-0.000000 0.000000 0.000000 
0.000000 -0.000000 0.000000 
0.000000 0.000000 0.000000 

-0.000000 0.000000 0.000000 
0.000000 -0.000000 0.000000 
0.000000 0.000000 0.000000 

-0.000002 0.000000 0.000000 
0.000000 -0.000002 0.000000 
0.000000 0.000000 0.000000 

-2.710600 0.035319 0.000000 
0.000000 -3.183858 0.000000 
0.000000 0.000000 0.000000 

-183.585064 -1.842715 0.000000 
0.000000 -260.462038 0.000000 
0.000000 0.000000 0.000000 

1.721583 2.350716 0.000000 
0.000000 -13.563843 0.000000 
0.000000 0.000000 0.000000 

-0.000000 0.000000 0.000000 
0.000000 -0.000000 0.000000 
0.000000 0.000000 0.000000 

-0.000000 0.000000 0.000000 
0.000000 -0.000000 0.000000 
0.000000 0.000000 0.000000 

-0.000000 0.000000 0.000000 
0.000000 -0.000000 0.000000 
0.000000 0.000000 0.000000 

-0.000020 0.000000 0.000000 
0.000000 -0.000023 0.000000 
0.000000 0.000000 0.000000 

-0.298944 0.014926 0.000000 
0.000000 -0.375783 0.000000 
0.000000 0.000000 0.000000 

-215.840599 1.977502 0.000000 
0.000000 -391.298987 0.000000 
0.000000 0.000000 0.000000 

-5.625603 -0.366530 0.000000 
0.000000 -7.800127 0.000000 
0.000000 0.000000 0.000000 

-26.162511 3.296974 0.000000 
0.000000 -32.957798 0.000000 
0.000000 0.000000 0.000000 

-29.189602 -2.936668 0.000000 
0.000000 -33.468337 0.000000 
0.000000 0.000000 0.000000 

0.000000 0.000000 0.000000 
0.000000 0.000000 0.000000 
0.000000 0.000000 0.000000 

-0.000000 -0.000000 0.000000 
0.000000 -0.000000 0.000000 
0.000000 0.000000 0.000000 

0.000000 0.000000 0.000000 
0.000000 0.000000 0.000000 
0.000000 0.000000 0.000000 

-0.000000 -0.000000 0.000000 
0.000000 -0.000000 0.000000 
0.000000 0.000000 0.000000 

-0.000000 -0.000000 0.000000 
0.000000 -0.000000 0.000000 
0.000000 0.000000 0.000000 

0.000000 0.000000 0.000000 
0.000000 0.000000 0.000000 
0.000000 0.000000 0.000000 

-0.000000 -0.000000 0.000000 
0.000000 -0.000000 0.000000 
0.000000 0.000000 0.000000 

-0.000000 -0.000000 0.000000 
0.000000 -0.000000 0.000000 
0.000000 0.000000 0.000000 

0.000000 -0.000000 0.000000 
0.000000 0.000000 0.000000 
0.000000 0.000000 0.000000 

0.000000 -0.000000 0.000000 
0.000000 0.000000 0.000000 
0.000000 0.000000 0.000000 

0.000000 -0.000000 0.000000 
0.000000 0.000000 0.000000 
0.000000 0.000000 0.000000 

0.000000 -0.000000 0.000000 
0.000000 0.000000 0.000000 
0.000000 0.000000 0.000000 

0.000000 -0.000000 0.000000 
0.000000 0.000000 0.000000 
0.000000 0.000000 0.000000 

0.000000 -0.000000 0.000000 
0.000000 0.000000 0.000000 
0.000000 0.000000 0.000000 

0.000000 -0.000000 0.000000 
0.000000 0.000000 0.000000 
0.000000 0.000000 0.000000 

0.000000 -0.000000 0.000000 
0.000000 0.000000 0.000000 
0.000000 0.000000 0.000000 

-0.000000 0.000000 0.000000 
0.000000 -0.000000 0.000000 
0.000000 0.000000 0.000000 

0.000000 -0.000000 0.000000 
0.000000 0.000000 0.000000 
0.000000 0.000000 0.000000 

0.000000 -0.000000 0.000000 
0.000000 0.000000 0.000000 
0.000000 0.000000 0.000000 

-0.000000 0.000000 0.000000 
0.000000 -0.000000 0.000000 
0.000000 0.000000 0.000000 

-0.000000 0.000000 0.000000 
0.000000 -0.000000 0.000000 
0.000000 0.000000 0.000000 

0.000000 -0.000000 0.000000 
0.000000 0.000000 0.000000 
0.000000 0.000000 0.000000 

0.000000 -0.000000 0.000000 
0.000000 0.000000 0.000000 
0.000000 0.000000 0.000000 

0.000000 -0.000000 0.000000 
0.000000 0.000000 0.000000 
0.000000 0.000000 0.000000 

0.000000 -0.000000 0.000000 
0.000000 0.000000 0.000000 
0.000000 0.000000 0.000000 

0.000000 -0.000000 0.000000 
0.000000 0.000000 0.000000 
0.000000 0.000000 0.000000 

0.000000 -0.000000 0.000000 
0.000000 0.000000 0.000000 
0.000000 0.000000 0.000000 

0.000000 -0.000000 0.000000 
0.000000 0.000000 0.000000 
0.000000 0.000000 0.000000 

0.000000 0.000000 0.000000 
0.000000 0.000000 0.000000 
0.000000 0.000000 0.000000 

0.000000 -0.000000 0.000000 
0.000000 0.000000 0.000000 
0.000000 0.000000 0.000000 

-0.000000 0.000000 0.000000 
0.000000 -0.000000 0.000000 
0.000000 0.000000 0.000000 

-0.000000 0.000000 0.000000 
0.000000 -0.000000 0.000000 
0.000000 0.000000 0.000000 

-0.000000 -0.000000 0.000000 
0.000000 -0.000000 0.000000 
0.000000 0.000000 0.000000 

0.000000 0.000000 0.000000 
0.000000 0.000000 0.000000 
0.000000 0.000000 0.000000 

0.000000 -0.000000 0.000000 
0.000000 0.000000 0.000000 
0.000000 0.000000 0.000000 

0.000000 -0.000000 0.000000 
0.000000 0.000000 0.000000 
0.000000 0.000000 0.000000 

0.000000 -0.000000 0.000000 
0.000000 0.000000 0.000000 
0.000000 0.000000 0.000000 

-0.000000 0.000000 0.000000 
0.000000 -0.000000 0.000000 
0.000000 0.000000 0.000000 

0.000000 0.000000 0.000000 
0.000000 0.000000 0.000000 
0.000000 0.000000 0.000000 

0.000000 0.000000 0.000000 
0.000000 0.000000 0.000000 
0.000000 0.000000 0.000000 

0.000000 0.000000 0.000000 
0.000000 0.000000 0.000000 
0.000000 0.000000 0.000000 

-0.000000 -0.000000 0.000000 
0.000000 -0.000000 0.000000 
0.000000 0.000000 0.000000 

-0.000000 0.000000 0.000000 
0.000000 -0.000000 0.000000 
0.000000 0.000000 0.000000 

0.000000 -0.000000 0.000000 
0.000000 0.000000 0.000000 
0.000000 0.000000 0.000000 

-0.000000 0.000000 0.000000 
0.000000 -0.000000 0.000000 
0.000000 0.000000 0.000000 

0.000000 -0.000000 0.000000 
0.000000 0.000000 0.000000 
0.000000 0.000000 0.000000 

-0.000000 -0.000000 0.000000 
0.000000 -0.000000 0.000000 
0.000000 0.000000 0.000000 

0.000000 0.000000 0.000000 
0.000000 0.000000 0.000000 
0.000000 0.000000 0.000000 

-0.000000 -0.000000 0.000000 
0.000000 -0.000000 0.000000 
0.000000 0.000000 0.000000 

-0.000000 0.000000 0.000000 
0.000000 -0.000000 0.000000 
0.000000 0.000000 0.000000 

0.000000 -0.000000 0.000000 
0.000000 0.000000 0.000000 
0.000000 0.000000 0.000000 

-0.000000 0.000000 0.000000 
0.000000 -0.000000 0.000000 
0.000000 0.000000 0.000000 

0.000000 -0.000000 0.000000 
0.000000 0.000000 0.000000 
0.000000 0.000000 0.000000 

-0.000000 0.000000 0.000000 
0.000000 -0.000000 0.000000 
0.000000 0.000000 0.000000 

0.000000 0.000000 0.000000 
0.000000 0.000000 0.000000 
0.000000 0.000000 0.000000 

-0.000000 0.000000 0.000000 
0.000000 -0.000000 0.000000 
0.000000 0.000000 0.000000 

-0.000000 0.000000 0.000000 
0.000000 -0.000000 0.000000 
0.000000 0.000000 0.000000 

0.000000 -0.000000 0.000000 
0.000000 0.000000 0.000000 
0.000000 0.000000 0.000000 

-0.000000 0.000000 0.000000 
0.000000 -0.000000 0.000000 
0.000000 0.000000 0.000000 

0.000000 0.000000 0.000000 
0.000000 0.000000 0.000000 
0.000000 0.000000 0.000000 

0.000000 0.000000 0.000000 
0.000000 0.000000 0.000000 
0.000000 0.000000 0.000000 

0.000000 0.000000 0.000000 
0.000000 0.000000 0.000000 
0.000000 0.000000 0.000000 

0.000000 0.000000 0.000000 
0.000000 0.000000 0.000000 
0.000000 0.000000 0.000000 

0.000000 0.000000 0.000000 
0.000000 0.000000 0.000000 
0.000000 0.000000 0.000000 

0.000000 0.000000 0.000000 
0.000000 0.000000 0.000000 
0.000000 0.000000 0.000000 

0.000000 0.000000 0.000000 
0.000000 0.000000 0.000000 
0.000000 0.000000 0.000000 

0.000000 0.000000 0.000000 
0.000000 0.000000 0.000000 
0.000000 0.000000 0.000000 

0.000000 0.000000 0.000000 
0.000000 0.000000 0.000000 
0.000000 0.000000 0.000000 

0.000000 0.000000 0.000000 
0.000000 0.000000 0.000000 
0.000000 0.000000 0.000000 

0.000000 0.000000 0.000000 
0.000000 0.000000 0.000000 
0.000000 0.000000 0.000000 

-0.000000 -0.000000 0.000000 
0.000000 -0.000000 0.000000 
0.000000 0.000000 0.000000 

-0.000000 -0.000000 0.000000 
0.000000 -0.000000 0.000000 
0.000000 0.000000 0.000000 

0.000000 0.000000 0.000000 
0.000000 0.000000 0.000000 
0.000000 0.000000 0.000000 

0.000000 0.000000 0.000000 
0.000000 0.000000 0.000000 
0.000000 0.000000 0.000000 

-0.000000 -0.000000 0.000000 
0.000000 -0.000000 0.000000 
0.000000 0.000000 0.000000 

-0.000000 0.000000 0.000000 
0.000000 -0.000000 0.000000 
0.000000 0.000000 0.000000 

-0.000000 0.000000 0.000000 
0.000000 -0.000000 0.000000 
0.000000 0.000000 0.000000 

-0.000000 0.000000 0.000000 
0.000000 -0.000000 0.000000 
0.000000 0.000000 0.000000 

-0.000000 0.000000 0.000000 
0.000000 -0.000000 0.000000 
0.000000 0.000000 0.000000 

-2.426850 0.058071 0.000000 
0.000000 -2.859819 0.000000 
0.000000 0.000000 0.000000 

-0.000005 -0.000000 0.000000 
0.000000 -0.000005 0.000000 
0.000000 0.000000 0.000000 

-0.000000 0.000000 0.000000 
0.000000 -0.000000 0.000000 
0.000000 0.000000 0.000000 

-0.000000 -0.000000 0.000000 
0.000000 -0.000000 0.000000 
0.000000 0.000000 0.000000 

-0.000000 -0.000000 0.000000 
0.000000 -0.000000 0.000000 
0.000000 0.000000 0.000000 

1.721583 -2.350716 0.000000 
0.000000 -13.563843 0.000000 
0.000000 0.000000 0.000000 

-183.585064 1.842715 0.000000 
0.000000 -260.462038 0.000000 
0.000000 0.000000 0.000000 

-2.710600 -0.035319 0.000000 
0.000000 -3.183858 0.000000 
0.000000 0.000000 0.000000 

-0.000002 -0.000000 0.000000 
0.000000 -0.000002 0.000000 
0.000000 0.000000 0.000000 

-0.000000 -0.000000 0.000000 
0.000000 -0.000000 0.000000 
0.000000 0.000000 0.000000 

-0.000000 -0.000000 0.000000 
0.000000 -0.000000 0.000000 
0.000000 0.000000 0.000000 

-0.000000 -0.000000 0.000000 
0.000000 -0.000000 0.000000 
0.000000 0.000000 0.000000 

-29.189602 2.936667 0.000000 
0.000000 -33.468337 0.000000 
0.000000 0.000000 0.000000 

-26.162512 -3.296974 0.000000 
0.000000 -32.957799 0.000000 
0.000000 0.000000 0.000000 

-5.625603 0.366530 0.000000 
0.000000 -7.800128 0.000000 
0.000000 0.000000 0.000000 

-215.840608 -1.977502 0.000000 
0.000000 -391.298997 0.000000 
0.000000 0.000000 0.000000 

-0.298944 -0.014926 0.000000 
0.000000 -0.375784 0.000000 
0.000000 0.000000 0.000000 

-0.000020 -0.000000 0.000000 
0.000000 -0.000023 0.000000 
0.000000 0.000000 0.000000 

-0.000000 -0.000000 0.000000 
0.000000 -0.000000 0.000000 
0.000000 0.000000 0.000000 

-0.000000 -0.000000 0.000000 
0.000000 -0.000000 0.000000 
0.000000 0.000000 0.000000 

-0.000000 -0.000000 0.000000 
0.000000 -0.000000 0.000000 
0.000000 0.000000 0.000000 

-0.000000 0.000000 0.000000 
0.000000 -0.000000 0.000000 
0.000000 0.000000 0.000000 

-9.079896 -0.150918 0.000000 
0.000000 -12.090848 0.000000 
0.000000 0.000000 0.000000 

-0.031616 0.000099 0.000000 
0.000000 -0.036080 0.000000 
0.000000 0.000000 0.000000 

-0.166167 0.001314 0.000000 
0.000000 -0.186288 0.000000 
0.000000 0.000000 0.000000 

110.980367 -5.166068 0.000000 
0.000000 77.402665 0.000000 
0.000000 0.000000 0.000000 

30.007163 -2.677476 0.000000 
0.000000 14.123537 0.000000 
0.000000 0.000000 0.000000 

-7.648105 -0.886044 0.000000 
0.000000 -12.796424 0.000000 
0.000000 0.000000 0.000000 

-1.611765 -6.818956 0.000000 
0.000000 -19.856423 0.000000 
0.000000 0.000000 0.000000 

115.114455 -38.222186 0.000000 
0.000000 42.451947 0.000000 
0.000000 0.000000 0.000000 

-9.616101 -0.806526 0.000000 
0.000000 -12.895414 0.000000 
0.000000 0.000000 0.000000 

42.389013 -12.067784 0.000000 
0.000000 23.009890 0.000000 
0.000000 0.000000 0.000000 

-10.763378 1.169835 0.000000 
0.000000 -14.735650 0.000000 
0.000000 0.000000 0.000000 

29.641226 -7.020069 0.000000 
0.000000 20.010774 0.000000 
0.000000 0.000000 0.000000 

77.006750 -8.083739 0.000000 
0.000000 70.933349 0.000000 
0.000000 0.000000 0.000000 

-1.506187 -0.685931 0.000000 
0.000000 -2.319615 0.000000 
0.000000 0.000000 0.000000 

-6.144060 0.381112 0.000000 
0.000000 -17.167260 0.000000 
0.000000 0.000000 0.000000 

48.845098 -0.078542 0.000000 
0.000000 56.647233 0.000000 
0.000000 0.000000 0.000000 

-25.654261 -0.798205 0.000000 
0.000000 -26.872237 0.000000 
0.000000 0.000000 0.000000 

-0.923661 4.114840 0.000000 
0.000000 1.341367 0.000000 
0.000000 0.000000 0.000000 

-15.265830 1.975250 0.000000 
0.000000 -16.987125 0.000000 
0.000000 0.000000 0.000000 

21.837158 2.906671 0.000000 
0.000000 24.211238 0.000000 
0.000000 0.000000 0.000000 

-1.045439 -0.027225 0.000000 
0.000000 -1.223066 0.000000 
0.000000 0.000000 0.000000 

-7.347149 2.424001 0.000000 
0.000000 -7.392163 0.000000 
0.000000 0.000000 0.000000 

38.861657 7.582100 0.000000 
0.000000 31.458220 0.000000 
0.000000 0.000000 0.000000 

11.124678 0.737602 0.000000 
0.000000 9.276573 0.000000 
0.000000 0.000000 0.000000 

TENSORS STRAIN float 
0.113114 -0.002322 0.000000 
0.000000 -0.862900 0.000000 
0.000000 0.000000 0.000000 

0.070147 -0.030620 0.000000 
0.000000 -0.398560 0.000000 
0.000000 0.000000 0.000000 

0.110366 -0.012431 0.000000 
0.000000 -0.450704 0.000000 
0.000000 0.000000 0.000000 

0.106466 0.014849 0.000000 
0.000000 -0.189787 0.000000 
0.000000 0.000000 0.000000 

0.055443 0.053673 0.000000 
0.000000 -0.046593 0.000000 
0.000000 0.000000 0.000000 

0.056327 0.044184 0.000000 
0.000000 -0.061891 0.000000 
0.000000 0.000000 0.000000 

0.035857 0.014673 0.000000 
0.000000 -0.049400 0.000000 
0.000000 0.000000 0.000000 

0.071834 0.021796 0.000000 
0.000000 -0.057464 0.000000 
0.000000 0.000000 0.000000 

0.057196 0.014374 0.000000 
0.000000 -0.036230 0.000000 
0.000000 0.000000 0.000000 

0.037112 -0.002803 0.000000 
0.000000 -0.043971 0.000000 
0.000000 0.000000 0.000000 

0.029037 0.060320 0.000000 
0.000000 -0.042495 0.000000 
0.000000 0.000000 0.000000 

0.017440 0.023514 0.000000 
0.000000 -0.000227 0.000000 
0.000000 0.000000 0.000000 

0.018535 0.022403 0.000000 
0.000000 -0.012197 0.000000 
0.000000 0.000000 0.000000 

0.010008 -0.007931 0.000000 
0.000000 -0.016923 0.000000 
0.000000 0.000000 0.000000 

0.021697 0.023808 0.000000 
0.000000 -0.016536 0.000000 
0.000000 0.000000 0.000000 

0.011019 0.007472 0.000000 
0.000000 -0.019362 0.000000 
0.000000 0.000000 0.000000 

0.011958 -0.006621 0.000000 
0.000000 -0.004632 0.000000 
0.000000 0.000000 0.000000 

0.012986 -0.019276 0.000000 
0.000000 -0.005835 0.000000 
0.000000 0.000000 0.000000 

-0.006016 -0.053558 0.000000 
0.000000 -0.007011 0.000000 
0.000000 0.000000 0.000000 

0.005314 0.003330 0.000000 
0.000000 -0.016413 0.000000 
0.000000 0.000000 0.000000 

-0.000598 -0.006533 0.000000 
0.000000 0.004738 0.000000 
0.000000 0.000000 0.000000 

0.001718 -0.015737 0.000000 
0.000000 -0.011996 0.000000 
0.000000 0.000000 0.000000 

-0.009296 -0.034027 0.000000 
0.000000 0.009434 0.000000 
0.000000 0.000000 0.000000 

-0.004498 0.008131 0.000000 
0.000000 -0.016905 0.000000 
0.000000 0.000000 0.000000 

-0.006098 0.000267 0.000000 
0.000000 0.020462 0.000000 
0.000000 0.000000 0.000000 

0.110325 -0.031155 0.000000 
0.000000 -1.088479 0.000000 
0.000000 0.000000 0.000000 

0.123020 -0.024942 0.000000 
0.000000 -1.218156 0.000000 
0.000000 0.000000 0.000000 

0.103795 -0.043276 0.000000 
0.000000 -1.004933 0.000000 
0.000000 0.000000 0.000000 

0.086554 -0.010584 0.000000 
0.000000 -0.689910 0.000000 
0.000000 0.000000 0.000000 

0.220692 0.056060 0.000000 
0.000000 -1.292704 0.000000 
0.000000 0.000000 0.000000 

0.180448 0.014109 0.000000 
0.000000 -1.115584 0.000000 
0.000000 0.000000 0.000000 

0.153478 -0.016251 0.000000 
0.000000 -0.766972 0.000000 
0.000000 0.000000 0.000000 

0.080788 0.013493 0.000000 
0.000000 -0.568146 0.000000 
0.000000 0.000000 0.000000 

0.105745 -0.055446 0.000000 
0.000000 -0.307651 0.000000 
0.000000 0.000000 0.000000 

0.292929 0.108724 0.000000 
0.000000 -1.325695 0.000000 
0.000000 0.000000 0.000000 

0.206442 0.122374 0.000000 
0.000000 -1.130005 0.000000 
0.000000 0.000000 0.000000 

0.218376 0.080853 0.000000 
0.000000 -0.796493 0.000000 
0.000000 0.000000 0.000000 

0.139246 0.028794 0.000000 
0.000000 -0.604644 0.000000 
0.000000 0.000000 0.000000 

0.101972 0.030331 0.000000 
0.000000 -0.304455 0.000000 
0.000000 0.000000 0.000000 

0.080995 -0.005049 0.000000 
0.000000 -0.129666 0.000000 
0.000000 0.000000 0.000000 

0.054266 0.017225 0.000000 
0.000000 -0.057737 0.000000 
0.000000 0.000000 0.000000 

0.275952 0.130797 0.000000 
0.000000 -1.266267 0.000000 
0.000000 0.000000 0.000000 

0.278537 0.064235 0.000000 
0.000000 -1.111784 0.000000 
0.000000 0.000000 0.000000 

0.245722 0.105933 0.000000 
0.000000 -0.790733 0.000000 
0.000000 0.000000 0.000000 

0.202950 0.038224 0.000000 
0.000000 -0.613779 0.000000 
0.000000 0.000000 0.000000 

0.134232 0.080382 0.000000 
0.000000 -0.279579 0.000000 
0.000000 0.000000 0.000000 

0.099332 0.002599 0.000000 
0.000000 -0.131247 0.000000 
0.000000 0.000000 0.000000 

0.044513 -0.019927 0.000000 
0.000000 -0.073710 0.000000 
0.000000 0.000000 0.000000 

0.032420 0.048251 0.000000 
0.000000 -0.067029 0.000000 
0.000000 0.000000 0.000000 

0.011590 -0.038407 0.000000 
0.000000 -0.044369 0.000000 
0.000000 0.000000 0.000000 

0.103206 -0.014525 0.000000 
0.000000 -1.446871 0.000000 
0.000000 0.000000 0.000000 

0.171875 -0.095641 0.000000 
0.000000 -1.998140 0.000000 
0.000000 0.000000 0.000000 

0.152134 -0.062033 0.000000 
0.000000 -1.660794 0.000000 
0.000000 0.000000 0.000000 

0.147585 -0.028065 0.000000 
0.000000 -1.576529 0.000000 
0.000000 0.000000 0.000000 

0.201672 -0.044669 0.000000 
0.000000 -2.549909 0.000000 
0.000000 0.000000 0.000000 

0.186271 -0.044544 0.000000 
0.000000 -2.233170 0.000000 
0.000000 0.000000 0.000000 

0.328704 -0.033249 0.000000 
0.000000 -2.165827 0.000000 
0.000000 0.000000 0.000000 

0.187625 -0.044926 0.000000 
0.000000 -1.810798 0.000000 
0.000000 0.000000 0.000000 

0.277384 0.045481 0.000000 
0.000000 -1.670994 0.000000 
0.000000 0.000000 0.000000 

0.235738 0.030466 0.000000 
0.000000 -3.113310 0.000000 
0.000000 0.000000 0.000000 

0.219503 0.031794 0.000000 
0.000000 -2.804140 0.000000 
0.000000 0.000000 0.000000 

0.482672 0.112559 0.000000 
0.000000 -2.710593 0.000000 
0.000000 0.000000 0.000000 

0.423228 0.080534 0.000000 
0.000000 -2.379162 0.000000 
0.000000 0.000000 0.000000 

0.425213 0.214273 0.000000 
0.000000 -2.246067 0.000000 
0.000000 0.000000 0.000000 

0.328805 0.175333 0.000000 
0.000000 -1.884192 0.000000 
0.000000 0.000000 0.000000 

0.353994 0.221325 0.000000 
0.000000 -1.730486 0.000000 
0.000000 0.000000 0.000000 

0.587052 0.080908 0.000000 
0.000000 -3.662222 0.000000 
0.000000 0.000000 0.000000 

0.554633 0.119844 0.000000 
0.000000 -3.360604 0.000000 
0.000000 0.000000 0.000000 

0.594721 0.296689 0.000000 
0.000000 -3.260362 0.000000 
0.000000 0.000000 0.000000 

0.559843 0.286047 0.000000 
0.000000 -2.929952 0.000000 
0.000000 0.000000 0.000000 

0.383655 0.323574 0.000000 
0.000000 -2.729692 0.000000 
0.000000 0.000000 0.000000 

0.384710 0.261999 0.000000 
0.000000 -2.416010 0.000000 
0.000000 0.000000 0.000000 

0.314102 0.328593 0.000000 
0.000000 -2.198885 0.000000 
0.000000 0.000000 0.000000 

0.327665 0.219273 0.000000 
0.000000 -1.854458 0.000000 
0.000000 0.000000 0.000000 

0.284318 0.208549 0.000000 
0.000000 -1.639331 0.000000 
0.000000 0.000000 0.000000 

0.106452 0.000000 0.000000 
0.000000 -1.569424 0.000000 
0.000000 0.000000 0.000000 

0.085769 0.030137 0.000000 
0.000000 -2.153505 0.000000 
0.000000 0.000000 0.000000 

0.094107 0.000000 0.000000 
0.000000 -1.970950 0.000000 
0.000000 0.000000 0.000000 

0.085769 -0.030137 0.000000 
0.000000 -2.153505 0.000000 
0.000000 0.000000 0.000000 

0.212193 0.050043 0.000000 
0.000000 -2.738140 0.000000 
0.000000 0.000000 0.000000 

0.080739 0.031627 0.000000 
0.000000 -2.583740 0.000000 
0.000000 0.000000 0.000000 

0.083501 0.000000 0.000000 
0.000000 -2.835215 0.000000 
0.000000 0.000000 0.000000 

0.080739 -0.031627 0.000000 
0.000000 -2.583740 0.000000 
0.000000 0.000000 0.000000 

0.212193 -0.050043 0.000000 
0.000000 -2.738140 0.000000 
0.000000 0.000000 0.000000 

0.244220 0.002009 0.000000 
0.000000 -3.298429 0.000000 
0.000000 0.000000 0.000000 

0.237158 0.019849 0.000000 
0.000000 -3.165348 0.000000 
0.000000 0.000000 0.000000 

0.119361 0.015035 0.000000 
0.000000 -3.443991 0.000000 
0.000000 0.000000 0.000000 

0.110233 0.000000 0.000000 
0.000000 -3.243418 0.000000 
0.000000 0.000000 0.000000 

0.119361 -0.015035 0.000000 
0.000000 -3.443991 0.000000 
0.000000 0.000000 0.000000 

0.237158 -0.019849 0.000000 
0.000000 -3.165348 0.000000 
0.000000 0.000000 0.000000 

0.244220 -0.002009 0.000000 
0.000000 -3.298429 0.000000 
0.000000 0.000000 0.000000 

0.266682 -0.002793 0.000000 
0.000000 -3.867005 0.000000 
0.000000 0.000000 0.000000 

0.263934 0.008537 0.000000 
0.000000 -3.743246 0.000000 
0.000000 0.000000 0.000000 

0.268400 0.029358 0.000000 
0.000000 -4.066627 0.000000 
0.000000 0.000000 0.000000 

0.139944 0.014181 0.000000 
0.000000 -3.870373 0.000000 
0.000000 0.000000 0.000000 

0.147745 0.000000 0.000000 
0.000000 -4.127924 0.000000 
0.000000 0.000000 0.000000 

0.139944 -0.014181 0.000000 
0.000000 -3.870373 0.000000 
0.000000 0.000000 0.000000 

0.268400 -0.029358 0.000000 
0.000000 -4.066627 0.000000 
0.000000 0.000000 0.000000 

0.263934 -0.008537 0.000000 
0.000000 -3.743246 0.000000 
0.000000 0.000000 0.000000 

0.266682 0.002793 0.000000 
0.000000 -3.867005 0.000000 
0.000000 0.000000 0.000000 

0.103206 0.014525 0.000000 
0.000000 -1.446871 0.000000 
0.000000 0.000000 0.000000 

0.147585 0.028065 0.000000 
0.000000 -1.576529 0.000000 
0.000000 0.000000 0.000000 

0.152134 0.062033 0.000000 
0.000000 -1.660794 0.000000 
0.000000 0.000000 0.000000 

0.171875 0.095641 0.000000 
0.000000 -1.998140 0.000000 
0.000000 0.000000 0.000000 

0.277384 -0.045481 0.000000 
0.000000 -1.670994 0.000000 
0.000000 0.000000 0.000000 

0.187625 0.044926 0.000000 
0.000000 -1.810798 0.000000 
0.000000 0.000000 0.000000 

0.328704 0.033249 0.000000 
0.000000 -2.165827 0.000000 
0.000000 0.000000 0.000000 

0.186271 0.044544 0.000000 
0.000000 -2.233170 0.000000 
0.000000 0.000000 0.000000 

0.201672 0.044669 0.000000 
0.000000 -2.549909 0.000000 
0.000000 0.000000 0.000000 

0.353994 -0.221325 0.000000 
0.000000 -1.730486 0.000000 
0.000000 0.000000 0.000000 

0.328805 -0.175333 0.000000 
0.000000 -1.884192 0.000000 
0.000000 0.000000 0.000000 

0.425213 -0.214273 0.000000 
0.000000 -2.246067 0.000000 
0.000000 0.000000 0.000000 

0.423228 -0.080534 0.000000 
0.000000 -2.379162 0.000000 
0.000000 0.000000 0.000000 

0.482672 -0.112559 0.000000 
0.000000 -2.710593 0.000000 
0.000000 0.000000 0.000000 

0.219503 -0.031794 0.000000 
0.000000 -2.804140 0.000000 
0.000000 0.000000 0.000000 

0.235738 -0.030466 0.000000 
0.000000 -3.113310 0.000000 
0.000000 0.000000 0.000000 

0.284318 -0.208549 0.000000 
0.000000 -1.639331 0.000000 
0.000000 0.000000 0.000000 

0.327665 -0.219273 0.000000 
0.000000 -1.854458 0.000000 
0.000000 0.000000 0.000000 

0.314102 -0.328593 0.000000 
0.000000 -2.198885 0.000000 
0.000000 0.000000 0.000000 

0.384710 -0.261999 0.000000 
0.000000 -2.416010 0.000000 
0.000000 0.000000 0.000000 

0.383655 -0.323574 0.000000 
0.000000 -2.729692 0.000000 
0.000000 0.000000 0.000000 

0.559843 -0.286047 0.000000 
0.000000 -2.929952 0.000000 
0.000000 0.000000 0.000000 

0.594721 -0.296689 0.000000 
0.000000 -3.260362 0.000000 
0.000000 0.000000 0.000000 

0.554633 -0.119844 0.000000 
0.000000 -3.360604 0.000000 
0.000000 0.000000 0.000000 

0.587052 -0.080908 0.000000 
0.000000 -3.662222 0.000000 
0.000000 0.000000 0.000000 

0.110325 0.031155 0.000000 
0.000000 -1.088479 0.000000 
0.000000 0.000000 0.000000 

0.086553 0.010584 0.000000 
0.000000 -0.689910 0.000000 
0.000000 0.000000 0.000000 

0.103795 0.043276 0.000000 
0.000000 -1.004933 0.000000 
0.000000 0.000000 0.000000 

0.123020 0.024942 0.000000 
0.000000 -1.218156 0.000000 
0.000000 0.000000 0.000000 

0.105745 0.055446 0.000000 
0.000000 -0.307651 0.000000 
0.000000 0.000000 0.000000 

0.080788 -0.013493 0.000000 
0.000000 -0.568146 0.000000 
0.000000 0.000000 0.000000 

0.153478 0.016251 0.000000 
0.000000 -0.766972 0.000000 
0.000000 0.000000 0.000000 

0.180448 -0.014109 0.000000 
0.000000 -1.115584 0.000000 
0.000000 0.000000 0.000000 

0.220692 -0.056060 0.000000 
0.000000 -1.292704 0.000000 
0.000000 0.000000 0.000000 

0.054266 -0.017225 0.000000 
0.000000 -0.057737 0.000000 
0.000000 0.000000 0.000000 

0.080995 0.005049 0.000000 
0.000000 -0.129666 0.000000 
0.000000 0.000000 0.000000 

0.101972 -0.030331 0.000000 
0.000000 -0.304455 0.000000 
0.000000 0.000000 0.000000 

0.139246 -0.028794 0.000000 
0.000000 -0.604644 0.000000 
0.000000 0.000000 0.000000 

0.218376 -0.080853 0.000000 
0.000000 -0.796493 0.000000 
0.000000 0.000000 0.000000 

0.206442 -0.122374 0.000000 
0.000000 -1.130005 0.000000 
0.000000 0.000000 0.000000 

0.292929 -0.108724 0.000000 
0.000000 -1.325695 0.000000 
0.000000 0.000000 0.000000 

0.011590 0.038407 0.000000 
0.000000 -0.044369 0.000000 
0.000000 0.000000 0.000000 

0.032420 -0.048251 0.000000 
0.000000 -0.067029 0.000000 
0.000000 0.000000 0.000000 

0.044513 0.019927 0.000000 
0.000000 -0.073710 0.000000 
0.000000 0.000000 0.000000 

0.099332 -0.002599 0.000000 
0.000000 -0.131247 0.000000 
0.000000 0.000000 0.000000 

0.134232 -0.080382 0.000000 
0.000000 -0.279579 0.000000 
0.000000 0.000000 0.000000 

0.202950 -0.038224 0.000000 
0.000000 -0.613779 0.000000 
0.000000 0.000000 0.000000 

0.245722 -0.105933 0.000000 
0.000000 -0.790733 0.000000 
0.000000 0.000000 0.000000 

0.278537 -0.064235 0.000000 
0.000000 -1.111784 0.000000 
0.000000 0.000000 0.000000 

0.275952 -0.130797 0.000000 
0.000000 -1.266267 0.000000 
0.000000 0.000000 0.000000 

0.113114 0.002322 0.000000 
0.000000 -0.862900 0.000000 
0.000000 0.000000 0.000000 

0.106466 -0.014849 0.000000 
0.000000 -0.189787 0.000000 
0.000000 0.000000 0.000000 

0.110366 0.012431 0.000000 
0.000000 -0.450704 0.000000 
0.000000 0.000000 0.000000 

0.070147 0.030620 0.000000 
0.000000 -0.398560 0.000000 
0.000000 0.000000 0.000000 

0.057196 -0.014374 0.000000 
0.000000 -0.036230 0.000000 
0.000000 0.000000 0.000000 

0.071834 -0.021796 0.000000 
0.000000 -0.057464 0.000000 
0.000000 0.000000 0.000000 

0.035857 -0.014673 0.000000 
0.000000 -0.049400 0.000000 
0.000000 0.000000 0.000000 

0.056327 -0.044184 0.000000 
0.000000 -0.061891 0.000000 
0.000000 0.000000 0.000000 

0.055443 -0.053673 0.000000 
0.000000 -0.046593 0.000000 
0.000000 0.000000 0.000000 

0.011019 -0.007472 0.000000 
0.000000 -0.019362 0.000000 
0.000000 0.000000 0.000000 

0.021697 -0.023808 0.000000 
0.000000 -0.016536 0.000000 
0.000000 0.000000 0.000000 

0.010008 0.007931 0.000000 
0.000000 -0.016923 0.000000 
0.000000 0.000000 0.000000 

0.018535 -0.022403 0.000000 
0.000000 -0.012197 0.000000 
0.000000 0.000000 0.000000 

0.017440 -0.023514 0.000000 
0.000000 -0.000227 0.000000 
0.000000 0.000000 0.000000 

0.029037 -0.060320 0.000000 
0.000000 -0.042495 0.000000 
0.000000 0.000000 0.000000 

0.037112 0.002803 0.000000 
0.000000 -0.043971 0.000000 
0.000000 0.000000 0.000000 

-0.006098 -0.000267 0.000000 
0.000000 0.020462 0.000000 
0.000000 0.000000 0.000000 

-0.004498 -0.008131 0.000000 
0.000000 -0.016905 0.000000 
0.000000 0.000000 0.000000 

-0.009296 0.034027 0.000000 
0.000000 0.009434 0.000000 
0.000000 0.000000 0.000000 

0.001718 0.015737 0.000000 
0.000000 -0.011996 0.000000 
0.000000 0.000000 0.000000 

-0.000598 0.006533 0.000000 
0.000000 0.004738 0.000000 
0.000000 0.000000 0.000000 

0.005314 -0.003330 0.000000 
0.000000 -0.016413 0.000000 
0.000000 0.000000 0.000000 

-0.006016 0.053558 0.000000 
0.000000 -0.007011 0.000000 
0.000000 0.000000 0.000000 

0.012986 0.019276 0.000000 
0.000000 -0.005835 0.000000 
0.000000 0.000000 0.000000 

0.011958 0.006621 0.000000 
0.000000 -0.004632 0.000000 
0.000000 0.000000 0.000000 

