# vtk DataFile Version 3.0 
vtk output 
ASCII 
DATASET UNSTRUCTURED_GRID 
POINTS 175 float 
-0.026061 -0.223956 0.000000 
-0.106992 -0.155901 0.000000 
-0.054870 -0.164133 0.000000 
-0.028809 -0.118250 0.000000 
-0.186430 -0.091825 0.000000 
-0.137056 -0.094351 0.000000 
-0.114311 -0.040704 0.000000 
-0.058186 -0.056370 0.000000 
-0.029377 -0.016192 0.000000 
-0.265318 -0.028669 0.000000 
-0.217198 -0.029469 0.000000 
-0.196633 0.027828 0.000000 
-0.143120 0.019119 0.000000 
-0.116563 0.066387 0.000000 
-0.058945 0.046742 0.000000 
-0.029568 0.084862 0.000000 
-0.344206 0.034487 0.000000 
-0.296791 0.034494 0.000000 
-0.278030 0.094437 0.000000 
-0.225992 0.088570 0.000000 
-0.201664 0.140687 0.000000 
-0.145749 0.127213 0.000000 
-0.117890 0.171556 0.000000 
-0.059328 0.148850 0.000000 
-0.029759 0.185916 0.000000 
-0.058559 -0.264707 0.000000 
-0.162226 -0.285549 0.000000 
-0.123292 -0.249932 0.000000 
-0.142917 -0.200948 0.000000 
-0.261851 -0.307706 0.000000 
-0.229092 -0.270679 0.000000 
-0.256854 -0.219447 0.000000 
-0.209613 -0.185335 0.000000 
-0.223062 -0.137761 0.000000 
-0.360414 -0.330006 0.000000 
-0.329787 -0.292883 0.000000 
-0.361761 -0.241081 0.000000 
-0.321587 -0.204672 0.000000 
-0.341985 -0.154438 0.000000 
-0.290702 -0.121639 0.000000 
-0.302189 -0.074904 0.000000 
-0.458977 -0.352306 0.000000 
-0.429420 -0.315231 0.000000 
-0.464588 -0.263190 0.000000 
-0.427556 -0.226162 0.000000 
-0.453135 -0.174647 0.000000 
-0.407738 -0.139332 0.000000 
-0.425037 -0.089904 0.000000 
-0.370772 -0.058275 0.000000 
-0.381315 -0.012047 0.000000 
-0.046960 -0.315522 0.000000 
-0.095301 -0.409568 0.000000 
-0.098873 -0.356921 0.000000 
-0.149405 -0.341723 0.000000 
-0.140093 -0.501272 0.000000 
-0.148617 -0.452574 0.000000 
-0.205981 -0.442336 0.000000 
-0.203197 -0.384133 0.000000 
-0.248777 -0.364986 0.000000 
-0.184111 -0.592235 0.000000 
-0.194039 -0.545144 0.000000 
-0.254475 -0.537845 0.000000 
-0.257893 -0.483735 0.000000 
-0.309886 -0.468363 0.000000 
-0.303554 -0.407817 0.000000 
-0.347255 -0.387660 0.000000 
-0.228129 -0.683199 0.000000 
-0.238687 -0.636975 0.000000 
-0.301302 -0.632023 0.000000 
-0.307162 -0.579984 0.000000 
-0.363386 -0.567863 0.000000 
-0.362692 -0.510352 0.000000 
-0.412122 -0.493058 0.000000 
-0.403017 -0.430912 0.000000 
-0.445733 -0.410333 0.000000 
-0.000000 -0.338137 0.000000 
0.043388 -0.434567 0.000000 
-0.000000 -0.404535 0.000000 
-0.043388 -0.434567 0.000000 
0.087158 -0.526764 0.000000 
0.043769 -0.503066 0.000000 
-0.000000 -0.541531 0.000000 
-0.043769 -0.503066 0.000000 
-0.087158 -0.526764 0.000000 
0.130831 -0.617894 0.000000 
0.087824 -0.596295 0.000000 
0.044436 -0.638995 0.000000 
-0.000000 -0.607930 0.000000 
-0.044436 -0.638995 0.000000 
-0.087824 -0.596295 0.000000 
-0.130831 -0.617894 0.000000 
0.174505 -0.709023 0.000000 
0.131782 -0.688457 0.000000 
0.088871 -0.734324 0.000000 
0.044532 -0.706460 0.000000 
-0.000000 -0.742860 0.000000 
-0.044532 -0.706460 0.000000 
-0.088871 -0.734324 0.000000 
-0.131782 -0.688457 0.000000 
-0.174505 -0.709023 0.000000 
0.046960 -0.315522 0.000000 
0.149405 -0.341723 0.000000 
0.098873 -0.356921 0.000000 
0.095301 -0.409568 0.000000 
0.248777 -0.364986 0.000000 
0.203197 -0.384133 0.000000 
0.205981 -0.442336 0.000000 
0.148617 -0.452574 0.000000 
0.140093 -0.501272 0.000000 
0.347255 -0.387660 0.000000 
0.303554 -0.407817 0.000000 
0.309886 -0.468363 0.000000 
0.257893 -0.483735 0.000000 
0.254475 -0.537845 0.000000 
0.194039 -0.545144 0.000000 
0.184111 -0.592235 0.000000 
0.445733 -0.410333 0.000000 
0.403017 -0.430912 0.000000 
0.412122 -0.493058 0.000000 
0.362692 -0.510352 0.000000 
0.363386 -0.567863 0.000000 
0.307162 -0.579984 0.000000 
0.301302 -0.632023 0.000000 
0.238687 -0.636975 0.000000 
0.228129 -0.683199 0.000000 
0.058559 -0.264707 0.000000 
0.142917 -0.200948 0.000000 
0.123292 -0.249932 0.000000 
0.162226 -0.285549 0.000000 
0.223062 -0.137761 0.000000 
0.209613 -0.185335 0.000000 
0.256854 -0.219447 0.000000 
0.229092 -0.270679 0.000000 
0.261851 -0.307706 0.000000 
0.302189 -0.074904 0.000000 
0.290702 -0.121639 0.000000 
0.341985 -0.154438 0.000000 
0.321587 -0.204672 0.000000 
0.361761 -0.241081 0.000000 
0.329787 -0.292883 0.000000 
0.360414 -0.330006 0.000000 
0.381315 -0.012047 0.000000 
0.370772 -0.058275 0.000000 
0.425037 -0.089904 0.000000 
0.407738 -0.139332 0.000000 
0.453135 -0.174647 0.000000 
0.427556 -0.226162 0.000000 
0.464588 -0.263190 0.000000 
0.429420 -0.315231 0.000000 
0.458977 -0.352306 0.000000 
0.026061 -0.223956 0.000000 
0.028809 -0.118250 0.000000 
0.054870 -0.164133 0.000000 
0.106992 -0.155901 0.000000 
0.029377 -0.016192 0.000000 
0.058186 -0.056370 0.000000 
0.114311 -0.040704 0.000000 
0.137056 -0.094351 0.000000 
0.186430 -0.091825 0.000000 
0.029568 0.084862 0.000000 
0.058945 0.046742 0.000000 
0.116563 0.066387 0.000000 
0.143120 0.019119 0.000000 
0.196633 0.027828 0.000000 
0.217198 -0.029469 0.000000 
0.265318 -0.028669 0.000000 
0.029759 0.185916 0.000000 
0.059328 0.148850 0.000000 
0.117890 0.171556 0.000000 
0.145749 0.127213 0.000000 
0.201664 0.140687 0.000000 
0.225992 0.088570 0.000000 
0.278030 0.094437 0.000000 
0.296791 0.034494 0.000000 
0.344206 0.034487 0.000000 
CELLS 175 350 
1 0 
1 1 
1 2 
1 3 
1 4 
1 5 
1 6 
1 7 
1 8 
1 9 
1 10 
1 11 
1 12 
1 13 
1 14 
1 15 
1 16 
1 17 
1 18 
1 19 
1 20 
1 21 
1 22 
1 23 
1 24 
1 25 
1 26 
1 27 
1 28 
1 29 
1 30 
1 31 
1 32 
1 33 
1 34 
1 35 
1 36 
1 37 
1 38 
1 39 
1 40 
1 41 
1 42 
1 43 
1 44 
1 45 
1 46 
1 47 
1 48 
1 49 
1 50 
1 51 
1 52 
1 53 
1 54 
1 55 
1 56 
1 57 
1 58 
1 59 
1 60 
1 61 
1 62 
1 63 
1 64 
1 65 
1 66 
1 67 
1 68 
1 69 
1 70 
1 71 
1 72 
1 73 
1 74 
1 75 
1 76 
1 77 
1 78 
1 79 
1 80 
1 81 
1 82 
1 83 
1 84 
1 85 
1 86 
1 87 
1 88 
1 89 
1 90 
1 91 
1 92 
1 93 
1 94 
1 95 
1 96 
1 97 
1 98 
1 99 
1 100 
1 101 
1 102 
1 103 
1 104 
1 105 
1 106 
1 107 
1 108 
1 109 
1 110 
1 111 
1 112 
1 113 
1 114 
1 115 
1 116 
1 117 
1 118 
1 119 
1 120 
1 121 
1 122 
1 123 
1 124 
1 125 
1 126 
1 127 
1 128 
1 129 
1 130 
1 131 
1 132 
1 133 
1 134 
1 135 
1 136 
1 137 
1 138 
1 139 
1 140 
1 141 
1 142 
1 143 
1 144 
1 145 
1 146 
1 147 
1 148 
1 149 
1 150 
1 151 
1 152 
1 153 
1 154 
1 155 
1 156 
1 157 
1 158 
1 159 
1 160 
1 161 
1 162 
1 163 
1 164 
1 165 
1 166 
1 167 
1 168 
1 169 
1 170 
1 171 
1 172 
1 173 
1 174 
CELL_TYPES 175 
1 
1 
1 
1 
1 
1 
1 
1 
1 
1 
1 
1 
1 
1 
1 
1 
1 
1 
1 
1 
1 
1 
1 
1 
1 
1 
1 
1 
1 
1 
1 
1 
1 
1 
1 
1 
1 
1 
1 
1 
1 
1 
1 
1 
1 
1 
1 
1 
1 
1 
1 
1 
1 
1 
1 
1 
1 
1 
1 
1 
1 
1 
1 
1 
1 
1 
1 
1 
1 
1 
1 
1 
1 
1 
1 
1 
1 
1 
1 
1 
1 
1 
1 
1 
1 
1 
1 
1 
1 
1 
1 
1 
1 
1 
1 
1 
1 
1 
1 
1 
1 
1 
1 
1 
1 
1 
1 
1 
1 
1 
1 
1 
1 
1 
1 
1 
1 
1 
1 
1 
1 
1 
1 
1 
1 
1 
1 
1 
1 
1 
1 
1 
1 
1 
1 
1 
1 
1 
1 
1 
1 
1 
1 
1 
1 
1 
1 
1 
1 
1 
1 
1 
1 
1 
1 
1 
1 
1 
1 
1 
1 
1 
1 
1 
1 
1 
1 
1 
1 
1 
1 
1 
1 
1 
1 
POINT_DATA 175 
VECTORS X_GC float 
-0.026061 -0.223956 0.000000 
-0.106992 -0.155901 0.000000 
-0.054870 -0.164133 0.000000 
-0.028809 -0.118250 0.000000 
-0.186430 -0.091825 0.000000 
-0.137056 -0.094351 0.000000 
-0.114311 -0.040704 0.000000 
-0.058186 -0.056370 0.000000 
-0.029377 -0.016192 0.000000 
-0.265318 -0.028669 0.000000 
-0.217198 -0.029469 0.000000 
-0.196633 0.027828 0.000000 
-0.143120 0.019119 0.000000 
-0.116563 0.066387 0.000000 
-0.058945 0.046742 0.000000 
-0.029568 0.084862 0.000000 
-0.344206 0.034487 0.000000 
-0.296791 0.034494 0.000000 
-0.278030 0.094437 0.000000 
-0.225992 0.088570 0.000000 
-0.201664 0.140687 0.000000 
-0.145749 0.127213 0.000000 
-0.117890 0.171556 0.000000 
-0.059328 0.148850 0.000000 
-0.029759 0.185916 0.000000 
-0.058559 -0.264707 0.000000 
-0.162226 -0.285549 0.000000 
-0.123292 -0.249932 0.000000 
-0.142917 -0.200948 0.000000 
-0.261851 -0.307706 0.000000 
-0.229092 -0.270679 0.000000 
-0.256854 -0.219447 0.000000 
-0.209613 -0.185335 0.000000 
-0.223062 -0.137761 0.000000 
-0.360414 -0.330006 0.000000 
-0.329787 -0.292883 0.000000 
-0.361761 -0.241081 0.000000 
-0.321587 -0.204672 0.000000 
-0.341985 -0.154438 0.000000 
-0.290702 -0.121639 0.000000 
-0.302189 -0.074904 0.000000 
-0.458977 -0.352306 0.000000 
-0.429420 -0.315231 0.000000 
-0.464588 -0.263190 0.000000 
-0.427556 -0.226162 0.000000 
-0.453135 -0.174647 0.000000 
-0.407738 -0.139332 0.000000 
-0.425037 -0.089904 0.000000 
-0.370772 -0.058275 0.000000 
-0.381315 -0.012047 0.000000 
-0.046960 -0.315522 0.000000 
-0.095301 -0.409568 0.000000 
-0.098873 -0.356921 0.000000 
-0.149405 -0.341723 0.000000 
-0.140093 -0.501272 0.000000 
-0.148617 -0.452574 0.000000 
-0.205981 -0.442336 0.000000 
-0.203197 -0.384133 0.000000 
-0.248777 -0.364986 0.000000 
-0.184111 -0.592235 0.000000 
-0.194039 -0.545144 0.000000 
-0.254475 -0.537845 0.000000 
-0.257893 -0.483735 0.000000 
-0.309886 -0.468363 0.000000 
-0.303554 -0.407817 0.000000 
-0.347255 -0.387660 0.000000 
-0.228129 -0.683199 0.000000 
-0.238687 -0.636975 0.000000 
-0.301302 -0.632023 0.000000 
-0.307162 -0.579984 0.000000 
-0.363386 -0.567863 0.000000 
-0.362692 -0.510352 0.000000 
-0.412122 -0.493058 0.000000 
-0.403017 -0.430912 0.000000 
-0.445733 -0.410333 0.000000 
-0.000000 -0.338137 0.000000 
0.043388 -0.434567 0.000000 
-0.000000 -0.404535 0.000000 
-0.043388 -0.434567 0.000000 
0.087158 -0.526764 0.000000 
0.043769 -0.503066 0.000000 
-0.000000 -0.541531 0.000000 
-0.043769 -0.503066 0.000000 
-0.087158 -0.526764 0.000000 
0.130831 -0.617894 0.000000 
0.087824 -0.596295 0.000000 
0.044436 -0.638995 0.000000 
-0.000000 -0.607930 0.000000 
-0.044436 -0.638995 0.000000 
-0.087824 -0.596295 0.000000 
-0.130831 -0.617894 0.000000 
0.174505 -0.709023 0.000000 
0.131782 -0.688457 0.000000 
0.088871 -0.734324 0.000000 
0.044532 -0.706460 0.000000 
-0.000000 -0.742860 0.000000 
-0.044532 -0.706460 0.000000 
-0.088871 -0.734324 0.000000 
-0.131782 -0.688457 0.000000 
-0.174505 -0.709023 0.000000 
0.046960 -0.315522 0.000000 
0.149405 -0.341723 0.000000 
0.098873 -0.356921 0.000000 
0.095301 -0.409568 0.000000 
0.248777 -0.364986 0.000000 
0.203197 -0.384133 0.000000 
0.205981 -0.442336 0.000000 
0.148617 -0.452574 0.000000 
0.140093 -0.501272 0.000000 
0.347255 -0.387660 0.000000 
0.303554 -0.407817 0.000000 
0.309886 -0.468363 0.000000 
0.257893 -0.483735 0.000000 
0.254475 -0.537845 0.000000 
0.194039 -0.545144 0.000000 
0.184111 -0.592235 0.000000 
0.445733 -0.410333 0.000000 
0.403017 -0.430912 0.000000 
0.412122 -0.493058 0.000000 
0.362692 -0.510352 0.000000 
0.363386 -0.567863 0.000000 
0.307162 -0.579984 0.000000 
0.301302 -0.632023 0.000000 
0.238687 -0.636975 0.000000 
0.228129 -0.683199 0.000000 
0.058559 -0.264707 0.000000 
0.142917 -0.200948 0.000000 
0.123292 -0.249932 0.000000 
0.162226 -0.285549 0.000000 
0.223062 -0.137761 0.000000 
0.209613 -0.185335 0.000000 
0.256854 -0.219447 0.000000 
0.229092 -0.270679 0.000000 
0.261851 -0.307706 0.000000 
0.302189 -0.074904 0.000000 
0.290702 -0.121639 0.000000 
0.341985 -0.154438 0.000000 
0.321587 -0.204672 0.000000 
0.361761 -0.241081 0.000000 
0.329787 -0.292883 0.000000 
0.360414 -0.330006 0.000000 
0.381315 -0.012047 0.000000 
0.370772 -0.058275 0.000000 
0.425037 -0.089904 0.000000 
0.407738 -0.139332 0.000000 
0.453135 -0.174647 0.000000 
0.427556 -0.226162 0.000000 
0.464588 -0.263190 0.000000 
0.429420 -0.315231 0.000000 
0.458977 -0.352306 0.000000 
0.026061 -0.223956 0.000000 
0.028809 -0.118250 0.000000 
0.054870 -0.164133 0.000000 
0.106992 -0.155901 0.000000 
0.029377 -0.016192 0.000000 
0.058186 -0.056370 0.000000 
0.114311 -0.040704 0.000000 
0.137056 -0.094351 0.000000 
0.186430 -0.091825 0.000000 
0.029568 0.084862 0.000000 
0.058945 0.046742 0.000000 
0.116563 0.066387 0.000000 
0.143120 0.019119 0.000000 
0.196633 0.027828 0.000000 
0.217198 -0.029469 0.000000 
0.265318 -0.028669 0.000000 
0.029759 0.185916 0.000000 
0.059328 0.148850 0.000000 
0.117890 0.171556 0.000000 
0.145749 0.127213 0.000000 
0.201664 0.140687 0.000000 
0.225992 0.088570 0.000000 
0.278030 0.094437 0.000000 
0.296791 0.034494 0.000000 
0.344206 0.034487 0.000000 
VECTORS X_EC float 
0.338794 -0.476594 0.000000 
-0.609100 0.604657 0.000000 
0.713312 0.715798 0.000000 
0.374519 0.096368 0.000000 
0.423588 -0.260362 0.000000 
-0.218274 -0.226259 0.000000 
-0.513962 -0.950497 0.000000 
0.756418 -0.739011 0.000000 
0.381900 0.718596 0.000000 
-0.550868 0.887035 0.000000 
0.823577 0.897830 0.000000 
0.556234 0.124326 0.000000 
-0.139443 0.241895 0.000000 
-0.484677 -0.396230 0.000000 
0.766286 -0.131014 0.000000 
0.384386 -0.645635 0.000000 
0.474677 0.034432 0.000000 
-0.141715 0.034335 0.000000 
-0.385608 -0.774893 0.000000 
0.937896 -0.695697 0.000000 
0.621631 0.600722 0.000000 
-0.105264 0.782622 0.000000 
-0.467428 0.183995 0.000000 
0.771260 0.490524 0.000000 
0.386873 -0.009866 0.000000 
0.761262 0.073540 0.000000 
0.108942 0.354917 0.000000 
-0.397202 -0.125923 0.000000 
-0.142083 -0.787198 0.000000 
-0.595936 0.654027 0.000000 
0.978194 0.154161 0.000000 
-0.660903 -0.537464 0.000000 
0.724964 -0.997984 0.000000 
0.899809 0.359768 0.000000 
0.685384 0.955080 0.000000 
0.287229 0.453921 0.000000 
0.702895 -0.245407 0.000000 
0.180633 -0.736926 0.000000 
0.445811 0.584914 0.000000 
-0.220880 0.142128 0.000000 
-0.071546 -0.488797 0.000000 
-0.033296 -0.743868 0.000000 
-0.417537 0.755622 0.000000 
0.039645 0.053060 0.000000 
-0.441768 -0.446812 0.000000 
-0.109248 0.857738 0.000000 
-0.699407 0.380982 0.000000 
-0.474522 -0.286297 0.000000 
0.820030 -0.713290 0.000000 
0.957100 0.662638 0.000000 
0.610485 0.759546 0.000000 
-0.761092 0.029166 0.000000 
-0.714655 -0.681572 0.000000 
-0.057734 -0.886739 0.000000 
-0.178789 -0.732830 0.000000 
-0.067979 0.609744 0.000000 
0.677748 0.471540 0.000000 
0.641556 -0.314205 0.000000 
-0.765897 -0.572683 0.000000 
0.393446 0.495179 0.000000 
0.522510 -0.140551 0.000000 
-0.691820 -0.239095 0.000000 
-0.647393 -0.969578 0.000000 
0.028512 0.822896 0.000000 
-0.053800 0.005535 0.000000 
0.514316 -0.266596 0.000000 
0.965681 -0.276812 0.000000 
-0.897068 -0.900841 0.000000 
-0.083078 -0.967694 0.000000 
-0.006893 0.329782 0.000000 
0.724017 0.166149 0.000000 
0.714996 -0.610255 0.000000 
-0.642413 -0.843712 0.000000 
-0.760780 0.317307 0.000000 
-0.205471 0.039492 0.000000 
0.000000 -0.935152 0.000000 
-0.564049 0.366661 0.000000 
0.000000 -0.038775 0.000000 
0.564049 0.366661 0.000000 
0.866949 -0.388684 0.000000 
-0.569003 -0.708615 0.000000 
0.000000 -0.189327 0.000000 
0.569003 -0.708615 0.000000 
-0.866949 -0.388684 0.000000 
0.299194 0.841566 0.000000 
0.858290 0.549982 0.000000 
-0.577662 -0.873572 0.000000 
0.000000 0.707050 0.000000 
0.577662 -0.873572 0.000000 
-0.858290 0.549982 0.000000 
-0.299194 0.841566 0.000000 
-0.268560 0.071816 0.000000 
0.286830 -0.205825 0.000000 
0.844677 0.413373 0.000000 
-0.578910 0.037210 0.000000 
0.000000 0.528614 0.000000 
0.578910 0.037210 0.000000 
-0.844677 0.413373 0.000000 
-0.286830 -0.205825 0.000000 
0.268560 0.071816 0.000000 
-0.610485 0.759546 0.000000 
0.057734 -0.886739 0.000000 
0.714655 -0.681572 0.000000 
0.761092 0.029166 0.000000 
0.765897 -0.572683 0.000000 
-0.641556 -0.314205 0.000000 
-0.677748 0.471540 0.000000 
0.067979 0.609744 0.000000 
0.178789 -0.732830 0.000000 
-0.514316 -0.266596 0.000000 
0.053800 0.005535 0.000000 
-0.028512 0.822896 0.000000 
0.647393 -0.969578 0.000000 
0.691820 -0.239095 0.000000 
-0.522510 -0.140551 0.000000 
-0.393446 0.495179 0.000000 
0.205471 0.039492 0.000000 
0.760780 0.317307 0.000000 
0.642413 -0.843712 0.000000 
-0.714996 -0.610255 0.000000 
-0.724017 0.166149 0.000000 
0.006894 0.329782 0.000000 
0.083078 -0.967694 0.000000 
0.897068 -0.900841 0.000000 
-0.965681 -0.276812 0.000000 
-0.761262 0.073540 0.000000 
0.142083 -0.787198 0.000000 
0.397202 -0.125923 0.000000 
-0.108942 0.354917 0.000000 
-0.899809 0.359768 0.000000 
-0.724964 -0.997984 0.000000 
0.660903 -0.537464 0.000000 
-0.978194 0.154161 0.000000 
0.595936 0.654027 0.000000 
0.071546 -0.488797 0.000000 
0.220880 0.142128 0.000000 
-0.445811 0.584914 0.000000 
-0.180633 -0.736926 0.000000 
-0.702895 -0.245407 0.000000 
-0.287229 0.453921 0.000000 
-0.685384 0.955080 0.000000 
-0.957100 0.662638 0.000000 
-0.820030 -0.713290 0.000000 
0.474522 -0.286297 0.000000 
0.699407 0.380982 0.000000 
0.109248 0.857738 0.000000 
0.441768 -0.446812 0.000000 
-0.039645 0.053060 0.000000 
0.417537 0.755622 0.000000 
0.033296 -0.743868 0.000000 
-0.338794 -0.476594 0.000000 
-0.374519 0.096368 0.000000 
-0.713312 0.715798 0.000000 
0.609100 0.604657 0.000000 
-0.381900 0.718596 0.000000 
-0.756418 -0.739011 0.000000 
0.513962 -0.950497 0.000000 
0.218274 -0.226259 0.000000 
-0.423588 -0.260362 0.000000 
-0.384386 -0.645635 0.000000 
-0.766286 -0.131014 0.000000 
0.484677 -0.396230 0.000000 
0.139443 0.241895 0.000000 
-0.556234 0.124326 0.000000 
-0.823577 0.897830 0.000000 
0.550868 0.887035 0.000000 
-0.386873 -0.009866 0.000000 
-0.771260 0.490524 0.000000 
0.467428 0.183995 0.000000 
0.105264 0.782622 0.000000 
-0.621631 0.600722 0.000000 
-0.937896 -0.695697 0.000000 
0.385608 -0.774893 0.000000 
0.141715 0.034335 0.000000 
-0.474677 0.034432 0.000000 
CELL_DATA 175 
SCALARS MASS float 
LOOKUP_TABLE default 
0.781831 
0.864274 
0.946717 
0.864274 
0.881307 
0.921110 
0.858535 
0.921110 
0.881307 
0.887046 
0.910001 
0.869829 
0.915556 
0.869829 
0.910001 
0.887046 
0.892784 
0.915740 
0.892784 
0.927218 
0.892784 
0.927218 
0.892784 
0.915740 
0.892784 
0.781831 
0.864274 
0.946717 
0.864274 
0.881307 
0.921110 
0.858535 
0.921110 
0.881307 
0.887046 
0.910001 
0.869829 
0.915556 
0.869829 
0.910001 
0.887046 
0.892784 
0.915740 
0.892784 
0.927218 
0.892784 
0.927218 
0.892784 
0.915740 
0.892784 
0.781831 
0.864274 
0.946717 
0.864274 
0.881307 
0.921110 
0.858535 
0.921110 
0.881307 
0.887046 
0.910001 
0.869829 
0.915556 
0.869829 
0.910001 
0.887046 
0.892784 
0.915740 
0.892784 
0.927218 
0.892784 
0.927218 
0.892784 
0.915740 
0.892784 
0.781831 
0.864274 
0.946717 
0.864274 
0.881307 
0.921110 
0.858535 
0.921110 
0.881307 
0.887046 
0.910001 
0.869829 
0.915556 
0.869829 
0.910001 
0.887046 
0.892784 
0.915740 
0.892784 
0.927218 
0.892784 
0.927218 
0.892784 
0.915740 
0.892784 
0.781831 
0.864274 
0.946717 
0.864274 
0.881307 
0.921110 
0.858535 
0.921110 
0.881307 
0.887046 
0.910001 
0.869829 
0.915556 
0.869829 
0.910001 
0.887046 
0.892784 
0.915740 
0.892784 
0.927218 
0.892784 
0.927218 
0.892784 
0.915740 
0.892784 
0.781831 
0.864274 
0.946717 
0.864274 
0.881307 
0.921110 
0.858535 
0.921110 
0.881307 
0.887046 
0.910001 
0.869829 
0.915556 
0.869829 
0.910001 
0.887046 
0.892784 
0.915740 
0.892784 
0.927218 
0.892784 
0.927218 
0.892784 
0.915740 
0.892784 
0.781831 
0.864274 
0.946717 
0.864274 
0.881307 
0.921110 
0.858535 
0.921110 
0.881307 
0.887046 
0.910001 
0.869829 
0.915556 
0.869829 
0.910001 
0.887046 
0.892784 
0.915740 
0.892784 
0.927218 
0.892784 
0.927218 
0.892784 
0.915740 
0.892784 
SCALARS MASS float 
LOOKUP_TABLE default 
0.781831 
0.864274 
0.946717 
0.864274 
0.881307 
0.921110 
0.858535 
0.921110 
0.881307 
0.887046 
0.910001 
0.869829 
0.915556 
0.869829 
0.910001 
0.887046 
0.892784 
0.915740 
0.892784 
0.927218 
0.892784 
0.927218 
0.892784 
0.915740 
0.892784 
0.781831 
0.864274 
0.946717 
0.864274 
0.881307 
0.921110 
0.858535 
0.921110 
0.881307 
0.887046 
0.910001 
0.869829 
0.915556 
0.869829 
0.910001 
0.887046 
0.892784 
0.915740 
0.892784 
0.927218 
0.892784 
0.927218 
0.892784 
0.915740 
0.892784 
0.781831 
0.864274 
0.946717 
0.864274 
0.881307 
0.921110 
0.858535 
0.921110 
0.881307 
0.887046 
0.910001 
0.869829 
0.915556 
0.869829 
0.910001 
0.887046 
0.892784 
0.915740 
0.892784 
0.927218 
0.892784 
0.927218 
0.892784 
0.915740 
0.892784 
0.781831 
0.864274 
0.946717 
0.864274 
0.881307 
0.921110 
0.858535 
0.921110 
0.881307 
0.887046 
0.910001 
0.869829 
0.915556 
0.869829 
0.910001 
0.887046 
0.892784 
0.915740 
0.892784 
0.927218 
0.892784 
0.927218 
0.892784 
0.915740 
0.892784 
0.781831 
0.864274 
0.946717 
0.864274 
0.881307 
0.921110 
0.858535 
0.921110 
0.881307 
0.887046 
0.910001 
0.869829 
0.915556 
0.869829 
0.910001 
0.887046 
0.892784 
0.915740 
0.892784 
0.927218 
0.892784 
0.927218 
0.892784 
0.915740 
0.892784 
0.781831 
0.864274 
0.946717 
0.864274 
0.881307 
0.921110 
0.858535 
0.921110 
0.881307 
0.887046 
0.910001 
0.869829 
0.915556 
0.869829 
0.910001 
0.887046 
0.892784 
0.915740 
0.892784 
0.927218 
0.892784 
0.927218 
0.892784 
0.915740 
0.892784 
0.781831 
0.864274 
0.946717 
0.864274 
0.881307 
0.921110 
0.858535 
0.921110 
0.881307 
0.887046 
0.910001 
0.869829 
0.915556 
0.869829 
0.910001 
0.887046 
0.892784 
0.915740 
0.892784 
0.927218 
0.892784 
0.927218 
0.892784 
0.915740 
0.892784 
SCALARS DENSITY float 
LOOKUP_TABLE default 
200.000000 
200.000000 
200.000000 
200.000000 
200.000000 
200.000000 
200.000000 
200.000000 
200.000000 
200.000000 
200.000000 
200.000000 
200.000000 
200.000000 
200.000000 
200.000000 
200.000000 
200.000000 
200.000000 
200.000000 
200.000000 
200.000000 
200.000000 
200.000000 
200.000000 
200.000000 
200.000000 
200.000000 
200.000000 
200.000000 
200.000000 
200.000000 
200.000000 
200.000000 
200.000000 
200.000000 
200.000000 
200.000000 
200.000000 
200.000000 
200.000000 
200.000000 
200.000000 
200.000000 
200.000000 
200.000000 
200.000000 
200.000000 
200.000000 
200.000000 
200.000000 
200.000000 
200.000000 
200.000000 
200.000000 
200.000000 
200.000000 
200.000000 
200.000000 
200.000000 
200.000000 
200.000000 
200.000000 
200.000000 
200.000000 
200.000000 
200.000000 
200.000000 
200.000000 
200.000000 
200.000000 
200.000000 
200.000000 
200.000000 
200.000000 
200.000000 
200.000000 
200.000000 
200.000000 
200.000000 
200.000000 
200.000000 
200.000000 
200.000000 
200.000000 
200.000000 
200.000000 
200.000000 
200.000000 
200.000000 
200.000000 
200.000000 
200.000000 
200.000000 
200.000000 
200.000000 
200.000000 
200.000000 
200.000000 
200.000000 
200.000000 
200.000000 
200.000000 
200.000000 
200.000000 
200.000000 
200.000000 
200.000000 
200.000000 
200.000000 
200.000000 
200.000000 
200.000000 
200.000000 
200.000000 
200.000000 
200.000000 
200.000000 
200.000000 
200.000000 
200.000000 
200.000000 
200.000000 
200.000000 
200.000000 
200.000000 
200.000000 
200.000000 
200.000000 
200.000000 
200.000000 
200.000000 
200.000000 
200.000000 
200.000000 
200.000000 
200.000000 
200.000000 
200.000000 
200.000000 
200.000000 
200.000000 
200.000000 
200.000000 
200.000000 
200.000000 
200.000000 
200.000000 
200.000000 
200.000000 
200.000000 
200.000000 
200.000000 
200.000000 
200.000000 
200.000000 
200.000000 
200.000000 
200.000000 
200.000000 
200.000000 
200.000000 
200.000000 
200.000000 
200.000000 
200.000000 
200.000000 
200.000000 
200.000000 
200.000000 
200.000000 
200.000000 
200.000000 
200.000000 
200.000000 
SCALARS ELEM_i float 
LOOKUP_TABLE default 
180 
208 
181 
181 
208 
208 
208 
181 
182 
236 
209 
209 
209 
209 
182 
182 
236 
236 
236 
209 
210 
210 
210 
183 
183 
180 
207 
207 
207 
234 
207 
234 
207 
208 
234 
234 
234 
234 
235 
235 
235 
260 
261 
261 
261 
262 
262 
262 
235 
236 
180 
206 
206 
206 
205 
206 
206 
206 
233 
205 
205 
232 
232 
233 
233 
233 
204 
231 
231 
232 
232 
232 
259 
260 
260 
179 
179 
179 
179 
151 
178 
178 
178 
205 
151 
151 
177 
178 
177 
205 
205 
150 
150 
150 
177 
177 
177 
204 
204 
204 
180 
152 
152 
152 
125 
152 
152 
152 
151 
125 
125 
125 
124 
124 
151 
151 
98 
98 
97 
124 
124 
124 
123 
123 
150 
180 
153 
153 
153 
154 
153 
126 
153 
126 
127 
127 
127 
126 
126 
126 
126 
128 
127 
100 
100 
100 
99 
99 
99 
98 
180 
181 
181 
154 
182 
181 
154 
154 
154 
182 
182 
155 
155 
155 
155 
128 
183 
183 
156 
156 
156 
155 
128 
128 
128 
VECTORS VELOCITY float 
-0.000000 -2.334780 0.000000 
-0.000000 -2.334780 0.000000 
-0.000000 -2.334780 0.000000 
-0.000000 -2.334780 0.000000 
0.000000 -2.334780 0.000000 
0.000000 -2.334780 0.000000 
0.000000 -2.334780 0.000000 
0.000000 -2.334780 0.000000 
0.000000 -2.334780 0.000000 
0.000000 -2.334780 0.000000 
0.000000 -2.334780 0.000000 
0.000000 -2.334780 0.000000 
0.000000 -2.334780 0.000000 
0.000000 -2.334780 0.000000 
0.000000 -2.334780 0.000000 
0.000000 -2.334780 0.000000 
0.000000 -2.334780 0.000000 
0.000000 -2.334780 0.000000 
-0.000000 -2.334780 0.000000 
-0.000000 -2.334780 0.000000 
0.000000 -2.334780 0.000000 
0.000000 -2.334780 0.000000 
0.000000 -2.334780 0.000000 
0.000000 -2.334780 0.000000 
0.000000 -2.334780 0.000000 
0.000000 -2.334780 0.000000 
0.000000 -2.334780 0.000000 
-0.000000 -2.334780 0.000000 
-0.000000 -2.334780 0.000000 
-0.000000 -2.334780 0.000000 
0.000000 -2.334780 0.000000 
0.000000 -2.334780 0.000000 
0.000000 -2.334780 0.000000 
0.000000 -2.334780 0.000000 
-0.000000 -2.334780 0.000000 
-0.000000 -2.334780 0.000000 
-0.000000 -2.334780 0.000000 
-0.000000 -2.334780 0.000000 
-0.000000 -2.334780 0.000000 
0.000000 -2.334780 0.000000 
0.000000 -2.334780 0.000000 
-0.000000 -2.334780 0.000000 
-0.000000 -2.334780 0.000000 
-0.000000 -2.334780 0.000000 
-0.000000 -2.334780 0.000000 
0.000000 -2.334780 0.000000 
-0.000000 -2.334780 0.000000 
-0.000000 -2.334780 0.000000 
0.000000 -2.334780 0.000000 
0.000000 -2.334780 0.000000 
0.000000 -2.334780 0.000000 
-0.000000 -2.334780 0.000000 
0.000000 -2.334780 0.000000 
0.000000 -2.334780 0.000000 
-0.000000 -2.334780 0.000000 
-0.000000 -2.334780 0.000000 
-0.000000 -2.334780 0.000000 
-0.000000 -2.334780 0.000000 
-0.000000 -2.334780 0.000000 
-0.000000 -2.334780 0.000000 
-0.000000 -2.334780 0.000000 
-0.000000 -2.334780 0.000000 
-0.000000 -2.334780 0.000000 
0.000000 -2.334780 0.000000 
-0.000000 -2.334780 0.000000 
-0.000000 -2.334780 0.000000 
-0.000000 -2.334780 0.000000 
-0.000000 -2.334780 0.000000 
-0.000000 -2.334780 0.000000 
-0.000000 -2.334780 0.000000 
-0.000000 -2.334780 0.000000 
0.000000 -2.334780 0.000000 
-0.000000 -2.334780 0.000000 
-0.000000 -2.334780 0.000000 
-0.000000 -2.334780 0.000000 
0.000000 -2.334780 0.000000 
-0.000000 -2.334780 0.000000 
-0.000000 -2.334780 0.000000 
-0.000000 -2.334780 0.000000 
-0.000000 -2.334780 0.000000 
-0.000000 -2.334780 0.000000 
-0.000000 -2.334780 0.000000 
-0.000000 -2.334780 0.000000 
-0.000000 -2.334780 0.000000 
-0.000000 -2.334780 0.000000 
-0.000000 -2.334780 0.000000 
0.000000 -2.334780 0.000000 
-0.000000 -2.334780 0.000000 
-0.000000 -2.334780 0.000000 
-0.000000 -2.334780 0.000000 
-0.000000 -2.334780 0.000000 
-0.000000 -2.334780 0.000000 
0.000000 -2.334780 0.000000 
0.000000 -2.334780 0.000000 
0.000000 -2.334780 0.000000 
0.000000 -2.334780 0.000000 
0.000000 -2.334780 0.000000 
0.000000 -2.334780 0.000000 
-0.000000 -2.334780 0.000000 
-0.000000 -2.334780 0.000000 
-0.000000 -2.334780 0.000000 
-0.000000 -2.334780 0.000000 
-0.000000 -2.334780 0.000000 
-0.000000 -2.334780 0.000000 
-0.000000 -2.334780 0.000000 
-0.000000 -2.334780 0.000000 
-0.000000 -2.334780 0.000000 
-0.000000 -2.334780 0.000000 
-0.000000 -2.334780 0.000000 
0.000000 -2.334780 0.000000 
0.000000 -2.334780 0.000000 
0.000000 -2.334780 0.000000 
0.000000 -2.334780 0.000000 
-0.000000 -2.334780 0.000000 
-0.000000 -2.334780 0.000000 
-0.000000 -2.334780 0.000000 
0.000000 -2.334780 0.000000 
0.000000 -2.334780 0.000000 
-0.000000 -2.334780 0.000000 
-0.000000 -2.334780 0.000000 
0.000000 -2.334780 0.000000 
0.000000 -2.334780 0.000000 
-0.000000 -2.334780 0.000000 
-0.000000 -2.334780 0.000000 
-0.000000 -2.334780 0.000000 
0.000000 -2.334780 0.000000 
-0.000000 -2.334780 0.000000 
-0.000000 -2.334780 0.000000 
-0.000000 -2.334780 0.000000 
0.000000 -2.334780 0.000000 
-0.000000 -2.334780 0.000000 
0.000000 -2.334780 0.000000 
-0.000000 -2.334780 0.000000 
-0.000000 -2.334780 0.000000 
0.000000 -2.334780 0.000000 
0.000000 -2.334780 0.000000 
0.000000 -2.334780 0.000000 
0.000000 -2.334780 0.000000 
0.000000 -2.334780 0.000000 
0.000000 -2.334780 0.000000 
0.000000 -2.334780 0.000000 
0.000000 -2.334780 0.000000 
0.000000 -2.334780 0.000000 
-0.000000 -2.334780 0.000000 
0.000000 -2.334780 0.000000 
0.000000 -2.334780 0.000000 
0.000000 -2.334780 0.000000 
0.000000 -2.334780 0.000000 
0.000000 -2.334780 0.000000 
-0.000000 -2.334780 0.000000 
-0.000000 -2.334780 0.000000 
-0.000000 -2.334780 0.000000 
-0.000000 -2.334780 0.000000 
-0.000000 -2.334780 0.000000 
0.000000 -2.334780 0.000000 
0.000000 -2.334780 0.000000 
0.000000 -2.334780 0.000000 
0.000000 -2.334780 0.000000 
0.000000 -2.334780 0.000000 
0.000000 -2.334780 0.000000 
0.000000 -2.334780 0.000000 
0.000000 -2.334780 0.000000 
0.000000 -2.334780 0.000000 
0.000000 -2.334780 0.000000 
0.000000 -2.334780 0.000000 
0.000000 -2.334780 0.000000 
0.000000 -2.334780 0.000000 
0.000000 -2.334780 0.000000 
-0.000000 -2.334780 0.000000 
0.000000 -2.334780 0.000000 
-0.000000 -2.334780 0.000000 
0.000000 -2.334780 0.000000 
-0.000000 -2.334780 0.000000 
0.000000 -2.334780 0.000000 
0.000000 -2.334780 0.000000 
TENSORS STRESS float 
0.000000 0.000000 0.000000 
0.000000 0.000000 0.000000 
0.000000 0.000000 0.000000 

-0.000000 -0.000000 0.000000 
0.000000 -0.000000 0.000000 
0.000000 0.000000 0.000000 

-0.000000 0.000000 0.000000 
0.000000 -0.000000 0.000000 
0.000000 0.000000 0.000000 

-0.000000 0.000000 0.000000 
0.000000 -0.000000 0.000000 
0.000000 0.000000 0.000000 

0.000000 -0.000000 0.000000 
0.000000 0.000000 0.000000 
0.000000 0.000000 0.000000 

-0.000000 0.000000 0.000000 
0.000000 -0.000000 0.000000 
0.000000 0.000000 0.000000 

0.000000 -0.000000 0.000000 
0.000000 0.000000 0.000000 
0.000000 0.000000 0.000000 

-0.000000 0.000000 0.000000 
0.000000 -0.000000 0.000000 
0.000000 0.000000 0.000000 

-0.000000 -0.000000 0.000000 
0.000000 -0.000000 0.000000 
0.000000 0.000000 0.000000 

0.000000 -0.000000 0.000000 
0.000000 0.000000 0.000000 
0.000000 0.000000 0.000000 

0.000000 -0.000000 0.000000 
0.000000 0.000000 0.000000 
0.000000 0.000000 0.000000 

-0.000000 -0.000000 0.000000 
0.000000 -0.000000 0.000000 
0.000000 0.000000 0.000000 

0.000000 -0.000000 0.000000 
0.000000 0.000000 0.000000 
0.000000 0.000000 0.000000 

-0.000000 -0.000000 0.000000 
0.000000 -0.000000 0.000000 
0.000000 0.000000 0.000000 

-0.000000 -0.000000 0.000000 
0.000000 0.000000 0.000000 
0.000000 0.000000 0.000000 

-0.000000 0.000000 0.000000 
0.000000 0.000000 0.000000 
0.000000 0.000000 0.000000 

-0.000000 -0.000000 0.000000 
0.000000 -0.000000 0.000000 
0.000000 0.000000 0.000000 

-0.000000 -0.000000 0.000000 
0.000000 -0.000000 0.000000 
0.000000 0.000000 0.000000 

-0.000000 -0.000000 0.000000 
0.000000 -0.000000 0.000000 
0.000000 0.000000 0.000000 

-0.000000 -0.000000 0.000000 
0.000000 -0.000000 0.000000 
0.000000 0.000000 0.000000 

-0.000000 -0.000000 0.000000 
0.000000 -0.000000 0.000000 
0.000000 0.000000 0.000000 

-0.000000 -0.000000 0.000000 
0.000000 -0.000000 0.000000 
0.000000 0.000000 0.000000 

0.000000 -0.000000 0.000000 
0.000000 0.000000 0.000000 
0.000000 0.000000 0.000000 

-0.000000 0.000000 0.000000 
0.000000 0.000000 0.000000 
0.000000 0.000000 0.000000 

-0.000000 0.000000 0.000000 
0.000000 -0.000000 0.000000 
0.000000 0.000000 0.000000 

0.000000 0.000000 0.000000 
0.000000 0.000000 0.000000 
0.000000 0.000000 0.000000 

-0.000000 -0.000000 0.000000 
0.000000 -0.000000 0.000000 
0.000000 0.000000 0.000000 

0.000000 -0.000000 0.000000 
0.000000 0.000000 0.000000 
0.000000 0.000000 0.000000 

0.000000 -0.000000 0.000000 
0.000000 0.000000 0.000000 
0.000000 0.000000 0.000000 

0.000000 0.000000 0.000000 
0.000000 0.000000 0.000000 
0.000000 0.000000 0.000000 

-0.000000 -0.000000 0.000000 
0.000000 -0.000000 0.000000 
0.000000 0.000000 0.000000 

0.000000 0.000000 0.000000 
0.000000 0.000000 0.000000 
0.000000 0.000000 0.000000 

-0.000000 -0.000000 0.000000 
0.000000 -0.000000 0.000000 
0.000000 0.000000 0.000000 

-0.000000 -0.000000 0.000000 
0.000000 -0.000000 0.000000 
0.000000 0.000000 0.000000 

-0.000000 -0.000000 0.000000 
0.000000 -0.000000 0.000000 
0.000000 0.000000 0.000000 

0.000000 0.000000 0.000000 
0.000000 0.000000 0.000000 
0.000000 0.000000 0.000000 

0.000000 0.000000 0.000000 
0.000000 0.000000 0.000000 
0.000000 0.000000 0.000000 

-0.000000 -0.000000 0.000000 
0.000000 -0.000000 0.000000 
0.000000 0.000000 0.000000 

-0.000000 -0.000000 0.000000 
0.000000 -0.000000 0.000000 
0.000000 0.000000 0.000000 

0.000000 0.000000 0.000000 
0.000000 0.000000 0.000000 
0.000000 0.000000 0.000000 

0.000000 -0.000000 0.000000 
0.000000 0.000000 0.000000 
0.000000 0.000000 0.000000 

0.000000 -0.000000 0.000000 
0.000000 0.000000 0.000000 
0.000000 0.000000 0.000000 

-0.000000 -0.000000 0.000000 
0.000000 -0.000000 0.000000 
0.000000 0.000000 0.000000 

-0.000000 -0.000000 0.000000 
0.000000 -0.000000 0.000000 
0.000000 0.000000 0.000000 

-0.000000 -0.000000 0.000000 
0.000000 -0.000000 0.000000 
0.000000 0.000000 0.000000 

0.000000 -0.000000 0.000000 
0.000000 0.000000 0.000000 
0.000000 0.000000 0.000000 

0.000000 -0.000000 0.000000 
0.000000 0.000000 0.000000 
0.000000 0.000000 0.000000 

0.000000 -0.000000 0.000000 
0.000000 -0.000000 0.000000 
0.000000 0.000000 0.000000 

0.000000 -0.000000 0.000000 
0.000000 0.000000 0.000000 
0.000000 0.000000 0.000000 

-0.000000 -0.000000 0.000000 
0.000000 -0.000000 0.000000 
0.000000 0.000000 0.000000 

0.000000 0.000000 0.000000 
0.000000 0.000000 0.000000 
0.000000 0.000000 0.000000 

-0.000000 -0.000000 0.000000 
0.000000 -0.000000 0.000000 
0.000000 0.000000 0.000000 

0.000000 -0.000000 0.000000 
0.000000 0.000000 0.000000 
0.000000 0.000000 0.000000 

-0.000000 -0.000000 0.000000 
0.000000 -0.000000 0.000000 
0.000000 0.000000 0.000000 

-0.000000 0.000000 0.000000 
0.000000 -0.000000 0.000000 
0.000000 0.000000 0.000000 

0.000000 0.000000 0.000000 
0.000000 0.000000 0.000000 
0.000000 0.000000 0.000000 

0.000000 0.000000 0.000000 
0.000000 0.000000 0.000000 
0.000000 0.000000 0.000000 

-0.000000 -0.000000 0.000000 
0.000000 0.000000 0.000000 
0.000000 0.000000 0.000000 

0.000000 0.000000 0.000000 
0.000000 0.000000 0.000000 
0.000000 0.000000 0.000000 

-0.000000 0.000000 0.000000 
0.000000 -0.000000 0.000000 
0.000000 0.000000 0.000000 

-0.000000 -0.000000 0.000000 
0.000000 -0.000000 0.000000 
0.000000 0.000000 0.000000 

0.000000 -0.000000 0.000000 
0.000000 0.000000 0.000000 
0.000000 0.000000 0.000000 

-0.000000 0.000000 0.000000 
0.000000 -0.000000 0.000000 
0.000000 0.000000 0.000000 

0.000000 -0.000000 0.000000 
0.000000 0.000000 0.000000 
0.000000 0.000000 0.000000 

0.000000 -0.000000 0.000000 
0.000000 0.000000 0.000000 
0.000000 0.000000 0.000000 

-0.000000 -0.000000 0.000000 
0.000000 -0.000000 0.000000 
0.000000 0.000000 0.000000 

0.000000 0.000000 0.000000 
0.000000 0.000000 0.000000 
0.000000 0.000000 0.000000 

-0.000000 -0.000000 0.000000 
0.000000 -0.000000 0.000000 
0.000000 0.000000 0.000000 

-0.000000 -0.000000 0.000000 
0.000000 -0.000000 0.000000 
0.000000 0.000000 0.000000 

0.000000 -0.000000 0.000000 
0.000000 0.000000 0.000000 
0.000000 0.000000 0.000000 

0.000000 0.000000 0.000000 
0.000000 0.000000 0.000000 
0.000000 0.000000 0.000000 

-0.000000 -0.000000 0.000000 
0.000000 -0.000000 0.000000 
0.000000 0.000000 0.000000 

-0.000000 0.000000 0.000000 
0.000000 -0.000000 0.000000 
0.000000 0.000000 0.000000 

-0.000000 0.000000 0.000000 
0.000000 -0.000000 0.000000 
0.000000 0.000000 0.000000 

0.000000 -0.000000 0.000000 
0.000000 0.000000 0.000000 
0.000000 0.000000 0.000000 

-0.000000 0.000000 0.000000 
0.000000 -0.000000 0.000000 
0.000000 0.000000 0.000000 

0.000000 0.000000 0.000000 
0.000000 0.000000 0.000000 
0.000000 0.000000 0.000000 

-0.000000 0.000000 0.000000 
0.000000 -0.000000 0.000000 
0.000000 0.000000 0.000000 

-0.000000 0.000000 0.000000 
0.000000 -0.000000 0.000000 
0.000000 0.000000 0.000000 

-0.000000 -0.000000 0.000000 
0.000000 -0.000000 0.000000 
0.000000 0.000000 0.000000 

-0.000000 0.000000 0.000000 
0.000000 -0.000000 0.000000 
0.000000 0.000000 0.000000 

0.000000 0.000000 0.000000 
0.000000 0.000000 0.000000 
0.000000 0.000000 0.000000 

-0.000000 0.000000 0.000000 
0.000000 -0.000000 0.000000 
0.000000 0.000000 0.000000 

-0.000000 0.000000 0.000000 
0.000000 -0.000000 0.000000 
0.000000 0.000000 0.000000 

0.000000 -0.000000 0.000000 
0.000000 -0.000000 0.000000 
0.000000 0.000000 0.000000 

0.000000 -0.000000 0.000000 
0.000000 0.000000 0.000000 
0.000000 0.000000 0.000000 

0.000000 0.000000 0.000000 
0.000000 0.000000 0.000000 
0.000000 0.000000 0.000000 

0.000000 0.000000 0.000000 
0.000000 0.000000 0.000000 
0.000000 0.000000 0.000000 

-0.000000 0.000000 0.000000 
0.000000 -0.000000 0.000000 
0.000000 0.000000 0.000000 

0.000000 0.000000 0.000000 
0.000000 0.000000 0.000000 
0.000000 0.000000 0.000000 

-0.000000 0.000000 0.000000 
0.000000 -0.000000 0.000000 
0.000000 0.000000 0.000000 

0.000000 -0.000000 0.000000 
0.000000 0.000000 0.000000 
0.000000 0.000000 0.000000 

-0.000000 0.000000 0.000000 
0.000000 -0.000000 0.000000 
0.000000 0.000000 0.000000 

-0.000000 -0.000000 0.000000 
0.000000 -0.000000 0.000000 
0.000000 0.000000 0.000000 

0.000000 0.000000 0.000000 
0.000000 0.000000 0.000000 
0.000000 0.000000 0.000000 

0.000000 -0.000000 0.000000 
0.000000 0.000000 0.000000 
0.000000 0.000000 0.000000 

-0.000000 0.000000 0.000000 
0.000000 -0.000000 0.000000 
0.000000 0.000000 0.000000 

-0.000000 -0.000000 0.000000 
0.000000 -0.000000 0.000000 
0.000000 0.000000 0.000000 

0.000000 0.000000 0.000000 
0.000000 0.000000 0.000000 
0.000000 0.000000 0.000000 

-0.000000 0.000000 0.000000 
0.000000 -0.000000 0.000000 
0.000000 0.000000 0.000000 

0.000000 0.000000 0.000000 
0.000000 0.000000 0.000000 
0.000000 0.000000 0.000000 

-0.000000 0.000000 0.000000 
0.000000 -0.000000 0.000000 
0.000000 0.000000 0.000000 

-0.000000 0.000000 0.000000 
0.000000 -0.000000 0.000000 
0.000000 0.000000 0.000000 

0.000000 0.000000 0.000000 
0.000000 0.000000 0.000000 
0.000000 0.000000 0.000000 

-0.000000 0.000000 0.000000 
0.000000 -0.000000 0.000000 
0.000000 0.000000 0.000000 

-0.000000 -0.000000 0.000000 
0.000000 0.000000 0.000000 
0.000000 0.000000 0.000000 

-0.000000 0.000000 0.000000 
0.000000 -0.000000 0.000000 
0.000000 0.000000 0.000000 

-0.000000 0.000000 0.000000 
0.000000 -0.000000 0.000000 
0.000000 0.000000 0.000000 

-0.000000 -0.000000 0.000000 
0.000000 -0.000000 0.000000 
0.000000 0.000000 0.000000 

-0.000000 0.000000 0.000000 
0.000000 -0.000000 0.000000 
0.000000 0.000000 0.000000 

0.000000 0.000000 0.000000 
0.000000 0.000000 0.000000 
0.000000 0.000000 0.000000 

-0.000000 0.000000 0.000000 
0.000000 -0.000000 0.000000 
0.000000 0.000000 0.000000 

0.000000 0.000000 0.000000 
0.000000 0.000000 0.000000 
0.000000 0.000000 0.000000 

-0.000000 -0.000000 0.000000 
0.000000 -0.000000 0.000000 
0.000000 0.000000 0.000000 

-0.000000 -0.000000 0.000000 
0.000000 -0.000000 0.000000 
0.000000 0.000000 0.000000 

0.000000 -0.000000 0.000000 
0.000000 0.000000 0.000000 
0.000000 0.000000 0.000000 

0.000000 -0.000000 0.000000 
0.000000 -0.000000 0.000000 
0.000000 0.000000 0.000000 

0.000000 -0.000000 0.000000 
0.000000 0.000000 0.000000 
0.000000 0.000000 0.000000 

0.000000 0.000000 0.000000 
0.000000 -0.000000 0.000000 
0.000000 0.000000 0.000000 

0.000000 -0.000000 0.000000 
0.000000 0.000000 0.000000 
0.000000 0.000000 0.000000 

-0.000000 0.000000 0.000000 
0.000000 -0.000000 0.000000 
0.000000 0.000000 0.000000 

-0.000000 0.000000 0.000000 
0.000000 -0.000000 0.000000 
0.000000 0.000000 0.000000 

0.000000 -0.000000 0.000000 
0.000000 0.000000 0.000000 
0.000000 0.000000 0.000000 

0.000000 -0.000000 0.000000 
0.000000 0.000000 0.000000 
0.000000 0.000000 0.000000 

-0.000000 0.000000 0.000000 
0.000000 -0.000000 0.000000 
0.000000 0.000000 0.000000 

-0.000000 0.000000 0.000000 
0.000000 -0.000000 0.000000 
0.000000 0.000000 0.000000 

-0.000000 -0.000000 0.000000 
0.000000 -0.000000 0.000000 
0.000000 0.000000 0.000000 

-0.000000 0.000000 0.000000 
0.000000 -0.000000 0.000000 
0.000000 0.000000 0.000000 

-0.000000 0.000000 0.000000 
0.000000 -0.000000 0.000000 
0.000000 0.000000 0.000000 

0.000000 0.000000 0.000000 
0.000000 0.000000 0.000000 
0.000000 0.000000 0.000000 

-0.000000 -0.000000 0.000000 
0.000000 -0.000000 0.000000 
0.000000 0.000000 0.000000 

0.000000 -0.000000 0.000000 
0.000000 0.000000 0.000000 
0.000000 0.000000 0.000000 

-0.000000 0.000000 0.000000 
0.000000 -0.000000 0.000000 
0.000000 0.000000 0.000000 

0.000000 0.000000 0.000000 
0.000000 -0.000000 0.000000 
0.000000 0.000000 0.000000 

-0.000000 -0.000000 0.000000 
0.000000 -0.000000 0.000000 
0.000000 0.000000 0.000000 

0.000000 -0.000000 0.000000 
0.000000 0.000000 0.000000 
0.000000 0.000000 0.000000 

0.000000 -0.000000 0.000000 
0.000000 0.000000 0.000000 
0.000000 0.000000 0.000000 

0.000000 -0.000000 0.000000 
0.000000 -0.000000 0.000000 
0.000000 0.000000 0.000000 

0.000000 0.000000 0.000000 
0.000000 -0.000000 0.000000 
0.000000 0.000000 0.000000 

0.000000 0.000000 0.000000 
0.000000 0.000000 0.000000 
0.000000 0.000000 0.000000 

-0.000000 0.000000 0.000000 
0.000000 -0.000000 0.000000 
0.000000 0.000000 0.000000 

0.000000 -0.000000 0.000000 
0.000000 0.000000 0.000000 
0.000000 0.000000 0.000000 

0.000000 -0.000000 0.000000 
0.000000 0.000000 0.000000 
0.000000 0.000000 0.000000 

-0.000000 0.000000 0.000000 
0.000000 0.000000 0.000000 
0.000000 0.000000 0.000000 

-0.000000 0.000000 0.000000 
0.000000 -0.000000 0.000000 
0.000000 0.000000 0.000000 

0.000000 0.000000 0.000000 
0.000000 0.000000 0.000000 
0.000000 0.000000 0.000000 

-0.000000 -0.000000 0.000000 
0.000000 -0.000000 0.000000 
0.000000 0.000000 0.000000 

-0.000000 -0.000000 0.000000 
0.000000 -0.000000 0.000000 
0.000000 0.000000 0.000000 

-0.000000 -0.000000 0.000000 
0.000000 -0.000000 0.000000 
0.000000 0.000000 0.000000 

0.000000 -0.000000 0.000000 
0.000000 0.000000 0.000000 
0.000000 0.000000 0.000000 

0.000000 0.000000 0.000000 
0.000000 0.000000 0.000000 
0.000000 0.000000 0.000000 

-0.000000 -0.000000 0.000000 
0.000000 -0.000000 0.000000 
0.000000 0.000000 0.000000 

0.000000 -0.000000 0.000000 
0.000000 0.000000 0.000000 
0.000000 0.000000 0.000000 

-0.000000 -0.000000 0.000000 
0.000000 -0.000000 0.000000 
0.000000 0.000000 0.000000 

-0.000000 -0.000000 0.000000 
0.000000 -0.000000 0.000000 
0.000000 0.000000 0.000000 

-0.000000 0.000000 0.000000 
0.000000 -0.000000 0.000000 
0.000000 0.000000 0.000000 

-0.000000 0.000000 0.000000 
0.000000 -0.000000 0.000000 
0.000000 0.000000 0.000000 

-0.000000 -0.000000 0.000000 
0.000000 0.000000 0.000000 
0.000000 0.000000 0.000000 

0.000000 0.000000 0.000000 
0.000000 0.000000 0.000000 
0.000000 0.000000 0.000000 

0.000000 0.000000 0.000000 
0.000000 0.000000 0.000000 
0.000000 0.000000 0.000000 

-0.000000 0.000000 0.000000 
0.000000 -0.000000 0.000000 
0.000000 0.000000 0.000000 

0.000000 0.000000 0.000000 
0.000000 0.000000 0.000000 
0.000000 0.000000 0.000000 

-0.000000 0.000000 0.000000 
0.000000 -0.000000 0.000000 
0.000000 0.000000 0.000000 

0.000000 0.000000 0.000000 
0.000000 0.000000 0.000000 
0.000000 0.000000 0.000000 

-0.000000 0.000000 0.000000 
0.000000 -0.000000 0.000000 
0.000000 0.000000 0.000000 

-0.000000 -0.000000 0.000000 
0.000000 -0.000000 0.000000 
0.000000 0.000000 0.000000 

-0.000000 0.000000 0.000000 
0.000000 -0.000000 0.000000 
0.000000 0.000000 0.000000 

-0.000000 0.000000 0.000000 
0.000000 -0.000000 0.000000 
0.000000 0.000000 0.000000 

0.000000 -0.000000 0.000000 
0.000000 0.000000 0.000000 
0.000000 0.000000 0.000000 

0.000000 0.000000 0.000000 
0.000000 0.000000 0.000000 
0.000000 0.000000 0.000000 

-0.000000 0.000000 0.000000 
0.000000 -0.000000 0.000000 
0.000000 0.000000 0.000000 

-0.000000 0.000000 0.000000 
0.000000 -0.000000 0.000000 
0.000000 0.000000 0.000000 

-0.000000 -0.000000 0.000000 
0.000000 0.000000 0.000000 
0.000000 0.000000 0.000000 

-0.000000 -0.000000 0.000000 
0.000000 -0.000000 0.000000 
0.000000 0.000000 0.000000 

-0.000000 -0.000000 0.000000 
0.000000 -0.000000 0.000000 
0.000000 0.000000 0.000000 

TENSORS STRAIN float 
0.000000 0.000000 0.000000 
0.000000 -0.000000 0.000000 
0.000000 0.000000 0.000000 

-0.000000 -0.000000 0.000000 
0.000000 -0.000000 0.000000 
0.000000 0.000000 0.000000 

0.000000 0.000000 0.000000 
0.000000 -0.000000 0.000000 
0.000000 0.000000 0.000000 

0.000000 0.000000 0.000000 
0.000000 -0.000000 0.000000 
0.000000 0.000000 0.000000 

0.000000 -0.000000 0.000000 
0.000000 -0.000000 0.000000 
0.000000 0.000000 0.000000 

0.000000 0.000000 0.000000 
0.000000 -0.000000 0.000000 
0.000000 0.000000 0.000000 

0.000000 -0.000000 0.000000 
0.000000 0.000000 0.000000 
0.000000 0.000000 0.000000 

-0.000000 0.000000 0.000000 
0.000000 -0.000000 0.000000 
0.000000 0.000000 0.000000 

-0.000000 -0.000000 0.000000 
0.000000 0.000000 0.000000 
0.000000 0.000000 0.000000 

0.000000 -0.000000 0.000000 
0.000000 0.000000 0.000000 
0.000000 0.000000 0.000000 

0.000000 -0.000000 0.000000 
0.000000 -0.000000 0.000000 
0.000000 0.000000 0.000000 

-0.000000 -0.000000 0.000000 
0.000000 -0.000000 0.000000 
0.000000 0.000000 0.000000 

-0.000000 -0.000000 0.000000 
0.000000 0.000000 0.000000 
0.000000 0.000000 0.000000 

-0.000000 -0.000000 0.000000 
0.000000 0.000000 0.000000 
0.000000 0.000000 0.000000 

-0.000000 -0.000000 0.000000 
0.000000 0.000000 0.000000 
0.000000 0.000000 0.000000 

-0.000000 0.000000 0.000000 
0.000000 0.000000 0.000000 
0.000000 0.000000 0.000000 

0.000000 -0.000000 0.000000 
0.000000 -0.000000 0.000000 
0.000000 0.000000 0.000000 

0.000000 -0.000000 0.000000 
0.000000 -0.000000 0.000000 
0.000000 0.000000 0.000000 

0.000000 -0.000000 0.000000 
0.000000 -0.000000 0.000000 
0.000000 0.000000 0.000000 

-0.000000 -0.000000 0.000000 
0.000000 0.000000 0.000000 
0.000000 0.000000 0.000000 

-0.000000 -0.000000 0.000000 
0.000000 0.000000 0.000000 
0.000000 0.000000 0.000000 

-0.000000 -0.000000 0.000000 
0.000000 0.000000 0.000000 
0.000000 0.000000 0.000000 

0.000000 -0.000000 0.000000 
0.000000 0.000000 0.000000 
0.000000 0.000000 0.000000 

-0.000000 0.000000 0.000000 
0.000000 0.000000 0.000000 
0.000000 0.000000 0.000000 

-0.000000 0.000000 0.000000 
0.000000 0.000000 0.000000 
0.000000 0.000000 0.000000 

0.000000 0.000000 0.000000 
0.000000 -0.000000 0.000000 
0.000000 0.000000 0.000000 

-0.000000 -0.000000 0.000000 
0.000000 -0.000000 0.000000 
0.000000 0.000000 0.000000 

0.000000 -0.000000 0.000000 
0.000000 0.000000 0.000000 
0.000000 0.000000 0.000000 

-0.000000 -0.000000 0.000000 
0.000000 0.000000 0.000000 
0.000000 0.000000 0.000000 

-0.000000 0.000000 0.000000 
0.000000 0.000000 0.000000 
0.000000 0.000000 0.000000 

-0.000000 -0.000000 0.000000 
0.000000 -0.000000 0.000000 
0.000000 0.000000 0.000000 

0.000000 0.000000 0.000000 
0.000000 0.000000 0.000000 
0.000000 0.000000 0.000000 

-0.000000 -0.000000 0.000000 
0.000000 -0.000000 0.000000 
0.000000 0.000000 0.000000 

0.000000 -0.000000 0.000000 
0.000000 -0.000000 0.000000 
0.000000 0.000000 0.000000 

-0.000000 -0.000000 0.000000 
0.000000 -0.000000 0.000000 
0.000000 0.000000 0.000000 

0.000000 0.000000 0.000000 
0.000000 0.000000 0.000000 
0.000000 0.000000 0.000000 

0.000000 0.000000 0.000000 
0.000000 0.000000 0.000000 
0.000000 0.000000 0.000000 

0.000000 -0.000000 0.000000 
0.000000 -0.000000 0.000000 
0.000000 0.000000 0.000000 

0.000000 -0.000000 0.000000 
0.000000 -0.000000 0.000000 
0.000000 0.000000 0.000000 

-0.000000 0.000000 0.000000 
0.000000 0.000000 0.000000 
0.000000 0.000000 0.000000 

-0.000000 -0.000000 0.000000 
0.000000 0.000000 0.000000 
0.000000 0.000000 0.000000 

-0.000000 -0.000000 0.000000 
0.000000 0.000000 0.000000 
0.000000 0.000000 0.000000 

-0.000000 -0.000000 0.000000 
0.000000 0.000000 0.000000 
0.000000 0.000000 0.000000 

-0.000000 -0.000000 0.000000 
0.000000 0.000000 0.000000 
0.000000 0.000000 0.000000 

-0.000000 -0.000000 0.000000 
0.000000 -0.000000 0.000000 
0.000000 0.000000 0.000000 

-0.000000 -0.000000 0.000000 
0.000000 0.000000 0.000000 
0.000000 0.000000 0.000000 

0.000000 -0.000000 0.000000 
0.000000 0.000000 0.000000 
0.000000 0.000000 0.000000 

0.000000 -0.000000 0.000000 
0.000000 -0.000000 0.000000 
0.000000 0.000000 0.000000 

0.000000 -0.000000 0.000000 
0.000000 0.000000 0.000000 
0.000000 0.000000 0.000000 

0.000000 -0.000000 0.000000 
0.000000 -0.000000 0.000000 
0.000000 0.000000 0.000000 

-0.000000 0.000000 0.000000 
0.000000 0.000000 0.000000 
0.000000 0.000000 0.000000 

-0.000000 -0.000000 0.000000 
0.000000 -0.000000 0.000000 
0.000000 0.000000 0.000000 

-0.000000 -0.000000 0.000000 
0.000000 0.000000 0.000000 
0.000000 0.000000 0.000000 

-0.000000 -0.000000 0.000000 
0.000000 -0.000000 0.000000 
0.000000 0.000000 0.000000 

-0.000000 0.000000 0.000000 
0.000000 -0.000000 0.000000 
0.000000 0.000000 0.000000 

-0.000000 0.000000 0.000000 
0.000000 0.000000 0.000000 
0.000000 0.000000 0.000000 

-0.000000 0.000000 0.000000 
0.000000 0.000000 0.000000 
0.000000 0.000000 0.000000 

-0.000000 -0.000000 0.000000 
0.000000 0.000000 0.000000 
0.000000 0.000000 0.000000 

-0.000000 0.000000 0.000000 
0.000000 0.000000 0.000000 
0.000000 0.000000 0.000000 

-0.000000 0.000000 0.000000 
0.000000 0.000000 0.000000 
0.000000 0.000000 0.000000 

-0.000000 -0.000000 0.000000 
0.000000 0.000000 0.000000 
0.000000 0.000000 0.000000 

-0.000000 -0.000000 0.000000 
0.000000 0.000000 0.000000 
0.000000 0.000000 0.000000 

-0.000000 0.000000 0.000000 
0.000000 0.000000 0.000000 
0.000000 0.000000 0.000000 

-0.000000 -0.000000 0.000000 
0.000000 0.000000 0.000000 
0.000000 0.000000 0.000000 

-0.000000 -0.000000 0.000000 
0.000000 0.000000 0.000000 
0.000000 0.000000 0.000000 

-0.000000 -0.000000 0.000000 
0.000000 -0.000000 0.000000 
0.000000 0.000000 0.000000 

0.000000 0.000000 0.000000 
0.000000 0.000000 0.000000 
0.000000 0.000000 0.000000 

-0.000000 -0.000000 0.000000 
0.000000 -0.000000 0.000000 
0.000000 0.000000 0.000000 

-0.000000 -0.000000 0.000000 
0.000000 -0.000000 0.000000 
0.000000 0.000000 0.000000 

-0.000000 -0.000000 0.000000 
0.000000 0.000000 0.000000 
0.000000 0.000000 0.000000 

-0.000000 0.000000 0.000000 
0.000000 0.000000 0.000000 
0.000000 0.000000 0.000000 

-0.000000 -0.000000 0.000000 
0.000000 0.000000 0.000000 
0.000000 0.000000 0.000000 

0.000000 0.000000 0.000000 
0.000000 -0.000000 0.000000 
0.000000 0.000000 0.000000 

0.000000 0.000000 0.000000 
0.000000 -0.000000 0.000000 
0.000000 0.000000 0.000000 

0.000000 -0.000000 0.000000 
0.000000 0.000000 0.000000 
0.000000 0.000000 0.000000 

-0.000000 0.000000 0.000000 
0.000000 -0.000000 0.000000 
0.000000 0.000000 0.000000 

-0.000000 0.000000 0.000000 
0.000000 0.000000 0.000000 
0.000000 0.000000 0.000000 

-0.000000 0.000000 0.000000 
0.000000 -0.000000 0.000000 
0.000000 0.000000 0.000000 

-0.000000 0.000000 0.000000 
0.000000 0.000000 0.000000 
0.000000 0.000000 0.000000 

0.000000 -0.000000 0.000000 
0.000000 -0.000000 0.000000 
0.000000 0.000000 0.000000 

-0.000000 0.000000 0.000000 
0.000000 -0.000000 0.000000 
0.000000 0.000000 0.000000 

-0.000000 0.000000 0.000000 
0.000000 0.000000 0.000000 
0.000000 0.000000 0.000000 

-0.000000 0.000000 0.000000 
0.000000 -0.000000 0.000000 
0.000000 0.000000 0.000000 

-0.000000 0.000000 0.000000 
0.000000 -0.000000 0.000000 
0.000000 0.000000 0.000000 

0.000000 -0.000000 0.000000 
0.000000 -0.000000 0.000000 
0.000000 0.000000 0.000000 

0.000000 -0.000000 0.000000 
0.000000 0.000000 0.000000 
0.000000 0.000000 0.000000 

0.000000 0.000000 0.000000 
0.000000 0.000000 0.000000 
0.000000 0.000000 0.000000 

0.000000 0.000000 0.000000 
0.000000 0.000000 0.000000 
0.000000 0.000000 0.000000 

0.000000 0.000000 0.000000 
0.000000 -0.000000 0.000000 
0.000000 0.000000 0.000000 

-0.000000 0.000000 0.000000 
0.000000 0.000000 0.000000 
0.000000 0.000000 0.000000 

-0.000000 0.000000 0.000000 
0.000000 0.000000 0.000000 
0.000000 0.000000 0.000000 

0.000000 -0.000000 0.000000 
0.000000 0.000000 0.000000 
0.000000 0.000000 0.000000 

0.000000 0.000000 0.000000 
0.000000 -0.000000 0.000000 
0.000000 0.000000 0.000000 

0.000000 -0.000000 0.000000 
0.000000 -0.000000 0.000000 
0.000000 0.000000 0.000000 

-0.000000 0.000000 0.000000 
0.000000 0.000000 0.000000 
0.000000 0.000000 0.000000 

0.000000 -0.000000 0.000000 
0.000000 0.000000 0.000000 
0.000000 0.000000 0.000000 

-0.000000 0.000000 0.000000 
0.000000 -0.000000 0.000000 
0.000000 0.000000 0.000000 

0.000000 -0.000000 0.000000 
0.000000 -0.000000 0.000000 
0.000000 0.000000 0.000000 

0.000000 0.000000 0.000000 
0.000000 0.000000 0.000000 
0.000000 0.000000 0.000000 

0.000000 0.000000 0.000000 
0.000000 -0.000000 0.000000 
0.000000 0.000000 0.000000 

-0.000000 0.000000 0.000000 
0.000000 0.000000 0.000000 
0.000000 0.000000 0.000000 

-0.000000 0.000000 0.000000 
0.000000 -0.000000 0.000000 
0.000000 0.000000 0.000000 

-0.000000 0.000000 0.000000 
0.000000 -0.000000 0.000000 
0.000000 0.000000 0.000000 

-0.000000 0.000000 0.000000 
0.000000 0.000000 0.000000 
0.000000 0.000000 0.000000 

0.000000 0.000000 0.000000 
0.000000 -0.000000 0.000000 
0.000000 0.000000 0.000000 

-0.000000 -0.000000 0.000000 
0.000000 0.000000 0.000000 
0.000000 0.000000 0.000000 

-0.000000 0.000000 0.000000 
0.000000 0.000000 0.000000 
0.000000 0.000000 0.000000 

-0.000000 0.000000 0.000000 
0.000000 -0.000000 0.000000 
0.000000 0.000000 0.000000 

-0.000000 -0.000000 0.000000 
0.000000 0.000000 0.000000 
0.000000 0.000000 0.000000 

0.000000 0.000000 0.000000 
0.000000 -0.000000 0.000000 
0.000000 0.000000 0.000000 

0.000000 0.000000 0.000000 
0.000000 -0.000000 0.000000 
0.000000 0.000000 0.000000 

0.000000 0.000000 0.000000 
0.000000 -0.000000 0.000000 
0.000000 0.000000 0.000000 

0.000000 0.000000 0.000000 
0.000000 -0.000000 0.000000 
0.000000 0.000000 0.000000 

0.000000 -0.000000 0.000000 
0.000000 -0.000000 0.000000 
0.000000 0.000000 0.000000 

0.000000 -0.000000 0.000000 
0.000000 -0.000000 0.000000 
0.000000 0.000000 0.000000 

0.000000 -0.000000 0.000000 
0.000000 0.000000 0.000000 
0.000000 0.000000 0.000000 

0.000000 -0.000000 0.000000 
0.000000 -0.000000 0.000000 
0.000000 0.000000 0.000000 

0.000000 -0.000000 0.000000 
0.000000 -0.000000 0.000000 
0.000000 0.000000 0.000000 

0.000000 0.000000 0.000000 
0.000000 -0.000000 0.000000 
0.000000 0.000000 0.000000 

0.000000 -0.000000 0.000000 
0.000000 -0.000000 0.000000 
0.000000 0.000000 0.000000 

0.000000 0.000000 0.000000 
0.000000 -0.000000 0.000000 
0.000000 0.000000 0.000000 

0.000000 0.000000 0.000000 
0.000000 -0.000000 0.000000 
0.000000 0.000000 0.000000 

0.000000 -0.000000 0.000000 
0.000000 0.000000 0.000000 
0.000000 0.000000 0.000000 

0.000000 -0.000000 0.000000 
0.000000 0.000000 0.000000 
0.000000 0.000000 0.000000 

0.000000 0.000000 0.000000 
0.000000 -0.000000 0.000000 
0.000000 0.000000 0.000000 

0.000000 0.000000 0.000000 
0.000000 -0.000000 0.000000 
0.000000 0.000000 0.000000 

-0.000000 -0.000000 0.000000 
0.000000 -0.000000 0.000000 
0.000000 0.000000 0.000000 

-0.000000 0.000000 0.000000 
0.000000 -0.000000 0.000000 
0.000000 0.000000 0.000000 

-0.000000 0.000000 0.000000 
0.000000 -0.000000 0.000000 
0.000000 0.000000 0.000000 

-0.000000 0.000000 0.000000 
0.000000 0.000000 0.000000 
0.000000 0.000000 0.000000 

-0.000000 -0.000000 0.000000 
0.000000 0.000000 0.000000 
0.000000 0.000000 0.000000 

0.000000 -0.000000 0.000000 
0.000000 -0.000000 0.000000 
0.000000 0.000000 0.000000 

-0.000000 0.000000 0.000000 
0.000000 0.000000 0.000000 
0.000000 0.000000 0.000000 

0.000000 0.000000 0.000000 
0.000000 -0.000000 0.000000 
0.000000 0.000000 0.000000 

-0.000000 -0.000000 0.000000 
0.000000 0.000000 0.000000 
0.000000 0.000000 0.000000 

0.000000 -0.000000 0.000000 
0.000000 0.000000 0.000000 
0.000000 0.000000 0.000000 

0.000000 -0.000000 0.000000 
0.000000 0.000000 0.000000 
0.000000 0.000000 0.000000 

0.000000 -0.000000 0.000000 
0.000000 -0.000000 0.000000 
0.000000 0.000000 0.000000 

0.000000 0.000000 0.000000 
0.000000 -0.000000 0.000000 
0.000000 0.000000 0.000000 

0.000000 0.000000 0.000000 
0.000000 -0.000000 0.000000 
0.000000 0.000000 0.000000 

0.000000 0.000000 0.000000 
0.000000 -0.000000 0.000000 
0.000000 0.000000 0.000000 

-0.000000 -0.000000 0.000000 
0.000000 0.000000 0.000000 
0.000000 0.000000 0.000000 

-0.000000 -0.000000 0.000000 
0.000000 0.000000 0.000000 
0.000000 0.000000 0.000000 

-0.000000 0.000000 0.000000 
0.000000 0.000000 0.000000 
0.000000 0.000000 0.000000 

-0.000000 0.000000 0.000000 
0.000000 0.000000 0.000000 
0.000000 0.000000 0.000000 

-0.000000 0.000000 0.000000 
0.000000 0.000000 0.000000 
0.000000 0.000000 0.000000 

-0.000000 -0.000000 0.000000 
0.000000 0.000000 0.000000 
0.000000 0.000000 0.000000 

-0.000000 -0.000000 0.000000 
0.000000 -0.000000 0.000000 
0.000000 0.000000 0.000000 

0.000000 -0.000000 0.000000 
0.000000 -0.000000 0.000000 
0.000000 0.000000 0.000000 

0.000000 -0.000000 0.000000 
0.000000 -0.000000 0.000000 
0.000000 0.000000 0.000000 

0.000000 0.000000 0.000000 
0.000000 -0.000000 0.000000 
0.000000 0.000000 0.000000 

0.000000 -0.000000 0.000000 
0.000000 -0.000000 0.000000 
0.000000 0.000000 0.000000 

0.000000 -0.000000 0.000000 
0.000000 -0.000000 0.000000 
0.000000 0.000000 0.000000 

-0.000000 -0.000000 0.000000 
0.000000 0.000000 0.000000 
0.000000 0.000000 0.000000 

-0.000000 -0.000000 0.000000 
0.000000 0.000000 0.000000 
0.000000 0.000000 0.000000 

-0.000000 0.000000 0.000000 
0.000000 -0.000000 0.000000 
0.000000 0.000000 0.000000 

-0.000000 0.000000 0.000000 
0.000000 -0.000000 0.000000 
0.000000 0.000000 0.000000 

-0.000000 -0.000000 0.000000 
0.000000 0.000000 0.000000 
0.000000 0.000000 0.000000 

-0.000000 0.000000 0.000000 
0.000000 0.000000 0.000000 
0.000000 0.000000 0.000000 

-0.000000 0.000000 0.000000 
0.000000 0.000000 0.000000 
0.000000 0.000000 0.000000 

-0.000000 0.000000 0.000000 
0.000000 -0.000000 0.000000 
0.000000 0.000000 0.000000 

-0.000000 0.000000 0.000000 
0.000000 0.000000 0.000000 
0.000000 0.000000 0.000000 

-0.000000 0.000000 0.000000 
0.000000 -0.000000 0.000000 
0.000000 0.000000 0.000000 

-0.000000 0.000000 0.000000 
0.000000 0.000000 0.000000 
0.000000 0.000000 0.000000 

-0.000000 0.000000 0.000000 
0.000000 0.000000 0.000000 
0.000000 0.000000 0.000000 

-0.000000 -0.000000 0.000000 
0.000000 0.000000 0.000000 
0.000000 0.000000 0.000000 

-0.000000 0.000000 0.000000 
0.000000 -0.000000 0.000000 
0.000000 0.000000 0.000000 

-0.000000 0.000000 0.000000 
0.000000 0.000000 0.000000 
0.000000 0.000000 0.000000 

0.000000 -0.000000 0.000000 
0.000000 0.000000 0.000000 
0.000000 0.000000 0.000000 

0.000000 0.000000 0.000000 
0.000000 -0.000000 0.000000 
0.000000 0.000000 0.000000 

0.000000 0.000000 0.000000 
0.000000 -0.000000 0.000000 
0.000000 0.000000 0.000000 

0.000000 0.000000 0.000000 
0.000000 -0.000000 0.000000 
0.000000 0.000000 0.000000 

-0.000000 -0.000000 0.000000 
0.000000 0.000000 0.000000 
0.000000 0.000000 0.000000 

-0.000000 -0.000000 0.000000 
0.000000 -0.000000 0.000000 
0.000000 0.000000 0.000000 

-0.000000 -0.000000 0.000000 
0.000000 -0.000000 0.000000 
0.000000 0.000000 0.000000 

