# vtk DataFile Version 3.0 
vtk output 
ASCII 
DATASET UNSTRUCTURED_GRID 
POINTS 175 float 
-0.026061 -1.133690 0.000000 
-0.106992 -1.065635 0.000000 
-0.054870 -1.073867 0.000000 
-0.028809 -1.027984 0.000000 
-0.186430 -1.001559 0.000000 
-0.137056 -1.004085 0.000000 
-0.114311 -0.950438 0.000000 
-0.058186 -0.966104 0.000000 
-0.029377 -0.925927 0.000000 
-0.265318 -0.938404 0.000000 
-0.217198 -0.939203 0.000000 
-0.196633 -0.881907 0.000000 
-0.143120 -0.890615 0.000000 
-0.116563 -0.843347 0.000000 
-0.058945 -0.862992 0.000000 
-0.029568 -0.824872 0.000000 
-0.344206 -0.875248 0.000000 
-0.296791 -0.875241 0.000000 
-0.278030 -0.815298 0.000000 
-0.225992 -0.821164 0.000000 
-0.201664 -0.769047 0.000000 
-0.145749 -0.782521 0.000000 
-0.117890 -0.738178 0.000000 
-0.059328 -0.760884 0.000000 
-0.029759 -0.723818 0.000000 
-0.058559 -1.174441 0.000000 
-0.162226 -1.195284 0.000000 
-0.123292 -1.159666 0.000000 
-0.142917 -1.110683 0.000000 
-0.261851 -1.217440 0.000000 
-0.229092 -1.180413 0.000000 
-0.256854 -1.129181 0.000000 
-0.209613 -1.095069 0.000000 
-0.223062 -1.047495 0.000000 
-0.360414 -1.239740 0.000000 
-0.329787 -1.202617 0.000000 
-0.361761 -1.150815 0.000000 
-0.321587 -1.114406 0.000000 
-0.341985 -1.064172 0.000000 
-0.290702 -1.031373 0.000000 
-0.302189 -0.984638 0.000000 
-0.458977 -1.262040 0.000000 
-0.429420 -1.224966 0.000000 
-0.464588 -1.172924 0.000000 
-0.427556 -1.135896 0.000000 
-0.453135 -1.084382 0.000000 
-0.407738 -1.049066 0.000000 
-0.425037 -0.999638 0.000000 
-0.370772 -0.968009 0.000000 
-0.381315 -0.921782 0.000000 
-0.046960 -1.225256 0.000000 
-0.095301 -1.319302 0.000000 
-0.098873 -1.266655 0.000000 
-0.149405 -1.251457 0.000000 
-0.140093 -1.411006 0.000000 
-0.148617 -1.362308 0.000000 
-0.205981 -1.352071 0.000000 
-0.203197 -1.293867 0.000000 
-0.248777 -1.274721 0.000000 
-0.184111 -1.501970 0.000000 
-0.194039 -1.454879 0.000000 
-0.254475 -1.447579 0.000000 
-0.257893 -1.393469 0.000000 
-0.309886 -1.378097 0.000000 
-0.303554 -1.317552 0.000000 
-0.347255 -1.297394 0.000000 
-0.228129 -1.592933 0.000000 
-0.238687 -1.546709 0.000000 
-0.301302 -1.541757 0.000000 
-0.307162 -1.489718 0.000000 
-0.363386 -1.477597 0.000000 
-0.362692 -1.420086 0.000000 
-0.412122 -1.402793 0.000000 
-0.403017 -1.340646 0.000000 
-0.445733 -1.320067 0.000000 
-0.000000 -1.247871 0.000000 
0.043388 -1.344302 0.000000 
-0.000000 -1.314269 0.000000 
-0.043388 -1.344302 0.000000 
0.087158 -1.436498 0.000000 
0.043769 -1.412800 0.000000 
-0.000000 -1.451266 0.000000 
-0.043769 -1.412800 0.000000 
-0.087158 -1.436498 0.000000 
0.130831 -1.527628 0.000000 
0.087824 -1.506029 0.000000 
0.044436 -1.548729 0.000000 
-0.000000 -1.517664 0.000000 
-0.044436 -1.548729 0.000000 
-0.087824 -1.506029 0.000000 
-0.130831 -1.527628 0.000000 
0.174505 -1.618758 0.000000 
0.131782 -1.598192 0.000000 
0.088871 -1.644058 0.000000 
0.044532 -1.616194 0.000000 
-0.000000 -1.652595 0.000000 
-0.044532 -1.616194 0.000000 
-0.088871 -1.644058 0.000000 
-0.131782 -1.598192 0.000000 
-0.174505 -1.618758 0.000000 
0.046960 -1.225256 0.000000 
0.149405 -1.251457 0.000000 
0.098873 -1.266655 0.000000 
0.095301 -1.319302 0.000000 
0.248777 -1.274721 0.000000 
0.203197 -1.293867 0.000000 
0.205981 -1.352071 0.000000 
0.148617 -1.362308 0.000000 
0.140093 -1.411006 0.000000 
0.347255 -1.297394 0.000000 
0.303554 -1.317552 0.000000 
0.309886 -1.378097 0.000000 
0.257893 -1.393469 0.000000 
0.254475 -1.447579 0.000000 
0.194039 -1.454879 0.000000 
0.184111 -1.501970 0.000000 
0.445733 -1.320067 0.000000 
0.403017 -1.340646 0.000000 
0.412122 -1.402793 0.000000 
0.362692 -1.420086 0.000000 
0.363386 -1.477597 0.000000 
0.307162 -1.489718 0.000000 
0.301302 -1.541757 0.000000 
0.238687 -1.546709 0.000000 
0.228129 -1.592933 0.000000 
0.058559 -1.174441 0.000000 
0.142917 -1.110683 0.000000 
0.123292 -1.159666 0.000000 
0.162226 -1.195284 0.000000 
0.223062 -1.047495 0.000000 
0.209613 -1.095069 0.000000 
0.256854 -1.129181 0.000000 
0.229092 -1.180413 0.000000 
0.261851 -1.217440 0.000000 
0.302189 -0.984638 0.000000 
0.290702 -1.031373 0.000000 
0.341985 -1.064172 0.000000 
0.321587 -1.114406 0.000000 
0.361761 -1.150815 0.000000 
0.329787 -1.202617 0.000000 
0.360414 -1.239740 0.000000 
0.381315 -0.921782 0.000000 
0.370772 -0.968009 0.000000 
0.425037 -0.999638 0.000000 
0.407738 -1.049066 0.000000 
0.453135 -1.084382 0.000000 
0.427556 -1.135896 0.000000 
0.464588 -1.172924 0.000000 
0.429420 -1.224966 0.000000 
0.458977 -1.262040 0.000000 
0.026061 -1.133690 0.000000 
0.028809 -1.027984 0.000000 
0.054870 -1.073867 0.000000 
0.106992 -1.065635 0.000000 
0.029377 -0.925927 0.000000 
0.058186 -0.966104 0.000000 
0.114311 -0.950438 0.000000 
0.137056 -1.004085 0.000000 
0.186430 -1.001559 0.000000 
0.029568 -0.824872 0.000000 
0.058945 -0.862992 0.000000 
0.116563 -0.843347 0.000000 
0.143120 -0.890615 0.000000 
0.196633 -0.881907 0.000000 
0.217198 -0.939203 0.000000 
0.265318 -0.938404 0.000000 
0.029759 -0.723818 0.000000 
0.059328 -0.760884 0.000000 
0.117890 -0.738178 0.000000 
0.145749 -0.782521 0.000000 
0.201664 -0.769047 0.000000 
0.225992 -0.821164 0.000000 
0.278030 -0.815298 0.000000 
0.296791 -0.875241 0.000000 
0.344206 -0.875248 0.000000 
CELLS 175 350 
1 0 
1 1 
1 2 
1 3 
1 4 
1 5 
1 6 
1 7 
1 8 
1 9 
1 10 
1 11 
1 12 
1 13 
1 14 
1 15 
1 16 
1 17 
1 18 
1 19 
1 20 
1 21 
1 22 
1 23 
1 24 
1 25 
1 26 
1 27 
1 28 
1 29 
1 30 
1 31 
1 32 
1 33 
1 34 
1 35 
1 36 
1 37 
1 38 
1 39 
1 40 
1 41 
1 42 
1 43 
1 44 
1 45 
1 46 
1 47 
1 48 
1 49 
1 50 
1 51 
1 52 
1 53 
1 54 
1 55 
1 56 
1 57 
1 58 
1 59 
1 60 
1 61 
1 62 
1 63 
1 64 
1 65 
1 66 
1 67 
1 68 
1 69 
1 70 
1 71 
1 72 
1 73 
1 74 
1 75 
1 76 
1 77 
1 78 
1 79 
1 80 
1 81 
1 82 
1 83 
1 84 
1 85 
1 86 
1 87 
1 88 
1 89 
1 90 
1 91 
1 92 
1 93 
1 94 
1 95 
1 96 
1 97 
1 98 
1 99 
1 100 
1 101 
1 102 
1 103 
1 104 
1 105 
1 106 
1 107 
1 108 
1 109 
1 110 
1 111 
1 112 
1 113 
1 114 
1 115 
1 116 
1 117 
1 118 
1 119 
1 120 
1 121 
1 122 
1 123 
1 124 
1 125 
1 126 
1 127 
1 128 
1 129 
1 130 
1 131 
1 132 
1 133 
1 134 
1 135 
1 136 
1 137 
1 138 
1 139 
1 140 
1 141 
1 142 
1 143 
1 144 
1 145 
1 146 
1 147 
1 148 
1 149 
1 150 
1 151 
1 152 
1 153 
1 154 
1 155 
1 156 
1 157 
1 158 
1 159 
1 160 
1 161 
1 162 
1 163 
1 164 
1 165 
1 166 
1 167 
1 168 
1 169 
1 170 
1 171 
1 172 
1 173 
1 174 
CELL_TYPES 175 
1 
1 
1 
1 
1 
1 
1 
1 
1 
1 
1 
1 
1 
1 
1 
1 
1 
1 
1 
1 
1 
1 
1 
1 
1 
1 
1 
1 
1 
1 
1 
1 
1 
1 
1 
1 
1 
1 
1 
1 
1 
1 
1 
1 
1 
1 
1 
1 
1 
1 
1 
1 
1 
1 
1 
1 
1 
1 
1 
1 
1 
1 
1 
1 
1 
1 
1 
1 
1 
1 
1 
1 
1 
1 
1 
1 
1 
1 
1 
1 
1 
1 
1 
1 
1 
1 
1 
1 
1 
1 
1 
1 
1 
1 
1 
1 
1 
1 
1 
1 
1 
1 
1 
1 
1 
1 
1 
1 
1 
1 
1 
1 
1 
1 
1 
1 
1 
1 
1 
1 
1 
1 
1 
1 
1 
1 
1 
1 
1 
1 
1 
1 
1 
1 
1 
1 
1 
1 
1 
1 
1 
1 
1 
1 
1 
1 
1 
1 
1 
1 
1 
1 
1 
1 
1 
1 
1 
1 
1 
1 
1 
1 
1 
1 
1 
1 
1 
1 
1 
1 
1 
1 
1 
1 
1 
POINT_DATA 175 
VECTORS X_GC float 
-0.026061 -1.133690 0.000000 
-0.106992 -1.065635 0.000000 
-0.054870 -1.073867 0.000000 
-0.028809 -1.027984 0.000000 
-0.186430 -1.001559 0.000000 
-0.137056 -1.004085 0.000000 
-0.114311 -0.950438 0.000000 
-0.058186 -0.966104 0.000000 
-0.029377 -0.925927 0.000000 
-0.265318 -0.938404 0.000000 
-0.217198 -0.939203 0.000000 
-0.196633 -0.881907 0.000000 
-0.143120 -0.890615 0.000000 
-0.116563 -0.843347 0.000000 
-0.058945 -0.862992 0.000000 
-0.029568 -0.824872 0.000000 
-0.344206 -0.875248 0.000000 
-0.296791 -0.875241 0.000000 
-0.278030 -0.815298 0.000000 
-0.225992 -0.821164 0.000000 
-0.201664 -0.769047 0.000000 
-0.145749 -0.782521 0.000000 
-0.117890 -0.738178 0.000000 
-0.059328 -0.760884 0.000000 
-0.029759 -0.723818 0.000000 
-0.058559 -1.174441 0.000000 
-0.162226 -1.195284 0.000000 
-0.123292 -1.159666 0.000000 
-0.142917 -1.110683 0.000000 
-0.261851 -1.217440 0.000000 
-0.229092 -1.180413 0.000000 
-0.256854 -1.129181 0.000000 
-0.209613 -1.095069 0.000000 
-0.223062 -1.047495 0.000000 
-0.360414 -1.239740 0.000000 
-0.329787 -1.202617 0.000000 
-0.361761 -1.150815 0.000000 
-0.321587 -1.114406 0.000000 
-0.341985 -1.064172 0.000000 
-0.290702 -1.031373 0.000000 
-0.302189 -0.984638 0.000000 
-0.458977 -1.262040 0.000000 
-0.429420 -1.224966 0.000000 
-0.464588 -1.172924 0.000000 
-0.427556 -1.135896 0.000000 
-0.453135 -1.084382 0.000000 
-0.407738 -1.049066 0.000000 
-0.425037 -0.999638 0.000000 
-0.370772 -0.968009 0.000000 
-0.381315 -0.921782 0.000000 
-0.046960 -1.225256 0.000000 
-0.095301 -1.319302 0.000000 
-0.098873 -1.266655 0.000000 
-0.149405 -1.251457 0.000000 
-0.140093 -1.411006 0.000000 
-0.148617 -1.362308 0.000000 
-0.205981 -1.352071 0.000000 
-0.203197 -1.293867 0.000000 
-0.248777 -1.274721 0.000000 
-0.184111 -1.501970 0.000000 
-0.194039 -1.454879 0.000000 
-0.254475 -1.447579 0.000000 
-0.257893 -1.393469 0.000000 
-0.309886 -1.378097 0.000000 
-0.303554 -1.317552 0.000000 
-0.347255 -1.297394 0.000000 
-0.228129 -1.592933 0.000000 
-0.238687 -1.546709 0.000000 
-0.301302 -1.541757 0.000000 
-0.307162 -1.489718 0.000000 
-0.363386 -1.477597 0.000000 
-0.362692 -1.420086 0.000000 
-0.412122 -1.402793 0.000000 
-0.403017 -1.340646 0.000000 
-0.445733 -1.320067 0.000000 
-0.000000 -1.247871 0.000000 
0.043388 -1.344302 0.000000 
-0.000000 -1.314269 0.000000 
-0.043388 -1.344302 0.000000 
0.087158 -1.436498 0.000000 
0.043769 -1.412800 0.000000 
-0.000000 -1.451266 0.000000 
-0.043769 -1.412800 0.000000 
-0.087158 -1.436498 0.000000 
0.130831 -1.527628 0.000000 
0.087824 -1.506029 0.000000 
0.044436 -1.548729 0.000000 
-0.000000 -1.517664 0.000000 
-0.044436 -1.548729 0.000000 
-0.087824 -1.506029 0.000000 
-0.130831 -1.527628 0.000000 
0.174505 -1.618758 0.000000 
0.131782 -1.598192 0.000000 
0.088871 -1.644058 0.000000 
0.044532 -1.616194 0.000000 
-0.000000 -1.652595 0.000000 
-0.044532 -1.616194 0.000000 
-0.088871 -1.644058 0.000000 
-0.131782 -1.598192 0.000000 
-0.174505 -1.618758 0.000000 
0.046960 -1.225256 0.000000 
0.149405 -1.251457 0.000000 
0.098873 -1.266655 0.000000 
0.095301 -1.319302 0.000000 
0.248777 -1.274721 0.000000 
0.203197 -1.293867 0.000000 
0.205981 -1.352071 0.000000 
0.148617 -1.362308 0.000000 
0.140093 -1.411006 0.000000 
0.347255 -1.297394 0.000000 
0.303554 -1.317552 0.000000 
0.309886 -1.378097 0.000000 
0.257893 -1.393469 0.000000 
0.254475 -1.447579 0.000000 
0.194039 -1.454879 0.000000 
0.184111 -1.501970 0.000000 
0.445733 -1.320067 0.000000 
0.403017 -1.340646 0.000000 
0.412122 -1.402793 0.000000 
0.362692 -1.420086 0.000000 
0.363386 -1.477597 0.000000 
0.307162 -1.489718 0.000000 
0.301302 -1.541757 0.000000 
0.238687 -1.546709 0.000000 
0.228129 -1.592933 0.000000 
0.058559 -1.174441 0.000000 
0.142917 -1.110683 0.000000 
0.123292 -1.159666 0.000000 
0.162226 -1.195284 0.000000 
0.223062 -1.047495 0.000000 
0.209613 -1.095069 0.000000 
0.256854 -1.129181 0.000000 
0.229092 -1.180413 0.000000 
0.261851 -1.217440 0.000000 
0.302189 -0.984638 0.000000 
0.290702 -1.031373 0.000000 
0.341985 -1.064172 0.000000 
0.321587 -1.114406 0.000000 
0.361761 -1.150815 0.000000 
0.329787 -1.202617 0.000000 
0.360414 -1.239740 0.000000 
0.381315 -0.921782 0.000000 
0.370772 -0.968009 0.000000 
0.425037 -0.999638 0.000000 
0.407738 -1.049066 0.000000 
0.453135 -1.084382 0.000000 
0.427556 -1.135896 0.000000 
0.464588 -1.172924 0.000000 
0.429420 -1.224966 0.000000 
0.458977 -1.262040 0.000000 
0.026061 -1.133690 0.000000 
0.028809 -1.027984 0.000000 
0.054870 -1.073867 0.000000 
0.106992 -1.065635 0.000000 
0.029377 -0.925927 0.000000 
0.058186 -0.966104 0.000000 
0.114311 -0.950438 0.000000 
0.137056 -1.004085 0.000000 
0.186430 -1.001559 0.000000 
0.029568 -0.824872 0.000000 
0.058945 -0.862992 0.000000 
0.116563 -0.843347 0.000000 
0.143120 -0.890615 0.000000 
0.196633 -0.881907 0.000000 
0.217198 -0.939203 0.000000 
0.265318 -0.938404 0.000000 
0.029759 -0.723818 0.000000 
0.059328 -0.760884 0.000000 
0.117890 -0.738178 0.000000 
0.145749 -0.782521 0.000000 
0.201664 -0.769047 0.000000 
0.225992 -0.821164 0.000000 
0.278030 -0.815298 0.000000 
0.296791 -0.875241 0.000000 
0.344206 -0.875248 0.000000 
VECTORS X_EC float 
0.338794 -0.195182 0.000000 
-0.609100 0.886070 0.000000 
0.713312 0.997211 0.000000 
0.374519 0.377781 0.000000 
0.423588 0.021051 0.000000 
-0.218274 0.055154 0.000000 
-0.513962 -0.669085 0.000000 
0.756418 -0.457599 0.000000 
0.381900 -0.999991 0.000000 
-0.550868 -0.831553 0.000000 
0.823577 -0.820757 0.000000 
0.556234 0.405739 0.000000 
-0.139443 0.523308 0.000000 
-0.484677 -0.114817 0.000000 
0.766286 0.150398 0.000000 
0.384386 -0.364222 0.000000 
0.474677 0.315844 0.000000 
-0.141715 0.315748 0.000000 
-0.385608 -0.493480 0.000000 
0.937896 -0.414285 0.000000 
0.621631 0.882135 0.000000 
-0.105264 -0.935966 0.000000 
-0.467428 0.465408 0.000000 
0.771260 0.771937 0.000000 
0.386873 0.271547 0.000000 
0.761262 0.354953 0.000000 
0.108942 0.636329 0.000000 
-0.397202 0.155490 0.000000 
-0.142083 -0.505785 0.000000 
-0.595936 0.935440 0.000000 
0.978194 0.435574 0.000000 
-0.660903 -0.256051 0.000000 
0.724964 -0.716571 0.000000 
0.899809 0.641181 0.000000 
0.685384 -0.763508 0.000000 
0.287229 0.735334 0.000000 
0.702895 0.036005 0.000000 
0.180633 -0.455513 0.000000 
0.445811 0.866327 0.000000 
-0.220880 0.423541 0.000000 
-0.071546 -0.207384 0.000000 
-0.033296 -0.462456 0.000000 
-0.417537 -0.962965 0.000000 
0.039645 0.334472 0.000000 
-0.441768 -0.165399 0.000000 
-0.109248 -0.860850 0.000000 
-0.699407 0.662395 0.000000 
-0.474522 -0.004884 0.000000 
0.820030 -0.431878 0.000000 
0.957100 0.944051 0.000000 
0.610485 -0.959041 0.000000 
-0.761092 0.310579 0.000000 
-0.714655 -0.400159 0.000000 
-0.057734 -0.605326 0.000000 
-0.178789 -0.451417 0.000000 
-0.067979 0.891157 0.000000 
0.677748 0.752953 0.000000 
0.641556 -0.032792 0.000000 
-0.765897 -0.291271 0.000000 
0.393446 0.776592 0.000000 
0.522510 0.140862 0.000000 
-0.691820 0.042318 0.000000 
-0.647393 -0.688165 0.000000 
0.028512 -0.895692 0.000000 
-0.053800 0.286948 0.000000 
0.514316 0.014817 0.000000 
0.965681 0.004601 0.000000 
-0.897068 -0.619428 0.000000 
-0.083078 -0.686281 0.000000 
-0.006893 0.611194 0.000000 
0.724017 0.447562 0.000000 
0.714996 -0.328842 0.000000 
-0.642413 -0.562299 0.000000 
-0.760780 0.598720 0.000000 
-0.205471 0.320905 0.000000 
0.000000 -0.653739 0.000000 
-0.564049 0.648074 0.000000 
0.000000 0.242638 0.000000 
0.564049 0.648074 0.000000 
0.866949 -0.107271 0.000000 
-0.569003 -0.427202 0.000000 
0.000000 0.092086 0.000000 
0.569003 -0.427202 0.000000 
-0.866949 -0.107271 0.000000 
0.299194 -0.877021 0.000000 
0.858290 0.831395 0.000000 
-0.577662 -0.592159 0.000000 
0.000000 0.988463 0.000000 
0.577662 -0.592159 0.000000 
-0.858290 0.831395 0.000000 
-0.299194 -0.877021 0.000000 
-0.268560 0.353229 0.000000 
0.286830 0.075587 0.000000 
0.844677 0.694786 0.000000 
-0.578910 0.318623 0.000000 
0.000000 0.810027 0.000000 
0.578910 0.318623 0.000000 
-0.844677 0.694786 0.000000 
-0.286830 0.075587 0.000000 
0.268560 0.353229 0.000000 
-0.610485 -0.959041 0.000000 
0.057734 -0.605326 0.000000 
0.714655 -0.400159 0.000000 
0.761092 0.310579 0.000000 
0.765897 -0.291271 0.000000 
-0.641556 -0.032792 0.000000 
-0.677748 0.752953 0.000000 
0.067979 0.891157 0.000000 
0.178789 -0.451417 0.000000 
-0.514316 0.014817 0.000000 
0.053800 0.286948 0.000000 
-0.028512 -0.895692 0.000000 
0.647393 -0.688165 0.000000 
0.691820 0.042318 0.000000 
-0.522510 0.140862 0.000000 
-0.393446 0.776592 0.000000 
0.205471 0.320905 0.000000 
0.760780 0.598720 0.000000 
0.642413 -0.562299 0.000000 
-0.714996 -0.328842 0.000000 
-0.724017 0.447562 0.000000 
0.006894 0.611194 0.000000 
0.083078 -0.686281 0.000000 
0.897068 -0.619428 0.000000 
-0.965681 0.004601 0.000000 
-0.761262 0.354953 0.000000 
0.142083 -0.505785 0.000000 
0.397202 0.155490 0.000000 
-0.108942 0.636329 0.000000 
-0.899809 0.641181 0.000000 
-0.724964 -0.716571 0.000000 
0.660903 -0.256051 0.000000 
-0.978194 0.435574 0.000000 
0.595936 0.935440 0.000000 
0.071546 -0.207384 0.000000 
0.220880 0.423541 0.000000 
-0.445811 0.866327 0.000000 
-0.180633 -0.455513 0.000000 
-0.702895 0.036005 0.000000 
-0.287229 0.735334 0.000000 
-0.685384 -0.763508 0.000000 
-0.957100 0.944051 0.000000 
-0.820030 -0.431878 0.000000 
0.474522 -0.004884 0.000000 
0.699407 0.662395 0.000000 
0.109248 -0.860850 0.000000 
0.441768 -0.165399 0.000000 
-0.039645 0.334472 0.000000 
0.417537 -0.962965 0.000000 
0.033296 -0.462456 0.000000 
-0.338794 -0.195182 0.000000 
-0.374519 0.377781 0.000000 
-0.713312 0.997211 0.000000 
0.609100 0.886070 0.000000 
-0.381900 -0.999991 0.000000 
-0.756418 -0.457599 0.000000 
0.513962 -0.669085 0.000000 
0.218274 0.055154 0.000000 
-0.423588 0.021051 0.000000 
-0.384386 -0.364222 0.000000 
-0.766286 0.150398 0.000000 
0.484677 -0.114817 0.000000 
0.139443 0.523308 0.000000 
-0.556234 0.405739 0.000000 
-0.823577 -0.820757 0.000000 
0.550868 -0.831553 0.000000 
-0.386873 0.271547 0.000000 
-0.771260 0.771937 0.000000 
0.467428 0.465408 0.000000 
0.105264 -0.935966 0.000000 
-0.621631 0.882135 0.000000 
-0.937896 -0.414285 0.000000 
0.385608 -0.493480 0.000000 
0.141715 0.315748 0.000000 
-0.474677 0.315844 0.000000 
CELL_DATA 175 
SCALARS MASS float 
LOOKUP_TABLE default 
0.781831 
0.864274 
0.946717 
0.864274 
0.881307 
0.921110 
0.858535 
0.921110 
0.881307 
0.887046 
0.910001 
0.869829 
0.915556 
0.869829 
0.910001 
0.887046 
0.892784 
0.915740 
0.892784 
0.927218 
0.892784 
0.927218 
0.892784 
0.915740 
0.892784 
0.781831 
0.864274 
0.946717 
0.864274 
0.881307 
0.921110 
0.858535 
0.921110 
0.881307 
0.887046 
0.910001 
0.869829 
0.915556 
0.869829 
0.910001 
0.887046 
0.892784 
0.915740 
0.892784 
0.927218 
0.892784 
0.927218 
0.892784 
0.915740 
0.892784 
0.781831 
0.864274 
0.946717 
0.864274 
0.881307 
0.921110 
0.858535 
0.921110 
0.881307 
0.887046 
0.910001 
0.869829 
0.915556 
0.869829 
0.910001 
0.887046 
0.892784 
0.915740 
0.892784 
0.927218 
0.892784 
0.927218 
0.892784 
0.915740 
0.892784 
0.781831 
0.864274 
0.946717 
0.864274 
0.881307 
0.921110 
0.858535 
0.921110 
0.881307 
0.887046 
0.910001 
0.869829 
0.915556 
0.869829 
0.910001 
0.887046 
0.892784 
0.915740 
0.892784 
0.927218 
0.892784 
0.927218 
0.892784 
0.915740 
0.892784 
0.781831 
0.864274 
0.946717 
0.864274 
0.881307 
0.921110 
0.858535 
0.921110 
0.881307 
0.887046 
0.910001 
0.869829 
0.915556 
0.869829 
0.910001 
0.887046 
0.892784 
0.915740 
0.892784 
0.927218 
0.892784 
0.927218 
0.892784 
0.915740 
0.892784 
0.781831 
0.864274 
0.946717 
0.864274 
0.881307 
0.921110 
0.858535 
0.921110 
0.881307 
0.887046 
0.910001 
0.869829 
0.915556 
0.869829 
0.910001 
0.887046 
0.892784 
0.915740 
0.892784 
0.927218 
0.892784 
0.927218 
0.892784 
0.915740 
0.892784 
0.781831 
0.864274 
0.946717 
0.864274 
0.881307 
0.921110 
0.858535 
0.921110 
0.881307 
0.887046 
0.910001 
0.869829 
0.915556 
0.869829 
0.910001 
0.887046 
0.892784 
0.915740 
0.892784 
0.927218 
0.892784 
0.927218 
0.892784 
0.915740 
0.892784 
SCALARS MASS float 
LOOKUP_TABLE default 
0.781831 
0.864274 
0.946717 
0.864274 
0.881307 
0.921110 
0.858535 
0.921110 
0.881307 
0.887046 
0.910001 
0.869829 
0.915556 
0.869829 
0.910001 
0.887046 
0.892784 
0.915740 
0.892784 
0.927218 
0.892784 
0.927218 
0.892784 
0.915740 
0.892784 
0.781831 
0.864274 
0.946717 
0.864274 
0.881307 
0.921110 
0.858535 
0.921110 
0.881307 
0.887046 
0.910001 
0.869829 
0.915556 
0.869829 
0.910001 
0.887046 
0.892784 
0.915740 
0.892784 
0.927218 
0.892784 
0.927218 
0.892784 
0.915740 
0.892784 
0.781831 
0.864274 
0.946717 
0.864274 
0.881307 
0.921110 
0.858535 
0.921110 
0.881307 
0.887046 
0.910001 
0.869829 
0.915556 
0.869829 
0.910001 
0.887046 
0.892784 
0.915740 
0.892784 
0.927218 
0.892784 
0.927218 
0.892784 
0.915740 
0.892784 
0.781831 
0.864274 
0.946717 
0.864274 
0.881307 
0.921110 
0.858535 
0.921110 
0.881307 
0.887046 
0.910001 
0.869829 
0.915556 
0.869829 
0.910001 
0.887046 
0.892784 
0.915740 
0.892784 
0.927218 
0.892784 
0.927218 
0.892784 
0.915740 
0.892784 
0.781831 
0.864274 
0.946717 
0.864274 
0.881307 
0.921110 
0.858535 
0.921110 
0.881307 
0.887046 
0.910001 
0.869829 
0.915556 
0.869829 
0.910001 
0.887046 
0.892784 
0.915740 
0.892784 
0.927218 
0.892784 
0.927218 
0.892784 
0.915740 
0.892784 
0.781831 
0.864274 
0.946717 
0.864274 
0.881307 
0.921110 
0.858535 
0.921110 
0.881307 
0.887046 
0.910001 
0.869829 
0.915556 
0.869829 
0.910001 
0.887046 
0.892784 
0.915740 
0.892784 
0.927218 
0.892784 
0.927218 
0.892784 
0.915740 
0.892784 
0.781831 
0.864274 
0.946717 
0.864274 
0.881307 
0.921110 
0.858535 
0.921110 
0.881307 
0.887046 
0.910001 
0.869829 
0.915556 
0.869829 
0.910001 
0.887046 
0.892784 
0.915740 
0.892784 
0.927218 
0.892784 
0.927218 
0.892784 
0.915740 
0.892784 
SCALARS DENSITY float 
LOOKUP_TABLE default 
200.000000 
200.000000 
200.000000 
200.000000 
200.000000 
200.000000 
200.000000 
200.000000 
200.000000 
200.000000 
200.000000 
200.000000 
200.000000 
200.000000 
200.000000 
200.000000 
200.000000 
200.000000 
200.000000 
200.000000 
200.000000 
200.000000 
200.000000 
200.000000 
200.000000 
200.000000 
200.000000 
200.000000 
200.000000 
200.000000 
200.000000 
200.000000 
200.000000 
200.000000 
200.000000 
200.000000 
200.000000 
200.000000 
200.000000 
200.000000 
200.000000 
200.000000 
200.000000 
200.000000 
200.000000 
200.000000 
200.000000 
200.000000 
200.000000 
200.000000 
200.000000 
200.000000 
200.000000 
200.000000 
200.000000 
200.000000 
200.000000 
200.000000 
200.000000 
200.000000 
200.000000 
200.000000 
200.000000 
200.000000 
200.000000 
200.000000 
200.000000 
200.000000 
200.000000 
200.000000 
200.000000 
200.000000 
200.000000 
200.000000 
200.000000 
200.000000 
200.000000 
200.000000 
200.000000 
200.000000 
200.000000 
200.000000 
200.000000 
200.000000 
200.000000 
200.000000 
200.000000 
200.000000 
200.000000 
200.000000 
200.000000 
200.000000 
200.000000 
200.000000 
200.000000 
200.000000 
200.000000 
200.000000 
200.000000 
200.000000 
200.000000 
200.000000 
200.000000 
200.000000 
200.000000 
200.000000 
200.000000 
200.000000 
200.000000 
200.000000 
200.000000 
200.000000 
200.000000 
200.000000 
200.000000 
200.000000 
200.000000 
200.000000 
200.000000 
200.000000 
200.000000 
200.000000 
200.000000 
200.000000 
200.000000 
200.000000 
200.000000 
200.000000 
200.000000 
200.000000 
200.000000 
200.000000 
200.000000 
200.000000 
200.000000 
200.000000 
200.000000 
200.000000 
200.000000 
200.000000 
200.000000 
200.000000 
200.000000 
200.000000 
200.000000 
200.000000 
200.000000 
200.000000 
200.000000 
200.000000 
200.000000 
200.000000 
200.000000 
200.000000 
200.000000 
200.000000 
200.000000 
200.000000 
200.000000 
200.000000 
200.000000 
200.000000 
200.000000 
200.000000 
200.000000 
200.000000 
200.000000 
200.000000 
200.000000 
200.000000 
200.000000 
200.000000 
200.000000 
200.000000 
200.000000 
SCALARS ELEM_i float 
LOOKUP_TABLE default 
174 
202 
175 
175 
202 
202 
202 
175 
175 
229 
202 
203 
203 
203 
176 
176 
230 
230 
230 
203 
204 
203 
204 
177 
177 
174 
201 
201 
201 
228 
201 
228 
201 
202 
227 
228 
228 
228 
229 
229 
229 
254 
254 
255 
255 
255 
256 
256 
229 
230 
173 
200 
200 
200 
199 
200 
200 
200 
227 
199 
199 
226 
226 
226 
227 
227 
198 
225 
225 
226 
226 
226 
253 
254 
254 
173 
173 
173 
173 
145 
172 
172 
172 
199 
144 
145 
171 
172 
171 
199 
198 
144 
144 
144 
171 
171 
171 
198 
198 
198 
173 
146 
146 
146 
119 
146 
146 
146 
145 
119 
119 
118 
118 
118 
145 
145 
92 
92 
91 
118 
118 
118 
117 
117 
144 
174 
147 
147 
147 
148 
147 
120 
147 
120 
121 
121 
121 
120 
120 
120 
119 
122 
121 
94 
94 
93 
93 
93 
92 
92 
174 
175 
175 
148 
175 
175 
148 
148 
148 
176 
176 
149 
149 
149 
148 
121 
177 
177 
150 
149 
150 
149 
122 
122 
122 
VECTORS VELOCITY float 
-0.000000 -4.826520 0.000000 
-0.000000 -4.826520 0.000000 
-0.000000 -4.826520 0.000000 
-0.000000 -4.826520 0.000000 
0.000000 -4.826520 0.000000 
0.000000 -4.826520 0.000000 
0.000000 -4.826520 0.000000 
-0.000000 -4.826520 0.000000 
0.000000 -4.826520 0.000000 
0.000000 -4.826520 0.000000 
0.000000 -4.826520 0.000000 
-0.000000 -4.826520 0.000000 
0.000000 -4.826520 0.000000 
0.000000 -4.826520 0.000000 
0.000000 -4.826520 0.000000 
0.000000 -4.826520 0.000000 
-0.000000 -4.826520 0.000000 
-0.000000 -4.826520 0.000000 
-0.000000 -4.826520 0.000000 
-0.000000 -4.826520 0.000000 
-0.000000 -4.826520 0.000000 
0.000000 -4.826520 0.000000 
-0.000000 -4.826520 0.000000 
0.000000 -4.826520 0.000000 
0.000000 -4.826520 0.000000 
0.000000 -4.826520 0.000000 
0.000000 -4.826520 0.000000 
-0.000000 -4.826520 0.000000 
0.000000 -4.826520 0.000000 
0.000000 -4.826520 0.000000 
0.000000 -4.826520 0.000000 
0.000000 -4.826520 0.000000 
0.000000 -4.826520 0.000000 
0.000000 -4.826520 0.000000 
0.000000 -4.826520 0.000000 
0.000000 -4.826520 0.000000 
0.000000 -4.826520 0.000000 
0.000000 -4.826520 0.000000 
0.000000 -4.826520 0.000000 
0.000000 -4.826520 0.000000 
0.000000 -4.826520 0.000000 
0.000000 -4.826520 0.000000 
0.000000 -4.826520 0.000000 
-0.000000 -4.826520 0.000000 
0.000000 -4.826520 0.000000 
-0.000000 -4.826520 0.000000 
-0.000000 -4.826520 0.000000 
-0.000000 -4.826520 0.000000 
0.000000 -4.826520 0.000000 
-0.000000 -4.826520 0.000000 
-0.000000 -4.826520 0.000000 
-0.000000 -4.826520 0.000000 
-0.000000 -4.826520 0.000000 
-0.000000 -4.826520 0.000000 
0.000000 -4.826520 0.000000 
0.000000 -4.826520 0.000000 
0.000000 -4.826520 0.000000 
-0.000000 -4.826520 0.000000 
-0.000000 -4.826520 0.000000 
-0.000000 -4.826520 0.000000 
0.000000 -4.826520 0.000000 
0.000000 -4.826520 0.000000 
0.000000 -4.826520 0.000000 
0.000000 -4.826520 0.000000 
0.000000 -4.826520 0.000000 
0.000000 -4.826520 0.000000 
0.000000 -4.826520 0.000000 
-0.000000 -4.826520 0.000000 
0.000000 -4.826520 0.000000 
0.000000 -4.826520 0.000000 
0.000000 -4.826520 0.000000 
0.000000 -4.826520 0.000000 
0.000000 -4.826520 0.000000 
0.000000 -4.826520 0.000000 
0.000000 -4.826520 0.000000 
0.000000 -4.826520 0.000000 
-0.000000 -4.826520 0.000000 
-0.000000 -4.826520 0.000000 
-0.000000 -4.826520 0.000000 
-0.000000 -4.826520 0.000000 
-0.000000 -4.826520 0.000000 
-0.000000 -4.826520 0.000000 
-0.000000 -4.826520 0.000000 
-0.000000 -4.826520 0.000000 
-0.000000 -4.826520 0.000000 
-0.000000 -4.826520 0.000000 
-0.000000 -4.826520 0.000000 
-0.000000 -4.826520 0.000000 
-0.000000 -4.826520 0.000000 
-0.000000 -4.826520 0.000000 
-0.000000 -4.826520 0.000000 
-0.000000 -4.826520 0.000000 
-0.000000 -4.826520 0.000000 
0.000000 -4.826520 0.000000 
-0.000000 -4.826520 0.000000 
0.000000 -4.826520 0.000000 
-0.000000 -4.826520 0.000000 
-0.000000 -4.826520 0.000000 
-0.000000 -4.826520 0.000000 
-0.000000 -4.826520 0.000000 
0.000000 -4.826520 0.000000 
0.000000 -4.826520 0.000000 
0.000000 -4.826520 0.000000 
-0.000000 -4.826520 0.000000 
0.000000 -4.826520 0.000000 
0.000000 -4.826520 0.000000 
-0.000000 -4.826520 0.000000 
-0.000000 -4.826520 0.000000 
-0.000000 -4.826520 0.000000 
-0.000000 -4.826520 0.000000 
-0.000000 -4.826520 0.000000 
0.000000 -4.826520 0.000000 
0.000000 -4.826520 0.000000 
-0.000000 -4.826520 0.000000 
-0.000000 -4.826520 0.000000 
-0.000000 -4.826520 0.000000 
-0.000000 -4.826520 0.000000 
-0.000000 -4.826520 0.000000 
0.000000 -4.826520 0.000000 
0.000000 -4.826520 0.000000 
-0.000000 -4.826520 0.000000 
-0.000000 -4.826520 0.000000 
-0.000000 -4.826520 0.000000 
-0.000000 -4.826520 0.000000 
-0.000000 -4.826520 0.000000 
0.000000 -4.826520 0.000000 
0.000000 -4.826520 0.000000 
0.000000 -4.826520 0.000000 
0.000000 -4.826520 0.000000 
0.000000 -4.826520 0.000000 
-0.000000 -4.826520 0.000000 
-0.000000 -4.826520 0.000000 
0.000000 -4.826520 0.000000 
-0.000000 -4.826520 0.000000 
-0.000000 -4.826520 0.000000 
-0.000000 -4.826520 0.000000 
-0.000000 -4.826520 0.000000 
0.000000 -4.826520 0.000000 
-0.000000 -4.826520 0.000000 
-0.000000 -4.826520 0.000000 
-0.000000 -4.826520 0.000000 
-0.000000 -4.826520 0.000000 
-0.000000 -4.826520 0.000000 
0.000000 -4.826520 0.000000 
-0.000000 -4.826520 0.000000 
-0.000000 -4.826520 0.000000 
-0.000000 -4.826520 0.000000 
-0.000000 -4.826520 0.000000 
-0.000000 -4.826520 0.000000 
0.000000 -4.826520 0.000000 
0.000000 -4.826520 0.000000 
0.000000 -4.826520 0.000000 
-0.000000 -4.826520 0.000000 
-0.000000 -4.826520 0.000000 
0.000000 -4.826520 0.000000 
-0.000000 -4.826520 0.000000 
0.000000 -4.826520 0.000000 
0.000000 -4.826520 0.000000 
0.000000 -4.826520 0.000000 
0.000000 -4.826520 0.000000 
0.000000 -4.826520 0.000000 
0.000000 -4.826520 0.000000 
0.000000 -4.826520 0.000000 
0.000000 -4.826520 0.000000 
0.000000 -4.826520 0.000000 
0.000000 -4.826520 0.000000 
0.000000 -4.826520 0.000000 
0.000000 -4.826520 0.000000 
0.000000 -4.826520 0.000000 
0.000000 -4.826520 0.000000 
0.000000 -4.826520 0.000000 
0.000000 -4.826520 0.000000 
0.000000 -4.826520 0.000000 
0.000000 -4.826520 0.000000 
0.000000 -4.826520 0.000000 
TENSORS STRESS float 
-0.000000 -0.000000 0.000000 
0.000000 -0.000000 0.000000 
0.000000 0.000000 0.000000 

0.000000 0.000000 0.000000 
0.000000 0.000000 0.000000 
0.000000 0.000000 0.000000 

-0.000000 0.000000 0.000000 
0.000000 -0.000000 0.000000 
0.000000 0.000000 0.000000 

0.000000 0.000000 0.000000 
0.000000 0.000000 0.000000 
0.000000 0.000000 0.000000 

-0.000000 0.000000 0.000000 
0.000000 -0.000000 0.000000 
0.000000 0.000000 0.000000 

0.000000 0.000000 0.000000 
0.000000 0.000000 0.000000 
0.000000 0.000000 0.000000 

0.000000 -0.000000 0.000000 
0.000000 0.000000 0.000000 
0.000000 0.000000 0.000000 

-0.000000 -0.000000 0.000000 
0.000000 -0.000000 0.000000 
0.000000 0.000000 0.000000 

-0.000000 -0.000000 0.000000 
0.000000 -0.000000 0.000000 
0.000000 0.000000 0.000000 

0.000000 0.000000 0.000000 
0.000000 0.000000 0.000000 
0.000000 0.000000 0.000000 

-0.000000 -0.000000 0.000000 
0.000000 0.000000 0.000000 
0.000000 0.000000 0.000000 

0.000000 -0.000000 0.000000 
0.000000 0.000000 0.000000 
0.000000 0.000000 0.000000 

0.000000 -0.000000 0.000000 
0.000000 0.000000 0.000000 
0.000000 0.000000 0.000000 

0.000000 0.000000 0.000000 
0.000000 0.000000 0.000000 
0.000000 0.000000 0.000000 

0.000000 0.000000 0.000000 
0.000000 0.000000 0.000000 
0.000000 0.000000 0.000000 

0.000000 0.000000 0.000000 
0.000000 0.000000 0.000000 
0.000000 0.000000 0.000000 

0.000000 0.000000 0.000000 
0.000000 0.000000 0.000000 
0.000000 0.000000 0.000000 

0.000000 0.000000 0.000000 
0.000000 -0.000000 0.000000 
0.000000 0.000000 0.000000 

-0.000000 -0.000000 0.000000 
0.000000 -0.000000 0.000000 
0.000000 0.000000 0.000000 

-0.000000 -0.000000 0.000000 
0.000000 -0.000000 0.000000 
0.000000 0.000000 0.000000 

0.000000 -0.000000 0.000000 
0.000000 0.000000 0.000000 
0.000000 0.000000 0.000000 

-0.000000 -0.000000 0.000000 
0.000000 -0.000000 0.000000 
0.000000 0.000000 0.000000 

-0.000000 0.000000 0.000000 
0.000000 -0.000000 0.000000 
0.000000 0.000000 0.000000 

0.000000 0.000000 0.000000 
0.000000 0.000000 0.000000 
0.000000 0.000000 0.000000 

0.000000 0.000000 0.000000 
0.000000 0.000000 0.000000 
0.000000 0.000000 0.000000 

-0.000000 -0.000000 0.000000 
0.000000 -0.000000 0.000000 
0.000000 0.000000 0.000000 

-0.000000 0.000000 0.000000 
0.000000 -0.000000 0.000000 
0.000000 0.000000 0.000000 

0.000000 0.000000 0.000000 
0.000000 0.000000 0.000000 
0.000000 0.000000 0.000000 

-0.000000 0.000000 0.000000 
0.000000 -0.000000 0.000000 
0.000000 0.000000 0.000000 

-0.000000 0.000000 0.000000 
0.000000 -0.000000 0.000000 
0.000000 0.000000 0.000000 

0.000000 0.000000 0.000000 
0.000000 0.000000 0.000000 
0.000000 0.000000 0.000000 

0.000000 0.000000 0.000000 
0.000000 0.000000 0.000000 
0.000000 0.000000 0.000000 

-0.000000 0.000000 0.000000 
0.000000 -0.000000 0.000000 
0.000000 0.000000 0.000000 

-0.000000 0.000000 0.000000 
0.000000 -0.000000 0.000000 
0.000000 0.000000 0.000000 

-0.000000 -0.000000 0.000000 
0.000000 -0.000000 0.000000 
0.000000 0.000000 0.000000 

-0.000000 -0.000000 0.000000 
0.000000 -0.000000 0.000000 
0.000000 0.000000 0.000000 

-0.000000 0.000000 0.000000 
0.000000 -0.000000 0.000000 
0.000000 0.000000 0.000000 

-0.000000 0.000000 0.000000 
0.000000 -0.000000 0.000000 
0.000000 0.000000 0.000000 

0.000000 0.000000 0.000000 
0.000000 0.000000 0.000000 
0.000000 0.000000 0.000000 

0.000000 0.000000 0.000000 
0.000000 0.000000 0.000000 
0.000000 0.000000 0.000000 

0.000000 0.000000 0.000000 
0.000000 0.000000 0.000000 
0.000000 0.000000 0.000000 

0.000000 0.000000 0.000000 
0.000000 0.000000 0.000000 
0.000000 0.000000 0.000000 

-0.000000 0.000000 0.000000 
0.000000 -0.000000 0.000000 
0.000000 0.000000 0.000000 

-0.000000 0.000000 0.000000 
0.000000 -0.000000 0.000000 
0.000000 0.000000 0.000000 

0.000000 0.000000 0.000000 
0.000000 0.000000 0.000000 
0.000000 0.000000 0.000000 

0.000000 0.000000 0.000000 
0.000000 0.000000 0.000000 
0.000000 0.000000 0.000000 

0.000000 0.000000 0.000000 
0.000000 0.000000 0.000000 
0.000000 0.000000 0.000000 

0.000000 -0.000000 0.000000 
0.000000 0.000000 0.000000 
0.000000 0.000000 0.000000 

0.000000 0.000000 0.000000 
0.000000 0.000000 0.000000 
0.000000 0.000000 0.000000 

-0.000000 -0.000000 0.000000 
0.000000 -0.000000 0.000000 
0.000000 0.000000 0.000000 

-0.000000 -0.000000 0.000000 
0.000000 -0.000000 0.000000 
0.000000 0.000000 0.000000 

0.000000 0.000000 0.000000 
0.000000 0.000000 0.000000 
0.000000 0.000000 0.000000 

0.000000 0.000000 0.000000 
0.000000 0.000000 0.000000 
0.000000 0.000000 0.000000 

0.000000 0.000000 0.000000 
0.000000 -0.000000 0.000000 
0.000000 0.000000 0.000000 

-0.000000 0.000000 0.000000 
0.000000 -0.000000 0.000000 
0.000000 0.000000 0.000000 

0.000000 0.000000 0.000000 
0.000000 0.000000 0.000000 
0.000000 0.000000 0.000000 

0.000000 0.000000 0.000000 
0.000000 0.000000 0.000000 
0.000000 0.000000 0.000000 

0.000000 0.000000 0.000000 
0.000000 0.000000 0.000000 
0.000000 0.000000 0.000000 

-0.000000 -0.000000 0.000000 
0.000000 -0.000000 0.000000 
0.000000 0.000000 0.000000 

0.000000 -0.000000 0.000000 
0.000000 0.000000 0.000000 
0.000000 0.000000 0.000000 

-0.000000 0.000000 0.000000 
0.000000 -0.000000 0.000000 
0.000000 0.000000 0.000000 

-0.000000 0.000000 0.000000 
0.000000 -0.000000 0.000000 
0.000000 0.000000 0.000000 

-0.000000 -0.000000 0.000000 
0.000000 -0.000000 0.000000 
0.000000 0.000000 0.000000 

0.000000 -0.000000 0.000000 
0.000000 0.000000 0.000000 
0.000000 0.000000 0.000000 

0.000000 -0.000000 0.000000 
0.000000 0.000000 0.000000 
0.000000 0.000000 0.000000 

-0.000000 -0.000000 0.000000 
0.000000 -0.000000 0.000000 
0.000000 0.000000 0.000000 

0.000000 -0.000000 0.000000 
0.000000 0.000000 0.000000 
0.000000 0.000000 0.000000 

0.000000 -0.000000 0.000000 
0.000000 0.000000 0.000000 
0.000000 0.000000 0.000000 

0.000000 -0.000000 0.000000 
0.000000 0.000000 0.000000 
0.000000 0.000000 0.000000 

-0.000000 0.000000 0.000000 
0.000000 -0.000000 0.000000 
0.000000 0.000000 0.000000 

-0.000000 0.000000 0.000000 
0.000000 -0.000000 0.000000 
0.000000 0.000000 0.000000 

0.000000 0.000000 0.000000 
0.000000 0.000000 0.000000 
0.000000 0.000000 0.000000 

-0.000000 0.000000 0.000000 
0.000000 -0.000000 0.000000 
0.000000 0.000000 0.000000 

-0.000000 0.000000 0.000000 
0.000000 -0.000000 0.000000 
0.000000 0.000000 0.000000 

0.000000 0.000000 0.000000 
0.000000 0.000000 0.000000 
0.000000 0.000000 0.000000 

-0.000000 -0.000000 0.000000 
0.000000 -0.000000 0.000000 
0.000000 0.000000 0.000000 

0.000000 0.000000 0.000000 
0.000000 0.000000 0.000000 
0.000000 0.000000 0.000000 

-0.000000 -0.000000 0.000000 
0.000000 -0.000000 0.000000 
0.000000 0.000000 0.000000 

0.000000 -0.000000 0.000000 
0.000000 0.000000 0.000000 
0.000000 0.000000 0.000000 

-0.000000 0.000000 0.000000 
0.000000 -0.000000 0.000000 
0.000000 0.000000 0.000000 

-0.000000 -0.000000 0.000000 
0.000000 -0.000000 0.000000 
0.000000 0.000000 0.000000 

-0.000000 -0.000000 0.000000 
0.000000 -0.000000 0.000000 
0.000000 0.000000 0.000000 

0.000000 0.000000 0.000000 
0.000000 0.000000 0.000000 
0.000000 0.000000 0.000000 

0.000000 0.000000 0.000000 
0.000000 0.000000 0.000000 
0.000000 0.000000 0.000000 

-0.000000 -0.000000 0.000000 
0.000000 -0.000000 0.000000 
0.000000 0.000000 0.000000 

-0.000000 -0.000000 0.000000 
0.000000 -0.000000 0.000000 
0.000000 0.000000 0.000000 

-0.000000 0.000000 0.000000 
0.000000 -0.000000 0.000000 
0.000000 0.000000 0.000000 

-0.000000 -0.000000 0.000000 
0.000000 -0.000000 0.000000 
0.000000 0.000000 0.000000 

-0.000000 -0.000000 0.000000 
0.000000 -0.000000 0.000000 
0.000000 0.000000 0.000000 

0.000000 -0.000000 0.000000 
0.000000 0.000000 0.000000 
0.000000 0.000000 0.000000 

-0.000000 -0.000000 0.000000 
0.000000 -0.000000 0.000000 
0.000000 0.000000 0.000000 

0.000000 -0.000000 0.000000 
0.000000 0.000000 0.000000 
0.000000 0.000000 0.000000 

0.000000 -0.000000 0.000000 
0.000000 0.000000 0.000000 
0.000000 0.000000 0.000000 

-0.000000 -0.000000 0.000000 
0.000000 -0.000000 0.000000 
0.000000 0.000000 0.000000 

0.000000 0.000000 0.000000 
0.000000 0.000000 0.000000 
0.000000 0.000000 0.000000 

0.000000 0.000000 0.000000 
0.000000 0.000000 0.000000 
0.000000 0.000000 0.000000 

0.000000 0.000000 0.000000 
0.000000 0.000000 0.000000 
0.000000 0.000000 0.000000 

-0.000000 0.000000 0.000000 
0.000000 -0.000000 0.000000 
0.000000 0.000000 0.000000 

-0.000000 0.000000 0.000000 
0.000000 -0.000000 0.000000 
0.000000 0.000000 0.000000 

0.000000 -0.000000 0.000000 
0.000000 0.000000 0.000000 
0.000000 0.000000 0.000000 

-0.000000 -0.000000 0.000000 
0.000000 -0.000000 0.000000 
0.000000 0.000000 0.000000 

-0.000000 0.000000 0.000000 
0.000000 -0.000000 0.000000 
0.000000 0.000000 0.000000 

-0.000000 0.000000 0.000000 
0.000000 -0.000000 0.000000 
0.000000 0.000000 0.000000 

-0.000000 0.000000 0.000000 
0.000000 -0.000000 0.000000 
0.000000 0.000000 0.000000 

-0.000000 0.000000 0.000000 
0.000000 -0.000000 0.000000 
0.000000 0.000000 0.000000 

-0.000000 -0.000000 0.000000 
0.000000 -0.000000 0.000000 
0.000000 0.000000 0.000000 

-0.000000 -0.000000 0.000000 
0.000000 -0.000000 0.000000 
0.000000 0.000000 0.000000 

0.000000 -0.000000 0.000000 
0.000000 0.000000 0.000000 
0.000000 0.000000 0.000000 

-0.000000 -0.000000 0.000000 
0.000000 -0.000000 0.000000 
0.000000 0.000000 0.000000 

0.000000 0.000000 0.000000 
0.000000 0.000000 0.000000 
0.000000 0.000000 0.000000 

-0.000000 0.000000 0.000000 
0.000000 -0.000000 0.000000 
0.000000 0.000000 0.000000 

0.000000 -0.000000 0.000000 
0.000000 0.000000 0.000000 
0.000000 0.000000 0.000000 

-0.000000 0.000000 0.000000 
0.000000 -0.000000 0.000000 
0.000000 0.000000 0.000000 

-0.000000 0.000000 0.000000 
0.000000 -0.000000 0.000000 
0.000000 0.000000 0.000000 

0.000000 -0.000000 0.000000 
0.000000 0.000000 0.000000 
0.000000 0.000000 0.000000 

-0.000000 0.000000 0.000000 
0.000000 -0.000000 0.000000 
0.000000 0.000000 0.000000 

-0.000000 0.000000 0.000000 
0.000000 0.000000 0.000000 
0.000000 0.000000 0.000000 

0.000000 -0.000000 0.000000 
0.000000 0.000000 0.000000 
0.000000 0.000000 0.000000 

-0.000000 -0.000000 0.000000 
0.000000 -0.000000 0.000000 
0.000000 0.000000 0.000000 

-0.000000 0.000000 0.000000 
0.000000 -0.000000 0.000000 
0.000000 0.000000 0.000000 

0.000000 0.000000 0.000000 
0.000000 0.000000 0.000000 
0.000000 0.000000 0.000000 

0.000000 0.000000 0.000000 
0.000000 0.000000 0.000000 
0.000000 0.000000 0.000000 

-0.000000 0.000000 0.000000 
0.000000 -0.000000 0.000000 
0.000000 0.000000 0.000000 

0.000000 -0.000000 0.000000 
0.000000 0.000000 0.000000 
0.000000 0.000000 0.000000 

-0.000000 -0.000000 0.000000 
0.000000 -0.000000 0.000000 
0.000000 0.000000 0.000000 

0.000000 -0.000000 0.000000 
0.000000 0.000000 0.000000 
0.000000 0.000000 0.000000 

0.000000 -0.000000 0.000000 
0.000000 0.000000 0.000000 
0.000000 0.000000 0.000000 

-0.000000 0.000000 0.000000 
0.000000 -0.000000 0.000000 
0.000000 0.000000 0.000000 

0.000000 0.000000 0.000000 
0.000000 0.000000 0.000000 
0.000000 0.000000 0.000000 

0.000000 0.000000 0.000000 
0.000000 0.000000 0.000000 
0.000000 0.000000 0.000000 

-0.000000 -0.000000 0.000000 
0.000000 0.000000 0.000000 
0.000000 0.000000 0.000000 

-0.000000 -0.000000 0.000000 
0.000000 -0.000000 0.000000 
0.000000 0.000000 0.000000 

0.000000 0.000000 0.000000 
0.000000 0.000000 0.000000 
0.000000 0.000000 0.000000 

-0.000000 0.000000 0.000000 
0.000000 -0.000000 0.000000 
0.000000 0.000000 0.000000 

-0.000000 -0.000000 0.000000 
0.000000 -0.000000 0.000000 
0.000000 0.000000 0.000000 

0.000000 -0.000000 0.000000 
0.000000 0.000000 0.000000 
0.000000 0.000000 0.000000 

-0.000000 -0.000000 0.000000 
0.000000 -0.000000 0.000000 
0.000000 0.000000 0.000000 

-0.000000 0.000000 0.000000 
0.000000 -0.000000 0.000000 
0.000000 0.000000 0.000000 

-0.000000 0.000000 0.000000 
0.000000 -0.000000 0.000000 
0.000000 0.000000 0.000000 

0.000000 0.000000 0.000000 
0.000000 0.000000 0.000000 
0.000000 0.000000 0.000000 

-0.000000 0.000000 0.000000 
0.000000 -0.000000 0.000000 
0.000000 0.000000 0.000000 

-0.000000 0.000000 0.000000 
0.000000 -0.000000 0.000000 
0.000000 0.000000 0.000000 

0.000000 -0.000000 0.000000 
0.000000 0.000000 0.000000 
0.000000 0.000000 0.000000 

0.000000 0.000000 0.000000 
0.000000 0.000000 0.000000 
0.000000 0.000000 0.000000 

-0.000000 -0.000000 0.000000 
0.000000 -0.000000 0.000000 
0.000000 0.000000 0.000000 

-0.000000 -0.000000 0.000000 
0.000000 -0.000000 0.000000 
0.000000 0.000000 0.000000 

0.000000 0.000000 0.000000 
0.000000 0.000000 0.000000 
0.000000 0.000000 0.000000 

-0.000000 -0.000000 0.000000 
0.000000 -0.000000 0.000000 
0.000000 0.000000 0.000000 

0.000000 0.000000 0.000000 
0.000000 0.000000 0.000000 
0.000000 0.000000 0.000000 

0.000000 -0.000000 0.000000 
0.000000 0.000000 0.000000 
0.000000 0.000000 0.000000 

0.000000 -0.000000 0.000000 
0.000000 0.000000 0.000000 
0.000000 0.000000 0.000000 

-0.000000 0.000000 0.000000 
0.000000 -0.000000 0.000000 
0.000000 0.000000 0.000000 

0.000000 0.000000 0.000000 
0.000000 0.000000 0.000000 
0.000000 0.000000 0.000000 

-0.000000 0.000000 0.000000 
0.000000 -0.000000 0.000000 
0.000000 0.000000 0.000000 

0.000000 0.000000 0.000000 
0.000000 0.000000 0.000000 
0.000000 0.000000 0.000000 

0.000000 -0.000000 0.000000 
0.000000 0.000000 0.000000 
0.000000 0.000000 0.000000 

-0.000000 0.000000 0.000000 
0.000000 -0.000000 0.000000 
0.000000 0.000000 0.000000 

-0.000000 0.000000 0.000000 
0.000000 -0.000000 0.000000 
0.000000 0.000000 0.000000 

-0.000000 0.000000 0.000000 
0.000000 -0.000000 0.000000 
0.000000 0.000000 0.000000 

0.000000 0.000000 0.000000 
0.000000 -0.000000 0.000000 
0.000000 0.000000 0.000000 

0.000000 -0.000000 0.000000 
0.000000 -0.000000 0.000000 
0.000000 0.000000 0.000000 

-0.000000 0.000000 0.000000 
0.000000 -0.000000 0.000000 
0.000000 0.000000 0.000000 

-0.000000 0.000000 0.000000 
0.000000 -0.000000 0.000000 
0.000000 0.000000 0.000000 

-0.000000 0.000000 0.000000 
0.000000 -0.000000 0.000000 
0.000000 0.000000 0.000000 

-0.000000 0.000000 0.000000 
0.000000 -0.000000 0.000000 
0.000000 0.000000 0.000000 

0.000000 -0.000000 0.000000 
0.000000 0.000000 0.000000 
0.000000 0.000000 0.000000 

-0.000000 0.000000 0.000000 
0.000000 -0.000000 0.000000 
0.000000 0.000000 0.000000 

-0.000000 0.000000 0.000000 
0.000000 -0.000000 0.000000 
0.000000 0.000000 0.000000 

-0.000000 -0.000000 0.000000 
0.000000 -0.000000 0.000000 
0.000000 0.000000 0.000000 

-0.000000 0.000000 0.000000 
0.000000 -0.000000 0.000000 
0.000000 0.000000 0.000000 

0.000000 -0.000000 0.000000 
0.000000 -0.000000 0.000000 
0.000000 0.000000 0.000000 

0.000000 0.000000 0.000000 
0.000000 0.000000 0.000000 
0.000000 0.000000 0.000000 

-0.000000 -0.000000 0.000000 
0.000000 -0.000000 0.000000 
0.000000 0.000000 0.000000 

-0.000000 -0.000000 0.000000 
0.000000 -0.000000 0.000000 
0.000000 0.000000 0.000000 

-0.000000 -0.000000 0.000000 
0.000000 -0.000000 0.000000 
0.000000 0.000000 0.000000 

TENSORS STRAIN float 
0.000000 -0.000000 0.000000 
0.000000 -0.000000 0.000000 
0.000000 0.000000 0.000000 

0.000000 0.000000 0.000000 
0.000000 0.000000 0.000000 
0.000000 0.000000 0.000000 

0.000000 0.000000 0.000000 
0.000000 -0.000000 0.000000 
0.000000 0.000000 0.000000 

0.000000 0.000000 0.000000 
0.000000 0.000000 0.000000 
0.000000 0.000000 0.000000 

0.000000 0.000000 0.000000 
0.000000 -0.000000 0.000000 
0.000000 0.000000 0.000000 

0.000000 0.000000 0.000000 
0.000000 0.000000 0.000000 
0.000000 0.000000 0.000000 

-0.000000 -0.000000 0.000000 
0.000000 0.000000 0.000000 
0.000000 0.000000 0.000000 

0.000000 -0.000000 0.000000 
0.000000 -0.000000 0.000000 
0.000000 0.000000 0.000000 

0.000000 -0.000000 0.000000 
0.000000 -0.000000 0.000000 
0.000000 0.000000 0.000000 

-0.000000 0.000000 0.000000 
0.000000 0.000000 0.000000 
0.000000 0.000000 0.000000 

-0.000000 -0.000000 0.000000 
0.000000 0.000000 0.000000 
0.000000 0.000000 0.000000 

-0.000000 -0.000000 0.000000 
0.000000 0.000000 0.000000 
0.000000 0.000000 0.000000 

-0.000000 -0.000000 0.000000 
0.000000 0.000000 0.000000 
0.000000 0.000000 0.000000 

-0.000000 0.000000 0.000000 
0.000000 0.000000 0.000000 
0.000000 0.000000 0.000000 

0.000000 0.000000 0.000000 
0.000000 0.000000 0.000000 
0.000000 0.000000 0.000000 

0.000000 0.000000 0.000000 
0.000000 0.000000 0.000000 
0.000000 0.000000 0.000000 

0.000000 0.000000 0.000000 
0.000000 -0.000000 0.000000 
0.000000 0.000000 0.000000 

0.000000 0.000000 0.000000 
0.000000 -0.000000 0.000000 
0.000000 0.000000 0.000000 

0.000000 -0.000000 0.000000 
0.000000 -0.000000 0.000000 
0.000000 0.000000 0.000000 

-0.000000 -0.000000 0.000000 
0.000000 -0.000000 0.000000 
0.000000 0.000000 0.000000 

0.000000 -0.000000 0.000000 
0.000000 0.000000 0.000000 
0.000000 0.000000 0.000000 

0.000000 -0.000000 0.000000 
0.000000 -0.000000 0.000000 
0.000000 0.000000 0.000000 

0.000000 0.000000 0.000000 
0.000000 -0.000000 0.000000 
0.000000 0.000000 0.000000 

-0.000000 0.000000 0.000000 
0.000000 0.000000 0.000000 
0.000000 0.000000 0.000000 

-0.000000 0.000000 0.000000 
0.000000 0.000000 0.000000 
0.000000 0.000000 0.000000 

0.000000 -0.000000 0.000000 
0.000000 -0.000000 0.000000 
0.000000 0.000000 0.000000 

0.000000 0.000000 0.000000 
0.000000 -0.000000 0.000000 
0.000000 0.000000 0.000000 

0.000000 0.000000 0.000000 
0.000000 0.000000 0.000000 
0.000000 0.000000 0.000000 

-0.000000 0.000000 0.000000 
0.000000 -0.000000 0.000000 
0.000000 0.000000 0.000000 

-0.000000 0.000000 0.000000 
0.000000 -0.000000 0.000000 
0.000000 0.000000 0.000000 

0.000000 0.000000 0.000000 
0.000000 -0.000000 0.000000 
0.000000 0.000000 0.000000 

0.000000 0.000000 0.000000 
0.000000 0.000000 0.000000 
0.000000 0.000000 0.000000 

-0.000000 0.000000 0.000000 
0.000000 0.000000 0.000000 
0.000000 0.000000 0.000000 

0.000000 0.000000 0.000000 
0.000000 -0.000000 0.000000 
0.000000 0.000000 0.000000 

-0.000000 -0.000000 0.000000 
0.000000 -0.000000 0.000000 
0.000000 0.000000 0.000000 

0.000000 -0.000000 0.000000 
0.000000 -0.000000 0.000000 
0.000000 0.000000 0.000000 

0.000000 0.000000 0.000000 
0.000000 -0.000000 0.000000 
0.000000 0.000000 0.000000 

0.000000 0.000000 0.000000 
0.000000 -0.000000 0.000000 
0.000000 0.000000 0.000000 

0.000000 0.000000 0.000000 
0.000000 -0.000000 0.000000 
0.000000 0.000000 0.000000 

-0.000000 0.000000 0.000000 
0.000000 0.000000 0.000000 
0.000000 0.000000 0.000000 

-0.000000 0.000000 0.000000 
0.000000 0.000000 0.000000 
0.000000 0.000000 0.000000 

-0.000000 0.000000 0.000000 
0.000000 0.000000 0.000000 
0.000000 0.000000 0.000000 

-0.000000 0.000000 0.000000 
0.000000 -0.000000 0.000000 
0.000000 0.000000 0.000000 

0.000000 0.000000 0.000000 
0.000000 -0.000000 0.000000 
0.000000 0.000000 0.000000 

0.000000 0.000000 0.000000 
0.000000 -0.000000 0.000000 
0.000000 0.000000 0.000000 

0.000000 0.000000 0.000000 
0.000000 0.000000 0.000000 
0.000000 0.000000 0.000000 

-0.000000 0.000000 0.000000 
0.000000 0.000000 0.000000 
0.000000 0.000000 0.000000 

-0.000000 -0.000000 0.000000 
0.000000 0.000000 0.000000 
0.000000 0.000000 0.000000 

0.000000 0.000000 0.000000 
0.000000 0.000000 0.000000 
0.000000 0.000000 0.000000 

0.000000 -0.000000 0.000000 
0.000000 -0.000000 0.000000 
0.000000 0.000000 0.000000 

0.000000 -0.000000 0.000000 
0.000000 -0.000000 0.000000 
0.000000 0.000000 0.000000 

0.000000 0.000000 0.000000 
0.000000 -0.000000 0.000000 
0.000000 0.000000 0.000000 

0.000000 0.000000 0.000000 
0.000000 -0.000000 0.000000 
0.000000 0.000000 0.000000 

0.000000 0.000000 0.000000 
0.000000 -0.000000 0.000000 
0.000000 0.000000 0.000000 

-0.000000 0.000000 0.000000 
0.000000 -0.000000 0.000000 
0.000000 0.000000 0.000000 

0.000000 0.000000 0.000000 
0.000000 0.000000 0.000000 
0.000000 0.000000 0.000000 

0.000000 0.000000 0.000000 
0.000000 0.000000 0.000000 
0.000000 0.000000 0.000000 

0.000000 0.000000 0.000000 
0.000000 0.000000 0.000000 
0.000000 0.000000 0.000000 

-0.000000 -0.000000 0.000000 
0.000000 0.000000 0.000000 
0.000000 0.000000 0.000000 

0.000000 -0.000000 0.000000 
0.000000 0.000000 0.000000 
0.000000 0.000000 0.000000 

-0.000000 0.000000 0.000000 
0.000000 -0.000000 0.000000 
0.000000 0.000000 0.000000 

-0.000000 0.000000 0.000000 
0.000000 -0.000000 0.000000 
0.000000 0.000000 0.000000 

-0.000000 -0.000000 0.000000 
0.000000 -0.000000 0.000000 
0.000000 0.000000 0.000000 

-0.000000 -0.000000 0.000000 
0.000000 0.000000 0.000000 
0.000000 0.000000 0.000000 

-0.000000 -0.000000 0.000000 
0.000000 0.000000 0.000000 
0.000000 0.000000 0.000000 

-0.000000 -0.000000 0.000000 
0.000000 -0.000000 0.000000 
0.000000 0.000000 0.000000 

0.000000 -0.000000 0.000000 
0.000000 0.000000 0.000000 
0.000000 0.000000 0.000000 

-0.000000 -0.000000 0.000000 
0.000000 0.000000 0.000000 
0.000000 0.000000 0.000000 

-0.000000 -0.000000 0.000000 
0.000000 0.000000 0.000000 
0.000000 0.000000 0.000000 

-0.000000 0.000000 0.000000 
0.000000 0.000000 0.000000 
0.000000 0.000000 0.000000 

-0.000000 0.000000 0.000000 
0.000000 0.000000 0.000000 
0.000000 0.000000 0.000000 

-0.000000 0.000000 0.000000 
0.000000 0.000000 0.000000 
0.000000 0.000000 0.000000 

-0.000000 0.000000 0.000000 
0.000000 0.000000 0.000000 
0.000000 0.000000 0.000000 

-0.000000 0.000000 0.000000 
0.000000 0.000000 0.000000 
0.000000 0.000000 0.000000 

-0.000000 0.000000 0.000000 
0.000000 0.000000 0.000000 
0.000000 0.000000 0.000000 

0.000000 -0.000000 0.000000 
0.000000 -0.000000 0.000000 
0.000000 0.000000 0.000000 

0.000000 0.000000 0.000000 
0.000000 -0.000000 0.000000 
0.000000 0.000000 0.000000 

0.000000 -0.000000 0.000000 
0.000000 -0.000000 0.000000 
0.000000 0.000000 0.000000 

0.000000 -0.000000 0.000000 
0.000000 -0.000000 0.000000 
0.000000 0.000000 0.000000 

0.000000 0.000000 0.000000 
0.000000 -0.000000 0.000000 
0.000000 0.000000 0.000000 

0.000000 -0.000000 0.000000 
0.000000 -0.000000 0.000000 
0.000000 0.000000 0.000000 

0.000000 -0.000000 0.000000 
0.000000 -0.000000 0.000000 
0.000000 0.000000 0.000000 

0.000000 0.000000 0.000000 
0.000000 -0.000000 0.000000 
0.000000 0.000000 0.000000 

-0.000000 0.000000 0.000000 
0.000000 0.000000 0.000000 
0.000000 0.000000 0.000000 

0.000000 -0.000000 0.000000 
0.000000 -0.000000 0.000000 
0.000000 0.000000 0.000000 

0.000000 -0.000000 0.000000 
0.000000 -0.000000 0.000000 
0.000000 0.000000 0.000000 

-0.000000 0.000000 0.000000 
0.000000 -0.000000 0.000000 
0.000000 0.000000 0.000000 

0.000000 -0.000000 0.000000 
0.000000 -0.000000 0.000000 
0.000000 0.000000 0.000000 

-0.000000 -0.000000 0.000000 
0.000000 -0.000000 0.000000 
0.000000 0.000000 0.000000 

0.000000 -0.000000 0.000000 
0.000000 -0.000000 0.000000 
0.000000 0.000000 0.000000 

0.000000 -0.000000 0.000000 
0.000000 -0.000000 0.000000 
0.000000 0.000000 0.000000 

0.000000 -0.000000 0.000000 
0.000000 -0.000000 0.000000 
0.000000 0.000000 0.000000 

0.000000 -0.000000 0.000000 
0.000000 -0.000000 0.000000 
0.000000 0.000000 0.000000 

0.000000 -0.000000 0.000000 
0.000000 -0.000000 0.000000 
0.000000 0.000000 0.000000 

-0.000000 0.000000 0.000000 
0.000000 0.000000 0.000000 
0.000000 0.000000 0.000000 

-0.000000 0.000000 0.000000 
0.000000 0.000000 0.000000 
0.000000 0.000000 0.000000 

-0.000000 0.000000 0.000000 
0.000000 0.000000 0.000000 
0.000000 0.000000 0.000000 

-0.000000 0.000000 0.000000 
0.000000 0.000000 0.000000 
0.000000 0.000000 0.000000 

-0.000000 0.000000 0.000000 
0.000000 -0.000000 0.000000 
0.000000 0.000000 0.000000 

-0.000000 -0.000000 0.000000 
0.000000 0.000000 0.000000 
0.000000 0.000000 0.000000 

0.000000 -0.000000 0.000000 
0.000000 -0.000000 0.000000 
0.000000 0.000000 0.000000 

-0.000000 0.000000 0.000000 
0.000000 -0.000000 0.000000 
0.000000 0.000000 0.000000 

-0.000000 0.000000 0.000000 
0.000000 -0.000000 0.000000 
0.000000 0.000000 0.000000 

0.000000 0.000000 0.000000 
0.000000 -0.000000 0.000000 
0.000000 0.000000 0.000000 

-0.000000 0.000000 0.000000 
0.000000 -0.000000 0.000000 
0.000000 0.000000 0.000000 

0.000000 -0.000000 0.000000 
0.000000 -0.000000 0.000000 
0.000000 0.000000 0.000000 

0.000000 -0.000000 0.000000 
0.000000 -0.000000 0.000000 
0.000000 0.000000 0.000000 

0.000000 -0.000000 0.000000 
0.000000 -0.000000 0.000000 
0.000000 0.000000 0.000000 

0.000000 -0.000000 0.000000 
0.000000 -0.000000 0.000000 
0.000000 0.000000 0.000000 

0.000000 0.000000 0.000000 
0.000000 -0.000000 0.000000 
0.000000 0.000000 0.000000 

0.000000 0.000000 0.000000 
0.000000 -0.000000 0.000000 
0.000000 0.000000 0.000000 

-0.000000 -0.000000 0.000000 
0.000000 0.000000 0.000000 
0.000000 0.000000 0.000000 

-0.000000 0.000000 0.000000 
0.000000 -0.000000 0.000000 
0.000000 0.000000 0.000000 

-0.000000 0.000000 0.000000 
0.000000 -0.000000 0.000000 
0.000000 0.000000 0.000000 

0.000000 -0.000000 0.000000 
0.000000 -0.000000 0.000000 
0.000000 0.000000 0.000000 

0.000000 0.000000 0.000000 
0.000000 -0.000000 0.000000 
0.000000 0.000000 0.000000 

-0.000000 0.000000 0.000000 
0.000000 0.000000 0.000000 
0.000000 0.000000 0.000000 

-0.000000 -0.000000 0.000000 
0.000000 0.000000 0.000000 
0.000000 0.000000 0.000000 

-0.000000 -0.000000 0.000000 
0.000000 0.000000 0.000000 
0.000000 0.000000 0.000000 

0.000000 0.000000 0.000000 
0.000000 -0.000000 0.000000 
0.000000 0.000000 0.000000 

-0.000000 0.000000 0.000000 
0.000000 0.000000 0.000000 
0.000000 0.000000 0.000000 

-0.000000 0.000000 0.000000 
0.000000 0.000000 0.000000 
0.000000 0.000000 0.000000 

0.000000 0.000000 0.000000 
0.000000 -0.000000 0.000000 
0.000000 0.000000 0.000000 

0.000000 -0.000000 0.000000 
0.000000 0.000000 0.000000 
0.000000 0.000000 0.000000 

0.000000 -0.000000 0.000000 
0.000000 -0.000000 0.000000 
0.000000 0.000000 0.000000 

0.000000 -0.000000 0.000000 
0.000000 -0.000000 0.000000 
0.000000 0.000000 0.000000 

-0.000000 -0.000000 0.000000 
0.000000 0.000000 0.000000 
0.000000 0.000000 0.000000 

-0.000000 0.000000 0.000000 
0.000000 -0.000000 0.000000 
0.000000 0.000000 0.000000 

-0.000000 0.000000 0.000000 
0.000000 0.000000 0.000000 
0.000000 0.000000 0.000000 

-0.000000 0.000000 0.000000 
0.000000 0.000000 0.000000 
0.000000 0.000000 0.000000 

-0.000000 -0.000000 0.000000 
0.000000 0.000000 0.000000 
0.000000 0.000000 0.000000 

0.000000 -0.000000 0.000000 
0.000000 -0.000000 0.000000 
0.000000 0.000000 0.000000 

-0.000000 0.000000 0.000000 
0.000000 0.000000 0.000000 
0.000000 0.000000 0.000000 

-0.000000 0.000000 0.000000 
0.000000 -0.000000 0.000000 
0.000000 0.000000 0.000000 

0.000000 -0.000000 0.000000 
0.000000 -0.000000 0.000000 
0.000000 0.000000 0.000000 

0.000000 -0.000000 0.000000 
0.000000 -0.000000 0.000000 
0.000000 0.000000 0.000000 

0.000000 -0.000000 0.000000 
0.000000 -0.000000 0.000000 
0.000000 0.000000 0.000000 

0.000000 0.000000 0.000000 
0.000000 -0.000000 0.000000 
0.000000 0.000000 0.000000 

0.000000 0.000000 0.000000 
0.000000 -0.000000 0.000000 
0.000000 0.000000 0.000000 

0.000000 0.000000 0.000000 
0.000000 0.000000 0.000000 
0.000000 0.000000 0.000000 

-0.000000 0.000000 0.000000 
0.000000 0.000000 0.000000 
0.000000 0.000000 0.000000 

0.000000 0.000000 0.000000 
0.000000 -0.000000 0.000000 
0.000000 0.000000 0.000000 

0.000000 -0.000000 0.000000 
0.000000 -0.000000 0.000000 
0.000000 0.000000 0.000000 

0.000000 0.000000 0.000000 
0.000000 -0.000000 0.000000 
0.000000 0.000000 0.000000 

0.000000 -0.000000 0.000000 
0.000000 -0.000000 0.000000 
0.000000 0.000000 0.000000 

0.000000 -0.000000 0.000000 
0.000000 -0.000000 0.000000 
0.000000 0.000000 0.000000 

0.000000 0.000000 0.000000 
0.000000 -0.000000 0.000000 
0.000000 0.000000 0.000000 

0.000000 -0.000000 0.000000 
0.000000 -0.000000 0.000000 
0.000000 0.000000 0.000000 

0.000000 0.000000 0.000000 
0.000000 -0.000000 0.000000 
0.000000 0.000000 0.000000 

-0.000000 -0.000000 0.000000 
0.000000 0.000000 0.000000 
0.000000 0.000000 0.000000 

0.000000 -0.000000 0.000000 
0.000000 0.000000 0.000000 
0.000000 0.000000 0.000000 

0.000000 0.000000 0.000000 
0.000000 -0.000000 0.000000 
0.000000 0.000000 0.000000 

0.000000 0.000000 0.000000 
0.000000 0.000000 0.000000 
0.000000 0.000000 0.000000 

-0.000000 0.000000 0.000000 
0.000000 -0.000000 0.000000 
0.000000 0.000000 0.000000 

0.000000 0.000000 0.000000 
0.000000 -0.000000 0.000000 
0.000000 0.000000 0.000000 

0.000000 -0.000000 0.000000 
0.000000 -0.000000 0.000000 
0.000000 0.000000 0.000000 

-0.000000 0.000000 0.000000 
0.000000 0.000000 0.000000 
0.000000 0.000000 0.000000 

-0.000000 0.000000 0.000000 
0.000000 0.000000 0.000000 
0.000000 0.000000 0.000000 

-0.000000 0.000000 0.000000 
0.000000 0.000000 0.000000 
0.000000 0.000000 0.000000 

0.000000 0.000000 0.000000 
0.000000 -0.000000 0.000000 
0.000000 0.000000 0.000000 

0.000000 -0.000000 0.000000 
0.000000 -0.000000 0.000000 
0.000000 0.000000 0.000000 

0.000000 0.000000 0.000000 
0.000000 -0.000000 0.000000 
0.000000 0.000000 0.000000 

-0.000000 0.000000 0.000000 
0.000000 -0.000000 0.000000 
0.000000 0.000000 0.000000 

-0.000000 0.000000 0.000000 
0.000000 0.000000 0.000000 
0.000000 0.000000 0.000000 

-0.000000 0.000000 0.000000 
0.000000 0.000000 0.000000 
0.000000 0.000000 0.000000 

0.000000 -0.000000 0.000000 
0.000000 0.000000 0.000000 
0.000000 0.000000 0.000000 

-0.000000 0.000000 0.000000 
0.000000 0.000000 0.000000 
0.000000 0.000000 0.000000 

-0.000000 0.000000 0.000000 
0.000000 -0.000000 0.000000 
0.000000 0.000000 0.000000 

0.000000 -0.000000 0.000000 
0.000000 -0.000000 0.000000 
0.000000 0.000000 0.000000 

0.000000 0.000000 0.000000 
0.000000 -0.000000 0.000000 
0.000000 0.000000 0.000000 

0.000000 -0.000000 0.000000 
0.000000 -0.000000 0.000000 
0.000000 0.000000 0.000000 

0.000000 0.000000 0.000000 
0.000000 0.000000 0.000000 
0.000000 0.000000 0.000000 

-0.000000 -0.000000 0.000000 
0.000000 0.000000 0.000000 
0.000000 0.000000 0.000000 

-0.000000 -0.000000 0.000000 
0.000000 0.000000 0.000000 
0.000000 0.000000 0.000000 

-0.000000 -0.000000 0.000000 
0.000000 0.000000 0.000000 
0.000000 0.000000 0.000000 

