# vtk DataFile Version 3.0 
vtk output 
ASCII 
DATASET UNSTRUCTURED_GRID 
POINTS 175 float 
-0.026061 0.053842 0.000000 
-0.106992 0.121897 0.000000 
-0.054870 0.113664 0.000000 
-0.028809 0.159548 0.000000 
-0.186430 0.185973 0.000000 
-0.137056 0.183446 0.000000 
-0.114311 0.237094 0.000000 
-0.058186 0.221428 0.000000 
-0.029377 0.261605 0.000000 
-0.265318 0.249128 0.000000 
-0.217198 0.248329 0.000000 
-0.196633 0.305625 0.000000 
-0.143120 0.296917 0.000000 
-0.116563 0.344185 0.000000 
-0.058945 0.324539 0.000000 
-0.029568 0.362659 0.000000 
-0.344206 0.312284 0.000000 
-0.296791 0.312291 0.000000 
-0.278030 0.372234 0.000000 
-0.225992 0.366368 0.000000 
-0.201664 0.418485 0.000000 
-0.145749 0.405011 0.000000 
-0.117890 0.449354 0.000000 
-0.059328 0.426648 0.000000 
-0.029759 0.463714 0.000000 
-0.058559 0.013091 0.000000 
-0.162226 -0.007752 0.000000 
-0.123292 0.027866 0.000000 
-0.142917 0.076849 0.000000 
-0.261851 -0.029908 0.000000 
-0.229092 0.007119 0.000000 
-0.256854 0.058350 0.000000 
-0.209613 0.092463 0.000000 
-0.223062 0.140037 0.000000 
-0.360414 -0.052208 0.000000 
-0.329787 -0.015085 0.000000 
-0.361761 0.036717 0.000000 
-0.321587 0.073125 0.000000 
-0.341985 0.123360 0.000000 
-0.290702 0.156158 0.000000 
-0.302189 0.202894 0.000000 
-0.458977 -0.074508 0.000000 
-0.429420 -0.037434 0.000000 
-0.464588 0.014608 0.000000 
-0.427556 0.051636 0.000000 
-0.453135 0.103150 0.000000 
-0.407738 0.138466 0.000000 
-0.425037 0.187894 0.000000 
-0.370772 0.219523 0.000000 
-0.381315 0.265750 0.000000 
-0.046960 -0.037724 0.000000 
-0.095301 -0.131770 0.000000 
-0.098873 -0.079123 0.000000 
-0.149405 -0.063925 0.000000 
-0.140093 -0.223474 0.000000 
-0.148617 -0.174776 0.000000 
-0.205981 -0.164539 0.000000 
-0.203197 -0.106335 0.000000 
-0.248777 -0.087189 0.000000 
-0.184111 -0.314438 0.000000 
-0.194039 -0.267347 0.000000 
-0.254475 -0.260047 0.000000 
-0.257893 -0.205937 0.000000 
-0.309886 -0.190565 0.000000 
-0.303554 -0.130020 0.000000 
-0.347255 -0.109862 0.000000 
-0.228129 -0.405402 0.000000 
-0.238687 -0.359177 0.000000 
-0.301302 -0.354225 0.000000 
-0.307162 -0.302186 0.000000 
-0.363386 -0.290065 0.000000 
-0.362692 -0.232554 0.000000 
-0.412122 -0.215261 0.000000 
-0.403017 -0.153114 0.000000 
-0.445733 -0.132535 0.000000 
-0.000000 -0.060339 0.000000 
0.043388 -0.156770 0.000000 
-0.000000 -0.126738 0.000000 
-0.043388 -0.156770 0.000000 
0.087158 -0.248967 0.000000 
0.043769 -0.225268 0.000000 
-0.000000 -0.263734 0.000000 
-0.043769 -0.225268 0.000000 
-0.087158 -0.248967 0.000000 
0.130831 -0.340096 0.000000 
0.087824 -0.318497 0.000000 
0.044436 -0.361197 0.000000 
-0.000000 -0.330132 0.000000 
-0.044436 -0.361197 0.000000 
-0.087824 -0.318497 0.000000 
-0.130831 -0.340096 0.000000 
0.174505 -0.431226 0.000000 
0.131782 -0.410660 0.000000 
0.088871 -0.456526 0.000000 
0.044532 -0.428662 0.000000 
-0.000000 -0.465063 0.000000 
-0.044532 -0.428662 0.000000 
-0.088871 -0.456526 0.000000 
-0.131782 -0.410660 0.000000 
-0.174505 -0.431226 0.000000 
0.046960 -0.037724 0.000000 
0.149405 -0.063925 0.000000 
0.098873 -0.079123 0.000000 
0.095301 -0.131770 0.000000 
0.248777 -0.087189 0.000000 
0.203197 -0.106335 0.000000 
0.205981 -0.164539 0.000000 
0.148617 -0.174776 0.000000 
0.140093 -0.223474 0.000000 
0.347255 -0.109862 0.000000 
0.303554 -0.130020 0.000000 
0.309886 -0.190565 0.000000 
0.257893 -0.205937 0.000000 
0.254475 -0.260047 0.000000 
0.194039 -0.267347 0.000000 
0.184111 -0.314438 0.000000 
0.445733 -0.132535 0.000000 
0.403017 -0.153114 0.000000 
0.412122 -0.215261 0.000000 
0.362692 -0.232554 0.000000 
0.363386 -0.290065 0.000000 
0.307162 -0.302186 0.000000 
0.301302 -0.354225 0.000000 
0.238687 -0.359177 0.000000 
0.228129 -0.405402 0.000000 
0.058559 0.013091 0.000000 
0.142917 0.076849 0.000000 
0.123292 0.027866 0.000000 
0.162226 -0.007752 0.000000 
0.223062 0.140037 0.000000 
0.209613 0.092463 0.000000 
0.256854 0.058350 0.000000 
0.229092 0.007119 0.000000 
0.261851 -0.029908 0.000000 
0.302189 0.202894 0.000000 
0.290702 0.156158 0.000000 
0.341985 0.123360 0.000000 
0.321587 0.073125 0.000000 
0.361761 0.036717 0.000000 
0.329787 -0.015085 0.000000 
0.360414 -0.052208 0.000000 
0.381315 0.265750 0.000000 
0.370772 0.219523 0.000000 
0.425037 0.187894 0.000000 
0.407738 0.138466 0.000000 
0.453135 0.103150 0.000000 
0.427556 0.051636 0.000000 
0.464588 0.014608 0.000000 
0.429420 -0.037434 0.000000 
0.458977 -0.074508 0.000000 
0.026061 0.053842 0.000000 
0.028809 0.159548 0.000000 
0.054870 0.113664 0.000000 
0.106992 0.121897 0.000000 
0.029377 0.261605 0.000000 
0.058186 0.221428 0.000000 
0.114311 0.237094 0.000000 
0.137056 0.183446 0.000000 
0.186430 0.185973 0.000000 
0.029568 0.362659 0.000000 
0.058945 0.324539 0.000000 
0.116563 0.344185 0.000000 
0.143120 0.296917 0.000000 
0.196633 0.305625 0.000000 
0.217198 0.248329 0.000000 
0.265318 0.249128 0.000000 
0.029759 0.463714 0.000000 
0.059328 0.426648 0.000000 
0.117890 0.449354 0.000000 
0.145749 0.405011 0.000000 
0.201664 0.418485 0.000000 
0.225992 0.366368 0.000000 
0.278030 0.372234 0.000000 
0.296791 0.312291 0.000000 
0.344206 0.312284 0.000000 
CELLS 175 350 
1 0 
1 1 
1 2 
1 3 
1 4 
1 5 
1 6 
1 7 
1 8 
1 9 
1 10 
1 11 
1 12 
1 13 
1 14 
1 15 
1 16 
1 17 
1 18 
1 19 
1 20 
1 21 
1 22 
1 23 
1 24 
1 25 
1 26 
1 27 
1 28 
1 29 
1 30 
1 31 
1 32 
1 33 
1 34 
1 35 
1 36 
1 37 
1 38 
1 39 
1 40 
1 41 
1 42 
1 43 
1 44 
1 45 
1 46 
1 47 
1 48 
1 49 
1 50 
1 51 
1 52 
1 53 
1 54 
1 55 
1 56 
1 57 
1 58 
1 59 
1 60 
1 61 
1 62 
1 63 
1 64 
1 65 
1 66 
1 67 
1 68 
1 69 
1 70 
1 71 
1 72 
1 73 
1 74 
1 75 
1 76 
1 77 
1 78 
1 79 
1 80 
1 81 
1 82 
1 83 
1 84 
1 85 
1 86 
1 87 
1 88 
1 89 
1 90 
1 91 
1 92 
1 93 
1 94 
1 95 
1 96 
1 97 
1 98 
1 99 
1 100 
1 101 
1 102 
1 103 
1 104 
1 105 
1 106 
1 107 
1 108 
1 109 
1 110 
1 111 
1 112 
1 113 
1 114 
1 115 
1 116 
1 117 
1 118 
1 119 
1 120 
1 121 
1 122 
1 123 
1 124 
1 125 
1 126 
1 127 
1 128 
1 129 
1 130 
1 131 
1 132 
1 133 
1 134 
1 135 
1 136 
1 137 
1 138 
1 139 
1 140 
1 141 
1 142 
1 143 
1 144 
1 145 
1 146 
1 147 
1 148 
1 149 
1 150 
1 151 
1 152 
1 153 
1 154 
1 155 
1 156 
1 157 
1 158 
1 159 
1 160 
1 161 
1 162 
1 163 
1 164 
1 165 
1 166 
1 167 
1 168 
1 169 
1 170 
1 171 
1 172 
1 173 
1 174 
CELL_TYPES 175 
1 
1 
1 
1 
1 
1 
1 
1 
1 
1 
1 
1 
1 
1 
1 
1 
1 
1 
1 
1 
1 
1 
1 
1 
1 
1 
1 
1 
1 
1 
1 
1 
1 
1 
1 
1 
1 
1 
1 
1 
1 
1 
1 
1 
1 
1 
1 
1 
1 
1 
1 
1 
1 
1 
1 
1 
1 
1 
1 
1 
1 
1 
1 
1 
1 
1 
1 
1 
1 
1 
1 
1 
1 
1 
1 
1 
1 
1 
1 
1 
1 
1 
1 
1 
1 
1 
1 
1 
1 
1 
1 
1 
1 
1 
1 
1 
1 
1 
1 
1 
1 
1 
1 
1 
1 
1 
1 
1 
1 
1 
1 
1 
1 
1 
1 
1 
1 
1 
1 
1 
1 
1 
1 
1 
1 
1 
1 
1 
1 
1 
1 
1 
1 
1 
1 
1 
1 
1 
1 
1 
1 
1 
1 
1 
1 
1 
1 
1 
1 
1 
1 
1 
1 
1 
1 
1 
1 
1 
1 
1 
1 
1 
1 
1 
1 
1 
1 
1 
1 
1 
1 
1 
1 
1 
1 
POINT_DATA 175 
VECTORS X_GC float 
-0.026061 0.053842 0.000000 
-0.106992 0.121897 0.000000 
-0.054870 0.113664 0.000000 
-0.028809 0.159548 0.000000 
-0.186430 0.185973 0.000000 
-0.137056 0.183446 0.000000 
-0.114311 0.237094 0.000000 
-0.058186 0.221428 0.000000 
-0.029377 0.261605 0.000000 
-0.265318 0.249128 0.000000 
-0.217198 0.248329 0.000000 
-0.196633 0.305625 0.000000 
-0.143120 0.296917 0.000000 
-0.116563 0.344185 0.000000 
-0.058945 0.324539 0.000000 
-0.029568 0.362659 0.000000 
-0.344206 0.312284 0.000000 
-0.296791 0.312291 0.000000 
-0.278030 0.372234 0.000000 
-0.225992 0.366368 0.000000 
-0.201664 0.418485 0.000000 
-0.145749 0.405011 0.000000 
-0.117890 0.449354 0.000000 
-0.059328 0.426648 0.000000 
-0.029759 0.463714 0.000000 
-0.058559 0.013091 0.000000 
-0.162226 -0.007752 0.000000 
-0.123292 0.027866 0.000000 
-0.142917 0.076849 0.000000 
-0.261851 -0.029908 0.000000 
-0.229092 0.007119 0.000000 
-0.256854 0.058350 0.000000 
-0.209613 0.092463 0.000000 
-0.223062 0.140037 0.000000 
-0.360414 -0.052208 0.000000 
-0.329787 -0.015085 0.000000 
-0.361761 0.036717 0.000000 
-0.321587 0.073125 0.000000 
-0.341985 0.123360 0.000000 
-0.290702 0.156158 0.000000 
-0.302189 0.202894 0.000000 
-0.458977 -0.074508 0.000000 
-0.429420 -0.037434 0.000000 
-0.464588 0.014608 0.000000 
-0.427556 0.051636 0.000000 
-0.453135 0.103150 0.000000 
-0.407738 0.138466 0.000000 
-0.425037 0.187894 0.000000 
-0.370772 0.219523 0.000000 
-0.381315 0.265750 0.000000 
-0.046960 -0.037724 0.000000 
-0.095301 -0.131770 0.000000 
-0.098873 -0.079123 0.000000 
-0.149405 -0.063925 0.000000 
-0.140093 -0.223474 0.000000 
-0.148617 -0.174776 0.000000 
-0.205981 -0.164539 0.000000 
-0.203197 -0.106335 0.000000 
-0.248777 -0.087189 0.000000 
-0.184111 -0.314438 0.000000 
-0.194039 -0.267347 0.000000 
-0.254475 -0.260047 0.000000 
-0.257893 -0.205937 0.000000 
-0.309886 -0.190565 0.000000 
-0.303554 -0.130020 0.000000 
-0.347255 -0.109862 0.000000 
-0.228129 -0.405402 0.000000 
-0.238687 -0.359177 0.000000 
-0.301302 -0.354225 0.000000 
-0.307162 -0.302186 0.000000 
-0.363386 -0.290065 0.000000 
-0.362692 -0.232554 0.000000 
-0.412122 -0.215261 0.000000 
-0.403017 -0.153114 0.000000 
-0.445733 -0.132535 0.000000 
-0.000000 -0.060339 0.000000 
0.043388 -0.156770 0.000000 
-0.000000 -0.126738 0.000000 
-0.043388 -0.156770 0.000000 
0.087158 -0.248967 0.000000 
0.043769 -0.225268 0.000000 
-0.000000 -0.263734 0.000000 
-0.043769 -0.225268 0.000000 
-0.087158 -0.248967 0.000000 
0.130831 -0.340096 0.000000 
0.087824 -0.318497 0.000000 
0.044436 -0.361197 0.000000 
-0.000000 -0.330132 0.000000 
-0.044436 -0.361197 0.000000 
-0.087824 -0.318497 0.000000 
-0.130831 -0.340096 0.000000 
0.174505 -0.431226 0.000000 
0.131782 -0.410660 0.000000 
0.088871 -0.456526 0.000000 
0.044532 -0.428662 0.000000 
-0.000000 -0.465063 0.000000 
-0.044532 -0.428662 0.000000 
-0.088871 -0.456526 0.000000 
-0.131782 -0.410660 0.000000 
-0.174505 -0.431226 0.000000 
0.046960 -0.037724 0.000000 
0.149405 -0.063925 0.000000 
0.098873 -0.079123 0.000000 
0.095301 -0.131770 0.000000 
0.248777 -0.087189 0.000000 
0.203197 -0.106335 0.000000 
0.205981 -0.164539 0.000000 
0.148617 -0.174776 0.000000 
0.140093 -0.223474 0.000000 
0.347255 -0.109862 0.000000 
0.303554 -0.130020 0.000000 
0.309886 -0.190565 0.000000 
0.257893 -0.205937 0.000000 
0.254475 -0.260047 0.000000 
0.194039 -0.267347 0.000000 
0.184111 -0.314438 0.000000 
0.445733 -0.132535 0.000000 
0.403017 -0.153114 0.000000 
0.412122 -0.215261 0.000000 
0.362692 -0.232554 0.000000 
0.363386 -0.290065 0.000000 
0.307162 -0.302186 0.000000 
0.301302 -0.354225 0.000000 
0.238687 -0.359177 0.000000 
0.228129 -0.405402 0.000000 
0.058559 0.013091 0.000000 
0.142917 0.076849 0.000000 
0.123292 0.027866 0.000000 
0.162226 -0.007752 0.000000 
0.223062 0.140037 0.000000 
0.209613 0.092463 0.000000 
0.256854 0.058350 0.000000 
0.229092 0.007119 0.000000 
0.261851 -0.029908 0.000000 
0.302189 0.202894 0.000000 
0.290702 0.156158 0.000000 
0.341985 0.123360 0.000000 
0.321587 0.073125 0.000000 
0.361761 0.036717 0.000000 
0.329787 -0.015085 0.000000 
0.360414 -0.052208 0.000000 
0.381315 0.265750 0.000000 
0.370772 0.219523 0.000000 
0.425037 0.187894 0.000000 
0.407738 0.138466 0.000000 
0.453135 0.103150 0.000000 
0.427556 0.051636 0.000000 
0.464588 0.014608 0.000000 
0.429420 -0.037434 0.000000 
0.458977 -0.074508 0.000000 
0.026061 0.053842 0.000000 
0.028809 0.159548 0.000000 
0.054870 0.113664 0.000000 
0.106992 0.121897 0.000000 
0.029377 0.261605 0.000000 
0.058186 0.221428 0.000000 
0.114311 0.237094 0.000000 
0.137056 0.183446 0.000000 
0.186430 0.185973 0.000000 
0.029568 0.362659 0.000000 
0.058945 0.324539 0.000000 
0.116563 0.344185 0.000000 
0.143120 0.296917 0.000000 
0.196633 0.305625 0.000000 
0.217198 0.248329 0.000000 
0.265318 0.249128 0.000000 
0.029759 0.463714 0.000000 
0.059328 0.426648 0.000000 
0.117890 0.449354 0.000000 
0.145749 0.405011 0.000000 
0.201664 0.418485 0.000000 
0.225992 0.366368 0.000000 
0.278030 0.372234 0.000000 
0.296791 0.312291 0.000000 
0.344206 0.312284 0.000000 
VECTORS X_EC float 
0.338794 -0.226862 0.000000 
-0.609100 0.854389 0.000000 
0.713312 0.965530 0.000000 
0.374519 0.346101 0.000000 
0.423588 -0.010630 0.000000 
-0.218274 0.023474 0.000000 
-0.513962 -0.700765 0.000000 
0.756418 -0.489279 0.000000 
0.381900 0.968328 0.000000 
-0.550868 -0.863233 0.000000 
0.823577 -0.852438 0.000000 
0.556234 0.374058 0.000000 
-0.139443 0.491627 0.000000 
-0.484677 -0.146497 0.000000 
0.766286 0.118718 0.000000 
0.384386 -0.395902 0.000000 
0.474677 0.284164 0.000000 
-0.141715 0.284067 0.000000 
-0.385608 -0.525161 0.000000 
0.937896 -0.445965 0.000000 
0.621631 0.850455 0.000000 
-0.105264 -0.967646 0.000000 
-0.467428 0.433728 0.000000 
0.771260 0.740256 0.000000 
0.386873 0.239867 0.000000 
0.761262 0.323272 0.000000 
0.108942 0.604649 0.000000 
-0.397202 0.123810 0.000000 
-0.142083 -0.537466 0.000000 
-0.595936 0.903760 0.000000 
0.978194 0.403894 0.000000 
-0.660903 -0.287731 0.000000 
0.724964 -0.748251 0.000000 
0.899809 0.609500 0.000000 
0.685384 -0.795188 0.000000 
0.287229 0.703653 0.000000 
0.702895 0.004325 0.000000 
0.180633 -0.487194 0.000000 
0.445811 0.834646 0.000000 
-0.220880 0.391860 0.000000 
-0.071546 -0.239065 0.000000 
-0.033296 -0.494136 0.000000 
-0.417537 -0.994646 0.000000 
0.039645 0.302792 0.000000 
-0.441768 -0.197079 0.000000 
-0.109248 -0.892530 0.000000 
-0.699407 0.630714 0.000000 
-0.474522 -0.036565 0.000000 
0.820030 -0.463558 0.000000 
0.957100 0.912370 0.000000 
0.610485 -0.990721 0.000000 
-0.761092 0.278898 0.000000 
-0.714655 -0.431840 0.000000 
-0.057734 -0.637007 0.000000 
-0.178789 -0.483098 0.000000 
-0.067979 0.859476 0.000000 
0.677748 0.721273 0.000000 
0.641556 -0.064473 0.000000 
-0.765897 -0.322951 0.000000 
0.393446 0.744911 0.000000 
0.522510 0.109181 0.000000 
-0.691820 0.010637 0.000000 
-0.647393 -0.719846 0.000000 
0.028512 -0.927372 0.000000 
-0.053800 0.255267 0.000000 
0.514316 -0.016863 0.000000 
0.965681 -0.027080 0.000000 
-0.897068 -0.651108 0.000000 
-0.083078 -0.717961 0.000000 
-0.006893 0.579514 0.000000 
0.724017 0.415881 0.000000 
0.714996 -0.360523 0.000000 
-0.642413 -0.593980 0.000000 
-0.760780 0.567040 0.000000 
-0.205471 0.289224 0.000000 
0.000000 -0.685420 0.000000 
-0.564049 0.616393 0.000000 
0.000000 0.210957 0.000000 
0.564049 0.616393 0.000000 
0.866949 -0.138952 0.000000 
-0.569003 -0.458883 0.000000 
0.000000 0.060405 0.000000 
0.569003 -0.458883 0.000000 
-0.866949 -0.138952 0.000000 
0.299194 -0.908702 0.000000 
0.858290 0.799715 0.000000 
-0.577662 -0.623840 0.000000 
0.000000 0.956782 0.000000 
0.577662 -0.623840 0.000000 
-0.858290 0.799715 0.000000 
-0.299194 -0.908702 0.000000 
-0.268560 0.321549 0.000000 
0.286830 0.043907 0.000000 
0.844677 0.663105 0.000000 
-0.578910 0.286942 0.000000 
0.000000 0.778346 0.000000 
0.578910 0.286942 0.000000 
-0.844677 0.663105 0.000000 
-0.286830 0.043907 0.000000 
0.268560 0.321549 0.000000 
-0.610485 -0.990721 0.000000 
0.057734 -0.637007 0.000000 
0.714655 -0.431840 0.000000 
0.761092 0.278898 0.000000 
0.765897 -0.322951 0.000000 
-0.641556 -0.064473 0.000000 
-0.677748 0.721273 0.000000 
0.067979 0.859476 0.000000 
0.178789 -0.483098 0.000000 
-0.514316 -0.016863 0.000000 
0.053800 0.255267 0.000000 
-0.028512 -0.927372 0.000000 
0.647393 -0.719846 0.000000 
0.691820 0.010637 0.000000 
-0.522510 0.109181 0.000000 
-0.393446 0.744911 0.000000 
0.205471 0.289224 0.000000 
0.760780 0.567040 0.000000 
0.642413 -0.593980 0.000000 
-0.714996 -0.360523 0.000000 
-0.724017 0.415881 0.000000 
0.006894 0.579514 0.000000 
0.083078 -0.717961 0.000000 
0.897068 -0.651108 0.000000 
-0.965681 -0.027080 0.000000 
-0.761262 0.323272 0.000000 
0.142083 -0.537466 0.000000 
0.397202 0.123810 0.000000 
-0.108942 0.604649 0.000000 
-0.899809 0.609500 0.000000 
-0.724964 -0.748251 0.000000 
0.660903 -0.287731 0.000000 
-0.978194 0.403894 0.000000 
0.595936 0.903760 0.000000 
0.071546 -0.239065 0.000000 
0.220880 0.391860 0.000000 
-0.445811 0.834646 0.000000 
-0.180633 -0.487194 0.000000 
-0.702895 0.004325 0.000000 
-0.287229 0.703653 0.000000 
-0.685384 -0.795188 0.000000 
-0.957100 0.912370 0.000000 
-0.820030 -0.463558 0.000000 
0.474522 -0.036565 0.000000 
0.699407 0.630714 0.000000 
0.109248 -0.892530 0.000000 
0.441768 -0.197079 0.000000 
-0.039645 0.302792 0.000000 
0.417537 -0.994646 0.000000 
0.033296 -0.494136 0.000000 
-0.338794 -0.226862 0.000000 
-0.374519 0.346101 0.000000 
-0.713312 0.965530 0.000000 
0.609100 0.854389 0.000000 
-0.381900 0.968328 0.000000 
-0.756418 -0.489279 0.000000 
0.513962 -0.700765 0.000000 
0.218274 0.023474 0.000000 
-0.423588 -0.010630 0.000000 
-0.384386 -0.395902 0.000000 
-0.766286 0.118718 0.000000 
0.484677 -0.146497 0.000000 
0.139443 0.491627 0.000000 
-0.556234 0.374058 0.000000 
-0.823577 -0.852438 0.000000 
0.550868 -0.863233 0.000000 
-0.386873 0.239867 0.000000 
-0.771260 0.740256 0.000000 
0.467428 0.433728 0.000000 
0.105264 -0.967646 0.000000 
-0.621631 0.850455 0.000000 
-0.937896 -0.445965 0.000000 
0.385608 -0.525161 0.000000 
0.141715 0.284067 0.000000 
-0.474677 0.284164 0.000000 
CELL_DATA 175 
SCALARS MASS float 
LOOKUP_TABLE default 
0.781831 
0.864274 
0.946717 
0.864274 
0.881307 
0.921110 
0.858535 
0.921110 
0.881307 
0.887046 
0.910001 
0.869829 
0.915556 
0.869829 
0.910001 
0.887046 
0.892784 
0.915740 
0.892784 
0.927218 
0.892784 
0.927218 
0.892784 
0.915740 
0.892784 
0.781831 
0.864274 
0.946717 
0.864274 
0.881307 
0.921110 
0.858535 
0.921110 
0.881307 
0.887046 
0.910001 
0.869829 
0.915556 
0.869829 
0.910001 
0.887046 
0.892784 
0.915740 
0.892784 
0.927218 
0.892784 
0.927218 
0.892784 
0.915740 
0.892784 
0.781831 
0.864274 
0.946717 
0.864274 
0.881307 
0.921110 
0.858535 
0.921110 
0.881307 
0.887046 
0.910001 
0.869829 
0.915556 
0.869829 
0.910001 
0.887046 
0.892784 
0.915740 
0.892784 
0.927218 
0.892784 
0.927218 
0.892784 
0.915740 
0.892784 
0.781831 
0.864274 
0.946717 
0.864274 
0.881307 
0.921110 
0.858535 
0.921110 
0.881307 
0.887046 
0.910001 
0.869829 
0.915556 
0.869829 
0.910001 
0.887046 
0.892784 
0.915740 
0.892784 
0.927218 
0.892784 
0.927218 
0.892784 
0.915740 
0.892784 
0.781831 
0.864274 
0.946717 
0.864274 
0.881307 
0.921110 
0.858535 
0.921110 
0.881307 
0.887046 
0.910001 
0.869829 
0.915556 
0.869829 
0.910001 
0.887046 
0.892784 
0.915740 
0.892784 
0.927218 
0.892784 
0.927218 
0.892784 
0.915740 
0.892784 
0.781831 
0.864274 
0.946717 
0.864274 
0.881307 
0.921110 
0.858535 
0.921110 
0.881307 
0.887046 
0.910001 
0.869829 
0.915556 
0.869829 
0.910001 
0.887046 
0.892784 
0.915740 
0.892784 
0.927218 
0.892784 
0.927218 
0.892784 
0.915740 
0.892784 
0.781831 
0.864274 
0.946717 
0.864274 
0.881307 
0.921110 
0.858535 
0.921110 
0.881307 
0.887046 
0.910001 
0.869829 
0.915556 
0.869829 
0.910001 
0.887046 
0.892784 
0.915740 
0.892784 
0.927218 
0.892784 
0.927218 
0.892784 
0.915740 
0.892784 
SCALARS MASS float 
LOOKUP_TABLE default 
0.781831 
0.864274 
0.946717 
0.864274 
0.881307 
0.921110 
0.858535 
0.921110 
0.881307 
0.887046 
0.910001 
0.869829 
0.915556 
0.869829 
0.910001 
0.887046 
0.892784 
0.915740 
0.892784 
0.927218 
0.892784 
0.927218 
0.892784 
0.915740 
0.892784 
0.781831 
0.864274 
0.946717 
0.864274 
0.881307 
0.921110 
0.858535 
0.921110 
0.881307 
0.887046 
0.910001 
0.869829 
0.915556 
0.869829 
0.910001 
0.887046 
0.892784 
0.915740 
0.892784 
0.927218 
0.892784 
0.927218 
0.892784 
0.915740 
0.892784 
0.781831 
0.864274 
0.946717 
0.864274 
0.881307 
0.921110 
0.858535 
0.921110 
0.881307 
0.887046 
0.910001 
0.869829 
0.915556 
0.869829 
0.910001 
0.887046 
0.892784 
0.915740 
0.892784 
0.927218 
0.892784 
0.927218 
0.892784 
0.915740 
0.892784 
0.781831 
0.864274 
0.946717 
0.864274 
0.881307 
0.921110 
0.858535 
0.921110 
0.881307 
0.887046 
0.910001 
0.869829 
0.915556 
0.869829 
0.910001 
0.887046 
0.892784 
0.915740 
0.892784 
0.927218 
0.892784 
0.927218 
0.892784 
0.915740 
0.892784 
0.781831 
0.864274 
0.946717 
0.864274 
0.881307 
0.921110 
0.858535 
0.921110 
0.881307 
0.887046 
0.910001 
0.869829 
0.915556 
0.869829 
0.910001 
0.887046 
0.892784 
0.915740 
0.892784 
0.927218 
0.892784 
0.927218 
0.892784 
0.915740 
0.892784 
0.781831 
0.864274 
0.946717 
0.864274 
0.881307 
0.921110 
0.858535 
0.921110 
0.881307 
0.887046 
0.910001 
0.869829 
0.915556 
0.869829 
0.910001 
0.887046 
0.892784 
0.915740 
0.892784 
0.927218 
0.892784 
0.927218 
0.892784 
0.915740 
0.892784 
0.781831 
0.864274 
0.946717 
0.864274 
0.881307 
0.921110 
0.858535 
0.921110 
0.881307 
0.887046 
0.910001 
0.869829 
0.915556 
0.869829 
0.910001 
0.887046 
0.892784 
0.915740 
0.892784 
0.927218 
0.892784 
0.927218 
0.892784 
0.915740 
0.892784 
SCALARS DENSITY float 
LOOKUP_TABLE default 
200.000000 
200.000000 
200.000000 
200.000000 
200.000000 
200.000000 
200.000000 
200.000000 
200.000000 
200.000000 
200.000000 
200.000000 
200.000000 
200.000000 
200.000000 
200.000000 
200.000000 
200.000000 
200.000000 
200.000000 
200.000000 
200.000000 
200.000000 
200.000000 
200.000000 
200.000000 
200.000000 
200.000000 
200.000000 
200.000000 
200.000000 
200.000000 
200.000000 
200.000000 
200.000000 
200.000000 
200.000000 
200.000000 
200.000000 
200.000000 
200.000000 
200.000000 
200.000000 
200.000000 
200.000000 
200.000000 
200.000000 
200.000000 
200.000000 
200.000000 
200.000000 
200.000000 
200.000000 
200.000000 
200.000000 
200.000000 
200.000000 
200.000000 
200.000000 
200.000000 
200.000000 
200.000000 
200.000000 
200.000000 
200.000000 
200.000000 
200.000000 
200.000000 
200.000000 
200.000000 
200.000000 
200.000000 
200.000000 
200.000000 
200.000000 
200.000000 
200.000000 
200.000000 
200.000000 
200.000000 
200.000000 
200.000000 
200.000000 
200.000000 
200.000000 
200.000000 
200.000000 
200.000000 
200.000000 
200.000000 
200.000000 
200.000000 
200.000000 
200.000000 
200.000000 
200.000000 
200.000000 
200.000000 
200.000000 
200.000000 
200.000000 
200.000000 
200.000000 
200.000000 
200.000000 
200.000000 
200.000000 
200.000000 
200.000000 
200.000000 
200.000000 
200.000000 
200.000000 
200.000000 
200.000000 
200.000000 
200.000000 
200.000000 
200.000000 
200.000000 
200.000000 
200.000000 
200.000000 
200.000000 
200.000000 
200.000000 
200.000000 
200.000000 
200.000000 
200.000000 
200.000000 
200.000000 
200.000000 
200.000000 
200.000000 
200.000000 
200.000000 
200.000000 
200.000000 
200.000000 
200.000000 
200.000000 
200.000000 
200.000000 
200.000000 
200.000000 
200.000000 
200.000000 
200.000000 
200.000000 
200.000000 
200.000000 
200.000000 
200.000000 
200.000000 
200.000000 
200.000000 
200.000000 
200.000000 
200.000000 
200.000000 
200.000000 
200.000000 
200.000000 
200.000000 
200.000000 
200.000000 
200.000000 
200.000000 
200.000000 
200.000000 
200.000000 
200.000000 
200.000000 
200.000000 
SCALARS ELEM_i float 
LOOKUP_TABLE default 
182 
210 
183 
183 
210 
210 
210 
183 
184 
237 
210 
211 
211 
211 
184 
184 
238 
238 
238 
211 
212 
211 
212 
185 
185 
182 
209 
209 
209 
236 
209 
236 
209 
210 
235 
236 
236 
236 
237 
237 
237 
262 
262 
263 
263 
263 
264 
264 
237 
238 
181 
208 
208 
208 
207 
208 
208 
208 
235 
207 
207 
234 
234 
234 
235 
235 
206 
233 
233 
234 
234 
234 
261 
262 
262 
181 
181 
181 
181 
153 
180 
180 
180 
207 
152 
153 
179 
180 
179 
207 
206 
152 
152 
152 
179 
179 
179 
206 
206 
206 
181 
154 
154 
154 
127 
154 
154 
154 
153 
127 
127 
126 
126 
126 
153 
153 
100 
100 
99 
126 
126 
126 
125 
125 
152 
182 
155 
155 
155 
156 
155 
128 
155 
128 
129 
129 
129 
128 
128 
128 
127 
130 
129 
102 
102 
101 
101 
101 
100 
100 
182 
183 
183 
156 
184 
183 
156 
156 
156 
184 
184 
157 
157 
157 
156 
129 
185 
185 
158 
157 
158 
157 
130 
130 
130 
VECTORS VELOCITY float 
-0.000000 -0.068670 0.000000 
-0.000000 -0.068670 0.000000 
-0.000000 -0.068670 0.000000 
-0.000000 -0.068670 0.000000 
-0.000000 -0.068670 0.000000 
-0.000000 -0.068670 0.000000 
-0.000000 -0.068670 0.000000 
-0.000000 -0.068670 0.000000 
-0.000000 -0.068670 0.000000 
-0.000000 -0.068670 0.000000 
-0.000000 -0.068670 0.000000 
-0.000000 -0.068670 0.000000 
0.000000 -0.068670 0.000000 
0.000000 -0.068670 0.000000 
0.000000 -0.068670 0.000000 
0.000000 -0.068670 0.000000 
0.000000 -0.068670 0.000000 
0.000000 -0.068670 0.000000 
-0.000000 -0.068670 0.000000 
0.000000 -0.068670 0.000000 
0.000000 -0.068670 0.000000 
0.000000 -0.068670 0.000000 
0.000000 -0.068670 0.000000 
0.000000 -0.068670 0.000000 
-0.000000 -0.068670 0.000000 
0.000000 -0.068670 0.000000 
0.000000 -0.068670 0.000000 
0.000000 -0.068670 0.000000 
-0.000000 -0.068670 0.000000 
-0.000000 -0.068670 0.000000 
-0.000000 -0.068670 0.000000 
-0.000000 -0.068670 0.000000 
-0.000000 -0.068670 0.000000 
-0.000000 -0.068670 0.000000 
-0.000000 -0.068670 0.000000 
-0.000000 -0.068670 0.000000 
-0.000000 -0.068670 0.000000 
-0.000000 -0.068670 0.000000 
-0.000000 -0.068670 0.000000 
-0.000000 -0.068670 0.000000 
0.000000 -0.068670 0.000000 
-0.000000 -0.068670 0.000000 
-0.000000 -0.068670 0.000000 
-0.000000 -0.068670 0.000000 
-0.000000 -0.068670 0.000000 
-0.000000 -0.068670 0.000000 
0.000000 -0.068670 0.000000 
0.000000 -0.068670 0.000000 
0.000000 -0.068670 0.000000 
0.000000 -0.068670 0.000000 
0.000000 -0.068670 0.000000 
0.000000 -0.068670 0.000000 
0.000000 -0.068670 0.000000 
0.000000 -0.068670 0.000000 
-0.000000 -0.068670 0.000000 
-0.000000 -0.068670 0.000000 
-0.000000 -0.068670 0.000000 
0.000000 -0.068670 0.000000 
0.000000 -0.068670 0.000000 
0.000000 -0.068670 0.000000 
0.000000 -0.068670 0.000000 
-0.000000 -0.068670 0.000000 
0.000000 -0.068670 0.000000 
0.000000 -0.068670 0.000000 
-0.000000 -0.068670 0.000000 
-0.000000 -0.068670 0.000000 
-0.000000 -0.068670 0.000000 
-0.000000 -0.068670 0.000000 
-0.000000 -0.068670 0.000000 
-0.000000 -0.068670 0.000000 
-0.000000 -0.068670 0.000000 
-0.000000 -0.068670 0.000000 
0.000000 -0.068670 0.000000 
0.000000 -0.068670 0.000000 
0.000000 -0.068670 0.000000 
0.000000 -0.068670 0.000000 
-0.000000 -0.068670 0.000000 
-0.000000 -0.068670 0.000000 
-0.000000 -0.068670 0.000000 
0.000000 -0.068670 0.000000 
-0.000000 -0.068670 0.000000 
0.000000 -0.068670 0.000000 
-0.000000 -0.068670 0.000000 
-0.000000 -0.068670 0.000000 
0.000000 -0.068670 0.000000 
0.000000 -0.068670 0.000000 
0.000000 -0.068670 0.000000 
0.000000 -0.068670 0.000000 
0.000000 -0.068670 0.000000 
0.000000 -0.068670 0.000000 
0.000000 -0.068670 0.000000 
-0.000000 -0.068670 0.000000 
0.000000 -0.068670 0.000000 
-0.000000 -0.068670 0.000000 
0.000000 -0.068670 0.000000 
0.000000 -0.068670 0.000000 
0.000000 -0.068670 0.000000 
0.000000 -0.068670 0.000000 
0.000000 -0.068670 0.000000 
0.000000 -0.068670 0.000000 
-0.000000 -0.068670 0.000000 
-0.000000 -0.068670 0.000000 
-0.000000 -0.068670 0.000000 
-0.000000 -0.068670 0.000000 
-0.000000 -0.068670 0.000000 
-0.000000 -0.068670 0.000000 
0.000000 -0.068670 0.000000 
0.000000 -0.068670 0.000000 
0.000000 -0.068670 0.000000 
-0.000000 -0.068670 0.000000 
-0.000000 -0.068670 0.000000 
-0.000000 -0.068670 0.000000 
0.000000 -0.068670 0.000000 
0.000000 -0.068670 0.000000 
0.000000 -0.068670 0.000000 
0.000000 -0.068670 0.000000 
0.000000 -0.068670 0.000000 
-0.000000 -0.068670 0.000000 
-0.000000 -0.068670 0.000000 
-0.000000 -0.068670 0.000000 
-0.000000 -0.068670 0.000000 
-0.000000 -0.068670 0.000000 
-0.000000 -0.068670 0.000000 
0.000000 -0.068670 0.000000 
0.000000 -0.068670 0.000000 
-0.000000 -0.068670 0.000000 
0.000000 -0.068670 0.000000 
-0.000000 -0.068670 0.000000 
-0.000000 -0.068670 0.000000 
0.000000 -0.068670 0.000000 
0.000000 -0.068670 0.000000 
0.000000 -0.068670 0.000000 
0.000000 -0.068670 0.000000 
-0.000000 -0.068670 0.000000 
0.000000 -0.068670 0.000000 
0.000000 -0.068670 0.000000 
0.000000 -0.068670 0.000000 
0.000000 -0.068670 0.000000 
0.000000 -0.068670 0.000000 
0.000000 -0.068670 0.000000 
0.000000 -0.068670 0.000000 
0.000000 -0.068670 0.000000 
0.000000 -0.068670 0.000000 
0.000000 -0.068670 0.000000 
0.000000 -0.068670 0.000000 
0.000000 -0.068670 0.000000 
0.000000 -0.068670 0.000000 
0.000000 -0.068670 0.000000 
0.000000 -0.068670 0.000000 
0.000000 -0.068670 0.000000 
-0.000000 -0.068670 0.000000 
-0.000000 -0.068670 0.000000 
0.000000 -0.068670 0.000000 
0.000000 -0.068670 0.000000 
-0.000000 -0.068670 0.000000 
-0.000000 -0.068670 0.000000 
-0.000000 -0.068670 0.000000 
-0.000000 -0.068670 0.000000 
-0.000000 -0.068670 0.000000 
0.000000 -0.068670 0.000000 
-0.000000 -0.068670 0.000000 
-0.000000 -0.068670 0.000000 
-0.000000 -0.068670 0.000000 
-0.000000 -0.068670 0.000000 
-0.000000 -0.068670 0.000000 
-0.000000 -0.068670 0.000000 
0.000000 -0.068670 0.000000 
0.000000 -0.068670 0.000000 
0.000000 -0.068670 0.000000 
-0.000000 -0.068670 0.000000 
-0.000000 -0.068670 0.000000 
-0.000000 -0.068670 0.000000 
-0.000000 -0.068670 0.000000 
-0.000000 -0.068670 0.000000 
0.000000 -0.068670 0.000000 
TENSORS STRESS float 
-0.000000 -0.000000 0.000000 
0.000000 -0.000000 0.000000 
0.000000 0.000000 0.000000 

-0.000000 -0.000000 0.000000 
0.000000 -0.000000 0.000000 
0.000000 0.000000 0.000000 

-0.000000 0.000000 0.000000 
0.000000 -0.000000 0.000000 
0.000000 0.000000 0.000000 

0.000000 -0.000000 0.000000 
0.000000 0.000000 0.000000 
0.000000 0.000000 0.000000 

0.000000 -0.000000 0.000000 
0.000000 0.000000 0.000000 
0.000000 0.000000 0.000000 

0.000000 -0.000000 0.000000 
0.000000 0.000000 0.000000 
0.000000 0.000000 0.000000 

0.000000 -0.000000 0.000000 
0.000000 0.000000 0.000000 
0.000000 0.000000 0.000000 

-0.000000 -0.000000 0.000000 
0.000000 -0.000000 0.000000 
0.000000 0.000000 0.000000 

0.000000 0.000000 0.000000 
0.000000 0.000000 0.000000 
0.000000 0.000000 0.000000 

0.000000 0.000000 0.000000 
0.000000 0.000000 0.000000 
0.000000 0.000000 0.000000 

0.000000 -0.000000 0.000000 
0.000000 0.000000 0.000000 
0.000000 0.000000 0.000000 

0.000000 -0.000000 0.000000 
0.000000 0.000000 0.000000 
0.000000 0.000000 0.000000 

0.000000 -0.000000 0.000000 
0.000000 0.000000 0.000000 
0.000000 0.000000 0.000000 

0.000000 -0.000000 0.000000 
0.000000 0.000000 0.000000 
0.000000 0.000000 0.000000 

0.000000 0.000000 0.000000 
0.000000 0.000000 0.000000 
0.000000 0.000000 0.000000 

0.000000 0.000000 0.000000 
0.000000 0.000000 0.000000 
0.000000 0.000000 0.000000 

0.000000 -0.000000 0.000000 
0.000000 0.000000 0.000000 
0.000000 0.000000 0.000000 

0.000000 0.000000 0.000000 
0.000000 0.000000 0.000000 
0.000000 0.000000 0.000000 

-0.000000 -0.000000 0.000000 
0.000000 -0.000000 0.000000 
0.000000 0.000000 0.000000 

-0.000000 0.000000 0.000000 
0.000000 -0.000000 0.000000 
0.000000 0.000000 0.000000 

-0.000000 0.000000 0.000000 
0.000000 -0.000000 0.000000 
0.000000 0.000000 0.000000 

0.000000 0.000000 0.000000 
0.000000 0.000000 0.000000 
0.000000 0.000000 0.000000 

-0.000000 0.000000 0.000000 
0.000000 -0.000000 0.000000 
0.000000 0.000000 0.000000 

-0.000000 0.000000 0.000000 
0.000000 -0.000000 0.000000 
0.000000 0.000000 0.000000 

-0.000000 0.000000 0.000000 
0.000000 -0.000000 0.000000 
0.000000 0.000000 0.000000 

-0.000000 -0.000000 0.000000 
0.000000 -0.000000 0.000000 
0.000000 0.000000 0.000000 

-0.000000 -0.000000 0.000000 
0.000000 -0.000000 0.000000 
0.000000 0.000000 0.000000 

-0.000000 0.000000 0.000000 
0.000000 -0.000000 0.000000 
0.000000 0.000000 0.000000 

-0.000000 0.000000 0.000000 
0.000000 -0.000000 0.000000 
0.000000 0.000000 0.000000 

-0.000000 -0.000000 0.000000 
0.000000 -0.000000 0.000000 
0.000000 0.000000 0.000000 

-0.000000 0.000000 0.000000 
0.000000 -0.000000 0.000000 
0.000000 0.000000 0.000000 

-0.000000 0.000000 0.000000 
0.000000 -0.000000 0.000000 
0.000000 0.000000 0.000000 

-0.000000 0.000000 0.000000 
0.000000 -0.000000 0.000000 
0.000000 0.000000 0.000000 

0.000000 -0.000000 0.000000 
0.000000 0.000000 0.000000 
0.000000 0.000000 0.000000 

0.000000 0.000000 0.000000 
0.000000 0.000000 0.000000 
0.000000 0.000000 0.000000 

-0.000000 0.000000 0.000000 
0.000000 -0.000000 0.000000 
0.000000 0.000000 0.000000 

-0.000000 -0.000000 0.000000 
0.000000 -0.000000 0.000000 
0.000000 0.000000 0.000000 

-0.000000 0.000000 0.000000 
0.000000 -0.000000 0.000000 
0.000000 0.000000 0.000000 

0.000000 0.000000 0.000000 
0.000000 0.000000 0.000000 
0.000000 0.000000 0.000000 

0.000000 0.000000 0.000000 
0.000000 0.000000 0.000000 
0.000000 0.000000 0.000000 

0.000000 -0.000000 0.000000 
0.000000 0.000000 0.000000 
0.000000 0.000000 0.000000 

0.000000 -0.000000 0.000000 
0.000000 0.000000 0.000000 
0.000000 0.000000 0.000000 

0.000000 0.000000 0.000000 
0.000000 0.000000 0.000000 
0.000000 0.000000 0.000000 

-0.000000 0.000000 0.000000 
0.000000 -0.000000 0.000000 
0.000000 0.000000 0.000000 

-0.000000 0.000000 0.000000 
0.000000 -0.000000 0.000000 
0.000000 0.000000 0.000000 

-0.000000 -0.000000 0.000000 
0.000000 -0.000000 0.000000 
0.000000 0.000000 0.000000 

-0.000000 0.000000 0.000000 
0.000000 -0.000000 0.000000 
0.000000 0.000000 0.000000 

-0.000000 0.000000 0.000000 
0.000000 -0.000000 0.000000 
0.000000 0.000000 0.000000 

-0.000000 0.000000 0.000000 
0.000000 -0.000000 0.000000 
0.000000 0.000000 0.000000 

0.000000 0.000000 0.000000 
0.000000 0.000000 0.000000 
0.000000 0.000000 0.000000 

0.000000 -0.000000 0.000000 
0.000000 0.000000 0.000000 
0.000000 0.000000 0.000000 

0.000000 -0.000000 0.000000 
0.000000 0.000000 0.000000 
0.000000 0.000000 0.000000 

0.000000 0.000000 0.000000 
0.000000 0.000000 0.000000 
0.000000 0.000000 0.000000 

0.000000 -0.000000 0.000000 
0.000000 0.000000 0.000000 
0.000000 0.000000 0.000000 

0.000000 -0.000000 0.000000 
0.000000 0.000000 0.000000 
0.000000 0.000000 0.000000 

0.000000 -0.000000 0.000000 
0.000000 0.000000 0.000000 
0.000000 0.000000 0.000000 

-0.000000 0.000000 0.000000 
0.000000 -0.000000 0.000000 
0.000000 0.000000 0.000000 

0.000000 -0.000000 0.000000 
0.000000 0.000000 0.000000 
0.000000 0.000000 0.000000 

-0.000000 0.000000 0.000000 
0.000000 -0.000000 0.000000 
0.000000 0.000000 0.000000 

0.000000 0.000000 0.000000 
0.000000 0.000000 0.000000 
0.000000 0.000000 0.000000 

0.000000 0.000000 0.000000 
0.000000 0.000000 0.000000 
0.000000 0.000000 0.000000 

0.000000 -0.000000 0.000000 
0.000000 0.000000 0.000000 
0.000000 0.000000 0.000000 

0.000000 0.000000 0.000000 
0.000000 0.000000 0.000000 
0.000000 0.000000 0.000000 

-0.000000 0.000000 0.000000 
0.000000 -0.000000 0.000000 
0.000000 0.000000 0.000000 

0.000000 0.000000 0.000000 
0.000000 0.000000 0.000000 
0.000000 0.000000 0.000000 

0.000000 0.000000 0.000000 
0.000000 0.000000 0.000000 
0.000000 0.000000 0.000000 

-0.000000 0.000000 0.000000 
0.000000 -0.000000 0.000000 
0.000000 0.000000 0.000000 

-0.000000 -0.000000 0.000000 
0.000000 -0.000000 0.000000 
0.000000 0.000000 0.000000 

-0.000000 -0.000000 0.000000 
0.000000 -0.000000 0.000000 
0.000000 0.000000 0.000000 

0.000000 -0.000000 0.000000 
0.000000 0.000000 0.000000 
0.000000 0.000000 0.000000 

-0.000000 -0.000000 0.000000 
0.000000 -0.000000 0.000000 
0.000000 0.000000 0.000000 

-0.000000 0.000000 0.000000 
0.000000 -0.000000 0.000000 
0.000000 0.000000 0.000000 

0.000000 -0.000000 0.000000 
0.000000 0.000000 0.000000 
0.000000 0.000000 0.000000 

0.000000 -0.000000 0.000000 
0.000000 0.000000 0.000000 
0.000000 0.000000 0.000000 

0.000000 -0.000000 0.000000 
0.000000 0.000000 0.000000 
0.000000 0.000000 0.000000 

0.000000 -0.000000 0.000000 
0.000000 0.000000 0.000000 
0.000000 0.000000 0.000000 

0.000000 -0.000000 0.000000 
0.000000 0.000000 0.000000 
0.000000 0.000000 0.000000 

0.000000 -0.000000 0.000000 
0.000000 0.000000 0.000000 
0.000000 0.000000 0.000000 

0.000000 -0.000000 0.000000 
0.000000 0.000000 0.000000 
0.000000 0.000000 0.000000 

-0.000000 0.000000 0.000000 
0.000000 -0.000000 0.000000 
0.000000 0.000000 0.000000 

0.000000 -0.000000 0.000000 
0.000000 0.000000 0.000000 
0.000000 0.000000 0.000000 

-0.000000 -0.000000 0.000000 
0.000000 -0.000000 0.000000 
0.000000 0.000000 0.000000 

-0.000000 -0.000000 0.000000 
0.000000 -0.000000 0.000000 
0.000000 0.000000 0.000000 

-0.000000 0.000000 0.000000 
0.000000 -0.000000 0.000000 
0.000000 0.000000 0.000000 

0.000000 0.000000 0.000000 
0.000000 0.000000 0.000000 
0.000000 0.000000 0.000000 

-0.000000 0.000000 0.000000 
0.000000 -0.000000 0.000000 
0.000000 0.000000 0.000000 

-0.000000 -0.000000 0.000000 
0.000000 -0.000000 0.000000 
0.000000 0.000000 0.000000 

0.000000 -0.000000 0.000000 
0.000000 0.000000 0.000000 
0.000000 0.000000 0.000000 

-0.000000 -0.000000 0.000000 
0.000000 -0.000000 0.000000 
0.000000 0.000000 0.000000 

0.000000 0.000000 0.000000 
0.000000 0.000000 0.000000 
0.000000 0.000000 0.000000 

-0.000000 0.000000 0.000000 
0.000000 -0.000000 0.000000 
0.000000 0.000000 0.000000 

0.000000 0.000000 0.000000 
0.000000 0.000000 0.000000 
0.000000 0.000000 0.000000 

-0.000000 0.000000 0.000000 
0.000000 -0.000000 0.000000 
0.000000 0.000000 0.000000 

0.000000 0.000000 0.000000 
0.000000 0.000000 0.000000 
0.000000 0.000000 0.000000 

0.000000 -0.000000 0.000000 
0.000000 0.000000 0.000000 
0.000000 0.000000 0.000000 

0.000000 -0.000000 0.000000 
0.000000 0.000000 0.000000 
0.000000 0.000000 0.000000 

0.000000 -0.000000 0.000000 
0.000000 0.000000 0.000000 
0.000000 0.000000 0.000000 

0.000000 -0.000000 0.000000 
0.000000 0.000000 0.000000 
0.000000 0.000000 0.000000 

-0.000000 0.000000 0.000000 
0.000000 -0.000000 0.000000 
0.000000 0.000000 0.000000 

-0.000000 0.000000 0.000000 
0.000000 -0.000000 0.000000 
0.000000 0.000000 0.000000 

-0.000000 -0.000000 0.000000 
0.000000 -0.000000 0.000000 
0.000000 0.000000 0.000000 

-0.000000 0.000000 0.000000 
0.000000 -0.000000 0.000000 
0.000000 0.000000 0.000000 

0.000000 0.000000 0.000000 
0.000000 0.000000 0.000000 
0.000000 0.000000 0.000000 

-0.000000 0.000000 0.000000 
0.000000 -0.000000 0.000000 
0.000000 0.000000 0.000000 

-0.000000 -0.000000 0.000000 
0.000000 -0.000000 0.000000 
0.000000 0.000000 0.000000 

-0.000000 0.000000 0.000000 
0.000000 -0.000000 0.000000 
0.000000 0.000000 0.000000 

-0.000000 0.000000 0.000000 
0.000000 -0.000000 0.000000 
0.000000 0.000000 0.000000 

0.000000 0.000000 0.000000 
0.000000 0.000000 0.000000 
0.000000 0.000000 0.000000 

-0.000000 0.000000 0.000000 
0.000000 -0.000000 0.000000 
0.000000 0.000000 0.000000 

-0.000000 -0.000000 0.000000 
0.000000 -0.000000 0.000000 
0.000000 0.000000 0.000000 

-0.000000 0.000000 0.000000 
0.000000 -0.000000 0.000000 
0.000000 0.000000 0.000000 

0.000000 0.000000 0.000000 
0.000000 0.000000 0.000000 
0.000000 0.000000 0.000000 

-0.000000 -0.000000 0.000000 
0.000000 -0.000000 0.000000 
0.000000 0.000000 0.000000 

-0.000000 0.000000 0.000000 
0.000000 -0.000000 0.000000 
0.000000 0.000000 0.000000 

-0.000000 0.000000 0.000000 
0.000000 -0.000000 0.000000 
0.000000 0.000000 0.000000 

-0.000000 0.000000 0.000000 
0.000000 -0.000000 0.000000 
0.000000 0.000000 0.000000 

-0.000000 -0.000000 0.000000 
0.000000 -0.000000 0.000000 
0.000000 0.000000 0.000000 

-0.000000 -0.000000 0.000000 
0.000000 -0.000000 0.000000 
0.000000 0.000000 0.000000 

0.000000 -0.000000 0.000000 
0.000000 0.000000 0.000000 
0.000000 0.000000 0.000000 

0.000000 0.000000 0.000000 
0.000000 0.000000 0.000000 
0.000000 0.000000 0.000000 

0.000000 -0.000000 0.000000 
0.000000 0.000000 0.000000 
0.000000 0.000000 0.000000 

0.000000 -0.000000 0.000000 
0.000000 0.000000 0.000000 
0.000000 0.000000 0.000000 

-0.000000 -0.000000 0.000000 
0.000000 -0.000000 0.000000 
0.000000 0.000000 0.000000 

0.000000 -0.000000 0.000000 
0.000000 0.000000 0.000000 
0.000000 0.000000 0.000000 

0.000000 0.000000 0.000000 
0.000000 0.000000 0.000000 
0.000000 0.000000 0.000000 

0.000000 -0.000000 0.000000 
0.000000 0.000000 0.000000 
0.000000 0.000000 0.000000 

0.000000 0.000000 0.000000 
0.000000 0.000000 0.000000 
0.000000 0.000000 0.000000 

0.000000 0.000000 0.000000 
0.000000 0.000000 0.000000 
0.000000 0.000000 0.000000 

0.000000 0.000000 0.000000 
0.000000 0.000000 0.000000 
0.000000 0.000000 0.000000 

-0.000000 0.000000 0.000000 
0.000000 -0.000000 0.000000 
0.000000 0.000000 0.000000 

0.000000 0.000000 0.000000 
0.000000 0.000000 0.000000 
0.000000 0.000000 0.000000 

0.000000 -0.000000 0.000000 
0.000000 0.000000 0.000000 
0.000000 0.000000 0.000000 

0.000000 0.000000 0.000000 
0.000000 0.000000 0.000000 
0.000000 0.000000 0.000000 

0.000000 -0.000000 0.000000 
0.000000 0.000000 0.000000 
0.000000 0.000000 0.000000 

-0.000000 -0.000000 0.000000 
0.000000 -0.000000 0.000000 
0.000000 0.000000 0.000000 

-0.000000 -0.000000 0.000000 
0.000000 -0.000000 0.000000 
0.000000 0.000000 0.000000 

-0.000000 -0.000000 0.000000 
0.000000 -0.000000 0.000000 
0.000000 0.000000 0.000000 

0.000000 -0.000000 0.000000 
0.000000 0.000000 0.000000 
0.000000 0.000000 0.000000 

0.000000 0.000000 0.000000 
0.000000 0.000000 0.000000 
0.000000 0.000000 0.000000 

0.000000 -0.000000 0.000000 
0.000000 0.000000 0.000000 
0.000000 0.000000 0.000000 

-0.000000 -0.000000 0.000000 
0.000000 -0.000000 0.000000 
0.000000 0.000000 0.000000 

-0.000000 0.000000 0.000000 
0.000000 -0.000000 0.000000 
0.000000 0.000000 0.000000 

-0.000000 0.000000 0.000000 
0.000000 -0.000000 0.000000 
0.000000 0.000000 0.000000 

0.000000 0.000000 0.000000 
0.000000 0.000000 0.000000 
0.000000 0.000000 0.000000 

0.000000 -0.000000 0.000000 
0.000000 0.000000 0.000000 
0.000000 0.000000 0.000000 

0.000000 -0.000000 0.000000 
0.000000 0.000000 0.000000 
0.000000 0.000000 0.000000 

0.000000 -0.000000 0.000000 
0.000000 0.000000 0.000000 
0.000000 0.000000 0.000000 

0.000000 -0.000000 0.000000 
0.000000 0.000000 0.000000 
0.000000 0.000000 0.000000 

-0.000000 0.000000 0.000000 
0.000000 -0.000000 0.000000 
0.000000 0.000000 0.000000 

-0.000000 -0.000000 0.000000 
0.000000 -0.000000 0.000000 
0.000000 0.000000 0.000000 

0.000000 -0.000000 0.000000 
0.000000 0.000000 0.000000 
0.000000 0.000000 0.000000 

-0.000000 -0.000000 0.000000 
0.000000 -0.000000 0.000000 
0.000000 0.000000 0.000000 

-0.000000 0.000000 0.000000 
0.000000 -0.000000 0.000000 
0.000000 0.000000 0.000000 

-0.000000 0.000000 0.000000 
0.000000 -0.000000 0.000000 
0.000000 0.000000 0.000000 

0.000000 -0.000000 0.000000 
0.000000 0.000000 0.000000 
0.000000 0.000000 0.000000 

-0.000000 0.000000 0.000000 
0.000000 -0.000000 0.000000 
0.000000 0.000000 0.000000 

-0.000000 0.000000 0.000000 
0.000000 -0.000000 0.000000 
0.000000 0.000000 0.000000 

-0.000000 0.000000 0.000000 
0.000000 -0.000000 0.000000 
0.000000 0.000000 0.000000 

-0.000000 0.000000 0.000000 
0.000000 -0.000000 0.000000 
0.000000 0.000000 0.000000 

0.000000 0.000000 0.000000 
0.000000 0.000000 0.000000 
0.000000 0.000000 0.000000 

0.000000 -0.000000 0.000000 
0.000000 0.000000 0.000000 
0.000000 0.000000 0.000000 

0.000000 -0.000000 0.000000 
0.000000 0.000000 0.000000 
0.000000 0.000000 0.000000 

0.000000 -0.000000 0.000000 
0.000000 0.000000 0.000000 
0.000000 0.000000 0.000000 

0.000000 -0.000000 0.000000 
0.000000 0.000000 0.000000 
0.000000 0.000000 0.000000 

-0.000000 0.000000 0.000000 
0.000000 -0.000000 0.000000 
0.000000 0.000000 0.000000 

-0.000000 0.000000 0.000000 
0.000000 -0.000000 0.000000 
0.000000 0.000000 0.000000 

-0.000000 0.000000 0.000000 
0.000000 -0.000000 0.000000 
0.000000 0.000000 0.000000 

-0.000000 0.000000 0.000000 
0.000000 -0.000000 0.000000 
0.000000 0.000000 0.000000 

-0.000000 0.000000 0.000000 
0.000000 -0.000000 0.000000 
0.000000 0.000000 0.000000 

0.000000 -0.000000 0.000000 
0.000000 0.000000 0.000000 
0.000000 0.000000 0.000000 

-0.000000 -0.000000 0.000000 
0.000000 -0.000000 0.000000 
0.000000 0.000000 0.000000 

0.000000 -0.000000 0.000000 
0.000000 0.000000 0.000000 
0.000000 0.000000 0.000000 

0.000000 -0.000000 0.000000 
0.000000 0.000000 0.000000 
0.000000 0.000000 0.000000 

-0.000000 -0.000000 0.000000 
0.000000 -0.000000 0.000000 
0.000000 0.000000 0.000000 

0.000000 0.000000 0.000000 
0.000000 0.000000 0.000000 
0.000000 0.000000 0.000000 

TENSORS STRAIN float 
0.000000 -0.000000 0.000000 
0.000000 -0.000000 0.000000 
0.000000 0.000000 0.000000 

0.000000 -0.000000 0.000000 
0.000000 -0.000000 0.000000 
0.000000 0.000000 0.000000 

0.000000 0.000000 0.000000 
0.000000 -0.000000 0.000000 
0.000000 0.000000 0.000000 

0.000000 -0.000000 0.000000 
0.000000 -0.000000 0.000000 
0.000000 0.000000 0.000000 

0.000000 -0.000000 0.000000 
0.000000 0.000000 0.000000 
0.000000 0.000000 0.000000 

0.000000 -0.000000 0.000000 
0.000000 0.000000 0.000000 
0.000000 0.000000 0.000000 

0.000000 -0.000000 0.000000 
0.000000 0.000000 0.000000 
0.000000 0.000000 0.000000 

-0.000000 -0.000000 0.000000 
0.000000 -0.000000 0.000000 
0.000000 0.000000 0.000000 

-0.000000 0.000000 0.000000 
0.000000 0.000000 0.000000 
0.000000 0.000000 0.000000 

-0.000000 0.000000 0.000000 
0.000000 0.000000 0.000000 
0.000000 0.000000 0.000000 

0.000000 -0.000000 0.000000 
0.000000 0.000000 0.000000 
0.000000 0.000000 0.000000 

0.000000 -0.000000 0.000000 
0.000000 -0.000000 0.000000 
0.000000 0.000000 0.000000 

0.000000 -0.000000 0.000000 
0.000000 0.000000 0.000000 
0.000000 0.000000 0.000000 

0.000000 -0.000000 0.000000 
0.000000 0.000000 0.000000 
0.000000 0.000000 0.000000 

-0.000000 0.000000 0.000000 
0.000000 0.000000 0.000000 
0.000000 0.000000 0.000000 

-0.000000 0.000000 0.000000 
0.000000 0.000000 0.000000 
0.000000 0.000000 0.000000 

-0.000000 -0.000000 0.000000 
0.000000 0.000000 0.000000 
0.000000 0.000000 0.000000 

-0.000000 0.000000 0.000000 
0.000000 0.000000 0.000000 
0.000000 0.000000 0.000000 

-0.000000 -0.000000 0.000000 
0.000000 -0.000000 0.000000 
0.000000 0.000000 0.000000 

0.000000 0.000000 0.000000 
0.000000 -0.000000 0.000000 
0.000000 0.000000 0.000000 

0.000000 0.000000 0.000000 
0.000000 -0.000000 0.000000 
0.000000 0.000000 0.000000 

0.000000 0.000000 0.000000 
0.000000 -0.000000 0.000000 
0.000000 0.000000 0.000000 

0.000000 0.000000 0.000000 
0.000000 -0.000000 0.000000 
0.000000 0.000000 0.000000 

-0.000000 0.000000 0.000000 
0.000000 -0.000000 0.000000 
0.000000 0.000000 0.000000 

-0.000000 0.000000 0.000000 
0.000000 -0.000000 0.000000 
0.000000 0.000000 0.000000 

0.000000 -0.000000 0.000000 
0.000000 -0.000000 0.000000 
0.000000 0.000000 0.000000 

0.000000 -0.000000 0.000000 
0.000000 -0.000000 0.000000 
0.000000 0.000000 0.000000 

0.000000 0.000000 0.000000 
0.000000 -0.000000 0.000000 
0.000000 0.000000 0.000000 

0.000000 0.000000 0.000000 
0.000000 -0.000000 0.000000 
0.000000 0.000000 0.000000 

-0.000000 -0.000000 0.000000 
0.000000 -0.000000 0.000000 
0.000000 0.000000 0.000000 

0.000000 0.000000 0.000000 
0.000000 -0.000000 0.000000 
0.000000 0.000000 0.000000 

-0.000000 0.000000 0.000000 
0.000000 -0.000000 0.000000 
0.000000 0.000000 0.000000 

0.000000 0.000000 0.000000 
0.000000 -0.000000 0.000000 
0.000000 0.000000 0.000000 

0.000000 -0.000000 0.000000 
0.000000 0.000000 0.000000 
0.000000 0.000000 0.000000 

0.000000 0.000000 0.000000 
0.000000 0.000000 0.000000 
0.000000 0.000000 0.000000 

-0.000000 0.000000 0.000000 
0.000000 -0.000000 0.000000 
0.000000 0.000000 0.000000 

-0.000000 -0.000000 0.000000 
0.000000 -0.000000 0.000000 
0.000000 0.000000 0.000000 

-0.000000 0.000000 0.000000 
0.000000 -0.000000 0.000000 
0.000000 0.000000 0.000000 

-0.000000 0.000000 0.000000 
0.000000 0.000000 0.000000 
0.000000 0.000000 0.000000 

-0.000000 0.000000 0.000000 
0.000000 0.000000 0.000000 
0.000000 0.000000 0.000000 

-0.000000 -0.000000 0.000000 
0.000000 0.000000 0.000000 
0.000000 0.000000 0.000000 

0.000000 -0.000000 0.000000 
0.000000 0.000000 0.000000 
0.000000 0.000000 0.000000 

0.000000 0.000000 0.000000 
0.000000 0.000000 0.000000 
0.000000 0.000000 0.000000 

-0.000000 0.000000 0.000000 
0.000000 -0.000000 0.000000 
0.000000 0.000000 0.000000 

-0.000000 0.000000 0.000000 
0.000000 -0.000000 0.000000 
0.000000 0.000000 0.000000 

-0.000000 -0.000000 0.000000 
0.000000 -0.000000 0.000000 
0.000000 0.000000 0.000000 

-0.000000 0.000000 0.000000 
0.000000 -0.000000 0.000000 
0.000000 0.000000 0.000000 

-0.000000 0.000000 0.000000 
0.000000 -0.000000 0.000000 
0.000000 0.000000 0.000000 

-0.000000 0.000000 0.000000 
0.000000 0.000000 0.000000 
0.000000 0.000000 0.000000 

-0.000000 0.000000 0.000000 
0.000000 0.000000 0.000000 
0.000000 0.000000 0.000000 

-0.000000 -0.000000 0.000000 
0.000000 0.000000 0.000000 
0.000000 0.000000 0.000000 

0.000000 -0.000000 0.000000 
0.000000 0.000000 0.000000 
0.000000 0.000000 0.000000 

0.000000 0.000000 0.000000 
0.000000 0.000000 0.000000 
0.000000 0.000000 0.000000 

0.000000 -0.000000 0.000000 
0.000000 0.000000 0.000000 
0.000000 0.000000 0.000000 

0.000000 -0.000000 0.000000 
0.000000 0.000000 0.000000 
0.000000 0.000000 0.000000 

0.000000 -0.000000 0.000000 
0.000000 0.000000 0.000000 
0.000000 0.000000 0.000000 

0.000000 0.000000 0.000000 
0.000000 -0.000000 0.000000 
0.000000 0.000000 0.000000 

0.000000 -0.000000 0.000000 
0.000000 0.000000 0.000000 
0.000000 0.000000 0.000000 

0.000000 0.000000 0.000000 
0.000000 -0.000000 0.000000 
0.000000 0.000000 0.000000 

0.000000 0.000000 0.000000 
0.000000 0.000000 0.000000 
0.000000 0.000000 0.000000 

0.000000 0.000000 0.000000 
0.000000 0.000000 0.000000 
0.000000 0.000000 0.000000 

0.000000 -0.000000 0.000000 
0.000000 0.000000 0.000000 
0.000000 0.000000 0.000000 

0.000000 0.000000 0.000000 
0.000000 0.000000 0.000000 
0.000000 0.000000 0.000000 

0.000000 0.000000 0.000000 
0.000000 -0.000000 0.000000 
0.000000 0.000000 0.000000 

0.000000 0.000000 0.000000 
0.000000 0.000000 0.000000 
0.000000 0.000000 0.000000 

0.000000 0.000000 0.000000 
0.000000 0.000000 0.000000 
0.000000 0.000000 0.000000 

0.000000 0.000000 0.000000 
0.000000 -0.000000 0.000000 
0.000000 0.000000 0.000000 

0.000000 -0.000000 0.000000 
0.000000 -0.000000 0.000000 
0.000000 0.000000 0.000000 

0.000000 -0.000000 0.000000 
0.000000 -0.000000 0.000000 
0.000000 0.000000 0.000000 

0.000000 -0.000000 0.000000 
0.000000 0.000000 0.000000 
0.000000 0.000000 0.000000 

0.000000 -0.000000 0.000000 
0.000000 -0.000000 0.000000 
0.000000 0.000000 0.000000 

0.000000 0.000000 0.000000 
0.000000 -0.000000 0.000000 
0.000000 0.000000 0.000000 

0.000000 -0.000000 0.000000 
0.000000 0.000000 0.000000 
0.000000 0.000000 0.000000 

0.000000 -0.000000 0.000000 
0.000000 0.000000 0.000000 
0.000000 0.000000 0.000000 

0.000000 -0.000000 0.000000 
0.000000 0.000000 0.000000 
0.000000 0.000000 0.000000 

-0.000000 -0.000000 0.000000 
0.000000 0.000000 0.000000 
0.000000 0.000000 0.000000 

0.000000 -0.000000 0.000000 
0.000000 0.000000 0.000000 
0.000000 0.000000 0.000000 

0.000000 -0.000000 0.000000 
0.000000 0.000000 0.000000 
0.000000 0.000000 0.000000 

0.000000 -0.000000 0.000000 
0.000000 0.000000 0.000000 
0.000000 0.000000 0.000000 

-0.000000 0.000000 0.000000 
0.000000 -0.000000 0.000000 
0.000000 0.000000 0.000000 

0.000000 -0.000000 0.000000 
0.000000 0.000000 0.000000 
0.000000 0.000000 0.000000 

0.000000 -0.000000 0.000000 
0.000000 -0.000000 0.000000 
0.000000 0.000000 0.000000 

0.000000 -0.000000 0.000000 
0.000000 -0.000000 0.000000 
0.000000 0.000000 0.000000 

0.000000 0.000000 0.000000 
0.000000 -0.000000 0.000000 
0.000000 0.000000 0.000000 

-0.000000 0.000000 0.000000 
0.000000 0.000000 0.000000 
0.000000 0.000000 0.000000 

-0.000000 0.000000 0.000000 
0.000000 -0.000000 0.000000 
0.000000 0.000000 0.000000 

-0.000000 -0.000000 0.000000 
0.000000 0.000000 0.000000 
0.000000 0.000000 0.000000 

-0.000000 -0.000000 0.000000 
0.000000 0.000000 0.000000 
0.000000 0.000000 0.000000 

-0.000000 -0.000000 0.000000 
0.000000 -0.000000 0.000000 
0.000000 0.000000 0.000000 

0.000000 0.000000 0.000000 
0.000000 0.000000 0.000000 
0.000000 0.000000 0.000000 

0.000000 0.000000 0.000000 
0.000000 -0.000000 0.000000 
0.000000 0.000000 0.000000 

-0.000000 0.000000 0.000000 
0.000000 0.000000 0.000000 
0.000000 0.000000 0.000000 

-0.000000 0.000000 0.000000 
0.000000 0.000000 0.000000 
0.000000 0.000000 0.000000 

0.000000 0.000000 0.000000 
0.000000 0.000000 0.000000 
0.000000 0.000000 0.000000 

-0.000000 -0.000000 0.000000 
0.000000 0.000000 0.000000 
0.000000 0.000000 0.000000 

-0.000000 -0.000000 0.000000 
0.000000 0.000000 0.000000 
0.000000 0.000000 0.000000 

-0.000000 -0.000000 0.000000 
0.000000 0.000000 0.000000 
0.000000 0.000000 0.000000 

0.000000 -0.000000 0.000000 
0.000000 0.000000 0.000000 
0.000000 0.000000 0.000000 

0.000000 0.000000 0.000000 
0.000000 -0.000000 0.000000 
0.000000 0.000000 0.000000 

0.000000 0.000000 0.000000 
0.000000 -0.000000 0.000000 
0.000000 0.000000 0.000000 

-0.000000 -0.000000 0.000000 
0.000000 0.000000 0.000000 
0.000000 0.000000 0.000000 

0.000000 0.000000 0.000000 
0.000000 -0.000000 0.000000 
0.000000 0.000000 0.000000 

0.000000 0.000000 0.000000 
0.000000 0.000000 0.000000 
0.000000 0.000000 0.000000 

0.000000 0.000000 0.000000 
0.000000 -0.000000 0.000000 
0.000000 0.000000 0.000000 

-0.000000 -0.000000 0.000000 
0.000000 -0.000000 0.000000 
0.000000 0.000000 0.000000 

0.000000 0.000000 0.000000 
0.000000 -0.000000 0.000000 
0.000000 0.000000 0.000000 

0.000000 0.000000 0.000000 
0.000000 -0.000000 0.000000 
0.000000 0.000000 0.000000 

-0.000000 0.000000 0.000000 
0.000000 0.000000 0.000000 
0.000000 0.000000 0.000000 

-0.000000 0.000000 0.000000 
0.000000 -0.000000 0.000000 
0.000000 0.000000 0.000000 

-0.000000 -0.000000 0.000000 
0.000000 -0.000000 0.000000 
0.000000 0.000000 0.000000 

-0.000000 0.000000 0.000000 
0.000000 -0.000000 0.000000 
0.000000 0.000000 0.000000 

-0.000000 0.000000 0.000000 
0.000000 0.000000 0.000000 
0.000000 0.000000 0.000000 

-0.000000 -0.000000 0.000000 
0.000000 0.000000 0.000000 
0.000000 0.000000 0.000000 

-0.000000 0.000000 0.000000 
0.000000 -0.000000 0.000000 
0.000000 0.000000 0.000000 

-0.000000 0.000000 0.000000 
0.000000 -0.000000 0.000000 
0.000000 0.000000 0.000000 

-0.000000 0.000000 0.000000 
0.000000 -0.000000 0.000000 
0.000000 0.000000 0.000000 

-0.000000 -0.000000 0.000000 
0.000000 -0.000000 0.000000 
0.000000 0.000000 0.000000 

0.000000 -0.000000 0.000000 
0.000000 -0.000000 0.000000 
0.000000 0.000000 0.000000 

0.000000 -0.000000 0.000000 
0.000000 0.000000 0.000000 
0.000000 0.000000 0.000000 

-0.000000 0.000000 0.000000 
0.000000 0.000000 0.000000 
0.000000 0.000000 0.000000 

-0.000000 -0.000000 0.000000 
0.000000 0.000000 0.000000 
0.000000 0.000000 0.000000 

-0.000000 -0.000000 0.000000 
0.000000 0.000000 0.000000 
0.000000 0.000000 0.000000 

-0.000000 -0.000000 0.000000 
0.000000 -0.000000 0.000000 
0.000000 0.000000 0.000000 

-0.000000 -0.000000 0.000000 
0.000000 0.000000 0.000000 
0.000000 0.000000 0.000000 

-0.000000 0.000000 0.000000 
0.000000 0.000000 0.000000 
0.000000 0.000000 0.000000 

0.000000 -0.000000 0.000000 
0.000000 0.000000 0.000000 
0.000000 0.000000 0.000000 

0.000000 0.000000 0.000000 
0.000000 0.000000 0.000000 
0.000000 0.000000 0.000000 

0.000000 0.000000 0.000000 
0.000000 0.000000 0.000000 
0.000000 0.000000 0.000000 

0.000000 0.000000 0.000000 
0.000000 -0.000000 0.000000 
0.000000 0.000000 0.000000 

0.000000 0.000000 0.000000 
0.000000 -0.000000 0.000000 
0.000000 0.000000 0.000000 

0.000000 0.000000 0.000000 
0.000000 0.000000 0.000000 
0.000000 0.000000 0.000000 

0.000000 -0.000000 0.000000 
0.000000 0.000000 0.000000 
0.000000 0.000000 0.000000 

0.000000 0.000000 0.000000 
0.000000 0.000000 0.000000 
0.000000 0.000000 0.000000 

0.000000 -0.000000 0.000000 
0.000000 0.000000 0.000000 
0.000000 0.000000 0.000000 

0.000000 -0.000000 0.000000 
0.000000 -0.000000 0.000000 
0.000000 0.000000 0.000000 

0.000000 -0.000000 0.000000 
0.000000 -0.000000 0.000000 
0.000000 0.000000 0.000000 

0.000000 -0.000000 0.000000 
0.000000 -0.000000 0.000000 
0.000000 0.000000 0.000000 

0.000000 -0.000000 0.000000 
0.000000 0.000000 0.000000 
0.000000 0.000000 0.000000 

0.000000 0.000000 0.000000 
0.000000 0.000000 0.000000 
0.000000 0.000000 0.000000 

0.000000 -0.000000 0.000000 
0.000000 0.000000 0.000000 
0.000000 0.000000 0.000000 

-0.000000 -0.000000 0.000000 
0.000000 -0.000000 0.000000 
0.000000 0.000000 0.000000 

0.000000 0.000000 0.000000 
0.000000 -0.000000 0.000000 
0.000000 0.000000 0.000000 

0.000000 0.000000 0.000000 
0.000000 -0.000000 0.000000 
0.000000 0.000000 0.000000 

0.000000 0.000000 0.000000 
0.000000 -0.000000 0.000000 
0.000000 0.000000 0.000000 

0.000000 -0.000000 0.000000 
0.000000 0.000000 0.000000 
0.000000 0.000000 0.000000 

0.000000 -0.000000 0.000000 
0.000000 0.000000 0.000000 
0.000000 0.000000 0.000000 

-0.000000 -0.000000 0.000000 
0.000000 0.000000 0.000000 
0.000000 0.000000 0.000000 

-0.000000 -0.000000 0.000000 
0.000000 0.000000 0.000000 
0.000000 0.000000 0.000000 

-0.000000 0.000000 0.000000 
0.000000 -0.000000 0.000000 
0.000000 0.000000 0.000000 

-0.000000 -0.000000 0.000000 
0.000000 -0.000000 0.000000 
0.000000 0.000000 0.000000 

0.000000 -0.000000 0.000000 
0.000000 -0.000000 0.000000 
0.000000 0.000000 0.000000 

0.000000 -0.000000 0.000000 
0.000000 -0.000000 0.000000 
0.000000 0.000000 0.000000 

0.000000 0.000000 0.000000 
0.000000 -0.000000 0.000000 
0.000000 0.000000 0.000000 

0.000000 0.000000 0.000000 
0.000000 -0.000000 0.000000 
0.0000