# vtk DataFile Version 3.0 
vtk output 
ASCII 
DATASET UNSTRUCTURED_GRID 
POINTS 175 float 
-0.026061 -0.092855 0.000000 
-0.106992 -0.024800 0.000000 
-0.054870 -0.033032 0.000000 
-0.028809 0.012851 0.000000 
-0.186430 0.039276 0.000000 
-0.137056 0.036750 0.000000 
-0.114311 0.090397 0.000000 
-0.058186 0.074731 0.000000 
-0.029377 0.114909 0.000000 
-0.265318 0.102432 0.000000 
-0.217198 0.101632 0.000000 
-0.196633 0.158929 0.000000 
-0.143120 0.150220 0.000000 
-0.116563 0.197488 0.000000 
-0.058945 0.177843 0.000000 
-0.029568 0.215963 0.000000 
-0.344206 0.165587 0.000000 
-0.296791 0.165595 0.000000 
-0.278030 0.225537 0.000000 
-0.225992 0.219671 0.000000 
-0.201664 0.271788 0.000000 
-0.145749 0.258314 0.000000 
-0.117890 0.302657 0.000000 
-0.059328 0.279951 0.000000 
-0.029759 0.317017 0.000000 
-0.058559 -0.133606 0.000000 
-0.162226 -0.154449 0.000000 
-0.123292 -0.118831 0.000000 
-0.142917 -0.069847 0.000000 
-0.261851 -0.176605 0.000000 
-0.229092 -0.139578 0.000000 
-0.256854 -0.088346 0.000000 
-0.209613 -0.054234 0.000000 
-0.223062 -0.006660 0.000000 
-0.360414 -0.198905 0.000000 
-0.329787 -0.161782 0.000000 
-0.361761 -0.109980 0.000000 
-0.321587 -0.073571 0.000000 
-0.341985 -0.023337 0.000000 
-0.290702 0.009462 0.000000 
-0.302189 0.056197 0.000000 
-0.458977 -0.221205 0.000000 
-0.429420 -0.184130 0.000000 
-0.464588 -0.132089 0.000000 
-0.427556 -0.095061 0.000000 
-0.453135 -0.043546 0.000000 
-0.407738 -0.008231 0.000000 
-0.425037 0.041197 0.000000 
-0.370772 0.072826 0.000000 
-0.381315 0.119054 0.000000 
-0.046960 -0.184421 0.000000 
-0.095301 -0.278467 0.000000 
-0.098873 -0.225820 0.000000 
-0.149405 -0.210622 0.000000 
-0.140093 -0.370171 0.000000 
-0.148617 -0.321473 0.000000 
-0.205981 -0.311235 0.000000 
-0.203197 -0.253032 0.000000 
-0.248777 -0.233886 0.000000 
-0.184111 -0.461135 0.000000 
-0.194039 -0.414044 0.000000 
-0.254475 -0.406744 0.000000 
-0.257893 -0.352634 0.000000 
-0.309886 -0.337262 0.000000 
-0.303554 -0.276717 0.000000 
-0.347255 -0.256559 0.000000 
-0.228129 -0.552098 0.000000 
-0.238687 -0.505874 0.000000 
-0.301302 -0.500922 0.000000 
-0.307162 -0.448883 0.000000 
-0.363386 -0.436762 0.000000 
-0.362692 -0.379251 0.000000 
-0.412122 -0.361958 0.000000 
-0.403017 -0.299811 0.000000 
-0.445733 -0.279232 0.000000 
-0.000000 -0.207036 0.000000 
0.043388 -0.303467 0.000000 
-0.000000 -0.273434 0.000000 
-0.043388 -0.303467 0.000000 
0.087158 -0.395663 0.000000 
0.043769 -0.371965 0.000000 
-0.000000 -0.410431 0.000000 
-0.043769 -0.371965 0.000000 
-0.087158 -0.395663 0.000000 
0.130831 -0.486793 0.000000 
0.087824 -0.465194 0.000000 
0.044436 -0.507894 0.000000 
-0.000000 -0.476829 0.000000 
-0.044436 -0.507894 0.000000 
-0.087824 -0.465194 0.000000 
-0.130831 -0.486793 0.000000 
0.174505 -0.577923 0.000000 
0.131782 -0.557357 0.000000 
0.088871 -0.603223 0.000000 
0.044532 -0.575359 0.000000 
-0.000000 -0.611759 0.000000 
-0.044532 -0.575359 0.000000 
-0.088871 -0.603223 0.000000 
-0.131782 -0.557357 0.000000 
-0.174505 -0.577923 0.000000 
0.046960 -0.184421 0.000000 
0.149405 -0.210622 0.000000 
0.098873 -0.225820 0.000000 
0.095301 -0.278467 0.000000 
0.248777 -0.233886 0.000000 
0.203197 -0.253032 0.000000 
0.205981 -0.311235 0.000000 
0.148617 -0.321473 0.000000 
0.140093 -0.370171 0.000000 
0.347255 -0.256559 0.000000 
0.303554 -0.276717 0.000000 
0.309886 -0.337262 0.000000 
0.257893 -0.352634 0.000000 
0.254475 -0.406744 0.000000 
0.194039 -0.414044 0.000000 
0.184111 -0.461135 0.000000 
0.445733 -0.279232 0.000000 
0.403017 -0.299811 0.000000 
0.412122 -0.361958 0.000000 
0.362692 -0.379251 0.000000 
0.363386 -0.436762 0.000000 
0.307162 -0.448883 0.000000 
0.301302 -0.500922 0.000000 
0.238687 -0.505874 0.000000 
0.228129 -0.552098 0.000000 
0.058559 -0.133606 0.000000 
0.142917 -0.069847 0.000000 
0.123292 -0.118831 0.000000 
0.162226 -0.154449 0.000000 
0.223062 -0.006660 0.000000 
0.209613 -0.054234 0.000000 
0.256854 -0.088346 0.000000 
0.229092 -0.139578 0.000000 
0.261851 -0.176605 0.000000 
0.302189 0.056197 0.000000 
0.290702 0.009462 0.000000 
0.341985 -0.023337 0.000000 
0.321587 -0.073571 0.000000 
0.361761 -0.109980 0.000000 
0.329787 -0.161782 0.000000 
0.360414 -0.198905 0.000000 
0.381315 0.119054 0.000000 
0.370772 0.072826 0.000000 
0.425037 0.041197 0.000000 
0.407738 -0.008231 0.000000 
0.453135 -0.043546 0.000000 
0.427556 -0.095061 0.000000 
0.464588 -0.132089 0.000000 
0.429420 -0.184130 0.000000 
0.458977 -0.221205 0.000000 
0.026061 -0.092855 0.000000 
0.028809 0.012851 0.000000 
0.054870 -0.033032 0.000000 
0.106992 -0.024800 0.000000 
0.029377 0.114909 0.000000 
0.058186 0.074731 0.000000 
0.114311 0.090397 0.000000 
0.137056 0.036750 0.000000 
0.186430 0.039276 0.000000 
0.029568 0.215963 0.000000 
0.058945 0.177843 0.000000 
0.116563 0.197488 0.000000 
0.143120 0.150220 0.000000 
0.196633 0.158929 0.000000 
0.217198 0.101632 0.000000 
0.265318 0.102432 0.000000 
0.029759 0.317017 0.000000 
0.059328 0.279951 0.000000 
0.117890 0.302657 0.000000 
0.145749 0.258314 0.000000 
0.201664 0.271788 0.000000 
0.225992 0.219671 0.000000 
0.278030 0.225537 0.000000 
0.296791 0.165595 0.000000 
0.344206 0.165587 0.000000 
CELLS 175 350 
1 0 
1 1 
1 2 
1 3 
1 4 
1 5 
1 6 
1 7 
1 8 
1 9 
1 10 
1 11 
1 12 
1 13 
1 14 
1 15 
1 16 
1 17 
1 18 
1 19 
1 20 
1 21 
1 22 
1 23 
1 24 
1 25 
1 26 
1 27 
1 28 
1 29 
1 30 
1 31 
1 32 
1 33 
1 34 
1 35 
1 36 
1 37 
1 38 
1 39 
1 40 
1 41 
1 42 
1 43 
1 44 
1 45 
1 46 
1 47 
1 48 
1 49 
1 50 
1 51 
1 52 
1 53 
1 54 
1 55 
1 56 
1 57 
1 58 
1 59 
1 60 
1 61 
1 62 
1 63 
1 64 
1 65 
1 66 
1 67 
1 68 
1 69 
1 70 
1 71 
1 72 
1 73 
1 74 
1 75 
1 76 
1 77 
1 78 
1 79 
1 80 
1 81 
1 82 
1 83 
1 84 
1 85 
1 86 
1 87 
1 88 
1 89 
1 90 
1 91 
1 92 
1 93 
1 94 
1 95 
1 96 
1 97 
1 98 
1 99 
1 100 
1 101 
1 102 
1 103 
1 104 
1 105 
1 106 
1 107 
1 108 
1 109 
1 110 
1 111 
1 112 
1 113 
1 114 
1 115 
1 116 
1 117 
1 118 
1 119 
1 120 
1 121 
1 122 
1 123 
1 124 
1 125 
1 126 
1 127 
1 128 
1 129 
1 130 
1 131 
1 132 
1 133 
1 134 
1 135 
1 136 
1 137 
1 138 
1 139 
1 140 
1 141 
1 142 
1 143 
1 144 
1 145 
1 146 
1 147 
1 148 
1 149 
1 150 
1 151 
1 152 
1 153 
1 154 
1 155 
1 156 
1 157 
1 158 
1 159 
1 160 
1 161 
1 162 
1 163 
1 164 
1 165 
1 166 
1 167 
1 168 
1 169 
1 170 
1 171 
1 172 
1 173 
1 174 
CELL_TYPES 175 
1 
1 
1 
1 
1 
1 
1 
1 
1 
1 
1 
1 
1 
1 
1 
1 
1 
1 
1 
1 
1 
1 
1 
1 
1 
1 
1 
1 
1 
1 
1 
1 
1 
1 
1 
1 
1 
1 
1 
1 
1 
1 
1 
1 
1 
1 
1 
1 
1 
1 
1 
1 
1 
1 
1 
1 
1 
1 
1 
1 
1 
1 
1 
1 
1 
1 
1 
1 
1 
1 
1 
1 
1 
1 
1 
1 
1 
1 
1 
1 
1 
1 
1 
1 
1 
1 
1 
1 
1 
1 
1 
1 
1 
1 
1 
1 
1 
1 
1 
1 
1 
1 
1 
1 
1 
1 
1 
1 
1 
1 
1 
1 
1 
1 
1 
1 
1 
1 
1 
1 
1 
1 
1 
1 
1 
1 
1 
1 
1 
1 
1 
1 
1 
1 
1 
1 
1 
1 
1 
1 
1 
1 
1 
1 
1 
1 
1 
1 
1 
1 
1 
1 
1 
1 
1 
1 
1 
1 
1 
1 
1 
1 
1 
1 
1 
1 
1 
1 
1 
1 
1 
1 
1 
1 
1 
POINT_DATA 175 
VECTORS X_GC float 
-0.026061 -0.092855 0.000000 
-0.106992 -0.024800 0.000000 
-0.054870 -0.033032 0.000000 
-0.028809 0.012851 0.000000 
-0.186430 0.039276 0.000000 
-0.137056 0.036750 0.000000 
-0.114311 0.090397 0.000000 
-0.058186 0.074731 0.000000 
-0.029377 0.114909 0.000000 
-0.265318 0.102432 0.000000 
-0.217198 0.101632 0.000000 
-0.196633 0.158929 0.000000 
-0.143120 0.150220 0.000000 
-0.116563 0.197488 0.000000 
-0.058945 0.177843 0.000000 
-0.029568 0.215963 0.000000 
-0.344206 0.165587 0.000000 
-0.296791 0.165595 0.000000 
-0.278030 0.225537 0.000000 
-0.225992 0.219671 0.000000 
-0.201664 0.271788 0.000000 
-0.145749 0.258314 0.000000 
-0.117890 0.302657 0.000000 
-0.059328 0.279951 0.000000 
-0.029759 0.317017 0.000000 
-0.058559 -0.133606 0.000000 
-0.162226 -0.154449 0.000000 
-0.123292 -0.118831 0.000000 
-0.142917 -0.069847 0.000000 
-0.261851 -0.176605 0.000000 
-0.229092 -0.139578 0.000000 
-0.256854 -0.088346 0.000000 
-0.209613 -0.054234 0.000000 
-0.223062 -0.006660 0.000000 
-0.360414 -0.198905 0.000000 
-0.329787 -0.161782 0.000000 
-0.361761 -0.109980 0.000000 
-0.321587 -0.073571 0.000000 
-0.341985 -0.023337 0.000000 
-0.290702 0.009462 0.000000 
-0.302189 0.056197 0.000000 
-0.458977 -0.221205 0.000000 
-0.429420 -0.184130 0.000000 
-0.464588 -0.132089 0.000000 
-0.427556 -0.095061 0.000000 
-0.453135 -0.043546 0.000000 
-0.407738 -0.008231 0.000000 
-0.425037 0.041197 0.000000 
-0.370772 0.072826 0.000000 
-0.381315 0.119054 0.000000 
-0.046960 -0.184421 0.000000 
-0.095301 -0.278467 0.000000 
-0.098873 -0.225820 0.000000 
-0.149405 -0.210622 0.000000 
-0.140093 -0.370171 0.000000 
-0.148617 -0.321473 0.000000 
-0.205981 -0.311235 0.000000 
-0.203197 -0.253032 0.000000 
-0.248777 -0.233886 0.000000 
-0.184111 -0.461135 0.000000 
-0.194039 -0.414044 0.000000 
-0.254475 -0.406744 0.000000 
-0.257893 -0.352634 0.000000 
-0.309886 -0.337262 0.000000 
-0.303554 -0.276717 0.000000 
-0.347255 -0.256559 0.000000 
-0.228129 -0.552098 0.000000 
-0.238687 -0.505874 0.000000 
-0.301302 -0.500922 0.000000 
-0.307162 -0.448883 0.000000 
-0.363386 -0.436762 0.000000 
-0.362692 -0.379251 0.000000 
-0.412122 -0.361958 0.000000 
-0.403017 -0.299811 0.000000 
-0.445733 -0.279232 0.000000 
-0.000000 -0.207036 0.000000 
0.043388 -0.303467 0.000000 
-0.000000 -0.273434 0.000000 
-0.043388 -0.303467 0.000000 
0.087158 -0.395663 0.000000 
0.043769 -0.371965 0.000000 
-0.000000 -0.410431 0.000000 
-0.043769 -0.371965 0.000000 
-0.087158 -0.395663 0.000000 
0.130831 -0.486793 0.000000 
0.087824 -0.465194 0.000000 
0.044436 -0.507894 0.000000 
-0.000000 -0.476829 0.000000 
-0.044436 -0.507894 0.000000 
-0.087824 -0.465194 0.000000 
-0.130831 -0.486793 0.000000 
0.174505 -0.577923 0.000000 
0.131782 -0.557357 0.000000 
0.088871 -0.603223 0.000000 
0.044532 -0.575359 0.000000 
-0.000000 -0.611759 0.000000 
-0.044532 -0.575359 0.000000 
-0.088871 -0.603223 0.000000 
-0.131782 -0.557357 0.000000 
-0.174505 -0.577923 0.000000 
0.046960 -0.184421 0.000000 
0.149405 -0.210622 0.000000 
0.098873 -0.225820 0.000000 
0.095301 -0.278467 0.000000 
0.248777 -0.233886 0.000000 
0.203197 -0.253032 0.000000 
0.205981 -0.311235 0.000000 
0.148617 -0.321473 0.000000 
0.140093 -0.370171 0.000000 
0.347255 -0.256559 0.000000 
0.303554 -0.276717 0.000000 
0.309886 -0.337262 0.000000 
0.257893 -0.352634 0.000000 
0.254475 -0.406744 0.000000 
0.194039 -0.414044 0.000000 
0.184111 -0.461135 0.000000 
0.445733 -0.279232 0.000000 
0.403017 -0.299811 0.000000 
0.412122 -0.361958 0.000000 
0.362692 -0.379251 0.000000 
0.363386 -0.436762 0.000000 
0.307162 -0.448883 0.000000 
0.301302 -0.500922 0.000000 
0.238687 -0.505874 0.000000 
0.228129 -0.552098 0.000000 
0.058559 -0.133606 0.000000 
0.142917 -0.069847 0.000000 
0.123292 -0.118831 0.000000 
0.162226 -0.154449 0.000000 
0.223062 -0.006660 0.000000 
0.209613 -0.054234 0.000000 
0.256854 -0.088346 0.000000 
0.229092 -0.139578 0.000000 
0.261851 -0.176605 0.000000 
0.302189 0.056197 0.000000 
0.290702 0.009462 0.000000 
0.341985 -0.023337 0.000000 
0.321587 -0.073571 0.000000 
0.361761 -0.109980 0.000000 
0.329787 -0.161782 0.000000 
0.360414 -0.198905 0.000000 
0.381315 0.119054 0.000000 
0.370772 0.072826 0.000000 
0.425037 0.041197 0.000000 
0.407738 -0.008231 0.000000 
0.453135 -0.043546 0.000000 
0.427556 -0.095061 0.000000 
0.464588 -0.132089 0.000000 
0.429420 -0.184130 0.000000 
0.458977 -0.221205 0.000000 
0.026061 -0.092855 0.000000 
0.028809 0.012851 0.000000 
0.054870 -0.033032 0.000000 
0.106992 -0.024800 0.000000 
0.029377 0.114909 0.000000 
0.058186 0.074731 0.000000 
0.114311 0.090397 0.000000 
0.137056 0.036750 0.000000 
0.186430 0.039276 0.000000 
0.029568 0.215963 0.000000 
0.058945 0.177843 0.000000 
0.116563 0.197488 0.000000 
0.143120 0.150220 0.000000 
0.196633 0.158929 0.000000 
0.217198 0.101632 0.000000 
0.265318 0.102432 0.000000 
0.029759 0.317017 0.000000 
0.059328 0.279951 0.000000 
0.117890 0.302657 0.000000 
0.145749 0.258314 0.000000 
0.201664 0.271788 0.000000 
0.225992 0.219671 0.000000 
0.278030 0.225537 0.000000 
0.296791 0.165595 0.000000 
0.344206 0.165587 0.000000 
VECTORS X_EC float 
0.338794 -0.246456 0.000000 
-0.609100 0.834796 0.000000 
0.713312 0.945937 0.000000 
0.374519 0.326507 0.000000 
0.423588 -0.030223 0.000000 
-0.218274 0.003880 0.000000 
-0.513962 -0.720359 0.000000 
0.756418 -0.508873 0.000000 
0.381900 0.948735 0.000000 
-0.550868 -0.882827 0.000000 
0.823577 -0.872031 0.000000 
0.556234 0.354465 0.000000 
-0.139443 0.472034 0.000000 
-0.484677 -0.166091 0.000000 
0.766286 0.099124 0.000000 
0.384386 -0.415496 0.000000 
0.474677 0.264570 0.000000 
-0.141715 0.264474 0.000000 
-0.385608 -0.544754 0.000000 
0.937896 -0.465559 0.000000 
0.621631 0.830861 0.000000 
-0.105264 -0.987240 0.000000 
-0.467428 0.414134 0.000000 
0.771260 0.720662 0.000000 
0.386873 0.220273 0.000000 
0.761262 0.303679 0.000000 
0.108942 0.585055 0.000000 
-0.397202 0.104216 0.000000 
-0.142083 -0.557059 0.000000 
-0.595936 0.884166 0.000000 
0.978194 0.384300 0.000000 
-0.660903 -0.307325 0.000000 
0.724964 -0.767845 0.000000 
0.899809 0.589906 0.000000 
0.685384 -0.814782 0.000000 
0.287229 0.684060 0.000000 
0.702895 -0.015269 0.000000 
0.180633 -0.506788 0.000000 
0.445811 0.815053 0.000000 
-0.220880 0.372267 0.000000 
-0.071546 -0.258659 0.000000 
-0.033296 -0.513730 0.000000 
-0.417537 0.985761 0.000000 
0.039645 0.283198 0.000000 
-0.441768 -0.216673 0.000000 
-0.109248 -0.912124 0.000000 
-0.699407 0.611121 0.000000 
-0.474522 -0.056158 0.000000 
0.820030 -0.483152 0.000000 
0.957100 0.892776 0.000000 
0.610485 0.989685 0.000000 
-0.761092 0.259304 0.000000 
-0.714655 -0.451433 0.000000 
-0.057734 -0.656600 0.000000 
-0.178789 -0.502691 0.000000 
-0.067979 0.839883 0.000000 
0.677748 0.701679 0.000000 
0.641556 -0.084066 0.000000 
-0.765897 -0.342545 0.000000 
0.393446 0.725318 0.000000 
0.522510 0.089588 0.000000 
-0.691820 -0.008956 0.000000 
-0.647393 -0.739439 0.000000 
0.028512 -0.946966 0.000000 
-0.053800 0.235674 0.000000 
0.514316 -0.036457 0.000000 
0.965681 -0.046673 0.000000 
-0.897068 -0.670702 0.000000 
-0.083078 -0.737555 0.000000 
-0.006893 0.559920 0.000000 
0.724017 0.396288 0.000000 
0.714996 -0.380116 0.000000 
-0.642413 -0.613573 0.000000 
-0.760780 0.547446 0.000000 
-0.205471 0.269631 0.000000 
0.000000 -0.705013 0.000000 
-0.564049 0.596800 0.000000 
0.000000 0.191364 0.000000 
0.564049 0.596800 0.000000 
0.866949 -0.158545 0.000000 
-0.569003 -0.478476 0.000000 
0.000000 0.040812 0.000000 
0.569003 -0.478476 0.000000 
-0.866949 -0.158545 0.000000 
0.299194 -0.928295 0.000000 
0.858290 0.780121 0.000000 
-0.577662 -0.643433 0.000000 
0.000000 0.937189 0.000000 
0.577662 -0.643433 0.000000 
-0.858290 0.780121 0.000000 
-0.299194 -0.928295 0.000000 
-0.268560 0.301955 0.000000 
0.286830 0.024313 0.000000 
0.844677 0.643512 0.000000 
-0.578910 0.267349 0.000000 
0.000000 0.758753 0.000000 
0.578910 0.267349 0.000000 
-0.844677 0.643512 0.000000 
-0.286830 0.024313 0.000000 
0.268560 0.301955 0.000000 
-0.610485 0.989685 0.000000 
0.057734 -0.656600 0.000000 
0.714655 -0.451433 0.000000 
0.761092 0.259304 0.000000 
0.765897 -0.342545 0.000000 
-0.641556 -0.084066 0.000000 
-0.677748 0.701679 0.000000 
0.067979 0.839883 0.000000 
0.178789 -0.502691 0.000000 
-0.514316 -0.036457 0.000000 
0.053800 0.235674 0.000000 
-0.028512 -0.946966 0.000000 
0.647393 -0.739439 0.000000 
0.691820 -0.008956 0.000000 
-0.522510 0.089588 0.000000 
-0.393446 0.725318 0.000000 
0.205471 0.269631 0.000000 
0.760780 0.547446 0.000000 
0.642413 -0.613573 0.000000 
-0.714996 -0.380116 0.000000 
-0.724017 0.396288 0.000000 
0.006894 0.559920 0.000000 
0.083078 -0.737555 0.000000 
0.897068 -0.670702 0.000000 
-0.965681 -0.046673 0.000000 
-0.761262 0.303679 0.000000 
0.142083 -0.557059 0.000000 
0.397202 0.104216 0.000000 
-0.108942 0.585055 0.000000 
-0.899809 0.589906 0.000000 
-0.724964 -0.767845 0.000000 
0.660903 -0.307325 0.000000 
-0.978194 0.384300 0.000000 
0.595936 0.884166 0.000000 
0.071546 -0.258659 0.000000 
0.220880 0.372267 0.000000 
-0.445811 0.815053 0.000000 
-0.180633 -0.506788 0.000000 
-0.702895 -0.015269 0.000000 
-0.287229 0.684060 0.000000 
-0.685384 -0.814782 0.000000 
-0.957100 0.892777 0.000000 
-0.820030 -0.483152 0.000000 
0.474522 -0.056158 0.000000 
0.699407 0.611121 0.000000 
0.109248 -0.912124 0.000000 
0.441768 -0.216673 0.000000 
-0.039645 0.283198 0.000000 
0.417537 0.985761 0.000000 
0.033296 -0.513730 0.000000 
-0.338794 -0.246456 0.000000 
-0.374519 0.326507 0.000000 
-0.713312 0.945937 0.000000 
0.609100 0.834796 0.000000 
-0.381900 0.948735 0.000000 
-0.756418 -0.508873 0.000000 
0.513962 -0.720359 0.000000 
0.218274 0.003880 0.000000 
-0.423588 -0.030223 0.000000 
-0.384386 -0.415496 0.000000 
-0.766286 0.099124 0.000000 
0.484677 -0.166091 0.000000 
0.139443 0.472034 0.000000 
-0.556234 0.354465 0.000000 
-0.823577 -0.872031 0.000000 
0.550868 -0.882827 0.000000 
-0.386873 0.220273 0.000000 
-0.771260 0.720662 0.000000 
0.467428 0.414134 0.000000 
0.105264 -0.987240 0.000000 
-0.621631 0.830861 0.000000 
-0.937896 -0.465559 0.000000 
0.385608 -0.544754 0.000000 
0.141715 0.264474 0.000000 
-0.474677 0.264570 0.000000 
CELL_DATA 175 
SCALARS MASS float 
LOOKUP_TABLE default 
0.781831 
0.864274 
0.946717 
0.864274 
0.881307 
0.921110 
0.858535 
0.921110 
0.881307 
0.887046 
0.910001 
0.869829 
0.915556 
0.869829 
0.910001 
0.887046 
0.892784 
0.915740 
0.892784 
0.927218 
0.892784 
0.927218 
0.892784 
0.915740 
0.892784 
0.781831 
0.864274 
0.946717 
0.864274 
0.881307 
0.921110 
0.858535 
0.921110 
0.881307 
0.887046 
0.910001 
0.869829 
0.915556 
0.869829 
0.910001 
0.887046 
0.892784 
0.915740 
0.892784 
0.927218 
0.892784 
0.927218 
0.892784 
0.915740 
0.892784 
0.781831 
0.864274 
0.946717 
0.864274 
0.881307 
0.921110 
0.858535 
0.921110 
0.881307 
0.887046 
0.910001 
0.869829 
0.915556 
0.869829 
0.910001 
0.887046 
0.892784 
0.915740 
0.892784 
0.927218 
0.892784 
0.927218 
0.892784 
0.915740 
0.892784 
0.781831 
0.864274 
0.946717 
0.864274 
0.881307 
0.921110 
0.858535 
0.921110 
0.881307 
0.887046 
0.910001 
0.869829 
0.915556 
0.869829 
0.910001 
0.887046 
0.892784 
0.915740 
0.892784 
0.927218 
0.892784 
0.927218 
0.892784 
0.915740 
0.892784 
0.781831 
0.864274 
0.946717 
0.864274 
0.881307 
0.921110 
0.858535 
0.921110 
0.881307 
0.887046 
0.910001 
0.869829 
0.915556 
0.869829 
0.910001 
0.887046 
0.892784 
0.915740 
0.892784 
0.927218 
0.892784 
0.927218 
0.892784 
0.915740 
0.892784 
0.781831 
0.864274 
0.946717 
0.864274 
0.881307 
0.921110 
0.858535 
0.921110 
0.881307 
0.887046 
0.910001 
0.869829 
0.915556 
0.869829 
0.910001 
0.887046 
0.892784 
0.915740 
0.892784 
0.927218 
0.892784 
0.927218 
0.892784 
0.915740 
0.892784 
0.781831 
0.864274 
0.946717 
0.864274 
0.881307 
0.921110 
0.858535 
0.921110 
0.881307 
0.887046 
0.910001 
0.869829 
0.915556 
0.869829 
0.910001 
0.887046 
0.892784 
0.915740 
0.892784 
0.927218 
0.892784 
0.927218 
0.892784 
0.915740 
0.892784 
SCALARS MASS float 
LOOKUP_TABLE default 
0.781831 
0.864274 
0.946717 
0.864274 
0.881307 
0.921110 
0.858535 
0.921110 
0.881307 
0.887046 
0.910001 
0.869829 
0.915556 
0.869829 
0.910001 
0.887046 
0.892784 
0.915740 
0.892784 
0.927218 
0.892784 
0.927218 
0.892784 
0.915740 
0.892784 
0.781831 
0.864274 
0.946717 
0.864274 
0.881307 
0.921110 
0.858535 
0.921110 
0.881307 
0.887046 
0.910001 
0.869829 
0.915556 
0.869829 
0.910001 
0.887046 
0.892784 
0.915740 
0.892784 
0.927218 
0.892784 
0.927218 
0.892784 
0.915740 
0.892784 
0.781831 
0.864274 
0.946717 
0.864274 
0.881307 
0.921110 
0.858535 
0.921110 
0.881307 
0.887046 
0.910001 
0.869829 
0.915556 
0.869829 
0.910001 
0.887046 
0.892784 
0.915740 
0.892784 
0.927218 
0.892784 
0.927218 
0.892784 
0.915740 
0.892784 
0.781831 
0.864274 
0.946717 
0.864274 
0.881307 
0.921110 
0.858535 
0.921110 
0.881307 
0.887046 
0.910001 
0.869829 
0.915556 
0.869829 
0.910001 
0.887046 
0.892784 
0.915740 
0.892784 
0.927218 
0.892784 
0.927218 
0.892784 
0.915740 
0.892784 
0.781831 
0.864274 
0.946717 
0.864274 
0.881307 
0.921110 
0.858535 
0.921110 
0.881307 
0.887046 
0.910001 
0.869829 
0.915556 
0.869829 
0.910001 
0.887046 
0.892784 
0.915740 
0.892784 
0.927218 
0.892784 
0.927218 
0.892784 
0.915740 
0.892784 
0.781831 
0.864274 
0.946717 
0.864274 
0.881307 
0.921110 
0.858535 
0.921110 
0.881307 
0.887046 
0.910001 
0.869829 
0.915556 
0.869829 
0.910001 
0.887046 
0.892784 
0.915740 
0.892784 
0.927218 
0.892784 
0.927218 
0.892784 
0.915740 
0.892784 
0.781831 
0.864274 
0.946717 
0.864274 
0.881307 
0.921110 
0.858535 
0.921110 
0.881307 
0.887046 
0.910001 
0.869829 
0.915556 
0.869829 
0.910001 
0.887046 
0.892784 
0.915740 
0.892784 
0.927218 
0.892784 
0.927218 
0.892784 
0.915740 
0.892784 
SCALARS DENSITY float 
LOOKUP_TABLE default 
200.000000 
200.000000 
200.000000 
200.000000 
200.000000 
200.000000 
200.000000 
200.000000 
200.000000 
200.000000 
200.000000 
200.000000 
200.000000 
200.000000 
200.000000 
200.000000 
200.000000 
200.000000 
200.000000 
200.000000 
200.000000 
200.000000 
200.000000 
200.000000 
200.000000 
200.000000 
200.000000 
200.000000 
200.000000 
200.000000 
200.000000 
200.000000 
200.000000 
200.000000 
200.000000 
200.000000 
200.000000 
200.000000 
200.000000 
200.000000 
200.000000 
200.000000 
200.000000 
200.000000 
200.000000 
200.000000 
200.000000 
200.000000 
200.000000 
200.000000 
200.000000 
200.000000 
200.000000 
200.000000 
200.000000 
200.000000 
200.000000 
200.000000 
200.000000 
200.000000 
200.000000 
200.000000 
200.000000 
200.000000 
200.000000 
200.000000 
200.000000 
200.000000 
200.000000 
200.000000 
200.000000 
200.000000 
200.000000 
200.000000 
200.000000 
200.000000 
200.000000 
200.000000 
200.000000 
200.000000 
200.000000 
200.000000 
200.000000 
200.000000 
200.000000 
200.000000 
200.000000 
200.000000 
200.000000 
200.000000 
200.000000 
200.000000 
200.000000 
200.000000 
200.000000 
200.000000 
200.000000 
200.000000 
200.000000 
200.000000 
200.000000 
200.000000 
200.000000 
200.000000 
200.000000 
200.000000 
200.000000 
200.000000 
200.000000 
200.000000 
200.000000 
200.000000 
200.000000 
200.000000 
200.000000 
200.000000 
200.000000 
200.000000 
200.000000 
200.000000 
200.000000 
200.000000 
200.000000 
200.000000 
200.000000 
200.000000 
200.000000 
200.000000 
200.000000 
200.000000 
200.000000 
200.000000 
200.000000 
200.000000 
200.000000 
200.000000 
200.000000 
200.000000 
200.000000 
200.000000 
200.000000 
200.000000 
200.000000 
200.000000 
200.000000 
200.000000 
200.000000 
200.000000 
200.000000 
200.000000 
200.000000 
200.000000 
200.000000 
200.000000 
200.000000 
200.000000 
200.000000 
200.000000 
200.000000 
200.000000 
200.000000 
200.000000 
200.000000 
200.000000 
200.000000 
200.000000 
200.000000 
200.000000 
200.000000 
200.000000 
200.000000 
200.000000 
200.000000 
200.000000 
200.000000 
SCALARS ELEM_i float 
LOOKUP_TABLE default 
181 
209 
182 
182 
209 
209 
209 
182 
183 
236 
209 
210 
210 
210 
183 
183 
237 
237 
237 
210 
211 
210 
211 
184 
184 
181 
208 
208 
208 
235 
208 
235 
208 
209 
234 
235 
235 
235 
236 
236 
236 
261 
262 
262 
262 
262 
263 
263 
236 
237 
181 
207 
207 
207 
206 
207 
207 
207 
234 
206 
206 
233 
233 
233 
234 
234 
205 
232 
232 
233 
233 
233 
260 
261 
261 
180 
180 
180 
180 
152 
179 
179 
179 
206 
151 
152 
178 
179 
178 
206 
205 
151 
151 
151 
178 
178 
178 
205 
205 
205 
181 
153 
153 
153 
126 
153 
153 
153 
152 
126 
126 
125 
125 
125 
152 
152 
99 
99 
98 
125 
125 
125 
124 
124 
151 
181 
154 
154 
154 
155 
154 
127 
154 
127 
128 
128 
128 
127 
127 
127 
126 
129 
128 
101 
101 
100 
100 
100 
100 
99 
181 
182 
182 
155 
183 
182 
155 
155 
155 
183 
183 
156 
156 
156 
155 
128 
184 
184 
157 
156 
157 
156 
129 
129 
129 
VECTORS VELOCITY float 
-0.000000 -1.697130 0.000000 
-0.000000 -1.697130 0.000000 
-0.000000 -1.697130 0.000000 
0.000000 -1.697130 0.000000 
-0.000000 -1.697130 0.000000 
0.000000 -1.697130 0.000000 
0.000000 -1.697130 0.000000 
0.000000 -1.697130 0.000000 
0.000000 -1.697130 0.000000 
-0.000000 -1.697130 0.000000 
-0.000000 -1.697130 0.000000 
0.000000 -1.697130 0.000000 
0.000000 -1.697130 0.000000 
-0.000000 -1.697130 0.000000 
-0.000000 -1.697130 0.000000 
-0.000000 -1.697130 0.000000 
-0.000000 -1.697130 0.000000 
0.000000 -1.697130 0.000000 
0.000000 -1.697130 0.000000 
0.000000 -1.697130 0.000000 
0.000000 -1.697130 0.000000 
0.000000 -1.697130 0.000000 
-0.000000 -1.697130 0.000000 
-0.000000 -1.697130 0.000000 
-0.000000 -1.697130 0.000000 
-0.000000 -1.697130 0.000000 
-0.000000 -1.697130 0.000000 
-0.000000 -1.697130 0.000000 
-0.000000 -1.697130 0.000000 
-0.000000 -1.697130 0.000000 
-0.000000 -1.697130 0.000000 
0.000000 -1.697130 0.000000 
0.000000 -1.697130 0.000000 
0.000000 -1.697130 0.000000 
0.000000 -1.697130 0.000000 
-0.000000 -1.697130 0.000000 
-0.000000 -1.697130 0.000000 
-0.000000 -1.697130 0.000000 
-0.000000 -1.697130 0.000000 
-0.000000 -1.697130 0.000000 
-0.000000 -1.697130 0.000000 
0.000000 -1.697130 0.000000 
0.000000 -1.697130 0.000000 
0.000000 -1.697130 0.000000 
0.000000 -1.697130 0.000000 
0.000000 -1.697130 0.000000 
0.000000 -1.697130 0.000000 
-0.000000 -1.697130 0.000000 
-0.000000 -1.697130 0.000000 
-0.000000 -1.697130 0.000000 
0.000000 -1.697130 0.000000 
0.000000 -1.697130 0.000000 
0.000000 -1.697130 0.000000 
-0.000000 -1.697130 0.000000 
0.000000 -1.697130 0.000000 
0.000000 -1.697130 0.000000 
-0.000000 -1.697130 0.000000 
-0.000000 -1.697130 0.000000 
-0.000000 -1.697130 0.000000 
-0.000000 -1.697130 0.000000 
-0.000000 -1.697130 0.000000 
-0.000000 -1.697130 0.000000 
-0.000000 -1.697130 0.000000 
-0.000000 -1.697130 0.000000 
-0.000000 -1.697130 0.000000 
-0.000000 -1.697130 0.000000 
0.000000 -1.697130 0.000000 
-0.000000 -1.697130 0.000000 
-0.000000 -1.697130 0.000000 
-0.000000 -1.697130 0.000000 
-0.000000 -1.697130 0.000000 
-0.000000 -1.697130 0.000000 
-0.000000 -1.697130 0.000000 
-0.000000 -1.697130 0.000000 
0.000000 -1.697130 0.000000 
0.000000 -1.697130 0.000000 
-0.000000 -1.697130 0.000000 
0.000000 -1.697130 0.000000 
0.000000 -1.697130 0.000000 
-0.000000 -1.697130 0.000000 
-0.000000 -1.697130 0.000000 
0.000000 -1.697130 0.000000 
0.000000 -1.697130 0.000000 
0.000000 -1.697130 0.000000 
-0.000000 -1.697130 0.000000 
-0.000000 -1.697130 0.000000 
0.000000 -1.697130 0.000000 
0.000000 -1.697130 0.000000 
0.000000 -1.697130 0.000000 
0.000000 -1.697130 0.000000 
-0.000000 -1.697130 0.000000 
-0.000000 -1.697130 0.000000 
-0.000000 -1.697130 0.000000 
-0.000000 -1.697130 0.000000 
0.000000 -1.697130 0.000000 
0.000000 -1.697130 0.000000 
0.000000 -1.697130 0.000000 
-0.000000 -1.697130 0.000000 
-0.000000 -1.697130 0.000000 
-0.000000 -1.697130 0.000000 
0.000000 -1.697130 0.000000 
0.000000 -1.697130 0.000000 
-0.000000 -1.697130 0.000000 
-0.000000 -1.697130 0.000000 
0.000000 -1.697130 0.000000 
0.000000 -1.697130 0.000000 
-0.000000 -1.697130 0.000000 
-0.000000 -1.697130 0.000000 
-0.000000 -1.697130 0.000000 
-0.000000 -1.697130 0.000000 
-0.000000 -1.697130 0.000000 
-0.000000 -1.697130 0.000000 
-0.000000 -1.697130 0.000000 
-0.000000 -1.697130 0.000000 
-0.000000 -1.697130 0.000000 
-0.000000 -1.697130 0.000000 
-0.000000 -1.697130 0.000000 
-0.000000 -1.697130 0.000000 
-0.000000 -1.697130 0.000000 
0.000000 -1.697130 0.000000 
0.000000 -1.697130 0.000000 
0.000000 -1.697130 0.000000 
0.000000 -1.697130 0.000000 
-0.000000 -1.697130 0.000000 
-0.000000 -1.697130 0.000000 
0.000000 -1.697130 0.000000 
0.000000 -1.697130 0.000000 
0.000000 -1.697130 0.000000 
0.000000 -1.697130 0.000000 
-0.000000 -1.697130 0.000000 
-0.000000 -1.697130 0.000000 
-0.000000 -1.697130 0.000000 
0.000000 -1.697130 0.000000 
0.000000 -1.697130 0.000000 
-0.000000 -1.697130 0.000000 
-0.000000 -1.697130 0.000000 
-0.000000 -1.697130 0.000000 
-0.000000 -1.697130 0.000000 
-0.000000 -1.697130 0.000000 
-0.000000 -1.697130 0.000000 
-0.000000 -1.697130 0.000000 
-0.000000 -1.697130 0.000000 
-0.000000 -1.697130 0.000000 
-0.000000 -1.697130 0.000000 
0.000000 -1.697130 0.000000 
0.000000 -1.697130 0.000000 
-0.000000 -1.697130 0.000000 
-0.000000 -1.697130 0.000000 
-0.000000 -1.697130 0.000000 
-0.000000 -1.697130 0.000000 
0.000000 -1.697130 0.000000 
0.000000 -1.697130 0.000000 
0.000000 -1.697130 0.000000 
0.000000 -1.697130 0.000000 
0.000000 -1.697130 0.000000 
0.000000 -1.697130 0.000000 
0.000000 -1.697130 0.000000 
0.000000 -1.697130 0.000000 
0.000000 -1.697130 0.000000 
0.000000 -1.697130 0.000000 
0.000000 -1.697130 0.000000 
0.000000 -1.697130 0.000000 
0.000000 -1.697130 0.000000 
0.000000 -1.697130 0.000000 
0.000000 -1.697130 0.000000 
0.000000 -1.697130 0.000000 
0.000000 -1.697130 0.000000 
0.000000 -1.697130 0.000000 
0.000000 -1.697130 0.000000 
0.000000 -1.697130 0.000000 
-0.000000 -1.697130 0.000000 
0.000000 -1.697130 0.000000 
0.000000 -1.697130 0.000000 
0.000000 -1.697130 0.000000 
0.000000 -1.697130 0.000000 
TENSORS STRESS float 
0.000000 0.000000 0.000000 
0.000000 0.000000 0.000000 
0.000000 0.000000 0.000000 

0.000000 0.000000 0.000000 
0.000000 0.000000 0.000000 
0.000000 0.000000 0.000000 

-0.000000 0.000000 0.000000 
0.000000 -0.000000 0.000000 
0.000000 0.000000 0.000000 

-0.000000 0.000000 0.000000 
0.000000 -0.000000 0.000000 
0.000000 0.000000 0.000000 

0.000000 0.000000 0.000000 
0.000000 0.000000 0.000000 
0.000000 0.000000 0.000000 

0.000000 0.000000 0.000000 
0.000000 0.000000 0.000000 
0.000000 0.000000 0.000000 

0.000000 0.000000 0.000000 
0.000000 0.000000 0.000000 
0.000000 0.000000 0.000000 

0.000000 0.000000 0.000000 
0.000000 0.000000 0.000000 
0.000000 0.000000 0.000000 

-0.000000 0.000000 0.000000 
0.000000 -0.000000 0.000000 
0.000000 0.000000 0.000000 

-0.000000 -0.000000 0.000000 
0.000000 -0.000000 0.000000 
0.000000 0.000000 0.000000 

-0.000000 0.000000 0.000000 
0.000000 -0.000000 0.000000 
0.000000 0.000000 0.000000 

0.000000 0.000000 0.000000 
0.000000 0.000000 0.000000 
0.000000 0.000000 0.000000 

-0.000000 0.000000 0.000000 
0.000000 -0.000000 0.000000 
0.000000 0.000000 0.000000 

0.000000 0.000000 0.000000 
0.000000 0.000000 0.000000 
0.000000 0.000000 0.000000 

-0.000000 0.000000 0.000000 
0.000000 -0.000000 0.000000 
0.000000 0.000000 0.000000 

-0.000000 0.000000 0.000000 
0.000000 0.000000 0.000000 
0.000000 0.000000 0.000000 

0.000000 -0.000000 0.000000 
0.000000 -0.000000 0.000000 
0.000000 0.000000 0.000000 

-0.000000 -0.000000 0.000000 
0.000000 -0.000000 0.000000 
0.000000 0.000000 0.000000 

-0.000000 -0.000000 0.000000 
0.000000 -0.000000 0.000000 
0.000000 0.000000 0.000000 

-0.000000 0.000000 0.000000 
0.000000 -0.000000 0.000000 
0.000000 0.000000 0.000000 

0.000000 0.000000 0.000000 
0.000000 0.000000 0.000000 
0.000000 0.000000 0.000000 

-0.000000 0.000000 0.000000 
0.000000 -0.000000 0.000000 
0.000000 0.000000 0.000000 

-0.000000 0.000000 0.000000 
0.000000 -0.000000 0.000000 
0.000000 0.000000 0.000000 

0.000000 0.000000 0.000000 
0.000000 0.000000 0.000000 
0.000000 0.000000 0.000000 

0.000000 0.000000 0.000000 
0.000000 0.000000 0.000000 
0.000000 0.000000 0.000000 

-0.000000 0.000000 0.000000 
0.000000 -0.000000 0.000000 
0.000000 0.000000 0.000000 

-0.000000 -0.000000 0.000000 
0.000000 -0.000000 0.000000 
0.000000 0.000000 0.000000 

0.000000 0.000000 0.000000 
0.000000 0.000000 0.000000 
0.000000 0.000000 0.000000 

0.000000 0.000000 0.000000 
0.000000 0.000000 0.000000 
0.000000 0.000000 0.000000 

-0.000000 0.000000 0.000000 
0.000000 -0.000000 0.000000 
0.000000 0.000000 0.000000 

0.000000 0.000000 0.000000 
0.000000 0.000000 0.000000 
0.000000 0.000000 0.000000 

-0.000000 0.000000 0.000000 
0.000000 -0.000000 0.000000 
0.000000 0.000000 0.000000 

0.000000 0.000000 0.000000 
0.000000 0.000000 0.000000 
0.000000 0.000000 0.000000 

0.000000 0.000000 0.000000 
0.000000 0.000000 0.000000 
0.000000 0.000000 0.000000 

-0.000000 0.000000 0.000000 
0.000000 -0.000000 0.000000 
0.000000 0.000000 0.000000 

-0.000000 0.000000 0.000000 
0.000000 -0.000000 0.000000 
0.000000 0.000000 0.000000 

0.000000 0.000000 0.000000 
0.000000 0.000000 0.000000 
0.000000 0.000000 0.000000 

-0.000000 -0.000000 0.000000 
0.000000 -0.000000 0.000000 
0.000000 0.000000 0.000000 

-0.000000 0.000000 0.000000 
0.000000 -0.000000 0.000000 
0.000000 0.000000 0.000000 

-0.000000 0.000000 0.000000 
0.000000 -0.000000 0.000000 
0.000000 0.000000 0.000000 

-0.000000 0.000000 0.000000 
0.000000 -0.000000 0.000000 
0.000000 0.000000 0.000000 

0.000000 -0.000000 0.000000 
0.000000 0.000000 0.000000 
0.000000 0.000000 0.000000 

0.000000 -0.000000 0.000000 
0.000000 0.000000 0.000000 
0.000000 0.000000 0.000000 

0.000000 0.000000 0.000000 
0.000000 0.000000 0.000000 
0.000000 0.000000 0.000000 

-0.000000 0.000000 0.000000 
0.000000 -0.000000 0.000000 
0.000000 0.000000 0.000000 

-0.000000 0.000000 0.000000 
0.000000 -0.000000 0.000000 
0.000000 0.000000 0.000000 

0.000000 0.000000 0.000000 
0.000000 0.000000 0.000000 
0.000000 0.000000 0.000000 

0.000000 0.000000 0.000000 
0.000000 0.000000 0.000000 
0.000000 0.000000 0.000000 

0.000000 -0.000000 0.000000 
0.000000 0.000000 0.000000 
0.000000 0.000000 0.000000 

-0.000000 -0.000000 0.000000 
0.000000 -0.000000 0.000000 
0.000000 0.000000 0.000000 

0.000000 -0.000000 0.000000 
0.000000 0.000000 0.000000 
0.000000 0.000000 0.000000 

-0.000000 0.000000 0.000000 
0.000000 -0.000000 0.000000 
0.000000 0.000000 0.000000 

-0.000000 0.000000 0.000000 
0.000000 -0.000000 0.000000 
0.000000 0.000000 0.000000 

-0.000000 0.000000 0.000000 
0.000000 -0.000000 0.000000 
0.000000 0.000000 0.000000 

-0.000000 0.000000 0.000000 
0.000000 -0.000000 0.000000 
0.000000 0.000000 0.000000 

-0.000000 0.000000 0.000000 
0.000000 -0.000000 0.000000 
0.000000 0.000000 0.000000 

0.000000 0.000000 0.000000 
0.000000 0.000000 0.000000 
0.000000 0.000000 0.000000 

-0.000000 0.000000 0.000000 
0.000000 -0.000000 0.000000 
0.000000 0.000000 0.000000 

-0.000000 0.000000 0.000000 
0.000000 -0.000000 0.000000 
0.000000 0.000000 0.000000 

0.000000 0.000000 0.000000 
0.000000 0.000000 0.000000 
0.000000 0.000000 0.000000 

-0.000000 0.000000 0.000000 
0.000000 -0.000000 0.000000 
0.000000 0.000000 0.000000 

0.000000 0.000000 0.000000 
0.000000 0.000000 0.000000 
0.000000 0.000000 0.000000 

-0.000000 0.000000 0.000000 
0.000000 -0.000000 0.000000 
0.000000 0.000000 0.000000 

0.000000 0.000000 0.000000 
0.000000 0.000000 0.000000 
0.000000 0.000000 0.000000 

0.000000 0.000000 0.000000 
0.000000 0.000000 0.000000 
0.000000 0.000000 0.000000 

-0.000000 0.000000 0.000000 
0.000000 -0.000000 0.000000 
0.000000 0.000000 0.000000 

0.000000 0.000000 0.000000 
0.000000 0.000000 0.000000 
0.000000 0.000000 0.000000 

-0.000000 0.000000 0.000000 
0.000000 -0.000000 0.000000 
0.000000 0.000000 0.000000 

-0.000000 0.000000 0.000000 
0.000000 -0.000000 0.000000 
0.000000 0.000000 0.000000 

-0.000000 0.000000 0.000000 
0.000000 -0.000000 0.000000 
0.000000 0.000000 0.000000 

-0.000000 0.000000 0.000000 
0.000000 -0.000000 0.000000 
0.000000 0.000000 0.000000 

-0.000000 0.000000 0.000000 
0.000000 -0.000000 0.000000 
0.000000 0.000000 0.000000 

-0.000000 -0.000000 0.000000 
0.000000 -0.000000 0.000000 
0.000000 0.000000 0.000000 

-0.000000 -0.000000 0.000000 
0.000000 -0.000000 0.000000 
0.000000 0.000000 0.000000 

-0.000000 -0.000000 0.000000 
0.000000 -0.000000 0.000000 
0.000000 0.000000 0.000000 

-0.000000 0.000000 0.000000 
0.000000 -0.000000 0.000000 
0.000000 0.000000 0.000000 

0.000000 -0.000000 0.000000 
0.000000 0.000000 0.000000 
0.000000 0.000000 0.000000 

-0.000000 -0.000000 0.000000 
0.000000 -0.000000 0.000000 
0.000000 0.000000 0.000000 

-0.000000 -0.000000 0.000000 
0.000000 -0.000000 0.000000 
0.000000 0.000000 0.000000 

0.000000 -0.000000 0.000000 
0.000000 0.000000 0.000000 
0.000000 0.000000 0.000000 

0.000000 -0.000000 0.000000 
0.000000 0.000000 0.000000 
0.000000 0.000000 0.000000 

-0.000000 -0.000000 0.000000 
0.000000 -0.000000 0.000000 
0.000000 0.000000 0.000000 

0.000000 -0.000000 0.000000 
0.000000 0.000000 0.000000 
0.000000 0.000000 0.000000 

-0.000000 0.000000 0.000000 
0.000000 -0.000000 0.000000 
0.000000 0.000000 0.000000 

-0.000000 0.000000 0.000000 
0.000000 -0.000000 0.000000 
0.000000 0.000000 0.000000 

0.000000 -0.000000 0.000000 
0.000000 0.000000 0.000000 
0.000000 0.000000 0.000000 

0.000000 -0.000000 0.000000 
0.000000 0.000000 0.000000 
0.000000 0.000000 0.000000 

-0.000000 -0.000000 0.000000 
0.000000 -0.000000 0.000000 
0.000000 0.000000 0.000000 

-0.000000 -0.000000 0.000000 
0.000000 -0.000000 0.000000 
0.000000 0.000000 0.000000 

0.000000 0.000000 0.000000 
0.000000 0.000000 0.000000 
0.000000 0.000000 0.000000 

0.000000 0.000000 0.000000 
0.000000 0.000000 0.000000 
0.000000 0.000000 0.000000 

-0.000000 -0.000000 0.000000 
0.000000 -0.000000 0.000000 
0.000000 0.000000 0.000000 

0.000000 -0.000000 0.000000 
0.000000 0.000000 0.000000 
0.000000 0.000000 0.000000 

-0.000000 -0.000000 0.000000 
0.000000 -0.000000 0.000000 
0.000000 0.000000 0.000000 

-0.000000 -0.000000 0.000000 
0.000000 -0.000000 0.000000 
0.000000 0.000000 0.000000 

0.000000 -0.000000 0.000000 
0.000000 0.000000 0.000000 
0.000000 0.000000 0.000000 

0.000000 -0.000000 0.000000 
0.000000 0.000000 0.000000 
0.000000 0.000000 0.000000 

0.000000 0.000000 0.000000 
0.000000 0.000000 0.000000 
0.000000 0.000000 0.000000 

0.000000 0.000000 0.000000 
0.000000 0.000000 0.000000 
0.000000 0.000000 0.000000 

0.000000 0.000000 0.000000 
0.000000 0.000000 0.000000 
0.000000 0.000000 0.000000 

0.000000 0.000000 0.000000 
0.000000 0.000000 0.000000 
0.000000 0.000000 0.000000 

0.000000 0.000000 0.000000 
0.000000 0.000000 0.000000 
0.000000 0.000000 0.000000 

-0.000000 0.000000 0.000000 
0.000000 -0.000000 0.000000 
0.000000 0.000000 0.000000 

0.000000 -0.000000 0.000000 
0.000000 0.000000 0.000000 
0.000000 0.000000 0.000000 

0.000000 -0.000000 0.000000 
0.000000 -0.000000 0.000000 
0.000000 0.000000 0.000000 

0.000000 -0.000000 0.000000 
0.000000 0.000000 0.000000 
0.000000 0.000000 0.000000 

0.000000 -0.000000 0.000000 
0.000000 0.000000 0.000000 
0.000000 0.000000 0.000000 

-0.000000 -0.000000 0.000000 
0.000000 -0.000000 0.000000 
0.000000 0.000000 0.000000 

0.000000 -0.000000 0.000000 
0.000000 0.000000 0.000000 
0.000000 0.000000 0.000000 

-0.000000 0.000000 0.000000 
0.000000 -0.000000 0.000000 
0.000000 0.000000 0.000000 

0.000000 0.000000 0.000000 
0.000000 0.000000 0.000000 
0.000000 0.000000 0.000000 

-0.000000 0.000000 0.000000 
0.000000 -0.000000 0.000000 
0.000000 0.000000 0.000000 

0.000000 0.000000 0.000000 
0.000000 0.000000 0.000000 
0.000000 0.000000 0.000000 

0.000000 -0.000000 0.000000 
0.000000 0.000000 0.000000 
0.000000 0.000000 0.000000 

-0.000000 -0.000000 0.000000 
0.000000 -0.000000 0.000000 
0.000000 0.000000 0.000000 

-0.000000 -0.000000 0.000000 
0.000000 -0.000000 0.000000 
0.000000 0.000000 0.000000 

0.000000 0.000000 0.000000 
0.000000 0.000000 0.000000 
0.000000 0.000000 0.000000 

-0.000000 -0.000000 0.000000 
0.000000 -0.000000 0.000000 
0.000000 0.000000 0.000000 

-0.000000 0.000000 0.000000 
0.000000 -0.000000 0.000000 
0.000000 0.000000 0.000000 

0.000000 0.000000 0.000000 
0.000000 -0.000000 0.000000 
0.000000 0.000000 0.000000 

-0.000000 0.000000 0.000000 
0.000000 -0.000000 0.000000 
0.000000 0.000000 0.000000 

0.000000 0.000000 0.000000 
0.000000 0.000000 0.000000 
0.000000 0.000000 0.000000 

-0.000000 0.000000 0.000000 
0.000000 -0.000000 0.000000 
0.000000 0.000000 0.000000 

0.000000 0.000000 0.000000 
0.000000 0.000000 0.000000 
0.000000 0.000000 0.000000 

0.000000 0.000000 0.000000 
0.000000 0.000000 0.000000 
0.000000 0.000000 0.000000 

0.000000 0.000000 0.000000 
0.000000 0.000000 0.000000 
0.000000 0.000000 0.000000 

0.000000 -0.000000 0.000000 
0.000000 0.000000 0.000000 
0.000000 0.000000 0.000000 

0.000000 0.000000 0.000000 
0.000000 -0.000000 0.000000 
0.000000 0.000000 0.000000 

0.000000 0.000000 0.000000 
0.000000 0.000000 0.000000 
0.000000 0.000000 0.000000 

0.000000 0.000000 0.000000 
0.000000 0.000000 0.000000 
0.000000 0.000000 0.000000 

-0.000000 -0.000000 0.000000 
0.000000 -0.000000 0.000000 
0.000000 0.000000 0.000000 

-0.000000 -0.000000 0.000000 
0.000000 -0.000000 0.000000 
0.000000 0.000000 0.000000 

-0.000000 0.000000 0.000000 
0.000000 -0.000000 0.000000 
0.000000 0.000000 0.000000 

0.000000 0.000000 0.000000 
0.000000 0.000000 0.000000 
0.000000 0.000000 0.000000 

0.000000 0.000000 0.000000 
0.000000 0.000000 0.000000 
0.000000 0.000000 0.000000 

-0.000000 0.000000 0.000000 
0.000000 -0.000000 0.000000 
0.000000 0.000000 0.000000 

0.000000 0.000000 0.000000 
0.000000 -0.000000 0.000000 
0.000000 0.000000 0.000000 

0.000000 -0.000000 0.000000 
0.000000 0.000000 0.000000 
0.000000 0.000000 0.000000 

0.000000 -0.000000 0.000000 
0.000000 0.000000 0.000000 
0.000000 0.000000 0.000000 

0.000000 0.000000 0.000000 
0.000000 0.000000 0.000000 
0.000000 0.000000 0.000000 

0.000000 0.000000 0.000000 
0.000000 0.000000 0.000000 
0.000000 0.000000 0.000000 

0.000000 -0.000000 0.000000 
0.000000 0.000000 0.000000 
0.000000 0.000000 0.000000 

-0.000000 0.000000 0.000000 
0.000000 -0.000000 0.000000 
0.000000 0.000000 0.000000 

-0.000000 -0.000000 0.000000 
0.000000 -0.000000 0.000000 
0.000000 0.000000 0.000000 

0.000000 -0.000000 0.000000 
0.000000 0.000000 0.000000 
0.000000 0.000000 0.000000 

-0.000000 0.000000 0.000000 
0.000000 -0.000000 0.000000 
0.000000 0.000000 0.000000 

0.000000 -0.000000 0.000000 
0.000000 0.000000 0.000000 
0.000000 0.000000 0.000000 

-0.000000 0.000000 0.000000 
0.000000 -0.000000 0.000000 
0.000000 0.000000 0.000000 

-0.000000 0.000000 0.000000 
0.000000 -0.000000 0.000000 
0.000000 0.000000 0.000000 

-0.000000 0.000000 0.000000 
0.000000 -0.000000 0.000000 
0.000000 0.000000 0.000000 

0.000000 0.000000 0.000000 
0.000000 0.000000 0.000000 
0.000000 0.000000 0.000000 

-0.000000 0.000000 0.000000 
0.000000 -0.000000 0.000000 
0.000000 0.000000 0.000000 

0.000000 0.000000 0.000000 
0.000000 -0.000000 0.000000 
0.000000 0.000000 0.000000 

-0.000000 0.000000 0.000000 
0.000000 -0.000000 0.000000 
0.000000 0.000000 0.000000 

0.000000 -0.000000 0.000000 
0.000000 0.000000 0.000000 
0.000000 0.000000 0.000000 

0.000000 0.000000 0.000000 
0.000000 0.000000 0.000000 
0.000000 0.000000 0.000000 

0.000000 0.000000 0.000000 
0.000000 0.000000 0.000000 
0.000000 0.000000 0.000000 

-0.000000 0.000000 0.000000 
0.000000 -0.000000 0.000000 
0.000000 0.000000 0.000000 

-0.000000 0.000000 0.000000 
0.000000 -0.000000 0.000000 
0.000000 0.000000 0.000000 

0.000000 0.000000 0.000000 
0.000000 0.000000 0.000000 
0.000000 0.000000 0.000000 

-0.000000 0.000000 0.000000 
0.000000 0.000000 0.000000 
0.000000 0.000000 0.000000 

0.000000 -0.000000 0.000000 
0.000000 0.000000 0.000000 
0.000000 0.000000 0.000000 

0.000000 -0.000000 0.000000 
0.000000 0.000000 0.000000 
0.000000 0.000000 0.000000 

-0.000000 -0.000000 0.000000 
0.000000 -0.000000 0.000000 
0.000000 0.000000 0.000000 

0.000000 -0.000000 0.000000 
0.000000 0.000000 0.000000 
0.000000 0.000000 0.000000 

0.000000 0.000000 0.000000 
0.000000 0.000000 0.000000 
0.000000 0.000000 0.000000 

0.000000 0.000000 0.000000 
0.000000 0.000000 0.000000 
0.000000 0.000000 0.000000 

0.000000 0.000000 0.000000 
0.000000 0.000000 0.000000 
0.000000 0.000000 0.000000 

0.000000 -0.000000 0.000000 
0.000000 0.000000 0.000000 
0.000000 0.000000 0.000000 

0.000000 -0.000000 0.000000 
0.000000 0.000000 0.000000 
0.000000 0.000000 0.000000 

0.000000 -0.000000 0.000000 
0.000000 0.000000 0.000000 
0.000000 0.000000 0.000000 

0.000000 -0.000000 0.000000 
0.000000 0.000000 0.000000 
0.000000 0.000000 0.000000 

-0.000000 -0.000000 0.000000 
0.000000 -0.000000 0.000000 
0.000000 0.000000 0.000000 

0.000000 0.000000 0.000000 
0.000000 0.000000 0.000000 
0.000000 0.000000 0.000000 

0.000000 0.000000 0.000000 
0.000000 0.000000 0.000000 
0.000000 0.000000 0.000000 

TENSORS STRAIN float 
0.000000 0.000000 0.000000 
0.000000 -0.000000 0.000000 
0.000000 0.000000 0.000000 

0.000000 0.000000 0.000000 
0.000000 -0.000000 0.000000 
0.000000 0.000000 0.000000 

0.000000 0.000000 0.000000 
0.000000 -0.000000 0.000000 
0.000000 0.000000 0.000000 

0.000000 0.000000 0.000000 
0.000000 -0.000000 0.000000 
0.000000 0.000000 0.000000 

0.000000 0.000000 0.000000 
0.000000 -0.000000 0.000000 
0.000000 0.000000 0.000000 

0.000000 0.000000 0.000000 
0.000000 -0.000000 0.000000 
0.000000 0.000000 0.000000 

0.000000 0.000000 0.000000 
0.000000 -0.000000 0.000000 
0.000000 0.000000 0.000000 

-0.000000 0.000000 0.000000 
0.000000 0.000000 0.000000 
0.000000 0.000000 0.000000 

-0.000000 0.000000 0.000000 
0.000000 -0.000000 0.000000 
0.000000 0.000000 0.000000 

-0.000000 -0.000000 0.000000 
0.000000 -0.000000 0.000000 
0.000000 0.000000 0.000000 

0.000000 0.000000 0.000000 
0.000000 -0.000000 0.000000 
0.000000 0.000000 0.000000 

0.000000 0.000000 0.000000 
0.000000 -0.000000 0.000000 
0.000000 0.000000 0.000000 

0.000000 0.000000 0.000000 
0.000000 -0.000000 0.000000 
0.000000 0.000000 0.000000 

0.000000 0.000000 0.000000 
0.000000 -0.000000 0.000000 
0.000000 0.000000 0.000000 

-0.000000 0.000000 0.000000 
0.000000 -0.000000 0.000000 
0.000000 0.000000 0.000000 

-0.000000 0.000000 0.000000 
0.000000 0.000000 0.000000 
0.000000 0.000000 0.000000 

0.000000 -0.000000 0.000000 
0.000000 -0.000000 0.000000 
0.000000 0.000000 0.000000 

0.000000 -0.000000 0.000000 
0.000000 -0.000000 0.000000 
0.000000 0.000000 0.000000 

0.000000 -0.000000 0.000000 
0.000000 -0.000000 0.000000 
0.000000 0.000000 0.000000 

0.000000 0.000000 0.000000 
0.000000 -0.000000 0.000000 
0.000000 0.000000 0.000000 

-0.000000 0.000000 0.000000 
0.000000 0.000000 0.000000 
0.000000 0.000000 0.000000 

-0.000000 0.000000 0.000000 
0.000000 -0.000000 0.000000 
0.000000 0.000000 0.000000 

-0.000000 0.000000 0.000000 
0.000000 0.000000 0.000000 
0.000000 0.000000 0.000000 

-0.000000 0.000000 0.000000 
0.000000 0.000000 0.000000 
0.000000 0.000000 0.000000 

0.000000 0.000000 0.000000 
0.000000 0.000000 0.000000 
0.000000 0.000000 0.000000 

0.000000 0.000000 0.000000 
0.000000 -0.000000 0.000000 
0.000000 0.000000 0.000000 

-0.000000 -0.000000 0.000000 
0.000000 -0.000000 0.000000 
0.000000 0.000000 0.000000 

0.000000 0.000000 0.000000 
0.000000 0.000000 0.000000 
0.000000 0.000000 0.000000 

0.000000 0.000000 0.000000 
0.000000 0.000000 0.000000 
0.000000 0.000000 0.000000 

-0.000000 0.000000 0.000000 
0.000000 -0.000000 0.000000 
0.000000 0.000000 0.000000 

0.000000 0.000000 0.000000 
0.000000 0.000000 0.000000 
0.000000 0.000000 0.000000 

-0.000000 0.000000 0.000000 
0.000000 0.000000 0.000000 
0.000000 0.000000 0.000000 

0.000000 0.000000 0.000000 
0.000000 -0.000000 0.000000 
0.000000 0.000000 0.000000 

0.000000 0.000000 0.000000 
0.000000 -0.000000 0.000000 
0.000000 0.000000 0.000000 

-0.000000 0.000000 0.000000 
0.000000 -0.000000 0.000000 
0.000000 0.000000 0.000000 

-0.000000 0.000000 0.000000 
0.000000 0.000000 0.000000 
0.000000 0.000000 0.000000 

-0.000000 0.000000 0.000000 
0.000000 0.000000 0.000000 
0.000000 0.000000 0.000000 

-0.000000 -0.000000 0.000000 
0.000000 0.000000 0.000000 
0.000000 0.000000 0.000000 

-0.000000 0.000000 0.000000 
0.000000 -0.000000 0.000000 
0.000000 0.000000 0.000000 

-0.000000 0.000000 0.000000 
0.000000 -0.000000 0.000000 
0.000000 0.000000 0.000000 

-0.000000 0.000000 0.000000 
0.000000 0.000000 0.000000 
0.000000 0.000000 0.000000 

-0.000000 -0.000000 0.000000 
0.000000 0.000000 0.000000 
0.000000 0.000000 0.000000 

0.000000 -0.000000 0.000000 
0.000000 0.000000 0.000000 
0.000000 0.000000 0.000000 

-0.000000 0.000000 0.000000 
0.000000 0.000000 0.000000 
0.000000 0.000000 0.000000 

0.000000 0.000000 0.000000 
0.000000 -0.000000 0.000000 
0.000000 0.000000 0.000000 

-0.000000 0.000000 0.000000 
0.000000 0.000000 0.000000 
0.000000 0.000000 0.000000 

0.000000 0.000000 0.000000 
0.000000 0.000000 0.000000 
0.000000 0.000000 0.000000 

0.000000 0.000000 0.000000 
0.000000 -0.000000 0.000000 
0.000000 0.000000 0.000000 

-0.000000 -0.000000 0.000000 
0.000000 0.000000 0.000000 
0.000000 0.000000 0.000000 

0.000000 -0.000000 0.000000 
0.000000 -0.000000 0.000000 
0.000000 0.000000 0.000000 

-0.000000 -0.000000 0.000000 
0.000000 0.000000 0.000000 
0.000000 0.000000 0.000000 

-0.000000 0.000000 0.000000 
0.000000 -0.000000 0.000000 
0.000000 0.000000 0.000000 

-0.000000 0.000000 0.000000 
0.000000 0.000000 0.000000 
0.000000 0.000000 0.000000 

-0.000000 0.000000 0.000000 
0.000000 -0.000000 0.000000 
0.000000 0.000000 0.000000 

0.000000 0.000000 0.000000 
0.000000 -0.000000 0.000000 
0.000000 0.000000 0.000000 

-0.000000 0.000000 0.000000 
0.000000 0.000000 0.000000 
0.000000 0.000000 0.000000 

-0.000000 0.000000 0.000000 
0.000000 0.000000 0.000000 
0.000000 0.000000 0.000000 

-0.000000 0.000000 0.000000 
0.000000 -0.000000 0.000000 
0.000000 0.000000 0.000000 

-0.000000 0.000000 0.000000 
0.000000 -0.000000 0.000000 
0.000000 0.000000 0.000000 

0.000000 0.000000 0.000000 
0.000000 -0.000000 0.000000 
0.000000 0.000000 0.000000 

0.000000 0.000000 0.000000 
0.000000 -0.000000 0.000000 
0.000000 0.000000 0.000000 

-0.000000 0.000000 0.000000 
0.000000 0.000000 0.000000 
0.000000 0.000000 0.000000 

0.000000 0.000000 0.000000 
0.000000 -0.000000 0.000000 
0.000000 0.000000 0.000000 

0.000000 0.000000 0.000000 
0.000000 0.000000 0.000000 
0.000000 0.000000 0.000000 

0.000000 0.000000 0.000000 
0.000000 0.000000 0.000000 
0.000000 0.000000 0.000000 

0.000000 0.000000 0.000000 
0.000000 -0.000000 0.000000 
0.000000 0.000000 0.000000 

0.000000 0.000000 0.000000 
0.000000 -0.000000 0.000000 
0.000000 0.000000 0.000000 

-0.000000 0.000000 0.000000 
0.000000 -0.000000 0.000000 
0.000000 0.000000 0.000000 

-0.000000 0.000000 0.000000 
0.000000 0.000000 0.000000 
0.000000 0.000000 0.000000 

-0.000000 0.000000 0.000000 
0.000000 -0.000000 0.000000 
0.000000 0.000000 0.000000 

-0.000000 0.000000 0.000000 
0.000000 -0.000000 0.000000 
0.000000 0.000000 0.000000 

0.000000 0.000000 0.000000 
0.000000 -0.000000 0.000000 
0.000000 0.000000 0.000000 

0.000000 -0.000000 0.000000 
0.000000 -0.000000 0.000000 
0.000000 0.000000 0.000000 

-0.000000 -0.000000 0.000000 
0.000000 -0.000000 0.000000 
0.000000 0.000000 0.000000 

-0.000000 -0.000000 0.000000 
0.000000 -0.000000 0.000000 
0.000000 0.000000 0.000000 

-0.000000 0.000000 0.000000 
0.000000 -0.000000 0.000000 
0.000000 0.000000 0.000000 

-0.000000 -0.000000 0.000000 
0.000000 0.000000 0.000000 
0.000000 0.000000 0.000000 

-0.000000 -0.000000 0.000000 
0.000000 -0.000000 0.000000 
0.000000 0.000000 0.000000 

-0.000000 -0.000000 0.000000 
0.000000 -0.000000 0.000000 
0.000000 0.000000 0.000000 

-0.000000 -0.000000 0.000000 
0.000000 0.000000 0.000000 
0.000000 0.000000 0.000000 

0.000000 -0.000000 0.000000 
0.000000 -0.000000 0.000000 
0.000000 0.000000 0.000000 

0.000000 -0.000000 0.000000 
0.000000 -0.000000 0.000000 
0.000000 0.000000 0.000000 

0.000000 -0.000000 0.000000 
0.000000 -0.000000 0.000000 
0.000000 0.000000 0.000000 

0.000000 0.000000 0.000000 
0.000000 -0.000000 0.000000 
0.000000 0.000000 0.000000 

0.000000 0.000000 0.000000 
0.000000 -0.000000 0.000000 
0.000000 0.000000 0.000000 

0.000000 -0.000000 0.000000 
0.000000 0.000000 0.000000 
0.000000 0.000000 0.000000 

0.000000 -0.000000 0.000000 
0.000000 0.000000 0.000000 
0.000000 0.000000 0.000000 

0.000000 -0.000000 0.000000 
0.000000 -0.000000 0.000000 
0.000000 0.000000 0.000000 

0.000000 -0.000000 0.000000 
0.000000 -0.000000 0.000000 
0.000000 0.000000 0.000000 

0.000000 0.000000 0.000000 
0.000000 0.000000 0.000000 
0.000000 0.000000 0.000000 

0.000000 0.000000 0.000000 
0.000000 -0.000000 0.000000 
0.000000 0.000000 0.000000 

-0.000000 -0.000000 0.000000 
0.000000 0.000000 0.000000 
0.000000 0.000000 0.000000 

-0.000000 -0.000000 0.000000 
0.000000 0.000000 0.000000 
0.000000 0.000000 0.000000 

-0.000000 -0.000000 0.000000 
0.000000 -0.000000 0.000000 
0.000000 0.000000 0.000000 

-0.000000 -0.000000 0.000000 
0.000000 0.000000 0.000000 
0.000000 0.000000 0.000000 

-0.000000 -0.000000 0.000000 
0.000000 0.000000 0.000000 
0.000000 0.000000 0.000000 

-0.000000 -0.000000 0.000000 
0.000000 0.000000 0.000000 
0.000000 0.000000 0.000000 

0.000000 0.000000 0.000000 
0.000000 0.000000 0.000000 
0.000000 0.000000 0.000000 

0.000000 0.000000 0.000000 
0.000000 -0.000000 0.000000 
0.000000 0.000000 0.000000 

0.000000 0.000000 0.000000 
0.000000 -0.000000 0.000000 
0.000000 0.000000 0.000000 

-0.000000 0.000000 0.000000 
0.000000 0.000000 0.000000 
0.000000 0.000000 0.000000 

0.000000 0.000000 0.000000 
0.000000 0.000000 0.000000 
0.000000 0.000000 0.000000 

0.000000 0.000000 0.000000 
0.000000 -0.000000 0.000000 
0.000000 0.000000 0.000000 

0.000000 -0.000000 0.000000 
0.000000 0.000000 0.000000 
0.000000 0.000000 0.000000 

0.000000 -0.000000 0.000000 
0.000000 -0.000000 0.000000 
0.000000 0.000000 0.000000 

0.000000 -0.000000 0.000000 
0.000000 0.000000 0.000000 
0.000000 0.000000 0.000000 

0.000000 -0.000000 0.000000 
0.000000 0.000000 0.000000 
0.000000 0.000000 0.000000 

-0.000000 -0.000000 0.000000 
0.000000 -0.000000 0.000000 
0.000000 0.000000 0.000000 

-0.000000 -0.000000 0.000000 
0.000000 0.000000 0.000000 
0.000000 0.000000 0.000000 

0.000000 0.000000 0.000000 
0.000000 -0.000000 0.000000 
0.000000 0.000000 0.000000 

0.000000 0.000000 0.000000 
0.000000 -0.000000 0.000000 
0.000000 0.000000 0.000000 

0.000000 0.000000 0.000000 
0.000000 -0.000000 0.000000 
0.000000 0.000000 0.000000 

0.000000 0.000000 0.000000 
0.000000 -0.000000 0.000000 
0.000000 0.000000 0.000000 

0.000000 -0.000000 0.000000 
0.000000 -0.000000 0.000000 
0.000000 0.000000 0.000000 

-0.000000 -0.000000 0.000000 
0.000000 -0.000000 0.000000 
0.000000 0.000000 0.000000 

0.000000 -0.000000 0.000000 
0.000000 -0.000000 0.000000 
0.000000 0.000000 0.000000 

0.000000 0.000000 0.000000 
0.000000 -0.000000 0.000000 
0.000000 0.000000 0.000000 

0.000000 -0.000000 0.000000 
0.000000 -0.000000 0.000000 
0.000000 0.000000 0.000000 

0.000000 0.000000 0.000000 
0.000000 -0.000000 0.000000 
0.000000 0.000000 0.000000 

0.000000 0.000000 0.000000 
0.000000 -0.000000 0.000000 
0.000000 0.000000 0.000000 

0.000000 0.000000 0.000000 
0.000000 -0.000000 0.000000 
0.000000 0.000000 0.000000 

0.000000 0.000000 0.000000 
0.000000 -0.000000 0.000000 
0.000000 0.000000 0.000000 

0.000000 0.000000 0.000000 
0.000000 -0.000000 0.000000 
0.000000 0.000000 0.000000 

0.000000 0.000000 0.000000 
0.000000 0.000000 0.000000 
0.000000 0.000000 0.000000 

-0.000000 0.000000 0.000000 
0.000000 0.000000 0.000000 
0.000000 0.000000 0.000000 

0.000000 0.000000 0.000000 
0.000000 -0.000000 0.000000 
0.000000 0.000000 0.000000 

0.000000 -0.000000 0.000000 
0.000000 -0.000000 0.000000 
0.000000 0.000000 0.000000 

0.000000 0.000000 0.000000 
0.000000 -0.000000 0.000000 
0.000000 0.000000 0.000000 

0.000000 0.000000 0.000000 
0.000000 -0.000000 0.000000 
0.000000 0.000000 0.000000 

0.000000 0.000000 0.000000 
0.000000 -0.000000 0.000000 
0.000000 0.000000 0.000000 

0.000000 -0.000000 0.000000 
0.000000 -0.000000 0.000000 
0.000000 0.000000 0.000000 

0.000000 -0.000000 0.000000 
0.000000 -0.000000 0.000000 
0.000000 0.000000 0.000000 

0.000000 0.000000 0.000000 
0.000000 -0.000000 0.000000 
0.000000 0.000000 0.000000 

0.000000 0.000000 0.000000 
0.000000 -0.000000 0.000000 
0.000000 0.000000 0.000000 

0.000000 0.000000 0.000000 
0.000000 -0.000000 0.000000 
0.000000 0.000000 0.000000 

0.000000 0.000000 0.000000 
0.000000 -0.000000 0.000000 
0.000000 0.000000 0.000000 

0.000000 0.000000 0.000000 
0.000000 -0.000000 0.000000 
0.000000 0.000000 0.000000 

0.000000 -0.000000 0.000000 
0.000000 0.000000 0.000000 
0.000000 0.000000 0.000000 

0.000000 -0.000000 0.000000 
0.000000 0.000000 0.000000 
0.000000 0.000000 0.000000 

0.000000 0.000000 0.000000 
0.000000 0.000000 0.000000 
0.000000 0.000000 0.000000 

0.000000 0.000000 0.000000 
0.000000 0.000000 0.000000 
0.000000 0.000000 0.000000 

0.000000 -0.000000 0.000000 
0.000000 -0.000000 0.000000 
0.000000 0.000000 0.000000 

0.000000 0.000000 0.000000 
0.000000 -0.000000 0.000000 
0.000000 0.000000 0.000000 

0.000000 -0.000000 0.000000 
0.000000 -0.000000 0.000000 
0.000000 0.000000 0.000000 

0.000000 -0.000000 0.000000 
0.000000 -0.000000 0.000000 
0.000000 0.000000 0.000000 

0.000000 0.000000 0.000000 
0.000000 -0.000000 0.000000 
0.000000 0.000000 0.000000 

0.000000 -0.000000 0.000000 
0.000000 0.000000 0.000000 
0.000000 0.000000 0.000000 

0.000000 0.000000 0.000000 
0.000000 -0.000000 0.000000 
0.000000 0.000000 0.000000 

-0.000000 0.000000 0.000000 
0.000000 0.000000 0.000000 
0.000000 0.000000 0.000000 

0.000000 0.000000 0.000000 
0.000000 -0.000000 0.000000 
0.000000 0.000000 0.000000 

0.000000 0.000000 0.000000 
0.000000 -0.000000 0.000000 
0.000000 0.000000 0.000000 

0.000000 0.000000 0.000000 
0.000000 -0.000000 0.000000 
0.000000 0.000000 0.000000 

0.000000 0.000000 0.000000 
0.000000 -0.000000 0.000000 
0.000000 0.000000 0.000000 

0.000000 0.000000 0.000000 
0.000000 -0.000000 0.000000 
0.000000 0.000000 0.000000 

-0.000000 -0.000000 0.000000 
0.000000 0.000000 0.000000 
0.000000 0.000000 0.000000 

-0.000000 0.000000 0.000000 
0.000000 0.000000 0.000000 
0.000000 0.000000 0.000000 

0.000000 0.000000 0.000000 
0.000000 0.000000 0.000000 
0.000000 0.000000 0.000000 

0.000000 0.000000 0.000000 
0.000000 -0.000000 0.000000 
0.000000 0.000000 0.000000 

0.000000 0.000000 0.000000 
0.000000 -0.000000 0.000000 
0.000000 0.000000 0.000000 

-0.000000 0.000000 0.000000 
0.000000 0.000000 0.000000 
0.000000 0.000000 0.000000 

-0.000000 0.000000 0.000000 
0.000000 0.000000 0.000000 
0.000000 0.000000 0.000000 

-0.000000 -0.000000 0.000000 
0.000000 0.000000 0.000000 
0.000000 0.000000 0.000000 

0.000000 -0.000000 0.000000 
0.000000 0.000000 0.000000 
0.000000 0.000000 0.000000 

0.000000 -0.000000 0.000000 
0.000000 -0.000000 0.000000 
0.000000 0.000000 0.000000 

0.000000 -0.000000 0.000000 
0.000000 0.000000 0.000000 
0.000000 0.000000 0.000000 

0.000000 0.000000 0.000000 
0.000000 -0.000000 0.000000 
0.000000 0.000000 0.000000 

0.000000 0.000000 0.000000 
0.000000 0.000000 0.000000 
0.000000 0.000000 0.000000 

-0.000000 0.000000 0.000000 
0.000000 0.000000 0.000000 
0.000000 0.000000 0.000000 

0.000000 -0.000000 0.000000 
0.000000 0.000000 0.000000 
0.000000 0.000000 0.000000 

0.000000 -0.000000 0.000000 
0.000000 0.000000 0.000000 
0.000000 0.000000 0.000000 

0.000000 -0.000000 0.000000 
0.000000 -0.000000 0.000000 
0.000000 0.000000 0.000000 

-0.000000 -0.000000 0.000000 
0.000000 0.000000 0.000000 
0.000000 0.000000 0.000000 

-0.000000 -0.000000 0.000000 
0.000000 0.000000 0.000000 
0.000000 0.000000 0.000000 

0.000000 0.000000 0.000000 
0.000000 -0.000000 0.000000 
0.000000 0.000000 0.000000 

0.000000 0.000000 0.000000 
0.000000 -0.000000 0.000000 
0.000000 0.000000 0.000000 

