# vtk DataFile Version 3.0 
vtk output 
ASCII 
DATASET UNSTRUCTURED_GRID 
POINTS 175 float 
-0.026061 -0.501948 0.000000 
-0.106992 -0.433893 0.000000 
-0.054870 -0.442125 0.000000 
-0.028809 -0.396242 0.000000 
-0.186430 -0.369817 0.000000 
-0.137056 -0.372343 0.000000 
-0.114311 -0.318696 0.000000 
-0.058186 -0.334362 0.000000 
-0.029377 -0.294185 0.000000 
-0.265318 -0.306661 0.000000 
-0.217198 -0.307461 0.000000 
-0.196633 -0.250165 0.000000 
-0.143120 -0.258873 0.000000 
-0.116563 -0.211605 0.000000 
-0.058945 -0.231250 0.000000 
-0.029568 -0.193130 0.000000 
-0.344206 -0.243506 0.000000 
-0.296791 -0.243499 0.000000 
-0.278030 -0.183556 0.000000 
-0.225992 -0.189422 0.000000 
-0.201664 -0.137305 0.000000 
-0.145749 -0.150779 0.000000 
-0.117890 -0.106436 0.000000 
-0.059328 -0.129142 0.000000 
-0.029759 -0.092076 0.000000 
-0.058559 -0.542699 0.000000 
-0.162226 -0.563542 0.000000 
-0.123292 -0.527924 0.000000 
-0.142917 -0.478941 0.000000 
-0.261851 -0.585698 0.000000 
-0.229092 -0.548671 0.000000 
-0.256854 -0.497439 0.000000 
-0.209613 -0.463327 0.000000 
-0.223062 -0.415753 0.000000 
-0.360414 -0.607998 0.000000 
-0.329787 -0.570875 0.000000 
-0.361761 -0.519073 0.000000 
-0.321587 -0.482664 0.000000 
-0.341985 -0.432430 0.000000 
-0.290702 -0.399631 0.000000 
-0.302189 -0.352896 0.000000 
-0.458977 -0.630298 0.000000 
-0.429420 -0.593224 0.000000 
-0.464588 -0.541182 0.000000 
-0.427556 -0.504154 0.000000 
-0.453135 -0.452639 0.000000 
-0.407738 -0.417324 0.000000 
-0.425037 -0.367896 0.000000 
-0.370772 -0.336267 0.000000 
-0.381315 -0.290039 0.000000 
-0.046960 -0.593514 0.000000 
-0.095301 -0.687560 0.000000 
-0.098873 -0.634913 0.000000 
-0.149405 -0.619715 0.000000 
-0.140093 -0.779264 0.000000 
-0.148617 -0.730566 0.000000 
-0.205981 -0.720329 0.000000 
-0.203197 -0.662125 0.000000 
-0.248777 -0.642979 0.000000 
-0.184111 -0.870228 0.000000 
-0.194039 -0.823137 0.000000 
-0.254475 -0.815837 0.000000 
-0.257893 -0.761727 0.000000 
-0.309886 -0.746355 0.000000 
-0.303554 -0.685810 0.000000 
-0.347255 -0.665652 0.000000 
-0.228129 -0.961191 0.000000 
-0.238687 -0.914967 0.000000 
-0.301302 -0.910015 0.000000 
-0.307162 -0.857976 0.000000 
-0.363386 -0.845855 0.000000 
-0.362692 -0.788344 0.000000 
-0.412122 -0.771051 0.000000 
-0.403017 -0.708904 0.000000 
-0.445733 -0.688325 0.000000 
-0.000000 -0.616129 0.000000 
0.043388 -0.712560 0.000000 
-0.000000 -0.682527 0.000000 
-0.043388 -0.712560 0.000000 
0.087158 -0.804756 0.000000 
0.043769 -0.781058 0.000000 
-0.000000 -0.819524 0.000000 
-0.043769 -0.781058 0.000000 
-0.087158 -0.804756 0.000000 
0.130831 -0.895886 0.000000 
0.087824 -0.874287 0.000000 
0.044436 -0.916987 0.000000 
-0.000000 -0.885922 0.000000 
-0.044436 -0.916987 0.000000 
-0.087824 -0.874287 0.000000 
-0.130831 -0.895886 0.000000 
0.174505 -0.987016 0.000000 
0.131782 -0.966450 0.000000 
0.088871 -1.012316 0.000000 
0.044532 -0.984452 0.000000 
-0.000000 -1.020853 0.000000 
-0.044532 -0.984452 0.000000 
-0.088871 -1.012316 0.000000 
-0.131782 -0.966450 0.000000 
-0.174505 -0.987016 0.000000 
0.046960 -0.593514 0.000000 
0.149405 -0.619715 0.000000 
0.098873 -0.634913 0.000000 
0.095301 -0.687560 0.000000 
0.248777 -0.642979 0.000000 
0.203197 -0.662125 0.000000 
0.205981 -0.720329 0.000000 
0.148617 -0.730566 0.000000 
0.140093 -0.779264 0.000000 
0.347255 -0.665652 0.000000 
0.303554 -0.685810 0.000000 
0.309886 -0.746355 0.000000 
0.257893 -0.761727 0.000000 
0.254475 -0.815837 0.000000 
0.194039 -0.823137 0.000000 
0.184111 -0.870228 0.000000 
0.445733 -0.688325 0.000000 
0.403017 -0.708904 0.000000 
0.412122 -0.771051 0.000000 
0.362692 -0.788344 0.000000 
0.363386 -0.845855 0.000000 
0.307162 -0.857976 0.000000 
0.301302 -0.910015 0.000000 
0.238687 -0.914967 0.000000 
0.228129 -0.961191 0.000000 
0.058559 -0.542699 0.000000 
0.142917 -0.478941 0.000000 
0.123292 -0.527924 0.000000 
0.162226 -0.563542 0.000000 
0.223062 -0.415753 0.000000 
0.209613 -0.463327 0.000000 
0.256854 -0.497439 0.000000 
0.229092 -0.548671 0.000000 
0.261851 -0.585698 0.000000 
0.302189 -0.352896 0.000000 
0.290702 -0.399631 0.000000 
0.341985 -0.432430 0.000000 
0.321587 -0.482664 0.000000 
0.361761 -0.519073 0.000000 
0.329787 -0.570875 0.000000 
0.360414 -0.607998 0.000000 
0.381315 -0.290039 0.000000 
0.370772 -0.336267 0.000000 
0.425037 -0.367896 0.000000 
0.407738 -0.417324 0.000000 
0.453135 -0.452639 0.000000 
0.427556 -0.504154 0.000000 
0.464588 -0.541182 0.000000 
0.429420 -0.593224 0.000000 
0.458977 -0.630298 0.000000 
0.026061 -0.501948 0.000000 
0.028809 -0.396242 0.000000 
0.054870 -0.442125 0.000000 
0.106992 -0.433893 0.000000 
0.029377 -0.294185 0.000000 
0.058186 -0.334362 0.000000 
0.114311 -0.318696 0.000000 
0.137056 -0.372343 0.000000 
0.186430 -0.369817 0.000000 
0.029568 -0.193130 0.000000 
0.058945 -0.231250 0.000000 
0.116563 -0.211605 0.000000 
0.143120 -0.258873 0.000000 
0.196633 -0.250165 0.000000 
0.217198 -0.307461 0.000000 
0.265318 -0.306661 0.000000 
0.029759 -0.092076 0.000000 
0.059328 -0.129142 0.000000 
0.117890 -0.106436 0.000000 
0.145749 -0.150779 0.000000 
0.201664 -0.137305 0.000000 
0.225992 -0.189422 0.000000 
0.278030 -0.183556 0.000000 
0.296791 -0.243499 0.000000 
0.344206 -0.243506 0.000000 
CELLS 175 350 
1 0 
1 1 
1 2 
1 3 
1 4 
1 5 
1 6 
1 7 
1 8 
1 9 
1 10 
1 11 
1 12 
1 13 
1 14 
1 15 
1 16 
1 17 
1 18 
1 19 
1 20 
1 21 
1 22 
1 23 
1 24 
1 25 
1 26 
1 27 
1 28 
1 29 
1 30 
1 31 
1 32 
1 33 
1 34 
1 35 
1 36 
1 37 
1 38 
1 39 
1 40 
1 41 
1 42 
1 43 
1 44 
1 45 
1 46 
1 47 
1 48 
1 49 
1 50 
1 51 
1 52 
1 53 
1 54 
1 55 
1 56 
1 57 
1 58 
1 59 
1 60 
1 61 
1 62 
1 63 
1 64 
1 65 
1 66 
1 67 
1 68 
1 69 
1 70 
1 71 
1 72 
1 73 
1 74 
1 75 
1 76 
1 77 
1 78 
1 79 
1 80 
1 81 
1 82 
1 83 
1 84 
1 85 
1 86 
1 87 
1 88 
1 89 
1 90 
1 91 
1 92 
1 93 
1 94 
1 95 
1 96 
1 97 
1 98 
1 99 
1 100 
1 101 
1 102 
1 103 
1 104 
1 105 
1 106 
1 107 
1 108 
1 109 
1 110 
1 111 
1 112 
1 113 
1 114 
1 115 
1 116 
1 117 
1 118 
1 119 
1 120 
1 121 
1 122 
1 123 
1 124 
1 125 
1 126 
1 127 
1 128 
1 129 
1 130 
1 131 
1 132 
1 133 
1 134 
1 135 
1 136 
1 137 
1 138 
1 139 
1 140 
1 141 
1 142 
1 143 
1 144 
1 145 
1 146 
1 147 
1 148 
1 149 
1 150 
1 151 
1 152 
1 153 
1 154 
1 155 
1 156 
1 157 
1 158 
1 159 
1 160 
1 161 
1 162 
1 163 
1 164 
1 165 
1 166 
1 167 
1 168 
1 169 
1 170 
1 171 
1 172 
1 173 
1 174 
CELL_TYPES 175 
1 
1 
1 
1 
1 
1 
1 
1 
1 
1 
1 
1 
1 
1 
1 
1 
1 
1 
1 
1 
1 
1 
1 
1 
1 
1 
1 
1 
1 
1 
1 
1 
1 
1 
1 
1 
1 
1 
1 
1 
1 
1 
1 
1 
1 
1 
1 
1 
1 
1 
1 
1 
1 
1 
1 
1 
1 
1 
1 
1 
1 
1 
1 
1 
1 
1 
1 
1 
1 
1 
1 
1 
1 
1 
1 
1 
1 
1 
1 
1 
1 
1 
1 
1 
1 
1 
1 
1 
1 
1 
1 
1 
1 
1 
1 
1 
1 
1 
1 
1 
1 
1 
1 
1 
1 
1 
1 
1 
1 
1 
1 
1 
1 
1 
1 
1 
1 
1 
1 
1 
1 
1 
1 
1 
1 
1 
1 
1 
1 
1 
1 
1 
1 
1 
1 
1 
1 
1 
1 
1 
1 
1 
1 
1 
1 
1 
1 
1 
1 
1 
1 
1 
1 
1 
1 
1 
1 
1 
1 
1 
1 
1 
1 
1 
1 
1 
1 
1 
1 
1 
1 
1 
1 
1 
1 
POINT_DATA 175 
VECTORS X_GC float 
-0.026061 -0.501948 0.000000 
-0.106992 -0.433893 0.000000 
-0.054870 -0.442125 0.000000 
-0.028809 -0.396242 0.000000 
-0.186430 -0.369817 0.000000 
-0.137056 -0.372343 0.000000 
-0.114311 -0.318696 0.000000 
-0.058186 -0.334362 0.000000 
-0.029377 -0.294185 0.000000 
-0.265318 -0.306661 0.000000 
-0.217198 -0.307461 0.000000 
-0.196633 -0.250165 0.000000 
-0.143120 -0.258873 0.000000 
-0.116563 -0.211605 0.000000 
-0.058945 -0.231250 0.000000 
-0.029568 -0.193130 0.000000 
-0.344206 -0.243506 0.000000 
-0.296791 -0.243499 0.000000 
-0.278030 -0.183556 0.000000 
-0.225992 -0.189422 0.000000 
-0.201664 -0.137305 0.000000 
-0.145749 -0.150779 0.000000 
-0.117890 -0.106436 0.000000 
-0.059328 -0.129142 0.000000 
-0.029759 -0.092076 0.000000 
-0.058559 -0.542699 0.000000 
-0.162226 -0.563542 0.000000 
-0.123292 -0.527924 0.000000 
-0.142917 -0.478941 0.000000 
-0.261851 -0.585698 0.000000 
-0.229092 -0.548671 0.000000 
-0.256854 -0.497439 0.000000 
-0.209613 -0.463327 0.000000 
-0.223062 -0.415753 0.000000 
-0.360414 -0.607998 0.000000 
-0.329787 -0.570875 0.000000 
-0.361761 -0.519073 0.000000 
-0.321587 -0.482664 0.000000 
-0.341985 -0.432430 0.000000 
-0.290702 -0.399631 0.000000 
-0.302189 -0.352896 0.000000 
-0.458977 -0.630298 0.000000 
-0.429420 -0.593224 0.000000 
-0.464588 -0.541182 0.000000 
-0.427556 -0.504154 0.000000 
-0.453135 -0.452639 0.000000 
-0.407738 -0.417324 0.000000 
-0.425037 -0.367896 0.000000 
-0.370772 -0.336267 0.000000 
-0.381315 -0.290039 0.000000 
-0.046960 -0.593514 0.000000 
-0.095301 -0.687560 0.000000 
-0.098873 -0.634913 0.000000 
-0.149405 -0.619715 0.000000 
-0.140093 -0.779264 0.000000 
-0.148617 -0.730566 0.000000 
-0.205981 -0.720329 0.000000 
-0.203197 -0.662125 0.000000 
-0.248777 -0.642979 0.000000 
-0.184111 -0.870228 0.000000 
-0.194039 -0.823137 0.000000 
-0.254475 -0.815837 0.000000 
-0.257893 -0.761727 0.000000 
-0.309886 -0.746355 0.000000 
-0.303554 -0.685810 0.000000 
-0.347255 -0.665652 0.000000 
-0.228129 -0.961191 0.000000 
-0.238687 -0.914967 0.000000 
-0.301302 -0.910015 0.000000 
-0.307162 -0.857976 0.000000 
-0.363386 -0.845855 0.000000 
-0.362692 -0.788344 0.000000 
-0.412122 -0.771051 0.000000 
-0.403017 -0.708904 0.000000 
-0.445733 -0.688325 0.000000 
-0.000000 -0.616129 0.000000 
0.043388 -0.712560 0.000000 
-0.000000 -0.682527 0.000000 
-0.043388 -0.712560 0.000000 
0.087158 -0.804756 0.000000 
0.043769 -0.781058 0.000000 
-0.000000 -0.819524 0.000000 
-0.043769 -0.781058 0.000000 
-0.087158 -0.804756 0.000000 
0.130831 -0.895886 0.000000 
0.087824 -0.874287 0.000000 
0.044436 -0.916987 0.000000 
-0.000000 -0.885922 0.000000 
-0.044436 -0.916987 0.000000 
-0.087824 -0.874287 0.000000 
-0.130831 -0.895886 0.000000 
0.174505 -0.987016 0.000000 
0.131782 -0.966450 0.000000 
0.088871 -1.012316 0.000000 
0.044532 -0.984452 0.000000 
-0.000000 -1.020853 0.000000 
-0.044532 -0.984452 0.000000 
-0.088871 -1.012316 0.000000 
-0.131782 -0.966450 0.000000 
-0.174505 -0.987016 0.000000 
0.046960 -0.593514 0.000000 
0.149405 -0.619715 0.000000 
0.098873 -0.634913 0.000000 
0.095301 -0.687560 0.000000 
0.248777 -0.642979 0.000000 
0.203197 -0.662125 0.000000 
0.205981 -0.720329 0.000000 
0.148617 -0.730566 0.000000 
0.140093 -0.779264 0.000000 
0.347255 -0.665652 0.000000 
0.303554 -0.685810 0.000000 
0.309886 -0.746355 0.000000 
0.257893 -0.761727 0.000000 
0.254475 -0.815837 0.000000 
0.194039 -0.823137 0.000000 
0.184111 -0.870228 0.000000 
0.445733 -0.688325 0.000000 
0.403017 -0.708904 0.000000 
0.412122 -0.771051 0.000000 
0.362692 -0.788344 0.000000 
0.363386 -0.845855 0.000000 
0.307162 -0.857976 0.000000 
0.301302 -0.910015 0.000000 
0.238687 -0.914967 0.000000 
0.228129 -0.961191 0.000000 
0.058559 -0.542699 0.000000 
0.142917 -0.478941 0.000000 
0.123292 -0.527924 0.000000 
0.162226 -0.563542 0.000000 
0.223062 -0.415753 0.000000 
0.209613 -0.463327 0.000000 
0.256854 -0.497439 0.000000 
0.229092 -0.548671 0.000000 
0.261851 -0.585698 0.000000 
0.302189 -0.352896 0.000000 
0.290702 -0.399631 0.000000 
0.341985 -0.432430 0.000000 
0.321587 -0.482664 0.000000 
0.361761 -0.519073 0.000000 
0.329787 -0.570875 0.000000 
0.360414 -0.607998 0.000000 
0.381315 -0.290039 0.000000 
0.370772 -0.336267 0.000000 
0.425037 -0.367896 0.000000 
0.407738 -0.417324 0.000000 
0.453135 -0.452639 0.000000 
0.427556 -0.504154 0.000000 
0.464588 -0.541182 0.000000 
0.429420 -0.593224 0.000000 
0.458977 -0.630298 0.000000 
0.026061 -0.501948 0.000000 
0.028809 -0.396242 0.000000 
0.054870 -0.442125 0.000000 
0.106992 -0.433893 0.000000 
0.029377 -0.294185 0.000000 
0.058186 -0.334362 0.000000 
0.114311 -0.318696 0.000000 
0.137056 -0.372343 0.000000 
0.186430 -0.369817 0.000000 
0.029568 -0.193130 0.000000 
0.058945 -0.231250 0.000000 
0.116563 -0.211605 0.000000 
0.143120 -0.258873 0.000000 
0.196633 -0.250165 0.000000 
0.217198 -0.307461 0.000000 
0.265318 -0.306661 0.000000 
0.029759 -0.092076 0.000000 
0.059328 -0.129142 0.000000 
0.117890 -0.106436 0.000000 
0.145749 -0.150779 0.000000 
0.201664 -0.137305 0.000000 
0.225992 -0.189422 0.000000 
0.278030 -0.183556 0.000000 
0.296791 -0.243499 0.000000 
0.344206 -0.243506 0.000000 
VECTORS X_EC float 
0.338794 -0.723699 0.000000 
-0.609100 0.357552 0.000000 
0.713312 0.468693 0.000000 
0.374519 -0.150736 0.000000 
0.423588 -0.507467 0.000000 
-0.218274 -0.473363 0.000000 
-0.513962 0.802398 0.000000 
0.756418 -0.986116 0.000000 
0.381900 0.471492 0.000000 
-0.550868 0.639930 0.000000 
0.823577 0.650726 0.000000 
0.556234 -0.122778 0.000000 
-0.139443 -0.005210 0.000000 
-0.484677 -0.643334 0.000000 
0.766286 -0.378119 0.000000 
0.384386 -0.892739 0.000000 
0.474677 -0.212673 0.000000 
-0.141715 -0.212769 0.000000 
-0.385608 0.978002 0.000000 
0.937896 -0.942802 0.000000 
0.621631 0.353618 0.000000 
-0.105264 0.535517 0.000000 
-0.467428 -0.063109 0.000000 
0.771260 0.243419 0.000000 
0.386873 -0.256970 0.000000 
0.761262 -0.173565 0.000000 
0.108942 0.107812 0.000000 
-0.397202 -0.373027 0.000000 
-0.142083 0.965698 0.000000 
-0.595936 0.406923 0.000000 
0.978194 -0.092943 0.000000 
-0.660903 -0.784568 0.000000 
0.724964 0.754912 0.000000 
0.899809 0.112663 0.000000 
0.685384 0.707975 0.000000 
0.287229 0.206816 0.000000 
0.702895 -0.492512 0.000000 
0.180633 -0.984031 0.000000 
0.445811 0.337810 0.000000 
-0.220880 -0.104976 0.000000 
-0.071546 -0.735902 0.000000 
-0.033296 -0.990973 0.000000 
-0.417537 0.508517 0.000000 
0.039645 -0.194045 0.000000 
-0.441768 -0.693916 0.000000 
-0.109248 0.610633 0.000000 
-0.699407 0.133878 0.000000 
-0.474522 -0.533402 0.000000 
0.820030 -0.960395 0.000000 
0.957100 0.415533 0.000000 
0.610485 0.512442 0.000000 
-0.761092 -0.217939 0.000000 
-0.714655 -0.928676 0.000000 
-0.057734 0.866156 0.000000 
-0.178789 -0.979935 0.000000 
-0.067979 0.362639 0.000000 
0.677748 0.224436 0.000000 
0.641556 -0.561309 0.000000 
-0.765897 -0.819788 0.000000 
0.393446 0.248074 0.000000 
0.522510 -0.387655 0.000000 
-0.691820 -0.486200 0.000000 
-0.647393 0.783318 0.000000 
0.028512 0.575791 0.000000 
-0.053800 -0.241569 0.000000 
0.514316 -0.513700 0.000000 
0.965681 -0.523916 0.000000 
-0.897068 0.852055 0.000000 
-0.083078 0.785202 0.000000 
-0.006893 0.082677 0.000000 
0.724017 -0.080956 0.000000 
0.714996 -0.857359 0.000000 
-0.642413 0.909183 0.000000 
-0.760780 0.070203 0.000000 
-0.205471 -0.207613 0.000000 
0.000000 0.817743 0.000000 
-0.564049 0.119556 0.000000 
0.000000 -0.285880 0.000000 
0.564049 0.119556 0.000000 
0.866949 -0.635789 0.000000 
-0.569003 -0.955720 0.000000 
0.000000 -0.436431 0.000000 
0.569003 -0.955720 0.000000 
-0.866949 -0.635789 0.000000 
0.299194 0.594462 0.000000 
0.858290 0.302878 0.000000 
-0.577662 0.879324 0.000000 
0.000000 0.459945 0.000000 
0.577662 0.879324 0.000000 
-0.858290 0.302878 0.000000 
-0.299194 0.594462 0.000000 
-0.268560 -0.175288 0.000000 
0.286830 -0.452930 0.000000 
0.844677 0.166268 0.000000 
-0.578910 -0.209894 0.000000 
0.000000 0.281509 0.000000 
0.578910 -0.209894 0.000000 
-0.844677 0.166268 0.000000 
-0.286830 -0.452930 0.000000 
0.268560 -0.175288 0.000000 
-0.610485 0.512442 0.000000 
0.057734 0.866156 0.000000 
0.714655 -0.928676 0.000000 
0.761092 -0.217939 0.000000 
0.765897 -0.819788 0.000000 
-0.641556 -0.561309 0.000000 
-0.677748 0.224436 0.000000 
0.067979 0.362639 0.000000 
0.178789 -0.979935 0.000000 
-0.514316 -0.513700 0.000000 
0.053800 -0.241569 0.000000 
-0.028512 0.575791 0.000000 
0.647393 0.783318 0.000000 
0.691820 -0.486200 0.000000 
-0.522510 -0.387655 0.000000 
-0.393446 0.248074 0.000000 
0.205471 -0.207613 0.000000 
0.760780 0.070203 0.000000 
0.642413 0.909183 0.000000 
-0.714996 -0.857359 0.000000 
-0.724017 -0.080956 0.000000 
0.006894 0.082677 0.000000 
0.083078 0.785202 0.000000 
0.897068 0.852055 0.000000 
-0.965681 -0.523916 0.000000 
-0.761262 -0.173565 0.000000 
0.142083 0.965698 0.000000 
0.397202 -0.373027 0.000000 
-0.108942 0.107812 0.000000 
-0.899809 0.112663 0.000000 
-0.724964 0.754912 0.000000 
0.660903 -0.784568 0.000000 
-0.978194 -0.092943 0.000000 
0.595936 0.406923 0.000000 
0.071546 -0.735902 0.000000 
0.220880 -0.104976 0.000000 
-0.445811 0.337810 0.000000 
-0.180633 -0.984031 0.000000 
-0.702895 -0.492512 0.000000 
-0.287229 0.206816 0.000000 
-0.685384 0.707975 0.000000 
-0.957100 0.415533 0.000000 
-0.820030 -0.960395 0.000000 
0.474522 -0.533402 0.000000 
0.699407 0.133878 0.000000 
0.109248 0.610633 0.000000 
0.441768 -0.693916 0.000000 
-0.039645 -0.194045 0.000000 
0.417537 0.508517 0.000000 
0.033296 -0.990973 0.000000 
-0.338794 -0.723699 0.000000 
-0.374519 -0.150736 0.000000 
-0.713312 0.468693 0.000000 
0.609100 0.357553 0.000000 
-0.381900 0.471492 0.000000 
-0.756418 -0.986116 0.000000 
0.513962 0.802398 0.000000 
0.218274 -0.473363 0.000000 
-0.423588 -0.507467 0.000000 
-0.384386 -0.892739 0.000000 
-0.766286 -0.378119 0.000000 
0.484677 -0.643334 0.000000 
0.139443 -0.005210 0.000000 
-0.556234 -0.122778 0.000000 
-0.823577 0.650726 0.000000 
0.550868 0.639930 0.000000 
-0.386873 -0.256970 0.000000 
-0.771260 0.243419 0.000000 
0.467428 -0.063109 0.000000 
0.105264 0.535517 0.000000 
-0.621631 0.353618 0.000000 
-0.937896 -0.942802 0.000000 
0.385608 0.978002 0.000000 
0.141715 -0.212769 0.000000 
-0.474677 -0.212673 0.000000 
CELL_DATA 175 
SCALARS MASS float 
LOOKUP_TABLE default 
0.781831 
0.864274 
0.946717 
0.864274 
0.881307 
0.921110 
0.858535 
0.921110 
0.881307 
0.887046 
0.910001 
0.869829 
0.915556 
0.869829 
0.910001 
0.887046 
0.892784 
0.915740 
0.892784 
0.927218 
0.892784 
0.927218 
0.892784 
0.915740 
0.892784 
0.781831 
0.864274 
0.946717 
0.864274 
0.881307 
0.921110 
0.858535 
0.921110 
0.881307 
0.887046 
0.910001 
0.869829 
0.915556 
0.869829 
0.910001 
0.887046 
0.892784 
0.915740 
0.892784 
0.927218 
0.892784 
0.927218 
0.892784 
0.915740 
0.892784 
0.781831 
0.864274 
0.946717 
0.864274 
0.881307 
0.921110 
0.858535 
0.921110 
0.881307 
0.887046 
0.910001 
0.869829 
0.915556 
0.869829 
0.910001 
0.887046 
0.892784 
0.915740 
0.892784 
0.927218 
0.892784 
0.927218 
0.892784 
0.915740 
0.892784 
0.781831 
0.864274 
0.946717 
0.864274 
0.881307 
0.921110 
0.858535 
0.921110 
0.881307 
0.887046 
0.910001 
0.869829 
0.915556 
0.869829 
0.910001 
0.887046 
0.892784 
0.915740 
0.892784 
0.927218 
0.892784 
0.927218 
0.892784 
0.915740 
0.892784 
0.781831 
0.864274 
0.946717 
0.864274 
0.881307 
0.921110 
0.858535 
0.921110 
0.881307 
0.887046 
0.910001 
0.869829 
0.915556 
0.869829 
0.910001 
0.887046 
0.892784 
0.915740 
0.892784 
0.927218 
0.892784 
0.927218 
0.892784 
0.915740 
0.892784 
0.781831 
0.864274 
0.946717 
0.864274 
0.881307 
0.921110 
0.858535 
0.921110 
0.881307 
0.887046 
0.910001 
0.869829 
0.915556 
0.869829 
0.910001 
0.887046 
0.892784 
0.915740 
0.892784 
0.927218 
0.892784 
0.927218 
0.892784 
0.915740 
0.892784 
0.781831 
0.864274 
0.946717 
0.864274 
0.881307 
0.921110 
0.858535 
0.921110 
0.881307 
0.887046 
0.910001 
0.869829 
0.915556 
0.869829 
0.910001 
0.887046 
0.892784 
0.915740 
0.892784 
0.927218 
0.892784 
0.927218 
0.892784 
0.915740 
0.892784 
SCALARS MASS float 
LOOKUP_TABLE default 
0.781831 
0.864274 
0.946717 
0.864274 
0.881307 
0.921110 
0.858535 
0.921110 
0.881307 
0.887046 
0.910001 
0.869829 
0.915556 
0.869829 
0.910001 
0.887046 
0.892784 
0.915740 
0.892784 
0.927218 
0.892784 
0.927218 
0.892784 
0.915740 
0.892784 
0.781831 
0.864274 
0.946717 
0.864274 
0.881307 
0.921110 
0.858535 
0.921110 
0.881307 
0.887046 
0.910001 
0.869829 
0.915556 
0.869829 
0.910001 
0.887046 
0.892784 
0.915740 
0.892784 
0.927218 
0.892784 
0.927218 
0.892784 
0.915740 
0.892784 
0.781831 
0.864274 
0.946717 
0.864274 
0.881307 
0.921110 
0.858535 
0.921110 
0.881307 
0.887046 
0.910001 
0.869829 
0.915556 
0.869829 
0.910001 
0.887046 
0.892784 
0.915740 
0.892784 
0.927218 
0.892784 
0.927218 
0.892784 
0.915740 
0.892784 
0.781831 
0.864274 
0.946717 
0.864274 
0.881307 
0.921110 
0.858535 
0.921110 
0.881307 
0.887046 
0.910001 
0.869829 
0.915556 
0.869829 
0.910001 
0.887046 
0.892784 
0.915740 
0.892784 
0.927218 
0.892784 
0.927218 
0.892784 
0.915740 
0.892784 
0.781831 
0.864274 
0.946717 
0.864274 
0.881307 
0.921110 
0.858535 
0.921110 
0.881307 
0.887046 
0.910001 
0.869829 
0.915556 
0.869829 
0.910001 
0.887046 
0.892784 
0.915740 
0.892784 
0.927218 
0.892784 
0.927218 
0.892784 
0.915740 
0.892784 
0.781831 
0.864274 
0.946717 
0.864274 
0.881307 
0.921110 
0.858535 
0.921110 
0.881307 
0.887046 
0.910001 
0.869829 
0.915556 
0.869829 
0.910001 
0.887046 
0.892784 
0.915740 
0.892784 
0.927218 
0.892784 
0.927218 
0.892784 
0.915740 
0.892784 
0.781831 
0.864274 
0.946717 
0.864274 
0.881307 
0.921110 
0.858535 
0.921110 
0.881307 
0.887046 
0.910001 
0.869829 
0.915556 
0.869829 
0.910001 
0.887046 
0.892784 
0.915740 
0.892784 
0.927218 
0.892784 
0.927218 
0.892784 
0.915740 
0.892784 
SCALARS DENSITY float 
LOOKUP_TABLE default 
200.000000 
200.000000 
200.000000 
200.000000 
200.000000 
200.000000 
200.000000 
200.000000 
200.000000 
200.000000 
200.000000 
200.000000 
200.000000 
200.000000 
200.000000 
200.000000 
200.000000 
200.000000 
200.000000 
200.000000 
200.000000 
200.000000 
200.000000 
200.000000 
200.000000 
200.000000 
200.000000 
200.000000 
200.000000 
200.000000 
200.000000 
200.000000 
200.000000 
200.000000 
200.000000 
200.000000 
200.000000 
200.000000 
200.000000 
200.000000 
200.000000 
200.000000 
200.000000 
200.000000 
200.000000 
200.000000 
200.000000 
200.000000 
200.000000 
200.000000 
200.000000 
200.000000 
200.000000 
200.000000 
200.000000 
200.000000 
200.000000 
200.000000 
200.000000 
200.000000 
200.000000 
200.000000 
200.000000 
200.000000 
200.000000 
200.000000 
200.000000 
200.000000 
200.000000 
200.000000 
200.000000 
200.000000 
200.000000 
200.000000 
200.000000 
200.000000 
200.000000 
200.000000 
200.000000 
200.000000 
200.000000 
200.000000 
200.000000 
200.000000 
200.000000 
200.000000 
200.000000 
200.000000 
200.000000 
200.000000 
200.000000 
200.000000 
200.000000 
200.000000 
200.000000 
200.000000 
200.000000 
200.000000 
200.000000 
200.000000 
200.000000 
200.000000 
200.000000 
200.000000 
200.000000 
200.000000 
200.000000 
200.000000 
200.000000 
200.000000 
200.000000 
200.000000 
200.000000 
200.000000 
200.000000 
200.000000 
200.000000 
200.000000 
200.000000 
200.000000 
200.000000 
200.000000 
200.000000 
200.000000 
200.000000 
200.000000 
200.000000 
200.000000 
200.000000 
200.000000 
200.000000 
200.000000 
200.000000 
200.000000 
200.000000 
200.000000 
200.000000 
200.000000 
200.000000 
200.000000 
200.000000 
200.000000 
200.000000 
200.000000 
200.000000 
200.000000 
200.000000 
200.000000 
200.000000 
200.000000 
200.000000 
200.000000 
200.000000 
200.000000 
200.000000 
200.000000 
200.000000 
200.000000 
200.000000 
200.000000 
200.000000 
200.000000 
200.000000 
200.000000 
200.000000 
200.000000 
200.000000 
200.000000 
200.000000 
200.000000 
200.000000 
200.000000 
200.000000 
200.000000 
200.000000 
SCALARS ELEM_i float 
LOOKUP_TABLE default 
178 
206 
179 
179 
206 
206 
207 
179 
180 
234 
207 
207 
207 
207 
180 
180 
234 
234 
235 
207 
208 
208 
208 
181 
181 
178 
205 
205 
206 
232 
205 
232 
206 
206 
232 
232 
232 
232 
233 
233 
233 
258 
259 
259 
259 
260 
260 
260 
233 
234 
178 
204 
204 
205 
203 
204 
204 
204 
231 
203 
203 
230 
231 
231 
231 
231 
202 
230 
230 
230 
230 
230 
258 
258 
258 
178 
177 
177 
177 
149 
176 
176 
176 
203 
149 
149 
176 
176 
176 
203 
203 
148 
148 
148 
175 
175 
175 
202 
202 
202 
178 
151 
150 
150 
123 
150 
150 
150 
149 
123 
123 
123 
123 
122 
149 
149 
96 
96 
96 
122 
122 
122 
122 
122 
148 
178 
152 
151 
151 
152 
152 
124 
151 
124 
125 
125 
125 
124 
124 
124 
124 
126 
125 
98 
98 
98 
97 
97 
97 
96 
178 
179 
179 
152 
180 
179 
153 
152 
152 
180 
180 
153 
153 
153 
153 
126 
181 
181 
154 
154 
154 
153 
127 
126 
126 
VECTORS VELOCITY float 
-0.000000 -3.302046 0.000000 
0.000000 -3.302046 0.000000 
-0.000000 -3.302046 0.000000 
-0.000000 -3.302046 0.000000 
0.000000 -3.302046 0.000000 
0.000000 -3.302046 0.000000 
0.000000 -3.302046 0.000000 
0.000000 -3.302046 0.000000 
0.000000 -3.302046 0.000000 
0.000000 -3.302046 0.000000 
0.000000 -3.302046 0.000000 
0.000000 -3.302046 0.000000 
0.000000 -3.302046 0.000000 
-0.000000 -3.302046 0.000000 
-0.000000 -3.302046 0.000000 
-0.000000 -3.302046 0.000000 
-0.000000 -3.302046 0.000000 
0.000000 -3.302046 0.000000 
-0.000000 -3.302046 0.000000 
0.000000 -3.302046 0.000000 
0.000000 -3.302046 0.000000 
0.000000 -3.302046 0.000000 
0.000000 -3.302046 0.000000 
0.000000 -3.302046 0.000000 
0.000000 -3.302046 0.000000 
0.000000 -3.302046 0.000000 
0.000000 -3.302046 0.000000 
-0.000000 -3.302046 0.000000 
-0.000000 -3.302046 0.000000 
0.000000 -3.302046 0.000000 
0.000000 -3.302046 0.000000 
0.000000 -3.302046 0.000000 
0.000000 -3.302046 0.000000 
0.000000 -3.302046 0.000000 
0.000000 -3.302046 0.000000 
0.000000 -3.302046 0.000000 
-0.000000 -3.302046 0.000000 
-0.000000 -3.302046 0.000000 
-0.000000 -3.302046 0.000000 
-0.000000 -3.302046 0.000000 
-0.000000 -3.302046 0.000000 
0.000000 -3.302046 0.000000 
0.000000 -3.302046 0.000000 
0.000000 -3.302046 0.000000 
0.000000 -3.302046 0.000000 
0.000000 -3.302046 0.000000 
-0.000000 -3.302046 0.000000 
0.000000 -3.302046 0.000000 
-0.000000 -3.302046 0.000000 
-0.000000 -3.302046 0.000000 
-0.000000 -3.302046 0.000000 
-0.000000 -3.302046 0.000000 
0.000000 -3.302046 0.000000 
0.000000 -3.302046 0.000000 
-0.000000 -3.302046 0.000000 
-0.000000 -3.302046 0.000000 
-0.000000 -3.302046 0.000000 
0.000000 -3.302046 0.000000 
-0.000000 -3.302046 0.000000 
0.000000 -3.302046 0.000000 
0.000000 -3.302046 0.000000 
0.000000 -3.302046 0.000000 
-0.000000 -3.302046 0.000000 
-0.000000 -3.302046 0.000000 
0.000000 -3.302046 0.000000 
-0.000000 -3.302046 0.000000 
-0.000000 -3.302046 0.000000 
-0.000000 -3.302046 0.000000 
-0.000000 -3.302046 0.000000 
-0.000000 -3.302046 0.000000 
-0.000000 -3.302046 0.000000 
0.000000 -3.302046 0.000000 
-0.000000 -3.302046 0.000000 
-0.000000 -3.302046 0.000000 
-0.000000 -3.302046 0.000000 
-0.000000 -3.302046 0.000000 
-0.000000 -3.302046 0.000000 
-0.000000 -3.302046 0.000000 
-0.000000 -3.302046 0.000000 
0.000000 -3.302046 0.000000 
-0.000000 -3.302046 0.000000 
-0.000000 -3.302046 0.000000 
-0.000000 -3.302046 0.000000 
-0.000000 -3.302046 0.000000 
-0.000000 -3.302046 0.000000 
-0.000000 -3.302046 0.000000 
-0.000000 -3.302046 0.000000 
-0.000000 -3.302046 0.000000 
-0.000000 -3.302046 0.000000 
-0.000000 -3.302046 0.000000 
-0.000000 -3.302046 0.000000 
-0.000000 -3.302046 0.000000 
-0.000000 -3.302046 0.000000 
-0.000000 -3.302046 0.000000 
-0.000000 -3.302046 0.000000 
-0.000000 -3.302046 0.000000 
-0.000000 -3.302046 0.000000 
0.000000 -3.302046 0.000000 
-0.000000 -3.302046 0.000000 
0.000000 -3.302046 0.000000 
-0.000000 -3.302046 0.000000 
-0.000000 -3.302046 0.000000 
-0.000000 -3.302046 0.000000 
-0.000000 -3.302046 0.000000 
-0.000000 -3.302046 0.000000 
-0.000000 -3.302046 0.000000 
-0.000000 -3.302046 0.000000 
-0.000000 -3.302046 0.000000 
-0.000000 -3.302046 0.000000 
-0.000000 -3.302046 0.000000 
-0.000000 -3.302046 0.000000 
-0.000000 -3.302046 0.000000 
-0.000000 -3.302046 0.000000 
-0.000000 -3.302046 0.000000 
-0.000000 -3.302046 0.000000 
0.000000 -3.302046 0.000000 
0.000000 -3.302046 0.000000 
0.000000 -3.302046 0.000000 
0.000000 -3.302046 0.000000 
0.000000 -3.302046 0.000000 
0.000000 -3.302046 0.000000 
0.000000 -3.302046 0.000000 
-0.000000 -3.302046 0.000000 
-0.000000 -3.302046 0.000000 
-0.000000 -3.302046 0.000000 
-0.000000 -3.302046 0.000000 
-0.000000 -3.302046 0.000000 
0.000000 -3.302046 0.000000 
0.000000 -3.302046 0.000000 
0.000000 -3.302046 0.000000 
0.000000 -3.302046 0.000000 
0.000000 -3.302046 0.000000 
0.000000 -3.302046 0.000000 
0.000000 -3.302046 0.000000 
0.000000 -3.302046 0.000000 
0.000000 -3.302046 0.000000 
0.000000 -3.302046 0.000000 
0.000000 -3.302046 0.000000 
0.000000 -3.302046 0.000000 
-0.000000 -3.302046 0.000000 
-0.000000 -3.302046 0.000000 
-0.000000 -3.302046 0.000000 
-0.000000 -3.302046 0.000000 
-0.000000 -3.302046 0.000000 
0.000000 -3.302046 0.000000 
-0.000000 -3.302046 0.000000 
0.000000 -3.302046 0.000000 
0.000000 -3.302046 0.000000 
-0.000000 -3.302046 0.000000 
0.000000 -3.302046 0.000000 
-0.000000 -3.302046 0.000000 
-0.000000 -3.302046 0.000000 
-0.000000 -3.302046 0.000000 
-0.000000 -3.302046 0.000000 
0.000000 -3.302046 0.000000 
-0.000000 -3.302046 0.000000 
0.000000 -3.302046 0.000000 
-0.000000 -3.302046 0.000000 
0.000000 -3.302046 0.000000 
0.000000 -3.302046 0.000000 
0.000000 -3.302046 0.000000 
0.000000 -3.302046 0.000000 
0.000000 -3.302046 0.000000 
0.000000 -3.302046 0.000000 
0.000000 -3.302046 0.000000 
0.000000 -3.302046 0.000000 
0.000000 -3.302046 0.000000 
0.000000 -3.302046 0.000000 
-0.000000 -3.302046 0.000000 
0.000000 -3.302046 0.000000 
-0.000000 -3.302046 0.000000 
-0.000000 -3.302046 0.000000 
-0.000000 -3.302046 0.000000 
-0.000000 -3.302046 0.000000 
-0.000000 -3.302046 0.000000 
TENSORS STRESS float 
0.000000 0.000000 0.000000 
0.000000 0.000000 0.000000 
0.000000 0.000000 0.000000 

0.000000 0.000000 0.000000 
0.000000 0.000000 0.000000 
0.000000 0.000000 0.000000 

0.000000 0.000000 0.000000 
0.000000 0.000000 0.000000 
0.000000 0.000000 0.000000 

0.000000 -0.000000 0.000000 
0.000000 0.000000 0.000000 
0.000000 0.000000 0.000000 

-0.000000 0.000000 0.000000 
0.000000 -0.000000 0.000000 
0.000000 0.000000 0.000000 

-0.000000 0.000000 0.000000 
0.000000 -0.000000 0.000000 
0.000000 0.000000 0.000000 

-0.000000 0.000000 0.000000 
0.000000 -0.000000 0.000000 
0.000000 0.000000 0.000000 

0.000000 -0.000000 0.000000 
0.000000 0.000000 0.000000 
0.000000 0.000000 0.000000 

-0.000000 -0.000000 0.000000 
0.000000 -0.000000 0.000000 
0.000000 0.000000 0.000000 

-0.000000 -0.000000 0.000000 
0.000000 -0.000000 0.000000 
0.000000 0.000000 0.000000 

-0.000000 -0.000000 0.000000 
0.000000 -0.000000 0.000000 
0.000000 0.000000 0.000000 

-0.000000 0.000000 0.000000 
0.000000 -0.000000 0.000000 
0.000000 0.000000 0.000000 

0.000000 0.000000 0.000000 
0.000000 0.000000 0.000000 
0.000000 0.000000 0.000000 

0.000000 0.000000 0.000000 
0.000000 0.000000 0.000000 
0.000000 0.000000 0.000000 

-0.000000 -0.000000 0.000000 
0.000000 -0.000000 0.000000 
0.000000 0.000000 0.000000 

-0.000000 0.000000 0.000000 
0.000000 -0.000000 0.000000 
0.000000 0.000000 0.000000 

-0.000000 -0.000000 0.000000 
0.000000 -0.000000 0.000000 
0.000000 0.000000 0.000000 

-0.000000 -0.000000 0.000000 
0.000000 -0.000000 0.000000 
0.000000 0.000000 0.000000 

-0.000000 0.000000 0.000000 
0.000000 -0.000000 0.000000 
0.000000 0.000000 0.000000 

0.000000 0.000000 0.000000 
0.000000 0.000000 0.000000 
0.000000 0.000000 0.000000 

0.000000 0.000000 0.000000 
0.000000 0.000000 0.000000 
0.000000 0.000000 0.000000 

-0.000000 0.000000 0.000000 
0.000000 -0.000000 0.000000 
0.000000 0.000000 0.000000 

-0.000000 -0.000000 0.000000 
0.000000 -0.000000 0.000000 
0.000000 0.000000 0.000000 

0.000000 -0.000000 0.000000 
0.000000 0.000000 0.000000 
0.000000 0.000000 0.000000 

-0.000000 0.000000 0.000000 
0.000000 -0.000000 0.000000 
0.000000 0.000000 0.000000 

-0.000000 0.000000 0.000000 
0.000000 -0.000000 0.000000 
0.000000 0.000000 0.000000 

-0.000000 0.000000 0.000000 
0.000000 -0.000000 0.000000 
0.000000 0.000000 0.000000 

0.000000 0.000000 0.000000 
0.000000 0.000000 0.000000 
0.000000 0.000000 0.000000 

-0.000000 0.000000 0.000000 
0.000000 -0.000000 0.000000 
0.000000 0.000000 0.000000 

0.000000 0.000000 0.000000 
0.000000 0.000000 0.000000 
0.000000 0.000000 0.000000 

-0.000000 0.000000 0.000000 
0.000000 -0.000000 0.000000 
0.000000 0.000000 0.000000 

0.000000 0.000000 0.000000 
0.000000 0.000000 0.000000 
0.000000 0.000000 0.000000 

-0.000000 0.000000 0.000000 
0.000000 -0.000000 0.000000 
0.000000 0.000000 0.000000 

-0.000000 0.000000 0.000000 
0.000000 -0.000000 0.000000 
0.000000 0.000000 0.000000 

0.000000 0.000000 0.000000 
0.000000 -0.000000 0.000000 
0.000000 0.000000 0.000000 

0.000000 0.000000 0.000000 
0.000000 0.000000 0.000000 
0.000000 0.000000 0.000000 

0.000000 -0.000000 0.000000 
0.000000 0.000000 0.000000 
0.000000 0.000000 0.000000 

-0.000000 0.000000 0.000000 
0.000000 -0.000000 0.000000 
0.000000 0.000000 0.000000 

0.000000 -0.000000 0.000000 
0.000000 0.000000 0.000000 
0.000000 0.000000 0.000000 

0.000000 0.000000 0.000000 
0.000000 0.000000 0.000000 
0.000000 0.000000 0.000000 

0.000000 -0.000000 0.000000 
0.000000 0.000000 0.000000 
0.000000 0.000000 0.000000 

0.000000 -0.000000 0.000000 
0.000000 0.000000 0.000000 
0.000000 0.000000 0.000000 

0.000000 0.000000 0.000000 
0.000000 0.000000 0.000000 
0.000000 0.000000 0.000000 

0.000000 -0.000000 0.000000 
0.000000 0.000000 0.000000 
0.000000 0.000000 0.000000 

0.000000 0.000000 0.000000 
0.000000 0.000000 0.000000 
0.000000 0.000000 0.000000 

0.000000 -0.000000 0.000000 
0.000000 0.000000 0.000000 
0.000000 0.000000 0.000000 

-0.000000 -0.000000 0.000000 
0.000000 -0.000000 0.000000 
0.000000 0.000000 0.000000 

0.000000 -0.000000 0.000000 
0.000000 0.000000 0.000000 
0.000000 0.000000 0.000000 

-0.000000 -0.000000 0.000000 
0.000000 -0.000000 0.000000 
0.000000 0.000000 0.000000 

-0.000000 -0.000000 0.000000 
0.000000 -0.000000 0.000000 
0.000000 0.000000 0.000000 

0.000000 -0.000000 0.000000 
0.000000 0.000000 0.000000 
0.000000 0.000000 0.000000 

-0.000000 -0.000000 0.000000 
0.000000 -0.000000 0.000000 
0.000000 0.000000 0.000000 

-0.000000 0.000000 0.000000 
0.000000 -0.000000 0.000000 
0.000000 0.000000 0.000000 

-0.000000 -0.000000 0.000000 
0.000000 -0.000000 0.000000 
0.000000 0.000000 0.000000 

-0.000000 0.000000 0.000000 
0.000000 -0.000000 0.000000 
0.000000 0.000000 0.000000 

-0.000000 0.000000 0.000000 
0.000000 -0.000000 0.000000 
0.000000 0.000000 0.000000 

-0.000000 0.000000 0.000000 
0.000000 -0.000000 0.000000 
0.000000 0.000000 0.000000 

0.000000 0.000000 0.000000 
0.000000 0.000000 0.000000 
0.000000 0.000000 0.000000 

0.000000 0.000000 0.000000 
0.000000 0.000000 0.000000 
0.000000 0.000000 0.000000 

0.000000 0.000000 0.000000 
0.000000 0.000000 0.000000 
0.000000 0.000000 0.000000 

-0.000000 0.000000 0.000000 
0.000000 -0.000000 0.000000 
0.000000 0.000000 0.000000 

-0.000000 0.000000 0.000000 
0.000000 -0.000000 0.000000 
0.000000 0.000000 0.000000 

-0.000000 -0.000000 0.000000 
0.000000 -0.000000 0.000000 
0.000000 0.000000 0.000000 

-0.000000 -0.000000 0.000000 
0.000000 -0.000000 0.000000 
0.000000 0.000000 0.000000 

-0.000000 0.000000 0.000000 
0.000000 -0.000000 0.000000 
0.000000 0.000000 0.000000 

0.000000 0.000000 0.000000 
0.000000 0.000000 0.000000 
0.000000 0.000000 0.000000 

0.000000 -0.000000 0.000000 
0.000000 -0.000000 0.000000 
0.000000 0.000000 0.000000 

-0.000000 0.000000 0.000000 
0.000000 -0.000000 0.000000 
0.000000 0.000000 0.000000 

0.000000 0.000000 0.000000 
0.000000 0.000000 0.000000 
0.000000 0.000000 0.000000 

-0.000000 0.000000 0.000000 
0.000000 -0.000000 0.000000 
0.000000 0.000000 0.000000 

0.000000 0.000000 0.000000 
0.000000 0.000000 0.000000 
0.000000 0.000000 0.000000 

0.000000 0.000000 0.000000 
0.000000 0.000000 0.000000 
0.000000 0.000000 0.000000 

0.000000 -0.000000 0.000000 
0.000000 0.000000 0.000000 
0.000000 0.000000 0.000000 

0.000000 -0.000000 0.000000 
0.000000 0.000000 0.000000 
0.000000 0.000000 0.000000 

0.000000 0.000000 0.000000 
0.000000 0.000000 0.000000 
0.000000 0.000000 0.000000 

-0.000000 0.000000 0.000000 
0.000000 -0.000000 0.000000 
0.000000 0.000000 0.000000 

0.000000 0.000000 0.000000 
0.000000 0.000000 0.000000 
0.000000 0.000000 0.000000 

-0.000000 0.000000 0.000000 
0.000000 -0.000000 0.000000 
0.000000 0.000000 0.000000 

-0.000000 0.000000 0.000000 
0.000000 -0.000000 0.000000 
0.000000 0.000000 0.000000 

-0.000000 0.000000 0.000000 
0.000000 -0.000000 0.000000 
0.000000 0.000000 0.000000 

-0.000000 -0.000000 0.000000 
0.000000 -0.000000 0.000000 
0.000000 0.000000 0.000000 

-0.000000 -0.000000 0.000000 
0.000000 -0.000000 0.000000 
0.000000 0.000000 0.000000 

-0.000000 -0.000000 0.000000 
0.000000 -0.000000 0.000000 
0.000000 0.000000 0.000000 

0.000000 0.000000 0.000000 
0.000000 0.000000 0.000000 
0.000000 0.000000 0.000000 

-0.000000 -0.000000 0.000000 
0.000000 -0.000000 0.000000 
0.000000 0.000000 0.000000 

0.000000 -0.000000 0.000000 
0.000000 0.000000 0.000000 
0.000000 0.000000 0.000000 

0.000000 -0.000000 0.000000 
0.000000 0.000000 0.000000 
0.000000 0.000000 0.000000 

-0.000000 -0.000000 0.000000 
0.000000 -0.000000 0.000000 
0.000000 0.000000 0.000000 

-0.000000 -0.000000 0.000000 
0.000000 -0.000000 0.000000 
0.000000 0.000000 0.000000 

0.000000 0.000000 0.000000 
0.000000 0.000000 0.000000 
0.000000 0.000000 0.000000 

0.000000 0.000000 0.000000 
0.000000 0.000000 0.000000 
0.000000 0.000000 0.000000 

0.000000 0.000000 0.000000 
0.000000 0.000000 0.000000 
0.000000 0.000000 0.000000 

0.000000 -0.000000 0.000000 
0.000000 0.000000 0.000000 
0.000000 0.000000 0.000000 

0.000000 0.000000 0.000000 
0.000000 0.000000 0.000000 
0.000000 0.000000 0.000000 

0.000000 -0.000000 0.000000 
0.000000 0.000000 0.000000 
0.000000 0.000000 0.000000 

0.000000 0.000000 0.000000 
0.000000 0.000000 0.000000 
0.000000 0.000000 0.000000 

-0.000000 -0.000000 0.000000 
0.000000 -0.000000 0.000000 
0.000000 0.000000 0.000000 

0.000000 -0.000000 0.000000 
0.000000 0.000000 0.000000 
0.000000 0.000000 0.000000 

0.000000 -0.000000 0.000000 
0.000000 -0.000000 0.000000 
0.000000 0.000000 0.000000 

0.000000 -0.000000 0.000000 
0.000000 0.000000 0.000000 
0.000000 0.000000 0.000000 

-0.000000 0.000000 0.000000 
0.000000 -0.000000 0.000000 
0.000000 0.000000 0.000000 

-0.000000 0.000000 0.000000 
0.000000 -0.000000 0.000000 
0.000000 0.000000 0.000000 

-0.000000 0.000000 0.000000 
0.000000 -0.000000 0.000000 
0.000000 0.000000 0.000000 

0.000000 -0.000000 0.000000 
0.000000 0.000000 0.000000 
0.000000 0.000000 0.000000 

-0.000000 0.000000 0.000000 
0.000000 -0.000000 0.000000 
0.000000 0.000000 0.000000 

-0.000000 0.000000 0.000000 
0.000000 -0.000000 0.000000 
0.000000 0.000000 0.000000 

-0.000000 0.000000 0.000000 
0.000000 -0.000000 0.000000 
0.000000 0.000000 0.000000 

-0.000000 0.000000 0.000000 
0.000000 -0.000000 0.000000 
0.000000 0.000000 0.000000 

-0.000000 0.000000 0.000000 
0.000000 -0.000000 0.000000 
0.000000 0.000000 0.000000 

-0.000000 -0.000000 0.000000 
0.000000 -0.000000 0.000000 
0.000000 0.000000 0.000000 

-0.000000 0.000000 0.000000 
0.000000 -0.000000 0.000000 
0.000000 0.000000 0.000000 

-0.000000 0.000000 0.000000 
0.000000 -0.000000 0.000000 
0.000000 0.000000 0.000000 

0.000000 0.000000 0.000000 
0.000000 -0.000000 0.000000 
0.000000 0.000000 0.000000 

0.000000 -0.000000 0.000000 
0.000000 0.000000 0.000000 
0.000000 0.000000 0.000000 

0.000000 -0.000000 0.000000 
0.000000 0.000000 0.000000 
0.000000 0.000000 0.000000 

0.000000 -0.000000 0.000000 
0.000000 0.000000 0.000000 
0.000000 0.000000 0.000000 

-0.000000 -0.000000 0.000000 
0.000000 -0.000000 0.000000 
0.000000 0.000000 0.000000 

-0.000000 0.000000 0.000000 
0.000000 -0.000000 0.000000 
0.000000 0.000000 0.000000 

-0.000000 0.000000 0.000000 
0.000000 -0.000000 0.000000 
0.000000 0.000000 0.000000 

0.000000 -0.000000 0.000000 
0.000000 0.000000 0.000000 
0.000000 0.000000 0.000000 

-0.000000 0.000000 0.000000 
0.000000 -0.000000 0.000000 
0.000000 0.000000 0.000000 

0.000000 0.000000 0.000000 
0.000000 0.000000 0.000000 
0.000000 0.000000 0.000000 

-0.000000 0.000000 0.000000 
0.000000 -0.000000 0.000000 
0.000000 0.000000 0.000000 

0.000000 0.000000 0.000000 
0.000000 0.000000 0.000000 
0.000000 0.000000 0.000000 

-0.000000 0.000000 0.000000 
0.000000 -0.000000 0.000000 
0.000000 0.000000 0.000000 

-0.000000 0.000000 0.000000 
0.000000 -0.000000 0.000000 
0.000000 0.000000 0.000000 

-0.000000 0.000000 0.000000 
0.000000 -0.000000 0.000000 
0.000000 0.000000 0.000000 

-0.000000 0.000000 0.000000 
0.000000 -0.000000 0.000000 
0.000000 0.000000 0.000000 

0.000000 0.000000 0.000000 
0.000000 0.000000 0.000000 
0.000000 0.000000 0.000000 

0.000000 0.000000 0.000000 
0.000000 0.000000 0.000000 
0.000000 0.000000 0.000000 

-0.000000 0.000000 0.000000 
0.000000 -0.000000 0.000000 
0.000000 0.000000 0.000000 

-0.000000 -0.000000 0.000000 
0.000000 -0.000000 0.000000 
0.000000 0.000000 0.000000 

0.000000 -0.000000 0.000000 
0.000000 0.000000 0.000000 
0.000000 0.000000 0.000000 

-0.000000 -0.000000 0.000000 
0.000000 -0.000000 0.000000 
0.000000 0.000000 0.000000 

-0.000000 0.000000 0.000000 
0.000000 -0.000000 0.000000 
0.000000 0.000000 0.000000 

-0.000000 0.000000 0.000000 
0.000000 -0.000000 0.000000 
0.000000 0.000000 0.000000 

-0.000000 -0.000000 0.000000 
0.000000 -0.000000 0.000000 
0.000000 0.000000 0.000000 

0.000000 -0.000000 0.000000 
0.000000 0.000000 0.000000 
0.000000 0.000000 0.000000 

0.000000 -0.000000 0.000000 
0.000000 0.000000 0.000000 
0.000000 0.000000 0.000000 

-0.000000 -0.000000 0.000000 
0.000000 -0.000000 0.000000 
0.000000 0.000000 0.000000 

-0.000000 -0.000000 0.000000 
0.000000 -0.000000 0.000000 
0.000000 0.000000 0.000000 

0.000000 0.000000 0.000000 
0.000000 0.000000 0.000000 
0.000000 0.000000 0.000000 

0.000000 0.000000 0.000000 
0.000000 0.000000 0.000000 
0.000000 0.000000 0.000000 

0.000000 0.000000 0.000000 
0.000000 0.000000 0.000000 
0.000000 0.000000 0.000000 

-0.000000 0.000000 0.000000 
0.000000 -0.000000 0.000000 
0.000000 0.000000 0.000000 

-0.000000 -0.000000 0.000000 
0.000000 -0.000000 0.000000 
0.000000 0.000000 0.000000 

0.000000 0.000000 0.000000 
0.000000 0.000000 0.000000 
0.000000 0.000000 0.000000 

-0.000000 0.000000 0.000000 
0.000000 -0.000000 0.000000 
0.000000 0.000000 0.000000 

-0.000000 -0.000000 0.000000 
0.000000 -0.000000 0.000000 
0.000000 0.000000 0.000000 

-0.000000 -0.000000 0.000000 
0.000000 -0.000000 0.000000 
0.000000 0.000000 0.000000 

0.000000 0.000000 0.000000 
0.000000 0.000000 0.000000 
0.000000 0.000000 0.000000 

0.000000 0.000000 0.000000 
0.000000 0.000000 0.000000 
0.000000 0.000000 0.000000 

-0.000000 0.000000 0.000000 
0.000000 -0.000000 0.000000 
0.000000 0.000000 0.000000 

-0.000000 0.000000 0.000000 
0.000000 -0.000000 0.000000 
0.000000 0.000000 0.000000 

0.000000 -0.000000 0.000000 
0.000000 0.000000 0.000000 
0.000000 0.000000 0.000000 

0.000000 -0.000000 0.000000 
0.000000 0.000000 0.000000 
0.000000 0.000000 0.000000 

-0.000000 0.000000 0.000000 
0.000000 -0.000000 0.000000 
0.000000 0.000000 0.000000 

0.000000 0.000000 0.000000 
0.000000 0.000000 0.000000 
0.000000 0.000000 0.000000 

-0.000000 0.000000 0.000000 
0.000000 -0.000000 0.000000 
0.000000 0.000000 0.000000 

-0.000000 0.000000 0.000000 
0.000000 -0.000000 0.000000 
0.000000 0.000000 0.000000 

-0.000000 0.000000 0.000000 
0.000000 -0.000000 0.000000 
0.000000 0.000000 0.000000 

-0.000000 -0.000000 0.000000 
0.000000 -0.000000 0.000000 
0.000000 0.000000 0.000000 

-0.000000 0.000000 0.000000 
0.000000 -0.000000 0.000000 
0.000000 0.000000 0.000000 

-0.000000 0.000000 0.000000 
0.000000 -0.000000 0.000000 
0.000000 0.000000 0.000000 

-0.000000 -0.000000 0.000000 
0.000000 -0.000000 0.000000 
0.000000 0.000000 0.000000 

-0.000000 -0.000000 0.000000 
0.000000 -0.000000 0.000000 
0.000000 0.000000 0.000000 

-0.000000 0.000000 0.000000 
0.000000 -0.000000 0.000000 
0.000000 0.000000 0.000000 

-0.000000 0.000000 0.000000 
0.000000 -0.000000 0.000000 
0.000000 0.000000 0.000000 

-0.000000 0.000000 0.000000 
0.000000 -0.000000 0.000000 
0.000000 0.000000 0.000000 

0.000000 0.000000 0.000000 
0.000000 -0.000000 0.000000 
0.000000 0.000000 0.000000 

0.000000 -0.000000 0.000000 
0.000000 0.000000 0.000000 
0.000000 0.000000 0.000000 

-0.000000 -0.000000 0.000000 
0.000000 -0.000000 0.000000 
0.000000 0.000000 0.000000 

-0.000000 0.000000 0.000000 
0.000000 -0.000000 0.000000 
0.000000 0.000000 0.000000 

-0.000000 0.000000 0.000000 
0.000000 -0.000000 0.000000 
0.000000 0.000000 0.000000 

0.000000 0.000000 0.000000 
0.000000 0.000000 0.000000 
0.000000 0.000000 0.000000 

TENSORS STRAIN float 
0.000000 0.000000 0.000000 
0.000000 -0.000000 0.000000 
0.000000 0.000000 0.000000 

-0.000000 0.000000 0.000000 
0.000000 0.000000 0.000000 
0.000000 0.000000 0.000000 

0.000000 0.000000 0.000000 
0.000000 0.000000 0.000000 
0.000000 0.000000 0.000000 

0.000000 -0.000000 0.000000 
0.000000 0.000000 0.000000 
0.000000 0.000000 0.000000 

-0.000000 0.000000 0.000000 
0.000000 -0.000000 0.000000 
0.000000 0.000000 0.000000 

-0.000000 0.000000 0.000000 
0.000000 -0.000000 0.000000 
0.000000 0.000000 0.000000 

-0.000000 0.000000 0.000000 
0.000000 0.000000 0.000000 
0.000000 0.000000 0.000000 

0.000000 -0.000000 0.000000 
0.000000 -0.000000 0.000000 
0.000000 0.000000 0.000000 

0.000000 -0.000000 0.000000 
0.000000 -0.000000 0.000000 
0.000000 0.000000 0.000000 

-0.000000 -0.000000 0.000000 
0.000000 0.000000 0.000000 
0.000000 0.000000 0.000000 

-0.000000 -0.000000 0.000000 
0.000000 0.000000 0.000000 
0.000000 0.000000 0.000000 

-0.000000 0.000000 0.000000 
0.000000 0.000000 0.000000 
0.000000 0.000000 0.000000 

-0.000000 0.000000 0.000000 
0.000000 0.000000 0.000000 
0.000000 0.000000 0.000000 

-0.000000 0.000000 0.000000 
0.000000 0.000000 0.000000 
0.000000 0.000000 0.000000 

0.000000 -0.000000 0.000000 
0.000000 -0.000000 0.000000 
0.000000 0.000000 0.000000 

0.000000 0.000000 0.000000 
0.000000 -0.000000 0.000000 
0.000000 0.000000 0.000000 

0.000000 -0.000000 0.000000 
0.000000 -0.000000 0.000000 
0.000000 0.000000 0.000000 

0.000000 -0.000000 0.000000 
0.000000 -0.000000 0.000000 
0.000000 0.000000 0.000000 

0.000000 0.000000 0.000000 
0.000000 -0.000000 0.000000 
0.000000 0.000000 0.000000 

-0.000000 0.000000 0.000000 
0.000000 0.000000 0.000000 
0.000000 0.000000 0.000000 

-0.000000 0.000000 0.000000 
0.000000 0.000000 0.000000 
0.000000 0.000000 0.000000 

-0.000000 0.000000 0.000000 
0.000000 -0.000000 0.000000 
0.000000 0.000000 0.000000 

-0.000000 -0.000000 0.000000 
0.000000 -0.000000 0.000000 
0.000000 0.000000 0.000000 

0.000000 -0.000000 0.000000 
0.000000 -0.000000 0.000000 
0.000000 0.000000 0.000000 

0.000000 0.000000 0.000000 
0.000000 -0.000000 0.000000 
0.000000 0.000000 0.000000 

0.000000 0.000000 0.000000 
0.000000 -0.000000 0.000000 
0.000000 0.000000 0.000000 

-0.000000 0.000000 0.000000 
0.000000 0.000000 0.000000 
0.000000 0.000000 0.000000 

-0.000000 0.000000 0.000000 
0.000000 0.000000 0.000000 
0.000000 0.000000 0.000000 

-0.000000 0.000000 0.000000 
0.000000 0.000000 0.000000 
0.000000 0.000000 0.000000 

0.000000 0.000000 0.000000 
0.000000 -0.000000 0.000000 
0.000000 0.000000 0.000000 

-0.000000 0.000000 0.000000 
0.000000 0.000000 0.000000 
0.000000 0.000000 0.000000 

0.000000 0.000000 0.000000 
0.000000 0.000000 0.000000 
0.000000 0.000000 0.000000 

-0.000000 0.000000 0.000000 
0.000000 0.000000 0.000000 
0.000000 0.000000 0.000000 

-0.000000 0.000000 0.000000 
0.000000 -0.000000 0.000000 
0.000000 0.000000 0.000000 

0.000000 0.000000 0.000000 
0.000000 -0.000000 0.000000 
0.000000 0.000000 0.000000 

0.000000 0.000000 0.000000 
0.000000 0.000000 0.000000 
0.000000 0.000000 0.000000 

0.000000 -0.000000 0.000000 
0.000000 -0.000000 0.000000 
0.000000 0.000000 0.000000 

0.000000 0.000000 0.000000 
0.000000 -0.000000 0.000000 
0.000000 0.000000 0.000000 

0.000000 -0.000000 0.000000 
0.000000 -0.000000 0.000000 
0.000000 0.000000 0.000000 

-0.000000 0.000000 0.000000 
0.000000 0.000000 0.000000 
0.000000 0.000000 0.000000 

-0.000000 -0.000000 0.000000 
0.000000 0.000000 0.000000 
0.000000 0.000000 0.000000 

0.000000 -0.000000 0.000000 
0.000000 0.000000 0.000000 
0.000000 0.000000 0.000000 

0.000000 0.000000 0.000000 
0.000000 0.000000 0.000000 
0.000000 0.000000 0.000000 

0.000000 -0.000000 0.000000 
0.000000 -0.000000 0.000000 
0.000000 0.000000 0.000000 

0.000000 0.000000 0.000000 
0.000000 0.000000 0.000000 
0.000000 0.000000 0.000000 

-0.000000 -0.000000 0.000000 
0.000000 0.000000 0.000000 
0.000000 0.000000 0.000000 

-0.000000 -0.000000 0.000000 
0.000000 0.000000 0.000000 
0.000000 0.000000 0.000000 

-0.000000 -0.000000 0.000000 
0.000000 0.000000 0.000000 
0.000000 0.000000 0.000000 

-0.000000 -0.000000 0.000000 
0.000000 -0.000000 0.000000 
0.000000 0.000000 0.000000 

-0.000000 -0.000000 0.000000 
0.000000 -0.000000 0.000000 
0.000000 0.000000 0.000000 

0.000000 -0.000000 0.000000 
0.000000 0.000000 0.000000 
0.000000 0.000000 0.000000 

0.000000 -0.000000 0.000000 
0.000000 -0.000000 0.000000 
0.000000 0.000000 0.000000 

-0.000000 0.000000 0.000000 
0.000000 -0.000000 0.000000 
0.000000 0.000000 0.000000 

-0.000000 -0.000000 0.000000 
0.000000 -0.000000 0.000000 
0.000000 0.000000 0.000000 

-0.000000 0.000000 0.000000 
0.000000 0.000000 0.000000 
0.000000 0.000000 0.000000 

0.000000 0.000000 0.000000 
0.000000 -0.000000 0.000000 
0.000000 0.000000 0.000000 

0.000000 0.000000 0.000000 
0.000000 -0.000000 0.000000 
0.000000 0.000000 0.000000 

-0.000000 0.000000 0.000000 
0.000000 0.000000 0.000000 
0.000000 0.000000 0.000000 

0.000000 0.000000 0.000000 
0.000000 0.000000 0.000000 
0.000000 0.000000 0.000000 

0.000000 0.000000 0.000000 
0.000000 0.000000 0.000000 
0.000000 0.000000 0.000000 

-0.000000 0.000000 0.000000 
0.000000 -0.000000 0.000000 
0.000000 0.000000 0.000000 

-0.000000 0.000000 0.000000 
0.000000 -0.000000 0.000000 
0.000000 0.000000 0.000000 

-0.000000 -0.000000 0.000000 
0.000000 -0.000000 0.000000 
0.000000 0.000000 0.000000 

-0.000000 -0.000000 0.000000 
0.000000 -0.000000 0.000000 
0.000000 0.000000 0.000000 

-0.000000 0.000000 0.000000 
0.000000 -0.000000 0.000000 
0.000000 0.000000 0.000000 

-0.000000 0.000000 0.000000 
0.000000 0.000000 0.000000 
0.000000 0.000000 0.000000 

0.000000 -0.000000 0.000000 
0.000000 -0.000000 0.000000 
0.000000 0.000000 0.000000 

-0.000000 0.000000 0.000000 
0.000000 0.000000 0.000000 
0.000000 0.000000 0.000000 

-0.000000 0.000000 0.000000 
0.000000 0.000000 0.000000 
0.000000 0.000000 0.000000 

-0.000000 0.000000 0.000000 
0.000000 0.000000 0.000000 
0.000000 0.000000 0.000000 

-0.000000 0.000000 0.000000 
0.000000 0.000000 0.000000 
0.000000 0.000000 0.000000 

-0.000000 0.000000 0.000000 
0.000000 0.000000 0.000000 
0.000000 0.000000 0.000000 

0.000000 -0.000000 0.000000 
0.000000 -0.000000 0.000000 
0.000000 0.000000 0.000000 

0.000000 -0.000000 0.000000 
0.000000 -0.000000 0.000000 
0.000000 0.000000 0.000000 

0.000000 0.000000 0.000000 
0.000000 -0.000000 0.000000 
0.000000 0.000000 0.000000 

0.000000 0.000000 0.000000 
0.000000 -0.000000 0.000000 
0.000000 0.000000 0.000000 

-0.000000 0.000000 0.000000 
0.000000 0.000000 0.000000 
0.000000 0.000000 0.000000 

-0.000000 0.000000 0.000000 
0.000000 -0.000000 0.000000 
0.000000 0.000000 0.000000 

-0.000000 0.000000 0.000000 
0.000000 -0.000000 0.000000 
0.000000 0.000000 0.000000 

0.000000 0.000000 0.000000 
0.000000 -0.000000 0.000000 
0.000000 0.000000 0.000000 

-0.000000 -0.000000 0.000000 
0.000000 -0.000000 0.000000 
0.000000 0.000000 0.000000 

-0.000000 -0.000000 0.000000 
0.000000 -0.000000 0.000000 
0.000000 0.000000 0.000000 

-0.000000 -0.000000 0.000000 
0.000000 0.000000 0.000000 
0.000000 0.000000 0.000000 

-0.000000 0.000000 0.000000 
0.000000 0.000000 0.000000 
0.000000 0.000000 0.000000 

0.000000 -0.000000 0.000000 
0.000000 -0.000000 0.000000 
0.000000 0.000000 0.000000 

0.000000 -0.000000 0.000000 
0.000000 -0.000000 0.000000 
0.000000 0.000000 0.000000 

0.000000 -0.000000 0.000000 
0.000000 0.000000 0.000000 
0.000000 0.000000 0.000000 

0.000000 -0.000000 0.000000 
0.000000 -0.000000 0.000000 
0.000000 0.000000 0.000000 

0.000000 -0.000000 0.000000 
0.000000 -0.000000 0.000000 
0.000000 0.000000 0.000000 

0.000000 0.000000 0.000000 
0.000000 0.000000 0.000000 
0.000000 0.000000 0.000000 

0.000000 0.000000 0.000000 
0.000000 -0.000000 0.000000 
0.000000 0.000000 0.000000 

0.000000 0.000000 0.000000 
0.000000 0.000000 0.000000 
0.000000 0.000000 0.000000 

0.000000 -0.000000 0.000000 
0.000000 -0.000000 0.000000 
0.000000 0.000000 0.000000 

0.000000 0.000000 0.000000 
0.000000 -0.000000 0.000000 
0.000000 0.000000 0.000000 

-0.000000 -0.000000 0.000000 
0.000000 0.000000 0.000000 
0.000000 0.000000 0.000000 

-0.000000 0.000000 0.000000 
0.000000 0.000000 0.000000 
0.000000 0.000000 0.000000 

-0.000000 -0.000000 0.000000 
0.000000 0.000000 0.000000 
0.000000 0.000000 0.000000 

0.000000 -0.000000 0.000000 
0.000000 0.000000 0.000000 
0.000000 0.000000 0.000000 

0.000000 -0.000000 0.000000 
0.000000 -0.000000 0.000000 
0.000000 0.000000 0.000000 

0.000000 -0.000000 0.000000 
0.000000 -0.000000 0.000000 
0.000000 0.000000 0.000000 

0.000000 0.000000 0.000000 
0.000000 -0.000000 0.000000 
0.000000 0.000000 0.000000 

0.000000 0.000000 0.000000 
0.000000 -0.000000 0.000000 
0.000000 0.000000 0.000000 

0.000000 0.000000 0.000000 
0.000000 -0.000000 0.000000 
0.000000 0.000000 0.000000 

0.000000 -0.000000 0.000000 
0.000000 0.000000 0.000000 
0.000000 0.000000 0.000000 

0.000000 0.000000 0.000000 
0.000000 -0.000000 0.000000 
0.000000 0.000000 0.000000 

0.000000 0.000000 0.000000 
0.000000 -0.000000 0.000000 
0.000000 0.000000 0.000000 

-0.000000 0.000000 0.000000 
0.000000 -0.000000 0.000000 
0.000000 0.000000 0.000000 

-0.000000 0.000000 0.000000 
0.000000 -0.000000 0.000000 
0.000000 0.000000 0.000000 

-0.000000 0.000000 0.000000 
0.000000 -0.000000 0.000000 
0.000000 0.000000 0.000000 

0.000000 -0.000000 0.000000 
0.000000 -0.000000 0.000000 
0.000000 0.000000 0.000000 

0.000000 0.000000 0.000000 
0.000000 -0.000000 0.000000 
0.000000 0.000000 0.000000 

0.000000 0.000000 0.000000 
0.000000 -0.000000 0.000000 
0.000000 0.000000 0.000000 

0.000000 0.000000 0.000000 
0.000000 -0.000000 0.000000 
0.000000 0.000000 0.000000 

0.000000 -0.000000 0.000000 
0.000000 -0.000000 0.000000 
0.000000 0.000000 0.000000 

0.000000 -0.000000 0.000000 
0.000000 -0.000000 0.000000 
0.000000 0.000000 0.000000 

0.000000 -0.000000 0.000000 
0.000000 0.000000 0.000000 
0.000000 0.000000 0.000000 

-0.000000 -0.000000 0.000000 
0.000000 -0.000000 0.000000 
0.000000 0.000000 0.000000 

-0.000000 0.000000 0.000000 
0.000000 -0.000000 0.000000 
0.000000 0.000000 0.000000 

-0.000000 0.000000 0.000000 
0.000000 -0.000000 0.000000 
0.000000 0.000000 0.000000 

0.000000 -0.000000 0.000000 
0.000000 -0.000000 0.000000 
0.000000 0.000000 0.000000 

0.000000 0.000000 0.000000 
0.000000 -0.000000 0.000000 
0.000000 0.000000 0.000000 

0.000000 0.000000 0.000000 
0.000000 -0.000000 0.000000 
0.000000 0.000000 0.000000 

0.000000 0.000000 0.000000 
0.000000 -0.000000 0.000000 
0.000000 0.000000 0.000000 

0.000000 0.000000 0.000000 
0.000000 -0.000000 0.000000 
0.000000 0.000000 0.000000 

0.000000 0.000000 0.000000 
0.000000 -0.000000 0.000000 
0.000000 0.000000 0.000000 

0.000000 0.000000 0.000000 
0.000000 -0.000000 0.000000 
0.000000 0.000000 0.000000 

-0.000000 0.000000 0.000000 
0.000000 -0.000000 0.000000 
0.000000 0.000000 0.000000 

0.000000 0.000000 0.000000 
0.000000 -0.000000 0.000000 
0.000000 0.000000 0.000000 

0.000000 0.000000 0.000000 
0.000000 -0.000000 0.000000 
0.000000 0.000000 0.000000 

-0.000000 0.000000 0.000000 
0.000000 0.000000 0.000000 
0.000000 0.000000 0.000000 

-0.000000 0.000000 0.000000 
0.000000 -0.000000 0.000000 
0.000000 0.000000 0.000000 

-0.000000 -0.000000 0.000000 
0.000000 0.000000 0.000000 
0.000000 0.000000 0.000000 

0.000000 -0.000000 0.000000 
0.000000 0.000000 0.000000 
0.000000 0.000000 0.000000 

0.000000 -0.000000 0.000000 
0.000000 -0.000000 0.000000 
0.000000 0.000000 0.000000 

-0.000000 0.000000 0.000000 
0.000000 -0.000000 0.000000 
0.000000 0.000000 0.000000 

-0.000000 0.000000 0.000000 
0.000000 -0.000000 0.000000 
0.000000 0.000000 0.000000 

-0.000000 -0.000000 0.000000 
0.000000 0.000000 0.000000 
0.000000 0.000000 0.000000 

-0.000000 -0.000000 0.000000 
0.000000 0.000000 0.000000 
0.000000 0.000000 0.000000 

-0.000000 -0.000000 0.000000 
0.000000 0.000000 0.000000 
0.000000 0.000000 0.000000 

0.000000 -0.000000 0.000000 
0.000000 -0.000000 0.000000 
0.000000 0.000000 0.000000 

0.000000 -0.000000 0.000000 
0.000000 -0.000000 0.000000 
0.000000 0.000000 0.000000 

0.000000 0.000000 0.000000 
0.000000 0.000000 0.000000 
0.000000 0.000000 0.000000 

-0.000000 0.000000 0.000000 
0.000000 0.000000 0.000000 
0.000000 0.000000 0.000000 

-0.000000 0.000000 0.000000 
0.000000 0.000000 0.000000 
0.000000 0.000000 0.000000 

-0.000000 0.000000 0.000000 
0.000000 0.000000 0.000000 
0.000000 0.000000 0.000000 

-0.000000 -0.000000 0.000000 
0.000000 0.000000 0.000000 
0.000000 0.000000 0.000000 

-0.000000 0.000000 0.000000 
0.000000 0.000000 0.000000 
0.000000 0.000000 0.000000 

-0.000000 0.000000 0.000000 
0.000000 -0.000000 0.000000 
0.000000 0.000000 0.000000 

-0.000000 -0.000000 0.000000 
0.000000 0.000000 0.000000 
0.000000 0.000000 0.000000 

-0.000000 -0.000000 0.000000 
0.000000 -0.000000 0.000000 
0.000000 0.000000 0.000000 

0.000000 0.000000 0.000000 
0.000000 -0.000000 0.000000 
0.000000 0.000000 0.000000 

0.000000 0.000000 0.000000 
0.000000 0.000000 0.000000 
0.000000 0.000000 0.000000 

0.000000 0.000000 0.000000 
0.000000 -0.000000 0.000000 
0.000000 0.000000 0.000000 

-0.000000 0.000000 0.000000 
0.000000 -0.000000 0.000000 
0.000000 0.000000 0.000000 

0.000000 -0.000000 0.000000 
0.000000 0.000000 0.000000 
0.000000 0.000000 0.000000 

0.000000 -0.000000 0.000000 
0.000000 -0.000000 0.000000 
0.000000 0.000000 0.000000 

0.000000 0.000000 0.000000 
0.000000 -0.000000 0.000000 
0.000000 0.000000 0.000000 

-0.000000 0.000000 0.000000 
0.000000 0.000000 0.000000 
0.000000 0.000000 0.000000 

-0.000000 0.000000 0.000000 
0.000000 0.000000 0.000000 
0.000000 0.000000 0.000000 

0.000000 0.000000 0.000000 
0.000000 -0.000000 0.000000 
0.000000 0.000000 0.000000 

0.000000 0.000000 0.000000 
0.000000 -0.000000 0.000000 
0.000000 0.000000 0.000000 

0.000000 -0.000000 0.000000 
0.000000 -0.000000 0.000000 
0.000000 0.000000 0.000000 

0.000000 0.000000 0.000000 
0.000000 -0.000000 0.000000 
0.000000 0.000000 0.000000 

0.000000 0.000000 0.000000 
0.000000 -0.000000 0.000000 
0.000000 0.000000 0.000000 

0.000000 -0.000000 0.000000 
0.000000 -0.000000 0.000000 
0.000000 0.000000 0.000000 

0.000000 -0.000000 0.000000 
0.000000 -0.000000 0.000000 
0.000000 0.000000 0.000000 

0.000000 0.000000 0.000000 
0.000000 -0.000000 0.000000 
0.000000 0.000000 0.000000 

0.000000 0.000000 0.000000 
0.000000 -0.000000 0.000000 
0.000000 0.000000 0.000000 

0.000000 0.000000 0.000000 
0.000000 -0.000000 0.000000 
0.000000 0.000000 0.000000 

0.000000 0.000000 0.000000 
0.000000 -0.000000 0.000000 
0.000000 0.000000 0.000000 

0.000000 -0.000000 0.000000 
0.000000 -0.000000 0.000000 
0.000000 0.000000 0.000000 

0.000000 -0.000000 0.000000 
0.000000 -0.000000 0.000000 
0.000000 0.000000 0.000000 

-0.000000 0.000000 0.000000 
0.000000 0.000000 0.000000 
0.000000 0.000000 0.000000 

0.000000 0.000000 0.000000 
0.000000 -0.000000 0.000000 
0.000000 0.000000 0.000000 

0.000000 0.000000 0.000000 
0.000000 0.000000 0.000000 
0.000000 0.000000 0.000000 

