# vtk DataFile Version 3.0 
vtk output 
ASCII 
DATASET UNSTRUCTURED_GRID 
POINTS 175 float 
-0.026061 -2.043189 0.000000 
-0.106992 -1.975134 0.000000 
-0.054870 -1.983366 0.000000 
-0.028809 -1.937483 0.000000 
-0.186430 -1.911058 0.000000 
-0.137056 -1.913584 0.000000 
-0.114311 -1.859937 0.000000 
-0.058186 -1.875603 0.000000 
-0.029377 -1.835425 0.000000 
-0.265318 -1.847902 0.000000 
-0.217198 -1.848702 0.000000 
-0.196633 -1.791405 0.000000 
-0.143120 -1.800114 0.000000 
-0.116563 -1.752846 0.000000 
-0.058945 -1.772491 0.000000 
-0.029568 -1.734371 0.000000 
-0.344206 -1.784747 0.000000 
-0.296791 -1.784739 0.000000 
-0.278030 -1.724797 0.000000 
-0.225992 -1.730663 0.000000 
-0.201664 -1.678546 0.000000 
-0.145749 -1.692020 0.000000 
-0.117890 -1.647677 0.000000 
-0.059328 -1.670383 0.000000 
-0.029759 -1.633317 0.000000 
-0.058559 -2.083940 0.000000 
-0.162226 -2.104782 0.000000 
-0.123292 -2.069165 0.000000 
-0.142917 -2.020181 0.000000 
-0.261851 -2.126939 0.000000 
-0.229092 -2.089912 0.000000 
-0.256854 -2.038680 0.000000 
-0.209613 -2.004568 0.000000 
-0.223062 -1.956994 0.000000 
-0.360414 -2.149239 0.000000 
-0.329787 -2.112116 0.000000 
-0.361761 -2.060314 0.000000 
-0.321587 -2.023905 0.000000 
-0.341985 -1.973671 0.000000 
-0.290702 -1.940872 0.000000 
-0.302189 -1.894137 0.000000 
-0.458977 -2.171539 0.000000 
-0.429420 -2.134464 0.000000 
-0.464588 -2.082423 0.000000 
-0.427556 -2.045395 0.000000 
-0.453135 -1.993880 0.000000 
-0.407738 -1.958565 0.000000 
-0.425037 -1.909137 0.000000 
-0.370772 -1.877508 0.000000 
-0.381315 -1.831280 0.000000 
-0.046960 -2.134755 0.000000 
-0.095301 -2.228801 0.000000 
-0.098873 -2.176154 0.000000 
-0.149405 -2.160956 0.000000 
-0.140093 -2.320505 0.000000 
-0.148617 -2.271807 0.000000 
-0.205981 -2.261569 0.000000 
-0.203197 -2.203366 0.000000 
-0.248777 -2.184220 0.000000 
-0.184111 -2.411469 0.000000 
-0.194039 -2.364377 0.000000 
-0.254475 -2.357078 0.000000 
-0.257893 -2.302968 0.000000 
-0.309886 -2.287596 0.000000 
-0.303554 -2.227051 0.000000 
-0.347255 -2.206893 0.000000 
-0.228129 -2.502432 0.000000 
-0.238687 -2.456208 0.000000 
-0.301302 -2.451256 0.000000 
-0.307162 -2.399217 0.000000 
-0.363386 -2.387096 0.000000 
-0.362692 -2.329585 0.000000 
-0.412122 -2.312291 0.000000 
-0.403017 -2.250145 0.000000 
-0.445733 -2.229566 0.000000 
-0.000000 -2.157370 0.000000 
0.043388 -2.253801 0.000000 
-0.000000 -2.223768 0.000000 
-0.043388 -2.253801 0.000000 
0.087158 -2.345997 0.000000 
0.043769 -2.322299 0.000000 
-0.000000 -2.360764 0.000000 
-0.043769 -2.322299 0.000000 
-0.087158 -2.345997 0.000000 
0.130831 -2.437127 0.000000 
0.087824 -2.415528 0.000000 
0.044436 -2.458228 0.000000 
-0.000000 -2.427163 0.000000 
-0.044436 -2.458228 0.000000 
-0.087824 -2.415528 0.000000 
-0.130831 -2.437127 0.000000 
0.174505 -2.528257 0.000000 
0.131782 -2.507690 0.000000 
0.088871 -2.553557 0.000000 
0.044532 -2.525693 0.000000 
-0.000000 -2.562093 0.000000 
-0.044532 -2.525693 0.000000 
-0.088871 -2.553557 0.000000 
-0.131782 -2.507690 0.000000 
-0.174505 -2.528257 0.000000 
0.046960 -2.134755 0.000000 
0.149405 -2.160956 0.000000 
0.098873 -2.176154 0.000000 
0.095301 -2.228801 0.000000 
0.248777 -2.184220 0.000000 
0.203197 -2.203366 0.000000 
0.205981 -2.261569 0.000000 
0.148617 -2.271807 0.000000 
0.140093 -2.320505 0.000000 
0.347255 -2.206893 0.000000 
0.303554 -2.227051 0.000000 
0.309886 -2.287596 0.000000 
0.257893 -2.302968 0.000000 
0.254475 -2.357078 0.000000 
0.194039 -2.364377 0.000000 
0.184111 -2.411469 0.000000 
0.445733 -2.229566 0.000000 
0.403017 -2.250145 0.000000 
0.412122 -2.312291 0.000000 
0.362692 -2.329585 0.000000 
0.363386 -2.387096 0.000000 
0.307162 -2.399217 0.000000 
0.301302 -2.451256 0.000000 
0.238687 -2.456208 0.000000 
0.228129 -2.502432 0.000000 
0.058559 -2.083940 0.000000 
0.142917 -2.020181 0.000000 
0.123292 -2.069165 0.000000 
0.162226 -2.104782 0.000000 
0.223062 -1.956994 0.000000 
0.209613 -2.004568 0.000000 
0.256854 -2.038680 0.000000 
0.229092 -2.089912 0.000000 
0.261851 -2.126939 0.000000 
0.302189 -1.894137 0.000000 
0.290702 -1.940872 0.000000 
0.341985 -1.973671 0.000000 
0.321587 -2.023905 0.000000 
0.361761 -2.060314 0.000000 
0.329787 -2.112116 0.000000 
0.360414 -2.149239 0.000000 
0.381315 -1.831280 0.000000 
0.370772 -1.877508 0.000000 
0.425037 -1.909137 0.000000 
0.407738 -1.958565 0.000000 
0.453135 -1.993880 0.000000 
0.427556 -2.045395 0.000000 
0.464588 -2.082423 0.000000 
0.429420 -2.134464 0.000000 
0.458977 -2.171539 0.000000 
0.026061 -2.043189 0.000000 
0.028809 -1.937483 0.000000 
0.054870 -1.983366 0.000000 
0.106992 -1.975134 0.000000 
0.029377 -1.835425 0.000000 
0.058186 -1.875603 0.000000 
0.114311 -1.859937 0.000000 
0.137056 -1.913584 0.000000 
0.186430 -1.911058 0.000000 
0.029568 -1.734371 0.000000 
0.058945 -1.772491 0.000000 
0.116563 -1.752846 0.000000 
0.143120 -1.800114 0.000000 
0.196633 -1.791405 0.000000 
0.217198 -1.848702 0.000000 
0.265318 -1.847902 0.000000 
0.029759 -1.633317 0.000000 
0.059328 -1.670383 0.000000 
0.117890 -1.647677 0.000000 
0.145749 -1.692020 0.000000 
0.201664 -1.678546 0.000000 
0.225992 -1.730663 0.000000 
0.278030 -1.724797 0.000000 
0.296791 -1.784739 0.000000 
0.344206 -1.784747 0.000000 
CELLS 175 350 
1 0 
1 1 
1 2 
1 3 
1 4 
1 5 
1 6 
1 7 
1 8 
1 9 
1 10 
1 11 
1 12 
1 13 
1 14 
1 15 
1 16 
1 17 
1 18 
1 19 
1 20 
1 21 
1 22 
1 23 
1 24 
1 25 
1 26 
1 27 
1 28 
1 29 
1 30 
1 31 
1 32 
1 33 
1 34 
1 35 
1 36 
1 37 
1 38 
1 39 
1 40 
1 41 
1 42 
1 43 
1 44 
1 45 
1 46 
1 47 
1 48 
1 49 
1 50 
1 51 
1 52 
1 53 
1 54 
1 55 
1 56 
1 57 
1 58 
1 59 
1 60 
1 61 
1 62 
1 63 
1 64 
1 65 
1 66 
1 67 
1 68 
1 69 
1 70 
1 71 
1 72 
1 73 
1 74 
1 75 
1 76 
1 77 
1 78 
1 79 
1 80 
1 81 
1 82 
1 83 
1 84 
1 85 
1 86 
1 87 
1 88 
1 89 
1 90 
1 91 
1 92 
1 93 
1 94 
1 95 
1 96 
1 97 
1 98 
1 99 
1 100 
1 101 
1 102 
1 103 
1 104 
1 105 
1 106 
1 107 
1 108 
1 109 
1 110 
1 111 
1 112 
1 113 
1 114 
1 115 
1 116 
1 117 
1 118 
1 119 
1 120 
1 121 
1 122 
1 123 
1 124 
1 125 
1 126 
1 127 
1 128 
1 129 
1 130 
1 131 
1 132 
1 133 
1 134 
1 135 
1 136 
1 137 
1 138 
1 139 
1 140 
1 141 
1 142 
1 143 
1 144 
1 145 
1 146 
1 147 
1 148 
1 149 
1 150 
1 151 
1 152 
1 153 
1 154 
1 155 
1 156 
1 157 
1 158 
1 159 
1 160 
1 161 
1 162 
1 163 
1 164 
1 165 
1 166 
1 167 
1 168 
1 169 
1 170 
1 171 
1 172 
1 173 
1 174 
CELL_TYPES 175 
1 
1 
1 
1 
1 
1 
1 
1 
1 
1 
1 
1 
1 
1 
1 
1 
1 
1 
1 
1 
1 
1 
1 
1 
1 
1 
1 
1 
1 
1 
1 
1 
1 
1 
1 
1 
1 
1 
1 
1 
1 
1 
1 
1 
1 
1 
1 
1 
1 
1 
1 
1 
1 
1 
1 
1 
1 
1 
1 
1 
1 
1 
1 
1 
1 
1 
1 
1 
1 
1 
1 
1 
1 
1 
1 
1 
1 
1 
1 
1 
1 
1 
1 
1 
1 
1 
1 
1 
1 
1 
1 
1 
1 
1 
1 
1 
1 
1 
1 
1 
1 
1 
1 
1 
1 
1 
1 
1 
1 
1 
1 
1 
1 
1 
1 
1 
1 
1 
1 
1 
1 
1 
1 
1 
1 
1 
1 
1 
1 
1 
1 
1 
1 
1 
1 
1 
1 
1 
1 
1 
1 
1 
1 
1 
1 
1 
1 
1 
1 
1 
1 
1 
1 
1 
1 
1 
1 
1 
1 
1 
1 
1 
1 
1 
1 
1 
1 
1 
1 
1 
1 
1 
1 
1 
1 
POINT_DATA 175 
VECTORS X_GC float 
-0.026061 -2.043189 0.000000 
-0.106992 -1.975134 0.000000 
-0.054870 -1.983366 0.000000 
-0.028809 -1.937483 0.000000 
-0.186430 -1.911058 0.000000 
-0.137056 -1.913584 0.000000 
-0.114311 -1.859937 0.000000 
-0.058186 -1.875603 0.000000 
-0.029377 -1.835425 0.000000 
-0.265318 -1.847902 0.000000 
-0.217198 -1.848702 0.000000 
-0.196633 -1.791405 0.000000 
-0.143120 -1.800114 0.000000 
-0.116563 -1.752846 0.000000 
-0.058945 -1.772491 0.000000 
-0.029568 -1.734371 0.000000 
-0.344206 -1.784747 0.000000 
-0.296791 -1.784739 0.000000 
-0.278030 -1.724797 0.000000 
-0.225992 -1.730663 0.000000 
-0.201664 -1.678546 0.000000 
-0.145749 -1.692020 0.000000 
-0.117890 -1.647677 0.000000 
-0.059328 -1.670383 0.000000 
-0.029759 -1.633317 0.000000 
-0.058559 -2.083940 0.000000 
-0.162226 -2.104782 0.000000 
-0.123292 -2.069165 0.000000 
-0.142917 -2.020181 0.000000 
-0.261851 -2.126939 0.000000 
-0.229092 -2.089912 0.000000 
-0.256854 -2.038680 0.000000 
-0.209613 -2.004568 0.000000 
-0.223062 -1.956994 0.000000 
-0.360414 -2.149239 0.000000 
-0.329787 -2.112116 0.000000 
-0.361761 -2.060314 0.000000 
-0.321587 -2.023905 0.000000 
-0.341985 -1.973671 0.000000 
-0.290702 -1.940872 0.000000 
-0.302189 -1.894137 0.000000 
-0.458977 -2.171539 0.000000 
-0.429420 -2.134464 0.000000 
-0.464588 -2.082423 0.000000 
-0.427556 -2.045395 0.000000 
-0.453135 -1.993880 0.000000 
-0.407738 -1.958565 0.000000 
-0.425037 -1.909137 0.000000 
-0.370772 -1.877508 0.000000 
-0.381315 -1.831280 0.000000 
-0.046960 -2.134755 0.000000 
-0.095301 -2.228801 0.000000 
-0.098873 -2.176154 0.000000 
-0.149405 -2.160956 0.000000 
-0.140093 -2.320505 0.000000 
-0.148617 -2.271807 0.000000 
-0.205981 -2.261569 0.000000 
-0.203197 -2.203366 0.000000 
-0.248777 -2.184220 0.000000 
-0.184111 -2.411469 0.000000 
-0.194039 -2.364377 0.000000 
-0.254475 -2.357078 0.000000 
-0.257893 -2.302968 0.000000 
-0.309886 -2.287596 0.000000 
-0.303554 -2.227051 0.000000 
-0.347255 -2.206893 0.000000 
-0.228129 -2.502432 0.000000 
-0.238687 -2.456208 0.000000 
-0.301302 -2.451256 0.000000 
-0.307162 -2.399217 0.000000 
-0.363386 -2.387096 0.000000 
-0.362692 -2.329585 0.000000 
-0.412122 -2.312291 0.000000 
-0.403017 -2.250145 0.000000 
-0.445733 -2.229566 0.000000 
-0.000000 -2.157370 0.000000 
0.043388 -2.253801 0.000000 
-0.000000 -2.223768 0.000000 
-0.043388 -2.253801 0.000000 
0.087158 -2.345997 0.000000 
0.043769 -2.322299 0.000000 
-0.000000 -2.360764 0.000000 
-0.043769 -2.322299 0.000000 
-0.087158 -2.345997 0.000000 
0.130831 -2.437127 0.000000 
0.087824 -2.415528 0.000000 
0.044436 -2.458228 0.000000 
-0.000000 -2.427163 0.000000 
-0.044436 -2.458228 0.000000 
-0.087824 -2.415528 0.000000 
-0.130831 -2.437127 0.000000 
0.174505 -2.528257 0.000000 
0.131782 -2.507690 0.000000 
0.088871 -2.553557 0.000000 
0.044532 -2.525693 0.000000 
-0.000000 -2.562093 0.000000 
-0.044532 -2.525693 0.000000 
-0.088871 -2.553557 0.000000 
-0.131782 -2.507690 0.000000 
-0.174505 -2.528257 0.000000 
0.046960 -2.134755 0.000000 
0.149405 -2.160956 0.000000 
0.098873 -2.176154 0.000000 
0.095301 -2.228801 0.000000 
0.248777 -2.184220 0.000000 
0.203197 -2.203366 0.000000 
0.205981 -2.261569 0.000000 
0.148617 -2.271807 0.000000 
0.140093 -2.320505 0.000000 
0.347255 -2.206893 0.000000 
0.303554 -2.227051 0.000000 
0.309886 -2.287596 0.000000 
0.257893 -2.302968 0.000000 
0.254475 -2.357078 0.000000 
0.194039 -2.364377 0.000000 
0.184111 -2.411469 0.000000 
0.445733 -2.229566 0.000000 
0.403017 -2.250145 0.000000 
0.412122 -2.312291 0.000000 
0.362692 -2.329585 0.000000 
0.363386 -2.387096 0.000000 
0.307162 -2.399217 0.000000 
0.301302 -2.451256 0.000000 
0.238687 -2.456208 0.000000 
0.228129 -2.502432 0.000000 
0.058559 -2.083940 0.000000 
0.142917 -2.020181 0.000000 
0.123292 -2.069165 0.000000 
0.162226 -2.104782 0.000000 
0.223062 -1.956994 0.000000 
0.209613 -2.004568 0.000000 
0.256854 -2.038680 0.000000 
0.229092 -2.089912 0.000000 
0.261851 -2.126939 0.000000 
0.302189 -1.894137 0.000000 
0.290702 -1.940872 0.000000 
0.341985 -1.973671 0.000000 
0.321587 -2.023905 0.000000 
0.361761 -2.060314 0.000000 
0.329787 -2.112116 0.000000 
0.360414 -2.149239 0.000000 
0.381315 -1.831280 0.000000 
0.370772 -1.877508 0.000000 
0.425037 -1.909137 0.000000 
0.407738 -1.958565 0.000000 
0.453135 -1.993880 0.000000 
0.427556 -2.045395 0.000000 
0.464588 -2.082423 0.000000 
0.429420 -2.134464 0.000000 
0.458977 -2.171539 0.000000 
0.026061 -2.043189 0.000000 
0.028809 -1.937483 0.000000 
0.054870 -1.983366 0.000000 
0.106992 -1.975134 0.000000 
0.029377 -1.835425 0.000000 
0.058186 -1.875603 0.000000 
0.114311 -1.859937 0.000000 
0.137056 -1.913584 0.000000 
0.186430 -1.911058 0.000000 
0.029568 -1.734371 0.000000 
0.058945 -1.772491 0.000000 
0.116563 -1.752846 0.000000 
0.143120 -1.800114 0.000000 
0.196633 -1.791405 0.000000 
0.217198 -1.848702 0.000000 
0.265318 -1.847902 0.000000 
0.029759 -1.633317 0.000000 
0.059328 -1.670383 0.000000 
0.117890 -1.647677 0.000000 
0.145749 -1.692020 0.000000 
0.201664 -1.678546 0.000000 
0.225992 -1.730663 0.000000 
0.278030 -1.724797 0.000000 
0.296791 -1.784739 0.000000 
0.344206 -1.784747 0.000000 
VECTORS X_EC float 
0.338794 0.083053 0.000000 
-0.609100 -0.835696 0.000000 
0.713312 -0.724555 0.000000 
0.374519 0.656015 0.000000 
0.423588 0.299285 0.000000 
-0.218274 0.333388 0.000000 
-0.513962 -0.390850 0.000000 
0.756418 -0.179364 0.000000 
0.381900 -0.721757 0.000000 
-0.550868 -0.553318 0.000000 
0.823577 -0.542523 0.000000 
0.556234 0.683973 0.000000 
-0.139443 0.801542 0.000000 
-0.484677 0.163417 0.000000 
0.766286 0.428633 0.000000 
0.384386 -0.085988 0.000000 
0.474677 0.594079 0.000000 
-0.141715 0.593982 0.000000 
-0.385608 -0.215246 0.000000 
0.937896 -0.136051 0.000000 
0.621631 -0.839631 0.000000 
-0.105264 -0.657731 0.000000 
-0.467428 0.743642 0.000000 
0.771260 -0.949829 0.000000 
0.386873 0.549781 0.000000 
0.761262 0.633187 0.000000 
0.108942 0.914564 0.000000 
-0.397202 0.433724 0.000000 
-0.142083 -0.227551 0.000000 
-0.595936 -0.786326 0.000000 
0.978194 0.713808 0.000000 
-0.660903 0.022183 0.000000 
0.724964 -0.438337 0.000000 
0.899809 0.919415 0.000000 
0.685384 -0.485274 0.000000 
0.287229 -0.986432 0.000000 
0.702895 0.314240 0.000000 
0.180633 -0.177279 0.000000 
0.445811 -0.855439 0.000000 
-0.220880 0.701775 0.000000 
-0.071546 0.070850 0.000000 
-0.033296 -0.184221 0.000000 
-0.417537 -0.684731 0.000000 
0.039645 0.612707 0.000000 
-0.441768 0.112835 0.000000 
-0.109248 -0.582615 0.000000 
-0.699407 0.940629 0.000000 
-0.474522 0.273350 0.000000 
0.820030 -0.153643 0.000000 
0.957100 -0.777715 0.000000 
0.610485 -0.680807 0.000000 
-0.761092 0.588813 0.000000 
-0.714655 -0.121925 0.000000 
-0.057734 -0.327092 0.000000 
-0.178789 -0.173183 0.000000 
-0.067979 -0.830609 0.000000 
0.677748 -0.968813 0.000000 
0.641556 0.245442 0.000000 
-0.765897 -0.013036 0.000000 
0.393446 -0.945174 0.000000 
0.522510 0.419096 0.000000 
-0.691820 0.320552 0.000000 
-0.647393 -0.409931 0.000000 
0.028512 -0.617457 0.000000 
-0.053800 0.565182 0.000000 
0.514316 0.293051 0.000000 
0.965681 0.282835 0.000000 
-0.897068 -0.341194 0.000000 
-0.083078 -0.408047 0.000000 
-0.006893 0.889429 0.000000 
0.724017 0.725796 0.000000 
0.714996 -0.050608 0.000000 
-0.642413 -0.284065 0.000000 
-0.760780 0.876954 0.000000 
-0.205471 0.599139 0.000000 
0.000000 -0.375505 0.000000 
-0.564049 0.926308 0.000000 
0.000000 0.520872 0.000000 
0.564049 0.926308 0.000000 
0.866949 0.170963 0.000000 
-0.569003 -0.148968 0.000000 
0.000000 0.370320 0.000000 
0.569003 -0.148968 0.000000 
-0.866949 0.170963 0.000000 
0.299194 -0.598787 0.000000 
0.858290 -0.890371 0.000000 
-0.577662 -0.313925 0.000000 
0.000000 -0.733303 0.000000 
0.577662 -0.313925 0.000000 
-0.858290 -0.890371 0.000000 
-0.299194 -0.598787 0.000000 
-0.268560 0.631463 0.000000 
0.286830 0.353822 0.000000 
0.844677 0.973020 0.000000 
-0.578910 0.596857 0.000000 
0.000000 -0.911739 0.000000 
0.578910 0.596857 0.000000 
-0.844677 0.973020 0.000000 
-0.286830 0.353822 0.000000 
0.268560 0.631463 0.000000 
-0.610485 -0.680807 0.000000 
0.057734 -0.327092 0.000000 
0.714655 -0.121925 0.000000 
0.761092 0.588813 0.000000 
0.765897 -0.013036 0.000000 
-0.641556 0.245442 0.000000 
-0.677748 -0.968813 0.000000 
0.067979 -0.830609 0.000000 
0.178789 -0.173183 0.000000 
-0.514316 0.293051 0.000000 
0.053800 0.565182 0.000000 
-0.028512 -0.617457 0.000000 
0.647393 -0.409931 0.000000 
0.691820 0.320552 0.000000 
-0.522510 0.419096 0.000000 
-0.393446 -0.945174 0.000000 
0.205471 0.599139 0.000000 
0.760780 0.876954 0.000000 
0.642413 -0.284065 0.000000 
-0.714996 -0.050608 0.000000 
-0.724017 0.725796 0.000000 
0.006894 0.889429 0.000000 
0.083078 -0.408047 0.000000 
0.897068 -0.341194 0.000000 
-0.965681 0.282835 0.000000 
-0.761262 0.633187 0.000000 
0.142083 -0.227551 0.000000 
0.397202 0.433724 0.000000 
-0.108942 0.914564 0.000000 
-0.899809 0.919415 0.000000 
-0.724964 -0.438337 0.000000 
0.660903 0.022183 0.000000 
-0.978194 0.713808 0.000000 
0.595936 -0.786326 0.000000 
0.071546 0.070850 0.000000 
0.220880 0.701775 0.000000 
-0.445811 -0.855439 0.000000 
-0.180633 -0.177279 0.000000 
-0.702895 0.314240 0.000000 
-0.287229 -0.986432 0.000000 
-0.685384 -0.485274 0.000000 
-0.957100 -0.777715 0.000000 
-0.820030 -0.153643 0.000000 
0.474522 0.273350 0.000000 
0.699407 0.940629 0.000000 
0.109248 -0.582615 0.000000 
0.441768 0.112835 0.000000 
-0.039645 0.612707 0.000000 
0.417537 -0.684731 0.000000 
0.033296 -0.184221 0.000000 
-0.338794 0.083053 0.000000 
-0.374519 0.656015 0.000000 
-0.713312 -0.724555 0.000000 
0.609100 -0.835696 0.000000 
-0.381900 -0.721757 0.000000 
-0.756418 -0.179364 0.000000 
0.513962 -0.390850 0.000000 
0.218274 0.333388 0.000000 
-0.423588 0.299285 0.000000 
-0.384386 -0.085988 0.000000 
-0.766286 0.428633 0.000000 
0.484677 0.163417 0.000000 
0.139443 0.801542 0.000000 
-0.556234 0.683973 0.000000 
-0.823577 -0.542523 0.000000 
0.550868 -0.553318 0.000000 
-0.386873 0.549781 0.000000 
-0.771260 -0.949829 0.000000 
0.467428 0.743642 0.000000 
0.105264 -0.657731 0.000000 
-0.621631 -0.839631 0.000000 
-0.937896 -0.136051 0.000000 
0.385608 -0.215246 0.000000 
0.141715 0.593982 0.000000 
-0.474677 0.594079 0.000000 
CELL_DATA 175 
SCALARS MASS float 
LOOKUP_TABLE default 
0.781831 
0.864274 
0.946717 
0.864274 
0.881307 
0.921110 
0.858535 
0.921110 
0.881307 
0.887046 
0.910001 
0.869829 
0.915556 
0.869829 
0.910001 
0.887046 
0.892784 
0.915740 
0.892784 
0.927218 
0.892784 
0.927218 
0.892784 
0.915740 
0.892784 
0.781831 
0.864274 
0.946717 
0.864274 
0.881307 
0.921110 
0.858535 
0.921110 
0.881307 
0.887046 
0.910001 
0.869829 
0.915556 
0.869829 
0.910001 
0.887046 
0.892784 
0.915740 
0.892784 
0.927218 
0.892784 
0.927218 
0.892784 
0.915740 
0.892784 
0.781831 
0.864274 
0.946717 
0.864274 
0.881307 
0.921110 
0.858535 
0.921110 
0.881307 
0.887046 
0.910001 
0.869829 
0.915556 
0.869829 
0.910001 
0.887046 
0.892784 
0.915740 
0.892784 
0.927218 
0.892784 
0.927218 
0.892784 
0.915740 
0.892784 
0.781831 
0.864274 
0.946717 
0.864274 
0.881307 
0.921110 
0.858535 
0.921110 
0.881307 
0.887046 
0.910001 
0.869829 
0.915556 
0.869829 
0.910001 
0.887046 
0.892784 
0.915740 
0.892784 
0.927218 
0.892784 
0.927218 
0.892784 
0.915740 
0.892784 
0.781831 
0.864274 
0.946717 
0.864274 
0.881307 
0.921110 
0.858535 
0.921110 
0.881307 
0.887046 
0.910001 
0.869829 
0.915556 
0.869829 
0.910001 
0.887046 
0.892784 
0.915740 
0.892784 
0.927218 
0.892784 
0.927218 
0.892784 
0.915740 
0.892784 
0.781831 
0.864274 
0.946717 
0.864274 
0.881307 
0.921110 
0.858535 
0.921110 
0.881307 
0.887046 
0.910001 
0.869829 
0.915556 
0.869829 
0.910001 
0.887046 
0.892784 
0.915740 
0.892784 
0.927218 
0.892784 
0.927218 
0.892784 
0.915740 
0.892784 
0.781831 
0.864274 
0.946717 
0.864274 
0.881307 
0.921110 
0.858535 
0.921110 
0.881307 
0.887046 
0.910001 
0.869829 
0.915556 
0.869829 
0.910001 
0.887046 
0.892784 
0.915740 
0.892784 
0.927218 
0.892784 
0.927218 
0.892784 
0.915740 
0.892784 
SCALARS MASS float 
LOOKUP_TABLE default 
0.781831 
0.864274 
0.946717 
0.864274 
0.881307 
0.921110 
0.858535 
0.921110 
0.881307 
0.887046 
0.910001 
0.869829 
0.915556 
0.869829 
0.910001 
0.887046 
0.892784 
0.915740 
0.892784 
0.927218 
0.892784 
0.927218 
0.892784 
0.915740 
0.892784 
0.781831 
0.864274 
0.946717 
0.864274 
0.881307 
0.921110 
0.858535 
0.921110 
0.881307 
0.887046 
0.910001 
0.869829 
0.915556 
0.869829 
0.910001 
0.887046 
0.892784 
0.915740 
0.892784 
0.927218 
0.892784 
0.927218 
0.892784 
0.915740 
0.892784 
0.781831 
0.864274 
0.946717 
0.864274 
0.881307 
0.921110 
0.858535 
0.921110 
0.881307 
0.887046 
0.910001 
0.869829 
0.915556 
0.869829 
0.910001 
0.887046 
0.892784 
0.915740 
0.892784 
0.927218 
0.892784 
0.927218 
0.892784 
0.915740 
0.892784 
0.781831 
0.864274 
0.946717 
0.864274 
0.881307 
0.921110 
0.858535 
0.921110 
0.881307 
0.887046 
0.910001 
0.869829 
0.915556 
0.869829 
0.910001 
0.887046 
0.892784 
0.915740 
0.892784 
0.927218 
0.892784 
0.927218 
0.892784 
0.915740 
0.892784 
0.781831 
0.864274 
0.946717 
0.864274 
0.881307 
0.921110 
0.858535 
0.921110 
0.881307 
0.887046 
0.910001 
0.869829 
0.915556 
0.869829 
0.910001 
0.887046 
0.892784 
0.915740 
0.892784 
0.927218 
0.892784 
0.927218 
0.892784 
0.915740 
0.892784 
0.781831 
0.864274 
0.946717 
0.864274 
0.881307 
0.921110 
0.858535 
0.921110 
0.881307 
0.887046 
0.910001 
0.869829 
0.915556 
0.869829 
0.910001 
0.887046 
0.892784 
0.915740 
0.892784 
0.927218 
0.892784 
0.927218 
0.892784 
0.915740 
0.892784 
0.781831 
0.864274 
0.946717 
0.864274 
0.881307 
0.921110 
0.858535 
0.921110 
0.881307 
0.887046 
0.910001 
0.869829 
0.915556 
0.869829 
0.910001 
0.887046 
0.892784 
0.915740 
0.892784 
0.927218 
0.892784 
0.927218 
0.892784 
0.915740 
0.892784 
SCALARS DENSITY float 
LOOKUP_TABLE default 
200.000000 
200.000000 
200.000000 
200.000000 
200.000000 
200.000000 
200.000000 
200.000000 
200.000000 
200.000000 
200.000000 
200.000000 
200.000000 
200.000000 
200.000000 
200.000000 
200.000000 
200.000000 
200.000000 
200.000000 
200.000000 
200.000000 
200.000000 
200.000000 
200.000000 
200.000000 
200.000000 
200.000000 
200.000000 
200.000000 
200.000000 
200.000000 
200.000000 
200.000000 
200.000000 
200.000000 
200.000000 
200.000000 
200.000000 
200.000000 
200.000000 
200.000000 
200.000000 
200.000000 
200.000000 
200.000000 
200.000000 
200.000000 
200.000000 
200.000000 
200.000000 
200.000000 
200.000000 
200.000000 
200.000000 
200.000000 
200.000000 
200.000000 
200.000000 
200.000000 
200.000000 
200.000000 
200.000000 
200.000000 
200.000000 
200.000000 
200.000000 
200.000000 
200.000000 
200.000000 
200.000000 
200.000000 
200.000000 
200.000000 
200.000000 
200.000000 
200.000000 
200.000000 
200.000000 
200.000000 
200.000000 
200.000000 
200.000000 
200.000000 
200.000000 
200.000000 
200.000000 
200.000000 
200.000000 
200.000000 
200.000000 
200.000000 
200.000000 
200.000000 
200.000000 
200.000000 
200.000000 
200.000000 
200.000000 
200.000000 
200.000000 
200.000000 
200.000000 
200.000000 
200.000000 
200.000000 
200.000000 
200.000000 
200.000000 
200.000000 
200.000000 
200.000000 
200.000000 
200.000000 
200.000000 
200.000000 
200.000000 
200.000000 
200.000000 
200.000000 
200.000000 
200.000000 
200.000000 
200.000000 
200.000000 
200.000000 
200.000000 
200.000000 
200.000000 
200.000000 
200.000000 
200.000000 
200.000000 
200.000000 
200.000000 
200.000000 
200.000000 
200.000000 
200.000000 
200.000000 
200.000000 
200.000000 
200.000000 
200.000000 
200.000000 
200.000000 
200.000000 
200.000000 
200.000000 
200.000000 
200.000000 
200.000000 
200.000000 
200.000000 
200.000000 
200.000000 
200.000000 
200.000000 
200.000000 
200.000000 
200.000000 
200.000000 
200.000000 
200.000000 
200.000000 
200.000000 
200.000000 
200.000000 
200.000000 
200.000000 
200.000000 
200.000000 
200.000000 
200.000000 
200.000000 
SCALARS ELEM_i float 
LOOKUP_TABLE default 
168 
195 
168 
169 
196 
196 
196 
169 
169 
223 
196 
197 
197 
197 
170 
170 
224 
224 
224 
197 
197 
197 
198 
170 
171 
168 
195 
195 
195 
221 
195 
222 
195 
196 
221 
221 
222 
222 
222 
223 
223 
248 
248 
249 
249 
249 
250 
250 
223 
223 
167 
194 
194 
194 
193 
193 
193 
194 
221 
192 
193 
220 
220 
220 
221 
221 
192 
219 
219 
220 
220 
220 
247 
248 
248 
167 
167 
167 
167 
139 
166 
166 
166 
193 
138 
138 
165 
165 
165 
192 
192 
138 
138 
138 
165 
164 
165 
192 
192 
192 
167 
140 
140 
140 
113 
140 
139 
139 
139 
113 
113 
112 
112 
112 
139 
138 
86 
86 
85 
112 
112 
112 
111 
111 
138 
168 
141 
141 
141 
142 
141 
114 
141 
113 
115 
115 
114 
114 
114 
113 
113 
115 
115 
88 
88 
87 
87 
87 
86 
86 
168 
169 
168 
141 
169 
169 
142 
142 
142 
170 
170 
143 
143 
143 
142 
115 
171 
170 
144 
143 
143 
143 
116 
116 
116 
VECTORS VELOCITY float 
-0.000000 -6.413778 0.000000 
-0.000000 -6.413778 0.000000 
-0.000000 -6.413778 0.000000 
-0.000000 -6.413778 0.000000 
0.000000 -6.413778 0.000000 
0.000000 -6.413778 0.000000 
0.000000 -6.413778 0.000000 
0.000000 -6.413778 0.000000 
0.000000 -6.413778 0.000000 
0.000000 -6.413778 0.000000 
0.000000 -6.413778 0.000000 
0.000000 -6.413778 0.000000 
0.000000 -6.413778 0.000000 
0.000000 -6.413778 0.000000 
0.000000 -6.413778 0.000000 
0.000000 -6.413778 0.000000 
0.000000 -6.413778 0.000000 
0.000000 -6.413778 0.000000 
0.000000 -6.413778 0.000000 
0.000000 -6.413778 0.000000 
0.000000 -6.413778 0.000000 
0.000000 -6.413778 0.000000 
0.000000 -6.413778 0.000000 
0.000000 -6.413778 0.000000 
0.000000 -6.413778 0.000000 
-0.000000 -6.413778 0.000000 
0.000000 -6.413778 0.000000 
-0.000000 -6.413778 0.000000 
-0.000000 -6.413778 0.000000 
0.000000 -6.413778 0.000000 
0.000000 -6.413778 0.000000 
0.000000 -6.413778 0.000000 
0.000000 -6.413778 0.000000 
-0.000000 -6.413778 0.000000 
0.000000 -6.413778 0.000000 
0.000000 -6.413778 0.000000 
-0.000000 -6.413778 0.000000 
-0.000000 -6.413778 0.000000 
-0.000000 -6.413778 0.000000 
-0.000000 -6.413778 0.000000 
0.000000 -6.413778 0.000000 
0.000000 -6.413778 0.000000 
0.000000 -6.413778 0.000000 
-0.000000 -6.413778 0.000000 
-0.000000 -6.413778 0.000000 
-0.000000 -6.413778 0.000000 
-0.000000 -6.413778 0.000000 
0.000000 -6.413778 0.000000 
0.000000 -6.413778 0.000000 
0.000000 -6.413778 0.000000 
-0.000000 -6.413778 0.000000 
-0.000000 -6.413778 0.000000 
-0.000000 -6.413778 0.000000 
-0.000000 -6.413778 0.000000 
-0.000000 -6.413778 0.000000 
-0.000000 -6.413778 0.000000 
-0.000000 -6.413778 0.000000 
-0.000000 -6.413778 0.000000 
-0.000000 -6.413778 0.000000 
-0.000000 -6.413778 0.000000 
-0.000000 -6.413778 0.000000 
-0.000000 -6.413778 0.000000 
-0.000000 -6.413778 0.000000 
-0.000000 -6.413778 0.000000 
-0.000000 -6.413778 0.000000 
-0.000000 -6.413778 0.000000 
-0.000000 -6.413778 0.000000 
-0.000000 -6.413778 0.000000 
0.000000 -6.413778 0.000000 
0.000000 -6.413778 0.000000 
0.000000 -6.413778 0.000000 
-0.000000 -6.413778 0.000000 
0.000000 -6.413778 0.000000 
-0.000000 -6.413778 0.000000 
0.000000 -6.413778 0.000000 
0.000000 -6.413778 0.000000 
0.000000 -6.413778 0.000000 
0.000000 -6.413778 0.000000 
0.000000 -6.413778 0.000000 
-0.000000 -6.413778 0.000000 
-0.000000 -6.413778 0.000000 
-0.000000 -6.413778 0.000000 
-0.000000 -6.413778 0.000000 
-0.000000 -6.413778 0.000000 
-0.000000 -6.413778 0.000000 
0.000000 -6.413778 0.000000 
-0.000000 -6.413778 0.000000 
-0.000000 -6.413778 0.000000 
-0.000000 -6.413778 0.000000 
-0.000000 -6.413778 0.000000 
-0.000000 -6.413778 0.000000 
0.000000 -6.413778 0.000000 
-0.000000 -6.413778 0.000000 
-0.000000 -6.413778 0.000000 
-0.000000 -6.413778 0.000000 
-0.000000 -6.413778 0.000000 
0.000000 -6.413778 0.000000 
-0.000000 -6.413778 0.000000 
-0.000000 -6.413778 0.000000 
-0.000000 -6.413778 0.000000 
0.000000 -6.413778 0.000000 
0.000000 -6.413778 0.000000 
0.000000 -6.413778 0.000000 
0.000000 -6.413778 0.000000 
-0.000000 -6.413778 0.000000 
-0.000000 -6.413778 0.000000 
-0.000000 -6.413778 0.000000 
0.000000 -6.413778 0.000000 
-0.000000 -6.413778 0.000000 
-0.000000 -6.413778 0.000000 
-0.000000 -6.413778 0.000000 
-0.000000 -6.413778 0.000000 
-0.000000 -6.413778 0.000000 
-0.000000 -6.413778 0.000000 
-0.000000 -6.413778 0.000000 
-0.000000 -6.413778 0.000000 
0.000000 -6.413778 0.000000 
-0.000000 -6.413778 0.000000 
0.000000 -6.413778 0.000000 
-0.000000 -6.413778 0.000000 
-0.000000 -6.413778 0.000000 
-0.000000 -6.413778 0.000000 
0.000000 -6.413778 0.000000 
-0.000000 -6.413778 0.000000 
-0.000000 -6.413778 0.000000 
-0.000000 -6.413778 0.000000 
-0.000000 -6.413778 0.000000 
-0.000000 -6.413778 0.000000 
-0.000000 -6.413778 0.000000 
0.000000 -6.413778 0.000000 
0.000000 -6.413778 0.000000 
-0.000000 -6.413778 0.000000 
-0.000000 -6.413778 0.000000 
-0.000000 -6.413778 0.000000 
-0.000000 -6.413778 0.000000 
-0.000000 -6.413778 0.000000 
-0.000000 -6.413778 0.000000 
-0.000000 -6.413778 0.000000 
-0.000000 -6.413778 0.000000 
-0.000000 -6.413778 0.000000 
-0.000000 -6.413778 0.000000 
-0.000000 -6.413778 0.000000 
-0.000000 -6.413778 0.000000 
-0.000000 -6.413778 0.000000 
-0.000000 -6.413778 0.000000 
0.000000 -6.413778 0.000000 
0.000000 -6.413778 0.000000 
0.000000 -6.413778 0.000000 
-0.000000 -6.413778 0.000000 
0.000000 -6.413778 0.000000 
-0.000000 -6.413778 0.000000 
0.000000 -6.413778 0.000000 
-0.000000 -6.413778 0.000000 
-0.000000 -6.413778 0.000000 
0.000000 -6.413778 0.000000 
0.000000 -6.413778 0.000000 
0.000000 -6.413778 0.000000 
0.000000 -6.413778 0.000000 
-0.000000 -6.413778 0.000000 
0.000000 -6.413778 0.000000 
0.000000 -6.413778 0.000000 
0.000000 -6.413778 0.000000 
0.000000 -6.413778 0.000000 
0.000000 -6.413778 0.000000 
0.000000 -6.413778 0.000000 
-0.000000 -6.413778 0.000000 
-0.000000 -6.413778 0.000000 
-0.000000 -6.413778 0.000000 
0.000000 -6.413778 0.000000 
-0.000000 -6.413778 0.000000 
0.000000 -6.413778 0.000000 
0.000000 -6.413778 0.000000 
0.000000 -6.413778 0.000000 
0.000000 -6.413778 0.000000 
0.000000 -6.413778 0.000000 
TENSORS STRESS float 
-0.000000 -0.000000 0.000000 
0.000000 -0.000000 0.000000 
0.000000 0.000000 0.000000 

0.000000 -0.000000 0.000000 
0.000000 0.000000 0.000000 
0.000000 0.000000 0.000000 

0.000000 0.000000 0.000000 
0.000000 0.000000 0.000000 
0.000000 0.000000 0.000000 

0.000000 0.000000 0.000000 
0.000000 0.000000 0.000000 
0.000000 0.000000 0.000000 

-0.000000 -0.000000 0.000000 
0.000000 -0.000000 0.000000 
0.000000 0.000000 0.000000 

0.000000 0.000000 0.000000 
0.000000 0.000000 0.000000 
0.000000 0.000000 0.000000 

0.000000 -0.000000 0.000000 
0.000000 0.000000 0.000000 
0.000000 0.000000 0.000000 

-0.000000 0.000000 0.000000 
0.000000 -0.000000 0.000000 
0.000000 0.000000 0.000000 

0.000000 0.000000 0.000000 
0.000000 0.000000 0.000000 
0.000000 0.000000 0.000000 

-0.000000 0.000000 0.000000 
0.000000 -0.000000 0.000000 
0.000000 0.000000 0.000000 

-0.000000 0.000000 0.000000 
0.000000 -0.000000 0.000000 
0.000000 0.000000 0.000000 

-0.000000 0.000000 0.000000 
0.000000 -0.000000 0.000000 
0.000000 0.000000 0.000000 

-0.000000 0.000000 0.000000 
0.000000 0.000000 0.000000 
0.000000 0.000000 0.000000 

-0.000000 0.000000 0.000000 
0.000000 0.000000 0.000000 
0.000000 0.000000 0.000000 

-0.000000 0.000000 0.000000 
0.000000 -0.000000 0.000000 
0.000000 0.000000 0.000000 

-0.000000 0.000000 0.000000 
0.000000 -0.000000 0.000000 
0.000000 0.000000 0.000000 

0.000000 -0.000000 0.000000 
0.000000 0.000000 0.000000 
0.000000 0.000000 0.000000 

-0.000000 -0.000000 0.000000 
0.000000 -0.000000 0.000000 
0.000000 0.000000 0.000000 

0.000000 -0.000000 0.000000 
0.000000 0.000000 0.000000 
0.000000 0.000000 0.000000 

-0.000000 -0.000000 0.000000 
0.000000 0.000000 0.000000 
0.000000 0.000000 0.000000 

0.000000 -0.000000 0.000000 
0.000000 0.000000 0.000000 
0.000000 0.000000 0.000000 

-0.000000 -0.000000 0.000000 
0.000000 -0.000000 0.000000 
0.000000 0.000000 0.000000 

-0.000000 0.000000 0.000000 
0.000000 -0.000000 0.000000 
0.000000 0.000000 0.000000 

0.000000 0.000000 0.000000 
0.000000 0.000000 0.000000 
0.000000 0.000000 0.000000 

0.000000 0.000000 0.000000 
0.000000 0.000000 0.000000 
0.000000 0.000000 0.000000 

-0.000000 -0.000000 0.000000 
0.000000 -0.000000 0.000000 
0.000000 0.000000 0.000000 

0.000000 -0.000000 0.000000 
0.000000 0.000000 0.000000 
0.000000 0.000000 0.000000 

-0.000000 -0.000000 0.000000 
0.000000 0.000000 0.000000 
0.000000 0.000000 0.000000 

-0.000000 -0.000000 0.000000 
0.000000 -0.000000 0.000000 
0.000000 0.000000 0.000000 

0.000000 -0.000000 0.000000 
0.000000 0.000000 0.000000 
0.000000 0.000000 0.000000 

-0.000000 -0.000000 0.000000 
0.000000 -0.000000 0.000000 
0.000000 0.000000 0.000000 

0.000000 0.000000 0.000000 
0.000000 0.000000 0.000000 
0.000000 0.000000 0.000000 

-0.000000 -0.000000 0.000000 
0.000000 0.000000 0.000000 
0.000000 0.000000 0.000000 

-0.000000 -0.000000 0.000000 
0.000000 -0.000000 0.000000 
0.000000 0.000000 0.000000 

0.000000 0.000000 0.000000 
0.000000 0.000000 0.000000 
0.000000 0.000000 0.000000 

0.000000 -0.000000 0.000000 
0.000000 0.000000 0.000000 
0.000000 0.000000 0.000000 

-0.000000 0.000000 0.000000 
0.000000 -0.000000 0.000000 
0.000000 0.000000 0.000000 

-0.000000 0.000000 0.000000 
0.000000 0.000000 0.000000 
0.000000 0.000000 0.000000 

-0.000000 0.000000 0.000000 
0.000000 -0.000000 0.000000 
0.000000 0.000000 0.000000 

0.000000 0.000000 0.000000 
0.000000 0.000000 0.000000 
0.000000 0.000000 0.000000 

-0.000000 0.000000 0.000000 
0.000000 -0.000000 0.000000 
0.000000 0.000000 0.000000 

-0.000000 -0.000000 0.000000 
0.000000 -0.000000 0.000000 
0.000000 0.000000 0.000000 

-0.000000 0.000000 0.000000 
0.000000 -0.000000 0.000000 
0.000000 0.000000 0.000000 

0.000000 0.000000 0.000000 
0.000000 0.000000 0.000000 
0.000000 0.000000 0.000000 

0.000000 0.000000 0.000000 
0.000000 0.000000 0.000000 
0.000000 0.000000 0.000000 

0.000000 -0.000000 0.000000 
0.000000 0.000000 0.000000 
0.000000 0.000000 0.000000 

-0.000000 -0.000000 0.000000 
0.000000 -0.000000 0.000000 
0.000000 0.000000 0.000000 

0.000000 -0.000000 0.000000 
0.000000 0.000000 0.000000 
0.000000 0.000000 0.000000 

-0.000000 0.000000 0.000000 
0.000000 -0.000000 0.000000 
0.000000 0.000000 0.000000 

0.000000 -0.000000 0.000000 
0.000000 0.000000 0.000000 
0.000000 0.000000 0.000000 

0.000000 -0.000000 0.000000 
0.000000 0.000000 0.000000 
0.000000 0.000000 0.000000 

0.000000 -0.000000 0.000000 
0.000000 0.000000 0.000000 
0.000000 0.000000 0.000000 

0.000000 -0.000000 0.000000 
0.000000 0.000000 0.000000 
0.000000 0.000000 0.000000 

-0.000000 -0.000000 0.000000 
0.000000 -0.000000 0.000000 
0.000000 0.000000 0.000000 

-0.000000 -0.000000 0.000000 
0.000000 -0.000000 0.000000 
0.000000 0.000000 0.000000 

0.000000 -0.000000 0.000000 
0.000000 0.000000 0.000000 
0.000000 0.000000 0.000000 

-0.000000 -0.000000 0.000000 
0.000000 -0.000000 0.000000 
0.000000 0.000000 0.000000 

0.000000 -0.000000 0.000000 
0.000000 0.000000 0.000000 
0.000000 0.000000 0.000000 

0.000000 -0.000000 0.000000 
0.000000 0.000000 0.000000 
0.000000 0.000000 0.000000 

0.000000 0.000000 0.000000 
0.000000 0.000000 0.000000 
0.000000 0.000000 0.000000 

0.000000 0.000000 0.000000 
0.000000 0.000000 0.000000 
0.000000 0.000000 0.000000 

0.000000 0.000000 0.000000 
0.000000 0.000000 0.000000 
0.000000 0.000000 0.000000 

0.000000 -0.000000 0.000000 
0.000000 0.000000 0.000000 
0.000000 0.000000 0.000000 

0.000000 -0.000000 0.000000 
0.000000 0.000000 0.000000 
0.000000 0.000000 0.000000 

-0.000000 0.000000 0.000000 
0.000000 -0.000000 0.000000 
0.000000 0.000000 0.000000 

-0.000000 0.000000 0.000000 
0.000000 -0.000000 0.000000 
0.000000 0.000000 0.000000 

-0.000000 0.000000 0.000000 
0.000000 -0.000000 0.000000 
0.000000 0.000000 0.000000 

0.000000 0.000000 0.000000 
0.000000 0.000000 0.000000 
0.000000 0.000000 0.000000 

0.000000 -0.000000 0.000000 
0.000000 0.000000 0.000000 
0.000000 0.000000 0.000000 

0.000000 0.000000 0.000000 
0.000000 0.000000 0.000000 
0.000000 0.000000 0.000000 

-0.000000 0.000000 0.000000 
0.000000 -0.000000 0.000000 
0.000000 0.000000 0.000000 

-0.000000 0.000000 0.000000 
0.000000 -0.000000 0.000000 
0.000000 0.000000 0.000000 

0.000000 0.000000 0.000000 
0.000000 0.000000 0.000000 
0.000000 0.000000 0.000000 

-0.000000 -0.000000 0.000000 
0.000000 -0.000000 0.000000 
0.000000 0.000000 0.000000 

-0.000000 -0.000000 0.000000 
0.000000 -0.000000 0.000000 
0.000000 0.000000 0.000000 

-0.000000 0.000000 0.000000 
0.000000 -0.000000 0.000000 
0.000000 0.000000 0.000000 

0.000000 0.000000 0.000000 
0.000000 0.000000 0.000000 
0.000000 0.000000 0.000000 

-0.000000 0.000000 0.000000 
0.000000 -0.000000 0.000000 
0.000000 0.000000 0.000000 

0.000000 -0.000000 0.000000 
0.000000 0.000000 0.000000 
0.000000 0.000000 0.000000 

-0.000000 0.000000 0.000000 
0.000000 -0.000000 0.000000 
0.000000 0.000000 0.000000 

0.000000 0.000000 0.000000 
0.000000 0.000000 0.000000 
0.000000 0.000000 0.000000 

-0.000000 0.000000 0.000000 
0.000000 -0.000000 0.000000 
0.000000 0.000000 0.000000 

-0.000000 0.000000 0.000000 
0.000000 -0.000000 0.000000 
0.000000 0.000000 0.000000 

-0.000000 0.000000 0.000000 
0.000000 -0.000000 0.000000 
0.000000 0.000000 0.000000 

-0.000000 0.000000 0.000000 
0.000000 -0.000000 0.000000 
0.000000 0.000000 0.000000 

0.000000 0.000000 0.000000 
0.000000 0.000000 0.000000 
0.000000 0.000000 0.000000 

0.000000 0.000000 0.000000 
0.000000 0.000000 0.000000 
0.000000 0.000000 0.000000 

0.000000 0.000000 0.000000 
0.000000 0.000000 0.000000 
0.000000 0.000000 0.000000 

0.000000 0.000000 0.000000 
0.000000 0.000000 0.000000 
0.000000 0.000000 0.000000 

0.000000 0.000000 0.000000 
0.000000 0.000000 0.000000 
0.000000 0.000000 0.000000 

-0.000000 0.000000 0.000000 
0.000000 -0.000000 0.000000 
0.000000 0.000000 0.000000 

-0.000000 -0.000000 0.000000 
0.000000 -0.000000 0.000000 
0.000000 0.000000 0.000000 

0.000000 -0.000000 0.000000 
0.000000 0.000000 0.000000 
0.000000 0.000000 0.000000 

-0.000000 -0.000000 0.000000 
0.000000 -0.000000 0.000000 
0.000000 0.000000 0.000000 

0.000000 -0.000000 0.000000 
0.000000 0.000000 0.000000 
0.000000 0.000000 0.000000 

0.000000 0.000000 0.000000 
0.000000 0.000000 0.000000 
0.000000 0.000000 0.000000 

-0.000000 0.000000 0.000000 
0.000000 -0.000000 0.000000 
0.000000 0.000000 0.000000 

-0.000000 0.000000 0.000000 
0.000000 -0.000000 0.000000 
0.000000 0.000000 0.000000 

0.000000 0.000000 0.000000 
0.000000 0.000000 0.000000 
0.000000 0.000000 0.000000 

0.000000 0.000000 0.000000 
0.000000 0.000000 0.000000 
0.000000 0.000000 0.000000 

0.000000 -0.000000 0.000000 
0.000000 0.000000 0.000000 
0.000000 0.000000 0.000000 

-0.000000 0.000000 0.000000 
0.000000 -0.000000 0.000000 
0.000000 0.000000 0.000000 

-0.000000 0.000000 0.000000 
0.000000 -0.000000 0.000000 
0.000000 0.000000 0.000000 

0.000000 -0.000000 0.000000 
0.000000 0.000000 0.000000 
0.000000 0.000000 0.000000 

-0.000000 0.000000 0.000000 
0.000000 -0.000000 0.000000 
0.000000 0.000000 0.000000 

-0.000000 -0.000000 0.000000 
0.000000 0.000000 0.000000 
0.000000 0.000000 0.000000 

-0.000000 -0.000000 0.000000 
0.000000 0.000000 0.000000 
0.000000 0.000000 0.000000 

-0.000000 -0.000000 0.000000 
0.000000 -0.000000 0.000000 
0.000000 0.000000 0.000000 

0.000000 -0.000000 0.000000 
0.000000 0.000000 0.000000 
0.000000 0.000000 0.000000 

0.000000 0.000000 0.000000 
0.000000 0.000000 0.000000 
0.000000 0.000000 0.000000 

-0.000000 0.000000 0.000000 
0.000000 -0.000000 0.000000 
0.000000 0.000000 0.000000 

0.000000 0.000000 0.000000 
0.000000 0.000000 0.000000 
0.000000 0.000000 0.000000 

-0.000000 0.000000 0.000000 
0.000000 -0.000000 0.000000 
0.000000 0.000000 0.000000 

-0.000000 0.000000 0.000000 
0.000000 -0.000000 0.000000 
0.000000 0.000000 0.000000 

-0.000000 -0.000000 0.000000 
0.000000 0.000000 0.000000 
0.000000 0.000000 0.000000 

-0.000000 0.000000 0.000000 
0.000000 -0.000000 0.000000 
0.000000 0.000000 0.000000 

-0.000000 0.000000 0.000000 
0.000000 -0.000000 0.000000 
0.000000 0.000000 0.000000 

0.000000 -0.000000 0.000000 
0.000000 0.000000 0.000000 
0.000000 0.000000 0.000000 

-0.000000 0.000000 0.000000 
0.000000 0.000000 0.000000 
0.000000 0.000000 0.000000 

0.000000 0.000000 0.000000 
0.000000 0.000000 0.000000 
0.000000 0.000000 0.000000 

-0.000000 0.000000 0.000000 
0.000000 -0.000000 0.000000 
0.000000 0.000000 0.000000 

0.000000 0.000000 0.000000 
0.000000 0.000000 0.000000 
0.000000 0.000000 0.000000 

-0.000000 0.000000 0.000000 
0.000000 -0.000000 0.000000 
0.000000 0.000000 0.000000 

0.000000 0.000000 0.000000 
0.000000 0.000000 0.000000 
0.000000 0.000000 0.000000 

0.000000 -0.000000 0.000000 
0.000000 0.000000 0.000000 
0.000000 0.000000 0.000000 

0.000000 -0.000000 0.000000 
0.000000 0.000000 0.000000 
0.000000 0.000000 0.000000 

-0.000000 -0.000000 0.000000 
0.000000 -0.000000 0.000000 
0.000000 0.000000 0.000000 

0.000000 -0.000000 0.000000 
0.000000 0.000000 0.000000 
0.000000 0.000000 0.000000 

0.000000 -0.000000 0.000000 
0.000000 0.000000 0.000000 
0.000000 0.000000 0.000000 

0.000000 0.000000 0.000000 
0.000000 0.000000 0.000000 
0.000000 0.000000 0.000000 

0.000000 0.000000 0.000000 
0.000000 0.000000 0.000000 
0.000000 0.000000 0.000000 

-0.000000 -0.000000 0.000000 
0.000000 -0.000000 0.000000 
0.000000 0.000000 0.000000 

0.000000 -0.000000 0.000000 
0.000000 0.000000 0.000000 
0.000000 0.000000 0.000000 

-0.000000 0.000000 0.000000 
0.000000 -0.000000 0.000000 
0.000000 0.000000 0.000000 

-0.000000 -0.000000 0.000000 
0.000000 -0.000000 0.000000 
0.000000 0.000000 0.000000 

-0.000000 -0.000000 0.000000 
0.000000 -0.000000 0.000000 
0.000000 0.000000 0.000000 

0.000000 -0.000000 0.000000 
0.000000 0.000000 0.000000 
0.000000 0.000000 0.000000 

-0.000000 -0.000000 0.000000 
0.000000 -0.000000 0.000000 
0.000000 0.000000 0.000000 

-0.000000 -0.000000 0.000000 
0.000000 -0.000000 0.000000 
0.000000 0.000000 0.000000 

-0.000000 0.000000 0.000000 
0.000000 -0.000000 0.000000 
0.000000 0.000000 0.000000 

0.000000 0.000000 0.000000 
0.000000 0.000000 0.000000 
0.000000 0.000000 0.000000 

-0.000000 0.000000 0.000000 
0.000000 -0.000000 0.000000 
0.000000 0.000000 0.000000 

0.000000 -0.000000 0.000000 
0.000000 0.000000 0.000000 
0.000000 0.000000 0.000000 

-0.000000 0.000000 0.000000 
0.000000 -0.000000 0.000000 
0.000000 0.000000 0.000000 

0.000000 0.000000 0.000000 
0.000000 0.000000 0.000000 
0.000000 0.000000 0.000000 

0.000000 0.000000 0.000000 
0.000000 0.000000 0.000000 
0.000000 0.000000 0.000000 

-0.000000 0.000000 0.000000 
0.000000 -0.000000 0.000000 
0.000000 0.000000 0.000000 

-0.000000 0.000000 0.000000 
0.000000 -0.000000 0.000000 
0.000000 0.000000 0.000000 

0.000000 0.000000 0.000000 
0.000000 0.000000 0.000000 
0.000000 0.000000 0.000000 

0.000000 -0.000000 0.000000 
0.000000 0.000000 0.000000 
0.000000 0.000000 0.000000 

0.000000 -0.000000 0.000000 
0.000000 0.000000 0.000000 
0.000000 0.000000 0.000000 

-0.000000 0.000000 0.000000 
0.000000 -0.000000 0.000000 
0.000000 0.000000 0.000000 

-0.000000 0.000000 0.000000 
0.000000 -0.000000 0.000000 
0.000000 0.000000 0.000000 

0.000000 0.000000 0.000000 
0.000000 0.000000 0.000000 
0.000000 0.000000 0.000000 

0.000000 0.000000 0.000000 
0.000000 0.000000 0.000000 
0.000000 0.000000 0.000000 

0.000000 -0.000000 0.000000 
0.000000 0.000000 0.000000 
0.000000 0.000000 0.000000 

-0.000000 0.000000 0.000000 
0.000000 -0.000000 0.000000 
0.000000 0.000000 0.000000 

-0.000000 0.000000 0.000000 
0.000000 0.000000 0.000000 
0.000000 0.000000 0.000000 

-0.000000 0.000000 0.000000 
0.000000 -0.000000 0.000000 
0.000000 0.000000 0.000000 

-0.000000 0.000000 0.000000 
0.000000 -0.000000 0.000000 
0.000000 0.000000 0.000000 

0.000000 0.000000 0.000000 
0.000000 0.000000 0.000000 
0.000000 0.000000 0.000000 

-0.000000 0.000000 0.000000 
0.000000 -0.000000 0.000000 
0.000000 0.000000 0.000000 

0.000000 0.000000 0.000000 
0.000000 0.000000 0.000000 
0.000000 0.000000 0.000000 

0.000000 0.000000 0.000000 
0.000000 0.000000 0.000000 
0.000000 0.000000 0.000000 

-0.000000 0.000000 0.000000 
0.000000 -0.000000 0.000000 
0.000000 0.000000 0.000000 

-0.000000 -0.000000 0.000000 
0.000000 -0.000000 0.000000 
0.000000 0.000000 0.000000 

0.000000 0.000000 0.000000 
0.000000 0.000000 0.000000 
0.000000 0.000000 0.000000 

-0.000000 0.000000 0.000000 
0.000000 -0.000000 0.000000 
0.000000 0.000000 0.000000 

-0.000000 0.000000 0.000000 
0.000000 -0.000000 0.000000 
0.000000 0.000000 0.000000 

0.000000 0.000000 0.000000 
0.000000 0.000000 0.000000 
0.000000 0.000000 0.000000 

-0.000000 0.000000 0.000000 
0.000000 -0.000000 0.000000 
0.000000 0.000000 0.000000 

-0.000000 0.000000 0.000000 
0.000000 -0.000000 0.000000 
0.000000 0.000000 0.000000 

-0.000000 -0.000000 0.000000 
0.000000 -0.000000 0.000000 
0.000000 0.000000 0.000000 

0.000000 0.000000 0.000000 
0.000000 0.000000 0.000000 
0.000000 0.000000 0.000000 

-0.000000 0.000000 0.000000 
0.000000 -0.000000 0.000000 
0.000000 0.000000 0.000000 

TENSORS STRAIN float 
0.000000 -0.000000 0.000000 
0.000000 -0.000000 0.000000 
0.000000 0.000000 0.000000 

-0.000000 -0.000000 0.000000 
0.000000 0.000000 0.000000 
0.000000 0.000000 0.000000 

0.000000 0.000000 0.000000 
0.000000 0.000000 0.000000 
0.000000 0.000000 0.000000 

0.000000 0.000000 0.000000 
0.000000 0.000000 0.000000 
0.000000 0.000000 0.000000 

-0.000000 -0.000000 0.000000 
0.000000 0.000000 0.000000 
0.000000 0.000000 0.000000 

-0.000000 0.000000 0.000000 
0.000000 0.000000 0.000000 
0.000000 0.000000 0.000000 

-0.000000 -0.000000 0.000000 
0.000000 0.000000 0.000000 
0.000000 0.000000 0.000000 

-0.000000 0.000000 0.000000 
0.000000 -0.000000 0.000000 
0.000000 0.000000 0.000000 

-0.000000 0.000000 0.000000 
0.000000 0.000000 0.000000 
0.000000 0.000000 0.000000 

-0.000000 0.000000 0.000000 
0.000000 0.000000 0.000000 
0.000000 0.000000 0.000000 

-0.000000 0.000000 0.000000 
0.000000 -0.000000 0.000000 
0.000000 0.000000 0.000000 

-0.000000 0.000000 0.000000 
0.000000 0.000000 0.000000 
0.000000 0.000000 0.000000 

-0.000000 0.000000 0.000000 
0.000000 0.000000 0.000000 
0.000000 0.000000 0.000000 

-0.000000 0.000000 0.000000 
0.000000 0.000000 0.000000 
0.000000 0.000000 0.000000 

-0.000000 0.000000 0.000000 
0.000000 0.000000 0.000000 
0.000000 0.000000 0.000000 

-0.000000 0.000000 0.000000 
0.000000 0.000000 0.000000 
0.000000 0.000000 0.000000 

-0.000000 -0.000000 0.000000 
0.000000 0.000000 0.000000 
0.000000 0.000000 0.000000 

-0.000000 -0.000000 0.000000 
0.000000 0.000000 0.000000 
0.000000 0.000000 0.000000 

-0.000000 -0.000000 0.000000 
0.000000 0.000000 0.000000 
0.000000 0.000000 0.000000 

-0.000000 -0.000000 0.000000 
0.000000 0.000000 0.000000 
0.000000 0.000000 0.000000 

-0.000000 -0.000000 0.000000 
0.000000 0.000000 0.000000 
0.000000 0.000000 0.000000 

-0.000000 -0.000000 0.000000 
0.000000 -0.000000 0.000000 
0.000000 0.000000 0.000000 

0.000000 0.000000 0.000000 
0.000000 -0.000000 0.000000 
0.000000 0.000000 0.000000 

-0.000000 0.000000 0.000000 
0.000000 0.000000 0.000000 
0.000000 0.000000 0.000000 

-0.000000 0.000000 0.000000 
0.000000 0.000000 0.000000 
0.000000 0.000000 0.000000 

-0.000000 -0.000000 0.000000 
0.000000 -0.000000 0.000000 
0.000000 0.000000 0.000000 

-0.000000 -0.000000 0.000000 
0.000000 0.000000 0.000000 
0.000000 0.000000 0.000000 

-0.000000 -0.000000 0.000000 
0.000000 0.000000 0.000000 
0.000000 0.000000 0.000000 

-0.000000 -0.000000 0.000000 
0.000000 0.000000 0.000000 
0.000000 0.000000 0.000000 

-0.000000 -0.000000 0.000000 
0.000000 0.000000 0.000000 
0.000000 0.000000 0.000000 

-0.000000 -0.000000 0.000000 
0.000000 0.000000 0.000000 
0.000000 0.000000 0.000000 

-0.000000 0.000000 0.000000 
0.000000 0.000000 0.000000 
0.000000 0.000000 0.000000 

-0.000000 -0.000000 0.000000 
0.000000 0.000000 0.000000 
0.000000 0.000000 0.000000 

-0.000000 -0.000000 0.000000 
0.000000 0.000000 0.000000 
0.000000 0.000000 0.000000 

0.000000 0.000000 0.000000 
0.000000 0.000000 0.000000 
0.000000 0.000000 0.000000 

-0.000000 -0.000000 0.000000 
0.000000 0.000000 0.000000 
0.000000 0.000000 0.000000 

-0.000000 0.000000 0.000000 
0.000000 0.000000 0.000000 
0.000000 0.000000 0.000000 

-0.000000 0.000000 0.000000 
0.000000 0.000000 0.000000 
0.000000 0.000000 0.000000 

-0.000000 0.000000 0.000000 
0.000000 0.000000 0.000000 
0.000000 0.000000 0.000000 

-0.000000 0.000000 0.000000 
0.000000 0.000000 0.000000 
0.000000 0.000000 0.000000 

-0.000000 0.000000 0.000000 
0.000000 0.000000 0.000000 
0.000000 0.000000 0.000000 

0.000000 -0.000000 0.000000 
0.000000 -0.000000 0.000000 
0.000000 0.000000 0.000000 

0.000000 0.000000 0.000000 
0.000000 -0.000000 0.000000 
0.000000 0.000000 0.000000 

0.000000 0.000000 0.000000 
0.000000 0.000000 0.000000 
0.000000 0.000000 0.000000 

-0.000000 0.000000 0.000000 
0.000000 0.000000 0.000000 
0.000000 0.000000 0.000000 

-0.000000 -0.000000 0.000000 
0.000000 0.000000 0.000000 
0.000000 0.000000 0.000000 

-0.000000 -0.000000 0.000000 
0.000000 0.000000 0.000000 
0.000000 0.000000 0.000000 

0.000000 -0.000000 0.000000 
0.000000 -0.000000 0.000000 
0.000000 0.000000 0.000000 

-0.000000 0.000000 0.000000 
0.000000 0.000000 0.000000 
0.000000 0.000000 0.000000 

-0.000000 -0.000000 0.000000 
0.000000 0.000000 0.000000 
0.000000 0.000000 0.000000 

0.000000 -0.000000 0.000000 
0.000000 0.000000 0.000000 
0.000000 0.000000 0.000000 

-0.000000 -0.000000 0.000000 
0.000000 0.000000 0.000000 
0.000000 0.000000 0.000000 

-0.000000 -0.000000 0.000000 
0.000000 0.000000 0.000000 
0.000000 0.000000 0.000000 

-0.000000 -0.000000 0.000000 
0.000000 0.000000 0.000000 
0.000000 0.000000 0.000000 

-0.000000 -0.000000 0.000000 
0.000000 -0.000000 0.000000 
0.000000 0.000000 0.000000 

0.000000 -0.000000 0.000000 
0.000000 0.000000 0.000000 
0.000000 0.000000 0.000000 

0.000000 -0.000000 0.000000 
0.000000 -0.000000 0.000000 
0.000000 0.000000 0.000000 

-0.000000 -0.000000 0.000000 
0.000000 0.000000 0.000000 
0.000000 0.000000 0.000000 

0.000000 -0.000000 0.000000 
0.000000 0.000000 0.000000 
0.000000 0.000000 0.000000 

0.000000 0.000000 0.000000 
0.000000 0.000000 0.000000 
0.000000 0.000000 0.000000 

0.000000 0.000000 0.000000 
0.000000 0.000000 0.000000 
0.000000 0.000000 0.000000 

0.000000 0.000000 0.000000 
0.000000 0.000000 0.000000 
0.000000 0.000000 0.000000 

0.000000 -0.000000 0.000000 
0.000000 -0.000000 0.000000 
0.000000 0.000000 0.000000 

0.000000 -0.000000 0.000000 
0.000000 0.000000 0.000000 
0.000000 0.000000 0.000000 

0.000000 0.000000 0.000000 
0.000000 -0.000000 0.000000 
0.000000 0.000000 0.000000 

0.000000 0.000000 0.000000 
0.000000 -0.000000 0.000000 
0.000000 0.000000 0.000000 

0.000000 0.000000 0.000000 
0.000000 -0.000000 0.000000 
0.000000 0.000000 0.000000 

-0.000000 0.000000 0.000000 
0.000000 0.000000 0.000000 
0.000000 0.000000 0.000000 

-0.000000 -0.000000 0.000000 
0.000000 0.000000 0.000000 
0.000000 0.000000 0.000000 

0.000000 0.000000 0.000000 
0.000000 -0.000000 0.000000 
0.000000 0.000000 0.000000 

0.000000 0.000000 0.000000 
0.000000 -0.000000 0.000000 
0.000000 0.000000 0.000000 

0.000000 0.000000 0.000000 
0.000000 -0.000000 0.000000 
0.000000 0.000000 0.000000 

0.000000 0.000000 0.000000 
0.000000 -0.000000 0.000000 
0.000000 0.000000 0.000000 

0.000000 -0.000000 0.000000 
0.000000 -0.000000 0.000000 
0.000000 0.000000 0.000000 

0.000000 -0.000000 0.000000 
0.000000 -0.000000 0.000000 
0.000000 0.000000 0.000000 

-0.000000 0.000000 0.000000 
0.000000 -0.000000 0.000000 
0.000000 0.000000 0.000000 

-0.000000 0.000000 0.000000 
0.000000 0.000000 0.000000 
0.000000 0.000000 0.000000 

-0.000000 0.000000 0.000000 
0.000000 0.000000 0.000000 
0.000000 0.000000 0.000000 

-0.000000 -0.000000 0.000000 
0.000000 0.000000 0.000000 
0.000000 0.000000 0.000000 

-0.000000 0.000000 0.000000 
0.000000 -0.000000 0.000000 
0.000000 0.000000 0.000000 

-0.000000 0.000000 0.000000 
0.000000 0.000000 0.000000 
0.000000 0.000000 0.000000 

-0.000000 0.000000 0.000000 
0.000000 -0.000000 0.000000 
0.000000 0.000000 0.000000 

-0.000000 0.000000 0.000000 
0.000000 0.000000 0.000000 
0.000000 0.000000 0.000000 

0.000000 0.000000 0.000000 
0.000000 -0.000000 0.000000 
0.000000 0.000000 0.000000 

0.000000 0.000000 0.000000 
0.000000 -0.000000 0.000000 
0.000000 0.000000 0.000000 

-0.000000 0.000000 0.000000 
0.000000 0.000000 0.000000 
0.000000 0.000000 0.000000 

-0.000000 0.000000 0.000000 
0.000000 0.000000 0.000000 
0.000000 0.000000 0.000000 

-0.000000 0.000000 0.000000 
0.000000 0.000000 0.000000 
0.000000 0.000000 0.000000 

-0.000000 0.000000 0.000000 
0.000000 0.000000 0.000000 
0.000000 0.000000 0.000000 

0.000000 0.000000 0.000000 
0.000000 0.000000 0.000000 
0.000000 0.000000 0.000000 

0.000000 0.000000 0.000000 
0.000000 -0.000000 0.000000 
0.000000 0.000000 0.000000 

-0.000000 -0.000000 0.000000 
0.000000 -0.000000 0.000000 
0.000000 0.000000 0.000000 

0.000000 -0.000000 0.000000 
0.000000 -0.000000 0.000000 
0.000000 0.000000 0.000000 

-0.000000 -0.000000 0.000000 
0.000000 -0.000000 0.000000 
0.000000 0.000000 0.000000 

0.000000 -0.000000 0.000000 
0.000000 -0.000000 0.000000 
0.000000 0.000000 0.000000 

0.000000 0.000000 0.000000 
0.000000 -0.000000 0.000000 
0.000000 0.000000 0.000000 

0.000000 0.000000 0.000000 
0.000000 -0.000000 0.000000 
0.000000 0.000000 0.000000 

0.000000 0.000000 0.000000 
0.000000 -0.000000 0.000000 
0.000000 0.000000 0.000000 

0.000000 0.000000 0.000000 
0.000000 -0.000000 0.000000 
0.000000 0.000000 0.000000 

0.000000 0.000000 0.000000 
0.000000 0.000000 0.000000 
0.000000 0.000000 0.000000 

0.000000 -0.000000 0.000000 
0.000000 0.000000 0.000000 
0.000000 0.000000 0.000000 

-0.000000 0.000000 0.000000 
0.000000 0.000000 0.000000 
0.000000 0.000000 0.000000 

-0.000000 0.000000 0.000000 
0.000000 -0.000000 0.000000 
0.000000 0.000000 0.000000 

-0.000000 -0.000000 0.000000 
0.000000 0.000000 0.000000 
0.000000 0.000000 0.000000 

0.000000 0.000000 0.000000 
0.000000 -0.000000 0.000000 
0.000000 0.000000 0.000000 

-0.000000 -0.000000 0.000000 
0.000000 0.000000 0.000000 
0.000000 0.000000 0.000000 

-0.000000 -0.000000 0.000000 
0.000000 0.000000 0.000000 
0.000000 0.000000 0.000000 

-0.000000 -0.000000 0.000000 
0.000000 0.000000 0.000000 
0.000000 0.000000 0.000000 

-0.000000 -0.000000 0.000000 
0.000000 0.000000 0.000000 
0.000000 0.000000 0.000000 

-0.000000 0.000000 0.000000 
0.000000 0.000000 0.000000 
0.000000 0.000000 0.000000 

-0.000000 0.000000 0.000000 
0.000000 0.000000 0.000000 
0.000000 0.000000 0.000000 

-0.000000 0.000000 0.000000 
0.000000 0.000000 0.000000 
0.000000 0.000000 0.000000 

-0.000000 0.000000 0.000000 
0.000000 0.000000 0.000000 
0.000000 0.000000 0.000000 

-0.000000 0.000000 0.000000 
0.000000 -0.000000 0.000000 
0.000000 0.000000 0.000000 

-0.000000 -0.000000 0.000000 
0.000000 0.000000 0.000000 
0.000000 0.000000 0.000000 

-0.000000 0.000000 0.000000 
0.000000 -0.000000 0.000000 
0.000000 0.000000 0.000000 

-0.000000 0.000000 0.000000 
0.000000 -0.000000 0.000000 
0.000000 0.000000 0.000000 

-0.000000 -0.000000 0.000000 
0.000000 0.000000 0.000000 
0.000000 0.000000 0.000000 

-0.000000 0.000000 0.000000 
0.000000 0.000000 0.000000 
0.000000 0.000000 0.000000 

-0.000000 0.000000 0.000000 
0.000000 0.000000 0.000000 
0.000000 0.000000 0.000000 

0.000000 0.000000 0.000000 
0.000000 -0.000000 0.000000 
0.000000 0.000000 0.000000 

0.000000 0.000000 0.000000 
0.000000 0.000000 0.000000 
0.000000 0.000000 0.000000 

0.000000 0.000000 0.000000 
0.000000 -0.000000 0.000000 
0.000000 0.000000 0.000000 

0.000000 0.000000 0.000000 
0.000000 -0.000000 0.000000 
0.000000 0.000000 0.000000 

0.000000 -0.000000 0.000000 
0.000000 0.000000 0.000000 
0.000000 0.000000 0.000000 

-0.000000 -0.000000 0.000000 
0.000000 0.000000 0.000000 
0.000000 0.000000 0.000000 

-0.000000 -0.000000 0.000000 
0.000000 -0.000000 0.000000 
0.000000 0.000000 0.000000 

-0.000000 -0.000000 0.000000 
0.000000 0.000000 0.000000 
0.000000 0.000000 0.000000 

-0.000000 -0.000000 0.000000 
0.000000 0.000000 0.000000 
0.000000 0.000000 0.000000 

-0.000000 0.000000 0.000000 
0.000000 0.000000 0.000000 
0.000000 0.000000 0.000000 

-0.000000 0.000000 0.000000 
0.000000 0.000000 0.000000 
0.000000 0.000000 0.000000 

-0.000000 -0.000000 0.000000 
0.000000 -0.000000 0.000000 
0.000000 0.000000 0.000000 

-0.000000 -0.000000 0.000000 
0.000000 0.000000 0.000000 
0.000000 0.000000 0.000000 

0.000000 0.000000 0.000000 
0.000000 -0.000000 0.000000 
0.000000 0.000000 0.000000 

-0.000000 -0.000000 0.000000 
0.000000 0.000000 0.000000 
0.000000 0.000000 0.000000 

-0.000000 -0.000000 0.000000 
0.000000 -0.000000 0.000000 
0.000000 0.000000 0.000000 

-0.000000 -0.000000 0.000000 
0.000000 0.000000 0.000000 
0.000000 0.000000 0.000000 

-0.000000 -0.000000 0.000000 
0.000000 0.000000 0.000000 
0.000000 0.000000 0.000000 

0.000000 -0.000000 0.000000 
0.000000 -0.000000 0.000000 
0.000000 0.000000 0.000000 

0.000000 0.000000 0.000000 
0.000000 -0.000000 0.000000 
0.000000 0.000000 0.000000 

0.000000 0.000000 0.000000 
0.000000 0.000000 0.000000 
0.000000 0.000000 0.000000 

-0.000000 0.000000 0.000000 
0.000000 0.000000 0.000000 
0.000000 0.000000 0.000000 

-0.000000 -0.000000 0.000000 
0.000000 0.000000 0.000000 
0.000000 0.000000 0.000000 

-0.000000 0.000000 0.000000 
0.000000 0.000000 0.000000 
0.000000 0.000000 0.000000 

-0.000000 0.000000 0.000000 
0.000000 0.000000 0.000000 
0.000000 0.000000 0.000000 

0.000000 0.000000 0.000000 
0.000000 -0.000000 0.000000 
0.000000 0.000000 0.000000 

0.000000 0.000000 0.000000 
0.000000 -0.000000 0.000000 
0.000000 0.000000 0.000000 

0.000000 0.000000 0.000000 
0.000000 -0.000000 0.000000 
0.000000 0.000000 0.000000 

0.000000 0.000000 0.000000 
0.000000 0.000000 0.000000 
0.000000 0.000000 0.000000 

0.000000 -0.000000 0.000000 
0.000000 -0.000000 0.000000 
0.000000 0.000000 0.000000 

0.000000 -0.000000 0.000000 
0.000000 0.000000 0.000000 
0.000000 0.000000 0.000000 

0.000000 0.000000 0.000000 
0.000000 -0.000000 0.000000 
0.000000 0.000000 0.000000 

0.000000 0.000000 0.000000 
0.000000 -0.000000 0.000000 
0.000000 0.000000 0.000000 

-0.000000 0.000000 0.000000 
0.000000 0.000000 0.000000 
0.000000 0.000000 0.000000 

-0.000000 0.000000 0.000000 
0.000000 0.000000 0.000000 
0.000000 0.000000 0.000000 

-0.000000 -0.000000 0.000000 
0.000000 0.000000 0.000000 
0.000000 0.000000 0.000000 

-0.000000 0.000000 0.000000 
0.000000 0.000000 0.000000 
0.000000 0.000000 0.000000 

-0.000000 0.000000 0.000000 
0.000000 0.000000 0.000000 
0.000000 0.000000 0.000000 

-0.000000 0.000000 0.000000 
0.000000 0.000000 0.000000 
0.000000 0.000000 0.000000 

-0.000000 0.000000 0.000000 
0.000000 -0.000000 0.000000 
0.000000 0.000000 0.000000 

-0.000000 0.000000 0.000000 
0.000000 0.000000 0.000000 
0.000000 0.000000 0.000000 

-0.000000 0.000000 0.000000 
0.000000 -0.000000 0.000000 
0.000000 0.000000 0.000000 

-0.000000 0.000000 0.000000 
0.000000 0.000000 0.000000 
0.000000 0.000000 0.000000 

-0.000000 0.000000 0.000000 
0.000000 0.000000 0.000000 
0.000000 0.000000 0.000000 

-0.000000 0.000000 0.000000 
0.000000 0.000000 0.000000 
0.000000 0.000000 0.000000 

-0.000000 -0.000000 0.000000 
0.000000 -0.000000 0.000000 
0.000000 0.000000 0.000000 

-0.000000 0.000000 0.000000 
0.000000 0.000000 0.000000 
0.000000 0.000000 0.000000 

-0.000000 0.000000 0.000000 
0.000000 0.000000 0.000000 
0.000000 0.000000 0.000000 

0.000000 0.000000 0.000000 
0.000000 -0.000000 0.000000 
0.000000 0.000000 0.000000 

0.000000 0.000000 0.000000 
0.000000 -0.000000 0.000000 
0.000000 0.000000 0.000000 

0.000000 0.000000 0.000000 
0.000000 -0.000000 0.000000 
0.000000 0.000000 0.000000 

-0.000000 0.000000 0.000000 
0.000000 0.000000 0.000000 
0.000000 0.000000 0.000000 

-0.000000 -0.000000 0.000000 
0.000000 -0.000000 0.000000 
0.000000 0.000000 0.000000 

-0.000000 0.000000 0.000000 
0.000000 0.000000 0.000000 
0.000000 0.000000 0.000000 

-0.000000 0.000000 0.000000 
0.000000 -0.000000 0.000000 
0.000000 0.000000 0.000000 

