# vtk DataFile Version 3.0 
vtk output 
ASCII 
DATASET UNSTRUCTURED_GRID 
POINTS 175 float 
-0.027169 -2.746529 0.000000 
-0.110024 -2.680362 0.000000 
-0.056518 -2.689234 0.000000 
-0.029386 -2.644702 0.000000 
-0.189571 -2.615672 0.000000 
-0.139263 -2.619630 0.000000 
-0.114968 -2.567345 0.000000 
-0.058477 -2.584053 0.000000 
-0.029283 -2.543947 0.000000 
-0.267133 -2.550086 0.000000 
-0.218645 -2.553174 0.000000 
-0.196146 -2.496480 0.000000 
-0.142632 -2.506705 0.000000 
-0.115518 -2.460040 0.000000 
-0.058255 -2.480796 0.000000 
-0.029234 -2.442471 0.000000 
-0.344255 -2.483165 0.000000 
-0.296559 -2.485549 0.000000 
-0.275837 -2.426980 0.000000 
-0.223880 -2.435203 0.000000 
-0.198753 -2.383045 0.000000 
-0.143832 -2.398116 0.000000 
-0.115944 -2.353825 0.000000 
-0.058483 -2.377868 0.000000 
-0.029270 -2.340220 0.000000 
-0.061770 -2.784905 0.000000 
-0.172435 -2.801799 0.000000 
-0.129689 -2.769609 0.000000 
-0.148106 -2.722900 0.000000 
-0.280008 -2.819547 0.000000 
-0.242488 -2.786172 0.000000 
-0.267442 -2.736739 0.000000 
-0.216519 -2.705869 0.000000 
-0.228452 -2.659663 0.000000 
-0.386875 -2.837351 0.000000 
-0.350034 -2.802961 0.000000 
-0.377851 -2.752010 0.000000 
-0.333206 -2.718780 0.000000 
-0.350813 -2.669029 0.000000 
-0.296767 -2.640129 0.000000 
-0.306352 -2.593515 0.000000 
-0.494271 -2.843844 0.000000 
-0.457214 -2.813689 0.000000 
-0.486838 -2.760577 0.000000 
-0.444310 -2.730072 0.000000 
-0.465903 -2.678017 0.000000 
-0.416815 -2.649053 0.000000 
-0.431046 -2.599293 0.000000 
-0.374811 -2.573320 0.000000 
-0.383353 -2.527199 0.000000 
-0.049943 -2.832275 0.000000 
-0.103021 -2.906099 0.000000 
-0.107005 -2.868346 0.000000 
-0.161466 -2.853836 0.000000 
-0.154556 -2.947541 0.000000 
-0.162967 -2.927568 0.000000 
-0.227101 -2.921413 0.000000 
-0.221961 -2.886554 0.000000 
-0.270823 -2.871691 0.000000 
-0.211390 -2.971080 0.000000 
-0.218933 -2.960131 0.000000 
-0.293294 -2.957784 0.000000 
-0.291337 -2.939627 0.000000 
-0.351799 -2.932762 0.000000 
-0.335707 -2.901207 0.000000 
-0.381200 -2.887074 0.000000 
-0.276210 -2.984917 0.000000 
-0.285833 -2.978758 0.000000 
-0.370710 -2.977768 0.000000 
-0.368764 -2.967860 0.000000 
-0.435796 -2.963393 0.000000 
-0.422244 -2.947030 0.000000 
-0.472407 -2.938289 0.000000 
-0.449697 -2.909294 0.000000 
-0.491566 -2.892307 0.000000 
-0.000000 -2.852755 0.000000 
0.046267 -2.920351 0.000000 
-0.000000 -2.903613 0.000000 
-0.046267 -2.920351 0.000000 
0.094387 -2.956350 0.000000 
0.046736 -2.949235 0.000000 
-0.000000 -2.960524 0.000000 
-0.046736 -2.949235 0.000000 
-0.094387 -2.956350 0.000000 
0.150085 -2.976042 0.000000 
0.098070 -2.972497 0.000000 
0.049690 -2.979548 0.000000 
-0.000000 -2.974681 0.000000 
-0.049690 -2.979548 0.000000 
-0.098070 -2.972497 0.000000 
-0.150085 -2.976042 0.000000 
0.207470 -2.987673 0.000000 
0.154708 -2.985548 0.000000 
0.104052 -2.989993 0.000000 
0.050898 -2.987473 0.000000 
-0.000000 -2.990704 0.000000 
-0.050898 -2.987473 0.000000 
-0.104052 -2.989993 0.000000 
-0.154708 -2.985548 0.000000 
-0.207470 -2.987673 0.000000 
0.049943 -2.832275 0.000000 
0.161466 -2.853836 0.000000 
0.107005 -2.868346 0.000000 
0.103021 -2.906099 0.000000 
0.270823 -2.871691 0.000000 
0.221961 -2.886554 0.000000 
0.227101 -2.921413 0.000000 
0.162967 -2.927568 0.000000 
0.154556 -2.947541 0.000000 
0.381200 -2.887074 0.000000 
0.335707 -2.901207 0.000000 
0.351799 -2.932762 0.000000 
0.291337 -2.939627 0.000000 
0.293294 -2.957784 0.000000 
0.218933 -2.960131 0.000000 
0.211390 -2.971080 0.000000 
0.491566 -2.892307 0.000000 
0.449697 -2.909294 0.000000 
0.472407 -2.938289 0.000000 
0.422244 -2.947030 0.000000 
0.435796 -2.963393 0.000000 
0.368764 -2.967860 0.000000 
0.370710 -2.977768 0.000000 
0.285833 -2.978758 0.000000 
0.276210 -2.984917 0.000000 
0.061770 -2.784905 0.000000 
0.148106 -2.722900 0.000000 
0.129689 -2.769609 0.000000 
0.172435 -2.801799 0.000000 
0.228452 -2.659663 0.000000 
0.216519 -2.705869 0.000000 
0.267442 -2.736739 0.000000 
0.242488 -2.786172 0.000000 
0.280008 -2.819547 0.000000 
0.306352 -2.593515 0.000000 
0.296767 -2.640129 0.000000 
0.350813 -2.669029 0.000000 
0.333206 -2.718780 0.000000 
0.377851 -2.752010 0.000000 
0.350034 -2.802961 0.000000 
0.386875 -2.837351 0.000000 
0.383353 -2.527199 0.000000 
0.374811 -2.573320 0.000000 
0.431046 -2.599293 0.000000 
0.416815 -2.649053 0.000000 
0.465903 -2.678017 0.000000 
0.444310 -2.730072 0.000000 
0.486838 -2.760577 0.000000 
0.457214 -2.813689 0.000000 
0.494271 -2.843844 0.000000 
0.027169 -2.746529 0.000000 
0.029386 -2.644702 0.000000 
0.056518 -2.689234 0.000000 
0.110024 -2.680362 0.000000 
0.029283 -2.543947 0.000000 
0.058477 -2.584053 0.000000 
0.114968 -2.567345 0.000000 
0.139263 -2.619630 0.000000 
0.189571 -2.615672 0.000000 
0.029234 -2.442471 0.000000 
0.058255 -2.480796 0.000000 
0.115518 -2.460040 0.000000 
0.142632 -2.506705 0.000000 
0.196146 -2.496480 0.000000 
0.218645 -2.553174 0.000000 
0.267133 -2.550086 0.000000 
0.029270 -2.340220 0.000000 
0.058483 -2.377868 0.000000 
0.115944 -2.353825 0.000000 
0.143832 -2.398116 0.000000 
0.198753 -2.383045 0.000000 
0.223880 -2.435203 0.000000 
0.275837 -2.426980 0.000000 
0.296559 -2.485549 0.000000 
0.344255 -2.483165 0.000000 
CELLS 175 350 
1 0 
1 1 
1 2 
1 3 
1 4 
1 5 
1 6 
1 7 
1 8 
1 9 
1 10 
1 11 
1 12 
1 13 
1 14 
1 15 
1 16 
1 17 
1 18 
1 19 
1 20 
1 21 
1 22 
1 23 
1 24 
1 25 
1 26 
1 27 
1 28 
1 29 
1 30 
1 31 
1 32 
1 33 
1 34 
1 35 
1 36 
1 37 
1 38 
1 39 
1 40 
1 41 
1 42 
1 43 
1 44 
1 45 
1 46 
1 47 
1 48 
1 49 
1 50 
1 51 
1 52 
1 53 
1 54 
1 55 
1 56 
1 57 
1 58 
1 59 
1 60 
1 61 
1 62 
1 63 
1 64 
1 65 
1 66 
1 67 
1 68 
1 69 
1 70 
1 71 
1 72 
1 73 
1 74 
1 75 
1 76 
1 77 
1 78 
1 79 
1 80 
1 81 
1 82 
1 83 
1 84 
1 85 
1 86 
1 87 
1 88 
1 89 
1 90 
1 91 
1 92 
1 93 
1 94 
1 95 
1 96 
1 97 
1 98 
1 99 
1 100 
1 101 
1 102 
1 103 
1 104 
1 105 
1 106 
1 107 
1 108 
1 109 
1 110 
1 111 
1 112 
1 113 
1 114 
1 115 
1 116 
1 117 
1 118 
1 119 
1 120 
1 121 
1 122 
1 123 
1 124 
1 125 
1 126 
1 127 
1 128 
1 129 
1 130 
1 131 
1 132 
1 133 
1 134 
1 135 
1 136 
1 137 
1 138 
1 139 
1 140 
1 141 
1 142 
1 143 
1 144 
1 145 
1 146 
1 147 
1 148 
1 149 
1 150 
1 151 
1 152 
1 153 
1 154 
1 155 
1 156 
1 157 
1 158 
1 159 
1 160 
1 161 
1 162 
1 163 
1 164 
1 165 
1 166 
1 167 
1 168 
1 169 
1 170 
1 171 
1 172 
1 173 
1 174 
CELL_TYPES 175 
1 
1 
1 
1 
1 
1 
1 
1 
1 
1 
1 
1 
1 
1 
1 
1 
1 
1 
1 
1 
1 
1 
1 
1 
1 
1 
1 
1 
1 
1 
1 
1 
1 
1 
1 
1 
1 
1 
1 
1 
1 
1 
1 
1 
1 
1 
1 
1 
1 
1 
1 
1 
1 
1 
1 
1 
1 
1 
1 
1 
1 
1 
1 
1 
1 
1 
1 
1 
1 
1 
1 
1 
1 
1 
1 
1 
1 
1 
1 
1 
1 
1 
1 
1 
1 
1 
1 
1 
1 
1 
1 
1 
1 
1 
1 
1 
1 
1 
1 
1 
1 
1 
1 
1 
1 
1 
1 
1 
1 
1 
1 
1 
1 
1 
1 
1 
1 
1 
1 
1 
1 
1 
1 
1 
1 
1 
1 
1 
1 
1 
1 
1 
1 
1 
1 
1 
1 
1 
1 
1 
1 
1 
1 
1 
1 
1 
1 
1 
1 
1 
1 
1 
1 
1 
1 
1 
1 
1 
1 
1 
1 
1 
1 
1 
1 
1 
1 
1 
1 
1 
1 
1 
1 
1 
1 
POINT_DATA 175 
VECTORS X_GC float 
-0.027169 -2.746529 0.000000 
-0.110024 -2.680362 0.000000 
-0.056518 -2.689234 0.000000 
-0.029386 -2.644702 0.000000 
-0.189571 -2.615672 0.000000 
-0.139263 -2.619630 0.000000 
-0.114968 -2.567345 0.000000 
-0.058477 -2.584053 0.000000 
-0.029283 -2.543947 0.000000 
-0.267133 -2.550086 0.000000 
-0.218645 -2.553174 0.000000 
-0.196146 -2.496480 0.000000 
-0.142632 -2.506705 0.000000 
-0.115518 -2.460040 0.000000 
-0.058255 -2.480796 0.000000 
-0.029234 -2.442471 0.000000 
-0.344255 -2.483165 0.000000 
-0.296559 -2.485549 0.000000 
-0.275837 -2.426980 0.000000 
-0.223880 -2.435203 0.000000 
-0.198753 -2.383045 0.000000 
-0.143832 -2.398116 0.000000 
-0.115944 -2.353825 0.000000 
-0.058483 -2.377868 0.000000 
-0.029270 -2.340220 0.000000 
-0.061770 -2.784905 0.000000 
-0.172435 -2.801799 0.000000 
-0.129689 -2.769609 0.000000 
-0.148106 -2.722900 0.000000 
-0.280008 -2.819547 0.000000 
-0.242488 -2.786172 0.000000 
-0.267442 -2.736739 0.000000 
-0.216519 -2.705869 0.000000 
-0.228452 -2.659663 0.000000 
-0.386875 -2.837351 0.000000 
-0.350034 -2.802961 0.000000 
-0.377851 -2.752010 0.000000 
-0.333206 -2.718780 0.000000 
-0.350813 -2.669029 0.000000 
-0.296767 -2.640129 0.000000 
-0.306352 -2.593515 0.000000 
-0.494271 -2.843844 0.000000 
-0.457214 -2.813689 0.000000 
-0.486838 -2.760577 0.000000 
-0.444310 -2.730072 0.000000 
-0.465903 -2.678017 0.000000 
-0.416815 -2.649053 0.000000 
-0.431046 -2.599293 0.000000 
-0.374811 -2.573320 0.000000 
-0.383353 -2.527199 0.000000 
-0.049943 -2.832275 0.000000 
-0.103021 -2.906099 0.000000 
-0.107005 -2.868346 0.000000 
-0.161466 -2.853836 0.000000 
-0.154556 -2.947541 0.000000 
-0.162967 -2.927568 0.000000 
-0.227101 -2.921413 0.000000 
-0.221961 -2.886554 0.000000 
-0.270823 -2.871691 0.000000 
-0.211390 -2.971080 0.000000 
-0.218933 -2.960131 0.000000 
-0.293294 -2.957784 0.000000 
-0.291337 -2.939627 0.000000 
-0.351799 -2.932762 0.000000 
-0.335707 -2.901207 0.000000 
-0.381200 -2.887074 0.000000 
-0.276210 -2.984917 0.000000 
-0.285833 -2.978758 0.000000 
-0.370710 -2.977768 0.000000 
-0.368764 -2.967860 0.000000 
-0.435796 -2.963393 0.000000 
-0.422244 -2.947030 0.000000 
-0.472407 -2.938289 0.000000 
-0.449697 -2.909294 0.000000 
-0.491566 -2.892307 0.000000 
-0.000000 -2.852755 0.000000 
0.046267 -2.920351 0.000000 
-0.000000 -2.903613 0.000000 
-0.046267 -2.920351 0.000000 
0.094387 -2.956350 0.000000 
0.046736 -2.949235 0.000000 
-0.000000 -2.960524 0.000000 
-0.046736 -2.949235 0.000000 
-0.094387 -2.956350 0.000000 
0.150085 -2.976042 0.000000 
0.098070 -2.972497 0.000000 
0.049690 -2.979548 0.000000 
-0.000000 -2.974681 0.000000 
-0.049690 -2.979548 0.000000 
-0.098070 -2.972497 0.000000 
-0.150085 -2.976042 0.000000 
0.207470 -2.987673 0.000000 
0.154708 -2.985548 0.000000 
0.104052 -2.989993 0.000000 
0.050898 -2.987473 0.000000 
-0.000000 -2.990704 0.000000 
-0.050898 -2.987473 0.000000 
-0.104052 -2.989993 0.000000 
-0.154708 -2.985548 0.000000 
-0.207470 -2.987673 0.000000 
0.049943 -2.832275 0.000000 
0.161466 -2.853836 0.000000 
0.107005 -2.868346 0.000000 
0.103021 -2.906099 0.000000 
0.270823 -2.871691 0.000000 
0.221961 -2.886554 0.000000 
0.227101 -2.921413 0.000000 
0.162967 -2.927568 0.000000 
0.154556 -2.947541 0.000000 
0.381200 -2.887074 0.000000 
0.335707 -2.901207 0.000000 
0.351799 -2.932762 0.000000 
0.291337 -2.939627 0.000000 
0.293294 -2.957784 0.000000 
0.218933 -2.960131 0.000000 
0.211390 -2.971080 0.000000 
0.491566 -2.892307 0.000000 
0.449697 -2.909294 0.000000 
0.472407 -2.938289 0.000000 
0.422244 -2.947030 0.000000 
0.435796 -2.963393 0.000000 
0.368764 -2.967860 0.000000 
0.370710 -2.977768 0.000000 
0.285833 -2.978758 0.000000 
0.276210 -2.984917 0.000000 
0.061770 -2.784905 0.000000 
0.148106 -2.722900 0.000000 
0.129689 -2.769609 0.000000 
0.172435 -2.801799 0.000000 
0.228452 -2.659663 0.000000 
0.216519 -2.705869 0.000000 
0.267442 -2.736739 0.000000 
0.242488 -2.786172 0.000000 
0.280008 -2.819547 0.000000 
0.306352 -2.593515 0.000000 
0.296767 -2.640129 0.000000 
0.350813 -2.669029 0.000000 
0.333206 -2.718780 0.000000 
0.377851 -2.752010 0.000000 
0.350034 -2.802961 0.000000 
0.386875 -2.837351 0.000000 
0.383353 -2.527199 0.000000 
0.374811 -2.573320 0.000000 
0.431046 -2.599293 0.000000 
0.416815 -2.649053 0.000000 
0.465903 -2.678017 0.000000 
0.444310 -2.730072 0.000000 
0.486838 -2.760577 0.000000 
0.457214 -2.813689 0.000000 
0.494271 -2.843844 0.000000 
0.027169 -2.746529 0.000000 
0.029386 -2.644702 0.000000 
0.056518 -2.689234 0.000000 
0.110024 -2.680362 0.000000 
0.029283 -2.543947 0.000000 
0.058477 -2.584053 0.000000 
0.114968 -2.567345 0.000000 
0.139263 -2.619630 0.000000 
0.189571 -2.615672 0.000000 
0.029234 -2.442471 0.000000 
0.058255 -2.480796 0.000000 
0.115518 -2.460040 0.000000 
0.142632 -2.506705 0.000000 
0.196146 -2.496480 0.000000 
0.218645 -2.553174 0.000000 
0.267133 -2.550086 0.000000 
0.029270 -2.340220 0.000000 
0.058483 -2.377868 0.000000 
0.115944 -2.353825 0.000000 
0.143832 -2.398116 0.000000 
0.198753 -2.383045 0.000000 
0.223880 -2.435203 0.000000 
0.275837 -2.426980 0.000000 
0.296559 -2.485549 0.000000 
0.344255 -2.483165 0.000000 
VECTORS X_EC float 
0.353193 -0.421853 0.000000 
-0.569694 0.684887 0.000000 
0.734730 0.804658 0.000000 
0.382017 0.203471 0.000000 
0.464423 -0.188429 0.000000 
-0.189575 -0.135001 0.000000 
-0.505410 -0.840838 0.000000 
0.760197 -0.615282 0.000000 
0.380674 0.843285 0.000000 
-0.527274 0.926162 0.000000 
0.842391 0.967850 0.000000 
0.549892 0.202479 0.000000 
-0.145785 0.340520 0.000000 
-0.498267 -0.289458 0.000000 
0.757309 -0.009254 0.000000 
0.380048 -0.526636 0.000000 
0.475313 0.022733 0.000000 
-0.144733 0.054913 0.000000 
-0.414123 -0.735772 0.000000 
0.910446 -0.624760 0.000000 
0.583783 0.671101 0.000000 
-0.130180 0.874561 0.000000 
-0.492725 0.276644 0.000000 
0.760279 0.601220 0.000000 
0.380506 0.092974 0.000000 
0.803009 0.096216 0.000000 
0.241660 0.324286 0.000000 
-0.314046 -0.110285 0.000000 
-0.074617 -0.740849 0.000000 
-0.359891 0.563889 0.000000 
-0.847657 0.113324 0.000000 
-0.523250 -0.554022 0.000000 
0.814748 -0.970764 0.000000 
0.969881 0.405457 0.000000 
-0.970625 0.804236 0.000000 
0.550439 0.339980 0.000000 
0.912066 -0.347870 0.000000 
0.331676 -0.796464 0.000000 
0.560566 0.531892 0.000000 
-0.142025 0.141737 0.000000 
-0.017424 -0.487554 0.000000 
0.425523 0.891897 0.000000 
-0.056214 0.484808 0.000000 
0.328897 -0.232204 0.000000 
-0.223976 -0.644021 0.000000 
0.056738 0.653230 0.000000 
-0.581405 0.262217 0.000000 
-0.396401 -0.409550 0.000000 
0.872537 -0.760185 0.000000 
0.983592 0.617188 0.000000 
0.649254 0.735716 0.000000 
-0.660725 -0.267667 0.000000 
-0.608932 -0.777326 0.000000 
0.099056 -0.973216 0.000000 
0.009232 0.291803 0.000000 
0.118577 0.022175 0.000000 
0.952314 -0.060929 0.000000 
0.885497 -0.531525 0.000000 
-0.479301 -0.732175 0.000000 
0.748076 0.609582 0.000000 
0.846135 0.461765 0.000000 
-0.187181 0.430090 0.000000 
-0.212625 0.184963 0.000000 
0.573389 0.092291 0.000000 
0.364197 -0.333710 0.000000 
0.955596 -0.524504 0.000000 
-0.409269 0.796375 0.000000 
-0.284171 0.713238 0.000000 
0.819236 0.699874 0.000000 
0.793938 0.566106 0.000000 
-0.334654 0.505800 0.000000 
-0.510827 0.284905 0.000000 
0.141297 0.166904 0.000000 
-0.153934 -0.224531 0.000000 
0.390361 -0.453853 0.000000 
0.000000 -0.987811 0.000000 
-0.601475 -0.075255 0.000000 
0.000000 -0.301224 0.000000 
0.601475 -0.075255 0.000000 
0.772964 0.410724 0.000000 
-0.607568 0.314669 0.000000 
0.000000 0.467075 0.000000 
0.607568 0.314669 0.000000 
-0.772964 0.410724 0.000000 
0.048900 0.676563 0.000000 
0.725093 0.628707 0.000000 
-0.645974 0.723899 0.000000 
0.000000 0.658187 0.000000 
0.645974 0.723899 0.000000 
-0.725093 0.628707 0.000000 
-0.048900 0.676563 0.000000 
-0.697116 0.833588 0.000000 
-0.011207 0.804901 0.000000 
0.647320 0.864909 0.000000 
-0.661672 0.830882 0.000000 
0.000000 0.874501 0.000000 
0.661672 0.830882 0.000000 
-0.647320 0.864909 0.000000 
0.011207 0.804901 0.000000 
0.697116 0.833588 0.000000 
-0.649254 0.735716 0.000000 
-0.099056 -0.973216 0.000000 
0.608932 -0.777326 0.000000 
0.660725 -0.267667 0.000000 
0.479301 -0.732175 0.000000 
-0.885497 -0.531525 0.000000 
-0.952314 -0.060929 0.000000 
-0.118577 0.022175 0.000000 
-0.009232 0.291803 0.000000 
-0.955596 -0.524504 0.000000 
-0.364197 -0.333710 0.000000 
-0.573389 0.092291 0.000000 
0.212625 0.184963 0.000000 
0.187181 0.430090 0.000000 
-0.846135 0.461765 0.000000 
-0.748076 0.609582 0.000000 
-0.390361 -0.453853 0.000000 
0.153934 -0.224531 0.000000 
-0.141297 0.166904 0.000000 
0.510827 0.284905 0.000000 
0.334654 0.505800 0.000000 
-0.793938 0.566106 0.000000 
-0.819236 0.699874 0.000000 
0.284171 0.713238 0.000000 
0.409269 0.796375 0.000000 
-0.803009 0.096216 0.000000 
0.074617 -0.740849 0.000000 
0.314046 -0.110285 0.000000 
-0.241660 0.324286 0.000000 
-0.969881 0.405457 0.000000 
-0.814748 -0.970764 0.000000 
0.523250 -0.554022 0.000000 
0.847657 0.113324 0.000000 
0.359891 0.563889 0.000000 
0.017424 -0.487554 0.000000 
0.142025 0.141737 0.000000 
-0.560566 0.531892 0.000000 
-0.331676 -0.796464 0.000000 
-0.912066 -0.347870 0.000000 
-0.550439 0.339980 0.000000 
0.970625 0.804236 0.000000 
-0.983592 0.617188 0.000000 
-0.872537 -0.760185 0.000000 
0.396401 -0.409550 0.000000 
0.581405 0.262217 0.000000 
-0.056738 0.653230 0.000000 
0.223976 -0.644021 0.000000 
-0.328897 -0.232204 0.000000 
0.056214 0.484808 0.000000 
-0.425523 0.891897 0.000000 
-0.353193 -0.421853 0.000000 
-0.382017 0.203471 0.000000 
-0.734730 0.804658 0.000000 
0.569694 0.684887 0.000000 
-0.380674 0.843285 0.000000 
-0.760197 -0.615282 0.000000 
0.505410 -0.840838 0.000000 
0.189575 -0.135001 0.000000 
-0.464423 -0.188429 0.000000 
-0.380048 -0.526636 0.000000 
-0.757309 -0.009254 0.000000 
0.498267 -0.289458 0.000000 
0.145785 0.340520 0.000000 
-0.549892 0.202479 0.000000 
-0.842391 0.967850 0.000000 
0.527274 0.926162 0.000000 
-0.380506 0.092974 0.000000 
-0.760279 0.601220 0.000000 
0.492725 0.276644 0.000000 
0.130180 0.874561 0.000000 
-0.583783 0.671101 0.000000 
-0.910446 -0.624760 0.000000 
0.414123 -0.735772 0.000000 
0.144733 0.054913 0.000000 
-0.475313 0.022733 0.000000 
CELL_DATA 175 
SCALARS MASS float 
LOOKUP_TABLE default 
0.781831 
0.864274 
0.946717 
0.864274 
0.881307 
0.921110 
0.858535 
0.921110 
0.881307 
0.887046 
0.910001 
0.869829 
0.915556 
0.869829 
0.910001 
0.887046 
0.892784 
0.915740 
0.892784 
0.927218 
0.892784 
0.927218 
0.892784 
0.915740 
0.892784 
0.781831 
0.864274 
0.946717 
0.864274 
0.881307 
0.921110 
0.858535 
0.921110 
0.881307 
0.887046 
0.910001 
0.869829 
0.915556 
0.869829 
0.910001 
0.887046 
0.892784 
0.915740 
0.892784 
0.927218 
0.892784 
0.927218 
0.892784 
0.915740 
0.892784 
0.781831 
0.864274 
0.946717 
0.864274 
0.881307 
0.921110 
0.858535 
0.921110 
0.881307 
0.887046 
0.910001 
0.869829 
0.915556 
0.869829 
0.910001 
0.887046 
0.892784 
0.915740 
0.892784 
0.927218 
0.892784 
0.927218 
0.892784 
0.915740 
0.892784 
0.781831 
0.864274 
0.946717 
0.864274 
0.881307 
0.921110 
0.858535 
0.921110 
0.881307 
0.887046 
0.910001 
0.869829 
0.915556 
0.869829 
0.910001 
0.887046 
0.892784 
0.915740 
0.892784 
0.927218 
0.892784 
0.927218 
0.892784 
0.915740 
0.892784 
0.781831 
0.864274 
0.946717 
0.864274 
0.881307 
0.921110 
0.858535 
0.921110 
0.881307 
0.887046 
0.910001 
0.869829 
0.915556 
0.869829 
0.910001 
0.887046 
0.892784 
0.915740 
0.892784 
0.927218 
0.892784 
0.927218 
0.892784 
0.915740 
0.892784 
0.781831 
0.864274 
0.946717 
0.864274 
0.881307 
0.921110 
0.858535 
0.921110 
0.881307 
0.887046 
0.910001 
0.869829 
0.915556 
0.869829 
0.910001 
0.887046 
0.892784 
0.915740 
0.892784 
0.927218 
0.892784 
0.927218 
0.892784 
0.915740 
0.892784 
0.781831 
0.864274 
0.946717 
0.864274 
0.881307 
0.921110 
0.858535 
0.921110 
0.881307 
0.887046 
0.910001 
0.869829 
0.915556 
0.869829 
0.910001 
0.887046 
0.892784 
0.915740 
0.892784 
0.927218 
0.892784 
0.927218 
0.892784 
0.915740 
0.892784 
SCALARS MASS float 
LOOKUP_TABLE default 
0.781831 
0.864274 
0.946717 
0.864274 
0.881307 
0.921110 
0.858535 
0.921110 
0.881307 
0.887046 
0.910001 
0.869829 
0.915556 
0.869829 
0.910001 
0.887046 
0.892784 
0.915740 
0.892784 
0.927218 
0.892784 
0.927218 
0.892784 
0.915740 
0.892784 
0.781831 
0.864274 
0.946717 
0.864274 
0.881307 
0.921110 
0.858535 
0.921110 
0.881307 
0.887046 
0.910001 
0.869829 
0.915556 
0.869829 
0.910001 
0.887046 
0.892784 
0.915740 
0.892784 
0.927218 
0.892784 
0.927218 
0.892784 
0.915740 
0.892784 
0.781831 
0.864274 
0.946717 
0.864274 
0.881307 
0.921110 
0.858535 
0.921110 
0.881307 
0.887046 
0.910001 
0.869829 
0.915556 
0.869829 
0.910001 
0.887046 
0.892784 
0.915740 
0.892784 
0.927218 
0.892784 
0.927218 
0.892784 
0.915740 
0.892784 
0.781831 
0.864274 
0.946717 
0.864274 
0.881307 
0.921110 
0.858535 
0.921110 
0.881307 
0.887046 
0.910001 
0.869829 
0.915556 
0.869829 
0.910001 
0.887046 
0.892784 
0.915740 
0.892784 
0.927218 
0.892784 
0.927218 
0.892784 
0.915740 
0.892784 
0.781831 
0.864274 
0.946717 
0.864274 
0.881307 
0.921110 
0.858535 
0.921110 
0.881307 
0.887046 
0.910001 
0.869829 
0.915556 
0.869829 
0.910001 
0.887046 
0.892784 
0.915740 
0.892784 
0.927218 
0.892784 
0.927218 
0.892784 
0.915740 
0.892784 
0.781831 
0.864274 
0.946717 
0.864274 
0.881307 
0.921110 
0.858535 
0.921110 
0.881307 
0.887046 
0.910001 
0.869829 
0.915556 
0.869829 
0.910001 
0.887046 
0.892784 
0.915740 
0.892784 
0.927218 
0.892784 
0.927218 
0.892784 
0.915740 
0.892784 
0.781831 
0.864274 
0.946717 
0.864274 
0.881307 
0.921110 
0.858535 
0.921110 
0.881307 
0.887046 
0.910001 
0.869829 
0.915556 
0.869829 
0.910001 
0.887046 
0.892784 
0.915740 
0.892784 
0.927218 
0.892784 
0.927218 
0.892784 
0.915740 
0.892784 
SCALARS DENSITY float 
LOOKUP_TABLE default 
1256.221859 
220.759847 
148.605795 
266.138190 
175.218887 
192.724547 
276.828287 
140.612355 
218.214128 
161.013528 
411.852440 
144.497186 
157.367735 
232.822698 
257.083121 
388.218734 
300.300118 
163.459226 
343.476224 
331.122558 
244.725026 
212.845447 
236.770580 
215.627065 
160.754295 
64.770997 
113.209606 
318.472699 
131.177570 
68.272377 
4155.507917 
202.049708 
137.029404 
464.191629 
320.966934 
290.132483 
457.718014 
143.844988 
600.827485 
127.543632 
270.309101 
163.342380 
216.731273 
952.687213 
160.677804 
1094.558375 
149.895144 
274.989370 
544.960320 
348.246413 
2865.069659 
243042536.325648 
299.396091 
593.604051 
31088261586341383186799708645224915332992335872.000000 
391466026332606976.000000 
1106493191394791.875000 
19309.603152 
696.289700 
1133943167295931695892956475067456270260844622425235131281954339740430885388782103610963218081059212099584.000000 
4717113596452402004044094550137960941940734566729592605489264456990558479598768334307328.000000 
3288105474151770279020311709414699696125883339676526244008811709186703360.000000 
219042528217588469914927104.000000 
39155308999315931136.000000 
2648172.686777 
56927.169875 
-1121585787028343796447968567760012610076801908507350162152521292220105839763720451926450540654917215963655376163395600384.000000 
266364765702609419825511071083104863995151076201562705643777139583051128164263299148503360305705290786846927938635431936.000000 
199734117275282998531550962666135623581871881301554350802085780455419499957769659052723519212220014687292296934434275328.000000 
-137918389500231179515753870338798819181012526278000576117894636413091393944613395162150651154632015872.000000 
-131840915682534097333602755829996294702414098302266831949197109412727752138858571044722049024.000000 
71197249059639500635388415030996607544273666048.000000 
569110168721224005855539063141957632.000000 
15000580530.922188 
277034.045627 
1047.783307 
2830101978679095.000000 
68483794.273309 
2830102063753315.000000 
3242933298275975420422914743919370058025476172769354095925596850456572085665792.000000 
-709710585921786482652792946862988870048675674961371055607775232.000000 
-564568675680734861561366336051948824513304686567123859620127586100062880032579255271424.000000 
-709710663489624860590700927180984184964929904637936186878328832.000000 
3242932417696400644987858118444874946679147005123915218040013722286207713411072.000000 
125739766794804493021628924455261120840989627131360562165318213714142703230669229363411933434741462117908480.000000 
35187021365535330254224826272964810995010851310039033695272386210211049645829277547032829267168706166784.000000 
223066675650116493055639601853617361980518242764475000861464671090594680983447610656959695692029382098944.000000 
-3150755135955210967994890642489042247017187664668199795310109217735023729325236407818700789769043968.000000 
223066662451914334804300469046405538125890060709463014203747588326014647088068064461731327016118035415040.000000 
35186989408524414488986021066134901435864931727098548960123286867324965179550938052457629598301833658368.000000 
125739861164423632449372245422442720873210277135343437096780144144495539071726946726331745403695691196268544.000000 
-38994029794309382112778012504556919384254741711960748445414878503955335592793572318634597729698093050363904.000000 
-1926259613749802599211803399364754701378328530012248479693878109032823664652395536751802558264152153361743872.000000 
78186914759478384161599490533370126864832799554276894441344182189804604130994633034985662362421632696320.000000 
-962486090274950302650188602516844442947358898282256265778747971686234868764965170079793431045307268857856.000000 
207395470608303553435830600993139361100420469025577173235782595630990111718320149752831261345046817931264.000000 
-962486045600969699044107180756627956819470774049444752140955925742462180082866690525513956076757159247872.000000 
78186887933043932783098767907301158991792826135726831562992690896898464915163775923183671940679062257664.000000 
-1926258595210914508036719680600351004516429813445764734653728882341032206807864082288079224386797094152699904.000000 
-38994020421280898286711658022961048874005881717801485568689371108487649786884002986680736370117082261487616.000000 
2865.069699 
593.604054 
299.396090 
243042530.615021 
696.289744 
19309.602769 
1106493070489226.875000 
391465984887558272.000000 
31088250536302682691417703456306789907001507840.000000 
56927.169376 
2648172.683532 
39155308252080791552.000000 
219042506687358559747833856.000000 
3288100723570414385879578662903447878922441708946902007907618730425712640.000000 
4717112976889317318524772369230905591426220532398173459077492304378812006198557041229824.000000 
1133943645446735345878424692123814720308571085945937756089588839652491290306647954446177512995371725357056.000000 
277034.067515 
15000582119.276812 
569110313784116362403338481265803264.000000 
71197253901146365435552173808265672647860289536.000000 
-131840914885593393120502409071484204493583198699449253390644442033123367933824343535765159936.000000 
-137918435303700475789546722557875505718449170122449407590883791824015165079639174454760455665690345472.000000 
199734147789388014014290920052120473536812194739133820749898015444099490751499395115708709216995943616240423328802668544.000000 
266364808929418295618396605496221411586253676573417948640559916963796994053276531278110958339334706444259289318635339776.000000 
-1121585981335403990318451990594224673642190310453513662559900756943719292385124998307155641980824741729203604111539306496.000000 
64.770997 
131.177569 
318.472699 
113.209606 
464.191632 
137.029405 
202.049709 
4155.507920 
68.272377 
270.309100 
127.543631 
600.827490 
143.844987 
457.718008 
290.132483 
320.966925 
348.246408 
544.960314 
274.989367 
149.895144 
1094.558391 
160.677803 
952.687192 
216.731270 
163.342379 
1256.221859 
266.138189 
148.605796 
220.759848 
218.214128 
140.612355 
276.828286 
192.724547 
175.218886 
388.218733 
257.083124 
232.822698 
157.367736 
144.497187 
411.852433 
161.013528 
160.754294 
215.627065 
236.770581 
212.845447 
244.725028 
331.122554 
343.476221 
163.459227 
300.300114 
SCALARS ELEM_i float 
LOOKUP_TABLE default 
163 
191 
164 
164 
191 
191 
191 
164 
165 
219 
192 
192 
192 
192 
165 
165 
219 
219 
219 
192 
193 
193 
193 
166 
166 
163 
190 
190 
190 
217 
217 
217 
190 
191 
244 
217 
217 
217 
218 
218 
218 
244 
244 
244 
244 
245 
245 
245 
218 
219 
163 
189 
189 
189 
189 
189 
189 
189 
216 
189 
189 
216 
216 
216 
216 
216 
216 
216 
216 
216 
243 
243 
243 
243 
243 
162 
162 
162 
162 
135 
162 
162 
162 
189 
135 
135 
162 
162 
162 
189 
189 
135 
135 
135 
162 
162 
162 
189 
189 
189 
163 
135 
135 
135 
108 
135 
135 
135 
135 
108 
108 
108 
108 
108 
135 
135 
81 
81 
81 
81 
81 
108 
108 
108 
108 
163 
136 
136 
136 
137 
136 
109 
109 
109 
110 
110 
110 
109 
109 
109 
82 
111 
110 
83 
83 
83 
82 
82 
82 
82 
163 
164 
164 
137 
165 
164 
137 
137 
137 
165 
165 
138 
138 
138 
138 
111 
166 
166 
139 
139 
139 
138 
111 
111 
111 
VECTORS VELOCITY float 
0.276715 -7.244183 0.000000 
0.117817 -7.091359 0.000000 
0.206431 -7.237814 0.000000 
0.252888 -7.505687 0.000000 
-0.159678 -6.289022 0.000000 
0.135148 -6.795118 0.000000 
0.054317 -6.880093 0.000000 
0.084791 -7.152369 0.000000 
0.098496 -7.076942 0.000000 
-0.219962 -6.318966 0.000000 
-0.121355 -6.311242 0.000000 
-0.132837 -6.824531 0.000000 
-0.120245 -6.836564 0.000000 
-0.346688 -7.116036 0.000000 
-0.334442 -6.969264 0.000000 
-0.177940 -7.029485 0.000000 
-0.042515 -6.417801 0.000000 
-0.045279 -6.649325 0.000000 
0.223795 -6.643231 0.000000 
0.261767 -7.485555 0.000000 
0.250891 -6.368887 0.000000 
0.084760 -6.790964 0.000000 
0.490266 -6.459356 0.000000 
0.096128 -6.783111 0.000000 
0.313748 -6.792026 0.000000 
0.232533 -6.316106 0.000000 
-0.324607 -6.007738 0.000000 
0.143960 -6.545052 0.000000 
0.056564 -6.720749 0.000000 
-0.859702 -5.872485 0.000000 
-0.589332 -6.220857 0.000000 
-0.612353 -6.351199 0.000000 
-0.447132 -6.191446 0.000000 
-0.526278 -6.267160 0.000000 
-1.072491 -6.429083 0.000000 
-0.831015 -6.677668 0.000000 
-0.792102 -7.030355 0.000000 
-0.725657 -6.810944 0.000000 
-0.649556 -7.063614 0.000000 
-0.585656 -6.442459 0.000000 
-0.370921 -6.518158 0.000000 
-0.800013 -4.343512 0.000000 
-0.765596 -5.674665 0.000000 
-0.720090 -5.701955 0.000000 
-0.607017 -6.303556 0.000000 
-0.076049 -5.836641 0.000000 
-0.357595 -6.390991 0.000000 
0.288723 -6.065049 0.000000 
-0.396193 -6.831565 0.000000 
-0.301707 -6.339708 0.000000 
0.329952 -6.160114 0.000000 
-0.347840 -4.871572 0.000000 
0.065704 -5.035628 0.000000 
-0.260684 -5.516652 0.000000 
-0.149756 -5.087745 0.000000 
-0.217603 -4.551171 0.000000 
-0.908801 -4.082186 0.000000 
-1.134663 -4.768229 0.000000 
-1.170691 -5.355194 0.000000 
-0.008290 -7.439859 0.000000 
0.070537 -5.770278 0.000000 
-0.629481 -5.631115 0.000000 
-1.070301 -4.639913 0.000000 
-0.958131 -5.036976 0.000000 
-0.924676 -5.261587 0.000000 
-0.744104 -5.900140 0.000000 
-1.228756 -19.196969 0.000000 
-0.623217 -13.018000 0.000000 
-3.458785 -16.691635 0.000000 
-2.131858 -9.591600 0.000000 
-3.384734 -9.552691 0.000000 
-0.908168 -6.545659 0.000000 
-2.717363 -7.229584 0.000000 
-1.242422 -5.309131 0.000000 
-1.702193 -4.466038 0.000000 
0.000000 -5.712208 0.000000 
-0.257611 -5.265395 0.000000 
0.000000 -4.866335 0.000000 
0.257611 -5.265395 0.000000 
-0.483074 -6.540649 0.000000 
-0.256298 -5.868611 0.000000 
0.000000 -6.895562 0.000000 
0.256298 -5.868611 0.000000 
0.483074 -6.540649 0.000000 
-0.094638 -8.165152 0.000000 
-0.500487 -6.667168 0.000000 
-0.102457 -8.184919 0.000000 
0.000000 -6.840997 0.000000 
0.102457 -8.184919 0.000000 
0.500487 -6.667168 0.000000 
0.094638 -8.165152 0.000000 
0.755977 -23.353241 0.000000 
0.026475 -14.308876 0.000000 
0.501741 -25.198549 0.000000 
-0.203247 -14.071194 0.000000 
-0.000000 -29.187007 0.000000 
0.203247 -14.071194 0.000000 
-0.501741 -25.198549 0.000000 
-0.026475 -14.308876 0.000000 
-0.755977 -23.353241 0.000000 
-0.329952 -6.160114 0.000000 
0.260684 -5.516652 0.000000 
-0.065704 -5.035628 0.000000 
0.347840 -4.871572 0.000000 
1.170691 -5.355194 0.000000 
1.134663 -4.768229 0.000000 
0.908801 -4.082186 0.000000 
0.217603 -4.551171 0.000000 
0.149756 -5.087745 0.000000 
0.744104 -5.900140 0.000000 
0.924676 -5.261587 0.000000 
0.958131 -5.036976 0.000000 
1.070301 -4.639913 0.000000 
0.629481 -5.631115 0.000000 
-0.070537 -5.770278 0.000000 
0.008290 -7.439859 0.000000 
1.702193 -4.466038 0.000000 
1.242422 -5.309131 0.000000 
2.717363 -7.229584 0.000000 
0.908168 -6.545659 0.000000 
3.384734 -9.552691 0.000000 
2.131858 -9.591600 0.000000 
3.458785 -16.691636 0.000000 
0.623217 -13.018000 0.000000 
1.228756 -19.196969 0.000000 
-0.232533 -6.316106 0.000000 
-0.056564 -6.720749 0.000000 
-0.143960 -6.545052 0.000000 
0.324607 -6.007738 0.000000 
0.526278 -6.267160 0.000000 
0.447132 -6.191446 0.000000 
0.612353 -6.351199 0.000000 
0.589332 -6.220857 0.000000 
0.859702 -5.872485 0.000000 
0.370921 -6.518158 0.000000 
0.585656 -6.442459 0.000000 
0.649556 -7.063614 0.000000 
0.725657 -6.810944 0.000000 
0.792102 -7.030355 0.000000 
0.831015 -6.677668 0.000000 
1.072491 -6.429083 0.000000 
0.301707 -6.339708 0.000000 
0.396193 -6.831565 0.000000 
-0.288723 -6.065049 0.000000 
0.357595 -6.390991 0.000000 
0.076049 -5.836641 0.000000 
0.607017 -6.303556 0.000000 
0.720090 -5.701955 0.000000 
0.765596 -5.674665 0.000000 
0.800013 -4.343512 0.000000 
-0.276715 -7.244183 0.000000 
-0.252888 -7.505687 0.000000 
-0.206431 -7.237814 0.000000 
-0.117817 -7.091359 0.000000 
-0.098496 -7.076942 0.000000 
-0.084791 -7.152369 0.000000 
-0.054317 -6.880093 0.000000 
-0.135148 -6.795118 0.000000 
0.159678 -6.289022 0.000000 
0.177940 -7.029485 0.000000 
0.334442 -6.969264 0.000000 
0.346688 -7.116036 0.000000 
0.120245 -6.836564 0.000000 
0.132837 -6.824531 0.000000 
0.121355 -6.311242 0.000000 
0.219962 -6.318966 0.000000 
-0.313748 -6.792026 0.000000 
-0.096128 -6.783111 0.000000 
-0.490266 -6.459356 0.000000 
-0.084760 -6.790964 0.000000 
-0.250890 -6.368887 0.000000 
-0.261767 -7.485555 0.000000 
-0.223795 -6.643231 0.000000 
0.045279 -6.649325 0.000000 
0.042515 -6.417801 0.000000 
TENSORS STRESS float 
-7.752856 0.409024 0.000000 
0.000000 -12.219686 0.000000 
0.000000 0.000000 0.000000 

-9.212727 -3.196879 0.000000 
0.000000 -23.692901 0.000000 
0.000000 0.000000 0.000000 

31.559859 1.967855 0.000000 
0.000000 7.065583 0.000000 
0.000000 0.000000 0.000000 

-15.374674 2.025025 0.000000 
0.000000 -26.496755 0.000000 
0.000000 0.000000 0.000000 

23.457549 0.703272 0.000000 
0.000000 11.779128 0.000000 
0.000000 0.000000 0.000000 

5.420051 -0.130779 0.000000 
0.000000 -7.194723 0.000000 
0.000000 0.000000 0.000000 

21.718444 -1.758562 0.000000 
0.000000 18.314239 0.000000 
0.000000 0.000000 0.000000 

-15.343239 4.013878 0.000000 
0.000000 -21.473067 0.000000 
0.000000 0.000000 0.000000 

-6.049801 2.057872 0.000000 
0.000000 -5.100882 0.000000 
0.000000 0.000000 0.000000 

4.522185 -5.955279 0.000000 
0.000000 -2.310468 0.000000 
0.000000 0.000000 0.000000 

6.559290 1.479050 0.000000 
0.000000 4.050112 0.000000 
0.000000 0.000000 0.000000 

38.270931 -0.762430 0.000000 
0.000000 38.629121 0.000000 
0.000000 0.000000 0.000000 

43.816383 -2.905707 0.000000 
0.000000 43.631335 0.000000 
0.000000 0.000000 0.000000 

-1.087688 -5.175243 0.000000 
0.000000 0.504507 0.000000 
0.000000 0.000000 0.000000 

-23.933478 0.341578 0.000000 
0.000000 -19.481500 0.000000 
0.000000 0.000000 0.000000 

-15.391851 -0.025444 0.000000 
0.000000 -12.631980 0.000000 
0.000000 0.000000 0.000000 

-10.104503 -3.408372 0.000000 
0.000000 -13.900905 0.000000 
0.000000 0.000000 0.000000 

8.534639 -6.830219 0.000000 
0.000000 3.722869 0.000000 
0.000000 0.000000 0.000000 

-1.502209 -2.738081 0.000000 
0.000000 -2.818704 0.000000 
0.000000 0.000000 0.000000 

-25.145850 -0.208641 0.000000 
0.000000 -24.317276 0.000000 
0.000000 0.000000 0.000000 

-12.206420 -1.127219 0.000000 
0.000000 -5.824078 0.000000 
0.000000 0.000000 0.000000 

-7.186455 -3.735283 0.000000 
0.000000 -0.251434 0.000000 
0.000000 0.000000 0.000000 

-23.559892 -4.090798 0.000000 
0.000000 -15.343581 0.000000 
0.000000 0.000000 0.000000 

-5.292367 -0.094406 0.000000 
0.000000 2.647195 0.000000 
0.000000 0.000000 0.000000 

3.854602 0.611066 0.000000 
0.000000 15.496670 0.000000 
0.000000 0.000000 0.000000 

81.746405 6.206212 0.000000 
0.000000 -3.302571 0.000000 
0.000000 0.000000 0.000000 

12.623667 8.652151 0.000000 
0.000000 -55.141280 0.000000 
0.000000 0.000000 0.000000 

-12.599332 1.747424 0.000000 
0.000000 -34.545781 0.000000 
0.000000 0.000000 0.000000 

-19.324593 5.219038 0.000000 
0.000000 -54.636699 0.000000 
0.000000 0.000000 0.000000 

52.837620 42.872600 0.000000 
0.000000 -48.567314 0.000000 
0.000000 0.000000 0.000000 

-6.553008 0.809854 0.000000 
0.000000 -8.147900 0.000000 
0.000000 0.000000 0.000000 

-9.335977 4.445110 0.000000 
0.000000 -31.652104 0.000000 
0.000000 0.000000 0.000000 

25.569558 8.798703 0.000000 
0.000000 -2.732864 0.000000 
0.000000 0.000000 0.000000 

-14.950347 1.048743 0.000000 
0.000000 -22.037907 0.000000 
0.000000 0.000000 0.000000 

59.902478 14.496136 0.000000 
0.000000 40.395655 0.000000 
0.000000 0.000000 0.000000 

24.295012 14.432815 0.000000 
0.000000 3.215694 0.000000 
0.000000 0.000000 0.000000 

23.529559 5.915629 0.000000 
0.000000 15.055916 0.000000 
0.000000 0.000000 0.000000 

54.355167 5.620365 0.000000 
0.000000 28.843417 0.000000 
0.000000 0.000000 0.000000 

-7.667802 0.152582 0.000000 
0.000000 -13.430748 0.000000 
0.000000 0.000000 0.000000 

15.163001 -8.912292 0.000000 
0.000000 -2.571976 0.000000 
0.000000 0.000000 0.000000 

-18.308499 -3.385676 0.000000 
0.000000 -25.319694 0.000000 
0.000000 0.000000 0.000000 

49.760788 13.191681 0.000000 
0.000000 1.081112 0.000000 
0.000000 0.000000 0.000000 

45.512143 2.781838 0.000000 
0.000000 15.406193 0.000000 
0.000000 0.000000 0.000000 

-9.482094 0.036709 0.000000 
0.000000 -16.133815 0.000000 
0.000000 0.000000 0.000000 

46.602372 -6.623372 0.000000 
0.000000 19.132163 0.000000 
0.000000 0.000000 0.000000 

-14.811546 -0.874488 0.000000 
0.000000 -19.278091 0.000000 
0.000000 0.000000 0.000000 

-11.707074 -11.628623 0.000000 
0.000000 -32.110514 0.000000 
0.000000 0.000000 0.000000 

-49.388069 -6.299278 0.000000 
0.000000 -59.351130 0.000000 
0.000000 0.000000 0.000000 

-15.153256 -0.988746 0.000000 
0.000000 -18.895107 0.000000 
0.000000 0.000000 0.000000 

-6.293263 -2.390368 0.000000 
0.000000 -9.957148 0.000000 
0.000000 0.000000 0.000000 

-5.681397 0.279875 0.000000 
0.000000 -8.566874 0.000000 
0.000000 0.000000 0.000000 

-0.001176 -0.000011 0.000000 
0.000000 -0.001326 0.000000 
0.000000 0.000000 0.000000 

-230.133832 -2.098131 0.000000 
0.000000 -287.295641 0.000000 
0.000000 0.000000 0.000000 

-11.088068 1.810420 0.000000 
0.000000 -28.739167 0.000000 
0.000000 0.000000 0.000000 

-0.000000 -0.000000 0.000000 
0.000000 -0.000000 0.000000 
0.000000 0.000000 0.000000 

-0.000000 -0.000000 0.000000 
0.000000 -0.000000 0.000000 
0.000000 0.000000 0.000000 

-0.000000 0.000000 0.000000 
0.000000 -0.000000 0.000000 
0.000000 0.000000 0.000000 

-8.953561 0.000714 0.000000 
0.000000 -10.326121 0.000000 
0.000000 0.000000 0.000000 

-129.011893 3.633492 0.000000 
0.000000 -155.301568 0.000000 
0.000000 0.000000 0.000000 

-0.000000 0.000000 0.000000 
0.000000 -0.000000 0.000000 
0.000000 0.000000 0.000000 

-0.000000 0.000000 0.000000 
0.000000 -0.000000 0.000000 
0.000000 0.000000 0.000000 

-0.000000 0.000000 0.000000 
0.000000 -0.000000 0.000000 
0.000000 0.000000 0.000000 

-0.000000 0.000000 0.000000 
0.000000 -0.000000 0.000000 
0.000000 0.000000 0.000000 

-0.000000 0.000000 0.000000 
0.000000 -0.000000 0.000000 
0.000000 0.000000 0.000000 

-0.093719 0.002343 0.000000 
0.000000 -0.107477 0.000000 
0.000000 0.000000 0.000000 

-2.932641 0.147363 0.000000 
0.000000 -3.400877 0.000000 
0.000000 0.000000 0.000000 

0.000000 -0.000000 0.000000 
0.000000 0.000000 0.000000 
0.000000 0.000000 0.000000 

-0.000000 0.000000 0.000000 
0.000000 -0.000000 0.000000 
0.000000 0.000000 0.000000 

-0.000000 0.000000 0.000000 
0.000000 -0.000000 0.000000 
0.000000 0.000000 0.000000 

0.000000 -0.000000 0.000000 
0.000000 0.000000 0.000000 
0.000000 0.000000 0.000000 

0.000000 -0.000000 0.000000 
0.000000 0.000000 0.000000 
0.000000 0.000000 0.000000 

-0.000000 0.000000 0.000000 
0.000000 -0.000000 0.000000 
0.000000 0.000000 0.000000 

-0.000000 0.000000 0.000000 
0.000000 -0.000000 0.000000 
0.000000 0.000000 0.000000 

-0.000023 0.000000 0.000000 
0.000000 -0.000025 0.000000 
0.000000 0.000000 0.000000 

-0.764445 0.017199 0.000000 
0.000000 -0.864877 0.000000 
0.000000 0.000000 0.000000 

-8.726610 0.000000 0.000000 
0.000000 -16.902393 0.000000 
0.000000 0.000000 0.000000 

-0.000000 0.000000 0.000000 
0.000000 -0.000000 0.000000 
0.000000 0.000000 0.000000 

-0.004675 0.000000 0.000000 
0.000000 -0.005200 0.000000 
0.000000 0.000000 0.000000 

-0.000000 -0.000000 0.000000 
0.000000 -0.000000 0.000000 
0.000000 0.000000 0.000000 

-0.000000 0.000000 0.000000 
0.000000 -0.000000 0.000000 
0.000000 0.000000 0.000000 

0.000000 -0.000000 0.000000 
0.000000 0.000000 0.000000 
0.000000 0.000000 0.000000 

0.000000 -0.000000 0.000000 
0.000000 0.000000 0.000000 
0.000000 0.000000 0.000000 

0.000000 0.000000 0.000000 
0.000000 0.000000 0.000000 
0.000000 0.000000 0.000000 

-0.000000 -0.000000 0.000000 
0.000000 -0.000000 0.000000 
0.000000 0.000000 0.000000 

-0.000000 -0.000000 0.000000 
0.000000 -0.000000 0.000000 
0.000000 0.000000 0.000000 

-0.000000 -0.000000 0.000000 
0.000000 -0.000000 0.000000 
0.000000 0.000000 0.000000 

-0.000000 -0.000000 0.000000 
0.000000 -0.000000 0.000000 
0.000000 0.000000 0.000000 

0.000000 -0.000000 0.000000 
0.000000 0.000000 0.000000 
0.000000 0.000000 0.000000 

-0.000000 0.000000 0.000000 
0.000000 -0.000000 0.000000 
0.000000 0.000000 0.000000 

-0.000000 0.000000 0.000000 
0.000000 -0.000000 0.000000 
0.000000 0.000000 0.000000 

-0.000000 0.000000 0.000000 
0.000000 -0.000000 0.000000 
0.000000 0.000000 0.000000 

0.000000 0.000000 0.000000 
0.000000 0.000000 0.000000 
0.000000 0.000000 0.000000 

0.000000 0.000000 0.000000 
0.000000 0.000000 0.000000 
0.000000 0.000000 0.000000 

-0.000000 -0.000000 0.000000 
0.000000 -0.000000 0.000000 
0.000000 0.000000 0.000000 

0.000000 0.000000 0.000000 
0.000000 0.000000 0.000000 
0.000000 0.000000 0.000000 

-0.000000 0.000000 0.000000 
0.000000 -0.000000 0.000000 
0.000000 0.000000 0.000000 

0.000000 -0.000000 0.000000 
0.000000 0.000000 0.000000 
0.000000 0.000000 0.000000 

-0.000000 0.000000 0.000000 
0.000000 -0.000000 0.000000 
0.000000 0.000000 0.000000 

0.000000 -0.000000 0.000000 
0.000000 0.000000 0.000000 
0.000000 0.000000 0.000000 

0.000000 -0.000000 0.000000 
0.000000 0.000000 0.000000 
0.000000 0.000000 0.000000 

-5.681397 -0.279875 0.000000 
0.000000 -8.566874 0.000000 
0.000000 0.000000 0.000000 

-11.088067 -1.810420 0.000000 
0.000000 -28.739166 0.000000 
0.000000 0.000000 0.000000 

-230.133832 2.098131 0.000000 
0.000000 -287.295641 0.000000 
0.000000 0.000000 0.000000 

-0.001176 0.000011 0.000000 
0.000000 -0.001326 0.000000 
0.000000 0.000000 0.000000 

-129.011888 -3.633492 0.000000 
0.000000 -155.301561 0.000000 
0.000000 0.000000 0.000000 

-8.953561 -0.000714 0.000000 
0.000000 -10.326121 0.000000 
0.000000 0.000000 0.000000 

-0.000000 -0.000000 0.000000 
0.000000 -0.000000 0.000000 
0.000000 0.000000 0.000000 

-0.000000 0.000000 0.000000 
0.000000 -0.000000 0.000000 
0.000000 0.000000 0.000000 

-0.000000 0.000000 0.000000 
0.000000 -0.000000 0.000000 
0.000000 0.000000 0.000000 

-2.932641 -0.147363 0.000000 
0.000000 -3.400877 0.000000 
0.000000 0.000000 0.000000 

-0.093719 -0.002343 0.000000 
0.000000 -0.107477 0.000000 
0.000000 0.000000 0.000000 

-0.000000 -0.000000 0.000000 
0.000000 -0.000000 0.000000 
0.000000 0.000000 0.000000 

-0.000000 -0.000000 0.000000 
0.000000 -0.000000 0.000000 
0.000000 0.000000 0.000000 

-0.000000 -0.000000 0.000000 
0.000000 -0.000000 0.000000 
0.000000 0.000000 0.000000 

-0.000000 -0.000000 0.000000 
0.000000 -0.000000 0.000000 
0.000000 0.000000 0.000000 

-0.000000 -0.000000 0.000000 
0.000000 -0.000000 0.000000 
0.000000 0.000000 0.000000 

-0.764445 -0.017199 0.000000 
0.000000 -0.864877 0.000000 
0.000000 0.000000 0.000000 

-0.000023 -0.000000 0.000000 
0.000000 -0.000025 0.000000 
0.000000 0.000000 0.000000 

-0.000000 -0.000000 0.000000 
0.000000 -0.000000 0.000000 
0.000000 0.000000 0.000000 

-0.000000 -0.000000 0.000000 
0.000000 -0.000000 0.000000 
0.000000 0.000000 0.000000 

0.000000 0.000000 0.000000 
0.000000 0.000000 0.000000 
0.000000 0.000000 0.000000 

0.000000 0.000000 0.000000 
0.000000 0.000000 0.000000 
0.000000 0.000000 0.000000 

-0.000000 -0.000000 0.000000 
0.000000 -0.000000 0.000000 
0.000000 0.000000 0.000000 

-0.000000 -0.000000 0.000000 
0.000000 -0.000000 0.000000 
0.000000 0.000000 0.000000 

0.000000 0.000000 0.000000 
0.000000 0.000000 0.000000 
0.000000 0.000000 0.000000 

81.746403 -6.206212 0.000000 
0.000000 -3.302573 0.000000 
0.000000 0.000000 0.000000 

-19.324591 -5.219038 0.000000 
0.000000 -54.636697 0.000000 
0.000000 0.000000 0.000000 

-12.599332 -1.747424 0.000000 
0.000000 -34.545780 0.000000 
0.000000 0.000000 0.000000 

12.623667 -8.652151 0.000000 
0.000000 -55.141279 0.000000 
0.000000 0.000000 0.000000 

-14.950347 -1.048743 0.000000 
0.000000 -22.037907 0.000000 
0.000000 0.000000 0.000000 

25.569558 -8.798703 0.000000 
0.000000 -2.732864 0.000000 
0.000000 0.000000 0.000000 

-9.335978 -4.445110 0.000000 
0.000000 -31.652104 0.000000 
0.000000 0.000000 0.000000 

-6.553008 -0.809854 0.000000 
0.000000 -8.147900 0.000000 
0.000000 0.000000 0.000000 

52.837620 -42.872600 0.000000 
0.000000 -48.567315 0.000000 
0.000000 0.000000 0.000000 

-18.308499 3.385676 0.000000 
0.000000 -25.319694 0.000000 
0.000000 0.000000 0.000000 

15.163001 8.912292 0.000000 
0.000000 -2.571976 0.000000 
0.000000 0.000000 0.000000 

-7.667803 -0.152582 0.000000 
0.000000 -13.430748 0.000000 
0.000000 0.000000 0.000000 

54.355166 -5.620365 0.000000 
0.000000 28.843416 0.000000 
0.000000 0.000000 0.000000 

23.529560 -5.915629 0.000000 
0.000000 15.055917 0.000000 
0.000000 0.000000 0.000000 

24.295013 -14.432815 0.000000 
0.000000 3.215695 0.000000 
0.000000 0.000000 0.000000 

59.902480 -14.496137 0.000000 
0.000000 40.395657 0.000000 
0.000000 0.000000 0.000000 

-6.293262 2.390368 0.000000 
0.000000 -9.957147 0.000000 
0.000000 0.000000 0.000000 

-15.153256 0.988746 0.000000 
0.000000 -18.895107 0.000000 
0.000000 0.000000 0.000000 

-49.388070 6.299278 0.000000 
0.000000 -59.351131 0.000000 
0.000000 0.000000 0.000000 

-11.707076 11.628623 0.000000 
0.000000 -32.110515 0.000000 
0.000000 0.000000 0.000000 

-14.811545 0.874488 0.000000 
0.000000 -19.278091 0.000000 
0.000000 0.000000 0.000000 

46.602372 6.623372 0.000000 
0.000000 19.132164 0.000000 
0.000000 0.000000 0.000000 

-9.482094 -0.036709 0.000000 
0.000000 -16.133815 0.000000 
0.000000 0.000000 0.000000 

45.512143 -2.781838 0.000000 
0.000000 15.406192 0.000000 
0.000000 0.000000 0.000000 

49.760787 -13.191681 0.000000 
0.000000 1.081111 0.000000 
0.000000 0.000000 0.000000 

-7.752856 -0.409024 0.000000 
0.000000 -12.219686 0.000000 
0.000000 0.000000 0.000000 

-15.374674 -2.025025 0.000000 
0.000000 -26.496755 0.000000 
0.000000 0.000000 0.000000 

31.559859 -1.967855 0.000000 
0.000000 7.065583 0.000000 
0.000000 0.000000 0.000000 

-9.212726 3.196879 0.000000 
0.000000 -23.692900 0.000000 
0.000000 0.000000 0.000000 

-6.049801 -2.057872 0.000000 
0.000000 -5.100882 0.000000 
0.000000 0.000000 0.000000 

-15.343240 -4.013878 0.000000 
0.000000 -21.473068 0.000000 
0.000000 0.000000 0.000000 

21.718444 1.758562 0.000000 
0.000000 18.314240 0.000000 
0.000000 0.000000 0.000000 

5.420051 0.130779 0.000000 
0.000000 -7.194723 0.000000 
0.000000 0.000000 0.000000 

23.457550 -0.703272 0.000000 
0.000000 11.779129 0.000000 
0.000000 0.000000 0.000000 

-15.391851 0.025444 0.000000 
0.000000 -12.631979 0.000000 
0.000000 0.000000 0.000000 

-23.933478 -0.341578 0.000000 
0.000000 -19.481500 0.000000 
0.000000 0.000000 0.000000 

-1.087688 5.175243 0.000000 
0.000000 0.504507 0.000000 
0.000000 0.000000 0.000000 

43.816382 2.905707 0.000000 
0.000000 43.631334 0.000000 
0.000000 0.000000 0.000000 

38.270930 0.762430 0.000000 
0.000000 38.629120 0.000000 
0.000000 0.000000 0.000000 

6.559291 -1.479050 0.000000 
0.000000 4.050113 0.000000 
0.000000 0.000000 0.000000 

4.522185 5.955279 0.000000 
0.000000 -2.310468 0.000000 
0.000000 0.000000 0.000000 

3.854603 -0.611066 0.000000 
0.000000 15.496670 0.000000 
0.000000 0.000000 0.000000 

-5.292366 0.094406 0.000000 
0.000000 2.647195 0.000000 
0.000000 0.000000 0.000000 

-23.559892 4.090798 0.000000 
0.000000 -15.343580 0.000000 
0.000000 0.000000 0.000000 

-7.186454 3.735283 0.000000 
0.000000 -0.251434 0.000000 
0.000000 0.000000 0.000000 

-12.206420 1.127218 0.000000 
0.000000 -5.824078 0.000000 
0.000000 0.000000 0.000000 

-25.145850 0.208640 0.000000 
0.000000 -24.317275 0.000000 
0.000000 0.000000 0.000000 

-1.502209 2.738082 0.000000 
0.000000 -2.818704 0.000000 
0.000000 0.000000 0.000000 

8.534639 6.830219 0.000000 
0.000000 3.722869 0.000000 
0.000000 0.000000 0.000000 

-10.104502 3.408372 0.000000 
0.000000 -13.900904 0.000000 
0.000000 0.000000 0.000000 

TENSORS STRAIN float 
0.043612 0.009727 0.000000 
0.000000 -0.062610 0.000000 
0.000000 0.000000 0.000000 

0.024882 -0.012085 0.000000 
0.000000 -0.029858 0.000000 
0.000000 0.000000 0.000000 

0.030247 0.004572 0.000000 
0.000000 -0.026657 0.000000 
0.000000 0.000000 0.000000 

0.021527 0.009229 0.000000 
0.000000 -0.029160 0.000000 
0.000000 0.000000 0.000000 

0.019256 0.002069 0.000000 
0.000000 -0.015108 0.000000 
0.000000 0.000000 0.000000 

0.019422 -0.000405 0.000000 
0.000000 -0.019641 0.000000 
0.000000 0.000000 0.000000 

0.011944 -0.008392 0.000000 
0.000000 -0.004302 0.000000 
0.000000 0.000000 0.000000 

0.005261 0.009069 0.000000 
0.000000 -0.008588 0.000000 
0.000000 0.000000 0.000000 

-0.002556 0.007541 0.000000 
0.000000 0.000921 0.000000 
0.000000 0.000000 0.000000 

0.009297 -0.015999 0.000000 
0.000000 -0.009059 0.000000 
0.000000 0.000000 0.000000 

0.009825 0.009907 0.000000 
0.000000 -0.006982 0.000000 
0.000000 0.000000 0.000000 

0.003341 -0.001875 0.000000 
0.000000 0.004222 0.000000 
0.000000 0.000000 0.000000 

0.004684 -0.007392 0.000000 
0.000000 0.004214 0.000000 
0.000000 0.000000 0.000000 

-0.003200 -0.020501 0.000000 
0.000000 0.003107 0.000000 
0.000000 0.000000 0.000000 

-0.012938 0.001428 0.000000 
0.000000 0.005677 0.000000 
0.000000 0.000000 0.000000 

-0.012569 -0.000165 0.000000 
0.000000 0.005308 0.000000 
0.000000 0.000000 0.000000 

0.007060 -0.016967 0.000000 
0.000000 -0.011840 0.000000 
0.000000 0.000000 0.000000 

0.007003 -0.018044 0.000000 
0.000000 -0.005708 0.000000 
0.000000 0.000000 0.000000 

0.003256 -0.015590 0.000000 
0.000000 -0.004240 0.000000 
0.000000 0.000000 0.000000 

-0.007418 -0.001103 0.000000 
0.000000 -0.003039 0.000000 
0.000000 0.000000 0.000000 

-0.014409 -0.004573 0.000000 
0.000000 0.011483 0.000000 
0.000000 0.000000 0.000000 

-0.012286 -0.012690 0.000000 
0.000000 0.011275 0.000000 
0.000000 0.000000 0.000000 

-0.019179 -0.016056 0.000000 
0.000000 0.013071 0.000000 
0.000000 0.000000 0.000000 

-0.014019 -0.000329 0.000000 
0.000000 0.013650 0.000000 
0.000000 0.000000 0.000000 

-0.014481 0.001628 0.000000 
0.000000 0.016544 0.000000 
0.000000 0.000000 0.000000 

0.054063 0.007609 0.000000 
0.000000 -0.050216 0.000000 
0.000000 0.000000 0.000000 

0.064037 0.016773 0.000000 
0.000000 -0.067334 0.000000 
0.000000 0.000000 0.000000 

0.049938 0.008700 0.000000 
0.000000 -0.059327 0.000000 
0.000000 0.000000 0.000000 

0.036338 0.011724 0.000000 
0.000000 -0.042984 0.000000 
0.000000 0.000000 0.000000 

0.058229 0.049154 0.000000 
0.000000 -0.058033 0.000000 
0.000000 0.000000 0.000000 

0.033613 0.054073 0.000000 
0.000000 -0.072876 0.000000 
0.000000 0.000000 0.000000 

0.036009 0.015483 0.000000 
0.000000 -0.041720 0.000000 
0.000000 0.000000 0.000000 

0.032163 0.019372 0.000000 
0.000000 -0.030152 0.000000 
0.000000 0.000000 0.000000 

0.021858 0.008175 0.000000 
0.000000 -0.033391 0.000000 
0.000000 0.000000 0.000000 

0.062974 0.077630 0.000000 
0.000000 -0.041489 0.000000 
0.000000 0.000000 0.000000 

0.052329 0.068103 0.000000 
0.000000 -0.047137 0.000000 
0.000000 0.000000 0.000000 

0.039006 0.046071 0.000000 
0.000000 -0.026986 0.000000 
0.000000 0.000000 0.000000 

0.033530 0.013069 0.000000 
0.000000 -0.025792 0.000000 
0.000000 0.000000 0.000000 

0.025143 0.001560 0.000000 
0.000000 -0.033771 0.000000 
0.000000 0.000000 0.000000 

0.018916 -0.018487 0.000000 
0.000000 -0.017872 0.000000 
0.000000 0.000000 0.000000 

0.011875 -0.015269 0.000000 
0.000000 -0.019746 0.000000 
0.000000 0.000000 0.000000 

0.068660 0.035720 0.000000 
0.000000 -0.063154 0.000000 
0.000000 0.000000 0.000000 

0.056995 0.009744 0.000000 
0.000000 -0.048459 0.000000 
0.000000 0.000000 0.000000 

0.044434 0.000580 0.000000 
0.000000 -0.060616 0.000000 
0.000000 0.000000 0.000000 

0.038598 -0.016987 0.000000 
0.000000 -0.031855 0.000000 
0.000000 0.000000 0.000000 

0.028151 -0.015867 0.000000 
0.000000 -0.052893 0.000000 
0.000000 0.000000 0.000000 

0.022312 -0.027822 0.000000 
0.000000 -0.026505 0.000000 
0.000000 0.000000 0.000000 

0.012795 -0.028716 0.000000 
0.000000 -0.032623 0.000000 
0.000000 0.000000 0.000000 

0.010481 -0.008708 0.000000 
0.000000 -0.022476 0.000000 
0.000000 0.000000 0.000000 

0.008700 -0.013800 0.000000 
0.000000 -0.012452 0.000000 
0.000000 0.000000 0.000000 

0.062792 0.015179 0.000000 
0.000000 -0.093703 0.000000 
0.000000 0.000000 0.000000 

0.103164 -0.046389 0.000000 
0.000000 -0.519647 0.000000 
0.000000 0.000000 0.000000 

0.085335 -0.009820 0.000000 
0.000000 -0.182208 0.000000 
0.000000 0.000000 0.000000 

0.081615 0.018403 0.000000 
0.000000 -0.097809 0.000000 
0.000000 0.000000 0.000000 

0.130895 -0.006016 0.000000 
0.000000 -1.071350 0.000000 
0.000000 0.000000 0.000000 

0.116522 -0.005137 0.000000 
0.000000 -0.754555 0.000000 
0.000000 0.000000 0.000000 

0.113656 0.007917 0.000000 
0.000000 -0.690835 0.000000 
0.000000 0.000000 0.000000 

0.093290 0.000222 0.000000 
0.000000 -0.332558 0.000000 
0.000000 0.000000 0.000000 

0.087213 0.042486 0.000000 
0.000000 -0.220191 0.000000 
0.000000 0.000000 0.000000 

0.163769 0.059434 0.000000 
0.000000 -1.634597 0.000000 
0.000000 0.000000 0.000000 

0.148105 0.060797 0.000000 
0.000000 -1.325393 0.000000 
0.000000 0.000000 0.000000 

0.246270 0.071809 0.000000 
0.000000 -1.273393 0.000000 
0.000000 0.000000 0.000000 

0.196594 0.044982 0.000000 
0.000000 -0.940571 0.000000 
0.000000 0.000000 0.000000 

0.179170 0.115170 0.000000 
0.000000 -0.841263 0.000000 
0.000000 0.000000 0.000000 

0.122968 0.100895 0.000000 
0.000000 -0.469581 0.000000 
0.000000 0.000000 0.000000 

0.102055 0.139967 0.000000 
0.000000 -0.342679 0.000000 
0.000000 0.000000 0.000000 

0.336051 0.053535 0.000000 
0.000000 -2.215606 0.000000 
0.000000 0.000000 0.000000 

0.306944 0.083328 0.000000 
0.000000 -1.919450 0.000000 
0.000000 0.000000 0.000000 

0.303577 0.169411 0.000000 
0.000000 -1.867816 0.000000 
0.000000 0.000000 0.000000 

0.271863 0.163021 0.000000 
0.000000 -1.535572 0.000000 
0.000000 0.000000 0.000000 

0.125709 0.167982 0.000000 
0.000000 -1.411056 0.000000 
0.000000 0.000000 0.000000 

0.130454 0.127522 0.000000 
0.000000 -1.080220 0.000000 
0.000000 0.000000 0.000000 

0.074655 0.168095 0.000000 
0.000000 -0.921688 0.000000 
0.000000 0.000000 0.000000 

0.082598 0.093712 0.000000 
0.000000 -0.549156 0.000000 
0.000000 0.000000 0.000000 

0.080964 0.078984 0.000000 
0.000000 -0.380270 0.000000 
0.000000 0.000000 0.000000 

0.070914 0.000000 0.000000 
0.000000 -0.091248 0.000000 
0.000000 0.000000 0.000000 

0.065254 0.003650 0.000000 
0.000000 -0.675330 0.000000 
0.000000 0.000000 0.000000 

0.069872 0.000000 0.000000 
0.000000 -0.492775 0.000000 
0.000000 0.000000 0.000000 

0.065254 -0.003650 0.000000 
0.000000 -0.675330 0.000000 
0.000000 0.000000 0.000000 

0.140940 0.004286 0.000000 
0.000000 -1.259787 0.000000 
0.000000 0.000000 0.000000 

0.066644 0.004986 0.000000 
0.000000 -1.105564 0.000000 
0.000000 0.000000 0.000000 

0.071914 0.000000 0.000000 
0.000000 -1.357039 0.000000 
0.000000 0.000000 0.000000 

0.066644 -0.004986 0.000000 
0.000000 -1.105564 0.000000 
0.000000 0.000000 0.000000 

0.140940 -0.004286 0.000000 
0.000000 -1.259787 0.000000 
0.000000 0.000000 0.000000 

0.171983 -0.034584 0.000000 
0.000000 -1.819930 0.000000 
0.000000 0.000000 0.000000 

0.165092 -0.023936 0.000000 
0.000000 -1.687020 0.000000 
0.000000 0.000000 0.000000 

0.112002 -0.013164 0.000000 
0.000000 -1.965815 0.000000 
0.000000 0.000000 0.000000 

0.101793 0.000000 0.000000 
0.000000 -1.765242 0.000000 
0.000000 0.000000 0.000000 

0.112002 0.013164 0.000000 
0.000000 -1.965815 0.000000 
0.000000 0.000000 0.000000 

0.165092 0.023936 0.000000 
0.000000 -1.687020 0.000000 
0.000000 0.000000 0.000000 

0.171983 0.034584 0.000000 
0.000000 -1.819930 0.000000 
0.000000 0.000000 0.000000 

0.193851 -0.030722 0.000000 
0.000000 -2.388321 0.000000 
0.000000 0.000000 0.000000 

0.191211 -0.026562 0.000000 
0.000000 -2.264748 0.000000 
0.000000 0.000000 0.000000 

0.195451 -0.012025 0.000000 
0.000000 -2.588319 0.000000 
0.000000 0.000000 0.000000 

0.134346 -0.014670 0.000000 
0.000000 -2.392198 0.000000 
0.000000 0.000000 0.000000 

0.142866 0.000000 0.000000 
0.000000 -2.649748 0.000000 
0.000000 0.000000 0.000000 

0.134346 0.014670 0.000000 
0.000000 -2.392198 0.000000 
0.000000 0.000000 0.000000 

0.195451 0.012025 0.000000 
0.000000 -2.588319 0.000000 
0.000000 0.000000 0.000000 

0.191211 0.026562 0.000000 
0.000000 -2.264748 0.000000 
0.000000 0.000000 0.000000 

0.193851 0.030722 0.000000 
0.000000 -2.388321 0.000000 
0.000000 0.000000 0.000000 

0.062792 -0.015179 0.000000 
0.000000 -0.093703 0.000000 
0.000000 0.000000 0.000000 

0.081615 -0.018403 0.000000 
0.000000 -0.097809 0.000000 
0.000000 0.000000 0.000000 

0.085335 0.009820 0.000000 
0.000000 -0.182208 0.000000 
0.000000 0.000000 0.000000 

0.103164 0.046389 0.000000 
0.000000 -0.519647 0.000000 
0.000000 0.000000 0.000000 

0.087213 -0.042486 0.000000 
0.000000 -0.220191 0.000000 
0.000000 0.000000 0.000000 

0.093290 -0.000222 0.000000 
0.000000 -0.332558 0.000000 
0.000000 0.000000 0.000000 

0.113656 -0.007917 0.000000 
0.000000 -0.690835 0.000000 
0.000000 0.000000 0.000000 

0.116522 0.005137 0.000000 
0.000000 -0.754555 0.000000 
0.000000 0.000000 0.000000 

0.130895 0.006016 0.000000 
0.000000 -1.071350 0.000000 
0.000000 0.000000 0.000000 

0.102055 -0.139967 0.000000 
0.000000 -0.342679 0.000000 
0.000000 0.000000 0.000000 

0.122968 -0.100895 0.000000 
0.000000 -0.469581 0.000000 
0.000000 0.000000 0.000000 

0.179170 -0.115170 0.000000 
0.000000 -0.841263 0.000000 
0.000000 0.000000 0.000000 

0.196594 -0.044982 0.000000 
0.000000 -0.940571 0.000000 
0.000000 0.000000 0.000000 

0.246270 -0.071809 0.000000 
0.000000 -1.273393 0.000000 
0.000000 0.000000 0.000000 

0.148105 -0.060797 0.000000 
0.000000 -1.325393 0.000000 
0.000000 0.000000 0.000000 

0.163769 -0.059434 0.000000 
0.000000 -1.634597 0.000000 
0.000000 0.000000 0.000000 

0.080964 -0.078984 0.000000 
0.000000 -0.380270 0.000000 
0.000000 0.000000 0.000000 

0.082598 -0.093712 0.000000 
0.000000 -0.549156 0.000000 
0.000000 0.000000 0.000000 

0.074655 -0.168095 0.000000 
0.000000 -0.921688 0.000000 
0.000000 0.000000 0.000000 

0.130454 -0.127522 0.000000 
0.000000 -1.080220 0.000000 
0.000000 0.000000 0.000000 

0.125709 -0.167982 0.000000 
0.000000 -1.411056 0.000000 
0.000000 0.000000 0.000000 

0.271863 -0.163021 0.000000 
0.000000 -1.535572 0.000000 
0.000000 0.000000 0.000000 

0.303577 -0.169411 0.000000 
0.000000 -1.867816 0.000000 
0.000000 0.000000 0.000000 

0.306944 -0.083328 0.000000 
0.000000 -1.919450 0.000000 
0.000000 0.000000 0.000000 

0.336051 -0.053535 0.000000 
0.000000 -2.215606 0.000000 
0.000000 0.000000 0.000000 

0.054063 -0.007609 0.000000 
0.000000 -0.050216 0.000000 
0.000000 0.000000 0.000000 

0.036338 -0.011724 0.000000 
0.000000 -0.042984 0.000000 
0.000000 0.000000 0.000000 

0.049938 -0.008700 0.000000 
0.000000 -0.059327 0.000000 
0.000000 0.000000 0.000000 

0.064037 -0.016773 0.000000 
0.000000 -0.067334 0.000000 
0.000000 0.000000 0.000000 

0.021858 -0.008175 0.000000 
0.000000 -0.033391 0.000000 
0.000000 0.000000 0.000000 

0.032163 -0.019372 0.000000 
0.000000 -0.030152 0.000000 
0.000000 0.000000 0.000000 

0.036009 -0.015483 0.000000 
0.000000 -0.041720 0.000000 
0.000000 0.000000 0.000000 

0.033613 -0.054073 0.000000 
0.000000 -0.072876 0.000000 
0.000000 0.000000 0.000000 

0.058229 -0.049154 0.000000 
0.000000 -0.058033 0.000000 
0.000000 0.000000 0.000000 

0.011875 0.015269 0.000000 
0.000000 -0.019746 0.000000 
0.000000 0.000000 0.000000 

0.018916 0.018487 0.000000 
0.000000 -0.017872 0.000000 
0.000000 0.000000 0.000000 

0.025143 -0.001560 0.000000 
0.000000 -0.033771 0.000000 
0.000000 0.000000 0.000000 

0.033530 -0.013069 0.000000 
0.000000 -0.025792 0.000000 
0.000000 0.000000 0.000000 

0.039006 -0.046071 0.000000 
0.000000 -0.026986 0.000000 
0.000000 0.000000 0.000000 

0.052329 -0.068103 0.000000 
0.000000 -0.047137 0.000000 
0.000000 0.000000 0.000000 

0.062974 -0.077630 0.000000 
0.000000 -0.041489 0.000000 
0.000000 0.000000 0.000000 

0.008700 0.013800 0.000000 
0.000000 -0.012452 0.000000 
0.000000 0.000000 0.000000 

0.010481 0.008708 0.000000 
0.000000 -0.022476 0.000000 
0.000000 0.000000 0.000000 

0.012795 0.028716 0.000000 
0.000000 -0.032623 0.000000 
0.000000 0.000000 0.000000 

0.022312 0.027822 0.000000 
0.000000 -0.026505 0.000000 
0.000000 0.000000 0.000000 

0.028151 0.015867 0.000000 
0.000000 -0.052893 0.000000 
0.000000 0.000000 0.000000 

0.038598 0.016987 0.000000 
0.000000 -0.031855 0.000000 
0.000000 0.000000 0.000000 

0.044434 -0.000580 0.000000 
0.000000 -0.060616 0.000000 
0.000000 0.000000 0.000000 

0.056995 -0.009744 0.000000 
0.000000 -0.048459 0.000000 
0.000000 0.000000 0.000000 

0.068660 -0.035720 0.000000 
0.000000 -0.063154 0.000000 
0.000000 0.000000 0.000000 

0.043612 -0.009727 0.000000 
0.000000 -0.062610 0.000000 
0.000000 0.000000 0.000000 

0.021527 -0.009229 0.000000 
0.000000 -0.029160 0.000000 
0.000000 0.000000 0.000000 

0.030247 -0.004572 0.000000 
0.000000 -0.026657 0.000000 
0.000000 0.000000 0.000000 

0.024882 0.012085 0.000000 
0.000000 -0.029858 0.000000 
0.000000 0.000000 0.000000 

-0.002556 -0.007541 0.000000 
0.000000 0.000921 0.000000 
0.000000 0.000000 0.000000 

0.005261 -0.009069 0.000000 
0.000000 -0.008588 0.000000 
0.000000 0.000000 0.000000 

0.011944 0.008392 0.000000 
0.000000 -0.004302 0.000000 
0.000000 0.000000 0.000000 

0.019422 0.000405 0.000000 
0.000000 -0.019641 0.000000 
0.000000 0.000000 0.000000 

0.019256 -0.002069 0.000000 
0.000000 -0.015108 0.000000 
0.000000 0.000000 0.000000 

-0.012569 0.000165 0.000000 
0.000000 0.005308 0.000000 
0.000000 0.000000 0.000000 

-0.012938 -0.001428 0.000000 
0.000000 0.005677 0.000000 
0.000000 0.000000 0.000000 

-0.003200 0.020501 0.000000 
0.000000 0.003107 0.000000 
0.000000 0.000000 0.000000 

0.004684 0.007392 0.000000 
0.000000 0.004214 0.000000 
0.000000 0.000000 0.000000 

0.003341 0.001875 0.000000 
0.000000 0.004222 0.000000 
0.000000 0.000000 0.000000 

0.009825 -0.009907 0.000000 
0.000000 -0.006982 0.000000 
0.000000 0.000000 0.000000 

0.009297 0.015999 0.000000 
0.000000 -0.009059 0.000000 
0.000000 0.000000 0.000000 

-0.014481 -0.001628 0.000000 
0.000000 0.016544 0.000000 
0.000000 0.000000 0.000000 

-0.014019 0.000329 0.000000 
0.000000 0.013650 0.000000 
0.000000 0.000000 0.000000 

-0.019179 0.016056 0.000000 
0.000000 0.013071 0.000000 
0.000000 0.000000 0.000000 

-0.012286 0.012690 0.000000 
0.000000 0.011275 0.000000 
0.000000 0.000000 0.000000 

-0.014409 0.004573 0.000000 
0.000000 0.011483 0.000000 
0.000000 0.000000 0.000000 

-0.007418 0.001103 0.000000 
0.000000 -0.003039 0.000000 
0.000000 0.000000 0.000000 

0.003256 0.015590 0.000000 
0.000000 -0.004240 0.000000 
0.000000 0.000000 0.000000 

0.007003 0.018044 0.000000 
0.000000 -0.005708 0.000000 
0.000000 0.000000 0.000000 

0.007060 0.016967 0.000000 
0.000000 -0.011840 0.000000 
0.000000 0.000000 0.000000 

