# vtk DataFile Version 3.0 
vtk output 
ASCII 
DATASET UNSTRUCTURED_GRID 
POINTS 175 float 
-0.026061 0.019093 0.000000 
-0.106992 0.087149 0.000000 
-0.054870 0.078916 0.000000 
-0.028809 0.124800 0.000000 
-0.186430 0.151224 0.000000 
-0.137056 0.148698 0.000000 
-0.114311 0.202346 0.000000 
-0.058186 0.186680 0.000000 
-0.029377 0.226857 0.000000 
-0.265318 0.214380 0.000000 
-0.217198 0.213581 0.000000 
-0.196633 0.270877 0.000000 
-0.143120 0.262168 0.000000 
-0.116563 0.309437 0.000000 
-0.058945 0.289791 0.000000 
-0.029568 0.327911 0.000000 
-0.344206 0.277536 0.000000 
-0.296791 0.277543 0.000000 
-0.278030 0.337486 0.000000 
-0.225992 0.331620 0.000000 
-0.201664 0.383737 0.000000 
-0.145749 0.370263 0.000000 
-0.117890 0.414605 0.000000 
-0.059328 0.391900 0.000000 
-0.029759 0.428965 0.000000 
-0.058559 -0.021657 0.000000 
-0.162226 -0.042500 0.000000 
-0.123292 -0.006882 0.000000 
-0.142917 0.042101 0.000000 
-0.261851 -0.064656 0.000000 
-0.229092 -0.027629 0.000000 
-0.256854 0.023602 0.000000 
-0.209613 0.057715 0.000000 
-0.223062 0.105289 0.000000 
-0.360414 -0.086956 0.000000 
-0.329787 -0.049834 0.000000 
-0.361761 0.001968 0.000000 
-0.321587 0.038377 0.000000 
-0.341985 0.088611 0.000000 
-0.290702 0.121410 0.000000 
-0.302189 0.168146 0.000000 
-0.458977 -0.109257 0.000000 
-0.429420 -0.072182 0.000000 
-0.464588 -0.020140 0.000000 
-0.427556 0.016887 0.000000 
-0.453135 0.068402 0.000000 
-0.407738 0.103717 0.000000 
-0.425037 0.153145 0.000000 
-0.370772 0.184775 0.000000 
-0.381315 0.231002 0.000000 
-0.046960 -0.072473 0.000000 
-0.095301 -0.166518 0.000000 
-0.098873 -0.113871 0.000000 
-0.149405 -0.098674 0.000000 
-0.140093 -0.258222 0.000000 
-0.148617 -0.209524 0.000000 
-0.205981 -0.199287 0.000000 
-0.203197 -0.141084 0.000000 
-0.248777 -0.121937 0.000000 
-0.184111 -0.349186 0.000000 
-0.194039 -0.302095 0.000000 
-0.254475 -0.294795 0.000000 
-0.257893 -0.240686 0.000000 
-0.309886 -0.225313 0.000000 
-0.303554 -0.164768 0.000000 
-0.347255 -0.144610 0.000000 
-0.228129 -0.440150 0.000000 
-0.238687 -0.393925 0.000000 
-0.301302 -0.388973 0.000000 
-0.307162 -0.336934 0.000000 
-0.363386 -0.324813 0.000000 
-0.362692 -0.267302 0.000000 
-0.412122 -0.250009 0.000000 
-0.403017 -0.187862 0.000000 
-0.445733 -0.167283 0.000000 
-0.000000 -0.095087 0.000000 
0.043388 -0.191518 0.000000 
-0.000000 -0.161486 0.000000 
-0.043388 -0.191518 0.000000 
0.087158 -0.283715 0.000000 
0.043769 -0.260016 0.000000 
-0.000000 -0.298482 0.000000 
-0.043769 -0.260016 0.000000 
-0.087158 -0.283715 0.000000 
0.130831 -0.374844 0.000000 
0.087824 -0.353246 0.000000 
0.044436 -0.395945 0.000000 
-0.000000 -0.364880 0.000000 
-0.044436 -0.395945 0.000000 
-0.087824 -0.353246 0.000000 
-0.130831 -0.374844 0.000000 
0.174505 -0.465974 0.000000 
0.131782 -0.445408 0.000000 
0.088871 -0.491274 0.000000 
0.044532 -0.463411 0.000000 
-0.000000 -0.499811 0.000000 
-0.044532 -0.463411 0.000000 
-0.088871 -0.491274 0.000000 
-0.131782 -0.445408 0.000000 
-0.174505 -0.465974 0.000000 
0.046960 -0.072473 0.000000 
0.149405 -0.098674 0.000000 
0.098873 -0.113871 0.000000 
0.095301 -0.166518 0.000000 
0.248777 -0.121937 0.000000 
0.203197 -0.141084 0.000000 
0.205981 -0.199287 0.000000 
0.148617 -0.209524 0.000000 
0.140093 -0.258222 0.000000 
0.347255 -0.144610 0.000000 
0.303554 -0.164768 0.000000 
0.309886 -0.225313 0.000000 
0.257893 -0.240686 0.000000 
0.254475 -0.294795 0.000000 
0.194039 -0.302095 0.000000 
0.184111 -0.349186 0.000000 
0.445733 -0.167283 0.000000 
0.403017 -0.187862 0.000000 
0.412122 -0.250009 0.000000 
0.362692 -0.267302 0.000000 
0.363386 -0.324813 0.000000 
0.307162 -0.336934 0.000000 
0.301302 -0.388973 0.000000 
0.238687 -0.393925 0.000000 
0.228129 -0.440150 0.000000 
0.058559 -0.021657 0.000000 
0.142917 0.042101 0.000000 
0.123292 -0.006882 0.000000 
0.162226 -0.042500 0.000000 
0.223062 0.105289 0.000000 
0.209613 0.057715 0.000000 
0.256854 0.023602 0.000000 
0.229092 -0.027629 0.000000 
0.261851 -0.064656 0.000000 
0.302189 0.168146 0.000000 
0.290702 0.121410 0.000000 
0.341985 0.088611 0.000000 
0.321587 0.038377 0.000000 
0.361761 0.001968 0.000000 
0.329787 -0.049834 0.000000 
0.360414 -0.086956 0.000000 
0.381315 0.231002 0.000000 
0.370772 0.184775 0.000000 
0.425037 0.153145 0.000000 
0.407738 0.103717 0.000000 
0.453135 0.068402 0.000000 
0.427556 0.016887 0.000000 
0.464588 -0.020140 0.000000 
0.429420 -0.072182 0.000000 
0.458977 -0.109257 0.000000 
0.026061 0.019093 0.000000 
0.028809 0.124800 0.000000 
0.054870 0.078916 0.000000 
0.106992 0.087149 0.000000 
0.029377 0.226857 0.000000 
0.058186 0.186680 0.000000 
0.114311 0.202346 0.000000 
0.137056 0.148698 0.000000 
0.186430 0.151224 0.000000 
0.029568 0.327911 0.000000 
0.058945 0.289791 0.000000 
0.116563 0.309437 0.000000 
0.143120 0.262168 0.000000 
0.196633 0.270877 0.000000 
0.217198 0.213581 0.000000 
0.265318 0.214380 0.000000 
0.029759 0.428965 0.000000 
0.059328 0.391900 0.000000 
0.117890 0.414605 0.000000 
0.145749 0.370263 0.000000 
0.201664 0.383737 0.000000 
0.225992 0.331620 0.000000 
0.278030 0.337486 0.000000 
0.296791 0.277543 0.000000 
0.344206 0.277536 0.000000 
CELLS 175 350 
1 0 
1 1 
1 2 
1 3 
1 4 
1 5 
1 6 
1 7 
1 8 
1 9 
1 10 
1 11 
1 12 
1 13 
1 14 
1 15 
1 16 
1 17 
1 18 
1 19 
1 20 
1 21 
1 22 
1 23 
1 24 
1 25 
1 26 
1 27 
1 28 
1 29 
1 30 
1 31 
1 32 
1 33 
1 34 
1 35 
1 36 
1 37 
1 38 
1 39 
1 40 
1 41 
1 42 
1 43 
1 44 
1 45 
1 46 
1 47 
1 48 
1 49 
1 50 
1 51 
1 52 
1 53 
1 54 
1 55 
1 56 
1 57 
1 58 
1 59 
1 60 
1 61 
1 62 
1 63 
1 64 
1 65 
1 66 
1 67 
1 68 
1 69 
1 70 
1 71 
1 72 
1 73 
1 74 
1 75 
1 76 
1 77 
1 78 
1 79 
1 80 
1 81 
1 82 
1 83 
1 84 
1 85 
1 86 
1 87 
1 88 
1 89 
1 90 
1 91 
1 92 
1 93 
1 94 
1 95 
1 96 
1 97 
1 98 
1 99 
1 100 
1 101 
1 102 
1 103 
1 104 
1 105 
1 106 
1 107 
1 108 
1 109 
1 110 
1 111 
1 112 
1 113 
1 114 
1 115 
1 116 
1 117 
1 118 
1 119 
1 120 
1 121 
1 122 
1 123 
1 124 
1 125 
1 126 
1 127 
1 128 
1 129 
1 130 
1 131 
1 132 
1 133 
1 134 
1 135 
1 136 
1 137 
1 138 
1 139 
1 140 
1 141 
1 142 
1 143 
1 144 
1 145 
1 146 
1 147 
1 148 
1 149 
1 150 
1 151 
1 152 
1 153 
1 154 
1 155 
1 156 
1 157 
1 158 
1 159 
1 160 
1 161 
1 162 
1 163 
1 164 
1 165 
1 166 
1 167 
1 168 
1 169 
1 170 
1 171 
1 172 
1 173 
1 174 
CELL_TYPES 175 
1 
1 
1 
1 
1 
1 
1 
1 
1 
1 
1 
1 
1 
1 
1 
1 
1 
1 
1 
1 
1 
1 
1 
1 
1 
1 
1 
1 
1 
1 
1 
1 
1 
1 
1 
1 
1 
1 
1 
1 
1 
1 
1 
1 
1 
1 
1 
1 
1 
1 
1 
1 
1 
1 
1 
1 
1 
1 
1 
1 
1 
1 
1 
1 
1 
1 
1 
1 
1 
1 
1 
1 
1 
1 
1 
1 
1 
1 
1 
1 
1 
1 
1 
1 
1 
1 
1 
1 
1 
1 
1 
1 
1 
1 
1 
1 
1 
1 
1 
1 
1 
1 
1 
1 
1 
1 
1 
1 
1 
1 
1 
1 
1 
1 
1 
1 
1 
1 
1 
1 
1 
1 
1 
1 
1 
1 
1 
1 
1 
1 
1 
1 
1 
1 
1 
1 
1 
1 
1 
1 
1 
1 
1 
1 
1 
1 
1 
1 
1 
1 
1 
1 
1 
1 
1 
1 
1 
1 
1 
1 
1 
1 
1 
1 
1 
1 
1 
1 
1 
1 
1 
1 
1 
1 
1 
POINT_DATA 175 
VECTORS X_GC float 
-0.026061 0.019093 0.000000 
-0.106992 0.087149 0.000000 
-0.054870 0.078916 0.000000 
-0.028809 0.124800 0.000000 
-0.186430 0.151224 0.000000 
-0.137056 0.148698 0.000000 
-0.114311 0.202346 0.000000 
-0.058186 0.186680 0.000000 
-0.029377 0.226857 0.000000 
-0.265318 0.214380 0.000000 
-0.217198 0.213581 0.000000 
-0.196633 0.270877 0.000000 
-0.143120 0.262168 0.000000 
-0.116563 0.309437 0.000000 
-0.058945 0.289791 0.000000 
-0.029568 0.327911 0.000000 
-0.344206 0.277536 0.000000 
-0.296791 0.277543 0.000000 
-0.278030 0.337486 0.000000 
-0.225992 0.331620 0.000000 
-0.201664 0.383737 0.000000 
-0.145749 0.370263 0.000000 
-0.117890 0.414605 0.000000 
-0.059328 0.391900 0.000000 
-0.029759 0.428965 0.000000 
-0.058559 -0.021657 0.000000 
-0.162226 -0.042500 0.000000 
-0.123292 -0.006882 0.000000 
-0.142917 0.042101 0.000000 
-0.261851 -0.064656 0.000000 
-0.229092 -0.027629 0.000000 
-0.256854 0.023602 0.000000 
-0.209613 0.057715 0.000000 
-0.223062 0.105289 0.000000 
-0.360414 -0.086956 0.000000 
-0.329787 -0.049834 0.000000 
-0.361761 0.001968 0.000000 
-0.321587 0.038377 0.000000 
-0.341985 0.088611 0.000000 
-0.290702 0.121410 0.000000 
-0.302189 0.168146 0.000000 
-0.458977 -0.109257 0.000000 
-0.429420 -0.072182 0.000000 
-0.464588 -0.020140 0.000000 
-0.427556 0.016887 0.000000 
-0.453135 0.068402 0.000000 
-0.407738 0.103717 0.000000 
-0.425037 0.153145 0.000000 
-0.370772 0.184775 0.000000 
-0.381315 0.231002 0.000000 
-0.046960 -0.072473 0.000000 
-0.095301 -0.166518 0.000000 
-0.098873 -0.113871 0.000000 
-0.149405 -0.098674 0.000000 
-0.140093 -0.258222 0.000000 
-0.148617 -0.209524 0.000000 
-0.205981 -0.199287 0.000000 
-0.203197 -0.141084 0.000000 
-0.248777 -0.121937 0.000000 
-0.184111 -0.349186 0.000000 
-0.194039 -0.302095 0.000000 
-0.254475 -0.294795 0.000000 
-0.257893 -0.240686 0.000000 
-0.309886 -0.225313 0.000000 
-0.303554 -0.164768 0.000000 
-0.347255 -0.144610 0.000000 
-0.228129 -0.440150 0.000000 
-0.238687 -0.393925 0.000000 
-0.301302 -0.388973 0.000000 
-0.307162 -0.336934 0.000000 
-0.363386 -0.324813 0.000000 
-0.362692 -0.267302 0.000000 
-0.412122 -0.250009 0.000000 
-0.403017 -0.187862 0.000000 
-0.445733 -0.167283 0.000000 
-0.000000 -0.095087 0.000000 
0.043388 -0.191518 0.000000 
-0.000000 -0.161486 0.000000 
-0.043388 -0.191518 0.000000 
0.087158 -0.283715 0.000000 
0.043769 -0.260016 0.000000 
-0.000000 -0.298482 0.000000 
-0.043769 -0.260016 0.000000 
-0.087158 -0.283715 0.000000 
0.130831 -0.374844 0.000000 
0.087824 -0.353246 0.000000 
0.044436 -0.395945 0.000000 
-0.000000 -0.364880 0.000000 
-0.044436 -0.395945 0.000000 
-0.087824 -0.353246 0.000000 
-0.130831 -0.374844 0.000000 
0.174505 -0.465974 0.000000 
0.131782 -0.445408 0.000000 
0.088871 -0.491274 0.000000 
0.044532 -0.463411 0.000000 
-0.000000 -0.499811 0.000000 
-0.044532 -0.463411 0.000000 
-0.088871 -0.491274 0.000000 
-0.131782 -0.445408 0.000000 
-0.174505 -0.465974 0.000000 
0.046960 -0.072473 0.000000 
0.149405 -0.098674 0.000000 
0.098873 -0.113871 0.000000 
0.095301 -0.166518 0.000000 
0.248777 -0.121937 0.000000 
0.203197 -0.141084 0.000000 
0.205981 -0.199287 0.000000 
0.148617 -0.209524 0.000000 
0.140093 -0.258222 0.000000 
0.347255 -0.144610 0.000000 
0.303554 -0.164768 0.000000 
0.309886 -0.225313 0.000000 
0.257893 -0.240686 0.000000 
0.254475 -0.294795 0.000000 
0.194039 -0.302095 0.000000 
0.184111 -0.349186 0.000000 
0.445733 -0.167283 0.000000 
0.403017 -0.187862 0.000000 
0.412122 -0.250009 0.000000 
0.362692 -0.267302 0.000000 
0.363386 -0.324813 0.000000 
0.307162 -0.336934 0.000000 
0.301302 -0.388973 0.000000 
0.238687 -0.393925 0.000000 
0.228129 -0.440150 0.000000 
0.058559 -0.021657 0.000000 
0.142917 0.042101 0.000000 
0.123292 -0.006882 0.000000 
0.162226 -0.042500 0.000000 
0.223062 0.105289 0.000000 
0.209613 0.057715 0.000000 
0.256854 0.023602 0.000000 
0.229092 -0.027629 0.000000 
0.261851 -0.064656 0.000000 
0.302189 0.168146 0.000000 
0.290702 0.121410 0.000000 
0.341985 0.088611 0.000000 
0.321587 0.038377 0.000000 
0.361761 0.001968 0.000000 
0.329787 -0.049834 0.000000 
0.360414 -0.086956 0.000000 
0.381315 0.231002 0.000000 
0.370772 0.184775 0.000000 
0.425037 0.153145 0.000000 
0.407738 0.103717 0.000000 
0.453135 0.068402 0.000000 
0.427556 0.016887 0.000000 
0.464588 -0.020140 0.000000 
0.429420 -0.072182 0.000000 
0.458977 -0.109257 0.000000 
0.026061 0.019093 0.000000 
0.028809 0.124800 0.000000 
0.054870 0.078916 0.000000 
0.106992 0.087149 0.000000 
0.029377 0.226857 0.000000 
0.058186 0.186680 0.000000 
0.114311 0.202346 0.000000 
0.137056 0.148698 0.000000 
0.186430 0.151224 0.000000 
0.029568 0.327911 0.000000 
0.058945 0.289791 0.000000 
0.116563 0.309437 0.000000 
0.143120 0.262168 0.000000 
0.196633 0.270877 0.000000 
0.217198 0.213581 0.000000 
0.265318 0.214380 0.000000 
0.029759 0.428965 0.000000 
0.059328 0.391900 0.000000 
0.117890 0.414605 0.000000 
0.145749 0.370263 0.000000 
0.201664 0.383737 0.000000 
0.225992 0.331620 0.000000 
0.278030 0.337486 0.000000 
0.296791 0.277543 0.000000 
0.344206 0.277536 0.000000 
VECTORS X_EC float 
0.338794 0.242238 0.000000 
-0.609100 -0.676510 0.000000 
0.713312 -0.565369 0.000000 
0.374519 0.815201 0.000000 
0.423588 0.458471 0.000000 
-0.218274 0.492574 0.000000 
-0.513962 -0.231665 0.000000 
0.756418 -0.020179 0.000000 
0.381900 -0.562571 0.000000 
-0.550868 -0.394132 0.000000 
0.823577 -0.383337 0.000000 
0.556234 0.843159 0.000000 
-0.139443 0.960728 0.000000 
-0.484677 0.322603 0.000000 
0.766286 0.587819 0.000000 
0.384386 0.073198 0.000000 
0.474677 0.753264 0.000000 
-0.141715 0.753168 0.000000 
-0.385608 -0.056060 0.000000 
0.937896 0.023135 0.000000 
0.621631 -0.680445 0.000000 
-0.105264 -0.498546 0.000000 
-0.467428 0.902828 0.000000 
0.771260 -0.790643 0.000000 
0.386873 0.708967 0.000000 
0.761262 0.792373 0.000000 
0.108942 -0.926251 0.000000 
-0.397202 0.592910 0.000000 
-0.142083 -0.068365 0.000000 
-0.595936 -0.627140 0.000000 
0.978194 0.872994 0.000000 
-0.660903 0.181369 0.000000 
0.724964 -0.279151 0.000000 
0.899809 -0.921399 0.000000 
0.685384 -0.326088 0.000000 
0.287229 -0.827246 0.000000 
0.702895 0.473425 0.000000 
0.180633 -0.018093 0.000000 
0.445811 -0.696253 0.000000 
-0.220880 0.860961 0.000000 
-0.071546 0.230036 0.000000 
-0.033296 -0.025036 0.000000 
-0.417537 -0.525545 0.000000 
0.039645 0.771892 0.000000 
-0.441768 0.272021 0.000000 
-0.109248 -0.423429 0.000000 
-0.699407 -0.900185 0.000000 
-0.474522 0.432536 0.000000 
0.820030 0.005542 0.000000 
0.957100 -0.618529 0.000000 
0.610485 -0.521621 0.000000 
-0.761092 0.747999 0.000000 
-0.714655 0.037261 0.000000 
-0.057734 -0.167906 0.000000 
-0.178789 -0.013997 0.000000 
-0.067979 -0.671423 0.000000 
0.677748 -0.809627 0.000000 
0.641556 0.404628 0.000000 
-0.765897 0.146149 0.000000 
0.393446 -0.785988 0.000000 
0.522510 0.578282 0.000000 
-0.691820 0.479738 0.000000 
-0.647393 -0.250745 0.000000 
0.028512 -0.458272 0.000000 
-0.053800 0.724368 0.000000 
0.514316 0.452237 0.000000 
0.965681 0.442021 0.000000 
-0.897068 -0.182008 0.000000 
-0.083078 -0.248861 0.000000 
-0.006893 -0.951385 0.000000 
0.724017 0.884982 0.000000 
0.714996 0.108578 0.000000 
-0.642413 -0.124879 0.000000 
-0.760780 -0.963860 0.000000 
-0.205471 0.758325 0.000000 
0.000000 -0.216319 0.000000 
-0.564049 -0.914506 0.000000 
0.000000 0.680058 0.000000 
0.564049 -0.914506 0.000000 
0.866949 0.330149 0.000000 
-0.569003 0.010218 0.000000 
0.000000 0.529506 0.000000 
0.569003 0.010218 0.000000 
-0.866949 0.330149 0.000000 
0.299194 -0.439601 0.000000 
0.858290 -0.731185 0.000000 
-0.577662 -0.154739 0.000000 
0.000000 -0.574117 0.000000 
0.577662 -0.154739 0.000000 
-0.858290 -0.731185 0.000000 
-0.299194 -0.439601 0.000000 
-0.268560 0.790649 0.000000 
0.286830 0.513008 0.000000 
0.844677 -0.867794 0.000000 
-0.578910 0.756043 0.000000 
0.000000 -0.752553 0.000000 
0.578910 0.756043 0.000000 
-0.844677 -0.867794 0.000000 
-0.286830 0.513008 0.000000 
0.268560 0.790649 0.000000 
-0.610485 -0.521621 0.000000 
0.057734 -0.167906 0.000000 
0.714655 0.037261 0.000000 
0.761092 0.747999 0.000000 
0.765897 0.146149 0.000000 
-0.641556 0.404628 0.000000 
-0.677748 -0.809627 0.000000 
0.067979 -0.671423 0.000000 
0.178789 -0.013997 0.000000 
-0.514316 0.452237 0.000000 
0.053800 0.724368 0.000000 
-0.028512 -0.458272 0.000000 
0.647393 -0.250745 0.000000 
0.691820 0.479738 0.000000 
-0.522510 0.578282 0.000000 
-0.393446 -0.785988 0.000000 
0.205471 0.758325 0.000000 
0.760780 -0.963860 0.000000 
0.642413 -0.124879 0.000000 
-0.714996 0.108578 0.000000 
-0.724017 0.884982 0.000000 
0.006894 -0.951385 0.000000 
0.083078 -0.248861 0.000000 
0.897068 -0.182008 0.000000 
-0.965681 0.442021 0.000000 
-0.761262 0.792373 0.000000 
0.142083 -0.068365 0.000000 
0.397202 0.592910 0.000000 
-0.108942 -0.926251 0.000000 
-0.899809 -0.921399 0.000000 
-0.724964 -0.279151 0.000000 
0.660903 0.181369 0.000000 
-0.978194 0.872994 0.000000 
0.595936 -0.627140 0.000000 
0.071546 0.230036 0.000000 
0.220880 0.860961 0.000000 
-0.445811 -0.696253 0.000000 
-0.180633 -0.018093 0.000000 
-0.702895 0.473425 0.000000 
-0.287229 -0.827246 0.000000 
-0.685384 -0.326088 0.000000 
-0.957100 -0.618529 0.000000 
-0.820030 0.005542 0.000000 
0.474522 0.432536 0.000000 
0.699407 -0.900185 0.000000 
0.109248 -0.423429 0.000000 
0.441768 0.272021 0.000000 
-0.039645 0.771892 0.000000 
0.417537 -0.525545 0.000000 
0.033296 -0.025036 0.000000 
-0.338794 0.242238 0.000000 
-0.374519 0.815201 0.000000 
-0.713312 -0.565369 0.000000 
0.609100 -0.676510 0.000000 
-0.381900 -0.562571 0.000000 
-0.756418 -0.020179 0.000000 
0.513962 -0.231665 0.000000 
0.218274 0.492574 0.000000 
-0.423588 0.458471 0.000000 
-0.384386 0.073198 0.000000 
-0.766286 0.587819 0.000000 
0.484677 0.322603 0.000000 
0.139443 0.960728 0.000000 
-0.556234 0.843159 0.000000 
-0.823577 -0.383337 0.000000 
0.550868 -0.394132 0.000000 
-0.386873 0.708967 0.000000 
-0.771260 -0.790643 0.000000 
0.467428 0.902828 0.000000 
0.105264 -0.498546 0.000000 
-0.621631 -0.680445 0.000000 
-0.937896 0.023135 0.000000 
0.385608 -0.056060 0.000000 
0.141715 0.753168 0.000000 
-0.474677 0.753264 0.000000 
CELL_DATA 175 
SCALARS MASS float 
LOOKUP_TABLE default 
0.781831 
0.864274 
0.946717 
0.864274 
0.881307 
0.921110 
0.858535 
0.921110 
0.881307 
0.887046 
0.910001 
0.869829 
0.915556 
0.869829 
0.910001 
0.887046 
0.892784 
0.915740 
0.892784 
0.927218 
0.892784 
0.927218 
0.892784 
0.915740 
0.892784 
0.781831 
0.864274 
0.946717 
0.864274 
0.881307 
0.921110 
0.858535 
0.921110 
0.881307 
0.887046 
0.910001 
0.869829 
0.915556 
0.869829 
0.910001 
0.887046 
0.892784 
0.915740 
0.892784 
0.927218 
0.892784 
0.927218 
0.892784 
0.915740 
0.892784 
0.781831 
0.864274 
0.946717 
0.864274 
0.881307 
0.921110 
0.858535 
0.921110 
0.881307 
0.887046 
0.910001 
0.869829 
0.915556 
0.869829 
0.910001 
0.887046 
0.892784 
0.915740 
0.892784 
0.927218 
0.892784 
0.927218 
0.892784 
0.915740 
0.892784 
0.781831 
0.864274 
0.946717 
0.864274 
0.881307 
0.921110 
0.858535 
0.921110 
0.881307 
0.887046 
0.910001 
0.869829 
0.915556 
0.869829 
0.910001 
0.887046 
0.892784 
0.915740 
0.892784 
0.927218 
0.892784 
0.927218 
0.892784 
0.915740 
0.892784 
0.781831 
0.864274 
0.946717 
0.864274 
0.881307 
0.921110 
0.858535 
0.921110 
0.881307 
0.887046 
0.910001 
0.869829 
0.915556 
0.869829 
0.910001 
0.887046 
0.892784 
0.915740 
0.892784 
0.927218 
0.892784 
0.927218 
0.892784 
0.915740 
0.892784 
0.781831 
0.864274 
0.946717 
0.864274 
0.881307 
0.921110 
0.858535 
0.921110 
0.881307 
0.887046 
0.910001 
0.869829 
0.915556 
0.869829 
0.910001 
0.887046 
0.892784 
0.915740 
0.892784 
0.927218 
0.892784 
0.927218 
0.892784 
0.915740 
0.892784 
0.781831 
0.864274 
0.946717 
0.864274 
0.881307 
0.921110 
0.858535 
0.921110 
0.881307 
0.887046 
0.910001 
0.869829 
0.915556 
0.869829 
0.910001 
0.887046 
0.892784 
0.915740 
0.892784 
0.927218 
0.892784 
0.927218 
0.892784 
0.915740 
0.892784 
SCALARS MASS float 
LOOKUP_TABLE default 
0.781831 
0.864274 
0.946717 
0.864274 
0.881307 
0.921110 
0.858535 
0.921110 
0.881307 
0.887046 
0.910001 
0.869829 
0.915556 
0.869829 
0.910001 
0.887046 
0.892784 
0.915740 
0.892784 
0.927218 
0.892784 
0.927218 
0.892784 
0.915740 
0.892784 
0.781831 
0.864274 
0.946717 
0.864274 
0.881307 
0.921110 
0.858535 
0.921110 
0.881307 
0.887046 
0.910001 
0.869829 
0.915556 
0.869829 
0.910001 
0.887046 
0.892784 
0.915740 
0.892784 
0.927218 
0.892784 
0.927218 
0.892784 
0.915740 
0.892784 
0.781831 
0.864274 
0.946717 
0.864274 
0.881307 
0.921110 
0.858535 
0.921110 
0.881307 
0.887046 
0.910001 
0.869829 
0.915556 
0.869829 
0.910001 
0.887046 
0.892784 
0.915740 
0.892784 
0.927218 
0.892784 
0.927218 
0.892784 
0.915740 
0.892784 
0.781831 
0.864274 
0.946717 
0.864274 
0.881307 
0.921110 
0.858535 
0.921110 
0.881307 
0.887046 
0.910001 
0.869829 
0.915556 
0.869829 
0.910001 
0.887046 
0.892784 
0.915740 
0.892784 
0.927218 
0.892784 
0.927218 
0.892784 
0.915740 
0.892784 
0.781831 
0.864274 
0.946717 
0.864274 
0.881307 
0.921110 
0.858535 
0.921110 
0.881307 
0.887046 
0.910001 
0.869829 
0.915556 
0.869829 
0.910001 
0.887046 
0.892784 
0.915740 
0.892784 
0.927218 
0.892784 
0.927218 
0.892784 
0.915740 
0.892784 
0.781831 
0.864274 
0.946717 
0.864274 
0.881307 
0.921110 
0.858535 
0.921110 
0.881307 
0.887046 
0.910001 
0.869829 
0.915556 
0.869829 
0.910001 
0.887046 
0.892784 
0.915740 
0.892784 
0.927218 
0.892784 
0.927218 
0.892784 
0.915740 
0.892784 
0.781831 
0.864274 
0.946717 
0.864274 
0.881307 
0.921110 
0.858535 
0.921110 
0.881307 
0.887046 
0.910001 
0.869829 
0.915556 
0.869829 
0.910001 
0.887046 
0.892784 
0.915740 
0.892784 
0.927218 
0.892784 
0.927218 
0.892784 
0.915740 
0.892784 
SCALARS DENSITY float 
LOOKUP_TABLE default 
200.000000 
200.000000 
200.000000 
200.000000 
200.000000 
200.000000 
200.000000 
200.000000 
200.000000 
200.000000 
200.000000 
200.000000 
200.000000 
200.000000 
200.000000 
200.000000 
200.000000 
200.000000 
200.000000 
200.000000 
200.000000 
200.000000 
200.000000 
200.000000 
200.000000 
200.000000 
200.000000 
200.000000 
200.000000 
200.000000 
200.000000 
200.000000 
200.000000 
200.000000 
200.000000 
200.000000 
200.000000 
200.000000 
200.000000 
200.000000 
200.000000 
200.000000 
200.000000 
200.000000 
200.000000 
200.000000 
200.000000 
200.000000 
200.000000 
200.000000 
200.000000 
200.000000 
200.000000 
200.000000 
200.000000 
200.000000 
200.000000 
200.000000 
200.000000 
200.000000 
200.000000 
200.000000 
200.000000 
200.000000 
200.000000 
200.000000 
200.000000 
200.000000 
200.000000 
200.000000 
200.000000 
200.000000 
200.000000 
200.000000 
200.000000 
200.000000 
200.000000 
200.000000 
200.000000 
200.000000 
200.000000 
200.000000 
200.000000 
200.000000 
200.000000 
200.000000 
200.000000 
200.000000 
200.000000 
200.000000 
200.000000 
200.000000 
200.000000 
200.000000 
200.000000 
200.000000 
200.000000 
200.000000 
200.000000 
200.000000 
200.000000 
200.000000 
200.000000 
200.000000 
200.000000 
200.000000 
200.000000 
200.000000 
200.000000 
200.000000 
200.000000 
200.000000 
200.000000 
200.000000 
200.000000 
200.000000 
200.000000 
200.000000 
200.000000 
200.000000 
200.000000 
200.000000 
200.000000 
200.000000 
200.000000 
200.000000 
200.000000 
200.000000 
200.000000 
200.000000 
200.000000 
200.000000 
200.000000 
200.000000 
200.000000 
200.000000 
200.000000 
200.000000 
200.000000 
200.000000 
200.000000 
200.000000 
200.000000 
200.000000 
200.000000 
200.000000 
200.000000 
200.000000 
200.000000 
200.000000 
200.000000 
200.000000 
200.000000 
200.000000 
200.000000 
200.000000 
200.000000 
200.000000 
200.000000 
200.000000 
200.000000 
200.000000 
200.000000 
200.000000 
200.000000 
200.000000 
200.000000 
200.000000 
200.000000 
200.000000 
200.000000 
200.000000 
200.000000 
200.000000 
200.000000 
SCALARS ELEM_i float 
LOOKUP_TABLE default 
182 
209 
182 
183 
210 
210 
210 
183 
183 
237 
210 
211 
211 
211 
184 
184 
238 
238 
238 
211 
211 
211 
212 
184 
185 
182 
208 
209 
209 
235 
209 
236 
209 
209 
235 
235 
236 
236 
236 
237 
237 
262 
262 
263 
263 
263 
263 
264 
237 
237 
181 
208 
208 
208 
207 
207 
207 
208 
235 
206 
207 
234 
234 
234 
235 
235 
206 
233 
233 
233 
234 
234 
261 
261 
262 
181 
180 
181 
180 
153 
180 
180 
180 
207 
152 
152 
179 
179 
179 
206 
206 
152 
152 
151 
179 
178 
179 
205 
206 
206 
181 
154 
154 
154 
127 
154 
153 
153 
153 
127 
127 
126 
126 
126 
153 
152 
100 
99 
99 
126 
126 
125 
125 
125 
152 
182 
155 
155 
154 
155 
155 
128 
155 
127 
129 
129 
128 
128 
128 
127 
127 
129 
129 
102 
101 
101 
101 
101 
100 
100 
182 
183 
182 
155 
183 
183 
156 
156 
156 
184 
184 
157 
157 
157 
156 
129 
185 
184 
158 
157 
157 
157 
130 
130 
130 
VECTORS VELOCITY float 
0.000000 -0.827964 0.000000 
-0.000000 -0.827964 0.000000 
-0.000000 -0.827964 0.000000 
-0.000000 -0.827964 0.000000 
0.000000 -0.827964 0.000000 
-0.000000 -0.827964 0.000000 
0.000000 -0.827964 0.000000 
0.000000 -0.827964 0.000000 
0.000000 -0.827964 0.000000 
-0.000000 -0.827964 0.000000 
-0.000000 -0.827964 0.000000 
-0.000000 -0.827964 0.000000 
0.000000 -0.827964 0.000000 
-0.000000 -0.827964 0.000000 
0.000000 -0.827964 0.000000 
-0.000000 -0.827964 0.000000 
-0.000000 -0.827964 0.000000 
-0.000000 -0.827964 0.000000 
-0.000000 -0.827964 0.000000 
-0.000000 -0.827964 0.000000 
-0.000000 -0.827964 0.000000 
-0.000000 -0.827964 0.000000 
-0.000000 -0.827964 0.000000 
-0.000000 -0.827964 0.000000 
-0.000000 -0.827964 0.000000 
0.000000 -0.827964 0.000000 
-0.000000 -0.827964 0.000000 
-0.000000 -0.827964 0.000000 
-0.000000 -0.827964 0.000000 
-0.000000 -0.827964 0.000000 
-0.000000 -0.827964 0.000000 
-0.000000 -0.827964 0.000000 
-0.000000 -0.827964 0.000000 
0.000000 -0.827964 0.000000 
0.000000 -0.827964 0.000000 
-0.000000 -0.827964 0.000000 
-0.000000 -0.827964 0.000000 
-0.000000 -0.827964 0.000000 
-0.000000 -0.827964 0.000000 
0.000000 -0.827964 0.000000 
-0.000000 -0.827964 0.000000 
0.000000 -0.827964 0.000000 
0.000000 -0.827964 0.000000 
0.000000 -0.827964 0.000000 
0.000000 -0.827964 0.000000 
0.000000 -0.827964 0.000000 
-0.000000 -0.827964 0.000000 
-0.000000 -0.827964 0.000000 
-0.000000 -0.827964 0.000000 
0.000000 -0.827964 0.000000 
0.000000 -0.827964 0.000000 
-0.000000 -0.827964 0.000000 
0.000000 -0.827964 0.000000 
-0.000000 -0.827964 0.000000 
-0.000000 -0.827964 0.000000 
-0.000000 -0.827964 0.000000 
-0.000000 -0.827964 0.000000 
-0.000000 -0.827964 0.000000 
-0.000000 -0.827964 0.000000 
0.000000 -0.827964 0.000000 
0.000000 -0.827964 0.000000 
0.000000 -0.827964 0.000000 
-0.000000 -0.827964 0.000000 
0.000000 -0.827964 0.000000 
-0.000000 -0.827964 0.000000 
0.000000 -0.827964 0.000000 
0.000000 -0.827964 0.000000 
0.000000 -0.827964 0.000000 
-0.000000 -0.827964 0.000000 
-0.000000 -0.827964 0.000000 
-0.000000 -0.827964 0.000000 
0.000000 -0.827964 0.000000 
-0.000000 -0.827964 0.000000 
0.000000 -0.827964 0.000000 
0.000000 -0.827964 0.000000 
0.000000 -0.827964 0.000000 
0.000000 -0.827964 0.000000 
0.000000 -0.827964 0.000000 
0.000000 -0.827964 0.000000 
0.000000 -0.827964 0.000000 
0.000000 -0.827964 0.000000 
0.000000 -0.827964 0.000000 
0.000000 -0.827964 0.000000 
-0.000000 -0.827964 0.000000 
0.000000 -0.827964 0.000000 
0.000000 -0.827964 0.000000 
0.000000 -0.827964 0.000000 
0.000000 -0.827964 0.000000 
-0.000000 -0.827964 0.000000 
-0.000000 -0.827964 0.000000 
0.000000 -0.827964 0.000000 
-0.000000 -0.827964 0.000000 
-0.000000 -0.827964 0.000000 
-0.000000 -0.827964 0.000000 
0.000000 -0.827964 0.000000 
0.000000 -0.827964 0.000000 
-0.000000 -0.827964 0.000000 
0.000000 -0.827964 0.000000 
0.000000 -0.827964 0.000000 
0.000000 -0.827964 0.000000 
0.000000 -0.827964 0.000000 
0.000000 -0.827964 0.000000 
0.000000 -0.827964 0.000000 
0.000000 -0.827964 0.000000 
-0.000000 -0.827964 0.000000 
-0.000000 -0.827964 0.000000 
-0.000000 -0.827964 0.000000 
0.000000 -0.827964 0.000000 
0.000000 -0.827964 0.000000 
-0.000000 -0.827964 0.000000 
-0.000000 -0.827964 0.000000 
-0.000000 -0.827964 0.000000 
-0.000000 -0.827964 0.000000 
-0.000000 -0.827964 0.000000 
-0.000000 -0.827964 0.000000 
-0.000000 -0.827964 0.000000 
-0.000000 -0.827964 0.000000 
-0.000000 -0.827964 0.000000 
0.000000 -0.827964 0.000000 
-0.000000 -0.827964 0.000000 
-0.000000 -0.827964 0.000000 
-0.000000 -0.827964 0.000000 
0.000000 -0.827964 0.000000 
-0.000000 -0.827964 0.000000 
-0.000000 -0.827964 0.000000 
-0.000000 -0.827964 0.000000 
-0.000000 -0.827964 0.000000 
-0.000000 -0.827964 0.000000 
-0.000000 -0.827964 0.000000 
-0.000000 -0.827964 0.000000 
-0.000000 -0.827964 0.000000 
-0.000000 -0.827964 0.000000 
-0.000000 -0.827964 0.000000 
-0.000000 -0.827964 0.000000 
-0.000000 -0.827964 0.000000 
-0.000000 -0.827964 0.000000 
-0.000000 -0.827964 0.000000 
-0.000000 -0.827964 0.000000 
0.000000 -0.827964 0.000000 
0.000000 -0.827964 0.000000 
0.000000 -0.827964 0.000000 
0.000000 -0.827964 0.000000 
0.000000 -0.827964 0.000000 
0.000000 -0.827964 0.000000 
-0.000000 -0.827964 0.000000 
0.000000 -0.827964 0.000000 
0.000000 -0.827964 0.000000 
0.000000 -0.827964 0.000000 
0.000000 -0.827964 0.000000 
0.000000 -0.827964 0.000000 
0.000000 -0.827964 0.000000 
0.000000 -0.827964 0.000000 
0.000000 -0.827964 0.000000 
0.000000 -0.827964 0.000000 
0.000000 -0.827964 0.000000 
0.000000 -0.827964 0.000000 
0.000000 -0.827964 0.000000 
0.000000 -0.827964 0.000000 
-0.000000 -0.827964 0.000000 
0.000000 -0.827964 0.000000 
0.000000 -0.827964 0.000000 
0.000000 -0.827964 0.000000 
-0.000000 -0.827964 0.000000 
-0.000000 -0.827964 0.000000 
-0.000000 -0.827964 0.000000 
-0.000000 -0.827964 0.000000 
0.000000 -0.827964 0.000000 
-0.000000 -0.827964 0.000000 
-0.000000 -0.827964 0.000000 
0.000000 -0.827964 0.000000 
0.000000 -0.827964 0.000000 
0.000000 -0.827964 0.000000 
0.000000 -0.827964 0.000000 
0.000000 -0.827964 0.000000 
0.000000 -0.827964 0.000000 
TENSORS STRESS float 
-0.000000 0.000000 0.000000 
0.000000 -0.000000 0.000000 
0.000000 0.000000 0.000000 

-0.000000 0.000000 0.000000 
0.000000 -0.000000 0.000000 
0.000000 0.000000 0.000000 

-0.000000 0.000000 0.000000 
0.000000 -0.000000 0.000000 
0.000000 0.000000 0.000000 

-0.000000 -0.000000 0.000000 
0.000000 -0.000000 0.000000 
0.000000 0.000000 0.000000 

-0.000000 -0.000000 0.000000 
0.000000 -0.000000 0.000000 
0.000000 0.000000 0.000000 

0.000000 -0.000000 0.000000 
0.000000 0.000000 0.000000 
0.000000 0.000000 0.000000 

-0.000000 -0.000000 0.000000 
0.000000 -0.000000 0.000000 
0.000000 0.000000 0.000000 

-0.000000 -0.000000 0.000000 
0.000000 -0.000000 0.000000 
0.000000 0.000000 0.000000 

-0.000000 -0.000000 0.000000 
0.000000 -0.000000 0.000000 
0.000000 0.000000 0.000000 

0.000000 0.000000 0.000000 
0.000000 0.000000 0.000000 
0.000000 0.000000 0.000000 

-0.000000 -0.000000 0.000000 
0.000000 -0.000000 0.000000 
0.000000 0.000000 0.000000 

-0.000000 -0.000000 0.000000 
0.000000 -0.000000 0.000000 
0.000000 0.000000 0.000000 

0.000000 -0.000000 0.000000 
0.000000 0.000000 0.000000 
0.000000 0.000000 0.000000 

0.000000 0.000000 0.000000 
0.000000 0.000000 0.000000 
0.000000 0.000000 0.000000 

-0.000000 -0.000000 0.000000 
0.000000 -0.000000 0.000000 
0.000000 0.000000 0.000000 

0.000000 -0.000000 0.000000 
0.000000 0.000000 0.000000 
0.000000 0.000000 0.000000 

0.000000 0.000000 0.000000 
0.000000 -0.000000 0.000000 
0.000000 0.000000 0.000000 

0.000000 0.000000 0.000000 
0.000000 0.000000 0.000000 
0.000000 0.000000 0.000000 

0.000000 0.000000 0.000000 
0.000000 0.000000 0.000000 
0.000000 0.000000 0.000000 

-0.000000 0.000000 0.000000 
0.000000 -0.000000 0.000000 
0.000000 0.000000 0.000000 

-0.000000 0.000000 0.000000 
0.000000 -0.000000 0.000000 
0.000000 0.000000 0.000000 

-0.000000 0.000000 0.000000 
0.000000 -0.000000 0.000000 
0.000000 0.000000 0.000000 

0.000000 -0.000000 0.000000 
0.000000 0.000000 0.000000 
0.000000 0.000000 0.000000 

0.000000 -0.000000 0.000000 
0.000000 0.000000 0.000000 
0.000000 0.000000 0.000000 

-0.000000 -0.000000 0.000000 
0.000000 -0.000000 0.000000 
0.000000 0.000000 0.000000 

-0.000000 0.000000 0.000000 
0.000000 -0.000000 0.000000 
0.000000 0.000000 0.000000 

0.000000 -0.000000 0.000000 
0.000000 0.000000 0.000000 
0.000000 0.000000 0.000000 

-0.000000 -0.000000 0.000000 
0.000000 -0.000000 0.000000 
0.000000 0.000000 0.000000 

-0.000000 0.000000 0.000000 
0.000000 -0.000000 0.000000 
0.000000 0.000000 0.000000 

0.000000 -0.000000 0.000000 
0.000000 0.000000 0.000000 
0.000000 0.000000 0.000000 

-0.000000 0.000000 0.000000 
0.000000 -0.000000 0.000000 
0.000000 0.000000 0.000000 

0.000000 0.000000 0.000000 
0.000000 0.000000 0.000000 
0.000000 0.000000 0.000000 

-0.000000 -0.000000 0.000000 
0.000000 -0.000000 0.000000 
0.000000 0.000000 0.000000 

-0.000000 0.000000 0.000000 
0.000000 -0.000000 0.000000 
0.000000 0.000000 0.000000 

-0.000000 -0.000000 0.000000 
0.000000 -0.000000 0.000000 
0.000000 0.000000 0.000000 

0.000000 -0.000000 0.000000 
0.000000 0.000000 0.000000 
0.000000 0.000000 0.000000 

-0.000000 -0.000000 0.000000 
0.000000 -0.000000 0.000000 
0.000000 0.000000 0.000000 

-0.000000 -0.000000 0.000000 
0.000000 -0.000000 0.000000 
0.000000 0.000000 0.000000 

-0.000000 -0.000000 0.000000 
0.000000 -0.000000 0.000000 
0.000000 0.000000 0.000000 

0.000000 0.000000 0.000000 
0.000000 0.000000 0.000000 
0.000000 0.000000 0.000000 

0.000000 0.000000 0.000000 
0.000000 0.000000 0.000000 
0.000000 0.000000 0.000000 

-0.000000 0.000000 0.000000 
0.000000 0.000000 0.000000 
0.000000 0.000000 0.000000 

-0.000000 0.000000 0.000000 
0.000000 -0.000000 0.000000 
0.000000 0.000000 0.000000 

-0.000000 -0.000000 0.000000 
0.000000 -0.000000 0.000000 
0.000000 0.000000 0.000000 

-0.000000 -0.000000 0.000000 
0.000000 -0.000000 0.000000 
0.000000 0.000000 0.000000 

-0.000000 -0.000000 0.000000 
0.000000 -0.000000 0.000000 
0.000000 0.000000 0.000000 

0.000000 -0.000000 0.000000 
0.000000 0.000000 0.000000 
0.000000 0.000000 0.000000 

-0.000000 -0.000000 0.000000 
0.000000 -0.000000 0.000000 
0.000000 0.000000 0.000000 

-0.000000 0.000000 0.000000 
0.000000 -0.000000 0.000000 
0.000000 0.000000 0.000000 

-0.000000 0.000000 0.000000 
0.000000 -0.000000 0.000000 
0.000000 0.000000 0.000000 

-0.000000 -0.000000 0.000000 
0.000000 -0.000000 0.000000 
0.000000 0.000000 0.000000 

-0.000000 0.000000 0.000000 
0.000000 -0.000000 0.000000 
0.000000 0.000000 0.000000 

-0.000000 -0.000000 0.000000 
0.000000 -0.000000 0.000000 
0.000000 0.000000 0.000000 

-0.000000 -0.000000 0.000000 
0.000000 0.000000 0.000000 
0.000000 0.000000 0.000000 

-0.000000 0.000000 0.000000 
0.000000 -0.000000 0.000000 
0.000000 0.000000 0.000000 

-0.000000 0.000000 0.000000 
0.000000 -0.000000 0.000000 
0.000000 0.000000 0.000000 

0.000000 0.000000 0.000000 
0.000000 0.000000 0.000000 
0.000000 0.000000 0.000000 

0.000000 0.000000 0.000000 
0.000000 0.000000 0.000000 
0.000000 0.000000 0.000000 

0.000000 -0.000000 0.000000 
0.000000 0.000000 0.000000 
0.000000 0.000000 0.000000 

-0.000000 0.000000 0.000000 
0.000000 -0.000000 0.000000 
0.000000 0.000000 0.000000 

-0.000000 0.000000 0.000000 
0.000000 0.000000 0.000000 
0.000000 0.000000 0.000000 

0.000000 -0.000000 0.000000 
0.000000 0.000000 0.000000 
0.000000 0.000000 0.000000 

-0.000000 -0.000000 0.000000 
0.000000 -0.000000 0.000000 
0.000000 0.000000 0.000000 

0.000000 -0.000000 0.000000 
0.000000 0.000000 0.000000 
0.000000 0.000000 0.000000 

0.000000 -0.000000 0.000000 
0.000000 0.000000 0.000000 
0.000000 0.000000 0.000000 

-0.000000 -0.000000 0.000000 
0.000000 -0.000000 0.000000 
0.000000 0.000000 0.000000 

-0.000000 0.000000 0.000000 
0.000000 -0.000000 0.000000 
0.000000 0.000000 0.000000 

0.000000 -0.000000 0.000000 
0.000000 0.000000 0.000000 
0.000000 0.000000 0.000000 

0.000000 -0.000000 0.000000 
0.000000 0.000000 0.000000 
0.000000 0.000000 0.000000 

0.000000 -0.000000 0.000000 
0.000000 0.000000 0.000000 
0.000000 0.000000 0.000000 

0.000000 -0.000000 0.000000 
0.000000 0.000000 0.000000 
0.000000 0.000000 0.000000 

0.000000 -0.000000 0.000000 
0.000000 0.000000 0.000000 
0.000000 0.000000 0.000000 

0.000000 -0.000000 0.000000 
0.000000 -0.000000 0.000000 
0.000000 0.000000 0.000000 

0.000000 0.000000 0.000000 
0.000000 0.000000 0.000000 
0.000000 0.000000 0.000000 

0.000000 0.000000 0.000000 
0.000000 0.000000 0.000000 
0.000000 0.000000 0.000000 

0.000000 -0.000000 0.000000 
0.000000 0.000000 0.000000 
0.000000 0.000000 0.000000 

-0.000000 -0.000000 0.000000 
0.000000 -0.000000 0.000000 
0.000000 0.000000 0.000000 

-0.000000 -0.000000 0.000000 
0.000000 0.000000 0.000000 
0.000000 0.000000 0.000000 

-0.000000 -0.000000 0.000000 
0.000000 -0.000000 0.000000 
0.000000 0.000000 0.000000 

-0.000000 0.000000 0.000000 
0.000000 -0.000000 0.000000 
0.000000 0.000000 0.000000 

-0.000000 -0.000000 0.000000 
0.000000 -0.000000 0.000000 
0.000000 0.000000 0.000000 

-0.000000 -0.000000 0.000000 
0.000000 -0.000000 0.000000 
0.000000 0.000000 0.000000 

-0.000000 -0.000000 0.000000 
0.000000 -0.000000 0.000000 
0.000000 0.000000 0.000000 

-0.000000 0.000000 0.000000 
0.000000 -0.000000 0.000000 
0.000000 0.000000 0.000000 

0.000000 -0.000000 0.000000 
0.000000 0.000000 0.000000 
0.000000 0.000000 0.000000 

-0.000000 -0.000000 0.000000 
0.000000 -0.000000 0.000000 
0.000000 0.000000 0.000000 

-0.000000 -0.000000 0.000000 
0.000000 -0.000000 0.000000 
0.000000 0.000000 0.000000 

0.000000 -0.000000 0.000000 
0.000000 0.000000 0.000000 
0.000000 0.000000 0.000000 

0.000000 -0.000000 0.000000 
0.000000 0.000000 0.000000 
0.000000 0.000000 0.000000 

0.000000 0.000000 0.000000 
0.000000 0.000000 0.000000 
0.000000 0.000000 0.000000 

-0.000000 0.000000 0.000000 
0.000000 -0.000000 0.000000 
0.000000 0.000000 0.000000 

0.000000 -0.000000 0.000000 
0.000000 -0.000000 0.000000 
0.000000 0.000000 0.000000 

0.000000 -0.000000 0.000000 
0.000000 0.000000 0.000000 
0.000000 0.000000 0.000000 

0.000000 -0.000000 0.000000 
0.000000 0.000000 0.000000 
0.000000 0.000000 0.000000 

-0.000000 0.000000 0.000000 
0.000000 -0.000000 0.000000 
0.000000 0.000000 0.000000 

-0.000000 -0.000000 0.000000 
0.000000 -0.000000 0.000000 
0.000000 0.000000 0.000000 

0.000000 0.000000 0.000000 
0.000000 0.000000 0.000000 
0.000000 0.000000 0.000000 

-0.000000 -0.000000 0.000000 
0.000000 0.000000 0.000000 
0.000000 0.000000 0.000000 

-0.000000 0.000000 0.000000 
0.000000 -0.000000 0.000000 
0.000000 0.000000 0.000000 

-0.000000 -0.000000 0.000000 
0.000000 0.000000 0.000000 
0.000000 0.000000 0.000000 

0.000000 -0.000000 0.000000 
0.000000 0.000000 0.000000 
0.000000 0.000000 0.000000 

0.000000 -0.000000 0.000000 
0.000000 0.000000 0.000000 
0.000000 0.000000 0.000000 

0.000000 -0.000000 0.000000 
0.000000 0.000000 0.000000 
0.000000 0.000000 0.000000 

0.000000 -0.000000 0.000000 
0.000000 0.000000 0.000000 
0.000000 0.000000 0.000000 

-0.000000 -0.000000 0.000000 
0.000000 -0.000000 0.000000 
0.000000 0.000000 0.000000 

-0.000000 0.000000 0.000000 
0.000000 -0.000000 0.000000 
0.000000 0.000000 0.000000 

0.000000 0.000000 0.000000 
0.000000 0.000000 0.000000 
0.000000 0.000000 0.000000 

-0.000000 0.000000 0.000000 
0.000000 -0.000000 0.000000 
0.000000 0.000000 0.000000 

-0.000000 0.000000 0.000000 
0.000000 -0.000000 0.000000 
0.000000 0.000000 0.000000 

0.000000 -0.000000 0.000000 
0.000000 0.000000 0.000000 
0.000000 0.000000 0.000000 

-0.000000 -0.000000 0.000000 
0.000000 0.000000 0.000000 
0.000000 0.000000 0.000000 

-0.000000 -0.000000 0.000000 
0.000000 0.000000 0.000000 
0.000000 0.000000 0.000000 

0.000000 -0.000000 0.000000 
0.000000 0.000000 0.000000 
0.000000 0.000000 0.000000 

-0.000000 -0.000000 0.000000 
0.000000 -0.000000 0.000000 
0.000000 0.000000 0.000000 

0.000000 0.000000 0.000000 
0.000000 0.000000 0.000000 
0.000000 0.000000 0.000000 

-0.000000 -0.000000 0.000000 
0.000000 -0.000000 0.000000 
0.000000 0.000000 0.000000 

-0.000000 0.000000 0.000000 
0.000000 -0.000000 0.000000 
0.000000 0.000000 0.000000 

0.000000 0.000000 0.000000 
0.000000 0.000000 0.000000 
0.000000 0.000000 0.000000 

0.000000 0.000000 0.000000 
0.000000 0.000000 0.000000 
0.000000 0.000000 0.000000 

-0.000000 -0.000000 0.000000 
0.000000 -0.000000 0.000000 
0.000000 0.000000 0.000000 

-0.000000 -0.000000 0.000000 
0.000000 -0.000000 0.000000 
0.000000 0.000000 0.000000 

0.000000 -0.000000 0.000000 
0.000000 0.000000 0.000000 
0.000000 0.000000 0.000000 

0.000000 -0.000000 0.000000 
0.000000 0.000000 0.000000 
0.000000 0.000000 0.000000 

0.000000 -0.000000 0.000000 
0.000000 0.000000 0.000000 
0.000000 0.000000 0.000000 

-0.000000 -0.000000 0.000000 
0.000000 -0.000000 0.000000 
0.000000 0.000000 0.000000 

-0.000000 0.000000 0.000000 
0.000000 -0.000000 0.000000 
0.000000 0.000000 0.000000 

-0.000000 0.000000 0.000000 
0.000000 -0.000000 0.000000 
0.000000 0.000000 0.000000 

-0.000000 0.000000 0.000000 
0.000000 -0.000000 0.000000 
0.000000 0.000000 0.000000 

0.000000 -0.000000 0.000000 
0.000000 0.000000 0.000000 
0.000000 0.000000 0.000000 

-0.000000 0.000000 0.000000 
0.000000 -0.000000 0.000000 
0.000000 0.000000 0.000000 

-0.000000 0.000000 0.000000 
0.000000 -0.000000 0.000000 
0.000000 0.000000 0.000000 

-0.000000 -0.000000 0.000000 
0.000000 -0.000000 0.000000 
0.000000 0.000000 0.000000 

-0.000000 0.000000 0.000000 
0.000000 -0.000000 0.000000 
0.000000 0.000000 0.000000 

-0.000000 -0.000000 0.000000 
0.000000 -0.000000 0.000000 
0.000000 0.000000 0.000000 

-0.000000 0.000000 0.000000 
0.000000 -0.000000 0.000000 
0.000000 0.000000 0.000000 

-0.000000 -0.000000 0.000000 
0.000000 -0.000000 0.000000 
0.000000 0.000000 0.000000 

-0.000000 0.000000 0.000000 
0.000000 -0.000000 0.000000 
0.000000 0.000000 0.000000 

-0.000000 0.000000 0.000000 
0.000000 -0.000000 0.000000 
0.000000 0.000000 0.000000 

-0.000000 0.000000 0.000000 
0.000000 -0.000000 0.000000 
0.000000 0.000000 0.000000 

-0.000000 -0.000000 0.000000 
0.000000 -0.000000 0.000000 
0.000000 0.000000 0.000000 

0.000000 -0.000000 0.000000 
0.000000 0.000000 0.000000 
0.000000 0.000000 0.000000 

0.000000 0.000000 0.000000 
0.000000 -0.000000 0.000000 
0.000000 0.000000 0.000000 

0.000000 0.000000 0.000000 
0.000000 0.000000 0.000000 
0.000000 0.000000 0.000000 

-0.000000 -0.000000 0.000000 
0.000000 -0.000000 0.000000 
0.000000 0.000000 0.000000 

-0.000000 -0.000000 0.000000 
0.000000 -0.000000 0.000000 
0.000000 0.000000 0.000000 

0.000000 -0.000000 0.000000 
0.000000 0.000000 0.000000 
0.000000 0.000000 0.000000 

-0.000000 -0.000000 0.000000 
0.000000 -0.000000 0.000000 
0.000000 0.000000 0.000000 

-0.000000 -0.000000 0.000000 
0.000000 -0.000000 0.000000 
0.000000 0.000000 0.000000 

0.000000 -0.000000 0.000000 
0.000000 0.000000 0.000000 
0.000000 0.000000 0.000000 

-0.000000 -0.000000 0.000000 
0.000000 -0.000000 0.000000 
0.000000 0.000000 0.000000 

-0.000000 0.000000 0.000000 
0.000000 -0.000000 0.000000 
0.000000 0.000000 0.000000 

-0.000000 0.000000 0.000000 
0.000000 -0.000000 0.000000 
0.000000 0.000000 0.000000 

-0.000000 0.000000 0.000000 
0.000000 -0.000000 0.000000 
0.000000 0.000000 0.000000 

0.000000 0.000000 0.000000 
0.000000 0.000000 0.000000 
0.000000 0.000000 0.000000 

-0.000000 -0.000000 0.000000 
0.000000 -0.000000 0.000000 
0.000000 0.000000 0.000000 

-0.000000 -0.000000 0.000000 
0.000000 -0.000000 0.000000 
0.000000 0.000000 0.000000 

-0.000000 0.000000 0.000000 
0.000000 -0.000000 0.000000 
0.000000 0.000000 0.000000 

-0.000000 0.000000 0.000000 
0.000000 -0.000000 0.000000 
0.000000 0.000000 0.000000 

-0.000000 0.000000 0.000000 
0.000000 -0.000000 0.000000 
0.000000 0.000000 0.000000 

0.000000 -0.000000 0.000000 
0.000000 0.000000 0.000000 
0.000000 0.000000 0.000000 

0.000000 -0.000000 0.000000 
0.000000 0.000000 0.000000 
0.000000 0.000000 0.000000 

0.000000 0.000000 0.000000 
0.000000 0.000000 0.000000 
0.000000 0.000000 0.000000 

0.000000 0.000000 0.000000 
0.000000 0.000000 0.000000 
0.000000 0.000000 0.000000 

0.000000 0.000000 0.000000 
0.000000 0.000000 0.000000 
0.000000 0.000000 0.000000 

0.000000 0.000000 0.000000 
0.000000 0.000000 0.000000 
0.000000 0.000000 0.000000 

-0.000000 0.000000 0.000000 
0.000000 -0.000000 0.000000 
0.000000 0.000000 0.000000 

-0.000000 -0.000000 0.000000 
0.000000 -0.000000 0.000000 
0.000000 0.000000 0.000000 

-0.000000 -0.000000 0.000000 
0.000000 -0.000000 0.000000 
0.000000 0.000000 0.000000 

0.000000 0.000000 0.000000 
0.000000 0.000000 0.000000 
0.000000 0.000000 0.000000 

0.000000 0.000000 0.000000 
0.000000 0.000000 0.000000 
0.000000 0.000000 0.000000 

0.000000 0.000000 0.000000 
0.000000 0.000000 0.000000 
0.000000 0.000000 0.000000 

0.000000 -0.000000 0.000000 
0.000000 0.000000 0.000000 
0.000000 0.000000 0.000000 

-0.000000 -0.000000 0.000000 
0.000000 -0.000000 0.000000 
0.000000 0.000000 0.000000 

0.000000 -0.000000 0.000000 
0.000000 0.000000 0.000000 
0.000000 0.000000 0.000000 

-0.000000 -0.000000 0.000000 
0.000000 -0.000000 0.000000 
0.000000 0.000000 0.000000 

TENSORS STRAIN float 
-0.000000 0.000000 0.000000 
0.000000 0.000000 0.000000 
0.000000 0.000000 0.000000 

-0.000000 0.000000 0.000000 
0.000000 0.000000 0.000000 
0.000000 0.000000 0.000000 

-0.000000 0.000000 0.000000 
0.000000 -0.000000 0.000000 
0.000000 0.000000 0.000000 

-0.000000 -0.000000 0.000000 
0.000000 -0.000000 0.000000 
0.000000 0.000000 0.000000 

-0.000000 -0.000000 0.000000 
0.000000 -0.000000 0.000000 
0.000000 0.000000 0.000000 

-0.000000 -0.000000 0.000000 
0.000000 0.000000 0.000000 
0.000000 0.000000 0.000000 

0.000000 -0.000000 0.000000 
0.000000 -0.000000 0.000000 
0.000000 0.000000 0.000000 

-0.000000 -0.000000 0.000000 
0.000000 -0.000000 0.000000 
0.000000 0.000000 0.000000 

-0.000000 -0.000000 0.000000 
0.000000 -0.000000 0.000000 
0.000000 0.000000 0.000000 

0.000000 0.000000 0.000000 
0.000000 -0.000000 0.000000 
0.000000 0.000000 0.000000 

0.000000 -0.000000 0.000000 
0.000000 -0.000000 0.000000 
0.000000 0.000000 0.000000 

0.000000 -0.000000 0.000000 
0.000000 -0.000000 0.000000 
0.000000 0.000000 0.000000 

0.000000 -0.000000 0.000000 
0.000000 -0.000000 0.000000 
0.000000 0.000000 0.000000 

0.000000 0.000000 0.000000 
0.000000 0.000000 0.000000 
0.000000 0.000000 0.000000 

-0.000000 -0.000000 0.000000 
0.000000 0.000000 0.000000 
0.000000 0.000000 0.000000 

-0.000000 -0.000000 0.000000 
0.000000 0.000000 0.000000 
0.000000 0.000000 0.000000 

0.000000 0.000000 0.000000 
0.000000 -0.000000 0.000000 
0.000000 0.000000 0.000000 

0.000000 0.000000 0.000000 
0.000000 -0.000000 0.000000 
0.000000 0.000000 0.000000 

0.000000 0.000000 0.000000 
0.000000 -0.000000 0.000000 
0.000000 0.000000 0.000000 

0.000000 0.000000 0.000000 
0.000000 -0.000000 0.000000 
0.000000 0.000000 0.000000 

-0.000000 0.000000 0.000000 
0.000000 -0.000000 0.000000 
0.000000 0.000000 0.000000 

-0.000000 0.000000 0.000000 
0.000000 -0.000000 0.000000 
0.000000 0.000000 0.000000 

-0.000000 -0.000000 0.000000 
0.000000 0.000000 0.000000 
0.000000 0.000000 0.000000 

-0.000000 -0.000000 0.000000 
0.000000 0.000000 0.000000 
0.000000 0.000000 0.000000 

0.000000 -0.000000 0.000000 
0.000000 -0.000000 0.000000 
0.000000 0.000000 0.000000 

-0.000000 0.000000 0.000000 
0.000000 -0.000000 0.000000 
0.000000 0.000000 0.000000 

-0.000000 -0.000000 0.000000 
0.000000 0.000000 0.000000 
0.000000 0.000000 0.000000 

-0.000000 -0.000000 0.000000 
0.000000 0.000000 0.000000 
0.000000 0.000000 0.000000 

-0.000000 0.000000 0.000000 
0.000000 0.000000 0.000000 
0.000000 0.000000 0.000000 

-0.000000 -0.000000 0.000000 
0.000000 0.000000 0.000000 
0.000000 0.000000 0.000000 

-0.000000 0.000000 0.000000 
0.000000 0.000000 0.000000 
0.000000 0.000000 0.000000 

0.000000 0.000000 0.000000 
0.000000 0.000000 0.000000 
0.000000 0.000000 0.000000 

-0.000000 -0.000000 0.000000 
0.000000 -0.000000 0.000000 
0.000000 0.000000 0.000000 

-0.000000 0.000000 0.000000 
0.000000 -0.000000 0.000000 
0.000000 0.000000 0.000000 

-0.000000 -0.000000 0.000000 
0.000000 -0.000000 0.000000 
0.000000 0.000000 0.000000 

-0.000000 -0.000000 0.000000 
0.000000 0.000000 0.000000 
0.000000 0.000000 0.000000 

-0.000000 -0.000000 0.000000 
0.000000 -0.000000 0.000000 
0.000000 0.000000 0.000000 

0.000000 -0.000000 0.000000 
0.000000 -0.000000 0.000000 
0.000000 0.000000 0.000000 

0.000000 -0.000000 0.000000 
0.000000 -0.000000 0.000000 
0.000000 0.000000 0.000000 

0.000000 0.000000 0.000000 
0.000000 -0.000000 0.000000 
0.000000 0.000000 0.000000 

0.000000 0.000000 0.000000 
0.000000 -0.000000 0.000000 
0.000000 0.000000 0.000000 

-0.000000 0.000000 0.000000 
0.000000 0.000000 0.000000 
0.000000 0.000000 0.000000 

-0.000000 0.000000 0.000000 
0.000000 0.000000 0.000000 
0.000000 0.000000 0.000000 

-0.000000 -0.000000 0.000000 
0.000000 0.000000 0.000000 
0.000000 0.000000 0.000000 

-0.000000 -0.000000 0.000000 
0.000000 0.000000 0.000000 
0.000000 0.000000 0.000000 

-0.000000 -0.000000 0.000000 
0.000000 0.000000 0.000000 
0.000000 0.000000 0.000000 

-0.000000 -0.000000 0.000000 
0.000000 0.000000 0.000000 
0.000000 0.000000 0.000000 

-0.000000 -0.000000 0.000000 
0.000000 0.000000 0.000000 
0.000000 0.000000 0.000000 

0.000000 0.000000 0.000000 
0.000000 -0.000000 0.000000 
0.000000 0.000000 0.000000 

0.000000 0.000000 0.000000 
0.000000 -0.000000 0.000000 
0.000000 0.000000 0.000000 

-0.000000 -0.000000 0.000000 
0.000000 0.000000 0.000000 
0.000000 0.000000 0.000000 

-0.000000 0.000000 0.000000 
0.000000 -0.000000 0.000000 
0.000000 0.000000 0.000000 

-0.000000 -0.000000 0.000000 
0.000000 -0.000000 0.000000 
0.000000 0.000000 0.000000 

-0.000000 -0.000000 0.000000 
0.000000 0.000000 0.000000 
0.000000 0.000000 0.000000 

-0.000000 0.000000 0.000000 
0.000000 0.000000 0.000000 
0.000000 0.000000 0.000000 

-0.000000 0.000000 0.000000 
0.000000 0.000000 0.000000 
0.000000 0.000000 0.000000 

-0.000000 0.000000 0.000000 
0.000000 0.000000 0.000000 
0.000000 0.000000 0.000000 

-0.000000 0.000000 0.000000 
0.000000 0.000000 0.000000 
0.000000 0.000000 0.000000 

-0.000000 -0.000000 0.000000 
0.000000 0.000000 0.000000 
0.000000 0.000000 0.000000 

-0.000000 0.000000 0.000000 
0.000000 -0.000000 0.000000 
0.000000 0.000000 0.000000 

-0.000000 0.000000 0.000000 
0.000000 0.000000 0.000000 
0.000000 0.000000 0.000000 

-0.000000 -0.000000 0.000000 
0.000000 0.000000 0.000000 
0.000000 0.000000 0.000000 

-0.000000 -0.000000 0.000000 
0.000000 0.000000 0.000000 
0.000000 0.000000 0.000000 

-0.000000 -0.000000 0.000000 
0.000000 0.000000 0.000000 
0.000000 0.000000 0.000000 

-0.000000 -0.000000 0.000000 
0.000000 0.000000 0.000000 
0.000000 0.000000 0.000000 

-0.000000 -0.000000 0.000000 
0.000000 -0.000000 0.000000 
0.000000 0.000000 0.000000 

-0.000000 0.000000 0.000000 
0.000000 0.000000 0.000000 
0.000000 0.000000 0.000000 

0.000000 -0.000000 0.000000 
0.000000 -0.000000 0.000000 
0.000000 0.000000 0.000000 

0.000000 -0.000000 0.000000 
0.000000 0.000000 0.000000 
0.000000 0.000000 0.000000 

-0.000000 -0.000000 0.000000 
0.000000 0.000000 0.000000 
0.000000 0.000000 0.000000 

-0.000000 -0.000000 0.000000 
0.000000 0.000000 0.000000 
0.000000 0.000000 0.000000 

-0.000000 -0.000000 0.000000 
0.000000 0.000000 0.000000 
0.000000 0.000000 0.000000 

0.000000 -0.000000 0.000000 
0.000000 -0.000000 0.000000 
0.000000 0.000000 0.000000 

0.000000 0.000000 0.000000 
0.000000 0.000000 0.000000 
0.000000 0.000000 0.000000 

-0.000000 0.000000 0.000000 
0.000000 0.000000 0.000000 
0.000000 0.000000 0.000000 

-0.000000 -0.000000 0.000000 
0.000000 0.000000 0.000000 
0.000000 0.000000 0.000000 

-0.000000 -0.000000 0.000000 
0.000000 0.000000 0.000000 
0.000000 0.000000 0.000000 

-0.000000 -0.000000 0.000000 
0.000000 0.000000 0.000000 
0.000000 0.000000 0.000000 

-0.000000 -0.000000 0.000000 
0.000000 -0.000000 0.000000 
0.000000 0.000000 0.000000 

-0.000000 0.000000 0.000000 
0.000000 -0.000000 0.000000 
0.000000 0.000000 0.000000 

-0.000000 -0.000000 0.000000 
0.000000 -0.000000 0.000000 
0.000000 0.000000 0.000000 

-0.000000 -0.000000 0.000000 
0.000000 -0.000000 0.000000 
0.000000 0.000000 0.000000 

-0.000000 -0.000000 0.000000 
0.000000 0.000000 0.000000 
0.000000 0.000000 0.000000 

-0.000000 0.000000 0.000000 
0.000000 -0.000000 0.000000 
0.000000 0.000000 0.000000 

-0.000000 -0.000000 0.000000 
0.000000 0.000000 0.000000 
0.000000 0.000000 0.000000 

-0.000000 -0.000000 0.000000 
0.000000 0.000000 0.000000 
0.000000 0.000000 0.000000 

-0.000000 -0.000000 0.000000 
0.000000 0.000000 0.000000 
0.000000 0.000000 0.000000 

-0.000000 -0.000000 0.000000 
0.000000 0.000000 0.000000 
0.000000 0.000000 0.000000 

-0.000000 -0.000000 0.000000 
0.000000 0.000000 0.000000 
0.000000 0.000000 0.000000 

-0.000000 0.000000 0.000000 
0.000000 0.000000 0.000000 
0.000000 0.000000 0.000000 

-0.000000 0.000000 0.000000 
0.000000 -0.000000 0.000000 
0.000000 0.000000 0.000000 

0.000000 -0.000000 0.000000 
0.000000 -0.000000 0.000000 
0.000000 0.000000 0.000000 

0.000000 -0.000000 0.000000 
0.000000 0.000000 0.000000 
0.000000 0.000000 0.000000 

0.000000 -0.000000 0.000000 
0.000000 -0.000000 0.000000 
0.000000 0.000000 0.000000 

-0.000000 0.000000 0.000000 
0.000000 -0.000000 0.000000 
0.000000 0.000000 0.000000 

-0.000000 -0.000000 0.000000 
0.000000 0.000000 0.000000 
0.000000 0.000000 0.000000 

-0.000000 0.000000 0.000000 
0.000000 0.000000 0.000000 
0.000000 0.000000 0.000000 

-0.000000 -0.000000 0.000000 
0.000000 0.000000 0.000000 
0.000000 0.000000 0.000000 

-0.000000 0.000000 0.000000 
0.000000 0.000000 0.000000 
0.000000 0.000000 0.000000 

-0.000000 -0.000000 0.000000 
0.000000 0.000000 0.000000 
0.000000 0.000000 0.000000 

-0.000000 -0.000000 0.000000 
0.000000 0.000000 0.000000 
0.000000 0.000000 0.000000 

-0.000000 -0.000000 0.000000 
0.000000 0.000000 0.000000 
0.000000 0.000000 0.000000 

-0.000000 -0.000000 0.000000 
0.000000 0.000000 0.000000 
0.000000 0.000000 0.000000 

-0.000000 -0.000000 0.000000 
0.000000 0.000000 0.000000 
0.000000 0.000000 0.000000 

-0.000000 -0.000000 0.000000 
0.000000 -0.000000 0.000000 
0.000000 0.000000 0.000000 

-0.000000 0.000000 0.000000 
0.000000 0.000000 0.000000 
0.000000 0.000000 0.000000 

-0.000000 0.000000 0.000000 
0.000000 0.000000 0.000000 
0.000000 0.000000 0.000000 

-0.000000 0.000000 0.000000 
0.000000 -0.000000 0.000000 
0.000000 0.000000 0.000000 

-0.000000 0.000000 0.000000 
0.000000 0.000000 0.000000 
0.000000 0.000000 0.000000 

-0.000000 -0.000000 0.000000 
0.000000 0.000000 0.000000 
0.000000 0.000000 0.000000 

-0.000000 -0.000000 0.000000 
0.000000 0.000000 0.000000 
0.000000 0.000000 0.000000 

-0.000000 -0.000000 0.000000 
0.000000 0.000000 0.000000 
0.000000 0.000000 0.000000 

-0.000000 -0.000000 0.000000 
0.000000 0.000000 0.000000 
0.000000 0.000000 0.000000 

-0.000000 -0.000000 0.000000 
0.000000 -0.000000 0.000000 
0.000000 0.000000 0.000000 

-0.000000 0.000000 0.000000 
0.000000 0.000000 0.000000 
0.000000 0.000000 0.000000 

-0.000000 -0.000000 0.000000 
0.000000 -0.000000 0.000000 
0.000000 0.000000 0.000000 

0.000000 0.000000 0.000000 
0.000000 -0.000000 0.000000 
0.000000 0.000000 0.000000 

0.000000 0.000000 0.000000 
0.000000 0.000000 0.000000 
0.000000 0.000000 0.000000 

0.000000 0.000000 0.000000 
0.000000 -0.000000 0.000000 
0.000000 0.000000 0.000000 

-0.000000 -0.000000 0.000000 
0.000000 0.000000 0.000000 
0.000000 0.000000 0.000000 

-0.000000 -0.000000 0.000000 
0.000000 0.000000 0.000000 
0.000000 0.000000 0.000000 

-0.000000 -0.000000 0.000000 
0.000000 0.000000 0.000000 
0.000000 0.000000 0.000000 

0.000000 -0.000000 0.000000 
0.000000 -0.000000 0.000000 
0.000000 0.000000 0.000000 

0.000000 -0.000000 0.000000 
0.000000 -0.000000 0.000000 
0.000000 0.000000 0.000000 

0.000000 -0.000000 0.000000 
0.000000 -0.000000 0.000000 
0.000000 0.000000 0.000000 

-0.000000 0.000000 0.000000 
0.000000 -0.000000 0.000000 
0.000000 0.000000 0.000000 

0.000000 0.000000 0.000000 
0.000000 -0.000000 0.000000 
0.000000 0.000000 0.000000 

-0.000000 0.000000 0.000000 
0.000000 -0.000000 0.000000 
0.000000 0.000000 0.000000 

-0.000000 -0.000000 0.000000 
0.000000 0.000000 0.000000 
0.000000 0.000000 0.000000 

0.000000 0.000000 0.000000 
0.000000 -0.000000 0.000000 
0.000000 0.000000 0.000000 

0.000000 0.000000 0.000000 
0.000000 -0.000000 0.000000 
0.000000 0.000000 0.000000 

0.000000 -0.000000 0.000000 
0.000000 -0.000000 0.000000 
0.000000 0.000000 0.000000 

-0.000000 0.000000 0.000000 
0.000000 -0.000000 0.000000 
0.000000 0.000000 0.000000 

-0.000000 -0.000000 0.000000 
0.000000 -0.000000 0.000000 
0.000000 0.000000 0.000000 

0.000000 0.000000 0.000000 
0.000000 -0.000000 0.000000 
0.000000 0.000000 0.000000 

0.000000 -0.000000 0.000000 
0.000000 -0.000000 0.000000 
0.000000 0.000000 0.000000 

0.000000 0.000000 0.000000 
0.000000 -0.000000 0.000000 
0.000000 0.000000 0.000000 

0.000000 0.000000 0.000000 
0.000000 -0.000000 0.000000 
0.000000 0.000000 0.000000 

0.000000 0.000000 0.000000 
0.000000 -0.000000 0.000000 
0.000000 0.000000 0.000000 

-0.000000 -0.000000 0.000000 
0.000000 -0.000000 0.000000 
0.000000 0.000000 0.000000 

-0.000000 -0.000000 0.000000 
0.000000 0.000000 0.000000 
0.000000 0.000000 0.000000 

0.000000 0.000000 0.000000 
0.000000 -0.000000 0.000000 
0.000000 0.000000 0.000000 

0.000000 0.000000 0.000000 
0.000000 -0.000000 0.000000 
0.000000 0.000000 0.000000 

-0.000000 -0.000000 0.000000 
0.000000 0.000000 0.000000 
0.000000 0.000000 0.000000 

0.000000 -0.000000 0.000000 
0.000000 -0.000000 0.000000 
0.000000 0.000000 0.000000 

0.000000 -0.000000 0.000000 
0.000000 -0.000000 0.000000 
0.000000 0.000000 0.000000 

0.000000 -0.000000 0.000000 
0.000000 -0.000000 0.000000 
0.000000 0.000000 0.000000 

0.000000 -0.000000 0.000000 
0.000000 -0.000000 0.000000 
0.000000 0.000000 0.000000 

0.000000 -0.000000 0.000000 
0.000000 -0.000000 0.000000 
0.000000 0.000000 0.000000 

0.000000 -0.000000 0.000000 
0.000000 -0.000000 0.000000 
0.000000 0.000000 0.000000 

-0.000000 0.000000 0.000000 
0.000000 -0.000000 0.000000 
0.000000 0.000000 0.000000 

-0.000000 0.000000 0.000000 
0.000000 -0.000000 0.000000 
0.000000 0.000000 0.000000 

-0.000000 0.000000 0.000000 
0.000000 -0.000000 0.000000 
0.000000 0.000000 0.000000 

0.000000 0.000000 0.000000 
0.000000 -0.000000 0.000000 
0.000000 0.000000 0.000000 

-0.000000 -0.000000 0.000000 
0.000000 -0.000000 0.000000 
0.000000 0.000000 0.000000 

-0.000000 -0.000000 0.000000 
0.000000 -0.000000 0.000000 
0.000000 0.000000 0.000000 

0.000000 0.000000 0.000000 
0.000000 -0.000000 0.000000 
0.000000 0.000000 0.000000 

0.000000 0.000000 0.000000 
0.000000 -0.000000 0.000000 
0.000000 0.000000 0.000000 

0.000000 0.000000 0.000000 
0.000000 -0.000000 0.000000 
0.000000 0.000000 0.000000 

-0.000000 -0.000000 0.000000 
0.000000 0.000000 0.000000 
0.000000 0.000000 0.000000 

-0.000000 -0.000000 0.000000 
0.000000 0.000000 0.000000 
0.000000 0.000000 0.000000 

0.000000 0.000000 0.000000 
0.000000 0.000000 0.000000 
0.000000 0.000000 0.000000 

0.000000 0.000000 0.000000 
0.000000 0.000000 0.000000 
0.000000 0.000000 0.000000 

0.000000 0.000000 0.000000 
0.000000 0.000000 0.000000 
0.000000 0.000000 0.000000 

0.000000 0.000000 0.000000 
0.000000 -0.000000 0.000000 
0.000000 0.000000 0.000000 

0.000000 0.000000 0.000000 
0.000000 -0.000000 0.000000 
0.000000 0.000000 0.000000 

0.000000 -0.000000 0.000000 
0.000000 -0.000000 0.000000 
0.000000 0.000000 0.000000 

-0.000000 -0.000000 0.000000 
0.000000 -0.000000 0.000000 
0.000000 0.000000 0.000000 

0.000000 0.000000 0.000000 
0.000000 0.000000 0.000000 
0.000000 0.000000 0.000000 

0.000000 0.000000 0.000000 
0.000000 0.000000 0.000000 
0.000000 0.000000 0.000000 

0.000000 0.000000 0.000000 
0.000000 0.000000 0.000000 
0.000000 0.000000 0.000000 

0.000000 -0.000000 0.000000 
0.000000 0.000000 0.000000 
0.000000 0.000000 0.000000 

0.000000 -0.000000 0.000000 
0.000000 -0.000000 0.000000 
0.000000 0.000000 0.000000 

0.000000 -0.000000 0.000000 
0.000000 -0.000000 0.000000 
0.000000 0.000000 0.000000 

0.000000 -0.000000 0.000000 
0.000000 -0.000000 0.000000 
0.000000 0.000000 0.000000 

