# vtk DataFile Version 3.0 
vtk output 
ASCII 
DATASET UNSTRUCTURED_GRID 
POINTS 175 float 
-0.026061 -0.633811 0.000000 
-0.106992 -0.565756 0.000000 
-0.054870 -0.573988 0.000000 
-0.028809 -0.528105 0.000000 
-0.186430 -0.501680 0.000000 
-0.137056 -0.504206 0.000000 
-0.114311 -0.450559 0.000000 
-0.058186 -0.466225 0.000000 
-0.029377 -0.426047 0.000000 
-0.265318 -0.438524 0.000000 
-0.217198 -0.439324 0.000000 
-0.196633 -0.382027 0.000000 
-0.143120 -0.390736 0.000000 
-0.116563 -0.343468 0.000000 
-0.058945 -0.363113 0.000000 
-0.029568 -0.324993 0.000000 
-0.344206 -0.375369 0.000000 
-0.296791 -0.375361 0.000000 
-0.278030 -0.315419 0.000000 
-0.225992 -0.321285 0.000000 
-0.201664 -0.269168 0.000000 
-0.145749 -0.282642 0.000000 
-0.117890 -0.238299 0.000000 
-0.059328 -0.261005 0.000000 
-0.029759 -0.223939 0.000000 
-0.058559 -0.674562 0.000000 
-0.162226 -0.695405 0.000000 
-0.123292 -0.659787 0.000000 
-0.142917 -0.610803 0.000000 
-0.261851 -0.717561 0.000000 
-0.229092 -0.680534 0.000000 
-0.256854 -0.629302 0.000000 
-0.209613 -0.595190 0.000000 
-0.223062 -0.547616 0.000000 
-0.360414 -0.739861 0.000000 
-0.329787 -0.702738 0.000000 
-0.361761 -0.650936 0.000000 
-0.321587 -0.614527 0.000000 
-0.341985 -0.564293 0.000000 
-0.290702 -0.531494 0.000000 
-0.302189 -0.484759 0.000000 
-0.458977 -0.762161 0.000000 
-0.429420 -0.725086 0.000000 
-0.464588 -0.673045 0.000000 
-0.427556 -0.636017 0.000000 
-0.453135 -0.584502 0.000000 
-0.407738 -0.549187 0.000000 
-0.425037 -0.499759 0.000000 
-0.370772 -0.468130 0.000000 
-0.381315 -0.421902 0.000000 
-0.046960 -0.725377 0.000000 
-0.095301 -0.819423 0.000000 
-0.098873 -0.766776 0.000000 
-0.149405 -0.751578 0.000000 
-0.140093 -0.911127 0.000000 
-0.148617 -0.862429 0.000000 
-0.205981 -0.852191 0.000000 
-0.203197 -0.793988 0.000000 
-0.248777 -0.774842 0.000000 
-0.184111 -1.002091 0.000000 
-0.194039 -0.955000 0.000000 
-0.254475 -0.947700 0.000000 
-0.257893 -0.893590 0.000000 
-0.309886 -0.878218 0.000000 
-0.303554 -0.817673 0.000000 
-0.347255 -0.797515 0.000000 
-0.228129 -1.093054 0.000000 
-0.238687 -1.046830 0.000000 
-0.301302 -1.041878 0.000000 
-0.307162 -0.989839 0.000000 
-0.363386 -0.977718 0.000000 
-0.362692 -0.920207 0.000000 
-0.412122 -0.902913 0.000000 
-0.403017 -0.840767 0.000000 
-0.445733 -0.820188 0.000000 
-0.000000 -0.747992 0.000000 
0.043388 -0.844423 0.000000 
-0.000000 -0.814390 0.000000 
-0.043388 -0.844423 0.000000 
0.087158 -0.936619 0.000000 
0.043769 -0.912921 0.000000 
-0.000000 -0.951386 0.000000 
-0.043769 -0.912921 0.000000 
-0.087158 -0.936619 0.000000 
0.130831 -1.027749 0.000000 
0.087824 -1.006150 0.000000 
0.044436 -1.048850 0.000000 
-0.000000 -1.017785 0.000000 
-0.044436 -1.048850 0.000000 
-0.087824 -1.006150 0.000000 
-0.130831 -1.027749 0.000000 
0.174505 -1.118879 0.000000 
0.131782 -1.098313 0.000000 
0.088871 -1.144179 0.000000 
0.044532 -1.116315 0.000000 
-0.000000 -1.152715 0.000000 
-0.044532 -1.116315 0.000000 
-0.088871 -1.144179 0.000000 
-0.131782 -1.098313 0.000000 
-0.174505 -1.118879 0.000000 
0.046960 -0.725377 0.000000 
0.149405 -0.751578 0.000000 
0.098873 -0.766776 0.000000 
0.095301 -0.819423 0.000000 
0.248777 -0.774842 0.000000 
0.203197 -0.793988 0.000000 
0.205981 -0.852191 0.000000 
0.148617 -0.862429 0.000000 
0.140093 -0.911127 0.000000 
0.347255 -0.797515 0.000000 
0.303554 -0.817673 0.000000 
0.309886 -0.878218 0.000000 
0.257893 -0.893590 0.000000 
0.254475 -0.947700 0.000000 
0.194039 -0.955000 0.000000 
0.184111 -1.002091 0.000000 
0.445733 -0.820188 0.000000 
0.403017 -0.840767 0.000000 
0.412122 -0.902913 0.000000 
0.362692 -0.920207 0.000000 
0.363386 -0.977718 0.000000 
0.307162 -0.989839 0.000000 
0.301302 -1.041878 0.000000 
0.238687 -1.046830 0.000000 
0.228129 -1.093054 0.000000 
0.058559 -0.674562 0.000000 
0.142917 -0.610803 0.000000 
0.123292 -0.659787 0.000000 
0.162226 -0.695405 0.000000 
0.223062 -0.547616 0.000000 
0.209613 -0.595190 0.000000 
0.256854 -0.629302 0.000000 
0.229092 -0.680534 0.000000 
0.261851 -0.717561 0.000000 
0.302189 -0.484759 0.000000 
0.290702 -0.531494 0.000000 
0.341985 -0.564293 0.000000 
0.321587 -0.614527 0.000000 
0.361761 -0.650936 0.000000 
0.329787 -0.702738 0.000000 
0.360414 -0.739861 0.000000 
0.381315 -0.421902 0.000000 
0.370772 -0.468130 0.000000 
0.425037 -0.499759 0.000000 
0.407738 -0.549187 0.000000 
0.453135 -0.584502 0.000000 
0.427556 -0.636017 0.000000 
0.464588 -0.673045 0.000000 
0.429420 -0.725086 0.000000 
0.458977 -0.762161 0.000000 
0.026061 -0.633811 0.000000 
0.028809 -0.528105 0.000000 
0.054870 -0.573988 0.000000 
0.106992 -0.565756 0.000000 
0.029377 -0.426047 0.000000 
0.058186 -0.466225 0.000000 
0.114311 -0.450559 0.000000 
0.137056 -0.504206 0.000000 
0.186430 -0.501680 0.000000 
0.029568 -0.324993 0.000000 
0.058945 -0.363113 0.000000 
0.116563 -0.343468 0.000000 
0.143120 -0.390736 0.000000 
0.196633 -0.382027 0.000000 
0.217198 -0.439324 0.000000 
0.265318 -0.438524 0.000000 
0.029759 -0.223939 0.000000 
0.059328 -0.261005 0.000000 
0.117890 -0.238299 0.000000 
0.145749 -0.282642 0.000000 
0.201664 -0.269168 0.000000 
0.225992 -0.321285 0.000000 
0.278030 -0.315419 0.000000 
0.296791 -0.375361 0.000000 
0.344206 -0.375369 0.000000 
CELLS 175 350 
1 0 
1 1 
1 2 
1 3 
1 4 
1 5 
1 6 
1 7 
1 8 
1 9 
1 10 
1 11 
1 12 
1 13 
1 14 
1 15 
1 16 
1 17 
1 18 
1 19 
1 20 
1 21 
1 22 
1 23 
1 24 
1 25 
1 26 
1 27 
1 28 
1 29 
1 30 
1 31 
1 32 
1 33 
1 34 
1 35 
1 36 
1 37 
1 38 
1 39 
1 40 
1 41 
1 42 
1 43 
1 44 
1 45 
1 46 
1 47 
1 48 
1 49 
1 50 
1 51 
1 52 
1 53 
1 54 
1 55 
1 56 
1 57 
1 58 
1 59 
1 60 
1 61 
1 62 
1 63 
1 64 
1 65 
1 66 
1 67 
1 68 
1 69 
1 70 
1 71 
1 72 
1 73 
1 74 
1 75 
1 76 
1 77 
1 78 
1 79 
1 80 
1 81 
1 82 
1 83 
1 84 
1 85 
1 86 
1 87 
1 88 
1 89 
1 90 
1 91 
1 92 
1 93 
1 94 
1 95 
1 96 
1 97 
1 98 
1 99 
1 100 
1 101 
1 102 
1 103 
1 104 
1 105 
1 106 
1 107 
1 108 
1 109 
1 110 
1 111 
1 112 
1 113 
1 114 
1 115 
1 116 
1 117 
1 118 
1 119 
1 120 
1 121 
1 122 
1 123 
1 124 
1 125 
1 126 
1 127 
1 128 
1 129 
1 130 
1 131 
1 132 
1 133 
1 134 
1 135 
1 136 
1 137 
1 138 
1 139 
1 140 
1 141 
1 142 
1 143 
1 144 
1 145 
1 146 
1 147 
1 148 
1 149 
1 150 
1 151 
1 152 
1 153 
1 154 
1 155 
1 156 
1 157 
1 158 
1 159 
1 160 
1 161 
1 162 
1 163 
1 164 
1 165 
1 166 
1 167 
1 168 
1 169 
1 170 
1 171 
1 172 
1 173 
1 174 
CELL_TYPES 175 
1 
1 
1 
1 
1 
1 
1 
1 
1 
1 
1 
1 
1 
1 
1 
1 
1 
1 
1 
1 
1 
1 
1 
1 
1 
1 
1 
1 
1 
1 
1 
1 
1 
1 
1 
1 
1 
1 
1 
1 
1 
1 
1 
1 
1 
1 
1 
1 
1 
1 
1 
1 
1 
1 
1 
1 
1 
1 
1 
1 
1 
1 
1 
1 
1 
1 
1 
1 
1 
1 
1 
1 
1 
1 
1 
1 
1 
1 
1 
1 
1 
1 
1 
1 
1 
1 
1 
1 
1 
1 
1 
1 
1 
1 
1 
1 
1 
1 
1 
1 
1 
1 
1 
1 
1 
1 
1 
1 
1 
1 
1 
1 
1 
1 
1 
1 
1 
1 
1 
1 
1 
1 
1 
1 
1 
1 
1 
1 
1 
1 
1 
1 
1 
1 
1 
1 
1 
1 
1 
1 
1 
1 
1 
1 
1 
1 
1 
1 
1 
1 
1 
1 
1 
1 
1 
1 
1 
1 
1 
1 
1 
1 
1 
1 
1 
1 
1 
1 
1 
1 
1 
1 
1 
1 
1 
POINT_DATA 175 
VECTORS X_GC float 
-0.026061 -0.633811 0.000000 
-0.106992 -0.565756 0.000000 
-0.054870 -0.573988 0.000000 
-0.028809 -0.528105 0.000000 
-0.186430 -0.501680 0.000000 
-0.137056 -0.504206 0.000000 
-0.114311 -0.450559 0.000000 
-0.058186 -0.466225 0.000000 
-0.029377 -0.426047 0.000000 
-0.265318 -0.438524 0.000000 
-0.217198 -0.439324 0.000000 
-0.196633 -0.382027 0.000000 
-0.143120 -0.390736 0.000000 
-0.116563 -0.343468 0.000000 
-0.058945 -0.363113 0.000000 
-0.029568 -0.324993 0.000000 
-0.344206 -0.375369 0.000000 
-0.296791 -0.375361 0.000000 
-0.278030 -0.315419 0.000000 
-0.225992 -0.321285 0.000000 
-0.201664 -0.269168 0.000000 
-0.145749 -0.282642 0.000000 
-0.117890 -0.238299 0.000000 
-0.059328 -0.261005 0.000000 
-0.029759 -0.223939 0.000000 
-0.058559 -0.674562 0.000000 
-0.162226 -0.695405 0.000000 
-0.123292 -0.659787 0.000000 
-0.142917 -0.610803 0.000000 
-0.261851 -0.717561 0.000000 
-0.229092 -0.680534 0.000000 
-0.256854 -0.629302 0.000000 
-0.209613 -0.595190 0.000000 
-0.223062 -0.547616 0.000000 
-0.360414 -0.739861 0.000000 
-0.329787 -0.702738 0.000000 
-0.361761 -0.650936 0.000000 
-0.321587 -0.614527 0.000000 
-0.341985 -0.564293 0.000000 
-0.290702 -0.531494 0.000000 
-0.302189 -0.484759 0.000000 
-0.458977 -0.762161 0.000000 
-0.429420 -0.725086 0.000000 
-0.464588 -0.673045 0.000000 
-0.427556 -0.636017 0.000000 
-0.453135 -0.584502 0.000000 
-0.407738 -0.549187 0.000000 
-0.425037 -0.499759 0.000000 
-0.370772 -0.468130 0.000000 
-0.381315 -0.421902 0.000000 
-0.046960 -0.725377 0.000000 
-0.095301 -0.819423 0.000000 
-0.098873 -0.766776 0.000000 
-0.149405 -0.751578 0.000000 
-0.140093 -0.911127 0.000000 
-0.148617 -0.862429 0.000000 
-0.205981 -0.852191 0.000000 
-0.203197 -0.793988 0.000000 
-0.248777 -0.774842 0.000000 
-0.184111 -1.002091 0.000000 
-0.194039 -0.955000 0.000000 
-0.254475 -0.947700 0.000000 
-0.257893 -0.893590 0.000000 
-0.309886 -0.878218 0.000000 
-0.303554 -0.817673 0.000000 
-0.347255 -0.797515 0.000000 
-0.228129 -1.093054 0.000000 
-0.238687 -1.046830 0.000000 
-0.301302 -1.041878 0.000000 
-0.307162 -0.989839 0.000000 
-0.363386 -0.977718 0.000000 
-0.362692 -0.920207 0.000000 
-0.412122 -0.902913 0.000000 
-0.403017 -0.840767 0.000000 
-0.445733 -0.820188 0.000000 
-0.000000 -0.747992 0.000000 
0.043388 -0.844423 0.000000 
-0.000000 -0.814390 0.000000 
-0.043388 -0.844423 0.000000 
0.087158 -0.936619 0.000000 
0.043769 -0.912921 0.000000 
-0.000000 -0.951386 0.000000 
-0.043769 -0.912921 0.000000 
-0.087158 -0.936619 0.000000 
0.130831 -1.027749 0.000000 
0.087824 -1.006150 0.000000 
0.044436 -1.048850 0.000000 
-0.000000 -1.017785 0.000000 
-0.044436 -1.048850 0.000000 
-0.087824 -1.006150 0.000000 
-0.130831 -1.027749 0.000000 
0.174505 -1.118879 0.000000 
0.131782 -1.098313 0.000000 
0.088871 -1.144179 0.000000 
0.044532 -1.116315 0.000000 
-0.000000 -1.152715 0.000000 
-0.044532 -1.116315 0.000000 
-0.088871 -1.144179 0.000000 
-0.131782 -1.098313 0.000000 
-0.174505 -1.118879 0.000000 
0.046960 -0.725377 0.000000 
0.149405 -0.751578 0.000000 
0.098873 -0.766776 0.000000 
0.095301 -0.819423 0.000000 
0.248777 -0.774842 0.000000 
0.203197 -0.793988 0.000000 
0.205981 -0.852191 0.000000 
0.148617 -0.862429 0.000000 
0.140093 -0.911127 0.000000 
0.347255 -0.797515 0.000000 
0.303554 -0.817673 0.000000 
0.309886 -0.878218 0.000000 
0.257893 -0.893590 0.000000 
0.254475 -0.947700 0.000000 
0.194039 -0.955000 0.000000 
0.184111 -1.002091 0.000000 
0.445733 -0.820188 0.000000 
0.403017 -0.840767 0.000000 
0.412122 -0.902913 0.000000 
0.362692 -0.920207 0.000000 
0.363386 -0.977718 0.000000 
0.307162 -0.989839 0.000000 
0.301302 -1.041878 0.000000 
0.238687 -1.046830 0.000000 
0.228129 -1.093054 0.000000 
0.058559 -0.674562 0.000000 
0.142917 -0.610803 0.000000 
0.123292 -0.659787 0.000000 
0.162226 -0.695405 0.000000 
0.223062 -0.547616 0.000000 
0.209613 -0.595190 0.000000 
0.256854 -0.629302 0.000000 
0.229092 -0.680534 0.000000 
0.261851 -0.717561 0.000000 
0.302189 -0.484759 0.000000 
0.290702 -0.531494 0.000000 
0.341985 -0.564293 0.000000 
0.321587 -0.614527 0.000000 
0.361761 -0.650936 0.000000 
0.329787 -0.702738 0.000000 
0.360414 -0.739861 0.000000 
0.381315 -0.421902 0.000000 
0.370772 -0.468130 0.000000 
0.425037 -0.499759 0.000000 
0.407738 -0.549187 0.000000 
0.453135 -0.584502 0.000000 
0.427556 -0.636017 0.000000 
0.464588 -0.673045 0.000000 
0.429420 -0.725086 0.000000 
0.458977 -0.762161 0.000000 
0.026061 -0.633811 0.000000 
0.028809 -0.528105 0.000000 
0.054870 -0.573988 0.000000 
0.106992 -0.565756 0.000000 
0.029377 -0.426047 0.000000 
0.058186 -0.466225 0.000000 
0.114311 -0.450559 0.000000 
0.137056 -0.504206 0.000000 
0.186430 -0.501680 0.000000 
0.029568 -0.324993 0.000000 
0.058945 -0.363113 0.000000 
0.116563 -0.343468 0.000000 
0.143120 -0.390736 0.000000 
0.196633 -0.382027 0.000000 
0.217198 -0.439324 0.000000 
0.265318 -0.438524 0.000000 
0.029759 -0.223939 0.000000 
0.059328 -0.261005 0.000000 
0.117890 -0.238299 0.000000 
0.145749 -0.282642 0.000000 
0.201664 -0.269168 0.000000 
0.225992 -0.321285 0.000000 
0.278030 -0.315419 0.000000 
0.296791 -0.375361 0.000000 
0.344206 -0.375369 0.000000 
VECTORS X_EC float 
0.338794 -0.943550 0.000000 
-0.609100 0.137701 0.000000 
0.713312 0.248842 0.000000 
0.374519 -0.370587 0.000000 
0.423588 -0.727318 0.000000 
-0.218274 -0.693214 0.000000 
-0.513962 0.582547 0.000000 
0.756418 0.794033 0.000000 
0.381900 0.251641 0.000000 
-0.550868 0.420079 0.000000 
0.823577 0.430875 0.000000 
0.556234 -0.342630 0.000000 
-0.139443 -0.225061 0.000000 
-0.484677 -0.863185 0.000000 
0.766286 -0.597970 0.000000 
0.384386 0.887410 0.000000 
0.474677 -0.432524 0.000000 
-0.141715 -0.432621 0.000000 
-0.385608 0.758151 0.000000 
0.937896 0.837347 0.000000 
0.621631 0.133767 0.000000 
-0.105264 0.315666 0.000000 
-0.467428 -0.282960 0.000000 
0.771260 0.023568 0.000000 
0.386873 -0.476821 0.000000 
0.761262 -0.393416 0.000000 
0.108942 -0.112039 0.000000 
-0.397202 -0.592878 0.000000 
-0.142083 0.745846 0.000000 
-0.595936 0.187072 0.000000 
0.978194 -0.312794 0.000000 
-0.660903 0.995581 0.000000 
0.724964 0.535061 0.000000 
0.899809 -0.107188 0.000000 
0.685384 0.488124 0.000000 
0.287229 -0.013035 0.000000 
0.702895 -0.712363 0.000000 
0.180633 0.796118 0.000000 
0.445811 0.117958 0.000000 
-0.220880 -0.324828 0.000000 
-0.071546 -0.955753 0.000000 
-0.033296 0.789176 0.000000 
-0.417537 0.288666 0.000000 
0.039645 -0.413896 0.000000 
-0.441768 -0.913767 0.000000 
-0.109248 0.390782 0.000000 
-0.699407 -0.085974 0.000000 
-0.474522 -0.753253 0.000000 
0.820030 0.819754 0.000000 
0.957100 0.195682 0.000000 
0.610485 0.292591 0.000000 
-0.761092 -0.437790 0.000000 
-0.714655 0.851473 0.000000 
-0.057734 0.646305 0.000000 
-0.178789 0.800214 0.000000 
-0.067979 0.142788 0.000000 
0.677748 0.004585 0.000000 
0.641556 -0.781161 0.000000 
-0.765897 0.960361 0.000000 
0.393446 0.028223 0.000000 
0.522510 -0.607507 0.000000 
-0.691820 -0.706051 0.000000 
-0.647393 0.563467 0.000000 
0.028512 0.355940 0.000000 
-0.053800 -0.461421 0.000000 
0.514316 -0.733551 0.000000 
0.965681 -0.743768 0.000000 
-0.897068 0.632204 0.000000 
-0.083078 0.565351 0.000000 
-0.006893 -0.137174 0.000000 
0.724017 -0.300807 0.000000 
0.714996 0.922790 0.000000 
-0.642413 0.689332 0.000000 
-0.760780 -0.149648 0.000000 
-0.205471 -0.427464 0.000000 
0.000000 0.597892 0.000000 
-0.564049 -0.100295 0.000000 
0.000000 -0.505731 0.000000 
0.564049 -0.100295 0.000000 
0.866949 -0.855640 0.000000 
-0.569003 0.824429 0.000000 
0.000000 -0.656283 0.000000 
0.569003 0.824429 0.000000 
-0.866949 -0.855640 0.000000 
0.299194 0.374611 0.000000 
0.858290 0.083027 0.000000 
-0.577662 0.659472 0.000000 
0.000000 0.240094 0.000000 
0.577662 0.659472 0.000000 
-0.858290 0.083027 0.000000 
-0.299194 0.374611 0.000000 
-0.268560 -0.395139 0.000000 
0.286830 -0.672781 0.000000 
0.844677 -0.053583 0.000000 
-0.578910 -0.429745 0.000000 
0.000000 0.061658 0.000000 
0.578910 -0.429745 0.000000 
-0.844677 -0.053583 0.000000 
-0.286830 -0.672781 0.000000 
0.268560 -0.395139 0.000000 
-0.610485 0.292591 0.000000 
0.057734 0.646305 0.000000 
0.714655 0.851473 0.000000 
0.761092 -0.437790 0.000000 
0.765897 0.960361 0.000000 
-0.641556 -0.781161 0.000000 
-0.677748 0.004585 0.000000 
0.067979 0.142788 0.000000 
0.178789 0.800214 0.000000 
-0.514316 -0.733551 0.000000 
0.053800 -0.461420 0.000000 
-0.028512 0.355940 0.000000 
0.647393 0.563467 0.000000 
0.691820 -0.706051 0.000000 
-0.522510 -0.607507 0.000000 
-0.393446 0.028223 0.000000 
0.205471 -0.427464 0.000000 
0.760780 -0.149648 0.000000 
0.642413 0.689332 0.000000 
-0.714996 0.922790 0.000000 
-0.724017 -0.300807 0.000000 
0.006894 -0.137174 0.000000 
0.083078 0.565351 0.000000 
0.897068 0.632204 0.000000 
-0.965681 -0.743768 0.000000 
-0.761262 -0.393416 0.000000 
0.142083 0.745846 0.000000 
0.397202 -0.592878 0.000000 
-0.108942 -0.112039 0.000000 
-0.899809 -0.107188 0.000000 
-0.724964 0.535061 0.000000 
0.660903 0.995581 0.000000 
-0.978194 -0.312794 0.000000 
0.595936 0.187072 0.000000 
0.071546 -0.955753 0.000000 
0.220880 -0.324827 0.000000 
-0.445811 0.117959 0.000000 
-0.180633 0.796118 0.000000 
-0.702895 -0.712363 0.000000 
-0.287229 -0.013035 0.000000 
-0.685384 0.488124 0.000000 
-0.957100 0.195682 0.000000 
-0.820030 0.819754 0.000000 
0.474522 -0.753253 0.000000 
0.699407 -0.085974 0.000000 
0.109248 0.390782 0.000000 
0.441768 -0.913767 0.000000 
-0.039645 -0.413896 0.000000 
0.417537 0.288666 0.000000 
0.033296 0.789176 0.000000 
-0.338794 -0.943550 0.000000 
-0.374519 -0.370587 0.000000 
-0.713312 0.248842 0.000000 
0.609100 0.137701 0.000000 
-0.381900 0.251641 0.000000 
-0.756418 0.794033 0.000000 
0.513962 0.582547 0.000000 
0.218274 -0.693214 0.000000 
-0.423588 -0.727318 0.000000 
-0.384386 0.887410 0.000000 
-0.766286 -0.597970 0.000000 
0.484677 -0.863185 0.000000 
0.139443 -0.225061 0.000000 
-0.556234 -0.342630 0.000000 
-0.823577 0.430875 0.000000 
0.550868 0.420079 0.000000 
-0.386873 -0.476821 0.000000 
-0.771260 0.023568 0.000000 
0.467428 -0.282960 0.000000 
0.105264 0.315666 0.000000 
-0.621631 0.133767 0.000000 
-0.937896 0.837347 0.000000 
0.385608 0.758151 0.000000 
0.141715 -0.432621 0.000000 
-0.474677 -0.432524 0.000000 
CELL_DATA 175 
SCALARS MASS float 
LOOKUP_TABLE default 
0.781831 
0.864274 
0.946717 
0.864274 
0.881307 
0.921110 
0.858535 
0.921110 
0.881307 
0.887046 
0.910001 
0.869829 
0.915556 
0.869829 
0.910001 
0.887046 
0.892784 
0.915740 
0.892784 
0.927218 
0.892784 
0.927218 
0.892784 
0.915740 
0.892784 
0.781831 
0.864274 
0.946717 
0.864274 
0.881307 
0.921110 
0.858535 
0.921110 
0.881307 
0.887046 
0.910001 
0.869829 
0.915556 
0.869829 
0.910001 
0.887046 
0.892784 
0.915740 
0.892784 
0.927218 
0.892784 
0.927218 
0.892784 
0.915740 
0.892784 
0.781831 
0.864274 
0.946717 
0.864274 
0.881307 
0.921110 
0.858535 
0.921110 
0.881307 
0.887046 
0.910001 
0.869829 
0.915556 
0.869829 
0.910001 
0.887046 
0.892784 
0.915740 
0.892784 
0.927218 
0.892784 
0.927218 
0.892784 
0.915740 
0.892784 
0.781831 
0.864274 
0.946717 
0.864274 
0.881307 
0.921110 
0.858535 
0.921110 
0.881307 
0.887046 
0.910001 
0.869829 
0.915556 
0.869829 
0.910001 
0.887046 
0.892784 
0.915740 
0.892784 
0.927218 
0.892784 
0.927218 
0.892784 
0.915740 
0.892784 
0.781831 
0.864274 
0.946717 
0.864274 
0.881307 
0.921110 
0.858535 
0.921110 
0.881307 
0.887046 
0.910001 
0.869829 
0.915556 
0.869829 
0.910001 
0.887046 
0.892784 
0.915740 
0.892784 
0.927218 
0.892784 
0.927218 
0.892784 
0.915740 
0.892784 
0.781831 
0.864274 
0.946717 
0.864274 
0.881307 
0.921110 
0.858535 
0.921110 
0.881307 
0.887046 
0.910001 
0.869829 
0.915556 
0.869829 
0.910001 
0.887046 
0.892784 
0.915740 
0.892784 
0.927218 
0.892784 
0.927218 
0.892784 
0.915740 
0.892784 
0.781831 
0.864274 
0.946717 
0.864274 
0.881307 
0.921110 
0.858535 
0.921110 
0.881307 
0.887046 
0.910001 
0.869829 
0.915556 
0.869829 
0.910001 
0.887046 
0.892784 
0.915740 
0.892784 
0.927218 
0.892784 
0.927218 
0.892784 
0.915740 
0.892784 
SCALARS MASS float 
LOOKUP_TABLE default 
0.781831 
0.864274 
0.946717 
0.864274 
0.881307 
0.921110 
0.858535 
0.921110 
0.881307 
0.887046 
0.910001 
0.869829 
0.915556 
0.869829 
0.910001 
0.887046 
0.892784 
0.915740 
0.892784 
0.927218 
0.892784 
0.927218 
0.892784 
0.915740 
0.892784 
0.781831 
0.864274 
0.946717 
0.864274 
0.881307 
0.921110 
0.858535 
0.921110 
0.881307 
0.887046 
0.910001 
0.869829 
0.915556 
0.869829 
0.910001 
0.887046 
0.892784 
0.915740 
0.892784 
0.927218 
0.892784 
0.927218 
0.892784 
0.915740 
0.892784 
0.781831 
0.864274 
0.946717 
0.864274 
0.881307 
0.921110 
0.858535 
0.921110 
0.881307 
0.887046 
0.910001 
0.869829 
0.915556 
0.869829 
0.910001 
0.887046 
0.892784 
0.915740 
0.892784 
0.927218 
0.892784 
0.927218 
0.892784 
0.915740 
0.892784 
0.781831 
0.864274 
0.946717 
0.864274 
0.881307 
0.921110 
0.858535 
0.921110 
0.881307 
0.887046 
0.910001 
0.869829 
0.915556 
0.869829 
0.910001 
0.887046 
0.892784 
0.915740 
0.892784 
0.927218 
0.892784 
0.927218 
0.892784 
0.915740 
0.892784 
0.781831 
0.864274 
0.946717 
0.864274 
0.881307 
0.921110 
0.858535 
0.921110 
0.881307 
0.887046 
0.910001 
0.869829 
0.915556 
0.869829 
0.910001 
0.887046 
0.892784 
0.915740 
0.892784 
0.927218 
0.892784 
0.927218 
0.892784 
0.915740 
0.892784 
0.781831 
0.864274 
0.946717 
0.864274 
0.881307 
0.921110 
0.858535 
0.921110 
0.881307 
0.887046 
0.910001 
0.869829 
0.915556 
0.869829 
0.910001 
0.887046 
0.892784 
0.915740 
0.892784 
0.927218 
0.892784 
0.927218 
0.892784 
0.915740 
0.892784 
0.781831 
0.864274 
0.946717 
0.864274 
0.881307 
0.921110 
0.858535 
0.921110 
0.881307 
0.887046 
0.910001 
0.869829 
0.915556 
0.869829 
0.910001 
0.887046 
0.892784 
0.915740 
0.892784 
0.927218 
0.892784 
0.927218 
0.892784 
0.915740 
0.892784 
SCALARS DENSITY float 
LOOKUP_TABLE default 
200.000000 
200.000000 
200.000000 
200.000000 
200.000000 
200.000000 
200.000000 
200.000000 
200.000000 
200.000000 
200.000000 
200.000000 
200.000000 
200.000000 
200.000000 
200.000000 
200.000000 
200.000000 
200.000000 
200.000000 
200.000000 
200.000000 
200.000000 
200.000000 
200.000000 
200.000000 
200.000000 
200.000000 
200.000000 
200.000000 
200.000000 
200.000000 
200.000000 
200.000000 
200.000000 
200.000000 
200.000000 
200.000000 
200.000000 
200.000000 
200.000000 
200.000000 
200.000000 
200.000000 
200.000000 
200.000000 
200.000000 
200.000000 
200.000000 
200.000000 
200.000000 
200.000000 
200.000000 
200.000000 
200.000000 
200.000000 
200.000000 
200.000000 
200.000000 
200.000000 
200.000000 
200.000000 
200.000000 
200.000000 
200.000000 
200.000000 
200.000000 
200.000000 
200.000000 
200.000000 
200.000000 
200.000000 
200.000000 
200.000000 
200.000000 
200.000000 
200.000000 
200.000000 
200.000000 
200.000000 
200.000000 
200.000000 
200.000000 
200.000000 
200.000000 
200.000000 
200.000000 
200.000000 
200.000000 
200.000000 
200.000000 
200.000000 
200.000000 
200.000000 
200.000000 
200.000000 
200.000000 
200.000000 
200.000000 
200.000000 
200.000000 
200.000000 
200.000000 
200.000000 
200.000000 
200.000000 
200.000000 
200.000000 
200.000000 
200.000000 
200.000000 
200.000000 
200.000000 
200.000000 
200.000000 
200.000000 
200.000000 
200.000000 
200.000000 
200.000000 
200.000000 
200.000000 
200.000000 
200.000000 
200.000000 
200.000000 
200.000000 
200.000000 
200.000000 
200.000000 
200.000000 
200.000000 
200.000000 
200.000000 
200.000000 
200.000000 
200.000000 
200.000000 
200.000000 
200.000000 
200.000000 
200.000000 
200.000000 
200.000000 
200.000000 
200.000000 
200.000000 
200.000000 
200.000000 
200.000000 
200.000000 
200.000000 
200.000000 
200.000000 
200.000000 
200.000000 
200.000000 
200.000000 
200.000000 
200.000000 
200.000000 
200.000000 
200.000000 
200.000000 
200.000000 
200.000000 
200.000000 
200.000000 
200.000000 
200.000000 
200.000000 
200.000000 
200.000000 
200.000000 
200.000000 
SCALARS ELEM_i float 
LOOKUP_TABLE default 
177 
205 
178 
178 
205 
205 
206 
179 
179 
233 
206 
206 
206 
206 
179 
180 
233 
233 
234 
207 
207 
207 
207 
180 
180 
177 
204 
204 
205 
231 
204 
232 
205 
205 
231 
231 
231 
232 
232 
232 
232 
258 
258 
258 
258 
259 
259 
259 
233 
233 
177 
203 
204 
204 
203 
203 
203 
203 
231 
202 
202 
229 
230 
230 
230 
230 
201 
229 
229 
229 
229 
230 
257 
257 
257 
177 
176 
176 
176 
148 
176 
175 
176 
202 
148 
148 
175 
175 
175 
202 
202 
147 
147 
147 
174 
174 
174 
201 
201 
201 
177 
150 
150 
149 
123 
149 
149 
149 
149 
122 
122 
122 
122 
121 
148 
148 
95 
95 
95 
122 
121 
121 
121 
121 
147 
177 
151 
150 
150 
151 
151 
124 
150 
123 
124 
124 
124 
124 
123 
123 
123 
125 
125 
97 
97 
97 
96 
96 
96 
96 
177 
178 
178 
151 
179 
179 
152 
151 
151 
180 
179 
152 
152 
152 
152 
125 
180 
180 
153 
153 
153 
153 
126 
125 
125 
VECTORS VELOCITY float 
0.000000 -3.672864 0.000000 
0.000000 -3.672864 0.000000 
0.000000 -3.672864 0.000000 
0.000000 -3.672864 0.000000 
-0.000000 -3.672864 0.000000 
0.000000 -3.672864 0.000000 
0.000000 -3.672864 0.000000 
0.000000 -3.672864 0.000000 
0.000000 -3.672864 0.000000 
-0.000000 -3.672864 0.000000 
-0.000000 -3.672864 0.000000 
-0.000000 -3.672864 0.000000 
0.000000 -3.672864 0.000000 
0.000000 -3.672864 0.000000 
0.000000 -3.672864 0.000000 
0.000000 -3.672864 0.000000 
0.000000 -3.672864 0.000000 
0.000000 -3.672864 0.000000 
-0.000000 -3.672864 0.000000 
0.000000 -3.672864 0.000000 
0.000000 -3.672864 0.000000 
0.000000 -3.672864 0.000000 
0.000000 -3.672864 0.000000 
0.000000 -3.672864 0.000000 
-0.000000 -3.672864 0.000000 
0.000000 -3.672864 0.000000 
0.000000 -3.672864 0.000000 
0.000000 -3.672864 0.000000 
0.000000 -3.672864 0.000000 
0.000000 -3.672864 0.000000 
-0.000000 -3.672864 0.000000 
-0.000000 -3.672864 0.000000 
-0.000000 -3.672864 0.000000 
-0.000000 -3.672864 0.000000 
-0.000000 -3.672864 0.000000 
0.000000 -3.672864 0.000000 
0.000000 -3.672864 0.000000 
0.000000 -3.672864 0.000000 
0.000000 -3.672864 0.000000 
0.000000 -3.672864 0.000000 
-0.000000 -3.672864 0.000000 
-0.000000 -3.672864 0.000000 
0.000000 -3.672864 0.000000 
0.000000 -3.672864 0.000000 
0.000000 -3.672864 0.000000 
-0.000000 -3.672864 0.000000 
-0.000000 -3.672864 0.000000 
-0.000000 -3.672864 0.000000 
0.000000 -3.672864 0.000000 
-0.000000 -3.672864 0.000000 
0.000000 -3.672864 0.000000 
-0.000000 -3.672864 0.000000 
0.000000 -3.672864 0.000000 
0.000000 -3.672864 0.000000 
0.000000 -3.672864 0.000000 
0.000000 -3.672864 0.000000 
0.000000 -3.672864 0.000000 
0.000000 -3.672864 0.000000 
0.000000 -3.672864 0.000000 
0.000000 -3.672864 0.000000 
-0.000000 -3.672864 0.000000 
-0.000000 -3.672864 0.000000 
0.000000 -3.672864 0.000000 
0.000000 -3.672864 0.000000 
0.000000 -3.672864 0.000000 
-0.000000 -3.672864 0.000000 
-0.000000 -3.672864 0.000000 
-0.000000 -3.672864 0.000000 
0.000000 -3.672864 0.000000 
0.000000 -3.672864 0.000000 
0.000000 -3.672864 0.000000 
0.000000 -3.672864 0.000000 
0.000000 -3.672864 0.000000 
-0.000000 -3.672864 0.000000 
-0.000000 -3.672864 0.000000 
0.000000 -3.672864 0.000000 
0.000000 -3.672864 0.000000 
-0.000000 -3.672864 0.000000 
-0.000000 -3.672864 0.000000 
0.000000 -3.672864 0.000000 
0.000000 -3.672864 0.000000 
0.000000 -3.672864 0.000000 
0.000000 -3.672864 0.000000 
0.000000 -3.672864 0.000000 
-0.000000 -3.672864 0.000000 
-0.000000 -3.672864 0.000000 
-0.000000 -3.672864 0.000000 
-0.000000 -3.672864 0.000000 
0.000000 -3.672864 0.000000 
0.000000 -3.672864 0.000000 
0.000000 -3.672864 0.000000 
-0.000000 -3.672864 0.000000 
-0.000000 -3.672864 0.000000 
-0.000000 -3.672864 0.000000 
-0.000000 -3.672864 0.000000 
-0.000000 -3.672864 0.000000 
-0.000000 -3.672864 0.000000 
-0.000000 -3.672864 0.000000 
-0.000000 -3.672864 0.000000 
0.000000 -3.672864 0.000000 
0.000000 -3.672864 0.000000 
0.000000 -3.672864 0.000000 
0.000000 -3.672864 0.000000 
0.000000 -3.672864 0.000000 
-0.000000 -3.672864 0.000000 
0.000000 -3.672864 0.000000 
-0.000000 -3.672864 0.000000 
-0.000000 -3.672864 0.000000 
-0.000000 -3.672864 0.000000 
-0.000000 -3.672864 0.000000 
-0.000000 -3.672864 0.000000 
-0.000000 -3.672864 0.000000 
-0.000000 -3.672864 0.000000 
-0.000000 -3.672864 0.000000 
-0.000000 -3.672864 0.000000 
-0.000000 -3.672864 0.000000 
-0.000000 -3.672864 0.000000 
0.000000 -3.672864 0.000000 
-0.000000 -3.672864 0.000000 
-0.000000 -3.672864 0.000000 
0.000000 -3.672864 0.000000 
0.000000 -3.672864 0.000000 
0.000000 -3.672864 0.000000 
-0.000000 -3.672864 0.000000 
-0.000000 -3.672864 0.000000 
0.000000 -3.672864 0.000000 
-0.000000 -3.672864 0.000000 
-0.000000 -3.672864 0.000000 
-0.000000 -3.672864 0.000000 
-0.000000 -3.672864 0.000000 
-0.000000 -3.672864 0.000000 
-0.000000 -3.672864 0.000000 
-0.000000 -3.672864 0.000000 
-0.000000 -3.672864 0.000000 
-0.000000 -3.672864 0.000000 
-0.000000 -3.672864 0.000000 
-0.000000 -3.672864 0.000000 
-0.000000 -3.672864 0.000000 
-0.000000 -3.672864 0.000000 
-0.000000 -3.672864 0.000000 
-0.000000 -3.672864 0.000000 
0.000000 -3.672864 0.000000 
-0.000000 -3.672864 0.000000 
0.000000 -3.672864 0.000000 
-0.000000 -3.672864 0.000000 
0.000000 -3.672864 0.000000 
-0.000000 -3.672864 0.000000 
-0.000000 -3.672864 0.000000 
-0.000000 -3.672864 0.000000 
-0.000000 -3.672864 0.000000 
0.000000 -3.672864 0.000000 
0.000000 -3.672864 0.000000 
0.000000 -3.672864 0.000000 
0.000000 -3.672864 0.000000 
0.000000 -3.672864 0.000000 
0.000000 -3.672864 0.000000 
0.000000 -3.672864 0.000000 
0.000000 -3.672864 0.000000 
0.000000 -3.672864 0.000000 
0.000000 -3.672864 0.000000 
-0.000000 -3.672864 0.000000 
-0.000000 -3.672864 0.000000 
-0.000000 -3.672864 0.000000 
0.000000 -3.672864 0.000000 
-0.000000 -3.672864 0.000000 
-0.000000 -3.672864 0.000000 
0.000000 -3.672864 0.000000 
0.000000 -3.672864 0.000000 
0.000000 -3.672864 0.000000 
0.000000 -3.672864 0.000000 
0.000000 -3.672864 0.000000 
0.000000 -3.672864 0.000000 
0.000000 -3.672864 0.000000 
0.000000 -3.672864 0.000000 
-0.000000 -3.672864 0.000000 
TENSORS STRESS float 
0.000000 -0.000000 0.000000 
0.000000 0.000000 0.000000 
0.000000 0.000000 0.000000 

0.000000 0.000000 0.000000 
0.000000 0.000000 0.000000 
0.000000 0.000000 0.000000 

0.000000 0.000000 0.000000 
0.000000 0.000000 0.000000 
0.000000 0.000000 0.000000 

0.000000 0.000000 0.000000 
0.000000 0.000000 0.000000 
0.000000 0.000000 0.000000 

0.000000 0.000000 0.000000 
0.000000 0.000000 0.000000 
0.000000 0.000000 0.000000 

0.000000 0.000000 0.000000 
0.000000 0.000000 0.000000 
0.000000 0.000000 0.000000 

0.000000 -0.000000 0.000000 
0.000000 0.000000 0.000000 
0.000000 0.000000 0.000000 

-0.000000 0.000000 0.000000 
0.000000 -0.000000 0.000000 
0.000000 0.000000 0.000000 

0.000000 -0.000000 0.000000 
0.000000 0.000000 0.000000 
0.000000 0.000000 0.000000 

-0.000000 -0.000000 0.000000 
0.000000 -0.000000 0.000000 
0.000000 0.000000 0.000000 

0.000000 -0.000000 0.000000 
0.000000 0.000000 0.000000 
0.000000 0.000000 0.000000 

-0.000000 -0.000000 0.000000 
0.000000 -0.000000 0.000000 
0.000000 0.000000 0.000000 

0.000000 -0.000000 0.000000 
0.000000 0.000000 0.000000 
0.000000 0.000000 0.000000 

-0.000000 0.000000 0.000000 
0.000000 -0.000000 0.000000 
0.000000 0.000000 0.000000 

0.000000 0.000000 0.000000 
0.000000 0.000000 0.000000 
0.000000 0.000000 0.000000 

-0.000000 0.000000 0.000000 
0.000000 -0.000000 0.000000 
0.000000 0.000000 0.000000 

-0.000000 0.000000 0.000000 
0.000000 -0.000000 0.000000 
0.000000 0.000000 0.000000 

-0.000000 0.000000 0.000000 
0.000000 -0.000000 0.000000 
0.000000 0.000000 0.000000 

0.000000 0.000000 0.000000 
0.000000 0.000000 0.000000 
0.000000 0.000000 0.000000 

-0.000000 -0.000000 0.000000 
0.000000 0.000000 0.000000 
0.000000 0.000000 0.000000 

0.000000 -0.000000 0.000000 
0.000000 0.000000 0.000000 
0.000000 0.000000 0.000000 

0.000000 -0.000000 0.000000 
0.000000 0.000000 0.000000 
0.000000 0.000000 0.000000 

0.000000 0.000000 0.000000 
0.000000 0.000000 0.000000 
0.000000 0.000000 0.000000 

0.000000 0.000000 0.000000 
0.000000 0.000000 0.000000 
0.000000 0.000000 0.000000 

-0.000000 0.000000 0.000000 
0.000000 0.000000 0.000000 
0.000000 0.000000 0.000000 

-0.000000 0.000000 0.000000 
0.000000 -0.000000 0.000000 
0.000000 0.000000 0.000000 

-0.000000 0.000000 0.000000 
0.000000 -0.000000 0.000000 
0.000000 0.000000 0.000000 

0.000000 -0.000000 0.000000 
0.000000 0.000000 0.000000 
0.000000 0.000000 0.000000 

-0.000000 -0.000000 0.000000 
0.000000 -0.000000 0.000000 
0.000000 0.000000 0.000000 

0.000000 -0.000000 0.000000 
0.000000 0.000000 0.000000 
0.000000 0.000000 0.000000 

0.000000 -0.000000 0.000000 
0.000000 0.000000 0.000000 
0.000000 0.000000 0.000000 

0.000000 -0.000000 0.000000 
0.000000 0.000000 0.000000 
0.000000 0.000000 0.000000 

0.000000 0.000000 0.000000 
0.000000 0.000000 0.000000 
0.000000 0.000000 0.000000 

-0.000000 0.000000 0.000000 
0.000000 -0.000000 0.000000 
0.000000 0.000000 0.000000 

0.000000 -0.000000 0.000000 
0.000000 0.000000 0.000000 
0.000000 0.000000 0.000000 

0.000000 -0.000000 0.000000 
0.000000 0.000000 0.000000 
0.000000 0.000000 0.000000 

0.000000 -0.000000 0.000000 
0.000000 0.000000 0.000000 
0.000000 0.000000 0.000000 

-0.000000 -0.000000 0.000000 
0.000000 -0.000000 0.000000 
0.000000 0.000000 0.000000 

0.000000 -0.000000 0.000000 
0.000000 0.000000 0.000000 
0.000000 0.000000 0.000000 

-0.000000 0.000000 0.000000 
0.000000 -0.000000 0.000000 
0.000000 0.000000 0.000000 

0.000000 0.000000 0.000000 
0.000000 0.000000 0.000000 
0.000000 0.000000 0.000000 

-0.000000 -0.000000 0.000000 
0.000000 -0.000000 0.000000 
0.000000 0.000000 0.000000 

0.000000 -0.000000 0.000000 
0.000000 0.000000 0.000000 
0.000000 0.000000 0.000000 

-0.000000 -0.000000 0.000000 
0.000000 -0.000000 0.000000 
0.000000 0.000000 0.000000 

0.000000 0.000000 0.000000 
0.000000 0.000000 0.000000 
0.000000 0.000000 0.000000 

0.000000 0.000000 0.000000 
0.000000 0.000000 0.000000 
0.000000 0.000000 0.000000 

-0.000000 -0.000000 0.000000 
0.000000 -0.000000 0.000000 
0.000000 0.000000 0.000000 

-0.000000 -0.000000 0.000000 
0.000000 -0.000000 0.000000 
0.000000 0.000000 0.000000 

-0.000000 0.000000 0.000000 
0.000000 -0.000000 0.000000 
0.000000 0.000000 0.000000 

0.000000 -0.000000 0.000000 
0.000000 0.000000 0.000000 
0.000000 0.000000 0.000000 

0.000000 -0.000000 0.000000 
0.000000 0.000000 0.000000 
0.000000 0.000000 0.000000 

-0.000000 -0.000000 0.000000 
0.000000 -0.000000 0.000000 
0.000000 0.000000 0.000000 

-0.000000 0.000000 0.000000 
0.000000 -0.000000 0.000000 
0.000000 0.000000 0.000000 

-0.000000 -0.000000 0.000000 
0.000000 -0.000000 0.000000 
0.000000 0.000000 0.000000 

-0.000000 0.000000 0.000000 
0.000000 -0.000000 0.000000 
0.000000 0.000000 0.000000 

-0.000000 0.000000 0.000000 
0.000000 -0.000000 0.000000 
0.000000 0.000000 0.000000 

-0.000000 0.000000 0.000000 
0.000000 -0.000000 0.000000 
0.000000 0.000000 0.000000 

0.000000 0.000000 0.000000 
0.000000 0.000000 0.000000 
0.000000 0.000000 0.000000 

0.000000 -0.000000 0.000000 
0.000000 0.000000 0.000000 
0.000000 0.000000 0.000000 

0.000000 0.000000 0.000000 
0.000000 0.000000 0.000000 
0.000000 0.000000 0.000000 

0.000000 0.000000 0.000000 
0.000000 0.000000 0.000000 
0.000000 0.000000 0.000000 

0.000000 -0.000000 0.000000 
0.000000 0.000000 0.000000 
0.000000 0.000000 0.000000 

-0.000000 -0.000000 0.000000 
0.000000 0.000000 0.000000 
0.000000 0.000000 0.000000 

-0.000000 -0.000000 0.000000 
0.000000 -0.000000 0.000000 
0.000000 0.000000 0.000000 

-0.000000 0.000000 0.000000 
0.000000 -0.000000 0.000000 
0.000000 0.000000 0.000000 

0.000000 -0.000000 0.000000 
0.000000 0.000000 0.000000 
0.000000 0.000000 0.000000 

-0.000000 -0.000000 0.000000 
0.000000 -0.000000 0.000000 
0.000000 0.000000 0.000000 

0.000000 0.000000 0.000000 
0.000000 0.000000 0.000000 
0.000000 0.000000 0.000000 

0.000000 0.000000 0.000000 
0.000000 0.000000 0.000000 
0.000000 0.000000 0.000000 

0.000000 0.000000 0.000000 
0.000000 0.000000 0.000000 
0.000000 0.000000 0.000000 

0.000000 0.000000 0.000000 
0.000000 0.000000 0.000000 
0.000000 0.000000 0.000000 

-0.000000 -0.000000 0.000000 
0.000000 -0.000000 0.000000 
0.000000 0.000000 0.000000 

-0.000000 0.000000 0.000000 
0.000000 -0.000000 0.000000 
0.000000 0.000000 0.000000 

-0.000000 0.000000 0.000000 
0.000000 -0.000000 0.000000 
0.000000 0.000000 0.000000 

0.000000 -0.000000 0.000000 
0.000000 0.000000 0.000000 
0.000000 0.000000 0.000000 

0.000000 -0.000000 0.000000 
0.000000 0.000000 0.000000 
0.000000 0.000000 0.000000 

0.000000 0.000000 0.000000 
0.000000 0.000000 0.000000 
0.000000 0.000000 0.000000 

0.000000 -0.000000 0.000000 
0.000000 0.000000 0.000000 
0.000000 0.000000 0.000000 

0.000000 0.000000 0.000000 
0.000000 0.000000 0.000000 
0.000000 0.000000 0.000000 

-0.000000 -0.000000 0.000000 
0.000000 -0.000000 0.000000 
0.000000 0.000000 0.000000 

0.000000 -0.000000 0.000000 
0.000000 0.000000 0.000000 
0.000000 0.000000 0.000000 

0.000000 -0.000000 0.000000 
0.000000 0.000000 0.000000 
0.000000 0.000000 0.000000 

0.000000 0.000000 0.000000 
0.000000 0.000000 0.000000 
0.000000 0.000000 0.000000 

-0.000000 0.000000 0.000000 
0.000000 -0.000000 0.000000 
0.000000 0.000000 0.000000 

-0.000000 0.000000 0.000000 
0.000000 -0.000000 0.000000 
0.000000 0.000000 0.000000 

0.000000 -0.000000 0.000000 
0.000000 0.000000 0.000000 
0.000000 0.000000 0.000000 

0.000000 -0.000000 0.000000 
0.000000 0.000000 0.000000 
0.000000 0.000000 0.000000 

0.000000 -0.000000 0.000000 
0.000000 0.000000 0.000000 
0.000000 0.000000 0.000000 

-0.000000 -0.000000 0.000000 
0.000000 -0.000000 0.000000 
0.000000 0.000000 0.000000 

0.000000 -0.000000 0.000000 
0.000000 0.000000 0.000000 
0.000000 0.000000 0.000000 

-0.000000 0.000000 0.000000 
0.000000 -0.000000 0.000000 
0.000000 0.000000 0.000000 

0.000000 -0.000000 0.000000 
0.000000 0.000000 0.000000 
0.000000 0.000000 0.000000 

0.000000 -0.000000 0.000000 
0.000000 0.000000 0.000000 
0.000000 0.000000 0.000000 

-0.000000 0.000000 0.000000 
0.000000 -0.000000 0.000000 
0.000000 0.000000 0.000000 

-0.000000 -0.000000 0.000000 
0.000000 -0.000000 0.000000 
0.000000 0.000000 0.000000 

-0.000000 0.000000 0.000000 
0.000000 0.000000 0.000000 
0.000000 0.000000 0.000000 

-0.000000 -0.000000 0.000000 
0.000000 -0.000000 0.000000 
0.000000 0.000000 0.000000 

0.000000 -0.000000 0.000000 
0.000000 0.000000 0.000000 
0.000000 0.000000 0.000000 

-0.000000 -0.000000 0.000000 
0.000000 -0.000000 0.000000 
0.000000 0.000000 0.000000 

0.000000 -0.000000 0.000000 
0.000000 -0.000000 0.000000 
0.000000 0.000000 0.000000 

0.000000 -0.000000 0.000000 
0.000000 0.000000 0.000000 
0.000000 0.000000 0.000000 

-0.000000 -0.000000 0.000000 
0.000000 -0.000000 0.000000 
0.000000 0.000000 0.000000 

0.000000 -0.000000 0.000000 
0.000000 0.000000 0.000000 
0.000000 0.000000 0.000000 

0.000000 -0.000000 0.000000 
0.000000 0.000000 0.000000 
0.000000 0.000000 0.000000 

0.000000 0.000000 0.000000 
0.000000 0.000000 0.000000 
0.000000 0.000000 0.000000 

0.000000 -0.000000 0.000000 
0.000000 0.000000 0.000000 
0.000000 0.000000 0.000000 

0.000000 -0.000000 0.000000 
0.000000 0.000000 0.000000 
0.000000 0.000000 0.000000 

0.000000 -0.000000 0.000000 
0.000000 0.000000 0.000000 
0.000000 0.000000 0.000000 

0.000000 -0.000000 0.000000 
0.000000 0.000000 0.000000 
0.000000 0.000000 0.000000 

-0.000000 0.000000 0.000000 
0.000000 -0.000000 0.000000 
0.000000 0.000000 0.000000 

0.000000 0.000000 0.000000 
0.000000 0.000000 0.000000 
0.000000 0.000000 0.000000 

-0.000000 -0.000000 0.000000 
0.000000 -0.000000 0.000000 
0.000000 0.000000 0.000000 

-0.000000 0.000000 0.000000 
0.000000 -0.000000 0.000000 
0.000000 0.000000 0.000000 

-0.000000 -0.000000 0.000000 
0.000000 -0.000000 0.000000 
0.000000 0.000000 0.000000 

0.000000 -0.000000 0.000000 
0.000000 0.000000 0.000000 
0.000000 0.000000 0.000000 

0.000000 0.000000 0.000000 
0.000000 0.000000 0.000000 
0.000000 0.000000 0.000000 

-0.000000 -0.000000 0.000000 
0.000000 -0.000000 0.000000 
0.000000 0.000000 0.000000 

0.000000 -0.000000 0.000000 
0.000000 0.000000 0.000000 
0.000000 0.000000 0.000000 

-0.000000 -0.000000 0.000000 
0.000000 0.000000 0.000000 
0.000000 0.000000 0.000000 

0.000000 -0.000000 0.000000 
0.000000 0.000000 0.000000 
0.000000 0.000000 0.000000 

-0.000000 0.000000 0.000000 
0.000000 -0.000000 0.000000 
0.000000 0.000000 0.000000 

0.000000 0.000000 0.000000 
0.000000 0.000000 0.000000 
0.000000 0.000000 0.000000 

0.000000 0.000000 0.000000 
0.000000 0.000000 0.000000 
0.000000 0.000000 0.000000 

-0.000000 -0.000000 0.000000 
0.000000 -0.000000 0.000000 
0.000000 0.000000 0.000000 

-0.000000 0.000000 0.000000 
0.000000 -0.000000 0.000000 
0.000000 0.000000 0.000000 

0.000000 0.000000 0.000000 
0.000000 0.000000 0.000000 
0.000000 0.000000 0.000000 

-0.000000 -0.000000 0.000000 
0.000000 -0.000000 0.000000 
0.000000 0.000000 0.000000 

0.000000 -0.000000 0.000000 
0.000000 -0.000000 0.000000 
0.000000 0.000000 0.000000 

0.000000 -0.000000 0.000000 
0.000000 0.000000 0.000000 
0.000000 0.000000 0.000000 

0.000000 -0.000000 0.000000 
0.000000 0.000000 0.000000 
0.000000 0.000000 0.000000 

-0.000000 -0.000000 0.000000 
0.000000 -0.000000 0.000000 
0.000000 0.000000 0.000000 

-0.000000 0.000000 0.000000 
0.000000 -0.000000 0.000000 
0.000000 0.000000 0.000000 

0.000000 -0.000000 0.000000 
0.000000 0.000000 0.000000 
0.000000 0.000000 0.000000 

-0.000000 0.000000 0.000000 
0.000000 -0.000000 0.000000 
0.000000 0.000000 0.000000 

-0.000000 0.000000 0.000000 
0.000000 -0.000000 0.000000 
0.000000 0.000000 0.000000 

0.000000 0.000000 0.000000 
0.000000 0.000000 0.000000 
0.000000 0.000000 0.000000 

0.000000 -0.000000 0.000000 
0.000000 0.000000 0.000000 
0.000000 0.000000 0.000000 

0.000000 0.000000 0.000000 
0.000000 0.000000 0.000000 
0.000000 0.000000 0.000000 

0.000000 0.000000 0.000000 
0.000000 0.000000 0.000000 
0.000000 0.000000 0.000000 

-0.000000 0.000000 0.000000 
0.000000 -0.000000 0.000000 
0.000000 0.000000 0.000000 

-0.000000 0.000000 0.000000 
0.000000 -0.000000 0.000000 
0.000000 0.000000 0.000000 

0.000000 0.000000 0.000000 
0.000000 0.000000 0.000000 
0.000000 0.000000 0.000000 

0.000000 -0.000000 0.000000 
0.000000 0.000000 0.000000 
0.000000 0.000000 0.000000 

-0.000000 0.000000 0.000000 
0.000000 -0.000000 0.000000 
0.000000 0.000000 0.000000 

0.000000 -0.000000 0.000000 
0.000000 0.000000 0.000000 
0.000000 0.000000 0.000000 

-0.000000 -0.000000 0.000000 
0.000000 -0.000000 0.000000 
0.000000 0.000000 0.000000 

-0.000000 0.000000 0.000000 
0.000000 -0.000000 0.000000 
0.000000 0.000000 0.000000 

-0.000000 -0.000000 0.000000 
0.000000 -0.000000 0.000000 
0.000000 0.000000 0.000000 

0.000000 -0.000000 0.000000 
0.000000 0.000000 0.000000 
0.000000 0.000000 0.000000 

0.000000 -0.000000 0.000000 
0.000000 0.000000 0.000000 
0.000000 0.000000 0.000000 

-0.000000 -0.000000 0.000000 
0.000000 -0.000000 0.000000 
0.000000 0.000000 0.000000 

0.000000 0.000000 0.000000 
0.000000 -0.000000 0.000000 
0.000000 0.000000 0.000000 

-0.000000 0.000000 0.000000 
0.000000 -0.000000 0.000000 
0.000000 0.000000 0.000000 

-0.000000 -0.000000 0.000000 
0.000000 -0.000000 0.000000 
0.000000 0.000000 0.000000 

0.000000 -0.000000 0.000000 
0.000000 0.000000 0.000000 
0.000000 0.000000 0.000000 

-0.000000 0.000000 0.000000 
0.000000 -0.000000 0.000000 
0.000000 0.000000 0.000000 

-0.000000 0.000000 0.000000 
0.000000 -0.000000 0.000000 
0.000000 0.000000 0.000000 

0.000000 -0.000000 0.000000 
0.000000 0.000000 0.000000 
0.000000 0.000000 0.000000 

0.000000 -0.000000 0.000000 
0.000000 0.000000 0.000000 
0.000000 0.000000 0.000000 

-0.000000 0.000000 0.000000 
0.000000 -0.000000 0.000000 
0.000000 0.000000 0.000000 

0.000000 -0.000000 0.000000 
0.000000 0.000000 0.000000 
0.000000 0.000000 0.000000 

0.000000 -0.000000 0.000000 
0.000000 0.000000 0.000000 
0.000000 0.000000 0.000000 

-0.000000 0.000000 0.000000 
0.000000 -0.000000 0.000000 
0.000000 0.000000 0.000000 

0.000000 0.000000 0.000000 
0.000000 0.000000 0.000000 
0.000000 0.000000 0.000000 

0.000000 -0.000000 0.000000 
0.000000 -0.000000 0.000000 
0.000000 0.000000 0.000000 

-0.000000 0.000000 0.000000 
0.000000 -0.000000 0.000000 
0.000000 0.000000 0.000000 

0.000000 0.000000 0.000000 
0.000000 0.000000 0.000000 
0.000000 0.000000 0.000000 

-0.000000 -0.000000 0.000000 
0.000000 0.000000 0.000000 
0.000000 0.000000 0.000000 

0.000000 -0.000000 0.000000 
0.000000 0.000000 0.000000 
0.000000 0.000000 0.000000 

0.000000 -0.000000 0.000000 
0.000000 0.000000 0.000000 
0.000000 0.000000 0.000000 

-0.000000 -0.000000 0.000000 
0.000000 -0.000000 0.000000 
0.000000 0.000000 0.000000 

0.000000 -0.000000 0.000000 
0.000000 -0.000000 0.000000 
0.000000 0.000000 0.000000 

-0.000000 -0.000000 0.000000 
0.000000 -0.000000 0.000000 
0.000000 0.000000 0.000000 

-0.000000 -0.000000 0.000000 
0.000000 -0.000000 0.000000 
0.000000 0.000000 0.000000 

-0.000000 -0.000000 0.000000 
0.000000 -0.000000 0.000000 
0.000000 0.000000 0.000000 

TENSORS STRAIN float 
0.000000 -0.000000 0.000000 
0.000000 -0.000000 0.000000 
0.000000 0.000000 0.000000 

-0.000000 0.000000 0.000000 
0.000000 0.000000 0.000000 
0.000000 0.000000 0.000000 

0.000000 0.000000 0.000000 
0.000000 -0.000000 0.000000 
0.000000 0.000000 0.000000 

0.000000 0.000000 0.000000 
0.000000 -0.000000 0.000000 
0.000000 0.000000 0.000000 

-0.000000 0.000000 0.000000 
0.000000 0.000000 0.000000 
0.000000 0.000000 0.000000 

-0.000000 0.000000 0.000000 
0.000000 0.000000 0.000000 
0.000000 0.000000 0.000000 

-0.000000 -0.000000 0.000000 
0.000000 0.000000 0.000000 
0.000000 0.000000 0.000000 

0.000000 0.000000 0.000000 
0.000000 -0.000000 0.000000 
0.000000 0.000000 0.000000 

0.000000 -0.000000 0.000000 
0.000000 -0.000000 0.000000 
0.000000 0.000000 0.000000 

-0.000000 -0.000000 0.000000 
0.000000 0.000000 0.000000 
0.000000 0.000000 0.000000 

-0.000000 -0.000000 0.000000 
0.000000 0.000000 0.000000 
0.000000 0.000000 0.000000 

-0.000000 -0.000000 0.000000 
0.000000 0.000000 0.000000 
0.000000 0.000000 0.000000 

-0.000000 -0.000000 0.000000 
0.000000 0.000000 0.000000 
0.000000 0.000000 0.000000 

-0.000000 0.000000 0.000000 
0.000000 0.000000 0.000000 
0.000000 0.000000 0.000000 

0.000000 0.000000 0.000000 
0.000000 -0.000000 0.000000 
0.000000 0.000000 0.000000 

0.000000 0.000000 0.000000 
0.000000 -0.000000 0.000000 
0.000000 0.000000 0.000000 

-0.000000 0.000000 0.000000 
0.000000 -0.000000 0.000000 
0.000000 0.000000 0.000000 

-0.000000 0.000000 0.000000 
0.000000 0.000000 0.000000 
0.000000 0.000000 0.000000 

0.000000 0.000000 0.000000 
0.000000 0.000000 0.000000 
0.000000 0.000000 0.000000 

-0.000000 -0.000000 0.000000 
0.000000 0.000000 0.000000 
0.000000 0.000000 0.000000 

-0.000000 -0.000000 0.000000 
0.000000 0.000000 0.000000 
0.000000 0.000000 0.000000 

-0.000000 -0.000000 0.000000 
0.000000 0.000000 0.000000 
0.000000 0.000000 0.000000 

0.000000 0.000000 0.000000 
0.000000 0.000000 0.000000 
0.000000 0.000000 0.000000 

-0.000000 0.000000 0.000000 
0.000000 0.000000 0.000000 
0.000000 0.000000 0.000000 

-0.000000 0.000000 0.000000 
0.000000 0.000000 0.000000 
0.000000 0.000000 0.000000 

0.000000 0.000000 0.000000 
0.000000 -0.000000 0.000000 
0.000000 0.000000 0.000000 

-0.000000 0.000000 0.000000 
0.000000 -0.000000 0.000000 
0.000000 0.000000 0.000000 

-0.000000 -0.000000 0.000000 
0.000000 0.000000 0.000000 
0.000000 0.000000 0.000000 

-0.000000 -0.000000 0.000000 
0.000000 -0.000000 0.000000 
0.000000 0.000000 0.000000 

0.000000 -0.000000 0.000000 
0.000000 -0.000000 0.000000 
0.000000 0.000000 0.000000 

-0.000000 -0.000000 0.000000 
0.000000 0.000000 0.000000 
0.000000 0.000000 0.000000 

0.000000 -0.000000 0.000000 
0.000000 -0.000000 0.000000 
0.000000 0.000000 0.000000 

-0.000000 0.000000 0.000000 
0.000000 0.000000 0.000000 
0.000000 0.000000 0.000000 

-0.000000 0.000000 0.000000 
0.000000 -0.000000 0.000000 
0.000000 0.000000 0.000000 

0.000000 -0.000000 0.000000 
0.000000 -0.000000 0.000000 
0.000000 0.000000 0.000000 

0.000000 -0.000000 0.000000 
0.000000 0.000000 0.000000 
0.000000 0.000000 0.000000 

0.000000 -0.000000 0.000000 
0.000000 -0.000000 0.000000 
0.000000 0.000000 0.000000 

0.000000 -0.000000 0.000000 
0.000000 -0.000000 0.000000 
0.000000 0.000000 0.000000 

-0.000000 -0.000000 0.000000 
0.000000 0.000000 0.000000 
0.000000 0.000000 0.000000 

-0.000000 0.000000 0.000000 
0.000000 0.000000 0.000000 
0.000000 0.000000 0.000000 

-0.000000 0.000000 0.000000 
0.000000 0.000000 0.000000 
0.000000 0.000000 0.000000 

-0.000000 -0.000000 0.000000 
0.000000 -0.000000 0.000000 
0.000000 0.000000 0.000000 

-0.000000 -0.000000 0.000000 
0.000000 0.000000 0.000000 
0.000000 0.000000 0.000000 

0.000000 -0.000000 0.000000 
0.000000 -0.000000 0.000000 
0.000000 0.000000 0.000000 

-0.000000 0.000000 0.000000 
0.000000 0.000000 0.000000 
0.000000 0.000000 0.000000 

-0.000000 0.000000 0.000000 
0.000000 0.000000 0.000000 
0.000000 0.000000 0.000000 

-0.000000 -0.000000 0.000000 
0.000000 0.000000 0.000000 
0.000000 0.000000 0.000000 

-0.000000 -0.000000 0.000000 
0.000000 0.000000 0.000000 
0.000000 0.000000 0.000000 

-0.000000 0.000000 0.000000 
0.000000 -0.000000 0.000000 
0.000000 0.000000 0.000000 

-0.000000 -0.000000 0.000000 
0.000000 0.000000 0.000000 
0.000000 0.000000 0.000000 

0.000000 -0.000000 0.000000 
0.000000 0.000000 0.000000 
0.000000 0.000000 0.000000 

0.000000 -0.000000 0.000000 
0.000000 -0.000000 0.000000 
0.000000 0.000000 0.000000 

-0.000000 0.000000 0.000000 
0.000000 -0.000000 0.000000 
0.000000 0.000000 0.000000 

-0.000000 -0.000000 0.000000 
0.000000 -0.000000 0.000000 
0.000000 0.000000 0.000000 

-0.000000 0.000000 0.000000 
0.000000 0.000000 0.000000 
0.000000 0.000000 0.000000 

0.000000 0.000000 0.000000 
0.000000 -0.000000 0.000000 
0.000000 0.000000 0.000000 

0.000000 0.000000 0.000000 
0.000000 -0.000000 0.000000 
0.000000 0.000000 0.000000 

-0.000000 0.000000 0.000000 
0.000000 0.000000 0.000000 
0.000000 0.000000 0.000000 

0.000000 -0.000000 0.000000 
0.000000 -0.000000 0.000000 
0.000000 0.000000 0.000000 

0.000000 0.000000 0.000000 
0.000000 0.000000 0.000000 
0.000000 0.000000 0.000000 

-0.000000 0.000000 0.000000 
0.000000 0.000000 0.000000 
0.000000 0.000000 0.000000 

-0.000000 -0.000000 0.000000 
0.000000 0.000000 0.000000 
0.000000 0.000000 0.000000 

-0.000000 -0.000000 0.000000 
0.000000 0.000000 0.000000 
0.000000 0.000000 0.000000 

-0.000000 -0.000000 0.000000 
0.000000 0.000000 0.000000 
0.000000 0.000000 0.000000 

-0.000000 0.000000 0.000000 
0.000000 0.000000 0.000000 
0.000000 0.000000 0.000000 

0.000000 -0.000000 0.000000 
0.000000 0.000000 0.000000 
0.000000 0.000000 0.000000 

0.000000 -0.000000 0.000000 
0.000000 -0.000000 0.000000 
0.000000 0.000000 0.000000 

0.000000 0.000000 0.000000 
0.000000 -0.000000 0.000000 
0.000000 0.000000 0.000000 

0.000000 0.000000 0.000000 
0.000000 -0.000000 0.000000 
0.000000 0.000000 0.000000 

0.000000 0.000000 0.000000 
0.000000 -0.000000 0.000000 
0.000000 0.000000 0.000000 

0.000000 0.000000 0.000000 
0.000000 -0.000000 0.000000 
0.000000 0.000000 0.000000 

-0.000000 -0.000000 0.000000 
0.000000 -0.000000 0.000000 
0.000000 0.000000 0.000000 

-0.000000 0.000000 0.000000 
0.000000 0.000000 0.000000 
0.000000 0.000000 0.000000 

-0.000000 0.000000 0.000000 
0.000000 0.000000 0.000000 
0.000000 0.000000 0.000000 

-0.000000 -0.000000 0.000000 
0.000000 0.000000 0.000000 
0.000000 0.000000 0.000000 

0.000000 -0.000000 0.000000 
0.000000 0.000000 0.000000 
0.000000 0.000000 0.000000 

0.000000 0.000000 0.000000 
0.000000 0.000000 0.000000 
0.000000 0.000000 0.000000 

0.000000 -0.000000 0.000000 
0.000000 -0.000000 0.000000 
0.000000 0.000000 0.000000 

0.000000 0.000000 0.000000 
0.000000 0.000000 0.000000 
0.000000 0.000000 0.000000 

0.000000 -0.000000 0.000000 
0.000000 -0.000000 0.000000 
0.000000 0.000000 0.000000 

0.000000 -0.000000 0.000000 
0.000000 -0.000000 0.000000 
0.000000 0.000000 0.000000 

0.000000 -0.000000 0.000000 
0.000000 -0.000000 0.000000 
0.000000 0.000000 0.000000 

0.000000 0.000000 0.000000 
0.000000 -0.000000 0.000000 
0.000000 0.000000 0.000000 

-0.000000 0.000000 0.000000 
0.000000 -0.000000 0.000000 
0.000000 0.000000 0.000000 

0.000000 0.000000 0.000000 
0.000000 -0.000000 0.000000 
0.000000 0.000000 0.000000 

0.000000 -0.000000 0.000000 
0.000000 0.000000 0.000000 
0.000000 0.000000 0.000000 

0.000000 -0.000000 0.000000 
0.000000 0.000000 0.000000 
0.000000 0.000000 0.000000 

0.000000 -0.000000 0.000000 
0.000000 -0.000000 0.000000 
0.000000 0.000000 0.000000 

0.000000 -0.000000 0.000000 
0.000000 -0.000000 0.000000 
0.000000 0.000000 0.000000 

0.000000 -0.000000 0.000000 
0.000000 0.000000 0.000000 
0.000000 0.000000 0.000000 

0.000000 0.000000 0.000000 
0.000000 -0.000000 0.000000 
0.000000 0.000000 0.000000 

0.000000 -0.000000 0.000000 
0.000000 0.000000 0.000000 
0.000000 0.000000 0.000000 

0.000000 -0.000000 0.000000 
0.000000 -0.000000 0.000000 
0.000000 0.000000 0.000000 

0.000000 0.000000 0.000000 
0.000000 -0.000000 0.000000 
0.000000 0.000000 0.000000 

-0.000000 -0.000000 0.000000 
0.000000 0.000000 0.000000 
0.000000 0.000000 0.000000 

-0.000000 0.000000 0.000000 
0.000000 0.000000 0.000000 
0.000000 0.000000 0.000000 

-0.000000 -0.000000 0.000000 
0.000000 0.000000 0.000000 
0.000000 0.000000 0.000000 

0.000000 -0.000000 0.000000 
0.000000 0.000000 0.000000 
0.000000 0.000000 0.000000 

0.000000 -0.000000 0.000000 
0.000000 -0.000000 0.000000 
0.000000 0.000000 0.000000 

0.000000 -0.000000 0.000000 
0.000000 -0.000000 0.000000 
0.000000 0.000000 0.000000 

0.000000 -0.000000 0.000000 
0.000000 0.000000 0.000000 
0.000000 0.000000 0.000000 

-0.000000 -0.000000 0.000000 
0.000000 -0.000000 0.000000 
0.000000 0.000000 0.000000 

-0.000000 -0.000000 0.000000 
0.000000 0.000000 0.000000 
0.000000 0.000000 0.000000 

-0.000000 -0.000000 0.000000 
0.000000 0.000000 0.000000 
0.000000 0.000000 0.000000 

-0.000000 0.000000 0.000000 
0.000000 0.000000 0.000000 
0.000000 0.000000 0.000000 

-0.000000 -0.000000 0.000000 
0.000000 0.000000 0.000000 
0.000000 0.000000 0.000000 

-0.000000 -0.000000 0.000000 
0.000000 0.000000 0.000000 
0.000000 0.000000 0.000000 

-0.000000 -0.000000 0.000000 
0.000000 0.000000 0.000000 
0.000000 0.000000 0.000000 

0.000000 -0.000000 0.000000 
0.000000 0.000000 0.000000 
0.000000 0.000000 0.000000 

0.000000 0.000000 0.000000 
0.000000 -0.000000 0.000000 
0.000000 0.000000 0.000000 

0.000000 0.000000 0.000000 
0.000000 -0.000000 0.000000 
0.000000 0.000000 0.000000 

-0.000000 -0.000000 0.000000 
0.000000 0.000000 0.000000 
0.000000 0.000000 0.000000 

-0.000000 0.000000 0.000000 
0.000000 0.000000 0.000000 
0.000000 0.000000 0.000000 

-0.000000 -0.000000 0.000000 
0.000000 0.000000 0.000000 
0.000000 0.000000 0.000000 

0.000000 -0.000000 0.000000 
0.000000 0.000000 0.000000 
0.000000 0.000000 0.000000 

0.000000 0.000000 0.000000 
0.000000 0.000000 0.000000 
0.000000 0.000000 0.000000 

-0.000000 -0.000000 0.000000 
0.000000 0.000000 0.000000 
0.000000 0.000000 0.000000 

-0.000000 -0.000000 0.000000 
0.000000 0.000000 0.000000 
0.000000 0.000000 0.000000 

-0.000000 -0.000000 0.000000 
0.000000 0.000000 0.000000 
0.000000 0.000000 0.000000 

-0.000000 -0.000000 0.000000 
0.000000 0.000000 0.000000 
0.000000 0.000000 0.000000 

-0.000000 0.000000 0.000000 
0.000000 -0.000000 0.000000 
0.000000 0.000000 0.000000 

-0.000000 0.000000 0.000000 
0.000000 0.000000 0.000000 
0.000000 0.000000 0.000000 

-0.000000 0.000000 0.000000 
0.000000 0.000000 0.000000 
0.000000 0.000000 0.000000 

-0.000000 -0.000000 0.000000 
0.000000 0.000000 0.000000 
0.000000 0.000000 0.000000 

0.000000 0.000000 0.000000 
0.000000 -0.000000 0.000000 
0.000000 0.000000 0.000000 

0.000000 0.000000 0.000000 
0.000000 0.000000 0.000000 
0.000000 0.000000 0.000000 

0.000000 -0.000000 0.000000 
0.000000 -0.000000 0.000000 
0.000000 0.000000 0.000000 

0.000000 -0.000000 0.000000 
0.000000 -0.000000 0.000000 
0.000000 0.000000 0.000000 

0.000000 -0.000000 0.000000 
0.000000 0.000000 0.000000 
0.000000 0.000000 0.000000 

0.000000 -0.000000 0.000000 
0.000000 0.000000 0.000000 
0.000000 0.000000 0.000000 

0.000000 -0.000000 0.000000 
0.000000 -0.000000 0.000000 
0.000000 0.000000 0.000000 

0.000000 0.000000 0.000000 
0.000000 -0.000000 0.000000 
0.000000 0.000000 0.000000 

0.000000 -0.000000 0.000000 
0.000000 -0.000000 0.000000 
0.000000 0.000000 0.000000 

0.000000 0.000000 0.000000 
0.000000 -0.000000 0.000000 
0.000000 0.000000 0.000000 

0.000000 0.000000 0.000000 
0.000000 -0.000000 0.000000 
0.000000 0.000000 0.000000 

0.000000 0.000000 0.000000 
0.000000 0.000000 0.000000 
0.000000 0.000000 0.000000 

0.000000 -0.000000 0.000000 
0.000000 -0.000000 0.000000 
0.000000 0.000000 0.000000 

0.000000 0.000000 0.000000 
0.000000 -0.000000 0.000000 
0.000000 0.000000 0.000000 

0.000000 0.000000 0.000000 
0.000000 -0.000000 0.000000 
0.000000 0.000000 0.000000 

0.000000 0.000000 0.000000 
0.000000 -0.000000 0.000000 
0.000000 0.000000 0.000000 

0.000000 0.000000 0.000000 
0.000000 -0.000000 0.000000 
0.000000 0.000000 0.000000 

-0.000000 0.000000 0.000000 
0.000000 0.000000 0.000000 
0.000000 0.000000 0.000000 

0.000000 -0.000000 0.000000 
0.000000 0.000000 0.000000 
0.000000 0.000000 0.000000 

-0.000000 0.000000 0.000000 
0.000000 0.000000 0.000000 
0.000000 0.000000 0.000000 

0.000000 -0.000000 0.000000 
0.000000 0.000000 0.000000 
0.000000 0.000000 0.000000 

0.000000 -0.000000 0.000000 
0.000000 -0.000000 0.000000 
0.000000 0.000000 0.000000 

-0.000000 0.000000 0.000000 
0.000000 -0.000000 0.000000 
0.000000 0.000000 0.000000 

-0.000000 -0.000000 0.000000 
0.000000 -0.000000 0.000000 
0.000000 0.000000 0.000000 

-0.000000 -0.000000 0.000000 
0.000000 0.000000 0.000000 
0.000000 0.000000 0.000000 

0.000000 -0.000000 0.000000 
0.000000 0.000000 0.000000 
0.000000 0.000000 0.000000 

0.000000 -0.000000 0.000000 
0.000000 -0.000000 0.000000 
0.000000 0.000000 0.000000 

0.000000 0.000000 0.000000 
0.000000 -0.000000 0.000000 
0.000000 0.000000 0.000000 

0.000000 0.000000 0.000000 
0.000000 -0.000000 0.000000 
0.000000 0.000000 0.000000 

0.000000 -0.000000 0.000000 
0.000000 -0.000000 0.000000 
0.000000 0.000000 0.000000 

0.000000 -0.000000 0.000000 
0.000000 -0.000000 0.000000 
0.000000 0.000000 0.000000 

0.000000 0.000000 0.000000 
0.000000 -0.000000 0.000000 
0.000000 0.000000 0.000000 

0.000000 0.000000 0.000000 
0.000000 -0.000000 0.000000 
0.000000 0.000000 0.000000 

0.000000 -0.000000 0.000000 
0.000000 0.000000 0.000000 
0.000000 0.000000 0.000000 

0.000000 -0.000000 0.000000 
0.000000 0.000000 0.000000 
0.000000 0.000000 0.000000 

0.000000 0.000000 0.000000 
0.000000 -0.000000 0.000000 
0.000000 0.000000 0.000000 

0.000000 -0.000000 0.000000 
0.000000 -0.000000 0.000000 
0.000000 0.000000 0.000000 

0.000000 -0.000000 0.000000 
0.000000 -0.000000 0.000000 
0.000000 0.000000 0.000000 

0.000000 0.000000 0.000000 
0.000000 -0.000000 0.000000 
0.000000 0.000000 0.000000 

0.000000 0.000000 0.000000 
0.000000 0.000000 0.000000 
0.000000 0.000000 0.000000 

0.000000 -0.000000 0.000000 
0.000000 -0.000000 0.000000 
0.000000 0.000000 0.000000 

-0.000000 0.000000 0.000000 
0.000000 -0.000000 0.000000 
0.000000 0.000000 0.000000 

-0.000000 0.000000 0.000000 
0.000000 0.000000 0.000000 
0.000000 0.000000 0.000000 

-0.000000 -0.000000 0.000000 
0.000000 0.000000 0.000000 
0.000000 0.000000 0.000000 

-0.000000 -0.000000 0.000000 
0.000000 0.000000 0.000000 
0.000000 0.000000 0.000000 

0.000000 -0.000000 0.000000 
0.000000 -0.000000 0.000000 
0.000000 0.000000 0.000000 

0.000000 -0.000000 0.000000 
0.000000 -0.000000 0.000000 
0.000000 0.000000 0.000000 

0.000000 -0.000000 0.000000 
0.000000 -0.000000 0.000000 
0.000000 0.000000 0.000000 

-0.000000 -0.000000 0.000000 
0.000000 -0.000000 0.000000 
0.000000 0.000000 0.000000 

-0.000000 -0.000000 0.000000 
0.000000 -0.000000 0.000000 
0.000000 0.000000 0.000000 

-0.000000 -0.000000 0.000000 
0.000000 -0.000000 0.000000 
0.000000 0.000000 0.000000 

