# vtk DataFile Version 3.0 
vtk output 
ASCII 
DATASET UNSTRUCTURED_GRID 
POINTS 175 float 
-0.026061 -1.369303 0.000000 
-0.106992 -1.301248 0.000000 
-0.054870 -1.309481 0.000000 
-0.028809 -1.263597 0.000000 
-0.186430 -1.237172 0.000000 
-0.137056 -1.239699 0.000000 
-0.114311 -1.186051 0.000000 
-0.058186 -1.201717 0.000000 
-0.029377 -1.161540 0.000000 
-0.265318 -1.174017 0.000000 
-0.217198 -1.174816 0.000000 
-0.196633 -1.117520 0.000000 
-0.143120 -1.126228 0.000000 
-0.116563 -1.078960 0.000000 
-0.058945 -1.098606 0.000000 
-0.029568 -1.060485 0.000000 
-0.344206 -1.110861 0.000000 
-0.296791 -1.110854 0.000000 
-0.278030 -1.050911 0.000000 
-0.225992 -1.056777 0.000000 
-0.201664 -1.004660 0.000000 
-0.145749 -1.018134 0.000000 
-0.117890 -0.973791 0.000000 
-0.059328 -0.996497 0.000000 
-0.029759 -0.959431 0.000000 
-0.058559 -1.410054 0.000000 
-0.162226 -1.430897 0.000000 
-0.123292 -1.395279 0.000000 
-0.142917 -1.346296 0.000000 
-0.261851 -1.453053 0.000000 
-0.229092 -1.416026 0.000000 
-0.256854 -1.364794 0.000000 
-0.209613 -1.330682 0.000000 
-0.223062 -1.283108 0.000000 
-0.360414 -1.475353 0.000000 
-0.329787 -1.438230 0.000000 
-0.361761 -1.386428 0.000000 
-0.321587 -1.350019 0.000000 
-0.341985 -1.299785 0.000000 
-0.290702 -1.266986 0.000000 
-0.302189 -1.220251 0.000000 
-0.458977 -1.497653 0.000000 
-0.429420 -1.460579 0.000000 
-0.464588 -1.408537 0.000000 
-0.427556 -1.371509 0.000000 
-0.453135 -1.319995 0.000000 
-0.407738 -1.284679 0.000000 
-0.425037 -1.235251 0.000000 
-0.370772 -1.203622 0.000000 
-0.381315 -1.157395 0.000000 
-0.046960 -1.460869 0.000000 
-0.095301 -1.554915 0.000000 
-0.098873 -1.502268 0.000000 
-0.149405 -1.487070 0.000000 
-0.140093 -1.646619 0.000000 
-0.148617 -1.597921 0.000000 
-0.205981 -1.587684 0.000000 
-0.203197 -1.529480 0.000000 
-0.248777 -1.510334 0.000000 
-0.184111 -1.737583 0.000000 
-0.194039 -1.690492 0.000000 
-0.254475 -1.683192 0.000000 
-0.257893 -1.629082 0.000000 
-0.309886 -1.613710 0.000000 
-0.303554 -1.553165 0.000000 
-0.347255 -1.533007 0.000000 
-0.228129 -1.828546 0.000000 
-0.238687 -1.782322 0.000000 
-0.301302 -1.777370 0.000000 
-0.307162 -1.725331 0.000000 
-0.363386 -1.713210 0.000000 
-0.362692 -1.655699 0.000000 
-0.412122 -1.638406 0.000000 
-0.403017 -1.576259 0.000000 
-0.445733 -1.555680 0.000000 
-0.000000 -1.483484 0.000000 
0.043388 -1.579915 0.000000 
-0.000000 -1.549882 0.000000 
-0.043388 -1.579915 0.000000 
0.087158 -1.672111 0.000000 
0.043769 -1.648413 0.000000 
-0.000000 -1.686879 0.000000 
-0.043769 -1.648413 0.000000 
-0.087158 -1.672111 0.000000 
0.130831 -1.763241 0.000000 
0.087824 -1.741642 0.000000 
0.044436 -1.784342 0.000000 
-0.000000 -1.753277 0.000000 
-0.044436 -1.784342 0.000000 
-0.087824 -1.741642 0.000000 
-0.130831 -1.763241 0.000000 
0.174505 -1.854371 0.000000 
0.131782 -1.833805 0.000000 
0.088871 -1.879671 0.000000 
0.044532 -1.851807 0.000000 
-0.000000 -1.888208 0.000000 
-0.044532 -1.851807 0.000000 
-0.088871 -1.879671 0.000000 
-0.131782 -1.833805 0.000000 
-0.174505 -1.854371 0.000000 
0.046960 -1.460869 0.000000 
0.149405 -1.487070 0.000000 
0.098873 -1.502268 0.000000 
0.095301 -1.554915 0.000000 
0.248777 -1.510334 0.000000 
0.203197 -1.529480 0.000000 
0.205981 -1.587684 0.000000 
0.148617 -1.597921 0.000000 
0.140093 -1.646619 0.000000 
0.347255 -1.533007 0.000000 
0.303554 -1.553165 0.000000 
0.309886 -1.613710 0.000000 
0.257893 -1.629082 0.000000 
0.254475 -1.683192 0.000000 
0.194039 -1.690492 0.000000 
0.184111 -1.737583 0.000000 
0.445733 -1.555680 0.000000 
0.403017 -1.576259 0.000000 
0.412122 -1.638406 0.000000 
0.362692 -1.655699 0.000000 
0.363386 -1.713210 0.000000 
0.307162 -1.725331 0.000000 
0.301302 -1.777370 0.000000 
0.238687 -1.782322 0.000000 
0.228129 -1.828546 0.000000 
0.058559 -1.410054 0.000000 
0.142917 -1.346296 0.000000 
0.123292 -1.395279 0.000000 
0.162226 -1.430897 0.000000 
0.223062 -1.283108 0.000000 
0.209613 -1.330682 0.000000 
0.256854 -1.364794 0.000000 
0.229092 -1.416026 0.000000 
0.261851 -1.453053 0.000000 
0.302189 -1.220251 0.000000 
0.290702 -1.266986 0.000000 
0.341985 -1.299785 0.000000 
0.321587 -1.350019 0.000000 
0.361761 -1.386428 0.000000 
0.329787 -1.438230 0.000000 
0.360414 -1.475353 0.000000 
0.381315 -1.157395 0.000000 
0.370772 -1.203622 0.000000 
0.425037 -1.235251 0.000000 
0.407738 -1.284679 0.000000 
0.453135 -1.319995 0.000000 
0.427556 -1.371509 0.000000 
0.464588 -1.408537 0.000000 
0.429420 -1.460579 0.000000 
0.458977 -1.497653 0.000000 
0.026061 -1.369303 0.000000 
0.028809 -1.263597 0.000000 
0.054870 -1.309481 0.000000 
0.106992 -1.301248 0.000000 
0.029377 -1.161540 0.000000 
0.058186 -1.201717 0.000000 
0.114311 -1.186051 0.000000 
0.137056 -1.239699 0.000000 
0.186430 -1.237172 0.000000 
0.029568 -1.060485 0.000000 
0.058945 -1.098606 0.000000 
0.116563 -1.078960 0.000000 
0.143120 -1.126228 0.000000 
0.196633 -1.117520 0.000000 
0.217198 -1.174816 0.000000 
0.265318 -1.174017 0.000000 
0.029759 -0.959431 0.000000 
0.059328 -0.996497 0.000000 
0.117890 -0.973791 0.000000 
0.145749 -1.018134 0.000000 
0.201664 -1.004660 0.000000 
0.225992 -1.056777 0.000000 
0.278030 -1.050911 0.000000 
0.296791 -1.110854 0.000000 
0.344206 -1.110861 0.000000 
CELLS 175 350 
1 0 
1 1 
1 2 
1 3 
1 4 
1 5 
1 6 
1 7 
1 8 
1 9 
1 10 
1 11 
1 12 
1 13 
1 14 
1 15 
1 16 
1 17 
1 18 
1 19 
1 20 
1 21 
1 22 
1 23 
1 24 
1 25 
1 26 
1 27 
1 28 
1 29 
1 30 
1 31 
1 32 
1 33 
1 34 
1 35 
1 36 
1 37 
1 38 
1 39 
1 40 
1 41 
1 42 
1 43 
1 44 
1 45 
1 46 
1 47 
1 48 
1 49 
1 50 
1 51 
1 52 
1 53 
1 54 
1 55 
1 56 
1 57 
1 58 
1 59 
1 60 
1 61 
1 62 
1 63 
1 64 
1 65 
1 66 
1 67 
1 68 
1 69 
1 70 
1 71 
1 72 
1 73 
1 74 
1 75 
1 76 
1 77 
1 78 
1 79 
1 80 
1 81 
1 82 
1 83 
1 84 
1 85 
1 86 
1 87 
1 88 
1 89 
1 90 
1 91 
1 92 
1 93 
1 94 
1 95 
1 96 
1 97 
1 98 
1 99 
1 100 
1 101 
1 102 
1 103 
1 104 
1 105 
1 106 
1 107 
1 108 
1 109 
1 110 
1 111 
1 112 
1 113 
1 114 
1 115 
1 116 
1 117 
1 118 
1 119 
1 120 
1 121 
1 122 
1 123 
1 124 
1 125 
1 126 
1 127 
1 128 
1 129 
1 130 
1 131 
1 132 
1 133 
1 134 
1 135 
1 136 
1 137 
1 138 
1 139 
1 140 
1 141 
1 142 
1 143 
1 144 
1 145 
1 146 
1 147 
1 148 
1 149 
1 150 
1 151 
1 152 
1 153 
1 154 
1 155 
1 156 
1 157 
1 158 
1 159 
1 160 
1 161 
1 162 
1 163 
1 164 
1 165 
1 166 
1 167 
1 168 
1 169 
1 170 
1 171 
1 172 
1 173 
1 174 
CELL_TYPES 175 
1 
1 
1 
1 
1 
1 
1 
1 
1 
1 
1 
1 
1 
1 
1 
1 
1 
1 
1 
1 
1 
1 
1 
1 
1 
1 
1 
1 
1 
1 
1 
1 
1 
1 
1 
1 
1 
1 
1 
1 
1 
1 
1 
1 
1 
1 
1 
1 
1 
1 
1 
1 
1 
1 
1 
1 
1 
1 
1 
1 
1 
1 
1 
1 
1 
1 
1 
1 
1 
1 
1 
1 
1 
1 
1 
1 
1 
1 
1 
1 
1 
1 
1 
1 
1 
1 
1 
1 
1 
1 
1 
1 
1 
1 
1 
1 
1 
1 
1 
1 
1 
1 
1 
1 
1 
1 
1 
1 
1 
1 
1 
1 
1 
1 
1 
1 
1 
1 
1 
1 
1 
1 
1 
1 
1 
1 
1 
1 
1 
1 
1 
1 
1 
1 
1 
1 
1 
1 
1 
1 
1 
1 
1 
1 
1 
1 
1 
1 
1 
1 
1 
1 
1 
1 
1 
1 
1 
1 
1 
1 
1 
1 
1 
1 
1 
1 
1 
1 
1 
1 
1 
1 
1 
1 
1 
POINT_DATA 175 
VECTORS X_GC float 
-0.026061 -1.369303 0.000000 
-0.106992 -1.301248 0.000000 
-0.054870 -1.309481 0.000000 
-0.028809 -1.263597 0.000000 
-0.186430 -1.237172 0.000000 
-0.137056 -1.239699 0.000000 
-0.114311 -1.186051 0.000000 
-0.058186 -1.201717 0.000000 
-0.029377 -1.161540 0.000000 
-0.265318 -1.174017 0.000000 
-0.217198 -1.174816 0.000000 
-0.196633 -1.117520 0.000000 
-0.143120 -1.126228 0.000000 
-0.116563 -1.078960 0.000000 
-0.058945 -1.098606 0.000000 
-0.029568 -1.060485 0.000000 
-0.344206 -1.110861 0.000000 
-0.296791 -1.110854 0.000000 
-0.278030 -1.050911 0.000000 
-0.225992 -1.056777 0.000000 
-0.201664 -1.004660 0.000000 
-0.145749 -1.018134 0.000000 
-0.117890 -0.973791 0.000000 
-0.059328 -0.996497 0.000000 
-0.029759 -0.959431 0.000000 
-0.058559 -1.410054 0.000000 
-0.162226 -1.430897 0.000000 
-0.123292 -1.395279 0.000000 
-0.142917 -1.346296 0.000000 
-0.261851 -1.453053 0.000000 
-0.229092 -1.416026 0.000000 
-0.256854 -1.364794 0.000000 
-0.209613 -1.330682 0.000000 
-0.223062 -1.283108 0.000000 
-0.360414 -1.475353 0.000000 
-0.329787 -1.438230 0.000000 
-0.361761 -1.386428 0.000000 
-0.321587 -1.350019 0.000000 
-0.341985 -1.299785 0.000000 
-0.290702 -1.266986 0.000000 
-0.302189 -1.220251 0.000000 
-0.458977 -1.497653 0.000000 
-0.429420 -1.460579 0.000000 
-0.464588 -1.408537 0.000000 
-0.427556 -1.371509 0.000000 
-0.453135 -1.319995 0.000000 
-0.407738 -1.284679 0.000000 
-0.425037 -1.235251 0.000000 
-0.370772 -1.203622 0.000000 
-0.381315 -1.157395 0.000000 
-0.046960 -1.460869 0.000000 
-0.095301 -1.554915 0.000000 
-0.098873 -1.502268 0.000000 
-0.149405 -1.487070 0.000000 
-0.140093 -1.646619 0.000000 
-0.148617 -1.597921 0.000000 
-0.205981 -1.587684 0.000000 
-0.203197 -1.529480 0.000000 
-0.248777 -1.510334 0.000000 
-0.184111 -1.737583 0.000000 
-0.194039 -1.690492 0.000000 
-0.254475 -1.683192 0.000000 
-0.257893 -1.629082 0.000000 
-0.309886 -1.613710 0.000000 
-0.303554 -1.553165 0.000000 
-0.347255 -1.533007 0.000000 
-0.228129 -1.828546 0.000000 
-0.238687 -1.782322 0.000000 
-0.301302 -1.777370 0.000000 
-0.307162 -1.725331 0.000000 
-0.363386 -1.713210 0.000000 
-0.362692 -1.655699 0.000000 
-0.412122 -1.638406 0.000000 
-0.403017 -1.576259 0.000000 
-0.445733 -1.555680 0.000000 
-0.000000 -1.483484 0.000000 
0.043388 -1.579915 0.000000 
-0.000000 -1.549882 0.000000 
-0.043388 -1.579915 0.000000 
0.087158 -1.672111 0.000000 
0.043769 -1.648413 0.000000 
-0.000000 -1.686879 0.000000 
-0.043769 -1.648413 0.000000 
-0.087158 -1.672111 0.000000 
0.130831 -1.763241 0.000000 
0.087824 -1.741642 0.000000 
0.044436 -1.784342 0.000000 
-0.000000 -1.753277 0.000000 
-0.044436 -1.784342 0.000000 
-0.087824 -1.741642 0.000000 
-0.130831 -1.763241 0.000000 
0.174505 -1.854371 0.000000 
0.131782 -1.833805 0.000000 
0.088871 -1.879671 0.000000 
0.044532 -1.851807 0.000000 
-0.000000 -1.888208 0.000000 
-0.044532 -1.851807 0.000000 
-0.088871 -1.879671 0.000000 
-0.131782 -1.833805 0.000000 
-0.174505 -1.854371 0.000000 
0.046960 -1.460869 0.000000 
0.149405 -1.487070 0.000000 
0.098873 -1.502268 0.000000 
0.095301 -1.554915 0.000000 
0.248777 -1.510334 0.000000 
0.203197 -1.529480 0.000000 
0.205981 -1.587684 0.000000 
0.148617 -1.597921 0.000000 
0.140093 -1.646619 0.000000 
0.347255 -1.533007 0.000000 
0.303554 -1.553165 0.000000 
0.309886 -1.613710 0.000000 
0.257893 -1.629082 0.000000 
0.254475 -1.683192 0.000000 
0.194039 -1.690492 0.000000 
0.184111 -1.737583 0.000000 
0.445733 -1.555680 0.000000 
0.403017 -1.576259 0.000000 
0.412122 -1.638406 0.000000 
0.362692 -1.655699 0.000000 
0.363386 -1.713210 0.000000 
0.307162 -1.725331 0.000000 
0.301302 -1.777370 0.000000 
0.238687 -1.782322 0.000000 
0.228129 -1.828546 0.000000 
0.058559 -1.410054 0.000000 
0.142917 -1.346296 0.000000 
0.123292 -1.395279 0.000000 
0.162226 -1.430897 0.000000 
0.223062 -1.283108 0.000000 
0.209613 -1.330682 0.000000 
0.256854 -1.364794 0.000000 
0.229092 -1.416026 0.000000 
0.261851 -1.453053 0.000000 
0.302189 -1.220251 0.000000 
0.290702 -1.266986 0.000000 
0.341985 -1.299785 0.000000 
0.321587 -1.350019 0.000000 
0.361761 -1.386428 0.000000 
0.329787 -1.438230 0.000000 
0.360414 -1.475353 0.000000 
0.381315 -1.157395 0.000000 
0.370772 -1.203622 0.000000 
0.425037 -1.235251 0.000000 
0.407738 -1.284679 0.000000 
0.453135 -1.319995 0.000000 
0.427556 -1.371509 0.000000 
0.464588 -1.408537 0.000000 
0.429420 -1.460579 0.000000 
0.458977 -1.497653 0.000000 
0.026061 -1.369303 0.000000 
0.028809 -1.263597 0.000000 
0.054870 -1.309481 0.000000 
0.106992 -1.301248 0.000000 
0.029377 -1.161540 0.000000 
0.058186 -1.201717 0.000000 
0.114311 -1.186051 0.000000 
0.137056 -1.239699 0.000000 
0.186430 -1.237172 0.000000 
0.029568 -1.060485 0.000000 
0.058945 -1.098606 0.000000 
0.116563 -1.078960 0.000000 
0.143120 -1.126228 0.000000 
0.196633 -1.117520 0.000000 
0.217198 -1.174816 0.000000 
0.265318 -1.174017 0.000000 
0.029759 -0.959431 0.000000 
0.059328 -0.996497 0.000000 
0.117890 -0.973791 0.000000 
0.145749 -1.018134 0.000000 
0.201664 -1.004660 0.000000 
0.225992 -1.056777 0.000000 
0.278030 -1.050911 0.000000 
0.296791 -1.110854 0.000000 
0.344206 -1.110861 0.000000 
VECTORS X_EC float 
0.338794 0.985594 0.000000 
-0.609100 0.066846 0.000000 
0.713312 0.177987 0.000000 
0.374519 -0.441443 0.000000 
0.423588 -0.798173 0.000000 
-0.218274 -0.764070 0.000000 
-0.513962 0.511691 0.000000 
0.756418 0.723178 0.000000 
0.381900 0.180785 0.000000 
-0.550868 0.349224 0.000000 
0.823577 0.360019 0.000000 
0.556234 -0.413485 0.000000 
-0.139443 -0.295916 0.000000 
-0.484677 -0.934041 0.000000 
0.766286 -0.668825 0.000000 
0.384386 0.816554 0.000000 
0.474677 -0.503380 0.000000 
-0.141715 -0.503476 0.000000 
-0.385608 0.687296 0.000000 
0.937896 0.766491 0.000000 
0.621631 0.062911 0.000000 
-0.105264 0.244811 0.000000 
-0.467428 -0.353816 0.000000 
0.771260 -0.047287 0.000000 
0.386873 -0.547677 0.000000 
0.761262 -0.464271 0.000000 
0.108942 -0.182894 0.000000 
-0.397202 -0.663734 0.000000 
-0.142083 0.674991 0.000000 
-0.595936 0.116216 0.000000 
0.978194 -0.383650 0.000000 
-0.660903 0.924725 0.000000 
0.724964 0.464205 0.000000 
0.899809 -0.178043 0.000000 
0.685384 0.417268 0.000000 
0.287229 -0.083890 0.000000 
0.702895 -0.783219 0.000000 
0.180633 0.725263 0.000000 
0.445811 0.047103 0.000000 
-0.220880 -0.395683 0.000000 
-0.071546 0.973392 0.000000 
-0.033296 0.718320 0.000000 
-0.417537 0.217811 0.000000 
0.039645 -0.484752 0.000000 
-0.441768 -0.984623 0.000000 
-0.109248 0.319927 0.000000 
-0.699407 -0.156829 0.000000 
-0.474522 -0.824108 0.000000 
0.820030 0.748898 0.000000 
0.957100 0.124827 0.000000 
0.610485 0.221735 0.000000 
-0.761092 -0.508645 0.000000 
-0.714655 0.780617 0.000000 
-0.057734 0.575450 0.000000 
-0.178789 0.729359 0.000000 
-0.067979 0.071933 0.000000 
0.677748 -0.066271 0.000000 
0.641556 -0.852016 0.000000 
-0.765897 0.889505 0.000000 
0.393446 -0.042632 0.000000 
0.522510 -0.678362 0.000000 
-0.691820 -0.776906 0.000000 
-0.647393 0.492611 0.000000 
0.028512 0.285084 0.000000 
-0.053800 -0.532276 0.000000 
0.514316 -0.804407 0.000000 
0.965681 -0.814623 0.000000 
-0.897068 0.561348 0.000000 
-0.083078 0.494495 0.000000 
-0.006893 -0.208029 0.000000 
0.724017 -0.371662 0.000000 
0.714996 0.851934 0.000000 
-0.642413 0.618477 0.000000 
-0.760780 -0.220504 0.000000 
-0.205471 -0.498319 0.000000 
0.000000 0.527037 0.000000 
-0.564049 -0.171150 0.000000 
0.000000 -0.576586 0.000000 
0.564049 -0.171150 0.000000 
0.866949 -0.926495 0.000000 
-0.569003 0.753574 0.000000 
0.000000 -0.727138 0.000000 
0.569003 0.753574 0.000000 
-0.866949 -0.926495 0.000000 
0.299194 0.303755 0.000000 
0.858290 0.012171 0.000000 
-0.577662 0.588617 0.000000 
0.000000 0.169239 0.000000 
0.577662 0.588617 0.000000 
-0.858290 0.012171 0.000000 
-0.299194 0.303755 0.000000 
-0.268560 -0.465995 0.000000 
0.286830 -0.743636 0.000000 
0.844677 -0.124438 0.000000 
-0.578910 -0.500601 0.000000 
0.000000 -0.009197 0.000000 
0.578910 -0.500601 0.000000 
-0.844677 -0.124438 0.000000 
-0.286830 -0.743636 0.000000 
0.268560 -0.465995 0.000000 
-0.610485 0.221735 0.000000 
0.057734 0.575450 0.000000 
0.714655 0.780617 0.000000 
0.761092 -0.508645 0.000000 
0.765897 0.889506 0.000000 
-0.641556 -0.852016 0.000000 
-0.677748 -0.066271 0.000000 
0.067979 0.071933 0.000000 
0.178789 0.729359 0.000000 
-0.514316 -0.804407 0.000000 
0.053800 -0.532276 0.000000 
-0.028512 0.285084 0.000000 
0.647393 0.492611 0.000000 
0.691820 -0.776906 0.000000 
-0.522510 -0.678362 0.000000 
-0.393446 -0.042632 0.000000 
0.205471 -0.498319 0.000000 
0.760780 -0.220504 0.000000 
0.642413 0.618477 0.000000 
-0.714996 0.851934 0.000000 
-0.724017 -0.371662 0.000000 
0.006894 -0.208029 0.000000 
0.083078 0.494495 0.000000 
0.897068 0.561348 0.000000 
-0.965681 -0.814623 0.000000 
-0.761262 -0.464271 0.000000 
0.142083 0.674991 0.000000 
0.397202 -0.663734 0.000000 
-0.108942 -0.182894 0.000000 
-0.899809 -0.178043 0.000000 
-0.724964 0.464205 0.000000 
0.660903 0.924725 0.000000 
-0.978194 -0.383650 0.000000 
0.595936 0.116216 0.000000 
0.071546 0.973392 0.000000 
0.220880 -0.395683 0.000000 
-0.445811 0.047103 0.000000 
-0.180633 0.725263 0.000000 
-0.702895 -0.783219 0.000000 
-0.287229 -0.083890 0.000000 
-0.685384 0.417268 0.000000 
-0.957100 0.124827 0.000000 
-0.820030 0.748898 0.000000 
0.474522 -0.824108 0.000000 
0.699407 -0.156829 0.000000 
0.109248 0.319927 0.000000 
0.441768 -0.984623 0.000000 
-0.039645 -0.484752 0.000000 
0.417537 0.217811 0.000000 
0.033296 0.718321 0.000000 
-0.338794 0.985594 0.000000 
-0.374519 -0.441443 0.000000 
-0.713312 0.177987 0.000000 
0.609100 0.066846 0.000000 
-0.381900 0.180785 0.000000 
-0.756418 0.723178 0.000000 
0.513962 0.511691 0.000000 
0.218274 -0.764070 0.000000 
-0.423588 -0.798173 0.000000 
-0.384386 0.816554 0.000000 
-0.766286 -0.668825 0.000000 
0.484677 -0.934041 0.000000 
0.139443 -0.295916 0.000000 
-0.556234 -0.413485 0.000000 
-0.823577 0.360019 0.000000 
0.550868 0.349224 0.000000 
-0.386873 -0.547677 0.000000 
-0.771260 -0.047287 0.000000 
0.467428 -0.353816 0.000000 
0.105264 0.244811 0.000000 
-0.621631 0.062911 0.000000 
-0.937896 0.766491 0.000000 
0.385608 0.687296 0.000000 
0.141715 -0.503476 0.000000 
-0.474677 -0.503380 0.000000 
CELL_DATA 175 
SCALARS MASS float 
LOOKUP_TABLE default 
0.781831 
0.864274 
0.946717 
0.864274 
0.881307 
0.921110 
0.858535 
0.921110 
0.881307 
0.887046 
0.910001 
0.869829 
0.915556 
0.869829 
0.910001 
0.887046 
0.892784 
0.915740 
0.892784 
0.927218 
0.892784 
0.927218 
0.892784 
0.915740 
0.892784 
0.781831 
0.864274 
0.946717 
0.864274 
0.881307 
0.921110 
0.858535 
0.921110 
0.881307 
0.887046 
0.910001 
0.869829 
0.915556 
0.869829 
0.910001 
0.887046 
0.892784 
0.915740 
0.892784 
0.927218 
0.892784 
0.927218 
0.892784 
0.915740 
0.892784 
0.781831 
0.864274 
0.946717 
0.864274 
0.881307 
0.921110 
0.858535 
0.921110 
0.881307 
0.887046 
0.910001 
0.869829 
0.915556 
0.869829 
0.910001 
0.887046 
0.892784 
0.915740 
0.892784 
0.927218 
0.892784 
0.927218 
0.892784 
0.915740 
0.892784 
0.781831 
0.864274 
0.946717 
0.864274 
0.881307 
0.921110 
0.858535 
0.921110 
0.881307 
0.887046 
0.910001 
0.869829 
0.915556 
0.869829 
0.910001 
0.887046 
0.892784 
0.915740 
0.892784 
0.927218 
0.892784 
0.927218 
0.892784 
0.915740 
0.892784 
0.781831 
0.864274 
0.946717 
0.864274 
0.881307 
0.921110 
0.858535 
0.921110 
0.881307 
0.887046 
0.910001 
0.869829 
0.915556 
0.869829 
0.910001 
0.887046 
0.892784 
0.915740 
0.892784 
0.927218 
0.892784 
0.927218 
0.892784 
0.915740 
0.892784 
0.781831 
0.864274 
0.946717 
0.864274 
0.881307 
0.921110 
0.858535 
0.921110 
0.881307 
0.887046 
0.910001 
0.869829 
0.915556 
0.869829 
0.910001 
0.887046 
0.892784 
0.915740 
0.892784 
0.927218 
0.892784 
0.927218 
0.892784 
0.915740 
0.892784 
0.781831 
0.864274 
0.946717 
0.864274 
0.881307 
0.921110 
0.858535 
0.921110 
0.881307 
0.887046 
0.910001 
0.869829 
0.915556 
0.869829 
0.910001 
0.887046 
0.892784 
0.915740 
0.892784 
0.927218 
0.892784 
0.927218 
0.892784 
0.915740 
0.892784 
SCALARS MASS float 
LOOKUP_TABLE default 
0.781831 
0.864274 
0.946717 
0.864274 
0.881307 
0.921110 
0.858535 
0.921110 
0.881307 
0.887046 
0.910001 
0.869829 
0.915556 
0.869829 
0.910001 
0.887046 
0.892784 
0.915740 
0.892784 
0.927218 
0.892784 
0.927218 
0.892784 
0.915740 
0.892784 
0.781831 
0.864274 
0.946717 
0.864274 
0.881307 
0.921110 
0.858535 
0.921110 
0.881307 
0.887046 
0.910001 
0.869829 
0.915556 
0.869829 
0.910001 
0.887046 
0.892784 
0.915740 
0.892784 
0.927218 
0.892784 
0.927218 
0.892784 
0.915740 
0.892784 
0.781831 
0.864274 
0.946717 
0.864274 
0.881307 
0.921110 
0.858535 
0.921110 
0.881307 
0.887046 
0.910001 
0.869829 
0.915556 
0.869829 
0.910001 
0.887046 
0.892784 
0.915740 
0.892784 
0.927218 
0.892784 
0.927218 
0.892784 
0.915740 
0.892784 
0.781831 
0.864274 
0.946717 
0.864274 
0.881307 
0.921110 
0.858535 
0.921110 
0.881307 
0.887046 
0.910001 
0.869829 
0.915556 
0.869829 
0.910001 
0.887046 
0.892784 
0.915740 
0.892784 
0.927218 
0.892784 
0.927218 
0.892784 
0.915740 
0.892784 
0.781831 
0.864274 
0.946717 
0.864274 
0.881307 
0.921110 
0.858535 
0.921110 
0.881307 
0.887046 
0.910001 
0.869829 
0.915556 
0.869829 
0.910001 
0.887046 
0.892784 
0.915740 
0.892784 
0.927218 
0.892784 
0.927218 
0.892784 
0.915740 
0.892784 
0.781831 
0.864274 
0.946717 
0.864274 
0.881307 
0.921110 
0.858535 
0.921110 
0.881307 
0.887046 
0.910001 
0.869829 
0.915556 
0.869829 
0.910001 
0.887046 
0.892784 
0.915740 
0.892784 
0.927218 
0.892784 
0.927218 
0.892784 
0.915740 
0.892784 
0.781831 
0.864274 
0.946717 
0.864274 
0.881307 
0.921110 
0.858535 
0.921110 
0.881307 
0.887046 
0.910001 
0.869829 
0.915556 
0.869829 
0.910001 
0.887046 
0.892784 
0.915740 
0.892784 
0.927218 
0.892784 
0.927218 
0.892784 
0.915740 
0.892784 
SCALARS DENSITY float 
LOOKUP_TABLE default 
200.000000 
200.000000 
200.000000 
200.000000 
200.000000 
200.000000 
200.000000 
200.000000 
200.000000 
200.000000 
200.000000 
200.000000 
200.000000 
200.000000 
200.000000 
200.000000 
200.000000 
200.000000 
200.000000 
200.000000 
200.000000 
200.000000 
200.000000 
200.000000 
200.000000 
200.000000 
200.000000 
200.000000 
200.000000 
200.000000 
200.000000 
200.000000 
200.000000 
200.000000 
200.000000 
200.000000 
200.000000 
200.000000 
200.000000 
200.000000 
200.000000 
200.000000 
200.000000 
200.000000 
200.000000 
200.000000 
200.000000 
200.000000 
200.000000 
200.000000 
200.000000 
200.000000 
200.000000 
200.000000 
200.000000 
200.000000 
200.000000 
200.000000 
200.000000 
200.000000 
200.000000 
200.000000 
200.000000 
200.000000 
200.000000 
200.000000 
200.000000 
200.000000 
200.000000 
200.000000 
200.000000 
200.000000 
200.000000 
200.000000 
200.000000 
200.000000 
200.000000 
200.000000 
200.000000 
200.000000 
200.000000 
200.000000 
200.000000 
200.000000 
200.000000 
200.000000 
200.000000 
200.000000 
200.000000 
200.000000 
200.000000 
200.000000 
200.000000 
200.000000 
200.000000 
200.000000 
200.000000 
200.000000 
200.000000 
200.000000 
200.000000 
200.000000 
200.000000 
200.000000 
200.000000 
200.000000 
200.000000 
200.000000 
200.000000 
200.000000 
200.000000 
200.000000 
200.000000 
200.000000 
200.000000 
200.000000 
200.000000 
200.000000 
200.000000 
200.000000 
200.000000 
200.000000 
200.000000 
200.000000 
200.000000 
200.000000 
200.000000 
200.000000 
200.000000 
200.000000 
200.000000 
200.000000 
200.000000 
200.000000 
200.000000 
200.000000 
200.000000 
200.000000 
200.000000 
200.000000 
200.000000 
200.000000 
200.000000 
200.000000 
200.000000 
200.000000 
200.000000 
200.000000 
200.000000 
200.000000 
200.000000 
200.000000 
200.000000 
200.000000 
200.000000 
200.000000 
200.000000 
200.000000 
200.000000 
200.000000 
200.000000 
200.000000 
200.000000 
200.000000 
200.000000 
200.000000 
200.000000 
200.000000 
200.000000 
200.000000 
200.000000 
200.000000 
200.000000 
200.000000 
200.000000 
SCALARS ELEM_i float 
LOOKUP_TABLE default 
173 
200 
173 
173 
200 
200 
201 
174 
174 
228 
201 
201 
201 
201 
174 
175 
228 
228 
229 
202 
202 
202 
202 
175 
175 
172 
199 
199 
200 
226 
199 
227 
200 
200 
226 
226 
226 
227 
227 
227 
228 
253 
253 
253 
253 
254 
254 
254 
228 
228 
172 
198 
199 
199 
198 
198 
198 
198 
226 
197 
197 
224 
225 
225 
225 
225 
196 
224 
224 
224 
224 
225 
252 
252 
252 
172 
171 
171 
171 
143 
171 
170 
171 
197 
143 
143 
170 
170 
170 
197 
197 
142 
142 
142 
169 
169 
169 
196 
196 
196 
172 
145 
145 
144 
118 
144 
144 
144 
144 
117 
117 
117 
117 
116 
143 
143 
90 
90 
90 
117 
116 
116 
116 
116 
142 
172 
146 
145 
145 
146 
146 
119 
145 
118 
120 
119 
119 
119 
118 
118 
118 
120 
120 
92 
92 
92 
91 
91 
91 
91 
173 
173 
173 
146 
174 
174 
147 
146 
146 
175 
174 
147 
147 
147 
147 
120 
175 
175 
148 
148 
148 
148 
121 
120 
120 
VECTORS VELOCITY float 
-0.000000 -5.283666 0.000000 
0.000000 -5.283666 0.000000 
0.000000 -5.283666 0.000000 
0.000000 -5.283666 0.000000 
0.000000 -5.283666 0.000000 
0.000000 -5.283666 0.000000 
0.000000 -5.283666 0.000000 
0.000000 -5.283666 0.000000 
0.000000 -5.283666 0.000000 
0.000000 -5.283666 0.000000 
0.000000 -5.283666 0.000000 
0.000000 -5.283666 0.000000 
0.000000 -5.283666 0.000000 
-0.000000 -5.283666 0.000000 
0.000000 -5.283666 0.000000 
-0.000000 -5.283666 0.000000 
0.000000 -5.283666 0.000000 
0.000000 -5.283666 0.000000 
0.000000 -5.283666 0.000000 
0.000000 -5.283666 0.000000 
-0.000000 -5.283666 0.000000 
-0.000000 -5.283666 0.000000 
-0.000000 -5.283666 0.000000 
-0.000000 -5.283666 0.000000 
0.000000 -5.283666 0.000000 
-0.000000 -5.283666 0.000000 
-0.000000 -5.283666 0.000000 
-0.000000 -5.283666 0.000000 
-0.000000 -5.283666 0.000000 
-0.000000 -5.283666 0.000000 
-0.000000 -5.283666 0.000000 
-0.000000 -5.283666 0.000000 
0.000000 -5.283666 0.000000 
0.000000 -5.283666 0.000000 
-0.000000 -5.283666 0.000000 
-0.000000 -5.283666 0.000000 
-0.000000 -5.283666 0.000000 
-0.000000 -5.283666 0.000000 
0.000000 -5.283666 0.000000 
0.000000 -5.283666 0.000000 
0.000000 -5.283666 0.000000 
0.000000 -5.283666 0.000000 
-0.000000 -5.283666 0.000000 
0.000000 -5.283666 0.000000 
-0.000000 -5.283666 0.000000 
-0.000000 -5.283666 0.000000 
0.000000 -5.283666 0.000000 
-0.000000 -5.283666 0.000000 
0.000000 -5.283666 0.000000 
0.000000 -5.283666 0.000000 
-0.000000 -5.283666 0.000000 
0.000000 -5.283666 0.000000 
-0.000000 -5.283666 0.000000 
-0.000000 -5.283666 0.000000 
-0.000000 -5.283666 0.000000 
-0.000000 -5.283666 0.000000 
-0.000000 -5.283666 0.000000 
-0.000000 -5.283666 0.000000 
-0.000000 -5.283666 0.000000 
-0.000000 -5.283666 0.000000 
-0.000000 -5.283666 0.000000 
-0.000000 -5.283666 0.000000 
-0.000000 -5.283666 0.000000 
0.000000 -5.283666 0.000000 
0.000000 -5.283666 0.000000 
0.000000 -5.283666 0.000000 
0.000000 -5.283666 0.000000 
0.000000 -5.283666 0.000000 
-0.000000 -5.283666 0.000000 
-0.000000 -5.283666 0.000000 
-0.000000 -5.283666 0.000000 
0.000000 -5.283666 0.000000 
0.000000 -5.283666 0.000000 
0.000000 -5.283666 0.000000 
-0.000000 -5.283666 0.000000 
-0.000000 -5.283666 0.000000 
0.000000 -5.283666 0.000000 
0.000000 -5.283666 0.000000 
0.000000 -5.283666 0.000000 
-0.000000 -5.283666 0.000000 
-0.000000 -5.283666 0.000000 
-0.000000 -5.283666 0.000000 
0.000000 -5.283666 0.000000 
0.000000 -5.283666 0.000000 
-0.000000 -5.283666 0.000000 
-0.000000 -5.283666 0.000000 
-0.000000 -5.283666 0.000000 
-0.000000 -5.283666 0.000000 
-0.000000 -5.283666 0.000000 
-0.000000 -5.283666 0.000000 
-0.000000 -5.283666 0.000000 
-0.000000 -5.283666 0.000000 
-0.000000 -5.283666 0.000000 
0.000000 -5.283666 0.000000 
-0.000000 -5.283666 0.000000 
-0.000000 -5.283666 0.000000 
-0.000000 -5.283666 0.000000 
-0.000000 -5.283666 0.000000 
-0.000000 -5.283666 0.000000 
-0.000000 -5.283666 0.000000 
-0.000000 -5.283666 0.000000 
0.000000 -5.283666 0.000000 
-0.000000 -5.283666 0.000000 
0.000000 -5.283666 0.000000 
0.000000 -5.283666 0.000000 
0.000000 -5.283666 0.000000 
0.000000 -5.283666 0.000000 
0.000000 -5.283666 0.000000 
-0.000000 -5.283666 0.000000 
0.000000 -5.283666 0.000000 
0.000000 -5.283666 0.000000 
0.000000 -5.283666 0.000000 
0.000000 -5.283666 0.000000 
0.000000 -5.283666 0.000000 
-0.000000 -5.283666 0.000000 
-0.000000 -5.283666 0.000000 
-0.000000 -5.283666 0.000000 
-0.000000 -5.283666 0.000000 
-0.000000 -5.283666 0.000000 
0.000000 -5.283666 0.000000 
0.000000 -5.283666 0.000000 
0.000000 -5.283666 0.000000 
0.000000 -5.283666 0.000000 
-0.000000 -5.283666 0.000000 
-0.000000 -5.283666 0.000000 
-0.000000 -5.283666 0.000000 
0.000000 -5.283666 0.000000 
0.000000 -5.283666 0.000000 
0.000000 -5.283666 0.000000 
0.000000 -5.283666 0.000000 
0.000000 -5.283666 0.000000 
-0.000000 -5.283666 0.000000 
0.000000 -5.283666 0.000000 
0.000000 -5.283666 0.000000 
0.000000 -5.283666 0.000000 
0.000000 -5.283666 0.000000 
-0.000000 -5.283666 0.000000 
-0.000000 -5.283666 0.000000 
0.000000 -5.283666 0.000000 
0.000000 -5.283666 0.000000 
0.000000 -5.283666 0.000000 
0.000000 -5.283666 0.000000 
0.000000 -5.283666 0.000000 
-0.000000 -5.283666 0.000000 
0.000000 -5.283666 0.000000 
0.000000 -5.283666 0.000000 
-0.000000 -5.283666 0.000000 
-0.000000 -5.283666 0.000000 
-0.000000 -5.283666 0.000000 
-0.000000 -5.283666 0.000000 
0.000000 -5.283666 0.000000 
0.000000 -5.283666 0.000000 
0.000000 -5.283666 0.000000 
0.000000 -5.283666 0.000000 
0.000000 -5.283666 0.000000 
0.000000 -5.283666 0.000000 
0.000000 -5.283666 0.000000 
0.000000 -5.283666 0.000000 
0.000000 -5.283666 0.000000 
0.000000 -5.283666 0.000000 
0.000000 -5.283666 0.000000 
0.000000 -5.283666 0.000000 
0.000000 -5.283666 0.000000 
-0.000000 -5.283666 0.000000 
-0.000000 -5.283666 0.000000 
-0.000000 -5.283666 0.000000 
0.000000 -5.283666 0.000000 
0.000000 -5.283666 0.000000 
0.000000 -5.283666 0.000000 
0.000000 -5.283666 0.000000 
-0.000000 -5.283666 0.000000 
-0.000000 -5.283666 0.000000 
-0.000000 -5.283666 0.000000 
-0.000000 -5.283666 0.000000 
0.000000 -5.283666 0.000000 
TENSORS STRESS float 
0.000000 -0.000000 0.000000 
0.000000 0.000000 0.000000 
0.000000 0.000000 0.000000 

0.000000 -0.000000 0.000000 
0.000000 0.000000 0.000000 
0.000000 0.000000 0.000000 

0.000000 -0.000000 0.000000 
0.000000 0.000000 0.000000 
0.000000 0.000000 0.000000 

-0.000000 -0.000000 0.000000 
0.000000 -0.000000 0.000000 
0.000000 0.000000 0.000000 

-0.000000 -0.000000 0.000000 
0.000000 -0.000000 0.000000 
0.000000 0.000000 0.000000 

0.000000 0.000000 0.000000 
0.000000 0.000000 0.000000 
0.000000 0.000000 0.000000 

0.000000 -0.000000 0.000000 
0.000000 0.000000 0.000000 
0.000000 0.000000 0.000000 

-0.000000 -0.000000 0.000000 
0.000000 -0.000000 0.000000 
0.000000 0.000000 0.000000 

0.000000 -0.000000 0.000000 
0.000000 0.000000 0.000000 
0.000000 0.000000 0.000000 

0.000000 0.000000 0.000000 
0.000000 0.000000 0.000000 
0.000000 0.000000 0.000000 

-0.000000 -0.000000 0.000000 
0.000000 -0.000000 0.000000 
0.000000 0.000000 0.000000 

-0.000000 -0.000000 0.000000 
0.000000 -0.000000 0.000000 
0.000000 0.000000 0.000000 

0.000000 0.000000 0.000000 
0.000000 0.000000 0.000000 
0.000000 0.000000 0.000000 

0.000000 0.000000 0.000000 
0.000000 0.000000 0.000000 
0.000000 0.000000 0.000000 

0.000000 0.000000 0.000000 
0.000000 0.000000 0.000000 
0.000000 0.000000 0.000000 

-0.000000 0.000000 0.000000 
0.000000 -0.000000 0.000000 
0.000000 0.000000 0.000000 

0.000000 0.000000 0.000000 
0.000000 0.000000 0.000000 
0.000000 0.000000 0.000000 

-0.000000 0.000000 0.000000 
0.000000 -0.000000 0.000000 
0.000000 0.000000 0.000000 

-0.000000 -0.000000 0.000000 
0.000000 -0.000000 0.000000 
0.000000 0.000000 0.000000 

0.000000 -0.000000 0.000000 
0.000000 0.000000 0.000000 
0.000000 0.000000 0.000000 

-0.000000 -0.000000 0.000000 
0.000000 -0.000000 0.000000 
0.000000 0.000000 0.000000 

-0.000000 -0.000000 0.000000 
0.000000 -0.000000 0.000000 
0.000000 0.000000 0.000000 

-0.000000 0.000000 0.000000 
0.000000 -0.000000 0.000000 
0.000000 0.000000 0.000000 

-0.000000 0.000000 0.000000 
0.000000 -0.000000 0.000000 
0.000000 0.000000 0.000000 

0.000000 0.000000 0.000000 
0.000000 0.000000 0.000000 
0.000000 0.000000 0.000000 

-0.000000 -0.000000 0.000000 
0.000000 -0.000000 0.000000 
0.000000 0.000000 0.000000 

-0.000000 0.000000 0.000000 
0.000000 -0.000000 0.000000 
0.000000 0.000000 0.000000 

0.000000 -0.000000 0.000000 
0.000000 0.000000 0.000000 
0.000000 0.000000 0.000000 

-0.000000 0.000000 0.000000 
0.000000 0.000000 0.000000 
0.000000 0.000000 0.000000 

0.000000 -0.000000 0.000000 
0.000000 0.000000 0.000000 
0.000000 0.000000 0.000000 

0.000000 -0.000000 0.000000 
0.000000 0.000000 0.000000 
0.000000 0.000000 0.000000 

0.000000 -0.000000 0.000000 
0.000000 0.000000 0.000000 
0.000000 0.000000 0.000000 

0.000000 -0.000000 0.000000 
0.000000 0.000000 0.000000 
0.000000 0.000000 0.000000 

0.000000 -0.000000 0.000000 
0.000000 0.000000 0.000000 
0.000000 0.000000 0.000000 

0.000000 0.000000 0.000000 
0.000000 0.000000 0.000000 
0.000000 0.000000 0.000000 

0.000000 -0.000000 0.000000 
0.000000 0.000000 0.000000 
0.000000 0.000000 0.000000 

-0.000000 -0.000000 0.000000 
0.000000 -0.000000 0.000000 
0.000000 0.000000 0.000000 

-0.000000 -0.000000 0.000000 
0.000000 -0.000000 0.000000 
0.000000 0.000000 0.000000 

-0.000000 -0.000000 0.000000 
0.000000 -0.000000 0.000000 
0.000000 0.000000 0.000000 

0.000000 -0.000000 0.000000 
0.000000 0.000000 0.000000 
0.000000 0.000000 0.000000 

0.000000 -0.000000 0.000000 
0.000000 0.000000 0.000000 
0.000000 0.000000 0.000000 

0.000000 0.000000 0.000000 
0.000000 -0.000000 0.000000 
0.000000 0.000000 0.000000 

0.000000 0.000000 0.000000 
0.000000 0.000000 0.000000 
0.000000 0.000000 0.000000 

-0.000000 0.000000 0.000000 
0.000000 -0.000000 0.000000 
0.000000 0.000000 0.000000 

-0.000000 0.000000 0.000000 
0.000000 -0.000000 0.000000 
0.000000 0.000000 0.000000 

-0.000000 -0.000000 0.000000 
0.000000 -0.000000 0.000000 
0.000000 0.000000 0.000000 

0.000000 0.000000 0.000000 
0.000000 0.000000 0.000000 
0.000000 0.000000 0.000000 

-0.000000 0.000000 0.000000 
0.000000 -0.000000 0.000000 
0.000000 0.000000 0.000000 

-0.000000 -0.000000 0.000000 
0.000000 -0.000000 0.000000 
0.000000 0.000000 0.000000 

-0.000000 0.000000 0.000000 
0.000000 -0.000000 0.000000 
0.000000 0.000000 0.000000 

-0.000000 -0.000000 0.000000 
0.000000 -0.000000 0.000000 
0.000000 0.000000 0.000000 

-0.000000 0.000000 0.000000 
0.000000 -0.000000 0.000000 
0.000000 0.000000 0.000000 

-0.000000 0.000000 0.000000 
0.000000 -0.000000 0.000000 
0.000000 0.000000 0.000000 

-0.000000 0.000000 0.000000 
0.000000 -0.000000 0.000000 
0.000000 0.000000 0.000000 

-0.000000 0.000000 0.000000 
0.000000 -0.000000 0.000000 
0.000000 0.000000 0.000000 

0.000000 0.000000 0.000000 
0.000000 0.000000 0.000000 
0.000000 0.000000 0.000000 

-0.000000 0.000000 0.000000 
0.000000 -0.000000 0.000000 
0.000000 0.000000 0.000000 

0.000000 0.000000 0.000000 
0.000000 0.000000 0.000000 
0.000000 0.000000 0.000000 

0.000000 -0.000000 0.000000 
0.000000 0.000000 0.000000 
0.000000 0.000000 0.000000 

0.000000 0.000000 0.000000 
0.000000 0.000000 0.000000 
0.000000 0.000000 0.000000 

-0.000000 0.000000 0.000000 
0.000000 -0.000000 0.000000 
0.000000 0.000000 0.000000 

-0.000000 -0.000000 0.000000 
0.000000 -0.000000 0.000000 
0.000000 0.000000 0.000000 

-0.000000 -0.000000 0.000000 
0.000000 -0.000000 0.000000 
0.000000 0.000000 0.000000 

-0.000000 -0.000000 0.000000 
0.000000 -0.000000 0.000000 
0.000000 0.000000 0.000000 

-0.000000 0.000000 0.000000 
0.000000 -0.000000 0.000000 
0.000000 0.000000 0.000000 

-0.000000 0.000000 0.000000 
0.000000 -0.000000 0.000000 
0.000000 0.000000 0.000000 

-0.000000 0.000000 0.000000 
0.000000 -0.000000 0.000000 
0.000000 0.000000 0.000000 

-0.000000 0.000000 0.000000 
0.000000 -0.000000 0.000000 
0.000000 0.000000 0.000000 

0.000000 -0.000000 0.000000 
0.000000 0.000000 0.000000 
0.000000 0.000000 0.000000 

0.000000 0.000000 0.000000 
0.000000 0.000000 0.000000 
0.000000 0.000000 0.000000 

-0.000000 0.000000 0.000000 
0.000000 -0.000000 0.000000 
0.000000 0.000000 0.000000 

-0.000000 -0.000000 0.000000 
0.000000 -0.000000 0.000000 
0.000000 0.000000 0.000000 

0.000000 -0.000000 0.000000 
0.000000 0.000000 0.000000 
0.000000 0.000000 0.000000 

0.000000 -0.000000 0.000000 
0.000000 -0.000000 0.000000 
0.000000 0.000000 0.000000 

0.000000 -0.000000 0.000000 
0.000000 0.000000 0.000000 
0.000000 0.000000 0.000000 

-0.000000 -0.000000 0.000000 
0.000000 -0.000000 0.000000 
0.000000 0.000000 0.000000 

0.000000 -0.000000 0.000000 
0.000000 0.000000 0.000000 
0.000000 0.000000 0.000000 

-0.000000 -0.000000 0.000000 
0.000000 -0.000000 0.000000 
0.000000 0.000000 0.000000 

0.000000 -0.000000 0.000000 
0.000000 0.000000 0.000000 
0.000000 0.000000 0.000000 

0.000000 -0.000000 0.000000 
0.000000 0.000000 0.000000 
0.000000 0.000000 0.000000 

-0.000000 -0.000000 0.000000 
0.000000 -0.000000 0.000000 
0.000000 0.000000 0.000000 

-0.000000 -0.000000 0.000000 
0.000000 -0.000000 0.000000 
0.000000 0.000000 0.000000 

-0.000000 -0.000000 0.000000 
0.000000 -0.000000 0.000000 
0.000000 0.000000 0.000000 

0.000000 0.000000 0.000000 
0.000000 0.000000 0.000000 
0.000000 0.000000 0.000000 

-0.000000 0.000000 0.000000 
0.000000 -0.000000 0.000000 
0.000000 0.000000 0.000000 

0.000000 0.000000 0.000000 
0.000000 0.000000 0.000000 
0.000000 0.000000 0.000000 

0.000000 0.000000 0.000000 
0.000000 0.000000 0.000000 
0.000000 0.000000 0.000000 

0.000000 -0.000000 0.000000 
0.000000 0.000000 0.000000 
0.000000 0.000000 0.000000 

-0.000000 0.000000 0.000000 
0.000000 -0.000000 0.000000 
0.000000 0.000000 0.000000 

0.000000 -0.000000 0.000000 
0.000000 0.000000 0.000000 
0.000000 0.000000 0.000000 

-0.000000 0.000000 0.000000 
0.000000 -0.000000 0.000000 
0.000000 0.000000 0.000000 

0.000000 0.000000 0.000000 
0.000000 0.000000 0.000000 
0.000000 0.000000 0.000000 

0.000000 0.000000 0.000000 
0.000000 -0.000000 0.000000 
0.000000 0.000000 0.000000 

-0.000000 -0.000000 0.000000 
0.000000 -0.000000 0.000000 
0.000000 0.000000 0.000000 

-0.000000 0.000000 0.000000 
0.000000 -0.000000 0.000000 
0.000000 0.000000 0.000000 

0.000000 -0.000000 0.000000 
0.000000 0.000000 0.000000 
0.000000 0.000000 0.000000 

-0.000000 0.000000 0.000000 
0.000000 -0.000000 0.000000 
0.000000 0.000000 0.000000 

0.000000 -0.000000 0.000000 
0.000000 0.000000 0.000000 
0.000000 0.000000 0.000000 

-0.000000 0.000000 0.000000 
0.000000 -0.000000 0.000000 
0.000000 0.000000 0.000000 

-0.000000 0.000000 0.000000 
0.000000 -0.000000 0.000000 
0.000000 0.000000 0.000000 

0.000000 -0.000000 0.000000 
0.000000 0.000000 0.000000 
0.000000 0.000000 0.000000 

-0.000000 0.000000 0.000000 
0.000000 -0.000000 0.000000 
0.000000 0.000000 0.000000 

-0.000000 0.000000 0.000000 
0.000000 -0.000000 0.000000 
0.000000 0.000000 0.000000 

0.000000 0.000000 0.000000 
0.000000 0.000000 0.000000 
0.000000 0.000000 0.000000 

0.000000 0.000000 0.000000 
0.000000 0.000000 0.000000 
0.000000 0.000000 0.000000 

-0.000000 0.000000 0.000000 
0.000000 -0.000000 0.000000 
0.000000 0.000000 0.000000 

-0.000000 -0.000000 0.000000 
0.000000 -0.000000 0.000000 
0.000000 0.000000 0.000000 

0.000000 -0.000000 0.000000 
0.000000 -0.000000 0.000000 
0.000000 0.000000 0.000000 

0.000000 -0.000000 0.000000 
0.000000 0.000000 0.000000 
0.000000 0.000000 0.000000 

-0.000000 0.000000 0.000000 
0.000000 -0.000000 0.000000 
0.000000 0.000000 0.000000 

-0.000000 0.000000 0.000000 
0.000000 -0.000000 0.000000 
0.000000 0.000000 0.000000 

0.000000 0.000000 0.000000 
0.000000 0.000000 0.000000 
0.000000 0.000000 0.000000 

-0.000000 0.000000 0.000000 
0.000000 -0.000000 0.000000 
0.000000 0.000000 0.000000 

0.000000 0.000000 0.000000 
0.000000 0.000000 0.000000 
0.000000 0.000000 0.000000 

0.000000 -0.000000 0.000000 
0.000000 0.000000 0.000000 
0.000000 0.000000 0.000000 

-0.000000 0.000000 0.000000 
0.000000 -0.000000 0.000000 
0.000000 0.000000 0.000000 

-0.000000 -0.000000 0.000000 
0.000000 -0.000000 0.000000 
0.000000 0.000000 0.000000 

0.000000 -0.000000 0.000000 
0.000000 0.000000 0.000000 
0.000000 0.000000 0.000000 

-0.000000 0.000000 0.000000 
0.000000 0.000000 0.000000 
0.000000 0.000000 0.000000 

-0.000000 0.000000 0.000000 
0.000000 -0.000000 0.000000 
0.000000 0.000000 0.000000 

-0.000000 0.000000 0.000000 
0.000000 -0.000000 0.000000 
0.000000 0.000000 0.000000 

0.000000 0.000000 0.000000 
0.000000 0.000000 0.000000 
0.000000 0.000000 0.000000 

0.000000 -0.000000 0.000000 
0.000000 0.000000 0.000000 
0.000000 0.000000 0.000000 

0.000000 -0.000000 0.000000 
0.000000 0.000000 0.000000 
0.000000 0.000000 0.000000 

-0.000000 -0.000000 0.000000 
0.000000 -0.000000 0.000000 
0.000000 0.000000 0.000000 

0.000000 -0.000000 0.000000 
0.000000 0.000000 0.000000 
0.000000 0.000000 0.000000 

-0.000000 -0.000000 0.000000 
0.000000 -0.000000 0.000000 
0.000000 0.000000 0.000000 

-0.000000 0.000000 0.000000 
0.000000 -0.000000 0.000000 
0.000000 0.000000 0.000000 

0.000000 0.000000 0.000000 
0.000000 0.000000 0.000000 
0.000000 0.000000 0.000000 

0.000000 0.000000 0.000000 
0.000000 0.000000 0.000000 
0.000000 0.000000 0.000000 

-0.000000 -0.000000 0.000000 
0.000000 -0.000000 0.000000 
0.000000 0.000000 0.000000 

-0.000000 -0.000000 0.000000 
0.000000 -0.000000 0.000000 
0.000000 0.000000 0.000000 

-0.000000 0.000000 0.000000 
0.000000 -0.000000 0.000000 
0.000000 0.000000 0.000000 

-0.000000 0.000000 0.000000 
0.000000 -0.000000 0.000000 
0.000000 0.000000 0.000000 

-0.000000 -0.000000 0.000000 
0.000000 -0.000000 0.000000 
0.000000 0.000000 0.000000 

0.000000 -0.000000 0.000000 
0.000000 0.000000 0.000000 
0.000000 0.000000 0.000000 

0.000000 -0.000000 0.000000 
0.000000 0.000000 0.000000 
0.000000 0.000000 0.000000 

0.000000 -0.000000 0.000000 
0.000000 0.000000 0.000000 
0.000000 0.000000 0.000000 

0.000000 0.000000 0.000000 
0.000000 0.000000 0.000000 
0.000000 0.000000 0.000000 

0.000000 0.000000 0.000000 
0.000000 0.000000 0.000000 
0.000000 0.000000 0.000000 

-0.000000 0.000000 0.000000 
0.000000 -0.000000 0.000000 
0.000000 0.000000 0.000000 

0.000000 -0.000000 0.000000 
0.000000 0.000000 0.000000 
0.000000 0.000000 0.000000 

-0.000000 -0.000000 0.000000 
0.000000 -0.000000 0.000000 
0.000000 0.000000 0.000000 

-0.000000 0.000000 0.000000 
0.000000 -0.000000 0.000000 
0.000000 0.000000 0.000000 

-0.000000 0.000000 0.000000 
0.000000 -0.000000 0.000000 
0.000000 0.000000 0.000000 

-0.000000 0.000000 0.000000 
0.000000 -0.000000 0.000000 
0.000000 0.000000 0.000000 

-0.000000 0.000000 0.000000 
0.000000 -0.000000 0.000000 
0.000000 0.000000 0.000000 

0.000000 0.000000 0.000000 
0.000000 0.000000 0.000000 
0.000000 0.000000 0.000000 

-0.000000 -0.000000 0.000000 
0.000000 -0.000000 0.000000 
0.000000 0.000000 0.000000 

0.000000 -0.000000 0.000000 
0.000000 0.000000 0.000000 
0.000000 0.000000 0.000000 

0.000000 -0.000000 0.000000 
0.000000 0.000000 0.000000 
0.000000 0.000000 0.000000 

-0.000000 0.000000 0.000000 
0.000000 -0.000000 0.000000 
0.000000 0.000000 0.000000 

0.000000 -0.000000 0.000000 
0.000000 0.000000 0.000000 
0.000000 0.000000 0.000000 

-0.000000 -0.000000 0.000000 
0.000000 -0.000000 0.000000 
0.000000 0.000000 0.000000 

0.000000 0.000000 0.000000 
0.000000 0.000000 0.000000 
0.000000 0.000000 0.000000 

0.000000 -0.000000 0.000000 
0.000000 0.000000 0.000000 
0.000000 0.000000 0.000000 

0.000000 -0.000000 0.000000 
0.000000 0.000000 0.000000 
0.000000 0.000000 0.000000 

0.000000 0.000000 0.000000 
0.000000 0.000000 0.000000 
0.000000 0.000000 0.000000 

-0.000000 0.000000 0.000000 
0.000000 -0.000000 0.000000 
0.000000 0.000000 0.000000 

0.000000 0.000000 0.000000 
0.000000 0.000000 0.000000 
0.000000 0.000000 0.000000 

0.000000 0.000000 0.000000 
0.000000 0.000000 0.000000 
0.000000 0.000000 0.000000 

-0.000000 0.000000 0.000000 
0.000000 -0.000000 0.000000 
0.000000 0.000000 0.000000 

0.000000 0.000000 0.000000 
0.000000 0.000000 0.000000 
0.000000 0.000000 0.000000 

0.000000 0.000000 0.000000 
0.000000 0.000000 0.000000 
0.000000 0.000000 0.000000 

0.000000 -0.000000 0.000000 
0.000000 0.000000 0.000000 
0.000000 0.000000 0.000000 

0.000000 -0.000000 0.000000 
0.000000 0.000000 0.000000 
0.000000 0.000000 0.000000 

-0.000000 0.000000 0.000000 
0.000000 -0.000000 0.000000 
0.000000 0.000000 0.000000 

-0.000000 -0.000000 0.000000 
0.000000 -0.000000 0.000000 
0.000000 0.000000 0.000000 

0.000000 0.000000 0.000000 
0.000000 0.000000 0.000000 
0.000000 0.000000 0.000000 

0.000000 0.000000 0.000000 
0.000000 0.000000 0.000000 
0.000000 0.000000 0.000000 

0.000000 0.000000 0.000000 
0.000000 0.000000 0.000000 
0.000000 0.000000 0.000000 

0.000000 0.000000 0.000000 
0.000000 0.000000 0.000000 
0.000000 0.000000 0.000000 

0.000000 -0.000000 0.000000 
0.000000 0.000000 0.000000 
0.000000 0.000000 0.000000 

0.000000 -0.000000 0.000000 
0.000000 0.000000 0.000000 
0.000000 0.000000 0.000000 

-0.000000 -0.000000 0.000000 
0.000000 -0.000000 0.000000 
0.000000 0.000000 0.000000 

TENSORS STRAIN float 
0.000000 -0.000000 0.000000 
0.000000 0.000000 0.000000 
0.000000 0.000000 0.000000 

-0.000000 -0.000000 0.000000 
0.000000 0.000000 0.000000 
0.000000 0.000000 0.000000 

0.000000 -0.000000 0.000000 
0.000000 0.000000 0.000000 
0.000000 0.000000 0.000000 

0.000000 -0.000000 0.000000 
0.000000 -0.000000 0.000000 
0.000000 0.000000 0.000000 

-0.000000 -0.000000 0.000000 
0.000000 0.000000 0.000000 
0.000000 0.000000 0.000000 

-0.000000 0.000000 0.000000 
0.000000 0.000000 0.000000 
0.000000 0.000000 0.000000 

-0.000000 -0.000000 0.000000 
0.000000 0.000000 0.000000 
0.000000 0.000000 0.000000 

0.000000 -0.000000 0.000000 
0.000000 -0.000000 0.000000 
0.000000 0.000000 0.000000 

0.000000 -0.000000 0.000000 
0.000000 0.000000 0.000000 
0.000000 0.000000 0.000000 

-0.000000 0.000000 0.000000 
0.000000 0.000000 0.000000 
0.000000 0.000000 0.000000 

-0.000000 -0.000000 0.000000 
0.000000 0.000000 0.000000 
0.000000 0.000000 0.000000 

-0.000000 -0.000000 0.000000 
0.000000 0.000000 0.000000 
0.000000 0.000000 0.000000 

-0.000000 0.000000 0.000000 
0.000000 0.000000 0.000000 
0.000000 0.000000 0.000000 

-0.000000 0.000000 0.000000 
0.000000 0.000000 0.000000 
0.000000 0.000000 0.000000 

0.000000 0.000000 0.000000 
0.000000 -0.000000 0.000000 
0.000000 0.000000 0.000000 

0.000000 0.000000 0.000000 
0.000000 -0.000000 0.000000 
0.000000 0.000000 0.000000 

-0.000000 0.000000 0.000000 
0.000000 0.000000 0.000000 
0.000000 0.000000 0.000000 

-0.000000 0.000000 0.000000 
0.000000 -0.000000 0.000000 
0.000000 0.000000 0.000000 

-0.000000 -0.000000 0.000000 
0.000000 0.000000 0.000000 
0.000000 0.000000 0.000000 

0.000000 -0.000000 0.000000 
0.000000 0.000000 0.000000 
0.000000 0.000000 0.000000 

0.000000 -0.000000 0.000000 
0.000000 -0.000000 0.000000 
0.000000 0.000000 0.000000 

0.000000 -0.000000 0.000000 
0.000000 -0.000000 0.000000 
0.000000 0.000000 0.000000 

0.000000 0.000000 0.000000 
0.000000 -0.000000 0.000000 
0.000000 0.000000 0.000000 

-0.000000 0.000000 0.000000 
0.000000 -0.000000 0.000000 
0.000000 0.000000 0.000000 

-0.000000 0.000000 0.000000 
0.000000 0.000000 0.000000 
0.000000 0.000000 0.000000 

-0.000000 -0.000000 0.000000 
0.000000 -0.000000 0.000000 
0.000000 0.000000 0.000000 

-0.000000 0.000000 0.000000 
0.000000 0.000000 0.000000 
0.000000 0.000000 0.000000 

-0.000000 -0.000000 0.000000 
0.000000 0.000000 0.000000 
0.000000 0.000000 0.000000 

-0.000000 0.000000 0.000000 
0.000000 0.000000 0.000000 
0.000000 0.000000 0.000000 

-0.000000 -0.000000 0.000000 
0.000000 0.000000 0.000000 
0.000000 0.000000 0.000000 

-0.000000 -0.000000 0.000000 
0.000000 0.000000 0.000000 
0.000000 0.000000 0.000000 

-0.000000 -0.000000 0.000000 
0.000000 0.000000 0.000000 
0.000000 0.000000 0.000000 

-0.000000 -0.000000 0.000000 
0.000000 0.000000 0.000000 
0.000000 0.000000 0.000000 

-0.000000 -0.000000 0.000000 
0.000000 0.000000 0.000000 
0.000000 0.000000 0.000000 

-0.000000 0.000000 0.000000 
0.000000 0.000000 0.000000 
0.000000 0.000000 0.000000 

-0.000000 -0.000000 0.000000 
0.000000 0.000000 0.000000 
0.000000 0.000000 0.000000 

-0.000000 -0.000000 0.000000 
0.000000 0.000000 0.000000 
0.000000 0.000000 0.000000 

-0.000000 -0.000000 0.000000 
0.000000 0.000000 0.000000 
0.000000 0.000000 0.000000 

-0.000000 -0.000000 0.000000 
0.000000 0.000000 0.000000 
0.000000 0.000000 0.000000 

-0.000000 -0.000000 0.000000 
0.000000 0.000000 0.000000 
0.000000 0.000000 0.000000 

-0.000000 -0.000000 0.000000 
0.000000 0.000000 0.000000 
0.000000 0.000000 0.000000 

0.000000 0.000000 0.000000 
0.000000 -0.000000 0.000000 
0.000000 0.000000 0.000000 

-0.000000 0.000000 0.000000 
0.000000 0.000000 0.000000 
0.000000 0.000000 0.000000 

-0.000000 0.000000 0.000000 
0.000000 0.000000 0.000000 
0.000000 0.000000 0.000000 

-0.000000 0.000000 0.000000 
0.000000 0.000000 0.000000 
0.000000 0.000000 0.000000 

-0.000000 -0.000000 0.000000 
0.000000 -0.000000 0.000000 
0.000000 0.000000 0.000000 

0.000000 0.000000 0.000000 
0.000000 -0.000000 0.000000 
0.000000 0.000000 0.000000 

0.000000 0.000000 0.000000 
0.000000 -0.000000 0.000000 
0.000000 0.000000 0.000000 

0.000000 -0.000000 0.000000 
0.000000 -0.000000 0.000000 
0.000000 0.000000 0.000000 

-0.000000 0.000000 0.000000 
0.000000 -0.000000 0.000000 
0.000000 0.000000 0.000000 

-0.000000 -0.000000 0.000000 
0.000000 -0.000000 0.000000 
0.000000 0.000000 0.000000 

-0.000000 0.000000 0.000000 
0.000000 0.000000 0.000000 
0.000000 0.000000 0.000000 

-0.000000 0.000000 0.000000 
0.000000 0.000000 0.000000 
0.000000 0.000000 0.000000 

-0.000000 0.000000 0.000000 
0.000000 -0.000000 0.000000 
0.000000 0.000000 0.000000 

-0.000000 0.000000 0.000000 
0.000000 -0.000000 0.000000 
0.000000 0.000000 0.000000 

-0.000000 0.000000 0.000000 
0.000000 0.000000 0.000000 
0.000000 0.000000 0.000000 

-0.000000 0.000000 0.000000 
0.000000 0.000000 0.000000 
0.000000 0.000000 0.000000 

-0.000000 0.000000 0.000000 
0.000000 0.000000 0.000000 
0.000000 0.000000 0.000000 

-0.000000 -0.000000 0.000000 
0.000000 0.000000 0.000000 
0.000000 0.000000 0.000000 

0.000000 0.000000 0.000000 
0.000000 -0.000000 0.000000 
0.000000 0.000000 0.000000 

0.000000 0.000000 0.000000 
0.000000 -0.000000 0.000000 
0.000000 0.000000 0.000000 

-0.000000 -0.000000 0.000000 
0.000000 -0.000000 0.000000 
0.000000 0.000000 0.000000 

0.000000 -0.000000 0.000000 
0.000000 -0.000000 0.000000 
0.000000 0.000000 0.000000 

0.000000 -0.000000 0.000000 
0.000000 -0.000000 0.000000 
0.000000 0.000000 0.000000 

0.000000 0.000000 0.000000 
0.000000 -0.000000 0.000000 
0.000000 0.000000 0.000000 

-0.000000 0.000000 0.000000 
0.000000 -0.000000 0.000000 
0.000000 0.000000 0.000000 

0.000000 0.000000 0.000000 
0.000000 -0.000000 0.000000 
0.000000 0.000000 0.000000 

-0.000000 0.000000 0.000000 
0.000000 0.000000 0.000000 
0.000000 0.000000 0.000000 

-0.000000 -0.000000 0.000000 
0.000000 0.000000 0.000000 
0.000000 0.000000 0.000000 

0.000000 0.000000 0.000000 
0.000000 -0.000000 0.000000 
0.000000 0.000000 0.000000 

0.000000 0.000000 0.000000 
0.000000 -0.000000 0.000000 
0.000000 0.000000 0.000000 

0.000000 -0.000000 0.000000 
0.000000 -0.000000 0.000000 
0.000000 0.000000 0.000000 

0.000000 -0.000000 0.000000 
0.000000 -0.000000 0.000000 
0.000000 0.000000 0.000000 

0.000000 -0.000000 0.000000 
0.000000 -0.000000 0.000000 
0.000000 0.000000 0.000000 

0.000000 -0.000000 0.000000 
0.000000 -0.000000 0.000000 
0.000000 0.000000 0.000000 

-0.000000 -0.000000 0.000000 
0.000000 -0.000000 0.000000 
0.000000 0.000000 0.000000 

-0.000000 -0.000000 0.000000 
0.000000 0.000000 0.000000 
0.000000 0.000000 0.000000 

-0.000000 -0.000000 0.000000 
0.000000 -0.000000 0.000000 
0.000000 0.000000 0.000000 

-0.000000 -0.000000 0.000000 
0.000000 0.000000 0.000000 
0.000000 0.000000 0.000000 

0.000000 -0.000000 0.000000 
0.000000 0.000000 0.000000 
0.000000 0.000000 0.000000 

-0.000000 -0.000000 0.000000 
0.000000 0.000000 0.000000 
0.000000 0.000000 0.000000 

-0.000000 -0.000000 0.000000 
0.000000 0.000000 0.000000 
0.000000 0.000000 0.000000 

-0.000000 -0.000000 0.000000 
0.000000 0.000000 0.000000 
0.000000 0.000000 0.000000 

-0.000000 0.000000 0.000000 
0.000000 0.000000 0.000000 
0.000000 0.000000 0.000000 

0.000000 0.000000 0.000000 
0.000000 -0.000000 0.000000 
0.000000 0.000000 0.000000 

-0.000000 0.000000 0.000000 
0.000000 0.000000 0.000000 
0.000000 0.000000 0.000000 

-0.000000 0.000000 0.000000 
0.000000 0.000000 0.000000 
0.000000 0.000000 0.000000 

-0.000000 -0.000000 0.000000 
0.000000 0.000000 0.000000 
0.000000 0.000000 0.000000 

-0.000000 0.000000 0.000000 
0.000000 -0.000000 0.000000 
0.000000 0.000000 0.000000 

0.000000 -0.000000 0.000000 
0.000000 0.000000 0.000000 
0.000000 0.000000 0.000000 

0.000000 0.000000 0.000000 
0.000000 -0.000000 0.000000 
0.000000 0.000000 0.000000 

0.000000 0.000000 0.000000 
0.000000 -0.000000 0.000000 
0.000000 0.000000 0.000000 

0.000000 0.000000 0.000000 
0.000000 -0.000000 0.000000 
0.000000 0.000000 0.000000 

0.000000 -0.000000 0.000000 
0.000000 -0.000000 0.000000 
0.000000 0.000000 0.000000 

-0.000000 0.000000 0.000000 
0.000000 -0.000000 0.000000 
0.000000 0.000000 0.000000 

0.000000 -0.000000 0.000000 
0.000000 0.000000 0.000000 
0.000000 0.000000 0.000000 

-0.000000 0.000000 0.000000 
0.000000 0.000000 0.000000 
0.000000 0.000000 0.000000 

0.000000 -0.000000 0.000000 
0.000000 -0.000000 0.000000 
0.000000 0.000000 0.000000 

0.000000 0.000000 0.000000 
0.000000 -0.000000 0.000000 
0.000000 0.000000 0.000000 

0.000000 0.000000 0.000000 
0.000000 -0.000000 0.000000 
0.000000 0.000000 0.000000 

-0.000000 -0.000000 0.000000 
0.000000 0.000000 0.000000 
0.000000 0.000000 0.000000 

-0.000000 0.000000 0.000000 
0.000000 0.000000 0.000000 
0.000000 0.000000 0.000000 

-0.000000 0.000000 0.000000 
0.000000 -0.000000 0.000000 
0.000000 0.000000 0.000000 

-0.000000 0.000000 0.000000 
0.000000 0.000000 0.000000 
0.000000 0.000000 0.000000 

0.000000 0.000000 0.000000 
0.000000 -0.000000 0.000000 
0.000000 0.000000 0.000000 

-0.000000 0.000000 0.000000 
0.000000 -0.000000 0.000000 
0.000000 0.000000 0.000000 

0.000000 -0.000000 0.000000 
0.000000 -0.000000 0.000000 
0.000000 0.000000 0.000000 

0.000000 -0.000000 0.000000 
0.000000 -0.000000 0.000000 
0.000000 0.000000 0.000000 

0.000000 -0.000000 0.000000 
0.000000 0.000000 0.000000 
0.000000 0.000000 0.000000 

0.000000 0.000000 0.000000 
0.000000 -0.000000 0.000000 
0.000000 0.000000 0.000000 

0.000000 0.000000 0.000000 
0.000000 -0.000000 0.000000 
0.000000 0.000000 0.000000 

-0.000000 0.000000 0.000000 
0.000000 0.000000 0.000000 
0.000000 0.000000 0.000000 

-0.000000 0.000000 0.000000 
0.000000 -0.000000 0.000000 
0.000000 0.000000 0.000000 

-0.000000 0.000000 0.000000 
0.000000 0.000000 0.000000 
0.000000 0.000000 0.000000 

0.000000 -0.000000 0.000000 
0.000000 0.000000 0.000000 
0.000000 0.000000 0.000000 

-0.000000 0.000000 0.000000 
0.000000 -0.000000 0.000000 
0.000000 0.000000 0.000000 

0.000000 -0.000000 0.000000 
0.000000 -0.000000 0.000000 
0.000000 0.000000 0.000000 

-0.000000 -0.000000 0.000000 
0.000000 0.000000 0.000000 
0.000000 0.000000 0.000000 

-0.000000 0.000000 0.000000 
0.000000 0.000000 0.000000 
0.000000 0.000000 0.000000 

0.000000 0.000000 0.000000 
0.000000 -0.000000 0.000000 
0.000000 0.000000 0.000000 

-0.000000 0.000000 0.000000 
0.000000 -0.000000 0.000000 
0.000000 0.000000 0.000000 

-0.000000 0.000000 0.000000 
0.000000 0.000000 0.000000 
0.000000 0.000000 0.000000 

-0.000000 -0.000000 0.000000 
0.000000 0.000000 0.000000 
0.000000 0.000000 0.000000 

-0.000000 -0.000000 0.000000 
0.000000 0.000000 0.000000 
0.000000 0.000000 0.000000 

0.000000 -0.000000 0.000000 
0.000000 -0.000000 0.000000 
0.000000 0.000000 0.000000 

-0.000000 -0.000000 0.000000 
0.000000 0.000000 0.000000 
0.000000 0.000000 0.000000 

-0.000000 -0.000000 0.000000 
0.000000 -0.000000 0.000000 
0.000000 0.000000 0.000000 

-0.000000 0.000000 0.000000 
0.000000 0.000000 0.000000 
0.000000 0.000000 0.000000 

-0.000000 0.000000 0.000000 
0.000000 0.000000 0.000000 
0.000000 0.000000 0.000000 

-0.000000 0.000000 0.000000 
0.000000 0.000000 0.000000 
0.000000 0.000000 0.000000 

-0.000000 -0.000000 0.000000 
0.000000 0.000000 0.000000 
0.000000 0.000000 0.000000 

0.000000 -0.000000 0.000000 
0.000000 -0.000000 0.000000 
0.000000 0.000000 0.000000 

-0.000000 0.000000 0.000000 
0.000000 -0.000000 0.000000 
0.000000 0.000000 0.000000 

0.000000 0.000000 0.000000 
0.000000 -0.000000 0.000000 
0.000000 0.000000 0.000000 

0.000000 -0.000000 0.000000 
0.000000 -0.000000 0.000000 
0.000000 0.000000 0.000000 

0.000000 -0.000000 0.000000 
0.000000 0.000000 0.000000 
0.000000 0.000000 0.000000 

0.000000 -0.000000 0.000000 
0.000000 -0.000000 0.000000 
0.000000 0.000000 0.000000 

0.000000 -0.000000 0.000000 
0.000000 0.000000 0.000000 
0.000000 0.000000 0.000000 

0.000000 0.000000 0.000000 
0.000000 -0.000000 0.000000 
0.000000 0.000000 0.000000 

0.000000 0.000000 0.000000 
0.000000 -0.000000 0.000000 
0.000000 0.000000 0.000000 

0.000000 0.000000 0.000000 
0.000000 -0.000000 0.000000 
0.000000 0.000000 0.000000 

0.000000 -0.000000 0.000000 
0.000000 -0.000000 0.000000 
0.000000 0.000000 0.000000 

0.000000 -0.000000 0.000000 
0.000000 -0.000000 0.000000 
0.000000 0.000000 0.000000 

-0.000000 0.000000 0.000000 
0.000000 0.000000 0.000000 
0.000000 0.000000 0.000000 

-0.000000 0.000000 0.000000 
0.000000 -0.000000 0.000000 
0.000000 0.000000 0.000000 

-0.000000 0.000000 0.000000 
0.000000 0.000000 0.000000 
0.000000 0.000000 0.000000 

-0.000000 0.000000 0.000000 
0.000000 0.000000 0.000000 
0.000000 0.000000 0.000000 

-0.000000 0.000000 0.000000 
0.000000 0.000000 0.000000 
0.000000 0.000000 0.000000 

0.000000 -0.000000 0.000000 
0.000000 -0.000000 0.000000 
0.000000 0.000000 0.000000 

0.000000 -0.000000 0.000000 
0.000000 -0.000000 0.000000 
0.000000 0.000000 0.000000 

0.000000 -0.000000 0.000000 
0.000000 0.000000 0.000000 
0.000000 0.000000 0.000000 

0.000000 0.000000 0.000000 
0.000000 -0.000000 0.000000 
0.000000 0.000000 0.000000 

0.000000 -0.000000 0.000000 
0.000000 0.000000 0.000000 
0.000000 0.000000 0.000000 

-0.000000 -0.000000 0.000000 
0.000000 -0.000000 0.000000 
0.000000 0.000000 0.000000 

0.000000 0.000000 0.000000 
0.000000 -0.000000 0.000000 
0.000000 0.000000 0.000000 

0.000000 -0.000000 0.000000 
0.000000 0.000000 0.000000 
0.000000 0.000000 0.000000 

-0.000000 -0.000000 0.000000 
0.000000 0.000000 0.000000 
0.000000 0.000000 0.000000 

-0.000000 0.000000 0.000000 
0.000000 0.000000 0.000000 
0.000000 0.000000 0.000000 

-0.000000 0.000000 0.000000 
0.000000 -0.000000 0.000000 
0.000000 0.000000 0.000000 

0.000000 0.000000 0.000000 
0.000000 0.000000 0.000000 
0.000000 0.000000 0.000000 

0.000000 0.000000 0.000000 
0.000000 0.000000 0.000000 
0.000000 0.000000 0.000000 

-0.000000 0.000000 0.000000 
0.000000 -0.000000 0.000000 
0.000000 0.000000 0.000000 

-0.000000 0.000000 0.000000 
0.000000 0.000000 0.000000 
0.000000 0.000000 0.000000 

-0.000000 0.000000 0.000000 
0.000000 0.000000 0.000000 
0.000000 0.000000 0.000000 

-0.000000 -0.000000 0.000000 
0.000000 0.000000 0.000000 
0.000000 0.000000 0.000000 

0.000000 -0.000000 0.000000 
0.000000 0.000000 0.000000 
0.000000 0.000000 0.000000 

-0.000000 0.000000 0.000000 
0.000000 -0.000000 0.000000 
0.000000 0.000000 0.000000 

-0.000000 -0.000000 0.000000 
0.000000 0.000000 0.000000 
0.000000 0.000000 0.000000 

0.000000 0.000000 0.000000 
0.000000 0.000000 0.000000 
0.000000 0.000000 0.000000 

0.000000 0.000000 0.000000 
0.000000 0.000000 0.000000 
0.000000 0.000000 0.000000 

0.000000 0.000000 0.000000 
0.000000 0.000000 0.000000 
0.000000 0.000000 0.000000 

-0.000000 0.000000 0.000000 
0.000000 0.000000 0.000000 
0.000000 0.000000 0.000000 

-0.000000 -0.000000 0.000000 
0.000000 0.000000 0.000000 
0.000000 0.000000 0.000000 

-0.000000 -0.000000 0.000000 
0.000000 0.000000 0.000000 
0.000000 0.000000 0.000000 

-0.000000 -0.000000 0.000000 
0.000000 -0.000000 0.000000 
0.000000 0.000000 0.000000 

