# vtk DataFile Version 3.0 
vtk output 
ASCII 
DATASET UNSTRUCTURED_GRID 
POINTS 175 float 
-0.026061 -0.901977 0.000000 
-0.106992 -0.833922 0.000000 
-0.054870 -0.842154 0.000000 
-0.028809 -0.796271 0.000000 
-0.186430 -0.769846 0.000000 
-0.137056 -0.772373 0.000000 
-0.114311 -0.718725 0.000000 
-0.058186 -0.734391 0.000000 
-0.029377 -0.694214 0.000000 
-0.265318 -0.706691 0.000000 
-0.217198 -0.707490 0.000000 
-0.196633 -0.650194 0.000000 
-0.143120 -0.658902 0.000000 
-0.116563 -0.611634 0.000000 
-0.058945 -0.631279 0.000000 
-0.029568 -0.593159 0.000000 
-0.344206 -0.643535 0.000000 
-0.296791 -0.643528 0.000000 
-0.278030 -0.583585 0.000000 
-0.225992 -0.589451 0.000000 
-0.201664 -0.537334 0.000000 
-0.145749 -0.550808 0.000000 
-0.117890 -0.506465 0.000000 
-0.059328 -0.529171 0.000000 
-0.029759 -0.492105 0.000000 
-0.058559 -0.942728 0.000000 
-0.162226 -0.963571 0.000000 
-0.123292 -0.927953 0.000000 
-0.142917 -0.878970 0.000000 
-0.261851 -0.985727 0.000000 
-0.229092 -0.948700 0.000000 
-0.256854 -0.897468 0.000000 
-0.209613 -0.863356 0.000000 
-0.223062 -0.815782 0.000000 
-0.360414 -1.008027 0.000000 
-0.329787 -0.970904 0.000000 
-0.361761 -0.919102 0.000000 
-0.321587 -0.882693 0.000000 
-0.341985 -0.832459 0.000000 
-0.290702 -0.799660 0.000000 
-0.302189 -0.752925 0.000000 
-0.458977 -1.030327 0.000000 
-0.429420 -0.993253 0.000000 
-0.464588 -0.941211 0.000000 
-0.427556 -0.904183 0.000000 
-0.453135 -0.852669 0.000000 
-0.407738 -0.817353 0.000000 
-0.425037 -0.767925 0.000000 
-0.370772 -0.736296 0.000000 
-0.381315 -0.690069 0.000000 
-0.046960 -0.993543 0.000000 
-0.095301 -1.087589 0.000000 
-0.098873 -1.034942 0.000000 
-0.149405 -1.019744 0.000000 
-0.140093 -1.179293 0.000000 
-0.148617 -1.130595 0.000000 
-0.205981 -1.120358 0.000000 
-0.203197 -1.062154 0.000000 
-0.248777 -1.043008 0.000000 
-0.184111 -1.270257 0.000000 
-0.194039 -1.223166 0.000000 
-0.254475 -1.215866 0.000000 
-0.257893 -1.161756 0.000000 
-0.309886 -1.146384 0.000000 
-0.303554 -1.085839 0.000000 
-0.347255 -1.065681 0.000000 
-0.228129 -1.361220 0.000000 
-0.238687 -1.314996 0.000000 
-0.301302 -1.310044 0.000000 
-0.307162 -1.258005 0.000000 
-0.363386 -1.245884 0.000000 
-0.362692 -1.188373 0.000000 
-0.412122 -1.171080 0.000000 
-0.403017 -1.108933 0.000000 
-0.445733 -1.088354 0.000000 
-0.000000 -1.016158 0.000000 
0.043388 -1.112589 0.000000 
-0.000000 -1.082556 0.000000 
-0.043388 -1.112589 0.000000 
0.087158 -1.204785 0.000000 
0.043769 -1.181087 0.000000 
-0.000000 -1.219553 0.000000 
-0.043769 -1.181087 0.000000 
-0.087158 -1.204785 0.000000 
0.130831 -1.295915 0.000000 
0.087824 -1.274316 0.000000 
0.044436 -1.317016 0.000000 
-0.000000 -1.285951 0.000000 
-0.044436 -1.317016 0.000000 
-0.087824 -1.274316 0.000000 
-0.130831 -1.295915 0.000000 
0.174505 -1.387045 0.000000 
0.131782 -1.366479 0.000000 
0.088871 -1.412345 0.000000 
0.044532 -1.384481 0.000000 
-0.000000 -1.420882 0.000000 
-0.044532 -1.384481 0.000000 
-0.088871 -1.412345 0.000000 
-0.131782 -1.366479 0.000000 
-0.174505 -1.387045 0.000000 
0.046960 -0.993543 0.000000 
0.149405 -1.019744 0.000000 
0.098873 -1.034942 0.000000 
0.095301 -1.087589 0.000000 
0.248777 -1.043008 0.000000 
0.203197 -1.062154 0.000000 
0.205981 -1.120358 0.000000 
0.148617 -1.130595 0.000000 
0.140093 -1.179293 0.000000 
0.347255 -1.065681 0.000000 
0.303554 -1.085839 0.000000 
0.309886 -1.146384 0.000000 
0.257893 -1.161756 0.000000 
0.254475 -1.215866 0.000000 
0.194039 -1.223166 0.000000 
0.184111 -1.270257 0.000000 
0.445733 -1.088354 0.000000 
0.403017 -1.108933 0.000000 
0.412122 -1.171080 0.000000 
0.362692 -1.188373 0.000000 
0.363386 -1.245884 0.000000 
0.307162 -1.258005 0.000000 
0.301302 -1.310044 0.000000 
0.238687 -1.314996 0.000000 
0.228129 -1.361220 0.000000 
0.058559 -0.942728 0.000000 
0.142917 -0.878970 0.000000 
0.123292 -0.927953 0.000000 
0.162226 -0.963571 0.000000 
0.223062 -0.815782 0.000000 
0.209613 -0.863356 0.000000 
0.256854 -0.897468 0.000000 
0.229092 -0.948700 0.000000 
0.261851 -0.985727 0.000000 
0.302189 -0.752925 0.000000 
0.290702 -0.799660 0.000000 
0.341985 -0.832459 0.000000 
0.321587 -0.882693 0.000000 
0.361761 -0.919102 0.000000 
0.329787 -0.970904 0.000000 
0.360414 -1.008027 0.000000 
0.381315 -0.690069 0.000000 
0.370772 -0.736296 0.000000 
0.425037 -0.767925 0.000000 
0.407738 -0.817353 0.000000 
0.453135 -0.852669 0.000000 
0.427556 -0.904183 0.000000 
0.464588 -0.941211 0.000000 
0.429420 -0.993253 0.000000 
0.458977 -1.030327 0.000000 
0.026061 -0.901977 0.000000 
0.028809 -0.796271 0.000000 
0.054870 -0.842154 0.000000 
0.106992 -0.833922 0.000000 
0.029377 -0.694214 0.000000 
0.058186 -0.734391 0.000000 
0.114311 -0.718725 0.000000 
0.137056 -0.772373 0.000000 
0.186430 -0.769846 0.000000 
0.029568 -0.593159 0.000000 
0.058945 -0.631279 0.000000 
0.116563 -0.611634 0.000000 
0.143120 -0.658902 0.000000 
0.196633 -0.650194 0.000000 
0.217198 -0.707490 0.000000 
0.265318 -0.706691 0.000000 
0.029759 -0.492105 0.000000 
0.059328 -0.529171 0.000000 
0.117890 -0.506465 0.000000 
0.145749 -0.550808 0.000000 
0.201664 -0.537334 0.000000 
0.225992 -0.589451 0.000000 
0.278030 -0.583585 0.000000 
0.296791 -0.643528 0.000000 
0.344206 -0.643535 0.000000 
CELLS 175 350 
1 0 
1 1 
1 2 
1 3 
1 4 
1 5 
1 6 
1 7 
1 8 
1 9 
1 10 
1 11 
1 12 
1 13 
1 14 
1 15 
1 16 
1 17 
1 18 
1 19 
1 20 
1 21 
1 22 
1 23 
1 24 
1 25 
1 26 
1 27 
1 28 
1 29 
1 30 
1 31 
1 32 
1 33 
1 34 
1 35 
1 36 
1 37 
1 38 
1 39 
1 40 
1 41 
1 42 
1 43 
1 44 
1 45 
1 46 
1 47 
1 48 
1 49 
1 50 
1 51 
1 52 
1 53 
1 54 
1 55 
1 56 
1 57 
1 58 
1 59 
1 60 
1 61 
1 62 
1 63 
1 64 
1 65 
1 66 
1 67 
1 68 
1 69 
1 70 
1 71 
1 72 
1 73 
1 74 
1 75 
1 76 
1 77 
1 78 
1 79 
1 80 
1 81 
1 82 
1 83 
1 84 
1 85 
1 86 
1 87 
1 88 
1 89 
1 90 
1 91 
1 92 
1 93 
1 94 
1 95 
1 96 
1 97 
1 98 
1 99 
1 100 
1 101 
1 102 
1 103 
1 104 
1 105 
1 106 
1 107 
1 108 
1 109 
1 110 
1 111 
1 112 
1 113 
1 114 
1 115 
1 116 
1 117 
1 118 
1 119 
1 120 
1 121 
1 122 
1 123 
1 124 
1 125 
1 126 
1 127 
1 128 
1 129 
1 130 
1 131 
1 132 
1 133 
1 134 
1 135 
1 136 
1 137 
1 138 
1 139 
1 140 
1 141 
1 142 
1 143 
1 144 
1 145 
1 146 
1 147 
1 148 
1 149 
1 150 
1 151 
1 152 
1 153 
1 154 
1 155 
1 156 
1 157 
1 158 
1 159 
1 160 
1 161 
1 162 
1 163 
1 164 
1 165 
1 166 
1 167 
1 168 
1 169 
1 170 
1 171 
1 172 
1 173 
1 174 
CELL_TYPES 175 
1 
1 
1 
1 
1 
1 
1 
1 
1 
1 
1 
1 
1 
1 
1 
1 
1 
1 
1 
1 
1 
1 
1 
1 
1 
1 
1 
1 
1 
1 
1 
1 
1 
1 
1 
1 
1 
1 
1 
1 
1 
1 
1 
1 
1 
1 
1 
1 
1 
1 
1 
1 
1 
1 
1 
1 
1 
1 
1 
1 
1 
1 
1 
1 
1 
1 
1 
1 
1 
1 
1 
1 
1 
1 
1 
1 
1 
1 
1 
1 
1 
1 
1 
1 
1 
1 
1 
1 
1 
1 
1 
1 
1 
1 
1 
1 
1 
1 
1 
1 
1 
1 
1 
1 
1 
1 
1 
1 
1 
1 
1 
1 
1 
1 
1 
1 
1 
1 
1 
1 
1 
1 
1 
1 
1 
1 
1 
1 
1 
1 
1 
1 
1 
1 
1 
1 
1 
1 
1 
1 
1 
1 
1 
1 
1 
1 
1 
1 
1 
1 
1 
1 
1 
1 
1 
1 
1 
1 
1 
1 
1 
1 
1 
1 
1 
1 
1 
1 
1 
1 
1 
1 
1 
1 
1 
POINT_DATA 175 
VECTORS X_GC float 
-0.026061 -0.901977 0.000000 
-0.106992 -0.833922 0.000000 
-0.054870 -0.842154 0.000000 
-0.028809 -0.796271 0.000000 
-0.186430 -0.769846 0.000000 
-0.137056 -0.772373 0.000000 
-0.114311 -0.718725 0.000000 
-0.058186 -0.734391 0.000000 
-0.029377 -0.694214 0.000000 
-0.265318 -0.706691 0.000000 
-0.217198 -0.707490 0.000000 
-0.196633 -0.650194 0.000000 
-0.143120 -0.658902 0.000000 
-0.116563 -0.611634 0.000000 
-0.058945 -0.631279 0.000000 
-0.029568 -0.593159 0.000000 
-0.344206 -0.643535 0.000000 
-0.296791 -0.643528 0.000000 
-0.278030 -0.583585 0.000000 
-0.225992 -0.589451 0.000000 
-0.201664 -0.537334 0.000000 
-0.145749 -0.550808 0.000000 
-0.117890 -0.506465 0.000000 
-0.059328 -0.529171 0.000000 
-0.029759 -0.492105 0.000000 
-0.058559 -0.942728 0.000000 
-0.162226 -0.963571 0.000000 
-0.123292 -0.927953 0.000000 
-0.142917 -0.878970 0.000000 
-0.261851 -0.985727 0.000000 
-0.229092 -0.948700 0.000000 
-0.256854 -0.897468 0.000000 
-0.209613 -0.863356 0.000000 
-0.223062 -0.815782 0.000000 
-0.360414 -1.008027 0.000000 
-0.329787 -0.970904 0.000000 
-0.361761 -0.919102 0.000000 
-0.321587 -0.882693 0.000000 
-0.341985 -0.832459 0.000000 
-0.290702 -0.799660 0.000000 
-0.302189 -0.752925 0.000000 
-0.458977 -1.030327 0.000000 
-0.429420 -0.993253 0.000000 
-0.464588 -0.941211 0.000000 
-0.427556 -0.904183 0.000000 
-0.453135 -0.852669 0.000000 
-0.407738 -0.817353 0.000000 
-0.425037 -0.767925 0.000000 
-0.370772 -0.736296 0.000000 
-0.381315 -0.690069 0.000000 
-0.046960 -0.993543 0.000000 
-0.095301 -1.087589 0.000000 
-0.098873 -1.034942 0.000000 
-0.149405 -1.019744 0.000000 
-0.140093 -1.179293 0.000000 
-0.148617 -1.130595 0.000000 
-0.205981 -1.120358 0.000000 
-0.203197 -1.062154 0.000000 
-0.248777 -1.043008 0.000000 
-0.184111 -1.270257 0.000000 
-0.194039 -1.223166 0.000000 
-0.254475 -1.215866 0.000000 
-0.257893 -1.161756 0.000000 
-0.309886 -1.146384 0.000000 
-0.303554 -1.085839 0.000000 
-0.347255 -1.065681 0.000000 
-0.228129 -1.361220 0.000000 
-0.238687 -1.314996 0.000000 
-0.301302 -1.310044 0.000000 
-0.307162 -1.258005 0.000000 
-0.363386 -1.245884 0.000000 
-0.362692 -1.188373 0.000000 
-0.412122 -1.171080 0.000000 
-0.403017 -1.108933 0.000000 
-0.445733 -1.088354 0.000000 
-0.000000 -1.016158 0.000000 
0.043388 -1.112589 0.000000 
-0.000000 -1.082556 0.000000 
-0.043388 -1.112589 0.000000 
0.087158 -1.204785 0.000000 
0.043769 -1.181087 0.000000 
-0.000000 -1.219553 0.000000 
-0.043769 -1.181087 0.000000 
-0.087158 -1.204785 0.000000 
0.130831 -1.295915 0.000000 
0.087824 -1.274316 0.000000 
0.044436 -1.317016 0.000000 
-0.000000 -1.285951 0.000000 
-0.044436 -1.317016 0.000000 
-0.087824 -1.274316 0.000000 
-0.130831 -1.295915 0.000000 
0.174505 -1.387045 0.000000 
0.131782 -1.366479 0.000000 
0.088871 -1.412345 0.000000 
0.044532 -1.384481 0.000000 
-0.000000 -1.420882 0.000000 
-0.044532 -1.384481 0.000000 
-0.088871 -1.412345 0.000000 
-0.131782 -1.366479 0.000000 
-0.174505 -1.387045 0.000000 
0.046960 -0.993543 0.000000 
0.149405 -1.019744 0.000000 
0.098873 -1.034942 0.000000 
0.095301 -1.087589 0.000000 
0.248777 -1.043008 0.000000 
0.203197 -1.062154 0.000000 
0.205981 -1.120358 0.000000 
0.148617 -1.130595 0.000000 
0.140093 -1.179293 0.000000 
0.347255 -1.065681 0.000000 
0.303554 -1.085839 0.000000 
0.309886 -1.146384 0.000000 
0.257893 -1.161756 0.000000 
0.254475 -1.215866 0.000000 
0.194039 -1.223166 0.000000 
0.184111 -1.270257 0.000000 
0.445733 -1.088354 0.000000 
0.403017 -1.108933 0.000000 
0.412122 -1.171080 0.000000 
0.362692 -1.188373 0.000000 
0.363386 -1.245884 0.000000 
0.307162 -1.258005 0.000000 
0.301302 -1.310044 0.000000 
0.238687 -1.314996 0.000000 
0.228129 -1.361220 0.000000 
0.058559 -0.942728 0.000000 
0.142917 -0.878970 0.000000 
0.123292 -0.927953 0.000000 
0.162226 -0.963571 0.000000 
0.223062 -0.815782 0.000000 
0.209613 -0.863356 0.000000 
0.256854 -0.897468 0.000000 
0.229092 -0.948700 0.000000 
0.261851 -0.985727 0.000000 
0.302189 -0.752925 0.000000 
0.290702 -0.799660 0.000000 
0.341985 -0.832459 0.000000 
0.321587 -0.882693 0.000000 
0.361761 -0.919102 0.000000 
0.329787 -0.970904 0.000000 
0.360414 -1.008027 0.000000 
0.381315 -0.690069 0.000000 
0.370772 -0.736296 0.000000 
0.425037 -0.767925 0.000000 
0.407738 -0.817353 0.000000 
0.453135 -0.852669 0.000000 
0.427556 -0.904183 0.000000 
0.464588 -0.941211 0.000000 
0.429420 -0.993253 0.000000 
0.458977 -1.030327 0.000000 
0.026061 -0.901977 0.000000 
0.028809 -0.796271 0.000000 
0.054870 -0.842154 0.000000 
0.106992 -0.833922 0.000000 
0.029377 -0.694214 0.000000 
0.058186 -0.734391 0.000000 
0.114311 -0.718725 0.000000 
0.137056 -0.772373 0.000000 
0.186430 -0.769846 0.000000 
0.029568 -0.593159 0.000000 
0.058945 -0.631279 0.000000 
0.116563 -0.611634 0.000000 
0.143120 -0.658902 0.000000 
0.196633 -0.650194 0.000000 
0.217198 -0.707490 0.000000 
0.265318 -0.706691 0.000000 
0.029759 -0.492105 0.000000 
0.059328 -0.529171 0.000000 
0.117890 -0.506465 0.000000 
0.145749 -0.550808 0.000000 
0.201664 -0.537334 0.000000 
0.225992 -0.589451 0.000000 
0.278030 -0.583585 0.000000 
0.296791 -0.643528 0.000000 
0.344206 -0.643535 0.000000 
VECTORS X_EC float 
0.338794 0.676693 0.000000 
-0.609100 -0.242055 0.000000 
0.713312 -0.130915 0.000000 
0.374519 -0.750344 0.000000 
0.423588 0.892925 0.000000 
-0.218274 0.927029 0.000000 
-0.513962 0.202790 0.000000 
0.756418 0.414276 0.000000 
0.381900 -0.128116 0.000000 
-0.550868 0.040322 0.000000 
0.823577 0.051118 0.000000 
0.556234 -0.722386 0.000000 
-0.139443 -0.604818 0.000000 
-0.484677 0.757058 0.000000 
0.766286 -0.977727 0.000000 
0.384386 0.507653 0.000000 
0.474677 -0.812281 0.000000 
-0.141715 -0.812377 0.000000 
-0.385608 0.378394 0.000000 
0.937896 0.457590 0.000000 
0.621631 -0.245990 0.000000 
-0.105264 -0.064091 0.000000 
-0.467428 -0.662717 0.000000 
0.771260 -0.356189 0.000000 
0.386873 -0.856578 0.000000 
0.761262 -0.773173 0.000000 
0.108942 -0.491796 0.000000 
-0.397202 -0.972635 0.000000 
-0.142083 0.366090 0.000000 
-0.595936 -0.192685 0.000000 
0.978194 -0.692551 0.000000 
-0.660903 0.615824 0.000000 
0.724964 0.155304 0.000000 
0.899809 -0.486945 0.000000 
0.685384 0.108367 0.000000 
0.287229 -0.392792 0.000000 
0.702895 0.907880 0.000000 
0.180633 0.416361 0.000000 
0.445811 -0.261798 0.000000 
-0.220880 -0.704584 0.000000 
-0.071546 0.664490 0.000000 
-0.033296 0.409419 0.000000 
-0.417537 -0.091090 0.000000 
0.039645 -0.793653 0.000000 
-0.441768 0.706476 0.000000 
-0.109248 0.011025 0.000000 
-0.699407 -0.465730 0.000000 
-0.474522 0.866990 0.000000 
0.820030 0.439997 0.000000 
0.957100 -0.184075 0.000000 
0.610485 -0.087166 0.000000 
-0.761092 -0.817547 0.000000 
-0.714655 0.471716 0.000000 
-0.057734 0.266549 0.000000 
-0.178789 0.420457 0.000000 
-0.067979 -0.236969 0.000000 
0.677748 -0.375172 0.000000 
0.641556 0.839083 0.000000 
-0.765897 0.580604 0.000000 
0.393446 -0.351533 0.000000 
0.522510 -0.987263 0.000000 
-0.691820 0.914192 0.000000 
-0.647393 0.183710 0.000000 
0.028512 -0.023817 0.000000 
-0.053800 -0.841177 0.000000 
0.514316 0.886692 0.000000 
0.965681 0.876476 0.000000 
-0.897068 0.252447 0.000000 
-0.083078 0.185594 0.000000 
-0.006893 -0.516931 0.000000 
0.724017 -0.680564 0.000000 
0.714996 0.543033 0.000000 
-0.642413 0.309575 0.000000 
-0.760780 -0.529405 0.000000 
-0.205471 -0.807220 0.000000 
0.000000 0.218135 0.000000 
-0.564049 -0.480052 0.000000 
0.000000 -0.885488 0.000000 
0.564049 -0.480052 0.000000 
0.866949 0.764604 0.000000 
-0.569003 0.444672 0.000000 
0.000000 0.963961 0.000000 
0.569003 0.444672 0.000000 
-0.866949 0.764604 0.000000 
0.299194 -0.005146 0.000000 
0.858290 -0.296730 0.000000 
-0.577662 0.279716 0.000000 
0.000000 -0.139663 0.000000 
0.577662 0.279716 0.000000 
-0.858290 -0.296730 0.000000 
-0.299194 -0.005146 0.000000 
-0.268560 -0.774896 0.000000 
0.286830 0.947462 0.000000 
0.844677 -0.433340 0.000000 
-0.578910 -0.809502 0.000000 
0.000000 -0.318099 0.000000 
0.578910 -0.809502 0.000000 
-0.844677 -0.433340 0.000000 
-0.286830 0.947462 0.000000 
0.268560 -0.774896 0.000000 
-0.610485 -0.087166 0.000000 
0.057734 0.266549 0.000000 
0.714655 0.471716 0.000000 
0.761092 -0.817547 0.000000 
0.765897 0.580604 0.000000 
-0.641556 0.839083 0.000000 
-0.677748 -0.375172 0.000000 
0.067979 -0.236969 0.000000 
0.178789 0.420457 0.000000 
-0.514316 0.886692 0.000000 
0.053800 -0.841177 0.000000 
-0.028512 -0.023817 0.000000 
0.647393 0.183710 0.000000 
0.691820 0.914192 0.000000 
-0.522510 -0.987263 0.000000 
-0.393446 -0.351533 0.000000 
0.205471 -0.807220 0.000000 
0.760780 -0.529405 0.000000 
0.642413 0.309575 0.000000 
-0.714996 0.543033 0.000000 
-0.724017 -0.680564 0.000000 
0.006894 -0.516931 0.000000 
0.083078 0.185594 0.000000 
0.897068 0.252447 0.000000 
-0.965681 0.876476 0.000000 
-0.761262 -0.773173 0.000000 
0.142083 0.366090 0.000000 
0.397202 -0.972635 0.000000 
-0.108942 -0.491796 0.000000 
-0.899809 -0.486945 0.000000 
-0.724964 0.155304 0.000000 
0.660903 0.615824 0.000000 
-0.978194 -0.692551 0.000000 
0.595936 -0.192685 0.000000 
0.071546 0.664490 0.000000 
0.220880 -0.704584 0.000000 
-0.445811 -0.261798 0.000000 
-0.180633 0.416361 0.000000 
-0.702895 0.907880 0.000000 
-0.287229 -0.392792 0.000000 
-0.685384 0.108367 0.000000 
-0.957100 -0.184075 0.000000 
-0.820030 0.439997 0.000000 
0.474522 0.866990 0.000000 
0.699407 -0.465730 0.000000 
0.109248 0.011025 0.000000 
0.441768 0.706476 0.000000 
-0.039645 -0.793653 0.000000 
0.417537 -0.091090 0.000000 
0.033296 0.409419 0.000000 
-0.338794 0.676693 0.000000 
-0.374519 -0.750344 0.000000 
-0.713312 -0.130915 0.000000 
0.609100 -0.242055 0.000000 
-0.381900 -0.128116 0.000000 
-0.756418 0.414276 0.000000 
0.513962 0.202790 0.000000 
0.218274 0.927029 0.000000 
-0.423588 0.892925 0.000000 
-0.384386 0.507653 0.000000 
-0.766286 -0.977727 0.000000 
0.484677 0.757058 0.000000 
0.139443 -0.604818 0.000000 
-0.556234 -0.722386 0.000000 
-0.823577 0.051118 0.000000 
0.550868 0.040322 0.000000 
-0.386873 -0.856578 0.000000 
-0.771260 -0.356189 0.000000 
0.467428 -0.662717 0.000000 
0.105264 -0.064091 0.000000 
-0.621631 -0.245990 0.000000 
-0.937896 0.457590 0.000000 
0.385608 0.378394 0.000000 
0.141715 -0.812377 0.000000 
-0.474677 -0.812281 0.000000 
CELL_DATA 175 
SCALARS MASS float 
LOOKUP_TABLE default 
0.781831 
0.864274 
0.946717 
0.864274 
0.881307 
0.921110 
0.858535 
0.921110 
0.881307 
0.887046 
0.910001 
0.869829 
0.915556 
0.869829 
0.910001 
0.887046 
0.892784 
0.915740 
0.892784 
0.927218 
0.892784 
0.927218 
0.892784 
0.915740 
0.892784 
0.781831 
0.864274 
0.946717 
0.864274 
0.881307 
0.921110 
0.858535 
0.921110 
0.881307 
0.887046 
0.910001 
0.869829 
0.915556 
0.869829 
0.910001 
0.887046 
0.892784 
0.915740 
0.892784 
0.927218 
0.892784 
0.927218 
0.892784 
0.915740 
0.892784 
0.781831 
0.864274 
0.946717 
0.864274 
0.881307 
0.921110 
0.858535 
0.921110 
0.881307 
0.887046 
0.910001 
0.869829 
0.915556 
0.869829 
0.910001 
0.887046 
0.892784 
0.915740 
0.892784 
0.927218 
0.892784 
0.927218 
0.892784 
0.915740 
0.892784 
0.781831 
0.864274 
0.946717 
0.864274 
0.881307 
0.921110 
0.858535 
0.921110 
0.881307 
0.887046 
0.910001 
0.869829 
0.915556 
0.869829 
0.910001 
0.887046 
0.892784 
0.915740 
0.892784 
0.927218 
0.892784 
0.927218 
0.892784 
0.915740 
0.892784 
0.781831 
0.864274 
0.946717 
0.864274 
0.881307 
0.921110 
0.858535 
0.921110 
0.881307 
0.887046 
0.910001 
0.869829 
0.915556 
0.869829 
0.910001 
0.887046 
0.892784 
0.915740 
0.892784 
0.927218 
0.892784 
0.927218 
0.892784 
0.915740 
0.892784 
0.781831 
0.864274 
0.946717 
0.864274 
0.881307 
0.921110 
0.858535 
0.921110 
0.881307 
0.887046 
0.910001 
0.869829 
0.915556 
0.869829 
0.910001 
0.887046 
0.892784 
0.915740 
0.892784 
0.927218 
0.892784 
0.927218 
0.892784 
0.915740 
0.892784 
0.781831 
0.864274 
0.946717 
0.864274 
0.881307 
0.921110 
0.858535 
0.921110 
0.881307 
0.887046 
0.910001 
0.869829 
0.915556 
0.869829 
0.910001 
0.887046 
0.892784 
0.915740 
0.892784 
0.927218 
0.892784 
0.927218 
0.892784 
0.915740 
0.892784 
SCALARS MASS float 
LOOKUP_TABLE default 
0.781831 
0.864274 
0.946717 
0.864274 
0.881307 
0.921110 
0.858535 
0.921110 
0.881307 
0.887046 
0.910001 
0.869829 
0.915556 
0.869829 
0.910001 
0.887046 
0.892784 
0.915740 
0.892784 
0.927218 
0.892784 
0.927218 
0.892784 
0.915740 
0.892784 
0.781831 
0.864274 
0.946717 
0.864274 
0.881307 
0.921110 
0.858535 
0.921110 
0.881307 
0.887046 
0.910001 
0.869829 
0.915556 
0.869829 
0.910001 
0.887046 
0.892784 
0.915740 
0.892784 
0.927218 
0.892784 
0.927218 
0.892784 
0.915740 
0.892784 
0.781831 
0.864274 
0.946717 
0.864274 
0.881307 
0.921110 
0.858535 
0.921110 
0.881307 
0.887046 
0.910001 
0.869829 
0.915556 
0.869829 
0.910001 
0.887046 
0.892784 
0.915740 
0.892784 
0.927218 
0.892784 
0.927218 
0.892784 
0.915740 
0.892784 
0.781831 
0.864274 
0.946717 
0.864274 
0.881307 
0.921110 
0.858535 
0.921110 
0.881307 
0.887046 
0.910001 
0.869829 
0.915556 
0.869829 
0.910001 
0.887046 
0.892784 
0.915740 
0.892784 
0.927218 
0.892784 
0.927218 
0.892784 
0.915740 
0.892784 
0.781831 
0.864274 
0.946717 
0.864274 
0.881307 
0.921110 
0.858535 
0.921110 
0.881307 
0.887046 
0.910001 
0.869829 
0.915556 
0.869829 
0.910001 
0.887046 
0.892784 
0.915740 
0.892784 
0.927218 
0.892784 
0.927218 
0.892784 
0.915740 
0.892784 
0.781831 
0.864274 
0.946717 
0.864274 
0.881307 
0.921110 
0.858535 
0.921110 
0.881307 
0.887046 
0.910001 
0.869829 
0.915556 
0.869829 
0.910001 
0.887046 
0.892784 
0.915740 
0.892784 
0.927218 
0.892784 
0.927218 
0.892784 
0.915740 
0.892784 
0.781831 
0.864274 
0.946717 
0.864274 
0.881307 
0.921110 
0.858535 
0.921110 
0.881307 
0.887046 
0.910001 
0.869829 
0.915556 
0.869829 
0.910001 
0.887046 
0.892784 
0.915740 
0.892784 
0.927218 
0.892784 
0.927218 
0.892784 
0.915740 
0.892784 
SCALARS DENSITY float 
LOOKUP_TABLE default 
200.000000 
200.000000 
200.000000 
200.000000 
200.000000 
200.000000 
200.000000 
200.000000 
200.000000 
200.000000 
200.000000 
200.000000 
200.000000 
200.000000 
200.000000 
200.000000 
200.000000 
200.000000 
200.000000 
200.000000 
200.000000 
200.000000 
200.000000 
200.000000 
200.000000 
200.000000 
200.000000 
200.000000 
200.000000 
200.000000 
200.000000 
200.000000 
200.000000 
200.000000 
200.000000 
200.000000 
200.000000 
200.000000 
200.000000 
200.000000 
200.000000 
200.000000 
200.000000 
200.000000 
200.000000 
200.000000 
200.000000 
200.000000 
200.000000 
200.000000 
200.000000 
200.000000 
200.000000 
200.000000 
200.000000 
200.000000 
200.000000 
200.000000 
200.000000 
200.000000 
200.000000 
200.000000 
200.000000 
200.000000 
200.000000 
200.000000 
200.000000 
200.000000 
200.000000 
200.000000 
200.000000 
200.000000 
200.000000 
200.000000 
200.000000 
200.000000 
200.000000 
200.000000 
200.000000 
200.000000 
200.000000 
200.000000 
200.000000 
200.000000 
200.000000 
200.000000 
200.000000 
200.000000 
200.000000 
200.000000 
200.000000 
200.000000 
200.000000 
200.000000 
200.000000 
200.000000 
200.000000 
200.000000 
200.000000 
200.000000 
200.000000 
200.000000 
200.000000 
200.000000 
200.000000 
200.000000 
200.000000 
200.000000 
200.000000 
200.000000 
200.000000 
200.000000 
200.000000 
200.000000 
200.000000 
200.000000 
200.000000 
200.000000 
200.000000 
200.000000 
200.000000 
200.000000 
200.000000 
200.000000 
200.000000 
200.000000 
200.000000 
200.000000 
200.000000 
200.000000 
200.000000 
200.000000 
200.000000 
200.000000 
200.000000 
200.000000 
200.000000 
200.000000 
200.000000 
200.000000 
200.000000 
200.000000 
200.000000 
200.000000 
200.000000 
200.000000 
200.000000 
200.000000 
200.000000 
200.000000 
200.000000 
200.000000 
200.000000 
200.000000 
200.000000 
200.000000 
200.000000 
200.000000 
200.000000 
200.000000 
200.000000 
200.000000 
200.000000 
200.000000 
200.000000 
200.000000 
200.000000 
200.000000 
200.000000 
200.000000 
200.000000 
200.000000 
200.000000 
200.000000 
200.000000 
SCALARS ELEM_i float 
LOOKUP_TABLE default 
176 
203 
176 
176 
204 
204 
204 
177 
177 
231 
204 
204 
204 
205 
177 
178 
231 
231 
232 
205 
205 
205 
205 
178 
178 
175 
202 
202 
203 
229 
202 
230 
203 
203 
229 
229 
230 
230 
230 
230 
231 
256 
256 
256 
257 
257 
257 
258 
231 
231 
175 
201 
202 
202 
201 
201 
201 
202 
229 
200 
200 
228 
228 
228 
228 
229 
200 
227 
227 
227 
227 
228 
255 
255 
255 
175 
174 
174 
174 
147 
174 
174 
174 
201 
146 
146 
173 
173 
173 
200 
200 
145 
146 
145 
172 
172 
172 
199 
200 
199 
175 
148 
148 
147 
121 
148 
147 
147 
147 
121 
120 
120 
120 
120 
146 
146 
93 
93 
93 
120 
119 
119 
119 
119 
146 
175 
149 
148 
148 
149 
149 
122 
148 
121 
123 
122 
122 
122 
122 
121 
121 
123 
123 
96 
95 
95 
95 
94 
94 
94 
176 
176 
176 
149 
177 
177 
150 
150 
150 
178 
177 
151 
150 
150 
150 
123 
178 
178 
151 
151 
151 
151 
124 
123 
123 
VECTORS VELOCITY float 
-0.000000 -4.330134 0.000000 
-0.000000 -4.330134 0.000000 
-0.000000 -4.330134 0.000000 
0.000000 -4.330134 0.000000 
0.000000 -4.330134 0.000000 
0.000000 -4.330134 0.000000 
-0.000000 -4.330134 0.000000 
-0.000000 -4.330134 0.000000 
0.000000 -4.330134 0.000000 
-0.000000 -4.330134 0.000000 
-0.000000 -4.330134 0.000000 
-0.000000 -4.330134 0.000000 
0.000000 -4.330134 0.000000 
0.000000 -4.330134 0.000000 
0.000000 -4.330134 0.000000 
0.000000 -4.330134 0.000000 
0.000000 -4.330134 0.000000 
-0.000000 -4.330134 0.000000 
-0.000000 -4.330134 0.000000 
-0.000000 -4.330134 0.000000 
0.000000 -4.330134 0.000000 
0.000000 -4.330134 0.000000 
0.000000 -4.330134 0.000000 
-0.000000 -4.330134 0.000000 
0.000000 -4.330134 0.000000 
-0.000000 -4.330134 0.000000 
-0.000000 -4.330134 0.000000 
-0.000000 -4.330134 0.000000 
0.000000 -4.330134 0.000000 
0.000000 -4.330134 0.000000 
0.000000 -4.330134 0.000000 
0.000000 -4.330134 0.000000 
0.000000 -4.330134 0.000000 
0.000000 -4.330134 0.000000 
-0.000000 -4.330134 0.000000 
-0.000000 -4.330134 0.000000 
-0.000000 -4.330134 0.000000 
-0.000000 -4.330134 0.000000 
-0.000000 -4.330134 0.000000 
-0.000000 -4.330134 0.000000 
-0.000000 -4.330134 0.000000 
0.000000 -4.330134 0.000000 
-0.000000 -4.330134 0.000000 
-0.000000 -4.330134 0.000000 
0.000000 -4.330134 0.000000 
0.000000 -4.330134 0.000000 
-0.000000 -4.330134 0.000000 
0.000000 -4.330134 0.000000 
-0.000000 -4.330134 0.000000 
0.000000 -4.330134 0.000000 
-0.000000 -4.330134 0.000000 
-0.000000 -4.330134 0.000000 
-0.000000 -4.330134 0.000000 
-0.000000 -4.330134 0.000000 
-0.000000 -4.330134 0.000000 
0.000000 -4.330134 0.000000 
0.000000 -4.330134 0.000000 
0.000000 -4.330134 0.000000 
-0.000000 -4.330134 0.000000 
-0.000000 -4.330134 0.000000 
0.000000 -4.330134 0.000000 
0.000000 -4.330134 0.000000 
0.000000 -4.330134 0.000000 
0.000000 -4.330134 0.000000 
0.000000 -4.330134 0.000000 
-0.000000 -4.330134 0.000000 
-0.000000 -4.330134 0.000000 
-0.000000 -4.330134 0.000000 
-0.000000 -4.330134 0.000000 
-0.000000 -4.330134 0.000000 
-0.000000 -4.330134 0.000000 
0.000000 -4.330134 0.000000 
-0.000000 -4.330134 0.000000 
-0.000000 -4.330134 0.000000 
-0.000000 -4.330134 0.000000 
0.000000 -4.330134 0.000000 
-0.000000 -4.330134 0.000000 
-0.000000 -4.330134 0.000000 
-0.000000 -4.330134 0.000000 
-0.000000 -4.330134 0.000000 
-0.000000 -4.330134 0.000000 
-0.000000 -4.330134 0.000000 
-0.000000 -4.330134 0.000000 
-0.000000 -4.330134 0.000000 
-0.000000 -4.330134 0.000000 
0.000000 -4.330134 0.000000 
0.000000 -4.330134 0.000000 
0.000000 -4.330134 0.000000 
0.000000 -4.330134 0.000000 
-0.000000 -4.330134 0.000000 
-0.000000 -4.330134 0.000000 
-0.000000 -4.330134 0.000000 
0.000000 -4.330134 0.000000 
-0.000000 -4.330134 0.000000 
0.000000 -4.330134 0.000000 
0.000000 -4.330134 0.000000 
-0.000000 -4.330134 0.000000 
-0.000000 -4.330134 0.000000 
-0.000000 -4.330134 0.000000 
-0.000000 -4.330134 0.000000 
0.000000 -4.330134 0.000000 
0.000000 -4.330134 0.000000 
0.000000 -4.330134 0.000000 
-0.000000 -4.330134 0.000000 
-0.000000 -4.330134 0.000000 
-0.000000 -4.330134 0.000000 
-0.000000 -4.330134 0.000000 
-0.000000 -4.330134 0.000000 
-0.000000 -4.330134 0.000000 
0.000000 -4.330134 0.000000 
-0.000000 -4.330134 0.000000 
-0.000000 -4.330134 0.000000 
-0.000000 -4.330134 0.000000 
-0.000000 -4.330134 0.000000 
-0.000000 -4.330134 0.000000 
-0.000000 -4.330134 0.000000 
0.000000 -4.330134 0.000000 
-0.000000 -4.330134 0.000000 
-0.000000 -4.330134 0.000000 
-0.000000 -4.330134 0.000000 
-0.000000 -4.330134 0.000000 
-0.000000 -4.330134 0.000000 
0.000000 -4.330134 0.000000 
-0.000000 -4.330134 0.000000 
-0.000000 -4.330134 0.000000 
0.000000 -4.330134 0.000000 
0.000000 -4.330134 0.000000 
0.000000 -4.330134 0.000000 
0.000000 -4.330134 0.000000 
0.000000 -4.330134 0.000000 
0.000000 -4.330134 0.000000 
0.000000 -4.330134 0.000000 
0.000000 -4.330134 0.000000 
0.000000 -4.330134 0.000000 
0.000000 -4.330134 0.000000 
-0.000000 -4.330134 0.000000 
-0.000000 -4.330134 0.000000 
-0.000000 -4.330134 0.000000 
-0.000000 -4.330134 0.000000 
0.000000 -4.330134 0.000000 
0.000000 -4.330134 0.000000 
0.000000 -4.330134 0.000000 
0.000000 -4.330134 0.000000 
0.000000 -4.330134 0.000000 
-0.000000 -4.330134 0.000000 
0.000000 -4.330134 0.000000 
0.000000 -4.330134 0.000000 
0.000000 -4.330134 0.000000 
0.000000 -4.330134 0.000000 
-0.000000 -4.330134 0.000000 
0.000000 -4.330134 0.000000 
0.000000 -4.330134 0.000000 
0.000000 -4.330134 0.000000 
0.000000 -4.330134 0.000000 
0.000000 -4.330134 0.000000 
0.000000 -4.330134 0.000000 
0.000000 -4.330134 0.000000 
0.000000 -4.330134 0.000000 
0.000000 -4.330134 0.000000 
0.000000 -4.330134 0.000000 
-0.000000 -4.330134 0.000000 
-0.000000 -4.330134 0.000000 
0.000000 -4.330134 0.000000 
0.000000 -4.330134 0.000000 
0.000000 -4.330134 0.000000 
0.000000 -4.330134 0.000000 
0.000000 -4.330134 0.000000 
0.000000 -4.330134 0.000000 
0.000000 -4.330134 0.000000 
0.000000 -4.330134 0.000000 
0.000000 -4.330134 0.000000 
-0.000000 -4.330134 0.000000 
-0.000000 -4.330134 0.000000 
0.000000 -4.330134 0.000000 
-0.000000 -4.330134 0.000000 
TENSORS STRESS float 
0.000000 -0.000000 0.000000 
0.000000 0.000000 0.000000 
0.000000 0.000000 0.000000 

0.000000 -0.000000 0.000000 
0.000000 0.000000 0.000000 
0.000000 0.000000 0.000000 

-0.000000 0.000000 0.000000 
0.000000 -0.000000 0.000000 
0.000000 0.000000 0.000000 

0.000000 -0.000000 0.000000 
0.000000 0.000000 0.000000 
0.000000 0.000000 0.000000 

-0.000000 0.000000 0.000000 
0.000000 -0.000000 0.000000 
0.000000 0.000000 0.000000 

-0.000000 0.000000 0.000000 
0.000000 -0.000000 0.000000 
0.000000 0.000000 0.000000 

-0.000000 -0.000000 0.000000 
0.000000 -0.000000 0.000000 
0.000000 0.000000 0.000000 

-0.000000 -0.000000 0.000000 
0.000000 -0.000000 0.000000 
0.000000 0.000000 0.000000 

0.000000 -0.000000 0.000000 
0.000000 0.000000 0.000000 
0.000000 0.000000 0.000000 

0.000000 0.000000 0.000000 
0.000000 0.000000 0.000000 
0.000000 0.000000 0.000000 

-0.000000 0.000000 0.000000 
0.000000 -0.000000 0.000000 
0.000000 0.000000 0.000000 

-0.000000 0.000000 0.000000 
0.000000 0.000000 0.000000 
0.000000 0.000000 0.000000 

-0.000000 0.000000 0.000000 
0.000000 -0.000000 0.000000 
0.000000 0.000000 0.000000 

0.000000 0.000000 0.000000 
0.000000 0.000000 0.000000 
0.000000 0.000000 0.000000 

0.000000 0.000000 0.000000 
0.000000 0.000000 0.000000 
0.000000 0.000000 0.000000 

-0.000000 0.000000 0.000000 
0.000000 -0.000000 0.000000 
0.000000 0.000000 0.000000 

0.000000 0.000000 0.000000 
0.000000 0.000000 0.000000 
0.000000 0.000000 0.000000 

0.000000 0.000000 0.000000 
0.000000 0.000000 0.000000 
0.000000 0.000000 0.000000 

-0.000000 -0.000000 0.000000 
0.000000 -0.000000 0.000000 
0.000000 0.000000 0.000000 

-0.000000 -0.000000 0.000000 
0.000000 -0.000000 0.000000 
0.000000 0.000000 0.000000 

-0.000000 -0.000000 0.000000 
0.000000 -0.000000 0.000000 
0.000000 0.000000 0.000000 

0.000000 0.000000 0.000000 
0.000000 0.000000 0.000000 
0.000000 0.000000 0.000000 

-0.000000 0.000000 0.000000 
0.000000 -0.000000 0.000000 
0.000000 0.000000 0.000000 

0.000000 -0.000000 0.000000 
0.000000 0.000000 0.000000 
0.000000 0.000000 0.000000 

0.000000 -0.000000 0.000000 
0.000000 0.000000 0.000000 
0.000000 0.000000 0.000000 

-0.000000 -0.000000 0.000000 
0.000000 -0.000000 0.000000 
0.000000 0.000000 0.000000 

-0.000000 -0.000000 0.000000 
0.000000 -0.000000 0.000000 
0.000000 0.000000 0.000000 

0.000000 -0.000000 0.000000 
0.000000 0.000000 0.000000 
0.000000 0.000000 0.000000 

-0.000000 -0.000000 0.000000 
0.000000 -0.000000 0.000000 
0.000000 0.000000 0.000000 

-0.000000 -0.000000 0.000000 
0.000000 -0.000000 0.000000 
0.000000 0.000000 0.000000 

-0.000000 -0.000000 0.000000 
0.000000 -0.000000 0.000000 
0.000000 0.000000 0.000000 

-0.000000 -0.000000 0.000000 
0.000000 -0.000000 0.000000 
0.000000 0.000000 0.000000 

0.000000 -0.000000 0.000000 
0.000000 0.000000 0.000000 
0.000000 0.000000 0.000000 

-0.000000 -0.000000 0.000000 
0.000000 -0.000000 0.000000 
0.000000 0.000000 0.000000 

0.000000 0.000000 0.000000 
0.000000 0.000000 0.000000 
0.000000 0.000000 0.000000 

-0.000000 -0.000000 0.000000 
0.000000 -0.000000 0.000000 
0.000000 0.000000 0.000000 

0.000000 0.000000 0.000000 
0.000000 0.000000 0.000000 
0.000000 0.000000 0.000000 

-0.000000 -0.000000 0.000000 
0.000000 -0.000000 0.000000 
0.000000 0.000000 0.000000 

-0.000000 0.000000 0.000000 
0.000000 -0.000000 0.000000 
0.000000 0.000000 0.000000 

-0.000000 0.000000 0.000000 
0.000000 -0.000000 0.000000 
0.000000 0.000000 0.000000 

0.000000 0.000000 0.000000 
0.000000 0.000000 0.000000 
0.000000 0.000000 0.000000 

-0.000000 0.000000 0.000000 
0.000000 -0.000000 0.000000 
0.000000 0.000000 0.000000 

0.000000 0.000000 0.000000 
0.000000 0.000000 0.000000 
0.000000 0.000000 0.000000 

0.000000 0.000000 0.000000 
0.000000 0.000000 0.000000 
0.000000 0.000000 0.000000 

-0.000000 0.000000 0.000000 
0.000000 -0.000000 0.000000 
0.000000 0.000000 0.000000 

-0.000000 -0.000000 0.000000 
0.000000 -0.000000 0.000000 
0.000000 0.000000 0.000000 

0.000000 -0.000000 0.000000 
0.000000 0.000000 0.000000 
0.000000 0.000000 0.000000 

0.000000 -0.000000 0.000000 
0.000000 0.000000 0.000000 
0.000000 0.000000 0.000000 

-0.000000 -0.000000 0.000000 
0.000000 -0.000000 0.000000 
0.000000 0.000000 0.000000 

-0.000000 0.000000 0.000000 
0.000000 -0.000000 0.000000 
0.000000 0.000000 0.000000 

0.000000 -0.000000 0.000000 
0.000000 0.000000 0.000000 
0.000000 0.000000 0.000000 

-0.000000 -0.000000 0.000000 
0.000000 -0.000000 0.000000 
0.000000 0.000000 0.000000 

-0.000000 -0.000000 0.000000 
0.000000 -0.000000 0.000000 
0.000000 0.000000 0.000000 

-0.000000 -0.000000 0.000000 
0.000000 -0.000000 0.000000 
0.000000 0.000000 0.000000 

-0.000000 -0.000000 0.000000 
0.000000 -0.000000 0.000000 
0.000000 0.000000 0.000000 

-0.000000 -0.000000 0.000000 
0.000000 -0.000000 0.000000 
0.000000 0.000000 0.000000 

-0.000000 -0.000000 0.000000 
0.000000 -0.000000 0.000000 
0.000000 0.000000 0.000000 

-0.000000 -0.000000 0.000000 
0.000000 -0.000000 0.000000 
0.000000 0.000000 0.000000 

0.000000 -0.000000 0.000000 
0.000000 0.000000 0.000000 
0.000000 0.000000 0.000000 

0.000000 -0.000000 0.000000 
0.000000 0.000000 0.000000 
0.000000 0.000000 0.000000 

0.000000 -0.000000 0.000000 
0.000000 0.000000 0.000000 
0.000000 0.000000 0.000000 

0.000000 0.000000 0.000000 
0.000000 0.000000 0.000000 
0.000000 0.000000 0.000000 

0.000000 0.000000 0.000000 
0.000000 0.000000 0.000000 
0.000000 0.000000 0.000000 

0.000000 0.000000 0.000000 
0.000000 0.000000 0.000000 
0.000000 0.000000 0.000000 

0.000000 0.000000 0.000000 
0.000000 0.000000 0.000000 
0.000000 0.000000 0.000000 

-0.000000 -0.000000 0.000000 
0.000000 -0.000000 0.000000 
0.000000 0.000000 0.000000 

-0.000000 -0.000000 0.000000 
0.000000 -0.000000 0.000000 
0.000000 0.000000 0.000000 

0.000000 0.000000 0.000000 
0.000000 0.000000 0.000000 
0.000000 0.000000 0.000000 

-0.000000 0.000000 0.000000 
0.000000 -0.000000 0.000000 
0.000000 0.000000 0.000000 

0.000000 0.000000 0.000000 
0.000000 0.000000 0.000000 
0.000000 0.000000 0.000000 

0.000000 0.000000 0.000000 
0.000000 0.000000 0.000000 
0.000000 0.000000 0.000000 

-0.000000 0.000000 0.000000 
0.000000 0.000000 0.000000 
0.000000 0.000000 0.000000 

0.000000 -0.000000 0.000000 
0.000000 0.000000 0.000000 
0.000000 0.000000 0.000000 

0.000000 -0.000000 0.000000 
0.000000 0.000000 0.000000 
0.000000 0.000000 0.000000 

-0.000000 -0.000000 0.000000 
0.000000 -0.000000 0.000000 
0.000000 0.000000 0.000000 

-0.000000 -0.000000 0.000000 
0.000000 -0.000000 0.000000 
0.000000 0.000000 0.000000 

0.000000 0.000000 0.000000 
0.000000 0.000000 0.000000 
0.000000 0.000000 0.000000 

-0.000000 -0.000000 0.000000 
0.000000 -0.000000 0.000000 
0.000000 0.000000 0.000000 

0.000000 -0.000000 0.000000 
0.000000 0.000000 0.000000 
0.000000 0.000000 0.000000 

-0.000000 0.000000 0.000000 
0.000000 -0.000000 0.000000 
0.000000 0.000000 0.000000 

-0.000000 0.000000 0.000000 
0.000000 -0.000000 0.000000 
0.000000 0.000000 0.000000 

0.000000 0.000000 0.000000 
0.000000 0.000000 0.000000 
0.000000 0.000000 0.000000 

0.000000 -0.000000 0.000000 
0.000000 0.000000 0.000000 
0.000000 0.000000 0.000000 

0.000000 -0.000000 0.000000 
0.000000 0.000000 0.000000 
0.000000 0.000000 0.000000 

-0.000000 0.000000 0.000000 
0.000000 -0.000000 0.000000 
0.000000 0.000000 0.000000 

0.000000 -0.000000 0.000000 
0.000000 0.000000 0.000000 
0.000000 0.000000 0.000000 

0.000000 0.000000 0.000000 
0.000000 0.000000 0.000000 
0.000000 0.000000 0.000000 

-0.000000 0.000000 0.000000 
0.000000 -0.000000 0.000000 
0.000000 0.000000 0.000000 

-0.000000 0.000000 0.000000 
0.000000 -0.000000 0.000000 
0.000000 0.000000 0.000000 

0.000000 -0.000000 0.000000 
0.000000 0.000000 0.000000 
0.000000 0.000000 0.000000 

-0.000000 -0.000000 0.000000 
0.000000 -0.000000 0.000000 
0.000000 0.000000 0.000000 

0.000000 0.000000 0.000000 
0.000000 0.000000 0.000000 
0.000000 0.000000 0.000000 

0.000000 0.000000 0.000000 
0.000000 0.000000 0.000000 
0.000000 0.000000 0.000000 

0.000000 0.000000 0.000000 
0.000000 0.000000 0.000000 
0.000000 0.000000 0.000000 

-0.000000 0.000000 0.000000 
0.000000 -0.000000 0.000000 
0.000000 0.000000 0.000000 

0.000000 0.000000 0.000000 
0.000000 0.000000 0.000000 
0.000000 0.000000 0.000000 

-0.000000 0.000000 0.000000 
0.000000 -0.000000 0.000000 
0.000000 0.000000 0.000000 

-0.000000 -0.000000 0.000000 
0.000000 -0.000000 0.000000 
0.000000 0.000000 0.000000 

-0.000000 -0.000000 0.000000 
0.000000 -0.000000 0.000000 
0.000000 0.000000 0.000000 

0.000000 -0.000000 0.000000 
0.000000 0.000000 0.000000 
0.000000 0.000000 0.000000 

0.000000 -0.000000 0.000000 
0.000000 0.000000 0.000000 
0.000000 0.000000 0.000000 

-0.000000 0.000000 0.000000 
0.000000 -0.000000 0.000000 
0.000000 0.000000 0.000000 

-0.000000 0.000000 0.000000 
0.000000 -0.000000 0.000000 
0.000000 0.000000 0.000000 

-0.000000 0.000000 0.000000 
0.000000 -0.000000 0.000000 
0.000000 0.000000 0.000000 

0.000000 -0.000000 0.000000 
0.000000 0.000000 0.000000 
0.000000 0.000000 0.000000 

0.000000 0.000000 0.000000 
0.000000 0.000000 0.000000 
0.000000 0.000000 0.000000 

-0.000000 -0.000000 0.000000 
0.000000 -0.000000 0.000000 
0.000000 0.000000 0.000000 

-0.000000 0.000000 0.000000 
0.000000 -0.000000 0.000000 
0.000000 0.000000 0.000000 

-0.000000 0.000000 0.000000 
0.000000 -0.000000 0.000000 
0.000000 0.000000 0.000000 

-0.000000 0.000000 0.000000 
0.000000 -0.000000 0.000000 
0.000000 0.000000 0.000000 

-0.000000 0.000000 0.000000 
0.000000 -0.000000 0.000000 
0.000000 0.000000 0.000000 

-0.000000 0.000000 0.000000 
0.000000 -0.000000 0.000000 
0.000000 0.000000 0.000000 

-0.000000 0.000000 0.000000 
0.000000 -0.000000 0.000000 
0.000000 0.000000 0.000000 

-0.000000 -0.000000 0.000000 
0.000000 -0.000000 0.000000 
0.000000 0.000000 0.000000 

0.000000 -0.000000 0.000000 
0.000000 0.000000 0.000000 
0.000000 0.000000 0.000000 

0.000000 0.000000 0.000000 
0.000000 0.000000 0.000000 
0.000000 0.000000 0.000000 

-0.000000 -0.000000 0.000000 
0.000000 -0.000000 0.000000 
0.000000 0.000000 0.000000 

0.000000 0.000000 0.000000 
0.000000 0.000000 0.000000 
0.000000 0.000000 0.000000 

-0.000000 0.000000 0.000000 
0.000000 0.000000 0.000000 
0.000000 0.000000 0.000000 

-0.000000 0.000000 0.000000 
0.000000 0.000000 0.000000 
0.000000 0.000000 0.000000 

0.000000 -0.000000 0.000000 
0.000000 0.000000 0.000000 
0.000000 0.000000 0.000000 

0.000000 -0.000000 0.000000 
0.000000 0.000000 0.000000 
0.000000 0.000000 0.000000 

0.000000 -0.000000 0.000000 
0.000000 0.000000 0.000000 
0.000000 0.000000 0.000000 

0.000000 -0.000000 0.000000 
0.000000 0.000000 0.000000 
0.000000 0.000000 0.000000 

-0.000000 0.000000 0.000000 
0.000000 -0.000000 0.000000 
0.000000 0.000000 0.000000 

0.000000 -0.000000 0.000000 
0.000000 0.000000 0.000000 
0.000000 0.000000 0.000000 

-0.000000 -0.000000 0.000000 
0.000000 -0.000000 0.000000 
0.000000 0.000000 0.000000 

-0.000000 -0.000000 0.000000 
0.000000 -0.000000 0.000000 
0.000000 0.000000 0.000000 

0.000000 0.000000 0.000000 
0.000000 0.000000 0.000000 
0.000000 0.000000 0.000000 

0.000000 0.000000 0.000000 
0.000000 0.000000 0.000000 
0.000000 0.000000 0.000000 

0.000000 -0.000000 0.000000 
0.000000 0.000000 0.000000 
0.000000 0.000000 0.000000 

-0.000000 -0.000000 0.000000 
0.000000 -0.000000 0.000000 
0.000000 0.000000 0.000000 

-0.000000 0.000000 0.000000 
0.000000 -0.000000 0.000000 
0.000000 0.000000 0.000000 

0.000000 -0.000000 0.000000 
0.000000 -0.000000 0.000000 
0.000000 0.000000 0.000000 

-0.000000 -0.000000 0.000000 
0.000000 -0.000000 0.000000 
0.000000 0.000000 0.000000 

0.000000 0.000000 0.000000 
0.000000 0.000000 0.000000 
0.000000 0.000000 0.000000 

0.000000 -0.000000 0.000000 
0.000000 0.000000 0.000000 
0.000000 0.000000 0.000000 

0.000000 0.000000 0.000000 
0.000000 0.000000 0.000000 
0.000000 0.000000 0.000000 

0.000000 -0.000000 0.000000 
0.000000 0.000000 0.000000 
0.000000 0.000000 0.000000 

0.000000 -0.000000 0.000000 
0.000000 0.000000 0.000000 
0.000000 0.000000 0.000000 

0.000000 0.000000 0.000000 
0.000000 0.000000 0.000000 
0.000000 0.000000 0.000000 

-0.000000 0.000000 0.000000 
0.000000 -0.000000 0.000000 
0.000000 0.000000 0.000000 

0.000000 -0.000000 0.000000 
0.000000 0.000000 0.000000 
0.000000 0.000000 0.000000 

0.000000 0.000000 0.000000 
0.000000 0.000000 0.000000 
0.000000 0.000000 0.000000 

0.000000 -0.000000 0.000000 
0.000000 -0.000000 0.000000 
0.000000 0.000000 0.000000 

-0.000000 0.000000 0.000000 
0.000000 -0.000000 0.000000 
0.000000 0.000000 0.000000 

0.000000 0.000000 0.000000 
0.000000 0.000000 0.000000 
0.000000 0.000000 0.000000 

-0.000000 0.000000 0.000000 
0.000000 -0.000000 0.000000 
0.000000 0.000000 0.000000 

0.000000 -0.000000 0.000000 
0.000000 0.000000 0.000000 
0.000000 0.000000 0.000000 

-0.000000 -0.000000 0.000000 
0.000000 0.000000 0.000000 
0.000000 0.000000 0.000000 

0.000000 -0.000000 0.000000 
0.000000 0.000000 0.000000 
0.000000 0.000000 0.000000 

-0.000000 0.000000 0.000000 
0.000000 -0.000000 0.000000 
0.000000 0.000000 0.000000 

0.000000 0.000000 0.000000 
0.000000 0.000000 0.000000 
0.000000 0.000000 0.000000 

-0.000000 -0.000000 0.000000 
0.000000 -0.000000 0.000000 
0.000000 0.000000 0.000000 

0.000000 -0.000000 0.000000 
0.000000 0.000000 0.000000 
0.000000 0.000000 0.000000 

-0.000000 -0.000000 0.000000 
0.000000 -0.000000 0.000000 
0.000000 0.000000 0.000000 

0.000000 -0.000000 0.000000 
0.000000 0.000000 0.000000 
0.000000 0.000000 0.000000 

0.000000 0.000000 0.000000 
0.000000 0.000000 0.000000 
0.000000 0.000000 0.000000 

0.000000 0.000000 0.000000 
0.000000 0.000000 0.000000 
0.000000 0.000000 0.000000 

-0.000000 0.000000 0.000000 
0.000000 -0.000000 0.000000 
0.000000 0.000000 0.000000 

-0.000000 0.000000 0.000000 
0.000000 0.000000 0.000000 
0.000000 0.000000 0.000000 

0.000000 0.000000 0.000000 
0.000000 0.000000 0.000000 
0.000000 0.000000 0.000000 

0.000000 0.000000 0.000000 
0.000000 0.000000 0.000000 
0.000000 0.000000 0.000000 

0.000000 0.000000 0.000000 
0.000000 0.000000 0.000000 
0.000000 0.000000 0.000000 

0.000000 -0.000000 0.000000 
0.000000 0.000000 0.000000 
0.000000 0.000000 0.000000 

-0.000000 -0.000000 0.000000 
0.000000 -0.000000 0.000000 
0.000000 0.000000 0.000000 

0.000000 -0.000000 0.000000 
0.000000 0.000000 0.000000 
0.000000 0.000000 0.000000 

-0.000000 -0.000000 0.000000 
0.000000 -0.000000 0.000000 
0.000000 0.000000 0.000000 

0.000000 0.000000 0.000000 
0.000000 0.000000 0.000000 
0.000000 0.000000 0.000000 

-0.000000 0.000000 0.000000 
0.000000 -0.000000 0.000000 
0.000000 0.000000 0.000000 

0.000000 0.000000 0.000000 
0.000000 0.000000 0.000000 
0.000000 0.000000 0.000000 

-0.000000 -0.000000 0.000000 
0.000000 -0.000000 0.000000 
0.000000 0.000000 0.000000 

0.000000 0.000000 0.000000 
0.000000 0.000000 0.000000 
0.000000 0.000000 0.000000 

-0.000000 -0.000000 0.000000 
0.000000 -0.000000 0.000000 
0.000000 0.000000 0.000000 

0.000000 -0.000000 0.000000 
0.000000 0.000000 0.000000 
0.000000 0.000000 0.000000 

TENSORS STRAIN float 
0.000000 -0.000000 0.000000 
0.000000 0.000000 0.000000 
0.000000 0.000000 0.000000 

0.000000 -0.000000 0.000000 
0.000000 0.000000 0.000000 
0.000000 0.000000 0.000000 

0.000000 0.000000 0.000000 
0.000000 -0.000000 0.000000 
0.000000 0.000000 0.000000 

0.000000 -0.000000 0.000000 
0.000000 -0.000000 0.000000 
0.000000 0.000000 0.000000 

-0.000000 0.000000 0.000000 
0.000000 -0.000000 0.000000 
0.000000 0.000000 0.000000 

-0.000000 0.000000 0.000000 
0.000000 0.000000 0.000000 
0.000000 0.000000 0.000000 

-0.000000 -0.000000 0.000000 
0.000000 0.000000 0.000000 
0.000000 0.000000 0.000000 

0.000000 -0.000000 0.000000 
0.000000 -0.000000 0.000000 
0.000000 0.000000 0.000000 

0.000000 -0.000000 0.000000 
0.000000 -0.000000 0.000000 
0.000000 0.000000 0.000000 

-0.000000 0.000000 0.000000 
0.000000 0.000000 0.000000 
0.000000 0.000000 0.000000 

-0.000000 0.000000 0.000000 
0.000000 0.000000 0.000000 
0.000000 0.000000 0.000000 

-0.000000 0.000000 0.000000 
0.000000 0.000000 0.000000 
0.000000 0.000000 0.000000 

-0.000000 0.000000 0.000000 
0.000000 0.000000 0.000000 
0.000000 0.000000 0.000000 

-0.000000 0.000000 0.000000 
0.000000 0.000000 0.000000 
0.000000 0.000000 0.000000 

-0.000000 0.000000 0.000000 
0.000000 0.000000 0.000000 
0.000000 0.000000 0.000000 

-0.000000 0.000000 0.000000 
0.000000 0.000000 0.000000 
0.000000 0.000000 0.000000 

0.000000 0.000000 0.000000 
0.000000 -0.000000 0.000000 
0.000000 0.000000 0.000000 

0.000000 0.000000 0.000000 
0.000000 0.000000 0.000000 
0.000000 0.000000 0.000000 

0.000000 -0.000000 0.000000 
0.000000 -0.000000 0.000000 
0.000000 0.000000 0.000000 

-0.000000 -0.000000 0.000000 
0.000000 0.000000 0.000000 
0.000000 0.000000 0.000000 

0.000000 -0.000000 0.000000 
0.000000 -0.000000 0.000000 
0.000000 0.000000 0.000000 

0.000000 0.000000 0.000000 
0.000000 -0.000000 0.000000 
0.000000 0.000000 0.000000 

0.000000 0.000000 0.000000 
0.000000 -0.000000 0.000000 
0.000000 0.000000 0.000000 

-0.000000 -0.000000 0.000000 
0.000000 0.000000 0.000000 
0.000000 0.000000 0.000000 

-0.000000 -0.000000 0.000000 
0.000000 0.000000 0.000000 
0.000000 0.000000 0.000000 

-0.000000 -0.000000 0.000000 
0.000000 -0.000000 0.000000 
0.000000 0.000000 0.000000 

-0.000000 -0.000000 0.000000 
0.000000 -0.000000 0.000000 
0.000000 0.000000 0.000000 

0.000000 -0.000000 0.000000 
0.000000 0.000000 0.000000 
0.000000 0.000000 0.000000 

0.000000 -0.000000 0.000000 
0.000000 -0.000000 0.000000 
0.000000 0.000000 0.000000 

-0.000000 -0.000000 0.000000 
0.000000 -0.000000 0.000000 
0.000000 0.000000 0.000000 

-0.000000 -0.000000 0.000000 
0.000000 -0.000000 0.000000 
0.000000 0.000000 0.000000 

-0.000000 -0.000000 0.000000 
0.000000 0.000000 0.000000 
0.000000 0.000000 0.000000 

0.000000 -0.000000 0.000000 
0.000000 0.000000 0.000000 
0.000000 0.000000 0.000000 

0.000000 -0.000000 0.000000 
0.000000 -0.000000 0.000000 
0.000000 0.000000 0.000000 

-0.000000 0.000000 0.000000 
0.000000 0.000000 0.000000 
0.000000 0.000000 0.000000 

-0.000000 -0.000000 0.000000 
0.000000 0.000000 0.000000 
0.000000 0.000000 0.000000 

-0.000000 0.000000 0.000000 
0.000000 0.000000 0.000000 
0.000000 0.000000 0.000000 

-0.000000 -0.000000 0.000000 
0.000000 0.000000 0.000000 
0.000000 0.000000 0.000000 

-0.000000 0.000000 0.000000 
0.000000 0.000000 0.000000 
0.000000 0.000000 0.000000 

-0.000000 0.000000 0.000000 
0.000000 0.000000 0.000000 
0.000000 0.000000 0.000000 

-0.000000 0.000000 0.000000 
0.000000 0.000000 0.000000 
0.000000 0.000000 0.000000 

-0.000000 0.000000 0.000000 
0.000000 -0.000000 0.000000 
0.000000 0.000000 0.000000 

-0.000000 0.000000 0.000000 
0.000000 0.000000 0.000000 
0.000000 0.000000 0.000000 

-0.000000 0.000000 0.000000 
0.000000 0.000000 0.000000 
0.000000 0.000000 0.000000 

-0.000000 0.000000 0.000000 
0.000000 0.000000 0.000000 
0.000000 0.000000 0.000000 

-0.000000 -0.000000 0.000000 
0.000000 0.000000 0.000000 
0.000000 0.000000 0.000000 

-0.000000 -0.000000 0.000000 
0.000000 0.000000 0.000000 
0.000000 0.000000 0.000000 

-0.000000 -0.000000 0.000000 
0.000000 0.000000 0.000000 
0.000000 0.000000 0.000000 

-0.000000 -0.000000 0.000000 
0.000000 0.000000 0.000000 
0.000000 0.000000 0.000000 

-0.000000 0.000000 0.000000 
0.000000 -0.000000 0.000000 
0.000000 0.000000 0.000000 

-0.000000 -0.000000 0.000000 
0.000000 0.000000 0.000000 
0.000000 0.000000 0.000000 

-0.000000 -0.000000 0.000000 
0.000000 0.000000 0.000000 
0.000000 0.000000 0.000000 

-0.000000 -0.000000 0.000000 
0.000000 0.000000 0.000000 
0.000000 0.000000 0.000000 

-0.000000 -0.000000 0.000000 
0.000000 -0.000000 0.000000 
0.000000 0.000000 0.000000 

-0.000000 -0.000000 0.000000 
0.000000 0.000000 0.000000 
0.000000 0.000000 0.000000 

-0.000000 -0.000000 0.000000 
0.000000 0.000000 0.000000 
0.000000 0.000000 0.000000 

-0.000000 -0.000000 0.000000 
0.000000 -0.000000 0.000000 
0.000000 0.000000 0.000000 

-0.000000 -0.000000 0.000000 
0.000000 0.000000 0.000000 
0.000000 0.000000 0.000000 

0.000000 -0.000000 0.000000 
0.000000 0.000000 0.000000 
0.000000 0.000000 0.000000 

-0.000000 -0.000000 0.000000 
0.000000 0.000000 0.000000 
0.000000 0.000000 0.000000 

-0.000000 -0.000000 0.000000 
0.000000 0.000000 0.000000 
0.000000 0.000000 0.000000 

-0.000000 0.000000 0.000000 
0.000000 0.000000 0.000000 
0.000000 0.000000 0.000000 

-0.000000 0.000000 0.000000 
0.000000 0.000000 0.000000 
0.000000 0.000000 0.000000 

-0.000000 0.000000 0.000000 
0.000000 0.000000 0.000000 
0.000000 0.000000 0.000000 

-0.000000 0.000000 0.000000 
0.000000 0.000000 0.000000 
0.000000 0.000000 0.000000 

0.000000 -0.000000 0.000000 
0.000000 -0.000000 0.000000 
0.000000 0.000000 0.000000 

0.000000 -0.000000 0.000000 
0.000000 -0.000000 0.000000 
0.000000 0.000000 0.000000 

0.000000 0.000000 0.000000 
0.000000 0.000000 0.000000 
0.000000 0.000000 0.000000 

0.000000 0.000000 0.000000 
0.000000 -0.000000 0.000000 
0.000000 0.000000 0.000000 

-0.000000 0.000000 0.000000 
0.000000 0.000000 0.000000 
0.000000 0.000000 0.000000 

-0.000000 0.000000 0.000000 
0.000000 0.000000 0.000000 
0.000000 0.000000 0.000000 

-0.000000 0.000000 0.000000 
0.000000 0.000000 0.000000 
0.000000 0.000000 0.000000 

0.000000 -0.000000 0.000000 
0.000000 -0.000000 0.000000 
0.000000 0.000000 0.000000 

0.000000 -0.000000 0.000000 
0.000000 0.000000 0.000000 
0.000000 0.000000 0.000000 

0.000000 -0.000000 0.000000 
0.000000 -0.000000 0.000000 
0.000000 0.000000 0.000000 

-0.000000 -0.000000 0.000000 
0.000000 -0.000000 0.000000 
0.000000 0.000000 0.000000 

0.000000 0.000000 0.000000 
0.000000 0.000000 0.000000 
0.000000 0.000000 0.000000 

0.000000 -0.000000 0.000000 
0.000000 -0.000000 0.000000 
0.000000 0.000000 0.000000 

0.000000 -0.000000 0.000000 
0.000000 0.000000 0.000000 
0.000000 0.000000 0.000000 

0.000000 0.000000 0.000000 
0.000000 -0.000000 0.000000 
0.000000 0.000000 0.000000 

0.000000 0.000000 0.000000 
0.000000 -0.000000 0.000000 
0.000000 0.000000 0.000000 

-0.000000 0.000000 0.000000 
0.000000 0.000000 0.000000 
0.000000 0.000000 0.000000 

0.000000 -0.000000 0.000000 
0.000000 0.000000 0.000000 
0.000000 0.000000 0.000000 

-0.000000 -0.000000 0.000000 
0.000000 0.000000 0.000000 
0.000000 0.000000 0.000000 

-0.000000 0.000000 0.000000 
0.000000 -0.000000 0.000000 
0.000000 0.000000 0.000000 

-0.000000 -0.000000 0.000000 
0.000000 0.000000 0.000000 
0.000000 0.000000 0.000000 

0.000000 0.000000 0.000000 
0.000000 0.000000 0.000000 
0.000000 0.000000 0.000000 

-0.000000 0.000000 0.000000 
0.000000 -0.000000 0.000000 
0.000000 0.000000 0.000000 

0.000000 0.000000 0.000000 
0.000000 -0.000000 0.000000 
0.000000 0.000000 0.000000 

0.000000 -0.000000 0.000000 
0.000000 0.000000 0.000000 
0.000000 0.000000 0.000000 

0.000000 -0.000000 0.000000 
0.000000 -0.000000 0.000000 
0.000000 0.000000 0.000000 

0.000000 0.000000 0.000000 
0.000000 0.000000 0.000000 
0.000000 0.000000 0.000000 

0.000000 0.000000 0.000000 
0.000000 -0.000000 0.000000 
0.000000 0.000000 0.000000 

0.000000 0.000000 0.000000 
0.000000 -0.000000 0.000000 
0.000000 0.000000 0.000000 

-0.000000 0.000000 0.000000 
0.000000 0.000000 0.000000 
0.000000 0.000000 0.000000 

-0.000000 0.000000 0.000000 
0.000000 0.000000 0.000000 
0.000000 0.000000 0.000000 

-0.000000 0.000000 0.000000 
0.000000 0.000000 0.000000 
0.000000 0.000000 0.000000 

0.000000 -0.000000 0.000000 
0.000000 -0.000000 0.000000 
0.000000 0.000000 0.000000 

0.000000 -0.000000 0.000000 
0.000000 -0.000000 0.000000 
0.000000 0.000000 0.000000 

0.000000 -0.000000 0.000000 
0.000000 -0.000000 0.000000 
0.000000 0.000000 0.000000 

-0.000000 -0.000000 0.000000 
0.000000 0.000000 0.000000 
0.000000 0.000000 0.000000 

-0.000000 0.000000 0.000000 
0.000000 -0.000000 0.000000 
0.000000 0.000000 0.000000 

-0.000000 0.000000 0.000000 
0.000000 0.000000 0.000000 
0.000000 0.000000 0.000000 

-0.000000 0.000000 0.000000 
0.000000 0.000000 0.000000 
0.000000 0.000000 0.000000 

0.000000 -0.000000 0.000000 
0.000000 0.000000 0.000000 
0.000000 0.000000 0.000000 

-0.000000 0.000000 0.000000 
0.000000 0.000000 0.000000 
0.000000 0.000000 0.000000 

-0.000000 -0.000000 0.000000 
0.000000 -0.000000 0.000000 
0.000000 0.000000 0.000000 

-0.000000 0.000000 0.000000 
0.000000 -0.000000 0.000000 
0.000000 0.000000 0.000000 

-0.000000 0.000000 0.000000 
0.000000 -0.000000 0.000000 
0.000000 0.000000 0.000000 

0.000000 0.000000 0.000000 
0.000000 -0.000000 0.000000 
0.000000 0.000000 0.000000 

-0.000000 0.000000 0.000000 
0.000000 -0.000000 0.000000 
0.000000 0.000000 0.000000 

-0.000000 0.000000 0.000000 
0.000000 0.000000 0.000000 
0.000000 0.000000 0.000000 

-0.000000 0.000000 0.000000 
0.000000 0.000000 0.000000 
0.000000 0.000000 0.000000 

-0.000000 -0.000000 0.000000 
0.000000 0.000000 0.000000 
0.000000 0.000000 0.000000 

0.000000 -0.000000 0.000000 
0.000000 0.000000 0.000000 
0.000000 0.000000 0.000000 

-0.000000 0.000000 0.000000 
0.000000 0.000000 0.000000 
0.000000 0.000000 0.000000 

0.000000 -0.000000 0.000000 
0.000000 -0.000000 0.000000 
0.000000 0.000000 0.000000 

0.000000 0.000000 0.000000 
0.000000 0.000000 0.000000 
0.000000 0.000000 0.000000 

-0.000000 0.000000 0.000000 
0.000000 0.000000 0.000000 
0.000000 0.000000 0.000000 

-0.000000 0.000000 0.000000 
0.000000 0.000000 0.000000 
0.000000 0.000000 0.000000 

-0.000000 -0.000000 0.000000 
0.000000 0.000000 0.000000 
0.000000 0.000000 0.000000 

-0.000000 -0.000000 0.000000 
0.000000 0.000000 0.000000 
0.000000 0.000000 0.000000 

-0.000000 -0.000000 0.000000 
0.000000 0.000000 0.000000 
0.000000 0.000000 0.000000 

-0.000000 -0.000000 0.000000 
0.000000 0.000000 0.000000 
0.000000 0.000000 0.000000 

0.000000 0.000000 0.000000 
0.000000 -0.000000 0.000000 
0.000000 0.000000 0.000000 

-0.000000 -0.000000 0.000000 
0.000000 0.000000 0.000000 
0.000000 0.000000 0.000000 

-0.000000 -0.000000 0.000000 
0.000000 0.000000 0.000000 
0.000000 0.000000 0.000000 

-0.000000 -0.000000 0.000000 
0.000000 0.000000 0.000000 
0.000000 0.000000 0.000000 

-0.000000 0.000000 0.000000 
0.000000 0.000000 0.000000 
0.000000 0.000000 0.000000 

-0.000000 0.000000 0.000000 
0.000000 0.000000 0.000000 
0.000000 0.000000 0.000000 

-0.000000 -0.000000 0.000000 
0.000000 0.000000 0.000000 
0.000000 0.000000 0.000000 

0.000000 -0.000000 0.000000 
0.000000 -0.000000 0.000000 
0.000000 0.000000 0.000000 

-0.000000 0.000000 0.000000 
0.000000 0.000000 0.000000 
0.000000 0.000000 0.000000 

0.000000 -0.000000 0.000000 
0.000000 -0.000000 0.000000 
0.000000 0.000000 0.000000 

-0.000000 -0.000000 0.000000 
0.000000 -0.000000 0.000000 
0.000000 0.000000 0.000000 

0.000000 0.000000 0.000000 
0.000000 0.000000 0.000000 
0.000000 0.000000 0.000000 

0.000000 -0.000000 0.000000 
0.000000 -0.000000 0.000000 
0.000000 0.000000 0.000000 

0.000000 0.000000 0.000000 
0.000000 0.000000 0.000000 
0.000000 0.000000 0.000000 

0.000000 -0.000000 0.000000 
0.000000 0.000000 0.000000 
0.000000 0.000000 0.000000 

0.000000 -0.000000 0.000000 
0.000000 0.000000 0.000000 
0.000000 0.000000 0.000000 

0.000000 0.000000 0.000000 
0.000000 0.000000 0.000000 
0.000000 0.000000 0.000000 

-0.000000 0.000000 0.000000 
0.000000 -0.000000 0.000000 
0.000000 0.000000 0.000000 

-0.000000 -0.000000 0.000000 
0.000000 0.000000 0.000000 
0.000000 0.000000 0.000000 

-0.000000 0.000000 0.000000 
0.000000 0.000000 0.000000 
0.000000 0.000000 0.000000 

0.000000 -0.000000 0.000000 
0.000000 -0.000000 0.000000 
0.000000 0.000000 0.000000 

0.000000 0.000000 0.000000 
0.000000 -0.000000 0.000000 
0.000000 0.000000 0.000000 

-0.000000 0.000000 0.000000 
0.000000 0.000000 0.000000 
0.000000 0.000000 0.000000 

-0.000000 0.000000 0.000000 
0.000000 0.000000 0.000000 
0.000000 0.000000 0.000000 

-0.000000 -0.000000 0.000000 
0.000000 0.000000 0.000000 
0.000000 0.000000 0.000000 

-0.000000 -0.000000 0.000000 
0.000000 0.000000 0.000000 
0.000000 0.000000 0.000000 

0.000000 -0.000000 0.000000 
0.000000 0.000000 0.000000 
0.000000 0.000000 0.000000 

0.000000 0.000000 0.000000 
0.000000 -0.000000 0.000000 
0.000000 0.000000 0.000000 

0.000000 0.000000 0.000000 
0.000000 0.000000 0.000000 
0.000000 0.000000 0.000000 

-0.000000 -0.000000 0.000000 
0.000000 -0.000000 0.000000 
0.000000 0.000000 0.000000 

0.000000 -0.000000 0.000000 
0.000000 0.000000 0.000000 
0.000000 0.000000 0.000000 

0.000000 -0.000000 0.000000 
0.000000 -0.000000 0.000000 
0.000000 0.000000 0.000000 

0.000000 -0.000000 0.000000 
0.000000 -0.000000 0.000000 
0.000000 0.000000 0.000000 

-0.000000 0.000000 0.000000 
0.000000 0.000000 0.000000 
0.000000 0.000000 0.000000 

-0.000000 0.000000 0.000000 
0.000000 0.000000 0.000000 
0.000000 0.000000 0.000000 

-0.000000 0.000000 0.000000 
0.000000 0.000000 0.000000 
0.000000 0.000000 0.000000 

-0.000000 0.000000 0.000000 
0.000000 0.000000 0.000000 
0.000000 0.000000 0.000000 

0.000000 0.000000 0.000000 
0.000000 -0.000000 0.000000 
0.000000 0.000000 0.000000 

0.000000 0.000000 0.000000 
0.000000 -0.000000 0.000000 
0.000000 0.000000 0.000000 

0.000000 0.000000 0.000000 
0.000000 -0.000000 0.000000 
0.000000 0.000000 0.000000 

0.000000 -0.000000 0.000000 
0.000000 0.000000 0.000000 
0.000000 0.000000 0.000000 

-0.000000 -0.000000 0.000000 
0.000000 -0.000000 0.000000 
0.000000 0.000000 0.000000 

-0.000000 -0.000000 0.000000 
0.000000 0.000000 0.000000 
0.000000 0.000000 0.000000 

-0.000000 -0.000000 0.000000 
0.000000 0.000000 0.000000 
0.000000 0.000000 0.000000 

-0.000000 0.000000 0.000000 
0.000000 0.000000 0.000000 
0.000000 0.000000 0.000000 

0.000000 0.000000 0.000000 
0.000000 -0.000000 0.000000 
0.000000 0.000000 0.000000 

0.000000 0.000000 0.000000 
0.000000 -0.000000 0.000000 
0.000000 0.000000 0.000000 

0.000000 -0.000000 0.000000 
0.000000 -0.000000 0.000000 
0.000000 0.000000 0.000000 

-0.000000 0.000000 0.000000 
0.000000 0.000000 0.000000 
0.000000 0.000000 0.000000 

-0.000000 -0.000000 0.000000 
0.000000 0.000000 0.000000 
0.000000 0.000000 0.000000 

-0.000000 -0.000000 0.000000 
0.000000 0.000000 0.000000 
0.000000 0.000000 0.000000 

