# vtk DataFile Version 3.0 
vtk output 
ASCII 
DATASET UNSTRUCTURED_GRID 
POINTS 175 float 
-0.026061 -1.152106 0.000000 
-0.106992 -1.084050 0.000000 
-0.054870 -1.092283 0.000000 
-0.028809 -1.046399 0.000000 
-0.186430 -1.019975 0.000000 
-0.137056 -1.022501 0.000000 
-0.114311 -0.968854 0.000000 
-0.058186 -0.984519 0.000000 
-0.029377 -0.944342 0.000000 
-0.265318 -0.956819 0.000000 
-0.217198 -0.957619 0.000000 
-0.196633 -0.900322 0.000000 
-0.143120 -0.909031 0.000000 
-0.116563 -0.861762 0.000000 
-0.058945 -0.881408 0.000000 
-0.029568 -0.843288 0.000000 
-0.344206 -0.893663 0.000000 
-0.296791 -0.893656 0.000000 
-0.278030 -0.833713 0.000000 
-0.225992 -0.839579 0.000000 
-0.201664 -0.787462 0.000000 
-0.145749 -0.800936 0.000000 
-0.117890 -0.756594 0.000000 
-0.059328 -0.779300 0.000000 
-0.029759 -0.742234 0.000000 
-0.058559 -1.192856 0.000000 
-0.162226 -1.213699 0.000000 
-0.123292 -1.178081 0.000000 
-0.142917 -1.129098 0.000000 
-0.261851 -1.235855 0.000000 
-0.229092 -1.198828 0.000000 
-0.256854 -1.147597 0.000000 
-0.209613 -1.113484 0.000000 
-0.223062 -1.065910 0.000000 
-0.360414 -1.258155 0.000000 
-0.329787 -1.221033 0.000000 
-0.361761 -1.169231 0.000000 
-0.321587 -1.132822 0.000000 
-0.341985 -1.082588 0.000000 
-0.290702 -1.049789 0.000000 
-0.302189 -1.003054 0.000000 
-0.458977 -1.280456 0.000000 
-0.429420 -1.243381 0.000000 
-0.464588 -1.191339 0.000000 
-0.427556 -1.154312 0.000000 
-0.453135 -1.102797 0.000000 
-0.407738 -1.067482 0.000000 
-0.425037 -1.018054 0.000000 
-0.370772 -0.986424 0.000000 
-0.381315 -0.940197 0.000000 
-0.046960 -1.243672 0.000000 
-0.095301 -1.337717 0.000000 
-0.098873 -1.285070 0.000000 
-0.149405 -1.269873 0.000000 
-0.140093 -1.429421 0.000000 
-0.148617 -1.380723 0.000000 
-0.205981 -1.370486 0.000000 
-0.203197 -1.312283 0.000000 
-0.248777 -1.293136 0.000000 
-0.184111 -1.520385 0.000000 
-0.194039 -1.473294 0.000000 
-0.254475 -1.465994 0.000000 
-0.257893 -1.411885 0.000000 
-0.309886 -1.396512 0.000000 
-0.303554 -1.335967 0.000000 
-0.347255 -1.315809 0.000000 
-0.228129 -1.611349 0.000000 
-0.238687 -1.565124 0.000000 
-0.301302 -1.560172 0.000000 
-0.307162 -1.508133 0.000000 
-0.363386 -1.496012 0.000000 
-0.362692 -1.438501 0.000000 
-0.412122 -1.421208 0.000000 
-0.403017 -1.359061 0.000000 
-0.445733 -1.338482 0.000000 
-0.000000 -1.266286 0.000000 
0.043388 -1.362717 0.000000 
-0.000000 -1.332685 0.000000 
-0.043388 -1.362717 0.000000 
0.087158 -1.454914 0.000000 
0.043769 -1.431215 0.000000 
-0.000000 -1.469681 0.000000 
-0.043769 -1.431215 0.000000 
-0.087158 -1.454914 0.000000 
0.130831 -1.546043 0.000000 
0.087824 -1.524445 0.000000 
0.044436 -1.567144 0.000000 
-0.000000 -1.536079 0.000000 
-0.044436 -1.567144 0.000000 
-0.087824 -1.524445 0.000000 
-0.130831 -1.546043 0.000000 
0.174505 -1.637173 0.000000 
0.131782 -1.616607 0.000000 
0.088871 -1.662474 0.000000 
0.044532 -1.634610 0.000000 
-0.000000 -1.671010 0.000000 
-0.044532 -1.634610 0.000000 
-0.088871 -1.662474 0.000000 
-0.131782 -1.616607 0.000000 
-0.174505 -1.637173 0.000000 
0.046960 -1.243672 0.000000 
0.149405 -1.269873 0.000000 
0.098873 -1.285070 0.000000 
0.095301 -1.337717 0.000000 
0.248777 -1.293136 0.000000 
0.203197 -1.312283 0.000000 
0.205981 -1.370486 0.000000 
0.148617 -1.380723 0.000000 
0.140093 -1.429421 0.000000 
0.347255 -1.315809 0.000000 
0.303554 -1.335967 0.000000 
0.309886 -1.396512 0.000000 
0.257893 -1.411885 0.000000 
0.254475 -1.465994 0.000000 
0.194039 -1.473294 0.000000 
0.184111 -1.520385 0.000000 
0.445733 -1.338482 0.000000 
0.403017 -1.359061 0.000000 
0.412122 -1.421208 0.000000 
0.362692 -1.438501 0.000000 
0.363386 -1.496012 0.000000 
0.307162 -1.508133 0.000000 
0.301302 -1.560172 0.000000 
0.238687 -1.565124 0.000000 
0.228129 -1.611349 0.000000 
0.058559 -1.192856 0.000000 
0.142917 -1.129098 0.000000 
0.123292 -1.178081 0.000000 
0.162226 -1.213699 0.000000 
0.223062 -1.065910 0.000000 
0.209613 -1.113484 0.000000 
0.256854 -1.147597 0.000000 
0.229092 -1.198828 0.000000 
0.261851 -1.235855 0.000000 
0.302189 -1.003054 0.000000 
0.290702 -1.049789 0.000000 
0.341985 -1.082588 0.000000 
0.321587 -1.132822 0.000000 
0.361761 -1.169231 0.000000 
0.329787 -1.221033 0.000000 
0.360414 -1.258155 0.000000 
0.381315 -0.940197 0.000000 
0.370772 -0.986424 0.000000 
0.425037 -1.018054 0.000000 
0.407738 -1.067482 0.000000 
0.453135 -1.102797 0.000000 
0.427556 -1.154312 0.000000 
0.464588 -1.191339 0.000000 
0.429420 -1.243381 0.000000 
0.458977 -1.280456 0.000000 
0.026061 -1.152106 0.000000 
0.028809 -1.046399 0.000000 
0.054870 -1.092283 0.000000 
0.106992 -1.084050 0.000000 
0.029377 -0.944342 0.000000 
0.058186 -0.984519 0.000000 
0.114311 -0.968854 0.000000 
0.137056 -1.022501 0.000000 
0.186430 -1.019975 0.000000 
0.029568 -0.843288 0.000000 
0.058945 -0.881408 0.000000 
0.116563 -0.861762 0.000000 
0.143120 -0.909031 0.000000 
0.196633 -0.900322 0.000000 
0.217198 -0.957619 0.000000 
0.265318 -0.956819 0.000000 
0.029759 -0.742234 0.000000 
0.059328 -0.779300 0.000000 
0.117890 -0.756594 0.000000 
0.145749 -0.800936 0.000000 
0.201664 -0.787462 0.000000 
0.225992 -0.839579 0.000000 
0.278030 -0.833713 0.000000 
0.296791 -0.893656 0.000000 
0.344206 -0.893663 0.000000 
CELLS 175 350 
1 0 
1 1 
1 2 
1 3 
1 4 
1 5 
1 6 
1 7 
1 8 
1 9 
1 10 
1 11 
1 12 
1 13 
1 14 
1 15 
1 16 
1 17 
1 18 
1 19 
1 20 
1 21 
1 22 
1 23 
1 24 
1 25 
1 26 
1 27 
1 28 
1 29 
1 30 
1 31 
1 32 
1 33 
1 34 
1 35 
1 36 
1 37 
1 38 
1 39 
1 40 
1 41 
1 42 
1 43 
1 44 
1 45 
1 46 
1 47 
1 48 
1 49 
1 50 
1 51 
1 52 
1 53 
1 54 
1 55 
1 56 
1 57 
1 58 
1 59 
1 60 
1 61 
1 62 
1 63 
1 64 
1 65 
1 66 
1 67 
1 68 
1 69 
1 70 
1 71 
1 72 
1 73 
1 74 
1 75 
1 76 
1 77 
1 78 
1 79 
1 80 
1 81 
1 82 
1 83 
1 84 
1 85 
1 86 
1 87 
1 88 
1 89 
1 90 
1 91 
1 92 
1 93 
1 94 
1 95 
1 96 
1 97 
1 98 
1 99 
1 100 
1 101 
1 102 
1 103 
1 104 
1 105 
1 106 
1 107 
1 108 
1 109 
1 110 
1 111 
1 112 
1 113 
1 114 
1 115 
1 116 
1 117 
1 118 
1 119 
1 120 
1 121 
1 122 
1 123 
1 124 
1 125 
1 126 
1 127 
1 128 
1 129 
1 130 
1 131 
1 132 
1 133 
1 134 
1 135 
1 136 
1 137 
1 138 
1 139 
1 140 
1 141 
1 142 
1 143 
1 144 
1 145 
1 146 
1 147 
1 148 
1 149 
1 150 
1 151 
1 152 
1 153 
1 154 
1 155 
1 156 
1 157 
1 158 
1 159 
1 160 
1 161 
1 162 
1 163 
1 164 
1 165 
1 166 
1 167 
1 168 
1 169 
1 170 
1 171 
1 172 
1 173 
1 174 
CELL_TYPES 175 
1 
1 
1 
1 
1 
1 
1 
1 
1 
1 
1 
1 
1 
1 
1 
1 
1 
1 
1 
1 
1 
1 
1 
1 
1 
1 
1 
1 
1 
1 
1 
1 
1 
1 
1 
1 
1 
1 
1 
1 
1 
1 
1 
1 
1 
1 
1 
1 
1 
1 
1 
1 
1 
1 
1 
1 
1 
1 
1 
1 
1 
1 
1 
1 
1 
1 
1 
1 
1 
1 
1 
1 
1 
1 
1 
1 
1 
1 
1 
1 
1 
1 
1 
1 
1 
1 
1 
1 
1 
1 
1 
1 
1 
1 
1 
1 
1 
1 
1 
1 
1 
1 
1 
1 
1 
1 
1 
1 
1 
1 
1 
1 
1 
1 
1 
1 
1 
1 
1 
1 
1 
1 
1 
1 
1 
1 
1 
1 
1 
1 
1 
1 
1 
1 
1 
1 
1 
1 
1 
1 
1 
1 
1 
1 
1 
1 
1 
1 
1 
1 
1 
1 
1 
1 
1 
1 
1 
1 
1 
1 
1 
1 
1 
1 
1 
1 
1 
1 
1 
1 
1 
1 
1 
1 
1 
POINT_DATA 175 
VECTORS X_GC float 
-0.026061 -1.152106 0.000000 
-0.106992 -1.084050 0.000000 
-0.054870 -1.092283 0.000000 
-0.028809 -1.046399 0.000000 
-0.186430 -1.019975 0.000000 
-0.137056 -1.022501 0.000000 
-0.114311 -0.968854 0.000000 
-0.058186 -0.984519 0.000000 
-0.029377 -0.944342 0.000000 
-0.265318 -0.956819 0.000000 
-0.217198 -0.957619 0.000000 
-0.196633 -0.900322 0.000000 
-0.143120 -0.909031 0.000000 
-0.116563 -0.861762 0.000000 
-0.058945 -0.881408 0.000000 
-0.029568 -0.843288 0.000000 
-0.344206 -0.893663 0.000000 
-0.296791 -0.893656 0.000000 
-0.278030 -0.833713 0.000000 
-0.225992 -0.839579 0.000000 
-0.201664 -0.787462 0.000000 
-0.145749 -0.800936 0.000000 
-0.117890 -0.756594 0.000000 
-0.059328 -0.779300 0.000000 
-0.029759 -0.742234 0.000000 
-0.058559 -1.192856 0.000000 
-0.162226 -1.213699 0.000000 
-0.123292 -1.178081 0.000000 
-0.142917 -1.129098 0.000000 
-0.261851 -1.235855 0.000000 
-0.229092 -1.198828 0.000000 
-0.256854 -1.147597 0.000000 
-0.209613 -1.113484 0.000000 
-0.223062 -1.065910 0.000000 
-0.360414 -1.258155 0.000000 
-0.329787 -1.221033 0.000000 
-0.361761 -1.169231 0.000000 
-0.321587 -1.132822 0.000000 
-0.341985 -1.082588 0.000000 
-0.290702 -1.049789 0.000000 
-0.302189 -1.003054 0.000000 
-0.458977 -1.280456 0.000000 
-0.429420 -1.243381 0.000000 
-0.464588 -1.191339 0.000000 
-0.427556 -1.154312 0.000000 
-0.453135 -1.102797 0.000000 
-0.407738 -1.067482 0.000000 
-0.425037 -1.018054 0.000000 
-0.370772 -0.986424 0.000000 
-0.381315 -0.940197 0.000000 
-0.046960 -1.243672 0.000000 
-0.095301 -1.337717 0.000000 
-0.098873 -1.285070 0.000000 
-0.149405 -1.269873 0.000000 
-0.140093 -1.429421 0.000000 
-0.148617 -1.380723 0.000000 
-0.205981 -1.370486 0.000000 
-0.203197 -1.312283 0.000000 
-0.248777 -1.293136 0.000000 
-0.184111 -1.520385 0.000000 
-0.194039 -1.473294 0.000000 
-0.254475 -1.465994 0.000000 
-0.257893 -1.411885 0.000000 
-0.309886 -1.396512 0.000000 
-0.303554 -1.335967 0.000000 
-0.347255 -1.315809 0.000000 
-0.228129 -1.611349 0.000000 
-0.238687 -1.565124 0.000000 
-0.301302 -1.560172 0.000000 
-0.307162 -1.508133 0.000000 
-0.363386 -1.496012 0.000000 
-0.362692 -1.438501 0.000000 
-0.412122 -1.421208 0.000000 
-0.403017 -1.359061 0.000000 
-0.445733 -1.338482 0.000000 
-0.000000 -1.266286 0.000000 
0.043388 -1.362717 0.000000 
-0.000000 -1.332685 0.000000 
-0.043388 -1.362717 0.000000 
0.087158 -1.454914 0.000000 
0.043769 -1.431215 0.000000 
-0.000000 -1.469681 0.000000 
-0.043769 -1.431215 0.000000 
-0.087158 -1.454914 0.000000 
0.130831 -1.546043 0.000000 
0.087824 -1.524445 0.000000 
0.044436 -1.567144 0.000000 
-0.000000 -1.536079 0.000000 
-0.044436 -1.567144 0.000000 
-0.087824 -1.524445 0.000000 
-0.130831 -1.546043 0.000000 
0.174505 -1.637173 0.000000 
0.131782 -1.616607 0.000000 
0.088871 -1.662474 0.000000 
0.044532 -1.634610 0.000000 
-0.000000 -1.671010 0.000000 
-0.044532 -1.634610 0.000000 
-0.088871 -1.662474 0.000000 
-0.131782 -1.616607 0.000000 
-0.174505 -1.637173 0.000000 
0.046960 -1.243672 0.000000 
0.149405 -1.269873 0.000000 
0.098873 -1.285070 0.000000 
0.095301 -1.337717 0.000000 
0.248777 -1.293136 0.000000 
0.203197 -1.312283 0.000000 
0.205981 -1.370486 0.000000 
0.148617 -1.380723 0.000000 
0.140093 -1.429421 0.000000 
0.347255 -1.315809 0.000000 
0.303554 -1.335967 0.000000 
0.309886 -1.396512 0.000000 
0.257893 -1.411885 0.000000 
0.254475 -1.465994 0.000000 
0.194039 -1.473294 0.000000 
0.184111 -1.520385 0.000000 
0.445733 -1.338482 0.000000 
0.403017 -1.359061 0.000000 
0.412122 -1.421208 0.000000 
0.362692 -1.438501 0.000000 
0.363386 -1.496012 0.000000 
0.307162 -1.508133 0.000000 
0.301302 -1.560172 0.000000 
0.238687 -1.565124 0.000000 
0.228129 -1.611349 0.000000 
0.058559 -1.192856 0.000000 
0.142917 -1.129098 0.000000 
0.123292 -1.178081 0.000000 
0.162226 -1.213699 0.000000 
0.223062 -1.065910 0.000000 
0.209613 -1.113484 0.000000 
0.256854 -1.147597 0.000000 
0.229092 -1.198828 0.000000 
0.261851 -1.235855 0.000000 
0.302189 -1.003054 0.000000 
0.290702 -1.049789 0.000000 
0.341985 -1.082588 0.000000 
0.321587 -1.132822 0.000000 
0.361761 -1.169231 0.000000 
0.329787 -1.221033 0.000000 
0.360414 -1.258155 0.000000 
0.381315 -0.940197 0.000000 
0.370772 -0.986424 0.000000 
0.425037 -1.018054 0.000000 
0.407738 -1.067482 0.000000 
0.453135 -1.102797 0.000000 
0.427556 -1.154312 0.000000 
0.464588 -1.191339 0.000000 
0.429420 -1.243381 0.000000 
0.458977 -1.280456 0.000000 
0.026061 -1.152106 0.000000 
0.028809 -1.046399 0.000000 
0.054870 -1.092283 0.000000 
0.106992 -1.084050 0.000000 
0.029377 -0.944342 0.000000 
0.058186 -0.984519 0.000000 
0.114311 -0.968854 0.000000 
0.137056 -1.022501 0.000000 
0.186430 -1.019975 0.000000 
0.029568 -0.843288 0.000000 
0.058945 -0.881408 0.000000 
0.116563 -0.861762 0.000000 
0.143120 -0.909031 0.000000 
0.196633 -0.900322 0.000000 
0.217198 -0.957619 0.000000 
0.265318 -0.956819 0.000000 
0.029759 -0.742234 0.000000 
0.059328 -0.779300 0.000000 
0.117890 -0.756594 0.000000 
0.145749 -0.800936 0.000000 
0.201664 -0.787462 0.000000 
0.225992 -0.839579 0.000000 
0.278030 -0.833713 0.000000 
0.296791 -0.893656 0.000000 
0.344206 -0.893663 0.000000 
VECTORS X_EC float 
0.338794 0.053425 0.000000 
-0.609100 -0.865323 0.000000 
0.713312 -0.754182 0.000000 
0.374519 0.626388 0.000000 
0.423588 0.269658 0.000000 
-0.218274 0.303761 0.000000 
-0.513962 -0.420478 0.000000 
0.756418 -0.208992 0.000000 
0.381900 -0.751384 0.000000 
-0.550868 -0.582946 0.000000 
0.823577 -0.572150 0.000000 
0.556234 0.654346 0.000000 
-0.139443 0.771915 0.000000 
-0.484677 0.133790 0.000000 
0.766286 0.399005 0.000000 
0.384386 -0.115615 0.000000 
0.474677 0.564451 0.000000 
-0.141715 0.564355 0.000000 
-0.385608 -0.244873 0.000000 
0.937896 -0.165678 0.000000 
0.621631 -0.869258 0.000000 
-0.105264 -0.687359 0.000000 
-0.467428 0.714015 0.000000 
0.771260 -0.979457 0.000000 
0.386873 0.520154 0.000000 
0.761262 0.603560 0.000000 
0.108942 0.884936 0.000000 
-0.397202 0.404097 0.000000 
-0.142083 -0.257178 0.000000 
-0.595936 -0.815953 0.000000 
0.978194 0.684181 0.000000 
-0.660903 -0.007444 0.000000 
0.724964 -0.467964 0.000000 
0.899809 0.889788 0.000000 
0.685384 -0.514901 0.000000 
0.287229 0.983941 0.000000 
0.702895 0.284612 0.000000 
0.180633 -0.206906 0.000000 
0.445811 -0.885066 0.000000 
-0.220880 0.672148 0.000000 
-0.071546 0.041223 0.000000 
-0.033296 -0.213849 0.000000 
-0.417537 -0.714358 0.000000 
0.039645 0.583079 0.000000 
-0.441768 0.083208 0.000000 
-0.109248 -0.612243 0.000000 
-0.699407 0.911002 0.000000 
-0.474522 0.243723 0.000000 
0.820030 -0.183271 0.000000 
0.957100 -0.807342 0.000000 
0.610485 -0.710434 0.000000 
-0.761092 0.559186 0.000000 
-0.714655 -0.151552 0.000000 
-0.057734 -0.356719 0.000000 
-0.178789 -0.202810 0.000000 
-0.067979 -0.860236 0.000000 
0.677748 -0.998440 0.000000 
0.641556 0.215815 0.000000 
-0.765897 -0.042664 0.000000 
0.393446 -0.974801 0.000000 
0.522510 0.389469 0.000000 
-0.691820 0.290925 0.000000 
-0.647393 -0.439558 0.000000 
0.028512 -0.647085 0.000000 
-0.053800 0.535555 0.000000 
0.514316 0.263424 0.000000 
0.965681 0.253208 0.000000 
-0.897068 -0.370821 0.000000 
-0.083078 -0.437674 0.000000 
-0.006893 0.859801 0.000000 
0.724017 0.696169 0.000000 
0.714996 -0.080235 0.000000 
-0.642413 -0.313692 0.000000 
-0.760780 0.847327 0.000000 
-0.205471 0.569512 0.000000 
0.000000 -0.405132 0.000000 
-0.564049 0.896681 0.000000 
0.000000 0.491245 0.000000 
0.564049 0.896681 0.000000 
0.866949 0.141336 0.000000 
-0.569003 -0.178595 0.000000 
0.000000 0.340693 0.000000 
0.569003 -0.178595 0.000000 
-0.866949 0.141336 0.000000 
0.299194 -0.628414 0.000000 
0.858290 -0.919998 0.000000 
-0.577662 -0.343552 0.000000 
0.000000 -0.762930 0.000000 
0.577662 -0.343552 0.000000 
-0.858290 -0.919998 0.000000 
-0.299194 -0.628414 0.000000 
-0.268560 0.601836 0.000000 
0.286830 0.324194 0.000000 
0.844677 0.943393 0.000000 
-0.578910 0.567230 0.000000 
0.000000 -0.941366 0.000000 
0.578910 0.567230 0.000000 
-0.844677 0.943393 0.000000 
-0.286830 0.324194 0.000000 
0.268560 0.601836 0.000000 
-0.610485 -0.710434 0.000000 
0.057734 -0.356719 0.000000 
0.714655 -0.151552 0.000000 
0.761092 0.559186 0.000000 
0.765897 -0.042664 0.000000 
-0.641556 0.215815 0.000000 
-0.677748 -0.998440 0.000000 
0.067979 -0.860236 0.000000 
0.178789 -0.202810 0.000000 
-0.514316 0.263424 0.000000 
0.053800 0.535555 0.000000 
-0.028512 -0.647085 0.000000 
0.647393 -0.439558 0.000000 
0.691820 0.290925 0.000000 
-0.522510 0.389469 0.000000 
-0.393446 -0.974801 0.000000 
0.205471 0.569512 0.000000 
0.760780 0.847327 0.000000 
0.642413 -0.313692 0.000000 
-0.714996 -0.080235 0.000000 
-0.724017 0.696169 0.000000 
0.006894 0.859801 0.000000 
0.083078 -0.437674 0.000000 
0.897068 -0.370821 0.000000 
-0.965681 0.253208 0.000000 
-0.761262 0.603560 0.000000 
0.142083 -0.257178 0.000000 
0.397202 0.404097 0.000000 
-0.108942 0.884936 0.000000 
-0.899809 0.889788 0.000000 
-0.724964 -0.467964 0.000000 
0.660903 -0.007444 0.000000 
-0.978194 0.684181 0.000000 
0.595936 -0.815953 0.000000 
0.071546 0.041223 0.000000 
0.220880 0.672148 0.000000 
-0.445811 -0.885066 0.000000 
-0.180633 -0.206906 0.000000 
-0.702895 0.284612 0.000000 
-0.287229 0.983941 0.000000 
-0.685384 -0.514901 0.000000 
-0.957100 -0.807342 0.000000 
-0.820030 -0.183271 0.000000 
0.474522 0.243723 0.000000 
0.699407 0.911002 0.000000 
0.109248 -0.612243 0.000000 
0.441768 0.083208 0.000000 
-0.039645 0.583079 0.000000 
0.417537 -0.714358 0.000000 
0.033296 -0.213849 0.000000 
-0.338794 0.053425 0.000000 
-0.374519 0.626388 0.000000 
-0.713312 -0.754182 0.000000 
0.609100 -0.865323 0.000000 
-0.381900 -0.751384 0.000000 
-0.756418 -0.208992 0.000000 
0.513962 -0.420478 0.000000 
0.218274 0.303761 0.000000 
-0.423588 0.269658 0.000000 
-0.384386 -0.115615 0.000000 
-0.766286 0.399005 0.000000 
0.484677 0.133790 0.000000 
0.139443 0.771915 0.000000 
-0.556234 0.654346 0.000000 
-0.823577 -0.572150 0.000000 
0.550868 -0.582946 0.000000 
-0.386873 0.520154 0.000000 
-0.771260 -0.979457 0.000000 
0.467428 0.714015 0.000000 
0.105264 -0.687359 0.000000 
-0.621631 -0.869258 0.000000 
-0.937896 -0.165678 0.000000 
0.385608 -0.244873 0.000000 
0.141715 0.564355 0.000000 
-0.474677 0.564451 0.000000 
CELL_DATA 175 
SCALARS MASS float 
LOOKUP_TABLE default 
0.781831 
0.864274 
0.946717 
0.864274 
0.881307 
0.921110 
0.858535 
0.921110 
0.881307 
0.887046 
0.910001 
0.869829 
0.915556 
0.869829 
0.910001 
0.887046 
0.892784 
0.915740 
0.892784 
0.927218 
0.892784 
0.927218 
0.892784 
0.915740 
0.892784 
0.781831 
0.864274 
0.946717 
0.864274 
0.881307 
0.921110 
0.858535 
0.921110 
0.881307 
0.887046 
0.910001 
0.869829 
0.915556 
0.869829 
0.910001 
0.887046 
0.892784 
0.915740 
0.892784 
0.927218 
0.892784 
0.927218 
0.892784 
0.915740 
0.892784 
0.781831 
0.864274 
0.946717 
0.864274 
0.881307 
0.921110 
0.858535 
0.921110 
0.881307 
0.887046 
0.910001 
0.869829 
0.915556 
0.869829 
0.910001 
0.887046 
0.892784 
0.915740 
0.892784 
0.927218 
0.892784 
0.927218 
0.892784 
0.915740 
0.892784 
0.781831 
0.864274 
0.946717 
0.864274 
0.881307 
0.921110 
0.858535 
0.921110 
0.881307 
0.887046 
0.910001 
0.869829 
0.915556 
0.869829 
0.910001 
0.887046 
0.892784 
0.915740 
0.892784 
0.927218 
0.892784 
0.927218 
0.892784 
0.915740 
0.892784 
0.781831 
0.864274 
0.946717 
0.864274 
0.881307 
0.921110 
0.858535 
0.921110 
0.881307 
0.887046 
0.910001 
0.869829 
0.915556 
0.869829 
0.910001 
0.887046 
0.892784 
0.915740 
0.892784 
0.927218 
0.892784 
0.927218 
0.892784 
0.915740 
0.892784 
0.781831 
0.864274 
0.946717 
0.864274 
0.881307 
0.921110 
0.858535 
0.921110 
0.881307 
0.887046 
0.910001 
0.869829 
0.915556 
0.869829 
0.910001 
0.887046 
0.892784 
0.915740 
0.892784 
0.927218 
0.892784 
0.927218 
0.892784 
0.915740 
0.892784 
0.781831 
0.864274 
0.946717 
0.864274 
0.881307 
0.921110 
0.858535 
0.921110 
0.881307 
0.887046 
0.910001 
0.869829 
0.915556 
0.869829 
0.910001 
0.887046 
0.892784 
0.915740 
0.892784 
0.927218 
0.892784 
0.927218 
0.892784 
0.915740 
0.892784 
SCALARS MASS float 
LOOKUP_TABLE default 
0.781831 
0.864274 
0.946717 
0.864274 
0.881307 
0.921110 
0.858535 
0.921110 
0.881307 
0.887046 
0.910001 
0.869829 
0.915556 
0.869829 
0.910001 
0.887046 
0.892784 
0.915740 
0.892784 
0.927218 
0.892784 
0.927218 
0.892784 
0.915740 
0.892784 
0.781831 
0.864274 
0.946717 
0.864274 
0.881307 
0.921110 
0.858535 
0.921110 
0.881307 
0.887046 
0.910001 
0.869829 
0.915556 
0.869829 
0.910001 
0.887046 
0.892784 
0.915740 
0.892784 
0.927218 
0.892784 
0.927218 
0.892784 
0.915740 
0.892784 
0.781831 
0.864274 
0.946717 
0.864274 
0.881307 
0.921110 
0.858535 
0.921110 
0.881307 
0.887046 
0.910001 
0.869829 
0.915556 
0.869829 
0.910001 
0.887046 
0.892784 
0.915740 
0.892784 
0.927218 
0.892784 
0.927218 
0.892784 
0.915740 
0.892784 
0.781831 
0.864274 
0.946717 
0.864274 
0.881307 
0.921110 
0.858535 
0.921110 
0.881307 
0.887046 
0.910001 
0.869829 
0.915556 
0.869829 
0.910001 
0.887046 
0.892784 
0.915740 
0.892784 
0.927218 
0.892784 
0.927218 
0.892784 
0.915740 
0.892784 
0.781831 
0.864274 
0.946717 
0.864274 
0.881307 
0.921110 
0.858535 
0.921110 
0.881307 
0.887046 
0.910001 
0.869829 
0.915556 
0.869829 
0.910001 
0.887046 
0.892784 
0.915740 
0.892784 
0.927218 
0.892784 
0.927218 
0.892784 
0.915740 
0.892784 
0.781831 
0.864274 
0.946717 
0.864274 
0.881307 
0.921110 
0.858535 
0.921110 
0.881307 
0.887046 
0.910001 
0.869829 
0.915556 
0.869829 
0.910001 
0.887046 
0.892784 
0.915740 
0.892784 
0.927218 
0.892784 
0.927218 
0.892784 
0.915740 
0.892784 
0.781831 
0.864274 
0.946717 
0.864274 
0.881307 
0.921110 
0.858535 
0.921110 
0.881307 
0.887046 
0.910001 
0.869829 
0.915556 
0.869829 
0.910001 
0.887046 
0.892784 
0.915740 
0.892784 
0.927218 
0.892784 
0.927218 
0.892784 
0.915740 
0.892784 
SCALARS DENSITY float 
LOOKUP_TABLE default 
200.000000 
200.000000 
200.000000 
200.000000 
200.000000 
200.000000 
200.000000 
200.000000 
200.000000 
200.000000 
200.000000 
200.000000 
200.000000 
200.000000 
200.000000 
200.000000 
200.000000 
200.000000 
200.000000 
200.000000 
200.000000 
200.000000 
200.000000 
200.000000 
200.000000 
200.000000 
200.000000 
200.000000 
200.000000 
200.000000 
200.000000 
200.000000 
200.000000 
200.000000 
200.000000 
200.000000 
200.000000 
200.000000 
200.000000 
200.000000 
200.000000 
200.000000 
200.000000 
200.000000 
200.000000 
200.000000 
200.000000 
200.000000 
200.000000 
200.000000 
200.000000 
200.000000 
200.000000 
200.000000 
200.000000 
200.000000 
200.000000 
200.000000 
200.000000 
200.000000 
200.000000 
200.000000 
200.000000 
200.000000 
200.000000 
200.000000 
200.000000 
200.000000 
200.000000 
200.000000 
200.000000 
200.000000 
200.000000 
200.000000 
200.000000 
200.000000 
200.000000 
200.000000 
200.000000 
200.000000 
200.000000 
200.000000 
200.000000 
200.000000 
200.000000 
200.000000 
200.000000 
200.000000 
200.000000 
200.000000 
200.000000 
200.000000 
200.000000 
200.000000 
200.000000 
200.000000 
200.000000 
200.000000 
200.000000 
200.000000 
200.000000 
200.000000 
200.000000 
200.000000 
200.000000 
200.000000 
200.000000 
200.000000 
200.000000 
200.000000 
200.000000 
200.000000 
200.000000 
200.000000 
200.000000 
200.000000 
200.000000 
200.000000 
200.000000 
200.000000 
200.000000 
200.000000 
200.000000 
200.000000 
200.000000 
200.000000 
200.000000 
200.000000 
200.000000 
200.000000 
200.000000 
200.000000 
200.000000 
200.000000 
200.000000 
200.000000 
200.000000 
200.000000 
200.000000 
200.000000 
200.000000 
200.000000 
200.000000 
200.000000 
200.000000 
200.000000 
200.000000 
200.000000 
200.000000 
200.000000 
200.000000 
200.000000 
200.000000 
200.000000 
200.000000 
200.000000 
200.000000 
200.000000 
200.000000 
200.000000 
200.000000 
200.000000 
200.000000 
200.000000 
200.000000 
200.000000 
200.000000 
200.000000 
200.000000 
200.000000 
200.000000 
200.000000 
200.000000 
200.000000 
200.000000 
SCALARS ELEM_i float 
LOOKUP_TABLE default 
174 
201 
174 
175 
202 
202 
202 
175 
175 
229 
202 
203 
203 
203 
176 
176 
230 
230 
230 
203 
203 
203 
204 
176 
177 
174 
201 
201 
201 
227 
201 
228 
201 
202 
227 
228 
228 
228 
228 
229 
229 
254 
254 
255 
255 
255 
256 
256 
229 
229 
173 
200 
200 
200 
199 
199 
199 
200 
227 
198 
199 
226 
226 
226 
227 
227 
198 
225 
225 
226 
226 
226 
253 
254 
254 
173 
173 
173 
173 
145 
172 
172 
172 
199 
144 
144 
171 
171 
171 
198 
198 
144 
144 
144 
171 
170 
171 
198 
198 
198 
173 
146 
146 
146 
119 
146 
145 
145 
145 
119 
119 
118 
118 
118 
145 
144 
92 
92 
91 
118 
118 
118 
117 
117 
144 
174 
147 
147 
147 
148 
147 
120 
147 
119 
121 
121 
120 
120 
120 
120 
119 
121 
121 
94 
94 
93 
93 
93 
92 
92 
174 
175 
174 
147 
175 
175 
148 
148 
148 
176 
176 
149 
149 
149 
148 
121 
177 
176 
150 
149 
149 
149 
122 
122 
122 
VECTORS VELOCITY float 
-0.000000 -4.863798 0.000000 
-0.000000 -4.863798 0.000000 
-0.000000 -4.863798 0.000000 
-0.000000 -4.863798 0.000000 
-0.000000 -4.863798 0.000000 
-0.000000 -4.863798 0.000000 
-0.000000 -4.863798 0.000000 
-0.000000 -4.863798 0.000000 
-0.000000 -4.863798 0.000000 
0.000000 -4.863798 0.000000 
-0.000000 -4.863798 0.000000 
-0.000000 -4.863798 0.000000 
0.000000 -4.863798 0.000000 
0.000000 -4.863798 0.000000 
0.000000 -4.863798 0.000000 
0.000000 -4.863798 0.000000 
0.000000 -4.863798 0.000000 
-0.000000 -4.863798 0.000000 
-0.000000 -4.863798 0.000000 
0.000000 -4.863798 0.000000 
0.000000 -4.863798 0.000000 
0.000000 -4.863798 0.000000 
-0.000000 -4.863798 0.000000 
0.000000 -4.863798 0.000000 
0.000000 -4.863798 0.000000 
-0.000000 -4.863798 0.000000 
0.000000 -4.863798 0.000000 
-0.000000 -4.863798 0.000000 
0.000000 -4.863798 0.000000 
0.000000 -4.863798 0.000000 
0.000000 -4.863798 0.000000 
0.000000 -4.863798 0.000000 
0.000000 -4.863798 0.000000 
0.000000 -4.863798 0.000000 
0.000000 -4.863798 0.000000 
0.000000 -4.863798 0.000000 
0.000000 -4.863798 0.000000 
0.000000 -4.863798 0.000000 
-0.000000 -4.863798 0.000000 
-0.000000 -4.863798 0.000000 
0.000000 -4.863798 0.000000 
0.000000 -4.863798 0.000000 
0.000000 -4.863798 0.000000 
0.000000 -4.863798 0.000000 
0.000000 -4.863798 0.000000 
0.000000 -4.863798 0.000000 
-0.000000 -4.863798 0.000000 
-0.000000 -4.863798 0.000000 
0.000000 -4.863798 0.000000 
0.000000 -4.863798 0.000000 
-0.000000 -4.863798 0.000000 
-0.000000 -4.863798 0.000000 
-0.000000 -4.863798 0.000000 
-0.000000 -4.863798 0.000000 
0.000000 -4.863798 0.000000 
0.000000 -4.863798 0.000000 
0.000000 -4.863798 0.000000 
-0.000000 -4.863798 0.000000 
-0.000000 -4.863798 0.000000 
-0.000000 -4.863798 0.000000 
-0.000000 -4.863798 0.000000 
-0.000000 -4.863798 0.000000 
0.000000 -4.863798 0.000000 
0.000000 -4.863798 0.000000 
0.000000 -4.863798 0.000000 
-0.000000 -4.863798 0.000000 
-0.000000 -4.863798 0.000000 
-0.000000 -4.863798 0.000000 
0.000000 -4.863798 0.000000 
-0.000000 -4.863798 0.000000 
0.000000 -4.863798 0.000000 
0.000000 -4.863798 0.000000 
-0.000000 -4.863798 0.000000 
0.000000 -4.863798 0.000000 
0.000000 -4.863798 0.000000 
-0.000000 -4.863798 0.000000 
-0.000000 -4.863798 0.000000 
-0.000000 -4.863798 0.000000 
-0.000000 -4.863798 0.000000 
-0.000000 -4.863798 0.000000 
-0.000000 -4.863798 0.000000 
0.000000 -4.863798 0.000000 
0.000000 -4.863798 0.000000 
0.000000 -4.863798 0.000000 
-0.000000 -4.863798 0.000000 
-0.000000 -4.863798 0.000000 
-0.000000 -4.863798 0.000000 
-0.000000 -4.863798 0.000000 
-0.000000 -4.863798 0.000000 
-0.000000 -4.863798 0.000000 
-0.000000 -4.863798 0.000000 
-0.000000 -4.863798 0.000000 
-0.000000 -4.863798 0.000000 
0.000000 -4.863798 0.000000 
-0.000000 -4.863798 0.000000 
0.000000 -4.863798 0.000000 
0.000000 -4.863798 0.000000 
0.000000 -4.863798 0.000000 
0.000000 -4.863798 0.000000 
-0.000000 -4.863798 0.000000 
0.000000 -4.863798 0.000000 
0.000000 -4.863798 0.000000 
-0.000000 -4.863798 0.000000 
-0.000000 -4.863798 0.000000 
-0.000000 -4.863798 0.000000 
-0.000000 -4.863798 0.000000 
-0.000000 -4.863798 0.000000 
-0.000000 -4.863798 0.000000 
-0.000000 -4.863798 0.000000 
-0.000000 -4.863798 0.000000 
-0.000000 -4.863798 0.000000 
0.000000 -4.863798 0.000000 
0.000000 -4.863798 0.000000 
-0.000000 -4.863798 0.000000 
-0.000000 -4.863798 0.000000 
0.000000 -4.863798 0.000000 
-0.000000 -4.863798 0.000000 
0.000000 -4.863798 0.000000 
0.000000 -4.863798 0.000000 
0.000000 -4.863798 0.000000 
-0.000000 -4.863798 0.000000 
-0.000000 -4.863798 0.000000 
-0.000000 -4.863798 0.000000 
-0.000000 -4.863798 0.000000 
-0.000000 -4.863798 0.000000 
-0.000000 -4.863798 0.000000 
-0.000000 -4.863798 0.000000 
-0.000000 -4.863798 0.000000 
-0.000000 -4.863798 0.000000 
-0.000000 -4.863798 0.000000 
-0.000000 -4.863798 0.000000 
-0.000000 -4.863798 0.000000 
-0.000000 -4.863798 0.000000 
-0.000000 -4.863798 0.000000 
-0.000000 -4.863798 0.000000 
-0.000000 -4.863798 0.000000 
0.000000 -4.863798 0.000000 
0.000000 -4.863798 0.000000 
0.000000 -4.863798 0.000000 
-0.000000 -4.863798 0.000000 
-0.000000 -4.863798 0.000000 
0.000000 -4.863798 0.000000 
-0.000000 -4.863798 0.000000 
0.000000 -4.863798 0.000000 
0.000000 -4.863798 0.000000 
-0.000000 -4.863798 0.000000 
0.000000 -4.863798 0.000000 
-0.000000 -4.863798 0.000000 
0.000000 -4.863798 0.000000 
0.000000 -4.863798 0.000000 
-0.000000 -4.863798 0.000000 
0.000000 -4.863798 0.000000 
-0.000000 -4.863798 0.000000 
-0.000000 -4.863798 0.000000 
-0.000000 -4.863798 0.000000 
-0.000000 -4.863798 0.000000 
-0.000000 -4.863798 0.000000 
0.000000 -4.863798 0.000000 
-0.000000 -4.863798 0.000000 
0.000000 -4.863798 0.000000 
-0.000000 -4.863798 0.000000 
0.000000 -4.863798 0.000000 
0.000000 -4.863798 0.000000 
0.000000 -4.863798 0.000000 
0.000000 -4.863798 0.000000 
0.000000 -4.863798 0.000000 
0.000000 -4.863798 0.000000 
0.000000 -4.863798 0.000000 
0.000000 -4.863798 0.000000 
0.000000 -4.863798 0.000000 
0.000000 -4.863798 0.000000 
0.000000 -4.863798 0.000000 
0.000000 -4.863798 0.000000 
0.000000 -4.863798 0.000000 
0.000000 -4.863798 0.000000 
TENSORS STRESS float 
-0.000000 -0.000000 0.000000 
0.000000 -0.000000 0.000000 
0.000000 0.000000 0.000000 

0.000000 0.000000 0.000000 
0.000000 0.000000 0.000000 
0.000000 0.000000 0.000000 

-0.000000 0.000000 0.000000 
0.000000 -0.000000 0.000000 
0.000000 0.000000 0.000000 

0.000000 0.000000 0.000000 
0.000000 0.000000 0.000000 
0.000000 0.000000 0.000000 

-0.000000 0.000000 0.000000 
0.000000 -0.000000 0.000000 
0.000000 0.000000 0.000000 

0.000000 0.000000 0.000000 
0.000000 0.000000 0.000000 
0.000000 0.000000 0.000000 

0.000000 -0.000000 0.000000 
0.000000 0.000000 0.000000 
0.000000 0.000000 0.000000 

-0.000000 -0.000000 0.000000 
0.000000 -0.000000 0.000000 
0.000000 0.000000 0.000000 

0.000000 -0.000000 0.000000 
0.000000 -0.000000 0.000000 
0.000000 0.000000 0.000000 

0.000000 0.000000 0.000000 
0.000000 0.000000 0.000000 
0.000000 0.000000 0.000000 

0.000000 -0.000000 0.000000 
0.000000 0.000000 0.000000 
0.000000 0.000000 0.000000 

0.000000 -0.000000 0.000000 
0.000000 0.000000 0.000000 
0.000000 0.000000 0.000000 

0.000000 -0.000000 0.000000 
0.000000 0.000000 0.000000 
0.000000 0.000000 0.000000 

0.000000 -0.000000 0.000000 
0.000000 0.000000 0.000000 
0.000000 0.000000 0.000000 

0.000000 0.000000 0.000000 
0.000000 0.000000 0.000000 
0.000000 0.000000 0.000000 

-0.000000 0.000000 0.000000 
0.000000 -0.000000 0.000000 
0.000000 0.000000 0.000000 

0.000000 0.000000 0.000000 
0.000000 0.000000 0.000000 
0.000000 0.000000 0.000000 

0.000000 0.000000 0.000000 
0.000000 0.000000 0.000000 
0.000000 0.000000 0.000000 

0.000000 -0.000000 0.000000 
0.000000 0.000000 0.000000 
0.000000 0.000000 0.000000 

-0.000000 -0.000000 0.000000 
0.000000 -0.000000 0.000000 
0.000000 0.000000 0.000000 

0.000000 -0.000000 0.000000 
0.000000 0.000000 0.000000 
0.000000 0.000000 0.000000 

-0.000000 -0.000000 0.000000 
0.000000 -0.000000 0.000000 
0.000000 0.000000 0.000000 

0.000000 -0.000000 0.000000 
0.000000 0.000000 0.000000 
0.000000 0.000000 0.000000 

0.000000 0.000000 0.000000 
0.000000 0.000000 0.000000 
0.000000 0.000000 0.000000 

0.000000 0.000000 0.000000 
0.000000 0.000000 0.000000 
0.000000 0.000000 0.000000 

-0.000000 -0.000000 0.000000 
0.000000 -0.000000 0.000000 
0.000000 0.000000 0.000000 

-0.000000 0.000000 0.000000 
0.000000 -0.000000 0.000000 
0.000000 0.000000 0.000000 

0.000000 0.000000 0.000000 
0.000000 0.000000 0.000000 
0.000000 0.000000 0.000000 

-0.000000 0.000000 0.000000 
0.000000 -0.000000 0.000000 
0.000000 0.000000 0.000000 

-0.000000 0.000000 0.000000 
0.000000 -0.000000 0.000000 
0.000000 0.000000 0.000000 

0.000000 0.000000 0.000000 
0.000000 0.000000 0.000000 
0.000000 0.000000 0.000000 

0.000000 0.000000 0.000000 
0.000000 0.000000 0.000000 
0.000000 0.000000 0.000000 

-0.000000 0.000000 0.000000 
0.000000 -0.000000 0.000000 
0.000000 0.000000 0.000000 

-0.000000 -0.000000 0.000000 
0.000000 -0.000000 0.000000 
0.000000 0.000000 0.000000 

-0.000000 -0.000000 0.000000 
0.000000 -0.000000 0.000000 
0.000000 0.000000 0.000000 

-0.000000 -0.000000 0.000000 
0.000000 -0.000000 0.000000 
0.000000 0.000000 0.000000 

0.000000 0.000000 0.000000 
0.000000 0.000000 0.000000 
0.000000 0.000000 0.000000 

0.000000 0.000000 0.000000 
0.000000 0.000000 0.000000 
0.000000 0.000000 0.000000 

0.000000 0.000000 0.000000 
0.000000 0.000000 0.000000 
0.000000 0.000000 0.000000 

0.000000 0.000000 0.000000 
0.000000 0.000000 0.000000 
0.000000 0.000000 0.000000 

0.000000 -0.000000 0.000000 
0.000000 0.000000 0.000000 
0.000000 0.000000 0.000000 

0.000000 -0.000000 0.000000 
0.000000 0.000000 0.000000 
0.000000 0.000000 0.000000 

0.000000 -0.000000 0.000000 
0.000000 0.000000 0.000000 
0.000000 0.000000 0.000000 

-0.000000 0.000000 0.000000 
0.000000 -0.000000 0.000000 
0.000000 0.000000 0.000000 

0.000000 0.000000 0.000000 
0.000000 0.000000 0.000000 
0.000000 0.000000 0.000000 

0.000000 0.000000 0.000000 
0.000000 0.000000 0.000000 
0.000000 0.000000 0.000000 

-0.000000 0.000000 0.000000 
0.000000 -0.000000 0.000000 
0.000000 0.000000 0.000000 

-0.000000 -0.000000 0.000000 
0.000000 -0.000000 0.000000 
0.000000 0.000000 0.000000 

-0.000000 0.000000 0.000000 
0.000000 -0.000000 0.000000 
0.000000 0.000000 0.000000 

-0.000000 0.000000 0.000000 
0.000000 -0.000000 0.000000 
0.000000 0.000000 0.000000 

-0.000000 -0.000000 0.000000 
0.000000 -0.000000 0.000000 
0.000000 0.000000 0.000000 

-0.000000 0.000000 0.000000 
0.000000 -0.000000 0.000000 
0.000000 0.000000 0.000000 

0.000000 0.000000 0.000000 
0.000000 -0.000000 0.000000 
0.000000 0.000000 0.000000 

-0.000000 0.000000 0.000000 
0.000000 -0.000000 0.000000 
0.000000 0.000000 0.000000 

-0.000000 0.000000 0.000000 
0.000000 -0.000000 0.000000 
0.000000 0.000000 0.000000 

-0.000000 0.000000 0.000000 
0.000000 -0.000000 0.000000 
0.000000 0.000000 0.000000 

-0.000000 0.000000 0.000000 
0.000000 -0.000000 0.000000 
0.000000 0.000000 0.000000 

0.000000 0.000000 0.000000 
0.000000 0.000000 0.000000 
0.000000 0.000000 0.000000 

-0.000000 -0.000000 0.000000 
0.000000 -0.000000 0.000000 
0.000000 0.000000 0.000000 

0.000000 0.000000 0.000000 
0.000000 0.000000 0.000000 
0.000000 0.000000 0.000000 

-0.000000 0.000000 0.000000 
0.000000 -0.000000 0.000000 
0.000000 0.000000 0.000000 

-0.000000 0.000000 0.000000 
0.000000 -0.000000 0.000000 
0.000000 0.000000 0.000000 

-0.000000 -0.000000 0.000000 
0.000000 -0.000000 0.000000 
0.000000 0.000000 0.000000 

0.000000 -0.000000 0.000000 
0.000000 0.000000 0.000000 
0.000000 0.000000 0.000000 

0.000000 -0.000000 0.000000 
0.000000 0.000000 0.000000 
0.000000 0.000000 0.000000 

-0.000000 -0.000000 0.000000 
0.000000 -0.000000 0.000000 
0.000000 0.000000 0.000000 

-0.000000 -0.000000 0.000000 
0.000000 -0.000000 0.000000 
0.000000 0.000000 0.000000 

-0.000000 0.000000 0.000000 
0.000000 0.000000 0.000000 
0.000000 0.000000 0.000000 

-0.000000 -0.000000 0.000000 
0.000000 0.000000 0.000000 
0.000000 0.000000 0.000000 

-0.000000 0.000000 0.000000 
0.000000 -0.000000 0.000000 
0.000000 0.000000 0.000000 

-0.000000 0.000000 0.000000 
0.000000 -0.000000 0.000000 
0.000000 0.000000 0.000000 

0.000000 0.000000 0.000000 
0.000000 0.000000 0.000000 
0.000000 0.000000 0.000000 

-0.000000 0.000000 0.000000 
0.000000 0.000000 0.000000 
0.000000 0.000000 0.000000 

-0.000000 0.000000 0.000000 
0.000000 -0.000000 0.000000 
0.000000 0.000000 0.000000 

0.000000 -0.000000 0.000000 
0.000000 0.000000 0.000000 
0.000000 0.000000 0.000000 

-0.000000 -0.000000 0.000000 
0.000000 -0.000000 0.000000 
0.000000 0.000000 0.000000 

0.000000 0.000000 0.000000 
0.000000 0.000000 0.000000 
0.000000 0.000000 0.000000 

-0.000000 0.000000 0.000000 
0.000000 -0.000000 0.000000 
0.000000 0.000000 0.000000 

0.000000 -0.000000 0.000000 
0.000000 0.000000 0.000000 
0.000000 0.000000 0.000000 

0.000000 0.000000 0.000000 
0.000000 0.000000 0.000000 
0.000000 0.000000 0.000000 

-0.000000 0.000000 0.000000 
0.000000 -0.000000 0.000000 
0.000000 0.000000 0.000000 

-0.000000 -0.000000 0.000000 
0.000000 -0.000000 0.000000 
0.000000 0.000000 0.000000 

0.000000 0.000000 0.000000 
0.000000 0.000000 0.000000 
0.000000 0.000000 0.000000 

-0.000000 0.000000 0.000000 
0.000000 -0.000000 0.000000 
0.000000 0.000000 0.000000 

0.000000 -0.000000 0.000000 
0.000000 0.000000 0.000000 
0.000000 0.000000 0.000000 

0.000000 -0.000000 0.000000 
0.000000 -0.000000 0.000000 
0.000000 0.000000 0.000000 

0.000000 -0.000000 0.000000 
0.000000 0.000000 0.000000 
0.000000 0.000000 0.000000 

-0.000000 -0.000000 0.000000 
0.000000 -0.000000 0.000000 
0.000000 0.000000 0.000000 

-0.000000 -0.000000 0.000000 
0.000000 -0.000000 0.000000 
0.000000 0.000000 0.000000 

-0.000000 -0.000000 0.000000 
0.000000 -0.000000 0.000000 
0.000000 0.000000 0.000000 

-0.000000 -0.000000 0.000000 
0.000000 -0.000000 0.000000 
0.000000 0.000000 0.000000 

0.000000 -0.000000 0.000000 
0.000000 0.000000 0.000000 
0.000000 0.000000 0.000000 

0.000000 -0.000000 0.000000 
0.000000 0.000000 0.000000 
0.000000 0.000000 0.000000 

0.000000 -0.000000 0.000000 
0.000000 -0.000000 0.000000 
0.000000 0.000000 0.000000 

0.000000 -0.000000 0.000000 
0.000000 0.000000 0.000000 
0.000000 0.000000 0.000000 

0.000000 -0.000000 0.000000 
0.000000 0.000000 0.000000 
0.000000 0.000000 0.000000 

0.000000 -0.000000 0.000000 
0.000000 0.000000 0.000000 
0.000000 0.000000 0.000000 

-0.000000 0.000000 0.000000 
0.000000 0.000000 0.000000 
0.000000 0.000000 0.000000 

-0.000000 0.000000 0.000000 
0.000000 -0.000000 0.000000 
0.000000 0.000000 0.000000 

-0.000000 -0.000000 0.000000 
0.000000 -0.000000 0.000000 
0.000000 0.000000 0.000000 

0.000000 -0.000000 0.000000 
0.000000 0.000000 0.000000 
0.000000 0.000000 0.000000 

-0.000000 0.000000 0.000000 
0.000000 -0.000000 0.000000 
0.000000 0.000000 0.000000 

-0.000000 0.000000 0.000000 
0.000000 -0.000000 0.000000 
0.000000 0.000000 0.000000 

0.000000 0.000000 0.000000 
0.000000 0.000000 0.000000 
0.000000 0.000000 0.000000 

-0.000000 0.000000 0.000000 
0.000000 -0.000000 0.000000 
0.000000 0.000000 0.000000 

-0.000000 -0.000000 0.000000 
0.000000 -0.000000 0.000000 
0.000000 0.000000 0.000000 

0.000000 -0.000000 0.000000 
0.000000 -0.000000 0.000000 
0.000000 0.000000 0.000000 

0.000000 -0.000000 0.000000 
0.000000 0.000000 0.000000 
0.000000 0.000000 0.000000 

0.000000 -0.000000 0.000000 
0.000000 -0.000000 0.000000 
0.000000 0.000000 0.000000 

-0.000000 0.000000 0.000000 
0.000000 -0.000000 0.000000 
0.000000 0.000000 0.000000 

-0.000000 0.000000 0.000000 
0.000000 -0.000000 0.000000 
0.000000 0.000000 0.000000 

0.000000 -0.000000 0.000000 
0.000000 0.000000 0.000000 
0.000000 0.000000 0.000000 

-0.000000 0.000000 0.000000 
0.000000 -0.000000 0.000000 
0.000000 0.000000 0.000000 

-0.000000 0.000000 0.000000 
0.000000 -0.000000 0.000000 
0.000000 0.000000 0.000000 

0.000000 -0.000000 0.000000 
0.000000 0.000000 0.000000 
0.000000 0.000000 0.000000 

0.000000 0.000000 0.000000 
0.000000 0.000000 0.000000 
0.000000 0.000000 0.000000 

-0.000000 0.000000 0.000000 
0.000000 -0.000000 0.000000 
0.000000 0.000000 0.000000 

0.000000 0.000000 0.000000 
0.000000 0.000000 0.000000 
0.000000 0.000000 0.000000 

-0.000000 -0.000000 0.000000 
0.000000 0.000000 0.000000 
0.000000 0.000000 0.000000 

-0.000000 0.000000 0.000000 
0.000000 -0.000000 0.000000 
0.000000 0.000000 0.000000 

-0.000000 0.000000 0.000000 
0.000000 -0.000000 0.000000 
0.000000 0.000000 0.000000 

0.000000 0.000000 0.000000 
0.000000 0.000000 0.000000 
0.000000 0.000000 0.000000 

-0.000000 0.000000 0.000000 
0.000000 -0.000000 0.000000 
0.000000 0.000000 0.000000 

0.000000 0.000000 0.000000 
0.000000 0.000000 0.000000 
0.000000 0.000000 0.000000 

0.000000 -0.000000 0.000000 
0.000000 -0.000000 0.000000 
0.000000 0.000000 0.000000 

0.000000 -0.000000 0.000000 
0.000000 0.000000 0.000000 
0.000000 0.000000 0.000000 

0.000000 -0.000000 0.000000 
0.000000 0.000000 0.000000 
0.000000 0.000000 0.000000 

-0.000000 -0.000000 0.000000 
0.000000 -0.000000 0.000000 
0.000000 0.000000 0.000000 

0.000000 -0.000000 0.000000 
0.000000 0.000000 0.000000 
0.000000 0.000000 0.000000 

0.000000 0.000000 0.000000 
0.000000 0.000000 0.000000 
0.000000 0.000000 0.000000 

0.000000 -0.000000 0.000000 
0.000000 0.000000 0.000000 
0.000000 0.000000 0.000000 

-0.000000 0.000000 0.000000 
0.000000 -0.000000 0.000000 
0.000000 0.000000 0.000000 

0.000000 0.000000 0.000000 
0.000000 0.000000 0.000000 
0.000000 0.000000 0.000000 

-0.000000 0.000000 0.000000 
0.000000 -0.000000 0.000000 
0.000000 0.000000 0.000000 

-0.000000 -0.000000 0.000000 
0.000000 -0.000000 0.000000 
0.000000 0.000000 0.000000 

0.000000 -0.000000 0.000000 
0.000000 0.000000 0.000000 
0.000000 0.000000 0.000000 

-0.000000 0.000000 0.000000 
0.000000 -0.000000 0.000000 
0.000000 0.000000 0.000000 

-0.000000 0.000000 0.000000 
0.000000 -0.000000 0.000000 
0.000000 0.000000 0.000000 

-0.000000 0.000000 0.000000 
0.000000 -0.000000 0.000000 
0.000000 0.000000 0.000000 

0.000000 0.000000 0.000000 
0.000000 0.000000 0.000000 
0.000000 0.000000 0.000000 

-0.000000 0.000000 0.000000 
0.000000 -0.000000 0.000000 
0.000000 0.000000 0.000000 

-0.000000 -0.000000 0.000000 
0.000000 -0.000000 0.000000 
0.000000 0.000000 0.000000 

-0.000000 -0.000000 0.000000 
0.000000 -0.000000 0.000000 
0.000000 0.000000 0.000000 

0.000000 0.000000 0.000000 
0.000000 0.000000 0.000000 
0.000000 0.000000 0.000000 

-0.000000 -0.000000 0.000000 
0.000000 -0.000000 0.000000 
0.000000 0.000000 0.000000 

0.000000 -0.000000 0.000000 
0.000000 -0.000000 0.000000 
0.000000 0.000000 0.000000 

0.000000 0.000000 0.000000 
0.000000 0.000000 0.000000 
0.000000 0.000000 0.000000 

-0.000000 0.000000 0.000000 
0.000000 -0.000000 0.000000 
0.000000 0.000000 0.000000 

0.000000 0.000000 0.000000 
0.000000 -0.000000 0.000000 
0.000000 0.000000 0.000000 

0.000000 -0.000000 0.000000 
0.000000 0.000000 0.000000 
0.000000 0.000000 0.000000 

0.000000 -0.000000 0.000000 
0.000000 0.000000 0.000000 
0.000000 0.000000 0.000000 

0.000000 0.000000 0.000000 
0.000000 0.000000 0.000000 
0.000000 0.000000 0.000000 

0.000000 0.000000 0.000000 
0.000000 0.000000 0.000000 
0.000000 0.000000 0.000000 

-0.000000 -0.000000 0.000000 
0.000000 -0.000000 0.000000 
0.000000 0.000000 0.000000 

0.000000 0.000000 0.000000 
0.000000 0.000000 0.000000 
0.000000 0.000000 0.000000 

0.000000 -0.000000 0.000000 
0.000000 0.000000 0.000000 
0.000000 0.000000 0.000000 

0.000000 -0.000000 0.000000 
0.000000 0.000000 0.000000 
0.000000 0.000000 0.000000 

0.000000 0.000000 0.000000 
0.000000 0.000000 0.000000 
0.000000 0.000000 0.000000 

-0.000000 0.000000 0.000000 
0.000000 -0.000000 0.000000 
0.000000 0.000000 0.000000 

-0.000000 0.000000 0.000000 
0.000000 -0.000000 0.000000 
0.000000 0.000000 0.000000 

-0.000000 0.000000 0.000000 
0.000000 -0.000000 0.000000 
0.000000 0.000000 0.000000 

-0.000000 -0.000000 0.000000 
0.000000 -0.000000 0.000000 
0.000000 0.000000 0.000000 

-0.000000 0.000000 0.000000 
0.000000 -0.000000 0.000000 
0.000000 0.000000 0.000000 

0.000000 0.000000 0.000000 
0.000000 0.000000 0.000000 
0.000000 0.000000 0.000000 

0.000000 0.000000 0.000000 
0.000000 0.000000 0.000000 
0.000000 0.000000 0.000000 

0.000000 -0.000000 0.000000 
0.000000 0.000000 0.000000 
0.000000 0.000000 0.000000 

-0.000000 0.000000 0.000000 
0.000000 -0.000000 0.000000 
0.000000 0.000000 0.000000 

-0.000000 0.000000 0.000000 
0.000000 -0.000000 0.000000 
0.000000 0.000000 0.000000 

-0.000000 -0.000000 0.000000 
0.000000 -0.000000 0.000000 
0.000000 0.000000 0.000000 

-0.000000 0.000000 0.000000 
0.000000 -0.000000 0.000000 
0.000000 0.000000 0.000000 

0.000000 -0.000000 0.000000 
0.000000 0.000000 0.000000 
0.000000 0.000000 0.000000 

0.000000 0.000000 0.000000 
0.000000 0.000000 0.000000 
0.000000 0.000000 0.000000 

0.000000 -0.000000 0.000000 
0.000000 0.000000 0.000000 
0.000000 0.000000 0.000000 

0.000000 -0.000000 0.000000 
0.000000 0.000000 0.000000 
0.000000 0.000000 0.000000 

0.000000 -0.000000 0.000000 
0.000000 0.000000 0.000000 
0.000000 0.000000 0.000000 

TENSORS STRAIN float 
0.000000 -0.000000 0.000000 
0.000000 -0.000000 0.000000 
0.000000 0.000000 0.000000 

-0.000000 0.000000 0.000000 
0.000000 0.000000 0.000000 
0.000000 0.000000 0.000000 

0.000000 0.000000 0.000000 
0.000000 -0.000000 0.000000 
0.000000 0.000000 0.000000 

0.000000 0.000000 0.000000 
0.000000 0.000000 0.000000 
0.000000 0.000000 0.000000 

0.000000 0.000000 0.000000 
0.000000 -0.000000 0.000000 
0.000000 0.000000 0.000000 

0.000000 0.000000 0.000000 
0.000000 0.000000 0.000000 
0.000000 0.000000 0.000000 

0.000000 -0.000000 0.000000 
0.000000 0.000000 0.000000 
0.000000 0.000000 0.000000 

0.000000 -0.000000 0.000000 
0.000000 -0.000000 0.000000 
0.000000 0.000000 0.000000 

0.000000 -0.000000 0.000000 
0.000000 -0.000000 0.000000 
0.000000 0.000000 0.000000 

0.000000 0.000000 0.000000 
0.000000 0.000000 0.000000 
0.000000 0.000000 0.000000 

-0.000000 -0.000000 0.000000 
0.000000 0.000000 0.000000 
0.000000 0.000000 0.000000 

-0.000000 -0.000000 0.000000 
0.000000 0.000000 0.000000 
0.000000 0.000000 0.000000 

-0.000000 -0.000000 0.000000 
0.000000 0.000000 0.000000 
0.000000 0.000000 0.000000 

-0.000000 -0.000000 0.000000 
0.000000 0.000000 0.000000 
0.000000 0.000000 0.000000 

0.000000 0.000000 0.000000 
0.000000 -0.000000 0.000000 
0.000000 0.000000 0.000000 

0.000000 0.000000 0.000000 
0.000000 -0.000000 0.000000 
0.000000 0.000000 0.000000 

0.000000 0.000000 0.000000 
0.000000 0.000000 0.000000 
0.000000 0.000000 0.000000 

0.000000 0.000000 0.000000 
0.000000 0.000000 0.000000 
0.000000 0.000000 0.000000 

0.000000 -0.000000 0.000000 
0.000000 -0.000000 0.000000 
0.000000 0.000000 0.000000 

0.000000 -0.000000 0.000000 
0.000000 -0.000000 0.000000 
0.000000 0.000000 0.000000 

0.000000 -0.000000 0.000000 
0.000000 0.000000 0.000000 
0.000000 0.000000 0.000000 

0.000000 -0.000000 0.000000 
0.000000 -0.000000 0.000000 
0.000000 0.000000 0.000000 

0.000000 -0.000000 0.000000 
0.000000 -0.000000 0.000000 
0.000000 0.000000 0.000000 

-0.000000 0.000000 0.000000 
0.000000 0.000000 0.000000 
0.000000 0.000000 0.000000 

-0.000000 0.000000 0.000000 
0.000000 0.000000 0.000000 
0.000000 0.000000 0.000000 

0.000000 -0.000000 0.000000 
0.000000 -0.000000 0.000000 
0.000000 0.000000 0.000000 

0.000000 0.000000 0.000000 
0.000000 -0.000000 0.000000 
0.000000 0.000000 0.000000 

-0.000000 0.000000 0.000000 
0.000000 0.000000 0.000000 
0.000000 0.000000 0.000000 

-0.000000 0.000000 0.000000 
0.000000 -0.000000 0.000000 
0.000000 0.000000 0.000000 

-0.000000 0.000000 0.000000 
0.000000 -0.000000 0.000000 
0.000000 0.000000 0.000000 

0.000000 0.000000 0.000000 
0.000000 0.000000 0.000000 
0.000000 0.000000 0.000000 

0.000000 0.000000 0.000000 
0.000000 0.000000 0.000000 
0.000000 0.000000 0.000000 

-0.000000 0.000000 0.000000 
0.000000 0.000000 0.000000 
0.000000 0.000000 0.000000 

-0.000000 -0.000000 0.000000 
0.000000 -0.000000 0.000000 
0.000000 0.000000 0.000000 

-0.000000 -0.000000 0.000000 
0.000000 0.000000 0.000000 
0.000000 0.000000 0.000000 

-0.000000 -0.000000 0.000000 
0.000000 -0.000000 0.000000 
0.000000 0.000000 0.000000 

0.000000 0.000000 0.000000 
0.000000 0.000000 0.000000 
0.000000 0.000000 0.000000 

0.000000 0.000000 0.000000 
0.000000 -0.000000 0.000000 
0.000000 0.000000 0.000000 

0.000000 0.000000 0.000000 
0.000000 -0.000000 0.000000 
0.000000 0.000000 0.000000 

0.000000 0.000000 0.000000 
0.000000 -0.000000 0.000000 
0.000000 0.000000 0.000000 

0.000000 -0.000000 0.000000 
0.000000 0.000000 0.000000 
0.000000 0.000000 0.000000 

-0.000000 -0.000000 0.000000 
0.000000 0.000000 0.000000 
0.000000 0.000000 0.000000 

-0.000000 -0.000000 0.000000 
0.000000 0.000000 0.000000 
0.000000 0.000000 0.000000 

0.000000 0.000000 0.000000 
0.000000 -0.000000 0.000000 
0.000000 0.000000 0.000000 

0.000000 0.000000 0.000000 
0.000000 0.000000 0.000000 
0.000000 0.000000 0.000000 

0.000000 0.000000 0.000000 
0.000000 0.000000 0.000000 
0.000000 0.000000 0.000000 

0.000000 0.000000 0.000000 
0.000000 -0.000000 0.000000 
0.000000 0.000000 0.000000 

-0.000000 -0.000000 0.000000 
0.000000 0.000000 0.000000 
0.000000 0.000000 0.000000 

0.000000 0.000000 0.000000 
0.000000 -0.000000 0.000000 
0.000000 0.000000 0.000000 

0.000000 0.000000 0.000000 
0.000000 -0.000000 0.000000 
0.000000 0.000000 0.000000 

0.000000 -0.000000 0.000000 
0.000000 -0.000000 0.000000 
0.000000 0.000000 0.000000 

-0.000000 0.000000 0.000000 
0.000000 -0.000000 0.000000 
0.000000 0.000000 0.000000 

0.000000 0.000000 0.000000 
0.000000 -0.000000 0.000000 
0.000000 0.000000 0.000000 

0.000000 0.000000 0.000000 
0.000000 -0.000000 0.000000 
0.000000 0.000000 0.000000 

-0.000000 0.000000 0.000000 
0.000000 -0.000000 0.000000 
0.000000 0.000000 0.000000 

-0.000000 0.000000 0.000000 
0.000000 0.000000 0.000000 
0.000000 0.000000 0.000000 

-0.000000 0.000000 0.000000 
0.000000 0.000000 0.000000 
0.000000 0.000000 0.000000 

0.000000 0.000000 0.000000 
0.000000 0.000000 0.000000 
0.000000 0.000000 0.000000 

-0.000000 -0.000000 0.000000 
0.000000 0.000000 0.000000 
0.000000 0.000000 0.000000 

-0.000000 0.000000 0.000000 
0.000000 0.000000 0.000000 
0.000000 0.000000 0.000000 

-0.000000 0.000000 0.000000 
0.000000 -0.000000 0.000000 
0.000000 0.000000 0.000000 

-0.000000 0.000000 0.000000 
0.000000 -0.000000 0.000000 
0.000000 0.000000 0.000000 

-0.000000 -0.000000 0.000000 
0.000000 0.000000 0.000000 
0.000000 0.000000 0.000000 

-0.000000 -0.000000 0.000000 
0.000000 0.000000 0.000000 
0.000000 0.000000 0.000000 

-0.000000 -0.000000 0.000000 
0.000000 0.000000 0.000000 
0.000000 0.000000 0.000000 

-0.000000 -0.000000 0.000000 
0.000000 -0.000000 0.000000 
0.000000 0.000000 0.000000 

0.000000 -0.000000 0.000000 
0.000000 -0.000000 0.000000 
0.000000 0.000000 0.000000 

-0.000000 0.000000 0.000000 
0.000000 0.000000 0.000000 
0.000000 0.000000 0.000000 

-0.000000 -0.000000 0.000000 
0.000000 0.000000 0.000000 
0.000000 0.000000 0.000000 

-0.000000 0.000000 0.000000 
0.000000 0.000000 0.000000 
0.000000 0.000000 0.000000 

-0.000000 0.000000 0.000000 
0.000000 0.000000 0.000000 
0.000000 0.000000 0.000000 

-0.000000 0.000000 0.000000 
0.000000 0.000000 0.000000 
0.000000 0.000000 0.000000 

-0.000000 0.000000 0.000000 
0.000000 0.000000 0.000000 
0.000000 0.000000 0.000000 

-0.000000 0.000000 0.000000 
0.000000 0.000000 0.000000 
0.000000 0.000000 0.000000 

-0.000000 -0.000000 0.000000 
0.000000 0.000000 0.000000 
0.000000 0.000000 0.000000 

0.000000 -0.000000 0.000000 
0.000000 -0.000000 0.000000 
0.000000 0.000000 0.000000 

0.000000 0.000000 0.000000 
0.000000 -0.000000 0.000000 
0.000000 0.000000 0.000000 

0.000000 0.000000 0.000000 
0.000000 -0.000000 0.000000 
0.000000 0.000000 0.000000 

0.000000 -0.000000 0.000000 
0.000000 -0.000000 0.000000 
0.000000 0.000000 0.000000 

0.000000 0.000000 0.000000 
0.000000 -0.000000 0.000000 
0.000000 0.000000 0.000000 

0.000000 0.000000 0.000000 
0.000000 -0.000000 0.000000 
0.000000 0.000000 0.000000 

0.000000 -0.000000 0.000000 
0.000000 -0.000000 0.000000 
0.000000 0.000000 0.000000 

0.000000 0.000000 0.000000 
0.000000 -0.000000 0.000000 
0.000000 0.000000 0.000000 

-0.000000 0.000000 0.000000 
0.000000 0.000000 0.000000 
0.000000 0.000000 0.000000 

0.000000 -0.000000 0.000000 
0.000000 -0.000000 0.000000 
0.000000 0.000000 0.000000 

0.000000 -0.000000 0.000000 
0.000000 -0.000000 0.000000 
0.000000 0.000000 0.000000 

-0.000000 -0.000000 0.000000 
0.000000 0.000000 0.000000 
0.000000 0.000000 0.000000 

0.000000 -0.000000 0.000000 
0.000000 -0.000000 0.000000 
0.000000 0.000000 0.000000 

-0.000000 -0.000000 0.000000 
0.000000 -0.000000 0.000000 
0.000000 0.000000 0.000000 

0.000000 -0.000000 0.000000 
0.000000 -0.000000 0.000000 
0.000000 0.000000 0.000000 

0.000000 -0.000000 0.000000 
0.000000 -0.000000 0.000000 
0.000000 0.000000 0.000000 

0.000000 -0.000000 0.000000 
0.000000 0.000000 0.000000 
0.000000 0.000000 0.000000 

0.000000 -0.000000 0.000000 
0.000000 -0.000000 0.000000 
0.000000 0.000000 0.000000 

0.000000 -0.000000 0.000000 
0.000000 -0.000000 0.000000 
0.000000 0.000000 0.000000 

-0.000000 -0.000000 0.000000 
0.000000 0.000000 0.000000 
0.000000 0.000000 0.000000 

-0.000000 -0.000000 0.000000 
0.000000 0.000000 0.000000 
0.000000 0.000000 0.000000 

-0.000000 -0.000000 0.000000 
0.000000 0.000000 0.000000 
0.000000 0.000000 0.000000 

-0.000000 0.000000 0.000000 
0.000000 0.000000 0.000000 
0.000000 0.000000 0.000000 

-0.000000 0.000000 0.000000 
0.000000 -0.000000 0.000000 
0.000000 0.000000 0.000000 

-0.000000 -0.000000 0.000000 
0.000000 0.000000 0.000000 
0.000000 0.000000 0.000000 

0.000000 -0.000000 0.000000 
0.000000 -0.000000 0.000000 
0.000000 0.000000 0.000000 

-0.000000 0.000000 0.000000 
0.000000 -0.000000 0.000000 
0.000000 0.000000 0.000000 

-0.000000 0.000000 0.000000 
0.000000 -0.000000 0.000000 
0.000000 0.000000 0.000000 

0.000000 0.000000 0.000000 
0.000000 -0.000000 0.000000 
0.000000 0.000000 0.000000 

-0.000000 0.000000 0.000000 
0.000000 -0.000000 0.000000 
0.000000 0.000000 0.000000 

0.000000 -0.000000 0.000000 
0.000000 -0.000000 0.000000 
0.000000 0.000000 0.000000 

0.000000 -0.000000 0.000000 
0.000000 -0.000000 0.000000 
0.000000 0.000000 0.000000 

0.000000 -0.000000 0.000000 
0.000000 -0.000000 0.000000 
0.000000 0.000000 0.000000 

0.000000 -0.000000 0.000000 
0.000000 -0.000000 0.000000 
0.000000 0.000000 0.000000 

0.000000 0.000000 0.000000 
0.000000 -0.000000 0.000000 
0.000000 0.000000 0.000000 

0.000000 0.000000 0.000000 
0.000000 -0.000000 0.000000 
0.000000 0.000000 0.000000 

-0.000000 -0.000000 0.000000 
0.000000 0.000000 0.000000 
0.000000 0.000000 0.000000 

0.000000 0.000000 0.000000 
0.000000 -0.000000 0.000000 
0.000000 0.000000 0.000000 

-0.000000 0.000000 0.000000 
0.000000 -0.000000 0.000000 
0.000000 0.000000 0.000000 

0.000000 -0.000000 0.000000 
0.000000 -0.000000 0.000000 
0.000000 0.000000 0.000000 

0.000000 0.000000 0.000000 
0.000000 -0.000000 0.000000 
0.000000 0.000000 0.000000 

-0.000000 0.000000 0.000000 
0.000000 0.000000 0.000000 
0.000000 0.000000 0.000000 

-0.000000 0.000000 0.000000 
0.000000 0.000000 0.000000 
0.000000 0.000000 0.000000 

-0.000000 -0.000000 0.000000 
0.000000 0.000000 0.000000 
0.000000 0.000000 0.000000 

0.000000 0.000000 0.000000 
0.000000 -0.000000 0.000000 
0.000000 0.000000 0.000000 

-0.000000 0.000000 0.000000 
0.000000 -0.000000 0.000000 
0.000000 0.000000 0.000000 

0.000000 0.000000 0.000000 
0.000000 0.000000 0.000000 
0.000000 0.000000 0.000000 

0.000000 0.000000 0.000000 
0.000000 -0.000000 0.000000 
0.000000 0.000000 0.000000 

0.000000 0.000000 0.000000 
0.000000 0.000000 0.000000 
0.000000 0.000000 0.000000 

0.000000 -0.000000 0.000000 
0.000000 -0.000000 0.000000 
0.000000 0.000000 0.000000 

0.000000 -0.000000 0.000000 
0.000000 -0.000000 0.000000 
0.000000 0.000000 0.000000 

-0.000000 -0.000000 0.000000 
0.000000 0.000000 0.000000 
0.000000 0.000000 0.000000 

-0.000000 -0.000000 0.000000 
0.000000 -0.000000 0.000000 
0.000000 0.000000 0.000000 

-0.000000 -0.000000 0.000000 
0.000000 0.000000 0.000000 
0.000000 0.000000 0.000000 

-0.000000 0.000000 0.000000 
0.000000 0.000000 0.000000 
0.000000 0.000000 0.000000 

-0.000000 -0.000000 0.000000 
0.000000 0.000000 0.000000 
0.000000 0.000000 0.000000 

0.000000 0.000000 0.000000 
0.000000 -0.000000 0.000000 
0.000000 0.000000 0.000000 

-0.000000 0.000000 0.000000 
0.000000 0.000000 0.000000 
0.000000 0.000000 0.000000 

-0.000000 0.000000 0.000000 
0.000000 -0.000000 0.000000 
0.000000 0.000000 0.000000 

0.000000 -0.000000 0.000000 
0.000000 -0.000000 0.000000 
0.000000 0.000000 0.000000 

0.000000 -0.000000 0.000000 
0.000000 -0.000000 0.000000 
0.000000 0.000000 0.000000 

0.000000 0.000000 0.000000 
0.000000 -0.000000 0.000000 
0.000000 0.000000 0.000000 

0.000000 0.000000 0.000000 
0.000000 -0.000000 0.000000 
0.000000 0.000000 0.000000 

-0.000000 0.000000 0.000000 
0.000000 -0.000000 0.000000 
0.000000 0.000000 0.000000 

-0.000000 0.000000 0.000000 
0.000000 0.000000 0.000000 
0.000000 0.000000 0.000000 

-0.000000 0.000000 0.000000 
0.000000 -0.000000 0.000000 
0.000000 0.000000 0.000000 

-0.000000 -0.000000 0.000000 
0.000000 -0.000000 0.000000 
0.000000 0.000000 0.000000 

0.000000 -0.000000 0.000000 
0.000000 -0.000000 0.000000 
0.000000 0.000000 0.000000 

0.000000 0.000000 0.000000 
0.000000 -0.000000 0.000000 
0.000000 0.000000 0.000000 

0.000000 -0.000000 0.000000 
0.000000 -0.000000 0.000000 
0.000000 0.000000 0.000000 

0.000000 -0.000000 0.000000 
0.000000 -0.000000 0.000000 
0.000000 0.000000 0.000000 

0.000000 0.000000 0.000000 
0.000000 -0.000000 0.000000 
0.000000 0.000000 0.000000 

0.000000 0.000000 0.000000 
0.000000 -0.000000 0.000000 
0.000000 0.000000 0.000000 

0.000000 0.000000 0.000000 
0.000000 -0.000000 0.000000 
0.000000 0.000000 0.000000 

0.000000 -0.000000 0.000000 
0.000000 0.000000 0.000000 
0.000000 0.000000 0.000000 

0.000000 -0.000000 0.000000 
0.000000 -0.000000 0.000000 
0.000000 0.000000 0.000000 

0.000000 0.000000 0.000000 
0.000000 0.000000 0.000000 
0.000000 0.000000 0.000000 

0.000000 0.000000 0.000000 
0.000000 -0.000000 0.000000 
0.000000 0.000000 0.000000 

-0.000000 -0.000000 0.000000 
0.000000 0.000000 0.000000 
0.000000 0.000000 0.000000 

0.000000 0.000000 0.000000 
0.000000 0.000000 0.000000 
0.000000 0.000000 0.000000 

0.000000 -0.000000 0.000000 
0.000000 0.000000 0.000000 
0.000000 0.000000 0.000000 

-0.000000 -0.000000 0.000000 
0.000000 0.000000 0.000000 
0.000000 0.000000 0.000000 

-0.000000 0.000000 0.000000 
0.000000 0.000000 0.000000 
0.000000 0.000000 0.000000 

-0.000000 0.000000 0.000000 
0.000000 0.000000 0.000000 
0.000000 0.000000 0.000000 

0.000000 0.000000 0.000000 
0.000000 -0.000000 0.000000 
0.000000 0.000000 0.000000 

0.000000 0.000000 0.000000 
0.000000 -0.000000 0.000000 
0.000000 0.000000 0.000000 

0.000000 -0.000000 0.000000 
0.000000 -0.000000 0.000000 
0.000000 0.000000 0.000000 

-0.000000 0.000000 0.000000 
0.000000 -0.000000 0.000000 
0.000000 0.000000 0.000000 

0.000000 0.000000 0.000000 
0.000000 -0.000000 0.000000 
0.000000 0.000000 0.000000 

-0.000000 0.000000 0.000000 
0.000000 0.000000 0.000000 
0.000000 0.000000 0.000000 

0.000000 -0.000000 0.000000 
0.000000 0.000000 0.000000 
0.000000 0.000000 0.000000 

-0.000000 0.000000 0.000000 
0.000000 0.000000 0.000000 
0.000000 0.000000 0.000000 

-0.000000 0.000000 0.000000 
0.000000 -0.000000 0.000000 
0.000000 0.000000 0.000000 

0.000000 -0.000000 0.000000 
0.000000 -0.000000 0.000000 
0.000000 0.000000 0.000000 

0.000000 0.000000 0.000000 
0.000000 -0.000000 0.000000 
0.000000 0.000000 0.000000 

0.000000 -0.000000 0.000000 
0.000000 -0.000000 0.000000 
0.000000 0.000000 0.000000 

0.000000 0.000000 0.000000 
0.000000 -0.000000 0.000000 
0.000000 0.000000 0.000000 

0.000000 -0.000000 0.000000 
0.000000 0.000000 0.000000 
0.000000 0.000000 0.000000 

0.000000 -0.000000 0.000000 
0.000000 -0.000000 0.000000 
0.000000 0.000000 0.000000 

0.000000 -0.000000 0.000000 
0.000000 0.000000 0.000000 
0.000000 0.000000 0.000000 

