# vtk DataFile Version 3.0 
vtk output 
ASCII 
DATASET UNSTRUCTURED_GRID 
POINTS 175 float 
-0.026061 -0.208300 0.000000 
-0.106992 -0.140244 0.000000 
-0.054870 -0.148477 0.000000 
-0.028809 -0.102593 0.000000 
-0.186430 -0.076169 0.000000 
-0.137056 -0.078695 0.000000 
-0.114311 -0.025048 0.000000 
-0.058186 -0.040713 0.000000 
-0.029377 -0.000536 0.000000 
-0.265318 -0.013013 0.000000 
-0.217198 -0.013813 0.000000 
-0.196633 0.043484 0.000000 
-0.143120 0.034775 0.000000 
-0.116563 0.082044 0.000000 
-0.058945 0.062398 0.000000 
-0.029568 0.100518 0.000000 
-0.344206 0.050143 0.000000 
-0.296791 0.050150 0.000000 
-0.278030 0.110093 0.000000 
-0.225992 0.104227 0.000000 
-0.201664 0.156344 0.000000 
-0.145749 0.142870 0.000000 
-0.117890 0.187212 0.000000 
-0.059328 0.164506 0.000000 
-0.029759 0.201572 0.000000 
-0.058559 -0.249050 0.000000 
-0.162226 -0.269893 0.000000 
-0.123292 -0.234275 0.000000 
-0.142917 -0.185292 0.000000 
-0.261851 -0.292049 0.000000 
-0.229092 -0.255022 0.000000 
-0.256854 -0.203791 0.000000 
-0.209613 -0.169678 0.000000 
-0.223062 -0.122104 0.000000 
-0.360414 -0.314350 0.000000 
-0.329787 -0.277227 0.000000 
-0.361761 -0.225425 0.000000 
-0.321587 -0.189016 0.000000 
-0.341985 -0.138782 0.000000 
-0.290702 -0.105983 0.000000 
-0.302189 -0.059248 0.000000 
-0.458977 -0.336650 0.000000 
-0.429420 -0.299575 0.000000 
-0.464588 -0.247533 0.000000 
-0.427556 -0.210506 0.000000 
-0.453135 -0.158991 0.000000 
-0.407738 -0.123676 0.000000 
-0.425037 -0.074248 0.000000 
-0.370772 -0.042618 0.000000 
-0.381315 0.003609 0.000000 
-0.046960 -0.299866 0.000000 
-0.095301 -0.393911 0.000000 
-0.098873 -0.341264 0.000000 
-0.149405 -0.326067 0.000000 
-0.140093 -0.485615 0.000000 
-0.148617 -0.436917 0.000000 
-0.205981 -0.426680 0.000000 
-0.203197 -0.368477 0.000000 
-0.248777 -0.349330 0.000000 
-0.184111 -0.576579 0.000000 
-0.194039 -0.529488 0.000000 
-0.254475 -0.522188 0.000000 
-0.257893 -0.468079 0.000000 
-0.309886 -0.452706 0.000000 
-0.303554 -0.392161 0.000000 
-0.347255 -0.372003 0.000000 
-0.228129 -0.667543 0.000000 
-0.238687 -0.621318 0.000000 
-0.301302 -0.616366 0.000000 
-0.307162 -0.564327 0.000000 
-0.363386 -0.552207 0.000000 
-0.362692 -0.494695 0.000000 
-0.412122 -0.477402 0.000000 
-0.403017 -0.415255 0.000000 
-0.445733 -0.394676 0.000000 
-0.000000 -0.322481 0.000000 
0.043388 -0.418911 0.000000 
-0.000000 -0.388879 0.000000 
-0.043388 -0.418911 0.000000 
0.087158 -0.511108 0.000000 
0.043769 -0.487409 0.000000 
-0.000000 -0.525875 0.000000 
-0.043769 -0.487409 0.000000 
-0.087158 -0.511108 0.000000 
0.130831 -0.602237 0.000000 
0.087824 -0.580639 0.000000 
0.044436 -0.623338 0.000000 
-0.000000 -0.592273 0.000000 
-0.044436 -0.623338 0.000000 
-0.087824 -0.580639 0.000000 
-0.130831 -0.602237 0.000000 
0.174505 -0.693367 0.000000 
0.131782 -0.672801 0.000000 
0.088871 -0.718668 0.000000 
0.044532 -0.690804 0.000000 
-0.000000 -0.727204 0.000000 
-0.044532 -0.690804 0.000000 
-0.088871 -0.718668 0.000000 
-0.131782 -0.672801 0.000000 
-0.174505 -0.693367 0.000000 
0.046960 -0.299866 0.000000 
0.149405 -0.326067 0.000000 
0.098873 -0.341264 0.000000 
0.095301 -0.393911 0.000000 
0.248777 -0.349330 0.000000 
0.203197 -0.368477 0.000000 
0.205981 -0.426680 0.000000 
0.148617 -0.436917 0.000000 
0.140093 -0.485615 0.000000 
0.347255 -0.372003 0.000000 
0.303554 -0.392161 0.000000 
0.309886 -0.452706 0.000000 
0.257893 -0.468079 0.000000 
0.254475 -0.522188 0.000000 
0.194039 -0.529488 0.000000 
0.184111 -0.576579 0.000000 
0.445733 -0.394676 0.000000 
0.403017 -0.415255 0.000000 
0.412122 -0.477402 0.000000 
0.362692 -0.494695 0.000000 
0.363386 -0.552207 0.000000 
0.307162 -0.564327 0.000000 
0.301302 -0.616366 0.000000 
0.238687 -0.621318 0.000000 
0.228129 -0.667543 0.000000 
0.058559 -0.249050 0.000000 
0.142917 -0.185292 0.000000 
0.123292 -0.234275 0.000000 
0.162226 -0.269893 0.000000 
0.223062 -0.122104 0.000000 
0.209613 -0.169678 0.000000 
0.256854 -0.203791 0.000000 
0.229092 -0.255022 0.000000 
0.261851 -0.292049 0.000000 
0.302189 -0.059248 0.000000 
0.290702 -0.105983 0.000000 
0.341985 -0.138782 0.000000 
0.321587 -0.189016 0.000000 
0.361761 -0.225425 0.000000 
0.329787 -0.277227 0.000000 
0.360414 -0.314350 0.000000 
0.381315 0.003609 0.000000 
0.370772 -0.042618 0.000000 
0.425037 -0.074248 0.000000 
0.407738 -0.123676 0.000000 
0.453135 -0.158991 0.000000 
0.427556 -0.210506 0.000000 
0.464588 -0.247533 0.000000 
0.429420 -0.299575 0.000000 
0.458977 -0.336650 0.000000 
0.026061 -0.208300 0.000000 
0.028809 -0.102593 0.000000 
0.054870 -0.148477 0.000000 
0.106992 -0.140244 0.000000 
0.029377 -0.000536 0.000000 
0.058186 -0.040713 0.000000 
0.114311 -0.025048 0.000000 
0.137056 -0.078695 0.000000 
0.186430 -0.076169 0.000000 
0.029568 0.100518 0.000000 
0.058945 0.062398 0.000000 
0.116563 0.082044 0.000000 
0.143120 0.034775 0.000000 
0.196633 0.043484 0.000000 
0.217198 -0.013813 0.000000 
0.265318 -0.013013 0.000000 
0.029759 0.201572 0.000000 
0.059328 0.164506 0.000000 
0.117890 0.187212 0.000000 
0.145749 0.142870 0.000000 
0.201664 0.156344 0.000000 
0.225992 0.104227 0.000000 
0.278030 0.110093 0.000000 
0.296791 0.050150 0.000000 
0.344206 0.050143 0.000000 
CELLS 175 350 
1 0 
1 1 
1 2 
1 3 
1 4 
1 5 
1 6 
1 7 
1 8 
1 9 
1 10 
1 11 
1 12 
1 13 
1 14 
1 15 
1 16 
1 17 
1 18 
1 19 
1 20 
1 21 
1 22 
1 23 
1 24 
1 25 
1 26 
1 27 
1 28 
1 29 
1 30 
1 31 
1 32 
1 33 
1 34 
1 35 
1 36 
1 37 
1 38 
1 39 
1 40 
1 41 
1 42 
1 43 
1 44 
1 45 
1 46 
1 47 
1 48 
1 49 
1 50 
1 51 
1 52 
1 53 
1 54 
1 55 
1 56 
1 57 
1 58 
1 59 
1 60 
1 61 
1 62 
1 63 
1 64 
1 65 
1 66 
1 67 
1 68 
1 69 
1 70 
1 71 
1 72 
1 73 
1 74 
1 75 
1 76 
1 77 
1 78 
1 79 
1 80 
1 81 
1 82 
1 83 
1 84 
1 85 
1 86 
1 87 
1 88 
1 89 
1 90 
1 91 
1 92 
1 93 
1 94 
1 95 
1 96 
1 97 
1 98 
1 99 
1 100 
1 101 
1 102 
1 103 
1 104 
1 105 
1 106 
1 107 
1 108 
1 109 
1 110 
1 111 
1 112 
1 113 
1 114 
1 115 
1 116 
1 117 
1 118 
1 119 
1 120 
1 121 
1 122 
1 123 
1 124 
1 125 
1 126 
1 127 
1 128 
1 129 
1 130 
1 131 
1 132 
1 133 
1 134 
1 135 
1 136 
1 137 
1 138 
1 139 
1 140 
1 141 
1 142 
1 143 
1 144 
1 145 
1 146 
1 147 
1 148 
1 149 
1 150 
1 151 
1 152 
1 153 
1 154 
1 155 
1 156 
1 157 
1 158 
1 159 
1 160 
1 161 
1 162 
1 163 
1 164 
1 165 
1 166 
1 167 
1 168 
1 169 
1 170 
1 171 
1 172 
1 173 
1 174 
CELL_TYPES 175 
1 
1 
1 
1 
1 
1 
1 
1 
1 
1 
1 
1 
1 
1 
1 
1 
1 
1 
1 
1 
1 
1 
1 
1 
1 
1 
1 
1 
1 
1 
1 
1 
1 
1 
1 
1 
1 
1 
1 
1 
1 
1 
1 
1 
1 
1 
1 
1 
1 
1 
1 
1 
1 
1 
1 
1 
1 
1 
1 
1 
1 
1 
1 
1 
1 
1 
1 
1 
1 
1 
1 
1 
1 
1 
1 
1 
1 
1 
1 
1 
1 
1 
1 
1 
1 
1 
1 
1 
1 
1 
1 
1 
1 
1 
1 
1 
1 
1 
1 
1 
1 
1 
1 
1 
1 
1 
1 
1 
1 
1 
1 
1 
1 
1 
1 
1 
1 
1 
1 
1 
1 
1 
1 
1 
1 
1 
1 
1 
1 
1 
1 
1 
1 
1 
1 
1 
1 
1 
1 
1 
1 
1 
1 
1 
1 
1 
1 
1 
1 
1 
1 
1 
1 
1 
1 
1 
1 
1 
1 
1 
1 
1 
1 
1 
1 
1 
1 
1 
1 
1 
1 
1 
1 
1 
1 
POINT_DATA 175 
VECTORS X_GC float 
-0.026061 -0.208300 0.000000 
-0.106992 -0.140244 0.000000 
-0.054870 -0.148477 0.000000 
-0.028809 -0.102593 0.000000 
-0.186430 -0.076169 0.000000 
-0.137056 -0.078695 0.000000 
-0.114311 -0.025048 0.000000 
-0.058186 -0.040713 0.000000 
-0.029377 -0.000536 0.000000 
-0.265318 -0.013013 0.000000 
-0.217198 -0.013813 0.000000 
-0.196633 0.043484 0.000000 
-0.143120 0.034775 0.000000 
-0.116563 0.082044 0.000000 
-0.058945 0.062398 0.000000 
-0.029568 0.100518 0.000000 
-0.344206 0.050143 0.000000 
-0.296791 0.050150 0.000000 
-0.278030 0.110093 0.000000 
-0.225992 0.104227 0.000000 
-0.201664 0.156344 0.000000 
-0.145749 0.142870 0.000000 
-0.117890 0.187212 0.000000 
-0.059328 0.164506 0.000000 
-0.029759 0.201572 0.000000 
-0.058559 -0.249050 0.000000 
-0.162226 -0.269893 0.000000 
-0.123292 -0.234275 0.000000 
-0.142917 -0.185292 0.000000 
-0.261851 -0.292049 0.000000 
-0.229092 -0.255022 0.000000 
-0.256854 -0.203791 0.000000 
-0.209613 -0.169678 0.000000 
-0.223062 -0.122104 0.000000 
-0.360414 -0.314350 0.000000 
-0.329787 -0.277227 0.000000 
-0.361761 -0.225425 0.000000 
-0.321587 -0.189016 0.000000 
-0.341985 -0.138782 0.000000 
-0.290702 -0.105983 0.000000 
-0.302189 -0.059248 0.000000 
-0.458977 -0.336650 0.000000 
-0.429420 -0.299575 0.000000 
-0.464588 -0.247533 0.000000 
-0.427556 -0.210506 0.000000 
-0.453135 -0.158991 0.000000 
-0.407738 -0.123676 0.000000 
-0.425037 -0.074248 0.000000 
-0.370772 -0.042618 0.000000 
-0.381315 0.003609 0.000000 
-0.046960 -0.299866 0.000000 
-0.095301 -0.393911 0.000000 
-0.098873 -0.341264 0.000000 
-0.149405 -0.326067 0.000000 
-0.140093 -0.485615 0.000000 
-0.148617 -0.436917 0.000000 
-0.205981 -0.426680 0.000000 
-0.203197 -0.368477 0.000000 
-0.248777 -0.349330 0.000000 
-0.184111 -0.576579 0.000000 
-0.194039 -0.529488 0.000000 
-0.254475 -0.522188 0.000000 
-0.257893 -0.468079 0.000000 
-0.309886 -0.452706 0.000000 
-0.303554 -0.392161 0.000000 
-0.347255 -0.372003 0.000000 
-0.228129 -0.667543 0.000000 
-0.238687 -0.621318 0.000000 
-0.301302 -0.616366 0.000000 
-0.307162 -0.564327 0.000000 
-0.363386 -0.552207 0.000000 
-0.362692 -0.494695 0.000000 
-0.412122 -0.477402 0.000000 
-0.403017 -0.415255 0.000000 
-0.445733 -0.394676 0.000000 
-0.000000 -0.322481 0.000000 
0.043388 -0.418911 0.000000 
-0.000000 -0.388879 0.000000 
-0.043388 -0.418911 0.000000 
0.087158 -0.511108 0.000000 
0.043769 -0.487409 0.000000 
-0.000000 -0.525875 0.000000 
-0.043769 -0.487409 0.000000 
-0.087158 -0.511108 0.000000 
0.130831 -0.602237 0.000000 
0.087824 -0.580639 0.000000 
0.044436 -0.623338 0.000000 
-0.000000 -0.592273 0.000000 
-0.044436 -0.623338 0.000000 
-0.087824 -0.580639 0.000000 
-0.130831 -0.602237 0.000000 
0.174505 -0.693367 0.000000 
0.131782 -0.672801 0.000000 
0.088871 -0.718668 0.000000 
0.044532 -0.690804 0.000000 
-0.000000 -0.727204 0.000000 
-0.044532 -0.690804 0.000000 
-0.088871 -0.718668 0.000000 
-0.131782 -0.672801 0.000000 
-0.174505 -0.693367 0.000000 
0.046960 -0.299866 0.000000 
0.149405 -0.326067 0.000000 
0.098873 -0.341264 0.000000 
0.095301 -0.393911 0.000000 
0.248777 -0.349330 0.000000 
0.203197 -0.368477 0.000000 
0.205981 -0.426680 0.000000 
0.148617 -0.436917 0.000000 
0.140093 -0.485615 0.000000 
0.347255 -0.372003 0.000000 
0.303554 -0.392161 0.000000 
0.309886 -0.452706 0.000000 
0.257893 -0.468079 0.000000 
0.254475 -0.522188 0.000000 
0.194039 -0.529488 0.000000 
0.184111 -0.576579 0.000000 
0.445733 -0.394676 0.000000 
0.403017 -0.415255 0.000000 
0.412122 -0.477402 0.000000 
0.362692 -0.494695 0.000000 
0.363386 -0.552207 0.000000 
0.307162 -0.564327 0.000000 
0.301302 -0.616366 0.000000 
0.238687 -0.621318 0.000000 
0.228129 -0.667543 0.000000 
0.058559 -0.249050 0.000000 
0.142917 -0.185292 0.000000 
0.123292 -0.234275 0.000000 
0.162226 -0.269893 0.000000 
0.223062 -0.122104 0.000000 
0.209613 -0.169678 0.000000 
0.256854 -0.203791 0.000000 
0.229092 -0.255022 0.000000 
0.261851 -0.292049 0.000000 
0.302189 -0.059248 0.000000 
0.290702 -0.105983 0.000000 
0.341985 -0.138782 0.000000 
0.321587 -0.189016 0.000000 
0.361761 -0.225425 0.000000 
0.329787 -0.277227 0.000000 
0.360414 -0.314350 0.000000 
0.381315 0.003609 0.000000 
0.370772 -0.042618 0.000000 
0.425037 -0.074248 0.000000 
0.407738 -0.123676 0.000000 
0.453135 -0.158991 0.000000 
0.427556 -0.210506 0.000000 
0.464588 -0.247533 0.000000 
0.429420 -0.299575 0.000000 
0.458977 -0.336650 0.000000 
0.026061 -0.208300 0.000000 
0.028809 -0.102593 0.000000 
0.054870 -0.148477 0.000000 
0.106992 -0.140244 0.000000 
0.029377 -0.000536 0.000000 
0.058186 -0.040713 0.000000 
0.114311 -0.025048 0.000000 
0.137056 -0.078695 0.000000 
0.186430 -0.076169 0.000000 
0.029568 0.100518 0.000000 
0.058945 0.062398 0.000000 
0.116563 0.082044 0.000000 
0.143120 0.034775 0.000000 
0.196633 0.043484 0.000000 
0.217198 -0.013813 0.000000 
0.265318 -0.013013 0.000000 
0.029759 0.201572 0.000000 
0.059328 0.164506 0.000000 
0.117890 0.187212 0.000000 
0.145749 0.142870 0.000000 
0.201664 0.156344 0.000000 
0.225992 0.104227 0.000000 
0.278030 0.110093 0.000000 
0.296791 0.050150 0.000000 
0.344206 0.050143 0.000000 
VECTORS X_EC float 
0.338794 -0.687955 0.000000 
-0.609100 0.393296 0.000000 
0.713312 0.504437 0.000000 
0.374519 -0.114993 0.000000 
0.423588 -0.471723 0.000000 
-0.218274 -0.437619 0.000000 
-0.513962 0.838142 0.000000 
0.756418 -0.950372 0.000000 
0.381900 0.507235 0.000000 
-0.550868 0.675674 0.000000 
0.823577 0.686469 0.000000 
0.556234 -0.087035 0.000000 
-0.139443 0.030534 0.000000 
-0.484677 -0.607591 0.000000 
0.766286 -0.342375 0.000000 
0.384386 -0.856996 0.000000 
0.474677 -0.176929 0.000000 
-0.141715 -0.177026 0.000000 
-0.385608 -0.986254 0.000000 
0.937896 -0.907058 0.000000 
0.621631 0.389362 0.000000 
-0.105264 0.571261 0.000000 
-0.467428 -0.027366 0.000000 
0.771260 0.279163 0.000000 
0.386873 -0.221227 0.000000 
0.761262 -0.137821 0.000000 
0.108942 0.143556 0.000000 
-0.397202 -0.337284 0.000000 
-0.142083 -0.998559 0.000000 
-0.595936 0.442666 0.000000 
0.978194 -0.057199 0.000000 
-0.660903 -0.748825 0.000000 
0.724964 0.790655 0.000000 
0.899809 0.148407 0.000000 
0.685384 0.743719 0.000000 
0.287229 0.242560 0.000000 
0.702895 -0.456768 0.000000 
0.180633 -0.948287 0.000000 
0.445811 0.373553 0.000000 
-0.220880 -0.069233 0.000000 
-0.071546 -0.700158 0.000000 
-0.033296 -0.955229 0.000000 
-0.417537 0.544261 0.000000 
0.039645 -0.158301 0.000000 
-0.441768 -0.658172 0.000000 
-0.109248 0.646377 0.000000 
-0.699407 0.169621 0.000000 
-0.474522 -0.497658 0.000000 
0.820030 -0.924651 0.000000 
0.957100 0.451277 0.000000 
0.610485 0.548185 0.000000 
-0.761092 -0.182195 0.000000 
-0.714655 -0.892933 0.000000 
-0.057734 0.901900 0.000000 
-0.178789 -0.944191 0.000000 
-0.067979 0.398383 0.000000 
0.677748 0.260179 0.000000 
0.641556 -0.525566 0.000000 
-0.765897 -0.784044 0.000000 
0.393446 0.283818 0.000000 
0.522510 -0.351912 0.000000 
-0.691820 -0.450456 0.000000 
-0.647393 0.819061 0.000000 
0.028512 0.611535 0.000000 
-0.053800 -0.205826 0.000000 
0.514316 -0.477957 0.000000 
0.965681 -0.488173 0.000000 
-0.897068 0.887798 0.000000 
-0.083078 0.820945 0.000000 
-0.006893 0.118421 0.000000 
0.724017 -0.045212 0.000000 
0.714996 -0.821616 0.000000 
-0.642413 0.944927 0.000000 
-0.760780 0.105946 0.000000 
-0.205471 -0.171869 0.000000 
0.000000 0.853487 0.000000 
-0.564049 0.155300 0.000000 
0.000000 -0.250136 0.000000 
0.564049 0.155300 0.000000 
0.866949 -0.600045 0.000000 
-0.569003 -0.919976 0.000000 
0.000000 -0.400688 0.000000 
0.569003 -0.919976 0.000000 
-0.866949 -0.600045 0.000000 
0.299194 0.630205 0.000000 
0.858290 0.338621 0.000000 
-0.577662 0.915067 0.000000 
0.000000 0.495689 0.000000 
0.577662 0.915067 0.000000 
-0.858290 0.338621 0.000000 
-0.299194 0.630205 0.000000 
-0.268560 -0.139545 0.000000 
0.286830 -0.417186 0.000000 
0.844677 0.202012 0.000000 
-0.578910 -0.174151 0.000000 
0.000000 0.317253 0.000000 
0.578910 -0.174151 0.000000 
-0.844677 0.202012 0.000000 
-0.286830 -0.417186 0.000000 
0.268560 -0.139545 0.000000 
-0.610485 0.548185 0.000000 
0.057734 0.901900 0.000000 
0.714655 -0.892933 0.000000 
0.761092 -0.182195 0.000000 
0.765897 -0.784044 0.000000 
-0.641556 -0.525566 0.000000 
-0.677748 0.260179 0.000000 
0.067979 0.398383 0.000000 
0.178789 -0.944191 0.000000 
-0.514316 -0.477957 0.000000 
0.053800 -0.205826 0.000000 
-0.028512 0.611535 0.000000 
0.647393 0.819061 0.000000 
0.691820 -0.450456 0.000000 
-0.522510 -0.351912 0.000000 
-0.393446 0.283818 0.000000 
0.205471 -0.171869 0.000000 
0.760780 0.105947 0.000000 
0.642413 0.944927 0.000000 
-0.714996 -0.821616 0.000000 
-0.724017 -0.045212 0.000000 
0.006894 0.118421 0.000000 
0.083078 0.820945 0.000000 
0.897068 0.887798 0.000000 
-0.965681 -0.488173 0.000000 
-0.761262 -0.137821 0.000000 
0.142083 -0.998559 0.000000 
0.397202 -0.337284 0.000000 
-0.108942 0.143556 0.000000 
-0.899809 0.148407 0.000000 
-0.724964 0.790655 0.000000 
0.660903 -0.748825 0.000000 
-0.978194 -0.057199 0.000000 
0.595936 0.442666 0.000000 
0.071546 -0.700158 0.000000 
0.220880 -0.069233 0.000000 
-0.445811 0.373553 0.000000 
-0.180633 -0.948287 0.000000 
-0.702895 -0.456768 0.000000 
-0.287229 0.242560 0.000000 
-0.685384 0.743719 0.000000 
-0.957100 0.451277 0.000000 
-0.820030 -0.924651 0.000000 
0.474522 -0.497658 0.000000 
0.699407 0.169621 0.000000 
0.109248 0.646377 0.000000 
0.441768 -0.658172 0.000000 
-0.039645 -0.158301 0.000000 
0.417537 0.544261 0.000000 
0.033296 -0.955229 0.000000 
-0.338794 -0.687955 0.000000 
-0.374519 -0.114993 0.000000 
-0.713312 0.504437 0.000000 
0.609100 0.393296 0.000000 
-0.381900 0.507235 0.000000 
-0.756418 -0.950372 0.000000 
0.513962 0.838142 0.000000 
0.218274 -0.437619 0.000000 
-0.423588 -0.471723 0.000000 
-0.384386 -0.856996 0.000000 
-0.766286 -0.342375 0.000000 
0.484677 -0.607591 0.000000 
0.139443 0.030534 0.000000 
-0.556234 -0.087035 0.000000 
-0.823577 0.686469 0.000000 
0.550868 0.675674 0.000000 
-0.386873 -0.221227 0.000000 
-0.771260 0.279163 0.000000 
0.467428 -0.027366 0.000000 
0.105264 0.571261 0.000000 
-0.621631 0.389362 0.000000 
-0.937896 -0.907058 0.000000 
0.385608 -0.986254 0.000000 
0.141715 -0.177026 0.000000 
-0.474677 -0.176929 0.000000 
CELL_DATA 175 
SCALARS MASS float 
LOOKUP_TABLE default 
0.781831 
0.864274 
0.946717 
0.864274 
0.881307 
0.921110 
0.858535 
0.921110 
0.881307 
0.887046 
0.910001 
0.869829 
0.915556 
0.869829 
0.910001 
0.887046 
0.892784 
0.915740 
0.892784 
0.927218 
0.892784 
0.927218 
0.892784 
0.915740 
0.892784 
0.781831 
0.864274 
0.946717 
0.864274 
0.881307 
0.921110 
0.858535 
0.921110 
0.881307 
0.887046 
0.910001 
0.869829 
0.915556 
0.869829 
0.910001 
0.887046 
0.892784 
0.915740 
0.892784 
0.927218 
0.892784 
0.927218 
0.892784 
0.915740 
0.892784 
0.781831 
0.864274 
0.946717 
0.864274 
0.881307 
0.921110 
0.858535 
0.921110 
0.881307 
0.887046 
0.910001 
0.869829 
0.915556 
0.869829 
0.910001 
0.887046 
0.892784 
0.915740 
0.892784 
0.927218 
0.892784 
0.927218 
0.892784 
0.915740 
0.892784 
0.781831 
0.864274 
0.946717 
0.864274 
0.881307 
0.921110 
0.858535 
0.921110 
0.881307 
0.887046 
0.910001 
0.869829 
0.915556 
0.869829 
0.910001 
0.887046 
0.892784 
0.915740 
0.892784 
0.927218 
0.892784 
0.927218 
0.892784 
0.915740 
0.892784 
0.781831 
0.864274 
0.946717 
0.864274 
0.881307 
0.921110 
0.858535 
0.921110 
0.881307 
0.887046 
0.910001 
0.869829 
0.915556 
0.869829 
0.910001 
0.887046 
0.892784 
0.915740 
0.892784 
0.927218 
0.892784 
0.927218 
0.892784 
0.915740 
0.892784 
0.781831 
0.864274 
0.946717 
0.864274 
0.881307 
0.921110 
0.858535 
0.921110 
0.881307 
0.887046 
0.910001 
0.869829 
0.915556 
0.869829 
0.910001 
0.887046 
0.892784 
0.915740 
0.892784 
0.927218 
0.892784 
0.927218 
0.892784 
0.915740 
0.892784 
0.781831 
0.864274 
0.946717 
0.864274 
0.881307 
0.921110 
0.858535 
0.921110 
0.881307 
0.887046 
0.910001 
0.869829 
0.915556 
0.869829 
0.910001 
0.887046 
0.892784 
0.915740 
0.892784 
0.927218 
0.892784 
0.927218 
0.892784 
0.915740 
0.892784 
SCALARS MASS float 
LOOKUP_TABLE default 
0.781831 
0.864274 
0.946717 
0.864274 
0.881307 
0.921110 
0.858535 
0.921110 
0.881307 
0.887046 
0.910001 
0.869829 
0.915556 
0.869829 
0.910001 
0.887046 
0.892784 
0.915740 
0.892784 
0.927218 
0.892784 
0.927218 
0.892784 
0.915740 
0.892784 
0.781831 
0.864274 
0.946717 
0.864274 
0.881307 
0.921110 
0.858535 
0.921110 
0.881307 
0.887046 
0.910001 
0.869829 
0.915556 
0.869829 
0.910001 
0.887046 
0.892784 
0.915740 
0.892784 
0.927218 
0.892784 
0.927218 
0.892784 
0.915740 
0.892784 
0.781831 
0.864274 
0.946717 
0.864274 
0.881307 
0.921110 
0.858535 
0.921110 
0.881307 
0.887046 
0.910001 
0.869829 
0.915556 
0.869829 
0.910001 
0.887046 
0.892784 
0.915740 
0.892784 
0.927218 
0.892784 
0.927218 
0.892784 
0.915740 
0.892784 
0.781831 
0.864274 
0.946717 
0.864274 
0.881307 
0.921110 
0.858535 
0.921110 
0.881307 
0.887046 
0.910001 
0.869829 
0.915556 
0.869829 
0.910001 
0.887046 
0.892784 
0.915740 
0.892784 
0.927218 
0.892784 
0.927218 
0.892784 
0.915740 
0.892784 
0.781831 
0.864274 
0.946717 
0.864274 
0.881307 
0.921110 
0.858535 
0.921110 
0.881307 
0.887046 
0.910001 
0.869829 
0.915556 
0.869829 
0.910001 
0.887046 
0.892784 
0.915740 
0.892784 
0.927218 
0.892784 
0.927218 
0.892784 
0.915740 
0.892784 
0.781831 
0.864274 
0.946717 
0.864274 
0.881307 
0.921110 
0.858535 
0.921110 
0.881307 
0.887046 
0.910001 
0.869829 
0.915556 
0.869829 
0.910001 
0.887046 
0.892784 
0.915740 
0.892784 
0.927218 
0.892784 
0.927218 
0.892784 
0.915740 
0.892784 
0.781831 
0.864274 
0.946717 
0.864274 
0.881307 
0.921110 
0.858535 
0.921110 
0.881307 
0.887046 
0.910001 
0.869829 
0.915556 
0.869829 
0.910001 
0.887046 
0.892784 
0.915740 
0.892784 
0.927218 
0.892784 
0.927218 
0.892784 
0.915740 
0.892784 
SCALARS DENSITY float 
LOOKUP_TABLE default 
200.000000 
200.000000 
200.000000 
200.000000 
200.000000 
200.000000 
200.000000 
200.000000 
200.000000 
200.000000 
200.000000 
200.000000 
200.000000 
200.000000 
200.000000 
200.000000 
200.000000 
200.000000 
200.000000 
200.000000 
200.000000 
200.000000 
200.000000 
200.000000 
200.000000 
200.000000 
200.000000 
200.000000 
200.000000 
200.000000 
200.000000 
200.000000 
200.000000 
200.000000 
200.000000 
200.000000 
200.000000 
200.000000 
200.000000 
200.000000 
200.000000 
200.000000 
200.000000 
200.000000 
200.000000 
200.000000 
200.000000 
200.000000 
200.000000 
200.000000 
200.000000 
200.000000 
200.000000 
200.000000 
200.000000 
200.000000 
200.000000 
200.000000 
200.000000 
200.000000 
200.000000 
200.000000 
200.000000 
200.000000 
200.000000 
200.000000 
200.000000 
200.000000 
200.000000 
200.000000 
200.000000 
200.000000 
200.000000 
200.000000 
200.000000 
200.000000 
200.000000 
200.000000 
200.000000 
200.000000 
200.000000 
200.000000 
200.000000 
200.000000 
200.000000 
200.000000 
200.000000 
200.000000 
200.000000 
200.000000 
200.000000 
200.000000 
200.000000 
200.000000 
200.000000 
200.000000 
200.000000 
200.000000 
200.000000 
200.000000 
200.000000 
200.000000 
200.000000 
200.000000 
200.000000 
200.000000 
200.000000 
200.000000 
200.000000 
200.000000 
200.000000 
200.000000 
200.000000 
200.000000 
200.000000 
200.000000 
200.000000 
200.000000 
200.000000 
200.000000 
200.000000 
200.000000 
200.000000 
200.000000 
200.000000 
200.000000 
200.000000 
200.000000 
200.000000 
200.000000 
200.000000 
200.000000 
200.000000 
200.000000 
200.000000 
200.000000 
200.000000 
200.000000 
200.000000 
200.000000 
200.000000 
200.000000 
200.000000 
200.000000 
200.000000 
200.000000 
200.000000 
200.000000 
200.000000 
200.000000 
200.000000 
200.000000 
200.000000 
200.000000 
200.000000 
200.000000 
200.000000 
200.000000 
200.000000 
200.000000 
200.000000 
200.000000 
200.000000 
200.000000 
200.000000 
200.000000 
200.000000 
200.000000 
200.000000 
200.000000 
200.000000 
200.000000 
200.000000 
200.000000 
200.000000 
SCALARS ELEM_i float 
LOOKUP_TABLE default 
180 
208 
181 
181 
208 
208 
209 
181 
182 
236 
209 
209 
209 
209 
182 
182 
236 
236 
236 
209 
210 
210 
210 
183 
183 
180 
207 
207 
207 
234 
207 
234 
208 
208 
234 
234 
234 
234 
235 
235 
235 
260 
261 
261 
261 
262 
262 
262 
235 
236 
180 
206 
206 
207 
205 
206 
206 
206 
233 
205 
205 
232 
233 
233 
233 
233 
204 
232 
232 
232 
232 
232 
260 
260 
260 
180 
179 
179 
179 
151 
178 
178 
178 
205 
151 
151 
178 
178 
178 
205 
205 
150 
150 
150 
177 
177 
177 
204 
204 
204 
180 
153 
152 
152 
125 
152 
152 
152 
151 
125 
125 
125 
125 
124 
151 
151 
98 
98 
98 
124 
124 
124 
124 
124 
150 
180 
153 
153 
153 
154 
154 
126 
153 
126 
127 
127 
127 
126 
126 
126 
126 
128 
127 
100 
100 
100 
99 
99 
99 
98 
180 
181 
181 
154 
182 
181 
155 
154 
154 
182 
182 
155 
155 
155 
155 
128 
183 
183 
156 
156 
156 
155 
128 
128 
128 
VECTORS VELOCITY float 
0.000000 -2.268072 0.000000 
0.000000 -2.268072 0.000000 
0.000000 -2.268072 0.000000 
0.000000 -2.268072 0.000000 
0.000000 -2.268072 0.000000 
0.000000 -2.268072 0.000000 
0.000000 -2.268072 0.000000 
0.000000 -2.268072 0.000000 
0.000000 -2.268072 0.000000 
0.000000 -2.268072 0.000000 
0.000000 -2.268072 0.000000 
0.000000 -2.268072 0.000000 
0.000000 -2.268072 0.000000 
0.000000 -2.268072 0.000000 
0.000000 -2.268072 0.000000 
0.000000 -2.268072 0.000000 
0.000000 -2.268072 0.000000 
0.000000 -2.268072 0.000000 
0.000000 -2.268072 0.000000 
0.000000 -2.268072 0.000000 
0.000000 -2.268072 0.000000 
0.000000 -2.268072 0.000000 
-0.000000 -2.268072 0.000000 
-0.000000 -2.268072 0.000000 
0.000000 -2.268072 0.000000 
-0.000000 -2.268072 0.000000 
-0.000000 -2.268072 0.000000 
-0.000000 -2.268072 0.000000 
-0.000000 -2.268072 0.000000 
-0.000000 -2.268072 0.000000 
0.000000 -2.268072 0.000000 
0.000000 -2.268072 0.000000 
0.000000 -2.268072 0.000000 
0.000000 -2.268072 0.000000 
-0.000000 -2.268072 0.000000 
-0.000000 -2.268072 0.000000 
-0.000000 -2.268072 0.000000 
-0.000000 -2.268072 0.000000 
-0.000000 -2.268072 0.000000 
0.000000 -2.268072 0.000000 
0.000000 -2.268072 0.000000 
0.000000 -2.268072 0.000000 
-0.000000 -2.268072 0.000000 
-0.000000 -2.268072 0.000000 
0.000000 -2.268072 0.000000 
0.000000 -2.268072 0.000000 
0.000000 -2.268072 0.000000 
-0.000000 -2.268072 0.000000 
0.000000 -2.268072 0.000000 
0.000000 -2.268072 0.000000 
-0.000000 -2.268072 0.000000 
-0.000000 -2.268072 0.000000 
-0.000000 -2.268072 0.000000 
0.000000 -2.268072 0.000000 
-0.000000 -2.268072 0.000000 
-0.000000 -2.268072 0.000000 
-0.000000 -2.268072 0.000000 
0.000000 -2.268072 0.000000 
0.000000 -2.268072 0.000000 
-0.000000 -2.268072 0.000000 
-0.000000 -2.268072 0.000000 
-0.000000 -2.268072 0.000000 
-0.000000 -2.268072 0.000000 
-0.000000 -2.268072 0.000000 
-0.000000 -2.268072 0.000000 
-0.000000 -2.268072 0.000000 
0.000000 -2.268072 0.000000 
-0.000000 -2.268072 0.000000 
-0.000000 -2.268072 0.000000 
-0.000000 -2.268072 0.000000 
-0.000000 -2.268072 0.000000 
-0.000000 -2.268072 0.000000 
-0.000000 -2.268072 0.000000 
-0.000000 -2.268072 0.000000 
0.000000 -2.268072 0.000000 
0.000000 -2.268072 0.000000 
-0.000000 -2.268072 0.000000 
-0.000000 -2.268072 0.000000 
-0.000000 -2.268072 0.000000 
-0.000000 -2.268072 0.000000 
-0.000000 -2.268072 0.000000 
-0.000000 -2.268072 0.000000 
-0.000000 -2.268072 0.000000 
-0.000000 -2.268072 0.000000 
-0.000000 -2.268072 0.000000 
-0.000000 -2.268072 0.000000 
-0.000000 -2.268072 0.000000 
-0.000000 -2.268072 0.000000 
-0.000000 -2.268072 0.000000 
-0.000000 -2.268072 0.000000 
-0.000000 -2.268072 0.000000 
0.000000 -2.268072 0.000000 
0.000000 -2.268072 0.000000 
-0.000000 -2.268072 0.000000 
-0.000000 -2.268072 0.000000 
0.000000 -2.268072 0.000000 
-0.000000 -2.268072 0.000000 
-0.000000 -2.268072 0.000000 
-0.000000 -2.268072 0.000000 
-0.000000 -2.268072 0.000000 
0.000000 -2.268072 0.000000 
0.000000 -2.268072 0.000000 
-0.000000 -2.268072 0.000000 
-0.000000 -2.268072 0.000000 
0.000000 -2.268072 0.000000 
0.000000 -2.268072 0.000000 
-0.000000 -2.268072 0.000000 
-0.000000 -2.268072 0.000000 
-0.000000 -2.268072 0.000000 
-0.000000 -2.268072 0.000000 
-0.000000 -2.268072 0.000000 
-0.000000 -2.268072 0.000000 
-0.000000 -2.268072 0.000000 
-0.000000 -2.268072 0.000000 
-0.000000 -2.268072 0.000000 
-0.000000 -2.268072 0.000000 
0.000000 -2.268072 0.000000 
-0.000000 -2.268072 0.000000 
-0.000000 -2.268072 0.000000 
-0.000000 -2.268072 0.000000 
0.000000 -2.268072 0.000000 
0.000000 -2.268072 0.000000 
0.000000 -2.268072 0.000000 
-0.000000 -2.268072 0.000000 
0.000000 -2.268072 0.000000 
0.000000 -2.268072 0.000000 
0.000000 -2.268072 0.000000 
0.000000 -2.268072 0.000000 
0.000000 -2.268072 0.000000 
0.000000 -2.268072 0.000000 
0.000000 -2.268072 0.000000 
-0.000000 -2.268072 0.000000 
0.000000 -2.268072 0.000000 
-0.000000 -2.268072 0.000000 
-0.000000 -2.268072 0.000000 
-0.000000 -2.268072 0.000000 
-0.000000 -2.268072 0.000000 
-0.000000 -2.268072 0.000000 
-0.000000 -2.268072 0.000000 
-0.000000 -2.268072 0.000000 
-0.000000 -2.268072 0.000000 
-0.000000 -2.268072 0.000000 
-0.000000 -2.268072 0.000000 
-0.000000 -2.268072 0.000000 
-0.000000 -2.268072 0.000000 
0.000000 -2.268072 0.000000 
0.000000 -2.268072 0.000000 
0.000000 -2.268072 0.000000 
-0.000000 -2.268072 0.000000 
0.000000 -2.268072 0.000000 
0.000000 -2.268072 0.000000 
0.000000 -2.268072 0.000000 
0.000000 -2.268072 0.000000 
0.000000 -2.268072 0.000000 
0.000000 -2.268072 0.000000 
0.000000 -2.268072 0.000000 
0.000000 -2.268072 0.000000 
0.000000 -2.268072 0.000000 
0.000000 -2.268072 0.000000 
-0.000000 -2.268072 0.000000 
0.000000 -2.268072 0.000000 
0.000000 -2.268072 0.000000 
0.000000 -2.268072 0.000000 
0.000000 -2.268072 0.000000 
-0.000000 -2.268072 0.000000 
-0.000000 -2.268072 0.000000 
0.000000 -2.268072 0.000000 
0.000000 -2.268072 0.000000 
0.000000 -2.268072 0.000000 
0.000000 -2.268072 0.000000 
0.000000 -2.268072 0.000000 
0.000000 -2.268072 0.000000 
-0.000000 -2.268072 0.000000 
-0.000000 -2.268072 0.000000 
-0.000000 -2.268072 0.000000 
TENSORS STRESS float 
-0.000000 0.000000 0.000000 
0.000000 -0.000000 0.000000 
0.000000 0.000000 0.000000 

0.000000 -0.000000 0.000000 
0.000000 0.000000 0.000000 
0.000000 0.000000 0.000000 

0.000000 0.000000 0.000000 
0.000000 0.000000 0.000000 
0.000000 0.000000 0.000000 

0.000000 0.000000 0.000000 
0.000000 0.000000 0.000000 
0.000000 0.000000 0.000000 

0.000000 0.000000 0.000000 
0.000000 0.000000 0.000000 
0.000000 0.000000 0.000000 

-0.000000 0.000000 0.000000 
0.000000 -0.000000 0.000000 
0.000000 0.000000 0.000000 

0.000000 0.000000 0.000000 
0.000000 0.000000 0.000000 
0.000000 0.000000 0.000000 

0.000000 0.000000 0.000000 
0.000000 0.000000 0.000000 
0.000000 0.000000 0.000000 

-0.000000 -0.000000 0.000000 
0.000000 -0.000000 0.000000 
0.000000 0.000000 0.000000 

0.000000 -0.000000 0.000000 
0.000000 0.000000 0.000000 
0.000000 0.000000 0.000000 

0.000000 0.000000 0.000000 
0.000000 0.000000 0.000000 
0.000000 0.000000 0.000000 

-0.000000 0.000000 0.000000 
0.000000 -0.000000 0.000000 
0.000000 0.000000 0.000000 

0.000000 0.000000 0.000000 
0.000000 0.000000 0.000000 
0.000000 0.000000 0.000000 

-0.000000 0.000000 0.000000 
0.000000 -0.000000 0.000000 
0.000000 0.000000 0.000000 

-0.000000 -0.000000 0.000000 
0.000000 -0.000000 0.000000 
0.000000 0.000000 0.000000 

-0.000000 0.000000 0.000000 
0.000000 -0.000000 0.000000 
0.000000 0.000000 0.000000 

-0.000000 -0.000000 0.000000 
0.000000 -0.000000 0.000000 
0.000000 0.000000 0.000000 

0.000000 -0.000000 0.000000 
0.000000 0.000000 0.000000 
0.000000 0.000000 0.000000 

0.000000 -0.000000 0.000000 
0.000000 0.000000 0.000000 
0.000000 0.000000 0.000000 

0.000000 -0.000000 0.000000 
0.000000 0.000000 0.000000 
0.000000 0.000000 0.000000 

-0.000000 -0.000000 0.000000 
0.000000 -0.000000 0.000000 
0.000000 0.000000 0.000000 

-0.000000 -0.000000 0.000000 
0.000000 -0.000000 0.000000 
0.000000 0.000000 0.000000 

0.000000 -0.000000 0.000000 
0.000000 0.000000 0.000000 
0.000000 0.000000 0.000000 

-0.000000 0.000000 0.000000 
0.000000 0.000000 0.000000 
0.000000 0.000000 0.000000 

-0.000000 0.000000 0.000000 
0.000000 -0.000000 0.000000 
0.000000 0.000000 0.000000 

-0.000000 0.000000 0.000000 
0.000000 -0.000000 0.000000 
0.000000 0.000000 0.000000 

-0.000000 -0.000000 0.000000 
0.000000 -0.000000 0.000000 
0.000000 0.000000 0.000000 

0.000000 -0.000000 0.000000 
0.000000 0.000000 0.000000 
0.000000 0.000000 0.000000 

0.000000 -0.000000 0.000000 
0.000000 0.000000 0.000000 
0.000000 0.000000 0.000000 

-0.000000 -0.000000 0.000000 
0.000000 -0.000000 0.000000 
0.000000 0.000000 0.000000 

-0.000000 -0.000000 0.000000 
0.000000 -0.000000 0.000000 
0.000000 0.000000 0.000000 

0.000000 -0.000000 0.000000 
0.000000 0.000000 0.000000 
0.000000 0.000000 0.000000 

-0.000000 -0.000000 0.000000 
0.000000 -0.000000 0.000000 
0.000000 0.000000 0.000000 

-0.000000 -0.000000 0.000000 
0.000000 -0.000000 0.000000 
0.000000 0.000000 0.000000 

-0.000000 -0.000000 0.000000 
0.000000 -0.000000 0.000000 
0.000000 0.000000 0.000000 

0.000000 -0.000000 0.000000 
0.000000 0.000000 0.000000 
0.000000 0.000000 0.000000 

0.000000 -0.000000 0.000000 
0.000000 0.000000 0.000000 
0.000000 0.000000 0.000000 

-0.000000 -0.000000 0.000000 
0.000000 -0.000000 0.000000 
0.000000 0.000000 0.000000 

-0.000000 -0.000000 0.000000 
0.000000 -0.000000 0.000000 
0.000000 0.000000 0.000000 

-0.000000 -0.000000 0.000000 
0.000000 -0.000000 0.000000 
0.000000 0.000000 0.000000 

0.000000 -0.000000 0.000000 
0.000000 0.000000 0.000000 
0.000000 0.000000 0.000000 

-0.000000 -0.000000 0.000000 
0.000000 -0.000000 0.000000 
0.000000 0.000000 0.000000 

0.000000 -0.000000 0.000000 
0.000000 0.000000 0.000000 
0.000000 0.000000 0.000000 

0.000000 -0.000000 0.000000 
0.000000 0.000000 0.000000 
0.000000 0.000000 0.000000 

0.000000 -0.000000 0.000000 
0.000000 0.000000 0.000000 
0.000000 0.000000 0.000000 

0.000000 -0.000000 0.000000 
0.000000 0.000000 0.000000 
0.000000 0.000000 0.000000 

0.000000 -0.000000 0.000000 
0.000000 0.000000 0.000000 
0.000000 0.000000 0.000000 

-0.000000 -0.000000 0.000000 
0.000000 -0.000000 0.000000 
0.000000 0.000000 0.000000 

0.000000 -0.000000 0.000000 
0.000000 0.000000 0.000000 
0.000000 0.000000 0.000000 

-0.000000 -0.000000 0.000000 
0.000000 -0.000000 0.000000 
0.000000 0.000000 0.000000 

0.000000 0.000000 0.000000 
0.000000 0.000000 0.000000 
0.000000 0.000000 0.000000 

-0.000000 -0.000000 0.000000 
0.000000 -0.000000 0.000000 
0.000000 0.000000 0.000000 

-0.000000 -0.000000 0.000000 
0.000000 -0.000000 0.000000 
0.000000 0.000000 0.000000 

-0.000000 -0.000000 0.000000 
0.000000 -0.000000 0.000000 
0.000000 0.000000 0.000000 

0.000000 0.000000 0.000000 
0.000000 0.000000 0.000000 
0.000000 0.000000 0.000000 

0.000000 0.000000 0.000000 
0.000000 0.000000 0.000000 
0.000000 0.000000 0.000000 

0.000000 0.000000 0.000000 
0.000000 0.000000 0.000000 
0.000000 0.000000 0.000000 

-0.000000 -0.000000 0.000000 
0.000000 -0.000000 0.000000 
0.000000 0.000000 0.000000 

-0.000000 0.000000 0.000000 
0.000000 -0.000000 0.000000 
0.000000 0.000000 0.000000 

-0.000000 0.000000 0.000000 
0.000000 -0.000000 0.000000 
0.000000 0.000000 0.000000 

-0.000000 -0.000000 0.000000 
0.000000 -0.000000 0.000000 
0.000000 0.000000 0.000000 

0.000000 -0.000000 0.000000 
0.000000 0.000000 0.000000 
0.000000 0.000000 0.000000 

-0.000000 0.000000 0.000000 
0.000000 -0.000000 0.000000 
0.000000 0.000000 0.000000 

0.000000 0.000000 0.000000 
0.000000 0.000000 0.000000 
0.000000 0.000000 0.000000 

0.000000 0.000000 0.000000 
0.000000 0.000000 0.000000 
0.000000 0.000000 0.000000 

-0.000000 0.000000 0.000000 
0.000000 -0.000000 0.000000 
0.000000 0.000000 0.000000 

0.000000 0.000000 0.000000 
0.000000 0.000000 0.000000 
0.000000 0.000000 0.000000 

0.000000 -0.000000 0.000000 
0.000000 0.000000 0.000000 
0.000000 0.000000 0.000000 

0.000000 -0.000000 0.000000 
0.000000 0.000000 0.000000 
0.000000 0.000000 0.000000 

0.000000 -0.000000 0.000000 
0.000000 0.000000 0.000000 
0.000000 0.000000 0.000000 

0.000000 0.000000 0.000000 
0.000000 0.000000 0.000000 
0.000000 0.000000 0.000000 

0.000000 -0.000000 0.000000 
0.000000 0.000000 0.000000 
0.000000 0.000000 0.000000 

-0.000000 -0.000000 0.000000 
0.000000 -0.000000 0.000000 
0.000000 0.000000 0.000000 

-0.000000 0.000000 0.000000 
0.000000 -0.000000 0.000000 
0.000000 0.000000 0.000000 

-0.000000 0.000000 0.000000 
0.000000 -0.000000 0.000000 
0.000000 0.000000 0.000000 

-0.000000 0.000000 0.000000 
0.000000 -0.000000 0.000000 
0.000000 0.000000 0.000000 

0.000000 0.000000 0.000000 
0.000000 0.000000 0.000000 
0.000000 0.000000 0.000000 

-0.000000 0.000000 0.000000 
0.000000 -0.000000 0.000000 
0.000000 0.000000 0.000000 

0.000000 0.000000 0.000000 
0.000000 0.000000 0.000000 
0.000000 0.000000 0.000000 

-0.000000 0.000000 0.000000 
0.000000 -0.000000 0.000000 
0.000000 0.000000 0.000000 

-0.000000 0.000000 0.000000 
0.000000 -0.000000 0.000000 
0.000000 0.000000 0.000000 

0.000000 0.000000 0.000000 
0.000000 0.000000 0.000000 
0.000000 0.000000 0.000000 

0.000000 0.000000 0.000000 
0.000000 0.000000 0.000000 
0.000000 0.000000 0.000000 

-0.000000 0.000000 0.000000 
0.000000 -0.000000 0.000000 
0.000000 0.000000 0.000000 

-0.000000 0.000000 0.000000 
0.000000 -0.000000 0.000000 
0.000000 0.000000 0.000000 

0.000000 0.000000 0.000000 
0.000000 0.000000 0.000000 
0.000000 0.000000 0.000000 

0.000000 0.000000 0.000000 
0.000000 0.000000 0.000000 
0.000000 0.000000 0.000000 

-0.000000 0.000000 0.000000 
0.000000 0.000000 0.000000 
0.000000 0.000000 0.000000 

-0.000000 0.000000 0.000000 
0.000000 -0.000000 0.000000 
0.000000 0.000000 0.000000 

0.000000 0.000000 0.000000 
0.000000 0.000000 0.000000 
0.000000 0.000000 0.000000 

0.000000 0.000000 0.000000 
0.000000 0.000000 0.000000 
0.000000 0.000000 0.000000 

0.000000 0.000000 0.000000 
0.000000 0.000000 0.000000 
0.000000 0.000000 0.000000 

-0.000000 0.000000 0.000000 
0.000000 -0.000000 0.000000 
0.000000 0.000000 0.000000 

0.000000 -0.000000 0.000000 
0.000000 0.000000 0.000000 
0.000000 0.000000 0.000000 

-0.000000 0.000000 0.000000 
0.000000 0.000000 0.000000 
0.000000 0.000000 0.000000 

-0.000000 0.000000 0.000000 
0.000000 0.000000 0.000000 
0.000000 0.000000 0.000000 

-0.000000 0.000000 0.000000 
0.000000 -0.000000 0.000000 
0.000000 0.000000 0.000000 

0.000000 -0.000000 0.000000 
0.000000 -0.000000 0.000000 
0.000000 0.000000 0.000000 

0.000000 -0.000000 0.000000 
0.000000 0.000000 0.000000 
0.000000 0.000000 0.000000 

-0.000000 0.000000 0.000000 
0.000000 -0.000000 0.000000 
0.000000 0.000000 0.000000 

0.000000 0.000000 0.000000 
0.000000 0.000000 0.000000 
0.000000 0.000000 0.000000 

0.000000 0.000000 0.000000 
0.000000 0.000000 0.000000 
0.000000 0.000000 0.000000 

0.000000 -0.000000 0.000000 
0.000000 0.000000 0.000000 
0.000000 0.000000 0.000000 

0.000000 -0.000000 0.000000 
0.000000 0.000000 0.000000 
0.000000 0.000000 0.000000 

-0.000000 0.000000 0.000000 
0.000000 -0.000000 0.000000 
0.000000 0.000000 0.000000 

0.000000 0.000000 0.000000 
0.000000 0.000000 0.000000 
0.000000 0.000000 0.000000 

-0.000000 0.000000 0.000000 
0.000000 -0.000000 0.000000 
0.000000 0.000000 0.000000 

-0.000000 -0.000000 0.000000 
0.000000 -0.000000 0.000000 
0.000000 0.000000 0.000000 

-0.000000 -0.000000 0.000000 
0.000000 -0.000000 0.000000 
0.000000 0.000000 0.000000 

-0.000000 0.000000 0.000000 
0.000000 -0.000000 0.000000 
0.000000 0.000000 0.000000 

0.000000 0.000000 0.000000 
0.000000 0.000000 0.000000 
0.000000 0.000000 0.000000 

-0.000000 0.000000 0.000000 
0.000000 -0.000000 0.000000 
0.000000 0.000000 0.000000 

0.000000 0.000000 0.000000 
0.000000 0.000000 0.000000 
0.000000 0.000000 0.000000 

-0.000000 -0.000000 0.000000 
0.000000 -0.000000 0.000000 
0.000000 0.000000 0.000000 

-0.000000 -0.000000 0.000000 
0.000000 -0.000000 0.000000 
0.000000 0.000000 0.000000 

0.000000 0.000000 0.000000 
0.000000 0.000000 0.000000 
0.000000 0.000000 0.000000 

0.000000 -0.000000 0.000000 
0.000000 0.000000 0.000000 
0.000000 0.000000 0.000000 

0.000000 -0.000000 0.000000 
0.000000 0.000000 0.000000 
0.000000 0.000000 0.000000 

-0.000000 -0.000000 0.000000 
0.000000 -0.000000 0.000000 
0.000000 0.000000 0.000000 

0.000000 -0.000000 0.000000 
0.000000 0.000000 0.000000 
0.000000 0.000000 0.000000 

-0.000000 0.000000 0.000000 
0.000000 -0.000000 0.000000 
0.000000 0.000000 0.000000 

0.000000 0.000000 0.000000 
0.000000 0.000000 0.000000 
0.000000 0.000000 0.000000 

0.000000 -0.000000 0.000000 
0.000000 0.000000 0.000000 
0.000000 0.000000 0.000000 

0.000000 -0.000000 0.000000 
0.000000 0.000000 0.000000 
0.000000 0.000000 0.000000 

-0.000000 0.000000 0.000000 
0.000000 -0.000000 0.000000 
0.000000 0.000000 0.000000 

-0.000000 0.000000 0.000000 
0.000000 -0.000000 0.000000 
0.000000 0.000000 0.000000 

0.000000 -0.000000 0.000000 
0.000000 0.000000 0.000000 
0.000000 0.000000 0.000000 

0.000000 0.000000 0.000000 
0.000000 0.000000 0.000000 
0.000000 0.000000 0.000000 

0.000000 0.000000 0.000000 
0.000000 0.000000 0.000000 
0.000000 0.000000 0.000000 

0.000000 0.000000 0.000000 
0.000000 0.000000 0.000000 
0.000000 0.000000 0.000000 

-0.000000 -0.000000 0.000000 
0.000000 -0.000000 0.000000 
0.000000 0.000000 0.000000 

0.000000 -0.000000 0.000000 
0.000000 0.000000 0.000000 
0.000000 0.000000 0.000000 

0.000000 0.000000 0.000000 
0.000000 0.000000 0.000000 
0.000000 0.000000 0.000000 

-0.000000 -0.000000 0.000000 
0.000000 0.000000 0.000000 
0.000000 0.000000 0.000000 

-0.000000 -0.000000 0.000000 
0.000000 -0.000000 0.000000 
0.000000 0.000000 0.000000 

-0.000000 -0.000000 0.000000 
0.000000 -0.000000 0.000000 
0.000000 0.000000 0.000000 

-0.000000 -0.000000 0.000000 
0.000000 -0.000000 0.000000 
0.000000 0.000000 0.000000 

-0.000000 -0.000000 0.000000 
0.000000 0.000000 0.000000 
0.000000 0.000000 0.000000 

0.000000 -0.000000 0.000000 
0.000000 0.000000 0.000000 
0.000000 0.000000 0.000000 

0.000000 -0.000000 0.000000 
0.000000 0.000000 0.000000 
0.000000 0.000000 0.000000 

-0.000000 0.000000 0.000000 
0.000000 -0.000000 0.000000 
0.000000 0.000000 0.000000 

0.000000 -0.000000 0.000000 
0.000000 0.000000 0.000000 
0.000000 0.000000 0.000000 

-0.000000 -0.000000 0.000000 
0.000000 -0.000000 0.000000 
0.000000 0.000000 0.000000 

0.000000 0.000000 0.000000 
0.000000 0.000000 0.000000 
0.000000 0.000000 0.000000 

-0.000000 0.000000 0.000000 
0.000000 -0.000000 0.000000 
0.000000 0.000000 0.000000 

0.000000 0.000000 0.000000 
0.000000 0.000000 0.000000 
0.000000 0.000000 0.000000 

0.000000 -0.000000 0.000000 
0.000000 0.000000 0.000000 
0.000000 0.000000 0.000000 

-0.000000 -0.000000 0.000000 
0.000000 -0.000000 0.000000 
0.000000 0.000000 0.000000 

0.000000 -0.000000 0.000000 
0.000000 0.000000 0.000000 
0.000000 0.000000 0.000000 

0.000000 -0.000000 0.000000 
0.000000 0.000000 0.000000 
0.000000 0.000000 0.000000 

-0.000000 0.000000 0.000000 
0.000000 -0.000000 0.000000 
0.000000 0.000000 0.000000 

0.000000 0.000000 0.000000 
0.000000 0.000000 0.000000 
0.000000 0.000000 0.000000 

0.000000 0.000000 0.000000 
0.000000 0.000000 0.000000 
0.000000 0.000000 0.000000 

0.000000 -0.000000 0.000000 
0.000000 0.000000 0.000000 
0.000000 0.000000 0.000000 

-0.000000 -0.000000 0.000000 
0.000000 -0.000000 0.000000 
0.000000 0.000000 0.000000 

0.000000 0.000000 0.000000 
0.000000 0.000000 0.000000 
0.000000 0.000000 0.000000 

-0.000000 0.000000 0.000000 
0.000000 -0.000000 0.000000 
0.000000 0.000000 0.000000 

0.000000 -0.000000 0.000000 
0.000000 0.000000 0.000000 
0.000000 0.000000 0.000000 

0.000000 0.000000 0.000000 
0.000000 0.000000 0.000000 
0.000000 0.000000 0.000000 

0.000000 0.000000 0.000000 
0.000000 0.000000 0.000000 
0.000000 0.000000 0.000000 

-0.000000 0.000000 0.000000 
0.000000 -0.000000 0.000000 
0.000000 0.000000 0.000000 

0.000000 0.000000 0.000000 
0.000000 0.000000 0.000000 
0.000000 0.000000 0.000000 

-0.000000 0.000000 0.000000 
0.000000 -0.000000 0.000000 
0.000000 0.000000 0.000000 

0.000000 0.000000 0.000000 
0.000000 0.000000 0.000000 
0.000000 0.000000 0.000000 

0.000000 0.000000 0.000000 
0.000000 0.000000 0.000000 
0.000000 0.000000 0.000000 

-0.000000 -0.000000 0.000000 
0.000000 -0.000000 0.000000 
0.000000 0.000000 0.000000 

-0.000000 0.000000 0.000000 
0.000000 -0.000000 0.000000 
0.000000 0.000000 0.000000 

0.000000 0.000000 0.000000 
0.000000 0.000000 0.000000 
0.000000 0.000000 0.000000 

0.000000 -0.000000 0.000000 
0.000000 0.000000 0.000000 
0.000000 0.000000 0.000000 

0.000000 0.000000 0.000000 
0.000000 0.000000 0.000000 
0.000000 0.000000 0.000000 

-0.000000 0.000000 0.000000 
0.000000 -0.000000 0.000000 
0.000000 0.000000 0.000000 

-0.000000 0.000000 0.000000 
0.000000 -0.000000 0.000000 
0.000000 0.000000 0.000000 

0.000000 -0.000000 0.000000 
0.000000 0.000000 0.000000 
0.000000 0.000000 0.000000 

-0.000000 0.000000 0.000000 
0.000000 -0.000000 0.000000 
0.000000 0.000000 0.000000 

-0.000000 0.000000 0.000000 
0.000000 -0.000000 0.000000 
0.000000 0.000000 0.000000 

TENSORS STRAIN float 
0.000000 0.000000 0.000000 
0.000000 -0.000000 0.000000 
0.000000 0.000000 0.000000 

-0.000000 -0.000000 0.000000 
0.000000 0.000000 0.000000 
0.000000 0.000000 0.000000 

0.000000 0.000000 0.000000 
0.000000 0.000000 0.000000 
0.000000 0.000000 0.000000 

0.000000 0.000000 0.000000 
0.000000 0.000000 0.000000 
0.000000 0.000000 0.000000 

0.000000 0.000000 0.000000 
0.000000 0.000000 0.000000 
0.000000 0.000000 0.000000 

0.000000 0.000000 0.000000 
0.000000 -0.000000 0.000000 
0.000000 0.000000 0.000000 

0.000000 0.000000 0.000000 
0.000000 0.000000 0.000000 
0.000000 0.000000 0.000000 

0.000000 0.000000 0.000000 
0.000000 0.000000 0.000000 
0.000000 0.000000 0.000000 

0.000000 -0.000000 0.000000 
0.000000 -0.000000 0.000000 
0.000000 0.000000 0.000000 

0.000000 -0.000000 0.000000 
0.000000 0.000000 0.000000 
0.000000 0.000000 0.000000 

0.000000 0.000000 0.000000 
0.000000 0.000000 0.000000 
0.000000 0.000000 0.000000 

-0.000000 0.000000 0.000000 
0.000000 0.000000 0.000000 
0.000000 0.000000 0.000000 

-0.000000 0.000000 0.000000 
0.000000 0.000000 0.000000 
0.000000 0.000000 0.000000 

-0.000000 0.000000 0.000000 
0.000000 0.000000 0.000000 
0.000000 0.000000 0.000000 

-0.000000 -0.000000 0.000000 
0.000000 0.000000 0.000000 
0.000000 0.000000 0.000000 

-0.000000 0.000000 0.000000 
0.000000 -0.000000 0.000000 
0.000000 0.000000 0.000000 

0.000000 -0.000000 0.000000 
0.000000 -0.000000 0.000000 
0.000000 0.000000 0.000000 

0.000000 -0.000000 0.000000 
0.000000 -0.000000 0.000000 
0.000000 0.000000 0.000000 

0.000000 -0.000000 0.000000 
0.000000 -0.000000 0.000000 
0.000000 0.000000 0.000000 

-0.000000 -0.000000 0.000000 
0.000000 0.000000 0.000000 
0.000000 0.000000 0.000000 

-0.000000 -0.000000 0.000000 
0.000000 0.000000 0.000000 
0.000000 0.000000 0.000000 

-0.000000 -0.000000 0.000000 
0.000000 0.000000 0.000000 
0.000000 0.000000 0.000000 

0.000000 -0.000000 0.000000 
0.000000 0.000000 0.000000 
0.000000 0.000000 0.000000 

-0.000000 0.000000 0.000000 
0.000000 0.000000 0.000000 
0.000000 0.000000 0.000000 

-0.000000 0.000000 0.000000 
0.000000 0.000000 0.000000 
0.000000 0.000000 0.000000 

0.000000 0.000000 0.000000 
0.000000 -0.000000 0.000000 
0.000000 0.000000 0.000000 

-0.000000 -0.000000 0.000000 
0.000000 -0.000000 0.000000 
0.000000 0.000000 0.000000 

-0.000000 -0.000000 0.000000 
0.000000 0.000000 0.000000 
0.000000 0.000000 0.000000 

-0.000000 -0.000000 0.000000 
0.000000 0.000000 0.000000 
0.000000 0.000000 0.000000 

-0.000000 -0.000000 0.000000 
0.000000 0.000000 0.000000 
0.000000 0.000000 0.000000 

-0.000000 -0.000000 0.000000 
0.000000 -0.000000 0.000000 
0.000000 0.000000 0.000000 

-0.000000 -0.000000 0.000000 
0.000000 0.000000 0.000000 
0.000000 0.000000 0.000000 

-0.000000 -0.000000 0.000000 
0.000000 -0.000000 0.000000 
0.000000 0.000000 0.000000 

0.000000 -0.000000 0.000000 
0.000000 -0.000000 0.000000 
0.000000 0.000000 0.000000 

-0.000000 -0.000000 0.000000 
0.000000 0.000000 0.000000 
0.000000 0.000000 0.000000 

-0.000000 -0.000000 0.000000 
0.000000 0.000000 0.000000 
0.000000 0.000000 0.000000 

-0.000000 -0.000000 0.000000 
0.000000 0.000000 0.000000 
0.000000 0.000000 0.000000 

-0.000000 -0.000000 0.000000 
0.000000 0.000000 0.000000 
0.000000 0.000000 0.000000 

-0.000000 -0.000000 0.000000 
0.000000 -0.000000 0.000000 
0.000000 0.000000 0.000000 

-0.000000 -0.000000 0.000000 
0.000000 0.000000 0.000000 
0.000000 0.000000 0.000000 

-0.000000 -0.000000 0.000000 
0.000000 0.000000 0.000000 
0.000000 0.000000 0.000000 

-0.000000 -0.000000 0.000000 
0.000000 0.000000 0.000000 
0.000000 0.000000 0.000000 

-0.000000 -0.000000 0.000000 
0.000000 0.000000 0.000000 
0.000000 0.000000 0.000000 

-0.000000 -0.000000 0.000000 
0.000000 0.000000 0.000000 
0.000000 0.000000 0.000000 

-0.000000 -0.000000 0.000000 
0.000000 0.000000 0.000000 
0.000000 0.000000 0.000000 

-0.000000 -0.000000 0.000000 
0.000000 0.000000 0.000000 
0.000000 0.000000 0.000000 

0.000000 -0.000000 0.000000 
0.000000 0.000000 0.000000 
0.000000 0.000000 0.000000 

0.000000 -0.000000 0.000000 
0.000000 -0.000000 0.000000 
0.000000 0.000000 0.000000 

-0.000000 -0.000000 0.000000 
0.000000 0.000000 0.000000 
0.000000 0.000000 0.000000 

0.000000 -0.000000 0.000000 
0.000000 -0.000000 0.000000 
0.000000 0.000000 0.000000 

-0.000000 0.000000 0.000000 
0.000000 0.000000 0.000000 
0.000000 0.000000 0.000000 

-0.000000 -0.000000 0.000000 
0.000000 -0.000000 0.000000 
0.000000 0.000000 0.000000 

-0.000000 -0.000000 0.000000 
0.000000 0.000000 0.000000 
0.000000 0.000000 0.000000 

-0.000000 -0.000000 0.000000 
0.000000 -0.000000 0.000000 
0.000000 0.000000 0.000000 

-0.000000 0.000000 0.000000 
0.000000 0.000000 0.000000 
0.000000 0.000000 0.000000 

-0.000000 0.000000 0.000000 
0.000000 0.000000 0.000000 
0.000000 0.000000 0.000000 

-0.000000 0.000000 0.000000 
0.000000 0.000000 0.000000 
0.000000 0.000000 0.000000 

-0.000000 -0.000000 0.000000 
0.000000 -0.000000 0.000000 
0.000000 0.000000 0.000000 

-0.000000 0.000000 0.000000 
0.000000 0.000000 0.000000 
0.000000 0.000000 0.000000 

-0.000000 0.000000 0.000000 
0.000000 0.000000 0.000000 
0.000000 0.000000 0.000000 

-0.000000 -0.000000 0.000000 
0.000000 0.000000 0.000000 
0.000000 0.000000 0.000000 

-0.000000 -0.000000 0.000000 
0.000000 0.000000 0.000000 
0.000000 0.000000 0.000000 

-0.000000 0.000000 0.000000 
0.000000 0.000000 0.000000 
0.000000 0.000000 0.000000 

-0.000000 0.000000 0.000000 
0.000000 0.000000 0.000000 
0.000000 0.000000 0.000000 

-0.000000 0.000000 0.000000 
0.000000 0.000000 0.000000 
0.000000 0.000000 0.000000 

-0.000000 0.000000 0.000000 
0.000000 0.000000 0.000000 
0.000000 0.000000 0.000000 

-0.000000 0.000000 0.000000 
0.000000 0.000000 0.000000 
0.000000 0.000000 0.000000 

0.000000 -0.000000 0.000000 
0.000000 -0.000000 0.000000 
0.000000 0.000000 0.000000 

0.000000 -0.000000 0.000000 
0.000000 -0.000000 0.000000 
0.000000 0.000000 0.000000 

0.000000 -0.000000 0.000000 
0.000000 0.000000 0.000000 
0.000000 0.000000 0.000000 

-0.000000 0.000000 0.000000 
0.000000 0.000000 0.000000 
0.000000 0.000000 0.000000 

-0.000000 -0.000000 0.000000 
0.000000 0.000000 0.000000 
0.000000 0.000000 0.000000 

0.000000 -0.000000 0.000000 
0.000000 -0.000000 0.000000 
0.000000 0.000000 0.000000 

0.000000 0.000000 0.000000 
0.000000 -0.000000 0.000000 
0.000000 0.000000 0.000000 

0.000000 0.000000 0.000000 
0.000000 -0.000000 0.000000 
0.000000 0.000000 0.000000 

-0.000000 0.000000 0.000000 
0.000000 -0.000000 0.000000 
0.000000 0.000000 0.000000 

-0.000000 0.000000 0.000000 
0.000000 0.000000 0.000000 
0.000000 0.000000 0.000000 

-0.000000 0.000000 0.000000 
0.000000 -0.000000 0.000000 
0.000000 0.000000 0.000000 

-0.000000 0.000000 0.000000 
0.000000 0.000000 0.000000 
0.000000 0.000000 0.000000 

-0.000000 0.000000 0.000000 
0.000000 -0.000000 0.000000 
0.000000 0.000000 0.000000 

-0.000000 0.000000 0.000000 
0.000000 -0.000000 0.000000 
0.000000 0.000000 0.000000 

-0.000000 0.000000 0.000000 
0.000000 0.000000 0.000000 
0.000000 0.000000 0.000000 

-0.000000 0.000000 0.000000 
0.000000 0.000000 0.000000 
0.000000 0.000000 0.000000 

0.000000 0.000000 0.000000 
0.000000 -0.000000 0.000000 
0.000000 0.000000 0.000000 

0.000000 0.000000 0.000000 
0.000000 -0.000000 0.000000 
0.000000 0.000000 0.000000 

0.000000 0.000000 0.000000 
0.000000 0.000000 0.000000 
0.000000 0.000000 0.000000 

-0.000000 0.000000 0.000000 
0.000000 0.000000 0.000000 
0.000000 0.000000 0.000000 

-0.000000 0.000000 0.000000 
0.000000 0.000000 0.000000 
0.000000 0.000000 0.000000 

-0.000000 0.000000 0.000000 
0.000000 0.000000 0.000000 
0.000000 0.000000 0.000000 

-0.000000 0.000000 0.000000 
0.000000 0.000000 0.000000 
0.000000 0.000000 0.000000 

-0.000000 0.000000 0.000000 
0.000000 0.000000 0.000000 
0.000000 0.000000 0.000000 

0.000000 0.000000 0.000000 
0.000000 0.000000 0.000000 
0.000000 0.000000 0.000000 

0.000000 0.000000 0.000000 
0.000000 -0.000000 0.000000 
0.000000 0.000000 0.000000 

0.000000 -0.000000 0.000000 
0.000000 0.000000 0.000000 
0.000000 0.000000 0.000000 

-0.000000 0.000000 0.000000 
0.000000 0.000000 0.000000 
0.000000 0.000000 0.000000 

-0.000000 0.000000 0.000000 
0.000000 0.000000 0.000000 
0.000000 0.000000 0.000000 

-0.000000 0.000000 0.000000 
0.000000 0.000000 0.000000 
0.000000 0.000000 0.000000 

0.000000 -0.000000 0.000000 
0.000000 -0.000000 0.000000 
0.000000 0.000000 0.000000 

0.000000 -0.000000 0.000000 
0.000000 0.000000 0.000000 
0.000000 0.000000 0.000000 

0.000000 0.000000 0.000000 
0.000000 -0.000000 0.000000 
0.000000 0.000000 0.000000 

-0.000000 0.000000 0.000000 
0.000000 0.000000 0.000000 
0.000000 0.000000 0.000000 

0.000000 0.000000 0.000000 
0.000000 0.000000 0.000000 
0.000000 0.000000 0.000000 

-0.000000 -0.000000 0.000000 
0.000000 0.000000 0.000000 
0.000000 0.000000 0.000000 

-0.000000 -0.000000 0.000000 
0.000000 0.000000 0.000000 
0.000000 0.000000 0.000000 

0.000000 0.000000 0.000000 
0.000000 -0.000000 0.000000 
0.000000 0.000000 0.000000 

-0.000000 0.000000 0.000000 
0.000000 0.000000 0.000000 
0.000000 0.000000 0.000000 

-0.000000 0.000000 0.000000 
0.000000 0.000000 0.000000 
0.000000 0.000000 0.000000 

-0.000000 -0.000000 0.000000 
0.000000 -0.000000 0.000000 
0.000000 0.000000 0.000000 

-0.000000 -0.000000 0.000000 
0.000000 0.000000 0.000000 
0.000000 0.000000 0.000000 

0.000000 0.000000 0.000000 
0.000000 -0.000000 0.000000 
0.000000 0.000000 0.000000 

0.000000 0.000000 0.000000 
0.000000 0.000000 0.000000 
0.000000 0.000000 0.000000 

0.000000 0.000000 0.000000 
0.000000 -0.000000 0.000000 
0.000000 0.000000 0.000000 

0.000000 0.000000 0.000000 
0.000000 -0.000000 0.000000 
0.000000 0.000000 0.000000 

0.000000 -0.000000 0.000000 
0.000000 -0.000000 0.000000 
0.000000 0.000000 0.000000 

0.000000 -0.000000 0.000000 
0.000000 -0.000000 0.000000 
0.000000 0.000000 0.000000 

0.000000 0.000000 0.000000 
0.000000 0.000000 0.000000 
0.000000 0.000000 0.000000 

0.000000 -0.000000 0.000000 
0.000000 -0.000000 0.000000 
0.000000 0.000000 0.000000 

0.000000 -0.000000 0.000000 
0.000000 -0.000000 0.000000 
0.000000 0.000000 0.000000 

0.000000 -0.000000 0.000000 
0.000000 -0.000000 0.000000 
0.000000 0.000000 0.000000 

0.000000 -0.000000 0.000000 
0.000000 0.000000 0.000000 
0.000000 0.000000 0.000000 

0.000000 0.000000 0.000000 
0.000000 -0.000000 0.000000 
0.000000 0.000000 0.000000 

0.000000 0.000000 0.000000 
0.000000 -0.000000 0.000000 
0.000000 0.000000 0.000000 

0.000000 -0.000000 0.000000 
0.000000 0.000000 0.000000 
0.000000 0.000000 0.000000 

0.000000 -0.000000 0.000000 
0.000000 0.000000 0.000000 
0.000000 0.000000 0.000000 

0.000000 0.000000 0.000000 
0.000000 -0.000000 0.000000 
0.000000 0.000000 0.000000 

0.000000 0.000000 0.000000 
0.000000 -0.000000 0.000000 
0.000000 0.000000 0.000000 

0.000000 -0.000000 0.000000 
0.000000 0.000000 0.000000 
0.000000 0.000000 0.000000 

0.000000 0.000000 0.000000 
0.000000 -0.000000 0.000000 
0.000000 0.000000 0.000000 

0.000000 0.000000 0.000000 
0.000000 0.000000 0.000000 
0.000000 0.000000 0.000000 

0.000000 0.000000 0.000000 
0.000000 0.000000 0.000000 
0.000000 0.000000 0.000000 

0.000000 -0.000000 0.000000 
0.000000 -0.000000 0.000000 
0.000000 0.000000 0.000000 

-0.000000 -0.000000 0.000000 
0.000000 0.000000 0.000000 
0.000000 0.000000 0.000000 

0.000000 0.000000 0.000000 
0.000000 0.000000 0.000000 
0.000000 0.000000 0.000000 

-0.000000 -0.000000 0.000000 
0.000000 0.000000 0.000000 
0.000000 0.000000 0.000000 

-0.000000 -0.000000 0.000000 
0.000000 -0.000000 0.000000 
0.000000 0.000000 0.000000 

-0.000000 -0.000000 0.000000 
0.000000 -0.000000 0.000000 
0.000000 0.000000 0.000000 

-0.000000 -0.000000 0.000000 
0.000000 -0.000000 0.000000 
0.000000 0.000000 0.000000 

-0.000000 -0.000000 0.000000 
0.000000 0.000000 0.000000 
0.000000 0.000000 0.000000 

-0.000000 -0.000000 0.000000 
0.000000 0.000000 0.000000 
0.000000 0.000000 0.000000 

-0.000000 -0.000000 0.000000 
0.000000 0.000000 0.000000 
0.000000 0.000000 0.000000 

-0.000000 0.000000 0.000000 
0.000000 -0.000000 0.000000 
0.000000 0.000000 0.000000 

-0.000000 -0.000000 0.000000 
0.000000 0.000000 0.000000 
0.000000 0.000000 0.000000 

-0.000000 -0.000000 0.000000 
0.000000 0.000000 0.000000 
0.000000 0.000000 0.000000 

-0.000000 0.000000 0.000000 
0.000000 0.000000 0.000000 
0.000000 0.000000 0.000000 

-0.000000 0.000000 0.000000 
0.000000 0.000000 0.000000 
0.000000 0.000000 0.000000 

-0.000000 0.000000 0.000000 
0.000000 0.000000 0.000000 
0.000000 0.000000 0.000000 

-0.000000 -0.000000 0.000000 
0.000000 0.000000 0.000000 
0.000000 0.000000 0.000000 

-0.000000 -0.000000 0.000000 
0.000000 0.000000 0.000000 
0.000000 0.000000 0.000000 

-0.000000 -0.000000 0.000000 
0.000000 0.000000 0.000000 
0.000000 0.000000 0.000000 

0.000000 -0.000000 0.000000 
0.000000 -0.000000 0.000000 
0.000000 0.000000 0.000000 

0.000000 0.000000 0.000000 
0.000000 -0.000000 0.000000 
0.000000 0.000000 0.000000 

0.000000 0.000000 0.000000 
0.000000 0.000000 0.000000 
0.000000 0.000000 0.000000 

0.000000 0.000000 0.000000 
0.000000 0.000000 0.000000 
0.000000 0.000000 0.000000 

0.000000 -0.000000 0.000000 
0.000000 0.000000 0.000000 
0.000000 0.000000 0.000000 

0.000000 -0.000000 0.000000 
0.000000 -0.000000 0.000000 
0.000000 0.000000 0.000000 

0.000000 0.000000 0.000000 
0.000000 0.000000 0.000000 
0.000000 0.000000 0.000000 

0.000000 0.000000 0.000000 
0.000000 -0.000000 0.000000 
0.000000 0.000000 0.000000 

0.000000 -0.000000 0.000000 
0.000000 0.000000 0.000000 
0.000000 0.000000 0.000000 

0.000000 0.000000 0.000000 
0.000000 0.000000 0.000000 
0.000000 0.000000 0.000000 

-0.000000 0.000000 0.000000 
0.000000 0.000000 0.000000 
0.000000 0.000000 0.000000 

-0.000000 0.000000 0.000000 
0.000000 -0.000000 0.000000 
0.000000 0.000000 0.000000 

0.000000 0.000000 0.000000 
0.000000 0.000000 0.000000 
0.000000 0.000000 0.000000 

0.000000 0.000000 0.000000 
0.000000 -0.000000 0.000000 
0.000000 0.000000 0.000000 

0.000000 0.000000 0.000000 
0.000000 0.000000 0.000000 
0.000000 0.000000 0.000000 

0.000000 0.000000 0.000000 
0.000000 0.000000 0.000000 
0.000000 0.000000 0.000000 

-0.000000 -0.000000 0.000000 
0.000000 0.000000 0.000000 
0.000000 0.000000 0.000000 

-0.000000 0.000000 0.000000 
0.000000 0.000000 0.000000 
0.000000 0.000000 0.000000 

-0.000000 0.000000 0.000000 
0.000000 0.000000 0.000000 
0.000000 0.000000 0.000000 

0.000000 -0.000000 0.000000 
0.000000 0.000000 0.000000 
0.000000 0.000000 0.000000 

0.000000 0.000000 0.000000 
0.000000 0.000000 0.000000 
0.000000 0.000000 0.000000 

0.000000 0.000000 0.000000 
0.000000 -0.000000 0.000000 
0.000000 0.000000 0.000000 

0.000000 0.000000 0.000000 
0.000000 -0.000000 0.000000 
0.000000 0.000000 0.000000 

-0.000000 -0.000000 0.000000 
0.000000 0.000000 0.000000 
0.000000 0.000000 0.000000 

-0.000000 0.000000 0.000000 
0.000000 0.000000 0.000000 
0.000000 0.000000 0.000000 

-0.000000 0.000000 0.000000 
0.000000 0.000000 0.000000 
0.000000 0.000000 0.000000 

