# vtk DataFile Version 3.0 
vtk output 
ASCII 
DATASET UNSTRUCTURED_GRID 
POINTS 175 float 
-0.026061 -0.250243 0.000000 
-0.106992 -0.182187 0.000000 
-0.054870 -0.190420 0.000000 
-0.028809 -0.144536 0.000000 
-0.186430 -0.118112 0.000000 
-0.137056 -0.120638 0.000000 
-0.114311 -0.066991 0.000000 
-0.058186 -0.082656 0.000000 
-0.029377 -0.042479 0.000000 
-0.265318 -0.054956 0.000000 
-0.217198 -0.055756 0.000000 
-0.196633 0.001541 0.000000 
-0.143120 -0.007168 0.000000 
-0.116563 0.040101 0.000000 
-0.058945 0.020455 0.000000 
-0.029568 0.058575 0.000000 
-0.344206 0.008200 0.000000 
-0.296791 0.008207 0.000000 
-0.278030 0.068150 0.000000 
-0.225992 0.062283 0.000000 
-0.201664 0.114400 0.000000 
-0.145749 0.100926 0.000000 
-0.117890 0.145269 0.000000 
-0.059328 0.122563 0.000000 
-0.029759 0.159629 0.000000 
-0.058559 -0.290994 0.000000 
-0.162226 -0.311836 0.000000 
-0.123292 -0.276219 0.000000 
-0.142917 -0.227235 0.000000 
-0.261851 -0.333993 0.000000 
-0.229092 -0.296966 0.000000 
-0.256854 -0.245734 0.000000 
-0.209613 -0.211621 0.000000 
-0.223062 -0.164047 0.000000 
-0.360414 -0.356293 0.000000 
-0.329787 -0.319170 0.000000 
-0.361761 -0.267368 0.000000 
-0.321587 -0.230959 0.000000 
-0.341985 -0.180725 0.000000 
-0.290702 -0.147926 0.000000 
-0.302189 -0.101191 0.000000 
-0.458977 -0.378593 0.000000 
-0.429420 -0.341518 0.000000 
-0.464588 -0.289476 0.000000 
-0.427556 -0.252449 0.000000 
-0.453135 -0.200934 0.000000 
-0.407738 -0.165619 0.000000 
-0.425037 -0.116191 0.000000 
-0.370772 -0.084562 0.000000 
-0.381315 -0.038334 0.000000 
-0.046960 -0.341809 0.000000 
-0.095301 -0.435855 0.000000 
-0.098873 -0.383207 0.000000 
-0.149405 -0.368010 0.000000 
-0.140093 -0.527559 0.000000 
-0.148617 -0.478860 0.000000 
-0.205981 -0.468623 0.000000 
-0.203197 -0.410420 0.000000 
-0.248777 -0.391273 0.000000 
-0.184111 -0.618522 0.000000 
-0.194039 -0.571431 0.000000 
-0.254475 -0.564132 0.000000 
-0.257893 -0.510022 0.000000 
-0.309886 -0.494650 0.000000 
-0.303554 -0.434104 0.000000 
-0.347255 -0.413946 0.000000 
-0.228129 -0.709486 0.000000 
-0.238687 -0.663262 0.000000 
-0.301302 -0.658310 0.000000 
-0.307162 -0.606271 0.000000 
-0.363386 -0.594150 0.000000 
-0.362692 -0.536638 0.000000 
-0.412122 -0.519345 0.000000 
-0.403017 -0.457199 0.000000 
-0.445733 -0.436620 0.000000 
-0.000000 -0.364424 0.000000 
0.043388 -0.460854 0.000000 
-0.000000 -0.430822 0.000000 
-0.043388 -0.460854 0.000000 
0.087158 -0.553051 0.000000 
0.043769 -0.529352 0.000000 
-0.000000 -0.567818 0.000000 
-0.043769 -0.529352 0.000000 
-0.087158 -0.553051 0.000000 
0.130831 -0.644181 0.000000 
0.087824 -0.622582 0.000000 
0.044436 -0.665282 0.000000 
-0.000000 -0.634217 0.000000 
-0.044436 -0.665282 0.000000 
-0.087824 -0.622582 0.000000 
-0.130831 -0.644181 0.000000 
0.174505 -0.735310 0.000000 
0.131782 -0.714744 0.000000 
0.088871 -0.760611 0.000000 
0.044532 -0.732747 0.000000 
-0.000000 -0.769147 0.000000 
-0.044532 -0.732747 0.000000 
-0.088871 -0.760611 0.000000 
-0.131782 -0.714744 0.000000 
-0.174505 -0.735310 0.000000 
0.046960 -0.341809 0.000000 
0.149405 -0.368010 0.000000 
0.098873 -0.383207 0.000000 
0.095301 -0.435855 0.000000 
0.248777 -0.391273 0.000000 
0.203197 -0.410420 0.000000 
0.205981 -0.468623 0.000000 
0.148617 -0.478860 0.000000 
0.140093 -0.527559 0.000000 
0.347255 -0.413946 0.000000 
0.303554 -0.434104 0.000000 
0.309886 -0.494650 0.000000 
0.257893 -0.510022 0.000000 
0.254475 -0.564132 0.000000 
0.194039 -0.571431 0.000000 
0.184111 -0.618522 0.000000 
0.445733 -0.436620 0.000000 
0.403017 -0.457199 0.000000 
0.412122 -0.519345 0.000000 
0.362692 -0.536638 0.000000 
0.363386 -0.594150 0.000000 
0.307162 -0.606271 0.000000 
0.301302 -0.658310 0.000000 
0.238687 -0.663262 0.000000 
0.228129 -0.709486 0.000000 
0.058559 -0.290994 0.000000 
0.142917 -0.227235 0.000000 
0.123292 -0.276219 0.000000 
0.162226 -0.311836 0.000000 
0.223062 -0.164047 0.000000 
0.209613 -0.211621 0.000000 
0.256854 -0.245734 0.000000 
0.229092 -0.296966 0.000000 
0.261851 -0.333993 0.000000 
0.302189 -0.101191 0.000000 
0.290702 -0.147926 0.000000 
0.341985 -0.180725 0.000000 
0.321587 -0.230959 0.000000 
0.361761 -0.267368 0.000000 
0.329787 -0.319170 0.000000 
0.360414 -0.356293 0.000000 
0.381315 -0.038334 0.000000 
0.370772 -0.084562 0.000000 
0.425037 -0.116191 0.000000 
0.407738 -0.165619 0.000000 
0.453135 -0.200934 0.000000 
0.427556 -0.252449 0.000000 
0.464588 -0.289476 0.000000 
0.429420 -0.341518 0.000000 
0.458977 -0.378593 0.000000 
0.026061 -0.250243 0.000000 
0.028809 -0.144536 0.000000 
0.054870 -0.190420 0.000000 
0.106992 -0.182187 0.000000 
0.029377 -0.042479 0.000000 
0.058186 -0.082656 0.000000 
0.114311 -0.066991 0.000000 
0.137056 -0.120638 0.000000 
0.186430 -0.118112 0.000000 
0.029568 0.058575 0.000000 
0.058945 0.020455 0.000000 
0.116563 0.040101 0.000000 
0.143120 -0.007168 0.000000 
0.196633 0.001541 0.000000 
0.217198 -0.055756 0.000000 
0.265318 -0.054956 0.000000 
0.029759 0.159629 0.000000 
0.059328 0.122563 0.000000 
0.117890 0.145269 0.000000 
0.145749 0.100926 0.000000 
0.201664 0.114400 0.000000 
0.225992 0.062283 0.000000 
0.278030 0.068150 0.000000 
0.296791 0.008207 0.000000 
0.344206 0.008200 0.000000 
CELLS 175 350 
1 0 
1 1 
1 2 
1 3 
1 4 
1 5 
1 6 
1 7 
1 8 
1 9 
1 10 
1 11 
1 12 
1 13 
1 14 
1 15 
1 16 
1 17 
1 18 
1 19 
1 20 
1 21 
1 22 
1 23 
1 24 
1 25 
1 26 
1 27 
1 28 
1 29 
1 30 
1 31 
1 32 
1 33 
1 34 
1 35 
1 36 
1 37 
1 38 
1 39 
1 40 
1 41 
1 42 
1 43 
1 44 
1 45 
1 46 
1 47 
1 48 
1 49 
1 50 
1 51 
1 52 
1 53 
1 54 
1 55 
1 56 
1 57 
1 58 
1 59 
1 60 
1 61 
1 62 
1 63 
1 64 
1 65 
1 66 
1 67 
1 68 
1 69 
1 70 
1 71 
1 72 
1 73 
1 74 
1 75 
1 76 
1 77 
1 78 
1 79 
1 80 
1 81 
1 82 
1 83 
1 84 
1 85 
1 86 
1 87 
1 88 
1 89 
1 90 
1 91 
1 92 
1 93 
1 94 
1 95 
1 96 
1 97 
1 98 
1 99 
1 100 
1 101 
1 102 
1 103 
1 104 
1 105 
1 106 
1 107 
1 108 
1 109 
1 110 
1 111 
1 112 
1 113 
1 114 
1 115 
1 116 
1 117 
1 118 
1 119 
1 120 
1 121 
1 122 
1 123 
1 124 
1 125 
1 126 
1 127 
1 128 
1 129 
1 130 
1 131 
1 132 
1 133 
1 134 
1 135 
1 136 
1 137 
1 138 
1 139 
1 140 
1 141 
1 142 
1 143 
1 144 
1 145 
1 146 
1 147 
1 148 
1 149 
1 150 
1 151 
1 152 
1 153 
1 154 
1 155 
1 156 
1 157 
1 158 
1 159 
1 160 
1 161 
1 162 
1 163 
1 164 
1 165 
1 166 
1 167 
1 168 
1 169 
1 170 
1 171 
1 172 
1 173 
1 174 
CELL_TYPES 175 
1 
1 
1 
1 
1 
1 
1 
1 
1 
1 
1 
1 
1 
1 
1 
1 
1 
1 
1 
1 
1 
1 
1 
1 
1 
1 
1 
1 
1 
1 
1 
1 
1 
1 
1 
1 
1 
1 
1 
1 
1 
1 
1 
1 
1 
1 
1 
1 
1 
1 
1 
1 
1 
1 
1 
1 
1 
1 
1 
1 
1 
1 
1 
1 
1 
1 
1 
1 
1 
1 
1 
1 
1 
1 
1 
1 
1 
1 
1 
1 
1 
1 
1 
1 
1 
1 
1 
1 
1 
1 
1 
1 
1 
1 
1 
1 
1 
1 
1 
1 
1 
1 
1 
1 
1 
1 
1 
1 
1 
1 
1 
1 
1 
1 
1 
1 
1 
1 
1 
1 
1 
1 
1 
1 
1 
1 
1 
1 
1 
1 
1 
1 
1 
1 
1 
1 
1 
1 
1 
1 
1 
1 
1 
1 
1 
1 
1 
1 
1 
1 
1 
1 
1 
1 
1 
1 
1 
1 
1 
1 
1 
1 
1 
1 
1 
1 
1 
1 
1 
1 
1 
1 
1 
1 
1 
POINT_DATA 175 
VECTORS X_GC float 
-0.026061 -0.250243 0.000000 
-0.106992 -0.182187 0.000000 
-0.054870 -0.190420 0.000000 
-0.028809 -0.144536 0.000000 
-0.186430 -0.118112 0.000000 
-0.137056 -0.120638 0.000000 
-0.114311 -0.066991 0.000000 
-0.058186 -0.082656 0.000000 
-0.029377 -0.042479 0.000000 
-0.265318 -0.054956 0.000000 
-0.217198 -0.055756 0.000000 
-0.196633 0.001541 0.000000 
-0.143120 -0.007168 0.000000 
-0.116563 0.040101 0.000000 
-0.058945 0.020455 0.000000 
-0.029568 0.058575 0.000000 
-0.344206 0.008200 0.000000 
-0.296791 0.008207 0.000000 
-0.278030 0.068150 0.000000 
-0.225992 0.062283 0.000000 
-0.201664 0.114400 0.000000 
-0.145749 0.100926 0.000000 
-0.117890 0.145269 0.000000 
-0.059328 0.122563 0.000000 
-0.029759 0.159629 0.000000 
-0.058559 -0.290994 0.000000 
-0.162226 -0.311836 0.000000 
-0.123292 -0.276219 0.000000 
-0.142917 -0.227235 0.000000 
-0.261851 -0.333993 0.000000 
-0.229092 -0.296966 0.000000 
-0.256854 -0.245734 0.000000 
-0.209613 -0.211621 0.000000 
-0.223062 -0.164047 0.000000 
-0.360414 -0.356293 0.000000 
-0.329787 -0.319170 0.000000 
-0.361761 -0.267368 0.000000 
-0.321587 -0.230959 0.000000 
-0.341985 -0.180725 0.000000 
-0.290702 -0.147926 0.000000 
-0.302189 -0.101191 0.000000 
-0.458977 -0.378593 0.000000 
-0.429420 -0.341518 0.000000 
-0.464588 -0.289476 0.000000 
-0.427556 -0.252449 0.000000 
-0.453135 -0.200934 0.000000 
-0.407738 -0.165619 0.000000 
-0.425037 -0.116191 0.000000 
-0.370772 -0.084562 0.000000 
-0.381315 -0.038334 0.000000 
-0.046960 -0.341809 0.000000 
-0.095301 -0.435855 0.000000 
-0.098873 -0.383207 0.000000 
-0.149405 -0.368010 0.000000 
-0.140093 -0.527559 0.000000 
-0.148617 -0.478860 0.000000 
-0.205981 -0.468623 0.000000 
-0.203197 -0.410420 0.000000 
-0.248777 -0.391273 0.000000 
-0.184111 -0.618522 0.000000 
-0.194039 -0.571431 0.000000 
-0.254475 -0.564132 0.000000 
-0.257893 -0.510022 0.000000 
-0.309886 -0.494650 0.000000 
-0.303554 -0.434104 0.000000 
-0.347255 -0.413946 0.000000 
-0.228129 -0.709486 0.000000 
-0.238687 -0.663262 0.000000 
-0.301302 -0.658310 0.000000 
-0.307162 -0.606271 0.000000 
-0.363386 -0.594150 0.000000 
-0.362692 -0.536638 0.000000 
-0.412122 -0.519345 0.000000 
-0.403017 -0.457199 0.000000 
-0.445733 -0.436620 0.000000 
-0.000000 -0.364424 0.000000 
0.043388 -0.460854 0.000000 
-0.000000 -0.430822 0.000000 
-0.043388 -0.460854 0.000000 
0.087158 -0.553051 0.000000 
0.043769 -0.529352 0.000000 
-0.000000 -0.567818 0.000000 
-0.043769 -0.529352 0.000000 
-0.087158 -0.553051 0.000000 
0.130831 -0.644181 0.000000 
0.087824 -0.622582 0.000000 
0.044436 -0.665282 0.000000 
-0.000000 -0.634217 0.000000 
-0.044436 -0.665282 0.000000 
-0.087824 -0.622582 0.000000 
-0.130831 -0.644181 0.000000 
0.174505 -0.735310 0.000000 
0.131782 -0.714744 0.000000 
0.088871 -0.760611 0.000000 
0.044532 -0.732747 0.000000 
-0.000000 -0.769147 0.000000 
-0.044532 -0.732747 0.000000 
-0.088871 -0.760611 0.000000 
-0.131782 -0.714744 0.000000 
-0.174505 -0.735310 0.000000 
0.046960 -0.341809 0.000000 
0.149405 -0.368010 0.000000 
0.098873 -0.383207 0.000000 
0.095301 -0.435855 0.000000 
0.248777 -0.391273 0.000000 
0.203197 -0.410420 0.000000 
0.205981 -0.468623 0.000000 
0.148617 -0.478860 0.000000 
0.140093 -0.527559 0.000000 
0.347255 -0.413946 0.000000 
0.303554 -0.434104 0.000000 
0.309886 -0.494650 0.000000 
0.257893 -0.510022 0.000000 
0.254475 -0.564132 0.000000 
0.194039 -0.571431 0.000000 
0.184111 -0.618522 0.000000 
0.445733 -0.436620 0.000000 
0.403017 -0.457199 0.000000 
0.412122 -0.519345 0.000000 
0.362692 -0.536638 0.000000 
0.363386 -0.594150 0.000000 
0.307162 -0.606271 0.000000 
0.301302 -0.658310 0.000000 
0.238687 -0.663262 0.000000 
0.228129 -0.709486 0.000000 
0.058559 -0.290994 0.000000 
0.142917 -0.227235 0.000000 
0.123292 -0.276219 0.000000 
0.162226 -0.311836 0.000000 
0.223062 -0.164047 0.000000 
0.209613 -0.211621 0.000000 
0.256854 -0.245734 0.000000 
0.229092 -0.296966 0.000000 
0.261851 -0.333993 0.000000 
0.302189 -0.101191 0.000000 
0.290702 -0.147926 0.000000 
0.341985 -0.180725 0.000000 
0.321587 -0.230959 0.000000 
0.361761 -0.267368 0.000000 
0.329787 -0.319170 0.000000 
0.360414 -0.356293 0.000000 
0.381315 -0.038334 0.000000 
0.370772 -0.084562 0.000000 
0.425037 -0.116191 0.000000 
0.407738 -0.165619 0.000000 
0.453135 -0.200934 0.000000 
0.427556 -0.252449 0.000000 
0.464588 -0.289476 0.000000 
0.429420 -0.341518 0.000000 
0.458977 -0.378593 0.000000 
0.026061 -0.250243 0.000000 
0.028809 -0.144536 0.000000 
0.054870 -0.190420 0.000000 
0.106992 -0.182187 0.000000 
0.029377 -0.042479 0.000000 
0.058186 -0.082656 0.000000 
0.114311 -0.066991 0.000000 
0.137056 -0.120638 0.000000 
0.186430 -0.118112 0.000000 
0.029568 0.058575 0.000000 
0.058945 0.020455 0.000000 
0.116563 0.040101 0.000000 
0.143120 -0.007168 0.000000 
0.196633 0.001541 0.000000 
0.217198 -0.055756 0.000000 
0.265318 -0.054956 0.000000 
0.029759 0.159629 0.000000 
0.059328 0.122563 0.000000 
0.117890 0.145269 0.000000 
0.145749 0.100926 0.000000 
0.201664 0.114400 0.000000 
0.225992 0.062283 0.000000 
0.278030 0.068150 0.000000 
0.296791 0.008207 0.000000 
0.344206 0.008200 0.000000 
VECTORS X_EC float 
0.338794 -0.121722 0.000000 
-0.609100 0.959530 0.000000 
0.713312 -0.929329 0.000000 
0.374519 0.451241 0.000000 
0.423588 0.094511 0.000000 
-0.218274 0.128614 0.000000 
-0.513962 -0.595625 0.000000 
0.756418 -0.384138 0.000000 
0.381900 -0.926531 0.000000 
-0.550868 -0.758092 0.000000 
0.823577 -0.747297 0.000000 
0.556234 0.479199 0.000000 
-0.139443 0.596768 0.000000 
-0.484677 -0.041357 0.000000 
0.766286 0.223859 0.000000 
0.384386 -0.290762 0.000000 
0.474677 0.389304 0.000000 
-0.141715 0.389208 0.000000 
-0.385608 -0.420020 0.000000 
0.937896 -0.340825 0.000000 
0.621631 0.955595 0.000000 
-0.105264 -0.862506 0.000000 
-0.467428 0.538868 0.000000 
0.771260 0.845397 0.000000 
0.386873 0.345007 0.000000 
0.761262 0.428413 0.000000 
0.108942 0.709789 0.000000 
-0.397202 0.228950 0.000000 
-0.142083 -0.432325 0.000000 
-0.595936 -0.991100 0.000000 
0.978194 0.509034 0.000000 
-0.660903 -0.182591 0.000000 
0.724964 -0.643111 0.000000 
0.899809 0.714641 0.000000 
0.685384 -0.690048 0.000000 
0.287229 0.808794 0.000000 
0.702895 0.109465 0.000000 
0.180633 -0.382053 0.000000 
0.445811 0.939787 0.000000 
-0.220880 0.497001 0.000000 
-0.071546 -0.133924 0.000000 
-0.033296 -0.388996 0.000000 
-0.417537 -0.889505 0.000000 
0.039645 0.407932 0.000000 
-0.441768 -0.091939 0.000000 
-0.109248 -0.787389 0.000000 
-0.699407 0.735855 0.000000 
-0.474522 0.068576 0.000000 
0.820030 -0.358418 0.000000 
0.957100 -0.982489 0.000000 
0.610485 -0.885581 0.000000 
-0.761092 0.384039 0.000000 
-0.714655 -0.326699 0.000000 
-0.057734 -0.531866 0.000000 
-0.178789 -0.377957 0.000000 
-0.067979 0.964617 0.000000 
0.677748 0.826413 0.000000 
0.641556 0.040668 0.000000 
-0.765897 -0.217811 0.000000 
0.393446 0.850052 0.000000 
0.522510 0.214322 0.000000 
-0.691820 0.115778 0.000000 
-0.647393 -0.614705 0.000000 
0.028512 -0.822232 0.000000 
-0.053800 0.360408 0.000000 
0.514316 0.088277 0.000000 
0.965681 0.078061 0.000000 
-0.897068 -0.545968 0.000000 
-0.083078 -0.612821 0.000000 
-0.006893 0.684655 0.000000 
0.724017 0.521022 0.000000 
0.714996 -0.255382 0.000000 
-0.642413 -0.488839 0.000000 
-0.760780 0.672180 0.000000 
-0.205471 0.394365 0.000000 
0.000000 -0.580279 0.000000 
-0.564049 0.721534 0.000000 
0.000000 0.316098 0.000000 
0.564049 0.721534 0.000000 
0.866949 -0.033811 0.000000 
-0.569003 -0.353742 0.000000 
0.000000 0.165546 0.000000 
0.569003 -0.353742 0.000000 
-0.866949 -0.033811 0.000000 
0.299194 -0.803561 0.000000 
0.858290 0.904855 0.000000 
-0.577662 -0.518699 0.000000 
0.000000 -0.938077 0.000000 
0.577662 -0.518699 0.000000 
-0.858290 0.904855 0.000000 
-0.299194 -0.803561 0.000000 
-0.268560 0.426689 0.000000 
0.286830 0.149048 0.000000 
0.844677 0.768246 0.000000 
-0.578910 0.392083 0.000000 
0.000000 0.883487 0.000000 
0.578910 0.392083 0.000000 
-0.844677 0.768246 0.000000 
-0.286830 0.149048 0.000000 
0.268560 0.426689 0.000000 
-0.610485 -0.885581 0.000000 
0.057734 -0.531866 0.000000 
0.714655 -0.326699 0.000000 
0.761092 0.384039 0.000000 
0.765897 -0.217810 0.000000 
-0.641556 0.040668 0.000000 
-0.677748 0.826413 0.000000 
0.067979 0.964617 0.000000 
0.178789 -0.377957 0.000000 
-0.514316 0.088277 0.000000 
0.053800 0.360408 0.000000 
-0.028512 -0.822231 0.000000 
0.647393 -0.614705 0.000000 
0.691820 0.115778 0.000000 
-0.522510 0.214322 0.000000 
-0.393446 0.850052 0.000000 
0.205471 0.394365 0.000000 
0.760780 0.672180 0.000000 
0.642413 -0.488839 0.000000 
-0.714996 -0.255382 0.000000 
-0.724017 0.521022 0.000000 
0.006894 0.684655 0.000000 
0.083078 -0.612821 0.000000 
0.897068 -0.545968 0.000000 
-0.965681 0.078061 0.000000 
-0.761262 0.428413 0.000000 
0.142083 -0.432325 0.000000 
0.397202 0.228950 0.000000 
-0.108942 0.709789 0.000000 
-0.899809 0.714641 0.000000 
-0.724964 -0.643111 0.000000 
0.660903 -0.182591 0.000000 
-0.978194 0.509034 0.000000 
0.595936 -0.991100 0.000000 
0.071546 -0.133924 0.000000 
0.220880 0.497001 0.000000 
-0.445811 0.939787 0.000000 
-0.180633 -0.382053 0.000000 
-0.702895 0.109465 0.000000 
-0.287229 0.808794 0.000000 
-0.685384 -0.690048 0.000000 
-0.957100 -0.982489 0.000000 
-0.820030 -0.358418 0.000000 
0.474522 0.068576 0.000000 
0.699407 0.735855 0.000000 
0.109248 -0.787389 0.000000 
0.441768 -0.091939 0.000000 
-0.039645 0.407932 0.000000 
0.417537 -0.889505 0.000000 
0.033296 -0.388995 0.000000 
-0.338794 -0.121722 0.000000 
-0.374519 0.451241 0.000000 
-0.713312 -0.929329 0.000000 
0.609100 0.959530 0.000000 
-0.381900 -0.926531 0.000000 
-0.756418 -0.384138 0.000000 
0.513962 -0.595625 0.000000 
0.218274 0.128614 0.000000 
-0.423588 0.094511 0.000000 
-0.384386 -0.290762 0.000000 
-0.766286 0.223859 0.000000 
0.484677 -0.041357 0.000000 
0.139443 0.596768 0.000000 
-0.556234 0.479199 0.000000 
-0.823577 -0.747297 0.000000 
0.550868 -0.758092 0.000000 
-0.386873 0.345007 0.000000 
-0.771260 0.845397 0.000000 
0.467428 0.538868 0.000000 
0.105264 -0.862506 0.000000 
-0.621631 0.955595 0.000000 
-0.937896 -0.340825 0.000000 
0.385608 -0.420020 0.000000 
0.141715 0.389208 0.000000 
-0.474677 0.389304 0.000000 
CELL_DATA 175 
SCALARS MASS float 
LOOKUP_TABLE default 
0.781831 
0.864274 
0.946717 
0.864274 
0.881307 
0.921110 
0.858535 
0.921110 
0.881307 
0.887046 
0.910001 
0.869829 
0.915556 
0.869829 
0.910001 
0.887046 
0.892784 
0.915740 
0.892784 
0.927218 
0.892784 
0.927218 
0.892784 
0.915740 
0.892784 
0.781831 
0.864274 
0.946717 
0.864274 
0.881307 
0.921110 
0.858535 
0.921110 
0.881307 
0.887046 
0.910001 
0.869829 
0.915556 
0.869829 
0.910001 
0.887046 
0.892784 
0.915740 
0.892784 
0.927218 
0.892784 
0.927218 
0.892784 
0.915740 
0.892784 
0.781831 
0.864274 
0.946717 
0.864274 
0.881307 
0.921110 
0.858535 
0.921110 
0.881307 
0.887046 
0.910001 
0.869829 
0.915556 
0.869829 
0.910001 
0.887046 
0.892784 
0.915740 
0.892784 
0.927218 
0.892784 
0.927218 
0.892784 
0.915740 
0.892784 
0.781831 
0.864274 
0.946717 
0.864274 
0.881307 
0.921110 
0.858535 
0.921110 
0.881307 
0.887046 
0.910001 
0.869829 
0.915556 
0.869829 
0.910001 
0.887046 
0.892784 
0.915740 
0.892784 
0.927218 
0.892784 
0.927218 
0.892784 
0.915740 
0.892784 
0.781831 
0.864274 
0.946717 
0.864274 
0.881307 
0.921110 
0.858535 
0.921110 
0.881307 
0.887046 
0.910001 
0.869829 
0.915556 
0.869829 
0.910001 
0.887046 
0.892784 
0.915740 
0.892784 
0.927218 
0.892784 
0.927218 
0.892784 
0.915740 
0.892784 
0.781831 
0.864274 
0.946717 
0.864274 
0.881307 
0.921110 
0.858535 
0.921110 
0.881307 
0.887046 
0.910001 
0.869829 
0.915556 
0.869829 
0.910001 
0.887046 
0.892784 
0.915740 
0.892784 
0.927218 
0.892784 
0.927218 
0.892784 
0.915740 
0.892784 
0.781831 
0.864274 
0.946717 
0.864274 
0.881307 
0.921110 
0.858535 
0.921110 
0.881307 
0.887046 
0.910001 
0.869829 
0.915556 
0.869829 
0.910001 
0.887046 
0.892784 
0.915740 
0.892784 
0.927218 
0.892784 
0.927218 
0.892784 
0.915740 
0.892784 
SCALARS MASS float 
LOOKUP_TABLE default 
0.781831 
0.864274 
0.946717 
0.864274 
0.881307 
0.921110 
0.858535 
0.921110 
0.881307 
0.887046 
0.910001 
0.869829 
0.915556 
0.869829 
0.910001 
0.887046 
0.892784 
0.915740 
0.892784 
0.927218 
0.892784 
0.927218 
0.892784 
0.915740 
0.892784 
0.781831 
0.864274 
0.946717 
0.864274 
0.881307 
0.921110 
0.858535 
0.921110 
0.881307 
0.887046 
0.910001 
0.869829 
0.915556 
0.869829 
0.910001 
0.887046 
0.892784 
0.915740 
0.892784 
0.927218 
0.892784 
0.927218 
0.892784 
0.915740 
0.892784 
0.781831 
0.864274 
0.946717 
0.864274 
0.881307 
0.921110 
0.858535 
0.921110 
0.881307 
0.887046 
0.910001 
0.869829 
0.915556 
0.869829 
0.910001 
0.887046 
0.892784 
0.915740 
0.892784 
0.927218 
0.892784 
0.927218 
0.892784 
0.915740 
0.892784 
0.781831 
0.864274 
0.946717 
0.864274 
0.881307 
0.921110 
0.858535 
0.921110 
0.881307 
0.887046 
0.910001 
0.869829 
0.915556 
0.869829 
0.910001 
0.887046 
0.892784 
0.915740 
0.892784 
0.927218 
0.892784 
0.927218 
0.892784 
0.915740 
0.892784 
0.781831 
0.864274 
0.946717 
0.864274 
0.881307 
0.921110 
0.858535 
0.921110 
0.881307 
0.887046 
0.910001 
0.869829 
0.915556 
0.869829 
0.910001 
0.887046 
0.892784 
0.915740 
0.892784 
0.927218 
0.892784 
0.927218 
0.892784 
0.915740 
0.892784 
0.781831 
0.864274 
0.946717 
0.864274 
0.881307 
0.921110 
0.858535 
0.921110 
0.881307 
0.887046 
0.910001 
0.869829 
0.915556 
0.869829 
0.910001 
0.887046 
0.892784 
0.915740 
0.892784 
0.927218 
0.892784 
0.927218 
0.892784 
0.915740 
0.892784 
0.781831 
0.864274 
0.946717 
0.864274 
0.881307 
0.921110 
0.858535 
0.921110 
0.881307 
0.887046 
0.910001 
0.869829 
0.915556 
0.869829 
0.910001 
0.887046 
0.892784 
0.915740 
0.892784 
0.927218 
0.892784 
0.927218 
0.892784 
0.915740 
0.892784 
SCALARS DENSITY float 
LOOKUP_TABLE default 
200.000000 
200.000000 
200.000000 
200.000000 
200.000000 
200.000000 
200.000000 
200.000000 
200.000000 
200.000000 
200.000000 
200.000000 
200.000000 
200.000000 
200.000000 
200.000000 
200.000000 
200.000000 
200.000000 
200.000000 
200.000000 
200.000000 
200.000000 
200.000000 
200.000000 
200.000000 
200.000000 
200.000000 
200.000000 
200.000000 
200.000000 
200.000000 
200.000000 
200.000000 
200.000000 
200.000000 
200.000000 
200.000000 
200.000000 
200.000000 
200.000000 
200.000000 
200.000000 
200.000000 
200.000000 
200.000000 
200.000000 
200.000000 
200.000000 
200.000000 
200.000000 
200.000000 
200.000000 
200.000000 
200.000000 
200.000000 
200.000000 
200.000000 
200.000000 
200.000000 
200.000000 
200.000000 
200.000000 
200.000000 
200.000000 
200.000000 
200.000000 
200.000000 
200.000000 
200.000000 
200.000000 
200.000000 
200.000000 
200.000000 
200.000000 
200.000000 
200.000000 
200.000000 
200.000000 
200.000000 
200.000000 
200.000000 
200.000000 
200.000000 
200.000000 
200.000000 
200.000000 
200.000000 
200.000000 
200.000000 
200.000000 
200.000000 
200.000000 
200.000000 
200.000000 
200.000000 
200.000000 
200.000000 
200.000000 
200.000000 
200.000000 
200.000000 
200.000000 
200.000000 
200.000000 
200.000000 
200.000000 
200.000000 
200.000000 
200.000000 
200.000000 
200.000000 
200.000000 
200.000000 
200.000000 
200.000000 
200.000000 
200.000000 
200.000000 
200.000000 
200.000000 
200.000000 
200.000000 
200.000000 
200.000000 
200.000000 
200.000000 
200.000000 
200.000000 
200.000000 
200.000000 
200.000000 
200.000000 
200.000000 
200.000000 
200.000000 
200.000000 
200.000000 
200.000000 
200.000000 
200.000000 
200.000000 
200.000000 
200.000000 
200.000000 
200.000000 
200.000000 
200.000000 
200.000000 
200.000000 
200.000000 
200.000000 
200.000000 
200.000000 
200.000000 
200.000000 
200.000000 
200.000000 
200.000000 
200.000000 
200.000000 
200.000000 
200.000000 
200.000000 
200.000000 
200.000000 
200.000000 
200.000000 
200.000000 
200.000000 
200.000000 
200.000000 
200.000000 
200.000000 
200.000000 
SCALARS ELEM_i float 
LOOKUP_TABLE default 
180 
208 
180 
181 
208 
208 
208 
181 
181 
235 
208 
209 
209 
209 
182 
182 
236 
236 
236 
209 
210 
209 
210 
183 
183 
180 
207 
207 
207 
233 
207 
234 
207 
208 
233 
234 
234 
234 
235 
235 
235 
260 
260 
261 
261 
261 
262 
262 
235 
235 
179 
206 
206 
206 
205 
206 
206 
206 
233 
205 
205 
232 
232 
232 
233 
233 
204 
231 
231 
232 
232 
232 
259 
260 
260 
179 
179 
179 
179 
151 
178 
178 
178 
205 
150 
151 
177 
177 
177 
205 
204 
150 
150 
150 
177 
177 
177 
204 
204 
204 
179 
152 
152 
152 
125 
152 
152 
152 
151 
125 
125 
124 
124 
124 
151 
151 
98 
98 
97 
124 
124 
124 
123 
123 
150 
180 
153 
153 
153 
154 
153 
126 
153 
125 
127 
127 
127 
126 
126 
126 
125 
127 
127 
100 
100 
99 
99 
99 
98 
98 
180 
181 
180 
154 
181 
181 
154 
154 
154 
182 
182 
155 
155 
155 
154 
127 
183 
183 
156 
155 
156 
155 
128 
128 
128 
VECTORS VELOCITY float 
0.000000 -2.442690 0.000000 
0.000000 -2.442690 0.000000 
0.000000 -2.442690 0.000000 
0.000000 -2.442690 0.000000 
0.000000 -2.442690 0.000000 
0.000000 -2.442690 0.000000 
0.000000 -2.442690 0.000000 
0.000000 -2.442690 0.000000 
0.000000 -2.442690 0.000000 
0.000000 -2.442690 0.000000 
0.000000 -2.442690 0.000000 
0.000000 -2.442690 0.000000 
0.000000 -2.442690 0.000000 
0.000000 -2.442690 0.000000 
0.000000 -2.442690 0.000000 
0.000000 -2.442690 0.000000 
0.000000 -2.442690 0.000000 
0.000000 -2.442690 0.000000 
-0.000000 -2.442690 0.000000 
-0.000000 -2.442690 0.000000 
0.000000 -2.442690 0.000000 
0.000000 -2.442690 0.000000 
0.000000 -2.442690 0.000000 
0.000000 -2.442690 0.000000 
-0.000000 -2.442690 0.000000 
0.000000 -2.442690 0.000000 
-0.000000 -2.442690 0.000000 
0.000000 -2.442690 0.000000 
0.000000 -2.442690 0.000000 
-0.000000 -2.442690 0.000000 
-0.000000 -2.442690 0.000000 
-0.000000 -2.442690 0.000000 
0.000000 -2.442690 0.000000 
0.000000 -2.442690 0.000000 
-0.000000 -2.442690 0.000000 
-0.000000 -2.442690 0.000000 
-0.000000 -2.442690 0.000000 
-0.000000 -2.442690 0.000000 
-0.000000 -2.442690 0.000000 
0.000000 -2.442690 0.000000 
0.000000 -2.442690 0.000000 
-0.000000 -2.442690 0.000000 
-0.000000 -2.442690 0.000000 
-0.000000 -2.442690 0.000000 
-0.000000 -2.442690 0.000000 
0.000000 -2.442690 0.000000 
0.000000 -2.442690 0.000000 
0.000000 -2.442690 0.000000 
0.000000 -2.442690 0.000000 
0.000000 -2.442690 0.000000 
-0.000000 -2.442690 0.000000 
-0.000000 -2.442690 0.000000 
0.000000 -2.442690 0.000000 
0.000000 -2.442690 0.000000 
0.000000 -2.442690 0.000000 
0.000000 -2.442690 0.000000 
0.000000 -2.442690 0.000000 
0.000000 -2.442690 0.000000 
0.000000 -2.442690 0.000000 
-0.000000 -2.442690 0.000000 
-0.000000 -2.442690 0.000000 
-0.000000 -2.442690 0.000000 
0.000000 -2.442690 0.000000 
-0.000000 -2.442690 0.000000 
-0.000000 -2.442690 0.000000 
-0.000000 -2.442690 0.000000 
-0.000000 -2.442690 0.000000 
-0.000000 -2.442690 0.000000 
-0.000000 -2.442690 0.000000 
-0.000000 -2.442690 0.000000 
-0.000000 -2.442690 0.000000 
-0.000000 -2.442690 0.000000 
-0.000000 -2.442690 0.000000 
-0.000000 -2.442690 0.000000 
-0.000000 -2.442690 0.000000 
-0.000000 -2.442690 0.000000 
0.000000 -2.442690 0.000000 
0.000000 -2.442690 0.000000 
-0.000000 -2.442690 0.000000 
0.000000 -2.442690 0.000000 
0.000000 -2.442690 0.000000 
0.000000 -2.442690 0.000000 
-0.000000 -2.442690 0.000000 
0.000000 -2.442690 0.000000 
-0.000000 -2.442690 0.000000 
-0.000000 -2.442690 0.000000 
0.000000 -2.442690 0.000000 
0.000000 -2.442690 0.000000 
0.000000 -2.442690 0.000000 
0.000000 -2.442690 0.000000 
0.000000 -2.442690 0.000000 
-0.000000 -2.442690 0.000000 
-0.000000 -2.442690 0.000000 
-0.000000 -2.442690 0.000000 
-0.000000 -2.442690 0.000000 
0.000000 -2.442690 0.000000 
0.000000 -2.442690 0.000000 
0.000000 -2.442690 0.000000 
0.000000 -2.442690 0.000000 
-0.000000 -2.442690 0.000000 
-0.000000 -2.442690 0.000000 
-0.000000 -2.442690 0.000000 
0.000000 -2.442690 0.000000 
0.000000 -2.442690 0.000000 
-0.000000 -2.442690 0.000000 
-0.000000 -2.442690 0.000000 
-0.000000 -2.442690 0.000000 
0.000000 -2.442690 0.000000 
0.000000 -2.442690 0.000000 
0.000000 -2.442690 0.000000 
0.000000 -2.442690 0.000000 
0.000000 -2.442690 0.000000 
0.000000 -2.442690 0.000000 
-0.000000 -2.442690 0.000000 
-0.000000 -2.442690 0.000000 
-0.000000 -2.442690 0.000000 
-0.000000 -2.442690 0.000000 
0.000000 -2.442690 0.000000 
-0.000000 -2.442690 0.000000 
-0.000000 -2.442690 0.000000 
0.000000 -2.442690 0.000000 
0.000000 -2.442690 0.000000 
-0.000000 -2.442690 0.000000 
-0.000000 -2.442690 0.000000 
-0.000000 -2.442690 0.000000 
0.000000 -2.442690 0.000000 
-0.000000 -2.442690 0.000000 
0.000000 -2.442690 0.000000 
-0.000000 -2.442690 0.000000 
-0.000000 -2.442690 0.000000 
-0.000000 -2.442690 0.000000 
-0.000000 -2.442690 0.000000 
-0.000000 -2.442690 0.000000 
-0.000000 -2.442690 0.000000 
-0.000000 -2.442690 0.000000 
-0.000000 -2.442690 0.000000 
-0.000000 -2.442690 0.000000 
-0.000000 -2.442690 0.000000 
-0.000000 -2.442690 0.000000 
-0.000000 -2.442690 0.000000 
0.000000 -2.442690 0.000000 
0.000000 -2.442690 0.000000 
-0.000000 -2.442690 0.000000 
0.000000 -2.442690 0.000000 
-0.000000 -2.442690 0.000000 
0.000000 -2.442690 0.000000 
-0.000000 -2.442690 0.000000 
-0.000000 -2.442690 0.000000 
-0.000000 -2.442690 0.000000 
-0.000000 -2.442690 0.000000 
0.000000 -2.442690 0.000000 
0.000000 -2.442690 0.000000 
0.000000 -2.442690 0.000000 
-0.000000 -2.442690 0.000000 
-0.000000 -2.442690 0.000000 
0.000000 -2.442690 0.000000 
-0.000000 -2.442690 0.000000 
-0.000000 -2.442690 0.000000 
-0.000000 -2.442690 0.000000 
0.000000 -2.442690 0.000000 
0.000000 -2.442690 0.000000 
-0.000000 -2.442690 0.000000 
-0.000000 -2.442690 0.000000 
-0.000000 -2.442690 0.000000 
-0.000000 -2.442690 0.000000 
-0.000000 -2.442690 0.000000 
0.000000 -2.442690 0.000000 
0.000000 -2.442690 0.000000 
-0.000000 -2.442690 0.000000 
0.000000 -2.442690 0.000000 
-0.000000 -2.442690 0.000000 
0.000000 -2.442690 0.000000 
-0.000000 -2.442690 0.000000 
0.000000 -2.442690 0.000000 
0.000000 -2.442690 0.000000 
TENSORS STRESS float 
0.000000 -0.000000 0.000000 
0.000000 0.000000 0.000000 
0.000000 0.000000 0.000000 

-0.000000 0.000000 0.000000 
0.000000 -0.000000 0.000000 
0.000000 0.000000 0.000000 

-0.000000 0.000000 0.000000 
0.000000 -0.000000 0.000000 
0.000000 0.000000 0.000000 

-0.000000 -0.000000 0.000000 
0.000000 -0.000000 0.000000 
0.000000 0.000000 0.000000 

0.000000 0.000000 0.000000 
0.000000 0.000000 0.000000 
0.000000 0.000000 0.000000 

-0.000000 0.000000 0.000000 
0.000000 -0.000000 0.000000 
0.000000 0.000000 0.000000 

0.000000 -0.000000 0.000000 
0.000000 0.000000 0.000000 
0.000000 0.000000 0.000000 

-0.000000 0.000000 0.000000 
0.000000 -0.000000 0.000000 
0.000000 0.000000 0.000000 

0.000000 -0.000000 0.000000 
0.000000 0.000000 0.000000 
0.000000 0.000000 0.000000 

-0.000000 0.000000 0.000000 
0.000000 -0.000000 0.000000 
0.000000 0.000000 0.000000 

-0.000000 0.000000 0.000000 
0.000000 -0.000000 0.000000 
0.000000 0.000000 0.000000 

-0.000000 0.000000 0.000000 
0.000000 -0.000000 0.000000 
0.000000 0.000000 0.000000 

-0.000000 0.000000 0.000000 
0.000000 -0.000000 0.000000 
0.000000 0.000000 0.000000 

-0.000000 0.000000 0.000000 
0.000000 -0.000000 0.000000 
0.000000 0.000000 0.000000 

-0.000000 -0.000000 0.000000 
0.000000 -0.000000 0.000000 
0.000000 0.000000 0.000000 

-0.000000 0.000000 0.000000 
0.000000 -0.000000 0.000000 
0.000000 0.000000 0.000000 

0.000000 -0.000000 0.000000 
0.000000 0.000000 0.000000 
0.000000 0.000000 0.000000 

-0.000000 -0.000000 0.000000 
0.000000 -0.000000 0.000000 
0.000000 0.000000 0.000000 

0.000000 -0.000000 0.000000 
0.000000 0.000000 0.000000 
0.000000 0.000000 0.000000 

-0.000000 -0.000000 0.000000 
0.000000 -0.000000 0.000000 
0.000000 0.000000 0.000000 

-0.000000 -0.000000 0.000000 
0.000000 -0.000000 0.000000 
0.000000 0.000000 0.000000 

-0.000000 -0.000000 0.000000 
0.000000 -0.000000 0.000000 
0.000000 0.000000 0.000000 

0.000000 -0.000000 0.000000 
0.000000 0.000000 0.000000 
0.000000 0.000000 0.000000 

0.000000 -0.000000 0.000000 
0.000000 0.000000 0.000000 
0.000000 0.000000 0.000000 

0.000000 -0.000000 0.000000 
0.000000 0.000000 0.000000 
0.000000 0.000000 0.000000 

-0.000000 0.000000 0.000000 
0.000000 -0.000000 0.000000 
0.000000 0.000000 0.000000 

0.000000 0.000000 0.000000 
0.000000 0.000000 0.000000 
0.000000 0.000000 0.000000 

0.000000 0.000000 0.000000 
0.000000 0.000000 0.000000 
0.000000 0.000000 0.000000 

0.000000 0.000000 0.000000 
0.000000 0.000000 0.000000 
0.000000 0.000000 0.000000 

0.000000 0.000000 0.000000 
0.000000 0.000000 0.000000 
0.000000 0.000000 0.000000 

-0.000000 0.000000 0.000000 
0.000000 -0.000000 0.000000 
0.000000 0.000000 0.000000 

0.000000 0.000000 0.000000 
0.000000 0.000000 0.000000 
0.000000 0.000000 0.000000 

-0.000000 0.000000 0.000000 
0.000000 -0.000000 0.000000 
0.000000 0.000000 0.000000 

0.000000 0.000000 0.000000 
0.000000 0.000000 0.000000 
0.000000 0.000000 0.000000 

-0.000000 0.000000 0.000000 
0.000000 -0.000000 0.000000 
0.000000 0.000000 0.000000 

0.000000 0.000000 0.000000 
0.000000 0.000000 0.000000 
0.000000 0.000000 0.000000 

0.000000 0.000000 0.000000 
0.000000 0.000000 0.000000 
0.000000 0.000000 0.000000 

-0.000000 0.000000 0.000000 
0.000000 -0.000000 0.000000 
0.000000 0.000000 0.000000 

-0.000000 0.000000 0.000000 
0.000000 -0.000000 0.000000 
0.000000 0.000000 0.000000 

-0.000000 0.000000 0.000000 
0.000000 -0.000000 0.000000 
0.000000 0.000000 0.000000 

0.000000 0.000000 0.000000 
0.000000 0.000000 0.000000 
0.000000 0.000000 0.000000 

-0.000000 -0.000000 0.000000 
0.000000 -0.000000 0.000000 
0.000000 0.000000 0.000000 

0.000000 0.000000 0.000000 
0.000000 0.000000 0.000000 
0.000000 0.000000 0.000000 

0.000000 -0.000000 0.000000 
0.000000 0.000000 0.000000 
0.000000 0.000000 0.000000 

-0.000000 -0.000000 0.000000 
0.000000 -0.000000 0.000000 
0.000000 0.000000 0.000000 

-0.000000 -0.000000 0.000000 
0.000000 -0.000000 0.000000 
0.000000 0.000000 0.000000 

0.000000 -0.000000 0.000000 
0.000000 0.000000 0.000000 
0.000000 0.000000 0.000000 

0.000000 -0.000000 0.000000 
0.000000 -0.000000 0.000000 
0.000000 0.000000 0.000000 

-0.000000 0.000000 0.000000 
0.000000 -0.000000 0.000000 
0.000000 0.000000 0.000000 

0.000000 -0.000000 0.000000 
0.000000 0.000000 0.000000 
0.000000 0.000000 0.000000 

0.000000 -0.000000 0.000000 
0.000000 0.000000 0.000000 
0.000000 0.000000 0.000000 

0.000000 0.000000 0.000000 
0.000000 0.000000 0.000000 
0.000000 0.000000 0.000000 

0.000000 0.000000 0.000000 
0.000000 0.000000 0.000000 
0.000000 0.000000 0.000000 

0.000000 0.000000 0.000000 
0.000000 0.000000 0.000000 
0.000000 0.000000 0.000000 

0.000000 -0.000000 0.000000 
0.000000 0.000000 0.000000 
0.000000 0.000000 0.000000 

0.000000 0.000000 0.000000 
0.000000 0.000000 0.000000 
0.000000 0.000000 0.000000 

0.000000 0.000000 0.000000 
0.000000 0.000000 0.000000 
0.000000 0.000000 0.000000 

0.000000 -0.000000 0.000000 
0.000000 0.000000 0.000000 
0.000000 0.000000 0.000000 

0.000000 0.000000 0.000000 
0.000000 0.000000 0.000000 
0.000000 0.000000 0.000000 

-0.000000 0.000000 0.000000 
0.000000 -0.000000 0.000000 
0.000000 0.000000 0.000000 

0.000000 -0.000000 0.000000 
0.000000 0.000000 0.000000 
0.000000 0.000000 0.000000 

0.000000 -0.000000 0.000000 
0.000000 0.000000 0.000000 
0.000000 0.000000 0.000000 

-0.000000 -0.000000 0.000000 
0.000000 -0.000000 0.000000 
0.000000 0.000000 0.000000 

-0.000000 -0.000000 0.000000 
0.000000 -0.000000 0.000000 
0.000000 0.000000 0.000000 

0.000000 -0.000000 0.000000 
0.000000 0.000000 0.000000 
0.000000 0.000000 0.000000 

-0.000000 -0.000000 0.000000 
0.000000 -0.000000 0.000000 
0.000000 0.000000 0.000000 

0.000000 0.000000 0.000000 
0.000000 0.000000 0.000000 
0.000000 0.000000 0.000000 

0.000000 -0.000000 0.000000 
0.000000 0.000000 0.000000 
0.000000 0.000000 0.000000 

0.000000 -0.000000 0.000000 
0.000000 0.000000 0.000000 
0.000000 0.000000 0.000000 

0.000000 -0.000000 0.000000 
0.000000 0.000000 0.000000 
0.000000 0.000000 0.000000 

0.000000 0.000000 0.000000 
0.000000 0.000000 0.000000 
0.000000 0.000000 0.000000 

0.000000 -0.000000 0.000000 
0.000000 0.000000 0.000000 
0.000000 0.000000 0.000000 

0.000000 0.000000 0.000000 
0.000000 0.000000 0.000000 
0.000000 0.000000 0.000000 

-0.000000 -0.000000 0.000000 
0.000000 -0.000000 0.000000 
0.000000 0.000000 0.000000 

0.000000 -0.000000 0.000000 
0.000000 0.000000 0.000000 
0.000000 0.000000 0.000000 

-0.000000 0.000000 0.000000 
0.000000 -0.000000 0.000000 
0.000000 0.000000 0.000000 

0.000000 0.000000 0.000000 
0.000000 0.000000 0.000000 
0.000000 0.000000 0.000000 

-0.000000 0.000000 0.000000 
0.000000 -0.000000 0.000000 
0.000000 0.000000 0.000000 

0.000000 0.000000 0.000000 
0.000000 0.000000 0.000000 
0.000000 0.000000 0.000000 

-0.000000 -0.000000 0.000000 
0.000000 -0.000000 0.000000 
0.000000 0.000000 0.000000 

-0.000000 -0.000000 0.000000 
0.000000 -0.000000 0.000000 
0.000000 0.000000 0.000000 

0.000000 -0.000000 0.000000 
0.000000 0.000000 0.000000 
0.000000 0.000000 0.000000 

0.000000 -0.000000 0.000000 
0.000000 0.000000 0.000000 
0.000000 0.000000 0.000000 

0.000000 0.000000 0.000000 
0.000000 0.000000 0.000000 
0.000000 0.000000 0.000000 

0.000000 -0.000000 0.000000 
0.000000 0.000000 0.000000 
0.000000 0.000000 0.000000 

0.000000 -0.000000 0.000000 
0.000000 0.000000 0.000000 
0.000000 0.000000 0.000000 

0.000000 0.000000 0.000000 
0.000000 0.000000 0.000000 
0.000000 0.000000 0.000000 

0.000000 0.000000 0.000000 
0.000000 0.000000 0.000000 
0.000000 0.000000 0.000000 

0.000000 0.000000 0.000000 
0.000000 -0.000000 0.000000 
0.000000 0.000000 0.000000 

0.000000 -0.000000 0.000000 
0.000000 0.000000 0.000000 
0.000000 0.000000 0.000000 

0.000000 -0.000000 0.000000 
0.000000 0.000000 0.000000 
0.000000 0.000000 0.000000 

0.000000 -0.000000 0.000000 
0.000000 0.000000 0.000000 
0.000000 0.000000 0.000000 

0.000000 -0.000000 0.000000 
0.000000 0.000000 0.000000 
0.000000 0.000000 0.000000 

0.000000 -0.000000 0.000000 
0.000000 0.000000 0.000000 
0.000000 0.000000 0.000000 

0.000000 -0.000000 0.000000 
0.000000 0.000000 0.000000 
0.000000 0.000000 0.000000 

0.000000 -0.000000 0.000000 
0.000000 0.000000 0.000000 
0.000000 0.000000 0.000000 

-0.000000 -0.000000 0.000000 
0.000000 -0.000000 0.000000 
0.000000 0.000000 0.000000 

-0.000000 -0.000000 0.000000 
0.000000 -0.000000 0.000000 
0.000000 0.000000 0.000000 

0.000000 -0.000000 0.000000 
0.000000 0.000000 0.000000 
0.000000 0.000000 0.000000 

-0.000000 -0.000000 0.000000 
0.000000 -0.000000 0.000000 
0.000000 0.000000 0.000000 

0.000000 0.000000 0.000000 
0.000000 0.000000 0.000000 
0.000000 0.000000 0.000000 

-0.000000 0.000000 0.000000 
0.000000 -0.000000 0.000000 
0.000000 0.000000 0.000000 

-0.000000 0.000000 0.000000 
0.000000 -0.000000 0.000000 
0.000000 0.000000 0.000000 

0.000000 0.000000 0.000000 
0.000000 0.000000 0.000000 
0.000000 0.000000 0.000000 

-0.000000 0.000000 0.000000 
0.000000 -0.000000 0.000000 
0.000000 0.000000 0.000000 

0.000000 0.000000 0.000000 
0.000000 0.000000 0.000000 
0.000000 0.000000 0.000000 

0.000000 0.000000 0.000000 
0.000000 0.000000 0.000000 
0.000000 0.000000 0.000000 

-0.000000 0.000000 0.000000 
0.000000 -0.000000 0.000000 
0.000000 0.000000 0.000000 

-0.000000 -0.000000 0.000000 
0.000000 -0.000000 0.000000 
0.000000 0.000000 0.000000 

0.000000 0.000000 0.000000 
0.000000 0.000000 0.000000 
0.000000 0.000000 0.000000 

0.000000 0.000000 0.000000 
0.000000 0.000000 0.000000 
0.000000 0.000000 0.000000 

-0.000000 0.000000 0.000000 
0.000000 -0.000000 0.000000 
0.000000 0.000000 0.000000 

0.000000 0.000000 0.000000 
0.000000 0.000000 0.000000 
0.000000 0.000000 0.000000 

-0.000000 -0.000000 0.000000 
0.000000 -0.000000 0.000000 
0.000000 0.000000 0.000000 

0.000000 -0.000000 0.000000 
0.000000 -0.000000 0.000000 
0.000000 0.000000 0.000000 

0.000000 -0.000000 0.000000 
0.000000 0.000000 0.000000 
0.000000 0.000000 0.000000 

-0.000000 -0.000000 0.000000 
0.000000 -0.000000 0.000000 
0.000000 0.000000 0.000000 

0.000000 0.000000 0.000000 
0.000000 0.000000 0.000000 
0.000000 0.000000 0.000000 

0.000000 0.000000 0.000000 
0.000000 0.000000 0.000000 
0.000000 0.000000 0.000000 

0.000000 -0.000000 0.000000 
0.000000 0.000000 0.000000 
0.000000 0.000000 0.000000 

-0.000000 0.000000 0.000000 
0.000000 -0.000000 0.000000 
0.000000 0.000000 0.000000 

0.000000 0.000000 0.000000 
0.000000 0.000000 0.000000 
0.000000 0.000000 0.000000 

-0.000000 -0.000000 0.000000 
0.000000 -0.000000 0.000000 
0.000000 0.000000 0.000000 

0.000000 -0.000000 0.000000 
0.000000 0.000000 0.000000 
0.000000 0.000000 0.000000 

0.000000 0.000000 0.000000 
0.000000 0.000000 0.000000 
0.000000 0.000000 0.000000 

0.000000 0.000000 0.000000 
0.000000 0.000000 0.000000 
0.000000 0.000000 0.000000 

-0.000000 -0.000000 0.000000 
0.000000 -0.000000 0.000000 
0.000000 0.000000 0.000000 

0.000000 0.000000 0.000000 
0.000000 0.000000 0.000000 
0.000000 0.000000 0.000000 

-0.000000 0.000000 0.000000 
0.000000 -0.000000 0.000000 
0.000000 0.000000 0.000000 

0.000000 -0.000000 0.000000 
0.000000 0.000000 0.000000 
0.000000 0.000000 0.000000 

-0.000000 -0.000000 0.000000 
0.000000 -0.000000 0.000000 
0.000000 0.000000 0.000000 

-0.000000 0.000000 0.000000 
0.000000 -0.000000 0.000000 
0.000000 0.000000 0.000000 

-0.000000 0.000000 0.000000 
0.000000 -0.000000 0.000000 
0.000000 0.000000 0.000000 

-0.000000 0.000000 0.000000 
0.000000 -0.000000 0.000000 
0.000000 0.000000 0.000000 

0.000000 -0.000000 0.000000 
0.000000 0.000000 0.000000 
0.000000 0.000000 0.000000 

0.000000 -0.000000 0.000000 
0.000000 0.000000 0.000000 
0.000000 0.000000 0.000000 

0.000000 -0.000000 0.000000 
0.000000 0.000000 0.000000 
0.000000 0.000000 0.000000 

-0.000000 -0.000000 0.000000 
0.000000 -0.000000 0.000000 
0.000000 0.000000 0.000000 

-0.000000 0.000000 0.000000 
0.000000 -0.000000 0.000000 
0.000000 0.000000 0.000000 

-0.000000 0.000000 0.000000 
0.000000 -0.000000 0.000000 
0.000000 0.000000 0.000000 

0.000000 0.000000 0.000000 
0.000000 0.000000 0.000000 
0.000000 0.000000 0.000000 

-0.000000 0.000000 0.000000 
0.000000 -0.000000 0.000000 
0.000000 0.000000 0.000000 

0.000000 0.000000 0.000000 
0.000000 0.000000 0.000000 
0.000000 0.000000 0.000000 

0.000000 0.000000 0.000000 
0.000000 0.000000 0.000000 
0.000000 0.000000 0.000000 

0.000000 0.000000 0.000000 
0.000000 0.000000 0.000000 
0.000000 0.000000 0.000000 

0.000000 0.000000 0.000000 
0.000000 0.000000 0.000000 
0.000000 0.000000 0.000000 

0.000000 0.000000 0.000000 
0.000000 0.000000 0.000000 
0.000000 0.000000 0.000000 

0.000000 0.000000 0.000000 
0.000000 0.000000 0.000000 
0.000000 0.000000 0.000000 

0.000000 -0.000000 0.000000 
0.000000 0.000000 0.000000 
0.000000 0.000000 0.000000 

0.000000 -0.000000 0.000000 
0.000000 -0.000000 0.000000 
0.000000 0.000000 0.000000 

0.000000 0.000000 0.000000 
0.000000 0.000000 0.000000 
0.000000 0.000000 0.000000 

-0.000000 -0.000000 0.000000 
0.000000 -0.000000 0.000000 
0.000000 0.000000 0.000000 

0.000000 -0.000000 0.000000 
0.000000 0.000000 0.000000 
0.000000 0.000000 0.000000 

-0.000000 -0.000000 0.000000 
0.000000 -0.000000 0.000000 
0.000000 0.000000 0.000000 

0.000000 -0.000000 0.000000 
0.000000 0.000000 0.000000 
0.000000 0.000000 0.000000 

-0.000000 0.000000 0.000000 
0.000000 -0.000000 0.000000 
0.000000 0.000000 0.000000 

-0.000000 0.000000 0.000000 
0.000000 -0.000000 0.000000 
0.000000 0.000000 0.000000 

-0.000000 -0.000000 0.000000 
0.000000 0.000000 0.000000 
0.000000 0.000000 0.000000 

-0.000000 -0.000000 0.000000 
0.000000 0.000000 0.000000 
0.000000 0.000000 0.000000 

-0.000000 -0.000000 0.000000 
0.000000 -0.000000 0.000000 
0.000000 0.000000 0.000000 

-0.000000 -0.000000 0.000000 
0.000000 -0.000000 0.000000 
0.000000 0.000000 0.000000 

-0.000000 0.000000 0.000000 
0.000000 0.000000 0.000000 
0.000000 0.000000 0.000000 

-0.000000 0.000000 0.000000 
0.000000 -0.000000 0.000000 
0.000000 0.000000 0.000000 

0.000000 0.000000 0.000000 
0.000000 0.000000 0.000000 
0.000000 0.000000 0.000000 

-0.000000 -0.000000 0.000000 
0.000000 -0.000000 0.000000 
0.000000 0.000000 0.000000 

-0.000000 0.000000 0.000000 
0.000000 -0.000000 0.000000 
0.000000 0.000000 0.000000 

-0.000000 0.000000 0.000000 
0.000000 -0.000000 0.000000 
0.000000 0.000000 0.000000 

-0.000000 -0.000000 0.000000 
0.000000 0.000000 0.000000 
0.000000 0.000000 0.000000 

0.000000 -0.000000 0.000000 
0.000000 0.000000 0.000000 
0.000000 0.000000 0.000000 

-0.000000 0.000000 0.000000 
0.000000 -0.000000 0.000000 
0.000000 0.000000 0.000000 

-0.000000 -0.000000 0.000000 
0.000000 -0.000000 0.000000 
0.000000 0.000000 0.000000 

-0.000000 0.000000 0.000000 
0.000000 -0.000000 0.000000 
0.000000 0.000000 0.000000 

0.000000 -0.000000 0.000000 
0.000000 0.000000 0.000000 
0.000000 0.000000 0.000000 

0.000000 0.000000 0.000000 
0.000000 0.000000 0.000000 
0.000000 0.000000 0.000000 

-0.000000 0.000000 0.000000 
0.000000 -0.000000 0.000000 
0.000000 0.000000 0.000000 

TENSORS STRAIN float 
0.000000 -0.000000 0.000000 
0.000000 -0.000000 0.000000 
0.000000 0.000000 0.000000 

-0.000000 0.000000 0.000000 
0.000000 -0.000000 0.000000 
0.000000 0.000000 0.000000 

0.000000 0.000000 0.000000 
0.000000 -0.000000 0.000000 
0.000000 0.000000 0.000000 

0.000000 -0.000000 0.000000 
0.000000 -0.000000 0.000000 
0.000000 0.000000 0.000000 

-0.000000 0.000000 0.000000 
0.000000 0.000000 0.000000 
0.000000 0.000000 0.000000 

-0.000000 0.000000 0.000000 
0.000000 -0.000000 0.000000 
0.000000 0.000000 0.000000 

-0.000000 -0.000000 0.000000 
0.000000 0.000000 0.000000 
0.000000 0.000000 0.000000 

-0.000000 0.000000 0.000000 
0.000000 -0.000000 0.000000 
0.000000 0.000000 0.000000 

-0.000000 -0.000000 0.000000 
0.000000 0.000000 0.000000 
0.000000 0.000000 0.000000 

-0.000000 0.000000 0.000000 
0.000000 0.000000 0.000000 
0.000000 0.000000 0.000000 

-0.000000 0.000000 0.000000 
0.000000 -0.000000 0.000000 
0.000000 0.000000 0.000000 

-0.000000 0.000000 0.000000 
0.000000 -0.000000 0.000000 
0.000000 0.000000 0.000000 

-0.000000 0.000000 0.000000 
0.000000 0.000000 0.000000 
0.000000 0.000000 0.000000 

-0.000000 0.000000 0.000000 
0.000000 0.000000 0.000000 
0.000000 0.000000 0.000000 

-0.000000 -0.000000 0.000000 
0.000000 0.000000 0.000000 
0.000000 0.000000 0.000000 

-0.000000 0.000000 0.000000 
0.000000 0.000000 0.000000 
0.000000 0.000000 0.000000 

-0.000000 -0.000000 0.000000 
0.000000 0.000000 0.000000 
0.000000 0.000000 0.000000 

-0.000000 -0.000000 0.000000 
0.000000 0.000000 0.000000 
0.000000 0.000000 0.000000 

0.000000 -0.000000 0.000000 
0.000000 -0.000000 0.000000 
0.000000 0.000000 0.000000 

-0.000000 -0.000000 0.000000 
0.000000 0.000000 0.000000 
0.000000 0.000000 0.000000 

-0.000000 -0.000000 0.000000 
0.000000 0.000000 0.000000 
0.000000 0.000000 0.000000 

-0.000000 -0.000000 0.000000 
0.000000 -0.000000 0.000000 
0.000000 0.000000 0.000000 

-0.000000 -0.000000 0.000000 
0.000000 0.000000 0.000000 
0.000000 0.000000 0.000000 

-0.000000 -0.000000 0.000000 
0.000000 0.000000 0.000000 
0.000000 0.000000 0.000000 

-0.000000 -0.000000 0.000000 
0.000000 0.000000 0.000000 
0.000000 0.000000 0.000000 

0.000000 0.000000 0.000000 
0.000000 -0.000000 0.000000 
0.000000 0.000000 0.000000 

0.000000 0.000000 0.000000 
0.000000 -0.000000 0.000000 
0.000000 0.000000 0.000000 

0.000000 0.000000 0.000000 
0.000000 0.000000 0.000000 
0.000000 0.000000 0.000000 

-0.000000 0.000000 0.000000 
0.000000 0.000000 0.000000 
0.000000 0.000000 0.000000 

0.000000 0.000000 0.000000 
0.000000 -0.000000 0.000000 
0.000000 0.000000 0.000000 

0.000000 0.000000 0.000000 
0.000000 -0.000000 0.000000 
0.000000 0.000000 0.000000 

0.000000 0.000000 0.000000 
0.000000 0.000000 0.000000 
0.000000 0.000000 0.000000 

-0.000000 0.000000 0.000000 
0.000000 -0.000000 0.000000 
0.000000 0.000000 0.000000 

-0.000000 0.000000 0.000000 
0.000000 0.000000 0.000000 
0.000000 0.000000 0.000000 

0.000000 0.000000 0.000000 
0.000000 -0.000000 0.000000 
0.000000 0.000000 0.000000 

0.000000 0.000000 0.000000 
0.000000 0.000000 0.000000 
0.000000 0.000000 0.000000 

0.000000 0.000000 0.000000 
0.000000 0.000000 0.000000 
0.000000 0.000000 0.000000 

0.000000 0.000000 0.000000 
0.000000 -0.000000 0.000000 
0.000000 0.000000 0.000000 

-0.000000 0.000000 0.000000 
0.000000 -0.000000 0.000000 
0.000000 0.000000 0.000000 

-0.000000 0.000000 0.000000 
0.000000 0.000000 0.000000 
0.000000 0.000000 0.000000 

-0.000000 0.000000 0.000000 
0.000000 0.000000 0.000000 
0.000000 0.000000 0.000000 

-0.000000 -0.000000 0.000000 
0.000000 0.000000 0.000000 
0.000000 0.000000 0.000000 

-0.000000 0.000000 0.000000 
0.000000 0.000000 0.000000 
0.000000 0.000000 0.000000 

-0.000000 -0.000000 0.000000 
0.000000 0.000000 0.000000 
0.000000 0.000000 0.000000 

-0.000000 -0.000000 0.000000 
0.000000 0.000000 0.000000 
0.000000 0.000000 0.000000 

-0.000000 -0.000000 0.000000 
0.000000 0.000000 0.000000 
0.000000 0.000000 0.000000 

0.000000 -0.000000 0.000000 
0.000000 0.000000 0.000000 
0.000000 0.000000 0.000000 

0.000000 -0.000000 0.000000 
0.000000 -0.000000 0.000000 
0.000000 0.000000 0.000000 

-0.000000 0.000000 0.000000 
0.000000 0.000000 0.000000 
0.000000 0.000000 0.000000 

-0.000000 -0.000000 0.000000 
0.000000 0.000000 0.000000 
0.000000 0.000000 0.000000 

-0.000000 -0.000000 0.000000 
0.000000 0.000000 0.000000 
0.000000 0.000000 0.000000 

0.000000 0.000000 0.000000 
0.000000 0.000000 0.000000 
0.000000 0.000000 0.000000 

0.000000 0.000000 0.000000 
0.000000 0.000000 0.000000 
0.000000 0.000000 0.000000 

0.000000 0.000000 0.000000 
0.000000 -0.000000 0.000000 
0.000000 0.000000 0.000000 

-0.000000 -0.000000 0.000000 
0.000000 0.000000 0.000000 
0.000000 0.000000 0.000000 

-0.000000 0.000000 0.000000 
0.000000 0.000000 0.000000 
0.000000 0.000000 0.000000 

-0.000000 0.000000 0.000000 
0.000000 0.000000 0.000000 
0.000000 0.000000 0.000000 

0.000000 -0.000000 0.000000 
0.000000 -0.000000 0.000000 
0.000000 0.000000 0.000000 

0.000000 0.000000 0.000000 
0.000000 -0.000000 0.000000 
0.000000 0.000000 0.000000 

-0.000000 0.000000 0.000000 
0.000000 0.000000 0.000000 
0.000000 0.000000 0.000000 

-0.000000 -0.000000 0.000000 
0.000000 0.000000 0.000000 
0.000000 0.000000 0.000000 

-0.000000 -0.000000 0.000000 
0.000000 0.000000 0.000000 
0.000000 0.000000 0.000000 

-0.000000 -0.000000 0.000000 
0.000000 0.000000 0.000000 
0.000000 0.000000 0.000000 

-0.000000 -0.000000 0.000000 
0.000000 0.000000 0.000000 
0.000000 0.000000 0.000000 

0.000000 -0.000000 0.000000 
0.000000 -0.000000 0.000000 
0.000000 0.000000 0.000000 

0.000000 -0.000000 0.000000 
0.000000 -0.000000 0.000000 
0.000000 0.000000 0.000000 

0.000000 0.000000 0.000000 
0.000000 0.000000 0.000000 
0.000000 0.000000 0.000000 

0.000000 -0.000000 0.000000 
0.000000 -0.000000 0.000000 
0.000000 0.000000 0.000000 

-0.000000 -0.000000 0.000000 
0.000000 0.000000 0.000000 
0.000000 0.000000 0.000000 

-0.000000 -0.000000 0.000000 
0.000000 0.000000 0.000000 
0.000000 0.000000 0.000000 

-0.000000 0.000000 0.000000 
0.000000 0.000000 0.000000 
0.000000 0.000000 0.000000 

-0.000000 -0.000000 0.000000 
0.000000 0.000000 0.000000 
0.000000 0.000000 0.000000 

0.000000 0.000000 0.000000 
0.000000 -0.000000 0.000000 
0.000000 0.000000 0.000000 

0.000000 -0.000000 0.000000 
0.000000 -0.000000 0.000000 
0.000000 0.000000 0.000000 

0.000000 -0.000000 0.000000 
0.000000 -0.000000 0.000000 
0.000000 0.000000 0.000000 

-0.000000 0.000000 0.000000 
0.000000 -0.000000 0.000000 
0.000000 0.000000 0.000000 

0.000000 0.000000 0.000000 
0.000000 0.000000 0.000000 
0.000000 0.000000 0.000000 

0.000000 0.000000 0.000000 
0.000000 -0.000000 0.000000 
0.000000 0.000000 0.000000 

0.000000 0.000000 0.000000 
0.000000 0.000000 0.000000 
0.000000 0.000000 0.000000 

0.000000 -0.000000 0.000000 
0.000000 -0.000000 0.000000 
0.000000 0.000000 0.000000 

0.000000 -0.000000 0.000000 
0.000000 -0.000000 0.000000 
0.000000 0.000000 0.000000 

0.000000 -0.000000 0.000000 
0.000000 0.000000 0.000000 
0.000000 0.000000 0.000000 

0.000000 -0.000000 0.000000 
0.000000 0.000000 0.000000 
0.000000 0.000000 0.000000 

-0.000000 0.000000 0.000000 
0.000000 0.000000 0.000000 
0.000000 0.000000 0.000000 

0.000000 -0.000000 0.000000 
0.000000 -0.000000 0.000000 
0.000000 0.000000 0.000000 

0.000000 -0.000000 0.000000 
0.000000 -0.000000 0.000000 
0.000000 0.000000 0.000000 

0.000000 0.000000 0.000000 
0.000000 0.000000 0.000000 
0.000000 0.000000 0.000000 

0.000000 0.000000 0.000000 
0.000000 0.000000 0.000000 
0.000000 0.000000 0.000000 

0.000000 0.000000 0.000000 
0.000000 -0.000000 0.000000 
0.000000 0.000000 0.000000 

-0.000000 -0.000000 0.000000 
0.000000 0.000000 0.000000 
0.000000 0.000000 0.000000 

-0.000000 -0.000000 0.000000 
0.000000 0.000000 0.000000 
0.000000 0.000000 0.000000 

0.000000 -0.000000 0.000000 
0.000000 0.000000 0.000000 
0.000000 0.000000 0.000000 

0.000000 -0.000000 0.000000 
0.000000 -0.000000 0.000000 
0.000000 0.000000 0.000000 

0.000000 -0.000000 0.000000 
0.000000 -0.000000 0.000000 
0.000000 0.000000 0.000000 

0.000000 -0.000000 0.000000 
0.000000 0.000000 0.000000 
0.000000 0.000000 0.000000 

0.000000 -0.000000 0.000000 
0.000000 0.000000 0.000000 
0.000000 0.000000 0.000000 

0.000000 -0.000000 0.000000 
0.000000 -0.000000 0.000000 
0.000000 0.000000 0.000000 

0.000000 -0.000000 0.000000 
0.000000 -0.000000 0.000000 
0.000000 0.000000 0.000000 

0.000000 -0.000000 0.000000 
0.000000 -0.000000 0.000000 
0.000000 0.000000 0.000000 

0.000000 -0.000000 0.000000 
0.000000 -0.000000 0.000000 
0.000000 0.000000 0.000000 

-0.000000 0.000000 0.000000 
0.000000 0.000000 0.000000 
0.000000 0.000000 0.000000 

-0.000000 0.000000 0.000000 
0.000000 -0.000000 0.000000 
0.000000 0.000000 0.000000 

-0.000000 0.000000 0.000000 
0.000000 -0.000000 0.000000 
0.000000 0.000000 0.000000 

-0.000000 0.000000 0.000000 
0.000000 0.000000 0.000000 
0.000000 0.000000 0.000000 

0.000000 0.000000 0.000000 
0.000000 -0.000000 0.000000 
0.000000 0.000000 0.000000 

-0.000000 0.000000 0.000000 
0.000000 0.000000 0.000000 
0.000000 0.000000 0.000000 

-0.000000 0.000000 0.000000 
0.000000 0.000000 0.000000 
0.000000 0.000000 0.000000 

0.000000 0.000000 0.000000 
0.000000 -0.000000 0.000000 
0.000000 0.000000 0.000000 

0.000000 -0.000000 0.000000 
0.000000 -0.000000 0.000000 
0.000000 0.000000 0.000000 

0.000000 0.000000 0.000000 
0.000000 -0.000000 0.000000 
0.000000 0.000000 0.000000 

0.000000 0.000000 0.000000 
0.000000 0.000000 0.000000 
0.000000 0.000000 0.000000 

0.000000 0.000000 0.000000 
0.000000 -0.000000 0.000000 
0.000000 0.000000 0.000000 

0.000000 0.000000 0.000000 
0.000000 -0.000000 0.000000 
0.000000 0.000000 0.000000 

0.000000 -0.000000 0.000000 
0.000000 -0.000000 0.000000 
0.000000 0.000000 0.000000 

0.000000 -0.000000 0.000000 
0.000000 -0.000000 0.000000 
0.000000 0.000000 0.000000 

0.000000 -0.000000 0.000000 
0.000000 -0.000000 0.000000 
0.000000 0.000000 0.000000 

0.000000 -0.000000 0.000000 
0.000000 -0.000000 0.000000 
0.000000 0.000000 0.000000 

0.000000 0.000000 0.000000 
0.000000 0.000000 0.000000 
0.000000 0.000000 0.000000 

0.000000 0.000000 0.000000 
0.000000 0.000000 0.000000 
0.000000 0.000000 0.000000 

0.000000 -0.000000 0.000000 
0.000000 0.000000 0.000000 
0.000000 0.000000 0.000000 

0.000000 0.000000 0.000000 
0.000000 -0.000000 0.000000 
0.000000 0.000000 0.000000 

0.000000 0.000000 0.000000 
0.000000 -0.000000 0.000000 
0.000000 0.000000 0.000000 

0.000000 -0.000000 0.000000 
0.000000 -0.000000 0.000000 
0.000000 0.000000 0.000000 

0.000000 -0.000000 0.000000 
0.000000 -0.000000 0.000000 
0.000000 0.000000 0.000000 

0.000000 0.000000 0.000000 
0.000000 -0.000000 0.000000 
0.000000 0.000000 0.000000 

0.000000 0.000000 0.000000 
0.000000 -0.000000 0.000000 
0.000000 0.000000 0.000000 

-0.000000 -0.000000 0.000000 
0.000000 0.000000 0.000000 
0.000000 0.000000 0.000000 

-0.000000 0.000000 0.000000 
0.000000 0.000000 0.000000 
0.000000 0.000000 0.000000 

-0.000000 0.000000 0.000000 
0.000000 -0.000000 0.000000 
0.000000 0.000000 0.000000 

-0.000000 -0.000000 0.000000 
0.000000 0.000000 0.000000 
0.000000 0.000000 0.000000 

-0.000000 -0.000000 0.000000 
0.000000 0.000000 0.000000 
0.000000 0.000000 0.000000 

0.000000 0.000000 0.000000 
0.000000 -0.000000 0.000000 
0.000000 0.000000 0.000000 

-0.000000 0.000000 0.000000 
0.000000 -0.000000 0.000000 
0.000000 0.000000 0.000000 

0.000000 0.000000 0.000000 
0.000000 -0.000000 0.000000 
0.000000 0.000000 0.000000 

-0.000000 -0.000000 0.000000 
0.000000 0.000000 0.000000 
0.000000 0.000000 0.000000 

0.000000 -0.000000 0.000000 
0.000000 0.000000 0.000000 
0.000000 0.000000 0.000000 

0.000000 -0.000000 0.000000 
0.000000 0.000000 0.000000 
0.000000 0.000000 0.000000 

0.000000 -0.000000 0.000000 
0.000000 -0.000000 0.000000 
0.000000 0.000000 0.000000 

0.000000 0.000000 0.000000 
0.000000 -0.000000 0.000000 
0.000000 0.000000 0.000000 

0.000000 0.000000 0.000000 
0.000000 -0.000000 0.000000 
0.000000 0.000000 0.000000 

0.000000 0.000000 0.000000 
0.000000 0.000000 0.000000 
0.000000 0.000000 0.000000 

0.000000 0.000000 0.000000 
0.000000 -0.000000 0.000000 
0.000000 0.000000 0.000000 

-0.000000 0.000000 0.000000 
0.000000 0.000000 0.000000 
0.000000 0.000000 0.000000 

-0.000000 0.000000 0.000000 
0.000000 0.000000 0.000000 
0.000000 0.000000 0.000000 

0.000000 0.000000 0.000000 
0.000000 0.000000 0.000000 
0.000000 0.000000 0.000000 

0.000000 0.000000 0.000000 
0.000000 -0.000000 0.000000 
0.000000 0.000000 0.000000 

0.000000 0.000000 0.000000 
0.000000 0.000000 0.000000 
0.000000 0.000000 0.000000 

0.000000 0.000000 0.000000 
0.000000 -0.000000 0.000000 
0.000000 0.000000 0.000000 

0.000000 -0.000000 0.000000 
0.000000 0.000000 0.000000 
0.000000 0.000000 0.000000 

0.000000 -0.000000 0.000000 
0.000000 -0.000000 0.000000 
0.000000 0.000000 0.000000 

0.000000 0.000000 0.000000 
0.000000 -0.000000 0.000000 
0.000000 0.000000 0.000000 

0.000000 -0.000000 0.000000 
0.000000 -0.000000 0.000000 
0.000000 0.000000 0.000000 

0.000000 -0.000000 0.000000 
0.000000 -0.000000 0.000000 
0.000000 0.000000 0.000000 

-0.000000 -0.000000 0.000000 
0.000000 0.000000 0.000000 
0.000000 0.000000 0.000000 

-0.000000 -0.000000 0.000000 
0.000000 0.000000 0.000000 
0.000000 0.000000 0.000000 

-0.000000 0.000000 0.000000 
0.000000 0.000000 0.000000 
0.000000 0.000000 0.000000 

-0.000000 0.000000 0.000000 
0.000000 -0.000000 0.000000 
0.000000 0.000000 0.000000 

-0.000000 -0.000000 0.000000 
0.000000 0.000000 0.000000 
0.000000 0.000000 0.000000 

-0.000000 -0.000000 0.000000 
0.000000 0.000000 0.000000 
0.000000 0.000000 0.000000 

-0.000000 -0.000000 0.000000 
0.000000 0.000000 0.000000 
0.000000 0.000000 0.000000 

-0.000000 -0.000000 0.000000 
0.000000 -0.000000 0.000000 
0.000000 0.000000 0.000000 

-0.000000 0.000000 0.000000 
0.000000 0.000000 0.000000 
0.000000 0.000000 0.000000 

-0.000000 0.000000 0.000000 
0.000000 0.000000 0.000000 
0.000000 0.000000 0.000000 

-0.000000 0.000000 0.000000 
0.000000 0.000000 0.000000 
0.000000 0.000000 0.000000 

-0.000000 -0.000000 0.000000 
0.000000 0.000000 0.000000 
0.000000 0.000000 0.000000 

-0.000000 0.000000 0.000000 
0.000000 -0.000000 0.000000 
0.000000 0.000000 0.000000 

-0.000000 0.000000 0.000000 
0.000000 0.000000 0.000000 
0.000000 0.000000 0.000000 

-0.000000 -0.000000 0.000000 
0.000000 0.000000 0.000000 
0.000000 0.000000 0.000000 

-0.000000 -0.000000 0.000000 
0.000000 0.000000 0.000000 
0.000000 0.000000 0.000000 

-0.000000 0.000000 0.000000 
0.000000 0.000000 0.000000 
0.000000 0.000000 0.000000 

-0.000000 -0.000000 0.000000 
0.000000 -0.000000 0.000000 
0.000000 0.000000 0.000000 

-0.000000 0.000000 0.000000 
0.000000 -0.000000 0.000000 
0.000000 0.000000 0.000000 

-0.000000 -0.000000 0.000000 
0.000000 0.000000 0.000000 
0.000000 0.000000 0.000000 

0.000000 0.000000 0.000000 
0.000000 -0.000000 0.000000 
0.000000 0.000000 0.000000 

0.000000 0.000000 0.000000 
0.000000 -0.000000 0.000000 
0.000000 0.000000 0.000000 

