# vtk DataFile Version 3.0 
vtk output 
ASCII 
DATASET UNSTRUCTURED_GRID 
POINTS 175 float 
-0.026061 -0.159115 0.000000 
-0.106992 -0.091060 0.000000 
-0.054870 -0.099292 0.000000 
-0.028809 -0.053409 0.000000 
-0.186430 -0.026984 0.000000 
-0.137056 -0.029510 0.000000 
-0.114311 0.024137 0.000000 
-0.058186 0.008471 0.000000 
-0.029377 0.048649 0.000000 
-0.265318 0.036172 0.000000 
-0.217198 0.035372 0.000000 
-0.196633 0.092669 0.000000 
-0.143120 0.083960 0.000000 
-0.116563 0.131228 0.000000 
-0.058945 0.111583 0.000000 
-0.029568 0.149703 0.000000 
-0.344206 0.099328 0.000000 
-0.296791 0.099335 0.000000 
-0.278030 0.159277 0.000000 
-0.225992 0.153411 0.000000 
-0.201664 0.205528 0.000000 
-0.145749 0.192054 0.000000 
-0.117890 0.236397 0.000000 
-0.059328 0.213691 0.000000 
-0.029759 0.250757 0.000000 
-0.058559 -0.199866 0.000000 
-0.162226 -0.220708 0.000000 
-0.123292 -0.185091 0.000000 
-0.142917 -0.136107 0.000000 
-0.261851 -0.242865 0.000000 
-0.229092 -0.205838 0.000000 
-0.256854 -0.154606 0.000000 
-0.209613 -0.120494 0.000000 
-0.223062 -0.072920 0.000000 
-0.360414 -0.265165 0.000000 
-0.329787 -0.228042 0.000000 
-0.361761 -0.176240 0.000000 
-0.321587 -0.139831 0.000000 
-0.341985 -0.089597 0.000000 
-0.290702 -0.056798 0.000000 
-0.302189 -0.010063 0.000000 
-0.458977 -0.287465 0.000000 
-0.429420 -0.250390 0.000000 
-0.464588 -0.198349 0.000000 
-0.427556 -0.161321 0.000000 
-0.453135 -0.109806 0.000000 
-0.407738 -0.074491 0.000000 
-0.425037 -0.025063 0.000000 
-0.370772 0.006566 0.000000 
-0.381315 0.052794 0.000000 
-0.046960 -0.250681 0.000000 
-0.095301 -0.344727 0.000000 
-0.098873 -0.292080 0.000000 
-0.149405 -0.276882 0.000000 
-0.140093 -0.436431 0.000000 
-0.148617 -0.387733 0.000000 
-0.205981 -0.377495 0.000000 
-0.203197 -0.319292 0.000000 
-0.248777 -0.300145 0.000000 
-0.184111 -0.527395 0.000000 
-0.194039 -0.480303 0.000000 
-0.254475 -0.473004 0.000000 
-0.257893 -0.418894 0.000000 
-0.309886 -0.403522 0.000000 
-0.303554 -0.342976 0.000000 
-0.347255 -0.322819 0.000000 
-0.228129 -0.618358 0.000000 
-0.238687 -0.572134 0.000000 
-0.301302 -0.567182 0.000000 
-0.307162 -0.515143 0.000000 
-0.363386 -0.503022 0.000000 
-0.362692 -0.445511 0.000000 
-0.412122 -0.428217 0.000000 
-0.403017 -0.366071 0.000000 
-0.445733 -0.345492 0.000000 
-0.000000 -0.273296 0.000000 
0.043388 -0.369727 0.000000 
-0.000000 -0.339694 0.000000 
-0.043388 -0.369727 0.000000 
0.087158 -0.461923 0.000000 
0.043769 -0.438225 0.000000 
-0.000000 -0.476690 0.000000 
-0.043769 -0.438225 0.000000 
-0.087158 -0.461923 0.000000 
0.130831 -0.553053 0.000000 
0.087824 -0.531454 0.000000 
0.044436 -0.574154 0.000000 
-0.000000 -0.543089 0.000000 
-0.044436 -0.574154 0.000000 
-0.087824 -0.531454 0.000000 
-0.130831 -0.553053 0.000000 
0.174505 -0.644182 0.000000 
0.131782 -0.623616 0.000000 
0.088871 -0.669483 0.000000 
0.044532 -0.641619 0.000000 
-0.000000 -0.678019 0.000000 
-0.044532 -0.641619 0.000000 
-0.088871 -0.669483 0.000000 
-0.131782 -0.623616 0.000000 
-0.174505 -0.644182 0.000000 
0.046960 -0.250681 0.000000 
0.149405 -0.276882 0.000000 
0.098873 -0.292080 0.000000 
0.095301 -0.344727 0.000000 
0.248777 -0.300145 0.000000 
0.203197 -0.319292 0.000000 
0.205981 -0.377495 0.000000 
0.148617 -0.387733 0.000000 
0.140093 -0.436431 0.000000 
0.347255 -0.322819 0.000000 
0.303554 -0.342976 0.000000 
0.309886 -0.403522 0.000000 
0.257893 -0.418894 0.000000 
0.254475 -0.473004 0.000000 
0.194039 -0.480303 0.000000 
0.184111 -0.527395 0.000000 
0.445733 -0.345492 0.000000 
0.403017 -0.366071 0.000000 
0.412122 -0.428217 0.000000 
0.362692 -0.445511 0.000000 
0.363386 -0.503022 0.000000 
0.307162 -0.515143 0.000000 
0.301302 -0.567182 0.000000 
0.238687 -0.572134 0.000000 
0.228129 -0.618358 0.000000 
0.058559 -0.199866 0.000000 
0.142917 -0.136107 0.000000 
0.123292 -0.185091 0.000000 
0.162226 -0.220708 0.000000 
0.223062 -0.072920 0.000000 
0.209613 -0.120494 0.000000 
0.256854 -0.154606 0.000000 
0.229092 -0.205838 0.000000 
0.261851 -0.242865 0.000000 
0.302189 -0.010063 0.000000 
0.290702 -0.056798 0.000000 
0.341985 -0.089597 0.000000 
0.321587 -0.139831 0.000000 
0.361761 -0.176240 0.000000 
0.329787 -0.228042 0.000000 
0.360414 -0.265165 0.000000 
0.381315 0.052794 0.000000 
0.370772 0.006566 0.000000 
0.425037 -0.025063 0.000000 
0.407738 -0.074491 0.000000 
0.453135 -0.109806 0.000000 
0.427556 -0.161321 0.000000 
0.464588 -0.198349 0.000000 
0.429420 -0.250390 0.000000 
0.458977 -0.287465 0.000000 
0.026061 -0.159115 0.000000 
0.028809 -0.053409 0.000000 
0.054870 -0.099292 0.000000 
0.106992 -0.091060 0.000000 
0.029377 0.048649 0.000000 
0.058186 0.008471 0.000000 
0.114311 0.024137 0.000000 
0.137056 -0.029510 0.000000 
0.186430 -0.026984 0.000000 
0.029568 0.149703 0.000000 
0.058945 0.111583 0.000000 
0.116563 0.131228 0.000000 
0.143120 0.083960 0.000000 
0.196633 0.092669 0.000000 
0.217198 0.035372 0.000000 
0.265318 0.036172 0.000000 
0.029759 0.250757 0.000000 
0.059328 0.213691 0.000000 
0.117890 0.236397 0.000000 
0.145749 0.192054 0.000000 
0.201664 0.205528 0.000000 
0.225992 0.153411 0.000000 
0.278030 0.159277 0.000000 
0.296791 0.099335 0.000000 
0.344206 0.099328 0.000000 
CELLS 175 350 
1 0 
1 1 
1 2 
1 3 
1 4 
1 5 
1 6 
1 7 
1 8 
1 9 
1 10 
1 11 
1 12 
1 13 
1 14 
1 15 
1 16 
1 17 
1 18 
1 19 
1 20 
1 21 
1 22 
1 23 
1 24 
1 25 
1 26 
1 27 
1 28 
1 29 
1 30 
1 31 
1 32 
1 33 
1 34 
1 35 
1 36 
1 37 
1 38 
1 39 
1 40 
1 41 
1 42 
1 43 
1 44 
1 45 
1 46 
1 47 
1 48 
1 49 
1 50 
1 51 
1 52 
1 53 
1 54 
1 55 
1 56 
1 57 
1 58 
1 59 
1 60 
1 61 
1 62 
1 63 
1 64 
1 65 
1 66 
1 67 
1 68 
1 69 
1 70 
1 71 
1 72 
1 73 
1 74 
1 75 
1 76 
1 77 
1 78 
1 79 
1 80 
1 81 
1 82 
1 83 
1 84 
1 85 
1 86 
1 87 
1 88 
1 89 
1 90 
1 91 
1 92 
1 93 
1 94 
1 95 
1 96 
1 97 
1 98 
1 99 
1 100 
1 101 
1 102 
1 103 
1 104 
1 105 
1 106 
1 107 
1 108 
1 109 
1 110 
1 111 
1 112 
1 113 
1 114 
1 115 
1 116 
1 117 
1 118 
1 119 
1 120 
1 121 
1 122 
1 123 
1 124 
1 125 
1 126 
1 127 
1 128 
1 129 
1 130 
1 131 
1 132 
1 133 
1 134 
1 135 
1 136 
1 137 
1 138 
1 139 
1 140 
1 141 
1 142 
1 143 
1 144 
1 145 
1 146 
1 147 
1 148 
1 149 
1 150 
1 151 
1 152 
1 153 
1 154 
1 155 
1 156 
1 157 
1 158 
1 159 
1 160 
1 161 
1 162 
1 163 
1 164 
1 165 
1 166 
1 167 
1 168 
1 169 
1 170 
1 171 
1 172 
1 173 
1 174 
CELL_TYPES 175 
1 
1 
1 
1 
1 
1 
1 
1 
1 
1 
1 
1 
1 
1 
1 
1 
1 
1 
1 
1 
1 
1 
1 
1 
1 
1 
1 
1 
1 
1 
1 
1 
1 
1 
1 
1 
1 
1 
1 
1 
1 
1 
1 
1 
1 
1 
1 
1 
1 
1 
1 
1 
1 
1 
1 
1 
1 
1 
1 
1 
1 
1 
1 
1 
1 
1 
1 
1 
1 
1 
1 
1 
1 
1 
1 
1 
1 
1 
1 
1 
1 
1 
1 
1 
1 
1 
1 
1 
1 
1 
1 
1 
1 
1 
1 
1 
1 
1 
1 
1 
1 
1 
1 
1 
1 
1 
1 
1 
1 
1 
1 
1 
1 
1 
1 
1 
1 
1 
1 
1 
1 
1 
1 
1 
1 
1 
1 
1 
1 
1 
1 
1 
1 
1 
1 
1 
1 
1 
1 
1 
1 
1 
1 
1 
1 
1 
1 
1 
1 
1 
1 
1 
1 
1 
1 
1 
1 
1 
1 
1 
1 
1 
1 
1 
1 
1 
1 
1 
1 
1 
1 
1 
1 
1 
1 
POINT_DATA 175 
VECTORS X_GC float 
-0.026061 -0.159115 0.000000 
-0.106992 -0.091060 0.000000 
-0.054870 -0.099292 0.000000 
-0.028809 -0.053409 0.000000 
-0.186430 -0.026984 0.000000 
-0.137056 -0.029510 0.000000 
-0.114311 0.024137 0.000000 
-0.058186 0.008471 0.000000 
-0.029377 0.048649 0.000000 
-0.265318 0.036172 0.000000 
-0.217198 0.035372 0.000000 
-0.196633 0.092669 0.000000 
-0.143120 0.083960 0.000000 
-0.116563 0.131228 0.000000 
-0.058945 0.111583 0.000000 
-0.029568 0.149703 0.000000 
-0.344206 0.099328 0.000000 
-0.296791 0.099335 0.000000 
-0.278030 0.159277 0.000000 
-0.225992 0.153411 0.000000 
-0.201664 0.205528 0.000000 
-0.145749 0.192054 0.000000 
-0.117890 0.236397 0.000000 
-0.059328 0.213691 0.000000 
-0.029759 0.250757 0.000000 
-0.058559 -0.199866 0.000000 
-0.162226 -0.220708 0.000000 
-0.123292 -0.185091 0.000000 
-0.142917 -0.136107 0.000000 
-0.261851 -0.242865 0.000000 
-0.229092 -0.205838 0.000000 
-0.256854 -0.154606 0.000000 
-0.209613 -0.120494 0.000000 
-0.223062 -0.072920 0.000000 
-0.360414 -0.265165 0.000000 
-0.329787 -0.228042 0.000000 
-0.361761 -0.176240 0.000000 
-0.321587 -0.139831 0.000000 
-0.341985 -0.089597 0.000000 
-0.290702 -0.056798 0.000000 
-0.302189 -0.010063 0.000000 
-0.458977 -0.287465 0.000000 
-0.429420 -0.250390 0.000000 
-0.464588 -0.198349 0.000000 
-0.427556 -0.161321 0.000000 
-0.453135 -0.109806 0.000000 
-0.407738 -0.074491 0.000000 
-0.425037 -0.025063 0.000000 
-0.370772 0.006566 0.000000 
-0.381315 0.052794 0.000000 
-0.046960 -0.250681 0.000000 
-0.095301 -0.344727 0.000000 
-0.098873 -0.292080 0.000000 
-0.149405 -0.276882 0.000000 
-0.140093 -0.436431 0.000000 
-0.148617 -0.387733 0.000000 
-0.205981 -0.377495 0.000000 
-0.203197 -0.319292 0.000000 
-0.248777 -0.300145 0.000000 
-0.184111 -0.527395 0.000000 
-0.194039 -0.480303 0.000000 
-0.254475 -0.473004 0.000000 
-0.257893 -0.418894 0.000000 
-0.309886 -0.403522 0.000000 
-0.303554 -0.342976 0.000000 
-0.347255 -0.322819 0.000000 
-0.228129 -0.618358 0.000000 
-0.238687 -0.572134 0.000000 
-0.301302 -0.567182 0.000000 
-0.307162 -0.515143 0.000000 
-0.363386 -0.503022 0.000000 
-0.362692 -0.445511 0.000000 
-0.412122 -0.428217 0.000000 
-0.403017 -0.366071 0.000000 
-0.445733 -0.345492 0.000000 
-0.000000 -0.273296 0.000000 
0.043388 -0.369727 0.000000 
-0.000000 -0.339694 0.000000 
-0.043388 -0.369727 0.000000 
0.087158 -0.461923 0.000000 
0.043769 -0.438225 0.000000 
-0.000000 -0.476690 0.000000 
-0.043769 -0.438225 0.000000 
-0.087158 -0.461923 0.000000 
0.130831 -0.553053 0.000000 
0.087824 -0.531454 0.000000 
0.044436 -0.574154 0.000000 
-0.000000 -0.543089 0.000000 
-0.044436 -0.574154 0.000000 
-0.087824 -0.531454 0.000000 
-0.130831 -0.553053 0.000000 
0.174505 -0.644182 0.000000 
0.131782 -0.623616 0.000000 
0.088871 -0.669483 0.000000 
0.044532 -0.641619 0.000000 
-0.000000 -0.678019 0.000000 
-0.044532 -0.641619 0.000000 
-0.088871 -0.669483 0.000000 
-0.131782 -0.623616 0.000000 
-0.174505 -0.644182 0.000000 
0.046960 -0.250681 0.000000 
0.149405 -0.276882 0.000000 
0.098873 -0.292080 0.000000 
0.095301 -0.344727 0.000000 
0.248777 -0.300145 0.000000 
0.203197 -0.319292 0.000000 
0.205981 -0.377495 0.000000 
0.148617 -0.387733 0.000000 
0.140093 -0.436431 0.000000 
0.347255 -0.322819 0.000000 
0.303554 -0.342976 0.000000 
0.309886 -0.403522 0.000000 
0.257893 -0.418894 0.000000 
0.254475 -0.473004 0.000000 
0.194039 -0.480303 0.000000 
0.184111 -0.527395 0.000000 
0.445733 -0.345492 0.000000 
0.403017 -0.366071 0.000000 
0.412122 -0.428217 0.000000 
0.362692 -0.445511 0.000000 
0.363386 -0.503022 0.000000 
0.307162 -0.515143 0.000000 
0.301302 -0.567182 0.000000 
0.238687 -0.572134 0.000000 
0.228129 -0.618358 0.000000 
0.058559 -0.199866 0.000000 
0.142917 -0.136107 0.000000 
0.123292 -0.185091 0.000000 
0.162226 -0.220708 0.000000 
0.223062 -0.072920 0.000000 
0.209613 -0.120494 0.000000 
0.256854 -0.154606 0.000000 
0.229092 -0.205838 0.000000 
0.261851 -0.242865 0.000000 
0.302189 -0.010063 0.000000 
0.290702 -0.056798 0.000000 
0.341985 -0.089597 0.000000 
0.321587 -0.139831 0.000000 
0.361761 -0.176240 0.000000 
0.329787 -0.228042 0.000000 
0.360414 -0.265165 0.000000 
0.381315 0.052794 0.000000 
0.370772 0.006566 0.000000 
0.425037 -0.025063 0.000000 
0.407738 -0.074491 0.000000 
0.453135 -0.109806 0.000000 
0.427556 -0.161321 0.000000 
0.464588 -0.198349 0.000000 
0.429420 -0.250390 0.000000 
0.458977 -0.287465 0.000000 
0.026061 -0.159115 0.000000 
0.028809 -0.053409 0.000000 
0.054870 -0.099292 0.000000 
0.106992 -0.091060 0.000000 
0.029377 0.048649 0.000000 
0.058186 0.008471 0.000000 
0.114311 0.024137 0.000000 
0.137056 -0.029510 0.000000 
0.186430 -0.026984 0.000000 
0.029568 0.149703 0.000000 
0.058945 0.111583 0.000000 
0.116563 0.131228 0.000000 
0.143120 0.083960 0.000000 
0.196633 0.092669 0.000000 
0.217198 0.035372 0.000000 
0.265318 0.036172 0.000000 
0.029759 0.250757 0.000000 
0.059328 0.213691 0.000000 
0.117890 0.236397 0.000000 
0.145749 0.192054 0.000000 
0.201664 0.205528 0.000000 
0.225992 0.153411 0.000000 
0.278030 0.159277 0.000000 
0.296791 0.099335 0.000000 
0.344206 0.099328 0.000000 
VECTORS X_EC float 
0.338794 0.648053 0.000000 
-0.609100 -0.270696 0.000000 
0.713312 -0.159555 0.000000 
0.374519 -0.778985 0.000000 
0.423588 0.864285 0.000000 
-0.218274 0.898389 0.000000 
-0.513962 0.174150 0.000000 
0.756418 0.385636 0.000000 
0.381900 -0.156757 0.000000 
-0.550868 0.011682 0.000000 
0.823577 0.022477 0.000000 
0.556234 -0.751027 0.000000 
-0.139443 -0.633458 0.000000 
-0.484677 0.728417 0.000000 
0.766286 0.993633 0.000000 
0.384386 0.479012 0.000000 
0.474677 -0.840921 0.000000 
-0.141715 -0.841018 0.000000 
-0.385608 0.349754 0.000000 
0.937896 0.428950 0.000000 
0.621631 -0.274630 0.000000 
-0.105264 -0.092731 0.000000 
-0.467428 -0.691358 0.000000 
0.771260 -0.384829 0.000000 
0.386873 -0.885219 0.000000 
0.761262 -0.801813 0.000000 
0.108942 -0.520436 0.000000 
-0.397202 0.998724 0.000000 
-0.142083 0.337449 0.000000 
-0.595936 -0.221326 0.000000 
0.978194 -0.721191 0.000000 
-0.660903 0.587183 0.000000 
0.724964 0.126663 0.000000 
0.899809 -0.515585 0.000000 
0.685384 0.079727 0.000000 
0.287229 -0.421432 0.000000 
0.702895 0.879240 0.000000 
0.180633 0.387721 0.000000 
0.445811 -0.290439 0.000000 
-0.220880 -0.733225 0.000000 
-0.071546 0.635850 0.000000 
-0.033296 0.380779 0.000000 
-0.417537 -0.119731 0.000000 
0.039645 -0.822293 0.000000 
-0.441768 0.677836 0.000000 
-0.109248 -0.017615 0.000000 
-0.699407 -0.494371 0.000000 
-0.474522 0.838350 0.000000 
0.820030 0.411357 0.000000 
0.957100 -0.212715 0.000000 
0.610485 -0.115807 0.000000 
-0.761092 -0.846187 0.000000 
-0.714655 0.443075 0.000000 
-0.057734 0.237908 0.000000 
-0.178789 0.391817 0.000000 
-0.067979 -0.265609 0.000000 
0.677748 -0.403813 0.000000 
0.641556 0.810442 0.000000 
-0.765897 0.551964 0.000000 
0.393446 -0.380174 0.000000 
0.522510 0.984096 0.000000 
-0.691820 0.885552 0.000000 
-0.647393 0.155069 0.000000 
0.028512 -0.052457 0.000000 
-0.053800 -0.869818 0.000000 
0.514316 0.858051 0.000000 
0.965681 0.847835 0.000000 
-0.897068 0.223806 0.000000 
-0.083078 0.156953 0.000000 
-0.006893 -0.545571 0.000000 
0.724017 -0.709204 0.000000 
0.714996 0.514392 0.000000 
-0.642413 0.280935 0.000000 
-0.760780 -0.558046 0.000000 
-0.205471 -0.835861 0.000000 
0.000000 0.189495 0.000000 
-0.564049 -0.508692 0.000000 
0.000000 -0.914128 0.000000 
0.564049 -0.508692 0.000000 
0.866949 0.735963 0.000000 
-0.569003 0.416032 0.000000 
0.000000 0.935320 0.000000 
0.569003 0.416032 0.000000 
-0.866949 0.735963 0.000000 
0.299194 -0.033787 0.000000 
0.858290 -0.325371 0.000000 
-0.577662 0.251075 0.000000 
0.000000 -0.168303 0.000000 
0.577662 0.251075 0.000000 
-0.858290 -0.325371 0.000000 
-0.299194 -0.033787 0.000000 
-0.268560 -0.803537 0.000000 
0.286830 0.918822 0.000000 
0.844677 -0.461980 0.000000 
-0.578910 -0.838143 0.000000 
0.000000 -0.346739 0.000000 
0.578910 -0.838143 0.000000 
-0.844677 -0.461980 0.000000 
-0.286830 0.918822 0.000000 
0.268560 -0.803537 0.000000 
-0.610485 -0.115807 0.000000 
0.057734 0.237908 0.000000 
0.714655 0.443075 0.000000 
0.761092 -0.846187 0.000000 
0.765897 0.551964 0.000000 
-0.641556 0.810442 0.000000 
-0.677748 -0.403813 0.000000 
0.067979 -0.265609 0.000000 
0.178789 0.391817 0.000000 
-0.514316 0.858051 0.000000 
0.053800 -0.869818 0.000000 
-0.028512 -0.052457 0.000000 
0.647393 0.155069 0.000000 
0.691820 0.885552 0.000000 
-0.522510 0.984096 0.000000 
-0.393446 -0.380174 0.000000 
0.205471 -0.835861 0.000000 
0.760780 -0.558046 0.000000 
0.642413 0.280935 0.000000 
-0.714996 0.514392 0.000000 
-0.724017 -0.709204 0.000000 
0.006894 -0.545571 0.000000 
0.083078 0.156953 0.000000 
0.897068 0.223806 0.000000 
-0.965681 0.847835 0.000000 
-0.761262 -0.801813 0.000000 
0.142083 0.337449 0.000000 
0.397202 0.998724 0.000000 
-0.108942 -0.520436 0.000000 
-0.899809 -0.515585 0.000000 
-0.724964 0.126663 0.000000 
0.660903 0.587183 0.000000 
-0.978194 -0.721191 0.000000 
0.595936 -0.221326 0.000000 
0.071546 0.635850 0.000000 
0.220880 -0.733225 0.000000 
-0.445811 -0.290439 0.000000 
-0.180633 0.387721 0.000000 
-0.702895 0.879240 0.000000 
-0.287229 -0.421432 0.000000 
-0.685384 0.079727 0.000000 
-0.957100 -0.212715 0.000000 
-0.820030 0.411357 0.000000 
0.474522 0.838350 0.000000 
0.699407 -0.494371 0.000000 
0.109248 -0.017615 0.000000 
0.441768 0.677836 0.000000 
-0.039645 -0.822293 0.000000 
0.417537 -0.119731 0.000000 
0.033296 0.380779 0.000000 
-0.338794 0.648053 0.000000 
-0.374519 -0.778985 0.000000 
-0.713312 -0.159555 0.000000 
0.609100 -0.270696 0.000000 
-0.381900 -0.156757 0.000000 
-0.756418 0.385636 0.000000 
0.513962 0.174150 0.000000 
0.218274 0.898389 0.000000 
-0.423588 0.864285 0.000000 
-0.384386 0.479012 0.000000 
-0.766286 0.993633 0.000000 
0.484677 0.728417 0.000000 
0.139443 -0.633458 0.000000 
-0.556234 -0.751027 0.000000 
-0.823577 0.022477 0.000000 
0.550868 0.011682 0.000000 
-0.386873 -0.885219 0.000000 
-0.771260 -0.384829 0.000000 
0.467428 -0.691358 0.000000 
0.105264 -0.092731 0.000000 
-0.621631 -0.274630 0.000000 
-0.937896 0.428950 0.000000 
0.385608 0.349754 0.000000 
0.141715 -0.841018 0.000000 
-0.474677 -0.840921 0.000000 
CELL_DATA 175 
SCALARS MASS float 
LOOKUP_TABLE default 
0.781831 
0.864274 
0.946717 
0.864274 
0.881307 
0.921110 
0.858535 
0.921110 
0.881307 
0.887046 
0.910001 
0.869829 
0.915556 
0.869829 
0.910001 
0.887046 
0.892784 
0.915740 
0.892784 
0.927218 
0.892784 
0.927218 
0.892784 
0.915740 
0.892784 
0.781831 
0.864274 
0.946717 
0.864274 
0.881307 
0.921110 
0.858535 
0.921110 
0.881307 
0.887046 
0.910001 
0.869829 
0.915556 
0.869829 
0.910001 
0.887046 
0.892784 
0.915740 
0.892784 
0.927218 
0.892784 
0.927218 
0.892784 
0.915740 
0.892784 
0.781831 
0.864274 
0.946717 
0.864274 
0.881307 
0.921110 
0.858535 
0.921110 
0.881307 
0.887046 
0.910001 
0.869829 
0.915556 
0.869829 
0.910001 
0.887046 
0.892784 
0.915740 
0.892784 
0.927218 
0.892784 
0.927218 
0.892784 
0.915740 
0.892784 
0.781831 
0.864274 
0.946717 
0.864274 
0.881307 
0.921110 
0.858535 
0.921110 
0.881307 
0.887046 
0.910001 
0.869829 
0.915556 
0.869829 
0.910001 
0.887046 
0.892784 
0.915740 
0.892784 
0.927218 
0.892784 
0.927218 
0.892784 
0.915740 
0.892784 
0.781831 
0.864274 
0.946717 
0.864274 
0.881307 
0.921110 
0.858535 
0.921110 
0.881307 
0.887046 
0.910001 
0.869829 
0.915556 
0.869829 
0.910001 
0.887046 
0.892784 
0.915740 
0.892784 
0.927218 
0.892784 
0.927218 
0.892784 
0.915740 
0.892784 
0.781831 
0.864274 
0.946717 
0.864274 
0.881307 
0.921110 
0.858535 
0.921110 
0.881307 
0.887046 
0.910001 
0.869829 
0.915556 
0.869829 
0.910001 
0.887046 
0.892784 
0.915740 
0.892784 
0.927218 
0.892784 
0.927218 
0.892784 
0.915740 
0.892784 
0.781831 
0.864274 
0.946717 
0.864274 
0.881307 
0.921110 
0.858535 
0.921110 
0.881307 
0.887046 
0.910001 
0.869829 
0.915556 
0.869829 
0.910001 
0.887046 
0.892784 
0.915740 
0.892784 
0.927218 
0.892784 
0.927218 
0.892784 
0.915740 
0.892784 
SCALARS MASS float 
LOOKUP_TABLE default 
0.781831 
0.864274 
0.946717 
0.864274 
0.881307 
0.921110 
0.858535 
0.921110 
0.881307 
0.887046 
0.910001 
0.869829 
0.915556 
0.869829 
0.910001 
0.887046 
0.892784 
0.915740 
0.892784 
0.927218 
0.892784 
0.927218 
0.892784 
0.915740 
0.892784 
0.781831 
0.864274 
0.946717 
0.864274 
0.881307 
0.921110 
0.858535 
0.921110 
0.881307 
0.887046 
0.910001 
0.869829 
0.915556 
0.869829 
0.910001 
0.887046 
0.892784 
0.915740 
0.892784 
0.927218 
0.892784 
0.927218 
0.892784 
0.915740 
0.892784 
0.781831 
0.864274 
0.946717 
0.864274 
0.881307 
0.921110 
0.858535 
0.921110 
0.881307 
0.887046 
0.910001 
0.869829 
0.915556 
0.869829 
0.910001 
0.887046 
0.892784 
0.915740 
0.892784 
0.927218 
0.892784 
0.927218 
0.892784 
0.915740 
0.892784 
0.781831 
0.864274 
0.946717 
0.864274 
0.881307 
0.921110 
0.858535 
0.921110 
0.881307 
0.887046 
0.910001 
0.869829 
0.915556 
0.869829 
0.910001 
0.887046 
0.892784 
0.915740 
0.892784 
0.927218 
0.892784 
0.927218 
0.892784 
0.915740 
0.892784 
0.781831 
0.864274 
0.946717 
0.864274 
0.881307 
0.921110 
0.858535 
0.921110 
0.881307 
0.887046 
0.910001 
0.869829 
0.915556 
0.869829 
0.910001 
0.887046 
0.892784 
0.915740 
0.892784 
0.927218 
0.892784 
0.927218 
0.892784 
0.915740 
0.892784 
0.781831 
0.864274 
0.946717 
0.864274 
0.881307 
0.921110 
0.858535 
0.921110 
0.881307 
0.887046 
0.910001 
0.869829 
0.915556 
0.869829 
0.910001 
0.887046 
0.892784 
0.915740 
0.892784 
0.927218 
0.892784 
0.927218 
0.892784 
0.915740 
0.892784 
0.781831 
0.864274 
0.946717 
0.864274 
0.881307 
0.921110 
0.858535 
0.921110 
0.881307 
0.887046 
0.910001 
0.869829 
0.915556 
0.869829 
0.910001 
0.887046 
0.892784 
0.915740 
0.892784 
0.927218 
0.892784 
0.927218 
0.892784 
0.915740 
0.892784 
SCALARS DENSITY float 
LOOKUP_TABLE default 
200.000000 
200.000000 
200.000000 
200.000000 
200.000000 
200.000000 
200.000000 
200.000000 
200.000000 
200.000000 
200.000000 
200.000000 
200.000000 
200.000000 
200.000000 
200.000000 
200.000000 
200.000000 
200.000000 
200.000000 
200.000000 
200.000000 
200.000000 
200.000000 
200.000000 
200.000000 
200.000000 
200.000000 
200.000000 
200.000000 
200.000000 
200.000000 
200.000000 
200.000000 
200.000000 
200.000000 
200.000000 
200.000000 
200.000000 
200.000000 
200.000000 
200.000000 
200.000000 
200.000000 
200.000000 
200.000000 
200.000000 
200.000000 
200.000000 
200.000000 
200.000000 
200.000000 
200.000000 
200.000000 
200.000000 
200.000000 
200.000000 
200.000000 
200.000000 
200.000000 
200.000000 
200.000000 
200.000000 
200.000000 
200.000000 
200.000000 
200.000000 
200.000000 
200.000000 
200.000000 
200.000000 
200.000000 
200.000000 
200.000000 
200.000000 
200.000000 
200.000000 
200.000000 
200.000000 
200.000000 
200.000000 
200.000000 
200.000000 
200.000000 
200.000000 
200.000000 
200.000000 
200.000000 
200.000000 
200.000000 
200.000000 
200.000000 
200.000000 
200.000000 
200.000000 
200.000000 
200.000000 
200.000000 
200.000000 
200.000000 
200.000000 
200.000000 
200.000000 
200.000000 
200.000000 
200.000000 
200.000000 
200.000000 
200.000000 
200.000000 
200.000000 
200.000000 
200.000000 
200.000000 
200.000000 
200.000000 
200.000000 
200.000000 
200.000000 
200.000000 
200.000000 
200.000000 
200.000000 
200.000000 
200.000000 
200.000000 
200.000000 
200.000000 
200.000000 
200.000000 
200.000000 
200.000000 
200.000000 
200.000000 
200.000000 
200.000000 
200.000000 
200.000000 
200.000000 
200.000000 
200.000000 
200.000000 
200.000000 
200.000000 
200.000000 
200.000000 
200.000000 
200.000000 
200.000000 
200.000000 
200.000000 
200.000000 
200.000000 
200.000000 
200.000000 
200.000000 
200.000000 
200.000000 
200.000000 
200.000000 
200.000000 
200.000000 
200.000000 
200.000000 
200.000000 
200.000000 
200.000000 
200.000000 
200.000000 
200.000000 
200.000000 
200.000000 
200.000000 
200.000000 
200.000000 
SCALARS ELEM_i float 
LOOKUP_TABLE default 
181 
208 
181 
181 
209 
209 
209 
182 
182 
236 
209 
209 
209 
210 
183 
183 
236 
236 
237 
210 
210 
210 
210 
183 
183 
180 
207 
208 
208 
234 
207 
235 
208 
208 
234 
234 
235 
235 
235 
235 
236 
261 
261 
261 
262 
262 
262 
263 
236 
236 
180 
206 
207 
207 
206 
206 
206 
207 
234 
205 
206 
233 
233 
233 
233 
234 
205 
232 
232 
232 
232 
233 
260 
260 
260 
180 
179 
179 
179 
152 
179 
179 
179 
206 
151 
151 
178 
178 
178 
205 
205 
150 
151 
150 
177 
177 
177 
204 
205 
204 
180 
153 
153 
152 
126 
153 
152 
152 
152 
126 
125 
125 
125 
125 
152 
151 
98 
98 
98 
125 
124 
124 
124 
124 
151 
180 
154 
154 
153 
154 
154 
127 
153 
126 
128 
127 
127 
127 
127 
126 
126 
128 
128 
101 
100 
100 
100 
99 
99 
99 
181 
181 
181 
154 
182 
182 
155 
155 
155 
183 
183 
156 
155 
155 
155 
128 
183 
183 
156 
156 
156 
156 
129 
128 
128 
VECTORS VELOCITY float 
0.000000 -2.044404 0.000000 
-0.000000 -2.044404 0.000000 
0.000000 -2.044404 0.000000 
-0.000000 -2.044404 0.000000 
-0.000000 -2.044404 0.000000 
-0.000000 -2.044404 0.000000 
-0.000000 -2.044404 0.000000 
-0.000000 -2.044404 0.000000 
-0.000000 -2.044404 0.000000 
-0.000000 -2.044404 0.000000 
-0.000000 -2.044404 0.000000 
-0.000000 -2.044404 0.000000 
0.000000 -2.044404 0.000000 
0.000000 -2.044404 0.000000 
0.000000 -2.044404 0.000000 
-0.000000 -2.044404 0.000000 
0.000000 -2.044404 0.000000 
0.000000 -2.044404 0.000000 
-0.000000 -2.044404 0.000000 
0.000000 -2.044404 0.000000 
0.000000 -2.044404 0.000000 
0.000000 -2.044404 0.000000 
-0.000000 -2.044404 0.000000 
-0.000000 -2.044404 0.000000 
-0.000000 -2.044404 0.000000 
0.000000 -2.044404 0.000000 
-0.000000 -2.044404 0.000000 
0.000000 -2.044404 0.000000 
-0.000000 -2.044404 0.000000 
-0.000000 -2.044404 0.000000 
-0.000000 -2.044404 0.000000 
-0.000000 -2.044404 0.000000 
-0.000000 -2.044404 0.000000 
-0.000000 -2.044404 0.000000 
0.000000 -2.044404 0.000000 
0.000000 -2.044404 0.000000 
0.000000 -2.044404 0.000000 
0.000000 -2.044404 0.000000 
0.000000 -2.044404 0.000000 
0.000000 -2.044404 0.000000 
0.000000 -2.044404 0.000000 
-0.000000 -2.044404 0.000000 
0.000000 -2.044404 0.000000 
-0.000000 -2.044404 0.000000 
0.000000 -2.044404 0.000000 
0.000000 -2.044404 0.000000 
0.000000 -2.044404 0.000000 
-0.000000 -2.044404 0.000000 
0.000000 -2.044404 0.000000 
0.000000 -2.044404 0.000000 
0.000000 -2.044404 0.000000 
0.000000 -2.044404 0.000000 
0.000000 -2.044404 0.000000 
0.000000 -2.044404 0.000000 
0.000000 -2.044404 0.000000 
0.000000 -2.044404 0.000000 
0.000000 -2.044404 0.000000 
-0.000000 -2.044404 0.000000 
-0.000000 -2.044404 0.000000 
0.000000 -2.044404 0.000000 
0.000000 -2.044404 0.000000 
0.000000 -2.044404 0.000000 
0.000000 -2.044404 0.000000 
0.000000 -2.044404 0.000000 
0.000000 -2.044404 0.000000 
0.000000 -2.044404 0.000000 
0.000000 -2.044404 0.000000 
0.000000 -2.044404 0.000000 
-0.000000 -2.044404 0.000000 
0.000000 -2.044404 0.000000 
0.000000 -2.044404 0.000000 
0.000000 -2.044404 0.000000 
-0.000000 -2.044404 0.000000 
0.000000 -2.044404 0.000000 
-0.000000 -2.044404 0.000000 
0.000000 -2.044404 0.000000 
0.000000 -2.044404 0.000000 
0.000000 -2.044404 0.000000 
0.000000 -2.044404 0.000000 
0.000000 -2.044404 0.000000 
0.000000 -2.044404 0.000000 
-0.000000 -2.044404 0.000000 
-0.000000 -2.044404 0.000000 
-0.000000 -2.044404 0.000000 
-0.000000 -2.044404 0.000000 
-0.000000 -2.044404 0.000000 
-0.000000 -2.044404 0.000000 
-0.000000 -2.044404 0.000000 
-0.000000 -2.044404 0.000000 
-0.000000 -2.044404 0.000000 
0.000000 -2.044404 0.000000 
-0.000000 -2.044404 0.000000 
-0.000000 -2.044404 0.000000 
-0.000000 -2.044404 0.000000 
-0.000000 -2.044404 0.000000 
-0.000000 -2.044404 0.000000 
-0.000000 -2.044404 0.000000 
-0.000000 -2.044404 0.000000 
0.000000 -2.044404 0.000000 
-0.000000 -2.044404 0.000000 
-0.000000 -2.044404 0.000000 
0.000000 -2.044404 0.000000 
-0.000000 -2.044404 0.000000 
0.000000 -2.044404 0.000000 
0.000000 -2.044404 0.000000 
0.000000 -2.044404 0.000000 
0.000000 -2.044404 0.000000 
0.000000 -2.044404 0.000000 
0.000000 -2.044404 0.000000 
-0.000000 -2.044404 0.000000 
-0.000000 -2.044404 0.000000 
-0.000000 -2.044404 0.000000 
-0.000000 -2.044404 0.000000 
-0.000000 -2.044404 0.000000 
-0.000000 -2.044404 0.000000 
0.000000 -2.044404 0.000000 
0.000000 -2.044404 0.000000 
-0.000000 -2.044404 0.000000 
-0.000000 -2.044404 0.000000 
-0.000000 -2.044404 0.000000 
-0.000000 -2.044404 0.000000 
0.000000 -2.044404 0.000000 
-0.000000 -2.044404 0.000000 
-0.000000 -2.044404 0.000000 
-0.000000 -2.044404 0.000000 
-0.000000 -2.044404 0.000000 
-0.000000 -2.044404 0.000000 
-0.000000 -2.044404 0.000000 
0.000000 -2.044404 0.000000 
-0.000000 -2.044404 0.000000 
-0.000000 -2.044404 0.000000 
0.000000 -2.044404 0.000000 
0.000000 -2.044404 0.000000 
0.000000 -2.044404 0.000000 
-0.000000 -2.044404 0.000000 
-0.000000 -2.044404 0.000000 
0.000000 -2.044404 0.000000 
0.000000 -2.044404 0.000000 
-0.000000 -2.044404 0.000000 
-0.000000 -2.044404 0.000000 
-0.000000 -2.044404 0.000000 
-0.000000 -2.044404 0.000000 
0.000000 -2.044404 0.000000 
-0.000000 -2.044404 0.000000 
0.000000 -2.044404 0.000000 
0.000000 -2.044404 0.000000 
-0.000000 -2.044404 0.000000 
-0.000000 -2.044404 0.000000 
-0.000000 -2.044404 0.000000 
0.000000 -2.044404 0.000000 
-0.000000 -2.044404 0.000000 
-0.000000 -2.044404 0.000000 
-0.000000 -2.044404 0.000000 
-0.000000 -2.044404 0.000000 
-0.000000 -2.044404 0.000000 
0.000000 -2.044404 0.000000 
0.000000 -2.044404 0.000000 
-0.000000 -2.044404 0.000000 
-0.000000 -2.044404 0.000000 
-0.000000 -2.044404 0.000000 
0.000000 -2.044404 0.000000 
0.000000 -2.044404 0.000000 
0.000000 -2.044404 0.000000 
0.000000 -2.044404 0.000000 
0.000000 -2.044404 0.000000 
-0.000000 -2.044404 0.000000 
0.000000 -2.044404 0.000000 
0.000000 -2.044404 0.000000 
0.000000 -2.044404 0.000000 
0.000000 -2.044404 0.000000 
0.000000 -2.044404 0.000000 
0.000000 -2.044404 0.000000 
-0.000000 -2.044404 0.000000 
0.000000 -2.044404 0.000000 
-0.000000 -2.044404 0.000000 
TENSORS STRESS float 
0.000000 -0.000000 0.000000 
0.000000 0.000000 0.000000 
0.000000 0.000000 0.000000 

-0.000000 0.000000 0.000000 
0.000000 -0.000000 0.000000 
0.000000 0.000000 0.000000 

0.000000 -0.000000 0.000000 
0.000000 0.000000 0.000000 
0.000000 0.000000 0.000000 

0.000000 -0.000000 0.000000 
0.000000 0.000000 0.000000 
0.000000 0.000000 0.000000 

-0.000000 0.000000 0.000000 
0.000000 -0.000000 0.000000 
0.000000 0.000000 0.000000 

-0.000000 0.000000 0.000000 
0.000000 -0.000000 0.000000 
0.000000 0.000000 0.000000 

-0.000000 0.000000 0.000000 
0.000000 -0.000000 0.000000 
0.000000 0.000000 0.000000 

0.000000 -0.000000 0.000000 
0.000000 0.000000 0.000000 
0.000000 0.000000 0.000000 

-0.000000 -0.000000 0.000000 
0.000000 -0.000000 0.000000 
0.000000 0.000000 0.000000 

0.000000 -0.000000 0.000000 
0.000000 0.000000 0.000000 
0.000000 0.000000 0.000000 

-0.000000 -0.000000 0.000000 
0.000000 -0.000000 0.000000 
0.000000 0.000000 0.000000 

-0.000000 0.000000 0.000000 
0.000000 -0.000000 0.000000 
0.000000 0.000000 0.000000 

-0.000000 0.000000 0.000000 
0.000000 -0.000000 0.000000 
0.000000 0.000000 0.000000 

0.000000 0.000000 0.000000 
0.000000 0.000000 0.000000 
0.000000 0.000000 0.000000 

-0.000000 -0.000000 0.000000 
0.000000 -0.000000 0.000000 
0.000000 0.000000 0.000000 

-0.000000 -0.000000 0.000000 
0.000000 -0.000000 0.000000 
0.000000 0.000000 0.000000 

0.000000 -0.000000 0.000000 
0.000000 -0.000000 0.000000 
0.000000 0.000000 0.000000 

-0.000000 0.000000 0.000000 
0.000000 -0.000000 0.000000 
0.000000 0.000000 0.000000 

0.000000 0.000000 0.000000 
0.000000 0.000000 0.000000 
0.000000 0.000000 0.000000 

-0.000000 0.000000 0.000000 
0.000000 -0.000000 0.000000 
0.000000 0.000000 0.000000 

-0.000000 -0.000000 0.000000 
0.000000 -0.000000 0.000000 
0.000000 0.000000 0.000000 

-0.000000 0.000000 0.000000 
0.000000 -0.000000 0.000000 
0.000000 0.000000 0.000000 

0.000000 -0.000000 0.000000 
0.000000 0.000000 0.000000 
0.000000 0.000000 0.000000 

0.000000 -0.000000 0.000000 
0.000000 0.000000 0.000000 
0.000000 0.000000 0.000000 

0.000000 -0.000000 0.000000 
0.000000 0.000000 0.000000 
0.000000 0.000000 0.000000 

-0.000000 -0.000000 0.000000 
0.000000 -0.000000 0.000000 
0.000000 0.000000 0.000000 

-0.000000 -0.000000 0.000000 
0.000000 -0.000000 0.000000 
0.000000 0.000000 0.000000 

0.000000 -0.000000 0.000000 
0.000000 0.000000 0.000000 
0.000000 0.000000 0.000000 

0.000000 -0.000000 0.000000 
0.000000 0.000000 0.000000 
0.000000 0.000000 0.000000 

0.000000 0.000000 0.000000 
0.000000 0.000000 0.000000 
0.000000 0.000000 0.000000 

0.000000 -0.000000 0.000000 
0.000000 0.000000 0.000000 
0.000000 0.000000 0.000000 

0.000000 0.000000 0.000000 
0.000000 0.000000 0.000000 
0.000000 0.000000 0.000000 

-0.000000 -0.000000 0.000000 
0.000000 -0.000000 0.000000 
0.000000 0.000000 0.000000 

-0.000000 -0.000000 0.000000 
0.000000 -0.000000 0.000000 
0.000000 0.000000 0.000000 

-0.000000 -0.000000 0.000000 
0.000000 -0.000000 0.000000 
0.000000 0.000000 0.000000 

0.000000 0.000000 0.000000 
0.000000 0.000000 0.000000 
0.000000 0.000000 0.000000 

-0.000000 0.000000 0.000000 
0.000000 -0.000000 0.000000 
0.000000 0.000000 0.000000 

-0.000000 -0.000000 0.000000 
0.000000 -0.000000 0.000000 
0.000000 0.000000 0.000000 

-0.000000 0.000000 0.000000 
0.000000 -0.000000 0.000000 
0.000000 0.000000 0.000000 

0.000000 0.000000 0.000000 
0.000000 0.000000 0.000000 
0.000000 0.000000 0.000000 

0.000000 0.000000 0.000000 
0.000000 0.000000 0.000000 
0.000000 0.000000 0.000000 

-0.000000 0.000000 0.000000 
0.000000 -0.000000 0.000000 
0.000000 0.000000 0.000000 

-0.000000 0.000000 0.000000 
0.000000 -0.000000 0.000000 
0.000000 0.000000 0.000000 

-0.000000 0.000000 0.000000 
0.000000 -0.000000 0.000000 
0.000000 0.000000 0.000000 

-0.000000 0.000000 0.000000 
0.000000 -0.000000 0.000000 
0.000000 0.000000 0.000000 

0.000000 -0.000000 0.000000 
0.000000 0.000000 0.000000 
0.000000 0.000000 0.000000 

0.000000 -0.000000 0.000000 
0.000000 0.000000 0.000000 
0.000000 0.000000 0.000000 

-0.000000 0.000000 0.000000 
0.000000 -0.000000 0.000000 
0.000000 0.000000 0.000000 

0.000000 -0.000000 0.000000 
0.000000 0.000000 0.000000 
0.000000 0.000000 0.000000 

0.000000 -0.000000 0.000000 
0.000000 0.000000 0.000000 
0.000000 0.000000 0.000000 

0.000000 -0.000000 0.000000 
0.000000 0.000000 0.000000 
0.000000 0.000000 0.000000 

0.000000 0.000000 0.000000 
0.000000 0.000000 0.000000 
0.000000 0.000000 0.000000 

0.000000 -0.000000 0.000000 
0.000000 0.000000 0.000000 
0.000000 0.000000 0.000000 

0.000000 -0.000000 0.000000 
0.000000 0.000000 0.000000 
0.000000 0.000000 0.000000 

-0.000000 0.000000 0.000000 
0.000000 -0.000000 0.000000 
0.000000 0.000000 0.000000 

0.000000 0.000000 0.000000 
0.000000 0.000000 0.000000 
0.000000 0.000000 0.000000 

-0.000000 0.000000 0.000000 
0.000000 -0.000000 0.000000 
0.000000 0.000000 0.000000 

0.000000 -0.000000 0.000000 
0.000000 0.000000 0.000000 
0.000000 0.000000 0.000000 

-0.000000 -0.000000 0.000000 
0.000000 0.000000 0.000000 
0.000000 0.000000 0.000000 

0.000000 0.000000 0.000000 
0.000000 0.000000 0.000000 
0.000000 0.000000 0.000000 

-0.000000 -0.000000 0.000000 
0.000000 -0.000000 0.000000 
0.000000 0.000000 0.000000 

0.000000 0.000000 0.000000 
0.000000 0.000000 0.000000 
0.000000 0.000000 0.000000 

-0.000000 0.000000 0.000000 
0.000000 -0.000000 0.000000 
0.000000 0.000000 0.000000 

0.000000 0.000000 0.000000 
0.000000 0.000000 0.000000 
0.000000 0.000000 0.000000 

-0.000000 -0.000000 0.000000 
0.000000 0.000000 0.000000 
0.000000 0.000000 0.000000 

-0.000000 -0.000000 0.000000 
0.000000 -0.000000 0.000000 
0.000000 0.000000 0.000000 

0.000000 0.000000 0.000000 
0.000000 0.000000 0.000000 
0.000000 0.000000 0.000000 

0.000000 0.000000 0.000000 
0.000000 0.000000 0.000000 
0.000000 0.000000 0.000000 

-0.000000 0.000000 0.000000 
0.000000 -0.000000 0.000000 
0.000000 0.000000 0.000000 

0.000000 0.000000 0.000000 
0.000000 0.000000 0.000000 
0.000000 0.000000 0.000000 

0.000000 0.000000 0.000000 
0.000000 0.000000 0.000000 
0.000000 0.000000 0.000000 

-0.000000 0.000000 0.000000 
0.000000 -0.000000 0.000000 
0.000000 0.000000 0.000000 

-0.000000 -0.000000 0.000000 
0.000000 -0.000000 0.000000 
0.000000 0.000000 0.000000 

0.000000 0.000000 0.000000 
0.000000 0.000000 0.000000 
0.000000 0.000000 0.000000 

0.000000 0.000000 0.000000 
0.000000 0.000000 0.000000 
0.000000 0.000000 0.000000 

-0.000000 -0.000000 0.000000 
0.000000 -0.000000 0.000000 
0.000000 0.000000 0.000000 

0.000000 -0.000000 0.000000 
0.000000 0.000000 0.000000 
0.000000 0.000000 0.000000 

-0.000000 -0.000000 0.000000 
0.000000 -0.000000 0.000000 
0.000000 0.000000 0.000000 

0.000000 0.000000 0.000000 
0.000000 0.000000 0.000000 
0.000000 0.000000 0.000000 

0.000000 0.000000 0.000000 
0.000000 0.000000 0.000000 
0.000000 0.000000 0.000000 

0.000000 -0.000000 0.000000 
0.000000 0.000000 0.000000 
0.000000 0.000000 0.000000 

0.000000 -0.000000 0.000000 
0.000000 0.000000 0.000000 
0.000000 0.000000 0.000000 

0.000000 -0.000000 0.000000 
0.000000 0.000000 0.000000 
0.000000 0.000000 0.000000 

-0.000000 0.000000 0.000000 
0.000000 -0.000000 0.000000 
0.000000 0.000000 0.000000 

-0.000000 0.000000 0.000000 
0.000000 -0.000000 0.000000 
0.000000 0.000000 0.000000 

0.000000 -0.000000 0.000000 
0.000000 0.000000 0.000000 
0.000000 0.000000 0.000000 

-0.000000 -0.000000 0.000000 
0.000000 0.000000 0.000000 
0.000000 0.000000 0.000000 

-0.000000 -0.000000 0.000000 
0.000000 -0.000000 0.000000 
0.000000 0.000000 0.000000 

-0.000000 -0.000000 0.000000 
0.000000 -0.000000 0.000000 
0.000000 0.000000 0.000000 

0.000000 -0.000000 0.000000 
0.000000 0.000000 0.000000 
0.000000 0.000000 0.000000 

0.000000 0.000000 0.000000 
0.000000 0.000000 0.000000 
0.000000 0.000000 0.000000 

0.000000 -0.000000 0.000000 
0.000000 0.000000 0.000000 
0.000000 0.000000 0.000000 

-0.000000 0.000000 0.000000 
0.000000 -0.000000 0.000000 
0.000000 0.000000 0.000000 

-0.000000 -0.000000 0.000000 
0.000000 0.000000 0.000000 
0.000000 0.000000 0.000000 

0.000000 -0.000000 0.000000 
0.000000 0.000000 0.000000 
0.000000 0.000000 0.000000 

0.000000 -0.000000 0.000000 
0.000000 0.000000 0.000000 
0.000000 0.000000 0.000000 

0.000000 0.000000 0.000000 
0.000000 0.000000 0.000000 
0.000000 0.000000 0.000000 

0.000000 -0.000000 0.000000 
0.000000 -0.000000 0.000000 
0.000000 0.000000 0.000000 

0.000000 -0.000000 0.000000 
0.000000 0.000000 0.000000 
0.000000 0.000000 0.000000 

-0.000000 -0.000000 0.000000 
0.000000 -0.000000 0.000000 
0.000000 0.000000 0.000000 

0.000000 -0.000000 0.000000 
0.000000 0.000000 0.000000 
0.000000 0.000000 0.000000 

0.000000 -0.000000 0.000000 
0.000000 0.000000 0.000000 
0.000000 0.000000 0.000000 

-0.000000 -0.000000 0.000000 
0.000000 -0.000000 0.000000 
0.000000 0.000000 0.000000 

0.000000 -0.000000 0.000000 
0.000000 0.000000 0.000000 
0.000000 0.000000 0.000000 

0.000000 -0.000000 0.000000 
0.000000 0.000000 0.000000 
0.000000 0.000000 0.000000 

0.000000 -0.000000 0.000000 
0.000000 0.000000 0.000000 
0.000000 0.000000 0.000000 

-0.000000 -0.000000 0.000000 
0.000000 -0.000000 0.000000 
0.000000 0.000000 0.000000 

-0.000000 -0.000000 0.000000 
0.000000 -0.000000 0.000000 
0.000000 0.000000 0.000000 

0.000000 -0.000000 0.000000 
0.000000 0.000000 0.000000 
0.000000 0.000000 0.000000 

-0.000000 -0.000000 0.000000 
0.000000 -0.000000 0.000000 
0.000000 0.000000 0.000000 

0.000000 0.000000 0.000000 
0.000000 0.000000 0.000000 
0.000000 0.000000 0.000000 

0.000000 -0.000000 0.000000 
0.000000 0.000000 0.000000 
0.000000 0.000000 0.000000 

-0.000000 -0.000000 0.000000 
0.000000 -0.000000 0.000000 
0.000000 0.000000 0.000000 

-0.000000 -0.000000 0.000000 
0.000000 -0.000000 0.000000 
0.000000 0.000000 0.000000 

-0.000000 -0.000000 0.000000 
0.000000 -0.000000 0.000000 
0.000000 0.000000 0.000000 

0.000000 0.000000 0.000000 
0.000000 0.000000 0.000000 
0.000000 0.000000 0.000000 

0.000000 -0.000000 0.000000 
0.000000 0.000000 0.000000 
0.000000 0.000000 0.000000 

-0.000000 -0.000000 0.000000 
0.000000 -0.000000 0.000000 
0.000000 0.000000 0.000000 

-0.000000 -0.000000 0.000000 
0.000000 -0.000000 0.000000 
0.000000 0.000000 0.000000 

0.000000 -0.000000 0.000000 
0.000000 0.000000 0.000000 
0.000000 0.000000 0.000000 

-0.000000 0.000000 0.000000 
0.000000 -0.000000 0.000000 
0.000000 0.000000 0.000000 

0.000000 0.000000 0.000000 
0.000000 0.000000 0.000000 
0.000000 0.000000 0.000000 

0.000000 -0.000000 0.000000 
0.000000 0.000000 0.000000 
0.000000 0.000000 0.000000 

-0.000000 -0.000000 0.000000 
0.000000 -0.000000 0.000000 
0.000000 0.000000 0.000000 

-0.000000 0.000000 0.000000 
0.000000 -0.000000 0.000000 
0.000000 0.000000 0.000000 

-0.000000 -0.000000 0.000000 
0.000000 -0.000000 0.000000 
0.000000 0.000000 0.000000 

-0.000000 -0.000000 0.000000 
0.000000 -0.000000 0.000000 
0.000000 0.000000 0.000000 

-0.000000 -0.000000 0.000000 
0.000000 -0.000000 0.000000 
0.000000 0.000000 0.000000 

-0.000000 -0.000000 0.000000 
0.000000 -0.000000 0.000000 
0.000000 0.000000 0.000000 

0.000000 0.000000 0.000000 
0.000000 0.000000 0.000000 
0.000000 0.000000 0.000000 

-0.000000 -0.000000 0.000000 
0.000000 -0.000000 0.000000 
0.000000 0.000000 0.000000 

-0.000000 -0.000000 0.000000 
0.000000 -0.000000 0.000000 
0.000000 0.000000 0.000000 

0.000000 -0.000000 0.000000 
0.000000 0.000000 0.000000 
0.000000 0.000000 0.000000 

-0.000000 -0.000000 0.000000 
0.000000 -0.000000 0.000000 
0.000000 0.000000 0.000000 

0.000000 0.000000 0.000000 
0.000000 0.000000 0.000000 
0.000000 0.000000 0.000000 

-0.000000 -0.000000 0.000000 
0.000000 -0.000000 0.000000 
0.000000 0.000000 0.000000 

0.000000 0.000000 0.000000 
0.000000 0.000000 0.000000 
0.000000 0.000000 0.000000 

0.000000 -0.000000 0.000000 
0.000000 0.000000 0.000000 
0.000000 0.000000 0.000000 

0.000000 -0.000000 0.000000 
0.000000 0.000000 0.000000 
0.000000 0.000000 0.000000 

0.000000 -0.000000 0.000000 
0.000000 0.000000 0.000000 
0.000000 0.000000 0.000000 

0.000000 -0.000000 0.000000 
0.000000 0.000000 0.000000 
0.000000 0.000000 0.000000 

0.000000 -0.000000 0.000000 
0.000000 0.000000 0.000000 
0.000000 0.000000 0.000000 

-0.000000 0.000000 0.000000 
0.000000 -0.000000 0.000000 
0.000000 0.000000 0.000000 

0.000000 -0.000000 0.000000 
0.000000 0.000000 0.000000 
0.000000 0.000000 0.000000 

-0.000000 -0.000000 0.000000 
0.000000 -0.000000 0.000000 
0.000000 0.000000 0.000000 

-0.000000 0.000000 0.000000 
0.000000 -0.000000 0.000000 
0.000000 0.000000 0.000000 

0.000000 -0.000000 0.000000 
0.000000 0.000000 0.000000 
0.000000 0.000000 0.000000 

0.000000 -0.000000 0.000000 
0.000000 0.000000 0.000000 
0.000000 0.000000 0.000000 

-0.000000 -0.000000 0.000000 
0.000000 -0.000000 0.000000 
0.000000 0.000000 0.000000 

-0.000000 -0.000000 0.000000 
0.000000 -0.000000 0.000000 
0.000000 0.000000 0.000000 

0.000000 -0.000000 0.000000 
0.000000 0.000000 0.000000 
0.000000 0.000000 0.000000 

-0.000000 -0.000000 0.000000 
0.000000 -0.000000 0.000000 
0.000000 0.000000 0.000000 

0.000000 -0.000000 0.000000 
0.000000 0.000000 0.000000 
0.000000 0.000000 0.000000 

-0.000000 -0.000000 0.000000 
0.000000 -0.000000 0.000000 
0.000000 0.000000 0.000000 

-0.000000 -0.000000 0.000000 
0.000000 -0.000000 0.000000 
0.000000 0.000000 0.000000 

0.000000 -0.000000 0.000000 
0.000000 0.000000 0.000000 
0.000000 0.000000 0.000000 

0.000000 0.000000 0.000000 
0.000000 0.000000 0.000000 
0.000000 0.000000 0.000000 

0.000000 -0.000000 0.000000 
0.000000 0.000000 0.000000 
0.000000 0.000000 0.000000 

-0.000000 -0.000000 0.000000 
0.000000 0.000000 0.000000 
0.000000 0.000000 0.000000 

0.000000 0.000000 0.000000 
0.000000 0.000000 0.000000 
0.000000 0.000000 0.000000 

-0.000000 0.000000 0.000000 
0.000000 -0.000000 0.000000 
0.000000 0.000000 0.000000 

0.000000 -0.000000 0.000000 
0.000000 0.000000 0.000000 
0.000000 0.000000 0.000000 

0.000000 -0.000000 0.000000 
0.000000 0.000000 0.000000 
0.000000 0.000000 0.000000 

0.000000 0.000000 0.000000 
0.000000 0.000000 0.000000 
0.000000 0.000000 0.000000 

0.000000 -0.000000 0.000000 
0.000000 0.000000 0.000000 
0.000000 0.000000 0.000000 

0.000000 -0.000000 0.000000 
0.000000 0.000000 0.000000 
0.000000 0.000000 0.000000 

0.000000 0.000000 0.000000 
0.000000 -0.000000 0.000000 
0.000000 0.000000 0.000000 

-0.000000 0.000000 0.000000 
0.000000 -0.000000 0.000000 
0.000000 0.000000 0.000000 

-0.000000 -0.000000 0.000000 
0.000000 0.000000 0.000000 
0.000000 0.000000 0.000000 

0.000000 0.000000 0.000000 
0.000000 0.000000 0.000000 
0.000000 0.000000 0.000000 

-0.000000 -0.000000 0.000000 
0.000000 -0.000000 0.000000 
0.000000 0.000000 0.000000 

0.000000 -0.000000 0.000000 
0.000000 0.000000 0.000000 
0.000000 0.000000 0.000000 

-0.000000 -0.000000 0.000000 
0.000000 -0.000000 0.000000 
0.000000 0.000000 0.000000 

-0.000000 -0.000000 0.000000 
0.000000 -0.000000 0.000000 
0.000000 0.000000 0.000000 

-0.000000 -0.000000 0.000000 
0.000000 -0.000000 0.000000 
0.000000 0.000000 0.000000 

TENSORS STRAIN float 
0.000000 -0.000000 0.000000 
0.000000 0.000000 0.000000 
0.000000 0.000000 0.000000 

-0.000000 0.000000 0.000000 
0.000000 0.000000 0.000000 
0.000000 0.000000 0.000000 

0.000000 -0.000000 0.000000 
0.000000 -0.000000 0.000000 
0.000000 0.000000 0.000000 

0.000000 -0.000000 0.000000 
0.000000 0.000000 0.000000 
0.000000 0.000000 0.000000 

-0.000000 0.000000 0.000000 
0.000000 0.000000 0.000000 
0.000000 0.000000 0.000000 

-0.000000 0.000000 0.000000 
0.000000 0.000000 0.000000 
0.000000 0.000000 0.000000 

-0.000000 0.000000 0.000000 
0.000000 0.000000 0.000000 
0.000000 0.000000 0.000000 

-0.000000 -0.000000 0.000000 
0.000000 0.000000 0.000000 
0.000000 0.000000 0.000000 

-0.000000 -0.000000 0.000000 
0.000000 -0.000000 0.000000 
0.000000 0.000000 0.000000 

0.000000 -0.000000 0.000000 
0.000000 -0.000000 0.000000 
0.000000 0.000000 0.000000 

-0.000000 -0.000000 0.000000 
0.000000 -0.000000 0.000000 
0.000000 0.000000 0.000000 

0.000000 0.000000 0.000000 
0.000000 -0.000000 0.000000 
0.000000 0.000000 0.000000 

-0.000000 0.000000 0.000000 
0.000000 -0.000000 0.000000 
0.000000 0.000000 0.000000 

0.000000 0.000000 0.000000 
0.000000 0.000000 0.000000 
0.000000 0.000000 0.000000 

-0.000000 -0.000000 0.000000 
0.000000 -0.000000 0.000000 
0.000000 0.000000 0.000000 

-0.000000 -0.000000 0.000000 
0.000000 0.000000 0.000000 
0.000000 0.000000 0.000000 

0.000000 -0.000000 0.000000 
0.000000 -0.000000 0.000000 
0.000000 0.000000 0.000000 

0.000000 0.000000 0.000000 
0.000000 -0.000000 0.000000 
0.000000 0.000000 0.000000 

0.000000 0.000000 0.000000 
0.000000 -0.000000 0.000000 
0.000000 0.000000 0.000000 

0.000000 0.000000 0.000000 
0.000000 -0.000000 0.000000 
0.000000 0.000000 0.000000 

-0.000000 -0.000000 0.000000 
0.000000 -0.000000 0.000000 
0.000000 0.000000 0.000000 

-0.000000 0.000000 0.000000 
0.000000 -0.000000 0.000000 
0.000000 0.000000 0.000000 

0.000000 -0.000000 0.000000 
0.000000 -0.000000 0.000000 
0.000000 0.000000 0.000000 

-0.000000 -0.000000 0.000000 
0.000000 0.000000 0.000000 
0.000000 0.000000 0.000000 

0.000000 -0.000000 0.000000 
0.000000 0.000000 0.000000 
0.000000 0.000000 0.000000 

-0.000000 -0.000000 0.000000 
0.000000 -0.000000 0.000000 
0.000000 0.000000 0.000000 

-0.000000 -0.000000 0.000000 
0.000000 0.000000 0.000000 
0.000000 0.000000 0.000000 

-0.000000 -0.000000 0.000000 
0.000000 0.000000 0.000000 
0.000000 0.000000 0.000000 

-0.000000 -0.000000 0.000000 
0.000000 0.000000 0.000000 
0.000000 0.000000 0.000000 

-0.000000 0.000000 0.000000 
0.000000 0.000000 0.000000 
0.000000 0.000000 0.000000 

-0.000000 -0.000000 0.000000 
0.000000 0.000000 0.000000 
0.000000 0.000000 0.000000 

-0.000000 0.000000 0.000000 
0.000000 0.000000 0.000000 
0.000000 0.000000 0.000000 

-0.000000 -0.000000 0.000000 
0.000000 0.000000 0.000000 
0.000000 0.000000 0.000000 

-0.000000 -0.000000 0.000000 
0.000000 0.000000 0.000000 
0.000000 0.000000 0.000000 

-0.000000 -0.000000 0.000000 
0.000000 -0.000000 0.000000 
0.000000 0.000000 0.000000 

-0.000000 0.000000 0.000000 
0.000000 0.000000 0.000000 
0.000000 0.000000 0.000000 

-0.000000 0.000000 0.000000 
0.000000 0.000000 0.000000 
0.000000 0.000000 0.000000 

-0.000000 -0.000000 0.000000 
0.000000 -0.000000 0.000000 
0.000000 0.000000 0.000000 

-0.000000 0.000000 0.000000 
0.000000 -0.000000 0.000000 
0.000000 0.000000 0.000000 

-0.000000 0.000000 0.000000 
0.000000 0.000000 0.000000 
0.000000 0.000000 0.000000 

-0.000000 0.000000 0.000000 
0.000000 0.000000 0.000000 
0.000000 0.000000 0.000000 

-0.000000 0.000000 0.000000 
0.000000 -0.000000 0.000000 
0.000000 0.000000 0.000000 

-0.000000 0.000000 0.000000 
0.000000 0.000000 0.000000 
0.000000 0.000000 0.000000 

-0.000000 0.000000 0.000000 
0.000000 0.000000 0.000000 
0.000000 0.000000 0.000000 

-0.000000 0.000000 0.000000 
0.000000 0.000000 0.000000 
0.000000 0.000000 0.000000 

-0.000000 -0.000000 0.000000 
0.000000 0.000000 0.000000 
0.000000 0.000000 0.000000 

-0.000000 -0.000000 0.000000 
0.000000 0.000000 0.000000 
0.000000 0.000000 0.000000 

0.000000 0.000000 0.000000 
0.000000 -0.000000 0.000000 
0.000000 0.000000 0.000000 

0.000000 -0.000000 0.000000 
0.000000 0.000000 0.000000 
0.000000 0.000000 0.000000 

0.000000 -0.000000 0.000000 
0.000000 -0.000000 0.000000 
0.000000 0.000000 0.000000 

-0.000000 -0.000000 0.000000 
0.000000 0.000000 0.000000 
0.000000 0.000000 0.000000 

-0.000000 0.000000 0.000000 
0.000000 0.000000 0.000000 
0.000000 0.000000 0.000000 

-0.000000 -0.000000 0.000000 
0.000000 0.000000 0.000000 
0.000000 0.000000 0.000000 

-0.000000 -0.000000 0.000000 
0.000000 0.000000 0.000000 
0.000000 0.000000 0.000000 

-0.000000 0.000000 0.000000 
0.000000 -0.000000 0.000000 
0.000000 0.000000 0.000000 

-0.000000 0.000000 0.000000 
0.000000 0.000000 0.000000 
0.000000 0.000000 0.000000 

-0.000000 0.000000 0.000000 
0.000000 -0.000000 0.000000 
0.000000 0.000000 0.000000 

-0.000000 -0.000000 0.000000 
0.000000 0.000000 0.000000 
0.000000 0.000000 0.000000 

-0.000000 -0.000000 0.000000 
0.000000 0.000000 0.000000 
0.000000 0.000000 0.000000 

-0.000000 0.000000 0.000000 
0.000000 0.000000 0.000000 
0.000000 0.000000 0.000000 

-0.000000 -0.000000 0.000000 
0.000000 0.000000 0.000000 
0.000000 0.000000 0.000000 

-0.000000 0.000000 0.000000 
0.000000 0.000000 0.000000 
0.000000 0.000000 0.000000 

-0.000000 0.000000 0.000000 
0.000000 -0.000000 0.000000 
0.000000 0.000000 0.000000 

-0.000000 0.000000 0.000000 
0.000000 0.000000 0.000000 
0.000000 0.000000 0.000000 

-0.000000 -0.000000 0.000000 
0.000000 0.000000 0.000000 
0.000000 0.000000 0.000000 

-0.000000 -0.000000 0.000000 
0.000000 0.000000 0.000000 
0.000000 0.000000 0.000000 

0.000000 0.000000 0.000000 
0.000000 -0.000000 0.000000 
0.000000 0.000000 0.000000 

0.000000 0.000000 0.000000 
0.000000 0.000000 0.000000 
0.000000 0.000000 0.000000 

0.000000 0.000000 0.000000 
0.000000 -0.000000 0.000000 
0.000000 0.000000 0.000000 

-0.000000 0.000000 0.000000 
0.000000 0.000000 0.000000 
0.000000 0.000000 0.000000 

-0.000000 0.000000 0.000000 
0.000000 0.000000 0.000000 
0.000000 0.000000 0.000000 

-0.000000 0.000000 0.000000 
0.000000 -0.000000 0.000000 
0.000000 0.000000 0.000000 

-0.000000 -0.000000 0.000000 
0.000000 -0.000000 0.000000 
0.000000 0.000000 0.000000 

0.000000 0.000000 0.000000 
0.000000 -0.000000 0.000000 
0.000000 0.000000 0.000000 

0.000000 0.000000 0.000000 
0.000000 -0.000000 0.000000 
0.000000 0.000000 0.000000 

-0.000000 -0.000000 0.000000 
0.000000 -0.000000 0.000000 
0.000000 0.000000 0.000000 

-0.000000 -0.000000 0.000000 
0.000000 0.000000 0.000000 
0.000000 0.000000 0.000000 

-0.000000 -0.000000 0.000000 
0.000000 0.000000 0.000000 
0.000000 0.000000 0.000000 

-0.000000 0.000000 0.000000 
0.000000 0.000000 0.000000 
0.000000 0.000000 0.000000 

-0.000000 0.000000 0.000000 
0.000000 0.000000 0.000000 
0.000000 0.000000 0.000000 

-0.000000 -0.000000 0.000000 
0.000000 0.000000 0.000000 
0.000000 0.000000 0.000000 

-0.000000 -0.000000 0.000000 
0.000000 0.000000 0.000000 
0.000000 0.000000 0.000000 

-0.000000 -0.000000 0.000000 
0.000000 0.000000 0.000000 
0.000000 0.000000 0.000000 

-0.000000 0.000000 0.000000 
0.000000 -0.000000 0.000000 
0.000000 0.000000 0.000000 

-0.000000 0.000000 0.000000 
0.000000 -0.000000 0.000000 
0.000000 0.000000 0.000000 

-0.000000 -0.000000 0.000000 
0.000000 0.000000 0.000000 
0.000000 0.000000 0.000000 

-0.000000 -0.000000 0.000000 
0.000000 0.000000 0.000000 
0.000000 0.000000 0.000000 

-0.000000 -0.000000 0.000000 
0.000000 0.000000 0.000000 
0.000000 0.000000 0.000000 

-0.000000 -0.000000 0.000000 
0.000000 0.000000 0.000000 
0.000000 0.000000 0.000000 

-0.000000 -0.000000 0.000000 
0.000000 0.000000 0.000000 
0.000000 0.000000 0.000000 

0.000000 0.000000 0.000000 
0.000000 0.000000 0.000000 
0.000000 0.000000 0.000000 

-0.000000 -0.000000 0.000000 
0.000000 0.000000 0.000000 
0.000000 0.000000 0.000000 

-0.000000 0.000000 0.000000 
0.000000 0.000000 0.000000 
0.000000 0.000000 0.000000 

-0.000000 -0.000000 0.000000 
0.000000 0.000000 0.000000 
0.000000 0.000000 0.000000 

-0.000000 -0.000000 0.000000 
0.000000 0.000000 0.000000 
0.000000 0.000000 0.000000 

-0.000000 -0.000000 0.000000 
0.000000 0.000000 0.000000 
0.000000 0.000000 0.000000 

-0.000000 0.000000 0.000000 
0.000000 0.000000 0.000000 
0.000000 0.000000 0.000000 

0.000000 -0.000000 0.000000 
0.000000 -0.000000 0.000000 
0.000000 0.000000 0.000000 

0.000000 -0.000000 0.000000 
0.000000 0.000000 0.000000 
0.000000 0.000000 0.000000 

0.000000 -0.000000 0.000000 
0.000000 -0.000000 0.000000 
0.000000 0.000000 0.000000 

-0.000000 -0.000000 0.000000 
0.000000 0.000000 0.000000 
0.000000 0.000000 0.000000 

-0.000000 -0.000000 0.000000 
0.000000 0.000000 0.000000 
0.000000 0.000000 0.000000 

-0.000000 -0.000000 0.000000 
0.000000 -0.000000 0.000000 
0.000000 0.000000 0.000000 

-0.000000 -0.000000 0.000000 
0.000000 0.000000 0.000000 
0.000000 0.000000 0.000000 

0.000000 -0.000000 0.000000 
0.000000 -0.000000 0.000000 
0.000000 0.000000 0.000000 

-0.000000 -0.000000 0.000000 
0.000000 0.000000 0.000000 
0.000000 0.000000 0.000000 

-0.000000 -0.000000 0.000000 
0.000000 0.000000 0.000000 
0.000000 0.000000 0.000000 

-0.000000 -0.000000 0.000000 
0.000000 0.000000 0.000000 
0.000000 0.000000 0.000000 

-0.000000 -0.000000 0.000000 
0.000000 0.000000 0.000000 
0.000000 0.000000 0.000000 

0.000000 -0.000000 0.000000 
0.000000 -0.000000 0.000000 
0.000000 0.000000 0.000000 

0.000000 0.000000 0.000000 
0.000000 0.000000 0.000000 
0.000000 0.000000 0.000000 

0.000000 -0.000000 0.000000 
0.000000 -0.000000 0.000000 
0.000000 0.000000 0.000000 

0.000000 -0.000000 0.000000 
0.000000 -0.000000 0.000000 
0.000000 0.000000 0.000000 

-0.000000 -0.000000 0.000000 
0.000000 -0.000000 0.000000 
0.000000 0.000000 0.000000 

-0.000000 -0.000000 0.000000 
0.000000 -0.000000 0.000000 
0.000000 0.000000 0.000000 

-0.000000 0.000000 0.000000 
0.000000 0.000000 0.000000 
0.000000 0.000000 0.000000 

-0.000000 -0.000000 0.000000 
0.000000 0.000000 0.000000 
0.000000 0.000000 0.000000 

-0.000000 -0.000000 0.000000 
0.000000 0.000000 0.000000 
0.000000 0.000000 0.000000 

-0.000000 -0.000000 0.000000 
0.000000 0.000000 0.000000 
0.000000 0.000000 0.000000 

0.000000 -0.000000 0.000000 
0.000000 0.000000 0.000000 
0.000000 0.000000 0.000000 

-0.000000 0.000000 0.000000 
0.000000 0.000000 0.000000 
0.000000 0.000000 0.000000 

-0.000000 0.000000 0.000000 
0.000000 0.000000 0.000000 
0.000000 0.000000 0.000000 

-0.000000 -0.000000 0.000000 
0.000000 0.000000 0.000000 
0.000000 0.000000 0.000000 

-0.000000 -0.000000 0.000000 
0.000000 0.000000 0.000000 
0.000000 0.000000 0.000000 

-0.000000 0.000000 0.000000 
0.000000 0.000000 0.000000 
0.000000 0.000000 0.000000 

-0.000000 -0.000000 0.000000 
0.000000 -0.000000 0.000000 
0.000000 0.000000 0.000000 

-0.000000 -0.000000 0.000000 
0.000000 0.000000 0.000000 
0.000000 0.000000 0.000000 

0.000000 -0.000000 0.000000 
0.000000 -0.000000 0.000000 
0.000000 0.000000 0.000000 

0.000000 -0.000000 0.000000 
0.000000 -0.000000 0.000000 
0.000000 0.000000 0.000000 

-0.000000 0.000000 0.000000 
0.000000 0.000000 0.000000 
0.000000 0.000000 0.000000 

-0.000000 -0.000000 0.000000 
0.000000 -0.000000 0.000000 
0.000000 0.000000 0.000000 

-0.000000 -0.000000 0.000000 
0.000000 -0.000000 0.000000 
0.000000 0.000000 0.000000 

0.000000 -0.000000 0.000000 
0.000000 0.000000 0.000000 
0.000000 0.000000 0.000000 

-0.000000 -0.000000 0.000000 
0.000000 -0.000000 0.000000 
0.000000 0.000000 0.000000 

-0.000000 0.000000 0.000000 
0.000000 0.000000 0.000000 
0.000000 0.000000 0.000000 

-0.000000 -0.000000 0.000000 
0.000000 -0.000000 0.000000 
0.000000 0.000000 0.000000 

-0.000000 0.000000 0.000000 
0.000000 0.000000 0.000000 
0.000000 0.000000 0.000000 

-0.000000 -0.000000 0.000000 
0.000000 0.000000 0.000000 
0.000000 0.000000 0.000000 

-0.000000 -0.000000 0.000000 
0.000000 0.000000 0.000000 
0.000000 0.000000 0.000000 

-0.000000 -0.000000 0.000000 
0.000000 0.000000 0.000000 
0.000000 0.000000 0.000000 

-0.000000 -0.000000 0.000000 
0.000000 0.000000 0.000000 
0.000000 0.000000 0.000000 

-0.000000 -0.000000 0.000000 
0.000000 0.000000 0.000000 
0.000000 0.000000 0.000000 

0.000000 0.000000 0.000000 
0.000000 -0.000000 0.000000 
0.000000 0.000000 0.000000 

-0.000000 -0.000000 0.000000 
0.000000 0.000000 0.000000 
0.000000 0.000000 0.000000 

0.000000 -0.000000 0.000000 
0.000000 -0.000000 0.000000 
0.000000 0.000000 0.000000 

0.000000 0.000000 0.000000 
0.000000 -0.000000 0.000000 
0.000000 0.000000 0.000000 

0.000000 -0.000000 0.000000 
0.000000 0.000000 0.000000 
0.000000 0.000000 0.000000 

-0.000000 -0.000000 0.000000 
0.000000 0.000000 0.000000 
0.000000 0.000000 0.000000 

-0.000000 -0.000000 0.000000 
0.000000 0.000000 0.000000 
0.000000 0.000000 0.000000 

-0.000000 -0.000000 0.000000 
0.000000 -0.000000 0.000000 
0.000000 0.000000 0.000000 

0.000000 -0.000000 0.000000 
0.000000 -0.000000 0.000000 
0.000000 0.000000 0.000000 

0.000000 -0.000000 0.000000 
0.000000 -0.000000 0.000000 
0.000000 0.000000 0.000000 

0.000000 -0.000000 0.000000 
0.000000 -0.000000 0.000000 
0.000000 0.000000 0.000000 

-0.000000 -0.000000 0.000000 
0.000000 -0.000000 0.000000 
0.000000 0.000000 0.000000 

-0.000000 -0.000000 0.000000 
0.000000 0.000000 0.000000 
0.000000 0.000000 0.000000 

-0.000000 -0.000000 0.000000 
0.000000 0.000000 0.000000 
0.000000 0.000000 0.000000 

-0.000000 0.000000 0.000000 
0.000000 0.000000 0.000000 
0.000000 0.000000 0.000000 

-0.000000 -0.000000 0.000000 
0.000000 0.000000 0.000000 
0.000000 0.000000 0.000000 

-0.000000 -0.000000 0.000000 
0.000000 0.000000 0.000000 
0.000000 0.000000 0.000000 

-0.000000 0.000000 0.000000 
0.000000 0.000000 0.000000 
0.000000 0.000000 0.000000 

-0.000000 0.000000 0.000000 
0.000000 0.000000 0.000000 
0.000000 0.000000 0.000000 

-0.000000 -0.000000 0.000000 
0.000000 0.000000 0.000000 
0.000000 0.000000 0.000000 

-0.000000 -0.000000 0.000000 
0.000000 0.000000 0.000000 
0.000000 0.000000 0.000000 

-0.000000 0.000000 0.000000 
0.000000 0.000000 0.000000 
0.000000 0.000000 0.000000 

-0.000000 -0.000000 0.000000 
0.000000 0.000000 0.000000 
0.000000 0.000000 0.000000 

-0.000000 -0.000000 0.000000 
0.000000 0.000000 0.000000 
0.000000 0.000000 0.000000 

0.000000 0.000000 0.000000 
0.000000 -0.000000 0.000000 
0.000000 0.000000 0.000000 

-0.000000 0.000000 0.000000 
0.000000 -0.000000 0.000000 
0.000000 0.000000 0.000000 

-0.000000 -0.000000 0.000000 
0.000000 0.000000 0.000000 
0.000000 0.000000 0.000000 

0.000000 0.000000 0.000000 
0.000000 0.000000 0.000000 
0.000000 0.000000 0.000000 

0.000000 -0.000000 0.000000 
0.000000 -0.000000 0.000000 
0.000000 0.000000 0.000000 

-0.000000 -0.000000 0.000000 
0.000000 0.000000 0.000000 
0.000000 0.000000 0.000000 

-0.000000 -0.000000 0.000000 
0.000000 0.000000 0.000000 
0.000000 0.000000 0.000000 

0.000000 -0.000000 0.000000 
0.000000 -0.000000 0.000000 
0.000000 0.000000 0.000000 

0.000000 -0.000000 0.000000 
0.000000 -0.000000 0.000000 
0.000000 0.000000 0.000000 

