# vtk DataFile Version 3.0 
vtk output 
ASCII 
DATASET UNSTRUCTURED_GRID 
POINTS 175 float 
-0.026061 -0.192217 0.000000 
-0.106992 -0.124161 0.000000 
-0.054870 -0.132394 0.000000 
-0.028809 -0.086510 0.000000 
-0.186430 -0.060086 0.000000 
-0.137056 -0.062612 0.000000 
-0.114311 -0.008965 0.000000 
-0.058186 -0.024630 0.000000 
-0.029377 0.015547 0.000000 
-0.265318 0.003070 0.000000 
-0.217198 0.002270 0.000000 
-0.196633 0.059567 0.000000 
-0.143120 0.050858 0.000000 
-0.116563 0.098127 0.000000 
-0.058945 0.078481 0.000000 
-0.029568 0.116601 0.000000 
-0.344206 0.066226 0.000000 
-0.296791 0.066233 0.000000 
-0.278030 0.126176 0.000000 
-0.225992 0.120309 0.000000 
-0.201664 0.172426 0.000000 
-0.145749 0.158952 0.000000 
-0.117890 0.203295 0.000000 
-0.059328 0.180589 0.000000 
-0.029759 0.217655 0.000000 
-0.058559 -0.232967 0.000000 
-0.162226 -0.253810 0.000000 
-0.123292 -0.218192 0.000000 
-0.142917 -0.169209 0.000000 
-0.261851 -0.275966 0.000000 
-0.229092 -0.238939 0.000000 
-0.256854 -0.187708 0.000000 
-0.209613 -0.153595 0.000000 
-0.223062 -0.106021 0.000000 
-0.360414 -0.298267 0.000000 
-0.329787 -0.261144 0.000000 
-0.361761 -0.209342 0.000000 
-0.321587 -0.172933 0.000000 
-0.341985 -0.122699 0.000000 
-0.290702 -0.089900 0.000000 
-0.302189 -0.043165 0.000000 
-0.458977 -0.320567 0.000000 
-0.429420 -0.283492 0.000000 
-0.464588 -0.231450 0.000000 
-0.427556 -0.194423 0.000000 
-0.453135 -0.142908 0.000000 
-0.407738 -0.107593 0.000000 
-0.425037 -0.058165 0.000000 
-0.370772 -0.026536 0.000000 
-0.381315 0.019692 0.000000 
-0.046960 -0.283783 0.000000 
-0.095301 -0.377829 0.000000 
-0.098873 -0.325181 0.000000 
-0.149405 -0.309984 0.000000 
-0.140093 -0.469533 0.000000 
-0.148617 -0.420834 0.000000 
-0.205981 -0.410597 0.000000 
-0.203197 -0.352394 0.000000 
-0.248777 -0.333247 0.000000 
-0.184111 -0.560496 0.000000 
-0.194039 -0.513405 0.000000 
-0.254475 -0.506106 0.000000 
-0.257893 -0.451996 0.000000 
-0.309886 -0.436623 0.000000 
-0.303554 -0.376078 0.000000 
-0.347255 -0.355920 0.000000 
-0.228129 -0.651460 0.000000 
-0.238687 -0.605235 0.000000 
-0.301302 -0.600283 0.000000 
-0.307162 -0.548245 0.000000 
-0.363386 -0.536124 0.000000 
-0.362692 -0.478612 0.000000 
-0.412122 -0.461319 0.000000 
-0.403017 -0.399172 0.000000 
-0.445733 -0.378593 0.000000 
-0.000000 -0.306398 0.000000 
0.043388 -0.402828 0.000000 
-0.000000 -0.372796 0.000000 
-0.043388 -0.402828 0.000000 
0.087158 -0.495025 0.000000 
0.043769 -0.471326 0.000000 
-0.000000 -0.509792 0.000000 
-0.043769 -0.471326 0.000000 
-0.087158 -0.495025 0.000000 
0.130831 -0.586155 0.000000 
0.087824 -0.564556 0.000000 
0.044436 -0.607255 0.000000 
-0.000000 -0.576190 0.000000 
-0.044436 -0.607255 0.000000 
-0.087824 -0.564556 0.000000 
-0.130831 -0.586155 0.000000 
0.174505 -0.677284 0.000000 
0.131782 -0.656718 0.000000 
0.088871 -0.702585 0.000000 
0.044532 -0.674721 0.000000 
-0.000000 -0.711121 0.000000 
-0.044532 -0.674721 0.000000 
-0.088871 -0.702585 0.000000 
-0.131782 -0.656718 0.000000 
-0.174505 -0.677284 0.000000 
0.046960 -0.283783 0.000000 
0.149405 -0.309984 0.000000 
0.098873 -0.325181 0.000000 
0.095301 -0.377829 0.000000 
0.248777 -0.333247 0.000000 
0.203197 -0.352394 0.000000 
0.205981 -0.410597 0.000000 
0.148617 -0.420834 0.000000 
0.140093 -0.469533 0.000000 
0.347255 -0.355920 0.000000 
0.303554 -0.376078 0.000000 
0.309886 -0.436623 0.000000 
0.257893 -0.451996 0.000000 
0.254475 -0.506106 0.000000 
0.194039 -0.513405 0.000000 
0.184111 -0.560496 0.000000 
0.445733 -0.378593 0.000000 
0.403017 -0.399172 0.000000 
0.412122 -0.461319 0.000000 
0.362692 -0.478612 0.000000 
0.363386 -0.536124 0.000000 
0.307162 -0.548245 0.000000 
0.301302 -0.600283 0.000000 
0.238687 -0.605235 0.000000 
0.228129 -0.651460 0.000000 
0.058559 -0.232967 0.000000 
0.142917 -0.169209 0.000000 
0.123292 -0.218192 0.000000 
0.162226 -0.253810 0.000000 
0.223062 -0.106021 0.000000 
0.209613 -0.153595 0.000000 
0.256854 -0.187708 0.000000 
0.229092 -0.238939 0.000000 
0.261851 -0.275966 0.000000 
0.302189 -0.043165 0.000000 
0.290702 -0.089900 0.000000 
0.341985 -0.122699 0.000000 
0.321587 -0.172933 0.000000 
0.361761 -0.209342 0.000000 
0.329787 -0.261144 0.000000 
0.360414 -0.298267 0.000000 
0.381315 0.019692 0.000000 
0.370772 -0.026536 0.000000 
0.425037 -0.058165 0.000000 
0.407738 -0.107593 0.000000 
0.453135 -0.142908 0.000000 
0.427556 -0.194423 0.000000 
0.464588 -0.231450 0.000000 
0.429420 -0.283492 0.000000 
0.458977 -0.320567 0.000000 
0.026061 -0.192217 0.000000 
0.028809 -0.086510 0.000000 
0.054870 -0.132394 0.000000 
0.106992 -0.124161 0.000000 
0.029377 0.015547 0.000000 
0.058186 -0.024630 0.000000 
0.114311 -0.008965 0.000000 
0.137056 -0.062612 0.000000 
0.186430 -0.060086 0.000000 
0.029568 0.116601 0.000000 
0.058945 0.078481 0.000000 
0.116563 0.098127 0.000000 
0.143120 0.050858 0.000000 
0.196633 0.059567 0.000000 
0.217198 0.002270 0.000000 
0.265318 0.003070 0.000000 
0.029759 0.217655 0.000000 
0.059328 0.180589 0.000000 
0.117890 0.203295 0.000000 
0.145749 0.158952 0.000000 
0.201664 0.172426 0.000000 
0.225992 0.120309 0.000000 
0.278030 0.126176 0.000000 
0.296791 0.066233 0.000000 
0.344206 0.066226 0.000000 
CELLS 175 350 
1 0 
1 1 
1 2 
1 3 
1 4 
1 5 
1 6 
1 7 
1 8 
1 9 
1 10 
1 11 
1 12 
1 13 
1 14 
1 15 
1 16 
1 17 
1 18 
1 19 
1 20 
1 21 
1 22 
1 23 
1 24 
1 25 
1 26 
1 27 
1 28 
1 29 
1 30 
1 31 
1 32 
1 33 
1 34 
1 35 
1 36 
1 37 
1 38 
1 39 
1 40 
1 41 
1 42 
1 43 
1 44 
1 45 
1 46 
1 47 
1 48 
1 49 
1 50 
1 51 
1 52 
1 53 
1 54 
1 55 
1 56 
1 57 
1 58 
1 59 
1 60 
1 61 
1 62 
1 63 
1 64 
1 65 
1 66 
1 67 
1 68 
1 69 
1 70 
1 71 
1 72 
1 73 
1 74 
1 75 
1 76 
1 77 
1 78 
1 79 
1 80 
1 81 
1 82 
1 83 
1 84 
1 85 
1 86 
1 87 
1 88 
1 89 
1 90 
1 91 
1 92 
1 93 
1 94 
1 95 
1 96 
1 97 
1 98 
1 99 
1 100 
1 101 
1 102 
1 103 
1 104 
1 105 
1 106 
1 107 
1 108 
1 109 
1 110 
1 111 
1 112 
1 113 
1 114 
1 115 
1 116 
1 117 
1 118 
1 119 
1 120 
1 121 
1 122 
1 123 
1 124 
1 125 
1 126 
1 127 
1 128 
1 129 
1 130 
1 131 
1 132 
1 133 
1 134 
1 135 
1 136 
1 137 
1 138 
1 139 
1 140 
1 141 
1 142 
1 143 
1 144 
1 145 
1 146 
1 147 
1 148 
1 149 
1 150 
1 151 
1 152 
1 153 
1 154 
1 155 
1 156 
1 157 
1 158 
1 159 
1 160 
1 161 
1 162 
1 163 
1 164 
1 165 
1 166 
1 167 
1 168 
1 169 
1 170 
1 171 
1 172 
1 173 
1 174 
CELL_TYPES 175 
1 
1 
1 
1 
1 
1 
1 
1 
1 
1 
1 
1 
1 
1 
1 
1 
1 
1 
1 
1 
1 
1 
1 
1 
1 
1 
1 
1 
1 
1 
1 
1 
1 
1 
1 
1 
1 
1 
1 
1 
1 
1 
1 
1 
1 
1 
1 
1 
1 
1 
1 
1 
1 
1 
1 
1 
1 
1 
1 
1 
1 
1 
1 
1 
1 
1 
1 
1 
1 
1 
1 
1 
1 
1 
1 
1 
1 
1 
1 
1 
1 
1 
1 
1 
1 
1 
1 
1 
1 
1 
1 
1 
1 
1 
1 
1 
1 
1 
1 
1 
1 
1 
1 
1 
1 
1 
1 
1 
1 
1 
1 
1 
1 
1 
1 
1 
1 
1 
1 
1 
1 
1 
1 
1 
1 
1 
1 
1 
1 
1 
1 
1 
1 
1 
1 
1 
1 
1 
1 
1 
1 
1 
1 
1 
1 
1 
1 
1 
1 
1 
1 
1 
1 
1 
1 
1 
1 
1 
1 
1 
1 
1 
1 
1 
1 
1 
1 
1 
1 
1 
1 
1 
1 
1 
1 
POINT_DATA 175 
VECTORS X_GC float 
-0.026061 -0.192217 0.000000 
-0.106992 -0.124161 0.000000 
-0.054870 -0.132394 0.000000 
-0.028809 -0.086510 0.000000 
-0.186430 -0.060086 0.000000 
-0.137056 -0.062612 0.000000 
-0.114311 -0.008965 0.000000 
-0.058186 -0.024630 0.000000 
-0.029377 0.015547 0.000000 
-0.265318 0.003070 0.000000 
-0.217198 0.002270 0.000000 
-0.196633 0.059567 0.000000 
-0.143120 0.050858 0.000000 
-0.116563 0.098127 0.000000 
-0.058945 0.078481 0.000000 
-0.029568 0.116601 0.000000 
-0.344206 0.066226 0.000000 
-0.296791 0.066233 0.000000 
-0.278030 0.126176 0.000000 
-0.225992 0.120309 0.000000 
-0.201664 0.172426 0.000000 
-0.145749 0.158952 0.000000 
-0.117890 0.203295 0.000000 
-0.059328 0.180589 0.000000 
-0.029759 0.217655 0.000000 
-0.058559 -0.232967 0.000000 
-0.162226 -0.253810 0.000000 
-0.123292 -0.218192 0.000000 
-0.142917 -0.169209 0.000000 
-0.261851 -0.275966 0.000000 
-0.229092 -0.238939 0.000000 
-0.256854 -0.187708 0.000000 
-0.209613 -0.153595 0.000000 
-0.223062 -0.106021 0.000000 
-0.360414 -0.298267 0.000000 
-0.329787 -0.261144 0.000000 
-0.361761 -0.209342 0.000000 
-0.321587 -0.172933 0.000000 
-0.341985 -0.122699 0.000000 
-0.290702 -0.089900 0.000000 
-0.302189 -0.043165 0.000000 
-0.458977 -0.320567 0.000000 
-0.429420 -0.283492 0.000000 
-0.464588 -0.231450 0.000000 
-0.427556 -0.194423 0.000000 
-0.453135 -0.142908 0.000000 
-0.407738 -0.107593 0.000000 
-0.425037 -0.058165 0.000000 
-0.370772 -0.026536 0.000000 
-0.381315 0.019692 0.000000 
-0.046960 -0.283783 0.000000 
-0.095301 -0.377829 0.000000 
-0.098873 -0.325181 0.000000 
-0.149405 -0.309984 0.000000 
-0.140093 -0.469533 0.000000 
-0.148617 -0.420834 0.000000 
-0.205981 -0.410597 0.000000 
-0.203197 -0.352394 0.000000 
-0.248777 -0.333247 0.000000 
-0.184111 -0.560496 0.000000 
-0.194039 -0.513405 0.000000 
-0.254475 -0.506106 0.000000 
-0.257893 -0.451996 0.000000 
-0.309886 -0.436623 0.000000 
-0.303554 -0.376078 0.000000 
-0.347255 -0.355920 0.000000 
-0.228129 -0.651460 0.000000 
-0.238687 -0.605235 0.000000 
-0.301302 -0.600283 0.000000 
-0.307162 -0.548245 0.000000 
-0.363386 -0.536124 0.000000 
-0.362692 -0.478612 0.000000 
-0.412122 -0.461319 0.000000 
-0.403017 -0.399172 0.000000 
-0.445733 -0.378593 0.000000 
-0.000000 -0.306398 0.000000 
0.043388 -0.402828 0.000000 
-0.000000 -0.372796 0.000000 
-0.043388 -0.402828 0.000000 
0.087158 -0.495025 0.000000 
0.043769 -0.471326 0.000000 
-0.000000 -0.509792 0.000000 
-0.043769 -0.471326 0.000000 
-0.087158 -0.495025 0.000000 
0.130831 -0.586155 0.000000 
0.087824 -0.564556 0.000000 
0.044436 -0.607255 0.000000 
-0.000000 -0.576190 0.000000 
-0.044436 -0.607255 0.000000 
-0.087824 -0.564556 0.000000 
-0.130831 -0.586155 0.000000 
0.174505 -0.677284 0.000000 
0.131782 -0.656718 0.000000 
0.088871 -0.702585 0.000000 
0.044532 -0.674721 0.000000 
-0.000000 -0.711121 0.000000 
-0.044532 -0.674721 0.000000 
-0.088871 -0.702585 0.000000 
-0.131782 -0.656718 0.000000 
-0.174505 -0.677284 0.000000 
0.046960 -0.283783 0.000000 
0.149405 -0.309984 0.000000 
0.098873 -0.325181 0.000000 
0.095301 -0.377829 0.000000 
0.248777 -0.333247 0.000000 
0.203197 -0.352394 0.000000 
0.205981 -0.410597 0.000000 
0.148617 -0.420834 0.000000 
0.140093 -0.469533 0.000000 
0.347255 -0.355920 0.000000 
0.303554 -0.376078 0.000000 
0.309886 -0.436623 0.000000 
0.257893 -0.451996 0.000000 
0.254475 -0.506106 0.000000 
0.194039 -0.513405 0.000000 
0.184111 -0.560496 0.000000 
0.445733 -0.378593 0.000000 
0.403017 -0.399172 0.000000 
0.412122 -0.461319 0.000000 
0.362692 -0.478612 0.000000 
0.363386 -0.536124 0.000000 
0.307162 -0.548245 0.000000 
0.301302 -0.600283 0.000000 
0.238687 -0.605235 0.000000 
0.228129 -0.651460 0.000000 
0.058559 -0.232967 0.000000 
0.142917 -0.169209 0.000000 
0.123292 -0.218192 0.000000 
0.162226 -0.253810 0.000000 
0.223062 -0.106021 0.000000 
0.209613 -0.153595 0.000000 
0.256854 -0.187708 0.000000 
0.229092 -0.238939 0.000000 
0.261851 -0.275966 0.000000 
0.302189 -0.043165 0.000000 
0.290702 -0.089900 0.000000 
0.341985 -0.122699 0.000000 
0.321587 -0.172933 0.000000 
0.361761 -0.209342 0.000000 
0.329787 -0.261144 0.000000 
0.360414 -0.298267 0.000000 
0.381315 0.019692 0.000000 
0.370772 -0.026536 0.000000 
0.425037 -0.058165 0.000000 
0.407738 -0.107593 0.000000 
0.453135 -0.142908 0.000000 
0.427556 -0.194423 0.000000 
0.464588 -0.231450 0.000000 
0.429420 -0.283492 0.000000 
0.458977 -0.320567 0.000000 
0.026061 -0.192217 0.000000 
0.028809 -0.086510 0.000000 
0.054870 -0.132394 0.000000 
0.106992 -0.124161 0.000000 
0.029377 0.015547 0.000000 
0.058186 -0.024630 0.000000 
0.114311 -0.008965 0.000000 
0.137056 -0.062612 0.000000 
0.186430 -0.060086 0.000000 
0.029568 0.116601 0.000000 
0.058945 0.078481 0.000000 
0.116563 0.098127 0.000000 
0.143120 0.050858 0.000000 
0.196633 0.059567 0.000000 
0.217198 0.002270 0.000000 
0.265318 0.003070 0.000000 
0.029759 0.217655 0.000000 
0.059328 0.180589 0.000000 
0.117890 0.203295 0.000000 
0.145749 0.158952 0.000000 
0.201664 0.172426 0.000000 
0.225992 0.120309 0.000000 
0.278030 0.126176 0.000000 
0.296791 0.066233 0.000000 
0.344206 0.066226 0.000000 
VECTORS X_EC float 
0.338794 -0.905075 0.000000 
-0.609100 0.176177 0.000000 
0.713312 0.287318 0.000000 
0.374519 -0.332112 0.000000 
0.423588 -0.688842 0.000000 
-0.218274 -0.654739 0.000000 
-0.513962 0.621022 0.000000 
0.756418 0.832508 0.000000 
0.381900 0.290116 0.000000 
-0.550868 0.458555 0.000000 
0.823577 0.469350 0.000000 
0.556234 -0.304154 0.000000 
-0.139443 -0.186585 0.000000 
-0.484677 -0.824710 0.000000 
0.766286 -0.559495 0.000000 
0.384386 0.925885 0.000000 
0.474677 -0.394049 0.000000 
-0.141715 -0.394145 0.000000 
-0.385608 0.796627 0.000000 
0.937896 0.875822 0.000000 
0.621631 0.172242 0.000000 
-0.105264 0.354141 0.000000 
-0.467428 -0.244485 0.000000 
0.771260 0.062044 0.000000 
0.386873 -0.438346 0.000000 
0.761262 -0.354940 0.000000 
0.108942 -0.073564 0.000000 
-0.397202 -0.554403 0.000000 
-0.142083 0.784322 0.000000 
-0.595936 0.225547 0.000000 
0.978194 -0.274319 0.000000 
-0.660903 -0.965944 0.000000 
0.724964 0.573536 0.000000 
0.899809 -0.068712 0.000000 
0.685384 0.526599 0.000000 
0.287229 0.025441 0.000000 
0.702895 -0.673888 0.000000 
0.180633 0.834594 0.000000 
0.445811 0.156434 0.000000 
-0.220880 -0.286352 0.000000 
-0.071546 -0.917277 0.000000 
-0.033296 0.827651 0.000000 
-0.417537 0.327142 0.000000 
0.039645 -0.375421 0.000000 
-0.441768 -0.875292 0.000000 
-0.109248 0.429257 0.000000 
-0.699407 -0.047498 0.000000 
-0.474522 -0.714777 0.000000 
0.820030 0.858229 0.000000 
0.957100 0.234158 0.000000 
0.610485 0.331066 0.000000 
-0.761092 -0.399314 0.000000 
-0.714655 0.889948 0.000000 
-0.057734 0.684781 0.000000 
-0.178789 0.838690 0.000000 
-0.067979 0.181264 0.000000 
0.677748 0.043060 0.000000 
0.641556 -0.742685 0.000000 
-0.765897 0.998836 0.000000 
0.393446 0.066699 0.000000 
0.522510 -0.569031 0.000000 
-0.691820 -0.667575 0.000000 
-0.647393 0.601942 0.000000 
0.028512 0.394415 0.000000 
-0.053800 -0.422945 0.000000 
0.514316 -0.695076 0.000000 
0.965681 -0.705292 0.000000 
-0.897068 0.670679 0.000000 
-0.083078 0.603826 0.000000 
-0.006893 -0.098698 0.000000 
0.724017 -0.262331 0.000000 
0.714996 0.961265 0.000000 
-0.642413 0.727808 0.000000 
-0.760780 -0.111173 0.000000 
-0.205471 -0.388988 0.000000 
0.000000 0.636368 0.000000 
-0.564049 -0.061819 0.000000 
0.000000 -0.467255 0.000000 
0.564049 -0.061819 0.000000 
0.866949 -0.817164 0.000000 
-0.569003 0.862905 0.000000 
0.000000 -0.617807 0.000000 
0.569003 0.862905 0.000000 
-0.866949 -0.817164 0.000000 
0.299194 0.413086 0.000000 
0.858290 0.121502 0.000000 
-0.577662 0.697948 0.000000 
0.000000 0.278570 0.000000 
0.577662 0.697948 0.000000 
-0.858290 0.121502 0.000000 
-0.299194 0.413086 0.000000 
-0.268560 -0.356664 0.000000 
0.286830 -0.634305 0.000000 
0.844677 -0.015107 0.000000 
-0.578910 -0.391270 0.000000 
0.000000 0.100134 0.000000 
0.578910 -0.391270 0.000000 
-0.844677 -0.015107 0.000000 
-0.286830 -0.634305 0.000000 
0.268560 -0.356664 0.000000 
-0.610485 0.331066 0.000000 
0.057734 0.684781 0.000000 
0.714655 0.889948 0.000000 
0.761092 -0.399314 0.000000 
0.765897 0.998836 0.000000 
-0.641556 -0.742685 0.000000 
-0.677748 0.043060 0.000000 
0.067979 0.181264 0.000000 
0.178789 0.838690 0.000000 
-0.514316 -0.695076 0.000000 
0.053800 -0.422945 0.000000 
-0.028512 0.394415 0.000000 
0.647393 0.601942 0.000000 
0.691820 -0.667575 0.000000 
-0.522510 -0.569031 0.000000 
-0.393446 0.066699 0.000000 
0.205471 -0.388988 0.000000 
0.760780 -0.111173 0.000000 
0.642413 0.727808 0.000000 
-0.714996 0.961265 0.000000 
-0.724017 -0.262331 0.000000 
0.006894 -0.098698 0.000000 
0.083078 0.603826 0.000000 
0.897068 0.670679 0.000000 
-0.965681 -0.705292 0.000000 
-0.761262 -0.354940 0.000000 
0.142083 0.784322 0.000000 
0.397202 -0.554403 0.000000 
-0.108942 -0.073564 0.000000 
-0.899809 -0.068712 0.000000 
-0.724964 0.573536 0.000000 
0.660903 -0.965944 0.000000 
-0.978194 -0.274319 0.000000 
0.595936 0.225547 0.000000 
0.071546 -0.917277 0.000000 
0.220880 -0.286352 0.000000 
-0.445811 0.156434 0.000000 
-0.180633 0.834594 0.000000 
-0.702895 -0.673888 0.000000 
-0.287229 0.025441 0.000000 
-0.685384 0.526599 0.000000 
-0.957100 0.234158 0.000000 
-0.820030 0.858229 0.000000 
0.474522 -0.714777 0.000000 
0.699407 -0.047498 0.000000 
0.109248 0.429258 0.000000 
0.441768 -0.875292 0.000000 
-0.039645 -0.375421 0.000000 
0.417537 0.327142 0.000000 
0.033296 0.827651 0.000000 
-0.338794 -0.905075 0.000000 
-0.374519 -0.332112 0.000000 
-0.713312 0.287318 0.000000 
0.609100 0.176177 0.000000 
-0.381900 0.290116 0.000000 
-0.756418 0.832508 0.000000 
0.513962 0.621022 0.000000 
0.218274 -0.654739 0.000000 
-0.423588 -0.688842 0.000000 
-0.384386 0.925885 0.000000 
-0.766286 -0.559495 0.000000 
0.484677 -0.824710 0.000000 
0.139443 -0.186585 0.000000 
-0.556234 -0.304154 0.000000 
-0.823577 0.469350 0.000000 
0.550868 0.458555 0.000000 
-0.386873 -0.438346 0.000000 
-0.771260 0.062044 0.000000 
0.467428 -0.244485 0.000000 
0.105264 0.354141 0.000000 
-0.621631 0.172242 0.000000 
-0.937896 0.875822 0.000000 
0.385608 0.796627 0.000000 
0.141715 -0.394145 0.000000 
-0.474677 -0.394049 0.000000 
CELL_DATA 175 
SCALARS MASS float 
LOOKUP_TABLE default 
0.781831 
0.864274 
0.946717 
0.864274 
0.881307 
0.921110 
0.858535 
0.921110 
0.881307 
0.887046 
0.910001 
0.869829 
0.915556 
0.869829 
0.910001 
0.887046 
0.892784 
0.915740 
0.892784 
0.927218 
0.892784 
0.927218 
0.892784 
0.915740 
0.892784 
0.781831 
0.864274 
0.946717 
0.864274 
0.881307 
0.921110 
0.858535 
0.921110 
0.881307 
0.887046 
0.910001 
0.869829 
0.915556 
0.869829 
0.910001 
0.887046 
0.892784 
0.915740 
0.892784 
0.927218 
0.892784 
0.927218 
0.892784 
0.915740 
0.892784 
0.781831 
0.864274 
0.946717 
0.864274 
0.881307 
0.921110 
0.858535 
0.921110 
0.881307 
0.887046 
0.910001 
0.869829 
0.915556 
0.869829 
0.910001 
0.887046 
0.892784 
0.915740 
0.892784 
0.927218 
0.892784 
0.927218 
0.892784 
0.915740 
0.892784 
0.781831 
0.864274 
0.946717 
0.864274 
0.881307 
0.921110 
0.858535 
0.921110 
0.881307 
0.887046 
0.910001 
0.869829 
0.915556 
0.869829 
0.910001 
0.887046 
0.892784 
0.915740 
0.892784 
0.927218 
0.892784 
0.927218 
0.892784 
0.915740 
0.892784 
0.781831 
0.864274 
0.946717 
0.864274 
0.881307 
0.921110 
0.858535 
0.921110 
0.881307 
0.887046 
0.910001 
0.869829 
0.915556 
0.869829 
0.910001 
0.887046 
0.892784 
0.915740 
0.892784 
0.927218 
0.892784 
0.927218 
0.892784 
0.915740 
0.892784 
0.781831 
0.864274 
0.946717 
0.864274 
0.881307 
0.921110 
0.858535 
0.921110 
0.881307 
0.887046 
0.910001 
0.869829 
0.915556 
0.869829 
0.910001 
0.887046 
0.892784 
0.915740 
0.892784 
0.927218 
0.892784 
0.927218 
0.892784 
0.915740 
0.892784 
0.781831 
0.864274 
0.946717 
0.864274 
0.881307 
0.921110 
0.858535 
0.921110 
0.881307 
0.887046 
0.910001 
0.869829 
0.915556 
0.869829 
0.910001 
0.887046 
0.892784 
0.915740 
0.892784 
0.927218 
0.892784 
0.927218 
0.892784 
0.915740 
0.892784 
SCALARS MASS float 
LOOKUP_TABLE default 
0.781831 
0.864274 
0.946717 
0.864274 
0.881307 
0.921110 
0.858535 
0.921110 
0.881307 
0.887046 
0.910001 
0.869829 
0.915556 
0.869829 
0.910001 
0.887046 
0.892784 
0.915740 
0.892784 
0.927218 
0.892784 
0.927218 
0.892784 
0.915740 
0.892784 
0.781831 
0.864274 
0.946717 
0.864274 
0.881307 
0.921110 
0.858535 
0.921110 
0.881307 
0.887046 
0.910001 
0.869829 
0.915556 
0.869829 
0.910001 
0.887046 
0.892784 
0.915740 
0.892784 
0.927218 
0.892784 
0.927218 
0.892784 
0.915740 
0.892784 
0.781831 
0.864274 
0.946717 
0.864274 
0.881307 
0.921110 
0.858535 
0.921110 
0.881307 
0.887046 
0.910001 
0.869829 
0.915556 
0.869829 
0.910001 
0.887046 
0.892784 
0.915740 
0.892784 
0.927218 
0.892784 
0.927218 
0.892784 
0.915740 
0.892784 
0.781831 
0.864274 
0.946717 
0.864274 
0.881307 
0.921110 
0.858535 
0.921110 
0.881307 
0.887046 
0.910001 
0.869829 
0.915556 
0.869829 
0.910001 
0.887046 
0.892784 
0.915740 
0.892784 
0.927218 
0.892784 
0.927218 
0.892784 
0.915740 
0.892784 
0.781831 
0.864274 
0.946717 
0.864274 
0.881307 
0.921110 
0.858535 
0.921110 
0.881307 
0.887046 
0.910001 
0.869829 
0.915556 
0.869829 
0.910001 
0.887046 
0.892784 
0.915740 
0.892784 
0.927218 
0.892784 
0.927218 
0.892784 
0.915740 
0.892784 
0.781831 
0.864274 
0.946717 
0.864274 
0.881307 
0.921110 
0.858535 
0.921110 
0.881307 
0.887046 
0.910001 
0.869829 
0.915556 
0.869829 
0.910001 
0.887046 
0.892784 
0.915740 
0.892784 
0.927218 
0.892784 
0.927218 
0.892784 
0.915740 
0.892784 
0.781831 
0.864274 
0.946717 
0.864274 
0.881307 
0.921110 
0.858535 
0.921110 
0.881307 
0.887046 
0.910001 
0.869829 
0.915556 
0.869829 
0.910001 
0.887046 
0.892784 
0.915740 
0.892784 
0.927218 
0.892784 
0.927218 
0.892784 
0.915740 
0.892784 
SCALARS DENSITY float 
LOOKUP_TABLE default 
200.000000 
200.000000 
200.000000 
200.000000 
200.000000 
200.000000 
200.000000 
200.000000 
200.000000 
200.000000 
200.000000 
200.000000 
200.000000 
200.000000 
200.000000 
200.000000 
200.000000 
200.000000 
200.000000 
200.000000 
200.000000 
200.000000 
200.000000 
200.000000 
200.000000 
200.000000 
200.000000 
200.000000 
200.000000 
200.000000 
200.000000 
200.000000 
200.000000 
200.000000 
200.000000 
200.000000 
200.000000 
200.000000 
200.000000 
200.000000 
200.000000 
200.000000 
200.000000 
200.000000 
200.000000 
200.000000 
200.000000 
200.000000 
200.000000 
200.000000 
200.000000 
200.000000 
200.000000 
200.000000 
200.000000 
200.000000 
200.000000 
200.000000 
200.000000 
200.000000 
200.000000 
200.000000 
200.000000 
200.000000 
200.000000 
200.000000 
200.000000 
200.000000 
200.000000 
200.000000 
200.000000 
200.000000 
200.000000 
200.000000 
200.000000 
200.000000 
200.000000 
200.000000 
200.000000 
200.000000 
200.000000 
200.000000 
200.000000 
200.000000 
200.000000 
200.000000 
200.000000 
200.000000 
200.000000 
200.000000 
200.000000 
200.000000 
200.000000 
200.000000 
200.000000 
200.000000 
200.000000 
200.000000 
200.000000 
200.000000 
200.000000 
200.000000 
200.000000 
200.000000 
200.000000 
200.000000 
200.000000 
200.000000 
200.000000 
200.000000 
200.000000 
200.000000 
200.000000 
200.000000 
200.000000 
200.000000 
200.000000 
200.000000 
200.000000 
200.000000 
200.000000 
200.000000 
200.000000 
200.000000 
200.000000 
200.000000 
200.000000 
200.000000 
200.000000 
200.000000 
200.000000 
200.000000 
200.000000 
200.000000 
200.000000 
200.000000 
200.000000 
200.000000 
200.000000 
200.000000 
200.000000 
200.000000 
200.000000 
200.000000 
200.000000 
200.000000 
200.000000 
200.000000 
200.000000 
200.000000 
200.000000 
200.000000 
200.000000 
200.000000 
200.000000 
200.000000 
200.000000 
200.000000 
200.000000 
200.000000 
200.000000 
200.000000 
200.000000 
200.000000 
200.000000 
200.000000 
200.000000 
200.000000 
200.000000 
200.000000 
200.000000 
200.000000 
200.000000 
200.000000 
200.000000 
SCALARS ELEM_i float 
LOOKUP_TABLE default 
180 
208 
181 
181 
208 
208 
209 
182 
182 
236 
209 
209 
209 
209 
182 
183 
236 
236 
237 
210 
210 
210 
210 
183 
183 
180 
207 
207 
208 
234 
207 
234 
208 
208 
234 
234 
234 
235 
235 
235 
235 
261 
261 
261 
261 
262 
262 
262 
236 
236 
180 
206 
207 
207 
206 
206 
206 
206 
234 
205 
205 
232 
233 
233 
233 
233 
204 
232 
232 
232 
232 
233 
260 
260 
260 
180 
179 
179 
179 
151 
179 
178 
179 
205 
151 
151 
178 
178 
178 
205 
205 
150 
150 
150 
177 
177 
177 
204 
204 
204 
180 
153 
153 
152 
126 
152 
152 
152 
152 
125 
125 
125 
125 
124 
151 
151 
98 
98 
98 
125 
124 
124 
124 
124 
150 
180 
154 
153 
153 
154 
154 
126 
153 
126 
127 
127 
127 
127 
126 
126 
126 
128 
128 
100 
100 
100 
99 
99 
99 
99 
180 
181 
181 
154 
182 
182 
155 
154 
154 
183 
182 
155 
155 
155 
155 
128 
183 
183 
156 
156 
156 
156 
129 
128 
128 
VECTORS VELOCITY float 
0.000000 -2.197440 0.000000 
0.000000 -2.197440 0.000000 
0.000000 -2.197440 0.000000 
-0.000000 -2.197440 0.000000 
-0.000000 -2.197440 0.000000 
0.000000 -2.197440 0.000000 
0.000000 -2.197440 0.000000 
0.000000 -2.197440 0.000000 
0.000000 -2.197440 0.000000 
-0.000000 -2.197440 0.000000 
-0.000000 -2.197440 0.000000 
0.000000 -2.197440 0.000000 
0.000000 -2.197440 0.000000 
0.000000 -2.197440 0.000000 
-0.000000 -2.197440 0.000000 
0.000000 -2.197440 0.000000 
-0.000000 -2.197440 0.000000 
0.000000 -2.197440 0.000000 
0.000000 -2.197440 0.000000 
0.000000 -2.197440 0.000000 
0.000000 -2.197440 0.000000 
0.000000 -2.197440 0.000000 
0.000000 -2.197440 0.000000 
0.000000 -2.197440 0.000000 
0.000000 -2.197440 0.000000 
0.000000 -2.197440 0.000000 
-0.000000 -2.197440 0.000000 
-0.000000 -2.197440 0.000000 
-0.000000 -2.197440 0.000000 
-0.000000 -2.197440 0.000000 
-0.000000 -2.197440 0.000000 
-0.000000 -2.197440 0.000000 
-0.000000 -2.197440 0.000000 
-0.000000 -2.197440 0.000000 
0.000000 -2.197440 0.000000 
0.000000 -2.197440 0.000000 
0.000000 -2.197440 0.000000 
0.000000 -2.197440 0.000000 
0.000000 -2.197440 0.000000 
0.000000 -2.197440 0.000000 
-0.000000 -2.197440 0.000000 
0.000000 -2.197440 0.000000 
0.000000 -2.197440 0.000000 
-0.000000 -2.197440 0.000000 
0.000000 -2.197440 0.000000 
0.000000 -2.197440 0.000000 
0.000000 -2.197440 0.000000 
-0.000000 -2.197440 0.000000 
-0.000000 -2.197440 0.000000 
-0.000000 -2.197440 0.000000 
-0.000000 -2.197440 0.000000 
-0.000000 -2.197440 0.000000 
-0.000000 -2.197440 0.000000 
-0.000000 -2.197440 0.000000 
-0.000000 -2.197440 0.000000 
-0.000000 -2.197440 0.000000 
-0.000000 -2.197440 0.000000 
-0.000000 -2.197440 0.000000 
-0.000000 -2.197440 0.000000 
-0.000000 -2.197440 0.000000 
-0.000000 -2.197440 0.000000 
-0.000000 -2.197440 0.000000 
-0.000000 -2.197440 0.000000 
-0.000000 -2.197440 0.000000 
0.000000 -2.197440 0.000000 
0.000000 -2.197440 0.000000 
-0.000000 -2.197440 0.000000 
-0.000000 -2.197440 0.000000 
-0.000000 -2.197440 0.000000 
-0.000000 -2.197440 0.000000 
-0.000000 -2.197440 0.000000 
-0.000000 -2.197440 0.000000 
-0.000000 -2.197440 0.000000 
0.000000 -2.197440 0.000000 
0.000000 -2.197440 0.000000 
-0.000000 -2.197440 0.000000 
-0.000000 -2.197440 0.000000 
-0.000000 -2.197440 0.000000 
-0.000000 -2.197440 0.000000 
0.000000 -2.197440 0.000000 
0.000000 -2.197440 0.000000 
0.000000 -2.197440 0.000000 
-0.000000 -2.197440 0.000000 
-0.000000 -2.197440 0.000000 
-0.000000 -2.197440 0.000000 
-0.000000 -2.197440 0.000000 
-0.000000 -2.197440 0.000000 
-0.000000 -2.197440 0.000000 
-0.000000 -2.197440 0.000000 
-0.000000 -2.197440 0.000000 
-0.000000 -2.197440 0.000000 
-0.000000 -2.197440 0.000000 
-0.000000 -2.197440 0.000000 
-0.000000 -2.197440 0.000000 
-0.000000 -2.197440 0.000000 
0.000000 -2.197440 0.000000 
0.000000 -2.197440 0.000000 
-0.000000 -2.197440 0.000000 
-0.000000 -2.197440 0.000000 
-0.000000 -2.197440 0.000000 
-0.000000 -2.197440 0.000000 
-0.000000 -2.197440 0.000000 
-0.000000 -2.197440 0.000000 
-0.000000 -2.197440 0.000000 
-0.000000 -2.197440 0.000000 
-0.000000 -2.197440 0.000000 
-0.000000 -2.197440 0.000000 
-0.000000 -2.197440 0.000000 
-0.000000 -2.197440 0.000000 
-0.000000 -2.197440 0.000000 
-0.000000 -2.197440 0.000000 
-0.000000 -2.197440 0.000000 
-0.000000 -2.197440 0.000000 
-0.000000 -2.197440 0.000000 
-0.000000 -2.197440 0.000000 
-0.000000 -2.197440 0.000000 
0.000000 -2.197440 0.000000 
0.000000 -2.197440 0.000000 
-0.000000 -2.197440 0.000000 
-0.000000 -2.197440 0.000000 
0.000000 -2.197440 0.000000 
0.000000 -2.197440 0.000000 
0.000000 -2.197440 0.000000 
-0.000000 -2.197440 0.000000 
0.000000 -2.197440 0.000000 
0.000000 -2.197440 0.000000 
0.000000 -2.197440 0.000000 
0.000000 -2.197440 0.000000 
0.000000 -2.197440 0.000000 
0.000000 -2.197440 0.000000 
0.000000 -2.197440 0.000000 
0.000000 -2.197440 0.000000 
0.000000 -2.197440 0.000000 
0.000000 -2.197440 0.000000 
0.000000 -2.197440 0.000000 
0.000000 -2.197440 0.000000 
0.000000 -2.197440 0.000000 
0.000000 -2.197440 0.000000 
0.000000 -2.197440 0.000000 
0.000000 -2.197440 0.000000 
-0.000000 -2.197440 0.000000 
0.000000 -2.197440 0.000000 
0.000000 -2.197440 0.000000 
-0.000000 -2.197440 0.000000 
0.000000 -2.197440 0.000000 
0.000000 -2.197440 0.000000 
0.000000 -2.197440 0.000000 
0.000000 -2.197440 0.000000 
0.000000 -2.197440 0.000000 
0.000000 -2.197440 0.000000 
0.000000 -2.197440 0.000000 
0.000000 -2.197440 0.000000 
0.000000 -2.197440 0.000000 
0.000000 -2.197440 0.000000 
0.000000 -2.197440 0.000000 
0.000000 -2.197440 0.000000 
0.000000 -2.197440 0.000000 
0.000000 -2.197440 0.000000 
0.000000 -2.197440 0.000000 
0.000000 -2.197440 0.000000 
0.000000 -2.197440 0.000000 
0.000000 -2.197440 0.000000 
-0.000000 -2.197440 0.000000 
-0.000000 -2.197440 0.000000 
0.000000 -2.197440 0.000000 
0.000000 -2.197440 0.000000 
0.000000 -2.197440 0.000000 
0.000000 -2.197440 0.000000 
-0.000000 -2.197440 0.000000 
0.000000 -2.197440 0.000000 
0.000000 -2.197440 0.000000 
-0.000000 -2.197440 0.000000 
0.000000 -2.197440 0.000000 
0.000000 -2.197440 0.000000 
0.000000 -2.197440 0.000000 
TENSORS STRESS float 
0.000000 -0.000000 0.000000 
0.000000 0.000000 0.000000 
0.000000 0.000000 0.000000 

-0.000000 -0.000000 0.000000 
0.000000 -0.000000 0.000000 
0.000000 0.000000 0.000000 

-0.000000 -0.000000 0.000000 
0.000000 -0.000000 0.000000 
0.000000 0.000000 0.000000 

-0.000000 -0.000000 0.000000 
0.000000 -0.000000 0.000000 
0.000000 0.000000 0.000000 

0.000000 -0.000000 0.000000 
0.000000 0.000000 0.000000 
0.000000 0.000000 0.000000 

-0.000000 -0.000000 0.000000 
0.000000 -0.000000 0.000000 
0.000000 0.000000 0.000000 

0.000000 -0.000000 0.000000 
0.000000 0.000000 0.000000 
0.000000 0.000000 0.000000 

0.000000 0.000000 0.000000 
0.000000 0.000000 0.000000 
0.000000 0.000000 0.000000 

0.000000 -0.000000 0.000000 
0.000000 0.000000 0.000000 
0.000000 0.000000 0.000000 

-0.000000 -0.000000 0.000000 
0.000000 -0.000000 0.000000 
0.000000 0.000000 0.000000 

-0.000000 -0.000000 0.000000 
0.000000 -0.000000 0.000000 
0.000000 0.000000 0.000000 

-0.000000 0.000000 0.000000 
0.000000 -0.000000 0.000000 
0.000000 0.000000 0.000000 

-0.000000 0.000000 0.000000 
0.000000 -0.000000 0.000000 
0.000000 0.000000 0.000000 

-0.000000 0.000000 0.000000 
0.000000 -0.000000 0.000000 
0.000000 0.000000 0.000000 

0.000000 0.000000 0.000000 
0.000000 0.000000 0.000000 
0.000000 0.000000 0.000000 

0.000000 0.000000 0.000000 
0.000000 0.000000 0.000000 
0.000000 0.000000 0.000000 

-0.000000 -0.000000 0.000000 
0.000000 -0.000000 0.000000 
0.000000 0.000000 0.000000 

-0.000000 -0.000000 0.000000 
0.000000 -0.000000 0.000000 
0.000000 0.000000 0.000000 

-0.000000 -0.000000 0.000000 
0.000000 -0.000000 0.000000 
0.000000 0.000000 0.000000 

-0.000000 -0.000000 0.000000 
0.000000 -0.000000 0.000000 
0.000000 0.000000 0.000000 

-0.000000 -0.000000 0.000000 
0.000000 -0.000000 0.000000 
0.000000 0.000000 0.000000 

-0.000000 0.000000 0.000000 
0.000000 -0.000000 0.000000 
0.000000 0.000000 0.000000 

0.000000 -0.000000 0.000000 
0.000000 0.000000 0.000000 
0.000000 0.000000 0.000000 

-0.000000 0.000000 0.000000 
0.000000 -0.000000 0.000000 
0.000000 0.000000 0.000000 

-0.000000 0.000000 0.000000 
0.000000 -0.000000 0.000000 
0.000000 0.000000 0.000000 

0.000000 -0.000000 0.000000 
0.000000 0.000000 0.000000 
0.000000 0.000000 0.000000 

0.000000 -0.000000 0.000000 
0.000000 0.000000 0.000000 
0.000000 0.000000 0.000000 

0.000000 0.000000 0.000000 
0.000000 0.000000 0.000000 
0.000000 0.000000 0.000000 

0.000000 -0.000000 0.000000 
0.000000 0.000000 0.000000 
0.000000 0.000000 0.000000 

0.000000 -0.000000 0.000000 
0.000000 0.000000 0.000000 
0.000000 0.000000 0.000000 

0.000000 -0.000000 0.000000 
0.000000 0.000000 0.000000 
0.000000 0.000000 0.000000 

0.000000 -0.000000 0.000000 
0.000000 0.000000 0.000000 
0.000000 0.000000 0.000000 

0.000000 0.000000 0.000000 
0.000000 0.000000 0.000000 
0.000000 0.000000 0.000000 

0.000000 -0.000000 0.000000 
0.000000 0.000000 0.000000 
0.000000 0.000000 0.000000 

-0.000000 -0.000000 0.000000 
0.000000 -0.000000 0.000000 
0.000000 0.000000 0.000000 

0.000000 -0.000000 0.000000 
0.000000 0.000000 0.000000 
0.000000 0.000000 0.000000 

0.000000 -0.000000 0.000000 
0.000000 0.000000 0.000000 
0.000000 0.000000 0.000000 

0.000000 -0.000000 0.000000 
0.000000 0.000000 0.000000 
0.000000 0.000000 0.000000 

-0.000000 -0.000000 0.000000 
0.000000 -0.000000 0.000000 
0.000000 0.000000 0.000000 

0.000000 0.000000 0.000000 
0.000000 0.000000 0.000000 
0.000000 0.000000 0.000000 

0.000000 -0.000000 0.000000 
0.000000 0.000000 0.000000 
0.000000 0.000000 0.000000 

-0.000000 -0.000000 0.000000 
0.000000 -0.000000 0.000000 
0.000000 0.000000 0.000000 

-0.000000 -0.000000 0.000000 
0.000000 -0.000000 0.000000 
0.000000 0.000000 0.000000 

-0.000000 -0.000000 0.000000 
0.000000 -0.000000 0.000000 
0.000000 0.000000 0.000000 

-0.000000 0.000000 0.000000 
0.000000 -0.000000 0.000000 
0.000000 0.000000 0.000000 

0.000000 0.000000 0.000000 
0.000000 0.000000 0.000000 
0.000000 0.000000 0.000000 

0.000000 0.000000 0.000000 
0.000000 0.000000 0.000000 
0.000000 0.000000 0.000000 

-0.000000 0.000000 0.000000 
0.000000 -0.000000 0.000000 
0.000000 0.000000 0.000000 

0.000000 -0.000000 0.000000 
0.000000 0.000000 0.000000 
0.000000 0.000000 0.000000 

-0.000000 -0.000000 0.000000 
0.000000 -0.000000 0.000000 
0.000000 0.000000 0.000000 

0.000000 -0.000000 0.000000 
0.000000 0.000000 0.000000 
0.000000 0.000000 0.000000 

0.000000 0.000000 0.000000 
0.000000 0.000000 0.000000 
0.000000 0.000000 0.000000 

0.000000 -0.000000 0.000000 
0.000000 0.000000 0.000000 
0.000000 0.000000 0.000000 

0.000000 -0.000000 0.000000 
0.000000 0.000000 0.000000 
0.000000 0.000000 0.000000 

-0.000000 0.000000 0.000000 
0.000000 -0.000000 0.000000 
0.000000 0.000000 0.000000 

0.000000 0.000000 0.000000 
0.000000 0.000000 0.000000 
0.000000 0.000000 0.000000 

0.000000 0.000000 0.000000 
0.000000 0.000000 0.000000 
0.000000 0.000000 0.000000 

-0.000000 -0.000000 0.000000 
0.000000 -0.000000 0.000000 
0.000000 0.000000 0.000000 

-0.000000 -0.000000 0.000000 
0.000000 -0.000000 0.000000 
0.000000 0.000000 0.000000 

-0.000000 0.000000 0.000000 
0.000000 -0.000000 0.000000 
0.000000 0.000000 0.000000 

-0.000000 -0.000000 0.000000 
0.000000 -0.000000 0.000000 
0.000000 0.000000 0.000000 

0.000000 -0.000000 0.000000 
0.000000 0.000000 0.000000 
0.000000 0.000000 0.000000 

-0.000000 -0.000000 0.000000 
0.000000 -0.000000 0.000000 
0.000000 0.000000 0.000000 

0.000000 -0.000000 0.000000 
0.000000 0.000000 0.000000 
0.000000 0.000000 0.000000 

0.000000 -0.000000 0.000000 
0.000000 0.000000 0.000000 
0.000000 0.000000 0.000000 

0.000000 -0.000000 0.000000 
0.000000 0.000000 0.000000 
0.000000 0.000000 0.000000 

-0.000000 0.000000 0.000000 
0.000000 0.000000 0.000000 
0.000000 0.000000 0.000000 

-0.000000 -0.000000 0.000000 
0.000000 -0.000000 0.000000 
0.000000 0.000000 0.000000 

-0.000000 -0.000000 0.000000 
0.000000 -0.000000 0.000000 
0.000000 0.000000 0.000000 

0.000000 -0.000000 0.000000 
0.000000 0.000000 0.000000 
0.000000 0.000000 0.000000 

0.000000 -0.000000 0.000000 
0.000000 0.000000 0.000000 
0.000000 0.000000 0.000000 

-0.000000 -0.000000 0.000000 
0.000000 -0.000000 0.000000 
0.000000 0.000000 0.000000 

0.000000 -0.000000 0.000000 
0.000000 0.000000 0.000000 
0.000000 0.000000 0.000000 

0.000000 -0.000000 0.000000 
0.000000 0.000000 0.000000 
0.000000 0.000000 0.000000 

0.000000 -0.000000 0.000000 
0.000000 0.000000 0.000000 
0.000000 0.000000 0.000000 

0.000000 -0.000000 0.000000 
0.000000 0.000000 0.000000 
0.000000 0.000000 0.000000 

0.000000 0.000000 0.000000 
0.000000 0.000000 0.000000 
0.000000 0.000000 0.000000 

-0.000000 -0.000000 0.000000 
0.000000 -0.000000 0.000000 
0.000000 0.000000 0.000000 

0.000000 0.000000 0.000000 
0.000000 0.000000 0.000000 
0.000000 0.000000 0.000000 

0.000000 0.000000 0.000000 
0.000000 0.000000 0.000000 
0.000000 0.000000 0.000000 

-0.000000 0.000000 0.000000 
0.000000 -0.000000 0.000000 
0.000000 0.000000 0.000000 

0.000000 0.000000 0.000000 
0.000000 0.000000 0.000000 
0.000000 0.000000 0.000000 

-0.000000 0.000000 0.000000 
0.000000 -0.000000 0.000000 
0.000000 0.000000 0.000000 

-0.000000 0.000000 0.000000 
0.000000 -0.000000 0.000000 
0.000000 0.000000 0.000000 

-0.000000 0.000000 0.000000 
0.000000 -0.000000 0.000000 
0.000000 0.000000 0.000000 

0.000000 0.000000 0.000000 
0.000000 0.000000 0.000000 
0.000000 0.000000 0.000000 

-0.000000 0.000000 0.000000 
0.000000 0.000000 0.000000 
0.000000 0.000000 0.000000 

-0.000000 0.000000 0.000000 
0.000000 -0.000000 0.000000 
0.000000 0.000000 0.000000 

-0.000000 0.000000 0.000000 
0.000000 -0.000000 0.000000 
0.000000 0.000000 0.000000 

0.000000 0.000000 0.000000 
0.000000 0.000000 0.000000 
0.000000 0.000000 0.000000 

-0.000000 0.000000 0.000000 
0.000000 -0.000000 0.000000 
0.000000 0.000000 0.000000 

0.000000 0.000000 0.000000 
0.000000 0.000000 0.000000 
0.000000 0.000000 0.000000 

-0.000000 0.000000 0.000000 
0.000000 -0.000000 0.000000 
0.000000 0.000000 0.000000 

0.000000 -0.000000 0.000000 
0.000000 0.000000 0.000000 
0.000000 0.000000 0.000000 

0.000000 0.000000 0.000000 
0.000000 0.000000 0.000000 
0.000000 0.000000 0.000000 

0.000000 0.000000 0.000000 
0.000000 0.000000 0.000000 
0.000000 0.000000 0.000000 

-0.000000 0.000000 0.000000 
0.000000 -0.000000 0.000000 
0.000000 0.000000 0.000000 

-0.000000 -0.000000 0.000000 
0.000000 -0.000000 0.000000 
0.000000 0.000000 0.000000 

-0.000000 -0.000000 0.000000 
0.000000 0.000000 0.000000 
0.000000 0.000000 0.000000 

-0.000000 0.000000 0.000000 
0.000000 -0.000000 0.000000 
0.000000 0.000000 0.000000 

0.000000 -0.000000 0.000000 
0.000000 0.000000 0.000000 
0.000000 0.000000 0.000000 

0.000000 0.000000 0.000000 
0.000000 0.000000 0.000000 
0.000000 0.000000 0.000000 

-0.000000 0.000000 0.000000 
0.000000 -0.000000 0.000000 
0.000000 0.000000 0.000000 

-0.000000 0.000000 0.000000 
0.000000 0.000000 0.000000 
0.000000 0.000000 0.000000 

-0.000000 -0.000000 0.000000 
0.000000 -0.000000 0.000000 
0.000000 0.000000 0.000000 

0.000000 0.000000 0.000000 
0.000000 0.000000 0.000000 
0.000000 0.000000 0.000000 

-0.000000 -0.000000 0.000000 
0.000000 -0.000000 0.000000 
0.000000 0.000000 0.000000 

-0.000000 -0.000000 0.000000 
0.000000 -0.000000 0.000000 
0.000000 0.000000 0.000000 

0.000000 -0.000000 0.000000 
0.000000 0.000000 0.000000 
0.000000 0.000000 0.000000 

0.000000 -0.000000 0.000000 
0.000000 0.000000 0.000000 
0.000000 0.000000 0.000000 

0.000000 0.000000 0.000000 
0.000000 0.000000 0.000000 
0.000000 0.000000 0.000000 

0.000000 -0.000000 0.000000 
0.000000 0.000000 0.000000 
0.000000 0.000000 0.000000 

0.000000 -0.000000 0.000000 
0.000000 0.000000 0.000000 
0.000000 0.000000 0.000000 

-0.000000 -0.000000 0.000000 
0.000000 -0.000000 0.000000 
0.000000 0.000000 0.000000 

0.000000 -0.000000 0.000000 
0.000000 0.000000 0.000000 
0.000000 0.000000 0.000000 

0.000000 0.000000 0.000000 
0.000000 0.000000 0.000000 
0.000000 0.000000 0.000000 

0.000000 -0.000000 0.000000 
0.000000 0.000000 0.000000 
0.000000 0.000000 0.000000 

0.000000 -0.000000 0.000000 
0.000000 0.000000 0.000000 
0.000000 0.000000 0.000000 

-0.000000 -0.000000 0.000000 
0.000000 -0.000000 0.000000 
0.000000 0.000000 0.000000 

0.000000 0.000000 0.000000 
0.000000 0.000000 0.000000 
0.000000 0.000000 0.000000 

-0.000000 0.000000 0.000000 
0.000000 -0.000000 0.000000 
0.000000 0.000000 0.000000 

-0.000000 0.000000 0.000000 
0.000000 -0.000000 0.000000 
0.000000 0.000000 0.000000 

-0.000000 0.000000 0.000000 
0.000000 0.000000 0.000000 
0.000000 0.000000 0.000000 

-0.000000 -0.000000 0.000000 
0.000000 -0.000000 0.000000 
0.000000 0.000000 0.000000 

-0.000000 0.000000 0.000000 
0.000000 -0.000000 0.000000 
0.000000 0.000000 0.000000 

0.000000 -0.000000 0.000000 
0.000000 0.000000 0.000000 
0.000000 0.000000 0.000000 

-0.000000 -0.000000 0.000000 
0.000000 -0.000000 0.000000 
0.000000 0.000000 0.000000 

0.000000 -0.000000 0.000000 
0.000000 0.000000 0.000000 
0.000000 0.000000 0.000000 

-0.000000 -0.000000 0.000000 
0.000000 -0.000000 0.000000 
0.000000 0.000000 0.000000 

0.000000 -0.000000 0.000000 
0.000000 0.000000 0.000000 
0.000000 0.000000 0.000000 

-0.000000 -0.000000 0.000000 
0.000000 -0.000000 0.000000 
0.000000 0.000000 0.000000 

-0.000000 -0.000000 0.000000 
0.000000 -0.000000 0.000000 
0.000000 0.000000 0.000000 

-0.000000 0.000000 0.000000 
0.000000 -0.000000 0.000000 
0.000000 0.000000 0.000000 

-0.000000 -0.000000 0.000000 
0.000000 -0.000000 0.000000 
0.000000 0.000000 0.000000 

-0.000000 0.000000 0.000000 
0.000000 -0.000000 0.000000 
0.000000 0.000000 0.000000 

0.000000 -0.000000 0.000000 
0.000000 0.000000 0.000000 
0.000000 0.000000 0.000000 

0.000000 -0.000000 0.000000 
0.000000 0.000000 0.000000 
0.000000 0.000000 0.000000 

0.000000 -0.000000 0.000000 
0.000000 0.000000 0.000000 
0.000000 0.000000 0.000000 

0.000000 -0.000000 0.000000 
0.000000 0.000000 0.000000 
0.000000 0.000000 0.000000 

0.000000 -0.000000 0.000000 
0.000000 0.000000 0.000000 
0.000000 0.000000 0.000000 

0.000000 -0.000000 0.000000 
0.000000 0.000000 0.000000 
0.000000 0.000000 0.000000 

0.000000 -0.000000 0.000000 
0.000000 0.000000 0.000000 
0.000000 0.000000 0.000000 

-0.000000 0.000000 0.000000 
0.000000 -0.000000 0.000000 
0.000000 0.000000 0.000000 

0.000000 0.000000 0.000000 
0.000000 0.000000 0.000000 
0.000000 0.000000 0.000000 

-0.000000 0.000000 0.000000 
0.000000 -0.000000 0.000000 
0.000000 0.000000 0.000000 

0.000000 0.000000 0.000000 
0.000000 0.000000 0.000000 
0.000000 0.000000 0.000000 

0.000000 -0.000000 0.000000 
0.000000 0.000000 0.000000 
0.000000 0.000000 0.000000 

-0.000000 -0.000000 0.000000 
0.000000 -0.000000 0.000000 
0.000000 0.000000 0.000000 

-0.000000 -0.000000 0.000000 
0.000000 -0.000000 0.000000 
0.000000 0.000000 0.000000 

-0.000000 -0.000000 0.000000 
0.000000 -0.000000 0.000000 
0.000000 0.000000 0.000000 

0.000000 -0.000000 0.000000 
0.000000 0.000000 0.000000 
0.000000 0.000000 0.000000 

-0.000000 -0.000000 0.000000 
0.000000 -0.000000 0.000000 
0.000000 0.000000 0.000000 

-0.000000 -0.000000 0.000000 
0.000000 -0.000000 0.000000 
0.000000 0.000000 0.000000 

-0.000000 -0.000000 0.000000 
0.000000 -0.000000 0.000000 
0.000000 0.000000 0.000000 

0.000000 -0.000000 0.000000 
0.000000 0.000000 0.000000 
0.000000 0.000000 0.000000 

0.000000 0.000000 0.000000 
0.000000 0.000000 0.000000 
0.000000 0.000000 0.000000 

-0.000000 0.000000 0.000000 
0.000000 -0.000000 0.000000 
0.000000 0.000000 0.000000 

0.000000 -0.000000 0.000000 
0.000000 0.000000 0.000000 
0.000000 0.000000 0.000000 

0.000000 -0.000000 0.000000 
0.000000 0.000000 0.000000 
0.000000 0.000000 0.000000 

0.000000 0.000000 0.000000 
0.000000 0.000000 0.000000 
0.000000 0.000000 0.000000 

-0.000000 0.000000 0.000000 
0.000000 -0.000000 0.000000 
0.000000 0.000000 0.000000 

0.000000 -0.000000 0.000000 
0.000000 0.000000 0.000000 
0.000000 0.000000 0.000000 

-0.000000 -0.000000 0.000000 
0.000000 -0.000000 0.000000 
0.000000 0.000000 0.000000 

-0.000000 0.000000 0.000000 
0.000000 -0.000000 0.000000 
0.000000 0.000000 0.000000 

0.000000 -0.000000 0.000000 
0.000000 0.000000 0.000000 
0.000000 0.000000 0.000000 

-0.000000 -0.000000 0.000000 
0.000000 -0.000000 0.000000 
0.000000 0.000000 0.000000 

-0.000000 0.000000 0.000000 
0.000000 -0.000000 0.000000 
0.000000 0.000000 0.000000 

0.000000 0.000000 0.000000 
0.000000 0.000000 0.000000 
0.000000 0.000000 0.000000 

0.000000 -0.000000 0.000000 
0.000000 0.000000 0.000000 
0.000000 0.000000 0.000000 

0.000000 -0.000000 0.000000 
0.000000 0.000000 0.000000 
0.000000 0.000000 0.000000 

-0.000000 -0.000000 0.000000 
0.000000 -0.000000 0.000000 
0.000000 0.000000 0.000000 

-0.000000 -0.000000 0.000000 
0.000000 -0.000000 0.000000 
0.000000 0.000000 0.000000 

0.000000 -0.000000 0.000000 
0.000000 0.000000 0.000000 
0.000000 0.000000 0.000000 

-0.000000 0.000000 0.000000 
0.000000 -0.000000 0.000000 
0.000000 0.000000 0.000000 

-0.000000 0.000000 0.000000 
0.000000 -0.000000 0.000000 
0.000000 0.000000 0.000000 

TENSORS STRAIN float 
0.000000 -0.000000 0.000000 
0.000000 0.000000 0.000000 
0.000000 0.000000 0.000000 

-0.000000 -0.000000 0.000000 
0.000000 -0.000000 0.000000 
0.000000 0.000000 0.000000 

0.000000 -0.000000 0.000000 
0.000000 -0.000000 0.000000 
0.000000 0.000000 0.000000 

0.000000 -0.000000 0.000000 
0.000000 -0.000000 0.000000 
0.000000 0.000000 0.000000 

-0.000000 -0.000000 0.000000 
0.000000 0.000000 0.000000 
0.000000 0.000000 0.000000 

-0.000000 -0.000000 0.000000 
0.000000 -0.000000 0.000000 
0.000000 0.000000 0.000000 

-0.000000 -0.000000 0.000000 
0.000000 0.000000 0.000000 
0.000000 0.000000 0.000000 

0.000000 0.000000 0.000000 
0.000000 0.000000 0.000000 
0.000000 0.000000 0.000000 

0.000000 -0.000000 0.000000 
0.000000 -0.000000 0.000000 
0.000000 0.000000 0.000000 

-0.000000 -0.000000 0.000000 
0.000000 0.000000 0.000000 
0.000000 0.000000 0.000000 

-0.000000 -0.000000 0.000000 
0.000000 -0.000000 0.000000 
0.000000 0.000000 0.000000 

-0.000000 0.000000 0.000000 
0.000000 -0.000000 0.000000 
0.000000 0.000000 0.000000 

-0.000000 0.000000 0.000000 
0.000000 0.000000 0.000000 
0.000000 0.000000 0.000000 

-0.000000 0.000000 0.000000 
0.000000 -0.000000 0.000000 
0.000000 0.000000 0.000000 

0.000000 0.000000 0.000000 
0.000000 0.000000 0.000000 
0.000000 0.000000 0.000000 

0.000000 0.000000 0.000000 
0.000000 0.000000 0.000000 
0.000000 0.000000 0.000000 

-0.000000 -0.000000 0.000000 
0.000000 -0.000000 0.000000 
0.000000 0.000000 0.000000 

-0.000000 -0.000000 0.000000 
0.000000 -0.000000 0.000000 
0.000000 0.000000 0.000000 

0.000000 -0.000000 0.000000 
0.000000 -0.000000 0.000000 
0.000000 0.000000 0.000000 

-0.000000 -0.000000 0.000000 
0.000000 0.000000 0.000000 
0.000000 0.000000 0.000000 

-0.000000 -0.000000 0.000000 
0.000000 0.000000 0.000000 
0.000000 0.000000 0.000000 

-0.000000 0.000000 0.000000 
0.000000 -0.000000 0.000000 
0.000000 0.000000 0.000000 

0.000000 -0.000000 0.000000 
0.000000 -0.000000 0.000000 
0.000000 0.000000 0.000000 

-0.000000 0.000000 0.000000 
0.000000 0.000000 0.000000 
0.000000 0.000000 0.000000 

-0.000000 0.000000 0.000000 
0.000000 -0.000000 0.000000 
0.000000 0.000000 0.000000 

-0.000000 -0.000000 0.000000 
0.000000 0.000000 0.000000 
0.000000 0.000000 0.000000 

-0.000000 -0.000000 0.000000 
0.000000 0.000000 0.000000 
0.000000 0.000000 0.000000 

0.000000 0.000000 0.000000 
0.000000 0.000000 0.000000 
0.000000 0.000000 0.000000 

-0.000000 -0.000000 0.000000 
0.000000 0.000000 0.000000 
0.000000 0.000000 0.000000 

-0.000000 -0.000000 0.000000 
0.000000 0.000000 0.000000 
0.000000 0.000000 0.000000 

-0.000000 -0.000000 0.000000 
0.000000 0.000000 0.000000 
0.000000 0.000000 0.000000 

-0.000000 -0.000000 0.000000 
0.000000 0.000000 0.000000 
0.000000 0.000000 0.000000 

-0.000000 0.000000 0.000000 
0.000000 0.000000 0.000000 
0.000000 0.000000 0.000000 

-0.000000 -0.000000 0.000000 
0.000000 0.000000 0.000000 
0.000000 0.000000 0.000000 

-0.000000 -0.000000 0.000000 
0.000000 -0.000000 0.000000 
0.000000 0.000000 0.000000 

-0.000000 -0.000000 0.000000 
0.000000 0.000000 0.000000 
0.000000 0.000000 0.000000 

-0.000000 -0.000000 0.000000 
0.000000 0.000000 0.000000 
0.000000 0.000000 0.000000 

-0.000000 -0.000000 0.000000 
0.000000 0.000000 0.000000 
0.000000 0.000000 0.000000 

-0.000000 -0.000000 0.000000 
0.000000 -0.000000 0.000000 
0.000000 0.000000 0.000000 

-0.000000 0.000000 0.000000 
0.000000 0.000000 0.000000 
0.000000 0.000000 0.000000 

-0.000000 -0.000000 0.000000 
0.000000 0.000000 0.000000 
0.000000 0.000000 0.000000 

-0.000000 -0.000000 0.000000 
0.000000 -0.000000 0.000000 
0.000000 0.000000 0.000000 

-0.000000 -0.000000 0.000000 
0.000000 -0.000000 0.000000 
0.000000 0.000000 0.000000 

-0.000000 -0.000000 0.000000 
0.000000 0.000000 0.000000 
0.000000 0.000000 0.000000 

-0.000000 0.000000 0.000000 
0.000000 -0.000000 0.000000 
0.000000 0.000000 0.000000 

-0.000000 0.000000 0.000000 
0.000000 0.000000 0.000000 
0.000000 0.000000 0.000000 

0.000000 0.000000 0.000000 
0.000000 0.000000 0.000000 
0.000000 0.000000 0.000000 

0.000000 0.000000 0.000000 
0.000000 -0.000000 0.000000 
0.000000 0.000000 0.000000 

-0.000000 -0.000000 0.000000 
0.000000 0.000000 0.000000 
0.000000 0.000000 0.000000 

-0.000000 -0.000000 0.000000 
0.000000 -0.000000 0.000000 
0.000000 0.000000 0.000000 

-0.000000 -0.000000 0.000000 
0.000000 0.000000 0.000000 
0.000000 0.000000 0.000000 

-0.000000 0.000000 0.000000 
0.000000 0.000000 0.000000 
0.000000 0.000000 0.000000 

-0.000000 -0.000000 0.000000 
0.000000 0.000000 0.000000 
0.000000 0.000000 0.000000 

-0.000000 -0.000000 0.000000 
0.000000 0.000000 0.000000 
0.000000 0.000000 0.000000 

-0.000000 0.000000 0.000000 
0.000000 0.000000 0.000000 
0.000000 0.000000 0.000000 

-0.000000 0.000000 0.000000 
0.000000 0.000000 0.000000 
0.000000 0.000000 0.000000 

-0.000000 0.000000 0.000000 
0.000000 0.000000 0.000000 
0.000000 0.000000 0.000000 

-0.000000 -0.000000 0.000000 
0.000000 -0.000000 0.000000 
0.000000 0.000000 0.000000 

-0.000000 -0.000000 0.000000 
0.000000 0.000000 0.000000 
0.000000 0.000000 0.000000 

-0.000000 0.000000 0.000000 
0.000000 -0.000000 0.000000 
0.000000 0.000000 0.000000 

-0.000000 -0.000000 0.000000 
0.000000 -0.000000 0.000000 
0.000000 0.000000 0.000000 

-0.000000 -0.000000 0.000000 
0.000000 0.000000 0.000000 
0.000000 0.000000 0.000000 

-0.000000 -0.000000 0.000000 
0.000000 -0.000000 0.000000 
0.000000 0.000000 0.000000 

-0.000000 -0.000000 0.000000 
0.000000 0.000000 0.000000 
0.000000 0.000000 0.000000 

-0.000000 -0.000000 0.000000 
0.000000 0.000000 0.000000 
0.000000 0.000000 0.000000 

-0.000000 -0.000000 0.000000 
0.000000 0.000000 0.000000 
0.000000 0.000000 0.000000 

-0.000000 0.000000 0.000000 
0.000000 0.000000 0.000000 
0.000000 0.000000 0.000000 

0.000000 -0.000000 0.000000 
0.000000 -0.000000 0.000000 
0.000000 0.000000 0.000000 

0.000000 -0.000000 0.000000 
0.000000 -0.000000 0.000000 
0.000000 0.000000 0.000000 

0.000000 -0.000000 0.000000 
0.000000 0.000000 0.000000 
0.000000 0.000000 0.000000 

0.000000 -0.000000 0.000000 
0.000000 0.000000 0.000000 
0.000000 0.000000 0.000000 

-0.000000 -0.000000 0.000000 
0.000000 -0.000000 0.000000 
0.000000 0.000000 0.000000 

0.000000 -0.000000 0.000000 
0.000000 -0.000000 0.000000 
0.000000 0.000000 0.000000 

0.000000 -0.000000 0.000000 
0.000000 -0.000000 0.000000 
0.000000 0.000000 0.000000 

0.000000 -0.000000 0.000000 
0.000000 -0.000000 0.000000 
0.000000 0.000000 0.000000 

-0.000000 -0.000000 0.000000 
0.000000 0.000000 0.000000 
0.000000 0.000000 0.000000 

-0.000000 0.000000 0.000000 
0.000000 0.000000 0.000000 
0.000000 0.000000 0.000000 

-0.000000 -0.000000 0.000000 
0.000000 -0.000000 0.000000 
0.000000 0.000000 0.000000 

-0.000000 0.000000 0.000000 
0.000000 0.000000 0.000000 
0.000000 0.000000 0.000000 

0.000000 0.000000 0.000000 
0.000000 0.000000 0.000000 
0.000000 0.000000 0.000000 

-0.000000 0.000000 0.000000 
0.000000 -0.000000 0.000000 
0.000000 0.000000 0.000000 

-0.000000 0.000000 0.000000 
0.000000 0.000000 0.000000 
0.000000 0.000000 0.000000 

-0.000000 0.000000 0.000000 
0.000000 0.000000 0.000000 
0.000000 0.000000 0.000000 

-0.000000 0.000000 0.000000 
0.000000 -0.000000 0.000000 
0.000000 0.000000 0.000000 

0.000000 0.000000 0.000000 
0.000000 -0.000000 0.000000 
0.000000 0.000000 0.000000 

0.000000 0.000000 0.000000 
0.000000 0.000000 0.000000 
0.000000 0.000000 0.000000 

-0.000000 0.000000 0.000000 
0.000000 0.000000 0.000000 
0.000000 0.000000 0.000000 

-0.000000 0.000000 0.000000 
0.000000 0.000000 0.000000 
0.000000 0.000000 0.000000 

-0.000000 0.000000 0.000000 
0.000000 0.000000 0.000000 
0.000000 0.000000 0.000000 

-0.000000 0.000000 0.000000 
0.000000 0.000000 0.000000 
0.000000 0.000000 0.000000 

-0.000000 0.000000 0.000000 
0.000000 0.000000 0.000000 
0.000000 0.000000 0.000000 

-0.000000 0.000000 0.000000 
0.000000 0.000000 0.000000 
0.000000 0.000000 0.000000 

0.000000 0.000000 0.000000 
0.000000 -0.000000 0.000000 
0.000000 0.000000 0.000000 

-0.000000 -0.000000 0.000000 
0.000000 0.000000 0.000000 
0.000000 0.000000 0.000000 

-0.000000 0.000000 0.000000 
0.000000 0.000000 0.000000 
0.000000 0.000000 0.000000 

-0.000000 0.000000 0.000000 
0.000000 0.000000 0.000000 
0.000000 0.000000 0.000000 

-0.000000 0.000000 0.000000 
0.000000 0.000000 0.000000 
0.000000 0.000000 0.000000 

-0.000000 -0.000000 0.000000 
0.000000 -0.000000 0.000000 
0.000000 0.000000 0.000000 

-0.000000 -0.000000 0.000000 
0.000000 0.000000 0.000000 
0.000000 0.000000 0.000000 

-0.000000 0.000000 0.000000 
0.000000 -0.000000 0.000000 
0.000000 0.000000 0.000000 

-0.000000 -0.000000 0.000000 
0.000000 0.000000 0.000000 
0.000000 0.000000 0.000000 

-0.000000 0.000000 0.000000 
0.000000 0.000000 0.000000 
0.000000 0.000000 0.000000 

-0.000000 0.000000 0.000000 
0.000000 0.000000 0.000000 
0.000000 0.000000 0.000000 

-0.000000 0.000000 0.000000 
0.000000 0.000000 0.000000 
0.000000 0.000000 0.000000 

0.000000 -0.000000 0.000000 
0.000000 -0.000000 0.000000 
0.000000 0.000000 0.000000 

-0.000000 0.000000 0.000000 
0.000000 0.000000 0.000000 
0.000000 0.000000 0.000000 

-0.000000 -0.000000 0.000000 
0.000000 0.000000 0.000000 
0.000000 0.000000 0.000000 

-0.000000 -0.000000 0.000000 
0.000000 -0.000000 0.000000 
0.000000 0.000000 0.000000 

-0.000000 -0.000000 0.000000 
0.000000 0.000000 0.000000 
0.000000 0.000000 0.000000 

0.000000 -0.000000 0.000000 
0.000000 -0.000000 0.000000 
0.000000 0.000000 0.000000 

0.000000 0.000000 0.000000 
0.000000 0.000000 0.000000 
0.000000 0.000000 0.000000 

-0.000000 -0.000000 0.000000 
0.000000 0.000000 0.000000 
0.000000 0.000000 0.000000 

-0.000000 -0.000000 0.000000 
0.000000 0.000000 0.000000 
0.000000 0.000000 0.000000 

-0.000000 -0.000000 0.000000 
0.000000 0.000000 0.000000 
0.000000 0.000000 0.000000 

0.000000 -0.000000 0.000000 
0.000000 0.000000 0.000000 
0.000000 0.000000 0.000000 

0.000000 0.000000 0.000000 
0.000000 0.000000 0.000000 
0.000000 0.000000 0.000000 

-0.000000 -0.000000 0.000000 
0.000000 0.000000 0.000000 
0.000000 0.000000 0.000000 

-0.000000 -0.000000 0.000000 
0.000000 0.000000 0.000000 
0.000000 0.000000 0.000000 

-0.000000 -0.000000 0.000000 
0.000000 0.000000 0.000000 
0.000000 0.000000 0.000000 

-0.000000 0.000000 0.000000 
0.000000 0.000000 0.000000 
0.000000 0.000000 0.000000 

-0.000000 0.000000 0.000000 
0.000000 -0.000000 0.000000 
0.000000 0.000000 0.000000 

-0.000000 0.000000 0.000000 
0.000000 0.000000 0.000000 
0.000000 0.000000 0.000000 

-0.000000 0.000000 0.000000 
0.000000 0.000000 0.000000 
0.000000 0.000000 0.000000 

-0.000000 -0.000000 0.000000 
0.000000 0.000000 0.000000 
0.000000 0.000000 0.000000 

0.000000 0.000000 0.000000 
0.000000 -0.000000 0.000000 
0.000000 0.000000 0.000000 

-0.000000 -0.000000 0.000000 
0.000000 0.000000 0.000000 
0.000000 0.000000 0.000000 

-0.000000 -0.000000 0.000000 
0.000000 0.000000 0.000000 
0.000000 0.000000 0.000000 

-0.000000 -0.000000 0.000000 
0.000000 0.000000 0.000000 
0.000000 0.000000 0.000000 

-0.000000 -0.000000 0.000000 
0.000000 -0.000000 0.000000 
0.000000 0.000000 0.000000 

0.000000 -0.000000 0.000000 
0.000000 0.000000 0.000000 
0.000000 0.000000 0.000000 

-0.000000 -0.000000 0.000000 
0.000000 -0.000000 0.000000 
0.000000 0.000000 0.000000 

0.000000 -0.000000 0.000000 
0.000000 -0.000000 0.000000 
0.000000 0.000000 0.000000 

-0.000000 0.000000 0.000000 
0.000000 -0.000000 0.000000 
0.000000 0.000000 0.000000 

0.000000 -0.000000 0.000000 
0.000000 -0.000000 0.000000 
0.000000 0.000000 0.000000 

-0.000000 0.000000 0.000000 
0.000000 -0.000000 0.000000 
0.000000 0.000000 0.000000 

0.000000 -0.000000 0.000000 
0.000000 -0.000000 0.000000 
0.000000 0.000000 0.000000 

0.000000 -0.000000 0.000000 
0.000000 0.000000 0.000000 
0.000000 0.000000 0.000000 

0.000000 -0.000000 0.000000 
0.000000 0.000000 0.000000 
0.000000 0.000000 0.000000 

0.000000 -0.000000 0.000000 
0.000000 0.000000 0.000000 
0.000000 0.000000 0.000000 

0.000000 -0.000000 0.000000 
0.000000 0.000000 0.000000 
0.000000 0.000000 0.000000 

0.000000 -0.000000 0.000000 
0.000000 -0.000000 0.000000 
0.000000 0.000000 0.000000 

-0.000000 -0.000000 0.000000 
0.000000 0.000000 0.000000 
0.000000 0.000000 0.000000 

-0.000000 0.000000 0.000000 
0.000000 -0.000000 0.000000 
0.000000 0.000000 0.000000 

-0.000000 0.000000 0.000000 
0.000000 0.000000 0.000000 
0.000000 0.000000 0.000000 

-0.000000 0.000000 0.000000 
0.000000 0.000000 0.000000 
0.000000 0.000000 0.000000 

-0.000000 0.000000 0.000000 
0.000000 0.000000 0.000000 
0.000000 0.000000 0.000000 

-0.000000 -0.000000 0.000000 
0.000000 0.000000 0.000000 
0.000000 0.000000 0.000000 

-0.000000 -0.000000 0.000000 
0.000000 0.000000 0.000000 
0.000000 0.000000 0.000000 

-0.000000 -0.000000 0.000000 
0.000000 0.000000 0.000000 
0.000000 0.000000 0.000000 

-0.000000 -0.000000 0.000000 
0.000000 0.000000 0.000000 
0.000000 0.000000 0.000000 

0.000000 -0.000000 0.000000 
0.000000 0.000000 0.000000 
0.000000 0.000000 0.000000 

0.000000 -0.000000 0.000000 
0.000000 -0.000000 0.000000 
0.000000 0.000000 0.000000 

0.000000 -0.000000 0.000000 
0.000000 -0.000000 0.000000 
0.000000 0.000000 0.000000 

-0.000000 -0.000000 0.000000 
0.000000 0.000000 0.000000 
0.000000 0.000000 0.000000 

0.000000 -0.000000 0.000000 
0.000000 -0.000000 0.000000 
0.000000 0.000000 0.000000 

0.000000 0.000000 0.000000 
0.000000 0.000000 0.000000 
0.000000 0.000000 0.000000 

0.000000 0.000000 0.000000 
0.000000 -0.000000 0.000000 
0.000000 0.000000 0.000000 

0.000000 -0.000000 0.000000 
0.000000 0.000000 0.000000 
0.000000 0.000000 0.000000 

0.000000 -0.000000 0.000000 
0.000000 0.000000 0.000000 
0.000000 0.000000 0.000000 

0.000000 0.000000 0.000000 
0.000000 0.000000 0.000000 
0.000000 0.000000 0.000000 

0.000000 0.000000 0.000000 
0.000000 -0.000000 0.000000 
0.000000 0.000000 0.000000 

0.000000 -0.000000 0.000000 
0.000000 0.000000 0.000000 
0.000000 0.000000 0.000000 

0.000000 -0.000000 0.000000 
0.000000 -0.000000 0.000000 
0.000000 0.000000 0.000000 

0.000000 0.000000 0.000000 
0.000000 -0.000000 0.000000 
0.000000 0.000000 0.000000 

0.000000 -0.000000 0.000000 
0.000000 -0.000000 0.000000 
0.000000 0.000000 0.000000 

-0.000000 -0.000000 0.000000 
0.000000 -0.000000 0.000000 
0.000000 0.000000 0.000000 

-0.000000 0.000000 0.000000 
0.000000 -0.000000 0.000000 
0.000000 0.000000 0.000000 

-0.000000 0.000000 0.000000 
0.000000 0.000000 0.000000 
0.000000 0.000000 0.000000 

0.000000 -0.000000 0.000000 
0.000000 0.000000 0.000000 
0.000000 0.000000 0.000000 

0.000000 -0.000000 0.000000 
0.000000 0.000000 0.000000 
0.000000 0.000000 0.000000 

0.000000 -0.000000 0.000000 
0.000000 -0.000000 0.000000 
0.000000 0.000000 0.000000 

0.000000 -0.000000 0.000000 
0.000000 -0.000000 0.000000 
0.000000 0.000000 0.000000 

-0.000000 -0.000000 0.000000 
0.000000 0.000000 0.000000 
0.000000 0.000000 0.000000 

0.000000 0.000000 0.000000 
0.000000 -0.000000 0.000000 
0.000000 0.000000 0.000000 

0.000000 0.000000 0.000000 
0.000000 -0.000000 0.000000 
0.000000 0.000000 0.000000 

