# vtk DataFile Version 3.0 
vtk output 
ASCII 
DATASET UNSTRUCTURED_GRID 
POINTS 175 float 
-0.026061 -0.400675 0.000000 
-0.106992 -0.332620 0.000000 
-0.054870 -0.340852 0.000000 
-0.028809 -0.294969 0.000000 
-0.186430 -0.268544 0.000000 
-0.137056 -0.271071 0.000000 
-0.114311 -0.217423 0.000000 
-0.058186 -0.233089 0.000000 
-0.029377 -0.192912 0.000000 
-0.265318 -0.205389 0.000000 
-0.217198 -0.206188 0.000000 
-0.196633 -0.148892 0.000000 
-0.143120 -0.157600 0.000000 
-0.116563 -0.110332 0.000000 
-0.058945 -0.129978 0.000000 
-0.029568 -0.091857 0.000000 
-0.344206 -0.142233 0.000000 
-0.296791 -0.142226 0.000000 
-0.278030 -0.082283 0.000000 
-0.225992 -0.088149 0.000000 
-0.201664 -0.036032 0.000000 
-0.145749 -0.049506 0.000000 
-0.117890 -0.005163 0.000000 
-0.059328 -0.027869 0.000000 
-0.029759 0.009197 0.000000 
-0.058559 -0.441426 0.000000 
-0.162226 -0.462269 0.000000 
-0.123292 -0.426651 0.000000 
-0.142917 -0.377668 0.000000 
-0.261851 -0.484425 0.000000 
-0.229092 -0.447398 0.000000 
-0.256854 -0.396166 0.000000 
-0.209613 -0.362054 0.000000 
-0.223062 -0.314480 0.000000 
-0.360414 -0.506725 0.000000 
-0.329787 -0.469602 0.000000 
-0.361761 -0.417800 0.000000 
-0.321587 -0.381391 0.000000 
-0.341985 -0.331157 0.000000 
-0.290702 -0.298358 0.000000 
-0.302189 -0.251623 0.000000 
-0.458977 -0.529025 0.000000 
-0.429420 -0.491951 0.000000 
-0.464588 -0.439909 0.000000 
-0.427556 -0.402881 0.000000 
-0.453135 -0.351367 0.000000 
-0.407738 -0.316051 0.000000 
-0.425037 -0.266623 0.000000 
-0.370772 -0.234994 0.000000 
-0.381315 -0.188767 0.000000 
-0.046960 -0.492241 0.000000 
-0.095301 -0.586287 0.000000 
-0.098873 -0.533640 0.000000 
-0.149405 -0.518442 0.000000 
-0.140093 -0.677991 0.000000 
-0.148617 -0.629293 0.000000 
-0.205981 -0.619056 0.000000 
-0.203197 -0.560852 0.000000 
-0.248777 -0.541706 0.000000 
-0.184111 -0.768955 0.000000 
-0.194039 -0.721864 0.000000 
-0.254475 -0.714564 0.000000 
-0.257893 -0.660454 0.000000 
-0.309886 -0.645082 0.000000 
-0.303554 -0.584537 0.000000 
-0.347255 -0.564379 0.000000 
-0.228129 -0.859918 0.000000 
-0.238687 -0.813694 0.000000 
-0.301302 -0.808742 0.000000 
-0.307162 -0.756703 0.000000 
-0.363386 -0.744582 0.000000 
-0.362692 -0.687071 0.000000 
-0.412122 -0.669778 0.000000 
-0.403017 -0.607631 0.000000 
-0.445733 -0.587052 0.000000 
-0.000000 -0.514856 0.000000 
0.043388 -0.611287 0.000000 
-0.000000 -0.581254 0.000000 
-0.043388 -0.611287 0.000000 
0.087158 -0.703483 0.000000 
0.043769 -0.679785 0.000000 
-0.000000 -0.718251 0.000000 
-0.043769 -0.679785 0.000000 
-0.087158 -0.703483 0.000000 
0.130831 -0.794613 0.000000 
0.087824 -0.773014 0.000000 
0.044436 -0.815714 0.000000 
-0.000000 -0.784649 0.000000 
-0.044436 -0.815714 0.000000 
-0.087824 -0.773014 0.000000 
-0.130831 -0.794613 0.000000 
0.174505 -0.885743 0.000000 
0.131782 -0.865177 0.000000 
0.088871 -0.911043 0.000000 
0.044532 -0.883179 0.000000 
-0.000000 -0.919580 0.000000 
-0.044532 -0.883179 0.000000 
-0.088871 -0.911043 0.000000 
-0.131782 -0.865177 0.000000 
-0.174505 -0.885743 0.000000 
0.046960 -0.492241 0.000000 
0.149405 -0.518442 0.000000 
0.098873 -0.533640 0.000000 
0.095301 -0.586287 0.000000 
0.248777 -0.541706 0.000000 
0.203197 -0.560852 0.000000 
0.205981 -0.619056 0.000000 
0.148617 -0.629293 0.000000 
0.140093 -0.677991 0.000000 
0.347255 -0.564379 0.000000 
0.303554 -0.584537 0.000000 
0.309886 -0.645082 0.000000 
0.257893 -0.660454 0.000000 
0.254475 -0.714564 0.000000 
0.194039 -0.721864 0.000000 
0.184111 -0.768955 0.000000 
0.445733 -0.587052 0.000000 
0.403017 -0.607631 0.000000 
0.412122 -0.669778 0.000000 
0.362692 -0.687071 0.000000 
0.363386 -0.744582 0.000000 
0.307162 -0.756703 0.000000 
0.301302 -0.808742 0.000000 
0.238687 -0.813694 0.000000 
0.228129 -0.859918 0.000000 
0.058559 -0.441426 0.000000 
0.142917 -0.377668 0.000000 
0.123292 -0.426651 0.000000 
0.162226 -0.462269 0.000000 
0.223062 -0.314480 0.000000 
0.209613 -0.362054 0.000000 
0.256854 -0.396166 0.000000 
0.229092 -0.447398 0.000000 
0.261851 -0.484425 0.000000 
0.302189 -0.251623 0.000000 
0.290702 -0.298358 0.000000 
0.341985 -0.331157 0.000000 
0.321587 -0.381391 0.000000 
0.361761 -0.417800 0.000000 
0.329787 -0.469602 0.000000 
0.360414 -0.506725 0.000000 
0.381315 -0.188767 0.000000 
0.370772 -0.234994 0.000000 
0.425037 -0.266623 0.000000 
0.407738 -0.316051 0.000000 
0.453135 -0.351367 0.000000 
0.427556 -0.402881 0.000000 
0.464588 -0.439909 0.000000 
0.429420 -0.491951 0.000000 
0.458977 -0.529025 0.000000 
0.026061 -0.400675 0.000000 
0.028809 -0.294969 0.000000 
0.054870 -0.340852 0.000000 
0.106992 -0.332620 0.000000 
0.029377 -0.192912 0.000000 
0.058186 -0.233089 0.000000 
0.114311 -0.217423 0.000000 
0.137056 -0.271071 0.000000 
0.186430 -0.268544 0.000000 
0.029568 -0.091857 0.000000 
0.058945 -0.129978 0.000000 
0.116563 -0.110332 0.000000 
0.143120 -0.157600 0.000000 
0.196633 -0.148892 0.000000 
0.217198 -0.206188 0.000000 
0.265318 -0.205389 0.000000 
0.029759 0.009197 0.000000 
0.059328 -0.027869 0.000000 
0.117890 -0.005163 0.000000 
0.145749 -0.049506 0.000000 
0.201664 -0.036032 0.000000 
0.225992 -0.088149 0.000000 
0.278030 -0.082283 0.000000 
0.296791 -0.142226 0.000000 
0.344206 -0.142233 0.000000 
CELLS 175 350 
1 0 
1 1 
1 2 
1 3 
1 4 
1 5 
1 6 
1 7 
1 8 
1 9 
1 10 
1 11 
1 12 
1 13 
1 14 
1 15 
1 16 
1 17 
1 18 
1 19 
1 20 
1 21 
1 22 
1 23 
1 24 
1 25 
1 26 
1 27 
1 28 
1 29 
1 30 
1 31 
1 32 
1 33 
1 34 
1 35 
1 36 
1 37 
1 38 
1 39 
1 40 
1 41 
1 42 
1 43 
1 44 
1 45 
1 46 
1 47 
1 48 
1 49 
1 50 
1 51 
1 52 
1 53 
1 54 
1 55 
1 56 
1 57 
1 58 
1 59 
1 60 
1 61 
1 62 
1 63 
1 64 
1 65 
1 66 
1 67 
1 68 
1 69 
1 70 
1 71 
1 72 
1 73 
1 74 
1 75 
1 76 
1 77 
1 78 
1 79 
1 80 
1 81 
1 82 
1 83 
1 84 
1 85 
1 86 
1 87 
1 88 
1 89 
1 90 
1 91 
1 92 
1 93 
1 94 
1 95 
1 96 
1 97 
1 98 
1 99 
1 100 
1 101 
1 102 
1 103 
1 104 
1 105 
1 106 
1 107 
1 108 
1 109 
1 110 
1 111 
1 112 
1 113 
1 114 
1 115 
1 116 
1 117 
1 118 
1 119 
1 120 
1 121 
1 122 
1 123 
1 124 
1 125 
1 126 
1 127 
1 128 
1 129 
1 130 
1 131 
1 132 
1 133 
1 134 
1 135 
1 136 
1 137 
1 138 
1 139 
1 140 
1 141 
1 142 
1 143 
1 144 
1 145 
1 146 
1 147 
1 148 
1 149 
1 150 
1 151 
1 152 
1 153 
1 154 
1 155 
1 156 
1 157 
1 158 
1 159 
1 160 
1 161 
1 162 
1 163 
1 164 
1 165 
1 166 
1 167 
1 168 
1 169 
1 170 
1 171 
1 172 
1 173 
1 174 
CELL_TYPES 175 
1 
1 
1 
1 
1 
1 
1 
1 
1 
1 
1 
1 
1 
1 
1 
1 
1 
1 
1 
1 
1 
1 
1 
1 
1 
1 
1 
1 
1 
1 
1 
1 
1 
1 
1 
1 
1 
1 
1 
1 
1 
1 
1 
1 
1 
1 
1 
1 
1 
1 
1 
1 
1 
1 
1 
1 
1 
1 
1 
1 
1 
1 
1 
1 
1 
1 
1 
1 
1 
1 
1 
1 
1 
1 
1 
1 
1 
1 
1 
1 
1 
1 
1 
1 
1 
1 
1 
1 
1 
1 
1 
1 
1 
1 
1 
1 
1 
1 
1 
1 
1 
1 
1 
1 
1 
1 
1 
1 
1 
1 
1 
1 
1 
1 
1 
1 
1 
1 
1 
1 
1 
1 
1 
1 
1 
1 
1 
1 
1 
1 
1 
1 
1 
1 
1 
1 
1 
1 
1 
1 
1 
1 
1 
1 
1 
1 
1 
1 
1 
1 
1 
1 
1 
1 
1 
1 
1 
1 
1 
1 
1 
1 
1 
1 
1 
1 
1 
1 
1 
1 
1 
1 
1 
1 
1 
POINT_DATA 175 
VECTORS X_GC float 
-0.026061 -0.400675 0.000000 
-0.106992 -0.332620 0.000000 
-0.054870 -0.340852 0.000000 
-0.028809 -0.294969 0.000000 
-0.186430 -0.268544 0.000000 
-0.137056 -0.271071 0.000000 
-0.114311 -0.217423 0.000000 
-0.058186 -0.233089 0.000000 
-0.029377 -0.192912 0.000000 
-0.265318 -0.205389 0.000000 
-0.217198 -0.206188 0.000000 
-0.196633 -0.148892 0.000000 
-0.143120 -0.157600 0.000000 
-0.116563 -0.110332 0.000000 
-0.058945 -0.129978 0.000000 
-0.029568 -0.091857 0.000000 
-0.344206 -0.142233 0.000000 
-0.296791 -0.142226 0.000000 
-0.278030 -0.082283 0.000000 
-0.225992 -0.088149 0.000000 
-0.201664 -0.036032 0.000000 
-0.145749 -0.049506 0.000000 
-0.117890 -0.005163 0.000000 
-0.059328 -0.027869 0.000000 
-0.029759 0.009197 0.000000 
-0.058559 -0.441426 0.000000 
-0.162226 -0.462269 0.000000 
-0.123292 -0.426651 0.000000 
-0.142917 -0.377668 0.000000 
-0.261851 -0.484425 0.000000 
-0.229092 -0.447398 0.000000 
-0.256854 -0.396166 0.000000 
-0.209613 -0.362054 0.000000 
-0.223062 -0.314480 0.000000 
-0.360414 -0.506725 0.000000 
-0.329787 -0.469602 0.000000 
-0.361761 -0.417800 0.000000 
-0.321587 -0.381391 0.000000 
-0.341985 -0.331157 0.000000 
-0.290702 -0.298358 0.000000 
-0.302189 -0.251623 0.000000 
-0.458977 -0.529025 0.000000 
-0.429420 -0.491951 0.000000 
-0.464588 -0.439909 0.000000 
-0.427556 -0.402881 0.000000 
-0.453135 -0.351367 0.000000 
-0.407738 -0.316051 0.000000 
-0.425037 -0.266623 0.000000 
-0.370772 -0.234994 0.000000 
-0.381315 -0.188767 0.000000 
-0.046960 -0.492241 0.000000 
-0.095301 -0.586287 0.000000 
-0.098873 -0.533640 0.000000 
-0.149405 -0.518442 0.000000 
-0.140093 -0.677991 0.000000 
-0.148617 -0.629293 0.000000 
-0.205981 -0.619056 0.000000 
-0.203197 -0.560852 0.000000 
-0.248777 -0.541706 0.000000 
-0.184111 -0.768955 0.000000 
-0.194039 -0.721864 0.000000 
-0.254475 -0.714564 0.000000 
-0.257893 -0.660454 0.000000 
-0.309886 -0.645082 0.000000 
-0.303554 -0.584537 0.000000 
-0.347255 -0.564379 0.000000 
-0.228129 -0.859918 0.000000 
-0.238687 -0.813694 0.000000 
-0.301302 -0.808742 0.000000 
-0.307162 -0.756703 0.000000 
-0.363386 -0.744582 0.000000 
-0.362692 -0.687071 0.000000 
-0.412122 -0.669778 0.000000 
-0.403017 -0.607631 0.000000 
-0.445733 -0.587052 0.000000 
-0.000000 -0.514856 0.000000 
0.043388 -0.611287 0.000000 
-0.000000 -0.581254 0.000000 
-0.043388 -0.611287 0.000000 
0.087158 -0.703483 0.000000 
0.043769 -0.679785 0.000000 
-0.000000 -0.718251 0.000000 
-0.043769 -0.679785 0.000000 
-0.087158 -0.703483 0.000000 
0.130831 -0.794613 0.000000 
0.087824 -0.773014 0.000000 
0.044436 -0.815714 0.000000 
-0.000000 -0.784649 0.000000 
-0.044436 -0.815714 0.000000 
-0.087824 -0.773014 0.000000 
-0.130831 -0.794613 0.000000 
0.174505 -0.885743 0.000000 
0.131782 -0.865177 0.000000 
0.088871 -0.911043 0.000000 
0.044532 -0.883179 0.000000 
-0.000000 -0.919580 0.000000 
-0.044532 -0.883179 0.000000 
-0.088871 -0.911043 0.000000 
-0.131782 -0.865177 0.000000 
-0.174505 -0.885743 0.000000 
0.046960 -0.492241 0.000000 
0.149405 -0.518442 0.000000 
0.098873 -0.533640 0.000000 
0.095301 -0.586287 0.000000 
0.248777 -0.541706 0.000000 
0.203197 -0.560852 0.000000 
0.205981 -0.619056 0.000000 
0.148617 -0.629293 0.000000 
0.140093 -0.677991 0.000000 
0.347255 -0.564379 0.000000 
0.303554 -0.584537 0.000000 
0.309886 -0.645082 0.000000 
0.257893 -0.660454 0.000000 
0.254475 -0.714564 0.000000 
0.194039 -0.721864 0.000000 
0.184111 -0.768955 0.000000 
0.445733 -0.587052 0.000000 
0.403017 -0.607631 0.000000 
0.412122 -0.669778 0.000000 
0.362692 -0.687071 0.000000 
0.363386 -0.744582 0.000000 
0.307162 -0.756703 0.000000 
0.301302 -0.808742 0.000000 
0.238687 -0.813694 0.000000 
0.228129 -0.859918 0.000000 
0.058559 -0.441426 0.000000 
0.142917 -0.377668 0.000000 
0.123292 -0.426651 0.000000 
0.162226 -0.462269 0.000000 
0.223062 -0.314480 0.000000 
0.209613 -0.362054 0.000000 
0.256854 -0.396166 0.000000 
0.229092 -0.447398 0.000000 
0.261851 -0.484425 0.000000 
0.302189 -0.251623 0.000000 
0.290702 -0.298358 0.000000 
0.341985 -0.331157 0.000000 
0.321587 -0.381391 0.000000 
0.361761 -0.417800 0.000000 
0.329787 -0.469602 0.000000 
0.360414 -0.506725 0.000000 
0.381315 -0.188767 0.000000 
0.370772 -0.234994 0.000000 
0.425037 -0.266623 0.000000 
0.407738 -0.316051 0.000000 
0.453135 -0.351367 0.000000 
0.427556 -0.402881 0.000000 
0.464588 -0.439909 0.000000 
0.429420 -0.491951 0.000000 
0.458977 -0.529025 0.000000 
0.026061 -0.400675 0.000000 
0.028809 -0.294969 0.000000 
0.054870 -0.340852 0.000000 
0.106992 -0.332620 0.000000 
0.029377 -0.192912 0.000000 
0.058186 -0.233089 0.000000 
0.114311 -0.217423 0.000000 
0.137056 -0.271071 0.000000 
0.186430 -0.268544 0.000000 
0.029568 -0.091857 0.000000 
0.058945 -0.129978 0.000000 
0.116563 -0.110332 0.000000 
0.143120 -0.157600 0.000000 
0.196633 -0.148892 0.000000 
0.217198 -0.206188 0.000000 
0.265318 -0.205389 0.000000 
0.029759 0.009197 0.000000 
0.059328 -0.027869 0.000000 
0.117890 -0.005163 0.000000 
0.145749 -0.049506 0.000000 
0.201664 -0.036032 0.000000 
0.225992 -0.088149 0.000000 
0.278030 -0.082283 0.000000 
0.296791 -0.142226 0.000000 
0.344206 -0.142233 0.000000 
VECTORS X_EC float 
0.338794 -0.090884 0.000000 
-0.609100 0.990368 0.000000 
0.713312 -0.898491 0.000000 
0.374519 0.482079 0.000000 
0.423588 0.125348 0.000000 
-0.218274 0.159452 0.000000 
-0.513962 -0.564787 0.000000 
0.756418 -0.353301 0.000000 
0.381900 -0.895693 0.000000 
-0.550868 -0.727255 0.000000 
0.823577 -0.716459 0.000000 
0.556234 0.510037 0.000000 
-0.139443 0.627606 0.000000 
-0.484677 -0.010519 0.000000 
0.766286 0.254696 0.000000 
0.384386 -0.259924 0.000000 
0.474677 0.420142 0.000000 
-0.141715 0.420046 0.000000 
-0.385608 -0.389182 0.000000 
0.937896 -0.309987 0.000000 
0.621631 0.986433 0.000000 
-0.105264 -0.831668 0.000000 
-0.467428 0.569706 0.000000 
0.771260 0.876234 0.000000 
0.386873 0.375845 0.000000 
0.761262 0.459251 0.000000 
0.108942 0.740627 0.000000 
-0.397202 0.259788 0.000000 
-0.142083 -0.401487 0.000000 
-0.595936 -0.960262 0.000000 
0.978194 0.539872 0.000000 
-0.660903 -0.151753 0.000000 
0.724964 -0.612273 0.000000 
0.899809 0.745478 0.000000 
0.685384 -0.659210 0.000000 
0.287229 0.839632 0.000000 
0.702895 0.140303 0.000000 
0.180633 -0.351216 0.000000 
0.445811 0.970625 0.000000 
-0.220880 0.527839 0.000000 
-0.071546 -0.103087 0.000000 
-0.033296 -0.358158 0.000000 
-0.417537 -0.858667 0.000000 
0.039645 0.438770 0.000000 
-0.441768 -0.061101 0.000000 
-0.109248 -0.756552 0.000000 
-0.699407 0.766693 0.000000 
-0.474522 0.099414 0.000000 
0.820030 -0.327580 0.000000 
0.957100 -0.951652 0.000000 
0.610485 -0.854743 0.000000 
-0.761092 0.414876 0.000000 
-0.714655 -0.295861 0.000000 
-0.057734 -0.501028 0.000000 
-0.178789 -0.347119 0.000000 
-0.067979 0.995454 0.000000 
0.677748 0.857251 0.000000 
0.641556 0.071506 0.000000 
-0.765897 -0.186973 0.000000 
0.393446 0.880890 0.000000 
0.522510 0.245160 0.000000 
-0.691820 0.146615 0.000000 
-0.647393 -0.583867 0.000000 
0.028512 -0.791394 0.000000 
-0.053800 0.391246 0.000000 
0.514316 0.119115 0.000000 
0.965681 0.108899 0.000000 
-0.897068 -0.515130 0.000000 
-0.083078 -0.581983 0.000000 
-0.006893 0.715492 0.000000 
0.724017 0.551859 0.000000 
0.714996 -0.224544 0.000000 
-0.642413 -0.458001 0.000000 
-0.760780 0.703018 0.000000 
-0.205471 0.425203 0.000000 
0.000000 -0.549441 0.000000 
-0.564049 0.752371 0.000000 
0.000000 0.346935 0.000000 
0.564049 0.752371 0.000000 
0.866949 -0.002973 0.000000 
-0.569003 -0.322904 0.000000 
0.000000 0.196384 0.000000 
0.569003 -0.322904 0.000000 
-0.866949 -0.002973 0.000000 
0.299194 -0.772723 0.000000 
0.858290 0.935693 0.000000 
-0.577662 -0.487861 0.000000 
0.000000 -0.907239 0.000000 
0.577662 -0.487861 0.000000 
-0.858290 0.935693 0.000000 
-0.299194 -0.772723 0.000000 
-0.268560 0.457527 0.000000 
0.286830 0.179885 0.000000 
0.844677 0.799083 0.000000 
-0.578910 0.422921 0.000000 
0.000000 0.914325 0.000000 
0.578910 0.422921 0.000000 
-0.844677 0.799083 0.000000 
-0.286830 0.179885 0.000000 
0.268560 0.457527 0.000000 
-0.610485 -0.854743 0.000000 
0.057734 -0.501028 0.000000 
0.714655 -0.295861 0.000000 
0.761092 0.414876 0.000000 
0.765897 -0.186973 0.000000 
-0.641556 0.071506 0.000000 
-0.677748 0.857251 0.000000 
0.067979 0.995454 0.000000 
0.178789 -0.347119 0.000000 
-0.514316 0.119115 0.000000 
0.053800 0.391246 0.000000 
-0.028512 -0.791394 0.000000 
0.647393 -0.583867 0.000000 
0.691820 0.146615 0.000000 
-0.522510 0.245160 0.000000 
-0.393446 0.880890 0.000000 
0.205471 0.425203 0.000000 
0.760780 0.703018 0.000000 
0.642413 -0.458001 0.000000 
-0.714996 -0.224544 0.000000 
-0.724017 0.551859 0.000000 
0.006894 0.715492 0.000000 
0.083078 -0.581983 0.000000 
0.897068 -0.515130 0.000000 
-0.965681 0.108899 0.000000 
-0.761262 0.459251 0.000000 
0.142083 -0.401487 0.000000 
0.397202 0.259788 0.000000 
-0.108942 0.740627 0.000000 
-0.899809 0.745478 0.000000 
-0.724964 -0.612273 0.000000 
0.660903 -0.151753 0.000000 
-0.978194 0.539872 0.000000 
0.595936 -0.960262 0.000000 
0.071546 -0.103087 0.000000 
0.220880 0.527839 0.000000 
-0.445811 0.970625 0.000000 
-0.180633 -0.351216 0.000000 
-0.702895 0.140303 0.000000 
-0.287229 0.839632 0.000000 
-0.685384 -0.659210 0.000000 
-0.957100 -0.951652 0.000000 
-0.820030 -0.327580 0.000000 
0.474522 0.099414 0.000000 
0.699407 0.766693 0.000000 
0.109248 -0.756552 0.000000 
0.441768 -0.061101 0.000000 
-0.039645 0.438770 0.000000 
0.417537 -0.858667 0.000000 
0.033296 -0.358158 0.000000 
-0.338794 -0.090884 0.000000 
-0.374519 0.482079 0.000000 
-0.713312 -0.898491 0.000000 
0.609100 0.990368 0.000000 
-0.381900 -0.895693 0.000000 
-0.756418 -0.353301 0.000000 
0.513962 -0.564787 0.000000 
0.218274 0.159452 0.000000 
-0.423588 0.125348 0.000000 
-0.384386 -0.259924 0.000000 
-0.766286 0.254696 0.000000 
0.484677 -0.010519 0.000000 
0.139443 0.627606 0.000000 
-0.556234 0.510037 0.000000 
-0.823577 -0.716459 0.000000 
0.550868 -0.727255 0.000000 
-0.386873 0.375845 0.000000 
-0.771260 0.876234 0.000000 
0.467428 0.569706 0.000000 
0.105264 -0.831668 0.000000 
-0.621631 0.986433 0.000000 
-0.937896 -0.309987 0.000000 
0.385608 -0.389182 0.000000 
0.141715 0.420046 0.000000 
-0.474677 0.420142 0.000000 
CELL_DATA 175 
SCALARS MASS float 
LOOKUP_TABLE default 
0.781831 
0.864274 
0.946717 
0.864274 
0.881307 
0.921110 
0.858535 
0.921110 
0.881307 
0.887046 
0.910001 
0.869829 
0.915556 
0.869829 
0.910001 
0.887046 
0.892784 
0.915740 
0.892784 
0.927218 
0.892784 
0.927218 
0.892784 
0.915740 
0.892784 
0.781831 
0.864274 
0.946717 
0.864274 
0.881307 
0.921110 
0.858535 
0.921110 
0.881307 
0.887046 
0.910001 
0.869829 
0.915556 
0.869829 
0.910001 
0.887046 
0.892784 
0.915740 
0.892784 
0.927218 
0.892784 
0.927218 
0.892784 
0.915740 
0.892784 
0.781831 
0.864274 
0.946717 
0.864274 
0.881307 
0.921110 
0.858535 
0.921110 
0.881307 
0.887046 
0.910001 
0.869829 
0.915556 
0.869829 
0.910001 
0.887046 
0.892784 
0.915740 
0.892784 
0.927218 
0.892784 
0.927218 
0.892784 
0.915740 
0.892784 
0.781831 
0.864274 
0.946717 
0.864274 
0.881307 
0.921110 
0.858535 
0.921110 
0.881307 
0.887046 
0.910001 
0.869829 
0.915556 
0.869829 
0.910001 
0.887046 
0.892784 
0.915740 
0.892784 
0.927218 
0.892784 
0.927218 
0.892784 
0.915740 
0.892784 
0.781831 
0.864274 
0.946717 
0.864274 
0.881307 
0.921110 
0.858535 
0.921110 
0.881307 
0.887046 
0.910001 
0.869829 
0.915556 
0.869829 
0.910001 
0.887046 
0.892784 
0.915740 
0.892784 
0.927218 
0.892784 
0.927218 
0.892784 
0.915740 
0.892784 
0.781831 
0.864274 
0.946717 
0.864274 
0.881307 
0.921110 
0.858535 
0.921110 
0.881307 
0.887046 
0.910001 
0.869829 
0.915556 
0.869829 
0.910001 
0.887046 
0.892784 
0.915740 
0.892784 
0.927218 
0.892784 
0.927218 
0.892784 
0.915740 
0.892784 
0.781831 
0.864274 
0.946717 
0.864274 
0.881307 
0.921110 
0.858535 
0.921110 
0.881307 
0.887046 
0.910001 
0.869829 
0.915556 
0.869829 
0.910001 
0.887046 
0.892784 
0.915740 
0.892784 
0.927218 
0.892784 
0.927218 
0.892784 
0.915740 
0.892784 
SCALARS MASS float 
LOOKUP_TABLE default 
0.781831 
0.864274 
0.946717 
0.864274 
0.881307 
0.921110 
0.858535 
0.921110 
0.881307 
0.887046 
0.910001 
0.869829 
0.915556 
0.869829 
0.910001 
0.887046 
0.892784 
0.915740 
0.892784 
0.927218 
0.892784 
0.927218 
0.892784 
0.915740 
0.892784 
0.781831 
0.864274 
0.946717 
0.864274 
0.881307 
0.921110 
0.858535 
0.921110 
0.881307 
0.887046 
0.910001 
0.869829 
0.915556 
0.869829 
0.910001 
0.887046 
0.892784 
0.915740 
0.892784 
0.927218 
0.892784 
0.927218 
0.892784 
0.915740 
0.892784 
0.781831 
0.864274 
0.946717 
0.864274 
0.881307 
0.921110 
0.858535 
0.921110 
0.881307 
0.887046 
0.910001 
0.869829 
0.915556 
0.869829 
0.910001 
0.887046 
0.892784 
0.915740 
0.892784 
0.927218 
0.892784 
0.927218 
0.892784 
0.915740 
0.892784 
0.781831 
0.864274 
0.946717 
0.864274 
0.881307 
0.921110 
0.858535 
0.921110 
0.881307 
0.887046 
0.910001 
0.869829 
0.915556 
0.869829 
0.910001 
0.887046 
0.892784 
0.915740 
0.892784 
0.927218 
0.892784 
0.927218 
0.892784 
0.915740 
0.892784 
0.781831 
0.864274 
0.946717 
0.864274 
0.881307 
0.921110 
0.858535 
0.921110 
0.881307 
0.887046 
0.910001 
0.869829 
0.915556 
0.869829 
0.910001 
0.887046 
0.892784 
0.915740 
0.892784 
0.927218 
0.892784 
0.927218 
0.892784 
0.915740 
0.892784 
0.781831 
0.864274 
0.946717 
0.864274 
0.881307 
0.921110 
0.858535 
0.921110 
0.881307 
0.887046 
0.910001 
0.869829 
0.915556 
0.869829 
0.910001 
0.887046 
0.892784 
0.915740 
0.892784 
0.927218 
0.892784 
0.927218 
0.892784 
0.915740 
0.892784 
0.781831 
0.864274 
0.946717 
0.864274 
0.881307 
0.921110 
0.858535 
0.921110 
0.881307 
0.887046 
0.910001 
0.869829 
0.915556 
0.869829 
0.910001 
0.887046 
0.892784 
0.915740 
0.892784 
0.927218 
0.892784 
0.927218 
0.892784 
0.915740 
0.892784 
SCALARS DENSITY float 
LOOKUP_TABLE default 
200.000000 
200.000000 
200.000000 
200.000000 
200.000000 
200.000000 
200.000000 
200.000000 
200.000000 
200.000000 
200.000000 
200.000000 
200.000000 
200.000000 
200.000000 
200.000000 
200.000000 
200.000000 
200.000000 
200.000000 
200.000000 
200.000000 
200.000000 
200.000000 
200.000000 
200.000000 
200.000000 
200.000000 
200.000000 
200.000000 
200.000000 
200.000000 
200.000000 
200.000000 
200.000000 
200.000000 
200.000000 
200.000000 
200.000000 
200.000000 
200.000000 
200.000000 
200.000000 
200.000000 
200.000000 
200.000000 
200.000000 
200.000000 
200.000000 
200.000000 
200.000000 
200.000000 
200.000000 
200.000000 
200.000000 
200.000000 
200.000000 
200.000000 
200.000000 
200.000000 
200.000000 
200.000000 
200.000000 
200.000000 
200.000000 
200.000000 
200.000000 
200.000000 
200.000000 
200.000000 
200.000000 
200.000000 
200.000000 
200.000000 
200.000000 
200.000000 
200.000000 
200.000000 
200.000000 
200.000000 
200.000000 
200.000000 
200.000000 
200.000000 
200.000000 
200.000000 
200.000000 
200.000000 
200.000000 
200.000000 
200.000000 
200.000000 
200.000000 
200.000000 
200.000000 
200.000000 
200.000000 
200.000000 
200.000000 
200.000000 
200.000000 
200.000000 
200.000000 
200.000000 
200.000000 
200.000000 
200.000000 
200.000000 
200.000000 
200.000000 
200.000000 
200.000000 
200.000000 
200.000000 
200.000000 
200.000000 
200.000000 
200.000000 
200.000000 
200.000000 
200.000000 
200.000000 
200.000000 
200.000000 
200.000000 
200.000000 
200.000000 
200.000000 
200.000000 
200.000000 
200.000000 
200.000000 
200.000000 
200.000000 
200.000000 
200.000000 
200.000000 
200.000000 
200.000000 
200.000000 
200.000000 
200.000000 
200.000000 
200.000000 
200.000000 
200.000000 
200.000000 
200.000000 
200.000000 
200.000000 
200.000000 
200.000000 
200.000000 
200.000000 
200.000000 
200.000000 
200.000000 
200.000000 
200.000000 
200.000000 
200.000000 
200.000000 
200.000000 
200.000000 
200.000000 
200.000000 
200.000000 
200.000000 
200.000000 
200.000000 
200.000000 
200.000000 
200.000000 
200.000000 
200.000000 
SCALARS ELEM_i float 
LOOKUP_TABLE default 
179 
207 
179 
180 
207 
207 
207 
180 
180 
234 
207 
208 
208 
208 
181 
181 
235 
235 
235 
208 
209 
208 
209 
182 
182 
179 
206 
206 
206 
232 
206 
233 
206 
207 
232 
233 
233 
233 
234 
234 
234 
259 
259 
260 
260 
260 
261 
261 
234 
234 
178 
205 
205 
205 
204 
205 
205 
205 
232 
204 
204 
231 
231 
231 
232 
232 
203 
230 
230 
231 
231 
231 
258 
259 
259 
178 
178 
178 
178 
150 
177 
177 
177 
204 
149 
150 
176 
176 
176 
204 
203 
149 
149 
149 
176 
176 
176 
203 
203 
203 
178 
151 
151 
151 
124 
151 
151 
151 
150 
124 
124 
123 
123 
123 
150 
150 
97 
97 
96 
123 
123 
123 
122 
122 
149 
179 
152 
152 
152 
153 
152 
125 
152 
124 
126 
126 
126 
125 
125 
125 
124 
126 
126 
99 
99 
98 
98 
98 
97 
97 
179 
180 
179 
153 
180 
180 
153 
153 
153 
181 
181 
154 
154 
154 
153 
126 
182 
182 
155 
154 
155 
154 
127 
127 
127 
VECTORS VELOCITY float 
0.000000 -2.982240 0.000000 
-0.000000 -2.982240 0.000000 
-0.000000 -2.982240 0.000000 
-0.000000 -2.982240 0.000000 
0.000000 -2.982240 0.000000 
-0.000000 -2.982240 0.000000 
0.000000 -2.982240 0.000000 
0.000000 -2.982240 0.000000 
-0.000000 -2.982240 0.000000 
0.000000 -2.982240 0.000000 
0.000000 -2.982240 0.000000 
-0.000000 -2.982240 0.000000 
-0.000000 -2.982240 0.000000 
-0.000000 -2.982240 0.000000 
-0.000000 -2.982240 0.000000 
-0.000000 -2.982240 0.000000 
0.000000 -2.982240 0.000000 
0.000000 -2.982240 0.000000 
0.000000 -2.982240 0.000000 
0.000000 -2.982240 0.000000 
0.000000 -2.982240 0.000000 
-0.000000 -2.982240 0.000000 
0.000000 -2.982240 0.000000 
-0.000000 -2.982240 0.000000 
-0.000000 -2.982240 0.000000 
0.000000 -2.982240 0.000000 
-0.000000 -2.982240 0.000000 
-0.000000 -2.982240 0.000000 
-0.000000 -2.982240 0.000000 
-0.000000 -2.982240 0.000000 
-0.000000 -2.982240 0.000000 
-0.000000 -2.982240 0.000000 
-0.000000 -2.982240 0.000000 
-0.000000 -2.982240 0.000000 
-0.000000 -2.982240 0.000000 
-0.000000 -2.982240 0.000000 
-0.000000 -2.982240 0.000000 
0.000000 -2.982240 0.000000 
0.000000 -2.982240 0.000000 
0.000000 -2.982240 0.000000 
0.000000 -2.982240 0.000000 
-0.000000 -2.982240 0.000000 
0.000000 -2.982240 0.000000 
0.000000 -2.982240 0.000000 
0.000000 -2.982240 0.000000 
-0.000000 -2.982240 0.000000 
-0.000000 -2.982240 0.000000 
-0.000000 -2.982240 0.000000 
-0.000000 -2.982240 0.000000 
-0.000000 -2.982240 0.000000 
0.000000 -2.982240 0.000000 
-0.000000 -2.982240 0.000000 
0.000000 -2.982240 0.000000 
0.000000 -2.982240 0.000000 
-0.000000 -2.982240 0.000000 
0.000000 -2.982240 0.000000 
0.000000 -2.982240 0.000000 
0.000000 -2.982240 0.000000 
-0.000000 -2.982240 0.000000 
0.000000 -2.982240 0.000000 
0.000000 -2.982240 0.000000 
0.000000 -2.982240 0.000000 
0.000000 -2.982240 0.000000 
-0.000000 -2.982240 0.000000 
-0.000000 -2.982240 0.000000 
-0.000000 -2.982240 0.000000 
-0.000000 -2.982240 0.000000 
0.000000 -2.982240 0.000000 
0.000000 -2.982240 0.000000 
0.000000 -2.982240 0.000000 
-0.000000 -2.982240 0.000000 
-0.000000 -2.982240 0.000000 
0.000000 -2.982240 0.000000 
0.000000 -2.982240 0.000000 
0.000000 -2.982240 0.000000 
0.000000 -2.982240 0.000000 
0.000000 -2.982240 0.000000 
0.000000 -2.982240 0.000000 
0.000000 -2.982240 0.000000 
0.000000 -2.982240 0.000000 
0.000000 -2.982240 0.000000 
0.000000 -2.982240 0.000000 
-0.000000 -2.982240 0.000000 
-0.000000 -2.982240 0.000000 
0.000000 -2.982240 0.000000 
0.000000 -2.982240 0.000000 
0.000000 -2.982240 0.000000 
-0.000000 -2.982240 0.000000 
0.000000 -2.982240 0.000000 
-0.000000 -2.982240 0.000000 
-0.000000 -2.982240 0.000000 
0.000000 -2.982240 0.000000 
0.000000 -2.982240 0.000000 
0.000000 -2.982240 0.000000 
0.000000 -2.982240 0.000000 
0.000000 -2.982240 0.000000 
0.000000 -2.982240 0.000000 
0.000000 -2.982240 0.000000 
-0.000000 -2.982240 0.000000 
-0.000000 -2.982240 0.000000 
0.000000 -2.982240 0.000000 
-0.000000 -2.982240 0.000000 
0.000000 -2.982240 0.000000 
0.000000 -2.982240 0.000000 
-0.000000 -2.982240 0.000000 
-0.000000 -2.982240 0.000000 
-0.000000 -2.982240 0.000000 
0.000000 -2.982240 0.000000 
0.000000 -2.982240 0.000000 
-0.000000 -2.982240 0.000000 
-0.000000 -2.982240 0.000000 
-0.000000 -2.982240 0.000000 
-0.000000 -2.982240 0.000000 
0.000000 -2.982240 0.000000 
0.000000 -2.982240 0.000000 
0.000000 -2.982240 0.000000 
0.000000 -2.982240 0.000000 
-0.000000 -2.982240 0.000000 
-0.000000 -2.982240 0.000000 
-0.000000 -2.982240 0.000000 
-0.000000 -2.982240 0.000000 
-0.000000 -2.982240 0.000000 
-0.000000 -2.982240 0.000000 
-0.000000 -2.982240 0.000000 
-0.000000 -2.982240 0.000000 
0.000000 -2.982240 0.000000 
0.000000 -2.982240 0.000000 
0.000000 -2.982240 0.000000 
-0.000000 -2.982240 0.000000 
-0.000000 -2.982240 0.000000 
-0.000000 -2.982240 0.000000 
-0.000000 -2.982240 0.000000 
-0.000000 -2.982240 0.000000 
-0.000000 -2.982240 0.000000 
0.000000 -2.982240 0.000000 
0.000000 -2.982240 0.000000 
0.000000 -2.982240 0.000000 
0.000000 -2.982240 0.000000 
0.000000 -2.982240 0.000000 
-0.000000 -2.982240 0.000000 
-0.000000 -2.982240 0.000000 
0.000000 -2.982240 0.000000 
0.000000 -2.982240 0.000000 
-0.000000 -2.982240 0.000000 
0.000000 -2.982240 0.000000 
-0.000000 -2.982240 0.000000 
0.000000 -2.982240 0.000000 
0.000000 -2.982240 0.000000 
0.000000 -2.982240 0.000000 
0.000000 -2.982240 0.000000 
0.000000 -2.982240 0.000000 
-0.000000 -2.982240 0.000000 
-0.000000 -2.982240 0.000000 
-0.000000 -2.982240 0.000000 
-0.000000 -2.982240 0.000000 
-0.000000 -2.982240 0.000000 
-0.000000 -2.982240 0.000000 
-0.000000 -2.982240 0.000000 
-0.000000 -2.982240 0.000000 
0.000000 -2.982240 0.000000 
0.000000 -2.982240 0.000000 
0.000000 -2.982240 0.000000 
-0.000000 -2.982240 0.000000 
-0.000000 -2.982240 0.000000 
-0.000000 -2.982240 0.000000 
-0.000000 -2.982240 0.000000 
0.000000 -2.982240 0.000000 
0.000000 -2.982240 0.000000 
-0.000000 -2.982240 0.000000 
0.000000 -2.982240 0.000000 
0.000000 -2.982240 0.000000 
-0.000000 -2.982240 0.000000 
0.000000 -2.982240 0.000000 
-0.000000 -2.982240 0.000000 
0.000000 -2.982240 0.000000 
TENSORS STRESS float 
-0.000000 -0.000000 0.000000 
0.000000 -0.000000 0.000000 
0.000000 0.000000 0.000000 

0.000000 0.000000 0.000000 
0.000000 0.000000 0.000000 
0.000000 0.000000 0.000000 

-0.000000 0.000000 0.000000 
0.000000 -0.000000 0.000000 
0.000000 0.000000 0.000000 

0.000000 0.000000 0.000000 
0.000000 -0.000000 0.000000 
0.000000 0.000000 0.000000 

-0.000000 0.000000 0.000000 
0.000000 -0.000000 0.000000 
0.000000 0.000000 0.000000 

0.000000 0.000000 0.000000 
0.000000 0.000000 0.000000 
0.000000 0.000000 0.000000 

0.000000 0.000000 0.000000 
0.000000 0.000000 0.000000 
0.000000 0.000000 0.000000 

-0.000000 -0.000000 0.000000 
0.000000 -0.000000 0.000000 
0.000000 0.000000 0.000000 

-0.000000 -0.000000 0.000000 
0.000000 -0.000000 0.000000 
0.000000 0.000000 0.000000 

-0.000000 -0.000000 0.000000 
0.000000 -0.000000 0.000000 
0.000000 0.000000 0.000000 

-0.000000 0.000000 0.000000 
0.000000 -0.000000 0.000000 
0.000000 0.000000 0.000000 

0.000000 -0.000000 0.000000 
0.000000 0.000000 0.000000 
0.000000 0.000000 0.000000 

-0.000000 0.000000 0.000000 
0.000000 -0.000000 0.000000 
0.000000 0.000000 0.000000 

0.000000 0.000000 0.000000 
0.000000 0.000000 0.000000 
0.000000 0.000000 0.000000 

0.000000 -0.000000 0.000000 
0.000000 -0.000000 0.000000 
0.000000 0.000000 0.000000 

0.000000 -0.000000 0.000000 
0.000000 0.000000 0.000000 
0.000000 0.000000 0.000000 

-0.000000 0.000000 0.000000 
0.000000 -0.000000 0.000000 
0.000000 0.000000 0.000000 

-0.000000 -0.000000 0.000000 
0.000000 -0.000000 0.000000 
0.000000 0.000000 0.000000 

-0.000000 -0.000000 0.000000 
0.000000 0.000000 0.000000 
0.000000 0.000000 0.000000 

0.000000 0.000000 0.000000 
0.000000 0.000000 0.000000 
0.000000 0.000000 0.000000 

0.000000 0.000000 0.000000 
0.000000 0.000000 0.000000 
0.000000 0.000000 0.000000 

-0.000000 -0.000000 0.000000 
0.000000 -0.000000 0.000000 
0.000000 0.000000 0.000000 

0.000000 -0.000000 0.000000 
0.000000 0.000000 0.000000 
0.000000 0.000000 0.000000 

0.000000 -0.000000 0.000000 
0.000000 0.000000 0.000000 
0.000000 0.000000 0.000000 

0.000000 0.000000 0.000000 
0.000000 -0.000000 0.000000 
0.000000 0.000000 0.000000 

-0.000000 -0.000000 0.000000 
0.000000 -0.000000 0.000000 
0.000000 0.000000 0.000000 

-0.000000 0.000000 0.000000 
0.000000 -0.000000 0.000000 
0.000000 0.000000 0.000000 

-0.000000 -0.000000 0.000000 
0.000000 -0.000000 0.000000 
0.000000 0.000000 0.000000 

-0.000000 -0.000000 0.000000 
0.000000 -0.000000 0.000000 
0.000000 0.000000 0.000000 

-0.000000 0.000000 0.000000 
0.000000 -0.000000 0.000000 
0.000000 0.000000 0.000000 

0.000000 0.000000 0.000000 
0.000000 0.000000 0.000000 
0.000000 0.000000 0.000000 

0.000000 -0.000000 0.000000 
0.000000 0.000000 0.000000 
0.000000 0.000000 0.000000 

-0.000000 0.000000 0.000000 
0.000000 -0.000000 0.000000 
0.000000 0.000000 0.000000 

-0.000000 0.000000 0.000000 
0.000000 -0.000000 0.000000 
0.000000 0.000000 0.000000 

-0.000000 -0.000000 0.000000 
0.000000 -0.000000 0.000000 
0.000000 0.000000 0.000000 

0.000000 0.000000 0.000000 
0.000000 0.000000 0.000000 
0.000000 0.000000 0.000000 

0.000000 0.000000 0.000000 
0.000000 0.000000 0.000000 
0.000000 0.000000 0.000000 

0.000000 0.000000 0.000000 
0.000000 0.000000 0.000000 
0.000000 0.000000 0.000000 

0.000000 0.000000 0.000000 
0.000000 0.000000 0.000000 
0.000000 0.000000 0.000000 

0.000000 0.000000 0.000000 
0.000000 0.000000 0.000000 
0.000000 0.000000 0.000000 

0.000000 0.000000 0.000000 
0.000000 0.000000 0.000000 
0.000000 0.000000 0.000000 

0.000000 -0.000000 0.000000 
0.000000 0.000000 0.000000 
0.000000 0.000000 0.000000 

-0.000000 -0.000000 0.000000 
0.000000 -0.000000 0.000000 
0.000000 0.000000 0.000000 

-0.000000 0.000000 0.000000 
0.000000 -0.000000 0.000000 
0.000000 0.000000 0.000000 

-0.000000 0.000000 0.000000 
0.000000 -0.000000 0.000000 
0.000000 0.000000 0.000000 

-0.000000 -0.000000 0.000000 
0.000000 -0.000000 0.000000 
0.000000 0.000000 0.000000 

0.000000 0.000000 0.000000 
0.000000 0.000000 0.000000 
0.000000 0.000000 0.000000 

-0.000000 0.000000 0.000000 
0.000000 -0.000000 0.000000 
0.000000 0.000000 0.000000 

-0.000000 -0.000000 0.000000 
0.000000 -0.000000 0.000000 
0.000000 0.000000 0.000000 

0.000000 0.000000 0.000000 
0.000000 0.000000 0.000000 
0.000000 0.000000 0.000000 

-0.000000 -0.000000 0.000000 
0.000000 -0.000000 0.000000 
0.000000 0.000000 0.000000 

0.000000 0.000000 0.000000 
0.000000 0.000000 0.000000 
0.000000 0.000000 0.000000 

0.000000 0.000000 0.000000 
0.000000 0.000000 0.000000 
0.000000 0.000000 0.000000 

-0.000000 -0.000000 0.000000 
0.000000 -0.000000 0.000000 
0.000000 0.000000 0.000000 

0.000000 -0.000000 0.000000 
0.000000 0.000000 0.000000 
0.000000 0.000000 0.000000 

-0.000000 0.000000 0.000000 
0.000000 -0.000000 0.000000 
0.000000 0.000000 0.000000 

-0.000000 0.000000 0.000000 
0.000000 -0.000000 0.000000 
0.000000 0.000000 0.000000 

-0.000000 0.000000 0.000000 
0.000000 -0.000000 0.000000 
0.000000 0.000000 0.000000 

-0.000000 0.000000 0.000000 
0.000000 -0.000000 0.000000 
0.000000 0.000000 0.000000 

0.000000 -0.000000 0.000000 
0.000000 0.000000 0.000000 
0.000000 0.000000 0.000000 

0.000000 -0.000000 0.000000 
0.000000 0.000000 0.000000 
0.000000 0.000000 0.000000 

0.000000 -0.000000 0.000000 
0.000000 0.000000 0.000000 
0.000000 0.000000 0.000000 

-0.000000 0.000000 0.000000 
0.000000 -0.000000 0.000000 
0.000000 0.000000 0.000000 

-0.000000 0.000000 0.000000 
0.000000 -0.000000 0.000000 
0.000000 0.000000 0.000000 

-0.000000 0.000000 0.000000 
0.000000 -0.000000 0.000000 
0.000000 0.000000 0.000000 

-0.000000 -0.000000 0.000000 
0.000000 -0.000000 0.000000 
0.000000 0.000000 0.000000 

-0.000000 -0.000000 0.000000 
0.000000 -0.000000 0.000000 
0.000000 0.000000 0.000000 

0.000000 -0.000000 0.000000 
0.000000 0.000000 0.000000 
0.000000 0.000000 0.000000 

-0.000000 -0.000000 0.000000 
0.000000 -0.000000 0.000000 
0.000000 0.000000 0.000000 

0.000000 -0.000000 0.000000 
0.000000 0.000000 0.000000 
0.000000 0.000000 0.000000 

-0.000000 -0.000000 0.000000 
0.000000 -0.000000 0.000000 
0.000000 0.000000 0.000000 

-0.000000 0.000000 0.000000 
0.000000 -0.000000 0.000000 
0.000000 0.000000 0.000000 

0.000000 -0.000000 0.000000 
0.000000 0.000000 0.000000 
0.000000 0.000000 0.000000 

0.000000 -0.000000 0.000000 
0.000000 -0.000000 0.000000 
0.000000 0.000000 0.000000 

0.000000 -0.000000 0.000000 
0.000000 0.000000 0.000000 
0.000000 0.000000 0.000000 

-0.000000 0.000000 0.000000 
0.000000 -0.000000 0.000000 
0.000000 0.000000 0.000000 

-0.000000 0.000000 0.000000 
0.000000 -0.000000 0.000000 
0.000000 0.000000 0.000000 

-0.000000 0.000000 0.000000 
0.000000 -0.000000 0.000000 
0.000000 0.000000 0.000000 

0.000000 0.000000 0.000000 
0.000000 0.000000 0.000000 
0.000000 0.000000 0.000000 

0.000000 -0.000000 0.000000 
0.000000 0.000000 0.000000 
0.000000 0.000000 0.000000 

-0.000000 0.000000 0.000000 
0.000000 -0.000000 0.000000 
0.000000 0.000000 0.000000 

-0.000000 0.000000 0.000000 
0.000000 -0.000000 0.000000 
0.000000 0.000000 0.000000 

-0.000000 -0.000000 0.000000 
0.000000 -0.000000 0.000000 
0.000000 0.000000 0.000000 

0.000000 0.000000 0.000000 
0.000000 0.000000 0.000000 
0.000000 0.000000 0.000000 

0.000000 -0.000000 0.000000 
0.000000 0.000000 0.000000 
0.000000 0.000000 0.000000 

-0.000000 -0.000000 0.000000 
0.000000 -0.000000 0.000000 
0.000000 0.000000 0.000000 

0.000000 -0.000000 0.000000 
0.000000 0.000000 0.000000 
0.000000 0.000000 0.000000 

0.000000 -0.000000 0.000000 
0.000000 0.000000 0.000000 
0.000000 0.000000 0.000000 

0.000000 0.000000 0.000000 
0.000000 0.000000 0.000000 
0.000000 0.000000 0.000000 

0.000000 -0.000000 0.000000 
0.000000 0.000000 0.000000 
0.000000 0.000000 0.000000 

0.000000 -0.000000 0.000000 
0.000000 -0.000000 0.000000 
0.000000 0.000000 0.000000 

0.000000 -0.000000 0.000000 
0.000000 0.000000 0.000000 
0.000000 0.000000 0.000000 

-0.000000 -0.000000 0.000000 
0.000000 -0.000000 0.000000 
0.000000 0.000000 0.000000 

-0.000000 -0.000000 0.000000 
0.000000 -0.000000 0.000000 
0.000000 0.000000 0.000000 

0.000000 -0.000000 0.000000 
0.000000 0.000000 0.000000 
0.000000 0.000000 0.000000 

0.000000 -0.000000 0.000000 
0.000000 0.000000 0.000000 
0.000000 0.000000 0.000000 

0.000000 -0.000000 0.000000 
0.000000 0.000000 0.000000 
0.000000 0.000000 0.000000 

-0.000000 0.000000 0.000000 
0.000000 -0.000000 0.000000 
0.000000 0.000000 0.000000 

0.000000 0.000000 0.000000 
0.000000 0.000000 0.000000 
0.000000 0.000000 0.000000 

0.000000 -0.000000 0.000000 
0.000000 0.000000 0.000000 
0.000000 0.000000 0.000000 

-0.000000 -0.000000 0.000000 
0.000000 -0.000000 0.000000 
0.000000 0.000000 0.000000 

-0.000000 0.000000 0.000000 
0.000000 -0.000000 0.000000 
0.000000 0.000000 0.000000 

0.000000 -0.000000 0.000000 
0.000000 0.000000 0.000000 
0.000000 0.000000 0.000000 

-0.000000 -0.000000 0.000000 
0.000000 -0.000000 0.000000 
0.000000 0.000000 0.000000 

0.000000 -0.000000 0.000000 
0.000000 0.000000 0.000000 
0.000000 0.000000 0.000000 

-0.000000 -0.000000 0.000000 
0.000000 -0.000000 0.000000 
0.000000 0.000000 0.000000 

-0.000000 -0.000000 0.000000 
0.000000 -0.000000 0.000000 
0.000000 0.000000 0.000000 

0.000000 -0.000000 0.000000 
0.000000 0.000000 0.000000 
0.000000 0.000000 0.000000 

0.000000 -0.000000 0.000000 
0.000000 0.000000 0.000000 
0.000000 0.000000 0.000000 

-0.000000 0.000000 0.000000 
0.000000 -0.000000 0.000000 
0.000000 0.000000 0.000000 

-0.000000 0.000000 0.000000 
0.000000 -0.000000 0.000000 
0.000000 0.000000 0.000000 

-0.000000 0.000000 0.000000 
0.000000 -0.000000 0.000000 
0.000000 0.000000 0.000000 

0.000000 0.000000 0.000000 
0.000000 0.000000 0.000000 
0.000000 0.000000 0.000000 

-0.000000 -0.000000 0.000000 
0.000000 -0.000000 0.000000 
0.000000 0.000000 0.000000 

-0.000000 -0.000000 0.000000 
0.000000 -0.000000 0.000000 
0.000000 0.000000 0.000000 

0.000000 0.000000 0.000000 
0.000000 0.000000 0.000000 
0.000000 0.000000 0.000000 

0.000000 0.000000 0.000000 
0.000000 0.000000 0.000000 
0.000000 0.000000 0.000000 

0.000000 0.000000 0.000000 
0.000000 0.000000 0.000000 
0.000000 0.000000 0.000000 

-0.000000 0.000000 0.000000 
0.000000 -0.000000 0.000000 
0.000000 0.000000 0.000000 

0.000000 -0.000000 0.000000 
0.000000 0.000000 0.000000 
0.000000 0.000000 0.000000 

0.000000 -0.000000 0.000000 
0.000000 0.000000 0.000000 
0.000000 0.000000 0.000000 

-0.000000 0.000000 0.000000 
0.000000 -0.000000 0.000000 
0.000000 0.000000 0.000000 

-0.000000 -0.000000 0.000000 
0.000000 -0.000000 0.000000 
0.000000 0.000000 0.000000 

-0.000000 -0.000000 0.000000 
0.000000 -0.000000 0.000000 
0.000000 0.000000 0.000000 

-0.000000 0.000000 0.000000 
0.000000 -0.000000 0.000000 
0.000000 0.000000 0.000000 

-0.000000 -0.000000 0.000000 
0.000000 -0.000000 0.000000 
0.000000 0.000000 0.000000 

0.000000 0.000000 0.000000 
0.000000 0.000000 0.000000 
0.000000 0.000000 0.000000 

0.000000 0.000000 0.000000 
0.000000 -0.000000 0.000000 
0.000000 0.000000 0.000000 

0.000000 0.000000 0.000000 
0.000000 0.000000 0.000000 
0.000000 0.000000 0.000000 

0.000000 0.000000 0.000000 
0.000000 0.000000 0.000000 
0.000000 0.000000 0.000000 

-0.000000 0.000000 0.000000 
0.000000 -0.000000 0.000000 
0.000000 0.000000 0.000000 

-0.000000 -0.000000 0.000000 
0.000000 -0.000000 0.000000 
0.000000 0.000000 0.000000 

-0.000000 0.000000 0.000000 
0.000000 -0.000000 0.000000 
0.000000 0.000000 0.000000 

0.000000 0.000000 0.000000 
0.000000 0.000000 0.000000 
0.000000 0.000000 0.000000 

-0.000000 0.000000 0.000000 
0.000000 -0.000000 0.000000 
0.000000 0.000000 0.000000 

-0.000000 0.000000 0.000000 
0.000000 -0.000000 0.000000 
0.000000 0.000000 0.000000 

0.000000 -0.000000 0.000000 
0.000000 0.000000 0.000000 
0.000000 0.000000 0.000000 

0.000000 -0.000000 0.000000 
0.000000 0.000000 0.000000 
0.000000 0.000000 0.000000 

-0.000000 -0.000000 0.000000 
0.000000 -0.000000 0.000000 
0.000000 0.000000 0.000000 

0.000000 -0.000000 0.000000 
0.000000 0.000000 0.000000 
0.000000 0.000000 0.000000 

-0.000000 -0.000000 0.000000 
0.000000 -0.000000 0.000000 
0.000000 0.000000 0.000000 

-0.000000 0.000000 0.000000 
0.000000 -0.000000 0.000000 
0.000000 0.000000 0.000000 

0.000000 -0.000000 0.000000 
0.000000 0.000000 0.000000 
0.000000 0.000000 0.000000 

0.000000 0.000000 0.000000 
0.000000 0.000000 0.000000 
0.000000 0.000000 0.000000 

0.000000 0.000000 0.000000 
0.000000 0.000000 0.000000 
0.000000 0.000000 0.000000 

-0.000000 0.000000 0.000000 
0.000000 -0.000000 0.000000 
0.000000 0.000000 0.000000 

0.000000 0.000000 0.000000 
0.000000 -0.000000 0.000000 
0.000000 0.000000 0.000000 

-0.000000 0.000000 0.000000 
0.000000 -0.000000 0.000000 
0.000000 0.000000 0.000000 

-0.000000 0.000000 0.000000 
0.000000 -0.000000 0.000000 
0.000000 0.000000 0.000000 

-0.000000 0.000000 0.000000 
0.000000 -0.000000 0.000000 
0.000000 0.000000 0.000000 

0.000000 -0.000000 0.000000 
0.000000 0.000000 0.000000 
0.000000 0.000000 0.000000 

-0.000000 0.000000 0.000000 
0.000000 -0.000000 0.000000 
0.000000 0.000000 0.000000 

-0.000000 0.000000 0.000000 
0.000000 -0.000000 0.000000 
0.000000 0.000000 0.000000 

-0.000000 0.000000 0.000000 
0.000000 -0.000000 0.000000 
0.000000 0.000000 0.000000 

0.000000 -0.000000 0.000000 
0.000000 -0.000000 0.000000 
0.000000 0.000000 0.000000 

0.000000 -0.000000 0.000000 
0.000000 0.000000 0.000000 
0.000000 0.000000 0.000000 

0.000000 0.000000 0.000000 
0.000000 0.000000 0.000000 
0.000000 0.000000 0.000000 

-0.000000 0.000000 0.000000 
0.000000 -0.000000 0.000000 
0.000000 0.000000 0.000000 

0.000000 0.000000 0.000000 
0.000000 0.000000 0.000000 
0.000000 0.000000 0.000000 

0.000000 -0.000000 0.000000 
0.000000 0.000000 0.000000 
0.000000 0.000000 0.000000 

0.000000 -0.000000 0.000000 
0.000000 0.000000 0.000000 
0.000000 0.000000 0.000000 

0.000000 0.000000 0.000000 
0.000000 0.000000 0.000000 
0.000000 0.000000 0.000000 

0.000000 0.000000 0.000000 
0.000000 0.000000 0.000000 
0.000000 0.000000 0.000000 

0.000000 0.000000 0.000000 
0.000000 0.000000 0.000000 
0.000000 0.000000 0.000000 

-0.000000 -0.000000 0.000000 
0.000000 -0.000000 0.000000 
0.000000 0.000000 0.000000 

-0.000000 0.000000 0.000000 
0.000000 -0.000000 0.000000 
0.000000 0.000000 0.000000 

0.000000 0.000000 0.000000 
0.000000 0.000000 0.000000 
0.000000 0.000000 0.000000 

0.000000 -0.000000 0.000000 
0.000000 0.000000 0.000000 
0.000000 0.000000 0.000000 

0.000000 -0.000000 0.000000 
0.000000 0.000000 0.000000 
0.000000 0.000000 0.000000 

0.000000 0.000000 0.000000 
0.000000 0.000000 0.000000 
0.000000 0.000000 0.000000 

-0.000000 0.000000 0.000000 
0.000000 -0.000000 0.000000 
0.000000 0.000000 0.000000 

0.000000 0.000000 0.000000 
0.000000 0.000000 0.000000 
0.000000 0.000000 0.000000 

0.000000 -0.000000 0.000000 
0.000000 -0.000000 0.000000 
0.000000 0.000000 0.000000 

0.000000 0.000000 0.000000 
0.000000 0.000000 0.000000 
0.000000 0.000000 0.000000 

-0.000000 0.000000 0.000000 
0.000000 -0.000000 0.000000 
0.000000 0.000000 0.000000 

TENSORS STRAIN float 
-0.000000 -0.000000 0.000000 
0.000000 -0.000000 0.000000 
0.000000 0.000000 0.000000 

-0.000000 0.000000 0.000000 
0.000000 0.000000 0.000000 
0.000000 0.000000 0.000000 

0.000000 0.000000 0.000000 
0.000000 -0.000000 0.000000 
0.000000 0.000000 0.000000 

0.000000 0.000000 0.000000 
0.000000 -0.000000 0.000000 
0.000000 0.000000 0.000000 

-0.000000 0.000000 0.000000 
0.000000 0.000000 0.000000 
0.000000 0.000000 0.000000 

-0.000000 0.000000 0.000000 
0.000000 0.000000 0.000000 
0.000000 0.000000 0.000000 

-0.000000 0.000000 0.000000 
0.000000 0.000000 0.000000 
0.000000 0.000000 0.000000 

0.000000 -0.000000 0.000000 
0.000000 -0.000000 0.000000 
0.000000 0.000000 0.000000 

0.000000 -0.000000 0.000000 
0.000000 -0.000000 0.000000 
0.000000 0.000000 0.000000 

-0.000000 -0.000000 0.000000 
0.000000 -0.000000 0.000000 
0.000000 0.000000 0.000000 

-0.000000 0.000000 0.000000 
0.000000 -0.000000 0.000000 
0.000000 0.000000 0.000000 

0.000000 -0.000000 0.000000 
0.000000 0.000000 0.000000 
0.000000 0.000000 0.000000 

0.000000 0.000000 0.000000 
0.000000 -0.000000 0.000000 
0.000000 0.000000 0.000000 

0.000000 0.000000 0.000000 
0.000000 0.000000 0.000000 
0.000000 0.000000 0.000000 

0.000000 -0.000000 0.000000 
0.000000 -0.000000 0.000000 
0.000000 0.000000 0.000000 

0.000000 -0.000000 0.000000 
0.000000 -0.000000 0.000000 
0.000000 0.000000 0.000000 

-0.000000 0.000000 0.000000 
0.000000 0.000000 0.000000 
0.000000 0.000000 0.000000 

-0.000000 -0.000000 0.000000 
0.000000 0.000000 0.000000 
0.000000 0.000000 0.000000 

-0.000000 -0.000000 0.000000 
0.000000 0.000000 0.000000 
0.000000 0.000000 0.000000 

-0.000000 0.000000 0.000000 
0.000000 0.000000 0.000000 
0.000000 0.000000 0.000000 

-0.000000 0.000000 0.000000 
0.000000 0.000000 0.000000 
0.000000 0.000000 0.000000 

-0.000000 -0.000000 0.000000 
0.000000 -0.000000 0.000000 
0.000000 0.000000 0.000000 

-0.000000 -0.000000 0.000000 
0.000000 0.000000 0.000000 
0.000000 0.000000 0.000000 

0.000000 -0.000000 0.000000 
0.000000 -0.000000 0.000000 
0.000000 0.000000 0.000000 

0.000000 0.000000 0.000000 
0.000000 -0.000000 0.000000 
0.000000 0.000000 0.000000 

-0.000000 -0.000000 0.000000 
0.000000 0.000000 0.000000 
0.000000 0.000000 0.000000 

-0.000000 0.000000 0.000000 
0.000000 -0.000000 0.000000 
0.000000 0.000000 0.000000 

-0.000000 -0.000000 0.000000 
0.000000 0.000000 0.000000 
0.000000 0.000000 0.000000 

-0.000000 -0.000000 0.000000 
0.000000 -0.000000 0.000000 
0.000000 0.000000 0.000000 

0.000000 0.000000 0.000000 
0.000000 -0.000000 0.000000 
0.000000 0.000000 0.000000 

-0.000000 0.000000 0.000000 
0.000000 0.000000 0.000000 
0.000000 0.000000 0.000000 

0.000000 -0.000000 0.000000 
0.000000 -0.000000 0.000000 
0.000000 0.000000 0.000000 

-0.000000 0.000000 0.000000 
0.000000 0.000000 0.000000 
0.000000 0.000000 0.000000 

-0.000000 0.000000 0.000000 
0.000000 -0.000000 0.000000 
0.000000 0.000000 0.000000 

0.000000 -0.000000 0.000000 
0.000000 -0.000000 0.000000 
0.000000 0.000000 0.000000 

0.000000 0.000000 0.000000 
0.000000 0.000000 0.000000 
0.000000 0.000000 0.000000 

0.000000 0.000000 0.000000 
0.000000 -0.000000 0.000000 
0.000000 0.000000 0.000000 

0.000000 0.000000 0.000000 
0.000000 0.000000 0.000000 
0.000000 0.000000 0.000000 

-0.000000 0.000000 0.000000 
0.000000 0.000000 0.000000 
0.000000 0.000000 0.000000 

0.000000 0.000000 0.000000 
0.000000 0.000000 0.000000 
0.000000 0.000000 0.000000 

0.000000 0.000000 0.000000 
0.000000 0.000000 0.000000 
0.000000 0.000000 0.000000 

0.000000 -0.000000 0.000000 
0.000000 -0.000000 0.000000 
0.000000 0.000000 0.000000 

0.000000 -0.000000 0.000000 
0.000000 -0.000000 0.000000 
0.000000 0.000000 0.000000 

-0.000000 0.000000 0.000000 
0.000000 -0.000000 0.000000 
0.000000 0.000000 0.000000 

-0.000000 0.000000 0.000000 
0.000000 0.000000 0.000000 
0.000000 0.000000 0.000000 

-0.000000 -0.000000 0.000000 
0.000000 -0.000000 0.000000 
0.000000 0.000000 0.000000 

0.000000 0.000000 0.000000 
0.000000 0.000000 0.000000 
0.000000 0.000000 0.000000 

-0.000000 0.000000 0.000000 
0.000000 -0.000000 0.000000 
0.000000 0.000000 0.000000 

0.000000 -0.000000 0.000000 
0.000000 -0.000000 0.000000 
0.000000 0.000000 0.000000 

-0.000000 0.000000 0.000000 
0.000000 0.000000 0.000000 
0.000000 0.000000 0.000000 

-0.000000 -0.000000 0.000000 
0.000000 0.000000 0.000000 
0.000000 0.000000 0.000000 

-0.000000 0.000000 0.000000 
0.000000 0.000000 0.000000 
0.000000 0.000000 0.000000 

-0.000000 0.000000 0.000000 
0.000000 0.000000 0.000000 
0.000000 0.000000 0.000000 

0.000000 -0.000000 0.000000 
0.000000 -0.000000 0.000000 
0.000000 0.000000 0.000000 

-0.000000 -0.000000 0.000000 
0.000000 0.000000 0.000000 
0.000000 0.000000 0.000000 

-0.000000 0.000000 0.000000 
0.000000 0.000000 0.000000 
0.000000 0.000000 0.000000 

-0.000000 0.000000 0.000000 
0.000000 -0.000000 0.000000 
0.000000 0.000000 0.000000 

-0.000000 0.000000 0.000000 
0.000000 0.000000 0.000000 
0.000000 0.000000 0.000000 

0.000000 0.000000 0.000000 
0.000000 -0.000000 0.000000 
0.000000 0.000000 0.000000 

0.000000 -0.000000 0.000000 
0.000000 0.000000 0.000000 
0.000000 0.000000 0.000000 

0.000000 -0.000000 0.000000 
0.000000 0.000000 0.000000 
0.000000 0.000000 0.000000 

-0.000000 -0.000000 0.000000 
0.000000 0.000000 0.000000 
0.000000 0.000000 0.000000 

-0.000000 0.000000 0.000000 
0.000000 0.000000 0.000000 
0.000000 0.000000 0.000000 

-0.000000 0.000000 0.000000 
0.000000 -0.000000 0.000000 
0.000000 0.000000 0.000000 

0.000000 0.000000 0.000000 
0.000000 -0.000000 0.000000 
0.000000 0.000000 0.000000 

0.000000 -0.000000 0.000000 
0.000000 -0.000000 0.000000 
0.000000 0.000000 0.000000 

0.000000 -0.000000 0.000000 
0.000000 -0.000000 0.000000 
0.000000 0.000000 0.000000 

0.000000 -0.000000 0.000000 
0.000000 -0.000000 0.000000 
0.000000 0.000000 0.000000 

0.000000 -0.000000 0.000000 
0.000000 -0.000000 0.000000 
0.000000 0.000000 0.000000 

-0.000000 -0.000000 0.000000 
0.000000 0.000000 0.000000 
0.000000 0.000000 0.000000 

-0.000000 -0.000000 0.000000 
0.000000 -0.000000 0.000000 
0.000000 0.000000 0.000000 

-0.000000 0.000000 0.000000 
0.000000 -0.000000 0.000000 
0.000000 0.000000 0.000000 

0.000000 -0.000000 0.000000 
0.000000 -0.000000 0.000000 
0.000000 0.000000 0.000000 

0.000000 -0.000000 0.000000 
0.000000 -0.000000 0.000000 
0.000000 0.000000 0.000000 

0.000000 -0.000000 0.000000 
0.000000 -0.000000 0.000000 
0.000000 0.000000 0.000000 

-0.000000 0.000000 0.000000 
0.000000 0.000000 0.000000 
0.000000 0.000000 0.000000 

-0.000000 0.000000 0.000000 
0.000000 -0.000000 0.000000 
0.000000 0.000000 0.000000 

-0.000000 0.000000 0.000000 
0.000000 0.000000 0.000000 
0.000000 0.000000 0.000000 

-0.000000 0.000000 0.000000 
0.000000 0.000000 0.000000 
0.000000 0.000000 0.000000 

0.000000 -0.000000 0.000000 
0.000000 -0.000000 0.000000 
0.000000 0.000000 0.000000 

0.000000 0.000000 0.000000 
0.000000 -0.000000 0.000000 
0.000000 0.000000 0.000000 

-0.000000 0.000000 0.000000 
0.000000 -0.000000 0.000000 
0.000000 0.000000 0.000000 

0.000000 -0.000000 0.000000 
0.000000 -0.000000 0.000000 
0.000000 0.000000 0.000000 

0.000000 0.000000 0.000000 
0.000000 0.000000 0.000000 
0.000000 0.000000 0.000000 

0.000000 -0.000000 0.000000 
0.000000 0.000000 0.000000 
0.000000 0.000000 0.000000 

0.000000 -0.000000 0.000000 
0.000000 -0.000000 0.000000 
0.000000 0.000000 0.000000 

-0.000000 -0.000000 0.000000 
0.000000 0.000000 0.000000 
0.000000 0.000000 0.000000 

-0.000000 -0.000000 0.000000 
0.000000 0.000000 0.000000 
0.000000 0.000000 0.000000 

-0.000000 0.000000 0.000000 
0.000000 0.000000 0.000000 
0.000000 0.000000 0.000000 

0.000000 -0.000000 0.000000 
0.000000 -0.000000 0.000000 
0.000000 0.000000 0.000000 

0.000000 -0.000000 0.000000 
0.000000 -0.000000 0.000000 
0.000000 0.000000 0.000000 

-0.000000 -0.000000 0.000000 
0.000000 0.000000 0.000000 
0.000000 0.000000 0.000000 

-0.000000 -0.000000 0.000000 
0.000000 -0.000000 0.000000 
0.000000 0.000000 0.000000 

0.000000 -0.000000 0.000000 
0.000000 -0.000000 0.000000 
0.000000 0.000000 0.000000 

-0.000000 -0.000000 0.000000 
0.000000 0.000000 0.000000 
0.000000 0.000000 0.000000 

-0.000000 -0.000000 0.000000 
0.000000 0.000000 0.000000 
0.000000 0.000000 0.000000 

-0.000000 -0.000000 0.000000 
0.000000 0.000000 0.000000 
0.000000 0.000000 0.000000 

-0.000000 0.000000 0.000000 
0.000000 0.000000 0.000000 
0.000000 0.000000 0.000000 

0.000000 0.000000 0.000000 
0.000000 0.000000 0.000000 
0.000000 0.000000 0.000000 

-0.000000 -0.000000 0.000000 
0.000000 0.000000 0.000000 
0.000000 0.000000 0.000000 

-0.000000 -0.000000 0.000000 
0.000000 0.000000 0.000000 
0.000000 0.000000 0.000000 

-0.000000 0.000000 0.000000 
0.000000 0.000000 0.000000 
0.000000 0.000000 0.000000 

-0.000000 -0.000000 0.000000 
0.000000 0.000000 0.000000 
0.000000 0.000000 0.000000 

-0.000000 -0.000000 0.000000 
0.000000 -0.000000 0.000000 
0.000000 0.000000 0.000000 

0.000000 -0.000000 0.000000 
0.000000 -0.000000 0.000000 
0.000000 0.000000 0.000000 

-0.000000 -0.000000 0.000000 
0.000000 -0.000000 0.000000 
0.000000 0.000000 0.000000 

-0.000000 -0.000000 0.000000 
0.000000 -0.000000 0.000000 
0.000000 0.000000 0.000000 

-0.000000 -0.000000 0.000000 
0.000000 0.000000 0.000000 
0.000000 0.000000 0.000000 

0.000000 -0.000000 0.000000 
0.000000 0.000000 0.000000 
0.000000 0.000000 0.000000 

0.000000 0.000000 0.000000 
0.000000 -0.000000 0.000000 
0.000000 0.000000 0.000000 

0.000000 0.000000 0.000000 
0.000000 -0.000000 0.000000 
0.000000 0.000000 0.000000 

-0.000000 0.000000 0.000000 
0.000000 -0.000000 0.000000 
0.000000 0.000000 0.000000 

-0.000000 0.000000 0.000000 
0.000000 0.000000 0.000000 
0.000000 0.000000 0.000000 

-0.000000 -0.000000 0.000000 
0.000000 0.000000 0.000000 
0.000000 0.000000 0.000000 

0.000000 -0.000000 0.000000 
0.000000 -0.000000 0.000000 
0.000000 0.000000 0.000000 

0.000000 0.000000 0.000000 
0.000000 -0.000000 0.000000 
0.000000 0.000000 0.000000 

0.000000 0.000000 0.000000 
0.000000 -0.000000 0.000000 
0.000000 0.000000 0.000000 

0.000000 0.000000 0.000000 
0.000000 -0.000000 0.000000 
0.000000 0.000000 0.000000 

0.000000 0.000000 0.000000 
0.000000 -0.000000 0.000000 
0.000000 0.000000 0.000000 

-0.000000 -0.000000 0.000000 
0.000000 0.000000 0.000000 
0.000000 0.000000 0.000000 

-0.000000 -0.000000 0.000000 
0.000000 0.000000 0.000000 
0.000000 0.000000 0.000000 

-0.000000 0.000000 0.000000 
0.000000 0.000000 0.000000 
0.000000 0.000000 0.000000 

-0.000000 -0.000000 0.000000 
0.000000 0.000000 0.000000 
0.000000 0.000000 0.000000 

-0.000000 -0.000000 0.000000 
0.000000 0.000000 0.000000 
0.000000 0.000000 0.000000 

-0.000000 0.000000 0.000000 
0.000000 -0.000000 0.000000 
0.000000 0.000000 0.000000 

-0.000000 -0.000000 0.000000 
0.000000 0.000000 0.000000 
0.000000 0.000000 0.000000 

0.000000 0.000000 0.000000 
0.000000 -0.000000 0.000000 
0.000000 0.000000 0.000000 

0.000000 0.000000 0.000000 
0.000000 -0.000000 0.000000 
0.000000 0.000000 0.000000 

0.000000 0.000000 0.000000 
0.000000 -0.000000 0.000000 
0.000000 0.000000 0.000000 

0.000000 0.000000 0.000000 
0.000000 -0.000000 0.000000 
0.000000 0.000000 0.000000 

0.000000 0.000000 0.000000 
0.000000 -0.000000 0.000000 
0.000000 0.000000 0.000000 

-0.000000 -0.000000 0.000000 
0.000000 -0.000000 0.000000 
0.000000 0.000000 0.000000 

0.000000 0.000000 0.000000 
0.000000 -0.000000 0.000000 
0.000000 0.000000 0.000000 

0.000000 0.000000 0.000000 
0.000000 -0.000000 0.000000 
0.000000 0.000000 0.000000 

-0.000000 0.000000 0.000000 
0.000000 0.000000 0.000000 
0.000000 0.000000 0.000000 

-0.000000 0.000000 0.000000 
0.000000 0.000000 0.000000 
0.000000 0.000000 0.000000 

-0.000000 -0.000000 0.000000 
0.000000 0.000000 0.000000 
0.000000 0.000000 0.000000 

-0.000000 -0.000000 0.000000 
0.000000 0.000000 0.000000 
0.000000 0.000000 0.000000 

-0.000000 -0.000000 0.000000 
0.000000 -0.000000 0.000000 
0.000000 0.000000 0.000000 

0.000000 -0.000000 0.000000 
0.000000 -0.000000 0.000000 
0.000000 0.000000 0.000000 

0.000000 -0.000000 0.000000 
0.000000 -0.000000 0.000000 
0.000000 0.000000 0.000000 

-0.000000 0.000000 0.000000 
0.000000 -0.000000 0.000000 
0.000000 0.000000 0.000000 

-0.000000 -0.000000 0.000000 
0.000000 0.000000 0.000000 
0.000000 0.000000 0.000000 

-0.000000 0.000000 0.000000 
0.000000 0.000000 0.000000 
0.000000 0.000000 0.000000 

0.000000 0.000000 0.000000 
0.000000 0.000000 0.000000 
0.000000 0.000000 0.000000 

0.000000 0.000000 0.000000 
0.000000 -0.000000 0.000000 
0.000000 0.000000 0.000000 

0.000000 0.000000 0.000000 
0.000000 -0.000000 0.000000 
0.000000 0.000000 0.000000 

-0.000000 0.000000 0.000000 
0.000000 0.000000 0.000000 
0.000000 0.000000 0.000000 

-0.000000 0.000000 0.000000 
0.000000 0.000000 0.000000 
0.000000 0.000000 0.000000 

0.000000 0.000000 0.000000 
0.000000 -0.000000 0.000000 
0.000000 0.000000 0.000000 

-0.000000 -0.000000 0.000000 
0.000000 0.000000 0.000000 
0.000000 0.000000 0.000000 

0.000000 0.000000 0.000000 
0.000000 -0.0