# vtk DataFile Version 3.0 
vtk output 
ASCII 
DATASET UNSTRUCTURED_GRID 
POINTS 175 float 
-0.026053 -2.403932 0.000000 
-0.106980 -2.335852 0.000000 
-0.054859 -2.344092 0.000000 
-0.028806 -2.298195 0.000000 
-0.186427 -2.271755 0.000000 
-0.137051 -2.274285 0.000000 
-0.114308 -2.220637 0.000000 
-0.058183 -2.236305 0.000000 
-0.029376 -2.196126 0.000000 
-0.265318 -2.208596 0.000000 
-0.217197 -2.209397 0.000000 
-0.196633 -2.152103 0.000000 
-0.143119 -2.160812 0.000000 
-0.116563 -2.113544 0.000000 
-0.058945 -2.133190 0.000000 
-0.029568 -2.095070 0.000000 
-0.344208 -2.145441 0.000000 
-0.296792 -2.145435 0.000000 
-0.278031 -2.085493 0.000000 
-0.225992 -2.091360 0.000000 
-0.201664 -2.039244 0.000000 
-0.145749 -2.052718 0.000000 
-0.117890 -2.008375 0.000000 
-0.059328 -2.031081 0.000000 
-0.029760 -1.994016 0.000000 
-0.058546 -2.444697 0.000000 
-0.162213 -2.465508 0.000000 
-0.123273 -2.429900 0.000000 
-0.142902 -2.380902 0.000000 
-0.261844 -2.487603 0.000000 
-0.229077 -2.450606 0.000000 
-0.256849 -2.399375 0.000000 
-0.209604 -2.365272 0.000000 
-0.223057 -2.317692 0.000000 
-0.360480 -2.509833 0.000000 
-0.329813 -2.472756 0.000000 
-0.361774 -2.420977 0.000000 
-0.321591 -2.384585 0.000000 
-0.341990 -2.334352 0.000000 
-0.290702 -2.301562 0.000000 
-0.302190 -2.254828 0.000000 
-0.459139 -2.532100 0.000000 
-0.429521 -2.495056 0.000000 
-0.464653 -2.443052 0.000000 
-0.427584 -2.406049 0.000000 
-0.453161 -2.354542 0.000000 
-0.407750 -2.319240 0.000000 
-0.425046 -2.269820 0.000000 
-0.370776 -2.238196 0.000000 
-0.381319 -2.191971 0.000000 
-0.046964 -2.495551 0.000000 
-0.095334 -2.589679 0.000000 
-0.098888 -2.536957 0.000000 
-0.149398 -2.521701 0.000000 
-0.140132 -2.681354 0.000000 
-0.148633 -2.632594 0.000000 
-0.205982 -2.622158 0.000000 
-0.203167 -2.564048 0.000000 
-0.248755 -2.544864 0.000000 
-0.185430 -2.771441 0.000000 
-0.194324 -2.724828 0.000000 
-0.254858 -2.717312 0.000000 
-0.258082 -2.663345 0.000000 
-0.310229 -2.647973 0.000000 
-0.303642 -2.587585 0.000000 
-0.347355 -2.567441 0.000000 
-0.232803 -2.860660 0.000000 
-0.241839 -2.815316 0.000000 
-0.304199 -2.810963 0.000000 
-0.308699 -2.759248 0.000000 
-0.364866 -2.747265 0.000000 
-0.363482 -2.689817 0.000000 
-0.412886 -2.672586 0.000000 
-0.403399 -2.610570 0.000000 
-0.446021 -2.590055 0.000000 
-0.000000 -2.518183 0.000000 
0.043403 -2.614807 0.000000 
-0.000000 -2.584668 0.000000 
-0.043403 -2.614807 0.000000 
0.087149 -2.707200 0.000000 
0.043764 -2.683501 0.000000 
-0.000000 -2.722011 0.000000 
-0.043764 -2.683501 0.000000 
-0.087149 -2.707200 0.000000 
0.132223 -2.797170 0.000000 
0.088426 -2.776130 0.000000 
0.045023 -2.818465 0.000000 
-0.000000 -2.787722 0.000000 
-0.045023 -2.818465 0.000000 
-0.088426 -2.776130 0.000000 
-0.132223 -2.797170 0.000000 
0.178611 -2.884048 0.000000 
0.134558 -2.866343 0.000000 
0.091232 -2.903752 0.000000 
0.045552 -2.882338 0.000000 
-0.000000 -2.909928 0.000000 
-0.045552 -2.882338 0.000000 
-0.091232 -2.903752 0.000000 
-0.134558 -2.866343 0.000000 
-0.178611 -2.884048 0.000000 
0.046964 -2.495551 0.000000 
0.149398 -2.521701 0.000000 
0.098888 -2.536957 0.000000 
0.095334 -2.589679 0.000000 
0.248755 -2.544864 0.000000 
0.203167 -2.564048 0.000000 
0.205982 -2.622158 0.000000 
0.148633 -2.632594 0.000000 
0.140132 -2.681354 0.000000 
0.347355 -2.567441 0.000000 
0.303642 -2.587585 0.000000 
0.310229 -2.647973 0.000000 
0.258082 -2.663345 0.000000 
0.254858 -2.717312 0.000000 
0.194324 -2.724828 0.000000 
0.185430 -2.771441 0.000000 
0.446021 -2.590055 0.000000 
0.403399 -2.610570 0.000000 
0.412886 -2.672586 0.000000 
0.363482 -2.689817 0.000000 
0.364866 -2.747265 0.000000 
0.308699 -2.759248 0.000000 
0.304199 -2.810963 0.000000 
0.241839 -2.815316 0.000000 
0.232803 -2.860660 0.000000 
0.058546 -2.444697 0.000000 
0.142902 -2.380902 0.000000 
0.123273 -2.429900 0.000000 
0.162213 -2.465508 0.000000 
0.223057 -2.317692 0.000000 
0.209604 -2.365272 0.000000 
0.256849 -2.399375 0.000000 
0.229077 -2.450606 0.000000 
0.261844 -2.487603 0.000000 
0.302190 -2.254828 0.000000 
0.290702 -2.301562 0.000000 
0.341990 -2.334352 0.000000 
0.321591 -2.384585 0.000000 
0.361774 -2.420977 0.000000 
0.329813 -2.472756 0.000000 
0.360480 -2.509833 0.000000 
0.381319 -2.191971 0.000000 
0.370776 -2.238196 0.000000 
0.425046 -2.269820 0.000000 
0.407750 -2.319240 0.000000 
0.453161 -2.354542 0.000000 
0.427584 -2.406049 0.000000 
0.464653 -2.443052 0.000000 
0.429521 -2.495056 0.000000 
0.459139 -2.532100 0.000000 
0.026053 -2.403932 0.000000 
0.028806 -2.298195 0.000000 
0.054859 -2.344092 0.000000 
0.106980 -2.335852 0.000000 
0.029376 -2.196126 0.000000 
0.058183 -2.236305 0.000000 
0.114308 -2.220637 0.000000 
0.137051 -2.274285 0.000000 
0.186427 -2.271755 0.000000 
0.029568 -2.095070 0.000000 
0.058945 -2.133190 0.000000 
0.116563 -2.113544 0.000000 
0.143119 -2.160812 0.000000 
0.196633 -2.152103 0.000000 
0.217197 -2.209397 0.000000 
0.265318 -2.208596 0.000000 
0.029760 -1.994016 0.000000 
0.059328 -2.031081 0.000000 
0.117890 -2.008375 0.000000 
0.145749 -2.052718 0.000000 
0.201664 -2.039244 0.000000 
0.225992 -2.091360 0.000000 
0.278031 -2.085493 0.000000 
0.296792 -2.145435 0.000000 
0.344208 -2.145441 0.000000 
CELLS 175 350 
1 0 
1 1 
1 2 
1 3 
1 4 
1 5 
1 6 
1 7 
1 8 
1 9 
1 10 
1 11 
1 12 
1 13 
1 14 
1 15 
1 16 
1 17 
1 18 
1 19 
1 20 
1 21 
1 22 
1 23 
1 24 
1 25 
1 26 
1 27 
1 28 
1 29 
1 30 
1 31 
1 32 
1 33 
1 34 
1 35 
1 36 
1 37 
1 38 
1 39 
1 40 
1 41 
1 42 
1 43 
1 44 
1 45 
1 46 
1 47 
1 48 
1 49 
1 50 
1 51 
1 52 
1 53 
1 54 
1 55 
1 56 
1 57 
1 58 
1 59 
1 60 
1 61 
1 62 
1 63 
1 64 
1 65 
1 66 
1 67 
1 68 
1 69 
1 70 
1 71 
1 72 
1 73 
1 74 
1 75 
1 76 
1 77 
1 78 
1 79 
1 80 
1 81 
1 82 
1 83 
1 84 
1 85 
1 86 
1 87 
1 88 
1 89 
1 90 
1 91 
1 92 
1 93 
1 94 
1 95 
1 96 
1 97 
1 98 
1 99 
1 100 
1 101 
1 102 
1 103 
1 104 
1 105 
1 106 
1 107 
1 108 
1 109 
1 110 
1 111 
1 112 
1 113 
1 114 
1 115 
1 116 
1 117 
1 118 
1 119 
1 120 
1 121 
1 122 
1 123 
1 124 
1 125 
1 126 
1 127 
1 128 
1 129 
1 130 
1 131 
1 132 
1 133 
1 134 
1 135 
1 136 
1 137 
1 138 
1 139 
1 140 
1 141 
1 142 
1 143 
1 144 
1 145 
1 146 
1 147 
1 148 
1 149 
1 150 
1 151 
1 152 
1 153 
1 154 
1 155 
1 156 
1 157 
1 158 
1 159 
1 160 
1 161 
1 162 
1 163 
1 164 
1 165 
1 166 
1 167 
1 168 
1 169 
1 170 
1 171 
1 172 
1 173 
1 174 
CELL_TYPES 175 
1 
1 
1 
1 
1 
1 
1 
1 
1 
1 
1 
1 
1 
1 
1 
1 
1 
1 
1 
1 
1 
1 
1 
1 
1 
1 
1 
1 
1 
1 
1 
1 
1 
1 
1 
1 
1 
1 
1 
1 
1 
1 
1 
1 
1 
1 
1 
1 
1 
1 
1 
1 
1 
1 
1 
1 
1 
1 
1 
1 
1 
1 
1 
1 
1 
1 
1 
1 
1 
1 
1 
1 
1 
1 
1 
1 
1 
1 
1 
1 
1 
1 
1 
1 
1 
1 
1 
1 
1 
1 
1 
1 
1 
1 
1 
1 
1 
1 
1 
1 
1 
1 
1 
1 
1 
1 
1 
1 
1 
1 
1 
1 
1 
1 
1 
1 
1 
1 
1 
1 
1 
1 
1 
1 
1 
1 
1 
1 
1 
1 
1 
1 
1 
1 
1 
1 
1 
1 
1 
1 
1 
1 
1 
1 
1 
1 
1 
1 
1 
1 
1 
1 
1 
1 
1 
1 
1 
1 
1 
1 
1 
1 
1 
1 
1 
1 
1 
1 
1 
1 
1 
1 
1 
1 
1 
POINT_DATA 175 
VECTORS X_GC float 
-0.026053 -2.403932 0.000000 
-0.106980 -2.335852 0.000000 
-0.054859 -2.344092 0.000000 
-0.028806 -2.298195 0.000000 
-0.186427 -2.271755 0.000000 
-0.137051 -2.274285 0.000000 
-0.114308 -2.220637 0.000000 
-0.058183 -2.236305 0.000000 
-0.029376 -2.196126 0.000000 
-0.265318 -2.208596 0.000000 
-0.217197 -2.209397 0.000000 
-0.196633 -2.152103 0.000000 
-0.143119 -2.160812 0.000000 
-0.116563 -2.113544 0.000000 
-0.058945 -2.133190 0.000000 
-0.029568 -2.095070 0.000000 
-0.344208 -2.145441 0.000000 
-0.296792 -2.145435 0.000000 
-0.278031 -2.085493 0.000000 
-0.225992 -2.091360 0.000000 
-0.201664 -2.039244 0.000000 
-0.145749 -2.052718 0.000000 
-0.117890 -2.008375 0.000000 
-0.059328 -2.031081 0.000000 
-0.029760 -1.994016 0.000000 
-0.058546 -2.444697 0.000000 
-0.162213 -2.465508 0.000000 
-0.123273 -2.429900 0.000000 
-0.142902 -2.380902 0.000000 
-0.261844 -2.487603 0.000000 
-0.229077 -2.450606 0.000000 
-0.256849 -2.399375 0.000000 
-0.209604 -2.365272 0.000000 
-0.223057 -2.317692 0.000000 
-0.360480 -2.509833 0.000000 
-0.329813 -2.472756 0.000000 
-0.361774 -2.420977 0.000000 
-0.321591 -2.384585 0.000000 
-0.341990 -2.334352 0.000000 
-0.290702 -2.301562 0.000000 
-0.302190 -2.254828 0.000000 
-0.459139 -2.532100 0.000000 
-0.429521 -2.495056 0.000000 
-0.464653 -2.443052 0.000000 
-0.427584 -2.406049 0.000000 
-0.453161 -2.354542 0.000000 
-0.407750 -2.319240 0.000000 
-0.425046 -2.269820 0.000000 
-0.370776 -2.238196 0.000000 
-0.381319 -2.191971 0.000000 
-0.046964 -2.495551 0.000000 
-0.095334 -2.589679 0.000000 
-0.098888 -2.536957 0.000000 
-0.149398 -2.521701 0.000000 
-0.140132 -2.681354 0.000000 
-0.148633 -2.632594 0.000000 
-0.205982 -2.622158 0.000000 
-0.203167 -2.564048 0.000000 
-0.248755 -2.544864 0.000000 
-0.185430 -2.771441 0.000000 
-0.194324 -2.724828 0.000000 
-0.254858 -2.717312 0.000000 
-0.258082 -2.663345 0.000000 
-0.310229 -2.647973 0.000000 
-0.303642 -2.587585 0.000000 
-0.347355 -2.567441 0.000000 
-0.232803 -2.860660 0.000000 
-0.241839 -2.815316 0.000000 
-0.304199 -2.810963 0.000000 
-0.308699 -2.759248 0.000000 
-0.364866 -2.747265 0.000000 
-0.363482 -2.689817 0.000000 
-0.412886 -2.672586 0.000000 
-0.403399 -2.610570 0.000000 
-0.446021 -2.590055 0.000000 
-0.000000 -2.518183 0.000000 
0.043403 -2.614807 0.000000 
-0.000000 -2.584668 0.000000 
-0.043403 -2.614807 0.000000 
0.087149 -2.707200 0.000000 
0.043764 -2.683501 0.000000 
-0.000000 -2.722011 0.000000 
-0.043764 -2.683501 0.000000 
-0.087149 -2.707200 0.000000 
0.132223 -2.797170 0.000000 
0.088426 -2.776130 0.000000 
0.045023 -2.818465 0.000000 
-0.000000 -2.787722 0.000000 
-0.045023 -2.818465 0.000000 
-0.088426 -2.776130 0.000000 
-0.132223 -2.797170 0.000000 
0.178611 -2.884048 0.000000 
0.134558 -2.866343 0.000000 
0.091232 -2.903752 0.000000 
0.045552 -2.882338 0.000000 
-0.000000 -2.909928 0.000000 
-0.045552 -2.882338 0.000000 
-0.091232 -2.903752 0.000000 
-0.134558 -2.866343 0.000000 
-0.178611 -2.884048 0.000000 
0.046964 -2.495551 0.000000 
0.149398 -2.521701 0.000000 
0.098888 -2.536957 0.000000 
0.095334 -2.589679 0.000000 
0.248755 -2.544864 0.000000 
0.203167 -2.564048 0.000000 
0.205982 -2.622158 0.000000 
0.148633 -2.632594 0.000000 
0.140132 -2.681354 0.000000 
0.347355 -2.567441 0.000000 
0.303642 -2.587585 0.000000 
0.310229 -2.647973 0.000000 
0.258082 -2.663345 0.000000 
0.254858 -2.717312 0.000000 
0.194324 -2.724828 0.000000 
0.185430 -2.771441 0.000000 
0.446021 -2.590055 0.000000 
0.403399 -2.610570 0.000000 
0.412886 -2.672586 0.000000 
0.363482 -2.689817 0.000000 
0.364866 -2.747265 0.000000 
0.308699 -2.759248 0.000000 
0.304199 -2.810963 0.000000 
0.241839 -2.815316 0.000000 
0.232803 -2.860660 0.000000 
0.058546 -2.444697 0.000000 
0.142902 -2.380902 0.000000 
0.123273 -2.429900 0.000000 
0.162213 -2.465508 0.000000 
0.223057 -2.317692 0.000000 
0.209604 -2.365272 0.000000 
0.256849 -2.399375 0.000000 
0.229077 -2.450606 0.000000 
0.261844 -2.487603 0.000000 
0.302190 -2.254828 0.000000 
0.290702 -2.301562 0.000000 
0.341990 -2.334352 0.000000 
0.321591 -2.384585 0.000000 
0.361774 -2.420977 0.000000 
0.329813 -2.472756 0.000000 
0.360480 -2.509833 0.000000 
0.381319 -2.191971 0.000000 
0.370776 -2.238196 0.000000 
0.425046 -2.269820 0.000000 
0.407750 -2.319240 0.000000 
0.453161 -2.354542 0.000000 
0.427584 -2.406049 0.000000 
0.464653 -2.443052 0.000000 
0.429521 -2.495056 0.000000 
0.459139 -2.532100 0.000000 
0.026053 -2.403932 0.000000 
0.028806 -2.298195 0.000000 
0.054859 -2.344092 0.000000 
0.106980 -2.335852 0.000000 
0.029376 -2.196126 0.000000 
0.058183 -2.236305 0.000000 
0.114308 -2.220637 0.000000 
0.137051 -2.274285 0.000000 
0.186427 -2.271755 0.000000 
0.029568 -2.095070 0.000000 
0.058945 -2.133190 0.000000 
0.116563 -2.113544 0.000000 
0.143119 -2.160812 0.000000 
0.196633 -2.152103 0.000000 
0.217197 -2.209397 0.000000 
0.265318 -2.208596 0.000000 
0.029760 -1.994016 0.000000 
0.059328 -2.031081 0.000000 
0.117890 -2.008375 0.000000 
0.145749 -2.052718 0.000000 
0.201664 -2.039244 0.000000 
0.225992 -2.091360 0.000000 
0.278031 -2.085493 0.000000 
0.296792 -2.145435 0.000000 
0.344208 -2.145441 0.000000 
VECTORS X_EC float 
0.338688 0.953077 0.000000 
-0.609266 0.034001 0.000000 
0.713168 0.145241 0.000000 
0.374474 -0.474366 0.000000 
0.423547 -0.831310 0.000000 
-0.218331 -0.797154 0.000000 
-0.513996 0.478596 0.000000 
0.756384 0.690111 0.000000 
0.381889 0.147702 0.000000 
-0.550867 0.316047 0.000000 
0.823560 0.326866 0.000000 
0.556228 -0.446616 0.000000 
-0.139454 -0.329033 0.000000 
-0.484676 -0.967160 0.000000 
0.766283 -0.701936 0.000000 
0.384387 0.783439 0.000000 
0.474705 -0.536551 0.000000 
-0.141700 -0.536632 0.000000 
-0.385597 0.654159 0.000000 
0.937898 0.733364 0.000000 
0.621635 0.029790 0.000000 
-0.105262 0.211692 0.000000 
-0.467426 -0.386931 0.000000 
0.771261 -0.080401 0.000000 
0.386874 -0.580790 0.000000 
0.761103 -0.496593 0.000000 
0.108765 -0.215639 0.000000 
-0.397447 -0.696355 0.000000 
-0.142280 0.642179 0.000000 
-0.596023 0.082634 0.000000 
0.977996 -0.416813 0.000000 
-0.660967 0.891563 0.000000 
0.724852 0.431166 0.000000 
0.899742 -0.211163 0.000000 
0.686246 0.382749 0.000000 
0.287573 -0.117792 0.000000 
0.703056 -0.816806 0.000000 
0.180685 0.691897 0.000000 
0.445876 0.013755 0.000000 
-0.220876 -0.428910 0.000000 
-0.071527 0.940172 0.000000 
-0.031196 0.683354 0.000000 
-0.416227 0.183256 0.000000 
0.040485 -0.518795 0.000000 
-0.441407 0.981661 0.000000 
-0.108905 0.286316 0.000000 
-0.699251 -0.190259 0.000000 
-0.474404 -0.857434 0.000000 
0.820086 0.715650 0.000000 
0.957150 0.091608 0.000000 
0.610533 0.189933 0.000000 
-0.760662 -0.539337 0.000000 
-0.714461 0.748924 0.000000 
-0.057823 0.542969 0.000000 
-0.178290 0.698281 0.000000 
-0.067766 0.040022 0.000000 
0.677768 -0.100863 0.000000 
0.641168 -0.885358 0.000000 
-0.766182 0.855658 0.000000 
0.410594 -0.085541 0.000000 
0.526207 -0.714824 0.000000 
-0.686847 -0.816290 0.000000 
-0.644938 0.455157 0.000000 
0.032973 0.247640 0.000000 
-0.052658 -0.567600 0.000000 
0.515620 -0.839541 0.000000 
-0.973558 -0.881090 0.000000 
-0.856091 0.506773 0.000000 
-0.045410 0.447996 0.000000 
0.013088 -0.250156 0.000000 
0.743264 -0.411918 0.000000 
0.725267 0.812535 0.000000 
-0.632484 0.579906 0.000000 
-0.755807 -0.257299 0.000000 
-0.201733 -0.534257 0.000000 
0.000000 0.495471 0.000000 
-0.564237 -0.200099 0.000000 
0.000000 -0.606989 0.000000 
0.564237 -0.200099 0.000000 
0.867063 -0.952798 0.000000 
-0.568933 0.727263 0.000000 
0.000000 -0.752856 0.000000 
0.568933 0.727263 0.000000 
-0.867063 -0.952798 0.000000 
0.281100 0.261797 0.000000 
0.850465 -0.022249 0.000000 
-0.585300 0.549275 0.000000 
0.000000 0.134249 0.000000 
0.585300 0.549275 0.000000 
-0.850465 -0.022249 0.000000 
-0.281100 0.261797 0.000000 
-0.321939 -0.565350 0.000000 
0.250741 -0.804364 0.000000 
0.813981 -0.299349 0.000000 
-0.592172 -0.588436 0.000000 
0.000000 -0.215978 0.000000 
0.592172 -0.588436 0.000000 
-0.813981 -0.299349 0.000000 
-0.250741 -0.804364 0.000000 
0.321939 -0.565350 0.000000 
-0.610533 0.189933 0.000000 
0.057823 0.542969 0.000000 
0.714461 0.748924 0.000000 
0.760662 -0.539337 0.000000 
0.766182 0.855658 0.000000 
-0.641168 -0.885358 0.000000 
-0.677768 -0.100863 0.000000 
0.067766 0.040022 0.000000 
0.178290 0.698281 0.000000 
-0.515620 -0.839541 0.000000 
0.052658 -0.567600 0.000000 
-0.032973 0.247640 0.000000 
0.644938 0.455157 0.000000 
0.686847 -0.816290 0.000000 
-0.526207 -0.714824 0.000000 
-0.410594 -0.085541 0.000000 
0.201733 -0.534257 0.000000 
0.755807 -0.257299 0.000000 
0.632484 0.579906 0.000000 
-0.725267 0.812535 0.000000 
-0.743264 -0.411918 0.000000 
-0.013088 -0.250156 0.000000 
0.045410 0.447996 0.000000 
0.856091 0.506773 0.000000 
0.973558 -0.881090 0.000000 
-0.761103 -0.496593 0.000000 
0.142280 0.642179 0.000000 
0.397447 -0.696355 0.000000 
-0.108765 -0.215639 0.000000 
-0.899742 -0.211163 0.000000 
-0.724852 0.431166 0.000000 
0.660967 0.891563 0.000000 
-0.977996 -0.416813 0.000000 
0.596023 0.082634 0.000000 
0.071527 0.940172 0.000000 
0.220876 -0.428910 0.000000 
-0.445876 0.013755 0.000000 
-0.180685 0.691897 0.000000 
-0.703056 -0.816806 0.000000 
-0.287573 -0.117792 0.000000 
-0.686246 0.382749 0.000000 
-0.957150 0.091609 0.000000 
-0.820086 0.715650 0.000000 
0.474404 -0.857434 0.000000 
0.699251 -0.190259 0.000000 
0.108905 0.286316 0.000000 
0.441407 0.981661 0.000000 
-0.040485 -0.518794 0.000000 
0.416227 0.183256 0.000000 
0.031196 0.683354 0.000000 
-0.338688 0.953077 0.000000 
-0.374474 -0.474366 0.000000 
-0.713168 0.145241 0.000000 
0.609266 0.034001 0.000000 
-0.381889 0.147702 0.000000 
-0.756385 0.690111 0.000000 
0.513996 0.478596 0.000000 
0.218331 -0.797154 0.000000 
-0.423547 -0.831310 0.000000 
-0.384387 0.783439 0.000000 
-0.766283 -0.701936 0.000000 
0.484676 -0.967160 0.000000 
0.139454 -0.329033 0.000000 
-0.556228 -0.446616 0.000000 
-0.823560 0.326866 0.000000 
0.550867 0.316047 0.000000 
-0.386874 -0.580790 0.000000 
-0.771261 -0.080401 0.000000 
0.467426 -0.386931 0.000000 
0.105262 0.211692 0.000000 
-0.621635 0.029790 0.000000 
-0.937898 0.733364 0.000000 
0.385597 0.654159 0.000000 
0.141700 -0.536632 0.000000 
-0.474705 -0.536551 0.000000 
CELL_DATA 175 
SCALARS MASS float 
LOOKUP_TABLE default 
0.781831 
0.864274 
0.946717 
0.864274 
0.881307 
0.921110 
0.858535 
0.921110 
0.881307 
0.887046 
0.910001 
0.869829 
0.915556 
0.869829 
0.910001 
0.887046 
0.892784 
0.915740 
0.892784 
0.927218 
0.892784 
0.927218 
0.892784 
0.915740 
0.892784 
0.781831 
0.864274 
0.946717 
0.864274 
0.881307 
0.921110 
0.858535 
0.921110 
0.881307 
0.887046 
0.910001 
0.869829 
0.915556 
0.869829 
0.910001 
0.887046 
0.892784 
0.915740 
0.892784 
0.927218 
0.892784 
0.927218 
0.892784 
0.915740 
0.892784 
0.781831 
0.864274 
0.946717 
0.864274 
0.881307 
0.921110 
0.858535 
0.921110 
0.881307 
0.887046 
0.910001 
0.869829 
0.915556 
0.869829 
0.910001 
0.887046 
0.892784 
0.915740 
0.892784 
0.927218 
0.892784 
0.927218 
0.892784 
0.915740 
0.892784 
0.781831 
0.864274 
0.946717 
0.864274 
0.881307 
0.921110 
0.858535 
0.921110 
0.881307 
0.887046 
0.910001 
0.869829 
0.915556 
0.869829 
0.910001 
0.887046 
0.892784 
0.915740 
0.892784 
0.927218 
0.892784 
0.927218 
0.892784 
0.915740 
0.892784 
0.781831 
0.864274 
0.946717 
0.864274 
0.881307 
0.921110 
0.858535 
0.921110 
0.881307 
0.887046 
0.910001 
0.869829 
0.915556 
0.869829 
0.910001 
0.887046 
0.892784 
0.915740 
0.892784 
0.927218 
0.892784 
0.927218 
0.892784 
0.915740 
0.892784 
0.781831 
0.864274 
0.946717 
0.864274 
0.881307 
0.921110 
0.858535 
0.921110 
0.881307 
0.887046 
0.910001 
0.869829 
0.915556 
0.869829 
0.910001 
0.887046 
0.892784 
0.915740 
0.892784 
0.927218 
0.892784 
0.927218 
0.892784 
0.915740 
0.892784 
0.781831 
0.864274 
0.946717 
0.864274 
0.881307 
0.921110 
0.858535 
0.921110 
0.881307 
0.887046 
0.910001 
0.869829 
0.915556 
0.869829 
0.910001 
0.887046 
0.892784 
0.915740 
0.892784 
0.927218 
0.892784 
0.927218 
0.892784 
0.915740 
0.892784 
SCALARS MASS float 
LOOKUP_TABLE default 
0.781831 
0.864274 
0.946717 
0.864274 
0.881307 
0.921110 
0.858535 
0.921110 
0.881307 
0.887046 
0.910001 
0.869829 
0.915556 
0.869829 
0.910001 
0.887046 
0.892784 
0.915740 
0.892784 
0.927218 
0.892784 
0.927218 
0.892784 
0.915740 
0.892784 
0.781831 
0.864274 
0.946717 
0.864274 
0.881307 
0.921110 
0.858535 
0.921110 
0.881307 
0.887046 
0.910001 
0.869829 
0.915556 
0.869829 
0.910001 
0.887046 
0.892784 
0.915740 
0.892784 
0.927218 
0.892784 
0.927218 
0.892784 
0.915740 
0.892784 
0.781831 
0.864274 
0.946717 
0.864274 
0.881307 
0.921110 
0.858535 
0.921110 
0.881307 
0.887046 
0.910001 
0.869829 
0.915556 
0.869829 
0.910001 
0.887046 
0.892784 
0.915740 
0.892784 
0.927218 
0.892784 
0.927218 
0.892784 
0.915740 
0.892784 
0.781831 
0.864274 
0.946717 
0.864274 
0.881307 
0.921110 
0.858535 
0.921110 
0.881307 
0.887046 
0.910001 
0.869829 
0.915556 
0.869829 
0.910001 
0.887046 
0.892784 
0.915740 
0.892784 
0.927218 
0.892784 
0.927218 
0.892784 
0.915740 
0.892784 
0.781831 
0.864274 
0.946717 
0.864274 
0.881307 
0.921110 
0.858535 
0.921110 
0.881307 
0.887046 
0.910001 
0.869829 
0.915556 
0.869829 
0.910001 
0.887046 
0.892784 
0.915740 
0.892784 
0.927218 
0.892784 
0.927218 
0.892784 
0.915740 
0.892784 
0.781831 
0.864274 
0.946717 
0.864274 
0.881307 
0.921110 
0.858535 
0.921110 
0.881307 
0.887046 
0.910001 
0.869829 
0.915556 
0.869829 
0.910001 
0.887046 
0.892784 
0.915740 
0.892784 
0.927218 
0.892784 
0.927218 
0.892784 
0.915740 
0.892784 
0.781831 
0.864274 
0.946717 
0.864274 
0.881307 
0.921110 
0.858535 
0.921110 
0.881307 
0.887046 
0.910001 
0.869829 
0.915556 
0.869829 
0.910001 
0.887046 
0.892784 
0.915740 
0.892784 
0.927218 
0.892784 
0.927218 
0.892784 
0.915740 
0.892784 
SCALARS DENSITY float 
LOOKUP_TABLE default 
200.170701 
200.061994 
200.207936 
200.032632 
199.873037 
199.784125 
199.941823 
200.021658 
199.990395 
200.026590 
200.030223 
200.028393 
199.981842 
200.019244 
199.985119 
200.021278 
200.078542 
200.061948 
200.017198 
200.022877 
200.023970 
200.022325 
200.022250 
200.021487 
200.012454 
197.903699 
199.543949 
200.011153 
200.079645 
200.077458 
201.402889 
199.937584 
200.101617 
200.098613 
200.295150 
200.934595 
200.335561 
200.067759 
200.170456 
200.037296 
200.019355 
201.533705 
201.719677 
201.039655 
199.997395 
200.119411 
200.180096 
200.031964 
200.055327 
200.081896 
195.991046 
194.084047 
198.180407 
199.630664 
197.000726 
201.955025 
202.664232 
202.186615 
198.646554 
200.886855 
199.490537 
199.611293 
198.037964 
198.006734 
199.039062 
199.589297 
239.631841 
282.824081 
250.331772 
224.413112 
199.004217 
197.243750 
207.395978 
204.458582 
203.862372 
195.853597 
204.696914 
191.586752 
204.696914 
194.942625 
207.785627 
215.003764 
207.785627 
194.942625 
171.158636 
162.051636 
149.969126 
164.022425 
149.969126 
162.051637 
171.158637 
4332.616601 
274.200527 
11068631.488617 
2207.321639 
342893482.042365 
2207.321644 
11068631.338821 
274.200528 
4332.616599 
195.991046 
199.630664 
198.180407 
194.084047 
198.646554 
202.186615 
202.664232 
201.955025 
197.000726 
199.589297 
199.039062 
198.006734 
198.037964 
199.611293 
199.490537 
200.886855 
203.862372 
204.458582 
207.395978 
197.243750 
199.004217 
224.413113 
250.331773 
282.824081 
239.631841 
197.903699 
200.079645 
200.011153 
199.543949 
200.098613 
200.101617 
199.937584 
201.402889 
200.077458 
200.019355 
200.037296 
200.170456 
200.067759 
200.335561 
200.934595 
200.295150 
200.081896 
200.055327 
200.031964 
200.180096 
200.119411 
199.997395 
201.039655 
201.719677 
201.533705 
200.170701 
200.032632 
200.207936 
200.061994 
199.990395 
200.021658 
199.941823 
199.784125 
199.873037 
200.021278 
199.985119 
200.019244 
199.981842 
200.028393 
200.030223 
200.026590 
200.012454 
200.021487 
200.022250 
200.022325 
200.023970 
200.022877 
200.017198 
200.061948 
200.078542 
SCALARS ELEM_i float 
LOOKUP_TABLE default 
166 
193 
166 
166 
193 
193 
194 
167 
167 
221 
194 
194 
194 
194 
167 
168 
221 
221 
222 
195 
195 
195 
195 
168 
168 
165 
192 
192 
193 
219 
192 
220 
193 
193 
219 
219 
219 
220 
220 
220 
221 
246 
246 
246 
247 
247 
247 
247 
221 
221 
165 
191 
192 
192 
191 
191 
191 
191 
219 
190 
190 
217 
218 
218 
218 
218 
216 
217 
217 
217 
217 
218 
245 
245 
245 
165 
164 
164 
164 
136 
164 
163 
164 
190 
136 
136 
163 
163 
163 
190 
190 
135 
135 
135 
162 
162 
162 
189 
189 
189 
165 
138 
138 
137 
111 
137 
137 
137 
137 
110 
110 
110 
110 
109 
136 
136 
83 
83 
83 
110 
109 
109 
109 
109 
108 
165 
139 
138 
138 
139 
139 
112 
138 
111 
113 
112 
112 
112 
111 
111 
111 
113 
113 
85 
85 
85 
85 
84 
84 
84 
166 
166 
166 
139 
167 
167 
140 
139 
139 
168 
167 
140 
140 
140 
140 
113 
168 
168 
141 
141 
141 
141 
114 
113 
113 
VECTORS VELOCITY float 
0.013108 -6.992679 0.000000 
0.013973 -6.959288 0.000000 
0.013847 -6.967174 0.000000 
0.001734 -6.947802 0.000000 
0.000963 -6.942753 0.000000 
-0.000208 -6.942154 0.000000 
-0.000966 -6.942715 0.000000 
-0.001709 -6.941857 0.000000 
-0.000530 -6.943064 0.000000 
0.001182 -6.943333 0.000000 
0.001592 -6.943814 0.000000 
0.001006 -6.944016 0.000000 
0.000290 -6.944039 0.000000 
0.000378 -6.943990 0.000000 
-0.000020 -6.944624 0.000000 
0.000079 -6.944020 0.000000 
-0.001099 -6.941559 0.000000 
-0.000077 -6.942529 0.000000 
-0.000346 -6.942104 0.000000 
0.000485 -6.942943 0.000000 
-0.000084 -6.942550 0.000000 
0.000074 -6.943018 0.000000 
-0.000131 -6.942599 0.000000 
0.000040 -6.943108 0.000000 
-0.000014 -6.942588 0.000000 
0.037436 -7.001135 0.000000 
0.017181 -6.969240 0.000000 
0.034550 -6.985201 0.000000 
0.019276 -6.964876 0.000000 
-0.001275 -6.952348 0.000000 
-0.000198 -6.953281 0.000000 
0.003812 -6.938860 0.000000 
0.006216 -6.945880 0.000000 
0.002615 -6.942141 0.000000 
0.030358 -6.927568 0.000000 
0.014775 -6.936544 0.000000 
0.006585 -6.929783 0.000000 
0.003776 -6.934947 0.000000 
0.002029 -6.937064 0.000000 
0.001338 -6.940367 0.000000 
0.000849 -6.942874 0.000000 
-0.081797 -6.888292 0.000000 
-0.023488 -6.906853 0.000000 
-0.036546 -6.906038 0.000000 
-0.009194 -6.920760 0.000000 
-0.012438 -6.924995 0.000000 
-0.002199 -6.934934 0.000000 
-0.002805 -6.940212 0.000000 
-0.000710 -6.941746 0.000000 
-0.001408 -6.941212 0.000000 
0.020915 -6.958703 0.000000 
-0.021022 -6.926568 0.000000 
0.015232 -6.928054 0.000000 
0.005346 -6.949307 0.000000 
0.080103 -7.273964 0.000000 
0.034376 -7.049344 0.000000 
0.077399 -6.893068 0.000000 
-0.020488 -6.956498 0.000000 
-0.015018 -6.962897 0.000000 
0.008791 -6.430967 0.000000 
0.312321 -6.901663 0.000000 
0.291831 -6.618511 0.000000 
0.170701 -6.745362 0.000000 
0.022274 -6.776523 0.000000 
0.013468 -6.907846 0.000000 
0.035532 -6.925216 0.000000 
-1.403013 -6.233579 0.000000 
-0.773744 -6.231028 0.000000 
-1.455594 -6.759049 0.000000 
-0.528719 -6.664783 0.000000 
-0.828399 -6.735865 0.000000 
-0.180780 -6.689500 0.000000 
-0.287286 -6.792638 0.000000 
-0.071941 -6.857402 0.000000 
-0.119603 -6.890118 0.000000 
0.000000 -6.938355 0.000000 
0.026843 -7.097688 0.000000 
0.000000 -6.912483 0.000000 
-0.026843 -7.097688 0.000000 
0.058274 -7.804667 0.000000 
0.045842 -7.686280 0.000000 
0.000000 -7.906074 0.000000 
-0.045842 -7.686280 0.000000 
-0.058274 -7.804667 0.000000 
0.171763 -5.729122 0.000000 
0.061845 -6.373437 0.000000 
0.045059 -4.530952 0.000000 
0.000000 -5.871785 0.000000 
-0.045059 -4.530952 0.000000 
-0.061845 -6.373437 0.000000 
-0.171763 -5.729122 0.000000 
1.522614 -8.985657 0.000000 
0.629731 -4.262706 0.000000 
0.929765 -11.998507 0.000000 
0.085720 -4.105775 0.000000 
-0.000000 -16.246785 0.000000 
-0.085720 -4.105775 0.000000 
-0.929765 -11.998507 0.000000 
-0.629731 -4.262706 0.000000 
-1.522614 -8.985657 0.000000 
-0.020915 -6.958703 0.000000 
-0.005346 -6.949307 0.000000 
-0.015232 -6.928054 0.000000 
0.021022 -6.926568 0.000000 
0.015018 -6.962897 0.000000 
0.020488 -6.956498 0.000000 
-0.077399 -6.893068 0.000000 
-0.034376 -7.049344 0.000000 
-0.080103 -7.273964 0.000000 
-0.035532 -6.925216 0.000000 
-0.013468 -6.907846 0.000000 
-0.022274 -6.776523 0.000000 
-0.170701 -6.745362 0.000000 
-0.291831 -6.618511 0.000000 
-0.312321 -6.901663 0.000000 
-0.008791 -6.430967 0.000000 
0.119603 -6.890118 0.000000 
0.071941 -6.857402 0.000000 
0.287286 -6.792638 0.000000 
0.180780 -6.689500 0.000000 
0.828399 -6.735865 0.000000 
0.528719 -6.664783 0.000000 
1.455594 -6.759049 0.000000 
0.773744 -6.231028 0.000000 
1.403013 -6.233579 0.000000 
-0.037436 -7.001135 0.000000 
-0.019276 -6.964876 0.000000 
-0.034550 -6.985201 0.000000 
-0.017181 -6.969240 0.000000 
-0.002615 -6.942141 0.000000 
-0.006216 -6.945880 0.000000 
-0.003812 -6.938860 0.000000 
0.000198 -6.953281 0.000000 
0.001275 -6.952348 0.000000 
-0.000849 -6.942874 0.000000 
-0.001338 -6.940367 0.000000 
-0.002029 -6.937064 0.000000 
-0.003776 -6.934947 0.000000 
-0.006585 -6.929783 0.000000 
-0.014775 -6.936544 0.000000 
-0.030358 -6.927568 0.000000 
0.001408 -6.941212 0.000000 
0.000710 -6.941746 0.000000 
0.002805 -6.940212 0.000000 
0.002199 -6.934934 0.000000 
0.012438 -6.924995 0.000000 
0.009194 -6.920760 0.000000 
0.036546 -6.906038 0.000000 
0.023488 -6.906853 0.000000 
0.081797 -6.888292 0.000000 
-0.013108 -6.992679 0.000000 
-0.001734 -6.947802 0.000000 
-0.013847 -6.967174 0.000000 
-0.013973 -6.959288 0.000000 
0.000530 -6.943064 0.000000 
0.001709 -6.941857 0.000000 
0.000966 -6.942715 0.000000 
0.000208 -6.942154 0.000000 
-0.000963 -6.942753 0.000000 
-0.000079 -6.944020 0.000000 
0.000020 -6.944624 0.000000 
-0.000378 -6.943990 0.000000 
-0.000290 -6.944039 0.000000 
-0.001006 -6.944016 0.000000 
-0.001592 -6.943814 0.000000 
-0.001182 -6.943333 0.000000 
0.000014 -6.942588 0.000000 
-0.000040 -6.943108 0.000000 
0.000131 -6.942599 0.000000 
-0.000074 -6.943018 0.000000 
0.000084 -6.942550 0.000000 
-0.000485 -6.942943 0.000000 
0.000346 -6.942104 0.000000 
0.000077 -6.942529 0.000000 
0.001099 -6.941559 0.000000 
TENSORS STRESS float 
-0.095376 -0.006617 0.000000 
0.000000 0.012085 0.000000 
0.000000 0.000000 0.000000 

0.742852 -0.059576 0.000000 
0.000000 0.780997 0.000000 
0.000000 0.000000 0.000000 

0.123704 -0.016869 0.000000 
0.000000 0.235407 0.000000 
0.000000 0.000000 0.000000 

0.389779 -0.008786 0.000000 
0.000000 0.487847 0.000000 
0.000000 0.000000 0.000000 

0.492621 -0.042027 0.000000 
0.000000 0.518428 0.000000 
0.000000 0.000000 0.000000 

0.760771 -0.051040 0.000000 
0.000000 0.807650 0.000000 
0.000000 0.000000 0.000000 

0.134131 -0.022035 0.000000 
0.000000 0.135956 0.000000 
0.000000 0.000000 0.000000 

-0.063522 -0.008269 0.000000 
0.000000 -0.036056 0.000000 
0.000000 0.000000 0.000000 

0.010242 -0.003995 0.000000 
0.000000 0.031062 0.000000 
0.000000 0.000000 0.000000 

-0.003148 -0.010981 0.000000 
0.000000 -0.023152 0.000000 
0.000000 0.000000 0.000000 

-0.026512 -0.017306 0.000000 
0.000000 -0.037592 0.000000 
0.000000 0.000000 0.000000 

-0.026024 -0.010178 0.000000 
0.000000 -0.031608 0.000000 
0.000000 0.000000 0.000000 

0.062435 -0.014298 0.000000 
0.000000 0.063230 0.000000 
0.000000 0.000000 0.000000 

-0.004741 -0.002230 0.000000 
0.000000 -0.005932 0.000000 
0.000000 0.000000 0.000000 

0.088051 -0.007086 0.000000 
0.000000 0.097811 0.000000 
0.000000 0.000000 0.000000 

-0.011058 -0.000021 0.000000 
0.000000 -0.012768 0.000000 
0.000000 0.000000 0.000000 

-0.111506 -0.001938 0.000000 
0.000000 -0.131703 0.000000 
0.000000 0.000000 0.000000 

-0.079796 -0.005149 0.000000 
0.000000 -0.097630 0.000000 
0.000000 0.000000 0.000000 

0.000109 -0.002498 0.000000 
0.000000 -0.006513 0.000000 
0.000000 0.000000 0.000000 

-0.026442 -0.001234 0.000000 
0.000000 -0.029414 0.000000 
0.000000 0.000000 0.000000 

-0.024215 -0.000817 0.000000 
0.000000 -0.026806 0.000000 
0.000000 0.000000 0.000000 

-0.019418 -0.001047 0.000000 
0.000000 -0.021676 0.000000 
0.000000 0.000000 0.000000 

-0.016527 -0.000707 0.000000 
0.000000 -0.018379 0.000000 
0.000000 0.000000 0.000000 

-0.010792 -0.000044 0.000000 
0.000000 -0.012606 0.000000 
0.000000 0.000000 0.000000 

-0.003971 -0.000022 0.000000 
0.000000 -0.005250 0.000000 
0.000000 0.000000 0.000000 

1.960781 0.087765 0.000000 
0.000000 2.169789 0.000000 
0.000000 0.000000 0.000000 

0.114275 -0.151194 0.000000 
0.000000 0.210325 0.000000 
0.000000 0.000000 0.000000 

0.619496 -0.009081 0.000000 
0.000000 0.661495 0.000000 
0.000000 0.000000 0.000000 

0.662021 -0.069499 0.000000 
0.000000 0.687908 0.000000 
0.000000 0.000000 0.000000 

0.594889 -0.156713 0.000000 
0.000000 0.247330 0.000000 
0.000000 0.000000 0.000000 

-1.780082 -0.206331 0.000000 
0.000000 -1.880012 0.000000 
0.000000 0.000000 0.000000 

0.603417 -0.075779 0.000000 
0.000000 0.567174 0.000000 
0.000000 0.000000 0.000000 

0.464725 -0.065426 0.000000 
0.000000 0.474290 0.000000 
0.000000 0.000000 0.000000 

0.364584 -0.048856 0.000000 
0.000000 0.373011 0.000000 
0.000000 0.000000 0.000000 

0.170354 0.058041 0.000000 
0.000000 -0.326175 0.000000 
0.000000 0.000000 0.000000 

-0.653160 0.020114 0.000000 
0.000000 -1.040055 0.000000 
0.000000 0.000000 0.000000 

-0.728655 0.007032 0.000000 
0.000000 -0.896258 0.000000 
0.000000 0.000000 0.000000 

0.246829 -0.058922 0.000000 
0.000000 0.182391 0.000000 
0.000000 0.000000 0.000000 

-0.015869 -0.029848 0.000000 
0.000000 -0.074649 0.000000 
0.000000 0.000000 0.000000 

0.209190 -0.030215 0.000000 
0.000000 0.182372 0.000000 
0.000000 0.000000 0.000000 

0.010275 -0.011341 0.000000 
0.000000 -0.015155 0.000000 
0.000000 0.000000 0.000000 

-0.962089 0.336049 0.000000 
0.000000 -1.313363 0.000000 
0.000000 0.000000 0.000000 

-1.426232 0.306125 0.000000 
0.000000 -1.794043 0.000000 
0.000000 0.000000 0.000000 

-1.103695 0.246298 0.000000 
0.000000 -1.398632 0.000000 
0.000000 0.000000 0.000000 

0.346807 -0.001237 0.000000 
0.000000 0.205168 0.000000 
0.000000 0.000000 0.000000 

0.005163 0.017567 0.000000 
0.000000 -0.113532 0.000000 
0.000000 0.000000 0.000000 

-0.105822 0.004181 0.000000 
0.000000 -0.206312 0.000000 
0.000000 0.000000 0.000000 

-0.158868 0.000535 0.000000 
0.000000 -0.219676 0.000000 
0.000000 0.000000 0.000000 

-0.057189 -0.005832 0.000000 
0.000000 -0.086657 0.000000 
0.000000 0.000000 0.000000 

-0.104718 -0.002083 0.000000 
0.000000 -0.130940 0.000000 
0.000000 0.000000 0.000000 

3.668714 0.060266 0.000000 
0.000000 3.880532 0.000000 
0.000000 0.000000 0.000000 

6.867354 -0.812050 0.000000 
0.000000 7.776647 0.000000 
0.000000 0.000000 0.000000 

1.011357 -0.283858 0.000000 
0.000000 1.402746 0.000000 
0.000000 0.000000 0.000000 

-0.421116 -0.282408 0.000000 
0.000000 -0.218789 0.000000 
0.000000 0.000000 0.000000 

4.121358 -1.075688 0.000000 
0.000000 3.678562 0.000000 
0.000000 0.000000 0.000000 

-0.443905 -0.724334 0.000000 
0.000000 -0.645056 0.000000 
0.000000 0.000000 0.000000 

-5.365735 -0.275438 0.000000 
0.000000 -5.840664 0.000000 
0.000000 0.000000 0.000000 

-5.739737 -0.437971 0.000000 
0.000000 -5.851770 0.000000 
0.000000 0.000000 0.000000 

2.539262 -0.243762 0.000000 
0.000000 2.063884 0.000000 
0.000000 0.000000 0.000000 

-3.175380 5.366332 0.000000 
0.000000 -8.504573 0.000000 
0.000000 0.000000 0.000000 

-9.513994 3.218980 0.000000 
0.000000 -12.124368 0.000000 
0.000000 0.000000 0.000000 

5.109222 3.683683 0.000000 
0.000000 2.742515 0.000000 
0.000000 0.000000 0.000000 

6.880745 0.752618 0.000000 
0.000000 5.070027 0.000000 
0.000000 0.000000 0.000000 

5.263918 1.058655 0.000000 
0.000000 3.649289 0.000000 
0.000000 0.000000 0.000000 

-0.188602 0.634135 0.000000 
0.000000 -1.405135 0.000000 
0.000000 0.000000 0.000000 

-1.065696 0.455761 0.000000 
0.000000 -1.999402 0.000000 
0.000000 0.000000 0.000000 

-163.696110 5.199184 0.000000 
0.000000 -182.308958 0.000000 
0.000000 0.000000 0.000000 

-45.231833 8.029870 0.000000 
0.000000 -46.916818 0.000000 
0.000000 0.000000 0.000000 

-31.325981 7.171671 0.000000 
0.000000 -31.883535 0.000000 
0.000000 0.000000 0.000000 

-14.616760 6.719998 0.000000 
0.000000 -16.595702 0.000000 
0.000000 0.000000 0.000000 

8.093802 4.826731 0.000000 
0.000000 7.190508 0.000000 
0.000000 0.000000 0.000000 

9.544430 1.512658 0.000000 
0.000000 7.524330 0.000000 
0.000000 0.000000 0.000000 

-11.752352 1.801041 0.000000 
0.000000 -11.953730 0.000000 
0.000000 0.000000 0.000000 

-8.083988 1.836447 0.000000 
0.000000 -8.636679 0.000000 
0.000000 0.000000 0.000000 

-6.090438 1.400346 0.000000 
0.000000 -6.687340 0.000000 
0.000000 0.000000 0.000000 

4.049003 -0.000000 0.000000 
0.000000 4.231915 0.000000 
0.000000 0.000000 0.000000 

5.111440 0.115932 0.000000 
0.000000 5.412882 0.000000 
0.000000 0.000000 0.000000 

14.040360 -0.000000 0.000000 
0.000000 14.834793 0.000000 
0.000000 0.000000 0.000000 

5.111440 -0.115932 0.000000 
0.000000 5.412882 0.000000 
0.000000 0.000000 0.000000 

7.758165 1.294833 0.000000 
0.000000 7.270702 0.000000 
0.000000 0.000000 0.000000 

2.749765 0.102811 0.000000 
0.000000 3.186139 0.000000 
0.000000 0.000000 0.000000 

-12.131200 -0.000000 0.000000 
0.000000 -13.137004 0.000000 
0.000000 0.000000 0.000000 

2.749765 -0.102811 0.000000 
0.000000 3.186139 0.000000 
0.000000 0.000000 0.000000 

7.758166 -1.294833 0.000000 
0.000000 7.270702 0.000000 
0.000000 0.000000 0.000000 

26.841191 -3.395798 0.000000 
0.000000 20.884473 0.000000 
0.000000 0.000000 0.000000 

30.951200 -2.303104 0.000000 
0.000000 26.681044 0.000000 
0.000000 0.000000 0.000000 

57.540138 -2.681901 0.000000 
0.000000 51.774735 0.000000 
0.000000 0.000000 0.000000 

32.131732 -0.000000 0.000000 
0.000000 28.371194 0.000000 
0.000000 0.000000 0.000000 

57.540138 2.681901 0.000000 
0.000000 51.774735 0.000000 
0.000000 0.000000 0.000000 

30.951199 2.303104 0.000000 
0.000000 26.681043 0.000000 
0.000000 0.000000 0.000000 

26.841191 3.395798 0.000000 
0.000000 20.884473 0.000000 
0.000000 0.000000 0.000000 

-35.444887 0.027187 0.000000 
0.000000 -39.001193 0.000000 
0.000000 0.000000 0.000000 

-220.717714 -0.254183 0.000000 
0.000000 -248.258362 0.000000 
0.000000 0.000000 0.000000 

-0.025851 0.000037 0.000000 
0.000000 -0.028244 0.000000 
0.000000 0.000000 0.000000 

-65.868119 -0.145106 0.000000 
0.000000 -72.674124 0.000000 
0.000000 0.000000 0.000000 

-0.000945 -0.000000 0.000000 
0.000000 -0.001033 0.000000 
0.000000 0.000000 0.000000 

-65.868119 0.145106 0.000000 
0.000000 -72.674123 0.000000 
0.000000 0.000000 0.000000 

-0.025851 -0.000037 0.000000 
0.000000 -0.028244 0.000000 
0.000000 0.000000 0.000000 

-220.717712 0.254183 0.000000 
0.000000 -248.258359 0.000000 
0.000000 0.000000 0.000000 

-35.444887 -0.027187 0.000000 
0.000000 -39.001193 0.000000 
0.000000 0.000000 0.000000 

3.668714 -0.060266 0.000000 
0.000000 3.880532 0.000000 
0.000000 0.000000 0.000000 

-0.421116 0.282408 0.000000 
0.000000 -0.218789 0.000000 
0.000000 0.000000 0.000000 

1.011357 0.283858 0.000000 
0.000000 1.402746 0.000000 
0.000000 0.000000 0.000000 

6.867354 0.812050 0.000000 
0.000000 7.776647 0.000000 
0.000000 0.000000 0.000000 

2.539262 0.243762 0.000000 
0.000000 2.063885 0.000000 
0.000000 0.000000 0.000000 

-5.739737 0.437971 0.000000 
0.000000 -5.851770 0.000000 
0.000000 0.000000 0.000000 

-5.365735 0.275438 0.000000 
0.000000 -5.840664 0.000000 
0.000000 0.000000 0.000000 

-0.443905 0.724334 0.000000 
0.000000 -0.645056 0.000000 
0.000000 0.000000 0.000000 

4.121358 1.075688 0.000000 
0.000000 3.678562 0.000000 
0.000000 0.000000 0.000000 

-1.065696 -0.455761 0.000000 
0.000000 -1.999402 0.000000 
0.000000 0.000000 0.000000 

-0.188602 -0.634135 0.000000 
0.000000 -1.405135 0.000000 
0.000000 0.000000 0.000000 

5.263918 -1.058655 0.000000 
0.000000 3.649289 0.000000 
0.000000 0.000000 0.000000 

6.880745 -0.752618 0.000000 
0.000000 5.070027 0.000000 
0.000000 0.000000 0.000000 

5.109222 -3.683683 0.000000 
0.000000 2.742515 0.000000 
0.000000 0.000000 0.000000 

-9.513994 -3.218980 0.000000 
0.000000 -12.124368 0.000000 
0.000000 0.000000 0.000000 

-3.175380 -5.366331 0.000000 
0.000000 -8.504573 0.000000 
0.000000 0.000000 0.000000 

-6.090438 -1.400346 0.000000 
0.000000 -6.687341 0.000000 
0.000000 0.000000 0.000000 

-8.083988 -1.836447 0.000000 
0.000000 -8.636679 0.000000 
0.000000 0.000000 0.000000 

-11.752352 -1.801041 0.000000 
0.000000 -11.953730 0.000000 
0.000000 0.000000 0.000000 

9.544430 -1.512658 0.000000 
0.000000 7.524330 0.000000 
0.000000 0.000000 0.000000 

8.093803 -4.826732 0.000000 
0.000000 7.190508 0.000000 
0.000000 0.000000 0.000000 

-14.616760 -6.719999 0.000000 
0.000000 -16.595702 0.000000 
0.000000 0.000000 0.000000 

-31.325981 -7.171671 0.000000 
0.000000 -31.883535 0.000000 
0.000000 0.000000 0.000000 

-45.231833 -8.029870 0.000000 
0.000000 -46.916818 0.000000 
0.000000 0.000000 0.000000 

-163.696109 -5.199184 0.000000 
0.000000 -182.308957 0.000000 
0.000000 0.000000 0.000000 

1.960781 -0.087765 0.000000 
0.000000 2.169789 0.000000 
0.000000 0.000000 0.000000 

0.662021 0.069499 0.000000 
0.000000 0.687908 0.000000 
0.000000 0.000000 0.000000 

0.619496 0.009081 0.000000 
0.000000 0.661495 0.000000 
0.000000 0.000000 0.000000 

0.114276 0.151194 0.000000 
0.000000 0.210325 0.000000 
0.000000 0.000000 0.000000 

0.364584 0.048856 0.000000 
0.000000 0.373011 0.000000 
0.000000 0.000000 0.000000 

0.464725 0.065426 0.000000 
0.000000 0.474290 0.000000 
0.000000 0.000000 0.000000 

0.603417 0.075779 0.000000 
0.000000 0.567174 0.000000 
0.000000 0.000000 0.000000 

-1.780082 0.206331 0.000000 
0.000000 -1.880012 0.000000 
0.000000 0.000000 0.000000 

0.594889 0.156713 0.000000 
0.000000 0.247330 0.000000 
0.000000 0.000000 0.000000 

0.010275 0.011341 0.000000 
0.000000 -0.015155 0.000000 
0.000000 0.000000 0.000000 

0.209190 0.030215 0.000000 
0.000000 0.182372 0.000000 
0.000000 0.000000 0.000000 

-0.015869 0.029848 0.000000 
0.000000 -0.074649 0.000000 
0.000000 0.000000 0.000000 

0.246829 0.058922 0.000000 
0.000000 0.182391 0.000000 
0.000000 0.000000 0.000000 

-0.728655 -0.007032 0.000000 
0.000000 -0.896258 0.000000 
0.000000 0.000000 0.000000 

-0.653160 -0.020114 0.000000 
0.000000 -1.040055 0.000000 
0.000000 0.000000 0.000000 

0.170354 -0.058041 0.000000 
0.000000 -0.326175 0.000000 
0.000000 0.000000 0.000000 

-0.104718 0.002083 0.000000 
0.000000 -0.130940 0.000000 
0.000000 0.000000 0.000000 

-0.057189 0.005832 0.000000 
0.000000 -0.086657 0.000000 
0.000000 0.000000 0.000000 

-0.158868 -0.000535 0.000000 
0.000000 -0.219676 0.000000 
0.000000 0.000000 0.000000 

-0.105822 -0.004181 0.000000 
0.000000 -0.206312 0.000000 
0.000000 0.000000 0.000000 

0.005163 -0.017566 0.000000 
0.000000 -0.113532 0.000000 
0.000000 0.000000 0.000000 

0.346807 0.001237 0.000000 
0.000000 0.205168 0.000000 
0.000000 0.000000 0.000000 

-1.103695 -0.246298 0.000000 
0.000000 -1.398632 0.000000 
0.000000 0.000000 0.000000 

-1.426232 -0.306125 0.000000 
0.000000 -1.794043 0.000000 
0.000000 0.000000 0.000000 

-0.962089 -0.336049 0.000000 
0.000000 -1.313363 0.000000 
0.000000 0.000000 0.000000 

-0.095376 0.006617 0.000000 
0.000000 0.012085 0.000000 
0.000000 0.000000 0.000000 

0.389779 0.008786 0.000000 
0.000000 0.487847 0.000000 
0.000000 0.000000 0.000000 

0.123704 0.016869 0.000000 
0.000000 0.235407 0.000000 
0.000000 0.000000 0.000000 

0.742852 0.059576 0.000000 
0.000000 0.780997 0.000000 
0.000000 0.000000 0.000000 

0.010242 0.003995 0.000000 
0.000000 0.031062 0.000000 
0.000000 0.000000 0.000000 

-0.063522 0.008269 0.000000 
0.000000 -0.036056 0.000000 
0.000000 0.000000 0.000000 

0.134131 0.022035 0.000000 
0.000000 0.135956 0.000000 
0.000000 0.000000 0.000000 

0.760771 0.051040 0.000000 
0.000000 0.807650 0.000000 
0.000000 0.000000 0.000000 

0.492621 0.042027 0.000000 
0.000000 0.518428 0.000000 
0.000000 0.000000 0.000000 

-0.011058 0.000021 0.000000 
0.000000 -0.012768 0.000000 
0.000000 0.000000 0.000000 

0.088051 0.007086 0.000000 
0.000000 0.097811 0.000000 
0.000000 0.000000 0.000000 

-0.004741 0.002230 0.000000 
0.000000 -0.005932 0.000000 
0.000000 0.000000 0.000000 

0.062435 0.014298 0.000000 
0.000000 0.063230 0.000000 
0.000000 0.000000 0.000000 

-0.026024 0.010178 0.000000 
0.000000 -0.031608 0.000000 
0.000000 0.000000 0.000000 

-0.026512 0.017306 0.000000 
0.000000 -0.037592 0.000000 
0.000000 0.000000 0.000000 

-0.003148 0.010981 0.000000 
0.000000 -0.023152 0.000000 
0.000000 0.000000 0.000000 

-0.003971 0.000022 0.000000 
0.000000 -0.005250 0.000000 
0.000000 0.000000 0.000000 

-0.010792 0.000044 0.000000 
0.000000 -0.012606 0.000000 
0.000000 0.000000 0.000000 

-0.016527 0.000707 0.000000 
0.000000 -0.018379 0.000000 
0.000000 0.000000 0.000000 

-0.019418 0.001047 0.000000 
0.000000 -0.021676 0.000000 
0.000000 0.000000 0.000000 

-0.024215 0.000817 0.000000 
0.000000 -0.026806 0.000000 
0.000000 0.000000 0.000000 

-0.026442 0.001234 0.000000 
0.000000 -0.029414 0.000000 
0.000000 0.000000 0.000000 

0.000109 0.002498 0.000000 
0.000000 -0.006513 0.000000 
0.000000 0.000000 0.000000 

-0.079796 0.005149 0.000000 
0.000000 -0.097630 0.000000 
0.000000 0.000000 0.000000 

-0.111506 0.001938 0.000000 
0.000000 -0.131703 0.000000 
0.000000 0.000000 0.000000 

TENSORS STRAIN float 
-0.000210 -0.000025 0.000000 
0.000000 0.000197 0.000000 
0.000000 0.000000 0.000000 

0.000039 -0.000204 0.000000 
0.000000 0.000170 0.000000 
0.000000 0.000000 0.000000 

-0.000152 -0.000053 0.000000 
0.000000 0.000197 0.000000 
0.000000 0.000000 0.000000 

-0.000108 -0.000030 0.000000 
0.000000 0.000228 0.000000 
0.000000 0.000000 0.000000 

0.000025 -0.000141 0.000000 
0.000000 0.000111 0.000000 
0.000000 0.000000 0.000000 

0.000025 -0.000164 0.000000 
0.000000 0.000176 0.000000 
0.000000 0.000000 0.000000 

0.000015 -0.000076 0.000000 
0.000000 0.000022 0.000000 
0.000000 0.000000 0.000000 

-0.000051 -0.000027 0.000000 
0.000000 0.000038 0.000000 
0.000000 0.000000 0.000000 

-0.000032 -0.000013 0.000000 
0.000000 0.000038 0.000000 
0.000000 0.000000 0.000000 

0.000032 -0.000037 0.000000 
0.000000 -0.000035 0.000000 
0.000000 0.000000 0.000000 

0.000014 -0.000056 0.000000 
0.000000 -0.000022 0.000000 
0.000000 0.000000 0.000000 

0.000006 -0.000035 0.000000 
0.000000 -0.000013 0.000000 
0.000000 0.000000 0.000000 

0.000007 -0.000046 0.000000 
0.000000 0.000009 0.000000 
0.000000 0.000000 0.000000 

0.000001 -0.000008 0.000000 
0.000000 -0.000003 0.000000 
0.000000 0.000000 0.000000 

-0.000004 -0.000023 0.000000 
0.000000 0.000028 0.000000 
0.000000 0.000000 0.000000 

0.000001 -0.000000 0.000000 
0.000000 -0.000004 0.000000 
0.000000 0.000000 0.000000 

0.000017 -0.000006 0.000000 
0.000000 -0.000050 0.000000 
0.000000 0.000000 0.000000 

0.000017 -0.000017 0.000000 
0.000000 -0.000040 0.000000 
0.000000 0.000000 0.000000 

0.000011 -0.000008 0.000000 
0.000000 -0.000011 0.000000 
0.000000 0.000000 0.000000 

0.000001 -0.000004 0.000000 
0.000000 -0.000008 0.000000 
0.000000 0.000000 0.000000 

0.000001 -0.000003 0.000000 
0.000000 -0.000008 0.000000 
0.000000 0.000000 0.000000 

0.000001 -0.000003 0.000000 
0.000000 -0.000006 0.000000 
0.000000 0.000000 0.000000 

0.000001 -0.000002 0.000000 
0.000000 -0.000005 0.000000 
0.000000 0.000000 0.000000 

0.000001 -0.000000 0.000000 
0.000000 -0.000004 0.000000 
0.000000 0.000000 0.000000 

0.000002 -0.000000 0.000000 
0.000000 -0.000003 0.000000 
0.000000 0.000000 0.000000 

-0.000082 0.000329 0.000000 
0.000000 0.000701 0.000000 
0.000000 0.000000 0.000000 

-0.000142 -0.000517 0.000000 
0.000000 0.000186 0.000000 
0.000000 0.000000 0.000000 

0.000014 -0.000028 0.000000 
0.000000 0.000146 0.000000 
0.000000 0.000000 0.000000 

0.000048 -0.000238 0.000000 
0.000000 0.000137 0.000000 
0.000000 0.000000 0.000000 

0.000640 -0.000527 0.000000 
0.000000 -0.000527 0.000000 
0.000000 0.000000 0.000000 

-0.000075 -0.000668 0.000000 
0.000000 -0.000399 0.000000 
0.000000 0.000000 0.000000 

0.000143 -0.000261 0.000000 
0.000000 0.000018 0.000000 
0.000000 0.000000 0.000000 

0.000045 -0.000210 0.000000 
0.000000 0.000076 0.000000 
0.000000 0.000000 0.000000 

0.000035 -0.000164 0.000000 
0.000000 0.000064 0.000000 
0.000000 0.000000 0.000000 

0.000819 0.000194 0.000000 
0.000000 -0.000840 0.000000 
0.000000 0.000000 0.000000 

0.000522 0.000066 0.000000 
0.000000 -0.000743 0.000000 
0.000000 0.000000 0.000000 

0.000175 0.000024 0.000000 
0.000000 -0.000396 0.000000 
0.000000 0.000000 0.000000 

0.000132 -0.000191 0.000000 
0.000000 -0.000076 0.000000 
0.000000 0.000000 0.000000 

0.000094 -0.000102 0.000000 
0.000000 -0.000106 0.000000 
0.000000 0.000000 0.000000 

0.000069 -0.000098 0.000000 
0.000000 -0.000018 0.000000 
0.000000 0.000000 0.000000 

0.000042 -0.000038 0.000000 
0.000000 -0.000043 0.000000 
0.000000 0.000000 0.000000 

0.000435 0.001123 0.000000 
0.000000 -0.000739 0.000000 
0.000000 0.000000 0.000000 

0.000390 0.000998 0.000000 
0.000000 -0.000810 0.000000 
0.000000 0.000000 0.000000 

0.000325 0.000821 0.000000 
0.000000 -0.000658 0.000000 
0.000000 0.000000 0.000000 

0.000261 -0.000004 0.000000 
0.000000 -0.000191 0.000000 
0.000000 0.000000 0.000000 

0.000190 0.000058 0.000000 
0.000000 -0.000204 0.000000 
0.000000 0.000000 0.000000 

0.000141 0.000013 0.000000 
0.000000 -0.000180 0.000000 
0.000000 0.000000 0.000000 

0.000076 0.000002 0.000000 
0.000000 -0.000126 0.000000 
0.000000 0.000000 0.000000 

0.000038 -0.000019 0.000000 
0.000000 -0.000057 0.000000 
0.000000 0.000000 0.000000 

0.000028 -0.000007 0.000000 
0.000000 -0.000059 0.000000 
0.000000 0.000000 0.000000 

0.000167 0.000224 0.000000 
0.000000 0.000953 0.000000 
0.000000 0.000000 0.000000 

-0.000538 -0.002699 0.000000 
0.000000 0.002484 0.000000 
0.000000 0.000000 0.000000 

-0.000457 -0.000879 0.000000 
0.000000 0.000756 0.000000 
0.000000 0.000000 0.000000 

-0.000390 -0.000965 0.000000 
0.000000 0.000302 0.000000 
0.000000 0.000000 0.000000 

0.001249 -0.003559 0.000000 
0.000000 -0.000216 0.000000 
0.000000 0.000000 0.000000 

0.000256 -0.002350 0.000000 
0.000000 -0.000397 0.000000 
0.000000 0.000000 0.000000 

0.000047 -0.000962 0.000000 
0.000000 -0.001613 0.000000 
0.000000 0.000000 0.000000 

-0.000571 -0.001423 0.000000 
0.000000 -0.000935 0.000000 
0.000000 0.000000 0.000000 

0.001100 -0.000813 0.000000 
0.000000 -0.000486 0.000000 
0.000000 0.000000 0.000000 

0.008148 0.017986 0.000000 
0.000000 -0.009714 0.000000 
0.000000 0.000000 0.000000 

0.002831 0.010444 0.000000 
0.000000 -0.005639 0.000000 
0.000000 0.000000 0.000000 

0.004552 0.012511 0.000000 
0.000000 -0.003486 0.000000 
0.000000 0.000000 0.000000 

0.003663 0.002409 0.000000 
0.000000 -0.002133 0.000000 
0.000000 0.000000 0.000000 

0.003320 0.003567 0.000000 
0.000000 -0.002119 0.000000 
0.000000 0.000000 0.000000 

0.001866 0.002053 0.000000 
0.000000 -0.002072 0.000000 
0.000000 0.000000 0.000000 

0.001351 0.001518 0.000000 
0.000000 -0.001759 0.000000 
0.000000 0.000000 0.000000 

0.009480 0.020654 0.000000 
0.000000 -0.064459 0.000000 
0.000000 0.000000 0.000000 

-0.004573 0.036704 0.000000 
0.000000 -0.012275 0.000000 
0.000000 0.000000 0.000000 

-0.004089 0.029761 0.000000 
0.000000 -0.006403 0.000000 
0.000000 0.000000 0.000000 

0.001308 0.024071 0.000000 
0.000000 -0.005780 0.000000 
0.000000 0.000000 0.000000 

0.002498 0.015923 0.000000 
0.000000 -0.000482 0.000000 
0.000000 0.000000 0.000000 

0.004255 0.004762 0.000000 
0.000000 -0.002105 0.000000 
0.000000 0.000000 0.000000 

-0.001284 0.006192 0.000000 
0.000000 -0.001976 0.000000 
0.000000 0.000000 0.000000 

-0.000192 0.006068 0.000000 
0.000000 -0.002018 0.000000 
0.000000 0.000000 0.000000 

0.000145 0.004732 0.000000 
0.000000 -0.001872 0.000000 
0.000000 0.000000 0.000000 

0.000275 -0.000000 0.000000 
0.000000 0.000953 0.000000 
0.000000 0.000000 0.000000 

0.000209 0.000406 0.000000 
0.000000 0.001266 0.000000 
0.000000 0.000000 0.000000 

0.000540 -0.000000 0.000000 
0.000000 0.002919 0.000000 
0.000000 0.000000 0.000000 

0.000209 -0.000406 0.000000 
0.000000 0.001266 0.000000 
0.000000 0.000000 0.000000 

0.001782 0.004239 0.000000 
0.000000 0.000186 0.000000 
0.000000 0.000000 0.000000 

-0.000332 0.000343 0.000000 
0.000000 0.001125 0.000000 
0.000000 0.000000 0.000000 

-0.000009 -0.000000 0.000000 
0.000000 -0.003737 0.000000 
0.000000 0.000000 0.000000 

-0.000332 -0.000343 0.000000 
0.000000 0.001125 0.000000 
0.000000 0.000000 0.000000 

0.001782 -0.004239 0.000000 
0.000000 0.000186 0.000000 
0.000000 0.000000 0.000000 

0.011231 -0.009697 0.000000 
0.000000 -0.005780 0.000000 
0.000000 0.000000 0.000000 

0.008665 -0.006070 0.000000 
0.000000 -0.002589 0.000000 
0.000000 0.000000 0.000000 

0.012935 -0.006843 0.000000 
0.000000 -0.001777 0.000000 
0.000000 0.000000 0.000000 

0.008194 -0.000000 0.000000 
0.000000 -0.001777 0.000000 
0.000000 0.000000 0.000000 

0.012935 0.006843 0.000000 
0.000000 -0.001777 0.000000 
0.000000 0.000000 0.000000 

0.008665 0.006070 0.000000 
0.000000 -0.002589 0.000000 
0.000000 0.000000 0.000000 

0.011231 0.009697 0.000000 
0.000000 -0.005780 0.000000 
0.000000 0.000000 0.000000 

0.020774 0.001953 0.000000 
0.000000 -0.234652 0.000000 
0.000000 0.000000 0.000000 

0.019458 -0.001126 0.000000 
0.000000 -0.102590 0.000000 
0.000000 0.000000 0.000000 

0.021003 0.006784 0.000000 
0.000000 -0.418031 0.000000 
0.000000 0.000000 0.000000 

0.022273 -0.005112 0.000000 
0.000000 -0.217521 0.000000 
0.000000 0.000000 0.000000 

0.025155 -0.000000 0.000000 
0.000000 -0.475071 0.000000 
0.000000 0.000000 0.000000 

0.022273 0.005112 0.000000 
0.000000 -0.217521 0.000000 
0.000000 0.000000 0.000000 

0.021003 -0.006784 0.000000 
0.000000 -0.418031 0.000000 
0.000000 0.000000 0.000000 

0.019458 0.001126 0.000000 
0.000000 -0.102590 0.000000 
0.000000 0.000000 0.000000 

0.020774 -0.001953 0.000000 
0.000000 -0.234652 0.000000 
0.000000 0.000000 0.000000 

0.000167 -0.000224 0.000000 
0.000000 0.000953 0.000000 
0.000000 0.000000 0.000000 

-0.000390 0.000965 0.000000 
0.000000 0.000302 0.000000 
0.000000 0.000000 0.000000 

-0.000457 0.000879 0.000000 
0.000000 0.000756 0.000000 
0.000000 0.000000 0.000000 

-0.000538 0.002699 0.000000 
0.000000 0.002484 0.000000 
0.000000 0.000000 0.000000 

0.001100 0.000813 0.000000 
0.000000 -0.000486 0.000000 
0.000000 0.000000 0.000000 

-0.000571 0.001423 0.000000 
0.000000 -0.000935 0.000000 
0.000000 0.000000 0.000000 

0.000047 0.000962 0.000000 
0.000000 -0.001613 0.000000 
0.000000 0.000000 0.000000 

0.000256 0.002350 0.000000 
0.000000 -0.000397 0.000000 
0.000000 0.000000 0.000000 

0.001249 0.003559 0.000000 
0.000000 -0.000216 0.000000 
0.000000 0.000000 0.000000 

0.001351 -0.001518 0.000000 
0.000000 -0.001759 0.000000 
0.000000 0.000000 0.000000 

0.001866 -0.002053 0.000000 
0.000000 -0.002072 0.000000 
0.000000 0.000000 0.000000 

0.003320 -0.003567 0.000000 
0.000000 -0.002119 0.000000 
0.000000 0.000000 0.000000 

0.003663 -0.002409 0.000000 
0.000000 -0.002133 0.000000 
0.000000 0.000000 0.000000 

0.004552 -0.012511 0.000000 
0.000000 -0.003486 0.000000 
0.000000 0.000000 0.000000 

0.002831 -0.010444 0.000000 
0.000000 -0.005639 0.000000 
0.000000 0.000000 0.000000 

0.008148 -0.017986 0.000000 
0.000000 -0.009714 0.000000 
0.000000 0.000000 0.000000 

0.000145 -0.004732 0.000000 
0.000000 -0.001872 0.000000 
0.000000 0.000000 0.000000 

-0.000192 -0.006068 0.000000 
0.000000 -0.002018 0.000000 
0.000000 0.000000 0.000000 

-0.001284 -0.006192 0.000000 
0.000000 -0.001976 0.000000 
0.000000 0.000000 0.000000 

0.004255 -0.004762 0.000000 
0.000000 -0.002105 0.000000 
0.000000 0.000000 0.000000 

0.002498 -0.015923 0.000000 
0.000000 -0.000482 0.000000 
0.000000 0.000000 0.000000 

0.001308 -0.024071 0.000000 
0.000000 -0.005780 0.000000 
0.000000 0.000000 0.000000 

-0.004089 -0.029761 0.000000 
0.000000 -0.006403 0.000000 
0.000000 0.000000 0.000000 

-0.004573 -0.036704 0.000000 
0.000000 -0.012275 0.000000 
0.000000 0.000000 0.000000 

0.009480 -0.020654 0.000000 
0.000000 -0.064459 0.000000 
0.000000 0.000000 0.000000 

-0.000082 -0.000329 0.000000 
0.000000 0.000701 0.000000 
0.000000 0.000000 0.000000 

0.000048 0.000238 0.000000 
0.000000 0.000137 0.000000 
0.000000 0.000000 0.000000 

0.000014 0.000028 0.000000 
0.000000 0.000146 0.000000 
0.000000 0.000000 0.000000 

-0.000142 0.000517 0.000000 
0.000000 0.000186 0.000000 
0.000000 0.000000 0.000000 

0.000035 0.000164 0.000000 
0.000000 0.000064 0.000000 
0.000000 0.000000 0.000000 

0.000045 0.000210 0.000000 
0.000000 0.000076 0.000000 
0.000000 0.000000 0.000000 

0.000143 0.000261 0.000000 
0.000000 0.000018 0.000000 
0.000000 0.000000 0.000000 

-0.000075 0.000668 0.000000 
0.000000 -0.000399 0.000000 
0.000000 0.000000 0.000000 

0.000640 0.000527 0.000000 
0.000000 -0.000527 0.000000 
0.000000 0.000000 0.000000 

0.000042 0.000038 0.000000 
0.000000 -0.000043 0.000000 
0.000000 0.000000 0.000000 

0.000069 0.000098 0.000000 
0.000000 -0.000018 0.000000 
0.000000 0.000000 0.000000 

0.000094 0.000102 0.000000 
0.000000 -0.000106 0.000000 
0.000000 0.000000 0.000000 

0.000132 0.000191 0.000000 
0.000000 -0.000076 0.000000 
0.000000 0.000000 0.000000 

0.000175 -0.000024 0.000000 
0.000000 -0.000396 0.000000 
0.000000 0.000000 0.000000 

0.000522 -0.000066 0.000000 
0.000000 -0.000743 0.000000 
0.000000 0.000000 0.000000 

0.000819 -0.000194 0.000000 
0.000000 -0.000840 0.000000 
0.000000 0.000000 0.000000 

0.000028 0.000007 0.000000 
0.000000 -0.000059 0.000000 
0.000000 0.000000 0.000000 

0.000038 0.000019 0.000000 
0.000000 -0.000057 0.000000 
0.000000 0.000000 0.000000 

0.000076 -0.000002 0.000000 
0.000000 -0.000126 0.000000 
0.000000 0.000000 0.000000 

0.000141 -0.000013 0.000000 
0.000000 -0.000180 0.000000 
0.000000 0.000000 0.000000 

0.000190 -0.000058 0.000000 
0.000000 -0.000204 0.000000 
0.000000 0.000000 0.000000 

0.000261 0.000004 0.000000 
0.000000 -0.000191 0.000000 
0.000000 0.000000 0.000000 

0.000325 -0.000821 0.000000 
0.000000 -0.000658 0.000000 
0.000000 0.000000 0.000000 

0.000390 -0.000998 0.000000 
0.000000 -0.000810 0.000000 
0.000000 0.000000 0.000000 

0.000435 -0.001123 0.000000 
0.000000 -0.000739 0.000000 
0.000000 0.000000 0.000000 

-0.000210 0.000025 0.000000 
0.000000 0.000197 0.000000 
0.000000 0.000000 0.000000 

-0.000108 0.000030 0.000000 
0.000000 0.000228 0.000000 
0.000000 0.000000 0.000000 

-0.000152 0.000053 0.000000 
0.000000 0.000197 0.000000 
0.000000 0.000000 0.000000 

0.000039 0.000204 0.000000 
0.000000 0.000170 0.000000 
0.000000 0.000000 0.000000 

-0.000032 0.000013 0.000000 
0.000000 0.000038 0.000000 
0.000000 0.000000 0.000000 

-0.000051 0.000027 0.000000 
0.000000 0.000038 0.000000 
0.000000 0.000000 0.000000 

0.000015 0.000076 0.000000 
0.000000 0.000022 0.000000 
0.000000 0.000000 0.000000 

0.000025 0.000164 0.000000 
0.000000 0.000176 0.000000 
0.000000 0.000000 0.000000 

0.000025 0.000141 0.000000 
0.000000 0.000111 0.000000 
0.000000 0.000000 0.000000 

0.000001 0.000000 0.000000 
0.000000 -0.000004 0.000000 
0.000000 0.000000 0.000000 

-0.000004 0.000023 0.000000 
0.000000 0.000028 0.000000 
0.000000 0.000000 0.000000 

0.000001 0.000008 0.000000 
0.000000 -0.000003 0.000000 
0.000000 0.000000 0.000000 

0.000007 0.000046 0.000000 
0.000000 0.000009 0.000000 
0.000000 0.000000 0.000000 

0.000006 0.000035 0.000000 
0.000000 -0.000013 0.000000 
0.000000 0.000000 0.000000 

0.000014 0.000056 0.000000 
0.000000 -0.000022 0.000000 
0.000000 0.000000 0.000000 

0.000032 0.000037 0.000000 
0.000000 -0.000035 0.000000 
0.000000 0.000000 0.000000 

0.000002 0.000000 0.000000 
0.000000 -0.000003 0.000000 
0.000000 0.000000 0.000000 

0.000001 0.000000 0.000000 
0.000000 -0.000004 0.000000 
0.000000 0.000000 0.000000 

0.000001 0.000002 0.000000 
0.000000 -0.000005 0.000000 
0.000000 0.000000 0.000000 

0.000001 0.000003 0.000000 
0.000000 -0.000006 0.000000 
0.000000 0.000000 0.000000 

0.000001 0.000003 0.000000 
0.000000 -0.000008 0.000000 
0.000000 0.000000 0.000000 

0.000001 0.000004 0.000000 
0.000000 -0.000008 0.000000 
0.000000 0.000000 0.000000 

0.000011 0.000008 0.000000 
0.000000 -0.000011 0.000000 
0.000000 0.000000 0.000000 

0.000017 0.000017 0.000000 
0.000000 -0.000040 0.000000 
0.000000 0.000000 0.000000 

0.000017 0.000006 0.000000 
0.000000 -0.000050 0.000000 
0.000000 0.000000 0.000000 

