# vtk DataFile Version 3.0 
vtk output 
ASCII 
DATASET UNSTRUCTURED_GRID 
POINTS 175 float 
-0.026061 -1.102995 0.000000 
-0.106992 -1.034940 0.000000 
-0.054870 -1.043172 0.000000 
-0.028809 -0.997289 0.000000 
-0.186430 -0.970864 0.000000 
-0.137056 -0.973390 0.000000 
-0.114311 -0.919743 0.000000 
-0.058186 -0.935409 0.000000 
-0.029377 -0.895231 0.000000 
-0.265318 -0.907708 0.000000 
-0.217198 -0.908508 0.000000 
-0.196633 -0.851211 0.000000 
-0.143120 -0.859920 0.000000 
-0.116563 -0.812652 0.000000 
-0.058945 -0.832297 0.000000 
-0.029568 -0.794177 0.000000 
-0.344206 -0.844553 0.000000 
-0.296791 -0.844545 0.000000 
-0.278030 -0.784603 0.000000 
-0.225992 -0.790469 0.000000 
-0.201664 -0.738352 0.000000 
-0.145749 -0.751826 0.000000 
-0.117890 -0.707483 0.000000 
-0.059328 -0.730189 0.000000 
-0.029759 -0.693123 0.000000 
-0.058559 -1.143746 0.000000 
-0.162226 -1.164589 0.000000 
-0.123292 -1.128971 0.000000 
-0.142917 -1.079987 0.000000 
-0.261851 -1.186745 0.000000 
-0.229092 -1.149718 0.000000 
-0.256854 -1.098486 0.000000 
-0.209613 -1.064374 0.000000 
-0.223062 -1.016800 0.000000 
-0.360414 -1.209045 0.000000 
-0.329787 -1.171922 0.000000 
-0.361761 -1.120120 0.000000 
-0.321587 -1.083711 0.000000 
-0.341985 -1.033477 0.000000 
-0.290702 -1.000678 0.000000 
-0.302189 -0.953943 0.000000 
-0.458977 -1.231345 0.000000 
-0.429420 -1.194270 0.000000 
-0.464588 -1.142229 0.000000 
-0.427556 -1.105201 0.000000 
-0.453135 -1.053686 0.000000 
-0.407738 -1.018371 0.000000 
-0.425037 -0.968943 0.000000 
-0.370772 -0.937314 0.000000 
-0.381315 -0.891086 0.000000 
-0.046960 -1.194561 0.000000 
-0.095301 -1.288607 0.000000 
-0.098873 -1.235960 0.000000 
-0.149405 -1.220762 0.000000 
-0.140093 -1.380311 0.000000 
-0.148617 -1.331613 0.000000 
-0.205981 -1.321376 0.000000 
-0.203197 -1.263172 0.000000 
-0.248777 -1.244026 0.000000 
-0.184111 -1.471275 0.000000 
-0.194039 -1.424184 0.000000 
-0.254475 -1.416884 0.000000 
-0.257893 -1.362774 0.000000 
-0.309886 -1.347402 0.000000 
-0.303554 -1.286857 0.000000 
-0.347255 -1.266699 0.000000 
-0.228129 -1.562238 0.000000 
-0.238687 -1.516014 0.000000 
-0.301302 -1.511062 0.000000 
-0.307162 -1.459023 0.000000 
-0.363386 -1.446902 0.000000 
-0.362692 -1.389391 0.000000 
-0.412122 -1.372098 0.000000 
-0.403017 -1.309951 0.000000 
-0.445733 -1.289372 0.000000 
-0.000000 -1.217176 0.000000 
0.043388 -1.313607 0.000000 
-0.000000 -1.283574 0.000000 
-0.043388 -1.313607 0.000000 
0.087158 -1.405803 0.000000 
0.043769 -1.382105 0.000000 
-0.000000 -1.420571 0.000000 
-0.043769 -1.382105 0.000000 
-0.087158 -1.405803 0.000000 
0.130831 -1.496933 0.000000 
0.087824 -1.475334 0.000000 
0.044436 -1.518034 0.000000 
-0.000000 -1.486969 0.000000 
-0.044436 -1.518034 0.000000 
-0.087824 -1.475334 0.000000 
-0.130831 -1.496933 0.000000 
0.174505 -1.588063 0.000000 
0.131782 -1.567497 0.000000 
0.088871 -1.613363 0.000000 
0.044532 -1.585499 0.000000 
-0.000000 -1.621899 0.000000 
-0.044532 -1.585499 0.000000 
-0.088871 -1.613363 0.000000 
-0.131782 -1.567497 0.000000 
-0.174505 -1.588063 0.000000 
0.046960 -1.194561 0.000000 
0.149405 -1.220762 0.000000 
0.098873 -1.235960 0.000000 
0.095301 -1.288607 0.000000 
0.248777 -1.244026 0.000000 
0.203197 -1.263172 0.000000 
0.205981 -1.321376 0.000000 
0.148617 -1.331613 0.000000 
0.140093 -1.380311 0.000000 
0.347255 -1.266699 0.000000 
0.303554 -1.286857 0.000000 
0.309886 -1.347402 0.000000 
0.257893 -1.362774 0.000000 
0.254475 -1.416884 0.000000 
0.194039 -1.424184 0.000000 
0.184111 -1.471275 0.000000 
0.445733 -1.289372 0.000000 
0.403017 -1.309951 0.000000 
0.412122 -1.372098 0.000000 
0.362692 -1.389391 0.000000 
0.363386 -1.446902 0.000000 
0.307162 -1.459023 0.000000 
0.301302 -1.511062 0.000000 
0.238687 -1.516014 0.000000 
0.228129 -1.562238 0.000000 
0.058559 -1.143746 0.000000 
0.142917 -1.079987 0.000000 
0.123292 -1.128971 0.000000 
0.162226 -1.164589 0.000000 
0.223062 -1.016800 0.000000 
0.209613 -1.064374 0.000000 
0.256854 -1.098486 0.000000 
0.229092 -1.149718 0.000000 
0.261851 -1.186745 0.000000 
0.302189 -0.953943 0.000000 
0.290702 -1.000678 0.000000 
0.341985 -1.033477 0.000000 
0.321587 -1.083711 0.000000 
0.361761 -1.120120 0.000000 
0.329787 -1.171922 0.000000 
0.360414 -1.209045 0.000000 
0.381315 -0.891086 0.000000 
0.370772 -0.937314 0.000000 
0.425037 -0.968943 0.000000 
0.407738 -1.018371 0.000000 
0.453135 -1.053686 0.000000 
0.427556 -1.105201 0.000000 
0.464588 -1.142229 0.000000 
0.429420 -1.194270 0.000000 
0.458977 -1.231345 0.000000 
0.026061 -1.102995 0.000000 
0.028809 -0.997289 0.000000 
0.054870 -1.043172 0.000000 
0.106992 -1.034940 0.000000 
0.029377 -0.895231 0.000000 
0.058186 -0.935409 0.000000 
0.114311 -0.919743 0.000000 
0.137056 -0.973390 0.000000 
0.186430 -0.970864 0.000000 
0.029568 -0.794177 0.000000 
0.058945 -0.832297 0.000000 
0.116563 -0.812652 0.000000 
0.143120 -0.859920 0.000000 
0.196633 -0.851211 0.000000 
0.217198 -0.908508 0.000000 
0.265318 -0.907708 0.000000 
0.029759 -0.693123 0.000000 
0.059328 -0.730189 0.000000 
0.117890 -0.707483 0.000000 
0.145749 -0.751826 0.000000 
0.201664 -0.738352 0.000000 
0.225992 -0.790469 0.000000 
0.278030 -0.784603 0.000000 
0.296791 -0.844545 0.000000 
0.344206 -0.844553 0.000000 
CELLS 175 350 
1 0 
1 1 
1 2 
1 3 
1 4 
1 5 
1 6 
1 7 
1 8 
1 9 
1 10 
1 11 
1 12 
1 13 
1 14 
1 15 
1 16 
1 17 
1 18 
1 19 
1 20 
1 21 
1 22 
1 23 
1 24 
1 25 
1 26 
1 27 
1 28 
1 29 
1 30 
1 31 
1 32 
1 33 
1 34 
1 35 
1 36 
1 37 
1 38 
1 39 
1 40 
1 41 
1 42 
1 43 
1 44 
1 45 
1 46 
1 47 
1 48 
1 49 
1 50 
1 51 
1 52 
1 53 
1 54 
1 55 
1 56 
1 57 
1 58 
1 59 
1 60 
1 61 
1 62 
1 63 
1 64 
1 65 
1 66 
1 67 
1 68 
1 69 
1 70 
1 71 
1 72 
1 73 
1 74 
1 75 
1 76 
1 77 
1 78 
1 79 
1 80 
1 81 
1 82 
1 83 
1 84 
1 85 
1 86 
1 87 
1 88 
1 89 
1 90 
1 91 
1 92 
1 93 
1 94 
1 95 
1 96 
1 97 
1 98 
1 99 
1 100 
1 101 
1 102 
1 103 
1 104 
1 105 
1 106 
1 107 
1 108 
1 109 
1 110 
1 111 
1 112 
1 113 
1 114 
1 115 
1 116 
1 117 
1 118 
1 119 
1 120 
1 121 
1 122 
1 123 
1 124 
1 125 
1 126 
1 127 
1 128 
1 129 
1 130 
1 131 
1 132 
1 133 
1 134 
1 135 
1 136 
1 137 
1 138 
1 139 
1 140 
1 141 
1 142 
1 143 
1 144 
1 145 
1 146 
1 147 
1 148 
1 149 
1 150 
1 151 
1 152 
1 153 
1 154 
1 155 
1 156 
1 157 
1 158 
1 159 
1 160 
1 161 
1 162 
1 163 
1 164 
1 165 
1 166 
1 167 
1 168 
1 169 
1 170 
1 171 
1 172 
1 173 
1 174 
CELL_TYPES 175 
1 
1 
1 
1 
1 
1 
1 
1 
1 
1 
1 
1 
1 
1 
1 
1 
1 
1 
1 
1 
1 
1 
1 
1 
1 
1 
1 
1 
1 
1 
1 
1 
1 
1 
1 
1 
1 
1 
1 
1 
1 
1 
1 
1 
1 
1 
1 
1 
1 
1 
1 
1 
1 
1 
1 
1 
1 
1 
1 
1 
1 
1 
1 
1 
1 
1 
1 
1 
1 
1 
1 
1 
1 
1 
1 
1 
1 
1 
1 
1 
1 
1 
1 
1 
1 
1 
1 
1 
1 
1 
1 
1 
1 
1 
1 
1 
1 
1 
1 
1 
1 
1 
1 
1 
1 
1 
1 
1 
1 
1 
1 
1 
1 
1 
1 
1 
1 
1 
1 
1 
1 
1 
1 
1 
1 
1 
1 
1 
1 
1 
1 
1 
1 
1 
1 
1 
1 
1 
1 
1 
1 
1 
1 
1 
1 
1 
1 
1 
1 
1 
1 
1 
1 
1 
1 
1 
1 
1 
1 
1 
1 
1 
1 
1 
1 
1 
1 
1 
1 
1 
1 
1 
1 
1 
1 
POINT_DATA 175 
VECTORS X_GC float 
-0.026061 -1.102995 0.000000 
-0.106992 -1.034940 0.000000 
-0.054870 -1.043172 0.000000 
-0.028809 -0.997289 0.000000 
-0.186430 -0.970864 0.000000 
-0.137056 -0.973390 0.000000 
-0.114311 -0.919743 0.000000 
-0.058186 -0.935409 0.000000 
-0.029377 -0.895231 0.000000 
-0.265318 -0.907708 0.000000 
-0.217198 -0.908508 0.000000 
-0.196633 -0.851211 0.000000 
-0.143120 -0.859920 0.000000 
-0.116563 -0.812652 0.000000 
-0.058945 -0.832297 0.000000 
-0.029568 -0.794177 0.000000 
-0.344206 -0.844553 0.000000 
-0.296791 -0.844545 0.000000 
-0.278030 -0.784603 0.000000 
-0.225992 -0.790469 0.000000 
-0.201664 -0.738352 0.000000 
-0.145749 -0.751826 0.000000 
-0.117890 -0.707483 0.000000 
-0.059328 -0.730189 0.000000 
-0.029759 -0.693123 0.000000 
-0.058559 -1.143746 0.000000 
-0.162226 -1.164589 0.000000 
-0.123292 -1.128971 0.000000 
-0.142917 -1.079987 0.000000 
-0.261851 -1.186745 0.000000 
-0.229092 -1.149718 0.000000 
-0.256854 -1.098486 0.000000 
-0.209613 -1.064374 0.000000 
-0.223062 -1.016800 0.000000 
-0.360414 -1.209045 0.000000 
-0.329787 -1.171922 0.000000 
-0.361761 -1.120120 0.000000 
-0.321587 -1.083711 0.000000 
-0.341985 -1.033477 0.000000 
-0.290702 -1.000678 0.000000 
-0.302189 -0.953943 0.000000 
-0.458977 -1.231345 0.000000 
-0.429420 -1.194270 0.000000 
-0.464588 -1.142229 0.000000 
-0.427556 -1.105201 0.000000 
-0.453135 -1.053686 0.000000 
-0.407738 -1.018371 0.000000 
-0.425037 -0.968943 0.000000 
-0.370772 -0.937314 0.000000 
-0.381315 -0.891086 0.000000 
-0.046960 -1.194561 0.000000 
-0.095301 -1.288607 0.000000 
-0.098873 -1.235960 0.000000 
-0.149405 -1.220762 0.000000 
-0.140093 -1.380311 0.000000 
-0.148617 -1.331613 0.000000 
-0.205981 -1.321376 0.000000 
-0.203197 -1.263172 0.000000 
-0.248777 -1.244026 0.000000 
-0.184111 -1.471275 0.000000 
-0.194039 -1.424184 0.000000 
-0.254475 -1.416884 0.000000 
-0.257893 -1.362774 0.000000 
-0.309886 -1.347402 0.000000 
-0.303554 -1.286857 0.000000 
-0.347255 -1.266699 0.000000 
-0.228129 -1.562238 0.000000 
-0.238687 -1.516014 0.000000 
-0.301302 -1.511062 0.000000 
-0.307162 -1.459023 0.000000 
-0.363386 -1.446902 0.000000 
-0.362692 -1.389391 0.000000 
-0.412122 -1.372098 0.000000 
-0.403017 -1.309951 0.000000 
-0.445733 -1.289372 0.000000 
-0.000000 -1.217176 0.000000 
0.043388 -1.313607 0.000000 
-0.000000 -1.283574 0.000000 
-0.043388 -1.313607 0.000000 
0.087158 -1.405803 0.000000 
0.043769 -1.382105 0.000000 
-0.000000 -1.420571 0.000000 
-0.043769 -1.382105 0.000000 
-0.087158 -1.405803 0.000000 
0.130831 -1.496933 0.000000 
0.087824 -1.475334 0.000000 
0.044436 -1.518034 0.000000 
-0.000000 -1.486969 0.000000 
-0.044436 -1.518034 0.000000 
-0.087824 -1.475334 0.000000 
-0.130831 -1.496933 0.000000 
0.174505 -1.588063 0.000000 
0.131782 -1.567497 0.000000 
0.088871 -1.613363 0.000000 
0.044532 -1.585499 0.000000 
-0.000000 -1.621899 0.000000 
-0.044532 -1.585499 0.000000 
-0.088871 -1.613363 0.000000 
-0.131782 -1.567497 0.000000 
-0.174505 -1.588063 0.000000 
0.046960 -1.194561 0.000000 
0.149405 -1.220762 0.000000 
0.098873 -1.235960 0.000000 
0.095301 -1.288607 0.000000 
0.248777 -1.244026 0.000000 
0.203197 -1.263172 0.000000 
0.205981 -1.321376 0.000000 
0.148617 -1.331613 0.000000 
0.140093 -1.380311 0.000000 
0.347255 -1.266699 0.000000 
0.303554 -1.286857 0.000000 
0.309886 -1.347402 0.000000 
0.257893 -1.362774 0.000000 
0.254475 -1.416884 0.000000 
0.194039 -1.424184 0.000000 
0.184111 -1.471275 0.000000 
0.445733 -1.289372 0.000000 
0.403017 -1.309951 0.000000 
0.412122 -1.372098 0.000000 
0.362692 -1.389391 0.000000 
0.363386 -1.446902 0.000000 
0.307162 -1.459023 0.000000 
0.301302 -1.511062 0.000000 
0.238687 -1.516014 0.000000 
0.228129 -1.562238 0.000000 
0.058559 -1.143746 0.000000 
0.142917 -1.079987 0.000000 
0.123292 -1.128971 0.000000 
0.162226 -1.164589 0.000000 
0.223062 -1.016800 0.000000 
0.209613 -1.064374 0.000000 
0.256854 -1.098486 0.000000 
0.229092 -1.149718 0.000000 
0.261851 -1.186745 0.000000 
0.302189 -0.953943 0.000000 
0.290702 -1.000678 0.000000 
0.341985 -1.033477 0.000000 
0.321587 -1.083711 0.000000 
0.361761 -1.120120 0.000000 
0.329787 -1.171922 0.000000 
0.360414 -1.209045 0.000000 
0.381315 -0.891086 0.000000 
0.370772 -0.937314 0.000000 
0.425037 -0.968943 0.000000 
0.407738 -1.018371 0.000000 
0.453135 -1.053686 0.000000 
0.427556 -1.105201 0.000000 
0.464588 -1.142229 0.000000 
0.429420 -1.194270 0.000000 
0.458977 -1.231345 0.000000 
0.026061 -1.102995 0.000000 
0.028809 -0.997289 0.000000 
0.054870 -1.043172 0.000000 
0.106992 -1.034940 0.000000 
0.029377 -0.895231 0.000000 
0.058186 -0.935409 0.000000 
0.114311 -0.919743 0.000000 
0.137056 -0.973390 0.000000 
0.186430 -0.970864 0.000000 
0.029568 -0.794177 0.000000 
0.058945 -0.832297 0.000000 
0.116563 -0.812652 0.000000 
0.143120 -0.859920 0.000000 
0.196633 -0.851211 0.000000 
0.217198 -0.908508 0.000000 
0.265318 -0.907708 0.000000 
0.029759 -0.693123 0.000000 
0.059328 -0.730189 0.000000 
0.117890 -0.707483 0.000000 
0.145749 -0.751826 0.000000 
0.201664 -0.738352 0.000000 
0.225992 -0.790469 0.000000 
0.278030 -0.784603 0.000000 
0.296791 -0.844545 0.000000 
0.344206 -0.844553 0.000000 
VECTORS X_EC float 
0.338794 -0.609565 0.000000 
-0.609100 0.471686 0.000000 
0.713312 0.582827 0.000000 
0.374519 -0.036603 0.000000 
0.423588 -0.393333 0.000000 
-0.218274 -0.359230 0.000000 
-0.513962 0.916531 0.000000 
0.756418 -0.871982 0.000000 
0.381900 0.585625 0.000000 
-0.550868 0.754064 0.000000 
0.823577 0.764859 0.000000 
0.556234 -0.008645 0.000000 
-0.139443 0.108924 0.000000 
-0.484677 -0.529201 0.000000 
0.766286 -0.263985 0.000000 
0.384386 -0.778606 0.000000 
0.474677 -0.098540 0.000000 
-0.141715 -0.098636 0.000000 
-0.385608 -0.907864 0.000000 
0.937896 -0.828669 0.000000 
0.621631 0.467751 0.000000 
-0.105264 0.649651 0.000000 
-0.467428 0.051024 0.000000 
0.771260 0.357553 0.000000 
0.386873 -0.142837 0.000000 
0.761262 -0.059431 0.000000 
0.108942 0.221946 0.000000 
-0.397202 -0.258894 0.000000 
-0.142083 -0.920169 0.000000 
-0.595936 0.521056 0.000000 
0.978194 0.021190 0.000000 
-0.660903 -0.670435 0.000000 
0.724964 0.869045 0.000000 
0.899809 0.226797 0.000000 
0.685384 0.822108 0.000000 
0.287229 0.320950 0.000000 
0.702895 -0.378379 0.000000 
0.180633 -0.869897 0.000000 
0.445811 0.451943 0.000000 
-0.220880 0.009157 0.000000 
-0.071546 -0.621768 0.000000 
-0.033296 -0.876839 0.000000 
-0.417537 0.622651 0.000000 
0.039645 -0.079911 0.000000 
-0.441768 -0.579783 0.000000 
-0.109248 0.724767 0.000000 
-0.699407 0.248011 0.000000 
-0.474522 -0.419268 0.000000 
0.820030 -0.846262 0.000000 
0.957100 0.529667 0.000000 
0.610485 0.626575 0.000000 
-0.761092 -0.103805 0.000000 
-0.714655 -0.814543 0.000000 
-0.057734 0.980290 0.000000 
-0.178789 -0.865801 0.000000 
-0.067979 0.476773 0.000000 
0.677748 0.338569 0.000000 
0.641556 -0.447176 0.000000 
-0.765897 -0.705654 0.000000 
0.393446 0.362208 0.000000 
0.522510 -0.273522 0.000000 
-0.691820 -0.372066 0.000000 
-0.647393 0.897451 0.000000 
0.028512 0.689925 0.000000 
-0.053800 -0.127436 0.000000 
0.514316 -0.399567 0.000000 
0.965681 -0.409783 0.000000 
-0.897068 0.966188 0.000000 
-0.083078 0.899335 0.000000 
-0.006893 0.196811 0.000000 
0.724017 0.033178 0.000000 
0.714996 -0.743226 0.000000 
-0.642413 -0.976683 0.000000 
-0.760780 0.184336 0.000000 
-0.205471 -0.093479 0.000000 
0.000000 0.931877 0.000000 
-0.564049 0.233690 0.000000 
0.000000 -0.171746 0.000000 
0.564049 0.233690 0.000000 
0.866949 -0.521655 0.000000 
-0.569003 -0.841586 0.000000 
0.000000 -0.322298 0.000000 
0.569003 -0.841586 0.000000 
-0.866949 -0.521655 0.000000 
0.299194 0.708595 0.000000 
0.858290 0.417011 0.000000 
-0.577662 0.993457 0.000000 
0.000000 0.574079 0.000000 
0.577662 0.993457 0.000000 
-0.858290 0.417011 0.000000 
-0.299194 0.708595 0.000000 
-0.268560 -0.061155 0.000000 
0.286830 -0.338796 0.000000 
0.844677 0.280402 0.000000 
-0.578910 -0.095761 0.000000 
0.000000 0.395643 0.000000 
0.578910 -0.095761 0.000000 
-0.844677 0.280402 0.000000 
-0.286830 -0.338796 0.000000 
0.268560 -0.061155 0.000000 
-0.610485 0.626575 0.000000 
0.057734 0.980290 0.000000 
0.714655 -0.814543 0.000000 
0.761092 -0.103805 0.000000 
0.765897 -0.705654 0.000000 
-0.641556 -0.447176 0.000000 
-0.677748 0.338569 0.000000 
0.067979 0.476773 0.000000 
0.178789 -0.865801 0.000000 
-0.514316 -0.399567 0.000000 
0.053800 -0.127436 0.000000 
-0.028512 0.689925 0.000000 
0.647393 0.897451 0.000000 
0.691820 -0.372066 0.000000 
-0.522510 -0.273522 0.000000 
-0.393446 0.362208 0.000000 
0.205471 -0.093479 0.000000 
0.760780 0.184336 0.000000 
0.642413 -0.976683 0.000000 
-0.714996 -0.743226 0.000000 
-0.724017 0.033178 0.000000 
0.006894 0.196811 0.000000 
0.083078 0.899335 0.000000 
0.897068 0.966188 0.000000 
-0.965681 -0.409783 0.000000 
-0.761262 -0.059431 0.000000 
0.142083 -0.920169 0.000000 
0.397202 -0.258894 0.000000 
-0.108942 0.221946 0.000000 
-0.899809 0.226797 0.000000 
-0.724964 0.869045 0.000000 
0.660903 -0.670435 0.000000 
-0.978194 0.021190 0.000000 
0.595936 0.521056 0.000000 
0.071546 -0.621768 0.000000 
0.220880 0.009157 0.000000 
-0.445811 0.451943 0.000000 
-0.180633 -0.869897 0.000000 
-0.702895 -0.378378 0.000000 
-0.287229 0.320950 0.000000 
-0.685384 0.822108 0.000000 
-0.957100 0.529667 0.000000 
-0.820030 -0.846262 0.000000 
0.474522 -0.419268 0.000000 
0.699407 0.248011 0.000000 
0.109248 0.724767 0.000000 
0.441768 -0.579783 0.000000 
-0.039645 -0.079911 0.000000 
0.417537 0.622651 0.000000 
0.033296 -0.876839 0.000000 
-0.338794 -0.609565 0.000000 
-0.374519 -0.036603 0.000000 
-0.713312 0.582827 0.000000 
0.609100 0.471686 0.000000 
-0.381900 0.585625 0.000000 
-0.756418 -0.871982 0.000000 
0.513962 0.916531 0.000000 
0.218274 -0.359230 0.000000 
-0.423588 -0.393333 0.000000 
-0.384386 -0.778606 0.000000 
-0.766286 -0.263985 0.000000 
0.484677 -0.529201 0.000000 
0.139443 0.108924 0.000000 
-0.556234 -0.008645 0.000000 
-0.823577 0.764859 0.000000 
0.550868 0.754064 0.000000 
-0.386873 -0.142837 0.000000 
-0.771260 0.357553 0.000000 
0.467428 0.051024 0.000000 
0.105264 0.649651 0.000000 
-0.621631 0.467751 0.000000 
-0.937896 -0.828669 0.000000 
0.385608 -0.907864 0.000000 
0.141715 -0.098636 0.000000 
-0.474677 -0.098540 0.000000 
CELL_DATA 175 
SCALARS MASS float 
LOOKUP_TABLE default 
0.781831 
0.864274 
0.946717 
0.864274 
0.881307 
0.921110 
0.858535 
0.921110 
0.881307 
0.887046 
0.910001 
0.869829 
0.915556 
0.869829 
0.910001 
0.887046 
0.892784 
0.915740 
0.892784 
0.927218 
0.892784 
0.927218 
0.892784 
0.915740 
0.892784 
0.781831 
0.864274 
0.946717 
0.864274 
0.881307 
0.921110 
0.858535 
0.921110 
0.881307 
0.887046 
0.910001 
0.869829 
0.915556 
0.869829 
0.910001 
0.887046 
0.892784 
0.915740 
0.892784 
0.927218 
0.892784 
0.927218 
0.892784 
0.915740 
0.892784 
0.781831 
0.864274 
0.946717 
0.864274 
0.881307 
0.921110 
0.858535 
0.921110 
0.881307 
0.887046 
0.910001 
0.869829 
0.915556 
0.869829 
0.910001 
0.887046 
0.892784 
0.915740 
0.892784 
0.927218 
0.892784 
0.927218 
0.892784 
0.915740 
0.892784 
0.781831 
0.864274 
0.946717 
0.864274 
0.881307 
0.921110 
0.858535 
0.921110 
0.881307 
0.887046 
0.910001 
0.869829 
0.915556 
0.869829 
0.910001 
0.887046 
0.892784 
0.915740 
0.892784 
0.927218 
0.892784 
0.927218 
0.892784 
0.915740 
0.892784 
0.781831 
0.864274 
0.946717 
0.864274 
0.881307 
0.921110 
0.858535 
0.921110 
0.881307 
0.887046 
0.910001 
0.869829 
0.915556 
0.869829 
0.910001 
0.887046 
0.892784 
0.915740 
0.892784 
0.927218 
0.892784 
0.927218 
0.892784 
0.915740 
0.892784 
0.781831 
0.864274 
0.946717 
0.864274 
0.881307 
0.921110 
0.858535 
0.921110 
0.881307 
0.887046 
0.910001 
0.869829 
0.915556 
0.869829 
0.910001 
0.887046 
0.892784 
0.915740 
0.892784 
0.927218 
0.892784 
0.927218 
0.892784 
0.915740 
0.892784 
0.781831 
0.864274 
0.946717 
0.864274 
0.881307 
0.921110 
0.858535 
0.921110 
0.881307 
0.887046 
0.910001 
0.869829 
0.915556 
0.869829 
0.910001 
0.887046 
0.892784 
0.915740 
0.892784 
0.927218 
0.892784 
0.927218 
0.892784 
0.915740 
0.892784 
SCALARS MASS float 
LOOKUP_TABLE default 
0.781831 
0.864274 
0.946717 
0.864274 
0.881307 
0.921110 
0.858535 
0.921110 
0.881307 
0.887046 
0.910001 
0.869829 
0.915556 
0.869829 
0.910001 
0.887046 
0.892784 
0.915740 
0.892784 
0.927218 
0.892784 
0.927218 
0.892784 
0.915740 
0.892784 
0.781831 
0.864274 
0.946717 
0.864274 
0.881307 
0.921110 
0.858535 
0.921110 
0.881307 
0.887046 
0.910001 
0.869829 
0.915556 
0.869829 
0.910001 
0.887046 
0.892784 
0.915740 
0.892784 
0.927218 
0.892784 
0.927218 
0.892784 
0.915740 
0.892784 
0.781831 
0.864274 
0.946717 
0.864274 
0.881307 
0.921110 
0.858535 
0.921110 
0.881307 
0.887046 
0.910001 
0.869829 
0.915556 
0.869829 
0.910001 
0.887046 
0.892784 
0.915740 
0.892784 
0.927218 
0.892784 
0.927218 
0.892784 
0.915740 
0.892784 
0.781831 
0.864274 
0.946717 
0.864274 
0.881307 
0.921110 
0.858535 
0.921110 
0.881307 
0.887046 
0.910001 
0.869829 
0.915556 
0.869829 
0.910001 
0.887046 
0.892784 
0.915740 
0.892784 
0.927218 
0.892784 
0.927218 
0.892784 
0.915740 
0.892784 
0.781831 
0.864274 
0.946717 
0.864274 
0.881307 
0.921110 
0.858535 
0.921110 
0.881307 
0.887046 
0.910001 
0.869829 
0.915556 
0.869829 
0.910001 
0.887046 
0.892784 
0.915740 
0.892784 
0.927218 
0.892784 
0.927218 
0.892784 
0.915740 
0.892784 
0.781831 
0.864274 
0.946717 
0.864274 
0.881307 
0.921110 
0.858535 
0.921110 
0.881307 
0.887046 
0.910001 
0.869829 
0.915556 
0.869829 
0.910001 
0.887046 
0.892784 
0.915740 
0.892784 
0.927218 
0.892784 
0.927218 
0.892784 
0.915740 
0.892784 
0.781831 
0.864274 
0.946717 
0.864274 
0.881307 
0.921110 
0.858535 
0.921110 
0.881307 
0.887046 
0.910001 
0.869829 
0.915556 
0.869829 
0.910001 
0.887046 
0.892784 
0.915740 
0.892784 
0.927218 
0.892784 
0.927218 
0.892784 
0.915740 
0.892784 
SCALARS DENSITY float 
LOOKUP_TABLE default 
200.000000 
200.000000 
200.000000 
200.000000 
200.000000 
200.000000 
200.000000 
200.000000 
200.000000 
200.000000 
200.000000 
200.000000 
200.000000 
200.000000 
200.000000 
200.000000 
200.000000 
200.000000 
200.000000 
200.000000 
200.000000 
200.000000 
200.000000 
200.000000 
200.000000 
200.000000 
200.000000 
200.000000 
200.000000 
200.000000 
200.000000 
200.000000 
200.000000 
200.000000 
200.000000 
200.000000 
200.000000 
200.000000 
200.000000 
200.000000 
200.000000 
200.000000 
200.000000 
200.000000 
200.000000 
200.000000 
200.000000 
200.000000 
200.000000 
200.000000 
200.000000 
200.000000 
200.000000 
200.000000 
200.000000 
200.000000 
200.000000 
200.000000 
200.000000 
200.000000 
200.000000 
200.000000 
200.000000 
200.000000 
200.000000 
200.000000 
200.000000 
200.000000 
200.000000 
200.000000 
200.000000 
200.000000 
200.000000 
200.000000 
200.000000 
200.000000 
200.000000 
200.000000 
200.000000 
200.000000 
200.000000 
200.000000 
200.000000 
200.000000 
200.000000 
200.000000 
200.000000 
200.000000 
200.000000 
200.000000 
200.000000 
200.000000 
200.000000 
200.000000 
200.000000 
200.000000 
200.000000 
200.000000 
200.000000 
200.000000 
200.000000 
200.000000 
200.000000 
200.000000 
200.000000 
200.000000 
200.000000 
200.000000 
200.000000 
200.000000 
200.000000 
200.000000 
200.000000 
200.000000 
200.000000 
200.000000 
200.000000 
200.000000 
200.000000 
200.000000 
200.000000 
200.000000 
200.000000 
200.000000 
200.000000 
200.000000 
200.000000 
200.000000 
200.000000 
200.000000 
200.000000 
200.000000 
200.000000 
200.000000 
200.000000 
200.000000 
200.000000 
200.000000 
200.000000 
200.000000 
200.000000 
200.000000 
200.000000 
200.000000 
200.000000 
200.000000 
200.000000 
200.000000 
200.000000 
200.000000 
200.000000 
200.000000 
200.000000 
200.000000 
200.000000 
200.000000 
200.000000 
200.000000 
200.000000 
200.000000 
200.000000 
200.000000 
200.000000 
200.000000 
200.000000 
200.000000 
200.000000 
200.000000 
200.000000 
200.000000 
200.000000 
200.000000 
200.000000 
200.000000 
200.000000 
SCALARS ELEM_i float 
LOOKUP_TABLE default 
174 
202 
175 
175 
202 
202 
203 
175 
176 
230 
203 
203 
203 
203 
176 
176 
230 
230 
230 
203 
204 
204 
204 
177 
177 
174 
201 
201 
201 
228 
201 
228 
202 
202 
228 
228 
228 
228 
229 
229 
229 
254 
255 
255 
255 
256 
256 
256 
229 
230 
174 
200 
200 
201 
199 
200 
200 
200 
227 
199 
199 
226 
227 
227 
227 
227 
198 
226 
226 
226 
226 
226 
253 
254 
254 
174 
173 
173 
173 
145 
172 
172 
172 
199 
145 
145 
172 
172 
172 
199 
199 
144 
144 
144 
171 
171 
171 
198 
198 
198 
174 
147 
146 
146 
119 
146 
146 
146 
145 
119 
119 
119 
119 
118 
145 
145 
92 
92 
91 
118 
118 
118 
118 
118 
144 
174 
147 
147 
147 
148 
148 
120 
147 
120 
121 
121 
121 
120 
120 
120 
120 
122 
121 
94 
94 
94 
93 
93 
93 
92 
174 
175 
175 
148 
176 
175 
149 
148 
148 
176 
176 
149 
149 
149 
149 
122 
177 
177 
150 
150 
150 
149 
122 
122 
122 
VECTORS VELOCITY float 
0.000000 -4.763736 0.000000 
-0.000000 -4.763736 0.000000 
-0.000000 -4.763736 0.000000 
0.000000 -4.763736 0.000000 
0.000000 -4.763736 0.000000 
0.000000 -4.763736 0.000000 
0.000000 -4.763736 0.000000 
0.000000 -4.763736 0.000000 
0.000000 -4.763736 0.000000 
0.000000 -4.763736 0.000000 
0.000000 -4.763736 0.000000 
0.000000 -4.763736 0.000000 
0.000000 -4.763736 0.000000 
0.000000 -4.763736 0.000000 
0.000000 -4.763736 0.000000 
-0.000000 -4.763736 0.000000 
0.000000 -4.763736 0.000000 
0.000000 -4.763736 0.000000 
0.000000 -4.763736 0.000000 
0.000000 -4.763736 0.000000 
0.000000 -4.763736 0.000000 
0.000000 -4.763736 0.000000 
-0.000000 -4.763736 0.000000 
-0.000000 -4.763736 0.000000 
0.000000 -4.763736 0.000000 
0.000000 -4.763736 0.000000 
0.000000 -4.763736 0.000000 
0.000000 -4.763736 0.000000 
0.000000 -4.763736 0.000000 
-0.000000 -4.763736 0.000000 
-0.000000 -4.763736 0.000000 
0.000000 -4.763736 0.000000 
-0.000000 -4.763736 0.000000 
0.000000 -4.763736 0.000000 
-0.000000 -4.763736 0.000000 
0.000000 -4.763736 0.000000 
0.000000 -4.763736 0.000000 
0.000000 -4.763736 0.000000 
0.000000 -4.763736 0.000000 
0.000000 -4.763736 0.000000 
0.000000 -4.763736 0.000000 
0.000000 -4.763736 0.000000 
0.000000 -4.763736 0.000000 
0.000000 -4.763736 0.000000 
0.000000 -4.763736 0.000000 
-0.000000 -4.763736 0.000000 
0.000000 -4.763736 0.000000 
-0.000000 -4.763736 0.000000 
0.000000 -4.763736 0.000000 
0.000000 -4.763736 0.000000 
0.000000 -4.763736 0.000000 
-0.000000 -4.763736 0.000000 
0.000000 -4.763736 0.000000 
-0.000000 -4.763736 0.000000 
0.000000 -4.763736 0.000000 
0.000000 -4.763736 0.000000 
0.000000 -4.763736 0.000000 
-0.000000 -4.763736 0.000000 
-0.000000 -4.763736 0.000000 
-0.000000 -4.763736 0.000000 
-0.000000 -4.763736 0.000000 
-0.000000 -4.763736 0.000000 
0.000000 -4.763736 0.000000 
0.000000 -4.763736 0.000000 
-0.000000 -4.763736 0.000000 
-0.000000 -4.763736 0.000000 
-0.000000 -4.763736 0.000000 
-0.000000 -4.763736 0.000000 
-0.000000 -4.763736 0.000000 
-0.000000 -4.763736 0.000000 
-0.000000 -4.763736 0.000000 
-0.000000 -4.763736 0.000000 
-0.000000 -4.763736 0.000000 
-0.000000 -4.763736 0.000000 
0.000000 -4.763736 0.000000 
0.000000 -4.763736 0.000000 
-0.000000 -4.763736 0.000000 
-0.000000 -4.763736 0.000000 
-0.000000 -4.763736 0.000000 
0.000000 -4.763736 0.000000 
-0.000000 -4.763736 0.000000 
0.000000 -4.763736 0.000000 
-0.000000 -4.763736 0.000000 
-0.000000 -4.763736 0.000000 
-0.000000 -4.763736 0.000000 
-0.000000 -4.763736 0.000000 
-0.000000 -4.763736 0.000000 
-0.000000 -4.763736 0.000000 
0.000000 -4.763736 0.000000 
0.000000 -4.763736 0.000000 
-0.000000 -4.763736 0.000000 
-0.000000 -4.763736 0.000000 
-0.000000 -4.763736 0.000000 
0.000000 -4.763736 0.000000 
-0.000000 -4.763736 0.000000 
0.000000 -4.763736 0.000000 
-0.000000 -4.763736 0.000000 
-0.000000 -4.763736 0.000000 
0.000000 -4.763736 0.000000 
-0.000000 -4.763736 0.000000 
0.000000 -4.763736 0.000000 
-0.000000 -4.763736 0.000000 
-0.000000 -4.763736 0.000000 
-0.000000 -4.763736 0.000000 
-0.000000 -4.763736 0.000000 
-0.000000 -4.763736 0.000000 
-0.000000 -4.763736 0.000000 
-0.000000 -4.763736 0.000000 
-0.000000 -4.763736 0.000000 
-0.000000 -4.763736 0.000000 
-0.000000 -4.763736 0.000000 
0.000000 -4.763736 0.000000 
0.000000 -4.763736 0.000000 
-0.000000 -4.763736 0.000000 
-0.000000 -4.763736 0.000000 
-0.000000 -4.763736 0.000000 
-0.000000 -4.763736 0.000000 
0.000000 -4.763736 0.000000 
0.000000 -4.763736 0.000000 
0.000000 -4.763736 0.000000 
-0.000000 -4.763736 0.000000 
-0.000000 -4.763736 0.000000 
-0.000000 -4.763736 0.000000 
-0.000000 -4.763736 0.000000 
-0.000000 -4.763736 0.000000 
-0.000000 -4.763736 0.000000 
-0.000000 -4.763736 0.000000 
-0.000000 -4.763736 0.000000 
-0.000000 -4.763736 0.000000 
-0.000000 -4.763736 0.000000 
-0.000000 -4.763736 0.000000 
-0.000000 -4.763736 0.000000 
0.000000 -4.763736 0.000000 
-0.000000 -4.763736 0.000000 
-0.000000 -4.763736 0.000000 
-0.000000 -4.763736 0.000000 
-0.000000 -4.763736 0.000000 
0.000000 -4.763736 0.000000 
0.000000 -4.763736 0.000000 
-0.000000 -4.763736 0.000000 
-0.000000 -4.763736 0.000000 
-0.000000 -4.763736 0.000000 
-0.000000 -4.763736 0.000000 
0.000000 -4.763736 0.000000 
0.000000 -4.763736 0.000000 
-0.000000 -4.763736 0.000000 
-0.000000 -4.763736 0.000000 
-0.000000 -4.763736 0.000000 
-0.000000 -4.763736 0.000000 
-0.000000 -4.763736 0.000000 
-0.000000 -4.763736 0.000000 
0.000000 -4.763736 0.000000 
-0.000000 -4.763736 0.000000 
-0.000000 -4.763736 0.000000 
0.000000 -4.763736 0.000000 
0.000000 -4.763736 0.000000 
0.000000 -4.763736 0.000000 
0.000000 -4.763736 0.000000 
-0.000000 -4.763736 0.000000 
0.000000 -4.763736 0.000000 
0.000000 -4.763736 0.000000 
0.000000 -4.763736 0.000000 
0.000000 -4.763736 0.000000 
0.000000 -4.763736 0.000000 
-0.000000 -4.763736 0.000000 
-0.000000 -4.763736 0.000000 
0.000000 -4.763736 0.000000 
0.000000 -4.763736 0.000000 
0.000000 -4.763736 0.000000 
0.000000 -4.763736 0.000000 
0.000000 -4.763736 0.000000 
0.000000 -4.763736 0.000000 
0.000000 -4.763736 0.000000 
0.000000 -4.763736 0.000000 
0.000000 -4.763736 0.000000 
TENSORS STRESS float 
-0.000000 -0.000000 0.000000 
0.000000 -0.000000 0.000000 
0.000000 0.000000 0.000000 

0.000000 0.000000 0.000000 
0.000000 0.000000 0.000000 
0.000000 0.000000 0.000000 

0.000000 0.000000 0.000000 
0.000000 0.000000 0.000000 
0.000000 0.000000 0.000000 

0.000000 0.000000 0.000000 
0.000000 0.000000 0.000000 
0.000000 0.000000 0.000000 

-0.000000 0.000000 0.000000 
0.000000 -0.000000 0.000000 
0.000000 0.000000 0.000000 

0.000000 0.000000 0.000000 
0.000000 0.000000 0.000000 
0.000000 0.000000 0.000000 

0.000000 -0.000000 0.000000 
0.000000 0.000000 0.000000 
0.000000 0.000000 0.000000 

-0.000000 -0.000000 0.000000 
0.000000 -0.000000 0.000000 
0.000000 0.000000 0.000000 

-0.000000 -0.000000 0.000000 
0.000000 -0.000000 0.000000 
0.000000 0.000000 0.000000 

0.000000 0.000000 0.000000 
0.000000 0.000000 0.000000 
0.000000 0.000000 0.000000 

0.000000 0.000000 0.000000 
0.000000 0.000000 0.000000 
0.000000 0.000000 0.000000 

0.000000 0.000000 0.000000 
0.000000 0.000000 0.000000 
0.000000 0.000000 0.000000 

0.000000 0.000000 0.000000 
0.000000 0.000000 0.000000 
0.000000 0.000000 0.000000 

0.000000 0.000000 0.000000 
0.000000 0.000000 0.000000 
0.000000 0.000000 0.000000 

0.000000 0.000000 0.000000 
0.000000 0.000000 0.000000 
0.000000 0.000000 0.000000 

-0.000000 0.000000 0.000000 
0.000000 -0.000000 0.000000 
0.000000 0.000000 0.000000 

0.000000 -0.000000 0.000000 
0.000000 0.000000 0.000000 
0.000000 0.000000 0.000000 

0.000000 -0.000000 0.000000 
0.000000 0.000000 0.000000 
0.000000 0.000000 0.000000 

-0.000000 -0.000000 0.000000 
0.000000 -0.000000 0.000000 
0.000000 0.000000 0.000000 

-0.000000 -0.000000 0.000000 
0.000000 -0.000000 0.000000 
0.000000 0.000000 0.000000 

0.000000 -0.000000 0.000000 
0.000000 0.000000 0.000000 
0.000000 0.000000 0.000000 

-0.000000 0.000000 0.000000 
0.000000 -0.000000 0.000000 
0.000000 0.000000 0.000000 

-0.000000 0.000000 0.000000 
0.000000 -0.000000 0.000000 
0.000000 0.000000 0.000000 

0.000000 0.000000 0.000000 
0.000000 0.000000 0.000000 
0.000000 0.000000 0.000000 

0.000000 0.000000 0.000000 
0.000000 0.000000 0.000000 
0.000000 0.000000 0.000000 

-0.000000 -0.000000 0.000000 
0.000000 -0.000000 0.000000 
0.000000 0.000000 0.000000 

-0.000000 0.000000 0.000000 
0.000000 -0.000000 0.000000 
0.000000 0.000000 0.000000 

0.000000 -0.000000 0.000000 
0.000000 0.000000 0.000000 
0.000000 0.000000 0.000000 

-0.000000 0.000000 0.000000 
0.000000 -0.000000 0.000000 
0.000000 0.000000 0.000000 

0.000000 0.000000 0.000000 
0.000000 0.000000 0.000000 
0.000000 0.000000 0.000000 

-0.000000 0.000000 0.000000 
0.000000 -0.000000 0.000000 
0.000000 0.000000 0.000000 

0.000000 0.000000 0.000000 
0.000000 0.000000 0.000000 
0.000000 0.000000 0.000000 

-0.000000 -0.000000 0.000000 
0.000000 -0.000000 0.000000 
0.000000 0.000000 0.000000 

-0.000000 0.000000 0.000000 
0.000000 -0.000000 0.000000 
0.000000 0.000000 0.000000 

0.000000 0.000000 0.000000 
0.000000 0.000000 0.000000 
0.000000 0.000000 0.000000 

0.000000 -0.000000 0.000000 
0.000000 -0.000000 0.000000 
0.000000 0.000000 0.000000 

0.000000 0.000000 0.000000 
0.000000 -0.000000 0.000000 
0.000000 0.000000 0.000000 

-0.000000 0.000000 0.000000 
0.000000 -0.000000 0.000000 
0.000000 0.000000 0.000000 

-0.000000 0.000000 0.000000 
0.000000 -0.000000 0.000000 
0.000000 0.000000 0.000000 

-0.000000 0.000000 0.000000 
0.000000 -0.000000 0.000000 
0.000000 0.000000 0.000000 

-0.000000 -0.000000 0.000000 
0.000000 -0.000000 0.000000 
0.000000 0.000000 0.000000 

0.000000 0.000000 0.000000 
0.000000 0.000000 0.000000 
0.000000 0.000000 0.000000 

0.000000 0.000000 0.000000 
0.000000 0.000000 0.000000 
0.000000 0.000000 0.000000 

-0.000000 0.000000 0.000000 
0.000000 -0.000000 0.000000 
0.000000 0.000000 0.000000 

0.000000 0.000000 0.000000 
0.000000 0.000000 0.000000 
0.000000 0.000000 0.000000 

0.000000 0.000000 0.000000 
0.000000 0.000000 0.000000 
0.000000 0.000000 0.000000 

-0.000000 0.000000 0.000000 
0.000000 -0.000000 0.000000 
0.000000 0.000000 0.000000 

-0.000000 -0.000000 0.000000 
0.000000 -0.000000 0.000000 
0.000000 0.000000 0.000000 

-0.000000 -0.000000 0.000000 
0.000000 -0.000000 0.000000 
0.000000 0.000000 0.000000 

-0.000000 -0.000000 0.000000 
0.000000 -0.000000 0.000000 
0.000000 0.000000 0.000000 

-0.000000 -0.000000 0.000000 
0.000000 -0.000000 0.000000 
0.000000 0.000000 0.000000 

-0.000000 0.000000 0.000000 
0.000000 -0.000000 0.000000 
0.000000 0.000000 0.000000 

-0.000000 -0.000000 0.000000 
0.000000 -0.000000 0.000000 
0.000000 0.000000 0.000000 

-0.000000 -0.000000 0.000000 
0.000000 -0.000000 0.000000 
0.000000 0.000000 0.000000 

-0.000000 0.000000 0.000000 
0.000000 -0.000000 0.000000 
0.000000 0.000000 0.000000 

0.000000 0.000000 0.000000 
0.000000 -0.000000 0.000000 
0.000000 0.000000 0.000000 

-0.000000 0.000000 0.000000 
0.000000 -0.000000 0.000000 
0.000000 0.000000 0.000000 

-0.000000 0.000000 0.000000 
0.000000 -0.000000 0.000000 
0.000000 0.000000 0.000000 

0.000000 0.000000 0.000000 
0.000000 0.000000 0.000000 
0.000000 0.000000 0.000000 

0.000000 -0.000000 0.000000 
0.000000 0.000000 0.000000 
0.000000 0.000000 0.000000 

0.000000 -0.000000 0.000000 
0.000000 0.000000 0.000000 
0.000000 0.000000 0.000000 

-0.000000 0.000000 0.000000 
0.000000 -0.000000 0.000000 
0.000000 0.000000 0.000000 

-0.000000 -0.000000 0.000000 
0.000000 -0.000000 0.000000 
0.000000 0.000000 0.000000 

0.000000 -0.000000 0.000000 
0.000000 0.000000 0.000000 
0.000000 0.000000 0.000000 

0.000000 0.000000 0.000000 
0.000000 0.000000 0.000000 
0.000000 0.000000 0.000000 

-0.000000 -0.000000 0.000000 
0.000000 -0.000000 0.000000 
0.000000 0.000000 0.000000 

-0.000000 -0.000000 0.000000 
0.000000 -0.000000 0.000000 
0.000000 0.000000 0.000000 

0.000000 -0.000000 0.000000 
0.000000 0.000000 0.000000 
0.000000 0.000000 0.000000 

-0.000000 -0.000000 0.000000 
0.000000 -0.000000 0.000000 
0.000000 0.000000 0.000000 

-0.000000 -0.000000 0.000000 
0.000000 -0.000000 0.000000 
0.000000 0.000000 0.000000 

-0.000000 -0.000000 0.000000 
0.000000 -0.000000 0.000000 
0.000000 0.000000 0.000000 

0.000000 0.000000 0.000000 
0.000000 0.000000 0.000000 
0.000000 0.000000 0.000000 

0.000000 0.000000 0.000000 
0.000000 0.000000 0.000000 
0.000000 0.000000 0.000000 

-0.000000 0.000000 0.000000 
0.000000 -0.000000 0.000000 
0.000000 0.000000 0.000000 

0.000000 0.000000 0.000000 
0.000000 0.000000 0.000000 
0.000000 0.000000 0.000000 

-0.000000 -0.000000 0.000000 
0.000000 -0.000000 0.000000 
0.000000 0.000000 0.000000 

0.000000 -0.000000 0.000000 
0.000000 0.000000 0.000000 
0.000000 0.000000 0.000000 

-0.000000 -0.000000 0.000000 
0.000000 -0.000000 0.000000 
0.000000 0.000000 0.000000 

0.000000 -0.000000 0.000000 
0.000000 0.000000 0.000000 
0.000000 0.000000 0.000000 

0.000000 0.000000 0.000000 
0.000000 0.000000 0.000000 
0.000000 0.000000 0.000000 

0.000000 -0.000000 0.000000 
0.000000 0.000000 0.000000 
0.000000 0.000000 0.000000 

0.000000 -0.000000 0.000000 
0.000000 0.000000 0.000000 
0.000000 0.000000 0.000000 

0.000000 -0.000000 0.000000 
0.000000 0.000000 0.000000 
0.000000 0.000000 0.000000 

0.000000 0.000000 0.000000 
0.000000 0.000000 0.000000 
0.000000 0.000000 0.000000 

-0.000000 0.000000 0.000000 
0.000000 -0.000000 0.000000 
0.000000 0.000000 0.000000 

0.000000 -0.000000 0.000000 
0.000000 -0.000000 0.000000 
0.000000 0.000000 0.000000 

0.000000 0.000000 0.000000 
0.000000 -0.000000 0.000000 
0.000000 0.000000 0.000000 

0.000000 -0.000000 0.000000 
0.000000 0.000000 0.000000 
0.000000 0.000000 0.000000 

-0.000000 -0.000000 0.000000 
0.000000 -0.000000 0.000000 
0.000000 0.000000 0.000000 

0.000000 -0.000000 0.000000 
0.000000 0.000000 0.000000 
0.000000 0.000000 0.000000 

-0.000000 -0.000000 0.000000 
0.000000 -0.000000 0.000000 
0.000000 0.000000 0.000000 

0.000000 -0.000000 0.000000 
0.000000 0.000000 0.000000 
0.000000 0.000000 0.000000 

0.000000 0.000000 0.000000 
0.000000 0.000000 0.000000 
0.000000 0.000000 0.000000 

0.000000 0.000000 0.000000 
0.000000 0.000000 0.000000 
0.000000 0.000000 0.000000 

-0.000000 0.000000 0.000000 
0.000000 -0.000000 0.000000 
0.000000 0.000000 0.000000 

-0.000000 0.000000 0.000000 
0.000000 0.000000 0.000000 
0.000000 0.000000 0.000000 

0.000000 0.000000 0.000000 
0.000000 0.000000 0.000000 
0.000000 0.000000 0.000000 

-0.000000 0.000000 0.000000 
0.000000 -0.000000 0.000000 
0.000000 0.000000 0.000000 

-0.000000 0.000000 0.000000 
0.000000 -0.000000 0.000000 
0.000000 0.000000 0.000000 

-0.000000 -0.000000 0.000000 
0.000000 -0.000000 0.000000 
0.000000 0.000000 0.000000 

-0.000000 -0.000000 0.000000 
0.000000 -0.000000 0.000000 
0.000000 0.000000 0.000000 

0.000000 0.000000 0.000000 
0.000000 0.000000 0.000000 
0.000000 0.000000 0.000000 

0.000000 0.000000 0.000000 
0.000000 0.000000 0.000000 
0.000000 0.000000 0.000000 

0.000000 0.000000 0.000000 
0.000000 0.000000 0.000000 
0.000000 0.000000 0.000000 

0.000000 0.000000 0.000000 
0.000000 0.000000 0.000000 
0.000000 0.000000 0.000000 

0.000000 -0.000000 0.000000 
0.000000 0.000000 0.000000 
0.000000 0.000000 0.000000 

-0.000000 -0.000000 0.000000 
0.000000 -0.000000 0.000000 
0.000000 0.000000 0.000000 

0.000000 0.000000 0.000000 
0.000000 0.000000 0.000000 
0.000000 0.000000 0.000000 

0.000000 0.000000 0.000000 
0.000000 0.000000 0.000000 
0.000000 0.000000 0.000000 

-0.000000 0.000000 0.000000 
0.000000 -0.000000 0.000000 
0.000000 0.000000 0.000000 

-0.000000 0.000000 0.000000 
0.000000 -0.000000 0.000000 
0.000000 0.000000 0.000000 

-0.000000 -0.000000 0.000000 
0.000000 0.000000 0.000000 
0.000000 0.000000 0.000000 

-0.000000 -0.000000 0.000000 
0.000000 -0.000000 0.000000 
0.000000 0.000000 0.000000 

0.000000 -0.000000 0.000000 
0.000000 0.000000 0.000000 
0.000000 0.000000 0.000000 

0.000000 -0.000000 0.000000 
0.000000 0.000000 0.000000 
0.000000 0.000000 0.000000 

0.000000 -0.000000 0.000000 
0.000000 0.000000 0.000000 
0.000000 0.000000 0.000000 

-0.000000 0.000000 0.000000 
0.000000 -0.000000 0.000000 
0.000000 0.000000 0.000000 

-0.000000 0.000000 0.000000 
0.000000 0.000000 0.000000 
0.000000 0.000000 0.000000 

-0.000000 -0.000000 0.000000 
0.000000 -0.000000 0.000000 
0.000000 0.000000 0.000000 

-0.000000 0.000000 0.000000 
0.000000 -0.000000 0.000000 
0.000000 0.000000 0.000000 

0.000000 -0.000000 0.000000 
0.000000 0.000000 0.000000 
0.000000 0.000000 0.000000 

0.000000 0.000000 0.000000 
0.000000 0.000000 0.000000 
0.000000 0.000000 0.000000 

-0.000000 -0.000000 0.000000 
0.000000 -0.000000 0.000000 
0.000000 0.000000 0.000000 

-0.000000 -0.000000 0.000000 
0.000000 -0.000000 0.000000 
0.000000 0.000000 0.000000 

-0.000000 -0.000000 0.000000 
0.000000 -0.000000 0.000000 
0.000000 0.000000 0.000000 

-0.000000 -0.000000 0.000000 
0.000000 -0.000000 0.000000 
0.000000 0.000000 0.000000 

0.000000 0.000000 0.000000 
0.000000 0.000000 0.000000 
0.000000 0.000000 0.000000 

-0.000000 0.000000 0.000000 
0.000000 -0.000000 0.000000 
0.000000 0.000000 0.000000 

0.000000 0.000000 0.000000 
0.000000 0.000000 0.000000 
0.000000 0.000000 0.000000 

0.000000 0.000000 0.000000 
0.000000 0.000000 0.000000 
0.000000 0.000000 0.000000 

0.000000 0.000000 0.000000 
0.000000 0.000000 0.000000 
0.000000 0.000000 0.000000 

-0.000000 -0.000000 0.000000 
0.000000 -0.000000 0.000000 
0.000000 0.000000 0.000000 

0.000000 0.000000 0.000000 
0.000000 0.000000 0.000000 
0.000000 0.000000 0.000000 

0.000000 -0.000000 0.000000 
0.000000 0.000000 0.000000 
0.000000 0.000000 0.000000 

-0.000000 -0.000000 0.000000 
0.000000 -0.000000 0.000000 
0.000000 0.000000 0.000000 

0.000000 -0.000000 0.000000 
0.000000 0.000000 0.000000 
0.000000 0.000000 0.000000 

-0.000000 -0.000000 0.000000 
0.000000 -0.000000 0.000000 
0.000000 0.000000 0.000000 

0.000000 0.000000 0.000000 
0.000000 0.000000 0.000000 
0.000000 0.000000 0.000000 

0.000000 0.000000 0.000000 
0.000000 0.000000 0.000000 
0.000000 0.000000 0.000000 

0.000000 0.000000 0.000000 
0.000000 0.000000 0.000000 
0.000000 0.000000 0.000000 

0.000000 0.000000 0.000000 
0.000000 0.000000 0.000000 
0.000000 0.000000 0.000000 

-0.000000 -0.000000 0.000000 
0.000000 -0.000000 0.000000 
0.000000 0.000000 0.000000 

0.000000 -0.000000 0.000000 
0.000000 0.000000 0.000000 
0.000000 0.000000 0.000000 

-0.000000 0.000000 0.000000 
0.000000 0.000000 0.000000 
0.000000 0.000000 0.000000 

-0.000000 -0.000000 0.000000 
0.000000 -0.000000 0.000000 
0.000000 0.000000 0.000000 

0.000000 -0.000000 0.000000 
0.000000 -0.000000 0.000000 
0.000000 0.000000 0.000000 

0.000000 -0.000000 0.000000 
0.000000 0.000000 0.000000 
0.000000 0.000000 0.000000 

-0.000000 -0.000000 0.000000 
0.000000 -0.000000 0.000000 
0.000000 0.000000 0.000000 

0.000000 -0.000000 0.000000 
0.000000 0.000000 0.000000 
0.000000 0.000000 0.000000 

-0.000000 -0.000000 0.000000 
0.000000 -0.000000 0.000000 
0.000000 0.000000 0.000000 

0.000000 -0.000000 0.000000 
0.000000 0.000000 0.000000 
0.000000 0.000000 0.000000 

-0.000000 0.000000 0.000000 
0.000000 -0.000000 0.000000 
0.000000 0.000000 0.000000 

0.000000 0.000000 0.000000 
0.000000 0.000000 0.000000 
0.000000 0.000000 0.000000 

-0.000000 0.000000 0.000000 
0.000000 -0.000000 0.000000 
0.000000 0.000000 0.000000 

0.000000 -0.000000 0.000000 
0.000000 0.000000 0.000000 
0.000000 0.000000 0.000000 

0.000000 -0.000000 0.000000 
0.000000 0.000000 0.000000 
0.000000 0.000000 0.000000 

-0.000000 0.000000 0.000000 
0.000000 -0.000000 0.000000 
0.000000 0.000000 0.000000 

0.000000 0.000000 0.000000 
0.000000 0.000000 0.000000 
0.000000 0.000000 0.000000 

-0.000000 0.000000 0.000000 
0.000000 -0.000000 0.000000 
0.000000 0.000000 0.000000 

-0.000000 0.000000 0.000000 
0.000000 -0.000000 0.000000 
0.000000 0.000000 0.000000 

-0.000000 -0.000000 0.000000 
0.000000 -0.000000 0.000000 
0.000000 0.000000 0.000000 

0.000000 0.000000 0.000000 
0.000000 -0.000000 0.000000 
0.000000 0.000000 0.000000 

-0.000000 0.000000 0.000000 
0.000000 -0.000000 0.000000 
0.000000 0.000000 0.000000 

0.000000 0.000000 0.000000 
0.000000 0.000000 0.000000 
0.000000 0.000000 0.000000 

-0.000000 0.000000 0.000000 
0.000000 -0.000000 0.000000 
0.000000 0.000000 0.000000 

0.000000 -0.000000 0.000000 
0.000000 0.000000 0.000000 
0.000000 0.000000 0.000000 

-0.000000 0.000000 0.000000 
0.000000 -0.000000 0.000000 
0.000000 0.000000 0.000000 

-0.000000 -0.000000 0.000000 
0.000000 -0.000000 0.000000 
0.000000 0.000000 0.000000 

0.000000 -0.000000 0.000000 
0.000000 0.000000 0.000000 
0.000000 0.000000 0.000000 

-0.000000 0.000000 0.000000 
0.000000 -0.000000 0.000000 
0.000000 0.000000 0.000000 

-0.000000 -0.000000 0.000000 
0.000000 -0.000000 0.000000 
0.000000 0.000000 0.000000 

0.000000 0.000000 0.000000 
0.000000 0.000000 0.000000 
0.000000 0.000000 0.000000 

-0.000000 -0.000000 0.000000 
0.000000 -0.000000 0.000000 
0.000000 0.000000 0.000000 

-0.000000 -0.000000 0.000000 
0.000000 -0.000000 0.000000 
0.000000 0.000000 0.000000 

0.000000 -0.000000 0.000000 
0.000000 0.000000 0.000000 
0.000000 0.000000 0.000000 

TENSORS STRAIN float 
0.000000 -0.000000 0.000000 
0.000000 -0.000000 0.000000 
0.000000 0.000000 0.000000 

0.000000 0.000000 0.000000 
0.000000 0.000000 0.000000 
0.000000 0.000000 0.000000 

0.000000 0.000000 0.000000 
0.000000 0.000000 0.000000 
0.000000 0.000000 0.000000 

0.000000 0.000000 0.000000 
0.000000 0.000000 0.000000 
0.000000 0.000000 0.000000 

0.000000 0.000000 0.000000 
0.000000 -0.000000 0.000000 
0.000000 0.000000 0.000000 

0.000000 0.000000 0.000000 
0.000000 0.000000 0.000000 
0.000000 0.000000 0.000000 

-0.000000 -0.000000 0.000000 
0.000000 0.000000 0.000000 
0.000000 0.000000 0.000000 

0.000000 -0.000000 0.000000 
0.000000 -0.000000 0.000000 
0.000000 0.000000 0.000000 

0.000000 -0.000000 0.000000 
0.000000 -0.000000 0.000000 
0.000000 0.000000 0.000000 

-0.000000 0.000000 0.000000 
0.000000 0.000000 0.000000 
0.000000 0.000000 0.000000 

-0.000000 0.000000 0.000000 
0.000000 0.000000 0.000000 
0.000000 0.000000 0.000000 

-0.000000 0.000000 0.000000 
0.000000 0.000000 0.000000 
0.000000 0.000000 0.000000 

-0.000000 0.000000 0.000000 
0.000000 0.000000 0.000000 
0.000000 0.000000 0.000000 

-0.000000 0.000000 0.000000 
0.000000 0.000000 0.000000 
0.000000 0.000000 0.000000 

-0.000000 0.000000 0.000000 
0.000000 0.000000 0.000000 
0.000000 0.000000 0.000000 

-0.000000 0.000000 0.000000 
0.000000 0.000000 0.000000 
0.000000 0.000000 0.000000 

-0.000000 -0.000000 0.000000 
0.000000 0.000000 0.000000 
0.000000 0.000000 0.000000 

-0.000000 -0.000000 0.000000 
0.000000 0.000000 0.000000 
0.000000 0.000000 0.000000 

0.000000 -0.000000 0.000000 
0.000000 -0.000000 0.000000 
0.000000 0.000000 0.000000 

-0.000000 -0.000000 0.000000 
0.000000 -0.000000 0.000000 
0.000000 0.000000 0.000000 

0.000000 -0.000000 0.000000 
0.000000 0.000000 0.000000 
0.000000 0.000000 0.000000 

-0.000000 0.000000 0.000000 
0.000000 -0.000000 0.000000 
0.000000 0.000000 0.000000 

0.000000 0.000000 0.000000 
0.000000 -0.000000 0.000000 
0.000000 0.000000 0.000000 

-0.000000 0.000000 0.000000 
0.000000 0.000000 0.000000 
0.000000 0.000000 0.000000 

-0.000000 0.000000 0.000000 
0.000000 0.000000 0.000000 
0.000000 0.000000 0.000000 

0.000000 -0.000000 0.000000 
0.000000 -0.000000 0.000000 
0.000000 0.000000 0.000000 

0.000000 0.000000 0.000000 
0.000000 -0.000000 0.000000 
0.000000 0.000000 0.000000 

0.000000 -0.000000 0.000000 
0.000000 0.000000 0.000000 
0.000000 0.000000 0.000000 

-0.000000 0.000000 0.000000 
0.000000 -0.000000 0.000000 
0.000000 0.000000 0.000000 

0.000000 0.000000 0.000000 
0.000000 -0.000000 0.000000 
0.000000 0.000000 0.000000 

0.000000 0.000000 0.000000 
0.000000 -0.000000 0.000000 
0.000000 0.000000 0.000000 

0.000000 0.000000 0.000000 
0.000000 0.000000 0.000000 
0.000000 0.000000 0.000000 

0.000000 -0.000000 0.000000 
0.000000 -0.000000 0.000000 
0.000000 0.000000 0.000000 

0.000000 0.000000 0.000000 
0.000000 -0.000000 0.000000 
0.000000 0.000000 0.000000 

0.000000 0.000000 0.000000 
0.000000 -0.000000 0.000000 
0.000000 0.000000 0.000000 

0.000000 -0.000000 0.000000 
0.000000 -0.000000 0.000000 
0.000000 0.000000 0.000000 

0.000000 0.000000 0.000000 
0.000000 -0.000000 0.000000 
0.000000 0.000000 0.000000 

0.000000 0.000000 0.000000 
0.000000 -0.000000 0.000000 
0.000000 0.000000 0.000000 

0.000000 0.000000 0.000000 
0.000000 -0.000000 0.000000 
0.000000 0.000000 0.000000 

-0.000000 0.000000 0.000000 
0.000000 -0.000000 0.000000 
0.000000 0.000000 0.000000 

-0.000000 -0.000000 0.000000 
0.000000 -0.000000 0.000000 
0.000000 0.000000 0.000000 

-0.000000 0.000000 0.000000 
0.000000 0.000000 0.000000 
0.000000 0.000000 0.000000 

0.000000 0.000000 0.000000 
0.000000 0.000000 0.000000 
0.000000 0.000000 0.000000 

0.000000 0.000000 0.000000 
0.000000 -0.000000 0.000000 
0.000000 0.000000 0.000000 

-0.000000 0.000000 0.000000 
0.000000 0.000000 0.000000 
0.000000 0.000000 0.000000 

-0.000000 0.000000 0.000000 
0.000000 0.000000 0.000000 
0.000000 0.000000 0.000000 

-0.000000 0.000000 0.000000 
0.000000 0.000000 0.000000 
0.000000 0.000000 0.000000 

-0.000000 -0.000000 0.000000 
0.000000 0.000000 0.000000 
0.000000 0.000000 0.000000 

-0.000000 -0.000000 0.000000 
0.000000 0.000000 0.000000 
0.000000 0.000000 0.000000 

-0.000000 -0.000000 0.000000 
0.000000 0.000000 0.000000 
0.000000 0.000000 0.000000 

0.000000 -0.000000 0.000000 
0.000000 -0.000000 0.000000 
0.000000 0.000000 0.000000 

0.000000 0.000000 0.000000 
0.000000 -0.000000 0.000000 
0.000000 0.000000 0.000000 

0.000000 -0.000000 0.000000 
0.000000 -0.000000 0.000000 
0.000000 0.000000 0.000000 

0.000000 -0.000000 0.000000 
0.000000 -0.000000 0.000000 
0.000000 0.000000 0.000000 

-0.000000 0.000000 0.000000 
0.000000 -0.000000 0.000000 
0.000000 0.000000 0.000000 

0.000000 0.000000 0.000000 
0.000000 -0.000000 0.000000 
0.000000 0.000000 0.000000 

0.000000 0.000000 0.000000 
0.000000 -0.000000 0.000000 
0.000000 0.000000 0.000000 

0.000000 0.000000 0.000000 
0.000000 -0.000000 0.000000 
0.000000 0.000000 0.000000 

0.000000 0.000000 0.000000 
0.000000 -0.000000 0.000000 
0.000000 0.000000 0.000000 

0.000000 -0.000000 0.000000 
0.000000 0.000000 0.000000 
0.000000 0.000000 0.000000 

0.000000 -0.000000 0.000000 
0.000000 0.000000 0.000000 
0.000000 0.000000 0.000000 

-0.000000 0.000000 0.000000 
0.000000 -0.000000 0.000000 
0.000000 0.000000 0.000000 

-0.000000 -0.000000 0.000000 
0.000000 -0.000000 0.000000 
0.000000 0.000000 0.000000 

0.000000 -0.000000 0.000000 
0.000000 0.000000 0.000000 
0.000000 0.000000 0.000000 

0.000000 0.000000 0.000000 
0.000000 0.000000 0.000000 
0.000000 0.000000 0.000000 

0.000000 -0.000000 0.000000 
0.000000 -0.000000 0.000000 
0.000000 0.000000 0.000000 

0.000000 -0.000000 0.000000 
0.000000 -0.000000 0.000000 
0.000000 0.000000 0.000000 

-0.000000 -0.000000 0.000000 
0.000000 0.000000 0.000000 
0.000000 0.000000 0.000000 

-0.000000 -0.000000 0.000000 
0.000000 0.000000 0.000000 
0.000000 0.000000 0.000000 

-0.000000 -0.000000 0.000000 
0.000000 0.000000 0.000000 
0.000000 0.000000 0.000000 

-0.000000 -0.000000 0.000000 
0.000000 -0.000000 0.000000 
0.000000 0.000000 0.000000 

-0.000000 0.000000 0.000000 
0.000000 0.000000 0.000000 
0.000000 0.000000 0.000000 

-0.000000 0.000000 0.000000 
0.000000 0.000000 0.000000 
0.000000 0.000000 0.000000 

-0.000000 0.000000 0.000000 
0.000000 0.000000 0.000000 
0.000000 0.000000 0.000000 

-0.000000 0.000000 0.000000 
0.000000 0.000000 0.000000 
0.000000 0.000000 0.000000 

0.000000 -0.000000 0.000000 
0.000000 -0.000000 0.000000 
0.000000 0.000000 0.000000 

0.000000 -0.000000 0.000000 
0.000000 -0.000000 0.000000 
0.000000 0.000000 0.000000 

0.000000 -0.000000 0.000000 
0.000000 -0.000000 0.000000 
0.000000 0.000000 0.000000 

0.000000 -0.000000 0.000000 
0.000000 -0.000000 0.000000 
0.000000 0.000000 0.000000 

0.000000 0.000000 0.000000 
0.000000 -0.000000 0.000000 
0.000000 0.000000 0.000000 

0.000000 -0.000000 0.000000 
0.000000 -0.000000 0.000000 
0.000000 0.000000 0.000000 

0.000000 -0.000000 0.000000 
0.000000 -0.000000 0.000000 
0.000000 0.000000 0.000000 

0.000000 -0.000000 0.000000 
0.000000 -0.000000 0.000000 
0.000000 0.000000 0.000000 

-0.000000 0.000000 0.000000 
0.000000 0.000000 0.000000 
0.000000 0.000000 0.000000 

0.000000 0.000000 0.000000 
0.000000 -0.000000 0.000000 
0.000000 0.000000 0.000000 

0.000000 -0.000000 0.000000 
0.000000 -0.000000 0.000000 
0.000000 0.000000 0.000000 

0.000000 0.000000 0.000000 
0.000000 -0.000000 0.000000 
0.000000 0.000000 0.000000 

0.000000 -0.000000 0.000000 
0.000000 -0.000000 0.000000 
0.000000 0.000000 0.000000 

0.000000 -0.000000 0.000000 
0.000000 -0.000000 0.000000 
0.000000 0.000000 0.000000 

0.000000 -0.000000 0.000000 
0.000000 -0.000000 0.000000 
0.000000 0.000000 0.000000 

0.000000 -0.000000 0.000000 
0.000000 -0.000000 0.000000 
0.000000 0.000000 0.000000 

0.000000 -0.000000 0.000000 
0.000000 -0.000000 0.000000 
0.000000 0.000000 0.000000 

0.000000 0.000000 0.000000 
0.000000 -0.000000 0.000000 
0.000000 0.000000 0.000000 

0.000000 0.000000 0.000000 
0.000000 -0.000000 0.000000 
0.000000 0.000000 0.000000 

-0.000000 0.000000 0.000000 
0.000000 0.000000 0.000000 
0.000000 0.000000 0.000000 

-0.000000 0.000000 0.000000 
0.000000 0.000000 0.000000 
0.000000 0.000000 0.000000 

-0.000000 0.000000 0.000000 
0.000000 0.000000 0.000000 
0.000000 0.000000 0.000000 

-0.000000 0.000000 0.000000 
0.000000 0.000000 0.000000 
0.000000 0.000000 0.000000 

0.000000 0.000000 0.000000 
0.000000 -0.000000 0.000000 
0.000000 0.000000 0.000000 

-0.000000 -0.000000 0.000000 
0.000000 -0.000000 0.000000 
0.000000 0.000000 0.000000 

0.000000 -0.000000 0.000000 
0.000000 -0.000000 0.000000 
0.000000 0.000000 0.000000 

0.000000 0.000000 0.000000 
0.000000 -0.000000 0.000000 
0.000000 0.000000 0.000000 

0.000000 0.000000 0.000000 
0.000000 -0.000000 0.000000 
0.000000 0.000000 0.000000 

0.000000 0.000000 0.000000 
0.000000 -0.000000 0.000000 
0.000000 0.000000 0.000000 

0.000000 0.000000 0.000000 
0.000000 -0.000000 0.000000 
0.000000 0.000000 0.000000 

0.000000 -0.000000 0.000000 
0.000000 -0.000000 0.000000 
0.000000 0.000000 0.000000 

0.000000 -0.000000 0.000000 
0.000000 -0.000000 0.000000 
0.000000 0.000000 0.000000 

0.000000 0.000000 0.000000 
0.000000 -0.000000 0.000000 
0.000000 0.000000 0.000000 

0.000000 0.000000 0.000000 
0.000000 -0.000000 0.000000 
0.000000 0.000000 0.000000 

0.000000 0.000000 0.000000 
0.000000 -0.000000 0.000000 
0.000000 0.000000 0.000000 

0.000000 0.000000 0.000000 
0.000000 -0.000000 0.000000 
0.000000 0.000000 0.000000 

-0.000000 -0.000000 0.000000 
0.000000 0.000000 0.000000 
0.000000 0.000000 0.000000 

-0.000000 -0.000000 0.000000 
0.000000 0.000000 0.000000 
0.000000 0.000000 0.000000 

-0.000000 -0.000000 0.000000 
0.000000 0.000000 0.000000 
0.000000 0.000000 0.000000 

0.000000 -0.000000 0.000000 
0.000000 -0.000000 0.000000 
0.000000 0.000000 0.000000 

0.000000 -0.000000 0.000000 
0.000000 -0.000000 0.000000 
0.000000 0.000000 0.000000 

-0.000000 0.000000 0.000000 
0.000000 0.000000 0.000000 
0.000000 0.000000 0.000000 

-0.000000 0.000000 0.000000 
0.000000 0.000000 0.000000 
0.000000 0.000000 0.000000 

-0.000000 -0.000000 0.000000 
0.000000 0.000000 0.000000 
0.000000 0.000000 0.000000 

-0.000000 0.000000 0.000000 
0.000000 0.000000 0.000000 
0.000000 0.000000 0.000000 

-0.000000 -0.000000 0.000000 
0.000000 0.000000 0.000000 
0.000000 0.000000 0.000000 

-0.000000 0.000000 0.000000 
0.000000 0.000000 0.000000 
0.000000 0.000000 0.000000 

0.000000 -0.000000 0.000000 
0.000000 -0.000000 0.000000 
0.000000 0.000000 0.000000 

-0.000000 -0.000000 0.000000 
0.000000 -0.000000 0.000000 
0.000000 0.000000 0.000000 

0.000000 -0.000000 0.000000 
0.000000 -0.000000 0.000000 
0.000000 0.000000 0.000000 

0.000000 -0.000000 0.000000 
0.000000 -0.000000 0.000000 
0.000000 0.000000 0.000000 

0.000000 0.000000 0.000000 
0.000000 0.000000 0.000000 
0.000000 0.000000 0.000000 

0.000000 0.000000 0.000000 
0.000000 -0.000000 0.000000 
0.000000 0.000000 0.000000 

0.000000 0.000000 0.000000 
0.000000 0.000000 0.000000 
0.000000 0.000000 0.000000 

-0.000000 0.000000 0.000000 
0.000000 0.000000 0.000000 
0.000000 0.000000 0.000000 

0.000000 0.000000 0.000000 
0.000000 0.000000 0.000000 
0.000000 0.000000 0.000000 

0.000000 -0.000000 0.000000 
0.000000 -0.000000 0.000000 
0.000000 0.000000 0.000000 

0.000000 0.000000 0.000000 
0.000000 0.000000 0.000000 
0.000000 0.000000 0.000000 

0.000000 -0.000000 0.000000 
0.000000 -0.000000 0.000000 
0.000000 0.000000 0.000000 

0.000000 -0.000000 0.000000 
0.000000 -0.000000 0.000000 
0.000000 0.000000 0.000000 

0.000000 -0.000000 0.000000 
0.000000 -0.000000 0.000000 
0.000000 0.000000 0.000000 

0.000000 -0.000000 0.000000 
0.000000 -0.000000 0.000000 
0.000000 0.000000 0.000000 

0.000000 0.000000 0.000000 
0.000000 -0.000000 0.000000 
0.000000 0.000000 0.000000 

0.000000 0.000000 0.000000 
0.000000 -0.000000 0.000000 
0.000000 0.000000 0.000000 

0.000000 0.000000 0.000000 
0.000000 0.000000 0.000000 
0.000000 0.000000 0.000000 

0.000000 0.000000 0.000000 
0.000000 0.000000 0.000000 
0.000000 0.000000 0.000000 

0.000000 -0.000000 0.000000 
0.000000 -0.000000 0.000000 
0.000000 0.000000 0.000000 

0.000000 -0.000000 0.000000 
0.000000 0.000000 0.000000 
0.000000 0.000000 0.000000 

-0.000000 0.000000 0.000000 
0.000000 0.000000 0.000000 
0.000000 0.000000 0.000000 

0.000000 -0.000000 0.000000 
0.000000 -0.000000 0.000000 
0.000000 0.000000 0.000000 

0.000000 -0.000000 0.000000 
0.000000 -0.000000 0.000000 
0.000000 0.000000 0.000000 

0.000000 -0.000000 0.000000 
0.000000 -0.000000 0.000000 
0.000000 0.000000 0.000000 

0.000000 -0.000000 0.000000 
0.000000 -0.000000 0.000000 
0.000000 0.000000 0.000000 

-0.000000 -0.000000 0.000000 
0.000000 0.000000 0.000000 
0.000000 0.000000 0.000000 

-0.000000 -0.000000 0.000000 
0.000000 -0.000000 0.000000 
0.000000 0.000000 0.000000 

0.000000 -0.000000 0.000000 
0.000000 -0.000000 0.000000 
0.000000 0.000000 0.000000 

0.000000 0.000000 0.000000 
0.000000 -0.000000 0.000000 
0.000000 0.000000 0.000000 

0.000000 0.000000 0.000000 
0.000000 0.000000 0.000000 
0.000000 0.000000 0.000000 

-0.000000 0.000000 0.000000 
0.000000 -0.000000 0.000000 
0.000000 0.000000 0.000000 

0.000000 -0.000000 0.000000 
0.000000 -0.000000 0.000000 
0.000000 0.000000 0.000000 

0.000000 -0.000000 0.000000 
0.000000 -0.000000 0.000000 
0.000000 0.000000 0.000000 

-0.000000 0.000000 0.000000 
0.000000 0.000000 0.000000 
0.000000 0.000000 0.000000 

-0.000000 0.000000 0.000000 
0.000000 0.000000 0.000000 
0.000000 0.000000 0.000000 

-0.000000 0.000000 0.000000 
0.000000 -0.000000 0.000000 
0.000000 0.000000 0.000000 

-0.000000 0.000000 0.000000 
0.000000 -0.000000 0.000000 
0.000000 0.000000 0.000000 

-0.000000 -0.000000 0.000000 
0.000000 -0.000000 0.000000 
0.000000 0.000000 0.000000 

0.000000 0.000000 0.000000 
0.000000 -0.000000 0.000000 
0.000000 0.000000 0.000000 

0.000000 0.000000 0.000000 
0.000000 -0.000000 0.000000 
0.000000 0.000000 0.000000 

0.000000 0.000000 0.000000 
0.000000 -0.000000 0.000000 
0.000000 0.000000 0.000000 

-0.000000 0.000000 0.000000 
0.000000 0.000000 0.000000 
0.000000 0.000000 0.000000 

0.000000 -0.000000 0.000000 
0.000000 -0.000000 0.000000 
0.000000 0.000000 0.000000 

-0.000000 0.000000 0.000000 
0.000000 0.000000 0.000000 
0.000000 0.000000 0.000000 

-0.000000 -0.000000 0.000000 
0.000000 0.000000 0.000000 
0.000000 0.000000 0.000000 

0.000000 -0.000000 0.000000 
0.000000 0.000000 0.000000 
0.000000 0.000000 0.000000 

0.000000 0.000000 0.000000 
0.000000 -0.000000 0.000000 
0.000000 0.000000 0.000000 

0.000000 -0.000000 0.000000 
0.000000 -0.000000 0.000000 
0.000000 0.000000 0.000000 

0.000000 0.000000 0.000000 
0.000000 -0.000000 0.000000 
0.000000 0.000000 0.000000 

-0.000000 -0.000000 0.000000 
0.000000 0.000000 0.000000 
0.000000 0.000000 0.000000 

-0.000000 -0.000000 0.000000 
0.000000 -0.000000 0.000000 
0.000000 0.000000 0.000000 

-0.000000 -0.000000 0.000000 
0.000000 0.000000 0.000000 
0.000000 0.000000 0.000000 

