# vtk DataFile Version 3.0 
vtk output 
ASCII 
DATASET UNSTRUCTURED_GRID 
POINTS 175 float 
-0.026021 0.033051 0.000000 
-0.106911 0.100765 0.000000 
-0.054767 0.092459 0.000000 
-0.028769 0.138405 0.000000 
-0.186489 0.165370 0.000000 
-0.137054 0.162641 0.000000 
-0.114313 0.216410 0.000000 
-0.058164 0.200547 0.000000 
-0.029385 0.240894 0.000000 
-0.265349 0.228714 0.000000 
-0.217220 0.228039 0.000000 
-0.196565 0.285096 0.000000 
-0.143090 0.276391 0.000000 
-0.116448 0.323553 0.000000 
-0.058899 0.303973 0.000000 
-0.029517 0.342147 0.000000 
-0.344160 0.291704 0.000000 
-0.296724 0.291712 0.000000 
-0.277743 0.351402 0.000000 
-0.225773 0.345261 0.000000 
-0.201362 0.397067 0.000000 
-0.145492 0.384082 0.000000 
-0.117576 0.428601 0.000000 
-0.059115 0.406197 0.000000 
-0.029616 0.443030 0.000000 
-0.058482 -0.007417 0.000000 
-0.162176 -0.028349 0.000000 
-0.123229 0.007216 0.000000 
-0.142894 0.056016 0.000000 
-0.261815 -0.050707 0.000000 
-0.229096 -0.013645 0.000000 
-0.256875 0.037640 0.000000 
-0.209718 0.071751 0.000000 
-0.223225 0.119438 0.000000 
-0.360367 -0.072879 0.000000 
-0.329703 -0.035796 0.000000 
-0.361557 0.015986 0.000000 
-0.321430 0.052386 0.000000 
-0.341693 0.102555 0.000000 
-0.290654 0.135482 0.000000 
-0.302166 0.182241 0.000000 
-0.458818 -0.095271 0.000000 
-0.429299 -0.058188 0.000000 
-0.464416 -0.006233 0.000000 
-0.427318 0.030862 0.000000 
-0.452879 0.082413 0.000000 
-0.407381 0.117623 0.000000 
-0.425051 0.167099 0.000000 
-0.370707 0.198597 0.000000 
-0.381443 0.244738 0.000000 
-0.046929 -0.057994 0.000000 
-0.095407 -0.152277 0.000000 
-0.098894 -0.099548 0.000000 
-0.149411 -0.084505 0.000000 
-0.140196 -0.244239 0.000000 
-0.148771 -0.195519 0.000000 
-0.206137 -0.185439 0.000000 
-0.203272 -0.127159 0.000000 
-0.248822 -0.108052 0.000000 
-0.184107 -0.335194 0.000000 
-0.194087 -0.288123 0.000000 
-0.254518 -0.280834 0.000000 
-0.257999 -0.226791 0.000000 
-0.309989 -0.211344 0.000000 
-0.303634 -0.150791 0.000000 
-0.347291 -0.130537 0.000000 
-0.228076 -0.426236 0.000000 
-0.238653 -0.379936 0.000000 
-0.301289 -0.375168 0.000000 
-0.307137 -0.323036 0.000000 
-0.363357 -0.311010 0.000000 
-0.362728 -0.253347 0.000000 
-0.412158 -0.236034 0.000000 
-0.403033 -0.173697 0.000000 
-0.445601 -0.153183 0.000000 
-0.000000 -0.080651 0.000000 
0.043471 -0.177265 0.000000 
-0.000000 -0.147176 0.000000 
-0.043471 -0.177265 0.000000 
0.087241 -0.269756 0.000000 
0.043830 -0.245980 0.000000 
-0.000000 -0.284570 0.000000 
-0.043830 -0.245980 0.000000 
-0.087241 -0.269756 0.000000 
0.130854 -0.360935 0.000000 
0.087849 -0.339477 0.000000 
0.044479 -0.382023 0.000000 
-0.000000 -0.351094 0.000000 
-0.044479 -0.382023 0.000000 
-0.087849 -0.339477 0.000000 
-0.130854 -0.360935 0.000000 
0.174518 -0.451984 0.000000 
0.131845 -0.431354 0.000000 
0.089031 -0.476975 0.000000 
0.044618 -0.449192 0.000000 
-0.000000 -0.487028 0.000000 
-0.044618 -0.449192 0.000000 
-0.089031 -0.476975 0.000000 
-0.131845 -0.431354 0.000000 
-0.174518 -0.451984 0.000000 
0.046929 -0.057994 0.000000 
0.149411 -0.084505 0.000000 
0.098894 -0.099548 0.000000 
0.095407 -0.152277 0.000000 
0.248822 -0.108052 0.000000 
0.203272 -0.127159 0.000000 
0.206137 -0.185439 0.000000 
0.148771 -0.195519 0.000000 
0.140196 -0.244239 0.000000 
0.347291 -0.130537 0.000000 
0.303634 -0.150791 0.000000 
0.309989 -0.211344 0.000000 
0.257999 -0.226791 0.000000 
0.254518 -0.280834 0.000000 
0.194087 -0.288123 0.000000 
0.184107 -0.335194 0.000000 
0.445601 -0.153183 0.000000 
0.403033 -0.173697 0.000000 
0.412158 -0.236034 0.000000 
0.362728 -0.253347 0.000000 
0.363357 -0.311010 0.000000 
0.307137 -0.323036 0.000000 
0.301289 -0.375168 0.000000 
0.238653 -0.379936 0.000000 
0.228076 -0.426236 0.000000 
0.058482 -0.007417 0.000000 
0.142894 0.056016 0.000000 
0.123229 0.007216 0.000000 
0.162176 -0.028349 0.000000 
0.223225 0.119438 0.000000 
0.209718 0.071751 0.000000 
0.256875 0.037640 0.000000 
0.229096 -0.013645 0.000000 
0.261815 -0.050707 0.000000 
0.302166 0.182241 0.000000 
0.290654 0.135482 0.000000 
0.341693 0.102555 0.000000 
0.321430 0.052386 0.000000 
0.361557 0.015986 0.000000 
0.329703 -0.035796 0.000000 
0.360367 -0.072879 0.000000 
0.381443 0.244738 0.000000 
0.370707 0.198597 0.000000 
0.425051 0.167099 0.000000 
0.407381 0.117623 0.000000 
0.452879 0.082413 0.000000 
0.427318 0.030862 0.000000 
0.464416 -0.006233 0.000000 
0.429299 -0.058188 0.000000 
0.458818 -0.095271 0.000000 
0.026021 0.033051 0.000000 
0.028769 0.138405 0.000000 
0.054767 0.092459 0.000000 
0.106911 0.100765 0.000000 
0.029385 0.240894 0.000000 
0.058164 0.200547 0.000000 
0.114313 0.216410 0.000000 
0.137054 0.162641 0.000000 
0.186489 0.165370 0.000000 
0.029517 0.342147 0.000000 
0.058899 0.303973 0.000000 
0.116448 0.323553 0.000000 
0.143090 0.276391 0.000000 
0.196565 0.285096 0.000000 
0.217220 0.228039 0.000000 
0.265349 0.228714 0.000000 
0.029616 0.443030 0.000000 
0.059115 0.406197 0.000000 
0.117576 0.428601 0.000000 
0.145492 0.384082 0.000000 
0.201362 0.397067 0.000000 
0.225773 0.345261 0.000000 
0.277743 0.351402 0.000000 
0.296724 0.291712 0.000000 
0.344160 0.291704 0.000000 
CELLS 175 350 
1 0 
1 1 
1 2 
1 3 
1 4 
1 5 
1 6 
1 7 
1 8 
1 9 
1 10 
1 11 
1 12 
1 13 
1 14 
1 15 
1 16 
1 17 
1 18 
1 19 
1 20 
1 21 
1 22 
1 23 
1 24 
1 25 
1 26 
1 27 
1 28 
1 29 
1 30 
1 31 
1 32 
1 33 
1 34 
1 35 
1 36 
1 37 
1 38 
1 39 
1 40 
1 41 
1 42 
1 43 
1 44 
1 45 
1 46 
1 47 
1 48 
1 49 
1 50 
1 51 
1 52 
1 53 
1 54 
1 55 
1 56 
1 57 
1 58 
1 59 
1 60 
1 61 
1 62 
1 63 
1 64 
1 65 
1 66 
1 67 
1 68 
1 69 
1 70 
1 71 
1 72 
1 73 
1 74 
1 75 
1 76 
1 77 
1 78 
1 79 
1 80 
1 81 
1 82 
1 83 
1 84 
1 85 
1 86 
1 87 
1 88 
1 89 
1 90 
1 91 
1 92 
1 93 
1 94 
1 95 
1 96 
1 97 
1 98 
1 99 
1 100 
1 101 
1 102 
1 103 
1 104 
1 105 
1 106 
1 107 
1 108 
1 109 
1 110 
1 111 
1 112 
1 113 
1 114 
1 115 
1 116 
1 117 
1 118 
1 119 
1 120 
1 121 
1 122 
1 123 
1 124 
1 125 
1 126 
1 127 
1 128 
1 129 
1 130 
1 131 
1 132 
1 133 
1 134 
1 135 
1 136 
1 137 
1 138 
1 139 
1 140 
1 141 
1 142 
1 143 
1 144 
1 145 
1 146 
1 147 
1 148 
1 149 
1 150 
1 151 
1 152 
1 153 
1 154 
1 155 
1 156 
1 157 
1 158 
1 159 
1 160 
1 161 
1 162 
1 163 
1 164 
1 165 
1 166 
1 167 
1 168 
1 169 
1 170 
1 171 
1 172 
1 173 
1 174 
CELL_TYPES 175 
1 
1 
1 
1 
1 
1 
1 
1 
1 
1 
1 
1 
1 
1 
1 
1 
1 
1 
1 
1 
1 
1 
1 
1 
1 
1 
1 
1 
1 
1 
1 
1 
1 
1 
1 
1 
1 
1 
1 
1 
1 
1 
1 
1 
1 
1 
1 
1 
1 
1 
1 
1 
1 
1 
1 
1 
1 
1 
1 
1 
1 
1 
1 
1 
1 
1 
1 
1 
1 
1 
1 
1 
1 
1 
1 
1 
1 
1 
1 
1 
1 
1 
1 
1 
1 
1 
1 
1 
1 
1 
1 
1 
1 
1 
1 
1 
1 
1 
1 
1 
1 
1 
1 
1 
1 
1 
1 
1 
1 
1 
1 
1 
1 
1 
1 
1 
1 
1 
1 
1 
1 
1 
1 
1 
1 
1 
1 
1 
1 
1 
1 
1 
1 
1 
1 
1 
1 
1 
1 
1 
1 
1 
1 
1 
1 
1 
1 
1 
1 
1 
1 
1 
1 
1 
1 
1 
1 
1 
1 
1 
1 
1 
1 
1 
1 
1 
1 
1 
1 
1 
1 
1 
1 
1 
1 
POINT_DATA 175 
VECTORS X_GC float 
-0.026021 0.033051 0.000000 
-0.106911 0.100765 0.000000 
-0.054767 0.092459 0.000000 
-0.028769 0.138405 0.000000 
-0.186489 0.165370 0.000000 
-0.137054 0.162641 0.000000 
-0.114313 0.216410 0.000000 
-0.058164 0.200547 0.000000 
-0.029385 0.240894 0.000000 
-0.265349 0.228714 0.000000 
-0.217220 0.228039 0.000000 
-0.196565 0.285096 0.000000 
-0.143090 0.276391 0.000000 
-0.116448 0.323553 0.000000 
-0.058899 0.303973 0.000000 
-0.029517 0.342147 0.000000 
-0.344160 0.291704 0.000000 
-0.296724 0.291712 0.000000 
-0.277743 0.351402 0.000000 
-0.225773 0.345261 0.000000 
-0.201362 0.397067 0.000000 
-0.145492 0.384082 0.000000 
-0.117576 0.428601 0.000000 
-0.059115 0.406197 0.000000 
-0.029616 0.443030 0.000000 
-0.058482 -0.007417 0.000000 
-0.162176 -0.028349 0.000000 
-0.123229 0.007216 0.000000 
-0.142894 0.056016 0.000000 
-0.261815 -0.050707 0.000000 
-0.229096 -0.013645 0.000000 
-0.256875 0.037640 0.000000 
-0.209718 0.071751 0.000000 
-0.223225 0.119438 0.000000 
-0.360367 -0.072879 0.000000 
-0.329703 -0.035796 0.000000 
-0.361557 0.015986 0.000000 
-0.321430 0.052386 0.000000 
-0.341693 0.102555 0.000000 
-0.290654 0.135482 0.000000 
-0.302166 0.182241 0.000000 
-0.458818 -0.095271 0.000000 
-0.429299 -0.058188 0.000000 
-0.464416 -0.006233 0.000000 
-0.427318 0.030862 0.000000 
-0.452879 0.082413 0.000000 
-0.407381 0.117623 0.000000 
-0.425051 0.167099 0.000000 
-0.370707 0.198597 0.000000 
-0.381443 0.244738 0.000000 
-0.046929 -0.057994 0.000000 
-0.095407 -0.152277 0.000000 
-0.098894 -0.099548 0.000000 
-0.149411 -0.084505 0.000000 
-0.140196 -0.244239 0.000000 
-0.148771 -0.195519 0.000000 
-0.206137 -0.185439 0.000000 
-0.203272 -0.127159 0.000000 
-0.248822 -0.108052 0.000000 
-0.184107 -0.335194 0.000000 
-0.194087 -0.288123 0.000000 
-0.254518 -0.280834 0.000000 
-0.257999 -0.226791 0.000000 
-0.309989 -0.211344 0.000000 
-0.303634 -0.150791 0.000000 
-0.347291 -0.130537 0.000000 
-0.228076 -0.426236 0.000000 
-0.238653 -0.379936 0.000000 
-0.301289 -0.375168 0.000000 
-0.307137 -0.323036 0.000000 
-0.363357 -0.311010 0.000000 
-0.362728 -0.253347 0.000000 
-0.412158 -0.236034 0.000000 
-0.403033 -0.173697 0.000000 
-0.445601 -0.153183 0.000000 
-0.000000 -0.080651 0.000000 
0.043471 -0.177265 0.000000 
-0.000000 -0.147176 0.000000 
-0.043471 -0.177265 0.000000 
0.087241 -0.269756 0.000000 
0.043830 -0.245980 0.000000 
-0.000000 -0.284570 0.000000 
-0.043830 -0.245980 0.000000 
-0.087241 -0.269756 0.000000 
0.130854 -0.360935 0.000000 
0.087849 -0.339477 0.000000 
0.044479 -0.382023 0.000000 
-0.000000 -0.351094 0.000000 
-0.044479 -0.382023 0.000000 
-0.087849 -0.339477 0.000000 
-0.130854 -0.360935 0.000000 
0.174518 -0.451984 0.000000 
0.131845 -0.431354 0.000000 
0.089031 -0.476975 0.000000 
0.044618 -0.449192 0.000000 
-0.000000 -0.487028 0.000000 
-0.044618 -0.449192 0.000000 
-0.089031 -0.476975 0.000000 
-0.131845 -0.431354 0.000000 
-0.174518 -0.451984 0.000000 
0.046929 -0.057994 0.000000 
0.149411 -0.084505 0.000000 
0.098894 -0.099548 0.000000 
0.095407 -0.152277 0.000000 
0.248822 -0.108052 0.000000 
0.203272 -0.127159 0.000000 
0.206137 -0.185439 0.000000 
0.148771 -0.195519 0.000000 
0.140196 -0.244239 0.000000 
0.347291 -0.130537 0.000000 
0.303634 -0.150791 0.000000 
0.309989 -0.211344 0.000000 
0.257999 -0.226791 0.000000 
0.254518 -0.280834 0.000000 
0.194087 -0.288123 0.000000 
0.184107 -0.335194 0.000000 
0.445601 -0.153183 0.000000 
0.403033 -0.173697 0.000000 
0.412158 -0.236034 0.000000 
0.362728 -0.253347 0.000000 
0.363357 -0.311010 0.000000 
0.307137 -0.323036 0.000000 
0.301289 -0.375168 0.000000 
0.238653 -0.379936 0.000000 
0.228076 -0.426236 0.000000 
0.058482 -0.007417 0.000000 
0.142894 0.056016 0.000000 
0.123229 0.007216 0.000000 
0.162176 -0.028349 0.000000 
0.223225 0.119438 0.000000 
0.209718 0.071751 0.000000 
0.256875 0.037640 0.000000 
0.229096 -0.013645 0.000000 
0.261815 -0.050707 0.000000 
0.302166 0.182241 0.000000 
0.290654 0.135482 0.000000 
0.341693 0.102555 0.000000 
0.321430 0.052386 0.000000 
0.361557 0.015986 0.000000 
0.329703 -0.035796 0.000000 
0.360367 -0.072879 0.000000 
0.381443 0.244738 0.000000 
0.370707 0.198597 0.000000 
0.425051 0.167099 0.000000 
0.407381 0.117623 0.000000 
0.452879 0.082413 0.000000 
0.427318 0.030862 0.000000 
0.464416 -0.006233 0.000000 
0.429299 -0.058188 0.000000 
0.458818 -0.095271 0.000000 
0.026021 0.033051 0.000000 
0.028769 0.138405 0.000000 
0.054767 0.092459 0.000000 
0.106911 0.100765 0.000000 
0.029385 0.240894 0.000000 
0.058164 0.200547 0.000000 
0.114313 0.216410 0.000000 
0.137054 0.162641 0.000000 
0.186489 0.165370 0.000000 
0.029517 0.342147 0.000000 
0.058899 0.303973 0.000000 
0.116448 0.323553 0.000000 
0.143090 0.276391 0.000000 
0.196565 0.285096 0.000000 
0.217220 0.228039 0.000000 
0.265349 0.228714 0.000000 
0.029616 0.443030 0.000000 
0.059115 0.406197 0.000000 
0.117576 0.428601 0.000000 
0.145492 0.384082 0.000000 
0.201362 0.397067 0.000000 
0.225773 0.345261 0.000000 
0.277743 0.351402 0.000000 
0.296724 0.291712 0.000000 
0.344160 0.291704 0.000000 
VECTORS X_EC float 
0.338273 0.053811 0.000000 
-0.610152 -0.860327 0.000000 
0.711974 -0.748192 0.000000 
0.373996 0.631533 0.000000 
0.424355 0.267510 0.000000 
-0.218292 0.304349 0.000000 
-0.513929 -0.421529 0.000000 
0.756126 -0.207381 0.000000 
0.382002 -0.752069 0.000000 
-0.550460 -0.587638 0.000000 
0.823860 -0.578531 0.000000 
0.555342 0.651197 0.000000 
-0.139834 0.768724 0.000000 
-0.486178 0.132031 0.000000 
0.765693 0.396361 0.000000 
0.383727 -0.118982 0.000000 
0.474078 0.561998 0.000000 
-0.142589 0.561887 0.000000 
-0.389343 -0.243923 0.000000 
0.935046 -0.161020 0.000000 
0.617711 -0.860403 0.000000 
-0.108600 -0.685102 0.000000 
-0.471508 0.713884 0.000000 
0.768490 -0.983665 0.000000 
0.385013 0.519092 0.000000 
0.760267 0.600127 0.000000 
0.108282 0.882716 0.000000 
-0.398019 0.402578 0.000000 
-0.142376 -0.256220 0.000000 
-0.596402 -0.815452 0.000000 
0.978252 0.684201 0.000000 
-0.660622 -0.008140 0.000000 
0.726330 -0.468645 0.000000 
0.901925 0.887594 0.000000 
0.684774 -0.516135 0.000000 
0.286136 0.983242 0.000000 
0.700236 0.284195 0.000000 
0.178586 -0.207212 0.000000 
0.442010 -0.884496 0.000000 
-0.221499 0.670987 0.000000 
-0.071843 0.039748 0.000000 
-0.035361 -0.213846 0.000000 
-0.419114 -0.714468 0.000000 
0.037410 0.584144 0.000000 
-0.444868 0.083360 0.000000 
-0.112572 -0.612574 0.000000 
-0.704042 0.912087 0.000000 
-0.474338 0.244158 0.000000 
0.819192 -0.181054 0.000000 
0.958763 -0.803965 0.000000 
0.610076 -0.717086 0.000000 
-0.759712 0.555739 0.000000 
-0.714382 -0.156100 0.000000 
-0.057658 -0.359178 0.000000 
-0.177452 -0.202773 0.000000 
-0.065980 -0.860494 0.000000 
0.679782 -0.996576 0.000000 
0.642534 0.216641 0.000000 
-0.765312 -0.041301 0.000000 
0.393393 -0.974886 0.000000 
0.523127 0.389661 0.000000 
-0.691267 0.291261 0.000000 
-0.646014 -0.438321 0.000000 
0.029862 -0.646861 0.000000 
-0.052752 0.535680 0.000000 
0.514785 0.262254 0.000000 
0.964992 0.254192 0.000000 
-0.897515 -0.370865 0.000000 
-0.083248 -0.435228 0.000000 
-0.007216 0.860987 0.000000 
0.723639 0.698633 0.000000 
0.715460 -0.079811 0.000000 
-0.641944 -0.313537 0.000000 
-0.760566 0.844909 0.000000 
-0.207182 0.567974 0.000000 
0.000000 -0.411205 0.000000 
-0.565122 0.893080 0.000000 
0.000000 0.486874 0.000000 
0.565122 0.893080 0.000000 
0.865871 0.141700 0.000000 
-0.569792 -0.179267 0.000000 
0.000000 0.341700 0.000000 
0.569792 -0.179267 0.000000 
-0.865871 0.141700 0.000000 
0.298900 -0.627379 0.000000 
0.857966 -0.917055 0.000000 
-0.578223 -0.342694 0.000000 
0.000000 -0.760229 0.000000 
0.578223 -0.342694 0.000000 
-0.857966 -0.917055 0.000000 
-0.298900 -0.627379 0.000000 
-0.268738 0.601783 0.000000 
0.286018 0.323282 0.000000 
0.842599 0.939164 0.000000 
-0.580031 0.564086 0.000000 
0.000000 -0.925127 0.000000 
0.580031 0.564086 0.000000 
-0.842599 0.939164 0.000000 
-0.286018 0.323282 0.000000 
0.268738 0.601783 0.000000 
-0.610076 -0.717086 0.000000 
0.057658 -0.359178 0.000000 
0.714382 -0.156100 0.000000 
0.759712 0.555739 0.000000 
0.765312 -0.041301 0.000000 
-0.642534 0.216641 0.000000 
-0.679782 -0.996576 0.000000 
0.065980 -0.860494 0.000000 
0.177452 -0.202773 0.000000 
-0.514785 0.262254 0.000000 
0.052752 0.535680 0.000000 
-0.029862 -0.646861 0.000000 
0.646014 -0.438321 0.000000 
0.691267 0.291261 0.000000 
-0.523127 0.389661 0.000000 
-0.393393 -0.974886 0.000000 
0.207182 0.567974 0.000000 
0.760566 0.844909 0.000000 
0.641944 -0.313537 0.000000 
-0.715460 -0.079811 0.000000 
-0.723639 0.698633 0.000000 
0.007216 0.860987 0.000000 
0.083248 -0.435228 0.000000 
0.897515 -0.370865 0.000000 
-0.964992 0.254192 0.000000 
-0.760267 0.600127 0.000000 
0.142376 -0.256220 0.000000 
0.398019 0.402578 0.000000 
-0.108282 0.882716 0.000000 
-0.901925 0.887594 0.000000 
-0.726330 -0.468645 0.000000 
0.660622 -0.008140 0.000000 
-0.978252 0.684201 0.000000 
0.596402 -0.815452 0.000000 
0.071843 0.039748 0.000000 
0.221499 0.670987 0.000000 
-0.442010 -0.884496 0.000000 
-0.178586 -0.207212 0.000000 
-0.700236 0.284195 0.000000 
-0.286136 0.983242 0.000000 
-0.684774 -0.516135 0.000000 
-0.958763 -0.803965 0.000000 
-0.819192 -0.181054 0.000000 
0.474338 0.244158 0.000000 
0.704042 0.912087 0.000000 
0.112572 -0.612574 0.000000 
0.444868 0.083360 0.000000 
-0.037410 0.584144 0.000000 
0.419114 -0.714468 0.000000 
0.035361 -0.213846 0.000000 
-0.338273 0.053811 0.000000 
-0.373996 0.631533 0.000000 
-0.711974 -0.748192 0.000000 
0.610152 -0.860327 0.000000 
-0.382002 -0.752069 0.000000 
-0.756126 -0.207381 0.000000 
0.513929 -0.421529 0.000000 
0.218292 0.304349 0.000000 
-0.424355 0.267510 0.000000 
-0.383727 -0.118982 0.000000 
-0.765693 0.396361 0.000000 
0.486178 0.132031 0.000000 
0.139834 0.768724 0.000000 
-0.555342 0.651197 0.000000 
-0.823860 -0.578531 0.000000 
0.550460 -0.587638 0.000000 
-0.385013 0.519092 0.000000 
-0.768490 -0.983665 0.000000 
0.471508 0.713884 0.000000 
0.108600 -0.685102 0.000000 
-0.617711 -0.860403 0.000000 
-0.935046 -0.161020 0.000000 
0.389343 -0.243923 0.000000 
0.142589 0.561887 0.000000 
-0.474078 0.561998 0.000000 
CELL_DATA 175 
SCALARS MASS float 
LOOKUP_TABLE default 
0.781831 
0.864274 
0.946717 
0.864274 
0.881307 
0.921110 
0.858535 
0.921110 
0.881307 
0.887046 
0.910001 
0.869829 
0.915556 
0.869829 
0.910001 
0.887046 
0.892784 
0.915740 
0.892784 
0.927218 
0.892784 
0.927218 
0.892784 
0.915740 
0.892784 
0.781831 
0.864274 
0.946717 
0.864274 
0.881307 
0.921110 
0.858535 
0.921110 
0.881307 
0.887046 
0.910001 
0.869829 
0.915556 
0.869829 
0.910001 
0.887046 
0.892784 
0.915740 
0.892784 
0.927218 
0.892784 
0.927218 
0.892784 
0.915740 
0.892784 
0.781831 
0.864274 
0.946717 
0.864274 
0.881307 
0.921110 
0.858535 
0.921110 
0.881307 
0.887046 
0.910001 
0.869829 
0.915556 
0.869829 
0.910001 
0.887046 
0.892784 
0.915740 
0.892784 
0.927218 
0.892784 
0.927218 
0.892784 
0.915740 
0.892784 
0.781831 
0.864274 
0.946717 
0.864274 
0.881307 
0.921110 
0.858535 
0.921110 
0.881307 
0.887046 
0.910001 
0.869829 
0.915556 
0.869829 
0.910001 
0.887046 
0.892784 
0.915740 
0.892784 
0.927218 
0.892784 
0.927218 
0.892784 
0.915740 
0.892784 
0.781831 
0.864274 
0.946717 
0.864274 
0.881307 
0.921110 
0.858535 
0.921110 
0.881307 
0.887046 
0.910001 
0.869829 
0.915556 
0.869829 
0.910001 
0.887046 
0.892784 
0.915740 
0.892784 
0.927218 
0.892784 
0.927218 
0.892784 
0.915740 
0.892784 
0.781831 
0.864274 
0.946717 
0.864274 
0.881307 
0.921110 
0.858535 
0.921110 
0.881307 
0.887046 
0.910001 
0.869829 
0.915556 
0.869829 
0.910001 
0.887046 
0.892784 
0.915740 
0.892784 
0.927218 
0.892784 
0.927218 
0.892784 
0.915740 
0.892784 
0.781831 
0.864274 
0.946717 
0.864274 
0.881307 
0.921110 
0.858535 
0.921110 
0.881307 
0.887046 
0.910001 
0.869829 
0.915556 
0.869829 
0.910001 
0.887046 
0.892784 
0.915740 
0.892784 
0.927218 
0.892784 
0.927218 
0.892784 
0.915740 
0.892784 
SCALARS MASS float 
LOOKUP_TABLE default 
0.781831 
0.864274 
0.946717 
0.864274 
0.881307 
0.921110 
0.858535 
0.921110 
0.881307 
0.887046 
0.910001 
0.869829 
0.915556 
0.869829 
0.910001 
0.887046 
0.892784 
0.915740 
0.892784 
0.927218 
0.892784 
0.927218 
0.892784 
0.915740 
0.892784 
0.781831 
0.864274 
0.946717 
0.864274 
0.881307 
0.921110 
0.858535 
0.921110 
0.881307 
0.887046 
0.910001 
0.869829 
0.915556 
0.869829 
0.910001 
0.887046 
0.892784 
0.915740 
0.892784 
0.927218 
0.892784 
0.927218 
0.892784 
0.915740 
0.892784 
0.781831 
0.864274 
0.946717 
0.864274 
0.881307 
0.921110 
0.858535 
0.921110 
0.881307 
0.887046 
0.910001 
0.869829 
0.915556 
0.869829 
0.910001 
0.887046 
0.892784 
0.915740 
0.892784 
0.927218 
0.892784 
0.927218 
0.892784 
0.915740 
0.892784 
0.781831 
0.864274 
0.946717 
0.864274 
0.881307 
0.921110 
0.858535 
0.921110 
0.881307 
0.887046 
0.910001 
0.869829 
0.915556 
0.869829 
0.910001 
0.887046 
0.892784 
0.915740 
0.892784 
0.927218 
0.892784 
0.927218 
0.892784 
0.915740 
0.892784 
0.781831 
0.864274 
0.946717 
0.864274 
0.881307 
0.921110 
0.858535 
0.921110 
0.881307 
0.887046 
0.910001 
0.869829 
0.915556 
0.869829 
0.910001 
0.887046 
0.892784 
0.915740 
0.892784 
0.927218 
0.892784 
0.927218 
0.892784 
0.915740 
0.892784 
0.781831 
0.864274 
0.946717 
0.864274 
0.881307 
0.921110 
0.858535 
0.921110 
0.881307 
0.887046 
0.910001 
0.869829 
0.915556 
0.869829 
0.910001 
0.887046 
0.892784 
0.915740 
0.892784 
0.927218 
0.892784 
0.927218 
0.892784 
0.915740 
0.892784 
0.781831 
0.864274 
0.946717 
0.864274 
0.881307 
0.921110 
0.858535 
0.921110 
0.881307 
0.887046 
0.910001 
0.869829 
0.915556 
0.869829 
0.910001 
0.887046 
0.892784 
0.915740 
0.892784 
0.927218 
0.892784 
0.927218 
0.892784 
0.915740 
0.892784 
SCALARS DENSITY float 
LOOKUP_TABLE default 
199.318638 
199.894137 
199.253823 
200.687855 
200.272360 
200.770601 
201.419728 
200.089614 
199.702355 
199.913682 
200.425172 
198.614003 
199.985216 
200.592571 
199.967960 
200.466469 
202.252893 
199.841743 
197.989118 
197.786115 
200.685187 
199.758586 
200.298186 
199.059621 
199.895541 
199.362850 
200.099031 
199.624247 
199.677107 
200.466011 
200.704478 
200.951905 
200.279117 
199.541033 
199.758175 
199.918181 
199.234918 
199.812969 
198.259680 
200.078505 
199.985371 
199.867389 
199.634793 
200.731191 
199.508135 
199.972747 
200.637226 
199.879610 
199.926748 
199.542277 
200.430138 
200.466569 
200.345011 
200.052773 
200.192047 
200.621044 
199.953799 
199.855826 
200.355885 
199.442056 
199.716515 
199.449894 
199.692972 
200.312030 
200.149194 
199.906179 
200.610981 
200.021324 
200.419253 
199.855661 
200.508359 
200.721596 
200.283844 
199.386760 
199.742562 
200.427136 
200.414523 
200.418419 
200.414523 
200.961345 
200.700116 
200.952024 
200.700116 
200.961345 
199.914795 
200.387519 
199.661640 
199.566028 
199.661640 
200.387519 
199.914795 
200.233747 
199.929199 
199.631037 
199.869535 
202.308214 
199.869535 
199.631037 
199.929199 
200.233747 
200.430138 
200.052773 
200.345011 
200.466569 
200.355885 
199.855826 
199.953799 
200.621044 
200.192047 
199.906179 
200.149194 
200.312030 
199.692972 
199.449894 
199.716515 
199.442056 
199.742562 
199.386760 
200.283844 
200.721596 
200.508359 
199.855661 
200.419253 
200.021324 
200.610981 
199.362850 
199.677107 
199.624247 
200.099031 
199.541033 
200.279117 
200.951905 
200.704478 
200.466011 
199.985371 
200.078505 
198.259680 
199.812969 
199.234918 
199.918181 
199.758175 
199.542277 
199.926748 
199.879610 
200.637226 
199.972747 
199.508135 
200.731191 
199.634793 
199.867389 
199.318638 
200.687855 
199.253823 
199.894137 
199.702355 
200.089614 
201.419728 
200.770601 
200.272360 
200.466469 
199.967960 
200.592571 
199.985216 
198.614003 
200.425172 
199.913682 
199.895541 
199.059621 
200.298186 
199.758586 
200.685187 
197.786115 
197.989118 
199.841743 
202.252893 
SCALARS ELEM_i float 
LOOKUP_TABLE default 
182 
209 
182 
183 
210 
210 
210 
183 
183 
237 
210 
211 
211 
211 
184 
184 
238 
238 
238 
211 
211 
211 
212 
184 
185 
182 
209 
209 
209 
235 
209 
236 
209 
210 
235 
236 
236 
236 
236 
237 
237 
262 
262 
263 
263 
263 
264 
264 
237 
237 
181 
208 
208 
208 
207 
207 
207 
208 
235 
206 
207 
234 
234 
234 
235 
235 
206 
233 
233 
234 
234 
234 
261 
262 
262 
181 
181 
181 
181 
153 
180 
180 
180 
207 
152 
152 
179 
179 
179 
206 
206 
152 
152 
152 
179 
178 
179 
206 
206 
206 
181 
154 
154 
154 
127 
154 
153 
153 
153 
127 
127 
126 
126 
126 
153 
152 
100 
100 
99 
126 
126 
126 
125 
125 
152 
182 
155 
155 
155 
156 
155 
128 
155 
127 
129 
129 
128 
128 
128 
128 
127 
129 
129 
102 
102 
101 
101 
101 
100 
100 
182 
183 
182 
155 
183 
183 
156 
156 
156 
184 
184 
157 
157 
157 
156 
129 
185 
184 
158 
157 
157 
157 
130 
130 
130 
VECTORS VELOCITY float 
0.026501 -0.673969 0.000000 
0.051460 -0.315595 0.004453 
0.070027 -0.638655 0.019525 
0.031847 -0.820904 0.000000 
-0.030799 -0.584304 0.000000 
0.015368 -0.664782 0.000000 
0.018412 -0.576483 0.000000 
0.038969 -0.657576 0.000000 
0.011407 -0.316091 0.015748 
-0.052409 -0.520048 0.000000 
-0.045292 -0.452168 0.000000 
-0.019949 -0.569430 0.000000 
-0.001247 -0.521806 0.000000 
0.019067 -0.587607 0.000000 
0.022709 -0.514589 0.000000 
0.013056 -0.525438 0.000000 
0.003008 -0.545859 0.000000 
-0.011186 -0.576904 0.000000 
0.051638 -0.697806 0.000000 
-0.005481 -0.884288 0.000000 
-0.008510 -0.544274 0.018466 
0.025845 -0.785340 0.000000 
0.054699 -0.715008 0.000000 
0.047296 -0.118310 0.020169 
0.036832 -0.686988 0.000000 
0.049214 -0.537645 0.000000 
0.007428 -0.589406 0.000000 
0.033946 -0.609666 0.000000 
0.019200 -0.697915 0.000000 
-0.025437 -0.316483 0.004598 
-0.038062 -0.674674 0.000000 
-0.043171 -0.652653 0.000000 
-0.053228 -0.641888 0.000000 
-0.076341 -0.588832 0.000000 
-0.044990 -0.591898 0.000000 
-0.030525 -0.642668 0.000000 
0.012783 -0.680399 0.000000 
0.009185 -0.690990 0.000000 
0.048730 -0.278652 0.016477 
-0.018767 -0.658582 0.000000 
-0.029152 -0.642846 0.000000 
0.012637 -0.604311 0.000000 
-0.014487 -0.628707 0.000000 
0.012312 -0.661249 0.000000 
0.028565 -0.662692 0.000000 
0.037641 -0.605438 0.000000 
0.072010 -0.738736 0.000000 
-0.026421 -0.605810 0.000000 
-0.012403 -0.779324 0.000000 
-0.049849 -0.410904 0.022308 
0.024359 -0.431507 0.000000 
-0.023809 -0.585659 0.000000 
0.006428 -0.523599 0.000000 
-0.000930 -0.585919 0.000000 
-0.026227 -0.701980 0.000000 
-0.038804 -0.226552 0.010618 
0.000000 -0.000000 0.019143 
-0.025155 -0.689064 0.000000 
-0.032018 -0.698060 0.000000 
0.073623 -0.136252 0.015885 
-0.016873 -0.669148 0.000000 
-0.029249 -0.631389 0.000000 
-0.039060 -0.660621 0.000000 
-0.060474 -0.590439 0.000000 
-0.051712 -0.609005 0.000000 
-0.058816 -0.555089 0.000000 
0.002984 -0.607571 0.000000 
-0.008980 -0.595447 0.000000 
-0.050980 -0.665083 0.000000 
-0.044374 -0.635373 0.000000 
-0.068969 -0.650422 0.000000 
-0.075097 -0.569521 0.000000 
-0.083397 -0.549408 0.000000 
-0.055289 -0.460340 0.000000 
0.007064 -0.513753 0.000000 
-0.000000 -0.463947 0.000000 
0.021956 -0.602272 0.000000 
-0.000000 -0.559192 0.000000 
-0.021956 -0.602272 0.000000 
0.018333 -0.757992 0.000000 
0.014617 -0.724213 0.000000 
-0.000000 -0.791864 0.000000 
-0.014617 -0.724213 0.000000 
-0.018333 -0.757992 0.000000 
0.012291 -0.732490 0.000000 
0.000904 -0.334392 0.021187 
0.017559 -0.747277 0.000000 
-0.000000 -0.593227 0.011396 
-0.017559 -0.747277 0.000000 
-0.000904 -0.334392 0.001605 
-0.012291 -0.732490 0.000000 
0.023811 -0.582934 0.000000 
0.039926 -0.594842 0.000000 
0.088155 -0.452284 0.000000 
0.044672 -0.527908 0.000000 
-0.000000 -0.862280 0.011396 
-0.044672 -0.527908 0.000000 
-0.088155 -0.452284 0.000000 
-0.039926 -0.594842 0.000000 
-0.023811 -0.582934 0.000000 
-0.024359 -0.431507 0.000000 
0.000930 -0.585919 0.000000 
-0.006428 -0.523599 0.000000 
0.023809 -0.585659 0.000000 
0.032018 -0.698060 0.000000 
0.025155 -0.689064 0.000000 
0.000000 -0.000000 0.003649 
0.038804 -0.226552 0.012174 
0.026227 -0.701980 0.000000 
0.058816 -0.555089 0.000000 
0.051712 -0.609005 0.000000 
0.060474 -0.590439 0.000000 
0.039060 -0.660621 0.000000 
0.029249 -0.631389 0.000000 
0.016873 -0.669148 0.000000 
-0.073623 -0.136252 0.006907 
-0.007064 -0.513753 0.000000 
0.055289 -0.460340 0.000000 
0.083397 -0.549408 0.000000 
0.075097 -0.569521 0.000000 
0.068969 -0.650422 0.000000 
0.044374 -0.635373 0.000000 
0.050980 -0.665083 0.000000 
0.008980 -0.595447 0.000000 
-0.002984 -0.607571 0.000000 
-0.049214 -0.537645 0.000000 
-0.019200 -0.697915 0.000000 
-0.033946 -0.609666 0.000000 
-0.007428 -0.589406 0.000000 
0.076341 -0.588832 0.000000 
0.053228 -0.641888 0.000000 
0.043171 -0.652653 0.000000 
0.038062 -0.674674 0.000000 
0.025437 -0.316483 0.018194 
0.029152 -0.642846 0.000000 
0.018767 -0.658582 0.000000 
-0.048730 -0.278652 0.006315 
-0.009185 -0.690990 0.000000 
-0.012783 -0.680399 0.000000 
0.030525 -0.642668 0.000000 
0.044990 -0.591898 0.000000 
0.049849 -0.410904 0.000484 
0.012403 -0.779324 0.000000 
0.026421 -0.605810 0.000000 
-0.072010 -0.738736 0.000000 
-0.037641 -0.605438 0.000000 
-0.028565 -0.662692 0.000000 
-0.012312 -0.661249 0.000000 
0.014487 -0.628707 0.000000 
-0.012637 -0.604311 0.000000 
-0.026501 -0.673969 0.000000 
-0.031847 -0.820904 0.000000 
-0.070027 -0.638655 0.003267 
-0.051460 -0.315595 0.018339 
-0.011407 -0.316091 0.007044 
-0.038969 -0.657576 0.000000 
-0.018412 -0.576483 0.000000 
-0.015368 -0.664782 0.000000 
0.030799 -0.584304 0.000000 
-0.013056 -0.525438 0.000000 
-0.022709 -0.514589 0.000000 
-0.019067 -0.587607 0.000000 
0.001247 -0.521806 0.000000 
0.019949 -0.569430 0.000000 
0.045292 -0.452168 0.000000 
0.052409 -0.520048 0.000000 
-0.036832 -0.686988 0.000000 
-0.047296 -0.118310 0.002623 
-0.054699 -0.715008 0.000000 
-0.025845 -0.785340 0.000000 
0.008510 -0.544274 0.004326 
0.005481 -0.884288 0.000000 
-0.051638 -0.697806 0.000000 
0.011186 -0.576904 0.000000 
-0.003008 -0.545859 0.000000 
TENSORS STRESS float 
0.860169 -0.021161 0.000000 
0.000000 0.658918 0.000000 
0.000000 0.000000 0.000000 

-1.903257 -0.076742 0.000000 
0.000000 -1.890714 0.000000 
0.000000 0.000000 0.000000 

1.795424 -0.054025 0.000000 
0.000000 1.493688 0.000000 
0.000000 0.000000 0.000000 

-0.610992 -0.018146 0.000000 
0.000000 -1.155037 0.000000 
0.000000 0.000000 0.000000 

-2.300616 -0.094825 0.000000 
0.000000 -2.097083 0.000000 
0.000000 0.000000 0.000000 

-4.176130 -0.190112 0.000000 
0.000000 -4.123503 0.000000 
0.000000 0.000000 0.000000 

-5.981774 -0.374788 0.000000 
0.000000 -5.898299 0.000000 
0.000000 0.000000 0.000000 

-0.101843 -0.039654 0.000000 
0.000000 -0.725805 0.000000 
0.000000 0.000000 0.000000 

0.245496 -0.019343 0.000000 
0.000000 -0.379055 0.000000 
0.000000 0.000000 0.000000 

1.420400 0.158672 0.000000 
0.000000 1.349324 0.000000 
0.000000 0.000000 0.000000 

-2.861979 -0.230511 0.000000 
0.000000 -2.432203 0.000000 
0.000000 0.000000 0.000000 

-2.843366 -0.011300 0.000000 
0.000000 -2.364160 0.000000 
0.000000 0.000000 0.000000 

-0.534636 -0.021887 0.000000 
0.000000 0.178310 0.000000 
0.000000 0.000000 0.000000 

0.934650 0.164933 0.000000 
0.000000 1.687949 0.000000 
0.000000 0.000000 0.000000 

7.213502 0.394901 0.000000 
0.000000 7.818980 0.000000 
0.000000 0.000000 0.000000 

3.788792 0.192399 0.000000 
0.000000 4.625626 0.000000 
0.000000 0.000000 0.000000 

-1.439433 0.695931 0.000000 
0.000000 -2.198285 0.000000 
0.000000 0.000000 0.000000 

0.895915 0.781308 0.000000 
0.000000 0.307239 0.000000 
0.000000 0.000000 0.000000 

2.761088 1.039820 0.000000 
0.000000 2.185730 0.000000 
0.000000 0.000000 0.000000 

-4.069648 0.213282 0.000000 
0.000000 -3.701174 0.000000 
0.000000 0.000000 0.000000 

-5.860092 0.017187 0.000000 
0.000000 -5.733763 0.000000 
0.000000 0.000000 0.000000 

-0.005029 0.402273 0.000000 
0.000000 0.658912 0.000000 
0.000000 0.000000 0.000000 

-0.786589 0.050531 0.000000 
0.000000 -0.409840 0.000000 
0.000000 0.000000 0.000000 

6.666616 0.108036 0.000000 
0.000000 8.636674 0.000000 
0.000000 0.000000 0.000000 

-7.633642 0.039462 0.000000 
0.000000 -6.794499 0.000000 
0.000000 0.000000 0.000000 

0.436322 -0.047503 0.000000 
0.000000 0.267705 0.000000 
0.000000 0.000000 0.000000 

-3.299157 -0.179013 0.000000 
0.000000 -3.149120 0.000000 
0.000000 0.000000 0.000000 

-3.272292 -0.165801 0.000000 
0.000000 -3.157346 0.000000 
0.000000 0.000000 0.000000 

-2.300470 -0.183320 0.000000 
0.000000 -2.237758 0.000000 
0.000000 0.000000 0.000000 

0.697776 0.357638 0.000000 
0.000000 1.136870 0.000000 
0.000000 0.000000 0.000000 

-3.066886 -0.262751 0.000000 
0.000000 -2.903133 0.000000 
0.000000 0.000000 0.000000 

-3.881584 -0.318588 0.000000 
0.000000 -3.510569 0.000000 
0.000000 0.000000 0.000000 

-1.998074 -0.268719 0.000000 
0.000000 -1.927801 0.000000 
0.000000 0.000000 0.000000 

0.172981 0.114579 0.000000 
0.000000 0.398370 0.000000 
0.000000 0.000000 0.000000 

2.855276 0.355594 0.000000 
0.000000 3.524485 0.000000 
0.000000 0.000000 0.000000 

0.803589 0.057662 0.000000 
0.000000 1.231242 0.000000 
0.000000 0.000000 0.000000 

0.249847 -0.015138 0.000000 
0.000000 0.873353 0.000000 
0.000000 0.000000 0.000000 

-2.345538 -0.224174 0.000000 
0.000000 -1.719237 0.000000 
0.000000 0.000000 0.000000 

-1.132254 0.010979 0.000000 
0.000000 -0.200641 0.000000 
0.000000 0.000000 0.000000 

-6.205577 -0.330866 0.000000 
0.000000 -5.876078 0.000000 
0.000000 0.000000 0.000000 

-3.385874 -0.208517 0.000000 
0.000000 -3.351434 0.000000 
0.000000 0.000000 0.000000 

4.234842 0.137482 0.000000 
0.000000 4.545660 0.000000 
0.000000 0.000000 0.000000 

6.155921 0.290591 0.000000 
0.000000 6.479237 0.000000 
0.000000 0.000000 0.000000 

0.013544 0.555708 0.000000 
0.000000 -0.323086 0.000000 
0.000000 0.000000 0.000000 

3.814879 0.894606 0.000000 
0.000000 3.711485 0.000000 
0.000000 0.000000 0.000000 

1.986155 1.212851 0.000000 
0.000000 1.655793 0.000000 
0.000000 0.000000 0.000000 

-2.845882 0.730455 0.000000 
0.000000 -3.917314 0.000000 
0.000000 0.000000 0.000000 

1.070787 1.018453 0.000000 
0.000000 -0.575139 0.000000 
0.000000 0.000000 0.000000 

-5.510306 -0.524168 0.000000 
0.000000 -5.826469 0.000000 
0.000000 0.000000 0.000000 

-2.433712 -0.261509 0.000000 
0.000000 -3.006193 0.000000 
0.000000 0.000000 0.000000 

-1.855353 0.054299 0.000000 
0.000000 -2.210857 0.000000 
0.000000 0.000000 0.000000 

-2.978506 0.451584 0.000000 
0.000000 -3.187553 0.000000 
0.000000 0.000000 0.000000 

-4.377649 0.319988 0.000000 
0.000000 -4.497484 0.000000 
0.000000 0.000000 0.000000 

-2.413736 0.329728 0.000000 
0.000000 -2.337962 0.000000 
0.000000 0.000000 0.000000 

-1.029912 0.294777 0.000000 
0.000000 -1.064903 0.000000 
0.000000 0.000000 0.000000 

-2.166316 0.202986 0.000000 
0.000000 -2.415405 0.000000 
0.000000 0.000000 0.000000 

1.937737 0.740052 0.000000 
0.000000 2.023019 0.000000 
0.000000 0.000000 0.000000 

0.601793 0.592106 0.000000 
0.000000 0.788127 0.000000 
0.000000 0.000000 0.000000 

-0.285699 0.541688 0.000000 
0.000000 0.197189 0.000000 
0.000000 0.000000 0.000000 

8.765656 0.359076 0.000000 
0.000000 9.763747 0.000000 
0.000000 0.000000 0.000000 

-1.420688 0.262308 0.000000 
0.000000 -1.379962 0.000000 
0.000000 0.000000 0.000000 

-4.652964 0.079923 0.000000 
0.000000 -4.341062 0.000000 
0.000000 0.000000 0.000000 

-4.870060 0.102376 0.000000 
0.000000 -4.545986 0.000000 
0.000000 0.000000 0.000000 

-4.801421 0.099277 0.000000 
0.000000 -4.511786 0.000000 
0.000000 0.000000 0.000000 

0.406547 0.584857 0.000000 
0.000000 1.064006 0.000000 
0.000000 0.000000 0.000000 

1.718284 0.483462 0.000000 
0.000000 2.424005 0.000000 
0.000000 0.000000 0.000000 

3.605706 0.363813 0.000000 
0.000000 4.106797 0.000000 
0.000000 0.000000 0.000000 

0.780589 0.228599 0.000000 
0.000000 1.484407 0.000000 
0.000000 0.000000 0.000000 

-0.673456 0.296350 0.000000 
0.000000 -0.097392 0.000000 
0.000000 0.000000 0.000000 

-5.193968 0.067978 0.000000 
0.000000 -4.878041 0.000000 
0.000000 0.000000 0.000000 

-5.198274 0.066678 0.000000 
0.000000 -4.914064 0.000000 
0.000000 0.000000 0.000000 

-5.350863 0.088582 0.000000 
0.000000 -5.058597 0.000000 
0.000000 0.000000 0.000000 

-1.415073 -0.336734 0.000000 
0.000000 -1.376895 0.000000 
0.000000 0.000000 0.000000 

4.112142 0.048856 0.000000 
0.000000 4.721800 0.000000 
0.000000 0.000000 0.000000 

3.237250 0.019514 0.000000 
0.000000 3.687863 0.000000 
0.000000 0.000000 0.000000 

-1.517020 0.000000 0.000000 
0.000000 -1.898557 0.000000 
0.000000 0.000000 0.000000 

-0.082077 -0.055733 0.000000 
0.000000 -0.626566 0.000000 
0.000000 0.000000 0.000000 

-0.634030 0.000000 0.000000 
0.000000 -1.188590 0.000000 
0.000000 0.000000 0.000000 

-0.082077 0.055733 0.000000 
0.000000 -0.626566 0.000000 
0.000000 0.000000 0.000000 

-1.692079 -0.365212 0.000000 
0.000000 -1.722364 0.000000 
0.000000 0.000000 0.000000 

1.786713 0.051802 0.000000 
0.000000 1.472985 0.000000 
0.000000 0.000000 0.000000 

1.109360 0.000000 0.000000 
0.000000 0.859917 0.000000 
0.000000 0.000000 0.000000 

1.786713 -0.051802 0.000000 
0.000000 1.472985 0.000000 
0.000000 0.000000 0.000000 

-1.692079 0.365212 0.000000 
0.000000 -1.722364 0.000000 
0.000000 0.000000 0.000000 

4.989304 -0.420702 0.000000 
0.000000 5.661554 0.000000 
0.000000 0.000000 0.000000 

3.063129 -0.338361 0.000000 
0.000000 3.603831 0.000000 
0.000000 0.000000 0.000000 

8.111916 0.049552 0.000000 
0.000000 8.676761 0.000000 
0.000000 0.000000 0.000000 

9.012333 -0.000000 0.000000 
0.000000 9.571013 0.000000 
0.000000 0.000000 0.000000 

8.111916 -0.049552 0.000000 
0.000000 8.676761 0.000000 
0.000000 0.000000 0.000000 

3.063129 0.338361 0.000000 
0.000000 3.603831 0.000000 
0.000000 0.000000 0.000000 

4.989304 0.420702 0.000000 
0.000000 5.661554 0.000000 
0.000000 0.000000 0.000000 

4.715875 -0.303197 0.000000 
0.000000 5.287517 0.000000 
0.000000 0.000000 0.000000 

5.521057 -0.325141 0.000000 
0.000000 6.183089 0.000000 
0.000000 0.000000 0.000000 

6.411591 -0.230029 0.000000 
0.000000 7.103360 0.000000 
0.000000 0.000000 0.000000 

7.606242 0.052746 0.000000 
0.000000 8.287104 0.000000 
0.000000 0.000000 0.000000 

-5.316175 0.000000 0.000000 
0.000000 -5.601286 0.000000 
0.000000 0.000000 0.000000 

7.606242 -0.052746 0.000000 
0.000000 8.287104 0.000000 
0.000000 0.000000 0.000000 

6.411591 0.230029 0.000000 
0.000000 7.103360 0.000000 
0.000000 0.000000 0.000000 

5.521057 0.325141 0.000000 
0.000000 6.183089 0.000000 
0.000000 0.000000 0.000000 

4.715875 0.303197 0.000000 
0.000000 5.287517 0.000000 
0.000000 0.000000 0.000000 

-1.855353 -0.054298 0.000000 
0.000000 -2.210857 0.000000 
0.000000 0.000000 0.000000 

-2.413736 -0.329728 0.000000 
0.000000 -2.337962 0.000000 
0.000000 0.000000 0.000000 

-4.377649 -0.319988 0.000000 
0.000000 -4.497484 0.000000 
0.000000 0.000000 0.000000 

-2.978506 -0.451584 0.000000 
0.000000 -3.187553 0.000000 
0.000000 0.000000 0.000000 

-0.285699 -0.541688 0.000000 
0.000000 0.197189 0.000000 
0.000000 0.000000 0.000000 

0.601793 -0.592106 0.000000 
0.000000 0.788127 0.000000 
0.000000 0.000000 0.000000 

1.937737 -0.740052 0.000000 
0.000000 2.023019 0.000000 
0.000000 0.000000 0.000000 

-2.166316 -0.202986 0.000000 
0.000000 -2.415405 0.000000 
0.000000 0.000000 0.000000 

-1.029912 -0.294777 0.000000 
0.000000 -1.064903 0.000000 
0.000000 0.000000 0.000000 

1.718284 -0.483462 0.000000 
0.000000 2.424005 0.000000 
0.000000 0.000000 0.000000 

0.406547 -0.584857 0.000000 
0.000000 1.064006 0.000000 
0.000000 0.000000 0.000000 

-4.801421 -0.099277 0.000000 
0.000000 -4.511786 0.000000 
0.000000 0.000000 0.000000 

-4.870059 -0.102376 0.000000 
0.000000 -4.545986 0.000000 
0.000000 0.000000 0.000000 

-4.652964 -0.079923 0.000000 
0.000000 -4.341062 0.000000 
0.000000 0.000000 0.000000 

-1.420688 -0.262308 0.000000 
0.000000 -1.379962 0.000000 
0.000000 0.000000 0.000000 

8.765656 -0.359076 0.000000 
0.000000 9.763747 0.000000 
0.000000 0.000000 0.000000 

3.237250 -0.019514 0.000000 
0.000000 3.687863 0.000000 
0.000000 0.000000 0.000000 

4.112142 -0.048856 0.000000 
0.000000 4.721800 0.000000 
0.000000 0.000000 0.000000 

-1.415073 0.336734 0.000000 
0.000000 -1.376895 0.000000 
0.000000 0.000000 0.000000 

-5.350863 -0.088582 0.000000 
0.000000 -5.058597 0.000000 
0.000000 0.000000 0.000000 

-5.198274 -0.066678 0.000000 
0.000000 -4.914064 0.000000 
0.000000 0.000000 0.000000 

-5.193968 -0.067978 0.000000 
0.000000 -4.878041 0.000000 
0.000000 0.000000 0.000000 

-0.673456 -0.296350 0.000000 
0.000000 -0.097392 0.000000 
0.000000 0.000000 0.000000 

0.780589 -0.228599 0.000000 
0.000000 1.484407 0.000000 
0.000000 0.000000 0.000000 

3.605705 -0.363813 0.000000 
0.000000 4.106797 0.000000 
0.000000 0.000000 0.000000 

0.436322 0.047503 0.000000 
0.000000 0.267705 0.000000 
0.000000 0.000000 0.000000 

-2.300470 0.183320 0.000000 
0.000000 -2.237758 0.000000 
0.000000 0.000000 0.000000 

-3.272292 0.165801 0.000000 
0.000000 -3.157346 0.000000 
0.000000 0.000000 0.000000 

-3.299157 0.179013 0.000000 
0.000000 -3.149120 0.000000 
0.000000 0.000000 0.000000 

0.172981 -0.114579 0.000000 
0.000000 0.398370 0.000000 
0.000000 0.000000 0.000000 

-1.998074 0.268719 0.000000 
0.000000 -1.927801 0.000000 
0.000000 0.000000 0.000000 

-3.881584 0.318588 0.000000 
0.000000 -3.510569 0.000000 
0.000000 0.000000 0.000000 

-3.066886 0.262751 0.000000 
0.000000 -2.903133 0.000000 
0.000000 0.000000 0.000000 

0.697776 -0.357638 0.000000 
0.000000 1.136870 0.000000 
0.000000 0.000000 0.000000 

-3.385874 0.208517 0.000000 
0.000000 -3.351434 0.000000 
0.000000 0.000000 0.000000 

-6.205577 0.330866 0.000000 
0.000000 -5.876078 0.000000 
0.000000 0.000000 0.000000 

-1.132254 -0.010979 0.000000 
0.000000 -0.200641 0.000000 
0.000000 0.000000 0.000000 

-2.345538 0.224174 0.000000 
0.000000 -1.719237 0.000000 
0.000000 0.000000 0.000000 

0.249847 0.015138 0.000000 
0.000000 0.873353 0.000000 
0.000000 0.000000 0.000000 

0.803589 -0.057662 0.000000 
0.000000 1.231242 0.000000 
0.000000 0.000000 0.000000 

2.855276 -0.355594 0.000000 
0.000000 3.524485 0.000000 
0.000000 0.000000 0.000000 

-2.433712 0.261509 0.000000 
0.000000 -3.006193 0.000000 
0.000000 0.000000 0.000000 

-5.510306 0.524168 0.000000 
0.000000 -5.826469 0.000000 
0.000000 0.000000 0.000000 

1.070788 -1.018453 0.000000 
0.000000 -0.575138 0.000000 
0.000000 0.000000 0.000000 

-2.845882 -0.730455 0.000000 
0.000000 -3.917314 0.000000 
0.000000 0.000000 0.000000 

1.986155 -1.212851 0.000000 
0.000000 1.655793 0.000000 
0.000000 0.000000 0.000000 

3.814879 -0.894606 0.000000 
0.000000 3.711485 0.000000 
0.000000 0.000000 0.000000 

0.013544 -0.555708 0.000000 
0.000000 -0.323086 0.000000 
0.000000 0.000000 0.000000 

6.155921 -0.290591 0.000000 
0.000000 6.479237 0.000000 
0.000000 0.000000 0.000000 

4.234842 -0.137482 0.000000 
0.000000 4.545660 0.000000 
0.000000 0.000000 0.000000 

0.860169 0.021161 0.000000 
0.000000 0.658918 0.000000 
0.000000 0.000000 0.000000 

-0.610992 0.018146 0.000000 
0.000000 -1.155037 0.000000 
0.000000 0.000000 0.000000 

1.795424 0.054025 0.000000 
0.000000 1.493688 0.000000 
0.000000 0.000000 0.000000 

-1.903257 0.076742 0.000000 
0.000000 -1.890714 0.000000 
0.000000 0.000000 0.000000 

0.245496 0.019343 0.000000 
0.000000 -0.379055 0.000000 
0.000000 0.000000 0.000000 

-0.101843 0.039654 0.000000 
0.000000 -0.725805 0.000000 
0.000000 0.000000 0.000000 

-5.981774 0.374788 0.000000 
0.000000 -5.898299 0.000000 
0.000000 0.000000 0.000000 

-4.176130 0.190112 0.000000 
0.000000 -4.123503 0.000000 
0.000000 0.000000 0.000000 

-2.300616 0.094825 0.000000 
0.000000 -2.097083 0.000000 
0.000000 0.000000 0.000000 

3.788792 -0.192399 0.000000 
0.000000 4.625626 0.000000 
0.000000 0.000000 0.000000 

7.213502 -0.394901 0.000000 
0.000000 7.818981 0.000000 
0.000000 0.000000 0.000000 

0.934650 -0.164933 0.000000 
0.000000 1.687949 0.000000 
0.000000 0.000000 0.000000 

-0.534636 0.021887 0.000000 
0.000000 0.178310 0.000000 
0.000000 0.000000 0.000000 

-2.843366 0.011300 0.000000 
0.000000 -2.364160 0.000000 
0.000000 0.000000 0.000000 

-2.861979 0.230511 0.000000 
0.000000 -2.432203 0.000000 
0.000000 0.000000 0.000000 

1.420400 -0.158672 0.000000 
0.000000 1.349324 0.000000 
0.000000 0.000000 0.000000 

-7.633643 -0.039462 0.000000 
0.000000 -6.794499 0.000000 
0.000000 0.000000 0.000000 

6.666616 -0.108036 0.000000 
0.000000 8.636674 0.000000 
0.000000 0.000000 0.000000 

-0.786589 -0.050531 0.000000 
0.000000 -0.409840 0.000000 
0.000000 0.000000 0.000000 

-0.005029 -0.402273 0.000000 
0.000000 0.658912 0.000000 
0.000000 0.000000 0.000000 

-5.860092 -0.017187 0.000000 
0.000000 -5.733764 0.000000 
0.000000 0.000000 0.000000 

-4.069648 -0.213282 0.000000 
0.000000 -3.701174 0.000000 
0.000000 0.000000 0.000000 

2.761088 -1.039820 0.000000 
0.000000 2.185730 0.000000 
0.000000 0.000000 0.000000 

0.895915 -0.781308 0.000000 
0.000000 0.307239 0.000000 
0.000000 0.000000 0.000000 

-1.439433 -0.695931 0.000000 
0.000000 -2.198285 0.000000 
0.000000 0.000000 0.000000 

TENSORS STRAIN float 
0.000494 -0.000080 0.000000 
0.000000 -0.000265 0.000000 
0.000000 0.000000 0.000000 

-0.000281 -0.000263 0.000000 
0.000000 -0.000238 0.000000 
0.000000 0.000000 0.000000 

0.000675 -0.000168 0.000000 
0.000000 -0.000265 0.000000 
0.000000 0.000000 0.000000 

0.000813 -0.000062 0.000000 
0.000000 -0.001056 0.000000 
0.000000 0.000000 0.000000 

-0.000638 -0.000319 0.000000 
0.000000 0.000046 0.000000 
0.000000 0.000000 0.000000 

-0.000620 -0.000613 0.000000 
0.000000 -0.000451 0.000000 
0.000000 0.000000 0.000000 

-0.000970 -0.001301 0.000000 
0.000000 -0.000680 0.000000 
0.000000 0.000000 0.000000 

0.000950 -0.000127 0.000000 
0.000000 -0.001056 0.000000 
0.000000 0.000000 0.000000 

0.001038 -0.000065 0.000000 
0.000000 -0.001056 0.000000 
0.000000 0.000000 0.000000 

0.000303 0.000529 0.000000 
0.000000 0.000066 0.000000 
0.000000 0.000000 0.000000 

-0.001046 -0.000751 0.000000 
0.000000 0.000355 0.000000 
0.000000 0.000000 0.000000 

-0.001162 -0.000038 0.000000 
0.000000 0.000458 0.000000 
0.000000 0.000000 0.000000 

-0.001175 -0.000071 0.000000 
0.000000 0.001129 0.000000 
0.000000 0.000000 0.000000 

-0.001107 0.000563 0.000000 
0.000000 0.001465 0.000000 
0.000000 0.000000 0.000000 

-0.000007 0.001284 0.000000 
0.000000 0.001962 0.000000 
0.000000 0.000000 0.000000 

-0.000837 0.000644 0.000000 
0.000000 0.001962 0.000000 
0.000000 0.000000 0.000000 

0.001028 0.002333 0.000000 
0.000000 -0.001516 0.000000 
0.000000 0.000000 0.000000 

0.001028 0.002523 0.000000 
0.000000 -0.000873 0.000000 
0.000000 0.000000 0.000000 

0.001269 0.003413 0.000000 
0.000000 -0.000619 0.000000 
0.000000 0.000000 0.000000 

-0.001072 0.000673 0.000000 
0.000000 0.000091 0.000000 
0.000000 0.000000 0.000000 

-0.000982 0.000057 0.000000 
0.000000 -0.000561 0.000000 
0.000000 0.000000 0.000000 

-0.001017 0.001283 0.000000 
0.000000 0.001100 0.000000 
0.000000 0.000000 0.000000 

-0.000705 0.000168 0.000000 
0.000000 0.000546 0.000000 
0.000000 0.000000 0.000000 

-0.002184 0.000348 0.000000 
0.000000 0.004154 0.000000 
0.000000 0.000000 0.000000 

-0.002347 0.000131 0.000000 
0.000000 0.000434 0.000000 
0.000000 0.000000 0.000000 

0.000371 -0.000179 0.000000 
0.000000 -0.000265 0.000000 
0.000000 0.000000 0.000000 

-0.000699 -0.000613 0.000000 
0.000000 -0.000185 0.000000 
0.000000 0.000000 0.000000 

-0.000581 -0.000517 0.000000 
0.000000 -0.000222 0.000000 
0.000000 0.000000 0.000000 

-0.000418 -0.000627 0.000000 
0.000000 -0.000203 0.000000 
0.000000 0.000000 0.000000 

-0.000616 0.001204 0.000000 
0.000000 0.000863 0.000000 
0.000000 0.000000 0.000000 

-0.000649 -0.000847 0.000000 
0.000000 -0.000121 0.000000 
0.000000 0.000000 0.000000 

-0.001155 -0.001104 0.000000 
0.000000 0.000130 0.000000 
0.000000 0.000000 0.000000 

-0.000366 -0.000865 0.000000 
0.000000 -0.000140 0.000000 
0.000000 0.000000 0.000000 

-0.000339 0.000384 0.000000 
0.000000 0.000416 0.000000 
0.000000 0.000000 0.000000 

-0.000690 0.001185 0.000000 
0.000000 0.001540 0.000000 
0.000000 0.000000 0.000000 

-0.000563 0.000187 0.000000 
0.000000 0.000828 0.000000 
0.000000 0.000000 0.000000 

-0.000981 -0.000051 0.000000 
0.000000 0.001133 0.000000 
0.000000 0.000000 0.000000 

-0.001274 -0.000724 0.000000 
0.000000 0.000749 0.000000 
0.000000 0.000000 0.000000 

-0.001661 0.000037 0.000000 
0.000000 0.001481 0.000000 
0.000000 0.000000 0.000000 

-0.001322 -0.001077 0.000000 
0.000000 -0.000250 0.000000 
0.000000 0.000000 0.000000 

-0.000507 -0.000696 0.000000 
0.000000 -0.000392 0.000000 
0.000000 0.000000 0.000000 

0.000067 0.000456 0.000000 
0.000000 0.001097 0.000000 
0.000000 0.000000 0.000000 

0.000294 0.000938 0.000000 
0.000000 0.001337 0.000000 
0.000000 0.000000 0.000000 

0.000539 0.001849 0.000000 
0.000000 -0.000581 0.000000 
0.000000 0.000000 0.000000 

0.000644 0.002849 0.000000 
0.000000 0.000315 0.000000 
0.000000 0.000000 0.000000 

0.000789 0.004021 0.000000 
0.000000 -0.000306 0.000000 
0.000000 0.000000 0.000000 

0.001282 0.002339 0.000000 
0.000000 -0.002149 0.000000 
0.000000 0.000000 0.000000 

0.002760 0.003375 0.000000 
0.000000 -0.002694 0.000000 
0.000000 0.000000 0.000000 

-0.000222 -0.001694 0.000000 
0.000000 -0.001243 0.000000 
0.000000 0.000000 0.000000 

0.000587 -0.000865 0.000000 
0.000000 -0.001307 0.000000 
0.000000 0.000000 0.000000 

0.000366 0.000206 0.000000 
0.000000 -0.000983 0.000000 
0.000000 0.000000 0.000000 

-0.000065 0.001550 0.000000 
0.000000 -0.000782 0.000000 
0.000000 0.000000 0.000000 

-0.000368 0.001002 0.000000 
0.000000 -0.000744 0.000000 
0.000000 0.000000 0.000000 

-0.000455 0.001130 0.000000 
0.000000 -0.000196 0.000000 
0.000000 0.000000 0.000000 

-0.000082 0.000991 0.000000 
0.000000 -0.000200 0.000000 
0.000000 0.000000 0.000000 

0.000106 0.000654 0.000000 
0.000000 -0.000697 0.000000 
0.000000 0.000000 0.000000 

0.000126 0.002551 0.000000 
0.000000 0.000420 0.000000 
0.000000 0.000000 0.000000 

-0.000210 0.001901 0.000000 
0.000000 0.000388 0.000000 
0.000000 0.000000 0.000000 

-0.000818 0.001823 0.000000 
0.000000 0.000806 0.000000 
0.000000 0.000000 0.000000 

-0.000427 0.001195 0.000000 
0.000000 0.002894 0.000000 
0.000000 0.000000 0.000000 

-0.000248 0.000852 0.000000 
0.000000 -0.000116 0.000000 
0.000000 0.000000 0.000000 

-0.001140 0.000271 0.000000 
0.000000 -0.000081 0.000000 
0.000000 0.000000 0.000000 

-0.001131 0.000330 0.000000 
0.000000 -0.000085 0.000000 
0.000000 0.000000 0.000000 

-0.001128 0.000338 0.000000 
0.000000 -0.000141 0.000000 
0.000000 0.000000 0.000000 

-0.000974 0.001904 0.000000 
0.000000 0.001166 0.000000 
0.000000 0.000000 0.000000 

-0.000901 0.001613 0.000000 
0.000000 0.001453 0.000000 
0.000000 0.000000 0.000000 

-0.000320 0.001210 0.000000 
0.000000 0.001346 0.000000 
0.000000 0.000000 0.000000 

-0.000991 0.000739 0.000000 
0.000000 0.001284 0.000000 
0.000000 0.000000 0.000000 

-0.001008 0.000985 0.000000 
0.000000 0.000906 0.000000 
0.000000 0.000000 0.000000 

-0.001147 0.000217 0.000000 
0.000000 -0.000139 0.000000 
0.000000 0.000000 0.000000 

-0.001145 0.000222 0.000000 
0.000000 -0.000200 0.000000 
0.000000 0.000000 0.000000 

-0.001135 0.000284 0.000000 
0.000000 -0.000199 0.000000 
0.000000 0.000000 0.000000 

-0.000249 -0.001118 0.000000 
0.000000 -0.000122 0.000000 
0.000000 0.000000 0.000000 

-0.000413 0.000157 0.000000 
0.000000 0.001552 0.000000 
0.000000 0.000000 0.000000 

-0.000287 0.000065 0.000000 
0.000000 0.001205 0.000000 
0.000000 0.000000 0.000000 

0.000465 0.000000 0.000000 
0.000000 -0.000983 0.000000 
0.000000 0.000000 0.000000 

0.000886 -0.000191 0.000000 
0.000000 -0.000983 0.000000 
0.000000 0.000000 0.000000 

0.000755 0.000000 0.000000 
0.000000 -0.000983 0.000000 
0.000000 0.000000 0.000000 

0.000886 0.000191 0.000000 
0.000000 -0.000983 0.000000 
0.000000 0.000000 0.000000 

-0.000179 -0.001233 0.000000 
0.000000 -0.000282 0.000000 
0.000000 0.000000 0.000000 

0.000716 0.000167 0.000000 
0.000000 -0.000296 0.000000 
0.000000 0.000000 0.000000 

0.000568 0.000000 0.000000 
0.000000 -0.000296 0.000000 
0.000000 0.000000 0.000000 

0.000716 -0.000167 0.000000 
0.000000 -0.000296 0.000000 
0.000000 0.000000 0.000000 

-0.000179 0.001233 0.000000 
0.000000 -0.000282 0.000000 
0.000000 0.000000 0.000000 

-0.000411 -0.001403 0.000000 
0.000000 0.001832 0.000000 
0.000000 0.000000 0.000000 

-0.000447 -0.001103 0.000000 
0.000000 0.001316 0.000000 
0.000000 0.000000 0.000000 

0.000181 0.000168 0.000000 
0.000000 0.002100 0.000000 
0.000000 0.000000 0.000000 

0.000298 -0.000000 0.000000 
0.000000 0.002100 0.000000 
0.000000 0.000000 0.000000 

0.000181 -0.000168 0.000000 
0.000000 0.002100 0.000000 
0.000000 0.000000 0.000000 

-0.000447 0.001103 0.000000 
0.000000 0.001316 0.000000 
0.000000 0.000000 0.000000 

-0.000411 0.001403 0.000000 
0.000000 0.001832 0.000000 
0.000000 0.000000 0.000000 

-0.000285 -0.001006 0.000000 
0.000000 0.001613 0.000000 
0.000000 0.000000 0.000000 

-0.000313 -0.001051 0.000000 
0.000000 0.001826 0.000000 
0.000000 0.000000 0.000000 

-0.000250 -0.000761 0.000000 
0.000000 0.002039 0.000000 
0.000000 0.000000 0.000000 

-0.000072 0.000168 0.000000 
0.000000 0.002100 0.000000 
0.000000 0.000000 0.000000 

-0.000254 0.000000 0.000000 
0.000000 -0.001210 0.000000 
0.000000 0.000000 0.000000 

-0.000072 -0.000168 0.000000 
0.000000 0.002100 0.000000 
0.000000 0.000000 0.000000 

-0.000250 0.000761 0.000000 
0.000000 0.002039 0.000000 
0.000000 0.000000 0.000000 

-0.000313 0.001051 0.000000 
0.000000 0.001826 0.000000 
0.000000 0.000000 0.000000 

-0.000285 0.001006 0.000000 
0.000000 0.001613 0.000000 
0.000000 0.000000 0.000000 

0.000366 -0.000206 0.000000 
0.000000 -0.000983 0.000000 
0.000000 0.000000 0.000000 

-0.000455 -0.001130 0.000000 
0.000000 -0.000196 0.000000 
0.000000 0.000000 0.000000 

-0.000368 -0.001002 0.000000 
0.000000 -0.000744 0.000000 
0.000000 0.000000 0.000000 

-0.000065 -0.001550 0.000000 
0.000000 -0.000782 0.000000 
0.000000 0.000000 0.000000 

-0.000818 -0.001823 0.000000 
0.000000 0.000806 0.000000 
0.000000 0.000000 0.000000 

-0.000210 -0.001901 0.000000 
0.000000 0.000388 0.000000 
0.000000 0.000000 0.000000 

0.000126 -0.002551 0.000000 
0.000000 0.000420 0.000000 
0.000000 0.000000 0.000000 

0.000106 -0.000654 0.000000 
0.000000 -0.000697 0.000000 
0.000000 0.000000 0.000000 

-0.000082 -0.000991 0.000000 
0.000000 -0.000200 0.000000 
0.000000 0.000000 0.000000 

-0.000901 -0.001613 0.000000 
0.000000 0.001453 0.000000 
0.000000 0.000000 0.000000 

-0.000974 -0.001904 0.000000 
0.000000 0.001166 0.000000 
0.000000 0.000000 0.000000 

-0.001128 -0.000338 0.000000 
0.000000 -0.000141 0.000000 
0.000000 0.000000 0.000000 

-0.001131 -0.000330 0.000000 
0.000000 -0.000085 0.000000 
0.000000 0.000000 0.000000 

-0.001140 -0.000271 0.000000 
0.000000 -0.000081 0.000000 
0.000000 0.000000 0.000000 

-0.000248 -0.000852 0.000000 
0.000000 -0.000116 0.000000 
0.000000 0.000000 0.000000 

-0.000427 -0.001195 0.000000 
0.000000 0.002894 0.000000 
0.000000 0.000000 0.000000 

-0.000287 -0.000065 0.000000 
0.000000 0.001205 0.000000 
0.000000 0.000000 0.000000 

-0.000413 -0.000157 0.000000 
0.000000 0.001552 0.000000 
0.000000 0.000000 0.000000 

-0.000249 0.001118 0.000000 
0.000000 -0.000122 0.000000 
0.000000 0.000000 0.000000 

-0.001135 -0.000284 0.000000 
0.000000 -0.000199 0.000000 
0.000000 0.000000 0.000000 

-0.001145 -0.000222 0.000000 
0.000000 -0.000200 0.000000 
0.000000 0.000000 0.000000 

-0.001147 -0.000217 0.000000 
0.000000 -0.000139 0.000000 
0.000000 0.000000 0.000000 

-0.001008 -0.000985 0.000000 
0.000000 0.000906 0.000000 
0.000000 0.000000 0.000000 

-0.000991 -0.000739 0.000000 
0.000000 0.001284 0.000000 
0.000000 0.000000 0.000000 

-0.000320 -0.001210 0.000000 
0.000000 0.001346 0.000000 
0.000000 0.000000 0.000000 

0.000371 0.000179 0.000000 
0.000000 -0.000265 0.000000 
0.000000 0.000000 0.000000 

-0.000418 0.000627 0.000000 
0.000000 -0.000203 0.000000 
0.000000 0.000000 0.000000 

-0.000581 0.000517 0.000000 
0.000000 -0.000222 0.000000 
0.000000 0.000000 0.000000 

-0.000699 0.000613 0.000000 
0.000000 -0.000185 0.000000 
0.000000 0.000000 0.000000 

-0.000339 -0.000384 0.000000 
0.000000 0.000416 0.000000 
0.000000 0.000000 0.000000 

-0.000366 0.000865 0.000000 
0.000000 -0.000140 0.000000 
0.000000 0.000000 0.000000 

-0.001155 0.001104 0.000000 
0.000000 0.000130 0.000000 
0.000000 0.000000 0.000000 

-0.000649 0.000847 0.000000 
0.000000 -0.000121 0.000000 
0.000000 0.000000 0.000000 

-0.000616 -0.001204 0.000000 
0.000000 0.000863 0.000000 
0.000000 0.000000 0.000000 

-0.000507 0.000696 0.000000 
0.000000 -0.000392 0.000000 
0.000000 0.000000 0.000000 

-0.001322 0.001077 0.000000 
0.000000 -0.000250 0.000000 
0.000000 0.000000 0.000000 

-0.001661 -0.000037 0.000000 
0.000000 0.001481 0.000000 
0.000000 0.000000 0.000000 

-0.001274 0.000724 0.000000 
0.000000 0.000749 0.000000 
0.000000 0.000000 0.000000 

-0.000981 0.000051 0.000000 
0.000000 0.001133 0.000000 
0.000000 0.000000 0.000000 

-0.000563 -0.000187 0.000000 
0.000000 0.000828 0.000000 
0.000000 0.000000 0.000000 

-0.000690 -0.001185 0.000000 
0.000000 0.001540 0.000000 
0.000000 0.000000 0.000000 

0.000587 0.000865 0.000000 
0.000000 -0.001307 0.000000 
0.000000 0.000000 0.000000 

-0.000222 0.001694 0.000000 
0.000000 -0.001243 0.000000 
0.000000 0.000000 0.000000 

0.002760 -0.003375 0.000000 
0.000000 -0.002694 0.000000 
0.000000 0.000000 0.000000 

0.001282 -0.002339 0.000000 
0.000000 -0.002149 0.000000 
0.000000 0.000000 0.000000 

0.000789 -0.004021 0.000000 
0.000000 -0.000306 0.000000 
0.000000 0.000000 0.000000 

0.000644 -0.002849 0.000000 
0.000000 0.000315 0.000000 
0.000000 0.000000 0.000000 

0.000539 -0.001849 0.000000 
0.000000 -0.000581 0.000000 
0.000000 0.000000 0.000000 

0.000294 -0.000938 0.000000 
0.000000 0.001337 0.000000 
0.000000 0.000000 0.000000 

0.000067 -0.000456 0.000000 
0.000000 0.001097 0.000000 
0.000000 0.000000 0.000000 

0.000494 0.000080 0.000000 
0.000000 -0.000265 0.000000 
0.000000 0.000000 0.000000 

0.000813 0.000062 0.000000 
0.000000 -0.001056 0.000000 
0.000000 0.000000 0.000000 

0.000675 0.000168 0.000000 
0.000000 -0.000265 0.000000 
0.0