# vtk DataFile Version 3.0 
vtk output 
ASCII 
DATASET UNSTRUCTURED_GRID 
POINTS 175 float 
-0.026061 -2.062478 0.000000 
-0.106992 -1.994422 0.000000 
-0.054870 -2.002655 0.000000 
-0.028809 -1.956771 0.000000 
-0.186430 -1.930347 0.000000 
-0.137056 -1.932873 0.000000 
-0.114311 -1.879225 0.000000 
-0.058186 -1.894891 0.000000 
-0.029377 -1.854714 0.000000 
-0.265318 -1.867191 0.000000 
-0.217198 -1.867990 0.000000 
-0.196633 -1.810694 0.000000 
-0.143120 -1.819403 0.000000 
-0.116563 -1.772134 0.000000 
-0.058945 -1.791780 0.000000 
-0.029568 -1.753660 0.000000 
-0.344206 -1.804035 0.000000 
-0.296791 -1.804028 0.000000 
-0.278030 -1.744085 0.000000 
-0.225992 -1.749951 0.000000 
-0.201664 -1.697834 0.000000 
-0.145749 -1.711308 0.000000 
-0.117890 -1.666966 0.000000 
-0.059328 -1.689671 0.000000 
-0.029759 -1.652606 0.000000 
-0.058559 -2.103228 0.000000 
-0.162226 -2.124071 0.000000 
-0.123292 -2.088453 0.000000 
-0.142917 -2.039470 0.000000 
-0.261851 -2.146227 0.000000 
-0.229092 -2.109200 0.000000 
-0.256854 -2.057969 0.000000 
-0.209613 -2.023856 0.000000 
-0.223062 -1.976282 0.000000 
-0.360414 -2.168527 0.000000 
-0.329787 -2.131405 0.000000 
-0.361761 -2.079602 0.000000 
-0.321587 -2.043194 0.000000 
-0.341985 -1.992960 0.000000 
-0.290702 -1.960161 0.000000 
-0.302189 -1.913425 0.000000 
-0.458977 -2.190828 0.000000 
-0.429420 -2.153753 0.000000 
-0.464588 -2.101711 0.000000 
-0.427556 -2.064684 0.000000 
-0.453135 -2.013169 0.000000 
-0.407738 -1.977854 0.000000 
-0.425037 -1.928425 0.000000 
-0.370772 -1.896796 0.000000 
-0.381315 -1.850569 0.000000 
-0.046960 -2.154043 0.000000 
-0.095301 -2.248089 0.000000 
-0.098873 -2.195442 0.000000 
-0.149405 -2.180245 0.000000 
-0.140093 -2.339793 0.000000 
-0.148617 -2.291095 0.000000 
-0.205981 -2.280858 0.000000 
-0.203197 -2.222655 0.000000 
-0.248777 -2.203508 0.000000 
-0.184111 -2.430757 0.000000 
-0.194039 -2.383666 0.000000 
-0.254475 -2.376366 0.000000 
-0.257893 -2.322257 0.000000 
-0.309886 -2.306884 0.000000 
-0.303554 -2.246339 0.000000 
-0.347255 -2.226181 0.000000 
-0.228129 -2.521721 0.000000 
-0.238687 -2.475496 0.000000 
-0.301302 -2.470544 0.000000 
-0.307162 -2.418505 0.000000 
-0.363386 -2.406384 0.000000 
-0.362692 -2.348873 0.000000 
-0.412122 -2.331580 0.000000 
-0.403017 -2.269433 0.000000 
-0.445733 -2.248854 0.000000 
-0.000000 -2.176658 0.000000 
0.043388 -2.273089 0.000000 
-0.000000 -2.243057 0.000000 
-0.043388 -2.273089 0.000000 
0.087158 -2.365286 0.000000 
0.043769 -2.341587 0.000000 
-0.000000 -2.380053 0.000000 
-0.043769 -2.341587 0.000000 
-0.087158 -2.365286 0.000000 
0.130831 -2.456415 0.000000 
0.087824 -2.434817 0.000000 
0.044436 -2.477516 0.000000 
-0.000000 -2.446451 0.000000 
-0.044436 -2.477516 0.000000 
-0.087824 -2.434817 0.000000 
-0.130831 -2.456415 0.000000 
0.174505 -2.547545 0.000000 
0.131782 -2.526979 0.000000 
0.088871 -2.572845 0.000000 
0.044532 -2.544982 0.000000 
-0.000000 -2.581382 0.000000 
-0.044532 -2.544982 0.000000 
-0.088871 -2.572845 0.000000 
-0.131782 -2.526979 0.000000 
-0.174505 -2.547545 0.000000 
0.046960 -2.154043 0.000000 
0.149405 -2.180245 0.000000 
0.098873 -2.195442 0.000000 
0.095301 -2.248089 0.000000 
0.248777 -2.203508 0.000000 
0.203197 -2.222655 0.000000 
0.205981 -2.280858 0.000000 
0.148617 -2.291095 0.000000 
0.140093 -2.339793 0.000000 
0.347255 -2.226181 0.000000 
0.303554 -2.246339 0.000000 
0.309886 -2.306884 0.000000 
0.257893 -2.322257 0.000000 
0.254475 -2.376366 0.000000 
0.194039 -2.383666 0.000000 
0.184111 -2.430757 0.000000 
0.445733 -2.248854 0.000000 
0.403017 -2.269433 0.000000 
0.412122 -2.331580 0.000000 
0.362692 -2.348873 0.000000 
0.363386 -2.406384 0.000000 
0.307162 -2.418505 0.000000 
0.301302 -2.470544 0.000000 
0.238687 -2.475496 0.000000 
0.228129 -2.521721 0.000000 
0.058559 -2.103228 0.000000 
0.142917 -2.039470 0.000000 
0.123292 -2.088453 0.000000 
0.162226 -2.124071 0.000000 
0.223062 -1.976282 0.000000 
0.209613 -2.023856 0.000000 
0.256854 -2.057969 0.000000 
0.229092 -2.109200 0.000000 
0.261851 -2.146227 0.000000 
0.302189 -1.913425 0.000000 
0.290702 -1.960161 0.000000 
0.341985 -1.992960 0.000000 
0.321587 -2.043194 0.000000 
0.361761 -2.079602 0.000000 
0.329787 -2.131405 0.000000 
0.360414 -2.168527 0.000000 
0.381315 -1.850569 0.000000 
0.370772 -1.896796 0.000000 
0.425037 -1.928425 0.000000 
0.407738 -1.977854 0.000000 
0.453135 -2.013169 0.000000 
0.427556 -2.064684 0.000000 
0.464588 -2.101711 0.000000 
0.429420 -2.153753 0.000000 
0.458977 -2.190828 0.000000 
0.026061 -2.062478 0.000000 
0.028809 -1.956771 0.000000 
0.054870 -2.002655 0.000000 
0.106992 -1.994422 0.000000 
0.029377 -1.854714 0.000000 
0.058186 -1.894891 0.000000 
0.114311 -1.879225 0.000000 
0.137056 -1.932873 0.000000 
0.186430 -1.930347 0.000000 
0.029568 -1.753660 0.000000 
0.058945 -1.791780 0.000000 
0.116563 -1.772134 0.000000 
0.143120 -1.819403 0.000000 
0.196633 -1.810694 0.000000 
0.217198 -1.867990 0.000000 
0.265318 -1.867191 0.000000 
0.029759 -1.652606 0.000000 
0.059328 -1.689671 0.000000 
0.117890 -1.666966 0.000000 
0.145749 -1.711308 0.000000 
0.201664 -1.697834 0.000000 
0.225992 -1.749951 0.000000 
0.278030 -1.744085 0.000000 
0.296791 -1.804028 0.000000 
0.344206 -1.804035 0.000000 
CELLS 175 350 
1 0 
1 1 
1 2 
1 3 
1 4 
1 5 
1 6 
1 7 
1 8 
1 9 
1 10 
1 11 
1 12 
1 13 
1 14 
1 15 
1 16 
1 17 
1 18 
1 19 
1 20 
1 21 
1 22 
1 23 
1 24 
1 25 
1 26 
1 27 
1 28 
1 29 
1 30 
1 31 
1 32 
1 33 
1 34 
1 35 
1 36 
1 37 
1 38 
1 39 
1 40 
1 41 
1 42 
1 43 
1 44 
1 45 
1 46 
1 47 
1 48 
1 49 
1 50 
1 51 
1 52 
1 53 
1 54 
1 55 
1 56 
1 57 
1 58 
1 59 
1 60 
1 61 
1 62 
1 63 
1 64 
1 65 
1 66 
1 67 
1 68 
1 69 
1 70 
1 71 
1 72 
1 73 
1 74 
1 75 
1 76 
1 77 
1 78 
1 79 
1 80 
1 81 
1 82 
1 83 
1 84 
1 85 
1 86 
1 87 
1 88 
1 89 
1 90 
1 91 
1 92 
1 93 
1 94 
1 95 
1 96 
1 97 
1 98 
1 99 
1 100 
1 101 
1 102 
1 103 
1 104 
1 105 
1 106 
1 107 
1 108 
1 109 
1 110 
1 111 
1 112 
1 113 
1 114 
1 115 
1 116 
1 117 
1 118 
1 119 
1 120 
1 121 
1 122 
1 123 
1 124 
1 125 
1 126 
1 127 
1 128 
1 129 
1 130 
1 131 
1 132 
1 133 
1 134 
1 135 
1 136 
1 137 
1 138 
1 139 
1 140 
1 141 
1 142 
1 143 
1 144 
1 145 
1 146 
1 147 
1 148 
1 149 
1 150 
1 151 
1 152 
1 153 
1 154 
1 155 
1 156 
1 157 
1 158 
1 159 
1 160 
1 161 
1 162 
1 163 
1 164 
1 165 
1 166 
1 167 
1 168 
1 169 
1 170 
1 171 
1 172 
1 173 
1 174 
CELL_TYPES 175 
1 
1 
1 
1 
1 
1 
1 
1 
1 
1 
1 
1 
1 
1 
1 
1 
1 
1 
1 
1 
1 
1 
1 
1 
1 
1 
1 
1 
1 
1 
1 
1 
1 
1 
1 
1 
1 
1 
1 
1 
1 
1 
1 
1 
1 
1 
1 
1 
1 
1 
1 
1 
1 
1 
1 
1 
1 
1 
1 
1 
1 
1 
1 
1 
1 
1 
1 
1 
1 
1 
1 
1 
1 
1 
1 
1 
1 
1 
1 
1 
1 
1 
1 
1 
1 
1 
1 
1 
1 
1 
1 
1 
1 
1 
1 
1 
1 
1 
1 
1 
1 
1 
1 
1 
1 
1 
1 
1 
1 
1 
1 
1 
1 
1 
1 
1 
1 
1 
1 
1 
1 
1 
1 
1 
1 
1 
1 
1 
1 
1 
1 
1 
1 
1 
1 
1 
1 
1 
1 
1 
1 
1 
1 
1 
1 
1 
1 
1 
1 
1 
1 
1 
1 
1 
1 
1 
1 
1 
1 
1 
1 
1 
1 
1 
1 
1 
1 
1 
1 
1 
1 
1 
1 
1 
1 
POINT_DATA 175 
VECTORS X_GC float 
-0.026061 -2.062478 0.000000 
-0.106992 -1.994422 0.000000 
-0.054870 -2.002655 0.000000 
-0.028809 -1.956771 0.000000 
-0.186430 -1.930347 0.000000 
-0.137056 -1.932873 0.000000 
-0.114311 -1.879225 0.000000 
-0.058186 -1.894891 0.000000 
-0.029377 -1.854714 0.000000 
-0.265318 -1.867191 0.000000 
-0.217198 -1.867990 0.000000 
-0.196633 -1.810694 0.000000 
-0.143120 -1.819403 0.000000 
-0.116563 -1.772134 0.000000 
-0.058945 -1.791780 0.000000 
-0.029568 -1.753660 0.000000 
-0.344206 -1.804035 0.000000 
-0.296791 -1.804028 0.000000 
-0.278030 -1.744085 0.000000 
-0.225992 -1.749951 0.000000 
-0.201664 -1.697834 0.000000 
-0.145749 -1.711308 0.000000 
-0.117890 -1.666966 0.000000 
-0.059328 -1.689671 0.000000 
-0.029759 -1.652606 0.000000 
-0.058559 -2.103228 0.000000 
-0.162226 -2.124071 0.000000 
-0.123292 -2.088453 0.000000 
-0.142917 -2.039470 0.000000 
-0.261851 -2.146227 0.000000 
-0.229092 -2.109200 0.000000 
-0.256854 -2.057969 0.000000 
-0.209613 -2.023856 0.000000 
-0.223062 -1.976282 0.000000 
-0.360414 -2.168527 0.000000 
-0.329787 -2.131405 0.000000 
-0.361761 -2.079602 0.000000 
-0.321587 -2.043194 0.000000 
-0.341985 -1.992960 0.000000 
-0.290702 -1.960161 0.000000 
-0.302189 -1.913425 0.000000 
-0.458977 -2.190828 0.000000 
-0.429420 -2.153753 0.000000 
-0.464588 -2.101711 0.000000 
-0.427556 -2.064684 0.000000 
-0.453135 -2.013169 0.000000 
-0.407738 -1.977854 0.000000 
-0.425037 -1.928425 0.000000 
-0.370772 -1.896796 0.000000 
-0.381315 -1.850569 0.000000 
-0.046960 -2.154043 0.000000 
-0.095301 -2.248089 0.000000 
-0.098873 -2.195442 0.000000 
-0.149405 -2.180245 0.000000 
-0.140093 -2.339793 0.000000 
-0.148617 -2.291095 0.000000 
-0.205981 -2.280858 0.000000 
-0.203197 -2.222655 0.000000 
-0.248777 -2.203508 0.000000 
-0.184111 -2.430757 0.000000 
-0.194039 -2.383666 0.000000 
-0.254475 -2.376366 0.000000 
-0.257893 -2.322257 0.000000 
-0.309886 -2.306884 0.000000 
-0.303554 -2.246339 0.000000 
-0.347255 -2.226181 0.000000 
-0.228129 -2.521721 0.000000 
-0.238687 -2.475496 0.000000 
-0.301302 -2.470544 0.000000 
-0.307162 -2.418505 0.000000 
-0.363386 -2.406384 0.000000 
-0.362692 -2.348873 0.000000 
-0.412122 -2.331580 0.000000 
-0.403017 -2.269433 0.000000 
-0.445733 -2.248854 0.000000 
-0.000000 -2.176658 0.000000 
0.043388 -2.273089 0.000000 
-0.000000 -2.243057 0.000000 
-0.043388 -2.273089 0.000000 
0.087158 -2.365286 0.000000 
0.043769 -2.341587 0.000000 
-0.000000 -2.380053 0.000000 
-0.043769 -2.341587 0.000000 
-0.087158 -2.365286 0.000000 
0.130831 -2.456415 0.000000 
0.087824 -2.434817 0.000000 
0.044436 -2.477516 0.000000 
-0.000000 -2.446451 0.000000 
-0.044436 -2.477516 0.000000 
-0.087824 -2.434817 0.000000 
-0.130831 -2.456415 0.000000 
0.174505 -2.547545 0.000000 
0.131782 -2.526979 0.000000 
0.088871 -2.572845 0.000000 
0.044532 -2.544982 0.000000 
-0.000000 -2.581382 0.000000 
-0.044532 -2.544982 0.000000 
-0.088871 -2.572845 0.000000 
-0.131782 -2.526979 0.000000 
-0.174505 -2.547545 0.000000 
0.046960 -2.154043 0.000000 
0.149405 -2.180245 0.000000 
0.098873 -2.195442 0.000000 
0.095301 -2.248089 0.000000 
0.248777 -2.203508 0.000000 
0.203197 -2.222655 0.000000 
0.205981 -2.280858 0.000000 
0.148617 -2.291095 0.000000 
0.140093 -2.339793 0.000000 
0.347255 -2.226181 0.000000 
0.303554 -2.246339 0.000000 
0.309886 -2.306884 0.000000 
0.257893 -2.322257 0.000000 
0.254475 -2.376366 0.000000 
0.194039 -2.383666 0.000000 
0.184111 -2.430757 0.000000 
0.445733 -2.248854 0.000000 
0.403017 -2.269433 0.000000 
0.412122 -2.331580 0.000000 
0.362692 -2.348873 0.000000 
0.363386 -2.406384 0.000000 
0.307162 -2.418505 0.000000 
0.301302 -2.470544 0.000000 
0.238687 -2.475496 0.000000 
0.228129 -2.521721 0.000000 
0.058559 -2.103228 0.000000 
0.142917 -2.039470 0.000000 
0.123292 -2.088453 0.000000 
0.162226 -2.124071 0.000000 
0.223062 -1.976282 0.000000 
0.209613 -2.023856 0.000000 
0.256854 -2.057969 0.000000 
0.229092 -2.109200 0.000000 
0.261851 -2.146227 0.000000 
0.302189 -1.913425 0.000000 
0.290702 -1.960161 0.000000 
0.341985 -1.992960 0.000000 
0.321587 -2.043194 0.000000 
0.361761 -2.079602 0.000000 
0.329787 -2.131405 0.000000 
0.360414 -2.168527 0.000000 
0.381315 -1.850569 0.000000 
0.370772 -1.896796 0.000000 
0.425037 -1.928425 0.000000 
0.407738 -1.977854 0.000000 
0.453135 -2.013169 0.000000 
0.427556 -2.064684 0.000000 
0.464588 -2.101711 0.000000 
0.429420 -2.153753 0.000000 
0.458977 -2.190828 0.000000 
0.026061 -2.062478 0.000000 
0.028809 -1.956771 0.000000 
0.054870 -2.002655 0.000000 
0.106992 -1.994422 0.000000 
0.029377 -1.854714 0.000000 
0.058186 -1.894891 0.000000 
0.114311 -1.879225 0.000000 
0.137056 -1.932873 0.000000 
0.186430 -1.930347 0.000000 
0.029568 -1.753660 0.000000 
0.058945 -1.791780 0.000000 
0.116563 -1.772134 0.000000 
0.143120 -1.819403 0.000000 
0.196633 -1.810694 0.000000 
0.217198 -1.867990 0.000000 
0.265318 -1.867191 0.000000 
0.029759 -1.652606 0.000000 
0.059328 -1.689671 0.000000 
0.117890 -1.666966 0.000000 
0.145749 -1.711308 0.000000 
0.201664 -1.697834 0.000000 
0.225992 -1.749951 0.000000 
0.278030 -1.744085 0.000000 
0.296791 -1.804028 0.000000 
0.344206 -1.804035 0.000000 
VECTORS X_EC float 
0.338794 0.343446 0.000000 
-0.609100 -0.575302 0.000000 
0.713312 -0.464161 0.000000 
0.374519 0.916409 0.000000 
0.423588 0.559679 0.000000 
-0.218274 0.593782 0.000000 
-0.513962 -0.130457 0.000000 
0.756418 0.081029 0.000000 
0.381900 -0.461363 0.000000 
-0.550868 -0.292925 0.000000 
0.823577 -0.282129 0.000000 
0.556234 0.944367 0.000000 
-0.139443 -0.938064 0.000000 
-0.484677 0.423811 0.000000 
0.766286 0.689026 0.000000 
0.384386 0.174406 0.000000 
0.474677 0.854472 0.000000 
-0.141715 0.854376 0.000000 
-0.385608 0.045148 0.000000 
0.937896 0.124343 0.000000 
0.621631 -0.579237 0.000000 
-0.105264 -0.397338 0.000000 
-0.467428 -0.995964 0.000000 
0.771260 -0.689436 0.000000 
0.386873 0.810175 0.000000 
0.761262 0.893581 0.000000 
0.108942 -0.825043 0.000000 
-0.397202 0.694118 0.000000 
-0.142083 0.032843 0.000000 
-0.595936 -0.525932 0.000000 
0.978194 0.974202 0.000000 
-0.660903 0.282577 0.000000 
0.724964 -0.177943 0.000000 
0.899809 -0.820192 0.000000 
0.685384 -0.224880 0.000000 
0.287229 -0.726038 0.000000 
0.702895 0.574633 0.000000 
0.180633 0.083115 0.000000 
0.445811 -0.595045 0.000000 
-0.220880 0.962169 0.000000 
-0.071546 0.331244 0.000000 
-0.033296 0.076172 0.000000 
-0.417537 -0.424337 0.000000 
0.039645 0.873100 0.000000 
-0.441768 0.373229 0.000000 
-0.109248 -0.322222 0.000000 
-0.699407 -0.798977 0.000000 
-0.474522 0.533744 0.000000 
0.820030 0.106750 0.000000 
0.957100 -0.517321 0.000000 
0.610485 -0.420413 0.000000 
-0.761092 0.849206 0.000000 
-0.714655 0.138469 0.000000 
-0.057734 -0.066698 0.000000 
-0.178789 0.087211 0.000000 
-0.067979 -0.570215 0.000000 
0.677748 -0.708419 0.000000 
0.641556 0.505836 0.000000 
-0.765897 0.247357 0.000000 
0.393446 -0.684780 0.000000 
0.522510 0.679490 0.000000 
-0.691820 0.580945 0.000000 
-0.647393 -0.149537 0.000000 
0.028512 -0.357064 0.000000 
-0.053800 0.825576 0.000000 
0.514316 0.553445 0.000000 
0.965681 0.543229 0.000000 
-0.897068 -0.080800 0.000000 
-0.083078 -0.147653 0.000000 
-0.006893 -0.850178 0.000000 
0.724017 0.986189 0.000000 
0.714996 0.209786 0.000000 
-0.642413 -0.023671 0.000000 
-0.760780 -0.862652 0.000000 
-0.205471 0.859533 0.000000 
0.000000 -0.115111 0.000000 
-0.564049 -0.813298 0.000000 
0.000000 0.781266 0.000000 
0.564049 -0.813298 0.000000 
0.866949 0.431357 0.000000 
-0.569003 0.111426 0.000000 
0.000000 0.630714 0.000000 
0.569003 0.111426 0.000000 
-0.866949 0.431357 0.000000 
0.299194 -0.338393 0.000000 
0.858290 -0.629977 0.000000 
-0.577662 -0.053531 0.000000 
0.000000 -0.472909 0.000000 
0.577662 -0.053531 0.000000 
-0.858290 -0.629977 0.000000 
-0.299194 -0.338393 0.000000 
-0.268560 0.891857 0.000000 
0.286830 0.614215 0.000000 
0.844677 -0.766586 0.000000 
-0.578910 0.857251 0.000000 
0.000000 -0.651345 0.000000 
0.578910 0.857251 0.000000 
-0.844677 -0.766586 0.000000 
-0.286830 0.614215 0.000000 
0.268560 0.891857 0.000000 
-0.610485 -0.420413 0.000000 
0.057734 -0.066698 0.000000 
0.714655 0.138469 0.000000 
0.761092 0.849206 0.000000 
0.765897 0.247357 0.000000 
-0.641556 0.505836 0.000000 
-0.677748 -0.708419 0.000000 
0.067979 -0.570215 0.000000 
0.178789 0.087211 0.000000 
-0.514316 0.553445 0.000000 
0.053800 0.825576 0.000000 
-0.028512 -0.357064 0.000000 
0.647393 -0.149537 0.000000 
0.691820 0.580945 0.000000 
-0.522510 0.679490 0.000000 
-0.393446 -0.684780 0.000000 
0.205471 0.859533 0.000000 
0.760780 -0.862652 0.000000 
0.642413 -0.023671 0.000000 
-0.714996 0.209786 0.000000 
-0.724017 0.986189 0.000000 
0.006894 -0.850178 0.000000 
0.083078 -0.147653 0.000000 
0.897068 -0.080800 0.000000 
-0.965681 0.543229 0.000000 
-0.761262 0.893581 0.000000 
0.142083 0.032843 0.000000 
0.397202 0.694118 0.000000 
-0.108942 -0.825043 0.000000 
-0.899809 -0.820192 0.000000 
-0.724964 -0.177943 0.000000 
0.660903 0.282577 0.000000 
-0.978194 0.974202 0.000000 
0.595936 -0.525932 0.000000 
0.071546 0.331244 0.000000 
0.220880 0.962169 0.000000 
-0.445811 -0.595045 0.000000 
-0.180633 0.083115 0.000000 
-0.702895 0.574633 0.000000 
-0.287229 -0.726038 0.000000 
-0.685384 -0.224880 0.000000 
-0.957100 -0.517321 0.000000 
-0.820030 0.106750 0.000000 
0.474522 0.533744 0.000000 
0.699407 -0.798977 0.000000 
0.109248 -0.322222 0.000000 
0.441768 0.373229 0.000000 
-0.039645 0.873100 0.000000 
0.417537 -0.424337 0.000000 
0.033296 0.076172 0.000000 
-0.338794 0.343446 0.000000 
-0.374519 0.916409 0.000000 
-0.713312 -0.464161 0.000000 
0.609100 -0.575302 0.000000 
-0.381900 -0.461363 0.000000 
-0.756418 0.081029 0.000000 
0.513962 -0.130457 0.000000 
0.218274 0.593782 0.000000 
-0.423588 0.559679 0.000000 
-0.384386 0.174406 0.000000 
-0.766286 0.689026 0.000000 
0.484677 0.423811 0.000000 
0.139443 -0.938064 0.000000 
-0.556234 0.944367 0.000000 
-0.823577 -0.282129 0.000000 
0.550868 -0.292925 0.000000 
-0.386873 0.810175 0.000000 
-0.771260 -0.689436 0.000000 
0.467428 -0.995964 0.000000 
0.105264 -0.397338 0.000000 
-0.621631 -0.579237 0.000000 
-0.937896 0.124343 0.000000 
0.385608 0.045148 0.000000 
0.141715 0.854376 0.000000 
-0.474677 0.854472 0.000000 
CELL_DATA 175 
SCALARS MASS float 
LOOKUP_TABLE default 
0.781831 
0.864274 
0.946717 
0.864274 
0.881307 
0.921110 
0.858535 
0.921110 
0.881307 
0.887046 
0.910001 
0.869829 
0.915556 
0.869829 
0.910001 
0.887046 
0.892784 
0.915740 
0.892784 
0.927218 
0.892784 
0.927218 
0.892784 
0.915740 
0.892784 
0.781831 
0.864274 
0.946717 
0.864274 
0.881307 
0.921110 
0.858535 
0.921110 
0.881307 
0.887046 
0.910001 
0.869829 
0.915556 
0.869829 
0.910001 
0.887046 
0.892784 
0.915740 
0.892784 
0.927218 
0.892784 
0.927218 
0.892784 
0.915740 
0.892784 
0.781831 
0.864274 
0.946717 
0.864274 
0.881307 
0.921110 
0.858535 
0.921110 
0.881307 
0.887046 
0.910001 
0.869829 
0.915556 
0.869829 
0.910001 
0.887046 
0.892784 
0.915740 
0.892784 
0.927218 
0.892784 
0.927218 
0.892784 
0.915740 
0.892784 
0.781831 
0.864274 
0.946717 
0.864274 
0.881307 
0.921110 
0.858535 
0.921110 
0.881307 
0.887046 
0.910001 
0.869829 
0.915556 
0.869829 
0.910001 
0.887046 
0.892784 
0.915740 
0.892784 
0.927218 
0.892784 
0.927218 
0.892784 
0.915740 
0.892784 
0.781831 
0.864274 
0.946717 
0.864274 
0.881307 
0.921110 
0.858535 
0.921110 
0.881307 
0.887046 
0.910001 
0.869829 
0.915556 
0.869829 
0.910001 
0.887046 
0.892784 
0.915740 
0.892784 
0.927218 
0.892784 
0.927218 
0.892784 
0.915740 
0.892784 
0.781831 
0.864274 
0.946717 
0.864274 
0.881307 
0.921110 
0.858535 
0.921110 
0.881307 
0.887046 
0.910001 
0.869829 
0.915556 
0.869829 
0.910001 
0.887046 
0.892784 
0.915740 
0.892784 
0.927218 
0.892784 
0.927218 
0.892784 
0.915740 
0.892784 
0.781831 
0.864274 
0.946717 
0.864274 
0.881307 
0.921110 
0.858535 
0.921110 
0.881307 
0.887046 
0.910001 
0.869829 
0.915556 
0.869829 
0.910001 
0.887046 
0.892784 
0.915740 
0.892784 
0.927218 
0.892784 
0.927218 
0.892784 
0.915740 
0.892784 
SCALARS MASS float 
LOOKUP_TABLE default 
0.781831 
0.864274 
0.946717 
0.864274 
0.881307 
0.921110 
0.858535 
0.921110 
0.881307 
0.887046 
0.910001 
0.869829 
0.915556 
0.869829 
0.910001 
0.887046 
0.892784 
0.915740 
0.892784 
0.927218 
0.892784 
0.927218 
0.892784 
0.915740 
0.892784 
0.781831 
0.864274 
0.946717 
0.864274 
0.881307 
0.921110 
0.858535 
0.921110 
0.881307 
0.887046 
0.910001 
0.869829 
0.915556 
0.869829 
0.910001 
0.887046 
0.892784 
0.915740 
0.892784 
0.927218 
0.892784 
0.927218 
0.892784 
0.915740 
0.892784 
0.781831 
0.864274 
0.946717 
0.864274 
0.881307 
0.921110 
0.858535 
0.921110 
0.881307 
0.887046 
0.910001 
0.869829 
0.915556 
0.869829 
0.910001 
0.887046 
0.892784 
0.915740 
0.892784 
0.927218 
0.892784 
0.927218 
0.892784 
0.915740 
0.892784 
0.781831 
0.864274 
0.946717 
0.864274 
0.881307 
0.921110 
0.858535 
0.921110 
0.881307 
0.887046 
0.910001 
0.869829 
0.915556 
0.869829 
0.910001 
0.887046 
0.892784 
0.915740 
0.892784 
0.927218 
0.892784 
0.927218 
0.892784 
0.915740 
0.892784 
0.781831 
0.864274 
0.946717 
0.864274 
0.881307 
0.921110 
0.858535 
0.921110 
0.881307 
0.887046 
0.910001 
0.869829 
0.915556 
0.869829 
0.910001 
0.887046 
0.892784 
0.915740 
0.892784 
0.927218 
0.892784 
0.927218 
0.892784 
0.915740 
0.892784 
0.781831 
0.864274 
0.946717 
0.864274 
0.881307 
0.921110 
0.858535 
0.921110 
0.881307 
0.887046 
0.910001 
0.869829 
0.915556 
0.869829 
0.910001 
0.887046 
0.892784 
0.915740 
0.892784 
0.927218 
0.892784 
0.927218 
0.892784 
0.915740 
0.892784 
0.781831 
0.864274 
0.946717 
0.864274 
0.881307 
0.921110 
0.858535 
0.921110 
0.881307 
0.887046 
0.910001 
0.869829 
0.915556 
0.869829 
0.910001 
0.887046 
0.892784 
0.915740 
0.892784 
0.927218 
0.892784 
0.927218 
0.892784 
0.915740 
0.892784 
SCALARS DENSITY float 
LOOKUP_TABLE default 
200.000000 
200.000000 
200.000000 
200.000000 
200.000000 
200.000000 
200.000000 
200.000000 
200.000000 
200.000000 
200.000000 
200.000000 
200.000000 
200.000000 
200.000000 
200.000000 
200.000000 
200.000000 
200.000000 
200.000000 
200.000000 
200.000000 
200.000000 
200.000000 
200.000000 
200.000000 
200.000000 
200.000000 
200.000000 
200.000000 
200.000000 
200.000000 
200.000000 
200.000000 
200.000000 
200.000000 
200.000000 
200.000000 
200.000000 
200.000000 
200.000000 
200.000000 
200.000000 
200.000000 
200.000000 
200.000000 
200.000000 
200.000000 
200.000000 
200.000000 
200.000000 
200.000000 
200.000000 
200.000000 
200.000000 
200.000000 
200.000000 
200.000000 
200.000000 
200.000000 
200.000000 
200.000000 
200.000000 
200.000000 
200.000000 
200.000000 
200.000000 
200.000000 
200.000000 
200.000000 
200.000000 
200.000000 
200.000000 
200.000000 
200.000000 
200.000000 
200.000000 
200.000000 
200.000000 
200.000000 
200.000000 
200.000000 
200.000000 
200.000000 
200.000000 
200.000000 
200.000000 
200.000000 
200.000000 
200.000000 
200.000000 
200.000000 
200.000000 
200.000000 
200.000000 
200.000000 
200.000000 
200.000000 
200.000000 
200.000000 
200.000000 
200.000000 
200.000000 
200.000000 
200.000000 
200.000000 
200.000000 
200.000000 
200.000000 
200.000000 
200.000000 
200.000000 
200.000000 
200.000000 
200.000000 
200.000000 
200.000000 
200.000000 
200.000000 
200.000000 
200.000000 
200.000000 
200.000000 
200.000000 
200.000000 
200.000000 
200.000000 
200.000000 
200.000000 
200.000000 
200.000000 
200.000000 
200.000000 
200.000000 
200.000000 
200.000000 
200.000000 
200.000000 
200.000000 
200.000000 
200.000000 
200.000000 
200.000000 
200.000000 
200.000000 
200.000000 
200.000000 
200.000000 
200.000000 
200.000000 
200.000000 
200.000000 
200.000000 
200.000000 
200.000000 
200.000000 
200.000000 
200.000000 
200.000000 
200.000000 
200.000000 
200.000000 
200.000000 
200.000000 
200.000000 
200.000000 
200.000000 
200.000000 
200.000000 
200.000000 
200.000000 
200.000000 
200.000000 
200.000000 
200.000000 
SCALARS ELEM_i float 
LOOKUP_TABLE default 
168 
195 
168 
169 
196 
196 
196 
169 
169 
223 
196 
197 
196 
197 
170 
170 
224 
224 
224 
197 
197 
197 
197 
170 
171 
168 
194 
195 
195 
221 
195 
222 
195 
195 
221 
221 
222 
222 
222 
223 
223 
248 
248 
249 
249 
249 
249 
250 
223 
223 
167 
194 
194 
194 
193 
193 
193 
194 
221 
192 
193 
220 
220 
220 
221 
221 
192 
219 
219 
219 
220 
220 
247 
247 
248 
167 
166 
167 
166 
139 
166 
166 
166 
193 
138 
138 
165 
165 
165 
192 
192 
138 
138 
137 
165 
164 
165 
191 
192 
192 
167 
140 
140 
140 
113 
140 
139 
139 
139 
113 
113 
112 
112 
112 
139 
138 
86 
85 
85 
112 
112 
111 
111 
111 
138 
168 
141 
141 
140 
141 
141 
114 
141 
113 
115 
115 
114 
114 
114 
113 
113 
115 
115 
88 
87 
87 
87 
87 
86 
86 
168 
169 
168 
141 
169 
169 
142 
142 
142 
170 
170 
143 
142 
143 
142 
115 
171 
170 
143 
143 
143 
143 
116 
116 
116 
VECTORS VELOCITY float 
-0.000000 -6.443208 0.000000 
-0.000000 -6.443208 0.000000 
-0.000000 -6.443208 0.000000 
0.000000 -6.443208 0.000000 
0.000000 -6.443208 0.000000 
0.000000 -6.443208 0.000000 
0.000000 -6.443208 0.000000 
0.000000 -6.443208 0.000000 
0.000000 -6.443208 0.000000 
0.000000 -6.443208 0.000000 
0.000000 -6.443208 0.000000 
0.000000 -6.443208 0.000000 
0.000000 -6.443208 0.000000 
0.000000 -6.443208 0.000000 
0.000000 -6.443208 0.000000 
0.000000 -6.443208 0.000000 
0.000000 -6.443208 0.000000 
0.000000 -6.443208 0.000000 
0.000000 -6.443208 0.000000 
0.000000 -6.443208 0.000000 
0.000000 -6.443208 0.000000 
0.000000 -6.443208 0.000000 
0.000000 -6.443208 0.000000 
0.000000 -6.443208 0.000000 
-0.000000 -6.443208 0.000000 
-0.000000 -6.443208 0.000000 
0.000000 -6.443208 0.000000 
0.000000 -6.443208 0.000000 
0.000000 -6.443208 0.000000 
-0.000000 -6.443208 0.000000 
0.000000 -6.443208 0.000000 
0.000000 -6.443208 0.000000 
0.000000 -6.443208 0.000000 
0.000000 -6.443208 0.000000 
0.000000 -6.443208 0.000000 
0.000000 -6.443208 0.000000 
0.000000 -6.443208 0.000000 
-0.000000 -6.443208 0.000000 
-0.000000 -6.443208 0.000000 
-0.000000 -6.443208 0.000000 
0.000000 -6.443208 0.000000 
0.000000 -6.443208 0.000000 
0.000000 -6.443208 0.000000 
0.000000 -6.443208 0.000000 
-0.000000 -6.443208 0.000000 
-0.000000 -6.443208 0.000000 
-0.000000 -6.443208 0.000000 
0.000000 -6.443208 0.000000 
0.000000 -6.443208 0.000000 
0.000000 -6.443208 0.000000 
-0.000000 -6.443208 0.000000 
0.000000 -6.443208 0.000000 
-0.000000 -6.443208 0.000000 
-0.000000 -6.443208 0.000000 
-0.000000 -6.443208 0.000000 
-0.000000 -6.443208 0.000000 
-0.000000 -6.443208 0.000000 
-0.000000 -6.443208 0.000000 
-0.000000 -6.443208 0.000000 
-0.000000 -6.443208 0.000000 
-0.000000 -6.443208 0.000000 
-0.000000 -6.443208 0.000000 
-0.000000 -6.443208 0.000000 
-0.000000 -6.443208 0.000000 
-0.000000 -6.443208 0.000000 
-0.000000 -6.443208 0.000000 
-0.000000 -6.443208 0.000000 
0.000000 -6.443208 0.000000 
0.000000 -6.443208 0.000000 
0.000000 -6.443208 0.000000 
0.000000 -6.443208 0.000000 
-0.000000 -6.443208 0.000000 
0.000000 -6.443208 0.000000 
-0.000000 -6.443208 0.000000 
0.000000 -6.443208 0.000000 
-0.000000 -6.443208 0.000000 
-0.000000 -6.443208 0.000000 
-0.000000 -6.443208 0.000000 
0.000000 -6.443208 0.000000 
-0.000000 -6.443208 0.000000 
-0.000000 -6.443208 0.000000 
-0.000000 -6.443208 0.000000 
-0.000000 -6.443208 0.000000 
-0.000000 -6.443208 0.000000 
-0.000000 -6.443208 0.000000 
-0.000000 -6.443208 0.000000 
-0.000000 -6.443208 0.000000 
-0.000000 -6.443208 0.000000 
-0.000000 -6.443208 0.000000 
-0.000000 -6.443208 0.000000 
-0.000000 -6.443208 0.000000 
0.000000 -6.443208 0.000000 
-0.000000 -6.443208 0.000000 
-0.000000 -6.443208 0.000000 
-0.000000 -6.443208 0.000000 
-0.000000 -6.443208 0.000000 
0.000000 -6.443208 0.000000 
-0.000000 -6.443208 0.000000 
0.000000 -6.443208 0.000000 
-0.000000 -6.443208 0.000000 
-0.000000 -6.443208 0.000000 
0.000000 -6.443208 0.000000 
0.000000 -6.443208 0.000000 
-0.000000 -6.443208 0.000000 
-0.000000 -6.443208 0.000000 
0.000000 -6.443208 0.000000 
-0.000000 -6.443208 0.000000 
-0.000000 -6.443208 0.000000 
-0.000000 -6.443208 0.000000 
0.000000 -6.443208 0.000000 
0.000000 -6.443208 0.000000 
-0.000000 -6.443208 0.000000 
-0.000000 -6.443208 0.000000 
-0.000000 -6.443208 0.000000 
-0.000000 -6.443208 0.000000 
-0.000000 -6.443208 0.000000 
0.000000 -6.443208 0.000000 
-0.000000 -6.443208 0.000000 
0.000000 -6.443208 0.000000 
-0.000000 -6.443208 0.000000 
-0.000000 -6.443208 0.000000 
-0.000000 -6.443208 0.000000 
0.000000 -6.443208 0.000000 
-0.000000 -6.443208 0.000000 
-0.000000 -6.443208 0.000000 
-0.000000 -6.443208 0.000000 
-0.000000 -6.443208 0.000000 
-0.000000 -6.443208 0.000000 
-0.000000 -6.443208 0.000000 
-0.000000 -6.443208 0.000000 
0.000000 -6.443208 0.000000 
-0.000000 -6.443208 0.000000 
0.000000 -6.443208 0.000000 
0.000000 -6.443208 0.000000 
-0.000000 -6.443208 0.000000 
0.000000 -6.443208 0.000000 
-0.000000 -6.443208 0.000000 
-0.000000 -6.443208 0.000000 
-0.000000 -6.443208 0.000000 
0.000000 -6.443208 0.000000 
0.000000 -6.443208 0.000000 
0.000000 -6.443208 0.000000 
0.000000 -6.443208 0.000000 
0.000000 -6.443208 0.000000 
0.000000 -6.443208 0.000000 
0.000000 -6.443208 0.000000 
0.000000 -6.443208 0.000000 
0.000000 -6.443208 0.000000 
-0.000000 -6.443208 0.000000 
-0.000000 -6.443208 0.000000 
-0.000000 -6.443208 0.000000 
0.000000 -6.443208 0.000000 
-0.000000 -6.443208 0.000000 
-0.000000 -6.443208 0.000000 
0.000000 -6.443208 0.000000 
0.000000 -6.443208 0.000000 
0.000000 -6.443208 0.000000 
0.000000 -6.443208 0.000000 
-0.000000 -6.443208 0.000000 
-0.000000 -6.443208 0.000000 
0.000000 -6.443208 0.000000 
0.000000 -6.443208 0.000000 
0.000000 -6.443208 0.000000 
0.000000 -6.443208 0.000000 
-0.000000 -6.443208 0.000000 
-0.000000 -6.443208 0.000000 
-0.000000 -6.443208 0.000000 
-0.000000 -6.443208 0.000000 
0.000000 -6.443208 0.000000 
-0.000000 -6.443208 0.000000 
0.000000 -6.443208 0.000000 
0.000000 -6.443208 0.000000 
0.000000 -6.443208 0.000000 
0.000000 -6.443208 0.000000 
0.000000 -6.443208 0.000000 
TENSORS STRESS float 
0.000000 -0.000000 0.000000 
0.000000 0.000000 0.000000 
0.000000 0.000000 0.000000 

0.000000 -0.000000 0.000000 
0.000000 0.000000 0.000000 
0.000000 0.000000 0.000000 

0.000000 0.000000 0.000000 
0.000000 0.000000 0.000000 
0.000000 0.000000 0.000000 

0.000000 0.000000 0.000000 
0.000000 0.000000 0.000000 
0.000000 0.000000 0.000000 

-0.000000 0.000000 0.000000 
0.000000 -0.000000 0.000000 
0.000000 0.000000 0.000000 

0.000000 0.000000 0.000000 
0.000000 0.000000 0.000000 
0.000000 0.000000 0.000000 

0.000000 0.000000 0.000000 
0.000000 0.000000 0.000000 
0.000000 0.000000 0.000000 

-0.000000 0.000000 0.000000 
0.000000 -0.000000 0.000000 
0.000000 0.000000 0.000000 

-0.000000 0.000000 0.000000 
0.000000 0.000000 0.000000 
0.000000 0.000000 0.000000 

-0.000000 0.000000 0.000000 
0.000000 -0.000000 0.000000 
0.000000 0.000000 0.000000 

-0.000000 0.000000 0.000000 
0.000000 -0.000000 0.000000 
0.000000 0.000000 0.000000 

-0.000000 0.000000 0.000000 
0.000000 -0.000000 0.000000 
0.000000 0.000000 0.000000 

0.000000 0.000000 0.000000 
0.000000 0.000000 0.000000 
0.000000 0.000000 0.000000 

0.000000 0.000000 0.000000 
0.000000 0.000000 0.000000 
0.000000 0.000000 0.000000 

-0.000000 0.000000 0.000000 
0.000000 -0.000000 0.000000 
0.000000 0.000000 0.000000 

-0.000000 0.000000 0.000000 
0.000000 -0.000000 0.000000 
0.000000 0.000000 0.000000 

0.000000 -0.000000 0.000000 
0.000000 0.000000 0.000000 
0.000000 0.000000 0.000000 

0.000000 -0.000000 0.000000 
0.000000 0.000000 0.000000 
0.000000 0.000000 0.000000 

0.000000 -0.000000 0.000000 
0.000000 0.000000 0.000000 
0.000000 0.000000 0.000000 

0.000000 -0.000000 0.000000 
0.000000 0.000000 0.000000 
0.000000 0.000000 0.000000 

0.000000 -0.000000 0.000000 
0.000000 0.000000 0.000000 
0.000000 0.000000 0.000000 

-0.000000 -0.000000 0.000000 
0.000000 -0.000000 0.000000 
0.000000 0.000000 0.000000 

0.000000 0.000000 0.000000 
0.000000 0.000000 0.000000 
0.000000 0.000000 0.000000 

-0.000000 0.000000 0.000000 
0.000000 0.000000 0.000000 
0.000000 0.000000 0.000000 

-0.000000 0.000000 0.000000 
0.000000 0.000000 0.000000 
0.000000 0.000000 0.000000 

-0.000000 0.000000 0.000000 
0.000000 -0.000000 0.000000 
0.000000 0.000000 0.000000 

-0.000000 -0.000000 0.000000 
0.000000 0.000000 0.000000 
0.000000 0.000000 0.000000 

0.000000 -0.000000 0.000000 
0.000000 0.000000 0.000000 
0.000000 0.000000 0.000000 

-0.000000 -0.000000 0.000000 
0.000000 -0.000000 0.000000 
0.000000 0.000000 0.000000 

0.000000 -0.000000 0.000000 
0.000000 0.000000 0.000000 
0.000000 0.000000 0.000000 

-0.000000 -0.000000 0.000000 
0.000000 -0.000000 0.000000 
0.000000 0.000000 0.000000 

0.000000 0.000000 0.000000 
0.000000 0.000000 0.000000 
0.000000 0.000000 0.000000 

-0.000000 -0.000000 0.000000 
0.000000 -0.000000 0.000000 
0.000000 0.000000 0.000000 

-0.000000 -0.000000 0.000000 
0.000000 -0.000000 0.000000 
0.000000 0.000000 0.000000 

0.000000 0.000000 0.000000 
0.000000 0.000000 0.000000 
0.000000 0.000000 0.000000 

0.000000 -0.000000 0.000000 
0.000000 0.000000 0.000000 
0.000000 0.000000 0.000000 

-0.000000 0.000000 0.000000 
0.000000 -0.000000 0.000000 
0.000000 0.000000 0.000000 

-0.000000 -0.000000 0.000000 
0.000000 -0.000000 0.000000 
0.000000 0.000000 0.000000 

-0.000000 0.000000 0.000000 
0.000000 -0.000000 0.000000 
0.000000 0.000000 0.000000 

0.000000 0.000000 0.000000 
0.000000 0.000000 0.000000 
0.000000 0.000000 0.000000 

-0.000000 0.000000 0.000000 
0.000000 -0.000000 0.000000 
0.000000 0.000000 0.000000 

0.000000 -0.000000 0.000000 
0.000000 0.000000 0.000000 
0.000000 0.000000 0.000000 

-0.000000 0.000000 0.000000 
0.000000 -0.000000 0.000000 
0.000000 0.000000 0.000000 

0.000000 0.000000 0.000000 
0.000000 0.000000 0.000000 
0.000000 0.000000 0.000000 

0.000000 0.000000 0.000000 
0.000000 0.000000 0.000000 
0.000000 0.000000 0.000000 

-0.000000 -0.000000 0.000000 
0.000000 0.000000 0.000000 
0.000000 0.000000 0.000000 

-0.000000 -0.000000 0.000000 
0.000000 -0.000000 0.000000 
0.000000 0.000000 0.000000 

0.000000 -0.000000 0.000000 
0.000000 0.000000 0.000000 
0.000000 0.000000 0.000000 

0.000000 0.000000 0.000000 
0.000000 0.000000 0.000000 
0.000000 0.000000 0.000000 

0.000000 -0.000000 0.000000 
0.000000 0.000000 0.000000 
0.000000 0.000000 0.000000 

0.000000 -0.000000 0.000000 
0.000000 0.000000 0.000000 
0.000000 0.000000 0.000000 

0.000000 -0.000000 0.000000 
0.000000 0.000000 0.000000 
0.000000 0.000000 0.000000 

0.000000 -0.000000 0.000000 
0.000000 0.000000 0.000000 
0.000000 0.000000 0.000000 

-0.000000 -0.000000 0.000000 
0.000000 -0.000000 0.000000 
0.000000 0.000000 0.000000 

-0.000000 -0.000000 0.000000 
0.000000 -0.000000 0.000000 
0.000000 0.000000 0.000000 

0.000000 -0.000000 0.000000 
0.000000 0.000000 0.000000 
0.000000 0.000000 0.000000 

-0.000000 -0.000000 0.000000 
0.000000 -0.000000 0.000000 
0.000000 0.000000 0.000000 

0.000000 -0.000000 0.000000 
0.000000 0.000000 0.000000 
0.000000 0.000000 0.000000 

0.000000 -0.000000 0.000000 
0.000000 0.000000 0.000000 
0.000000 0.000000 0.000000 

0.000000 0.000000 0.000000 
0.000000 0.000000 0.000000 
0.000000 0.000000 0.000000 

0.000000 0.000000 0.000000 
0.000000 0.000000 0.000000 
0.000000 0.000000 0.000000 

0.000000 0.000000 0.000000 
0.000000 0.000000 0.000000 
0.000000 0.000000 0.000000 

-0.000000 -0.000000 0.000000 
0.000000 -0.000000 0.000000 
0.000000 0.000000 0.000000 

-0.000000 -0.000000 0.000000 
0.000000 -0.000000 0.000000 
0.000000 0.000000 0.000000 

-0.000000 0.000000 0.000000 
0.000000 -0.000000 0.000000 
0.000000 0.000000 0.000000 

-0.000000 0.000000 0.000000 
0.000000 -0.000000 0.000000 
0.000000 0.000000 0.000000 

0.000000 0.000000 0.000000 
0.000000 0.000000 0.000000 
0.000000 0.000000 0.000000 

0.000000 0.000000 0.000000 
0.000000 0.000000 0.000000 
0.000000 0.000000 0.000000 

0.000000 -0.000000 0.000000 
0.000000 0.000000 0.000000 
0.000000 0.000000 0.000000 

-0.000000 0.000000 0.000000 
0.000000 -0.000000 0.000000 
0.000000 0.000000 0.000000 

-0.000000 0.000000 0.000000 
0.000000 -0.000000 0.000000 
0.000000 0.000000 0.000000 

-0.000000 -0.000000 0.000000 
0.000000 -0.000000 0.000000 
0.000000 0.000000 0.000000 

0.000000 0.000000 0.000000 
0.000000 -0.000000 0.000000 
0.000000 0.000000 0.000000 

-0.000000 -0.000000 0.000000 
0.000000 -0.000000 0.000000 
0.000000 0.000000 0.000000 

-0.000000 -0.000000 0.000000 
0.000000 -0.000000 0.000000 
0.000000 0.000000 0.000000 

-0.000000 0.000000 0.000000 
0.000000 -0.000000 0.000000 
0.000000 0.000000 0.000000 

0.000000 0.000000 0.000000 
0.000000 0.000000 0.000000 
0.000000 0.000000 0.000000 

-0.000000 0.000000 0.000000 
0.000000 -0.000000 0.000000 
0.000000 0.000000 0.000000 

0.000000 0.000000 0.000000 
0.000000 0.000000 0.000000 
0.000000 0.000000 0.000000 

-0.000000 0.000000 0.000000 
0.000000 -0.000000 0.000000 
0.000000 0.000000 0.000000 

0.000000 0.000000 0.000000 
0.000000 0.000000 0.000000 
0.000000 0.000000 0.000000 

-0.000000 0.000000 0.000000 
0.000000 -0.000000 0.000000 
0.000000 0.000000 0.000000 

-0.000000 0.000000 0.000000 
0.000000 -0.000000 0.000000 
0.000000 0.000000 0.000000 

-0.000000 0.000000 0.000000 
0.000000 -0.000000 0.000000 
0.000000 0.000000 0.000000 

-0.000000 0.000000 0.000000 
0.000000 -0.000000 0.000000 
0.000000 0.000000 0.000000 

0.000000 0.000000 0.000000 
0.000000 0.000000 0.000000 
0.000000 0.000000 0.000000 

0.000000 0.000000 0.000000 
0.000000 0.000000 0.000000 
0.000000 0.000000 0.000000 

0.000000 0.000000 0.000000 
0.000000 0.000000 0.000000 
0.000000 0.000000 0.000000 

0.000000 0.000000 0.000000 
0.000000 0.000000 0.000000 
0.000000 0.000000 0.000000 

0.000000 0.000000 0.000000 
0.000000 0.000000 0.000000 
0.000000 0.000000 0.000000 

-0.000000 0.000000 0.000000 
0.000000 -0.000000 0.000000 
0.000000 0.000000 0.000000 

-0.000000 -0.000000 0.000000 
0.000000 -0.000000 0.000000 
0.000000 0.000000 0.000000 

0.000000 -0.000000 0.000000 
0.000000 0.000000 0.000000 
0.000000 0.000000 0.000000 

-0.000000 -0.000000 0.000000 
0.000000 -0.000000 0.000000 
0.000000 0.000000 0.000000 

0.000000 -0.000000 0.000000 
0.000000 0.000000 0.000000 
0.000000 0.000000 0.000000 

0.000000 0.000000 0.000000 
0.000000 0.000000 0.000000 
0.000000 0.000000 0.000000 

-0.000000 0.000000 0.000000 
0.000000 -0.000000 0.000000 
0.000000 0.000000 0.000000 

-0.000000 0.000000 0.000000 
0.000000 -0.000000 0.000000 
0.000000 0.000000 0.000000 

0.000000 0.000000 0.000000 
0.000000 0.000000 0.000000 
0.000000 0.000000 0.000000 

0.000000 0.000000 0.000000 
0.000000 0.000000 0.000000 
0.000000 0.000000 0.000000 

0.000000 0.000000 0.000000 
0.000000 0.000000 0.000000 
0.000000 0.000000 0.000000 

-0.000000 -0.000000 0.000000 
0.000000 -0.000000 0.000000 
0.000000 0.000000 0.000000 

-0.000000 0.000000 0.000000 
0.000000 -0.000000 0.000000 
0.000000 0.000000 0.000000 

0.000000 -0.000000 0.000000 
0.000000 0.000000 0.000000 
0.000000 0.000000 0.000000 

0.000000 0.000000 0.000000 
0.000000 0.000000 0.000000 
0.000000 0.000000 0.000000 

0.000000 -0.000000 0.000000 
0.000000 0.000000 0.000000 
0.000000 0.000000 0.000000 

-0.000000 -0.000000 0.000000 
0.000000 -0.000000 0.000000 
0.000000 0.000000 0.000000 

-0.000000 -0.000000 0.000000 
0.000000 -0.000000 0.000000 
0.000000 0.000000 0.000000 

-0.000000 -0.000000 0.000000 
0.000000 0.000000 0.000000 
0.000000 0.000000 0.000000 

0.000000 0.000000 0.000000 
0.000000 0.000000 0.000000 
0.000000 0.000000 0.000000 

-0.000000 0.000000 0.000000 
0.000000 -0.000000 0.000000 
0.000000 0.000000 0.000000 

-0.000000 0.000000 0.000000 
0.000000 -0.000000 0.000000 
0.000000 0.000000 0.000000 

-0.000000 0.000000 0.000000 
0.000000 -0.000000 0.000000 
0.000000 0.000000 0.000000 

-0.000000 0.000000 0.000000 
0.000000 -0.000000 0.000000 
0.000000 0.000000 0.000000 

-0.000000 -0.000000 0.000000 
0.000000 -0.000000 0.000000 
0.000000 0.000000 0.000000 

-0.000000 0.000000 0.000000 
0.000000 -0.000000 0.000000 
0.000000 0.000000 0.000000 

-0.000000 0.000000 0.000000 
0.000000 -0.000000 0.000000 
0.000000 0.000000 0.000000 

0.000000 -0.000000 0.000000 
0.000000 0.000000 0.000000 
0.000000 0.000000 0.000000 

-0.000000 0.000000 0.000000 
0.000000 -0.000000 0.000000 
0.000000 0.000000 0.000000 

0.000000 0.000000 0.000000 
0.000000 0.000000 0.000000 
0.000000 0.000000 0.000000 

-0.000000 0.000000 0.000000 
0.000000 -0.000000 0.000000 
0.000000 0.000000 0.000000 

0.000000 0.000000 0.000000 
0.000000 0.000000 0.000000 
0.000000 0.000000 0.000000 

-0.000000 0.000000 0.000000 
0.000000 -0.000000 0.000000 
0.000000 0.000000 0.000000 

0.000000 0.000000 0.000000 
0.000000 0.000000 0.000000 
0.000000 0.000000 0.000000 

0.000000 0.000000 0.000000 
0.000000 0.000000 0.000000 
0.000000 0.000000 0.000000 

0.000000 -0.000000 0.000000 
0.000000 0.000000 0.000000 
0.000000 0.000000 0.000000 

-0.000000 -0.000000 0.000000 
0.000000 -0.000000 0.000000 
0.000000 0.000000 0.000000 

-0.000000 -0.000000 0.000000 
0.000000 -0.000000 0.000000 
0.000000 0.000000 0.000000 

0.000000 -0.000000 0.000000 
0.000000 0.000000 0.000000 
0.000000 0.000000 0.000000 

0.000000 0.000000 0.000000 
0.000000 0.000000 0.000000 
0.000000 0.000000 0.000000 

0.000000 0.000000 0.000000 
0.000000 0.000000 0.000000 
0.000000 0.000000 0.000000 

-0.000000 -0.000000 0.000000 
0.000000 -0.000000 0.000000 
0.000000 0.000000 0.000000 

0.000000 -0.000000 0.000000 
0.000000 0.000000 0.000000 
0.000000 0.000000 0.000000 

0.000000 0.000000 0.000000 
0.000000 0.000000 0.000000 
0.000000 0.000000 0.000000 

-0.000000 -0.000000 0.000000 
0.000000 0.000000 0.000000 
0.000000 0.000000 0.000000 

-0.000000 -0.000000 0.000000 
0.000000 -0.000000 0.000000 
0.000000 0.000000 0.000000 

0.000000 -0.000000 0.000000 
0.000000 0.000000 0.000000 
0.000000 0.000000 0.000000 

0.000000 -0.000000 0.000000 
0.000000 0.000000 0.000000 
0.000000 0.000000 0.000000 

0.000000 -0.000000 0.000000 
0.000000 0.000000 0.000000 
0.000000 0.000000 0.000000 

0.000000 0.000000 0.000000 
0.000000 -0.000000 0.000000 
0.000000 0.000000 0.000000 

0.000000 0.000000 0.000000 
0.000000 0.000000 0.000000 
0.000000 0.000000 0.000000 

-0.000000 0.000000 0.000000 
0.000000 -0.000000 0.000000 
0.000000 0.000000 0.000000 

0.000000 -0.000000 0.000000 
0.000000 0.000000 0.000000 
0.000000 0.000000 0.000000 

-0.000000 0.000000 0.000000 
0.000000 -0.000000 0.000000 
0.000000 0.000000 0.000000 

0.000000 0.000000 0.000000 
0.000000 0.000000 0.000000 
0.000000 0.000000 0.000000 

0.000000 0.000000 0.000000 
0.000000 0.000000 0.000000 
0.000000 0.000000 0.000000 

0.000000 0.000000 0.000000 
0.000000 0.000000 0.000000 
0.000000 0.000000 0.000000 

0.000000 0.000000 0.000000 
0.000000 0.000000 0.000000 
0.000000 0.000000 0.000000 

0.000000 0.000000 0.000000 
0.000000 0.000000 0.000000 
0.000000 0.000000 0.000000 

0.000000 -0.000000 0.000000 
0.000000 0.000000 0.000000 
0.000000 0.000000 0.000000 

0.000000 -0.000000 0.000000 
0.000000 0.000000 0.000000 
0.000000 0.000000 0.000000 

-0.000000 0.000000 0.000000 
0.000000 -0.000000 0.000000 
0.000000 0.000000 0.000000 

-0.000000 0.000000 0.000000 
0.000000 -0.000000 0.000000 
0.000000 0.000000 0.000000 

-0.000000 0.000000 0.000000 
0.000000 -0.000000 0.000000 
0.000000 0.000000 0.000000 

0.000000 0.000000 0.000000 
0.000000 0.000000 0.000000 
0.000000 0.000000 0.000000 

0.000000 -0.000000 0.000000 
0.000000 0.000000 0.000000 
0.000000 0.000000 0.000000 

-0.000000 0.000000 0.000000 
0.000000 0.000000 0.000000 
0.000000 0.000000 0.000000 

0.000000 0.000000 0.000000 
0.000000 0.000000 0.000000 
0.000000 0.000000 0.000000 

-0.000000 0.000000 0.000000 
0.000000 -0.000000 0.000000 
0.000000 0.000000 0.000000 

-0.000000 0.000000 0.000000 
0.000000 -0.000000 0.000000 
0.000000 0.000000 0.000000 

-0.000000 0.000000 0.000000 
0.000000 -0.000000 0.000000 
0.000000 0.000000 0.000000 

-0.000000 0.000000 0.000000 
0.000000 -0.000000 0.000000 
0.000000 0.000000 0.000000 

0.000000 0.000000 0.000000 
0.000000 0.000000 0.000000 
0.000000 0.000000 0.000000 

0.000000 0.000000 0.000000 
0.000000 0.000000 0.000000 
0.000000 0.000000 0.000000 

-0.000000 0.000000 0.000000 
0.000000 -0.000000 0.000000 
0.000000 0.000000 0.000000 

-0.000000 -0.000000 0.000000 
0.000000 -0.000000 0.000000 
0.000000 0.000000 0.000000 

-0.000000 0.000000 0.000000 
0.000000 -0.000000 0.000000 
0.000000 0.000000 0.000000 

-0.000000 -0.000000 0.000000 
0.000000 -0.000000 0.000000 
0.000000 0.000000 0.000000 

-0.000000 0.000000 0.000000 
0.000000 -0.000000 0.000000 
0.000000 0.000000 0.000000 

0.000000 0.000000 0.000000 
0.000000 0.000000 0.000000 
0.000000 0.000000 0.000000 

-0.000000 0.000000 0.000000 
0.000000 -0.000000 0.000000 
0.000000 0.000000 0.000000 

0.000000 0.000000 0.000000 
0.000000 0.000000 0.000000 
0.000000 0.000000 0.000000 

-0.000000 -0.000000 0.000000 
0.000000 -0.000000 0.000000 
0.000000 0.000000 0.000000 

0.000000 0.000000 0.000000 
0.000000 0.000000 0.000000 
0.000000 0.000000 0.000000 

-0.000000 0.000000 0.000000 
0.000000 -0.000000 0.000000 
0.000000 0.000000 0.000000 

TENSORS STRAIN float 
0.000000 -0.000000 0.000000 
0.000000 0.000000 0.000000 
0.000000 0.000000 0.000000 

-0.000000 -0.000000 0.000000 
0.000000 0.000000 0.000000 
0.000000 0.000000 0.000000 

0.000000 0.000000 0.000000 
0.000000 0.000000 0.000000 
0.000000 0.000000 0.000000 

0.000000 0.000000 0.000000 
0.000000 0.000000 0.000000 
0.000000 0.000000 0.000000 

-0.000000 0.000000 0.000000 
0.000000 0.000000 0.000000 
0.000000 0.000000 0.000000 

-0.000000 0.000000 0.000000 
0.000000 0.000000 0.000000 
0.000000 0.000000 0.000000 

-0.000000 0.000000 0.000000 
0.000000 0.000000 0.000000 
0.000000 0.000000 0.000000 

-0.000000 0.000000 0.000000 
0.000000 -0.000000 0.000000 
0.000000 0.000000 0.000000 

-0.000000 0.000000 0.000000 
0.000000 0.000000 0.000000 
0.000000 0.000000 0.000000 

-0.000000 0.000000 0.000000 
0.000000 0.000000 0.000000 
0.000000 0.000000 0.000000 

-0.000000 0.000000 0.000000 
0.000000 -0.000000 0.000000 
0.000000 0.000000 0.000000 

-0.000000 0.000000 0.000000 
0.000000 0.000000 0.000000 
0.000000 0.000000 0.000000 

-0.000000 0.000000 0.000000 
0.000000 0.000000 0.000000 
0.000000 0.000000 0.000000 

-0.000000 0.000000 0.000000 
0.000000 0.000000 0.000000 
0.000000 0.000000 0.000000 

-0.000000 0.000000 0.000000 
0.000000 0.000000 0.000000 
0.000000 0.000000 0.000000 

-0.000000 0.000000 0.000000 
0.000000 0.000000 0.000000 
0.000000 0.000000 0.000000 

-0.000000 -0.000000 0.000000 
0.000000 0.000000 0.000000 
0.000000 0.000000 0.000000 

-0.000000 -0.000000 0.000000 
0.000000 0.000000 0.000000 
0.000000 0.000000 0.000000 

-0.000000 -0.000000 0.000000 
0.000000 0.000000 0.000000 
0.000000 0.000000 0.000000 

-0.000000 -0.000000 0.000000 
0.000000 0.000000 0.000000 
0.000000 0.000000 0.000000 

-0.000000 -0.000000 0.000000 
0.000000 0.000000 0.000000 
0.000000 0.000000 0.000000 

-0.000000 -0.000000 0.000000 
0.000000 0.000000 0.000000 
0.000000 0.000000 0.000000 

0.000000 0.000000 0.000000 
0.000000 -0.000000 0.000000 
0.000000 0.000000 0.000000 

-0.000000 0.000000 0.000000 
0.000000 0.000000 0.000000 
0.000000 0.000000 0.000000 

-0.000000 0.000000 0.000000 
0.000000 0.000000 0.000000 
0.000000 0.000000 0.000000 

0.000000 0.000000 0.000000 
0.000000 -0.000000 0.000000 
0.000000 0.000000 0.000000 

-0.000000 -0.000000 0.000000 
0.000000 0.000000 0.000000 
0.000000 0.000000 0.000000 

-0.000000 -0.000000 0.000000 
0.000000 0.000000 0.000000 
0.000000 0.000000 0.000000 

-0.000000 -0.000000 0.000000 
0.000000 0.000000 0.000000 
0.000000 0.000000 0.000000 

-0.000000 -0.000000 0.000000 
0.000000 0.000000 0.000000 
0.000000 0.000000 0.000000 

-0.000000 -0.000000 0.000000 
0.000000 0.000000 0.000000 
0.000000 0.000000 0.000000 

-0.000000 0.000000 0.000000 
0.000000 0.000000 0.000000 
0.000000 0.000000 0.000000 

-0.000000 -0.000000 0.000000 
0.000000 0.000000 0.000000 
0.000000 0.000000 0.000000 

-0.000000 -0.000000 0.000000 
0.000000 0.000000 0.000000 
0.000000 0.000000 0.000000 

-0.000000 0.000000 0.000000 
0.000000 0.000000 0.000000 
0.000000 0.000000 0.000000 

-0.000000 -0.000000 0.000000 
0.000000 0.000000 0.000000 
0.000000 0.000000 0.000000 

-0.000000 0.000000 0.000000 
0.000000 -0.000000 0.000000 
0.000000 0.000000 0.000000 

-0.000000 -0.000000 0.000000 
0.000000 0.000000 0.000000 
0.000000 0.000000 0.000000 

-0.000000 0.000000 0.000000 
0.000000 0.000000 0.000000 
0.000000 0.000000 0.000000 

-0.000000 0.000000 0.000000 
0.000000 0.000000 0.000000 
0.000000 0.000000 0.000000 

-0.000000 0.000000 0.000000 
0.000000 0.000000 0.000000 
0.000000 0.000000 0.000000 

0.000000 -0.000000 0.000000 
0.000000 0.000000 0.000000 
0.000000 0.000000 0.000000 

0.000000 0.000000 0.000000 
0.000000 -0.000000 0.000000 
0.000000 0.000000 0.000000 

0.000000 0.000000 0.000000 
0.000000 0.000000 0.000000 
0.000000 0.000000 0.000000 

-0.000000 0.000000 0.000000 
0.000000 0.000000 0.000000 
0.000000 0.000000 0.000000 

-0.000000 -0.000000 0.000000 
0.000000 0.000000 0.000000 
0.000000 0.000000 0.000000 

-0.000000 -0.000000 0.000000 
0.000000 0.000000 0.000000 
0.000000 0.000000 0.000000 

0.000000 -0.000000 0.000000 
0.000000 0.000000 0.000000 
0.000000 0.000000 0.000000 

-0.000000 0.000000 0.000000 
0.000000 0.000000 0.000000 
0.000000 0.000000 0.000000 

-0.000000 -0.000000 0.000000 
0.000000 0.000000 0.000000 
0.000000 0.000000 0.000000 

0.000000 -0.000000 0.000000 
0.000000 0.000000 0.000000 
0.000000 0.000000 0.000000 

-0.000000 -0.000000 0.000000 
0.000000 0.000000 0.000000 
0.000000 0.000000 0.000000 

-0.000000 -0.000000 0.000000 
0.000000 0.000000 0.000000 
0.000000 0.000000 0.000000 

-0.000000 -0.000000 0.000000 
0.000000 -0.000000 0.000000 
0.000000 0.000000 0.000000 

0.000000 -0.000000 0.000000 
0.000000 -0.000000 0.000000 
0.000000 0.000000 0.000000 

0.000000 -0.000000 0.000000 
0.000000 -0.000000 0.000000 
0.000000 0.000000 0.000000 

0.000000 -0.000000 0.000000 
0.000000 -0.000000 0.000000 
0.000000 0.000000 0.000000 

-0.000000 -0.000000 0.000000 
0.000000 0.000000 0.000000 
0.000000 0.000000 0.000000 

0.000000 -0.000000 0.000000 
0.000000 0.000000 0.000000 
0.000000 0.000000 0.000000 

-0.000000 0.000000 0.000000 
0.000000 0.000000 0.000000 
0.000000 0.000000 0.000000 

-0.000000 0.000000 0.000000 
0.000000 0.000000 0.000000 
0.000000 0.000000 0.000000 

0.000000 0.000000 0.000000 
0.000000 0.000000 0.000000 
0.000000 0.000000 0.000000 

0.000000 -0.000000 0.000000 
0.000000 -0.000000 0.000000 
0.000000 0.000000 0.000000 

0.000000 -0.000000 0.000000 
0.000000 -0.000000 0.000000 
0.000000 0.000000 0.000000 

0.000000 0.000000 0.000000 
0.000000 -0.000000 0.000000 
0.000000 0.000000 0.000000 

0.000000 0.000000 0.000000 
0.000000 -0.000000 0.000000 
0.000000 0.000000 0.000000 

0.000000 0.000000 0.000000 
0.000000 -0.000000 0.000000 
0.000000 0.000000 0.000000 

-0.000000 0.000000 0.000000 
0.000000 0.000000 0.000000 
0.000000 0.000000 0.000000 

-0.000000 -0.000000 0.000000 
0.000000 0.000000 0.000000 
0.000000 0.000000 0.000000 

0.000000 0.000000 0.000000 
0.000000 -0.000000 0.000000 
0.000000 0.000000 0.000000 

0.000000 0.000000 0.000000 
0.000000 -0.000000 0.000000 
0.000000 0.000000 0.000000 

0.000000 -0.000000 0.000000 
0.000000 -0.000000 0.000000 
0.000000 0.000000 0.000000 

0.000000 0.000000 0.000000 
0.000000 -0.000000 0.000000 
0.000000 0.000000 0.000000 

0.000000 -0.000000 0.000000 
0.000000 -0.000000 0.000000 
0.000000 0.000000 0.000000 

0.000000 -0.000000 0.000000 
0.000000 -0.000000 0.000000 
0.000000 0.000000 0.000000 

-0.000000 0.000000 0.000000 
0.000000 -0.000000 0.000000 
0.000000 0.000000 0.000000 

-0.000000 0.000000 0.000000 
0.000000 0.000000 0.000000 
0.000000 0.000000 0.000000 

-0.000000 0.000000 0.000000 
0.000000 0.000000 0.000000 
0.000000 0.000000 0.000000 

-0.000000 0.000000 0.000000 
0.000000 0.000000 0.000000 
0.000000 0.000000 0.000000 

-0.000000 0.000000 0.000000 
0.000000 0.000000 0.000000 
0.000000 0.000000 0.000000 

-0.000000 0.000000 0.000000 
0.000000 0.000000 0.000000 
0.000000 0.000000 0.000000 

-0.000000 0.000000 0.000000 
0.000000 -0.000000 0.000000 
0.000000 0.000000 0.000000 

-0.000000 0.000000 0.000000 
0.000000 0.000000 0.000000 
0.000000 0.000000 0.000000 

0.000000 0.000000 0.000000 
0.000000 -0.000000 0.000000 
0.000000 0.000000 0.000000 

0.000000 0.000000 0.000000 
0.000000 -0.000000 0.000000 
0.000000 0.000000 0.000000 

0.000000 0.000000 0.000000 
0.000000 0.000000 0.000000 
0.000000 0.000000 0.000000 

-0.000000 0.000000 0.000000 
0.000000 0.000000 0.000000 
0.000000 0.000000 0.000000 

-0.000000 0.000000 0.000000 
0.000000 0.000000 0.000000 
0.000000 0.000000 0.000000 

-0.000000 0.000000 0.000000 
0.000000 0.000000 0.000000 
0.000000 0.000000 0.000000 

-0.000000 0.000000 0.000000 
0.000000 0.000000 0.000000 
0.000000 0.000000 0.000000 

-0.000000 0.000000 0.000000 
0.000000 -0.000000 0.000000 
0.000000 0.000000 0.000000 

0.000000 -0.000000 0.000000 
0.000000 -0.000000 0.000000 
0.000000 0.000000 0.000000 

0.000000 -0.000000 0.000000 
0.000000 0.000000 0.000000 
0.000000 0.000000 0.000000 

-0.000000 -0.000000 0.000000 
0.000000 -0.000000 0.000000 
0.000000 0.000000 0.000000 

0.000000 -0.000000 0.000000 
0.000000 0.000000 0.000000 
0.000000 0.000000 0.000000 

0.000000 0.000000 0.000000 
0.000000 0.000000 0.000000 
0.000000 0.000000 0.000000 

0.000000 0.000000 0.000000 
0.000000 -0.000000 0.000000 
0.000000 0.000000 0.000000 

0.000000 0.000000 0.000000 
0.000000 -0.000000 0.000000 
0.000000 0.000000 0.000000 

0.000000 0.000000 0.000000 
0.000000 -0.000000 0.000000 
0.000000 0.000000 0.000000 

0.000000 0.000000 0.000000 
0.000000 0.000000 0.000000 
0.000000 0.000000 0.000000 

0.000000 0.000000 0.000000 
0.000000 0.000000 0.000000 
0.000000 0.000000 0.000000 

-0.000000 -0.000000 0.000000 
0.000000 0.000000 0.000000 
0.000000 0.000000 0.000000 

-0.000000 0.000000 0.000000 
0.000000 -0.000000 0.000000 
0.000000 0.000000 0.000000 

-0.000000 -0.000000 0.000000 
0.000000 0.000000 0.000000 
0.000000 0.000000 0.000000 

0.000000 0.000000 0.000000 
0.000000 0.000000 0.000000 
0.000000 0.000000 0.000000 

-0.000000 -0.000000 0.000000 
0.000000 0.000000 0.000000 
0.000000 0.000000 0.000000 

-0.000000 -0.000000 0.000000 
0.000000 0.000000 0.000000 
0.000000 0.000000 0.000000 

-0.000000 -0.000000 0.000000 
0.000000 0.000000 0.000000 
0.000000 0.000000 0.000000 

-0.000000 -0.000000 0.000000 
0.000000 0.000000 0.000000 
0.000000 0.000000 0.000000 

0.000000 0.000000 0.000000 
0.000000 0.000000 0.000000 
0.000000 0.000000 0.000000 

-0.000000 0.000000 0.000000 
0.000000 0.000000 0.000000 
0.000000 0.000000 0.000000 

-0.000000 0.000000 0.000000 
0.000000 0.000000 0.000000 
0.000000 0.000000 0.000000 

-0.000000 0.000000 0.000000 
0.000000 -0.000000 0.000000 
0.000000 0.000000 0.000000 

-0.000000 0.000000 0.000000 
0.000000 -0.000000 0.000000 
0.000000 0.000000 0.000000 

-0.000000 -0.000000 0.000000 
0.000000 0.000000 0.000000 
0.000000 0.000000 0.000000 

0.000000 0.000000 0.000000 
0.000000 -0.000000 0.000000 
0.000000 0.000000 0.000000 

-0.000000 0.000000 0.000000 
0.000000 -0.000000 0.000000 
0.000000 0.000000 0.000000 

-0.000000 -0.000000 0.000000 
0.000000 0.000000 0.000000 
0.000000 0.000000 0.000000 

-0.000000 0.000000 0.000000 
0.000000 0.000000 0.000000 
0.000000 0.000000 0.000000 

-0.000000 0.000000 0.000000 
0.000000 0.000000 0.000000 
0.000000 0.000000 0.000000 

0.000000 0.000000 0.000000 
0.000000 -0.000000 0.000000 
0.000000 0.000000 0.000000 

0.000000 0.000000 0.000000 
0.000000 0.000000 0.000000 
0.000000 0.000000 0.000000 

0.000000 0.000000 0.000000 
0.000000 -0.000000 0.000000 
0.000000 0.000000 0.000000 

0.000000 0.000000 0.000000 
0.000000 -0.000000 0.000000 
0.000000 0.000000 0.000000 

0.000000 0.000000 0.000000 
0.000000 0.000000 0.000000 
0.000000 0.000000 0.000000 

0.000000 -0.000000 0.000000 
0.000000 0.000000 0.000000 
0.000000 0.000000 0.000000 

-0.000000 -0.000000 0.000000 
0.000000 -0.000000 0.000000 
0.000000 0.000000 0.000000 

-0.000000 -0.000000 0.000000 
0.000000 0.000000 0.000000 
0.000000 0.000000 0.000000 

-0.000000 -0.000000 0.000000 
0.000000 0.000000 0.000000 
0.000000 0.000000 0.000000 

-0.000000 0.000000 0.000000 
0.000000 0.000000 0.000000 
0.000000 0.000000 0.000000 

-0.000000 0.000000 0.000000 
0.000000 0.000000 0.000000 
0.000000 0.000000 0.000000 

0.000000 -0.000000 0.000000 
0.000000 -0.000000 0.000000 
0.000000 0.000000 0.000000 

-0.000000 -0.000000 0.000000 
0.000000 0.000000 0.000000 
0.000000 0.000000 0.000000 

0.000000 0.000000 0.000000 
0.000000 -0.000000 0.000000 
0.000000 0.000000 0.000000 

-0.000000 -0.000000 0.000000 
0.000000 0.000000 0.000000 
0.000000 0.000000 0.000000 

-0.000000 -0.000000 0.000000 
0.000000 -0.000000 0.000000 
0.000000 0.000000 0.000000 

-0.000000 -0.000000 0.000000 
0.000000 0.000000 0.000000 
0.000000 0.000000 0.000000 

-0.000000 -0.000000 0.000000 
0.000000 0.000000 0.000000 
0.000000 0.000000 0.000000 

0.000000 -0.000000 0.000000 
0.000000 0.000000 0.000000 
0.000000 0.000000 0.000000 

0.000000 0.000000 0.000000 
0.000000 -0.000000 0.000000 
0.000000 0.000000 0.000000 

0.000000 0.000000 0.000000 
0.000000 -0.000000 0.000000 
0.000000 0.000000 0.000000 

-0.000000 0.000000 0.000000 
0.000000 0.000000 0.000000 
0.000000 0.000000 0.000000 

-0.000000 -0.000000 0.000000 
0.000000 0.000000 0.000000 
0.000000 0.000000 0.000000 

-0.000000 0.000000 0.000000 
0.000000 0.000000 0.000000 
0.000000 0.000000 0.000000 

0.000000 0.000000 0.000000 
0.000000 0.000000 0.000000 
0.000000 0.000000 0.000000 

0.000000 0.000000 0.000000 
0.000000 0.000000 0.000000 
0.000000 0.000000 0.000000 

0.000000 0.000000 0.000000 
0.000000 0.000000 0.000000 
0.000000 0.000000 0.000000 

0.000000 0.000000 0.000000 
0.000000 0.000000 0.000000 
0.000000 0.000000 0.000000 

0.000000 0.000000 0.000000 
0.000000 0.000000 0.000000 
0.000000 0.000000 0.000000 

0.000000 -0.000000 0.000000 
0.000000 0.000000 0.000000 
0.000000 0.000000 0.000000 

0.000000 -0.000000 0.000000 
0.000000 -0.000000 0.000000 
0.000000 0.000000 0.000000 

0.000000 0.000000 0.000000 
0.000000 -0.000000 0.000000 
0.000000 0.000000 0.000000 

0.000000 0.000000 0.000000 
0.000000 -0.000000 0.000000 
0.000000 0.000000 0.000000 

-0.000000 0.000000 0.000000 
0.000000 -0.000000 0.000000 
0.000000 0.000000 0.000000 

-0.000000 0.000000 0.000000 
0.000000 0.000000 0.000000 
0.000000 0.000000 0.000000 

-0.000000 -0.000000 0.000000 
0.000000 0.000000 0.000000 
0.000000 0.000000 0.000000 

-0.000000 0.000000 0.000000 
0.000000 0.000000 0.000000 
0.000000 0.000000 0.000000 

-0.000000 0.000000 0.000000 
0.000000 0.000000 0.000000 
0.000000 0.000000 0.000000 

-0.000000 0.000000 0.000000 
0.000000 0.000000 0.000000 
0.000000 0.000000 0.000000 

-0.000000 0.000000 0.000000 
0.000000 0.000000 0.000000 
0.000000 0.000000 0.000000 

-0.000000 0.000000 0.000000 
0.000000 0.000000 0.000000 
0.000000 0.000000 0.000000 

-0.000000 0.000000 0.000000 
0.000000 -0.000000 0.000000 
0.000000 0.000000 0.000000 

-0.000000 0.000000 0.000000 
0.000000 0.000000 0.000000 
0.000000 0.000000 0.000000 

-0.000000 0.000000 0.000000 
0.000000 0.000000 0.000000 
0.000000 0.000000 0.000000 

-0.000000 0.000000 0.000000 
0.000000 0.000000 0.000000 
0.000000 0.000000 0.000000 

-0.000000 -0.000000 0.000000 
0.000000 -0.000000 0.000000 
0.000000 0.000000 0.000000 

-0.000000 0.000000 0.000000 
0.000000 0.000000 0.000000 
0.000000 0.000000 0.000000 

-0.000000 -0.000000 0.000000 
0.000000 0.000000 0.000000 
0.000000 0.000000 0.000000 

0.000000 0.000000 0.000000 
0.000000 -0.000000 0.000000 
0.000000 0.000000 0.000000 

0.000000 0.000000 0.000000 
0.000000 -0.000000 0.000000 
0.000000 0.000000 0.000000 

0.000000 0.000000 0.000000 
0.000000 -0.000000 0.000000 
0.000000 0.000000 0.000000 

-0.000000 0.000000 0.000000 
0.000000 0.000000 0.000000 
0.000000 0.000000 0.000000 

-0.000000 -0.000000 0.000000 
0.000000 -0.000000 0.000000 
0.000000 0.000000 0.000000 

-0.000000 0.000000 0.000000 
0.000000 0.000000 0.000000 
0.000000 0.000000 0.000000 

-0.000000 0.000000 0.000000 
0.000000 -0.000000 0.000000 
0.000000 0.000000 0.000000 

