# vtk DataFile Version 3.0 
vtk output 
ASCII 
DATASET UNSTRUCTURED_GRID 
POINTS 175 float 
-0.026061 -0.156668 0.000000 
-0.106992 -0.088612 0.000000 
-0.054870 -0.096845 0.000000 
-0.028809 -0.050961 0.000000 
-0.186430 -0.024537 0.000000 
-0.137056 -0.027063 0.000000 
-0.114311 0.026584 0.000000 
-0.058186 0.010919 0.000000 
-0.029377 0.051096 0.000000 
-0.265318 0.038619 0.000000 
-0.217198 0.037819 0.000000 
-0.196633 0.095116 0.000000 
-0.143120 0.086407 0.000000 
-0.116563 0.133676 0.000000 
-0.058945 0.114030 0.000000 
-0.029568 0.152150 0.000000 
-0.344206 0.101775 0.000000 
-0.296791 0.101782 0.000000 
-0.278030 0.161725 0.000000 
-0.225992 0.155859 0.000000 
-0.201664 0.207976 0.000000 
-0.145749 0.194502 0.000000 
-0.117890 0.238844 0.000000 
-0.059328 0.216138 0.000000 
-0.029759 0.253204 0.000000 
-0.058559 -0.197418 0.000000 
-0.162226 -0.218261 0.000000 
-0.123292 -0.182643 0.000000 
-0.142917 -0.133660 0.000000 
-0.261851 -0.240417 0.000000 
-0.229092 -0.203390 0.000000 
-0.256854 -0.152159 0.000000 
-0.209613 -0.118046 0.000000 
-0.223062 -0.070472 0.000000 
-0.360414 -0.262718 0.000000 
-0.329787 -0.225595 0.000000 
-0.361761 -0.173793 0.000000 
-0.321587 -0.137384 0.000000 
-0.341985 -0.087150 0.000000 
-0.290702 -0.054351 0.000000 
-0.302189 -0.007616 0.000000 
-0.458977 -0.285018 0.000000 
-0.429420 -0.247943 0.000000 
-0.464588 -0.195901 0.000000 
-0.427556 -0.158874 0.000000 
-0.453135 -0.107359 0.000000 
-0.407738 -0.072044 0.000000 
-0.425037 -0.022616 0.000000 
-0.370772 0.009014 0.000000 
-0.381315 0.055241 0.000000 
-0.046960 -0.248234 0.000000 
-0.095301 -0.342279 0.000000 
-0.098873 -0.289632 0.000000 
-0.149405 -0.274435 0.000000 
-0.140093 -0.433983 0.000000 
-0.148617 -0.385285 0.000000 
-0.205981 -0.375048 0.000000 
-0.203197 -0.316845 0.000000 
-0.248777 -0.297698 0.000000 
-0.184111 -0.524947 0.000000 
-0.194039 -0.477856 0.000000 
-0.254475 -0.470556 0.000000 
-0.257893 -0.416447 0.000000 
-0.309886 -0.401074 0.000000 
-0.303554 -0.340529 0.000000 
-0.347255 -0.320371 0.000000 
-0.228129 -0.615911 0.000000 
-0.238687 -0.569686 0.000000 
-0.301302 -0.564734 0.000000 
-0.307162 -0.512695 0.000000 
-0.363386 -0.500575 0.000000 
-0.362692 -0.443063 0.000000 
-0.412122 -0.425770 0.000000 
-0.403017 -0.363623 0.000000 
-0.445733 -0.343044 0.000000 
-0.000000 -0.270849 0.000000 
0.043388 -0.367279 0.000000 
-0.000000 -0.337247 0.000000 
-0.043388 -0.367279 0.000000 
0.087158 -0.459476 0.000000 
0.043769 -0.435777 0.000000 
-0.000000 -0.474243 0.000000 
-0.043769 -0.435777 0.000000 
-0.087158 -0.459476 0.000000 
0.130831 -0.550605 0.000000 
0.087824 -0.529007 0.000000 
0.044436 -0.571706 0.000000 
-0.000000 -0.540641 0.000000 
-0.044436 -0.571706 0.000000 
-0.087824 -0.529007 0.000000 
-0.130831 -0.550605 0.000000 
0.174505 -0.641735 0.000000 
0.131782 -0.621169 0.000000 
0.088871 -0.667036 0.000000 
0.044532 -0.639172 0.000000 
-0.000000 -0.675572 0.000000 
-0.044532 -0.639172 0.000000 
-0.088871 -0.667036 0.000000 
-0.131782 -0.621169 0.000000 
-0.174505 -0.641735 0.000000 
0.046960 -0.248234 0.000000 
0.149405 -0.274435 0.000000 
0.098873 -0.289632 0.000000 
0.095301 -0.342279 0.000000 
0.248777 -0.297698 0.000000 
0.203197 -0.316845 0.000000 
0.205981 -0.375048 0.000000 
0.148617 -0.385285 0.000000 
0.140093 -0.433983 0.000000 
0.347255 -0.320371 0.000000 
0.303554 -0.340529 0.000000 
0.309886 -0.401074 0.000000 
0.257893 -0.416447 0.000000 
0.254475 -0.470556 0.000000 
0.194039 -0.477856 0.000000 
0.184111 -0.524947 0.000000 
0.445733 -0.343044 0.000000 
0.403017 -0.363623 0.000000 
0.412122 -0.425770 0.000000 
0.362692 -0.443063 0.000000 
0.363386 -0.500575 0.000000 
0.307162 -0.512695 0.000000 
0.301302 -0.564734 0.000000 
0.238687 -0.569686 0.000000 
0.228129 -0.615911 0.000000 
0.058559 -0.197418 0.000000 
0.142917 -0.133660 0.000000 
0.123292 -0.182643 0.000000 
0.162226 -0.218261 0.000000 
0.223062 -0.070472 0.000000 
0.209613 -0.118046 0.000000 
0.256854 -0.152159 0.000000 
0.229092 -0.203390 0.000000 
0.261851 -0.240417 0.000000 
0.302189 -0.007616 0.000000 
0.290702 -0.054351 0.000000 
0.341985 -0.087150 0.000000 
0.321587 -0.137384 0.000000 
0.361761 -0.173793 0.000000 
0.329787 -0.225595 0.000000 
0.360414 -0.262718 0.000000 
0.381315 0.055241 0.000000 
0.370772 0.009014 0.000000 
0.425037 -0.022616 0.000000 
0.407738 -0.072044 0.000000 
0.453135 -0.107359 0.000000 
0.427556 -0.158874 0.000000 
0.464588 -0.195901 0.000000 
0.429420 -0.247943 0.000000 
0.458977 -0.285018 0.000000 
0.026061 -0.156668 0.000000 
0.028809 -0.050961 0.000000 
0.054870 -0.096845 0.000000 
0.106992 -0.088612 0.000000 
0.029377 0.051096 0.000000 
0.058186 0.010919 0.000000 
0.114311 0.026584 0.000000 
0.137056 -0.027063 0.000000 
0.186430 -0.024537 0.000000 
0.029568 0.152150 0.000000 
0.058945 0.114030 0.000000 
0.116563 0.133676 0.000000 
0.143120 0.086407 0.000000 
0.196633 0.095116 0.000000 
0.217198 0.037819 0.000000 
0.265318 0.038619 0.000000 
0.029759 0.253204 0.000000 
0.059328 0.216138 0.000000 
0.117890 0.238844 0.000000 
0.145749 0.194502 0.000000 
0.201664 0.207976 0.000000 
0.225992 0.155859 0.000000 
0.278030 0.161725 0.000000 
0.296791 0.101782 0.000000 
0.344206 0.101775 0.000000 
CELLS 175 350 
1 0 
1 1 
1 2 
1 3 
1 4 
1 5 
1 6 
1 7 
1 8 
1 9 
1 10 
1 11 
1 12 
1 13 
1 14 
1 15 
1 16 
1 17 
1 18 
1 19 
1 20 
1 21 
1 22 
1 23 
1 24 
1 25 
1 26 
1 27 
1 28 
1 29 
1 30 
1 31 
1 32 
1 33 
1 34 
1 35 
1 36 
1 37 
1 38 
1 39 
1 40 
1 41 
1 42 
1 43 
1 44 
1 45 
1 46 
1 47 
1 48 
1 49 
1 50 
1 51 
1 52 
1 53 
1 54 
1 55 
1 56 
1 57 
1 58 
1 59 
1 60 
1 61 
1 62 
1 63 
1 64 
1 65 
1 66 
1 67 
1 68 
1 69 
1 70 
1 71 
1 72 
1 73 
1 74 
1 75 
1 76 
1 77 
1 78 
1 79 
1 80 
1 81 
1 82 
1 83 
1 84 
1 85 
1 86 
1 87 
1 88 
1 89 
1 90 
1 91 
1 92 
1 93 
1 94 
1 95 
1 96 
1 97 
1 98 
1 99 
1 100 
1 101 
1 102 
1 103 
1 104 
1 105 
1 106 
1 107 
1 108 
1 109 
1 110 
1 111 
1 112 
1 113 
1 114 
1 115 
1 116 
1 117 
1 118 
1 119 
1 120 
1 121 
1 122 
1 123 
1 124 
1 125 
1 126 
1 127 
1 128 
1 129 
1 130 
1 131 
1 132 
1 133 
1 134 
1 135 
1 136 
1 137 
1 138 
1 139 
1 140 
1 141 
1 142 
1 143 
1 144 
1 145 
1 146 
1 147 
1 148 
1 149 
1 150 
1 151 
1 152 
1 153 
1 154 
1 155 
1 156 
1 157 
1 158 
1 159 
1 160 
1 161 
1 162 
1 163 
1 164 
1 165 
1 166 
1 167 
1 168 
1 169 
1 170 
1 171 
1 172 
1 173 
1 174 
CELL_TYPES 175 
1 
1 
1 
1 
1 
1 
1 
1 
1 
1 
1 
1 
1 
1 
1 
1 
1 
1 
1 
1 
1 
1 
1 
1 
1 
1 
1 
1 
1 
1 
1 
1 
1 
1 
1 
1 
1 
1 
1 
1 
1 
1 
1 
1 
1 
1 
1 
1 
1 
1 
1 
1 
1 
1 
1 
1 
1 
1 
1 
1 
1 
1 
1 
1 
1 
1 
1 
1 
1 
1 
1 
1 
1 
1 
1 
1 
1 
1 
1 
1 
1 
1 
1 
1 
1 
1 
1 
1 
1 
1 
1 
1 
1 
1 
1 
1 
1 
1 
1 
1 
1 
1 
1 
1 
1 
1 
1 
1 
1 
1 
1 
1 
1 
1 
1 
1 
1 
1 
1 
1 
1 
1 
1 
1 
1 
1 
1 
1 
1 
1 
1 
1 
1 
1 
1 
1 
1 
1 
1 
1 
1 
1 
1 
1 
1 
1 
1 
1 
1 
1 
1 
1 
1 
1 
1 
1 
1 
1 
1 
1 
1 
1 
1 
1 
1 
1 
1 
1 
1 
1 
1 
1 
1 
1 
1 
POINT_DATA 175 
VECTORS X_GC float 
-0.026061 -0.156668 0.000000 
-0.106992 -0.088612 0.000000 
-0.054870 -0.096845 0.000000 
-0.028809 -0.050961 0.000000 
-0.186430 -0.024537 0.000000 
-0.137056 -0.027063 0.000000 
-0.114311 0.026584 0.000000 
-0.058186 0.010919 0.000000 
-0.029377 0.051096 0.000000 
-0.265318 0.038619 0.000000 
-0.217198 0.037819 0.000000 
-0.196633 0.095116 0.000000 
-0.143120 0.086407 0.000000 
-0.116563 0.133676 0.000000 
-0.058945 0.114030 0.000000 
-0.029568 0.152150 0.000000 
-0.344206 0.101775 0.000000 
-0.296791 0.101782 0.000000 
-0.278030 0.161725 0.000000 
-0.225992 0.155859 0.000000 
-0.201664 0.207976 0.000000 
-0.145749 0.194502 0.000000 
-0.117890 0.238844 0.000000 
-0.059328 0.216138 0.000000 
-0.029759 0.253204 0.000000 
-0.058559 -0.197418 0.000000 
-0.162226 -0.218261 0.000000 
-0.123292 -0.182643 0.000000 
-0.142917 -0.133660 0.000000 
-0.261851 -0.240417 0.000000 
-0.229092 -0.203390 0.000000 
-0.256854 -0.152159 0.000000 
-0.209613 -0.118046 0.000000 
-0.223062 -0.070472 0.000000 
-0.360414 -0.262718 0.000000 
-0.329787 -0.225595 0.000000 
-0.361761 -0.173793 0.000000 
-0.321587 -0.137384 0.000000 
-0.341985 -0.087150 0.000000 
-0.290702 -0.054351 0.000000 
-0.302189 -0.007616 0.000000 
-0.458977 -0.285018 0.000000 
-0.429420 -0.247943 0.000000 
-0.464588 -0.195901 0.000000 
-0.427556 -0.158874 0.000000 
-0.453135 -0.107359 0.000000 
-0.407738 -0.072044 0.000000 
-0.425037 -0.022616 0.000000 
-0.370772 0.009014 0.000000 
-0.381315 0.055241 0.000000 
-0.046960 -0.248234 0.000000 
-0.095301 -0.342279 0.000000 
-0.098873 -0.289632 0.000000 
-0.149405 -0.274435 0.000000 
-0.140093 -0.433983 0.000000 
-0.148617 -0.385285 0.000000 
-0.205981 -0.375048 0.000000 
-0.203197 -0.316845 0.000000 
-0.248777 -0.297698 0.000000 
-0.184111 -0.524947 0.000000 
-0.194039 -0.477856 0.000000 
-0.254475 -0.470556 0.000000 
-0.257893 -0.416447 0.000000 
-0.309886 -0.401074 0.000000 
-0.303554 -0.340529 0.000000 
-0.347255 -0.320371 0.000000 
-0.228129 -0.615911 0.000000 
-0.238687 -0.569686 0.000000 
-0.301302 -0.564734 0.000000 
-0.307162 -0.512695 0.000000 
-0.363386 -0.500575 0.000000 
-0.362692 -0.443063 0.000000 
-0.412122 -0.425770 0.000000 
-0.403017 -0.363623 0.000000 
-0.445733 -0.343044 0.000000 
-0.000000 -0.270849 0.000000 
0.043388 -0.367279 0.000000 
-0.000000 -0.337247 0.000000 
-0.043388 -0.367279 0.000000 
0.087158 -0.459476 0.000000 
0.043769 -0.435777 0.000000 
-0.000000 -0.474243 0.000000 
-0.043769 -0.435777 0.000000 
-0.087158 -0.459476 0.000000 
0.130831 -0.550605 0.000000 
0.087824 -0.529007 0.000000 
0.044436 -0.571706 0.000000 
-0.000000 -0.540641 0.000000 
-0.044436 -0.571706 0.000000 
-0.087824 -0.529007 0.000000 
-0.130831 -0.550605 0.000000 
0.174505 -0.641735 0.000000 
0.131782 -0.621169 0.000000 
0.088871 -0.667036 0.000000 
0.044532 -0.639172 0.000000 
-0.000000 -0.675572 0.000000 
-0.044532 -0.639172 0.000000 
-0.088871 -0.667036 0.000000 
-0.131782 -0.621169 0.000000 
-0.174505 -0.641735 0.000000 
0.046960 -0.248234 0.000000 
0.149405 -0.274435 0.000000 
0.098873 -0.289632 0.000000 
0.095301 -0.342279 0.000000 
0.248777 -0.297698 0.000000 
0.203197 -0.316845 0.000000 
0.205981 -0.375048 0.000000 
0.148617 -0.385285 0.000000 
0.140093 -0.433983 0.000000 
0.347255 -0.320371 0.000000 
0.303554 -0.340529 0.000000 
0.309886 -0.401074 0.000000 
0.257893 -0.416447 0.000000 
0.254475 -0.470556 0.000000 
0.194039 -0.477856 0.000000 
0.184111 -0.524947 0.000000 
0.445733 -0.343044 0.000000 
0.403017 -0.363623 0.000000 
0.412122 -0.425770 0.000000 
0.362692 -0.443063 0.000000 
0.363386 -0.500575 0.000000 
0.307162 -0.512695 0.000000 
0.301302 -0.564734 0.000000 
0.238687 -0.569686 0.000000 
0.228129 -0.615911 0.000000 
0.058559 -0.197418 0.000000 
0.142917 -0.133660 0.000000 
0.123292 -0.182643 0.000000 
0.162226 -0.218261 0.000000 
0.223062 -0.070472 0.000000 
0.209613 -0.118046 0.000000 
0.256854 -0.152159 0.000000 
0.229092 -0.203390 0.000000 
0.261851 -0.240417 0.000000 
0.302189 -0.007616 0.000000 
0.290702 -0.054351 0.000000 
0.341985 -0.087150 0.000000 
0.321587 -0.137384 0.000000 
0.361761 -0.173793 0.000000 
0.329787 -0.225595 0.000000 
0.360414 -0.262718 0.000000 
0.381315 0.055241 0.000000 
0.370772 0.009014 0.000000 
0.425037 -0.022616 0.000000 
0.407738 -0.072044 0.000000 
0.453135 -0.107359 0.000000 
0.427556 -0.158874 0.000000 
0.464588 -0.195901 0.000000 
0.429420 -0.247943 0.000000 
0.458977 -0.285018 0.000000 
0.026061 -0.156668 0.000000 
0.028809 -0.050961 0.000000 
0.054870 -0.096845 0.000000 
0.106992 -0.088612 0.000000 
0.029377 0.051096 0.000000 
0.058186 0.010919 0.000000 
0.114311 0.026584 0.000000 
0.137056 -0.027063 0.000000 
0.186430 -0.024537 0.000000 
0.029568 0.152150 0.000000 
0.058945 0.114030 0.000000 
0.116563 0.133676 0.000000 
0.143120 0.086407 0.000000 
0.196633 0.095116 0.000000 
0.217198 0.037819 0.000000 
0.265318 0.038619 0.000000 
0.029759 0.253204 0.000000 
0.059328 0.216138 0.000000 
0.117890 0.238844 0.000000 
0.145749 0.194502 0.000000 
0.201664 0.207976 0.000000 
0.225992 0.155859 0.000000 
0.278030 0.161725 0.000000 
0.296791 0.101782 0.000000 
0.344206 0.101775 0.000000 
VECTORS X_EC float 
0.338794 0.615013 0.000000 
-0.609100 -0.303736 0.000000 
0.713312 -0.192595 0.000000 
0.374519 -0.812024 0.000000 
0.423588 0.831245 0.000000 
-0.218274 0.865349 0.000000 
-0.513962 0.141110 0.000000 
0.756418 0.352596 0.000000 
0.381900 -0.189797 0.000000 
-0.550868 -0.021358 0.000000 
0.823577 -0.010563 0.000000 
0.556234 -0.784067 0.000000 
-0.139443 -0.666498 0.000000 
-0.484677 0.695378 0.000000 
0.766286 0.960593 0.000000 
0.384386 0.445973 0.000000 
0.474677 -0.873961 0.000000 
-0.141715 -0.874058 0.000000 
-0.385608 0.316714 0.000000 
0.937896 0.395910 0.000000 
0.621631 -0.307670 0.000000 
-0.105264 -0.125771 0.000000 
-0.467428 -0.724398 0.000000 
0.771260 -0.417869 0.000000 
0.386873 -0.918258 0.000000 
0.761262 -0.834853 0.000000 
0.108942 -0.553476 0.000000 
-0.397202 0.965685 0.000000 
-0.142083 0.304409 0.000000 
-0.595936 -0.254365 0.000000 
0.978194 -0.754231 0.000000 
-0.660903 0.554144 0.000000 
0.724964 0.093624 0.000000 
0.899809 -0.548625 0.000000 
0.685384 0.046687 0.000000 
0.287229 -0.454472 0.000000 
0.702895 0.846200 0.000000 
0.180633 0.354681 0.000000 
0.445811 -0.323479 0.000000 
-0.220880 -0.766265 0.000000 
-0.071546 0.602810 0.000000 
-0.033296 0.347739 0.000000 
-0.417537 -0.152771 0.000000 
0.039645 -0.855333 0.000000 
-0.441768 0.644796 0.000000 
-0.109248 -0.050655 0.000000 
-0.699407 -0.527411 0.000000 
-0.474522 0.805310 0.000000 
0.820030 0.378317 0.000000 
0.957100 -0.245755 0.000000 
0.610485 -0.148846 0.000000 
-0.761092 -0.879227 0.000000 
-0.714655 0.410035 0.000000 
-0.057734 0.204868 0.000000 
-0.178789 0.358777 0.000000 
-0.067979 -0.298649 0.000000 
0.677748 -0.436852 0.000000 
0.641556 0.777402 0.000000 
-0.765897 0.518924 0.000000 
0.393446 -0.413214 0.000000 
0.522510 0.951056 0.000000 
-0.691820 0.852512 0.000000 
-0.647393 0.122029 0.000000 
0.028512 -0.085497 0.000000 
-0.053800 -0.902858 0.000000 
0.514316 0.825012 0.000000 
0.965681 0.814795 0.000000 
-0.897068 0.190766 0.000000 
-0.083078 0.123913 0.000000 
-0.006893 -0.578611 0.000000 
0.724017 -0.742244 0.000000 
0.714996 0.481352 0.000000 
-0.642413 0.247895 0.000000 
-0.760780 -0.591085 0.000000 
-0.205471 -0.868901 0.000000 
0.000000 0.156455 0.000000 
-0.564049 -0.541732 0.000000 
0.000000 -0.947168 0.000000 
0.564049 -0.541732 0.000000 
0.866949 0.702923 0.000000 
-0.569003 0.382992 0.000000 
0.000000 0.902280 0.000000 
0.569003 0.382992 0.000000 
-0.866949 0.702923 0.000000 
0.299194 -0.066827 0.000000 
0.858290 -0.358410 0.000000 
-0.577662 0.218035 0.000000 
0.000000 -0.201343 0.000000 
0.577662 0.218035 0.000000 
-0.858290 -0.358410 0.000000 
-0.299194 -0.066827 0.000000 
-0.268560 -0.836576 0.000000 
0.286830 0.885782 0.000000 
0.844677 -0.495020 0.000000 
-0.578910 -0.871183 0.000000 
0.000000 -0.379779 0.000000 
0.578910 -0.871183 0.000000 
-0.844677 -0.495020 0.000000 
-0.286830 0.885782 0.000000 
0.268560 -0.836576 0.000000 
-0.610485 -0.148846 0.000000 
0.057734 0.204868 0.000000 
0.714655 0.410035 0.000000 
0.761092 -0.879227 0.000000 
0.765897 0.518924 0.000000 
-0.641556 0.777402 0.000000 
-0.677748 -0.436852 0.000000 
0.067979 -0.298649 0.000000 
0.178789 0.358777 0.000000 
-0.514316 0.825012 0.000000 
0.053800 -0.902858 0.000000 
-0.028512 -0.085497 0.000000 
0.647393 0.122029 0.000000 
0.691820 0.852512 0.000000 
-0.522510 0.951056 0.000000 
-0.393446 -0.413214 0.000000 
0.205471 -0.868901 0.000000 
0.760780 -0.591085 0.000000 
0.642413 0.247895 0.000000 
-0.714996 0.481352 0.000000 
-0.724017 -0.742244 0.000000 
0.006894 -0.578611 0.000000 
0.083078 0.123914 0.000000 
0.897068 0.190767 0.000000 
-0.965681 0.814795 0.000000 
-0.761262 -0.834853 0.000000 
0.142083 0.304409 0.000000 
0.397202 0.965685 0.000000 
-0.108942 -0.553476 0.000000 
-0.899809 -0.548625 0.000000 
-0.724964 0.093624 0.000000 
0.660903 0.554144 0.000000 
-0.978194 -0.754231 0.000000 
0.595936 -0.254365 0.000000 
0.071546 0.602810 0.000000 
0.220880 -0.766265 0.000000 
-0.445811 -0.323479 0.000000 
-0.180633 0.354681 0.000000 
-0.702895 0.846200 0.000000 
-0.287229 -0.454472 0.000000 
-0.685384 0.046687 0.000000 
-0.957100 -0.245755 0.000000 
-0.820030 0.378317 0.000000 
0.474522 0.805310 0.000000 
0.699407 -0.527411 0.000000 
0.109248 -0.050655 0.000000 
0.441768 0.644796 0.000000 
-0.039645 -0.855333 0.000000 
0.417537 -0.152771 0.000000 
0.033296 0.347739 0.000000 
-0.338794 0.615013 0.000000 
-0.374519 -0.812024 0.000000 
-0.713312 -0.192595 0.000000 
0.609100 -0.303736 0.000000 
-0.381900 -0.189797 0.000000 
-0.756418 0.352596 0.000000 
0.513962 0.141110 0.000000 
0.218274 0.865349 0.000000 
-0.423588 0.831245 0.000000 
-0.384386 0.445973 0.000000 
-0.766286 0.960593 0.000000 
0.484677 0.695378 0.000000 
0.139443 -0.666498 0.000000 
-0.556234 -0.784067 0.000000 
-0.823577 -0.010563 0.000000 
0.550868 -0.021358 0.000000 
-0.386873 -0.918258 0.000000 
-0.771260 -0.417869 0.000000 
0.467428 -0.724398 0.000000 
0.105264 -0.125771 0.000000 
-0.621631 -0.307670 0.000000 
-0.937896 0.395910 0.000000 
0.385608 0.316714 0.000000 
0.141715 -0.874058 0.000000 
-0.474677 -0.873961 0.000000 
CELL_DATA 175 
SCALARS MASS float 
LOOKUP_TABLE default 
0.781831 
0.864274 
0.946717 
0.864274 
0.881307 
0.921110 
0.858535 
0.921110 
0.881307 
0.887046 
0.910001 
0.869829 
0.915556 
0.869829 
0.910001 
0.887046 
0.892784 
0.915740 
0.892784 
0.927218 
0.892784 
0.927218 
0.892784 
0.915740 
0.892784 
0.781831 
0.864274 
0.946717 
0.864274 
0.881307 
0.921110 
0.858535 
0.921110 
0.881307 
0.887046 
0.910001 
0.869829 
0.915556 
0.869829 
0.910001 
0.887046 
0.892784 
0.915740 
0.892784 
0.927218 
0.892784 
0.927218 
0.892784 
0.915740 
0.892784 
0.781831 
0.864274 
0.946717 
0.864274 
0.881307 
0.921110 
0.858535 
0.921110 
0.881307 
0.887046 
0.910001 
0.869829 
0.915556 
0.869829 
0.910001 
0.887046 
0.892784 
0.915740 
0.892784 
0.927218 
0.892784 
0.927218 
0.892784 
0.915740 
0.892784 
0.781831 
0.864274 
0.946717 
0.864274 
0.881307 
0.921110 
0.858535 
0.921110 
0.881307 
0.887046 
0.910001 
0.869829 
0.915556 
0.869829 
0.910001 
0.887046 
0.892784 
0.915740 
0.892784 
0.927218 
0.892784 
0.927218 
0.892784 
0.915740 
0.892784 
0.781831 
0.864274 
0.946717 
0.864274 
0.881307 
0.921110 
0.858535 
0.921110 
0.881307 
0.887046 
0.910001 
0.869829 
0.915556 
0.869829 
0.910001 
0.887046 
0.892784 
0.915740 
0.892784 
0.927218 
0.892784 
0.927218 
0.892784 
0.915740 
0.892784 
0.781831 
0.864274 
0.946717 
0.864274 
0.881307 
0.921110 
0.858535 
0.921110 
0.881307 
0.887046 
0.910001 
0.869829 
0.915556 
0.869829 
0.910001 
0.887046 
0.892784 
0.915740 
0.892784 
0.927218 
0.892784 
0.927218 
0.892784 
0.915740 
0.892784 
0.781831 
0.864274 
0.946717 
0.864274 
0.881307 
0.921110 
0.858535 
0.921110 
0.881307 
0.887046 
0.910001 
0.869829 
0.915556 
0.869829 
0.910001 
0.887046 
0.892784 
0.915740 
0.892784 
0.927218 
0.892784 
0.927218 
0.892784 
0.915740 
0.892784 
SCALARS MASS float 
LOOKUP_TABLE default 
0.781831 
0.864274 
0.946717 
0.864274 
0.881307 
0.921110 
0.858535 
0.921110 
0.881307 
0.887046 
0.910001 
0.869829 
0.915556 
0.869829 
0.910001 
0.887046 
0.892784 
0.915740 
0.892784 
0.927218 
0.892784 
0.927218 
0.892784 
0.915740 
0.892784 
0.781831 
0.864274 
0.946717 
0.864274 
0.881307 
0.921110 
0.858535 
0.921110 
0.881307 
0.887046 
0.910001 
0.869829 
0.915556 
0.869829 
0.910001 
0.887046 
0.892784 
0.915740 
0.892784 
0.927218 
0.892784 
0.927218 
0.892784 
0.915740 
0.892784 
0.781831 
0.864274 
0.946717 
0.864274 
0.881307 
0.921110 
0.858535 
0.921110 
0.881307 
0.887046 
0.910001 
0.869829 
0.915556 
0.869829 
0.910001 
0.887046 
0.892784 
0.915740 
0.892784 
0.927218 
0.892784 
0.927218 
0.892784 
0.915740 
0.892784 
0.781831 
0.864274 
0.946717 
0.864274 
0.881307 
0.921110 
0.858535 
0.921110 
0.881307 
0.887046 
0.910001 
0.869829 
0.915556 
0.869829 
0.910001 
0.887046 
0.892784 
0.915740 
0.892784 
0.927218 
0.892784 
0.927218 
0.892784 
0.915740 
0.892784 
0.781831 
0.864274 
0.946717 
0.864274 
0.881307 
0.921110 
0.858535 
0.921110 
0.881307 
0.887046 
0.910001 
0.869829 
0.915556 
0.869829 
0.910001 
0.887046 
0.892784 
0.915740 
0.892784 
0.927218 
0.892784 
0.927218 
0.892784 
0.915740 
0.892784 
0.781831 
0.864274 
0.946717 
0.864274 
0.881307 
0.921110 
0.858535 
0.921110 
0.881307 
0.887046 
0.910001 
0.869829 
0.915556 
0.869829 
0.910001 
0.887046 
0.892784 
0.915740 
0.892784 
0.927218 
0.892784 
0.927218 
0.892784 
0.915740 
0.892784 
0.781831 
0.864274 
0.946717 
0.864274 
0.881307 
0.921110 
0.858535 
0.921110 
0.881307 
0.887046 
0.910001 
0.869829 
0.915556 
0.869829 
0.910001 
0.887046 
0.892784 
0.915740 
0.892784 
0.927218 
0.892784 
0.927218 
0.892784 
0.915740 
0.892784 
SCALARS DENSITY float 
LOOKUP_TABLE default 
200.000000 
200.000000 
200.000000 
200.000000 
200.000000 
200.000000 
200.000000 
200.000000 
200.000000 
200.000000 
200.000000 
200.000000 
200.000000 
200.000000 
200.000000 
200.000000 
200.000000 
200.000000 
200.000000 
200.000000 
200.000000 
200.000000 
200.000000 
200.000000 
200.000000 
200.000000 
200.000000 
200.000000 
200.000000 
200.000000 
200.000000 
200.000000 
200.000000 
200.000000 
200.000000 
200.000000 
200.000000 
200.000000 
200.000000 
200.000000 
200.000000 
200.000000 
200.000000 
200.000000 
200.000000 
200.000000 
200.000000 
200.000000 
200.000000 
200.000000 
200.000000 
200.000000 
200.000000 
200.000000 
200.000000 
200.000000 
200.000000 
200.000000 
200.000000 
200.000000 
200.000000 
200.000000 
200.000000 
200.000000 
200.000000 
200.000000 
200.000000 
200.000000 
200.000000 
200.000000 
200.000000 
200.000000 
200.000000 
200.000000 
200.000000 
200.000000 
200.000000 
200.000000 
200.000000 
200.000000 
200.000000 
200.000000 
200.000000 
200.000000 
200.000000 
200.000000 
200.000000 
200.000000 
200.000000 
200.000000 
200.000000 
200.000000 
200.000000 
200.000000 
200.000000 
200.000000 
200.000000 
200.000000 
200.000000 
200.000000 
200.000000 
200.000000 
200.000000 
200.000000 
200.000000 
200.000000 
200.000000 
200.000000 
200.000000 
200.000000 
200.000000 
200.000000 
200.000000 
200.000000 
200.000000 
200.000000 
200.000000 
200.000000 
200.000000 
200.000000 
200.000000 
200.000000 
200.000000 
200.000000 
200.000000 
200.000000 
200.000000 
200.000000 
200.000000 
200.000000 
200.000000 
200.000000 
200.000000 
200.000000 
200.000000 
200.000000 
200.000000 
200.000000 
200.000000 
200.000000 
200.000000 
200.000000 
200.000000 
200.000000 
200.000000 
200.000000 
200.000000 
200.000000 
200.000000 
200.000000 
200.000000 
200.000000 
200.000000 
200.000000 
200.000000 
200.000000 
200.000000 
200.000000 
200.000000 
200.000000 
200.000000 
200.000000 
200.000000 
200.000000 
200.000000 
200.000000 
200.000000 
200.000000 
200.000000 
200.000000 
200.000000 
200.000000 
200.000000 
200.000000 
200.000000 
SCALARS ELEM_i float 
LOOKUP_TABLE default 
181 
208 
181 
181 
209 
209 
209 
182 
182 
236 
209 
209 
209 
210 
183 
183 
236 
236 
237 
210 
210 
210 
210 
183 
183 
180 
207 
208 
208 
234 
207 
235 
208 
208 
234 
234 
235 
235 
235 
235 
236 
261 
261 
261 
262 
262 
262 
263 
236 
236 
180 
206 
207 
207 
206 
206 
206 
207 
234 
205 
206 
233 
233 
233 
233 
234 
205 
232 
232 
232 
232 
233 
260 
260 
260 
180 
179 
179 
179 
152 
179 
179 
179 
206 
151 
151 
178 
178 
178 
205 
205 
150 
151 
150 
177 
177 
177 
204 
205 
204 
180 
153 
153 
152 
126 
153 
152 
152 
152 
126 
125 
125 
125 
125 
152 
151 
98 
98 
98 
125 
124 
124 
124 
124 
151 
180 
154 
154 
153 
154 
154 
127 
153 
126 
128 
127 
127 
127 
127 
126 
126 
128 
128 
101 
100 
100 
100 
99 
99 
99 
181 
181 
181 
154 
182 
182 
155 
155 
155 
183 
183 
156 
155 
155 
155 
128 
183 
183 
156 
156 
156 
156 
129 
128 
128 
VECTORS VELOCITY float 
0.000000 -2.032632 0.000000 
-0.000000 -2.032632 0.000000 
-0.000000 -2.032632 0.000000 
-0.000000 -2.032632 0.000000 
-0.000000 -2.032632 0.000000 
-0.000000 -2.032632 0.000000 
-0.000000 -2.032632 0.000000 
-0.000000 -2.032632 0.000000 
-0.000000 -2.032632 0.000000 
-0.000000 -2.032632 0.000000 
-0.000000 -2.032632 0.000000 
0.000000 -2.032632 0.000000 
0.000000 -2.032632 0.000000 
0.000000 -2.032632 0.000000 
0.000000 -2.032632 0.000000 
-0.000000 -2.032632 0.000000 
0.000000 -2.032632 0.000000 
0.000000 -2.032632 0.000000 
-0.000000 -2.032632 0.000000 
0.000000 -2.032632 0.000000 
0.000000 -2.032632 0.000000 
0.000000 -2.032632 0.000000 
-0.000000 -2.032632 0.000000 
-0.000000 -2.032632 0.000000 
-0.000000 -2.032632 0.000000 
0.000000 -2.032632 0.000000 
-0.000000 -2.032632 0.000000 
0.000000 -2.032632 0.000000 
-0.000000 -2.032632 0.000000 
-0.000000 -2.032632 0.000000 
-0.000000 -2.032632 0.000000 
-0.000000 -2.032632 0.000000 
-0.000000 -2.032632 0.000000 
-0.000000 -2.032632 0.000000 
0.000000 -2.032632 0.000000 
0.000000 -2.032632 0.000000 
0.000000 -2.032632 0.000000 
0.000000 -2.032632 0.000000 
0.000000 -2.032632 0.000000 
0.000000 -2.032632 0.000000 
0.000000 -2.032632 0.000000 
-0.000000 -2.032632 0.000000 
0.000000 -2.032632 0.000000 
-0.000000 -2.032632 0.000000 
0.000000 -2.032632 0.000000 
0.000000 -2.032632 0.000000 
0.000000 -2.032632 0.000000 
-0.000000 -2.032632 0.000000 
0.000000 -2.032632 0.000000 
0.000000 -2.032632 0.000000 
0.000000 -2.032632 0.000000 
0.000000 -2.032632 0.000000 
0.000000 -2.032632 0.000000 
-0.000000 -2.032632 0.000000 
-0.000000 -2.032632 0.000000 
-0.000000 -2.032632 0.000000 
-0.000000 -2.032632 0.000000 
-0.000000 -2.032632 0.000000 
-0.000000 -2.032632 0.000000 
0.000000 -2.032632 0.000000 
0.000000 -2.032632 0.000000 
0.000000 -2.032632 0.000000 
0.000000 -2.032632 0.000000 
0.000000 -2.032632 0.000000 
0.000000 -2.032632 0.000000 
0.000000 -2.032632 0.000000 
0.000000 -2.032632 0.000000 
0.000000 -2.032632 0.000000 
-0.000000 -2.032632 0.000000 
0.000000 -2.032632 0.000000 
0.000000 -2.032632 0.000000 
0.000000 -2.032632 0.000000 
-0.000000 -2.032632 0.000000 
0.000000 -2.032632 0.000000 
-0.000000 -2.032632 0.000000 
0.000000 -2.032632 0.000000 
0.000000 -2.032632 0.000000 
0.000000 -2.032632 0.000000 
0.000000 -2.032632 0.000000 
0.000000 -2.032632 0.000000 
0.000000 -2.032632 0.000000 
-0.000000 -2.032632 0.000000 
-0.000000 -2.032632 0.000000 
-0.000000 -2.032632 0.000000 
-0.000000 -2.032632 0.000000 
-0.000000 -2.032632 0.000000 
-0.000000 -2.032632 0.000000 
-0.000000 -2.032632 0.000000 
-0.000000 -2.032632 0.000000 
-0.000000 -2.032632 0.000000 
0.000000 -2.032632 0.000000 
-0.000000 -2.032632 0.000000 
-0.000000 -2.032632 0.000000 
-0.000000 -2.032632 0.000000 
-0.000000 -2.032632 0.000000 
-0.000000 -2.032632 0.000000 
0.000000 -2.032632 0.000000 
-0.000000 -2.032632 0.000000 
0.000000 -2.032632 0.000000 
-0.000000 -2.032632 0.000000 
-0.000000 -2.032632 0.000000 
0.000000 -2.032632 0.000000 
-0.000000 -2.032632 0.000000 
0.000000 -2.032632 0.000000 
0.000000 -2.032632 0.000000 
0.000000 -2.032632 0.000000 
0.000000 -2.032632 0.000000 
0.000000 -2.032632 0.000000 
0.000000 -2.032632 0.000000 
-0.000000 -2.032632 0.000000 
-0.000000 -2.032632 0.000000 
-0.000000 -2.032632 0.000000 
-0.000000 -2.032632 0.000000 
-0.000000 -2.032632 0.000000 
-0.000000 -2.032632 0.000000 
0.000000 -2.032632 0.000000 
-0.000000 -2.032632 0.000000 
-0.000000 -2.032632 0.000000 
-0.000000 -2.032632 0.000000 
-0.000000 -2.032632 0.000000 
0.000000 -2.032632 0.000000 
0.000000 -2.032632 0.000000 
-0.000000 -2.032632 0.000000 
-0.000000 -2.032632 0.000000 
-0.000000 -2.032632 0.000000 
-0.000000 -2.032632 0.000000 
-0.000000 -2.032632 0.000000 
-0.000000 -2.032632 0.000000 
0.000000 -2.032632 0.000000 
-0.000000 -2.032632 0.000000 
-0.000000 -2.032632 0.000000 
0.000000 -2.032632 0.000000 
0.000000 -2.032632 0.000000 
0.000000 -2.032632 0.000000 
-0.000000 -2.032632 0.000000 
-0.000000 -2.032632 0.000000 
0.000000 -2.032632 0.000000 
0.000000 -2.032632 0.000000 
-0.000000 -2.032632 0.000000 
-0.000000 -2.032632 0.000000 
-0.000000 -2.032632 0.000000 
-0.000000 -2.032632 0.000000 
0.000000 -2.032632 0.000000 
-0.000000 -2.032632 0.000000 
0.000000 -2.032632 0.000000 
0.000000 -2.032632 0.000000 
-0.000000 -2.032632 0.000000 
-0.000000 -2.032632 0.000000 
-0.000000 -2.032632 0.000000 
0.000000 -2.032632 0.000000 
-0.000000 -2.032632 0.000000 
-0.000000 -2.032632 0.000000 
-0.000000 -2.032632 0.000000 
-0.000000 -2.032632 0.000000 
-0.000000 -2.032632 0.000000 
0.000000 -2.032632 0.000000 
0.000000 -2.032632 0.000000 
-0.000000 -2.032632 0.000000 
-0.000000 -2.032632 0.000000 
-0.000000 -2.032632 0.000000 
-0.000000 -2.032632 0.000000 
0.000000 -2.032632 0.000000 
0.000000 -2.032632 0.000000 
0.000000 -2.032632 0.000000 
0.000000 -2.032632 0.000000 
0.000000 -2.032632 0.000000 
0.000000 -2.032632 0.000000 
0.000000 -2.032632 0.000000 
0.000000 -2.032632 0.000000 
0.000000 -2.032632 0.000000 
0.000000 -2.032632 0.000000 
0.000000 -2.032632 0.000000 
-0.000000 -2.032632 0.000000 
0.000000 -2.032632 0.000000 
-0.000000 -2.032632 0.000000 
TENSORS STRESS float 
0.000000 -0.000000 0.000000 
0.000000 0.000000 0.000000 
0.000000 0.000000 0.000000 

-0.000000 0.000000 0.000000 
0.000000 -0.000000 0.000000 
0.000000 0.000000 0.000000 

0.000000 -0.000000 0.000000 
0.000000 0.000000 0.000000 
0.000000 0.000000 0.000000 

0.000000 -0.000000 0.000000 
0.000000 0.000000 0.000000 
0.000000 0.000000 0.000000 

-0.000000 -0.000000 0.000000 
0.000000 -0.000000 0.000000 
0.000000 0.000000 0.000000 

-0.000000 0.000000 0.000000 
0.000000 -0.000000 0.000000 
0.000000 0.000000 0.000000 

-0.000000 0.000000 0.000000 
0.000000 -0.000000 0.000000 
0.000000 0.000000 0.000000 

0.000000 -0.000000 0.000000 
0.000000 0.000000 0.000000 
0.000000 0.000000 0.000000 

-0.000000 -0.000000 0.000000 
0.000000 -0.000000 0.000000 
0.000000 0.000000 0.000000 

0.000000 -0.000000 0.000000 
0.000000 0.000000 0.000000 
0.000000 0.000000 0.000000 

-0.000000 -0.000000 0.000000 
0.000000 -0.000000 0.000000 
0.000000 0.000000 0.000000 

-0.000000 -0.000000 0.000000 
0.000000 -0.000000 0.000000 
0.000000 0.000000 0.000000 

-0.000000 0.000000 0.000000 
0.000000 -0.000000 0.000000 
0.000000 0.000000 0.000000 

0.000000 0.000000 0.000000 
0.000000 0.000000 0.000000 
0.000000 0.000000 0.000000 

-0.000000 -0.000000 0.000000 
0.000000 -0.000000 0.000000 
0.000000 0.000000 0.000000 

-0.000000 -0.000000 0.000000 
0.000000 -0.000000 0.000000 
0.000000 0.000000 0.000000 

-0.000000 -0.000000 0.000000 
0.000000 -0.000000 0.000000 
0.000000 0.000000 0.000000 

-0.000000 0.000000 0.000000 
0.000000 -0.000000 0.000000 
0.000000 0.000000 0.000000 

0.000000 0.000000 0.000000 
0.000000 0.000000 0.000000 
0.000000 0.000000 0.000000 

0.000000 -0.000000 0.000000 
0.000000 0.000000 0.000000 
0.000000 0.000000 0.000000 

-0.000000 -0.000000 0.000000 
0.000000 -0.000000 0.000000 
0.000000 0.000000 0.000000 

0.000000 0.000000 0.000000 
0.000000 0.000000 0.000000 
0.000000 0.000000 0.000000 

0.000000 -0.000000 0.000000 
0.000000 0.000000 0.000000 
0.000000 0.000000 0.000000 

0.000000 -0.000000 0.000000 
0.000000 0.000000 0.000000 
0.000000 0.000000 0.000000 

0.000000 -0.000000 0.000000 
0.000000 0.000000 0.000000 
0.000000 0.000000 0.000000 

-0.000000 -0.000000 0.000000 
0.000000 -0.000000 0.000000 
0.000000 0.000000 0.000000 

-0.000000 -0.000000 0.000000 
0.000000 -0.000000 0.000000 
0.000000 0.000000 0.000000 

0.000000 -0.000000 0.000000 
0.000000 0.000000 0.000000 
0.000000 0.000000 0.000000 

0.000000 -0.000000 0.000000 
0.000000 0.000000 0.000000 
0.000000 0.000000 0.000000 

0.000000 0.000000 0.000000 
0.000000 0.000000 0.000000 
0.000000 0.000000 0.000000 

0.000000 -0.000000 0.000000 
0.000000 0.000000 0.000000 
0.000000 0.000000 0.000000 

0.000000 0.000000 0.000000 
0.000000 0.000000 0.000000 
0.000000 0.000000 0.000000 

-0.000000 -0.000000 0.000000 
0.000000 -0.000000 0.000000 
0.000000 0.000000 0.000000 

-0.000000 -0.000000 0.000000 
0.000000 -0.000000 0.000000 
0.000000 0.000000 0.000000 

-0.000000 -0.000000 0.000000 
0.000000 -0.000000 0.000000 
0.000000 0.000000 0.000000 

0.000000 0.000000 0.000000 
0.000000 0.000000 0.000000 
0.000000 0.000000 0.000000 

0.000000 0.000000 0.000000 
0.000000 0.000000 0.000000 
0.000000 0.000000 0.000000 

-0.000000 -0.000000 0.000000 
0.000000 -0.000000 0.000000 
0.000000 0.000000 0.000000 

-0.000000 0.000000 0.000000 
0.000000 -0.000000 0.000000 
0.000000 0.000000 0.000000 

0.000000 0.000000 0.000000 
0.000000 0.000000 0.000000 
0.000000 0.000000 0.000000 

0.000000 0.000000 0.000000 
0.000000 0.000000 0.000000 
0.000000 0.000000 0.000000 

-0.000000 0.000000 0.000000 
0.000000 -0.000000 0.000000 
0.000000 0.000000 0.000000 

-0.000000 0.000000 0.000000 
0.000000 -0.000000 0.000000 
0.000000 0.000000 0.000000 

-0.000000 0.000000 0.000000 
0.000000 -0.000000 0.000000 
0.000000 0.000000 0.000000 

-0.000000 0.000000 0.000000 
0.000000 -0.000000 0.000000 
0.000000 0.000000 0.000000 

0.000000 -0.000000 0.000000 
0.000000 0.000000 0.000000 
0.000000 0.000000 0.000000 

0.000000 -0.000000 0.000000 
0.000000 0.000000 0.000000 
0.000000 0.000000 0.000000 

-0.000000 0.000000 0.000000 
0.000000 -0.000000 0.000000 
0.000000 0.000000 0.000000 

0.000000 -0.000000 0.000000 
0.000000 0.000000 0.000000 
0.000000 0.000000 0.000000 

-0.000000 -0.000000 0.000000 
0.000000 -0.000000 0.000000 
0.000000 0.000000 0.000000 

0.000000 -0.000000 0.000000 
0.000000 0.000000 0.000000 
0.000000 0.000000 0.000000 

0.000000 0.000000 0.000000 
0.000000 0.000000 0.000000 
0.000000 0.000000 0.000000 

0.000000 -0.000000 0.000000 
0.000000 0.000000 0.000000 
0.000000 0.000000 0.000000 

0.000000 -0.000000 0.000000 
0.000000 0.000000 0.000000 
0.000000 0.000000 0.000000 

-0.000000 0.000000 0.000000 
0.000000 -0.000000 0.000000 
0.000000 0.000000 0.000000 

0.000000 0.000000 0.000000 
0.000000 0.000000 0.000000 
0.000000 0.000000 0.000000 

-0.000000 0.000000 0.000000 
0.000000 -0.000000 0.000000 
0.000000 0.000000 0.000000 

0.000000 -0.000000 0.000000 
0.000000 0.000000 0.000000 
0.000000 0.000000 0.000000 

0.000000 0.000000 0.000000 
0.000000 0.000000 0.000000 
0.000000 0.000000 0.000000 

0.000000 0.000000 0.000000 
0.000000 0.000000 0.000000 
0.000000 0.000000 0.000000 

-0.000000 -0.000000 0.000000 
0.000000 -0.000000 0.000000 
0.000000 0.000000 0.000000 

0.000000 0.000000 0.000000 
0.000000 0.000000 0.000000 
0.000000 0.000000 0.000000 

-0.000000 0.000000 0.000000 
0.000000 -0.000000 0.000000 
0.000000 0.000000 0.000000 

0.000000 0.000000 0.000000 
0.000000 0.000000 0.000000 
0.000000 0.000000 0.000000 

0.000000 -0.000000 0.000000 
0.000000 0.000000 0.000000 
0.000000 0.000000 0.000000 

-0.000000 -0.000000 0.000000 
0.000000 -0.000000 0.000000 
0.000000 0.000000 0.000000 

0.000000 0.000000 0.000000 
0.000000 0.000000 0.000000 
0.000000 0.000000 0.000000 

0.000000 0.000000 0.000000 
0.000000 0.000000 0.000000 
0.000000 0.000000 0.000000 

-0.000000 0.000000 0.000000 
0.000000 -0.000000 0.000000 
0.000000 0.000000 0.000000 

0.000000 0.000000 0.000000 
0.000000 0.000000 0.000000 
0.000000 0.000000 0.000000 

0.000000 0.000000 0.000000 
0.000000 0.000000 0.000000 
0.000000 0.000000 0.000000 

-0.000000 0.000000 0.000000 
0.000000 -0.000000 0.000000 
0.000000 0.000000 0.000000 

-0.000000 -0.000000 0.000000 
0.000000 -0.000000 0.000000 
0.000000 0.000000 0.000000 

0.000000 0.000000 0.000000 
0.000000 0.000000 0.000000 
0.000000 0.000000 0.000000 

0.000000 0.000000 0.000000 
0.000000 0.000000 0.000000 
0.000000 0.000000 0.000000 

-0.000000 -0.000000 0.000000 
0.000000 -0.000000 0.000000 
0.000000 0.000000 0.000000 

0.000000 -0.000000 0.000000 
0.000000 0.000000 0.000000 
0.000000 0.000000 0.000000 

-0.000000 -0.000000 0.000000 
0.000000 -0.000000 0.000000 
0.000000 0.000000 0.000000 

0.000000 -0.000000 0.000000 
0.000000 0.000000 0.000000 
0.000000 0.000000 0.000000 

0.000000 0.000000 0.000000 
0.000000 0.000000 0.000000 
0.000000 0.000000 0.000000 

0.000000 -0.000000 0.000000 
0.000000 0.000000 0.000000 
0.000000 0.000000 0.000000 

0.000000 -0.000000 0.000000 
0.000000 0.000000 0.000000 
0.000000 0.000000 0.000000 

0.000000 -0.000000 0.000000 
0.000000 0.000000 0.000000 
0.000000 0.000000 0.000000 

-0.000000 0.000000 0.000000 
0.000000 -0.000000 0.000000 
0.000000 0.000000 0.000000 

-0.000000 0.000000 0.000000 
0.000000 -0.000000 0.000000 
0.000000 0.000000 0.000000 

0.000000 -0.000000 0.000000 
0.000000 0.000000 0.000000 
0.000000 0.000000 0.000000 

0.000000 -0.000000 0.000000 
0.000000 0.000000 0.000000 
0.000000 0.000000 0.000000 

-0.000000 -0.000000 0.000000 
0.000000 0.000000 0.000000 
0.000000 0.000000 0.000000 

-0.000000 -0.000000 0.000000 
0.000000 -0.000000 0.000000 
0.000000 0.000000 0.000000 

0.000000 -0.000000 0.000000 
0.000000 0.000000 0.000000 
0.000000 0.000000 0.000000 

0.000000 0.000000 0.000000 
0.000000 0.000000 0.000000 
0.000000 0.000000 0.000000 

0.000000 0.000000 0.000000 
0.000000 0.000000 0.000000 
0.000000 0.000000 0.000000 

-0.000000 0.000000 0.000000 
0.000000 -0.000000 0.000000 
0.000000 0.000000 0.000000 

-0.000000 -0.000000 0.000000 
0.000000 -0.000000 0.000000 
0.000000 0.000000 0.000000 

0.000000 -0.000000 0.000000 
0.000000 0.000000 0.000000 
0.000000 0.000000 0.000000 

0.000000 -0.000000 0.000000 
0.000000 0.000000 0.000000 
0.000000 0.000000 0.000000 

0.000000 0.000000 0.000000 
0.000000 0.000000 0.000000 
0.000000 0.000000 0.000000 

0.000000 -0.000000 0.000000 
0.000000 0.000000 0.000000 
0.000000 0.000000 0.000000 

0.000000 -0.000000 0.000000 
0.000000 0.000000 0.000000 
0.000000 0.000000 0.000000 

-0.000000 -0.000000 0.000000 
0.000000 -0.000000 0.000000 
0.000000 0.000000 0.000000 

0.000000 -0.000000 0.000000 
0.000000 0.000000 0.000000 
0.000000 0.000000 0.000000 

0.000000 -0.000000 0.000000 
0.000000 0.000000 0.000000 
0.000000 0.000000 0.000000 

-0.000000 -0.000000 0.000000 
0.000000 -0.000000 0.000000 
0.000000 0.000000 0.000000 

0.000000 -0.000000 0.000000 
0.000000 0.000000 0.000000 
0.000000 0.000000 0.000000 

0.000000 -0.000000 0.000000 
0.000000 0.000000 0.000000 
0.000000 0.000000 0.000000 

0.000000 -0.000000 0.000000 
0.000000 0.000000 0.000000 
0.000000 0.000000 0.000000 

-0.000000 -0.000000 0.000000 
0.000000 -0.000000 0.000000 
0.000000 0.000000 0.000000 

-0.000000 -0.000000 0.000000 
0.000000 -0.000000 0.000000 
0.000000 0.000000 0.000000 

0.000000 -0.000000 0.000000 
0.000000 0.000000 0.000000 
0.000000 0.000000 0.000000 

-0.000000 -0.000000 0.000000 
0.000000 -0.000000 0.000000 
0.000000 0.000000 0.000000 

0.000000 0.000000 0.000000 
0.000000 0.000000 0.000000 
0.000000 0.000000 0.000000 

0.000000 -0.000000 0.000000 
0.000000 0.000000 0.000000 
0.000000 0.000000 0.000000 

-0.000000 -0.000000 0.000000 
0.000000 -0.000000 0.000000 
0.000000 0.000000 0.000000 

-0.000000 -0.000000 0.000000 
0.000000 -0.000000 0.000000 
0.000000 0.000000 0.000000 

-0.000000 -0.000000 0.000000 
0.000000 -0.000000 0.000000 
0.000000 0.000000 0.000000 

0.000000 0.000000 0.000000 
0.000000 0.000000 0.000000 
0.000000 0.000000 0.000000 

-0.000000 -0.000000 0.000000 
0.000000 0.000000 0.000000 
0.000000 0.000000 0.000000 

-0.000000 -0.000000 0.000000 
0.000000 -0.000000 0.000000 
0.000000 0.000000 0.000000 

-0.000000 -0.000000 0.000000 
0.000000 -0.000000 0.000000 
0.000000 0.000000 0.000000 

0.000000 0.000000 0.000000 
0.000000 0.000000 0.000000 
0.000000 0.000000 0.000000 

-0.000000 0.000000 0.000000 
0.000000 -0.000000 0.000000 
0.000000 0.000000 0.000000 

0.000000 0.000000 0.000000 
0.000000 0.000000 0.000000 
0.000000 0.000000 0.000000 

0.000000 -0.000000 0.000000 
0.000000 0.000000 0.000000 
0.000000 0.000000 0.000000 

-0.000000 -0.000000 0.000000 
0.000000 -0.000000 0.000000 
0.000000 0.000000 0.000000 

-0.000000 0.000000 0.000000 
0.000000 -0.000000 0.000000 
0.000000 0.000000 0.000000 

-0.000000 -0.000000 0.000000 
0.000000 -0.000000 0.000000 
0.000000 0.000000 0.000000 

0.000000 -0.000000 0.000000 
0.000000 0.000000 0.000000 
0.000000 0.000000 0.000000 

0.000000 -0.000000 0.000000 
0.000000 0.000000 0.000000 
0.000000 0.000000 0.000000 

-0.000000 -0.000000 0.000000 
0.000000 -0.000000 0.000000 
0.000000 0.000000 0.000000 

0.000000 0.000000 0.000000 
0.000000 0.000000 0.000000 
0.000000 0.000000 0.000000 

-0.000000 -0.000000 0.000000 
0.000000 -0.000000 0.000000 
0.000000 0.000000 0.000000 

-0.000000 -0.000000 0.000000 
0.000000 -0.000000 0.000000 
0.000000 0.000000 0.000000 

0.000000 -0.000000 0.000000 
0.000000 0.000000 0.000000 
0.000000 0.000000 0.000000 

-0.000000 -0.000000 0.000000 
0.000000 -0.000000 0.000000 
0.000000 0.000000 0.000000 

0.000000 -0.000000 0.000000 
0.000000 0.000000 0.000000 
0.000000 0.000000 0.000000 

-0.000000 -0.000000 0.000000 
0.000000 -0.000000 0.000000 
0.000000 0.000000 0.000000 

0.000000 0.000000 0.000000 
0.000000 0.000000 0.000000 
0.000000 0.000000 0.000000 

0.000000 -0.000000 0.000000 
0.000000 0.000000 0.000000 
0.000000 0.000000 0.000000 

0.000000 -0.000000 0.000000 
0.000000 0.000000 0.000000 
0.000000 0.000000 0.000000 

0.000000 -0.000000 0.000000 
0.000000 0.000000 0.000000 
0.000000 0.000000 0.000000 

0.000000 -0.000000 0.000000 
0.000000 0.000000 0.000000 
0.000000 0.000000 0.000000 

0.000000 -0.000000 0.000000 
0.000000 0.000000 0.000000 
0.000000 0.000000 0.000000 

-0.000000 0.000000 0.000000 
0.000000 -0.000000 0.000000 
0.000000 0.000000 0.000000 

0.000000 -0.000000 0.000000 
0.000000 0.000000 0.000000 
0.000000 0.000000 0.000000 

-0.000000 -0.000000 0.000000 
0.000000 -0.000000 0.000000 
0.000000 0.000000 0.000000 

-0.000000 0.000000 0.000000 
0.000000 -0.000000 0.000000 
0.000000 0.000000 0.000000 

0.000000 -0.000000 0.000000 
0.000000 0.000000 0.000000 
0.000000 0.000000 0.000000 

-0.000000 -0.000000 0.000000 
0.000000 -0.000000 0.000000 
0.000000 0.000000 0.000000 

-0.000000 -0.000000 0.000000 
0.000000 -0.000000 0.000000 
0.000000 0.000000 0.000000 

-0.000000 -0.000000 0.000000 
0.000000 -0.000000 0.000000 
0.000000 0.000000 0.000000 

0.000000 -0.000000 0.000000 
0.000000 0.000000 0.000000 
0.000000 0.000000 0.000000 

-0.000000 -0.000000 0.000000 
0.000000 -0.000000 0.000000 
0.000000 0.000000 0.000000 

0.000000 -0.000000 0.000000 
0.000000 0.000000 0.000000 
0.000000 0.000000 0.000000 

-0.000000 -0.000000 0.000000 
0.000000 -0.000000 0.000000 
0.000000 0.000000 0.000000 

-0.000000 -0.000000 0.000000 
0.000000 -0.000000 0.000000 
0.000000 0.000000 0.000000 

0.000000 -0.000000 0.000000 
0.000000 0.000000 0.000000 
0.000000 0.000000 0.000000 

-0.000000 0.000000 0.000000 
0.000000 -0.000000 0.000000 
0.000000 0.000000 0.000000 

-0.000000 -0.000000 0.000000 
0.000000 -0.000000 0.000000 
0.000000 0.000000 0.000000 

-0.000000 -0.000000 0.000000 
0.000000 -0.000000 0.000000 
0.000000 0.000000 0.000000 

-0.000000 0.000000 0.000000 
0.000000 -0.000000 0.000000 
0.000000 0.000000 0.000000 

-0.000000 0.000000 0.000000 
0.000000 -0.000000 0.000000 
0.000000 0.000000 0.000000 

0.000000 0.000000 0.000000 
0.000000 0.000000 0.000000 
0.000000 0.000000 0.000000 

-0.000000 -0.000000 0.000000 
0.000000 -0.000000 0.000000 
0.000000 0.000000 0.000000 

0.000000 0.000000 0.000000 
0.000000 0.000000 0.000000 
0.000000 0.000000 0.000000 

0.000000 -0.000000 0.000000 
0.000000 0.000000 0.000000 
0.000000 0.000000 0.000000 

0.000000 -0.000000 0.000000 
0.000000 0.000000 0.000000 
0.000000 0.000000 0.000000 

-0.000000 0.000000 0.000000 
0.000000 -0.000000 0.000000 
0.000000 0.000000 0.000000 

-0.000000 -0.000000 0.000000 
0.000000 -0.000000 0.000000 
0.000000 0.000000 0.000000 

-0.000000 -0.000000 0.000000 
0.000000 -0.000000 0.000000 
0.000000 0.000000 0.000000 

0.000000 0.000000 0.000000 
0.000000 0.000000 0.000000 
0.000000 0.000000 0.000000 

-0.000000 -0.000000 0.000000 
0.000000 -0.000000 0.000000 
0.000000 0.000000 0.000000 

-0.000000 0.000000 0.000000 
0.000000 -0.000000 0.000000 
0.000000 0.000000 0.000000 

-0.000000 -0.000000 0.000000 
0.000000 -0.000000 0.000000 
0.000000 0.000000 0.000000 

0.000000 -0.000000 0.000000 
0.000000 0.000000 0.000000 
0.000000 0.000000 0.000000 

-0.000000 -0.000000 0.000000 
0.000000 -0.000000 0.000000 
0.000000 0.000000 0.000000 

TENSORS STRAIN float 
0.000000 -0.000000 0.000000 
0.000000 0.000000 0.000000 
0.000000 0.000000 0.000000 

-0.000000 0.000000 0.000000 
0.000000 0.000000 0.000000 
0.000000 0.000000 0.000000 

0.000000 -0.000000 0.000000 
0.000000 -0.000000 0.000000 
0.000000 0.000000 0.000000 

0.000000 -0.000000 0.000000 
0.000000 0.000000 0.000000 
0.000000 0.000000 0.000000 

-0.000000 -0.000000 0.000000 
0.000000 0.000000 0.000000 
0.000000 0.000000 0.000000 

-0.000000 0.000000 0.000000 
0.000000 0.000000 0.000000 
0.000000 0.000000 0.000000 

-0.000000 0.000000 0.000000 
0.000000 0.000000 0.000000 
0.000000 0.000000 0.000000 

-0.000000 -0.000000 0.000000 
0.000000 0.000000 0.000000 
0.000000 0.000000 0.000000 

-0.000000 -0.000000 0.000000 
0.000000 -0.000000 0.000000 
0.000000 0.000000 0.000000 

0.000000 -0.000000 0.000000 
0.000000 -0.000000 0.000000 
0.000000 0.000000 0.000000 

0.000000 -0.000000 0.000000 
0.000000 -0.000000 0.000000 
0.000000 0.000000 0.000000 

0.000000 -0.000000 0.000000 
0.000000 -0.000000 0.000000 
0.000000 0.000000 0.000000 

0.000000 0.000000 0.000000 
0.000000 -0.000000 0.000000 
0.000000 0.000000 0.000000 

0.000000 0.000000 0.000000 
0.000000 0.000000 0.000000 
0.000000 0.000000 0.000000 

-0.000000 -0.000000 0.000000 
0.000000 -0.000000 0.000000 
0.000000 0.000000 0.000000 

-0.000000 -0.000000 0.000000 
0.000000 0.000000 0.000000 
0.000000 0.000000 0.000000 

0.000000 -0.000000 0.000000 
0.000000 -0.000000 0.000000 
0.000000 0.000000 0.000000 

0.000000 0.000000 0.000000 
0.000000 -0.000000 0.000000 
0.000000 0.000000 0.000000 

0.000000 0.000000 0.000000 
0.000000 -0.000000 0.000000 
0.000000 0.000000 0.000000 

0.000000 -0.000000 0.000000 
0.000000 -0.000000 0.000000 
0.000000 0.000000 0.000000 

0.000000 -0.000000 0.000000 
0.000000 -0.000000 0.000000 
0.000000 0.000000 0.000000 

0.000000 0.000000 0.000000 
0.000000 0.000000 0.000000 
0.000000 0.000000 0.000000 

0.000000 -0.000000 0.000000 
0.000000 0.000000 0.000000 
0.000000 0.000000 0.000000 

-0.000000 -0.000000 0.000000 
0.000000 0.000000 0.000000 
0.000000 0.000000 0.000000 

0.000000 -0.000000 0.000000 
0.000000 0.000000 0.000000 
0.000000 0.000000 0.000000 

0.000000 -0.000000 0.000000 
0.000000 -0.000000 0.000000 
0.000000 0.000000 0.000000 

-0.000000 -0.000000 0.000000 
0.000000 0.000000 0.000000 
0.000000 0.000000 0.000000 

-0.000000 -0.000000 0.000000 
0.000000 0.000000 0.000000 
0.000000 0.000000 0.000000 

-0.000000 -0.000000 0.000000 
0.000000 0.000000 0.000000 
0.000000 0.000000 0.000000 

-0.000000 0.000000 0.000000 
0.000000 0.000000 0.000000 
0.000000 0.000000 0.000000 

-0.000000 -0.000000 0.000000 
0.000000 0.000000 0.000000 
0.000000 0.000000 0.000000 

-0.000000 0.000000 0.000000 
0.000000 0.000000 0.000000 
0.000000 0.000000 0.000000 

-0.000000 -0.000000 0.000000 
0.000000 0.000000 0.000000 
0.000000 0.000000 0.000000 

-0.000000 -0.000000 0.000000 
0.000000 0.000000 0.000000 
0.000000 0.000000 0.000000 

-0.000000 -0.000000 0.000000 
0.000000 -0.000000 0.000000 
0.000000 0.000000 0.000000 

-0.000000 0.000000 0.000000 
0.000000 0.000000 0.000000 
0.000000 0.000000 0.000000 

-0.000000 0.000000 0.000000 
0.000000 0.000000 0.000000 
0.000000 0.000000 0.000000 

-0.000000 -0.000000 0.000000 
0.000000 -0.000000 0.000000 
0.000000 0.000000 0.000000 

0.000000 0.000000 0.000000 
0.000000 -0.000000 0.000000 
0.000000 0.000000 0.000000 

0.000000 0.000000 0.000000 
0.000000 0.000000 0.000000 
0.000000 0.000000 0.000000 

0.000000 0.000000 0.000000 
0.000000 0.000000 0.000000 
0.000000 0.000000 0.000000 

-0.000000 0.000000 0.000000 
0.000000 -0.000000 0.000000 
0.000000 0.000000 0.000000 

-0.000000 0.000000 0.000000 
0.000000 0.000000 0.000000 
0.000000 0.000000 0.000000 

-0.000000 0.000000 0.000000 
0.000000 0.000000 0.000000 
0.000000 0.000000 0.000000 

-0.000000 0.000000 0.000000 
0.000000 0.000000 0.000000 
0.000000 0.000000 0.000000 

-0.000000 -0.000000 0.000000 
0.000000 0.000000 0.000000 
0.000000 0.000000 0.000000 

-0.000000 -0.000000 0.000000 
0.000000 0.000000 0.000000 
0.000000 0.000000 0.000000 

0.000000 0.000000 0.000000 
0.000000 -0.000000 0.000000 
0.000000 0.000000 0.000000 

0.000000 -0.000000 0.000000 
0.000000 0.000000 0.000000 
0.000000 0.000000 0.000000 

0.000000 -0.000000 0.000000 
0.000000 -0.000000 0.000000 
0.000000 0.000000 0.000000 

-0.000000 -0.000000 0.000000 
0.000000 0.000000 0.000000 
0.000000 0.000000 0.000000 

-0.000000 0.000000 0.000000 
0.000000 0.000000 0.000000 
0.000000 0.000000 0.000000 

-0.000000 -0.000000 0.000000 
0.000000 0.000000 0.000000 
0.000000 0.000000 0.000000 

-0.000000 -0.000000 0.000000 
0.000000 0.000000 0.000000 
0.000000 0.000000 0.000000 

-0.000000 0.000000 0.000000 
0.000000 -0.000000 0.000000 
0.000000 0.000000 0.000000 

-0.000000 0.000000 0.000000 
0.000000 0.000000 0.000000 
0.000000 0.000000 0.000000 

-0.000000 0.000000 0.000000 
0.000000 -0.000000 0.000000 
0.000000 0.000000 0.000000 

-0.000000 -0.000000 0.000000 
0.000000 0.000000 0.000000 
0.000000 0.000000 0.000000 

-0.000000 0.000000 0.000000 
0.000000 0.000000 0.000000 
0.000000 0.000000 0.000000 

0.000000 0.000000 0.000000 
0.000000 0.000000 0.000000 
0.000000 0.000000 0.000000 

-0.000000 -0.000000 0.000000 
0.000000 0.000000 0.000000 
0.000000 0.000000 0.000000 

-0.000000 0.000000 0.000000 
0.000000 0.000000 0.000000 
0.000000 0.000000 0.000000 

-0.000000 0.000000 0.000000 
0.000000 -0.000000 0.000000 
0.000000 0.000000 0.000000 

-0.000000 0.000000 0.000000 
0.000000 0.000000 0.000000 
0.000000 0.000000 0.000000 

-0.000000 -0.000000 0.000000 
0.000000 0.000000 0.000000 
0.000000 0.000000 0.000000 

-0.000000 -0.000000 0.000000 
0.000000 0.000000 0.000000 
0.000000 0.000000 0.000000 

0.000000 0.000000 0.000000 
0.000000 -0.000000 0.000000 
0.000000 0.000000 0.000000 

0.000000 0.000000 0.000000 
0.000000 0.000000 0.000000 
0.000000 0.000000 0.000000 

0.000000 0.000000 0.000000 
0.000000 -0.000000 0.000000 
0.000000 0.000000 0.000000 

-0.000000 0.000000 0.000000 
0.000000 0.000000 0.000000 
0.000000 0.000000 0.000000 

-0.000000 0.000000 0.000000 
0.000000 0.000000 0.000000 
0.000000 0.000000 0.000000 

-0.000000 0.000000 0.000000 
0.000000 0.000000 0.000000 
0.000000 0.000000 0.000000 

-0.000000 -0.000000 0.000000 
0.000000 -0.000000 0.000000 
0.000000 0.000000 0.000000 

0.000000 0.000000 0.000000 
0.000000 -0.000000 0.000000 
0.000000 0.000000 0.000000 

0.000000 0.000000 0.000000 
0.000000 -0.000000 0.000000 
0.000000 0.000000 0.000000 

-0.000000 -0.000000 0.000000 
0.000000 -0.000000 0.000000 
0.000000 0.000000 0.000000 

-0.000000 -0.000000 0.000000 
0.000000 0.000000 0.000000 
0.000000 0.000000 0.000000 

-0.000000 -0.000000 0.000000 
0.000000 0.000000 0.000000 
0.000000 0.000000 0.000000 

-0.000000 -0.000000 0.000000 
0.000000 0.000000 0.000000 
0.000000 0.000000 0.000000 

-0.000000 0.000000 0.000000 
0.000000 0.000000 0.000000 
0.000000 0.000000 0.000000 

-0.000000 -0.000000 0.000000 
0.000000 0.000000 0.000000 
0.000000 0.000000 0.000000 

-0.000000 -0.000000 0.000000 
0.000000 0.000000 0.000000 
0.000000 0.000000 0.000000 

-0.000000 -0.000000 0.000000 
0.000000 0.000000 0.000000 
0.000000 0.000000 0.000000 

-0.000000 0.000000 0.000000 
0.000000 -0.000000 0.000000 
0.000000 0.000000 0.000000 

-0.000000 0.000000 0.000000 
0.000000 -0.000000 0.000000 
0.000000 0.000000 0.000000 

-0.000000 -0.000000 0.000000 
0.000000 0.000000 0.000000 
0.000000 0.000000 0.000000 

-0.000000 -0.000000 0.000000 
0.000000 0.000000 0.000000 
0.000000 0.000000 0.000000 

-0.000000 -0.000000 0.000000 
0.000000 0.000000 0.000000 
0.000000 0.000000 0.000000 

-0.000000 -0.000000 0.000000 
0.000000 0.000000 0.000000 
0.000000 0.000000 0.000000 

0.000000 -0.000000 0.000000 
0.000000 0.000000 0.000000 
0.000000 0.000000 0.000000 

0.000000 0.000000 0.000000 
0.000000 0.000000 0.000000 
0.000000 0.000000 0.000000 

-0.000000 0.000000 0.000000 
0.000000 0.000000 0.000000 
0.000000 0.000000 0.000000 

-0.000000 0.000000 0.000000 
0.000000 0.000000 0.000000 
0.000000 0.000000 0.000000 

-0.000000 -0.000000 0.000000 
0.000000 0.000000 0.000000 
0.000000 0.000000 0.000000 

-0.000000 -0.000000 0.000000 
0.000000 0.000000 0.000000 
0.000000 0.000000 0.000000 

-0.000000 -0.000000 0.000000 
0.000000 0.000000 0.000000 
0.000000 0.000000 0.000000 

-0.000000 0.000000 0.000000 
0.000000 0.000000 0.000000 
0.000000 0.000000 0.000000 

0.000000 -0.000000 0.000000 
0.000000 -0.000000 0.000000 
0.000000 0.000000 0.000000 

0.000000 -0.000000 0.000000 
0.000000 0.000000 0.000000 
0.000000 0.000000 0.000000 

0.000000 -0.000000 0.000000 
0.000000 -0.000000 0.000000 
0.000000 0.000000 0.000000 

-0.000000 -0.000000 0.000000 
0.000000 0.000000 0.000000 
0.000000 0.000000 0.000000 

-0.000000 -0.000000 0.000000 
0.000000 0.000000 0.000000 
0.000000 0.000000 0.000000 

-0.000000 -0.000000 0.000000 
0.000000 -0.000000 0.000000 
0.000000 0.000000 0.000000 

-0.000000 -0.000000 0.000000 
0.000000 0.000000 0.000000 
0.000000 0.000000 0.000000 

0.000000 -0.000000 0.000000 
0.000000 -0.000000 0.000000 
0.000000 0.000000 0.000000 

-0.000000 -0.000000 0.000000 
0.000000 0.000000 0.000000 
0.000000 0.000000 0.000000 

-0.000000 -0.000000 0.000000 
0.000000 0.000000 0.000000 
0.000000 0.000000 0.000000 

-0.000000 -0.000000 0.000000 
0.000000 -0.000000 0.000000 
0.000000 0.000000 0.000000 

-0.000000 -0.000000 0.000000 
0.000000 0.000000 0.000000 
0.000000 0.000000 0.000000 

0.000000 -0.000000 0.000000 
0.000000 -0.000000 0.000000 
0.000000 0.000000 0.000000 

0.000000 0.000000 0.000000 
0.000000 0.000000 0.000000 
0.000000 0.000000 0.000000 

0.000000 -0.000000 0.000000 
0.000000 -0.000000 0.000000 
0.000000 0.000000 0.000000 

0.000000 -0.000000 0.000000 
0.000000 -0.000000 0.000000 
0.000000 0.000000 0.000000 

-0.000000 -0.000000 0.000000 
0.000000 -0.000000 0.000000 
0.000000 0.000000 0.000000 

0.000000 -0.000000 0.000000 
0.000000 -0.000000 0.000000 
0.000000 0.000000 0.000000 

-0.000000 0.000000 0.000000 
0.000000 0.000000 0.000000 
0.000000 0.000000 0.000000 

-0.000000 -0.000000 0.000000 
0.000000 0.000000 0.000000 
0.000000 0.000000 0.000000 

-0.000000 -0.000000 0.000000 
0.000000 0.000000 0.000000 
0.000000 0.000000 0.000000 

-0.000000 -0.000000 0.000000 
0.000000 -0.000000 0.000000 
0.000000 0.000000 0.000000 

0.000000 0.000000 0.000000 
0.000000 0.000000 0.000000 
0.000000 0.000000 0.000000 

-0.000000 0.000000 0.000000 
0.000000 0.000000 0.000000 
0.000000 0.000000 0.000000 

-0.000000 0.000000 0.000000 
0.000000 0.000000 0.000000 
0.000000 0.000000 0.000000 

-0.000000 -0.000000 0.000000 
0.000000 0.000000 0.000000 
0.000000 0.000000 0.000000 

-0.000000 -0.000000 0.000000 
0.000000 0.000000 0.000000 
0.000000 0.000000 0.000000 

-0.000000 0.000000 0.000000 
0.000000 0.000000 0.000000 
0.000000 0.000000 0.000000 

0.000000 -0.000000 0.000000 
0.000000 -0.000000 0.000000 
0.000000 0.000000 0.000000 

-0.000000 -0.000000 0.000000 
0.000000 0.000000 0.000000 
0.000000 0.000000 0.000000 

-0.000000 -0.000000 0.000000 
0.000000 0.000000 0.000000 
0.000000 0.000000 0.000000 

-0.000000 -0.000000 0.000000 
0.000000 -0.000000 0.000000 
0.000000 0.000000 0.000000 

-0.000000 0.000000 0.000000 
0.000000 0.000000 0.000000 
0.000000 0.000000 0.000000 

-0.000000 -0.000000 0.000000 
0.000000 0.000000 0.000000 
0.000000 0.000000 0.000000 

-0.000000 -0.000000 0.000000 
0.000000 -0.000000 0.000000 
0.000000 0.000000 0.000000 

-0.000000 -0.000000 0.000000 
0.000000 0.000000 0.000000 
0.000000 0.000000 0.000000 

-0.000000 -0.000000 0.000000 
0.000000 -0.000000 0.000000 
0.000000 0.000000 0.000000 

-0.000000 -0.000000 0.000000 
0.000000 0.000000 0.000000 
0.000000 0.000000 0.000000 

-0.000000 -0.000000 0.000000 
0.000000 -0.000000 0.000000 
0.000000 0.000000 0.000000 

-0.000000 0.000000 0.000000 
0.000000 0.000000 0.000000 
0.000000 0.000000 0.000000 

-0.000000 -0.000000 0.000000 
0.000000 0.000000 0.000000 
0.000000 0.000000 0.000000 

-0.000000 -0.000000 0.000000 
0.000000 0.000000 0.000000 
0.000000 0.000000 0.000000 

-0.000000 -0.000000 0.000000 
0.000000 0.000000 0.000000 
0.000000 0.000000 0.000000 

0.000000 -0.000000 0.000000 
0.000000 0.000000 0.000000 
0.000000 0.000000 0.000000 

-0.000000 -0.000000 0.000000 
0.000000 0.000000 0.000000 
0.000000 0.000000 0.000000 

0.000000 0.000000 0.000000 
0.000000 -0.000000 0.000000 
0.000000 0.000000 0.000000 

-0.000000 -0.000000 0.000000 
0.000000 0.000000 0.000000 
0.000000 0.000000 0.000000 

0.000000 -0.000000 0.000000 
0.000000 -0.000000 0.000000 
0.000000 0.000000 0.000000 

0.000000 0.000000 0.000000 
0.000000 -0.000000 0.000000 
0.000000 0.000000 0.000000 

-0.000000 -0.000000 0.000000 
0.000000 0.000000 0.000000 
0.000000 0.000000 0.000000 

-0.000000 -0.000000 0.000000 
0.000000 0.000000 0.000000 
0.000000 0.000000 0.000000 

-0.000000 -0.000000 0.000000 
0.000000 0.000000 0.000000 
0.000000 0.000000 0.000000 

-0.000000 -0.000000 0.000000 
0.000000 -0.000000 0.000000 
0.000000 0.000000 0.000000 

0.000000 -0.000000 0.000000 
0.000000 -0.000000 0.000000 
0.000000 0.000000 0.000000 

0.000000 -0.000000 0.000000 
0.000000 -0.000000 0.000000 
0.000000 0.000000 0.000000 

0.000000 -0.000000 0.000000 
0.000000 -0.000000 0.000000 
0.000000 0.000000 0.000000 

-0.000000 -0.000000 0.000000 
0.000000 0.000000 0.000000 
0.000000 0.000000 0.000000 

-0.000000 -0.000000 0.000000 
0.000000 -0.000000 0.000000 
0.000000 0.000000 0.000000 

-0.000000 -0.000000 0.000000 
0.000000 0.000000 0.000000 
0.000000 0.000000 0.000000 

-0.000000 0.000000 0.000000 
0.000000 -0.000000 0.000000 
0.000000 0.000000 0.000000 

-0.000000 -0.000000 0.000000 
0.000000 0.000000 0.000000 
0.000000 0.000000 0.000000 

-0.000000 -0.000000 0.000000 
0.000000 -0.000000 0.000000 
0.000000 0.000000 0.000000 

-0.000000 0.000000 0.000000 
0.000000 0.000000 0.000000 
0.000000 0.000000 0.000000 

-0.000000 0.000000 0.000000 
0.000000 0.000000 0.000000 
0.000000 0.000000 0.000000 

-0.000000 0.000000 0.000000 
0.000000 0.000000 0.000000 
0.000000 0.000000 0.000000 

-0.000000 -0.000000 0.000000 
0.000000 0.000000 0.000000 
0.000000 0.000000 0.000000 

-0.000000 0.000000 0.000000 
0.000000 0.000000 0.000000 
0.000000 0.000000 0.000000 

-0.000000 -0.000000 0.000000 
0.000000 0.000000 0.000000 
0.000000 0.000000 0.000000 

-0.000000 -0.000000 0.000000 
0.000000 0.000000 0.000000 
0.000000 0.000000 0.000000 

0.000000 0.000000 0.000000 
0.000000 -0.000000 0.000000 
0.000000 0.000000 0.000000 

-0.000000 -0.000000 0.000000 
0.000000 -0.000000 0.000000 
0.000000 0.000000 0.000000 

-0.000000 -0.000000 0.000000 
0.000000 0.000000 0.000000 
0.000000 0.000000 0.000000 

0.000000 0.000000 0.000000 
0.000000 0.000000 0.000000 
0.000000 0.000000 0.000000 

0.000000 -0.000000 0.000000 
0.000000 -0.000000 0.000000 
0.000000 0.000000 0.000000 

-0.000000 0.000000 0.000000 
0.000000 0.000000 0.000000 
0.000000 0.000000 0.000000 

-0.000000 -0.000000 0.000000 
0.000000 0.000000 0.000000 
0.000000 0.000000 0.000000 

0.000000 -0.000000 0.000000 
0.000000 -0.000000 0.000000 
0.000000 0.000000 0.000000 

0.000000 -0.000000 0.000000 
0.000000 -0.000000 0.000000 
0.000000 0.000000 0.000000 

