# vtk DataFile Version 3.0 
vtk output 
ASCII 
DATASET UNSTRUCTURED_GRID 
POINTS 175 float 
-0.026061 -0.432577 0.000000 
-0.106992 -0.364522 0.000000 
-0.054870 -0.372755 0.000000 
-0.028809 -0.326871 0.000000 
-0.186430 -0.300446 0.000000 
-0.137056 -0.302973 0.000000 
-0.114311 -0.249325 0.000000 
-0.058186 -0.264991 0.000000 
-0.029377 -0.224814 0.000000 
-0.265318 -0.237291 0.000000 
-0.217198 -0.238090 0.000000 
-0.196633 -0.180794 0.000000 
-0.143120 -0.189503 0.000000 
-0.116563 -0.142234 0.000000 
-0.058945 -0.161880 0.000000 
-0.029568 -0.123760 0.000000 
-0.344206 -0.174135 0.000000 
-0.296791 -0.174128 0.000000 
-0.278030 -0.114185 0.000000 
-0.225992 -0.120051 0.000000 
-0.201664 -0.067934 0.000000 
-0.145749 -0.081408 0.000000 
-0.117890 -0.037066 0.000000 
-0.059328 -0.059771 0.000000 
-0.029759 -0.022705 0.000000 
-0.058559 -0.473328 0.000000 
-0.162226 -0.494171 0.000000 
-0.123292 -0.458553 0.000000 
-0.142917 -0.409570 0.000000 
-0.261851 -0.516327 0.000000 
-0.229092 -0.479300 0.000000 
-0.256854 -0.428069 0.000000 
-0.209613 -0.393956 0.000000 
-0.223062 -0.346382 0.000000 
-0.360414 -0.538627 0.000000 
-0.329787 -0.501504 0.000000 
-0.361761 -0.449702 0.000000 
-0.321587 -0.413294 0.000000 
-0.341985 -0.363060 0.000000 
-0.290702 -0.330261 0.000000 
-0.302189 -0.283525 0.000000 
-0.458977 -0.560927 0.000000 
-0.429420 -0.523853 0.000000 
-0.464588 -0.471811 0.000000 
-0.427556 -0.434784 0.000000 
-0.453135 -0.383269 0.000000 
-0.407738 -0.347953 0.000000 
-0.425037 -0.298525 0.000000 
-0.370772 -0.266896 0.000000 
-0.381315 -0.220669 0.000000 
-0.046960 -0.524143 0.000000 
-0.095301 -0.618189 0.000000 
-0.098873 -0.565542 0.000000 
-0.149405 -0.550344 0.000000 
-0.140093 -0.709893 0.000000 
-0.148617 -0.661195 0.000000 
-0.205981 -0.650958 0.000000 
-0.203197 -0.592754 0.000000 
-0.248777 -0.573608 0.000000 
-0.184111 -0.800857 0.000000 
-0.194039 -0.753766 0.000000 
-0.254475 -0.746466 0.000000 
-0.257893 -0.692356 0.000000 
-0.309886 -0.676984 0.000000 
-0.303554 -0.616439 0.000000 
-0.347255 -0.596281 0.000000 
-0.228129 -0.891821 0.000000 
-0.238687 -0.845596 0.000000 
-0.301302 -0.840644 0.000000 
-0.307162 -0.788605 0.000000 
-0.363386 -0.776484 0.000000 
-0.362692 -0.718973 0.000000 
-0.412122 -0.701680 0.000000 
-0.403017 -0.639533 0.000000 
-0.445733 -0.618954 0.000000 
-0.000000 -0.546758 0.000000 
0.043388 -0.643189 0.000000 
-0.000000 -0.613157 0.000000 
-0.043388 -0.643189 0.000000 
0.087158 -0.735386 0.000000 
0.043769 -0.711687 0.000000 
-0.000000 -0.750153 0.000000 
-0.043769 -0.711687 0.000000 
-0.087158 -0.735386 0.000000 
0.130831 -0.826515 0.000000 
0.087824 -0.804916 0.000000 
0.044436 -0.847616 0.000000 
-0.000000 -0.816551 0.000000 
-0.044436 -0.847616 0.000000 
-0.087824 -0.804916 0.000000 
-0.130831 -0.826515 0.000000 
0.174505 -0.917645 0.000000 
0.131782 -0.897079 0.000000 
0.088871 -0.942945 0.000000 
0.044532 -0.915081 0.000000 
-0.000000 -0.951482 0.000000 
-0.044532 -0.915081 0.000000 
-0.088871 -0.942945 0.000000 
-0.131782 -0.897079 0.000000 
-0.174505 -0.917645 0.000000 
0.046960 -0.524143 0.000000 
0.149405 -0.550344 0.000000 
0.098873 -0.565542 0.000000 
0.095301 -0.618189 0.000000 
0.248777 -0.573608 0.000000 
0.203197 -0.592754 0.000000 
0.205981 -0.650958 0.000000 
0.148617 -0.661195 0.000000 
0.140093 -0.709893 0.000000 
0.347255 -0.596281 0.000000 
0.303554 -0.616439 0.000000 
0.309886 -0.676984 0.000000 
0.257893 -0.692356 0.000000 
0.254475 -0.746466 0.000000 
0.194039 -0.753766 0.000000 
0.184111 -0.800857 0.000000 
0.445733 -0.618954 0.000000 
0.403017 -0.639533 0.000000 
0.412122 -0.701680 0.000000 
0.362692 -0.718973 0.000000 
0.363386 -0.776484 0.000000 
0.307162 -0.788605 0.000000 
0.301302 -0.840644 0.000000 
0.238687 -0.845596 0.000000 
0.228129 -0.891821 0.000000 
0.058559 -0.473328 0.000000 
0.142917 -0.409570 0.000000 
0.123292 -0.458553 0.000000 
0.162226 -0.494171 0.000000 
0.223062 -0.346382 0.000000 
0.209613 -0.393956 0.000000 
0.256854 -0.428069 0.000000 
0.229092 -0.479300 0.000000 
0.261851 -0.516327 0.000000 
0.302189 -0.283525 0.000000 
0.290702 -0.330261 0.000000 
0.341985 -0.363060 0.000000 
0.321587 -0.413294 0.000000 
0.361761 -0.449702 0.000000 
0.329787 -0.501504 0.000000 
0.360414 -0.538627 0.000000 
0.381315 -0.220669 0.000000 
0.370772 -0.266896 0.000000 
0.425037 -0.298525 0.000000 
0.407738 -0.347953 0.000000 
0.453135 -0.383269 0.000000 
0.427556 -0.434784 0.000000 
0.464588 -0.471811 0.000000 
0.429420 -0.523853 0.000000 
0.458977 -0.560927 0.000000 
0.026061 -0.432577 0.000000 
0.028809 -0.326871 0.000000 
0.054870 -0.372755 0.000000 
0.106992 -0.364522 0.000000 
0.029377 -0.224814 0.000000 
0.058186 -0.264991 0.000000 
0.114311 -0.249325 0.000000 
0.137056 -0.302973 0.000000 
0.186430 -0.300446 0.000000 
0.029568 -0.123760 0.000000 
0.058945 -0.161880 0.000000 
0.116563 -0.142234 0.000000 
0.143120 -0.189503 0.000000 
0.196633 -0.180794 0.000000 
0.217198 -0.238090 0.000000 
0.265318 -0.237291 0.000000 
0.029759 -0.022705 0.000000 
0.059328 -0.059771 0.000000 
0.117890 -0.037066 0.000000 
0.145749 -0.081408 0.000000 
0.201664 -0.067934 0.000000 
0.225992 -0.120051 0.000000 
0.278030 -0.114185 0.000000 
0.296791 -0.174128 0.000000 
0.344206 -0.174135 0.000000 
CELLS 175 350 
1 0 
1 1 
1 2 
1 3 
1 4 
1 5 
1 6 
1 7 
1 8 
1 9 
1 10 
1 11 
1 12 
1 13 
1 14 
1 15 
1 16 
1 17 
1 18 
1 19 
1 20 
1 21 
1 22 
1 23 
1 24 
1 25 
1 26 
1 27 
1 28 
1 29 
1 30 
1 31 
1 32 
1 33 
1 34 
1 35 
1 36 
1 37 
1 38 
1 39 
1 40 
1 41 
1 42 
1 43 
1 44 
1 45 
1 46 
1 47 
1 48 
1 49 
1 50 
1 51 
1 52 
1 53 
1 54 
1 55 
1 56 
1 57 
1 58 
1 59 
1 60 
1 61 
1 62 
1 63 
1 64 
1 65 
1 66 
1 67 
1 68 
1 69 
1 70 
1 71 
1 72 
1 73 
1 74 
1 75 
1 76 
1 77 
1 78 
1 79 
1 80 
1 81 
1 82 
1 83 
1 84 
1 85 
1 86 
1 87 
1 88 
1 89 
1 90 
1 91 
1 92 
1 93 
1 94 
1 95 
1 96 
1 97 
1 98 
1 99 
1 100 
1 101 
1 102 
1 103 
1 104 
1 105 
1 106 
1 107 
1 108 
1 109 
1 110 
1 111 
1 112 
1 113 
1 114 
1 115 
1 116 
1 117 
1 118 
1 119 
1 120 
1 121 
1 122 
1 123 
1 124 
1 125 
1 126 
1 127 
1 128 
1 129 
1 130 
1 131 
1 132 
1 133 
1 134 
1 135 
1 136 
1 137 
1 138 
1 139 
1 140 
1 141 
1 142 
1 143 
1 144 
1 145 
1 146 
1 147 
1 148 
1 149 
1 150 
1 151 
1 152 
1 153 
1 154 
1 155 
1 156 
1 157 
1 158 
1 159 
1 160 
1 161 
1 162 
1 163 
1 164 
1 165 
1 166 
1 167 
1 168 
1 169 
1 170 
1 171 
1 172 
1 173 
1 174 
CELL_TYPES 175 
1 
1 
1 
1 
1 
1 
1 
1 
1 
1 
1 
1 
1 
1 
1 
1 
1 
1 
1 
1 
1 
1 
1 
1 
1 
1 
1 
1 
1 
1 
1 
1 
1 
1 
1 
1 
1 
1 
1 
1 
1 
1 
1 
1 
1 
1 
1 
1 
1 
1 
1 
1 
1 
1 
1 
1 
1 
1 
1 
1 
1 
1 
1 
1 
1 
1 
1 
1 
1 
1 
1 
1 
1 
1 
1 
1 
1 
1 
1 
1 
1 
1 
1 
1 
1 
1 
1 
1 
1 
1 
1 
1 
1 
1 
1 
1 
1 
1 
1 
1 
1 
1 
1 
1 
1 
1 
1 
1 
1 
1 
1 
1 
1 
1 
1 
1 
1 
1 
1 
1 
1 
1 
1 
1 
1 
1 
1 
1 
1 
1 
1 
1 
1 
1 
1 
1 
1 
1 
1 
1 
1 
1 
1 
1 
1 
1 
1 
1 
1 
1 
1 
1 
1 
1 
1 
1 
1 
1 
1 
1 
1 
1 
1 
1 
1 
1 
1 
1 
1 
1 
1 
1 
1 
1 
1 
POINT_DATA 175 
VECTORS X_GC float 
-0.026061 -0.432577 0.000000 
-0.106992 -0.364522 0.000000 
-0.054870 -0.372755 0.000000 
-0.028809 -0.326871 0.000000 
-0.186430 -0.300446 0.000000 
-0.137056 -0.302973 0.000000 
-0.114311 -0.249325 0.000000 
-0.058186 -0.264991 0.000000 
-0.029377 -0.224814 0.000000 
-0.265318 -0.237291 0.000000 
-0.217198 -0.238090 0.000000 
-0.196633 -0.180794 0.000000 
-0.143120 -0.189503 0.000000 
-0.116563 -0.142234 0.000000 
-0.058945 -0.161880 0.000000 
-0.029568 -0.123760 0.000000 
-0.344206 -0.174135 0.000000 
-0.296791 -0.174128 0.000000 
-0.278030 -0.114185 0.000000 
-0.225992 -0.120051 0.000000 
-0.201664 -0.067934 0.000000 
-0.145749 -0.081408 0.000000 
-0.117890 -0.037066 0.000000 
-0.059328 -0.059771 0.000000 
-0.029759 -0.022705 0.000000 
-0.058559 -0.473328 0.000000 
-0.162226 -0.494171 0.000000 
-0.123292 -0.458553 0.000000 
-0.142917 -0.409570 0.000000 
-0.261851 -0.516327 0.000000 
-0.229092 -0.479300 0.000000 
-0.256854 -0.428069 0.000000 
-0.209613 -0.393956 0.000000 
-0.223062 -0.346382 0.000000 
-0.360414 -0.538627 0.000000 
-0.329787 -0.501504 0.000000 
-0.361761 -0.449702 0.000000 
-0.321587 -0.413294 0.000000 
-0.341985 -0.363060 0.000000 
-0.290702 -0.330261 0.000000 
-0.302189 -0.283525 0.000000 
-0.458977 -0.560927 0.000000 
-0.429420 -0.523853 0.000000 
-0.464588 -0.471811 0.000000 
-0.427556 -0.434784 0.000000 
-0.453135 -0.383269 0.000000 
-0.407738 -0.347953 0.000000 
-0.425037 -0.298525 0.000000 
-0.370772 -0.266896 0.000000 
-0.381315 -0.220669 0.000000 
-0.046960 -0.524143 0.000000 
-0.095301 -0.618189 0.000000 
-0.098873 -0.565542 0.000000 
-0.149405 -0.550344 0.000000 
-0.140093 -0.709893 0.000000 
-0.148617 -0.661195 0.000000 
-0.205981 -0.650958 0.000000 
-0.203197 -0.592754 0.000000 
-0.248777 -0.573608 0.000000 
-0.184111 -0.800857 0.000000 
-0.194039 -0.753766 0.000000 
-0.254475 -0.746466 0.000000 
-0.257893 -0.692356 0.000000 
-0.309886 -0.676984 0.000000 
-0.303554 -0.616439 0.000000 
-0.347255 -0.596281 0.000000 
-0.228129 -0.891821 0.000000 
-0.238687 -0.845596 0.000000 
-0.301302 -0.840644 0.000000 
-0.307162 -0.788605 0.000000 
-0.363386 -0.776484 0.000000 
-0.362692 -0.718973 0.000000 
-0.412122 -0.701680 0.000000 
-0.403017 -0.639533 0.000000 
-0.445733 -0.618954 0.000000 
-0.000000 -0.546758 0.000000 
0.043388 -0.643189 0.000000 
-0.000000 -0.613157 0.000000 
-0.043388 -0.643189 0.000000 
0.087158 -0.735386 0.000000 
0.043769 -0.711687 0.000000 
-0.000000 -0.750153 0.000000 
-0.043769 -0.711687 0.000000 
-0.087158 -0.735386 0.000000 
0.130831 -0.826515 0.000000 
0.087824 -0.804916 0.000000 
0.044436 -0.847616 0.000000 
-0.000000 -0.816551 0.000000 
-0.044436 -0.847616 0.000000 
-0.087824 -0.804916 0.000000 
-0.130831 -0.826515 0.000000 
0.174505 -0.917645 0.000000 
0.131782 -0.897079 0.000000 
0.088871 -0.942945 0.000000 
0.044532 -0.915081 0.000000 
-0.000000 -0.951482 0.000000 
-0.044532 -0.915081 0.000000 
-0.088871 -0.942945 0.000000 
-0.131782 -0.897079 0.000000 
-0.174505 -0.917645 0.000000 
0.046960 -0.524143 0.000000 
0.149405 -0.550344 0.000000 
0.098873 -0.565542 0.000000 
0.095301 -0.618189 0.000000 
0.248777 -0.573608 0.000000 
0.203197 -0.592754 0.000000 
0.205981 -0.650958 0.000000 
0.148617 -0.661195 0.000000 
0.140093 -0.709893 0.000000 
0.347255 -0.596281 0.000000 
0.303554 -0.616439 0.000000 
0.309886 -0.676984 0.000000 
0.257893 -0.692356 0.000000 
0.254475 -0.746466 0.000000 
0.194039 -0.753766 0.000000 
0.184111 -0.800857 0.000000 
0.445733 -0.618954 0.000000 
0.403017 -0.639533 0.000000 
0.412122 -0.701680 0.000000 
0.362692 -0.718973 0.000000 
0.363386 -0.776484 0.000000 
0.307162 -0.788605 0.000000 
0.301302 -0.840644 0.000000 
0.238687 -0.845596 0.000000 
0.228129 -0.891821 0.000000 
0.058559 -0.473328 0.000000 
0.142917 -0.409570 0.000000 
0.123292 -0.458553 0.000000 
0.162226 -0.494171 0.000000 
0.223062 -0.346382 0.000000 
0.209613 -0.393956 0.000000 
0.256854 -0.428069 0.000000 
0.229092 -0.479300 0.000000 
0.261851 -0.516327 0.000000 
0.302189 -0.283525 0.000000 
0.290702 -0.330261 0.000000 
0.341985 -0.363060 0.000000 
0.321587 -0.413294 0.000000 
0.361761 -0.449702 0.000000 
0.329787 -0.501504 0.000000 
0.360414 -0.538627 0.000000 
0.381315 -0.220669 0.000000 
0.370772 -0.266896 0.000000 
0.425037 -0.298525 0.000000 
0.407738 -0.347953 0.000000 
0.453135 -0.383269 0.000000 
0.427556 -0.434784 0.000000 
0.464588 -0.471811 0.000000 
0.429420 -0.523853 0.000000 
0.458977 -0.560927 0.000000 
0.026061 -0.432577 0.000000 
0.028809 -0.326871 0.000000 
0.054870 -0.372755 0.000000 
0.106992 -0.364522 0.000000 
0.029377 -0.224814 0.000000 
0.058186 -0.264991 0.000000 
0.114311 -0.249325 0.000000 
0.137056 -0.302973 0.000000 
0.186430 -0.300446 0.000000 
0.029568 -0.123760 0.000000 
0.058945 -0.161880 0.000000 
0.116563 -0.142234 0.000000 
0.143120 -0.189503 0.000000 
0.196633 -0.180794 0.000000 
0.217198 -0.238090 0.000000 
0.265318 -0.237291 0.000000 
0.029759 -0.022705 0.000000 
0.059328 -0.059771 0.000000 
0.117890 -0.037066 0.000000 
0.145749 -0.081408 0.000000 
0.201664 -0.067934 0.000000 
0.225992 -0.120051 0.000000 
0.278030 -0.114185 0.000000 
0.296791 -0.174128 0.000000 
0.344206 -0.174135 0.000000 
VECTORS X_EC float 
0.338794 0.339795 0.000000 
-0.609100 -0.578954 0.000000 
0.713312 -0.467813 0.000000 
0.374519 0.912758 0.000000 
0.423588 0.556027 0.000000 
-0.218274 0.590131 0.000000 
-0.513962 -0.134108 0.000000 
0.756418 0.077378 0.000000 
0.381900 -0.465014 0.000000 
-0.550868 -0.296576 0.000000 
0.823577 -0.285781 0.000000 
0.556234 0.940715 0.000000 
-0.139443 -0.941716 0.000000 
-0.484677 0.420160 0.000000 
0.766286 0.685375 0.000000 
0.384386 0.170755 0.000000 
0.474677 0.850821 0.000000 
-0.141715 0.850724 0.000000 
-0.385608 0.041496 0.000000 
0.937896 0.120692 0.000000 
0.621631 -0.582888 0.000000 
-0.105264 -0.400989 0.000000 
-0.467428 -0.999615 0.000000 
0.771260 -0.693087 0.000000 
0.386873 0.806524 0.000000 
0.761262 0.889929 0.000000 
0.108942 -0.828694 0.000000 
-0.397202 0.690467 0.000000 
-0.142083 0.029191 0.000000 
-0.595936 -0.529583 0.000000 
0.978194 0.970551 0.000000 
-0.660903 0.278926 0.000000 
0.724964 -0.181594 0.000000 
0.899809 -0.823843 0.000000 
0.685384 -0.228531 0.000000 
0.287229 -0.729690 0.000000 
0.702895 0.570982 0.000000 
0.180633 0.079463 0.000000 
0.445811 -0.598697 0.000000 
-0.220880 0.958517 0.000000 
-0.071546 0.327592 0.000000 
-0.033296 0.072521 0.000000 
-0.417537 -0.427989 0.000000 
0.039645 0.869449 0.000000 
-0.441768 0.369578 0.000000 
-0.109248 -0.325873 0.000000 
-0.699407 -0.802629 0.000000 
-0.474522 0.530092 0.000000 
0.820030 0.103099 0.000000 
0.957100 -0.520973 0.000000 
0.610485 -0.424064 0.000000 
-0.761092 0.845555 0.000000 
-0.714655 0.134817 0.000000 
-0.057734 -0.070350 0.000000 
-0.178789 0.083559 0.000000 
-0.067979 -0.573867 0.000000 
0.677748 -0.712070 0.000000 
0.641556 0.502184 0.000000 
-0.765897 0.243706 0.000000 
0.393446 -0.688432 0.000000 
0.522510 0.675838 0.000000 
-0.691820 0.577294 0.000000 
-0.647393 -0.153189 0.000000 
0.028512 -0.360715 0.000000 
-0.053800 0.821924 0.000000 
0.514316 0.549794 0.000000 
0.965681 0.539577 0.000000 
-0.897068 -0.084451 0.000000 
-0.083078 -0.151304 0.000000 
-0.006893 -0.853829 0.000000 
0.724017 0.982538 0.000000 
0.714996 0.206135 0.000000 
-0.642413 -0.027323 0.000000 
-0.760780 -0.866303 0.000000 
-0.205471 0.855881 0.000000 
0.000000 -0.118763 0.000000 
-0.564049 -0.816950 0.000000 
0.000000 0.777614 0.000000 
0.564049 -0.816950 0.000000 
0.866949 0.427705 0.000000 
-0.569003 0.107774 0.000000 
0.000000 0.627062 0.000000 
0.569003 0.107774 0.000000 
-0.866949 0.427705 0.000000 
0.299194 -0.342045 0.000000 
0.858290 -0.633628 0.000000 
-0.577662 -0.057183 0.000000 
0.000000 -0.476561 0.000000 
0.577662 -0.057183 0.000000 
-0.858290 -0.633628 0.000000 
-0.299194 -0.342045 0.000000 
-0.268560 0.888206 0.000000 
0.286830 0.610564 0.000000 
0.844677 -0.770238 0.000000 
-0.578910 0.853599 0.000000 
0.000000 -0.654997 0.000000 
0.578910 0.853599 0.000000 
-0.844677 -0.770238 0.000000 
-0.286830 0.610564 0.000000 
0.268560 0.888206 0.000000 
-0.610485 -0.424064 0.000000 
0.057734 -0.070350 0.000000 
0.714655 0.134817 0.000000 
0.761092 0.845555 0.000000 
0.765897 0.243706 0.000000 
-0.641556 0.502184 0.000000 
-0.677748 -0.712070 0.000000 
0.067979 -0.573867 0.000000 
0.178789 0.083559 0.000000 
-0.514316 0.549794 0.000000 
0.053800 0.821924 0.000000 
-0.028512 -0.360715 0.000000 
0.647393 -0.153189 0.000000 
0.691820 0.577294 0.000000 
-0.522510 0.675838 0.000000 
-0.393446 -0.688432 0.000000 
0.205471 0.855881 0.000000 
0.760780 -0.866303 0.000000 
0.642413 -0.027323 0.000000 
-0.714996 0.206135 0.000000 
-0.724017 0.982538 0.000000 
0.006894 -0.853829 0.000000 
0.083078 -0.151304 0.000000 
0.897068 -0.084451 0.000000 
-0.965681 0.539577 0.000000 
-0.761262 0.889929 0.000000 
0.142083 0.029191 0.000000 
0.397202 0.690467 0.000000 
-0.108942 -0.828694 0.000000 
-0.899809 -0.823843 0.000000 
-0.724964 -0.181594 0.000000 
0.660903 0.278926 0.000000 
-0.978194 0.970551 0.000000 
0.595936 -0.529583 0.000000 
0.071546 0.327592 0.000000 
0.220880 0.958517 0.000000 
-0.445811 -0.598697 0.000000 
-0.180633 0.079463 0.000000 
-0.702895 0.570982 0.000000 
-0.287229 -0.729690 0.000000 
-0.685384 -0.228531 0.000000 
-0.957100 -0.520973 0.000000 
-0.820030 0.103099 0.000000 
0.474522 0.530092 0.000000 
0.699407 -0.802629 0.000000 
0.109248 -0.325873 0.000000 
0.441768 0.369578 0.000000 
-0.039645 0.869449 0.000000 
0.417537 -0.427989 0.000000 
0.033296 0.072521 0.000000 
-0.338794 0.339795 0.000000 
-0.374519 0.912758 0.000000 
-0.713312 -0.467813 0.000000 
0.609100 -0.578954 0.000000 
-0.381900 -0.465014 0.000000 
-0.756418 0.077378 0.000000 
0.513962 -0.134108 0.000000 
0.218274 0.590131 0.000000 
-0.423588 0.556027 0.000000 
-0.384386 0.170755 0.000000 
-0.766286 0.685375 0.000000 
0.484677 0.420160 0.000000 
0.139443 -0.941716 0.000000 
-0.556234 0.940715 0.000000 
-0.823577 -0.285781 0.000000 
0.550868 -0.296576 0.000000 
-0.386873 0.806524 0.000000 
-0.771260 -0.693087 0.000000 
0.467428 -0.999615 0.000000 
0.105264 -0.400989 0.000000 
-0.621631 -0.582888 0.000000 
-0.937896 0.120692 0.000000 
0.385608 0.041496 0.000000 
0.141715 0.850724 0.000000 
-0.474677 0.850821 0.000000 
CELL_DATA 175 
SCALARS MASS float 
LOOKUP_TABLE default 
0.781831 
0.864274 
0.946717 
0.864274 
0.881307 
0.921110 
0.858535 
0.921110 
0.881307 
0.887046 
0.910001 
0.869829 
0.915556 
0.869829 
0.910001 
0.887046 
0.892784 
0.915740 
0.892784 
0.927218 
0.892784 
0.927218 
0.892784 
0.915740 
0.892784 
0.781831 
0.864274 
0.946717 
0.864274 
0.881307 
0.921110 
0.858535 
0.921110 
0.881307 
0.887046 
0.910001 
0.869829 
0.915556 
0.869829 
0.910001 
0.887046 
0.892784 
0.915740 
0.892784 
0.927218 
0.892784 
0.927218 
0.892784 
0.915740 
0.892784 
0.781831 
0.864274 
0.946717 
0.864274 
0.881307 
0.921110 
0.858535 
0.921110 
0.881307 
0.887046 
0.910001 
0.869829 
0.915556 
0.869829 
0.910001 
0.887046 
0.892784 
0.915740 
0.892784 
0.927218 
0.892784 
0.927218 
0.892784 
0.915740 
0.892784 
0.781831 
0.864274 
0.946717 
0.864274 
0.881307 
0.921110 
0.858535 
0.921110 
0.881307 
0.887046 
0.910001 
0.869829 
0.915556 
0.869829 
0.910001 
0.887046 
0.892784 
0.915740 
0.892784 
0.927218 
0.892784 
0.927218 
0.892784 
0.915740 
0.892784 
0.781831 
0.864274 
0.946717 
0.864274 
0.881307 
0.921110 
0.858535 
0.921110 
0.881307 
0.887046 
0.910001 
0.869829 
0.915556 
0.869829 
0.910001 
0.887046 
0.892784 
0.915740 
0.892784 
0.927218 
0.892784 
0.927218 
0.892784 
0.915740 
0.892784 
0.781831 
0.864274 
0.946717 
0.864274 
0.881307 
0.921110 
0.858535 
0.921110 
0.881307 
0.887046 
0.910001 
0.869829 
0.915556 
0.869829 
0.910001 
0.887046 
0.892784 
0.915740 
0.892784 
0.927218 
0.892784 
0.927218 
0.892784 
0.915740 
0.892784 
0.781831 
0.864274 
0.946717 
0.864274 
0.881307 
0.921110 
0.858535 
0.921110 
0.881307 
0.887046 
0.910001 
0.869829 
0.915556 
0.869829 
0.910001 
0.887046 
0.892784 
0.915740 
0.892784 
0.927218 
0.892784 
0.927218 
0.892784 
0.915740 
0.892784 
SCALARS MASS float 
LOOKUP_TABLE default 
0.781831 
0.864274 
0.946717 
0.864274 
0.881307 
0.921110 
0.858535 
0.921110 
0.881307 
0.887046 
0.910001 
0.869829 
0.915556 
0.869829 
0.910001 
0.887046 
0.892784 
0.915740 
0.892784 
0.927218 
0.892784 
0.927218 
0.892784 
0.915740 
0.892784 
0.781831 
0.864274 
0.946717 
0.864274 
0.881307 
0.921110 
0.858535 
0.921110 
0.881307 
0.887046 
0.910001 
0.869829 
0.915556 
0.869829 
0.910001 
0.887046 
0.892784 
0.915740 
0.892784 
0.927218 
0.892784 
0.927218 
0.892784 
0.915740 
0.892784 
0.781831 
0.864274 
0.946717 
0.864274 
0.881307 
0.921110 
0.858535 
0.921110 
0.881307 
0.887046 
0.910001 
0.869829 
0.915556 
0.869829 
0.910001 
0.887046 
0.892784 
0.915740 
0.892784 
0.927218 
0.892784 
0.927218 
0.892784 
0.915740 
0.892784 
0.781831 
0.864274 
0.946717 
0.864274 
0.881307 
0.921110 
0.858535 
0.921110 
0.881307 
0.887046 
0.910001 
0.869829 
0.915556 
0.869829 
0.910001 
0.887046 
0.892784 
0.915740 
0.892784 
0.927218 
0.892784 
0.927218 
0.892784 
0.915740 
0.892784 
0.781831 
0.864274 
0.946717 
0.864274 
0.881307 
0.921110 
0.858535 
0.921110 
0.881307 
0.887046 
0.910001 
0.869829 
0.915556 
0.869829 
0.910001 
0.887046 
0.892784 
0.915740 
0.892784 
0.927218 
0.892784 
0.927218 
0.892784 
0.915740 
0.892784 
0.781831 
0.864274 
0.946717 
0.864274 
0.881307 
0.921110 
0.858535 
0.921110 
0.881307 
0.887046 
0.910001 
0.869829 
0.915556 
0.869829 
0.910001 
0.887046 
0.892784 
0.915740 
0.892784 
0.927218 
0.892784 
0.927218 
0.892784 
0.915740 
0.892784 
0.781831 
0.864274 
0.946717 
0.864274 
0.881307 
0.921110 
0.858535 
0.921110 
0.881307 
0.887046 
0.910001 
0.869829 
0.915556 
0.869829 
0.910001 
0.887046 
0.892784 
0.915740 
0.892784 
0.927218 
0.892784 
0.927218 
0.892784 
0.915740 
0.892784 
SCALARS DENSITY float 
LOOKUP_TABLE default 
200.000000 
200.000000 
200.000000 
200.000000 
200.000000 
200.000000 
200.000000 
200.000000 
200.000000 
200.000000 
200.000000 
200.000000 
200.000000 
200.000000 
200.000000 
200.000000 
200.000000 
200.000000 
200.000000 
200.000000 
200.000000 
200.000000 
200.000000 
200.000000 
200.000000 
200.000000 
200.000000 
200.000000 
200.000000 
200.000000 
200.000000 
200.000000 
200.000000 
200.000000 
200.000000 
200.000000 
200.000000 
200.000000 
200.000000 
200.000000 
200.000000 
200.000000 
200.000000 
200.000000 
200.000000 
200.000000 
200.000000 
200.000000 
200.000000 
200.000000 
200.000000 
200.000000 
200.000000 
200.000000 
200.000000 
200.000000 
200.000000 
200.000000 
200.000000 
200.000000 
200.000000 
200.000000 
200.000000 
200.000000 
200.000000 
200.000000 
200.000000 
200.000000 
200.000000 
200.000000 
200.000000 
200.000000 
200.000000 
200.000000 
200.000000 
200.000000 
200.000000 
200.000000 
200.000000 
200.000000 
200.000000 
200.000000 
200.000000 
200.000000 
200.000000 
200.000000 
200.000000 
200.000000 
200.000000 
200.000000 
200.000000 
200.000000 
200.000000 
200.000000 
200.000000 
200.000000 
200.000000 
200.000000 
200.000000 
200.000000 
200.000000 
200.000000 
200.000000 
200.000000 
200.000000 
200.000000 
200.000000 
200.000000 
200.000000 
200.000000 
200.000000 
200.000000 
200.000000 
200.000000 
200.000000 
200.000000 
200.000000 
200.000000 
200.000000 
200.000000 
200.000000 
200.000000 
200.000000 
200.000000 
200.000000 
200.000000 
200.000000 
200.000000 
200.000000 
200.000000 
200.000000 
200.000000 
200.000000 
200.000000 
200.000000 
200.000000 
200.000000 
200.000000 
200.000000 
200.000000 
200.000000 
200.000000 
200.000000 
200.000000 
200.000000 
200.000000 
200.000000 
200.000000 
200.000000 
200.000000 
200.000000 
200.000000 
200.000000 
200.000000 
200.000000 
200.000000 
200.000000 
200.000000 
200.000000 
200.000000 
200.000000 
200.000000 
200.000000 
200.000000 
200.000000 
200.000000 
200.000000 
200.000000 
200.000000 
200.000000 
200.000000 
200.000000 
200.000000 
200.000000 
200.000000 
SCALARS ELEM_i float 
LOOKUP_TABLE default 
179 
206 
179 
180 
207 
207 
207 
180 
180 
234 
207 
208 
207 
208 
181 
181 
235 
235 
235 
208 
208 
208 
208 
181 
182 
179 
205 
206 
206 
232 
206 
233 
206 
206 
232 
232 
233 
233 
233 
234 
234 
259 
259 
260 
260 
260 
260 
261 
234 
234 
178 
205 
205 
205 
204 
204 
204 
205 
232 
203 
204 
231 
231 
231 
232 
232 
203 
230 
230 
230 
231 
231 
258 
258 
259 
178 
177 
178 
177 
150 
177 
177 
177 
204 
149 
149 
176 
176 
176 
203 
203 
149 
149 
148 
176 
175 
176 
202 
203 
203 
178 
151 
151 
151 
124 
151 
150 
150 
150 
124 
124 
123 
123 
123 
150 
149 
97 
96 
96 
123 
123 
122 
122 
122 
149 
179 
152 
152 
151 
152 
152 
125 
152 
124 
126 
126 
125 
125 
125 
124 
124 
126 
126 
99 
98 
98 
98 
98 
97 
97 
179 
180 
179 
152 
180 
180 
153 
153 
153 
181 
181 
154 
153 
154 
153 
126 
182 
181 
154 
154 
154 
154 
127 
127 
127 
VECTORS VELOCITY float 
-0.000000 -3.080340 0.000000 
-0.000000 -3.080340 0.000000 
-0.000000 -3.080340 0.000000 
-0.000000 -3.080340 0.000000 
-0.000000 -3.080340 0.000000 
-0.000000 -3.080340 0.000000 
0.000000 -3.080340 0.000000 
0.000000 -3.080340 0.000000 
0.000000 -3.080340 0.000000 
-0.000000 -3.080340 0.000000 
-0.000000 -3.080340 0.000000 
0.000000 -3.080340 0.000000 
0.000000 -3.080340 0.000000 
0.000000 -3.080340 0.000000 
0.000000 -3.080340 0.000000 
0.000000 -3.080340 0.000000 
0.000000 -3.080340 0.000000 
0.000000 -3.080340 0.000000 
-0.000000 -3.080340 0.000000 
0.000000 -3.080340 0.000000 
-0.000000 -3.080340 0.000000 
0.000000 -3.080340 0.000000 
-0.000000 -3.080340 0.000000 
0.000000 -3.080340 0.000000 
0.000000 -3.080340 0.000000 
-0.000000 -3.080340 0.000000 
-0.000000 -3.080340 0.000000 
-0.000000 -3.080340 0.000000 
0.000000 -3.080340 0.000000 
-0.000000 -3.080340 0.000000 
0.000000 -3.080340 0.000000 
0.000000 -3.080340 0.000000 
0.000000 -3.080340 0.000000 
0.000000 -3.080340 0.000000 
-0.000000 -3.080340 0.000000 
-0.000000 -3.080340 0.000000 
-0.000000 -3.080340 0.000000 
-0.000000 -3.080340 0.000000 
-0.000000 -3.080340 0.000000 
-0.000000 -3.080340 0.000000 
-0.000000 -3.080340 0.000000 
-0.000000 -3.080340 0.000000 
-0.000000 -3.080340 0.000000 
-0.000000 -3.080340 0.000000 
-0.000000 -3.080340 0.000000 
0.000000 -3.080340 0.000000 
-0.000000 -3.080340 0.000000 
-0.000000 -3.080340 0.000000 
-0.000000 -3.080340 0.000000 
0.000000 -3.080340 0.000000 
-0.000000 -3.080340 0.000000 
-0.000000 -3.080340 0.000000 
-0.000000 -3.080340 0.000000 
-0.000000 -3.080340 0.000000 
0.000000 -3.080340 0.000000 
-0.000000 -3.080340 0.000000 
-0.000000 -3.080340 0.000000 
-0.000000 -3.080340 0.000000 
0.000000 -3.080340 0.000000 
0.000000 -3.080340 0.000000 
0.000000 -3.080340 0.000000 
0.000000 -3.080340 0.000000 
-0.000000 -3.080340 0.000000 
0.000000 -3.080340 0.000000 
0.000000 -3.080340 0.000000 
-0.000000 -3.080340 0.000000 
-0.000000 -3.080340 0.000000 
-0.000000 -3.080340 0.000000 
-0.000000 -3.080340 0.000000 
0.000000 -3.080340 0.000000 
0.000000 -3.080340 0.000000 
0.000000 -3.080340 0.000000 
-0.000000 -3.080340 0.000000 
0.000000 -3.080340 0.000000 
-0.000000 -3.080340 0.000000 
0.000000 -3.080340 0.000000 
0.000000 -3.080340 0.000000 
-0.000000 -3.080340 0.000000 
-0.000000 -3.080340 0.000000 
-0.000000 -3.080340 0.000000 
-0.000000 -3.080340 0.000000 
-0.000000 -3.080340 0.000000 
0.000000 -3.080340 0.000000 
0.000000 -3.080340 0.000000 
-0.000000 -3.080340 0.000000 
-0.000000 -3.080340 0.000000 
-0.000000 -3.080340 0.000000 
-0.000000 -3.080340 0.000000 
0.000000 -3.080340 0.000000 
0.000000 -3.080340 0.000000 
0.000000 -3.080340 0.000000 
0.000000 -3.080340 0.000000 
0.000000 -3.080340 0.000000 
-0.000000 -3.080340 0.000000 
-0.000000 -3.080340 0.000000 
-0.000000 -3.080340 0.000000 
0.000000 -3.080340 0.000000 
0.000000 -3.080340 0.000000 
0.000000 -3.080340 0.000000 
0.000000 -3.080340 0.000000 
0.000000 -3.080340 0.000000 
0.000000 -3.080340 0.000000 
0.000000 -3.080340 0.000000 
0.000000 -3.080340 0.000000 
-0.000000 -3.080340 0.000000 
-0.000000 -3.080340 0.000000 
-0.000000 -3.080340 0.000000 
0.000000 -3.080340 0.000000 
-0.000000 -3.080340 0.000000 
0.000000 -3.080340 0.000000 
0.000000 -3.080340 0.000000 
-0.000000 -3.080340 0.000000 
0.000000 -3.080340 0.000000 
0.000000 -3.080340 0.000000 
0.000000 -3.080340 0.000000 
0.000000 -3.080340 0.000000 
-0.000000 -3.080340 0.000000 
0.000000 -3.080340 0.000000 
-0.000000 -3.080340 0.000000 
-0.000000 -3.080340 0.000000 
-0.000000 -3.080340 0.000000 
0.000000 -3.080340 0.000000 
0.000000 -3.080340 0.000000 
0.000000 -3.080340 0.000000 
0.000000 -3.080340 0.000000 
0.000000 -3.080340 0.000000 
0.000000 -3.080340 0.000000 
0.000000 -3.080340 0.000000 
0.000000 -3.080340 0.000000 
0.000000 -3.080340 0.000000 
0.000000 -3.080340 0.000000 
0.000000 -3.080340 0.000000 
-0.000000 -3.080340 0.000000 
-0.000000 -3.080340 0.000000 
-0.000000 -3.080340 0.000000 
0.000000 -3.080340 0.000000 
-0.000000 -3.080340 0.000000 
-0.000000 -3.080340 0.000000 
-0.000000 -3.080340 0.000000 
-0.000000 -3.080340 0.000000 
0.000000 -3.080340 0.000000 
0.000000 -3.080340 0.000000 
-0.000000 -3.080340 0.000000 
0.000000 -3.080340 0.000000 
-0.000000 -3.080340 0.000000 
0.000000 -3.080340 0.000000 
0.000000 -3.080340 0.000000 
0.000000 -3.080340 0.000000 
-0.000000 -3.080340 0.000000 
-0.000000 -3.080340 0.000000 
0.000000 -3.080340 0.000000 
-0.000000 -3.080340 0.000000 
-0.000000 -3.080340 0.000000 
-0.000000 -3.080340 0.000000 
-0.000000 -3.080340 0.000000 
-0.000000 -3.080340 0.000000 
-0.000000 -3.080340 0.000000 
-0.000000 -3.080340 0.000000 
-0.000000 -3.080340 0.000000 
0.000000 -3.080340 0.000000 
0.000000 -3.080340 0.000000 
0.000000 -3.080340 0.000000 
-0.000000 -3.080340 0.000000 
-0.000000 -3.080340 0.000000 
-0.000000 -3.080340 0.000000 
0.000000 -3.080340 0.000000 
0.000000 -3.080340 0.000000 
0.000000 -3.080340 0.000000 
0.000000 -3.080340 0.000000 
0.000000 -3.080340 0.000000 
0.000000 -3.080340 0.000000 
0.000000 -3.080340 0.000000 
0.000000 -3.080340 0.000000 
-0.000000 -3.080340 0.000000 
0.000000 -3.080340 0.000000 
TENSORS STRESS float 
-0.000000 0.000000 0.000000 
0.000000 -0.000000 0.000000 
0.000000 0.000000 0.000000 

0.000000 -0.000000 0.000000 
0.000000 0.000000 0.000000 
0.000000 0.000000 0.000000 

0.000000 0.000000 0.000000 
0.000000 0.000000 0.000000 
0.000000 0.000000 0.000000 

-0.000000 0.000000 0.000000 
0.000000 -0.000000 0.000000 
0.000000 0.000000 0.000000 

-0.000000 0.000000 0.000000 
0.000000 -0.000000 0.000000 
0.000000 0.000000 0.000000 

-0.000000 -0.000000 0.000000 
0.000000 -0.000000 0.000000 
0.000000 0.000000 0.000000 

-0.000000 0.000000 0.000000 
0.000000 -0.000000 0.000000 
0.000000 0.000000 0.000000 

0.000000 0.000000 0.000000 
0.000000 0.000000 0.000000 
0.000000 0.000000 0.000000 

-0.000000 -0.000000 0.000000 
0.000000 -0.000000 0.000000 
0.000000 0.000000 0.000000 

-0.000000 -0.000000 0.000000 
0.000000 -0.000000 0.000000 
0.000000 0.000000 0.000000 

-0.000000 0.000000 0.000000 
0.000000 -0.000000 0.000000 
0.000000 0.000000 0.000000 

0.000000 0.000000 0.000000 
0.000000 0.000000 0.000000 
0.000000 0.000000 0.000000 

0.000000 0.000000 0.000000 
0.000000 0.000000 0.000000 
0.000000 0.000000 0.000000 

0.000000 -0.000000 0.000000 
0.000000 0.000000 0.000000 
0.000000 0.000000 0.000000 

0.000000 -0.000000 0.000000 
0.000000 0.000000 0.000000 
0.000000 0.000000 0.000000 

-0.000000 -0.000000 0.000000 
0.000000 -0.000000 0.000000 
0.000000 0.000000 0.000000 

-0.000000 0.000000 0.000000 
0.000000 -0.000000 0.000000 
0.000000 0.000000 0.000000 

-0.000000 -0.000000 0.000000 
0.000000 -0.000000 0.000000 
0.000000 0.000000 0.000000 

0.000000 -0.000000 0.000000 
0.000000 0.000000 0.000000 
0.000000 0.000000 0.000000 

0.000000 0.000000 0.000000 
0.000000 0.000000 0.000000 
0.000000 0.000000 0.000000 

0.000000 -0.000000 0.000000 
0.000000 0.000000 0.000000 
0.000000 0.000000 0.000000 

-0.000000 0.000000 0.000000 
0.000000 -0.000000 0.000000 
0.000000 0.000000 0.000000 

0.000000 0.000000 0.000000 
0.000000 0.000000 0.000000 
0.000000 0.000000 0.000000 

0.000000 -0.000000 0.000000 
0.000000 0.000000 0.000000 
0.000000 0.000000 0.000000 

0.000000 -0.000000 0.000000 
0.000000 0.000000 0.000000 
0.000000 0.000000 0.000000 

0.000000 0.000000 0.000000 
0.000000 0.000000 0.000000 
0.000000 0.000000 0.000000 

-0.000000 -0.000000 0.000000 
0.000000 -0.000000 0.000000 
0.000000 0.000000 0.000000 

0.000000 -0.000000 0.000000 
0.000000 0.000000 0.000000 
0.000000 0.000000 0.000000 

-0.000000 -0.000000 0.000000 
0.000000 -0.000000 0.000000 
0.000000 0.000000 0.000000 

0.000000 -0.000000 0.000000 
0.000000 0.000000 0.000000 
0.000000 0.000000 0.000000 

0.000000 -0.000000 0.000000 
0.000000 0.000000 0.000000 
0.000000 0.000000 0.000000 

-0.000000 -0.000000 0.000000 
0.000000 -0.000000 0.000000 
0.000000 0.000000 0.000000 

-0.000000 0.000000 0.000000 
0.000000 -0.000000 0.000000 
0.000000 0.000000 0.000000 

0.000000 -0.000000 0.000000 
0.000000 0.000000 0.000000 
0.000000 0.000000 0.000000 

0.000000 0.000000 0.000000 
0.000000 0.000000 0.000000 
0.000000 0.000000 0.000000 

0.000000 -0.000000 0.000000 
0.000000 0.000000 0.000000 
0.000000 0.000000 0.000000 

0.000000 -0.000000 0.000000 
0.000000 0.000000 0.000000 
0.000000 0.000000 0.000000 

-0.000000 -0.000000 0.000000 
0.000000 -0.000000 0.000000 
0.000000 0.000000 0.000000 

-0.000000 -0.000000 0.000000 
0.000000 -0.000000 0.000000 
0.000000 0.000000 0.000000 

-0.000000 -0.000000 0.000000 
0.000000 -0.000000 0.000000 
0.000000 0.000000 0.000000 

0.000000 -0.000000 0.000000 
0.000000 0.000000 0.000000 
0.000000 0.000000 0.000000 

0.000000 -0.000000 0.000000 
0.000000 0.000000 0.000000 
0.000000 0.000000 0.000000 

0.000000 0.000000 0.000000 
0.000000 0.000000 0.000000 
0.000000 0.000000 0.000000 

0.000000 0.000000 0.000000 
0.000000 0.000000 0.000000 
0.000000 0.000000 0.000000 

-0.000000 -0.000000 0.000000 
0.000000 -0.000000 0.000000 
0.000000 0.000000 0.000000 

-0.000000 -0.000000 0.000000 
0.000000 -0.000000 0.000000 
0.000000 0.000000 0.000000 

-0.000000 -0.000000 0.000000 
0.000000 -0.000000 0.000000 
0.000000 0.000000 0.000000 

0.000000 0.000000 0.000000 
0.000000 0.000000 0.000000 
0.000000 0.000000 0.000000 

0.000000 0.000000 0.000000 
0.000000 0.000000 0.000000 
0.000000 0.000000 0.000000 

0.000000 0.000000 0.000000 
0.000000 0.000000 0.000000 
0.000000 0.000000 0.000000 

-0.000000 0.000000 0.000000 
0.000000 -0.000000 0.000000 
0.000000 0.000000 0.000000 

0.000000 -0.000000 0.000000 
0.000000 0.000000 0.000000 
0.000000 0.000000 0.000000 

-0.000000 0.000000 0.000000 
0.000000 -0.000000 0.000000 
0.000000 0.000000 0.000000 

0.000000 0.000000 0.000000 
0.000000 0.000000 0.000000 
0.000000 0.000000 0.000000 

0.000000 0.000000 0.000000 
0.000000 0.000000 0.000000 
0.000000 0.000000 0.000000 

-0.000000 0.000000 0.000000 
0.000000 -0.000000 0.000000 
0.000000 0.000000 0.000000 

0.000000 0.000000 0.000000 
0.000000 0.000000 0.000000 
0.000000 0.000000 0.000000 

0.000000 0.000000 0.000000 
0.000000 0.000000 0.000000 
0.000000 0.000000 0.000000 

-0.000000 -0.000000 0.000000 
0.000000 -0.000000 0.000000 
0.000000 0.000000 0.000000 

-0.000000 -0.000000 0.000000 
0.000000 -0.000000 0.000000 
0.000000 0.000000 0.000000 

0.000000 0.000000 0.000000 
0.000000 0.000000 0.000000 
0.000000 0.000000 0.000000 

0.000000 -0.000000 0.000000 
0.000000 0.000000 0.000000 
0.000000 0.000000 0.000000 

-0.000000 -0.000000 0.000000 
0.000000 -0.000000 0.000000 
0.000000 0.000000 0.000000 

0.000000 -0.000000 0.000000 
0.000000 0.000000 0.000000 
0.000000 0.000000 0.000000 

0.000000 0.000000 0.000000 
0.000000 0.000000 0.000000 
0.000000 0.000000 0.000000 

0.000000 -0.000000 0.000000 
0.000000 0.000000 0.000000 
0.000000 0.000000 0.000000 

-0.000000 -0.000000 0.000000 
0.000000 -0.000000 0.000000 
0.000000 0.000000 0.000000 

0.000000 -0.000000 0.000000 
0.000000 0.000000 0.000000 
0.000000 0.000000 0.000000 

0.000000 0.000000 0.000000 
0.000000 0.000000 0.000000 
0.000000 0.000000 0.000000 

0.000000 -0.000000 0.000000 
0.000000 0.000000 0.000000 
0.000000 0.000000 0.000000 

0.000000 -0.000000 0.000000 
0.000000 0.000000 0.000000 
0.000000 0.000000 0.000000 

0.000000 0.000000 0.000000 
0.000000 0.000000 0.000000 
0.000000 0.000000 0.000000 

-0.000000 -0.000000 0.000000 
0.000000 -0.000000 0.000000 
0.000000 0.000000 0.000000 

-0.000000 -0.000000 0.000000 
0.000000 -0.000000 0.000000 
0.000000 0.000000 0.000000 

-0.000000 0.000000 0.000000 
0.000000 -0.000000 0.000000 
0.000000 0.000000 0.000000 

-0.000000 0.000000 0.000000 
0.000000 -0.000000 0.000000 
0.000000 0.000000 0.000000 

-0.000000 0.000000 0.000000 
0.000000 -0.000000 0.000000 
0.000000 0.000000 0.000000 

-0.000000 0.000000 0.000000 
0.000000 -0.000000 0.000000 
0.000000 0.000000 0.000000 

0.000000 0.000000 0.000000 
0.000000 0.000000 0.000000 
0.000000 0.000000 0.000000 

0.000000 -0.000000 0.000000 
0.000000 0.000000 0.000000 
0.000000 0.000000 0.000000 

-0.000000 0.000000 0.000000 
0.000000 -0.000000 0.000000 
0.000000 0.000000 0.000000 

-0.000000 -0.000000 0.000000 
0.000000 -0.000000 0.000000 
0.000000 0.000000 0.000000 

-0.000000 0.000000 0.000000 
0.000000 -0.000000 0.000000 
0.000000 0.000000 0.000000 

-0.000000 -0.000000 0.000000 
0.000000 -0.000000 0.000000 
0.000000 0.000000 0.000000 

-0.000000 -0.000000 0.000000 
0.000000 -0.000000 0.000000 
0.000000 0.000000 0.000000 

-0.000000 -0.000000 0.000000 
0.000000 -0.000000 0.000000 
0.000000 0.000000 0.000000 

0.000000 -0.000000 0.000000 
0.000000 0.000000 0.000000 
0.000000 0.000000 0.000000 

0.000000 -0.000000 0.000000 
0.000000 0.000000 0.000000 
0.000000 0.000000 0.000000 

0.000000 -0.000000 0.000000 
0.000000 0.000000 0.000000 
0.000000 0.000000 0.000000 

0.000000 -0.000000 0.000000 
0.000000 0.000000 0.000000 
0.000000 0.000000 0.000000 

-0.000000 0.000000 0.000000 
0.000000 -0.000000 0.000000 
0.000000 0.000000 0.000000 

-0.000000 -0.000000 0.000000 
0.000000 -0.000000 0.000000 
0.000000 0.000000 0.000000 

-0.000000 -0.000000 0.000000 
0.000000 -0.000000 0.000000 
0.000000 0.000000 0.000000 

-0.000000 -0.000000 0.000000 
0.000000 -0.000000 0.000000 
0.000000 0.000000 0.000000 

0.000000 -0.000000 0.000000 
0.000000 0.000000 0.000000 
0.000000 0.000000 0.000000 

0.000000 0.000000 0.000000 
0.000000 0.000000 0.000000 
0.000000 0.000000 0.000000 

-0.000000 -0.000000 0.000000 
0.000000 -0.000000 0.000000 
0.000000 0.000000 0.000000 

-0.000000 -0.000000 0.000000 
0.000000 -0.000000 0.000000 
0.000000 0.000000 0.000000 

-0.000000 -0.000000 0.000000 
0.000000 -0.000000 0.000000 
0.000000 0.000000 0.000000 

-0.000000 0.000000 0.000000 
0.000000 -0.000000 0.000000 
0.000000 0.000000 0.000000 

-0.000000 -0.000000 0.000000 
0.000000 -0.000000 0.000000 
0.000000 0.000000 0.000000 

-0.000000 -0.000000 0.000000 
0.000000 -0.000000 0.000000 
0.000000 0.000000 0.000000 

0.000000 -0.000000 0.000000 
0.000000 0.000000 0.000000 
0.000000 0.000000 0.000000 

0.000000 -0.000000 0.000000 
0.000000 0.000000 0.000000 
0.000000 0.000000 0.000000 

-0.000000 0.000000 0.000000 
0.000000 -0.000000 0.000000 
0.000000 0.000000 0.000000 

0.000000 0.000000 0.000000 
0.000000 0.000000 0.000000 
0.000000 0.000000 0.000000 

0.000000 -0.000000 0.000000 
0.000000 0.000000 0.000000 
0.000000 0.000000 0.000000 

0.000000 -0.000000 0.000000 
0.000000 0.000000 0.000000 
0.000000 0.000000 0.000000 

-0.000000 -0.000000 0.000000 
0.000000 -0.000000 0.000000 
0.000000 0.000000 0.000000 

0.000000 0.000000 0.000000 
0.000000 0.000000 0.000000 
0.000000 0.000000 0.000000 

-0.000000 0.000000 0.000000 
0.000000 -0.000000 0.000000 
0.000000 0.000000 0.000000 

-0.000000 -0.000000 0.000000 
0.000000 -0.000000 0.000000 
0.000000 0.000000 0.000000 

0.000000 0.000000 0.000000 
0.000000 0.000000 0.000000 
0.000000 0.000000 0.000000 

-0.000000 0.000000 0.000000 
0.000000 -0.000000 0.000000 
0.000000 0.000000 0.000000 

0.000000 -0.000000 0.000000 
0.000000 0.000000 0.000000 
0.000000 0.000000 0.000000 

-0.000000 0.000000 0.000000 
0.000000 -0.000000 0.000000 
0.000000 0.000000 0.000000 

0.000000 0.000000 0.000000 
0.000000 0.000000 0.000000 
0.000000 0.000000 0.000000 

0.000000 0.000000 0.000000 
0.000000 0.000000 0.000000 
0.000000 0.000000 0.000000 

0.000000 0.000000 0.000000 
0.000000 0.000000 0.000000 
0.000000 0.000000 0.000000 

-0.000000 0.000000 0.000000 
0.000000 -0.000000 0.000000 
0.000000 0.000000 0.000000 

0.000000 0.000000 0.000000 
0.000000 0.000000 0.000000 
0.000000 0.000000 0.000000 

-0.000000 0.000000 0.000000 
0.000000 -0.000000 0.000000 
0.000000 0.000000 0.000000 

0.000000 -0.000000 0.000000 
0.000000 0.000000 0.000000 
0.000000 0.000000 0.000000 

-0.000000 -0.000000 0.000000 
0.000000 -0.000000 0.000000 
0.000000 0.000000 0.000000 

-0.000000 0.000000 0.000000 
0.000000 -0.000000 0.000000 
0.000000 0.000000 0.000000 

-0.000000 0.000000 0.000000 
0.000000 -0.000000 0.000000 
0.000000 0.000000 0.000000 

-0.000000 0.000000 0.000000 
0.000000 -0.000000 0.000000 
0.000000 0.000000 0.000000 

-0.000000 0.000000 0.000000 
0.000000 -0.000000 0.000000 
0.000000 0.000000 0.000000 

0.000000 0.000000 0.000000 
0.000000 0.000000 0.000000 
0.000000 0.000000 0.000000 

-0.000000 0.000000 0.000000 
0.000000 -0.000000 0.000000 
0.000000 0.000000 0.000000 

0.000000 0.000000 0.000000 
0.000000 0.000000 0.000000 
0.000000 0.000000 0.000000 

-0.000000 -0.000000 0.000000 
0.000000 -0.000000 0.000000 
0.000000 0.000000 0.000000 

0.000000 -0.000000 0.000000 
0.000000 0.000000 0.000000 
0.000000 0.000000 0.000000 

-0.000000 0.000000 0.000000 
0.000000 -0.000000 0.000000 
0.000000 0.000000 0.000000 

-0.000000 -0.000000 0.000000 
0.000000 -0.000000 0.000000 
0.000000 0.000000 0.000000 

-0.000000 -0.000000 0.000000 
0.000000 0.000000 0.000000 
0.000000 0.000000 0.000000 

0.000000 -0.000000 0.000000 
0.000000 0.000000 0.000000 
0.000000 0.000000 0.000000 

-0.000000 -0.000000 0.000000 
0.000000 -0.000000 0.000000 
0.000000 0.000000 0.000000 

0.000000 -0.000000 0.000000 
0.000000 0.000000 0.000000 
0.000000 0.000000 0.000000 

-0.000000 -0.000000 0.000000 
0.000000 -0.000000 0.000000 
0.000000 0.000000 0.000000 

0.000000 -0.000000 0.000000 
0.000000 0.000000 0.000000 
0.000000 0.000000 0.000000 

-0.000000 0.000000 0.000000 
0.000000 0.000000 0.000000 
0.000000 0.000000 0.000000 

-0.000000 -0.000000 0.000000 
0.000000 -0.000000 0.000000 
0.000000 0.000000 0.000000 

-0.000000 0.000000 0.000000 
0.000000 -0.000000 0.000000 
0.000000 0.000000 0.000000 

-0.000000 -0.000000 0.000000 
0.000000 -0.000000 0.000000 
0.000000 0.000000 0.000000 

0.000000 -0.000000 0.000000 
0.000000 0.000000 0.000000 
0.000000 0.000000 0.000000 

-0.000000 0.000000 0.000000 
0.000000 -0.000000 0.000000 
0.000000 0.000000 0.000000 

0.000000 -0.000000 0.000000 
0.000000 0.000000 0.000000 
0.000000 0.000000 0.000000 

0.000000 0.000000 0.000000 
0.000000 0.000000 0.000000 
0.000000 0.000000 0.000000 

0.000000 0.000000 0.000000 
0.000000 0.000000 0.000000 
0.000000 0.000000 0.000000 

-0.000000 0.000000 0.000000 
0.000000 -0.000000 0.000000 
0.000000 0.000000 0.000000 

-0.000000 0.000000 0.000000 
0.000000 -0.000000 0.000000 
0.000000 0.000000 0.000000 

0.000000 0.000000 0.000000 
0.000000 0.000000 0.000000 
0.000000 0.000000 0.000000 

0.000000 0.000000 0.000000 
0.000000 0.000000 0.000000 
0.000000 0.000000 0.000000 

-0.000000 -0.000000 0.000000 
0.000000 -0.000000 0.000000 
0.000000 0.000000 0.000000 

-0.000000 0.000000 0.000000 
0.000000 -0.000000 0.000000 
0.000000 0.000000 0.000000 

0.000000 -0.000000 0.000000 
0.000000 0.000000 0.000000 
0.000000 0.000000 0.000000 

0.000000 -0.000000 0.000000 
0.000000 0.000000 0.000000 
0.000000 0.000000 0.000000 

-0.000000 0.000000 0.000000 
0.000000 -0.000000 0.000000 
0.000000 0.000000 0.000000 

0.000000 0.000000 0.000000 
0.000000 0.000000 0.000000 
0.000000 0.000000 0.000000 

-0.000000 -0.000000 0.000000 
0.000000 -0.000000 0.000000 
0.000000 0.000000 0.000000 

0.000000 0.000000 0.000000 
0.000000 0.000000 0.000000 
0.000000 0.000000 0.000000 

-0.000000 -0.000000 0.000000 
0.000000 -0.000000 0.000000 
0.000000 0.000000 0.000000 

-0.000000 -0.000000 0.000000 
0.000000 -0.000000 0.000000 
0.000000 0.000000 0.000000 

0.000000 0.000000 0.000000 
0.000000 0.000000 0.000000 
0.000000 0.000000 0.000000 

-0.000000 0.000000 0.000000 
0.000000 -0.000000 0.000000 
0.000000 0.000000 0.000000 

0.000000 -0.000000 0.000000 
0.000000 0.000000 0.000000 
0.000000 0.000000 0.000000 

-0.000000 -0.000000 0.000000 
0.000000 -0.000000 0.000000 
0.000000 0.000000 0.000000 

-0.000000 -0.000000 0.000000 
0.000000 -0.000000 0.000000 
0.000000 0.000000 0.000000 

-0.000000 -0.000000 0.000000 
0.000000 -0.000000 0.000000 
0.000000 0.000000 0.000000 

0.000000 -0.000000 0.000000 
0.000000 0.000000 0.000000 
0.000000 0.000000 0.000000 

-0.000000 -0.000000 0.000000 
0.000000 -0.000000 0.000000 
0.000000 0.000000 0.000000 

0.000000 0.000000 0.000000 
0.000000 0.000000 0.000000 
0.000000 0.000000 0.000000 

-0.000000 0.000000 0.000000 
0.000000 -0.000000 0.000000 
0.000000 0.000000 0.000000 

-0.000000 0.000000 0.000000 
0.000000 -0.000000 0.000000 
0.000000 0.000000 0.000000 

TENSORS STRAIN float 
-0.000000 0.000000 0.000000 
0.000000 -0.000000 0.000000 
0.000000 0.000000 0.000000 

0.000000 -0.000000 0.000000 
0.000000 0.000000 0.000000 
0.000000 0.000000 0.000000 

-0.000000 0.000000 0.000000 
0.000000 0.000000 0.000000 
0.000000 0.000000 0.000000 

0.000000 0.000000 0.000000 
0.000000 -0.000000 0.000000 
0.000000 0.000000 0.000000 

-0.000000 0.000000 0.000000 
0.000000 -0.000000 0.000000 
0.000000 0.000000 0.000000 

-0.000000 -0.000000 0.000000 
0.000000 -0.000000 0.000000 
0.000000 0.000000 0.000000 

0.000000 0.000000 0.000000 
0.000000 -0.000000 0.000000 
0.000000 0.000000 0.000000 

-0.000000 0.000000 0.000000 
0.000000 0.000000 0.000000 
0.000000 0.000000 0.000000 

-0.000000 -0.000000 0.000000 
0.000000 0.000000 0.000000 
0.000000 0.000000 0.000000 

0.000000 -0.000000 0.000000 
0.000000 -0.000000 0.000000 
0.000000 0.000000 0.000000 

0.000000 0.000000 0.000000 
0.000000 -0.000000 0.000000 
0.000000 0.000000 0.000000 

0.000000 0.000000 0.000000 
0.000000 0.000000 0.000000 
0.000000 0.000000 0.000000 

0.000000 0.000000 0.000000 
0.000000 -0.000000 0.000000 
0.000000 0.000000 0.000000 

-0.000000 -0.000000 0.000000 
0.000000 0.000000 0.000000 
0.000000 0.000000 0.000000 

-0.000000 -0.000000 0.000000 
0.000000 0.000000 0.000000 
0.000000 0.000000 0.000000 

0.000000 -0.000000 0.000000 
0.000000 -0.000000 0.000000 
0.000000 0.000000 0.000000 

-0.000000 0.000000 0.000000 
0.000000 -0.000000 0.000000 
0.000000 0.000000 0.000000 

-0.000000 -0.000000 0.000000 
0.000000 -0.000000 0.000000 
0.000000 0.000000 0.000000 

0.000000 -0.000000 0.000000 
0.000000 0.000000 0.000000 
0.000000 0.000000 0.000000 

-0.000000 0.000000 0.000000 
0.000000 0.000000 0.000000 
0.000000 0.000000 0.000000 

-0.000000 -0.000000 0.000000 
0.000000 0.000000 0.000000 
0.000000 0.000000 0.000000 

-0.000000 0.000000 0.000000 
0.000000 -0.000000 0.000000 
0.000000 0.000000 0.000000 

0.000000 0.000000 0.000000 
0.000000 -0.000000 0.000000 
0.000000 0.000000 0.000000 

0.000000 -0.000000 0.000000 
0.000000 0.000000 0.000000 
0.000000 0.000000 0.000000 

0.000000 -0.000000 0.000000 
0.000000 -0.000000 0.000000 
0.000000 0.000000 0.000000 

-0.000000 0.000000 0.000000 
0.000000 0.000000 0.000000 
0.000000 0.000000 0.000000 

0.000000 -0.000000 0.000000 
0.000000 -0.000000 0.000000 
0.000000 0.000000 0.000000 

0.000000 -0.000000 0.000000 
0.000000 0.000000 0.000000 
0.000000 0.000000 0.000000 

0.000000 -0.000000 0.000000 
0.000000 -0.000000 0.000000 
0.000000 0.000000 0.000000 

-0.000000 -0.000000 0.000000 
0.000000 0.000000 0.000000 
0.000000 0.000000 0.000000 

0.000000 -0.000000 0.000000 
0.000000 0.000000 0.000000 
0.000000 0.000000 0.000000 

-0.000000 -0.000000 0.000000 
0.000000 0.000000 0.000000 
0.000000 0.000000 0.000000 

0.000000 0.000000 0.000000 
0.000000 -0.000000 0.000000 
0.000000 0.000000 0.000000 

0.000000 -0.000000 0.000000 
0.000000 0.000000 0.000000 
0.000000 0.000000 0.000000 

-0.000000 0.000000 0.000000 
0.000000 0.000000 0.000000 
0.000000 0.000000 0.000000 

-0.000000 -0.000000 0.000000 
0.000000 0.000000 0.000000 
0.000000 0.000000 0.000000 

-0.000000 -0.000000 0.000000 
0.000000 0.000000 0.000000 
0.000000 0.000000 0.000000 

-0.000000 -0.000000 0.000000 
0.000000 0.000000 0.000000 
0.000000 0.000000 0.000000 

0.000000 -0.000000 0.000000 
0.000000 -0.000000 0.000000 
0.000000 0.000000 0.000000 

0.000000 -0.000000 0.000000 
0.000000 -0.000000 0.000000 
0.000000 0.000000 0.000000 

0.000000 -0.000000 0.000000 
0.000000 -0.000000 0.000000 
0.000000 0.000000 0.000000 

-0.000000 -0.000000 0.000000 
0.000000 0.000000 0.000000 
0.000000 0.000000 0.000000 

0.000000 0.000000 0.000000 
0.000000 -0.000000 0.000000 
0.000000 0.000000 0.000000 

0.000000 0.000000 0.000000 
0.000000 -0.000000 0.000000 
0.000000 0.000000 0.000000 

0.000000 -0.000000 0.000000 
0.000000 -0.000000 0.000000 
0.000000 0.000000 0.000000 

-0.000000 -0.000000 0.000000 
0.000000 0.000000 0.000000 
0.000000 0.000000 0.000000 

-0.000000 -0.000000 0.000000 
0.000000 0.000000 0.000000 
0.000000 0.000000 0.000000 

-0.000000 0.000000 0.000000 
0.000000 0.000000 0.000000 
0.000000 0.000000 0.000000 

0.000000 0.000000 0.000000 
0.000000 0.000000 0.000000 
0.000000 0.000000 0.000000 

0.000000 0.000000 0.000000 
0.000000 0.000000 0.000000 
0.000000 0.000000 0.000000 

-0.000000 0.000000 0.000000 
0.000000 -0.000000 0.000000 
0.000000 0.000000 0.000000 

-0.000000 -0.000000 0.000000 
0.000000 0.000000 0.000000 
0.000000 0.000000 0.000000 

0.000000 0.000000 0.000000 
0.000000 -0.000000 0.000000 
0.000000 0.000000 0.000000 

0.000000 0.000000 0.000000 
0.000000 0.000000 0.000000 
0.000000 0.000000 0.000000 

0.000000 0.000000 0.000000 
0.000000 0.000000 0.000000 
0.000000 0.000000 0.000000 

0.000000 0.000000 0.000000 
0.000000 -0.000000 0.000000 
0.000000 0.000000 0.000000 

0.000000 0.000000 0.000000 
0.000000 0.000000 0.000000 
0.000000 0.000000 0.000000 

0.000000 0.000000 0.000000 
0.000000 0.000000 0.000000 
0.000000 0.000000 0.000000 

-0.000000 -0.000000 0.000000 
0.000000 -0.000000 0.000000 
0.000000 0.000000 0.000000 

-0.000000 -0.000000 0.000000 
0.000000 -0.000000 0.000000 
0.000000 0.000000 0.000000 

0.000000 0.000000 0.000000 
0.000000 -0.000000 0.000000 
0.000000 0.000000 0.000000 

0.000000 -0.000000 0.000000 
0.000000 0.000000 0.000000 
0.000000 0.000000 0.000000 

0.000000 -0.000000 0.000000 
0.000000 -0.000000 0.000000 
0.000000 0.000000 0.000000 

0.000000 -0.000000 0.000000 
0.000000 0.000000 0.000000 
0.000000 0.000000 0.000000 

-0.000000 0.000000 0.000000 
0.000000 0.000000 0.000000 
0.000000 0.000000 0.000000 

-0.000000 -0.000000 0.000000 
0.000000 0.000000 0.000000 
0.000000 0.000000 0.000000 

-0.000000 -0.000000 0.000000 
0.000000 -0.000000 0.000000 
0.000000 0.000000 0.000000 

0.000000 -0.000000 0.000000 
0.000000 -0.000000 0.000000 
0.000000 0.000000 0.000000 

0.000000 0.000000 0.000000 
0.000000 -0.000000 0.000000 
0.000000 0.000000 0.000000 

0.000000 -0.000000 0.000000 
0.000000 0.000000 0.000000 
0.000000 0.000000 0.000000 

0.000000 -0.000000 0.000000 
0.000000 -0.000000 0.000000 
0.000000 0.000000 0.000000 

0.000000 0.000000 0.000000 
0.000000 0.000000 0.000000 
0.000000 0.000000 0.000000 

0.000000 -0.000000 0.000000 
0.000000 -0.000000 0.000000 
0.000000 0.000000 0.000000 

0.000000 -0.000000 0.000000 
0.000000 -0.000000 0.000000 
0.000000 0.000000 0.000000 

-0.000000 0.000000 0.000000 
0.000000 -0.000000 0.000000 
0.000000 0.000000 0.000000 

-0.000000 0.000000 0.000000 
0.000000 -0.000000 0.000000 
0.000000 0.000000 0.000000 

-0.000000 0.000000 0.000000 
0.000000 -0.000000 0.000000 
0.000000 0.000000 0.000000 

-0.000000 0.000000 0.000000 
0.000000 -0.000000 0.000000 
0.000000 0.000000 0.000000 

-0.000000 0.000000 0.000000 
0.000000 0.000000 0.000000 
0.000000 0.000000 0.000000 

-0.000000 -0.000000 0.000000 
0.000000 0.000000 0.000000 
0.000000 0.000000 0.000000 

-0.000000 0.000000 0.000000 
0.000000 -0.000000 0.000000 
0.000000 0.000000 0.000000 

-0.000000 -0.000000 0.000000 
0.000000 -0.000000 0.000000 
0.000000 0.000000 0.000000 

-0.000000 0.000000 0.000000 
0.000000 0.000000 0.000000 
0.000000 0.000000 0.000000 

0.000000 -0.000000 0.000000 
0.000000 -0.000000 0.000000 
0.000000 0.000000 0.000000 

-0.000000 -0.000000 0.000000 
0.000000 0.000000 0.000000 
0.000000 0.000000 0.000000 

-0.000000 -0.000000 0.000000 
0.000000 -0.000000 0.000000 
0.000000 0.000000 0.000000 

0.000000 -0.000000 0.000000 
0.000000 0.000000 0.000000 
0.000000 0.000000 0.000000 

-0.000000 -0.000000 0.000000 
0.000000 0.000000 0.000000 
0.000000 0.000000 0.000000 

0.000000 -0.000000 0.000000 
0.000000 0.000000 0.000000 
0.000000 0.000000 0.000000 

-0.000000 -0.000000 0.000000 
0.000000 0.000000 0.000000 
0.000000 0.000000 0.000000 

-0.000000 0.000000 0.000000 
0.000000 0.000000 0.000000 
0.000000 0.000000 0.000000 

-0.000000 -0.000000 0.000000 
0.000000 0.000000 0.000000 
0.000000 0.000000 0.000000 

-0.000000 -0.000000 0.000000 
0.000000 -0.000000 0.000000 
0.000000 0.000000 0.000000 

-0.000000 -0.000000 0.000000 
0.000000 0.000000 0.000000 
0.000000 0.000000 0.000000 

0.000000 -0.000000 0.000000 
0.000000 -0.000000 0.000000 
0.000000 0.000000 0.000000 

-0.000000 0.000000 0.000000 
0.000000 0.000000 0.000000 
0.000000 0.000000 0.000000 

0.000000 -0.000000 0.000000 
0.000000 -0.000000 0.000000 
0.000000 0.000000 0.000000 

-0.000000 -0.000000 0.000000 
0.000000 -0.000000 0.000000 
0.000000 0.000000 0.000000 

-0.000000 -0.000000 0.000000 
0.000000 -0.000000 0.000000 
0.000000 0.000000 0.000000 

-0.000000 0.000000 0.000000 
0.000000 -0.000000 0.000000 
0.000000 0.000000 0.000000 

-0.000000 -0.000000 0.000000 
0.000000 0.000000 0.000000 
0.000000 0.000000 0.000000 

0.000000 -0.000000 0.000000 
0.000000 -0.000000 0.000000 
0.000000 0.000000 0.000000 

0.000000 -0.000000 0.000000 
0.000000 0.000000 0.000000 
0.000000 0.000000 0.000000 

-0.000000 -0.000000 0.000000 
0.000000 0.000000 0.000000 
0.000000 0.000000 0.000000 

-0.000000 0.000000 0.000000 
0.000000 -0.000000 0.000000 
0.000000 0.000000 0.000000 

-0.000000 0.000000 0.000000 
0.000000 0.000000 0.000000 
0.000000 0.000000 0.000000 

-0.000000 -0.000000 0.000000 
0.000000 0.000000 0.000000 
0.000000 0.000000 0.000000 

-0.000000 -0.000000 0.000000 
0.000000 0.000000 0.000000 
0.000000 0.000000 0.000000 

-0.000000 -0.000000 0.000000 
0.000000 -0.000000 0.000000 
0.000000 0.000000 0.000000 

0.000000 0.000000 0.000000 
0.000000 0.000000 0.000000 
0.000000 0.000000 0.000000 

0.000000 0.000000 0.000000 
0.000000 -0.000000 0.000000 
0.000000 0.000000 0.000000 

0.000000 -0.000000 0.000000 
0.000000 -0.000000 0.000000 
0.000000 0.000000 0.000000 

0.000000 0.000000 0.000000 
0.000000 -0.000000 0.000000 
0.000000 0.000000 0.000000 

0.000000 0.000000 0.000000 
0.000000 -0.000000 0.000000 
0.000000 0.000000 0.000000 

0.000000 -0.000000 0.000000 
0.000000 0.000000 0.000000 
0.000000 0.000000 0.000000 

-0.000000 0.000000 0.000000 
0.000000 -0.000000 0.000000 
0.000000 0.000000 0.000000 

0.000000 0.000000 0.000000 
0.000000 -0.000000 0.000000 
0.000000 0.000000 0.000000 

0.000000 0.000000 0.000000 
0.000000 -0.000000 0.000000 
0.000000 0.000000 0.000000 

0.000000 0.000000 0.000000 
0.000000 -0.000000 0.000000 
0.000000 0.000000 0.000000 

0.000000 0.000000 0.000000 
0.000000 -0.000000 0.000000 
0.000000 0.000000 0.000000 

-0.000000 0.000000 0.000000 
0.000000 0.000000 0.000000 
0.000000 0.000000 0.000000 

-0.000000 0.000000 0.000000 
0.000000 -0.000000 0.000000 
0.000000 0.000000 0.000000 

0.000000 -0.000000 0.000000 
0.000000 0.000000 0.000000 
0.000000 0.000000 0.000000 

0.000000 -0.000000 0.000000 
0.000000 -0.000000 0.000000 
0.000000 0.000000 0.000000 

-0.000000 0.000000 0.000000 
0.000000 -0.000000 0.000000 
0.000000 0.000000 0.000000 

-0.000000 0.000000 0.000000 
0.000000 -0.000000 0.000000 
0.000000 0.000000 0.000000 

0.000000 0.000000 0.000000 
0.000000 -0.000000 0.000000 
0.000000 0.000000 0.000000 

0.000000 0.000000 0.000000 
0.000000 -0.000000 0.000000 
0.000000 0.000000 0.000000 

0.000000 0.000000 0.000000 
0.000000 0.000000 0.000000 
0.000000 0.000000 0.000000 

-0.000000 0.000000 0.000000 
0.000000 -0.000000 0.000000 
0.000000 0.000000 0.000000 

0.000000 0.000000 0.000000 
0.000000 0.000000 0.000000 
0.000000 0.000000 0.000000 

-0.000000 -0.000000 0.000000 
0.000000 0.000000 0.000000 
0.000000 0.000000 0.000000 

0.000000 -0.000000 0.000000 
0.000000 -0.000000 0.000000 
0.000000 0.000000 0.000000 

-0.000000 0.000000 0.000000 
0.000000 -0.000000 0.000000 
0.000000 0.000000 0.000000 

-0.000000 -0.000000 0.000000 
0.000000 -0.000000 0.000000 
0.000000 0.000000 0.000000 

-0.000000 -0.000000 0.000000 
0.000000 0.000000 0.000000 
0.000000 0.000000 0.000000 

-0.000000 -0.000000 0.000000 
0.000000 0.000000 0.000000 
0.000000 0.000000 0.000000 

-0.000000 -0.000000 0.000000 
0.000000 0.000000 0.000000 
0.000000 0.000000 0.000000 

-0.000000 -0.000000 0.000000 
0.000000 0.000000 0.000000 
0.000000 0.000000 0.000000 

-0.000000 -0.000000 0.000000 
0.000000 0.000000 0.000000 
0.000000 0.000000 0.000000 

-0.000000 -0.000000 0.000000 
0.000000 0.000000 0.000000 
0.000000 0.000000 0.000000 

-0.000000 0.000000 0.000000 
0.000000 0.000000 0.000000 
0.000000 0.000000 0.000000 

-0.000000 -0.000000 0.000000 
0.000000 -0.000000 0.000000 
0.000000 0.000000 0.000000 

-0.000000 0.000000 0.000000 
0.000000 0.000000 0.000000 
0.000000 0.000000 0.000000 

-0.000000 -0.000000 0.000000 
0.000000 0.000000 0.000000 
0.000000 0.000000 0.000000 

-0.000000 -0.000000 0.000000 
0.000000 0.000000 0.000000 
0.000000 0.000000 0.000000 

0.000000 0.000000 0.000000 
0.000000 -0.000000 0.000000 
0.000000 0.000000 0.000000 

0.000000 -0.000000 0.000000 
0.000000 -0.000000 0.000000 
0.000000 0.000000 0.000000 

0.000000 0.000000 0.000000 
0.000000 -0.000000 0.000000 
0.000000 0.000000 0.000000 

0.000000 0.000000 0.000000 
0.000000 0.000000 0.000000 
0.000000 0.000000 0.000000 

-0.000000 0.000000 0.000000 
0.000000 -0.000000 0.000000 
0.000000 0.000000 0.000000 

0.000000 0.000000 0.000000 
0.000000 -0.000000 0.000000 
0.000000 0.000000 0.000000 

-0.000000 0.000000 0.000000 
0.000000 0.000000 0.000000 
0.000000 0.000000 0.000000 

-0.000000 0.000000 0.000000 
0.000000 0.000000 0.000000 
0.000000 0.000000 0.000000 

-0.000000 -0.000000 0.000000 
0.000000 -0.000000 0.000000 
0.000000 0.000000 0.000000 

-0.000000 0.000000 0.000000 
0.000000 0.000000 0.000000 
0.000000 0.000000 0.000000 

0.000000 -0.000000 0.000000 
0.000000 0.000000 0.000000 
0.000000 0.000000 0.000000 

0.000000 -0.000000 0.000000 
0.000000 0.000000 0.000000 
0.000000 0.000000 0.000000 

0.000000 0.000000 0.000000 
0.000000 -0.000000 0.000000 
0.000000 0.000000 0.000000 

0.000000 0.000000 0.000000 
0.000000 -0.000000 0.000000 
0.000000 0.000000 0.000000 

-0.000000 -0.000000 0.000000 
0.000000 -0.000000 0.000000 
0.000000 0.000000 0.000000 

-0.000000 0.000000 0.000000 
0.000000 0.000000 0.000000 
0.000000 0.000000 0.000000 

0.000000 -0.000000 0.000000 
0.000000 -0.000000 0.000000 
0.000000 0.000000 0.000000 

0.000000 -0.000000 0.000000 
0.000000 -0.000000 0.000000 
0.000000 0.000000 0.000000 

0.000000 0.000000 0.000000 
0.000000 0.000000 0.000000 
0.000000 0.000000 0.000000 

-0.000000 0.000000 0.000000 
0.000000 -0.000000 0.000000 
0.000000 0.000000 0.000000 

0.000000 -0.000000 0.000000 
0.000000 -0.000000 0.000000 
0.000000 0.000000 0.000000 

0.000000 -0.000000 0.000000 
0.000000 -0.000000 0.000000 
0.000000 0.000000 0.000000 

-0.000000 -0.000000 0.000000 
0.000000 0.000000 0.000000 
0.000000 0.000000 0.000000 

-0.000000 -0.000000 0.000000 
0.000000 0.000000 0.000000 
0.000000 0.000000 0.000000 

-0.000000 -0.000000 0.000000 
0.000000 0.000000 0.000000 
0.000000 0.000000 0.000000 

-0.000000 -0.000000 0.000000 
0.000000 0.000000 0.000000 
0.000000 0.000000 0.000000 

0.000000 0.000000 0.000000 
0.000000 0.000000 0.000000 
0.000000 0.000000 0.000000 

-0.000000 0.000000 0.000000 
0.000000 0.000000 0.000000 
0.000000 0.000000 0.000000 

-0.000000 0.000000 0.000000 
0.000000 0.000000 0.000000 
0.000000 0.000000 0.000000 

