# vtk DataFile Version 3.0 
vtk output 
ASCII 
DATASET UNSTRUCTURED_GRID 
POINTS 175 float 
-0.026061 -0.285932 0.000000 
-0.106992 -0.217877 0.000000 
-0.054870 -0.226109 0.000000 
-0.028809 -0.180226 0.000000 
-0.186430 -0.153801 0.000000 
-0.137056 -0.156327 0.000000 
-0.114311 -0.102680 0.000000 
-0.058186 -0.118346 0.000000 
-0.029377 -0.078168 0.000000 
-0.265318 -0.090645 0.000000 
-0.217198 -0.091445 0.000000 
-0.196633 -0.034148 0.000000 
-0.143120 -0.042857 0.000000 
-0.116563 0.004411 0.000000 
-0.058945 -0.015234 0.000000 
-0.029568 0.022886 0.000000 
-0.344206 -0.027489 0.000000 
-0.296791 -0.027482 0.000000 
-0.278030 0.032460 0.000000 
-0.225992 0.026594 0.000000 
-0.201664 0.078711 0.000000 
-0.145749 0.065237 0.000000 
-0.117890 0.109580 0.000000 
-0.059328 0.086874 0.000000 
-0.029759 0.123940 0.000000 
-0.058559 -0.326683 0.000000 
-0.162226 -0.347525 0.000000 
-0.123292 -0.311908 0.000000 
-0.142917 -0.262924 0.000000 
-0.261851 -0.369682 0.000000 
-0.229092 -0.332655 0.000000 
-0.256854 -0.281423 0.000000 
-0.209613 -0.247311 0.000000 
-0.223062 -0.199737 0.000000 
-0.360414 -0.391982 0.000000 
-0.329787 -0.354859 0.000000 
-0.361761 -0.303057 0.000000 
-0.321587 -0.266648 0.000000 
-0.341985 -0.216414 0.000000 
-0.290702 -0.183615 0.000000 
-0.302189 -0.136880 0.000000 
-0.458977 -0.414282 0.000000 
-0.429420 -0.377207 0.000000 
-0.464588 -0.325166 0.000000 
-0.427556 -0.288138 0.000000 
-0.453135 -0.236623 0.000000 
-0.407738 -0.201308 0.000000 
-0.425037 -0.151880 0.000000 
-0.370772 -0.120251 0.000000 
-0.381315 -0.074023 0.000000 
-0.046960 -0.377498 0.000000 
-0.095301 -0.471544 0.000000 
-0.098873 -0.418897 0.000000 
-0.149405 -0.403699 0.000000 
-0.140093 -0.563248 0.000000 
-0.148617 -0.514550 0.000000 
-0.205981 -0.504312 0.000000 
-0.203197 -0.446109 0.000000 
-0.248777 -0.426962 0.000000 
-0.184111 -0.654212 0.000000 
-0.194039 -0.607120 0.000000 
-0.254475 -0.599821 0.000000 
-0.257893 -0.545711 0.000000 
-0.309886 -0.530339 0.000000 
-0.303554 -0.469793 0.000000 
-0.347255 -0.449636 0.000000 
-0.228129 -0.745175 0.000000 
-0.238687 -0.698951 0.000000 
-0.301302 -0.693999 0.000000 
-0.307162 -0.641960 0.000000 
-0.363386 -0.629839 0.000000 
-0.362692 -0.572328 0.000000 
-0.412122 -0.555034 0.000000 
-0.403017 -0.492888 0.000000 
-0.445733 -0.472309 0.000000 
-0.000000 -0.400113 0.000000 
0.043388 -0.496544 0.000000 
-0.000000 -0.466511 0.000000 
-0.043388 -0.496544 0.000000 
0.087158 -0.588740 0.000000 
0.043769 -0.565042 0.000000 
-0.000000 -0.603507 0.000000 
-0.043769 -0.565042 0.000000 
-0.087158 -0.588740 0.000000 
0.130831 -0.679870 0.000000 
0.087824 -0.658271 0.000000 
0.044436 -0.700971 0.000000 
-0.000000 -0.669906 0.000000 
-0.044436 -0.700971 0.000000 
-0.087824 -0.658271 0.000000 
-0.130831 -0.679870 0.000000 
0.174505 -0.770999 0.000000 
0.131782 -0.750433 0.000000 
0.088871 -0.796300 0.000000 
0.044532 -0.768436 0.000000 
-0.000000 -0.804836 0.000000 
-0.044532 -0.768436 0.000000 
-0.088871 -0.796300 0.000000 
-0.131782 -0.750433 0.000000 
-0.174505 -0.770999 0.000000 
0.046960 -0.377498 0.000000 
0.149405 -0.403699 0.000000 
0.098873 -0.418897 0.000000 
0.095301 -0.471544 0.000000 
0.248777 -0.426962 0.000000 
0.203197 -0.446109 0.000000 
0.205981 -0.504312 0.000000 
0.148617 -0.514550 0.000000 
0.140093 -0.563248 0.000000 
0.347255 -0.449636 0.000000 
0.303554 -0.469793 0.000000 
0.309886 -0.530339 0.000000 
0.257893 -0.545711 0.000000 
0.254475 -0.599821 0.000000 
0.194039 -0.607120 0.000000 
0.184111 -0.654212 0.000000 
0.445733 -0.472309 0.000000 
0.403017 -0.492888 0.000000 
0.412122 -0.555034 0.000000 
0.362692 -0.572328 0.000000 
0.363386 -0.629839 0.000000 
0.307162 -0.641960 0.000000 
0.301302 -0.693999 0.000000 
0.238687 -0.698951 0.000000 
0.228129 -0.745175 0.000000 
0.058559 -0.326683 0.000000 
0.142917 -0.262924 0.000000 
0.123292 -0.311908 0.000000 
0.162226 -0.347525 0.000000 
0.223062 -0.199737 0.000000 
0.209613 -0.247311 0.000000 
0.256854 -0.281423 0.000000 
0.229092 -0.332655 0.000000 
0.261851 -0.369682 0.000000 
0.302189 -0.136880 0.000000 
0.290702 -0.183615 0.000000 
0.341985 -0.216414 0.000000 
0.321587 -0.266648 0.000000 
0.361761 -0.303057 0.000000 
0.329787 -0.354859 0.000000 
0.360414 -0.391982 0.000000 
0.381315 -0.074023 0.000000 
0.370772 -0.120251 0.000000 
0.425037 -0.151880 0.000000 
0.407738 -0.201308 0.000000 
0.453135 -0.236623 0.000000 
0.427556 -0.288138 0.000000 
0.464588 -0.325166 0.000000 
0.429420 -0.377207 0.000000 
0.458977 -0.414282 0.000000 
0.026061 -0.285932 0.000000 
0.028809 -0.180226 0.000000 
0.054870 -0.226109 0.000000 
0.106992 -0.217877 0.000000 
0.029377 -0.078168 0.000000 
0.058186 -0.118346 0.000000 
0.114311 -0.102680 0.000000 
0.137056 -0.156327 0.000000 
0.186430 -0.153801 0.000000 
0.029568 0.022886 0.000000 
0.058945 -0.015234 0.000000 
0.116563 0.004411 0.000000 
0.143120 -0.042857 0.000000 
0.196633 -0.034148 0.000000 
0.217198 -0.091445 0.000000 
0.265318 -0.090645 0.000000 
0.029759 0.123940 0.000000 
0.059328 0.086874 0.000000 
0.117890 0.109580 0.000000 
0.145749 0.065237 0.000000 
0.201664 0.078711 0.000000 
0.225992 0.026594 0.000000 
0.278030 0.032460 0.000000 
0.296791 -0.027482 0.000000 
0.344206 -0.027489 0.000000 
CELLS 175 350 
1 0 
1 1 
1 2 
1 3 
1 4 
1 5 
1 6 
1 7 
1 8 
1 9 
1 10 
1 11 
1 12 
1 13 
1 14 
1 15 
1 16 
1 17 
1 18 
1 19 
1 20 
1 21 
1 22 
1 23 
1 24 
1 25 
1 26 
1 27 
1 28 
1 29 
1 30 
1 31 
1 32 
1 33 
1 34 
1 35 
1 36 
1 37 
1 38 
1 39 
1 40 
1 41 
1 42 
1 43 
1 44 
1 45 
1 46 
1 47 
1 48 
1 49 
1 50 
1 51 
1 52 
1 53 
1 54 
1 55 
1 56 
1 57 
1 58 
1 59 
1 60 
1 61 
1 62 
1 63 
1 64 
1 65 
1 66 
1 67 
1 68 
1 69 
1 70 
1 71 
1 72 
1 73 
1 74 
1 75 
1 76 
1 77 
1 78 
1 79 
1 80 
1 81 
1 82 
1 83 
1 84 
1 85 
1 86 
1 87 
1 88 
1 89 
1 90 
1 91 
1 92 
1 93 
1 94 
1 95 
1 96 
1 97 
1 98 
1 99 
1 100 
1 101 
1 102 
1 103 
1 104 
1 105 
1 106 
1 107 
1 108 
1 109 
1 110 
1 111 
1 112 
1 113 
1 114 
1 115 
1 116 
1 117 
1 118 
1 119 
1 120 
1 121 
1 122 
1 123 
1 124 
1 125 
1 126 
1 127 
1 128 
1 129 
1 130 
1 131 
1 132 
1 133 
1 134 
1 135 
1 136 
1 137 
1 138 
1 139 
1 140 
1 141 
1 142 
1 143 
1 144 
1 145 
1 146 
1 147 
1 148 
1 149 
1 150 
1 151 
1 152 
1 153 
1 154 
1 155 
1 156 
1 157 
1 158 
1 159 
1 160 
1 161 
1 162 
1 163 
1 164 
1 165 
1 166 
1 167 
1 168 
1 169 
1 170 
1 171 
1 172 
1 173 
1 174 
CELL_TYPES 175 
1 
1 
1 
1 
1 
1 
1 
1 
1 
1 
1 
1 
1 
1 
1 
1 
1 
1 
1 
1 
1 
1 
1 
1 
1 
1 
1 
1 
1 
1 
1 
1 
1 
1 
1 
1 
1 
1 
1 
1 
1 
1 
1 
1 
1 
1 
1 
1 
1 
1 
1 
1 
1 
1 
1 
1 
1 
1 
1 
1 
1 
1 
1 
1 
1 
1 
1 
1 
1 
1 
1 
1 
1 
1 
1 
1 
1 
1 
1 
1 
1 
1 
1 
1 
1 
1 
1 
1 
1 
1 
1 
1 
1 
1 
1 
1 
1 
1 
1 
1 
1 
1 
1 
1 
1 
1 
1 
1 
1 
1 
1 
1 
1 
1 
1 
1 
1 
1 
1 
1 
1 
1 
1 
1 
1 
1 
1 
1 
1 
1 
1 
1 
1 
1 
1 
1 
1 
1 
1 
1 
1 
1 
1 
1 
1 
1 
1 
1 
1 
1 
1 
1 
1 
1 
1 
1 
1 
1 
1 
1 
1 
1 
1 
1 
1 
1 
1 
1 
1 
1 
1 
1 
1 
1 
1 
POINT_DATA 175 
VECTORS X_GC float 
-0.026061 -0.285932 0.000000 
-0.106992 -0.217877 0.000000 
-0.054870 -0.226109 0.000000 
-0.028809 -0.180226 0.000000 
-0.186430 -0.153801 0.000000 
-0.137056 -0.156327 0.000000 
-0.114311 -0.102680 0.000000 
-0.058186 -0.118346 0.000000 
-0.029377 -0.078168 0.000000 
-0.265318 -0.090645 0.000000 
-0.217198 -0.091445 0.000000 
-0.196633 -0.034148 0.000000 
-0.143120 -0.042857 0.000000 
-0.116563 0.004411 0.000000 
-0.058945 -0.015234 0.000000 
-0.029568 0.022886 0.000000 
-0.344206 -0.027489 0.000000 
-0.296791 -0.027482 0.000000 
-0.278030 0.032460 0.000000 
-0.225992 0.026594 0.000000 
-0.201664 0.078711 0.000000 
-0.145749 0.065237 0.000000 
-0.117890 0.109580 0.000000 
-0.059328 0.086874 0.000000 
-0.029759 0.123940 0.000000 
-0.058559 -0.326683 0.000000 
-0.162226 -0.347525 0.000000 
-0.123292 -0.311908 0.000000 
-0.142917 -0.262924 0.000000 
-0.261851 -0.369682 0.000000 
-0.229092 -0.332655 0.000000 
-0.256854 -0.281423 0.000000 
-0.209613 -0.247311 0.000000 
-0.223062 -0.199737 0.000000 
-0.360414 -0.391982 0.000000 
-0.329787 -0.354859 0.000000 
-0.361761 -0.303057 0.000000 
-0.321587 -0.266648 0.000000 
-0.341985 -0.216414 0.000000 
-0.290702 -0.183615 0.000000 
-0.302189 -0.136880 0.000000 
-0.458977 -0.414282 0.000000 
-0.429420 -0.377207 0.000000 
-0.464588 -0.325166 0.000000 
-0.427556 -0.288138 0.000000 
-0.453135 -0.236623 0.000000 
-0.407738 -0.201308 0.000000 
-0.425037 -0.151880 0.000000 
-0.370772 -0.120251 0.000000 
-0.381315 -0.074023 0.000000 
-0.046960 -0.377498 0.000000 
-0.095301 -0.471544 0.000000 
-0.098873 -0.418897 0.000000 
-0.149405 -0.403699 0.000000 
-0.140093 -0.563248 0.000000 
-0.148617 -0.514550 0.000000 
-0.205981 -0.504312 0.000000 
-0.203197 -0.446109 0.000000 
-0.248777 -0.426962 0.000000 
-0.184111 -0.654212 0.000000 
-0.194039 -0.607120 0.000000 
-0.254475 -0.599821 0.000000 
-0.257893 -0.545711 0.000000 
-0.309886 -0.530339 0.000000 
-0.303554 -0.469793 0.000000 
-0.347255 -0.449636 0.000000 
-0.228129 -0.745175 0.000000 
-0.238687 -0.698951 0.000000 
-0.301302 -0.693999 0.000000 
-0.307162 -0.641960 0.000000 
-0.363386 -0.629839 0.000000 
-0.362692 -0.572328 0.000000 
-0.412122 -0.555034 0.000000 
-0.403017 -0.492888 0.000000 
-0.445733 -0.472309 0.000000 
-0.000000 -0.400113 0.000000 
0.043388 -0.496544 0.000000 
-0.000000 -0.466511 0.000000 
-0.043388 -0.496544 0.000000 
0.087158 -0.588740 0.000000 
0.043769 -0.565042 0.000000 
-0.000000 -0.603507 0.000000 
-0.043769 -0.565042 0.000000 
-0.087158 -0.588740 0.000000 
0.130831 -0.679870 0.000000 
0.087824 -0.658271 0.000000 
0.044436 -0.700971 0.000000 
-0.000000 -0.669906 0.000000 
-0.044436 -0.700971 0.000000 
-0.087824 -0.658271 0.000000 
-0.130831 -0.679870 0.000000 
0.174505 -0.770999 0.000000 
0.131782 -0.750433 0.000000 
0.088871 -0.796300 0.000000 
0.044532 -0.768436 0.000000 
-0.000000 -0.804836 0.000000 
-0.044532 -0.768436 0.000000 
-0.088871 -0.796300 0.000000 
-0.131782 -0.750433 0.000000 
-0.174505 -0.770999 0.000000 
0.046960 -0.377498 0.000000 
0.149405 -0.403699 0.000000 
0.098873 -0.418897 0.000000 
0.095301 -0.471544 0.000000 
0.248777 -0.426962 0.000000 
0.203197 -0.446109 0.000000 
0.205981 -0.504312 0.000000 
0.148617 -0.514550 0.000000 
0.140093 -0.563248 0.000000 
0.347255 -0.449636 0.000000 
0.303554 -0.469793 0.000000 
0.309886 -0.530339 0.000000 
0.257893 -0.545711 0.000000 
0.254475 -0.599821 0.000000 
0.194039 -0.607120 0.000000 
0.184111 -0.654212 0.000000 
0.445733 -0.472309 0.000000 
0.403017 -0.492888 0.000000 
0.412122 -0.555034 0.000000 
0.362692 -0.572328 0.000000 
0.363386 -0.629839 0.000000 
0.307162 -0.641960 0.000000 
0.301302 -0.693999 0.000000 
0.238687 -0.698951 0.000000 
0.228129 -0.745175 0.000000 
0.058559 -0.326683 0.000000 
0.142917 -0.262924 0.000000 
0.123292 -0.311908 0.000000 
0.162226 -0.347525 0.000000 
0.223062 -0.199737 0.000000 
0.209613 -0.247311 0.000000 
0.256854 -0.281423 0.000000 
0.229092 -0.332655 0.000000 
0.261851 -0.369682 0.000000 
0.302189 -0.136880 0.000000 
0.290702 -0.183615 0.000000 
0.341985 -0.216414 0.000000 
0.321587 -0.266648 0.000000 
0.361761 -0.303057 0.000000 
0.329787 -0.354859 0.000000 
0.360414 -0.391982 0.000000 
0.381315 -0.074023 0.000000 
0.370772 -0.120251 0.000000 
0.425037 -0.151880 0.000000 
0.407738 -0.201308 0.000000 
0.453135 -0.236623 0.000000 
0.427556 -0.288138 0.000000 
0.464588 -0.325166 0.000000 
0.429420 -0.377207 0.000000 
0.458977 -0.414282 0.000000 
0.026061 -0.285932 0.000000 
0.028809 -0.180226 0.000000 
0.054870 -0.226109 0.000000 
0.106992 -0.217877 0.000000 
0.029377 -0.078168 0.000000 
0.058186 -0.118346 0.000000 
0.114311 -0.102680 0.000000 
0.137056 -0.156327 0.000000 
0.186430 -0.153801 0.000000 
0.029568 0.022886 0.000000 
0.058945 -0.015234 0.000000 
0.116563 0.004411 0.000000 
0.143120 -0.042857 0.000000 
0.196633 -0.034148 0.000000 
0.217198 -0.091445 0.000000 
0.265318 -0.090645 0.000000 
0.029759 0.123940 0.000000 
0.059328 0.086874 0.000000 
0.117890 0.109580 0.000000 
0.145749 0.065237 0.000000 
0.201664 0.078711 0.000000 
0.225992 0.026594 0.000000 
0.278030 0.032460 0.000000 
0.296791 -0.027482 0.000000 
0.344206 -0.027489 0.000000 
VECTORS X_EC float 
0.338794 0.360082 0.000000 
-0.609100 -0.558666 0.000000 
0.713312 -0.447525 0.000000 
0.374519 0.933045 0.000000 
0.423588 0.576315 0.000000 
-0.218274 0.610418 0.000000 
-0.513962 -0.113821 0.000000 
0.756418 0.097665 0.000000 
0.381900 -0.444727 0.000000 
-0.550868 -0.276289 0.000000 
0.823577 -0.265493 0.000000 
0.556234 0.961003 0.000000 
-0.139443 -0.921428 0.000000 
-0.484677 0.440447 0.000000 
0.766286 0.705662 0.000000 
0.384386 0.191042 0.000000 
0.474677 0.871108 0.000000 
-0.141715 0.871012 0.000000 
-0.385608 0.061784 0.000000 
0.937896 0.140979 0.000000 
0.621631 -0.562601 0.000000 
-0.105264 -0.380702 0.000000 
-0.467428 -0.979328 0.000000 
0.771260 -0.672800 0.000000 
0.386873 0.826811 0.000000 
0.761262 0.910217 0.000000 
0.108942 -0.808407 0.000000 
-0.397202 0.710754 0.000000 
-0.142083 0.049479 0.000000 
-0.595936 -0.509296 0.000000 
0.978194 0.990838 0.000000 
-0.660903 0.299213 0.000000 
0.724964 -0.161307 0.000000 
0.899809 -0.803556 0.000000 
0.685384 -0.208244 0.000000 
0.287229 -0.709402 0.000000 
0.702895 0.591269 0.000000 
0.180633 0.099750 0.000000 
0.445811 -0.578409 0.000000 
-0.220880 0.978805 0.000000 
-0.071546 0.347879 0.000000 
-0.033296 0.092808 0.000000 
-0.417537 -0.407701 0.000000 
0.039645 0.889736 0.000000 
-0.441768 0.389865 0.000000 
-0.109248 -0.305586 0.000000 
-0.699407 -0.782341 0.000000 
-0.474522 0.550380 0.000000 
0.820030 0.123386 0.000000 
0.957100 -0.500686 0.000000 
0.610485 -0.403777 0.000000 
-0.761092 0.865842 0.000000 
-0.714655 0.155105 0.000000 
-0.057734 -0.050062 0.000000 
-0.178789 0.103847 0.000000 
-0.067979 -0.553579 0.000000 
0.677748 -0.691783 0.000000 
0.641556 0.522472 0.000000 
-0.765897 0.263993 0.000000 
0.393446 -0.668144 0.000000 
0.522510 0.696126 0.000000 
-0.691820 0.597582 0.000000 
-0.647393 -0.132901 0.000000 
0.028512 -0.340428 0.000000 
-0.053800 0.842212 0.000000 
0.514316 0.570081 0.000000 
0.965681 0.559865 0.000000 
-0.897068 -0.064164 0.000000 
-0.083078 -0.131017 0.000000 
-0.006893 -0.833542 0.000000 
0.724017 -0.997174 0.000000 
0.714996 0.226422 0.000000 
-0.642413 -0.007035 0.000000 
-0.760780 -0.846016 0.000000 
-0.205471 0.876169 0.000000 
0.000000 -0.098475 0.000000 
-0.564049 -0.796662 0.000000 
0.000000 0.797902 0.000000 
0.564049 -0.796662 0.000000 
0.866949 0.447993 0.000000 
-0.569003 0.128062 0.000000 
0.000000 0.647350 0.000000 
0.569003 0.128062 0.000000 
-0.866949 0.447993 0.000000 
0.299194 -0.321757 0.000000 
0.858290 -0.613341 0.000000 
-0.577662 -0.036895 0.000000 
0.000000 -0.456273 0.000000 
0.577662 -0.036895 0.000000 
-0.858290 -0.613341 0.000000 
-0.299194 -0.321757 0.000000 
-0.268560 0.908493 0.000000 
0.286830 0.630851 0.000000 
0.844677 -0.749950 0.000000 
-0.578910 0.873887 0.000000 
0.000000 -0.634709 0.000000 
0.578910 0.873887 0.000000 
-0.844677 -0.749950 0.000000 
-0.286830 0.630851 0.000000 
0.268560 0.908493 0.000000 
-0.610485 -0.403777 0.000000 
0.057734 -0.050062 0.000000 
0.714655 0.155105 0.000000 
0.761092 0.865842 0.000000 
0.765897 0.263993 0.000000 
-0.641556 0.522472 0.000000 
-0.677748 -0.691783 0.000000 
0.067979 -0.553579 0.000000 
0.178789 0.103847 0.000000 
-0.514316 0.570081 0.000000 
0.053800 0.842212 0.000000 
-0.028512 -0.340428 0.000000 
0.647393 -0.132901 0.000000 
0.691820 0.597582 0.000000 
-0.522510 0.696126 0.000000 
-0.393446 -0.668144 0.000000 
0.205471 0.876169 0.000000 
0.760780 -0.846016 0.000000 
0.642413 -0.007035 0.000000 
-0.714996 0.226422 0.000000 
-0.724017 -0.997174 0.000000 
0.006894 -0.833542 0.000000 
0.083078 -0.131017 0.000000 
0.897068 -0.064164 0.000000 
-0.965681 0.559865 0.000000 
-0.761262 0.910217 0.000000 
0.142083 0.049479 0.000000 
0.397202 0.710754 0.000000 
-0.108942 -0.808407 0.000000 
-0.899809 -0.803556 0.000000 
-0.724964 -0.161307 0.000000 
0.660903 0.299213 0.000000 
-0.978194 0.990838 0.000000 
0.595936 -0.509296 0.000000 
0.071546 0.347879 0.000000 
0.220880 0.978805 0.000000 
-0.445811 -0.578409 0.000000 
-0.180633 0.099750 0.000000 
-0.702895 0.591269 0.000000 
-0.287229 -0.709402 0.000000 
-0.685384 -0.208244 0.000000 
-0.957100 -0.500686 0.000000 
-0.820030 0.123386 0.000000 
0.474522 0.550380 0.000000 
0.699407 -0.782341 0.000000 
0.109248 -0.305586 0.000000 
0.441768 0.389865 0.000000 
-0.039645 0.889736 0.000000 
0.417537 -0.407701 0.000000 
0.033296 0.092808 0.000000 
-0.338794 0.360082 0.000000 
-0.374519 0.933045 0.000000 
-0.713312 -0.447525 0.000000 
0.609100 -0.558666 0.000000 
-0.381900 -0.444727 0.000000 
-0.756418 0.097665 0.000000 
0.513962 -0.113821 0.000000 
0.218274 0.610418 0.000000 
-0.423588 0.576315 0.000000 
-0.384386 0.191042 0.000000 
-0.766286 0.705662 0.000000 
0.484677 0.440447 0.000000 
0.139443 -0.921428 0.000000 
-0.556234 0.961003 0.000000 
-0.823577 -0.265493 0.000000 
0.550868 -0.276289 0.000000 
-0.386873 0.826811 0.000000 
-0.771260 -0.672800 0.000000 
0.467428 -0.979328 0.000000 
0.105264 -0.380702 0.000000 
-0.621631 -0.562601 0.000000 
-0.937896 0.140979 0.000000 
0.385608 0.061784 0.000000 
0.141715 0.871012 0.000000 
-0.474677 0.871108 0.000000 
CELL_DATA 175 
SCALARS MASS float 
LOOKUP_TABLE default 
0.781831 
0.864274 
0.946717 
0.864274 
0.881307 
0.921110 
0.858535 
0.921110 
0.881307 
0.887046 
0.910001 
0.869829 
0.915556 
0.869829 
0.910001 
0.887046 
0.892784 
0.915740 
0.892784 
0.927218 
0.892784 
0.927218 
0.892784 
0.915740 
0.892784 
0.781831 
0.864274 
0.946717 
0.864274 
0.881307 
0.921110 
0.858535 
0.921110 
0.881307 
0.887046 
0.910001 
0.869829 
0.915556 
0.869829 
0.910001 
0.887046 
0.892784 
0.915740 
0.892784 
0.927218 
0.892784 
0.927218 
0.892784 
0.915740 
0.892784 
0.781831 
0.864274 
0.946717 
0.864274 
0.881307 
0.921110 
0.858535 
0.921110 
0.881307 
0.887046 
0.910001 
0.869829 
0.915556 
0.869829 
0.910001 
0.887046 
0.892784 
0.915740 
0.892784 
0.927218 
0.892784 
0.927218 
0.892784 
0.915740 
0.892784 
0.781831 
0.864274 
0.946717 
0.864274 
0.881307 
0.921110 
0.858535 
0.921110 
0.881307 
0.887046 
0.910001 
0.869829 
0.915556 
0.869829 
0.910001 
0.887046 
0.892784 
0.915740 
0.892784 
0.927218 
0.892784 
0.927218 
0.892784 
0.915740 
0.892784 
0.781831 
0.864274 
0.946717 
0.864274 
0.881307 
0.921110 
0.858535 
0.921110 
0.881307 
0.887046 
0.910001 
0.869829 
0.915556 
0.869829 
0.910001 
0.887046 
0.892784 
0.915740 
0.892784 
0.927218 
0.892784 
0.927218 
0.892784 
0.915740 
0.892784 
0.781831 
0.864274 
0.946717 
0.864274 
0.881307 
0.921110 
0.858535 
0.921110 
0.881307 
0.887046 
0.910001 
0.869829 
0.915556 
0.869829 
0.910001 
0.887046 
0.892784 
0.915740 
0.892784 
0.927218 
0.892784 
0.927218 
0.892784 
0.915740 
0.892784 
0.781831 
0.864274 
0.946717 
0.864274 
0.881307 
0.921110 
0.858535 
0.921110 
0.881307 
0.887046 
0.910001 
0.869829 
0.915556 
0.869829 
0.910001 
0.887046 
0.892784 
0.915740 
0.892784 
0.927218 
0.892784 
0.927218 
0.892784 
0.915740 
0.892784 
SCALARS MASS float 
LOOKUP_TABLE default 
0.781831 
0.864274 
0.946717 
0.864274 
0.881307 
0.921110 
0.858535 
0.921110 
0.881307 
0.887046 
0.910001 
0.869829 
0.915556 
0.869829 
0.910001 
0.887046 
0.892784 
0.915740 
0.892784 
0.927218 
0.892784 
0.927218 
0.892784 
0.915740 
0.892784 
0.781831 
0.864274 
0.946717 
0.864274 
0.881307 
0.921110 
0.858535 
0.921110 
0.881307 
0.887046 
0.910001 
0.869829 
0.915556 
0.869829 
0.910001 
0.887046 
0.892784 
0.915740 
0.892784 
0.927218 
0.892784 
0.927218 
0.892784 
0.915740 
0.892784 
0.781831 
0.864274 
0.946717 
0.864274 
0.881307 
0.921110 
0.858535 
0.921110 
0.881307 
0.887046 
0.910001 
0.869829 
0.915556 
0.869829 
0.910001 
0.887046 
0.892784 
0.915740 
0.892784 
0.927218 
0.892784 
0.927218 
0.892784 
0.915740 
0.892784 
0.781831 
0.864274 
0.946717 
0.864274 
0.881307 
0.921110 
0.858535 
0.921110 
0.881307 
0.887046 
0.910001 
0.869829 
0.915556 
0.869829 
0.910001 
0.887046 
0.892784 
0.915740 
0.892784 
0.927218 
0.892784 
0.927218 
0.892784 
0.915740 
0.892784 
0.781831 
0.864274 
0.946717 
0.864274 
0.881307 
0.921110 
0.858535 
0.921110 
0.881307 
0.887046 
0.910001 
0.869829 
0.915556 
0.869829 
0.910001 
0.887046 
0.892784 
0.915740 
0.892784 
0.927218 
0.892784 
0.927218 
0.892784 
0.915740 
0.892784 
0.781831 
0.864274 
0.946717 
0.864274 
0.881307 
0.921110 
0.858535 
0.921110 
0.881307 
0.887046 
0.910001 
0.869829 
0.915556 
0.869829 
0.910001 
0.887046 
0.892784 
0.915740 
0.892784 
0.927218 
0.892784 
0.927218 
0.892784 
0.915740 
0.892784 
0.781831 
0.864274 
0.946717 
0.864274 
0.881307 
0.921110 
0.858535 
0.921110 
0.881307 
0.887046 
0.910001 
0.869829 
0.915556 
0.869829 
0.910001 
0.887046 
0.892784 
0.915740 
0.892784 
0.927218 
0.892784 
0.927218 
0.892784 
0.915740 
0.892784 
SCALARS DENSITY float 
LOOKUP_TABLE default 
200.000000 
200.000000 
200.000000 
200.000000 
200.000000 
200.000000 
200.000000 
200.000000 
200.000000 
200.000000 
200.000000 
200.000000 
200.000000 
200.000000 
200.000000 
200.000000 
200.000000 
200.000000 
200.000000 
200.000000 
200.000000 
200.000000 
200.000000 
200.000000 
200.000000 
200.000000 
200.000000 
200.000000 
200.000000 
200.000000 
200.000000 
200.000000 
200.000000 
200.000000 
200.000000 
200.000000 
200.000000 
200.000000 
200.000000 
200.000000 
200.000000 
200.000000 
200.000000 
200.000000 
200.000000 
200.000000 
200.000000 
200.000000 
200.000000 
200.000000 
200.000000 
200.000000 
200.000000 
200.000000 
200.000000 
200.000000 
200.000000 
200.000000 
200.000000 
200.000000 
200.000000 
200.000000 
200.000000 
200.000000 
200.000000 
200.000000 
200.000000 
200.000000 
200.000000 
200.000000 
200.000000 
200.000000 
200.000000 
200.000000 
200.000000 
200.000000 
200.000000 
200.000000 
200.000000 
200.000000 
200.000000 
200.000000 
200.000000 
200.000000 
200.000000 
200.000000 
200.000000 
200.000000 
200.000000 
200.000000 
200.000000 
200.000000 
200.000000 
200.000000 
200.000000 
200.000000 
200.000000 
200.000000 
200.000000 
200.000000 
200.000000 
200.000000 
200.000000 
200.000000 
200.000000 
200.000000 
200.000000 
200.000000 
200.000000 
200.000000 
200.000000 
200.000000 
200.000000 
200.000000 
200.000000 
200.000000 
200.000000 
200.000000 
200.000000 
200.000000 
200.000000 
200.000000 
200.000000 
200.000000 
200.000000 
200.000000 
200.000000 
200.000000 
200.000000 
200.000000 
200.000000 
200.000000 
200.000000 
200.000000 
200.000000 
200.000000 
200.000000 
200.000000 
200.000000 
200.000000 
200.000000 
200.000000 
200.000000 
200.000000 
200.000000 
200.000000 
200.000000 
200.000000 
200.000000 
200.000000 
200.000000 
200.000000 
200.000000 
200.000000 
200.000000 
200.000000 
200.000000 
200.000000 
200.000000 
200.000000 
200.000000 
200.000000 
200.000000 
200.000000 
200.000000 
200.000000 
200.000000 
200.000000 
200.000000 
200.000000 
200.000000 
200.000000 
200.000000 
200.000000 
200.000000 
SCALARS ELEM_i float 
LOOKUP_TABLE default 
180 
207 
180 
181 
208 
208 
208 
181 
181 
235 
208 
209 
208 
209 
182 
182 
236 
236 
236 
209 
209 
209 
209 
182 
183 
180 
206 
207 
207 
233 
207 
234 
207 
207 
233 
233 
234 
234 
234 
235 
235 
260 
260 
261 
261 
261 
261 
262 
235 
235 
179 
206 
206 
206 
205 
205 
205 
206 
233 
204 
205 
232 
232 
232 
233 
233 
204 
231 
231 
231 
231 
232 
259 
259 
260 
179 
178 
179 
178 
151 
178 
178 
178 
205 
150 
150 
177 
177 
177 
204 
204 
150 
150 
149 
177 
176 
177 
203 
204 
204 
179 
152 
152 
152 
125 
152 
151 
151 
151 
125 
125 
124 
124 
124 
151 
150 
98 
97 
97 
124 
123 
123 
123 
123 
150 
180 
153 
153 
152 
153 
153 
126 
153 
125 
127 
127 
126 
126 
126 
125 
125 
127 
127 
100 
99 
99 
99 
99 
98 
98 
180 
181 
180 
153 
181 
181 
154 
154 
154 
182 
182 
155 
154 
155 
154 
127 
183 
182 
155 
155 
155 
155 
128 
128 
128 
VECTORS VELOCITY float 
-0.000000 -2.581992 0.000000 
0.000000 -2.581992 0.000000 
0.000000 -2.581992 0.000000 
0.000000 -2.581992 0.000000 
-0.000000 -2.581992 0.000000 
-0.000000 -2.581992 0.000000 
-0.000000 -2.581992 0.000000 
0.000000 -2.581992 0.000000 
-0.000000 -2.581992 0.000000 
-0.000000 -2.581992 0.000000 
-0.000000 -2.581992 0.000000 
-0.000000 -2.581992 0.000000 
0.000000 -2.581992 0.000000 
0.000000 -2.581992 0.000000 
0.000000 -2.581992 0.000000 
0.000000 -2.581992 0.000000 
-0.000000 -2.581992 0.000000 
-0.000000 -2.581992 0.000000 
0.000000 -2.581992 0.000000 
-0.000000 -2.581992 0.000000 
-0.000000 -2.581992 0.000000 
-0.000000 -2.581992 0.000000 
0.000000 -2.581992 0.000000 
0.000000 -2.581992 0.000000 
0.000000 -2.581992 0.000000 
-0.000000 -2.581992 0.000000 
-0.000000 -2.581992 0.000000 
-0.000000 -2.581992 0.000000 
-0.000000 -2.581992 0.000000 
0.000000 -2.581992 0.000000 
0.000000 -2.581992 0.000000 
-0.000000 -2.581992 0.000000 
-0.000000 -2.581992 0.000000 
-0.000000 -2.581992 0.000000 
0.000000 -2.581992 0.000000 
0.000000 -2.581992 0.000000 
-0.000000 -2.581992 0.000000 
-0.000000 -2.581992 0.000000 
-0.000000 -2.581992 0.000000 
-0.000000 -2.581992 0.000000 
-0.000000 -2.581992 0.000000 
-0.000000 -2.581992 0.000000 
0.000000 -2.581992 0.000000 
-0.000000 -2.581992 0.000000 
-0.000000 -2.581992 0.000000 
-0.000000 -2.581992 0.000000 
-0.000000 -2.581992 0.000000 
0.000000 -2.581992 0.000000 
-0.000000 -2.581992 0.000000 
-0.000000 -2.581992 0.000000 
-0.000000 -2.581992 0.000000 
0.000000 -2.581992 0.000000 
-0.000000 -2.581992 0.000000 
-0.000000 -2.581992 0.000000 
-0.000000 -2.581992 0.000000 
-0.000000 -2.581992 0.000000 
-0.000000 -2.581992 0.000000 
-0.000000 -2.581992 0.000000 
-0.000000 -2.581992 0.000000 
0.000000 -2.581992 0.000000 
-0.000000 -2.581992 0.000000 
-0.000000 -2.581992 0.000000 
-0.000000 -2.581992 0.000000 
-0.000000 -2.581992 0.000000 
-0.000000 -2.581992 0.000000 
0.000000 -2.581992 0.000000 
0.000000 -2.581992 0.000000 
0.000000 -2.581992 0.000000 
-0.000000 -2.581992 0.000000 
0.000000 -2.581992 0.000000 
0.000000 -2.581992 0.000000 
0.000000 -2.581992 0.000000 
-0.000000 -2.581992 0.000000 
-0.000000 -2.581992 0.000000 
-0.000000 -2.581992 0.000000 
-0.000000 -2.581992 0.000000 
0.000000 -2.581992 0.000000 
0.000000 -2.581992 0.000000 
0.000000 -2.581992 0.000000 
0.000000 -2.581992 0.000000 
0.000000 -2.581992 0.000000 
0.000000 -2.581992 0.000000 
-0.000000 -2.581992 0.000000 
-0.000000 -2.581992 0.000000 
0.000000 -2.581992 0.000000 
0.000000 -2.581992 0.000000 
0.000000 -2.581992 0.000000 
-0.000000 -2.581992 0.000000 
-0.000000 -2.581992 0.000000 
-0.000000 -2.581992 0.000000 
-0.000000 -2.581992 0.000000 
-0.000000 -2.581992 0.000000 
0.000000 -2.581992 0.000000 
-0.000000 -2.581992 0.000000 
0.000000 -2.581992 0.000000 
-0.000000 -2.581992 0.000000 
0.000000 -2.581992 0.000000 
-0.000000 -2.581992 0.000000 
-0.000000 -2.581992 0.000000 
-0.000000 -2.581992 0.000000 
-0.000000 -2.581992 0.000000 
0.000000 -2.581992 0.000000 
0.000000 -2.581992 0.000000 
0.000000 -2.581992 0.000000 
0.000000 -2.581992 0.000000 
0.000000 -2.581992 0.000000 
0.000000 -2.581992 0.000000 
0.000000 -2.581992 0.000000 
0.000000 -2.581992 0.000000 
0.000000 -2.581992 0.000000 
0.000000 -2.581992 0.000000 
-0.000000 -2.581992 0.000000 
0.000000 -2.581992 0.000000 
-0.000000 -2.581992 0.000000 
0.000000 -2.581992 0.000000 
0.000000 -2.581992 0.000000 
0.000000 -2.581992 0.000000 
0.000000 -2.581992 0.000000 
0.000000 -2.581992 0.000000 
-0.000000 -2.581992 0.000000 
-0.000000 -2.581992 0.000000 
-0.000000 -2.581992 0.000000 
-0.000000 -2.581992 0.000000 
-0.000000 -2.581992 0.000000 
-0.000000 -2.581992 0.000000 
-0.000000 -2.581992 0.000000 
0.000000 -2.581992 0.000000 
0.000000 -2.581992 0.000000 
0.000000 -2.581992 0.000000 
0.000000 -2.581992 0.000000 
0.000000 -2.581992 0.000000 
0.000000 -2.581992 0.000000 
0.000000 -2.581992 0.000000 
0.000000 -2.581992 0.000000 
0.000000 -2.581992 0.000000 
0.000000 -2.581992 0.000000 
-0.000000 -2.581992 0.000000 
-0.000000 -2.581992 0.000000 
-0.000000 -2.581992 0.000000 
0.000000 -2.581992 0.000000 
0.000000 -2.581992 0.000000 
0.000000 -2.581992 0.000000 
-0.000000 -2.581992 0.000000 
0.000000 -2.581992 0.000000 
-0.000000 -2.581992 0.000000 
-0.000000 -2.581992 0.000000 
-0.000000 -2.581992 0.000000 
-0.000000 -2.581992 0.000000 
0.000000 -2.581992 0.000000 
0.000000 -2.581992 0.000000 
-0.000000 -2.581992 0.000000 
0.000000 -2.581992 0.000000 
0.000000 -2.581992 0.000000 
0.000000 -2.581992 0.000000 
-0.000000 -2.581992 0.000000 
0.000000 -2.581992 0.000000 
0.000000 -2.581992 0.000000 
0.000000 -2.581992 0.000000 
0.000000 -2.581992 0.000000 
-0.000000 -2.581992 0.000000 
-0.000000 -2.581992 0.000000 
-0.000000 -2.581992 0.000000 
0.000000 -2.581992 0.000000 
0.000000 -2.581992 0.000000 
0.000000 -2.581992 0.000000 
0.000000 -2.581992 0.000000 
0.000000 -2.581992 0.000000 
-0.000000 -2.581992 0.000000 
0.000000 -2.581992 0.000000 
0.000000 -2.581992 0.000000 
0.000000 -2.581992 0.000000 
0.000000 -2.581992 0.000000 
0.000000 -2.581992 0.000000 
0.000000 -2.581992 0.000000 
-0.000000 -2.581992 0.000000 
TENSORS STRESS float 
0.000000 -0.000000 0.000000 
0.000000 0.000000 0.000000 
0.000000 0.000000 0.000000 

-0.000000 0.000000 0.000000 
0.000000 -0.000000 0.000000 
0.000000 0.000000 0.000000 

-0.000000 0.000000 0.000000 
0.000000 -0.000000 0.000000 
0.000000 0.000000 0.000000 

-0.000000 -0.000000 0.000000 
0.000000 -0.000000 0.000000 
0.000000 0.000000 0.000000 

0.000000 0.000000 0.000000 
0.000000 0.000000 0.000000 
0.000000 0.000000 0.000000 

-0.000000 0.000000 0.000000 
0.000000 -0.000000 0.000000 
0.000000 0.000000 0.000000 

0.000000 -0.000000 0.000000 
0.000000 0.000000 0.000000 
0.000000 0.000000 0.000000 

-0.000000 0.000000 0.000000 
0.000000 -0.000000 0.000000 
0.000000 0.000000 0.000000 

0.000000 -0.000000 0.000000 
0.000000 0.000000 0.000000 
0.000000 0.000000 0.000000 

-0.000000 0.000000 0.000000 
0.000000 -0.000000 0.000000 
0.000000 0.000000 0.000000 

-0.000000 0.000000 0.000000 
0.000000 -0.000000 0.000000 
0.000000 0.000000 0.000000 

-0.000000 0.000000 0.000000 
0.000000 0.000000 0.000000 
0.000000 0.000000 0.000000 

0.000000 0.000000 0.000000 
0.000000 0.000000 0.000000 
0.000000 0.000000 0.000000 

-0.000000 0.000000 0.000000 
0.000000 0.000000 0.000000 
0.000000 0.000000 0.000000 

0.000000 -0.000000 0.000000 
0.000000 0.000000 0.000000 
0.000000 0.000000 0.000000 

-0.000000 0.000000 0.000000 
0.000000 0.000000 0.000000 
0.000000 0.000000 0.000000 

0.000000 -0.000000 0.000000 
0.000000 0.000000 0.000000 
0.000000 0.000000 0.000000 

0.000000 -0.000000 0.000000 
0.000000 0.000000 0.000000 
0.000000 0.000000 0.000000 

0.000000 -0.000000 0.000000 
0.000000 0.000000 0.000000 
0.000000 0.000000 0.000000 

0.000000 0.000000 0.000000 
0.000000 0.000000 0.000000 
0.000000 0.000000 0.000000 

0.000000 -0.000000 0.000000 
0.000000 0.000000 0.000000 
0.000000 0.000000 0.000000 

0.000000 0.000000 0.000000 
0.000000 0.000000 0.000000 
0.000000 0.000000 0.000000 

-0.000000 -0.000000 0.000000 
0.000000 -0.000000 0.000000 
0.000000 0.000000 0.000000 

0.000000 -0.000000 0.000000 
0.000000 0.000000 0.000000 
0.000000 0.000000 0.000000 

-0.000000 -0.000000 0.000000 
0.000000 -0.000000 0.000000 
0.000000 0.000000 0.000000 

0.000000 0.000000 0.000000 
0.000000 0.000000 0.000000 
0.000000 0.000000 0.000000 

-0.000000 0.000000 0.000000 
0.000000 -0.000000 0.000000 
0.000000 0.000000 0.000000 

0.000000 0.000000 0.000000 
0.000000 0.000000 0.000000 
0.000000 0.000000 0.000000 

0.000000 0.000000 0.000000 
0.000000 0.000000 0.000000 
0.000000 0.000000 0.000000 

-0.000000 0.000000 0.000000 
0.000000 -0.000000 0.000000 
0.000000 0.000000 0.000000 

-0.000000 0.000000 0.000000 
0.000000 -0.000000 0.000000 
0.000000 0.000000 0.000000 

0.000000 0.000000 0.000000 
0.000000 0.000000 0.000000 
0.000000 0.000000 0.000000 

-0.000000 0.000000 0.000000 
0.000000 -0.000000 0.000000 
0.000000 0.000000 0.000000 

0.000000 0.000000 0.000000 
0.000000 0.000000 0.000000 
0.000000 0.000000 0.000000 

0.000000 -0.000000 0.000000 
0.000000 0.000000 0.000000 
0.000000 0.000000 0.000000 

-0.000000 0.000000 0.000000 
0.000000 -0.000000 0.000000 
0.000000 0.000000 0.000000 

0.000000 0.000000 0.000000 
0.000000 0.000000 0.000000 
0.000000 0.000000 0.000000 

-0.000000 -0.000000 0.000000 
0.000000 -0.000000 0.000000 
0.000000 0.000000 0.000000 

0.000000 0.000000 0.000000 
0.000000 0.000000 0.000000 
0.000000 0.000000 0.000000 

0.000000 0.000000 0.000000 
0.000000 0.000000 0.000000 
0.000000 0.000000 0.000000 

0.000000 0.000000 0.000000 
0.000000 0.000000 0.000000 
0.000000 0.000000 0.000000 

-0.000000 -0.000000 0.000000 
0.000000 -0.000000 0.000000 
0.000000 0.000000 0.000000 

0.000000 0.000000 0.000000 
0.000000 0.000000 0.000000 
0.000000 0.000000 0.000000 

0.000000 0.000000 0.000000 
0.000000 0.000000 0.000000 
0.000000 0.000000 0.000000 

-0.000000 0.000000 0.000000 
0.000000 -0.000000 0.000000 
0.000000 0.000000 0.000000 

-0.000000 -0.000000 0.000000 
0.000000 -0.000000 0.000000 
0.000000 0.000000 0.000000 

-0.000000 -0.000000 0.000000 
0.000000 -0.000000 0.000000 
0.000000 0.000000 0.000000 

-0.000000 -0.000000 0.000000 
0.000000 -0.000000 0.000000 
0.000000 0.000000 0.000000 

0.000000 0.000000 0.000000 
0.000000 0.000000 0.000000 
0.000000 0.000000 0.000000 

0.000000 -0.000000 0.000000 
0.000000 0.000000 0.000000 
0.000000 0.000000 0.000000 

0.000000 -0.000000 0.000000 
0.000000 0.000000 0.000000 
0.000000 0.000000 0.000000 

0.000000 -0.000000 0.000000 
0.000000 0.000000 0.000000 
0.000000 0.000000 0.000000 

0.000000 -0.000000 0.000000 
0.000000 0.000000 0.000000 
0.000000 0.000000 0.000000 

-0.000000 -0.000000 0.000000 
0.000000 -0.000000 0.000000 
0.000000 0.000000 0.000000 

0.000000 -0.000000 0.000000 
0.000000 -0.000000 0.000000 
0.000000 0.000000 0.000000 

0.000000 0.000000 0.000000 
0.000000 0.000000 0.000000 
0.000000 0.000000 0.000000 

0.000000 -0.000000 0.000000 
0.000000 0.000000 0.000000 
0.000000 0.000000 0.000000 

-0.000000 -0.000000 0.000000 
0.000000 -0.000000 0.000000 
0.000000 0.000000 0.000000 

-0.000000 -0.000000 0.000000 
0.000000 -0.000000 0.000000 
0.000000 0.000000 0.000000 

0.000000 0.000000 0.000000 
0.000000 0.000000 0.000000 
0.000000 0.000000 0.000000 

-0.000000 -0.000000 0.000000 
0.000000 -0.000000 0.000000 
0.000000 0.000000 0.000000 

0.000000 -0.000000 0.000000 
0.000000 0.000000 0.000000 
0.000000 0.000000 0.000000 

0.000000 0.000000 0.000000 
0.000000 0.000000 0.000000 
0.000000 0.000000 0.000000 

0.000000 -0.000000 0.000000 
0.000000 0.000000 0.000000 
0.000000 0.000000 0.000000 

0.000000 0.000000 0.000000 
0.000000 0.000000 0.000000 
0.000000 0.000000 0.000000 

0.000000 0.000000 0.000000 
0.000000 0.000000 0.000000 
0.000000 0.000000 0.000000 

0.000000 0.000000 0.000000 
0.000000 0.000000 0.000000 
0.000000 0.000000 0.000000 

0.000000 0.000000 0.000000 
0.000000 0.000000 0.000000 
0.000000 0.000000 0.000000 

0.000000 0.000000 0.000000 
0.000000 0.000000 0.000000 
0.000000 0.000000 0.000000 

0.000000 0.000000 0.000000 
0.000000 0.000000 0.000000 
0.000000 0.000000 0.000000 

0.000000 0.000000 0.000000 
0.000000 0.000000 0.000000 
0.000000 0.000000 0.000000 

0.000000 -0.000000 0.000000 
0.000000 0.000000 0.000000 
0.000000 0.000000 0.000000 

0.000000 -0.000000 0.000000 
0.000000 0.000000 0.000000 
0.000000 0.000000 0.000000 

0.000000 -0.000000 0.000000 
0.000000 0.000000 0.000000 
0.000000 0.000000 0.000000 

-0.000000 -0.000000 0.000000 
0.000000 -0.000000 0.000000 
0.000000 0.000000 0.000000 

-0.000000 -0.000000 0.000000 
0.000000 -0.000000 0.000000 
0.000000 0.000000 0.000000 

0.000000 -0.000000 0.000000 
0.000000 0.000000 0.000000 
0.000000 0.000000 0.000000 

-0.000000 -0.000000 0.000000 
0.000000 -0.000000 0.000000 
0.000000 0.000000 0.000000 

0.000000 0.000000 0.000000 
0.000000 0.000000 0.000000 
0.000000 0.000000 0.000000 

-0.000000 0.000000 0.000000 
0.000000 -0.000000 0.000000 
0.000000 0.000000 0.000000 

-0.000000 -0.000000 0.000000 
0.000000 -0.000000 0.000000 
0.000000 0.000000 0.000000 

0.000000 -0.000000 0.000000 
0.000000 0.000000 0.000000 
0.000000 0.000000 0.000000 

-0.000000 -0.000000 0.000000 
0.000000 -0.000000 0.000000 
0.000000 0.000000 0.000000 

-0.000000 0.000000 0.000000 
0.000000 -0.000000 0.000000 
0.000000 0.000000 0.000000 

-0.000000 0.000000 0.000000 
0.000000 -0.000000 0.000000 
0.000000 0.000000 0.000000 

0.000000 -0.000000 0.000000 
0.000000 -0.000000 0.000000 
0.000000 0.000000 0.000000 

0.000000 0.000000 0.000000 
0.000000 0.000000 0.000000 
0.000000 0.000000 0.000000 

0.000000 0.000000 0.000000 
0.000000 0.000000 0.000000 
0.000000 0.000000 0.000000 

-0.000000 0.000000 0.000000 
0.000000 -0.000000 0.000000 
0.000000 0.000000 0.000000 

0.000000 0.000000 0.000000 
0.000000 0.000000 0.000000 
0.000000 0.000000 0.000000 

0.000000 0.000000 0.000000 
0.000000 0.000000 0.000000 
0.000000 0.000000 0.000000 

0.000000 -0.000000 0.000000 
0.000000 0.000000 0.000000 
0.000000 0.000000 0.000000 

-0.000000 0.000000 0.000000 
0.000000 -0.000000 0.000000 
0.000000 0.000000 0.000000 

-0.000000 -0.000000 0.000000 
0.000000 -0.000000 0.000000 
0.000000 0.000000 0.000000 

0.000000 0.000000 0.000000 
0.000000 0.000000 0.000000 
0.000000 0.000000 0.000000 

0.000000 -0.000000 0.000000 
0.000000 0.000000 0.000000 
0.000000 0.000000 0.000000 

-0.000000 0.000000 0.000000 
0.000000 -0.000000 0.000000 
0.000000 0.000000 0.000000 

0.000000 -0.000000 0.000000 
0.000000 0.000000 0.000000 
0.000000 0.000000 0.000000 

0.000000 -0.000000 0.000000 
0.000000 0.000000 0.000000 
0.000000 0.000000 0.000000 

-0.000000 0.000000 0.000000 
0.000000 -0.000000 0.000000 
0.000000 0.000000 0.000000 

0.000000 -0.000000 0.000000 
0.000000 0.000000 0.000000 
0.000000 0.000000 0.000000 

-0.000000 0.000000 0.000000 
0.000000 -0.000000 0.000000 
0.000000 0.000000 0.000000 

-0.000000 0.000000 0.000000 
0.000000 -0.000000 0.000000 
0.000000 0.000000 0.000000 

0.000000 0.000000 0.000000 
0.000000 0.000000 0.000000 
0.000000 0.000000 0.000000 

-0.000000 -0.000000 0.000000 
0.000000 -0.000000 0.000000 
0.000000 0.000000 0.000000 

0.000000 -0.000000 0.000000 
0.000000 0.000000 0.000000 
0.000000 0.000000 0.000000 

0.000000 0.000000 0.000000 
0.000000 0.000000 0.000000 
0.000000 0.000000 0.000000 

-0.000000 0.000000 0.000000 
0.000000 -0.000000 0.000000 
0.000000 0.000000 0.000000 

0.000000 0.000000 0.000000 
0.000000 0.000000 0.000000 
0.000000 0.000000 0.000000 

0.000000 0.000000 0.000000 
0.000000 -0.000000 0.000000 
0.000000 0.000000 0.000000 

0.000000 0.000000 0.000000 
0.000000 0.000000 0.000000 
0.000000 0.000000 0.000000 

-0.000000 0.000000 0.000000 
0.000000 -0.000000 0.000000 
0.000000 0.000000 0.000000 

0.000000 0.000000 0.000000 
0.000000 0.000000 0.000000 
0.000000 0.000000 0.000000 

0.000000 -0.000000 0.000000 
0.000000 0.000000 0.000000 
0.000000 0.000000 0.000000 

0.000000 0.000000 0.000000 
0.000000 0.000000 0.000000 
0.000000 0.000000 0.000000 

0.000000 0.000000 0.000000 
0.000000 0.000000 0.000000 
0.000000 0.000000 0.000000 

-0.000000 -0.000000 0.000000 
0.000000 -0.000000 0.000000 
0.000000 0.000000 0.000000 

0.000000 0.000000 0.000000 
0.000000 0.000000 0.000000 
0.000000 0.000000 0.000000 

0.000000 0.000000 0.000000 
0.000000 0.000000 0.000000 
0.000000 0.000000 0.000000 

0.000000 -0.000000 0.000000 
0.000000 0.000000 0.000000 
0.000000 0.000000 0.000000 

-0.000000 0.000000 0.000000 
0.000000 -0.000000 0.000000 
0.000000 0.000000 0.000000 

0.000000 0.000000 0.000000 
0.000000 0.000000 0.000000 
0.000000 0.000000 0.000000 

-0.000000 0.000000 0.000000 
0.000000 -0.000000 0.000000 
0.000000 0.000000 0.000000 

0.000000 -0.000000 0.000000 
0.000000 0.000000 0.000000 
0.000000 0.000000 0.000000 

-0.000000 0.000000 0.000000 
0.000000 -0.000000 0.000000 
0.000000 0.000000 0.000000 

0.000000 0.000000 0.000000 
0.000000 0.000000 0.000000 
0.000000 0.000000 0.000000 

-0.000000 0.000000 0.000000 
0.000000 -0.000000 0.000000 
0.000000 0.000000 0.000000 

0.000000 0.000000 0.000000 
0.000000 0.000000 0.000000 
0.000000 0.000000 0.000000 

-0.000000 0.000000 0.000000 
0.000000 -0.000000 0.000000 
0.000000 0.000000 0.000000 

0.000000 0.000000 0.000000 
0.000000 0.000000 0.000000 
0.000000 0.000000 0.000000 

0.000000 -0.000000 0.000000 
0.000000 0.000000 0.000000 
0.000000 0.000000 0.000000 

-0.000000 0.000000 0.000000 
0.000000 -0.000000 0.000000 
0.000000 0.000000 0.000000 

0.000000 0.000000 0.000000 
0.000000 0.000000 0.000000 
0.000000 0.000000 0.000000 

-0.000000 0.000000 0.000000 
0.000000 -0.000000 0.000000 
0.000000 0.000000 0.000000 

-0.000000 0.000000 0.000000 
0.000000 -0.000000 0.000000 
0.000000 0.000000 0.000000 

-0.000000 -0.000000 0.000000 
0.000000 -0.000000 0.000000 
0.000000 0.000000 0.000000 

0.000000 -0.000000 0.000000 
0.000000 0.000000 0.000000 
0.000000 0.000000 0.000000 

0.000000 -0.000000 0.000000 
0.000000 0.000000 0.000000 
0.000000 0.000000 0.000000 

0.000000 0.000000 0.000000 
0.000000 0.000000 0.000000 
0.000000 0.000000 0.000000 

0.000000 0.000000 0.000000 
0.000000 0.000000 0.000000 
0.000000 0.000000 0.000000 

0.000000 0.000000 0.000000 
0.000000 0.000000 0.000000 
0.000000 0.000000 0.000000 

0.000000 0.000000 0.000000 
0.000000 -0.000000 0.000000 
0.000000 0.000000 0.000000 

0.000000 0.000000 0.000000 
0.000000 0.000000 0.000000 
0.000000 0.000000 0.000000 

-0.000000 0.000000 0.000000 
0.000000 -0.000000 0.000000 
0.000000 0.000000 0.000000 

0.000000 -0.000000 0.000000 
0.000000 -0.000000 0.000000 
0.000000 0.000000 0.000000 

0.000000 0.000000 0.000000 
0.000000 0.000000 0.000000 
0.000000 0.000000 0.000000 

0.000000 -0.000000 0.000000 
0.000000 0.000000 0.000000 
0.000000 0.000000 0.000000 

-0.000000 0.000000 0.000000 
0.000000 -0.000000 0.000000 
0.000000 0.000000 0.000000 

0.000000 -0.000000 0.000000 
0.000000 0.000000 0.000000 
0.000000 0.000000 0.000000 

-0.000000 -0.000000 0.000000 
0.000000 -0.000000 0.000000 
0.000000 0.000000 0.000000 

0.000000 0.000000 0.000000 
0.000000 0.000000 0.000000 
0.000000 0.000000 0.000000 

-0.000000 -0.000000 0.000000 
0.000000 -0.000000 0.000000 
0.000000 0.000000 0.000000 

0.000000 -0.000000 0.000000 
0.000000 0.000000 0.000000 
0.000000 0.000000 0.000000 

-0.000000 0.000000 0.000000 
0.000000 -0.000000 0.000000 
0.000000 0.000000 0.000000 

0.000000 -0.000000 0.000000 
0.000000 0.000000 0.000000 
0.000000 0.000000 0.000000 

-0.000000 0.000000 0.000000 
0.000000 -0.000000 0.000000 
0.000000 0.000000 0.000000 

-0.000000 0.000000 0.000000 
0.000000 -0.000000 0.000000 
0.000000 0.000000 0.000000 

0.000000 0.000000 0.000000 
0.000000 0.000000 0.000000 
0.000000 0.000000 0.000000 

0.000000 0.000000 0.000000 
0.000000 0.000000 0.000000 
0.000000 0.000000 0.000000 

-0.000000 -0.000000 0.000000 
0.000000 -0.000000 0.000000 
0.000000 0.000000 0.000000 

-0.000000 0.000000 0.000000 
0.000000 -0.000000 0.000000 
0.000000 0.000000 0.000000 

0.000000 0.000000 0.000000 
0.000000 0.000000 0.000000 
0.000000 0.000000 0.000000 

-0.000000 0.000000 0.000000 
0.000000 -0.000000 0.000000 
0.000000 0.000000 0.000000 

0.000000 0.000000 0.000000 
0.000000 0.000000 0.000000 
0.000000 0.000000 0.000000 

-0.000000 0.000000 0.000000 
0.000000 -0.000000 0.000000 
0.000000 0.000000 0.000000 

-0.000000 0.000000 0.000000 
0.000000 -0.000000 0.000000 
0.000000 0.000000 0.000000 

-0.000000 -0.000000 0.000000 
0.000000 -0.000000 0.000000 
0.000000 0.000000 0.000000 

0.000000 -0.000000 0.000000 
0.000000 0.000000 0.000000 
0.000000 0.000000 0.000000 

-0.000000 -0.000000 0.000000 
0.000000 -0.000000 0.000000 
0.000000 0.000000 0.000000 

-0.000000 0.000000 0.000000 
0.000000 -0.000000 0.000000 
0.000000 0.000000 0.000000 

-0.000000 0.000000 0.000000 
0.000000 -0.000000 0.000000 
0.000000 0.000000 0.000000 

-0.000000 0.000000 0.000000 
0.000000 -0.000000 0.000000 
0.000000 0.000000 0.000000 

-0.000000 -0.000000 0.000000 
0.000000 0.000000 0.000000 
0.000000 0.000000 0.000000 

0.000000 -0.000000 0.000000 
0.000000 0.000000 0.000000 
0.000000 0.000000 0.000000 

-0.000000 -0.000000 0.000000 
0.000000 -0.000000 0.000000 
0.000000 0.000000 0.000000 

TENSORS STRAIN float 
0.000000 -0.000000 0.000000 
0.000000 -0.000000 0.000000 
0.000000 0.000000 0.000000 

-0.000000 0.000000 0.000000 
0.000000 -0.000000 0.000000 
0.000000 0.000000 0.000000 

0.000000 0.000000 0.000000 
0.000000 -0.000000 0.000000 
0.000000 0.000000 0.000000 

0.000000 -0.000000 0.000000 
0.000000 -0.000000 0.000000 
0.000000 0.000000 0.000000 

-0.000000 0.000000 0.000000 
0.000000 0.000000 0.000000 
0.000000 0.000000 0.000000 

-0.000000 0.000000 0.000000 
0.000000 -0.000000 0.000000 
0.000000 0.000000 0.000000 

-0.000000 -0.000000 0.000000 
0.000000 0.000000 0.000000 
0.000000 0.000000 0.000000 

-0.000000 0.000000 0.000000 
0.000000 -0.000000 0.000000 
0.000000 0.000000 0.000000 

-0.000000 -0.000000 0.000000 
0.000000 0.000000 0.000000 
0.000000 0.000000 0.000000 

-0.000000 0.000000 0.000000 
0.000000 0.000000 0.000000 
0.000000 0.000000 0.000000 

-0.000000 0.000000 0.000000 
0.000000 0.000000 0.000000 
0.000000 0.000000 0.000000 

-0.000000 0.000000 0.000000 
0.000000 0.000000 0.000000 
0.000000 0.000000 0.000000 

-0.000000 0.000000 0.000000 
0.000000 0.000000 0.000000 
0.000000 0.000000 0.000000 

-0.000000 0.000000 0.000000 
0.000000 0.000000 0.000000 
0.000000 0.000000 0.000000 

-0.000000 -0.000000 0.000000 
0.000000 0.000000 0.000000 
0.000000 0.000000 0.000000 

-0.000000 0.000000 0.000000 
0.000000 0.000000 0.000000 
0.000000 0.000000 0.000000 

-0.000000 -0.000000 0.000000 
0.000000 0.000000 0.000000 
0.000000 0.000000 0.000000 

-0.000000 -0.000000 0.000000 
0.000000 0.000000 0.000000 
0.000000 0.000000 0.000000 

0.000000 -0.000000 0.000000 
0.000000 -0.000000 0.000000 
0.000000 0.000000 0.000000 

-0.000000 0.000000 0.000000 
0.000000 0.000000 0.000000 
0.000000 0.000000 0.000000 

-0.000000 -0.000000 0.000000 
0.000000 0.000000 0.000000 
0.000000 0.000000 0.000000 

-0.000000 0.000000 0.000000 
0.000000 0.000000 0.000000 
0.000000 0.000000 0.000000 

-0.000000 -0.000000 0.000000 
0.000000 -0.000000 0.000000 
0.000000 0.000000 0.000000 

-0.000000 -0.000000 0.000000 
0.000000 0.000000 0.000000 
0.000000 0.000000 0.000000 

-0.000000 -0.000000 0.000000 
0.000000 -0.000000 0.000000 
0.000000 0.000000 0.000000 

0.000000 0.000000 0.000000 
0.000000 -0.000000 0.000000 
0.000000 0.000000 0.000000 

0.000000 0.000000 0.000000 
0.000000 -0.000000 0.000000 
0.000000 0.000000 0.000000 

0.000000 0.000000 0.000000 
0.000000 0.000000 0.000000 
0.000000 0.000000 0.000000 

-0.000000 0.000000 0.000000 
0.000000 0.000000 0.000000 
0.000000 0.000000 0.000000 

0.000000 0.000000 0.000000 
0.000000 -0.000000 0.000000 
0.000000 0.000000 0.000000 

0.000000 0.000000 0.000000 
0.000000 -0.000000 0.000000 
0.000000 0.000000 0.000000 

0.000000 0.000000 0.000000 
0.000000 0.000000 0.000000 
0.000000 0.000000 0.000000 

-0.000000 0.000000 0.000000 
0.000000 -0.000000 0.000000 
0.000000 0.000000 0.000000 

-0.000000 0.000000 0.000000 
0.000000 0.000000 0.000000 
0.000000 0.000000 0.000000 

0.000000 -0.000000 0.000000 
0.000000 -0.000000 0.000000 
0.000000 0.000000 0.000000 

0.000000 0.000000 0.000000 
0.000000 -0.000000 0.000000 
0.000000 0.000000 0.000000 

0.000000 0.000000 0.000000 
0.000000 -0.000000 0.000000 
0.000000 0.000000 0.000000 

0.000000 -0.000000 0.000000 
0.000000 -0.000000 0.000000 
0.000000 0.000000 0.000000 

0.000000 0.000000 0.000000 
0.000000 -0.000000 0.000000 
0.000000 0.000000 0.000000 

0.000000 0.000000 0.000000 
0.000000 0.000000 0.000000 
0.000000 0.000000 0.000000 

-0.000000 0.000000 0.000000 
0.000000 0.000000 0.000000 
0.000000 0.000000 0.000000 

-0.000000 -0.000000 0.000000 
0.000000 0.000000 0.000000 
0.000000 0.000000 0.000000 

-0.000000 0.000000 0.000000 
0.000000 0.000000 0.000000 
0.000000 0.000000 0.000000 

-0.000000 0.000000 0.000000 
0.000000 0.000000 0.000000 
0.000000 0.000000 0.000000 

-0.000000 0.000000 0.000000 
0.000000 0.000000 0.000000 
0.000000 0.000000 0.000000 

-0.000000 -0.000000 0.000000 
0.000000 0.000000 0.000000 
0.000000 0.000000 0.000000 

-0.000000 -0.000000 0.000000 
0.000000 0.000000 0.000000 
0.000000 0.000000 0.000000 

0.000000 -0.000000 0.000000 
0.000000 -0.000000 0.000000 
0.000000 0.000000 0.000000 

-0.000000 0.000000 0.000000 
0.000000 0.000000 0.000000 
0.000000 0.000000 0.000000 

-0.000000 -0.000000 0.000000 
0.000000 0.000000 0.000000 
0.000000 0.000000 0.000000 

0.000000 -0.000000 0.000000 
0.000000 0.000000 0.000000 
0.000000 0.000000 0.000000 

0.000000 -0.000000 0.000000 
0.000000 -0.000000 0.000000 
0.000000 0.000000 0.000000 

0.000000 -0.000000 0.000000 
0.000000 0.000000 0.000000 
0.000000 0.000000 0.000000 

0.000000 -0.000000 0.000000 
0.000000 -0.000000 0.000000 
0.000000 0.000000 0.000000 

0.000000 -0.000000 0.000000 
0.000000 -0.000000 0.000000 
0.000000 0.000000 0.000000 

0.000000 0.000000 0.000000 
0.000000 -0.000000 0.000000 
0.000000 0.000000 0.000000 

0.000000 -0.000000 0.000000 
0.000000 -0.000000 0.000000 
0.000000 0.000000 0.000000 

0.000000 -0.000000 0.000000 
0.000000 -0.000000 0.000000 
0.000000 0.000000 0.000000 

0.000000 -0.000000 0.000000 
0.000000 -0.000000 0.000000 
0.000000 0.000000 0.000000 

-0.000000 0.000000 0.000000 
0.000000 0.000000 0.000000 
0.000000 0.000000 0.000000 

0.000000 -0.000000 0.000000 
0.000000 -0.000000 0.000000 
0.000000 0.000000 0.000000 

0.000000 -0.000000 0.000000 
0.000000 0.000000 0.000000 
0.000000 0.000000 0.000000 

0.000000 0.000000 0.000000 
0.000000 0.000000 0.000000 
0.000000 0.000000 0.000000 

0.000000 -0.000000 0.000000 
0.000000 -0.000000 0.000000 
0.000000 0.000000 0.000000 

0.000000 0.000000 0.000000 
0.000000 -0.000000 0.000000 
0.000000 0.000000 0.000000 

0.000000 0.000000 0.000000 
0.000000 -0.000000 0.000000 
0.000000 0.000000 0.000000 

0.000000 0.000000 0.000000 
0.000000 0.000000 0.000000 
0.000000 0.000000 0.000000 

0.000000 0.000000 0.000000 
0.000000 -0.000000 0.000000 
0.000000 0.000000 0.000000 

0.000000 0.000000 0.000000 
0.000000 -0.000000 0.000000 
0.000000 0.000000 0.000000 

0.000000 0.000000 0.000000 
0.000000 0.000000 0.000000 
0.000000 0.000000 0.000000 

0.000000 0.000000 0.000000 
0.000000 0.000000 0.000000 
0.000000 0.000000 0.000000 

0.000000 -0.000000 0.000000 
0.000000 0.000000 0.000000 
0.000000 0.000000 0.000000 

0.000000 -0.000000 0.000000 
0.000000 -0.000000 0.000000 
0.000000 0.000000 0.000000 

0.000000 -0.000000 0.000000 
0.000000 0.000000 0.000000 
0.000000 0.000000 0.000000 

-0.000000 -0.000000 0.000000 
0.000000 -0.000000 0.000000 
0.000000 0.000000 0.000000 

0.000000 -0.000000 0.000000 
0.000000 -0.000000 0.000000 
0.000000 0.000000 0.000000 

0.000000 -0.000000 0.000000 
0.000000 0.000000 0.000000 
0.000000 0.000000 0.000000 

0.000000 -0.000000 0.000000 
0.000000 -0.000000 0.000000 
0.000000 0.000000 0.000000 

0.000000 0.000000 0.000000 
0.000000 -0.000000 0.000000 
0.000000 0.000000 0.000000 

0.000000 0.000000 0.000000 
0.000000 -0.000000 0.000000 
0.000000 0.000000 0.000000 

0.000000 -0.000000 0.000000 
0.000000 -0.000000 0.000000 
0.000000 0.000000 0.000000 

0.000000 -0.000000 0.000000 
0.000000 -0.000000 0.000000 
0.000000 0.000000 0.000000 

0.000000 -0.000000 0.000000 
0.000000 -0.000000 0.000000 
0.000000 0.000000 0.000000 

0.000000 0.000000 0.000000 
0.000000 -0.000000 0.000000 
0.000000 0.000000 0.000000 

0.000000 0.000000 0.000000 
0.000000 -0.000000 0.000000 
0.000000 0.000000 0.000000 

0.000000 -0.000000 0.000000 
0.000000 -0.000000 0.000000 
0.000000 0.000000 0.000000 

0.000000 0.000000 0.000000 
0.000000 -0.000000 0.000000 
0.000000 0.000000 0.000000 

0.000000 0.000000 0.000000 
0.000000 0.000000 0.000000 
0.000000 0.000000 0.000000 

0.000000 0.000000 0.000000 
0.000000 -0.000000 0.000000 
0.000000 0.000000 0.000000 

-0.000000 0.000000 0.000000 
0.000000 0.000000 0.000000 
0.000000 0.000000 0.000000 

-0.000000 0.000000 0.000000 
0.000000 0.000000 0.000000 
0.000000 0.000000 0.000000 

0.000000 -0.000000 0.000000 
0.000000 -0.000000 0.000000 
0.000000 0.000000 0.000000 

0.000000 0.000000 0.000000 
0.000000 -0.000000 0.000000 
0.000000 0.000000 0.000000 

0.000000 -0.000000 0.000000 
0.000000 -0.000000 0.000000 
0.000000 0.000000 0.000000 

0.000000 0.000000 0.000000 
0.000000 0.000000 0.000000 
0.000000 0.000000 0.000000 

0.000000 -0.000000 0.000000 
0.000000 0.000000 0.000000 
0.000000 0.000000 0.000000 

0.000000 0.000000 0.000000 
0.000000 -0.000000 0.000000 
0.000000 0.000000 0.000000 

0.000000 -0.000000 0.000000 
0.000000 -0.000000 0.000000 
0.000000 0.000000 0.000000 

0.000000 -0.000000 0.000000 
0.000000 -0.000000 0.000000 
0.000000 0.000000 0.000000 

0.000000 0.000000 0.000000 
0.000000 -0.000000 0.000000 
0.000000 0.000000 0.000000 

0.000000 -0.000000 0.000000 
0.000000 0.000000 0.000000 
0.000000 0.000000 0.000000 

-0.000000 0.000000 0.000000 
0.000000 -0.000000 0.000000 
0.000000 0.000000 0.000000 

-0.000000 0.000000 0.000000 
0.000000 -0.000000 0.000000 
0.000000 0.000000 0.000000 

-0.000000 0.000000 0.000000 
0.000000 0.000000 0.000000 
0.000000 0.000000 0.000000 

0.000000 -0.000000 0.000000 
0.000000 -0.000000 0.000000 
0.000000 0.000000 0.000000 

-0.000000 -0.000000 0.000000 
0.000000 0.000000 0.000000 
0.000000 0.000000 0.000000 

0.000000 0.000000 0.000000 
0.000000 0.000000 0.000000 
0.000000 0.000000 0.000000 

0.000000 0.000000 0.000000 
0.000000 -0.000000 0.000000 
0.000000 0.000000 0.000000 

0.000000 0.000000 0.000000 
0.000000 -0.000000 0.000000 
0.000000 0.000000 0.000000 

0.000000 0.000000 0.000000 
0.000000 -0.000000 0.000000 
0.000000 0.000000 0.000000 

0.000000 0.000000 0.000000 
0.000000 -0.000000 0.000000 
0.000000 0.000000 0.000000 

-0.000000 0.000000 0.000000 
0.000000 -0.000000 0.000000 
0.000000 0.000000 0.000000 

-0.000000 0.000000 0.000000 
0.000000 0.000000 0.000000 
0.000000 0.000000 0.000000 

0.000000 -0.000000 0.000000 
0.000000 0.000000 0.000000 
0.000000 0.000000 0.000000 

0.000000 0.000000 0.000000 
0.000000 -0.000000 0.000000 
0.000000 0.000000 0.000000 

0.000000 0.000000 0.000000 
0.000000 -0.000000 0.000000 
0.000000 0.000000 0.000000 

0.000000 -0.000000 0.000000 
0.000000 -0.000000 0.000000 
0.000000 0.000000 0.000000 

0.000000 0.000000 0.000000 
0.000000 0.000000 0.000000 
0.000000 0.000000 0.000000 

0.000000 0.000000 0.000000 
0.000000 0.000000 0.000000 
0.000000 0.000000 0.000000 

0.000000 -0.000000 0.000000 
0.000000 0.000000 0.000000 
0.000000 0.000000 0.000000 

0.000000 0.000000 0.000000 
0.000000 -0.000000 0.000000 
0.000000 0.000000 0.000000 

0.000000 0.000000 0.000000 
0.000000 0.000000 0.000000 
0.000000 0.000000 0.000000 

0.000000 0.000000 0.000000 
0.000000 -0.000000 0.000000 
0.000000 0.000000 0.000000 

0.000000 -0.000000 0.000000 
0.000000 -0.000000 0.000000 
0.000000 0.000000 0.000000 

0.000000 0.000000 0.000000 
0.000000 -0.000000 0.000000 
0.000000 0.000000 0.000000 

0.000000 0.000000 0.000000 
0.000000 -0.000000 0.000000 
0.000000 0.000000 0.000000 

-0.000000 0.000000 0.000000 
0.000000 -0.000000 0.000000 
0.000000 0.000000 0.000000 

0.000000 0.000000 0.000000 
0.000000 -0.000000 0.000000 
0.000000 0.000000 0.000000 

0.000000 0.000000 0.000000 
0.000000 -0.000000 0.000000 
0.000000 0.000000 0.000000 

-0.000000 0.000000 0.000000 
0.000000 0.000000 0.000000 
0.000000 0.000000 0.000000 

-0.000000 -0.000000 0.000000 
0.000000 0.000000 0.000000 
0.000000 0.000000 0.000000 

0.000000 0.000000 0.000000 
0.000000 -0.000000 0.000000 
0.000000 0.000000 0.000000 

0.000000 0.000000 0.000000 
0.000000 -0.000000 0.000000 
0.000000 0.000000 0.000000 

0.000000 0.000000 0.000000 
0.000000 -0.000000 0.000000 
0.000000 0.000000 0.000000 

-0.000000 0.000000 0.000000 
0.000000 0.000000 0.000000 
0.000000 0.000000 0.000000 

-0.000000 -0.000000 0.000000 
0.000000 0.000000 0.000000 
0.000000 0.000000 0.000000 

0.000000 -0.000000 0.000000 
0.000000 0.000000 0.000000 
0.000000 0.000000 0.000000 

0.000000 -0.000000 0.000000 
0.000000 -0.000000 0.000000 
0.000000 0.000000 0.000000 

0.000000 0.000000 0.000000 
0.000000 -0.000000 0.000000 
0.000000 0.000000 0.000000 

0.000000 0.000000 0.000000 
0.000000 -0.000000 0.000000 
0.000000 0.000000 0.000000 

0.000000 0.000000 0.000000 
0.000000 -0.000000 0.000000 
0.000000 0.000000 0.000000 

0.000000 0.000000 0.000000 
0.000000 -0.000000 0.000000 
0.000000 0.000000 0.000000 

-0.000000 0.000000 0.000000 
0.000000 0.000000 0.000000 
0.000000 0.000000 0.000000 

-0.000000 0.000000 0.000000 
0.000000 0.000000 0.000000 
0.000000 0.000000 0.000000 

0.000000 -0.000000 0.000000 
0.000000 -0.000000 0.000000 
0.000000 0.000000 0.000000 

0.000000 0.000000 0.000000 
0.000000 -0.000000 0.000000 
0.000000 0.000000 0.000000 

0.000000 -0.000000 0.000000 
0.000000 0.000000 0.000000 
0.000000 0.000000 0.000000 

-0.000000 0.000000 0.000000 
0.000000 -0.000000 0.000000 
0.000000 0.000000 0.000000 

-0.000000 -0.000000 0.000000 
0.000000 0.000000 0.000000 
0.000000 0.000000 0.000000 

0.000000 -0.000000 0.000000 
0.000000 -0.000000 0.000000 
0.000000 0.000000 0.000000 

0.000000 0.000000 0.000000 
0.000000 -0.000000 0.000000 
0.000000 0.000000 0.000000 

0.000000 -0.000000 0.000000 
0.000000 -0.000000 0.000000 
0.000000 0.000000 0.000000 

0.000000 -0.000000 0.000000 
0.000000 -0.000000 0.000000 
0.000000 0.000000 0.000000 

-0.000000 0.000000 0.000000 
0.000000 0.000000 0.000000 
0.000000 0.000000 0.000000 

-0.000000 -0.000000 0.000000 
0.000000 0.000000 0.000000 
0.000000 0.000000 0.000000 

-0.000000 0.000000 0.000000 
0.000000 -0.000000 0.000000 
0.000000 0.000000 0.000000 

-0.000000 0.000000 0.000000 
0.000000 -0.000000 0.000000 
0.000000 0.000000 0.000000 

-0.000000 0.000000 0.000000 
0.000000 0.000000 0.000000 
0.000000 0.000000 0.000000 

-0.000000 0.000000 0.000000 
0.000000 0.000000 0.000000 
0.000000 0.000000 0.000000 

-0.000000 -0.000000 0.000000 
0.000000 0.000000 0.000000 
0.000000 0.000000 0.000000 

-0.000000 0.000000 0.000000 
0.000000 -0.000000 0.000000 
0.000000 0.000000 0.000000 

0.000000 0.000000 0.000000 
0.000000 0.000000 0.000000 
0.000000 0.000000 0.000000 

-0.000000 0.000000 0.000000 
0.000000 -0.000000 0.000000 
0.000000 0.000000 0.000000 

-0.000000 0.000000 0.000000 
0.000000 0.000000 0.000000 
0.000000 0.000000 0.000000 

-0.000000 0.000000 0.000000 
0.000000 0.000000 0.000000 
0.000000 0.000000 0.000000 

0.000000 0.000000 0.000000 
0.000000 -0.000000 0.000000 
0.000000 0.000000 0.000000 

-0.000000 -0.000000 0.000000 
0.000000 0.000000 0.000000 
0.000000 0.000000 0.000000 

-0.000000 -0.000000 0.000000 
0.000000 0.000000 0.000000 
0.000000 0.000000 0.000000 

-0.000000 -0.000000 0.000000 
0.000000 0.000000 0.000000 
0.000000 0.000000 0.000000 

0.000000 0.000000 0.000000 
0.000000 -0.000000 0.000000 
0.000000 0.000000 0.000000 

0.000000 0.000000 0.000000 
0.000000 -0.000000 0.000000 
0.000000 0.000000 0.000000 

0.000000 0.000000 0.000000 
0.000000 -0.000000 0.000000 
0.000000 0.000000 0.000000 

-0.000000 -0.000000 0.000000 
0.000000 0.000000 0.000000 
0.000000 0.000000 0.000000 

0.000000 -0.000000 0.000000 
0.000000 -0.000000 0.000000 
0.000000 0.000000 0.000000 

0.000000 -0.000000 0.000000 
0.000000 -0.000000 0.000000 
0.000000 0.000000 0.000000 

