# vtk DataFile Version 3.0 
vtk output 
ASCII 
DATASET UNSTRUCTURED_GRID 
POINTS 175 float 
-0.026061 -1.727612 0.000000 
-0.106992 -1.659556 0.000000 
-0.054870 -1.667789 0.000000 
-0.028809 -1.621905 0.000000 
-0.186430 -1.595481 0.000000 
-0.137056 -1.598007 0.000000 
-0.114311 -1.544360 0.000000 
-0.058186 -1.560025 0.000000 
-0.029377 -1.519848 0.000000 
-0.265318 -1.532325 0.000000 
-0.217198 -1.533125 0.000000 
-0.196633 -1.475828 0.000000 
-0.143120 -1.484537 0.000000 
-0.116563 -1.437268 0.000000 
-0.058945 -1.456914 0.000000 
-0.029568 -1.418794 0.000000 
-0.344206 -1.469169 0.000000 
-0.296791 -1.469162 0.000000 
-0.278030 -1.409219 0.000000 
-0.225992 -1.415085 0.000000 
-0.201664 -1.362968 0.000000 
-0.145749 -1.376442 0.000000 
-0.117890 -1.332100 0.000000 
-0.059328 -1.354806 0.000000 
-0.029759 -1.317740 0.000000 
-0.058559 -1.768362 0.000000 
-0.162226 -1.789205 0.000000 
-0.123292 -1.753587 0.000000 
-0.142917 -1.704604 0.000000 
-0.261851 -1.811361 0.000000 
-0.229092 -1.774334 0.000000 
-0.256854 -1.723103 0.000000 
-0.209613 -1.688990 0.000000 
-0.223062 -1.641416 0.000000 
-0.360414 -1.833661 0.000000 
-0.329787 -1.796539 0.000000 
-0.361761 -1.744737 0.000000 
-0.321587 -1.708328 0.000000 
-0.341985 -1.658094 0.000000 
-0.290702 -1.625295 0.000000 
-0.302189 -1.578560 0.000000 
-0.458977 -1.855962 0.000000 
-0.429420 -1.818887 0.000000 
-0.464588 -1.766845 0.000000 
-0.427556 -1.729818 0.000000 
-0.453135 -1.678303 0.000000 
-0.407738 -1.642988 0.000000 
-0.425037 -1.593560 0.000000 
-0.370772 -1.561930 0.000000 
-0.381315 -1.515703 0.000000 
-0.046960 -1.819178 0.000000 
-0.095301 -1.913223 0.000000 
-0.098873 -1.860576 0.000000 
-0.149405 -1.845379 0.000000 
-0.140093 -2.004927 0.000000 
-0.148617 -1.956229 0.000000 
-0.205981 -1.945992 0.000000 
-0.203197 -1.887789 0.000000 
-0.248777 -1.868642 0.000000 
-0.184111 -2.095891 0.000000 
-0.194039 -2.048800 0.000000 
-0.254475 -2.041500 0.000000 
-0.257893 -1.987391 0.000000 
-0.309886 -1.972018 0.000000 
-0.303554 -1.911473 0.000000 
-0.347255 -1.891315 0.000000 
-0.228129 -2.186855 0.000000 
-0.238687 -2.140630 0.000000 
-0.301302 -2.135678 0.000000 
-0.307162 -2.083639 0.000000 
-0.363386 -2.071518 0.000000 
-0.362692 -2.014007 0.000000 
-0.412122 -1.996714 0.000000 
-0.403017 -1.934567 0.000000 
-0.445733 -1.913988 0.000000 
-0.000000 -1.841792 0.000000 
0.043388 -1.938223 0.000000 
-0.000000 -1.908191 0.000000 
-0.043388 -1.938223 0.000000 
0.087158 -2.030420 0.000000 
0.043769 -2.006721 0.000000 
-0.000000 -2.045187 0.000000 
-0.043769 -2.006721 0.000000 
-0.087158 -2.030420 0.000000 
0.130831 -2.121549 0.000000 
0.087824 -2.099951 0.000000 
0.044436 -2.142650 0.000000 
-0.000000 -2.111585 0.000000 
-0.044436 -2.142650 0.000000 
-0.087824 -2.099951 0.000000 
-0.130831 -2.121549 0.000000 
0.174505 -2.212679 0.000000 
0.131782 -2.192113 0.000000 
0.088871 -2.237980 0.000000 
0.044532 -2.210116 0.000000 
-0.000000 -2.246516 0.000000 
-0.044532 -2.210116 0.000000 
-0.088871 -2.237980 0.000000 
-0.131782 -2.192113 0.000000 
-0.174505 -2.212679 0.000000 
0.046960 -1.819178 0.000000 
0.149405 -1.845379 0.000000 
0.098873 -1.860576 0.000000 
0.095301 -1.913223 0.000000 
0.248777 -1.868642 0.000000 
0.203197 -1.887789 0.000000 
0.205981 -1.945992 0.000000 
0.148617 -1.956229 0.000000 
0.140093 -2.004927 0.000000 
0.347255 -1.891315 0.000000 
0.303554 -1.911473 0.000000 
0.309886 -1.972018 0.000000 
0.257893 -1.987391 0.000000 
0.254475 -2.041500 0.000000 
0.194039 -2.048800 0.000000 
0.184111 -2.095891 0.000000 
0.445733 -1.913988 0.000000 
0.403017 -1.934567 0.000000 
0.412122 -1.996714 0.000000 
0.362692 -2.014007 0.000000 
0.363386 -2.071518 0.000000 
0.307162 -2.083639 0.000000 
0.301302 -2.135678 0.000000 
0.238687 -2.140630 0.000000 
0.228129 -2.186855 0.000000 
0.058559 -1.768362 0.000000 
0.142917 -1.704604 0.000000 
0.123292 -1.753587 0.000000 
0.162226 -1.789205 0.000000 
0.223062 -1.641416 0.000000 
0.209613 -1.688990 0.000000 
0.256854 -1.723103 0.000000 
0.229092 -1.774334 0.000000 
0.261851 -1.811361 0.000000 
0.302189 -1.578560 0.000000 
0.290702 -1.625295 0.000000 
0.341985 -1.658094 0.000000 
0.321587 -1.708328 0.000000 
0.361761 -1.744737 0.000000 
0.329787 -1.796539 0.000000 
0.360414 -1.833662 0.000000 
0.381315 -1.515703 0.000000 
0.370772 -1.561930 0.000000 
0.425037 -1.593560 0.000000 
0.407738 -1.642988 0.000000 
0.453135 -1.678303 0.000000 
0.427556 -1.729818 0.000000 
0.464588 -1.766845 0.000000 
0.429420 -1.818887 0.000000 
0.458977 -1.855962 0.000000 
0.026061 -1.727612 0.000000 
0.028809 -1.621905 0.000000 
0.054870 -1.667789 0.000000 
0.106992 -1.659556 0.000000 
0.029377 -1.519848 0.000000 
0.058186 -1.560025 0.000000 
0.114311 -1.544360 0.000000 
0.137056 -1.598007 0.000000 
0.186430 -1.595481 0.000000 
0.029568 -1.418794 0.000000 
0.058945 -1.456914 0.000000 
0.116563 -1.437268 0.000000 
0.143120 -1.484537 0.000000 
0.196633 -1.475828 0.000000 
0.217198 -1.533125 0.000000 
0.265318 -1.532325 0.000000 
0.029759 -1.317740 0.000000 
0.059328 -1.354806 0.000000 
0.117890 -1.332100 0.000000 
0.145749 -1.376442 0.000000 
0.201664 -1.362968 0.000000 
0.225992 -1.415085 0.000000 
0.278030 -1.409219 0.000000 
0.296791 -1.469162 0.000000 
0.344206 -1.469169 0.000000 
CELLS 175 350 
1 0 
1 1 
1 2 
1 3 
1 4 
1 5 
1 6 
1 7 
1 8 
1 9 
1 10 
1 11 
1 12 
1 13 
1 14 
1 15 
1 16 
1 17 
1 18 
1 19 
1 20 
1 21 
1 22 
1 23 
1 24 
1 25 
1 26 
1 27 
1 28 
1 29 
1 30 
1 31 
1 32 
1 33 
1 34 
1 35 
1 36 
1 37 
1 38 
1 39 
1 40 
1 41 
1 42 
1 43 
1 44 
1 45 
1 46 
1 47 
1 48 
1 49 
1 50 
1 51 
1 52 
1 53 
1 54 
1 55 
1 56 
1 57 
1 58 
1 59 
1 60 
1 61 
1 62 
1 63 
1 64 
1 65 
1 66 
1 67 
1 68 
1 69 
1 70 
1 71 
1 72 
1 73 
1 74 
1 75 
1 76 
1 77 
1 78 
1 79 
1 80 
1 81 
1 82 
1 83 
1 84 
1 85 
1 86 
1 87 
1 88 
1 89 
1 90 
1 91 
1 92 
1 93 
1 94 
1 95 
1 96 
1 97 
1 98 
1 99 
1 100 
1 101 
1 102 
1 103 
1 104 
1 105 
1 106 
1 107 
1 108 
1 109 
1 110 
1 111 
1 112 
1 113 
1 114 
1 115 
1 116 
1 117 
1 118 
1 119 
1 120 
1 121 
1 122 
1 123 
1 124 
1 125 
1 126 
1 127 
1 128 
1 129 
1 130 
1 131 
1 132 
1 133 
1 134 
1 135 
1 136 
1 137 
1 138 
1 139 
1 140 
1 141 
1 142 
1 143 
1 144 
1 145 
1 146 
1 147 
1 148 
1 149 
1 150 
1 151 
1 152 
1 153 
1 154 
1 155 
1 156 
1 157 
1 158 
1 159 
1 160 
1 161 
1 162 
1 163 
1 164 
1 165 
1 166 
1 167 
1 168 
1 169 
1 170 
1 171 
1 172 
1 173 
1 174 
CELL_TYPES 175 
1 
1 
1 
1 
1 
1 
1 
1 
1 
1 
1 
1 
1 
1 
1 
1 
1 
1 
1 
1 
1 
1 
1 
1 
1 
1 
1 
1 
1 
1 
1 
1 
1 
1 
1 
1 
1 
1 
1 
1 
1 
1 
1 
1 
1 
1 
1 
1 
1 
1 
1 
1 
1 
1 
1 
1 
1 
1 
1 
1 
1 
1 
1 
1 
1 
1 
1 
1 
1 
1 
1 
1 
1 
1 
1 
1 
1 
1 
1 
1 
1 
1 
1 
1 
1 
1 
1 
1 
1 
1 
1 
1 
1 
1 
1 
1 
1 
1 
1 
1 
1 
1 
1 
1 
1 
1 
1 
1 
1 
1 
1 
1 
1 
1 
1 
1 
1 
1 
1 
1 
1 
1 
1 
1 
1 
1 
1 
1 
1 
1 
1 
1 
1 
1 
1 
1 
1 
1 
1 
1 
1 
1 
1 
1 
1 
1 
1 
1 
1 
1 
1 
1 
1 
1 
1 
1 
1 
1 
1 
1 
1 
1 
1 
1 
1 
1 
1 
1 
1 
1 
1 
1 
1 
1 
1 
POINT_DATA 175 
VECTORS X_GC float 
-0.026061 -1.727612 0.000000 
-0.106992 -1.659556 0.000000 
-0.054870 -1.667789 0.000000 
-0.028809 -1.621905 0.000000 
-0.186430 -1.595481 0.000000 
-0.137056 -1.598007 0.000000 
-0.114311 -1.544360 0.000000 
-0.058186 -1.560025 0.000000 
-0.029377 -1.519848 0.000000 
-0.265318 -1.532325 0.000000 
-0.217198 -1.533125 0.000000 
-0.196633 -1.475828 0.000000 
-0.143120 -1.484537 0.000000 
-0.116563 -1.437268 0.000000 
-0.058945 -1.456914 0.000000 
-0.029568 -1.418794 0.000000 
-0.344206 -1.469169 0.000000 
-0.296791 -1.469162 0.000000 
-0.278030 -1.409219 0.000000 
-0.225992 -1.415085 0.000000 
-0.201664 -1.362968 0.000000 
-0.145749 -1.376442 0.000000 
-0.117890 -1.332100 0.000000 
-0.059328 -1.354806 0.000000 
-0.029759 -1.317740 0.000000 
-0.058559 -1.768362 0.000000 
-0.162226 -1.789205 0.000000 
-0.123292 -1.753587 0.000000 
-0.142917 -1.704604 0.000000 
-0.261851 -1.811361 0.000000 
-0.229092 -1.774334 0.000000 
-0.256854 -1.723103 0.000000 
-0.209613 -1.688990 0.000000 
-0.223062 -1.641416 0.000000 
-0.360414 -1.833661 0.000000 
-0.329787 -1.796539 0.000000 
-0.361761 -1.744737 0.000000 
-0.321587 -1.708328 0.000000 
-0.341985 -1.658094 0.000000 
-0.290702 -1.625295 0.000000 
-0.302189 -1.578560 0.000000 
-0.458977 -1.855962 0.000000 
-0.429420 -1.818887 0.000000 
-0.464588 -1.766845 0.000000 
-0.427556 -1.729818 0.000000 
-0.453135 -1.678303 0.000000 
-0.407738 -1.642988 0.000000 
-0.425037 -1.593560 0.000000 
-0.370772 -1.561930 0.000000 
-0.381315 -1.515703 0.000000 
-0.046960 -1.819178 0.000000 
-0.095301 -1.913223 0.000000 
-0.098873 -1.860576 0.000000 
-0.149405 -1.845379 0.000000 
-0.140093 -2.004927 0.000000 
-0.148617 -1.956229 0.000000 
-0.205981 -1.945992 0.000000 
-0.203197 -1.887789 0.000000 
-0.248777 -1.868642 0.000000 
-0.184111 -2.095891 0.000000 
-0.194039 -2.048800 0.000000 
-0.254475 -2.041500 0.000000 
-0.257893 -1.987391 0.000000 
-0.309886 -1.972018 0.000000 
-0.303554 -1.911473 0.000000 
-0.347255 -1.891315 0.000000 
-0.228129 -2.186855 0.000000 
-0.238687 -2.140630 0.000000 
-0.301302 -2.135678 0.000000 
-0.307162 -2.083639 0.000000 
-0.363386 -2.071518 0.000000 
-0.362692 -2.014007 0.000000 
-0.412122 -1.996714 0.000000 
-0.403017 -1.934567 0.000000 
-0.445733 -1.913988 0.000000 
-0.000000 -1.841792 0.000000 
0.043388 -1.938223 0.000000 
-0.000000 -1.908191 0.000000 
-0.043388 -1.938223 0.000000 
0.087158 -2.030420 0.000000 
0.043769 -2.006721 0.000000 
-0.000000 -2.045187 0.000000 
-0.043769 -2.006721 0.000000 
-0.087158 -2.030420 0.000000 
0.130831 -2.121549 0.000000 
0.087824 -2.099951 0.000000 
0.044436 -2.142650 0.000000 
-0.000000 -2.111585 0.000000 
-0.044436 -2.142650 0.000000 
-0.087824 -2.099951 0.000000 
-0.130831 -2.121549 0.000000 
0.174505 -2.212679 0.000000 
0.131782 -2.192113 0.000000 
0.088871 -2.237980 0.000000 
0.044532 -2.210116 0.000000 
-0.000000 -2.246516 0.000000 
-0.044532 -2.210116 0.000000 
-0.088871 -2.237980 0.000000 
-0.131782 -2.192113 0.000000 
-0.174505 -2.212679 0.000000 
0.046960 -1.819178 0.000000 
0.149405 -1.845379 0.000000 
0.098873 -1.860576 0.000000 
0.095301 -1.913223 0.000000 
0.248777 -1.868642 0.000000 
0.203197 -1.887789 0.000000 
0.205981 -1.945992 0.000000 
0.148617 -1.956229 0.000000 
0.140093 -2.004927 0.000000 
0.347255 -1.891315 0.000000 
0.303554 -1.911473 0.000000 
0.309886 -1.972018 0.000000 
0.257893 -1.987391 0.000000 
0.254475 -2.041500 0.000000 
0.194039 -2.048800 0.000000 
0.184111 -2.095891 0.000000 
0.445733 -1.913988 0.000000 
0.403017 -1.934567 0.000000 
0.412122 -1.996714 0.000000 
0.362692 -2.014007 0.000000 
0.363386 -2.071518 0.000000 
0.307162 -2.083639 0.000000 
0.301302 -2.135678 0.000000 
0.238687 -2.140630 0.000000 
0.228129 -2.186855 0.000000 
0.058559 -1.768362 0.000000 
0.142917 -1.704604 0.000000 
0.123292 -1.753587 0.000000 
0.162226 -1.789205 0.000000 
0.223062 -1.641416 0.000000 
0.209613 -1.688990 0.000000 
0.256854 -1.723103 0.000000 
0.229092 -1.774334 0.000000 
0.261851 -1.811361 0.000000 
0.302189 -1.578560 0.000000 
0.290702 -1.625295 0.000000 
0.341985 -1.658094 0.000000 
0.321587 -1.708328 0.000000 
0.361761 -1.744737 0.000000 
0.329787 -1.796539 0.000000 
0.360414 -1.833662 0.000000 
0.381315 -1.515703 0.000000 
0.370772 -1.561930 0.000000 
0.425037 -1.593560 0.000000 
0.407738 -1.642988 0.000000 
0.453135 -1.678303 0.000000 
0.427556 -1.729818 0.000000 
0.464588 -1.766845 0.000000 
0.429420 -1.818887 0.000000 
0.458977 -1.855962 0.000000 
0.026061 -1.727612 0.000000 
0.028809 -1.621905 0.000000 
0.054870 -1.667789 0.000000 
0.106992 -1.659556 0.000000 
0.029377 -1.519848 0.000000 
0.058186 -1.560025 0.000000 
0.114311 -1.544360 0.000000 
0.137056 -1.598007 0.000000 
0.186430 -1.595481 0.000000 
0.029568 -1.418794 0.000000 
0.058945 -1.456914 0.000000 
0.116563 -1.437268 0.000000 
0.143120 -1.484537 0.000000 
0.196633 -1.475828 0.000000 
0.217198 -1.533125 0.000000 
0.265318 -1.532325 0.000000 
0.029759 -1.317740 0.000000 
0.059328 -1.354806 0.000000 
0.117890 -1.332100 0.000000 
0.145749 -1.376442 0.000000 
0.201664 -1.362968 0.000000 
0.225992 -1.415085 0.000000 
0.278030 -1.409219 0.000000 
0.296791 -1.469162 0.000000 
0.344206 -1.469169 0.000000 
VECTORS X_EC float 
0.338794 -0.177244 0.000000 
-0.609100 0.904008 0.000000 
0.713312 -0.984851 0.000000 
0.374519 0.395719 0.000000 
0.423588 0.038989 0.000000 
-0.218274 0.073092 0.000000 
-0.513962 -0.651147 0.000000 
0.756418 -0.439661 0.000000 
0.381900 -0.982053 0.000000 
-0.550868 -0.813615 0.000000 
0.823577 -0.802819 0.000000 
0.556234 0.423677 0.000000 
-0.139443 0.541246 0.000000 
-0.484677 -0.096879 0.000000 
0.766286 0.168336 0.000000 
0.384386 -0.346284 0.000000 
0.474677 0.333782 0.000000 
-0.141715 0.333686 0.000000 
-0.385608 -0.475542 0.000000 
0.937896 -0.396347 0.000000 
0.621631 0.900073 0.000000 
-0.105264 -0.918028 0.000000 
-0.467428 0.483346 0.000000 
0.771260 0.789875 0.000000 
0.386873 0.289485 0.000000 
0.761262 0.372891 0.000000 
0.108942 0.654267 0.000000 
-0.397202 0.173428 0.000000 
-0.142083 -0.487847 0.000000 
-0.595936 0.953378 0.000000 
0.978194 0.453512 0.000000 
-0.660903 -0.238113 0.000000 
0.724964 -0.698633 0.000000 
0.899809 0.659118 0.000000 
0.685384 -0.745570 0.000000 
0.287229 0.753272 0.000000 
0.702895 0.053943 0.000000 
0.180633 -0.437575 0.000000 
0.445811 0.884265 0.000000 
-0.220880 0.441479 0.000000 
-0.071546 -0.189446 0.000000 
-0.033296 -0.444518 0.000000 
-0.417537 -0.945027 0.000000 
0.039645 0.352410 0.000000 
-0.441768 -0.147461 0.000000 
-0.109248 -0.842912 0.000000 
-0.699407 0.680333 0.000000 
-0.474522 0.013054 0.000000 
0.820030 -0.413940 0.000000 
0.957100 0.961989 0.000000 
0.610485 -0.941103 0.000000 
-0.761092 0.328517 0.000000 
-0.714655 -0.382221 0.000000 
-0.057734 -0.587388 0.000000 
-0.178789 -0.433479 0.000000 
-0.067979 0.909095 0.000000 
0.677748 0.770891 0.000000 
0.641556 -0.014854 0.000000 
-0.765897 -0.273333 0.000000 
0.393446 0.794530 0.000000 
0.522510 0.158800 0.000000 
-0.691820 0.060256 0.000000 
-0.647393 -0.670227 0.000000 
0.028512 -0.877754 0.000000 
-0.053800 0.304886 0.000000 
0.514316 0.032755 0.000000 
0.965681 0.022539 0.000000 
-0.897068 -0.601490 0.000000 
-0.083078 -0.668343 0.000000 
-0.006893 0.629133 0.000000 
0.724017 0.465500 0.000000 
0.714996 -0.310904 0.000000 
-0.642413 -0.544361 0.000000 
-0.760780 0.616658 0.000000 
-0.205471 0.338843 0.000000 
0.000000 -0.635801 0.000000 
-0.564049 0.666012 0.000000 
0.000000 0.260576 0.000000 
0.564049 0.666012 0.000000 
0.866949 -0.089333 0.000000 
-0.569003 -0.409264 0.000000 
0.000000 0.110024 0.000000 
0.569003 -0.409264 0.000000 
-0.866949 -0.089333 0.000000 
0.299194 -0.859083 0.000000 
0.858290 0.849333 0.000000 
-0.577662 -0.574221 0.000000 
0.000000 -0.993599 0.000000 
0.577662 -0.574221 0.000000 
-0.858290 0.849333 0.000000 
-0.299194 -0.859083 0.000000 
-0.268560 0.371167 0.000000 
0.286830 0.093525 0.000000 
0.844677 0.712724 0.000000 
-0.578910 0.336561 0.000000 
0.000000 0.827965 0.000000 
0.578910 0.336561 0.000000 
-0.844677 0.712724 0.000000 
-0.286830 0.093525 0.000000 
0.268560 0.371167 0.000000 
-0.610485 -0.941103 0.000000 
0.057734 -0.587388 0.000000 
0.714655 -0.382221 0.000000 
0.761092 0.328517 0.000000 
0.765897 -0.273333 0.000000 
-0.641556 -0.014854 0.000000 
-0.677748 0.770891 0.000000 
0.067979 0.909095 0.000000 
0.178789 -0.433479 0.000000 
-0.514316 0.032755 0.000000 
0.053800 0.304886 0.000000 
-0.028512 -0.877754 0.000000 
0.647393 -0.670227 0.000000 
0.691820 0.060256 0.000000 
-0.522510 0.158800 0.000000 
-0.393446 0.794530 0.000000 
0.205471 0.338843 0.000000 
0.760780 0.616658 0.000000 
0.642413 -0.544361 0.000000 
-0.714996 -0.310904 0.000000 
-0.724017 0.465500 0.000000 
0.006894 0.629133 0.000000 
0.083078 -0.668343 0.000000 
0.897068 -0.601490 0.000000 
-0.965681 0.022539 0.000000 
-0.761262 0.372891 0.000000 
0.142083 -0.487847 0.000000 
0.397202 0.173428 0.000000 
-0.108942 0.654267 0.000000 
-0.899809 0.659118 0.000000 
-0.724964 -0.698633 0.000000 
0.660903 -0.238113 0.000000 
-0.978194 0.453512 0.000000 
0.595936 0.953378 0.000000 
0.071546 -0.189446 0.000000 
0.220880 0.441479 0.000000 
-0.445811 0.884265 0.000000 
-0.180633 -0.437575 0.000000 
-0.702895 0.053943 0.000000 
-0.287229 0.753272 0.000000 
-0.685384 -0.745570 0.000000 
-0.957100 0.961989 0.000000 
-0.820030 -0.413940 0.000000 
0.474522 0.013054 0.000000 
0.699407 0.680333 0.000000 
0.109248 -0.842912 0.000000 
0.441768 -0.147461 0.000000 
-0.039645 0.352410 0.000000 
0.417537 -0.945027 0.000000 
0.033296 -0.444518 0.000000 
-0.338794 -0.177244 0.000000 
-0.374519 0.395719 0.000000 
-0.713312 -0.984851 0.000000 
0.609100 0.904008 0.000000 
-0.381900 -0.982053 0.000000 
-0.756418 -0.439661 0.000000 
0.513962 -0.651147 0.000000 
0.218274 0.073092 0.000000 
-0.423588 0.038989 0.000000 
-0.384386 -0.346284 0.000000 
-0.766286 0.168336 0.000000 
0.484677 -0.096879 0.000000 
0.139443 0.541246 0.000000 
-0.556234 0.423677 0.000000 
-0.823577 -0.802819 0.000000 
0.550868 -0.813615 0.000000 
-0.386873 0.289485 0.000000 
-0.771260 0.789875 0.000000 
0.467428 0.483346 0.000000 
0.105264 -0.918028 0.000000 
-0.621631 0.900073 0.000000 
-0.937896 -0.396347 0.000000 
0.385608 -0.475542 0.000000 
0.141715 0.333686 0.000000 
-0.474677 0.333782 0.000000 
CELL_DATA 175 
SCALARS MASS float 
LOOKUP_TABLE default 
0.781831 
0.864274 
0.946717 
0.864274 
0.881307 
0.921110 
0.858535 
0.921110 
0.881307 
0.887046 
0.910001 
0.869829 
0.915556 
0.869829 
0.910001 
0.887046 
0.892784 
0.915740 
0.892784 
0.927218 
0.892784 
0.927218 
0.892784 
0.915740 
0.892784 
0.781831 
0.864274 
0.946717 
0.864274 
0.881307 
0.921110 
0.858535 
0.921110 
0.881307 
0.887046 
0.910001 
0.869829 
0.915556 
0.869829 
0.910001 
0.887046 
0.892784 
0.915740 
0.892784 
0.927218 
0.892784 
0.927218 
0.892784 
0.915740 
0.892784 
0.781831 
0.864274 
0.946717 
0.864274 
0.881307 
0.921110 
0.858535 
0.921110 
0.881307 
0.887046 
0.910001 
0.869829 
0.915556 
0.869829 
0.910001 
0.887046 
0.892784 
0.915740 
0.892784 
0.927218 
0.892784 
0.927218 
0.892784 
0.915740 
0.892784 
0.781831 
0.864274 
0.946717 
0.864274 
0.881307 
0.921110 
0.858535 
0.921110 
0.881307 
0.887046 
0.910001 
0.869829 
0.915556 
0.869829 
0.910001 
0.887046 
0.892784 
0.915740 
0.892784 
0.927218 
0.892784 
0.927218 
0.892784 
0.915740 
0.892784 
0.781831 
0.864274 
0.946717 
0.864274 
0.881307 
0.921110 
0.858535 
0.921110 
0.881307 
0.887046 
0.910001 
0.869829 
0.915556 
0.869829 
0.910001 
0.887046 
0.892784 
0.915740 
0.892784 
0.927218 
0.892784 
0.927218 
0.892784 
0.915740 
0.892784 
0.781831 
0.864274 
0.946717 
0.864274 
0.881307 
0.921110 
0.858535 
0.921110 
0.881307 
0.887046 
0.910001 
0.869829 
0.915556 
0.869829 
0.910001 
0.887046 
0.892784 
0.915740 
0.892784 
0.927218 
0.892784 
0.927218 
0.892784 
0.915740 
0.892784 
0.781831 
0.864274 
0.946717 
0.864274 
0.881307 
0.921110 
0.858535 
0.921110 
0.881307 
0.887046 
0.910001 
0.869829 
0.915556 
0.869829 
0.910001 
0.887046 
0.892784 
0.915740 
0.892784 
0.927218 
0.892784 
0.927218 
0.892784 
0.915740 
0.892784 
SCALARS MASS float 
LOOKUP_TABLE default 
0.781831 
0.864274 
0.946717 
0.864274 
0.881307 
0.921110 
0.858535 
0.921110 
0.881307 
0.887046 
0.910001 
0.869829 
0.915556 
0.869829 
0.910001 
0.887046 
0.892784 
0.915740 
0.892784 
0.927218 
0.892784 
0.927218 
0.892784 
0.915740 
0.892784 
0.781831 
0.864274 
0.946717 
0.864274 
0.881307 
0.921110 
0.858535 
0.921110 
0.881307 
0.887046 
0.910001 
0.869829 
0.915556 
0.869829 
0.910001 
0.887046 
0.892784 
0.915740 
0.892784 
0.927218 
0.892784 
0.927218 
0.892784 
0.915740 
0.892784 
0.781831 
0.864274 
0.946717 
0.864274 
0.881307 
0.921110 
0.858535 
0.921110 
0.881307 
0.887046 
0.910001 
0.869829 
0.915556 
0.869829 
0.910001 
0.887046 
0.892784 
0.915740 
0.892784 
0.927218 
0.892784 
0.927218 
0.892784 
0.915740 
0.892784 
0.781831 
0.864274 
0.946717 
0.864274 
0.881307 
0.921110 
0.858535 
0.921110 
0.881307 
0.887046 
0.910001 
0.869829 
0.915556 
0.869829 
0.910001 
0.887046 
0.892784 
0.915740 
0.892784 
0.927218 
0.892784 
0.927218 
0.892784 
0.915740 
0.892784 
0.781831 
0.864274 
0.946717 
0.864274 
0.881307 
0.921110 
0.858535 
0.921110 
0.881307 
0.887046 
0.910001 
0.869829 
0.915556 
0.869829 
0.910001 
0.887046 
0.892784 
0.915740 
0.892784 
0.927218 
0.892784 
0.927218 
0.892784 
0.915740 
0.892784 
0.781831 
0.864274 
0.946717 
0.864274 
0.881307 
0.921110 
0.858535 
0.921110 
0.881307 
0.887046 
0.910001 
0.869829 
0.915556 
0.869829 
0.910001 
0.887046 
0.892784 
0.915740 
0.892784 
0.927218 
0.892784 
0.927218 
0.892784 
0.915740 
0.892784 
0.781831 
0.864274 
0.946717 
0.864274 
0.881307 
0.921110 
0.858535 
0.921110 
0.881307 
0.887046 
0.910001 
0.869829 
0.915556 
0.869829 
0.910001 
0.887046 
0.892784 
0.915740 
0.892784 
0.927218 
0.892784 
0.927218 
0.892784 
0.915740 
0.892784 
SCALARS DENSITY float 
LOOKUP_TABLE default 
200.000000 
200.000000 
200.000000 
200.000000 
200.000000 
200.000000 
200.000000 
200.000000 
200.000000 
200.000000 
200.000000 
200.000000 
200.000000 
200.000000 
200.000000 
200.000000 
200.000000 
200.000000 
200.000000 
200.000000 
200.000000 
200.000000 
200.000000 
200.000000 
200.000000 
200.000000 
200.000000 
200.000000 
200.000000 
200.000000 
200.000000 
200.000000 
200.000000 
200.000000 
200.000000 
200.000000 
200.000000 
200.000000 
200.000000 
200.000000 
200.000000 
200.000000 
200.000000 
200.000000 
200.000000 
200.000000 
200.000000 
200.000000 
200.000000 
200.000000 
200.000000 
200.000000 
200.000000 
200.000000 
200.000000 
200.000000 
200.000000 
200.000000 
200.000000 
200.000000 
200.000000 
200.000000 
200.000000 
200.000000 
200.000000 
200.000000 
200.000000 
200.000000 
200.000000 
200.000000 
200.000000 
200.000000 
200.000000 
200.000000 
200.000000 
200.000000 
200.000000 
200.000000 
200.000000 
200.000000 
200.000000 
200.000000 
200.000000 
200.000000 
200.000000 
200.000000 
200.000000 
200.000000 
200.000000 
200.000000 
200.000000 
200.000000 
200.000000 
200.000000 
200.000000 
200.000000 
200.000000 
200.000000 
200.000000 
200.000000 
200.000000 
200.000000 
200.000000 
200.000000 
200.000000 
200.000000 
200.000000 
200.000000 
200.000000 
200.000000 
200.000000 
200.000000 
200.000000 
200.000000 
200.000000 
200.000000 
200.000000 
200.000000 
200.000000 
200.000000 
200.000000 
200.000000 
200.000000 
200.000000 
200.000000 
200.000000 
200.000000 
200.000000 
200.000000 
200.000000 
200.000000 
200.000000 
200.000000 
200.000000 
200.000000 
200.000000 
200.000000 
200.000000 
200.000000 
200.000000 
200.000000 
200.000000 
200.000000 
200.000000 
200.000000 
200.000000 
200.000000 
200.000000 
200.000000 
200.000000 
200.000000 
200.000000 
200.000000 
200.000000 
200.000000 
200.000000 
200.000000 
200.000000 
200.000000 
200.000000 
200.000000 
200.000000 
200.000000 
200.000000 
200.000000 
200.000000 
200.000000 
200.000000 
200.000000 
200.000000 
200.000000 
200.000000 
200.000000 
200.000000 
200.000000 
SCALARS ELEM_i float 
LOOKUP_TABLE default 
170 
198 
170 
171 
198 
198 
198 
171 
171 
225 
198 
199 
199 
199 
172 
172 
226 
226 
226 
199 
200 
199 
200 
173 
173 
170 
197 
197 
197 
224 
197 
224 
197 
198 
223 
224 
224 
224 
225 
225 
225 
250 
250 
251 
251 
251 
252 
252 
225 
226 
169 
196 
196 
196 
195 
196 
196 
196 
223 
195 
195 
222 
222 
222 
223 
223 
194 
221 
221 
222 
222 
222 
249 
250 
250 
169 
169 
169 
169 
141 
168 
168 
168 
195 
140 
141 
167 
167 
167 
195 
194 
140 
140 
140 
167 
167 
167 
194 
194 
194 
169 
142 
142 
142 
115 
142 
142 
142 
141 
115 
115 
114 
114 
114 
141 
141 
88 
88 
87 
114 
114 
114 
113 
113 
140 
170 
143 
143 
143 
144 
143 
116 
143 
116 
117 
117 
117 
116 
116 
116 
115 
118 
117 
90 
90 
89 
89 
89 
88 
88 
170 
171 
170 
144 
171 
171 
144 
144 
144 
172 
172 
145 
145 
145 
144 
117 
173 
173 
146 
145 
146 
145 
118 
118 
118 
VECTORS VELOCITY float 
0.000000 -5.911506 0.000000 
-0.000000 -5.911506 0.000000 
-0.000000 -5.911506 0.000000 
-0.000000 -5.911506 0.000000 
0.000000 -5.911506 0.000000 
-0.000000 -5.911506 0.000000 
0.000000 -5.911506 0.000000 
-0.000000 -5.911506 0.000000 
0.000000 -5.911506 0.000000 
-0.000000 -5.911506 0.000000 
-0.000000 -5.911506 0.000000 
-0.000000 -5.911506 0.000000 
0.000000 -5.911506 0.000000 
-0.000000 -5.911506 0.000000 
-0.000000 -5.911506 0.000000 
-0.000000 -5.911506 0.000000 
-0.000000 -5.911506 0.000000 
-0.000000 -5.911506 0.000000 
-0.000000 -5.911506 0.000000 
-0.000000 -5.911506 0.000000 
0.000000 -5.911506 0.000000 
-0.000000 -5.911506 0.000000 
0.000000 -5.911506 0.000000 
0.000000 -5.911506 0.000000 
0.000000 -5.911506 0.000000 
-0.000000 -5.911506 0.000000 
0.000000 -5.911506 0.000000 
0.000000 -5.911506 0.000000 
0.000000 -5.911506 0.000000 
0.000000 -5.911506 0.000000 
0.000000 -5.911506 0.000000 
0.000000 -5.911506 0.000000 
0.000000 -5.911506 0.000000 
0.000000 -5.911506 0.000000 
-0.000000 -5.911506 0.000000 
0.000000 -5.911506 0.000000 
0.000000 -5.911506 0.000000 
0.000000 -5.911506 0.000000 
0.000000 -5.911506 0.000000 
0.000000 -5.911506 0.000000 
0.000000 -5.911506 0.000000 
0.000000 -5.911506 0.000000 
-0.000000 -5.911506 0.000000 
-0.000000 -5.911506 0.000000 
-0.000000 -5.911506 0.000000 
-0.000000 -5.911506 0.000000 
-0.000000 -5.911506 0.000000 
-0.000000 -5.911506 0.000000 
0.000000 -5.911506 0.000000 
0.000000 -5.911506 0.000000 
-0.000000 -5.911506 0.000000 
-0.000000 -5.911506 0.000000 
-0.000000 -5.911506 0.000000 
-0.000000 -5.911506 0.000000 
0.000000 -5.911506 0.000000 
-0.000000 -5.911506 0.000000 
-0.000000 -5.911506 0.000000 
-0.000000 -5.911506 0.000000 
0.000000 -5.911506 0.000000 
0.000000 -5.911506 0.000000 
0.000000 -5.911506 0.000000 
0.000000 -5.911506 0.000000 
-0.000000 -5.911506 0.000000 
-0.000000 -5.911506 0.000000 
0.000000 -5.911506 0.000000 
0.000000 -5.911506 0.000000 
-0.000000 -5.911506 0.000000 
0.000000 -5.911506 0.000000 
-0.000000 -5.911506 0.000000 
-0.000000 -5.911506 0.000000 
-0.000000 -5.911506 0.000000 
-0.000000 -5.911506 0.000000 
-0.000000 -5.911506 0.000000 
0.000000 -5.911506 0.000000 
-0.000000 -5.911506 0.000000 
-0.000000 -5.911506 0.000000 
-0.000000 -5.911506 0.000000 
-0.000000 -5.911506 0.000000 
-0.000000 -5.911506 0.000000 
-0.000000 -5.911506 0.000000 
0.000000 -5.911506 0.000000 
-0.000000 -5.911506 0.000000 
0.000000 -5.911506 0.000000 
-0.000000 -5.911506 0.000000 
-0.000000 -5.911506 0.000000 
-0.000000 -5.911506 0.000000 
-0.000000 -5.911506 0.000000 
-0.000000 -5.911506 0.000000 
-0.000000 -5.911506 0.000000 
-0.000000 -5.911506 0.000000 
0.000000 -5.911506 0.000000 
-0.000000 -5.911506 0.000000 
-0.000000 -5.911506 0.000000 
-0.000000 -5.911506 0.000000 
-0.000000 -5.911506 0.000000 
-0.000000 -5.911506 0.000000 
0.000000 -5.911506 0.000000 
-0.000000 -5.911506 0.000000 
0.000000 -5.911506 0.000000 
-0.000000 -5.911506 0.000000 
0.000000 -5.911506 0.000000 
0.000000 -5.911506 0.000000 
-0.000000 -5.911506 0.000000 
-0.000000 -5.911506 0.000000 
0.000000 -5.911506 0.000000 
0.000000 -5.911506 0.000000 
0.000000 -5.911506 0.000000 
-0.000000 -5.911506 0.000000 
-0.000000 -5.911506 0.000000 
-0.000000 -5.911506 0.000000 
0.000000 -5.911506 0.000000 
-0.000000 -5.911506 0.000000 
-0.000000 -5.911506 0.000000 
-0.000000 -5.911506 0.000000 
-0.000000 -5.911506 0.000000 
0.000000 -5.911506 0.000000 
-0.000000 -5.911506 0.000000 
-0.000000 -5.911506 0.000000 
-0.000000 -5.911506 0.000000 
0.000000 -5.911506 0.000000 
0.000000 -5.911506 0.000000 
0.000000 -5.911506 0.000000 
0.000000 -5.911506 0.000000 
0.000000 -5.911506 0.000000 
0.000000 -5.911506 0.000000 
-0.000000 -5.911506 0.000000 
0.000000 -5.911506 0.000000 
0.000000 -5.911506 0.000000 
0.000000 -5.911506 0.000000 
-0.000000 -5.911506 0.000000 
-0.000000 -5.911506 0.000000 
0.000000 -5.911506 0.000000 
0.000000 -5.911506 0.000000 
0.000000 -5.911506 0.000000 
0.000000 -5.911506 0.000000 
-0.000000 -5.911506 0.000000 
0.000000 -5.911506 0.000000 
0.000000 -5.911506 0.000000 
0.000000 -5.911506 0.000000 
0.000000 -5.911506 0.000000 
0.000000 -5.911506 0.000000 
0.000000 -5.911506 0.000000 
0.000000 -5.911506 0.000000 
-0.000000 -5.911506 0.000000 
0.000000 -5.911506 0.000000 
-0.000000 -5.911506 0.000000 
0.000000 -5.911506 0.000000 
0.000000 -5.911506 0.000000 
0.000000 -5.911506 0.000000 
0.000000 -5.911506 0.000000 
0.000000 -5.911506 0.000000 
0.000000 -5.911506 0.000000 
0.000000 -5.911506 0.000000 
0.000000 -5.911506 0.000000 
0.000000 -5.911506 0.000000 
0.000000 -5.911506 0.000000 
0.000000 -5.911506 0.000000 
0.000000 -5.911506 0.000000 
-0.000000 -5.911506 0.000000 
0.000000 -5.911506 0.000000 
0.000000 -5.911506 0.000000 
0.000000 -5.911506 0.000000 
-0.000000 -5.911506 0.000000 
-0.000000 -5.911506 0.000000 
-0.000000 -5.911506 0.000000 
0.000000 -5.911506 0.000000 
0.000000 -5.911506 0.000000 
0.000000 -5.911506 0.000000 
0.000000 -5.911506 0.000000 
0.000000 -5.911506 0.000000 
0.000000 -5.911506 0.000000 
-0.000000 -5.911506 0.000000 
-0.000000 -5.911506 0.000000 
0.000000 -5.911506 0.000000 
0.000000 -5.911506 0.000000 
TENSORS STRESS float 
0.000000 -0.000000 0.000000 
0.000000 -0.000000 0.000000 
0.000000 0.000000 0.000000 

0.000000 -0.000000 0.000000 
0.000000 -0.000000 0.000000 
0.000000 0.000000 0.000000 

0.000000 -0.000000 0.000000 
0.000000 0.000000 0.000000 
0.000000 0.000000 0.000000 

0.000000 0.000000 0.000000 
0.000000 0.000000 0.000000 
0.000000 0.000000 0.000000 

0.000000 0.000000 0.000000 
0.000000 0.000000 0.000000 
0.000000 0.000000 0.000000 

0.000000 0.000000 0.000000 
0.000000 0.000000 0.000000 
0.000000 0.000000 0.000000 

-0.000000 -0.000000 0.000000 
0.000000 -0.000000 0.000000 
0.000000 0.000000 0.000000 

-0.000000 0.000000 0.000000 
0.000000 -0.000000 0.000000 
0.000000 0.000000 0.000000 

0.000000 0.000000 0.000000 
0.000000 0.000000 0.000000 
0.000000 0.000000 0.000000 

-0.000000 0.000000 0.000000 
0.000000 -0.000000 0.000000 
0.000000 0.000000 0.000000 

-0.000000 -0.000000 0.000000 
0.000000 -0.000000 0.000000 
0.000000 0.000000 0.000000 

0.000000 0.000000 0.000000 
0.000000 0.000000 0.000000 
0.000000 0.000000 0.000000 

0.000000 0.000000 0.000000 
0.000000 0.000000 0.000000 
0.000000 0.000000 0.000000 

0.000000 0.000000 0.000000 
0.000000 0.000000 0.000000 
0.000000 0.000000 0.000000 

-0.000000 0.000000 0.000000 
0.000000 -0.000000 0.000000 
0.000000 0.000000 0.000000 

0.000000 0.000000 0.000000 
0.000000 0.000000 0.000000 
0.000000 0.000000 0.000000 

0.000000 -0.000000 0.000000 
0.000000 0.000000 0.000000 
0.000000 0.000000 0.000000 

-0.000000 -0.000000 0.000000 
0.000000 -0.000000 0.000000 
0.000000 0.000000 0.000000 

0.000000 -0.000000 0.000000 
0.000000 0.000000 0.000000 
0.000000 0.000000 0.000000 

0.000000 -0.000000 0.000000 
0.000000 0.000000 0.000000 
0.000000 0.000000 0.000000 

0.000000 -0.000000 0.000000 
0.000000 0.000000 0.000000 
0.000000 0.000000 0.000000 

-0.000000 0.000000 0.000000 
0.000000 -0.000000 0.000000 
0.000000 0.000000 0.000000 

-0.000000 0.000000 0.000000 
0.000000 -0.000000 0.000000 
0.000000 0.000000 0.000000 

0.000000 0.000000 0.000000 
0.000000 0.000000 0.000000 
0.000000 0.000000 0.000000 

0.000000 0.000000 0.000000 
0.000000 0.000000 0.000000 
0.000000 0.000000 0.000000 

0.000000 -0.000000 0.000000 
0.000000 -0.000000 0.000000 
0.000000 0.000000 0.000000 

-0.000000 0.000000 0.000000 
0.000000 -0.000000 0.000000 
0.000000 0.000000 0.000000 

0.000000 0.000000 0.000000 
0.000000 0.000000 0.000000 
0.000000 0.000000 0.000000 

-0.000000 0.000000 0.000000 
0.000000 -0.000000 0.000000 
0.000000 0.000000 0.000000 

-0.000000 -0.000000 0.000000 
0.000000 -0.000000 0.000000 
0.000000 0.000000 0.000000 

-0.000000 0.000000 0.000000 
0.000000 -0.000000 0.000000 
0.000000 0.000000 0.000000 

0.000000 0.000000 0.000000 
0.000000 0.000000 0.000000 
0.000000 0.000000 0.000000 

-0.000000 0.000000 0.000000 
0.000000 -0.000000 0.000000 
0.000000 0.000000 0.000000 

0.000000 -0.000000 0.000000 
0.000000 0.000000 0.000000 
0.000000 0.000000 0.000000 

0.000000 0.000000 0.000000 
0.000000 0.000000 0.000000 
0.000000 0.000000 0.000000 

-0.000000 -0.000000 0.000000 
0.000000 -0.000000 0.000000 
0.000000 0.000000 0.000000 

0.000000 0.000000 0.000000 
0.000000 0.000000 0.000000 
0.000000 0.000000 0.000000 

-0.000000 0.000000 0.000000 
0.000000 -0.000000 0.000000 
0.000000 0.000000 0.000000 

0.000000 0.000000 0.000000 
0.000000 0.000000 0.000000 
0.000000 0.000000 0.000000 

0.000000 0.000000 0.000000 
0.000000 0.000000 0.000000 
0.000000 0.000000 0.000000 

-0.000000 0.000000 0.000000 
0.000000 -0.000000 0.000000 
0.000000 0.000000 0.000000 

0.000000 0.000000 0.000000 
0.000000 0.000000 0.000000 
0.000000 0.000000 0.000000 

-0.000000 -0.000000 0.000000 
0.000000 -0.000000 0.000000 
0.000000 0.000000 0.000000 

-0.000000 0.000000 0.000000 
0.000000 -0.000000 0.000000 
0.000000 0.000000 0.000000 

0.000000 0.000000 0.000000 
0.000000 0.000000 0.000000 
0.000000 0.000000 0.000000 

-0.000000 -0.000000 0.000000 
0.000000 -0.000000 0.000000 
0.000000 0.000000 0.000000 

0.000000 0.000000 0.000000 
0.000000 0.000000 0.000000 
0.000000 0.000000 0.000000 

0.000000 0.000000 0.000000 
0.000000 -0.000000 0.000000 
0.000000 0.000000 0.000000 

0.000000 0.000000 0.000000 
0.000000 0.000000 0.000000 
0.000000 0.000000 0.000000 

0.000000 0.000000 0.000000 
0.000000 0.000000 0.000000 
0.000000 0.000000 0.000000 

0.000000 -0.000000 0.000000 
0.000000 0.000000 0.000000 
0.000000 0.000000 0.000000 

-0.000000 0.000000 0.000000 
0.000000 -0.000000 0.000000 
0.000000 0.000000 0.000000 

0.000000 0.000000 0.000000 
0.000000 0.000000 0.000000 
0.000000 0.000000 0.000000 

-0.000000 0.000000 0.000000 
0.000000 -0.000000 0.000000 
0.000000 0.000000 0.000000 

-0.000000 -0.000000 0.000000 
0.000000 -0.000000 0.000000 
0.000000 0.000000 0.000000 

0.000000 0.000000 0.000000 
0.000000 0.000000 0.000000 
0.000000 0.000000 0.000000 

-0.000000 0.000000 0.000000 
0.000000 -0.000000 0.000000 
0.000000 0.000000 0.000000 

-0.000000 0.000000 0.000000 
0.000000 -0.000000 0.000000 
0.000000 0.000000 0.000000 

-0.000000 0.000000 0.000000 
0.000000 -0.000000 0.000000 
0.000000 0.000000 0.000000 

0.000000 -0.000000 0.000000 
0.000000 0.000000 0.000000 
0.000000 0.000000 0.000000 

0.000000 -0.000000 0.000000 
0.000000 0.000000 0.000000 
0.000000 0.000000 0.000000 

-0.000000 0.000000 0.000000 
0.000000 -0.000000 0.000000 
0.000000 0.000000 0.000000 

-0.000000 0.000000 0.000000 
0.000000 -0.000000 0.000000 
0.000000 0.000000 0.000000 

0.000000 0.000000 0.000000 
0.000000 0.000000 0.000000 
0.000000 0.000000 0.000000 

-0.000000 0.000000 0.000000 
0.000000 -0.000000 0.000000 
0.000000 0.000000 0.000000 

-0.000000 0.000000 0.000000 
0.000000 -0.000000 0.000000 
0.000000 0.000000 0.000000 

-0.000000 -0.000000 0.000000 
0.000000 -0.000000 0.000000 
0.000000 0.000000 0.000000 

0.000000 0.000000 0.000000 
0.000000 0.000000 0.000000 
0.000000 0.000000 0.000000 

-0.000000 -0.000000 0.000000 
0.000000 0.000000 0.000000 
0.000000 0.000000 0.000000 

-0.000000 0.000000 0.000000 
0.000000 0.000000 0.000000 
0.000000 0.000000 0.000000 

-0.000000 0.000000 0.000000 
0.000000 -0.000000 0.000000 
0.000000 0.000000 0.000000 

0.000000 0.000000 0.000000 
0.000000 0.000000 0.000000 
0.000000 0.000000 0.000000 

-0.000000 0.000000 0.000000 
0.000000 -0.000000 0.000000 
0.000000 0.000000 0.000000 

-0.000000 0.000000 0.000000 
0.000000 -0.000000 0.000000 
0.000000 0.000000 0.000000 

0.000000 0.000000 0.000000 
0.000000 0.000000 0.000000 
0.000000 0.000000 0.000000 

-0.000000 -0.000000 0.000000 
0.000000 -0.000000 0.000000 
0.000000 0.000000 0.000000 

0.000000 -0.000000 0.000000 
0.000000 0.000000 0.000000 
0.000000 0.000000 0.000000 

-0.000000 -0.000000 0.000000 
0.000000 -0.000000 0.000000 
0.000000 0.000000 0.000000 

0.000000 -0.000000 0.000000 
0.000000 0.000000 0.000000 
0.000000 0.000000 0.000000 

-0.000000 -0.000000 0.000000 
0.000000 -0.000000 0.000000 
0.000000 0.000000 0.000000 

0.000000 -0.000000 0.000000 
0.000000 0.000000 0.000000 
0.000000 0.000000 0.000000 

0.000000 -0.000000 0.000000 
0.000000 0.000000 0.000000 
0.000000 0.000000 0.000000 

0.000000 -0.000000 0.000000 
0.000000 0.000000 0.000000 
0.000000 0.000000 0.000000 

0.000000 -0.000000 0.000000 
0.000000 0.000000 0.000000 
0.000000 0.000000 0.000000 

-0.000000 0.000000 0.000000 
0.000000 -0.000000 0.000000 
0.000000 0.000000 0.000000 

-0.000000 -0.000000 0.000000 
0.000000 -0.000000 0.000000 
0.000000 0.000000 0.000000 

0.000000 -0.000000 0.000000 
0.000000 0.000000 0.000000 
0.000000 0.000000 0.000000 

0.000000 -0.000000 0.000000 
0.000000 0.000000 0.000000 
0.000000 0.000000 0.000000 

0.000000 -0.000000 0.000000 
0.000000 0.000000 0.000000 
0.000000 0.000000 0.000000 

0.000000 -0.000000 0.000000 
0.000000 0.000000 0.000000 
0.000000 0.000000 0.000000 

-0.000000 -0.000000 0.000000 
0.000000 -0.000000 0.000000 
0.000000 0.000000 0.000000 

0.000000 0.000000 0.000000 
0.000000 0.000000 0.000000 
0.000000 0.000000 0.000000 

0.000000 0.000000 0.000000 
0.000000 0.000000 0.000000 
0.000000 0.000000 0.000000 

-0.000000 0.000000 0.000000 
0.000000 -0.000000 0.000000 
0.000000 0.000000 0.000000 

-0.000000 0.000000 0.000000 
0.000000 -0.000000 0.000000 
0.000000 0.000000 0.000000 

0.000000 0.000000 0.000000 
0.000000 0.000000 0.000000 
0.000000 0.000000 0.000000 

0.000000 0.000000 0.000000 
0.000000 0.000000 0.000000 
0.000000 0.000000 0.000000 

0.000000 0.000000 0.000000 
0.000000 0.000000 0.000000 
0.000000 0.000000 0.000000 

0.000000 -0.000000 0.000000 
0.000000 0.000000 0.000000 
0.000000 0.000000 0.000000 

0.000000 0.000000 0.000000 
0.000000 0.000000 0.000000 
0.000000 0.000000 0.000000 

0.000000 -0.000000 0.000000 
0.000000 0.000000 0.000000 
0.000000 0.000000 0.000000 

-0.000000 0.000000 0.000000 
0.000000 -0.000000 0.000000 
0.000000 0.000000 0.000000 

0.000000 0.000000 0.000000 
0.000000 -0.000000 0.000000 
0.000000 0.000000 0.000000 

0.000000 -0.000000 0.000000 
0.000000 0.000000 0.000000 
0.000000 0.000000 0.000000 

0.000000 -0.000000 0.000000 
0.000000 -0.000000 0.000000 
0.000000 0.000000 0.000000 

0.000000 -0.000000 0.000000 
0.000000 0.000000 0.000000 
0.000000 0.000000 0.000000 

0.000000 -0.000000 0.000000 
0.000000 0.000000 0.000000 
0.000000 0.000000 0.000000 

0.000000 -0.000000 0.000000 
0.000000 0.000000 0.000000 
0.000000 0.000000 0.000000 

-0.000000 -0.000000 0.000000 
0.000000 -0.000000 0.000000 
0.000000 0.000000 0.000000 

0.000000 0.000000 0.000000 
0.000000 0.000000 0.000000 
0.000000 0.000000 0.000000 

-0.000000 0.000000 0.000000 
0.000000 -0.000000 0.000000 
0.000000 0.000000 0.000000 

-0.000000 0.000000 0.000000 
0.000000 -0.000000 0.000000 
0.000000 0.000000 0.000000 

-0.000000 0.000000 0.000000 
0.000000 -0.000000 0.000000 
0.000000 0.000000 0.000000 

-0.000000 -0.000000 0.000000 
0.000000 -0.000000 0.000000 
0.000000 0.000000 0.000000 

-0.000000 -0.000000 0.000000 
0.000000 -0.000000 0.000000 
0.000000 0.000000 0.000000 

-0.000000 0.000000 0.000000 
0.000000 -0.000000 0.000000 
0.000000 0.000000 0.000000 

-0.000000 0.000000 0.000000 
0.000000 -0.000000 0.000000 
0.000000 0.000000 0.000000 

-0.000000 0.000000 0.000000 
0.000000 -0.000000 0.000000 
0.000000 0.000000 0.000000 

0.000000 -0.000000 0.000000 
0.000000 0.000000 0.000000 
0.000000 0.000000 0.000000 

0.000000 0.000000 0.000000 
0.000000 0.000000 0.000000 
0.000000 0.000000 0.000000 

-0.000000 0.000000 0.000000 
0.000000 -0.000000 0.000000 
0.000000 0.000000 0.000000 

0.000000 0.000000 0.000000 
0.000000 0.000000 0.000000 
0.000000 0.000000 0.000000 

0.000000 -0.000000 0.000000 
0.000000 0.000000 0.000000 
0.000000 0.000000 0.000000 

0.000000 -0.000000 0.000000 
0.000000 0.000000 0.000000 
0.000000 0.000000 0.000000 

0.000000 0.000000 0.000000 
0.000000 0.000000 0.000000 
0.000000 0.000000 0.000000 

0.000000 -0.000000 0.000000 
0.000000 0.000000 0.000000 
0.000000 0.000000 0.000000 

0.000000 -0.000000 0.000000 
0.000000 0.000000 0.000000 
0.000000 0.000000 0.000000 

-0.000000 -0.000000 0.000000 
0.000000 -0.000000 0.000000 
0.000000 0.000000 0.000000 

0.000000 -0.000000 0.000000 
0.000000 0.000000 0.000000 
0.000000 0.000000 0.000000 

0.000000 -0.000000 0.000000 
0.000000 0.000000 0.000000 
0.000000 0.000000 0.000000 

0.000000 -0.000000 0.000000 
0.000000 0.000000 0.000000 
0.000000 0.000000 0.000000 

-0.000000 -0.000000 0.000000 
0.000000 -0.000000 0.000000 
0.000000 0.000000 0.000000 

-0.000000 -0.000000 0.000000 
0.000000 -0.000000 0.000000 
0.000000 0.000000 0.000000 

0.000000 -0.000000 0.000000 
0.000000 -0.000000 0.000000 
0.000000 0.000000 0.000000 

-0.000000 0.000000 0.000000 
0.000000 -0.000000 0.000000 
0.000000 0.000000 0.000000 

-0.000000 -0.000000 0.000000 
0.000000 -0.000000 0.000000 
0.000000 0.000000 0.000000 

0.000000 0.000000 0.000000 
0.000000 -0.000000 0.000000 
0.000000 0.000000 0.000000 

0.000000 -0.000000 0.000000 
0.000000 0.000000 0.000000 
0.000000 0.000000 0.000000 

0.000000 -0.000000 0.000000 
0.000000 0.000000 0.000000 
0.000000 0.000000 0.000000 

0.000000 -0.000000 0.000000 
0.000000 0.000000 0.000000 
0.000000 0.000000 0.000000 

0.000000 -0.000000 0.000000 
0.000000 0.000000 0.000000 
0.000000 0.000000 0.000000 

0.000000 0.000000 0.000000 
0.000000 0.000000 0.000000 
0.000000 0.000000 0.000000 

-0.000000 0.000000 0.000000 
0.000000 -0.000000 0.000000 
0.000000 0.000000 0.000000 

-0.000000 0.000000 0.000000 
0.000000 -0.000000 0.000000 
0.000000 0.000000 0.000000 

0.000000 0.000000 0.000000 
0.000000 0.000000 0.000000 
0.000000 0.000000 0.000000 

-0.000000 0.000000 0.000000 
0.000000 -0.000000 0.000000 
0.000000 0.000000 0.000000 

-0.000000 0.000000 0.000000 
0.000000 -0.000000 0.000000 
0.000000 0.000000 0.000000 

0.000000 0.000000 0.000000 
0.000000 0.000000 0.000000 
0.000000 0.000000 0.000000 

0.000000 -0.000000 0.000000 
0.000000 0.000000 0.000000 
0.000000 0.000000 0.000000 

-0.000000 -0.000000 0.000000 
0.000000 -0.000000 0.000000 
0.000000 0.000000 0.000000 

0.000000 -0.000000 0.000000 
0.000000 0.000000 0.000000 
0.000000 0.000000 0.000000 

0.000000 0.000000 0.000000 
0.000000 -0.000000 0.000000 
0.000000 0.000000 0.000000 

0.000000 -0.000000 0.000000 
0.000000 0.000000 0.000000 
0.000000 0.000000 0.000000 

-0.000000 -0.000000 0.000000 
0.000000 -0.000000 0.000000 
0.000000 0.000000 0.000000 

0.000000 0.000000 0.000000 
0.000000 0.000000 0.000000 
0.000000 0.000000 0.000000 

-0.000000 0.000000 0.000000 
0.000000 -0.000000 0.000000 
0.000000 0.000000 0.000000 

-0.000000 -0.000000 0.000000 
0.000000 -0.000000 0.000000 
0.000000 0.000000 0.000000 

0.000000 0.000000 0.000000 
0.000000 0.000000 0.000000 
0.000000 0.000000 0.000000 

-0.000000 -0.000000 0.000000 
0.000000 -0.000000 0.000000 
0.000000 0.000000 0.000000 

0.000000 0.000000 0.000000 
0.000000 0.000000 0.000000 
0.000000 0.000000 0.000000 

-0.000000 0.000000 0.000000 
0.000000 -0.000000 0.000000 
0.000000 0.000000 0.000000 

-0.000000 -0.000000 0.000000 
0.000000 -0.000000 0.000000 
0.000000 0.000000 0.000000 

0.000000 -0.000000 0.000000 
0.000000 0.000000 0.000000 
0.000000 0.000000 0.000000 

0.000000 -0.000000 0.000000 
0.000000 0.000000 0.000000 
0.000000 0.000000 0.000000 

0.000000 0.000000 0.000000 
0.000000 0.000000 0.000000 
0.000000 0.000000 0.000000 

-0.000000 0.000000 0.000000 
0.000000 -0.000000 0.000000 
0.000000 0.000000 0.000000 

-0.000000 0.000000 0.000000 
0.000000 -0.000000 0.000000 
0.000000 0.000000 0.000000 

-0.000000 0.000000 0.000000 
0.000000 -0.000000 0.000000 
0.000000 0.000000 0.000000 

-0.000000 -0.000000 0.000000 
0.000000 -0.000000 0.000000 
0.000000 0.000000 0.000000 

-0.000000 -0.000000 0.000000 
0.000000 -0.000000 0.000000 
0.000000 0.000000 0.000000 

0.000000 -0.000000 0.000000 
0.000000 0.000000 0.000000 
0.000000 0.000000 0.000000 

0.000000 -0.000000 0.000000 
0.000000 -0.000000 0.000000 
0.000000 0.000000 0.000000 

-0.000000 0.000000 0.000000 
0.000000 -0.000000 0.000000 
0.000000 0.000000 0.000000 

-0.000000 0.000000 0.000000 
0.000000 -0.000000 0.000000 
0.000000 0.000000 0.000000 

-0.000000 0.000000 0.000000 
0.000000 -0.000000 0.000000 
0.000000 0.000000 0.000000 

TENSORS STRAIN float 
0.000000 -0.000000 0.000000 
0.000000 -0.000000 0.000000 
0.000000 0.000000 0.000000 

0.000000 -0.000000 0.000000 
0.000000 -0.000000 0.000000 
0.000000 0.000000 0.000000 

0.000000 -0.000000 0.000000 
0.000000 -0.000000 0.000000 
0.000000 0.000000 0.000000 

0.000000 0.000000 0.000000 
0.000000 -0.000000 0.000000 
0.000000 0.000000 0.000000 

0.000000 0.000000 0.000000 
0.000000 -0.000000 0.000000 
0.000000 0.000000 0.000000 

0.000000 0.000000 0.000000 
0.000000 0.000000 0.000000 
0.000000 0.000000 0.000000 

-0.000000 -0.000000 0.000000 
0.000000 -0.000000 0.000000 
0.000000 0.000000 0.000000 

0.000000 0.000000 0.000000 
0.000000 -0.000000 0.000000 
0.000000 0.000000 0.000000 

0.000000 0.000000 0.000000 
0.000000 -0.000000 0.000000 
0.000000 0.000000 0.000000 

-0.000000 0.000000 0.000000 
0.000000 0.000000 0.000000 
0.000000 0.000000 0.000000 

-0.000000 -0.000000 0.000000 
0.000000 -0.000000 0.000000 
0.000000 0.000000 0.000000 

0.000000 0.000000 0.000000 
0.000000 0.000000 0.000000 
0.000000 0.000000 0.000000 

0.000000 0.000000 0.000000 
0.000000 0.000000 0.000000 
0.000000 0.000000 0.000000 

0.000000 0.000000 0.000000 
0.000000 0.000000 0.000000 
0.000000 0.000000 0.000000 

0.000000 0.000000 0.000000 
0.000000 -0.000000 0.000000 
0.000000 0.000000 0.000000 

0.000000 0.000000 0.000000 
0.000000 -0.000000 0.000000 
0.000000 0.000000 0.000000 

-0.000000 -0.000000 0.000000 
0.000000 0.000000 0.000000 
0.000000 0.000000 0.000000 

-0.000000 -0.000000 0.000000 
0.000000 -0.000000 0.000000 
0.000000 0.000000 0.000000 

0.000000 -0.000000 0.000000 
0.000000 -0.000000 0.000000 
0.000000 0.000000 0.000000 

0.000000 -0.000000 0.000000 
0.000000 -0.000000 0.000000 
0.000000 0.000000 0.000000 

0.000000 -0.000000 0.000000 
0.000000 -0.000000 0.000000 
0.000000 0.000000 0.000000 

0.000000 0.000000 0.000000 
0.000000 -0.000000 0.000000 
0.000000 0.000000 0.000000 

0.000000 0.000000 0.000000 
0.000000 -0.000000 0.000000 
0.000000 0.000000 0.000000 

0.000000 0.000000 0.000000 
0.000000 0.000000 0.000000 
0.000000 0.000000 0.000000 

-0.000000 0.000000 0.000000 
0.000000 0.000000 0.000000 
0.000000 0.000000 0.000000 

0.000000 -0.000000 0.000000 
0.000000 -0.000000 0.000000 
0.000000 0.000000 0.000000 

-0.000000 0.000000 0.000000 
0.000000 -0.000000 0.000000 
0.000000 0.000000 0.000000 

0.000000 0.000000 0.000000 
0.000000 0.000000 0.000000 
0.000000 0.000000 0.000000 

0.000000 0.000000 0.000000 
0.000000 -0.000000 0.000000 
0.000000 0.000000 0.000000 

-0.000000 -0.000000 0.000000 
0.000000 -0.000000 0.000000 
0.000000 0.000000 0.000000 

0.000000 0.000000 0.000000 
0.000000 -0.000000 0.000000 
0.000000 0.000000 0.000000 

-0.000000 0.000000 0.000000 
0.000000 0.000000 0.000000 
0.000000 0.000000 0.000000 

0.000000 0.000000 0.000000 
0.000000 -0.000000 0.000000 
0.000000 0.000000 0.000000 

0.000000 -0.000000 0.000000 
0.000000 0.000000 0.000000 
0.000000 0.000000 0.000000 

-0.000000 0.000000 0.000000 
0.000000 0.000000 0.000000 
0.000000 0.000000 0.000000 

-0.000000 -0.000000 0.000000 
0.000000 -0.000000 0.000000 
0.000000 0.000000 0.000000 

-0.000000 0.000000 0.000000 
0.000000 0.000000 0.000000 
0.000000 0.000000 0.000000 

-0.000000 0.000000 0.000000 
0.000000 0.000000 0.000000 
0.000000 0.000000 0.000000 

-0.000000 0.000000 0.000000 
0.000000 0.000000 0.000000 
0.000000 0.000000 0.000000 

-0.000000 0.000000 0.000000 
0.000000 0.000000 0.000000 
0.000000 0.000000 0.000000 

-0.000000 0.000000 0.000000 
0.000000 0.000000 0.000000 
0.000000 0.000000 0.000000 

-0.000000 0.000000 0.000000 
0.000000 0.000000 0.000000 
0.000000 0.000000 0.000000 

-0.000000 -0.000000 0.000000 
0.000000 0.000000 0.000000 
0.000000 0.000000 0.000000 

-0.000000 0.000000 0.000000 
0.000000 0.000000 0.000000 
0.000000 0.000000 0.000000 

-0.000000 0.000000 0.000000 
0.000000 0.000000 0.000000 
0.000000 0.000000 0.000000 

-0.000000 -0.000000 0.000000 
0.000000 0.000000 0.000000 
0.000000 0.000000 0.000000 

-0.000000 0.000000 0.000000 
0.000000 0.000000 0.000000 
0.000000 0.000000 0.000000 

0.000000 0.000000 0.000000 
0.000000 -0.000000 0.000000 
0.000000 0.000000 0.000000 

-0.000000 0.000000 0.000000 
0.000000 0.000000 0.000000 
0.000000 0.000000 0.000000 

-0.000000 0.000000 0.000000 
0.000000 0.000000 0.000000 
0.000000 0.000000 0.000000 

0.000000 -0.000000 0.000000 
0.000000 0.000000 0.000000 
0.000000 0.000000 0.000000 

-0.000000 0.000000 0.000000 
0.000000 -0.000000 0.000000 
0.000000 0.000000 0.000000 

-0.000000 0.000000 0.000000 
0.000000 0.000000 0.000000 
0.000000 0.000000 0.000000 

-0.000000 0.000000 0.000000 
0.000000 -0.000000 0.000000 
0.000000 0.000000 0.000000 

-0.000000 -0.000000 0.000000 
0.000000 -0.000000 0.000000 
0.000000 0.000000 0.000000 

0.000000 0.000000 0.000000 
0.000000 0.000000 0.000000 
0.000000 0.000000 0.000000 

0.000000 0.000000 0.000000 
0.000000 -0.000000 0.000000 
0.000000 0.000000 0.000000 

-0.000000 0.000000 0.000000 
0.000000 -0.000000 0.000000 
0.000000 0.000000 0.000000 

-0.000000 0.000000 0.000000 
0.000000 -0.000000 0.000000 
0.000000 0.000000 0.000000 

-0.000000 -0.000000 0.000000 
0.000000 0.000000 0.000000 
0.000000 0.000000 0.000000 

-0.000000 -0.000000 0.000000 
0.000000 0.000000 0.000000 
0.000000 0.000000 0.000000 

-0.000000 0.000000 0.000000 
0.000000 -0.000000 0.000000 
0.000000 0.000000 0.000000 

-0.000000 0.000000 0.000000 
0.000000 0.000000 0.000000 
0.000000 0.000000 0.000000 

-0.000000 0.000000 0.000000 
0.000000 0.000000 0.000000 
0.000000 0.000000 0.000000 

0.000000 0.000000 0.000000 
0.000000 -0.000000 0.000000 
0.000000 0.000000 0.000000 

0.000000 0.000000 0.000000 
0.000000 -0.000000 0.000000 
0.000000 0.000000 0.000000 

-0.000000 -0.000000 0.000000 
0.000000 0.000000 0.000000 
0.000000 0.000000 0.000000 

-0.000000 0.000000 0.000000 
0.000000 0.000000 0.000000 
0.000000 0.000000 0.000000 

-0.000000 -0.000000 0.000000 
0.000000 0.000000 0.000000 
0.000000 0.000000 0.000000 

-0.000000 0.000000 0.000000 
0.000000 0.000000 0.000000 
0.000000 0.000000 0.000000 

-0.000000 0.000000 0.000000 
0.000000 0.000000 0.000000 
0.000000 0.000000 0.000000 

-0.000000 0.000000 0.000000 
0.000000 0.000000 0.000000 
0.000000 0.000000 0.000000 

-0.000000 0.000000 0.000000 
0.000000 -0.000000 0.000000 
0.000000 0.000000 0.000000 

-0.000000 0.000000 0.000000 
0.000000 0.000000 0.000000 
0.000000 0.000000 0.000000 

-0.000000 0.000000 0.000000 
0.000000 0.000000 0.000000 
0.000000 0.000000 0.000000 

0.000000 -0.000000 0.000000 
0.000000 -0.000000 0.000000 
0.000000 0.000000 0.000000 

-0.000000 -0.000000 0.000000 
0.000000 0.000000 0.000000 
0.000000 0.000000 0.000000 

-0.000000 -0.000000 0.000000 
0.000000 -0.000000 0.000000 
0.000000 0.000000 0.000000 

-0.000000 -0.000000 0.000000 
0.000000 0.000000 0.000000 
0.000000 0.000000 0.000000 

0.000000 -0.000000 0.000000 
0.000000 -0.000000 0.000000 
0.000000 0.000000 0.000000 

0.000000 -0.000000 0.000000 
0.000000 -0.000000 0.000000 
0.000000 0.000000 0.000000 

0.000000 -0.000000 0.000000 
0.000000 -0.000000 0.000000 
0.000000 0.000000 0.000000 

0.000000 -0.000000 0.000000 
0.000000 0.000000 0.000000 
0.000000 0.000000 0.000000 

0.000000 -0.000000 0.000000 
0.000000 0.000000 0.000000 
0.000000 0.000000 0.000000 

-0.000000 0.000000 0.000000 
0.000000 -0.000000 0.000000 
0.000000 0.000000 0.000000 

-0.000000 -0.000000 0.000000 
0.000000 -0.000000 0.000000 
0.000000 0.000000 0.000000 

0.000000 -0.000000 0.000000 
0.000000 0.000000 0.000000 
0.000000 0.000000 0.000000 

0.000000 -0.000000 0.000000 
0.000000 0.000000 0.000000 
0.000000 0.000000 0.000000 

0.000000 -0.000000 0.000000 
0.000000 0.000000 0.000000 
0.000000 0.000000 0.000000 

-0.000000 -0.000000 0.000000 
0.000000 0.000000 0.000000 
0.000000 0.000000 0.000000 

-0.000000 -0.000000 0.000000 
0.000000 -0.000000 0.000000 
0.000000 0.000000 0.000000 

-0.000000 0.000000 0.000000 
0.000000 0.000000 0.000000 
0.000000 0.000000 0.000000 

-0.000000 0.000000 0.000000 
0.000000 0.000000 0.000000 
0.000000 0.000000 0.000000 

-0.000000 0.000000 0.000000 
0.000000 -0.000000 0.000000 
0.000000 0.000000 0.000000 

-0.000000 0.000000 0.000000 
0.000000 0.000000 0.000000 
0.000000 0.000000 0.000000 

-0.000000 0.000000 0.000000 
0.000000 0.000000 0.000000 
0.000000 0.000000 0.000000 

-0.000000 0.000000 0.000000 
0.000000 0.000000 0.000000 
0.000000 0.000000 0.000000 

0.000000 0.000000 0.000000 
0.000000 0.000000 0.000000 
0.000000 0.000000 0.000000 

-0.000000 -0.000000 0.000000 
0.000000 0.000000 0.000000 
0.000000 0.000000 0.000000 

-0.000000 0.000000 0.000000 
0.000000 0.000000 0.000000 
0.000000 0.000000 0.000000 

0.000000 -0.000000 0.000000 
0.000000 0.000000 0.000000 
0.000000 0.000000 0.000000 

0.000000 0.000000 0.000000 
0.000000 -0.000000 0.000000 
0.000000 0.000000 0.000000 

0.000000 0.000000 0.000000 
0.000000 -0.000000 0.000000 
0.000000 0.000000 0.000000 

0.000000 -0.000000 0.000000 
0.000000 0.000000 0.000000 
0.000000 0.000000 0.000000 

0.000000 -0.000000 0.000000 
0.000000 -0.000000 0.000000 
0.000000 0.000000 0.000000 

0.000000 -0.000000 0.000000 
0.000000 -0.000000 0.000000 
0.000000 0.000000 0.000000 

0.000000 -0.000000 0.000000 
0.000000 -0.000000 0.000000 
0.000000 0.000000 0.000000 

0.000000 -0.000000 0.000000 
0.000000 -0.000000 0.000000 
0.000000 0.000000 0.000000 

0.000000 -0.000000 0.000000 
0.000000 -0.000000 0.000000 
0.000000 0.000000 0.000000 

0.000000 0.000000 0.000000 
0.000000 -0.000000 0.000000 
0.000000 0.000000 0.000000 

0.000000 0.000000 0.000000 
0.000000 -0.000000 0.000000 
0.000000 0.000000 0.000000 

0.000000 0.000000 0.000000 
0.000000 -0.000000 0.000000 
0.000000 0.000000 0.000000 

0.000000 0.000000 0.000000 
0.000000 -0.000000 0.000000 
0.000000 0.000000 0.000000 

-0.000000 -0.000000 0.000000 
0.000000 -0.000000 0.000000 
0.000000 0.000000 0.000000 

0.000000 -0.000000 0.000000 
0.000000 -0.000000 0.000000 
0.000000 0.000000 0.000000 

-0.000000 0.000000 0.000000 
0.000000 -0.000000 0.000000 
0.000000 0.000000 0.000000 

0.000000 0.000000 0.000000 
0.000000 -0.000000 0.000000 
0.000000 0.000000 0.000000 

-0.000000 0.000000 0.000000 
0.000000 -0.000000 0.000000 
0.000000 0.000000 0.000000 

-0.000000 -0.000000 0.000000 
0.000000 0.000000 0.000000 
0.000000 0.000000 0.000000 

0.000000 0.000000 0.000000 
0.000000 0.000000 0.000000 
0.000000 0.000000 0.000000 

-0.000000 0.000000 0.000000 
0.000000 -0.000000 0.000000 
0.000000 0.000000 0.000000 

-0.000000 0.000000 0.000000 
0.000000 0.000000 0.000000 
0.000000 0.000000 0.000000 

-0.000000 -0.000000 0.000000 
0.000000 0.000000 0.000000 
0.000000 0.000000 0.000000 

-0.000000 -0.000000 0.000000 
0.000000 0.000000 0.000000 
0.000000 0.000000 0.000000 

-0.000000 0.000000 0.000000 
0.000000 0.000000 0.000000 
0.000000 0.000000 0.000000 

0.000000 -0.000000 0.000000 
0.000000 -0.000000 0.000000 
0.000000 0.000000 0.000000 

0.000000 -0.000000 0.000000 
0.000000 0.000000 0.000000 
0.000000 0.000000 0.000000 

-0.000000 -0.000000 0.000000 
0.000000 -0.000000 0.000000 
0.000000 0.000000 0.000000 

-0.000000 -0.000000 0.000000 
0.000000 0.000000 0.000000 
0.000000 0.000000 0.000000 

0.000000 -0.000000 0.000000 
0.000000 -0.000000 0.000000 
0.000000 0.000000 0.000000 

0.000000 -0.000000 0.000000 
0.000000 -0.000000 0.000000 
0.000000 0.000000 0.000000 

0.000000 -0.000000 0.000000 
0.000000 -0.000000 0.000000 
0.000000 0.000000 0.000000 

-0.000000 -0.000000 0.000000 
0.000000 0.000000 0.000000 
0.000000 0.000000 0.000000 

0.000000 -0.000000 0.000000 
0.000000 -0.000000 0.000000 
0.000000 0.000000 0.000000 

0.000000 0.000000 0.000000 
0.000000 -0.000000 0.000000 
0.000000 0.000000 0.000000 

0.000000 -0.000000 0.000000 
0.000000 -0.000000 0.000000 
0.000000 0.000000 0.000000 

0.000000 0.000000 0.000000 
0.000000 -0.000000 0.000000 
0.000000 0.000000 0.000000 

0.000000 -0.000000 0.000000 
0.000000 0.000000 0.000000 
0.000000 0.000000 0.000000 

0.000000 -0.000000 0.000000 
0.000000 -0.000000 0.000000 
0.000000 0.000000 0.000000 

0.000000 -0.000000 0.000000 
0.000000 -0.000000 0.000000 
0.000000 0.000000 0.000000 

0.000000 -0.000000 0.000000 
0.000000 -0.000000 0.000000 
0.000000 0.000000 0.000000 

-0.000000 0.000000 0.000000 
0.000000 0.000000 0.000000 
0.000000 0.000000 0.000000 

0.000000 0.000000 0.000000 
0.000000 -0.000000 0.000000 
0.000000 0.000000 0.000000 

-0.000000 0.000000 0.000000 
0.000000 0.000000 0.000000 
0.000000 0.000000 0.000000 

-0.000000 0.000000 0.000000 
0.000000 0.000000 0.000000 
0.000000 0.000000 0.000000 

0.000000 0.000000 0.000000 
0.000000 -0.000000 0.000000 
0.000000 0.000000 0.000000 

-0.000000 0.000000 0.000000 
0.000000 -0.000000 0.000000 
0.000000 0.000000 0.000000 

0.000000 0.000000 0.000000 
0.000000 0.000000 0.000000 
0.000000 0.000000 0.000000 

0.000000 -0.000000 0.000000 
0.000000 0.000000 0.000000 
0.000000 0.000000 0.000000 

0.000000 -0.000000 0.000000 
0.000000 -0.000000 0.000000 
0.000000 0.000000 0.000000 

0.000000 -0.000000 0.000000 
0.000000 -0.000000 0.000000 
0.000000 0.000000 0.000000 

0.000000 0.000000 0.000000 
0.000000 -0.000000 0.000000 
0.000000 0.000000 0.000000 

0.000000 -0.000000 0.000000 
0.000000 -0.000000 0.000000 
0.000000 0.000000 0.000000 

0.000000 -0.000000 0.000000 
0.000000 -0.000000 0.000000 
0.000000 0.000000 0.000000 

0.000000 0.000000 0.000000 
0.000000 -0.000000 0.000000 
0.000000 0.000000 0.000000 

0.000000 0.000000 0.000000 
0.000000 -0.000000 0.000000 
0.000000 0.000000 0.000000 

0.000000 -0.000000 0.000000 
0.000000 -0.000000 0.000000 
0.000000 0.000000 0.000000 

-0.000000 0.000000 0.000000 
0.000000 0.000000 0.000000 
0.000000 0.000000 0.000000 

-0.000000 -0.000000 0.000000 
0.000000 -0.000000 0.000000 
0.000000 0.000000 0.000000 

0.000000 0.000000 0.000000 
0.000000 -0.000000 0.000000 
0.000000 0.000000 0.000000 

0.000000 0.000000 0.000000 
0.000000 -0.000000 0.000000 
0.000000 0.000000 0.000000 

0.000000 -0.000000 0.000000 
0.000000 -0.000000 0.000000 
0.000000 0.000000 0.000000 

0.000000 -0.000000 0.000000 
0.000000 0.000000 0.000000 
0.000000 0.000000 0.000000 

0.000000 -0.000000 0.000000 
0.000000 -0.000000 0.000000 
0.000000 0.000000 0.000000 

0.000000 0.000000 0.000000 
0.000000 0.000000 0.000000 
0.000000 0.000000 0.000000 

-0.000000 0.000000 0.000000 
0.000000 -0.000000 0.000000 
0.000000 0.000000 0.000000 

-0.000000 0.000000 0.000000 
0.000000 -0.000000 0.000000 
0.000000 0.000000 0.000000 

0.000000 0.000000 0.000000 
0.000000 -0.000000 0.000000 
0.000000 0.000000 0.000000 

0.000000 -0.000000 0.000000 
0.000000 -0.000000 0.000000 
0.000000 0.000000 0.000000 

0.000000 -0.000000 0.000000 
0.000000 -0.000000 0.000000 
0.000000 0.000000 0.000000 

0.000000 -0.000000 0.000000 
0.000000 -0.000000 0.000000 
0.000000 0.000000 0.000000 

0.000000 -0.000000 0.000000 
0.000000 -0.000000 0.000000 
0.000000 0.000000 0.000000 

-0.000000 0.000000 0.000000 
0.000000 0.000000 0.000000 
0.000000 0.000000 0.000000 

-0.000000 0.000000 0.000000 
0.000000 -0.000000 0.000000 
0.000000 0.000000 0.000000 

-0.000000 0.000000 0.000000 
0.000000 -0.000000 0.000000 
0.000000 0.000000 0.000000 

