# vtk DataFile Version 3.0 
vtk output 
ASCII 
DATASET UNSTRUCTURED_GRID 
POINTS 175 float 
-0.026061 -0.039971 0.000000 
-0.106992 0.028084 0.000000 
-0.054870 0.019851 0.000000 
-0.028809 0.065735 0.000000 
-0.186430 0.092160 0.000000 
-0.137056 0.089633 0.000000 
-0.114311 0.143281 0.000000 
-0.058186 0.127615 0.000000 
-0.029377 0.167792 0.000000 
-0.265318 0.155315 0.000000 
-0.217198 0.154516 0.000000 
-0.196633 0.211812 0.000000 
-0.143120 0.203103 0.000000 
-0.116563 0.250372 0.000000 
-0.058945 0.230726 0.000000 
-0.029568 0.268846 0.000000 
-0.344206 0.218471 0.000000 
-0.296791 0.218478 0.000000 
-0.278030 0.278421 0.000000 
-0.225992 0.272555 0.000000 
-0.201664 0.324672 0.000000 
-0.145749 0.311198 0.000000 
-0.117890 0.355540 0.000000 
-0.059328 0.332835 0.000000 
-0.029759 0.369901 0.000000 
-0.058559 -0.080722 0.000000 
-0.162226 -0.101565 0.000000 
-0.123292 -0.065947 0.000000 
-0.142917 -0.016964 0.000000 
-0.261851 -0.123721 0.000000 
-0.229092 -0.086694 0.000000 
-0.256854 -0.035463 0.000000 
-0.209613 -0.001350 0.000000 
-0.223062 0.046224 0.000000 
-0.360414 -0.146021 0.000000 
-0.329787 -0.108898 0.000000 
-0.361761 -0.057096 0.000000 
-0.321587 -0.020688 0.000000 
-0.341985 0.029546 0.000000 
-0.290702 0.062345 0.000000 
-0.302189 0.109081 0.000000 
-0.458977 -0.168321 0.000000 
-0.429420 -0.131247 0.000000 
-0.464588 -0.079205 0.000000 
-0.427556 -0.042178 0.000000 
-0.453135 0.009337 0.000000 
-0.407738 0.044653 0.000000 
-0.425037 0.094081 0.000000 
-0.370772 0.125710 0.000000 
-0.381315 0.171937 0.000000 
-0.046960 -0.131537 0.000000 
-0.095301 -0.225583 0.000000 
-0.098873 -0.172936 0.000000 
-0.149405 -0.157738 0.000000 
-0.140093 -0.317287 0.000000 
-0.148617 -0.268589 0.000000 
-0.205981 -0.258352 0.000000 
-0.203197 -0.200148 0.000000 
-0.248777 -0.181002 0.000000 
-0.184111 -0.408251 0.000000 
-0.194039 -0.361160 0.000000 
-0.254475 -0.353860 0.000000 
-0.257893 -0.299750 0.000000 
-0.309886 -0.284378 0.000000 
-0.303554 -0.223833 0.000000 
-0.347255 -0.203675 0.000000 
-0.228129 -0.499215 0.000000 
-0.238687 -0.452990 0.000000 
-0.301302 -0.448038 0.000000 
-0.307162 -0.395999 0.000000 
-0.363386 -0.383878 0.000000 
-0.362692 -0.326367 0.000000 
-0.412122 -0.309074 0.000000 
-0.403017 -0.246927 0.000000 
-0.445733 -0.226348 0.000000 
-0.000000 -0.154152 0.000000 
0.043388 -0.250583 0.000000 
-0.000000 -0.220551 0.000000 
-0.043388 -0.250583 0.000000 
0.087158 -0.342780 0.000000 
0.043769 -0.319081 0.000000 
-0.000000 -0.357547 0.000000 
-0.043769 -0.319081 0.000000 
-0.087158 -0.342780 0.000000 
0.130831 -0.433909 0.000000 
0.087824 -0.412310 0.000000 
0.044436 -0.455010 0.000000 
-0.000000 -0.423945 0.000000 
-0.044436 -0.455010 0.000000 
-0.087824 -0.412310 0.000000 
-0.130831 -0.433909 0.000000 
0.174505 -0.525039 0.000000 
0.131782 -0.504473 0.000000 
0.088871 -0.550339 0.000000 
0.044532 -0.522475 0.000000 
-0.000000 -0.558876 0.000000 
-0.044532 -0.522475 0.000000 
-0.088871 -0.550339 0.000000 
-0.131782 -0.504473 0.000000 
-0.174505 -0.525039 0.000000 
0.046960 -0.131537 0.000000 
0.149405 -0.157738 0.000000 
0.098873 -0.172936 0.000000 
0.095301 -0.225583 0.000000 
0.248777 -0.181002 0.000000 
0.203197 -0.200148 0.000000 
0.205981 -0.258352 0.000000 
0.148617 -0.268589 0.000000 
0.140093 -0.317287 0.000000 
0.347255 -0.203675 0.000000 
0.303554 -0.223833 0.000000 
0.309886 -0.284378 0.000000 
0.257893 -0.299750 0.000000 
0.254475 -0.353860 0.000000 
0.194039 -0.361160 0.000000 
0.184111 -0.408251 0.000000 
0.445733 -0.226348 0.000000 
0.403017 -0.246927 0.000000 
0.412122 -0.309074 0.000000 
0.362692 -0.326367 0.000000 
0.363386 -0.383878 0.000000 
0.307162 -0.395999 0.000000 
0.301302 -0.448038 0.000000 
0.238687 -0.452990 0.000000 
0.228129 -0.499215 0.000000 
0.058559 -0.080722 0.000000 
0.142917 -0.016964 0.000000 
0.123292 -0.065947 0.000000 
0.162226 -0.101565 0.000000 
0.223062 0.046224 0.000000 
0.209613 -0.001350 0.000000 
0.256854 -0.035463 0.000000 
0.229092 -0.086694 0.000000 
0.261851 -0.123721 0.000000 
0.302189 0.109081 0.000000 
0.290702 0.062345 0.000000 
0.341985 0.029546 0.000000 
0.321587 -0.020688 0.000000 
0.361761 -0.057096 0.000000 
0.329787 -0.108898 0.000000 
0.360414 -0.146021 0.000000 
0.381315 0.171937 0.000000 
0.370772 0.125710 0.000000 
0.425037 0.094081 0.000000 
0.407738 0.044653 0.000000 
0.453135 0.009337 0.000000 
0.427556 -0.042178 0.000000 
0.464588 -0.079205 0.000000 
0.429420 -0.131247 0.000000 
0.458977 -0.168321 0.000000 
0.026061 -0.039971 0.000000 
0.028809 0.065735 0.000000 
0.054870 0.019851 0.000000 
0.106992 0.028084 0.000000 
0.029377 0.167792 0.000000 
0.058186 0.127615 0.000000 
0.114311 0.143281 0.000000 
0.137056 0.089633 0.000000 
0.186430 0.092160 0.000000 
0.029568 0.268846 0.000000 
0.058945 0.230726 0.000000 
0.116563 0.250372 0.000000 
0.143120 0.203103 0.000000 
0.196633 0.211812 0.000000 
0.217198 0.154516 0.000000 
0.265318 0.155315 0.000000 
0.029759 0.369901 0.000000 
0.059328 0.332835 0.000000 
0.117890 0.355540 0.000000 
0.145749 0.311198 0.000000 
0.201664 0.324672 0.000000 
0.225992 0.272555 0.000000 
0.278030 0.278421 0.000000 
0.296791 0.218478 0.000000 
0.344206 0.218471 0.000000 
CELLS 175 350 
1 0 
1 1 
1 2 
1 3 
1 4 
1 5 
1 6 
1 7 
1 8 
1 9 
1 10 
1 11 
1 12 
1 13 
1 14 
1 15 
1 16 
1 17 
1 18 
1 19 
1 20 
1 21 
1 22 
1 23 
1 24 
1 25 
1 26 
1 27 
1 28 
1 29 
1 30 
1 31 
1 32 
1 33 
1 34 
1 35 
1 36 
1 37 
1 38 
1 39 
1 40 
1 41 
1 42 
1 43 
1 44 
1 45 
1 46 
1 47 
1 48 
1 49 
1 50 
1 51 
1 52 
1 53 
1 54 
1 55 
1 56 
1 57 
1 58 
1 59 
1 60 
1 61 
1 62 
1 63 
1 64 
1 65 
1 66 
1 67 
1 68 
1 69 
1 70 
1 71 
1 72 
1 73 
1 74 
1 75 
1 76 
1 77 
1 78 
1 79 
1 80 
1 81 
1 82 
1 83 
1 84 
1 85 
1 86 
1 87 
1 88 
1 89 
1 90 
1 91 
1 92 
1 93 
1 94 
1 95 
1 96 
1 97 
1 98 
1 99 
1 100 
1 101 
1 102 
1 103 
1 104 
1 105 
1 106 
1 107 
1 108 
1 109 
1 110 
1 111 
1 112 
1 113 
1 114 
1 115 
1 116 
1 117 
1 118 
1 119 
1 120 
1 121 
1 122 
1 123 
1 124 
1 125 
1 126 
1 127 
1 128 
1 129 
1 130 
1 131 
1 132 
1 133 
1 134 
1 135 
1 136 
1 137 
1 138 
1 139 
1 140 
1 141 
1 142 
1 143 
1 144 
1 145 
1 146 
1 147 
1 148 
1 149 
1 150 
1 151 
1 152 
1 153 
1 154 
1 155 
1 156 
1 157 
1 158 
1 159 
1 160 
1 161 
1 162 
1 163 
1 164 
1 165 
1 166 
1 167 
1 168 
1 169 
1 170 
1 171 
1 172 
1 173 
1 174 
CELL_TYPES 175 
1 
1 
1 
1 
1 
1 
1 
1 
1 
1 
1 
1 
1 
1 
1 
1 
1 
1 
1 
1 
1 
1 
1 
1 
1 
1 
1 
1 
1 
1 
1 
1 
1 
1 
1 
1 
1 
1 
1 
1 
1 
1 
1 
1 
1 
1 
1 
1 
1 
1 
1 
1 
1 
1 
1 
1 
1 
1 
1 
1 
1 
1 
1 
1 
1 
1 
1 
1 
1 
1 
1 
1 
1 
1 
1 
1 
1 
1 
1 
1 
1 
1 
1 
1 
1 
1 
1 
1 
1 
1 
1 
1 
1 
1 
1 
1 
1 
1 
1 
1 
1 
1 
1 
1 
1 
1 
1 
1 
1 
1 
1 
1 
1 
1 
1 
1 
1 
1 
1 
1 
1 
1 
1 
1 
1 
1 
1 
1 
1 
1 
1 
1 
1 
1 
1 
1 
1 
1 
1 
1 
1 
1 
1 
1 
1 
1 
1 
1 
1 
1 
1 
1 
1 
1 
1 
1 
1 
1 
1 
1 
1 
1 
1 
1 
1 
1 
1 
1 
1 
1 
1 
1 
1 
1 
1 
POINT_DATA 175 
VECTORS X_GC float 
-0.026061 -0.039971 0.000000 
-0.106992 0.028084 0.000000 
-0.054870 0.019851 0.000000 
-0.028809 0.065735 0.000000 
-0.186430 0.092160 0.000000 
-0.137056 0.089633 0.000000 
-0.114311 0.143281 0.000000 
-0.058186 0.127615 0.000000 
-0.029377 0.167792 0.000000 
-0.265318 0.155315 0.000000 
-0.217198 0.154516 0.000000 
-0.196633 0.211812 0.000000 
-0.143120 0.203103 0.000000 
-0.116563 0.250372 0.000000 
-0.058945 0.230726 0.000000 
-0.029568 0.268846 0.000000 
-0.344206 0.218471 0.000000 
-0.296791 0.218478 0.000000 
-0.278030 0.278421 0.000000 
-0.225992 0.272555 0.000000 
-0.201664 0.324672 0.000000 
-0.145749 0.311198 0.000000 
-0.117890 0.355540 0.000000 
-0.059328 0.332835 0.000000 
-0.029759 0.369901 0.000000 
-0.058559 -0.080722 0.000000 
-0.162226 -0.101565 0.000000 
-0.123292 -0.065947 0.000000 
-0.142917 -0.016964 0.000000 
-0.261851 -0.123721 0.000000 
-0.229092 -0.086694 0.000000 
-0.256854 -0.035463 0.000000 
-0.209613 -0.001350 0.000000 
-0.223062 0.046224 0.000000 
-0.360414 -0.146021 0.000000 
-0.329787 -0.108898 0.000000 
-0.361761 -0.057096 0.000000 
-0.321587 -0.020688 0.000000 
-0.341985 0.029546 0.000000 
-0.290702 0.062345 0.000000 
-0.302189 0.109081 0.000000 
-0.458977 -0.168321 0.000000 
-0.429420 -0.131247 0.000000 
-0.464588 -0.079205 0.000000 
-0.427556 -0.042178 0.000000 
-0.453135 0.009337 0.000000 
-0.407738 0.044653 0.000000 
-0.425037 0.094081 0.000000 
-0.370772 0.125710 0.000000 
-0.381315 0.171937 0.000000 
-0.046960 -0.131537 0.000000 
-0.095301 -0.225583 0.000000 
-0.098873 -0.172936 0.000000 
-0.149405 -0.157738 0.000000 
-0.140093 -0.317287 0.000000 
-0.148617 -0.268589 0.000000 
-0.205981 -0.258352 0.000000 
-0.203197 -0.200148 0.000000 
-0.248777 -0.181002 0.000000 
-0.184111 -0.408251 0.000000 
-0.194039 -0.361160 0.000000 
-0.254475 -0.353860 0.000000 
-0.257893 -0.299750 0.000000 
-0.309886 -0.284378 0.000000 
-0.303554 -0.223833 0.000000 
-0.347255 -0.203675 0.000000 
-0.228129 -0.499215 0.000000 
-0.238687 -0.452990 0.000000 
-0.301302 -0.448038 0.000000 
-0.307162 -0.395999 0.000000 
-0.363386 -0.383878 0.000000 
-0.362692 -0.326367 0.000000 
-0.412122 -0.309074 0.000000 
-0.403017 -0.246927 0.000000 
-0.445733 -0.226348 0.000000 
-0.000000 -0.154152 0.000000 
0.043388 -0.250583 0.000000 
-0.000000 -0.220551 0.000000 
-0.043388 -0.250583 0.000000 
0.087158 -0.342780 0.000000 
0.043769 -0.319081 0.000000 
-0.000000 -0.357547 0.000000 
-0.043769 -0.319081 0.000000 
-0.087158 -0.342780 0.000000 
0.130831 -0.433909 0.000000 
0.087824 -0.412310 0.000000 
0.044436 -0.455010 0.000000 
-0.000000 -0.423945 0.000000 
-0.044436 -0.455010 0.000000 
-0.087824 -0.412310 0.000000 
-0.130831 -0.433909 0.000000 
0.174505 -0.525039 0.000000 
0.131782 -0.504473 0.000000 
0.088871 -0.550339 0.000000 
0.044532 -0.522475 0.000000 
-0.000000 -0.558876 0.000000 
-0.044532 -0.522475 0.000000 
-0.088871 -0.550339 0.000000 
-0.131782 -0.504473 0.000000 
-0.174505 -0.525039 0.000000 
0.046960 -0.131537 0.000000 
0.149405 -0.157738 0.000000 
0.098873 -0.172936 0.000000 
0.095301 -0.225583 0.000000 
0.248777 -0.181002 0.000000 
0.203197 -0.200148 0.000000 
0.205981 -0.258352 0.000000 
0.148617 -0.268589 0.000000 
0.140093 -0.317287 0.000000 
0.347255 -0.203675 0.000000 
0.303554 -0.223833 0.000000 
0.309886 -0.284378 0.000000 
0.257893 -0.299750 0.000000 
0.254475 -0.353860 0.000000 
0.194039 -0.361160 0.000000 
0.184111 -0.408251 0.000000 
0.445733 -0.226348 0.000000 
0.403017 -0.246927 0.000000 
0.412122 -0.309074 0.000000 
0.362692 -0.326367 0.000000 
0.363386 -0.383878 0.000000 
0.307162 -0.395999 0.000000 
0.301302 -0.448038 0.000000 
0.238687 -0.452990 0.000000 
0.228129 -0.499215 0.000000 
0.058559 -0.080722 0.000000 
0.142917 -0.016964 0.000000 
0.123292 -0.065947 0.000000 
0.162226 -0.101565 0.000000 
0.223062 0.046224 0.000000 
0.209613 -0.001350 0.000000 
0.256854 -0.035463 0.000000 
0.229092 -0.086694 0.000000 
0.261851 -0.123721 0.000000 
0.302189 0.109081 0.000000 
0.290702 0.062345 0.000000 
0.341985 0.029546 0.000000 
0.321587 -0.020688 0.000000 
0.361761 -0.057096 0.000000 
0.329787 -0.108898 0.000000 
0.360414 -0.146021 0.000000 
0.381315 0.171937 0.000000 
0.370772 0.125710 0.000000 
0.425037 0.094081 0.000000 
0.407738 0.044653 0.000000 
0.453135 0.009337 0.000000 
0.427556 -0.042178 0.000000 
0.464588 -0.079205 0.000000 
0.429420 -0.131247 0.000000 
0.458977 -0.168321 0.000000 
0.026061 -0.039971 0.000000 
0.028809 0.065735 0.000000 
0.054870 0.019851 0.000000 
0.106992 0.028084 0.000000 
0.029377 0.167792 0.000000 
0.058186 0.127615 0.000000 
0.114311 0.143281 0.000000 
0.137056 0.089633 0.000000 
0.186430 0.092160 0.000000 
0.029568 0.268846 0.000000 
0.058945 0.230726 0.000000 
0.116563 0.250372 0.000000 
0.143120 0.203103 0.000000 
0.196633 0.211812 0.000000 
0.217198 0.154516 0.000000 
0.265318 0.155315 0.000000 
0.029759 0.369901 0.000000 
0.059328 0.332835 0.000000 
0.117890 0.355540 0.000000 
0.145749 0.311198 0.000000 
0.201664 0.324672 0.000000 
0.225992 0.272555 0.000000 
0.278030 0.278421 0.000000 
0.296791 0.218478 0.000000 
0.344206 0.218471 0.000000 
VECTORS X_EC float 
0.338794 -0.960386 0.000000 
-0.609100 0.120865 0.000000 
0.713312 0.232006 0.000000 
0.374519 -0.387424 0.000000 
0.423588 -0.744154 0.000000 
-0.218274 -0.710050 0.000000 
-0.513962 0.565711 0.000000 
0.756418 0.777197 0.000000 
0.381900 0.234804 0.000000 
-0.550868 0.403243 0.000000 
0.823577 0.414038 0.000000 
0.556234 -0.359466 0.000000 
-0.139443 -0.241897 0.000000 
-0.484677 -0.880022 0.000000 
0.766286 -0.614806 0.000000 
0.384386 0.870573 0.000000 
0.474677 -0.449360 0.000000 
-0.141715 -0.449457 0.000000 
-0.385608 0.741315 0.000000 
0.937896 0.820511 0.000000 
0.621631 0.116931 0.000000 
-0.105264 0.298830 0.000000 
-0.467428 -0.299797 0.000000 
0.771260 0.006732 0.000000 
0.386873 -0.493657 0.000000 
0.761262 -0.410252 0.000000 
0.108942 -0.128875 0.000000 
-0.397202 -0.609715 0.000000 
-0.142083 0.729010 0.000000 
-0.595936 0.170235 0.000000 
0.978194 -0.329630 0.000000 
-0.660903 0.978745 0.000000 
0.724964 0.518224 0.000000 
0.899809 -0.124024 0.000000 
0.685384 0.471288 0.000000 
0.287229 -0.029871 0.000000 
0.702895 -0.729199 0.000000 
0.180633 0.779282 0.000000 
0.445811 0.101122 0.000000 
-0.220880 -0.341664 0.000000 
-0.071546 -0.972589 0.000000 
-0.033296 0.772340 0.000000 
-0.417537 0.271830 0.000000 
0.039645 -0.430732 0.000000 
-0.441768 -0.930603 0.000000 
-0.109248 0.373946 0.000000 
-0.699407 -0.102810 0.000000 
-0.474522 -0.770089 0.000000 
0.820030 0.802918 0.000000 
0.957100 0.178846 0.000000 
0.610485 0.275754 0.000000 
-0.761092 -0.454626 0.000000 
-0.714655 0.834636 0.000000 
-0.057734 0.629469 0.000000 
-0.178789 0.783378 0.000000 
-0.067979 0.125952 0.000000 
0.677748 -0.012252 0.000000 
0.641556 -0.797997 0.000000 
-0.765897 0.943525 0.000000 
0.393446 0.011387 0.000000 
0.522510 -0.624343 0.000000 
-0.691820 -0.722887 0.000000 
-0.647393 0.546630 0.000000 
0.028512 0.339104 0.000000 
-0.053800 -0.478257 0.000000 
0.514316 -0.750388 0.000000 
0.965681 -0.760604 0.000000 
-0.897068 0.615367 0.000000 
-0.083078 0.548514 0.000000 
-0.006893 -0.154010 0.000000 
0.724017 -0.317643 0.000000 
0.714996 0.905953 0.000000 
-0.642413 0.672496 0.000000 
-0.760780 -0.166484 0.000000 
-0.205471 -0.444300 0.000000 
0.000000 0.581056 0.000000 
-0.564049 -0.117131 0.000000 
0.000000 -0.522567 0.000000 
0.564049 -0.117131 0.000000 
0.866949 -0.872476 0.000000 
-0.569003 0.807593 0.000000 
0.000000 -0.673119 0.000000 
0.569003 0.807593 0.000000 
-0.866949 -0.872476 0.000000 
0.299194 0.357774 0.000000 
0.858290 0.066191 0.000000 
-0.577662 0.642636 0.000000 
0.000000 0.223258 0.000000 
0.577662 0.642636 0.000000 
-0.858290 0.066191 0.000000 
-0.299194 0.357774 0.000000 
-0.268560 -0.411976 0.000000 
0.286830 -0.689617 0.000000 
0.844677 -0.070419 0.000000 
-0.578910 -0.446582 0.000000 
0.000000 0.044822 0.000000 
0.578910 -0.446582 0.000000 
-0.844677 -0.070419 0.000000 
-0.286830 -0.689617 0.000000 
0.268560 -0.411976 0.000000 
-0.610485 0.275754 0.000000 
0.057734 0.629469 0.000000 
0.714655 0.834636 0.000000 
0.761092 -0.454626 0.000000 
0.765897 0.943525 0.000000 
-0.641556 -0.797997 0.000000 
-0.677748 -0.012251 0.000000 
0.067979 0.125952 0.000000 
0.178789 0.783378 0.000000 
-0.514316 -0.750388 0.000000 
0.053800 -0.478257 0.000000 
-0.028512 0.339104 0.000000 
0.647393 0.546630 0.000000 
0.691820 -0.722887 0.000000 
-0.522510 -0.624343 0.000000 
-0.393446 0.011387 0.000000 
0.205471 -0.444300 0.000000 
0.760780 -0.166484 0.000000 
0.642413 0.672496 0.000000 
-0.714996 0.905953 0.000000 
-0.724017 -0.317643 0.000000 
0.006894 -0.154010 0.000000 
0.083078 0.548514 0.000000 
0.897068 0.615367 0.000000 
-0.965681 -0.760604 0.000000 
-0.761262 -0.410252 0.000000 
0.142083 0.729010 0.000000 
0.397202 -0.609715 0.000000 
-0.108942 -0.128875 0.000000 
-0.899809 -0.124024 0.000000 
-0.724964 0.518224 0.000000 
0.660903 0.978745 0.000000 
-0.978194 -0.329630 0.000000 
0.595936 0.170235 0.000000 
0.071546 -0.972589 0.000000 
0.220880 -0.341664 0.000000 
-0.445811 0.101122 0.000000 
-0.180633 0.779282 0.000000 
-0.702895 -0.729199 0.000000 
-0.287229 -0.029871 0.000000 
-0.685384 0.471288 0.000000 
-0.957100 0.178846 0.000000 
-0.820030 0.802918 0.000000 
0.474522 -0.770089 0.000000 
0.699407 -0.102810 0.000000 
0.109248 0.373946 0.000000 
0.441768 -0.930603 0.000000 
-0.039645 -0.430732 0.000000 
0.417537 0.271830 0.000000 
0.033296 0.772340 0.000000 
-0.338794 -0.960386 0.000000 
-0.374519 -0.387424 0.000000 
-0.713312 0.232006 0.000000 
0.609100 0.120865 0.000000 
-0.381900 0.234804 0.000000 
-0.756418 0.777197 0.000000 
0.513962 0.565711 0.000000 
0.218274 -0.710050 0.000000 
-0.423588 -0.744154 0.000000 
-0.384386 0.870573 0.000000 
-0.766286 -0.614806 0.000000 
0.484677 -0.880022 0.000000 
0.139443 -0.241897 0.000000 
-0.556234 -0.359466 0.000000 
-0.823577 0.414038 0.000000 
0.550868 0.403243 0.000000 
-0.386873 -0.493657 0.000000 
-0.771260 0.006732 0.000000 
0.467428 -0.299797 0.000000 
0.105264 0.298830 0.000000 
-0.621631 0.116931 0.000000 
-0.937896 0.820511 0.000000 
0.385608 0.741315 0.000000 
0.141715 -0.449457 0.000000 
-0.474677 -0.449360 0.000000 
CELL_DATA 175 
SCALARS MASS float 
LOOKUP_TABLE default 
0.781831 
0.864274 
0.946717 
0.864274 
0.881307 
0.921110 
0.858535 
0.921110 
0.881307 
0.887046 
0.910001 
0.869829 
0.915556 
0.869829 
0.910001 
0.887046 
0.892784 
0.915740 
0.892784 
0.927218 
0.892784 
0.927218 
0.892784 
0.915740 
0.892784 
0.781831 
0.864274 
0.946717 
0.864274 
0.881307 
0.921110 
0.858535 
0.921110 
0.881307 
0.887046 
0.910001 
0.869829 
0.915556 
0.869829 
0.910001 
0.887046 
0.892784 
0.915740 
0.892784 
0.927218 
0.892784 
0.927218 
0.892784 
0.915740 
0.892784 
0.781831 
0.864274 
0.946717 
0.864274 
0.881307 
0.921110 
0.858535 
0.921110 
0.881307 
0.887046 
0.910001 
0.869829 
0.915556 
0.869829 
0.910001 
0.887046 
0.892784 
0.915740 
0.892784 
0.927218 
0.892784 
0.927218 
0.892784 
0.915740 
0.892784 
0.781831 
0.864274 
0.946717 
0.864274 
0.881307 
0.921110 
0.858535 
0.921110 
0.881307 
0.887046 
0.910001 
0.869829 
0.915556 
0.869829 
0.910001 
0.887046 
0.892784 
0.915740 
0.892784 
0.927218 
0.892784 
0.927218 
0.892784 
0.915740 
0.892784 
0.781831 
0.864274 
0.946717 
0.864274 
0.881307 
0.921110 
0.858535 
0.921110 
0.881307 
0.887046 
0.910001 
0.869829 
0.915556 
0.869829 
0.910001 
0.887046 
0.892784 
0.915740 
0.892784 
0.927218 
0.892784 
0.927218 
0.892784 
0.915740 
0.892784 
0.781831 
0.864274 
0.946717 
0.864274 
0.881307 
0.921110 
0.858535 
0.921110 
0.881307 
0.887046 
0.910001 
0.869829 
0.915556 
0.869829 
0.910001 
0.887046 
0.892784 
0.915740 
0.892784 
0.927218 
0.892784 
0.927218 
0.892784 
0.915740 
0.892784 
0.781831 
0.864274 
0.946717 
0.864274 
0.881307 
0.921110 
0.858535 
0.921110 
0.881307 
0.887046 
0.910001 
0.869829 
0.915556 
0.869829 
0.910001 
0.887046 
0.892784 
0.915740 
0.892784 
0.927218 
0.892784 
0.927218 
0.892784 
0.915740 
0.892784 
SCALARS MASS float 
LOOKUP_TABLE default 
0.781831 
0.864274 
0.946717 
0.864274 
0.881307 
0.921110 
0.858535 
0.921110 
0.881307 
0.887046 
0.910001 
0.869829 
0.915556 
0.869829 
0.910001 
0.887046 
0.892784 
0.915740 
0.892784 
0.927218 
0.892784 
0.927218 
0.892784 
0.915740 
0.892784 
0.781831 
0.864274 
0.946717 
0.864274 
0.881307 
0.921110 
0.858535 
0.921110 
0.881307 
0.887046 
0.910001 
0.869829 
0.915556 
0.869829 
0.910001 
0.887046 
0.892784 
0.915740 
0.892784 
0.927218 
0.892784 
0.927218 
0.892784 
0.915740 
0.892784 
0.781831 
0.864274 
0.946717 
0.864274 
0.881307 
0.921110 
0.858535 
0.921110 
0.881307 
0.887046 
0.910001 
0.869829 
0.915556 
0.869829 
0.910001 
0.887046 
0.892784 
0.915740 
0.892784 
0.927218 
0.892784 
0.927218 
0.892784 
0.915740 
0.892784 
0.781831 
0.864274 
0.946717 
0.864274 
0.881307 
0.921110 
0.858535 
0.921110 
0.881307 
0.887046 
0.910001 
0.869829 
0.915556 
0.869829 
0.910001 
0.887046 
0.892784 
0.915740 
0.892784 
0.927218 
0.892784 
0.927218 
0.892784 
0.915740 
0.892784 
0.781831 
0.864274 
0.946717 
0.864274 
0.881307 
0.921110 
0.858535 
0.921110 
0.881307 
0.887046 
0.910001 
0.869829 
0.915556 
0.869829 
0.910001 
0.887046 
0.892784 
0.915740 
0.892784 
0.927218 
0.892784 
0.927218 
0.892784 
0.915740 
0.892784 
0.781831 
0.864274 
0.946717 
0.864274 
0.881307 
0.921110 
0.858535 
0.921110 
0.881307 
0.887046 
0.910001 
0.869829 
0.915556 
0.869829 
0.910001 
0.887046 
0.892784 
0.915740 
0.892784 
0.927218 
0.892784 
0.927218 
0.892784 
0.915740 
0.892784 
0.781831 
0.864274 
0.946717 
0.864274 
0.881307 
0.921110 
0.858535 
0.921110 
0.881307 
0.887046 
0.910001 
0.869829 
0.915556 
0.869829 
0.910001 
0.887046 
0.892784 
0.915740 
0.892784 
0.927218 
0.892784 
0.927218 
0.892784 
0.915740 
0.892784 
SCALARS DENSITY float 
LOOKUP_TABLE default 
200.000000 
200.000000 
200.000000 
200.000000 
200.000000 
200.000000 
200.000000 
200.000000 
200.000000 
200.000000 
200.000000 
200.000000 
200.000000 
200.000000 
200.000000 
200.000000 
200.000000 
200.000000 
200.000000 
200.000000 
200.000000 
200.000000 
200.000000 
200.000000 
200.000000 
200.000000 
200.000000 
200.000000 
200.000000 
200.000000 
200.000000 
200.000000 
200.000000 
200.000000 
200.000000 
200.000000 
200.000000 
200.000000 
200.000000 
200.000000 
200.000000 
200.000000 
200.000000 
200.000000 
200.000000 
200.000000 
200.000000 
200.000000 
200.000000 
200.000000 
200.000000 
200.000000 
200.000000 
200.000000 
200.000000 
200.000000 
200.000000 
200.000000 
200.000000 
200.000000 
200.000000 
200.000000 
200.000000 
200.000000 
200.000000 
200.000000 
200.000000 
200.000000 
200.000000 
200.000000 
200.000000 
200.000000 
200.000000 
200.000000 
200.000000 
200.000000 
200.000000 
200.000000 
200.000000 
200.000000 
200.000000 
200.000000 
200.000000 
200.000000 
200.000000 
200.000000 
200.000000 
200.000000 
200.000000 
200.000000 
200.000000 
200.000000 
200.000000 
200.000000 
200.000000 
200.000000 
200.000000 
200.000000 
200.000000 
200.000000 
200.000000 
200.000000 
200.000000 
200.000000 
200.000000 
200.000000 
200.000000 
200.000000 
200.000000 
200.000000 
200.000000 
200.000000 
200.000000 
200.000000 
200.000000 
200.000000 
200.000000 
200.000000 
200.000000 
200.000000 
200.000000 
200.000000 
200.000000 
200.000000 
200.000000 
200.000000 
200.000000 
200.000000 
200.000000 
200.000000 
200.000000 
200.000000 
200.000000 
200.000000 
200.000000 
200.000000 
200.000000 
200.000000 
200.000000 
200.000000 
200.000000 
200.000000 
200.000000 
200.000000 
200.000000 
200.000000 
200.000000 
200.000000 
200.000000 
200.000000 
200.000000 
200.000000 
200.000000 
200.000000 
200.000000 
200.000000 
200.000000 
200.000000 
200.000000 
200.000000 
200.000000 
200.000000 
200.000000 
200.000000 
200.000000 
200.000000 
200.000000 
200.000000 
200.000000 
200.000000 
200.000000 
200.000000 
200.000000 
200.000000 
200.000000 
SCALARS ELEM_i float 
LOOKUP_TABLE default 
181 
209 
182 
182 
209 
209 
210 
183 
183 
237 
210 
210 
210 
210 
183 
184 
237 
237 
238 
211 
211 
211 
211 
184 
184 
181 
208 
208 
209 
235 
208 
236 
209 
209 
235 
235 
235 
236 
236 
236 
236 
262 
262 
262 
262 
263 
263 
263 
237 
237 
181 
207 
208 
208 
207 
207 
207 
207 
235 
206 
206 
233 
234 
234 
234 
234 
205 
233 
233 
233 
233 
234 
261 
261 
261 
181 
180 
180 
180 
152 
180 
179 
180 
206 
152 
152 
179 
179 
179 
206 
206 
151 
151 
151 
178 
178 
178 
205 
205 
205 
181 
154 
154 
153 
127 
153 
153 
153 
153 
126 
126 
126 
126 
125 
152 
152 
99 
99 
99 
126 
125 
125 
125 
125 
151 
181 
155 
154 
154 
155 
155 
128 
154 
127 
128 
128 
128 
128 
127 
127 
127 
129 
129 
101 
101 
101 
100 
100 
100 
100 
181 
182 
182 
155 
183 
183 
156 
155 
155 
184 
183 
156 
156 
156 
156 
129 
184 
184 
157 
157 
157 
157 
130 
129 
129 
VECTORS VELOCITY float 
-0.000000 -1.353780 0.000000 
0.000000 -1.353780 0.000000 
-0.000000 -1.353780 0.000000 
0.000000 -1.353780 0.000000 
0.000000 -1.353780 0.000000 
0.000000 -1.353780 0.000000 
0.000000 -1.353780 0.000000 
0.000000 -1.353780 0.000000 
0.000000 -1.353780 0.000000 
0.000000 -1.353780 0.000000 
0.000000 -1.353780 0.000000 
0.000000 -1.353780 0.000000 
0.000000 -1.353780 0.000000 
-0.000000 -1.353780 0.000000 
0.000000 -1.353780 0.000000 
-0.000000 -1.353780 0.000000 
-0.000000 -1.353780 0.000000 
-0.000000 -1.353780 0.000000 
-0.000000 -1.353780 0.000000 
0.000000 -1.353780 0.000000 
-0.000000 -1.353780 0.000000 
-0.000000 -1.353780 0.000000 
0.000000 -1.353780 0.000000 
-0.000000 -1.353780 0.000000 
0.000000 -1.353780 0.000000 
-0.000000 -1.353780 0.000000 
-0.000000 -1.353780 0.000000 
-0.000000 -1.353780 0.000000 
0.000000 -1.353780 0.000000 
-0.000000 -1.353780 0.000000 
0.000000 -1.353780 0.000000 
0.000000 -1.353780 0.000000 
0.000000 -1.353780 0.000000 
0.000000 -1.353780 0.000000 
0.000000 -1.353780 0.000000 
0.000000 -1.353780 0.000000 
0.000000 -1.353780 0.000000 
0.000000 -1.353780 0.000000 
-0.000000 -1.353780 0.000000 
0.000000 -1.353780 0.000000 
0.000000 -1.353780 0.000000 
0.000000 -1.353780 0.000000 
0.000000 -1.353780 0.000000 
0.000000 -1.353780 0.000000 
-0.000000 -1.353780 0.000000 
-0.000000 -1.353780 0.000000 
-0.000000 -1.353780 0.000000 
-0.000000 -1.353780 0.000000 
-0.000000 -1.353780 0.000000 
-0.000000 -1.353780 0.000000 
-0.000000 -1.353780 0.000000 
-0.000000 -1.353780 0.000000 
0.000000 -1.353780 0.000000 
-0.000000 -1.353780 0.000000 
-0.000000 -1.353780 0.000000 
-0.000000 -1.353780 0.000000 
-0.000000 -1.353780 0.000000 
-0.000000 -1.353780 0.000000 
-0.000000 -1.353780 0.000000 
-0.000000 -1.353780 0.000000 
-0.000000 -1.353780 0.000000 
-0.000000 -1.353780 0.000000 
-0.000000 -1.353780 0.000000 
-0.000000 -1.353780 0.000000 
-0.000000 -1.353780 0.000000 
0.000000 -1.353780 0.000000 
0.000000 -1.353780 0.000000 
0.000000 -1.353780 0.000000 
0.000000 -1.353780 0.000000 
0.000000 -1.353780 0.000000 
0.000000 -1.353780 0.000000 
0.000000 -1.353780 0.000000 
0.000000 -1.353780 0.000000 
0.000000 -1.353780 0.000000 
0.000000 -1.353780 0.000000 
-0.000000 -1.353780 0.000000 
0.000000 -1.353780 0.000000 
0.000000 -1.353780 0.000000 
-0.000000 -1.353780 0.000000 
0.000000 -1.353780 0.000000 
0.000000 -1.353780 0.000000 
0.000000 -1.353780 0.000000 
-0.000000 -1.353780 0.000000 
-0.000000 -1.353780 0.000000 
0.000000 -1.353780 0.000000 
0.000000 -1.353780 0.000000 
0.000000 -1.353780 0.000000 
0.000000 -1.353780 0.000000 
-0.000000 -1.353780 0.000000 
-0.000000 -1.353780 0.000000 
-0.000000 -1.353780 0.000000 
0.000000 -1.353780 0.000000 
0.000000 -1.353780 0.000000 
0.000000 -1.353780 0.000000 
0.000000 -1.353780 0.000000 
-0.000000 -1.353780 0.000000 
-0.000000 -1.353780 0.000000 
-0.000000 -1.353780 0.000000 
0.000000 -1.353780 0.000000 
0.000000 -1.353780 0.000000 
-0.000000 -1.353780 0.000000 
0.000000 -1.353780 0.000000 
-0.000000 -1.353780 0.000000 
0.000000 -1.353780 0.000000 
0.000000 -1.353780 0.000000 
0.000000 -1.353780 0.000000 
0.000000 -1.353780 0.000000 
0.000000 -1.353780 0.000000 
0.000000 -1.353780 0.000000 
0.000000 -1.353780 0.000000 
0.000000 -1.353780 0.000000 
0.000000 -1.353780 0.000000 
0.000000 -1.353780 0.000000 
-0.000000 -1.353780 0.000000 
0.000000 -1.353780 0.000000 
-0.000000 -1.353780 0.000000 
-0.000000 -1.353780 0.000000 
-0.000000 -1.353780 0.000000 
-0.000000 -1.353780 0.000000 
0.000000 -1.353780 0.000000 
-0.000000 -1.353780 0.000000 
-0.000000 -1.353780 0.000000 
-0.000000 -1.353780 0.000000 
-0.000000 -1.353780 0.000000 
-0.000000 -1.353780 0.000000 
0.000000 -1.353780 0.000000 
-0.000000 -1.353780 0.000000 
-0.000000 -1.353780 0.000000 
0.000000 -1.353780 0.000000 
-0.000000 -1.353780 0.000000 
-0.000000 -1.353780 0.000000 
-0.000000 -1.353780 0.000000 
-0.000000 -1.353780 0.000000 
0.000000 -1.353780 0.000000 
0.000000 -1.353780 0.000000 
0.000000 -1.353780 0.000000 
0.000000 -1.353780 0.000000 
0.000000 -1.353780 0.000000 
0.000000 -1.353780 0.000000 
0.000000 -1.353780 0.000000 
0.000000 -1.353780 0.000000 
0.000000 -1.353780 0.000000 
0.000000 -1.353780 0.000000 
-0.000000 -1.353780 0.000000 
-0.000000 -1.353780 0.000000 
-0.000000 -1.353780 0.000000 
0.000000 -1.353780 0.000000 
-0.000000 -1.353780 0.000000 
0.000000 -1.353780 0.000000 
-0.000000 -1.353780 0.000000 
-0.000000 -1.353780 0.000000 
-0.000000 -1.353780 0.000000 
-0.000000 -1.353780 0.000000 
-0.000000 -1.353780 0.000000 
-0.000000 -1.353780 0.000000 
-0.000000 -1.353780 0.000000 
-0.000000 -1.353780 0.000000 
-0.000000 -1.353780 0.000000 
-0.000000 -1.353780 0.000000 
0.000000 -1.353780 0.000000 
-0.000000 -1.353780 0.000000 
0.000000 -1.353780 0.000000 
-0.000000 -1.353780 0.000000 
-0.000000 -1.353780 0.000000 
-0.000000 -1.353780 0.000000 
-0.000000 -1.353780 0.000000 
0.000000 -1.353780 0.000000 
0.000000 -1.353780 0.000000 
-0.000000 -1.353780 0.000000 
-0.000000 -1.353780 0.000000 
-0.000000 -1.353780 0.000000 
-0.000000 -1.353780 0.000000 
-0.000000 -1.353780 0.000000 
-0.000000 -1.353780 0.000000 
-0.000000 -1.353780 0.000000 
TENSORS STRESS float 
-0.000000 -0.000000 0.000000 
0.000000 -0.000000 0.000000 
0.000000 0.000000 0.000000 

-0.000000 -0.000000 0.000000 
0.000000 -0.000000 0.000000 
0.000000 0.000000 0.000000 

0.000000 -0.000000 0.000000 
0.000000 0.000000 0.000000 
0.000000 0.000000 0.000000 

0.000000 -0.000000 0.000000 
0.000000 0.000000 0.000000 
0.000000 0.000000 0.000000 

0.000000 -0.000000 0.000000 
0.000000 0.000000 0.000000 
0.000000 0.000000 0.000000 

-0.000000 -0.000000 0.000000 
0.000000 -0.000000 0.000000 
0.000000 0.000000 0.000000 

-0.000000 -0.000000 0.000000 
0.000000 -0.000000 0.000000 
0.000000 0.000000 0.000000 

0.000000 0.000000 0.000000 
0.000000 0.000000 0.000000 
0.000000 0.000000 0.000000 

0.000000 0.000000 0.000000 
0.000000 0.000000 0.000000 
0.000000 0.000000 0.000000 

-0.000000 0.000000 0.000000 
0.000000 0.000000 0.000000 
0.000000 0.000000 0.000000 

0.000000 -0.000000 0.000000 
0.000000 0.000000 0.000000 
0.000000 0.000000 0.000000 

-0.000000 -0.000000 0.000000 
0.000000 -0.000000 0.000000 
0.000000 0.000000 0.000000 

0.000000 -0.000000 0.000000 
0.000000 0.000000 0.000000 
0.000000 0.000000 0.000000 

-0.000000 -0.000000 0.000000 
0.000000 -0.000000 0.000000 
0.000000 0.000000 0.000000 

0.000000 0.000000 0.000000 
0.000000 0.000000 0.000000 
0.000000 0.000000 0.000000 

0.000000 0.000000 0.000000 
0.000000 0.000000 0.000000 
0.000000 0.000000 0.000000 

-0.000000 0.000000 0.000000 
0.000000 -0.000000 0.000000 
0.000000 0.000000 0.000000 

-0.000000 0.000000 0.000000 
0.000000 -0.000000 0.000000 
0.000000 0.000000 0.000000 

0.000000 0.000000 0.000000 
0.000000 0.000000 0.000000 
0.000000 0.000000 0.000000 

0.000000 -0.000000 0.000000 
0.000000 0.000000 0.000000 
0.000000 0.000000 0.000000 

-0.000000 -0.000000 0.000000 
0.000000 -0.000000 0.000000 
0.000000 0.000000 0.000000 

-0.000000 -0.000000 0.000000 
0.000000 -0.000000 0.000000 
0.000000 0.000000 0.000000 

-0.000000 -0.000000 0.000000 
0.000000 -0.000000 0.000000 
0.000000 0.000000 0.000000 

0.000000 0.000000 0.000000 
0.000000 0.000000 0.000000 
0.000000 0.000000 0.000000 

0.000000 0.000000 0.000000 
0.000000 0.000000 0.000000 
0.000000 0.000000 0.000000 

0.000000 -0.000000 0.000000 
0.000000 0.000000 0.000000 
0.000000 0.000000 0.000000 

0.000000 -0.000000 0.000000 
0.000000 0.000000 0.000000 
0.000000 0.000000 0.000000 

0.000000 -0.000000 0.000000 
0.000000 0.000000 0.000000 
0.000000 0.000000 0.000000 

0.000000 -0.000000 0.000000 
0.000000 0.000000 0.000000 
0.000000 0.000000 0.000000 

-0.000000 0.000000 0.000000 
0.000000 -0.000000 0.000000 
0.000000 0.000000 0.000000 

-0.000000 -0.000000 0.000000 
0.000000 -0.000000 0.000000 
0.000000 0.000000 0.000000 

-0.000000 0.000000 0.000000 
0.000000 -0.000000 0.000000 
0.000000 0.000000 0.000000 

0.000000 -0.000000 0.000000 
0.000000 0.000000 0.000000 
0.000000 0.000000 0.000000 

0.000000 -0.000000 0.000000 
0.000000 0.000000 0.000000 
0.000000 0.000000 0.000000 

-0.000000 0.000000 0.000000 
0.000000 -0.000000 0.000000 
0.000000 0.000000 0.000000 

-0.000000 -0.000000 0.000000 
0.000000 -0.000000 0.000000 
0.000000 0.000000 0.000000 

-0.000000 0.000000 0.000000 
0.000000 -0.000000 0.000000 
0.000000 0.000000 0.000000 

-0.000000 0.000000 0.000000 
0.000000 -0.000000 0.000000 
0.000000 0.000000 0.000000 

-0.000000 -0.000000 0.000000 
0.000000 -0.000000 0.000000 
0.000000 0.000000 0.000000 

-0.000000 -0.000000 0.000000 
0.000000 -0.000000 0.000000 
0.000000 0.000000 0.000000 

-0.000000 0.000000 0.000000 
0.000000 -0.000000 0.000000 
0.000000 0.000000 0.000000 

-0.000000 0.000000 0.000000 
0.000000 -0.000000 0.000000 
0.000000 0.000000 0.000000 

-0.000000 -0.000000 0.000000 
0.000000 -0.000000 0.000000 
0.000000 0.000000 0.000000 

-0.000000 -0.000000 0.000000 
0.000000 -0.000000 0.000000 
0.000000 0.000000 0.000000 

0.000000 -0.000000 0.000000 
0.000000 0.000000 0.000000 
0.000000 0.000000 0.000000 

0.000000 -0.000000 0.000000 
0.000000 0.000000 0.000000 
0.000000 0.000000 0.000000 

0.000000 -0.000000 0.000000 
0.000000 0.000000 0.000000 
0.000000 0.000000 0.000000 

0.000000 -0.000000 0.000000 
0.000000 0.000000 0.000000 
0.000000 0.000000 0.000000 

-0.000000 -0.000000 0.000000 
0.000000 -0.000000 0.000000 
0.000000 0.000000 0.000000 

-0.000000 0.000000 0.000000 
0.000000 -0.000000 0.000000 
0.000000 0.000000 0.000000 

-0.000000 0.000000 0.000000 
0.000000 -0.000000 0.000000 
0.000000 0.000000 0.000000 

-0.000000 -0.000000 0.000000 
0.000000 -0.000000 0.000000 
0.000000 0.000000 0.000000 

0.000000 -0.000000 0.000000 
0.000000 0.000000 0.000000 
0.000000 0.000000 0.000000 

-0.000000 -0.000000 0.000000 
0.000000 -0.000000 0.000000 
0.000000 0.000000 0.000000 

-0.000000 0.000000 0.000000 
0.000000 -0.000000 0.000000 
0.000000 0.000000 0.000000 

-0.000000 -0.000000 0.000000 
0.000000 -0.000000 0.000000 
0.000000 0.000000 0.000000 

0.000000 0.000000 0.000000 
0.000000 0.000000 0.000000 
0.000000 0.000000 0.000000 

-0.000000 -0.000000 0.000000 
0.000000 -0.000000 0.000000 
0.000000 0.000000 0.000000 

-0.000000 0.000000 0.000000 
0.000000 -0.000000 0.000000 
0.000000 0.000000 0.000000 

0.000000 0.000000 0.000000 
0.000000 0.000000 0.000000 
0.000000 0.000000 0.000000 

-0.000000 0.000000 0.000000 
0.000000 -0.000000 0.000000 
0.000000 0.000000 0.000000 

-0.000000 -0.000000 0.000000 
0.000000 -0.000000 0.000000 
0.000000 0.000000 0.000000 

0.000000 0.000000 0.000000 
0.000000 0.000000 0.000000 
0.000000 0.000000 0.000000 

0.000000 -0.000000 0.000000 
0.000000 0.000000 0.000000 
0.000000 0.000000 0.000000 

0.000000 0.000000 0.000000 
0.000000 0.000000 0.000000 
0.000000 0.000000 0.000000 

-0.000000 0.000000 0.000000 
0.000000 -0.000000 0.000000 
0.000000 0.000000 0.000000 

0.000000 -0.000000 0.000000 
0.000000 0.000000 0.000000 
0.000000 0.000000 0.000000 

-0.000000 0.000000 0.000000 
0.000000 -0.000000 0.000000 
0.000000 0.000000 0.000000 

0.000000 0.000000 0.000000 
0.000000 0.000000 0.000000 
0.000000 0.000000 0.000000 

0.000000 -0.000000 0.000000 
0.000000 0.000000 0.000000 
0.000000 0.000000 0.000000 

-0.000000 0.000000 0.000000 
0.000000 -0.000000 0.000000 
0.000000 0.000000 0.000000 

0.000000 0.000000 0.000000 
0.000000 0.000000 0.000000 
0.000000 0.000000 0.000000 

-0.000000 -0.000000 0.000000 
0.000000 -0.000000 0.000000 
0.000000 0.000000 0.000000 

-0.000000 -0.000000 0.000000 
0.000000 -0.000000 0.000000 
0.000000 0.000000 0.000000 

-0.000000 -0.000000 0.000000 
0.000000 -0.000000 0.000000 
0.000000 0.000000 0.000000 

-0.000000 0.000000 0.000000 
0.000000 -0.000000 0.000000 
0.000000 0.000000 0.000000 

0.000000 -0.000000 0.000000 
0.000000 0.000000 0.000000 
0.000000 0.000000 0.000000 

-0.000000 -0.000000 0.000000 
0.000000 -0.000000 0.000000 
0.000000 0.000000 0.000000 

-0.000000 -0.000000 0.000000 
0.000000 -0.000000 0.000000 
0.000000 0.000000 0.000000 

-0.000000 0.000000 0.000000 
0.000000 -0.000000 0.000000 
0.000000 0.000000 0.000000 

0.000000 -0.000000 0.000000 
0.000000 0.000000 0.000000 
0.000000 0.000000 0.000000 

0.000000 -0.000000 0.000000 
0.000000 0.000000 0.000000 
0.000000 0.000000 0.000000 

-0.000000 -0.000000 0.000000 
0.000000 -0.000000 0.000000 
0.000000 0.000000 0.000000 

0.000000 0.000000 0.000000 
0.000000 0.000000 0.000000 
0.000000 0.000000 0.000000 

-0.000000 0.000000 0.000000 
0.000000 -0.000000 0.000000 
0.000000 0.000000 0.000000 

-0.000000 0.000000 0.000000 
0.000000 -0.000000 0.000000 
0.000000 0.000000 0.000000 

-0.000000 -0.000000 0.000000 
0.000000 -0.000000 0.000000 
0.000000 0.000000 0.000000 

-0.000000 -0.000000 0.000000 
0.000000 -0.000000 0.000000 
0.000000 0.000000 0.000000 

0.000000 -0.000000 0.000000 
0.000000 0.000000 0.000000 
0.000000 0.000000 0.000000 

0.000000 0.000000 0.000000 
0.000000 0.000000 0.000000 
0.000000 0.000000 0.000000 

0.000000 0.000000 0.000000 
0.000000 0.000000 0.000000 
0.000000 0.000000 0.000000 

0.000000 -0.000000 0.000000 
0.000000 0.000000 0.000000 
0.000000 0.000000 0.000000 

0.000000 0.000000 0.000000 
0.000000 0.000000 0.000000 
0.000000 0.000000 0.000000 

0.000000 0.000000 0.000000 
0.000000 0.000000 0.000000 
0.000000 0.000000 0.000000 

0.000000 -0.000000 0.000000 
0.000000 0.000000 0.000000 
0.000000 0.000000 0.000000 

-0.000000 -0.000000 0.000000 
0.000000 -0.000000 0.000000 
0.000000 0.000000 0.000000 

-0.000000 -0.000000 0.000000 
0.000000 -0.000000 0.000000 
0.000000 0.000000 0.000000 

-0.000000 0.000000 0.000000 
0.000000 -0.000000 0.000000 
0.000000 0.000000 0.000000 

0.000000 0.000000 0.000000 
0.000000 0.000000 0.000000 
0.000000 0.000000 0.000000 

0.000000 0.000000 0.000000 
0.000000 0.000000 0.000000 
0.000000 0.000000 0.000000 

-0.000000 0.000000 0.000000 
0.000000 -0.000000 0.000000 
0.000000 0.000000 0.000000 

-0.000000 -0.000000 0.000000 
0.000000 -0.000000 0.000000 
0.000000 0.000000 0.000000 

-0.000000 -0.000000 0.000000 
0.000000 -0.000000 0.000000 
0.000000 0.000000 0.000000 

0.000000 -0.000000 0.000000 
0.000000 0.000000 0.000000 
0.000000 0.000000 0.000000 

0.000000 0.000000 0.000000 
0.000000 0.000000 0.000000 
0.000000 0.000000 0.000000 

-0.000000 -0.000000 0.000000 
0.000000 -0.000000 0.000000 
0.000000 0.000000 0.000000 

-0.000000 0.000000 0.000000 
0.000000 -0.000000 0.000000 
0.000000 0.000000 0.000000 

0.000000 -0.000000 0.000000 
0.000000 0.000000 0.000000 
0.000000 0.000000 0.000000 

0.000000 0.000000 0.000000 
0.000000 0.000000 0.000000 
0.000000 0.000000 0.000000 

-0.000000 0.000000 0.000000 
0.000000 -0.000000 0.000000 
0.000000 0.000000 0.000000 

-0.000000 0.000000 0.000000 
0.000000 -0.000000 0.000000 
0.000000 0.000000 0.000000 

-0.000000 -0.000000 0.000000 
0.000000 -0.000000 0.000000 
0.000000 0.000000 0.000000 

-0.000000 -0.000000 0.000000 
0.000000 -0.000000 0.000000 
0.000000 0.000000 0.000000 

0.000000 -0.000000 0.000000 
0.000000 0.000000 0.000000 
0.000000 0.000000 0.000000 

-0.000000 0.000000 0.000000 
0.000000 -0.000000 0.000000 
0.000000 0.000000 0.000000 

0.000000 0.000000 0.000000 
0.000000 0.000000 0.000000 
0.000000 0.000000 0.000000 

-0.000000 0.000000 0.000000 
0.000000 -0.000000 0.000000 
0.000000 0.000000 0.000000 

0.000000 0.000000 0.000000 
0.000000 0.000000 0.000000 
0.000000 0.000000 0.000000 

0.000000 0.000000 0.000000 
0.000000 0.000000 0.000000 
0.000000 0.000000 0.000000 

0.000000 -0.000000 0.000000 
0.000000 0.000000 0.000000 
0.000000 0.000000 0.000000 

-0.000000 -0.000000 0.000000 
0.000000 -0.000000 0.000000 
0.000000 0.000000 0.000000 

0.000000 -0.000000 0.000000 
0.000000 0.000000 0.000000 
0.000000 0.000000 0.000000 

0.000000 -0.000000 0.000000 
0.000000 0.000000 0.000000 
0.000000 0.000000 0.000000 

0.000000 -0.000000 0.000000 
0.000000 0.000000 0.000000 
0.000000 0.000000 0.000000 

0.000000 -0.000000 0.000000 
0.000000 0.000000 0.000000 
0.000000 0.000000 0.000000 

-0.000000 -0.000000 0.000000 
0.000000 -0.000000 0.000000 
0.000000 0.000000 0.000000 

0.000000 0.000000 0.000000 
0.000000 0.000000 0.000000 
0.000000 0.000000 0.000000 

0.000000 0.000000 0.000000 
0.000000 0.000000 0.000000 
0.000000 0.000000 0.000000 

0.000000 0.000000 0.000000 
0.000000 0.000000 0.000000 
0.000000 0.000000 0.000000 

-0.000000 0.000000 0.000000 
0.000000 -0.000000 0.000000 
0.000000 0.000000 0.000000 

-0.000000 0.000000 0.000000 
0.000000 -0.000000 0.000000 
0.000000 0.000000 0.000000 

0.000000 -0.000000 0.000000 
0.000000 0.000000 0.000000 
0.000000 0.000000 0.000000 

0.000000 -0.000000 0.000000 
0.000000 0.000000 0.000000 
0.000000 0.000000 0.000000 

0.000000 -0.000000 0.000000 
0.000000 0.000000 0.000000 
0.000000 0.000000 0.000000 

-0.000000 0.000000 0.000000 
0.000000 -0.000000 0.000000 
0.000000 0.000000 0.000000 

-0.000000 0.000000 0.000000 
0.000000 -0.000000 0.000000 
0.000000 0.000000 0.000000 

0.000000 -0.000000 0.000000 
0.000000 0.000000 0.000000 
0.000000 0.000000 0.000000 

0.000000 -0.000000 0.000000 
0.000000 0.000000 0.000000 
0.000000 0.000000 0.000000 

-0.000000 -0.000000 0.000000 
0.000000 -0.000000 0.000000 
0.000000 0.000000 0.000000 

-0.000000 0.000000 0.000000 
0.000000 -0.000000 0.000000 
0.000000 0.000000 0.000000 

-0.000000 0.000000 0.000000 
0.000000 -0.000000 0.000000 
0.000000 0.000000 0.000000 

-0.000000 0.000000 0.000000 
0.000000 -0.000000 0.000000 
0.000000 0.000000 0.000000 

-0.000000 0.000000 0.000000 
0.000000 -0.000000 0.000000 
0.000000 0.000000 0.000000 

0.000000 -0.000000 0.000000 
0.000000 0.000000 0.000000 
0.000000 0.000000 0.000000 

0.000000 -0.000000 0.000000 
0.000000 0.000000 0.000000 
0.000000 0.000000 0.000000 

0.000000 -0.000000 0.000000 
0.000000 0.000000 0.000000 
0.000000 0.000000 0.000000 

-0.000000 -0.000000 0.000000 
0.000000 -0.000000 0.000000 
0.000000 0.000000 0.000000 

0.000000 -0.000000 0.000000 
0.000000 0.000000 0.000000 
0.000000 0.000000 0.000000 

0.000000 0.000000 0.000000 
0.000000 0.000000 0.000000 
0.000000 0.000000 0.000000 

0.000000 0.000000 0.000000 
0.000000 0.000000 0.000000 
0.000000 0.000000 0.000000 

0.000000 0.000000 0.000000 
0.000000 0.000000 0.000000 
0.000000 0.000000 0.000000 

0.000000 0.000000 0.000000 
0.000000 0.000000 0.000000 
0.000000 0.000000 0.000000 

0.000000 0.000000 0.000000 
0.000000 0.000000 0.000000 
0.000000 0.000000 0.000000 

0.000000 0.000000 0.000000 
0.000000 0.000000 0.000000 
0.000000 0.000000 0.000000 

-0.000000 0.000000 0.000000 
0.000000 -0.000000 0.000000 
0.000000 0.000000 0.000000 

0.000000 -0.000000 0.000000 
0.000000 0.000000 0.000000 
0.000000 0.000000 0.000000 

0.000000 0.000000 0.000000 
0.000000 0.000000 0.000000 
0.000000 0.000000 0.000000 

0.000000 0.000000 0.000000 
0.000000 0.000000 0.000000 
0.000000 0.000000 0.000000 

-0.000000 0.000000 0.000000 
0.000000 -0.000000 0.000000 
0.000000 0.000000 0.000000 

0.000000 0.000000 0.000000 
0.000000 0.000000 0.000000 
0.000000 0.000000 0.000000 

0.000000 -0.000000 0.000000 
0.000000 0.000000 0.000000 
0.000000 0.000000 0.000000 

-0.000000 0.000000 0.000000 
0.000000 -0.000000 0.000000 
0.000000 0.000000 0.000000 

-0.000000 0.000000 0.000000 
0.000000 -0.000000 0.000000 
0.000000 0.000000 0.000000 

0.000000 0.000000 0.000000 
0.000000 0.000000 0.000000 
0.000000 0.000000 0.000000 

0.000000 -0.000000 0.000000 
0.000000 0.000000 0.000000 
0.000000 0.000000 0.000000 

-0.000000 0.000000 0.000000 
0.000000 -0.000000 0.000000 
0.000000 0.000000 0.000000 

0.000000 0.000000 0.000000 
0.000000 0.000000 0.000000 
0.000000 0.000000 0.000000 

0.000000 0.000000 0.000000 
0.000000 0.000000 0.000000 
0.000000 0.000000 0.000000 

0.000000 0.000000 0.000000 
0.000000 0.000000 0.000000 
0.000000 0.000000 0.000000 

0.000000 0.000000 0.000000 
0.000000 0.000000 0.000000 
0.000000 0.000000 0.000000 

0.000000 0.000000 0.000000 
0.000000 0.000000 0.000000 
0.000000 0.000000 0.000000 

0.000000 0.000000 0.000000 
0.000000 0.000000 0.000000 
0.000000 0.000000 0.000000 

-0.000000 -0.000000 0.000000 
0.000000 -0.000000 0.000000 
0.000000 0.000000 0.000000 

-0.000000 0.000000 0.000000 
0.000000 -0.000000 0.000000 
0.000000 0.000000 0.000000 

-0.000000 0.000000 0.000000 
0.000000 -0.000000 0.000000 
0.000000 0.000000 0.000000 

TENSORS STRAIN float 
-0.000000 -0.000000 0.000000 
0.000000 -0.000000 0.000000 
0.000000 0.000000 0.000000 

-0.000000 -0.000000 0.000000 
0.000000 -0.000000 0.000000 
0.000000 0.000000 0.000000 

0.000000 -0.000000 0.000000 
0.000000 0.000000 0.000000 
0.000000 0.000000 0.000000 

0.000000 -0.000000 0.000000 
0.000000 0.000000 0.000000 
0.000000 0.000000 0.000000 

-0.000000 -0.000000 0.000000 
0.000000 0.000000 0.000000 
0.000000 0.000000 0.000000 

-0.000000 -0.000000 0.000000 
0.000000 0.000000 0.000000 
0.000000 0.000000 0.000000 

-0.000000 -0.000000 0.000000 
0.000000 0.000000 0.000000 
0.000000 0.000000 0.000000 

0.000000 0.000000 0.000000 
0.000000 -0.000000 0.000000 
0.000000 0.000000 0.000000 

0.000000 0.000000 0.000000 
0.000000 0.000000 0.000000 
0.000000 0.000000 0.000000 

-0.000000 0.000000 0.000000 
0.000000 0.000000 0.000000 
0.000000 0.000000 0.000000 

-0.000000 -0.000000 0.000000 
0.000000 0.000000 0.000000 
0.000000 0.000000 0.000000 

-0.000000 -0.000000 0.000000 
0.000000 0.000000 0.000000 
0.000000 0.000000 0.000000 

-0.000000 -0.000000 0.000000 
0.000000 0.000000 0.000000 
0.000000 0.000000 0.000000 

-0.000000 -0.000000 0.000000 
0.000000 0.000000 0.000000 
0.000000 0.000000 0.000000 

-0.000000 0.000000 0.000000 
0.000000 0.000000 0.000000 
0.000000 0.000000 0.000000 

0.000000 0.000000 0.000000 
0.000000 0.000000 0.000000 
0.000000 0.000000 0.000000 

-0.000000 0.000000 0.000000 
0.000000 0.000000 0.000000 
0.000000 0.000000 0.000000 

-0.000000 0.000000 0.000000 
0.000000 -0.000000 0.000000 
0.000000 0.000000 0.000000 

-0.000000 0.000000 0.000000 
0.000000 0.000000 0.000000 
0.000000 0.000000 0.000000 

-0.000000 -0.000000 0.000000 
0.000000 0.000000 0.000000 
0.000000 0.000000 0.000000 

-0.000000 -0.000000 0.000000 
0.000000 0.000000 0.000000 
0.000000 0.000000 0.000000 

-0.000000 -0.000000 0.000000 
0.000000 0.000000 0.000000 
0.000000 0.000000 0.000000 

-0.000000 -0.000000 0.000000 
0.000000 0.000000 0.000000 
0.000000 0.000000 0.000000 

0.000000 0.000000 0.000000 
0.000000 0.000000 0.000000 
0.000000 0.000000 0.000000 

0.000000 0.000000 0.000000 
0.000000 0.000000 0.000000 
0.000000 0.000000 0.000000 

-0.000000 -0.000000 0.000000 
0.000000 0.000000 0.000000 
0.000000 0.000000 0.000000 

0.000000 -0.000000 0.000000 
0.000000 -0.000000 0.000000 
0.000000 0.000000 0.000000 

0.000000 -0.000000 0.000000 
0.000000 0.000000 0.000000 
0.000000 0.000000 0.000000 

0.000000 -0.000000 0.000000 
0.000000 0.000000 0.000000 
0.000000 0.000000 0.000000 

-0.000000 0.000000 0.000000 
0.000000 -0.000000 0.000000 
0.000000 0.000000 0.000000 

0.000000 -0.000000 0.000000 
0.000000 -0.000000 0.000000 
0.000000 0.000000 0.000000 

-0.000000 0.000000 0.000000 
0.000000 0.000000 0.000000 
0.000000 0.000000 0.000000 

0.000000 -0.000000 0.000000 
0.000000 0.000000 0.000000 
0.000000 0.000000 0.000000 

-0.000000 -0.000000 0.000000 
0.000000 0.000000 0.000000 
0.000000 0.000000 0.000000 

-0.000000 0.000000 0.000000 
0.000000 -0.000000 0.000000 
0.000000 0.000000 0.000000 

-0.000000 -0.000000 0.000000 
0.000000 -0.000000 0.000000 
0.000000 0.000000 0.000000 

-0.000000 0.000000 0.000000 
0.000000 0.000000 0.000000 
0.000000 0.000000 0.000000 

-0.000000 0.000000 0.000000 
0.000000 0.000000 0.000000 
0.000000 0.000000 0.000000 

-0.000000 -0.000000 0.000000 
0.000000 0.000000 0.000000 
0.000000 0.000000 0.000000 

-0.000000 -0.000000 0.000000 
0.000000 0.000000 0.000000 
0.000000 0.000000 0.000000 

-0.000000 0.000000 0.000000 
0.000000 0.000000 0.000000 
0.000000 0.000000 0.000000 

-0.000000 0.000000 0.000000 
0.000000 -0.000000 0.000000 
0.000000 0.000000 0.000000 

-0.000000 -0.000000 0.000000 
0.000000 -0.000000 0.000000 
0.000000 0.000000 0.000000 

-0.000000 -0.000000 0.000000 
0.000000 0.000000 0.000000 
0.000000 0.000000 0.000000 

-0.000000 -0.000000 0.000000 
0.000000 0.000000 0.000000 
0.000000 0.000000 0.000000 

-0.000000 -0.000000 0.000000 
0.000000 0.000000 0.000000 
0.000000 0.000000 0.000000 

-0.000000 -0.000000 0.000000 
0.000000 0.000000 0.000000 
0.000000 0.000000 0.000000 

0.000000 -0.000000 0.000000 
0.000000 0.000000 0.000000 
0.000000 0.000000 0.000000 

-0.000000 -0.000000 0.000000 
0.000000 -0.000000 0.000000 
0.000000 0.000000 0.000000 

-0.000000 0.000000 0.000000 
0.000000 -0.000000 0.000000 
0.000000 0.000000 0.000000 

-0.000000 0.000000 0.000000 
0.000000 -0.000000 0.000000 
0.000000 0.000000 0.000000 

-0.000000 -0.000000 0.000000 
0.000000 -0.000000 0.000000 
0.000000 0.000000 0.000000 

-0.000000 -0.000000 0.000000 
0.000000 0.000000 0.000000 
0.000000 0.000000 0.000000 

-0.000000 -0.000000 0.000000 
0.000000 -0.000000 0.000000 
0.000000 0.000000 0.000000 

-0.000000 0.000000 0.000000 
0.000000 -0.000000 0.000000 
0.000000 0.000000 0.000000 

-0.000000 -0.000000 0.000000 
0.000000 -0.000000 0.000000 
0.000000 0.000000 0.000000 

-0.000000 0.000000 0.000000 
0.000000 0.000000 0.000000 
0.000000 0.000000 0.000000 

-0.000000 -0.000000 0.000000 
0.000000 -0.000000 0.000000 
0.000000 0.000000 0.000000 

-0.000000 0.000000 0.000000 
0.000000 -0.000000 0.000000 
0.000000 0.000000 0.000000 

-0.000000 0.000000 0.000000 
0.000000 0.000000 0.000000 
0.000000 0.000000 0.000000 

-0.000000 0.000000 0.000000 
0.000000 -0.000000 0.000000 
0.000000 0.000000 0.000000 

-0.000000 -0.000000 0.000000 
0.000000 0.000000 0.000000 
0.000000 0.000000 0.000000 

-0.000000 0.000000 0.000000 
0.000000 0.000000 0.000000 
0.000000 0.000000 0.000000 

-0.000000 -0.000000 0.000000 
0.000000 0.000000 0.000000 
0.000000 0.000000 0.000000 

0.000000 0.000000 0.000000 
0.000000 0.000000 0.000000 
0.000000 0.000000 0.000000 

0.000000 0.000000 0.000000 
0.000000 -0.000000 0.000000 
0.000000 0.000000 0.000000 

-0.000000 -0.000000 0.000000 
0.000000 0.000000 0.000000 
0.000000 0.000000 0.000000 

0.000000 0.000000 0.000000 
0.000000 -0.000000 0.000000 
0.000000 0.000000 0.000000 

0.000000 0.000000 0.000000 
0.000000 0.000000 0.000000 
0.000000 0.000000 0.000000 

-0.000000 -0.000000 0.000000 
0.000000 0.000000 0.000000 
0.000000 0.000000 0.000000 

-0.000000 0.000000 0.000000 
0.000000 0.000000 0.000000 
0.000000 0.000000 0.000000 

-0.000000 0.000000 0.000000 
0.000000 0.000000 0.000000 
0.000000 0.000000 0.000000 

-0.000000 -0.000000 0.000000 
0.000000 0.000000 0.000000 
0.000000 0.000000 0.000000 

-0.000000 -0.000000 0.000000 
0.000000 -0.000000 0.000000 
0.000000 0.000000 0.000000 

-0.000000 -0.000000 0.000000 
0.000000 -0.000000 0.000000 
0.000000 0.000000 0.000000 

-0.000000 0.000000 0.000000 
0.000000 -0.000000 0.000000 
0.000000 0.000000 0.000000 

0.000000 -0.000000 0.000000 
0.000000 -0.000000 0.000000 
0.000000 0.000000 0.000000 

0.000000 -0.000000 0.000000 
0.000000 -0.000000 0.000000 
0.000000 0.000000 0.000000 

0.000000 -0.000000 0.000000 
0.000000 -0.000000 0.000000 
0.000000 0.000000 0.000000 

0.000000 0.000000 0.000000 
0.000000 -0.000000 0.000000 
0.000000 0.000000 0.000000 

0.000000 -0.000000 0.000000 
0.000000 0.000000 0.000000 
0.000000 0.000000 0.000000 

-0.000000 -0.000000 0.000000 
0.000000 0.000000 0.000000 
0.000000 0.000000 0.000000 

0.000000 -0.000000 0.000000 
0.000000 -0.000000 0.000000 
0.000000 0.000000 0.000000 

0.000000 0.000000 0.000000 
0.000000 0.000000 0.000000 
0.000000 0.000000 0.000000 

0.000000 0.000000 0.000000 
0.000000 -0.000000 0.000000 
0.000000 0.000000 0.000000 

0.000000 0.000000 0.000000 
0.000000 -0.000000 0.000000 
0.000000 0.000000 0.000000 

-0.000000 -0.000000 0.000000 
0.000000 0.000000 0.000000 
0.000000 0.000000 0.000000 

-0.000000 -0.000000 0.000000 
0.000000 -0.000000 0.000000 
0.000000 0.000000 0.000000 

-0.000000 -0.000000 0.000000 
0.000000 0.000000 0.000000 
0.000000 0.000000 0.000000 

-0.000000 0.000000 0.000000 
0.000000 0.000000 0.000000 
0.000000 0.000000 0.000000 

-0.000000 0.000000 0.000000 
0.000000 0.000000 0.000000 
0.000000 0.000000 0.000000 

0.000000 -0.000000 0.000000 
0.000000 0.000000 0.000000 
0.000000 0.000000 0.000000 

0.000000 0.000000 0.000000 
0.000000 0.000000 0.000000 
0.000000 0.000000 0.000000 

0.000000 0.000000 0.000000 
0.000000 -0.000000 0.000000 
0.000000 0.000000 0.000000 

-0.000000 -0.000000 0.000000 
0.000000 0.000000 0.000000 
0.000000 0.000000 0.000000 

-0.000000 -0.000000 0.000000 
0.000000 0.000000 0.000000 
0.000000 0.000000 0.000000 

-0.000000 -0.000000 0.000000 
0.000000 0.000000 0.000000 
0.000000 0.000000 0.000000 

-0.000000 0.000000 0.000000 
0.000000 0.000000 0.000000 
0.000000 0.000000 0.000000 

-0.000000 0.000000 0.000000 
0.000000 0.000000 0.000000 
0.000000 0.000000 0.000000 

-0.000000 0.000000 0.000000 
0.000000 0.000000 0.000000 
0.000000 0.000000 0.000000 

-0.000000 0.000000 0.000000 
0.000000 -0.000000 0.000000 
0.000000 0.000000 0.000000 

0.000000 -0.000000 0.000000 
0.000000 -0.000000 0.000000 
0.000000 0.000000 0.000000 

0.000000 -0.000000 0.000000 
0.000000 -0.000000 0.000000 
0.000000 0.000000 0.000000 

0.000000 -0.000000 0.000000 
0.000000 0.000000 0.000000 
0.000000 0.000000 0.000000 

-0.000000 0.000000 0.000000 
0.000000 0.000000 0.000000 
0.000000 0.000000 0.000000 

0.000000 -0.000000 0.000000 
0.000000 -0.000000 0.000000 
0.000000 0.000000 0.000000 

0.000000 0.000000 0.000000 
0.000000 -0.000000 0.000000 
0.000000 0.000000 0.000000 

0.000000 -0.000000 0.000000 
0.000000 0.000000 0.000000 
0.000000 0.000000 0.000000 

0.000000 0.000000 0.000000 
0.000000 0.000000 0.000000 
0.000000 0.000000 0.000000 

-0.000000 0.000000 0.000000 
0.000000 0.000000 0.000000 
0.000000 0.000000 0.000000 

-0.000000 0.000000 0.000000 
0.000000 0.000000 0.000000 
0.000000 0.000000 0.000000 

-0.000000 -0.000000 0.000000 
0.000000 -0.000000 0.000000 
0.000000 0.000000 0.000000 

-0.000000 -0.000000 0.000000 
0.000000 -0.000000 0.000000 
0.000000 0.000000 0.000000 

-0.000000 -0.000000 0.000000 
0.000000 0.000000 0.000000 
0.000000 0.000000 0.000000 

0.000000 0.000000 0.000000 
0.000000 -0.000000 0.000000 
0.000000 0.000000 0.000000 

0.000000 0.000000 0.000000 
0.000000 -0.000000 0.000000 
0.000000 0.000000 0.000000 

-0.000000 0.000000 0.000000 
0.000000 0.000000 0.000000 
0.000000 0.000000 0.000000 

-0.000000 0.000000 0.000000 
0.000000 0.000000 0.000000 
0.000000 0.000000 0.000000 

0.000000 0.000000 0.000000 
0.000000 -0.000000 0.000000 
0.000000 0.000000 0.000000 

-0.000000 -0.000000 0.000000 
0.000000 0.000000 0.000000 
0.000000 0.000000 0.000000 

-0.000000 -0.000000 0.000000 
0.000000 -0.000000 0.000000 
0.000000 0.000000 0.000000 

-0.000000 -0.000000 0.000000 
0.000000 0.000000 0.000000 
0.000000 0.000000 0.000000 

0.000000 -0.000000 0.000000 
0.000000 0.000000 0.000000 
0.000000 0.000000 0.000000 

0.000000 -0.000000 0.000000 
0.000000 -0.000000 0.000000 
0.000000 0.000000 0.000000 

0.000000 -0.000000 0.000000 
0.000000 0.000000 0.000000 
0.000000 0.000000 0.000000 

-0.000000 -0.000000 0.000000 
0.000000 -0.000000 0.000000 
0.000000 0.000000 0.000000 

0.000000 0.000000 0.000000 
0.000000 0.000000 0.000000 
0.000000 0.000000 0.000000 

0.000000 0.000000 0.000000 
0.000000 0.000000 0.000000 
0.000000 0.000000 0.000000 

0.000000 0.000000 0.000000 
0.000000 -0.000000 0.000000 
0.000000 0.000000 0.000000 

0.000000 0.000000 0.000000 
0.000000 -0.000000 0.000000 
0.000000 0.000000 0.000000 

0.000000 0.000000 0.000000 
0.000000 -0.000000 0.000000 
0.000000 0.000000 0.000000 

0.000000 -0.000000 0.000000 
0.000000 0.000000 0.000000 
0.000000 0.000000 0.000000 

0.000000 -0.000000 0.000000 
0.000000 0.000000 0.000000 
0.000000 0.000000 0.000000 

-0.000000 -0.000000 0.000000 
0.000000 0.000000 0.000000 
0.000000 0.000000 0.000000 

-0.000000 0.000000 0.000000 
0.000000 0.000000 0.000000 
0.000000 0.000000 0.000000 

-0.000000 0.000000 0.000000 
0.000000 0.000000 0.000000 
0.000000 0.000000 0.000000 

-0.000000 -0.000000 0.000000 
0.000000 0.000000 0.000000 
0.000000 0.000000 0.000000 

0.000000 -0.000000 0.000000 
0.000000 0.000000 0.000000 
0.000000 0.000000 0.000000 

0.000000 -0.000000 0.000000 
0.000000 -0.000000 0.000000 
0.000000 0.000000 0.000000 

0.000000 0.000000 0.000000 
0.000000 -0.000000 0.000000 
0.000000 0.000000 0.000000 

-0.000000 0.000000 0.000000 
0.000000 0.000000 0.000000 
0.000000 0.000000 0.000000 

-0.000000 0.000000 0.000000 
0.000000 0.000000 0.000000 
0.000000 0.000000 0.000000 

-0.000000 0.000000 0.000000 
0.000000 0.000000 0.000000 
0.000000 0.000000 0.000000 

0.000000 -0.000000 0.000000 
0.000000 0.000000 0.000000 
0.000000 0.000000 0.000000 

0.000000 -0.000000 0.000000 
0.000000 0.000000 0.000000 
0.000000 0.000000 0.000000 

0.000000 -0.000000 0.000000 
0.000000 0.000000 0.000000 
0.000000 0.000000 0.000000 

-0.000000 -0.000000 0.000000 
0.000000 -0.000000 0.000000 
0.000000 0.000000 0.000000 

0.000000 -0.000000 0.000000 
0.000000 0.000000 0.000000 
0.000000 0.000000 0.000000 

0.000000 0.000000 0.000000 
0.000000 0.000000 0.000000 
0.000000 0.000000 0.000000 

0.000000 0.000000 0.000000 
0.000000 0.000000 0.000000 
0.000000 0.000000 0.000000 

-0.000000 0.000000 0.000000 
0.000000 0.000000 0.000000 
0.000000 0.000000 0.000000 

0.000000 0.000000 0.000000 
0.000000 0.000000 0.000000 
0.000000 0.000000 0.000000 

0.000000 0.000000 0.000000 
0.000000 -0.000000 0.000000 
0.000000 0.000000 0.0000