# vtk DataFile Version 3.0 
vtk output 
ASCII 
DATASET UNSTRUCTURED_GRID 
POINTS 175 float 
-0.026061 -0.278738 0.000000 
-0.106992 -0.210683 0.000000 
-0.054870 -0.218915 0.000000 
-0.028809 -0.173032 0.000000 
-0.186430 -0.146607 0.000000 
-0.137056 -0.149133 0.000000 
-0.114311 -0.095486 0.000000 
-0.058186 -0.111152 0.000000 
-0.029377 -0.070974 0.000000 
-0.265318 -0.083451 0.000000 
-0.217198 -0.084251 0.000000 
-0.196633 -0.026954 0.000000 
-0.143120 -0.035663 0.000000 
-0.116563 0.011605 0.000000 
-0.058945 -0.008040 0.000000 
-0.029568 0.030080 0.000000 
-0.344206 -0.020296 0.000000 
-0.296791 -0.020288 0.000000 
-0.278030 0.039654 0.000000 
-0.225992 0.033788 0.000000 
-0.201664 0.085905 0.000000 
-0.145749 0.072431 0.000000 
-0.117890 0.116774 0.000000 
-0.059328 0.094068 0.000000 
-0.029759 0.131134 0.000000 
-0.058559 -0.319489 0.000000 
-0.162226 -0.340332 0.000000 
-0.123292 -0.304714 0.000000 
-0.142917 -0.255730 0.000000 
-0.261851 -0.362488 0.000000 
-0.229092 -0.325461 0.000000 
-0.256854 -0.274229 0.000000 
-0.209613 -0.240117 0.000000 
-0.223062 -0.192543 0.000000 
-0.360414 -0.384788 0.000000 
-0.329787 -0.347665 0.000000 
-0.361761 -0.295863 0.000000 
-0.321587 -0.259454 0.000000 
-0.341985 -0.209220 0.000000 
-0.290702 -0.176421 0.000000 
-0.302189 -0.129686 0.000000 
-0.458977 -0.407088 0.000000 
-0.429420 -0.370013 0.000000 
-0.464588 -0.317972 0.000000 
-0.427556 -0.280944 0.000000 
-0.453135 -0.229429 0.000000 
-0.407738 -0.194114 0.000000 
-0.425037 -0.144686 0.000000 
-0.370772 -0.113057 0.000000 
-0.381315 -0.066829 0.000000 
-0.046960 -0.370304 0.000000 
-0.095301 -0.464350 0.000000 
-0.098873 -0.411703 0.000000 
-0.149405 -0.396505 0.000000 
-0.140093 -0.556054 0.000000 
-0.148617 -0.507356 0.000000 
-0.205981 -0.497119 0.000000 
-0.203197 -0.438915 0.000000 
-0.248777 -0.419769 0.000000 
-0.184111 -0.647018 0.000000 
-0.194039 -0.599927 0.000000 
-0.254475 -0.592627 0.000000 
-0.257893 -0.538517 0.000000 
-0.309886 -0.523145 0.000000 
-0.303554 -0.462600 0.000000 
-0.347255 -0.442442 0.000000 
-0.228129 -0.737981 0.000000 
-0.238687 -0.691757 0.000000 
-0.301302 -0.686805 0.000000 
-0.307162 -0.634766 0.000000 
-0.363386 -0.622645 0.000000 
-0.362692 -0.565134 0.000000 
-0.412122 -0.547841 0.000000 
-0.403017 -0.485694 0.000000 
-0.445733 -0.465115 0.000000 
-0.000000 -0.392919 0.000000 
0.043388 -0.489350 0.000000 
-0.000000 -0.459317 0.000000 
-0.043388 -0.489350 0.000000 
0.087158 -0.581546 0.000000 
0.043769 -0.557848 0.000000 
-0.000000 -0.596314 0.000000 
-0.043769 -0.557848 0.000000 
-0.087158 -0.581546 0.000000 
0.130831 -0.672676 0.000000 
0.087824 -0.651077 0.000000 
0.044436 -0.693777 0.000000 
-0.000000 -0.662712 0.000000 
-0.044436 -0.693777 0.000000 
-0.087824 -0.651077 0.000000 
-0.130831 -0.672676 0.000000 
0.174505 -0.763806 0.000000 
0.131782 -0.743240 0.000000 
0.088871 -0.789106 0.000000 
0.044532 -0.761242 0.000000 
-0.000000 -0.797642 0.000000 
-0.044532 -0.761242 0.000000 
-0.088871 -0.789106 0.000000 
-0.131782 -0.743240 0.000000 
-0.174505 -0.763806 0.000000 
0.046960 -0.370304 0.000000 
0.149405 -0.396505 0.000000 
0.098873 -0.411703 0.000000 
0.095301 -0.464350 0.000000 
0.248777 -0.419769 0.000000 
0.203197 -0.438915 0.000000 
0.205981 -0.497119 0.000000 
0.148617 -0.507356 0.000000 
0.140093 -0.556054 0.000000 
0.347255 -0.442442 0.000000 
0.303554 -0.462600 0.000000 
0.309886 -0.523145 0.000000 
0.257893 -0.538517 0.000000 
0.254475 -0.592627 0.000000 
0.194039 -0.599927 0.000000 
0.184111 -0.647018 0.000000 
0.445733 -0.465115 0.000000 
0.403017 -0.485694 0.000000 
0.412122 -0.547841 0.000000 
0.362692 -0.565134 0.000000 
0.363386 -0.622645 0.000000 
0.307162 -0.634766 0.000000 
0.301302 -0.686805 0.000000 
0.238687 -0.691757 0.000000 
0.228129 -0.737981 0.000000 
0.058559 -0.319489 0.000000 
0.142917 -0.255730 0.000000 
0.123292 -0.304714 0.000000 
0.162226 -0.340332 0.000000 
0.223062 -0.192543 0.000000 
0.209613 -0.240117 0.000000 
0.256854 -0.274229 0.000000 
0.229092 -0.325461 0.000000 
0.261851 -0.362488 0.000000 
0.302189 -0.129686 0.000000 
0.290702 -0.176421 0.000000 
0.341985 -0.209220 0.000000 
0.321587 -0.259454 0.000000 
0.361761 -0.295863 0.000000 
0.329787 -0.347665 0.000000 
0.360414 -0.384788 0.000000 
0.381315 -0.066829 0.000000 
0.370772 -0.113057 0.000000 
0.425037 -0.144686 0.000000 
0.407738 -0.194114 0.000000 
0.453135 -0.229429 0.000000 
0.427556 -0.280944 0.000000 
0.464588 -0.317972 0.000000 
0.429420 -0.370013 0.000000 
0.458977 -0.407088 0.000000 
0.026061 -0.278738 0.000000 
0.028809 -0.173032 0.000000 
0.054870 -0.218915 0.000000 
0.106992 -0.210683 0.000000 
0.029377 -0.070974 0.000000 
0.058186 -0.111152 0.000000 
0.114311 -0.095486 0.000000 
0.137056 -0.149133 0.000000 
0.186430 -0.146607 0.000000 
0.029568 0.030080 0.000000 
0.058945 -0.008040 0.000000 
0.116563 0.011605 0.000000 
0.143120 -0.035663 0.000000 
0.196633 -0.026954 0.000000 
0.217198 -0.084251 0.000000 
0.265318 -0.083451 0.000000 
0.029759 0.131134 0.000000 
0.059328 0.094068 0.000000 
0.117890 0.116774 0.000000 
0.145749 0.072431 0.000000 
0.201664 0.085905 0.000000 
0.225992 0.033788 0.000000 
0.278030 0.039654 0.000000 
0.296791 -0.020288 0.000000 
0.344206 -0.020296 0.000000 
CELLS 175 350 
1 0 
1 1 
1 2 
1 3 
1 4 
1 5 
1 6 
1 7 
1 8 
1 9 
1 10 
1 11 
1 12 
1 13 
1 14 
1 15 
1 16 
1 17 
1 18 
1 19 
1 20 
1 21 
1 22 
1 23 
1 24 
1 25 
1 26 
1 27 
1 28 
1 29 
1 30 
1 31 
1 32 
1 33 
1 34 
1 35 
1 36 
1 37 
1 38 
1 39 
1 40 
1 41 
1 42 
1 43 
1 44 
1 45 
1 46 
1 47 
1 48 
1 49 
1 50 
1 51 
1 52 
1 53 
1 54 
1 55 
1 56 
1 57 
1 58 
1 59 
1 60 
1 61 
1 62 
1 63 
1 64 
1 65 
1 66 
1 67 
1 68 
1 69 
1 70 
1 71 
1 72 
1 73 
1 74 
1 75 
1 76 
1 77 
1 78 
1 79 
1 80 
1 81 
1 82 
1 83 
1 84 
1 85 
1 86 
1 87 
1 88 
1 89 
1 90 
1 91 
1 92 
1 93 
1 94 
1 95 
1 96 
1 97 
1 98 
1 99 
1 100 
1 101 
1 102 
1 103 
1 104 
1 105 
1 106 
1 107 
1 108 
1 109 
1 110 
1 111 
1 112 
1 113 
1 114 
1 115 
1 116 
1 117 
1 118 
1 119 
1 120 
1 121 
1 122 
1 123 
1 124 
1 125 
1 126 
1 127 
1 128 
1 129 
1 130 
1 131 
1 132 
1 133 
1 134 
1 135 
1 136 
1 137 
1 138 
1 139 
1 140 
1 141 
1 142 
1 143 
1 144 
1 145 
1 146 
1 147 
1 148 
1 149 
1 150 
1 151 
1 152 
1 153 
1 154 
1 155 
1 156 
1 157 
1 158 
1 159 
1 160 
1 161 
1 162 
1 163 
1 164 
1 165 
1 166 
1 167 
1 168 
1 169 
1 170 
1 171 
1 172 
1 173 
1 174 
CELL_TYPES 175 
1 
1 
1 
1 
1 
1 
1 
1 
1 
1 
1 
1 
1 
1 
1 
1 
1 
1 
1 
1 
1 
1 
1 
1 
1 
1 
1 
1 
1 
1 
1 
1 
1 
1 
1 
1 
1 
1 
1 
1 
1 
1 
1 
1 
1 
1 
1 
1 
1 
1 
1 
1 
1 
1 
1 
1 
1 
1 
1 
1 
1 
1 
1 
1 
1 
1 
1 
1 
1 
1 
1 
1 
1 
1 
1 
1 
1 
1 
1 
1 
1 
1 
1 
1 
1 
1 
1 
1 
1 
1 
1 
1 
1 
1 
1 
1 
1 
1 
1 
1 
1 
1 
1 
1 
1 
1 
1 
1 
1 
1 
1 
1 
1 
1 
1 
1 
1 
1 
1 
1 
1 
1 
1 
1 
1 
1 
1 
1 
1 
1 
1 
1 
1 
1 
1 
1 
1 
1 
1 
1 
1 
1 
1 
1 
1 
1 
1 
1 
1 
1 
1 
1 
1 
1 
1 
1 
1 
1 
1 
1 
1 
1 
1 
1 
1 
1 
1 
1 
1 
1 
1 
1 
1 
1 
1 
POINT_DATA 175 
VECTORS X_GC float 
-0.026061 -0.278738 0.000000 
-0.106992 -0.210683 0.000000 
-0.054870 -0.218915 0.000000 
-0.028809 -0.173032 0.000000 
-0.186430 -0.146607 0.000000 
-0.137056 -0.149133 0.000000 
-0.114311 -0.095486 0.000000 
-0.058186 -0.111152 0.000000 
-0.029377 -0.070974 0.000000 
-0.265318 -0.083451 0.000000 
-0.217198 -0.084251 0.000000 
-0.196633 -0.026954 0.000000 
-0.143120 -0.035663 0.000000 
-0.116563 0.011605 0.000000 
-0.058945 -0.008040 0.000000 
-0.029568 0.030080 0.000000 
-0.344206 -0.020296 0.000000 
-0.296791 -0.020288 0.000000 
-0.278030 0.039654 0.000000 
-0.225992 0.033788 0.000000 
-0.201664 0.085905 0.000000 
-0.145749 0.072431 0.000000 
-0.117890 0.116774 0.000000 
-0.059328 0.094068 0.000000 
-0.029759 0.131134 0.000000 
-0.058559 -0.319489 0.000000 
-0.162226 -0.340332 0.000000 
-0.123292 -0.304714 0.000000 
-0.142917 -0.255730 0.000000 
-0.261851 -0.362488 0.000000 
-0.229092 -0.325461 0.000000 
-0.256854 -0.274229 0.000000 
-0.209613 -0.240117 0.000000 
-0.223062 -0.192543 0.000000 
-0.360414 -0.384788 0.000000 
-0.329787 -0.347665 0.000000 
-0.361761 -0.295863 0.000000 
-0.321587 -0.259454 0.000000 
-0.341985 -0.209220 0.000000 
-0.290702 -0.176421 0.000000 
-0.302189 -0.129686 0.000000 
-0.458977 -0.407088 0.000000 
-0.429420 -0.370013 0.000000 
-0.464588 -0.317972 0.000000 
-0.427556 -0.280944 0.000000 
-0.453135 -0.229429 0.000000 
-0.407738 -0.194114 0.000000 
-0.425037 -0.144686 0.000000 
-0.370772 -0.113057 0.000000 
-0.381315 -0.066829 0.000000 
-0.046960 -0.370304 0.000000 
-0.095301 -0.464350 0.000000 
-0.098873 -0.411703 0.000000 
-0.149405 -0.396505 0.000000 
-0.140093 -0.556054 0.000000 
-0.148617 -0.507356 0.000000 
-0.205981 -0.497119 0.000000 
-0.203197 -0.438915 0.000000 
-0.248777 -0.419769 0.000000 
-0.184111 -0.647018 0.000000 
-0.194039 -0.599927 0.000000 
-0.254475 -0.592627 0.000000 
-0.257893 -0.538517 0.000000 
-0.309886 -0.523145 0.000000 
-0.303554 -0.462600 0.000000 
-0.347255 -0.442442 0.000000 
-0.228129 -0.737981 0.000000 
-0.238687 -0.691757 0.000000 
-0.301302 -0.686805 0.000000 
-0.307162 -0.634766 0.000000 
-0.363386 -0.622645 0.000000 
-0.362692 -0.565134 0.000000 
-0.412122 -0.547841 0.000000 
-0.403017 -0.485694 0.000000 
-0.445733 -0.465115 0.000000 
-0.000000 -0.392919 0.000000 
0.043388 -0.489350 0.000000 
-0.000000 -0.459317 0.000000 
-0.043388 -0.489350 0.000000 
0.087158 -0.581546 0.000000 
0.043769 -0.557848 0.000000 
-0.000000 -0.596314 0.000000 
-0.043769 -0.557848 0.000000 
-0.087158 -0.581546 0.000000 
0.130831 -0.672676 0.000000 
0.087824 -0.651077 0.000000 
0.044436 -0.693777 0.000000 
-0.000000 -0.662712 0.000000 
-0.044436 -0.693777 0.000000 
-0.087824 -0.651077 0.000000 
-0.130831 -0.672676 0.000000 
0.174505 -0.763806 0.000000 
0.131782 -0.743240 0.000000 
0.088871 -0.789106 0.000000 
0.044532 -0.761242 0.000000 
-0.000000 -0.797642 0.000000 
-0.044532 -0.761242 0.000000 
-0.088871 -0.789106 0.000000 
-0.131782 -0.743240 0.000000 
-0.174505 -0.763806 0.000000 
0.046960 -0.370304 0.000000 
0.149405 -0.396505 0.000000 
0.098873 -0.411703 0.000000 
0.095301 -0.464350 0.000000 
0.248777 -0.419769 0.000000 
0.203197 -0.438915 0.000000 
0.205981 -0.497119 0.000000 
0.148617 -0.507356 0.000000 
0.140093 -0.556054 0.000000 
0.347255 -0.442442 0.000000 
0.303554 -0.462600 0.000000 
0.309886 -0.523145 0.000000 
0.257893 -0.538517 0.000000 
0.254475 -0.592627 0.000000 
0.194039 -0.599927 0.000000 
0.184111 -0.647018 0.000000 
0.445733 -0.465115 0.000000 
0.403017 -0.485694 0.000000 
0.412122 -0.547841 0.000000 
0.362692 -0.565134 0.000000 
0.363386 -0.622645 0.000000 
0.307162 -0.634766 0.000000 
0.301302 -0.686805 0.000000 
0.238687 -0.691757 0.000000 
0.228129 -0.737981 0.000000 
0.058559 -0.319489 0.000000 
0.142917 -0.255730 0.000000 
0.123292 -0.304714 0.000000 
0.162226 -0.340332 0.000000 
0.223062 -0.192543 0.000000 
0.209613 -0.240117 0.000000 
0.256854 -0.274229 0.000000 
0.229092 -0.325461 0.000000 
0.261851 -0.362488 0.000000 
0.302189 -0.129686 0.000000 
0.290702 -0.176421 0.000000 
0.341985 -0.209220 0.000000 
0.321587 -0.259454 0.000000 
0.361761 -0.295863 0.000000 
0.329787 -0.347665 0.000000 
0.360414 -0.384788 0.000000 
0.381315 -0.066829 0.000000 
0.370772 -0.113057 0.000000 
0.425037 -0.144686 0.000000 
0.407738 -0.194114 0.000000 
0.453135 -0.229429 0.000000 
0.427556 -0.280944 0.000000 
0.464588 -0.317972 0.000000 
0.429420 -0.370013 0.000000 
0.458977 -0.407088 0.000000 
0.026061 -0.278738 0.000000 
0.028809 -0.173032 0.000000 
0.054870 -0.218915 0.000000 
0.106992 -0.210683 0.000000 
0.029377 -0.070974 0.000000 
0.058186 -0.111152 0.000000 
0.114311 -0.095486 0.000000 
0.137056 -0.149133 0.000000 
0.186430 -0.146607 0.000000 
0.029568 0.030080 0.000000 
0.058945 -0.008040 0.000000 
0.116563 0.011605 0.000000 
0.143120 -0.035663 0.000000 
0.196633 -0.026954 0.000000 
0.217198 -0.084251 0.000000 
0.265318 -0.083451 0.000000 
0.029759 0.131134 0.000000 
0.059328 0.094068 0.000000 
0.117890 0.116774 0.000000 
0.145749 0.072431 0.000000 
0.201664 0.085905 0.000000 
0.225992 0.033788 0.000000 
0.278030 0.039654 0.000000 
0.296791 -0.020288 0.000000 
0.344206 -0.020296 0.000000 
VECTORS X_EC float 
0.338794 0.262965 0.000000 
-0.609100 -0.655783 0.000000 
0.713312 -0.544643 0.000000 
0.374519 0.835928 0.000000 
0.423588 0.479197 0.000000 
-0.218274 0.513301 0.000000 
-0.513962 -0.210938 0.000000 
0.756418 0.000548 0.000000 
0.381900 -0.541844 0.000000 
-0.550868 -0.373406 0.000000 
0.823577 -0.362610 0.000000 
0.556234 0.863886 0.000000 
-0.139443 0.981454 0.000000 
-0.484677 0.343330 0.000000 
0.766286 0.608545 0.000000 
0.384386 0.093925 0.000000 
0.474677 0.773991 0.000000 
-0.141715 0.773895 0.000000 
-0.385608 -0.035334 0.000000 
0.937896 0.043862 0.000000 
0.621631 -0.659718 0.000000 
-0.105264 -0.477819 0.000000 
-0.467428 0.923555 0.000000 
0.771260 -0.769917 0.000000 
0.386873 0.729694 0.000000 
0.761262 0.813099 0.000000 
0.108942 -0.905524 0.000000 
-0.397202 0.613637 0.000000 
-0.142083 -0.047638 0.000000 
-0.595936 -0.606413 0.000000 
0.978194 0.893721 0.000000 
-0.660903 0.202096 0.000000 
0.724964 -0.258424 0.000000 
0.899809 -0.900673 0.000000 
0.685384 -0.305361 0.000000 
0.287229 -0.806520 0.000000 
0.702895 0.494152 0.000000 
0.180633 0.002633 0.000000 
0.445811 -0.675526 0.000000 
-0.220880 0.881688 0.000000 
-0.071546 0.250762 0.000000 
-0.033296 -0.004309 0.000000 
-0.417537 -0.504818 0.000000 
0.039645 0.792619 0.000000 
-0.441768 0.292748 0.000000 
-0.109248 -0.402703 0.000000 
-0.699407 -0.879458 0.000000 
-0.474522 0.453262 0.000000 
0.820030 0.026269 0.000000 
0.957100 -0.597803 0.000000 
0.610485 -0.500894 0.000000 
-0.761092 0.768725 0.000000 
-0.714655 0.057988 0.000000 
-0.057734 -0.147179 0.000000 
-0.178789 0.006729 0.000000 
-0.067979 -0.650697 0.000000 
0.677748 -0.788900 0.000000 
0.641556 0.425355 0.000000 
-0.765897 0.166876 0.000000 
0.393446 -0.765261 0.000000 
0.522510 0.599009 0.000000 
-0.691820 0.500464 0.000000 
-0.647393 -0.230018 0.000000 
0.028512 -0.437545 0.000000 
-0.053800 0.745095 0.000000 
0.514316 0.472964 0.000000 
0.965681 0.462748 0.000000 
-0.897068 -0.161281 0.000000 
-0.083078 -0.228134 0.000000 
-0.006893 -0.930659 0.000000 
0.724017 0.905708 0.000000 
0.714996 0.129305 0.000000 
-0.642413 -0.104153 0.000000 
-0.760780 -0.943133 0.000000 
-0.205471 0.779052 0.000000 
0.000000 -0.195593 0.000000 
-0.564049 -0.893780 0.000000 
0.000000 0.700784 0.000000 
0.564049 -0.893780 0.000000 
0.866949 0.350876 0.000000 
-0.569003 0.030944 0.000000 
0.000000 0.550233 0.000000 
0.569003 0.030944 0.000000 
-0.866949 0.350876 0.000000 
0.299194 -0.418874 0.000000 
0.858290 -0.710458 0.000000 
-0.577662 -0.134012 0.000000 
0.000000 -0.553391 0.000000 
0.577662 -0.134012 0.000000 
-0.858290 -0.710458 0.000000 
-0.299194 -0.418874 0.000000 
-0.268560 0.811376 0.000000 
0.286830 0.533734 0.000000 
0.844677 -0.847068 0.000000 
-0.578910 0.776770 0.000000 
0.000000 -0.731827 0.000000 
0.578910 0.776770 0.000000 
-0.844677 -0.847068 0.000000 
-0.286830 0.533734 0.000000 
0.268560 0.811376 0.000000 
-0.610485 -0.500894 0.000000 
0.057734 -0.147179 0.000000 
0.714655 0.057988 0.000000 
0.761092 0.768725 0.000000 
0.765897 0.166876 0.000000 
-0.641556 0.425355 0.000000 
-0.677748 -0.788900 0.000000 
0.067979 -0.650697 0.000000 
0.178789 0.006729 0.000000 
-0.514316 0.472964 0.000000 
0.053800 0.745095 0.000000 
-0.028512 -0.437545 0.000000 
0.647393 -0.230018 0.000000 
0.691820 0.500464 0.000000 
-0.522510 0.599009 0.000000 
-0.393446 -0.765261 0.000000 
0.205471 0.779052 0.000000 
0.760780 -0.943133 0.000000 
0.642413 -0.104153 0.000000 
-0.714996 0.129305 0.000000 
-0.724017 0.905708 0.000000 
0.006894 -0.930659 0.000000 
0.083078 -0.228134 0.000000 
0.897068 -0.161281 0.000000 
-0.965681 0.462748 0.000000 
-0.761262 0.813099 0.000000 
0.142083 -0.047638 0.000000 
0.397202 0.613637 0.000000 
-0.108942 -0.905524 0.000000 
-0.899809 -0.900673 0.000000 
-0.724964 -0.258424 0.000000 
0.660903 0.202096 0.000000 
-0.978194 0.893721 0.000000 
0.595936 -0.606413 0.000000 
0.071546 0.250762 0.000000 
0.220880 0.881688 0.000000 
-0.445811 -0.675526 0.000000 
-0.180633 0.002633 0.000000 
-0.702895 0.494152 0.000000 
-0.287229 -0.806520 0.000000 
-0.685384 -0.305361 0.000000 
-0.957100 -0.597803 0.000000 
-0.820030 0.026269 0.000000 
0.474522 0.453262 0.000000 
0.699407 -0.879458 0.000000 
0.109248 -0.402703 0.000000 
0.441768 0.292748 0.000000 
-0.039645 0.792619 0.000000 
0.417537 -0.504818 0.000000 
0.033296 -0.004309 0.000000 
-0.338794 0.262965 0.000000 
-0.374519 0.835928 0.000000 
-0.713312 -0.544643 0.000000 
0.609100 -0.655783 0.000000 
-0.381900 -0.541844 0.000000 
-0.756418 0.000548 0.000000 
0.513962 -0.210938 0.000000 
0.218274 0.513301 0.000000 
-0.423588 0.479197 0.000000 
-0.384386 0.093925 0.000000 
-0.766286 0.608545 0.000000 
0.484677 0.343330 0.000000 
0.139443 0.981454 0.000000 
-0.556234 0.863886 0.000000 
-0.823577 -0.362610 0.000000 
0.550868 -0.373406 0.000000 
-0.386873 0.729694 0.000000 
-0.771260 -0.769917 0.000000 
0.467428 0.923555 0.000000 
0.105264 -0.477819 0.000000 
-0.621631 -0.659718 0.000000 
-0.937896 0.043862 0.000000 
0.385608 -0.035334 0.000000 
0.141715 0.773895 0.000000 
-0.474677 0.773991 0.000000 
CELL_DATA 175 
SCALARS MASS float 
LOOKUP_TABLE default 
0.781831 
0.864274 
0.946717 
0.864274 
0.881307 
0.921110 
0.858535 
0.921110 
0.881307 
0.887046 
0.910001 
0.869829 
0.915556 
0.869829 
0.910001 
0.887046 
0.892784 
0.915740 
0.892784 
0.927218 
0.892784 
0.927218 
0.892784 
0.915740 
0.892784 
0.781831 
0.864274 
0.946717 
0.864274 
0.881307 
0.921110 
0.858535 
0.921110 
0.881307 
0.887046 
0.910001 
0.869829 
0.915556 
0.869829 
0.910001 
0.887046 
0.892784 
0.915740 
0.892784 
0.927218 
0.892784 
0.927218 
0.892784 
0.915740 
0.892784 
0.781831 
0.864274 
0.946717 
0.864274 
0.881307 
0.921110 
0.858535 
0.921110 
0.881307 
0.887046 
0.910001 
0.869829 
0.915556 
0.869829 
0.910001 
0.887046 
0.892784 
0.915740 
0.892784 
0.927218 
0.892784 
0.927218 
0.892784 
0.915740 
0.892784 
0.781831 
0.864274 
0.946717 
0.864274 
0.881307 
0.921110 
0.858535 
0.921110 
0.881307 
0.887046 
0.910001 
0.869829 
0.915556 
0.869829 
0.910001 
0.887046 
0.892784 
0.915740 
0.892784 
0.927218 
0.892784 
0.927218 
0.892784 
0.915740 
0.892784 
0.781831 
0.864274 
0.946717 
0.864274 
0.881307 
0.921110 
0.858535 
0.921110 
0.881307 
0.887046 
0.910001 
0.869829 
0.915556 
0.869829 
0.910001 
0.887046 
0.892784 
0.915740 
0.892784 
0.927218 
0.892784 
0.927218 
0.892784 
0.915740 
0.892784 
0.781831 
0.864274 
0.946717 
0.864274 
0.881307 
0.921110 
0.858535 
0.921110 
0.881307 
0.887046 
0.910001 
0.869829 
0.915556 
0.869829 
0.910001 
0.887046 
0.892784 
0.915740 
0.892784 
0.927218 
0.892784 
0.927218 
0.892784 
0.915740 
0.892784 
0.781831 
0.864274 
0.946717 
0.864274 
0.881307 
0.921110 
0.858535 
0.921110 
0.881307 
0.887046 
0.910001 
0.869829 
0.915556 
0.869829 
0.910001 
0.887046 
0.892784 
0.915740 
0.892784 
0.927218 
0.892784 
0.927218 
0.892784 
0.915740 
0.892784 
SCALARS MASS float 
LOOKUP_TABLE default 
0.781831 
0.864274 
0.946717 
0.864274 
0.881307 
0.921110 
0.858535 
0.921110 
0.881307 
0.887046 
0.910001 
0.869829 
0.915556 
0.869829 
0.910001 
0.887046 
0.892784 
0.915740 
0.892784 
0.927218 
0.892784 
0.927218 
0.892784 
0.915740 
0.892784 
0.781831 
0.864274 
0.946717 
0.864274 
0.881307 
0.921110 
0.858535 
0.921110 
0.881307 
0.887046 
0.910001 
0.869829 
0.915556 
0.869829 
0.910001 
0.887046 
0.892784 
0.915740 
0.892784 
0.927218 
0.892784 
0.927218 
0.892784 
0.915740 
0.892784 
0.781831 
0.864274 
0.946717 
0.864274 
0.881307 
0.921110 
0.858535 
0.921110 
0.881307 
0.887046 
0.910001 
0.869829 
0.915556 
0.869829 
0.910001 
0.887046 
0.892784 
0.915740 
0.892784 
0.927218 
0.892784 
0.927218 
0.892784 
0.915740 
0.892784 
0.781831 
0.864274 
0.946717 
0.864274 
0.881307 
0.921110 
0.858535 
0.921110 
0.881307 
0.887046 
0.910001 
0.869829 
0.915556 
0.869829 
0.910001 
0.887046 
0.892784 
0.915740 
0.892784 
0.927218 
0.892784 
0.927218 
0.892784 
0.915740 
0.892784 
0.781831 
0.864274 
0.946717 
0.864274 
0.881307 
0.921110 
0.858535 
0.921110 
0.881307 
0.887046 
0.910001 
0.869829 
0.915556 
0.869829 
0.910001 
0.887046 
0.892784 
0.915740 
0.892784 
0.927218 
0.892784 
0.927218 
0.892784 
0.915740 
0.892784 
0.781831 
0.864274 
0.946717 
0.864274 
0.881307 
0.921110 
0.858535 
0.921110 
0.881307 
0.887046 
0.910001 
0.869829 
0.915556 
0.869829 
0.910001 
0.887046 
0.892784 
0.915740 
0.892784 
0.927218 
0.892784 
0.927218 
0.892784 
0.915740 
0.892784 
0.781831 
0.864274 
0.946717 
0.864274 
0.881307 
0.921110 
0.858535 
0.921110 
0.881307 
0.887046 
0.910001 
0.869829 
0.915556 
0.869829 
0.910001 
0.887046 
0.892784 
0.915740 
0.892784 
0.927218 
0.892784 
0.927218 
0.892784 
0.915740 
0.892784 
SCALARS DENSITY float 
LOOKUP_TABLE default 
200.000000 
200.000000 
200.000000 
200.000000 
200.000000 
200.000000 
200.000000 
200.000000 
200.000000 
200.000000 
200.000000 
200.000000 
200.000000 
200.000000 
200.000000 
200.000000 
200.000000 
200.000000 
200.000000 
200.000000 
200.000000 
200.000000 
200.000000 
200.000000 
200.000000 
200.000000 
200.000000 
200.000000 
200.000000 
200.000000 
200.000000 
200.000000 
200.000000 
200.000000 
200.000000 
200.000000 
200.000000 
200.000000 
200.000000 
200.000000 
200.000000 
200.000000 
200.000000 
200.000000 
200.000000 
200.000000 
200.000000 
200.000000 
200.000000 
200.000000 
200.000000 
200.000000 
200.000000 
200.000000 
200.000000 
200.000000 
200.000000 
200.000000 
200.000000 
200.000000 
200.000000 
200.000000 
200.000000 
200.000000 
200.000000 
200.000000 
200.000000 
200.000000 
200.000000 
200.000000 
200.000000 
200.000000 
200.000000 
200.000000 
200.000000 
200.000000 
200.000000 
200.000000 
200.000000 
200.000000 
200.000000 
200.000000 
200.000000 
200.000000 
200.000000 
200.000000 
200.000000 
200.000000 
200.000000 
200.000000 
200.000000 
200.000000 
200.000000 
200.000000 
200.000000 
200.000000 
200.000000 
200.000000 
200.000000 
200.000000 
200.000000 
200.000000 
200.000000 
200.000000 
200.000000 
200.000000 
200.000000 
200.000000 
200.000000 
200.000000 
200.000000 
200.000000 
200.000000 
200.000000 
200.000000 
200.000000 
200.000000 
200.000000 
200.000000 
200.000000 
200.000000 
200.000000 
200.000000 
200.000000 
200.000000 
200.000000 
200.000000 
200.000000 
200.000000 
200.000000 
200.000000 
200.000000 
200.000000 
200.000000 
200.000000 
200.000000 
200.000000 
200.000000 
200.000000 
200.000000 
200.000000 
200.000000 
200.000000 
200.000000 
200.000000 
200.000000 
200.000000 
200.000000 
200.000000 
200.000000 
200.000000 
200.000000 
200.000000 
200.000000 
200.000000 
200.000000 
200.000000 
200.000000 
200.000000 
200.000000 
200.000000 
200.000000 
200.000000 
200.000000 
200.000000 
200.000000 
200.000000 
200.000000 
200.000000 
200.000000 
200.000000 
200.000000 
200.000000 
200.000000 
200.000000 
SCALARS ELEM_i float 
LOOKUP_TABLE default 
180 
207 
180 
181 
208 
208 
208 
181 
181 
235 
208 
209 
209 
209 
182 
182 
236 
236 
236 
209 
209 
209 
210 
182 
183 
180 
206 
207 
207 
233 
207 
234 
207 
207 
233 
233 
234 
234 
234 
235 
235 
260 
260 
261 
261 
261 
261 
262 
235 
235 
179 
206 
206 
206 
205 
205 
205 
206 
233 
204 
205 
232 
232 
232 
233 
233 
204 
231 
231 
231 
232 
232 
259 
259 
260 
179 
178 
179 
178 
151 
178 
178 
178 
205 
150 
150 
177 
177 
177 
204 
204 
150 
150 
149 
177 
176 
177 
203 
204 
204 
179 
152 
152 
152 
125 
152 
151 
151 
151 
125 
125 
124 
124 
124 
151 
150 
98 
97 
97 
124 
124 
123 
123 
123 
150 
180 
153 
153 
152 
153 
153 
126 
153 
125 
127 
127 
126 
126 
126 
125 
125 
127 
127 
100 
99 
99 
99 
99 
98 
98 
180 
181 
180 
153 
181 
181 
154 
154 
154 
182 
182 
155 
155 
155 
154 
127 
183 
182 
156 
155 
155 
155 
128 
128 
128 
VECTORS VELOCITY float 
-0.000000 -2.554524 0.000000 
0.000000 -2.554524 0.000000 
0.000000 -2.554524 0.000000 
0.000000 -2.554524 0.000000 
0.000000 -2.554524 0.000000 
0.000000 -2.554524 0.000000 
0.000000 -2.554524 0.000000 
0.000000 -2.554524 0.000000 
0.000000 -2.554524 0.000000 
-0.000000 -2.554524 0.000000 
0.000000 -2.554524 0.000000 
0.000000 -2.554524 0.000000 
0.000000 -2.554524 0.000000 
0.000000 -2.554524 0.000000 
0.000000 -2.554524 0.000000 
0.000000 -2.554524 0.000000 
-0.000000 -2.554524 0.000000 
-0.000000 -2.554524 0.000000 
0.000000 -2.554524 0.000000 
-0.000000 -2.554524 0.000000 
0.000000 -2.554524 0.000000 
0.000000 -2.554524 0.000000 
0.000000 -2.554524 0.000000 
-0.000000 -2.554524 0.000000 
0.000000 -2.554524 0.000000 
-0.000000 -2.554524 0.000000 
-0.000000 -2.554524 0.000000 
-0.000000 -2.554524 0.000000 
-0.000000 -2.554524 0.000000 
-0.000000 -2.554524 0.000000 
-0.000000 -2.554524 0.000000 
-0.000000 -2.554524 0.000000 
0.000000 -2.554524 0.000000 
-0.000000 -2.554524 0.000000 
0.000000 -2.554524 0.000000 
0.000000 -2.554524 0.000000 
0.000000 -2.554524 0.000000 
-0.000000 -2.554524 0.000000 
-0.000000 -2.554524 0.000000 
-0.000000 -2.554524 0.000000 
-0.000000 -2.554524 0.000000 
-0.000000 -2.554524 0.000000 
0.000000 -2.554524 0.000000 
-0.000000 -2.554524 0.000000 
-0.000000 -2.554524 0.000000 
-0.000000 -2.554524 0.000000 
-0.000000 -2.554524 0.000000 
0.000000 -2.554524 0.000000 
-0.000000 -2.554524 0.000000 
-0.000000 -2.554524 0.000000 
-0.000000 -2.554524 0.000000 
0.000000 -2.554524 0.000000 
-0.000000 -2.554524 0.000000 
-0.000000 -2.554524 0.000000 
0.000000 -2.554524 0.000000 
0.000000 -2.554524 0.000000 
-0.000000 -2.554524 0.000000 
-0.000000 -2.554524 0.000000 
-0.000000 -2.554524 0.000000 
0.000000 -2.554524 0.000000 
0.000000 -2.554524 0.000000 
-0.000000 -2.554524 0.000000 
-0.000000 -2.554524 0.000000 
-0.000000 -2.554524 0.000000 
-0.000000 -2.554524 0.000000 
-0.000000 -2.554524 0.000000 
-0.000000 -2.554524 0.000000 
-0.000000 -2.554524 0.000000 
-0.000000 -2.554524 0.000000 
0.000000 -2.554524 0.000000 
-0.000000 -2.554524 0.000000 
-0.000000 -2.554524 0.000000 
-0.000000 -2.554524 0.000000 
-0.000000 -2.554524 0.000000 
-0.000000 -2.554524 0.000000 
-0.000000 -2.554524 0.000000 
0.000000 -2.554524 0.000000 
0.000000 -2.554524 0.000000 
0.000000 -2.554524 0.000000 
0.000000 -2.554524 0.000000 
0.000000 -2.554524 0.000000 
0.000000 -2.554524 0.000000 
0.000000 -2.554524 0.000000 
0.000000 -2.554524 0.000000 
-0.000000 -2.554524 0.000000 
0.000000 -2.554524 0.000000 
0.000000 -2.554524 0.000000 
-0.000000 -2.554524 0.000000 
-0.000000 -2.554524 0.000000 
-0.000000 -2.554524 0.000000 
0.000000 -2.554524 0.000000 
0.000000 -2.554524 0.000000 
0.000000 -2.554524 0.000000 
-0.000000 -2.554524 0.000000 
0.000000 -2.554524 0.000000 
-0.000000 -2.554524 0.000000 
0.000000 -2.554524 0.000000 
-0.000000 -2.554524 0.000000 
-0.000000 -2.554524 0.000000 
-0.000000 -2.554524 0.000000 
-0.000000 -2.554524 0.000000 
-0.000000 -2.554524 0.000000 
0.000000 -2.554524 0.000000 
0.000000 -2.554524 0.000000 
-0.000000 -2.554524 0.000000 
-0.000000 -2.554524 0.000000 
0.000000 -2.554524 0.000000 
0.000000 -2.554524 0.000000 
0.000000 -2.554524 0.000000 
0.000000 -2.554524 0.000000 
0.000000 -2.554524 0.000000 
0.000000 -2.554524 0.000000 
0.000000 -2.554524 0.000000 
-0.000000 -2.554524 0.000000 
0.000000 -2.554524 0.000000 
0.000000 -2.554524 0.000000 
0.000000 -2.554524 0.000000 
0.000000 -2.554524 0.000000 
0.000000 -2.554524 0.000000 
-0.000000 -2.554524 0.000000 
-0.000000 -2.554524 0.000000 
0.000000 -2.554524 0.000000 
-0.000000 -2.554524 0.000000 
-0.000000 -2.554524 0.000000 
0.000000 -2.554524 0.000000 
0.000000 -2.554524 0.000000 
0.000000 -2.554524 0.000000 
0.000000 -2.554524 0.000000 
0.000000 -2.554524 0.000000 
0.000000 -2.554524 0.000000 
0.000000 -2.554524 0.000000 
0.000000 -2.554524 0.000000 
0.000000 -2.554524 0.000000 
-0.000000 -2.554524 0.000000 
0.000000 -2.554524 0.000000 
-0.000000 -2.554524 0.000000 
-0.000000 -2.554524 0.000000 
-0.000000 -2.554524 0.000000 
-0.000000 -2.554524 0.000000 
0.000000 -2.554524 0.000000 
0.000000 -2.554524 0.000000 
0.000000 -2.554524 0.000000 
0.000000 -2.554524 0.000000 
0.000000 -2.554524 0.000000 
-0.000000 -2.554524 0.000000 
0.000000 -2.554524 0.000000 
-0.000000 -2.554524 0.000000 
0.000000 -2.554524 0.000000 
0.000000 -2.554524 0.000000 
0.000000 -2.554524 0.000000 
0.000000 -2.554524 0.000000 
0.000000 -2.554524 0.000000 
0.000000 -2.554524 0.000000 
0.000000 -2.554524 0.000000 
-0.000000 -2.554524 0.000000 
0.000000 -2.554524 0.000000 
0.000000 -2.554524 0.000000 
0.000000 -2.554524 0.000000 
0.000000 -2.554524 0.000000 
0.000000 -2.554524 0.000000 
0.000000 -2.554524 0.000000 
0.000000 -2.554524 0.000000 
-0.000000 -2.554524 0.000000 
0.000000 -2.554524 0.000000 
0.000000 -2.554524 0.000000 
0.000000 -2.554524 0.000000 
0.000000 -2.554524 0.000000 
0.000000 -2.554524 0.000000 
0.000000 -2.554524 0.000000 
0.000000 -2.554524 0.000000 
0.000000 -2.554524 0.000000 
0.000000 -2.554524 0.000000 
-0.000000 -2.554524 0.000000 
0.000000 -2.554524 0.000000 
0.000000 -2.554524 0.000000 
TENSORS STRESS float 
0.000000 -0.000000 0.000000 
0.000000 -0.000000 0.000000 
0.000000 0.000000 0.000000 

-0.000000 0.000000 0.000000 
0.000000 -0.000000 0.000000 
0.000000 0.000000 0.000000 

-0.000000 0.000000 0.000000 
0.000000 -0.000000 0.000000 
0.000000 0.000000 0.000000 

-0.000000 -0.000000 0.000000 
0.000000 -0.000000 0.000000 
0.000000 0.000000 0.000000 

-0.000000 0.000000 0.000000 
0.000000 -0.000000 0.000000 
0.000000 0.000000 0.000000 

-0.000000 0.000000 0.000000 
0.000000 -0.000000 0.000000 
0.000000 0.000000 0.000000 

-0.000000 -0.000000 0.000000 
0.000000 -0.000000 0.000000 
0.000000 0.000000 0.000000 

-0.000000 0.000000 0.000000 
0.000000 -0.000000 0.000000 
0.000000 0.000000 0.000000 

0.000000 -0.000000 0.000000 
0.000000 0.000000 0.000000 
0.000000 0.000000 0.000000 

-0.000000 0.000000 0.000000 
0.000000 -0.000000 0.000000 
0.000000 0.000000 0.000000 

-0.000000 0.000000 0.000000 
0.000000 -0.000000 0.000000 
0.000000 0.000000 0.000000 

-0.000000 0.000000 0.000000 
0.000000 -0.000000 0.000000 
0.000000 0.000000 0.000000 

0.000000 0.000000 0.000000 
0.000000 0.000000 0.000000 
0.000000 0.000000 0.000000 

-0.000000 0.000000 0.000000 
0.000000 -0.000000 0.000000 
0.000000 0.000000 0.000000 

0.000000 -0.000000 0.000000 
0.000000 0.000000 0.000000 
0.000000 0.000000 0.000000 

-0.000000 0.000000 0.000000 
0.000000 -0.000000 0.000000 
0.000000 0.000000 0.000000 

0.000000 -0.000000 0.000000 
0.000000 0.000000 0.000000 
0.000000 0.000000 0.000000 

-0.000000 -0.000000 0.000000 
0.000000 0.000000 0.000000 
0.000000 0.000000 0.000000 

0.000000 -0.000000 0.000000 
0.000000 0.000000 0.000000 
0.000000 0.000000 0.000000 

0.000000 0.000000 0.000000 
0.000000 0.000000 0.000000 
0.000000 0.000000 0.000000 

0.000000 -0.000000 0.000000 
0.000000 0.000000 0.000000 
0.000000 0.000000 0.000000 

-0.000000 0.000000 0.000000 
0.000000 -0.000000 0.000000 
0.000000 0.000000 0.000000 

-0.000000 -0.000000 0.000000 
0.000000 -0.000000 0.000000 
0.000000 0.000000 0.000000 

0.000000 -0.000000 0.000000 
0.000000 0.000000 0.000000 
0.000000 0.000000 0.000000 

-0.000000 -0.000000 0.000000 
0.000000 -0.000000 0.000000 
0.000000 0.000000 0.000000 

-0.000000 0.000000 0.000000 
0.000000 -0.000000 0.000000 
0.000000 0.000000 0.000000 

-0.000000 0.000000 0.000000 
0.000000 -0.000000 0.000000 
0.000000 0.000000 0.000000 

0.000000 0.000000 0.000000 
0.000000 0.000000 0.000000 
0.000000 0.000000 0.000000 

0.000000 0.000000 0.000000 
0.000000 0.000000 0.000000 
0.000000 0.000000 0.000000 

-0.000000 0.000000 0.000000 
0.000000 -0.000000 0.000000 
0.000000 0.000000 0.000000 

0.000000 0.000000 0.000000 
0.000000 0.000000 0.000000 
0.000000 0.000000 0.000000 

0.000000 0.000000 0.000000 
0.000000 0.000000 0.000000 
0.000000 0.000000 0.000000 

-0.000000 0.000000 0.000000 
0.000000 -0.000000 0.000000 
0.000000 0.000000 0.000000 

0.000000 0.000000 0.000000 
0.000000 0.000000 0.000000 
0.000000 0.000000 0.000000 

-0.000000 -0.000000 0.000000 
0.000000 -0.000000 0.000000 
0.000000 0.000000 0.000000 

-0.000000 0.000000 0.000000 
0.000000 -0.000000 0.000000 
0.000000 0.000000 0.000000 

0.000000 0.000000 0.000000 
0.000000 0.000000 0.000000 
0.000000 0.000000 0.000000 

0.000000 0.000000 0.000000 
0.000000 -0.000000 0.000000 
0.000000 0.000000 0.000000 

0.000000 0.000000 0.000000 
0.000000 0.000000 0.000000 
0.000000 0.000000 0.000000 

0.000000 0.000000 0.000000 
0.000000 0.000000 0.000000 
0.000000 0.000000 0.000000 

0.000000 0.000000 0.000000 
0.000000 0.000000 0.000000 
0.000000 0.000000 0.000000 

-0.000000 -0.000000 0.000000 
0.000000 -0.000000 0.000000 
0.000000 0.000000 0.000000 

0.000000 0.000000 0.000000 
0.000000 0.000000 0.000000 
0.000000 0.000000 0.000000 

0.000000 0.000000 0.000000 
0.000000 0.000000 0.000000 
0.000000 0.000000 0.000000 

-0.000000 0.000000 0.000000 
0.000000 -0.000000 0.000000 
0.000000 0.000000 0.000000 

-0.000000 -0.000000 0.000000 
0.000000 -0.000000 0.000000 
0.000000 0.000000 0.000000 

0.000000 -0.000000 0.000000 
0.000000 0.000000 0.000000 
0.000000 0.000000 0.000000 

-0.000000 -0.000000 0.000000 
0.000000 -0.000000 0.000000 
0.000000 0.000000 0.000000 

-0.000000 0.000000 0.000000 
0.000000 -0.000000 0.000000 
0.000000 0.000000 0.000000 

0.000000 0.000000 0.000000 
0.000000 0.000000 0.000000 
0.000000 0.000000 0.000000 

0.000000 -0.000000 0.000000 
0.000000 0.000000 0.000000 
0.000000 0.000000 0.000000 

0.000000 -0.000000 0.000000 
0.000000 0.000000 0.000000 
0.000000 0.000000 0.000000 

0.000000 -0.000000 0.000000 
0.000000 0.000000 0.000000 
0.000000 0.000000 0.000000 

-0.000000 -0.000000 0.000000 
0.000000 -0.000000 0.000000 
0.000000 0.000000 0.000000 

-0.000000 -0.000000 0.000000 
0.000000 -0.000000 0.000000 
0.000000 0.000000 0.000000 

0.000000 0.000000 0.000000 
0.000000 0.000000 0.000000 
0.000000 0.000000 0.000000 

-0.000000 -0.000000 0.000000 
0.000000 -0.000000 0.000000 
0.000000 0.000000 0.000000 

-0.000000 -0.000000 0.000000 
0.000000 -0.000000 0.000000 
0.000000 0.000000 0.000000 

-0.000000 -0.000000 0.000000 
0.000000 -0.000000 0.000000 
0.000000 0.000000 0.000000 

-0.000000 0.000000 0.000000 
0.000000 -0.000000 0.000000 
0.000000 0.000000 0.000000 

-0.000000 -0.000000 0.000000 
0.000000 -0.000000 0.000000 
0.000000 0.000000 0.000000 

0.000000 -0.000000 0.000000 
0.000000 0.000000 0.000000 
0.000000 0.000000 0.000000 

-0.000000 0.000000 0.000000 
0.000000 -0.000000 0.000000 
0.000000 0.000000 0.000000 

-0.000000 -0.000000 0.000000 
0.000000 -0.000000 0.000000 
0.000000 0.000000 0.000000 

-0.000000 0.000000 0.000000 
0.000000 -0.000000 0.000000 
0.000000 0.000000 0.000000 

0.000000 -0.000000 0.000000 
0.000000 -0.000000 0.000000 
0.000000 0.000000 0.000000 

0.000000 0.000000 0.000000 
0.000000 0.000000 0.000000 
0.000000 0.000000 0.000000 

0.000000 -0.000000 0.000000 
0.000000 -0.000000 0.000000 
0.000000 0.000000 0.000000 

0.000000 0.000000 0.000000 
0.000000 0.000000 0.000000 
0.000000 0.000000 0.000000 

0.000000 0.000000 0.000000 
0.000000 0.000000 0.000000 
0.000000 0.000000 0.000000 

0.000000 0.000000 0.000000 
0.000000 0.000000 0.000000 
0.000000 0.000000 0.000000 

-0.000000 -0.000000 0.000000 
0.000000 0.000000 0.000000 
0.000000 0.000000 0.000000 

-0.000000 -0.000000 0.000000 
0.000000 -0.000000 0.000000 
0.000000 0.000000 0.000000 

-0.000000 0.000000 0.000000 
0.000000 -0.000000 0.000000 
0.000000 0.000000 0.000000 

-0.000000 -0.000000 0.000000 
0.000000 -0.000000 0.000000 
0.000000 0.000000 0.000000 

-0.000000 -0.000000 0.000000 
0.000000 -0.000000 0.000000 
0.000000 0.000000 0.000000 

0.000000 -0.000000 0.000000 
0.000000 0.000000 0.000000 
0.000000 0.000000 0.000000 

-0.000000 -0.000000 0.000000 
0.000000 -0.000000 0.000000 
0.000000 0.000000 0.000000 

0.000000 0.000000 0.000000 
0.000000 -0.000000 0.000000 
0.000000 0.000000 0.000000 

-0.000000 0.000000 0.000000 
0.000000 -0.000000 0.000000 
0.000000 0.000000 0.000000 

-0.000000 -0.000000 0.000000 
0.000000 -0.000000 0.000000 
0.000000 0.000000 0.000000 

-0.000000 -0.000000 0.000000 
0.000000 -0.000000 0.000000 
0.000000 0.000000 0.000000 

-0.000000 -0.000000 0.000000 
0.000000 -0.000000 0.000000 
0.000000 0.000000 0.000000 

-0.000000 0.000000 0.000000 
0.000000 -0.000000 0.000000 
0.000000 0.000000 0.000000 

0.000000 -0.000000 0.000000 
0.000000 -0.000000 0.000000 
0.000000 0.000000 0.000000 

0.000000 -0.000000 0.000000 
0.000000 0.000000 0.000000 
0.000000 0.000000 0.000000 

-0.000000 0.000000 0.000000 
0.000000 -0.000000 0.000000 
0.000000 0.000000 0.000000 

-0.000000 0.000000 0.000000 
0.000000 0.000000 0.000000 
0.000000 0.000000 0.000000 

-0.000000 0.000000 0.000000 
0.000000 -0.000000 0.000000 
0.000000 0.000000 0.000000 

0.000000 0.000000 0.000000 
0.000000 0.000000 0.000000 
0.000000 0.000000 0.000000 

0.000000 -0.000000 0.000000 
0.000000 0.000000 0.000000 
0.000000 0.000000 0.000000 

0.000000 -0.000000 0.000000 
0.000000 0.000000 0.000000 
0.000000 0.000000 0.000000 

-0.000000 0.000000 0.000000 
0.000000 -0.000000 0.000000 
0.000000 0.000000 0.000000 

0.000000 -0.000000 0.000000 
0.000000 0.000000 0.000000 
0.000000 0.000000 0.000000 

-0.000000 0.000000 0.000000 
0.000000 -0.000000 0.000000 
0.000000 0.000000 0.000000 

0.000000 -0.000000 0.000000 
0.000000 0.000000 0.000000 
0.000000 0.000000 0.000000 

-0.000000 0.000000 0.000000 
0.000000 -0.000000 0.000000 
0.000000 0.000000 0.000000 

0.000000 -0.000000 0.000000 
0.000000 0.000000 0.000000 
0.000000 0.000000 0.000000 

0.000000 -0.000000 0.000000 
0.000000 0.000000 0.000000 
0.000000 0.000000 0.000000 

-0.000000 -0.000000 0.000000 
0.000000 -0.000000 0.000000 
0.000000 0.000000 0.000000 

-0.000000 -0.000000 0.000000 
0.000000 -0.000000 0.000000 
0.000000 0.000000 0.000000 

-0.000000 0.000000 0.000000 
0.000000 -0.000000 0.000000 
0.000000 0.000000 0.000000 

-0.000000 0.000000 0.000000 
0.000000 -0.000000 0.000000 
0.000000 0.000000 0.000000 

0.000000 0.000000 0.000000 
0.000000 0.000000 0.000000 
0.000000 0.000000 0.000000 

-0.000000 -0.000000 0.000000 
0.000000 -0.000000 0.000000 
0.000000 0.000000 0.000000 

0.000000 -0.000000 0.000000 
0.000000 0.000000 0.000000 
0.000000 0.000000 0.000000 

0.000000 0.000000 0.000000 
0.000000 0.000000 0.000000 
0.000000 0.000000 0.000000 

0.000000 0.000000 0.000000 
0.000000 0.000000 0.000000 
0.000000 0.000000 0.000000 

0.000000 0.000000 0.000000 
0.000000 0.000000 0.000000 
0.000000 0.000000 0.000000 

0.000000 0.000000 0.000000 
0.000000 0.000000 0.000000 
0.000000 0.000000 0.000000 

0.000000 0.000000 0.000000 
0.000000 0.000000 0.000000 
0.000000 0.000000 0.000000 

-0.000000 0.000000 0.000000 
0.000000 -0.000000 0.000000 
0.000000 0.000000 0.000000 

0.000000 0.000000 0.000000 
0.000000 0.000000 0.000000 
0.000000 0.000000 0.000000 

0.000000 -0.000000 0.000000 
0.000000 0.000000 0.000000 
0.000000 0.000000 0.000000 

0.000000 0.000000 0.000000 
0.000000 0.000000 0.000000 
0.000000 0.000000 0.000000 

0.000000 0.000000 0.000000 
0.000000 0.000000 0.000000 
0.000000 0.000000 0.000000 

-0.000000 -0.000000 0.000000 
0.000000 -0.000000 0.000000 
0.000000 0.000000 0.000000 

0.000000 0.000000 0.000000 
0.000000 0.000000 0.000000 
0.000000 0.000000 0.000000 

-0.000000 0.000000 0.000000 
0.000000 -0.000000 0.000000 
0.000000 0.000000 0.000000 

0.000000 -0.000000 0.000000 
0.000000 0.000000 0.000000 
0.000000 0.000000 0.000000 

-0.000000 0.000000 0.000000 
0.000000 -0.000000 0.000000 
0.000000 0.000000 0.000000 

0.000000 0.000000 0.000000 
0.000000 0.000000 0.000000 
0.000000 0.000000 0.000000 

-0.000000 0.000000 0.000000 
0.000000 -0.000000 0.000000 
0.000000 0.000000 0.000000 

0.000000 -0.000000 0.000000 
0.000000 0.000000 0.000000 
0.000000 0.000000 0.000000 

0.000000 0.000000 0.000000 
0.000000 -0.000000 0.000000 
0.000000 0.000000 0.000000 

0.000000 0.000000 0.000000 
0.000000 0.000000 0.000000 
0.000000 0.000000 0.000000 

-0.000000 0.000000 0.000000 
0.000000 -0.000000 0.000000 
0.000000 0.000000 0.000000 

-0.000000 0.000000 0.000000 
0.000000 -0.000000 0.000000 
0.000000 0.000000 0.000000 

-0.000000 0.000000 0.000000 
0.000000 -0.000000 0.000000 
0.000000 0.000000 0.000000 

-0.000000 0.000000 0.000000 
0.000000 -0.000000 0.000000 
0.000000 0.000000 0.000000 

-0.000000 -0.000000 0.000000 
0.000000 -0.000000 0.000000 
0.000000 0.000000 0.000000 

-0.000000 0.000000 0.000000 
0.000000 -0.000000 0.000000 
0.000000 0.000000 0.000000 

-0.000000 0.000000 0.000000 
0.000000 -0.000000 0.000000 
0.000000 0.000000 0.000000 

0.000000 0.000000 0.000000 
0.000000 -0.000000 0.000000 
0.000000 0.000000 0.000000 

0.000000 0.000000 0.000000 
0.000000 0.000000 0.000000 
0.000000 0.000000 0.000000 

0.000000 0.000000 0.000000 
0.000000 0.000000 0.000000 
0.000000 0.000000 0.000000 

0.000000 -0.000000 0.000000 
0.000000 0.000000 0.000000 
0.000000 0.000000 0.000000 

0.000000 -0.000000 0.000000 
0.000000 -0.000000 0.000000 
0.000000 0.000000 0.000000 

0.000000 0.000000 0.000000 
0.000000 0.000000 0.000000 
0.000000 0.000000 0.000000 

0.000000 0.000000 0.000000 
0.000000 0.000000 0.000000 
0.000000 0.000000 0.000000 

0.000000 0.000000 0.000000 
0.000000 0.000000 0.000000 
0.000000 0.000000 0.000000 

0.000000 0.000000 0.000000 
0.000000 0.000000 0.000000 
0.000000 0.000000 0.000000 

0.000000 0.000000 0.000000 
0.000000 0.000000 0.000000 
0.000000 0.000000 0.000000 

-0.000000 0.000000 0.000000 
0.000000 0.000000 0.000000 
0.000000 0.000000 0.000000 

-0.000000 -0.000000 0.000000 
0.000000 -0.000000 0.000000 
0.000000 0.000000 0.000000 

0.000000 0.000000 0.000000 
0.000000 0.000000 0.000000 
0.000000 0.000000 0.000000 

0.000000 0.000000 0.000000 
0.000000 0.000000 0.000000 
0.000000 0.000000 0.000000 

-0.000000 0.000000 0.000000 
0.000000 -0.000000 0.000000 
0.000000 0.000000 0.000000 

0.000000 -0.000000 0.000000 
0.000000 0.000000 0.000000 
0.000000 0.000000 0.000000 

-0.000000 -0.000000 0.000000 
0.000000 -0.000000 0.000000 
0.000000 0.000000 0.000000 

0.000000 -0.000000 0.000000 
0.000000 0.000000 0.000000 
0.000000 0.000000 0.000000 

0.000000 -0.000000 0.000000 
0.000000 0.000000 0.000000 
0.000000 0.000000 0.000000 

-0.000000 -0.000000 0.000000 
0.000000 -0.000000 0.000000 
0.000000 0.000000 0.000000 

-0.000000 0.000000 0.000000 
0.000000 -0.000000 0.000000 
0.000000 0.000000 0.000000 

0.000000 -0.000000 0.000000 
0.000000 0.000000 0.000000 
0.000000 0.000000 0.000000 

0.000000 0.000000 0.000000 
0.000000 0.000000 0.000000 
0.000000 0.000000 0.000000 

-0.000000 0.000000 0.000000 
0.000000 -0.000000 0.000000 
0.000000 0.000000 0.000000 

0.000000 0.000000 0.000000 
0.000000 0.000000 0.000000 
0.000000 0.000000 0.000000 

0.000000 0.000000 0.000000 
0.000000 0.000000 0.000000 
0.000000 0.000000 0.000000 

-0.000000 0.000000 0.000000 
0.000000 -0.000000 0.000000 
0.000000 0.000000 0.000000 

-0.000000 0.000000 0.000000 
0.000000 -0.000000 0.000000 
0.000000 0.000000 0.000000 

-0.000000 0.000000 0.000000 
0.000000 -0.000000 0.000000 
0.000000 0.000000 0.000000 

-0.000000 0.000000 0.000000 
0.000000 -0.000000 0.000000 
0.000000 0.000000 0.000000 

0.000000 0.000000 0.000000 
0.000000 0.000000 0.000000 
0.000000 0.000000 0.000000 

-0.000000 0.000000 0.000000 
0.000000 -0.000000 0.000000 
0.000000 0.000000 0.000000 

0.000000 0.000000 0.000000 
0.000000 0.000000 0.000000 
0.000000 0.000000 0.000000 

-0.000000 -0.000000 0.000000 
0.000000 -0.000000 0.000000 
0.000000 0.000000 0.000000 

0.000000 -0.000000 0.000000 
0.000000 0.000000 0.000000 
0.000000 0.000000 0.000000 

-0.000000 -0.000000 0.000000 
0.000000 -0.000000 0.000000 
0.000000 0.000000 0.000000 

-0.000000 0.000000 0.000000 
0.000000 -0.000000 0.000000 
0.000000 0.000000 0.000000 

-0.000000 0.000000 0.000000 
0.000000 -0.000000 0.000000 
0.000000 0.000000 0.000000 

-0.000000 0.000000 0.000000 
0.000000 -0.000000 0.000000 
0.000000 0.000000 0.000000 

0.000000 -0.000000 0.000000 
0.000000 0.000000 0.000000 
0.000000 0.000000 0.000000 

0.000000 -0.000000 0.000000 
0.000000 0.000000 0.000000 
0.000000 0.000000 0.000000 

-0.000000 -0.000000 0.000000 
0.000000 -0.000000 0.000000 
0.000000 0.000000 0.000000 

TENSORS STRAIN float 
0.000000 -0.000000 0.000000 
0.000000 -0.000000 0.000000 
0.000000 0.000000 0.000000 

-0.000000 0.000000 0.000000 
0.000000 -0.000000 0.000000 
0.000000 0.000000 0.000000 

0.000000 0.000000 0.000000 
0.000000 -0.000000 0.000000 
0.000000 0.000000 0.000000 

0.000000 -0.000000 0.000000 
0.000000 -0.000000 0.000000 
0.000000 0.000000 0.000000 

-0.000000 0.000000 0.000000 
0.000000 0.000000 0.000000 
0.000000 0.000000 0.000000 

-0.000000 0.000000 0.000000 
0.000000 -0.000000 0.000000 
0.000000 0.000000 0.000000 

-0.000000 -0.000000 0.000000 
0.000000 0.000000 0.000000 
0.000000 0.000000 0.000000 

-0.000000 0.000000 0.000000 
0.000000 -0.000000 0.000000 
0.000000 0.000000 0.000000 

0.000000 -0.000000 0.000000 
0.000000 0.000000 0.000000 
0.000000 0.000000 0.000000 

-0.000000 0.000000 0.000000 
0.000000 0.000000 0.000000 
0.000000 0.000000 0.000000 

-0.000000 0.000000 0.000000 
0.000000 -0.000000 0.000000 
0.000000 0.000000 0.000000 

-0.000000 0.000000 0.000000 
0.000000 0.000000 0.000000 
0.000000 0.000000 0.000000 

-0.000000 0.000000 0.000000 
0.000000 0.000000 0.000000 
0.000000 0.000000 0.000000 

-0.000000 0.000000 0.000000 
0.000000 0.000000 0.000000 
0.000000 0.000000 0.000000 

-0.000000 -0.000000 0.000000 
0.000000 0.000000 0.000000 
0.000000 0.000000 0.000000 

-0.000000 0.000000 0.000000 
0.000000 0.000000 0.000000 
0.000000 0.000000 0.000000 

-0.000000 -0.000000 0.000000 
0.000000 0.000000 0.000000 
0.000000 0.000000 0.000000 

-0.000000 -0.000000 0.000000 
0.000000 0.000000 0.000000 
0.000000 0.000000 0.000000 

0.000000 -0.000000 0.000000 
0.000000 0.000000 0.000000 
0.000000 0.000000 0.000000 

-0.000000 0.000000 0.000000 
0.000000 0.000000 0.000000 
0.000000 0.000000 0.000000 

-0.000000 -0.000000 0.000000 
0.000000 0.000000 0.000000 
0.000000 0.000000 0.000000 

-0.000000 0.000000 0.000000 
0.000000 0.000000 0.000000 
0.000000 0.000000 0.000000 

-0.000000 -0.000000 0.000000 
0.000000 -0.000000 0.000000 
0.000000 0.000000 0.000000 

-0.000000 -0.000000 0.000000 
0.000000 0.000000 0.000000 
0.000000 0.000000 0.000000 

-0.000000 -0.000000 0.000000 
0.000000 -0.000000 0.000000 
0.000000 0.000000 0.000000 

0.000000 0.000000 0.000000 
0.000000 -0.000000 0.000000 
0.000000 0.000000 0.000000 

0.000000 0.000000 0.000000 
0.000000 -0.000000 0.000000 
0.000000 0.000000 0.000000 

0.000000 0.000000 0.000000 
0.000000 0.000000 0.000000 
0.000000 0.000000 0.000000 

-0.000000 0.000000 0.000000 
0.000000 0.000000 0.000000 
0.000000 0.000000 0.000000 

0.000000 0.000000 0.000000 
0.000000 -0.000000 0.000000 
0.000000 0.000000 0.000000 

0.000000 0.000000 0.000000 
0.000000 0.000000 0.000000 
0.000000 0.000000 0.000000 

0.000000 0.000000 0.000000 
0.000000 0.000000 0.000000 
0.000000 0.000000 0.000000 

-0.000000 0.000000 0.000000 
0.000000 -0.000000 0.000000 
0.000000 0.000000 0.000000 

-0.000000 0.000000 0.000000 
0.000000 0.000000 0.000000 
0.000000 0.000000 0.000000 

0.000000 -0.000000 0.000000 
0.000000 -0.000000 0.000000 
0.000000 0.000000 0.000000 

0.000000 0.000000 0.000000 
0.000000 -0.000000 0.000000 
0.000000 0.000000 0.000000 

0.000000 0.000000 0.000000 
0.000000 0.000000 0.000000 
0.000000 0.000000 0.000000 

0.000000 0.000000 0.000000 
0.000000 -0.000000 0.000000 
0.000000 0.000000 0.000000 

0.000000 0.000000 0.000000 
0.000000 0.000000 0.000000 
0.000000 0.000000 0.000000 

-0.000000 0.000000 0.000000 
0.000000 0.000000 0.000000 
0.000000 0.000000 0.000000 

-0.000000 0.000000 0.000000 
0.000000 0.000000 0.000000 
0.000000 0.000000 0.000000 

-0.000000 -0.000000 0.000000 
0.000000 0.000000 0.000000 
0.000000 0.000000 0.000000 

-0.000000 0.000000 0.000000 
0.000000 0.000000 0.000000 
0.000000 0.000000 0.000000 

-0.000000 0.000000 0.000000 
0.000000 0.000000 0.000000 
0.000000 0.000000 0.000000 

-0.000000 0.000000 0.000000 
0.000000 0.000000 0.000000 
0.000000 0.000000 0.000000 

-0.000000 -0.000000 0.000000 
0.000000 0.000000 0.000000 
0.000000 0.000000 0.000000 

-0.000000 -0.000000 0.000000 
0.000000 0.000000 0.000000 
0.000000 0.000000 0.000000 

0.000000 -0.000000 0.000000 
0.000000 -0.000000 0.000000 
0.000000 0.000000 0.000000 

-0.000000 0.000000 0.000000 
0.000000 0.000000 0.000000 
0.000000 0.000000 0.000000 

-0.000000 0.000000 0.000000 
0.000000 0.000000 0.000000 
0.000000 0.000000 0.000000 

-0.000000 -0.000000 0.000000 
0.000000 0.000000 0.000000 
0.000000 0.000000 0.000000 

0.000000 -0.000000 0.000000 
0.000000 -0.000000 0.000000 
0.000000 0.000000 0.000000 

0.000000 -0.000000 0.000000 
0.000000 -0.000000 0.000000 
0.000000 0.000000 0.000000 

0.000000 -0.000000 0.000000 
0.000000 -0.000000 0.000000 
0.000000 0.000000 0.000000 

0.000000 -0.000000 0.000000 
0.000000 -0.000000 0.000000 
0.000000 0.000000 0.000000 

0.000000 0.000000 0.000000 
0.000000 -0.000000 0.000000 
0.000000 0.000000 0.000000 

0.000000 -0.000000 0.000000 
0.000000 -0.000000 0.000000 
0.000000 0.000000 0.000000 

0.000000 -0.000000 0.000000 
0.000000 -0.000000 0.000000 
0.000000 0.000000 0.000000 

0.000000 -0.000000 0.000000 
0.000000 -0.000000 0.000000 
0.000000 0.000000 0.000000 

-0.000000 0.000000 0.000000 
0.000000 0.000000 0.000000 
0.000000 0.000000 0.000000 

0.000000 -0.000000 0.000000 
0.000000 -0.000000 0.000000 
0.000000 0.000000 0.000000 

-0.000000 -0.000000 0.000000 
0.000000 0.000000 0.000000 
0.000000 0.000000 0.000000 

0.000000 0.000000 0.000000 
0.000000 -0.000000 0.000000 
0.000000 0.000000 0.000000 

0.000000 -0.000000 0.000000 
0.000000 -0.000000 0.000000 
0.000000 0.000000 0.000000 

0.000000 0.000000 0.000000 
0.000000 -0.000000 0.000000 
0.000000 0.000000 0.000000 

0.000000 -0.000000 0.000000 
0.000000 -0.000000 0.000000 
0.000000 0.000000 0.000000 

0.000000 0.000000 0.000000 
0.000000 -0.000000 0.000000 
0.000000 0.000000 0.000000 

0.000000 -0.000000 0.000000 
0.000000 -0.000000 0.000000 
0.000000 0.000000 0.000000 

0.000000 0.000000 0.000000 
0.000000 -0.000000 0.000000 
0.000000 0.000000 0.000000 

0.000000 0.000000 0.000000 
0.000000 0.000000 0.000000 
0.000000 0.000000 0.000000 

0.000000 0.000000 0.000000 
0.000000 0.000000 0.000000 
0.000000 0.000000 0.000000 

-0.000000 -0.000000 0.000000 
0.000000 0.000000 0.000000 
0.000000 0.000000 0.000000 

0.000000 -0.000000 0.000000 
0.000000 -0.000000 0.000000 
0.000000 0.000000 0.000000 

-0.000000 0.000000 0.000000 
0.000000 -0.000000 0.000000 
0.000000 0.000000 0.000000 

-0.000000 -0.000000 0.000000 
0.000000 -0.000000 0.000000 
0.000000 0.000000 0.000000 

-0.000000 -0.000000 0.000000 
0.000000 -0.000000 0.000000 
0.000000 0.000000 0.000000 

0.000000 -0.000000 0.000000 
0.000000 0.000000 0.000000 
0.000000 0.000000 0.000000 

0.000000 -0.000000 0.000000 
0.000000 -0.000000 0.000000 
0.000000 0.000000 0.000000 

0.000000 0.000000 0.000000 
0.000000 -0.000000 0.000000 
0.000000 0.000000 0.000000 

0.000000 0.000000 0.000000 
0.000000 -0.000000 0.000000 
0.000000 0.000000 0.000000 

-0.000000 -0.000000 0.000000 
0.000000 -0.000000 0.000000 
0.000000 0.000000 0.000000 

-0.000000 -0.000000 0.000000 
0.000000 -0.000000 0.000000 
0.000000 0.000000 0.000000 

-0.000000 -0.000000 0.000000 
0.000000 -0.000000 0.000000 
0.000000 0.000000 0.000000 

0.000000 0.000000 0.000000 
0.000000 -0.000000 0.000000 
0.000000 0.000000 0.000000 

0.000000 -0.000000 0.000000 
0.000000 -0.000000 0.000000 
0.000000 0.000000 0.000000 

0.000000 -0.000000 0.000000 
0.000000 -0.000000 0.000000 
0.000000 0.000000 0.000000 

0.000000 0.000000 0.000000 
0.000000 -0.000000 0.000000 
0.000000 0.000000 0.000000 

-0.000000 0.000000 0.000000 
0.000000 0.000000 0.000000 
0.000000 0.000000 0.000000 

0.000000 0.000000 0.000000 
0.000000 -0.000000 0.000000 
0.000000 0.000000 0.000000 

-0.000000 0.000000 0.000000 
0.000000 0.000000 0.000000 
0.000000 0.000000 0.000000 

-0.000000 -0.000000 0.000000 
0.000000 0.000000 0.000000 
0.000000 0.000000 0.000000 

0.000000 -0.000000 0.000000 
0.000000 -0.000000 0.000000 
0.000000 0.000000 0.000000 

0.000000 0.000000 0.000000 
0.000000 -0.000000 0.000000 
0.000000 0.000000 0.000000 

0.000000 -0.000000 0.000000 
0.000000 -0.000000 0.000000 
0.000000 0.000000 0.000000 

-0.000000 0.000000 0.000000 
0.000000 0.000000 0.000000 
0.000000 0.000000 0.000000 

-0.000000 -0.000000 0.000000 
0.000000 0.000000 0.000000 
0.000000 0.000000 0.000000 

-0.000000 0.000000 0.000000 
0.000000 -0.000000 0.000000 
0.000000 0.000000 0.000000 

0.000000 -0.000000 0.000000 
0.000000 -0.000000 0.000000 
0.000000 0.000000 0.000000 

0.000000 -0.000000 0.000000 
0.000000 -0.000000 0.000000 
0.000000 0.000000 0.000000 

0.000000 -0.000000 0.000000 
0.000000 -0.000000 0.000000 
0.000000 0.000000 0.000000 

-0.000000 -0.000000 0.000000 
0.000000 -0.000000 0.000000 
0.000000 0.000000 0.000000 

-0.000000 0.000000 0.000000 
0.000000 -0.000000 0.000000 
0.000000 0.000000 0.000000 

-0.000000 0.000000 0.000000 
0.000000 -0.000000 0.000000 
0.000000 0.000000 0.000000 

0.000000 0.000000 0.000000 
0.000000 0.000000 0.000000 
0.000000 0.000000 0.000000 

0.000000 -0.000000 0.000000 
0.000000 -0.000000 0.000000 
0.000000 0.000000 0.000000 

-0.000000 -0.000000 0.000000 
0.000000 0.000000 0.000000 
0.000000 0.000000 0.000000 

0.000000 0.000000 0.000000 
0.000000 -0.000000 0.000000 
0.000000 0.000000 0.000000 

0.000000 0.000000 0.000000 
0.000000 -0.000000 0.000000 
0.000000 0.000000 0.000000 

0.000000 0.000000 0.000000 
0.000000 -0.000000 0.000000 
0.000000 0.000000 0.000000 

0.000000 0.000000 0.000000 
0.000000 -0.000000 0.000000 
0.000000 0.000000 0.000000 

0.000000 0.000000 0.000000 
0.000000 0.000000 0.000000 
0.000000 0.000000 0.000000 

-0.000000 0.000000 0.000000 
0.000000 -0.000000 0.000000 
0.000000 0.000000 0.000000 

-0.000000 0.000000 0.000000 
0.000000 0.000000 0.000000 
0.000000 0.000000 0.000000 

0.000000 -0.000000 0.000000 
0.000000 -0.000000 0.000000 
0.000000 0.000000 0.000000 

0.000000 0.000000 0.000000 
0.000000 -0.000000 0.000000 
0.000000 0.000000 0.000000 

0.000000 0.000000 0.000000 
0.000000 -0.000000 0.000000 
0.000000 0.000000 0.000000 

0.000000 -0.000000 0.000000 
0.000000 -0.000000 0.000000 
0.000000 0.000000 0.000000 

-0.000000 0.000000 0.000000 
0.000000 0.000000 0.000000 
0.000000 0.000000 0.000000 

-0.000000 0.000000 0.000000 
0.000000 0.000000 0.000000 
0.000000 0.000000 0.000000 

0.000000 -0.000000 0.000000 
0.000000 0.000000 0.000000 
0.000000 0.000000 0.000000 

0.000000 0.000000 0.000000 
0.000000 -0.000000 0.000000 
0.000000 0.000000 0.000000 

0.000000 0.000000 0.000000 
0.000000 0.000000 0.000000 
0.000000 0.000000 0.000000 

0.000000 0.000000 0.000000 
0.000000 -0.000000 0.000000 
0.000000 0.000000 0.000000 

0.000000 -0.000000 0.000000 
0.000000 -0.000000 0.000000 
0.000000 0.000000 0.000000 

0.000000 0.000000 0.000000 
0.000000 -0.000000 0.000000 
0.000000 0.000000 0.000000 

0.000000 0.000000 0.000000 
0.000000 -0.000000 0.000000 
0.000000 0.000000 0.000000 

-0.000000 0.000000 0.000000 
0.000000 -0.000000 0.000000 
0.000000 0.000000 0.000000 

-0.000000 0.000000 0.000000 
0.000000 -0.000000 0.000000 
0.000000 0.000000 0.000000 

-0.000000 0.000000 0.000000 
0.000000 -0.000000 0.000000 
0.000000 0.000000 0.000000 

-0.000000 0.000000 0.000000 
0.000000 0.000000 0.000000 
0.000000 0.000000 0.000000 

-0.000000 -0.000000 0.000000 
0.000000 -0.000000 0.000000 
0.000000 0.000000 0.000000 

0.000000 0.000000 0.000000 
0.000000 -0.000000 0.000000 
0.000000 0.000000 0.000000 

-0.000000 0.000000 0.000000 
0.000000 -0.000000 0.000000 
0.000000 0.000000 0.000000 

0.000000 0.000000 0.000000 
0.000000 -0.000000 0.000000 
0.000000 0.000000 0.000000 

0.000000 0.000000 0.000000 
0.000000 0.000000 0.000000 
0.000000 0.000000 0.000000 

0.000000 0.000000 0.000000 
0.000000 0.000000 0.000000 
0.000000 0.000000 0.000000 

0.000000 -0.000000 0.000000 
0.000000 0.000000 0.000000 
0.000000 0.000000 0.000000 

0.000000 -0.000000 0.000000 
0.000000 -0.000000 0.000000 
0.000000 0.000000 0.000000 

0.000000 0.000000 0.000000 
0.000000 -0.000000 0.000000 
0.000000 0.000000 0.000000 

0.000000 0.000000 0.000000 
0.000000 -0.000000 0.000000 
0.000000 0.000000 0.000000 

0.000000 0.000000 0.000000 
0.000000 -0.000000 0.000000 
0.000000 0.000000 0.000000 

0.000000 0.000000 0.000000 
0.000000 -0.000000 0.000000 
0.000000 0.000000 0.000000 

0.000000 0.000000 0.000000 
0.000000 0.000000 0.000000 
0.000000 0.000000 0.000000 

-0.000000 0.000000 0.000000 
0.000000 0.000000 0.000000 
0.000000 0.000000 0.000000 

0.000000 -0.000000 0.000000 
0.000000 -0.000000 0.000000 
0.000000 0.000000 0.000000 

0.000000 0.000000 0.000000 
0.000000 -0.000000 0.000000 
0.000000 0.000000 0.000000 

0.000000 0.000000 0.000000 
0.000000 0.000000 0.000000 
0.000000 0.000000 0.000000 

-0.000000 0.000000 0.000000 
0.000000 -0.000000 0.000000 
0.000000 0.000000 0.000000 

-0.000000 -0.000000 0.000000 
0.000000 0.000000 0.000000 
0.000000 0.000000 0.000000 

0.000000 -0.000000 0.000000 
0.000000 -0.000000 0.000000 
0.000000 0.000000 0.000000 

0.000000 -0.000000 0.000000 
0.000000 -0.000000 0.000000 
0.000000 0.000000 0.000000 

0.000000 -0.000000 0.000000 
0.000000 -0.000000 0.000000 
0.000000 0.000000 0.000000 

0.000000 -0.000000 0.000000 
0.000000 -0.000000 0.000000 
0.000000 0.000000 0.000000 

-0.000000 0.000000 0.000000 
0.000000 -0.000000 0.000000 
0.000000 0.000000 0.000000 

0.000000 -0.000000 0.000000 
0.000000 0.000000 0.000000 
0.000000 0.000000 0.000000 

-0.000000 0.000000 0.000000 
0.000000 0.000000 0.000000 
0.000000 0.000000 0.000000 

-0.000000 0.000000 0.000000 
0.000000 0.000000 0.000000 
0.000000 0.000000 0.000000 

-0.000000 0.000000 0.000000 
0.000000 0.000000 0.000000 
0.000000 0.000000 0.000000 

-0.000000 0.000000 0.000000 
0.000000 0.000000 0.000000 
0.000000 0.000000 0.000000 

-0.000000 0.000000 0.000000 
0.000000 0.000000 0.000000 
0.000000 0.000000 0.000000 

-0.000000 0.000000 0.000000 
0.000000 -0.000000 0.000000 
0.000000 0.000000 0.000000 

-0.000000 0.000000 0.000000 
0.000000 0.000000 0.000000 
0.000000 0.000000 0.000000 

-0.000000 0.000000 0.000000 
0.000000 -0.000000 0.000000 
0.000000 0.000000 0.000000 

-0.000000 0.000000 0.000000 
0.000000 0.000000 0.000000 
0.000000 0.000000 0.000000 

-0.000000 0.000000 0.000000 
0.000000 0.000000 0.000000 
0.000000 0.000000 0.000000 

0.000000 0.000000 0.000000 
0.000000 -0.000000 0.000000 
0.000000 0.000000 0.000000 

-0.000000 -0.000000 0.000000 
0.000000 -0.000000 0.000000 
0.000000 0.000000 0.000000 

-0.000000 -0.000000 0.000000 
0.000000 0.000000 0.000000 
0.000000 0.000000 0.000000 

-0.000000 -0.000000 0.000000 
0.000000 0.000000 0.000000 
0.000000 0.000000 0.000000 

-0.000000 0.000000 0.000000 
0.000000 -0.000000 0.000000 
0.000000 0.000000 0.000000 

-0.000000 0.000000 0.000000 
0.000000 -0.000000 0.000000 
0.000000 0.000000 0.000000 

-0.000000 0.000000 0.000000 
0.000000 -0.000000 0.000000 
0.000000 0.000000 0.000000 

-0.000000 -0.000000 0.000000 
0.000000 0.000000 0.000000 
0.000000 0.000000 0.000000 

0.000000 -0.000000 0.000000 
0.000000 -0.000000 0.000000 
0.000000 0.000000 0.000000 

0.000000 -0.000000 0.000000 
0.000000 -0.000000 0.000000 
0.000000 0.000000 0.000000 

