# vtk DataFile Version 3.0 
vtk output 
ASCII 
DATASET UNSTRUCTURED_GRID 
POINTS 175 float 
-0.026061 -0.719345 0.000000 
-0.106992 -0.651290 0.000000 
-0.054870 -0.659522 0.000000 
-0.028809 -0.613639 0.000000 
-0.186430 -0.587214 0.000000 
-0.137056 -0.589741 0.000000 
-0.114311 -0.536093 0.000000 
-0.058186 -0.551759 0.000000 
-0.029377 -0.511582 0.000000 
-0.265318 -0.524059 0.000000 
-0.217198 -0.524858 0.000000 
-0.196633 -0.467562 0.000000 
-0.143120 -0.476270 0.000000 
-0.116563 -0.429002 0.000000 
-0.058945 -0.448648 0.000000 
-0.029568 -0.410527 0.000000 
-0.344206 -0.460903 0.000000 
-0.296791 -0.460896 0.000000 
-0.278030 -0.400953 0.000000 
-0.225992 -0.406819 0.000000 
-0.201664 -0.354702 0.000000 
-0.145749 -0.368176 0.000000 
-0.117890 -0.323833 0.000000 
-0.059328 -0.346539 0.000000 
-0.029759 -0.309473 0.000000 
-0.058559 -0.760096 0.000000 
-0.162226 -0.780939 0.000000 
-0.123292 -0.745321 0.000000 
-0.142917 -0.696338 0.000000 
-0.261851 -0.803095 0.000000 
-0.229092 -0.766068 0.000000 
-0.256854 -0.714836 0.000000 
-0.209613 -0.680724 0.000000 
-0.223062 -0.633150 0.000000 
-0.360414 -0.825395 0.000000 
-0.329787 -0.788272 0.000000 
-0.361761 -0.736470 0.000000 
-0.321587 -0.700061 0.000000 
-0.341985 -0.649827 0.000000 
-0.290702 -0.617028 0.000000 
-0.302189 -0.570293 0.000000 
-0.458977 -0.847695 0.000000 
-0.429420 -0.810621 0.000000 
-0.464588 -0.758579 0.000000 
-0.427556 -0.721551 0.000000 
-0.453135 -0.670037 0.000000 
-0.407738 -0.634721 0.000000 
-0.425037 -0.585293 0.000000 
-0.370772 -0.553664 0.000000 
-0.381315 -0.507437 0.000000 
-0.046960 -0.810911 0.000000 
-0.095301 -0.904957 0.000000 
-0.098873 -0.852310 0.000000 
-0.149405 -0.837112 0.000000 
-0.140093 -0.996661 0.000000 
-0.148617 -0.947963 0.000000 
-0.205981 -0.937726 0.000000 
-0.203197 -0.879522 0.000000 
-0.248777 -0.860376 0.000000 
-0.184111 -1.087625 0.000000 
-0.194039 -1.040534 0.000000 
-0.254475 -1.033234 0.000000 
-0.257893 -0.979124 0.000000 
-0.309886 -0.963752 0.000000 
-0.303554 -0.903207 0.000000 
-0.347255 -0.883049 0.000000 
-0.228129 -1.178588 0.000000 
-0.238687 -1.132364 0.000000 
-0.301302 -1.127412 0.000000 
-0.307162 -1.075373 0.000000 
-0.363386 -1.063252 0.000000 
-0.362692 -1.005741 0.000000 
-0.412122 -0.988448 0.000000 
-0.403017 -0.926301 0.000000 
-0.445733 -0.905722 0.000000 
-0.000000 -0.833526 0.000000 
0.043388 -0.929957 0.000000 
-0.000000 -0.899924 0.000000 
-0.043388 -0.929957 0.000000 
0.087158 -1.022153 0.000000 
0.043769 -0.998455 0.000000 
-0.000000 -1.036921 0.000000 
-0.043769 -0.998455 0.000000 
-0.087158 -1.022153 0.000000 
0.130831 -1.113283 0.000000 
0.087824 -1.091684 0.000000 
0.044436 -1.134384 0.000000 
-0.000000 -1.103319 0.000000 
-0.044436 -1.134384 0.000000 
-0.087824 -1.091684 0.000000 
-0.130831 -1.113283 0.000000 
0.174505 -1.204413 0.000000 
0.131782 -1.183847 0.000000 
0.088871 -1.229713 0.000000 
0.044532 -1.201849 0.000000 
-0.000000 -1.238250 0.000000 
-0.044532 -1.201849 0.000000 
-0.088871 -1.229713 0.000000 
-0.131782 -1.183847 0.000000 
-0.174505 -1.204413 0.000000 
0.046960 -0.810911 0.000000 
0.149405 -0.837112 0.000000 
0.098873 -0.852310 0.000000 
0.095301 -0.904957 0.000000 
0.248777 -0.860376 0.000000 
0.203197 -0.879522 0.000000 
0.205981 -0.937726 0.000000 
0.148617 -0.947963 0.000000 
0.140093 -0.996661 0.000000 
0.347255 -0.883049 0.000000 
0.303554 -0.903207 0.000000 
0.309886 -0.963752 0.000000 
0.257893 -0.979124 0.000000 
0.254475 -1.033234 0.000000 
0.194039 -1.040534 0.000000 
0.184111 -1.087625 0.000000 
0.445733 -0.905722 0.000000 
0.403017 -0.926301 0.000000 
0.412122 -0.988448 0.000000 
0.362692 -1.005741 0.000000 
0.363386 -1.063252 0.000000 
0.307162 -1.075373 0.000000 
0.301302 -1.127412 0.000000 
0.238687 -1.132364 0.000000 
0.228129 -1.178588 0.000000 
0.058559 -0.760096 0.000000 
0.142917 -0.696338 0.000000 
0.123292 -0.745321 0.000000 
0.162226 -0.780939 0.000000 
0.223062 -0.633150 0.000000 
0.209613 -0.680724 0.000000 
0.256854 -0.714836 0.000000 
0.229092 -0.766068 0.000000 
0.261851 -0.803095 0.000000 
0.302189 -0.570293 0.000000 
0.290702 -0.617028 0.000000 
0.341985 -0.649827 0.000000 
0.321587 -0.700061 0.000000 
0.361761 -0.736470 0.000000 
0.329787 -0.788272 0.000000 
0.360414 -0.825395 0.000000 
0.381315 -0.507437 0.000000 
0.370772 -0.553664 0.000000 
0.425037 -0.585293 0.000000 
0.407738 -0.634721 0.000000 
0.453135 -0.670037 0.000000 
0.427556 -0.721551 0.000000 
0.464588 -0.758579 0.000000 
0.429420 -0.810621 0.000000 
0.458977 -0.847695 0.000000 
0.026061 -0.719345 0.000000 
0.028809 -0.613639 0.000000 
0.054870 -0.659522 0.000000 
0.106992 -0.651290 0.000000 
0.029377 -0.511582 0.000000 
0.058186 -0.551759 0.000000 
0.114311 -0.536093 0.000000 
0.137056 -0.589741 0.000000 
0.186430 -0.587214 0.000000 
0.029568 -0.410527 0.000000 
0.058945 -0.448648 0.000000 
0.116563 -0.429002 0.000000 
0.143120 -0.476270 0.000000 
0.196633 -0.467562 0.000000 
0.217198 -0.524858 0.000000 
0.265318 -0.524059 0.000000 
0.029759 -0.309473 0.000000 
0.059328 -0.346539 0.000000 
0.117890 -0.323833 0.000000 
0.145749 -0.368176 0.000000 
0.201664 -0.354702 0.000000 
0.225992 -0.406819 0.000000 
0.278030 -0.400953 0.000000 
0.296791 -0.460896 0.000000 
0.344206 -0.460903 0.000000 
CELLS 175 350 
1 0 
1 1 
1 2 
1 3 
1 4 
1 5 
1 6 
1 7 
1 8 
1 9 
1 10 
1 11 
1 12 
1 13 
1 14 
1 15 
1 16 
1 17 
1 18 
1 19 
1 20 
1 21 
1 22 
1 23 
1 24 
1 25 
1 26 
1 27 
1 28 
1 29 
1 30 
1 31 
1 32 
1 33 
1 34 
1 35 
1 36 
1 37 
1 38 
1 39 
1 40 
1 41 
1 42 
1 43 
1 44 
1 45 
1 46 
1 47 
1 48 
1 49 
1 50 
1 51 
1 52 
1 53 
1 54 
1 55 
1 56 
1 57 
1 58 
1 59 
1 60 
1 61 
1 62 
1 63 
1 64 
1 65 
1 66 
1 67 
1 68 
1 69 
1 70 
1 71 
1 72 
1 73 
1 74 
1 75 
1 76 
1 77 
1 78 
1 79 
1 80 
1 81 
1 82 
1 83 
1 84 
1 85 
1 86 
1 87 
1 88 
1 89 
1 90 
1 91 
1 92 
1 93 
1 94 
1 95 
1 96 
1 97 
1 98 
1 99 
1 100 
1 101 
1 102 
1 103 
1 104 
1 105 
1 106 
1 107 
1 108 
1 109 
1 110 
1 111 
1 112 
1 113 
1 114 
1 115 
1 116 
1 117 
1 118 
1 119 
1 120 
1 121 
1 122 
1 123 
1 124 
1 125 
1 126 
1 127 
1 128 
1 129 
1 130 
1 131 
1 132 
1 133 
1 134 
1 135 
1 136 
1 137 
1 138 
1 139 
1 140 
1 141 
1 142 
1 143 
1 144 
1 145 
1 146 
1 147 
1 148 
1 149 
1 150 
1 151 
1 152 
1 153 
1 154 
1 155 
1 156 
1 157 
1 158 
1 159 
1 160 
1 161 
1 162 
1 163 
1 164 
1 165 
1 166 
1 167 
1 168 
1 169 
1 170 
1 171 
1 172 
1 173 
1 174 
CELL_TYPES 175 
1 
1 
1 
1 
1 
1 
1 
1 
1 
1 
1 
1 
1 
1 
1 
1 
1 
1 
1 
1 
1 
1 
1 
1 
1 
1 
1 
1 
1 
1 
1 
1 
1 
1 
1 
1 
1 
1 
1 
1 
1 
1 
1 
1 
1 
1 
1 
1 
1 
1 
1 
1 
1 
1 
1 
1 
1 
1 
1 
1 
1 
1 
1 
1 
1 
1 
1 
1 
1 
1 
1 
1 
1 
1 
1 
1 
1 
1 
1 
1 
1 
1 
1 
1 
1 
1 
1 
1 
1 
1 
1 
1 
1 
1 
1 
1 
1 
1 
1 
1 
1 
1 
1 
1 
1 
1 
1 
1 
1 
1 
1 
1 
1 
1 
1 
1 
1 
1 
1 
1 
1 
1 
1 
1 
1 
1 
1 
1 
1 
1 
1 
1 
1 
1 
1 
1 
1 
1 
1 
1 
1 
1 
1 
1 
1 
1 
1 
1 
1 
1 
1 
1 
1 
1 
1 
1 
1 
1 
1 
1 
1 
1 
1 
1 
1 
1 
1 
1 
1 
1 
1 
1 
1 
1 
1 
POINT_DATA 175 
VECTORS X_GC float 
-0.026061 -0.719345 0.000000 
-0.106992 -0.651290 0.000000 
-0.054870 -0.659522 0.000000 
-0.028809 -0.613639 0.000000 
-0.186430 -0.587214 0.000000 
-0.137056 -0.589741 0.000000 
-0.114311 -0.536093 0.000000 
-0.058186 -0.551759 0.000000 
-0.029377 -0.511582 0.000000 
-0.265318 -0.524059 0.000000 
-0.217198 -0.524858 0.000000 
-0.196633 -0.467562 0.000000 
-0.143120 -0.476270 0.000000 
-0.116563 -0.429002 0.000000 
-0.058945 -0.448648 0.000000 
-0.029568 -0.410527 0.000000 
-0.344206 -0.460903 0.000000 
-0.296791 -0.460896 0.000000 
-0.278030 -0.400953 0.000000 
-0.225992 -0.406819 0.000000 
-0.201664 -0.354702 0.000000 
-0.145749 -0.368176 0.000000 
-0.117890 -0.323833 0.000000 
-0.059328 -0.346539 0.000000 
-0.029759 -0.309473 0.000000 
-0.058559 -0.760096 0.000000 
-0.162226 -0.780939 0.000000 
-0.123292 -0.745321 0.000000 
-0.142917 -0.696338 0.000000 
-0.261851 -0.803095 0.000000 
-0.229092 -0.766068 0.000000 
-0.256854 -0.714836 0.000000 
-0.209613 -0.680724 0.000000 
-0.223062 -0.633150 0.000000 
-0.360414 -0.825395 0.000000 
-0.329787 -0.788272 0.000000 
-0.361761 -0.736470 0.000000 
-0.321587 -0.700061 0.000000 
-0.341985 -0.649827 0.000000 
-0.290702 -0.617028 0.000000 
-0.302189 -0.570293 0.000000 
-0.458977 -0.847695 0.000000 
-0.429420 -0.810621 0.000000 
-0.464588 -0.758579 0.000000 
-0.427556 -0.721551 0.000000 
-0.453135 -0.670037 0.000000 
-0.407738 -0.634721 0.000000 
-0.425037 -0.585293 0.000000 
-0.370772 -0.553664 0.000000 
-0.381315 -0.507437 0.000000 
-0.046960 -0.810911 0.000000 
-0.095301 -0.904957 0.000000 
-0.098873 -0.852310 0.000000 
-0.149405 -0.837112 0.000000 
-0.140093 -0.996661 0.000000 
-0.148617 -0.947963 0.000000 
-0.205981 -0.937726 0.000000 
-0.203197 -0.879522 0.000000 
-0.248777 -0.860376 0.000000 
-0.184111 -1.087625 0.000000 
-0.194039 -1.040534 0.000000 
-0.254475 -1.033234 0.000000 
-0.257893 -0.979124 0.000000 
-0.309886 -0.963752 0.000000 
-0.303554 -0.903207 0.000000 
-0.347255 -0.883049 0.000000 
-0.228129 -1.178588 0.000000 
-0.238687 -1.132364 0.000000 
-0.301302 -1.127412 0.000000 
-0.307162 -1.075373 0.000000 
-0.363386 -1.063252 0.000000 
-0.362692 -1.005741 0.000000 
-0.412122 -0.988448 0.000000 
-0.403017 -0.926301 0.000000 
-0.445733 -0.905722 0.000000 
-0.000000 -0.833526 0.000000 
0.043388 -0.929957 0.000000 
-0.000000 -0.899924 0.000000 
-0.043388 -0.929957 0.000000 
0.087158 -1.022153 0.000000 
0.043769 -0.998455 0.000000 
-0.000000 -1.036921 0.000000 
-0.043769 -0.998455 0.000000 
-0.087158 -1.022153 0.000000 
0.130831 -1.113283 0.000000 
0.087824 -1.091684 0.000000 
0.044436 -1.134384 0.000000 
-0.000000 -1.103319 0.000000 
-0.044436 -1.134384 0.000000 
-0.087824 -1.091684 0.000000 
-0.130831 -1.113283 0.000000 
0.174505 -1.204413 0.000000 
0.131782 -1.183847 0.000000 
0.088871 -1.229713 0.000000 
0.044532 -1.201849 0.000000 
-0.000000 -1.238250 0.000000 
-0.044532 -1.201849 0.000000 
-0.088871 -1.229713 0.000000 
-0.131782 -1.183847 0.000000 
-0.174505 -1.204413 0.000000 
0.046960 -0.810911 0.000000 
0.149405 -0.837112 0.000000 
0.098873 -0.852310 0.000000 
0.095301 -0.904957 0.000000 
0.248777 -0.860376 0.000000 
0.203197 -0.879522 0.000000 
0.205981 -0.937726 0.000000 
0.148617 -0.947963 0.000000 
0.140093 -0.996661 0.000000 
0.347255 -0.883049 0.000000 
0.303554 -0.903207 0.000000 
0.309886 -0.963752 0.000000 
0.257893 -0.979124 0.000000 
0.254475 -1.033234 0.000000 
0.194039 -1.040534 0.000000 
0.184111 -1.087625 0.000000 
0.445733 -0.905722 0.000000 
0.403017 -0.926301 0.000000 
0.412122 -0.988448 0.000000 
0.362692 -1.005741 0.000000 
0.363386 -1.063252 0.000000 
0.307162 -1.075373 0.000000 
0.301302 -1.127412 0.000000 
0.238687 -1.132364 0.000000 
0.228129 -1.178588 0.000000 
0.058559 -0.760096 0.000000 
0.142917 -0.696338 0.000000 
0.123292 -0.745321 0.000000 
0.162226 -0.780939 0.000000 
0.223062 -0.633150 0.000000 
0.209613 -0.680724 0.000000 
0.256854 -0.714836 0.000000 
0.229092 -0.766068 0.000000 
0.261851 -0.803095 0.000000 
0.302189 -0.570293 0.000000 
0.290702 -0.617028 0.000000 
0.341985 -0.649827 0.000000 
0.321587 -0.700061 0.000000 
0.361761 -0.736470 0.000000 
0.329787 -0.788272 0.000000 
0.360414 -0.825395 0.000000 
0.381315 -0.507437 0.000000 
0.370772 -0.553664 0.000000 
0.425037 -0.585293 0.000000 
0.407738 -0.634721 0.000000 
0.453135 -0.670037 0.000000 
0.427556 -0.721551 0.000000 
0.464588 -0.758579 0.000000 
0.429420 -0.810621 0.000000 
0.458977 -0.847695 0.000000 
0.026061 -0.719345 0.000000 
0.028809 -0.613639 0.000000 
0.054870 -0.659522 0.000000 
0.106992 -0.651290 0.000000 
0.029377 -0.511582 0.000000 
0.058186 -0.551759 0.000000 
0.114311 -0.536093 0.000000 
0.137056 -0.589741 0.000000 
0.186430 -0.587214 0.000000 
0.029568 -0.410527 0.000000 
0.058945 -0.448648 0.000000 
0.116563 -0.429002 0.000000 
0.143120 -0.476270 0.000000 
0.196633 -0.467562 0.000000 
0.217198 -0.524858 0.000000 
0.265318 -0.524059 0.000000 
0.029759 -0.309473 0.000000 
0.059328 -0.346539 0.000000 
0.117890 -0.323833 0.000000 
0.145749 -0.368176 0.000000 
0.201664 -0.354702 0.000000 
0.225992 -0.406819 0.000000 
0.278030 -0.400953 0.000000 
0.296791 -0.460896 0.000000 
0.344206 -0.460903 0.000000 
VECTORS X_EC float 
0.338794 0.211161 0.000000 
-0.609100 -0.707587 0.000000 
0.713312 -0.596446 0.000000 
0.374519 0.784124 0.000000 
0.423588 0.427393 0.000000 
-0.218274 0.461497 0.000000 
-0.513962 -0.262742 0.000000 
0.756418 -0.051256 0.000000 
0.381900 -0.593648 0.000000 
-0.550868 -0.425210 0.000000 
0.823577 -0.414414 0.000000 
0.556234 0.812082 0.000000 
-0.139443 0.929651 0.000000 
-0.484677 0.291526 0.000000 
0.766286 0.556741 0.000000 
0.384386 0.042121 0.000000 
0.474677 0.722187 0.000000 
-0.141715 0.722091 0.000000 
-0.385608 -0.087137 0.000000 
0.937896 -0.007942 0.000000 
0.621631 -0.711522 0.000000 
-0.105264 -0.529623 0.000000 
-0.467428 0.871751 0.000000 
0.771260 -0.821721 0.000000 
0.386873 0.677890 0.000000 
0.761262 0.761296 0.000000 
0.108942 -0.957328 0.000000 
-0.397202 0.561833 0.000000 
-0.142083 -0.099442 0.000000 
-0.595936 -0.658217 0.000000 
0.978194 0.841917 0.000000 
-0.660903 0.150292 0.000000 
0.724964 -0.310228 0.000000 
0.899809 -0.952477 0.000000 
0.685384 -0.357165 0.000000 
0.287229 -0.858323 0.000000 
0.702895 0.442348 0.000000 
0.180633 -0.049171 0.000000 
0.445811 -0.727330 0.000000 
-0.220880 0.829884 0.000000 
-0.071546 0.198958 0.000000 
-0.033296 -0.056113 0.000000 
-0.417537 -0.556622 0.000000 
0.039645 0.740815 0.000000 
-0.441768 0.240944 0.000000 
-0.109248 -0.454507 0.000000 
-0.699407 -0.931262 0.000000 
-0.474522 0.401459 0.000000 
0.820030 -0.025535 0.000000 
0.957100 -0.649607 0.000000 
0.610485 -0.552698 0.000000 
-0.761092 0.716921 0.000000 
-0.714655 0.006184 0.000000 
-0.057734 -0.198983 0.000000 
-0.178789 -0.045074 0.000000 
-0.067979 -0.702501 0.000000 
0.677748 -0.840704 0.000000 
0.641556 0.373551 0.000000 
-0.765897 0.115072 0.000000 
0.393446 -0.817065 0.000000 
0.522510 0.547205 0.000000 
-0.691820 0.448660 0.000000 
-0.647393 -0.281822 0.000000 
0.028512 -0.489349 0.000000 
-0.053800 0.693291 0.000000 
0.514316 0.421160 0.000000 
0.965681 0.410944 0.000000 
-0.897068 -0.213085 0.000000 
-0.083078 -0.279938 0.000000 
-0.006893 -0.982463 0.000000 
0.724017 0.853905 0.000000 
0.714996 0.077501 0.000000 
-0.642413 -0.155956 0.000000 
-0.760780 -0.994937 0.000000 
-0.205471 0.727248 0.000000 
0.000000 -0.247396 0.000000 
-0.564049 -0.945584 0.000000 
0.000000 0.648980 0.000000 
0.564049 -0.945584 0.000000 
0.866949 0.299072 0.000000 
-0.569003 -0.020859 0.000000 
0.000000 0.498429 0.000000 
0.569003 -0.020859 0.000000 
-0.866949 0.299072 0.000000 
0.299194 -0.470678 0.000000 
0.858290 -0.762262 0.000000 
-0.577662 -0.185816 0.000000 
0.000000 -0.605194 0.000000 
0.577662 -0.185816 0.000000 
-0.858290 -0.762262 0.000000 
-0.299194 -0.470678 0.000000 
-0.268560 0.759572 0.000000 
0.286830 0.481930 0.000000 
0.844677 -0.898871 0.000000 
-0.578910 0.724966 0.000000 
0.000000 -0.783630 0.000000 
0.578910 0.724966 0.000000 
-0.844677 -0.898871 0.000000 
-0.286830 0.481930 0.000000 
0.268560 0.759572 0.000000 
-0.610485 -0.552698 0.000000 
0.057734 -0.198983 0.000000 
0.714655 0.006184 0.000000 
0.761092 0.716921 0.000000 
0.765897 0.115072 0.000000 
-0.641556 0.373551 0.000000 
-0.677748 -0.840704 0.000000 
0.067979 -0.702501 0.000000 
0.178789 -0.045074 0.000000 
-0.514316 0.421160 0.000000 
0.053800 0.693291 0.000000 
-0.028512 -0.489349 0.000000 
0.647393 -0.281822 0.000000 
0.691820 0.448661 0.000000 
-0.522510 0.547205 0.000000 
-0.393446 -0.817065 0.000000 
0.205471 0.727248 0.000000 
0.760780 -0.994937 0.000000 
0.642413 -0.155956 0.000000 
-0.714996 0.077501 0.000000 
-0.724017 0.853905 0.000000 
0.006894 -0.982463 0.000000 
0.083078 -0.279938 0.000000 
0.897068 -0.213085 0.000000 
-0.965681 0.410944 0.000000 
-0.761262 0.761296 0.000000 
0.142083 -0.099442 0.000000 
0.397202 0.561833 0.000000 
-0.108942 -0.957328 0.000000 
-0.899809 -0.952477 0.000000 
-0.724964 -0.310228 0.000000 
0.660903 0.150292 0.000000 
-0.978194 0.841917 0.000000 
0.595936 -0.658217 0.000000 
0.071546 0.198958 0.000000 
0.220880 0.829884 0.000000 
-0.445811 -0.727330 0.000000 
-0.180633 -0.049171 0.000000 
-0.702895 0.442348 0.000000 
-0.287229 -0.858323 0.000000 
-0.685384 -0.357165 0.000000 
-0.957100 -0.649607 0.000000 
-0.820030 -0.025535 0.000000 
0.474522 0.401459 0.000000 
0.699407 -0.931262 0.000000 
0.109248 -0.454507 0.000000 
0.441768 0.240944 0.000000 
-0.039645 0.740815 0.000000 
0.417537 -0.556622 0.000000 
0.033296 -0.056113 0.000000 
-0.338794 0.211161 0.000000 
-0.374519 0.784124 0.000000 
-0.713312 -0.596446 0.000000 
0.609100 -0.707587 0.000000 
-0.381900 -0.593648 0.000000 
-0.756418 -0.051256 0.000000 
0.513962 -0.262742 0.000000 
0.218274 0.461497 0.000000 
-0.423588 0.427394 0.000000 
-0.384386 0.042121 0.000000 
-0.766286 0.556741 0.000000 
0.484677 0.291526 0.000000 
0.139443 0.929651 0.000000 
-0.556234 0.812082 0.000000 
-0.823577 -0.414414 0.000000 
0.550868 -0.425210 0.000000 
-0.386873 0.677890 0.000000 
-0.771260 -0.821721 0.000000 
0.467428 0.871751 0.000000 
0.105264 -0.529623 0.000000 
-0.621631 -0.711522 0.000000 
-0.937896 -0.007942 0.000000 
0.385608 -0.087137 0.000000 
0.141715 0.722091 0.000000 
-0.474677 0.722187 0.000000 
CELL_DATA 175 
SCALARS MASS float 
LOOKUP_TABLE default 
0.781831 
0.864274 
0.946717 
0.864274 
0.881307 
0.921110 
0.858535 
0.921110 
0.881307 
0.887046 
0.910001 
0.869829 
0.915556 
0.869829 
0.910001 
0.887046 
0.892784 
0.915740 
0.892784 
0.927218 
0.892784 
0.927218 
0.892784 
0.915740 
0.892784 
0.781831 
0.864274 
0.946717 
0.864274 
0.881307 
0.921110 
0.858535 
0.921110 
0.881307 
0.887046 
0.910001 
0.869829 
0.915556 
0.869829 
0.910001 
0.887046 
0.892784 
0.915740 
0.892784 
0.927218 
0.892784 
0.927218 
0.892784 
0.915740 
0.892784 
0.781831 
0.864274 
0.946717 
0.864274 
0.881307 
0.921110 
0.858535 
0.921110 
0.881307 
0.887046 
0.910001 
0.869829 
0.915556 
0.869829 
0.910001 
0.887046 
0.892784 
0.915740 
0.892784 
0.927218 
0.892784 
0.927218 
0.892784 
0.915740 
0.892784 
0.781831 
0.864274 
0.946717 
0.864274 
0.881307 
0.921110 
0.858535 
0.921110 
0.881307 
0.887046 
0.910001 
0.869829 
0.915556 
0.869829 
0.910001 
0.887046 
0.892784 
0.915740 
0.892784 
0.927218 
0.892784 
0.927218 
0.892784 
0.915740 
0.892784 
0.781831 
0.864274 
0.946717 
0.864274 
0.881307 
0.921110 
0.858535 
0.921110 
0.881307 
0.887046 
0.910001 
0.869829 
0.915556 
0.869829 
0.910001 
0.887046 
0.892784 
0.915740 
0.892784 
0.927218 
0.892784 
0.927218 
0.892784 
0.915740 
0.892784 
0.781831 
0.864274 
0.946717 
0.864274 
0.881307 
0.921110 
0.858535 
0.921110 
0.881307 
0.887046 
0.910001 
0.869829 
0.915556 
0.869829 
0.910001 
0.887046 
0.892784 
0.915740 
0.892784 
0.927218 
0.892784 
0.927218 
0.892784 
0.915740 
0.892784 
0.781831 
0.864274 
0.946717 
0.864274 
0.881307 
0.921110 
0.858535 
0.921110 
0.881307 
0.887046 
0.910001 
0.869829 
0.915556 
0.869829 
0.910001 
0.887046 
0.892784 
0.915740 
0.892784 
0.927218 
0.892784 
0.927218 
0.892784 
0.915740 
0.892784 
SCALARS MASS float 
LOOKUP_TABLE default 
0.781831 
0.864274 
0.946717 
0.864274 
0.881307 
0.921110 
0.858535 
0.921110 
0.881307 
0.887046 
0.910001 
0.869829 
0.915556 
0.869829 
0.910001 
0.887046 
0.892784 
0.915740 
0.892784 
0.927218 
0.892784 
0.927218 
0.892784 
0.915740 
0.892784 
0.781831 
0.864274 
0.946717 
0.864274 
0.881307 
0.921110 
0.858535 
0.921110 
0.881307 
0.887046 
0.910001 
0.869829 
0.915556 
0.869829 
0.910001 
0.887046 
0.892784 
0.915740 
0.892784 
0.927218 
0.892784 
0.927218 
0.892784 
0.915740 
0.892784 
0.781831 
0.864274 
0.946717 
0.864274 
0.881307 
0.921110 
0.858535 
0.921110 
0.881307 
0.887046 
0.910001 
0.869829 
0.915556 
0.869829 
0.910001 
0.887046 
0.892784 
0.915740 
0.892784 
0.927218 
0.892784 
0.927218 
0.892784 
0.915740 
0.892784 
0.781831 
0.864274 
0.946717 
0.864274 
0.881307 
0.921110 
0.858535 
0.921110 
0.881307 
0.887046 
0.910001 
0.869829 
0.915556 
0.869829 
0.910001 
0.887046 
0.892784 
0.915740 
0.892784 
0.927218 
0.892784 
0.927218 
0.892784 
0.915740 
0.892784 
0.781831 
0.864274 
0.946717 
0.864274 
0.881307 
0.921110 
0.858535 
0.921110 
0.881307 
0.887046 
0.910001 
0.869829 
0.915556 
0.869829 
0.910001 
0.887046 
0.892784 
0.915740 
0.892784 
0.927218 
0.892784 
0.927218 
0.892784 
0.915740 
0.892784 
0.781831 
0.864274 
0.946717 
0.864274 
0.881307 
0.921110 
0.858535 
0.921110 
0.881307 
0.887046 
0.910001 
0.869829 
0.915556 
0.869829 
0.910001 
0.887046 
0.892784 
0.915740 
0.892784 
0.927218 
0.892784 
0.927218 
0.892784 
0.915740 
0.892784 
0.781831 
0.864274 
0.946717 
0.864274 
0.881307 
0.921110 
0.858535 
0.921110 
0.881307 
0.887046 
0.910001 
0.869829 
0.915556 
0.869829 
0.910001 
0.887046 
0.892784 
0.915740 
0.892784 
0.927218 
0.892784 
0.927218 
0.892784 
0.915740 
0.892784 
SCALARS DENSITY float 
LOOKUP_TABLE default 
200.000000 
200.000000 
200.000000 
200.000000 
200.000000 
200.000000 
200.000000 
200.000000 
200.000000 
200.000000 
200.000000 
200.000000 
200.000000 
200.000000 
200.000000 
200.000000 
200.000000 
200.000000 
200.000000 
200.000000 
200.000000 
200.000000 
200.000000 
200.000000 
200.000000 
200.000000 
200.000000 
200.000000 
200.000000 
200.000000 
200.000000 
200.000000 
200.000000 
200.000000 
200.000000 
200.000000 
200.000000 
200.000000 
200.000000 
200.000000 
200.000000 
200.000000 
200.000000 
200.000000 
200.000000 
200.000000 
200.000000 
200.000000 
200.000000 
200.000000 
200.000000 
200.000000 
200.000000 
200.000000 
200.000000 
200.000000 
200.000000 
200.000000 
200.000000 
200.000000 
200.000000 
200.000000 
200.000000 
200.000000 
200.000000 
200.000000 
200.000000 
200.000000 
200.000000 
200.000000 
200.000000 
200.000000 
200.000000 
200.000000 
200.000000 
200.000000 
200.000000 
200.000000 
200.000000 
200.000000 
200.000000 
200.000000 
200.000000 
200.000000 
200.000000 
200.000000 
200.000000 
200.000000 
200.000000 
200.000000 
200.000000 
200.000000 
200.000000 
200.000000 
200.000000 
200.000000 
200.000000 
200.000000 
200.000000 
200.000000 
200.000000 
200.000000 
200.000000 
200.000000 
200.000000 
200.000000 
200.000000 
200.000000 
200.000000 
200.000000 
200.000000 
200.000000 
200.000000 
200.000000 
200.000000 
200.000000 
200.000000 
200.000000 
200.000000 
200.000000 
200.000000 
200.000000 
200.000000 
200.000000 
200.000000 
200.000000 
200.000000 
200.000000 
200.000000 
200.000000 
200.000000 
200.000000 
200.000000 
200.000000 
200.000000 
200.000000 
200.000000 
200.000000 
200.000000 
200.000000 
200.000000 
200.000000 
200.000000 
200.000000 
200.000000 
200.000000 
200.000000 
200.000000 
200.000000 
200.000000 
200.000000 
200.000000 
200.000000 
200.000000 
200.000000 
200.000000 
200.000000 
200.000000 
200.000000 
200.000000 
200.000000 
200.000000 
200.000000 
200.000000 
200.000000 
200.000000 
200.000000 
200.000000 
200.000000 
200.000000 
200.000000 
200.000000 
200.000000 
200.000000 
200.000000 
SCALARS ELEM_i float 
LOOKUP_TABLE default 
177 
204 
177 
178 
205 
205 
205 
178 
178 
232 
205 
206 
206 
206 
179 
179 
233 
233 
233 
206 
206 
206 
207 
179 
180 
177 
203 
204 
204 
230 
204 
231 
204 
204 
230 
230 
231 
231 
231 
232 
232 
257 
257 
258 
258 
258 
258 
259 
232 
232 
176 
203 
203 
203 
202 
202 
202 
203 
230 
201 
202 
229 
229 
229 
230 
230 
201 
228 
228 
228 
229 
229 
256 
256 
257 
176 
175 
176 
175 
148 
175 
175 
175 
202 
147 
147 
174 
174 
174 
201 
201 
147 
147 
146 
174 
173 
174 
200 
201 
201 
176 
149 
149 
149 
122 
149 
148 
148 
148 
122 
122 
121 
121 
121 
148 
147 
95 
94 
94 
121 
121 
120 
120 
120 
147 
177 
150 
150 
149 
150 
150 
123 
150 
122 
124 
124 
123 
123 
123 
122 
122 
124 
124 
97 
96 
96 
96 
96 
95 
95 
177 
178 
177 
150 
178 
178 
151 
151 
151 
179 
179 
152 
152 
152 
151 
124 
180 
179 
153 
152 
152 
152 
125 
125 
125 
VECTORS VELOCITY float 
0.000000 -3.894570 0.000000 
0.000000 -3.894570 0.000000 
0.000000 -3.894570 0.000000 
0.000000 -3.894570 0.000000 
0.000000 -3.894570 0.000000 
0.000000 -3.894570 0.000000 
0.000000 -3.894570 0.000000 
0.000000 -3.894570 0.000000 
0.000000 -3.894570 0.000000 
0.000000 -3.894570 0.000000 
0.000000 -3.894570 0.000000 
0.000000 -3.894570 0.000000 
0.000000 -3.894570 0.000000 
0.000000 -3.894570 0.000000 
0.000000 -3.894570 0.000000 
0.000000 -3.894570 0.000000 
-0.000000 -3.894570 0.000000 
0.000000 -3.894570 0.000000 
-0.000000 -3.894570 0.000000 
0.000000 -3.894570 0.000000 
-0.000000 -3.894570 0.000000 
0.000000 -3.894570 0.000000 
0.000000 -3.894570 0.000000 
0.000000 -3.894570 0.000000 
0.000000 -3.894570 0.000000 
0.000000 -3.894570 0.000000 
0.000000 -3.894570 0.000000 
0.000000 -3.894570 0.000000 
0.000000 -3.894570 0.000000 
0.000000 -3.894570 0.000000 
-0.000000 -3.894570 0.000000 
0.000000 -3.894570 0.000000 
-0.000000 -3.894570 0.000000 
-0.000000 -3.894570 0.000000 
0.000000 -3.894570 0.000000 
0.000000 -3.894570 0.000000 
0.000000 -3.894570 0.000000 
0.000000 -3.894570 0.000000 
0.000000 -3.894570 0.000000 
0.000000 -3.894570 0.000000 
0.000000 -3.894570 0.000000 
0.000000 -3.894570 0.000000 
0.000000 -3.894570 0.000000 
0.000000 -3.894570 0.000000 
0.000000 -3.894570 0.000000 
-0.000000 -3.894570 0.000000 
0.000000 -3.894570 0.000000 
-0.000000 -3.894570 0.000000 
0.000000 -3.894570 0.000000 
0.000000 -3.894570 0.000000 
-0.000000 -3.894570 0.000000 
-0.000000 -3.894570 0.000000 
0.000000 -3.894570 0.000000 
-0.000000 -3.894570 0.000000 
-0.000000 -3.894570 0.000000 
-0.000000 -3.894570 0.000000 
-0.000000 -3.894570 0.000000 
-0.000000 -3.894570 0.000000 
-0.000000 -3.894570 0.000000 
-0.000000 -3.894570 0.000000 
-0.000000 -3.894570 0.000000 
-0.000000 -3.894570 0.000000 
-0.000000 -3.894570 0.000000 
-0.000000 -3.894570 0.000000 
-0.000000 -3.894570 0.000000 
-0.000000 -3.894570 0.000000 
-0.000000 -3.894570 0.000000 
-0.000000 -3.894570 0.000000 
0.000000 -3.894570 0.000000 
-0.000000 -3.894570 0.000000 
-0.000000 -3.894570 0.000000 
-0.000000 -3.894570 0.000000 
0.000000 -3.894570 0.000000 
0.000000 -3.894570 0.000000 
0.000000 -3.894570 0.000000 
-0.000000 -3.894570 0.000000 
-0.000000 -3.894570 0.000000 
-0.000000 -3.894570 0.000000 
-0.000000 -3.894570 0.000000 
-0.000000 -3.894570 0.000000 
-0.000000 -3.894570 0.000000 
-0.000000 -3.894570 0.000000 
-0.000000 -3.894570 0.000000 
-0.000000 -3.894570 0.000000 
-0.000000 -3.894570 0.000000 
-0.000000 -3.894570 0.000000 
-0.000000 -3.894570 0.000000 
-0.000000 -3.894570 0.000000 
0.000000 -3.894570 0.000000 
-0.000000 -3.894570 0.000000 
-0.000000 -3.894570 0.000000 
-0.000000 -3.894570 0.000000 
-0.000000 -3.894570 0.000000 
-0.000000 -3.894570 0.000000 
-0.000000 -3.894570 0.000000 
0.000000 -3.894570 0.000000 
-0.000000 -3.894570 0.000000 
0.000000 -3.894570 0.000000 
-0.000000 -3.894570 0.000000 
0.000000 -3.894570 0.000000 
-0.000000 -3.894570 0.000000 
-0.000000 -3.894570 0.000000 
-0.000000 -3.894570 0.000000 
-0.000000 -3.894570 0.000000 
-0.000000 -3.894570 0.000000 
0.000000 -3.894570 0.000000 
-0.000000 -3.894570 0.000000 
-0.000000 -3.894570 0.000000 
-0.000000 -3.894570 0.000000 
-0.000000 -3.894570 0.000000 
0.000000 -3.894570 0.000000 
0.000000 -3.894570 0.000000 
0.000000 -3.894570 0.000000 
-0.000000 -3.894570 0.000000 
-0.000000 -3.894570 0.000000 
0.000000 -3.894570 0.000000 
-0.000000 -3.894570 0.000000 
0.000000 -3.894570 0.000000 
-0.000000 -3.894570 0.000000 
0.000000 -3.894570 0.000000 
-0.000000 -3.894570 0.000000 
0.000000 -3.894570 0.000000 
-0.000000 -3.894570 0.000000 
-0.000000 -3.894570 0.000000 
-0.000000 -3.894570 0.000000 
0.000000 -3.894570 0.000000 
-0.000000 -3.894570 0.000000 
-0.000000 -3.894570 0.000000 
-0.000000 -3.894570 0.000000 
0.000000 -3.894570 0.000000 
0.000000 -3.894570 0.000000 
-0.000000 -3.894570 0.000000 
-0.000000 -3.894570 0.000000 
-0.000000 -3.894570 0.000000 
0.000000 -3.894570 0.000000 
0.000000 -3.894570 0.000000 
-0.000000 -3.894570 0.000000 
-0.000000 -3.894570 0.000000 
-0.000000 -3.894570 0.000000 
-0.000000 -3.894570 0.000000 
-0.000000 -3.894570 0.000000 
0.000000 -3.894570 0.000000 
-0.000000 -3.894570 0.000000 
0.000000 -3.894570 0.000000 
0.000000 -3.894570 0.000000 
-0.000000 -3.894570 0.000000 
-0.000000 -3.894570 0.000000 
-0.000000 -3.894570 0.000000 
-0.000000 -3.894570 0.000000 
-0.000000 -3.894570 0.000000 
0.000000 -3.894570 0.000000 
-0.000000 -3.894570 0.000000 
-0.000000 -3.894570 0.000000 
-0.000000 -3.894570 0.000000 
0.000000 -3.894570 0.000000 
-0.000000 -3.894570 0.000000 
-0.000000 -3.894570 0.000000 
0.000000 -3.894570 0.000000 
0.000000 -3.894570 0.000000 
0.000000 -3.894570 0.000000 
0.000000 -3.894570 0.000000 
-0.000000 -3.894570 0.000000 
0.000000 -3.894570 0.000000 
0.000000 -3.894570 0.000000 
0.000000 -3.894570 0.000000 
0.000000 -3.894570 0.000000 
0.000000 -3.894570 0.000000 
0.000000 -3.894570 0.000000 
0.000000 -3.894570 0.000000 
0.000000 -3.894570 0.000000 
0.000000 -3.894570 0.000000 
-0.000000 -3.894570 0.000000 
0.000000 -3.894570 0.000000 
0.000000 -3.894570 0.000000 
0.000000 -3.894570 0.000000 
TENSORS STRESS float 
-0.000000 -0.000000 0.000000 
0.000000 0.000000 0.000000 
0.000000 0.000000 0.000000 

0.000000 -0.000000 0.000000 
0.000000 0.000000 0.000000 
0.000000 0.000000 0.000000 

-0.000000 -0.000000 0.000000 
0.000000 -0.000000 0.000000 
0.000000 0.000000 0.000000 

0.000000 -0.000000 0.000000 
0.000000 0.000000 0.000000 
0.000000 0.000000 0.000000 

-0.000000 0.000000 0.000000 
0.000000 -0.000000 0.000000 
0.000000 0.000000 0.000000 

-0.000000 0.000000 0.000000 
0.000000 -0.000000 0.000000 
0.000000 0.000000 0.000000 

0.000000 -0.000000 0.000000 
0.000000 0.000000 0.000000 
0.000000 0.000000 0.000000 

0.000000 -0.000000 0.000000 
0.000000 0.000000 0.000000 
0.000000 0.000000 0.000000 

-0.000000 -0.000000 0.000000 
0.000000 -0.000000 0.000000 
0.000000 0.000000 0.000000 

-0.000000 0.000000 0.000000 
0.000000 -0.000000 0.000000 
0.000000 0.000000 0.000000 

-0.000000 -0.000000 0.000000 
0.000000 -0.000000 0.000000 
0.000000 0.000000 0.000000 

-0.000000 0.000000 0.000000 
0.000000 -0.000000 0.000000 
0.000000 0.000000 0.000000 

0.000000 0.000000 0.000000 
0.000000 0.000000 0.000000 
0.000000 0.000000 0.000000 

0.000000 0.000000 0.000000 
0.000000 0.000000 0.000000 
0.000000 0.000000 0.000000 

0.000000 0.000000 0.000000 
0.000000 -0.000000 0.000000 
0.000000 0.000000 0.000000 

-0.000000 0.000000 0.000000 
0.000000 -0.000000 0.000000 
0.000000 0.000000 0.000000 

-0.000000 -0.000000 0.000000 
0.000000 -0.000000 0.000000 
0.000000 0.000000 0.000000 

-0.000000 0.000000 0.000000 
0.000000 -0.000000 0.000000 
0.000000 0.000000 0.000000 

0.000000 -0.000000 0.000000 
0.000000 0.000000 0.000000 
0.000000 0.000000 0.000000 

-0.000000 -0.000000 0.000000 
0.000000 -0.000000 0.000000 
0.000000 0.000000 0.000000 

0.000000 -0.000000 0.000000 
0.000000 0.000000 0.000000 
0.000000 0.000000 0.000000 

0.000000 0.000000 0.000000 
0.000000 0.000000 0.000000 
0.000000 0.000000 0.000000 

-0.000000 -0.000000 0.000000 
0.000000 -0.000000 0.000000 
0.000000 0.000000 0.000000 

0.000000 -0.000000 0.000000 
0.000000 0.000000 0.000000 
0.000000 0.000000 0.000000 

0.000000 -0.000000 0.000000 
0.000000 0.000000 0.000000 
0.000000 0.000000 0.000000 

-0.000000 0.000000 0.000000 
0.000000 -0.000000 0.000000 
0.000000 0.000000 0.000000 

-0.000000 0.000000 0.000000 
0.000000 -0.000000 0.000000 
0.000000 0.000000 0.000000 

0.000000 0.000000 0.000000 
0.000000 0.000000 0.000000 
0.000000 0.000000 0.000000 

-0.000000 0.000000 0.000000 
0.000000 -0.000000 0.000000 
0.000000 0.000000 0.000000 

0.000000 0.000000 0.000000 
0.000000 0.000000 0.000000 
0.000000 0.000000 0.000000 

0.000000 0.000000 0.000000 
0.000000 0.000000 0.000000 
0.000000 0.000000 0.000000 

0.000000 0.000000 0.000000 
0.000000 0.000000 0.000000 
0.000000 0.000000 0.000000 

-0.000000 0.000000 0.000000 
0.000000 0.000000 0.000000 
0.000000 0.000000 0.000000 

-0.000000 -0.000000 0.000000 
0.000000 -0.000000 0.000000 
0.000000 0.000000 0.000000 

0.000000 0.000000 0.000000 
0.000000 0.000000 0.000000 
0.000000 0.000000 0.000000 

0.000000 0.000000 0.000000 
0.000000 0.000000 0.000000 
0.000000 0.000000 0.000000 

0.000000 0.000000 0.000000 
0.000000 -0.000000 0.000000 
0.000000 0.000000 0.000000 

-0.000000 0.000000 0.000000 
0.000000 -0.000000 0.000000 
0.000000 0.000000 0.000000 

0.000000 0.000000 0.000000 
0.000000 0.000000 0.000000 
0.000000 0.000000 0.000000 

-0.000000 0.000000 0.000000 
0.000000 -0.000000 0.000000 
0.000000 0.000000 0.000000 

0.000000 0.000000 0.000000 
0.000000 0.000000 0.000000 
0.000000 0.000000 0.000000 

-0.000000 0.000000 0.000000 
0.000000 -0.000000 0.000000 
0.000000 0.000000 0.000000 

-0.000000 0.000000 0.000000 
0.000000 -0.000000 0.000000 
0.000000 0.000000 0.000000 

0.000000 -0.000000 0.000000 
0.000000 0.000000 0.000000 
0.000000 0.000000 0.000000 

0.000000 -0.000000 0.000000 
0.000000 0.000000 0.000000 
0.000000 0.000000 0.000000 

-0.000000 -0.000000 0.000000 
0.000000 -0.000000 0.000000 
0.000000 0.000000 0.000000 

0.000000 -0.000000 0.000000 
0.000000 0.000000 0.000000 
0.000000 0.000000 0.000000 

-0.000000 0.000000 0.000000 
0.000000 -0.000000 0.000000 
0.000000 0.000000 0.000000 

-0.000000 0.000000 0.000000 
0.000000 -0.000000 0.000000 
0.000000 0.000000 0.000000 

0.000000 -0.000000 0.000000 
0.000000 0.000000 0.000000 
0.000000 0.000000 0.000000 

-0.000000 -0.000000 0.000000 
0.000000 0.000000 0.000000 
0.000000 0.000000 0.000000 

-0.000000 -0.000000 0.000000 
0.000000 -0.000000 0.000000 
0.000000 0.000000 0.000000 

-0.000000 0.000000 0.000000 
0.000000 -0.000000 0.000000 
0.000000 0.000000 0.000000 

-0.000000 -0.000000 0.000000 
0.000000 -0.000000 0.000000 
0.000000 0.000000 0.000000 

0.000000 -0.000000 0.000000 
0.000000 0.000000 0.000000 
0.000000 0.000000 0.000000 

0.000000 0.000000 0.000000 
0.000000 0.000000 0.000000 
0.000000 0.000000 0.000000 

-0.000000 0.000000 0.000000 
0.000000 -0.000000 0.000000 
0.000000 0.000000 0.000000 

0.000000 0.000000 0.000000 
0.000000 0.000000 0.000000 
0.000000 0.000000 0.000000 

0.000000 0.000000 0.000000 
0.000000 0.000000 0.000000 
0.000000 0.000000 0.000000 

-0.000000 -0.000000 0.000000 
0.000000 -0.000000 0.000000 
0.000000 0.000000 0.000000 

0.000000 -0.000000 0.000000 
0.000000 0.000000 0.000000 
0.000000 0.000000 0.000000 

0.000000 -0.000000 0.000000 
0.000000 0.000000 0.000000 
0.000000 0.000000 0.000000 

0.000000 -0.000000 0.000000 
0.000000 0.000000 0.000000 
0.000000 0.000000 0.000000 

0.000000 -0.000000 0.000000 
0.000000 0.000000 0.000000 
0.000000 0.000000 0.000000 

0.000000 0.000000 0.000000 
0.000000 0.000000 0.000000 
0.000000 0.000000 0.000000 

0.000000 0.000000 0.000000 
0.000000 0.000000 0.000000 
0.000000 0.000000 0.000000 

-0.000000 -0.000000 0.000000 
0.000000 -0.000000 0.000000 
0.000000 0.000000 0.000000 

-0.000000 0.000000 0.000000 
0.000000 -0.000000 0.000000 
0.000000 0.000000 0.000000 

-0.000000 0.000000 0.000000 
0.000000 -0.000000 0.000000 
0.000000 0.000000 0.000000 

-0.000000 0.000000 0.000000 
0.000000 0.000000 0.000000 
0.000000 0.000000 0.000000 

0.000000 0.000000 0.000000 
0.000000 0.000000 0.000000 
0.000000 0.000000 0.000000 

0.000000 -0.000000 0.000000 
0.000000 0.000000 0.000000 
0.000000 0.000000 0.000000 

-0.000000 0.000000 0.000000 
0.000000 -0.000000 0.000000 
0.000000 0.000000 0.000000 

-0.000000 0.000000 0.000000 
0.000000 -0.000000 0.000000 
0.000000 0.000000 0.000000 

0.000000 0.000000 0.000000 
0.000000 0.000000 0.000000 
0.000000 0.000000 0.000000 

-0.000000 -0.000000 0.000000 
0.000000 -0.000000 0.000000 
0.000000 0.000000 0.000000 

-0.000000 -0.000000 0.000000 
0.000000 -0.000000 0.000000 
0.000000 0.000000 0.000000 

-0.000000 -0.000000 0.000000 
0.000000 -0.000000 0.000000 
0.000000 0.000000 0.000000 

-0.000000 0.000000 0.000000 
0.000000 -0.000000 0.000000 
0.000000 0.000000 0.000000 

-0.000000 0.000000 0.000000 
0.000000 -0.000000 0.000000 
0.000000 0.000000 0.000000 

-0.000000 -0.000000 0.000000 
0.000000 -0.000000 0.000000 
0.000000 0.000000 0.000000 

0.000000 -0.000000 0.000000 
0.000000 0.000000 0.000000 
0.000000 0.000000 0.000000 

0.000000 -0.000000 0.000000 
0.000000 0.000000 0.000000 
0.000000 0.000000 0.000000 

0.000000 0.000000 0.000000 
0.000000 0.000000 0.000000 
0.000000 0.000000 0.000000 

-0.000000 0.000000 0.000000 
0.000000 -0.000000 0.000000 
0.000000 0.000000 0.000000 

0.000000 0.000000 0.000000 
0.000000 0.000000 0.000000 
0.000000 0.000000 0.000000 

-0.000000 -0.000000 0.000000 
0.000000 -0.000000 0.000000 
0.000000 0.000000 0.000000 

-0.000000 -0.000000 0.000000 
0.000000 -0.000000 0.000000 
0.000000 0.000000 0.000000 

-0.000000 -0.000000 0.000000 
0.000000 -0.000000 0.000000 
0.000000 0.000000 0.000000 

0.000000 -0.000000 0.000000 
0.000000 0.000000 0.000000 
0.000000 0.000000 0.000000 

-0.000000 -0.000000 0.000000 
0.000000 -0.000000 0.000000 
0.000000 0.000000 0.000000 

0.000000 0.000000 0.000000 
0.000000 0.000000 0.000000 
0.000000 0.000000 0.000000 

0.000000 0.000000 0.000000 
0.000000 0.000000 0.000000 
0.000000 0.000000 0.000000 

-0.000000 0.000000 0.000000 
0.000000 -0.000000 0.000000 
0.000000 0.000000 0.000000 

-0.000000 0.000000 0.000000 
0.000000 -0.000000 0.000000 
0.000000 0.000000 0.000000 

0.000000 0.000000 0.000000 
0.000000 0.000000 0.000000 
0.000000 0.000000 0.000000 

0.000000 0.000000 0.000000 
0.000000 0.000000 0.000000 
0.000000 0.000000 0.000000 

-0.000000 0.000000 0.000000 
0.000000 -0.000000 0.000000 
0.000000 0.000000 0.000000 

-0.000000 -0.000000 0.000000 
0.000000 -0.000000 0.000000 
0.000000 0.000000 0.000000 

-0.000000 -0.000000 0.000000 
0.000000 -0.000000 0.000000 
0.000000 0.000000 0.000000 

-0.000000 -0.000000 0.000000 
0.000000 -0.000000 0.000000 
0.000000 0.000000 0.000000 

-0.000000 0.000000 0.000000 
0.000000 -0.000000 0.000000 
0.000000 0.000000 0.000000 

0.000000 0.000000 0.000000 
0.000000 0.000000 0.000000 
0.000000 0.000000 0.000000 

-0.000000 0.000000 0.000000 
0.000000 -0.000000 0.000000 
0.000000 0.000000 0.000000 

-0.000000 0.000000 0.000000 
0.000000 -0.000000 0.000000 
0.000000 0.000000 0.000000 

-0.000000 0.000000 0.000000 
0.000000 0.000000 0.000000 
0.000000 0.000000 0.000000 

0.000000 -0.000000 0.000000 
0.000000 0.000000 0.000000 
0.000000 0.000000 0.000000 

0.000000 -0.000000 0.000000 
0.000000 0.000000 0.000000 
0.000000 0.000000 0.000000 

0.000000 -0.000000 0.000000 
0.000000 0.000000 0.000000 
0.000000 0.000000 0.000000 

-0.000000 -0.000000 0.000000 
0.000000 -0.000000 0.000000 
0.000000 0.000000 0.000000 

-0.000000 -0.000000 0.000000 
0.000000 -0.000000 0.000000 
0.000000 0.000000 0.000000 

0.000000 -0.000000 0.000000 
0.000000 0.000000 0.000000 
0.000000 0.000000 0.000000 

0.000000 0.000000 0.000000 
0.000000 0.000000 0.000000 
0.000000 0.000000 0.000000 

-0.000000 -0.000000 0.000000 
0.000000 -0.000000 0.000000 
0.000000 0.000000 0.000000 

0.000000 -0.000000 0.000000 
0.000000 0.000000 0.000000 
0.000000 0.000000 0.000000 

-0.000000 0.000000 0.000000 
0.000000 -0.000000 0.000000 
0.000000 0.000000 0.000000 

-0.000000 -0.000000 0.000000 
0.000000 -0.000000 0.000000 
0.000000 0.000000 0.000000 

0.000000 -0.000000 0.000000 
0.000000 0.000000 0.000000 
0.000000 0.000000 0.000000 

0.000000 -0.000000 0.000000 
0.000000 0.000000 0.000000 
0.000000 0.000000 0.000000 

0.000000 -0.000000 0.000000 
0.000000 0.000000 0.000000 
0.000000 0.000000 0.000000 

-0.000000 0.000000 0.000000 
0.000000 -0.000000 0.000000 
0.000000 0.000000 0.000000 

0.000000 0.000000 0.000000 
0.000000 0.000000 0.000000 
0.000000 0.000000 0.000000 

0.000000 -0.000000 0.000000 
0.000000 0.000000 0.000000 
0.000000 0.000000 0.000000 

-0.000000 -0.000000 0.000000 
0.000000 -0.000000 0.000000 
0.000000 0.000000 0.000000 

0.000000 0.000000 0.000000 
0.000000 0.000000 0.000000 
0.000000 0.000000 0.000000 

0.000000 0.000000 0.000000 
0.000000 0.000000 0.000000 
0.000000 0.000000 0.000000 

-0.000000 0.000000 0.000000 
0.000000 -0.000000 0.000000 
0.000000 0.000000 0.000000 

-0.000000 0.000000 0.000000 
0.000000 -0.000000 0.000000 
0.000000 0.000000 0.000000 

0.000000 0.000000 0.000000 
0.000000 0.000000 0.000000 
0.000000 0.000000 0.000000 

-0.000000 -0.000000 0.000000 
0.000000 -0.000000 0.000000 
0.000000 0.000000 0.000000 

-0.000000 0.000000 0.000000 
0.000000 -0.000000 0.000000 
0.000000 0.000000 0.000000 

-0.000000 -0.000000 0.000000 
0.000000 -0.000000 0.000000 
0.000000 0.000000 0.000000 

0.000000 -0.000000 0.000000 
0.000000 0.000000 0.000000 
0.000000 0.000000 0.000000 

-0.000000 -0.000000 0.000000 
0.000000 -0.000000 0.000000 
0.000000 0.000000 0.000000 

-0.000000 -0.000000 0.000000 
0.000000 -0.000000 0.000000 
0.000000 0.000000 0.000000 

-0.000000 -0.000000 0.000000 
0.000000 -0.000000 0.000000 
0.000000 0.000000 0.000000 

-0.000000 -0.000000 0.000000 
0.000000 -0.000000 0.000000 
0.000000 0.000000 0.000000 

0.000000 -0.000000 0.000000 
0.000000 0.000000 0.000000 
0.000000 0.000000 0.000000 

0.000000 -0.000000 0.000000 
0.000000 0.000000 0.000000 
0.000000 0.000000 0.000000 

0.000000 -0.000000 0.000000 
0.000000 0.000000 0.000000 
0.000000 0.000000 0.000000 

-0.000000 0.000000 0.000000 
0.000000 -0.000000 0.000000 
0.000000 0.000000 0.000000 

0.000000 0.000000 0.000000 
0.000000 0.000000 0.000000 
0.000000 0.000000 0.000000 

0.000000 -0.000000 0.000000 
0.000000 0.000000 0.000000 
0.000000 0.000000 0.000000 

-0.000000 0.000000 0.000000 
0.000000 -0.000000 0.000000 
0.000000 0.000000 0.000000 

0.000000 -0.000000 0.000000 
0.000000 0.000000 0.000000 
0.000000 0.000000 0.000000 

-0.000000 -0.000000 0.000000 
0.000000 -0.000000 0.000000 
0.000000 0.000000 0.000000 

0.000000 0.000000 0.000000 
0.000000 0.000000 0.000000 
0.000000 0.000000 0.000000 

-0.000000 0.000000 0.000000 
0.000000 -0.000000 0.000000 
0.000000 0.000000 0.000000 

-0.000000 0.000000 0.000000 
0.000000 0.000000 0.000000 
0.000000 0.000000 0.000000 

-0.000000 -0.000000 0.000000 
0.000000 -0.000000 0.000000 
0.000000 0.000000 0.000000 

-0.000000 -0.000000 0.000000 
0.000000 -0.000000 0.000000 
0.000000 0.000000 0.000000 

0.000000 -0.000000 0.000000 
0.000000 0.000000 0.000000 
0.000000 0.000000 0.000000 

0.000000 -0.000000 0.000000 
0.000000 0.000000 0.000000 
0.000000 0.000000 0.000000 

0.000000 -0.000000 0.000000 
0.000000 0.000000 0.000000 
0.000000 0.000000 0.000000 

-0.000000 -0.000000 0.000000 
0.000000 -0.000000 0.000000 
0.000000 0.000000 0.000000 

-0.000000 -0.000000 0.000000 
0.000000 -0.000000 0.000000 
0.000000 0.000000 0.000000 

0.000000 -0.000000 0.000000 
0.000000 0.000000 0.000000 
0.000000 0.000000 0.000000 

0.000000 -0.000000 0.000000 
0.000000 0.000000 0.000000 
0.000000 0.000000 0.000000 

0.000000 0.000000 0.000000 
0.000000 0.000000 0.000000 
0.000000 0.000000 0.000000 

0.000000 0.000000 0.000000 
0.000000 0.000000 0.000000 
0.000000 0.000000 0.000000 

0.000000 0.000000 0.000000 
0.000000 0.000000 0.000000 
0.000000 0.000000 0.000000 

0.000000 0.000000 0.000000 
0.000000 0.000000 0.000000 
0.000000 0.000000 0.000000 

-0.000000 0.000000 0.000000 
0.000000 -0.000000 0.000000 
0.000000 0.000000 0.000000 

0.000000 0.000000 0.000000 
0.000000 0.000000 0.000000 
0.000000 0.000000 0.000000 

0.000000 -0.000000 0.000000 
0.000000 0.000000 0.000000 
0.000000 0.000000 0.000000 

-0.000000 -0.000000 0.000000 
0.000000 -0.000000 0.000000 
0.000000 0.000000 0.000000 

0.000000 -0.000000 0.000000 
0.000000 0.000000 0.000000 
0.000000 0.000000 0.000000 

-0.000000 -0.000000 0.000000 
0.000000 -0.000000 0.000000 
0.000000 0.000000 0.000000 

-0.000000 -0.000000 0.000000 
0.000000 -0.000000 0.000000 
0.000000 0.000000 0.000000 

0.000000 0.000000 0.000000 
0.000000 -0.000000 0.000000 
0.000000 0.000000 0.000000 

0.000000 -0.000000 0.000000 
0.000000 0.000000 0.000000 
0.000000 0.000000 0.000000 

-0.000000 -0.000000 0.000000 
0.000000 -0.000000 0.000000 
0.000000 0.000000 0.000000 

-0.000000 -0.000000 0.000000 
0.000000 -0.000000 0.000000 
0.000000 0.000000 0.000000 

-0.000000 -0.000000 0.000000 
0.000000 -0.000000 0.000000 
0.000000 0.000000 0.000000 

-0.000000 -0.000000 0.000000 
0.000000 -0.000000 0.000000 
0.000000 0.000000 0.000000 

TENSORS STRAIN float 
-0.000000 -0.000000 0.000000 
0.000000 0.000000 0.000000 
0.000000 0.000000 0.000000 

-0.000000 -0.000000 0.000000 
0.000000 0.000000 0.000000 
0.000000 0.000000 0.000000 

0.000000 -0.000000 0.000000 
0.000000 -0.000000 0.000000 
0.000000 0.000000 0.000000 

0.000000 -0.000000 0.000000 
0.000000 0.000000 0.000000 
0.000000 0.000000 0.000000 

-0.000000 0.000000 0.000000 
0.000000 -0.000000 0.000000 
0.000000 0.000000 0.000000 

-0.000000 0.000000 0.000000 
0.000000 0.000000 0.000000 
0.000000 0.000000 0.000000 

-0.000000 -0.000000 0.000000 
0.000000 0.000000 0.000000 
0.000000 0.000000 0.000000 

0.000000 -0.000000 0.000000 
0.000000 0.000000 0.000000 
0.000000 0.000000 0.000000 

0.000000 -0.000000 0.000000 
0.000000 -0.000000 0.000000 
0.000000 0.000000 0.000000 

-0.000000 0.000000 0.000000 
0.000000 0.000000 0.000000 
0.000000 0.000000 0.000000 

-0.000000 -0.000000 0.000000 
0.000000 -0.000000 0.000000 
0.000000 0.000000 0.000000 

-0.000000 0.000000 0.000000 
0.000000 0.000000 0.000000 
0.000000 0.000000 0.000000 

-0.000000 0.000000 0.000000 
0.000000 0.000000 0.000000 
0.000000 0.000000 0.000000 

-0.000000 0.000000 0.000000 
0.000000 0.000000 0.000000 
0.000000 0.000000 0.000000 

0.000000 0.000000 0.000000 
0.000000 -0.000000 0.000000 
0.000000 0.000000 0.000000 

0.000000 0.000000 0.000000 
0.000000 -0.000000 0.000000 
0.000000 0.000000 0.000000 

0.000000 -0.000000 0.000000 
0.000000 -0.000000 0.000000 
0.000000 0.000000 0.000000 

0.000000 0.000000 0.000000 
0.000000 -0.000000 0.000000 
0.000000 0.000000 0.000000 

0.000000 -0.000000 0.000000 
0.000000 -0.000000 0.000000 
0.000000 0.000000 0.000000 

0.000000 -0.000000 0.000000 
0.000000 -0.000000 0.000000 
0.000000 0.000000 0.000000 

0.000000 -0.000000 0.000000 
0.000000 0.000000 0.000000 
0.000000 0.000000 0.000000 

0.000000 0.000000 0.000000 
0.000000 -0.000000 0.000000 
0.000000 0.000000 0.000000 

0.000000 -0.000000 0.000000 
0.000000 -0.000000 0.000000 
0.000000 0.000000 0.000000 

0.000000 -0.000000 0.000000 
0.000000 -0.000000 0.000000 
0.000000 0.000000 0.000000 

0.000000 -0.000000 0.000000 
0.000000 -0.000000 0.000000 
0.000000 0.000000 0.000000 

-0.000000 0.000000 0.000000 
0.000000 0.000000 0.000000 
0.000000 0.000000 0.000000 

-0.000000 0.000000 0.000000 
0.000000 0.000000 0.000000 
0.000000 0.000000 0.000000 

-0.000000 0.000000 0.000000 
0.000000 0.000000 0.000000 
0.000000 0.000000 0.000000 

-0.000000 0.000000 0.000000 
0.000000 0.000000 0.000000 
0.000000 0.000000 0.000000 

0.000000 0.000000 0.000000 
0.000000 -0.000000 0.000000 
0.000000 0.000000 0.000000 

-0.000000 0.000000 0.000000 
0.000000 0.000000 0.000000 
0.000000 0.000000 0.000000 

0.000000 0.000000 0.000000 
0.000000 -0.000000 0.000000 
0.000000 0.000000 0.000000 

-0.000000 0.000000 0.000000 
0.000000 0.000000 0.000000 
0.000000 0.000000 0.000000 

-0.000000 -0.000000 0.000000 
0.000000 -0.000000 0.000000 
0.000000 0.000000 0.000000 

0.000000 0.000000 0.000000 
0.000000 -0.000000 0.000000 
0.000000 0.000000 0.000000 

0.000000 0.000000 0.000000 
0.000000 -0.000000 0.000000 
0.000000 0.000000 0.000000 

0.000000 0.000000 0.000000 
0.000000 -0.000000 0.000000 
0.000000 0.000000 0.000000 

0.000000 0.000000 0.000000 
0.000000 -0.000000 0.000000 
0.000000 0.000000 0.000000 

0.000000 0.000000 0.000000 
0.000000 -0.000000 0.000000 
0.000000 0.000000 0.000000 

0.000000 0.000000 0.000000 
0.000000 -0.000000 0.000000 
0.000000 0.000000 0.000000 

-0.000000 0.000000 0.000000 
0.000000 0.000000 0.000000 
0.000000 0.000000 0.000000 

-0.000000 0.000000 0.000000 
0.000000 0.000000 0.000000 
0.000000 0.000000 0.000000 

-0.000000 0.000000 0.000000 
0.000000 0.000000 0.000000 
0.000000 0.000000 0.000000 

0.000000 -0.000000 0.000000 
0.000000 -0.000000 0.000000 
0.000000 0.000000 0.000000 

0.000000 -0.000000 0.000000 
0.000000 0.000000 0.000000 
0.000000 0.000000 0.000000 

0.000000 -0.000000 0.000000 
0.000000 -0.000000 0.000000 
0.000000 0.000000 0.000000 

0.000000 -0.000000 0.000000 
0.000000 -0.000000 0.000000 
0.000000 0.000000 0.000000 

0.000000 0.000000 0.000000 
0.000000 -0.000000 0.000000 
0.000000 0.000000 0.000000 

-0.000000 0.000000 0.000000 
0.000000 0.000000 0.000000 
0.000000 0.000000 0.000000 

-0.000000 -0.000000 0.000000 
0.000000 0.000000 0.000000 
0.000000 0.000000 0.000000 

-0.000000 -0.000000 0.000000 
0.000000 0.000000 0.000000 
0.000000 0.000000 0.000000 

0.000000 -0.000000 0.000000 
0.000000 -0.000000 0.000000 
0.000000 0.000000 0.000000 

0.000000 0.000000 0.000000 
0.000000 -0.000000 0.000000 
0.000000 0.000000 0.000000 

0.000000 -0.000000 0.000000 
0.000000 -0.000000 0.000000 
0.000000 0.000000 0.000000 

-0.000000 -0.000000 0.000000 
0.000000 0.000000 0.000000 
0.000000 0.000000 0.000000 

0.000000 0.000000 0.000000 
0.000000 -0.000000 0.000000 
0.000000 0.000000 0.000000 

0.000000 0.000000 0.000000 
0.000000 -0.000000 0.000000 
0.000000 0.000000 0.000000 

-0.000000 0.000000 0.000000 
0.000000 0.000000 0.000000 
0.000000 0.000000 0.000000 

0.000000 0.000000 0.000000 
0.000000 -0.000000 0.000000 
0.000000 0.000000 0.000000 

-0.000000 -0.000000 0.000000 
0.000000 0.000000 0.000000 
0.000000 0.000000 0.000000 

-0.000000 -0.000000 0.000000 
0.000000 0.000000 0.000000 
0.000000 0.000000 0.000000 

-0.000000 -0.000000 0.000000 
0.000000 0.000000 0.000000 
0.000000 0.000000 0.000000 

0.000000 -0.000000 0.000000 
0.000000 0.000000 0.000000 
0.000000 0.000000 0.000000 

0.000000 -0.000000 0.000000 
0.000000 0.000000 0.000000 
0.000000 0.000000 0.000000 

0.000000 0.000000 0.000000 
0.000000 -0.000000 0.000000 
0.000000 0.000000 0.000000 

0.000000 0.000000 0.000000 
0.000000 0.000000 0.000000 
0.000000 0.000000 0.000000 

-0.000000 -0.000000 0.000000 
0.000000 -0.000000 0.000000 
0.000000 0.000000 0.000000 

-0.000000 0.000000 0.000000 
0.000000 0.000000 0.000000 
0.000000 0.000000 0.000000 

-0.000000 0.000000 0.000000 
0.000000 0.000000 0.000000 
0.000000 0.000000 0.000000 

-0.000000 0.000000 0.000000 
0.000000 0.000000 0.000000 
0.000000 0.000000 0.000000 

-0.000000 0.000000 0.000000 
0.000000 0.000000 0.000000 
0.000000 0.000000 0.000000 

-0.000000 -0.000000 0.000000 
0.000000 0.000000 0.000000 
0.000000 0.000000 0.000000 

-0.000000 0.000000 0.000000 
0.000000 0.000000 0.000000 
0.000000 0.000000 0.000000 

-0.000000 0.000000 0.000000 
0.000000 0.000000 0.000000 
0.000000 0.000000 0.000000 

-0.000000 0.000000 0.000000 
0.000000 0.000000 0.000000 
0.000000 0.000000 0.000000 

-0.000000 -0.000000 0.000000 
0.000000 0.000000 0.000000 
0.000000 0.000000 0.000000 

-0.000000 -0.000000 0.000000 
0.000000 -0.000000 0.000000 
0.000000 0.000000 0.000000 

-0.000000 -0.000000 0.000000 
0.000000 -0.000000 0.000000 
0.000000 0.000000 0.000000 

-0.000000 0.000000 0.000000 
0.000000 -0.000000 0.000000 
0.000000 0.000000 0.000000 

0.000000 0.000000 0.000000 
0.000000 -0.000000 0.000000 
0.000000 0.000000 0.000000 

0.000000 -0.000000 0.000000 
0.000000 -0.000000 0.000000 
0.000000 0.000000 0.000000 

0.000000 -0.000000 0.000000 
0.000000 -0.000000 0.000000 
0.000000 0.000000 0.000000 

0.000000 -0.000000 0.000000 
0.000000 -0.000000 0.000000 
0.000000 0.000000 0.000000 

-0.000000 0.000000 0.000000 
0.000000 0.000000 0.000000 
0.000000 0.000000 0.000000 

-0.000000 0.000000 0.000000 
0.000000 -0.000000 0.000000 
0.000000 0.000000 0.000000 

-0.000000 0.000000 0.000000 
0.000000 0.000000 0.000000 
0.000000 0.000000 0.000000 

-0.000000 -0.000000 0.000000 
0.000000 0.000000 0.000000 
0.000000 0.000000 0.000000 

-0.000000 -0.000000 0.000000 
0.000000 -0.000000 0.000000 
0.000000 0.000000 0.000000 

-0.000000 -0.000000 0.000000 
0.000000 -0.000000 0.000000 
0.000000 0.000000 0.000000 

-0.000000 -0.000000 0.000000 
0.000000 0.000000 0.000000 
0.000000 0.000000 0.000000 

0.000000 -0.000000 0.000000 
0.000000 -0.000000 0.000000 
0.000000 0.000000 0.000000 

0.000000 0.000000 0.000000 
0.000000 0.000000 0.000000 
0.000000 0.000000 0.000000 

0.000000 0.000000 0.000000 
0.000000 0.000000 0.000000 
0.000000 0.000000 0.000000 

0.000000 0.000000 0.000000 
0.000000 -0.000000 0.000000 
0.000000 0.000000 0.000000 

-0.000000 0.000000 0.000000 
0.000000 0.000000 0.000000 
0.000000 0.000000 0.000000 

-0.000000 0.000000 0.000000 
0.000000 0.000000 0.000000 
0.000000 0.000000 0.000000 

-0.000000 0.000000 0.000000 
0.000000 0.000000 0.000000 
0.000000 0.000000 0.000000 

-0.000000 0.000000 0.000000 
0.000000 0.000000 0.000000 
0.000000 0.000000 0.000000 

-0.000000 -0.000000 0.000000 
0.000000 -0.000000 0.000000 
0.000000 0.000000 0.000000 

-0.000000 -0.000000 0.000000 
0.000000 0.000000 0.000000 
0.000000 0.000000 0.000000 

-0.000000 -0.000000 0.000000 
0.000000 0.000000 0.000000 
0.000000 0.000000 0.000000 

-0.000000 0.000000 0.000000 
0.000000 -0.000000 0.000000 
0.000000 0.000000 0.000000 

-0.000000 0.000000 0.000000 
0.000000 0.000000 0.000000 
0.000000 0.000000 0.000000 

-0.000000 0.000000 0.000000 
0.000000 0.000000 0.000000 
0.000000 0.000000 0.000000 

-0.000000 0.000000 0.000000 
0.000000 -0.000000 0.000000 
0.000000 0.000000 0.000000 

-0.000000 0.000000 0.000000 
0.000000 0.000000 0.000000 
0.000000 0.000000 0.000000 

-0.000000 -0.000000 0.000000 
0.000000 0.000000 0.000000 
0.000000 0.000000 0.000000 

-0.000000 -0.000000 0.000000 
0.000000 0.000000 0.000000 
0.000000 0.000000 0.000000 

-0.000000 -0.000000 0.000000 
0.000000 0.000000 0.000000 
0.000000 0.000000 0.000000 

-0.000000 -0.000000 0.000000 
0.000000 -0.000000 0.000000 
0.000000 0.000000 0.000000 

0.000000 -0.000000 0.000000 
0.000000 -0.000000 0.000000 
0.000000 0.000000 0.000000 

-0.000000 -0.000000 0.000000 
0.000000 0.000000 0.000000 
0.000000 0.000000 0.000000 

-0.000000 0.000000 0.000000 
0.000000 0.000000 0.000000 
0.000000 0.000000 0.000000 

-0.000000 -0.000000 0.000000 
0.000000 -0.000000 0.000000 
0.000000 0.000000 0.000000 

0.000000 -0.000000 0.000000 
0.000000 -0.000000 0.000000 
0.000000 0.000000 0.000000 

-0.000000 0.000000 0.000000 
0.000000 -0.000000 0.000000 
0.000000 0.000000 0.000000 

-0.000000 -0.000000 0.000000 
0.000000 0.000000 0.000000 
0.000000 0.000000 0.000000 

-0.000000 -0.000000 0.000000 
0.000000 0.000000 0.000000 
0.000000 0.000000 0.000000 

-0.000000 -0.000000 0.000000 
0.000000 0.000000 0.000000 
0.000000 0.000000 0.000000 

-0.000000 -0.000000 0.000000 
0.000000 0.000000 0.000000 
0.000000 0.000000 0.000000 

-0.000000 0.000000 0.000000 
0.000000 -0.000000 0.000000 
0.000000 0.000000 0.000000 

-0.000000 0.000000 0.000000 
0.000000 0.000000 0.000000 
0.000000 0.000000 0.000000 

-0.000000 -0.000000 0.000000 
0.000000 0.000000 0.000000 
0.000000 0.000000 0.000000 

-0.000000 -0.000000 0.000000 
0.000000 0.000000 0.000000 
0.000000 0.000000 0.000000 

0.000000 0.000000 0.000000 
0.000000 0.000000 0.000000 
0.000000 0.000000 0.000000 

-0.000000 0.000000 0.000000 
0.000000 0.000000 0.000000 
0.000000 0.000000 0.000000 

-0.000000 0.000000 0.000000 
0.000000 -0.000000 0.000000 
0.000000 0.000000 0.000000 

-0.000000 0.000000 0.000000 
0.000000 0.000000 0.000000 
0.000000 0.000000 0.000000 

-0.000000 0.000000 0.000000 
0.000000 0.000000 0.000000 
0.000000 0.000000 0.000000 

-0.000000 -0.000000 0.000000 
0.000000 0.000000 0.000000 
0.000000 0.000000 0.000000 

-0.000000 0.000000 0.000000 
0.000000 0.000000 0.000000 
0.000000 0.000000 0.000000 

0.000000 -0.000000 0.000000 
0.000000 -0.000000 0.000000 
0.000000 0.000000 0.000000 

-0.000000 -0.000000 0.000000 
0.000000 0.000000 0.000000 
0.000000 0.000000 0.000000 

-0.000000 -0.000000 0.000000 
0.000000 0.000000 0.000000 
0.000000 0.000000 0.000000 

0.000000 -0.000000 0.000000 
0.000000 -0.000000 0.000000 
0.000000 0.000000 0.000000 

0.000000 -0.000000 0.000000 
0.000000 -0.000000 0.000000 
0.000000 0.000000 0.000000 

0.000000 -0.000000 0.000000 
0.000000 -0.000000 0.000000 
0.000000 0.000000 0.000000 

0.000000 -0.000000 0.000000 
0.000000 0.000000 0.000000 
0.000000 0.000000 0.000000 

0.000000 -0.000000 0.000000 
0.000000 0.000000 0.000000 
0.000000 0.000000 0.000000 

-0.000000 -0.000000 0.000000 
0.000000 0.000000 0.000000 
0.000000 0.000000 0.000000 

-0.000000 0.000000 0.000000 
0.000000 -0.000000 0.000000 
0.000000 0.000000 0.000000 

0.000000 0.000000 0.000000 
0.000000 -0.000000 0.000000 
0.000000 0.000000 0.000000 

0.000000 -0.000000 0.000000 
0.000000 -0.000000 0.000000 
0.000000 0.000000 0.000000 

0.000000 0.000000 0.000000 
0.000000 -0.000000 0.000000 
0.000000 0.000000 0.000000 

0.000000 -0.000000 0.000000 
0.000000 -0.000000 0.000000 
0.000000 0.000000 0.000000 

0.000000 -0.000000 0.000000 
0.000000 -0.000000 0.000000 
0.000000 0.000000 0.000000 

0.000000 0.000000 0.000000 
0.000000 0.000000 0.000000 
0.000000 0.000000 0.000000 

-0.000000 0.000000 0.000000 
0.000000 -0.000000 0.000000 
0.000000 0.000000 0.000000 

-0.000000 0.000000 0.000000 
0.000000 0.000000 0.000000 
0.000000 0.000000 0.000000 

-0.000000 -0.000000 0.000000 
0.000000 0.000000 0.000000 
0.000000 0.000000 0.000000 

-0.000000 -0.000000 0.000000 
0.000000 0.000000 0.000000 
0.000000 0.000000 0.000000 

0.000000 -0.000000 0.000000 
0.000000 0.000000 0.000000 
0.000000 0.000000 0.000000 

0.000000 -0.000000 0.000000 
0.000000 0.000000 0.000000 
0.000000 0.000000 0.000000 

-0.000000 -0.000000 0.000000 
0.000000 0.000000 0.000000 
0.000000 0.000000 0.000000 

0.000000 -0.000000 0.000000 
0.000000 -0.000000 0.000000 
0.000000 0.000000 0.000000 

0.000000 -0.000000 0.000000 
0.000000 -0.000000 0.000000 
0.000000 0.000000 0.000000 

0.000000 -0.000000 0.000000 
0.000000 -0.000000 0.000000 
0.000000 0.000000 0.000000 

-0.000000 -0.000000 0.000000 
0.000000 0.000000 0.000000 
0.000000 0.000000 0.000000 

-0.000000 0.000000 0.000000 
0.000000 0.000000 0.000000 
0.000000 0.000000 0.000000 

0.000000 0.000000 0.000000 
0.000000 -0.000000 0.000000 
0.000000 0.000000 0.000000 

0.000000 0.000000 0.000000 
0.000000 0.000000 0.000000 
0.000000 0.000000 0.000000 

0.000000 0.000000 0.000000 
0.000000 -0.000000 0.000000 
0.000000 0.000000 0.000000 

0.000000 0.000000 0.000000 
0.000000 -0.000000 0.000000 
0.000000 0.000000 0.000000 

0.000000 0.000000 0.000000 
0.000000 -0.000000 0.000000 
0.000000 0.000000 0.000000 

0.000000 -0.000000 0.000000 
0.000000 -0.000000 0.000000 
0.000000 0.000000 0.000000 

0.000000 -0.000000 0.000000 
0.000000 -0.000000 0.000000 
0.000000 0.000000 0.000000 

0.000000 -0.000000 0.000000 
0.000000 -0.000000 0.000000 
0.000000 0.000000 0.000000 

0.000000 -0.000000 0.000000 
0.000000 -0.000000 0.000000 
0.000000 0.000000 0.000000 

0.000000 -0.000000 0.000000 
0.000000 -0.000000 0.000000 
0.000000 0.000000 0.000000 

0.000000 0.000000 0.000000 
0.000000 -0.000000 0.000000 
0.000000 0.000000 0.000000 

0.000000 -0.000000 0.000000 
0.000000 -0.000000 0.000000 
0.000000 0.000000 0.000000 

0.000000 -0.000000 0.000000 
0.000000 -0.000000 0.000000 
0.000000 0.000000 0.000000 

0.000000 -0.000000 0.000000 
0.000000 -0.000000 0.000000 
0.000000 0.000000 0.000000 

0.000000 -0.000000 0.000000 
0.000000 -0.000000 0.000000 
0.000000 0.000000 0.000000 

0.000000 -0.000000 0.000000 
0.000000 -0.000000 0.000000 
0.000000 0.000000 0.000000 

