# vtk DataFile Version 3.0 
vtk output 
ASCII 
DATASET UNSTRUCTURED_GRID 
POINTS 175 float 
-0.026313 -0.047623 0.000000 
-0.107670 0.020490 0.000000 
-0.055265 0.012160 0.000000 
-0.028955 0.058252 0.000000 
-0.187226 0.084039 0.000000 
-0.137636 0.082047 0.000000 
-0.114706 0.136213 0.000000 
-0.058267 0.121007 0.000000 
-0.029453 0.161049 0.000000 
-0.266418 0.147312 0.000000 
-0.218257 0.146495 0.000000 
-0.197616 0.204380 0.000000 
-0.143789 0.195861 0.000000 
-0.117164 0.242614 0.000000 
-0.059143 0.223144 0.000000 
-0.029770 0.260288 0.000000 
-0.345622 0.210119 0.000000 
-0.298119 0.210510 0.000000 
-0.279480 0.271625 0.000000 
-0.226872 0.266187 0.000000 
-0.201970 0.317410 0.000000 
-0.146275 0.303219 0.000000 
-0.118584 0.347308 0.000000 
-0.059812 0.323540 0.000000 
-0.030161 0.361733 0.000000 
-0.058883 -0.087429 0.000000 
-0.162602 -0.108413 0.000000 
-0.123942 -0.072921 0.000000 
-0.143949 -0.024082 0.000000 
-0.261958 -0.131205 0.000000 
-0.229751 -0.093722 0.000000 
-0.258244 -0.041815 0.000000 
-0.210901 -0.008163 0.000000 
-0.224172 0.038703 0.000000 
-0.360468 -0.153995 0.000000 
-0.330130 -0.116439 0.000000 
-0.362635 -0.064497 0.000000 
-0.322471 -0.027839 0.000000 
-0.342600 0.022148 0.000000 
-0.291491 0.054837 0.000000 
-0.302918 0.101292 0.000000 
-0.458062 -0.174968 0.000000 
-0.429281 -0.138286 0.000000 
-0.465035 -0.085652 0.000000 
-0.428400 -0.049272 0.000000 
-0.454144 0.001972 0.000000 
-0.408427 0.037003 0.000000 
-0.426079 0.086658 0.000000 
-0.371414 0.118677 0.000000 
-0.382335 0.164003 0.000000 
-0.047042 -0.137768 0.000000 
-0.095088 -0.232642 0.000000 
-0.098683 -0.179275 0.000000 
-0.149177 -0.164619 0.000000 
-0.139569 -0.324770 0.000000 
-0.148091 -0.276118 0.000000 
-0.205145 -0.266249 0.000000 
-0.202379 -0.207866 0.000000 
-0.248002 -0.188997 0.000000 
-0.183498 -0.415603 0.000000 
-0.193343 -0.368942 0.000000 
-0.253631 -0.361685 0.000000 
-0.256877 -0.307761 0.000000 
-0.309024 -0.291953 0.000000 
-0.302900 -0.231882 0.000000 
-0.346652 -0.211869 0.000000 
-0.227338 -0.506477 0.000000 
-0.238025 -0.459674 0.000000 
-0.300518 -0.454376 0.000000 
-0.306258 -0.402970 0.000000 
-0.362335 -0.390202 0.000000 
-0.361726 -0.332986 0.000000 
-0.410389 -0.315716 0.000000 
-0.402168 -0.254510 0.000000 
-0.444292 -0.233919 0.000000 
-0.000000 -0.160305 0.000000 
0.043303 -0.257653 0.000000 
-0.000000 -0.227379 0.000000 
-0.043303 -0.257653 0.000000 
0.086933 -0.349793 0.000000 
0.043682 -0.325958 0.000000 
-0.000000 -0.364205 0.000000 
-0.043682 -0.325958 0.000000 
-0.086933 -0.349793 0.000000 
0.130389 -0.441091 0.000000 
0.087516 -0.419282 0.000000 
0.044244 -0.462525 0.000000 
-0.000000 -0.431039 0.000000 
-0.044244 -0.462525 0.000000 
-0.087516 -0.419282 0.000000 
-0.130389 -0.441091 0.000000 
0.173789 -0.534344 0.000000 
0.131493 -0.511893 0.000000 
0.088386 -0.557990 0.000000 
0.044504 -0.530148 0.000000 
-0.000000 -0.565345 0.000000 
-0.044504 -0.530148 0.000000 
-0.088386 -0.557990 0.000000 
-0.131493 -0.511893 0.000000 
-0.173789 -0.534344 0.000000 
0.047042 -0.137768 0.000000 
0.149177 -0.164619 0.000000 
0.098683 -0.179275 0.000000 
0.095088 -0.232642 0.000000 
0.248002 -0.188997 0.000000 
0.202379 -0.207866 0.000000 
0.205145 -0.266249 0.000000 
0.148091 -0.276118 0.000000 
0.139569 -0.324770 0.000000 
0.346652 -0.211869 0.000000 
0.302900 -0.231882 0.000000 
0.309024 -0.291953 0.000000 
0.256877 -0.307761 0.000000 
0.253631 -0.361685 0.000000 
0.193343 -0.368942 0.000000 
0.183498 -0.415603 0.000000 
0.444292 -0.233919 0.000000 
0.402168 -0.254510 0.000000 
0.410389 -0.315716 0.000000 
0.361726 -0.332986 0.000000 
0.362335 -0.390202 0.000000 
0.306258 -0.402970 0.000000 
0.300518 -0.454376 0.000000 
0.238025 -0.459674 0.000000 
0.227338 -0.506477 0.000000 
0.058883 -0.087429 0.000000 
0.143949 -0.024082 0.000000 
0.123942 -0.072921 0.000000 
0.162602 -0.108413 0.000000 
0.224172 0.038703 0.000000 
0.210901 -0.008163 0.000000 
0.258244 -0.041815 0.000000 
0.229751 -0.093722 0.000000 
0.261958 -0.131205 0.000000 
0.302918 0.101292 0.000000 
0.291491 0.054837 0.000000 
0.342600 0.022148 0.000000 
0.322471 -0.027839 0.000000 
0.362635 -0.064497 0.000000 
0.330130 -0.116439 0.000000 
0.360468 -0.153995 0.000000 
0.382335 0.164003 0.000000 
0.371414 0.118677 0.000000 
0.426079 0.086658 0.000000 
0.408427 0.037003 0.000000 
0.454144 0.001972 0.000000 
0.428400 -0.049272 0.000000 
0.465035 -0.085652 0.000000 
0.429281 -0.138286 0.000000 
0.458062 -0.174968 0.000000 
0.026313 -0.047623 0.000000 
0.028955 0.058252 0.000000 
0.055265 0.012160 0.000000 
0.107670 0.020490 0.000000 
0.029453 0.161049 0.000000 
0.058267 0.121007 0.000000 
0.114706 0.136213 0.000000 
0.137636 0.082047 0.000000 
0.187226 0.084039 0.000000 
0.029770 0.260288 0.000000 
0.059143 0.223144 0.000000 
0.117164 0.242614 0.000000 
0.143789 0.195861 0.000000 
0.197616 0.204380 0.000000 
0.218257 0.146495 0.000000 
0.266418 0.147312 0.000000 
0.030161 0.361733 0.000000 
0.059812 0.323540 0.000000 
0.118584 0.347308 0.000000 
0.146275 0.303219 0.000000 
0.201970 0.317410 0.000000 
0.226872 0.266187 0.000000 
0.279480 0.271625 0.000000 
0.298119 0.210510 0.000000 
0.345622 0.210119 0.000000 
CELLS 175 350 
1 0 
1 1 
1 2 
1 3 
1 4 
1 5 
1 6 
1 7 
1 8 
1 9 
1 10 
1 11 
1 12 
1 13 
1 14 
1 15 
1 16 
1 17 
1 18 
1 19 
1 20 
1 21 
1 22 
1 23 
1 24 
1 25 
1 26 
1 27 
1 28 
1 29 
1 30 
1 31 
1 32 
1 33 
1 34 
1 35 
1 36 
1 37 
1 38 
1 39 
1 40 
1 41 
1 42 
1 43 
1 44 
1 45 
1 46 
1 47 
1 48 
1 49 
1 50 
1 51 
1 52 
1 53 
1 54 
1 55 
1 56 
1 57 
1 58 
1 59 
1 60 
1 61 
1 62 
1 63 
1 64 
1 65 
1 66 
1 67 
1 68 
1 69 
1 70 
1 71 
1 72 
1 73 
1 74 
1 75 
1 76 
1 77 
1 78 
1 79 
1 80 
1 81 
1 82 
1 83 
1 84 
1 85 
1 86 
1 87 
1 88 
1 89 
1 90 
1 91 
1 92 
1 93 
1 94 
1 95 
1 96 
1 97 
1 98 
1 99 
1 100 
1 101 
1 102 
1 103 
1 104 
1 105 
1 106 
1 107 
1 108 
1 109 
1 110 
1 111 
1 112 
1 113 
1 114 
1 115 
1 116 
1 117 
1 118 
1 119 
1 120 
1 121 
1 122 
1 123 
1 124 
1 125 
1 126 
1 127 
1 128 
1 129 
1 130 
1 131 
1 132 
1 133 
1 134 
1 135 
1 136 
1 137 
1 138 
1 139 
1 140 
1 141 
1 142 
1 143 
1 144 
1 145 
1 146 
1 147 
1 148 
1 149 
1 150 
1 151 
1 152 
1 153 
1 154 
1 155 
1 156 
1 157 
1 158 
1 159 
1 160 
1 161 
1 162 
1 163 
1 164 
1 165 
1 166 
1 167 
1 168 
1 169 
1 170 
1 171 
1 172 
1 173 
1 174 
CELL_TYPES 175 
1 
1 
1 
1 
1 
1 
1 
1 
1 
1 
1 
1 
1 
1 
1 
1 
1 
1 
1 
1 
1 
1 
1 
1 
1 
1 
1 
1 
1 
1 
1 
1 
1 
1 
1 
1 
1 
1 
1 
1 
1 
1 
1 
1 
1 
1 
1 
1 
1 
1 
1 
1 
1 
1 
1 
1 
1 
1 
1 
1 
1 
1 
1 
1 
1 
1 
1 
1 
1 
1 
1 
1 
1 
1 
1 
1 
1 
1 
1 
1 
1 
1 
1 
1 
1 
1 
1 
1 
1 
1 
1 
1 
1 
1 
1 
1 
1 
1 
1 
1 
1 
1 
1 
1 
1 
1 
1 
1 
1 
1 
1 
1 
1 
1 
1 
1 
1 
1 
1 
1 
1 
1 
1 
1 
1 
1 
1 
1 
1 
1 
1 
1 
1 
1 
1 
1 
1 
1 
1 
1 
1 
1 
1 
1 
1 
1 
1 
1 
1 
1 
1 
1 
1 
1 
1 
1 
1 
1 
1 
1 
1 
1 
1 
1 
1 
1 
1 
1 
1 
1 
1 
1 
1 
1 
1 
POINT_DATA 175 
VECTORS X_GC float 
-0.026313 -0.047623 0.000000 
-0.107670 0.020490 0.000000 
-0.055265 0.012160 0.000000 
-0.028955 0.058252 0.000000 
-0.187226 0.084039 0.000000 
-0.137636 0.082047 0.000000 
-0.114706 0.136213 0.000000 
-0.058267 0.121007 0.000000 
-0.029453 0.161049 0.000000 
-0.266418 0.147312 0.000000 
-0.218257 0.146495 0.000000 
-0.197616 0.204380 0.000000 
-0.143789 0.195861 0.000000 
-0.117164 0.242614 0.000000 
-0.059143 0.223144 0.000000 
-0.029770 0.260288 0.000000 
-0.345622 0.210119 0.000000 
-0.298119 0.210510 0.000000 
-0.279480 0.271625 0.000000 
-0.226872 0.266187 0.000000 
-0.201970 0.317410 0.000000 
-0.146275 0.303219 0.000000 
-0.118584 0.347308 0.000000 
-0.059812 0.323540 0.000000 
-0.030161 0.361733 0.000000 
-0.058883 -0.087429 0.000000 
-0.162602 -0.108413 0.000000 
-0.123942 -0.072921 0.000000 
-0.143949 -0.024082 0.000000 
-0.261958 -0.131205 0.000000 
-0.229751 -0.093722 0.000000 
-0.258244 -0.041815 0.000000 
-0.210901 -0.008163 0.000000 
-0.224172 0.038703 0.000000 
-0.360468 -0.153995 0.000000 
-0.330130 -0.116439 0.000000 
-0.362635 -0.064497 0.000000 
-0.322471 -0.027839 0.000000 
-0.342600 0.022148 0.000000 
-0.291491 0.054837 0.000000 
-0.302918 0.101292 0.000000 
-0.458062 -0.174968 0.000000 
-0.429281 -0.138286 0.000000 
-0.465035 -0.085652 0.000000 
-0.428400 -0.049272 0.000000 
-0.454144 0.001972 0.000000 
-0.408427 0.037003 0.000000 
-0.426079 0.086658 0.000000 
-0.371414 0.118677 0.000000 
-0.382335 0.164003 0.000000 
-0.047042 -0.137768 0.000000 
-0.095088 -0.232642 0.000000 
-0.098683 -0.179275 0.000000 
-0.149177 -0.164619 0.000000 
-0.139569 -0.324770 0.000000 
-0.148091 -0.276118 0.000000 
-0.205145 -0.266249 0.000000 
-0.202379 -0.207866 0.000000 
-0.248002 -0.188997 0.000000 
-0.183498 -0.415603 0.000000 
-0.193343 -0.368942 0.000000 
-0.253631 -0.361685 0.000000 
-0.256877 -0.307761 0.000000 
-0.309024 -0.291953 0.000000 
-0.302900 -0.231882 0.000000 
-0.346652 -0.211869 0.000000 
-0.227338 -0.506477 0.000000 
-0.238025 -0.459674 0.000000 
-0.300518 -0.454376 0.000000 
-0.306258 -0.402970 0.000000 
-0.362335 -0.390202 0.000000 
-0.361726 -0.332986 0.000000 
-0.410389 -0.315716 0.000000 
-0.402168 -0.254510 0.000000 
-0.444292 -0.233919 0.000000 
-0.000000 -0.160305 0.000000 
0.043303 -0.257653 0.000000 
-0.000000 -0.227379 0.000000 
-0.043303 -0.257653 0.000000 
0.086933 -0.349793 0.000000 
0.043682 -0.325958 0.000000 
-0.000000 -0.364205 0.000000 
-0.043682 -0.325958 0.000000 
-0.086933 -0.349793 0.000000 
0.130389 -0.441091 0.000000 
0.087516 -0.419282 0.000000 
0.044244 -0.462525 0.000000 
-0.000000 -0.431039 0.000000 
-0.044244 -0.462525 0.000000 
-0.087516 -0.419282 0.000000 
-0.130389 -0.441091 0.000000 
0.173789 -0.534344 0.000000 
0.131493 -0.511893 0.000000 
0.088386 -0.557990 0.000000 
0.044504 -0.530148 0.000000 
-0.000000 -0.565345 0.000000 
-0.044504 -0.530148 0.000000 
-0.088386 -0.557990 0.000000 
-0.131493 -0.511893 0.000000 
-0.173789 -0.534344 0.000000 
0.047042 -0.137768 0.000000 
0.149177 -0.164619 0.000000 
0.098683 -0.179275 0.000000 
0.095088 -0.232642 0.000000 
0.248002 -0.188997 0.000000 
0.202379 -0.207866 0.000000 
0.205145 -0.266249 0.000000 
0.148091 -0.276118 0.000000 
0.139569 -0.324770 0.000000 
0.346652 -0.211869 0.000000 
0.302900 -0.231882 0.000000 
0.309024 -0.291953 0.000000 
0.256877 -0.307761 0.000000 
0.253631 -0.361685 0.000000 
0.193343 -0.368942 0.000000 
0.183498 -0.415603 0.000000 
0.444292 -0.233919 0.000000 
0.402168 -0.254510 0.000000 
0.410389 -0.315716 0.000000 
0.361726 -0.332986 0.000000 
0.362335 -0.390202 0.000000 
0.306258 -0.402970 0.000000 
0.300518 -0.454376 0.000000 
0.238025 -0.459674 0.000000 
0.227338 -0.506477 0.000000 
0.058883 -0.087429 0.000000 
0.143949 -0.024082 0.000000 
0.123942 -0.072921 0.000000 
0.162602 -0.108413 0.000000 
0.224172 0.038703 0.000000 
0.210901 -0.008163 0.000000 
0.258244 -0.041815 0.000000 
0.229751 -0.093722 0.000000 
0.261958 -0.131205 0.000000 
0.302918 0.101292 0.000000 
0.291491 0.054837 0.000000 
0.342600 0.022148 0.000000 
0.322471 -0.027839 0.000000 
0.362635 -0.064497 0.000000 
0.330130 -0.116439 0.000000 
0.360468 -0.153995 0.000000 
0.382335 0.164003 0.000000 
0.371414 0.118677 0.000000 
0.426079 0.086658 0.000000 
0.408427 0.037003 0.000000 
0.454144 0.001972 0.000000 
0.428400 -0.049272 0.000000 
0.465035 -0.085652 0.000000 
0.429281 -0.138286 0.000000 
0.458062 -0.174968 0.000000 
0.026313 -0.047623 0.000000 
0.028955 0.058252 0.000000 
0.055265 0.012160 0.000000 
0.107670 0.020490 0.000000 
0.029453 0.161049 0.000000 
0.058267 0.121007 0.000000 
0.114706 0.136213 0.000000 
0.137636 0.082047 0.000000 
0.187226 0.084039 0.000000 
0.029770 0.260288 0.000000 
0.059143 0.223144 0.000000 
0.117164 0.242614 0.000000 
0.143789 0.195861 0.000000 
0.197616 0.204380 0.000000 
0.218257 0.146495 0.000000 
0.266418 0.147312 0.000000 
0.030161 0.361733 0.000000 
0.059812 0.323540 0.000000 
0.118584 0.347308 0.000000 
0.146275 0.303219 0.000000 
0.201970 0.317410 0.000000 
0.226872 0.266187 0.000000 
0.279480 0.271625 0.000000 
0.298119 0.210510 0.000000 
0.345622 0.210119 0.000000 
VECTORS X_EC float 
0.342075 -0.857095 0.000000 
-0.600290 0.223381 0.000000 
0.718446 0.335839 0.000000 
0.376410 -0.286396 0.000000 
0.433944 -0.634520 0.000000 
-0.210726 -0.607641 0.000000 
-0.508824 0.661131 0.000000 
0.757471 0.866400 0.000000 
0.382893 0.325843 0.000000 
-0.536564 0.511284 0.000000 
0.837337 0.522318 0.000000 
0.569008 -0.259135 0.000000 
-0.130738 -0.144118 0.000000 
-0.476862 -0.775284 0.000000 
0.768855 -0.512449 0.000000 
0.387014 0.986115 0.000000 
0.493088 -0.336605 0.000000 
-0.124447 -0.341880 0.000000 
-0.366765 0.833058 0.000000 
0.949331 0.906480 0.000000 
0.625610 0.214961 0.000000 
-0.098424 0.406540 0.000000 
-0.458405 -0.188660 0.000000 
0.777558 0.132211 0.000000 
0.392087 -0.383401 0.000000 
0.765476 -0.319703 0.000000 
0.113827 -0.036430 0.000000 
-0.388749 -0.515563 0.000000 
-0.128664 0.825110 0.000000 
-0.594545 0.271263 0.000000 
0.986759 -0.234758 0.000000 
-0.642831 -0.935499 0.000000 
0.741713 0.610199 0.000000 
0.914230 -0.022485 0.000000 
0.686090 0.578926 0.000000 
0.291690 0.071922 0.000000 
0.714249 -0.629290 0.000000 
0.192120 0.875820 0.000000 
0.453794 0.201008 0.000000 
-0.210614 -0.240298 0.000000 
-0.062060 -0.867441 0.000000 
-0.045195 0.862065 0.000000 
-0.419350 0.366868 0.000000 
0.045457 -0.343699 0.000000 
-0.430794 -0.834826 0.000000 
-0.096125 0.473384 0.000000 
-0.690445 0.000461 0.000000 
-0.460976 -0.669880 0.000000 
0.828376 0.897863 0.000000 
0.970358 0.285960 0.000000 
0.611546 0.359873 0.000000 
-0.763860 -0.359329 0.000000 
-0.717118 0.920216 0.000000 
-0.060705 0.722356 0.000000 
-0.185605 0.884396 0.000000 
-0.074821 0.227587 0.000000 
0.666884 0.094355 0.000000 
0.630933 -0.693813 0.000000 
-0.775977 -0.948539 0.000000 
0.385472 0.110634 0.000000 
0.513457 -0.519289 0.000000 
-0.702793 -0.617254 0.000000 
-0.660603 0.654774 0.000000 
0.017317 0.441364 0.000000 
-0.062305 -0.369597 0.000000 
0.506473 -0.639771 0.000000 
0.955388 -0.662559 0.000000 
-0.905678 0.705597 0.000000 
-0.093272 0.634077 0.000000 
-0.018651 -0.059911 0.000000 
0.710359 -0.232275 0.000000 
0.702437 0.995308 0.000000 
-0.664941 0.762171 0.000000 
-0.771811 -0.064111 0.000000 
-0.224209 -0.342098 0.000000 
0.000000 0.664113 0.000000 
-0.562939 -0.021684 0.000000 
0.000000 -0.430379 0.000000 
0.562939 -0.021684 0.000000 
0.869869 -0.777795 0.000000 
-0.567868 0.900436 0.000000 
0.000000 -0.583231 0.000000 
0.567868 0.900436 0.000000 
-0.869869 -0.777795 0.000000 
0.304937 0.454732 0.000000 
0.862288 0.160312 0.000000 
-0.575176 0.744082 0.000000 
0.000000 0.319026 0.000000 
0.575176 0.744082 0.000000 
-0.862288 0.160312 0.000000 
-0.304937 0.454732 0.000000 
-0.259252 -0.286353 0.000000 
0.290594 -0.589446 0.000000 
0.850982 0.032858 0.000000 
-0.578548 -0.342997 0.000000 
0.000000 0.132160 0.000000 
0.578548 -0.342997 0.000000 
-0.850982 0.032858 0.000000 
-0.290594 -0.589446 0.000000 
0.259252 -0.286353 0.000000 
-0.611546 0.359873 0.000000 
0.060705 0.722356 0.000000 
0.717118 0.920216 0.000000 
0.763860 -0.359329 0.000000 
0.775977 -0.948539 0.000000 
-0.630933 -0.693813 0.000000 
-0.666884 0.094355 0.000000 
0.074821 0.227587 0.000000 
0.185605 0.884396 0.000000 
-0.506473 -0.639771 0.000000 
0.062305 -0.369597 0.000000 
-0.017317 0.441364 0.000000 
0.660603 0.654774 0.000000 
0.702793 -0.617254 0.000000 
-0.513457 -0.519289 0.000000 
-0.385472 0.110634 0.000000 
0.224209 -0.342098 0.000000 
0.771811 -0.064111 0.000000 
0.664941 0.762171 0.000000 
-0.702437 0.995308 0.000000 
-0.710359 -0.232275 0.000000 
0.018651 -0.059911 0.000000 
0.093272 0.634077 0.000000 
0.905678 0.705597 0.000000 
-0.955387 -0.662559 0.000000 
-0.765476 -0.319703 0.000000 
0.128664 0.825110 0.000000 
0.388749 -0.515563 0.000000 
-0.113827 -0.036430 0.000000 
-0.914230 -0.022485 0.000000 
-0.741713 0.610199 0.000000 
0.642831 -0.935499 0.000000 
-0.986759 -0.234758 0.000000 
0.594545 0.271263 0.000000 
0.062060 -0.867441 0.000000 
0.210614 -0.240298 0.000000 
-0.453794 0.201008 0.000000 
-0.192120 0.875820 0.000000 
-0.714249 -0.629290 0.000000 
-0.291690 0.071922 0.000000 
-0.686090 0.578926 0.000000 
-0.970358 0.285960 0.000000 
-0.828376 0.897863 0.000000 
0.460976 -0.669880 0.000000 
0.690445 0.000461 0.000000 
0.096125 0.473384 0.000000 
0.430794 -0.834826 0.000000 
-0.045457 -0.343699 0.000000 
0.419350 0.366868 0.000000 
0.045195 0.862065 0.000000 
-0.342075 -0.857095 0.000000 
-0.376410 -0.286396 0.000000 
-0.718446 0.335839 0.000000 
0.600290 0.223381 0.000000 
-0.382893 0.325843 0.000000 
-0.757471 0.866400 0.000000 
0.508824 0.661131 0.000000 
0.210726 -0.607641 0.000000 
-0.433944 -0.634520 0.000000 
-0.387014 0.986115 0.000000 
-0.768855 -0.512449 0.000000 
0.476862 -0.775284 0.000000 
0.130738 -0.144118 0.000000 
-0.569008 -0.259135 0.000000 
-0.837337 0.522318 0.000000 
0.536564 0.511284 0.000000 
-0.392087 -0.383401 0.000000 
-0.777558 0.132211 0.000000 
0.458405 -0.188660 0.000000 
0.098424 0.406540 0.000000 
-0.625610 0.214961 0.000000 
-0.949331 0.906480 0.000000 
0.366765 0.833058 0.000000 
0.124447 -0.341880 0.000000 
-0.493088 -0.336605 0.000000 
CELL_DATA 175 
SCALARS MASS float 
LOOKUP_TABLE default 
0.781831 
0.864274 
0.946717 
0.864274 
0.881307 
0.921110 
0.858535 
0.921110 
0.881307 
0.887046 
0.910001 
0.869829 
0.915556 
0.869829 
0.910001 
0.887046 
0.892784 
0.915740 
0.892784 
0.927218 
0.892784 
0.927218 
0.892784 
0.915740 
0.892784 
0.781831 
0.864274 
0.946717 
0.864274 
0.881307 
0.921110 
0.858535 
0.921110 
0.881307 
0.887046 
0.910001 
0.869829 
0.915556 
0.869829 
0.910001 
0.887046 
0.892784 
0.915740 
0.892784 
0.927218 
0.892784 
0.927218 
0.892784 
0.915740 
0.892784 
0.781831 
0.864274 
0.946717 
0.864274 
0.881307 
0.921110 
0.858535 
0.921110 
0.881307 
0.887046 
0.910001 
0.869829 
0.915556 
0.869829 
0.910001 
0.887046 
0.892784 
0.915740 
0.892784 
0.927218 
0.892784 
0.927218 
0.892784 
0.915740 
0.892784 
0.781831 
0.864274 
0.946717 
0.864274 
0.881307 
0.921110 
0.858535 
0.921110 
0.881307 
0.887046 
0.910001 
0.869829 
0.915556 
0.869829 
0.910001 
0.887046 
0.892784 
0.915740 
0.892784 
0.927218 
0.892784 
0.927218 
0.892784 
0.915740 
0.892784 
0.781831 
0.864274 
0.946717 
0.864274 
0.881307 
0.921110 
0.858535 
0.921110 
0.881307 
0.887046 
0.910001 
0.869829 
0.915556 
0.869829 
0.910001 
0.887046 
0.892784 
0.915740 
0.892784 
0.927218 
0.892784 
0.927218 
0.892784 
0.915740 
0.892784 
0.781831 
0.864274 
0.946717 
0.864274 
0.881307 
0.921110 
0.858535 
0.921110 
0.881307 
0.887046 
0.910001 
0.869829 
0.915556 
0.869829 
0.910001 
0.887046 
0.892784 
0.915740 
0.892784 
0.927218 
0.892784 
0.927218 
0.892784 
0.915740 
0.892784 
0.781831 
0.864274 
0.946717 
0.864274 
0.881307 
0.921110 
0.858535 
0.921110 
0.881307 
0.887046 
0.910001 
0.869829 
0.915556 
0.869829 
0.910001 
0.887046 
0.892784 
0.915740 
0.892784 
0.927218 
0.892784 
0.927218 
0.892784 
0.915740 
0.892784 
SCALARS MASS float 
LOOKUP_TABLE default 
0.781831 
0.864274 
0.946717 
0.864274 
0.881307 
0.921110 
0.858535 
0.921110 
0.881307 
0.887046 
0.910001 
0.869829 
0.915556 
0.869829 
0.910001 
0.887046 
0.892784 
0.915740 
0.892784 
0.927218 
0.892784 
0.927218 
0.892784 
0.915740 
0.892784 
0.781831 
0.864274 
0.946717 
0.864274 
0.881307 
0.921110 
0.858535 
0.921110 
0.881307 
0.887046 
0.910001 
0.869829 
0.915556 
0.869829 
0.910001 
0.887046 
0.892784 
0.915740 
0.892784 
0.927218 
0.892784 
0.927218 
0.892784 
0.915740 
0.892784 
0.781831 
0.864274 
0.946717 
0.864274 
0.881307 
0.921110 
0.858535 
0.921110 
0.881307 
0.887046 
0.910001 
0.869829 
0.915556 
0.869829 
0.910001 
0.887046 
0.892784 
0.915740 
0.892784 
0.927218 
0.892784 
0.927218 
0.892784 
0.915740 
0.892784 
0.781831 
0.864274 
0.946717 
0.864274 
0.881307 
0.921110 
0.858535 
0.921110 
0.881307 
0.887046 
0.910001 
0.869829 
0.915556 
0.869829 
0.910001 
0.887046 
0.892784 
0.915740 
0.892784 
0.927218 
0.892784 
0.927218 
0.892784 
0.915740 
0.892784 
0.781831 
0.864274 
0.946717 
0.864274 
0.881307 
0.921110 
0.858535 
0.921110 
0.881307 
0.887046 
0.910001 
0.869829 
0.915556 
0.869829 
0.910001 
0.887046 
0.892784 
0.915740 
0.892784 
0.927218 
0.892784 
0.927218 
0.892784 
0.915740 
0.892784 
0.781831 
0.864274 
0.946717 
0.864274 
0.881307 
0.921110 
0.858535 
0.921110 
0.881307 
0.887046 
0.910001 
0.869829 
0.915556 
0.869829 
0.910001 
0.887046 
0.892784 
0.915740 
0.892784 
0.927218 
0.892784 
0.927218 
0.892784 
0.915740 
0.892784 
0.781831 
0.864274 
0.946717 
0.864274 
0.881307 
0.921110 
0.858535 
0.921110 
0.881307 
0.887046 
0.910001 
0.869829 
0.915556 
0.869829 
0.910001 
0.887046 
0.892784 
0.915740 
0.892784 
0.927218 
0.892784 
0.927218 
0.892784 
0.915740 
0.892784 
SCALARS DENSITY float 
LOOKUP_TABLE default 
202.616113 
197.088377 
200.051352 
203.904930 
213.570677 
203.287723 
200.156835 
200.000938 
198.980216 
201.357770 
200.701697 
203.172494 
201.979628 
200.913738 
198.478736 
208.880065 
200.477829 
208.578315 
198.602586 
197.985666 
211.322819 
199.345068 
189.639236 
188.337692 
209.235414 
182.354493 
200.162915 
201.247271 
195.558675 
206.553825 
200.932936 
193.071035 
195.610476 
193.721640 
209.024931 
204.489056 
184.742320 
201.992859 
202.085654 
209.181780 
198.492658 
194.150405 
199.457621 
203.306256 
196.445851 
189.646505 
225.295732 
196.332966 
197.023466 
192.655790 
209.132348 
206.190016 
201.730190 
202.590631 
199.869229 
204.120671 
193.816535 
197.579621 
202.582312 
191.976159 
189.218193 
202.812781 
200.954305 
196.096003 
202.989209 
194.273435 
213.494845 
201.031043 
197.105372 
205.564944 
197.912643 
197.405510 
195.784911 
187.644015 
215.869208 
207.300433 
201.387314 
202.488079 
201.387314 
207.448641 
201.294572 
194.948378 
201.294572 
207.448642 
202.987851 
210.722169 
200.974988 
198.250702 
200.974988 
210.722169 
202.987851 
191.862822 
193.872193 
202.465478 
221.985113 
163.333990 
221.985112 
202.465478 
193.872193 
191.862823 
209.132348 
202.590631 
201.730190 
206.190016 
202.582312 
197.579621 
193.816535 
204.120671 
199.869229 
194.273435 
202.989209 
196.096003 
200.954305 
202.812781 
189.218194 
191.976160 
215.869208 
187.644015 
195.784911 
197.405510 
197.912643 
205.564943 
197.105372 
201.031043 
213.494847 
182.354493 
195.558675 
201.247271 
200.162915 
193.721640 
195.610476 
193.071035 
200.932936 
206.553825 
198.492659 
209.181780 
202.085654 
201.992859 
184.742321 
204.489056 
209.024930 
192.655791 
197.023466 
196.332966 
225.295732 
189.646505 
196.445851 
203.306256 
199.457621 
194.150406 
202.616113 
203.904930 
200.051352 
197.088377 
198.980216 
200.000938 
200.156835 
203.287723 
213.570677 
208.880065 
198.478736 
200.913738 
201.979628 
203.172494 
200.701697 
201.357771 
209.235413 
188.337692 
189.639236 
199.345068 
211.322820 
197.985665 
198.602586 
208.578315 
200.477828 
SCALARS ELEM_i float 
LOOKUP_TABLE default 
181 
209 
182 
182 
209 
209 
210 
183 
183 
237 
210 
210 
210 
210 
183 
184 
237 
237 
238 
211 
211 
211 
211 
184 
184 
181 
208 
208 
209 
235 
208 
235 
209 
209 
235 
235 
235 
236 
236 
236 
236 
262 
262 
262 
262 
263 
263 
263 
237 
237 
181 
207 
208 
208 
207 
207 
207 
207 
234 
206 
206 
233 
234 
234 
234 
234 
205 
233 
233 
233 
233 
234 
261 
261 
261 
181 
180 
180 
180 
152 
180 
179 
180 
206 
152 
152 
179 
179 
179 
206 
206 
151 
151 
151 
178 
178 
178 
205 
205 
205 
181 
154 
154 
153 
126 
153 
153 
153 
153 
126 
126 
126 
126 
125 
152 
152 
99 
99 
99 
126 
125 
125 
125 
125 
151 
181 
155 
154 
154 
155 
155 
127 
154 
127 
128 
128 
128 
128 
127 
127 
127 
129 
129 
101 
101 
101 
100 
100 
100 
100 
181 
182 
182 
155 
183 
183 
156 
155 
155 
184 
183 
156 
156 
156 
156 
129 
184 
184 
157 
157 
157 
157 
130 
129 
129 
VECTORS VELOCITY float 
0.039796 -0.452350 0.015273 
-0.010081 -1.215025 0.004453 
0.045084 -1.550202 0.019525 
0.013697 -0.544002 0.015667 
-0.122971 -0.657098 0.016082 
0.123811 -0.770628 0.008848 
0.074250 -1.345567 0.000000 
0.167414 -1.107958 0.000000 
0.046484 -0.841738 0.015748 
-0.122350 -1.850641 0.000000 
-0.169471 -1.943999 0.000000 
-0.113902 -0.714433 0.017761 
-0.056940 -0.628423 0.009864 
-0.180298 0.008167 0.005879 
-0.262252 -0.926878 0.020035 
-0.072178 -1.697504 0.000000 
0.002786 -0.863165 0.016816 
-0.143630 -0.585223 0.009770 
0.011872 -1.022361 0.000000 
-0.053875 -1.073659 0.000000 
0.041067 -0.768979 0.018466 
-0.109918 -1.534247 0.000000 
-0.192336 -0.773187 0.006055 
-0.198151 -1.561855 0.020169 
-0.288442 -0.498788 0.015778 
-0.063526 -0.913465 0.020044 
-0.018106 -0.786839 0.012655 
-0.132795 -0.318079 0.006876 
-0.122863 -1.530447 0.000000 
-0.019281 -1.395578 0.004598 
-0.213297 -0.529516 0.022544 
0.125815 -0.226124 0.004040 
-0.223437 -1.384810 0.000000 
-0.209765 -0.992186 0.021618 
-0.253447 -2.165337 0.000000 
-0.086744 -1.252893 0.014670 
0.197103 -1.254630 0.019414 
0.006079 -1.707862 0.000000 
0.084552 -1.163862 0.016477 
-0.170951 -0.448974 0.008900 
-0.190231 -0.455476 0.010544 
0.161487 -1.254261 0.000000 
-0.086878 -1.606034 0.000000 
-0.078514 -0.616045 0.011916 
0.095812 -0.278056 0.006509 
-0.272681 -1.982833 0.000000 
0.079170 -1.012428 0.003460 
-0.099346 -0.826920 0.005923 
0.170162 -1.004572 0.000000 
0.205029 -1.130613 0.022308 
-0.077193 -1.203397 0.000000 
-0.116029 -0.444399 0.002724 
-0.112996 -1.297014 0.000000 
-0.000126 -1.504017 0.000000 
-0.005649 -1.787428 0.000000 
0.032360 -1.366535 0.010618 
0.220583 -1.203680 0.019143 
-0.025307 -0.849418 0.018714 
0.012056 0.117690 0.002578 
0.107080 -1.002972 0.015885 
0.124918 -0.954689 0.017408 
0.209571 -0.575059 0.003554 
0.131268 -1.864623 0.000000 
-0.005519 -1.653373 0.000000 
0.048528 -0.746274 0.010791 
-0.288025 -0.873863 0.017280 
0.155673 -0.591527 0.022358 
0.012938 -1.038274 0.000000 
0.092632 -1.028920 0.000000 
0.037885 -0.622474 0.011363 
-0.140523 0.141509 0.019648 
-0.148957 -0.992052 0.000000 
0.238179 -0.984170 0.000000 
-0.153240 -1.117857 0.002716 
0.299466 -0.603722 0.009074 
-0.000000 -1.194827 0.000000 
0.093228 -0.972406 0.004973 
0.000000 -0.136768 0.011396 
-0.093228 -0.972406 0.017819 
0.399910 -0.759186 0.021320 
0.068434 -1.607910 0.000000 
0.000000 -0.270035 0.011396 
-0.068434 -1.607910 0.000000 
-0.399910 -0.759186 0.001472 
-0.025734 -1.550214 0.000000 
-0.006691 -1.054114 0.021187 
-0.035443 -1.822372 0.000000 
-0.000000 -1.396579 0.011396 
0.035443 -1.822372 0.000000 
0.006691 -1.054114 0.001605 
0.025734 -1.550214 0.000000 
-0.050782 -1.406486 0.008314 
-0.110332 -0.515709 0.014631 
-0.027782 -0.891509 0.021044 
0.062224 -0.632978 0.004806 
0.000000 -0.717615 0.011396 
-0.062224 -0.632978 0.017986 
0.027782 -0.891509 0.001748 
0.110332 -0.515709 0.008161 
0.050782 -1.406486 0.014478 
0.077193 -1.203397 0.000000 
0.000126 -1.504017 0.000000 
0.112996 -1.297014 0.000000 
0.116029 -0.444399 0.020068 
-0.012056 0.117690 0.020214 
0.025307 -0.849418 0.004078 
-0.220583 -1.203680 0.003649 
-0.032360 -1.366535 0.012174 
0.005649 -1.787428 0.000000 
0.288025 -0.873863 0.005512 
-0.048528 -0.746274 0.012001 
0.005519 -1.653373 0.000000 
-0.131268 -1.864623 0.000000 
-0.209571 -0.575059 0.019238 
-0.124918 -0.954689 0.005384 
-0.107080 -1.002972 0.006907 
-0.299466 -0.603722 0.013718 
0.153240 -1.117857 0.020076 
-0.238179 -0.984170 0.000000 
0.148957 -0.992052 0.000000 
0.140523 0.141509 0.003144 
-0.037885 -0.622474 0.011429 
-0.092632 -1.028920 0.000000 
-0.012938 -1.038274 0.000000 
-0.155673 -0.591527 0.000434 
0.063526 -0.913465 0.002748 
0.122863 -1.530447 0.000000 
0.132795 -0.318079 0.015916 
0.018106 -0.786839 0.010137 
0.209765 -0.992186 0.001174 
0.223437 -1.384810 0.000000 
-0.125815 -0.226124 0.018752 
0.213297 -0.529516 0.000248 
0.019281 -1.395578 0.018194 
0.190231 -0.455476 0.012248 
0.170951 -0.448974 0.013892 
-0.084552 -1.163862 0.006315 
-0.006079 -1.707862 0.000000 
-0.197103 -1.254630 0.003378 
0.086744 -1.252893 0.008122 
0.253447 -2.165337 0.000000 
-0.205029 -1.130613 0.000484 
-0.170162 -1.004572 0.000000 
0.099346 -0.826920 0.016869 
-0.079170 -1.012428 0.019332 
0.272681 -1.982833 0.000000 
-0.095812 -0.278056 0.016284 
0.078514 -0.616045 0.010876 
0.086878 -1.606034 0.000000 
-0.161487 -1.254261 0.000000 
-0.039796 -0.452350 0.007519 
-0.013697 -0.544002 0.007125 
-0.045084 -1.550202 0.003267 
0.010081 -1.215025 0.018339 
-0.046484 -0.841738 0.007044 
-0.167414 -1.107958 0.000000 
-0.074250 -1.345567 0.000000 
-0.123811 -0.770628 0.013945 
0.122971 -0.657098 0.006710 
0.072178 -1.697504 0.000000 
0.262252 -0.926878 0.002757 
0.180298 0.008167 0.016913 
0.056940 -0.628423 0.012928 
0.113902 -0.714433 0.005031 
0.169471 -1.943999 0.000000 
0.122350 -1.850641 0.000000 
0.288442 -0.498788 0.007014 
0.198151 -1.561855 0.002623 
0.192336 -0.773187 0.016737 
0.109918 -1.534247 0.000000 
-0.041067 -0.768979 0.004326 
0.053875 -1.073659 0.000000 
-0.011872 -1.022361 0.000000 
0.143630 -0.585223 0.013022 
-0.002786 -0.863165 0.005976 
TENSORS STRESS float 
9.378914 -0.759306 0.000000 
0.000000 5.462518 0.000000 
0.000000 0.000000 0.000000 

-1.733353 0.269971 0.000000 
0.000000 -2.416302 0.000000 
0.000000 0.000000 0.000000 

29.217706 0.233556 0.000000 
0.000000 25.875251 0.000000 
0.000000 0.000000 0.000000 

20.835855 0.368369 0.000000 
0.000000 17.628281 0.000000 
0.000000 0.000000 0.000000 

-21.650881 -1.004374 0.000000 
0.000000 -23.770262 0.000000 
0.000000 0.000000 0.000000 

-10.367828 -0.745395 0.000000 
0.000000 -11.562954 0.000000 
0.000000 0.000000 0.000000 

-8.981111 -0.279469 0.000000 
0.000000 -10.578001 0.000000 
0.000000 0.000000 0.000000 

8.208035 0.624910 0.000000 
0.000000 4.373212 0.000000 
0.000000 0.000000 0.000000 

2.642024 0.299359 0.000000 
0.000000 -0.641937 0.000000 
0.000000 0.000000 0.000000 

14.813550 0.673667 0.000000 
0.000000 13.938110 0.000000 
0.000000 0.000000 0.000000 

4.358253 -1.349440 0.000000 
0.000000 3.592563 0.000000 
0.000000 0.000000 0.000000 

4.254282 -0.416882 0.000000 
0.000000 2.382630 0.000000 
0.000000 0.000000 0.000000 

-1.074955 -0.404081 0.000000 
0.000000 -3.295133 0.000000 
0.000000 0.000000 0.000000 

-3.814639 -1.094711 0.000000 
0.000000 -6.917230 0.000000 
0.000000 0.000000 0.000000 

-8.697090 0.407006 0.000000 
0.000000 -11.305115 0.000000 
0.000000 0.000000 0.000000 

-1.448821 0.115565 0.000000 
0.000000 -2.651595 0.000000 
0.000000 0.000000 0.000000 

29.096569 -0.664604 0.000000 
0.000000 27.706394 0.000000 
0.000000 0.000000 0.000000 

21.007863 0.236713 0.000000 
0.000000 18.976022 0.000000 
0.000000 0.000000 0.000000 

10.706710 2.873825 0.000000 
0.000000 2.116463 0.000000 
0.000000 0.000000 0.000000 

-13.400354 -0.185636 0.000000 
0.000000 -17.279723 0.000000 
0.000000 0.000000 0.000000 

-17.808547 -0.225371 0.000000 
0.000000 -20.873686 0.000000 
0.000000 0.000000 0.000000 

-6.466979 -0.533084 0.000000 
0.000000 -9.005145 0.000000 
0.000000 0.000000 0.000000 

0.559183 -2.401326 0.000000 
0.000000 -0.592756 0.000000 
0.000000 0.000000 0.000000 

3.522787 -0.070610 0.000000 
0.000000 3.131519 0.000000 
0.000000 0.000000 0.000000 

-7.765849 -0.443278 0.000000 
0.000000 -9.885002 0.000000 
0.000000 0.000000 0.000000 

21.385252 -2.437739 0.000000 
0.000000 21.232300 0.000000 
0.000000 0.000000 0.000000 

0.033725 -1.807828 0.000000 
0.000000 -0.810109 0.000000 
0.000000 0.000000 0.000000 

-2.041060 -1.581463 0.000000 
0.000000 -2.993173 0.000000 
0.000000 0.000000 0.000000 

1.244422 0.401516 0.000000 
0.000000 0.565746 0.000000 
0.000000 0.000000 0.000000 

-11.850385 -3.448609 0.000000 
0.000000 -11.277035 0.000000 
0.000000 0.000000 0.000000 

5.208699 -2.382616 0.000000 
0.000000 4.668037 0.000000 
0.000000 0.000000 0.000000 

20.985224 -2.120067 0.000000 
0.000000 22.769199 0.000000 
0.000000 0.000000 0.000000 

3.849119 0.526761 0.000000 
0.000000 3.428231 0.000000 
0.000000 0.000000 0.000000 

4.105147 -0.410680 0.000000 
0.000000 4.001655 0.000000 
0.000000 0.000000 0.000000 

-9.420234 -4.250464 0.000000 
0.000000 -8.204517 0.000000 
0.000000 0.000000 0.000000 

-4.984309 -4.619768 0.000000 
0.000000 -4.091001 0.000000 
0.000000 0.000000 0.000000 

15.894683 -7.148613 0.000000 
0.000000 16.979069 0.000000 
0.000000 0.000000 0.000000 

-28.143545 -0.455778 0.000000 
0.000000 -30.401219 0.000000 
0.000000 0.000000 0.000000 

-29.869908 1.070290 0.000000 
0.000000 -32.421704 0.000000 
0.000000 0.000000 0.000000 

-16.201398 2.099502 0.000000 
0.000000 -17.646892 0.000000 
0.000000 0.000000 0.000000 

-4.667383 0.365451 0.000000 
0.000000 -5.948046 0.000000 
0.000000 0.000000 0.000000 

24.376490 -0.396275 0.000000 
0.000000 24.269478 0.000000 
0.000000 0.000000 0.000000 

13.281697 -1.185341 0.000000 
0.000000 13.628439 0.000000 
0.000000 0.000000 0.000000 

-8.822145 -0.023564 0.000000 
0.000000 -8.649690 0.000000 
0.000000 0.000000 0.000000 

-6.815617 2.034409 0.000000 
0.000000 -3.878383 0.000000 
0.000000 0.000000 0.000000 

-0.864575 -1.770138 0.000000 
0.000000 2.798800 0.000000 
0.000000 0.000000 0.000000 

-49.273361 -5.068703 0.000000 
0.000000 -50.359890 0.000000 
0.000000 0.000000 0.000000 

-13.456245 -8.028861 0.000000 
0.000000 -13.299199 0.000000 
0.000000 0.000000 0.000000 

20.460949 -0.365958 0.000000 
0.000000 20.790485 0.000000 
0.000000 0.000000 0.000000 

29.411771 -0.777618 0.000000 
0.000000 29.236908 0.000000 
0.000000 0.000000 0.000000 

-14.203398 -1.180418 0.000000 
0.000000 -14.532879 0.000000 
0.000000 0.000000 0.000000 

-0.717966 1.267216 0.000000 
0.000000 -1.102201 0.000000 
0.000000 0.000000 0.000000 

-4.203442 -1.808898 0.000000 
0.000000 -5.515123 0.000000 
0.000000 0.000000 0.000000 

-1.581960 -1.646362 0.000000 
0.000000 -2.588885 0.000000 
0.000000 0.000000 0.000000 

-5.326325 0.722420 0.000000 
0.000000 -4.518767 0.000000 
0.000000 0.000000 0.000000 

-1.228397 0.370562 0.000000 
0.000000 -0.946178 0.000000 
0.000000 0.000000 0.000000 

6.721656 0.448322 0.000000 
0.000000 7.501062 0.000000 
0.000000 0.000000 0.000000 

3.916284 2.280560 0.000000 
0.000000 3.684429 0.000000 
0.000000 0.000000 0.000000 

-3.517409 -2.813203 0.000000 
0.000000 -1.021233 0.000000 
0.000000 0.000000 0.000000 

3.100812 1.721176 0.000000 
0.000000 5.159215 0.000000 
0.000000 0.000000 0.000000 

6.223494 1.440078 0.000000 
0.000000 8.007466 0.000000 
0.000000 0.000000 0.000000 

-10.797790 0.829539 0.000000 
0.000000 -9.631496 0.000000 
0.000000 0.000000 0.000000 

-2.783672 -0.920581 0.000000 
0.000000 -0.597293 0.000000 
0.000000 0.000000 0.000000 

5.108147 -1.136028 0.000000 
0.000000 7.852993 0.000000 
0.000000 0.000000 0.000000 

-4.890147 -1.522283 0.000000 
0.000000 -3.078552 0.000000 
0.000000 0.000000 0.000000 

0.668051 1.712331 0.000000 
0.000000 3.735728 0.000000 
0.000000 0.000000 0.000000 

-28.686104 0.346871 0.000000 
0.000000 -29.069566 0.000000 
0.000000 0.000000 0.000000 

11.962511 -1.254357 0.000000 
0.000000 12.378234 0.000000 
0.000000 0.000000 0.000000 

-4.166697 -0.054739 0.000000 
0.000000 -4.896982 0.000000 
0.000000 0.000000 0.000000 

-17.946085 1.035446 0.000000 
0.000000 -17.997162 0.000000 
0.000000 0.000000 0.000000 

-28.437830 1.876929 0.000000 
0.000000 -28.857405 0.000000 
0.000000 0.000000 0.000000 

12.889837 -0.709471 0.000000 
0.000000 16.526990 0.000000 
0.000000 0.000000 0.000000 

31.239182 -0.258658 0.000000 
0.000000 33.725946 0.000000 
0.000000 0.000000 0.000000 

45.481003 -0.059989 0.000000 
0.000000 48.025077 0.000000 
0.000000 0.000000 0.000000 

9.073806 -0.565665 0.000000 
0.000000 8.431406 0.000000 
0.000000 0.000000 0.000000 

-21.761426 0.000000 0.000000 
0.000000 -21.522087 0.000000 
0.000000 0.000000 0.000000 

-22.039917 0.117476 0.000000 
0.000000 -20.502274 0.000000 
0.000000 0.000000 0.000000 

-22.542621 -0.000000 0.000000 
0.000000 -20.706499 0.000000 
0.000000 0.000000 0.000000 

-22.039917 -0.117476 0.000000 
0.000000 -20.502275 0.000000 
0.000000 0.000000 0.000000 

-25.620568 -1.944609 0.000000 
0.000000 -26.492625 0.000000 
0.000000 0.000000 0.000000 

-22.445108 -0.029124 0.000000 
0.000000 -20.902755 0.000000 
0.000000 0.000000 0.000000 

-8.289682 -0.000000 0.000000 
0.000000 -5.895843 0.000000 
0.000000 0.000000 0.000000 

-22.445108 0.029124 0.000000 
0.000000 -20.902755 0.000000 
0.000000 0.000000 0.000000 

-25.620568 1.944609 0.000000 
0.000000 -26.492625 0.000000 
0.000000 0.000000 0.000000 

-2.778177 -1.789936 0.000000 
0.000000 -1.278157 0.000000 
0.000000 0.000000 0.000000 

-5.988014 -1.667442 0.000000 
0.000000 -4.773639 0.000000 
0.000000 0.000000 0.000000 

-3.352650 -0.189774 0.000000 
0.000000 -1.922003 0.000000 
0.000000 0.000000 0.000000 

-5.371714 -0.000000 0.000000 
0.000000 -3.707140 0.000000 
0.000000 0.000000 0.000000 

-3.352650 0.189774 0.000000 
0.000000 -1.922004 0.000000 
0.000000 0.000000 0.000000 

-5.988014 1.667443 0.000000 
0.000000 -4.773639 0.000000 
0.000000 0.000000 0.000000 

-2.778177 1.789936 0.000000 
0.000000 -1.278157 0.000000 
0.000000 0.000000 0.000000 

12.072347 -2.118927 0.000000 
0.000000 14.719758 0.000000 
0.000000 0.000000 0.000000 

-3.969276 -1.034130 0.000000 
0.000000 -1.917370 0.000000 
0.000000 0.000000 0.000000 

0.134549 1.161553 0.000000 
0.000000 1.129299 0.000000 
0.000000 0.000000 0.000000 

-10.469286 1.092833 0.000000 
0.000000 -9.627876 0.000000 
0.000000 0.000000 0.000000 

27.607113 -0.000000 0.000000 
0.000000 33.610099 0.000000 
0.000000 0.000000 0.000000 

-10.469286 -1.092834 0.000000 
0.000000 -9.627876 0.000000 
0.000000 0.000000 0.000000 

0.134550 -1.161553 0.000000 
0.000000 1.129300 0.000000 
0.000000 0.000000 0.000000 

-3.969276 1.034130 0.000000 
0.000000 -1.917370 0.000000 
0.000000 0.000000 0.000000 

12.072345 2.118927 0.000000 
0.000000 14.719757 0.000000 
0.000000 0.000000 0.000000 

-14.203398 1.180418 0.000000 
0.000000 -14.532879 0.000000 
0.000000 0.000000 0.000000 

-1.581959 1.646362 0.000000 
0.000000 -2.588884 0.000000 
0.000000 0.000000 0.000000 

-4.203442 1.808898 0.000000 
0.000000 -5.515122 0.000000 
0.000000 0.000000 0.000000 

-0.717967 -1.267216 0.000000 
0.000000 -1.102201 0.000000 
0.000000 0.000000 0.000000 

-3.517409 2.813203 0.000000 
0.000000 -1.021233 0.000000 
0.000000 0.000000 0.000000 

3.916283 -2.280560 0.000000 
0.000000 3.684429 0.000000 
0.000000 0.000000 0.000000 

6.721656 -0.448322 0.000000 
0.000000 7.501063 0.000000 
0.000000 0.000000 0.000000 

-1.228397 -0.370562 0.000000 
0.000000 -0.946178 0.000000 
0.000000 0.000000 0.000000 

-5.326326 -0.722420 0.000000 
0.000000 -4.518767 0.000000 
0.000000 0.000000 0.000000 

0.668050 -1.712331 0.000000 
0.000000 3.735727 0.000000 
0.000000 0.000000 0.000000 

-4.890148 1.522283 0.000000 
0.000000 -3.078552 0.000000 
0.000000 0.000000 0.000000 

5.108147 1.136028 0.000000 
0.000000 7.852993 0.000000 
0.000000 0.000000 0.000000 

-2.783672 0.920581 0.000000 
0.000000 -0.597293 0.000000 
0.000000 0.000000 0.000000 

-10.797791 -0.829539 0.000000 
0.000000 -9.631496 0.000000 
0.000000 0.000000 0.000000 

6.223493 -1.440078 0.000000 
0.000000 8.007465 0.000000 
0.000000 0.000000 0.000000 

3.100812 -1.721176 0.000000 
0.000000 5.159214 0.000000 
0.000000 0.000000 0.000000 

9.073805 0.565665 0.000000 
0.000000 8.431405 0.000000 
0.000000 0.000000 0.000000 

45.481002 0.059989 0.000000 
0.000000 48.025076 0.000000 
0.000000 0.000000 0.000000 

31.239182 0.258658 0.000000 
0.000000 33.725945 0.000000 
0.000000 0.000000 0.000000 

12.889837 0.709471 0.000000 
0.000000 16.526990 0.000000 
0.000000 0.000000 0.000000 

-28.437832 -1.876928 0.000000 
0.000000 -28.857407 0.000000 
0.000000 0.000000 0.000000 

-17.946085 -1.035446 0.000000 
0.000000 -17.997163 0.000000 
0.000000 0.000000 0.000000 

-4.166697 0.054739 0.000000 
0.000000 -4.896982 0.000000 
0.000000 0.000000 0.000000 

11.962512 1.254358 0.000000 
0.000000 12.378234 0.000000 
0.000000 0.000000 0.000000 

-28.686104 -0.346871 0.000000 
0.000000 -29.069566 0.000000 
0.000000 0.000000 0.000000 

21.385252 2.437739 0.000000 
0.000000 21.232300 0.000000 
0.000000 0.000000 0.000000 

1.244422 -0.401516 0.000000 
0.000000 0.565746 0.000000 
0.000000 0.000000 0.000000 

-2.041059 1.581463 0.000000 
0.000000 -2.993172 0.000000 
0.000000 0.000000 0.000000 

0.033725 1.807828 0.000000 
0.000000 -0.810109 0.000000 
0.000000 0.000000 0.000000 

4.105146 0.410680 0.000000 
0.000000 4.001654 0.000000 
0.000000 0.000000 0.000000 

3.849118 -0.526761 0.000000 
0.000000 3.428230 0.000000 
0.000000 0.000000 0.000000 

20.985223 2.120067 0.000000 
0.000000 22.769198 0.000000 
0.000000 0.000000 0.000000 

5.208699 2.382616 0.000000 
0.000000 4.668037 0.000000 
0.000000 0.000000 0.000000 

-11.850386 3.448609 0.000000 
0.000000 -11.277035 0.000000 
0.000000 0.000000 0.000000 

-4.667384 -0.365451 0.000000 
0.000000 -5.948047 0.000000 
0.000000 0.000000 0.000000 

-16.201397 -2.099502 0.000000 
0.000000 -17.646891 0.000000 
0.000000 0.000000 0.000000 

-29.869907 -1.070290 0.000000 
0.000000 -32.421703 0.000000 
0.000000 0.000000 0.000000 

-28.143546 0.455778 0.000000 
0.000000 -30.401220 0.000000 
0.000000 0.000000 0.000000 

15.894682 7.148612 0.000000 
0.000000 16.979067 0.000000 
0.000000 0.000000 0.000000 

-4.984310 4.619768 0.000000 
0.000000 -4.091002 0.000000 
0.000000 0.000000 0.000000 

-9.420235 4.250464 0.000000 
0.000000 -8.204518 0.000000 
0.000000 0.000000 0.000000 

29.411771 0.777618 0.000000 
0.000000 29.236908 0.000000 
0.000000 0.000000 0.000000 

20.460950 0.365958 0.000000 
0.000000 20.790486 0.000000 
0.000000 0.000000 0.000000 

-13.456243 8.028861 0.000000 
0.000000 -13.299197 0.000000 
0.000000 0.000000 0.000000 

-49.273361 5.068703 0.000000 
0.000000 -50.359889 0.000000 
0.000000 0.000000 0.000000 

-0.864575 1.770138 0.000000 
0.000000 2.798801 0.000000 
0.000000 0.000000 0.000000 

-6.815616 -2.034409 0.000000 
0.000000 -3.878382 0.000000 
0.000000 0.000000 0.000000 

-8.822145 0.023564 0.000000 
0.000000 -8.649690 0.000000 
0.000000 0.000000 0.000000 

13.281696 1.185341 0.000000 
0.000000 13.628438 0.000000 
0.000000 0.000000 0.000000 

24.376489 0.396275 0.000000 
0.000000 24.269476 0.000000 
0.000000 0.000000 0.000000 

9.378914 0.759306 0.000000 
0.000000 5.462518 0.000000 
0.000000 0.000000 0.000000 

20.835856 -0.368369 0.000000 
0.000000 17.628281 0.000000 
0.000000 0.000000 0.000000 

29.217706 -0.233556 0.000000 
0.000000 25.875251 0.000000 
0.000000 0.000000 0.000000 

-1.733353 -0.269971 0.000000 
0.000000 -2.416302 0.000000 
0.000000 0.000000 0.000000 

2.642024 -0.299359 0.000000 
0.000000 -0.641938 0.000000 
0.000000 0.000000 0.000000 

8.208035 -0.624910 0.000000 
0.000000 4.373212 0.000000 
0.000000 0.000000 0.000000 

-8.981111 0.279469 0.000000 
0.000000 -10.578001 0.000000 
0.000000 0.000000 0.000000 

-10.367829 0.745395 0.000000 
0.000000 -11.562955 0.000000 
0.000000 0.000000 0.000000 

-21.650882 1.004374 0.000000 
0.000000 -23.770262 0.000000 
0.000000 0.000000 0.000000 

-1.448821 -0.115565 0.000000 
0.000000 -2.651595 0.000000 
0.000000 0.000000 0.000000 

-8.697091 -0.407005 0.000000 
0.000000 -11.305115 0.000000 
0.000000 0.000000 0.000000 

-3.814639 1.094711 0.000000 
0.000000 -6.917230 0.000000 
0.000000 0.000000 0.000000 

-1.074955 0.404081 0.000000 
0.000000 -3.295132 0.000000 
0.000000 0.000000 0.000000 

4.254282 0.416882 0.000000 
0.000000 2.382630 0.000000 
0.000000 0.000000 0.000000 

4.358254 1.349440 0.000000 
0.000000 3.592564 0.000000 
0.000000 0.000000 0.000000 

14.813551 -0.673667 0.000000 
0.000000 13.938110 0.000000 
0.000000 0.000000 0.000000 

-7.765848 0.443278 0.000000 
0.000000 -9.885002 0.000000 
0.000000 0.000000 0.000000 

3.522787 0.070610 0.000000 
0.000000 3.131520 0.000000 
0.000000 0.000000 0.000000 

0.559183 2.401326 0.000000 
0.000000 -0.592755 0.000000 
0.000000 0.000000 0.000000 

-6.466979 0.533084 0.000000 
0.000000 -9.005145 0.000000 
0.000000 0.000000 0.000000 

-17.808546 0.225371 0.000000 
0.000000 -20.873686 0.000000 
0.000000 0.000000 0.000000 

-13.400353 0.185636 0.000000 
0.000000 -17.279723 0.000000 
0.000000 0.000000 0.000000 

10.706709 -2.873825 0.000000 
0.000000 2.116462 0.000000 
0.000000 0.000000 0.000000 

21.007864 -0.236713 0.000000 
0.000000 18.976023 0.000000 
0.000000 0.000000 0.000000 

29.096570 0.664604 0.000000 
0.000000 27.706395 0.000000 
0.000000 0.000000 0.000000 

TENSORS STRAIN float 
0.008649 -0.002912 0.000000 
0.000000 -0.006372 0.000000 
0.000000 0.000000 0.000000 

0.000872 0.000911 0.000000 
0.000000 -0.001433 0.000000 
0.000000 0.000000 0.000000 

0.008673 0.000730 0.000000 
0.000000 -0.001781 0.000000 
0.000000 0.000000 0.000000 

0.008286 0.001286 0.000000 
0.000000 -0.002914 0.000000 
0.000000 0.000000 0.000000 

0.000543 -0.003602 0.000000 
0.000000 -0.007059 0.000000 
0.000000 0.000000 0.000000 

0.000519 -0.002435 0.000000 
0.000000 -0.003385 0.000000 
0.000000 0.000000 0.000000 

0.001405 -0.000964 0.000000 
0.000000 -0.004105 0.000000 
0.000000 0.000000 0.000000 

0.006970 0.002008 0.000000 
0.000000 -0.005353 0.000000 
0.000000 0.000000 0.000000 

0.005620 0.001000 0.000000 
0.000000 -0.005353 0.000000 
0.000000 0.000000 0.000000 

0.003402 0.002263 0.000000 
0.000000 0.000461 0.000000 
0.000000 0.000000 0.000000 

0.001769 -0.004405 0.000000 
0.000000 -0.000731 0.000000 
0.000000 0.000000 0.000000 

0.003694 -0.001441 0.000000 
0.000000 -0.002776 0.000000 
0.000000 0.000000 0.000000 

0.003339 -0.001319 0.000000 
0.000000 -0.003910 0.000000 
0.000000 0.000000 0.000000 

0.004569 -0.003742 0.000000 
0.000000 -0.006037 0.000000 
0.000000 0.000000 0.000000 

0.002918 0.001314 0.000000 
0.000000 -0.005501 0.000000 
0.000000 0.000000 0.000000 

0.001810 0.000403 0.000000 
0.000000 -0.002382 0.000000 
0.000000 0.000000 0.000000 

0.006086 -0.002209 0.000000 
0.000000 0.001466 0.000000 
0.000000 0.000000 0.000000 

0.006120 0.000798 0.000000 
0.000000 -0.000729 0.000000 
0.000000 0.000000 0.000000 

0.014985 0.009462 0.000000 
0.000000 -0.013296 0.000000 
0.000000 0.000000 0.000000 

0.004191 -0.000587 0.000000 
0.000000 -0.008069 0.000000 
0.000000 0.000000 0.000000 

0.002659 -0.000790 0.000000 
0.000000 -0.008079 0.000000 
0.000000 0.000000 0.000000 

0.003053 -0.001696 0.000000 
0.000000 -0.005023 0.000000 
0.000000 0.000000 0.000000 

0.001809 -0.007549 0.000000 
0.000000 -0.001813 0.000000 
0.000000 0.000000 0.000000 

0.001001 -0.000215 0.000000 
0.000000 -0.000190 0.000000 
0.000000 0.000000 0.000000 

0.002451 -0.001538 0.000000 
0.000000 -0.004900 0.000000 
0.000000 0.000000 0.000000 

0.003206 -0.008415 0.000000 
0.000000 0.002678 0.000000 
0.000000 0.000000 0.000000 

0.001393 -0.006197 0.000000 
0.000000 -0.001499 0.000000 
0.000000 0.000000 0.000000 

0.001181 -0.004975 0.000000 
0.000000 -0.001814 0.000000 
0.000000 0.000000 0.000000 

0.001258 0.001345 0.000000 
0.000000 -0.001015 0.000000 
0.000000 0.000000 0.000000 

-0.002599 -0.011962 0.000000 
0.000000 -0.000610 0.000000 
0.000000 0.000000 0.000000 

0.001511 -0.007692 0.000000 
0.000000 -0.000235 0.000000 
0.000000 0.000000 0.000000 

-0.000056 -0.007056 0.000000 
0.000000 0.005881 0.000000 
0.000000 0.000000 0.000000 

0.001119 0.001656 0.000000 
0.000000 -0.000204 0.000000 
0.000000 0.000000 0.000000 

0.000696 -0.001336 0.000000 
0.000000 0.000359 0.000000 
0.000000 0.000000 0.000000 

-0.003349 -0.014823 0.000000 
0.000000 0.000891 0.000000 
0.000000 0.000000 0.000000 

-0.002089 -0.015364 0.000000 
0.000000 0.000882 0.000000 
0.000000 0.000000 0.000000 

0.000362 -0.022471 0.000000 
0.000000 0.003771 0.000000 
0.000000 0.000000 0.000000 

-0.000137 -0.001488 0.000000 
0.000000 -0.007509 0.000000 
0.000000 0.000000 0.000000 

0.000103 0.003680 0.000000 
0.000000 -0.008671 0.000000 
0.000000 0.000000 0.000000 

0.000156 0.007143 0.000000 
0.000000 -0.004762 0.000000 
0.000000 0.000000 0.000000 

0.001418 0.001210 0.000000 
0.000000 -0.002824 0.000000 
0.000000 0.000000 0.000000 

0.003304 -0.001275 0.000000 
0.000000 0.002959 0.000000 
0.000000 0.000000 0.000000 

0.001176 -0.003821 0.000000 
0.000000 0.002294 0.000000 
0.000000 0.000000 0.000000 

-0.001468 -0.000079 0.000000 
0.000000 -0.000887 0.000000 
0.000000 0.000000 0.000000 

-0.005276 0.006379 0.000000 
0.000000 0.003934 0.000000 
0.000000 0.000000 0.000000 

-0.005637 -0.005565 0.000000 
0.000000 0.005880 0.000000 
0.000000 0.000000 0.000000 

-0.005212 -0.018228 0.000000 
0.000000 -0.009119 0.000000 
0.000000 0.000000 0.000000 

-0.001997 -0.026131 0.000000 
0.000000 -0.001486 0.000000 
0.000000 0.000000 0.000000 

0.002102 -0.001165 0.000000 
0.000000 0.003152 0.000000 
0.000000 0.000000 0.000000 

0.004025 -0.002483 0.000000 
0.000000 0.003467 0.000000 
0.000000 0.000000 0.000000 

-0.001623 -0.004673 0.000000 
0.000000 -0.002927 0.000000 
0.000000 0.000000 0.000000 

0.000550 0.004474 0.000000 
0.000000 -0.000807 0.000000 
0.000000 0.000000 0.000000 

0.001455 -0.005705 0.000000 
0.000000 -0.002681 0.000000 
0.000000 0.000000 0.000000 

0.001457 -0.005712 0.000000 
0.000000 -0.002036 0.000000 
0.000000 0.000000 0.000000 

-0.002016 0.002425 0.000000 
0.000000 0.000694 0.000000 
0.000000 0.000000 0.000000 

-0.000605 0.001215 0.000000 
0.000000 0.000320 0.000000 
0.000000 0.000000 0.000000 

-0.000352 0.001498 0.000000 
0.000000 0.002252 0.000000 
0.000000 0.000000 0.000000 

0.000851 0.007240 0.000000 
0.000000 0.000115 0.000000 
0.000000 0.000000 0.000000 

-0.004555 -0.009571 0.000000 
0.000000 0.003937 0.000000 
0.000000 0.000000 0.000000 

-0.002767 0.005513 0.000000 
0.000000 0.003826 0.000000 
0.000000 0.000000 0.000000 

-0.001869 0.004432 0.000000 
0.000000 0.003621 0.000000 
0.000000 0.000000 0.000000 

-0.003422 0.002863 0.000000 
0.000000 0.000602 0.000000 
0.000000 0.000000 0.000000 

-0.003771 -0.002990 0.000000 
0.000000 0.003331 0.000000 
0.000000 0.000000 0.000000 

-0.003714 -0.003790 0.000000 
0.000000 0.005444 0.000000 
0.000000 0.000000 0.000000 

-0.003517 -0.005026 0.000000 
0.000000 0.002464 0.000000 
0.000000 0.000000 0.000000 

-0.004686 0.005550 0.000000 
0.000000 0.005257 0.000000 
0.000000 0.000000 0.000000 

-0.003410 0.001228 0.000000 
0.000000 -0.004767 0.000000 
0.000000 0.000000 0.000000 

0.000906 -0.004075 0.000000 
0.000000 0.002257 0.000000 
0.000000 0.000000 0.000000 

0.000601 -0.000179 0.000000 
0.000000 -0.001785 0.000000 
0.000000 0.000000 0.000000 

-0.002275 0.003397 0.000000 
0.000000 -0.002443 0.000000 
0.000000 0.000000 0.000000 

-0.003071 0.006158 0.000000 
0.000000 -0.004448 0.000000 
0.000000 0.000000 0.000000 

-0.003876 -0.002235 0.000000 
0.000000 0.007584 0.000000 
0.000000 0.000000 0.000000 

0.000181 -0.000839 0.000000 
0.000000 0.008253 0.000000 
0.000000 0.000000 0.000000 

0.001814 -0.000182 0.000000 
0.000000 0.009529 0.000000 
0.000000 0.000000 0.000000 

0.002402 -0.002024 0.000000 
0.000000 0.000103 0.000000 
0.000000 0.000000 0.000000 

-0.003867 0.000000 0.000000 
0.000000 -0.002927 0.000000 
0.000000 0.000000 0.000000 

-0.005586 0.000405 0.000000 
0.000000 -0.000283 0.000000 
0.000000 0.000000 0.000000 

-0.005644 -0.000000 0.000000 
0.000000 0.000168 0.000000 
0.000000 0.000000 0.000000 

-0.005586 -0.000405 0.000000 
0.000000 -0.000283 0.000000 
0.000000 0.000000 0.000000 

-0.002112 -0.006775 0.000000 
0.000000 -0.005150 0.000000 
0.000000 0.000000 0.000000 

-0.005298 -0.000094 0.000000 
0.000000 -0.000310 0.000000 
0.000000 0.000000 0.000000 

-0.004976 -0.000000 0.000000 
0.000000 0.003069 0.000000 
0.000000 0.000000 0.000000 

-0.005298 0.000094 0.000000 
0.000000 -0.000310 0.000000 
0.000000 0.000000 0.000000 

-0.002112 0.006775 0.000000 
0.000000 -0.005150 0.000000 
0.000000 0.000000 0.000000 

-0.002815 -0.006062 0.000000 
0.000000 0.002265 0.000000 
0.000000 0.000000 0.000000 

-0.002819 -0.005715 0.000000 
0.000000 0.001343 0.000000 
0.000000 0.000000 0.000000 

-0.002807 -0.000649 0.000000 
0.000000 0.002085 0.000000 
0.000000 0.000000 0.000000 

-0.003249 -0.000000 0.000000 
0.000000 0.002085 0.000000 
0.000000 0.000000 0.000000 

-0.002807 0.000649 0.000000 
0.000000 0.002085 0.000000 
0.000000 0.000000 0.000000 

-0.002819 0.005715 0.000000 
0.000000 0.001343 0.000000 
0.000000 0.000000 0.000000 

-0.002815 0.006062 0.000000 
0.000000 0.002265 0.000000 
0.000000 0.000000 0.000000 

-0.002506 -0.006739 0.000000 
0.000000 0.005914 0.000000 
0.000000 0.000000 0.000000 

-0.003584 -0.003240 0.000000 
0.000000 0.002846 0.000000 
0.000000 0.000000 0.000000 

-0.001585 0.003899 0.000000 
0.000000 0.001754 0.000000 
0.000000 0.000000 0.000000 

-0.002915 0.003872 0.000000 
0.000000 0.000066 0.000000 
0.000000 0.000000 0.000000 

-0.004812 -0.000000 0.000000 
0.000000 0.011442 0.000000 
0.000000 0.000000 0.000000 

-0.002915 -0.003872 0.000000 
0.000000 0.000066 0.000000 
0.000000 0.000000 0.000000 

-0.001585 -0.003899 0.000000 
0.000000 0.001754 0.000000 
0.000000 0.000000 0.000000 

-0.003584 0.003240 0.000000 
0.000000 0.002846 0.000000 
0.000000 0.000000 0.000000 

-0.002506 0.006739 0.000000 
0.000000 0.005914 0.000000 
0.000000 0.000000 0.000000 

-0.001623 0.004673 0.000000 
0.000000 -0.002927 0.000000 
0.000000 0.000000 0.000000 

0.001457 0.005712 0.000000 
0.000000 -0.002036 0.000000 
0.000000 0.000000 0.000000 

0.001455 0.005705 0.000000 
0.000000 -0.002681 0.000000 
0.000000 0.000000 0.000000 

0.000550 -0.004474 0.000000 
0.000000 -0.000807 0.000000 
0.000000 0.000000 0.000000 

-0.004555 0.009571 0.000000 
0.000000 0.003937 0.000000 
0.000000 0.000000 0.000000 

0.000851 -0.007240 0.000000 
0.000000 0.000115 0.000000 
0.000000 0.000000 0.000000 

-0.000352 -0.001498 0.000000 
0.000000 0.002252 0.000000 
0.000000 0.000000 0.000000 

-0.000605 -0.001215 0.000000 
0.000000 0.000320 0.000000 
0.000000 0.000000 0.000000 

-0.002016 -0.002425 0.000000 
0.000000 0.000694 0.000000 
0.000000 0.000000 0.000000 

-0.004686 -0.005550 0.000000 
0.000000 0.005257 0.000000 
0.000000 0.000000 0.000000 

-0.003517 0.005026 0.000000 
0.000000 0.002464 0.000000 
0.000000 0.000000 0.000000 

-0.003714 0.003790 0.000000 
0.000000 0.005444 0.000000 
0.000000 0.000000 0.000000 

-0.003771 0.002990 0.000000 
0.000000 0.003331 0.000000 
0.000000 0.000000 0.000000 

-0.003422 -0.002863 0.000000 
0.000000 0.000602 0.000000 
0.000000 0.000000 0.000000 

-0.001869 -0.004432 0.000000 
0.000000 0.003621 0.000000 
0.000000 0.000000 0.000000 

-0.002767 -0.005513 0.000000 
0.000000 0.003826 0.000000 
0.000000 0.000000 0.000000 

0.002402 0.002024 0.000000 
0.000000 0.000103 0.000000 
0.000000 0.000000 0.000000 

0.001814 0.000182 0.000000 
0.000000 0.009529 0.000000 
0.000000 0.000000 0.000000 

0.000181 0.000839 0.000000 
0.000000 0.008253 0.000000 
0.000000 0.000000 0.000000 

-0.003876 0.002235 0.000000 
0.000000 0.007584 0.000000 
0.000000 0.000000 0.000000 

-0.003071 -0.006158 0.000000 
0.000000 -0.004448 0.000000 
0.000000 0.000000 0.000000 

-0.002275 -0.003397 0.000000 
0.000000 -0.002443 0.000000 
0.000000 0.000000 0.000000 

0.000601 0.000179 0.000000 
0.000000 -0.001785 0.000000 
0.000000 0.000000 0.000000 

0.000906 0.004075 0.000000 
0.000000 0.002257 0.000000 
0.000000 0.000000 0.000000 

-0.003410 -0.001228 0.000000 
0.000000 -0.004767 0.000000 
0.000000 0.000000 0.000000 

0.003206 0.008415 0.000000 
0.000000 0.002678 0.000000 
0.000000 0.000000 0.000000 

0.001258 -0.001345 0.000000 
0.000000 -0.001015 0.000000 
0.000000 0.000000 0.000000 

0.001181 0.004975 0.000000 
0.000000 -0.001814 0.000000 
0.000000 0.000000 0.000000 

0.001393 0.006197 0.000000 
0.000000 -0.001499 0.000000 
0.000000 0.000000 0.000000 

0.000696 0.001336 0.000000 
0.000000 0.000359 0.000000 
0.000000 0.000000 0.000000 

0.001119 -0.001656 0.000000 
0.000000 -0.000204 0.000000 
0.000000 0.000000 0.000000 

-0.000056 0.007056 0.000000 
0.000000 0.005881 0.000000 
0.000000 0.000000 0.000000 

0.001511 0.007692 0.000000 
0.000000 -0.000235 0.000000 
0.000000 0.000000 0.000000 

-0.002599 0.011962 0.000000 
0.000000 -0.000610 0.000000 
0.000000 0.000000 0.000000 

0.001418 -0.001210 0.000000 
0.000000 -0.002824 0.000000 
0.000000 0.000000 0.000000 

0.000156 -0.007143 0.000000 
0.000000 -0.004762 0.000000 
0.000000 0.000000 0.000000 

0.000103 -0.003680 0.000000 
0.000000 -0.008671 0.000000 
0.000000 0.000000 0.000000 

-0.000137 0.001488 0.000000 
0.000000 -0.007509 0.000000 
0.000000 0.000000 0.000000 

0.000362 0.022471 0.000000 
0.000000 0.003771 0.000000 
0.000000 0.000000 0.000000 

-0.002089 0.015364 0.000000 
0.000000 0.000882 0.000000 
0.000000 0.000000 0.000000 

-0.003349 0.014823 0.000000 
0.000000 0.000891 0.000000 
0.000000 0.000000 0.000000 

0.004025 0.002483 0.000000 
0.000000 0.003467 0.000000 
0.000000 0.000000 0.000000 

0.002102 0.001165 0.000000 
0.000000 0.003152 0.000000 
0.000000 0.000000 0.000000 

-0.001997 0.026131 0.000000 
0.000000 -0.001486 0.000000 
0.000000 0.000000 0.000000 

-0.005212 0.018228 0.000000 
0.000000 -0.009119 0.000000 
0.000000 0.000000 0.000000 

-0.005637 0.005565 0.000000 
0.000000 0.005880 0.000000 
0.000000 0.000000 0.000000 

-0.005276 -0.006379 0.000000 
0.000000 0.003934 0.000000 
0.000000 0.000000 0.000000 

-0.001468 0.000079 0.000000 
0.000000 -0.000887 0.000000 
0.000000 0.000000 0.000000 

0.001176 0.003821 0.000000 
0.000000 0.002294 0.000000 
0.000000 0.000000 0.000000 

0.003304 0.001275 0.000000 
0.000000 0.002959 0.000000 
0.000000 0.000000 0.000000 

0.008649 0.002912 0.000000 
0.000000 -0.006372 0.000000 
0.000000 0.000000 0.000