# vtk DataFile Version 3.0 
vtk output 
ASCII 
DATASET UNSTRUCTURED_GRID 
POINTS 175 float 
-0.026061 -0.133354 0.000000 
-0.106992 -0.065299 0.000000 
-0.054870 -0.073531 0.000000 
-0.028809 -0.027647 0.000000 
-0.186430 -0.001223 0.000000 
-0.137056 -0.003749 0.000000 
-0.114311 0.049898 0.000000 
-0.058186 0.034232 0.000000 
-0.029377 0.074410 0.000000 
-0.265318 0.061933 0.000000 
-0.217198 0.061133 0.000000 
-0.196633 0.118430 0.000000 
-0.143120 0.109721 0.000000 
-0.116563 0.156989 0.000000 
-0.058945 0.137344 0.000000 
-0.029568 0.175464 0.000000 
-0.344206 0.125089 0.000000 
-0.296791 0.125096 0.000000 
-0.278030 0.185039 0.000000 
-0.225992 0.179172 0.000000 
-0.201664 0.231289 0.000000 
-0.145749 0.217815 0.000000 
-0.117890 0.262158 0.000000 
-0.059328 0.239452 0.000000 
-0.029759 0.276518 0.000000 
-0.058559 -0.174105 0.000000 
-0.162226 -0.194947 0.000000 
-0.123292 -0.159330 0.000000 
-0.142917 -0.110346 0.000000 
-0.261851 -0.217104 0.000000 
-0.229092 -0.180077 0.000000 
-0.256854 -0.128845 0.000000 
-0.209613 -0.094733 0.000000 
-0.223062 -0.047159 0.000000 
-0.360414 -0.239404 0.000000 
-0.329787 -0.202281 0.000000 
-0.361761 -0.150479 0.000000 
-0.321587 -0.114070 0.000000 
-0.341985 -0.063836 0.000000 
-0.290702 -0.031037 0.000000 
-0.302189 0.015698 0.000000 
-0.458977 -0.261704 0.000000 
-0.429420 -0.224629 0.000000 
-0.464588 -0.172588 0.000000 
-0.427556 -0.135560 0.000000 
-0.453135 -0.084045 0.000000 
-0.407738 -0.048730 0.000000 
-0.425037 0.000698 0.000000 
-0.370772 0.032327 0.000000 
-0.381315 0.078555 0.000000 
-0.046960 -0.224920 0.000000 
-0.095301 -0.318966 0.000000 
-0.098873 -0.266319 0.000000 
-0.149405 -0.251121 0.000000 
-0.140093 -0.410670 0.000000 
-0.148617 -0.361972 0.000000 
-0.205981 -0.351734 0.000000 
-0.203197 -0.293531 0.000000 
-0.248777 -0.274384 0.000000 
-0.184111 -0.501633 0.000000 
-0.194039 -0.454542 0.000000 
-0.254475 -0.447243 0.000000 
-0.257893 -0.393133 0.000000 
-0.309886 -0.377761 0.000000 
-0.303554 -0.317215 0.000000 
-0.347255 -0.297058 0.000000 
-0.228129 -0.592597 0.000000 
-0.238687 -0.546373 0.000000 
-0.301302 -0.541421 0.000000 
-0.307162 -0.489382 0.000000 
-0.363386 -0.477261 0.000000 
-0.362692 -0.419749 0.000000 
-0.412122 -0.402456 0.000000 
-0.403017 -0.340310 0.000000 
-0.445733 -0.319731 0.000000 
-0.000000 -0.247535 0.000000 
0.043388 -0.343965 0.000000 
-0.000000 -0.313933 0.000000 
-0.043388 -0.343965 0.000000 
0.087158 -0.436162 0.000000 
0.043769 -0.412464 0.000000 
-0.000000 -0.450929 0.000000 
-0.043769 -0.412464 0.000000 
-0.087158 -0.436162 0.000000 
0.130831 -0.527292 0.000000 
0.087824 -0.505693 0.000000 
0.044436 -0.548393 0.000000 
-0.000000 -0.517328 0.000000 
-0.044436 -0.548393 0.000000 
-0.087824 -0.505693 0.000000 
-0.130831 -0.527292 0.000000 
0.174505 -0.618421 0.000000 
0.131782 -0.597855 0.000000 
0.088871 -0.643722 0.000000 
0.044532 -0.615858 0.000000 
-0.000000 -0.652258 0.000000 
-0.044532 -0.615858 0.000000 
-0.088871 -0.643722 0.000000 
-0.131782 -0.597855 0.000000 
-0.174505 -0.618421 0.000000 
0.046960 -0.224920 0.000000 
0.149405 -0.251121 0.000000 
0.098873 -0.266319 0.000000 
0.095301 -0.318966 0.000000 
0.248777 -0.274384 0.000000 
0.203197 -0.293531 0.000000 
0.205981 -0.351734 0.000000 
0.148617 -0.361972 0.000000 
0.140093 -0.410670 0.000000 
0.347255 -0.297058 0.000000 
0.303554 -0.317215 0.000000 
0.309886 -0.377761 0.000000 
0.257893 -0.393133 0.000000 
0.254475 -0.447243 0.000000 
0.194039 -0.454542 0.000000 
0.184111 -0.501633 0.000000 
0.445733 -0.319731 0.000000 
0.403017 -0.340310 0.000000 
0.412122 -0.402456 0.000000 
0.362692 -0.419749 0.000000 
0.363386 -0.477261 0.000000 
0.307162 -0.489382 0.000000 
0.301302 -0.541421 0.000000 
0.238687 -0.546373 0.000000 
0.228129 -0.592597 0.000000 
0.058559 -0.174105 0.000000 
0.142917 -0.110346 0.000000 
0.123292 -0.159330 0.000000 
0.162226 -0.194947 0.000000 
0.223062 -0.047159 0.000000 
0.209613 -0.094733 0.000000 
0.256854 -0.128845 0.000000 
0.229092 -0.180077 0.000000 
0.261851 -0.217104 0.000000 
0.302189 0.015698 0.000000 
0.290702 -0.031037 0.000000 
0.341985 -0.063836 0.000000 
0.321587 -0.114070 0.000000 
0.361761 -0.150479 0.000000 
0.329787 -0.202281 0.000000 
0.360414 -0.239404 0.000000 
0.381315 0.078555 0.000000 
0.370772 0.032327 0.000000 
0.425037 0.000698 0.000000 
0.407738 -0.048730 0.000000 
0.453135 -0.084045 0.000000 
0.427556 -0.135560 0.000000 
0.464588 -0.172588 0.000000 
0.429420 -0.224629 0.000000 
0.458977 -0.261704 0.000000 
0.026061 -0.133354 0.000000 
0.028809 -0.027647 0.000000 
0.054870 -0.073531 0.000000 
0.106992 -0.065299 0.000000 
0.029377 0.074410 0.000000 
0.058186 0.034232 0.000000 
0.114311 0.049898 0.000000 
0.137056 -0.003749 0.000000 
0.186430 -0.001223 0.000000 
0.029568 0.175464 0.000000 
0.058945 0.137344 0.000000 
0.116563 0.156989 0.000000 
0.143120 0.109721 0.000000 
0.196633 0.118430 0.000000 
0.217198 0.061133 0.000000 
0.265318 0.061933 0.000000 
0.029759 0.276518 0.000000 
0.059328 0.239452 0.000000 
0.117890 0.262158 0.000000 
0.145749 0.217815 0.000000 
0.201664 0.231289 0.000000 
0.225992 0.179172 0.000000 
0.278030 0.185039 0.000000 
0.296791 0.125096 0.000000 
0.344206 0.125089 0.000000 
CELLS 175 350 
1 0 
1 1 
1 2 
1 3 
1 4 
1 5 
1 6 
1 7 
1 8 
1 9 
1 10 
1 11 
1 12 
1 13 
1 14 
1 15 
1 16 
1 17 
1 18 
1 19 
1 20 
1 21 
1 22 
1 23 
1 24 
1 25 
1 26 
1 27 
1 28 
1 29 
1 30 
1 31 
1 32 
1 33 
1 34 
1 35 
1 36 
1 37 
1 38 
1 39 
1 40 
1 41 
1 42 
1 43 
1 44 
1 45 
1 46 
1 47 
1 48 
1 49 
1 50 
1 51 
1 52 
1 53 
1 54 
1 55 
1 56 
1 57 
1 58 
1 59 
1 60 
1 61 
1 62 
1 63 
1 64 
1 65 
1 66 
1 67 
1 68 
1 69 
1 70 
1 71 
1 72 
1 73 
1 74 
1 75 
1 76 
1 77 
1 78 
1 79 
1 80 
1 81 
1 82 
1 83 
1 84 
1 85 
1 86 
1 87 
1 88 
1 89 
1 90 
1 91 
1 92 
1 93 
1 94 
1 95 
1 96 
1 97 
1 98 
1 99 
1 100 
1 101 
1 102 
1 103 
1 104 
1 105 
1 106 
1 107 
1 108 
1 109 
1 110 
1 111 
1 112 
1 113 
1 114 
1 115 
1 116 
1 117 
1 118 
1 119 
1 120 
1 121 
1 122 
1 123 
1 124 
1 125 
1 126 
1 127 
1 128 
1 129 
1 130 
1 131 
1 132 
1 133 
1 134 
1 135 
1 136 
1 137 
1 138 
1 139 
1 140 
1 141 
1 142 
1 143 
1 144 
1 145 
1 146 
1 147 
1 148 
1 149 
1 150 
1 151 
1 152 
1 153 
1 154 
1 155 
1 156 
1 157 
1 158 
1 159 
1 160 
1 161 
1 162 
1 163 
1 164 
1 165 
1 166 
1 167 
1 168 
1 169 
1 170 
1 171 
1 172 
1 173 
1 174 
CELL_TYPES 175 
1 
1 
1 
1 
1 
1 
1 
1 
1 
1 
1 
1 
1 
1 
1 
1 
1 
1 
1 
1 
1 
1 
1 
1 
1 
1 
1 
1 
1 
1 
1 
1 
1 
1 
1 
1 
1 
1 
1 
1 
1 
1 
1 
1 
1 
1 
1 
1 
1 
1 
1 
1 
1 
1 
1 
1 
1 
1 
1 
1 
1 
1 
1 
1 
1 
1 
1 
1 
1 
1 
1 
1 
1 
1 
1 
1 
1 
1 
1 
1 
1 
1 
1 
1 
1 
1 
1 
1 
1 
1 
1 
1 
1 
1 
1 
1 
1 
1 
1 
1 
1 
1 
1 
1 
1 
1 
1 
1 
1 
1 
1 
1 
1 
1 
1 
1 
1 
1 
1 
1 
1 
1 
1 
1 
1 
1 
1 
1 
1 
1 
1 
1 
1 
1 
1 
1 
1 
1 
1 
1 
1 
1 
1 
1 
1 
1 
1 
1 
1 
1 
1 
1 
1 
1 
1 
1 
1 
1 
1 
1 
1 
1 
1 
1 
1 
1 
1 
1 
1 
1 
1 
1 
1 
1 
1 
POINT_DATA 175 
VECTORS X_GC float 
-0.026061 -0.133354 0.000000 
-0.106992 -0.065299 0.000000 
-0.054870 -0.073531 0.000000 
-0.028809 -0.027647 0.000000 
-0.186430 -0.001223 0.000000 
-0.137056 -0.003749 0.000000 
-0.114311 0.049898 0.000000 
-0.058186 0.034232 0.000000 
-0.029377 0.074410 0.000000 
-0.265318 0.061933 0.000000 
-0.217198 0.061133 0.000000 
-0.196633 0.118430 0.000000 
-0.143120 0.109721 0.000000 
-0.116563 0.156989 0.000000 
-0.058945 0.137344 0.000000 
-0.029568 0.175464 0.000000 
-0.344206 0.125089 0.000000 
-0.296791 0.125096 0.000000 
-0.278030 0.185039 0.000000 
-0.225992 0.179172 0.000000 
-0.201664 0.231289 0.000000 
-0.145749 0.217815 0.000000 
-0.117890 0.262158 0.000000 
-0.059328 0.239452 0.000000 
-0.029759 0.276518 0.000000 
-0.058559 -0.174105 0.000000 
-0.162226 -0.194947 0.000000 
-0.123292 -0.159330 0.000000 
-0.142917 -0.110346 0.000000 
-0.261851 -0.217104 0.000000 
-0.229092 -0.180077 0.000000 
-0.256854 -0.128845 0.000000 
-0.209613 -0.094733 0.000000 
-0.223062 -0.047159 0.000000 
-0.360414 -0.239404 0.000000 
-0.329787 -0.202281 0.000000 
-0.361761 -0.150479 0.000000 
-0.321587 -0.114070 0.000000 
-0.341985 -0.063836 0.000000 
-0.290702 -0.031037 0.000000 
-0.302189 0.015698 0.000000 
-0.458977 -0.261704 0.000000 
-0.429420 -0.224629 0.000000 
-0.464588 -0.172588 0.000000 
-0.427556 -0.135560 0.000000 
-0.453135 -0.084045 0.000000 
-0.407738 -0.048730 0.000000 
-0.425037 0.000698 0.000000 
-0.370772 0.032327 0.000000 
-0.381315 0.078555 0.000000 
-0.046960 -0.224920 0.000000 
-0.095301 -0.318966 0.000000 
-0.098873 -0.266319 0.000000 
-0.149405 -0.251121 0.000000 
-0.140093 -0.410670 0.000000 
-0.148617 -0.361972 0.000000 
-0.205981 -0.351734 0.000000 
-0.203197 -0.293531 0.000000 
-0.248777 -0.274384 0.000000 
-0.184111 -0.501633 0.000000 
-0.194039 -0.454542 0.000000 
-0.254475 -0.447243 0.000000 
-0.257893 -0.393133 0.000000 
-0.309886 -0.377761 0.000000 
-0.303554 -0.317215 0.000000 
-0.347255 -0.297058 0.000000 
-0.228129 -0.592597 0.000000 
-0.238687 -0.546373 0.000000 
-0.301302 -0.541421 0.000000 
-0.307162 -0.489382 0.000000 
-0.363386 -0.477261 0.000000 
-0.362692 -0.419749 0.000000 
-0.412122 -0.402456 0.000000 
-0.403017 -0.340310 0.000000 
-0.445733 -0.319731 0.000000 
-0.000000 -0.247535 0.000000 
0.043388 -0.343965 0.000000 
-0.000000 -0.313933 0.000000 
-0.043388 -0.343965 0.000000 
0.087158 -0.436162 0.000000 
0.043769 -0.412464 0.000000 
-0.000000 -0.450929 0.000000 
-0.043769 -0.412464 0.000000 
-0.087158 -0.436162 0.000000 
0.130831 -0.527292 0.000000 
0.087824 -0.505693 0.000000 
0.044436 -0.548393 0.000000 
-0.000000 -0.517328 0.000000 
-0.044436 -0.548393 0.000000 
-0.087824 -0.505693 0.000000 
-0.130831 -0.527292 0.000000 
0.174505 -0.618421 0.000000 
0.131782 -0.597855 0.000000 
0.088871 -0.643722 0.000000 
0.044532 -0.615858 0.000000 
-0.000000 -0.652258 0.000000 
-0.044532 -0.615858 0.000000 
-0.088871 -0.643722 0.000000 
-0.131782 -0.597855 0.000000 
-0.174505 -0.618421 0.000000 
0.046960 -0.224920 0.000000 
0.149405 -0.251121 0.000000 
0.098873 -0.266319 0.000000 
0.095301 -0.318966 0.000000 
0.248777 -0.274384 0.000000 
0.203197 -0.293531 0.000000 
0.205981 -0.351734 0.000000 
0.148617 -0.361972 0.000000 
0.140093 -0.410670 0.000000 
0.347255 -0.297058 0.000000 
0.303554 -0.317215 0.000000 
0.309886 -0.377761 0.000000 
0.257893 -0.393133 0.000000 
0.254475 -0.447243 0.000000 
0.194039 -0.454542 0.000000 
0.184111 -0.501633 0.000000 
0.445733 -0.319731 0.000000 
0.403017 -0.340310 0.000000 
0.412122 -0.402456 0.000000 
0.362692 -0.419749 0.000000 
0.363386 -0.477261 0.000000 
0.307162 -0.489382 0.000000 
0.301302 -0.541421 0.000000 
0.238687 -0.546373 0.000000 
0.228129 -0.592597 0.000000 
0.058559 -0.174105 0.000000 
0.142917 -0.110346 0.000000 
0.123292 -0.159330 0.000000 
0.162226 -0.194947 0.000000 
0.223062 -0.047159 0.000000 
0.209613 -0.094733 0.000000 
0.256854 -0.128845 0.000000 
0.229092 -0.180077 0.000000 
0.261851 -0.217104 0.000000 
0.302189 0.015698 0.000000 
0.290702 -0.031037 0.000000 
0.341985 -0.063836 0.000000 
0.321587 -0.114070 0.000000 
0.361761 -0.150479 0.000000 
0.329787 -0.202281 0.000000 
0.360414 -0.239404 0.000000 
0.381315 0.078555 0.000000 
0.370772 0.032327 0.000000 
0.425037 0.000698 0.000000 
0.407738 -0.048730 0.000000 
0.453135 -0.084045 0.000000 
0.427556 -0.135560 0.000000 
0.464588 -0.172588 0.000000 
0.429420 -0.224629 0.000000 
0.458977 -0.261704 0.000000 
0.026061 -0.133354 0.000000 
0.028809 -0.027647 0.000000 
0.054870 -0.073531 0.000000 
0.106992 -0.065299 0.000000 
0.029377 0.074410 0.000000 
0.058186 0.034232 0.000000 
0.114311 0.049898 0.000000 
0.137056 -0.003749 0.000000 
0.186430 -0.001223 0.000000 
0.029568 0.175464 0.000000 
0.058945 0.137344 0.000000 
0.116563 0.156989 0.000000 
0.143120 0.109721 0.000000 
0.196633 0.118430 0.000000 
0.217198 0.061133 0.000000 
0.265318 0.061933 0.000000 
0.029759 0.276518 0.000000 
0.059328 0.239452 0.000000 
0.117890 0.262158 0.000000 
0.145749 0.217815 0.000000 
0.201664 0.231289 0.000000 
0.225992 0.179172 0.000000 
0.278030 0.185039 0.000000 
0.296791 0.125096 0.000000 
0.344206 0.125089 0.000000 
VECTORS X_EC float 
0.338794 0.300278 0.000000 
-0.609100 -0.618470 0.000000 
0.713312 -0.507329 0.000000 
0.374519 0.873241 0.000000 
0.423588 0.516511 0.000000 
-0.218274 0.550614 0.000000 
-0.513962 -0.173625 0.000000 
0.756418 0.037861 0.000000 
0.381900 -0.504531 0.000000 
-0.550868 -0.336093 0.000000 
0.823577 -0.325297 0.000000 
0.556234 0.901199 0.000000 
-0.139443 -0.981232 0.000000 
-0.484677 0.380643 0.000000 
0.766286 0.645858 0.000000 
0.384386 0.131238 0.000000 
0.474677 0.811304 0.000000 
-0.141715 0.811208 0.000000 
-0.385608 0.001980 0.000000 
0.937896 0.081175 0.000000 
0.621631 -0.622405 0.000000 
-0.105264 -0.440506 0.000000 
-0.467428 0.960868 0.000000 
0.771260 -0.732603 0.000000 
0.386873 0.767007 0.000000 
0.761262 0.850413 0.000000 
0.108942 -0.868211 0.000000 
-0.397202 0.650950 0.000000 
-0.142083 -0.010325 0.000000 
-0.595936 -0.569100 0.000000 
0.978194 0.931034 0.000000 
-0.660903 0.239409 0.000000 
0.724964 -0.221111 0.000000 
0.899809 -0.863360 0.000000 
0.685384 -0.268048 0.000000 
0.287229 -0.769206 0.000000 
0.702895 0.531465 0.000000 
0.180633 0.039947 0.000000 
0.445811 -0.638213 0.000000 
-0.220880 0.919001 0.000000 
-0.071546 0.288076 0.000000 
-0.033296 0.033004 0.000000 
-0.417537 -0.467505 0.000000 
0.039645 0.829932 0.000000 
-0.441768 0.330061 0.000000 
-0.109248 -0.365390 0.000000 
-0.699407 -0.842145 0.000000 
-0.474522 0.490576 0.000000 
0.820030 0.063582 0.000000 
0.957100 -0.560489 0.000000 
0.610485 -0.463581 0.000000 
-0.761092 0.806039 0.000000 
-0.714655 0.095301 0.000000 
-0.057734 -0.109866 0.000000 
-0.178789 0.044043 0.000000 
-0.067979 -0.613383 0.000000 
0.677748 -0.751587 0.000000 
0.641556 0.462668 0.000000 
-0.765897 0.204189 0.000000 
0.393446 -0.727948 0.000000 
0.522510 0.636322 0.000000 
-0.691820 0.537778 0.000000 
-0.647393 -0.192705 0.000000 
0.028512 -0.400232 0.000000 
-0.053800 0.782408 0.000000 
0.514316 0.510277 0.000000 
0.965681 0.500061 0.000000 
-0.897068 -0.123968 0.000000 
-0.083078 -0.190821 0.000000 
-0.006893 -0.893345 0.000000 
0.724017 0.943022 0.000000 
0.714996 0.166618 0.000000 
-0.642413 -0.066839 0.000000 
-0.760780 -0.905820 0.000000 
-0.205471 0.816365 0.000000 
0.000000 -0.158279 0.000000 
-0.564049 -0.856466 0.000000 
0.000000 0.738098 0.000000 
0.564049 -0.856466 0.000000 
0.866949 0.388189 0.000000 
-0.569003 0.068258 0.000000 
0.000000 0.587546 0.000000 
0.569003 0.068258 0.000000 
-0.866949 0.388189 0.000000 
0.299194 -0.381561 0.000000 
0.858290 -0.673145 0.000000 
-0.577662 -0.096699 0.000000 
0.000000 -0.516077 0.000000 
0.577662 -0.096699 0.000000 
-0.858290 -0.673145 0.000000 
-0.299194 -0.381561 0.000000 
-0.268560 0.848689 0.000000 
0.286830 0.571047 0.000000 
0.844677 -0.809754 0.000000 
-0.578910 0.814083 0.000000 
0.000000 -0.694513 0.000000 
0.578910 0.814083 0.000000 
-0.844677 -0.809754 0.000000 
-0.286830 0.571047 0.000000 
0.268560 0.848689 0.000000 
-0.610485 -0.463581 0.000000 
0.057734 -0.109866 0.000000 
0.714655 0.095301 0.000000 
0.761092 0.806039 0.000000 
0.765897 0.204189 0.000000 
-0.641556 0.462668 0.000000 
-0.677748 -0.751587 0.000000 
0.067979 -0.613383 0.000000 
0.178789 0.044043 0.000000 
-0.514316 0.510277 0.000000 
0.053800 0.782408 0.000000 
-0.028512 -0.400232 0.000000 
0.647393 -0.192705 0.000000 
0.691820 0.537778 0.000000 
-0.522510 0.636322 0.000000 
-0.393446 -0.727948 0.000000 
0.205471 0.816365 0.000000 
0.760780 -0.905820 0.000000 
0.642413 -0.066839 0.000000 
-0.714996 0.166618 0.000000 
-0.724017 0.943022 0.000000 
0.006894 -0.893345 0.000000 
0.083078 -0.190821 0.000000 
0.897068 -0.123968 0.000000 
-0.965681 0.500061 0.000000 
-0.761262 0.850413 0.000000 
0.142083 -0.010325 0.000000 
0.397202 0.650950 0.000000 
-0.108942 -0.868211 0.000000 
-0.899809 -0.863359 0.000000 
-0.724964 -0.221111 0.000000 
0.660903 0.239409 0.000000 
-0.978194 0.931034 0.000000 
0.595936 -0.569100 0.000000 
0.071546 0.288076 0.000000 
0.220880 0.919001 0.000000 
-0.445811 -0.638213 0.000000 
-0.180633 0.039947 0.000000 
-0.702895 0.531465 0.000000 
-0.287229 -0.769206 0.000000 
-0.685384 -0.268048 0.000000 
-0.957100 -0.560489 0.000000 
-0.820030 0.063582 0.000000 
0.474522 0.490576 0.000000 
0.699407 -0.842145 0.000000 
0.109248 -0.365390 0.000000 
0.441768 0.330061 0.000000 
-0.039645 0.829932 0.000000 
0.417537 -0.467505 0.000000 
0.033296 0.033004 0.000000 
-0.338794 0.300278 0.000000 
-0.374519 0.873241 0.000000 
-0.713312 -0.507329 0.000000 
0.609100 -0.618470 0.000000 
-0.381900 -0.504531 0.000000 
-0.756418 0.037861 0.000000 
0.513962 -0.173625 0.000000 
0.218274 0.550614 0.000000 
-0.423588 0.516511 0.000000 
-0.384386 0.131238 0.000000 
-0.766286 0.645858 0.000000 
0.484677 0.380643 0.000000 
0.139443 -0.981232 0.000000 
-0.556234 0.901199 0.000000 
-0.823577 -0.325297 0.000000 
0.550868 -0.336093 0.000000 
-0.386873 0.767007 0.000000 
-0.771260 -0.732603 0.000000 
0.467428 0.960868 0.000000 
0.105264 -0.440506 0.000000 
-0.621631 -0.622405 0.000000 
-0.937896 0.081175 0.000000 
0.385608 0.001980 0.000000 
0.141715 0.811208 0.000000 
-0.474677 0.811304 0.000000 
CELL_DATA 175 
SCALARS MASS float 
LOOKUP_TABLE default 
0.781831 
0.864274 
0.946717 
0.864274 
0.881307 
0.921110 
0.858535 
0.921110 
0.881307 
0.887046 
0.910001 
0.869829 
0.915556 
0.869829 
0.910001 
0.887046 
0.892784 
0.915740 
0.892784 
0.927218 
0.892784 
0.927218 
0.892784 
0.915740 
0.892784 
0.781831 
0.864274 
0.946717 
0.864274 
0.881307 
0.921110 
0.858535 
0.921110 
0.881307 
0.887046 
0.910001 
0.869829 
0.915556 
0.869829 
0.910001 
0.887046 
0.892784 
0.915740 
0.892784 
0.927218 
0.892784 
0.927218 
0.892784 
0.915740 
0.892784 
0.781831 
0.864274 
0.946717 
0.864274 
0.881307 
0.921110 
0.858535 
0.921110 
0.881307 
0.887046 
0.910001 
0.869829 
0.915556 
0.869829 
0.910001 
0.887046 
0.892784 
0.915740 
0.892784 
0.927218 
0.892784 
0.927218 
0.892784 
0.915740 
0.892784 
0.781831 
0.864274 
0.946717 
0.864274 
0.881307 
0.921110 
0.858535 
0.921110 
0.881307 
0.887046 
0.910001 
0.869829 
0.915556 
0.869829 
0.910001 
0.887046 
0.892784 
0.915740 
0.892784 
0.927218 
0.892784 
0.927218 
0.892784 
0.915740 
0.892784 
0.781831 
0.864274 
0.946717 
0.864274 
0.881307 
0.921110 
0.858535 
0.921110 
0.881307 
0.887046 
0.910001 
0.869829 
0.915556 
0.869829 
0.910001 
0.887046 
0.892784 
0.915740 
0.892784 
0.927218 
0.892784 
0.927218 
0.892784 
0.915740 
0.892784 
0.781831 
0.864274 
0.946717 
0.864274 
0.881307 
0.921110 
0.858535 
0.921110 
0.881307 
0.887046 
0.910001 
0.869829 
0.915556 
0.869829 
0.910001 
0.887046 
0.892784 
0.915740 
0.892784 
0.927218 
0.892784 
0.927218 
0.892784 
0.915740 
0.892784 
0.781831 
0.864274 
0.946717 
0.864274 
0.881307 
0.921110 
0.858535 
0.921110 
0.881307 
0.887046 
0.910001 
0.869829 
0.915556 
0.869829 
0.910001 
0.887046 
0.892784 
0.915740 
0.892784 
0.927218 
0.892784 
0.927218 
0.892784 
0.915740 
0.892784 
SCALARS MASS float 
LOOKUP_TABLE default 
0.781831 
0.864274 
0.946717 
0.864274 
0.881307 
0.921110 
0.858535 
0.921110 
0.881307 
0.887046 
0.910001 
0.869829 
0.915556 
0.869829 
0.910001 
0.887046 
0.892784 
0.915740 
0.892784 
0.927218 
0.892784 
0.927218 
0.892784 
0.915740 
0.892784 
0.781831 
0.864274 
0.946717 
0.864274 
0.881307 
0.921110 
0.858535 
0.921110 
0.881307 
0.887046 
0.910001 
0.869829 
0.915556 
0.869829 
0.910001 
0.887046 
0.892784 
0.915740 
0.892784 
0.927218 
0.892784 
0.927218 
0.892784 
0.915740 
0.892784 
0.781831 
0.864274 
0.946717 
0.864274 
0.881307 
0.921110 
0.858535 
0.921110 
0.881307 
0.887046 
0.910001 
0.869829 
0.915556 
0.869829 
0.910001 
0.887046 
0.892784 
0.915740 
0.892784 
0.927218 
0.892784 
0.927218 
0.892784 
0.915740 
0.892784 
0.781831 
0.864274 
0.946717 
0.864274 
0.881307 
0.921110 
0.858535 
0.921110 
0.881307 
0.887046 
0.910001 
0.869829 
0.915556 
0.869829 
0.910001 
0.887046 
0.892784 
0.915740 
0.892784 
0.927218 
0.892784 
0.927218 
0.892784 
0.915740 
0.892784 
0.781831 
0.864274 
0.946717 
0.864274 
0.881307 
0.921110 
0.858535 
0.921110 
0.881307 
0.887046 
0.910001 
0.869829 
0.915556 
0.869829 
0.910001 
0.887046 
0.892784 
0.915740 
0.892784 
0.927218 
0.892784 
0.927218 
0.892784 
0.915740 
0.892784 
0.781831 
0.864274 
0.946717 
0.864274 
0.881307 
0.921110 
0.858535 
0.921110 
0.881307 
0.887046 
0.910001 
0.869829 
0.915556 
0.869829 
0.910001 
0.887046 
0.892784 
0.915740 
0.892784 
0.927218 
0.892784 
0.927218 
0.892784 
0.915740 
0.892784 
0.781831 
0.864274 
0.946717 
0.864274 
0.881307 
0.921110 
0.858535 
0.921110 
0.881307 
0.887046 
0.910001 
0.869829 
0.915556 
0.869829 
0.910001 
0.887046 
0.892784 
0.915740 
0.892784 
0.927218 
0.892784 
0.927218 
0.892784 
0.915740 
0.892784 
SCALARS DENSITY float 
LOOKUP_TABLE default 
200.000000 
200.000000 
200.000000 
200.000000 
200.000000 
200.000000 
200.000000 
200.000000 
200.000000 
200.000000 
200.000000 
200.000000 
200.000000 
200.000000 
200.000000 
200.000000 
200.000000 
200.000000 
200.000000 
200.000000 
200.000000 
200.000000 
200.000000 
200.000000 
200.000000 
200.000000 
200.000000 
200.000000 
200.000000 
200.000000 
200.000000 
200.000000 
200.000000 
200.000000 
200.000000 
200.000000 
200.000000 
200.000000 
200.000000 
200.000000 
200.000000 
200.000000 
200.000000 
200.000000 
200.000000 
200.000000 
200.000000 
200.000000 
200.000000 
200.000000 
200.000000 
200.000000 
200.000000 
200.000000 
200.000000 
200.000000 
200.000000 
200.000000 
200.000000 
200.000000 
200.000000 
200.000000 
200.000000 
200.000000 
200.000000 
200.000000 
200.000000 
200.000000 
200.000000 
200.000000 
200.000000 
200.000000 
200.000000 
200.000000 
200.000000 
200.000000 
200.000000 
200.000000 
200.000000 
200.000000 
200.000000 
200.000000 
200.000000 
200.000000 
200.000000 
200.000000 
200.000000 
200.000000 
200.000000 
200.000000 
200.000000 
200.000000 
200.000000 
200.000000 
200.000000 
200.000000 
200.000000 
200.000000 
200.000000 
200.000000 
200.000000 
200.000000 
200.000000 
200.000000 
200.000000 
200.000000 
200.000000 
200.000000 
200.000000 
200.000000 
200.000000 
200.000000 
200.000000 
200.000000 
200.000000 
200.000000 
200.000000 
200.000000 
200.000000 
200.000000 
200.000000 
200.000000 
200.000000 
200.000000 
200.000000 
200.000000 
200.000000 
200.000000 
200.000000 
200.000000 
200.000000 
200.000000 
200.000000 
200.000000 
200.000000 
200.000000 
200.000000 
200.000000 
200.000000 
200.000000 
200.000000 
200.000000 
200.000000 
200.000000 
200.000000 
200.000000 
200.000000 
200.000000 
200.000000 
200.000000 
200.000000 
200.000000 
200.000000 
200.000000 
200.000000 
200.000000 
200.000000 
200.000000 
200.000000 
200.000000 
200.000000 
200.000000 
200.000000 
200.000000 
200.000000 
200.000000 
200.000000 
200.000000 
200.000000 
200.000000 
200.000000 
200.000000 
200.000000 
200.000000 
200.000000 
SCALARS ELEM_i float 
LOOKUP_TABLE default 
181 
208 
181 
182 
209 
209 
209 
182 
182 
236 
209 
210 
209 
210 
183 
183 
237 
237 
237 
210 
210 
210 
211 
183 
184 
181 
207 
208 
208 
234 
208 
235 
208 
208 
234 
234 
235 
235 
235 
236 
236 
261 
261 
262 
262 
262 
262 
263 
236 
236 
180 
207 
207 
207 
206 
206 
206 
207 
234 
205 
206 
233 
233 
233 
234 
234 
205 
232 
232 
232 
233 
233 
260 
260 
261 
180 
179 
180 
179 
152 
179 
179 
179 
206 
151 
151 
178 
178 
178 
205 
205 
151 
151 
150 
178 
177 
178 
204 
205 
205 
180 
153 
153 
153 
126 
153 
152 
152 
152 
126 
126 
125 
125 
125 
152 
151 
99 
98 
98 
125 
125 
124 
124 
124 
151 
181 
154 
154 
153 
154 
154 
127 
154 
126 
128 
128 
127 
127 
127 
126 
126 
128 
128 
101 
100 
100 
100 
100 
99 
99 
181 
182 
181 
154 
182 
182 
155 
155 
155 
183 
183 
156 
155 
156 
155 
128 
184 
183 
157 
156 
156 
156 
129 
129 
129 
VECTORS VELOCITY float 
-0.000000 -1.916874 0.000000 
0.000000 -1.916874 0.000000 
0.000000 -1.916874 0.000000 
0.000000 -1.916874 0.000000 
-0.000000 -1.916874 0.000000 
0.000000 -1.916874 0.000000 
-0.000000 -1.916874 0.000000 
-0.000000 -1.916874 0.000000 
-0.000000 -1.916874 0.000000 
-0.000000 -1.916874 0.000000 
-0.000000 -1.916874 0.000000 
-0.000000 -1.916874 0.000000 
-0.000000 -1.916874 0.000000 
-0.000000 -1.916874 0.000000 
-0.000000 -1.916874 0.000000 
-0.000000 -1.916874 0.000000 
0.000000 -1.916874 0.000000 
0.000000 -1.916874 0.000000 
0.000000 -1.916874 0.000000 
0.000000 -1.916874 0.000000 
0.000000 -1.916874 0.000000 
0.000000 -1.916874 0.000000 
-0.000000 -1.916874 0.000000 
-0.000000 -1.916874 0.000000 
0.000000 -1.916874 0.000000 
-0.000000 -1.916874 0.000000 
-0.000000 -1.916874 0.000000 
-0.000000 -1.916874 0.000000 
-0.000000 -1.916874 0.000000 
0.000000 -1.916874 0.000000 
0.000000 -1.916874 0.000000 
0.000000 -1.916874 0.000000 
0.000000 -1.916874 0.000000 
-0.000000 -1.916874 0.000000 
0.000000 -1.916874 0.000000 
0.000000 -1.916874 0.000000 
0.000000 -1.916874 0.000000 
-0.000000 -1.916874 0.000000 
-0.000000 -1.916874 0.000000 
-0.000000 -1.916874 0.000000 
-0.000000 -1.916874 0.000000 
0.000000 -1.916874 0.000000 
0.000000 -1.916874 0.000000 
0.000000 -1.916874 0.000000 
0.000000 -1.916874 0.000000 
0.000000 -1.916874 0.000000 
-0.000000 -1.916874 0.000000 
-0.000000 -1.916874 0.000000 
-0.000000 -1.916874 0.000000 
0.000000 -1.916874 0.000000 
-0.000000 -1.916874 0.000000 
0.000000 -1.916874 0.000000 
0.000000 -1.916874 0.000000 
-0.000000 -1.916874 0.000000 
0.000000 -1.916874 0.000000 
0.000000 -1.916874 0.000000 
-0.000000 -1.916874 0.000000 
-0.000000 -1.916874 0.000000 
-0.000000 -1.916874 0.000000 
0.000000 -1.916874 0.000000 
0.000000 -1.916874 0.000000 
0.000000 -1.916874 0.000000 
0.000000 -1.916874 0.000000 
0.000000 -1.916874 0.000000 
0.000000 -1.916874 0.000000 
0.000000 -1.916874 0.000000 
0.000000 -1.916874 0.000000 
0.000000 -1.916874 0.000000 
-0.000000 -1.916874 0.000000 
-0.000000 -1.916874 0.000000 
-0.000000 -1.916874 0.000000 
-0.000000 -1.916874 0.000000 
0.000000 -1.916874 0.000000 
0.000000 -1.916874 0.000000 
0.000000 -1.916874 0.000000 
0.000000 -1.916874 0.000000 
0.000000 -1.916874 0.000000 
0.000000 -1.916874 0.000000 
0.000000 -1.916874 0.000000 
-0.000000 -1.916874 0.000000 
-0.000000 -1.916874 0.000000 
-0.000000 -1.916874 0.000000 
0.000000 -1.916874 0.000000 
0.000000 -1.916874 0.000000 
-0.000000 -1.916874 0.000000 
-0.000000 -1.916874 0.000000 
-0.000000 -1.916874 0.000000 
-0.000000 -1.916874 0.000000 
-0.000000 -1.916874 0.000000 
0.000000 -1.916874 0.000000 
0.000000 -1.916874 0.000000 
-0.000000 -1.916874 0.000000 
-0.000000 -1.916874 0.000000 
-0.000000 -1.916874 0.000000 
-0.000000 -1.916874 0.000000 
0.000000 -1.916874 0.000000 
-0.000000 -1.916874 0.000000 
-0.000000 -1.916874 0.000000 
-0.000000 -1.916874 0.000000 
0.000000 -1.916874 0.000000 
0.000000 -1.916874 0.000000 
-0.000000 -1.916874 0.000000 
-0.000000 -1.916874 0.000000 
-0.000000 -1.916874 0.000000 
-0.000000 -1.916874 0.000000 
-0.000000 -1.916874 0.000000 
-0.000000 -1.916874 0.000000 
-0.000000 -1.916874 0.000000 
-0.000000 -1.916874 0.000000 
0.000000 -1.916874 0.000000 
0.000000 -1.916874 0.000000 
0.000000 -1.916874 0.000000 
-0.000000 -1.916874 0.000000 
0.000000 -1.916874 0.000000 
0.000000 -1.916874 0.000000 
0.000000 -1.916874 0.000000 
0.000000 -1.916874 0.000000 
0.000000 -1.916874 0.000000 
-0.000000 -1.916874 0.000000 
0.000000 -1.916874 0.000000 
-0.000000 -1.916874 0.000000 
0.000000 -1.916874 0.000000 
-0.000000 -1.916874 0.000000 
0.000000 -1.916874 0.000000 
0.000000 -1.916874 0.000000 
0.000000 -1.916874 0.000000 
0.000000 -1.916874 0.000000 
0.000000 -1.916874 0.000000 
0.000000 -1.916874 0.000000 
0.000000 -1.916874 0.000000 
0.000000 -1.916874 0.000000 
0.000000 -1.916874 0.000000 
0.000000 -1.916874 0.000000 
-0.000000 -1.916874 0.000000 
-0.000000 -1.916874 0.000000 
0.000000 -1.916874 0.000000 
0.000000 -1.916874 0.000000 
-0.000000 -1.916874 0.000000 
-0.000000 -1.916874 0.000000 
-0.000000 -1.916874 0.000000 
-0.000000 -1.916874 0.000000 
-0.000000 -1.916874 0.000000 
-0.000000 -1.916874 0.000000 
-0.000000 -1.916874 0.000000 
-0.000000 -1.916874 0.000000 
-0.000000 -1.916874 0.000000 
-0.000000 -1.916874 0.000000 
0.000000 -1.916874 0.000000 
0.000000 -1.916874 0.000000 
0.000000 -1.916874 0.000000 
-0.000000 -1.916874 0.000000 
0.000000 -1.916874 0.000000 
0.000000 -1.916874 0.000000 
0.000000 -1.916874 0.000000 
-0.000000 -1.916874 0.000000 
0.000000 -1.916874 0.000000 
0.000000 -1.916874 0.000000 
0.000000 -1.916874 0.000000 
0.000000 -1.916874 0.000000 
-0.000000 -1.916874 0.000000 
-0.000000 -1.916874 0.000000 
-0.000000 -1.916874 0.000000 
-0.000000 -1.916874 0.000000 
-0.000000 -1.916874 0.000000 
-0.000000 -1.916874 0.000000 
-0.000000 -1.916874 0.000000 
0.000000 -1.916874 0.000000 
0.000000 -1.916874 0.000000 
-0.000000 -1.916874 0.000000 
0.000000 -1.916874 0.000000 
0.000000 -1.916874 0.000000 
0.000000 -1.916874 0.000000 
-0.000000 -1.916874 0.000000 
-0.000000 -1.916874 0.000000 
0.000000 -1.916874 0.000000 
TENSORS STRESS float 
0.000000 -0.000000 0.000000 
0.000000 0.000000 0.000000 
0.000000 0.000000 0.000000 

0.000000 0.000000 0.000000 
0.000000 0.000000 0.000000 
0.000000 0.000000 0.000000 

-0.000000 0.000000 0.000000 
0.000000 -0.000000 0.000000 
0.000000 0.000000 0.000000 

-0.000000 -0.000000 0.000000 
0.000000 -0.000000 0.000000 
0.000000 0.000000 0.000000 

0.000000 -0.000000 0.000000 
0.000000 0.000000 0.000000 
0.000000 0.000000 0.000000 

0.000000 -0.000000 0.000000 
0.000000 0.000000 0.000000 
0.000000 0.000000 0.000000 

0.000000 -0.000000 0.000000 
0.000000 0.000000 0.000000 
0.000000 0.000000 0.000000 

0.000000 -0.000000 0.000000 
0.000000 0.000000 0.000000 
0.000000 0.000000 0.000000 

-0.000000 -0.000000 0.000000 
0.000000 -0.000000 0.000000 
0.000000 0.000000 0.000000 

0.000000 -0.000000 0.000000 
0.000000 0.000000 0.000000 
0.000000 0.000000 0.000000 

-0.000000 -0.000000 0.000000 
0.000000 -0.000000 0.000000 
0.000000 0.000000 0.000000 

-0.000000 -0.000000 0.000000 
0.000000 0.000000 0.000000 
0.000000 0.000000 0.000000 

-0.000000 0.000000 0.000000 
0.000000 -0.000000 0.000000 
0.000000 0.000000 0.000000 

0.000000 0.000000 0.000000 
0.000000 0.000000 0.000000 
0.000000 0.000000 0.000000 

0.000000 0.000000 0.000000 
0.000000 0.000000 0.000000 
0.000000 0.000000 0.000000 

0.000000 0.000000 0.000000 
0.000000 0.000000 0.000000 
0.000000 0.000000 0.000000 

0.000000 0.000000 0.000000 
0.000000 0.000000 0.000000 
0.000000 0.000000 0.000000 

0.000000 0.000000 0.000000 
0.000000 0.000000 0.000000 
0.000000 0.000000 0.000000 

0.000000 0.000000 0.000000 
0.000000 0.000000 0.000000 
0.000000 0.000000 0.000000 

0.000000 -0.000000 0.000000 
0.000000 0.000000 0.000000 
0.000000 0.000000 0.000000 

0.000000 -0.000000 0.000000 
0.000000 0.000000 0.000000 
0.000000 0.000000 0.000000 

0.000000 -0.000000 0.000000 
0.000000 0.000000 0.000000 
0.000000 0.000000 0.000000 

0.000000 -0.000000 0.000000 
0.000000 0.000000 0.000000 
0.000000 0.000000 0.000000 

0.000000 -0.000000 0.000000 
0.000000 0.000000 0.000000 
0.000000 0.000000 0.000000 

0.000000 -0.000000 0.000000 
0.000000 0.000000 0.000000 
0.000000 0.000000 0.000000 

-0.000000 -0.000000 0.000000 
0.000000 -0.000000 0.000000 
0.000000 0.000000 0.000000 

-0.000000 -0.000000 0.000000 
0.000000 -0.000000 0.000000 
0.000000 0.000000 0.000000 

0.000000 -0.000000 0.000000 
0.000000 0.000000 0.000000 
0.000000 0.000000 0.000000 

0.000000 -0.000000 0.000000 
0.000000 0.000000 0.000000 
0.000000 0.000000 0.000000 

0.000000 0.000000 0.000000 
0.000000 0.000000 0.000000 
0.000000 0.000000 0.000000 

0.000000 -0.000000 0.000000 
0.000000 0.000000 0.000000 
0.000000 0.000000 0.000000 

0.000000 0.000000 0.000000 
0.000000 0.000000 0.000000 
0.000000 0.000000 0.000000 

-0.000000 -0.000000 0.000000 
0.000000 -0.000000 0.000000 
0.000000 0.000000 0.000000 

0.000000 -0.000000 0.000000 
0.000000 0.000000 0.000000 
0.000000 0.000000 0.000000 

-0.000000 0.000000 0.000000 
0.000000 -0.000000 0.000000 
0.000000 0.000000 0.000000 

0.000000 0.000000 0.000000 
0.000000 0.000000 0.000000 
0.000000 0.000000 0.000000 

-0.000000 -0.000000 0.000000 
0.000000 -0.000000 0.000000 
0.000000 0.000000 0.000000 

-0.000000 -0.000000 0.000000 
0.000000 -0.000000 0.000000 
0.000000 0.000000 0.000000 

-0.000000 0.000000 0.000000 
0.000000 -0.000000 0.000000 
0.000000 0.000000 0.000000 

-0.000000 0.000000 0.000000 
0.000000 -0.000000 0.000000 
0.000000 0.000000 0.000000 

0.000000 0.000000 0.000000 
0.000000 0.000000 0.000000 
0.000000 0.000000 0.000000 

-0.000000 0.000000 0.000000 
0.000000 0.000000 0.000000 
0.000000 0.000000 0.000000 

0.000000 0.000000 0.000000 
0.000000 0.000000 0.000000 
0.000000 0.000000 0.000000 

0.000000 0.000000 0.000000 
0.000000 0.000000 0.000000 
0.000000 0.000000 0.000000 

-0.000000 0.000000 0.000000 
0.000000 -0.000000 0.000000 
0.000000 0.000000 0.000000 

0.000000 -0.000000 0.000000 
0.000000 0.000000 0.000000 
0.000000 0.000000 0.000000 

0.000000 -0.000000 0.000000 
0.000000 0.000000 0.000000 
0.000000 0.000000 0.000000 

0.000000 0.000000 0.000000 
0.000000 -0.000000 0.000000 
0.000000 0.000000 0.000000 

0.000000 -0.000000 0.000000 
0.000000 0.000000 0.000000 
0.000000 0.000000 0.000000 

-0.000000 -0.000000 0.000000 
0.000000 -0.000000 0.000000 
0.000000 0.000000 0.000000 

0.000000 0.000000 0.000000 
0.000000 0.000000 0.000000 
0.000000 0.000000 0.000000 

-0.000000 0.000000 0.000000 
0.000000 -0.000000 0.000000 
0.000000 0.000000 0.000000 

0.000000 -0.000000 0.000000 
0.000000 0.000000 0.000000 
0.000000 0.000000 0.000000 

0.000000 -0.000000 0.000000 
0.000000 0.000000 0.000000 
0.000000 0.000000 0.000000 

-0.000000 -0.000000 0.000000 
0.000000 -0.000000 0.000000 
0.000000 0.000000 0.000000 

0.000000 -0.000000 0.000000 
0.000000 0.000000 0.000000 
0.000000 0.000000 0.000000 

-0.000000 -0.000000 0.000000 
0.000000 -0.000000 0.000000 
0.000000 0.000000 0.000000 

-0.000000 -0.000000 0.000000 
0.000000 -0.000000 0.000000 
0.000000 0.000000 0.000000 

-0.000000 0.000000 0.000000 
0.000000 -0.000000 0.000000 
0.000000 0.000000 0.000000 

0.000000 -0.000000 0.000000 
0.000000 0.000000 0.000000 
0.000000 0.000000 0.000000 

0.000000 -0.000000 0.000000 
0.000000 0.000000 0.000000 
0.000000 0.000000 0.000000 

0.000000 0.000000 0.000000 
0.000000 0.000000 0.000000 
0.000000 0.000000 0.000000 

-0.000000 0.000000 0.000000 
0.000000 -0.000000 0.000000 
0.000000 0.000000 0.000000 

0.000000 0.000000 0.000000 
0.000000 0.000000 0.000000 
0.000000 0.000000 0.000000 

-0.000000 0.000000 0.000000 
0.000000 0.000000 0.000000 
0.000000 0.000000 0.000000 

-0.000000 0.000000 0.000000 
0.000000 -0.000000 0.000000 
0.000000 0.000000 0.000000 

0.000000 -0.000000 0.000000 
0.000000 0.000000 0.000000 
0.000000 0.000000 0.000000 

0.000000 -0.000000 0.000000 
0.000000 0.000000 0.000000 
0.000000 0.000000 0.000000 

-0.000000 -0.000000 0.000000 
0.000000 -0.000000 0.000000 
0.000000 0.000000 0.000000 

0.000000 0.000000 0.000000 
0.000000 0.000000 0.000000 
0.000000 0.000000 0.000000 

-0.000000 0.000000 0.000000 
0.000000 -0.000000 0.000000 
0.000000 0.000000 0.000000 

-0.000000 0.000000 0.000000 
0.000000 -0.000000 0.000000 
0.000000 0.000000 0.000000 

-0.000000 -0.000000 0.000000 
0.000000 -0.000000 0.000000 
0.000000 0.000000 0.000000 

-0.000000 0.000000 0.000000 
0.000000 0.000000 0.000000 
0.000000 0.000000 0.000000 

-0.000000 0.000000 0.000000 
0.000000 -0.000000 0.000000 
0.000000 0.000000 0.000000 

-0.000000 -0.000000 0.000000 
0.000000 -0.000000 0.000000 
0.000000 0.000000 0.000000 

0.000000 -0.000000 0.000000 
0.000000 0.000000 0.000000 
0.000000 0.000000 0.000000 

-0.000000 -0.000000 0.000000 
0.000000 -0.000000 0.000000 
0.000000 0.000000 0.000000 

0.000000 0.000000 0.000000 
0.000000 0.000000 0.000000 
0.000000 0.000000 0.000000 

-0.000000 -0.000000 0.000000 
0.000000 -0.000000 0.000000 
0.000000 0.000000 0.000000 

-0.000000 -0.000000 0.000000 
0.000000 -0.000000 0.000000 
0.000000 0.000000 0.000000 

-0.000000 -0.000000 0.000000 
0.000000 0.000000 0.000000 
0.000000 0.000000 0.000000 

0.000000 -0.000000 0.000000 
0.000000 0.000000 0.000000 
0.000000 0.000000 0.000000 

-0.000000 -0.000000 0.000000 
0.000000 -0.000000 0.000000 
0.000000 0.000000 0.000000 

-0.000000 -0.000000 0.000000 
0.000000 -0.000000 0.000000 
0.000000 0.000000 0.000000 

0.000000 -0.000000 0.000000 
0.000000 0.000000 0.000000 
0.000000 0.000000 0.000000 

0.000000 -0.000000 0.000000 
0.000000 0.000000 0.000000 
0.000000 0.000000 0.000000 

0.000000 -0.000000 0.000000 
0.000000 0.000000 0.000000 
0.000000 0.000000 0.000000 

-0.000000 0.000000 0.000000 
0.000000 -0.000000 0.000000 
0.000000 0.000000 0.000000 

0.000000 -0.000000 0.000000 
0.000000 0.000000 0.000000 
0.000000 0.000000 0.000000 

0.000000 -0.000000 0.000000 
0.000000 0.000000 0.000000 
0.000000 0.000000 0.000000 

-0.000000 -0.000000 0.000000 
0.000000 -0.000000 0.000000 
0.000000 0.000000 0.000000 

0.000000 0.000000 0.000000 
0.000000 0.000000 0.000000 
0.000000 0.000000 0.000000 

-0.000000 0.000000 0.000000 
0.000000 -0.000000 0.000000 
0.000000 0.000000 0.000000 

-0.000000 0.000000 0.000000 
0.000000 -0.000000 0.000000 
0.000000 0.000000 0.000000 

0.000000 0.000000 0.000000 
0.000000 0.000000 0.000000 
0.000000 0.000000 0.000000 

0.000000 0.000000 0.000000 
0.000000 0.000000 0.000000 
0.000000 0.000000 0.000000 

-0.000000 -0.000000 0.000000 
0.000000 -0.000000 0.000000 
0.000000 0.000000 0.000000 

0.000000 -0.000000 0.000000 
0.000000 0.000000 0.000000 
0.000000 0.000000 0.000000 

0.000000 -0.000000 0.000000 
0.000000 0.000000 0.000000 
0.000000 0.000000 0.000000 

0.000000 0.000000 0.000000 
0.000000 0.000000 0.000000 
0.000000 0.000000 0.000000 

0.000000 0.000000 0.000000 
0.000000 0.000000 0.000000 
0.000000 0.000000 0.000000 

-0.000000 0.000000 0.000000 
0.000000 -0.000000 0.000000 
0.000000 0.000000 0.000000 

0.000000 -0.000000 0.000000 
0.000000 0.000000 0.000000 
0.000000 0.000000 0.000000 

-0.000000 -0.000000 0.000000 
0.000000 -0.000000 0.000000 
0.000000 0.000000 0.000000 

0.000000 0.000000 0.000000 
0.000000 0.000000 0.000000 
0.000000 0.000000 0.000000 

0.000000 -0.000000 0.000000 
0.000000 0.000000 0.000000 
0.000000 0.000000 0.000000 

-0.000000 -0.000000 0.000000 
0.000000 -0.000000 0.000000 
0.000000 0.000000 0.000000 

0.000000 -0.000000 0.000000 
0.000000 0.000000 0.000000 
0.000000 0.000000 0.000000 

-0.000000 -0.000000 0.000000 
0.000000 -0.000000 0.000000 
0.000000 0.000000 0.000000 

0.000000 0.000000 0.000000 
0.000000 0.000000 0.000000 
0.000000 0.000000 0.000000 

-0.000000 -0.000000 0.000000 
0.000000 -0.000000 0.000000 
0.000000 0.000000 0.000000 

-0.000000 -0.000000 0.000000 
0.000000 -0.000000 0.000000 
0.000000 0.000000 0.000000 

0.000000 -0.000000 0.000000 
0.000000 0.000000 0.000000 
0.000000 0.000000 0.000000 

-0.000000 -0.000000 0.000000 
0.000000 -0.000000 0.000000 
0.000000 0.000000 0.000000 

-0.000000 -0.000000 0.000000 
0.000000 -0.000000 0.000000 
0.000000 0.000000 0.000000 

0.000000 -0.000000 0.000000 
0.000000 0.000000 0.000000 
0.000000 0.000000 0.000000 

0.000000 -0.000000 0.000000 
0.000000 0.000000 0.000000 
0.000000 0.000000 0.000000 

0.000000 -0.000000 0.000000 
0.000000 0.000000 0.000000 
0.000000 0.000000 0.000000 

-0.000000 0.000000 0.000000 
0.000000 -0.000000 0.000000 
0.000000 0.000000 0.000000 

-0.000000 0.000000 0.000000 
0.000000 -0.000000 0.000000 
0.000000 0.000000 0.000000 

0.000000 0.000000 0.000000 
0.000000 0.000000 0.000000 
0.000000 0.000000 0.000000 

0.000000 -0.000000 0.000000 
0.000000 0.000000 0.000000 
0.000000 0.000000 0.000000 

-0.000000 -0.000000 0.000000 
0.000000 -0.000000 0.000000 
0.000000 0.000000 0.000000 

-0.000000 -0.000000 0.000000 
0.000000 -0.000000 0.000000 
0.000000 0.000000 0.000000 

0.000000 0.000000 0.000000 
0.000000 0.000000 0.000000 
0.000000 0.000000 0.000000 

0.000000 -0.000000 0.000000 
0.000000 0.000000 0.000000 
0.000000 0.000000 0.000000 

0.000000 -0.000000 0.000000 
0.000000 0.000000 0.000000 
0.000000 0.000000 0.000000 

-0.000000 0.000000 0.000000 
0.000000 -0.000000 0.000000 
0.000000 0.000000 0.000000 

0.000000 0.000000 0.000000 
0.000000 0.000000 0.000000 
0.000000 0.000000 0.000000 

-0.000000 -0.000000 0.000000 
0.000000 -0.000000 0.000000 
0.000000 0.000000 0.000000 

-0.000000 -0.000000 0.000000 
0.000000 -0.000000 0.000000 
0.000000 0.000000 0.000000 

-0.000000 -0.000000 0.000000 
0.000000 -0.000000 0.000000 
0.000000 0.000000 0.000000 

-0.000000 -0.000000 0.000000 
0.000000 -0.000000 0.000000 
0.000000 0.000000 0.000000 

0.000000 0.000000 0.000000 
0.000000 0.000000 0.000000 
0.000000 0.000000 0.000000 

-0.000000 0.000000 0.000000 
0.000000 -0.000000 0.000000 
0.000000 0.000000 0.000000 

-0.000000 0.000000 0.000000 
0.000000 -0.000000 0.000000 
0.000000 0.000000 0.000000 

0.000000 -0.000000 0.000000 
0.000000 0.000000 0.000000 
0.000000 0.000000 0.000000 

0.000000 -0.000000 0.000000 
0.000000 0.000000 0.000000 
0.000000 0.000000 0.000000 

-0.000000 -0.000000 0.000000 
0.000000 -0.000000 0.000000 
0.000000 0.000000 0.000000 

-0.000000 -0.000000 0.000000 
0.000000 -0.000000 0.000000 
0.000000 0.000000 0.000000 

0.000000 -0.000000 0.000000 
0.000000 0.000000 0.000000 
0.000000 0.000000 0.000000 

-0.000000 0.000000 0.000000 
0.000000 -0.000000 0.000000 
0.000000 0.000000 0.000000 

0.000000 -0.000000 0.000000 
0.000000 0.000000 0.000000 
0.000000 0.000000 0.000000 

0.000000 -0.000000 0.000000 
0.000000 0.000000 0.000000 
0.000000 0.000000 0.000000 

-0.000000 0.000000 0.000000 
0.000000 -0.000000 0.000000 
0.000000 0.000000 0.000000 

0.000000 -0.000000 0.000000 
0.000000 0.000000 0.000000 
0.000000 0.000000 0.000000 

-0.000000 0.000000 0.000000 
0.000000 -0.000000 0.000000 
0.000000 0.000000 0.000000 

0.000000 0.000000 0.000000 
0.000000 0.000000 0.000000 
0.000000 0.000000 0.000000 

-0.000000 -0.000000 0.000000 
0.000000 -0.000000 0.000000 
0.000000 0.000000 0.000000 

0.000000 -0.000000 0.000000 
0.000000 0.000000 0.000000 
0.000000 0.000000 0.000000 

-0.000000 0.000000 0.000000 
0.000000 -0.000000 0.000000 
0.000000 0.000000 0.000000 

-0.000000 -0.000000 0.000000 
0.000000 -0.000000 0.000000 
0.000000 0.000000 0.000000 

0.000000 -0.000000 0.000000 
0.000000 0.000000 0.000000 
0.000000 0.000000 0.000000 

0.000000 -0.000000 0.000000 
0.000000 0.000000 0.000000 
0.000000 0.000000 0.000000 

0.000000 0.000000 0.000000 
0.000000 0.000000 0.000000 
0.000000 0.000000 0.000000 

-0.000000 0.000000 0.000000 
0.000000 -0.000000 0.000000 
0.000000 0.000000 0.000000 

0.000000 -0.000000 0.000000 
0.000000 0.000000 0.000000 
0.000000 0.000000 0.000000 

0.000000 -0.000000 0.000000 
0.000000 0.000000 0.000000 
0.000000 0.000000 0.000000 

0.000000 0.000000 0.000000 
0.000000 0.000000 0.000000 
0.000000 0.000000 0.000000 

0.000000 0.000000 0.000000 
0.000000 0.000000 0.000000 
0.000000 0.000000 0.000000 

-0.000000 0.000000 0.000000 
0.000000 -0.000000 0.000000 
0.000000 0.000000 0.000000 

-0.000000 0.000000 0.000000 
0.000000 -0.000000 0.000000 
0.000000 0.000000 0.000000 

-0.000000 0.000000 0.000000 
0.000000 -0.000000 0.000000 
0.000000 0.000000 0.000000 

0.000000 -0.000000 0.000000 
0.000000 0.000000 0.000000 
0.000000 0.000000 0.000000 

0.000000 -0.000000 0.000000 
0.000000 0.000000 0.000000 
0.000000 0.000000 0.000000 

-0.000000 -0.000000 0.000000 
0.000000 -0.000000 0.000000 
0.000000 0.000000 0.000000 

-0.000000 -0.000000 0.000000 
0.000000 -0.000000 0.000000 
0.000000 0.000000 0.000000 

-0.000000 0.000000 0.000000 
0.000000 -0.000000 0.000000 
0.000000 0.000000 0.000000 

0.000000 0.000000 0.000000 
0.000000 -0.000000 0.000000 
0.000000 0.000000 0.000000 

-0.000000 0.000000 0.000000 
0.000000 -0.000000 0.000000 
0.000000 0.000000 0.000000 

0.000000 0.000000 0.000000 
0.000000 0.000000 0.000000 
0.000000 0.000000 0.000000 

0.000000 -0.000000 0.000000 
0.000000 0.000000 0.000000 
0.000000 0.000000 0.000000 

0.000000 -0.000000 0.000000 
0.000000 -0.000000 0.000000 
0.000000 0.000000 0.000000 

-0.000000 0.000000 0.000000 
0.000000 -0.000000 0.000000 
0.000000 0.000000 0.000000 

TENSORS STRAIN float 
0.000000 -0.000000 0.000000 
0.000000 0.000000 0.000000 
0.000000 0.000000 0.000000 

-0.000000 0.000000 0.000000 
0.000000 0.000000 0.000000 
0.000000 0.000000 0.000000 

-0.000000 0.000000 0.000000 
0.000000 -0.000000 0.000000 
0.000000 0.000000 0.000000 

-0.000000 -0.000000 0.000000 
0.000000 -0.000000 0.000000 
0.000000 0.000000 0.000000 

0.000000 -0.000000 0.000000 
0.000000 0.000000 0.000000 
0.000000 0.000000 0.000000 

0.000000 -0.000000 0.000000 
0.000000 0.000000 0.000000 
0.000000 0.000000 0.000000 

-0.000000 -0.000000 0.000000 
0.000000 0.000000 0.000000 
0.000000 0.000000 0.000000 

0.000000 -0.000000 0.000000 
0.000000 0.000000 0.000000 
0.000000 0.000000 0.000000 

0.000000 -0.000000 0.000000 
0.000000 -0.000000 0.000000 
0.000000 0.000000 0.000000 

0.000000 -0.000000 0.000000 
0.000000 -0.000000 0.000000 
0.000000 0.000000 0.000000 

-0.000000 -0.000000 0.000000 
0.000000 -0.000000 0.000000 
0.000000 0.000000 0.000000 

-0.000000 -0.000000 0.000000 
0.000000 0.000000 0.000000 
0.000000 0.000000 0.000000 

-0.000000 0.000000 0.000000 
0.000000 -0.000000 0.000000 
0.000000 0.000000 0.000000 

-0.000000 0.000000 0.000000 
0.000000 0.000000 0.000000 
0.000000 0.000000 0.000000 

0.000000 0.000000 0.000000 
0.000000 -0.000000 0.000000 
0.000000 0.000000 0.000000 

0.000000 0.000000 0.000000 
0.000000 0.000000 0.000000 
0.000000 0.000000 0.000000 

0.000000 0.000000 0.000000 
0.000000 -0.000000 0.000000 
0.000000 0.000000 0.000000 

0.000000 0.000000 0.000000 
0.000000 -0.000000 0.000000 
0.000000 0.000000 0.000000 

0.000000 0.000000 0.000000 
0.000000 -0.000000 0.000000 
0.000000 0.000000 0.000000 

-0.000000 -0.000000 0.000000 
0.000000 0.000000 0.000000 
0.000000 0.000000 0.000000 

-0.000000 -0.000000 0.000000 
0.000000 0.000000 0.000000 
0.000000 0.000000 0.000000 

-0.000000 -0.000000 0.000000 
0.000000 0.000000 0.000000 
0.000000 0.000000 0.000000 

0.000000 -0.000000 0.000000 
0.000000 -0.000000 0.000000 
0.000000 0.000000 0.000000 

0.000000 -0.000000 0.000000 
0.000000 0.000000 0.000000 
0.000000 0.000000 0.000000 

0.000000 -0.000000 0.000000 
0.000000 -0.000000 0.000000 
0.000000 0.000000 0.000000 

0.000000 -0.000000 0.000000 
0.000000 -0.000000 0.000000 
0.000000 0.000000 0.000000 

-0.000000 -0.000000 0.000000 
0.000000 -0.000000 0.000000 
0.000000 0.000000 0.000000 

-0.000000 -0.000000 0.000000 
0.000000 0.000000 0.000000 
0.000000 0.000000 0.000000 

-0.000000 -0.000000 0.000000 
0.000000 0.000000 0.000000 
0.000000 0.000000 0.000000 

-0.000000 0.000000 0.000000 
0.000000 0.000000 0.000000 
0.000000 0.000000 0.000000 

-0.000000 -0.000000 0.000000 
0.000000 0.000000 0.000000 
0.000000 0.000000 0.000000 

-0.000000 0.000000 0.000000 
0.000000 0.000000 0.000000 
0.000000 0.000000 0.000000 

-0.000000 -0.000000 0.000000 
0.000000 0.000000 0.000000 
0.000000 0.000000 0.000000 

0.000000 -0.000000 0.000000 
0.000000 0.000000 0.000000 
0.000000 0.000000 0.000000 

-0.000000 0.000000 0.000000 
0.000000 0.000000 0.000000 
0.000000 0.000000 0.000000 

-0.000000 0.000000 0.000000 
0.000000 0.000000 0.000000 
0.000000 0.000000 0.000000 

-0.000000 -0.000000 0.000000 
0.000000 -0.000000 0.000000 
0.000000 0.000000 0.000000 

-0.000000 -0.000000 0.000000 
0.000000 -0.000000 0.000000 
0.000000 0.000000 0.000000 

-0.000000 0.000000 0.000000 
0.000000 -0.000000 0.000000 
0.000000 0.000000 0.000000 

-0.000000 0.000000 0.000000 
0.000000 -0.000000 0.000000 
0.000000 0.000000 0.000000 

0.000000 0.000000 0.000000 
0.000000 0.000000 0.000000 
0.000000 0.000000 0.000000 

-0.000000 0.000000 0.000000 
0.000000 0.000000 0.000000 
0.000000 0.000000 0.000000 

-0.000000 0.000000 0.000000 
0.000000 0.000000 0.000000 
0.000000 0.000000 0.000000 

-0.000000 0.000000 0.000000 
0.000000 0.000000 0.000000 
0.000000 0.000000 0.000000 

-0.000000 0.000000 0.000000 
0.000000 -0.000000 0.000000 
0.000000 0.000000 0.000000 

-0.000000 -0.000000 0.000000 
0.000000 0.000000 0.000000 
0.000000 0.000000 0.000000 

0.000000 -0.000000 0.000000 
0.000000 -0.000000 0.000000 
0.000000 0.000000 0.000000 

0.000000 0.000000 0.000000 
0.000000 -0.000000 0.000000 
0.000000 0.000000 0.000000 

0.000000 -0.000000 0.000000 
0.000000 0.000000 0.000000 
0.000000 0.000000 0.000000 

0.000000 -0.000000 0.000000 
0.000000 -0.000000 0.000000 
0.000000 0.000000 0.000000 

-0.000000 0.000000 0.000000 
0.000000 0.000000 0.000000 
0.000000 0.000000 0.000000 

0.000000 0.000000 0.000000 
0.000000 -0.000000 0.000000 
0.000000 0.000000 0.000000 

0.000000 -0.000000 0.000000 
0.000000 0.000000 0.000000 
0.000000 0.000000 0.000000 

0.000000 -0.000000 0.000000 
0.000000 -0.000000 0.000000 
0.000000 0.000000 0.000000 

-0.000000 -0.000000 0.000000 
0.000000 -0.000000 0.000000 
0.000000 0.000000 0.000000 

0.000000 -0.000000 0.000000 
0.000000 0.000000 0.000000 
0.000000 0.000000 0.000000 

0.000000 -0.000000 0.000000 
0.000000 -0.000000 0.000000 
0.000000 0.000000 0.000000 

0.000000 -0.000000 0.000000 
0.000000 -0.000000 0.000000 
0.000000 0.000000 0.000000 

-0.000000 0.000000 0.000000 
0.000000 0.000000 0.000000 
0.000000 0.000000 0.000000 

-0.000000 -0.000000 0.000000 
0.000000 0.000000 0.000000 
0.000000 0.000000 0.000000 

0.000000 -0.000000 0.000000 
0.000000 0.000000 0.000000 
0.000000 0.000000 0.000000 

-0.000000 0.000000 0.000000 
0.000000 0.000000 0.000000 
0.000000 0.000000 0.000000 

-0.000000 0.000000 0.000000 
0.000000 -0.000000 0.000000 
0.000000 0.000000 0.000000 

-0.000000 0.000000 0.000000 
0.000000 0.000000 0.000000 
0.000000 0.000000 0.000000 

-0.000000 0.000000 0.000000 
0.000000 0.000000 0.000000 
0.000000 0.000000 0.000000 

-0.000000 0.000000 0.000000 
0.000000 0.000000 0.000000 
0.000000 0.000000 0.000000 

-0.000000 -0.000000 0.000000 
0.000000 0.000000 0.000000 
0.000000 0.000000 0.000000 

-0.000000 -0.000000 0.000000 
0.000000 0.000000 0.000000 
0.000000 0.000000 0.000000 

-0.000000 -0.000000 0.000000 
0.000000 -0.000000 0.000000 
0.000000 0.000000 0.000000 

-0.000000 0.000000 0.000000 
0.000000 0.000000 0.000000 
0.000000 0.000000 0.000000 

-0.000000 0.000000 0.000000 
0.000000 0.000000 0.000000 
0.000000 0.000000 0.000000 

-0.000000 0.000000 0.000000 
0.000000 0.000000 0.000000 
0.000000 0.000000 0.000000 

-0.000000 -0.000000 0.000000 
0.000000 -0.000000 0.000000 
0.000000 0.000000 0.000000 

-0.000000 0.000000 0.000000 
0.000000 0.000000 0.000000 
0.000000 0.000000 0.000000 

-0.000000 0.000000 0.000000 
0.000000 -0.000000 0.000000 
0.000000 0.000000 0.000000 

-0.000000 -0.000000 0.000000 
0.000000 -0.000000 0.000000 
0.000000 0.000000 0.000000 

-0.000000 -0.000000 0.000000 
0.000000 0.000000 0.000000 
0.000000 0.000000 0.000000 

-0.000000 -0.000000 0.000000 
0.000000 -0.000000 0.000000 
0.000000 0.000000 0.000000 

-0.000000 0.000000 0.000000 
0.000000 0.000000 0.000000 
0.000000 0.000000 0.000000 

-0.000000 -0.000000 0.000000 
0.000000 0.000000 0.000000 
0.000000 0.000000 0.000000 

-0.000000 -0.000000 0.000000 
0.000000 0.000000 0.000000 
0.000000 0.000000 0.000000 

-0.000000 -0.000000 0.000000 
0.000000 0.000000 0.000000 
0.000000 0.000000 0.000000 

-0.000000 -0.000000 0.000000 
0.000000 0.000000 0.000000 
0.000000 0.000000 0.000000 

0.000000 -0.000000 0.000000 
0.000000 -0.000000 0.000000 
0.000000 0.000000 0.000000 

0.000000 -0.000000 0.000000 
0.000000 -0.000000 0.000000 
0.000000 0.000000 0.000000 

0.000000 -0.000000 0.000000 
0.000000 0.000000 0.000000 
0.000000 0.000000 0.000000 

-0.000000 -0.000000 0.000000 
0.000000 0.000000 0.000000 
0.000000 0.000000 0.000000 

-0.000000 -0.000000 0.000000 
0.000000 0.000000 0.000000 
0.000000 0.000000 0.000000 

-0.000000 0.000000 0.000000 
0.000000 0.000000 0.000000 
0.000000 0.000000 0.000000 

-0.000000 -0.000000 0.000000 
0.000000 0.000000 0.000000 
0.000000 0.000000 0.000000 

-0.000000 -0.000000 0.000000 
0.000000 0.000000 0.000000 
0.000000 0.000000 0.000000 

0.000000 -0.000000 0.000000 
0.000000 -0.000000 0.000000 
0.000000 0.000000 0.000000 

0.000000 0.000000 0.000000 
0.000000 0.000000 0.000000 
0.000000 0.000000 0.000000 

0.000000 0.000000 0.000000 
0.000000 -0.000000 0.000000 
0.000000 0.000000 0.000000 

-0.000000 0.000000 0.000000 
0.000000 0.000000 0.000000 
0.000000 0.000000 0.000000 

-0.000000 0.000000 0.000000 
0.000000 0.000000 0.000000 
0.000000 0.000000 0.000000 

-0.000000 0.000000 0.000000 
0.000000 0.000000 0.000000 
0.000000 0.000000 0.000000 

-0.000000 -0.000000 0.000000 
0.000000 0.000000 0.000000 
0.000000 0.000000 0.000000 

-0.000000 -0.000000 0.000000 
0.000000 0.000000 0.000000 
0.000000 0.000000 0.000000 

-0.000000 -0.000000 0.000000 
0.000000 0.000000 0.000000 
0.000000 0.000000 0.000000 

-0.000000 0.000000 0.000000 
0.000000 0.000000 0.000000 
0.000000 0.000000 0.000000 

0.000000 0.000000 0.000000 
0.000000 0.000000 0.000000 
0.000000 0.000000 0.000000 

0.000000 0.000000 0.000000 
0.000000 -0.000000 0.000000 
0.000000 0.000000 0.000000 

-0.000000 -0.000000 0.000000 
0.000000 0.000000 0.000000 
0.000000 0.000000 0.000000 

-0.000000 -0.000000 0.000000 
0.000000 -0.000000 0.000000 
0.000000 0.000000 0.000000 

-0.000000 0.000000 0.000000 
0.000000 0.000000 0.000000 
0.000000 0.000000 0.000000 

-0.000000 -0.000000 0.000000 
0.000000 0.000000 0.000000 
0.000000 0.000000 0.000000 

-0.000000 -0.000000 0.000000 
0.000000 -0.000000 0.000000 
0.000000 0.000000 0.000000 

-0.000000 -0.000000 0.000000 
0.000000 0.000000 0.000000 
0.000000 0.000000 0.000000 

0.000000 -0.000000 0.000000 
0.000000 -0.000000 0.000000 
0.000000 0.000000 0.000000 

0.000000 0.000000 0.000000 
0.000000 -0.000000 0.000000 
0.000000 0.000000 0.000000 

0.000000 -0.000000 0.000000 
0.000000 -0.000000 0.000000 
0.000000 0.000000 0.000000 

-0.000000 -0.000000 0.000000 
0.000000 0.000000 0.000000 
0.000000 0.000000 0.000000 

-0.000000 -0.000000 0.000000 
0.000000 0.000000 0.000000 
0.000000 0.000000 0.000000 

-0.000000 -0.000000 0.000000 
0.000000 -0.000000 0.000000 
0.000000 0.000000 0.000000 

0.000000 -0.000000 0.000000 
0.000000 -0.000000 0.000000 
0.000000 0.000000 0.000000 

0.000000 -0.000000 0.000000 
0.000000 0.000000 0.000000 
0.000000 0.000000 0.000000 

0.000000 -0.000000 0.000000 
0.000000 0.000000 0.000000 
0.000000 0.000000 0.000000 

0.000000 -0.000000 0.000000 
0.000000 -0.000000 0.000000 
0.000000 0.000000 0.000000 

-0.000000 0.000000 0.000000 
0.000000 0.000000 0.000000 
0.000000 0.000000 0.000000 

-0.000000 0.000000 0.000000 
0.000000 -0.000000 0.000000 
0.000000 0.000000 0.000000 

-0.000000 0.000000 0.000000 
0.000000 0.000000 0.000000 
0.000000 0.000000 0.000000 

-0.000000 -0.000000 0.000000 
0.000000 0.000000 0.000000 
0.000000 0.000000 0.000000 

-0.000000 -0.000000 0.000000 
0.000000 -0.000000 0.000000 
0.000000 0.000000 0.000000 

0.000000 -0.000000 0.000000 
0.000000 -0.000000 0.000000 
0.000000 0.000000 0.000000 

0.000000 0.000000 0.000000 
0.000000 0.000000 0.000000 
0.000000 0.000000 0.000000 

0.000000 -0.000000 0.000000 
0.000000 0.000000 0.000000 
0.000000 0.000000 0.000000 

0.000000 -0.000000 0.000000 
0.000000 0.000000 0.000000 
0.000000 0.000000 0.000000 

0.000000 0.000000 0.000000 
0.000000 -0.000000 0.000000 
0.000000 0.000000 0.000000 

0.000000 0.000000 0.000000 
0.000000 0.000000 0.000000 
0.000000 0.000000 0.000000 

0.000000 -0.000000 0.000000 
0.000000 -0.000000 0.000000 
0.000000 0.000000 0.000000 

-0.000000 -0.000000 0.000000 
0.000000 -0.000000 0.000000 
0.000000 0.000000 0.000000 

0.000000 -0.000000 0.000000 
0.000000 -0.000000 0.000000 
0.000000 0.000000 0.000000 

-0.000000 -0.000000 0.000000 
0.000000 -0.000000 0.000000 
0.000000 0.000000 0.000000 

-0.000000 0.000000 0.000000 
0.000000 0.000000 0.000000 
0.000000 0.000000 0.000000 

-0.000000 0.000000 0.000000 
0.000000 0.000000 0.000000 
0.000000 0.000000 0.000000 

-0.000000 0.000000 0.000000 
0.000000 -0.000000 0.000000 
0.000000 0.000000 0.000000 

-0.000000 -0.000000 0.000000 
0.000000 0.000000 0.000000 
0.000000 0.000000 0.000000 

-0.000000 -0.000000 0.000000 
0.000000 0.000000 0.000000 
0.000000 0.000000 0.000000 

-0.000000 -0.000000 0.000000 
0.000000 0.000000 0.000000 
0.000000 0.000000 0.000000 

-0.000000 -0.000000 0.000000 
0.000000 0.000000 0.000000 
0.000000 0.000000 0.000000 

0.000000 -0.000000 0.000000 
0.000000 0.000000 0.000000 
0.000000 0.000000 0.000000 

0.000000 0.000000 0.000000 
0.000000 -0.000000 0.000000 
0.000000 0.000000 0.000000 

0.000000 -0.000000 0.000000 
0.000000 -0.000000 0.000000 
0.000000 0.000000 0.000000 

0.000000 -0.000000 0.000000 
0.000000 -0.000000 0.000000 
0.000000 0.000000 0.000000 

0.000000 0.000000 0.000000 
0.000000 -0.000000 0.000000 
0.000000 0.000000 0.000000 

0.000000 -0.000000 0.000000 
0.000000 0.000000 0.000000 
0.000000 0.000000 0.000000 

0.000000 0.000000 0.000000 
0.000000 -0.000000 0.000000 
0.000000 0.000000 0.000000 

-0.000000 0.000000 0.000000 
0.000000 0.000000 0.000000 
0.000000 0.000000 0.000000 

0.000000 -0.000000 0.000000 
0.000000 -0.000000 0.000000 
0.000000 0.000000 0.000000 

0.000000 -0.000000 0.000000 
0.000000 -0.000000 0.000000 
0.000000 0.000000 0.000000 

-0.000000 0.000000 0.000000 
0.000000 -0.000000 0.000000 
0.000000 0.000000 0.000000 

-0.000000 -0.000000 0.000000 
0.000000 -0.000000 0.000000 
0.000000 0.000000 0.000000 

0.000000 -0.000000 0.000000 
0.000000 0.000000 0.000000 
0.000000 0.000000 0.000000 

0.000000 -0.000000 0.000000 
0.000000 -0.000000 0.000000 
0.000000 0.000000 0.000000 

0.000000 0.000000 0.000000 
0.000000 0.000000 0.000000 
0.000000 0.000000 0.000000 

0.000000 0.000000 0.000000 
0.000000 -0.000000 0.000000 
0.000000 0.000000 0.000000 

0.000000 -0.000000 0.000000 
0.000000 0.000000 0.000000 
0.000000 0.000000 0.000000 

0.000000 -0.000000 0.000000 
0.000000 -0.000000 0.000000 
0.000000 0.000000 0.000000 

0.000000 0.000000 0.000000 
0.000000 0.000000 0.000000 
0.000000 0.000000 0.000000 

0.000000 0.000000 0.000000 
0.000000 -0.000000 0.000000 
0.000000 0.000000 0.000000 

-0.000000 0.000000 0.000000 
0.000000 -0.000000 0.000000 
0.000000 0.000000 0.000000 

-0.000000 0.000000 0.000000 
0.000000 0.000000 0.000000 
0.000000 0.000000 0.000000 

-0.000000 0.000000 0.000000 
0.000000 0.000000 0.000000 
0.000000 0.000000 0.000000 

-0.000000 -0.000000 0.000000 
0.000000 0.000000 0.000000 
0.000000 0.000000 0.000000 

0.000000 -0.000000 0.000000 
0.000000 0.000000 0.000000 
0.000000 0.000000 0.000000 

0.000000 -0.000000 0.000000 
0.000000 -0.000000 0.000000 
0.000000 0.000000 0.000000 

0.000000 -0.000000 0.000000 
0.000000 -0.000000 0.000000 
0.000000 0.000000 0.000000 

-0.000000 0.000000 0.000000 
0.000000 -0.000000 0.000000 
0.000000 0.000000 0.000000 

0.000000 0.000000 0.000000 
0.000000 -0.000000 0.000000 
0.000000 0.000000 0.000000 

0.000000 0.000000 0.000000 
0.000000 -0.000000 0.000000 
0.000000 0.000000 0.000000 

-0.000000 0.000000 0.000000 
0.000000 0.000000 0.000000 
0.000000 0.000000 0.000000 

0.000000 -0.000000 0.000000 
0.000000 0.000000 0.000000 
0.000000 0.000000 0.000000 

0.000000 -0.000000 0.000000 
0.000000 -0.000000 0.000000 
0.000000 0.000000 0.000000 

0.000000 0.000000 0.000000 
0.000000 -0.000000 0.000000 
0.000000 0.000000 0.000000 

