# vtk DataFile Version 3.0 
vtk output 
ASCII 
DATASET UNSTRUCTURED_GRID 
POINTS 175 float 
-0.026061 0.033201 0.000000 
-0.106992 0.101256 0.000000 
-0.054870 0.093024 0.000000 
-0.028809 0.138907 0.000000 
-0.186430 0.165332 0.000000 
-0.137056 0.162806 0.000000 
-0.114311 0.216453 0.000000 
-0.058186 0.200787 0.000000 
-0.029377 0.240965 0.000000 
-0.265318 0.228488 0.000000 
-0.217198 0.227688 0.000000 
-0.196633 0.284985 0.000000 
-0.143120 0.276276 0.000000 
-0.116563 0.323544 0.000000 
-0.058945 0.303899 0.000000 
-0.029568 0.342019 0.000000 
-0.344206 0.291644 0.000000 
-0.296791 0.291651 0.000000 
-0.278030 0.351594 0.000000 
-0.225992 0.345727 0.000000 
-0.201664 0.397844 0.000000 
-0.145749 0.384370 0.000000 
-0.117890 0.428713 0.000000 
-0.059328 0.406007 0.000000 
-0.029759 0.443073 0.000000 
-0.058559 -0.007550 0.000000 
-0.162226 -0.028392 0.000000 
-0.123292 0.007225 0.000000 
-0.142917 0.056209 0.000000 
-0.261851 -0.050549 0.000000 
-0.229092 -0.013522 0.000000 
-0.256854 0.037710 0.000000 
-0.209613 0.071822 0.000000 
-0.223062 0.119396 0.000000 
-0.360414 -0.072849 0.000000 
-0.329787 -0.035726 0.000000 
-0.361761 0.016076 0.000000 
-0.321587 0.052485 0.000000 
-0.341985 0.102719 0.000000 
-0.290702 0.135518 0.000000 
-0.302189 0.182253 0.000000 
-0.458977 -0.095149 0.000000 
-0.429420 -0.058074 0.000000 
-0.464588 -0.006033 0.000000 
-0.427556 0.030995 0.000000 
-0.453135 0.082510 0.000000 
-0.407738 0.117825 0.000000 
-0.425037 0.167253 0.000000 
-0.370772 0.198882 0.000000 
-0.381315 0.245110 0.000000 
-0.046960 -0.058365 0.000000 
-0.095301 -0.152411 0.000000 
-0.098873 -0.099764 0.000000 
-0.149405 -0.084566 0.000000 
-0.140093 -0.244115 0.000000 
-0.148617 -0.195417 0.000000 
-0.205981 -0.185179 0.000000 
-0.203197 -0.126976 0.000000 
-0.248777 -0.107829 0.000000 
-0.184111 -0.335079 0.000000 
-0.194039 -0.287987 0.000000 
-0.254475 -0.280688 0.000000 
-0.257893 -0.226578 0.000000 
-0.309886 -0.211206 0.000000 
-0.303554 -0.150660 0.000000 
-0.347255 -0.130503 0.000000 
-0.228129 -0.426042 0.000000 
-0.238687 -0.379818 0.000000 
-0.301302 -0.374866 0.000000 
-0.307162 -0.322827 0.000000 
-0.363386 -0.310706 0.000000 
-0.362692 -0.253195 0.000000 
-0.412122 -0.235901 0.000000 
-0.403017 -0.173755 0.000000 
-0.445733 -0.153176 0.000000 
-0.000000 -0.080980 0.000000 
0.043388 -0.177410 0.000000 
-0.000000 -0.147378 0.000000 
-0.043388 -0.177410 0.000000 
0.087158 -0.269607 0.000000 
0.043769 -0.245909 0.000000 
-0.000000 -0.284374 0.000000 
-0.043769 -0.245909 0.000000 
-0.087158 -0.269607 0.000000 
0.130831 -0.360737 0.000000 
0.087824 -0.339138 0.000000 
0.044436 -0.381838 0.000000 
-0.000000 -0.350773 0.000000 
-0.044436 -0.381838 0.000000 
-0.087824 -0.339138 0.000000 
-0.130831 -0.360737 0.000000 
0.174505 -0.451866 0.000000 
0.131782 -0.431300 0.000000 
0.088871 -0.477167 0.000000 
0.044532 -0.449303 0.000000 
-0.000000 -0.485703 0.000000 
-0.044532 -0.449303 0.000000 
-0.088871 -0.477167 0.000000 
-0.131782 -0.431300 0.000000 
-0.174505 -0.451866 0.000000 
0.046960 -0.058365 0.000000 
0.149405 -0.084566 0.000000 
0.098873 -0.099764 0.000000 
0.095301 -0.152411 0.000000 
0.248777 -0.107829 0.000000 
0.203197 -0.126976 0.000000 
0.205981 -0.185179 0.000000 
0.148617 -0.195417 0.000000 
0.140093 -0.244115 0.000000 
0.347255 -0.130503 0.000000 
0.303554 -0.150660 0.000000 
0.309886 -0.211206 0.000000 
0.257893 -0.226578 0.000000 
0.254475 -0.280688 0.000000 
0.194039 -0.287987 0.000000 
0.184111 -0.335079 0.000000 
0.445733 -0.153176 0.000000 
0.403017 -0.173755 0.000000 
0.412122 -0.235901 0.000000 
0.362692 -0.253195 0.000000 
0.363386 -0.310706 0.000000 
0.307162 -0.322827 0.000000 
0.301302 -0.374866 0.000000 
0.238687 -0.379818 0.000000 
0.228129 -0.426042 0.000000 
0.058559 -0.007550 0.000000 
0.142917 0.056209 0.000000 
0.123292 0.007225 0.000000 
0.162226 -0.028392 0.000000 
0.223062 0.119396 0.000000 
0.209613 0.071822 0.000000 
0.256854 0.037710 0.000000 
0.229092 -0.013522 0.000000 
0.261851 -0.050549 0.000000 
0.302189 0.182253 0.000000 
0.290702 0.135518 0.000000 
0.341985 0.102719 0.000000 
0.321587 0.052485 0.000000 
0.361761 0.016076 0.000000 
0.329787 -0.035726 0.000000 
0.360414 -0.072849 0.000000 
0.381315 0.245110 0.000000 
0.370772 0.198882 0.000000 
0.425037 0.167253 0.000000 
0.407738 0.117825 0.000000 
0.453135 0.082510 0.000000 
0.427556 0.030995 0.000000 
0.464588 -0.006033 0.000000 
0.429420 -0.058074 0.000000 
0.458977 -0.095149 0.000000 
0.026061 0.033201 0.000000 
0.028809 0.138907 0.000000 
0.054870 0.093024 0.000000 
0.106992 0.101256 0.000000 
0.029377 0.240965 0.000000 
0.058186 0.200787 0.000000 
0.114311 0.216453 0.000000 
0.137056 0.162806 0.000000 
0.186430 0.165332 0.000000 
0.029568 0.342019 0.000000 
0.058945 0.303899 0.000000 
0.116563 0.323544 0.000000 
0.143120 0.276276 0.000000 
0.196633 0.284985 0.000000 
0.217198 0.227688 0.000000 
0.265318 0.228488 0.000000 
0.029759 0.443073 0.000000 
0.059328 0.406007 0.000000 
0.117890 0.428713 0.000000 
0.145749 0.384370 0.000000 
0.201664 0.397844 0.000000 
0.225992 0.345727 0.000000 
0.278030 0.351594 0.000000 
0.296791 0.291651 0.000000 
0.344206 0.291644 0.000000 
CELLS 175 350 
1 0 
1 1 
1 2 
1 3 
1 4 
1 5 
1 6 
1 7 
1 8 
1 9 
1 10 
1 11 
1 12 
1 13 
1 14 
1 15 
1 16 
1 17 
1 18 
1 19 
1 20 
1 21 
1 22 
1 23 
1 24 
1 25 
1 26 
1 27 
1 28 
1 29 
1 30 
1 31 
1 32 
1 33 
1 34 
1 35 
1 36 
1 37 
1 38 
1 39 
1 40 
1 41 
1 42 
1 43 
1 44 
1 45 
1 46 
1 47 
1 48 
1 49 
1 50 
1 51 
1 52 
1 53 
1 54 
1 55 
1 56 
1 57 
1 58 
1 59 
1 60 
1 61 
1 62 
1 63 
1 64 
1 65 
1 66 
1 67 
1 68 
1 69 
1 70 
1 71 
1 72 
1 73 
1 74 
1 75 
1 76 
1 77 
1 78 
1 79 
1 80 
1 81 
1 82 
1 83 
1 84 
1 85 
1 86 
1 87 
1 88 
1 89 
1 90 
1 91 
1 92 
1 93 
1 94 
1 95 
1 96 
1 97 
1 98 
1 99 
1 100 
1 101 
1 102 
1 103 
1 104 
1 105 
1 106 
1 107 
1 108 
1 109 
1 110 
1 111 
1 112 
1 113 
1 114 
1 115 
1 116 
1 117 
1 118 
1 119 
1 120 
1 121 
1 122 
1 123 
1 124 
1 125 
1 126 
1 127 
1 128 
1 129 
1 130 
1 131 
1 132 
1 133 
1 134 
1 135 
1 136 
1 137 
1 138 
1 139 
1 140 
1 141 
1 142 
1 143 
1 144 
1 145 
1 146 
1 147 
1 148 
1 149 
1 150 
1 151 
1 152 
1 153 
1 154 
1 155 
1 156 
1 157 
1 158 
1 159 
1 160 
1 161 
1 162 
1 163 
1 164 
1 165 
1 166 
1 167 
1 168 
1 169 
1 170 
1 171 
1 172 
1 173 
1 174 
CELL_TYPES 175 
1 
1 
1 
1 
1 
1 
1 
1 
1 
1 
1 
1 
1 
1 
1 
1 
1 
1 
1 
1 
1 
1 
1 
1 
1 
1 
1 
1 
1 
1 
1 
1 
1 
1 
1 
1 
1 
1 
1 
1 
1 
1 
1 
1 
1 
1 
1 
1 
1 
1 
1 
1 
1 
1 
1 
1 
1 
1 
1 
1 
1 
1 
1 
1 
1 
1 
1 
1 
1 
1 
1 
1 
1 
1 
1 
1 
1 
1 
1 
1 
1 
1 
1 
1 
1 
1 
1 
1 
1 
1 
1 
1 
1 
1 
1 
1 
1 
1 
1 
1 
1 
1 
1 
1 
1 
1 
1 
1 
1 
1 
1 
1 
1 
1 
1 
1 
1 
1 
1 
1 
1 
1 
1 
1 
1 
1 
1 
1 
1 
1 
1 
1 
1 
1 
1 
1 
1 
1 
1 
1 
1 
1 
1 
1 
1 
1 
1 
1 
1 
1 
1 
1 
1 
1 
1 
1 
1 
1 
1 
1 
1 
1 
1 
1 
1 
1 
1 
1 
1 
1 
1 
1 
1 
1 
1 
POINT_DATA 175 
VECTORS X_GC float 
-0.026061 0.033201 0.000000 
-0.106992 0.101256 0.000000 
-0.054870 0.093024 0.000000 
-0.028809 0.138907 0.000000 
-0.186430 0.165332 0.000000 
-0.137056 0.162806 0.000000 
-0.114311 0.216453 0.000000 
-0.058186 0.200787 0.000000 
-0.029377 0.240965 0.000000 
-0.265318 0.228488 0.000000 
-0.217198 0.227688 0.000000 
-0.196633 0.284985 0.000000 
-0.143120 0.276276 0.000000 
-0.116563 0.323544 0.000000 
-0.058945 0.303899 0.000000 
-0.029568 0.342019 0.000000 
-0.344206 0.291644 0.000000 
-0.296791 0.291651 0.000000 
-0.278030 0.351594 0.000000 
-0.225992 0.345727 0.000000 
-0.201664 0.397844 0.000000 
-0.145749 0.384370 0.000000 
-0.117890 0.428713 0.000000 
-0.059328 0.406007 0.000000 
-0.029759 0.443073 0.000000 
-0.058559 -0.007550 0.000000 
-0.162226 -0.028392 0.000000 
-0.123292 0.007225 0.000000 
-0.142917 0.056209 0.000000 
-0.261851 -0.050549 0.000000 
-0.229092 -0.013522 0.000000 
-0.256854 0.037710 0.000000 
-0.209613 0.071822 0.000000 
-0.223062 0.119396 0.000000 
-0.360414 -0.072849 0.000000 
-0.329787 -0.035726 0.000000 
-0.361761 0.016076 0.000000 
-0.321587 0.052485 0.000000 
-0.341985 0.102719 0.000000 
-0.290702 0.135518 0.000000 
-0.302189 0.182253 0.000000 
-0.458977 -0.095149 0.000000 
-0.429420 -0.058074 0.000000 
-0.464588 -0.006033 0.000000 
-0.427556 0.030995 0.000000 
-0.453135 0.082510 0.000000 
-0.407738 0.117825 0.000000 
-0.425037 0.167253 0.000000 
-0.370772 0.198882 0.000000 
-0.381315 0.245110 0.000000 
-0.046960 -0.058365 0.000000 
-0.095301 -0.152411 0.000000 
-0.098873 -0.099764 0.000000 
-0.149405 -0.084566 0.000000 
-0.140093 -0.244115 0.000000 
-0.148617 -0.195417 0.000000 
-0.205981 -0.185179 0.000000 
-0.203197 -0.126976 0.000000 
-0.248777 -0.107829 0.000000 
-0.184111 -0.335079 0.000000 
-0.194039 -0.287987 0.000000 
-0.254475 -0.280688 0.000000 
-0.257893 -0.226578 0.000000 
-0.309886 -0.211206 0.000000 
-0.303554 -0.150660 0.000000 
-0.347255 -0.130503 0.000000 
-0.228129 -0.426042 0.000000 
-0.238687 -0.379818 0.000000 
-0.301302 -0.374866 0.000000 
-0.307162 -0.322827 0.000000 
-0.363386 -0.310706 0.000000 
-0.362692 -0.253195 0.000000 
-0.412122 -0.235901 0.000000 
-0.403017 -0.173755 0.000000 
-0.445733 -0.153176 0.000000 
-0.000000 -0.080980 0.000000 
0.043388 -0.177410 0.000000 
-0.000000 -0.147378 0.000000 
-0.043388 -0.177410 0.000000 
0.087158 -0.269607 0.000000 
0.043769 -0.245909 0.000000 
-0.000000 -0.284374 0.000000 
-0.043769 -0.245909 0.000000 
-0.087158 -0.269607 0.000000 
0.130831 -0.360737 0.000000 
0.087824 -0.339138 0.000000 
0.044436 -0.381838 0.000000 
-0.000000 -0.350773 0.000000 
-0.044436 -0.381838 0.000000 
-0.087824 -0.339138 0.000000 
-0.130831 -0.360737 0.000000 
0.174505 -0.451866 0.000000 
0.131782 -0.431300 0.000000 
0.088871 -0.477167 0.000000 
0.044532 -0.449303 0.000000 
-0.000000 -0.485703 0.000000 
-0.044532 -0.449303 0.000000 
-0.088871 -0.477167 0.000000 
-0.131782 -0.431300 0.000000 
-0.174505 -0.451866 0.000000 
0.046960 -0.058365 0.000000 
0.149405 -0.084566 0.000000 
0.098873 -0.099764 0.000000 
0.095301 -0.152411 0.000000 
0.248777 -0.107829 0.000000 
0.203197 -0.126976 0.000000 
0.205981 -0.185179 0.000000 
0.148617 -0.195417 0.000000 
0.140093 -0.244115 0.000000 
0.347255 -0.130503 0.000000 
0.303554 -0.150660 0.000000 
0.309886 -0.211206 0.000000 
0.257893 -0.226578 0.000000 
0.254475 -0.280688 0.000000 
0.194039 -0.287987 0.000000 
0.184111 -0.335079 0.000000 
0.445733 -0.153176 0.000000 
0.403017 -0.173755 0.000000 
0.412122 -0.235901 0.000000 
0.362692 -0.253195 0.000000 
0.363386 -0.310706 0.000000 
0.307162 -0.322827 0.000000 
0.301302 -0.374866 0.000000 
0.238687 -0.379818 0.000000 
0.228129 -0.426042 0.000000 
0.058559 -0.007550 0.000000 
0.142917 0.056209 0.000000 
0.123292 0.007225 0.000000 
0.162226 -0.028392 0.000000 
0.223062 0.119396 0.000000 
0.209613 0.071822 0.000000 
0.256854 0.037710 0.000000 
0.229092 -0.013522 0.000000 
0.261851 -0.050549 0.000000 
0.302189 0.182253 0.000000 
0.290702 0.135518 0.000000 
0.341985 0.102719 0.000000 
0.321587 0.052485 0.000000 
0.361761 0.016076 0.000000 
0.329787 -0.035726 0.000000 
0.360414 -0.072849 0.000000 
0.381315 0.245110 0.000000 
0.370772 0.198882 0.000000 
0.425037 0.167253 0.000000 
0.407738 0.117825 0.000000 
0.453135 0.082510 0.000000 
0.427556 0.030995 0.000000 
0.464588 -0.006033 0.000000 
0.429420 -0.058074 0.000000 
0.458977 -0.095149 0.000000 
0.026061 0.033201 0.000000 
0.028809 0.138907 0.000000 
0.054870 0.093024 0.000000 
0.106992 0.101256 0.000000 
0.029377 0.240965 0.000000 
0.058186 0.200787 0.000000 
0.114311 0.216453 0.000000 
0.137056 0.162806 0.000000 
0.186430 0.165332 0.000000 
0.029568 0.342019 0.000000 
0.058945 0.303899 0.000000 
0.116563 0.323544 0.000000 
0.143120 0.276276 0.000000 
0.196633 0.284985 0.000000 
0.217198 0.227688 0.000000 
0.265318 0.228488 0.000000 
0.029759 0.443073 0.000000 
0.059328 0.406007 0.000000 
0.117890 0.428713 0.000000 
0.145749 0.384370 0.000000 
0.201664 0.397844 0.000000 
0.225992 0.345727 0.000000 
0.278030 0.351594 0.000000 
0.296791 0.291651 0.000000 
0.344206 0.291644 0.000000 
VECTORS X_EC float 
0.338794 0.051786 0.000000 
-0.609100 -0.866962 0.000000 
0.713312 -0.755821 0.000000 
0.374519 0.624749 0.000000 
0.423588 0.268019 0.000000 
-0.218274 0.302122 0.000000 
-0.513962 -0.422117 0.000000 
0.756418 -0.210631 0.000000 
0.381900 -0.753023 0.000000 
-0.550868 -0.584585 0.000000 
0.823577 -0.573789 0.000000 
0.556234 0.652707 0.000000 
-0.139443 0.770276 0.000000 
-0.484677 0.132151 0.000000 
0.766286 0.397366 0.000000 
0.384386 -0.117254 0.000000 
0.474677 0.562812 0.000000 
-0.141715 0.562716 0.000000 
-0.385608 -0.246512 0.000000 
0.937896 -0.167317 0.000000 
0.621631 -0.870897 0.000000 
-0.105264 -0.688998 0.000000 
-0.467428 0.712376 0.000000 
0.771260 -0.981095 0.000000 
0.386873 0.518515 0.000000 
0.761262 0.601921 0.000000 
0.108942 0.883297 0.000000 
-0.397202 0.402458 0.000000 
-0.142083 -0.258817 0.000000 
-0.595936 -0.817592 0.000000 
0.978194 0.682542 0.000000 
-0.660903 -0.009083 0.000000 
0.724964 -0.469603 0.000000 
0.899809 0.888148 0.000000 
0.685384 -0.516540 0.000000 
0.287229 0.982302 0.000000 
0.702895 0.282973 0.000000 
0.180633 -0.208545 0.000000 
0.445811 -0.886705 0.000000 
-0.220880 0.670509 0.000000 
-0.071546 0.039583 0.000000 
-0.033296 -0.215488 0.000000 
-0.417537 -0.715997 0.000000 
0.039645 0.581440 0.000000 
-0.441768 0.081569 0.000000 
-0.109248 -0.613882 0.000000 
-0.699407 0.909363 0.000000 
-0.474522 0.242084 0.000000 
0.820030 -0.184910 0.000000 
0.957100 -0.808981 0.000000 
0.610485 -0.712073 0.000000 
-0.761092 0.557547 0.000000 
-0.714655 -0.153191 0.000000 
-0.057734 -0.358358 0.000000 
-0.178789 -0.204449 0.000000 
-0.067979 -0.861875 0.000000 
0.677748 0.999921 0.000000 
0.641556 0.214176 0.000000 
-0.765897 -0.044303 0.000000 
0.393446 -0.976440 0.000000 
0.522510 0.387830 0.000000 
-0.691820 0.289286 0.000000 
-0.647393 -0.441197 0.000000 
0.028512 -0.648724 0.000000 
-0.053800 0.533916 0.000000 
0.514316 0.261785 0.000000 
0.965681 0.251569 0.000000 
-0.897068 -0.372460 0.000000 
-0.083078 -0.439313 0.000000 
-0.006893 0.858162 0.000000 
0.724017 0.694530 0.000000 
0.714996 -0.081874 0.000000 
-0.642413 -0.315331 0.000000 
-0.760780 0.845688 0.000000 
-0.205471 0.567873 0.000000 
0.000000 -0.406771 0.000000 
-0.564049 0.895042 0.000000 
0.000000 0.489606 0.000000 
0.564049 0.895042 0.000000 
0.866949 0.139697 0.000000 
-0.569003 -0.180234 0.000000 
0.000000 0.339054 0.000000 
0.569003 -0.180234 0.000000 
-0.866949 0.139697 0.000000 
0.299194 -0.630053 0.000000 
0.858290 -0.921637 0.000000 
-0.577662 -0.345191 0.000000 
0.000000 -0.764569 0.000000 
0.577662 -0.345191 0.000000 
-0.858290 -0.921637 0.000000 
-0.299194 -0.630053 0.000000 
-0.268560 0.600197 0.000000 
0.286830 0.322555 0.000000 
0.844677 0.941754 0.000000 
-0.578910 0.565591 0.000000 
0.000000 -0.943005 0.000000 
0.578910 0.565591 0.000000 
-0.844677 0.941754 0.000000 
-0.286830 0.322555 0.000000 
0.268560 0.600197 0.000000 
-0.610485 -0.712073 0.000000 
0.057734 -0.358358 0.000000 
0.714655 -0.153191 0.000000 
0.761092 0.557547 0.000000 
0.765897 -0.044303 0.000000 
-0.641556 0.214176 0.000000 
-0.677748 0.999921 0.000000 
0.067979 -0.861875 0.000000 
0.178789 -0.204449 0.000000 
-0.514316 0.261785 0.000000 
0.053800 0.533916 0.000000 
-0.028512 -0.648724 0.000000 
0.647393 -0.441197 0.000000 
0.691820 0.289286 0.000000 
-0.522510 0.387830 0.000000 
-0.393446 -0.976440 0.000000 
0.205471 0.567873 0.000000 
0.760780 0.845688 0.000000 
0.642413 -0.315331 0.000000 
-0.714996 -0.081874 0.000000 
-0.724017 0.694530 0.000000 
0.006894 0.858162 0.000000 
0.083078 -0.439313 0.000000 
0.897068 -0.372460 0.000000 
-0.965681 0.251569 0.000000 
-0.761262 0.601921 0.000000 
0.142083 -0.258817 0.000000 
0.397202 0.402458 0.000000 
-0.108942 0.883297 0.000000 
-0.899809 0.888148 0.000000 
-0.724964 -0.469603 0.000000 
0.660903 -0.009083 0.000000 
-0.978194 0.682542 0.000000 
0.595936 -0.817592 0.000000 
0.071546 0.039584 0.000000 
0.220880 0.670509 0.000000 
-0.445811 -0.886705 0.000000 
-0.180633 -0.208545 0.000000 
-0.702895 0.282973 0.000000 
-0.287229 0.982302 0.000000 
-0.685384 -0.516540 0.000000 
-0.957100 -0.808981 0.000000 
-0.820030 -0.184910 0.000000 
0.474522 0.242084 0.000000 
0.699407 0.909363 0.000000 
0.109248 -0.613882 0.000000 
0.441768 0.081569 0.000000 
-0.039645 0.581440 0.000000 
0.417537 -0.715997 0.000000 
0.033296 -0.215488 0.000000 
-0.338794 0.051786 0.000000 
-0.374519 0.624749 0.000000 
-0.713312 -0.755821 0.000000 
0.609100 -0.866962 0.000000 
-0.381900 -0.753023 0.000000 
-0.756418 -0.210631 0.000000 
0.513962 -0.422117 0.000000 
0.218274 0.302122 0.000000 
-0.423588 0.268019 0.000000 
-0.384386 -0.117254 0.000000 
-0.766286 0.397366 0.000000 
0.484677 0.132151 0.000000 
0.139443 0.770276 0.000000 
-0.556234 0.652707 0.000000 
-0.823577 -0.573789 0.000000 
0.550868 -0.584585 0.000000 
-0.386873 0.518515 0.000000 
-0.771260 -0.981095 0.000000 
0.467428 0.712376 0.000000 
0.105264 -0.688998 0.000000 
-0.621631 -0.870897 0.000000 
-0.937896 -0.167317 0.000000 
0.385608 -0.246512 0.000000 
0.141715 0.562716 0.000000 
-0.474677 0.562812 0.000000 
CELL_DATA 175 
SCALARS MASS float 
LOOKUP_TABLE default 
0.781831 
0.864274 
0.946717 
0.864274 
0.881307 
0.921110 
0.858535 
0.921110 
0.881307 
0.887046 
0.910001 
0.869829 
0.915556 
0.869829 
0.910001 
0.887046 
0.892784 
0.915740 
0.892784 
0.927218 
0.892784 
0.927218 
0.892784 
0.915740 
0.892784 
0.781831 
0.864274 
0.946717 
0.864274 
0.881307 
0.921110 
0.858535 
0.921110 
0.881307 
0.887046 
0.910001 
0.869829 
0.915556 
0.869829 
0.910001 
0.887046 
0.892784 
0.915740 
0.892784 
0.927218 
0.892784 
0.927218 
0.892784 
0.915740 
0.892784 
0.781831 
0.864274 
0.946717 
0.864274 
0.881307 
0.921110 
0.858535 
0.921110 
0.881307 
0.887046 
0.910001 
0.869829 
0.915556 
0.869829 
0.910001 
0.887046 
0.892784 
0.915740 
0.892784 
0.927218 
0.892784 
0.927218 
0.892784 
0.915740 
0.892784 
0.781831 
0.864274 
0.946717 
0.864274 
0.881307 
0.921110 
0.858535 
0.921110 
0.881307 
0.887046 
0.910001 
0.869829 
0.915556 
0.869829 
0.910001 
0.887046 
0.892784 
0.915740 
0.892784 
0.927218 
0.892784 
0.927218 
0.892784 
0.915740 
0.892784 
0.781831 
0.864274 
0.946717 
0.864274 
0.881307 
0.921110 
0.858535 
0.921110 
0.881307 
0.887046 
0.910001 
0.869829 
0.915556 
0.869829 
0.910001 
0.887046 
0.892784 
0.915740 
0.892784 
0.927218 
0.892784 
0.927218 
0.892784 
0.915740 
0.892784 
0.781831 
0.864274 
0.946717 
0.864274 
0.881307 
0.921110 
0.858535 
0.921110 
0.881307 
0.887046 
0.910001 
0.869829 
0.915556 
0.869829 
0.910001 
0.887046 
0.892784 
0.915740 
0.892784 
0.927218 
0.892784 
0.927218 
0.892784 
0.915740 
0.892784 
0.781831 
0.864274 
0.946717 
0.864274 
0.881307 
0.921110 
0.858535 
0.921110 
0.881307 
0.887046 
0.910001 
0.869829 
0.915556 
0.869829 
0.910001 
0.887046 
0.892784 
0.915740 
0.892784 
0.927218 
0.892784 
0.927218 
0.892784 
0.915740 
0.892784 
SCALARS MASS float 
LOOKUP_TABLE default 
0.781831 
0.864274 
0.946717 
0.864274 
0.881307 
0.921110 
0.858535 
0.921110 
0.881307 
0.887046 
0.910001 
0.869829 
0.915556 
0.869829 
0.910001 
0.887046 
0.892784 
0.915740 
0.892784 
0.927218 
0.892784 
0.927218 
0.892784 
0.915740 
0.892784 
0.781831 
0.864274 
0.946717 
0.864274 
0.881307 
0.921110 
0.858535 
0.921110 
0.881307 
0.887046 
0.910001 
0.869829 
0.915556 
0.869829 
0.910001 
0.887046 
0.892784 
0.915740 
0.892784 
0.927218 
0.892784 
0.927218 
0.892784 
0.915740 
0.892784 
0.781831 
0.864274 
0.946717 
0.864274 
0.881307 
0.921110 
0.858535 
0.921110 
0.881307 
0.887046 
0.910001 
0.869829 
0.915556 
0.869829 
0.910001 
0.887046 
0.892784 
0.915740 
0.892784 
0.927218 
0.892784 
0.927218 
0.892784 
0.915740 
0.892784 
0.781831 
0.864274 
0.946717 
0.864274 
0.881307 
0.921110 
0.858535 
0.921110 
0.881307 
0.887046 
0.910001 
0.869829 
0.915556 
0.869829 
0.910001 
0.887046 
0.892784 
0.915740 
0.892784 
0.927218 
0.892784 
0.927218 
0.892784 
0.915740 
0.892784 
0.781831 
0.864274 
0.946717 
0.864274 
0.881307 
0.921110 
0.858535 
0.921110 
0.881307 
0.887046 
0.910001 
0.869829 
0.915556 
0.869829 
0.910001 
0.887046 
0.892784 
0.915740 
0.892784 
0.927218 
0.892784 
0.927218 
0.892784 
0.915740 
0.892784 
0.781831 
0.864274 
0.946717 
0.864274 
0.881307 
0.921110 
0.858535 
0.921110 
0.881307 
0.887046 
0.910001 
0.869829 
0.915556 
0.869829 
0.910001 
0.887046 
0.892784 
0.915740 
0.892784 
0.927218 
0.892784 
0.927218 
0.892784 
0.915740 
0.892784 
0.781831 
0.864274 
0.946717 
0.864274 
0.881307 
0.921110 
0.858535 
0.921110 
0.881307 
0.887046 
0.910001 
0.869829 
0.915556 
0.869829 
0.910001 
0.887046 
0.892784 
0.915740 
0.892784 
0.927218 
0.892784 
0.927218 
0.892784 
0.915740 
0.892784 
SCALARS DENSITY float 
LOOKUP_TABLE default 
200.000000 
200.000000 
200.000000 
200.000000 
200.000000 
200.000000 
200.000000 
200.000000 
200.000000 
200.000000 
200.000000 
200.000000 
200.000000 
200.000000 
200.000000 
200.000000 
200.000000 
200.000000 
200.000000 
200.000000 
200.000000 
200.000000 
200.000000 
200.000000 
200.000000 
200.000000 
200.000000 
200.000000 
200.000000 
200.000000 
200.000000 
200.000000 
200.000000 
200.000000 
200.000000 
200.000000 
200.000000 
200.000000 
200.000000 
200.000000 
200.000000 
200.000000 
200.000000 
200.000000 
200.000000 
200.000000 
200.000000 
200.000000 
200.000000 
200.000000 
200.000000 
200.000000 
200.000000 
200.000000 
200.000000 
200.000000 
200.000000 
200.000000 
200.000000 
200.000000 
200.000000 
200.000000 
200.000000 
200.000000 
200.000000 
200.000000 
200.000000 
200.000000 
200.000000 
200.000000 
200.000000 
200.000000 
200.000000 
200.000000 
200.000000 
200.000000 
200.000000 
200.000000 
200.000000 
200.000000 
200.000000 
200.000000 
200.000000 
200.000000 
200.000000 
200.000000 
200.000000 
200.000000 
200.000000 
200.000000 
200.000000 
200.000000 
200.000000 
200.000000 
200.000000 
200.000000 
200.000000 
200.000000 
200.000000 
200.000000 
200.000000 
200.000000 
200.000000 
200.000000 
200.000000 
200.000000 
200.000000 
200.000000 
200.000000 
200.000000 
200.000000 
200.000000 
200.000000 
200.000000 
200.000000 
200.000000 
200.000000 
200.000000 
200.000000 
200.000000 
200.000000 
200.000000 
200.000000 
200.000000 
200.000000 
200.000000 
200.000000 
200.000000 
200.000000 
200.000000 
200.000000 
200.000000 
200.000000 
200.000000 
200.000000 
200.000000 
200.000000 
200.000000 
200.000000 
200.000000 
200.000000 
200.000000 
200.000000 
200.000000 
200.000000 
200.000000 
200.000000 
200.000000 
200.000000 
200.000000 
200.000000 
200.000000 
200.000000 
200.000000 
200.000000 
200.000000 
200.000000 
200.000000 
200.000000 
200.000000 
200.000000 
200.000000 
200.000000 
200.000000 
200.000000 
200.000000 
200.000000 
200.000000 
200.000000 
200.000000 
200.000000 
200.000000 
200.000000 
200.000000 
200.000000 
SCALARS ELEM_i float 
LOOKUP_TABLE default 
182 
209 
182 
183 
210 
210 
210 
183 
183 
237 
210 
211 
211 
211 
184 
184 
238 
238 
238 
211 
211 
211 
212 
184 
185 
182 
209 
209 
209 
235 
209 
236 
209 
210 
235 
236 
236 
236 
236 
237 
237 
262 
262 
263 
263 
263 
264 
264 
237 
237 
181 
208 
208 
208 
207 
207 
208 
208 
235 
206 
207 
234 
234 
234 
235 
235 
206 
233 
233 
234 
234 
234 
261 
262 
262 
181 
181 
181 
181 
153 
180 
180 
180 
207 
152 
152 
179 
179 
179 
206 
206 
152 
152 
152 
179 
178 
179 
206 
206 
206 
181 
154 
154 
154 
127 
154 
154 
153 
153 
127 
127 
126 
126 
126 
153 
152 
100 
100 
99 
126 
126 
126 
125 
125 
152 
182 
155 
155 
155 
156 
155 
128 
155 
127 
129 
129 
128 
128 
128 
128 
127 
129 
129 
102 
102 
101 
101 
101 
100 
100 
182 
183 
182 
155 
183 
183 
156 
156 
156 
184 
184 
157 
157 
157 
156 
129 
185 
184 
158 
157 
157 
157 
130 
130 
130 
VECTORS VELOCITY float 
-0.000000 -0.639612 0.000000 
0.000000 -0.639612 0.000000 
0.000000 -0.639612 0.000000 
-0.000000 -0.639612 0.000000 
-0.000000 -0.639612 0.000000 
-0.000000 -0.639612 0.000000 
-0.000000 -0.639612 0.000000 
-0.000000 -0.639612 0.000000 
-0.000000 -0.639612 0.000000 
-0.000000 -0.639612 0.000000 
-0.000000 -0.639612 0.000000 
-0.000000 -0.639612 0.000000 
-0.000000 -0.639612 0.000000 
-0.000000 -0.639612 0.000000 
-0.000000 -0.639612 0.000000 
0.000000 -0.639612 0.000000 
-0.000000 -0.639612 0.000000 
-0.000000 -0.639612 0.000000 
-0.000000 -0.639612 0.000000 
-0.000000 -0.639612 0.000000 
-0.000000 -0.639612 0.000000 
0.000000 -0.639612 0.000000 
-0.000000 -0.639612 0.000000 
0.000000 -0.639612 0.000000 
0.000000 -0.639612 0.000000 
-0.000000 -0.639612 0.000000 
0.000000 -0.639612 0.000000 
0.000000 -0.639612 0.000000 
-0.000000 -0.639612 0.000000 
0.000000 -0.639612 0.000000 
0.000000 -0.639612 0.000000 
0.000000 -0.639612 0.000000 
-0.000000 -0.639612 0.000000 
-0.000000 -0.639612 0.000000 
-0.000000 -0.639612 0.000000 
-0.000000 -0.639612 0.000000 
-0.000000 -0.639612 0.000000 
-0.000000 -0.639612 0.000000 
-0.000000 -0.639612 0.000000 
-0.000000 -0.639612 0.000000 
-0.000000 -0.639612 0.000000 
-0.000000 -0.639612 0.000000 
-0.000000 -0.639612 0.000000 
-0.000000 -0.639612 0.000000 
-0.000000 -0.639612 0.000000 
-0.000000 -0.639612 0.000000 
0.000000 -0.639612 0.000000 
0.000000 -0.639612 0.000000 
-0.000000 -0.639612 0.000000 
-0.000000 -0.639612 0.000000 
-0.000000 -0.639612 0.000000 
-0.000000 -0.639612 0.000000 
-0.000000 -0.639612 0.000000 
0.000000 -0.639612 0.000000 
0.000000 -0.639612 0.000000 
-0.000000 -0.639612 0.000000 
-0.000000 -0.639612 0.000000 
0.000000 -0.639612 0.000000 
0.000000 -0.639612 0.000000 
0.000000 -0.639612 0.000000 
0.000000 -0.639612 0.000000 
0.000000 -0.639612 0.000000 
-0.000000 -0.639612 0.000000 
0.000000 -0.639612 0.000000 
0.000000 -0.639612 0.000000 
0.000000 -0.639612 0.000000 
0.000000 -0.639612 0.000000 
0.000000 -0.639612 0.000000 
-0.000000 -0.639612 0.000000 
-0.000000 -0.639612 0.000000 
-0.000000 -0.639612 0.000000 
-0.000000 -0.639612 0.000000 
-0.000000 -0.639612 0.000000 
0.000000 -0.639612 0.000000 
-0.000000 -0.639612 0.000000 
-0.000000 -0.639612 0.000000 
-0.000000 -0.639612 0.000000 
-0.000000 -0.639612 0.000000 
-0.000000 -0.639612 0.000000 
-0.000000 -0.639612 0.000000 
-0.000000 -0.639612 0.000000 
-0.000000 -0.639612 0.000000 
0.000000 -0.639612 0.000000 
0.000000 -0.639612 0.000000 
-0.000000 -0.639612 0.000000 
-0.000000 -0.639612 0.000000 
-0.000000 -0.639612 0.000000 
-0.000000 -0.639612 0.000000 
0.000000 -0.639612 0.000000 
0.000000 -0.639612 0.000000 
0.000000 -0.639612 0.000000 
-0.000000 -0.639612 0.000000 
-0.000000 -0.639612 0.000000 
-0.000000 -0.639612 0.000000 
-0.000000 -0.639612 0.000000 
0.000000 -0.639612 0.000000 
0.000000 -0.639612 0.000000 
0.000000 -0.639612 0.000000 
0.000000 -0.639612 0.000000 
0.000000 -0.639612 0.000000 
-0.000000 -0.639612 0.000000 
0.000000 -0.639612 0.000000 
-0.000000 -0.639612 0.000000 
-0.000000 -0.639612 0.000000 
0.000000 -0.639612 0.000000 
0.000000 -0.639612 0.000000 
0.000000 -0.639612 0.000000 
0.000000 -0.639612 0.000000 
-0.000000 -0.639612 0.000000 
0.000000 -0.639612 0.000000 
0.000000 -0.639612 0.000000 
0.000000 -0.639612 0.000000 
0.000000 -0.639612 0.000000 
0.000000 -0.639612 0.000000 
0.000000 -0.639612 0.000000 
0.000000 -0.639612 0.000000 
-0.000000 -0.639612 0.000000 
0.000000 -0.639612 0.000000 
-0.000000 -0.639612 0.000000 
0.000000 -0.639612 0.000000 
0.000000 -0.639612 0.000000 
0.000000 -0.639612 0.000000 
0.000000 -0.639612 0.000000 
0.000000 -0.639612 0.000000 
0.000000 -0.639612 0.000000 
-0.000000 -0.639612 0.000000 
-0.000000 -0.639612 0.000000 
-0.000000 -0.639612 0.000000 
0.000000 -0.639612 0.000000 
0.000000 -0.639612 0.000000 
0.000000 -0.639612 0.000000 
0.000000 -0.639612 0.000000 
0.000000 -0.639612 0.000000 
0.000000 -0.639612 0.000000 
-0.000000 -0.639612 0.000000 
-0.000000 -0.639612 0.000000 
-0.000000 -0.639612 0.000000 
-0.000000 -0.639612 0.000000 
-0.000000 -0.639612 0.000000 
0.000000 -0.639612 0.000000 
-0.000000 -0.639612 0.000000 
-0.000000 -0.639612 0.000000 
-0.000000 -0.639612 0.000000 
0.000000 -0.639612 0.000000 
0.000000 -0.639612 0.000000 
0.000000 -0.639612 0.000000 
0.000000 -0.639612 0.000000 
0.000000 -0.639612 0.000000 
-0.000000 -0.639612 0.000000 
-0.000000 -0.639612 0.000000 
-0.000000 -0.639612 0.000000 
-0.000000 -0.639612 0.000000 
-0.000000 -0.639612 0.000000 
-0.000000 -0.639612 0.000000 
0.000000 -0.639612 0.000000 
0.000000 -0.639612 0.000000 
0.000000 -0.639612 0.000000 
0.000000 -0.639612 0.000000 
0.000000 -0.639612 0.000000 
0.000000 -0.639612 0.000000 
0.000000 -0.639612 0.000000 
0.000000 -0.639612 0.000000 
0.000000 -0.639612 0.000000 
0.000000 -0.639612 0.000000 
0.000000 -0.639612 0.000000 
-0.000000 -0.639612 0.000000 
0.000000 -0.639612 0.000000 
0.000000 -0.639612 0.000000 
0.000000 -0.639612 0.000000 
0.000000 -0.639612 0.000000 
-0.000000 -0.639612 0.000000 
-0.000000 -0.639612 0.000000 
-0.000000 -0.639612 0.000000 
-0.000000 -0.639612 0.000000 
-0.000000 -0.639612 0.000000 
TENSORS STRESS float 
-0.000000 0.000000 0.000000 
0.000000 -0.000000 0.000000 
0.000000 0.000000 0.000000 

-0.000000 0.000000 0.000000 
0.000000 -0.000000 0.000000 
0.000000 0.000000 0.000000 

-0.000000 -0.000000 0.000000 
0.000000 -0.000000 0.000000 
0.000000 0.000000 0.000000 

-0.000000 -0.000000 0.000000 
0.000000 -0.000000 0.000000 
0.000000 0.000000 0.000000 

-0.000000 0.000000 0.000000 
0.000000 -0.000000 0.000000 
0.000000 0.000000 0.000000 

0.000000 0.000000 0.000000 
0.000000 0.000000 0.000000 
0.000000 0.000000 0.000000 

-0.000000 0.000000 0.000000 
0.000000 -0.000000 0.000000 
0.000000 0.000000 0.000000 

0.000000 -0.000000 0.000000 
0.000000 0.000000 0.000000 
0.000000 0.000000 0.000000 

0.000000 -0.000000 0.000000 
0.000000 -0.000000 0.000000 
0.000000 0.000000 0.000000 

-0.000000 -0.000000 0.000000 
0.000000 -0.000000 0.000000 
0.000000 0.000000 0.000000 

-0.000000 0.000000 0.000000 
0.000000 -0.000000 0.000000 
0.000000 0.000000 0.000000 

0.000000 -0.000000 0.000000 
0.000000 0.000000 0.000000 
0.000000 0.000000 0.000000 

-0.000000 -0.000000 0.000000 
0.000000 -0.000000 0.000000 
0.000000 0.000000 0.000000 

0.000000 -0.000000 0.000000 
0.000000 0.000000 0.000000 
0.000000 0.000000 0.000000 

0.000000 -0.000000 0.000000 
0.000000 -0.000000 0.000000 
0.000000 0.000000 0.000000 

0.000000 0.000000 0.000000 
0.000000 0.000000 0.000000 
0.000000 0.000000 0.000000 

0.000000 -0.000000 0.000000 
0.000000 0.000000 0.000000 
0.000000 0.000000 0.000000 

0.000000 -0.000000 0.000000 
0.000000 0.000000 0.000000 
0.000000 0.000000 0.000000 

-0.000000 -0.000000 0.000000 
0.000000 -0.000000 0.000000 
0.000000 0.000000 0.000000 

0.000000 -0.000000 0.000000 
0.000000 0.000000 0.000000 
0.000000 0.000000 0.000000 

0.000000 -0.000000 0.000000 
0.000000 0.000000 0.000000 
0.000000 0.000000 0.000000 

0.000000 -0.000000 0.000000 
0.000000 0.000000 0.000000 
0.000000 0.000000 0.000000 

-0.000000 -0.000000 0.000000 
0.000000 -0.000000 0.000000 
0.000000 0.000000 0.000000 

0.000000 0.000000 0.000000 
0.000000 0.000000 0.000000 
0.000000 0.000000 0.000000 

0.000000 0.000000 0.000000 
0.000000 0.000000 0.000000 
0.000000 0.000000 0.000000 

-0.000000 0.000000 0.000000 
0.000000 -0.000000 0.000000 
0.000000 0.000000 0.000000 

-0.000000 0.000000 0.000000 
0.000000 -0.000000 0.000000 
0.000000 0.000000 0.000000 

-0.000000 0.000000 0.000000 
0.000000 -0.000000 0.000000 
0.000000 0.000000 0.000000 

-0.000000 0.000000 0.000000 
0.000000 -0.000000 0.000000 
0.000000 0.000000 0.000000 

-0.000000 0.000000 0.000000 
0.000000 -0.000000 0.000000 
0.000000 0.000000 0.000000 

-0.000000 0.000000 0.000000 
0.000000 -0.000000 0.000000 
0.000000 0.000000 0.000000 

-0.000000 -0.000000 0.000000 
0.000000 -0.000000 0.000000 
0.000000 0.000000 0.000000 

-0.000000 0.000000 0.000000 
0.000000 -0.000000 0.000000 
0.000000 0.000000 0.000000 

0.000000 0.000000 0.000000 
0.000000 0.000000 0.000000 
0.000000 0.000000 0.000000 

-0.000000 0.000000 0.000000 
0.000000 -0.000000 0.000000 
0.000000 0.000000 0.000000 

0.000000 -0.000000 0.000000 
0.000000 0.000000 0.000000 
0.000000 0.000000 0.000000 

0.000000 -0.000000 0.000000 
0.000000 0.000000 0.000000 
0.000000 0.000000 0.000000 

0.000000 -0.000000 0.000000 
0.000000 0.000000 0.000000 
0.000000 0.000000 0.000000 

-0.000000 -0.000000 0.000000 
0.000000 -0.000000 0.000000 
0.000000 0.000000 0.000000 

0.000000 -0.000000 0.000000 
0.000000 0.000000 0.000000 
0.000000 0.000000 0.000000 

-0.000000 -0.000000 0.000000 
0.000000 -0.000000 0.000000 
0.000000 0.000000 0.000000 

-0.000000 -0.000000 0.000000 
0.000000 -0.000000 0.000000 
0.000000 0.000000 0.000000 

0.000000 -0.000000 0.000000 
0.000000 -0.000000 0.000000 
0.000000 0.000000 0.000000 

0.000000 0.000000 0.000000 
0.000000 0.000000 0.000000 
0.000000 0.000000 0.000000 

0.000000 0.000000 0.000000 
0.000000 0.000000 0.000000 
0.000000 0.000000 0.000000 

-0.000000 0.000000 0.000000 
0.000000 -0.000000 0.000000 
0.000000 0.000000 0.000000 

-0.000000 0.000000 0.000000 
0.000000 0.000000 0.000000 
0.000000 0.000000 0.000000 

-0.000000 -0.000000 0.000000 
0.000000 -0.000000 0.000000 
0.000000 0.000000 0.000000 

-0.000000 -0.000000 0.000000 
0.000000 -0.000000 0.000000 
0.000000 0.000000 0.000000 

-0.000000 -0.000000 0.000000 
0.000000 -0.000000 0.000000 
0.000000 0.000000 0.000000 

-0.000000 0.000000 0.000000 
0.000000 -0.000000 0.000000 
0.000000 0.000000 0.000000 

0.000000 0.000000 0.000000 
0.000000 0.000000 0.000000 
0.000000 0.000000 0.000000 

0.000000 0.000000 0.000000 
0.000000 0.000000 0.000000 
0.000000 0.000000 0.000000 

-0.000000 0.000000 0.000000 
0.000000 -0.000000 0.000000 
0.000000 0.000000 0.000000 

-0.000000 -0.000000 0.000000 
0.000000 -0.000000 0.000000 
0.000000 0.000000 0.000000 

0.000000 0.000000 0.000000 
0.000000 0.000000 0.000000 
0.000000 0.000000 0.000000 

0.000000 0.000000 0.000000 
0.000000 0.000000 0.000000 
0.000000 0.000000 0.000000 

-0.000000 0.000000 0.000000 
0.000000 -0.000000 0.000000 
0.000000 0.000000 0.000000 

-0.000000 0.000000 0.000000 
0.000000 -0.000000 0.000000 
0.000000 0.000000 0.000000 

-0.000000 -0.000000 0.000000 
0.000000 -0.000000 0.000000 
0.000000 0.000000 0.000000 

0.000000 -0.000000 0.000000 
0.000000 0.000000 0.000000 
0.000000 0.000000 0.000000 

0.000000 0.000000 0.000000 
0.000000 0.000000 0.000000 
0.000000 0.000000 0.000000 

-0.000000 0.000000 0.000000 
0.000000 -0.000000 0.000000 
0.000000 0.000000 0.000000 

0.000000 0.000000 0.000000 
0.000000 0.000000 0.000000 
0.000000 0.000000 0.000000 

-0.000000 0.000000 0.000000 
0.000000 -0.000000 0.000000 
0.000000 0.000000 0.000000 

-0.000000 0.000000 0.000000 
0.000000 -0.000000 0.000000 
0.000000 0.000000 0.000000 

-0.000000 -0.000000 0.000000 
0.000000 -0.000000 0.000000 
0.000000 0.000000 0.000000 

0.000000 0.000000 0.000000 
0.000000 0.000000 0.000000 
0.000000 0.000000 0.000000 

-0.000000 0.000000 0.000000 
0.000000 -0.000000 0.000000 
0.000000 0.000000 0.000000 

0.000000 0.000000 0.000000 
0.000000 0.000000 0.000000 
0.000000 0.000000 0.000000 

0.000000 0.000000 0.000000 
0.000000 0.000000 0.000000 
0.000000 0.000000 0.000000 

0.000000 0.000000 0.000000 
0.000000 0.000000 0.000000 
0.000000 0.000000 0.000000 

-0.000000 -0.000000 0.000000 
0.000000 -0.000000 0.000000 
0.000000 0.000000 0.000000 

-0.000000 -0.000000 0.000000 
0.000000 -0.000000 0.000000 
0.000000 0.000000 0.000000 

-0.000000 -0.000000 0.000000 
0.000000 -0.000000 0.000000 
0.000000 0.000000 0.000000 

-0.000000 0.000000 0.000000 
0.000000 -0.000000 0.000000 
0.000000 0.000000 0.000000 

-0.000000 0.000000 0.000000 
0.000000 0.000000 0.000000 
0.000000 0.000000 0.000000 

-0.000000 0.000000 0.000000 
0.000000 -0.000000 0.000000 
0.000000 0.000000 0.000000 

0.000000 0.000000 0.000000 
0.000000 0.000000 0.000000 
0.000000 0.000000 0.000000 

0.000000 -0.000000 0.000000 
0.000000 0.000000 0.000000 
0.000000 0.000000 0.000000 

0.000000 0.000000 0.000000 
0.000000 0.000000 0.000000 
0.000000 0.000000 0.000000 

0.000000 -0.000000 0.000000 
0.000000 0.000000 0.000000 
0.000000 0.000000 0.000000 

0.000000 0.000000 0.000000 
0.000000 0.000000 0.000000 
0.000000 0.000000 0.000000 

0.000000 -0.000000 0.000000 
0.000000 0.000000 0.000000 
0.000000 0.000000 0.000000 

-0.000000 0.000000 0.000000 
0.000000 -0.000000 0.000000 
0.000000 0.000000 0.000000 

-0.000000 0.000000 0.000000 
0.000000 0.000000 0.000000 
0.000000 0.000000 0.000000 

-0.000000 0.000000 0.000000 
0.000000 -0.000000 0.000000 
0.000000 0.000000 0.000000 

-0.000000 0.000000 0.000000 
0.000000 -0.000000 0.000000 
0.000000 0.000000 0.000000 

-0.000000 0.000000 0.000000 
0.000000 -0.000000 0.000000 
0.000000 0.000000 0.000000 

0.000000 -0.000000 0.000000 
0.000000 0.000000 0.000000 
0.000000 0.000000 0.000000 

-0.000000 -0.000000 0.000000 
0.000000 -0.000000 0.000000 
0.000000 0.000000 0.000000 

-0.000000 0.000000 0.000000 
0.000000 -0.000000 0.000000 
0.000000 0.000000 0.000000 

0.000000 0.000000 0.000000 
0.000000 0.000000 0.000000 
0.000000 0.000000 0.000000 

-0.000000 0.000000 0.000000 
0.000000 -0.000000 0.000000 
0.000000 0.000000 0.000000 

-0.000000 0.000000 0.000000 
0.000000 -0.000000 0.000000 
0.000000 0.000000 0.000000 

-0.000000 0.000000 0.000000 
0.000000 -0.000000 0.000000 
0.000000 0.000000 0.000000 

-0.000000 0.000000 0.000000 
0.000000 -0.000000 0.000000 
0.000000 0.000000 0.000000 

-0.000000 -0.000000 0.000000 
0.000000 -0.000000 0.000000 
0.000000 0.000000 0.000000 

-0.000000 -0.000000 0.000000 
0.000000 -0.000000 0.000000 
0.000000 0.000000 0.000000 

-0.000000 -0.000000 0.000000 
0.000000 -0.000000 0.000000 
0.000000 0.000000 0.000000 

-0.000000 0.000000 0.000000 
0.000000 -0.000000 0.000000 
0.000000 0.000000 0.000000 

0.000000 -0.000000 0.000000 
0.000000 0.000000 0.000000 
0.000000 0.000000 0.000000 

-0.000000 -0.000000 0.000000 
0.000000 -0.000000 0.000000 
0.000000 0.000000 0.000000 

-0.000000 -0.000000 0.000000 
0.000000 -0.000000 0.000000 
0.000000 0.000000 0.000000 

0.000000 0.000000 0.000000 
0.000000 0.000000 0.000000 
0.000000 0.000000 0.000000 

0.000000 -0.000000 0.000000 
0.000000 0.000000 0.000000 
0.000000 0.000000 0.000000 

0.000000 -0.000000 0.000000 
0.000000 0.000000 0.000000 
0.000000 0.000000 0.000000 

-0.000000 -0.000000 0.000000 
0.000000 -0.000000 0.000000 
0.000000 0.000000 0.000000 

0.000000 -0.000000 0.000000 
0.000000 0.000000 0.000000 
0.000000 0.000000 0.000000 

0.000000 0.000000 0.000000 
0.000000 0.000000 0.000000 
0.000000 0.000000 0.000000 

0.000000 0.000000 0.000000 
0.000000 0.000000 0.000000 
0.000000 0.000000 0.000000 

-0.000000 0.000000 0.000000 
0.000000 -0.000000 0.000000 
0.000000 0.000000 0.000000 

-0.000000 0.000000 0.000000 
0.000000 -0.000000 0.000000 
0.000000 0.000000 0.000000 

-0.000000 0.000000 0.000000 
0.000000 -0.000000 0.000000 
0.000000 0.000000 0.000000 

-0.000000 -0.000000 0.000000 
0.000000 -0.000000 0.000000 
0.000000 0.000000 0.000000 

-0.000000 0.000000 0.000000 
0.000000 -0.000000 0.000000 
0.000000 0.000000 0.000000 

0.000000 0.000000 0.000000 
0.000000 0.000000 0.000000 
0.000000 0.000000 0.000000 

0.000000 0.000000 0.000000 
0.000000 0.000000 0.000000 
0.000000 0.000000 0.000000 

0.000000 0.000000 0.000000 
0.000000 0.000000 0.000000 
0.000000 0.000000 0.000000 

0.000000 0.000000 0.000000 
0.000000 0.000000 0.000000 
0.000000 0.000000 0.000000 

0.000000 -0.000000 0.000000 
0.000000 0.000000 0.000000 
0.000000 0.000000 0.000000 

0.000000 -0.000000 0.000000 
0.000000 0.000000 0.000000 
0.000000 0.000000 0.000000 

-0.000000 0.000000 0.000000 
0.000000 -0.000000 0.000000 
0.000000 0.000000 0.000000 

-0.000000 0.000000 0.000000 
0.000000 -0.000000 0.000000 
0.000000 0.000000 0.000000 

-0.000000 0.000000 0.000000 
0.000000 -0.000000 0.000000 
0.000000 0.000000 0.000000 

-0.000000 0.000000 0.000000 
0.000000 -0.000000 0.000000 
0.000000 0.000000 0.000000 

-0.000000 -0.000000 0.000000 
0.000000 -0.000000 0.000000 
0.000000 0.000000 0.000000 

-0.000000 -0.000000 0.000000 
0.000000 -0.000000 0.000000 
0.000000 0.000000 0.000000 

-0.000000 -0.000000 0.000000 
0.000000 -0.000000 0.000000 
0.000000 0.000000 0.000000 

0.000000 -0.000000 0.000000 
0.000000 0.000000 0.000000 
0.000000 0.000000 0.000000 

-0.000000 -0.000000 0.000000 
0.000000 -0.000000 0.000000 
0.000000 0.000000 0.000000 

-0.000000 0.000000 0.000000 
0.000000 -0.000000 0.000000 
0.000000 0.000000 0.000000 

-0.000000 -0.000000 0.000000 
0.000000 -0.000000 0.000000 
0.000000 0.000000 0.000000 

-0.000000 0.000000 0.000000 
0.000000 -0.000000 0.000000 
0.000000 0.000000 0.000000 

0.000000 0.000000 0.000000 
0.000000 0.000000 0.000000 
0.000000 0.000000 0.000000 

0.000000 0.000000 0.000000 
0.000000 0.000000 0.000000 
0.000000 0.000000 0.000000 

-0.000000 0.000000 0.000000 
0.000000 -0.000000 0.000000 
0.000000 0.000000 0.000000 

-0.000000 0.000000 0.000000 
0.000000 -0.000000 0.000000 
0.000000 0.000000 0.000000 

-0.000000 0.000000 0.000000 
0.000000 -0.000000 0.000000 
0.000000 0.000000 0.000000 

-0.000000 0.000000 0.000000 
0.000000 -0.000000 0.000000 
0.000000 0.000000 0.000000 

0.000000 0.000000 0.000000 
0.000000 0.000000 0.000000 
0.000000 0.000000 0.000000 

-0.000000 0.000000 0.000000 
0.000000 -0.000000 0.000000 
0.000000 0.000000 0.000000 

-0.000000 0.000000 0.000000 
0.000000 -0.000000 0.000000 
0.000000 0.000000 0.000000 

-0.000000 -0.000000 0.000000 
0.000000 0.000000 0.000000 
0.000000 0.000000 0.000000 

0.000000 -0.000000 0.000000 
0.000000 0.000000 0.000000 
0.000000 0.000000 0.000000 

0.000000 0.000000 0.000000 
0.000000 0.000000 0.000000 
0.000000 0.000000 0.000000 

-0.000000 0.000000 0.000000 
0.000000 -0.000000 0.000000 
0.000000 0.000000 0.000000 

-0.000000 0.000000 0.000000 
0.000000 -0.000000 0.000000 
0.000000 0.000000 0.000000 

0.000000 0.000000 0.000000 
0.000000 0.000000 0.000000 
0.000000 0.000000 0.000000 

0.000000 0.000000 0.000000 
0.000000 0.000000 0.000000 
0.000000 0.000000 0.000000 

-0.000000 0.000000 0.000000 
0.000000 -0.000000 0.000000 
0.000000 0.000000 0.000000 

-0.000000 0.000000 0.000000 
0.000000 -0.000000 0.000000 
0.000000 0.000000 0.000000 

-0.000000 0.000000 0.000000 
0.000000 -0.000000 0.000000 
0.000000 0.000000 0.000000 

-0.000000 -0.000000 0.000000 
0.000000 -0.000000 0.000000 
0.000000 0.000000 0.000000 

0.000000 -0.000000 0.000000 
0.000000 0.000000 0.000000 
0.000000 0.000000 0.000000 

0.000000 0.000000 0.000000 
0.000000 0.000000 0.000000 
0.000000 0.000000 0.000000 

-0.000000 -0.000000 0.000000 
0.000000 -0.000000 0.000000 
0.000000 0.000000 0.000000 

0.000000 -0.000000 0.000000 
0.000000 0.000000 0.000000 
0.000000 0.000000 0.000000 

-0.000000 -0.000000 0.000000 
0.000000 -0.000000 0.000000 
0.000000 0.000000 0.000000 

0.000000 0.000000 0.000000 
0.000000 0.000000 0.000000 
0.000000 0.000000 0.000000 

0.000000 0.000000 0.000000 
0.000000 0.000000 0.000000 
0.000000 0.000000 0.000000 

-0.000000 -0.000000 0.000000 
0.000000 -0.000000 0.000000 
0.000000 0.000000 0.000000 

-0.000000 -0.000000 0.000000 
0.000000 -0.000000 0.000000 
0.000000 0.000000 0.000000 

-0.000000 0.000000 0.000000 
0.000000 -0.000000 0.000000 
0.000000 0.000000 0.000000 

0.000000 -0.000000 0.000000 
0.000000 0.000000 0.000000 
0.000000 0.000000 0.000000 

-0.000000 0.000000 0.000000 
0.000000 -0.000000 0.000000 
0.000000 0.000000 0.000000 

0.000000 0.000000 0.000000 
0.000000 0.000000 0.000000 
0.000000 0.000000 0.000000 

0.000000 0.000000 0.000000 
0.000000 0.000000 0.000000 
0.000000 0.000000 0.000000 

0.000000 -0.000000 0.000000 
0.000000 0.000000 0.000000 
0.000000 0.000000 0.000000 

0.000000 0.000000 0.000000 
0.000000 0.000000 0.000000 
0.000000 0.000000 0.000000 

-0.000000 -0.000000 0.000000 
0.000000 -0.000000 0.000000 
0.000000 0.000000 0.000000 

-0.000000 -0.000000 0.000000 
0.000000 -0.000000 0.000000 
0.000000 0.000000 0.000000 

-0.000000 0.000000 0.000000 
0.000000 -0.000000 0.000000 
0.000000 0.000000 0.000000 

0.000000 0.000000 0.000000 
0.000000 0.000000 0.000000 
0.000000 0.000000 0.000000 

0.000000 0.000000 0.000000 
0.000000 0.000000 0.000000 
0.000000 0.000000 0.000000 

TENSORS STRAIN float 
-0.000000 0.000000 0.000000 
0.000000 -0.000000 0.000000 
0.000000 0.000000 0.000000 

-0.000000 0.000000 0.000000 
0.000000 -0.000000 0.000000 
0.000000 0.000000 0.000000 

-0.000000 -0.000000 0.000000 
0.000000 -0.000000 0.000000 
0.000000 0.000000 0.000000 

-0.000000 -0.000000 0.000000 
0.000000 0.000000 0.000000 
0.000000 0.000000 0.000000 

-0.000000 0.000000 0.000000 
0.000000 -0.000000 0.000000 
0.000000 0.000000 0.000000 

-0.000000 0.000000 0.000000 
0.000000 0.000000 0.000000 
0.000000 0.000000 0.000000 

-0.000000 0.000000 0.000000 
0.000000 0.000000 0.000000 
0.000000 0.000000 0.000000 

0.000000 -0.000000 0.000000 
0.000000 -0.000000 0.000000 
0.000000 0.000000 0.000000 

0.000000 -0.000000 0.000000 
0.000000 -0.000000 0.000000 
0.000000 0.000000 0.000000 

-0.000000 -0.000000 0.000000 
0.000000 0.000000 0.000000 
0.000000 0.000000 0.000000 

-0.000000 0.000000 0.000000 
0.000000 0.000000 0.000000 
0.000000 0.000000 0.000000 

-0.000000 -0.000000 0.000000 
0.000000 0.000000 0.000000 
0.000000 0.000000 0.000000 

-0.000000 -0.000000 0.000000 
0.000000 0.000000 0.000000 
0.000000 0.000000 0.000000 

-0.000000 -0.000000 0.000000 
0.000000 0.000000 0.000000 
0.000000 0.000000 0.000000 

0.000000 -0.000000 0.000000 
0.000000 -0.000000 0.000000 
0.000000 0.000000 0.000000 

0.000000 0.000000 0.000000 
0.000000 -0.000000 0.000000 
0.000000 0.000000 0.000000 

-0.000000 -0.000000 0.000000 
0.000000 0.000000 0.000000 
0.000000 0.000000 0.000000 

-0.000000 -0.000000 0.000000 
0.000000 0.000000 0.000000 
0.000000 0.000000 0.000000 

-0.000000 -0.000000 0.000000 
0.000000 0.000000 0.000000 
0.000000 0.000000 0.000000 

0.000000 -0.000000 0.000000 
0.000000 0.000000 0.000000 
0.000000 0.000000 0.000000 

0.000000 -0.000000 0.000000 
0.000000 0.000000 0.000000 
0.000000 0.000000 0.000000 

0.000000 -0.000000 0.000000 
0.000000 0.000000 0.000000 
0.000000 0.000000 0.000000 

0.000000 -0.000000 0.000000 
0.000000 -0.000000 0.000000 
0.000000 0.000000 0.000000 

0.000000 0.000000 0.000000 
0.000000 -0.000000 0.000000 
0.000000 0.000000 0.000000 

0.000000 0.000000 0.000000 
0.000000 -0.000000 0.000000 
0.000000 0.000000 0.000000 

-0.000000 0.000000 0.000000 
0.000000 -0.000000 0.000000 
0.000000 0.000000 0.000000 

-0.000000 0.000000 0.000000 
0.000000 -0.000000 0.000000 
0.000000 0.000000 0.000000 

-0.000000 0.000000 0.000000 
0.000000 -0.000000 0.000000 
0.000000 0.000000 0.000000 

-0.000000 0.000000 0.000000 
0.000000 -0.000000 0.000000 
0.000000 0.000000 0.000000 

-0.000000 0.000000 0.000000 
0.000000 -0.000000 0.000000 
0.000000 0.000000 0.000000 

-0.000000 0.000000 0.000000 
0.000000 0.000000 0.000000 
0.000000 0.000000 0.000000 

-0.000000 -0.000000 0.000000 
0.000000 -0.000000 0.000000 
0.000000 0.000000 0.000000 

-0.000000 0.000000 0.000000 
0.000000 -0.000000 0.000000 
0.000000 0.000000 0.000000 

-0.000000 0.000000 0.000000 
0.000000 0.000000 0.000000 
0.000000 0.000000 0.000000 

-0.000000 0.000000 0.000000 
0.000000 -0.000000 0.000000 
0.000000 0.000000 0.000000 

-0.000000 -0.000000 0.000000 
0.000000 0.000000 0.000000 
0.000000 0.000000 0.000000 

-0.000000 -0.000000 0.000000 
0.000000 0.000000 0.000000 
0.000000 0.000000 0.000000 

-0.000000 -0.000000 0.000000 
0.000000 0.000000 0.000000 
0.000000 0.000000 0.000000 

0.000000 -0.000000 0.000000 
0.000000 -0.000000 0.000000 
0.000000 0.000000 0.000000 

-0.000000 -0.000000 0.000000 
0.000000 0.000000 0.000000 
0.000000 0.000000 0.000000 

-0.000000 -0.000000 0.000000 
0.000000 0.000000 0.000000 
0.000000 0.000000 0.000000 

0.000000 -0.000000 0.000000 
0.000000 -0.000000 0.000000 
0.000000 0.000000 0.000000 

0.000000 -0.000000 0.000000 
0.000000 -0.000000 0.000000 
0.000000 0.000000 0.000000 

0.000000 0.000000 0.000000 
0.000000 0.000000 0.000000 
0.000000 0.000000 0.000000 

-0.000000 0.000000 0.000000 
0.000000 0.000000 0.000000 
0.000000 0.000000 0.000000 

-0.000000 0.000000 0.000000 
0.000000 0.000000 0.000000 
0.000000 0.000000 0.000000 

-0.000000 0.000000 0.000000 
0.000000 0.000000 0.000000 
0.000000 0.000000 0.000000 

-0.000000 -0.000000 0.000000 
0.000000 0.000000 0.000000 
0.000000 0.000000 0.000000 

-0.000000 -0.000000 0.000000 
0.000000 -0.000000 0.000000 
0.000000 0.000000 0.000000 

-0.000000 -0.000000 0.000000 
0.000000 -0.000000 0.000000 
0.000000 0.000000 0.000000 

-0.000000 0.000000 0.000000 
0.000000 0.000000 0.000000 
0.000000 0.000000 0.000000 

0.000000 0.000000 0.000000 
0.000000 0.000000 0.000000 
0.000000 0.000000 0.000000 

-0.000000 0.000000 0.000000 
0.000000 0.000000 0.000000 
0.000000 0.000000 0.000000 

-0.000000 0.000000 0.000000 
0.000000 0.000000 0.000000 
0.000000 0.000000 0.000000 

0.000000 -0.000000 0.000000 
0.000000 -0.000000 0.000000 
0.000000 0.000000 0.000000 

0.000000 0.000000 0.000000 
0.000000 -0.000000 0.000000 
0.000000 0.000000 0.000000 

0.000000 0.000000 0.000000 
0.000000 -0.000000 0.000000 
0.000000 0.000000 0.000000 

-0.000000 0.000000 0.000000 
0.000000 -0.000000 0.000000 
0.000000 0.000000 0.000000 

-0.000000 0.000000 0.000000 
0.000000 -0.000000 0.000000 
0.000000 0.000000 0.000000 

0.000000 -0.000000 0.000000 
0.000000 -0.000000 0.000000 
0.000000 0.000000 0.000000 

0.000000 -0.000000 0.000000 
0.000000 -0.000000 0.000000 
0.000000 0.000000 0.000000 

0.000000 0.000000 0.000000 
0.000000 0.000000 0.000000 
0.000000 0.000000 0.000000 

0.000000 0.000000 0.000000 
0.000000 -0.000000 0.000000 
0.000000 0.000000 0.000000 

0.000000 0.000000 0.000000 
0.000000 0.000000 0.000000 
0.000000 0.000000 0.000000 

-0.000000 0.000000 0.000000 
0.000000 -0.000000 0.000000 
0.000000 0.000000 0.000000 

-0.000000 0.000000 0.000000 
0.000000 -0.000000 0.000000 
0.000000 0.000000 0.000000 

-0.000000 -0.000000 0.000000 
0.000000 0.000000 0.000000 
0.000000 0.000000 0.000000 

0.000000 0.000000 0.000000 
0.000000 -0.000000 0.000000 
0.000000 0.000000 0.000000 

0.000000 0.000000 0.000000 
0.000000 -0.000000 0.000000 
0.000000 0.000000 0.000000 

-0.000000 0.000000 0.000000 
0.000000 0.000000 0.000000 
0.000000 0.000000 0.000000 

0.000000 0.000000 0.000000 
0.000000 0.000000 0.000000 
0.000000 0.000000 0.000000 

0.000000 0.000000 0.000000 
0.000000 0.000000 0.000000 
0.000000 0.000000 0.000000 

-0.000000 -0.000000 0.000000 
0.000000 -0.000000 0.000000 
0.000000 0.000000 0.000000 

-0.000000 -0.000000 0.000000 
0.000000 -0.000000 0.000000 
0.000000 0.000000 0.000000 

-0.000000 -0.000000 0.000000 
0.000000 -0.000000 0.000000 
0.000000 0.000000 0.000000 

-0.000000 0.000000 0.000000 
0.000000 -0.000000 0.000000 
0.000000 0.000000 0.000000 

-0.000000 0.000000 0.000000 
0.000000 0.000000 0.000000 
0.000000 0.000000 0.000000 

-0.000000 0.000000 0.000000 
0.000000 -0.000000 0.000000 
0.000000 0.000000 0.000000 

-0.000000 0.000000 0.000000 
0.000000 0.000000 0.000000 
0.000000 0.000000 0.000000 

-0.000000 -0.000000 0.000000 
0.000000 0.000000 0.000000 
0.000000 0.000000 0.000000 

-0.000000 0.000000 0.000000 
0.000000 0.000000 0.000000 
0.000000 0.000000 0.000000 

-0.000000 -0.000000 0.000000 
0.000000 0.000000 0.000000 
0.000000 0.000000 0.000000 

-0.000000 0.000000 0.000000 
0.000000 0.000000 0.000000 
0.000000 0.000000 0.000000 

0.000000 -0.000000 0.000000 
0.000000 0.000000 0.000000 
0.000000 0.000000 0.000000 

-0.000000 0.000000 0.000000 
0.000000 -0.000000 0.000000 
0.000000 0.000000 0.000000 

-0.000000 0.000000 0.000000 
0.000000 0.000000 0.000000 
0.000000 0.000000 0.000000 

-0.000000 0.000000 0.000000 
0.000000 -0.000000 0.000000 
0.000000 0.000000 0.000000 

-0.000000 0.000000 0.000000 
0.000000 -0.000000 0.000000 
0.000000 0.000000 0.000000 

-0.000000 0.000000 0.000000 
0.000000 -0.000000 0.000000 
0.000000 0.000000 0.000000 

0.000000 -0.000000 0.000000 
0.000000 -0.000000 0.000000 
0.000000 0.000000 0.000000 

0.000000 -0.000000 0.000000 
0.000000 -0.000000 0.000000 
0.000000 0.000000 0.000000 

0.000000 0.000000 0.000000 
0.000000 -0.000000 0.000000 
0.000000 0.000000 0.000000 

0.000000 0.000000 0.000000 
0.000000 0.000000 0.000000 
0.000000 0.000000 0.000000 

0.000000 0.000000 0.000000 
0.000000 -0.000000 0.000000 
0.000000 0.000000 0.000000 

-0.000000 0.000000 0.000000 
0.000000 -0.000000 0.000000 
0.000000 0.000000 0.000000 

-0.000000 0.000000 0.000000 
0.000000 0.000000 0.000000 
0.000000 0.000000 0.000000 

-0.000000 0.000000 0.000000 
0.000000 -0.000000 0.000000 
0.000000 0.000000 0.000000 

-0.000000 -0.000000 0.000000 
0.000000 0.000000 0.000000 
0.000000 0.000000 0.000000 

-0.000000 -0.000000 0.000000 
0.000000 0.000000 0.000000 
0.000000 0.000000 0.000000 

-0.000000 -0.000000 0.000000 
0.000000 0.000000 0.000000 
0.000000 0.000000 0.000000 

-0.000000 0.000000 0.000000 
0.000000 -0.000000 0.000000 
0.000000 0.000000 0.000000 

-0.000000 -0.000000 0.000000 
0.000000 0.000000 0.000000 
0.000000 0.000000 0.000000 

-0.000000 -0.000000 0.000000 
0.000000 -0.000000 0.000000 
0.000000 0.000000 0.000000 

-0.000000 -0.000000 0.000000 
0.000000 0.000000 0.000000 
0.000000 0.000000 0.000000 

-0.000000 0.000000 0.000000 
0.000000 0.000000 0.000000 
0.000000 0.000000 0.000000 

-0.000000 -0.000000 0.000000 
0.000000 0.000000 0.000000 
0.000000 0.000000 0.000000 

-0.000000 -0.000000 0.000000 
0.000000 0.000000 0.000000 
0.000000 0.000000 0.000000 

-0.000000 -0.000000 0.000000 
0.000000 -0.000000 0.000000 
0.000000 0.000000 0.000000 

-0.000000 -0.000000 0.000000 
0.000000 0.000000 0.000000 
0.000000 0.000000 0.000000 

-0.000000 0.000000 0.000000 
0.000000 0.000000 0.000000 
0.000000 0.000000 0.000000 

-0.000000 0.000000 0.000000 
0.000000 0.000000 0.000000 
0.000000 0.000000 0.000000 

0.000000 0.000000 0.000000 
0.000000 -0.000000 0.000000 
0.000000 0.000000 0.000000 

0.000000 0.000000 0.000000 
0.000000 -0.000000 0.000000 
0.000000 0.000000 0.000000 

0.000000 0.000000 0.000000 
0.000000 -0.000000 0.000000 
0.000000 0.000000 0.000000 

-0.000000 -0.000000 0.000000 
0.000000 -0.000000 0.000000 
0.000000 0.000000 0.000000 

-0.000000 0.000000 0.000000 
0.000000 -0.000000 0.000000 
0.000000 0.000000 0.000000 

0.000000 0.000000 0.000000 
0.000000 0.000000 0.000000 
0.000000 0.000000 0.000000 

0.000000 0.000000 0.000000 
0.000000 0.000000 0.000000 
0.000000 0.000000 0.000000 

0.000000 0.000000 0.000000 
0.000000 0.000000 0.000000 
0.000000 0.000000 0.000000 

0.000000 0.000000 0.000000 
0.000000 0.000000 0.000000 
0.000000 0.000000 0.000000 

0.000000 -0.000000 0.000000 
0.000000 0.000000 0.000000 
0.000000 0.000000 0.000000 

0.000000 -0.000000 0.000000 
0.000000 -0.000000 0.000000 
0.000000 0.000000 0.000000 

0.000000 0.000000 0.000000 
0.000000 -0.000000 0.000000 
0.000000 0.000000 0.000000 

0.000000 0.000000 0.000000 
0.000000 -0.000000 0.000000 
0.000000 0.000000 0.000000 

0.000000 0.000000 0.000000 
0.000000 -0.000000 0.000000 
0.000000 0.000000 0.000000 

-0.000000 0.000000 0.000000 
0.000000 -0.000000 0.000000 
0.000000 0.000000 0.000000 

-0.000000 -0.000000 0.000000 
0.000000 -0.000000 0.000000 
0.000000 0.000000 0.000000 

-0.000000 -0.000000 0.000000 
0.000000 -0.000000 0.000000 
0.000000 0.000000 0.000000 

-0.000000 -0.000000 0.000000 
0.000000 -0.000000 0.000000 
0.000000 0.000000 0.000000 

-0.000000 -0.000000 0.000000 
0.000000 0.000000 0.000000 
0.000000 0.000000 0.000000 

-0.000000 -0.000000 0.000000 
0.000000 -0.000000 0.000000 
0.000000 0.000000 0.000000 

-0.000000 0.000000 0.000000 
0.000000 -0.000000 0.000000 
0.000000 0.000000 0.000000 

-0.000000 -0.000000 0.000000 
0.000000 -0.000000 0.000000 
0.000000 0.000000 0.000000 

-0.000000 0.000000 0.000000 
0.000000 0.000000 0.000000 
0.000000 0.000000 0.000000 

-0.000000 0.000000 0.000000 
0.000000 0.000000 0.000000 
0.000000 0.000000 0.000000 

0.000000 0.000000 0.000000 
0.000000 0.000000 0.000000 
0.000000 0.000000 0.000000 

0.000000 0.000000 0.000000 
0.000000 -0.000000 0.000000 
0.000000 0.000000 0.000000 

-0.000000 0.000000 0.000000 
0.000000 -0.000000 0.000000 
0.000000 0.000000 0.000000 

-0.000000 0.000000 0.000000 
0.000000 -0.000000 0.000000 
0.000000 0.000000 0.000000 

-0.000000 0.000000 0.000000 
0.000000 -0.000000 0.000000 
0.000000 0.000000 0.000000 

-0.000000 0.000000 0.000000 
0.000000 0.000000 0.000000 
0.000000 0.000000 0.000000 

-0.000000 0.000000 0.000000 
0.000000 -0.000000 0.000000 
0.000000 0.000000 0.000000 

-0.000000 0.000000 0.000000 
0.000000 -0.000000 0.000000 
0.000000 0.000000 0.000000 

-0.000000 -0.000000 0.000000 
0.000000 0.000000 0.000000 
0.000000 0.000000 0.000000 

0.000000 -0.000000 0.000000 
0.000000 -0.000000 0.000000 
0.000000 0.000000 0.000000 

0.000000 0.000000 0.000000 
0.000000 -0.000000 0.000000 
0.000000 0.000000 0.000000 

0.000000 0.000000 0.000000 
0.000000 -0.000000 0.000000 
0.000000 0.000000 0.000000 

0.000000 0.000000 0.000000 
0.000000 -0.000000 0.000000 
0.000000 0.000000 0.000000 

0.000000 0.000000 0.000000 
0.000000 -0.000000 0.000000 
0.000000 0.000000 0.000000 

0.000000 0.000000 0.000000 
0.000000 -0.000000 0.000000 
0.000000 0.000000 0.000000 

-0.000000 0.000000 0.000000 
0.000000 -0.000000 0.000000 
0.000000 0.000000 0.000000 

-0.000000 0.000000 0.000000 
0.000000 -0.000000 0.000000 
0.000000 0.000000 0.000000 

-0.000000 0.000000 0.000000 
0.000000 -0.000000 0.000000 
0.000000 0.000000 0.000000 

-0.000000 -0.000000 0.000000 
0.000000 -0.000000 0.000000 
0.000000 0.000000 0.000000 

0.000000 -0.000000 0.000000 
0.000000 -0.000000 0.000000 
0.000000 0.000000 0.000000 

0.000000 0.000000 0.000000 
0.000000 -0.000000 0.000000 
0.000000 0.000000 0.000000 

-0.000000 -0.000000 0.000000 
0.000000 -0.000000 0.000000 
0.000000 0.000000 0.000000 

-0.000000 -0.000000 0.000000 
0.000000 0.000000 0.000000 
0.000000 0.000000 0.000000 

-0.000000 -0.000000 0.000000 
0.000000 0.000000 0.000000 
0.000000 0.000000 0.000000 

0.000000 0.000000 0.000000 
0.000000 -0.000000 0.000000 
0.000000 0.000000 0.000000 

0.000000 0.000000 0.000000 
0.000000 0.000000 0.000000 
0.000000 0.000000 0.000000 

-0.000000 -0.000000 0.000000 
0.000000 -0.000000 0.000000 
0.000000 0.000000 0.000000 

-0.000000 -0.000000 0.000000 
0.000000 0.000000 0.000000 
0.000000 0.000000 0.000000 

-0.000000 0.000000 0.000000 
0.000000 0.000000 0.000000 
0.000000 0.000000 0.000000 

-0.000000 -0.000000 0.000000 
0.000000 0.000000 0.000000 
0.000000 0.000000 0.000000 

-0.000000 0.000000 0.000000 
0.000000 -0.000000 0.000000 
0.000000 0.000000 0.000000 

0.000000 0.000000 0.000000 
0.000000 -0.000000 0.000000 
0.000000 0.000000 0.000000 

0.000000 0.000000 0.000000 
0.000000 -0.000000 0.000000 
0.000000 0.000000 0.000000 

0.000000 -0.000000 0.000000 
0.000000 0.000000 0.000000 
0.000000 0.000000 0.000000 

-0.000000 0.000000 0.000000 
0.000000 0.000000 0.000000 
0.000000 0.000000 0.000000 

-0.000000 -0.000000 0.000000 
0.000000 0.000000 0.000000 
0.000000 0.000000 0.000000 

-0.000000 -0.000000 0.000000 
0.000000 0.000000 0.000000 
0.000000 0.000000 0.000000 

0.000000 0.000000 0.000000 
0.000000 -0.000000 0.000000 
0.000000 0.000000 0.000000 

-0.000000 0.000000 0.000000 
0.000000 0.000000 0.000000 
0.000000 0.000000 0.000000 

-0.000000 0.000000 0.000000 
0.000000 0.000000 0.000000 
0.000000 0.000000 0.000000 

