# vtk DataFile Version 3.0 
vtk output 
ASCII 
DATASET UNSTRUCTURED_GRID 
POINTS 175 float 
-0.026061 0.050407 0.000000 
-0.106992 0.118462 0.000000 
-0.054870 0.110230 0.000000 
-0.028809 0.156113 0.000000 
-0.186430 0.182538 0.000000 
-0.137056 0.180012 0.000000 
-0.114311 0.233659 0.000000 
-0.058186 0.217993 0.000000 
-0.029377 0.258171 0.000000 
-0.265318 0.245694 0.000000 
-0.217198 0.244894 0.000000 
-0.196633 0.302191 0.000000 
-0.143120 0.293482 0.000000 
-0.116563 0.340750 0.000000 
-0.058945 0.321105 0.000000 
-0.029568 0.359225 0.000000 
-0.344206 0.308849 0.000000 
-0.296791 0.308857 0.000000 
-0.278030 0.368799 0.000000 
-0.225992 0.362933 0.000000 
-0.201664 0.415050 0.000000 
-0.145749 0.401576 0.000000 
-0.117890 0.445919 0.000000 
-0.059328 0.423213 0.000000 
-0.029759 0.460279 0.000000 
-0.058559 0.009656 0.000000 
-0.162226 -0.011186 0.000000 
-0.123292 0.024431 0.000000 
-0.142917 0.073415 0.000000 
-0.261851 -0.033343 0.000000 
-0.229092 0.003684 0.000000 
-0.256854 0.054916 0.000000 
-0.209613 0.089028 0.000000 
-0.223062 0.136602 0.000000 
-0.360414 -0.055643 0.000000 
-0.329787 -0.018520 0.000000 
-0.361761 0.033282 0.000000 
-0.321587 0.069691 0.000000 
-0.341985 0.119925 0.000000 
-0.290702 0.152724 0.000000 
-0.302189 0.199459 0.000000 
-0.458977 -0.077943 0.000000 
-0.429420 -0.040868 0.000000 
-0.464588 0.011173 0.000000 
-0.427556 0.048201 0.000000 
-0.453135 0.099716 0.000000 
-0.407738 0.135031 0.000000 
-0.425037 0.184459 0.000000 
-0.370772 0.216088 0.000000 
-0.381315 0.262316 0.000000 
-0.046960 -0.041159 0.000000 
-0.095301 -0.135205 0.000000 
-0.098873 -0.082558 0.000000 
-0.149405 -0.067360 0.000000 
-0.140093 -0.226909 0.000000 
-0.148617 -0.178211 0.000000 
-0.205981 -0.167973 0.000000 
-0.203197 -0.109770 0.000000 
-0.248777 -0.090623 0.000000 
-0.184111 -0.317873 0.000000 
-0.194039 -0.270781 0.000000 
-0.254475 -0.263482 0.000000 
-0.257893 -0.209372 0.000000 
-0.309886 -0.194000 0.000000 
-0.303554 -0.133454 0.000000 
-0.347255 -0.113297 0.000000 
-0.228129 -0.408836 0.000000 
-0.238687 -0.362612 0.000000 
-0.301302 -0.357660 0.000000 
-0.307162 -0.305621 0.000000 
-0.363386 -0.293500 0.000000 
-0.362692 -0.235989 0.000000 
-0.412122 -0.218695 0.000000 
-0.403017 -0.156549 0.000000 
-0.445733 -0.135970 0.000000 
-0.000000 -0.063774 0.000000 
0.043388 -0.160205 0.000000 
-0.000000 -0.130172 0.000000 
-0.043388 -0.160205 0.000000 
0.087158 -0.252401 0.000000 
0.043769 -0.228703 0.000000 
-0.000000 -0.267168 0.000000 
-0.043769 -0.228703 0.000000 
-0.087158 -0.252401 0.000000 
0.130831 -0.343531 0.000000 
0.087824 -0.321932 0.000000 
0.044436 -0.364632 0.000000 
-0.000000 -0.333567 0.000000 
-0.044436 -0.364632 0.000000 
-0.087824 -0.321932 0.000000 
-0.130831 -0.343531 0.000000 
0.174505 -0.434660 0.000000 
0.131782 -0.414094 0.000000 
0.088871 -0.459961 0.000000 
0.044532 -0.432097 0.000000 
-0.000000 -0.468497 0.000000 
-0.044532 -0.432097 0.000000 
-0.088871 -0.459961 0.000000 
-0.131782 -0.414094 0.000000 
-0.174505 -0.434660 0.000000 
0.046960 -0.041159 0.000000 
0.149405 -0.067360 0.000000 
0.098873 -0.082558 0.000000 
0.095301 -0.135205 0.000000 
0.248777 -0.090623 0.000000 
0.203197 -0.109770 0.000000 
0.205981 -0.167973 0.000000 
0.148617 -0.178211 0.000000 
0.140093 -0.226909 0.000000 
0.347255 -0.113297 0.000000 
0.303554 -0.133454 0.000000 
0.309886 -0.194000 0.000000 
0.257893 -0.209372 0.000000 
0.254475 -0.263482 0.000000 
0.194039 -0.270781 0.000000 
0.184111 -0.317873 0.000000 
0.445733 -0.135970 0.000000 
0.403017 -0.156549 0.000000 
0.412122 -0.218695 0.000000 
0.362692 -0.235989 0.000000 
0.363386 -0.293500 0.000000 
0.307162 -0.305621 0.000000 
0.301302 -0.357660 0.000000 
0.238687 -0.362612 0.000000 
0.228129 -0.408836 0.000000 
0.058559 0.009656 0.000000 
0.142917 0.073415 0.000000 
0.123292 0.024431 0.000000 
0.162226 -0.011186 0.000000 
0.223062 0.136602 0.000000 
0.209613 0.089028 0.000000 
0.256854 0.054916 0.000000 
0.229092 0.003684 0.000000 
0.261851 -0.033343 0.000000 
0.302189 0.199459 0.000000 
0.290702 0.152724 0.000000 
0.341985 0.119925 0.000000 
0.321587 0.069691 0.000000 
0.361761 0.033282 0.000000 
0.329787 -0.018520 0.000000 
0.360414 -0.055643 0.000000 
0.381315 0.262316 0.000000 
0.370772 0.216088 0.000000 
0.425037 0.184459 0.000000 
0.407738 0.135031 0.000000 
0.453135 0.099716 0.000000 
0.427556 0.048201 0.000000 
0.464588 0.011173 0.000000 
0.429420 -0.040868 0.000000 
0.458977 -0.077943 0.000000 
0.026061 0.050407 0.000000 
0.028809 0.156113 0.000000 
0.054870 0.110230 0.000000 
0.106992 0.118462 0.000000 
0.029377 0.258171 0.000000 
0.058186 0.217993 0.000000 
0.114311 0.233659 0.000000 
0.137056 0.180012 0.000000 
0.186430 0.182538 0.000000 
0.029568 0.359225 0.000000 
0.058945 0.321105 0.000000 
0.116563 0.340750 0.000000 
0.143120 0.293482 0.000000 
0.196633 0.302191 0.000000 
0.217198 0.244894 0.000000 
0.265318 0.245694 0.000000 
0.029759 0.460279 0.000000 
0.059328 0.423213 0.000000 
0.117890 0.445919 0.000000 
0.145749 0.401576 0.000000 
0.201664 0.415050 0.000000 
0.225992 0.362933 0.000000 
0.278030 0.368799 0.000000 
0.296791 0.308857 0.000000 
0.344206 0.308849 0.000000 
CELLS 175 350 
1 0 
1 1 
1 2 
1 3 
1 4 
1 5 
1 6 
1 7 
1 8 
1 9 
1 10 
1 11 
1 12 
1 13 
1 14 
1 15 
1 16 
1 17 
1 18 
1 19 
1 20 
1 21 
1 22 
1 23 
1 24 
1 25 
1 26 
1 27 
1 28 
1 29 
1 30 
1 31 
1 32 
1 33 
1 34 
1 35 
1 36 
1 37 
1 38 
1 39 
1 40 
1 41 
1 42 
1 43 
1 44 
1 45 
1 46 
1 47 
1 48 
1 49 
1 50 
1 51 
1 52 
1 53 
1 54 
1 55 
1 56 
1 57 
1 58 
1 59 
1 60 
1 61 
1 62 
1 63 
1 64 
1 65 
1 66 
1 67 
1 68 
1 69 
1 70 
1 71 
1 72 
1 73 
1 74 
1 75 
1 76 
1 77 
1 78 
1 79 
1 80 
1 81 
1 82 
1 83 
1 84 
1 85 
1 86 
1 87 
1 88 
1 89 
1 90 
1 91 
1 92 
1 93 
1 94 
1 95 
1 96 
1 97 
1 98 
1 99 
1 100 
1 101 
1 102 
1 103 
1 104 
1 105 
1 106 
1 107 
1 108 
1 109 
1 110 
1 111 
1 112 
1 113 
1 114 
1 115 
1 116 
1 117 
1 118 
1 119 
1 120 
1 121 
1 122 
1 123 
1 124 
1 125 
1 126 
1 127 
1 128 
1 129 
1 130 
1 131 
1 132 
1 133 
1 134 
1 135 
1 136 
1 137 
1 138 
1 139 
1 140 
1 141 
1 142 
1 143 
1 144 
1 145 
1 146 
1 147 
1 148 
1 149 
1 150 
1 151 
1 152 
1 153 
1 154 
1 155 
1 156 
1 157 
1 158 
1 159 
1 160 
1 161 
1 162 
1 163 
1 164 
1 165 
1 166 
1 167 
1 168 
1 169 
1 170 
1 171 
1 172 
1 173 
1 174 
CELL_TYPES 175 
1 
1 
1 
1 
1 
1 
1 
1 
1 
1 
1 
1 
1 
1 
1 
1 
1 
1 
1 
1 
1 
1 
1 
1 
1 
1 
1 
1 
1 
1 
1 
1 
1 
1 
1 
1 
1 
1 
1 
1 
1 
1 
1 
1 
1 
1 
1 
1 
1 
1 
1 
1 
1 
1 
1 
1 
1 
1 
1 
1 
1 
1 
1 
1 
1 
1 
1 
1 
1 
1 
1 
1 
1 
1 
1 
1 
1 
1 
1 
1 
1 
1 
1 
1 
1 
1 
1 
1 
1 
1 
1 
1 
1 
1 
1 
1 
1 
1 
1 
1 
1 
1 
1 
1 
1 
1 
1 
1 
1 
1 
1 
1 
1 
1 
1 
1 
1 
1 
1 
1 
1 
1 
1 
1 
1 
1 
1 
1 
1 
1 
1 
1 
1 
1 
1 
1 
1 
1 
1 
1 
1 
1 
1 
1 
1 
1 
1 
1 
1 
1 
1 
1 
1 
1 
1 
1 
1 
1 
1 
1 
1 
1 
1 
1 
1 
1 
1 
1 
1 
1 
1 
1 
1 
1 
1 
POINT_DATA 175 
VECTORS X_GC float 
-0.026061 0.050407 0.000000 
-0.106992 0.118462 0.000000 
-0.054870 0.110230 0.000000 
-0.028809 0.156113 0.000000 
-0.186430 0.182538 0.000000 
-0.137056 0.180012 0.000000 
-0.114311 0.233659 0.000000 
-0.058186 0.217993 0.000000 
-0.029377 0.258171 0.000000 
-0.265318 0.245694 0.000000 
-0.217198 0.244894 0.000000 
-0.196633 0.302191 0.000000 
-0.143120 0.293482 0.000000 
-0.116563 0.340750 0.000000 
-0.058945 0.321105 0.000000 
-0.029568 0.359225 0.000000 
-0.344206 0.308849 0.000000 
-0.296791 0.308857 0.000000 
-0.278030 0.368799 0.000000 
-0.225992 0.362933 0.000000 
-0.201664 0.415050 0.000000 
-0.145749 0.401576 0.000000 
-0.117890 0.445919 0.000000 
-0.059328 0.423213 0.000000 
-0.029759 0.460279 0.000000 
-0.058559 0.009656 0.000000 
-0.162226 -0.011186 0.000000 
-0.123292 0.024431 0.000000 
-0.142917 0.073415 0.000000 
-0.261851 -0.033343 0.000000 
-0.229092 0.003684 0.000000 
-0.256854 0.054916 0.000000 
-0.209613 0.089028 0.000000 
-0.223062 0.136602 0.000000 
-0.360414 -0.055643 0.000000 
-0.329787 -0.018520 0.000000 
-0.361761 0.033282 0.000000 
-0.321587 0.069691 0.000000 
-0.341985 0.119925 0.000000 
-0.290702 0.152724 0.000000 
-0.302189 0.199459 0.000000 
-0.458977 -0.077943 0.000000 
-0.429420 -0.040868 0.000000 
-0.464588 0.011173 0.000000 
-0.427556 0.048201 0.000000 
-0.453135 0.099716 0.000000 
-0.407738 0.135031 0.000000 
-0.425037 0.184459 0.000000 
-0.370772 0.216088 0.000000 
-0.381315 0.262316 0.000000 
-0.046960 -0.041159 0.000000 
-0.095301 -0.135205 0.000000 
-0.098873 -0.082558 0.000000 
-0.149405 -0.067360 0.000000 
-0.140093 -0.226909 0.000000 
-0.148617 -0.178211 0.000000 
-0.205981 -0.167973 0.000000 
-0.203197 -0.109770 0.000000 
-0.248777 -0.090623 0.000000 
-0.184111 -0.317873 0.000000 
-0.194039 -0.270781 0.000000 
-0.254475 -0.263482 0.000000 
-0.257893 -0.209372 0.000000 
-0.309886 -0.194000 0.000000 
-0.303554 -0.133454 0.000000 
-0.347255 -0.113297 0.000000 
-0.228129 -0.408836 0.000000 
-0.238687 -0.362612 0.000000 
-0.301302 -0.357660 0.000000 
-0.307162 -0.305621 0.000000 
-0.363386 -0.293500 0.000000 
-0.362692 -0.235989 0.000000 
-0.412122 -0.218695 0.000000 
-0.403017 -0.156549 0.000000 
-0.445733 -0.135970 0.000000 
-0.000000 -0.063774 0.000000 
0.043388 -0.160205 0.000000 
-0.000000 -0.130172 0.000000 
-0.043388 -0.160205 0.000000 
0.087158 -0.252401 0.000000 
0.043769 -0.228703 0.000000 
-0.000000 -0.267168 0.000000 
-0.043769 -0.228703 0.000000 
-0.087158 -0.252401 0.000000 
0.130831 -0.343531 0.000000 
0.087824 -0.321932 0.000000 
0.044436 -0.364632 0.000000 
-0.000000 -0.333567 0.000000 
-0.044436 -0.364632 0.000000 
-0.087824 -0.321932 0.000000 
-0.130831 -0.343531 0.000000 
0.174505 -0.434660 0.000000 
0.131782 -0.414094 0.000000 
0.088871 -0.459961 0.000000 
0.044532 -0.432097 0.000000 
-0.000000 -0.468497 0.000000 
-0.044532 -0.432097 0.000000 
-0.088871 -0.459961 0.000000 
-0.131782 -0.414094 0.000000 
-0.174505 -0.434660 0.000000 
0.046960 -0.041159 0.000000 
0.149405 -0.067360 0.000000 
0.098873 -0.082558 0.000000 
0.095301 -0.135205 0.000000 
0.248777 -0.090623 0.000000 
0.203197 -0.109770 0.000000 
0.205981 -0.167973 0.000000 
0.148617 -0.178211 0.000000 
0.140093 -0.226909 0.000000 
0.347255 -0.113297 0.000000 
0.303554 -0.133454 0.000000 
0.309886 -0.194000 0.000000 
0.257893 -0.209372 0.000000 
0.254475 -0.263482 0.000000 
0.194039 -0.270781 0.000000 
0.184111 -0.317873 0.000000 
0.445733 -0.135970 0.000000 
0.403017 -0.156549 0.000000 
0.412122 -0.218695 0.000000 
0.362692 -0.235989 0.000000 
0.363386 -0.293500 0.000000 
0.307162 -0.305621 0.000000 
0.301302 -0.357660 0.000000 
0.238687 -0.362612 0.000000 
0.228129 -0.408836 0.000000 
0.058559 0.009656 0.000000 
0.142917 0.073415 0.000000 
0.123292 0.024431 0.000000 
0.162226 -0.011186 0.000000 
0.223062 0.136602 0.000000 
0.209613 0.089028 0.000000 
0.256854 0.054916 0.000000 
0.229092 0.003684 0.000000 
0.261851 -0.033343 0.000000 
0.302189 0.199459 0.000000 
0.290702 0.152724 0.000000 
0.341985 0.119925 0.000000 
0.321587 0.069691 0.000000 
0.361761 0.033282 0.000000 
0.329787 -0.018520 0.000000 
0.360414 -0.055643 0.000000 
0.381315 0.262316 0.000000 
0.370772 0.216088 0.000000 
0.425037 0.184459 0.000000 
0.407738 0.135031 0.000000 
0.453135 0.099716 0.000000 
0.427556 0.048201 0.000000 
0.464588 0.011173 0.000000 
0.429420 -0.040868 0.000000 
0.458977 -0.077943 0.000000 
0.026061 0.050407 0.000000 
0.028809 0.156113 0.000000 
0.054870 0.110230 0.000000 
0.106992 0.118462 0.000000 
0.029377 0.258171 0.000000 
0.058186 0.217993 0.000000 
0.114311 0.233659 0.000000 
0.137056 0.180012 0.000000 
0.186430 0.182538 0.000000 
0.029568 0.359225 0.000000 
0.058945 0.321105 0.000000 
0.116563 0.340750 0.000000 
0.143120 0.293482 0.000000 
0.196633 0.302191 0.000000 
0.217198 0.244894 0.000000 
0.265318 0.245694 0.000000 
0.029759 0.460279 0.000000 
0.059328 0.423213 0.000000 
0.117890 0.445919 0.000000 
0.145749 0.401576 0.000000 
0.201664 0.415050 0.000000 
0.225992 0.362933 0.000000 
0.278030 0.368799 0.000000 
0.296791 0.308857 0.000000 
0.344206 0.308849 0.000000 
VECTORS X_EC float 
0.338794 -0.180494 0.000000 
-0.609100 0.900757 0.000000 
0.713312 -0.988102 0.000000 
0.374519 0.392469 0.000000 
0.423588 0.035738 0.000000 
-0.218274 0.069842 0.000000 
-0.513962 -0.654397 0.000000 
0.756418 -0.442911 0.000000 
0.381900 -0.985303 0.000000 
-0.550868 -0.816865 0.000000 
0.823577 -0.806069 0.000000 
0.556234 0.420427 0.000000 
-0.139443 0.537995 0.000000 
-0.484677 -0.100129 0.000000 
0.766286 0.165086 0.000000 
0.384386 -0.349534 0.000000 
0.474677 0.330532 0.000000 
-0.141715 0.330435 0.000000 
-0.385608 -0.478793 0.000000 
0.937896 -0.399597 0.000000 
0.621631 0.896823 0.000000 
-0.105264 -0.921278 0.000000 
-0.467428 0.480096 0.000000 
0.771260 0.786624 0.000000 
0.386873 0.286235 0.000000 
0.761262 0.369640 0.000000 
0.108942 0.651017 0.000000 
-0.397202 0.170178 0.000000 
-0.142083 -0.491098 0.000000 
-0.595936 0.950128 0.000000 
0.978194 0.450262 0.000000 
-0.660903 -0.241363 0.000000 
0.724964 -0.701883 0.000000 
0.899809 0.655868 0.000000 
0.685384 -0.748820 0.000000 
0.287229 0.750021 0.000000 
0.702895 0.050693 0.000000 
0.180633 -0.440826 0.000000 
0.445811 0.881015 0.000000 
-0.220880 0.438229 0.000000 
-0.071546 -0.192697 0.000000 
-0.033296 -0.447768 0.000000 
-0.417537 -0.948278 0.000000 
0.039645 0.349160 0.000000 
-0.441768 -0.150711 0.000000 
-0.109248 -0.846162 0.000000 
-0.699407 0.677082 0.000000 
-0.474522 0.009803 0.000000 
0.820030 -0.417190 0.000000 
0.957100 0.958738 0.000000 
0.610485 -0.944353 0.000000 
-0.761092 0.325266 0.000000 
-0.714655 -0.385471 0.000000 
-0.057734 -0.590639 0.000000 
-0.178789 -0.436730 0.000000 
-0.067979 0.905844 0.000000 
0.677748 0.767641 0.000000 
0.641556 -0.018104 0.000000 
-0.765897 -0.276583 0.000000 
0.393446 0.791279 0.000000 
0.522510 0.155549 0.000000 
-0.691820 0.057005 0.000000 
-0.647393 -0.673477 0.000000 
0.028512 -0.881004 0.000000 
-0.053800 0.301636 0.000000 
0.514316 0.029505 0.000000 
0.965681 0.019288 0.000000 
-0.897068 -0.604740 0.000000 
-0.083078 -0.671593 0.000000 
-0.006893 0.625882 0.000000 
0.724017 0.462249 0.000000 
0.714996 -0.314154 0.000000 
-0.642413 -0.547612 0.000000 
-0.760780 0.613408 0.000000 
-0.205471 0.335592 0.000000 
0.000000 -0.639052 0.000000 
-0.564049 0.662761 0.000000 
0.000000 0.257325 0.000000 
0.564049 0.662761 0.000000 
0.866949 -0.092584 0.000000 
-0.569003 -0.412515 0.000000 
0.000000 0.106773 0.000000 
0.569003 -0.412515 0.000000 
-0.866949 -0.092584 0.000000 
0.299194 -0.862333 0.000000 
0.858290 0.846083 0.000000 
-0.577662 -0.577471 0.000000 
0.000000 -0.996850 0.000000 
0.577662 -0.577471 0.000000 
-0.858290 0.846083 0.000000 
-0.299194 -0.862333 0.000000 
-0.268560 0.367917 0.000000 
0.286830 0.090275 0.000000 
0.844677 0.709473 0.000000 
-0.578910 0.333311 0.000000 
0.000000 0.824714 0.000000 
0.578910 0.333311 0.000000 
-0.844677 0.709473 0.000000 
-0.286830 0.090275 0.000000 
0.268560 0.367917 0.000000 
-0.610485 -0.944353 0.000000 
0.057734 -0.590639 0.000000 
0.714655 -0.385471 0.000000 
0.761092 0.325266 0.000000 
0.765897 -0.276583 0.000000 
-0.641556 -0.018104 0.000000 
-0.677748 0.767641 0.000000 
0.067979 0.905844 0.000000 
0.178789 -0.436730 0.000000 
-0.514316 0.029505 0.000000 
0.053800 0.301636 0.000000 
-0.028512 -0.881004 0.000000 
0.647393 -0.673477 0.000000 
0.691820 0.057005 0.000000 
-0.522510 0.155549 0.000000 
-0.393446 0.791279 0.000000 
0.205471 0.335592 0.000000 
0.760780 0.613408 0.000000 
0.642413 -0.547612 0.000000 
-0.714996 -0.314154 0.000000 
-0.724017 0.462249 0.000000 
0.006894 0.625882 0.000000 
0.083078 -0.671593 0.000000 
0.897068 -0.604740 0.000000 
-0.965681 0.019288 0.000000 
-0.761262 0.369640 0.000000 
0.142083 -0.491098 0.000000 
0.397202 0.170178 0.000000 
-0.108942 0.651017 0.000000 
-0.899809 0.655868 0.000000 
-0.724964 -0.701883 0.000000 
0.660903 -0.241363 0.000000 
-0.978194 0.450262 0.000000 
0.595936 0.950128 0.000000 
0.071546 -0.192697 0.000000 
0.220880 0.438229 0.000000 
-0.445811 0.881015 0.000000 
-0.180633 -0.440826 0.000000 
-0.702895 0.050693 0.000000 
-0.287229 0.750021 0.000000 
-0.685384 -0.748820 0.000000 
-0.957100 0.958738 0.000000 
-0.820030 -0.417190 0.000000 
0.474522 0.009803 0.000000 
0.699407 0.677083 0.000000 
0.109248 -0.846162 0.000000 
0.441768 -0.150711 0.000000 
-0.039645 0.349160 0.000000 
0.417537 -0.948278 0.000000 
0.033296 -0.447768 0.000000 
-0.338794 -0.180494 0.000000 
-0.374519 0.392469 0.000000 
-0.713312 -0.988102 0.000000 
0.609100 0.900757 0.000000 
-0.381900 -0.985303 0.000000 
-0.756418 -0.442911 0.000000 
0.513962 -0.654397 0.000000 
0.218274 0.069842 0.000000 
-0.423588 0.035738 0.000000 
-0.384386 -0.349534 0.000000 
-0.766286 0.165086 0.000000 
0.484677 -0.100129 0.000000 
0.139443 0.537995 0.000000 
-0.556234 0.420427 0.000000 
-0.823577 -0.806069 0.000000 
0.550868 -0.816865 0.000000 
-0.386873 0.286235 0.000000 
-0.771260 0.786624 0.000000 
0.467428 0.480096 0.000000 
0.105264 -0.921278 0.000000 
-0.621631 0.896823 0.000000 
-0.937896 -0.399597 0.000000 
0.385608 -0.478793 0.000000 
0.141715 0.330435 0.000000 
-0.474677 0.330532 0.000000 
CELL_DATA 175 
SCALARS MASS float 
LOOKUP_TABLE default 
0.781831 
0.864274 
0.946717 
0.864274 
0.881307 
0.921110 
0.858535 
0.921110 
0.881307 
0.887046 
0.910001 
0.869829 
0.915556 
0.869829 
0.910001 
0.887046 
0.892784 
0.915740 
0.892784 
0.927218 
0.892784 
0.927218 
0.892784 
0.915740 
0.892784 
0.781831 
0.864274 
0.946717 
0.864274 
0.881307 
0.921110 
0.858535 
0.921110 
0.881307 
0.887046 
0.910001 
0.869829 
0.915556 
0.869829 
0.910001 
0.887046 
0.892784 
0.915740 
0.892784 
0.927218 
0.892784 
0.927218 
0.892784 
0.915740 
0.892784 
0.781831 
0.864274 
0.946717 
0.864274 
0.881307 
0.921110 
0.858535 
0.921110 
0.881307 
0.887046 
0.910001 
0.869829 
0.915556 
0.869829 
0.910001 
0.887046 
0.892784 
0.915740 
0.892784 
0.927218 
0.892784 
0.927218 
0.892784 
0.915740 
0.892784 
0.781831 
0.864274 
0.946717 
0.864274 
0.881307 
0.921110 
0.858535 
0.921110 
0.881307 
0.887046 
0.910001 
0.869829 
0.915556 
0.869829 
0.910001 
0.887046 
0.892784 
0.915740 
0.892784 
0.927218 
0.892784 
0.927218 
0.892784 
0.915740 
0.892784 
0.781831 
0.864274 
0.946717 
0.864274 
0.881307 
0.921110 
0.858535 
0.921110 
0.881307 
0.887046 
0.910001 
0.869829 
0.915556 
0.869829 
0.910001 
0.887046 
0.892784 
0.915740 
0.892784 
0.927218 
0.892784 
0.927218 
0.892784 
0.915740 
0.892784 
0.781831 
0.864274 
0.946717 
0.864274 
0.881307 
0.921110 
0.858535 
0.921110 
0.881307 
0.887046 
0.910001 
0.869829 
0.915556 
0.869829 
0.910001 
0.887046 
0.892784 
0.915740 
0.892784 
0.927218 
0.892784 
0.927218 
0.892784 
0.915740 
0.892784 
0.781831 
0.864274 
0.946717 
0.864274 
0.881307 
0.921110 
0.858535 
0.921110 
0.881307 
0.887046 
0.910001 
0.869829 
0.915556 
0.869829 
0.910001 
0.887046 
0.892784 
0.915740 
0.892784 
0.927218 
0.892784 
0.927218 
0.892784 
0.915740 
0.892784 
SCALARS MASS float 
LOOKUP_TABLE default 
0.781831 
0.864274 
0.946717 
0.864274 
0.881307 
0.921110 
0.858535 
0.921110 
0.881307 
0.887046 
0.910001 
0.869829 
0.915556 
0.869829 
0.910001 
0.887046 
0.892784 
0.915740 
0.892784 
0.927218 
0.892784 
0.927218 
0.892784 
0.915740 
0.892784 
0.781831 
0.864274 
0.946717 
0.864274 
0.881307 
0.921110 
0.858535 
0.921110 
0.881307 
0.887046 
0.910001 
0.869829 
0.915556 
0.869829 
0.910001 
0.887046 
0.892784 
0.915740 
0.892784 
0.927218 
0.892784 
0.927218 
0.892784 
0.915740 
0.892784 
0.781831 
0.864274 
0.946717 
0.864274 
0.881307 
0.921110 
0.858535 
0.921110 
0.881307 
0.887046 
0.910001 
0.869829 
0.915556 
0.869829 
0.910001 
0.887046 
0.892784 
0.915740 
0.892784 
0.927218 
0.892784 
0.927218 
0.892784 
0.915740 
0.892784 
0.781831 
0.864274 
0.946717 
0.864274 
0.881307 
0.921110 
0.858535 
0.921110 
0.881307 
0.887046 
0.910001 
0.869829 
0.915556 
0.869829 
0.910001 
0.887046 
0.892784 
0.915740 
0.892784 
0.927218 
0.892784 
0.927218 
0.892784 
0.915740 
0.892784 
0.781831 
0.864274 
0.946717 
0.864274 
0.881307 
0.921110 
0.858535 
0.921110 
0.881307 
0.887046 
0.910001 
0.869829 
0.915556 
0.869829 
0.910001 
0.887046 
0.892784 
0.915740 
0.892784 
0.927218 
0.892784 
0.927218 
0.892784 
0.915740 
0.892784 
0.781831 
0.864274 
0.946717 
0.864274 
0.881307 
0.921110 
0.858535 
0.921110 
0.881307 
0.887046 
0.910001 
0.869829 
0.915556 
0.869829 
0.910001 
0.887046 
0.892784 
0.915740 
0.892784 
0.927218 
0.892784 
0.927218 
0.892784 
0.915740 
0.892784 
0.781831 
0.864274 
0.946717 
0.864274 
0.881307 
0.921110 
0.858535 
0.921110 
0.881307 
0.887046 
0.910001 
0.869829 
0.915556 
0.869829 
0.910001 
0.887046 
0.892784 
0.915740 
0.892784 
0.927218 
0.892784 
0.927218 
0.892784 
0.915740 
0.892784 
SCALARS DENSITY float 
LOOKUP_TABLE default 
200.000000 
200.000000 
200.000000 
200.000000 
200.000000 
200.000000 
200.000000 
200.000000 
200.000000 
200.000000 
200.000000 
200.000000 
200.000000 
200.000000 
200.000000 
200.000000 
200.000000 
200.000000 
200.000000 
200.000000 
200.000000 
200.000000 
200.000000 
200.000000 
200.000000 
200.000000 
200.000000 
200.000000 
200.000000 
200.000000 
200.000000 
200.000000 
200.000000 
200.000000 
200.000000 
200.000000 
200.000000 
200.000000 
200.000000 
200.000000 
200.000000 
200.000000 
200.000000 
200.000000 
200.000000 
200.000000 
200.000000 
200.000000 
200.000000 
200.000000 
200.000000 
200.000000 
200.000000 
200.000000 
200.000000 
200.000000 
200.000000 
200.000000 
200.000000 
200.000000 
200.000000 
200.000000 
200.000000 
200.000000 
200.000000 
200.000000 
200.000000 
200.000000 
200.000000 
200.000000 
200.000000 
200.000000 
200.000000 
200.000000 
200.000000 
200.000000 
200.000000 
200.000000 
200.000000 
200.000000 
200.000000 
200.000000 
200.000000 
200.000000 
200.000000 
200.000000 
200.000000 
200.000000 
200.000000 
200.000000 
200.000000 
200.000000 
200.000000 
200.000000 
200.000000 
200.000000 
200.000000 
200.000000 
200.000000 
200.000000 
200.000000 
200.000000 
200.000000 
200.000000 
200.000000 
200.000000 
200.000000 
200.000000 
200.000000 
200.000000 
200.000000 
200.000000 
200.000000 
200.000000 
200.000000 
200.000000 
200.000000 
200.000000 
200.000000 
200.000000 
200.000000 
200.000000 
200.000000 
200.000000 
200.000000 
200.000000 
200.000000 
200.000000 
200.000000 
200.000000 
200.000000 
200.000000 
200.000000 
200.000000 
200.000000 
200.000000 
200.000000 
200.000000 
200.000000 
200.000000 
200.000000 
200.000000 
200.000000 
200.000000 
200.000000 
200.000000 
200.000000 
200.000000 
200.000000 
200.000000 
200.000000 
200.000000 
200.000000 
200.000000 
200.000000 
200.000000 
200.000000 
200.000000 
200.000000 
200.000000 
200.000000 
200.000000 
200.000000 
200.000000 
200.000000 
200.000000 
200.000000 
200.000000 
200.000000 
200.000000 
200.000000 
200.000000 
200.000000 
200.000000 
200.000000 
SCALARS ELEM_i float 
LOOKUP_TABLE default 
182 
210 
182 
183 
210 
210 
210 
183 
183 
237 
210 
211 
211 
211 
184 
184 
238 
238 
238 
211 
212 
211 
212 
185 
185 
182 
209 
209 
209 
236 
209 
236 
209 
210 
235 
236 
236 
236 
237 
237 
237 
262 
262 
263 
263 
263 
264 
264 
237 
238 
181 
208 
208 
208 
207 
208 
208 
208 
235 
207 
207 
234 
234 
234 
235 
235 
206 
233 
233 
234 
234 
234 
261 
262 
262 
181 
181 
181 
181 
153 
180 
180 
180 
207 
152 
153 
179 
179 
179 
207 
206 
152 
152 
152 
179 
179 
179 
206 
206 
206 
181 
154 
154 
154 
127 
154 
154 
154 
153 
127 
127 
126 
126 
126 
153 
153 
100 
100 
99 
126 
126 
126 
125 
125 
152 
182 
155 
155 
155 
156 
155 
128 
155 
128 
129 
129 
129 
128 
128 
128 
127 
130 
129 
102 
102 
101 
101 
101 
100 
100 
182 
183 
182 
156 
183 
183 
156 
156 
156 
184 
184 
157 
157 
157 
156 
129 
185 
185 
158 
157 
158 
157 
130 
130 
130 
VECTORS VELOCITY float 
-0.000000 -0.268794 0.000000 
-0.000000 -0.268794 0.000000 
-0.000000 -0.268794 0.000000 
-0.000000 -0.268794 0.000000 
0.000000 -0.268794 0.000000 
-0.000000 -0.268794 0.000000 
-0.000000 -0.268794 0.000000 
-0.000000 -0.268794 0.000000 
-0.000000 -0.268794 0.000000 
0.000000 -0.268794 0.000000 
0.000000 -0.268794 0.000000 
0.000000 -0.268794 0.000000 
0.000000 -0.268794 0.000000 
-0.000000 -0.268794 0.000000 
-0.000000 -0.268794 0.000000 
-0.000000 -0.268794 0.000000 
0.000000 -0.268794 0.000000 
0.000000 -0.268794 0.000000 
0.000000 -0.268794 0.000000 
0.000000 -0.268794 0.000000 
0.000000 -0.268794 0.000000 
0.000000 -0.268794 0.000000 
0.000000 -0.268794 0.000000 
-0.000000 -0.268794 0.000000 
0.000000 -0.268794 0.000000 
-0.000000 -0.268794 0.000000 
-0.000000 -0.268794 0.000000 
-0.000000 -0.268794 0.000000 
-0.000000 -0.268794 0.000000 
0.000000 -0.268794 0.000000 
0.000000 -0.268794 0.000000 
0.000000 -0.268794 0.000000 
-0.000000 -0.268794 0.000000 
-0.000000 -0.268794 0.000000 
-0.000000 -0.268794 0.000000 
0.000000 -0.268794 0.000000 
0.000000 -0.268794 0.000000 
0.000000 -0.268794 0.000000 
0.000000 -0.268794 0.000000 
0.000000 -0.268794 0.000000 
0.000000 -0.268794 0.000000 
-0.000000 -0.268794 0.000000 
-0.000000 -0.268794 0.000000 
0.000000 -0.268794 0.000000 
0.000000 -0.268794 0.000000 
0.000000 -0.268794 0.000000 
0.000000 -0.268794 0.000000 
0.000000 -0.268794 0.000000 
0.000000 -0.268794 0.000000 
-0.000000 -0.268794 0.000000 
-0.000000 -0.268794 0.000000 
-0.000000 -0.268794 0.000000 
-0.000000 -0.268794 0.000000 
-0.000000 -0.268794 0.000000 
0.000000 -0.268794 0.000000 
0.000000 -0.268794 0.000000 
0.000000 -0.268794 0.000000 
0.000000 -0.268794 0.000000 
0.000000 -0.268794 0.000000 
0.000000 -0.268794 0.000000 
0.000000 -0.268794 0.000000 
0.000000 -0.268794 0.000000 
0.000000 -0.268794 0.000000 
0.000000 -0.268794 0.000000 
0.000000 -0.268794 0.000000 
0.000000 -0.268794 0.000000 
0.000000 -0.268794 0.000000 
0.000000 -0.268794 0.000000 
-0.000000 -0.268794 0.000000 
-0.000000 -0.268794 0.000000 
-0.000000 -0.268794 0.000000 
0.000000 -0.268794 0.000000 
-0.000000 -0.268794 0.000000 
0.000000 -0.268794 0.000000 
-0.000000 -0.268794 0.000000 
-0.000000 -0.268794 0.000000 
-0.000000 -0.268794 0.000000 
-0.000000 -0.268794 0.000000 
-0.000000 -0.268794 0.000000 
-0.000000 -0.268794 0.000000 
-0.000000 -0.268794 0.000000 
0.000000 -0.268794 0.000000 
0.000000 -0.268794 0.000000 
0.000000 -0.268794 0.000000 
0.000000 -0.268794 0.000000 
-0.000000 -0.268794 0.000000 
-0.000000 -0.268794 0.000000 
0.000000 -0.268794 0.000000 
0.000000 -0.268794 0.000000 
0.000000 -0.268794 0.000000 
0.000000 -0.268794 0.000000 
0.000000 -0.268794 0.000000 
0.000000 -0.268794 0.000000 
-0.000000 -0.268794 0.000000 
-0.000000 -0.268794 0.000000 
0.000000 -0.268794 0.000000 
0.000000 -0.268794 0.000000 
0.000000 -0.268794 0.000000 
0.000000 -0.268794 0.000000 
0.000000 -0.268794 0.000000 
-0.000000 -0.268794 0.000000 
-0.000000 -0.268794 0.000000 
-0.000000 -0.268794 0.000000 
-0.000000 -0.268794 0.000000 
0.000000 -0.268794 0.000000 
0.000000 -0.268794 0.000000 
-0.000000 -0.268794 0.000000 
-0.000000 -0.268794 0.000000 
-0.000000 -0.268794 0.000000 
-0.000000 -0.268794 0.000000 
-0.000000 -0.268794 0.000000 
-0.000000 -0.268794 0.000000 
-0.000000 -0.268794 0.000000 
0.000000 -0.268794 0.000000 
0.000000 -0.268794 0.000000 
0.000000 -0.268794 0.000000 
-0.000000 -0.268794 0.000000 
-0.000000 -0.268794 0.000000 
-0.000000 -0.268794 0.000000 
-0.000000 -0.268794 0.000000 
-0.000000 -0.268794 0.000000 
-0.000000 -0.268794 0.000000 
-0.000000 -0.268794 0.000000 
0.000000 -0.268794 0.000000 
0.000000 -0.268794 0.000000 
-0.000000 -0.268794 0.000000 
-0.000000 -0.268794 0.000000 
-0.000000 -0.268794 0.000000 
0.000000 -0.268794 0.000000 
0.000000 -0.268794 0.000000 
0.000000 -0.268794 0.000000 
0.000000 -0.268794 0.000000 
0.000000 -0.268794 0.000000 
0.000000 -0.268794 0.000000 
-0.000000 -0.268794 0.000000 
-0.000000 -0.268794 0.000000 
-0.000000 -0.268794 0.000000 
-0.000000 -0.268794 0.000000 
-0.000000 -0.268794 0.000000 
-0.000000 -0.268794 0.000000 
-0.000000 -0.268794 0.000000 
0.000000 -0.268794 0.000000 
-0.000000 -0.268794 0.000000 
-0.000000 -0.268794 0.000000 
-0.000000 -0.268794 0.000000 
0.000000 -0.268794 0.000000 
0.000000 -0.268794 0.000000 
0.000000 -0.268794 0.000000 
-0.000000 -0.268794 0.000000 
-0.000000 -0.268794 0.000000 
-0.000000 -0.268794 0.000000 
-0.000000 -0.268794 0.000000 
-0.000000 -0.268794 0.000000 
-0.000000 -0.268794 0.000000 
-0.000000 -0.268794 0.000000 
-0.000000 -0.268794 0.000000 
-0.000000 -0.268794 0.000000 
-0.000000 -0.268794 0.000000 
-0.000000 -0.268794 0.000000 
-0.000000 -0.268794 0.000000 
-0.000000 -0.268794 0.000000 
-0.000000 -0.268794 0.000000 
-0.000000 -0.268794 0.000000 
-0.000000 -0.268794 0.000000 
-0.000000 -0.268794 0.000000 
-0.000000 -0.268794 0.000000 
-0.000000 -0.268794 0.000000 
-0.000000 -0.268794 0.000000 
-0.000000 -0.268794 0.000000 
-0.000000 -0.268794 0.000000 
0.000000 -0.268794 0.000000 
-0.000000 -0.268794 0.000000 
0.000000 -0.268794 0.000000 
-0.000000 -0.268794 0.000000 
0.000000 -0.268794 0.000000 
TENSORS STRESS float 
-0.000000 0.000000 0.000000 
0.000000 -0.000000 0.000000 
0.000000 0.000000 0.000000 

0.000000 0.000000 0.000000 
0.000000 0.000000 0.000000 
0.000000 0.000000 0.000000 

0.000000 0.000000 0.000000 
0.000000 0.000000 0.000000 
0.000000 0.000000 0.000000 

0.000000 -0.000000 0.000000 
0.000000 0.000000 0.000000 
0.000000 0.000000 0.000000 

-0.000000 -0.000000 0.000000 
0.000000 -0.000000 0.000000 
0.000000 0.000000 0.000000 

0.000000 0.000000 0.000000 
0.000000 0.000000 0.000000 
0.000000 0.000000 0.000000 

0.000000 0.000000 0.000000 
0.000000 0.000000 0.000000 
0.000000 0.000000 0.000000 

0.000000 -0.000000 0.000000 
0.000000 0.000000 0.000000 
0.000000 0.000000 0.000000 

0.000000 -0.000000 0.000000 
0.000000 0.000000 0.000000 
0.000000 0.000000 0.000000 

0.000000 0.000000 0.000000 
0.000000 0.000000 0.000000 
0.000000 0.000000 0.000000 

0.000000 0.000000 0.000000 
0.000000 0.000000 0.000000 
0.000000 0.000000 0.000000 

0.000000 -0.000000 0.000000 
0.000000 0.000000 0.000000 
0.000000 0.000000 0.000000 

-0.000000 -0.000000 0.000000 
0.000000 -0.000000 0.000000 
0.000000 0.000000 0.000000 

0.000000 -0.000000 0.000000 
0.000000 0.000000 0.000000 
0.000000 0.000000 0.000000 

-0.000000 -0.000000 0.000000 
0.000000 -0.000000 0.000000 
0.000000 0.000000 0.000000 

-0.000000 -0.000000 0.000000 
0.000000 -0.000000 0.000000 
0.000000 0.000000 0.000000 

-0.000000 0.000000 0.000000 
0.000000 -0.000000 0.000000 
0.000000 0.000000 0.000000 

0.000000 0.000000 0.000000 
0.000000 0.000000 0.000000 
0.000000 0.000000 0.000000 

0.000000 0.000000 0.000000 
0.000000 0.000000 0.000000 
0.000000 0.000000 0.000000 

0.000000 -0.000000 0.000000 
0.000000 0.000000 0.000000 
0.000000 0.000000 0.000000 

-0.000000 -0.000000 0.000000 
0.000000 -0.000000 0.000000 
0.000000 0.000000 0.000000 

0.000000 -0.000000 0.000000 
0.000000 0.000000 0.000000 
0.000000 0.000000 0.000000 

-0.000000 -0.000000 0.000000 
0.000000 -0.000000 0.000000 
0.000000 0.000000 0.000000 

0.000000 -0.000000 0.000000 
0.000000 0.000000 0.000000 
0.000000 0.000000 0.000000 

0.000000 -0.000000 0.000000 
0.000000 0.000000 0.000000 
0.000000 0.000000 0.000000 

-0.000000 0.000000 0.000000 
0.000000 -0.000000 0.000000 
0.000000 0.000000 0.000000 

-0.000000 -0.000000 0.000000 
0.000000 -0.000000 0.000000 
0.000000 0.000000 0.000000 

-0.000000 -0.000000 0.000000 
0.000000 -0.000000 0.000000 
0.000000 0.000000 0.000000 

-0.000000 -0.000000 0.000000 
0.000000 -0.000000 0.000000 
0.000000 0.000000 0.000000 

-0.000000 0.000000 0.000000 
0.000000 -0.000000 0.000000 
0.000000 0.000000 0.000000 

-0.000000 -0.000000 0.000000 
0.000000 -0.000000 0.000000 
0.000000 0.000000 0.000000 

-0.000000 0.000000 0.000000 
0.000000 -0.000000 0.000000 
0.000000 0.000000 0.000000 

-0.000000 -0.000000 0.000000 
0.000000 -0.000000 0.000000 
0.000000 0.000000 0.000000 

0.000000 -0.000000 0.000000 
0.000000 0.000000 0.000000 
0.000000 0.000000 0.000000 

-0.000000 0.000000 0.000000 
0.000000 -0.000000 0.000000 
0.000000 0.000000 0.000000 

-0.000000 0.000000 0.000000 
0.000000 -0.000000 0.000000 
0.000000 0.000000 0.000000 

-0.000000 0.000000 0.000000 
0.000000 -0.000000 0.000000 
0.000000 0.000000 0.000000 

-0.000000 0.000000 0.000000 
0.000000 -0.000000 0.000000 
0.000000 0.000000 0.000000 

0.000000 0.000000 0.000000 
0.000000 0.000000 0.000000 
0.000000 0.000000 0.000000 

0.000000 0.000000 0.000000 
0.000000 0.000000 0.000000 
0.000000 0.000000 0.000000 

0.000000 0.000000 0.000000 
0.000000 0.000000 0.000000 
0.000000 0.000000 0.000000 

0.000000 -0.000000 0.000000 
0.000000 0.000000 0.000000 
0.000000 0.000000 0.000000 

-0.000000 -0.000000 0.000000 
0.000000 -0.000000 0.000000 
0.000000 0.000000 0.000000 

-0.000000 -0.000000 0.000000 
0.000000 -0.000000 0.000000 
0.000000 0.000000 0.000000 

-0.000000 -0.000000 0.000000 
0.000000 -0.000000 0.000000 
0.000000 0.000000 0.000000 

-0.000000 -0.000000 0.000000 
0.000000 -0.000000 0.000000 
0.000000 0.000000 0.000000 

-0.000000 -0.000000 0.000000 
0.000000 -0.000000 0.000000 
0.000000 0.000000 0.000000 

-0.000000 -0.000000 0.000000 
0.000000 -0.000000 0.000000 
0.000000 0.000000 0.000000 

0.000000 0.000000 0.000000 
0.000000 0.000000 0.000000 
0.000000 0.000000 0.000000 

-0.000000 0.000000 0.000000 
0.000000 -0.000000 0.000000 
0.000000 0.000000 0.000000 

0.000000 0.000000 0.000000 
0.000000 0.000000 0.000000 
0.000000 0.000000 0.000000 

0.000000 -0.000000 0.000000 
0.000000 0.000000 0.000000 
0.000000 0.000000 0.000000 

0.000000 -0.000000 0.000000 
0.000000 0.000000 0.000000 
0.000000 0.000000 0.000000 

0.000000 -0.000000 0.000000 
0.000000 0.000000 0.000000 
0.000000 0.000000 0.000000 

-0.000000 -0.000000 0.000000 
0.000000 -0.000000 0.000000 
0.000000 0.000000 0.000000 

0.000000 -0.000000 0.000000 
0.000000 0.000000 0.000000 
0.000000 0.000000 0.000000 

0.000000 -0.000000 0.000000 
0.000000 0.000000 0.000000 
0.000000 0.000000 0.000000 

0.000000 -0.000000 0.000000 
0.000000 0.000000 0.000000 
0.000000 0.000000 0.000000 

0.000000 0.000000 0.000000 
0.000000 0.000000 0.000000 
0.000000 0.000000 0.000000 

-0.000000 -0.000000 0.000000 
0.000000 -0.000000 0.000000 
0.000000 0.000000 0.000000 

0.000000 -0.000000 0.000000 
0.000000 0.000000 0.000000 
0.000000 0.000000 0.000000 

0.000000 -0.000000 0.000000 
0.000000 0.000000 0.000000 
0.000000 0.000000 0.000000 

0.000000 -0.000000 0.000000 
0.000000 0.000000 0.000000 
0.000000 0.000000 0.000000 

-0.000000 -0.000000 0.000000 
0.000000 -0.000000 0.000000 
0.000000 0.000000 0.000000 

0.000000 0.000000 0.000000 
0.000000 0.000000 0.000000 
0.000000 0.000000 0.000000 

-0.000000 0.000000 0.000000 
0.000000 -0.000000 0.000000 
0.000000 0.000000 0.000000 

-0.000000 -0.000000 0.000000 
0.000000 -0.000000 0.000000 
0.000000 0.000000 0.000000 

-0.000000 -0.000000 0.000000 
0.000000 -0.000000 0.000000 
0.000000 0.000000 0.000000 

-0.000000 -0.000000 0.000000 
0.000000 -0.000000 0.000000 
0.000000 0.000000 0.000000 

0.000000 -0.000000 0.000000 
0.000000 0.000000 0.000000 
0.000000 0.000000 0.000000 

-0.000000 -0.000000 0.000000 
0.000000 -0.000000 0.000000 
0.000000 0.000000 0.000000 

-0.000000 -0.000000 0.000000 
0.000000 -0.000000 0.000000 
0.000000 0.000000 0.000000 

-0.000000 0.000000 0.000000 
0.000000 -0.000000 0.000000 
0.000000 0.000000 0.000000 

-0.000000 -0.000000 0.000000 
0.000000 -0.000000 0.000000 
0.000000 0.000000 0.000000 

0.000000 -0.000000 0.000000 
0.000000 0.000000 0.000000 
0.000000 0.000000 0.000000 

0.000000 0.000000 0.000000 
0.000000 0.000000 0.000000 
0.000000 0.000000 0.000000 

0.000000 0.000000 0.000000 
0.000000 0.000000 0.000000 
0.000000 0.000000 0.000000 

0.000000 0.000000 0.000000 
0.000000 0.000000 0.000000 
0.000000 0.000000 0.000000 

0.000000 0.000000 0.000000 
0.000000 0.000000 0.000000 
0.000000 0.000000 0.000000 

0.000000 0.000000 0.000000 
0.000000 0.000000 0.000000 
0.000000 0.000000 0.000000 

-0.000000 0.000000 0.000000 
0.000000 -0.000000 0.000000 
0.000000 0.000000 0.000000 

-0.000000 0.000000 0.000000 
0.000000 -0.000000 0.000000 
0.000000 0.000000 0.000000 

-0.000000 0.000000 0.000000 
0.000000 -0.000000 0.000000 
0.000000 0.000000 0.000000 

-0.000000 -0.000000 0.000000 
0.000000 -0.000000 0.000000 
0.000000 0.000000 0.000000 

-0.000000 0.000000 0.000000 
0.000000 -0.000000 0.000000 
0.000000 0.000000 0.000000 

0.000000 0.000000 0.000000 
0.000000 0.000000 0.000000 
0.000000 0.000000 0.000000 

-0.000000 0.000000 0.000000 
0.000000 -0.000000 0.000000 
0.000000 0.000000 0.000000 

0.000000 0.000000 0.000000 
0.000000 0.000000 0.000000 
0.000000 0.000000 0.000000 

-0.000000 0.000000 0.000000 
0.000000 -0.000000 0.000000 
0.000000 0.000000 0.000000 

-0.000000 -0.000000 0.000000 
0.000000 -0.000000 0.000000 
0.000000 0.000000 0.000000 

-0.000000 -0.000000 0.000000 
0.000000 -0.000000 0.000000 
0.000000 0.000000 0.000000 

-0.000000 0.000000 0.000000 
0.000000 -0.000000 0.000000 
0.000000 0.000000 0.000000 

0.000000 0.000000 0.000000 
0.000000 0.000000 0.000000 
0.000000 0.000000 0.000000 

-0.000000 0.000000 0.000000 
0.000000 -0.000000 0.000000 
0.000000 0.000000 0.000000 

-0.000000 0.000000 0.000000 
0.000000 -0.000000 0.000000 
0.000000 0.000000 0.000000 

0.000000 0.000000 0.000000 
0.000000 0.000000 0.000000 
0.000000 0.000000 0.000000 

0.000000 0.000000 0.000000 
0.000000 0.000000 0.000000 
0.000000 0.000000 0.000000 

0.000000 -0.000000 0.000000 
0.000000 0.000000 0.000000 
0.000000 0.000000 0.000000 

-0.000000 -0.000000 0.000000 
0.000000 -0.000000 0.000000 
0.000000 0.000000 0.000000 

0.000000 -0.000000 0.000000 
0.000000 0.000000 0.000000 
0.000000 0.000000 0.000000 

-0.000000 0.000000 0.000000 
0.000000 -0.000000 0.000000 
0.000000 0.000000 0.000000 

0.000000 0.000000 0.000000 
0.000000 -0.000000 0.000000 
0.000000 0.000000 0.000000 

0.000000 0.000000 0.000000 
0.000000 0.000000 0.000000 
0.000000 0.000000 0.000000 

0.000000 0.000000 0.000000 
0.000000 0.000000 0.000000 
0.000000 0.000000 0.000000 

-0.000000 0.000000 0.000000 
0.000000 -0.000000 0.000000 
0.000000 0.000000 0.000000 

-0.000000 0.000000 0.000000 
0.000000 -0.000000 0.000000 
0.000000 0.000000 0.000000 

-0.000000 0.000000 0.000000 
0.000000 -0.000000 0.000000 
0.000000 0.000000 0.000000 

-0.000000 0.000000 0.000000 
0.000000 -0.000000 0.000000 
0.000000 0.000000 0.000000 

0.000000 0.000000 0.000000 
0.000000 0.000000 0.000000 
0.000000 0.000000 0.000000 

-0.000000 0.000000 0.000000 
0.000000 -0.000000 0.000000 
0.000000 0.000000 0.000000 

0.000000 0.000000 0.000000 
0.000000 -0.000000 0.000000 
0.000000 0.000000 0.000000 

0.000000 0.000000 0.000000 
0.000000 0.000000 0.000000 
0.000000 0.000000 0.000000 

0.000000 -0.000000 0.000000 
0.000000 0.000000 0.000000 
0.000000 0.000000 0.000000 

0.000000 -0.000000 0.000000 
0.000000 0.000000 0.000000 
0.000000 0.000000 0.000000 

0.000000 0.000000 0.000000 
0.000000 0.000000 0.000000 
0.000000 0.000000 0.000000 

0.000000 0.000000 0.000000 
0.000000 0.000000 0.000000 
0.000000 0.000000 0.000000 

0.000000 -0.000000 0.000000 
0.000000 0.000000 0.000000 
0.000000 0.000000 0.000000 

0.000000 -0.000000 0.000000 
0.000000 0.000000 0.000000 
0.000000 0.000000 0.000000 

0.000000 0.000000 0.000000 
0.000000 0.000000 0.000000 
0.000000 0.000000 0.000000 

0.000000 0.000000 0.000000 
0.000000 0.000000 0.000000 
0.000000 0.000000 0.000000 

0.000000 0.000000 0.000000 
0.000000 0.000000 0.000000 
0.000000 0.000000 0.000000 

0.000000 -0.000000 0.000000 
0.000000 0.000000 0.000000 
0.000000 0.000000 0.000000 

-0.000000 -0.000000 0.000000 
0.000000 -0.000000 0.000000 
0.000000 0.000000 0.000000 

-0.000000 -0.000000 0.000000 
0.000000 -0.000000 0.000000 
0.000000 0.000000 0.000000 

-0.000000 0.000000 0.000000 
0.000000 -0.000000 0.000000 
0.000000 0.000000 0.000000 

-0.000000 0.000000 0.000000 
0.000000 -0.000000 0.000000 
0.000000 0.000000 0.000000 

0.000000 0.000000 0.000000 
0.000000 0.000000 0.000000 
0.000000 0.000000 0.000000 

0.000000 0.000000 0.000000 
0.000000 0.000000 0.000000 
0.000000 0.000000 0.000000 

0.000000 0.000000 0.000000 
0.000000 0.000000 0.000000 
0.000000 0.000000 0.000000 

0.000000 0.000000 0.000000 
0.000000 0.000000 0.000000 
0.000000 0.000000 0.000000 

0.000000 0.000000 0.000000 
0.000000 0.000000 0.000000 
0.000000 0.000000 0.000000 

-0.000000 0.000000 0.000000 
0.000000 -0.000000 0.000000 
0.000000 0.000000 0.000000 

0.000000 0.000000 0.000000 
0.000000 0.000000 0.000000 
0.000000 0.000000 0.000000 

0.000000 0.000000 0.000000 
0.000000 0.000000 0.000000 
0.000000 0.000000 0.000000 

0.000000 -0.000000 0.000000 
0.000000 0.000000 0.000000 
0.000000 0.000000 0.000000 

0.000000 -0.000000 0.000000 
0.000000 0.000000 0.000000 
0.000000 0.000000 0.000000 

-0.000000 0.000000 0.000000 
0.000000 -0.000000 0.000000 
0.000000 0.000000 0.000000 

0.000000 0.000000 0.000000 
0.000000 0.000000 0.000000 
0.000000 0.000000 0.000000 

0.000000 0.000000 0.000000 
0.000000 -0.000000 0.000000 
0.000000 0.000000 0.000000 

0.000000 0.000000 0.000000 
0.000000 0.000000 0.000000 
0.000000 0.000000 0.000000 

0.000000 0.000000 0.000000 
0.000000 -0.000000 0.000000 
0.000000 0.000000 0.000000 

-0.000000 -0.000000 0.000000 
0.000000 -0.000000 0.000000 
0.000000 0.000000 0.000000 

0.000000 0.000000 0.000000 
0.000000 -0.000000 0.000000 
0.000000 0.000000 0.000000 

0.000000 0.000000 0.000000 
0.000000 0.000000 0.000000 
0.000000 0.000000 0.000000 

-0.000000 0.000000 0.000000 
0.000000 -0.000000 0.000000 
0.000000 0.000000 0.000000 

0.000000 -0.000000 0.000000 
0.000000 0.000000 0.000000 
0.000000 0.000000 0.000000 

-0.000000 -0.000000 0.000000 
0.000000 -0.000000 0.000000 
0.000000 0.000000 0.000000 

0.000000 -0.000000 0.000000 
0.000000 0.000000 0.000000 
0.000000 0.000000 0.000000 

0.000000 -0.000000 0.000000 
0.000000 0.000000 0.000000 
0.000000 0.000000 0.000000 

0.000000 -0.000000 0.000000 
0.000000 0.000000 0.000000 
0.000000 0.000000 0.000000 

-0.000000 0.000000 0.000000 
0.000000 -0.000000 0.000000 
0.000000 0.000000 0.000000 

-0.000000 0.000000 0.000000 
0.000000 -0.000000 0.000000 
0.000000 0.000000 0.000000 

-0.000000 0.000000 0.000000 
0.000000 -0.000000 0.000000 
0.000000 0.000000 0.000000 

0.000000 0.000000 0.000000 
0.000000 0.000000 0.000000 
0.000000 0.000000 0.000000 

0.000000 -0.000000 0.000000 
0.000000 0.000000 0.000000 
0.000000 0.000000 0.000000 

-0.000000 -0.000000 0.000000 
0.000000 -0.000000 0.000000 
0.000000 0.000000 0.000000 

-0.000000 0.000000 0.000000 
0.000000 -0.000000 0.000000 
0.000000 0.000000 0.000000 

0.000000 0.000000 0.000000 
0.000000 0.000000 0.000000 
0.000000 0.000000 0.000000 

0.000000 0.000000 0.000000 
0.000000 -0.000000 0.000000 
0.000000 0.000000 0.000000 

-0.000000 -0.000000 0.000000 
0.000000 -0.000000 0.000000 
0.000000 0.000000 0.000000 

-0.000000 -0.000000 0.000000 
0.000000 -0.000000 0.000000 
0.000000 0.000000 0.000000 

-0.000000 0.000000 0.000000 
0.000000 -0.000000 0.000000 
0.000000 0.000000 0.000000 

0.000000 0.000000 0.000000 
0.000000 0.000000 0.000000 
0.000000 0.000000 0.000000 

0.000000 0.000000 0.000000 
0.000000 0.000000 0.000000 
0.000000 0.000000 0.000000 

-0.000000 0.000000 0.000000 
0.000000 -0.000000 0.000000 
0.000000 0.000000 0.000000 

-0.000000 -0.000000 0.000000 
0.000000 -0.000000 0.000000 
0.000000 0.000000 0.000000 

0.000000 -0.000000 0.000000 
0.000000 0.000000 0.000000 
0.000000 0.000000 0.000000 

0.000000 -0.000000 0.000000 
0.000000 0.000000 0.000000 
0.000000 0.000000 0.000000 

-0.000000 0.000000 0.000000 
0.000000 -0.000000 0.000000 
0.000000 0.000000 0.000000 

-0.000000 0.000000 0.000000 
0.000000 -0.000000 0.000000 
0.000000 0.000000 0.000000 

-0.000000 0.000000 0.000000 
0.000000 -0.000000 0.000000 
0.000000 0.000000 0.000000 

0.000000 0.000000 0.000000 
0.000000 0.000000 0.000000 
0.000000 0.000000 0.000000 

-0.000000 -0.000000 0.000000 
0.000000 -0.000000 0.000000 
0.000000 0.000000 0.000000 

-0.000000 -0.000000 0.000000 
0.000000 -0.000000 0.000000 
0.000000 0.000000 0.000000 

-0.000000 -0.000000 0.000000 
0.000000 -0.000000 0.000000 
0.000000 0.000000 0.000000 

TENSORS STRAIN float 
-0.000000 0.000000 0.000000 
0.000000 0.000000 0.000000 
0.000000 0.000000 0.000000 

-0.000000 0.000000 0.000000 
0.000000 0.000000 0.000000 
0.000000 0.000000 0.000000 

-0.000000 0.000000 0.000000 
0.000000 0.000000 0.000000 
0.000000 0.000000 0.000000 

-0.000000 -0.000000 0.000000 
0.000000 0.000000 0.000000 
0.000000 0.000000 0.000000 

-0.000000 -0.000000 0.000000 
0.000000 0.000000 0.000000 
0.000000 0.000000 0.000000 

-0.000000 0.000000 0.000000 
0.000000 0.000000 0.000000 
0.000000 0.000000 0.000000 

-0.000000 0.000000 0.000000 
0.000000 0.000000 0.000000 
0.000000 0.000000 0.000000 

-0.000000 -0.000000 0.000000 
0.000000 0.000000 0.000000 
0.000000 0.000000 0.000000 

-0.000000 -0.000000 0.000000 
0.000000 0.000000 0.000000 
0.000000 0.000000 0.000000 

-0.000000 0.000000 0.000000 
0.000000 0.000000 0.000000 
0.000000 0.000000 0.000000 

-0.000000 0.000000 0.000000 
0.000000 0.000000 0.000000 
0.000000 0.000000 0.000000 

-0.000000 -0.000000 0.000000 
0.000000 0.000000 0.000000 
0.000000 0.000000 0.000000 

-0.000000 -0.000000 0.000000 
0.000000 0.000000 0.000000 
0.000000 0.000000 0.000000 

-0.000000 -0.000000 0.000000 
0.000000 0.000000 0.000000 
0.000000 0.000000 0.000000 

-0.000000 -0.000000 0.000000 
0.000000 -0.000000 0.000000 
0.000000 0.000000 0.000000 

-0.000000 -0.000000 0.000000 
0.000000 -0.000000 0.000000 
0.000000 0.000000 0.000000 

0.000000 0.000000 0.000000 
0.000000 -0.000000 0.000000 
0.000000 0.000000 0.000000 

0.000000 0.000000 0.000000 
0.000000 0.000000 0.000000 
0.000000 0.000000 0.000000 

0.000000 0.000000 0.000000 
0.000000 0.000000 0.000000 
0.000000 0.000000 0.000000 

-0.000000 -0.000000 0.000000 
0.000000 0.000000 0.000000 
0.000000 0.000000 0.000000 

-0.000000 -0.000000 0.000000 
0.000000 -0.000000 0.000000 
0.000000 0.000000 0.000000 

-0.000000 -0.000000 0.000000 
0.000000 0.000000 0.000000 
0.000000 0.000000 0.000000 

-0.000000 -0.000000 0.000000 
0.000000 -0.000000 0.000000 
0.000000 0.000000 0.000000 

-0.000000 -0.000000 0.000000 
0.000000 0.000000 0.000000 
0.000000 0.000000 0.000000 

-0.000000 -0.000000 0.000000 
0.000000 0.000000 0.000000 
0.000000 0.000000 0.000000 

-0.000000 0.000000 0.000000 
0.000000 -0.000000 0.000000 
0.000000 0.000000 0.000000 

-0.000000 -0.000000 0.000000 
0.000000 0.000000 0.000000 
0.000000 0.000000 0.000000 

-0.000000 -0.000000 0.000000 
0.000000 0.000000 0.000000 
0.000000 0.000000 0.000000 

-0.000000 -0.000000 0.000000 
0.000000 0.000000 0.000000 
0.000000 0.000000 0.000000 

-0.000000 0.000000 0.000000 
0.000000 0.000000 0.000000 
0.000000 0.000000 0.000000 

-0.000000 -0.000000 0.000000 
0.000000 0.000000 0.000000 
0.000000 0.000000 0.000000 

-0.000000 0.000000 0.000000 
0.000000 0.000000 0.000000 
0.000000 0.000000 0.000000 

-0.000000 -0.000000 0.000000 
0.000000 0.000000 0.000000 
0.000000 0.000000 0.000000 

-0.000000 -0.000000 0.000000 
0.000000 0.000000 0.000000 
0.000000 0.000000 0.000000 

-0.000000 0.000000 0.000000 
0.000000 -0.000000 0.000000 
0.000000 0.000000 0.000000 

-0.000000 0.000000 0.000000 
0.000000 -0.000000 0.000000 
0.000000 0.000000 0.000000 

-0.000000 0.000000 0.000000 
0.000000 -0.000000 0.000000 
0.000000 0.000000 0.000000 

-0.000000 0.000000 0.000000 
0.000000 -0.000000 0.000000 
0.000000 0.000000 0.000000 

-0.000000 0.000000 0.000000 
0.000000 0.000000 0.000000 
0.000000 0.000000 0.000000 

-0.000000 0.000000 0.000000 
0.000000 0.000000 0.000000 
0.000000 0.000000 0.000000 

-0.000000 0.000000 0.000000 
0.000000 0.000000 0.000000 
0.000000 0.000000 0.000000 

-0.000000 -0.000000 0.000000 
0.000000 0.000000 0.000000 
0.000000 0.000000 0.000000 

-0.000000 -0.000000 0.000000 
0.000000 0.000000 0.000000 
0.000000 0.000000 0.000000 

-0.000000 -0.000000 0.000000 
0.000000 0.000000 0.000000 
0.000000 0.000000 0.000000 

-0.000000 -0.000000 0.000000 
0.000000 0.000000 0.000000 
0.000000 0.000000 0.000000 

-0.000000 -0.000000 0.000000 
0.000000 0.000000 0.000000 
0.000000 0.000000 0.000000 

-0.000000 -0.000000 0.000000 
0.000000 0.000000 0.000000 
0.000000 0.000000 0.000000 

-0.000000 -0.000000 0.000000 
0.000000 0.000000 0.000000 
0.000000 0.000000 0.000000 

-0.000000 0.000000 0.000000 
0.000000 0.000000 0.000000 
0.000000 0.000000 0.000000 

-0.000000 0.000000 0.000000 
0.000000 -0.000000 0.000000 
0.000000 0.000000 0.000000 

-0.000000 0.000000 0.000000 
0.000000 0.000000 0.000000 
0.000000 0.000000 0.000000 

-0.000000 -0.000000 0.000000 
0.000000 0.000000 0.000000 
0.000000 0.000000 0.000000 

-0.000000 -0.000000 0.000000 
0.000000 0.000000 0.000000 
0.000000 0.000000 0.000000 

-0.000000 -0.000000 0.000000 
0.000000 0.000000 0.000000 
0.000000 0.000000 0.000000 

-0.000000 -0.000000 0.000000 
0.000000 -0.000000 0.000000 
0.000000 0.000000 0.000000 

-0.000000 -0.000000 0.000000 
0.000000 0.000000 0.000000 
0.000000 0.000000 0.000000 

-0.000000 -0.000000 0.000000 
0.000000 0.000000 0.000000 
0.000000 0.000000 0.000000 

-0.000000 -0.000000 0.000000 
0.000000 0.000000 0.000000 
0.000000 0.000000 0.000000 

-0.000000 0.000000 0.000000 
0.000000 0.000000 0.000000 
0.000000 0.000000 0.000000 

-0.000000 -0.000000 0.000000 
0.000000 0.000000 0.000000 
0.000000 0.000000 0.000000 

-0.000000 -0.000000 0.000000 
0.000000 0.000000 0.000000 
0.000000 0.000000 0.000000 

0.000000 -0.000000 0.000000 
0.000000 0.000000 0.000000 
0.000000 0.000000 0.000000 

-0.000000 -0.000000 0.000000 
0.000000 0.000000 0.000000 
0.000000 0.000000 0.000000 

-0.000000 -0.000000 0.000000 
0.000000 -0.000000 0.000000 
0.000000 0.000000 0.000000 

-0.000000 0.000000 0.000000 
0.000000 0.000000 0.000000 
0.000000 0.000000 0.000000 

-0.000000 0.000000 0.000000 
0.000000 -0.000000 0.000000 
0.000000 0.000000 0.000000 

0.000000 -0.000000 0.000000 
0.000000 -0.000000 0.000000 
0.000000 0.000000 0.000000 

0.000000 -0.000000 0.000000 
0.000000 -0.000000 0.000000 
0.000000 0.000000 0.000000 

0.000000 -0.000000 0.000000 
0.000000 -0.000000 0.000000 
0.000000 0.000000 0.000000 

0.000000 -0.000000 0.000000 
0.000000 -0.000000 0.000000 
0.000000 0.000000 0.000000 

0.000000 -0.000000 0.000000 
0.000000 -0.000000 0.000000 
0.000000 0.000000 0.000000 

0.000000 -0.000000 0.000000 
0.000000 -0.000000 0.000000 
0.000000 0.000000 0.000000 

-0.000000 0.000000 0.000000 
0.000000 -0.000000 0.000000 
0.000000 0.000000 0.000000 

-0.000000 -0.000000 0.000000 
0.000000 -0.000000 0.000000 
0.000000 0.000000 0.000000 

-0.000000 -0.000000 0.000000 
0.000000 0.000000 0.000000 
0.000000 0.000000 0.000000 

-0.000000 0.000000 0.000000 
0.000000 0.000000 0.000000 
0.000000 0.000000 0.000000 

-0.000000 0.000000 0.000000 
0.000000 0.000000 0.000000 
0.000000 0.000000 0.000000 

-0.000000 0.000000 0.000000 
0.000000 0.000000 0.000000 
0.000000 0.000000 0.000000 

-0.000000 0.000000 0.000000 
0.000000 0.000000 0.000000 
0.000000 0.000000 0.000000 

0.000000 0.000000 0.000000 
0.000000 0.000000 0.000000 
0.000000 0.000000 0.000000 

-0.000000 0.000000 0.000000 
0.000000 -0.000000 0.000000 
0.000000 0.000000 0.000000 

-0.000000 0.000000 0.000000 
0.000000 0.000000 0.000000 
0.000000 0.000000 0.000000 

-0.000000 0.000000 0.000000 
0.000000 0.000000 0.000000 
0.000000 0.000000 0.000000 

-0.000000 -0.000000 0.000000 
0.000000 -0.000000 0.000000 
0.000000 0.000000 0.000000 

-0.000000 0.000000 0.000000 
0.000000 -0.000000 0.000000 
0.000000 0.000000 0.000000 

-0.000000 0.000000 0.000000 
0.000000 0.000000 0.000000 
0.000000 0.000000 0.000000 

-0.000000 0.000000 0.000000 
0.000000 0.000000 0.000000 
0.000000 0.000000 0.000000 

-0.000000 0.000000 0.000000 
0.000000 0.000000 0.000000 
0.000000 0.000000 0.000000 

-0.000000 0.000000 0.000000 
0.000000 0.000000 0.000000 
0.000000 0.000000 0.000000 

-0.000000 -0.000000 0.000000 
0.000000 -0.000000 0.000000 
0.000000 0.000000 0.000000 

-0.000000 -0.000000 0.000000 
0.000000 -0.000000 0.000000 
0.000000 0.000000 0.000000 

-0.000000 0.000000 0.000000 
0.000000 -0.000000 0.000000 
0.000000 0.000000 0.000000 

-0.000000 0.000000 0.000000 
0.000000 0.000000 0.000000 
0.000000 0.000000 0.000000 

-0.000000 0.000000 0.000000 
0.000000 -0.000000 0.000000 
0.000000 0.000000 0.000000 

-0.000000 0.000000 0.000000 
0.000000 -0.000000 0.000000 
0.000000 0.000000 0.000000 

0.000000 0.000000 0.000000 
0.000000 0.000000 0.000000 
0.000000 0.000000 0.000000 

-0.000000 0.000000 0.000000 
0.000000 0.000000 0.000000 
0.000000 0.000000 0.000000 

0.000000 -0.000000 0.000000 
0.000000 0.000000 0.000000 
0.000000 0.000000 0.000000 

0.000000 -0.000000 0.000000 
0.000000 -0.000000 0.000000 
0.000000 0.000000 0.000000 

0.000000 -0.000000 0.000000 
0.000000 0.000000 0.000000 
0.000000 0.000000 0.000000 

-0.000000 0.000000 0.000000 
0.000000 0.000000 0.000000 
0.000000 0.000000 0.000000 

0.000000 0.000000 0.000000 
0.000000 -0.000000 0.000000 
0.000000 0.000000 0.000000 

0.000000 0.000000 0.000000 
0.000000 0.000000 0.000000 
0.000000 0.000000 0.000000 

0.000000 0.000000 0.000000 
0.000000 0.000000 0.000000 
0.000000 0.000000 0.000000 

0.000000 0.000000 0.000000 
0.000000 -0.000000 0.000000 
0.000000 0.000000 0.000000 

0.000000 0.000000 0.000000 
0.000000 -0.000000 0.000000 
0.000000 0.000000 0.000000 

0.000000 0.000000 0.000000 
0.000000 -0.000000 0.000000 
0.000000 0.000000 0.000000 

0.000000 0.000000 0.000000 
0.000000 -0.000000 0.000000 
0.000000 0.000000 0.000000 

0.000000 0.000000 0.000000 
0.000000 0.000000 0.000000 
0.000000 0.000000 0.000000 

0.000000 0.000000 0.000000 
0.000000 -0.000000 0.000000 
0.000000 0.000000 0.000000 

0.000000 0.000000 0.000000 
0.000000 -0.000000 0.000000 
0.000000 0.000000 0.000000 

0.000000 0.000000 0.000000 
0.000000 0.000000 0.000000 
0.000000 0.000000 0.000000 

0.000000 -0.000000 0.000000 
0.000000 0.000000 0.000000 
0.000000 0.000000 0.000000 

-0.000000 -0.000000 0.000000 
0.000000 0.000000 0.000000 
0.000000 0.000000 0.000000 

0.000000 0.000000 0.000000 
0.000000 0.000000 0.000000 
0.000000 0.000000 0.000000 

-0.000000 0.000000 0.000000 
0.000000 0.000000 0.000000 
0.000000 0.000000 0.000000 

0.000000 -0.000000 0.000000 
0.000000 -0.000000 0.000000 
0.000000 0.000000 0.000000 

0.000000 -0.000000 0.000000 
0.000000 -0.000000 0.000000 
0.000000 0.000000 0.000000 

0.000000 0.000000 0.000000 
0.000000 -0.000000 0.000000 
0.000000 0.000000 0.000000 

0.000000 0.000000 0.000000 
0.000000 0.000000 0.000000 
0.000000 0.000000 0.000000 

-0.000000 0.000000 0.000000 
0.000000 0.000000 0.000000 
0.000000 0.000000 0.000000 

-0.000000 -0.000000 0.000000 
0.000000 0.000000 0.000000 
0.000000 0.000000 0.000000 

-0.000000 -0.000000 0.000000 
0.000000 0.000000 0.000000 
0.000000 0.000000 0.000000 

-0.000000 -0.000000 0.000000 
0.000000 0.000000 0.000000 
0.000000 0.000000 0.000000 

-0.000000 0.000000 0.000000 
0.000000 0.000000 0.000000 
0.000000 0.000000 0.000000 

-0.000000 0.000000 0.000000 
0.000000 -0.000000 0.000000 
0.000000 0.000000 0.000000 

0.000000 0.000000 0.000000 
0.000000 -0.000000 0.000000 
0.000000 0.000000 0.000000 

0.000000 0.000000 0.000000 
0.000000 -0.000000 0.000000 
0.000000 0.000000 0.000000 

0.000000 0.000000 0.000000 
0.000000 -0.000000 0.000000 
0.000000 0.000000 0.000000 

0.000000 0.000000 0.000000 
0.000000 -0.000000 0.000000 
0.000000 0.000000 0.000000 

0.000000 0.000000 0.000000 
0.000000 -0.000000 0.000000 
0.000000 0.000000 0.000000 

0.000000 0.000000 0.000000 
0.000000 -0.000000 0.000000 
0.000000 0.000000 0.000000 

0.000000 0.000000 0.000000 
0.000000 -0.000000 0.000000 
0.000000 0.000000 0.000000 

0.000000 0.000000 0.000000 
0.000000 -0.000000 0.000000 
0.000000 0.000000 0.000000 

0.000000 -0.000000 0.000000 
0.000000 -0.000000 0.000000 
0.000000 0.000000 0.000000 

0.000000 -0.000000 0.000000 
0.000000 -0.000000 0.000000 
0.000000 0.000000 0.000000 

0.000000 0.000000 0.000000 
0.000000 -0.000000 0.000000 
0.000000 0.000000 0.000000 

0.000000 0.000000 0.000000 
0.000000 -0.000000 0.000000 
0.000000 0.000000 0.000000 

0.000000 0.000000 0.000000 
0.000000 -0.000000 0.000000 
0.000000 0.000000 0.000000 

0.000000 0.000000 0.000000 
0.000000 -0.000000 0.000000 
0.000000 0.000000 0.000000 

0.000000 0.000000 0.000000 
0.000000 -0.000000 0.000000 
0.000000 0.000000 0.000000 

0.000000 -0.000000 0.000000 
0.000000 -0.000000 0.000000 
0.000000 0.000000 0.000000 

0.000000 0.000000 0.000000 
0.000000 -0.000000 0.000000 
0.000000 0.000000 0.000000 

-0.000000 0.000000 0.000000 
0.000000 0.000000 0.000000 
0.000000 0.000000 0.000000 

0.000000 0.000000 0.000000 
0.000000 -0.000000 0.000000 
0.000000 0.000000 0.000000 

0.000000 -0.000000 0.000000 
0.000000 -0.000000 0.000000 
0.000000 0.000000 0.000000 

0.000000 -0.000000 0.000000 
0.000000 -0.000000 0.000000 
0.000000 0.000000 0.000000 

0.000000 -0.000000 0.000000 
0.000000 -0.000000 0.000000 
0.000000 0.000000 0.000000 

0.000000 -0.000000 0.000000 
0.000000 -0.000000 0.000000 
0.000000 0.000000 0.000000 

0.000000 -0.000000 0.000000 
0.000000 -0.000000 0.000000 
0.000000 0.000000 0.000000 

-0.000000 0.000000 0.000000 
0.000000 -0.000000 0.000000 
0.000000 0.000000 0.000000 

-0.000000 0.000000 0.000000 
0.000000 0.000000 0.000000 
0.000000 0.000000 0.000000 

-0.000000 0.000000 0.000000 
0.000000 0.000000 0.000000 
0.000000 0.000000 0.000000 

0.000000 0.000000 0.000000 
0.000000 -0.000000 0.000000 
0.000000 0.000000 0.000000 

-0.000000 -0.000000 0.000000 
0.000000 0.000000 0.000000 
0.000000 0.000000 0.000000 

-0.000000 -0.000000 0.000000 
0.000000 -0.000000 0.000000 
0.000000 0.000000 0.000000 

0.000000 0.000000 0.000000 
0.000000 -0.000000 0.000000 
0.000000 0.000000 0.000000 

0.000000 0.000000 0.000000 
0.000000 0.000000 0.000000 
0.000000 0.000000 0.000000 

0.000000 0.000000 0.000000 
0.000000 -0.000000 0.000000 
0.000000 0.000000 0.000000 

-0.000000 -0.000000 0.000000 
0.000000 -0.000000 0.000000 
0.000000 0.000000 0.000000 

-0.000000 -0.000000 0.000000 
0.000000 -0.000000 0.000000 
0.000000 0.000000 0.000000 

0.000000 0.000000 0.000000 
0.000000 -0.000000 0.000000 
0.000000 0.000000 0.000000 

0.000000 0.000000 0.000000 
0.000000 -0.000000 0.000000 
0.000000 0.000000 0.000000 

0.000000 0.000000 0.000000 
0.000000 0.000000 0.000000 
0.000000 0.000000 0.000000 

0.000000 0.000000 0.000000 
0.000000 -0.000000 0.000000 
0.000000 0.000000 0.000000 

0.000000 -0.000000 0.000000 
0.000000 -0.000000 0.000000 
0.000000 0.000000 0.000000 

-0.000000 -0.000000 0.000000 
0.000000 0.000000 0.000000 
0.000000 0.000000 0.000000 

-0.000000 -0.000000 0.000000 
0.000000 0.000000 0.000000 
0.000000 0.000000 0.000000 

-0.000000 0.000000 0.000000 
0.000000 -0.000000 0.000000 
0.000000 0.000000 0.000000 

0.000000 0.000000 0.000000 
0.000000 -0.000000 0.000000 
0.000000 0.000000 0.000000 

-0.000000 0.000000 0.000000 
0.000000 -0.000000 0.000000 
0.000000 0.000000 0.000000 

0.000000 0.000000 0.000000 
0.000000 -0.000000 0.000000 
0.000000 0.000000 0.000000 

0.000000 -0.000000 0.000000 
0.000000 -0.000000 0.000000 
0.000000 0.000000 0.000000 

0.000000 -0.000000 0.000000 
0.000000 -0.000000 0.000000 
0.000000 0.000000 0.000000 

0.000000 -0.000000 0.000000 
0.000000 -0.000000 0.000000 
0.000000 0.000000 0.000000 

