# vtk DataFile Version 3.0 
vtk output 
ASCII 
DATASET UNSTRUCTURED_GRID 
POINTS 175 float 
-0.026061 -0.858310 0.000000 
-0.106992 -0.790255 0.000000 
-0.054870 -0.798487 0.000000 
-0.028809 -0.752604 0.000000 
-0.186430 -0.726179 0.000000 
-0.137056 -0.728705 0.000000 
-0.114311 -0.675058 0.000000 
-0.058186 -0.690724 0.000000 
-0.029377 -0.650547 0.000000 
-0.265318 -0.663023 0.000000 
-0.217198 -0.663823 0.000000 
-0.196633 -0.606527 0.000000 
-0.143120 -0.615235 0.000000 
-0.116563 -0.567967 0.000000 
-0.058945 -0.587612 0.000000 
-0.029568 -0.549492 0.000000 
-0.344206 -0.599868 0.000000 
-0.296791 -0.599861 0.000000 
-0.278030 -0.539918 0.000000 
-0.225992 -0.545784 0.000000 
-0.201664 -0.493667 0.000000 
-0.145749 -0.507141 0.000000 
-0.117890 -0.462798 0.000000 
-0.059328 -0.485504 0.000000 
-0.029759 -0.448438 0.000000 
-0.058559 -0.899061 0.000000 
-0.162226 -0.919904 0.000000 
-0.123292 -0.884286 0.000000 
-0.142917 -0.835303 0.000000 
-0.261851 -0.942060 0.000000 
-0.229092 -0.905033 0.000000 
-0.256854 -0.853801 0.000000 
-0.209613 -0.819689 0.000000 
-0.223062 -0.772115 0.000000 
-0.360414 -0.964360 0.000000 
-0.329787 -0.927237 0.000000 
-0.361761 -0.875435 0.000000 
-0.321587 -0.839026 0.000000 
-0.341985 -0.788792 0.000000 
-0.290702 -0.755993 0.000000 
-0.302189 -0.709258 0.000000 
-0.458977 -0.986660 0.000000 
-0.429420 -0.949586 0.000000 
-0.464588 -0.897544 0.000000 
-0.427556 -0.860516 0.000000 
-0.453135 -0.809001 0.000000 
-0.407738 -0.773686 0.000000 
-0.425037 -0.724258 0.000000 
-0.370772 -0.692629 0.000000 
-0.381315 -0.646401 0.000000 
-0.046960 -0.949876 0.000000 
-0.095301 -1.043922 0.000000 
-0.098873 -0.991275 0.000000 
-0.149405 -0.976077 0.000000 
-0.140093 -1.135626 0.000000 
-0.148617 -1.086928 0.000000 
-0.205981 -1.076691 0.000000 
-0.203197 -1.018487 0.000000 
-0.248777 -0.999341 0.000000 
-0.184111 -1.226590 0.000000 
-0.194039 -1.179499 0.000000 
-0.254475 -1.172199 0.000000 
-0.257893 -1.118089 0.000000 
-0.309886 -1.102717 0.000000 
-0.303554 -1.042172 0.000000 
-0.347255 -1.022014 0.000000 
-0.228129 -1.317553 0.000000 
-0.238687 -1.271329 0.000000 
-0.301302 -1.266377 0.000000 
-0.307162 -1.214338 0.000000 
-0.363386 -1.202217 0.000000 
-0.362692 -1.144706 0.000000 
-0.412122 -1.127413 0.000000 
-0.403017 -1.065266 0.000000 
-0.445733 -1.044687 0.000000 
-0.000000 -0.972491 0.000000 
0.043388 -1.068922 0.000000 
-0.000000 -1.038889 0.000000 
-0.043388 -1.068922 0.000000 
0.087158 -1.161118 0.000000 
0.043769 -1.137420 0.000000 
-0.000000 -1.175886 0.000000 
-0.043769 -1.137420 0.000000 
-0.087158 -1.161118 0.000000 
0.130831 -1.252248 0.000000 
0.087824 -1.230649 0.000000 
0.044436 -1.273349 0.000000 
-0.000000 -1.242284 0.000000 
-0.044436 -1.273349 0.000000 
-0.087824 -1.230649 0.000000 
-0.130831 -1.252248 0.000000 
0.174505 -1.343378 0.000000 
0.131782 -1.322812 0.000000 
0.088871 -1.368678 0.000000 
0.044532 -1.340814 0.000000 
-0.000000 -1.377215 0.000000 
-0.044532 -1.340814 0.000000 
-0.088871 -1.368678 0.000000 
-0.131782 -1.322812 0.000000 
-0.174505 -1.343378 0.000000 
0.046960 -0.949876 0.000000 
0.149405 -0.976077 0.000000 
0.098873 -0.991275 0.000000 
0.095301 -1.043922 0.000000 
0.248777 -0.999341 0.000000 
0.203197 -1.018487 0.000000 
0.205981 -1.076691 0.000000 
0.148617 -1.086928 0.000000 
0.140093 -1.135626 0.000000 
0.347255 -1.022014 0.000000 
0.303554 -1.042172 0.000000 
0.309886 -1.102717 0.000000 
0.257893 -1.118089 0.000000 
0.254475 -1.172199 0.000000 
0.194039 -1.179499 0.000000 
0.184111 -1.226590 0.000000 
0.445733 -1.044687 0.000000 
0.403017 -1.065266 0.000000 
0.412122 -1.127413 0.000000 
0.362692 -1.144706 0.000000 
0.363386 -1.202217 0.000000 
0.307162 -1.214338 0.000000 
0.301302 -1.266377 0.000000 
0.238687 -1.271329 0.000000 
0.228129 -1.317553 0.000000 
0.058559 -0.899061 0.000000 
0.142917 -0.835303 0.000000 
0.123292 -0.884286 0.000000 
0.162226 -0.919904 0.000000 
0.223062 -0.772115 0.000000 
0.209613 -0.819689 0.000000 
0.256854 -0.853801 0.000000 
0.229092 -0.905033 0.000000 
0.261851 -0.942060 0.000000 
0.302189 -0.709258 0.000000 
0.290702 -0.755993 0.000000 
0.341985 -0.788792 0.000000 
0.321587 -0.839026 0.000000 
0.361761 -0.875435 0.000000 
0.329787 -0.927237 0.000000 
0.360414 -0.964360 0.000000 
0.381315 -0.646401 0.000000 
0.370772 -0.692629 0.000000 
0.425037 -0.724258 0.000000 
0.407738 -0.773686 0.000000 
0.453135 -0.809001 0.000000 
0.427556 -0.860516 0.000000 
0.464588 -0.897544 0.000000 
0.429420 -0.949586 0.000000 
0.458977 -0.986660 0.000000 
0.026061 -0.858310 0.000000 
0.028809 -0.752604 0.000000 
0.054870 -0.798487 0.000000 
0.106992 -0.790255 0.000000 
0.029377 -0.650547 0.000000 
0.058186 -0.690724 0.000000 
0.114311 -0.675058 0.000000 
0.137056 -0.728705 0.000000 
0.186430 -0.726179 0.000000 
0.029568 -0.549492 0.000000 
0.058945 -0.587612 0.000000 
0.116563 -0.567967 0.000000 
0.143120 -0.615235 0.000000 
0.196633 -0.606527 0.000000 
0.217198 -0.663823 0.000000 
0.265318 -0.663023 0.000000 
0.029759 -0.448438 0.000000 
0.059328 -0.485504 0.000000 
0.117890 -0.462798 0.000000 
0.145749 -0.507141 0.000000 
0.201664 -0.493667 0.000000 
0.225992 -0.545784 0.000000 
0.278030 -0.539918 0.000000 
0.296791 -0.599861 0.000000 
0.344206 -0.599868 0.000000 
CELLS 175 350 
1 0 
1 1 
1 2 
1 3 
1 4 
1 5 
1 6 
1 7 
1 8 
1 9 
1 10 
1 11 
1 12 
1 13 
1 14 
1 15 
1 16 
1 17 
1 18 
1 19 
1 20 
1 21 
1 22 
1 23 
1 24 
1 25 
1 26 
1 27 
1 28 
1 29 
1 30 
1 31 
1 32 
1 33 
1 34 
1 35 
1 36 
1 37 
1 38 
1 39 
1 40 
1 41 
1 42 
1 43 
1 44 
1 45 
1 46 
1 47 
1 48 
1 49 
1 50 
1 51 
1 52 
1 53 
1 54 
1 55 
1 56 
1 57 
1 58 
1 59 
1 60 
1 61 
1 62 
1 63 
1 64 
1 65 
1 66 
1 67 
1 68 
1 69 
1 70 
1 71 
1 72 
1 73 
1 74 
1 75 
1 76 
1 77 
1 78 
1 79 
1 80 
1 81 
1 82 
1 83 
1 84 
1 85 
1 86 
1 87 
1 88 
1 89 
1 90 
1 91 
1 92 
1 93 
1 94 
1 95 
1 96 
1 97 
1 98 
1 99 
1 100 
1 101 
1 102 
1 103 
1 104 
1 105 
1 106 
1 107 
1 108 
1 109 
1 110 
1 111 
1 112 
1 113 
1 114 
1 115 
1 116 
1 117 
1 118 
1 119 
1 120 
1 121 
1 122 
1 123 
1 124 
1 125 
1 126 
1 127 
1 128 
1 129 
1 130 
1 131 
1 132 
1 133 
1 134 
1 135 
1 136 
1 137 
1 138 
1 139 
1 140 
1 141 
1 142 
1 143 
1 144 
1 145 
1 146 
1 147 
1 148 
1 149 
1 150 
1 151 
1 152 
1 153 
1 154 
1 155 
1 156 
1 157 
1 158 
1 159 
1 160 
1 161 
1 162 
1 163 
1 164 
1 165 
1 166 
1 167 
1 168 
1 169 
1 170 
1 171 
1 172 
1 173 
1 174 
CELL_TYPES 175 
1 
1 
1 
1 
1 
1 
1 
1 
1 
1 
1 
1 
1 
1 
1 
1 
1 
1 
1 
1 
1 
1 
1 
1 
1 
1 
1 
1 
1 
1 
1 
1 
1 
1 
1 
1 
1 
1 
1 
1 
1 
1 
1 
1 
1 
1 
1 
1 
1 
1 
1 
1 
1 
1 
1 
1 
1 
1 
1 
1 
1 
1 
1 
1 
1 
1 
1 
1 
1 
1 
1 
1 
1 
1 
1 
1 
1 
1 
1 
1 
1 
1 
1 
1 
1 
1 
1 
1 
1 
1 
1 
1 
1 
1 
1 
1 
1 
1 
1 
1 
1 
1 
1 
1 
1 
1 
1 
1 
1 
1 
1 
1 
1 
1 
1 
1 
1 
1 
1 
1 
1 
1 
1 
1 
1 
1 
1 
1 
1 
1 
1 
1 
1 
1 
1 
1 
1 
1 
1 
1 
1 
1 
1 
1 
1 
1 
1 
1 
1 
1 
1 
1 
1 
1 
1 
1 
1 
1 
1 
1 
1 
1 
1 
1 
1 
1 
1 
1 
1 
1 
1 
1 
1 
1 
1 
POINT_DATA 175 
VECTORS X_GC float 
-0.026061 -0.858310 0.000000 
-0.106992 -0.790255 0.000000 
-0.054870 -0.798487 0.000000 
-0.028809 -0.752604 0.000000 
-0.186430 -0.726179 0.000000 
-0.137056 -0.728705 0.000000 
-0.114311 -0.675058 0.000000 
-0.058186 -0.690724 0.000000 
-0.029377 -0.650547 0.000000 
-0.265318 -0.663023 0.000000 
-0.217198 -0.663823 0.000000 
-0.196633 -0.606527 0.000000 
-0.143120 -0.615235 0.000000 
-0.116563 -0.567967 0.000000 
-0.058945 -0.587612 0.000000 
-0.029568 -0.549492 0.000000 
-0.344206 -0.599868 0.000000 
-0.296791 -0.599861 0.000000 
-0.278030 -0.539918 0.000000 
-0.225992 -0.545784 0.000000 
-0.201664 -0.493667 0.000000 
-0.145749 -0.507141 0.000000 
-0.117890 -0.462798 0.000000 
-0.059328 -0.485504 0.000000 
-0.029759 -0.448438 0.000000 
-0.058559 -0.899061 0.000000 
-0.162226 -0.919904 0.000000 
-0.123292 -0.884286 0.000000 
-0.142917 -0.835303 0.000000 
-0.261851 -0.942060 0.000000 
-0.229092 -0.905033 0.000000 
-0.256854 -0.853801 0.000000 
-0.209613 -0.819689 0.000000 
-0.223062 -0.772115 0.000000 
-0.360414 -0.964360 0.000000 
-0.329787 -0.927237 0.000000 
-0.361761 -0.875435 0.000000 
-0.321587 -0.839026 0.000000 
-0.341985 -0.788792 0.000000 
-0.290702 -0.755993 0.000000 
-0.302189 -0.709258 0.000000 
-0.458977 -0.986660 0.000000 
-0.429420 -0.949586 0.000000 
-0.464588 -0.897544 0.000000 
-0.427556 -0.860516 0.000000 
-0.453135 -0.809001 0.000000 
-0.407738 -0.773686 0.000000 
-0.425037 -0.724258 0.000000 
-0.370772 -0.692629 0.000000 
-0.381315 -0.646401 0.000000 
-0.046960 -0.949876 0.000000 
-0.095301 -1.043922 0.000000 
-0.098873 -0.991275 0.000000 
-0.149405 -0.976077 0.000000 
-0.140093 -1.135626 0.000000 
-0.148617 -1.086928 0.000000 
-0.205981 -1.076691 0.000000 
-0.203197 -1.018487 0.000000 
-0.248777 -0.999341 0.000000 
-0.184111 -1.226590 0.000000 
-0.194039 -1.179499 0.000000 
-0.254475 -1.172199 0.000000 
-0.257893 -1.118089 0.000000 
-0.309886 -1.102717 0.000000 
-0.303554 -1.042172 0.000000 
-0.347255 -1.022014 0.000000 
-0.228129 -1.317553 0.000000 
-0.238687 -1.271329 0.000000 
-0.301302 -1.266377 0.000000 
-0.307162 -1.214338 0.000000 
-0.363386 -1.202217 0.000000 
-0.362692 -1.144706 0.000000 
-0.412122 -1.127413 0.000000 
-0.403017 -1.065266 0.000000 
-0.445733 -1.044687 0.000000 
-0.000000 -0.972491 0.000000 
0.043388 -1.068922 0.000000 
-0.000000 -1.038889 0.000000 
-0.043388 -1.068922 0.000000 
0.087158 -1.161118 0.000000 
0.043769 -1.137420 0.000000 
-0.000000 -1.175886 0.000000 
-0.043769 -1.137420 0.000000 
-0.087158 -1.161118 0.000000 
0.130831 -1.252248 0.000000 
0.087824 -1.230649 0.000000 
0.044436 -1.273349 0.000000 
-0.000000 -1.242284 0.000000 
-0.044436 -1.273349 0.000000 
-0.087824 -1.230649 0.000000 
-0.130831 -1.252248 0.000000 
0.174505 -1.343378 0.000000 
0.131782 -1.322812 0.000000 
0.088871 -1.368678 0.000000 
0.044532 -1.340814 0.000000 
-0.000000 -1.377215 0.000000 
-0.044532 -1.340814 0.000000 
-0.088871 -1.368678 0.000000 
-0.131782 -1.322812 0.000000 
-0.174505 -1.343378 0.000000 
0.046960 -0.949876 0.000000 
0.149405 -0.976077 0.000000 
0.098873 -0.991275 0.000000 
0.095301 -1.043922 0.000000 
0.248777 -0.999341 0.000000 
0.203197 -1.018487 0.000000 
0.205981 -1.076691 0.000000 
0.148617 -1.086928 0.000000 
0.140093 -1.135626 0.000000 
0.347255 -1.022014 0.000000 
0.303554 -1.042172 0.000000 
0.309886 -1.102717 0.000000 
0.257893 -1.118089 0.000000 
0.254475 -1.172199 0.000000 
0.194039 -1.179499 0.000000 
0.184111 -1.226590 0.000000 
0.445733 -1.044687 0.000000 
0.403017 -1.065266 0.000000 
0.412122 -1.127413 0.000000 
0.362692 -1.144706 0.000000 
0.363386 -1.202217 0.000000 
0.307162 -1.214338 0.000000 
0.301302 -1.266377 0.000000 
0.238687 -1.271329 0.000000 
0.228129 -1.317553 0.000000 
0.058559 -0.899061 0.000000 
0.142917 -0.835303 0.000000 
0.123292 -0.884286 0.000000 
0.162226 -0.919904 0.000000 
0.223062 -0.772115 0.000000 
0.209613 -0.819689 0.000000 
0.256854 -0.853801 0.000000 
0.229092 -0.905033 0.000000 
0.261851 -0.942060 0.000000 
0.302189 -0.709258 0.000000 
0.290702 -0.755993 0.000000 
0.341985 -0.788792 0.000000 
0.321587 -0.839026 0.000000 
0.361761 -0.875435 0.000000 
0.329787 -0.927237 0.000000 
0.360414 -0.964360 0.000000 
0.381315 -0.646401 0.000000 
0.370772 -0.692629 0.000000 
0.425037 -0.724258 0.000000 
0.407738 -0.773686 0.000000 
0.453135 -0.809001 0.000000 
0.427556 -0.860516 0.000000 
0.464588 -0.897544 0.000000 
0.429420 -0.949586 0.000000 
0.458977 -0.986660 0.000000 
0.026061 -0.858310 0.000000 
0.028809 -0.752604 0.000000 
0.054870 -0.798487 0.000000 
0.106992 -0.790255 0.000000 
0.029377 -0.650547 0.000000 
0.058186 -0.690724 0.000000 
0.114311 -0.675058 0.000000 
0.137056 -0.728705 0.000000 
0.186430 -0.726179 0.000000 
0.029568 -0.549492 0.000000 
0.058945 -0.587612 0.000000 
0.116563 -0.567967 0.000000 
0.143120 -0.615235 0.000000 
0.196633 -0.606527 0.000000 
0.217198 -0.663823 0.000000 
0.265318 -0.663023 0.000000 
0.029759 -0.448438 0.000000 
0.059328 -0.485504 0.000000 
0.117890 -0.462798 0.000000 
0.145749 -0.507141 0.000000 
0.201664 -0.493667 0.000000 
0.225992 -0.545784 0.000000 
0.278030 -0.539918 0.000000 
0.296791 -0.599861 0.000000 
0.344206 -0.599868 0.000000 
VECTORS X_EC float 
0.338794 0.087188 0.000000 
-0.609100 -0.831561 0.000000 
0.713312 -0.720420 0.000000 
0.374519 0.660151 0.000000 
0.423588 0.303420 0.000000 
-0.218274 0.337524 0.000000 
-0.513962 -0.386715 0.000000 
0.756418 -0.175229 0.000000 
0.381900 -0.717622 0.000000 
-0.550868 -0.549183 0.000000 
0.823577 -0.538388 0.000000 
0.556234 0.688108 0.000000 
-0.139443 0.805677 0.000000 
-0.484677 0.167553 0.000000 
0.766286 0.432768 0.000000 
0.384386 -0.081852 0.000000 
0.474677 0.598214 0.000000 
-0.141715 0.598117 0.000000 
-0.385608 -0.211111 0.000000 
0.937896 -0.131915 0.000000 
0.621631 -0.835495 0.000000 
-0.105264 -0.653596 0.000000 
-0.467428 0.747777 0.000000 
0.771260 -0.945694 0.000000 
0.386873 0.553917 0.000000 
0.761262 0.637322 0.000000 
0.108942 0.918699 0.000000 
-0.397202 0.437860 0.000000 
-0.142083 -0.223416 0.000000 
-0.595936 -0.782191 0.000000 
0.978194 0.717944 0.000000 
-0.660903 0.026319 0.000000 
0.724964 -0.434201 0.000000 
0.899809 0.923550 0.000000 
0.685384 -0.481138 0.000000 
0.287229 -0.982297 0.000000 
0.702895 0.318375 0.000000 
0.180633 -0.173144 0.000000 
0.445811 -0.851304 0.000000 
-0.220880 0.705910 0.000000 
-0.071546 0.074985 0.000000 
-0.033296 -0.180086 0.000000 
-0.417537 -0.680596 0.000000 
0.039645 0.616842 0.000000 
-0.441768 0.116971 0.000000 
-0.109248 -0.578480 0.000000 
-0.699407 0.944764 0.000000 
-0.474522 0.277485 0.000000 
0.820030 -0.149508 0.000000 
0.957100 -0.773580 0.000000 
0.610485 -0.676671 0.000000 
-0.761092 0.592948 0.000000 
-0.714655 -0.117790 0.000000 
-0.057734 -0.322957 0.000000 
-0.178789 -0.169048 0.000000 
-0.067979 -0.826474 0.000000 
0.677748 -0.964677 0.000000 
0.641556 0.249577 0.000000 
-0.765897 -0.008901 0.000000 
0.393446 -0.941039 0.000000 
0.522510 0.423231 0.000000 
-0.691820 0.324687 0.000000 
-0.647393 -0.405796 0.000000 
0.028512 -0.613322 0.000000 
-0.053800 0.569317 0.000000 
0.514316 0.297187 0.000000 
0.965681 0.286970 0.000000 
-0.897068 -0.337058 0.000000 
-0.083078 -0.403911 0.000000 
-0.006893 0.893564 0.000000 
0.724017 0.729931 0.000000 
0.714996 -0.046472 0.000000 
-0.642413 -0.279930 0.000000 
-0.760780 0.881090 0.000000 
-0.205471 0.603274 0.000000 
0.000000 -0.371370 0.000000 
-0.564049 0.930443 0.000000 
0.000000 0.525007 0.000000 
0.564049 0.930443 0.000000 
0.866949 0.175098 0.000000 
-0.569003 -0.144833 0.000000 
0.000000 0.374455 0.000000 
0.569003 -0.144833 0.000000 
-0.866949 0.175098 0.000000 
0.299194 -0.594652 0.000000 
0.858290 -0.886235 0.000000 
-0.577662 -0.309790 0.000000 
0.000000 -0.729168 0.000000 
0.577662 -0.309790 0.000000 
-0.858290 -0.886235 0.000000 
-0.299194 -0.594652 0.000000 
-0.268560 0.635599 0.000000 
0.286830 0.357957 0.000000 
0.844677 0.977155 0.000000 
-0.578910 0.600992 0.000000 
0.000000 -0.907604 0.000000 
0.578910 0.600992 0.000000 
-0.844677 0.977155 0.000000 
-0.286830 0.357957 0.000000 
0.268560 0.635599 0.000000 
-0.610485 -0.676671 0.000000 
0.057734 -0.322957 0.000000 
0.714655 -0.117790 0.000000 
0.761092 0.592948 0.000000 
0.765897 -0.008901 0.000000 
-0.641556 0.249577 0.000000 
-0.677748 -0.964677 0.000000 
0.067979 -0.826474 0.000000 
0.178789 -0.169048 0.000000 
-0.514316 0.297187 0.000000 
0.053800 0.569317 0.000000 
-0.028512 -0.613322 0.000000 
0.647393 -0.405796 0.000000 
0.691820 0.324687 0.000000 
-0.522510 0.423231 0.000000 
-0.393446 -0.941039 0.000000 
0.205471 0.603274 0.000000 
0.760780 0.881090 0.000000 
0.642413 -0.279930 0.000000 
-0.714996 -0.046472 0.000000 
-0.724017 0.729931 0.000000 
0.006894 0.893564 0.000000 
0.083078 -0.403911 0.000000 
0.897068 -0.337058 0.000000 
-0.965681 0.286970 0.000000 
-0.761262 0.637322 0.000000 
0.142083 -0.223416 0.000000 
0.397202 0.437860 0.000000 
-0.108942 0.918699 0.000000 
-0.899809 0.923550 0.000000 
-0.724964 -0.434201 0.000000 
0.660903 0.026319 0.000000 
-0.978194 0.717944 0.000000 
0.595936 -0.782190 0.000000 
0.071546 0.074985 0.000000 
0.220880 0.705910 0.000000 
-0.445811 -0.851304 0.000000 
-0.180633 -0.173144 0.000000 
-0.702895 0.318375 0.000000 
-0.287229 -0.982297 0.000000 
-0.685384 -0.481138 0.000000 
-0.957100 -0.773580 0.000000 
-0.820030 -0.149508 0.000000 
0.474522 0.277485 0.000000 
0.699407 0.944764 0.000000 
0.109248 -0.578480 0.000000 
0.441768 0.116971 0.000000 
-0.039645 0.616842 0.000000 
0.417537 -0.680596 0.000000 
0.033296 -0.180086 0.000000 
-0.338794 0.087188 0.000000 
-0.374519 0.660151 0.000000 
-0.713312 -0.720420 0.000000 
0.609100 -0.831561 0.000000 
-0.381900 -0.717622 0.000000 
-0.756418 -0.175229 0.000000 
0.513962 -0.386715 0.000000 
0.218274 0.337524 0.000000 
-0.423588 0.303420 0.000000 
-0.384386 -0.081852 0.000000 
-0.766286 0.432768 0.000000 
0.484677 0.167553 0.000000 
0.139443 0.805677 0.000000 
-0.556234 0.688108 0.000000 
-0.823577 -0.538388 0.000000 
0.550868 -0.549183 0.000000 
-0.386873 0.553917 0.000000 
-0.771260 -0.945694 0.000000 
0.467428 0.747777 0.000000 
0.105264 -0.653596 0.000000 
-0.621631 -0.835495 0.000000 
-0.937896 -0.131915 0.000000 
0.385608 -0.211111 0.000000 
0.141715 0.598117 0.000000 
-0.474677 0.598214 0.000000 
CELL_DATA 175 
SCALARS MASS float 
LOOKUP_TABLE default 
0.781831 
0.864274 
0.946717 
0.864274 
0.881307 
0.921110 
0.858535 
0.921110 
0.881307 
0.887046 
0.910001 
0.869829 
0.915556 
0.869829 
0.910001 
0.887046 
0.892784 
0.915740 
0.892784 
0.927218 
0.892784 
0.927218 
0.892784 
0.915740 
0.892784 
0.781831 
0.864274 
0.946717 
0.864274 
0.881307 
0.921110 
0.858535 
0.921110 
0.881307 
0.887046 
0.910001 
0.869829 
0.915556 
0.869829 
0.910001 
0.887046 
0.892784 
0.915740 
0.892784 
0.927218 
0.892784 
0.927218 
0.892784 
0.915740 
0.892784 
0.781831 
0.864274 
0.946717 
0.864274 
0.881307 
0.921110 
0.858535 
0.921110 
0.881307 
0.887046 
0.910001 
0.869829 
0.915556 
0.869829 
0.910001 
0.887046 
0.892784 
0.915740 
0.892784 
0.927218 
0.892784 
0.927218 
0.892784 
0.915740 
0.892784 
0.781831 
0.864274 
0.946717 
0.864274 
0.881307 
0.921110 
0.858535 
0.921110 
0.881307 
0.887046 
0.910001 
0.869829 
0.915556 
0.869829 
0.910001 
0.887046 
0.892784 
0.915740 
0.892784 
0.927218 
0.892784 
0.927218 
0.892784 
0.915740 
0.892784 
0.781831 
0.864274 
0.946717 
0.864274 
0.881307 
0.921110 
0.858535 
0.921110 
0.881307 
0.887046 
0.910001 
0.869829 
0.915556 
0.869829 
0.910001 
0.887046 
0.892784 
0.915740 
0.892784 
0.927218 
0.892784 
0.927218 
0.892784 
0.915740 
0.892784 
0.781831 
0.864274 
0.946717 
0.864274 
0.881307 
0.921110 
0.858535 
0.921110 
0.881307 
0.887046 
0.910001 
0.869829 
0.915556 
0.869829 
0.910001 
0.887046 
0.892784 
0.915740 
0.892784 
0.927218 
0.892784 
0.927218 
0.892784 
0.915740 
0.892784 
0.781831 
0.864274 
0.946717 
0.864274 
0.881307 
0.921110 
0.858535 
0.921110 
0.881307 
0.887046 
0.910001 
0.869829 
0.915556 
0.869829 
0.910001 
0.887046 
0.892784 
0.915740 
0.892784 
0.927218 
0.892784 
0.927218 
0.892784 
0.915740 
0.892784 
SCALARS MASS float 
LOOKUP_TABLE default 
0.781831 
0.864274 
0.946717 
0.864274 
0.881307 
0.921110 
0.858535 
0.921110 
0.881307 
0.887046 
0.910001 
0.869829 
0.915556 
0.869829 
0.910001 
0.887046 
0.892784 
0.915740 
0.892784 
0.927218 
0.892784 
0.927218 
0.892784 
0.915740 
0.892784 
0.781831 
0.864274 
0.946717 
0.864274 
0.881307 
0.921110 
0.858535 
0.921110 
0.881307 
0.887046 
0.910001 
0.869829 
0.915556 
0.869829 
0.910001 
0.887046 
0.892784 
0.915740 
0.892784 
0.927218 
0.892784 
0.927218 
0.892784 
0.915740 
0.892784 
0.781831 
0.864274 
0.946717 
0.864274 
0.881307 
0.921110 
0.858535 
0.921110 
0.881307 
0.887046 
0.910001 
0.869829 
0.915556 
0.869829 
0.910001 
0.887046 
0.892784 
0.915740 
0.892784 
0.927218 
0.892784 
0.927218 
0.892784 
0.915740 
0.892784 
0.781831 
0.864274 
0.946717 
0.864274 
0.881307 
0.921110 
0.858535 
0.921110 
0.881307 
0.887046 
0.910001 
0.869829 
0.915556 
0.869829 
0.910001 
0.887046 
0.892784 
0.915740 
0.892784 
0.927218 
0.892784 
0.927218 
0.892784 
0.915740 
0.892784 
0.781831 
0.864274 
0.946717 
0.864274 
0.881307 
0.921110 
0.858535 
0.921110 
0.881307 
0.887046 
0.910001 
0.869829 
0.915556 
0.869829 
0.910001 
0.887046 
0.892784 
0.915740 
0.892784 
0.927218 
0.892784 
0.927218 
0.892784 
0.915740 
0.892784 
0.781831 
0.864274 
0.946717 
0.864274 
0.881307 
0.921110 
0.858535 
0.921110 
0.881307 
0.887046 
0.910001 
0.869829 
0.915556 
0.869829 
0.910001 
0.887046 
0.892784 
0.915740 
0.892784 
0.927218 
0.892784 
0.927218 
0.892784 
0.915740 
0.892784 
0.781831 
0.864274 
0.946717 
0.864274 
0.881307 
0.921110 
0.858535 
0.921110 
0.881307 
0.887046 
0.910001 
0.869829 
0.915556 
0.869829 
0.910001 
0.887046 
0.892784 
0.915740 
0.892784 
0.927218 
0.892784 
0.927218 
0.892784 
0.915740 
0.892784 
SCALARS DENSITY float 
LOOKUP_TABLE default 
200.000000 
200.000000 
200.000000 
200.000000 
200.000000 
200.000000 
200.000000 
200.000000 
200.000000 
200.000000 
200.000000 
200.000000 
200.000000 
200.000000 
200.000000 
200.000000 
200.000000 
200.000000 
200.000000 
200.000000 
200.000000 
200.000000 
200.000000 
200.000000 
200.000000 
200.000000 
200.000000 
200.000000 
200.000000 
200.000000 
200.000000 
200.000000 
200.000000 
200.000000 
200.000000 
200.000000 
200.000000 
200.000000 
200.000000 
200.000000 
200.000000 
200.000000 
200.000000 
200.000000 
200.000000 
200.000000 
200.000000 
200.000000 
200.000000 
200.000000 
200.000000 
200.000000 
200.000000 
200.000000 
200.000000 
200.000000 
200.000000 
200.000000 
200.000000 
200.000000 
200.000000 
200.000000 
200.000000 
200.000000 
200.000000 
200.000000 
200.000000 
200.000000 
200.000000 
200.000000 
200.000000 
200.000000 
200.000000 
200.000000 
200.000000 
200.000000 
200.000000 
200.000000 
200.000000 
200.000000 
200.000000 
200.000000 
200.000000 
200.000000 
200.000000 
200.000000 
200.000000 
200.000000 
200.000000 
200.000000 
200.000000 
200.000000 
200.000000 
200.000000 
200.000000 
200.000000 
200.000000 
200.000000 
200.000000 
200.000000 
200.000000 
200.000000 
200.000000 
200.000000 
200.000000 
200.000000 
200.000000 
200.000000 
200.000000 
200.000000 
200.000000 
200.000000 
200.000000 
200.000000 
200.000000 
200.000000 
200.000000 
200.000000 
200.000000 
200.000000 
200.000000 
200.000000 
200.000000 
200.000000 
200.000000 
200.000000 
200.000000 
200.000000 
200.000000 
200.000000 
200.000000 
200.000000 
200.000000 
200.000000 
200.000000 
200.000000 
200.000000 
200.000000 
200.000000 
200.000000 
200.000000 
200.000000 
200.000000 
200.000000 
200.000000 
200.000000 
200.000000 
200.000000 
200.000000 
200.000000 
200.000000 
200.000000 
200.000000 
200.000000 
200.000000 
200.000000 
200.000000 
200.000000 
200.000000 
200.000000 
200.000000 
200.000000 
200.000000 
200.000000 
200.000000 
200.000000 
200.000000 
200.000000 
200.000000 
200.000000 
200.000000 
200.000000 
200.000000 
200.000000 
200.000000 
SCALARS ELEM_i float 
LOOKUP_TABLE default 
176 
203 
176 
177 
204 
204 
204 
177 
177 
231 
204 
205 
205 
205 
178 
178 
232 
232 
232 
205 
205 
205 
206 
178 
179 
176 
203 
203 
203 
229 
203 
230 
203 
204 
229 
229 
230 
230 
230 
231 
231 
256 
256 
257 
257 
257 
258 
258 
231 
231 
175 
202 
202 
202 
201 
201 
201 
202 
229 
200 
201 
228 
228 
228 
229 
229 
200 
227 
227 
228 
228 
228 
255 
256 
256 
175 
175 
175 
175 
147 
174 
174 
174 
201 
146 
146 
173 
173 
173 
200 
200 
146 
146 
146 
173 
172 
173 
200 
200 
200 
175 
148 
148 
148 
121 
148 
147 
147 
147 
121 
121 
120 
120 
120 
147 
146 
94 
94 
93 
120 
120 
120 
119 
119 
146 
176 
149 
149 
149 
150 
149 
122 
149 
121 
123 
123 
122 
122 
122 
121 
121 
123 
123 
96 
96 
95 
95 
95 
94 
94 
176 
177 
176 
149 
177 
177 
150 
150 
150 
178 
178 
151 
151 
151 
150 
123 
179 
178 
152 
151 
151 
151 
124 
124 
124 
VECTORS VELOCITY float 
0.000000 -4.230072 0.000000 
0.000000 -4.230072 0.000000 
0.000000 -4.230072 0.000000 
0.000000 -4.230072 0.000000 
0.000000 -4.230072 0.000000 
0.000000 -4.230072 0.000000 
-0.000000 -4.230072 0.000000 
-0.000000 -4.230072 0.000000 
-0.000000 -4.230072 0.000000 
0.000000 -4.230072 0.000000 
0.000000 -4.230072 0.000000 
-0.000000 -4.230072 0.000000 
-0.000000 -4.230072 0.000000 
0.000000 -4.230072 0.000000 
0.000000 -4.230072 0.000000 
0.000000 -4.230072 0.000000 
0.000000 -4.230072 0.000000 
0.000000 -4.230072 0.000000 
0.000000 -4.230072 0.000000 
-0.000000 -4.230072 0.000000 
0.000000 -4.230072 0.000000 
0.000000 -4.230072 0.000000 
0.000000 -4.230072 0.000000 
0.000000 -4.230072 0.000000 
0.000000 -4.230072 0.000000 
0.000000 -4.230072 0.000000 
-0.000000 -4.230072 0.000000 
0.000000 -4.230072 0.000000 
0.000000 -4.230072 0.000000 
-0.000000 -4.230072 0.000000 
-0.000000 -4.230072 0.000000 
-0.000000 -4.230072 0.000000 
-0.000000 -4.230072 0.000000 
-0.000000 -4.230072 0.000000 
-0.000000 -4.230072 0.000000 
-0.000000 -4.230072 0.000000 
-0.000000 -4.230072 0.000000 
-0.000000 -4.230072 0.000000 
-0.000000 -4.230072 0.000000 
-0.000000 -4.230072 0.000000 
-0.000000 -4.230072 0.000000 
0.000000 -4.230072 0.000000 
-0.000000 -4.230072 0.000000 
-0.000000 -4.230072 0.000000 
0.000000 -4.230072 0.000000 
-0.000000 -4.230072 0.000000 
-0.000000 -4.230072 0.000000 
0.000000 -4.230072 0.000000 
-0.000000 -4.230072 0.000000 
0.000000 -4.230072 0.000000 
0.000000 -4.230072 0.000000 
0.000000 -4.230072 0.000000 
0.000000 -4.230072 0.000000 
-0.000000 -4.230072 0.000000 
0.000000 -4.230072 0.000000 
0.000000 -4.230072 0.000000 
0.000000 -4.230072 0.000000 
0.000000 -4.230072 0.000000 
-0.000000 -4.230072 0.000000 
-0.000000 -4.230072 0.000000 
-0.000000 -4.230072 0.000000 
-0.000000 -4.230072 0.000000 
-0.000000 -4.230072 0.000000 
0.000000 -4.230072 0.000000 
0.000000 -4.230072 0.000000 
-0.000000 -4.230072 0.000000 
-0.000000 -4.230072 0.000000 
-0.000000 -4.230072 0.000000 
-0.000000 -4.230072 0.000000 
-0.000000 -4.230072 0.000000 
-0.000000 -4.230072 0.000000 
0.000000 -4.230072 0.000000 
-0.000000 -4.230072 0.000000 
0.000000 -4.230072 0.000000 
-0.000000 -4.230072 0.000000 
0.000000 -4.230072 0.000000 
-0.000000 -4.230072 0.000000 
-0.000000 -4.230072 0.000000 
-0.000000 -4.230072 0.000000 
-0.000000 -4.230072 0.000000 
-0.000000 -4.230072 0.000000 
0.000000 -4.230072 0.000000 
-0.000000 -4.230072 0.000000 
0.000000 -4.230072 0.000000 
-0.000000 -4.230072 0.000000 
-0.000000 -4.230072 0.000000 
0.000000 -4.230072 0.000000 
0.000000 -4.230072 0.000000 
0.000000 -4.230072 0.000000 
0.000000 -4.230072 0.000000 
0.000000 -4.230072 0.000000 
-0.000000 -4.230072 0.000000 
0.000000 -4.230072 0.000000 
-0.000000 -4.230072 0.000000 
0.000000 -4.230072 0.000000 
-0.000000 -4.230072 0.000000 
-0.000000 -4.230072 0.000000 
-0.000000 -4.230072 0.000000 
-0.000000 -4.230072 0.000000 
-0.000000 -4.230072 0.000000 
0.000000 -4.230072 0.000000 
0.000000 -4.230072 0.000000 
0.000000 -4.230072 0.000000 
-0.000000 -4.230072 0.000000 
0.000000 -4.230072 0.000000 
0.000000 -4.230072 0.000000 
0.000000 -4.230072 0.000000 
0.000000 -4.230072 0.000000 
-0.000000 -4.230072 0.000000 
0.000000 -4.230072 0.000000 
0.000000 -4.230072 0.000000 
-0.000000 -4.230072 0.000000 
0.000000 -4.230072 0.000000 
-0.000000 -4.230072 0.000000 
0.000000 -4.230072 0.000000 
-0.000000 -4.230072 0.000000 
-0.000000 -4.230072 0.000000 
-0.000000 -4.230072 0.000000 
-0.000000 -4.230072 0.000000 
-0.000000 -4.230072 0.000000 
-0.000000 -4.230072 0.000000 
0.000000 -4.230072 0.000000 
-0.000000 -4.230072 0.000000 
-0.000000 -4.230072 0.000000 
-0.000000 -4.230072 0.000000 
0.000000 -4.230072 0.000000 
-0.000000 -4.230072 0.000000 
-0.000000 -4.230072 0.000000 
0.000000 -4.230072 0.000000 
-0.000000 -4.230072 0.000000 
-0.000000 -4.230072 0.000000 
-0.000000 -4.230072 0.000000 
-0.000000 -4.230072 0.000000 
-0.000000 -4.230072 0.000000 
0.000000 -4.230072 0.000000 
0.000000 -4.230072 0.000000 
0.000000 -4.230072 0.000000 
0.000000 -4.230072 0.000000 
0.000000 -4.230072 0.000000 
0.000000 -4.230072 0.000000 
0.000000 -4.230072 0.000000 
0.000000 -4.230072 0.000000 
0.000000 -4.230072 0.000000 
-0.000000 -4.230072 0.000000 
0.000000 -4.230072 0.000000 
0.000000 -4.230072 0.000000 
0.000000 -4.230072 0.000000 
-0.000000 -4.230072 0.000000 
0.000000 -4.230072 0.000000 
-0.000000 -4.230072 0.000000 
0.000000 -4.230072 0.000000 
0.000000 -4.230072 0.000000 
0.000000 -4.230072 0.000000 
-0.000000 -4.230072 0.000000 
0.000000 -4.230072 0.000000 
0.000000 -4.230072 0.000000 
0.000000 -4.230072 0.000000 
0.000000 -4.230072 0.000000 
0.000000 -4.230072 0.000000 
0.000000 -4.230072 0.000000 
-0.000000 -4.230072 0.000000 
-0.000000 -4.230072 0.000000 
0.000000 -4.230072 0.000000 
0.000000 -4.230072 0.000000 
0.000000 -4.230072 0.000000 
0.000000 -4.230072 0.000000 
0.000000 -4.230072 0.000000 
0.000000 -4.230072 0.000000 
0.000000 -4.230072 0.000000 
0.000000 -4.230072 0.000000 
0.000000 -4.230072 0.000000 
0.000000 -4.230072 0.000000 
0.000000 -4.230072 0.000000 
0.000000 -4.230072 0.000000 
-0.000000 -4.230072 0.000000 
TENSORS STRESS float 
0.000000 0.000000 0.000000 
0.000000 0.000000 0.000000 
0.000000 0.000000 0.000000 

0.000000 0.000000 0.000000 
0.000000 0.000000 0.000000 
0.000000 0.000000 0.000000 

0.000000 0.000000 0.000000 
0.000000 0.000000 0.000000 
0.000000 0.000000 0.000000 

0.000000 0.000000 0.000000 
0.000000 0.000000 0.000000 
0.000000 0.000000 0.000000 

-0.000000 0.000000 0.000000 
0.000000 -0.000000 0.000000 
0.000000 0.000000 0.000000 

-0.000000 0.000000 0.000000 
0.000000 -0.000000 0.000000 
0.000000 0.000000 0.000000 

0.000000 -0.000000 0.000000 
0.000000 0.000000 0.000000 
0.000000 0.000000 0.000000 

0.000000 -0.000000 0.000000 
0.000000 0.000000 0.000000 
0.000000 0.000000 0.000000 

0.000000 -0.000000 0.000000 
0.000000 0.000000 0.000000 
0.000000 0.000000 0.000000 

0.000000 0.000000 0.000000 
0.000000 0.000000 0.000000 
0.000000 0.000000 0.000000 

-0.000000 0.000000 0.000000 
0.000000 -0.000000 0.000000 
0.000000 0.000000 0.000000 

-0.000000 0.000000 0.000000 
0.000000 0.000000 0.000000 
0.000000 0.000000 0.000000 

0.000000 0.000000 0.000000 
0.000000 0.000000 0.000000 
0.000000 0.000000 0.000000 

0.000000 0.000000 0.000000 
0.000000 0.000000 0.000000 
0.000000 0.000000 0.000000 

0.000000 0.000000 0.000000 
0.000000 0.000000 0.000000 
0.000000 0.000000 0.000000 

-0.000000 0.000000 0.000000 
0.000000 -0.000000 0.000000 
0.000000 0.000000 0.000000 

-0.000000 0.000000 0.000000 
0.000000 -0.000000 0.000000 
0.000000 0.000000 0.000000 

0.000000 0.000000 0.000000 
0.000000 0.000000 0.000000 
0.000000 0.000000 0.000000 

-0.000000 -0.000000 0.000000 
0.000000 -0.000000 0.000000 
0.000000 0.000000 0.000000 

-0.000000 -0.000000 0.000000 
0.000000 -0.000000 0.000000 
0.000000 0.000000 0.000000 

-0.000000 -0.000000 0.000000 
0.000000 -0.000000 0.000000 
0.000000 0.000000 0.000000 

0.000000 0.000000 0.000000 
0.000000 0.000000 0.000000 
0.000000 0.000000 0.000000 

0.000000 0.000000 0.000000 
0.000000 0.000000 0.000000 
0.000000 0.000000 0.000000 

0.000000 -0.000000 0.000000 
0.000000 0.000000 0.000000 
0.000000 0.000000 0.000000 

0.000000 -0.000000 0.000000 
0.000000 0.000000 0.000000 
0.000000 0.000000 0.000000 

-0.000000 0.000000 0.000000 
0.000000 -0.000000 0.000000 
0.000000 0.000000 0.000000 

-0.000000 0.000000 0.000000 
0.000000 -0.000000 0.000000 
0.000000 0.000000 0.000000 

0.000000 -0.000000 0.000000 
0.000000 0.000000 0.000000 
0.000000 0.000000 0.000000 

-0.000000 0.000000 0.000000 
0.000000 -0.000000 0.000000 
0.000000 0.000000 0.000000 

-0.000000 0.000000 0.000000 
0.000000 -0.000000 0.000000 
0.000000 0.000000 0.000000 

-0.000000 0.000000 0.000000 
0.000000 -0.000000 0.000000 
0.000000 0.000000 0.000000 

0.000000 -0.000000 0.000000 
0.000000 0.000000 0.000000 
0.000000 0.000000 0.000000 

-0.000000 0.000000 0.000000 
0.000000 0.000000 0.000000 
0.000000 0.000000 0.000000 

-0.000000 0.000000 0.000000 
0.000000 -0.000000 0.000000 
0.000000 0.000000 0.000000 

0.000000 0.000000 0.000000 
0.000000 0.000000 0.000000 
0.000000 0.000000 0.000000 

0.000000 -0.000000 0.000000 
0.000000 0.000000 0.000000 
0.000000 0.000000 0.000000 

-0.000000 -0.000000 0.000000 
0.000000 -0.000000 0.000000 
0.000000 0.000000 0.000000 

-0.000000 -0.000000 0.000000 
0.000000 -0.000000 0.000000 
0.000000 0.000000 0.000000 

-0.000000 -0.000000 0.000000 
0.000000 -0.000000 0.000000 
0.000000 0.000000 0.000000 

0.000000 0.000000 0.000000 
0.000000 0.000000 0.000000 
0.000000 0.000000 0.000000 

0.000000 -0.000000 0.000000 
0.000000 0.000000 0.000000 
0.000000 0.000000 0.000000 

-0.000000 0.000000 0.000000 
0.000000 -0.000000 0.000000 
0.000000 0.000000 0.000000 

0.000000 0.000000 0.000000 
0.000000 0.000000 0.000000 
0.000000 0.000000 0.000000 

-0.000000 0.000000 0.000000 
0.000000 -0.000000 0.000000 
0.000000 0.000000 0.000000 

-0.000000 0.000000 0.000000 
0.000000 -0.000000 0.000000 
0.000000 0.000000 0.000000 

-0.000000 -0.000000 0.000000 
0.000000 -0.000000 0.000000 
0.000000 0.000000 0.000000 

0.000000 0.000000 0.000000 
0.000000 0.000000 0.000000 
0.000000 0.000000 0.000000 

0.000000 0.000000 0.000000 
0.000000 0.000000 0.000000 
0.000000 0.000000 0.000000 

-0.000000 -0.000000 0.000000 
0.000000 -0.000000 0.000000 
0.000000 0.000000 0.000000 

-0.000000 0.000000 0.000000 
0.000000 -0.000000 0.000000 
0.000000 0.000000 0.000000 

0.000000 -0.000000 0.000000 
0.000000 0.000000 0.000000 
0.000000 0.000000 0.000000 

-0.000000 -0.000000 0.000000 
0.000000 -0.000000 0.000000 
0.000000 0.000000 0.000000 

-0.000000 -0.000000 0.000000 
0.000000 -0.000000 0.000000 
0.000000 0.000000 0.000000 

-0.000000 -0.000000 0.000000 
0.000000 -0.000000 0.000000 
0.000000 0.000000 0.000000 

-0.000000 0.000000 0.000000 
0.000000 -0.000000 0.000000 
0.000000 0.000000 0.000000 

0.000000 -0.000000 0.000000 
0.000000 0.000000 0.000000 
0.000000 0.000000 0.000000 

0.000000 -0.000000 0.000000 
0.000000 0.000000 0.000000 
0.000000 0.000000 0.000000 

0.000000 -0.000000 0.000000 
0.000000 0.000000 0.000000 
0.000000 0.000000 0.000000 

0.000000 0.000000 0.000000 
0.000000 0.000000 0.000000 
0.000000 0.000000 0.000000 

0.000000 0.000000 0.000000 
0.000000 0.000000 0.000000 
0.000000 0.000000 0.000000 

0.000000 -0.000000 0.000000 
0.000000 0.000000 0.000000 
0.000000 0.000000 0.000000 

0.000000 0.000000 0.000000 
0.000000 0.000000 0.000000 
0.000000 0.000000 0.000000 

0.000000 -0.000000 0.000000 
0.000000 0.000000 0.000000 
0.000000 0.000000 0.000000 

-0.000000 -0.000000 0.000000 
0.000000 -0.000000 0.000000 
0.000000 0.000000 0.000000 

-0.000000 0.000000 0.000000 
0.000000 -0.000000 0.000000 
0.000000 0.000000 0.000000 

-0.000000 0.000000 0.000000 
0.000000 -0.000000 0.000000 
0.000000 0.000000 0.000000 

-0.000000 0.000000 0.000000 
0.000000 -0.000000 0.000000 
0.000000 0.000000 0.000000 

0.000000 0.000000 0.000000 
0.000000 0.000000 0.000000 
0.000000 0.000000 0.000000 

0.000000 0.000000 0.000000 
0.000000 0.000000 0.000000 
0.000000 0.000000 0.000000 

0.000000 0.000000 0.000000 
0.000000 0.000000 0.000000 
0.000000 0.000000 0.000000 

0.000000 0.000000 0.000000 
0.000000 0.000000 0.000000 
0.000000 0.000000 0.000000 

-0.000000 0.000000 0.000000 
0.000000 -0.000000 0.000000 
0.000000 0.000000 0.000000 

-0.000000 -0.000000 0.000000 
0.000000 -0.000000 0.000000 
0.000000 0.000000 0.000000 

0.000000 -0.000000 0.000000 
0.000000 0.000000 0.000000 
0.000000 0.000000 0.000000 

-0.000000 -0.000000 0.000000 
0.000000 -0.000000 0.000000 
0.000000 0.000000 0.000000 

-0.000000 -0.000000 0.000000 
0.000000 -0.000000 0.000000 
0.000000 0.000000 0.000000 

-0.000000 0.000000 0.000000 
0.000000 -0.000000 0.000000 
0.000000 0.000000 0.000000 

-0.000000 -0.000000 0.000000 
0.000000 -0.000000 0.000000 
0.000000 0.000000 0.000000 

-0.000000 0.000000 0.000000 
0.000000 -0.000000 0.000000 
0.000000 0.000000 0.000000 

-0.000000 0.000000 0.000000 
0.000000 -0.000000 0.000000 
0.000000 0.000000 0.000000 

-0.000000 0.000000 0.000000 
0.000000 -0.000000 0.000000 
0.000000 0.000000 0.000000 

0.000000 0.000000 0.000000 
0.000000 0.000000 0.000000 
0.000000 0.000000 0.000000 

-0.000000 0.000000 0.000000 
0.000000 -0.000000 0.000000 
0.000000 0.000000 0.000000 

0.000000 0.000000 0.000000 
0.000000 0.000000 0.000000 
0.000000 0.000000 0.000000 

-0.000000 0.000000 0.000000 
0.000000 -0.000000 0.000000 
0.000000 0.000000 0.000000 

0.000000 -0.000000 0.000000 
0.000000 0.000000 0.000000 
0.000000 0.000000 0.000000 

0.000000 0.000000 0.000000 
0.000000 0.000000 0.000000 
0.000000 0.000000 0.000000 

0.000000 -0.000000 0.000000 
0.000000 0.000000 0.000000 
0.000000 0.000000 0.000000 

0.000000 0.000000 0.000000 
0.000000 -0.000000 0.000000 
0.000000 0.000000 0.000000 

0.000000 -0.000000 0.000000 
0.000000 0.000000 0.000000 
0.000000 0.000000 0.000000 

-0.000000 0.000000 0.000000 
0.000000 -0.000000 0.000000 
0.000000 0.000000 0.000000 

0.000000 -0.000000 0.000000 
0.000000 0.000000 0.000000 
0.000000 0.000000 0.000000 

-0.000000 0.000000 0.000000 
0.000000 -0.000000 0.000000 
0.000000 0.000000 0.000000 

-0.000000 0.000000 0.000000 
0.000000 -0.000000 0.000000 
0.000000 0.000000 0.000000 

-0.000000 0.000000 0.000000 
0.000000 -0.000000 0.000000 
0.000000 0.000000 0.000000 

0.000000 0.000000 0.000000 
0.000000 0.000000 0.000000 
0.000000 0.000000 0.000000 

-0.000000 -0.000000 0.000000 
0.000000 -0.000000 0.000000 
0.000000 0.000000 0.000000 

-0.000000 -0.000000 0.000000 
0.000000 -0.000000 0.000000 
0.000000 0.000000 0.000000 

-0.000000 -0.000000 0.000000 
0.000000 -0.000000 0.000000 
0.000000 0.000000 0.000000 

0.000000 -0.000000 0.000000 
0.000000 0.000000 0.000000 
0.000000 0.000000 0.000000 

0.000000 -0.000000 0.000000 
0.000000 0.000000 0.000000 
0.000000 0.000000 0.000000 

-0.000000 -0.000000 0.000000 
0.000000 -0.000000 0.000000 
0.000000 0.000000 0.000000 

0.000000 -0.000000 0.000000 
0.000000 0.000000 0.000000 
0.000000 0.000000 0.000000 

0.000000 0.000000 0.000000 
0.000000 0.000000 0.000000 
0.000000 0.000000 0.000000 

0.000000 -0.000000 0.000000 
0.000000 0.000000 0.000000 
0.000000 0.000000 0.000000 

-0.000000 -0.000000 0.000000 
0.000000 0.000000 0.000000 
0.000000 0.000000 0.000000 

-0.000000 -0.000000 0.000000 
0.000000 -0.000000 0.000000 
0.000000 0.000000 0.000000 

-0.000000 0.000000 0.000000 
0.000000 -0.000000 0.000000 
0.000000 0.000000 0.000000 

-0.000000 0.000000 0.000000 
0.000000 -0.000000 0.000000 
0.000000 0.000000 0.000000 

-0.000000 -0.000000 0.000000 
0.000000 -0.000000 0.000000 
0.000000 0.000000 0.000000 

-0.000000 -0.000000 0.000000 
0.000000 -0.000000 0.000000 
0.000000 0.000000 0.000000 

0.000000 -0.000000 0.000000 
0.000000 0.000000 0.000000 
0.000000 0.000000 0.000000 

0.000000 -0.000000 0.000000 
0.000000 0.000000 0.000000 
0.000000 0.000000 0.000000 

-0.000000 -0.000000 0.000000 
0.000000 -0.000000 0.000000 
0.000000 0.000000 0.000000 

0.000000 -0.000000 0.000000 
0.000000 0.000000 0.000000 
0.000000 0.000000 0.000000 

0.000000 0.000000 0.000000 
0.000000 0.000000 0.000000 
0.000000 0.000000 0.000000 

-0.000000 -0.000000 0.000000 
0.000000 -0.000000 0.000000 
0.000000 0.000000 0.000000 

0.000000 0.000000 0.000000 
0.000000 0.000000 0.000000 
0.000000 0.000000 0.000000 

-0.000000 0.000000 0.000000 
0.000000 -0.000000 0.000000 
0.000000 0.000000 0.000000 

0.000000 -0.000000 0.000000 
0.000000 0.000000 0.000000 
0.000000 0.000000 0.000000 

-0.000000 -0.000000 0.000000 
0.000000 -0.000000 0.000000 
0.000000 0.000000 0.000000 

0.000000 0.000000 0.000000 
0.000000 0.000000 0.000000 
0.000000 0.000000 0.000000 

-0.000000 0.000000 0.000000 
0.000000 -0.000000 0.000000 
0.000000 0.000000 0.000000 

0.000000 -0.000000 0.000000 
0.000000 0.000000 0.000000 
0.000000 0.000000 0.000000 

-0.000000 0.000000 0.000000 
0.000000 -0.000000 0.000000 
0.000000 0.000000 0.000000 

0.000000 0.000000 0.000000 
0.000000 0.000000 0.000000 
0.000000 0.000000 0.000000 

-0.000000 -0.000000 0.000000 
0.000000 -0.000000 0.000000 
0.000000 0.000000 0.000000 

0.000000 -0.000000 0.000000 
0.000000 0.000000 0.000000 
0.000000 0.000000 0.000000 

0.000000 -0.000000 0.000000 
0.000000 0.000000 0.000000 
0.000000 0.000000 0.000000 

-0.000000 -0.000000 0.000000 
0.000000 0.000000 0.000000 
0.000000 0.000000 0.000000 

0.000000 -0.000000 0.000000 
0.000000 0.000000 0.000000 
0.000000 0.000000 0.000000 

-0.000000 -0.000000 0.000000 
0.000000 -0.000000 0.000000 
0.000000 0.000000 0.000000 

-0.000000 -0.000000 0.000000 
0.000000 -0.000000 0.000000 
0.000000 0.000000 0.000000 

-0.000000 -0.000000 0.000000 
0.000000 -0.000000 0.000000 
0.000000 0.000000 0.000000 

-0.000000 0.000000 0.000000 
0.000000 -0.000000 0.000000 
0.000000 0.000000 0.000000 

0.000000 0.000000 0.000000 
0.000000 0.000000 0.000000 
0.000000 0.000000 0.000000 

0.000000 0.000000 0.000000 
0.000000 0.000000 0.000000 
0.000000 0.000000 0.000000 

0.000000 0.000000 0.000000 
0.000000 0.000000 0.000000 
0.000000 0.000000 0.000000 

0.000000 -0.000000 0.000000 
0.000000 0.000000 0.000000 
0.000000 0.000000 0.000000 

0.000000 -0.000000 0.000000 
0.000000 0.000000 0.000000 
0.000000 0.000000 0.000000 

0.000000 -0.000000 0.000000 
0.000000 0.000000 0.000000 
0.000000 0.000000 0.000000 

-0.000000 0.000000 0.000000 
0.000000 -0.000000 0.000000 
0.000000 0.000000 0.000000 

0.000000 -0.000000 0.000000 
0.000000 0.000000 0.000000 
0.000000 0.000000 0.000000 

0.000000 0.000000 0.000000 
0.000000 0.000000 0.000000 
0.000000 0.000000 0.000000 

0.000000 -0.000000 0.000000 
0.000000 0.000000 0.000000 
0.000000 0.000000 0.000000 

0.000000 0.000000 0.000000 
0.000000 -0.000000 0.000000 
0.000000 0.000000 0.000000 

0.000000 0.000000 0.000000 
0.000000 0.000000 0.000000 
0.000000 0.000000 0.000000 

0.000000 0.000000 0.000000 
0.000000 0.000000 0.000000 
0.000000 0.000000 0.000000 

0.000000 -0.000000 0.000000 
0.000000 0.000000 0.000000 
0.000000 0.000000 0.000000 

-0.000000 -0.000000 0.000000 
0.000000 0.000000 0.000000 
0.000000 0.000000 0.000000 

0.000000 0.000000 0.000000 
0.000000 0.000000 0.000000 
0.000000 0.000000 0.000000 

-0.000000 0.000000 0.000000 
0.000000 -0.000000 0.000000 
0.000000 0.000000 0.000000 

0.000000 0.000000 0.000000 
0.000000 0.000000 0.000000 
0.000000 0.000000 0.000000 

-0.000000 -0.000000 0.000000 
0.000000 -0.000000 0.000000 
0.000000 0.000000 0.000000 

0.000000 -0.000000 0.000000 
0.000000 0.000000 0.000000 
0.000000 0.000000 0.000000 

-0.000000 -0.000000 0.000000 
0.000000 -0.000000 0.000000 
0.000000 0.000000 0.000000 

-0.000000 -0.000000 0.000000 
0.000000 -0.000000 0.000000 
0.000000 0.000000 0.000000 

-0.000000 -0.000000 0.000000 
0.000000 -0.000000 0.000000 
0.000000 0.000000 0.000000 

-0.000000 -0.000000 0.000000 
0.000000 -0.000000 0.000000 
0.000000 0.000000 0.000000 

-0.000000 0.000000 0.000000 
0.000000 -0.000000 0.000000 
0.000000 0.000000 0.000000 

0.000000 -0.000000 0.000000 
0.000000 0.000000 0.000000 
0.000000 0.000000 0.000000 

-0.000000 -0.000000 0.000000 
0.000000 -0.000000 0.000000 
0.000000 0.000000 0.000000 

-0.000000 0.000000 0.000000 
0.000000 -0.000000 0.000000 
0.000000 0.000000 0.000000 

0.000000 0.000000 0.000000 
0.000000 0.000000 0.000000 
0.000000 0.000000 0.000000 

0.000000 -0.000000 0.000000 
0.000000 0.000000 0.000000 
0.000000 0.000000 0.000000 

-0.000000 -0.000000 0.000000 
0.000000 -0.000000 0.000000 
0.000000 0.000000 0.000000 

0.000000 -0.000000 0.000000 
0.000000 0.000000 0.000000 
0.000000 0.000000 0.000000 

-0.000000 -0.000000 0.000000 
0.000000 0.000000 0.000000 
0.000000 0.000000 0.000000 

0.000000 -0.000000 0.000000 
0.000000 0.000000 0.000000 
0.000000 0.000000 0.000000 

0.000000 0.000000 0.000000 
0.000000 0.000000 0.000000 
0.000000 0.000000 0.000000 

0.000000 -0.000000 0.000000 
0.000000 0.000000 0.000000 
0.000000 0.000000 0.000000 

-0.000000 -0.000000 0.000000 
0.000000 -0.000000 0.000000 
0.000000 0.000000 0.000000 

0.000000 0.000000 0.000000 
0.000000 0.000000 0.000000 
0.000000 0.000000 0.000000 

-0.000000 -0.000000 0.000000 
0.000000 -0.000000 0.000000 
0.000000 0.000000 0.000000 

0.000000 -0.000000 0.000000 
0.000000 0.000000 0.000000 
0.000000 0.000000 0.000000 

TENSORS STRAIN float 
-0.000000 0.000000 0.000000 
0.000000 0.000000 0.000000 
0.000000 0.000000 0.000000 

-0.000000 0.000000 0.000000 
0.000000 0.000000 0.000000 
0.000000 0.000000 0.000000 

-0.000000 0.000000 0.000000 
0.000000 0.000000 0.000000 
0.000000 0.000000 0.000000 

0.000000 0.000000 0.000000 
0.000000 0.000000 0.000000 
0.000000 0.000000 0.000000 

-0.000000 0.000000 0.000000 
0.000000 0.000000 0.000000 
0.000000 0.000000 0.000000 

-0.000000 0.000000 0.000000 
0.000000 0.000000 0.000000 
0.000000 0.000000 0.000000 

-0.000000 -0.000000 0.000000 
0.000000 0.000000 0.000000 
0.000000 0.000000 0.000000 

0.000000 -0.000000 0.000000 
0.000000 0.000000 0.000000 
0.000000 0.000000 0.000000 

0.000000 -0.000000 0.000000 
0.000000 0.000000 0.000000 
0.000000 0.000000 0.000000 

0.000000 0.000000 0.000000 
0.000000 0.000000 0.000000 
0.000000 0.000000 0.000000 

-0.000000 0.000000 0.000000 
0.000000 0.000000 0.000000 
0.000000 0.000000 0.000000 

-0.000000 0.000000 0.000000 
0.000000 0.000000 0.000000 
0.000000 0.000000 0.000000 

-0.000000 0.000000 0.000000 
0.000000 0.000000 0.000000 
0.000000 0.000000 0.000000 

-0.000000 0.000000 0.000000 
0.000000 0.000000 0.000000 
0.000000 0.000000 0.000000 

-0.000000 0.000000 0.000000 
0.000000 0.000000 0.000000 
0.000000 0.000000 0.000000 

-0.000000 0.000000 0.000000 
0.000000 0.000000 0.000000 
0.000000 0.000000 0.000000 

0.000000 0.000000 0.000000 
0.000000 -0.000000 0.000000 
0.000000 0.000000 0.000000 

0.000000 0.000000 0.000000 
0.000000 -0.000000 0.000000 
0.000000 0.000000 0.000000 

0.000000 -0.000000 0.000000 
0.000000 -0.000000 0.000000 
0.000000 0.000000 0.000000 

-0.000000 -0.000000 0.000000 
0.000000 -0.000000 0.000000 
0.000000 0.000000 0.000000 

0.000000 -0.000000 0.000000 
0.000000 -0.000000 0.000000 
0.000000 0.000000 0.000000 

0.000000 0.000000 0.000000 
0.000000 -0.000000 0.000000 
0.000000 0.000000 0.000000 

0.000000 0.000000 0.000000 
0.000000 -0.000000 0.000000 
0.000000 0.000000 0.000000 

-0.000000 -0.000000 0.000000 
0.000000 0.000000 0.000000 
0.000000 0.000000 0.000000 

-0.000000 -0.000000 0.000000 
0.000000 0.000000 0.000000 
0.000000 0.000000 0.000000 

-0.000000 0.000000 0.000000 
0.000000 0.000000 0.000000 
0.000000 0.000000 0.000000 

-0.000000 0.000000 0.000000 
0.000000 0.000000 0.000000 
0.000000 0.000000 0.000000 

-0.000000 -0.000000 0.000000 
0.000000 0.000000 0.000000 
0.000000 0.000000 0.000000 

-0.000000 0.000000 0.000000 
0.000000 0.000000 0.000000 
0.000000 0.000000 0.000000 

-0.000000 0.000000 0.000000 
0.000000 0.000000 0.000000 
0.000000 0.000000 0.000000 

-0.000000 0.000000 0.000000 
0.000000 0.000000 0.000000 
0.000000 0.000000 0.000000 

-0.000000 -0.000000 0.000000 
0.000000 0.000000 0.000000 
0.000000 0.000000 0.000000 

-0.000000 0.000000 0.000000 
0.000000 0.000000 0.000000 
0.000000 0.000000 0.000000 

-0.000000 0.000000 0.000000 
0.000000 -0.000000 0.000000 
0.000000 0.000000 0.000000 

-0.000000 0.000000 0.000000 
0.000000 0.000000 0.000000 
0.000000 0.000000 0.000000 

-0.000000 -0.000000 0.000000 
0.000000 0.000000 0.000000 
0.000000 0.000000 0.000000 

0.000000 -0.000000 0.000000 
0.000000 -0.000000 0.000000 
0.000000 0.000000 0.000000 

-0.000000 -0.000000 0.000000 
0.000000 -0.000000 0.000000 
0.000000 0.000000 0.000000 

-0.000000 -0.000000 0.000000 
0.000000 -0.000000 0.000000 
0.000000 0.000000 0.000000 

-0.000000 0.000000 0.000000 
0.000000 0.000000 0.000000 
0.000000 0.000000 0.000000 

0.000000 -0.000000 0.000000 
0.000000 0.000000 0.000000 
0.000000 0.000000 0.000000 

-0.000000 0.000000 0.000000 
0.000000 -0.000000 0.000000 
0.000000 0.000000 0.000000 

-0.000000 0.000000 0.000000 
0.000000 0.000000 0.000000 
0.000000 0.000000 0.000000 

-0.000000 0.000000 0.000000 
0.000000 0.000000 0.000000 
0.000000 0.000000 0.000000 

-0.000000 0.000000 0.000000 
0.000000 0.000000 0.000000 
0.000000 0.000000 0.000000 

-0.000000 -0.000000 0.000000 
0.000000 -0.000000 0.000000 
0.000000 0.000000 0.000000 

0.000000 0.000000 0.000000 
0.000000 -0.000000 0.000000 
0.000000 0.000000 0.000000 

0.000000 0.000000 0.000000 
0.000000 -0.000000 0.000000 
0.000000 0.000000 0.000000 

0.000000 -0.000000 0.000000 
0.000000 -0.000000 0.000000 
0.000000 0.000000 0.000000 

0.000000 0.000000 0.000000 
0.000000 -0.000000 0.000000 
0.000000 0.000000 0.000000 

-0.000000 -0.000000 0.000000 
0.000000 0.000000 0.000000 
0.000000 0.000000 0.000000 

-0.000000 -0.000000 0.000000 
0.000000 -0.000000 0.000000 
0.000000 0.000000 0.000000 

-0.000000 -0.000000 0.000000 
0.000000 0.000000 0.000000 
0.000000 0.000000 0.000000 

-0.000000 -0.000000 0.000000 
0.000000 0.000000 0.000000 
0.000000 0.000000 0.000000 

-0.000000 0.000000 0.000000 
0.000000 0.000000 0.000000 
0.000000 0.000000 0.000000 

0.000000 -0.000000 0.000000 
0.000000 0.000000 0.000000 
0.000000 0.000000 0.000000 

0.000000 -0.000000 0.000000 
0.000000 -0.000000 0.000000 
0.000000 0.000000 0.000000 

-0.000000 -0.000000 0.000000 
0.000000 0.000000 0.000000 
0.000000 0.000000 0.000000 

-0.000000 0.000000 0.000000 
0.000000 0.000000 0.000000 
0.000000 0.000000 0.000000 

-0.000000 0.000000 0.000000 
0.000000 0.000000 0.000000 
0.000000 0.000000 0.000000 

-0.000000 -0.000000 0.000000 
0.000000 0.000000 0.000000 
0.000000 0.000000 0.000000 

-0.000000 0.000000 0.000000 
0.000000 0.000000 0.000000 
0.000000 0.000000 0.000000 

-0.000000 -0.000000 0.000000 
0.000000 0.000000 0.000000 
0.000000 0.000000 0.000000 

-0.000000 -0.000000 0.000000 
0.000000 0.000000 0.000000 
0.000000 0.000000 0.000000 

-0.000000 0.000000 0.000000 
0.000000 0.000000 0.000000 
0.000000 0.000000 0.000000 

-0.000000 0.000000 0.000000 
0.000000 0.000000 0.000000 
0.000000 0.000000 0.000000 

-0.000000 0.000000 0.000000 
0.000000 -0.000000 0.000000 
0.000000 0.000000 0.000000 

-0.000000 0.000000 0.000000 
0.000000 0.000000 0.000000 
0.000000 0.000000 0.000000 

-0.000000 0.000000 0.000000 
0.000000 0.000000 0.000000 
0.000000 0.000000 0.000000 

-0.000000 0.000000 0.000000 
0.000000 0.000000 0.000000 
0.000000 0.000000 0.000000 

-0.000000 0.000000 0.000000 
0.000000 0.000000 0.000000 
0.000000 0.000000 0.000000 

-0.000000 0.000000 0.000000 
0.000000 0.000000 0.000000 
0.000000 0.000000 0.000000 

-0.000000 -0.000000 0.000000 
0.000000 0.000000 0.000000 
0.000000 0.000000 0.000000 

0.000000 -0.000000 0.000000 
0.000000 0.000000 0.000000 
0.000000 0.000000 0.000000 

0.000000 -0.000000 0.000000 
0.000000 -0.000000 0.000000 
0.000000 0.000000 0.000000 

-0.000000 -0.000000 0.000000 
0.000000 0.000000 0.000000 
0.000000 0.000000 0.000000 

0.000000 0.000000 0.000000 
0.000000 -0.000000 0.000000 
0.000000 0.000000 0.000000 

0.000000 -0.000000 0.000000 
0.000000 -0.000000 0.000000 
0.000000 0.000000 0.000000 

0.000000 0.000000 0.000000 
0.000000 -0.000000 0.000000 
0.000000 0.000000 0.000000 

0.000000 0.000000 0.000000 
0.000000 -0.000000 0.000000 
0.000000 0.000000 0.000000 

0.000000 0.000000 0.000000 
0.000000 -0.000000 0.000000 
0.000000 0.000000 0.000000 

0.000000 0.000000 0.000000 
0.000000 -0.000000 0.000000 
0.000000 0.000000 0.000000 

0.000000 0.000000 0.000000 
0.000000 -0.000000 0.000000 
0.000000 0.000000 0.000000 

-0.000000 0.000000 0.000000 
0.000000 0.000000 0.000000 
0.000000 0.000000 0.000000 

-0.000000 0.000000 0.000000 
0.000000 -0.000000 0.000000 
0.000000 0.000000 0.000000 

-0.000000 -0.000000 0.000000 
0.000000 0.000000 0.000000 
0.000000 0.000000 0.000000 

0.000000 0.000000 0.000000 
0.000000 0.000000 0.000000 
0.000000 0.000000 0.000000 

0.000000 -0.000000 0.000000 
0.000000 -0.000000 0.000000 
0.000000 0.000000 0.000000 

0.000000 0.000000 0.000000 
0.000000 -0.000000 0.000000 
0.000000 0.000000 0.000000 

-0.000000 -0.000000 0.000000 
0.000000 0.000000 0.000000 
0.000000 0.000000 0.000000 

-0.000000 0.000000 0.000000 
0.000000 -0.000000 0.000000 
0.000000 0.000000 0.000000 

-0.000000 -0.000000 0.000000 
0.000000 0.000000 0.000000 
0.000000 0.000000 0.000000 

-0.000000 0.000000 0.000000 
0.000000 -0.000000 0.000000 
0.000000 0.000000 0.000000 

0.000000 0.000000 0.000000 
0.000000 -0.000000 0.000000 
0.000000 0.000000 0.000000 

-0.000000 0.000000 0.000000 
0.000000 0.000000 0.000000 
0.000000 0.000000 0.000000 

-0.000000 0.000000 0.000000 
0.000000 0.000000 0.000000 
0.000000 0.000000 0.000000 

-0.000000 -0.000000 0.000000 
0.000000 0.000000 0.000000 
0.000000 0.000000 0.000000 

-0.000000 -0.000000 0.000000 
0.000000 -0.000000 0.000000 
0.000000 0.000000 0.000000 

-0.000000 -0.000000 0.000000 
0.000000 -0.000000 0.000000 
0.000000 0.000000 0.000000 

-0.000000 -0.000000 0.000000 
0.000000 0.000000 0.000000 
0.000000 0.000000 0.000000 

-0.000000 -0.000000 0.000000 
0.000000 0.000000 0.000000 
0.000000 0.000000 0.000000 

-0.000000 -0.000000 0.000000 
0.000000 -0.000000 0.000000 
0.000000 0.000000 0.000000 

-0.000000 -0.000000 0.000000 
0.000000 0.000000 0.000000 
0.000000 0.000000 0.000000 

-0.000000 0.000000 0.000000 
0.000000 0.000000 0.000000 
0.000000 0.000000 0.000000 

0.000000 -0.000000 0.000000 
0.000000 0.000000 0.000000 
0.000000 0.000000 0.000000 

-0.000000 -0.000000 0.000000 
0.000000 0.000000 0.000000 
0.000000 0.000000 0.000000 

-0.000000 -0.000000 0.000000 
0.000000 -0.000000 0.000000 
0.000000 0.000000 0.000000 

-0.000000 0.000000 0.000000 
0.000000 0.000000 0.000000 
0.000000 0.000000 0.000000 

-0.000000 0.000000 0.000000 
0.000000 -0.000000 0.000000 
0.000000 0.000000 0.000000 

0.000000 -0.000000 0.000000 
0.000000 -0.000000 0.000000 
0.000000 0.000000 0.000000 

0.000000 -0.000000 0.000000 
0.000000 -0.000000 0.000000 
0.000000 0.000000 0.000000 

-0.000000 -0.000000 0.000000 
0.000000 0.000000 0.000000 
0.000000 0.000000 0.000000 

-0.000000 -0.000000 0.000000 
0.000000 0.000000 0.000000 
0.000000 0.000000 0.000000 

-0.000000 -0.000000 0.000000 
0.000000 0.000000 0.000000 
0.000000 0.000000 0.000000 

0.000000 -0.000000 0.000000 
0.000000 0.000000 0.000000 
0.000000 0.000000 0.000000 

-0.000000 0.000000 0.000000 
0.000000 0.000000 0.000000 
0.000000 0.000000 0.000000 

0.000000 -0.000000 0.000000 
0.000000 -0.000000 0.000000 
0.000000 0.000000 0.000000 

0.000000 0.000000 0.000000 
0.000000 -0.000000 0.000000 
0.000000 0.000000 0.000000 

-0.000000 0.000000 0.000000 
0.000000 0.000000 0.000000 
0.000000 0.000000 0.000000 

-0.000000 -0.000000 0.000000 
0.000000 0.000000 0.000000 
0.000000 0.000000 0.000000 

-0.000000 -0.000000 0.000000 
0.000000 0.000000 0.000000 
0.000000 0.000000 0.000000 

-0.000000 0.000000 0.000000 
0.000000 0.000000 0.000000 
0.000000 0.000000 0.000000 

-0.000000 0.000000 0.000000 
0.000000 0.000000 0.000000 
0.000000 0.000000 0.000000 

-0.000000 -0.000000 0.000000 
0.000000 0.000000 0.000000 
0.000000 0.000000 0.000000 

-0.000000 0.000000 0.000000 
0.000000 -0.000000 0.000000 
0.000000 0.000000 0.000000 

-0.000000 0.000000 0.000000 
0.000000 0.000000 0.000000 
0.000000 0.000000 0.000000 

-0.000000 -0.000000 0.000000 
0.000000 0.000000 0.000000 
0.000000 0.000000 0.000000 

-0.000000 -0.000000 0.000000 
0.000000 0.000000 0.000000 
0.000000 0.000000 0.000000 

-0.000000 -0.000000 0.000000 
0.000000 0.000000 0.000000 
0.000000 0.000000 0.000000 

-0.000000 -0.000000 0.000000 
0.000000 0.000000 0.000000 
0.000000 0.000000 0.000000 

-0.000000 -0.000000 0.000000 
0.000000 0.000000 0.000000 
0.000000 0.000000 0.000000 

-0.000000 -0.000000 0.000000 
0.000000 -0.000000 0.000000 
0.000000 0.000000 0.000000 

-0.000000 -0.000000 0.000000 
0.000000 -0.000000 0.000000 
0.000000 0.000000 0.000000 

-0.000000 -0.000000 0.000000 
0.000000 -0.000000 0.000000 
0.000000 0.000000 0.000000 

-0.000000 0.000000 0.000000 
0.000000 -0.000000 0.000000 
0.000000 0.000000 0.000000 

-0.000000 0.000000 0.000000 
0.000000 0.000000 0.000000 
0.000000 0.000000 0.000000 

0.000000 0.000000 0.000000 
0.000000 0.000000 0.000000 
0.000000 0.000000 0.000000 

-0.000000 0.000000 0.000000 
0.000000 0.000000 0.000000 
0.000000 0.000000 0.000000 

-0.000000 -0.000000 0.000000 
0.000000 0.000000 0.000000 
0.000000 0.000000 0.000000 

-0.000000 -0.000000 0.000000 
0.000000 0.000000 0.000000 
0.000000 0.000000 0.000000 

0.000000 -0.000000 0.000000 
0.000000 0.000000 0.000000 
0.000000 0.000000 0.000000 

-0.000000 0.000000 0.000000 
0.000000 0.000000 0.000000 
0.000000 0.000000 0.000000 

-0.000000 -0.000000 0.000000 
0.000000 0.000000 0.000000 
0.000000 0.000000 0.000000 

-0.000000 0.000000 0.000000 
0.000000 0.000000 0.000000 
0.000000 0.000000 0.000000 

0.000000 -0.000000 0.000000 
0.000000 -0.000000 0.000000 
0.000000 0.000000 0.000000 

0.000000 0.000000 0.000000 
0.000000 -0.000000 0.000000 
0.000000 0.000000 0.000000 

-0.000000 0.000000 0.000000 
0.000000 0.000000 0.000000 
0.000000 0.000000 0.000000 

-0.000000 0.000000 0.000000 
0.000000 0.000000 0.000000 
0.000000 0.000000 0.000000 

-0.000000 -0.000000 0.000000 
0.000000 0.000000 0.000000 
0.000000 0.000000 0.000000 

-0.000000 -0.000000 0.000000 
0.000000 0.000000 0.000000 
0.000000 0.000000 0.000000 

-0.000000 0.000000 0.000000 
0.000000 0.000000 0.000000 
0.000000 0.000000 0.000000 

0.000000 0.000000 0.000000 
0.000000 -0.000000 0.000000 
0.000000 0.000000 0.000000 

-0.000000 0.000000 0.000000 
0.000000 0.000000 0.000000 
0.000000 0.000000 0.000000 

-0.000000 -0.000000 0.000000 
0.000000 0.000000 0.000000 
0.000000 0.000000 0.000000 

0.000000 -0.000000 0.000000 
0.000000 -0.000000 0.000000 
0.000000 0.000000 0.000000 

0.000000 -0.000000 0.000000 
0.000000 -0.000000 0.000000 
0.000000 0.000000 0.000000 

-0.000000 -0.000000 0.000000 
0.000000 -0.000000 0.000000 
0.000000 0.000000 0.000000 

-0.000000 -0.000000 0.000000 
0.000000 0.000000 0.000000 
0.000000 0.000000 0.000000 

-0.000000 -0.000000 0.000000 
0.000000 0.000000 0.000000 
0.000000 0.000000 0.000000 

-0.000000 0.000000 0.000000 
0.000000 0.000000 0.000000 
0.000000 0.000000 0.000000 

-0.000000 -0.000000 0.000000 
0.000000 0.000000 0.000000 
0.000000 0.000000 0.000000 

0.000000 -0.000000 0.000000 
0.000000 -0.000000 0.000000 
0.000000 0.000000 0.000000 

0.000000 0.000000 0.000000 
0.000000 -0.000000 0.000000 
0.000000 0.000000 0.000000 

0.000000 0.000000 0.000000 
0.000000 -0.000000 0.000000 
0.000000 0.000000 0.000000 

-0.000000 -0.000000 0.000000 
0.000000 0.000000 0.000000 
0.000000 0.000000 0.000000 

-0.000000 -0.000000 0.000000 
0.000000 0.000000 0.000000 
0.000000 0.000000 0.000000 

-0.000000 -0.000000 0.000000 
0.000000 0.000000 0.000000 
0.000000 0.000000 0.000000 

-0.000000 -0.000000 0.000000 
0.000000 0.000000 0.000000 
0.000000 0.000000 0.000000 

-0.000000 -0.000000 0.000000 
0.000000 0.000000 0.000000 
0.000000 0.000000 0.000000 

0.000000 0.000000 0.000000 
0.000000 -0.000000 0.000000 
0.000000 0.000000 0.000000 

0.000000 -0.000000 0.000000 
0.000000 0.000000 0.000000 
0.000000 0.000000 0.000000 

0.000000 -0.000000 0.000000 
0.000000 -0.000000 0.000000 
0.000000 0.000000 0.000000 

-0.000000 0.000000 0.000000 
0.000000 0.000000 0.000000 
0.000000 0.000000 0.000000 

-0.000000 -0.000000 0.000000 
0.000000 0.000000 0.000000 
0.000000 0.000000 0.000000 

-0.000000 -0.000000 0.000000 
0.000000 0.000000 0.000000 
0.000000 0.000000 0.000000 

