# vtk DataFile Version 3.0 
vtk output 
ASCII 
DATASET UNSTRUCTURED_GRID 
POINTS 175 float 
-0.026061 -0.579807 0.000000 
-0.106992 -0.511752 0.000000 
-0.054870 -0.519984 0.000000 
-0.028809 -0.474101 0.000000 
-0.186430 -0.447676 0.000000 
-0.137056 -0.450202 0.000000 
-0.114311 -0.396555 0.000000 
-0.058186 -0.412221 0.000000 
-0.029377 -0.372043 0.000000 
-0.265318 -0.384520 0.000000 
-0.217198 -0.385320 0.000000 
-0.196633 -0.328023 0.000000 
-0.143120 -0.336732 0.000000 
-0.116563 -0.289464 0.000000 
-0.058945 -0.309109 0.000000 
-0.029568 -0.270989 0.000000 
-0.344206 -0.321365 0.000000 
-0.296791 -0.321357 0.000000 
-0.278030 -0.261415 0.000000 
-0.225992 -0.267281 0.000000 
-0.201664 -0.215164 0.000000 
-0.145749 -0.228638 0.000000 
-0.117890 -0.184295 0.000000 
-0.059328 -0.207001 0.000000 
-0.029759 -0.169935 0.000000 
-0.058559 -0.620558 0.000000 
-0.162226 -0.641400 0.000000 
-0.123292 -0.605783 0.000000 
-0.142917 -0.556799 0.000000 
-0.261851 -0.663557 0.000000 
-0.229092 -0.626530 0.000000 
-0.256854 -0.575298 0.000000 
-0.209613 -0.541186 0.000000 
-0.223062 -0.493612 0.000000 
-0.360414 -0.685857 0.000000 
-0.329787 -0.648734 0.000000 
-0.361761 -0.596932 0.000000 
-0.321587 -0.560523 0.000000 
-0.341985 -0.510289 0.000000 
-0.290702 -0.477490 0.000000 
-0.302189 -0.430755 0.000000 
-0.458977 -0.708157 0.000000 
-0.429420 -0.671082 0.000000 
-0.464588 -0.619041 0.000000 
-0.427556 -0.582013 0.000000 
-0.453135 -0.530498 0.000000 
-0.407738 -0.495183 0.000000 
-0.425037 -0.445755 0.000000 
-0.370772 -0.414126 0.000000 
-0.381315 -0.367898 0.000000 
-0.046960 -0.671373 0.000000 
-0.095301 -0.765419 0.000000 
-0.098873 -0.712772 0.000000 
-0.149405 -0.697574 0.000000 
-0.140093 -0.857123 0.000000 
-0.148617 -0.808425 0.000000 
-0.205981 -0.798187 0.000000 
-0.203197 -0.739984 0.000000 
-0.248777 -0.720837 0.000000 
-0.184111 -0.948087 0.000000 
-0.194039 -0.900995 0.000000 
-0.254475 -0.893696 0.000000 
-0.257893 -0.839586 0.000000 
-0.309886 -0.824214 0.000000 
-0.303554 -0.763669 0.000000 
-0.347255 -0.743511 0.000000 
-0.228129 -1.039050 0.000000 
-0.238687 -0.992826 0.000000 
-0.301302 -0.987874 0.000000 
-0.307162 -0.935835 0.000000 
-0.363386 -0.923714 0.000000 
-0.362692 -0.866203 0.000000 
-0.412122 -0.848909 0.000000 
-0.403017 -0.786763 0.000000 
-0.445733 -0.766184 0.000000 
-0.000000 -0.693988 0.000000 
0.043388 -0.790419 0.000000 
-0.000000 -0.760386 0.000000 
-0.043388 -0.790419 0.000000 
0.087158 -0.882615 0.000000 
0.043769 -0.858917 0.000000 
-0.000000 -0.897382 0.000000 
-0.043769 -0.858917 0.000000 
-0.087158 -0.882615 0.000000 
0.130831 -0.973745 0.000000 
0.087824 -0.952146 0.000000 
0.044436 -0.994846 0.000000 
-0.000000 -0.963781 0.000000 
-0.044436 -0.994846 0.000000 
-0.087824 -0.952146 0.000000 
-0.130831 -0.973745 0.000000 
0.174505 -1.064875 0.000000 
0.131782 -1.044308 0.000000 
0.088871 -1.090175 0.000000 
0.044532 -1.062311 0.000000 
-0.000000 -1.098711 0.000000 
-0.044532 -1.062311 0.000000 
-0.088871 -1.090175 0.000000 
-0.131782 -1.044308 0.000000 
-0.174505 -1.064875 0.000000 
0.046960 -0.671373 0.000000 
0.149405 -0.697574 0.000000 
0.098873 -0.712772 0.000000 
0.095301 -0.765419 0.000000 
0.248777 -0.720837 0.000000 
0.203197 -0.739984 0.000000 
0.205981 -0.798187 0.000000 
0.148617 -0.808425 0.000000 
0.140093 -0.857123 0.000000 
0.347255 -0.743511 0.000000 
0.303554 -0.763669 0.000000 
0.309886 -0.824214 0.000000 
0.257893 -0.839586 0.000000 
0.254475 -0.893696 0.000000 
0.194039 -0.900995 0.000000 
0.184111 -0.948087 0.000000 
0.445733 -0.766184 0.000000 
0.403017 -0.786763 0.000000 
0.412122 -0.848909 0.000000 
0.362692 -0.866203 0.000000 
0.363386 -0.923714 0.000000 
0.307162 -0.935835 0.000000 
0.301302 -0.987874 0.000000 
0.238687 -0.992826 0.000000 
0.228129 -1.039050 0.000000 
0.058559 -0.620558 0.000000 
0.142917 -0.556799 0.000000 
0.123292 -0.605783 0.000000 
0.162226 -0.641400 0.000000 
0.223062 -0.493612 0.000000 
0.209613 -0.541186 0.000000 
0.256854 -0.575298 0.000000 
0.229092 -0.626530 0.000000 
0.261851 -0.663557 0.000000 
0.302189 -0.430755 0.000000 
0.290702 -0.477490 0.000000 
0.341985 -0.510289 0.000000 
0.321587 -0.560523 0.000000 
0.361761 -0.596932 0.000000 
0.329787 -0.648734 0.000000 
0.360414 -0.685857 0.000000 
0.381315 -0.367898 0.000000 
0.370772 -0.414126 0.000000 
0.425037 -0.445755 0.000000 
0.407738 -0.495183 0.000000 
0.453135 -0.530498 0.000000 
0.427556 -0.582013 0.000000 
0.464588 -0.619041 0.000000 
0.429420 -0.671082 0.000000 
0.458977 -0.708157 0.000000 
0.026061 -0.579807 0.000000 
0.028809 -0.474101 0.000000 
0.054870 -0.519984 0.000000 
0.106992 -0.511752 0.000000 
0.029377 -0.372043 0.000000 
0.058186 -0.412221 0.000000 
0.114311 -0.396555 0.000000 
0.137056 -0.450202 0.000000 
0.186430 -0.447676 0.000000 
0.029568 -0.270989 0.000000 
0.058945 -0.309109 0.000000 
0.116563 -0.289464 0.000000 
0.143120 -0.336732 0.000000 
0.196633 -0.328023 0.000000 
0.217198 -0.385320 0.000000 
0.265318 -0.384520 0.000000 
0.029759 -0.169935 0.000000 
0.059328 -0.207001 0.000000 
0.117890 -0.184295 0.000000 
0.145749 -0.228638 0.000000 
0.201664 -0.215164 0.000000 
0.225992 -0.267281 0.000000 
0.278030 -0.261415 0.000000 
0.296791 -0.321357 0.000000 
0.344206 -0.321365 0.000000 
CELLS 175 350 
1 0 
1 1 
1 2 
1 3 
1 4 
1 5 
1 6 
1 7 
1 8 
1 9 
1 10 
1 11 
1 12 
1 13 
1 14 
1 15 
1 16 
1 17 
1 18 
1 19 
1 20 
1 21 
1 22 
1 23 
1 24 
1 25 
1 26 
1 27 
1 28 
1 29 
1 30 
1 31 
1 32 
1 33 
1 34 
1 35 
1 36 
1 37 
1 38 
1 39 
1 40 
1 41 
1 42 
1 43 
1 44 
1 45 
1 46 
1 47 
1 48 
1 49 
1 50 
1 51 
1 52 
1 53 
1 54 
1 55 
1 56 
1 57 
1 58 
1 59 
1 60 
1 61 
1 62 
1 63 
1 64 
1 65 
1 66 
1 67 
1 68 
1 69 
1 70 
1 71 
1 72 
1 73 
1 74 
1 75 
1 76 
1 77 
1 78 
1 79 
1 80 
1 81 
1 82 
1 83 
1 84 
1 85 
1 86 
1 87 
1 88 
1 89 
1 90 
1 91 
1 92 
1 93 
1 94 
1 95 
1 96 
1 97 
1 98 
1 99 
1 100 
1 101 
1 102 
1 103 
1 104 
1 105 
1 106 
1 107 
1 108 
1 109 
1 110 
1 111 
1 112 
1 113 
1 114 
1 115 
1 116 
1 117 
1 118 
1 119 
1 120 
1 121 
1 122 
1 123 
1 124 
1 125 
1 126 
1 127 
1 128 
1 129 
1 130 
1 131 
1 132 
1 133 
1 134 
1 135 
1 136 
1 137 
1 138 
1 139 
1 140 
1 141 
1 142 
1 143 
1 144 
1 145 
1 146 
1 147 
1 148 
1 149 
1 150 
1 151 
1 152 
1 153 
1 154 
1 155 
1 156 
1 157 
1 158 
1 159 
1 160 
1 161 
1 162 
1 163 
1 164 
1 165 
1 166 
1 167 
1 168 
1 169 
1 170 
1 171 
1 172 
1 173 
1 174 
CELL_TYPES 175 
1 
1 
1 
1 
1 
1 
1 
1 
1 
1 
1 
1 
1 
1 
1 
1 
1 
1 
1 
1 
1 
1 
1 
1 
1 
1 
1 
1 
1 
1 
1 
1 
1 
1 
1 
1 
1 
1 
1 
1 
1 
1 
1 
1 
1 
1 
1 
1 
1 
1 
1 
1 
1 
1 
1 
1 
1 
1 
1 
1 
1 
1 
1 
1 
1 
1 
1 
1 
1 
1 
1 
1 
1 
1 
1 
1 
1 
1 
1 
1 
1 
1 
1 
1 
1 
1 
1 
1 
1 
1 
1 
1 
1 
1 
1 
1 
1 
1 
1 
1 
1 
1 
1 
1 
1 
1 
1 
1 
1 
1 
1 
1 
1 
1 
1 
1 
1 
1 
1 
1 
1 
1 
1 
1 
1 
1 
1 
1 
1 
1 
1 
1 
1 
1 
1 
1 
1 
1 
1 
1 
1 
1 
1 
1 
1 
1 
1 
1 
1 
1 
1 
1 
1 
1 
1 
1 
1 
1 
1 
1 
1 
1 
1 
1 
1 
1 
1 
1 
1 
1 
1 
1 
1 
1 
1 
POINT_DATA 175 
VECTORS X_GC float 
-0.026061 -0.579807 0.000000 
-0.106992 -0.511752 0.000000 
-0.054870 -0.519984 0.000000 
-0.028809 -0.474101 0.000000 
-0.186430 -0.447676 0.000000 
-0.137056 -0.450202 0.000000 
-0.114311 -0.396555 0.000000 
-0.058186 -0.412221 0.000000 
-0.029377 -0.372043 0.000000 
-0.265318 -0.384520 0.000000 
-0.217198 -0.385320 0.000000 
-0.196633 -0.328023 0.000000 
-0.143120 -0.336732 0.000000 
-0.116563 -0.289464 0.000000 
-0.058945 -0.309109 0.000000 
-0.029568 -0.270989 0.000000 
-0.344206 -0.321365 0.000000 
-0.296791 -0.321357 0.000000 
-0.278030 -0.261415 0.000000 
-0.225992 -0.267281 0.000000 
-0.201664 -0.215164 0.000000 
-0.145749 -0.228638 0.000000 
-0.117890 -0.184295 0.000000 
-0.059328 -0.207001 0.000000 
-0.029759 -0.169935 0.000000 
-0.058559 -0.620558 0.000000 
-0.162226 -0.641400 0.000000 
-0.123292 -0.605783 0.000000 
-0.142917 -0.556799 0.000000 
-0.261851 -0.663557 0.000000 
-0.229092 -0.626530 0.000000 
-0.256854 -0.575298 0.000000 
-0.209613 -0.541186 0.000000 
-0.223062 -0.493612 0.000000 
-0.360414 -0.685857 0.000000 
-0.329787 -0.648734 0.000000 
-0.361761 -0.596932 0.000000 
-0.321587 -0.560523 0.000000 
-0.341985 -0.510289 0.000000 
-0.290702 -0.477490 0.000000 
-0.302189 -0.430755 0.000000 
-0.458977 -0.708157 0.000000 
-0.429420 -0.671082 0.000000 
-0.464588 -0.619041 0.000000 
-0.427556 -0.582013 0.000000 
-0.453135 -0.530498 0.000000 
-0.407738 -0.495183 0.000000 
-0.425037 -0.445755 0.000000 
-0.370772 -0.414126 0.000000 
-0.381315 -0.367898 0.000000 
-0.046960 -0.671373 0.000000 
-0.095301 -0.765419 0.000000 
-0.098873 -0.712772 0.000000 
-0.149405 -0.697574 0.000000 
-0.140093 -0.857123 0.000000 
-0.148617 -0.808425 0.000000 
-0.205981 -0.798187 0.000000 
-0.203197 -0.739984 0.000000 
-0.248777 -0.720837 0.000000 
-0.184111 -0.948087 0.000000 
-0.194039 -0.900995 0.000000 
-0.254475 -0.893696 0.000000 
-0.257893 -0.839586 0.000000 
-0.309886 -0.824214 0.000000 
-0.303554 -0.763669 0.000000 
-0.347255 -0.743511 0.000000 
-0.228129 -1.039050 0.000000 
-0.238687 -0.992826 0.000000 
-0.301302 -0.987874 0.000000 
-0.307162 -0.935835 0.000000 
-0.363386 -0.923714 0.000000 
-0.362692 -0.866203 0.000000 
-0.412122 -0.848909 0.000000 
-0.403017 -0.786763 0.000000 
-0.445733 -0.766184 0.000000 
-0.000000 -0.693988 0.000000 
0.043388 -0.790419 0.000000 
-0.000000 -0.760386 0.000000 
-0.043388 -0.790419 0.000000 
0.087158 -0.882615 0.000000 
0.043769 -0.858917 0.000000 
-0.000000 -0.897382 0.000000 
-0.043769 -0.858917 0.000000 
-0.087158 -0.882615 0.000000 
0.130831 -0.973745 0.000000 
0.087824 -0.952146 0.000000 
0.044436 -0.994846 0.000000 
-0.000000 -0.963781 0.000000 
-0.044436 -0.994846 0.000000 
-0.087824 -0.952146 0.000000 
-0.130831 -0.973745 0.000000 
0.174505 -1.064875 0.000000 
0.131782 -1.044308 0.000000 
0.088871 -1.090175 0.000000 
0.044532 -1.062311 0.000000 
-0.000000 -1.098711 0.000000 
-0.044532 -1.062311 0.000000 
-0.088871 -1.090175 0.000000 
-0.131782 -1.044308 0.000000 
-0.174505 -1.064875 0.000000 
0.046960 -0.671373 0.000000 
0.149405 -0.697574 0.000000 
0.098873 -0.712772 0.000000 
0.095301 -0.765419 0.000000 
0.248777 -0.720837 0.000000 
0.203197 -0.739984 0.000000 
0.205981 -0.798187 0.000000 
0.148617 -0.808425 0.000000 
0.140093 -0.857123 0.000000 
0.347255 -0.743511 0.000000 
0.303554 -0.763669 0.000000 
0.309886 -0.824214 0.000000 
0.257893 -0.839586 0.000000 
0.254475 -0.893696 0.000000 
0.194039 -0.900995 0.000000 
0.184111 -0.948087 0.000000 
0.445733 -0.766184 0.000000 
0.403017 -0.786763 0.000000 
0.412122 -0.848909 0.000000 
0.362692 -0.866203 0.000000 
0.363386 -0.923714 0.000000 
0.307162 -0.935835 0.000000 
0.301302 -0.987874 0.000000 
0.238687 -0.992826 0.000000 
0.228129 -1.039050 0.000000 
0.058559 -0.620558 0.000000 
0.142917 -0.556799 0.000000 
0.123292 -0.605783 0.000000 
0.162226 -0.641400 0.000000 
0.223062 -0.493612 0.000000 
0.209613 -0.541186 0.000000 
0.256854 -0.575298 0.000000 
0.229092 -0.626530 0.000000 
0.261851 -0.663557 0.000000 
0.302189 -0.430755 0.000000 
0.290702 -0.477490 0.000000 
0.341985 -0.510289 0.000000 
0.321587 -0.560523 0.000000 
0.361761 -0.596932 0.000000 
0.329787 -0.648734 0.000000 
0.360414 -0.685857 0.000000 
0.381315 -0.367898 0.000000 
0.370772 -0.414126 0.000000 
0.425037 -0.445755 0.000000 
0.407738 -0.495183 0.000000 
0.453135 -0.530498 0.000000 
0.427556 -0.582013 0.000000 
0.464588 -0.619041 0.000000 
0.429420 -0.671082 0.000000 
0.458977 -0.708157 0.000000 
0.026061 -0.579807 0.000000 
0.028809 -0.474101 0.000000 
0.054870 -0.519984 0.000000 
0.106992 -0.511752 0.000000 
0.029377 -0.372043 0.000000 
0.058186 -0.412221 0.000000 
0.114311 -0.396555 0.000000 
0.137056 -0.450202 0.000000 
0.186430 -0.447676 0.000000 
0.029568 -0.270989 0.000000 
0.058945 -0.309109 0.000000 
0.116563 -0.289464 0.000000 
0.143120 -0.336732 0.000000 
0.196633 -0.328023 0.000000 
0.217198 -0.385320 0.000000 
0.265318 -0.384520 0.000000 
0.029759 -0.169935 0.000000 
0.059328 -0.207001 0.000000 
0.117890 -0.184295 0.000000 
0.145749 -0.228638 0.000000 
0.201664 -0.215164 0.000000 
0.225992 -0.267281 0.000000 
0.278030 -0.261415 0.000000 
0.296791 -0.321357 0.000000 
0.344206 -0.321365 0.000000 
VECTORS X_EC float 
0.338794 0.327395 0.000000 
-0.609100 -0.591353 0.000000 
0.713312 -0.480212 0.000000 
0.374519 0.900358 0.000000 
0.423588 0.543627 0.000000 
-0.218274 0.577731 0.000000 
-0.513962 -0.146508 0.000000 
0.756418 0.064978 0.000000 
0.381900 -0.477414 0.000000 
-0.550868 -0.308976 0.000000 
0.823577 -0.298180 0.000000 
0.556234 0.928316 0.000000 
-0.139443 -0.954115 0.000000 
-0.484677 0.407760 0.000000 
0.766286 0.672975 0.000000 
0.384386 0.158355 0.000000 
0.474677 0.838421 0.000000 
-0.141715 0.838325 0.000000 
-0.385608 0.029097 0.000000 
0.937896 0.108292 0.000000 
0.621631 -0.595288 0.000000 
-0.105264 -0.413389 0.000000 
-0.467428 0.987985 0.000000 
0.771260 -0.705487 0.000000 
0.386873 0.794124 0.000000 
0.761262 0.877530 0.000000 
0.108942 -0.841094 0.000000 
-0.397202 0.678067 0.000000 
-0.142083 0.016792 0.000000 
-0.595936 -0.541983 0.000000 
0.978194 0.958151 0.000000 
-0.660903 0.266526 0.000000 
0.724964 -0.193994 0.000000 
0.899809 -0.836243 0.000000 
0.685384 -0.240931 0.000000 
0.287229 -0.742089 0.000000 
0.702895 0.558582 0.000000 
0.180633 0.067063 0.000000 
0.445811 -0.611096 0.000000 
-0.220880 0.946118 0.000000 
-0.071546 0.315192 0.000000 
-0.033296 0.060121 0.000000 
-0.417537 -0.440388 0.000000 
0.039645 0.857049 0.000000 
-0.441768 0.357178 0.000000 
-0.109248 -0.338273 0.000000 
-0.699407 -0.815028 0.000000 
-0.474522 0.517693 0.000000 
0.820030 0.090699 0.000000 
0.957100 -0.533373 0.000000 
0.610485 -0.436464 0.000000 
-0.761092 0.833155 0.000000 
-0.714655 0.122418 0.000000 
-0.057734 -0.082749 0.000000 
-0.178789 0.071160 0.000000 
-0.067979 -0.586267 0.000000 
0.677748 -0.724470 0.000000 
0.641556 0.489785 0.000000 
-0.765897 0.231306 0.000000 
0.393446 -0.700831 0.000000 
0.522510 0.663439 0.000000 
-0.691820 0.564894 0.000000 
-0.647393 -0.165588 0.000000 
0.028512 -0.373115 0.000000 
-0.053800 0.809525 0.000000 
0.514316 0.537394 0.000000 
0.965681 0.527178 0.000000 
-0.897068 -0.096851 0.000000 
-0.083078 -0.163704 0.000000 
-0.006893 -0.866229 0.000000 
0.724017 0.970138 0.000000 
0.714996 0.193735 0.000000 
-0.642413 -0.039722 0.000000 
-0.760780 -0.878703 0.000000 
-0.205471 0.843482 0.000000 
0.000000 -0.131162 0.000000 
-0.564049 -0.829350 0.000000 
0.000000 0.765214 0.000000 
0.564049 -0.829350 0.000000 
0.866949 0.415306 0.000000 
-0.569003 0.095375 0.000000 
0.000000 0.614663 0.000000 
0.569003 0.095375 0.000000 
-0.866949 0.415306 0.000000 
0.299194 -0.354444 0.000000 
0.858290 -0.646028 0.000000 
-0.577662 -0.069582 0.000000 
0.000000 -0.488960 0.000000 
0.577662 -0.069582 0.000000 
-0.858290 -0.646028 0.000000 
-0.299194 -0.354444 0.000000 
-0.268560 0.875806 0.000000 
0.286830 0.598164 0.000000 
0.844677 -0.782637 0.000000 
-0.578910 0.841200 0.000000 
0.000000 -0.667396 0.000000 
0.578910 0.841200 0.000000 
-0.844677 -0.782637 0.000000 
-0.286830 0.598164 0.000000 
0.268560 0.875806 0.000000 
-0.610485 -0.436464 0.000000 
0.057734 -0.082749 0.000000 
0.714655 0.122418 0.000000 
0.761092 0.833155 0.000000 
0.765897 0.231306 0.000000 
-0.641556 0.489785 0.000000 
-0.677748 -0.724470 0.000000 
0.067979 -0.586267 0.000000 
0.178789 0.071160 0.000000 
-0.514316 0.537394 0.000000 
0.053800 0.809525 0.000000 
-0.028512 -0.373115 0.000000 
0.647393 -0.165588 0.000000 
0.691820 0.564894 0.000000 
-0.522510 0.663439 0.000000 
-0.393446 -0.700831 0.000000 
0.205471 0.843482 0.000000 
0.760780 -0.878703 0.000000 
0.642413 -0.039722 0.000000 
-0.714996 0.193735 0.000000 
-0.724017 0.970138 0.000000 
0.006894 -0.866229 0.000000 
0.083078 -0.163704 0.000000 
0.897068 -0.096851 0.000000 
-0.965681 0.527178 0.000000 
-0.761262 0.877530 0.000000 
0.142083 0.016792 0.000000 
0.397202 0.678067 0.000000 
-0.108942 -0.841094 0.000000 
-0.899809 -0.836243 0.000000 
-0.724964 -0.193994 0.000000 
0.660903 0.266526 0.000000 
-0.978194 0.958151 0.000000 
0.595936 -0.541983 0.000000 
0.071546 0.315192 0.000000 
0.220880 0.946118 0.000000 
-0.445811 -0.611096 0.000000 
-0.180633 0.067063 0.000000 
-0.702895 0.558582 0.000000 
-0.287229 -0.742089 0.000000 
-0.685384 -0.240931 0.000000 
-0.957100 -0.533373 0.000000 
-0.820030 0.090699 0.000000 
0.474522 0.517693 0.000000 
0.699407 -0.815028 0.000000 
0.109248 -0.338273 0.000000 
0.441768 0.357178 0.000000 
-0.039645 0.857049 0.000000 
0.417537 -0.440388 0.000000 
0.033296 0.060121 0.000000 
-0.338794 0.327395 0.000000 
-0.374519 0.900358 0.000000 
-0.713312 -0.480212 0.000000 
0.609100 -0.591353 0.000000 
-0.381900 -0.477414 0.000000 
-0.756418 0.064978 0.000000 
0.513962 -0.146508 0.000000 
0.218274 0.577731 0.000000 
-0.423588 0.543627 0.000000 
-0.384386 0.158355 0.000000 
-0.766286 0.672975 0.000000 
0.484677 0.407760 0.000000 
0.139443 -0.954115 0.000000 
-0.556234 0.928316 0.000000 
-0.823577 -0.298180 0.000000 
0.550868 -0.308976 0.000000 
-0.386873 0.794124 0.000000 
-0.771260 -0.705487 0.000000 
0.467428 0.987985 0.000000 
0.105264 -0.413389 0.000000 
-0.621631 -0.595288 0.000000 
-0.937896 0.108292 0.000000 
0.385608 0.029097 0.000000 
0.141715 0.838325 0.000000 
-0.474677 0.838421 0.000000 
CELL_DATA 175 
SCALARS MASS float 
LOOKUP_TABLE default 
0.781831 
0.864274 
0.946717 
0.864274 
0.881307 
0.921110 
0.858535 
0.921110 
0.881307 
0.887046 
0.910001 
0.869829 
0.915556 
0.869829 
0.910001 
0.887046 
0.892784 
0.915740 
0.892784 
0.927218 
0.892784 
0.927218 
0.892784 
0.915740 
0.892784 
0.781831 
0.864274 
0.946717 
0.864274 
0.881307 
0.921110 
0.858535 
0.921110 
0.881307 
0.887046 
0.910001 
0.869829 
0.915556 
0.869829 
0.910001 
0.887046 
0.892784 
0.915740 
0.892784 
0.927218 
0.892784 
0.927218 
0.892784 
0.915740 
0.892784 
0.781831 
0.864274 
0.946717 
0.864274 
0.881307 
0.921110 
0.858535 
0.921110 
0.881307 
0.887046 
0.910001 
0.869829 
0.915556 
0.869829 
0.910001 
0.887046 
0.892784 
0.915740 
0.892784 
0.927218 
0.892784 
0.927218 
0.892784 
0.915740 
0.892784 
0.781831 
0.864274 
0.946717 
0.864274 
0.881307 
0.921110 
0.858535 
0.921110 
0.881307 
0.887046 
0.910001 
0.869829 
0.915556 
0.869829 
0.910001 
0.887046 
0.892784 
0.915740 
0.892784 
0.927218 
0.892784 
0.927218 
0.892784 
0.915740 
0.892784 
0.781831 
0.864274 
0.946717 
0.864274 
0.881307 
0.921110 
0.858535 
0.921110 
0.881307 
0.887046 
0.910001 
0.869829 
0.915556 
0.869829 
0.910001 
0.887046 
0.892784 
0.915740 
0.892784 
0.927218 
0.892784 
0.927218 
0.892784 
0.915740 
0.892784 
0.781831 
0.864274 
0.946717 
0.864274 
0.881307 
0.921110 
0.858535 
0.921110 
0.881307 
0.887046 
0.910001 
0.869829 
0.915556 
0.869829 
0.910001 
0.887046 
0.892784 
0.915740 
0.892784 
0.927218 
0.892784 
0.927218 
0.892784 
0.915740 
0.892784 
0.781831 
0.864274 
0.946717 
0.864274 
0.881307 
0.921110 
0.858535 
0.921110 
0.881307 
0.887046 
0.910001 
0.869829 
0.915556 
0.869829 
0.910001 
0.887046 
0.892784 
0.915740 
0.892784 
0.927218 
0.892784 
0.927218 
0.892784 
0.915740 
0.892784 
SCALARS MASS float 
LOOKUP_TABLE default 
0.781831 
0.864274 
0.946717 
0.864274 
0.881307 
0.921110 
0.858535 
0.921110 
0.881307 
0.887046 
0.910001 
0.869829 
0.915556 
0.869829 
0.910001 
0.887046 
0.892784 
0.915740 
0.892784 
0.927218 
0.892784 
0.927218 
0.892784 
0.915740 
0.892784 
0.781831 
0.864274 
0.946717 
0.864274 
0.881307 
0.921110 
0.858535 
0.921110 
0.881307 
0.887046 
0.910001 
0.869829 
0.915556 
0.869829 
0.910001 
0.887046 
0.892784 
0.915740 
0.892784 
0.927218 
0.892784 
0.927218 
0.892784 
0.915740 
0.892784 
0.781831 
0.864274 
0.946717 
0.864274 
0.881307 
0.921110 
0.858535 
0.921110 
0.881307 
0.887046 
0.910001 
0.869829 
0.915556 
0.869829 
0.910001 
0.887046 
0.892784 
0.915740 
0.892784 
0.927218 
0.892784 
0.927218 
0.892784 
0.915740 
0.892784 
0.781831 
0.864274 
0.946717 
0.864274 
0.881307 
0.921110 
0.858535 
0.921110 
0.881307 
0.887046 
0.910001 
0.869829 
0.915556 
0.869829 
0.910001 
0.887046 
0.892784 
0.915740 
0.892784 
0.927218 
0.892784 
0.927218 
0.892784 
0.915740 
0.892784 
0.781831 
0.864274 
0.946717 
0.864274 
0.881307 
0.921110 
0.858535 
0.921110 
0.881307 
0.887046 
0.910001 
0.869829 
0.915556 
0.869829 
0.910001 
0.887046 
0.892784 
0.915740 
0.892784 
0.927218 
0.892784 
0.927218 
0.892784 
0.915740 
0.892784 
0.781831 
0.864274 
0.946717 
0.864274 
0.881307 
0.921110 
0.858535 
0.921110 
0.881307 
0.887046 
0.910001 
0.869829 
0.915556 
0.869829 
0.910001 
0.887046 
0.892784 
0.915740 
0.892784 
0.927218 
0.892784 
0.927218 
0.892784 
0.915740 
0.892784 
0.781831 
0.864274 
0.946717 
0.864274 
0.881307 
0.921110 
0.858535 
0.921110 
0.881307 
0.887046 
0.910001 
0.869829 
0.915556 
0.869829 
0.910001 
0.887046 
0.892784 
0.915740 
0.892784 
0.927218 
0.892784 
0.927218 
0.892784 
0.915740 
0.892784 
SCALARS DENSITY float 
LOOKUP_TABLE default 
200.000000 
200.000000 
200.000000 
200.000000 
200.000000 
200.000000 
200.000000 
200.000000 
200.000000 
200.000000 
200.000000 
200.000000 
200.000000 
200.000000 
200.000000 
200.000000 
200.000000 
200.000000 
200.000000 
200.000000 
200.000000 
200.000000 
200.000000 
200.000000 
200.000000 
200.000000 
200.000000 
200.000000 
200.000000 
200.000000 
200.000000 
200.000000 
200.000000 
200.000000 
200.000000 
200.000000 
200.000000 
200.000000 
200.000000 
200.000000 
200.000000 
200.000000 
200.000000 
200.000000 
200.000000 
200.000000 
200.000000 
200.000000 
200.000000 
200.000000 
200.000000 
200.000000 
200.000000 
200.000000 
200.000000 
200.000000 
200.000000 
200.000000 
200.000000 
200.000000 
200.000000 
200.000000 
200.000000 
200.000000 
200.000000 
200.000000 
200.000000 
200.000000 
200.000000 
200.000000 
200.000000 
200.000000 
200.000000 
200.000000 
200.000000 
200.000000 
200.000000 
200.000000 
200.000000 
200.000000 
200.000000 
200.000000 
200.000000 
200.000000 
200.000000 
200.000000 
200.000000 
200.000000 
200.000000 
200.000000 
200.000000 
200.000000 
200.000000 
200.000000 
200.000000 
200.000000 
200.000000 
200.000000 
200.000000 
200.000000 
200.000000 
200.000000 
200.000000 
200.000000 
200.000000 
200.000000 
200.000000 
200.000000 
200.000000 
200.000000 
200.000000 
200.000000 
200.000000 
200.000000 
200.000000 
200.000000 
200.000000 
200.000000 
200.000000 
200.000000 
200.000000 
200.000000 
200.000000 
200.000000 
200.000000 
200.000000 
200.000000 
200.000000 
200.000000 
200.000000 
200.000000 
200.000000 
200.000000 
200.000000 
200.000000 
200.000000 
200.000000 
200.000000 
200.000000 
200.000000 
200.000000 
200.000000 
200.000000 
200.000000 
200.000000 
200.000000 
200.000000 
200.000000 
200.000000 
200.000000 
200.000000 
200.000000 
200.000000 
200.000000 
200.000000 
200.000000 
200.000000 
200.000000 
200.000000 
200.000000 
200.000000 
200.000000 
200.000000 
200.000000 
200.000000 
200.000000 
200.000000 
200.000000 
200.000000 
200.000000 
200.000000 
200.000000 
200.000000 
200.000000 
200.000000 
SCALARS ELEM_i float 
LOOKUP_TABLE default 
178 
205 
178 
179 
206 
206 
206 
179 
179 
233 
206 
207 
206 
207 
180 
180 
234 
234 
234 
207 
207 
207 
208 
180 
181 
178 
204 
205 
205 
231 
205 
232 
205 
205 
231 
231 
232 
232 
232 
233 
233 
258 
258 
259 
259 
259 
259 
260 
233 
233 
177 
204 
204 
204 
203 
203 
203 
204 
231 
202 
203 
230 
230 
230 
231 
231 
202 
229 
229 
229 
230 
230 
257 
257 
258 
177 
176 
177 
176 
149 
176 
176 
176 
203 
148 
148 
175 
175 
175 
202 
202 
148 
148 
147 
175 
174 
175 
201 
202 
202 
177 
150 
150 
150 
123 
150 
149 
149 
149 
123 
123 
122 
122 
122 
149 
148 
96 
95 
95 
122 
122 
121 
121 
121 
148 
178 
151 
151 
150 
151 
151 
124 
151 
123 
125 
125 
124 
124 
124 
123 
123 
125 
125 
98 
97 
97 
97 
97 
96 
96 
178 
179 
178 
151 
179 
179 
152 
152 
152 
180 
180 
153 
152 
153 
152 
125 
181 
180 
154 
153 
153 
153 
126 
126 
126 
VECTORS VELOCITY float 
-0.000000 -3.525714 0.000000 
-0.000000 -3.525714 0.000000 
-0.000000 -3.525714 0.000000 
-0.000000 -3.525714 0.000000 
-0.000000 -3.525714 0.000000 
-0.000000 -3.525714 0.000000 
-0.000000 -3.525714 0.000000 
-0.000000 -3.525714 0.000000 
-0.000000 -3.525714 0.000000 
-0.000000 -3.525714 0.000000 
-0.000000 -3.525714 0.000000 
0.000000 -3.525714 0.000000 
-0.000000 -3.525714 0.000000 
-0.000000 -3.525714 0.000000 
-0.000000 -3.525714 0.000000 
0.000000 -3.525714 0.000000 
0.000000 -3.525714 0.000000 
0.000000 -3.525714 0.000000 
-0.000000 -3.525714 0.000000 
0.000000 -3.525714 0.000000 
-0.000000 -3.525714 0.000000 
0.000000 -3.525714 0.000000 
0.000000 -3.525714 0.000000 
0.000000 -3.525714 0.000000 
0.000000 -3.525714 0.000000 
-0.000000 -3.525714 0.000000 
-0.000000 -3.525714 0.000000 
-0.000000 -3.525714 0.000000 
-0.000000 -3.525714 0.000000 
0.000000 -3.525714 0.000000 
-0.000000 -3.525714 0.000000 
0.000000 -3.525714 0.000000 
0.000000 -3.525714 0.000000 
0.000000 -3.525714 0.000000 
0.000000 -3.525714 0.000000 
0.000000 -3.525714 0.000000 
0.000000 -3.525714 0.000000 
0.000000 -3.525714 0.000000 
-0.000000 -3.525714 0.000000 
0.000000 -3.525714 0.000000 
-0.000000 -3.525714 0.000000 
-0.000000 -3.525714 0.000000 
-0.000000 -3.525714 0.000000 
-0.000000 -3.525714 0.000000 
0.000000 -3.525714 0.000000 
0.000000 -3.525714 0.000000 
-0.000000 -3.525714 0.000000 
0.000000 -3.525714 0.000000 
-0.000000 -3.525714 0.000000 
-0.000000 -3.525714 0.000000 
-0.000000 -3.525714 0.000000 
0.000000 -3.525714 0.000000 
0.000000 -3.525714 0.000000 
0.000000 -3.525714 0.000000 
-0.000000 -3.525714 0.000000 
0.000000 -3.525714 0.000000 
0.000000 -3.525714 0.000000 
0.000000 -3.525714 0.000000 
-0.000000 -3.525714 0.000000 
0.000000 -3.525714 0.000000 
0.000000 -3.525714 0.000000 
0.000000 -3.525714 0.000000 
0.000000 -3.525714 0.000000 
-0.000000 -3.525714 0.000000 
0.000000 -3.525714 0.000000 
0.000000 -3.525714 0.000000 
0.000000 -3.525714 0.000000 
0.000000 -3.525714 0.000000 
-0.000000 -3.525714 0.000000 
-0.000000 -3.525714 0.000000 
-0.000000 -3.525714 0.000000 
0.000000 -3.525714 0.000000 
0.000000 -3.525714 0.000000 
0.000000 -3.525714 0.000000 
0.000000 -3.525714 0.000000 
0.000000 -3.525714 0.000000 
0.000000 -3.525714 0.000000 
0.000000 -3.525714 0.000000 
0.000000 -3.525714 0.000000 
0.000000 -3.525714 0.000000 
-0.000000 -3.525714 0.000000 
-0.000000 -3.525714 0.000000 
-0.000000 -3.525714 0.000000 
-0.000000 -3.525714 0.000000 
-0.000000 -3.525714 0.000000 
-0.000000 -3.525714 0.000000 
-0.000000 -3.525714 0.000000 
-0.000000 -3.525714 0.000000 
0.000000 -3.525714 0.000000 
-0.000000 -3.525714 0.000000 
0.000000 -3.525714 0.000000 
-0.000000 -3.525714 0.000000 
-0.000000 -3.525714 0.000000 
-0.000000 -3.525714 0.000000 
-0.000000 -3.525714 0.000000 
0.000000 -3.525714 0.000000 
-0.000000 -3.525714 0.000000 
0.000000 -3.525714 0.000000 
-0.000000 -3.525714 0.000000 
0.000000 -3.525714 0.000000 
0.000000 -3.525714 0.000000 
0.000000 -3.525714 0.000000 
0.000000 -3.525714 0.000000 
-0.000000 -3.525714 0.000000 
-0.000000 -3.525714 0.000000 
-0.000000 -3.525714 0.000000 
-0.000000 -3.525714 0.000000 
-0.000000 -3.525714 0.000000 
0.000000 -3.525714 0.000000 
-0.000000 -3.525714 0.000000 
-0.000000 -3.525714 0.000000 
0.000000 -3.525714 0.000000 
0.000000 -3.525714 0.000000 
0.000000 -3.525714 0.000000 
0.000000 -3.525714 0.000000 
0.000000 -3.525714 0.000000 
-0.000000 -3.525714 0.000000 
0.000000 -3.525714 0.000000 
-0.000000 -3.525714 0.000000 
0.000000 -3.525714 0.000000 
-0.000000 -3.525714 0.000000 
0.000000 -3.525714 0.000000 
-0.000000 -3.525714 0.000000 
-0.000000 -3.525714 0.000000 
0.000000 -3.525714 0.000000 
0.000000 -3.525714 0.000000 
0.000000 -3.525714 0.000000 
0.000000 -3.525714 0.000000 
0.000000 -3.525714 0.000000 
0.000000 -3.525714 0.000000 
0.000000 -3.525714 0.000000 
0.000000 -3.525714 0.000000 
0.000000 -3.525714 0.000000 
0.000000 -3.525714 0.000000 
-0.000000 -3.525714 0.000000 
-0.000000 -3.525714 0.000000 
-0.000000 -3.525714 0.000000 
0.000000 -3.525714 0.000000 
-0.000000 -3.525714 0.000000 
-0.000000 -3.525714 0.000000 
0.000000 -3.525714 0.000000 
0.000000 -3.525714 0.000000 
-0.000000 -3.525714 0.000000 
-0.000000 -3.525714 0.000000 
-0.000000 -3.525714 0.000000 
-0.000000 -3.525714 0.000000 
-0.000000 -3.525714 0.000000 
-0.000000 -3.525714 0.000000 
-0.000000 -3.525714 0.000000 
-0.000000 -3.525714 0.000000 
-0.000000 -3.525714 0.000000 
-0.000000 -3.525714 0.000000 
-0.000000 -3.525714 0.000000 
0.000000 -3.525714 0.000000 
-0.000000 -3.525714 0.000000 
-0.000000 -3.525714 0.000000 
0.000000 -3.525714 0.000000 
-0.000000 -3.525714 0.000000 
0.000000 -3.525714 0.000000 
0.000000 -3.525714 0.000000 
0.000000 -3.525714 0.000000 
0.000000 -3.525714 0.000000 
0.000000 -3.525714 0.000000 
0.000000 -3.525714 0.000000 
-0.000000 -3.525714 0.000000 
-0.000000 -3.525714 0.000000 
-0.000000 -3.525714 0.000000 
0.000000 -3.525714 0.000000 
-0.000000 -3.525714 0.000000 
-0.000000 -3.525714 0.000000 
-0.000000 -3.525714 0.000000 
-0.000000 -3.525714 0.000000 
0.000000 -3.525714 0.000000 
0.000000 -3.525714 0.000000 
0.000000 -3.525714 0.000000 
TENSORS STRESS float 
-0.000000 -0.000000 0.000000 
0.000000 -0.000000 0.000000 
0.000000 0.000000 0.000000 

-0.000000 0.000000 0.000000 
0.000000 -0.000000 0.000000 
0.000000 0.000000 0.000000 

-0.000000 0.000000 0.000000 
0.000000 -0.000000 0.000000 
0.000000 0.000000 0.000000 

0.000000 0.000000 0.000000 
0.000000 0.000000 0.000000 
0.000000 0.000000 0.000000 

-0.000000 0.000000 0.000000 
0.000000 -0.000000 0.000000 
0.000000 0.000000 0.000000 

-0.000000 0.000000 0.000000 
0.000000 -0.000000 0.000000 
0.000000 0.000000 0.000000 

-0.000000 -0.000000 0.000000 
0.000000 -0.000000 0.000000 
0.000000 0.000000 0.000000 

-0.000000 0.000000 0.000000 
0.000000 -0.000000 0.000000 
0.000000 0.000000 0.000000 

-0.000000 -0.000000 0.000000 
0.000000 -0.000000 0.000000 
0.000000 0.000000 0.000000 

-0.000000 -0.000000 0.000000 
0.000000 -0.000000 0.000000 
0.000000 0.000000 0.000000 

-0.000000 -0.000000 0.000000 
0.000000 -0.000000 0.000000 
0.000000 0.000000 0.000000 

-0.000000 -0.000000 0.000000 
0.000000 -0.000000 0.000000 
0.000000 0.000000 0.000000 

-0.000000 -0.000000 0.000000 
0.000000 0.000000 0.000000 
0.000000 0.000000 0.000000 

-0.000000 -0.000000 0.000000 
0.000000 -0.000000 0.000000 
0.000000 0.000000 0.000000 

-0.000000 0.000000 0.000000 
0.000000 -0.000000 0.000000 
0.000000 0.000000 0.000000 

-0.000000 0.000000 0.000000 
0.000000 -0.000000 0.000000 
0.000000 0.000000 0.000000 

0.000000 0.000000 0.000000 
0.000000 -0.000000 0.000000 
0.000000 0.000000 0.000000 

0.000000 0.000000 0.000000 
0.000000 -0.000000 0.000000 
0.000000 0.000000 0.000000 

-0.000000 0.000000 0.000000 
0.000000 -0.000000 0.000000 
0.000000 0.000000 0.000000 

-0.000000 -0.000000 0.000000 
0.000000 -0.000000 0.000000 
0.000000 0.000000 0.000000 

-0.000000 -0.000000 0.000000 
0.000000 -0.000000 0.000000 
0.000000 0.000000 0.000000 

-0.000000 -0.000000 0.000000 
0.000000 -0.000000 0.000000 
0.000000 0.000000 0.000000 

-0.000000 -0.000000 0.000000 
0.000000 -0.000000 0.000000 
0.000000 0.000000 0.000000 

0.000000 0.000000 0.000000 
0.000000 0.000000 0.000000 
0.000000 0.000000 0.000000 

0.000000 0.000000 0.000000 
0.000000 0.000000 0.000000 
0.000000 0.000000 0.000000 

-0.000000 0.000000 0.000000 
0.000000 -0.000000 0.000000 
0.000000 0.000000 0.000000 

-0.000000 -0.000000 0.000000 
0.000000 -0.000000 0.000000 
0.000000 0.000000 0.000000 

-0.000000 -0.000000 0.000000 
0.000000 -0.000000 0.000000 
0.000000 0.000000 0.000000 

-0.000000 -0.000000 0.000000 
0.000000 -0.000000 0.000000 
0.000000 0.000000 0.000000 

-0.000000 -0.000000 0.000000 
0.000000 -0.000000 0.000000 
0.000000 0.000000 0.000000 

-0.000000 -0.000000 0.000000 
0.000000 -0.000000 0.000000 
0.000000 0.000000 0.000000 

0.000000 -0.000000 0.000000 
0.000000 0.000000 0.000000 
0.000000 0.000000 0.000000 

0.000000 -0.000000 0.000000 
0.000000 0.000000 0.000000 
0.000000 0.000000 0.000000 

0.000000 -0.000000 0.000000 
0.000000 0.000000 0.000000 
0.000000 0.000000 0.000000 

0.000000 -0.000000 0.000000 
0.000000 0.000000 0.000000 
0.000000 0.000000 0.000000 

0.000000 -0.000000 0.000000 
0.000000 0.000000 0.000000 
0.000000 0.000000 0.000000 

0.000000 -0.000000 0.000000 
0.000000 0.000000 0.000000 
0.000000 0.000000 0.000000 

-0.000000 -0.000000 0.000000 
0.000000 -0.000000 0.000000 
0.000000 0.000000 0.000000 

0.000000 0.000000 0.000000 
0.000000 0.000000 0.000000 
0.000000 0.000000 0.000000 

0.000000 0.000000 0.000000 
0.000000 0.000000 0.000000 
0.000000 0.000000 0.000000 

0.000000 0.000000 0.000000 
0.000000 0.000000 0.000000 
0.000000 0.000000 0.000000 

0.000000 -0.000000 0.000000 
0.000000 0.000000 0.000000 
0.000000 0.000000 0.000000 

0.000000 0.000000 0.000000 
0.000000 0.000000 0.000000 
0.000000 0.000000 0.000000 

-0.000000 0.000000 0.000000 
0.000000 -0.000000 0.000000 
0.000000 0.000000 0.000000 

0.000000 0.000000 0.000000 
0.000000 0.000000 0.000000 
0.000000 0.000000 0.000000 

0.000000 0.000000 0.000000 
0.000000 0.000000 0.000000 
0.000000 0.000000 0.000000 

-0.000000 0.000000 0.000000 
0.000000 0.000000 0.000000 
0.000000 0.000000 0.000000 

-0.000000 -0.000000 0.000000 
0.000000 0.000000 0.000000 
0.000000 0.000000 0.000000 

-0.000000 -0.000000 0.000000 
0.000000 -0.000000 0.000000 
0.000000 0.000000 0.000000 

0.000000 -0.000000 0.000000 
0.000000 0.000000 0.000000 
0.000000 0.000000 0.000000 

0.000000 -0.000000 0.000000 
0.000000 0.000000 0.000000 
0.000000 0.000000 0.000000 

0.000000 -0.000000 0.000000 
0.000000 0.000000 0.000000 
0.000000 0.000000 0.000000 

-0.000000 -0.000000 0.000000 
0.000000 -0.000000 0.000000 
0.000000 0.000000 0.000000 

-0.000000 -0.000000 0.000000 
0.000000 -0.000000 0.000000 
0.000000 0.000000 0.000000 

-0.000000 -0.000000 0.000000 
0.000000 -0.000000 0.000000 
0.000000 0.000000 0.000000 

-0.000000 -0.000000 0.000000 
0.000000 -0.000000 0.000000 
0.000000 0.000000 0.000000 

-0.000000 -0.000000 0.000000 
0.000000 -0.000000 0.000000 
0.000000 0.000000 0.000000 

-0.000000 -0.000000 0.000000 
0.000000 -0.000000 0.000000 
0.000000 0.000000 0.000000 

-0.000000 0.000000 0.000000 
0.000000 -0.000000 0.000000 
0.000000 0.000000 0.000000 

0.000000 0.000000 0.000000 
0.000000 0.000000 0.000000 
0.000000 0.000000 0.000000 

-0.000000 -0.000000 0.000000 
0.000000 -0.000000 0.000000 
0.000000 0.000000 0.000000 

0.000000 0.000000 0.000000 
0.000000 0.000000 0.000000 
0.000000 0.000000 0.000000 

0.000000 -0.000000 0.000000 
0.000000 0.000000 0.000000 
0.000000 0.000000 0.000000 

0.000000 -0.000000 0.000000 
0.000000 0.000000 0.000000 
0.000000 0.000000 0.000000 

-0.000000 0.000000 0.000000 
0.000000 -0.000000 0.000000 
0.000000 0.000000 0.000000 

0.000000 0.000000 0.000000 
0.000000 0.000000 0.000000 
0.000000 0.000000 0.000000 

0.000000 -0.000000 0.000000 
0.000000 0.000000 0.000000 
0.000000 0.000000 0.000000 

0.000000 -0.000000 0.000000 
0.000000 0.000000 0.000000 
0.000000 0.000000 0.000000 

-0.000000 -0.000000 0.000000 
0.000000 -0.000000 0.000000 
0.000000 0.000000 0.000000 

0.000000 -0.000000 0.000000 
0.000000 0.000000 0.000000 
0.000000 0.000000 0.000000 

-0.000000 -0.000000 0.000000 
0.000000 -0.000000 0.000000 
0.000000 0.000000 0.000000 

0.000000 0.000000 0.000000 
0.000000 0.000000 0.000000 
0.000000 0.000000 0.000000 

0.000000 0.000000 0.000000 
0.000000 0.000000 0.000000 
0.000000 0.000000 0.000000 

0.000000 0.000000 0.000000 
0.000000 -0.000000 0.000000 
0.000000 0.000000 0.000000 

-0.000000 0.000000 0.000000 
0.000000 -0.000000 0.000000 
0.000000 0.000000 0.000000 

-0.000000 -0.000000 0.000000 
0.000000 -0.000000 0.000000 
0.000000 0.000000 0.000000 

0.000000 0.000000 0.000000 
0.000000 0.000000 0.000000 
0.000000 0.000000 0.000000 

-0.000000 -0.000000 0.000000 
0.000000 -0.000000 0.000000 
0.000000 0.000000 0.000000 

0.000000 0.000000 0.000000 
0.000000 0.000000 0.000000 
0.000000 0.000000 0.000000 

-0.000000 -0.000000 0.000000 
0.000000 -0.000000 0.000000 
0.000000 0.000000 0.000000 

-0.000000 -0.000000 0.000000 
0.000000 -0.000000 0.000000 
0.000000 0.000000 0.000000 

-0.000000 -0.000000 0.000000 
0.000000 -0.000000 0.000000 
0.000000 0.000000 0.000000 

0.000000 -0.000000 0.000000 
0.000000 0.000000 0.000000 
0.000000 0.000000 0.000000 

-0.000000 -0.000000 0.000000 
0.000000 -0.000000 0.000000 
0.000000 0.000000 0.000000 

-0.000000 -0.000000 0.000000 
0.000000 -0.000000 0.000000 
0.000000 0.000000 0.000000 

-0.000000 -0.000000 0.000000 
0.000000 -0.000000 0.000000 
0.000000 0.000000 0.000000 

-0.000000 0.000000 0.000000 
0.000000 -0.000000 0.000000 
0.000000 0.000000 0.000000 

-0.000000 0.000000 0.000000 
0.000000 -0.000000 0.000000 
0.000000 0.000000 0.000000 

-0.000000 0.000000 0.000000 
0.000000 -0.000000 0.000000 
0.000000 0.000000 0.000000 

0.000000 -0.000000 0.000000 
0.000000 0.000000 0.000000 
0.000000 0.000000 0.000000 

-0.000000 0.000000 0.000000 
0.000000 -0.000000 0.000000 
0.000000 0.000000 0.000000 

0.000000 -0.000000 0.000000 
0.000000 0.000000 0.000000 
0.000000 0.000000 0.000000 

0.000000 -0.000000 0.000000 
0.000000 -0.000000 0.000000 
0.000000 0.000000 0.000000 

-0.000000 0.000000 0.000000 
0.000000 -0.000000 0.000000 
0.000000 0.000000 0.000000 

-0.000000 0.000000 0.000000 
0.000000 -0.000000 0.000000 
0.000000 0.000000 0.000000 

0.000000 0.000000 0.000000 
0.000000 0.000000 0.000000 
0.000000 0.000000 0.000000 

0.000000 0.000000 0.000000 
0.000000 0.000000 0.000000 
0.000000 0.000000 0.000000 

-0.000000 0.000000 0.000000 
0.000000 -0.000000 0.000000 
0.000000 0.000000 0.000000 

-0.000000 -0.000000 0.000000 
0.000000 -0.000000 0.000000 
0.000000 0.000000 0.000000 

0.000000 -0.000000 0.000000 
0.000000 0.000000 0.000000 
0.000000 0.000000 0.000000 

-0.000000 -0.000000 0.000000 
0.000000 -0.000000 0.000000 
0.000000 0.000000 0.000000 

-0.000000 0.000000 0.000000 
0.000000 -0.000000 0.000000 
0.000000 0.000000 0.000000 

-0.000000 0.000000 0.000000 
0.000000 -0.000000 0.000000 
0.000000 0.000000 0.000000 

0.000000 -0.000000 0.000000 
0.000000 0.000000 0.000000 
0.000000 0.000000 0.000000 

-0.000000 0.000000 0.000000 
0.000000 -0.000000 0.000000 
0.000000 0.000000 0.000000 

-0.000000 0.000000 0.000000 
0.000000 -0.000000 0.000000 
0.000000 0.000000 0.000000 

0.000000 -0.000000 0.000000 
0.000000 0.000000 0.000000 
0.000000 0.000000 0.000000 

0.000000 -0.000000 0.000000 
0.000000 0.000000 0.000000 
0.000000 0.000000 0.000000 

-0.000000 0.000000 0.000000 
0.000000 -0.000000 0.000000 
0.000000 0.000000 0.000000 

0.000000 0.000000 0.000000 
0.000000 -0.000000 0.000000 
0.000000 0.000000 0.000000 

-0.000000 0.000000 0.000000 
0.000000 -0.000000 0.000000 
0.000000 0.000000 0.000000 

-0.000000 0.000000 0.000000 
0.000000 -0.000000 0.000000 
0.000000 0.000000 0.000000 

-0.000000 0.000000 0.000000 
0.000000 -0.000000 0.000000 
0.000000 0.000000 0.000000 

-0.000000 -0.000000 0.000000 
0.000000 -0.000000 0.000000 
0.000000 0.000000 0.000000 

0.000000 -0.000000 0.000000 
0.000000 0.000000 0.000000 
0.000000 0.000000 0.000000 

-0.000000 -0.000000 0.000000 
0.000000 -0.000000 0.000000 
0.000000 0.000000 0.000000 

-0.000000 -0.000000 0.000000 
0.000000 -0.000000 0.000000 
0.000000 0.000000 0.000000 

-0.000000 0.000000 0.000000 
0.000000 -0.000000 0.000000 
0.000000 0.000000 0.000000 

-0.000000 0.000000 0.000000 
0.000000 -0.000000 0.000000 
0.000000 0.000000 0.000000 

0.000000 -0.000000 0.000000 
0.000000 0.000000 0.000000 
0.000000 0.000000 0.000000 

-0.000000 0.000000 0.000000 
0.000000 -0.000000 0.000000 
0.000000 0.000000 0.000000 

0.000000 0.000000 0.000000 
0.000000 0.000000 0.000000 
0.000000 0.000000 0.000000 

0.000000 0.000000 0.000000 
0.000000 0.000000 0.000000 
0.000000 0.000000 0.000000 

-0.000000 -0.000000 0.000000 
0.000000 -0.000000 0.000000 
0.000000 0.000000 0.000000 

0.000000 -0.000000 0.000000 
0.000000 -0.000000 0.000000 
0.000000 0.000000 0.000000 

-0.000000 -0.000000 0.000000 
0.000000 -0.000000 0.000000 
0.000000 0.000000 0.000000 

-0.000000 -0.000000 0.000000 
0.000000 -0.000000 0.000000 
0.000000 0.000000 0.000000 

-0.000000 0.000000 0.000000 
0.000000 -0.000000 0.000000 
0.000000 0.000000 0.000000 

0.000000 0.000000 0.000000 
0.000000 -0.000000 0.000000 
0.000000 0.000000 0.000000 

0.000000 -0.000000 0.000000 
0.000000 0.000000 0.000000 
0.000000 0.000000 0.000000 

0.000000 -0.000000 0.000000 
0.000000 -0.000000 0.000000 
0.000000 0.000000 0.000000 

-0.000000 0.000000 0.000000 
0.000000 -0.000000 0.000000 
0.000000 0.000000 0.000000 

-0.000000 -0.000000 0.000000 
0.000000 -0.000000 0.000000 
0.000000 0.000000 0.000000 

-0.000000 0.000000 0.000000 
0.000000 -0.000000 0.000000 
0.000000 0.000000 0.000000 

-0.000000 0.000000 0.000000 
0.000000 -0.000000 0.000000 
0.000000 0.000000 0.000000 

0.000000 0.000000 0.000000 
0.000000 0.000000 0.000000 
0.000000 0.000000 0.000000 

0.000000 -0.000000 0.000000 
0.000000 0.000000 0.000000 
0.000000 0.000000 0.000000 

0.000000 0.000000 0.000000 
0.000000 0.000000 0.000000 
0.000000 0.000000 0.000000 

-0.000000 0.000000 0.000000 
0.000000 -0.000000 0.000000 
0.000000 0.000000 0.000000 

-0.000000 0.000000 0.000000 
0.000000 -0.000000 0.000000 
0.000000 0.000000 0.000000 

-0.000000 0.000000 0.000000 
0.000000 -0.000000 0.000000 
0.000000 0.000000 0.000000 

0.000000 0.000000 0.000000 
0.000000 0.000000 0.000000 
0.000000 0.000000 0.000000 

0.000000 0.000000 0.000000 
0.000000 0.000000 0.000000 
0.000000 0.000000 0.000000 

0.000000 0.000000 0.000000 
0.000000 0.000000 0.000000 
0.000000 0.000000 0.000000 

0.000000 -0.000000 0.000000 
0.000000 0.000000 0.000000 
0.000000 0.000000 0.000000 

0.000000 -0.000000 0.000000 
0.000000 0.000000 0.000000 
0.000000 0.000000 0.000000 

0.000000 0.000000 0.000000 
0.000000 0.000000 0.000000 
0.000000 0.000000 0.000000 

-0.000000 -0.000000 0.000000 
0.000000 -0.000000 0.000000 
0.000000 0.000000 0.000000 

0.000000 -0.000000 0.000000 
0.000000 0.000000 0.000000 
0.000000 0.000000 0.000000 

0.000000 -0.000000 0.000000 
0.000000 0.000000 0.000000 
0.000000 0.000000 0.000000 

0.000000 -0.000000 0.000000 
0.000000 -0.000000 0.000000 
0.000000 0.000000 0.000000 

-0.000000 0.000000 0.000000 
0.000000 -0.000000 0.000000 
0.000000 0.000000 0.000000 

-0.000000 0.000000 0.000000 
0.000000 -0.000000 0.000000 
0.000000 0.000000 0.000000 

-0.000000 -0.000000 0.000000 
0.000000 -0.000000 0.000000 
0.000000 0.000000 0.000000 

0.000000 -0.000000 0.000000 
0.000000 0.000000 0.000000 
0.000000 0.000000 0.000000 

-0.000000 0.000000 0.000000 
0.000000 -0.000000 0.000000 
0.000000 0.000000 0.000000 

-0.000000 0.000000 0.000000 
0.000000 -0.000000 0.000000 
0.000000 0.000000 0.000000 

0.000000 0.000000 0.000000 
0.000000 0.000000 0.000000 
0.000000 0.000000 0.000000 

0.000000 0.000000 0.000000 
0.000000 0.000000 0.000000 
0.000000 0.000000 0.000000 

-0.000000 0.000000 0.000000 
0.000000 -0.000000 0.000000 
0.000000 0.000000 0.000000 

-0.000000 0.000000 0.000000 
0.000000 -0.000000 0.000000 
0.000000 0.000000 0.000000 

-0.000000 0.000000 0.000000 
0.000000 -0.000000 0.000000 
0.000000 0.000000 0.000000 

-0.000000 0.000000 0.000000 
0.000000 -0.000000 0.000000 
0.000000 0.000000 0.000000 

0.000000 0.000000 0.000000 
0.000000 0.000000 0.000000 
0.000000 0.000000 0.000000 

-0.000000 -0.000000 0.000000 
0.000000 -0.000000 0.000000 
0.000000 0.000000 0.000000 

-0.000000 -0.000000 0.000000 
0.000000 -0.000000 0.000000 
0.000000 0.000000 0.000000 

0.000000 0.000000 0.000000 
0.000000 0.000000 0.000000 
0.000000 0.000000 0.000000 

-0.000000 -0.000000 0.000000 
0.000000 -0.000000 0.000000 
0.000000 0.000000 0.000000 

-0.000000 0.000000 0.000000 
0.000000 0.000000 0.000000 
0.000000 0.000000 0.000000 

-0.000000 0.000000 0.000000 
0.000000 -0.000000 0.000000 
0.000000 0.000000 0.000000 

-0.000000 -0.000000 0.000000 
0.000000 0.000000 0.000000 
0.000000 0.000000 0.000000 

0.000000 0.000000 0.000000 
0.000000 0.000000 0.000000 
0.000000 0.000000 0.000000 

0.000000 -0.000000 0.000000 
0.000000 0.000000 0.000000 
0.000000 0.000000 0.000000 

-0.000000 0.000000 0.000000 
0.000000 -0.000000 0.000000 
0.000000 0.000000 0.000000 

-0.000000 -0.000000 0.000000 
0.000000 -0.000000 0.000000 
0.000000 0.000000 0.000000 

TENSORS STRAIN float 
0.000000 -0.000000 0.000000 
0.000000 -0.000000 0.000000 
0.000000 0.000000 0.000000 

-0.000000 0.000000 0.000000 
0.000000 0.000000 0.000000 
0.000000 0.000000 0.000000 

0.000000 0.000000 0.000000 
0.000000 -0.000000 0.000000 
0.000000 0.000000 0.000000 

0.000000 0.000000 0.000000 
0.000000 -0.000000 0.000000 
0.000000 0.000000 0.000000 

-0.000000 0.000000 0.000000 
0.000000 -0.000000 0.000000 
0.000000 0.000000 0.000000 

-0.000000 0.000000 0.000000 
0.000000 -0.000000 0.000000 
0.000000 0.000000 0.000000 

-0.000000 -0.000000 0.000000 
0.000000 -0.000000 0.000000 
0.000000 0.000000 0.000000 

0.000000 0.000000 0.000000 
0.000000 -0.000000 0.000000 
0.000000 0.000000 0.000000 

0.000000 -0.000000 0.000000 
0.000000 -0.000000 0.000000 
0.000000 0.000000 0.000000 

-0.000000 -0.000000 0.000000 
0.000000 -0.000000 0.000000 
0.000000 0.000000 0.000000 

-0.000000 -0.000000 0.000000 
0.000000 -0.000000 0.000000 
0.000000 0.000000 0.000000 

-0.000000 -0.000000 0.000000 
0.000000 -0.000000 0.000000 
0.000000 0.000000 0.000000 

-0.000000 -0.000000 0.000000 
0.000000 0.000000 0.000000 
0.000000 0.000000 0.000000 

-0.000000 -0.000000 0.000000 
0.000000 0.000000 0.000000 
0.000000 0.000000 0.000000 

0.000000 0.000000 0.000000 
0.000000 -0.000000 0.000000 
0.000000 0.000000 0.000000 

0.000000 0.000000 0.000000 
0.000000 -0.000000 0.000000 
0.000000 0.000000 0.000000 

0.000000 0.000000 0.000000 
0.000000 -0.000000 0.000000 
0.000000 0.000000 0.000000 

0.000000 0.000000 0.000000 
0.000000 -0.000000 0.000000 
0.000000 0.000000 0.000000 

0.000000 0.000000 0.000000 
0.000000 -0.000000 0.000000 
0.000000 0.000000 0.000000 

-0.000000 -0.000000 0.000000 
0.000000 -0.000000 0.000000 
0.000000 0.000000 0.000000 

-0.000000 -0.000000 0.000000 
0.000000 -0.000000 0.000000 
0.000000 0.000000 0.000000 

-0.000000 -0.000000 0.000000 
0.000000 0.000000 0.000000 
0.000000 0.000000 0.000000 

-0.000000 -0.000000 0.000000 
0.000000 0.000000 0.000000 
0.000000 0.000000 0.000000 

-0.000000 0.000000 0.000000 
0.000000 0.000000 0.000000 
0.000000 0.000000 0.000000 

-0.000000 0.000000 0.000000 
0.000000 0.000000 0.000000 
0.000000 0.000000 0.000000 

0.000000 0.000000 0.000000 
0.000000 -0.000000 0.000000 
0.000000 0.000000 0.000000 

-0.000000 -0.000000 0.000000 
0.000000 -0.000000 0.000000 
0.000000 0.000000 0.000000 

-0.000000 -0.000000 0.000000 
0.000000 0.000000 0.000000 
0.000000 0.000000 0.000000 

-0.000000 -0.000000 0.000000 
0.000000 -0.000000 0.000000 
0.000000 0.000000 0.000000 

0.000000 -0.000000 0.000000 
0.000000 -0.000000 0.000000 
0.000000 0.000000 0.000000 

-0.000000 -0.000000 0.000000 
0.000000 0.000000 0.000000 
0.000000 0.000000 0.000000 

0.000000 -0.000000 0.000000 
0.000000 0.000000 0.000000 
0.000000 0.000000 0.000000 

-0.000000 -0.000000 0.000000 
0.000000 0.000000 0.000000 
0.000000 0.000000 0.000000 

0.000000 -0.000000 0.000000 
0.000000 0.000000 0.000000 
0.000000 0.000000 0.000000 

0.000000 -0.000000 0.000000 
0.000000 -0.000000 0.000000 
0.000000 0.000000 0.000000 

0.000000 -0.000000 0.000000 
0.000000 0.000000 0.000000 
0.000000 0.000000 0.000000 

0.000000 -0.000000 0.000000 
0.000000 -0.000000 0.000000 
0.000000 0.000000 0.000000 

0.000000 -0.000000 0.000000 
0.000000 -0.000000 0.000000 
0.000000 0.000000 0.000000 

-0.000000 0.000000 0.000000 
0.000000 0.000000 0.000000 
0.000000 0.000000 0.000000 

-0.000000 0.000000 0.000000 
0.000000 0.000000 0.000000 
0.000000 0.000000 0.000000 

-0.000000 0.000000 0.000000 
0.000000 0.000000 0.000000 
0.000000 0.000000 0.000000 

-0.000000 -0.000000 0.000000 
0.000000 0.000000 0.000000 
0.000000 0.000000 0.000000 

-0.000000 0.000000 0.000000 
0.000000 0.000000 0.000000 
0.000000 0.000000 0.000000 

0.000000 0.000000 0.000000 
0.000000 -0.000000 0.000000 
0.000000 0.000000 0.000000 

-0.000000 0.000000 0.000000 
0.000000 0.000000 0.000000 
0.000000 0.000000 0.000000 

-0.000000 0.000000 0.000000 
0.000000 0.000000 0.000000 
0.000000 0.000000 0.000000 

-0.000000 0.000000 0.000000 
0.000000 0.000000 0.000000 
0.000000 0.000000 0.000000 

-0.000000 -0.000000 0.000000 
0.000000 0.000000 0.000000 
0.000000 0.000000 0.000000 

-0.000000 -0.000000 0.000000 
0.000000 -0.000000 0.000000 
0.000000 0.000000 0.000000 

-0.000000 -0.000000 0.000000 
0.000000 0.000000 0.000000 
0.000000 0.000000 0.000000 

0.000000 -0.000000 0.000000 
0.000000 0.000000 0.000000 
0.000000 0.000000 0.000000 

-0.000000 -0.000000 0.000000 
0.000000 0.000000 0.000000 
0.000000 0.000000 0.000000 

-0.000000 -0.000000 0.000000 
0.000000 0.000000 0.000000 
0.000000 0.000000 0.000000 

-0.000000 -0.000000 0.000000 
0.000000 -0.000000 0.000000 
0.000000 0.000000 0.000000 

-0.000000 -0.000000 0.000000 
0.000000 0.000000 0.000000 
0.000000 0.000000 0.000000 

-0.000000 -0.000000 0.000000 
0.000000 -0.000000 0.000000 
0.000000 0.000000 0.000000 

-0.000000 -0.000000 0.000000 
0.000000 -0.000000 0.000000 
0.000000 0.000000 0.000000 

-0.000000 -0.000000 0.000000 
0.000000 0.000000 0.000000 
0.000000 0.000000 0.000000 

-0.000000 0.000000 0.000000 
0.000000 -0.000000 0.000000 
0.000000 0.000000 0.000000 

-0.000000 0.000000 0.000000 
0.000000 0.000000 0.000000 
0.000000 0.000000 0.000000 

-0.000000 -0.000000 0.000000 
0.000000 0.000000 0.000000 
0.000000 0.000000 0.000000 

0.000000 0.000000 0.000000 
0.000000 -0.000000 0.000000 
0.000000 0.000000 0.000000 

0.000000 -0.000000 0.000000 
0.000000 0.000000 0.000000 
0.000000 0.000000 0.000000 

0.000000 -0.000000 0.000000 
0.000000 -0.000000 0.000000 
0.000000 0.000000 0.000000 

-0.000000 0.000000 0.000000 
0.000000 0.000000 0.000000 
0.000000 0.000000 0.000000 

-0.000000 0.000000 0.000000 
0.000000 0.000000 0.000000 
0.000000 0.000000 0.000000 

0.000000 -0.000000 0.000000 
0.000000 0.000000 0.000000 
0.000000 0.000000 0.000000 

-0.000000 -0.000000 0.000000 
0.000000 0.000000 0.000000 
0.000000 0.000000 0.000000 

-0.000000 -0.000000 0.000000 
0.000000 -0.000000 0.000000 
0.000000 0.000000 0.000000 

0.000000 -0.000000 0.000000 
0.000000 0.000000 0.000000 
0.000000 0.000000 0.000000 

0.000000 -0.000000 0.000000 
0.000000 -0.000000 0.000000 
0.000000 0.000000 0.000000 

0.000000 0.000000 0.000000 
0.000000 -0.000000 0.000000 
0.000000 0.000000 0.000000 

0.000000 0.000000 0.000000 
0.000000 -0.000000 0.000000 
0.000000 0.000000 0.000000 

0.000000 0.000000 0.000000 
0.000000 -0.000000 0.000000 
0.000000 0.000000 0.000000 

0.000000 0.000000 0.000000 
0.000000 -0.000000 0.000000 
0.000000 0.000000 0.000000 

0.000000 -0.000000 0.000000 
0.000000 -0.000000 0.000000 
0.000000 0.000000 0.000000 

0.000000 0.000000 0.000000 
0.000000 0.000000 0.000000 
0.000000 0.000000 0.000000 

0.000000 -0.000000 0.000000 
0.000000 -0.000000 0.000000 
0.000000 0.000000 0.000000 

0.000000 0.000000 0.000000 
0.000000 0.000000 0.000000 
0.000000 0.000000 0.000000 

0.000000 -0.000000 0.000000 
0.000000 -0.000000 0.000000 
0.000000 0.000000 0.000000 

0.000000 -0.000000 0.000000 
0.000000 -0.000000 0.000000 
0.000000 0.000000 0.000000 

0.000000 -0.000000 0.000000 
0.000000 -0.000000 0.000000 
0.000000 0.000000 0.000000 

0.000000 -0.000000 0.000000 
0.000000 -0.000000 0.000000 
0.000000 0.000000 0.000000 

-0.000000 -0.000000 0.000000 
0.000000 -0.000000 0.000000 
0.000000 0.000000 0.000000 

0.000000 -0.000000 0.000000 
0.000000 -0.000000 0.000000 
0.000000 0.000000 0.000000 

0.000000 -0.000000 0.000000 
0.000000 -0.000000 0.000000 
0.000000 0.000000 0.000000 

0.000000 0.000000 0.000000 
0.000000 -0.000000 0.000000 
0.000000 0.000000 0.000000 

0.000000 0.000000 0.000000 
0.000000 -0.000000 0.000000 
0.000000 0.000000 0.000000 

0.000000 0.000000 0.000000 
0.000000 -0.000000 0.000000 
0.000000 0.000000 0.000000 

-0.000000 -0.000000 0.000000 
0.000000 0.000000 0.000000 
0.000000 0.000000 0.000000 

-0.000000 0.000000 0.000000 
0.000000 -0.000000 0.000000 
0.000000 0.000000 0.000000 

0.000000 -0.000000 0.000000 
0.000000 -0.000000 0.000000 
0.000000 0.000000 0.000000 

0.000000 -0.000000 0.000000 
0.000000 -0.000000 0.000000 
0.000000 0.000000 0.000000 

0.000000 0.000000 0.000000 
0.000000 -0.000000 0.000000 
0.000000 0.000000 0.000000 

0.000000 0.000000 0.000000 
0.000000 -0.000000 0.000000 
0.000000 0.000000 0.000000 

-0.000000 0.000000 0.000000 
0.000000 0.000000 0.000000 
0.000000 0.000000 0.000000 

0.000000 0.000000 0.000000 
0.000000 -0.000000 0.000000 
0.000000 0.000000 0.000000 

0.000000 0.000000 0.000000 
0.000000 -0.000000 0.000000 
0.000000 0.000000 0.000000 

0.000000 -0.000000 0.000000 
0.000000 -0.000000 0.000000 
0.000000 0.000000 0.000000 

0.000000 -0.000000 0.000000 
0.000000 0.000000 0.000000 
0.000000 0.000000 0.000000 

0.000000 -0.000000 0.000000 
0.000000 -0.000000 0.000000 
0.000000 0.000000 0.000000 

0.000000 0.000000 0.000000 
0.000000 -0.000000 0.000000 
0.000000 0.000000 0.000000 

0.000000 0.000000 0.000000 
0.000000 -0.000000 0.000000 
0.000000 0.000000 0.000000 

0.000000 -0.000000 0.000000 
0.000000 0.000000 0.000000 
0.000000 0.000000 0.000000 

0.000000 0.000000 0.000000 
0.000000 -0.000000 0.000000 
0.000000 0.000000 0.000000 

0.000000 0.000000 0.000000 
0.000000 -0.000000 0.000000 
0.000000 0.000000 0.000000 

0.000000 -0.000000 0.000000 
0.000000 0.000000 0.000000 
0.000000 0.000000 0.000000 

0.000000 -0.000000 0.000000 
0.000000 0.000000 0.000000 
0.000000 0.000000 0.000000 

0.000000 0.000000 0.000000 
0.000000 -0.000000 0.000000 
0.000000 0.000000 0.000000 

0.000000 0.000000 0.000000 
0.000000 -0.000000 0.000000 
0.000000 0.000000 0.000000 

0.000000 0.000000 0.000000 
0.000000 -0.000000 0.000000 
0.000000 0.000000 0.000000 

0.000000 0.000000 0.000000 
0.000000 -0.000000 0.000000 
0.000000 0.000000 0.000000 

0.000000 0.000000 0.000000 
0.000000 -0.000000 0.000000 
0.000000 0.000000 0.000000 

0.000000 -0.000000 0.000000 
0.000000 -0.000000 0.000000 
0.000000 0.000000 0.000000 

0.000000 -0.000000 0.000000 
0.000000 0.000000 0.000000 
0.000000 0.000000 0.000000 

0.000000 -0.000000 0.000000 
0.000000 -0.000000 0.000000 
0.000000 0.000000 0.000000 

0.000000 -0.000000 0.000000 
0.000000 -0.000000 0.000000 
0.000000 0.000000 0.000000 

0.000000 0.000000 0.000000 
0.000000 -0.000000 0.000000 
0.000000 0.000000 0.000000 

-0.000000 0.000000 0.000000 
0.000000 0.000000 0.000000 
0.000000 0.000000 0.000000 

0.000000 -0.000000 0.000000 
0.000000 -0.000000 0.000000 
0.000000 0.000000 0.000000 

0.000000 0.000000 0.000000 
0.000000 -0.000000 0.000000 
0.000000 0.000000 0.000000 

0.000000 0.000000 0.000000 
0.000000 0.000000 0.000000 
0.000000 0.000000 0.000000 

-0.000000 0.000000 0.000000 
0.000000 0.000000 0.000000 
0.000000 0.000000 0.000000 

-0.000000 -0.000000 0.000000 
0.000000 0.000000 0.000000 
0.000000 0.000000 0.000000 

0.000000 -0.000000 0.000000 
0.000000 -0.000000 0.000000 
0.000000 0.000000 0.000000 

0.000000 -0.000000 0.000000 
0.000000 -0.000000 0.000000 
0.000000 0.000000 0.000000 

0.000000 -0.000000 0.000000 
0.000000 -0.000000 0.000000 
0.000000 0.000000 0.000000 

0.000000 0.000000 0.000000 
0.000000 -0.000000 0.000000 
0.000000 0.000000 0.000000 

0.000000 0.000000 0.000000 
0.000000 -0.000000 0.000000 
0.000000 0.000000 0.000000 

0.000000 -0.000000 0.000000 
0.000000 0.000000 0.000000 
0.000000 0.000000 0.000000 

0.000000 -0.000000 0.000000 
0.000000 -0.000000 0.000000 
0.000000 0.000000 0.000000 

0.000000 0.000000 0.000000 
0.000000 -0.000000 0.000000 
0.000000 0.000000 0.000000 

0.000000 -0.000000 0.000000 
0.000000 -0.000000 0.000000 
0.000000 0.000000 0.000000 

0.000000 0.000000 0.000000 
0.000000 -0.000000 0.000000 
0.000000 0.000000 0.000000 

0.000000 0.000000 0.000000 
0.000000 -0.000000 0.000000 
0.000000 0.000000 0.000000 

0.000000 0.000000 0.000000 
0.000000 0.000000 0.000000 
0.000000 0.000000 0.000000 

0.000000 -0.000000 0.000000 
0.000000 -0.000000 0.000000 
0.000000 0.000000 0.000000 

0.000000 0.000000 0.000000 
0.000000 -0.000000 0.000000 
0.000000 0.000000 0.000000 

0.000000 0.000000 0.000000 
0.000000 -0.000000 0.000000 
0.000000 0.000000 0.000000 

0.000000 0.000000 0.000000 
0.000000 -0.000000 0.000000 
0.000000 0.000000 0.000000 

0.000000 0.000000 0.000000 
0.000000 -0.000000 0.000000 
0.000000 0.000000 0.000000 

0.000000 0.000000 0.000000 
0.000000 0.000000 0.000000 
0.000000 0.000000 0.000000 

-0.000000 0.000000 0.000000 
0.000000 0.000000 0.000000 
0.000000 0.000000 0.000000 

-0.000000 0.000000 0.000000 
0.000000 0.000000 0.000000 
0.000000 0.000000 0.000000 

0.000000 -0.000000 0.000000 
0.000000 0.000000 0.000000 
0.000000 0.000000 0.000000 

0.000000 -0.000000 0.000000 
0.000000 0.000000 0.000000 
0.000000 0.000000 0.000000 

0.000000 0.000000 0.000000 
0.000000 0.000000 0.000000 
0.000000 0.000000 0.000000 

0.000000 -0.000000 0.000000 
0.000000 -0.000000 0.000000 
0.000000 0.000000 0.000000 

0.000000 -0.000000 0.000000 
0.000000 0.000000 0.000000 
0.000000 0.000000 0.000000 

0.000000 -0.000000 0.000000 
0.000000 -0.000000 0.000000 
0.000000 0.000000 0.000000 

0.000000 -0.000000 0.000000 
0.000000 -0.000000 0.000000 
0.000000 0.000000 0.000000 

0.000000 0.000000 0.000000 
0.000000 -0.000000 0.000000 
0.000000 0.000000 0.000000 

0.000000 0.000000 0.000000 
0.000000 -0.000000 0.000000 
0.000000 0.000000 0.000000 

0.000000 -0.000000 0.000000 
0.000000 -0.000000 0.000000 
0.000000 0.000000 0.000000 

0.000000 -0.000000 0.000000 
0.000000 -0.000000 0.000000 
0.000000 0.000000 0.000000 

0.000000 0.000000 0.000000 
0.000000 -0.000000 0.000000 
0.000000 0.000000 0.000000 

-0.000000 0.000000 0.000000 
0.000000 0.000000 0.000000 
0.000000 0.000000 0.000000 

-0.000000 0.000000 0.000000 
0.000000 0.000000 0.000000 
0.000000 0.000000 0.000000 

-0.000000 0.000000 0.000000 
0.000000 0.000000 0.000000 
0.000000 0.000000 0.000000 

0.000000 0.000000 0.000000 
0.000000 -0.000000 0.000000 
0.000000 0.000000 0.000000 

0.000000 0.000000 0.000000 
0.000000 -0.000000 0.000000 
0.000000 0.000000 0.000000 

-0.000000 0.000000 0.000000 
0.000000 -0.000000 0.000000 
0.000000 0.000000 0.000000 

-0.000000 0.000000 0.000000 
0.000000 -0.000000 0.000000 
0.000000 0.000000 0.000000 

-0.000000 0.000000 0.000000 
0.000000 0.000000 0.000000 
0.000000 0.000000 0.000000 

-0.000000 -0.000000 0.000000 
0.000000 0.000000 0.000000 
0.000000 0.000000 0.000000 

0.000000 -0.000000 0.000000 
0.000000 -0.000000 0.000000 
0.000000 0.000000 0.000000 

-0.000000 0.000000 0.000000 
0.000000 0.000000 0.000000 
0.000000 0.000000 0.000000 

-0.000000 -0.000000 0.000000 
0.000000 0.000000 0.000000 
0.000000 0.000000 0.000000 

-0.000000 0.000000 0.000000 
0.000000 0.000000 0.000000 
0.000000 0.000000 0.000000 

-0.000000 0.000000 0.000000 
0.000000 0.000000 0.000000 
0.000000 0.000000 0.000000 

-0.000000 -0.000000 0.000000 
0.000000 0.000000 0.000000 
0.000000 0.000000 0.000000 

-0.000000 0.000000 0.000000 
0.000000 0.000000 0.000000 
0.000000 0.000000 0.000000 

-0.000000 -0.000000 0.000000 
0.000000 0.000000 0.000000 
0.000000 0.000000 0.000000 

0.000000 0.000000 0.000000 
0.000000 -0.000000 0.000000 
0.000000 0.000000 0.000000 

0.000000 -0.000000 0.000000 
0.000000 -0.000000 0.000000 
0.000000 0.000000 0.000000 

