# vtk DataFile Version 3.0 
vtk output 
ASCII 
DATASET UNSTRUCTURED_GRID 
POINTS 175 float 
-0.026061 -0.761989 0.000000 
-0.106992 -0.693934 0.000000 
-0.054870 -0.702167 0.000000 
-0.028809 -0.656283 0.000000 
-0.186430 -0.629858 0.000000 
-0.137056 -0.632385 0.000000 
-0.114311 -0.578737 0.000000 
-0.058186 -0.594403 0.000000 
-0.029377 -0.554226 0.000000 
-0.265318 -0.566703 0.000000 
-0.217198 -0.567502 0.000000 
-0.196633 -0.510206 0.000000 
-0.143120 -0.518914 0.000000 
-0.116563 -0.471646 0.000000 
-0.058945 -0.491292 0.000000 
-0.029568 -0.453172 0.000000 
-0.344206 -0.503547 0.000000 
-0.296791 -0.503540 0.000000 
-0.278030 -0.443597 0.000000 
-0.225992 -0.449463 0.000000 
-0.201664 -0.397346 0.000000 
-0.145749 -0.410820 0.000000 
-0.117890 -0.366477 0.000000 
-0.059328 -0.389183 0.000000 
-0.029759 -0.352117 0.000000 
-0.058559 -0.802740 0.000000 
-0.162226 -0.823583 0.000000 
-0.123292 -0.787965 0.000000 
-0.142917 -0.738982 0.000000 
-0.261851 -0.845739 0.000000 
-0.229092 -0.808712 0.000000 
-0.256854 -0.757481 0.000000 
-0.209613 -0.723368 0.000000 
-0.223062 -0.675794 0.000000 
-0.360414 -0.868039 0.000000 
-0.329787 -0.830916 0.000000 
-0.361761 -0.779114 0.000000 
-0.321587 -0.742706 0.000000 
-0.341985 -0.692471 0.000000 
-0.290702 -0.659673 0.000000 
-0.302189 -0.612937 0.000000 
-0.458977 -0.890339 0.000000 
-0.429420 -0.853265 0.000000 
-0.464588 -0.801223 0.000000 
-0.427556 -0.764195 0.000000 
-0.453135 -0.712681 0.000000 
-0.407738 -0.677365 0.000000 
-0.425037 -0.627937 0.000000 
-0.370772 -0.596308 0.000000 
-0.381315 -0.550081 0.000000 
-0.046960 -0.853555 0.000000 
-0.095301 -0.947601 0.000000 
-0.098873 -0.894954 0.000000 
-0.149405 -0.879756 0.000000 
-0.140093 -1.039305 0.000000 
-0.148617 -0.990607 0.000000 
-0.205981 -0.980370 0.000000 
-0.203197 -0.922166 0.000000 
-0.248777 -0.903020 0.000000 
-0.184111 -1.130269 0.000000 
-0.194039 -1.083178 0.000000 
-0.254475 -1.075878 0.000000 
-0.257893 -1.021768 0.000000 
-0.309886 -1.006396 0.000000 
-0.303554 -0.945851 0.000000 
-0.347255 -0.925693 0.000000 
-0.228129 -1.221232 0.000000 
-0.238687 -1.175008 0.000000 
-0.301302 -1.170056 0.000000 
-0.307162 -1.118017 0.000000 
-0.363386 -1.105896 0.000000 
-0.362692 -1.048385 0.000000 
-0.412122 -1.031092 0.000000 
-0.403017 -0.968945 0.000000 
-0.445733 -0.948366 0.000000 
-0.000000 -0.876170 0.000000 
0.043388 -0.972601 0.000000 
-0.000000 -0.942569 0.000000 
-0.043388 -0.972601 0.000000 
0.087158 -1.064798 0.000000 
0.043769 -1.041099 0.000000 
-0.000000 -1.079565 0.000000 
-0.043769 -1.041099 0.000000 
-0.087158 -1.064798 0.000000 
0.130831 -1.155927 0.000000 
0.087824 -1.134328 0.000000 
0.044436 -1.177028 0.000000 
-0.000000 -1.145963 0.000000 
-0.044436 -1.177028 0.000000 
-0.087824 -1.134328 0.000000 
-0.130831 -1.155927 0.000000 
0.174505 -1.247057 0.000000 
0.131782 -1.226491 0.000000 
0.088871 -1.272357 0.000000 
0.044532 -1.244493 0.000000 
-0.000000 -1.280894 0.000000 
-0.044532 -1.244493 0.000000 
-0.088871 -1.272357 0.000000 
-0.131782 -1.226491 0.000000 
-0.174505 -1.247057 0.000000 
0.046960 -0.853555 0.000000 
0.149405 -0.879756 0.000000 
0.098873 -0.894954 0.000000 
0.095301 -0.947601 0.000000 
0.248777 -0.903020 0.000000 
0.203197 -0.922166 0.000000 
0.205981 -0.980370 0.000000 
0.148617 -0.990607 0.000000 
0.140093 -1.039305 0.000000 
0.347255 -0.925693 0.000000 
0.303554 -0.945851 0.000000 
0.309886 -1.006396 0.000000 
0.257893 -1.021768 0.000000 
0.254475 -1.075878 0.000000 
0.194039 -1.083178 0.000000 
0.184111 -1.130269 0.000000 
0.445733 -0.948366 0.000000 
0.403017 -0.968945 0.000000 
0.412122 -1.031092 0.000000 
0.362692 -1.048385 0.000000 
0.363386 -1.105896 0.000000 
0.307162 -1.118017 0.000000 
0.301302 -1.170056 0.000000 
0.238687 -1.175008 0.000000 
0.228129 -1.221232 0.000000 
0.058559 -0.802740 0.000000 
0.142917 -0.738982 0.000000 
0.123292 -0.787965 0.000000 
0.162226 -0.823583 0.000000 
0.223062 -0.675794 0.000000 
0.209613 -0.723368 0.000000 
0.256854 -0.757481 0.000000 
0.229092 -0.808712 0.000000 
0.261851 -0.845739 0.000000 
0.302189 -0.612937 0.000000 
0.290702 -0.659673 0.000000 
0.341985 -0.692471 0.000000 
0.321587 -0.742706 0.000000 
0.361761 -0.779114 0.000000 
0.329787 -0.830916 0.000000 
0.360414 -0.868039 0.000000 
0.381315 -0.550081 0.000000 
0.370772 -0.596308 0.000000 
0.425037 -0.627937 0.000000 
0.407738 -0.677365 0.000000 
0.453135 -0.712681 0.000000 
0.427556 -0.764195 0.000000 
0.464588 -0.801223 0.000000 
0.429420 -0.853265 0.000000 
0.458977 -0.890339 0.000000 
0.026061 -0.761989 0.000000 
0.028809 -0.656283 0.000000 
0.054870 -0.702167 0.000000 
0.106992 -0.693934 0.000000 
0.029377 -0.554226 0.000000 
0.058186 -0.594403 0.000000 
0.114311 -0.578737 0.000000 
0.137056 -0.632385 0.000000 
0.186430 -0.629858 0.000000 
0.029568 -0.453172 0.000000 
0.058945 -0.491292 0.000000 
0.116563 -0.471646 0.000000 
0.143120 -0.518914 0.000000 
0.196633 -0.510206 0.000000 
0.217198 -0.567502 0.000000 
0.265318 -0.566703 0.000000 
0.029759 -0.352117 0.000000 
0.059328 -0.389183 0.000000 
0.117890 -0.366477 0.000000 
0.145749 -0.410820 0.000000 
0.201664 -0.397346 0.000000 
0.225992 -0.449463 0.000000 
0.278030 -0.443597 0.000000 
0.296791 -0.503540 0.000000 
0.344206 -0.503547 0.000000 
CELLS 175 350 
1 0 
1 1 
1 2 
1 3 
1 4 
1 5 
1 6 
1 7 
1 8 
1 9 
1 10 
1 11 
1 12 
1 13 
1 14 
1 15 
1 16 
1 17 
1 18 
1 19 
1 20 
1 21 
1 22 
1 23 
1 24 
1 25 
1 26 
1 27 
1 28 
1 29 
1 30 
1 31 
1 32 
1 33 
1 34 
1 35 
1 36 
1 37 
1 38 
1 39 
1 40 
1 41 
1 42 
1 43 
1 44 
1 45 
1 46 
1 47 
1 48 
1 49 
1 50 
1 51 
1 52 
1 53 
1 54 
1 55 
1 56 
1 57 
1 58 
1 59 
1 60 
1 61 
1 62 
1 63 
1 64 
1 65 
1 66 
1 67 
1 68 
1 69 
1 70 
1 71 
1 72 
1 73 
1 74 
1 75 
1 76 
1 77 
1 78 
1 79 
1 80 
1 81 
1 82 
1 83 
1 84 
1 85 
1 86 
1 87 
1 88 
1 89 
1 90 
1 91 
1 92 
1 93 
1 94 
1 95 
1 96 
1 97 
1 98 
1 99 
1 100 
1 101 
1 102 
1 103 
1 104 
1 105 
1 106 
1 107 
1 108 
1 109 
1 110 
1 111 
1 112 
1 113 
1 114 
1 115 
1 116 
1 117 
1 118 
1 119 
1 120 
1 121 
1 122 
1 123 
1 124 
1 125 
1 126 
1 127 
1 128 
1 129 
1 130 
1 131 
1 132 
1 133 
1 134 
1 135 
1 136 
1 137 
1 138 
1 139 
1 140 
1 141 
1 142 
1 143 
1 144 
1 145 
1 146 
1 147 
1 148 
1 149 
1 150 
1 151 
1 152 
1 153 
1 154 
1 155 
1 156 
1 157 
1 158 
1 159 
1 160 
1 161 
1 162 
1 163 
1 164 
1 165 
1 166 
1 167 
1 168 
1 169 
1 170 
1 171 
1 172 
1 173 
1 174 
CELL_TYPES 175 
1 
1 
1 
1 
1 
1 
1 
1 
1 
1 
1 
1 
1 
1 
1 
1 
1 
1 
1 
1 
1 
1 
1 
1 
1 
1 
1 
1 
1 
1 
1 
1 
1 
1 
1 
1 
1 
1 
1 
1 
1 
1 
1 
1 
1 
1 
1 
1 
1 
1 
1 
1 
1 
1 
1 
1 
1 
1 
1 
1 
1 
1 
1 
1 
1 
1 
1 
1 
1 
1 
1 
1 
1 
1 
1 
1 
1 
1 
1 
1 
1 
1 
1 
1 
1 
1 
1 
1 
1 
1 
1 
1 
1 
1 
1 
1 
1 
1 
1 
1 
1 
1 
1 
1 
1 
1 
1 
1 
1 
1 
1 
1 
1 
1 
1 
1 
1 
1 
1 
1 
1 
1 
1 
1 
1 
1 
1 
1 
1 
1 
1 
1 
1 
1 
1 
1 
1 
1 
1 
1 
1 
1 
1 
1 
1 
1 
1 
1 
1 
1 
1 
1 
1 
1 
1 
1 
1 
1 
1 
1 
1 
1 
1 
1 
1 
1 
1 
1 
1 
1 
1 
1 
1 
1 
1 
POINT_DATA 175 
VECTORS X_GC float 
-0.026061 -0.761989 0.000000 
-0.106992 -0.693934 0.000000 
-0.054870 -0.702167 0.000000 
-0.028809 -0.656283 0.000000 
-0.186430 -0.629858 0.000000 
-0.137056 -0.632385 0.000000 
-0.114311 -0.578737 0.000000 
-0.058186 -0.594403 0.000000 
-0.029377 -0.554226 0.000000 
-0.265318 -0.566703 0.000000 
-0.217198 -0.567502 0.000000 
-0.196633 -0.510206 0.000000 
-0.143120 -0.518914 0.000000 
-0.116563 -0.471646 0.000000 
-0.058945 -0.491292 0.000000 
-0.029568 -0.453172 0.000000 
-0.344206 -0.503547 0.000000 
-0.296791 -0.503540 0.000000 
-0.278030 -0.443597 0.000000 
-0.225992 -0.449463 0.000000 
-0.201664 -0.397346 0.000000 
-0.145749 -0.410820 0.000000 
-0.117890 -0.366477 0.000000 
-0.059328 -0.389183 0.000000 
-0.029759 -0.352117 0.000000 
-0.058559 -0.802740 0.000000 
-0.162226 -0.823583 0.000000 
-0.123292 -0.787965 0.000000 
-0.142917 -0.738982 0.000000 
-0.261851 -0.845739 0.000000 
-0.229092 -0.808712 0.000000 
-0.256854 -0.757481 0.000000 
-0.209613 -0.723368 0.000000 
-0.223062 -0.675794 0.000000 
-0.360414 -0.868039 0.000000 
-0.329787 -0.830916 0.000000 
-0.361761 -0.779114 0.000000 
-0.321587 -0.742706 0.000000 
-0.341985 -0.692471 0.000000 
-0.290702 -0.659673 0.000000 
-0.302189 -0.612937 0.000000 
-0.458977 -0.890339 0.000000 
-0.429420 -0.853265 0.000000 
-0.464588 -0.801223 0.000000 
-0.427556 -0.764195 0.000000 
-0.453135 -0.712681 0.000000 
-0.407738 -0.677365 0.000000 
-0.425037 -0.627937 0.000000 
-0.370772 -0.596308 0.000000 
-0.381315 -0.550081 0.000000 
-0.046960 -0.853555 0.000000 
-0.095301 -0.947601 0.000000 
-0.098873 -0.894954 0.000000 
-0.149405 -0.879756 0.000000 
-0.140093 -1.039305 0.000000 
-0.148617 -0.990607 0.000000 
-0.205981 -0.980370 0.000000 
-0.203197 -0.922166 0.000000 
-0.248777 -0.903020 0.000000 
-0.184111 -1.130269 0.000000 
-0.194039 -1.083178 0.000000 
-0.254475 -1.075878 0.000000 
-0.257893 -1.021768 0.000000 
-0.309886 -1.006396 0.000000 
-0.303554 -0.945851 0.000000 
-0.347255 -0.925693 0.000000 
-0.228129 -1.221232 0.000000 
-0.238687 -1.175008 0.000000 
-0.301302 -1.170056 0.000000 
-0.307162 -1.118017 0.000000 
-0.363386 -1.105896 0.000000 
-0.362692 -1.048385 0.000000 
-0.412122 -1.031092 0.000000 
-0.403017 -0.968945 0.000000 
-0.445733 -0.948366 0.000000 
-0.000000 -0.876170 0.000000 
0.043388 -0.972601 0.000000 
-0.000000 -0.942569 0.000000 
-0.043388 -0.972601 0.000000 
0.087158 -1.064798 0.000000 
0.043769 -1.041099 0.000000 
-0.000000 -1.079565 0.000000 
-0.043769 -1.041099 0.000000 
-0.087158 -1.064798 0.000000 
0.130831 -1.155927 0.000000 
0.087824 -1.134328 0.000000 
0.044436 -1.177028 0.000000 
-0.000000 -1.145963 0.000000 
-0.044436 -1.177028 0.000000 
-0.087824 -1.134328 0.000000 
-0.130831 -1.155927 0.000000 
0.174505 -1.247057 0.000000 
0.131782 -1.226491 0.000000 
0.088871 -1.272357 0.000000 
0.044532 -1.244493 0.000000 
-0.000000 -1.280894 0.000000 
-0.044532 -1.244493 0.000000 
-0.088871 -1.272357 0.000000 
-0.131782 -1.226491 0.000000 
-0.174505 -1.247057 0.000000 
0.046960 -0.853555 0.000000 
0.149405 -0.879756 0.000000 
0.098873 -0.894954 0.000000 
0.095301 -0.947601 0.000000 
0.248777 -0.903020 0.000000 
0.203197 -0.922166 0.000000 
0.205981 -0.980370 0.000000 
0.148617 -0.990607 0.000000 
0.140093 -1.039305 0.000000 
0.347255 -0.925693 0.000000 
0.303554 -0.945851 0.000000 
0.309886 -1.006396 0.000000 
0.257893 -1.021768 0.000000 
0.254475 -1.075878 0.000000 
0.194039 -1.083178 0.000000 
0.184111 -1.130269 0.000000 
0.445733 -0.948366 0.000000 
0.403017 -0.968945 0.000000 
0.412122 -1.031092 0.000000 
0.362692 -1.048385 0.000000 
0.363386 -1.105896 0.000000 
0.307162 -1.118017 0.000000 
0.301302 -1.170056 0.000000 
0.238687 -1.175008 0.000000 
0.228129 -1.221232 0.000000 
0.058559 -0.802740 0.000000 
0.142917 -0.738982 0.000000 
0.123292 -0.787965 0.000000 
0.162226 -0.823583 0.000000 
0.223062 -0.675794 0.000000 
0.209613 -0.723368 0.000000 
0.256854 -0.757481 0.000000 
0.229092 -0.808712 0.000000 
0.261851 -0.845739 0.000000 
0.302189 -0.612937 0.000000 
0.290702 -0.659673 0.000000 
0.341985 -0.692471 0.000000 
0.321587 -0.742706 0.000000 
0.361761 -0.779114 0.000000 
0.329787 -0.830916 0.000000 
0.360414 -0.868039 0.000000 
0.381315 -0.550081 0.000000 
0.370772 -0.596308 0.000000 
0.425037 -0.627937 0.000000 
0.407738 -0.677365 0.000000 
0.453135 -0.712681 0.000000 
0.427556 -0.764195 0.000000 
0.464588 -0.801223 0.000000 
0.429420 -0.853265 0.000000 
0.458977 -0.890339 0.000000 
0.026061 -0.761989 0.000000 
0.028809 -0.656283 0.000000 
0.054870 -0.702167 0.000000 
0.106992 -0.693934 0.000000 
0.029377 -0.554226 0.000000 
0.058186 -0.594403 0.000000 
0.114311 -0.578737 0.000000 
0.137056 -0.632385 0.000000 
0.186430 -0.629858 0.000000 
0.029568 -0.453172 0.000000 
0.058945 -0.491292 0.000000 
0.116563 -0.471646 0.000000 
0.143120 -0.518914 0.000000 
0.196633 -0.510206 0.000000 
0.217198 -0.567502 0.000000 
0.265318 -0.566703 0.000000 
0.029759 -0.352117 0.000000 
0.059328 -0.389183 0.000000 
0.117890 -0.366477 0.000000 
0.145749 -0.410820 0.000000 
0.201664 -0.397346 0.000000 
0.225992 -0.449463 0.000000 
0.278030 -0.443597 0.000000 
0.296791 -0.503540 0.000000 
0.344206 -0.503547 0.000000 
VECTORS X_EC float 
0.338794 0.786856 0.000000 
-0.609100 -0.131892 0.000000 
0.713312 -0.020751 0.000000 
0.374519 -0.640181 0.000000 
0.423588 -0.996912 0.000000 
-0.218274 -0.962808 0.000000 
-0.513962 0.312953 0.000000 
0.756418 0.524439 0.000000 
0.381900 -0.017953 0.000000 
-0.550868 0.150485 0.000000 
0.823577 0.161281 0.000000 
0.556234 -0.612223 0.000000 
-0.139443 -0.494654 0.000000 
-0.484677 0.867221 0.000000 
0.766286 -0.867564 0.000000 
0.384386 0.617816 0.000000 
0.474677 -0.702118 0.000000 
-0.141715 -0.702214 0.000000 
-0.385608 0.488558 0.000000 
0.937896 0.567753 0.000000 
0.621631 -0.135827 0.000000 
-0.105264 0.046072 0.000000 
-0.467428 -0.552554 0.000000 
0.771260 -0.246026 0.000000 
0.386873 -0.746415 0.000000 
0.761262 -0.663009 0.000000 
0.108942 -0.381633 0.000000 
-0.397202 -0.862472 0.000000 
-0.142083 0.476253 0.000000 
-0.595936 -0.082522 0.000000 
0.978194 -0.582388 0.000000 
-0.660903 0.725987 0.000000 
0.724964 0.265467 0.000000 
0.899809 -0.376782 0.000000 
0.685384 0.218530 0.000000 
0.287229 -0.282628 0.000000 
0.702895 -0.981957 0.000000 
0.180633 0.526524 0.000000 
0.445811 -0.151635 0.000000 
-0.220880 -0.594421 0.000000 
-0.071546 0.774653 0.000000 
-0.033296 0.519582 0.000000 
-0.417537 0.019073 0.000000 
0.039645 -0.683490 0.000000 
-0.441768 0.816639 0.000000 
-0.109248 0.121188 0.000000 
-0.699407 -0.355567 0.000000 
-0.474522 0.977153 0.000000 
0.820030 0.550160 0.000000 
0.957100 -0.073912 0.000000 
0.610485 0.022997 0.000000 
-0.761092 -0.707384 0.000000 
-0.714655 0.581879 0.000000 
-0.057734 0.376712 0.000000 
-0.178789 0.530621 0.000000 
-0.067979 -0.126806 0.000000 
0.677748 -0.265009 0.000000 
0.641556 0.949246 0.000000 
-0.765897 0.690767 0.000000 
0.393446 -0.241370 0.000000 
0.522510 -0.877100 0.000000 
-0.691820 -0.975645 0.000000 
-0.647393 0.293873 0.000000 
0.028512 0.086346 0.000000 
-0.053800 -0.731014 0.000000 
0.514316 0.996855 0.000000 
0.965681 0.986639 0.000000 
-0.897068 0.362610 0.000000 
-0.083078 0.295757 0.000000 
-0.006893 -0.406768 0.000000 
0.724017 -0.570401 0.000000 
0.714996 0.653196 0.000000 
-0.642413 0.419739 0.000000 
-0.760780 -0.419242 0.000000 
-0.205471 -0.697057 0.000000 
0.000000 0.328299 0.000000 
-0.564049 -0.369889 0.000000 
0.000000 -0.775325 0.000000 
0.564049 -0.369889 0.000000 
0.866949 0.874767 0.000000 
-0.569003 0.554836 0.000000 
0.000000 -0.925876 0.000000 
0.569003 0.554836 0.000000 
-0.866949 0.874767 0.000000 
0.299194 0.105017 0.000000 
0.858290 -0.186567 0.000000 
-0.577662 0.389879 0.000000 
0.000000 -0.029499 0.000000 
0.577662 0.389879 0.000000 
-0.858290 -0.186567 0.000000 
-0.299194 0.105017 0.000000 
-0.268560 -0.664733 0.000000 
0.286830 -0.942375 0.000000 
0.844677 -0.323177 0.000000 
-0.578910 -0.699339 0.000000 
0.000000 -0.207935 0.000000 
0.578910 -0.699339 0.000000 
-0.844677 -0.323177 0.000000 
-0.286830 -0.942375 0.000000 
0.268560 -0.664733 0.000000 
-0.610485 0.022997 0.000000 
0.057734 0.376712 0.000000 
0.714655 0.581879 0.000000 
0.761092 -0.707384 0.000000 
0.765897 0.690767 0.000000 
-0.641556 0.949246 0.000000 
-0.677748 -0.265009 0.000000 
0.067979 -0.126806 0.000000 
0.178789 0.530621 0.000000 
-0.514316 0.996855 0.000000 
0.053800 -0.731014 0.000000 
-0.028512 0.086346 0.000000 
0.647393 0.293873 0.000000 
0.691820 -0.975645 0.000000 
-0.522510 -0.877100 0.000000 
-0.393446 -0.241370 0.000000 
0.205471 -0.697057 0.000000 
0.760780 -0.419242 0.000000 
0.642413 0.419739 0.000000 
-0.714996 0.653196 0.000000 
-0.724017 -0.570401 0.000000 
0.006894 -0.406768 0.000000 
0.083078 0.295757 0.000000 
0.897068 0.362610 0.000000 
-0.965681 0.986639 0.000000 
-0.761262 -0.663009 0.000000 
0.142083 0.476253 0.000000 
0.397202 -0.862472 0.000000 
-0.108942 -0.381633 0.000000 
-0.899809 -0.376782 0.000000 
-0.724964 0.265467 0.000000 
0.660903 0.725987 0.000000 
-0.978194 -0.582388 0.000000 
0.595936 -0.082522 0.000000 
0.071546 0.774653 0.000000 
0.220880 -0.594421 0.000000 
-0.445811 -0.151635 0.000000 
-0.180633 0.526524 0.000000 
-0.702895 -0.981957 0.000000 
-0.287229 -0.282628 0.000000 
-0.685384 0.218530 0.000000 
-0.957100 -0.073912 0.000000 
-0.820030 0.550160 0.000000 
0.474522 0.977154 0.000000 
0.699407 -0.355567 0.000000 
0.109248 0.121188 0.000000 
0.441768 0.816639 0.000000 
-0.039645 -0.683490 0.000000 
0.417537 0.019073 0.000000 
0.033296 0.519582 0.000000 
-0.338794 0.786856 0.000000 
-0.374519 -0.640181 0.000000 
-0.713312 -0.020751 0.000000 
0.609100 -0.131892 0.000000 
-0.381900 -0.017953 0.000000 
-0.756418 0.524439 0.000000 
0.513962 0.312953 0.000000 
0.218274 -0.962808 0.000000 
-0.423588 -0.996912 0.000000 
-0.384386 0.617816 0.000000 
-0.766286 -0.867564 0.000000 
0.484677 0.867221 0.000000 
0.139443 -0.494654 0.000000 
-0.556234 -0.612223 0.000000 
-0.823577 0.161281 0.000000 
0.550868 0.150485 0.000000 
-0.386873 -0.746415 0.000000 
-0.771260 -0.246026 0.000000 
0.467428 -0.552554 0.000000 
0.105264 0.046072 0.000000 
-0.621631 -0.135827 0.000000 
-0.937896 0.567753 0.000000 
0.385608 0.488558 0.000000 
0.141715 -0.702214 0.000000 
-0.474677 -0.702118 0.000000 
CELL_DATA 175 
SCALARS MASS float 
LOOKUP_TABLE default 
0.781831 
0.864274 
0.946717 
0.864274 
0.881307 
0.921110 
0.858535 
0.921110 
0.881307 
0.887046 
0.910001 
0.869829 
0.915556 
0.869829 
0.910001 
0.887046 
0.892784 
0.915740 
0.892784 
0.927218 
0.892784 
0.927218 
0.892784 
0.915740 
0.892784 
0.781831 
0.864274 
0.946717 
0.864274 
0.881307 
0.921110 
0.858535 
0.921110 
0.881307 
0.887046 
0.910001 
0.869829 
0.915556 
0.869829 
0.910001 
0.887046 
0.892784 
0.915740 
0.892784 
0.927218 
0.892784 
0.927218 
0.892784 
0.915740 
0.892784 
0.781831 
0.864274 
0.946717 
0.864274 
0.881307 
0.921110 
0.858535 
0.921110 
0.881307 
0.887046 
0.910001 
0.869829 
0.915556 
0.869829 
0.910001 
0.887046 
0.892784 
0.915740 
0.892784 
0.927218 
0.892784 
0.927218 
0.892784 
0.915740 
0.892784 
0.781831 
0.864274 
0.946717 
0.864274 
0.881307 
0.921110 
0.858535 
0.921110 
0.881307 
0.887046 
0.910001 
0.869829 
0.915556 
0.869829 
0.910001 
0.887046 
0.892784 
0.915740 
0.892784 
0.927218 
0.892784 
0.927218 
0.892784 
0.915740 
0.892784 
0.781831 
0.864274 
0.946717 
0.864274 
0.881307 
0.921110 
0.858535 
0.921110 
0.881307 
0.887046 
0.910001 
0.869829 
0.915556 
0.869829 
0.910001 
0.887046 
0.892784 
0.915740 
0.892784 
0.927218 
0.892784 
0.927218 
0.892784 
0.915740 
0.892784 
0.781831 
0.864274 
0.946717 
0.864274 
0.881307 
0.921110 
0.858535 
0.921110 
0.881307 
0.887046 
0.910001 
0.869829 
0.915556 
0.869829 
0.910001 
0.887046 
0.892784 
0.915740 
0.892784 
0.927218 
0.892784 
0.927218 
0.892784 
0.915740 
0.892784 
0.781831 
0.864274 
0.946717 
0.864274 
0.881307 
0.921110 
0.858535 
0.921110 
0.881307 
0.887046 
0.910001 
0.869829 
0.915556 
0.869829 
0.910001 
0.887046 
0.892784 
0.915740 
0.892784 
0.927218 
0.892784 
0.927218 
0.892784 
0.915740 
0.892784 
SCALARS MASS float 
LOOKUP_TABLE default 
0.781831 
0.864274 
0.946717 
0.864274 
0.881307 
0.921110 
0.858535 
0.921110 
0.881307 
0.887046 
0.910001 
0.869829 
0.915556 
0.869829 
0.910001 
0.887046 
0.892784 
0.915740 
0.892784 
0.927218 
0.892784 
0.927218 
0.892784 
0.915740 
0.892784 
0.781831 
0.864274 
0.946717 
0.864274 
0.881307 
0.921110 
0.858535 
0.921110 
0.881307 
0.887046 
0.910001 
0.869829 
0.915556 
0.869829 
0.910001 
0.887046 
0.892784 
0.915740 
0.892784 
0.927218 
0.892784 
0.927218 
0.892784 
0.915740 
0.892784 
0.781831 
0.864274 
0.946717 
0.864274 
0.881307 
0.921110 
0.858535 
0.921110 
0.881307 
0.887046 
0.910001 
0.869829 
0.915556 
0.869829 
0.910001 
0.887046 
0.892784 
0.915740 
0.892784 
0.927218 
0.892784 
0.927218 
0.892784 
0.915740 
0.892784 
0.781831 
0.864274 
0.946717 
0.864274 
0.881307 
0.921110 
0.858535 
0.921110 
0.881307 
0.887046 
0.910001 
0.869829 
0.915556 
0.869829 
0.910001 
0.887046 
0.892784 
0.915740 
0.892784 
0.927218 
0.892784 
0.927218 
0.892784 
0.915740 
0.892784 
0.781831 
0.864274 
0.946717 
0.864274 
0.881307 
0.921110 
0.858535 
0.921110 
0.881307 
0.887046 
0.910001 
0.869829 
0.915556 
0.869829 
0.910001 
0.887046 
0.892784 
0.915740 
0.892784 
0.927218 
0.892784 
0.927218 
0.892784 
0.915740 
0.892784 
0.781831 
0.864274 
0.946717 
0.864274 
0.881307 
0.921110 
0.858535 
0.921110 
0.881307 
0.887046 
0.910001 
0.869829 
0.915556 
0.869829 
0.910001 
0.887046 
0.892784 
0.915740 
0.892784 
0.927218 
0.892784 
0.927218 
0.892784 
0.915740 
0.892784 
0.781831 
0.864274 
0.946717 
0.864274 
0.881307 
0.921110 
0.858535 
0.921110 
0.881307 
0.887046 
0.910001 
0.869829 
0.915556 
0.869829 
0.910001 
0.887046 
0.892784 
0.915740 
0.892784 
0.927218 
0.892784 
0.927218 
0.892784 
0.915740 
0.892784 
SCALARS DENSITY float 
LOOKUP_TABLE default 
200.000000 
200.000000 
200.000000 
200.000000 
200.000000 
200.000000 
200.000000 
200.000000 
200.000000 
200.000000 
200.000000 
200.000000 
200.000000 
200.000000 
200.000000 
200.000000 
200.000000 
200.000000 
200.000000 
200.000000 
200.000000 
200.000000 
200.000000 
200.000000 
200.000000 
200.000000 
200.000000 
200.000000 
200.000000 
200.000000 
200.000000 
200.000000 
200.000000 
200.000000 
200.000000 
200.000000 
200.000000 
200.000000 
200.000000 
200.000000 
200.000000 
200.000000 
200.000000 
200.000000 
200.000000 
200.000000 
200.000000 
200.000000 
200.000000 
200.000000 
200.000000 
200.000000 
200.000000 
200.000000 
200.000000 
200.000000 
200.000000 
200.000000 
200.000000 
200.000000 
200.000000 
200.000000 
200.000000 
200.000000 
200.000000 
200.000000 
200.000000 
200.000000 
200.000000 
200.000000 
200.000000 
200.000000 
200.000000 
200.000000 
200.000000 
200.000000 
200.000000 
200.000000 
200.000000 
200.000000 
200.000000 
200.000000 
200.000000 
200.000000 
200.000000 
200.000000 
200.000000 
200.000000 
200.000000 
200.000000 
200.000000 
200.000000 
200.000000 
200.000000 
200.000000 
200.000000 
200.000000 
200.000000 
200.000000 
200.000000 
200.000000 
200.000000 
200.000000 
200.000000 
200.000000 
200.000000 
200.000000 
200.000000 
200.000000 
200.000000 
200.000000 
200.000000 
200.000000 
200.000000 
200.000000 
200.000000 
200.000000 
200.000000 
200.000000 
200.000000 
200.000000 
200.000000 
200.000000 
200.000000 
200.000000 
200.000000 
200.000000 
200.000000 
200.000000 
200.000000 
200.000000 
200.000000 
200.000000 
200.000000 
200.000000 
200.000000 
200.000000 
200.000000 
200.000000 
200.000000 
200.000000 
200.000000 
200.000000 
200.000000 
200.000000 
200.000000 
200.000000 
200.000000 
200.000000 
200.000000 
200.000000 
200.000000 
200.000000 
200.000000 
200.000000 
200.000000 
200.000000 
200.000000 
200.000000 
200.000000 
200.000000 
200.000000 
200.000000 
200.000000 
200.000000 
200.000000 
200.000000 
200.000000 
200.000000 
200.000000 
200.000000 
200.000000 
200.000000 
200.000000 
200.000000 
SCALARS ELEM_i float 
LOOKUP_TABLE default 
177 
204 
177 
177 
204 
204 
205 
178 
178 
232 
205 
205 
205 
206 
178 
179 
232 
232 
233 
206 
206 
206 
206 
179 
179 
176 
203 
203 
204 
230 
203 
231 
204 
204 
230 
230 
230 
231 
231 
231 
232 
257 
257 
257 
258 
258 
258 
259 
232 
232 
176 
202 
203 
203 
202 
202 
202 
203 
230 
201 
201 
228 
229 
229 
229 
230 
201 
228 
228 
228 
228 
229 
256 
256 
256 
176 
175 
175 
175 
148 
175 
174 
175 
202 
147 
147 
174 
174 
174 
201 
201 
146 
146 
146 
173 
173 
173 
200 
200 
200 
176 
149 
149 
148 
122 
149 
148 
148 
148 
122 
121 
121 
121 
120 
147 
147 
94 
94 
94 
121 
120 
120 
120 
120 
147 
176 
150 
149 
149 
150 
150 
123 
149 
122 
124 
123 
123 
123 
122 
122 
122 
124 
124 
97 
96 
96 
96 
95 
95 
95 
177 
177 
177 
150 
178 
178 
151 
150 
150 
179 
178 
152 
151 
151 
151 
124 
179 
179 
152 
152 
152 
152 
125 
124 
124 
VECTORS VELOCITY float 
-0.000000 -4.000518 0.000000 
0.000000 -4.000518 0.000000 
0.000000 -4.000518 0.000000 
0.000000 -4.000518 0.000000 
0.000000 -4.000518 0.000000 
0.000000 -4.000518 0.000000 
0.000000 -4.000518 0.000000 
0.000000 -4.000518 0.000000 
0.000000 -4.000518 0.000000 
0.000000 -4.000518 0.000000 
0.000000 -4.000518 0.000000 
0.000000 -4.000518 0.000000 
0.000000 -4.000518 0.000000 
0.000000 -4.000518 0.000000 
0.000000 -4.000518 0.000000 
0.000000 -4.000518 0.000000 
-0.000000 -4.000518 0.000000 
-0.000000 -4.000518 0.000000 
-0.000000 -4.000518 0.000000 
-0.000000 -4.000518 0.000000 
-0.000000 -4.000518 0.000000 
0.000000 -4.000518 0.000000 
0.000000 -4.000518 0.000000 
0.000000 -4.000518 0.000000 
0.000000 -4.000518 0.000000 
-0.000000 -4.000518 0.000000 
0.000000 -4.000518 0.000000 
-0.000000 -4.000518 0.000000 
-0.000000 -4.000518 0.000000 
0.000000 -4.000518 0.000000 
0.000000 -4.000518 0.000000 
0.000000 -4.000518 0.000000 
0.000000 -4.000518 0.000000 
-0.000000 -4.000518 0.000000 
-0.000000 -4.000518 0.000000 
-0.000000 -4.000518 0.000000 
-0.000000 -4.000518 0.000000 
-0.000000 -4.000518 0.000000 
-0.000000 -4.000518 0.000000 
-0.000000 -4.000518 0.000000 
0.000000 -4.000518 0.000000 
-0.000000 -4.000518 0.000000 
-0.000000 -4.000518 0.000000 
0.000000 -4.000518 0.000000 
0.000000 -4.000518 0.000000 
0.000000 -4.000518 0.000000 
0.000000 -4.000518 0.000000 
0.000000 -4.000518 0.000000 
0.000000 -4.000518 0.000000 
-0.000000 -4.000518 0.000000 
-0.000000 -4.000518 0.000000 
0.000000 -4.000518 0.000000 
0.000000 -4.000518 0.000000 
0.000000 -4.000518 0.000000 
0.000000 -4.000518 0.000000 
0.000000 -4.000518 0.000000 
-0.000000 -4.000518 0.000000 
-0.000000 -4.000518 0.000000 
-0.000000 -4.000518 0.000000 
-0.000000 -4.000518 0.000000 
-0.000000 -4.000518 0.000000 
-0.000000 -4.000518 0.000000 
-0.000000 -4.000518 0.000000 
-0.000000 -4.000518 0.000000 
-0.000000 -4.000518 0.000000 
-0.000000 -4.000518 0.000000 
-0.000000 -4.000518 0.000000 
-0.000000 -4.000518 0.000000 
-0.000000 -4.000518 0.000000 
-0.000000 -4.000518 0.000000 
-0.000000 -4.000518 0.000000 
-0.000000 -4.000518 0.000000 
0.000000 -4.000518 0.000000 
0.000000 -4.000518 0.000000 
0.000000 -4.000518 0.000000 
-0.000000 -4.000518 0.000000 
-0.000000 -4.000518 0.000000 
0.000000 -4.000518 0.000000 
0.000000 -4.000518 0.000000 
-0.000000 -4.000518 0.000000 
-0.000000 -4.000518 0.000000 
-0.000000 -4.000518 0.000000 
0.000000 -4.000518 0.000000 
0.000000 -4.000518 0.000000 
-0.000000 -4.000518 0.000000 
-0.000000 -4.000518 0.000000 
-0.000000 -4.000518 0.000000 
-0.000000 -4.000518 0.000000 
-0.000000 -4.000518 0.000000 
-0.000000 -4.000518 0.000000 
-0.000000 -4.000518 0.000000 
-0.000000 -4.000518 0.000000 
0.000000 -4.000518 0.000000 
-0.000000 -4.000518 0.000000 
0.000000 -4.000518 0.000000 
0.000000 -4.000518 0.000000 
-0.000000 -4.000518 0.000000 
-0.000000 -4.000518 0.000000 
-0.000000 -4.000518 0.000000 
-0.000000 -4.000518 0.000000 
-0.000000 -4.000518 0.000000 
-0.000000 -4.000518 0.000000 
-0.000000 -4.000518 0.000000 
-0.000000 -4.000518 0.000000 
0.000000 -4.000518 0.000000 
0.000000 -4.000518 0.000000 
-0.000000 -4.000518 0.000000 
-0.000000 -4.000518 0.000000 
-0.000000 -4.000518 0.000000 
-0.000000 -4.000518 0.000000 
0.000000 -4.000518 0.000000 
-0.000000 -4.000518 0.000000 
0.000000 -4.000518 0.000000 
-0.000000 -4.000518 0.000000 
-0.000000 -4.000518 0.000000 
-0.000000 -4.000518 0.000000 
0.000000 -4.000518 0.000000 
0.000000 -4.000518 0.000000 
-0.000000 -4.000518 0.000000 
-0.000000 -4.000518 0.000000 
-0.000000 -4.000518 0.000000 
0.000000 -4.000518 0.000000 
-0.000000 -4.000518 0.000000 
-0.000000 -4.000518 0.000000 
-0.000000 -4.000518 0.000000 
-0.000000 -4.000518 0.000000 
0.000000 -4.000518 0.000000 
-0.000000 -4.000518 0.000000 
0.000000 -4.000518 0.000000 
0.000000 -4.000518 0.000000 
0.000000 -4.000518 0.000000 
0.000000 -4.000518 0.000000 
0.000000 -4.000518 0.000000 
0.000000 -4.000518 0.000000 
-0.000000 -4.000518 0.000000 
0.000000 -4.000518 0.000000 
0.000000 -4.000518 0.000000 
0.000000 -4.000518 0.000000 
0.000000 -4.000518 0.000000 
-0.000000 -4.000518 0.000000 
-0.000000 -4.000518 0.000000 
-0.000000 -4.000518 0.000000 
-0.000000 -4.000518 0.000000 
0.000000 -4.000518 0.000000 
0.000000 -4.000518 0.000000 
-0.000000 -4.000518 0.000000 
-0.000000 -4.000518 0.000000 
-0.000000 -4.000518 0.000000 
0.000000 -4.000518 0.000000 
0.000000 -4.000518 0.000000 
-0.000000 -4.000518 0.000000 
0.000000 -4.000518 0.000000 
-0.000000 -4.000518 0.000000 
-0.000000 -4.000518 0.000000 
0.000000 -4.000518 0.000000 
0.000000 -4.000518 0.000000 
0.000000 -4.000518 0.000000 
0.000000 -4.000518 0.000000 
0.000000 -4.000518 0.000000 
0.000000 -4.000518 0.000000 
0.000000 -4.000518 0.000000 
0.000000 -4.000518 0.000000 
0.000000 -4.000518 0.000000 
0.000000 -4.000518 0.000000 
0.000000 -4.000518 0.000000 
-0.000000 -4.000518 0.000000 
0.000000 -4.000518 0.000000 
0.000000 -4.000518 0.000000 
0.000000 -4.000518 0.000000 
0.000000 -4.000518 0.000000 
0.000000 -4.000518 0.000000 
0.000000 -4.000518 0.000000 
0.000000 -4.000518 0.000000 
-0.000000 -4.000518 0.000000 
-0.000000 -4.000518 0.000000 
TENSORS STRESS float 
-0.000000 -0.000000 0.000000 
0.000000 -0.000000 0.000000 
0.000000 0.000000 0.000000 

-0.000000 -0.000000 0.000000 
0.000000 -0.000000 0.000000 
0.000000 0.000000 0.000000 

-0.000000 -0.000000 0.000000 
0.000000 -0.000000 0.000000 
0.000000 0.000000 0.000000 

0.000000 -0.000000 0.000000 
0.000000 0.000000 0.000000 
0.000000 0.000000 0.000000 

-0.000000 0.000000 0.000000 
0.000000 -0.000000 0.000000 
0.000000 0.000000 0.000000 

-0.000000 0.000000 0.000000 
0.000000 -0.000000 0.000000 
0.000000 0.000000 0.000000 

0.000000 -0.000000 0.000000 
0.000000 0.000000 0.000000 
0.000000 0.000000 0.000000 

0.000000 -0.000000 0.000000 
0.000000 0.000000 0.000000 
0.000000 0.000000 0.000000 

0.000000 -0.000000 0.000000 
0.000000 0.000000 0.000000 
0.000000 0.000000 0.000000 

-0.000000 0.000000 0.000000 
0.000000 -0.000000 0.000000 
0.000000 0.000000 0.000000 

-0.000000 -0.000000 0.000000 
0.000000 -0.000000 0.000000 
0.000000 0.000000 0.000000 

-0.000000 -0.000000 0.000000 
0.000000 0.000000 0.000000 
0.000000 0.000000 0.000000 

0.000000 -0.000000 0.000000 
0.000000 0.000000 0.000000 
0.000000 0.000000 0.000000 

-0.000000 0.000000 0.000000 
0.000000 -0.000000 0.000000 
0.000000 0.000000 0.000000 

0.000000 0.000000 0.000000 
0.000000 0.000000 0.000000 
0.000000 0.000000 0.000000 

-0.000000 0.000000 0.000000 
0.000000 -0.000000 0.000000 
0.000000 0.000000 0.000000 

0.000000 -0.000000 0.000000 
0.000000 -0.000000 0.000000 
0.000000 0.000000 0.000000 

0.000000 -0.000000 0.000000 
0.000000 -0.000000 0.000000 
0.000000 0.000000 0.000000 

0.000000 -0.000000 0.000000 
0.000000 0.000000 0.000000 
0.000000 0.000000 0.000000 

-0.000000 -0.000000 0.000000 
0.000000 -0.000000 0.000000 
0.000000 0.000000 0.000000 

0.000000 -0.000000 0.000000 
0.000000 0.000000 0.000000 
0.000000 0.000000 0.000000 

0.000000 0.000000 0.000000 
0.000000 0.000000 0.000000 
0.000000 0.000000 0.000000 

-0.000000 0.000000 0.000000 
0.000000 -0.000000 0.000000 
0.000000 0.000000 0.000000 

0.000000 -0.000000 0.000000 
0.000000 0.000000 0.000000 
0.000000 0.000000 0.000000 

0.000000 -0.000000 0.000000 
0.000000 0.000000 0.000000 
0.000000 0.000000 0.000000 

-0.000000 0.000000 0.000000 
0.000000 -0.000000 0.000000 
0.000000 0.000000 0.000000 

-0.000000 0.000000 0.000000 
0.000000 -0.000000 0.000000 
0.000000 0.000000 0.000000 

0.000000 0.000000 0.000000 
0.000000 0.000000 0.000000 
0.000000 0.000000 0.000000 

-0.000000 0.000000 0.000000 
0.000000 -0.000000 0.000000 
0.000000 0.000000 0.000000 

0.000000 0.000000 0.000000 
0.000000 -0.000000 0.000000 
0.000000 0.000000 0.000000 

-0.000000 0.000000 0.000000 
0.000000 -0.000000 0.000000 
0.000000 0.000000 0.000000 

0.000000 0.000000 0.000000 
0.000000 0.000000 0.000000 
0.000000 0.000000 0.000000 

0.000000 0.000000 0.000000 
0.000000 0.000000 0.000000 
0.000000 0.000000 0.000000 

-0.000000 -0.000000 0.000000 
0.000000 -0.000000 0.000000 
0.000000 0.000000 0.000000 

0.000000 0.000000 0.000000 
0.000000 0.000000 0.000000 
0.000000 0.000000 0.000000 

0.000000 0.000000 0.000000 
0.000000 0.000000 0.000000 
0.000000 0.000000 0.000000 

-0.000000 0.000000 0.000000 
0.000000 -0.000000 0.000000 
0.000000 0.000000 0.000000 

-0.000000 0.000000 0.000000 
0.000000 -0.000000 0.000000 
0.000000 0.000000 0.000000 

-0.000000 0.000000 0.000000 
0.000000 -0.000000 0.000000 
0.000000 0.000000 0.000000 

-0.000000 0.000000 0.000000 
0.000000 -0.000000 0.000000 
0.000000 0.000000 0.000000 

-0.000000 0.000000 0.000000 
0.000000 0.000000 0.000000 
0.000000 0.000000 0.000000 

-0.000000 0.000000 0.000000 
0.000000 -0.000000 0.000000 
0.000000 0.000000 0.000000 

0.000000 0.000000 0.000000 
0.000000 0.000000 0.000000 
0.000000 0.000000 0.000000 

0.000000 -0.000000 0.000000 
0.000000 -0.000000 0.000000 
0.000000 0.000000 0.000000 

0.000000 0.000000 0.000000 
0.000000 0.000000 0.000000 
0.000000 0.000000 0.000000 

-0.000000 -0.000000 0.000000 
0.000000 -0.000000 0.000000 
0.000000 0.000000 0.000000 

0.000000 -0.000000 0.000000 
0.000000 0.000000 0.000000 
0.000000 0.000000 0.000000 

0.000000 0.000000 0.000000 
0.000000 -0.000000 0.000000 
0.000000 0.000000 0.000000 

-0.000000 0.000000 0.000000 
0.000000 -0.000000 0.000000 
0.000000 0.000000 0.000000 

0.000000 -0.000000 0.000000 
0.000000 0.000000 0.000000 
0.000000 0.000000 0.000000 

-0.000000 -0.000000 0.000000 
0.000000 0.000000 0.000000 
0.000000 0.000000 0.000000 

0.000000 0.000000 0.000000 
0.000000 0.000000 0.000000 
0.000000 0.000000 0.000000 

-0.000000 0.000000 0.000000 
0.000000 -0.000000 0.000000 
0.000000 0.000000 0.000000 

-0.000000 0.000000 0.000000 
0.000000 -0.000000 0.000000 
0.000000 0.000000 0.000000 

0.000000 0.000000 0.000000 
0.000000 0.000000 0.000000 
0.000000 0.000000 0.000000 

0.000000 0.000000 0.000000 
0.000000 0.000000 0.000000 
0.000000 0.000000 0.000000 

-0.000000 0.000000 0.000000 
0.000000 -0.000000 0.000000 
0.000000 0.000000 0.000000 

0.000000 0.000000 0.000000 
0.000000 0.000000 0.000000 
0.000000 0.000000 0.000000 

-0.000000 0.000000 0.000000 
0.000000 -0.000000 0.000000 
0.000000 0.000000 0.000000 

-0.000000 -0.000000 0.000000 
0.000000 -0.000000 0.000000 
0.000000 0.000000 0.000000 

-0.000000 -0.000000 0.000000 
0.000000 -0.000000 0.000000 
0.000000 0.000000 0.000000 

0.000000 0.000000 0.000000 
0.000000 0.000000 0.000000 
0.000000 0.000000 0.000000 

0.000000 -0.000000 0.000000 
0.000000 0.000000 0.000000 
0.000000 0.000000 0.000000 

0.000000 -0.000000 0.000000 
0.000000 0.000000 0.000000 
0.000000 0.000000 0.000000 

0.000000 0.000000 0.000000 
0.000000 0.000000 0.000000 
0.000000 0.000000 0.000000 

0.000000 0.000000 0.000000 
0.000000 0.000000 0.000000 
0.000000 0.000000 0.000000 

0.000000 -0.000000 0.000000 
0.000000 0.000000 0.000000 
0.000000 0.000000 0.000000 

-0.000000 0.000000 0.000000 
0.000000 0.000000 0.000000 
0.000000 0.000000 0.000000 

-0.000000 0.000000 0.000000 
0.000000 -0.000000 0.000000 
0.000000 0.000000 0.000000 

0.000000 0.000000 0.000000 
0.000000 0.000000 0.000000 
0.000000 0.000000 0.000000 

0.000000 0.000000 0.000000 
0.000000 0.000000 0.000000 
0.000000 0.000000 0.000000 

0.000000 -0.000000 0.000000 
0.000000 0.000000 0.000000 
0.000000 0.000000 0.000000 

0.000000 0.000000 0.000000 
0.000000 0.000000 0.000000 
0.000000 0.000000 0.000000 

0.000000 0.000000 0.000000 
0.000000 0.000000 0.000000 
0.000000 0.000000 0.000000 

0.000000 0.000000 0.000000 
0.000000 0.000000 0.000000 
0.000000 0.000000 0.000000 

-0.000000 -0.000000 0.000000 
0.000000 -0.000000 0.000000 
0.000000 0.000000 0.000000 

0.000000 0.000000 0.000000 
0.000000 0.000000 0.000000 
0.000000 0.000000 0.000000 

-0.000000 -0.000000 0.000000 
0.000000 -0.000000 0.000000 
0.000000 0.000000 0.000000 

0.000000 0.000000 0.000000 
0.000000 0.000000 0.000000 
0.000000 0.000000 0.000000 

-0.000000 0.000000 0.000000 
0.000000 -0.000000 0.000000 
0.000000 0.000000 0.000000 

-0.000000 -0.000000 0.000000 
0.000000 -0.000000 0.000000 
0.000000 0.000000 0.000000 

-0.000000 0.000000 0.000000 
0.000000 -0.000000 0.000000 
0.000000 0.000000 0.000000 

0.000000 -0.000000 0.000000 
0.000000 0.000000 0.000000 
0.000000 0.000000 0.000000 

0.000000 0.000000 0.000000 
0.000000 0.000000 0.000000 
0.000000 0.000000 0.000000 

-0.000000 0.000000 0.000000 
0.000000 -0.000000 0.000000 
0.000000 0.000000 0.000000 

0.000000 -0.000000 0.000000 
0.000000 0.000000 0.000000 
0.000000 0.000000 0.000000 

-0.000000 -0.000000 0.000000 
0.000000 -0.000000 0.000000 
0.000000 0.000000 0.000000 

-0.000000 -0.000000 0.000000 
0.000000 -0.000000 0.000000 
0.000000 0.000000 0.000000 

-0.000000 -0.000000 0.000000 
0.000000 -0.000000 0.000000 
0.000000 0.000000 0.000000 

0.000000 -0.000000 0.000000 
0.000000 0.000000 0.000000 
0.000000 0.000000 0.000000 

-0.000000 -0.000000 0.000000 
0.000000 -0.000000 0.000000 
0.000000 0.000000 0.000000 

0.000000 -0.000000 0.000000 
0.000000 0.000000 0.000000 
0.000000 0.000000 0.000000 

-0.000000 -0.000000 0.000000 
0.000000 -0.000000 0.000000 
0.000000 0.000000 0.000000 

-0.000000 -0.000000 0.000000 
0.000000 -0.000000 0.000000 
0.000000 0.000000 0.000000 

0.000000 -0.000000 0.000000 
0.000000 0.000000 0.000000 
0.000000 0.000000 0.000000 

0.000000 -0.000000 0.000000 
0.000000 0.000000 0.000000 
0.000000 0.000000 0.000000 

-0.000000 -0.000000 0.000000 
0.000000 0.000000 0.000000 
0.000000 0.000000 0.000000 

-0.000000 -0.000000 0.000000 
0.000000 -0.000000 0.000000 
0.000000 0.000000 0.000000 

-0.000000 -0.000000 0.000000 
0.000000 -0.000000 0.000000 
0.000000 0.000000 0.000000 

0.000000 -0.000000 0.000000 
0.000000 0.000000 0.000000 
0.000000 0.000000 0.000000 

-0.000000 -0.000000 0.000000 
0.000000 -0.000000 0.000000 
0.000000 0.000000 0.000000 

-0.000000 -0.000000 0.000000 
0.000000 -0.000000 0.000000 
0.000000 0.000000 0.000000 

0.000000 -0.000000 0.000000 
0.000000 0.000000 0.000000 
0.000000 0.000000 0.000000 

0.000000 -0.000000 0.000000 
0.000000 0.000000 0.000000 
0.000000 0.000000 0.000000 

-0.000000 0.000000 0.000000 
0.000000 -0.000000 0.000000 
0.000000 0.000000 0.000000 

-0.000000 -0.000000 0.000000 
0.000000 -0.000000 0.000000 
0.000000 0.000000 0.000000 

-0.000000 -0.000000 0.000000 
0.000000 -0.000000 0.000000 
0.000000 0.000000 0.000000 

-0.000000 -0.000000 0.000000 
0.000000 -0.000000 0.000000 
0.000000 0.000000 0.000000 

-0.000000 -0.000000 0.000000 
0.000000 -0.000000 0.000000 
0.000000 0.000000 0.000000 

-0.000000 -0.000000 0.000000 
0.000000 -0.000000 0.000000 
0.000000 0.000000 0.000000 

-0.000000 0.000000 0.000000 
0.000000 -0.000000 0.000000 
0.000000 0.000000 0.000000 

0.000000 0.000000 0.000000 
0.000000 0.000000 0.000000 
0.000000 0.000000 0.000000 

0.000000 0.000000 0.000000 
0.000000 0.000000 0.000000 
0.000000 0.000000 0.000000 

-0.000000 -0.000000 0.000000 
0.000000 -0.000000 0.000000 
0.000000 0.000000 0.000000 

-0.000000 -0.000000 0.000000 
0.000000 -0.000000 0.000000 
0.000000 0.000000 0.000000 

0.000000 0.000000 0.000000 
0.000000 -0.000000 0.000000 
0.000000 0.000000 0.000000 

-0.000000 -0.000000 0.000000 
0.000000 -0.000000 0.000000 
0.000000 0.000000 0.000000 

-0.000000 -0.000000 0.000000 
0.000000 -0.000000 0.000000 
0.000000 0.000000 0.000000 

-0.000000 0.000000 0.000000 
0.000000 -0.000000 0.000000 
0.000000 0.000000 0.000000 

0.000000 0.000000 0.000000 
0.000000 0.000000 0.000000 
0.000000 0.000000 0.000000 

-0.000000 0.000000 0.000000 
0.000000 -0.000000 0.000000 
0.000000 0.000000 0.000000 

0.000000 0.000000 0.000000 
0.000000 0.000000 0.000000 
0.000000 0.000000 0.000000 

0.000000 0.000000 0.000000 
0.000000 0.000000 0.000000 
0.000000 0.000000 0.000000 

0.000000 -0.000000 0.000000 
0.000000 0.000000 0.000000 
0.000000 0.000000 0.000000 

0.000000 0.000000 0.000000 
0.000000 0.000000 0.000000 
0.000000 0.000000 0.000000 

-0.000000 -0.000000 0.000000 
0.000000 0.000000 0.000000 
0.000000 0.000000 0.000000 

-0.000000 0.000000 0.000000 
0.000000 -0.000000 0.000000 
0.000000 0.000000 0.000000 

-0.000000 -0.000000 0.000000 
0.000000 -0.000000 0.000000 
0.000000 0.000000 0.000000 

0.000000 -0.000000 0.000000 
0.000000 0.000000 0.000000 
0.000000 0.000000 0.000000 

0.000000 -0.000000 0.000000 
0.000000 0.000000 0.000000 
0.000000 0.000000 0.000000 

0.000000 0.000000 0.000000 
0.000000 0.000000 0.000000 
0.000000 0.000000 0.000000 

-0.000000 0.000000 0.000000 
0.000000 -0.000000 0.000000 
0.000000 0.000000 0.000000 

0.000000 -0.000000 0.000000 
0.000000 0.000000 0.000000 
0.000000 0.000000 0.000000 

-0.000000 -0.000000 0.000000 
0.000000 -0.000000 0.000000 
0.000000 0.000000 0.000000 

-0.000000 -0.000000 0.000000 
0.000000 -0.000000 0.000000 
0.000000 0.000000 0.000000 

-0.000000 0.000000 0.000000 
0.000000 -0.000000 0.000000 
0.000000 0.000000 0.000000 

-0.000000 -0.000000 0.000000 
0.000000 -0.000000 0.000000 
0.000000 0.000000 0.000000 

0.000000 0.000000 0.000000 
0.000000 0.000000 0.000000 
0.000000 0.000000 0.000000 

0.000000 0.000000 0.000000 
0.000000 0.000000 0.000000 
0.000000 0.000000 0.000000 

0.000000 -0.000000 0.000000 
0.000000 0.000000 0.000000 
0.000000 0.000000 0.000000 

-0.000000 0.000000 0.000000 
0.000000 -0.000000 0.000000 
0.000000 0.000000 0.000000 

0.000000 0.000000 0.000000 
0.000000 0.000000 0.000000 
0.000000 0.000000 0.000000 

0.000000 -0.000000 0.000000 
0.000000 0.000000 0.000000 
0.000000 0.000000 0.000000 

0.000000 0.000000 0.000000 
0.000000 -0.000000 0.000000 
0.000000 0.000000 0.000000 

0.000000 -0.000000 0.000000 
0.000000 0.000000 0.000000 
0.000000 0.000000 0.000000 

-0.000000 0.000000 0.000000 
0.000000 -0.000000 0.000000 
0.000000 0.000000 0.000000 

0.000000 0.000000 0.000000 
0.000000 0.000000 0.000000 
0.000000 0.000000 0.000000 

-0.000000 0.000000 0.000000 
0.000000 -0.000000 0.000000 
0.000000 0.000000 0.000000 

0.000000 0.000000 0.000000 
0.000000 0.000000 0.000000 
0.000000 0.000000 0.000000 

0.000000 -0.000000 0.000000 
0.000000 0.000000 0.000000 
0.000000 0.000000 0.000000 

-0.000000 0.000000 0.000000 
0.000000 -0.000000 0.000000 
0.000000 0.000000 0.000000 

0.000000 0.000000 0.000000 
0.000000 0.000000 0.000000 
0.000000 0.000000 0.000000 

0.000000 -0.000000 0.000000 
0.000000 0.000000 0.000000 
0.000000 0.000000 0.000000 

0.000000 -0.000000 0.000000 
0.000000 0.000000 0.000000 
0.000000 0.000000 0.000000 

0.000000 -0.000000 0.000000 
0.000000 0.000000 0.000000 
0.000000 0.000000 0.000000 

0.000000 -0.000000 0.000000 
0.000000 -0.000000 0.000000 
0.000000 0.000000 0.000000 

-0.000000 -0.000000 0.000000 
0.000000 -0.000000 0.000000 
0.000000 0.000000 0.000000 

0.000000 -0.000000 0.000000 
0.000000 0.000000 0.000000 
0.000000 0.000000 0.000000 

0.000000 0.000000 0.000000 
0.000000 0.000000 0.000000 
0.000000 0.000000 0.000000 

0.000000 0.000000 0.000000 
0.000000 0.000000 0.000000 
0.000000 0.000000 0.000000 

0.000000 0.000000 0.000000 
0.000000 0.000000 0.000000 
0.000000 0.000000 0.000000 

0.000000 -0.000000 0.000000 
0.000000 0.000000 0.000000 
0.000000 0.000000 0.000000 

-0.000000 0.000000 0.000000 
0.000000 -0.000000 0.000000 
0.000000 0.000000 0.000000 

-0.000000 0.000000 0.000000 
0.000000 -0.000000 0.000000 
0.000000 0.000000 0.000000 

0.000000 -0.000000 0.000000 
0.000000 0.000000 0.000000 
0.000000 0.000000 0.000000 

-0.000000 -0.000000 0.000000 
0.000000 -0.000000 0.000000 
0.000000 0.000000 0.000000 

-0.000000 -0.000000 0.000000 
0.000000 -0.000000 0.000000 
0.000000 0.000000 0.000000 

-0.000000 -0.000000 0.000000 
0.000000 -0.000000 0.000000 
0.000000 0.000000 0.000000 

0.000000 -0.000000 0.000000 
0.000000 0.000000 0.000000 
0.000000 0.000000 0.000000 

0.000000 -0.000000 0.000000 
0.000000 0.000000 0.000000 
0.000000 0.000000 0.000000 

0.000000 -0.000000 0.000000 
0.000000 0.000000 0.000000 
0.000000 0.000000 0.000000 

-0.000000 -0.000000 0.000000 
0.000000 -0.000000 0.000000 
0.000000 0.000000 0.000000 

0.000000 -0.000000 0.000000 
0.000000 0.000000 0.000000 
0.000000 0.000000 0.000000 

-0.000000 -0.000000 0.000000 
0.000000 -0.000000 0.000000 
0.000000 0.000000 0.000000 

0.000000 -0.000000 0.000000 
0.000000 0.000000 0.000000 
0.000000 0.000000 0.000000 

TENSORS STRAIN float 
-0.000000 -0.000000 0.000000 
0.000000 0.000000 0.000000 
0.000000 0.000000 0.000000 

-0.000000 -0.000000 0.000000 
0.000000 0.000000 0.000000 
0.000000 0.000000 0.000000 

0.000000 -0.000000 0.000000 
0.000000 -0.000000 0.000000 
0.000000 0.000000 0.000000 

0.000000 -0.000000 0.000000 
0.000000 -0.000000 0.000000 
0.000000 0.000000 0.000000 

-0.000000 0.000000 0.000000 
0.000000 0.000000 0.000000 
0.000000 0.000000 0.000000 

-0.000000 0.000000 0.000000 
0.000000 0.000000 0.000000 
0.000000 0.000000 0.000000 

-0.000000 -0.000000 0.000000 
0.000000 0.000000 0.000000 
0.000000 0.000000 0.000000 

0.000000 -0.000000 0.000000 
0.000000 0.000000 0.000000 
0.000000 0.000000 0.000000 

0.000000 -0.000000 0.000000 
0.000000 0.000000 0.000000 
0.000000 0.000000 0.000000 

-0.000000 0.000000 0.000000 
0.000000 0.000000 0.000000 
0.000000 0.000000 0.000000 

-0.000000 -0.000000 0.000000 
0.000000 -0.000000 0.000000 
0.000000 0.000000 0.000000 

-0.000000 -0.000000 0.000000 
0.000000 0.000000 0.000000 
0.000000 0.000000 0.000000 

-0.000000 -0.000000 0.000000 
0.000000 0.000000 0.000000 
0.000000 0.000000 0.000000 

-0.000000 0.000000 0.000000 
0.000000 0.000000 0.000000 
0.000000 0.000000 0.000000 

0.000000 0.000000 0.000000 
0.000000 -0.000000 0.000000 
0.000000 0.000000 0.000000 

0.000000 0.000000 0.000000 
0.000000 -0.000000 0.000000 
0.000000 0.000000 0.000000 

0.000000 -0.000000 0.000000 
0.000000 -0.000000 0.000000 
0.000000 0.000000 0.000000 

0.000000 -0.000000 0.000000 
0.000000 -0.000000 0.000000 
0.000000 0.000000 0.000000 

0.000000 -0.000000 0.000000 
0.000000 -0.000000 0.000000 
0.000000 0.000000 0.000000 

0.000000 -0.000000 0.000000 
0.000000 -0.000000 0.000000 
0.000000 0.000000 0.000000 

0.000000 -0.000000 0.000000 
0.000000 -0.000000 0.000000 
0.000000 0.000000 0.000000 

0.000000 0.000000 0.000000 
0.000000 -0.000000 0.000000 
0.000000 0.000000 0.000000 

0.000000 0.000000 0.000000 
0.000000 -0.000000 0.000000 
0.000000 0.000000 0.000000 

0.000000 -0.000000 0.000000 
0.000000 -0.000000 0.000000 
0.000000 0.000000 0.000000 

0.000000 -0.000000 0.000000 
0.000000 -0.000000 0.000000 
0.000000 0.000000 0.000000 

-0.000000 0.000000 0.000000 
0.000000 -0.000000 0.000000 
0.000000 0.000000 0.000000 

-0.000000 0.000000 0.000000 
0.000000 0.000000 0.000000 
0.000000 0.000000 0.000000 

-0.000000 0.000000 0.000000 
0.000000 0.000000 0.000000 
0.000000 0.000000 0.000000 

-0.000000 0.000000 0.000000 
0.000000 0.000000 0.000000 
0.000000 0.000000 0.000000 

0.000000 0.000000 0.000000 
0.000000 -0.000000 0.000000 
0.000000 0.000000 0.000000 

-0.000000 0.000000 0.000000 
0.000000 0.000000 0.000000 
0.000000 0.000000 0.000000 

0.000000 0.000000 0.000000 
0.000000 0.000000 0.000000 
0.000000 0.000000 0.000000 

-0.000000 0.000000 0.000000 
0.000000 0.000000 0.000000 
0.000000 0.000000 0.000000 

-0.000000 -0.000000 0.000000 
0.000000 -0.000000 0.000000 
0.000000 0.000000 0.000000 

0.000000 0.000000 0.000000 
0.000000 -0.000000 0.000000 
0.000000 0.000000 0.000000 

0.000000 0.000000 0.000000 
0.000000 -0.000000 0.000000 
0.000000 0.000000 0.000000 

0.000000 0.000000 0.000000 
0.000000 -0.000000 0.000000 
0.000000 0.000000 0.000000 

0.000000 0.000000 0.000000 
0.000000 -0.000000 0.000000 
0.000000 0.000000 0.000000 

0.000000 0.000000 0.000000 
0.000000 -0.000000 0.000000 
0.000000 0.000000 0.000000 

-0.000000 0.000000 0.000000 
0.000000 0.000000 0.000000 
0.000000 0.000000 0.000000 

-0.000000 0.000000 0.000000 
0.000000 0.000000 0.000000 
0.000000 0.000000 0.000000 

-0.000000 0.000000 0.000000 
0.000000 0.000000 0.000000 
0.000000 0.000000 0.000000 

-0.000000 0.000000 0.000000 
0.000000 0.000000 0.000000 
0.000000 0.000000 0.000000 

0.000000 -0.000000 0.000000 
0.000000 -0.000000 0.000000 
0.000000 0.000000 0.000000 

0.000000 0.000000 0.000000 
0.000000 -0.000000 0.000000 
0.000000 0.000000 0.000000 

0.000000 -0.000000 0.000000 
0.000000 -0.000000 0.000000 
0.000000 0.000000 0.000000 

0.000000 -0.000000 0.000000 
0.000000 -0.000000 0.000000 
0.000000 0.000000 0.000000 

0.000000 0.000000 0.000000 
0.000000 -0.000000 0.000000 
0.000000 0.000000 0.000000 

-0.000000 0.000000 0.000000 
0.000000 0.000000 0.000000 
0.000000 0.000000 0.000000 

-0.000000 -0.000000 0.000000 
0.000000 0.000000 0.000000 
0.000000 0.000000 0.000000 

-0.000000 -0.000000 0.000000 
0.000000 0.000000 0.000000 
0.000000 0.000000 0.000000 

0.000000 0.000000 0.000000 
0.000000 -0.000000 0.000000 
0.000000 0.000000 0.000000 

0.000000 0.000000 0.000000 
0.000000 -0.000000 0.000000 
0.000000 0.000000 0.000000 

0.000000 0.000000 0.000000 
0.000000 -0.000000 0.000000 
0.000000 0.000000 0.000000 

-0.000000 0.000000 0.000000 
0.000000 0.000000 0.000000 
0.000000 0.000000 0.000000 

0.000000 0.000000 0.000000 
0.000000 0.000000 0.000000 
0.000000 0.000000 0.000000 

0.000000 0.000000 0.000000 
0.000000 -0.000000 0.000000 
0.000000 0.000000 0.000000 

0.000000 0.000000 0.000000 
0.000000 0.000000 0.000000 
0.000000 0.000000 0.000000 

0.000000 0.000000 0.000000 
0.000000 -0.000000 0.000000 
0.000000 0.000000 0.000000 

-0.000000 -0.000000 0.000000 
0.000000 0.000000 0.000000 
0.000000 0.000000 0.000000 

-0.000000 -0.000000 0.000000 
0.000000 0.000000 0.000000 
0.000000 0.000000 0.000000 

-0.000000 0.000000 0.000000 
0.000000 0.000000 0.000000 
0.000000 0.000000 0.000000 

-0.000000 -0.000000 0.000000 
0.000000 0.000000 0.000000 
0.000000 0.000000 0.000000 

-0.000000 -0.000000 0.000000 
0.000000 0.000000 0.000000 
0.000000 0.000000 0.000000 

-0.000000 0.000000 0.000000 
0.000000 0.000000 0.000000 
0.000000 0.000000 0.000000 

0.000000 0.000000 0.000000 
0.000000 0.000000 0.000000 
0.000000 0.000000 0.000000 

-0.000000 -0.000000 0.000000 
0.000000 0.000000 0.000000 
0.000000 0.000000 0.000000 

-0.000000 0.000000 0.000000 
0.000000 0.000000 0.000000 
0.000000 0.000000 0.000000 

-0.000000 0.000000 0.000000 
0.000000 0.000000 0.000000 
0.000000 0.000000 0.000000 

-0.000000 0.000000 0.000000 
0.000000 0.000000 0.000000 
0.000000 0.000000 0.000000 

-0.000000 0.000000 0.000000 
0.000000 0.000000 0.000000 
0.000000 0.000000 0.000000 

-0.000000 -0.000000 0.000000 
0.000000 0.000000 0.000000 
0.000000 0.000000 0.000000 

-0.000000 0.000000 0.000000 
0.000000 0.000000 0.000000 
0.000000 0.000000 0.000000 

-0.000000 0.000000 0.000000 
0.000000 0.000000 0.000000 
0.000000 0.000000 0.000000 

-0.000000 0.000000 0.000000 
0.000000 0.000000 0.000000 
0.000000 0.000000 0.000000 

-0.000000 -0.000000 0.000000 
0.000000 0.000000 0.000000 
0.000000 0.000000 0.000000 

0.000000 0.000000 0.000000 
0.000000 -0.000000 0.000000 
0.000000 0.000000 0.000000 

0.000000 -0.000000 0.000000 
0.000000 -0.000000 0.000000 
0.000000 0.000000 0.000000 

0.000000 0.000000 0.000000 
0.000000 0.000000 0.000000 
0.000000 0.000000 0.000000 

0.000000 0.000000 0.000000 
0.000000 -0.000000 0.000000 
0.000000 0.000000 0.000000 

0.000000 -0.000000 0.000000 
0.000000 -0.000000 0.000000 
0.000000 0.000000 0.000000 

0.000000 0.000000 0.000000 
0.000000 -0.000000 0.000000 
0.000000 0.000000 0.000000 

0.000000 -0.000000 0.000000 
0.000000 0.000000 0.000000 
0.000000 0.000000 0.000000 

-0.000000 0.000000 0.000000 
0.000000 0.000000 0.000000 
0.000000 0.000000 0.000000 

-0.000000 0.000000 0.000000 
0.000000 -0.000000 0.000000 
0.000000 0.000000 0.000000 

0.000000 -0.000000 0.000000 
0.000000 0.000000 0.000000 
0.000000 0.000000 0.000000 

-0.000000 -0.000000 0.000000 
0.000000 0.000000 0.000000 
0.000000 0.000000 0.000000 

-0.000000 -0.000000 0.000000 
0.000000 0.000000 0.000000 
0.000000 0.000000 0.000000 

-0.000000 -0.000000 0.000000 
0.000000 -0.000000 0.000000 
0.000000 0.000000 0.000000 

-0.000000 -0.000000 0.000000 
0.000000 0.000000 0.000000 
0.000000 0.000000 0.000000 

-0.000000 -0.000000 0.000000 
0.000000 -0.000000 0.000000 
0.000000 0.000000 0.000000 

-0.000000 -0.000000 0.000000 
0.000000 0.000000 0.000000 
0.000000 0.000000 0.000000 

-0.000000 -0.000000 0.000000 
0.000000 0.000000 0.000000 
0.000000 0.000000 0.000000 

-0.000000 -0.000000 0.000000 
0.000000 0.000000 0.000000 
0.000000 0.000000 0.000000 

-0.000000 -0.000000 0.000000 
0.000000 0.000000 0.000000 
0.000000 0.000000 0.000000 

-0.000000 -0.000000 0.000000 
0.000000 0.000000 0.000000 
0.000000 0.000000 0.000000 

-0.000000 -0.000000 0.000000 
0.000000 0.000000 0.000000 
0.000000 0.000000 0.000000 

-0.000000 -0.000000 0.000000 
0.000000 -0.000000 0.000000 
0.000000 0.000000 0.000000 

-0.000000 -0.000000 0.000000 
0.000000 -0.000000 0.000000 
0.000000 0.000000 0.000000 

-0.000000 -0.000000 0.000000 
0.000000 0.000000 0.000000 
0.000000 0.000000 0.000000 

-0.000000 -0.000000 0.000000 
0.000000 0.000000 0.000000 
0.000000 0.000000 0.000000 

-0.000000 -0.000000 0.000000 
0.000000 -0.000000 0.000000 
0.000000 0.000000 0.000000 

-0.000000 -0.000000 0.000000 
0.000000 0.000000 0.000000 
0.000000 0.000000 0.000000 

-0.000000 -0.000000 0.000000 
0.000000 0.000000 0.000000 
0.000000 0.000000 0.000000 

-0.000000 0.000000 0.000000 
0.000000 -0.000000 0.000000 
0.000000 0.000000 0.000000 

-0.000000 -0.000000 0.000000 
0.000000 0.000000 0.000000 
0.000000 0.000000 0.000000 

-0.000000 -0.000000 0.000000 
0.000000 -0.000000 0.000000 
0.000000 0.000000 0.000000 

-0.000000 -0.000000 0.000000 
0.000000 0.000000 0.000000 
0.000000 0.000000 0.000000 

0.000000 -0.000000 0.000000 
0.000000 -0.000000 0.000000 
0.000000 0.000000 0.000000 

0.000000 -0.000000 0.000000 
0.000000 -0.000000 0.000000 
0.000000 0.000000 0.000000 

0.000000 0.000000 0.000000 
0.000000 -0.000000 0.000000 
0.000000 0.000000 0.000000 

0.000000 0.000000 0.000000 
0.000000 -0.000000 0.000000 
0.000000 0.000000 0.000000 

0.000000 0.000000 0.000000 
0.000000 0.000000 0.000000 
0.000000 0.000000 0.000000 

0.000000 -0.000000 0.000000 
0.000000 -0.000000 0.000000 
0.000000 0.000000 0.000000 

0.000000 -0.000000 0.000000 
0.000000 -0.000000 0.000000 
0.000000 0.000000 0.000000 

0.000000 0.000000 0.000000 
0.000000 -0.000000 0.000000 
0.000000 0.000000 0.000000 

-0.000000 -0.000000 0.000000 
0.000000 0.000000 0.000000 
0.000000 0.000000 0.000000 

-0.000000 -0.000000 0.000000 
0.000000 0.000000 0.000000 
0.000000 0.000000 0.000000 

-0.000000 0.000000 0.000000 
0.000000 0.000000 0.000000 
0.000000 0.000000 0.000000 

0.000000 0.000000 0.000000 
0.000000 0.000000 0.000000 
0.000000 0.000000 0.000000 

0.000000 0.000000 0.000000 
0.000000 -0.000000 0.000000 
0.000000 0.000000 0.000000 

0.000000 0.000000 0.000000 
0.000000 -0.000000 0.000000 
0.000000 0.000000 0.000000 

0.000000 0.000000 0.000000 
0.000000 0.000000 0.000000 
0.000000 0.000000 0.000000 

-0.000000 -0.000000 0.000000 
0.000000 0.000000 0.000000 
0.000000 0.000000 0.000000 

-0.000000 0.000000 0.000000 
0.000000 0.000000 0.000000 
0.000000 0.000000 0.000000 

-0.000000 -0.000000 0.000000 
0.000000 0.000000 0.000000 
0.000000 0.000000 0.000000 

-0.000000 0.000000 0.000000 
0.000000 0.000000 0.000000 
0.000000 0.000000 0.000000 

-0.000000 -0.000000 0.000000 
0.000000 0.000000 0.000000 
0.000000 0.000000 0.000000 

-0.000000 -0.000000 0.000000 
0.000000 0.000000 0.000000 
0.000000 0.000000 0.000000 

-0.000000 -0.000000 0.000000 
0.000000 0.000000 0.000000 
0.000000 0.000000 0.000000 

-0.000000 0.000000 0.000000 
0.000000 0.000000 0.000000 
0.000000 0.000000 0.000000 

-0.000000 0.000000 0.000000 
0.000000 -0.000000 0.000000 
0.000000 0.000000 0.000000 

-0.000000 -0.000000 0.000000 
0.000000 0.000000 0.000000 
0.000000 0.000000 0.000000 

-0.000000 -0.000000 0.000000 
0.000000 0.000000 0.000000 
0.000000 0.000000 0.000000 

-0.000000 -0.000000 0.000000 
0.000000 -0.000000 0.000000 
0.000000 0.000000 0.000000 

-0.000000 0.000000 0.000000 
0.000000 0.000000 0.000000 
0.000000 0.000000 0.000000 

-0.000000 -0.000000 0.000000 
0.000000 -0.000000 0.000000 
0.000000 0.000000 0.000000 

-0.000000 0.000000 0.000000 
0.000000 0.000000 0.000000 
0.000000 0.000000 0.000000 

-0.000000 0.000000 0.000000 
0.000000 0.000000 0.000000 
0.000000 0.000000 0.000000 

-0.000000 -0.000000 0.000000 
0.000000 0.000000 0.000000 
0.000000 0.000000 0.000000 

-0.000000 0.000000 0.000000 
0.000000 -0.000000 0.000000 
0.000000 0.000000 0.000000 

0.000000 0.000000 0.000000 
0.000000 0.000000 0.000000 
0.000000 0.000000 0.000000 

-0.000000 -0.000000 0.000000 
0.000000 0.000000 0.000000 
0.000000 0.000000 0.000000 

0.000000 0.000000 0.000000 
0.000000 -0.000000 0.000000 
0.000000 0.000000 0.000000 

0.000000 -0.000000 0.000000 
0.000000 -0.000000 0.000000 
0.000000 0.000000 0.000000 

0.000000 0.000000 0.000000 
0.000000 -0.000000 0.000000 
0.000000 0.000000 0.000000 

0.000000 0.000000 0.000000 
0.000000 -0.000000 0.000000 
0.000000 0.000000 0.000000 

0.000000 0.000000 0.000000 
0.000000 -0.000000 0.000000 
0.000000 0.000000 0.000000 

-0.000000 0.000000 0.000000 
0.000000 0.000000 0.000000 
0.000000 0.000000 0.000000 

-0.000000 -0.000000 0.000000 
0.000000 0.000000 0.000000 
0.000000 0.000000 0.000000 

-0.000000 0.000000 0.000000 
0.000000 0.000000 0.000000 
0.000000 0.000000 0.000000 

0.000000 0.000000 0.000000 
0.000000 -0.000000 0.000000 
0.000000 0.000000 0.000000 

0.000000 -0.000000 0.000000 
0.000000 0.000000 0.000000 
0.000000 0.000000 0.000000 

-0.000000 -0.000000 0.000000 
0.000000 0.000000 0.000000 
0.000000 0.000000 0.000000 

0.000000 -0.000000 0.000000 
0.000000 -0.000000 0.000000 
0.000000 0.000000 0.000000 

0.000000 -0.000000 0.000000 
0.000000 -0.000000 0.000000 
0.000000 0.000000 0.000000 

0.000000 -0.000000 0.000000 
0.000000 -0.000000 0.000000 
0.000000 0.000000 0.000000 

-0.000000 -0.000000 0.000000 
0.000000 0.000000 0.000000 
0.000000 0.000000 0.000000 

-0.000000 0.000000 0.000000 
0.000000 0.000000 0.000000 
0.000000 0.000000 0.000000 

0.000000 0.000000 0.000000 
0.000000 -0.000000 0.000000 
0.000000 0.000000 0.000000 

0.000000 0.000000 0.000000 
0.000000 0.000000 0.000000 
0.000000 0.000000 0.000000 

0.000000 -0.000000 0.000000 
0.000000 -0.000000 0.000000 
0.000000 0.000000 0.000000 

0.000000 0.000000 0.000000 
0.000000 -0.000000 0.000000 
0.000000 0.000000 0.000000 

0.000000 0.000000 0.000000 
0.000000 -0.000000 0.000000 
0.000000 0.000000 0.000000 

0.000000 -0.000000 0.000000 
0.000000 0.000000 0.000000 
0.000000 0.000000 0.000000 

-0.000000 -0.000000 0.000000 
0.000000 -0.000000 0.000000 
0.000000 0.000000 0.000000 

0.000000 -0.000000 0.000000 
0.000000 -0.000000 0.000000 
0.000000 0.000000 0.000000 

0.000000 -0.000000 0.000000 
0.000000 -0.000000 0.000000 
0.000000 0.000000 0.000000 

0.000000 -0.000000 0.000000 
0.000000 -0.000000 0.000000 
0.000000 0.000000 0.000000 

0.000000 -0.000000 0.000000 
0.000000 -0.000000 0.000000 
0.000000 0.000000 0.000000 

0.000000 -0.000000 0.000000 
0.000000 -0.000000 0.000000 
0.000000 0.000000 0.000000 

0.000000 -0.000000 0.000000 
0.000000 -0.000000 0.000000 
0.000000 0.000000 0.000000 

0.000000 -0.000000 0.000000 
0.000000 -0.000000 0.000000 
0.000000 0.000000 0.000000 

0.000000 -0.000000 0.000000 
0.000000 -0.000000 0.000000 
0.000000 0.000000 0.000000 

0.000000 -0.000000 0.000000 
0.000000 -0.000000 0.000000 
0.000000 0.000000 0.000000 

