# vtk DataFile Version 3.0 
vtk output 
ASCII 
DATASET UNSTRUCTURED_GRID 
POINTS 175 float 
-0.026061 -2.249449 0.000000 
-0.106992 -2.181393 0.000000 
-0.054870 -2.189626 0.000000 
-0.028809 -2.143742 0.000000 
-0.186430 -2.117318 0.000000 
-0.137056 -2.119844 0.000000 
-0.114311 -2.066197 0.000000 
-0.058186 -2.081862 0.000000 
-0.029377 -2.041685 0.000000 
-0.265318 -2.054162 0.000000 
-0.217198 -2.054962 0.000000 
-0.196633 -1.997665 0.000000 
-0.143120 -2.006374 0.000000 
-0.116563 -1.959105 0.000000 
-0.058945 -1.978751 0.000000 
-0.029568 -1.940631 0.000000 
-0.344206 -1.991006 0.000000 
-0.296791 -1.990999 0.000000 
-0.278030 -1.931056 0.000000 
-0.225992 -1.936922 0.000000 
-0.201664 -1.884805 0.000000 
-0.145749 -1.898279 0.000000 
-0.117890 -1.853937 0.000000 
-0.059328 -1.876643 0.000000 
-0.029759 -1.839577 0.000000 
-0.058559 -2.290199 0.000000 
-0.162226 -2.311042 0.000000 
-0.123292 -2.275424 0.000000 
-0.142917 -2.226441 0.000000 
-0.261851 -2.333198 0.000000 
-0.229092 -2.296171 0.000000 
-0.256854 -2.244940 0.000000 
-0.209613 -2.210827 0.000000 
-0.223062 -2.163253 0.000000 
-0.360414 -2.355499 0.000000 
-0.329787 -2.318376 0.000000 
-0.361761 -2.266574 0.000000 
-0.321587 -2.230165 0.000000 
-0.341985 -2.179931 0.000000 
-0.290702 -2.147132 0.000000 
-0.302189 -2.100397 0.000000 
-0.458977 -2.377799 0.000000 
-0.429420 -2.340724 0.000000 
-0.464588 -2.288682 0.000000 
-0.427556 -2.251655 0.000000 
-0.453135 -2.200140 0.000000 
-0.407738 -2.164825 0.000000 
-0.425037 -2.115397 0.000000 
-0.370772 -2.083767 0.000000 
-0.381315 -2.037540 0.000000 
-0.046960 -2.341015 0.000000 
-0.095301 -2.435061 0.000000 
-0.098873 -2.382413 0.000000 
-0.149405 -2.367216 0.000000 
-0.140093 -2.526765 0.000000 
-0.148617 -2.478066 0.000000 
-0.205981 -2.467829 0.000000 
-0.203197 -2.409626 0.000000 
-0.248777 -2.390479 0.000000 
-0.184111 -2.617728 0.000000 
-0.194039 -2.570637 0.000000 
-0.254475 -2.563337 0.000000 
-0.257893 -2.509228 0.000000 
-0.309886 -2.493855 0.000000 
-0.303554 -2.433310 0.000000 
-0.347255 -2.413152 0.000000 
-0.228129 -2.708692 0.000000 
-0.238687 -2.662467 0.000000 
-0.301302 -2.657515 0.000000 
-0.307162 -2.605477 0.000000 
-0.363386 -2.593356 0.000000 
-0.362692 -2.535844 0.000000 
-0.412122 -2.518551 0.000000 
-0.403017 -2.456404 0.000000 
-0.445733 -2.435825 0.000000 
-0.000000 -2.363630 0.000000 
0.043388 -2.460060 0.000000 
-0.000000 -2.430028 0.000000 
-0.043388 -2.460060 0.000000 
0.087158 -2.552257 0.000000 
0.043769 -2.528558 0.000000 
-0.000000 -2.567024 0.000000 
-0.043769 -2.528558 0.000000 
-0.087158 -2.552257 0.000000 
0.130831 -2.643386 0.000000 
0.087824 -2.621788 0.000000 
0.044436 -2.664487 0.000000 
-0.000000 -2.633422 0.000000 
-0.044436 -2.664487 0.000000 
-0.087824 -2.621788 0.000000 
-0.130831 -2.643386 0.000000 
0.174505 -2.734516 0.000000 
0.131782 -2.713950 0.000000 
0.088871 -2.759817 0.000000 
0.044532 -2.731953 0.000000 
-0.000000 -2.768353 0.000000 
-0.044532 -2.731953 0.000000 
-0.088871 -2.759817 0.000000 
-0.131782 -2.713950 0.000000 
-0.174505 -2.734516 0.000000 
0.046960 -2.341015 0.000000 
0.149405 -2.367216 0.000000 
0.098873 -2.382413 0.000000 
0.095301 -2.435061 0.000000 
0.248777 -2.390479 0.000000 
0.203197 -2.409626 0.000000 
0.205981 -2.467829 0.000000 
0.148617 -2.478066 0.000000 
0.140093 -2.526765 0.000000 
0.347255 -2.413152 0.000000 
0.303554 -2.433310 0.000000 
0.309886 -2.493855 0.000000 
0.257893 -2.509228 0.000000 
0.254475 -2.563337 0.000000 
0.194039 -2.570637 0.000000 
0.184111 -2.617728 0.000000 
0.445733 -2.435825 0.000000 
0.403017 -2.456404 0.000000 
0.412122 -2.518551 0.000000 
0.362692 -2.535844 0.000000 
0.363386 -2.593356 0.000000 
0.307162 -2.605477 0.000000 
0.301302 -2.657515 0.000000 
0.238687 -2.662467 0.000000 
0.228129 -2.708692 0.000000 
0.058559 -2.290199 0.000000 
0.142917 -2.226441 0.000000 
0.123292 -2.275424 0.000000 
0.162226 -2.311042 0.000000 
0.223062 -2.163253 0.000000 
0.209613 -2.210827 0.000000 
0.256854 -2.244940 0.000000 
0.229092 -2.296171 0.000000 
0.261851 -2.333198 0.000000 
0.302189 -2.100397 0.000000 
0.290702 -2.147132 0.000000 
0.341985 -2.179931 0.000000 
0.321587 -2.230165 0.000000 
0.361761 -2.266574 0.000000 
0.329787 -2.318376 0.000000 
0.360414 -2.355499 0.000000 
0.381315 -2.037540 0.000000 
0.370772 -2.083767 0.000000 
0.425037 -2.115397 0.000000 
0.407738 -2.164825 0.000000 
0.453135 -2.200140 0.000000 
0.427556 -2.251655 0.000000 
0.464588 -2.288682 0.000000 
0.429420 -2.340724 0.000000 
0.458977 -2.377799 0.000000 
0.026061 -2.249449 0.000000 
0.028809 -2.143742 0.000000 
0.054870 -2.189626 0.000000 
0.106992 -2.181393 0.000000 
0.029377 -2.041685 0.000000 
0.058186 -2.081862 0.000000 
0.114311 -2.066197 0.000000 
0.137056 -2.119844 0.000000 
0.186430 -2.117318 0.000000 
0.029568 -1.940631 0.000000 
0.058945 -1.978751 0.000000 
0.116563 -1.959105 0.000000 
0.143120 -2.006374 0.000000 
0.196633 -1.997665 0.000000 
0.217198 -2.054962 0.000000 
0.265318 -2.054162 0.000000 
0.029759 -1.839577 0.000000 
0.059328 -1.876643 0.000000 
0.117890 -1.853937 0.000000 
0.145749 -1.898279 0.000000 
0.201664 -1.884805 0.000000 
0.225992 -1.936922 0.000000 
0.278030 -1.931056 0.000000 
0.296791 -1.990999 0.000000 
0.344206 -1.991006 0.000000 
CELLS 175 350 
1 0 
1 1 
1 2 
1 3 
1 4 
1 5 
1 6 
1 7 
1 8 
1 9 
1 10 
1 11 
1 12 
1 13 
1 14 
1 15 
1 16 
1 17 
1 18 
1 19 
1 20 
1 21 
1 22 
1 23 
1 24 
1 25 
1 26 
1 27 
1 28 
1 29 
1 30 
1 31 
1 32 
1 33 
1 34 
1 35 
1 36 
1 37 
1 38 
1 39 
1 40 
1 41 
1 42 
1 43 
1 44 
1 45 
1 46 
1 47 
1 48 
1 49 
1 50 
1 51 
1 52 
1 53 
1 54 
1 55 
1 56 
1 57 
1 58 
1 59 
1 60 
1 61 
1 62 
1 63 
1 64 
1 65 
1 66 
1 67 
1 68 
1 69 
1 70 
1 71 
1 72 
1 73 
1 74 
1 75 
1 76 
1 77 
1 78 
1 79 
1 80 
1 81 
1 82 
1 83 
1 84 
1 85 
1 86 
1 87 
1 88 
1 89 
1 90 
1 91 
1 92 
1 93 
1 94 
1 95 
1 96 
1 97 
1 98 
1 99 
1 100 
1 101 
1 102 
1 103 
1 104 
1 105 
1 106 
1 107 
1 108 
1 109 
1 110 
1 111 
1 112 
1 113 
1 114 
1 115 
1 116 
1 117 
1 118 
1 119 
1 120 
1 121 
1 122 
1 123 
1 124 
1 125 
1 126 
1 127 
1 128 
1 129 
1 130 
1 131 
1 132 
1 133 
1 134 
1 135 
1 136 
1 137 
1 138 
1 139 
1 140 
1 141 
1 142 
1 143 
1 144 
1 145 
1 146 
1 147 
1 148 
1 149 
1 150 
1 151 
1 152 
1 153 
1 154 
1 155 
1 156 
1 157 
1 158 
1 159 
1 160 
1 161 
1 162 
1 163 
1 164 
1 165 
1 166 
1 167 
1 168 
1 169 
1 170 
1 171 
1 172 
1 173 
1 174 
CELL_TYPES 175 
1 
1 
1 
1 
1 
1 
1 
1 
1 
1 
1 
1 
1 
1 
1 
1 
1 
1 
1 
1 
1 
1 
1 
1 
1 
1 
1 
1 
1 
1 
1 
1 
1 
1 
1 
1 
1 
1 
1 
1 
1 
1 
1 
1 
1 
1 
1 
1 
1 
1 
1 
1 
1 
1 
1 
1 
1 
1 
1 
1 
1 
1 
1 
1 
1 
1 
1 
1 
1 
1 
1 
1 
1 
1 
1 
1 
1 
1 
1 
1 
1 
1 
1 
1 
1 
1 
1 
1 
1 
1 
1 
1 
1 
1 
1 
1 
1 
1 
1 
1 
1 
1 
1 
1 
1 
1 
1 
1 
1 
1 
1 
1 
1 
1 
1 
1 
1 
1 
1 
1 
1 
1 
1 
1 
1 
1 
1 
1 
1 
1 
1 
1 
1 
1 
1 
1 
1 
1 
1 
1 
1 
1 
1 
1 
1 
1 
1 
1 
1 
1 
1 
1 
1 
1 
1 
1 
1 
1 
1 
1 
1 
1 
1 
1 
1 
1 
1 
1 
1 
1 
1 
1 
1 
1 
1 
POINT_DATA 175 
VECTORS X_GC float 
-0.026061 -2.249449 0.000000 
-0.106992 -2.181393 0.000000 
-0.054870 -2.189626 0.000000 
-0.028809 -2.143742 0.000000 
-0.186430 -2.117318 0.000000 
-0.137056 -2.119844 0.000000 
-0.114311 -2.066197 0.000000 
-0.058186 -2.081862 0.000000 
-0.029377 -2.041685 0.000000 
-0.265318 -2.054162 0.000000 
-0.217198 -2.054962 0.000000 
-0.196633 -1.997665 0.000000 
-0.143120 -2.006374 0.000000 
-0.116563 -1.959105 0.000000 
-0.058945 -1.978751 0.000000 
-0.029568 -1.940631 0.000000 
-0.344206 -1.991006 0.000000 
-0.296791 -1.990999 0.000000 
-0.278030 -1.931056 0.000000 
-0.225992 -1.936922 0.000000 
-0.201664 -1.884805 0.000000 
-0.145749 -1.898279 0.000000 
-0.117890 -1.853937 0.000000 
-0.059328 -1.876643 0.000000 
-0.029759 -1.839577 0.000000 
-0.058559 -2.290199 0.000000 
-0.162226 -2.311042 0.000000 
-0.123292 -2.275424 0.000000 
-0.142917 -2.226441 0.000000 
-0.261851 -2.333198 0.000000 
-0.229092 -2.296171 0.000000 
-0.256854 -2.244940 0.000000 
-0.209613 -2.210827 0.000000 
-0.223062 -2.163253 0.000000 
-0.360414 -2.355499 0.000000 
-0.329787 -2.318376 0.000000 
-0.361761 -2.266574 0.000000 
-0.321587 -2.230165 0.000000 
-0.341985 -2.179931 0.000000 
-0.290702 -2.147132 0.000000 
-0.302189 -2.100397 0.000000 
-0.458977 -2.377799 0.000000 
-0.429420 -2.340724 0.000000 
-0.464588 -2.288682 0.000000 
-0.427556 -2.251655 0.000000 
-0.453135 -2.200140 0.000000 
-0.407738 -2.164825 0.000000 
-0.425037 -2.115397 0.000000 
-0.370772 -2.083767 0.000000 
-0.381315 -2.037540 0.000000 
-0.046960 -2.341015 0.000000 
-0.095301 -2.435061 0.000000 
-0.098873 -2.382413 0.000000 
-0.149405 -2.367216 0.000000 
-0.140093 -2.526765 0.000000 
-0.148617 -2.478066 0.000000 
-0.205981 -2.467829 0.000000 
-0.203197 -2.409626 0.000000 
-0.248777 -2.390479 0.000000 
-0.184111 -2.617728 0.000000 
-0.194039 -2.570637 0.000000 
-0.254475 -2.563337 0.000000 
-0.257893 -2.509228 0.000000 
-0.309886 -2.493855 0.000000 
-0.303554 -2.433310 0.000000 
-0.347255 -2.413152 0.000000 
-0.228129 -2.708692 0.000000 
-0.238687 -2.662467 0.000000 
-0.301302 -2.657515 0.000000 
-0.307162 -2.605477 0.000000 
-0.363386 -2.593356 0.000000 
-0.362692 -2.535844 0.000000 
-0.412122 -2.518551 0.000000 
-0.403017 -2.456404 0.000000 
-0.445733 -2.435825 0.000000 
-0.000000 -2.363630 0.000000 
0.043388 -2.460060 0.000000 
-0.000000 -2.430028 0.000000 
-0.043388 -2.460060 0.000000 
0.087158 -2.552257 0.000000 
0.043769 -2.528558 0.000000 
-0.000000 -2.567024 0.000000 
-0.043769 -2.528558 0.000000 
-0.087158 -2.552257 0.000000 
0.130831 -2.643386 0.000000 
0.087824 -2.621788 0.000000 
0.044436 -2.664487 0.000000 
-0.000000 -2.633422 0.000000 
-0.044436 -2.664487 0.000000 
-0.087824 -2.621788 0.000000 
-0.130831 -2.643386 0.000000 
0.174505 -2.734516 0.000000 
0.131782 -2.713950 0.000000 
0.088871 -2.759817 0.000000 
0.044532 -2.731953 0.000000 
-0.000000 -2.768353 0.000000 
-0.044532 -2.731953 0.000000 
-0.088871 -2.759817 0.000000 
-0.131782 -2.713950 0.000000 
-0.174505 -2.734516 0.000000 
0.046960 -2.341015 0.000000 
0.149405 -2.367216 0.000000 
0.098873 -2.382413 0.000000 
0.095301 -2.435061 0.000000 
0.248777 -2.390479 0.000000 
0.203197 -2.409626 0.000000 
0.205981 -2.467829 0.000000 
0.148617 -2.478066 0.000000 
0.140093 -2.526765 0.000000 
0.347255 -2.413152 0.000000 
0.303554 -2.433310 0.000000 
0.309886 -2.493855 0.000000 
0.257893 -2.509228 0.000000 
0.254475 -2.563337 0.000000 
0.194039 -2.570637 0.000000 
0.184111 -2.617728 0.000000 
0.445733 -2.435825 0.000000 
0.403017 -2.456404 0.000000 
0.412122 -2.518551 0.000000 
0.362692 -2.535844 0.000000 
0.363386 -2.593356 0.000000 
0.307162 -2.605477 0.000000 
0.301302 -2.657515 0.000000 
0.238687 -2.662467 0.000000 
0.228129 -2.708692 0.000000 
0.058559 -2.290199 0.000000 
0.142917 -2.226441 0.000000 
0.123292 -2.275424 0.000000 
0.162226 -2.311042 0.000000 
0.223062 -2.163253 0.000000 
0.209613 -2.210827 0.000000 
0.256854 -2.244940 0.000000 
0.229092 -2.296171 0.000000 
0.261851 -2.333198 0.000000 
0.302189 -2.100397 0.000000 
0.290702 -2.147132 0.000000 
0.341985 -2.179931 0.000000 
0.321587 -2.230165 0.000000 
0.361761 -2.266574 0.000000 
0.329787 -2.318376 0.000000 
0.360414 -2.355499 0.000000 
0.381315 -2.037540 0.000000 
0.370772 -2.083767 0.000000 
0.425037 -2.115397 0.000000 
0.407738 -2.164825 0.000000 
0.453135 -2.200140 0.000000 
0.427556 -2.251655 0.000000 
0.464588 -2.288682 0.000000 
0.429420 -2.340724 0.000000 
0.458977 -2.377799 0.000000 
0.026061 -2.249449 0.000000 
0.028809 -2.143742 0.000000 
0.054870 -2.189626 0.000000 
0.106992 -2.181393 0.000000 
0.029377 -2.041685 0.000000 
0.058186 -2.081862 0.000000 
0.114311 -2.066197 0.000000 
0.137056 -2.119844 0.000000 
0.186430 -2.117318 0.000000 
0.029568 -1.940631 0.000000 
0.058945 -1.978751 0.000000 
0.116563 -1.959105 0.000000 
0.143120 -2.006374 0.000000 
0.196633 -1.997665 0.000000 
0.217198 -2.054962 0.000000 
0.265318 -2.054162 0.000000 
0.029759 -1.839577 0.000000 
0.059328 -1.876643 0.000000 
0.117890 -1.853937 0.000000 
0.145749 -1.898279 0.000000 
0.201664 -1.884805 0.000000 
0.225992 -1.936922 0.000000 
0.278030 -1.931056 0.000000 
0.296791 -1.990999 0.000000 
0.344206 -1.991006 0.000000 
VECTORS X_EC float 
0.338794 0.867557 0.000000 
-0.609100 -0.051192 0.000000 
0.713312 0.059949 0.000000 
0.374519 -0.559481 0.000000 
0.423588 -0.916211 0.000000 
-0.218274 -0.882107 0.000000 
-0.513962 0.393654 0.000000 
0.756418 0.605140 0.000000 
0.381900 0.062747 0.000000 
-0.550868 0.231186 0.000000 
0.823577 0.241981 0.000000 
0.556234 -0.531523 0.000000 
-0.139443 -0.413954 0.000000 
-0.484677 0.947922 0.000000 
0.766286 -0.786863 0.000000 
0.384386 0.698517 0.000000 
0.474677 -0.621417 0.000000 
-0.141715 -0.621514 0.000000 
-0.385608 0.569258 0.000000 
0.937896 0.648454 0.000000 
0.621631 -0.055126 0.000000 
-0.105264 0.126773 0.000000 
-0.467428 -0.471853 0.000000 
0.771260 -0.165325 0.000000 
0.386873 -0.665714 0.000000 
0.761262 -0.582309 0.000000 
0.108942 -0.300932 0.000000 
-0.397202 -0.781771 0.000000 
-0.142083 0.556953 0.000000 
-0.595936 -0.001822 0.000000 
0.978194 -0.501687 0.000000 
-0.660903 0.806688 0.000000 
0.724964 0.346167 0.000000 
0.899809 -0.296081 0.000000 
0.685384 0.299231 0.000000 
0.287229 -0.201928 0.000000 
0.702895 -0.901256 0.000000 
0.180633 0.607225 0.000000 
0.445811 -0.070935 0.000000 
-0.220880 -0.513721 0.000000 
-0.071546 0.855354 0.000000 
-0.033296 0.600283 0.000000 
-0.417537 0.099773 0.000000 
0.039645 -0.602789 0.000000 
-0.441768 0.897340 0.000000 
-0.109248 0.201889 0.000000 
-0.699407 -0.274867 0.000000 
-0.474522 -0.942146 0.000000 
0.820030 0.630861 0.000000 
0.957100 0.006789 0.000000 
0.610485 0.103698 0.000000 
-0.761092 -0.626683 0.000000 
-0.714655 0.662579 0.000000 
-0.057734 0.457412 0.000000 
-0.178789 0.611321 0.000000 
-0.067979 -0.046105 0.000000 
0.677748 -0.184309 0.000000 
0.641556 -0.970054 0.000000 
-0.765897 0.771468 0.000000 
0.393446 -0.160670 0.000000 
0.522510 -0.796400 0.000000 
-0.691820 -0.894944 0.000000 
-0.647393 0.374573 0.000000 
0.028512 0.167047 0.000000 
-0.053800 -0.650314 0.000000 
0.514316 -0.922445 0.000000 
0.965681 -0.932661 0.000000 
-0.897068 0.443310 0.000000 
-0.083078 0.376457 0.000000 
-0.006893 -0.326067 0.000000 
0.724017 -0.489700 0.000000 
0.714996 0.733896 0.000000 
-0.642413 0.500439 0.000000 
-0.760780 -0.338541 0.000000 
-0.205471 -0.616357 0.000000 
0.000000 0.408999 0.000000 
-0.564049 -0.289188 0.000000 
0.000000 -0.694624 0.000000 
0.564049 -0.289188 0.000000 
0.866949 0.955467 0.000000 
-0.569003 0.635536 0.000000 
0.000000 -0.845176 0.000000 
0.569003 0.635536 0.000000 
-0.866949 0.955467 0.000000 
0.299194 0.185717 0.000000 
0.858290 -0.105866 0.000000 
-0.577662 0.470579 0.000000 
0.000000 0.051201 0.000000 
0.577662 0.470579 0.000000 
-0.858290 -0.105866 0.000000 
-0.299194 0.185717 0.000000 
-0.268560 -0.584032 0.000000 
0.286830 -0.861674 0.000000 
0.844677 -0.242476 0.000000 
-0.578910 -0.618639 0.000000 
0.000000 -0.127235 0.000000 
0.578910 -0.618639 0.000000 
-0.844677 -0.242476 0.000000 
-0.286830 -0.861674 0.000000 
0.268560 -0.584032 0.000000 
-0.610485 0.103698 0.000000 
0.057734 0.457412 0.000000 
0.714655 0.662579 0.000000 
0.761092 -0.626683 0.000000 
0.765897 0.771468 0.000000 
-0.641556 -0.970054 0.000000 
-0.677748 -0.184308 0.000000 
0.067979 -0.046105 0.000000 
0.178789 0.611321 0.000000 
-0.514316 -0.922445 0.000000 
0.053800 -0.650314 0.000000 
-0.028512 0.167047 0.000000 
0.647393 0.374573 0.000000 
0.691820 -0.894944 0.000000 
-0.522510 -0.796400 0.000000 
-0.393446 -0.160670 0.000000 
0.205471 -0.616357 0.000000 
0.760780 -0.338541 0.000000 
0.642413 0.500439 0.000000 
-0.714996 0.733896 0.000000 
-0.724017 -0.489700 0.000000 
0.006894 -0.326067 0.000000 
0.083078 0.376457 0.000000 
0.897068 0.443310 0.000000 
-0.965681 -0.932661 0.000000 
-0.761262 -0.582309 0.000000 
0.142083 0.556953 0.000000 
0.397202 -0.781771 0.000000 
-0.108942 -0.300932 0.000000 
-0.899809 -0.296081 0.000000 
-0.724964 0.346167 0.000000 
0.660903 0.806688 0.000000 
-0.978194 -0.501687 0.000000 
0.595936 -0.001822 0.000000 
0.071546 0.855354 0.000000 
0.220880 -0.513721 0.000000 
-0.445811 -0.070935 0.000000 
-0.180633 0.607225 0.000000 
-0.702895 -0.901256 0.000000 
-0.287229 -0.201928 0.000000 
-0.685384 0.299231 0.000000 
-0.957100 0.006789 0.000000 
-0.820030 0.630861 0.000000 
0.474522 -0.942146 0.000000 
0.699407 -0.274867 0.000000 
0.109248 0.201889 0.000000 
0.441768 0.897340 0.000000 
-0.039645 -0.602789 0.000000 
0.417537 0.099773 0.000000 
0.033296 0.600283 0.000000 
-0.338794 0.867557 0.000000 
-0.374519 -0.559481 0.000000 
-0.713312 0.059949 0.000000 
0.609100 -0.051192 0.000000 
-0.381900 0.062747 0.000000 
-0.756418 0.605140 0.000000 
0.513962 0.393654 0.000000 
0.218274 -0.882107 0.000000 
-0.423588 -0.916211 0.000000 
-0.384386 0.698517 0.000000 
-0.766286 -0.786863 0.000000 
0.484677 0.947922 0.000000 
0.139443 -0.413954 0.000000 
-0.556234 -0.531523 0.000000 
-0.823577 0.241981 0.000000 
0.550868 0.231186 0.000000 
-0.386873 -0.665714 0.000000 
-0.771260 -0.165325 0.000000 
0.467428 -0.471853 0.000000 
0.105264 0.126773 0.000000 
-0.621631 -0.055126 0.000000 
-0.937896 0.648454 0.000000 
0.385608 0.569258 0.000000 
0.141715 -0.621514 0.000000 
-0.474677 -0.621417 0.000000 
CELL_DATA 175 
SCALARS MASS float 
LOOKUP_TABLE default 
0.781831 
0.864274 
0.946717 
0.864274 
0.881307 
0.921110 
0.858535 
0.921110 
0.881307 
0.887046 
0.910001 
0.869829 
0.915556 
0.869829 
0.910001 
0.887046 
0.892784 
0.915740 
0.892784 
0.927218 
0.892784 
0.927218 
0.892784 
0.915740 
0.892784 
0.781831 
0.864274 
0.946717 
0.864274 
0.881307 
0.921110 
0.858535 
0.921110 
0.881307 
0.887046 
0.910001 
0.869829 
0.915556 
0.869829 
0.910001 
0.887046 
0.892784 
0.915740 
0.892784 
0.927218 
0.892784 
0.927218 
0.892784 
0.915740 
0.892784 
0.781831 
0.864274 
0.946717 
0.864274 
0.881307 
0.921110 
0.858535 
0.921110 
0.881307 
0.887046 
0.910001 
0.869829 
0.915556 
0.869829 
0.910001 
0.887046 
0.892784 
0.915740 
0.892784 
0.927218 
0.892784 
0.927218 
0.892784 
0.915740 
0.892784 
0.781831 
0.864274 
0.946717 
0.864274 
0.881307 
0.921110 
0.858535 
0.921110 
0.881307 
0.887046 
0.910001 
0.869829 
0.915556 
0.869829 
0.910001 
0.887046 
0.892784 
0.915740 
0.892784 
0.927218 
0.892784 
0.927218 
0.892784 
0.915740 
0.892784 
0.781831 
0.864274 
0.946717 
0.864274 
0.881307 
0.921110 
0.858535 
0.921110 
0.881307 
0.887046 
0.910001 
0.869829 
0.915556 
0.869829 
0.910001 
0.887046 
0.892784 
0.915740 
0.892784 
0.927218 
0.892784 
0.927218 
0.892784 
0.915740 
0.892784 
0.781831 
0.864274 
0.946717 
0.864274 
0.881307 
0.921110 
0.858535 
0.921110 
0.881307 
0.887046 
0.910001 
0.869829 
0.915556 
0.869829 
0.910001 
0.887046 
0.892784 
0.915740 
0.892784 
0.927218 
0.892784 
0.927218 
0.892784 
0.915740 
0.892784 
0.781831 
0.864274 
0.946717 
0.864274 
0.881307 
0.921110 
0.858535 
0.921110 
0.881307 
0.887046 
0.910001 
0.869829 
0.915556 
0.869829 
0.910001 
0.887046 
0.892784 
0.915740 
0.892784 
0.927218 
0.892784 
0.927218 
0.892784 
0.915740 
0.892784 
SCALARS MASS float 
LOOKUP_TABLE default 
0.781831 
0.864274 
0.946717 
0.864274 
0.881307 
0.921110 
0.858535 
0.921110 
0.881307 
0.887046 
0.910001 
0.869829 
0.915556 
0.869829 
0.910001 
0.887046 
0.892784 
0.915740 
0.892784 
0.927218 
0.892784 
0.927218 
0.892784 
0.915740 
0.892784 
0.781831 
0.864274 
0.946717 
0.864274 
0.881307 
0.921110 
0.858535 
0.921110 
0.881307 
0.887046 
0.910001 
0.869829 
0.915556 
0.869829 
0.910001 
0.887046 
0.892784 
0.915740 
0.892784 
0.927218 
0.892784 
0.927218 
0.892784 
0.915740 
0.892784 
0.781831 
0.864274 
0.946717 
0.864274 
0.881307 
0.921110 
0.858535 
0.921110 
0.881307 
0.887046 
0.910001 
0.869829 
0.915556 
0.869829 
0.910001 
0.887046 
0.892784 
0.915740 
0.892784 
0.927218 
0.892784 
0.927218 
0.892784 
0.915740 
0.892784 
0.781831 
0.864274 
0.946717 
0.864274 
0.881307 
0.921110 
0.858535 
0.921110 
0.881307 
0.887046 
0.910001 
0.869829 
0.915556 
0.869829 
0.910001 
0.887046 
0.892784 
0.915740 
0.892784 
0.927218 
0.892784 
0.927218 
0.892784 
0.915740 
0.892784 
0.781831 
0.864274 
0.946717 
0.864274 
0.881307 
0.921110 
0.858535 
0.921110 
0.881307 
0.887046 
0.910001 
0.869829 
0.915556 
0.869829 
0.910001 
0.887046 
0.892784 
0.915740 
0.892784 
0.927218 
0.892784 
0.927218 
0.892784 
0.915740 
0.892784 
0.781831 
0.864274 
0.946717 
0.864274 
0.881307 
0.921110 
0.858535 
0.921110 
0.881307 
0.887046 
0.910001 
0.869829 
0.915556 
0.869829 
0.910001 
0.887046 
0.892784 
0.915740 
0.892784 
0.927218 
0.892784 
0.927218 
0.892784 
0.915740 
0.892784 
0.781831 
0.864274 
0.946717 
0.864274 
0.881307 
0.921110 
0.858535 
0.921110 
0.881307 
0.887046 
0.910001 
0.869829 
0.915556 
0.869829 
0.910001 
0.887046 
0.892784 
0.915740 
0.892784 
0.927218 
0.892784 
0.927218 
0.892784 
0.915740 
0.892784 
SCALARS DENSITY float 
LOOKUP_TABLE default 
200.000000 
200.000000 
200.000000 
200.000000 
200.000000 
200.000000 
200.000000 
200.000000 
200.000000 
200.000000 
200.000000 
200.000000 
200.000000 
200.000000 
200.000000 
200.000000 
200.000000 
200.000000 
200.000000 
200.000000 
200.000000 
200.000000 
200.000000 
200.000000 
200.000000 
200.000000 
200.000000 
200.000000 
200.000000 
200.000000 
200.000000 
200.000000 
200.000000 
200.000000 
200.000000 
200.000000 
200.000000 
200.000000 
200.000000 
200.000000 
200.000000 
200.000000 
200.000000 
200.000000 
200.000000 
200.000000 
200.000000 
200.000000 
200.000000 
200.000000 
200.000000 
200.000000 
200.000000 
200.000000 
200.000000 
200.000000 
200.000000 
200.000000 
200.000000 
200.000000 
200.000000 
200.000000 
200.000000 
200.000000 
200.000000 
200.000000 
200.000000 
200.000000 
200.000000 
200.000000 
200.000000 
200.000000 
200.000000 
200.000000 
200.000000 
200.000000 
200.000000 
200.000000 
200.000000 
200.000000 
200.000000 
200.000000 
200.000000 
200.000000 
200.000000 
200.000000 
200.000000 
200.000000 
200.000000 
200.000000 
200.000000 
200.000000 
200.000000 
200.000000 
200.000000 
200.000000 
200.000000 
200.000000 
200.000000 
200.000000 
200.000000 
200.000000 
200.000000 
200.000000 
200.000000 
200.000000 
200.000000 
200.000000 
200.000000 
200.000000 
200.000000 
200.000000 
200.000000 
200.000000 
200.000000 
200.000000 
200.000000 
200.000000 
200.000000 
200.000000 
200.000000 
200.000000 
200.000000 
200.000000 
200.000000 
200.000000 
200.000000 
200.000000 
200.000000 
200.000000 
200.000000 
200.000000 
200.000000 
200.000000 
200.000000 
200.000000 
200.000000 
200.000000 
200.000000 
200.000000 
200.000000 
200.000000 
200.000000 
200.000000 
200.000000 
200.000000 
200.000000 
200.000000 
200.000000 
200.000000 
200.000000 
200.000000 
200.000000 
200.000000 
200.000000 
200.000000 
200.000000 
200.000000 
200.000000 
200.000000 
200.000000 
200.000000 
200.000000 
200.000000 
200.000000 
200.000000 
200.000000 
200.000000 
200.000000 
200.000000 
200.000000 
200.000000 
200.000000 
200.000000 
200.000000 
SCALARS ELEM_i float 
LOOKUP_TABLE default 
167 
194 
167 
167 
194 
194 
195 
168 
168 
222 
195 
195 
195 
196 
168 
169 
222 
222 
223 
196 
196 
196 
196 
169 
169 
166 
193 
193 
194 
220 
193 
221 
194 
194 
220 
220 
220 
221 
221 
221 
222 
247 
247 
247 
248 
248 
248 
248 
222 
222 
166 
192 
193 
193 
192 
192 
192 
192 
220 
191 
191 
218 
219 
219 
219 
219 
190 
218 
218 
218 
218 
219 
246 
246 
246 
166 
165 
165 
165 
138 
165 
164 
165 
192 
137 
137 
164 
164 
164 
191 
191 
136 
136 
136 
163 
163 
163 
190 
190 
190 
166 
139 
139 
138 
112 
138 
138 
138 
138 
111 
111 
111 
111 
110 
137 
137 
84 
84 
84 
111 
110 
110 
110 
110 
136 
166 
140 
139 
139 
140 
140 
113 
139 
112 
114 
113 
113 
113 
112 
112 
112 
114 
114 
86 
86 
86 
86 
85 
85 
85 
167 
167 
167 
140 
168 
168 
141 
140 
140 
169 
168 
142 
141 
141 
141 
114 
169 
169 
142 
142 
142 
142 
115 
114 
114 
VECTORS VELOCITY float 
0.000000 -6.721812 0.000000 
0.000000 -6.721812 0.000000 
0.000000 -6.721812 0.000000 
-0.000000 -6.721812 0.000000 
0.000000 -6.721812 0.000000 
-0.000000 -6.721812 0.000000 
-0.000000 -6.721812 0.000000 
-0.000000 -6.721812 0.000000 
0.000000 -6.721812 0.000000 
-0.000000 -6.721812 0.000000 
-0.000000 -6.721812 0.000000 
-0.000000 -6.721812 0.000000 
-0.000000 -6.721812 0.000000 
0.000000 -6.721812 0.000000 
0.000000 -6.721812 0.000000 
0.000000 -6.721812 0.000000 
-0.000000 -6.721812 0.000000 
-0.000000 -6.721812 0.000000 
0.000000 -6.721812 0.000000 
-0.000000 -6.721812 0.000000 
0.000000 -6.721812 0.000000 
0.000000 -6.721812 0.000000 
0.000000 -6.721812 0.000000 
0.000000 -6.721812 0.000000 
-0.000000 -6.721812 0.000000 
-0.000000 -6.721812 0.000000 
-0.000000 -6.721812 0.000000 
-0.000000 -6.721812 0.000000 
0.000000 -6.721812 0.000000 
0.000000 -6.721812 0.000000 
0.000000 -6.721812 0.000000 
-0.000000 -6.721812 0.000000 
0.000000 -6.721812 0.000000 
0.000000 -6.721812 0.000000 
-0.000000 -6.721812 0.000000 
-0.000000 -6.721812 0.000000 
-0.000000 -6.721812 0.000000 
-0.000000 -6.721812 0.000000 
-0.000000 -6.721812 0.000000 
-0.000000 -6.721812 0.000000 
-0.000000 -6.721812 0.000000 
-0.000000 -6.721812 0.000000 
-0.000000 -6.721812 0.000000 
-0.000000 -6.721812 0.000000 
-0.000000 -6.721812 0.000000 
-0.000000 -6.721812 0.000000 
-0.000000 -6.721812 0.000000 
0.000000 -6.721812 0.000000 
0.000000 -6.721812 0.000000 
0.000000 -6.721812 0.000000 
-0.000000 -6.721812 0.000000 
0.000000 -6.721812 0.000000 
-0.000000 -6.721812 0.000000 
-0.000000 -6.721812 0.000000 
0.000000 -6.721812 0.000000 
0.000000 -6.721812 0.000000 
0.000000 -6.721812 0.000000 
0.000000 -6.721812 0.000000 
0.000000 -6.721812 0.000000 
-0.000000 -6.721812 0.000000 
0.000000 -6.721812 0.000000 
0.000000 -6.721812 0.000000 
0.000000 -6.721812 0.000000 
-0.000000 -6.721812 0.000000 
0.000000 -6.721812 0.000000 
0.000000 -6.721812 0.000000 
-0.000000 -6.721812 0.000000 
-0.000000 -6.721812 0.000000 
-0.000000 -6.721812 0.000000 
-0.000000 -6.721812 0.000000 
-0.000000 -6.721812 0.000000 
-0.000000 -6.721812 0.000000 
-0.000000 -6.721812 0.000000 
-0.000000 -6.721812 0.000000 
-0.000000 -6.721812 0.000000 
-0.000000 -6.721812 0.000000 
-0.000000 -6.721812 0.000000 
-0.000000 -6.721812 0.000000 
0.000000 -6.721812 0.000000 
-0.000000 -6.721812 0.000000 
-0.000000 -6.721812 0.000000 
-0.000000 -6.721812 0.000000 
-0.000000 -6.721812 0.000000 
-0.000000 -6.721812 0.000000 
-0.000000 -6.721812 0.000000 
-0.000000 -6.721812 0.000000 
-0.000000 -6.721812 0.000000 
-0.000000 -6.721812 0.000000 
0.000000 -6.721812 0.000000 
0.000000 -6.721812 0.000000 
0.000000 -6.721812 0.000000 
0.000000 -6.721812 0.000000 
0.000000 -6.721812 0.000000 
-0.000000 -6.721812 0.000000 
0.000000 -6.721812 0.000000 
-0.000000 -6.721812 0.000000 
0.000000 -6.721812 0.000000 
-0.000000 -6.721812 0.000000 
-0.000000 -6.721812 0.000000 
-0.000000 -6.721812 0.000000 
-0.000000 -6.721812 0.000000 
0.000000 -6.721812 0.000000 
-0.000000 -6.721812 0.000000 
-0.000000 -6.721812 0.000000 
0.000000 -6.721812 0.000000 
0.000000 -6.721812 0.000000 
0.000000 -6.721812 0.000000 
-0.000000 -6.721812 0.000000 
-0.000000 -6.721812 0.000000 
0.000000 -6.721812 0.000000 
0.000000 -6.721812 0.000000 
-0.000000 -6.721812 0.000000 
0.000000 -6.721812 0.000000 
0.000000 -6.721812 0.000000 
0.000000 -6.721812 0.000000 
0.000000 -6.721812 0.000000 
-0.000000 -6.721812 0.000000 
-0.000000 -6.721812 0.000000 
-0.000000 -6.721812 0.000000 
-0.000000 -6.721812 0.000000 
-0.000000 -6.721812 0.000000 
0.000000 -6.721812 0.000000 
-0.000000 -6.721812 0.000000 
0.000000 -6.721812 0.000000 
-0.000000 -6.721812 0.000000 
0.000000 -6.721812 0.000000 
0.000000 -6.721812 0.000000 
0.000000 -6.721812 0.000000 
0.000000 -6.721812 0.000000 
0.000000 -6.721812 0.000000 
0.000000 -6.721812 0.000000 
0.000000 -6.721812 0.000000 
0.000000 -6.721812 0.000000 
0.000000 -6.721812 0.000000 
0.000000 -6.721812 0.000000 
0.000000 -6.721812 0.000000 
-0.000000 -6.721812 0.000000 
-0.000000 -6.721812 0.000000 
-0.000000 -6.721812 0.000000 
-0.000000 -6.721812 0.000000 
0.000000 -6.721812 0.000000 
0.000000 -6.721812 0.000000 
0.000000 -6.721812 0.000000 
0.000000 -6.721812 0.000000 
-0.000000 -6.721812 0.000000 
0.000000 -6.721812 0.000000 
0.000000 -6.721812 0.000000 
0.000000 -6.721812 0.000000 
0.000000 -6.721812 0.000000 
0.000000 -6.721812 0.000000 
0.000000 -6.721812 0.000000 
0.000000 -6.721812 0.000000 
-0.000000 -6.721812 0.000000 
0.000000 -6.721812 0.000000 
0.000000 -6.721812 0.000000 
0.000000 -6.721812 0.000000 
0.000000 -6.721812 0.000000 
0.000000 -6.721812 0.000000 
0.000000 -6.721812 0.000000 
0.000000 -6.721812 0.000000 
0.000000 -6.721812 0.000000 
0.000000 -6.721812 0.000000 
0.000000 -6.721812 0.000000 
0.000000 -6.721812 0.000000 
-0.000000 -6.721812 0.000000 
-0.000000 -6.721812 0.000000 
0.000000 -6.721812 0.000000 
0.000000 -6.721812 0.000000 
0.000000 -6.721812 0.000000 
0.000000 -6.721812 0.000000 
-0.000000 -6.721812 0.000000 
0.000000 -6.721812 0.000000 
0.000000 -6.721812 0.000000 
0.000000 -6.721812 0.000000 
-0.000000 -6.721812 0.000000 
TENSORS STRESS float 
-0.000000 -0.000000 0.000000 
0.000000 -0.000000 0.000000 
0.000000 0.000000 0.000000 

0.000000 -0.000000 0.000000 
0.000000 0.000000 0.000000 
0.000000 0.000000 0.000000 

-0.000000 -0.000000 0.000000 
0.000000 -0.000000 0.000000 
0.000000 0.000000 0.000000 

-0.000000 -0.000000 0.000000 
0.000000 -0.000000 0.000000 
0.000000 0.000000 0.000000 

-0.000000 -0.000000 0.000000 
0.000000 -0.000000 0.000000 
0.000000 0.000000 0.000000 

-0.000000 -0.000000 0.000000 
0.000000 0.000000 0.000000 
0.000000 0.000000 0.000000 

0.000000 -0.000000 0.000000 
0.000000 0.000000 0.000000 
0.000000 0.000000 0.000000 

-0.000000 -0.000000 0.000000 
0.000000 -0.000000 0.000000 
0.000000 0.000000 0.000000 

-0.000000 0.000000 0.000000 
0.000000 -0.000000 0.000000 
0.000000 0.000000 0.000000 

-0.000000 -0.000000 0.000000 
0.000000 -0.000000 0.000000 
0.000000 0.000000 0.000000 

-0.000000 -0.000000 0.000000 
0.000000 -0.000000 0.000000 
0.000000 0.000000 0.000000 

0.000000 -0.000000 0.000000 
0.000000 0.000000 0.000000 
0.000000 0.000000 0.000000 

0.000000 -0.000000 0.000000 
0.000000 0.000000 0.000000 
0.000000 0.000000 0.000000 

0.000000 -0.000000 0.000000 
0.000000 0.000000 0.000000 
0.000000 0.000000 0.000000 

-0.000000 0.000000 0.000000 
0.000000 -0.000000 0.000000 
0.000000 0.000000 0.000000 

-0.000000 0.000000 0.000000 
0.000000 -0.000000 0.000000 
0.000000 0.000000 0.000000 

0.000000 -0.000000 0.000000 
0.000000 0.000000 0.000000 
0.000000 0.000000 0.000000 

0.000000 -0.000000 0.000000 
0.000000 0.000000 0.000000 
0.000000 0.000000 0.000000 

0.000000 0.000000 0.000000 
0.000000 0.000000 0.000000 
0.000000 0.000000 0.000000 

-0.000000 -0.000000 0.000000 
0.000000 -0.000000 0.000000 
0.000000 0.000000 0.000000 

0.000000 -0.000000 0.000000 
0.000000 0.000000 0.000000 
0.000000 0.000000 0.000000 

-0.000000 -0.000000 0.000000 
0.000000 -0.000000 0.000000 
0.000000 0.000000 0.000000 

-0.000000 -0.000000 0.000000 
0.000000 -0.000000 0.000000 
0.000000 0.000000 0.000000 

0.000000 0.000000 0.000000 
0.000000 0.000000 0.000000 
0.000000 0.000000 0.000000 

0.000000 0.000000 0.000000 
0.000000 0.000000 0.000000 
0.000000 0.000000 0.000000 

-0.000000 -0.000000 0.000000 
0.000000 -0.000000 0.000000 
0.000000 0.000000 0.000000 

-0.000000 0.000000 0.000000 
0.000000 -0.000000 0.000000 
0.000000 0.000000 0.000000 

0.000000 0.000000 0.000000 
0.000000 0.000000 0.000000 
0.000000 0.000000 0.000000 

-0.000000 0.000000 0.000000 
0.000000 -0.000000 0.000000 
0.000000 0.000000 0.000000 

0.000000 -0.000000 0.000000 
0.000000 0.000000 0.000000 
0.000000 0.000000 0.000000 

-0.000000 -0.000000 0.000000 
0.000000 -0.000000 0.000000 
0.000000 0.000000 0.000000 

0.000000 0.000000 0.000000 
0.000000 0.000000 0.000000 
0.000000 0.000000 0.000000 

-0.000000 0.000000 0.000000 
0.000000 -0.000000 0.000000 
0.000000 0.000000 0.000000 

-0.000000 0.000000 0.000000 
0.000000 -0.000000 0.000000 
0.000000 0.000000 0.000000 

0.000000 0.000000 0.000000 
0.000000 0.000000 0.000000 
0.000000 0.000000 0.000000 

-0.000000 0.000000 0.000000 
0.000000 -0.000000 0.000000 
0.000000 0.000000 0.000000 

-0.000000 0.000000 0.000000 
0.000000 -0.000000 0.000000 
0.000000 0.000000 0.000000 

-0.000000 0.000000 0.000000 
0.000000 -0.000000 0.000000 
0.000000 0.000000 0.000000 

-0.000000 0.000000 0.000000 
0.000000 0.000000 0.000000 
0.000000 0.000000 0.000000 

0.000000 0.000000 0.000000 
0.000000 0.000000 0.000000 
0.000000 0.000000 0.000000 

-0.000000 -0.000000 0.000000 
0.000000 -0.000000 0.000000 
0.000000 0.000000 0.000000 

0.000000 -0.000000 0.000000 
0.000000 0.000000 0.000000 
0.000000 0.000000 0.000000 

-0.000000 0.000000 0.000000 
0.000000 -0.000000 0.000000 
0.000000 0.000000 0.000000 

-0.000000 0.000000 0.000000 
0.000000 -0.000000 0.000000 
0.000000 0.000000 0.000000 

0.000000 0.000000 0.000000 
0.000000 0.000000 0.000000 
0.000000 0.000000 0.000000 

-0.000000 0.000000 0.000000 
0.000000 -0.000000 0.000000 
0.000000 0.000000 0.000000 

0.000000 0.000000 0.000000 
0.000000 0.000000 0.000000 
0.000000 0.000000 0.000000 

0.000000 0.000000 0.000000 
0.000000 0.000000 0.000000 
0.000000 0.000000 0.000000 

-0.000000 -0.000000 0.000000 
0.000000 -0.000000 0.000000 
0.000000 0.000000 0.000000 

-0.000000 -0.000000 0.000000 
0.000000 -0.000000 0.000000 
0.000000 0.000000 0.000000 

0.000000 -0.000000 0.000000 
0.000000 0.000000 0.000000 
0.000000 0.000000 0.000000 

-0.000000 0.000000 0.000000 
0.000000 -0.000000 0.000000 
0.000000 0.000000 0.000000 

-0.000000 0.000000 0.000000 
0.000000 -0.000000 0.000000 
0.000000 0.000000 0.000000 

-0.000000 0.000000 0.000000 
0.000000 -0.000000 0.000000 
0.000000 0.000000 0.000000 

-0.000000 -0.000000 0.000000 
0.000000 -0.000000 0.000000 
0.000000 0.000000 0.000000 

0.000000 0.000000 0.000000 
0.000000 0.000000 0.000000 
0.000000 0.000000 0.000000 

-0.000000 0.000000 0.000000 
0.000000 0.000000 0.000000 
0.000000 0.000000 0.000000 

-0.000000 0.000000 0.000000 
0.000000 -0.000000 0.000000 
0.000000 0.000000 0.000000 

0.000000 0.000000 0.000000 
0.000000 0.000000 0.000000 
0.000000 0.000000 0.000000 

0.000000 -0.000000 0.000000 
0.000000 0.000000 0.000000 
0.000000 0.000000 0.000000 

0.000000 -0.000000 0.000000 
0.000000 0.000000 0.000000 
0.000000 0.000000 0.000000 

0.000000 0.000000 0.000000 
0.000000 0.000000 0.000000 
0.000000 0.000000 0.000000 

-0.000000 0.000000 0.000000 
0.000000 -0.000000 0.000000 
0.000000 0.000000 0.000000 

0.000000 -0.000000 0.000000 
0.000000 0.000000 0.000000 
0.000000 0.000000 0.000000 

0.000000 0.000000 0.000000 
0.000000 0.000000 0.000000 
0.000000 0.000000 0.000000 

-0.000000 0.000000 0.000000 
0.000000 -0.000000 0.000000 
0.000000 0.000000 0.000000 

0.000000 0.000000 0.000000 
0.000000 0.000000 0.000000 
0.000000 0.000000 0.000000 

0.000000 -0.000000 0.000000 
0.000000 0.000000 0.000000 
0.000000 0.000000 0.000000 

0.000000 -0.000000 0.000000 
0.000000 0.000000 0.000000 
0.000000 0.000000 0.000000 

-0.000000 0.000000 0.000000 
0.000000 -0.000000 0.000000 
0.000000 0.000000 0.000000 

-0.000000 0.000000 0.000000 
0.000000 -0.000000 0.000000 
0.000000 0.000000 0.000000 

0.000000 0.000000 0.000000 
0.000000 0.000000 0.000000 
0.000000 0.000000 0.000000 

-0.000000 0.000000 0.000000 
0.000000 -0.000000 0.000000 
0.000000 0.000000 0.000000 

0.000000 -0.000000 0.000000 
0.000000 0.000000 0.000000 
0.000000 0.000000 0.000000 

0.000000 -0.000000 0.000000 
0.000000 0.000000 0.000000 
0.000000 0.000000 0.000000 

0.000000 -0.000000 0.000000 
0.000000 0.000000 0.000000 
0.000000 0.000000 0.000000 

0.000000 -0.000000 0.000000 
0.000000 0.000000 0.000000 
0.000000 0.000000 0.000000 

-0.000000 -0.000000 0.000000 
0.000000 -0.000000 0.000000 
0.000000 0.000000 0.000000 

0.000000 -0.000000 0.000000 
0.000000 0.000000 0.000000 
0.000000 0.000000 0.000000 

-0.000000 -0.000000 0.000000 
0.000000 -0.000000 0.000000 
0.000000 0.000000 0.000000 

-0.000000 -0.000000 0.000000 
0.000000 -0.000000 0.000000 
0.000000 0.000000 0.000000 

-0.000000 -0.000000 0.000000 
0.000000 -0.000000 0.000000 
0.000000 0.000000 0.000000 

0.000000 -0.000000 0.000000 
0.000000 0.000000 0.000000 
0.000000 0.000000 0.000000 

0.000000 -0.000000 0.000000 
0.000000 0.000000 0.000000 
0.000000 0.000000 0.000000 

-0.000000 -0.000000 0.000000 
0.000000 -0.000000 0.000000 
0.000000 0.000000 0.000000 

0.000000 -0.000000 0.000000 
0.000000 0.000000 0.000000 
0.000000 0.000000 0.000000 

-0.000000 -0.000000 0.000000 
0.000000 -0.000000 0.000000 
0.000000 0.000000 0.000000 

-0.000000 -0.000000 0.000000 
0.000000 -0.000000 0.000000 
0.000000 0.000000 0.000000 

-0.000000 -0.000000 0.000000 
0.000000 -0.000000 0.000000 
0.000000 0.000000 0.000000 

0.000000 -0.000000 0.000000 
0.000000 0.000000 0.000000 
0.000000 0.000000 0.000000 

-0.000000 -0.000000 0.000000 
0.000000 -0.000000 0.000000 
0.000000 0.000000 0.000000 

-0.000000 -0.000000 0.000000 
0.000000 -0.000000 0.000000 
0.000000 0.000000 0.000000 

-0.000000 -0.000000 0.000000 
0.000000 -0.000000 0.000000 
0.000000 0.000000 0.000000 

0.000000 -0.000000 0.000000 
0.000000 0.000000 0.000000 
0.000000 0.000000 0.000000 

-0.000000 -0.000000 0.000000 
0.000000 -0.000000 0.000000 
0.000000 0.000000 0.000000 

0.000000 0.000000 0.000000 
0.000000 0.000000 0.000000 
0.000000 0.000000 0.000000 

-0.000000 -0.000000 0.000000 
0.000000 -0.000000 0.000000 
0.000000 0.000000 0.000000 

-0.000000 0.000000 0.000000 
0.000000 -0.000000 0.000000 
0.000000 0.000000 0.000000 

-0.000000 -0.000000 0.000000 
0.000000 -0.000000 0.000000 
0.000000 0.000000 0.000000 

0.000000 0.000000 0.000000 
0.000000 0.000000 0.000000 
0.000000 0.000000 0.000000 

0.000000 -0.000000 0.000000 
0.000000 0.000000 0.000000 
0.000000 0.000000 0.000000 

0.000000 0.000000 0.000000 
0.000000 0.000000 0.000000 
0.000000 0.000000 0.000000 

-0.000000 0.000000 0.000000 
0.000000 -0.000000 0.000000 
0.000000 0.000000 0.000000 

0.000000 0.000000 0.000000 
0.000000 0.000000 0.000000 
0.000000 0.000000 0.000000 

0.000000 -0.000000 0.000000 
0.000000 0.000000 0.000000 
0.000000 0.000000 0.000000 

-0.000000 0.000000 0.000000 
0.000000 -0.000000 0.000000 
0.000000 0.000000 0.000000 

0.000000 -0.000000 0.000000 
0.000000 0.000000 0.000000 
0.000000 0.000000 0.000000 

0.000000 -0.000000 0.000000 
0.000000 0.000000 0.000000 
0.000000 0.000000 0.000000 

-0.000000 -0.000000 0.000000 
0.000000 -0.000000 0.000000 
0.000000 0.000000 0.000000 

0.000000 0.000000 0.000000 
0.000000 -0.000000 0.000000 
0.000000 0.000000 0.000000 

0.000000 0.000000 0.000000 
0.000000 0.000000 0.000000 
0.000000 0.000000 0.000000 

-0.000000 0.000000 0.000000 
0.000000 -0.000000 0.000000 
0.000000 0.000000 0.000000 

-0.000000 -0.000000 0.000000 
0.000000 -0.000000 0.000000 
0.000000 0.000000 0.000000 

-0.000000 -0.000000 0.000000 
0.000000 -0.000000 0.000000 
0.000000 0.000000 0.000000 

0.000000 -0.000000 0.000000 
0.000000 0.000000 0.000000 
0.000000 0.000000 0.000000 

-0.000000 -0.000000 0.000000 
0.000000 -0.000000 0.000000 
0.000000 0.000000 0.000000 

-0.000000 -0.000000 0.000000 
0.000000 -0.000000 0.000000 
0.000000 0.000000 0.000000 

-0.000000 -0.000000 0.000000 
0.000000 -0.000000 0.000000 
0.000000 0.000000 0.000000 

-0.000000 0.000000 0.000000 
0.000000 -0.000000 0.000000 
0.000000 0.000000 0.000000 

0.000000 0.000000 0.000000 
0.000000 -0.000000 0.000000 
0.000000 0.000000 0.000000 

-0.000000 0.000000 0.000000 
0.000000 -0.000000 0.000000 
0.000000 0.000000 0.000000 

-0.000000 -0.000000 0.000000 
0.000000 -0.000000 0.000000 
0.000000 0.000000 0.000000 

0.000000 -0.000000 0.000000 
0.000000 0.000000 0.000000 
0.000000 0.000000 0.000000 

-0.000000 -0.000000 0.000000 
0.000000 -0.000000 0.000000 
0.000000 0.000000 0.000000 

0.000000 -0.000000 0.000000 
0.000000 0.000000 0.000000 
0.000000 0.000000 0.000000 

0.000000 -0.000000 0.000000 
0.000000 0.000000 0.000000 
0.000000 0.000000 0.000000 

-0.000000 0.000000 0.000000 
0.000000 -0.000000 0.000000 
0.000000 0.000000 0.000000 

-0.000000 -0.000000 0.000000 
0.000000 -0.000000 0.000000 
0.000000 0.000000 0.000000 

0.000000 0.000000 0.000000 
0.000000 0.000000 0.000000 
0.000000 0.000000 0.000000 

-0.000000 -0.000000 0.000000 
0.000000 -0.000000 0.000000 
0.000000 0.000000 0.000000 

-0.000000 0.000000 0.000000 
0.000000 -0.000000 0.000000 
0.000000 0.000000 0.000000 

-0.000000 -0.000000 0.000000 
0.000000 -0.000000 0.000000 
0.000000 0.000000 0.000000 

-0.000000 0.000000 0.000000 
0.000000 -0.000000 0.000000 
0.000000 0.000000 0.000000 

-0.000000 -0.000000 0.000000 
0.000000 -0.000000 0.000000 
0.000000 0.000000 0.000000 

-0.000000 -0.000000 0.000000 
0.000000 -0.000000 0.000000 
0.000000 0.000000 0.000000 

-0.000000 -0.000000 0.000000 
0.000000 -0.000000 0.000000 
0.000000 0.000000 0.000000 

0.000000 -0.000000 0.000000 
0.000000 0.000000 0.000000 
0.000000 0.000000 0.000000 

-0.000000 -0.000000 0.000000 
0.000000 -0.000000 0.000000 
0.000000 0.000000 0.000000 

-0.000000 -0.000000 0.000000 
0.000000 -0.000000 0.000000 
0.000000 0.000000 0.000000 

0.000000 -0.000000 0.000000 
0.000000 -0.000000 0.000000 
0.000000 0.000000 0.000000 

0.000000 -0.000000 0.000000 
0.000000 0.000000 0.000000 
0.000000 0.000000 0.000000 

-0.000000 0.000000 0.000000 
0.000000 -0.000000 0.000000 
0.000000 0.000000 0.000000 

0.000000 0.000000 0.000000 
0.000000 0.000000 0.000000 
0.000000 0.000000 0.000000 

-0.000000 0.000000 0.000000 
0.000000 0.000000 0.000000 
0.000000 0.000000 0.000000 

0.000000 -0.000000 0.000000 
0.000000 0.000000 0.000000 
0.000000 0.000000 0.000000 

-0.000000 0.000000 0.000000 
0.000000 -0.000000 0.000000 
0.000000 0.000000 0.000000 

-0.000000 0.000000 0.000000 
0.000000 -0.000000 0.000000 
0.000000 0.000000 0.000000 

-0.000000 0.000000 0.000000 
0.000000 -0.000000 0.000000 
0.000000 0.000000 0.000000 

0.000000 0.000000 0.000000 
0.000000 0.000000 0.000000 
0.000000 0.000000 0.000000 

0.000000 -0.000000 0.000000 
0.000000 0.000000 0.000000 
0.000000 0.000000 0.000000 

-0.000000 -0.000000 0.000000 
0.000000 -0.000000 0.000000 
0.000000 0.000000 0.000000 

-0.000000 0.000000 0.000000 
0.000000 -0.000000 0.000000 
0.000000 0.000000 0.000000 

0.000000 -0.000000 0.000000 
0.000000 0.000000 0.000000 
0.000000 0.000000 0.000000 

-0.000000 -0.000000 0.000000 
0.000000 -0.000000 0.000000 
0.000000 0.000000 0.000000 

0.000000 0.000000 0.000000 
0.000000 0.000000 0.000000 
0.000000 0.000000 0.000000 

0.000000 -0.000000 0.000000 
0.000000 0.000000 0.000000 
0.000000 0.000000 0.000000 

-0.000000 -0.000000 0.000000 
0.000000 -0.000000 0.000000 
0.000000 0.000000 0.000000 

0.000000 0.000000 0.000000 
0.000000 0.000000 0.000000 
0.000000 0.000000 0.000000 

-0.000000 0.000000 0.000000 
0.000000 -0.000000 0.000000 
0.000000 0.000000 0.000000 

0.000000 0.000000 0.000000 
0.000000 0.000000 0.000000 
0.000000 0.000000 0.000000 

0.000000 0.000000 0.000000 
0.000000 0.000000 0.000000 
0.000000 0.000000 0.000000 

-0.000000 -0.000000 0.000000 
0.000000 -0.000000 0.000000 
0.000000 0.000000 0.000000 

0.000000 0.000000 0.000000 
0.000000 0.000000 0.000000 
0.000000 0.000000 0.000000 

0.000000 0.000000 0.000000 
0.000000 0.000000 0.000000 
0.000000 0.000000 0.000000 

-0.000000 -0.000000 0.000000 
0.000000 -0.000000 0.000000 
0.000000 0.000000 0.000000 

0.000000 -0.000000 0.000000 
0.000000 0.000000 0.000000 
0.000000 0.000000 0.000000 

-0.000000 0.000000 0.000000 
0.000000 -0.000000 0.000000 
0.000000 0.000000 0.000000 

0.000000 0.000000 0.000000 
0.000000 0.000000 0.000000 
0.000000 0.000000 0.000000 

0.000000 -0.000000 0.000000 
0.000000 0.000000 0.000000 
0.000000 0.000000 0.000000 

0.000000 -0.000000 0.000000 
0.000000 0.000000 0.000000 
0.000000 0.000000 0.000000 

0.000000 0.000000 0.000000 
0.000000 0.000000 0.000000 
0.000000 0.000000 0.000000 

0.000000 0.000000 0.000000 
0.000000 0.000000 0.000000 
0.000000 0.000000 0.000000 

0.000000 0.000000 0.000000 
0.000000 0.000000 0.000000 
0.000000 0.000000 0.000000 

0.000000 0.000000 0.000000 
0.000000 0.000000 0.000000 
0.000000 0.000000 0.000000 

-0.000000 0.000000 0.000000 
0.000000 -0.000000 0.000000 
0.000000 0.000000 0.000000 

TENSORS STRAIN float 
0.000000 -0.000000 0.000000 
0.000000 -0.000000 0.000000 
0.000000 0.000000 0.000000 

0.000000 -0.000000 0.000000 
0.000000 0.000000 0.000000 
0.000000 0.000000 0.000000 

0.000000 -0.000000 0.000000 
0.000000 -0.000000 0.000000 
0.000000 0.000000 0.000000 

0.000000 -0.000000 0.000000 
0.000000 -0.000000 0.000000 
0.000000 0.000000 0.000000 

-0.000000 -0.000000 0.000000 
0.000000 -0.000000 0.000000 
0.000000 0.000000 0.000000 

-0.000000 -0.000000 0.000000 
0.000000 0.000000 0.000000 
0.000000 0.000000 0.000000 

-0.000000 -0.000000 0.000000 
0.000000 0.000000 0.000000 
0.000000 0.000000 0.000000 

0.000000 -0.000000 0.000000 
0.000000 -0.000000 0.000000 
0.000000 0.000000 0.000000 

0.000000 0.000000 0.000000 
0.000000 -0.000000 0.000000 
0.000000 0.000000 0.000000 

-0.000000 -0.000000 0.000000 
0.000000 0.000000 0.000000 
0.000000 0.000000 0.000000 

-0.000000 -0.000000 0.000000 
0.000000 0.000000 0.000000 
0.000000 0.000000 0.000000 

0.000000 -0.000000 0.000000 
0.000000 0.000000 0.000000 
0.000000 0.000000 0.000000 

-0.000000 -0.000000 0.000000 
0.000000 0.000000 0.000000 
0.000000 0.000000 0.000000 

-0.000000 -0.000000 0.000000 
0.000000 0.000000 0.000000 
0.000000 0.000000 0.000000 

-0.000000 0.000000 0.000000 
0.000000 -0.000000 0.000000 
0.000000 0.000000 0.000000 

-0.000000 0.000000 0.000000 
0.000000 -0.000000 0.000000 
0.000000 0.000000 0.000000 

0.000000 -0.000000 0.000000 
0.000000 -0.000000 0.000000 
0.000000 0.000000 0.000000 

0.000000 -0.000000 0.000000 
0.000000 -0.000000 0.000000 
0.000000 0.000000 0.000000 

0.000000 0.000000 0.000000 
0.000000 -0.000000 0.000000 
0.000000 0.000000 0.000000 

-0.000000 -0.000000 0.000000 
0.000000 -0.000000 0.000000 
0.000000 0.000000 0.000000 

0.000000 -0.000000 0.000000 
0.000000 0.000000 0.000000 
0.000000 0.000000 0.000000 

0.000000 -0.000000 0.000000 
0.000000 -0.000000 0.000000 
0.000000 0.000000 0.000000 

0.000000 -0.000000 0.000000 
0.000000 -0.000000 0.000000 
0.000000 0.000000 0.000000 

-0.000000 0.000000 0.000000 
0.000000 0.000000 0.000000 
0.000000 0.000000 0.000000 

-0.000000 0.000000 0.000000 
0.000000 0.000000 0.000000 
0.000000 0.000000 0.000000 

-0.000000 -0.000000 0.000000 
0.000000 -0.000000 0.000000 
0.000000 0.000000 0.000000 

0.000000 0.000000 0.000000 
0.000000 -0.000000 0.000000 
0.000000 0.000000 0.000000 

0.000000 0.000000 0.000000 
0.000000 0.000000 0.000000 
0.000000 0.000000 0.000000 

0.000000 0.000000 0.000000 
0.000000 -0.000000 0.000000 
0.000000 0.000000 0.000000 

0.000000 -0.000000 0.000000 
0.000000 0.000000 0.000000 
0.000000 0.000000 0.000000 

0.000000 -0.000000 0.000000 
0.000000 -0.000000 0.000000 
0.000000 0.000000 0.000000 

-0.000000 0.000000 0.000000 
0.000000 0.000000 0.000000 
0.000000 0.000000 0.000000 

0.000000 0.000000 0.000000 
0.000000 -0.000000 0.000000 
0.000000 0.000000 0.000000 

-0.000000 0.000000 0.000000 
0.000000 -0.000000 0.000000 
0.000000 0.000000 0.000000 

0.000000 0.000000 0.000000 
0.000000 0.000000 0.000000 
0.000000 0.000000 0.000000 

0.000000 0.000000 0.000000 
0.000000 -0.000000 0.000000 
0.000000 0.000000 0.000000 

-0.000000 0.000000 0.000000 
0.000000 -0.000000 0.000000 
0.000000 0.000000 0.000000 

-0.000000 0.000000 0.000000 
0.000000 0.000000 0.000000 
0.000000 0.000000 0.000000 

-0.000000 0.000000 0.000000 
0.000000 0.000000 0.000000 
0.000000 0.000000 0.000000 

-0.000000 0.000000 0.000000 
0.000000 0.000000 0.000000 
0.000000 0.000000 0.000000 

-0.000000 -0.000000 0.000000 
0.000000 0.000000 0.000000 
0.000000 0.000000 0.000000 

0.000000 -0.000000 0.000000 
0.000000 -0.000000 0.000000 
0.000000 0.000000 0.000000 

0.000000 0.000000 0.000000 
0.000000 -0.000000 0.000000 
0.000000 0.000000 0.000000 

0.000000 0.000000 0.000000 
0.000000 -0.000000 0.000000 
0.000000 0.000000 0.000000 

-0.000000 0.000000 0.000000 
0.000000 0.000000 0.000000 
0.000000 0.000000 0.000000 

-0.000000 0.000000 0.000000 
0.000000 0.000000 0.000000 
0.000000 0.000000 0.000000 

-0.000000 0.000000 0.000000 
0.000000 0.000000 0.000000 
0.000000 0.000000 0.000000 

-0.000000 0.000000 0.000000 
0.000000 0.000000 0.000000 
0.000000 0.000000 0.000000 

-0.000000 -0.000000 0.000000 
0.000000 0.000000 0.000000 
0.000000 0.000000 0.000000 

-0.000000 -0.000000 0.000000 
0.000000 0.000000 0.000000 
0.000000 0.000000 0.000000 

0.000000 -0.000000 0.000000 
0.000000 0.000000 0.000000 
0.000000 0.000000 0.000000 

-0.000000 0.000000 0.000000 
0.000000 -0.000000 0.000000 
0.000000 0.000000 0.000000 

-0.000000 0.000000 0.000000 
0.000000 0.000000 0.000000 
0.000000 0.000000 0.000000 

-0.000000 0.000000 0.000000 
0.000000 -0.000000 0.000000 
0.000000 0.000000 0.000000 

-0.000000 -0.000000 0.000000 
0.000000 -0.000000 0.000000 
0.000000 0.000000 0.000000 

-0.000000 0.000000 0.000000 
0.000000 0.000000 0.000000 
0.000000 0.000000 0.000000 

-0.000000 0.000000 0.000000 
0.000000 0.000000 0.000000 
0.000000 0.000000 0.000000 

-0.000000 0.000000 0.000000 
0.000000 0.000000 0.000000 
0.000000 0.000000 0.000000 

0.000000 0.000000 0.000000 
0.000000 0.000000 0.000000 
0.000000 0.000000 0.000000 

-0.000000 -0.000000 0.000000 
0.000000 0.000000 0.000000 
0.000000 0.000000 0.000000 

-0.000000 -0.000000 0.000000 
0.000000 0.000000 0.000000 
0.000000 0.000000 0.000000 

-0.000000 0.000000 0.000000 
0.000000 0.000000 0.000000 
0.000000 0.000000 0.000000 

-0.000000 0.000000 0.000000 
0.000000 0.000000 0.000000 
0.000000 0.000000 0.000000 

-0.000000 -0.000000 0.000000 
0.000000 0.000000 0.000000 
0.000000 0.000000 0.000000 

0.000000 0.000000 0.000000 
0.000000 0.000000 0.000000 
0.000000 0.000000 0.000000 

0.000000 0.000000 0.000000 
0.000000 -0.000000 0.000000 
0.000000 0.000000 0.000000 

-0.000000 0.000000 0.000000 
0.000000 0.000000 0.000000 
0.000000 0.000000 0.000000 

-0.000000 -0.000000 0.000000 
0.000000 0.000000 0.000000 
0.000000 0.000000 0.000000 

-0.000000 -0.000000 0.000000 
0.000000 0.000000 0.000000 
0.000000 0.000000 0.000000 

-0.000000 0.000000 0.000000 
0.000000 0.000000 0.000000 
0.000000 0.000000 0.000000 

-0.000000 0.000000 0.000000 
0.000000 0.000000 0.000000 
0.000000 0.000000 0.000000 

-0.000000 0.000000 0.000000 
0.000000 0.000000 0.000000 
0.000000 0.000000 0.000000 

-0.000000 0.000000 0.000000 
0.000000 -0.000000 0.000000 
0.000000 0.000000 0.000000 

-0.000000 -0.000000 0.000000 
0.000000 0.000000 0.000000 
0.000000 0.000000 0.000000 

-0.000000 -0.000000 0.000000 
0.000000 0.000000 0.000000 
0.000000 0.000000 0.000000 

-0.000000 -0.000000 0.000000 
0.000000 0.000000 0.000000 
0.000000 0.000000 0.000000 

-0.000000 -0.000000 0.000000 
0.000000 0.000000 0.000000 
0.000000 0.000000 0.000000 

-0.000000 -0.000000 0.000000 
0.000000 -0.000000 0.000000 
0.000000 0.000000 0.000000 

-0.000000 -0.000000 0.000000 
0.000000 0.000000 0.000000 
0.000000 0.000000 0.000000 

0.000000 -0.000000 0.000000 
0.000000 -0.000000 0.000000 
0.000000 0.000000 0.000000 

-0.000000 -0.000000 0.000000 
0.000000 -0.000000 0.000000 
0.000000 0.000000 0.000000 

-0.000000 -0.000000 0.000000 
0.000000 -0.000000 0.000000 
0.000000 0.000000 0.000000 

-0.000000 -0.000000 0.000000 
0.000000 0.000000 0.000000 
0.000000 0.000000 0.000000 

-0.000000 -0.000000 0.000000 
0.000000 0.000000 0.000000 
0.000000 0.000000 0.000000 

0.000000 -0.000000 0.000000 
0.000000 -0.000000 0.000000 
0.000000 0.000000 0.000000 

0.000000 -0.000000 0.000000 
0.000000 -0.000000 0.000000 
0.000000 0.000000 0.000000 

-0.000000 -0.000000 0.000000 
0.000000 0.000000 0.000000 
0.000000 0.000000 0.000000 

-0.000000 -0.000000 0.000000 
0.000000 -0.000000 0.000000 
0.000000 0.000000 0.000000 

-0.000000 -0.000000 0.000000 
0.000000 -0.000000 0.000000 
0.000000 0.000000 0.000000 

-0.000000 -0.000000 0.000000 
0.000000 0.000000 0.000000 
0.000000 0.000000 0.000000 

-0.000000 -0.000000 0.000000 
0.000000 -0.000000 0.000000 
0.000000 0.000000 0.000000 

0.000000 -0.000000 0.000000 
0.000000 -0.000000 0.000000 
0.000000 0.000000 0.000000 

0.000000 -0.000000 0.000000 
0.000000 -0.000000 0.000000 
0.000000 0.000000 0.000000 

0.000000 -0.000000 0.000000 
0.000000 -0.000000 0.000000 
0.000000 0.000000 0.000000 

-0.000000 -0.000000 0.000000 
0.000000 -0.000000 0.000000 
0.000000 0.000000 0.000000 

0.000000 0.000000 0.000000 
0.000000 0.000000 0.000000 
0.000000 0.000000 0.000000 

-0.000000 -0.000000 0.000000 
0.000000 -0.000000 0.000000 
0.000000 0.000000 0.000000 

0.000000 0.000000 0.000000 
0.000000 -0.000000 0.000000 
0.000000 0.000000 0.000000 

-0.000000 -0.000000 0.000000 
0.000000 -0.000000 0.000000 
0.000000 0.000000 0.000000 

0.000000 0.000000 0.000000 
0.000000 0.000000 0.000000 
0.000000 0.000000 0.000000 

0.000000 -0.000000 0.000000 
0.000000 0.000000 0.000000 
0.000000 0.000000 0.000000 

-0.000000 0.000000 0.000000 
0.000000 0.000000 0.000000 
0.000000 0.000000 0.000000 

-0.000000 0.000000 0.000000 
0.000000 -0.000000 0.000000 
0.000000 0.000000 0.000000 

-0.000000 0.000000 0.000000 
0.000000 0.000000 0.000000 
0.000000 0.000000 0.000000 

0.000000 -0.000000 0.000000 
0.000000 -0.000000 0.000000 
0.000000 0.000000 0.000000 

-0.000000 0.000000 0.000000 
0.000000 -0.000000 0.000000 
0.000000 0.000000 0.000000 

-0.000000 -0.000000 0.000000 
0.000000 0.000000 0.000000 
0.000000 0.000000 0.000000 

0.000000 -0.000000 0.000000 
0.000000 0.000000 0.000000 
0.000000 0.000000 0.000000 

0.000000 -0.000000 0.000000 
0.000000 -0.000000 0.000000 
0.000000 0.000000 0.000000 

0.000000 0.000000 0.000000 
0.000000 -0.000000 0.000000 
0.000000 0.000000 0.000000 

0.000000 0.000000 0.000000 
0.000000 -0.000000 0.000000 
0.000000 0.000000 0.000000 

0.000000 0.000000 0.000000 
0.000000 -0.000000 0.000000 
0.000000 0.000000 0.000000 

0.000000 -0.000000 0.000000 
0.000000 -0.000000 0.000000 
0.000000 0.000000 0.000000 

-0.000000 -0.000000 0.000000 
0.000000 -0.000000 0.000000 
0.000000 0.000000 0.000000 

0.000000 -0.000000 0.000000 
0.000000 -0.000000 0.000000 
0.000000 0.000000 0.000000 

0.000000 -0.000000 0.000000 
0.000000 -0.000000 0.000000 
0.000000 0.000000 0.000000 

-0.000000 -0.000000 0.000000 
0.000000 0.000000 0.000000 
0.000000 0.000000 0.000000 

-0.000000 -0.000000 0.000000 
0.000000 -0.000000 0.000000 
0.000000 0.000000 0.000000 

0.000000 0.000000 0.000000 
0.000000 -0.000000 0.000000 
0.000000 0.000000 0.000000 

0.000000 0.000000 0.000000 
0.000000 -0.000000 0.000000 
0.000000 0.000000 0.000000 

-0.000000 0.000000 0.000000 
0.000000 -0.000000 0.000000 
0.000000 0.000000 0.000000 

-0.000000 -0.000000 0.000000 
0.000000 0.000000 0.000000 
0.000000 0.000000 0.000000 

0.000000 -0.000000 0.000000 
0.000000 0.000000 0.000000 
0.000000 0.000000 0.000000 

0.000000 -0.000000 0.000000 
0.000000 -0.000000 0.000000 
0.000000 0.000000 0.000000 

0.000000 -0.000000 0.000000 
0.000000 0.000000 0.000000 
0.000000 0.000000 0.000000 

-0.000000 -0.000000 0.000000 
0.000000 0.000000 0.000000 
0.000000 0.000000 0.000000 

-0.000000 0.000000 0.000000 
0.000000 -0.000000 0.000000 
0.000000 0.000000 0.000000 

-0.000000 -0.000000 0.000000 
0.000000 -0.000000 0.000000 
0.000000 0.000000 0.000000 

-0.000000 0.000000 0.000000 
0.000000 0.000000 0.000000 
0.000000 0.000000 0.000000 

-0.000000 -0.000000 0.000000 
0.000000 -0.000000 0.000000 
0.000000 0.000000 0.000000 

-0.000000 0.000000 0.000000 
0.000000 -0.000000 0.000000 
0.000000 0.000000 0.000000 

0.000000 -0.000000 0.000000 
0.000000 -0.000000 0.000000 
0.000000 0.000000 0.000000 

-0.000000 0.000000 0.000000 
0.000000 0.000000 0.000000 
0.000000 0.000000 0.000000 

0.000000 -0.000000 0.000000 
0.000000 -0.000000 0.000000 
0.000000 0.000000 0.000000 

-0.000000 -0.000000 0.000000 
0.000000 -0.000000 0.000000 
0.000000 0.000000 0.000000 

-0.000000 -0.000000 0.000000 
0.000000 -0.000000 0.000000 
0.000000 0.000000 0.000000 

-0.000000 -0.000000 0.000000 
0.000000 0.000000 0.000000 
0.000000 0.000000 0.000000 

-0.000000 -0.000000 0.000000 
0.000000 0.000000 0.000000 
0.000000 0.000000 0.000000 

0.000000 -0.000000 0.000000 
0.000000 -0.000000 0.000000 
0.000000 0.000000 0.000000 

0.000000 -0.000000 0.000000 
0.000000 -0.000000 0.000000 
0.000000 0.000000 0.000000 

0.000000 -0.000000 0.000000 
0.000000 -0.000000 0.000000 
0.000000 0.000000 0.000000 

0.000000 0.000000 0.000000 
0.000000 -0.000000 0.000000 
0.000000 0.000000 0.000000 

0.000000 0.000000 0.000000 
0.000000 0.000000 0.000000 
0.000000 0.000000 0.000000 

-0.000000 0.000000 0.000000 
0.000000 0.000000 0.000000 
0.000000 0.000000 0.000000 

0.000000 -0.000000 0.000000 
0.000000 -0.000000 0.000000 
0.000000 0.000000 0.000000 

0.000000 0.000000 0.000000 
0.000000 -0.000000 0.000000 
0.000000 0.000000 0.000000 

0.000000 0.000000 0.000000 
0.000000 -0.000000 0.000000 
0.000000 0.000000 0.000000 

-0.000000 0.000000 0.000000 
0.000000 -0.000000 0.000000 
0.000000 0.000000 0.000000 

-0.000000 0.000000 0.000000 
0.000000 0.000000 0.000000 
0.000000 0.000000 0.000000 

-0.000000 -0.000000 0.000000 
0.000000 0.000000 0.000000 
0.000000 0.000000 0.000000 

0.000000 -0.000000 0.000000 
0.000000 -0.000000 0.000000 
0.000000 0.000000 0.000000 

0.000000 0.000000 0.000000 
0.000000 -0.000000 0.000000 
0.000000 0.000000 0.000000 

0.000000 -0.000000 0.000000 
0.000000 -0.000000 0.000000 
0.000000 0.000000 0.000000 

-0.000000 -0.000000 0.000000 
0.000000 0.000000 0.000000 
0.000000 0.000000 0.000000 

0.000000 0.000000 0.000000 
0.000000 -0.000000 0.000000 
0.000000 0.000000 0.000000 

0.000000 -0.000000 0.000000 
0.000000 -0.000000 0.000000 
0.000000 0.000000 0.000000 

-0.000000 -0.000000 0.000000 
0.000000 0.000000 0.000000 
0.000000 0.000000 0.000000 

-0.000000 0.000000 0.000000 
0.000000 0.000000 0.000000 
0.000000 0.000000 0.000000 

-0.000000 0.000000 0.000000 
0.000000 0.000000 0.000000 
0.000000 0.000000 0.000000 

-0.000000 0.000000 0.000000 
0.000000 0.000000 0.000000 
0.000000 0.000000 0.000000 

-0.000000 0.000000 0.000000 
0.000000 0.000000 0.000000 
0.000000 0.000000 0.000000 

0.000000 -0.000000 0.000000 
0.000000 -0.000000 0.000000 
0.000000 0.000000 0.000000 

-0.000000 0.000000 0.000000 
0.000000 0.000000 0.000000 
0.000000 0.000000 0.000000 

-0.000000 0.000000 0.000000 
0.000000 0.000000 0.000000 
0.000000 0.000000 0.000000 

-0.000000 -0.000000 0.000000 
0.000000 0.000000 0.000000 
0.000000 0.000000 0.000000 

0.000000 -0.000000 0.000000 
0.000000 0.000000 0.000000 
0.000000 0.000000 0.000000 

-0.000000 0.000000 0.000000 
0.000000 -0.000000 0.000000 
0.000000 0.000000 0.000000 

-0.000000 0.000000 0.000000 
0.000000 0.000000 0.000000 
0.000000 0.000000 0.000000 

0.000000 -0.000000 0.000000 
0.000000 -0.000000 0.000000 
0.000000 0.000000 0.000000 

0.000000 -0.000000 0.000000 
0.000000 -0.000000 0.000000 
0.000000 0.000000 0.000000 

0.000000 0.000000 0.000000 
0.000000 -0.000000 0.000000 
0.000000 0.000000 0.000000 

0.000000 0.000000 0.000000 
0.000000 -0.000000 0.000000 
0.000000 0.000000 0.000000 

0.000000 0.000000 0.000000 
0.000000 0.000000 0.000000 
0.000000 0.000000 0.000000 

0.000000 0.000000 0.000000 
0.000000 -0.000000 0.000000 
0.000000 0.000000 0.000000 

0.000000 0.000000 0.000000 
0.000000 -0.000000 0.000000 
0.000000 0.000000 0.000000 

