# vtk DataFile Version 3.0 
vtk output 
ASCII 
DATASET UNSTRUCTURED_GRID 
POINTS 175 float 
-0.026061 -0.201089 0.000000 
-0.106992 -0.133033 0.000000 
-0.054870 -0.141266 0.000000 
-0.028809 -0.095382 0.000000 
-0.186430 -0.068958 0.000000 
-0.137056 -0.071484 0.000000 
-0.114311 -0.017837 0.000000 
-0.058186 -0.033502 0.000000 
-0.029377 0.006675 0.000000 
-0.265318 -0.005802 0.000000 
-0.217198 -0.006602 0.000000 
-0.196633 0.050695 0.000000 
-0.143120 0.041986 0.000000 
-0.116563 0.089254 0.000000 
-0.058945 0.069609 0.000000 
-0.029568 0.107729 0.000000 
-0.344206 0.057354 0.000000 
-0.296791 0.057361 0.000000 
-0.278030 0.117304 0.000000 
-0.225992 0.111437 0.000000 
-0.201664 0.163554 0.000000 
-0.145749 0.150080 0.000000 
-0.117890 0.194423 0.000000 
-0.059328 0.171717 0.000000 
-0.029759 0.208783 0.000000 
-0.058559 -0.241840 0.000000 
-0.162226 -0.262682 0.000000 
-0.123292 -0.227065 0.000000 
-0.142917 -0.178081 0.000000 
-0.261851 -0.284839 0.000000 
-0.229092 -0.247812 0.000000 
-0.256854 -0.196580 0.000000 
-0.209613 -0.162467 0.000000 
-0.223062 -0.114893 0.000000 
-0.360414 -0.307139 0.000000 
-0.329787 -0.270016 0.000000 
-0.361761 -0.218214 0.000000 
-0.321587 -0.181805 0.000000 
-0.341985 -0.131571 0.000000 
-0.290702 -0.098772 0.000000 
-0.302189 -0.052037 0.000000 
-0.458977 -0.329439 0.000000 
-0.429420 -0.292364 0.000000 
-0.464588 -0.240322 0.000000 
-0.427556 -0.203295 0.000000 
-0.453135 -0.151780 0.000000 
-0.407738 -0.116465 0.000000 
-0.425037 -0.067037 0.000000 
-0.370772 -0.035408 0.000000 
-0.381315 0.010820 0.000000 
-0.046960 -0.292655 0.000000 
-0.095301 -0.386701 0.000000 
-0.098873 -0.334054 0.000000 
-0.149405 -0.318856 0.000000 
-0.140093 -0.478405 0.000000 
-0.148617 -0.429707 0.000000 
-0.205981 -0.419469 0.000000 
-0.203197 -0.361266 0.000000 
-0.248777 -0.342119 0.000000 
-0.184111 -0.569368 0.000000 
-0.194039 -0.522277 0.000000 
-0.254475 -0.514978 0.000000 
-0.257893 -0.460868 0.000000 
-0.309886 -0.445496 0.000000 
-0.303554 -0.384950 0.000000 
-0.347255 -0.364792 0.000000 
-0.228129 -0.660332 0.000000 
-0.238687 -0.614108 0.000000 
-0.301302 -0.609156 0.000000 
-0.307162 -0.557117 0.000000 
-0.363386 -0.544996 0.000000 
-0.362692 -0.487484 0.000000 
-0.412122 -0.470191 0.000000 
-0.403017 -0.408045 0.000000 
-0.445733 -0.387466 0.000000 
-0.000000 -0.315270 0.000000 
0.043388 -0.411700 0.000000 
-0.000000 -0.381668 0.000000 
-0.043388 -0.411700 0.000000 
0.087158 -0.503897 0.000000 
0.043769 -0.480198 0.000000 
-0.000000 -0.518664 0.000000 
-0.043769 -0.480198 0.000000 
-0.087158 -0.503897 0.000000 
0.130831 -0.595027 0.000000 
0.087824 -0.573428 0.000000 
0.044436 -0.616128 0.000000 
-0.000000 -0.585063 0.000000 
-0.044436 -0.616128 0.000000 
-0.087824 -0.573428 0.000000 
-0.130831 -0.595027 0.000000 
0.174505 -0.686156 0.000000 
0.131782 -0.665590 0.000000 
0.088871 -0.711457 0.000000 
0.044532 -0.683593 0.000000 
-0.000000 -0.719993 0.000000 
-0.044532 -0.683593 0.000000 
-0.088871 -0.711457 0.000000 
-0.131782 -0.665590 0.000000 
-0.174505 -0.686156 0.000000 
0.046960 -0.292655 0.000000 
0.149405 -0.318856 0.000000 
0.098873 -0.334054 0.000000 
0.095301 -0.386701 0.000000 
0.248777 -0.342119 0.000000 
0.203197 -0.361266 0.000000 
0.205981 -0.419469 0.000000 
0.148617 -0.429707 0.000000 
0.140093 -0.478405 0.000000 
0.347255 -0.364792 0.000000 
0.303554 -0.384950 0.000000 
0.309886 -0.445496 0.000000 
0.257893 -0.460868 0.000000 
0.254475 -0.514978 0.000000 
0.194039 -0.522277 0.000000 
0.184111 -0.569368 0.000000 
0.445733 -0.387466 0.000000 
0.403017 -0.408045 0.000000 
0.412122 -0.470191 0.000000 
0.362692 -0.487484 0.000000 
0.363386 -0.544996 0.000000 
0.307162 -0.557117 0.000000 
0.301302 -0.609156 0.000000 
0.238687 -0.614108 0.000000 
0.228129 -0.660332 0.000000 
0.058559 -0.241840 0.000000 
0.142917 -0.178081 0.000000 
0.123292 -0.227065 0.000000 
0.162226 -0.262682 0.000000 
0.223062 -0.114893 0.000000 
0.209613 -0.162467 0.000000 
0.256854 -0.196580 0.000000 
0.229092 -0.247812 0.000000 
0.261851 -0.284839 0.000000 
0.302189 -0.052037 0.000000 
0.290702 -0.098772 0.000000 
0.341985 -0.131571 0.000000 
0.321587 -0.181805 0.000000 
0.361761 -0.218214 0.000000 
0.329787 -0.270016 0.000000 
0.360414 -0.307139 0.000000 
0.381315 0.010820 0.000000 
0.370772 -0.035408 0.000000 
0.425037 -0.067037 0.000000 
0.407738 -0.116465 0.000000 
0.453135 -0.151780 0.000000 
0.427556 -0.203295 0.000000 
0.464588 -0.240322 0.000000 
0.429420 -0.292364 0.000000 
0.458977 -0.329439 0.000000 
0.026061 -0.201089 0.000000 
0.028809 -0.095382 0.000000 
0.054870 -0.141266 0.000000 
0.106992 -0.133033 0.000000 
0.029377 0.006675 0.000000 
0.058186 -0.033502 0.000000 
0.114311 -0.017837 0.000000 
0.137056 -0.071484 0.000000 
0.186430 -0.068958 0.000000 
0.029568 0.107729 0.000000 
0.058945 0.069609 0.000000 
0.116563 0.089254 0.000000 
0.143120 0.041986 0.000000 
0.196633 0.050695 0.000000 
0.217198 -0.006602 0.000000 
0.265318 -0.005802 0.000000 
0.029759 0.208783 0.000000 
0.059328 0.171717 0.000000 
0.117890 0.194423 0.000000 
0.145749 0.150080 0.000000 
0.201664 0.163554 0.000000 
0.225992 0.111437 0.000000 
0.278030 0.117304 0.000000 
0.296791 0.057361 0.000000 
0.344206 0.057354 0.000000 
CELLS 175 350 
1 0 
1 1 
1 2 
1 3 
1 4 
1 5 
1 6 
1 7 
1 8 
1 9 
1 10 
1 11 
1 12 
1 13 
1 14 
1 15 
1 16 
1 17 
1 18 
1 19 
1 20 
1 21 
1 22 
1 23 
1 24 
1 25 
1 26 
1 27 
1 28 
1 29 
1 30 
1 31 
1 32 
1 33 
1 34 
1 35 
1 36 
1 37 
1 38 
1 39 
1 40 
1 41 
1 42 
1 43 
1 44 
1 45 
1 46 
1 47 
1 48 
1 49 
1 50 
1 51 
1 52 
1 53 
1 54 
1 55 
1 56 
1 57 
1 58 
1 59 
1 60 
1 61 
1 62 
1 63 
1 64 
1 65 
1 66 
1 67 
1 68 
1 69 
1 70 
1 71 
1 72 
1 73 
1 74 
1 75 
1 76 
1 77 
1 78 
1 79 
1 80 
1 81 
1 82 
1 83 
1 84 
1 85 
1 86 
1 87 
1 88 
1 89 
1 90 
1 91 
1 92 
1 93 
1 94 
1 95 
1 96 
1 97 
1 98 
1 99 
1 100 
1 101 
1 102 
1 103 
1 104 
1 105 
1 106 
1 107 
1 108 
1 109 
1 110 
1 111 
1 112 
1 113 
1 114 
1 115 
1 116 
1 117 
1 118 
1 119 
1 120 
1 121 
1 122 
1 123 
1 124 
1 125 
1 126 
1 127 
1 128 
1 129 
1 130 
1 131 
1 132 
1 133 
1 134 
1 135 
1 136 
1 137 
1 138 
1 139 
1 140 
1 141 
1 142 
1 143 
1 144 
1 145 
1 146 
1 147 
1 148 
1 149 
1 150 
1 151 
1 152 
1 153 
1 154 
1 155 
1 156 
1 157 
1 158 
1 159 
1 160 
1 161 
1 162 
1 163 
1 164 
1 165 
1 166 
1 167 
1 168 
1 169 
1 170 
1 171 
1 172 
1 173 
1 174 
CELL_TYPES 175 
1 
1 
1 
1 
1 
1 
1 
1 
1 
1 
1 
1 
1 
1 
1 
1 
1 
1 
1 
1 
1 
1 
1 
1 
1 
1 
1 
1 
1 
1 
1 
1 
1 
1 
1 
1 
1 
1 
1 
1 
1 
1 
1 
1 
1 
1 
1 
1 
1 
1 
1 
1 
1 
1 
1 
1 
1 
1 
1 
1 
1 
1 
1 
1 
1 
1 
1 
1 
1 
1 
1 
1 
1 
1 
1 
1 
1 
1 
1 
1 
1 
1 
1 
1 
1 
1 
1 
1 
1 
1 
1 
1 
1 
1 
1 
1 
1 
1 
1 
1 
1 
1 
1 
1 
1 
1 
1 
1 
1 
1 
1 
1 
1 
1 
1 
1 
1 
1 
1 
1 
1 
1 
1 
1 
1 
1 
1 
1 
1 
1 
1 
1 
1 
1 
1 
1 
1 
1 
1 
1 
1 
1 
1 
1 
1 
1 
1 
1 
1 
1 
1 
1 
1 
1 
1 
1 
1 
1 
1 
1 
1 
1 
1 
1 
1 
1 
1 
1 
1 
1 
1 
1 
1 
1 
1 
POINT_DATA 175 
VECTORS X_GC float 
-0.026061 -0.201089 0.000000 
-0.106992 -0.133033 0.000000 
-0.054870 -0.141266 0.000000 
-0.028809 -0.095382 0.000000 
-0.186430 -0.068958 0.000000 
-0.137056 -0.071484 0.000000 
-0.114311 -0.017837 0.000000 
-0.058186 -0.033502 0.000000 
-0.029377 0.006675 0.000000 
-0.265318 -0.005802 0.000000 
-0.217198 -0.006602 0.000000 
-0.196633 0.050695 0.000000 
-0.143120 0.041986 0.000000 
-0.116563 0.089254 0.000000 
-0.058945 0.069609 0.000000 
-0.029568 0.107729 0.000000 
-0.344206 0.057354 0.000000 
-0.296791 0.057361 0.000000 
-0.278030 0.117304 0.000000 
-0.225992 0.111437 0.000000 
-0.201664 0.163554 0.000000 
-0.145749 0.150080 0.000000 
-0.117890 0.194423 0.000000 
-0.059328 0.171717 0.000000 
-0.029759 0.208783 0.000000 
-0.058559 -0.241840 0.000000 
-0.162226 -0.262682 0.000000 
-0.123292 -0.227065 0.000000 
-0.142917 -0.178081 0.000000 
-0.261851 -0.284839 0.000000 
-0.229092 -0.247812 0.000000 
-0.256854 -0.196580 0.000000 
-0.209613 -0.162467 0.000000 
-0.223062 -0.114893 0.000000 
-0.360414 -0.307139 0.000000 
-0.329787 -0.270016 0.000000 
-0.361761 -0.218214 0.000000 
-0.321587 -0.181805 0.000000 
-0.341985 -0.131571 0.000000 
-0.290702 -0.098772 0.000000 
-0.302189 -0.052037 0.000000 
-0.458977 -0.329439 0.000000 
-0.429420 -0.292364 0.000000 
-0.464588 -0.240322 0.000000 
-0.427556 -0.203295 0.000000 
-0.453135 -0.151780 0.000000 
-0.407738 -0.116465 0.000000 
-0.425037 -0.067037 0.000000 
-0.370772 -0.035408 0.000000 
-0.381315 0.010820 0.000000 
-0.046960 -0.292655 0.000000 
-0.095301 -0.386701 0.000000 
-0.098873 -0.334054 0.000000 
-0.149405 -0.318856 0.000000 
-0.140093 -0.478405 0.000000 
-0.148617 -0.429707 0.000000 
-0.205981 -0.419469 0.000000 
-0.203197 -0.361266 0.000000 
-0.248777 -0.342119 0.000000 
-0.184111 -0.569368 0.000000 
-0.194039 -0.522277 0.000000 
-0.254475 -0.514978 0.000000 
-0.257893 -0.460868 0.000000 
-0.309886 -0.445496 0.000000 
-0.303554 -0.384950 0.000000 
-0.347255 -0.364792 0.000000 
-0.228129 -0.660332 0.000000 
-0.238687 -0.614108 0.000000 
-0.301302 -0.609156 0.000000 
-0.307162 -0.557117 0.000000 
-0.363386 -0.544996 0.000000 
-0.362692 -0.487484 0.000000 
-0.412122 -0.470191 0.000000 
-0.403017 -0.408045 0.000000 
-0.445733 -0.387466 0.000000 
-0.000000 -0.315270 0.000000 
0.043388 -0.411700 0.000000 
-0.000000 -0.381668 0.000000 
-0.043388 -0.411700 0.000000 
0.087158 -0.503897 0.000000 
0.043769 -0.480198 0.000000 
-0.000000 -0.518664 0.000000 
-0.043769 -0.480198 0.000000 
-0.087158 -0.503897 0.000000 
0.130831 -0.595027 0.000000 
0.087824 -0.573428 0.000000 
0.044436 -0.616128 0.000000 
-0.000000 -0.585063 0.000000 
-0.044436 -0.616128 0.000000 
-0.087824 -0.573428 0.000000 
-0.130831 -0.595027 0.000000 
0.174505 -0.686156 0.000000 
0.131782 -0.665590 0.000000 
0.088871 -0.711457 0.000000 
0.044532 -0.683593 0.000000 
-0.000000 -0.719993 0.000000 
-0.044532 -0.683593 0.000000 
-0.088871 -0.711457 0.000000 
-0.131782 -0.665590 0.000000 
-0.174505 -0.686156 0.000000 
0.046960 -0.292655 0.000000 
0.149405 -0.318856 0.000000 
0.098873 -0.334054 0.000000 
0.095301 -0.386701 0.000000 
0.248777 -0.342119 0.000000 
0.203197 -0.361266 0.000000 
0.205981 -0.419469 0.000000 
0.148617 -0.429707 0.000000 
0.140093 -0.478405 0.000000 
0.347255 -0.364792 0.000000 
0.303554 -0.384950 0.000000 
0.309886 -0.445496 0.000000 
0.257893 -0.460868 0.000000 
0.254475 -0.514978 0.000000 
0.194039 -0.522277 0.000000 
0.184111 -0.569368 0.000000 
0.445733 -0.387466 0.000000 
0.403017 -0.408045 0.000000 
0.412122 -0.470191 0.000000 
0.362692 -0.487484 0.000000 
0.363386 -0.544996 0.000000 
0.307162 -0.557117 0.000000 
0.301302 -0.609156 0.000000 
0.238687 -0.614108 0.000000 
0.228129 -0.660332 0.000000 
0.058559 -0.241840 0.000000 
0.142917 -0.178081 0.000000 
0.123292 -0.227065 0.000000 
0.162226 -0.262682 0.000000 
0.223062 -0.114893 0.000000 
0.209613 -0.162467 0.000000 
0.256854 -0.196580 0.000000 
0.229092 -0.247812 0.000000 
0.261851 -0.284839 0.000000 
0.302189 -0.052037 0.000000 
0.290702 -0.098772 0.000000 
0.341985 -0.131571 0.000000 
0.321587 -0.181805 0.000000 
0.361761 -0.218214 0.000000 
0.329787 -0.270016 0.000000 
0.360414 -0.307139 0.000000 
0.381315 0.010820 0.000000 
0.370772 -0.035408 0.000000 
0.425037 -0.067037 0.000000 
0.407738 -0.116465 0.000000 
0.453135 -0.151780 0.000000 
0.427556 -0.203295 0.000000 
0.464588 -0.240322 0.000000 
0.429420 -0.292364 0.000000 
0.458977 -0.329439 0.000000 
0.026061 -0.201089 0.000000 
0.028809 -0.095382 0.000000 
0.054870 -0.141266 0.000000 
0.106992 -0.133033 0.000000 
0.029377 0.006675 0.000000 
0.058186 -0.033502 0.000000 
0.114311 -0.017837 0.000000 
0.137056 -0.071484 0.000000 
0.186430 -0.068958 0.000000 
0.029568 0.107729 0.000000 
0.058945 0.069609 0.000000 
0.116563 0.089254 0.000000 
0.143120 0.041986 0.000000 
0.196633 0.050695 0.000000 
0.217198 -0.006602 0.000000 
0.265318 -0.005802 0.000000 
0.029759 0.208783 0.000000 
0.059328 0.171717 0.000000 
0.117890 0.194423 0.000000 
0.145749 0.150080 0.000000 
0.201664 0.163554 0.000000 
0.225992 0.111437 0.000000 
0.278030 0.117304 0.000000 
0.296791 0.057361 0.000000 
0.344206 0.057354 0.000000 
VECTORS X_EC float 
0.338794 -0.785300 0.000000 
-0.609100 0.295951 0.000000 
0.713312 0.407092 0.000000 
0.374519 -0.212338 0.000000 
0.423588 -0.569068 0.000000 
-0.218274 -0.534965 0.000000 
-0.513962 0.740797 0.000000 
0.756418 0.952283 0.000000 
0.381900 0.409890 0.000000 
-0.550868 0.578329 0.000000 
0.823577 0.589124 0.000000 
0.556234 -0.184380 0.000000 
-0.139443 -0.066811 0.000000 
-0.484677 -0.704936 0.000000 
0.766286 -0.439720 0.000000 
0.384386 -0.954341 0.000000 
0.474677 -0.274274 0.000000 
-0.141715 -0.274371 0.000000 
-0.385608 0.916401 0.000000 
0.937896 0.995597 0.000000 
0.621631 0.292016 0.000000 
-0.105264 0.473916 0.000000 
-0.467428 -0.124711 0.000000 
0.771260 0.181818 0.000000 
0.386873 -0.318572 0.000000 
0.761262 -0.235166 0.000000 
0.108942 0.046211 0.000000 
-0.397202 -0.434629 0.000000 
-0.142083 0.904096 0.000000 
-0.595936 0.345321 0.000000 
0.978194 -0.154545 0.000000 
-0.660903 -0.846170 0.000000 
0.724964 0.693310 0.000000 
0.899809 0.051062 0.000000 
0.685384 0.646374 0.000000 
0.287229 0.145215 0.000000 
0.702895 -0.554113 0.000000 
0.180633 0.954368 0.000000 
0.445811 0.276208 0.000000 
-0.220880 -0.166578 0.000000 
-0.071546 -0.797503 0.000000 
-0.033296 0.947426 0.000000 
-0.417537 0.446916 0.000000 
0.039645 -0.255646 0.000000 
-0.441768 -0.755517 0.000000 
-0.109248 0.549032 0.000000 
-0.699407 0.072276 0.000000 
-0.474522 -0.595003 0.000000 
0.820030 0.978004 0.000000 
0.957100 0.353932 0.000000 
0.610485 0.450840 0.000000 
-0.761092 -0.279540 0.000000 
-0.714655 -0.990278 0.000000 
-0.057734 0.804555 0.000000 
-0.178789 0.958464 0.000000 
-0.067979 0.301038 0.000000 
0.677748 0.162834 0.000000 
0.641556 -0.622911 0.000000 
-0.765897 -0.881389 0.000000 
0.393446 0.186473 0.000000 
0.522510 -0.449257 0.000000 
-0.691820 -0.547801 0.000000 
-0.647393 0.721716 0.000000 
0.028512 0.514190 0.000000 
-0.053800 -0.303171 0.000000 
0.514316 -0.575302 0.000000 
0.965681 -0.585518 0.000000 
-0.897068 0.790453 0.000000 
-0.083078 0.723600 0.000000 
-0.006893 0.021076 0.000000 
0.724017 -0.142557 0.000000 
0.714996 -0.918961 0.000000 
-0.642413 0.847582 0.000000 
-0.760780 0.008601 0.000000 
-0.205471 -0.269214 0.000000 
0.000000 0.756142 0.000000 
-0.564049 0.057955 0.000000 
0.000000 -0.347481 0.000000 
0.564049 0.057955 0.000000 
0.866949 -0.697390 0.000000 
-0.569003 0.982679 0.000000 
0.000000 -0.498033 0.000000 
0.569003 0.982679 0.000000 
-0.866949 -0.697390 0.000000 
0.299194 0.532860 0.000000 
0.858290 0.241276 0.000000 
-0.577662 0.817722 0.000000 
0.000000 0.398344 0.000000 
0.577662 0.817722 0.000000 
-0.858290 0.241276 0.000000 
-0.299194 0.532860 0.000000 
-0.268560 -0.236890 0.000000 
0.286830 -0.514531 0.000000 
0.844677 0.104667 0.000000 
-0.578910 -0.271496 0.000000 
0.000000 0.219908 0.000000 
0.578910 -0.271496 0.000000 
-0.844677 0.104667 0.000000 
-0.286830 -0.514531 0.000000 
0.268560 -0.236890 0.000000 
-0.610485 0.450840 0.000000 
0.057734 0.804555 0.000000 
0.714655 -0.990278 0.000000 
0.761092 -0.279540 0.000000 
0.765897 -0.881389 0.000000 
-0.641556 -0.622911 0.000000 
-0.677748 0.162834 0.000000 
0.067979 0.301038 0.000000 
0.178789 0.958464 0.000000 
-0.514316 -0.575302 0.000000 
0.053800 -0.303171 0.000000 
-0.028512 0.514190 0.000000 
0.647393 0.721716 0.000000 
0.691820 -0.547801 0.000000 
-0.522510 -0.449257 0.000000 
-0.393446 0.186473 0.000000 
0.205471 -0.269214 0.000000 
0.760780 0.008601 0.000000 
0.642413 0.847582 0.000000 
-0.714996 -0.918961 0.000000 
-0.724017 -0.142557 0.000000 
0.006894 0.021076 0.000000 
0.083078 0.723600 0.000000 
0.897068 0.790453 0.000000 
-0.965681 -0.585518 0.000000 
-0.761262 -0.235166 0.000000 
0.142083 0.904096 0.000000 
0.397202 -0.434629 0.000000 
-0.108942 0.046211 0.000000 
-0.899809 0.051062 0.000000 
-0.724964 0.693310 0.000000 
0.660903 -0.846170 0.000000 
-0.978194 -0.154544 0.000000 
0.595936 0.345321 0.000000 
0.071546 -0.797503 0.000000 
0.220880 -0.166578 0.000000 
-0.445811 0.276208 0.000000 
-0.180633 0.954368 0.000000 
-0.702895 -0.554113 0.000000 
-0.287229 0.145215 0.000000 
-0.685384 0.646374 0.000000 
-0.957100 0.353932 0.000000 
-0.820030 0.978004 0.000000 
0.474522 -0.595003 0.000000 
0.699407 0.072276 0.000000 
0.109248 0.549032 0.000000 
0.441768 -0.755517 0.000000 
-0.039645 -0.255646 0.000000 
0.417537 0.446916 0.000000 
0.033296 0.947426 0.000000 
-0.338794 -0.785300 0.000000 
-0.374519 -0.212338 0.000000 
-0.713312 0.407092 0.000000 
0.609100 0.295951 0.000000 
-0.381900 0.409890 0.000000 
-0.756418 0.952283 0.000000 
0.513962 0.740797 0.000000 
0.218274 -0.534965 0.000000 
-0.423588 -0.569068 0.000000 
-0.384386 -0.954341 0.000000 
-0.766286 -0.439720 0.000000 
0.484677 -0.704936 0.000000 
0.139443 -0.066811 0.000000 
-0.556234 -0.184380 0.000000 
-0.823577 0.589124 0.000000 
0.550868 0.578329 0.000000 
-0.386873 -0.318572 0.000000 
-0.771260 0.181818 0.000000 
0.467428 -0.124711 0.000000 
0.105264 0.473916 0.000000 
-0.621631 0.292016 0.000000 
-0.937896 0.995597 0.000000 
0.385608 0.916401 0.000000 
0.141715 -0.274371 0.000000 
-0.474677 -0.274274 0.000000 
CELL_DATA 175 
SCALARS MASS float 
LOOKUP_TABLE default 
0.781831 
0.864274 
0.946717 
0.864274 
0.881307 
0.921110 
0.858535 
0.921110 
0.881307 
0.887046 
0.910001 
0.869829 
0.915556 
0.869829 
0.910001 
0.887046 
0.892784 
0.915740 
0.892784 
0.927218 
0.892784 
0.927218 
0.892784 
0.915740 
0.892784 
0.781831 
0.864274 
0.946717 
0.864274 
0.881307 
0.921110 
0.858535 
0.921110 
0.881307 
0.887046 
0.910001 
0.869829 
0.915556 
0.869829 
0.910001 
0.887046 
0.892784 
0.915740 
0.892784 
0.927218 
0.892784 
0.927218 
0.892784 
0.915740 
0.892784 
0.781831 
0.864274 
0.946717 
0.864274 
0.881307 
0.921110 
0.858535 
0.921110 
0.881307 
0.887046 
0.910001 
0.869829 
0.915556 
0.869829 
0.910001 
0.887046 
0.892784 
0.915740 
0.892784 
0.927218 
0.892784 
0.927218 
0.892784 
0.915740 
0.892784 
0.781831 
0.864274 
0.946717 
0.864274 
0.881307 
0.921110 
0.858535 
0.921110 
0.881307 
0.887046 
0.910001 
0.869829 
0.915556 
0.869829 
0.910001 
0.887046 
0.892784 
0.915740 
0.892784 
0.927218 
0.892784 
0.927218 
0.892784 
0.915740 
0.892784 
0.781831 
0.864274 
0.946717 
0.864274 
0.881307 
0.921110 
0.858535 
0.921110 
0.881307 
0.887046 
0.910001 
0.869829 
0.915556 
0.869829 
0.910001 
0.887046 
0.892784 
0.915740 
0.892784 
0.927218 
0.892784 
0.927218 
0.892784 
0.915740 
0.892784 
0.781831 
0.864274 
0.946717 
0.864274 
0.881307 
0.921110 
0.858535 
0.921110 
0.881307 
0.887046 
0.910001 
0.869829 
0.915556 
0.869829 
0.910001 
0.887046 
0.892784 
0.915740 
0.892784 
0.927218 
0.892784 
0.927218 
0.892784 
0.915740 
0.892784 
0.781831 
0.864274 
0.946717 
0.864274 
0.881307 
0.921110 
0.858535 
0.921110 
0.881307 
0.887046 
0.910001 
0.869829 
0.915556 
0.869829 
0.910001 
0.887046 
0.892784 
0.915740 
0.892784 
0.927218 
0.892784 
0.927218 
0.892784 
0.915740 
0.892784 
SCALARS MASS float 
LOOKUP_TABLE default 
0.781831 
0.864274 
0.946717 
0.864274 
0.881307 
0.921110 
0.858535 
0.921110 
0.881307 
0.887046 
0.910001 
0.869829 
0.915556 
0.869829 
0.910001 
0.887046 
0.892784 
0.915740 
0.892784 
0.927218 
0.892784 
0.927218 
0.892784 
0.915740 
0.892784 
0.781831 
0.864274 
0.946717 
0.864274 
0.881307 
0.921110 
0.858535 
0.921110 
0.881307 
0.887046 
0.910001 
0.869829 
0.915556 
0.869829 
0.910001 
0.887046 
0.892784 
0.915740 
0.892784 
0.927218 
0.892784 
0.927218 
0.892784 
0.915740 
0.892784 
0.781831 
0.864274 
0.946717 
0.864274 
0.881307 
0.921110 
0.858535 
0.921110 
0.881307 
0.887046 
0.910001 
0.869829 
0.915556 
0.869829 
0.910001 
0.887046 
0.892784 
0.915740 
0.892784 
0.927218 
0.892784 
0.927218 
0.892784 
0.915740 
0.892784 
0.781831 
0.864274 
0.946717 
0.864274 
0.881307 
0.921110 
0.858535 
0.921110 
0.881307 
0.887046 
0.910001 
0.869829 
0.915556 
0.869829 
0.910001 
0.887046 
0.892784 
0.915740 
0.892784 
0.927218 
0.892784 
0.927218 
0.892784 
0.915740 
0.892784 
0.781831 
0.864274 
0.946717 
0.864274 
0.881307 
0.921110 
0.858535 
0.921110 
0.881307 
0.887046 
0.910001 
0.869829 
0.915556 
0.869829 
0.910001 
0.887046 
0.892784 
0.915740 
0.892784 
0.927218 
0.892784 
0.927218 
0.892784 
0.915740 
0.892784 
0.781831 
0.864274 
0.946717 
0.864274 
0.881307 
0.921110 
0.858535 
0.921110 
0.881307 
0.887046 
0.910001 
0.869829 
0.915556 
0.869829 
0.910001 
0.887046 
0.892784 
0.915740 
0.892784 
0.927218 
0.892784 
0.927218 
0.892784 
0.915740 
0.892784 
0.781831 
0.864274 
0.946717 
0.864274 
0.881307 
0.921110 
0.858535 
0.921110 
0.881307 
0.887046 
0.910001 
0.869829 
0.915556 
0.869829 
0.910001 
0.887046 
0.892784 
0.915740 
0.892784 
0.927218 
0.892784 
0.927218 
0.892784 
0.915740 
0.892784 
SCALARS DENSITY float 
LOOKUP_TABLE default 
200.000000 
200.000000 
200.000000 
200.000000 
200.000000 
200.000000 
200.000000 
200.000000 
200.000000 
200.000000 
200.000000 
200.000000 
200.000000 
200.000000 
200.000000 
200.000000 
200.000000 
200.000000 
200.000000 
200.000000 
200.000000 
200.000000 
200.000000 
200.000000 
200.000000 
200.000000 
200.000000 
200.000000 
200.000000 
200.000000 
200.000000 
200.000000 
200.000000 
200.000000 
200.000000 
200.000000 
200.000000 
200.000000 
200.000000 
200.000000 
200.000000 
200.000000 
200.000000 
200.000000 
200.000000 
200.000000 
200.000000 
200.000000 
200.000000 
200.000000 
200.000000 
200.000000 
200.000000 
200.000000 
200.000000 
200.000000 
200.000000 
200.000000 
200.000000 
200.000000 
200.000000 
200.000000 
200.000000 
200.000000 
200.000000 
200.000000 
200.000000 
200.000000 
200.000000 
200.000000 
200.000000 
200.000000 
200.000000 
200.000000 
200.000000 
200.000000 
200.000000 
200.000000 
200.000000 
200.000000 
200.000000 
200.000000 
200.000000 
200.000000 
200.000000 
200.000000 
200.000000 
200.000000 
200.000000 
200.000000 
200.000000 
200.000000 
200.000000 
200.000000 
200.000000 
200.000000 
200.000000 
200.000000 
200.000000 
200.000000 
200.000000 
200.000000 
200.000000 
200.000000 
200.000000 
200.000000 
200.000000 
200.000000 
200.000000 
200.000000 
200.000000 
200.000000 
200.000000 
200.000000 
200.000000 
200.000000 
200.000000 
200.000000 
200.000000 
200.000000 
200.000000 
200.000000 
200.000000 
200.000000 
200.000000 
200.000000 
200.000000 
200.000000 
200.000000 
200.000000 
200.000000 
200.000000 
200.000000 
200.000000 
200.000000 
200.000000 
200.000000 
200.000000 
200.000000 
200.000000 
200.000000 
200.000000 
200.000000 
200.000000 
200.000000 
200.000000 
200.000000 
200.000000 
200.000000 
200.000000 
200.000000 
200.000000 
200.000000 
200.000000 
200.000000 
200.000000 
200.000000 
200.000000 
200.000000 
200.000000 
200.000000 
200.000000 
200.000000 
200.000000 
200.000000 
200.000000 
200.000000 
200.000000 
200.000000 
200.000000 
200.000000 
200.000000 
200.000000 
200.000000 
200.000000 
SCALARS ELEM_i float 
LOOKUP_TABLE default 
180 
208 
181 
181 
208 
208 
209 
182 
182 
236 
209 
209 
209 
209 
182 
182 
236 
236 
237 
210 
210 
210 
210 
183 
183 
180 
207 
207 
208 
234 
207 
234 
208 
208 
234 
234 
234 
235 
235 
235 
235 
261 
261 
261 
261 
262 
262 
262 
236 
236 
180 
206 
206 
207 
206 
206 
206 
206 
233 
205 
205 
232 
233 
233 
233 
233 
204 
232 
232 
232 
232 
232 
260 
260 
260 
180 
179 
179 
179 
151 
179 
178 
179 
205 
151 
151 
178 
178 
178 
205 
205 
150 
150 
150 
177 
177 
177 
204 
204 
204 
180 
153 
152 
152 
125 
152 
152 
152 
152 
125 
125 
125 
125 
124 
151 
151 
98 
98 
98 
124 
124 
124 
124 
124 
150 
180 
154 
153 
153 
154 
154 
126 
153 
126 
127 
127 
127 
127 
126 
126 
126 
128 
128 
100 
100 
100 
99 
99 
99 
99 
180 
181 
181 
154 
182 
182 
155 
154 
154 
182 
182 
155 
155 
155 
155 
128 
183 
183 
156 
156 
156 
156 
129 
128 
128 
VECTORS VELOCITY float 
-0.000000 -2.236680 0.000000 
0.000000 -2.236680 0.000000 
0.000000 -2.236680 0.000000 
0.000000 -2.236680 0.000000 
0.000000 -2.236680 0.000000 
0.000000 -2.236680 0.000000 
0.000000 -2.236680 0.000000 
0.000000 -2.236680 0.000000 
0.000000 -2.236680 0.000000 
-0.000000 -2.236680 0.000000 
0.000000 -2.236680 0.000000 
0.000000 -2.236680 0.000000 
0.000000 -2.236680 0.000000 
0.000000 -2.236680 0.000000 
0.000000 -2.236680 0.000000 
0.000000 -2.236680 0.000000 
-0.000000 -2.236680 0.000000 
0.000000 -2.236680 0.000000 
0.000000 -2.236680 0.000000 
0.000000 -2.236680 0.000000 
0.000000 -2.236680 0.000000 
0.000000 -2.236680 0.000000 
0.000000 -2.236680 0.000000 
0.000000 -2.236680 0.000000 
0.000000 -2.236680 0.000000 
-0.000000 -2.236680 0.000000 
-0.000000 -2.236680 0.000000 
-0.000000 -2.236680 0.000000 
-0.000000 -2.236680 0.000000 
0.000000 -2.236680 0.000000 
-0.000000 -2.236680 0.000000 
0.000000 -2.236680 0.000000 
0.000000 -2.236680 0.000000 
0.000000 -2.236680 0.000000 
0.000000 -2.236680 0.000000 
0.000000 -2.236680 0.000000 
0.000000 -2.236680 0.000000 
0.000000 -2.236680 0.000000 
0.000000 -2.236680 0.000000 
0.000000 -2.236680 0.000000 
-0.000000 -2.236680 0.000000 
0.000000 -2.236680 0.000000 
0.000000 -2.236680 0.000000 
-0.000000 -2.236680 0.000000 
0.000000 -2.236680 0.000000 
0.000000 -2.236680 0.000000 
0.000000 -2.236680 0.000000 
-0.000000 -2.236680 0.000000 
-0.000000 -2.236680 0.000000 
-0.000000 -2.236680 0.000000 
-0.000000 -2.236680 0.000000 
-0.000000 -2.236680 0.000000 
-0.000000 -2.236680 0.000000 
-0.000000 -2.236680 0.000000 
-0.000000 -2.236680 0.000000 
-0.000000 -2.236680 0.000000 
-0.000000 -2.236680 0.000000 
0.000000 -2.236680 0.000000 
0.000000 -2.236680 0.000000 
-0.000000 -2.236680 0.000000 
-0.000000 -2.236680 0.000000 
-0.000000 -2.236680 0.000000 
-0.000000 -2.236680 0.000000 
-0.000000 -2.236680 0.000000 
0.000000 -2.236680 0.000000 
-0.000000 -2.236680 0.000000 
-0.000000 -2.236680 0.000000 
-0.000000 -2.236680 0.000000 
-0.000000 -2.236680 0.000000 
-0.000000 -2.236680 0.000000 
-0.000000 -2.236680 0.000000 
-0.000000 -2.236680 0.000000 
-0.000000 -2.236680 0.000000 
0.000000 -2.236680 0.000000 
0.000000 -2.236680 0.000000 
-0.000000 -2.236680 0.000000 
-0.000000 -2.236680 0.000000 
-0.000000 -2.236680 0.000000 
-0.000000 -2.236680 0.000000 
0.000000 -2.236680 0.000000 
0.000000 -2.236680 0.000000 
0.000000 -2.236680 0.000000 
-0.000000 -2.236680 0.000000 
-0.000000 -2.236680 0.000000 
-0.000000 -2.236680 0.000000 
-0.000000 -2.236680 0.000000 
-0.000000 -2.236680 0.000000 
-0.000000 -2.236680 0.000000 
-0.000000 -2.236680 0.000000 
-0.000000 -2.236680 0.000000 
-0.000000 -2.236680 0.000000 
-0.000000 -2.236680 0.000000 
-0.000000 -2.236680 0.000000 
-0.000000 -2.236680 0.000000 
-0.000000 -2.236680 0.000000 
0.000000 -2.236680 0.000000 
0.000000 -2.236680 0.000000 
-0.000000 -2.236680 0.000000 
-0.000000 -2.236680 0.000000 
-0.000000 -2.236680 0.000000 
-0.000000 -2.236680 0.000000 
0.000000 -2.236680 0.000000 
-0.000000 -2.236680 0.000000 
-0.000000 -2.236680 0.000000 
0.000000 -2.236680 0.000000 
0.000000 -2.236680 0.000000 
-0.000000 -2.236680 0.000000 
-0.000000 -2.236680 0.000000 
-0.000000 -2.236680 0.000000 
-0.000000 -2.236680 0.000000 
-0.000000 -2.236680 0.000000 
-0.000000 -2.236680 0.000000 
-0.000000 -2.236680 0.000000 
-0.000000 -2.236680 0.000000 
-0.000000 -2.236680 0.000000 
-0.000000 -2.236680 0.000000 
0.000000 -2.236680 0.000000 
-0.000000 -2.236680 0.000000 
-0.000000 -2.236680 0.000000 
-0.000000 -2.236680 0.000000 
0.000000 -2.236680 0.000000 
0.000000 -2.236680 0.000000 
0.000000 -2.236680 0.000000 
-0.000000 -2.236680 0.000000 
-0.000000 -2.236680 0.000000 
-0.000000 -2.236680 0.000000 
0.000000 -2.236680 0.000000 
0.000000 -2.236680 0.000000 
0.000000 -2.236680 0.000000 
0.000000 -2.236680 0.000000 
0.000000 -2.236680 0.000000 
0.000000 -2.236680 0.000000 
0.000000 -2.236680 0.000000 
0.000000 -2.236680 0.000000 
-0.000000 -2.236680 0.000000 
0.000000 -2.236680 0.000000 
0.000000 -2.236680 0.000000 
0.000000 -2.236680 0.000000 
-0.000000 -2.236680 0.000000 
-0.000000 -2.236680 0.000000 
-0.000000 -2.236680 0.000000 
-0.000000 -2.236680 0.000000 
-0.000000 -2.236680 0.000000 
-0.000000 -2.236680 0.000000 
-0.000000 -2.236680 0.000000 
0.000000 -2.236680 0.000000 
-0.000000 -2.236680 0.000000 
0.000000 -2.236680 0.000000 
-0.000000 -2.236680 0.000000 
0.000000 -2.236680 0.000000 
0.000000 -2.236680 0.000000 
0.000000 -2.236680 0.000000 
0.000000 -2.236680 0.000000 
0.000000 -2.236680 0.000000 
0.000000 -2.236680 0.000000 
0.000000 -2.236680 0.000000 
0.000000 -2.236680 0.000000 
0.000000 -2.236680 0.000000 
0.000000 -2.236680 0.000000 
-0.000000 -2.236680 0.000000 
0.000000 -2.236680 0.000000 
0.000000 -2.236680 0.000000 
0.000000 -2.236680 0.000000 
0.000000 -2.236680 0.000000 
0.000000 -2.236680 0.000000 
0.000000 -2.236680 0.000000 
0.000000 -2.236680 0.000000 
0.000000 -2.236680 0.000000 
-0.000000 -2.236680 0.000000 
0.000000 -2.236680 0.000000 
0.000000 -2.236680 0.000000 
0.000000 -2.236680 0.000000 
-0.000000 -2.236680 0.000000 
0.000000 -2.236680 0.000000 
0.000000 -2.236680 0.000000 
TENSORS STRESS float 
-0.000000 -0.000000 0.000000 
0.000000 -0.000000 0.000000 
0.000000 0.000000 0.000000 

0.000000 -0.000000 0.000000 
0.000000 0.000000 0.000000 
0.000000 0.000000 0.000000 

0.000000 0.000000 0.000000 
0.000000 -0.000000 0.000000 
0.000000 0.000000 0.000000 

0.000000 -0.000000 0.000000 
0.000000 0.000000 0.000000 
0.000000 0.000000 0.000000 

0.000000 -0.000000 0.000000 
0.000000 0.000000 0.000000 
0.000000 0.000000 0.000000 

-0.000000 0.000000 0.000000 
0.000000 -0.000000 0.000000 
0.000000 0.000000 0.000000 

0.000000 0.000000 0.000000 
0.000000 0.000000 0.000000 
0.000000 0.000000 0.000000 

0.000000 0.000000 0.000000 
0.000000 0.000000 0.000000 
0.000000 0.000000 0.000000 

0.000000 -0.000000 0.000000 
0.000000 0.000000 0.000000 
0.000000 0.000000 0.000000 

0.000000 -0.000000 0.000000 
0.000000 0.000000 0.000000 
0.000000 0.000000 0.000000 

0.000000 -0.000000 0.000000 
0.000000 0.000000 0.000000 
0.000000 0.000000 0.000000 

-0.000000 0.000000 0.000000 
0.000000 -0.000000 0.000000 
0.000000 0.000000 0.000000 

0.000000 0.000000 0.000000 
0.000000 0.000000 0.000000 
0.000000 0.000000 0.000000 

-0.000000 0.000000 0.000000 
0.000000 -0.000000 0.000000 
0.000000 0.000000 0.000000 

0.000000 0.000000 0.000000 
0.000000 0.000000 0.000000 
0.000000 0.000000 0.000000 

-0.000000 0.000000 0.000000 
0.000000 -0.000000 0.000000 
0.000000 0.000000 0.000000 

-0.000000 -0.000000 0.000000 
0.000000 -0.000000 0.000000 
0.000000 0.000000 0.000000 

0.000000 -0.000000 0.000000 
0.000000 0.000000 0.000000 
0.000000 0.000000 0.000000 

0.000000 -0.000000 0.000000 
0.000000 0.000000 0.000000 
0.000000 0.000000 0.000000 

0.000000 -0.000000 0.000000 
0.000000 0.000000 0.000000 
0.000000 0.000000 0.000000 

0.000000 -0.000000 0.000000 
0.000000 0.000000 0.000000 
0.000000 0.000000 0.000000 

-0.000000 0.000000 0.000000 
0.000000 -0.000000 0.000000 
0.000000 0.000000 0.000000 

0.000000 -0.000000 0.000000 
0.000000 0.000000 0.000000 
0.000000 0.000000 0.000000 

-0.000000 0.000000 0.000000 
0.000000 -0.000000 0.000000 
0.000000 0.000000 0.000000 

-0.000000 0.000000 0.000000 
0.000000 -0.000000 0.000000 
0.000000 0.000000 0.000000 

-0.000000 0.000000 0.000000 
0.000000 -0.000000 0.000000 
0.000000 0.000000 0.000000 

-0.000000 -0.000000 0.000000 
0.000000 -0.000000 0.000000 
0.000000 0.000000 0.000000 

0.000000 -0.000000 0.000000 
0.000000 0.000000 0.000000 
0.000000 0.000000 0.000000 

0.000000 -0.000000 0.000000 
0.000000 0.000000 0.000000 
0.000000 0.000000 0.000000 

-0.000000 -0.000000 0.000000 
0.000000 -0.000000 0.000000 
0.000000 0.000000 0.000000 

-0.000000 -0.000000 0.000000 
0.000000 -0.000000 0.000000 
0.000000 0.000000 0.000000 

0.000000 -0.000000 0.000000 
0.000000 0.000000 0.000000 
0.000000 0.000000 0.000000 

0.000000 -0.000000 0.000000 
0.000000 0.000000 0.000000 
0.000000 0.000000 0.000000 

0.000000 -0.000000 0.000000 
0.000000 0.000000 0.000000 
0.000000 0.000000 0.000000 

-0.000000 -0.000000 0.000000 
0.000000 -0.000000 0.000000 
0.000000 0.000000 0.000000 

-0.000000 -0.000000 0.000000 
0.000000 -0.000000 0.000000 
0.000000 0.000000 0.000000 

0.000000 -0.000000 0.000000 
0.000000 0.000000 0.000000 
0.000000 0.000000 0.000000 

-0.000000 -0.000000 0.000000 
0.000000 -0.000000 0.000000 
0.000000 0.000000 0.000000 

-0.000000 -0.000000 0.000000 
0.000000 -0.000000 0.000000 
0.000000 0.000000 0.000000 

-0.000000 -0.000000 0.000000 
0.000000 -0.000000 0.000000 
0.000000 0.000000 0.000000 

0.000000 -0.000000 0.000000 
0.000000 0.000000 0.000000 
0.000000 0.000000 0.000000 

-0.000000 -0.000000 0.000000 
0.000000 -0.000000 0.000000 
0.000000 0.000000 0.000000 

0.000000 -0.000000 0.000000 
0.000000 0.000000 0.000000 
0.000000 0.000000 0.000000 

0.000000 -0.000000 0.000000 
0.000000 0.000000 0.000000 
0.000000 0.000000 0.000000 

0.000000 -0.000000 0.000000 
0.000000 0.000000 0.000000 
0.000000 0.000000 0.000000 

0.000000 -0.000000 0.000000 
0.000000 0.000000 0.000000 
0.000000 0.000000 0.000000 

0.000000 -0.000000 0.000000 
0.000000 0.000000 0.000000 
0.000000 0.000000 0.000000 

-0.000000 0.000000 0.000000 
0.000000 -0.000000 0.000000 
0.000000 0.000000 0.000000 

0.000000 -0.000000 0.000000 
0.000000 0.000000 0.000000 
0.000000 0.000000 0.000000 

-0.000000 -0.000000 0.000000 
0.000000 -0.000000 0.000000 
0.000000 0.000000 0.000000 

0.000000 0.000000 0.000000 
0.000000 0.000000 0.000000 
0.000000 0.000000 0.000000 

-0.000000 -0.000000 0.000000 
0.000000 -0.000000 0.000000 
0.000000 0.000000 0.000000 

0.000000 -0.000000 0.000000 
0.000000 0.000000 0.000000 
0.000000 0.000000 0.000000 

-0.000000 -0.000000 0.000000 
0.000000 -0.000000 0.000000 
0.000000 0.000000 0.000000 

0.000000 0.000000 0.000000 
0.000000 0.000000 0.000000 
0.000000 0.000000 0.000000 

0.000000 0.000000 0.000000 
0.000000 0.000000 0.000000 
0.000000 0.000000 0.000000 

0.000000 0.000000 0.000000 
0.000000 0.000000 0.000000 
0.000000 0.000000 0.000000 

-0.000000 -0.000000 0.000000 
0.000000 -0.000000 0.000000 
0.000000 0.000000 0.000000 

-0.000000 -0.000000 0.000000 
0.000000 -0.000000 0.000000 
0.000000 0.000000 0.000000 

-0.000000 0.000000 0.000000 
0.000000 -0.000000 0.000000 
0.000000 0.000000 0.000000 

-0.000000 -0.000000 0.000000 
0.000000 -0.000000 0.000000 
0.000000 0.000000 0.000000 

0.000000 -0.000000 0.000000 
0.000000 0.000000 0.000000 
0.000000 0.000000 0.000000 

-0.000000 0.000000 0.000000 
0.000000 -0.000000 0.000000 
0.000000 0.000000 0.000000 

0.000000 0.000000 0.000000 
0.000000 0.000000 0.000000 
0.000000 0.000000 0.000000 

0.000000 -0.000000 0.000000 
0.000000 0.000000 0.000000 
0.000000 0.000000 0.000000 

-0.000000 -0.000000 0.000000 
0.000000 -0.000000 0.000000 
0.000000 0.000000 0.000000 

0.000000 0.000000 0.000000 
0.000000 0.000000 0.000000 
0.000000 0.000000 0.000000 

-0.000000 -0.000000 0.000000 
0.000000 -0.000000 0.000000 
0.000000 0.000000 0.000000 

-0.000000 -0.000000 0.000000 
0.000000 -0.000000 0.000000 
0.000000 0.000000 0.000000 

0.000000 -0.000000 0.000000 
0.000000 0.000000 0.000000 
0.000000 0.000000 0.000000 

0.000000 0.000000 0.000000 
0.000000 0.000000 0.000000 
0.000000 0.000000 0.000000 

-0.000000 -0.000000 0.000000 
0.000000 -0.000000 0.000000 
0.000000 0.000000 0.000000 

0.000000 -0.000000 0.000000 
0.000000 0.000000 0.000000 
0.000000 0.000000 0.000000 

0.000000 0.000000 0.000000 
0.000000 0.000000 0.000000 
0.000000 0.000000 0.000000 

0.000000 -0.000000 0.000000 
0.000000 0.000000 0.000000 
0.000000 0.000000 0.000000 

-0.000000 0.000000 0.000000 
0.000000 -0.000000 0.000000 
0.000000 0.000000 0.000000 

0.000000 0.000000 0.000000 
0.000000 0.000000 0.000000 
0.000000 0.000000 0.000000 

-0.000000 -0.000000 0.000000 
0.000000 -0.000000 0.000000 
0.000000 0.000000 0.000000 

0.000000 0.000000 0.000000 
0.000000 0.000000 0.000000 
0.000000 0.000000 0.000000 

-0.000000 0.000000 0.000000 
0.000000 -0.000000 0.000000 
0.000000 0.000000 0.000000 

-0.000000 0.000000 0.000000 
0.000000 -0.000000 0.000000 
0.000000 0.000000 0.000000 

0.000000 0.000000 0.000000 
0.000000 0.000000 0.000000 
0.000000 0.000000 0.000000 

-0.000000 0.000000 0.000000 
0.000000 -0.000000 0.000000 
0.000000 0.000000 0.000000 

-0.000000 0.000000 0.000000 
0.000000 -0.000000 0.000000 
0.000000 0.000000 0.000000 

-0.000000 0.000000 0.000000 
0.000000 -0.000000 0.000000 
0.000000 0.000000 0.000000 

0.000000 0.000000 0.000000 
0.000000 0.000000 0.000000 
0.000000 0.000000 0.000000 

-0.000000 0.000000 0.000000 
0.000000 -0.000000 0.000000 
0.000000 0.000000 0.000000 

-0.000000 0.000000 0.000000 
0.000000 -0.000000 0.000000 
0.000000 0.000000 0.000000 

-0.000000 0.000000 0.000000 
0.000000 -0.000000 0.000000 
0.000000 0.000000 0.000000 

0.000000 0.000000 0.000000 
0.000000 0.000000 0.000000 
0.000000 0.000000 0.000000 

0.000000 0.000000 0.000000 
0.000000 0.000000 0.000000 
0.000000 0.000000 0.000000 

0.000000 0.000000 0.000000 
0.000000 0.000000 0.000000 
0.000000 0.000000 0.000000 

-0.000000 0.000000 0.000000 
0.000000 -0.000000 0.000000 
0.000000 0.000000 0.000000 

0.000000 -0.000000 0.000000 
0.000000 0.000000 0.000000 
0.000000 0.000000 0.000000 

-0.000000 0.000000 0.000000 
0.000000 0.000000 0.000000 
0.000000 0.000000 0.000000 

0.000000 0.000000 0.000000 
0.000000 0.000000 0.000000 
0.000000 0.000000 0.000000 

-0.000000 0.000000 0.000000 
0.000000 -0.000000 0.000000 
0.000000 0.000000 0.000000 

0.000000 -0.000000 0.000000 
0.000000 0.000000 0.000000 
0.000000 0.000000 0.000000 

0.000000 -0.000000 0.000000 
0.000000 0.000000 0.000000 
0.000000 0.000000 0.000000 

-0.000000 0.000000 0.000000 
0.000000 -0.000000 0.000000 
0.000000 0.000000 0.000000 

0.000000 0.000000 0.000000 
0.000000 0.000000 0.000000 
0.000000 0.000000 0.000000 

0.000000 0.000000 0.000000 
0.000000 0.000000 0.000000 
0.000000 0.000000 0.000000 

-0.000000 0.000000 0.000000 
0.000000 -0.000000 0.000000 
0.000000 0.000000 0.000000 

0.000000 -0.000000 0.000000 
0.000000 0.000000 0.000000 
0.000000 0.000000 0.000000 

-0.000000 -0.000000 0.000000 
0.000000 -0.000000 0.000000 
0.000000 0.000000 0.000000 

0.000000 0.000000 0.000000 
0.000000 0.000000 0.000000 
0.000000 0.000000 0.000000 

-0.000000 0.000000 0.000000 
0.000000 -0.000000 0.000000 
0.000000 0.000000 0.000000 

-0.000000 -0.000000 0.000000 
0.000000 -0.000000 0.000000 
0.000000 0.000000 0.000000 

-0.000000 -0.000000 0.000000 
0.000000 -0.000000 0.000000 
0.000000 0.000000 0.000000 

-0.000000 0.000000 0.000000 
0.000000 -0.000000 0.000000 
0.000000 0.000000 0.000000 

0.000000 0.000000 0.000000 
0.000000 0.000000 0.000000 
0.000000 0.000000 0.000000 

0.000000 0.000000 0.000000 
0.000000 0.000000 0.000000 
0.000000 0.000000 0.000000 

0.000000 0.000000 0.000000 
0.000000 0.000000 0.000000 
0.000000 0.000000 0.000000 

-0.000000 -0.000000 0.000000 
0.000000 -0.000000 0.000000 
0.000000 0.000000 0.000000 

0.000000 -0.000000 0.000000 
0.000000 0.000000 0.000000 
0.000000 0.000000 0.000000 

0.000000 0.000000 0.000000 
0.000000 0.000000 0.000000 
0.000000 0.000000 0.000000 

-0.000000 -0.000000 0.000000 
0.000000 -0.000000 0.000000 
0.000000 0.000000 0.000000 

-0.000000 -0.000000 0.000000 
0.000000 -0.000000 0.000000 
0.000000 0.000000 0.000000 

-0.000000 -0.000000 0.000000 
0.000000 -0.000000 0.000000 
0.000000 0.000000 0.000000 

0.000000 -0.000000 0.000000 
0.000000 0.000000 0.000000 
0.000000 0.000000 0.000000 

-0.000000 0.000000 0.000000 
0.000000 -0.000000 0.000000 
0.000000 0.000000 0.000000 

0.000000 0.000000 0.000000 
0.000000 0.000000 0.000000 
0.000000 0.000000 0.000000 

0.000000 -0.000000 0.000000 
0.000000 0.000000 0.000000 
0.000000 0.000000 0.000000 

0.000000 -0.000000 0.000000 
0.000000 0.000000 0.000000 
0.000000 0.000000 0.000000 

-0.000000 0.000000 0.000000 
0.000000 -0.000000 0.000000 
0.000000 0.000000 0.000000 

-0.000000 0.000000 0.000000 
0.000000 -0.000000 0.000000 
0.000000 0.000000 0.000000 

0.000000 -0.000000 0.000000 
0.000000 0.000000 0.000000 
0.000000 0.000000 0.000000 

0.000000 0.000000 0.000000 
0.000000 0.000000 0.000000 
0.000000 0.000000 0.000000 

0.000000 0.000000 0.000000 
0.000000 0.000000 0.000000 
0.000000 0.000000 0.000000 

0.000000 0.000000 0.000000 
0.000000 0.000000 0.000000 
0.000000 0.000000 0.000000 

0.000000 -0.000000 0.000000 
0.000000 0.000000 0.000000 
0.000000 0.000000 0.000000 

0.000000 -0.000000 0.000000 
0.000000 0.000000 0.000000 
0.000000 0.000000 0.000000 

0.000000 0.000000 0.000000 
0.000000 0.000000 0.000000 
0.000000 0.000000 0.000000 

0.000000 -0.000000 0.000000 
0.000000 0.000000 0.000000 
0.000000 0.000000 0.000000 

-0.000000 -0.000000 0.000000 
0.000000 -0.000000 0.000000 
0.000000 0.000000 0.000000 

-0.000000 -0.000000 0.000000 
0.000000 -0.000000 0.000000 
0.000000 0.000000 0.000000 

-0.000000 -0.000000 0.000000 
0.000000 -0.000000 0.000000 
0.000000 0.000000 0.000000 

0.000000 -0.000000 0.000000 
0.000000 0.000000 0.000000 
0.000000 0.000000 0.000000 

0.000000 -0.000000 0.000000 
0.000000 0.000000 0.000000 
0.000000 0.000000 0.000000 

0.000000 -0.000000 0.000000 
0.000000 0.000000 0.000000 
0.000000 0.000000 0.000000 

0.000000 -0.000000 0.000000 
0.000000 0.000000 0.000000 
0.000000 0.000000 0.000000 

0.000000 -0.000000 0.000000 
0.000000 0.000000 0.000000 
0.000000 0.000000 0.000000 

0.000000 0.000000 0.000000 
0.000000 0.000000 0.000000 
0.000000 0.000000 0.000000 

0.000000 0.000000 0.000000 
0.000000 0.000000 0.000000 
0.000000 0.000000 0.000000 

-0.000000 0.000000 0.000000 
0.000000 -0.000000 0.000000 
0.000000 0.000000 0.000000 

0.000000 0.000000 0.000000 
0.000000 0.000000 0.000000 
0.000000 0.000000 0.000000 

0.000000 -0.000000 0.000000 
0.000000 0.000000 0.000000 
0.000000 0.000000 0.000000 

-0.000000 -0.000000 0.000000 
0.000000 -0.000000 0.000000 
0.000000 0.000000 0.000000 

0.000000 -0.000000 0.000000 
0.000000 0.000000 0.000000 
0.000000 0.000000 0.000000 

0.000000 -0.000000 0.000000 
0.000000 0.000000 0.000000 
0.000000 0.000000 0.000000 

-0.000000 0.000000 0.000000 
0.000000 -0.000000 0.000000 
0.000000 0.000000 0.000000 

0.000000 -0.000000 0.000000 
0.000000 0.000000 0.000000 
0.000000 0.000000 0.000000 

0.000000 0.000000 0.000000 
0.000000 0.000000 0.000000 
0.000000 0.000000 0.000000 

0.000000 -0.000000 0.000000 
0.000000 0.000000 0.000000 
0.000000 0.000000 0.000000 

0.000000 -0.000000 0.000000 
0.000000 0.000000 0.000000 
0.000000 0.000000 0.000000 

0.000000 0.000000 0.000000 
0.000000 0.000000 0.000000 
0.000000 0.000000 0.000000 

-0.000000 0.000000 0.000000 
0.000000 -0.000000 0.000000 
0.000000 0.000000 0.000000 

0.000000 -0.000000 0.000000 
0.000000 0.000000 0.000000 
0.000000 0.000000 0.000000 

0.000000 0.000000 0.000000 
0.000000 0.000000 0.000000 
0.000000 0.000000 0.000000 

0.000000 0.000000 0.000000 
0.000000 0.000000 0.000000 
0.000000 0.000000 0.000000 

-0.000000 0.000000 0.000000 
0.000000 -0.000000 0.000000 
0.000000 0.000000 0.000000 

0.000000 0.000000 0.000000 
0.000000 0.000000 0.000000 
0.000000 0.000000 0.000000 

-0.000000 0.000000 0.000000 
0.000000 -0.000000 0.000000 
0.000000 0.000000 0.000000 

0.000000 0.000000 0.000000 
0.000000 0.000000 0.000000 
0.000000 0.000000 0.000000 

0.000000 -0.000000 0.000000 
0.000000 0.000000 0.000000 
0.000000 0.000000 0.000000 

0.000000 -0.000000 0.000000 
0.000000 0.000000 0.000000 
0.000000 0.000000 0.000000 

-0.000000 0.000000 0.000000 
0.000000 -0.000000 0.000000 
0.000000 0.000000 0.000000 

-0.000000 0.000000 0.000000 
0.000000 -0.000000 0.000000 
0.000000 0.000000 0.000000 

0.000000 -0.000000 0.000000 
0.000000 0.000000 0.000000 
0.000000 0.000000 0.000000 

0.000000 0.000000 0.000000 
0.000000 0.000000 0.000000 
0.000000 0.000000 0.000000 

-0.000000 -0.000000 0.000000 
0.000000 -0.000000 0.000000 
0.000000 0.000000 0.000000 

-0.000000 0.000000 0.000000 
0.000000 -0.000000 0.000000 
0.000000 0.000000 0.000000 

0.000000 -0.000000 0.000000 
0.000000 0.000000 0.000000 
0.000000 0.000000 0.000000 

0.000000 0.000000 0.000000 
0.000000 0.000000 0.000000 
0.000000 0.000000 0.000000 

0.000000 0.000000 0.000000 
0.000000 0.000000 0.000000 
0.000000 0.000000 0.000000 

TENSORS STRAIN float 
0.000000 -0.000000 0.000000 
0.000000 -0.000000 0.000000 
0.000000 0.000000 0.000000 

-0.000000 -0.000000 0.000000 
0.000000 0.000000 0.000000 
0.000000 0.000000 0.000000 

0.000000 0.000000 0.000000 
0.000000 -0.000000 0.000000 
0.000000 0.000000 0.000000 

0.000000 -0.000000 0.000000 
0.000000 0.000000 0.000000 
0.000000 0.000000 0.000000 

-0.000000 -0.000000 0.000000 
0.000000 0.000000 0.000000 
0.000000 0.000000 0.000000 

-0.000000 0.000000 0.000000 
0.000000 -0.000000 0.000000 
0.000000 0.000000 0.000000 

-0.000000 0.000000 0.000000 
0.000000 0.000000 0.000000 
0.000000 0.000000 0.000000 

0.000000 0.000000 0.000000 
0.000000 0.000000 0.000000 
0.000000 0.000000 0.000000 

0.000000 -0.000000 0.000000 
0.000000 -0.000000 0.000000 
0.000000 0.000000 0.000000 

-0.000000 -0.000000 0.000000 
0.000000 0.000000 0.000000 
0.000000 0.000000 0.000000 

-0.000000 -0.000000 0.000000 
0.000000 0.000000 0.000000 
0.000000 0.000000 0.000000 

-0.000000 0.000000 0.000000 
0.000000 0.000000 0.000000 
0.000000 0.000000 0.000000 

-0.000000 0.000000 0.000000 
0.000000 0.000000 0.000000 
0.000000 0.000000 0.000000 

-0.000000 0.000000 0.000000 
0.000000 0.000000 0.000000 
0.000000 0.000000 0.000000 

-0.000000 0.000000 0.000000 
0.000000 0.000000 0.000000 
0.000000 0.000000 0.000000 

-0.000000 0.000000 0.000000 
0.000000 0.000000 0.000000 
0.000000 0.000000 0.000000 

0.000000 -0.000000 0.000000 
0.000000 -0.000000 0.000000 
0.000000 0.000000 0.000000 

0.000000 -0.000000 0.000000 
0.000000 -0.000000 0.000000 
0.000000 0.000000 0.000000 

0.000000 -0.000000 0.000000 
0.000000 -0.000000 0.000000 
0.000000 0.000000 0.000000 

-0.000000 -0.000000 0.000000 
0.000000 0.000000 0.000000 
0.000000 0.000000 0.000000 

-0.000000 -0.000000 0.000000 
0.000000 0.000000 0.000000 
0.000000 0.000000 0.000000 

-0.000000 0.000000 0.000000 
0.000000 0.000000 0.000000 
0.000000 0.000000 0.000000 

0.000000 -0.000000 0.000000 
0.000000 0.000000 0.000000 
0.000000 0.000000 0.000000 

-0.000000 0.000000 0.000000 
0.000000 0.000000 0.000000 
0.000000 0.000000 0.000000 

-0.000000 0.000000 0.000000 
0.000000 -0.000000 0.000000 
0.000000 0.000000 0.000000 

-0.000000 0.000000 0.000000 
0.000000 -0.000000 0.000000 
0.000000 0.000000 0.000000 

-0.000000 -0.000000 0.000000 
0.000000 -0.000000 0.000000 
0.000000 0.000000 0.000000 

0.000000 -0.000000 0.000000 
0.000000 0.000000 0.000000 
0.000000 0.000000 0.000000 

-0.000000 -0.000000 0.000000 
0.000000 0.000000 0.000000 
0.000000 0.000000 0.000000 

-0.000000 -0.000000 0.000000 
0.000000 0.000000 0.000000 
0.000000 0.000000 0.000000 

-0.000000 -0.000000 0.000000 
0.000000 -0.000000 0.000000 
0.000000 0.000000 0.000000 

-0.000000 -0.000000 0.000000 
0.000000 0.000000 0.000000 
0.000000 0.000000 0.000000 

-0.000000 -0.000000 0.000000 
0.000000 0.000000 0.000000 
0.000000 0.000000 0.000000 

-0.000000 -0.000000 0.000000 
0.000000 0.000000 0.000000 
0.000000 0.000000 0.000000 

-0.000000 -0.000000 0.000000 
0.000000 -0.000000 0.000000 
0.000000 0.000000 0.000000 

-0.000000 -0.000000 0.000000 
0.000000 0.000000 0.000000 
0.000000 0.000000 0.000000 

-0.000000 -0.000000 0.000000 
0.000000 0.000000 0.000000 
0.000000 0.000000 0.000000 

-0.000000 -0.000000 0.000000 
0.000000 0.000000 0.000000 
0.000000 0.000000 0.000000 

-0.000000 -0.000000 0.000000 
0.000000 -0.000000 0.000000 
0.000000 0.000000 0.000000 

-0.000000 -0.000000 0.000000 
0.000000 0.000000 0.000000 
0.000000 0.000000 0.000000 

-0.000000 -0.000000 0.000000 
0.000000 0.000000 0.000000 
0.000000 0.000000 0.000000 

-0.000000 -0.000000 0.000000 
0.000000 0.000000 0.000000 
0.000000 0.000000 0.000000 

-0.000000 -0.000000 0.000000 
0.000000 0.000000 0.000000 
0.000000 0.000000 0.000000 

-0.000000 -0.000000 0.000000 
0.000000 0.000000 0.000000 
0.000000 0.000000 0.000000 

0.000000 -0.000000 0.000000 
0.000000 0.000000 0.000000 
0.000000 0.000000 0.000000 

-0.000000 -0.000000 0.000000 
0.000000 0.000000 0.000000 
0.000000 0.000000 0.000000 

0.000000 -0.000000 0.000000 
0.000000 0.000000 0.000000 
0.000000 0.000000 0.000000 

0.000000 0.000000 0.000000 
0.000000 -0.000000 0.000000 
0.000000 0.000000 0.000000 

-0.000000 -0.000000 0.000000 
0.000000 0.000000 0.000000 
0.000000 0.000000 0.000000 

0.000000 -0.000000 0.000000 
0.000000 -0.000000 0.000000 
0.000000 0.000000 0.000000 

-0.000000 0.000000 0.000000 
0.000000 0.000000 0.000000 
0.000000 0.000000 0.000000 

-0.000000 -0.000000 0.000000 
0.000000 0.000000 0.000000 
0.000000 0.000000 0.000000 

-0.000000 -0.000000 0.000000 
0.000000 0.000000 0.000000 
0.000000 0.000000 0.000000 

-0.000000 -0.000000 0.000000 
0.000000 0.000000 0.000000 
0.000000 0.000000 0.000000 

-0.000000 0.000000 0.000000 
0.000000 0.000000 0.000000 
0.000000 0.000000 0.000000 

-0.000000 0.000000 0.000000 
0.000000 0.000000 0.000000 
0.000000 0.000000 0.000000 

-0.000000 0.000000 0.000000 
0.000000 0.000000 0.000000 
0.000000 0.000000 0.000000 

-0.000000 -0.000000 0.000000 
0.000000 -0.000000 0.000000 
0.000000 0.000000 0.000000 

-0.000000 -0.000000 0.000000 
0.000000 0.000000 0.000000 
0.000000 0.000000 0.000000 

-0.000000 0.000000 0.000000 
0.000000 -0.000000 0.000000 
0.000000 0.000000 0.000000 

-0.000000 -0.000000 0.000000 
0.000000 -0.000000 0.000000 
0.000000 0.000000 0.000000 

-0.000000 -0.000000 0.000000 
0.000000 0.000000 0.000000 
0.000000 0.000000 0.000000 

-0.000000 0.000000 0.000000 
0.000000 0.000000 0.000000 
0.000000 0.000000 0.000000 

-0.000000 0.000000 0.000000 
0.000000 0.000000 0.000000 
0.000000 0.000000 0.000000 

-0.000000 -0.000000 0.000000 
0.000000 0.000000 0.000000 
0.000000 0.000000 0.000000 

-0.000000 -0.000000 0.000000 
0.000000 0.000000 0.000000 
0.000000 0.000000 0.000000 

-0.000000 0.000000 0.000000 
0.000000 0.000000 0.000000 
0.000000 0.000000 0.000000 

0.000000 -0.000000 0.000000 
0.000000 -0.000000 0.000000 
0.000000 0.000000 0.000000 

0.000000 -0.000000 0.000000 
0.000000 -0.000000 0.000000 
0.000000 0.000000 0.000000 

-0.000000 -0.000000 0.000000 
0.000000 0.000000 0.000000 
0.000000 0.000000 0.000000 

-0.000000 0.000000 0.000000 
0.000000 0.000000 0.000000 
0.000000 0.000000 0.000000 

-0.000000 -0.000000 0.000000 
0.000000 0.000000 0.000000 
0.000000 0.000000 0.000000 

0.000000 -0.000000 0.000000 
0.000000 -0.000000 0.000000 
0.000000 0.000000 0.000000 

0.000000 0.000000 0.000000 
0.000000 -0.000000 0.000000 
0.000000 0.000000 0.000000 

0.000000 -0.000000 0.000000 
0.000000 -0.000000 0.000000 
0.000000 0.000000 0.000000 

-0.000000 0.000000 0.000000 
0.000000 0.000000 0.000000 
0.000000 0.000000 0.000000 

-0.000000 0.000000 0.000000 
0.000000 0.000000 0.000000 
0.000000 0.000000 0.000000 

-0.000000 -0.000000 0.000000 
0.000000 -0.000000 0.000000 
0.000000 0.000000 0.000000 

-0.000000 0.000000 0.000000 
0.000000 0.000000 0.000000 
0.000000 0.000000 0.000000 

-0.000000 0.000000 0.000000 
0.000000 -0.000000 0.000000 
0.000000 0.000000 0.000000 

-0.000000 0.000000 0.000000 
0.000000 0.000000 0.000000 
0.000000 0.000000 0.000000 

-0.000000 0.000000 0.000000 
0.000000 0.000000 0.000000 
0.000000 0.000000 0.000000 

-0.000000 0.000000 0.000000 
0.000000 0.000000 0.000000 
0.000000 0.000000 0.000000 

-0.000000 0.000000 0.000000 
0.000000 -0.000000 0.000000 
0.000000 0.000000 0.000000 

0.000000 0.000000 0.000000 
0.000000 -0.000000 0.000000 
0.000000 0.000000 0.000000 

0.000000 0.000000 0.000000 
0.000000 0.000000 0.000000 
0.000000 0.000000 0.000000 

-0.000000 0.000000 0.000000 
0.000000 0.000000 0.000000 
0.000000 0.000000 0.000000 

-0.000000 0.000000 0.000000 
0.000000 0.000000 0.000000 
0.000000 0.000000 0.000000 

-0.000000 0.000000 0.000000 
0.000000 0.000000 0.000000 
0.000000 0.000000 0.000000 

-0.000000 0.000000 0.000000 
0.000000 0.000000 0.000000 
0.000000 0.000000 0.000000 

-0.000000 0.000000 0.000000 
0.000000 0.000000 0.000000 
0.000000 0.000000 0.000000 

0.000000 0.000000 0.000000 
0.000000 0.000000 0.000000 
0.000000 0.000000 0.000000 

0.000000 0.000000 0.000000 
0.000000 -0.000000 0.000000 
0.000000 0.000000 0.000000 

-0.000000 -0.000000 0.000000 
0.000000 0.000000 0.000000 
0.000000 0.000000 0.000000 

-0.000000 0.000000 0.000000 
0.000000 0.000000 0.000000 
0.000000 0.000000 0.000000 

-0.000000 0.000000 0.000000 
0.000000 0.000000 0.000000 
0.000000 0.000000 0.000000 

-0.000000 0.000000 0.000000 
0.000000 0.000000 0.000000 
0.000000 0.000000 0.000000 

0.000000 -0.000000 0.000000 
0.000000 -0.000000 0.000000 
0.000000 0.000000 0.000000 

-0.000000 -0.000000 0.000000 
0.000000 0.000000 0.000000 
0.000000 0.000000 0.000000 

0.000000 0.000000 0.000000 
0.000000 -0.000000 0.000000 
0.000000 0.000000 0.000000 

-0.000000 0.000000 0.000000 
0.000000 0.000000 0.000000 
0.000000 0.000000 0.000000 

-0.000000 0.000000 0.000000 
0.000000 0.000000 0.000000 
0.000000 0.000000 0.000000 

-0.000000 0.000000 0.000000 
0.000000 -0.000000 0.000000 
0.000000 0.000000 0.000000 

-0.000000 -0.000000 0.000000 
0.000000 0.000000 0.000000 
0.000000 0.000000 0.000000 

0.000000 -0.000000 0.000000 
0.000000 -0.000000 0.000000 
0.000000 0.000000 0.000000 

-0.000000 0.000000 0.000000 
0.000000 0.000000 0.000000 
0.000000 0.000000 0.000000 

-0.000000 0.000000 0.000000 
0.000000 0.000000 0.000000 
0.000000 0.000000 0.000000 

-0.000000 -0.000000 0.000000 
0.000000 -0.000000 0.000000 
0.000000 0.000000 0.000000 

-0.000000 -0.000000 0.000000 
0.000000 0.000000 0.000000 
0.000000 0.000000 0.000000 

0.000000 0.000000 0.000000 
0.000000 -0.000000 0.000000 
0.000000 0.000000 0.000000 

0.000000 0.000000 0.000000 
0.000000 0.000000 0.000000 
0.000000 0.000000 0.000000 

0.000000 0.000000 0.000000 
0.000000 -0.000000 0.000000 
0.000000 0.000000 0.000000 

0.000000 0.000000 0.000000 
0.000000 -0.000000 0.000000 
0.000000 0.000000 0.000000 

-0.000000 -0.000000 0.000000 
0.000000 -0.000000 0.000000 
0.000000 0.000000 0.000000 

0.000000 -0.000000 0.000000 
0.000000 0.000000 0.000000 
0.000000 0.000000 0.000000 

0.000000 0.000000 0.000000 
0.000000 0.000000 0.000000 
0.000000 0.000000 0.000000 

-0.000000 -0.000000 0.000000 
0.000000 -0.000000 0.000000 
0.000000 0.000000 0.000000 

-0.000000 -0.000000 0.000000 
0.000000 0.000000 0.000000 
0.000000 0.000000 0.000000 

-0.000000 -0.000000 0.000000 
0.000000 -0.000000 0.000000 
0.000000 0.000000 0.000000 

0.000000 -0.000000 0.000000 
0.000000 0.000000 0.000000 
0.000000 0.000000 0.000000 

0.000000 0.000000 0.000000 
0.000000 -0.000000 0.000000 
0.000000 0.000000 0.000000 

-0.000000 0.000000 0.000000 
0.000000 0.000000 0.000000 
0.000000 0.000000 0.000000 

-0.000000 -0.000000 0.000000 
0.000000 0.000000 0.000000 
0.000000 0.000000 0.000000 

-0.000000 -0.000000 0.000000 
0.000000 0.000000 0.000000 
0.000000 0.000000 0.000000 

0.000000 0.000000 0.000000 
0.000000 -0.000000 0.000000 
0.000000 0.000000 0.000000 

-0.000000 0.000000 0.000000 
0.000000 -0.000000 0.000000 
0.000000 0.000000 0.000000 

0.000000 -0.000000 0.000000 
0.000000 0.000000 0.000000 
0.000000 0.000000 0.000000 

0.000000 0.000000 0.000000 
0.000000 0.000000 0.000000 
0.000000 0.000000 0.000000 

0.000000 0.000000 0.000000 
0.000000 0.000000 0.000000 
0.000000 0.000000 0.000000 

0.000000 0.000000 0.000000 
0.000000 0.000000 0.000000 
0.000000 0.000000 0.000000 

0.000000 -0.000000 0.000000 
0.000000 -0.000000 0.000000 
0.000000 0.000000 0.000000 

0.000000 -0.000000 0.000000 
0.000000 0.000000 0.000000 
0.000000 0.000000 0.000000 

0.000000 0.000000 0.000000 
0.000000 0.000000 0.000000 
0.000000 0.000000 0.000000 

0.000000 -0.000000 0.000000 
0.000000 0.000000 0.000000 
0.000000 0.000000 0.000000 

-0.000000 -0.000000 0.000000 
0.000000 -0.000000 0.000000 
0.000000 0.000000 0.000000 

-0.000000 -0.000000 0.000000 
0.000000 -0.000000 0.000000 
0.000000 0.000000 0.000000 

0.000000 -0.000000 0.000000 
0.000000 -0.000000 0.000000 
0.000000 0.000000 0.000000 

0.000000 -0.000000 0.000000 
0.000000 0.000000 0.000000 
0.000000 0.000000 0.000000 

0.000000 -0.000000 0.000000 
0.000000 0.000000 0.000000 
0.000000 0.000000 0.000000 

0.000000 -0.000000 0.000000 
0.000000 0.000000 0.000000 
0.000000 0.000000 0.000000 

0.000000 -0.000000 0.000000 
0.000000 0.000000 0.000000 
0.000000 0.000000 0.000000 

-0.000000 -0.000000 0.000000 
0.000000 0.000000 0.000000 
0.000000 0.000000 0.000000 

-0.000000 0.000000 0.000000 
0.000000 0.000000 0.000000 
0.000000 0.000000 0.000000 

-0.000000 0.000000 0.000000 
0.000000 0.000000 0.000000 
0.000000 0.000000 0.000000 

-0.000000 0.000000 0.000000 
0.000000 0.000000 0.000000 
0.000000 0.000000 0.000000 

-0.000000 0.000000 0.000000 
0.000000 0.000000 0.000000 
0.000000 0.000000 0.000000 

-0.000000 -0.000000 0.000000 
0.000000 0.000000 0.000000 
0.000000 0.000000 0.000000 

-0.000000 -0.000000 0.000000 
0.000000 0.000000 0.000000 
0.000000 0.000000 0.000000 

-0.000000 -0.000000 0.000000 
0.000000 0.000000 0.000000 
0.000000 0.000000 0.000000 

-0.000000 -0.000000 0.000000 
0.000000 0.000000 0.000000 
0.000000 0.000000 0.000000 

0.000000 0.000000 0.000000 
0.000000 -0.000000 0.000000 
0.000000 0.000000 0.000000 

0.000000 -0.000000 0.000000 
0.000000 -0.000000 0.000000 
0.000000 0.000000 0.000000 

0.000000 0.000000 0.000000 
0.000000 0.000000 0.000000 
0.000000 0.000000 0.000000 

0.000000 -0.000000 0.000000 
0.000000 0.000000 0.000000 
0.000000 0.000000 0.000000 

0.000000 -0.000000 0.000000 
0.000000 -0.000000 0.000000 
0.000000 0.000000 0.000000 

0.000000 0.000000 0.000000 
0.000000 0.000000 0.000000 
0.000000 0.000000 0.000000 

0.000000 0.000000 0.000000 
0.000000 -0.000000 0.000000 
0.000000 0.000000 0.000000 

0.000000 -0.000000 0.000000 
0.000000 0.000000 0.000000 
0.000000 0.000000 0.000000 

0.000000 0.000000 0.000000 
0.000000 0.000000 0.000000 
0.000000 0.000000 0.000000 

-0.000000 0.000000 0.000000 
0.000000 0.000000 0.000000 
0.000000 0.000000 0.000000 

-0.000000 0.000000 0.000000 
0.000000 -0.000000 0.000000 
0.000000 0.000000 0.000000 

0.000000 0.000000 0.000000 
0.000000 0.000000 0.000000 
0.000000 0.000000 0.000000 

0.000000 0.000000 0.000000 
0.000000 -0.000000 0.000000 
0.000000 0.000000 0.000000 

0.000000 0.000000 0.000000 
0.000000 0.000000 0.000000 
0.000000 0.000000 0.000000 

0.000000 -0.000000 0.000000 
0.000000 0.000000 0.000000 
0.000000 0.000000 0.000000 

-0.000000 -0.000000 0.000000 
0.000000 0.000000 0.000000 
0.000000 0.000000 0.000000 

-0.000000 0.000000 0.000000 
0.000000 -0.000000 0.000000 
0.000000 0.000000 0.000000 

-0.000000 0.000000 0.000000 
0.000000 0.000000 0.000000 
0.000000 0.000000 0.000000 

0.000000 -0.000000 0.000000 
0.000000 -0.000000 0.000000 
0.000000 0.000000 0.000000 

0.000000 0.000000 0.000000 
0.000000 -0.000000 0.000000 
0.000000 0.000000 0.000000 

0.000000 -0.000000 0.000000 
0.000000 -0.000000 0.000000 
0.000000 0.000000 0.000000 

0.000000 0.000000 0.000000 
0.000000 -0.000000 0.000000 
0.000000 0.000000 0.000000 

-0.000000 -0.000000 0.000000 
0.000000 0.000000 0.000000 
0.000000 0.000000 0.000000 

0.000000 0.000000 0.000000 
0.000000 0.000000 0.000000 
0.000000 0.000000 0.000000 

0.000000 0.000000 0.000000 
0.000000 0.000000 0.000000 
0.000000 0.000000 0.000000 

