# vtk DataFile Version 3.0 
vtk output 
ASCII 
DATASET UNSTRUCTURED_GRID 
POINTS 175 float 
-0.026059 0.045175 0.000000 
-0.107014 0.113191 0.000000 
-0.054870 0.104904 0.000000 
-0.028802 0.150808 0.000000 
-0.186482 0.177384 0.000000 
-0.137071 0.174797 0.000000 
-0.114283 0.228428 0.000000 
-0.058148 0.212728 0.000000 
-0.029349 0.252931 0.000000 
-0.265368 0.240456 0.000000 
-0.217254 0.239720 0.000000 
-0.196658 0.297002 0.000000 
-0.143110 0.288290 0.000000 
-0.116557 0.335599 0.000000 
-0.058920 0.315944 0.000000 
-0.029566 0.354109 0.000000 
-0.344327 0.303619 0.000000 
-0.296879 0.303643 0.000000 
-0.278149 0.363715 0.000000 
-0.226009 0.357744 0.000000 
-0.201685 0.409888 0.000000 
-0.145763 0.396454 0.000000 
-0.117961 0.440828 0.000000 
-0.059348 0.418140 0.000000 
-0.029767 0.455201 0.000000 
-0.058551 0.004489 0.000000 
-0.162221 -0.016359 0.000000 
-0.123295 0.019252 0.000000 
-0.142945 0.068225 0.000000 
-0.261823 -0.038597 0.000000 
-0.229104 -0.001497 0.000000 
-0.256885 0.049805 0.000000 
-0.209684 0.083934 0.000000 
-0.223156 0.131539 0.000000 
-0.360358 -0.060951 0.000000 
-0.329740 -0.023791 0.000000 
-0.361700 0.028117 0.000000 
-0.321565 0.064610 0.000000 
-0.341952 0.114935 0.000000 
-0.290733 0.147642 0.000000 
-0.302214 0.194260 0.000000 
-0.458904 -0.083267 0.000000 
-0.429353 -0.046222 0.000000 
-0.464491 0.005898 0.000000 
-0.427453 0.043039 0.000000 
-0.452984 0.094658 0.000000 
-0.407624 0.129968 0.000000 
-0.424869 0.179146 0.000000 
-0.370751 0.210748 0.000000 
-0.381312 0.256778 0.000000 
-0.046951 -0.046255 0.000000 
-0.095277 -0.140327 0.000000 
-0.098853 -0.087678 0.000000 
-0.149383 -0.072522 0.000000 
-0.140059 -0.232106 0.000000 
-0.148580 -0.183379 0.000000 
-0.205934 -0.173186 0.000000 
-0.203162 -0.114979 0.000000 
-0.248742 -0.095863 0.000000 
-0.184080 -0.323113 0.000000 
-0.194003 -0.276005 0.000000 
-0.254435 -0.268713 0.000000 
-0.257847 -0.214603 0.000000 
-0.309844 -0.199231 0.000000 
-0.303511 -0.138699 0.000000 
-0.347210 -0.118561 0.000000 
-0.228081 -0.414109 0.000000 
-0.238649 -0.367851 0.000000 
-0.301257 -0.362938 0.000000 
-0.307119 -0.310893 0.000000 
-0.363338 -0.298807 0.000000 
-0.362651 -0.241252 0.000000 
-0.412070 -0.223945 0.000000 
-0.402968 -0.161788 0.000000 
-0.445658 -0.141228 0.000000 
-0.000000 -0.068873 0.000000 
0.043376 -0.165315 0.000000 
-0.000000 -0.135279 0.000000 
-0.043376 -0.165315 0.000000 
0.087130 -0.257617 0.000000 
0.043755 -0.233883 0.000000 
-0.000000 -0.272405 0.000000 
-0.043755 -0.233883 0.000000 
-0.087130 -0.257617 0.000000 
0.130799 -0.348814 0.000000 
0.087793 -0.327241 0.000000 
0.044417 -0.369926 0.000000 
-0.000000 -0.338896 0.000000 
-0.044417 -0.369926 0.000000 
-0.087793 -0.327241 0.000000 
-0.130799 -0.348814 0.000000 
0.174458 -0.439927 0.000000 
0.131744 -0.419348 0.000000 
0.088838 -0.465159 0.000000 
0.044514 -0.437316 0.000000 
-0.000000 -0.473676 0.000000 
-0.044514 -0.437316 0.000000 
-0.088838 -0.465159 0.000000 
-0.131744 -0.419348 0.000000 
-0.174458 -0.439927 0.000000 
0.046951 -0.046255 0.000000 
0.149383 -0.072522 0.000000 
0.098853 -0.087678 0.000000 
0.095277 -0.140327 0.000000 
0.248742 -0.095863 0.000000 
0.203162 -0.114979 0.000000 
0.205934 -0.173186 0.000000 
0.148580 -0.183379 0.000000 
0.140059 -0.232106 0.000000 
0.347210 -0.118561 0.000000 
0.303511 -0.138699 0.000000 
0.309844 -0.199231 0.000000 
0.257847 -0.214603 0.000000 
0.254435 -0.268713 0.000000 
0.194003 -0.276005 0.000000 
0.184080 -0.323113 0.000000 
0.445658 -0.141228 0.000000 
0.402968 -0.161788 0.000000 
0.412070 -0.223945 0.000000 
0.362651 -0.241252 0.000000 
0.363338 -0.298807 0.000000 
0.307119 -0.310893 0.000000 
0.301257 -0.362938 0.000000 
0.238649 -0.367851 0.000000 
0.228081 -0.414109 0.000000 
0.058551 0.004489 0.000000 
0.142945 0.068225 0.000000 
0.123295 0.019252 0.000000 
0.162221 -0.016359 0.000000 
0.223156 0.131539 0.000000 
0.209684 0.083934 0.000000 
0.256885 0.049805 0.000000 
0.229104 -0.001497 0.000000 
0.261823 -0.038597 0.000000 
0.302214 0.194260 0.000000 
0.290733 0.147642 0.000000 
0.341952 0.114935 0.000000 
0.321565 0.064610 0.000000 
0.361700 0.028117 0.000000 
0.329740 -0.023791 0.000000 
0.360358 -0.060951 0.000000 
0.381312 0.256778 0.000000 
0.370751 0.210748 0.000000 
0.424869 0.179146 0.000000 
0.407624 0.129968 0.000000 
0.452984 0.094658 0.000000 
0.427453 0.043039 0.000000 
0.464491 0.005898 0.000000 
0.429353 -0.046222 0.000000 
0.458904 -0.083267 0.000000 
0.026059 0.045175 0.000000 
0.028802 0.150808 0.000000 
0.054870 0.104904 0.000000 
0.107014 0.113191 0.000000 
0.029349 0.252931 0.000000 
0.058148 0.212728 0.000000 
0.114283 0.228428 0.000000 
0.137071 0.174797 0.000000 
0.186482 0.177384 0.000000 
0.029566 0.354109 0.000000 
0.058920 0.315944 0.000000 
0.116557 0.335599 0.000000 
0.143110 0.288290 0.000000 
0.196658 0.297002 0.000000 
0.217254 0.239720 0.000000 
0.265368 0.240456 0.000000 
0.029767 0.455201 0.000000 
0.059348 0.418140 0.000000 
0.117961 0.440828 0.000000 
0.145763 0.396454 0.000000 
0.201685 0.409888 0.000000 
0.226009 0.357744 0.000000 
0.278149 0.363715 0.000000 
0.296879 0.303643 0.000000 
0.344327 0.303619 0.000000 
CELLS 175 350 
1 0 
1 1 
1 2 
1 3 
1 4 
1 5 
1 6 
1 7 
1 8 
1 9 
1 10 
1 11 
1 12 
1 13 
1 14 
1 15 
1 16 
1 17 
1 18 
1 19 
1 20 
1 21 
1 22 
1 23 
1 24 
1 25 
1 26 
1 27 
1 28 
1 29 
1 30 
1 31 
1 32 
1 33 
1 34 
1 35 
1 36 
1 37 
1 38 
1 39 
1 40 
1 41 
1 42 
1 43 
1 44 
1 45 
1 46 
1 47 
1 48 
1 49 
1 50 
1 51 
1 52 
1 53 
1 54 
1 55 
1 56 
1 57 
1 58 
1 59 
1 60 
1 61 
1 62 
1 63 
1 64 
1 65 
1 66 
1 67 
1 68 
1 69 
1 70 
1 71 
1 72 
1 73 
1 74 
1 75 
1 76 
1 77 
1 78 
1 79 
1 80 
1 81 
1 82 
1 83 
1 84 
1 85 
1 86 
1 87 
1 88 
1 89 
1 90 
1 91 
1 92 
1 93 
1 94 
1 95 
1 96 
1 97 
1 98 
1 99 
1 100 
1 101 
1 102 
1 103 
1 104 
1 105 
1 106 
1 107 
1 108 
1 109 
1 110 
1 111 
1 112 
1 113 
1 114 
1 115 
1 116 
1 117 
1 118 
1 119 
1 120 
1 121 
1 122 
1 123 
1 124 
1 125 
1 126 
1 127 
1 128 
1 129 
1 130 
1 131 
1 132 
1 133 
1 134 
1 135 
1 136 
1 137 
1 138 
1 139 
1 140 
1 141 
1 142 
1 143 
1 144 
1 145 
1 146 
1 147 
1 148 
1 149 
1 150 
1 151 
1 152 
1 153 
1 154 
1 155 
1 156 
1 157 
1 158 
1 159 
1 160 
1 161 
1 162 
1 163 
1 164 
1 165 
1 166 
1 167 
1 168 
1 169 
1 170 
1 171 
1 172 
1 173 
1 174 
CELL_TYPES 175 
1 
1 
1 
1 
1 
1 
1 
1 
1 
1 
1 
1 
1 
1 
1 
1 
1 
1 
1 
1 
1 
1 
1 
1 
1 
1 
1 
1 
1 
1 
1 
1 
1 
1 
1 
1 
1 
1 
1 
1 
1 
1 
1 
1 
1 
1 
1 
1 
1 
1 
1 
1 
1 
1 
1 
1 
1 
1 
1 
1 
1 
1 
1 
1 
1 
1 
1 
1 
1 
1 
1 
1 
1 
1 
1 
1 
1 
1 
1 
1 
1 
1 
1 
1 
1 
1 
1 
1 
1 
1 
1 
1 
1 
1 
1 
1 
1 
1 
1 
1 
1 
1 
1 
1 
1 
1 
1 
1 
1 
1 
1 
1 
1 
1 
1 
1 
1 
1 
1 
1 
1 
1 
1 
1 
1 
1 
1 
1 
1 
1 
1 
1 
1 
1 
1 
1 
1 
1 
1 
1 
1 
1 
1 
1 
1 
1 
1 
1 
1 
1 
1 
1 
1 
1 
1 
1 
1 
1 
1 
1 
1 
1 
1 
1 
1 
1 
1 
1 
1 
1 
1 
1 
1 
1 
1 
POINT_DATA 175 
VECTORS X_GC float 
-0.026059 0.045175 0.000000 
-0.107014 0.113191 0.000000 
-0.054870 0.104904 0.000000 
-0.028802 0.150808 0.000000 
-0.186482 0.177384 0.000000 
-0.137071 0.174797 0.000000 
-0.114283 0.228428 0.000000 
-0.058148 0.212728 0.000000 
-0.029349 0.252931 0.000000 
-0.265368 0.240456 0.000000 
-0.217254 0.239720 0.000000 
-0.196658 0.297002 0.000000 
-0.143110 0.288290 0.000000 
-0.116557 0.335599 0.000000 
-0.058920 0.315944 0.000000 
-0.029566 0.354109 0.000000 
-0.344327 0.303619 0.000000 
-0.296879 0.303643 0.000000 
-0.278149 0.363715 0.000000 
-0.226009 0.357744 0.000000 
-0.201685 0.409888 0.000000 
-0.145763 0.396454 0.000000 
-0.117961 0.440828 0.000000 
-0.059348 0.418140 0.000000 
-0.029767 0.455201 0.000000 
-0.058551 0.004489 0.000000 
-0.162221 -0.016359 0.000000 
-0.123295 0.019252 0.000000 
-0.142945 0.068225 0.000000 
-0.261823 -0.038597 0.000000 
-0.229104 -0.001497 0.000000 
-0.256885 0.049805 0.000000 
-0.209684 0.083934 0.000000 
-0.223156 0.131539 0.000000 
-0.360358 -0.060951 0.000000 
-0.329740 -0.023791 0.000000 
-0.361700 0.028117 0.000000 
-0.321565 0.064610 0.000000 
-0.341952 0.114935 0.000000 
-0.290733 0.147642 0.000000 
-0.302214 0.194260 0.000000 
-0.458904 -0.083267 0.000000 
-0.429353 -0.046222 0.000000 
-0.464491 0.005898 0.000000 
-0.427453 0.043039 0.000000 
-0.452984 0.094658 0.000000 
-0.407624 0.129968 0.000000 
-0.424869 0.179146 0.000000 
-0.370751 0.210748 0.000000 
-0.381312 0.256778 0.000000 
-0.046951 -0.046255 0.000000 
-0.095277 -0.140327 0.000000 
-0.098853 -0.087678 0.000000 
-0.149383 -0.072522 0.000000 
-0.140059 -0.232106 0.000000 
-0.148580 -0.183379 0.000000 
-0.205934 -0.173186 0.000000 
-0.203162 -0.114979 0.000000 
-0.248742 -0.095863 0.000000 
-0.184080 -0.323113 0.000000 
-0.194003 -0.276005 0.000000 
-0.254435 -0.268713 0.000000 
-0.257847 -0.214603 0.000000 
-0.309844 -0.199231 0.000000 
-0.303511 -0.138699 0.000000 
-0.347210 -0.118561 0.000000 
-0.228081 -0.414109 0.000000 
-0.238649 -0.367851 0.000000 
-0.301257 -0.362938 0.000000 
-0.307119 -0.310893 0.000000 
-0.363338 -0.298807 0.000000 
-0.362651 -0.241252 0.000000 
-0.412070 -0.223945 0.000000 
-0.402968 -0.161788 0.000000 
-0.445658 -0.141228 0.000000 
-0.000000 -0.068873 0.000000 
0.043376 -0.165315 0.000000 
-0.000000 -0.135279 0.000000 
-0.043376 -0.165315 0.000000 
0.087130 -0.257617 0.000000 
0.043755 -0.233883 0.000000 
-0.000000 -0.272405 0.000000 
-0.043755 -0.233883 0.000000 
-0.087130 -0.257617 0.000000 
0.130799 -0.348814 0.000000 
0.087793 -0.327241 0.000000 
0.044417 -0.369926 0.000000 
-0.000000 -0.338896 0.000000 
-0.044417 -0.369926 0.000000 
-0.087793 -0.327241 0.000000 
-0.130799 -0.348814 0.000000 
0.174458 -0.439927 0.000000 
0.131744 -0.419348 0.000000 
0.088838 -0.465159 0.000000 
0.044514 -0.437316 0.000000 
-0.000000 -0.473676 0.000000 
-0.044514 -0.437316 0.000000 
-0.088838 -0.465159 0.000000 
-0.131744 -0.419348 0.000000 
-0.174458 -0.439927 0.000000 
0.046951 -0.046255 0.000000 
0.149383 -0.072522 0.000000 
0.098853 -0.087678 0.000000 
0.095277 -0.140327 0.000000 
0.248742 -0.095863 0.000000 
0.203162 -0.114979 0.000000 
0.205934 -0.173186 0.000000 
0.148580 -0.183379 0.000000 
0.140059 -0.232106 0.000000 
0.347210 -0.118561 0.000000 
0.303511 -0.138699 0.000000 
0.309844 -0.199231 0.000000 
0.257847 -0.214603 0.000000 
0.254435 -0.268713 0.000000 
0.194003 -0.276005 0.000000 
0.184080 -0.323113 0.000000 
0.445658 -0.141228 0.000000 
0.402968 -0.161788 0.000000 
0.412070 -0.223945 0.000000 
0.362651 -0.241252 0.000000 
0.363338 -0.298807 0.000000 
0.307119 -0.310893 0.000000 
0.301257 -0.362938 0.000000 
0.238649 -0.367851 0.000000 
0.228081 -0.414109 0.000000 
0.058551 0.004489 0.000000 
0.142945 0.068225 0.000000 
0.123295 0.019252 0.000000 
0.162221 -0.016359 0.000000 
0.223156 0.131539 0.000000 
0.209684 0.083934 0.000000 
0.256885 0.049805 0.000000 
0.229104 -0.001497 0.000000 
0.261823 -0.038597 0.000000 
0.302214 0.194260 0.000000 
0.290733 0.147642 0.000000 
0.341952 0.114935 0.000000 
0.321565 0.064610 0.000000 
0.361700 0.028117 0.000000 
0.329740 -0.023791 0.000000 
0.360358 -0.060951 0.000000 
0.381312 0.256778 0.000000 
0.370751 0.210748 0.000000 
0.424869 0.179146 0.000000 
0.407624 0.129968 0.000000 
0.452984 0.094658 0.000000 
0.427453 0.043039 0.000000 
0.464491 0.005898 0.000000 
0.429353 -0.046222 0.000000 
0.458904 -0.083267 0.000000 
0.026059 0.045175 0.000000 
0.028802 0.150808 0.000000 
0.054870 0.104904 0.000000 
0.107014 0.113191 0.000000 
0.029349 0.252931 0.000000 
0.058148 0.212728 0.000000 
0.114283 0.228428 0.000000 
0.137071 0.174797 0.000000 
0.186482 0.177384 0.000000 
0.029566 0.354109 0.000000 
0.058920 0.315944 0.000000 
0.116557 0.335599 0.000000 
0.143110 0.288290 0.000000 
0.196658 0.297002 0.000000 
0.217254 0.239720 0.000000 
0.265368 0.240456 0.000000 
0.029767 0.455201 0.000000 
0.059348 0.418140 0.000000 
0.117961 0.440828 0.000000 
0.145763 0.396454 0.000000 
0.201685 0.409888 0.000000 
0.226009 0.357744 0.000000 
0.278149 0.363715 0.000000 
0.296879 0.303643 0.000000 
0.344327 0.303619 0.000000 
VECTORS X_EC float 
0.338766 -0.109866 0.000000 
-0.608820 0.971916 0.000000 
0.713313 -0.916197 0.000000 
0.374429 0.464090 0.000000 
0.424262 0.105318 0.000000 
-0.218079 0.140237 0.000000 
-0.514319 -0.583779 0.000000 
0.755918 -0.371827 0.000000 
0.381542 -0.914568 0.000000 
-0.550222 -0.746151 0.000000 
0.824307 -0.736215 0.000000 
0.556554 0.490474 0.000000 
-0.139566 0.608087 0.000000 
-0.484765 -0.030585 0.000000 
0.765955 0.234757 0.000000 
0.384361 -0.280472 0.000000 
0.476247 0.401142 0.000000 
-0.140572 0.400819 0.000000 
-0.384063 -0.410156 0.000000 
0.938118 -0.329542 0.000000 
0.621907 0.966516 0.000000 
-0.105076 -0.852123 0.000000 
-0.466509 0.548821 0.000000 
0.771530 0.855104 0.000000 
0.386977 0.354782 0.000000 
0.761159 0.439399 0.000000 
0.108869 0.720840 0.000000 
-0.397167 0.240098 0.000000 
-0.141721 -0.421040 0.000000 
-0.596303 -0.978942 0.000000 
0.978350 0.520213 0.000000 
-0.660493 -0.172366 0.000000 
0.725888 -0.633106 0.000000 
0.901030 0.724224 0.000000 
0.684655 -0.677165 0.000000 
0.286617 0.821185 0.000000 
0.702105 0.120420 0.000000 
0.180348 -0.372235 0.000000 
0.445375 0.948377 0.000000 
-0.220469 0.506839 0.000000 
-0.071221 -0.122504 0.000000 
-0.034251 -0.375892 0.000000 
-0.418406 -0.876009 0.000000 
0.038381 0.420380 0.000000 
-0.443115 -0.081030 0.000000 
-0.111206 -0.777889 0.000000 
-0.700889 0.745430 0.000000 
-0.476706 0.081530 0.000000 
0.819764 -0.345102 0.000000 
0.957052 -0.966500 0.000000 
0.610362 -0.875555 0.000000 
-0.761395 0.394419 0.000000 
-0.714911 -0.316352 0.000000 
-0.058021 -0.520949 0.000000 
-0.179227 -0.366564 0.000000 
-0.068463 0.975614 0.000000 
0.677142 0.838006 0.000000 
0.641109 0.052222 0.000000 
-0.766359 -0.205848 0.000000 
0.393035 0.862031 0.000000 
0.522037 0.226072 0.000000 
-0.692350 0.127624 0.000000 
-0.647991 -0.602854 0.000000 
0.027973 -0.810380 0.000000 
-0.054355 0.372440 0.000000 
0.513730 0.100580 0.000000 
0.965049 0.090477 0.000000 
-0.897565 -0.534014 0.000000 
-0.083656 -0.600331 0.000000 
-0.007447 0.697060 0.000000 
0.723397 0.533898 0.000000 
0.714469 -0.243097 0.000000 
-0.643093 -0.476749 0.000000 
-0.761410 0.684136 0.000000 
-0.206449 0.406578 0.000000 
0.000000 -0.570216 0.000000 
-0.563888 0.731755 0.000000 
0.000000 0.326270 0.000000 
0.563888 0.731755 0.000000 
0.867311 -0.022174 0.000000 
-0.568815 -0.342577 0.000000 
0.000000 0.177468 0.000000 
0.568815 -0.342577 0.000000 
-0.867311 -0.022174 0.000000 
0.299611 -0.791017 0.000000 
0.858697 0.917753 0.000000 
-0.577425 -0.505998 0.000000 
0.000000 -0.924908 0.000000 
0.577425 -0.505998 0.000000 
-0.858697 0.917753 0.000000 
-0.299611 -0.791017 0.000000 
-0.267957 0.439018 0.000000 
0.287322 0.161192 0.000000 
0.845105 0.779647 0.000000 
-0.578678 0.403768 0.000000 
0.000000 0.894624 0.000000 
0.578678 0.403768 0.000000 
-0.845105 0.779647 0.000000 
-0.287322 0.161192 0.000000 
0.267957 0.439018 0.000000 
-0.610362 -0.875555 0.000000 
0.058021 -0.520949 0.000000 
0.714911 -0.316352 0.000000 
0.761395 0.394419 0.000000 
0.766359 -0.205847 0.000000 
-0.641109 0.052222 0.000000 
-0.677142 0.838006 0.000000 
0.068463 0.975614 0.000000 
0.179227 -0.366564 0.000000 
-0.513730 0.100580 0.000000 
0.054355 0.372440 0.000000 
-0.027973 -0.810380 0.000000 
0.647991 -0.602854 0.000000 
0.692350 0.127624 0.000000 
-0.522037 0.226072 0.000000 
-0.393035 0.862031 0.000000 
0.206449 0.406578 0.000000 
0.761410 0.684136 0.000000 
0.643093 -0.476749 0.000000 
-0.714469 -0.243097 0.000000 
-0.723397 0.533898 0.000000 
0.007447 0.697060 0.000000 
0.083656 -0.600331 0.000000 
0.897565 -0.534013 0.000000 
-0.965049 0.090477 0.000000 
-0.761159 0.439399 0.000000 
0.141721 -0.421040 0.000000 
0.397167 0.240098 0.000000 
-0.108869 0.720840 0.000000 
-0.901030 0.724224 0.000000 
-0.725888 -0.633106 0.000000 
0.660493 -0.172366 0.000000 
-0.978350 0.520213 0.000000 
0.596303 -0.978942 0.000000 
0.071221 -0.122504 0.000000 
0.220469 0.506839 0.000000 
-0.445375 0.948377 0.000000 
-0.180348 -0.372235 0.000000 
-0.702105 0.120420 0.000000 
-0.286617 0.821185 0.000000 
-0.684655 -0.677165 0.000000 
-0.957052 -0.966500 0.000000 
-0.819764 -0.345102 0.000000 
0.476706 0.081530 0.000000 
0.700889 0.745430 0.000000 
0.111206 -0.777889 0.000000 
0.443115 -0.081030 0.000000 
-0.038381 0.420380 0.000000 
0.418406 -0.876009 0.000000 
0.034251 -0.375892 0.000000 
-0.338766 -0.109866 0.000000 
-0.374429 0.464090 0.000000 
-0.713313 -0.916197 0.000000 
0.608820 0.971916 0.000000 
-0.381542 -0.914568 0.000000 
-0.755918 -0.371827 0.000000 
0.514319 -0.583779 0.000000 
0.218079 0.140237 0.000000 
-0.424262 0.105318 0.000000 
-0.384361 -0.280472 0.000000 
-0.765955 0.234757 0.000000 
0.484765 -0.030585 0.000000 
0.139566 0.608087 0.000000 
-0.556554 0.490474 0.000000 
-0.824307 -0.736215 0.000000 
0.550222 -0.746151 0.000000 
-0.386977 0.354782 0.000000 
-0.771530 0.855104 0.000000 
0.466509 0.548821 0.000000 
0.105076 -0.852123 0.000000 
-0.621907 0.966516 0.000000 
-0.938118 -0.329542 0.000000 
0.384063 -0.410156 0.000000 
0.140572 0.400819 0.000000 
-0.476247 0.401142 0.000000 
CELL_DATA 175 
SCALARS MASS float 
LOOKUP_TABLE default 
0.781831 
0.864274 
0.946717 
0.864274 
0.881307 
0.921110 
0.858535 
0.921110 
0.881307 
0.887046 
0.910001 
0.869829 
0.915556 
0.869829 
0.910001 
0.887046 
0.892784 
0.915740 
0.892784 
0.927218 
0.892784 
0.927218 
0.892784 
0.915740 
0.892784 
0.781831 
0.864274 
0.946717 
0.864274 
0.881307 
0.921110 
0.858535 
0.921110 
0.881307 
0.887046 
0.910001 
0.869829 
0.915556 
0.869829 
0.910001 
0.887046 
0.892784 
0.915740 
0.892784 
0.927218 
0.892784 
0.927218 
0.892784 
0.915740 
0.892784 
0.781831 
0.864274 
0.946717 
0.864274 
0.881307 
0.921110 
0.858535 
0.921110 
0.881307 
0.887046 
0.910001 
0.869829 
0.915556 
0.869829 
0.910001 
0.887046 
0.892784 
0.915740 
0.892784 
0.927218 
0.892784 
0.927218 
0.892784 
0.915740 
0.892784 
0.781831 
0.864274 
0.946717 
0.864274 
0.881307 
0.921110 
0.858535 
0.921110 
0.881307 
0.887046 
0.910001 
0.869829 
0.915556 
0.869829 
0.910001 
0.887046 
0.892784 
0.915740 
0.892784 
0.927218 
0.892784 
0.927218 
0.892784 
0.915740 
0.892784 
0.781831 
0.864274 
0.946717 
0.864274 
0.881307 
0.921110 
0.858535 
0.921110 
0.881307 
0.887046 
0.910001 
0.869829 
0.915556 
0.869829 
0.910001 
0.887046 
0.892784 
0.915740 
0.892784 
0.927218 
0.892784 
0.927218 
0.892784 
0.915740 
0.892784 
0.781831 
0.864274 
0.946717 
0.864274 
0.881307 
0.921110 
0.858535 
0.921110 
0.881307 
0.887046 
0.910001 
0.869829 
0.915556 
0.869829 
0.910001 
0.887046 
0.892784 
0.915740 
0.892784 
0.927218 
0.892784 
0.927218 
0.892784 
0.915740 
0.892784 
0.781831 
0.864274 
0.946717 
0.864274 
0.881307 
0.921110 
0.858535 
0.921110 
0.881307 
0.887046 
0.910001 
0.869829 
0.915556 
0.869829 
0.910001 
0.887046 
0.892784 
0.915740 
0.892784 
0.927218 
0.892784 
0.927218 
0.892784 
0.915740 
0.892784 
SCALARS MASS float 
LOOKUP_TABLE default 
0.781831 
0.864274 
0.946717 
0.864274 
0.881307 
0.921110 
0.858535 
0.921110 
0.881307 
0.887046 
0.910001 
0.869829 
0.915556 
0.869829 
0.910001 
0.887046 
0.892784 
0.915740 
0.892784 
0.927218 
0.892784 
0.927218 
0.892784 
0.915740 
0.892784 
0.781831 
0.864274 
0.946717 
0.864274 
0.881307 
0.921110 
0.858535 
0.921110 
0.881307 
0.887046 
0.910001 
0.869829 
0.915556 
0.869829 
0.910001 
0.887046 
0.892784 
0.915740 
0.892784 
0.927218 
0.892784 
0.927218 
0.892784 
0.915740 
0.892784 
0.781831 
0.864274 
0.946717 
0.864274 
0.881307 
0.921110 
0.858535 
0.921110 
0.881307 
0.887046 
0.910001 
0.869829 
0.915556 
0.869829 
0.910001 
0.887046 
0.892784 
0.915740 
0.892784 
0.927218 
0.892784 
0.927218 
0.892784 
0.915740 
0.892784 
0.781831 
0.864274 
0.946717 
0.864274 
0.881307 
0.921110 
0.858535 
0.921110 
0.881307 
0.887046 
0.910001 
0.869829 
0.915556 
0.869829 
0.910001 
0.887046 
0.892784 
0.915740 
0.892784 
0.927218 
0.892784 
0.927218 
0.892784 
0.915740 
0.892784 
0.781831 
0.864274 
0.946717 
0.864274 
0.881307 
0.921110 
0.858535 
0.921110 
0.881307 
0.887046 
0.910001 
0.869829 
0.915556 
0.869829 
0.910001 
0.887046 
0.892784 
0.915740 
0.892784 
0.927218 
0.892784 
0.927218 
0.892784 
0.915740 
0.892784 
0.781831 
0.864274 
0.946717 
0.864274 
0.881307 
0.921110 
0.858535 
0.921110 
0.881307 
0.887046 
0.910001 
0.869829 
0.915556 
0.869829 
0.910001 
0.887046 
0.892784 
0.915740 
0.892784 
0.927218 
0.892784 
0.927218 
0.892784 
0.915740 
0.892784 
0.781831 
0.864274 
0.946717 
0.864274 
0.881307 
0.921110 
0.858535 
0.921110 
0.881307 
0.887046 
0.910001 
0.869829 
0.915556 
0.869829 
0.910001 
0.887046 
0.892784 
0.915740 
0.892784 
0.927218 
0.892784 
0.927218 
0.892784 
0.915740 
0.892784 
SCALARS DENSITY float 
LOOKUP_TABLE default 
199.782777 
200.043663 
199.896846 
200.482668 
200.052919 
200.062327 
200.088943 
199.937927 
199.585165 
200.056814 
200.071746 
199.783819 
200.217952 
200.352178 
200.167101 
200.105283 
200.625121 
200.297534 
200.304219 
199.458067 
199.946267 
200.026554 
200.161689 
199.845001 
199.982852 
199.705119 
199.995394 
199.602179 
199.691807 
199.910217 
200.548914 
200.221667 
200.241669 
200.026525 
199.872172 
200.069949 
200.016790 
200.099673 
199.468473 
199.752420 
199.803932 
199.924025 
199.911263 
200.126651 
200.116975 
200.189364 
199.548426 
199.683365 
199.552843 
199.486233 
200.202919 
199.866324 
199.901136 
199.973023 
200.072566 
199.908108 
199.985690 
200.015789 
199.838647 
199.930447 
199.934418 
199.862408 
199.930597 
200.062639 
199.968939 
199.969808 
200.260645 
199.974599 
199.963831 
199.931441 
200.069181 
200.132188 
200.004358 
199.908737 
199.922756 
200.125319 
199.794836 
199.897691 
199.794836 
200.171660 
200.200236 
200.270608 
200.200236 
200.171660 
199.849051 
200.133131 
199.941073 
199.894485 
199.941073 
200.133131 
199.849051 
200.115304 
199.945295 
199.862387 
200.042294 
200.096932 
200.042294 
199.862387 
199.945295 
200.115304 
200.202919 
199.973023 
199.901136 
199.866324 
199.838647 
200.015789 
199.985690 
199.908108 
200.072566 
199.969808 
199.968939 
200.062639 
199.930597 
199.862408 
199.934418 
199.930447 
199.922756 
199.908737 
200.004358 
200.132188 
200.069181 
199.931441 
199.963831 
199.974599 
200.260645 
199.705119 
199.691807 
199.602179 
199.995394 
200.026525 
200.241669 
200.221667 
200.548914 
199.910217 
199.803932 
199.752420 
199.468473 
200.099673 
200.016790 
200.069949 
199.872172 
199.486233 
199.552843 
199.683365 
199.548426 
200.189364 
200.116975 
200.126651 
199.911263 
199.924025 
199.782777 
200.482668 
199.896846 
200.043663 
199.585165 
199.937927 
200.088943 
200.062327 
200.052919 
200.105283 
200.167101 
200.352178 
200.217952 
199.783819 
200.071746 
200.056814 
199.982852 
199.845001 
200.161689 
200.026554 
199.946267 
199.458067 
200.304219 
200.297534 
200.625121 
SCALARS ELEM_i float 
LOOKUP_TABLE default 
182 
210 
182 
183 
210 
210 
210 
183 
183 
237 
210 
211 
211 
211 
184 
184 
238 
238 
238 
211 
212 
211 
212 
185 
185 
182 
209 
209 
209 
235 
209 
236 
209 
210 
235 
236 
236 
236 
237 
237 
237 
262 
262 
263 
263 
263 
264 
264 
237 
237 
181 
208 
208 
208 
207 
208 
208 
208 
235 
207 
207 
234 
234 
234 
235 
235 
206 
233 
233 
234 
234 
234 
261 
262 
262 
181 
181 
181 
181 
153 
180 
180 
180 
207 
152 
153 
179 
179 
179 
207 
206 
152 
152 
152 
179 
179 
179 
206 
206 
206 
181 
154 
154 
154 
127 
154 
154 
154 
153 
127 
127 
126 
126 
126 
153 
153 
100 
100 
99 
126 
126 
126 
125 
125 
152 
182 
155 
155 
155 
156 
155 
128 
155 
127 
129 
129 
129 
128 
128 
128 
127 
129 
129 
102 
102 
101 
101 
101 
100 
100 
182 
183 
182 
156 
183 
183 
156 
156 
156 
184 
184 
157 
157 
157 
156 
129 
185 
185 
158 
157 
158 
157 
130 
130 
130 
VECTORS VELOCITY float 
-0.001347 -0.470901 0.000000 
-0.014591 -0.483116 0.000000 
-0.004802 -0.288672 0.019525 
0.001812 -0.512105 0.000000 
-0.022358 -0.389390 0.000000 
-0.007342 -0.440773 0.000000 
0.014250 -0.457512 0.000000 
0.017062 -0.491467 0.000000 
0.013020 -0.242628 0.015748 
-0.016895 -0.431389 0.000000 
-0.018487 -0.383247 0.000000 
0.003282 -0.398185 0.000000 
0.012890 -0.423986 0.000000 
0.015626 -0.415738 0.000000 
0.016211 -0.438473 0.000000 
0.004585 -0.416564 0.000000 
-0.049895 -0.456997 0.000000 
-0.029182 -0.426215 0.000000 
-0.032363 -0.333299 0.000000 
0.022605 -0.383296 0.000000 
0.025663 -0.379787 0.000000 
0.018666 -0.387394 0.000000 
-0.014319 -0.384853 0.000000 
0.000950 -0.395162 0.000000 
0.000827 -0.395145 0.000000 
-0.001594 -0.434654 0.000000 
-0.008713 -0.429409 0.000000 
-0.009499 -0.434438 0.000000 
-0.019659 -0.432063 0.000000 
-0.003030 -0.089962 0.004598 
-0.018863 -0.424895 0.000000 
-0.026440 -0.365626 0.000000 
-0.038345 -0.360161 0.000000 
-0.043898 -0.330812 0.000000 
0.001431 -0.444653 0.000000 
-0.001469 -0.440957 0.000000 
0.002744 -0.368843 0.000000 
-0.009460 -0.331082 0.000000 
-0.004854 -0.276366 0.000000 
-0.022105 -0.340178 0.000000 
-0.014212 -0.417817 0.000000 
0.014556 -0.432932 0.000000 
0.005958 -0.455245 0.000000 
0.018267 -0.407055 0.000000 
0.019460 -0.352083 0.000000 
0.038383 -0.290305 0.000000 
0.027109 -0.312974 0.000000 
0.061568 -0.460103 0.000000 
0.003042 -0.526144 0.000000 
0.022162 -0.290379 0.022308 
-0.000214 -0.392368 0.000000 
-0.000376 -0.384065 0.000000 
-0.000879 -0.394287 0.000000 
-0.002296 -0.415350 0.000000 
0.001235 -0.396236 0.000000 
0.003389 -0.380730 0.000000 
0.006054 -0.389777 0.000000 
0.000398 -0.415715 0.000000 
-0.001249 -0.431549 0.000000 
-0.004267 -0.401678 0.000000 
-0.000849 -0.391247 0.000000 
0.001155 -0.381773 0.000000 
0.004943 -0.383431 0.000000 
0.003288 -0.380411 0.000000 
0.001538 -0.404532 0.000000 
0.000489 -0.412514 0.000000 
-0.008166 -0.400318 0.000000 
-0.006489 -0.383382 0.000000 
0.004995 -0.400963 0.000000 
0.004885 -0.397938 0.000000 
0.010846 -0.412293 0.000000 
0.004875 -0.391837 0.000000 
0.012753 -0.383573 0.000000 
0.006047 -0.383767 0.000000 
0.020715 -0.395095 0.000000 
-0.000000 -0.389544 0.000000 
0.000585 -0.377505 0.000000 
0.000000 -0.381255 0.000000 
-0.000585 -0.377505 0.000000 
0.000209 -0.421628 0.000000 
0.000268 -0.407658 0.000000 
0.000000 -0.435285 0.000000 
-0.000268 -0.407658 0.000000 
-0.000209 -0.421628 0.000000 
0.002625 -0.439041 0.000000 
0.000199 -0.467264 0.000000 
0.000065 -0.460393 0.000000 
-0.000000 -0.226025 0.011396 
-0.000065 -0.460393 0.000000 
-0.000199 -0.467264 0.000000 
-0.002625 -0.439041 0.000000 
0.005768 -0.411503 0.000000 
0.003463 -0.418337 0.000000 
0.001928 -0.398722 0.000000 
0.000573 -0.415455 0.000000 
0.000000 -0.391209 0.000000 
-0.000573 -0.415455 0.000000 
-0.001928 -0.398722 0.000000 
-0.003463 -0.418337 0.000000 
-0.005768 -0.411503 0.000000 
0.000214 -0.392368 0.000000 
0.002296 -0.415350 0.000000 
0.000879 -0.394287 0.000000 
0.000376 -0.384065 0.000000 
0.001249 -0.431549 0.000000 
-0.000398 -0.415715 0.000000 
-0.006054 -0.389777 0.000000 
-0.003389 -0.380730 0.000000 
-0.001235 -0.396236 0.000000 
-0.000489 -0.412514 0.000000 
-0.001538 -0.404532 0.000000 
-0.003288 -0.380411 0.000000 
-0.004943 -0.383431 0.000000 
-0.001155 -0.381773 0.000000 
0.000849 -0.391247 0.000000 
0.004267 -0.401678 0.000000 
-0.020715 -0.395095 0.000000 
-0.006047 -0.383767 0.000000 
-0.012753 -0.383573 0.000000 
-0.004875 -0.391837 0.000000 
-0.010846 -0.412293 0.000000 
-0.004885 -0.397938 0.000000 
-0.004995 -0.400963 0.000000 
0.006489 -0.383382 0.000000 
0.008166 -0.400318 0.000000 
0.001594 -0.434654 0.000000 
0.019659 -0.432063 0.000000 
0.009499 -0.434438 0.000000 
0.008713 -0.429409 0.000000 
0.043898 -0.330812 0.000000 
0.038345 -0.360161 0.000000 
0.026440 -0.365626 0.000000 
0.018863 -0.424895 0.000000 
0.003030 -0.089962 0.018194 
0.014212 -0.417817 0.000000 
0.022105 -0.340178 0.000000 
0.004854 -0.276366 0.000000 
0.009460 -0.331082 0.000000 
-0.002744 -0.368843 0.000000 
0.001469 -0.440957 0.000000 
-0.001431 -0.444653 0.000000 
-0.022162 -0.290379 0.000484 
-0.003042 -0.526144 0.000000 
-0.061568 -0.460103 0.000000 
-0.027109 -0.312974 0.000000 
-0.038383 -0.290305 0.000000 
-0.019460 -0.352083 0.000000 
-0.018267 -0.407055 0.000000 
-0.005958 -0.455245 0.000000 
-0.014556 -0.432932 0.000000 
0.001347 -0.470901 0.000000 
-0.001812 -0.512105 0.000000 
0.004802 -0.288672 0.003267 
0.014591 -0.483116 0.000000 
-0.013020 -0.242628 0.007044 
-0.017062 -0.491467 0.000000 
-0.014250 -0.457512 0.000000 
0.007342 -0.440773 0.000000 
0.022358 -0.389390 0.000000 
-0.004585 -0.416564 0.000000 
-0.016211 -0.438473 0.000000 
-0.015626 -0.415738 0.000000 
-0.012890 -0.423986 0.000000 
-0.003282 -0.398185 0.000000 
0.018487 -0.383247 0.000000 
0.016895 -0.431389 0.000000 
-0.000827 -0.395145 0.000000 
-0.000950 -0.395162 0.000000 
0.014319 -0.384853 0.000000 
-0.018666 -0.387394 0.000000 
-0.025663 -0.379787 0.000000 
-0.022605 -0.383296 0.000000 
0.032363 -0.333299 0.000000 
0.029182 -0.426215 0.000000 
0.049895 -0.456997 0.000000 
TENSORS STRESS float 
-0.006431 -0.001124 0.000000 
0.000000 0.094503 0.000000 
0.000000 0.000000 0.000000 

0.228912 0.220261 0.000000 
0.000000 0.188381 0.000000 
0.000000 0.000000 0.000000 

0.032407 -0.002875 0.000000 
0.000000 0.151466 0.000000 
0.000000 0.000000 0.000000 

-0.516106 -0.005171 0.000000 
0.000000 -0.490098 0.000000 
0.000000 0.000000 0.000000 

0.218452 0.221722 0.000000 
0.000000 0.153407 0.000000 
0.000000 0.000000 0.000000 

0.323240 0.239952 0.000000 
0.000000 0.264122 0.000000 
0.000000 0.000000 0.000000 

0.458692 0.235864 0.000000 
0.000000 0.398437 0.000000 
0.000000 0.000000 0.000000 

-0.395376 -0.011314 0.000000 
0.000000 -0.379596 0.000000 
0.000000 0.000000 0.000000 

-0.281773 -0.005523 0.000000 
0.000000 -0.274124 0.000000 
0.000000 0.000000 0.000000 

0.511936 -0.449725 0.000000 
0.000000 0.658514 0.000000 
0.000000 0.000000 0.000000 

0.304224 0.234051 0.000000 
0.000000 0.221070 0.000000 
0.000000 0.000000 0.000000 

0.698600 0.155023 0.000000 
0.000000 0.618866 0.000000 
0.000000 0.000000 0.000000 

0.826607 0.177657 0.000000 
0.000000 0.756210 0.000000 
0.000000 0.000000 0.000000 

1.025582 0.185495 0.000000 
0.000000 0.949801 0.000000 
0.000000 0.000000 0.000000 

0.582914 -0.059679 0.000000 
0.000000 0.556462 0.000000 
0.000000 0.000000 0.000000 

1.058155 -0.029199 0.000000 
0.000000 0.994689 0.000000 
0.000000 0.000000 0.000000 

-5.964894 -0.365988 0.000000 
0.000000 -6.348377 0.000000 
0.000000 0.000000 0.000000 

-3.977287 -0.393258 0.000000 
0.000000 -4.191990 0.000000 
0.000000 0.000000 0.000000 

-3.326344 -0.169119 0.000000 
0.000000 -3.445237 0.000000 
0.000000 0.000000 0.000000 

0.922746 0.168422 0.000000 
0.000000 0.812479 0.000000 
0.000000 0.000000 0.000000 

2.329112 0.284689 0.000000 
0.000000 2.311389 0.000000 
0.000000 0.000000 0.000000 

1.272256 0.201168 0.000000 
0.000000 1.166286 0.000000 
0.000000 0.000000 0.000000 

1.463594 0.285188 0.000000 
0.000000 1.349281 0.000000 
0.000000 0.000000 0.000000 

1.017677 0.030014 0.000000 
0.000000 0.855676 0.000000 
0.000000 0.000000 0.000000 

0.755746 0.014658 0.000000 
0.000000 0.616049 0.000000 
0.000000 0.000000 0.000000 

-0.029064 -0.002521 0.000000 
0.000000 0.073650 0.000000 
0.000000 0.000000 0.000000 

-1.348379 -0.004239 0.000000 
0.000000 -1.402729 0.000000 
0.000000 0.000000 0.000000 

-0.407544 0.078925 0.000000 
0.000000 -0.414979 0.000000 
0.000000 0.000000 0.000000 

-0.468018 0.143484 0.000000 
0.000000 -0.529395 0.000000 
0.000000 0.000000 0.000000 

2.468901 0.181433 0.000000 
0.000000 2.774295 0.000000 
0.000000 0.000000 0.000000 

-2.737788 -0.011003 0.000000 
0.000000 -2.919252 0.000000 
0.000000 0.000000 0.000000 

-3.259835 0.088908 0.000000 
0.000000 -3.337414 0.000000 
0.000000 0.000000 0.000000 

-1.795683 0.147374 0.000000 
0.000000 -1.984895 0.000000 
0.000000 0.000000 0.000000 

0.046597 0.208140 0.000000 
0.000000 -0.016714 0.000000 
0.000000 0.000000 0.000000 

1.173506 0.244746 0.000000 
0.000000 1.352390 0.000000 
0.000000 0.000000 0.000000 

-2.129603 0.201762 0.000000 
0.000000 -2.187223 0.000000 
0.000000 0.000000 0.000000 

-2.066034 0.165202 0.000000 
0.000000 -2.065641 0.000000 
0.000000 0.000000 0.000000 

-2.880104 0.117949 0.000000 
0.000000 -2.895651 0.000000 
0.000000 0.000000 0.000000 

2.866889 -0.027173 0.000000 
0.000000 3.370904 0.000000 
0.000000 0.000000 0.000000 

0.910379 -0.121307 0.000000 
0.000000 1.218745 0.000000 
0.000000 0.000000 0.000000 

1.787387 -0.300370 0.000000 
0.000000 2.101409 0.000000 
0.000000 0.000000 0.000000 

1.097767 0.127175 0.000000 
0.000000 1.119419 0.000000 
0.000000 0.000000 0.000000 

1.300393 0.152520 0.000000 
0.000000 1.351463 0.000000 
0.000000 0.000000 0.000000 

-0.754604 0.147546 0.000000 
0.000000 -0.820710 0.000000 
0.000000 0.000000 0.000000 

-1.045732 0.133080 0.000000 
0.000000 -1.093985 0.000000 
0.000000 0.000000 0.000000 

-1.360631 0.141728 0.000000 
0.000000 -1.380041 0.000000 
0.000000 0.000000 0.000000 

4.453527 0.077607 0.000000 
0.000000 4.966229 0.000000 
0.000000 0.000000 0.000000 

2.817468 0.340695 0.000000 
0.000000 3.251452 0.000000 
0.000000 0.000000 0.000000 

5.171313 -0.419321 0.000000 
0.000000 5.750510 0.000000 
0.000000 0.000000 0.000000 

6.164921 -0.454473 0.000000 
0.000000 6.758546 0.000000 
0.000000 0.000000 0.000000 

0.453416 -0.010722 0.000000 
0.000000 0.606842 0.000000 
0.000000 0.000000 0.000000 

1.232839 0.109519 0.000000 
0.000000 1.390613 0.000000 
0.000000 0.000000 0.000000 

1.314177 0.048243 0.000000 
0.000000 1.499226 0.000000 
0.000000 0.000000 0.000000 

1.932806 0.031488 0.000000 
0.000000 2.166814 0.000000 
0.000000 0.000000 0.000000 

-0.158647 0.170829 0.000000 
0.000000 -0.123954 0.000000 
0.000000 0.000000 0.000000 

2.242378 0.181383 0.000000 
0.000000 2.475759 0.000000 
0.000000 0.000000 0.000000 

2.927969 0.163586 0.000000 
0.000000 3.217989 0.000000 
0.000000 0.000000 0.000000 

2.994210 0.097471 0.000000 
0.000000 3.309491 0.000000 
0.000000 0.000000 0.000000 

3.050238 0.161360 0.000000 
0.000000 3.361097 0.000000 
0.000000 0.000000 0.000000 

-0.161208 0.178373 0.000000 
0.000000 -0.118549 0.000000 
0.000000 0.000000 0.000000 

-0.128494 0.178236 0.000000 
0.000000 -0.085815 0.000000 
0.000000 0.000000 0.000000 

0.574319 0.025028 0.000000 
0.000000 0.565884 0.000000 
0.000000 0.000000 0.000000 

0.354774 0.029770 0.000000 
0.000000 0.364833 0.000000 
0.000000 0.000000 0.000000 

0.245896 0.046251 0.000000 
0.000000 0.258581 0.000000 
0.000000 0.000000 0.000000 

2.457347 0.127736 0.000000 
0.000000 2.690407 0.000000 
0.000000 0.000000 0.000000 

1.625630 0.165183 0.000000 
0.000000 1.802534 0.000000 
0.000000 0.000000 0.000000 

-0.643669 0.099677 0.000000 
0.000000 -0.562229 0.000000 
0.000000 0.000000 0.000000 

1.218548 -0.053016 0.000000 
0.000000 1.150633 0.000000 
0.000000 0.000000 0.000000 

0.868245 0.007528 0.000000 
0.000000 0.784846 0.000000 
0.000000 0.000000 0.000000 

0.781571 0.043745 0.000000 
0.000000 0.755373 0.000000 
0.000000 0.000000 0.000000 

0.671287 0.061909 0.000000 
0.000000 0.648018 0.000000 
0.000000 0.000000 0.000000 

0.430649 0.066382 0.000000 
0.000000 0.427021 0.000000 
0.000000 0.000000 0.000000 

0.929578 0.030755 0.000000 
0.000000 0.903469 0.000000 
0.000000 0.000000 0.000000 

1.814621 0.061676 0.000000 
0.000000 1.863837 0.000000 
0.000000 0.000000 0.000000 

1.349228 0.082757 0.000000 
0.000000 1.369974 0.000000 
0.000000 0.000000 0.000000 

0.386550 0.000000 0.000000 
0.000000 0.545193 0.000000 
0.000000 0.000000 0.000000 

0.111486 0.010927 0.000000 
0.000000 0.311496 0.000000 
0.000000 0.000000 0.000000 

0.229987 0.000000 0.000000 
0.000000 0.440660 0.000000 
0.000000 0.000000 0.000000 

0.111486 -0.010927 0.000000 
0.000000 0.311496 0.000000 
0.000000 0.000000 0.000000 

-0.228707 -0.175189 0.000000 
0.000000 -0.197698 0.000000 
0.000000 0.000000 0.000000 

-1.308603 0.008282 0.000000 
0.000000 -1.195769 0.000000 
0.000000 0.000000 0.000000 

-1.307479 -0.000000 0.000000 
0.000000 -1.195563 0.000000 
0.000000 0.000000 0.000000 

-1.308604 -0.008282 0.000000 
0.000000 -1.195769 0.000000 
0.000000 0.000000 0.000000 

-0.228707 0.175189 0.000000 
0.000000 -0.197698 0.000000 
0.000000 0.000000 0.000000 

0.143448 -0.167248 0.000000 
0.000000 0.223935 0.000000 
0.000000 0.000000 0.000000 

-0.273751 -0.187240 0.000000 
0.000000 -0.238707 0.000000 
0.000000 0.000000 0.000000 

-0.812011 0.002764 0.000000 
0.000000 -0.627377 0.000000 
0.000000 0.000000 0.000000 

-0.828516 -0.000000 0.000000 
0.000000 -0.636160 0.000000 
0.000000 0.000000 0.000000 

-0.812011 -0.002764 0.000000 
0.000000 -0.627377 0.000000 
0.000000 0.000000 0.000000 

-0.273751 0.187240 0.000000 
0.000000 -0.238707 0.000000 
0.000000 0.000000 0.000000 

0.143448 0.167248 0.000000 
0.000000 0.223935 0.000000 
0.000000 0.000000 0.000000 

-0.601152 -0.117583 0.000000 
0.000000 -0.489877 0.000000 
0.000000 0.000000 0.000000 

-0.314420 -0.148841 0.000000 
0.000000 -0.196405 0.000000 
0.000000 0.000000 0.000000 

-0.431792 -0.151338 0.000000 
0.000000 -0.280550 0.000000 
0.000000 0.000000 0.000000 

-0.923132 0.002951 0.000000 
0.000000 -0.721956 0.000000 
0.000000 0.000000 0.000000 

-0.918722 0.000000 0.000000 
0.000000 -0.722753 0.000000 
0.000000 0.000000 0.000000 

-0.923132 -0.002951 0.000000 
0.000000 -0.721956 0.000000 
0.000000 0.000000 0.000000 

-0.431792 0.151338 0.000000 
0.000000 -0.280550 0.000000 
0.000000 0.000000 0.000000 

-0.314420 0.148841 0.000000 
0.000000 -0.196405 0.000000 
0.000000 0.000000 0.000000 

-0.601152 0.117583 0.000000 
0.000000 -0.489877 0.000000 
0.000000 0.000000 0.000000 

0.453416 0.010722 0.000000 
0.000000 0.606842 0.000000 
0.000000 0.000000 0.000000 

1.932806 -0.031488 0.000000 
0.000000 2.166814 0.000000 
0.000000 0.000000 0.000000 

1.314177 -0.048243 0.000000 
0.000000 1.499226 0.000000 
0.000000 0.000000 0.000000 

1.232839 -0.109519 0.000000 
0.000000 1.390613 0.000000 
0.000000 0.000000 0.000000 

3.050238 -0.161360 0.000000 
0.000000 3.361097 0.000000 
0.000000 0.000000 0.000000 

2.994210 -0.097471 0.000000 
0.000000 3.309491 0.000000 
0.000000 0.000000 0.000000 

2.927969 -0.163586 0.000000 
0.000000 3.217989 0.000000 
0.000000 0.000000 0.000000 

2.242378 -0.181383 0.000000 
0.000000 2.475759 0.000000 
0.000000 0.000000 0.000000 

-0.158647 -0.170829 0.000000 
0.000000 -0.123954 0.000000 
0.000000 0.000000 0.000000 

1.625630 -0.165183 0.000000 
0.000000 1.802534 0.000000 
0.000000 0.000000 0.000000 

2.457347 -0.127736 0.000000 
0.000000 2.690407 0.000000 
0.000000 0.000000 0.000000 

0.245896 -0.046251 0.000000 
0.000000 0.258581 0.000000 
0.000000 0.000000 0.000000 

0.354774 -0.029770 0.000000 
0.000000 0.364833 0.000000 
0.000000 0.000000 0.000000 

0.574319 -0.025028 0.000000 
0.000000 0.565884 0.000000 
0.000000 0.000000 0.000000 

-0.128494 -0.178236 0.000000 
0.000000 -0.085815 0.000000 
0.000000 0.000000 0.000000 

-0.161208 -0.178373 0.000000 
0.000000 -0.118549 0.000000 
0.000000 0.000000 0.000000 

1.349228 -0.082757 0.000000 
0.000000 1.369974 0.000000 
0.000000 0.000000 0.000000 

1.814621 -0.061676 0.000000 
0.000000 1.863837 0.000000 
0.000000 0.000000 0.000000 

0.929578 -0.030755 0.000000 
0.000000 0.903469 0.000000 
0.000000 0.000000 0.000000 

0.430649 -0.066382 0.000000 
0.000000 0.427021 0.000000 
0.000000 0.000000 0.000000 

0.671287 -0.061909 0.000000 
0.000000 0.648018 0.000000 
0.000000 0.000000 0.000000 

0.781571 -0.043745 0.000000 
0.000000 0.755373 0.000000 
0.000000 0.000000 0.000000 

0.868245 -0.007528 0.000000 
0.000000 0.784846 0.000000 
0.000000 0.000000 0.000000 

1.218548 0.053016 0.000000 
0.000000 1.150633 0.000000 
0.000000 0.000000 0.000000 

-0.643669 -0.099677 0.000000 
0.000000 -0.562229 0.000000 
0.000000 0.000000 0.000000 

-0.029064 0.002521 0.000000 
0.000000 0.073650 0.000000 
0.000000 0.000000 0.000000 

-0.468018 -0.143484 0.000000 
0.000000 -0.529395 0.000000 
0.000000 0.000000 0.000000 

-0.407544 -0.078925 0.000000 
0.000000 -0.414979 0.000000 
0.000000 0.000000 0.000000 

-1.348379 0.004239 0.000000 
0.000000 -1.402729 0.000000 
0.000000 0.000000 0.000000 

0.046597 -0.208140 0.000000 
0.000000 -0.016714 0.000000 
0.000000 0.000000 0.000000 

-1.795683 -0.147374 0.000000 
0.000000 -1.984895 0.000000 
0.000000 0.000000 0.000000 

-3.259835 -0.088908 0.000000 
0.000000 -3.337414 0.000000 
0.000000 0.000000 0.000000 

-2.737788 0.011003 0.000000 
0.000000 -2.919252 0.000000 
0.000000 0.000000 0.000000 

2.468901 -0.181433 0.000000 
0.000000 2.774295 0.000000 
0.000000 0.000000 0.000000 

1.787387 0.300370 0.000000 
0.000000 2.101409 0.000000 
0.000000 0.000000 0.000000 

0.910379 0.121307 0.000000 
0.000000 1.218745 0.000000 
0.000000 0.000000 0.000000 

2.866889 0.027173 0.000000 
0.000000 3.370904 0.000000 
0.000000 0.000000 0.000000 

-2.880104 -0.117949 0.000000 
0.000000 -2.895651 0.000000 
0.000000 0.000000 0.000000 

-2.066034 -0.165202 0.000000 
0.000000 -2.065641 0.000000 
0.000000 0.000000 0.000000 

-2.129603 -0.201762 0.000000 
0.000000 -2.187223 0.000000 
0.000000 0.000000 0.000000 

1.173506 -0.244746 0.000000 
0.000000 1.352390 0.000000 
0.000000 0.000000 0.000000 

6.164921 0.454473 0.000000 
0.000000 6.758546 0.000000 
0.000000 0.000000 0.000000 

5.171313 0.419321 0.000000 
0.000000 5.750510 0.000000 
0.000000 0.000000 0.000000 

2.817468 -0.340695 0.000000 
0.000000 3.251452 0.000000 
0.000000 0.000000 0.000000 

4.453527 -0.077607 0.000000 
0.000000 4.966229 0.000000 
0.000000 0.000000 0.000000 

-1.360631 -0.141728 0.000000 
0.000000 -1.380041 0.000000 
0.000000 0.000000 0.000000 

-1.045732 -0.133080 0.000000 
0.000000 -1.093985 0.000000 
0.000000 0.000000 0.000000 

-0.754604 -0.147546 0.000000 
0.000000 -0.820710 0.000000 
0.000000 0.000000 0.000000 

1.300393 -0.152520 0.000000 
0.000000 1.351463 0.000000 
0.000000 0.000000 0.000000 

1.097767 -0.127175 0.000000 
0.000000 1.119419 0.000000 
0.000000 0.000000 0.000000 

-0.006431 0.001124 0.000000 
0.000000 0.094503 0.000000 
0.000000 0.000000 0.000000 

-0.516106 0.005171 0.000000 
0.000000 -0.490098 0.000000 
0.000000 0.000000 0.000000 

0.032407 0.002875 0.000000 
0.000000 0.151466 0.000000 
0.000000 0.000000 0.000000 

0.228912 -0.220261 0.000000 
0.000000 0.188381 0.000000 
0.000000 0.000000 0.000000 

-0.281773 0.005523 0.000000 
0.000000 -0.274124 0.000000 
0.000000 0.000000 0.000000 

-0.395376 0.011314 0.000000 
0.000000 -0.379596 0.000000 
0.000000 0.000000 0.000000 

0.458692 -0.235864 0.000000 
0.000000 0.398437 0.000000 
0.000000 0.000000 0.000000 

0.323240 -0.239952 0.000000 
0.000000 0.264122 0.000000 
0.000000 0.000000 0.000000 

0.218452 -0.221722 0.000000 
0.000000 0.153407 0.000000 
0.000000 0.000000 0.000000 

1.058155 0.029199 0.000000 
0.000000 0.994689 0.000000 
0.000000 0.000000 0.000000 

0.582914 0.059679 0.000000 
0.000000 0.556462 0.000000 
0.000000 0.000000 0.000000 

1.025582 -0.185495 0.000000 
0.000000 0.949801 0.000000 
0.000000 0.000000 0.000000 

0.826607 -0.177657 0.000000 
0.000000 0.756210 0.000000 
0.000000 0.000000 0.000000 

0.698600 -0.155023 0.000000 
0.000000 0.618866 0.000000 
0.000000 0.000000 0.000000 

0.304224 -0.234051 0.000000 
0.000000 0.221070 0.000000 
0.000000 0.000000 0.000000 

0.511936 0.449725 0.000000 
0.000000 0.658514 0.000000 
0.000000 0.000000 0.000000 

0.755746 -0.014658 0.000000 
0.000000 0.616049 0.000000 
0.000000 0.000000 0.000000 

1.017677 -0.030014 0.000000 
0.000000 0.855676 0.000000 
0.000000 0.000000 0.000000 

1.463594 -0.285188 0.000000 
0.000000 1.349281 0.000000 
0.000000 0.000000 0.000000 

1.272256 -0.201168 0.000000 
0.000000 1.166286 0.000000 
0.000000 0.000000 0.000000 

2.329112 -0.284689 0.000000 
0.000000 2.311389 0.000000 
0.000000 0.000000 0.000000 

0.922746 -0.168422 0.000000 
0.000000 0.812479 0.000000 
0.000000 0.000000 0.000000 

-3.326344 0.169119 0.000000 
0.000000 -3.445237 0.000000 
0.000000 0.000000 0.000000 

-3.977287 0.393258 0.000000 
0.000000 -4.191990 0.000000 
0.000000 0.000000 0.000000 

-5.964894 0.365988 0.000000 
0.000000 -6.348377 0.000000 
0.000000 0.000000 0.000000 

TENSORS STRAIN float 
-0.000184 -0.000004 0.000000 
0.000000 0.000198 0.000000 
0.000000 0.000000 0.000000 

0.000098 0.000755 0.000000 
0.000000 -0.000041 0.000000 
0.000000 0.000000 0.000000 

-0.000175 -0.000009 0.000000 
0.000000 0.000198 0.000000 
0.000000 0.000000 0.000000 

-0.000114 -0.000018 0.000000 
0.000000 -0.000024 0.000000 
0.000000 0.000000 0.000000 

0.000134 0.000745 0.000000 
0.000000 -0.000084 0.000000 
0.000000 0.000000 0.000000 

0.000133 0.000771 0.000000 
0.000000 -0.000057 0.000000 
0.000000 0.000000 0.000000 

0.000163 0.000814 0.000000 
0.000000 -0.000045 0.000000 
0.000000 0.000000 0.000000 

-0.000075 -0.000036 0.000000 
0.000000 -0.000024 0.000000 
0.000000 0.000000 0.000000 

-0.000050 -0.000019 0.000000 
0.000000 -0.000024 0.000000 
0.000000 0.000000 0.000000 

-0.000166 -0.001501 0.000000 
0.000000 0.000323 0.000000 
0.000000 0.000000 0.000000 

0.000169 0.000762 0.000000 
0.000000 -0.000101 0.000000 
0.000000 0.000000 0.000000 

0.000225 0.000527 0.000000 
0.000000 -0.000046 0.000000 
0.000000 0.000000 0.000000 

0.000216 0.000575 0.000000 
0.000000 -0.000011 0.000000 
0.000000 0.000000 0.000000 

0.000264 0.000632 0.000000 
0.000000 0.000006 0.000000 
0.000000 0.000000 0.000000 

0.000117 -0.000194 0.000000 
0.000000 0.000031 0.000000 
0.000000 0.000000 0.000000 

0.000243 -0.000097 0.000000 
0.000000 0.000031 0.000000 
0.000000 0.000000 0.000000 

-0.000181 -0.001217 0.000000 
0.000000 -0.001457 0.000000 
0.000000 0.000000 0.000000 

-0.000181 -0.001273 0.000000 
0.000000 -0.000876 0.000000 
0.000000 0.000000 0.000000 

-0.000252 -0.000562 0.000000 
0.000000 -0.000647 0.000000 
0.000000 0.000000 0.000000 

0.000286 0.000536 0.000000 
0.000000 -0.000065 0.000000 
0.000000 0.000000 0.000000 

0.000337 0.000944 0.000000 
0.000000 0.000278 0.000000 
0.000000 0.000000 0.000000 

0.000325 0.000642 0.000000 
0.000000 -0.000013 0.000000 
0.000000 0.000000 0.000000 

0.000376 0.000946 0.000000 
0.000000 -0.000003 0.000000 
0.000000 0.000000 0.000000 

0.000383 0.000097 0.000000 
0.000000 -0.000141 0.000000 
0.000000 0.000000 0.000000 

0.000323 0.000049 0.000000 
0.000000 -0.000141 0.000000 
0.000000 0.000000 0.000000 

-0.000191 -0.000010 0.000000 
0.000000 0.000198 0.000000 
0.000000 0.000000 0.000000 

-0.000095 -0.000015 0.000000 
0.000000 -0.000282 0.000000 
0.000000 0.000000 0.000000 

-0.000040 0.000246 0.000000 
0.000000 -0.000063 0.000000 
0.000000 0.000000 0.000000 

0.000037 0.000491 0.000000 
0.000000 -0.000173 0.000000 
0.000000 0.000000 0.000000 

-0.000161 0.000609 0.000000 
0.000000 0.000865 0.000000 
0.000000 0.000000 0.000000 

-0.000072 -0.000035 0.000000 
0.000000 -0.000657 0.000000 
0.000000 0.000000 0.000000 

-0.000322 0.000307 0.000000 
0.000000 -0.000589 0.000000 
0.000000 0.000000 0.000000 

0.000061 0.000474 0.000000 
0.000000 -0.000548 0.000000 
0.000000 0.000000 0.000000 

0.000108 0.000699 0.000000 
0.000000 -0.000104 0.000000 
0.000000 0.000000 0.000000 

-0.000130 0.000816 0.000000 
0.000000 0.000467 0.000000 
0.000000 0.000000 0.000000 

-0.000187 0.000657 0.000000 
0.000000 -0.000375 0.000000 
0.000000 0.000000 0.000000 

-0.000282 0.000562 0.000000 
0.000000 -0.000281 0.000000 
0.000000 0.000000 0.000000 

-0.000349 0.000382 0.000000 
0.000000 -0.000399 0.000000 
0.000000 0.000000 0.000000 

-0.000432 -0.000092 0.000000 
0.000000 0.001279 0.000000 
0.000000 0.000000 0.000000 

-0.000363 -0.000394 0.000000 
0.000000 0.000639 0.000000 
0.000000 0.000000 0.000000 

-0.000264 -0.001001 0.000000 
0.000000 0.000783 0.000000 
0.000000 0.000000 0.000000 

0.000111 0.000421 0.000000 
0.000000 0.000183 0.000000 
0.000000 0.000000 0.000000 

0.000089 0.000493 0.000000 
0.000000 0.000254 0.000000 
0.000000 0.000000 0.000000 

0.000005 0.000489 0.000000 
0.000000 -0.000214 0.000000 
0.000000 0.000000 0.000000 

-0.000060 0.000425 0.000000 
0.000000 -0.000214 0.000000 
0.000000 0.000000 0.000000 

-0.000150 0.000470 0.000000 
0.000000 -0.000214 0.000000 
0.000000 0.000000 0.000000 

-0.000216 0.000247 0.000000 
0.000000 0.001417 0.000000 
0.000000 0.000000 0.000000 

-0.000317 0.001128 0.000000 
0.000000 0.001120 0.000000 
0.000000 0.000000 0.000000 

-0.000230 -0.001352 0.000000 
0.000000 0.001638 0.000000 
0.000000 0.000000 0.000000 

-0.000127 -0.001503 0.000000 
0.000000 0.001836 0.000000 
0.000000 0.000000 0.000000 

-0.000210 -0.000041 0.000000 
0.000000 0.000371 0.000000 
0.000000 0.000000 0.000000 

-0.000090 0.000375 0.000000 
0.000000 0.000450 0.000000 
0.000000 0.000000 0.000000 

-0.000113 0.000151 0.000000 
0.000000 0.000465 0.000000 
0.000000 0.000000 0.000000 

-0.000120 0.000108 0.000000 
0.000000 0.000681 0.000000 
0.000000 0.000000 0.000000 

-0.000077 0.000574 0.000000 
0.000000 0.000039 0.000000 
0.000000 0.000000 0.000000 

-0.000072 0.000583 0.000000 
0.000000 0.000678 0.000000 
0.000000 0.000000 0.000000 

-0.000076 0.000564 0.000000 
0.000000 0.000924 0.000000 
0.000000 0.000000 0.000000 

-0.000101 0.000313 0.000000 
0.000000 0.000912 0.000000 
0.000000 0.000000 0.000000 

-0.000091 0.000542 0.000000 
0.000000 0.000952 0.000000 
0.000000 0.000000 0.000000 

-0.000090 0.000595 0.000000 
0.000000 0.000052 0.000000 
0.000000 0.000000 0.000000 

-0.000083 0.000580 0.000000 
0.000000 0.000055 0.000000 
0.000000 0.000000 0.000000 

0.000092 0.000085 0.000000 
0.000000 0.000063 0.000000 
0.000000 0.000000 0.000000 

0.000030 0.000096 0.000000 
0.000000 0.000063 0.000000 
0.000000 0.000000 0.000000 

0.000013 0.000157 0.000000 
0.000000 0.000056 0.000000 
0.000000 0.000000 0.000000 

-0.000044 0.000415 0.000000 
0.000000 0.000714 0.000000 
0.000000 0.000000 0.000000 

-0.000066 0.000551 0.000000 
0.000000 0.000524 0.000000 
0.000000 0.000000 0.000000 

-0.000215 0.000331 0.000000 
0.000000 0.000055 0.000000 
0.000000 0.000000 0.000000 

0.000263 -0.000171 0.000000 
0.000000 0.000043 0.000000 
0.000000 0.000000 0.000000 

0.000248 0.000025 0.000000 
0.000000 -0.000029 0.000000 
0.000000 0.000000 0.000000 

0.000140 0.000140 0.000000 
0.000000 0.000056 0.000000 
0.000000 0.000000 0.000000 

0.000126 0.000205 0.000000 
0.000000 0.000049 0.000000 
0.000000 0.000000 0.000000 

0.000061 0.000212 0.000000 
0.000000 0.000049 0.000000 
0.000000 0.000000 0.000000 

0.000165 0.000102 0.000000 
0.000000 0.000078 0.000000 
0.000000 0.000000 0.000000 

0.000158 0.000199 0.000000 
0.000000 0.000317 0.000000 
0.000000 0.000000 0.000000 

0.000146 0.000274 0.000000 
0.000000 0.000215 0.000000 
0.000000 0.000000 0.000000 

-0.000230 0.000000 0.000000 
0.000000 0.000371 0.000000 
0.000000 0.000000 0.000000 

-0.000313 0.000037 0.000000 
0.000000 0.000371 0.000000 
0.000000 0.000000 0.000000 

-0.000287 0.000000 0.000000 
0.000000 0.000371 0.000000 
0.000000 0.000000 0.000000 

-0.000313 -0.000037 0.000000 
0.000000 0.000371 0.000000 
0.000000 0.000000 0.000000 

-0.000081 -0.000589 0.000000 
0.000000 0.000023 0.000000 
0.000000 0.000000 0.000000 

-0.000343 0.000027 0.000000 
0.000000 0.000020 0.000000 
0.000000 0.000000 0.000000 

-0.000366 -0.000000 0.000000 
0.000000 0.000020 0.000000 
0.000000 0.000000 0.000000 

-0.000343 -0.000027 0.000000 
0.000000 0.000020 0.000000 
0.000000 0.000000 0.000000 

-0.000081 0.000589 0.000000 
0.000000 0.000023 0.000000 
0.000000 0.000000 0.000000 

-0.000110 -0.000558 0.000000 
0.000000 0.000159 0.000000 
0.000000 0.000000 0.000000 

-0.000090 -0.000609 0.000000 
0.000000 0.000024 0.000000 
0.000000 0.000000 0.000000 

-0.000412 0.000009 0.000000 
0.000000 0.000216 0.000000 
0.000000 0.000000 0.000000 

-0.000405 -0.000000 0.000000 
0.000000 0.000216 0.000000 
0.000000 0.000000 0.000000 

-0.000412 -0.000009 0.000000 
0.000000 0.000216 0.000000 
0.000000 0.000000 0.000000 

-0.000090 0.000609 0.000000 
0.000000 0.000024 0.000000 
0.000000 0.000000 0.000000 

-0.000110 0.000558 0.000000 
0.000000 0.000159 0.000000 
0.000000 0.000000 0.000000 

-0.000257 -0.000390 0.000000 
0.000000 0.000112 0.000000 
0.000000 0.000000 0.000000 

-0.000224 -0.000481 0.000000 
0.000000 0.000158 0.000000 
0.000000 0.000000 0.000000 

-0.000298 -0.000501 0.000000 
0.000000 0.000203 0.000000 
0.000000 0.000000 0.000000 

-0.000426 0.000009 0.000000 
0.000000 0.000216 0.000000 
0.000000 0.000000 0.000000 

-0.000434 0.000000 0.000000 
0.000000 0.000216 0.000000 
0.000000 0.000000 0.000000 

-0.000426 -0.000009 0.000000 
0.000000 0.000216 0.000000 
0.000000 0.000000 0.000000 

-0.000298 0.000501 0.000000 
0.000000 0.000203 0.000000 
0.000000 0.000000 0.000000 

-0.000224 0.000481 0.000000 
0.000000 0.000158 0.000000 
0.000000 0.000000 0.000000 

-0.000257 0.000390 0.000000 
0.000000 0.000112 0.000000 
0.000000 0.000000 0.000000 

-0.000210 0.000041 0.000000 
0.000000 0.000371 0.000000 
0.000000 0.000000 0.000000 

-0.000120 -0.000108 0.000000 
0.000000 0.000681 0.000000 
0.000000 0.000000 0.000000 

-0.000113 -0.000151 0.000000 
0.000000 0.000465 0.000000 
0.000000 0.000000 0.000000 

-0.000090 -0.000375 0.000000 
0.000000 0.000450 0.000000 
0.000000 0.000000 0.000000 

-0.000091 -0.000542 0.000000 
0.000000 0.000952 0.000000 
0.000000 0.000000 0.000000 

-0.000101 -0.000313 0.000000 
0.000000 0.000912 0.000000 
0.000000 0.000000 0.000000 

-0.000076 -0.000564 0.000000 
0.000000 0.000924 0.000000 
0.000000 0.000000 0.000000 

-0.000072 -0.000583 0.000000 
0.000000 0.000678 0.000000 
0.000000 0.000000 0.000000 

-0.000077 -0.000574 0.000000 
0.000000 0.000039 0.000000 
0.000000 0.000000 0.000000 

-0.000066 -0.000551 0.000000 
0.000000 0.000524 0.000000 
0.000000 0.000000 0.000000 

-0.000044 -0.000415 0.000000 
0.000000 0.000714 0.000000 
0.000000 0.000000 0.000000 

0.000013 -0.000157 0.000000 
0.000000 0.000056 0.000000 
0.000000 0.000000 0.000000 

0.000030 -0.000096 0.000000 
0.000000 0.000063 0.000000 
0.000000 0.000000 0.000000 

0.000092 -0.000085 0.000000 
0.000000 0.000063 0.000000 
0.000000 0.000000 0.000000 

-0.000083 -0.000580 0.000000 
0.000000 0.000055 0.000000 
0.000000 0.000000 0.000000 

-0.000090 -0.000595 0.000000 
0.000000 0.000052 0.000000 
0.000000 0.000000 0.000000 

0.000146 -0.000274 0.000000 
0.000000 0.000215 0.000000 
0.000000 0.000000 0.000000 

0.000158 -0.000199 0.000000 
0.000000 0.000317 0.000000 
0.000000 0.000000 0.000000 

0.000165 -0.000102 0.000000 
0.000000 0.000078 0.000000 
0.000000 0.000000 0.000000 

0.000061 -0.000212 0.000000 
0.000000 0.000049 0.000000 
0.000000 0.000000 0.000000 

0.000126 -0.000205 0.000000 
0.000000 0.000049 0.000000 
0.000000 0.000000 0.000000 

0.000140 -0.000140 0.000000 
0.000000 0.000056 0.000000 
0.000000 0.000000 0.000000 

0.000248 -0.000025 0.000000 
0.000000 -0.000029 0.000000 
0.000000 0.000000 0.000000 

0.000263 0.000171 0.000000 
0.000000 0.000043 0.000000 
0.000000 0.000000 0.000000 

-0.000215 -0.000331 0.000000 
0.000000 0.000055 0.000000 
0.000000 0.000000 0.000000 

-0.000191 0.000010 0.000000 
0.000000 0.000198 0.000000 
0.000000 0.000000 0.000000 

0.000037 -0.000491 0.000000 
0.000000 -0.000173 0.000000 
0.000000 0.000000 0.000000 

-0.000040 -0.000246 0.000000 
0.000000 -0.000063 0.000000 
0.000000 0.000000 0.000000 

-0.000095 0.000015 0.000000 
0.000000 -0.000282 0.000000 
0.000000 0.000000 0.000000 

0.000108 -0.000699 0.000000 
0.000000 -0.000104 0.000000 
0.000000 0.000000 0.000000 

0.000061 -0.000474 0.000000 
0.000000 -0.000548 0.000000 
0.000000 0.000000 0.000000 

-0.000322 -0.000307 0.000000 
0.000000 -0.000589 0.000000 
0.000000 0.000000 0.000000 

-0.000072 0.000035 0.000000 
0.000000 -0.000657 0.000000 
0.000000 0.000000 0.000000 

-0.000161 -0.000609 0.000000 
0.000000 0.000865 0.000000 
0.000000 0.000000 0.000000 

-0.000264 0.001001 0.000000 
0.000000 0.000783 0.000000 
0.000000 0.000000 0.000000 

-0.000363 0.000394 0.000000 
0.000000 0.000639 0.000000 
0.000000 0.000000 0.000000 

-0.000432 0.000092 0.000000 
0.000000 0.001279 0.000000 
0.000000 0.000000 0.000000 

-0.000349 -0.000382 0.000000 
0.000000 -0.000399 0.000000 
0.000000 0.000000 0.000000 

-0.000282 -0.000562 0.000000 
0.000000 -0.000281 0.000000 
0.000000 0.000000 0.000000 

-0.000187 -0.000657 0.000000 
0.000000 -0.000375 0.000000 
0.000000 0.000000 0.000000 

-0.000130 -0.000816 0.000000 
0.000000 0.000467 0.000000 
0.000000 0.000000 0.000000 

-0.000127 0.001503 0.000000 
0.000000 0.001836 0.000000 
0.000000 0.000000 0.000000 

-0.000230 0.001352 0.000000 
0.000000 0.001638 0.000000 
0.000000 0.000000 0.000000 

-0.000317 -0.001128 0.000000 
0.000000 0.001120 0.000000 
0.000000 0.000000 0.000000 

-0.000216 -0.000247 0.000000 
0.000000 0.001417 0.000000 
0.000000 0.000000 0.000000 

-0.000150 -0.000470 0.000000 
0.000000 -0.000214 0.000000 
0.000000 0.000000 0.000000 

-0.000060 -0.000425 0.000000 
0.000000 -0.000214 0.000000 
0.000000 0.000000 0.000000 

0.000005 -0.000489 0.000000 
0.000000 -0.000214 0.000000 
0.000000 0.000000 0.000000 

0.000089 -0.000493 0.000000 
0.000000 0.000254 0.000000 
0.000000 0.000000 0.000000 

0.000111 -0.000421 0.000000 
0.000000 0.000183 0.000000 
0.000000 0.000000 0.000000 

-0.000184 0.000004 0.000000 
0.000000 0.000198 0.000000 
0.000000 0.000000 0.000000 

-0.000114 0.000018 0.000000 
0.000000 -0.000024 0.000000 
0.000000 0.000000 0.000000 

-0.000175 0.000009 0.000000 
0.000000 0.000198 0.000000 
0.000000 0.000000 0.000000 

0.000098 -0.000755 0.000000 
0.000000 -0.000041 0.000000 
0.000000 0.000000 0.000000 
