# vtk DataFile Version 3.0 
vtk output 
ASCII 
DATASET UNSTRUCTURED_GRID 
POINTS 175 float 
-0.026061 -0.741314 0.000000 
-0.106992 -0.673259 0.000000 
-0.054870 -0.681491 0.000000 
-0.028809 -0.635608 0.000000 
-0.186430 -0.609183 0.000000 
-0.137056 -0.611709 0.000000 
-0.114311 -0.558062 0.000000 
-0.058186 -0.573728 0.000000 
-0.029377 -0.533551 0.000000 
-0.265318 -0.546027 0.000000 
-0.217198 -0.546827 0.000000 
-0.196633 -0.489531 0.000000 
-0.143120 -0.498239 0.000000 
-0.116563 -0.450971 0.000000 
-0.058945 -0.470616 0.000000 
-0.029568 -0.432496 0.000000 
-0.344206 -0.482872 0.000000 
-0.296791 -0.482865 0.000000 
-0.278030 -0.422922 0.000000 
-0.225992 -0.428788 0.000000 
-0.201664 -0.376671 0.000000 
-0.145749 -0.390145 0.000000 
-0.117890 -0.345802 0.000000 
-0.059328 -0.368508 0.000000 
-0.029759 -0.331442 0.000000 
-0.058559 -0.782065 0.000000 
-0.162226 -0.802908 0.000000 
-0.123292 -0.767290 0.000000 
-0.142917 -0.718307 0.000000 
-0.261851 -0.825064 0.000000 
-0.229092 -0.788037 0.000000 
-0.256854 -0.736805 0.000000 
-0.209613 -0.702693 0.000000 
-0.223062 -0.655119 0.000000 
-0.360414 -0.847364 0.000000 
-0.329787 -0.810241 0.000000 
-0.361761 -0.758439 0.000000 
-0.321587 -0.722030 0.000000 
-0.341985 -0.671796 0.000000 
-0.290702 -0.638997 0.000000 
-0.302189 -0.592262 0.000000 
-0.458977 -0.869664 0.000000 
-0.429420 -0.832589 0.000000 
-0.464588 -0.780548 0.000000 
-0.427556 -0.743520 0.000000 
-0.453135 -0.692005 0.000000 
-0.407738 -0.656690 0.000000 
-0.425037 -0.607262 0.000000 
-0.370772 -0.575633 0.000000 
-0.381315 -0.529405 0.000000 
-0.046960 -0.832880 0.000000 
-0.095301 -0.926926 0.000000 
-0.098873 -0.874279 0.000000 
-0.149405 -0.859081 0.000000 
-0.140093 -1.018630 0.000000 
-0.148617 -0.969932 0.000000 
-0.205981 -0.959695 0.000000 
-0.203197 -0.901491 0.000000 
-0.248777 -0.882345 0.000000 
-0.184111 -1.109594 0.000000 
-0.194039 -1.062503 0.000000 
-0.254475 -1.055203 0.000000 
-0.257893 -1.001093 0.000000 
-0.309886 -0.985721 0.000000 
-0.303554 -0.925176 0.000000 
-0.347255 -0.905018 0.000000 
-0.228129 -1.200557 0.000000 
-0.238687 -1.154333 0.000000 
-0.301302 -1.149381 0.000000 
-0.307162 -1.097342 0.000000 
-0.363386 -1.085221 0.000000 
-0.362692 -1.027710 0.000000 
-0.412122 -1.010417 0.000000 
-0.403017 -0.948270 0.000000 
-0.445733 -0.927691 0.000000 
-0.000000 -0.855495 0.000000 
0.043388 -0.951926 0.000000 
-0.000000 -0.921893 0.000000 
-0.043388 -0.951926 0.000000 
0.087158 -1.044122 0.000000 
0.043769 -1.020424 0.000000 
-0.000000 -1.058890 0.000000 
-0.043769 -1.020424 0.000000 
-0.087158 -1.044122 0.000000 
0.130831 -1.135252 0.000000 
0.087824 -1.113653 0.000000 
0.044436 -1.156353 0.000000 
-0.000000 -1.125288 0.000000 
-0.044436 -1.156353 0.000000 
-0.087824 -1.113653 0.000000 
-0.130831 -1.135252 0.000000 
0.174505 -1.226382 0.000000 
0.131782 -1.205816 0.000000 
0.088871 -1.251682 0.000000 
0.044532 -1.223818 0.000000 
-0.000000 -1.260219 0.000000 
-0.044532 -1.223818 0.000000 
-0.088871 -1.251682 0.000000 
-0.131782 -1.205816 0.000000 
-0.174505 -1.226382 0.000000 
0.046960 -0.832880 0.000000 
0.149405 -0.859081 0.000000 
0.098873 -0.874279 0.000000 
0.095301 -0.926926 0.000000 
0.248777 -0.882345 0.000000 
0.203197 -0.901491 0.000000 
0.205981 -0.959695 0.000000 
0.148617 -0.969932 0.000000 
0.140093 -1.018630 0.000000 
0.347255 -0.905018 0.000000 
0.303554 -0.925176 0.000000 
0.309886 -0.985721 0.000000 
0.257893 -1.001093 0.000000 
0.254475 -1.055203 0.000000 
0.194039 -1.062503 0.000000 
0.184111 -1.109594 0.000000 
0.445733 -0.927691 0.000000 
0.403017 -0.948270 0.000000 
0.412122 -1.010417 0.000000 
0.362692 -1.027710 0.000000 
0.363386 -1.085221 0.000000 
0.307162 -1.097342 0.000000 
0.301302 -1.149381 0.000000 
0.238687 -1.154333 0.000000 
0.228129 -1.200557 0.000000 
0.058559 -0.782065 0.000000 
0.142917 -0.718307 0.000000 
0.123292 -0.767290 0.000000 
0.162226 -0.802908 0.000000 
0.223062 -0.655119 0.000000 
0.209613 -0.702693 0.000000 
0.256854 -0.736805 0.000000 
0.229092 -0.788037 0.000000 
0.261851 -0.825064 0.000000 
0.302189 -0.592262 0.000000 
0.290702 -0.638997 0.000000 
0.341985 -0.671796 0.000000 
0.321587 -0.722030 0.000000 
0.361761 -0.758439 0.000000 
0.329787 -0.810241 0.000000 
0.360414 -0.847364 0.000000 
0.381315 -0.529405 0.000000 
0.370772 -0.575633 0.000000 
0.425037 -0.607262 0.000000 
0.407738 -0.656690 0.000000 
0.453135 -0.692005 0.000000 
0.427556 -0.743520 0.000000 
0.464588 -0.780548 0.000000 
0.429420 -0.832589 0.000000 
0.458977 -0.869664 0.000000 
0.026061 -0.741314 0.000000 
0.028809 -0.635608 0.000000 
0.054870 -0.681491 0.000000 
0.106992 -0.673259 0.000000 
0.029377 -0.533551 0.000000 
0.058186 -0.573728 0.000000 
0.114311 -0.558062 0.000000 
0.137056 -0.611709 0.000000 
0.186430 -0.609183 0.000000 
0.029568 -0.432496 0.000000 
0.058945 -0.470616 0.000000 
0.116563 -0.450971 0.000000 
0.143120 -0.498239 0.000000 
0.196633 -0.489531 0.000000 
0.217198 -0.546827 0.000000 
0.265318 -0.546027 0.000000 
0.029759 -0.331442 0.000000 
0.059328 -0.368508 0.000000 
0.117890 -0.345802 0.000000 
0.145749 -0.390145 0.000000 
0.201664 -0.376671 0.000000 
0.225992 -0.428788 0.000000 
0.278030 -0.422922 0.000000 
0.296791 -0.482865 0.000000 
0.344206 -0.482872 0.000000 
CELLS 175 350 
1 0 
1 1 
1 2 
1 3 
1 4 
1 5 
1 6 
1 7 
1 8 
1 9 
1 10 
1 11 
1 12 
1 13 
1 14 
1 15 
1 16 
1 17 
1 18 
1 19 
1 20 
1 21 
1 22 
1 23 
1 24 
1 25 
1 26 
1 27 
1 28 
1 29 
1 30 
1 31 
1 32 
1 33 
1 34 
1 35 
1 36 
1 37 
1 38 
1 39 
1 40 
1 41 
1 42 
1 43 
1 44 
1 45 
1 46 
1 47 
1 48 
1 49 
1 50 
1 51 
1 52 
1 53 
1 54 
1 55 
1 56 
1 57 
1 58 
1 59 
1 60 
1 61 
1 62 
1 63 
1 64 
1 65 
1 66 
1 67 
1 68 
1 69 
1 70 
1 71 
1 72 
1 73 
1 74 
1 75 
1 76 
1 77 
1 78 
1 79 
1 80 
1 81 
1 82 
1 83 
1 84 
1 85 
1 86 
1 87 
1 88 
1 89 
1 90 
1 91 
1 92 
1 93 
1 94 
1 95 
1 96 
1 97 
1 98 
1 99 
1 100 
1 101 
1 102 
1 103 
1 104 
1 105 
1 106 
1 107 
1 108 
1 109 
1 110 
1 111 
1 112 
1 113 
1 114 
1 115 
1 116 
1 117 
1 118 
1 119 
1 120 
1 121 
1 122 
1 123 
1 124 
1 125 
1 126 
1 127 
1 128 
1 129 
1 130 
1 131 
1 132 
1 133 
1 134 
1 135 
1 136 
1 137 
1 138 
1 139 
1 140 
1 141 
1 142 
1 143 
1 144 
1 145 
1 146 
1 147 
1 148 
1 149 
1 150 
1 151 
1 152 
1 153 
1 154 
1 155 
1 156 
1 157 
1 158 
1 159 
1 160 
1 161 
1 162 
1 163 
1 164 
1 165 
1 166 
1 167 
1 168 
1 169 
1 170 
1 171 
1 172 
1 173 
1 174 
CELL_TYPES 175 
1 
1 
1 
1 
1 
1 
1 
1 
1 
1 
1 
1 
1 
1 
1 
1 
1 
1 
1 
1 
1 
1 
1 
1 
1 
1 
1 
1 
1 
1 
1 
1 
1 
1 
1 
1 
1 
1 
1 
1 
1 
1 
1 
1 
1 
1 
1 
1 
1 
1 
1 
1 
1 
1 
1 
1 
1 
1 
1 
1 
1 
1 
1 
1 
1 
1 
1 
1 
1 
1 
1 
1 
1 
1 
1 
1 
1 
1 
1 
1 
1 
1 
1 
1 
1 
1 
1 
1 
1 
1 
1 
1 
1 
1 
1 
1 
1 
1 
1 
1 
1 
1 
1 
1 
1 
1 
1 
1 
1 
1 
1 
1 
1 
1 
1 
1 
1 
1 
1 
1 
1 
1 
1 
1 
1 
1 
1 
1 
1 
1 
1 
1 
1 
1 
1 
1 
1 
1 
1 
1 
1 
1 
1 
1 
1 
1 
1 
1 
1 
1 
1 
1 
1 
1 
1 
1 
1 
1 
1 
1 
1 
1 
1 
1 
1 
1 
1 
1 
1 
1 
1 
1 
1 
1 
1 
POINT_DATA 175 
VECTORS X_GC float 
-0.026061 -0.741314 0.000000 
-0.106992 -0.673259 0.000000 
-0.054870 -0.681491 0.000000 
-0.028809 -0.635608 0.000000 
-0.186430 -0.609183 0.000000 
-0.137056 -0.611709 0.000000 
-0.114311 -0.558062 0.000000 
-0.058186 -0.573728 0.000000 
-0.029377 -0.533551 0.000000 
-0.265318 -0.546027 0.000000 
-0.217198 -0.546827 0.000000 
-0.196633 -0.489531 0.000000 
-0.143120 -0.498239 0.000000 
-0.116563 -0.450971 0.000000 
-0.058945 -0.470616 0.000000 
-0.029568 -0.432496 0.000000 
-0.344206 -0.482872 0.000000 
-0.296791 -0.482865 0.000000 
-0.278030 -0.422922 0.000000 
-0.225992 -0.428788 0.000000 
-0.201664 -0.376671 0.000000 
-0.145749 -0.390145 0.000000 
-0.117890 -0.345802 0.000000 
-0.059328 -0.368508 0.000000 
-0.029759 -0.331442 0.000000 
-0.058559 -0.782065 0.000000 
-0.162226 -0.802908 0.000000 
-0.123292 -0.767290 0.000000 
-0.142917 -0.718307 0.000000 
-0.261851 -0.825064 0.000000 
-0.229092 -0.788037 0.000000 
-0.256854 -0.736805 0.000000 
-0.209613 -0.702693 0.000000 
-0.223062 -0.655119 0.000000 
-0.360414 -0.847364 0.000000 
-0.329787 -0.810241 0.000000 
-0.361761 -0.758439 0.000000 
-0.321587 -0.722030 0.000000 
-0.341985 -0.671796 0.000000 
-0.290702 -0.638997 0.000000 
-0.302189 -0.592262 0.000000 
-0.458977 -0.869664 0.000000 
-0.429420 -0.832589 0.000000 
-0.464588 -0.780548 0.000000 
-0.427556 -0.743520 0.000000 
-0.453135 -0.692005 0.000000 
-0.407738 -0.656690 0.000000 
-0.425037 -0.607262 0.000000 
-0.370772 -0.575633 0.000000 
-0.381315 -0.529405 0.000000 
-0.046960 -0.832880 0.000000 
-0.095301 -0.926926 0.000000 
-0.098873 -0.874279 0.000000 
-0.149405 -0.859081 0.000000 
-0.140093 -1.018630 0.000000 
-0.148617 -0.969932 0.000000 
-0.205981 -0.959695 0.000000 
-0.203197 -0.901491 0.000000 
-0.248777 -0.882345 0.000000 
-0.184111 -1.109594 0.000000 
-0.194039 -1.062503 0.000000 
-0.254475 -1.055203 0.000000 
-0.257893 -1.001093 0.000000 
-0.309886 -0.985721 0.000000 
-0.303554 -0.925176 0.000000 
-0.347255 -0.905018 0.000000 
-0.228129 -1.200557 0.000000 
-0.238687 -1.154333 0.000000 
-0.301302 -1.149381 0.000000 
-0.307162 -1.097342 0.000000 
-0.363386 -1.085221 0.000000 
-0.362692 -1.027710 0.000000 
-0.412122 -1.010417 0.000000 
-0.403017 -0.948270 0.000000 
-0.445733 -0.927691 0.000000 
-0.000000 -0.855495 0.000000 
0.043388 -0.951926 0.000000 
-0.000000 -0.921893 0.000000 
-0.043388 -0.951926 0.000000 
0.087158 -1.044122 0.000000 
0.043769 -1.020424 0.000000 
-0.000000 -1.058890 0.000000 
-0.043769 -1.020424 0.000000 
-0.087158 -1.044122 0.000000 
0.130831 -1.135252 0.000000 
0.087824 -1.113653 0.000000 
0.044436 -1.156353 0.000000 
-0.000000 -1.125288 0.000000 
-0.044436 -1.156353 0.000000 
-0.087824 -1.113653 0.000000 
-0.130831 -1.135252 0.000000 
0.174505 -1.226382 0.000000 
0.131782 -1.205816 0.000000 
0.088871 -1.251682 0.000000 
0.044532 -1.223818 0.000000 
-0.000000 -1.260219 0.000000 
-0.044532 -1.223818 0.000000 
-0.088871 -1.251682 0.000000 
-0.131782 -1.205816 0.000000 
-0.174505 -1.226382 0.000000 
0.046960 -0.832880 0.000000 
0.149405 -0.859081 0.000000 
0.098873 -0.874279 0.000000 
0.095301 -0.926926 0.000000 
0.248777 -0.882345 0.000000 
0.203197 -0.901491 0.000000 
0.205981 -0.959695 0.000000 
0.148617 -0.969932 0.000000 
0.140093 -1.018630 0.000000 
0.347255 -0.905018 0.000000 
0.303554 -0.925176 0.000000 
0.309886 -0.985721 0.000000 
0.257893 -1.001093 0.000000 
0.254475 -1.055203 0.000000 
0.194039 -1.062503 0.000000 
0.184111 -1.109594 0.000000 
0.445733 -0.927691 0.000000 
0.403017 -0.948270 0.000000 
0.412122 -1.010417 0.000000 
0.362692 -1.027710 0.000000 
0.363386 -1.085221 0.000000 
0.307162 -1.097342 0.000000 
0.301302 -1.149381 0.000000 
0.238687 -1.154333 0.000000 
0.228129 -1.200557 0.000000 
0.058559 -0.782065 0.000000 
0.142917 -0.718307 0.000000 
0.123292 -0.767290 0.000000 
0.162226 -0.802908 0.000000 
0.223062 -0.655119 0.000000 
0.209613 -0.702693 0.000000 
0.256854 -0.736805 0.000000 
0.229092 -0.788037 0.000000 
0.261851 -0.825064 0.000000 
0.302189 -0.592262 0.000000 
0.290702 -0.638997 0.000000 
0.341985 -0.671796 0.000000 
0.321587 -0.722030 0.000000 
0.361761 -0.758439 0.000000 
0.329787 -0.810241 0.000000 
0.360414 -0.847364 0.000000 
0.381315 -0.529405 0.000000 
0.370772 -0.575633 0.000000 
0.425037 -0.607262 0.000000 
0.407738 -0.656690 0.000000 
0.453135 -0.692005 0.000000 
0.427556 -0.743520 0.000000 
0.464588 -0.780548 0.000000 
0.429420 -0.832589 0.000000 
0.458977 -0.869664 0.000000 
0.026061 -0.741314 0.000000 
0.028809 -0.635608 0.000000 
0.054870 -0.681491 0.000000 
0.106992 -0.673259 0.000000 
0.029377 -0.533551 0.000000 
0.058186 -0.573728 0.000000 
0.114311 -0.558062 0.000000 
0.137056 -0.611709 0.000000 
0.186430 -0.609183 0.000000 
0.029568 -0.432496 0.000000 
0.058945 -0.470616 0.000000 
0.116563 -0.450971 0.000000 
0.143120 -0.498239 0.000000 
0.196633 -0.489531 0.000000 
0.217198 -0.546827 0.000000 
0.265318 -0.546027 0.000000 
0.029759 -0.331442 0.000000 
0.059328 -0.368508 0.000000 
0.117890 -0.345802 0.000000 
0.145749 -0.390145 0.000000 
0.201664 -0.376671 0.000000 
0.225992 -0.428788 0.000000 
0.278030 -0.422922 0.000000 
0.296791 -0.482865 0.000000 
0.344206 -0.482872 0.000000 
VECTORS X_EC float 
0.338794 0.507741 0.000000 
-0.609100 -0.411007 0.000000 
0.713312 -0.299866 0.000000 
0.374519 -0.919296 0.000000 
0.423588 0.723974 0.000000 
-0.218274 0.758077 0.000000 
-0.513962 0.033838 0.000000 
0.756418 0.245325 0.000000 
0.381900 -0.297068 0.000000 
-0.550868 -0.128629 0.000000 
0.823577 -0.117834 0.000000 
0.556234 -0.891338 0.000000 
-0.139443 -0.773769 0.000000 
-0.484677 0.588106 0.000000 
0.766286 0.853322 0.000000 
0.384386 0.338701 0.000000 
0.474677 -0.981233 0.000000 
-0.141715 -0.981329 0.000000 
-0.385608 0.209443 0.000000 
0.937896 0.288638 0.000000 
0.621631 -0.414942 0.000000 
-0.105264 -0.233043 0.000000 
-0.467428 -0.831669 0.000000 
0.771260 -0.525140 0.000000 
0.386873 0.974470 0.000000 
0.761262 -0.942124 0.000000 
0.108942 -0.660747 0.000000 
-0.397202 0.858413 0.000000 
-0.142083 0.197138 0.000000 
-0.595936 -0.361637 0.000000 
0.978194 -0.861503 0.000000 
-0.660903 0.446872 0.000000 
0.724964 -0.013648 0.000000 
0.899809 -0.655896 0.000000 
0.685384 -0.060585 0.000000 
0.287229 -0.561743 0.000000 
0.702895 0.738928 0.000000 
0.180633 0.247410 0.000000 
0.445811 -0.430750 0.000000 
-0.220880 -0.873536 0.000000 
-0.071546 0.495539 0.000000 
-0.033296 0.240468 0.000000 
-0.417537 -0.260042 0.000000 
0.039645 -0.962605 0.000000 
-0.441768 0.537524 0.000000 
-0.109248 -0.157926 0.000000 
-0.699407 -0.634682 0.000000 
-0.474522 0.698039 0.000000 
0.820030 0.271045 0.000000 
0.957100 -0.353026 0.000000 
0.610485 -0.256118 0.000000 
-0.761092 -0.986498 0.000000 
-0.714655 0.302764 0.000000 
-0.057734 0.097597 0.000000 
-0.178789 0.251506 0.000000 
-0.067979 -0.405920 0.000000 
0.677748 -0.544124 0.000000 
0.641556 0.670131 0.000000 
-0.765897 0.411653 0.000000 
0.393446 -0.520485 0.000000 
0.522510 0.843785 0.000000 
-0.691820 0.745241 0.000000 
-0.647393 0.014758 0.000000 
0.028512 -0.192768 0.000000 
-0.053800 0.989871 0.000000 
0.514316 0.717740 0.000000 
0.965681 0.707524 0.000000 
-0.897068 0.083495 0.000000 
-0.083078 0.016642 0.000000 
-0.006893 -0.685882 0.000000 
0.724017 -0.849515 0.000000 
0.714996 0.374081 0.000000 
-0.642413 0.140624 0.000000 
-0.760780 -0.698357 0.000000 
-0.205471 -0.976172 0.000000 
0.000000 0.049184 0.000000 
-0.564049 -0.649003 0.000000 
0.000000 0.945561 0.000000 
0.564049 -0.649003 0.000000 
0.866949 0.595652 0.000000 
-0.569003 0.275721 0.000000 
0.000000 0.795009 0.000000 
0.569003 0.275721 0.000000 
-0.866949 0.595652 0.000000 
0.299194 -0.174098 0.000000 
0.858290 -0.465682 0.000000 
-0.577662 0.110764 0.000000 
0.000000 -0.308614 0.000000 
0.577662 0.110764 0.000000 
-0.858290 -0.465682 0.000000 
-0.299194 -0.174098 0.000000 
-0.268560 -0.943848 0.000000 
0.286830 0.778511 0.000000 
0.844677 -0.602291 0.000000 
-0.578910 -0.978454 0.000000 
0.000000 -0.487050 0.000000 
0.578910 -0.978454 0.000000 
-0.844677 -0.602291 0.000000 
-0.286830 0.778511 0.000000 
0.268560 -0.943848 0.000000 
-0.610485 -0.256118 0.000000 
0.057734 0.097597 0.000000 
0.714655 0.302764 0.000000 
0.761092 -0.986498 0.000000 
0.765897 0.411653 0.000000 
-0.641556 0.670131 0.000000 
-0.677748 -0.544124 0.000000 
0.067979 -0.405920 0.000000 
0.178789 0.251506 0.000000 
-0.514316 0.717740 0.000000 
0.053800 0.989871 0.000000 
-0.028512 -0.192768 0.000000 
0.647393 0.014758 0.000000 
0.691820 0.745241 0.000000 
-0.522510 0.843785 0.000000 
-0.393446 -0.520485 0.000000 
0.205471 -0.976172 0.000000 
0.760780 -0.698357 0.000000 
0.642413 0.140624 0.000000 
-0.714996 0.374081 0.000000 
-0.724017 -0.849515 0.000000 
0.006894 -0.685882 0.000000 
0.083078 0.016642 0.000000 
0.897068 0.083495 0.000000 
-0.965681 0.707524 0.000000 
-0.761262 -0.942124 0.000000 
0.142083 0.197138 0.000000 
0.397202 0.858413 0.000000 
-0.108942 -0.660747 0.000000 
-0.899809 -0.655896 0.000000 
-0.724964 -0.013648 0.000000 
0.660903 0.446872 0.000000 
-0.978194 -0.861503 0.000000 
0.595936 -0.361637 0.000000 
0.071546 0.495539 0.000000 
0.220880 -0.873536 0.000000 
-0.445811 -0.430750 0.000000 
-0.180633 0.247410 0.000000 
-0.702895 0.738928 0.000000 
-0.287229 -0.561743 0.000000 
-0.685384 -0.060585 0.000000 
-0.957100 -0.353026 0.000000 
-0.820030 0.271045 0.000000 
0.474522 0.698039 0.000000 
0.699407 -0.634682 0.000000 
0.109248 -0.157926 0.000000 
0.441768 0.537524 0.000000 
-0.039645 -0.962605 0.000000 
0.417537 -0.260042 0.000000 
0.033296 0.240468 0.000000 
-0.338794 0.507741 0.000000 
-0.374519 -0.919296 0.000000 
-0.713312 -0.299866 0.000000 
0.609100 -0.411007 0.000000 
-0.381900 -0.297068 0.000000 
-0.756418 0.245325 0.000000 
0.513962 0.033838 0.000000 
0.218274 0.758077 0.000000 
-0.423588 0.723974 0.000000 
-0.384386 0.338701 0.000000 
-0.766286 0.853322 0.000000 
0.484677 0.588106 0.000000 
0.139443 -0.773769 0.000000 
-0.556234 -0.891338 0.000000 
-0.823577 -0.117834 0.000000 
0.550868 -0.128629 0.000000 
-0.386873 0.974470 0.000000 
-0.771260 -0.525140 0.000000 
0.467428 -0.831669 0.000000 
0.105264 -0.233043 0.000000 
-0.621631 -0.414942 0.000000 
-0.937896 0.288638 0.000000 
0.385608 0.209443 0.000000 
0.141715 -0.981329 0.000000 
-0.474677 -0.981233 0.000000 
CELL_DATA 175 
SCALARS MASS float 
LOOKUP_TABLE default 
0.781831 
0.864274 
0.946717 
0.864274 
0.881307 
0.921110 
0.858535 
0.921110 
0.881307 
0.887046 
0.910001 
0.869829 
0.915556 
0.869829 
0.910001 
0.887046 
0.892784 
0.915740 
0.892784 
0.927218 
0.892784 
0.927218 
0.892784 
0.915740 
0.892784 
0.781831 
0.864274 
0.946717 
0.864274 
0.881307 
0.921110 
0.858535 
0.921110 
0.881307 
0.887046 
0.910001 
0.869829 
0.915556 
0.869829 
0.910001 
0.887046 
0.892784 
0.915740 
0.892784 
0.927218 
0.892784 
0.927218 
0.892784 
0.915740 
0.892784 
0.781831 
0.864274 
0.946717 
0.864274 
0.881307 
0.921110 
0.858535 
0.921110 
0.881307 
0.887046 
0.910001 
0.869829 
0.915556 
0.869829 
0.910001 
0.887046 
0.892784 
0.915740 
0.892784 
0.927218 
0.892784 
0.927218 
0.892784 
0.915740 
0.892784 
0.781831 
0.864274 
0.946717 
0.864274 
0.881307 
0.921110 
0.858535 
0.921110 
0.881307 
0.887046 
0.910001 
0.869829 
0.915556 
0.869829 
0.910001 
0.887046 
0.892784 
0.915740 
0.892784 
0.927218 
0.892784 
0.927218 
0.892784 
0.915740 
0.892784 
0.781831 
0.864274 
0.946717 
0.864274 
0.881307 
0.921110 
0.858535 
0.921110 
0.881307 
0.887046 
0.910001 
0.869829 
0.915556 
0.869829 
0.910001 
0.887046 
0.892784 
0.915740 
0.892784 
0.927218 
0.892784 
0.927218 
0.892784 
0.915740 
0.892784 
0.781831 
0.864274 
0.946717 
0.864274 
0.881307 
0.921110 
0.858535 
0.921110 
0.881307 
0.887046 
0.910001 
0.869829 
0.915556 
0.869829 
0.910001 
0.887046 
0.892784 
0.915740 
0.892784 
0.927218 
0.892784 
0.927218 
0.892784 
0.915740 
0.892784 
0.781831 
0.864274 
0.946717 
0.864274 
0.881307 
0.921110 
0.858535 
0.921110 
0.881307 
0.887046 
0.910001 
0.869829 
0.915556 
0.869829 
0.910001 
0.887046 
0.892784 
0.915740 
0.892784 
0.927218 
0.892784 
0.927218 
0.892784 
0.915740 
0.892784 
SCALARS MASS float 
LOOKUP_TABLE default 
0.781831 
0.864274 
0.946717 
0.864274 
0.881307 
0.921110 
0.858535 
0.921110 
0.881307 
0.887046 
0.910001 
0.869829 
0.915556 
0.869829 
0.910001 
0.887046 
0.892784 
0.915740 
0.892784 
0.927218 
0.892784 
0.927218 
0.892784 
0.915740 
0.892784 
0.781831 
0.864274 
0.946717 
0.864274 
0.881307 
0.921110 
0.858535 
0.921110 
0.881307 
0.887046 
0.910001 
0.869829 
0.915556 
0.869829 
0.910001 
0.887046 
0.892784 
0.915740 
0.892784 
0.927218 
0.892784 
0.927218 
0.892784 
0.915740 
0.892784 
0.781831 
0.864274 
0.946717 
0.864274 
0.881307 
0.921110 
0.858535 
0.921110 
0.881307 
0.887046 
0.910001 
0.869829 
0.915556 
0.869829 
0.910001 
0.887046 
0.892784 
0.915740 
0.892784 
0.927218 
0.892784 
0.927218 
0.892784 
0.915740 
0.892784 
0.781831 
0.864274 
0.946717 
0.864274 
0.881307 
0.921110 
0.858535 
0.921110 
0.881307 
0.887046 
0.910001 
0.869829 
0.915556 
0.869829 
0.910001 
0.887046 
0.892784 
0.915740 
0.892784 
0.927218 
0.892784 
0.927218 
0.892784 
0.915740 
0.892784 
0.781831 
0.864274 
0.946717 
0.864274 
0.881307 
0.921110 
0.858535 
0.921110 
0.881307 
0.887046 
0.910001 
0.869829 
0.915556 
0.869829 
0.910001 
0.887046 
0.892784 
0.915740 
0.892784 
0.927218 
0.892784 
0.927218 
0.892784 
0.915740 
0.892784 
0.781831 
0.864274 
0.946717 
0.864274 
0.881307 
0.921110 
0.858535 
0.921110 
0.881307 
0.887046 
0.910001 
0.869829 
0.915556 
0.869829 
0.910001 
0.887046 
0.892784 
0.915740 
0.892784 
0.927218 
0.892784 
0.927218 
0.892784 
0.915740 
0.892784 
0.781831 
0.864274 
0.946717 
0.864274 
0.881307 
0.921110 
0.858535 
0.921110 
0.881307 
0.887046 
0.910001 
0.869829 
0.915556 
0.869829 
0.910001 
0.887046 
0.892784 
0.915740 
0.892784 
0.927218 
0.892784 
0.927218 
0.892784 
0.915740 
0.892784 
SCALARS DENSITY float 
LOOKUP_TABLE default 
200.000000 
200.000000 
200.000000 
200.000000 
200.000000 
200.000000 
200.000000 
200.000000 
200.000000 
200.000000 
200.000000 
200.000000 
200.000000 
200.000000 
200.000000 
200.000000 
200.000000 
200.000000 
200.000000 
200.000000 
200.000000 
200.000000 
200.000000 
200.000000 
200.000000 
200.000000 
200.000000 
200.000000 
200.000000 
200.000000 
200.000000 
200.000000 
200.000000 
200.000000 
200.000000 
200.000000 
200.000000 
200.000000 
200.000000 
200.000000 
200.000000 
200.000000 
200.000000 
200.000000 
200.000000 
200.000000 
200.000000 
200.000000 
200.000000 
200.000000 
200.000000 
200.000000 
200.000000 
200.000000 
200.000000 
200.000000 
200.000000 
200.000000 
200.000000 
200.000000 
200.000000 
200.000000 
200.000000 
200.000000 
200.000000 
200.000000 
200.000000 
200.000000 
200.000000 
200.000000 
200.000000 
200.000000 
200.000000 
200.000000 
200.000000 
200.000000 
200.000000 
200.000000 
200.000000 
200.000000 
200.000000 
200.000000 
200.000000 
200.000000 
200.000000 
200.000000 
200.000000 
200.000000 
200.000000 
200.000000 
200.000000 
200.000000 
200.000000 
200.000000 
200.000000 
200.000000 
200.000000 
200.000000 
200.000000 
200.000000 
200.000000 
200.000000 
200.000000 
200.000000 
200.000000 
200.000000 
200.000000 
200.000000 
200.000000 
200.000000 
200.000000 
200.000000 
200.000000 
200.000000 
200.000000 
200.000000 
200.000000 
200.000000 
200.000000 
200.000000 
200.000000 
200.000000 
200.000000 
200.000000 
200.000000 
200.000000 
200.000000 
200.000000 
200.000000 
200.000000 
200.000000 
200.000000 
200.000000 
200.000000 
200.000000 
200.000000 
200.000000 
200.000000 
200.000000 
200.000000 
200.000000 
200.000000 
200.000000 
200.000000 
200.000000 
200.000000 
200.000000 
200.000000 
200.000000 
200.000000 
200.000000 
200.000000 
200.000000 
200.000000 
200.000000 
200.000000 
200.000000 
200.000000 
200.000000 
200.000000 
200.000000 
200.000000 
200.000000 
200.000000 
200.000000 
200.000000 
200.000000 
200.000000 
200.000000 
200.000000 
200.000000 
200.000000 
200.000000 
200.000000 
200.000000 
SCALARS ELEM_i float 
LOOKUP_TABLE default 
177 
204 
177 
177 
205 
205 
205 
178 
178 
232 
205 
205 
205 
206 
179 
179 
232 
232 
233 
206 
206 
206 
206 
179 
180 
176 
203 
204 
204 
230 
203 
231 
204 
204 
230 
230 
231 
231 
231 
231 
232 
257 
257 
257 
258 
258 
258 
259 
232 
232 
176 
202 
203 
203 
202 
202 
202 
203 
230 
201 
202 
229 
229 
229 
230 
230 
201 
228 
228 
228 
228 
229 
256 
256 
256 
176 
175 
176 
175 
148 
175 
175 
175 
202 
147 
147 
174 
174 
174 
201 
201 
146 
147 
146 
173 
173 
173 
200 
201 
200 
176 
149 
149 
148 
122 
149 
148 
148 
148 
122 
122 
121 
121 
121 
148 
147 
94 
94 
94 
121 
120 
120 
120 
120 
147 
176 
150 
150 
149 
150 
150 
123 
149 
122 
124 
123 
123 
123 
123 
122 
122 
124 
124 
97 
96 
96 
96 
95 
95 
95 
177 
177 
177 
150 
178 
178 
151 
151 
151 
179 
179 
152 
151 
151 
151 
124 
180 
179 
152 
152 
152 
152 
125 
124 
124 
VECTORS VELOCITY float 
-0.000000 -3.949506 0.000000 
0.000000 -3.949506 0.000000 
0.000000 -3.949506 0.000000 
0.000000 -3.949506 0.000000 
-0.000000 -3.949506 0.000000 
0.000000 -3.949506 0.000000 
-0.000000 -3.949506 0.000000 
-0.000000 -3.949506 0.000000 
-0.000000 -3.949506 0.000000 
0.000000 -3.949506 0.000000 
0.000000 -3.949506 0.000000 
0.000000 -3.949506 0.000000 
-0.000000 -3.949506 0.000000 
0.000000 -3.949506 0.000000 
-0.000000 -3.949506 0.000000 
0.000000 -3.949506 0.000000 
0.000000 -3.949506 0.000000 
0.000000 -3.949506 0.000000 
0.000000 -3.949506 0.000000 
0.000000 -3.949506 0.000000 
0.000000 -3.949506 0.000000 
0.000000 -3.949506 0.000000 
0.000000 -3.949506 0.000000 
0.000000 -3.949506 0.000000 
0.000000 -3.949506 0.000000 
0.000000 -3.949506 0.000000 
0.000000 -3.949506 0.000000 
-0.000000 -3.949506 0.000000 
0.000000 -3.949506 0.000000 
0.000000 -3.949506 0.000000 
0.000000 -3.949506 0.000000 
0.000000 -3.949506 0.000000 
-0.000000 -3.949506 0.000000 
-0.000000 -3.949506 0.000000 
0.000000 -3.949506 0.000000 
0.000000 -3.949506 0.000000 
-0.000000 -3.949506 0.000000 
0.000000 -3.949506 0.000000 
0.000000 -3.949506 0.000000 
0.000000 -3.949506 0.000000 
0.000000 -3.949506 0.000000 
-0.000000 -3.949506 0.000000 
-0.000000 -3.949506 0.000000 
-0.000000 -3.949506 0.000000 
0.000000 -3.949506 0.000000 
-0.000000 -3.949506 0.000000 
0.000000 -3.949506 0.000000 
-0.000000 -3.949506 0.000000 
0.000000 -3.949506 0.000000 
-0.000000 -3.949506 0.000000 
-0.000000 -3.949506 0.000000 
-0.000000 -3.949506 0.000000 
-0.000000 -3.949506 0.000000 
-0.000000 -3.949506 0.000000 
-0.000000 -3.949506 0.000000 
-0.000000 -3.949506 0.000000 
-0.000000 -3.949506 0.000000 
-0.000000 -3.949506 0.000000 
-0.000000 -3.949506 0.000000 
0.000000 -3.949506 0.000000 
0.000000 -3.949506 0.000000 
0.000000 -3.949506 0.000000 
-0.000000 -3.949506 0.000000 
-0.000000 -3.949506 0.000000 
0.000000 -3.949506 0.000000 
0.000000 -3.949506 0.000000 
-0.000000 -3.949506 0.000000 
0.000000 -3.949506 0.000000 
-0.000000 -3.949506 0.000000 
-0.000000 -3.949506 0.000000 
-0.000000 -3.949506 0.000000 
-0.000000 -3.949506 0.000000 
-0.000000 -3.949506 0.000000 
0.000000 -3.949506 0.000000 
-0.000000 -3.949506 0.000000 
-0.000000 -3.949506 0.000000 
0.000000 -3.949506 0.000000 
0.000000 -3.949506 0.000000 
0.000000 -3.949506 0.000000 
-0.000000 -3.949506 0.000000 
-0.000000 -3.949506 0.000000 
-0.000000 -3.949506 0.000000 
-0.000000 -3.949506 0.000000 
-0.000000 -3.949506 0.000000 
-0.000000 -3.949506 0.000000 
-0.000000 -3.949506 0.000000 
-0.000000 -3.949506 0.000000 
-0.000000 -3.949506 0.000000 
-0.000000 -3.949506 0.000000 
-0.000000 -3.949506 0.000000 
-0.000000 -3.949506 0.000000 
-0.000000 -3.949506 0.000000 
-0.000000 -3.949506 0.000000 
0.000000 -3.949506 0.000000 
-0.000000 -3.949506 0.000000 
0.000000 -3.949506 0.000000 
-0.000000 -3.949506 0.000000 
0.000000 -3.949506 0.000000 
-0.000000 -3.949506 0.000000 
0.000000 -3.949506 0.000000 
0.000000 -3.949506 0.000000 
0.000000 -3.949506 0.000000 
0.000000 -3.949506 0.000000 
0.000000 -3.949506 0.000000 
-0.000000 -3.949506 0.000000 
0.000000 -3.949506 0.000000 
-0.000000 -3.949506 0.000000 
-0.000000 -3.949506 0.000000 
-0.000000 -3.949506 0.000000 
-0.000000 -3.949506 0.000000 
-0.000000 -3.949506 0.000000 
0.000000 -3.949506 0.000000 
-0.000000 -3.949506 0.000000 
-0.000000 -3.949506 0.000000 
-0.000000 -3.949506 0.000000 
-0.000000 -3.949506 0.000000 
0.000000 -3.949506 0.000000 
0.000000 -3.949506 0.000000 
-0.000000 -3.949506 0.000000 
0.000000 -3.949506 0.000000 
0.000000 -3.949506 0.000000 
0.000000 -3.949506 0.000000 
-0.000000 -3.949506 0.000000 
-0.000000 -3.949506 0.000000 
-0.000000 -3.949506 0.000000 
0.000000 -3.949506 0.000000 
0.000000 -3.949506 0.000000 
0.000000 -3.949506 0.000000 
0.000000 -3.949506 0.000000 
0.000000 -3.949506 0.000000 
0.000000 -3.949506 0.000000 
-0.000000 -3.949506 0.000000 
-0.000000 -3.949506 0.000000 
-0.000000 -3.949506 0.000000 
0.000000 -3.949506 0.000000 
0.000000 -3.949506 0.000000 
0.000000 -3.949506 0.000000 
-0.000000 -3.949506 0.000000 
-0.000000 -3.949506 0.000000 
-0.000000 -3.949506 0.000000 
-0.000000 -3.949506 0.000000 
0.000000 -3.949506 0.000000 
-0.000000 -3.949506 0.000000 
0.000000 -3.949506 0.000000 
0.000000 -3.949506 0.000000 
0.000000 -3.949506 0.000000 
-0.000000 -3.949506 0.000000 
-0.000000 -3.949506 0.000000 
-0.000000 -3.949506 0.000000 
-0.000000 -3.949506 0.000000 
0.000000 -3.949506 0.000000 
0.000000 -3.949506 0.000000 
0.000000 -3.949506 0.000000 
0.000000 -3.949506 0.000000 
0.000000 -3.949506 0.000000 
0.000000 -3.949506 0.000000 
0.000000 -3.949506 0.000000 
0.000000 -3.949506 0.000000 
0.000000 -3.949506 0.000000 
0.000000 -3.949506 0.000000 
0.000000 -3.949506 0.000000 
0.000000 -3.949506 0.000000 
0.000000 -3.949506 0.000000 
0.000000 -3.949506 0.000000 
-0.000000 -3.949506 0.000000 
-0.000000 -3.949506 0.000000 
-0.000000 -3.949506 0.000000 
0.000000 -3.949506 0.000000 
-0.000000 -3.949506 0.000000 
0.000000 -3.949506 0.000000 
0.000000 -3.949506 0.000000 
-0.000000 -3.949506 0.000000 
0.000000 -3.949506 0.000000 
0.000000 -3.949506 0.000000 
0.000000 -3.949506 0.000000 
TENSORS STRESS float 
0.000000 -0.000000 0.000000 
0.000000 0.000000 0.000000 
0.000000 0.000000 0.000000 

0.000000 -0.000000 0.000000 
0.000000 0.000000 0.000000 
0.000000 0.000000 0.000000 

-0.000000 -0.000000 0.000000 
0.000000 -0.000000 0.000000 
0.000000 0.000000 0.000000 

-0.000000 -0.000000 0.000000 
0.000000 -0.000000 0.000000 
0.000000 0.000000 0.000000 

-0.000000 0.000000 0.000000 
0.000000 -0.000000 0.000000 
0.000000 0.000000 0.000000 

-0.000000 0.000000 0.000000 
0.000000 -0.000000 0.000000 
0.000000 0.000000 0.000000 

0.000000 -0.000000 0.000000 
0.000000 0.000000 0.000000 
0.000000 0.000000 0.000000 

-0.000000 -0.000000 0.000000 
0.000000 -0.000000 0.000000 
0.000000 0.000000 0.000000 

-0.000000 -0.000000 0.000000 
0.000000 -0.000000 0.000000 
0.000000 0.000000 0.000000 

-0.000000 0.000000 0.000000 
0.000000 -0.000000 0.000000 
0.000000 0.000000 0.000000 

-0.000000 -0.000000 0.000000 
0.000000 -0.000000 0.000000 
0.000000 0.000000 0.000000 

-0.000000 -0.000000 0.000000 
0.000000 0.000000 0.000000 
0.000000 0.000000 0.000000 

0.000000 -0.000000 0.000000 
0.000000 0.000000 0.000000 
0.000000 0.000000 0.000000 

0.000000 0.000000 0.000000 
0.000000 0.000000 0.000000 
0.000000 0.000000 0.000000 

-0.000000 0.000000 0.000000 
0.000000 -0.000000 0.000000 
0.000000 0.000000 0.000000 

-0.000000 0.000000 0.000000 
0.000000 -0.000000 0.000000 
0.000000 0.000000 0.000000 

0.000000 -0.000000 0.000000 
0.000000 -0.000000 0.000000 
0.000000 0.000000 0.000000 

-0.000000 -0.000000 0.000000 
0.000000 -0.000000 0.000000 
0.000000 0.000000 0.000000 

0.000000 -0.000000 0.000000 
0.000000 0.000000 0.000000 
0.000000 0.000000 0.000000 

-0.000000 -0.000000 0.000000 
0.000000 -0.000000 0.000000 
0.000000 0.000000 0.000000 

0.000000 -0.000000 0.000000 
0.000000 0.000000 0.000000 
0.000000 0.000000 0.000000 

0.000000 0.000000 0.000000 
0.000000 0.000000 0.000000 
0.000000 0.000000 0.000000 

-0.000000 -0.000000 0.000000 
0.000000 -0.000000 0.000000 
0.000000 0.000000 0.000000 

0.000000 -0.000000 0.000000 
0.000000 0.000000 0.000000 
0.000000 0.000000 0.000000 

-0.000000 -0.000000 0.000000 
0.000000 -0.000000 0.000000 
0.000000 0.000000 0.000000 

-0.000000 0.000000 0.000000 
0.000000 -0.000000 0.000000 
0.000000 0.000000 0.000000 

-0.000000 0.000000 0.000000 
0.000000 -0.000000 0.000000 
0.000000 0.000000 0.000000 

0.000000 0.000000 0.000000 
0.000000 0.000000 0.000000 
0.000000 0.000000 0.000000 

-0.000000 0.000000 0.000000 
0.000000 0.000000 0.000000 
0.000000 0.000000 0.000000 

-0.000000 0.000000 0.000000 
0.000000 -0.000000 0.000000 
0.000000 0.000000 0.000000 

-0.000000 0.000000 0.000000 
0.000000 0.000000 0.000000 
0.000000 0.000000 0.000000 

0.000000 0.000000 0.000000 
0.000000 0.000000 0.000000 
0.000000 0.000000 0.000000 

0.000000 0.000000 0.000000 
0.000000 0.000000 0.000000 
0.000000 0.000000 0.000000 

-0.000000 -0.000000 0.000000 
0.000000 -0.000000 0.000000 
0.000000 0.000000 0.000000 

-0.000000 0.000000 0.000000 
0.000000 -0.000000 0.000000 
0.000000 0.000000 0.000000 

0.000000 0.000000 0.000000 
0.000000 0.000000 0.000000 
0.000000 0.000000 0.000000 

-0.000000 0.000000 0.000000 
0.000000 -0.000000 0.000000 
0.000000 0.000000 0.000000 

-0.000000 0.000000 0.000000 
0.000000 -0.000000 0.000000 
0.000000 0.000000 0.000000 

-0.000000 0.000000 0.000000 
0.000000 -0.000000 0.000000 
0.000000 0.000000 0.000000 

-0.000000 0.000000 0.000000 
0.000000 -0.000000 0.000000 
0.000000 0.000000 0.000000 

0.000000 0.000000 0.000000 
0.000000 0.000000 0.000000 
0.000000 0.000000 0.000000 

-0.000000 0.000000 0.000000 
0.000000 -0.000000 0.000000 
0.000000 0.000000 0.000000 

-0.000000 0.000000 0.000000 
0.000000 0.000000 0.000000 
0.000000 0.000000 0.000000 

0.000000 -0.000000 0.000000 
0.000000 -0.000000 0.000000 
0.000000 0.000000 0.000000 

0.000000 -0.000000 0.000000 
0.000000 0.000000 0.000000 
0.000000 0.000000 0.000000 

0.000000 -0.000000 0.000000 
0.000000 -0.000000 0.000000 
0.000000 0.000000 0.000000 

0.000000 -0.000000 0.000000 
0.000000 0.000000 0.000000 
0.000000 0.000000 0.000000 

0.000000 0.000000 0.000000 
0.000000 0.000000 0.000000 
0.000000 0.000000 0.000000 

-0.000000 0.000000 0.000000 
0.000000 -0.000000 0.000000 
0.000000 0.000000 0.000000 

0.000000 -0.000000 0.000000 
0.000000 0.000000 0.000000 
0.000000 0.000000 0.000000 

0.000000 -0.000000 0.000000 
0.000000 0.000000 0.000000 
0.000000 0.000000 0.000000 

-0.000000 0.000000 0.000000 
0.000000 -0.000000 0.000000 
0.000000 0.000000 0.000000 

-0.000000 0.000000 0.000000 
0.000000 -0.000000 0.000000 
0.000000 0.000000 0.000000 

-0.000000 0.000000 0.000000 
0.000000 -0.000000 0.000000 
0.000000 0.000000 0.000000 

-0.000000 -0.000000 0.000000 
0.000000 -0.000000 0.000000 
0.000000 0.000000 0.000000 

-0.000000 0.000000 0.000000 
0.000000 -0.000000 0.000000 
0.000000 0.000000 0.000000 

-0.000000 0.000000 0.000000 
0.000000 -0.000000 0.000000 
0.000000 0.000000 0.000000 

0.000000 0.000000 0.000000 
0.000000 0.000000 0.000000 
0.000000 0.000000 0.000000 

-0.000000 0.000000 0.000000 
0.000000 -0.000000 0.000000 
0.000000 0.000000 0.000000 

0.000000 -0.000000 0.000000 
0.000000 0.000000 0.000000 
0.000000 0.000000 0.000000 

-0.000000 -0.000000 0.000000 
0.000000 -0.000000 0.000000 
0.000000 0.000000 0.000000 

-0.000000 0.000000 0.000000 
0.000000 -0.000000 0.000000 
0.000000 0.000000 0.000000 

-0.000000 -0.000000 0.000000 
0.000000 0.000000 0.000000 
0.000000 0.000000 0.000000 

-0.000000 -0.000000 0.000000 
0.000000 -0.000000 0.000000 
0.000000 0.000000 0.000000 

-0.000000 0.000000 0.000000 
0.000000 -0.000000 0.000000 
0.000000 0.000000 0.000000 

-0.000000 0.000000 0.000000 
0.000000 -0.000000 0.000000 
0.000000 0.000000 0.000000 

0.000000 -0.000000 0.000000 
0.000000 0.000000 0.000000 
0.000000 0.000000 0.000000 

-0.000000 0.000000 0.000000 
0.000000 0.000000 0.000000 
0.000000 0.000000 0.000000 

-0.000000 0.000000 0.000000 
0.000000 -0.000000 0.000000 
0.000000 0.000000 0.000000 

0.000000 0.000000 0.000000 
0.000000 0.000000 0.000000 
0.000000 0.000000 0.000000 

-0.000000 0.000000 0.000000 
0.000000 0.000000 0.000000 
0.000000 0.000000 0.000000 

-0.000000 -0.000000 0.000000 
0.000000 -0.000000 0.000000 
0.000000 0.000000 0.000000 

-0.000000 0.000000 0.000000 
0.000000 -0.000000 0.000000 
0.000000 0.000000 0.000000 

-0.000000 0.000000 0.000000 
0.000000 -0.000000 0.000000 
0.000000 0.000000 0.000000 

0.000000 0.000000 0.000000 
0.000000 0.000000 0.000000 
0.000000 0.000000 0.000000 

0.000000 -0.000000 0.000000 
0.000000 0.000000 0.000000 
0.000000 0.000000 0.000000 

0.000000 0.000000 0.000000 
0.000000 0.000000 0.000000 
0.000000 0.000000 0.000000 

-0.000000 -0.000000 0.000000 
0.000000 -0.000000 0.000000 
0.000000 0.000000 0.000000 

-0.000000 0.000000 0.000000 
0.000000 -0.000000 0.000000 
0.000000 0.000000 0.000000 

-0.000000 0.000000 0.000000 
0.000000 -0.000000 0.000000 
0.000000 0.000000 0.000000 

0.000000 -0.000000 0.000000 
0.000000 0.000000 0.000000 
0.000000 0.000000 0.000000 

0.000000 -0.000000 0.000000 
0.000000 0.000000 0.000000 
0.000000 0.000000 0.000000 

0.000000 -0.000000 0.000000 
0.000000 0.000000 0.000000 
0.000000 0.000000 0.000000 

-0.000000 0.000000 0.000000 
0.000000 -0.000000 0.000000 
0.000000 0.000000 0.000000 

-0.000000 0.000000 0.000000 
0.000000 -0.000000 0.000000 
0.000000 0.000000 0.000000 

0.000000 0.000000 0.000000 
0.000000 0.000000 0.000000 
0.000000 0.000000 0.000000 

-0.000000 -0.000000 0.000000 
0.000000 -0.000000 0.000000 
0.000000 0.000000 0.000000 

0.000000 -0.000000 0.000000 
0.000000 0.000000 0.000000 
0.000000 0.000000 0.000000 

-0.000000 -0.000000 0.000000 
0.000000 -0.000000 0.000000 
0.000000 0.000000 0.000000 

0.000000 -0.000000 0.000000 
0.000000 0.000000 0.000000 
0.000000 0.000000 0.000000 

-0.000000 -0.000000 0.000000 
0.000000 -0.000000 0.000000 
0.000000 0.000000 0.000000 

0.000000 -0.000000 0.000000 
0.000000 0.000000 0.000000 
0.000000 0.000000 0.000000 

0.000000 0.000000 0.000000 
0.000000 0.000000 0.000000 
0.000000 0.000000 0.000000 

-0.000000 -0.000000 0.000000 
0.000000 -0.000000 0.000000 
0.000000 0.000000 0.000000 

-0.000000 -0.000000 0.000000 
0.000000 -0.000000 0.000000 
0.000000 0.000000 0.000000 

0.000000 0.000000 0.000000 
0.000000 0.000000 0.000000 
0.000000 0.000000 0.000000 

0.000000 -0.000000 0.000000 
0.000000 0.000000 0.000000 
0.000000 0.000000 0.000000 

-0.000000 -0.000000 0.000000 
0.000000 -0.000000 0.000000 
0.000000 0.000000 0.000000 

0.000000 -0.000000 0.000000 
0.000000 0.000000 0.000000 
0.000000 0.000000 0.000000 

0.000000 -0.000000 0.000000 
0.000000 0.000000 0.000000 
0.000000 0.000000 0.000000 

0.000000 -0.000000 0.000000 
0.000000 0.000000 0.000000 
0.000000 0.000000 0.000000 

-0.000000 0.000000 0.000000 
0.000000 -0.000000 0.000000 
0.000000 0.000000 0.000000 

0.000000 0.000000 0.000000 
0.000000 0.000000 0.000000 
0.000000 0.000000 0.000000 

-0.000000 0.000000 0.000000 
0.000000 0.000000 0.000000 
0.000000 0.000000 0.000000 

-0.000000 -0.000000 0.000000 
0.000000 -0.000000 0.000000 
0.000000 0.000000 0.000000 

-0.000000 -0.000000 0.000000 
0.000000 -0.000000 0.000000 
0.000000 0.000000 0.000000 

-0.000000 -0.000000 0.000000 
0.000000 0.000000 0.000000 
0.000000 0.000000 0.000000 

-0.000000 -0.000000 0.000000 
0.000000 0.000000 0.000000 
0.000000 0.000000 0.000000 

-0.000000 -0.000000 0.000000 
0.000000 -0.000000 0.000000 
0.000000 0.000000 0.000000 

-0.000000 -0.000000 0.000000 
0.000000 -0.000000 0.000000 
0.000000 0.000000 0.000000 

0.000000 -0.000000 0.000000 
0.000000 -0.000000 0.000000 
0.000000 0.000000 0.000000 

0.000000 0.000000 0.000000 
0.000000 0.000000 0.000000 
0.000000 0.000000 0.000000 

0.000000 0.000000 0.000000 
0.000000 0.000000 0.000000 
0.000000 0.000000 0.000000 

-0.000000 -0.000000 0.000000 
0.000000 -0.000000 0.000000 
0.000000 0.000000 0.000000 

0.000000 -0.000000 0.000000 
0.000000 -0.000000 0.000000 
0.000000 0.000000 0.000000 

-0.000000 0.000000 0.000000 
0.000000 -0.000000 0.000000 
0.000000 0.000000 0.000000 

-0.000000 -0.000000 0.000000 
0.000000 -0.000000 0.000000 
0.000000 0.000000 0.000000 

-0.000000 -0.000000 0.000000 
0.000000 -0.000000 0.000000 
0.000000 0.000000 0.000000 

-0.000000 0.000000 0.000000 
0.000000 -0.000000 0.000000 
0.000000 0.000000 0.000000 

0.000000 -0.000000 0.000000 
0.000000 0.000000 0.000000 
0.000000 0.000000 0.000000 

-0.000000 0.000000 0.000000 
0.000000 -0.000000 0.000000 
0.000000 0.000000 0.000000 

-0.000000 0.000000 0.000000 
0.000000 -0.000000 0.000000 
0.000000 0.000000 0.000000 

-0.000000 0.000000 0.000000 
0.000000 -0.000000 0.000000 
0.000000 0.000000 0.000000 

-0.000000 -0.000000 0.000000 
0.000000 -0.000000 0.000000 
0.000000 0.000000 0.000000 

-0.000000 0.000000 0.000000 
0.000000 0.000000 0.000000 
0.000000 0.000000 0.000000 

0.000000 0.000000 0.000000 
0.000000 0.000000 0.000000 
0.000000 0.000000 0.000000 

-0.000000 -0.000000 0.000000 
0.000000 -0.000000 0.000000 
0.000000 0.000000 0.000000 

-0.000000 -0.000000 0.000000 
0.000000 -0.000000 0.000000 
0.000000 0.000000 0.000000 

0.000000 -0.000000 0.000000 
0.000000 0.000000 0.000000 
0.000000 0.000000 0.000000 

-0.000000 -0.000000 0.000000 
0.000000 -0.000000 0.000000 
0.000000 0.000000 0.000000 

-0.000000 0.000000 0.000000 
0.000000 -0.000000 0.000000 
0.000000 0.000000 0.000000 

-0.000000 0.000000 0.000000 
0.000000 -0.000000 0.000000 
0.000000 0.000000 0.000000 

0.000000 -0.000000 0.000000 
0.000000 0.000000 0.000000 
0.000000 0.000000 0.000000 

-0.000000 -0.000000 0.000000 
0.000000 -0.000000 0.000000 
0.000000 0.000000 0.000000 

-0.000000 -0.000000 0.000000 
0.000000 -0.000000 0.000000 
0.000000 0.000000 0.000000 

-0.000000 0.000000 0.000000 
0.000000 -0.000000 0.000000 
0.000000 0.000000 0.000000 

-0.000000 -0.000000 0.000000 
0.000000 -0.000000 0.000000 
0.000000 0.000000 0.000000 

0.000000 0.000000 0.000000 
0.000000 0.000000 0.000000 
0.000000 0.000000 0.000000 

0.000000 0.000000 0.000000 
0.000000 0.000000 0.000000 
0.000000 0.000000 0.000000 

0.000000 -0.000000 0.000000 
0.000000 0.000000 0.000000 
0.000000 0.000000 0.000000 

-0.000000 -0.000000 0.000000 
0.000000 -0.000000 0.000000 
0.000000 0.000000 0.000000 

0.000000 0.000000 0.000000 
0.000000 0.000000 0.000000 
0.000000 0.000000 0.000000 

0.000000 -0.000000 0.000000 
0.000000 0.000000 0.000000 
0.000000 0.000000 0.000000 

-0.000000 0.000000 0.000000 
0.000000 -0.000000 0.000000 
0.000000 0.000000 0.000000 

0.000000 -0.000000 0.000000 
0.000000 0.000000 0.000000 
0.000000 0.000000 0.000000 

-0.000000 0.000000 0.000000 
0.000000 -0.000000 0.000000 
0.000000 0.000000 0.000000 

0.000000 0.000000 0.000000 
0.000000 0.000000 0.000000 
0.000000 0.000000 0.000000 

-0.000000 0.000000 0.000000 
0.000000 -0.000000 0.000000 
0.000000 0.000000 0.000000 

0.000000 0.000000 0.000000 
0.000000 0.000000 0.000000 
0.000000 0.000000 0.000000 

0.000000 -0.000000 0.000000 
0.000000 0.000000 0.000000 
0.000000 0.000000 0.000000 

-0.000000 -0.000000 0.000000 
0.000000 -0.000000 0.000000 
0.000000 0.000000 0.000000 

-0.000000 -0.000000 0.000000 
0.000000 -0.000000 0.000000 
0.000000 0.000000 0.000000 

0.000000 -0.000000 0.000000 
0.000000 0.000000 0.000000 
0.000000 0.000000 0.000000 

-0.000000 -0.000000 0.000000 
0.000000 -0.000000 0.000000 
0.000000 0.000000 0.000000 

-0.000000 -0.000000 0.000000 
0.000000 -0.000000 0.000000 
0.000000 0.000000 0.000000 

-0.000000 -0.000000 0.000000 
0.000000 -0.000000 0.000000 
0.000000 0.000000 0.000000 

-0.000000 -0.000000 0.000000 
0.000000 -0.000000 0.000000 
0.000000 0.000000 0.000000 

0.000000 -0.000000 0.000000 
0.000000 0.000000 0.000000 
0.000000 0.000000 0.000000 

0.000000 -0.000000 0.000000 
0.000000 0.000000 0.000000 
0.000000 0.000000 0.000000 

0.000000 0.000000 0.000000 
0.000000 -0.000000 0.000000 
0.000000 0.000000 0.000000 

0.000000 0.000000 0.000000 
0.000000 0.000000 0.000000 
0.000000 0.000000 0.000000 

0.000000 0.000000 0.000000 
0.000000 0.000000 0.000000 
0.000000 0.000000 0.000000 

-0.000000 0.000000 0.000000 
0.000000 -0.000000 0.000000 
0.000000 0.000000 0.000000 

0.000000 0.000000 0.000000 
0.000000 0.000000 0.000000 
0.000000 0.000000 0.000000 

0.000000 -0.000000 0.000000 
0.000000 0.000000 0.000000 
0.000000 0.000000 0.000000 

0.000000 -0.000000 0.000000 
0.000000 0.000000 0.000000 
0.000000 0.000000 0.000000 

-0.000000 -0.000000 0.000000 
0.000000 -0.000000 0.000000 
0.000000 0.000000 0.000000 

-0.000000 -0.000000 0.000000 
0.000000 -0.000000 0.000000 
0.000000 0.000000 0.000000 

-0.000000 -0.000000 0.000000 
0.000000 -0.000000 0.000000 
0.000000 0.000000 0.000000 

0.000000 0.000000 0.000000 
0.000000 0.000000 0.000000 
0.000000 0.000000 0.000000 

0.000000 -0.000000 0.000000 
0.000000 0.000000 0.000000 
0.000000 0.000000 0.000000 

-0.000000 -0.000000 0.000000 
0.000000 -0.000000 0.000000 
0.000000 0.000000 0.000000 

0.000000 -0.000000 0.000000 
0.000000 0.000000 0.000000 
0.000000 0.000000 0.000000 

0.000000 -0.000000 0.000000 
0.000000 0.000000 0.000000 
0.000000 0.000000 0.000000 

0.000000 -0.000000 0.000000 
0.000000 0.000000 0.000000 
0.000000 0.000000 0.000000 

TENSORS STRAIN float 
-0.000000 -0.000000 0.000000 
0.000000 0.000000 0.000000 
0.000000 0.000000 0.000000 

-0.000000 -0.000000 0.000000 
0.000000 0.000000 0.000000 
0.000000 0.000000 0.000000 

0.000000 -0.000000 0.000000 
0.000000 -0.000000 0.000000 
0.000000 0.000000 0.000000 

-0.000000 -0.000000 0.000000 
0.000000 -0.000000 0.000000 
0.000000 0.000000 0.000000 

-0.000000 0.000000 0.000000 
0.000000 -0.000000 0.000000 
0.000000 0.000000 0.000000 

-0.000000 0.000000 0.000000 
0.000000 -0.000000 0.000000 
0.000000 0.000000 0.000000 

-0.000000 -0.000000 0.000000 
0.000000 0.000000 0.000000 
0.000000 0.000000 0.000000 

-0.000000 -0.000000 0.000000 
0.000000 -0.000000 0.000000 
0.000000 0.000000 0.000000 

-0.000000 -0.000000 0.000000 
0.000000 -0.000000 0.000000 
0.000000 0.000000 0.000000 

-0.000000 0.000000 0.000000 
0.000000 0.000000 0.000000 
0.000000 0.000000 0.000000 

-0.000000 -0.000000 0.000000 
0.000000 -0.000000 0.000000 
0.000000 0.000000 0.000000 

-0.000000 -0.000000 0.000000 
0.000000 0.000000 0.000000 
0.000000 0.000000 0.000000 

-0.000000 -0.000000 0.000000 
0.000000 0.000000 0.000000 
0.000000 0.000000 0.000000 

-0.000000 0.000000 0.000000 
0.000000 0.000000 0.000000 
0.000000 0.000000 0.000000 

0.000000 0.000000 0.000000 
0.000000 -0.000000 0.000000 
0.000000 0.000000 0.000000 

0.000000 0.000000 0.000000 
0.000000 -0.000000 0.000000 
0.000000 0.000000 0.000000 

0.000000 -0.000000 0.000000 
0.000000 -0.000000 0.000000 
0.000000 0.000000 0.000000 

0.000000 -0.000000 0.000000 
0.000000 -0.000000 0.000000 
0.000000 0.000000 0.000000 

0.000000 -0.000000 0.000000 
0.000000 -0.000000 0.000000 
0.000000 0.000000 0.000000 

0.000000 -0.000000 0.000000 
0.000000 -0.000000 0.000000 
0.000000 0.000000 0.000000 

0.000000 -0.000000 0.000000 
0.000000 -0.000000 0.000000 
0.000000 0.000000 0.000000 

0.000000 0.000000 0.000000 
0.000000 -0.000000 0.000000 
0.000000 0.000000 0.000000 

0.000000 -0.000000 0.000000 
0.000000 -0.000000 0.000000 
0.000000 0.000000 0.000000 

0.000000 -0.000000 0.000000 
0.000000 0.000000 0.000000 
0.000000 0.000000 0.000000 

0.000000 -0.000000 0.000000 
0.000000 -0.000000 0.000000 
0.000000 0.000000 0.000000 

-0.000000 0.000000 0.000000 
0.000000 0.000000 0.000000 
0.000000 0.000000 0.000000 

-0.000000 0.000000 0.000000 
0.000000 0.000000 0.000000 
0.000000 0.000000 0.000000 

-0.000000 0.000000 0.000000 
0.000000 0.000000 0.000000 
0.000000 0.000000 0.000000 

-0.000000 0.000000 0.000000 
0.000000 0.000000 0.000000 
0.000000 0.000000 0.000000 

0.000000 0.000000 0.000000 
0.000000 -0.000000 0.000000 
0.000000 0.000000 0.000000 

-0.000000 0.000000 0.000000 
0.000000 0.000000 0.000000 
0.000000 0.000000 0.000000 

0.000000 0.000000 0.000000 
0.000000 -0.000000 0.000000 
0.000000 0.000000 0.000000 

-0.000000 0.000000 0.000000 
0.000000 0.000000 0.000000 
0.000000 0.000000 0.000000 

-0.000000 -0.000000 0.000000 
0.000000 -0.000000 0.000000 
0.000000 0.000000 0.000000 

0.000000 0.000000 0.000000 
0.000000 -0.000000 0.000000 
0.000000 0.000000 0.000000 

0.000000 0.000000 0.000000 
0.000000 -0.000000 0.000000 
0.000000 0.000000 0.000000 

0.000000 0.000000 0.000000 
0.000000 -0.000000 0.000000 
0.000000 0.000000 0.000000 

0.000000 0.000000 0.000000 
0.000000 -0.000000 0.000000 
0.000000 0.000000 0.000000 

-0.000000 0.000000 0.000000 
0.000000 -0.000000 0.000000 
0.000000 0.000000 0.000000 

-0.000000 0.000000 0.000000 
0.000000 0.000000 0.000000 
0.000000 0.000000 0.000000 

-0.000000 0.000000 0.000000 
0.000000 0.000000 0.000000 
0.000000 0.000000 0.000000 

-0.000000 0.000000 0.000000 
0.000000 0.000000 0.000000 
0.000000 0.000000 0.000000 

-0.000000 0.000000 0.000000 
0.000000 0.000000 0.000000 
0.000000 0.000000 0.000000 

0.000000 -0.000000 0.000000 
0.000000 -0.000000 0.000000 
0.000000 0.000000 0.000000 

0.000000 -0.000000 0.000000 
0.000000 -0.000000 0.000000 
0.000000 0.000000 0.000000 

0.000000 -0.000000 0.000000 
0.000000 -0.000000 0.000000 
0.000000 0.000000 0.000000 

0.000000 -0.000000 0.000000 
0.000000 -0.000000 0.000000 
0.000000 0.000000 0.000000 

0.000000 0.000000 0.000000 
0.000000 -0.000000 0.000000 
0.000000 0.000000 0.000000 

-0.000000 0.000000 0.000000 
0.000000 0.000000 0.000000 
0.000000 0.000000 0.000000 

-0.000000 -0.000000 0.000000 
0.000000 0.000000 0.000000 
0.000000 0.000000 0.000000 

-0.000000 -0.000000 0.000000 
0.000000 0.000000 0.000000 
0.000000 0.000000 0.000000 

0.000000 0.000000 0.000000 
0.000000 -0.000000 0.000000 
0.000000 0.000000 0.000000 

0.000000 0.000000 0.000000 
0.000000 -0.000000 0.000000 
0.000000 0.000000 0.000000 

0.000000 0.000000 0.000000 
0.000000 -0.000000 0.000000 
0.000000 0.000000 0.000000 

-0.000000 -0.000000 0.000000 
0.000000 0.000000 0.000000 
0.000000 0.000000 0.000000 

0.000000 0.000000 0.000000 
0.000000 -0.000000 0.000000 
0.000000 0.000000 0.000000 

0.000000 0.000000 0.000000 
0.000000 -0.000000 0.000000 
0.000000 0.000000 0.000000 

-0.000000 0.000000 0.000000 
0.000000 0.000000 0.000000 
0.000000 0.000000 0.000000 

-0.000000 0.000000 0.000000 
0.000000 -0.000000 0.000000 
0.000000 0.000000 0.000000 

-0.000000 -0.000000 0.000000 
0.000000 0.000000 0.000000 
0.000000 0.000000 0.000000 

-0.000000 -0.000000 0.000000 
0.000000 0.000000 0.000000 
0.000000 0.000000 0.000000 

-0.000000 0.000000 0.000000 
0.000000 0.000000 0.000000 
0.000000 0.000000 0.000000 

-0.000000 -0.000000 0.000000 
0.000000 0.000000 0.000000 
0.000000 0.000000 0.000000 

-0.000000 -0.000000 0.000000 
0.000000 0.000000 0.000000 
0.000000 0.000000 0.000000 

-0.000000 0.000000 0.000000 
0.000000 -0.000000 0.000000 
0.000000 0.000000 0.000000 

-0.000000 0.000000 0.000000 
0.000000 0.000000 0.000000 
0.000000 0.000000 0.000000 

0.000000 -0.000000 0.000000 
0.000000 0.000000 0.000000 
0.000000 0.000000 0.000000 

-0.000000 0.000000 0.000000 
0.000000 0.000000 0.000000 
0.000000 0.000000 0.000000 

-0.000000 0.000000 0.000000 
0.000000 0.000000 0.000000 
0.000000 0.000000 0.000000 

-0.000000 0.000000 0.000000 
0.000000 0.000000 0.000000 
0.000000 0.000000 0.000000 

-0.000000 0.000000 0.000000 
0.000000 0.000000 0.000000 
0.000000 0.000000 0.000000 

-0.000000 -0.000000 0.000000 
0.000000 0.000000 0.000000 
0.000000 0.000000 0.000000 

-0.000000 0.000000 0.000000 
0.000000 0.000000 0.000000 
0.000000 0.000000 0.000000 

-0.000000 0.000000 0.000000 
0.000000 0.000000 0.000000 
0.000000 0.000000 0.000000 

-0.000000 0.000000 0.000000 
0.000000 0.000000 0.000000 
0.000000 0.000000 0.000000 

-0.000000 -0.000000 0.000000 
0.000000 0.000000 0.000000 
0.000000 0.000000 0.000000 

0.000000 0.000000 0.000000 
0.000000 -0.000000 0.000000 
0.000000 0.000000 0.000000 

0.000000 -0.000000 0.000000 
0.000000 -0.000000 0.000000 
0.000000 0.000000 0.000000 

0.000000 0.000000 0.000000 
0.000000 -0.000000 0.000000 
0.000000 0.000000 0.000000 

0.000000 0.000000 0.000000 
0.000000 -0.000000 0.000000 
0.000000 0.000000 0.000000 

0.000000 -0.000000 0.000000 
0.000000 -0.000000 0.000000 
0.000000 0.000000 0.000000 

0.000000 -0.000000 0.000000 
0.000000 -0.000000 0.000000 
0.000000 0.000000 0.000000 

0.000000 -0.000000 0.000000 
0.000000 -0.000000 0.000000 
0.000000 0.000000 0.000000 

-0.000000 0.000000 0.000000 
0.000000 0.000000 0.000000 
0.000000 0.000000 0.000000 

-0.000000 0.000000 0.000000 
0.000000 -0.000000 0.000000 
0.000000 0.000000 0.000000 

-0.000000 0.000000 0.000000 
0.000000 0.000000 0.000000 
0.000000 0.000000 0.000000 

-0.000000 -0.000000 0.000000 
0.000000 0.000000 0.000000 
0.000000 0.000000 0.000000 

-0.000000 -0.000000 0.000000 
0.000000 0.000000 0.000000 
0.000000 0.000000 0.000000 

-0.000000 -0.000000 0.000000 
0.000000 -0.000000 0.000000 
0.000000 0.000000 0.000000 

-0.000000 -0.000000 0.000000 
0.000000 0.000000 0.000000 
0.000000 0.000000 0.000000 

-0.000000 -0.000000 0.000000 
0.000000 -0.000000 0.000000 
0.000000 0.000000 0.000000 

-0.000000 -0.000000 0.000000 
0.000000 0.000000 0.000000 
0.000000 0.000000 0.000000 

-0.000000 0.000000 0.000000 
0.000000 0.000000 0.000000 
0.000000 0.000000 0.000000 

-0.000000 -0.000000 0.000000 
0.000000 -0.000000 0.000000 
0.000000 0.000000 0.000000 

-0.000000 -0.000000 0.000000 
0.000000 0.000000 0.000000 
0.000000 0.000000 0.000000 

-0.000000 0.000000 0.000000 
0.000000 0.000000 0.000000 
0.000000 0.000000 0.000000 

-0.000000 -0.000000 0.000000 
0.000000 0.000000 0.000000 
0.000000 0.000000 0.000000 

-0.000000 -0.000000 0.000000 
0.000000 0.000000 0.000000 
0.000000 0.000000 0.000000 

0.000000 -0.000000 0.000000 
0.000000 0.000000 0.000000 
0.000000 0.000000 0.000000 

-0.000000 -0.000000 0.000000 
0.000000 0.000000 0.000000 
0.000000 0.000000 0.000000 

-0.000000 -0.000000 0.000000 
0.000000 0.000000 0.000000 
0.000000 0.000000 0.000000 

-0.000000 0.000000 0.000000 
0.000000 -0.000000 0.000000 
0.000000 0.000000 0.000000 

-0.000000 0.000000 0.000000 
0.000000 0.000000 0.000000 
0.000000 0.000000 0.000000 

-0.000000 0.000000 0.000000 
0.000000 0.000000 0.000000 
0.000000 0.000000 0.000000 

-0.000000 -0.000000 0.000000 
0.000000 -0.000000 0.000000 
0.000000 0.000000 0.000000 

-0.000000 -0.000000 0.000000 
0.000000 0.000000 0.000000 
0.000000 0.000000 0.000000 

-0.000000 -0.000000 0.000000 
0.000000 0.000000 0.000000 
0.000000 0.000000 0.000000 

-0.000000 -0.000000 0.000000 
0.000000 0.000000 0.000000 
0.000000 0.000000 0.000000 

-0.000000 -0.000000 0.000000 
0.000000 -0.000000 0.000000 
0.000000 0.000000 0.000000 

0.000000 -0.000000 0.000000 
0.000000 -0.000000 0.000000 
0.000000 0.000000 0.000000 

0.000000 -0.000000 0.000000 
0.000000 -0.000000 0.000000 
0.000000 0.000000 0.000000 

0.000000 0.000000 0.000000 
0.000000 0.000000 0.000000 
0.000000 0.000000 0.000000 

0.000000 0.000000 0.000000 
0.000000 0.000000 0.000000 
0.000000 0.000000 0.000000 

-0.000000 -0.000000 0.000000 
0.000000 -0.000000 0.000000 
0.000000 0.000000 0.000000 

0.000000 -0.000000 0.000000 
0.000000 -0.000000 0.000000 
0.000000 0.000000 0.000000 

0.000000 0.000000 0.000000 
0.000000 -0.000000 0.000000 
0.000000 0.000000 0.000000 

-0.000000 -0.000000 0.000000 
0.000000 0.000000 0.000000 
0.000000 0.000000 0.000000 

-0.000000 -0.000000 0.000000 
0.000000 0.000000 0.000000 
0.000000 0.000000 0.000000 

-0.000000 0.000000 0.000000 
0.000000 0.000000 0.000000 
0.000000 0.000000 0.000000 

0.000000 -0.000000 0.000000 
0.000000 0.000000 0.000000 
0.000000 0.000000 0.000000 

0.000000 0.000000 0.000000 
0.000000 -0.000000 0.000000 
0.000000 0.000000 0.000000 

0.000000 0.000000 0.000000 
0.000000 -0.000000 0.000000 
0.000000 0.000000 0.000000 

-0.000000 0.000000 0.000000 
0.000000 0.000000 0.000000 
0.000000 0.000000 0.000000 

-0.000000 -0.000000 0.000000 
0.000000 0.000000 0.000000 
0.000000 0.000000 0.000000 

-0.000000 0.000000 0.000000 
0.000000 0.000000 0.000000 
0.000000 0.000000 0.000000 

-0.000000 0.000000 0.000000 
0.000000 0.000000 0.000000 
0.000000 0.000000 0.000000 

-0.000000 -0.000000 0.000000 
0.000000 -0.000000 0.000000 
0.000000 0.000000 0.000000 

-0.000000 -0.000000 0.000000 
0.000000 0.000000 0.000000 
0.000000 0.000000 0.000000 

-0.000000 -0.000000 0.000000 
0.000000 0.000000 0.000000 
0.000000 0.000000 0.000000 

-0.000000 -0.000000 0.000000 
0.000000 0.000000 0.000000 
0.000000 0.000000 0.000000 

-0.000000 0.000000 0.000000 
0.000000 0.000000 0.000000 
0.000000 0.000000 0.000000 

0.000000 0.000000 0.000000 
0.000000 -0.000000 0.000000 
0.000000 0.000000 0.000000 

-0.000000 -0.000000 0.000000 
0.000000 0.000000 0.000000 
0.000000 0.000000 0.000000 

-0.000000 -0.000000 0.000000 
0.000000 0.000000 0.000000 
0.000000 0.000000 0.000000 

0.000000 -0.000000 0.000000 
0.000000 -0.000000 0.000000 
0.000000 0.000000 0.000000 

0.000000 0.000000 0.000000 
0.000000 -0.000000 0.000000 
0.000000 0.000000 0.000000 

0.000000 -0.000000 0.000000 
0.000000 -0.000000 0.000000 
0.000000 0.000000 0.000000 

0.000000 0.000000 0.000000 
0.000000 0.000000 0.000000 
0.000000 0.000000 0.000000 

0.000000 0.000000 0.000000 
0.000000 0.000000 0.000000 
0.000000 0.000000 0.000000 

-0.000000 -0.000000 0.000000 
0.000000 0.000000 0.000000 
0.000000 0.000000 0.000000 

-0.000000 -0.000000 0.000000 
0.000000 0.000000 0.000000 
0.000000 0.000000 0.000000 

0.000000 0.000000 0.000000 
0.000000 0.000000 0.000000 
0.000000 0.000000 0.000000 

0.000000 -0.000000 0.000000 
0.000000 0.000000 0.000000 
0.000000 0.000000 0.000000 

0.000000 0.000000 0.000000 
0.000000 -0.000000 0.000000 
0.000000 0.000000 0.000000 

0.000000 -0.000000 0.000000 
0.000000 -0.000000 0.000000 
0.000000 0.000000 0.000000 

0.000000 0.000000 0.000000 
0.000000 -0.000000 0.000000 
0.000000 0.000000 0.000000 

0.000000 0.000000 0.000000 
0.000000 0.000000 0.000000 
0.000000 0.000000 0.000000 

-0.000000 0.000000 0.000000 
0.000000 -0.000000 0.000000 
0.000000 0.000000 0.000000 

-0.000000 0.000000 0.000000 
0.000000 0.000000 0.000000 
0.000000 0.000000 0.000000 

-0.000000 -0.000000 0.000000 
0.000000 0.000000 0.000000 
0.000000 0.000000 0.000000 

-0.000000 -0.000000 0.000000 
0.000000 -0.000000 0.000000 
0.000000 0.000000 0.000000 

-0.000000 -0.000000 0.000000 
0.000000 -0.000000 0.000000 
0.000000 0.000000 0.000000 

0.000000 -0.000000 0.000000 
0.000000 0.000000 0.000000 
0.000000 0.000000 0.000000 

-0.000000 -0.000000 0.000000 
0.000000 0.000000 0.000000 
0.000000 0.000000 0.000000 

-0.000000 -0.000000 0.000000 
0.000000 -0.000000 0.000000 
0.000000 0.000000 0.000000 

-0.000000 -0.000000 0.000000 
0.000000 -0.000000 0.000000 
0.000000 0.000000 0.000000 

0.000000 -0.000000 0.000000 
0.000000 -0.000000 0.000000 
0.000000 0.000000 0.000000 

-0.000000 -0.000000 0.000000 
0.000000 0.000000 0.000000 
0.000000 0.000000 0.000000 

-0.000000 -0.000000 0.000000 
0.000000 0.000000 0.000000 
0.000000 0.000000 0.000000 

0.000000 0.000000 0.000000 
0.000000 -0.000000 0.000000 
0.000000 0.000000 0.000000 

0.000000 0.000000 0.000000 
0.000000 0.000000 0.000000 
0.000000 0.000000 0.000000 

0.000000 0.000000 0.000000 
0.000000 -0.000000 0.000000 
0.000000 0.000000 0.000000 

0.000000 0.000000 0.000000 
0.000000 -0.000000 0.000000 
0.000000 0.000000 0.000000 

0.000000 0.000000 0.000000 
0.000000 -0.000000 0.000000 
0.000000 0.000000 0.000000 

0.000000 -0.000000 0.000000 
0.000000 0.000000 0.000000 
0.000000 0.000000 0.000000 

0.000000 -0.000000 0.000000 
0.000000 -0.000000 0.000000 
0.000000 0.000000 0.000000 

0.000000 -0.000000 0.000000 
0.000000 -0.000000 0.000000 
0.000000 0.000000 0.000000 

0.000000 -0.000000 0.000000 
0.000000 -0.000000 0.000000 
0.000000 0.000000 0.000000 

0.000000 -0.000000 0.000000 
0.000000 -0.000000 0.000000 
0.000000 0.000000 0.000000 

0.000000 0.000000 0.000000 
0.000000 -0.000000 0.000000 
0.000000 0.000000 0.000000 

0.000000 -0.000000 0.000000 
0.000000 -0.000000 0.000000 
0.000000 0.000000 0.000000 

0.000000 -0.000000 0.000000 
0.000000 -0.000000 0.000000 
0.000000 0.000000 0.000000 

0.000000 -0.000000 0.000000 
0.000000 -0.000000 0.000000 
0.000000 0.000000 0.000000 

0.000000 -0.000000 0.000000 
0.000000 -0.000000 0.000000 
0.000000 0.000000 0.000000 

0.000000 -0.000000 0.000000 
0.000000 -0.000000 0.000000 
0.000000 0.000000 0.000000 

