# vtk DataFile Version 3.0 
vtk output 
ASCII 
DATASET UNSTRUCTURED_GRID 
POINTS 175 float 
-0.026061 -1.323178 0.000000 
-0.106992 -1.255123 0.000000 
-0.054870 -1.263355 0.000000 
-0.028809 -1.217472 0.000000 
-0.186430 -1.191047 0.000000 
-0.137056 -1.193573 0.000000 
-0.114311 -1.139926 0.000000 
-0.058186 -1.155592 0.000000 
-0.029377 -1.115415 0.000000 
-0.265318 -1.127892 0.000000 
-0.217198 -1.128691 0.000000 
-0.196633 -1.071395 0.000000 
-0.143120 -1.080103 0.000000 
-0.116563 -1.032835 0.000000 
-0.058945 -1.052480 0.000000 
-0.029568 -1.014360 0.000000 
-0.344206 -1.064736 0.000000 
-0.296791 -1.064729 0.000000 
-0.278030 -1.004786 0.000000 
-0.225992 -1.010652 0.000000 
-0.201664 -0.958535 0.000000 
-0.145749 -0.972009 0.000000 
-0.117890 -0.927666 0.000000 
-0.059328 -0.950372 0.000000 
-0.029759 -0.913306 0.000000 
-0.058559 -1.363929 0.000000 
-0.162226 -1.384772 0.000000 
-0.123292 -1.349154 0.000000 
-0.142917 -1.300171 0.000000 
-0.261851 -1.406928 0.000000 
-0.229092 -1.369901 0.000000 
-0.256854 -1.318669 0.000000 
-0.209613 -1.284557 0.000000 
-0.223062 -1.236983 0.000000 
-0.360414 -1.429228 0.000000 
-0.329787 -1.392105 0.000000 
-0.361761 -1.340303 0.000000 
-0.321587 -1.303894 0.000000 
-0.341985 -1.253660 0.000000 
-0.290702 -1.220861 0.000000 
-0.302189 -1.174126 0.000000 
-0.458977 -1.451528 0.000000 
-0.429420 -1.414454 0.000000 
-0.464588 -1.362412 0.000000 
-0.427556 -1.325384 0.000000 
-0.453135 -1.273870 0.000000 
-0.407738 -1.238554 0.000000 
-0.425037 -1.189126 0.000000 
-0.370772 -1.157497 0.000000 
-0.381315 -1.111270 0.000000 
-0.046960 -1.414744 0.000000 
-0.095301 -1.508790 0.000000 
-0.098873 -1.456143 0.000000 
-0.149405 -1.440945 0.000000 
-0.140093 -1.600494 0.000000 
-0.148617 -1.551796 0.000000 
-0.205981 -1.541559 0.000000 
-0.203197 -1.483355 0.000000 
-0.248777 -1.464209 0.000000 
-0.184111 -1.691458 0.000000 
-0.194039 -1.644367 0.000000 
-0.254475 -1.637067 0.000000 
-0.257893 -1.582957 0.000000 
-0.309886 -1.567585 0.000000 
-0.303554 -1.507040 0.000000 
-0.347255 -1.486882 0.000000 
-0.228129 -1.782421 0.000000 
-0.238687 -1.736197 0.000000 
-0.301302 -1.731245 0.000000 
-0.307162 -1.679206 0.000000 
-0.363386 -1.667085 0.000000 
-0.362692 -1.609574 0.000000 
-0.412122 -1.592281 0.000000 
-0.403017 -1.530134 0.000000 
-0.445733 -1.509555 0.000000 
-0.000000 -1.437359 0.000000 
0.043388 -1.533790 0.000000 
-0.000000 -1.503757 0.000000 
-0.043388 -1.533790 0.000000 
0.087158 -1.625986 0.000000 
0.043769 -1.602288 0.000000 
-0.000000 -1.640754 0.000000 
-0.043769 -1.602288 0.000000 
-0.087158 -1.625986 0.000000 
0.130831 -1.717116 0.000000 
0.087824 -1.695517 0.000000 
0.044436 -1.738217 0.000000 
-0.000000 -1.707152 0.000000 
-0.044436 -1.738217 0.000000 
-0.087824 -1.695517 0.000000 
-0.130831 -1.717116 0.000000 
0.174505 -1.808246 0.000000 
0.131782 -1.787680 0.000000 
0.088871 -1.833546 0.000000 
0.044532 -1.805682 0.000000 
-0.000000 -1.842083 0.000000 
-0.044532 -1.805682 0.000000 
-0.088871 -1.833546 0.000000 
-0.131782 -1.787680 0.000000 
-0.174505 -1.808246 0.000000 
0.046960 -1.414744 0.000000 
0.149405 -1.440945 0.000000 
0.098873 -1.456143 0.000000 
0.095301 -1.508790 0.000000 
0.248777 -1.464209 0.000000 
0.203197 -1.483355 0.000000 
0.205981 -1.541559 0.000000 
0.148617 -1.551796 0.000000 
0.140093 -1.600494 0.000000 
0.347255 -1.486882 0.000000 
0.303554 -1.507040 0.000000 
0.309886 -1.567585 0.000000 
0.257893 -1.582957 0.000000 
0.254475 -1.637067 0.000000 
0.194039 -1.644367 0.000000 
0.184111 -1.691458 0.000000 
0.445733 -1.509555 0.000000 
0.403017 -1.530134 0.000000 
0.412122 -1.592281 0.000000 
0.362692 -1.609574 0.000000 
0.363386 -1.667085 0.000000 
0.307162 -1.679206 0.000000 
0.301302 -1.731245 0.000000 
0.238687 -1.736197 0.000000 
0.228129 -1.782421 0.000000 
0.058559 -1.363929 0.000000 
0.142917 -1.300171 0.000000 
0.123292 -1.349154 0.000000 
0.162226 -1.384772 0.000000 
0.223062 -1.236983 0.000000 
0.209613 -1.284557 0.000000 
0.256854 -1.318669 0.000000 
0.229092 -1.369901 0.000000 
0.261851 -1.406928 0.000000 
0.302189 -1.174126 0.000000 
0.290702 -1.220861 0.000000 
0.341985 -1.253660 0.000000 
0.321587 -1.303894 0.000000 
0.361761 -1.340303 0.000000 
0.329787 -1.392105 0.000000 
0.360414 -1.429228 0.000000 
0.381315 -1.111270 0.000000 
0.370772 -1.157497 0.000000 
0.425037 -1.189126 0.000000 
0.407738 -1.238554 0.000000 
0.453135 -1.273870 0.000000 
0.427556 -1.325384 0.000000 
0.464588 -1.362412 0.000000 
0.429420 -1.414454 0.000000 
0.458977 -1.451528 0.000000 
0.026061 -1.323178 0.000000 
0.028809 -1.217472 0.000000 
0.054870 -1.263355 0.000000 
0.106992 -1.255123 0.000000 
0.029377 -1.115415 0.000000 
0.058186 -1.155592 0.000000 
0.114311 -1.139926 0.000000 
0.137056 -1.193573 0.000000 
0.186430 -1.191047 0.000000 
0.029568 -1.014360 0.000000 
0.058945 -1.052480 0.000000 
0.116563 -1.032835 0.000000 
0.143120 -1.080103 0.000000 
0.196633 -1.071395 0.000000 
0.217198 -1.128691 0.000000 
0.265318 -1.127892 0.000000 
0.029759 -0.913306 0.000000 
0.059328 -0.950372 0.000000 
0.117890 -0.927666 0.000000 
0.145749 -0.972009 0.000000 
0.201664 -0.958535 0.000000 
0.225992 -1.010652 0.000000 
0.278030 -1.004786 0.000000 
0.296791 -1.064729 0.000000 
0.344206 -1.064736 0.000000 
CELLS 175 350 
1 0 
1 1 
1 2 
1 3 
1 4 
1 5 
1 6 
1 7 
1 8 
1 9 
1 10 
1 11 
1 12 
1 13 
1 14 
1 15 
1 16 
1 17 
1 18 
1 19 
1 20 
1 21 
1 22 
1 23 
1 24 
1 25 
1 26 
1 27 
1 28 
1 29 
1 30 
1 31 
1 32 
1 33 
1 34 
1 35 
1 36 
1 37 
1 38 
1 39 
1 40 
1 41 
1 42 
1 43 
1 44 
1 45 
1 46 
1 47 
1 48 
1 49 
1 50 
1 51 
1 52 
1 53 
1 54 
1 55 
1 56 
1 57 
1 58 
1 59 
1 60 
1 61 
1 62 
1 63 
1 64 
1 65 
1 66 
1 67 
1 68 
1 69 
1 70 
1 71 
1 72 
1 73 
1 74 
1 75 
1 76 
1 77 
1 78 
1 79 
1 80 
1 81 
1 82 
1 83 
1 84 
1 85 
1 86 
1 87 
1 88 
1 89 
1 90 
1 91 
1 92 
1 93 
1 94 
1 95 
1 96 
1 97 
1 98 
1 99 
1 100 
1 101 
1 102 
1 103 
1 104 
1 105 
1 106 
1 107 
1 108 
1 109 
1 110 
1 111 
1 112 
1 113 
1 114 
1 115 
1 116 
1 117 
1 118 
1 119 
1 120 
1 121 
1 122 
1 123 
1 124 
1 125 
1 126 
1 127 
1 128 
1 129 
1 130 
1 131 
1 132 
1 133 
1 134 
1 135 
1 136 
1 137 
1 138 
1 139 
1 140 
1 141 
1 142 
1 143 
1 144 
1 145 
1 146 
1 147 
1 148 
1 149 
1 150 
1 151 
1 152 
1 153 
1 154 
1 155 
1 156 
1 157 
1 158 
1 159 
1 160 
1 161 
1 162 
1 163 
1 164 
1 165 
1 166 
1 167 
1 168 
1 169 
1 170 
1 171 
1 172 
1 173 
1 174 
CELL_TYPES 175 
1 
1 
1 
1 
1 
1 
1 
1 
1 
1 
1 
1 
1 
1 
1 
1 
1 
1 
1 
1 
1 
1 
1 
1 
1 
1 
1 
1 
1 
1 
1 
1 
1 
1 
1 
1 
1 
1 
1 
1 
1 
1 
1 
1 
1 
1 
1 
1 
1 
1 
1 
1 
1 
1 
1 
1 
1 
1 
1 
1 
1 
1 
1 
1 
1 
1 
1 
1 
1 
1 
1 
1 
1 
1 
1 
1 
1 
1 
1 
1 
1 
1 
1 
1 
1 
1 
1 
1 
1 
1 
1 
1 
1 
1 
1 
1 
1 
1 
1 
1 
1 
1 
1 
1 
1 
1 
1 
1 
1 
1 
1 
1 
1 
1 
1 
1 
1 
1 
1 
1 
1 
1 
1 
1 
1 
1 
1 
1 
1 
1 
1 
1 
1 
1 
1 
1 
1 
1 
1 
1 
1 
1 
1 
1 
1 
1 
1 
1 
1 
1 
1 
1 
1 
1 
1 
1 
1 
1 
1 
1 
1 
1 
1 
1 
1 
1 
1 
1 
1 
1 
1 
1 
1 
1 
1 
POINT_DATA 175 
VECTORS X_GC float 
-0.026061 -1.323178 0.000000 
-0.106992 -1.255123 0.000000 
-0.054870 -1.263355 0.000000 
-0.028809 -1.217472 0.000000 
-0.186430 -1.191047 0.000000 
-0.137056 -1.193573 0.000000 
-0.114311 -1.139926 0.000000 
-0.058186 -1.155592 0.000000 
-0.029377 -1.115415 0.000000 
-0.265318 -1.127892 0.000000 
-0.217198 -1.128691 0.000000 
-0.196633 -1.071395 0.000000 
-0.143120 -1.080103 0.000000 
-0.116563 -1.032835 0.000000 
-0.058945 -1.052480 0.000000 
-0.029568 -1.014360 0.000000 
-0.344206 -1.064736 0.000000 
-0.296791 -1.064729 0.000000 
-0.278030 -1.004786 0.000000 
-0.225992 -1.010652 0.000000 
-0.201664 -0.958535 0.000000 
-0.145749 -0.972009 0.000000 
-0.117890 -0.927666 0.000000 
-0.059328 -0.950372 0.000000 
-0.029759 -0.913306 0.000000 
-0.058559 -1.363929 0.000000 
-0.162226 -1.384772 0.000000 
-0.123292 -1.349154 0.000000 
-0.142917 -1.300171 0.000000 
-0.261851 -1.406928 0.000000 
-0.229092 -1.369901 0.000000 
-0.256854 -1.318669 0.000000 
-0.209613 -1.284557 0.000000 
-0.223062 -1.236983 0.000000 
-0.360414 -1.429228 0.000000 
-0.329787 -1.392105 0.000000 
-0.361761 -1.340303 0.000000 
-0.321587 -1.303894 0.000000 
-0.341985 -1.253660 0.000000 
-0.290702 -1.220861 0.000000 
-0.302189 -1.174126 0.000000 
-0.458977 -1.451528 0.000000 
-0.429420 -1.414454 0.000000 
-0.464588 -1.362412 0.000000 
-0.427556 -1.325384 0.000000 
-0.453135 -1.273870 0.000000 
-0.407738 -1.238554 0.000000 
-0.425037 -1.189126 0.000000 
-0.370772 -1.157497 0.000000 
-0.381315 -1.111270 0.000000 
-0.046960 -1.414744 0.000000 
-0.095301 -1.508790 0.000000 
-0.098873 -1.456143 0.000000 
-0.149405 -1.440945 0.000000 
-0.140093 -1.600494 0.000000 
-0.148617 -1.551796 0.000000 
-0.205981 -1.541559 0.000000 
-0.203197 -1.483355 0.000000 
-0.248777 -1.464209 0.000000 
-0.184111 -1.691458 0.000000 
-0.194039 -1.644367 0.000000 
-0.254475 -1.637067 0.000000 
-0.257893 -1.582957 0.000000 
-0.309886 -1.567585 0.000000 
-0.303554 -1.507040 0.000000 
-0.347255 -1.486882 0.000000 
-0.228129 -1.782421 0.000000 
-0.238687 -1.736197 0.000000 
-0.301302 -1.731245 0.000000 
-0.307162 -1.679206 0.000000 
-0.363386 -1.667085 0.000000 
-0.362692 -1.609574 0.000000 
-0.412122 -1.592281 0.000000 
-0.403017 -1.530134 0.000000 
-0.445733 -1.509555 0.000000 
-0.000000 -1.437359 0.000000 
0.043388 -1.533790 0.000000 
-0.000000 -1.503757 0.000000 
-0.043388 -1.533790 0.000000 
0.087158 -1.625986 0.000000 
0.043769 -1.602288 0.000000 
-0.000000 -1.640754 0.000000 
-0.043769 -1.602288 0.000000 
-0.087158 -1.625986 0.000000 
0.130831 -1.717116 0.000000 
0.087824 -1.695517 0.000000 
0.044436 -1.738217 0.000000 
-0.000000 -1.707152 0.000000 
-0.044436 -1.738217 0.000000 
-0.087824 -1.695517 0.000000 
-0.130831 -1.717116 0.000000 
0.174505 -1.808246 0.000000 
0.131782 -1.787680 0.000000 
0.088871 -1.833546 0.000000 
0.044532 -1.805682 0.000000 
-0.000000 -1.842083 0.000000 
-0.044532 -1.805682 0.000000 
-0.088871 -1.833546 0.000000 
-0.131782 -1.787680 0.000000 
-0.174505 -1.808246 0.000000 
0.046960 -1.414744 0.000000 
0.149405 -1.440945 0.000000 
0.098873 -1.456143 0.000000 
0.095301 -1.508790 0.000000 
0.248777 -1.464209 0.000000 
0.203197 -1.483355 0.000000 
0.205981 -1.541559 0.000000 
0.148617 -1.551796 0.000000 
0.140093 -1.600494 0.000000 
0.347255 -1.486882 0.000000 
0.303554 -1.507040 0.000000 
0.309886 -1.567585 0.000000 
0.257893 -1.582957 0.000000 
0.254475 -1.637067 0.000000 
0.194039 -1.644367 0.000000 
0.184111 -1.691458 0.000000 
0.445733 -1.509555 0.000000 
0.403017 -1.530134 0.000000 
0.412122 -1.592281 0.000000 
0.362692 -1.609574 0.000000 
0.363386 -1.667085 0.000000 
0.307162 -1.679206 0.000000 
0.301302 -1.731245 0.000000 
0.238687 -1.736197 0.000000 
0.228129 -1.782421 0.000000 
0.058559 -1.363929 0.000000 
0.142917 -1.300171 0.000000 
0.123292 -1.349154 0.000000 
0.162226 -1.384772 0.000000 
0.223062 -1.236983 0.000000 
0.209613 -1.284557 0.000000 
0.256854 -1.318669 0.000000 
0.229092 -1.369901 0.000000 
0.261851 -1.406928 0.000000 
0.302189 -1.174126 0.000000 
0.290702 -1.220861 0.000000 
0.341985 -1.253660 0.000000 
0.321587 -1.303894 0.000000 
0.361761 -1.340303 0.000000 
0.329787 -1.392105 0.000000 
0.360414 -1.429228 0.000000 
0.381315 -1.111270 0.000000 
0.370772 -1.157497 0.000000 
0.425037 -1.189126 0.000000 
0.407738 -1.238554 0.000000 
0.453135 -1.273870 0.000000 
0.427556 -1.325384 0.000000 
0.464588 -1.362412 0.000000 
0.429420 -1.414454 0.000000 
0.458977 -1.451528 0.000000 
0.026061 -1.323178 0.000000 
0.028809 -1.217472 0.000000 
0.054870 -1.263355 0.000000 
0.106992 -1.255123 0.000000 
0.029377 -1.115415 0.000000 
0.058186 -1.155592 0.000000 
0.114311 -1.139926 0.000000 
0.137056 -1.193573 0.000000 
0.186430 -1.191047 0.000000 
0.029568 -1.014360 0.000000 
0.058945 -1.052480 0.000000 
0.116563 -1.032835 0.000000 
0.143120 -1.080103 0.000000 
0.196633 -1.071395 0.000000 
0.217198 -1.128691 0.000000 
0.265318 -1.127892 0.000000 
0.029759 -0.913306 0.000000 
0.059328 -0.950372 0.000000 
0.117890 -0.927666 0.000000 
0.145749 -0.972009 0.000000 
0.201664 -0.958535 0.000000 
0.225992 -1.010652 0.000000 
0.278030 -1.004786 0.000000 
0.296791 -1.064729 0.000000 
0.344206 -1.064736 0.000000 
VECTORS X_EC float 
0.338794 0.362906 0.000000 
-0.609100 -0.555842 0.000000 
0.713312 -0.444701 0.000000 
0.374519 0.935869 0.000000 
0.423588 0.579139 0.000000 
-0.218274 0.613242 0.000000 
-0.513962 -0.110997 0.000000 
0.756418 0.100489 0.000000 
0.381900 -0.441903 0.000000 
-0.550868 -0.273465 0.000000 
0.823577 -0.262669 0.000000 
0.556234 0.963827 0.000000 
-0.139443 -0.918604 0.000000 
-0.484677 0.443271 0.000000 
0.766286 0.708486 0.000000 
0.384386 0.193866 0.000000 
0.474677 0.873932 0.000000 
-0.141715 0.873836 0.000000 
-0.385608 0.064608 0.000000 
0.937896 0.143803 0.000000 
0.621631 -0.559777 0.000000 
-0.105264 -0.377878 0.000000 
-0.467428 -0.976504 0.000000 
0.771260 -0.669976 0.000000 
0.386873 0.829635 0.000000 
0.761262 0.913041 0.000000 
0.108942 -0.805583 0.000000 
-0.397202 0.713578 0.000000 
-0.142083 0.052303 0.000000 
-0.595936 -0.506472 0.000000 
0.978194 0.993662 0.000000 
-0.660903 0.302037 0.000000 
0.724964 -0.158483 0.000000 
0.899809 -0.800732 0.000000 
0.685384 -0.205420 0.000000 
0.287229 -0.706578 0.000000 
0.702895 0.594093 0.000000 
0.180633 0.102575 0.000000 
0.445811 -0.575585 0.000000 
-0.220880 0.981629 0.000000 
-0.071546 0.350704 0.000000 
-0.033296 0.095632 0.000000 
-0.417537 -0.404877 0.000000 
0.039645 0.892560 0.000000 
-0.441768 0.392689 0.000000 
-0.109248 -0.302762 0.000000 
-0.699407 -0.779517 0.000000 
-0.474522 0.553204 0.000000 
0.820030 0.126210 0.000000 
0.957100 -0.497861 0.000000 
0.610485 -0.400953 0.000000 
-0.761092 0.868666 0.000000 
-0.714655 0.157929 0.000000 
-0.057734 -0.047238 0.000000 
-0.178789 0.106671 0.000000 
-0.067979 -0.550755 0.000000 
0.677748 -0.688959 0.000000 
0.641556 0.525296 0.000000 
-0.765897 0.266817 0.000000 
0.393446 -0.665320 0.000000 
0.522510 0.698950 0.000000 
-0.691820 0.600405 0.000000 
-0.647393 -0.130077 0.000000 
0.028512 -0.337604 0.000000 
-0.053800 0.845036 0.000000 
0.514316 0.572905 0.000000 
0.965681 0.562689 0.000000 
-0.897068 -0.061340 0.000000 
-0.083078 -0.128193 0.000000 
-0.006893 -0.830718 0.000000 
0.724017 -0.994351 0.000000 
0.714996 0.229246 0.000000 
-0.642413 -0.004211 0.000000 
-0.760780 -0.843192 0.000000 
-0.205471 0.878993 0.000000 
0.000000 -0.095651 0.000000 
-0.564049 -0.793838 0.000000 
0.000000 0.800726 0.000000 
0.564049 -0.793838 0.000000 
0.866949 0.450817 0.000000 
-0.569003 0.130886 0.000000 
0.000000 0.650174 0.000000 
0.569003 0.130886 0.000000 
-0.866949 0.450817 0.000000 
0.299194 -0.318933 0.000000 
0.858290 -0.610517 0.000000 
-0.577662 -0.034071 0.000000 
0.000000 -0.453449 0.000000 
0.577662 -0.034071 0.000000 
-0.858290 -0.610517 0.000000 
-0.299194 -0.318933 0.000000 
-0.268560 0.911317 0.000000 
0.286830 0.633675 0.000000 
0.844677 -0.747126 0.000000 
-0.578910 0.876711 0.000000 
0.000000 -0.631885 0.000000 
0.578910 0.876711 0.000000 
-0.844677 -0.747126 0.000000 
-0.286830 0.633675 0.000000 
0.268560 0.911317 0.000000 
-0.610485 -0.400953 0.000000 
0.057734 -0.047238 0.000000 
0.714655 0.157929 0.000000 
0.761092 0.868666 0.000000 
0.765897 0.266817 0.000000 
-0.641556 0.525296 0.000000 
-0.677748 -0.688959 0.000000 
0.067979 -0.550755 0.000000 
0.178789 0.106671 0.000000 
-0.514316 0.572905 0.000000 
0.053800 0.845036 0.000000 
-0.028512 -0.337604 0.000000 
0.647393 -0.130077 0.000000 
0.691820 0.600405 0.000000 
-0.522510 0.698950 0.000000 
-0.393446 -0.665320 0.000000 
0.205471 0.878993 0.000000 
0.760780 -0.843192 0.000000 
0.642413 -0.004211 0.000000 
-0.714996 0.229246 0.000000 
-0.724017 -0.994351 0.000000 
0.006894 -0.830718 0.000000 
0.083078 -0.128193 0.000000 
0.897068 -0.061340 0.000000 
-0.965681 0.562689 0.000000 
-0.761262 0.913041 0.000000 
0.142083 0.052303 0.000000 
0.397202 0.713578 0.000000 
-0.108942 -0.805583 0.000000 
-0.899809 -0.800732 0.000000 
-0.724964 -0.158483 0.000000 
0.660903 0.302037 0.000000 
-0.978194 0.993662 0.000000 
0.595936 -0.506472 0.000000 
0.071546 0.350704 0.000000 
0.220880 0.981629 0.000000 
-0.445811 -0.575585 0.000000 
-0.180633 0.102575 0.000000 
-0.702895 0.594093 0.000000 
-0.287229 -0.706578 0.000000 
-0.685384 -0.205420 0.000000 
-0.957100 -0.497861 0.000000 
-0.820030 0.126210 0.000000 
0.474522 0.553204 0.000000 
0.699407 -0.779517 0.000000 
0.109248 -0.302762 0.000000 
0.441768 0.392689 0.000000 
-0.039645 0.892560 0.000000 
0.417537 -0.404877 0.000000 
0.033296 0.095632 0.000000 
-0.338794 0.362906 0.000000 
-0.374519 0.935869 0.000000 
-0.713312 -0.444701 0.000000 
0.609100 -0.555842 0.000000 
-0.381900 -0.441903 0.000000 
-0.756418 0.100489 0.000000 
0.513962 -0.110997 0.000000 
0.218274 0.613242 0.000000 
-0.423588 0.579139 0.000000 
-0.384386 0.193866 0.000000 
-0.766286 0.708486 0.000000 
0.484677 0.443271 0.000000 
0.139443 -0.918604 0.000000 
-0.556234 0.963827 0.000000 
-0.823577 -0.262669 0.000000 
0.550868 -0.273465 0.000000 
-0.386873 0.829635 0.000000 
-0.771260 -0.669976 0.000000 
0.467428 -0.976504 0.000000 
0.105264 -0.377878 0.000000 
-0.621631 -0.559777 0.000000 
-0.937896 0.143803 0.000000 
0.385608 0.064608 0.000000 
0.141715 0.873836 0.000000 
-0.474677 0.873932 0.000000 
CELL_DATA 175 
SCALARS MASS float 
LOOKUP_TABLE default 
0.781831 
0.864274 
0.946717 
0.864274 
0.881307 
0.921110 
0.858535 
0.921110 
0.881307 
0.887046 
0.910001 
0.869829 
0.915556 
0.869829 
0.910001 
0.887046 
0.892784 
0.915740 
0.892784 
0.927218 
0.892784 
0.927218 
0.892784 
0.915740 
0.892784 
0.781831 
0.864274 
0.946717 
0.864274 
0.881307 
0.921110 
0.858535 
0.921110 
0.881307 
0.887046 
0.910001 
0.869829 
0.915556 
0.869829 
0.910001 
0.887046 
0.892784 
0.915740 
0.892784 
0.927218 
0.892784 
0.927218 
0.892784 
0.915740 
0.892784 
0.781831 
0.864274 
0.946717 
0.864274 
0.881307 
0.921110 
0.858535 
0.921110 
0.881307 
0.887046 
0.910001 
0.869829 
0.915556 
0.869829 
0.910001 
0.887046 
0.892784 
0.915740 
0.892784 
0.927218 
0.892784 
0.927218 
0.892784 
0.915740 
0.892784 
0.781831 
0.864274 
0.946717 
0.864274 
0.881307 
0.921110 
0.858535 
0.921110 
0.881307 
0.887046 
0.910001 
0.869829 
0.915556 
0.869829 
0.910001 
0.887046 
0.892784 
0.915740 
0.892784 
0.927218 
0.892784 
0.927218 
0.892784 
0.915740 
0.892784 
0.781831 
0.864274 
0.946717 
0.864274 
0.881307 
0.921110 
0.858535 
0.921110 
0.881307 
0.887046 
0.910001 
0.869829 
0.915556 
0.869829 
0.910001 
0.887046 
0.892784 
0.915740 
0.892784 
0.927218 
0.892784 
0.927218 
0.892784 
0.915740 
0.892784 
0.781831 
0.864274 
0.946717 
0.864274 
0.881307 
0.921110 
0.858535 
0.921110 
0.881307 
0.887046 
0.910001 
0.869829 
0.915556 
0.869829 
0.910001 
0.887046 
0.892784 
0.915740 
0.892784 
0.927218 
0.892784 
0.927218 
0.892784 
0.915740 
0.892784 
0.781831 
0.864274 
0.946717 
0.864274 
0.881307 
0.921110 
0.858535 
0.921110 
0.881307 
0.887046 
0.910001 
0.869829 
0.915556 
0.869829 
0.910001 
0.887046 
0.892784 
0.915740 
0.892784 
0.927218 
0.892784 
0.927218 
0.892784 
0.915740 
0.892784 
SCALARS MASS float 
LOOKUP_TABLE default 
0.781831 
0.864274 
0.946717 
0.864274 
0.881307 
0.921110 
0.858535 
0.921110 
0.881307 
0.887046 
0.910001 
0.869829 
0.915556 
0.869829 
0.910001 
0.887046 
0.892784 
0.915740 
0.892784 
0.927218 
0.892784 
0.927218 
0.892784 
0.915740 
0.892784 
0.781831 
0.864274 
0.946717 
0.864274 
0.881307 
0.921110 
0.858535 
0.921110 
0.881307 
0.887046 
0.910001 
0.869829 
0.915556 
0.869829 
0.910001 
0.887046 
0.892784 
0.915740 
0.892784 
0.927218 
0.892784 
0.927218 
0.892784 
0.915740 
0.892784 
0.781831 
0.864274 
0.946717 
0.864274 
0.881307 
0.921110 
0.858535 
0.921110 
0.881307 
0.887046 
0.910001 
0.869829 
0.915556 
0.869829 
0.910001 
0.887046 
0.892784 
0.915740 
0.892784 
0.927218 
0.892784 
0.927218 
0.892784 
0.915740 
0.892784 
0.781831 
0.864274 
0.946717 
0.864274 
0.881307 
0.921110 
0.858535 
0.921110 
0.881307 
0.887046 
0.910001 
0.869829 
0.915556 
0.869829 
0.910001 
0.887046 
0.892784 
0.915740 
0.892784 
0.927218 
0.892784 
0.927218 
0.892784 
0.915740 
0.892784 
0.781831 
0.864274 
0.946717 
0.864274 
0.881307 
0.921110 
0.858535 
0.921110 
0.881307 
0.887046 
0.910001 
0.869829 
0.915556 
0.869829 
0.910001 
0.887046 
0.892784 
0.915740 
0.892784 
0.927218 
0.892784 
0.927218 
0.892784 
0.915740 
0.892784 
0.781831 
0.864274 
0.946717 
0.864274 
0.881307 
0.921110 
0.858535 
0.921110 
0.881307 
0.887046 
0.910001 
0.869829 
0.915556 
0.869829 
0.910001 
0.887046 
0.892784 
0.915740 
0.892784 
0.927218 
0.892784 
0.927218 
0.892784 
0.915740 
0.892784 
0.781831 
0.864274 
0.946717 
0.864274 
0.881307 
0.921110 
0.858535 
0.921110 
0.881307 
0.887046 
0.910001 
0.869829 
0.915556 
0.869829 
0.910001 
0.887046 
0.892784 
0.915740 
0.892784 
0.927218 
0.892784 
0.927218 
0.892784 
0.915740 
0.892784 
SCALARS DENSITY float 
LOOKUP_TABLE default 
200.000000 
200.000000 
200.000000 
200.000000 
200.000000 
200.000000 
200.000000 
200.000000 
200.000000 
200.000000 
200.000000 
200.000000 
200.000000 
200.000000 
200.000000 
200.000000 
200.000000 
200.000000 
200.000000 
200.000000 
200.000000 
200.000000 
200.000000 
200.000000 
200.000000 
200.000000 
200.000000 
200.000000 
200.000000 
200.000000 
200.000000 
200.000000 
200.000000 
200.000000 
200.000000 
200.000000 
200.000000 
200.000000 
200.000000 
200.000000 
200.000000 
200.000000 
200.000000 
200.000000 
200.000000 
200.000000 
200.000000 
200.000000 
200.000000 
200.000000 
200.000000 
200.000000 
200.000000 
200.000000 
200.000000 
200.000000 
200.000000 
200.000000 
200.000000 
200.000000 
200.000000 
200.000000 
200.000000 
200.000000 
200.000000 
200.000000 
200.000000 
200.000000 
200.000000 
200.000000 
200.000000 
200.000000 
200.000000 
200.000000 
200.000000 
200.000000 
200.000000 
200.000000 
200.000000 
200.000000 
200.000000 
200.000000 
200.000000 
200.000000 
200.000000 
200.000000 
200.000000 
200.000000 
200.000000 
200.000000 
200.000000 
200.000000 
200.000000 
200.000000 
200.000000 
200.000000 
200.000000 
200.000000 
200.000000 
200.000000 
200.000000 
200.000000 
200.000000 
200.000000 
200.000000 
200.000000 
200.000000 
200.000000 
200.000000 
200.000000 
200.000000 
200.000000 
200.000000 
200.000000 
200.000000 
200.000000 
200.000000 
200.000000 
200.000000 
200.000000 
200.000000 
200.000000 
200.000000 
200.000000 
200.000000 
200.000000 
200.000000 
200.000000 
200.000000 
200.000000 
200.000000 
200.000000 
200.000000 
200.000000 
200.000000 
200.000000 
200.000000 
200.000000 
200.000000 
200.000000 
200.000000 
200.000000 
200.000000 
200.000000 
200.000000 
200.000000 
200.000000 
200.000000 
200.000000 
200.000000 
200.000000 
200.000000 
200.000000 
200.000000 
200.000000 
200.000000 
200.000000 
200.000000 
200.000000 
200.000000 
200.000000 
200.000000 
200.000000 
200.000000 
200.000000 
200.000000 
200.000000 
200.000000 
200.000000 
200.000000 
200.000000 
200.000000 
200.000000 
200.000000 
200.000000 
SCALARS ELEM_i float 
LOOKUP_TABLE default 
173 
200 
173 
174 
201 
201 
201 
174 
174 
228 
201 
202 
201 
202 
175 
175 
229 
229 
229 
202 
202 
202 
202 
175 
176 
173 
199 
200 
200 
226 
200 
227 
200 
200 
226 
226 
227 
227 
227 
228 
228 
253 
253 
254 
254 
254 
254 
255 
228 
228 
172 
199 
199 
199 
198 
198 
198 
199 
226 
197 
198 
225 
225 
225 
226 
226 
197 
224 
224 
224 
224 
225 
252 
252 
253 
172 
171 
172 
171 
144 
171 
171 
171 
198 
143 
143 
170 
170 
170 
197 
197 
143 
143 
142 
170 
169 
170 
196 
197 
197 
172 
145 
145 
145 
118 
145 
144 
144 
144 
118 
118 
117 
117 
117 
144 
143 
91 
90 
90 
117 
116 
116 
116 
116 
143 
173 
146 
146 
145 
146 
146 
119 
146 
118 
120 
120 
119 
119 
119 
118 
118 
120 
120 
93 
92 
92 
92 
92 
91 
91 
173 
174 
173 
146 
174 
174 
147 
147 
147 
175 
175 
148 
147 
148 
147 
120 
176 
175 
148 
148 
148 
148 
121 
121 
121 
VECTORS VELOCITY float 
0.000000 -5.197338 0.000000 
0.000000 -5.197338 0.000000 
0.000000 -5.197338 0.000000 
0.000000 -5.197338 0.000000 
0.000000 -5.197338 0.000000 
0.000000 -5.197338 0.000000 
0.000000 -5.197338 0.000000 
0.000000 -5.197338 0.000000 
0.000000 -5.197338 0.000000 
0.000000 -5.197338 0.000000 
0.000000 -5.197338 0.000000 
-0.000000 -5.197338 0.000000 
0.000000 -5.197338 0.000000 
0.000000 -5.197338 0.000000 
0.000000 -5.197338 0.000000 
0.000000 -5.197338 0.000000 
-0.000000 -5.197338 0.000000 
-0.000000 -5.197338 0.000000 
0.000000 -5.197338 0.000000 
0.000000 -5.197338 0.000000 
0.000000 -5.197338 0.000000 
0.000000 -5.197338 0.000000 
0.000000 -5.197338 0.000000 
0.000000 -5.197338 0.000000 
0.000000 -5.197338 0.000000 
0.000000 -5.197338 0.000000 
0.000000 -5.197338 0.000000 
-0.000000 -5.197338 0.000000 
-0.000000 -5.197338 0.000000 
0.000000 -5.197338 0.000000 
0.000000 -5.197338 0.000000 
-0.000000 -5.197338 0.000000 
-0.000000 -5.197338 0.000000 
0.000000 -5.197338 0.000000 
-0.000000 -5.197338 0.000000 
-0.000000 -5.197338 0.000000 
-0.000000 -5.197338 0.000000 
0.000000 -5.197338 0.000000 
0.000000 -5.197338 0.000000 
0.000000 -5.197338 0.000000 
0.000000 -5.197338 0.000000 
0.000000 -5.197338 0.000000 
-0.000000 -5.197338 0.000000 
0.000000 -5.197338 0.000000 
0.000000 -5.197338 0.000000 
-0.000000 -5.197338 0.000000 
0.000000 -5.197338 0.000000 
-0.000000 -5.197338 0.000000 
0.000000 -5.197338 0.000000 
-0.000000 -5.197338 0.000000 
-0.000000 -5.197338 0.000000 
-0.000000 -5.197338 0.000000 
-0.000000 -5.197338 0.000000 
0.000000 -5.197338 0.000000 
-0.000000 -5.197338 0.000000 
-0.000000 -5.197338 0.000000 
-0.000000 -5.197338 0.000000 
0.000000 -5.197338 0.000000 
0.000000 -5.197338 0.000000 
0.000000 -5.197338 0.000000 
0.000000 -5.197338 0.000000 
-0.000000 -5.197338 0.000000 
-0.000000 -5.197338 0.000000 
0.000000 -5.197338 0.000000 
0.000000 -5.197338 0.000000 
-0.000000 -5.197338 0.000000 
-0.000000 -5.197338 0.000000 
0.000000 -5.197338 0.000000 
-0.000000 -5.197338 0.000000 
-0.000000 -5.197338 0.000000 
-0.000000 -5.197338 0.000000 
0.000000 -5.197338 0.000000 
-0.000000 -5.197338 0.000000 
-0.000000 -5.197338 0.000000 
-0.000000 -5.197338 0.000000 
-0.000000 -5.197338 0.000000 
0.000000 -5.197338 0.000000 
-0.000000 -5.197338 0.000000 
-0.000000 -5.197338 0.000000 
0.000000 -5.197338 0.000000 
0.000000 -5.197338 0.000000 
0.000000 -5.197338 0.000000 
0.000000 -5.197338 0.000000 
0.000000 -5.197338 0.000000 
-0.000000 -5.197338 0.000000 
0.000000 -5.197338 0.000000 
-0.000000 -5.197338 0.000000 
-0.000000 -5.197338 0.000000 
-0.000000 -5.197338 0.000000 
-0.000000 -5.197338 0.000000 
-0.000000 -5.197338 0.000000 
-0.000000 -5.197338 0.000000 
-0.000000 -5.197338 0.000000 
-0.000000 -5.197338 0.000000 
-0.000000 -5.197338 0.000000 
-0.000000 -5.197338 0.000000 
0.000000 -5.197338 0.000000 
-0.000000 -5.197338 0.000000 
-0.000000 -5.197338 0.000000 
-0.000000 -5.197338 0.000000 
0.000000 -5.197338 0.000000 
0.000000 -5.197338 0.000000 
0.000000 -5.197338 0.000000 
0.000000 -5.197338 0.000000 
0.000000 -5.197338 0.000000 
-0.000000 -5.197338 0.000000 
-0.000000 -5.197338 0.000000 
0.000000 -5.197338 0.000000 
0.000000 -5.197338 0.000000 
-0.000000 -5.197338 0.000000 
-0.000000 -5.197338 0.000000 
-0.000000 -5.197338 0.000000 
-0.000000 -5.197338 0.000000 
-0.000000 -5.197338 0.000000 
-0.000000 -5.197338 0.000000 
-0.000000 -5.197338 0.000000 
0.000000 -5.197338 0.000000 
-0.000000 -5.197338 0.000000 
-0.000000 -5.197338 0.000000 
-0.000000 -5.197338 0.000000 
-0.000000 -5.197338 0.000000 
-0.000000 -5.197338 0.000000 
-0.000000 -5.197338 0.000000 
-0.000000 -5.197338 0.000000 
0.000000 -5.197338 0.000000 
0.000000 -5.197338 0.000000 
0.000000 -5.197338 0.000000 
0.000000 -5.197338 0.000000 
0.000000 -5.197338 0.000000 
0.000000 -5.197338 0.000000 
-0.000000 -5.197338 0.000000 
-0.000000 -5.197338 0.000000 
0.000000 -5.197338 0.000000 
0.000000 -5.197338 0.000000 
0.000000 -5.197338 0.000000 
0.000000 -5.197338 0.000000 
0.000000 -5.197338 0.000000 
0.000000 -5.197338 0.000000 
0.000000 -5.197338 0.000000 
0.000000 -5.197338 0.000000 
0.000000 -5.197338 0.000000 
0.000000 -5.197338 0.000000 
0.000000 -5.197338 0.000000 
-0.000000 -5.197338 0.000000 
0.000000 -5.197338 0.000000 
0.000000 -5.197338 0.000000 
0.000000 -5.197338 0.000000 
-0.000000 -5.197338 0.000000 
-0.000000 -5.197338 0.000000 
0.000000 -5.197338 0.000000 
0.000000 -5.197338 0.000000 
0.000000 -5.197338 0.000000 
0.000000 -5.197338 0.000000 
-0.000000 -5.197338 0.000000 
0.000000 -5.197338 0.000000 
0.000000 -5.197338 0.000000 
0.000000 -5.197338 0.000000 
0.000000 -5.197338 0.000000 
0.000000 -5.197338 0.000000 
0.000000 -5.197338 0.000000 
0.000000 -5.197338 0.000000 
0.000000 -5.197338 0.000000 
0.000000 -5.197338 0.000000 
-0.000000 -5.197338 0.000000 
-0.000000 -5.197338 0.000000 
-0.000000 -5.197338 0.000000 
0.000000 -5.197338 0.000000 
0.000000 -5.197338 0.000000 
0.000000 -5.197338 0.000000 
0.000000 -5.197338 0.000000 
0.000000 -5.197338 0.000000 
0.000000 -5.197338 0.000000 
-0.000000 -5.197338 0.000000 
-0.000000 -5.197338 0.000000 
-0.000000 -5.197338 0.000000 
TENSORS STRESS float 
-0.000000 -0.000000 0.000000 
0.000000 0.000000 0.000000 
0.000000 0.000000 0.000000 

0.000000 -0.000000 0.000000 
0.000000 0.000000 0.000000 
0.000000 0.000000 0.000000 

0.000000 -0.000000 0.000000 
0.000000 0.000000 0.000000 
0.000000 0.000000 0.000000 

-0.000000 -0.000000 0.000000 
0.000000 -0.000000 0.000000 
0.000000 0.000000 0.000000 

-0.000000 0.000000 0.000000 
0.000000 -0.000000 0.000000 
0.000000 0.000000 0.000000 

-0.000000 0.000000 0.000000 
0.000000 -0.000000 0.000000 
0.000000 0.000000 0.000000 

-0.000000 -0.000000 0.000000 
0.000000 0.000000 0.000000 
0.000000 0.000000 0.000000 

-0.000000 -0.000000 0.000000 
0.000000 -0.000000 0.000000 
0.000000 0.000000 0.000000 

-0.000000 0.000000 0.000000 
0.000000 -0.000000 0.000000 
0.000000 0.000000 0.000000 

0.000000 0.000000 0.000000 
0.000000 0.000000 0.000000 
0.000000 0.000000 0.000000 

-0.000000 0.000000 0.000000 
0.000000 -0.000000 0.000000 
0.000000 0.000000 0.000000 

-0.000000 0.000000 0.000000 
0.000000 -0.000000 0.000000 
0.000000 0.000000 0.000000 

-0.000000 0.000000 0.000000 
0.000000 0.000000 0.000000 
0.000000 0.000000 0.000000 

0.000000 0.000000 0.000000 
0.000000 0.000000 0.000000 
0.000000 0.000000 0.000000 

0.000000 0.000000 0.000000 
0.000000 0.000000 0.000000 
0.000000 0.000000 0.000000 

0.000000 0.000000 0.000000 
0.000000 0.000000 0.000000 
0.000000 0.000000 0.000000 

0.000000 0.000000 0.000000 
0.000000 0.000000 0.000000 
0.000000 0.000000 0.000000 

-0.000000 0.000000 0.000000 
0.000000 -0.000000 0.000000 
0.000000 0.000000 0.000000 

-0.000000 -0.000000 0.000000 
0.000000 -0.000000 0.000000 
0.000000 0.000000 0.000000 

0.000000 -0.000000 0.000000 
0.000000 0.000000 0.000000 
0.000000 0.000000 0.000000 

-0.000000 -0.000000 0.000000 
0.000000 -0.000000 0.000000 
0.000000 0.000000 0.000000 

-0.000000 -0.000000 0.000000 
0.000000 -0.000000 0.000000 
0.000000 0.000000 0.000000 

-0.000000 0.000000 0.000000 
0.000000 -0.000000 0.000000 
0.000000 0.000000 0.000000 

0.000000 0.000000 0.000000 
0.000000 0.000000 0.000000 
0.000000 0.000000 0.000000 

0.000000 0.000000 0.000000 
0.000000 0.000000 0.000000 
0.000000 0.000000 0.000000 

-0.000000 -0.000000 0.000000 
0.000000 -0.000000 0.000000 
0.000000 0.000000 0.000000 

-0.000000 0.000000 0.000000 
0.000000 -0.000000 0.000000 
0.000000 0.000000 0.000000 

0.000000 -0.000000 0.000000 
0.000000 0.000000 0.000000 
0.000000 0.000000 0.000000 

-0.000000 -0.000000 0.000000 
0.000000 -0.000000 0.000000 
0.000000 0.000000 0.000000 

-0.000000 0.000000 0.000000 
0.000000 0.000000 0.000000 
0.000000 0.000000 0.000000 

-0.000000 0.000000 0.000000 
0.000000 -0.000000 0.000000 
0.000000 0.000000 0.000000 

-0.000000 -0.000000 0.000000 
0.000000 -0.000000 0.000000 
0.000000 0.000000 0.000000 

-0.000000 -0.000000 0.000000 
0.000000 -0.000000 0.000000 
0.000000 0.000000 0.000000 

0.000000 -0.000000 0.000000 
0.000000 0.000000 0.000000 
0.000000 0.000000 0.000000 

0.000000 0.000000 0.000000 
0.000000 0.000000 0.000000 
0.000000 0.000000 0.000000 

-0.000000 0.000000 0.000000 
0.000000 -0.000000 0.000000 
0.000000 0.000000 0.000000 

-0.000000 -0.000000 0.000000 
0.000000 -0.000000 0.000000 
0.000000 0.000000 0.000000 

-0.000000 -0.000000 0.000000 
0.000000 -0.000000 0.000000 
0.000000 0.000000 0.000000 

-0.000000 -0.000000 0.000000 
0.000000 -0.000000 0.000000 
0.000000 0.000000 0.000000 

0.000000 -0.000000 0.000000 
0.000000 0.000000 0.000000 
0.000000 0.000000 0.000000 

0.000000 -0.000000 0.000000 
0.000000 0.000000 0.000000 
0.000000 0.000000 0.000000 

-0.000000 -0.000000 0.000000 
0.000000 -0.000000 0.000000 
0.000000 0.000000 0.000000 

0.000000 -0.000000 0.000000 
0.000000 0.000000 0.000000 
0.000000 0.000000 0.000000 

-0.000000 -0.000000 0.000000 
0.000000 -0.000000 0.000000 
0.000000 0.000000 0.000000 

0.000000 0.000000 0.000000 
0.000000 0.000000 0.000000 
0.000000 0.000000 0.000000 

-0.000000 -0.000000 0.000000 
0.000000 -0.000000 0.000000 
0.000000 0.000000 0.000000 

0.000000 0.000000 0.000000 
0.000000 0.000000 0.000000 
0.000000 0.000000 0.000000 

0.000000 0.000000 0.000000 
0.000000 0.000000 0.000000 
0.000000 0.000000 0.000000 

0.000000 -0.000000 0.000000 
0.000000 0.000000 0.000000 
0.000000 0.000000 0.000000 

0.000000 0.000000 0.000000 
0.000000 0.000000 0.000000 
0.000000 0.000000 0.000000 

0.000000 -0.000000 0.000000 
0.000000 0.000000 0.000000 
0.000000 0.000000 0.000000 

-0.000000 0.000000 0.000000 
0.000000 -0.000000 0.000000 
0.000000 0.000000 0.000000 

0.000000 0.000000 0.000000 
0.000000 0.000000 0.000000 
0.000000 0.000000 0.000000 

-0.000000 0.000000 0.000000 
0.000000 -0.000000 0.000000 
0.000000 0.000000 0.000000 

-0.000000 -0.000000 0.000000 
0.000000 -0.000000 0.000000 
0.000000 0.000000 0.000000 

0.000000 -0.000000 0.000000 
0.000000 0.000000 0.000000 
0.000000 0.000000 0.000000 

-0.000000 0.000000 0.000000 
0.000000 -0.000000 0.000000 
0.000000 0.000000 0.000000 

0.000000 0.000000 0.000000 
0.000000 0.000000 0.000000 
0.000000 0.000000 0.000000 

-0.000000 0.000000 0.000000 
0.000000 -0.000000 0.000000 
0.000000 0.000000 0.000000 

-0.000000 -0.000000 0.000000 
0.000000 -0.000000 0.000000 
0.000000 0.000000 0.000000 

-0.000000 0.000000 0.000000 
0.000000 0.000000 0.000000 
0.000000 0.000000 0.000000 

0.000000 0.000000 0.000000 
0.000000 0.000000 0.000000 
0.000000 0.000000 0.000000 

0.000000 -0.000000 0.000000 
0.000000 0.000000 0.000000 
0.000000 0.000000 0.000000 

0.000000 -0.000000 0.000000 
0.000000 0.000000 0.000000 
0.000000 0.000000 0.000000 

-0.000000 0.000000 0.000000 
0.000000 -0.000000 0.000000 
0.000000 0.000000 0.000000 

-0.000000 0.000000 0.000000 
0.000000 -0.000000 0.000000 
0.000000 0.000000 0.000000 

-0.000000 -0.000000 0.000000 
0.000000 -0.000000 0.000000 
0.000000 0.000000 0.000000 

-0.000000 0.000000 0.000000 
0.000000 -0.000000 0.000000 
0.000000 0.000000 0.000000 

-0.000000 -0.000000 0.000000 
0.000000 -0.000000 0.000000 
0.000000 0.000000 0.000000 

0.000000 -0.000000 0.000000 
0.000000 0.000000 0.000000 
0.000000 0.000000 0.000000 

-0.000000 -0.000000 0.000000 
0.000000 -0.000000 0.000000 
0.000000 0.000000 0.000000 

0.000000 0.000000 0.000000 
0.000000 0.000000 0.000000 
0.000000 0.000000 0.000000 

-0.000000 -0.000000 0.000000 
0.000000 -0.000000 0.000000 
0.000000 0.000000 0.000000 

-0.000000 0.000000 0.000000 
0.000000 -0.000000 0.000000 
0.000000 0.000000 0.000000 

-0.000000 -0.000000 0.000000 
0.000000 -0.000000 0.000000 
0.000000 0.000000 0.000000 

-0.000000 -0.000000 0.000000 
0.000000 -0.000000 0.000000 
0.000000 0.000000 0.000000 

0.000000 -0.000000 0.000000 
0.000000 0.000000 0.000000 
0.000000 0.000000 0.000000 

-0.000000 -0.000000 0.000000 
0.000000 -0.000000 0.000000 
0.000000 0.000000 0.000000 

0.000000 -0.000000 0.000000 
0.000000 0.000000 0.000000 
0.000000 0.000000 0.000000 

-0.000000 -0.000000 0.000000 
0.000000 -0.000000 0.000000 
0.000000 0.000000 0.000000 

0.000000 -0.000000 0.000000 
0.000000 0.000000 0.000000 
0.000000 0.000000 0.000000 

0.000000 -0.000000 0.000000 
0.000000 0.000000 0.000000 
0.000000 0.000000 0.000000 

0.000000 -0.000000 0.000000 
0.000000 0.000000 0.000000 
0.000000 0.000000 0.000000 

-0.000000 -0.000000 0.000000 
0.000000 -0.000000 0.000000 
0.000000 0.000000 0.000000 

-0.000000 0.000000 0.000000 
0.000000 -0.000000 0.000000 
0.000000 0.000000 0.000000 

0.000000 0.000000 0.000000 
0.000000 0.000000 0.000000 
0.000000 0.000000 0.000000 

0.000000 0.000000 0.000000 
0.000000 0.000000 0.000000 
0.000000 0.000000 0.000000 

0.000000 0.000000 0.000000 
0.000000 0.000000 0.000000 
0.000000 0.000000 0.000000 

-0.000000 0.000000 0.000000 
0.000000 -0.000000 0.000000 
0.000000 0.000000 0.000000 

0.000000 -0.000000 0.000000 
0.000000 0.000000 0.000000 
0.000000 0.000000 0.000000 

-0.000000 -0.000000 0.000000 
0.000000 -0.000000 0.000000 
0.000000 0.000000 0.000000 

0.000000 0.000000 0.000000 
0.000000 0.000000 0.000000 
0.000000 0.000000 0.000000 

0.000000 0.000000 0.000000 
0.000000 0.000000 0.000000 
0.000000 0.000000 0.000000 

-0.000000 -0.000000 0.000000 
0.000000 -0.000000 0.000000 
0.000000 0.000000 0.000000 

-0.000000 0.000000 0.000000 
0.000000 -0.000000 0.000000 
0.000000 0.000000 0.000000 

0.000000 -0.000000 0.000000 
0.000000 0.000000 0.000000 
0.000000 0.000000 0.000000 

-0.000000 0.000000 0.000000 
0.000000 0.000000 0.000000 
0.000000 0.000000 0.000000 

0.000000 -0.000000 0.000000 
0.000000 0.000000 0.000000 
0.000000 0.000000 0.000000 

-0.000000 0.000000 0.000000 
0.000000 -0.000000 0.000000 
0.000000 0.000000 0.000000 

-0.000000 -0.000000 0.000000 
0.000000 -0.000000 0.000000 
0.000000 0.000000 0.000000 

0.000000 -0.000000 0.000000 
0.000000 0.000000 0.000000 
0.000000 0.000000 0.000000 

0.000000 0.000000 0.000000 
0.000000 0.000000 0.000000 
0.000000 0.000000 0.000000 

-0.000000 0.000000 0.000000 
0.000000 -0.000000 0.000000 
0.000000 0.000000 0.000000 

0.000000 -0.000000 0.000000 
0.000000 0.000000 0.000000 
0.000000 0.000000 0.000000 

0.000000 -0.000000 0.000000 
0.000000 0.000000 0.000000 
0.000000 0.000000 0.000000 

0.000000 0.000000 0.000000 
0.000000 0.000000 0.000000 
0.000000 0.000000 0.000000 

0.000000 -0.000000 0.000000 
0.000000 0.000000 0.000000 
0.000000 0.000000 0.000000 

0.000000 -0.000000 0.000000 
0.000000 0.000000 0.000000 
0.000000 0.000000 0.000000 

0.000000 -0.000000 0.000000 
0.000000 0.000000 0.000000 
0.000000 0.000000 0.000000 

-0.000000 -0.000000 0.000000 
0.000000 -0.000000 0.000000 
0.000000 0.000000 0.000000 

0.000000 -0.000000 0.000000 
0.000000 0.000000 0.000000 
0.000000 0.000000 0.000000 

0.000000 -0.000000 0.000000 
0.000000 0.000000 0.000000 
0.000000 0.000000 0.000000 

-0.000000 -0.000000 0.000000 
0.000000 -0.000000 0.000000 
0.000000 0.000000 0.000000 

0.000000 -0.000000 0.000000 
0.000000 0.000000 0.000000 
0.000000 0.000000 0.000000 

0.000000 -0.000000 0.000000 
0.000000 0.000000 0.000000 
0.000000 0.000000 0.000000 

-0.000000 0.000000 0.000000 
0.000000 -0.000000 0.000000 
0.000000 0.000000 0.000000 

-0.000000 -0.000000 0.000000 
0.000000 -0.000000 0.000000 
0.000000 0.000000 0.000000 

0.000000 -0.000000 0.000000 
0.000000 0.000000 0.000000 
0.000000 0.000000 0.000000 

-0.000000 0.000000 0.000000 
0.000000 -0.000000 0.000000 
0.000000 0.000000 0.000000 

-0.000000 0.000000 0.000000 
0.000000 -0.000000 0.000000 
0.000000 0.000000 0.000000 

0.000000 0.000000 0.000000 
0.000000 0.000000 0.000000 
0.000000 0.000000 0.000000 

0.000000 0.000000 0.000000 
0.000000 0.000000 0.000000 
0.000000 0.000000 0.000000 

0.000000 -0.000000 0.000000 
0.000000 0.000000 0.000000 
0.000000 0.000000 0.000000 

0.000000 -0.000000 0.000000 
0.000000 0.000000 0.000000 
0.000000 0.000000 0.000000 

0.000000 -0.000000 0.000000 
0.000000 0.000000 0.000000 
0.000000 0.000000 0.000000 

-0.000000 -0.000000 0.000000 
0.000000 -0.000000 0.000000 
0.000000 0.000000 0.000000 

-0.000000 0.000000 0.000000 
0.000000 -0.000000 0.000000 
0.000000 0.000000 0.000000 

0.000000 0.000000 0.000000 
0.000000 0.000000 0.000000 
0.000000 0.000000 0.000000 

0.000000 0.000000 0.000000 
0.000000 0.000000 0.000000 
0.000000 0.000000 0.000000 

0.000000 0.000000 0.000000 
0.000000 0.000000 0.000000 
0.000000 0.000000 0.000000 

-0.000000 -0.000000 0.000000 
0.000000 -0.000000 0.000000 
0.000000 0.000000 0.000000 

-0.000000 -0.000000 0.000000 
0.000000 -0.000000 0.000000 
0.000000 0.000000 0.000000 

0.000000 0.000000 0.000000 
0.000000 0.000000 0.000000 
0.000000 0.000000 0.000000 

-0.000000 -0.000000 0.000000 
0.000000 -0.000000 0.000000 
0.000000 0.000000 0.000000 

-0.000000 -0.000000 0.000000 
0.000000 -0.000000 0.000000 
0.000000 0.000000 0.000000 

-0.000000 -0.000000 0.000000 
0.000000 -0.000000 0.000000 
0.000000 0.000000 0.000000 

-0.000000 -0.000000 0.000000 
0.000000 -0.000000 0.000000 
0.000000 0.000000 0.000000 

0.000000 -0.000000 0.000000 
0.000000 0.000000 0.000000 
0.000000 0.000000 0.000000 

-0.000000 -0.000000 0.000000 
0.000000 -0.000000 0.000000 
0.000000 0.000000 0.000000 

-0.000000 -0.000000 0.000000 
0.000000 -0.000000 0.000000 
0.000000 0.000000 0.000000 

-0.000000 -0.000000 0.000000 
0.000000 -0.000000 0.000000 
0.000000 0.000000 0.000000 

0.000000 -0.000000 0.000000 
0.000000 0.000000 0.000000 
0.000000 0.000000 0.000000 

0.000000 -0.000000 0.000000 
0.000000 0.000000 0.000000 
0.000000 0.000000 0.000000 

0.000000 0.000000 0.000000 
0.000000 0.000000 0.000000 
0.000000 0.000000 0.000000 

-0.000000 -0.000000 0.000000 
0.000000 -0.000000 0.000000 
0.000000 0.000000 0.000000 

0.000000 -0.000000 0.000000 
0.000000 0.000000 0.000000 
0.000000 0.000000 0.000000 

0.000000 0.000000 0.000000 
0.000000 -0.000000 0.000000 
0.000000 0.000000 0.000000 

0.000000 -0.000000 0.000000 
0.000000 0.000000 0.000000 
0.000000 0.000000 0.000000 

0.000000 -0.000000 0.000000 
0.000000 -0.000000 0.000000 
0.000000 0.000000 0.000000 

0.000000 -0.000000 0.000000 
0.000000 -0.000000 0.000000 
0.000000 0.000000 0.000000 

0.000000 -0.000000 0.000000 
0.000000 0.000000 0.000000 
0.000000 0.000000 0.000000 

-0.000000 -0.000000 0.000000 
0.000000 -0.000000 0.000000 
0.000000 0.000000 0.000000 

0.000000 -0.000000 0.000000 
0.000000 0.000000 0.000000 
0.000000 0.000000 0.000000 

0.000000 -0.000000 0.000000 
0.000000 0.000000 0.000000 
0.000000 0.000000 0.000000 

-0.000000 0.000000 0.000000 
0.000000 -0.000000 0.000000 
0.000000 0.000000 0.000000 

-0.000000 -0.000000 0.000000 
0.000000 -0.000000 0.000000 
0.000000 0.000000 0.000000 

-0.000000 0.000000 0.000000 
0.000000 -0.000000 0.000000 
0.000000 0.000000 0.000000 

-0.000000 0.000000 0.000000 
0.000000 -0.000000 0.000000 
0.000000 0.000000 0.000000 

-0.000000 0.000000 0.000000 
0.000000 -0.000000 0.000000 
0.000000 0.000000 0.000000 

0.000000 0.000000 0.000000 
0.000000 0.000000 0.000000 
0.000000 0.000000 0.000000 

0.000000 0.000000 0.000000 
0.000000 0.000000 0.000000 
0.000000 0.000000 0.000000 

-0.000000 0.000000 0.000000 
0.000000 -0.000000 0.000000 
0.000000 0.000000 0.000000 

-0.000000 0.000000 0.000000 
0.000000 -0.000000 0.000000 
0.000000 0.000000 0.000000 

0.000000 0.000000 0.000000 
0.000000 0.000000 0.000000 
0.000000 0.000000 0.000000 

-0.000000 -0.000000 0.000000 
0.000000 0.000000 0.000000 
0.000000 0.000000 0.000000 

-0.000000 -0.000000 0.000000 
0.000000 -0.000000 0.000000 
0.000000 0.000000 0.000000 

-0.000000 0.000000 0.000000 
0.000000 -0.000000 0.000000 
0.000000 0.000000 0.000000 

-0.000000 -0.000000 0.000000 
0.000000 -0.000000 0.000000 
0.000000 0.000000 0.000000 

-0.000000 0.000000 0.000000 
0.000000 -0.000000 0.000000 
0.000000 0.000000 0.000000 

-0.000000 0.000000 0.000000 
0.000000 -0.000000 0.000000 
0.000000 0.000000 0.000000 

-0.000000 0.000000 0.000000 
0.000000 -0.000000 0.000000 
0.000000 0.000000 0.000000 

-0.000000 0.000000 0.000000 
0.000000 -0.000000 0.000000 
0.000000 0.000000 0.000000 

-0.000000 -0.000000 0.000000 
0.000000 -0.000000 0.000000 
0.000000 0.000000 0.000000 

-0.000000 -0.000000 0.000000 
0.000000 -0.000000 0.000000 
0.000000 0.000000 0.000000 

-0.000000 -0.000000 0.000000 
0.000000 -0.000000 0.000000 
0.000000 0.000000 0.000000 

TENSORS STRAIN float 
-0.000000 -0.000000 0.000000 
0.000000 0.000000 0.000000 
0.000000 0.000000 0.000000 

-0.000000 -0.000000 0.000000 
0.000000 0.000000 0.000000 
0.000000 0.000000 0.000000 

0.000000 -0.000000 0.000000 
0.000000 -0.000000 0.000000 
0.000000 0.000000 0.000000 

0.000000 -0.000000 0.000000 
0.000000 -0.000000 0.000000 
0.000000 0.000000 0.000000 

-0.000000 0.000000 0.000000 
0.000000 -0.000000 0.000000 
0.000000 0.000000 0.000000 

-0.000000 0.000000 0.000000 
0.000000 0.000000 0.000000 
0.000000 0.000000 0.000000 

-0.000000 -0.000000 0.000000 
0.000000 0.000000 0.000000 
0.000000 0.000000 0.000000 

0.000000 -0.000000 0.000000 
0.000000 -0.000000 0.000000 
0.000000 0.000000 0.000000 

0.000000 0.000000 0.000000 
0.000000 -0.000000 0.000000 
0.000000 0.000000 0.000000 

-0.000000 0.000000 0.000000 
0.000000 0.000000 0.000000 
0.000000 0.000000 0.000000 

-0.000000 0.000000 0.000000 
0.000000 0.000000 0.000000 
0.000000 0.000000 0.000000 

-0.000000 0.000000 0.000000 
0.000000 0.000000 0.000000 
0.000000 0.000000 0.000000 

-0.000000 0.000000 0.000000 
0.000000 0.000000 0.000000 
0.000000 0.000000 0.000000 

-0.000000 0.000000 0.000000 
0.000000 0.000000 0.000000 
0.000000 0.000000 0.000000 

0.000000 0.000000 0.000000 
0.000000 0.000000 0.000000 
0.000000 0.000000 0.000000 

0.000000 0.000000 0.000000 
0.000000 -0.000000 0.000000 
0.000000 0.000000 0.000000 

-0.000000 0.000000 0.000000 
0.000000 0.000000 0.000000 
0.000000 0.000000 0.000000 

-0.000000 0.000000 0.000000 
0.000000 -0.000000 0.000000 
0.000000 0.000000 0.000000 

0.000000 -0.000000 0.000000 
0.000000 -0.000000 0.000000 
0.000000 0.000000 0.000000 

0.000000 -0.000000 0.000000 
0.000000 0.000000 0.000000 
0.000000 0.000000 0.000000 

0.000000 -0.000000 0.000000 
0.000000 -0.000000 0.000000 
0.000000 0.000000 0.000000 

0.000000 -0.000000 0.000000 
0.000000 -0.000000 0.000000 
0.000000 0.000000 0.000000 

0.000000 0.000000 0.000000 
0.000000 -0.000000 0.000000 
0.000000 0.000000 0.000000 

0.000000 0.000000 0.000000 
0.000000 0.000000 0.000000 
0.000000 0.000000 0.000000 

-0.000000 0.000000 0.000000 
0.000000 0.000000 0.000000 
0.000000 0.000000 0.000000 

-0.000000 -0.000000 0.000000 
0.000000 0.000000 0.000000 
0.000000 0.000000 0.000000 

-0.000000 0.000000 0.000000 
0.000000 0.000000 0.000000 
0.000000 0.000000 0.000000 

-0.000000 -0.000000 0.000000 
0.000000 0.000000 0.000000 
0.000000 0.000000 0.000000 

-0.000000 -0.000000 0.000000 
0.000000 0.000000 0.000000 
0.000000 0.000000 0.000000 

-0.000000 0.000000 0.000000 
0.000000 0.000000 0.000000 
0.000000 0.000000 0.000000 

-0.000000 0.000000 0.000000 
0.000000 0.000000 0.000000 
0.000000 0.000000 0.000000 

-0.000000 -0.000000 0.000000 
0.000000 0.000000 0.000000 
0.000000 0.000000 0.000000 

-0.000000 -0.000000 0.000000 
0.000000 0.000000 0.000000 
0.000000 0.000000 0.000000 

-0.000000 -0.000000 0.000000 
0.000000 0.000000 0.000000 
0.000000 0.000000 0.000000 

-0.000000 0.000000 0.000000 
0.000000 0.000000 0.000000 
0.000000 0.000000 0.000000 

-0.000000 0.000000 0.000000 
0.000000 0.000000 0.000000 
0.000000 0.000000 0.000000 

-0.000000 -0.000000 0.000000 
0.000000 0.000000 0.000000 
0.000000 0.000000 0.000000 

-0.000000 -0.000000 0.000000 
0.000000 0.000000 0.000000 
0.000000 0.000000 0.000000 

-0.000000 -0.000000 0.000000 
0.000000 0.000000 0.000000 
0.000000 0.000000 0.000000 

-0.000000 -0.000000 0.000000 
0.000000 0.000000 0.000000 
0.000000 0.000000 0.000000 

-0.000000 -0.000000 0.000000 
0.000000 0.000000 0.000000 
0.000000 0.000000 0.000000 

-0.000000 -0.000000 0.000000 
0.000000 -0.000000 0.000000 
0.000000 0.000000 0.000000 

-0.000000 -0.000000 0.000000 
0.000000 0.000000 0.000000 
0.000000 0.000000 0.000000 

0.000000 -0.000000 0.000000 
0.000000 -0.000000 0.000000 
0.000000 0.000000 0.000000 

0.000000 0.000000 0.000000 
0.000000 0.000000 0.000000 
0.000000 0.000000 0.000000 

0.000000 -0.000000 0.000000 
0.000000 -0.000000 0.000000 
0.000000 0.000000 0.000000 

0.000000 0.000000 0.000000 
0.000000 -0.000000 0.000000 
0.000000 0.000000 0.000000 

0.000000 0.000000 0.000000 
0.000000 -0.000000 0.000000 
0.000000 0.000000 0.000000 

-0.000000 -0.000000 0.000000 
0.000000 0.000000 0.000000 
0.000000 0.000000 0.000000 

-0.000000 0.000000 0.000000 
0.000000 0.000000 0.000000 
0.000000 0.000000 0.000000 

-0.000000 -0.000000 0.000000 
0.000000 0.000000 0.000000 
0.000000 0.000000 0.000000 

-0.000000 0.000000 0.000000 
0.000000 0.000000 0.000000 
0.000000 0.000000 0.000000 

-0.000000 0.000000 0.000000 
0.000000 0.000000 0.000000 
0.000000 0.000000 0.000000 

-0.000000 0.000000 0.000000 
0.000000 0.000000 0.000000 
0.000000 0.000000 0.000000 

-0.000000 -0.000000 0.000000 
0.000000 -0.000000 0.000000 
0.000000 0.000000 0.000000 

-0.000000 -0.000000 0.000000 
0.000000 0.000000 0.000000 
0.000000 0.000000 0.000000 

-0.000000 0.000000 0.000000 
0.000000 0.000000 0.000000 
0.000000 0.000000 0.000000 

-0.000000 0.000000 0.000000 
0.000000 0.000000 0.000000 
0.000000 0.000000 0.000000 

-0.000000 0.000000 0.000000 
0.000000 0.000000 0.000000 
0.000000 0.000000 0.000000 

0.000000 -0.000000 0.000000 
0.000000 -0.000000 0.000000 
0.000000 0.000000 0.000000 

-0.000000 0.000000 0.000000 
0.000000 0.000000 0.000000 
0.000000 0.000000 0.000000 

0.000000 0.000000 0.000000 
0.000000 -0.000000 0.000000 
0.000000 0.000000 0.000000 

0.000000 -0.000000 0.000000 
0.000000 -0.000000 0.000000 
0.000000 0.000000 0.000000 

0.000000 -0.000000 0.000000 
0.000000 -0.000000 0.000000 
0.000000 0.000000 0.000000 

-0.000000 0.000000 0.000000 
0.000000 -0.000000 0.000000 
0.000000 0.000000 0.000000 

-0.000000 0.000000 0.000000 
0.000000 -0.000000 0.000000 
0.000000 0.000000 0.000000 

0.000000 -0.000000 0.000000 
0.000000 -0.000000 0.000000 
0.000000 0.000000 0.000000 

-0.000000 0.000000 0.000000 
0.000000 0.000000 0.000000 
0.000000 0.000000 0.000000 

-0.000000 -0.000000 0.000000 
0.000000 0.000000 0.000000 
0.000000 0.000000 0.000000 

0.000000 -0.000000 0.000000 
0.000000 -0.000000 0.000000 
0.000000 0.000000 0.000000 

0.000000 -0.000000 0.000000 
0.000000 -0.000000 0.000000 
0.000000 0.000000 0.000000 

0.000000 0.000000 0.000000 
0.000000 -0.000000 0.000000 
0.000000 0.000000 0.000000 

0.000000 -0.000000 0.000000 
0.000000 -0.000000 0.000000 
0.000000 0.000000 0.000000 

0.000000 0.000000 0.000000 
0.000000 -0.000000 0.000000 
0.000000 0.000000 0.000000 

0.000000 -0.000000 0.000000 
0.000000 -0.000000 0.000000 
0.000000 0.000000 0.000000 

-0.000000 -0.000000 0.000000 
0.000000 -0.000000 0.000000 
0.000000 0.000000 0.000000 

-0.000000 -0.000000 0.000000 
0.000000 0.000000 0.000000 
0.000000 0.000000 0.000000 

-0.000000 -0.000000 0.000000 
0.000000 0.000000 0.000000 
0.000000 0.000000 0.000000 

-0.000000 -0.000000 0.000000 
0.000000 0.000000 0.000000 
0.000000 0.000000 0.000000 

-0.000000 -0.000000 0.000000 
0.000000 0.000000 0.000000 
0.000000 0.000000 0.000000 

-0.000000 -0.000000 0.000000 
0.000000 0.000000 0.000000 
0.000000 0.000000 0.000000 

0.000000 -0.000000 0.000000 
0.000000 0.000000 0.000000 
0.000000 0.000000 0.000000 

-0.000000 -0.000000 0.000000 
0.000000 0.000000 0.000000 
0.000000 0.000000 0.000000 

-0.000000 -0.000000 0.000000 
0.000000 0.000000 0.000000 
0.000000 0.000000 0.000000 

-0.000000 0.000000 0.000000 
0.000000 0.000000 0.000000 
0.000000 0.000000 0.000000 

-0.000000 0.000000 0.000000 
0.000000 0.000000 0.000000 
0.000000 0.000000 0.000000 

-0.000000 0.000000 0.000000 
0.000000 0.000000 0.000000 
0.000000 0.000000 0.000000 

0.000000 0.000000 0.000000 
0.000000 0.000000 0.000000 
0.000000 0.000000 0.000000 

-0.000000 0.000000 0.000000 
0.000000 -0.000000 0.000000 
0.000000 0.000000 0.000000 

0.000000 -0.000000 0.000000 
0.000000 0.000000 0.000000 
0.000000 0.000000 0.000000 

0.000000 -0.000000 0.000000 
0.000000 -0.000000 0.000000 
0.000000 0.000000 0.000000 

0.000000 0.000000 0.000000 
0.000000 0.000000 0.000000 
0.000000 0.000000 0.000000 

0.000000 0.000000 0.000000 
0.000000 -0.000000 0.000000 
0.000000 0.000000 0.000000 

0.000000 -0.000000 0.000000 
0.000000 -0.000000 0.000000 
0.000000 0.000000 0.000000 

-0.000000 0.000000 0.000000 
0.000000 0.000000 0.000000 
0.000000 0.000000 0.000000 

-0.000000 -0.000000 0.000000 
0.000000 0.000000 0.000000 
0.000000 0.000000 0.000000 

-0.000000 0.000000 0.000000 
0.000000 0.000000 0.000000 
0.000000 0.000000 0.000000 

0.000000 -0.000000 0.000000 
0.000000 0.000000 0.000000 
0.000000 0.000000 0.000000 

0.000000 0.000000 0.000000 
0.000000 -0.000000 0.000000 
0.000000 0.000000 0.000000 

0.000000 -0.000000 0.000000 
0.000000 -0.000000 0.000000 
0.000000 0.000000 0.000000 

-0.000000 -0.000000 0.000000 
0.000000 0.000000 0.000000 
0.000000 0.000000 0.000000 

0.000000 0.000000 0.000000 
0.000000 0.000000 0.000000 
0.000000 0.000000 0.000000 

0.000000 0.000000 0.000000 
0.000000 -0.000000 0.000000 
0.000000 0.000000 0.000000 

0.000000 -0.000000 0.000000 
0.000000 0.000000 0.000000 
0.000000 0.000000 0.000000 

-0.000000 -0.000000 0.000000 
0.000000 0.000000 0.000000 
0.000000 0.000000 0.000000 

0.000000 0.000000 0.000000 
0.000000 0.000000 0.000000 
0.000000 0.000000 0.000000 

0.000000 -0.000000 0.000000 
0.000000 -0.000000 0.000000 
0.000000 0.000000 0.000000 

0.000000 -0.000000 0.000000 
0.000000 -0.000000 0.000000 
0.000000 0.000000 0.000000 

-0.000000 -0.000000 0.000000 
0.000000 0.000000 0.000000 
0.000000 0.000000 0.000000 

0.000000 -0.000000 0.000000 
0.000000 -0.000000 0.000000 
0.000000 0.000000 0.000000 

0.000000 -0.000000 0.000000 
0.000000 -0.000000 0.000000 
0.000000 0.000000 0.000000 

-0.000000 -0.000000 0.000000 
0.000000 0.000000 0.000000 
0.000000 0.000000 0.000000 

-0.000000 -0.000000 0.000000 
0.000000 -0.000000 0.000000 
0.000000 0.000000 0.000000 

-0.000000 -0.000000 0.000000 
0.000000 0.000000 0.000000 
0.000000 0.000000 0.000000 

-0.000000 -0.000000 0.000000 
0.000000 0.000000 0.000000 
0.000000 0.000000 0.000000 

-0.000000 0.000000 0.000000 
0.000000 0.000000 0.000000 
0.000000 0.000000 0.000000 

0.000000 -0.000000 0.000000 
0.000000 -0.000000 0.000000 
0.000000 0.000000 0.000000 

-0.000000 -0.000000 0.000000 
0.000000 0.000000 0.000000 
0.000000 0.000000 0.000000 

-0.000000 0.000000 0.000000 
0.000000 0.000000 0.000000 
0.000000 0.000000 0.000000 

-0.000000 0.000000 0.000000 
0.000000 -0.000000 0.000000 
0.000000 0.000000 0.000000 

-0.000000 0.000000 0.000000 
0.000000 0.000000 0.000000 
0.000000 0.000000 0.000000 

-0.000000 0.000000 0.000000 
0.000000 0.000000 0.000000 
0.000000 0.000000 0.000000 

-0.000000 -0.000000 0.000000 
0.000000 0.000000 0.000000 
0.000000 0.000000 0.000000 

-0.000000 -0.000000 0.000000 
0.000000 0.000000 0.000000 
0.000000 0.000000 0.000000 

0.000000 -0.000000 0.000000 
0.000000 -0.000000 0.000000 
0.000000 0.000000 0.000000 

-0.000000 -0.000000 0.000000 
0.000000 0.000000 0.000000 
0.000000 0.000000 0.000000 

0.000000 0.000000 0.000000 
0.000000 -0.000000 0.000000 
0.000000 0.000000 0.000000 

0.000000 0.000000 0.000000 
0.000000 0.000000 0.000000 
0.000000 0.000000 0.000000 

0.000000 0.000000 0.000000 
0.000000 0.000000 0.000000 
0.000000 0.000000 0.000000 

0.000000 0.000000 0.000000 
0.000000 0.000000 0.000000 
0.000000 0.000000 0.000000 

0.000000 -0.000000 0.000000 
0.000000 -0.000000 0.000000 
0.000000 0.000000 0.000000 

0.000000 -0.000000 0.000000 
0.000000 -0.000000 0.000000 
0.000000 0.000000 0.000000 

0.000000 0.000000 0.000000 
0.000000 0.000000 0.000000 
0.000000 0.000000 0.000000 

-0.000000 -0.000000 0.000000 
0.000000 0.000000 0.000000 
0.000000 0.000000 0.000000 

0.000000 -0.000000 0.000000 
0.000000 -0.000000 0.000000 
0.000000 0.000000 0.000000 

0.000000 -0.000000 0.000000 
0.000000 -0.000000 0.000000 
0.000000 0.000000 0.000000 

0.000000 -0.000000 0.000000 
0.000000 -0.000000 0.000000 
0.000000 0.000000 0.000000 

0.000000 -0.000000 0.000000 
0.000000 -0.000000 0.000000 
0.000000 0.000000 0.000000 

-0.000000 -0.000000 0.000000 
0.000000 -0.000000 0.000000 
0.000000 0.000000 0.000000 

-0.000000 -0.000000 0.000000 
0.000000 -0.000000 0.000000 
0.000000 0.000000 0.000000 

-0.000000 -0.000000 0.000000 
0.000000 -0.000000 0.000000 
0.000000 0.000000 0.000000 

-0.000000 -0.000000 0.000000 
0.000000 0.000000 0.000000 
0.000000 0.000000 0.000000 

0.000000 -0.000000 0.000000 
0.000000 0.000000 0.000000 
0.000000 0.000000 0.000000 

-0.000000 0.000000 0.000000 
0.000000 0.000000 0.000000 
0.000000 0.000000 0.000000 

0.000000 -0.000000 0.000000 
0.000000 -0.000000 0.000000 
0.000000 0.000000 0.000000 

0.000000 -0.000000 0.000000 
0.000000 -0.000000 0.000000 
0.000000 0.000000 0.000000 

0.000000 0.000000 0.000000 
0.000000 -0.000000 0.000000 
0.000000 0.000000 0.000000 

0.000000 -0.000000 0.000000 
0.000000 -0.000000 0.000000 
0.000000 0.000000 0.000000 

0.000000 -0.000000 0.000000 
0.000000 -0.000000 0.000000 
0.000000 0.000000 0.000000 

0.000000 -0.000000 0.000000 
0.000000 -0.000000 0.000000 
0.000000 0.000000 0.000000 

-0.000000 -0.000000 0.000000 
0.000000 0.000000 0.000000 
0.000000 0.000000 0.000000 

0.000000 -0.000000 0.000000 
0.000000 -0.000000 0.000000 
0.000000 0.000000 0.000000 

0.000000 -0.000000 0.000000 
0.000000 0.000000 0.000000 
0.000000 0.000000 0.000000 

0.000000 -0.000000 0.000000 
0.000000 0.000000 0.000000 
0.000000 0.000000 0.000000 

0.000000 0.000000 0.000000 
0.000000 -0.000000 0.000000 
0.000000 0.000000 0.000000 

0.000000 -0.000000 0.000000 
0.000000 -0.000000 0.000000 
0.000000 0.000000 0.000000 

-0.000000 0.000000 0.000000 
0.000000 -0.000000 0.000000 
0.000000 0.000000 0.000000 

-0.000000 0.000000 0.000000 
0.000000 -0.000000 0.000000 
0.000000 0.000000 0.000000 

-0.000000 0.000000 0.000000 
0.000000 -0.000000 0.000000 
0.000000 0.000000 0.000000 

0.000000 0.000000 0.000000 
0.000000 0.000000 0.000000 
0.000000 0.000000 0.000000 

0.000000 0.000000 0.000000 
0.000000 0.000000 0.000000 
0.000000 0.000000 0.000000 

-0.000000 0.000000 0.000000 
0.000000 -0.000000 0.000000 
0.000000 0.000000 0.000000 

-0.000000 0.000000 0.000000 
0.000000 -0.000000 0.000000 
0.000000 0.000000 0.000000 

-0.000000 0.000000 0.000000 
0.000000 0.000000 0.000000 
0.000000 0.000000 0.000000 

-0.000000 -0.000000 0.000000 
0.000000 0.000000 0.000000 
0.000000 0.000000 0.000000 

-0.000000 -0.000000 0.000000 
0.000000 0.000000 0.000000 
0.000000 0.000000 0.000000 

-0.000000 0.000000 0.000000 
0.000000 -0.000000 0.000000 
0.000000 0.000000 0.000000 

0.000000 -0.000000 0.000000 
0.000000 -0.000000 0.000000 
0.000000 0.000000 0.000000 

-0.000000 0.000000 0.000000 
0.000000 -0.000000 0.000000 
0.000000 0.000000 0.000000 

-0.000000 0.000000 0.000000 
0.000000 -0.000000 0.000000 
0.000000 0.000000 0.000000 

-0.000000 0.000000 0.000000 
0.000000 0.000000 0.000000 
0.000000 0.000000 0.000000 

-0.000000 0.000000 0.000000 
0.000000 0.000000 0.000000 
0.000000 0.000000 0.000000 

-0.000000 -0.000000 0.000000 
0.000000 0.000000 0.000000 
0.000000 0.000000 0.000000 

-0.000000 -0.000000 0.000000 
0.000000 0.000000 0.000000 
0.000000 0.000000 0.000000 

-0.000000 -0.000000 0.000000 
0.000000 0.000000 0.000000 
0.000000 0.000000 0.000000 

