# vtk DataFile Version 3.0 
vtk output 
ASCII 
DATASET UNSTRUCTURED_GRID 
POINTS 175 float 
-0.026061 -1.524456 0.000000 
-0.106992 -1.456401 0.000000 
-0.054870 -1.464634 0.000000 
-0.028809 -1.418750 0.000000 
-0.186430 -1.392325 0.000000 
-0.137056 -1.394852 0.000000 
-0.114311 -1.341204 0.000000 
-0.058186 -1.356870 0.000000 
-0.029377 -1.316693 0.000000 
-0.265318 -1.329170 0.000000 
-0.217198 -1.329969 0.000000 
-0.196633 -1.272673 0.000000 
-0.143120 -1.281381 0.000000 
-0.116563 -1.234113 0.000000 
-0.058945 -1.253759 0.000000 
-0.029568 -1.215638 0.000000 
-0.344206 -1.266014 0.000000 
-0.296791 -1.266007 0.000000 
-0.278030 -1.206064 0.000000 
-0.225992 -1.211930 0.000000 
-0.201664 -1.159813 0.000000 
-0.145749 -1.173287 0.000000 
-0.117890 -1.128944 0.000000 
-0.059328 -1.151650 0.000000 
-0.029759 -1.114584 0.000000 
-0.058559 -1.565207 0.000000 
-0.162226 -1.586050 0.000000 
-0.123292 -1.550432 0.000000 
-0.142917 -1.501449 0.000000 
-0.261851 -1.608206 0.000000 
-0.229092 -1.571179 0.000000 
-0.256854 -1.519947 0.000000 
-0.209613 -1.485835 0.000000 
-0.223062 -1.438261 0.000000 
-0.360414 -1.630506 0.000000 
-0.329787 -1.593383 0.000000 
-0.361761 -1.541581 0.000000 
-0.321587 -1.505172 0.000000 
-0.341985 -1.454938 0.000000 
-0.290702 -1.422139 0.000000 
-0.302189 -1.375404 0.000000 
-0.458977 -1.652806 0.000000 
-0.429420 -1.615732 0.000000 
-0.464588 -1.563690 0.000000 
-0.427556 -1.526662 0.000000 
-0.453135 -1.475148 0.000000 
-0.407738 -1.439832 0.000000 
-0.425037 -1.390404 0.000000 
-0.370772 -1.358775 0.000000 
-0.381315 -1.312548 0.000000 
-0.046960 -1.616022 0.000000 
-0.095301 -1.710068 0.000000 
-0.098873 -1.657421 0.000000 
-0.149405 -1.642223 0.000000 
-0.140093 -1.801772 0.000000 
-0.148617 -1.753074 0.000000 
-0.205981 -1.742837 0.000000 
-0.203197 -1.684633 0.000000 
-0.248777 -1.665487 0.000000 
-0.184111 -1.892736 0.000000 
-0.194039 -1.845645 0.000000 
-0.254475 -1.838345 0.000000 
-0.257893 -1.784235 0.000000 
-0.309886 -1.768863 0.000000 
-0.303554 -1.708318 0.000000 
-0.347255 -1.688160 0.000000 
-0.228129 -1.983699 0.000000 
-0.238687 -1.937475 0.000000 
-0.301302 -1.932523 0.000000 
-0.307162 -1.880484 0.000000 
-0.363386 -1.868363 0.000000 
-0.362692 -1.810852 0.000000 
-0.412122 -1.793559 0.000000 
-0.403017 -1.731412 0.000000 
-0.445733 -1.710833 0.000000 
-0.000000 -1.638637 0.000000 
0.043388 -1.735068 0.000000 
-0.000000 -1.705035 0.000000 
-0.043388 -1.735068 0.000000 
0.087158 -1.827264 0.000000 
0.043769 -1.803566 0.000000 
-0.000000 -1.842032 0.000000 
-0.043769 -1.803566 0.000000 
-0.087158 -1.827264 0.000000 
0.130831 -1.918394 0.000000 
0.087824 -1.896795 0.000000 
0.044436 -1.939495 0.000000 
-0.000000 -1.908430 0.000000 
-0.044436 -1.939495 0.000000 
-0.087824 -1.896795 0.000000 
-0.130831 -1.918394 0.000000 
0.174505 -2.009524 0.000000 
0.131782 -1.988958 0.000000 
0.088871 -2.034824 0.000000 
0.044532 -2.006960 0.000000 
-0.000000 -2.043361 0.000000 
-0.044532 -2.006960 0.000000 
-0.088871 -2.034824 0.000000 
-0.131782 -1.988958 0.000000 
-0.174505 -2.009524 0.000000 
0.046960 -1.616022 0.000000 
0.149405 -1.642223 0.000000 
0.098873 -1.657421 0.000000 
0.095301 -1.710068 0.000000 
0.248777 -1.665487 0.000000 
0.203197 -1.684633 0.000000 
0.205981 -1.742837 0.000000 
0.148617 -1.753074 0.000000 
0.140093 -1.801772 0.000000 
0.347255 -1.688160 0.000000 
0.303554 -1.708318 0.000000 
0.309886 -1.768863 0.000000 
0.257893 -1.784235 0.000000 
0.254475 -1.838345 0.000000 
0.194039 -1.845645 0.000000 
0.184111 -1.892736 0.000000 
0.445733 -1.710833 0.000000 
0.403017 -1.731412 0.000000 
0.412122 -1.793559 0.000000 
0.362692 -1.810852 0.000000 
0.363386 -1.868363 0.000000 
0.307162 -1.880484 0.000000 
0.301302 -1.932523 0.000000 
0.238687 -1.937475 0.000000 
0.228129 -1.983699 0.000000 
0.058559 -1.565207 0.000000 
0.142917 -1.501449 0.000000 
0.123292 -1.550432 0.000000 
0.162226 -1.586050 0.000000 
0.223062 -1.438261 0.000000 
0.209613 -1.485835 0.000000 
0.256854 -1.519947 0.000000 
0.229092 -1.571179 0.000000 
0.261851 -1.608206 0.000000 
0.302189 -1.375404 0.000000 
0.290702 -1.422139 0.000000 
0.341985 -1.454938 0.000000 
0.321587 -1.505172 0.000000 
0.361761 -1.541581 0.000000 
0.329787 -1.593383 0.000000 
0.360414 -1.630506 0.000000 
0.381315 -1.312548 0.000000 
0.370772 -1.358775 0.000000 
0.425037 -1.390404 0.000000 
0.407738 -1.439832 0.000000 
0.453135 -1.475148 0.000000 
0.427556 -1.526662 0.000000 
0.464588 -1.563690 0.000000 
0.429420 -1.615732 0.000000 
0.458977 -1.652806 0.000000 
0.026061 -1.524456 0.000000 
0.028809 -1.418750 0.000000 
0.054870 -1.464634 0.000000 
0.106992 -1.456401 0.000000 
0.029377 -1.316693 0.000000 
0.058186 -1.356870 0.000000 
0.114311 -1.341204 0.000000 
0.137056 -1.394852 0.000000 
0.186430 -1.392325 0.000000 
0.029568 -1.215638 0.000000 
0.058945 -1.253759 0.000000 
0.116563 -1.234113 0.000000 
0.143120 -1.281381 0.000000 
0.196633 -1.272673 0.000000 
0.217198 -1.329969 0.000000 
0.265318 -1.329170 0.000000 
0.029759 -1.114584 0.000000 
0.059328 -1.151650 0.000000 
0.117890 -1.128944 0.000000 
0.145749 -1.173287 0.000000 
0.201664 -1.159813 0.000000 
0.225992 -1.211930 0.000000 
0.278030 -1.206064 0.000000 
0.296791 -1.266007 0.000000 
0.344206 -1.266014 0.000000 
CELLS 175 350 
1 0 
1 1 
1 2 
1 3 
1 4 
1 5 
1 6 
1 7 
1 8 
1 9 
1 10 
1 11 
1 12 
1 13 
1 14 
1 15 
1 16 
1 17 
1 18 
1 19 
1 20 
1 21 
1 22 
1 23 
1 24 
1 25 
1 26 
1 27 
1 28 
1 29 
1 30 
1 31 
1 32 
1 33 
1 34 
1 35 
1 36 
1 37 
1 38 
1 39 
1 40 
1 41 
1 42 
1 43 
1 44 
1 45 
1 46 
1 47 
1 48 
1 49 
1 50 
1 51 
1 52 
1 53 
1 54 
1 55 
1 56 
1 57 
1 58 
1 59 
1 60 
1 61 
1 62 
1 63 
1 64 
1 65 
1 66 
1 67 
1 68 
1 69 
1 70 
1 71 
1 72 
1 73 
1 74 
1 75 
1 76 
1 77 
1 78 
1 79 
1 80 
1 81 
1 82 
1 83 
1 84 
1 85 
1 86 
1 87 
1 88 
1 89 
1 90 
1 91 
1 92 
1 93 
1 94 
1 95 
1 96 
1 97 
1 98 
1 99 
1 100 
1 101 
1 102 
1 103 
1 104 
1 105 
1 106 
1 107 
1 108 
1 109 
1 110 
1 111 
1 112 
1 113 
1 114 
1 115 
1 116 
1 117 
1 118 
1 119 
1 120 
1 121 
1 122 
1 123 
1 124 
1 125 
1 126 
1 127 
1 128 
1 129 
1 130 
1 131 
1 132 
1 133 
1 134 
1 135 
1 136 
1 137 
1 138 
1 139 
1 140 
1 141 
1 142 
1 143 
1 144 
1 145 
1 146 
1 147 
1 148 
1 149 
1 150 
1 151 
1 152 
1 153 
1 154 
1 155 
1 156 
1 157 
1 158 
1 159 
1 160 
1 161 
1 162 
1 163 
1 164 
1 165 
1 166 
1 167 
1 168 
1 169 
1 170 
1 171 
1 172 
1 173 
1 174 
CELL_TYPES 175 
1 
1 
1 
1 
1 
1 
1 
1 
1 
1 
1 
1 
1 
1 
1 
1 
1 
1 
1 
1 
1 
1 
1 
1 
1 
1 
1 
1 
1 
1 
1 
1 
1 
1 
1 
1 
1 
1 
1 
1 
1 
1 
1 
1 
1 
1 
1 
1 
1 
1 
1 
1 
1 
1 
1 
1 
1 
1 
1 
1 
1 
1 
1 
1 
1 
1 
1 
1 
1 
1 
1 
1 
1 
1 
1 
1 
1 
1 
1 
1 
1 
1 
1 
1 
1 
1 
1 
1 
1 
1 
1 
1 
1 
1 
1 
1 
1 
1 
1 
1 
1 
1 
1 
1 
1 
1 
1 
1 
1 
1 
1 
1 
1 
1 
1 
1 
1 
1 
1 
1 
1 
1 
1 
1 
1 
1 
1 
1 
1 
1 
1 
1 
1 
1 
1 
1 
1 
1 
1 
1 
1 
1 
1 
1 
1 
1 
1 
1 
1 
1 
1 
1 
1 
1 
1 
1 
1 
1 
1 
1 
1 
1 
1 
1 
1 
1 
1 
1 
1 
1 
1 
1 
1 
1 
1 
POINT_DATA 175 
VECTORS X_GC float 
-0.026061 -1.524456 0.000000 
-0.106992 -1.456401 0.000000 
-0.054870 -1.464634 0.000000 
-0.028809 -1.418750 0.000000 
-0.186430 -1.392325 0.000000 
-0.137056 -1.394852 0.000000 
-0.114311 -1.341204 0.000000 
-0.058186 -1.356870 0.000000 
-0.029377 -1.316693 0.000000 
-0.265318 -1.329170 0.000000 
-0.217198 -1.329969 0.000000 
-0.196633 -1.272673 0.000000 
-0.143120 -1.281381 0.000000 
-0.116563 -1.234113 0.000000 
-0.058945 -1.253759 0.000000 
-0.029568 -1.215638 0.000000 
-0.344206 -1.266014 0.000000 
-0.296791 -1.266007 0.000000 
-0.278030 -1.206064 0.000000 
-0.225992 -1.211930 0.000000 
-0.201664 -1.159813 0.000000 
-0.145749 -1.173287 0.000000 
-0.117890 -1.128944 0.000000 
-0.059328 -1.151650 0.000000 
-0.029759 -1.114584 0.000000 
-0.058559 -1.565207 0.000000 
-0.162226 -1.586050 0.000000 
-0.123292 -1.550432 0.000000 
-0.142917 -1.501449 0.000000 
-0.261851 -1.608206 0.000000 
-0.229092 -1.571179 0.000000 
-0.256854 -1.519947 0.000000 
-0.209613 -1.485835 0.000000 
-0.223062 -1.438261 0.000000 
-0.360414 -1.630506 0.000000 
-0.329787 -1.593383 0.000000 
-0.361761 -1.541581 0.000000 
-0.321587 -1.505172 0.000000 
-0.341985 -1.454938 0.000000 
-0.290702 -1.422139 0.000000 
-0.302189 -1.375404 0.000000 
-0.458977 -1.652806 0.000000 
-0.429420 -1.615732 0.000000 
-0.464588 -1.563690 0.000000 
-0.427556 -1.526662 0.000000 
-0.453135 -1.475148 0.000000 
-0.407738 -1.439832 0.000000 
-0.425037 -1.390404 0.000000 
-0.370772 -1.358775 0.000000 
-0.381315 -1.312548 0.000000 
-0.046960 -1.616022 0.000000 
-0.095301 -1.710068 0.000000 
-0.098873 -1.657421 0.000000 
-0.149405 -1.642223 0.000000 
-0.140093 -1.801772 0.000000 
-0.148617 -1.753074 0.000000 
-0.205981 -1.742837 0.000000 
-0.203197 -1.684633 0.000000 
-0.248777 -1.665487 0.000000 
-0.184111 -1.892736 0.000000 
-0.194039 -1.845645 0.000000 
-0.254475 -1.838345 0.000000 
-0.257893 -1.784235 0.000000 
-0.309886 -1.768863 0.000000 
-0.303554 -1.708318 0.000000 
-0.347255 -1.688160 0.000000 
-0.228129 -1.983699 0.000000 
-0.238687 -1.937475 0.000000 
-0.301302 -1.932523 0.000000 
-0.307162 -1.880484 0.000000 
-0.363386 -1.868363 0.000000 
-0.362692 -1.810852 0.000000 
-0.412122 -1.793559 0.000000 
-0.403017 -1.731412 0.000000 
-0.445733 -1.710833 0.000000 
-0.000000 -1.638637 0.000000 
0.043388 -1.735068 0.000000 
-0.000000 -1.705035 0.000000 
-0.043388 -1.735068 0.000000 
0.087158 -1.827264 0.000000 
0.043769 -1.803566 0.000000 
-0.000000 -1.842032 0.000000 
-0.043769 -1.803566 0.000000 
-0.087158 -1.827264 0.000000 
0.130831 -1.918394 0.000000 
0.087824 -1.896795 0.000000 
0.044436 -1.939495 0.000000 
-0.000000 -1.908430 0.000000 
-0.044436 -1.939495 0.000000 
-0.087824 -1.896795 0.000000 
-0.130831 -1.918394 0.000000 
0.174505 -2.009524 0.000000 
0.131782 -1.988958 0.000000 
0.088871 -2.034824 0.000000 
0.044532 -2.006960 0.000000 
-0.000000 -2.043361 0.000000 
-0.044532 -2.006960 0.000000 
-0.088871 -2.034824 0.000000 
-0.131782 -1.988958 0.000000 
-0.174505 -2.009524 0.000000 
0.046960 -1.616022 0.000000 
0.149405 -1.642223 0.000000 
0.098873 -1.657421 0.000000 
0.095301 -1.710068 0.000000 
0.248777 -1.665487 0.000000 
0.203197 -1.684633 0.000000 
0.205981 -1.742837 0.000000 
0.148617 -1.753074 0.000000 
0.140093 -1.801772 0.000000 
0.347255 -1.688160 0.000000 
0.303554 -1.708318 0.000000 
0.309886 -1.768863 0.000000 
0.257893 -1.784235 0.000000 
0.254475 -1.838345 0.000000 
0.194039 -1.845645 0.000000 
0.184111 -1.892736 0.000000 
0.445733 -1.710833 0.000000 
0.403017 -1.731412 0.000000 
0.412122 -1.793559 0.000000 
0.362692 -1.810852 0.000000 
0.363386 -1.868363 0.000000 
0.307162 -1.880484 0.000000 
0.301302 -1.932523 0.000000 
0.238687 -1.937475 0.000000 
0.228129 -1.983699 0.000000 
0.058559 -1.565207 0.000000 
0.142917 -1.501449 0.000000 
0.123292 -1.550432 0.000000 
0.162226 -1.586050 0.000000 
0.223062 -1.438261 0.000000 
0.209613 -1.485835 0.000000 
0.256854 -1.519947 0.000000 
0.229092 -1.571179 0.000000 
0.261851 -1.608206 0.000000 
0.302189 -1.375404 0.000000 
0.290702 -1.422139 0.000000 
0.341985 -1.454938 0.000000 
0.321587 -1.505172 0.000000 
0.361761 -1.541581 0.000000 
0.329787 -1.593383 0.000000 
0.360414 -1.630506 0.000000 
0.381315 -1.312548 0.000000 
0.370772 -1.358775 0.000000 
0.425037 -1.390404 0.000000 
0.407738 -1.439832 0.000000 
0.453135 -1.475148 0.000000 
0.427556 -1.526662 0.000000 
0.464588 -1.563690 0.000000 
0.429420 -1.615732 0.000000 
0.458977 -1.652806 0.000000 
0.026061 -1.524456 0.000000 
0.028809 -1.418750 0.000000 
0.054870 -1.464634 0.000000 
0.106992 -1.456401 0.000000 
0.029377 -1.316693 0.000000 
0.058186 -1.356870 0.000000 
0.114311 -1.341204 0.000000 
0.137056 -1.394852 0.000000 
0.186430 -1.392325 0.000000 
0.029568 -1.215638 0.000000 
0.058945 -1.253759 0.000000 
0.116563 -1.234113 0.000000 
0.143120 -1.281381 0.000000 
0.196633 -1.272673 0.000000 
0.217198 -1.329969 0.000000 
0.265318 -1.329170 0.000000 
0.029759 -1.114584 0.000000 
0.059328 -1.151650 0.000000 
0.117890 -1.128944 0.000000 
0.145749 -1.173287 0.000000 
0.201664 -1.159813 0.000000 
0.225992 -1.211930 0.000000 
0.278030 -1.206064 0.000000 
0.296791 -1.266007 0.000000 
0.344206 -1.266014 0.000000 
VECTORS X_EC float 
0.338794 -0.919840 0.000000 
-0.609100 0.161411 0.000000 
0.713312 0.272552 0.000000 
0.374519 -0.346877 0.000000 
0.423588 -0.703608 0.000000 
-0.218274 -0.669504 0.000000 
-0.513962 0.606257 0.000000 
0.756418 0.817743 0.000000 
0.381900 0.275351 0.000000 
-0.550868 0.443789 0.000000 
0.823577 0.454585 0.000000 
0.556234 -0.318919 0.000000 
-0.139443 -0.201351 0.000000 
-0.484677 -0.839475 0.000000 
0.766286 -0.574260 0.000000 
0.384386 0.911120 0.000000 
0.474677 -0.408814 0.000000 
-0.141715 -0.408911 0.000000 
-0.385608 0.781861 0.000000 
0.937896 0.861057 0.000000 
0.621631 0.157477 0.000000 
-0.105264 0.339376 0.000000 
-0.467428 -0.259250 0.000000 
0.771260 0.047278 0.000000 
0.386873 -0.453111 0.000000 
0.761262 -0.369706 0.000000 
0.108942 -0.088329 0.000000 
-0.397202 -0.569168 0.000000 
-0.142083 0.769556 0.000000 
-0.595936 0.210782 0.000000 
0.978194 -0.289084 0.000000 
-0.660903 -0.980709 0.000000 
0.724964 0.558771 0.000000 
0.899809 -0.083478 0.000000 
0.685384 0.511834 0.000000 
0.287229 0.010675 0.000000 
0.702895 -0.688653 0.000000 
0.180633 0.819828 0.000000 
0.445811 0.141669 0.000000 
-0.220880 -0.301117 0.000000 
-0.071546 -0.932043 0.000000 
-0.033296 0.812886 0.000000 
-0.417537 0.312376 0.000000 
0.039645 -0.390186 0.000000 
-0.441768 -0.890057 0.000000 
-0.109248 0.414492 0.000000 
-0.699407 -0.062263 0.000000 
-0.474522 -0.729543 0.000000 
0.820030 0.843464 0.000000 
0.957100 0.219392 0.000000 
0.610485 0.316301 0.000000 
-0.761092 -0.414080 0.000000 
-0.714655 0.875183 0.000000 
-0.057734 0.670015 0.000000 
-0.178789 0.823924 0.000000 
-0.067979 0.166498 0.000000 
0.677748 0.028295 0.000000 
0.641556 -0.757450 0.000000 
-0.765897 0.984071 0.000000 
0.393446 0.051933 0.000000 
0.522510 -0.583796 0.000000 
-0.691820 -0.682341 0.000000 
-0.647393 0.587177 0.000000 
0.028512 0.379650 0.000000 
-0.053800 -0.437710 0.000000 
0.514316 -0.709841 0.000000 
0.965681 -0.720057 0.000000 
-0.897068 0.655914 0.000000 
-0.083078 0.589061 0.000000 
-0.006893 -0.113464 0.000000 
0.724017 -0.277097 0.000000 
0.714996 0.946500 0.000000 
-0.642413 0.713042 0.000000 
-0.760780 -0.125938 0.000000 
-0.205471 -0.403754 0.000000 
0.000000 0.621602 0.000000 
-0.564049 -0.076585 0.000000 
0.000000 -0.482021 0.000000 
0.564049 -0.076585 0.000000 
0.866949 -0.831929 0.000000 
-0.569003 0.848139 0.000000 
0.000000 -0.632572 0.000000 
0.569003 0.848139 0.000000 
-0.866949 -0.831929 0.000000 
0.299194 0.398321 0.000000 
0.858290 0.106737 0.000000 
-0.577662 0.683183 0.000000 
0.000000 0.263804 0.000000 
0.577662 0.683183 0.000000 
-0.858290 0.106737 0.000000 
-0.299194 0.398321 0.000000 
-0.268560 -0.371429 0.000000 
0.286830 -0.649071 0.000000 
0.844677 -0.029873 0.000000 
-0.578910 -0.406035 0.000000 
0.000000 0.085368 0.000000 
0.578910 -0.406035 0.000000 
-0.844677 -0.029873 0.000000 
-0.286830 -0.649071 0.000000 
0.268560 -0.371429 0.000000 
-0.610485 0.316301 0.000000 
0.057734 0.670015 0.000000 
0.714655 0.875183 0.000000 
0.761092 -0.414080 0.000000 
0.765897 0.984071 0.000000 
-0.641556 -0.757450 0.000000 
-0.677748 0.028295 0.000000 
0.067979 0.166498 0.000000 
0.178789 0.823924 0.000000 
-0.514316 -0.709841 0.000000 
0.053800 -0.437710 0.000000 
-0.028512 0.379650 0.000000 
0.647393 0.587177 0.000000 
0.691820 -0.682341 0.000000 
-0.522510 -0.583796 0.000000 
-0.393446 0.051933 0.000000 
0.205471 -0.403754 0.000000 
0.760780 -0.125938 0.000000 
0.642413 0.713042 0.000000 
-0.714996 0.946500 0.000000 
-0.724017 -0.277097 0.000000 
0.006894 -0.113464 0.000000 
0.083078 0.589061 0.000000 
0.897068 0.655914 0.000000 
-0.965681 -0.720057 0.000000 
-0.761262 -0.369706 0.000000 
0.142083 0.769556 0.000000 
0.397202 -0.569168 0.000000 
-0.108942 -0.088329 0.000000 
-0.899809 -0.083478 0.000000 
-0.724964 0.558771 0.000000 
0.660903 -0.980709 0.000000 
-0.978194 -0.289084 0.000000 
0.595936 0.210782 0.000000 
0.071546 -0.932043 0.000000 
0.220880 -0.301117 0.000000 
-0.445811 0.141669 0.000000 
-0.180633 0.819828 0.000000 
-0.702895 -0.688653 0.000000 
-0.287229 0.010675 0.000000 
-0.685384 0.511834 0.000000 
-0.957100 0.219392 0.000000 
-0.820030 0.843464 0.000000 
0.474522 -0.729543 0.000000 
0.699407 -0.062263 0.000000 
0.109248 0.414492 0.000000 
0.441768 -0.890057 0.000000 
-0.039645 -0.390186 0.000000 
0.417537 0.312376 0.000000 
0.033296 0.812886 0.000000 
-0.338794 -0.919840 0.000000 
-0.374519 -0.346877 0.000000 
-0.713312 0.272552 0.000000 
0.609100 0.161411 0.000000 
-0.381900 0.275351 0.000000 
-0.756418 0.817743 0.000000 
0.513962 0.606257 0.000000 
0.218274 -0.669504 0.000000 
-0.423588 -0.703608 0.000000 
-0.384386 0.911120 0.000000 
-0.766286 -0.574260 0.000000 
0.484677 -0.839475 0.000000 
0.139443 -0.201351 0.000000 
-0.556234 -0.318919 0.000000 
-0.823577 0.454585 0.000000 
0.550868 0.443789 0.000000 
-0.386873 -0.453111 0.000000 
-0.771260 0.047278 0.000000 
0.467428 -0.259250 0.000000 
0.105264 0.339376 0.000000 
-0.621631 0.157477 0.000000 
-0.937896 0.861057 0.000000 
0.385608 0.781861 0.000000 
0.141715 -0.408910 0.000000 
-0.474677 -0.408814 0.000000 
CELL_DATA 175 
SCALARS MASS float 
LOOKUP_TABLE default 
0.781831 
0.864274 
0.946717 
0.864274 
0.881307 
0.921110 
0.858535 
0.921110 
0.881307 
0.887046 
0.910001 
0.869829 
0.915556 
0.869829 
0.910001 
0.887046 
0.892784 
0.915740 
0.892784 
0.927218 
0.892784 
0.927218 
0.892784 
0.915740 
0.892784 
0.781831 
0.864274 
0.946717 
0.864274 
0.881307 
0.921110 
0.858535 
0.921110 
0.881307 
0.887046 
0.910001 
0.869829 
0.915556 
0.869829 
0.910001 
0.887046 
0.892784 
0.915740 
0.892784 
0.927218 
0.892784 
0.927218 
0.892784 
0.915740 
0.892784 
0.781831 
0.864274 
0.946717 
0.864274 
0.881307 
0.921110 
0.858535 
0.921110 
0.881307 
0.887046 
0.910001 
0.869829 
0.915556 
0.869829 
0.910001 
0.887046 
0.892784 
0.915740 
0.892784 
0.927218 
0.892784 
0.927218 
0.892784 
0.915740 
0.892784 
0.781831 
0.864274 
0.946717 
0.864274 
0.881307 
0.921110 
0.858535 
0.921110 
0.881307 
0.887046 
0.910001 
0.869829 
0.915556 
0.869829 
0.910001 
0.887046 
0.892784 
0.915740 
0.892784 
0.927218 
0.892784 
0.927218 
0.892784 
0.915740 
0.892784 
0.781831 
0.864274 
0.946717 
0.864274 
0.881307 
0.921110 
0.858535 
0.921110 
0.881307 
0.887046 
0.910001 
0.869829 
0.915556 
0.869829 
0.910001 
0.887046 
0.892784 
0.915740 
0.892784 
0.927218 
0.892784 
0.927218 
0.892784 
0.915740 
0.892784 
0.781831 
0.864274 
0.946717 
0.864274 
0.881307 
0.921110 
0.858535 
0.921110 
0.881307 
0.887046 
0.910001 
0.869829 
0.915556 
0.869829 
0.910001 
0.887046 
0.892784 
0.915740 
0.892784 
0.927218 
0.892784 
0.927218 
0.892784 
0.915740 
0.892784 
0.781831 
0.864274 
0.946717 
0.864274 
0.881307 
0.921110 
0.858535 
0.921110 
0.881307 
0.887046 
0.910001 
0.869829 
0.915556 
0.869829 
0.910001 
0.887046 
0.892784 
0.915740 
0.892784 
0.927218 
0.892784 
0.927218 
0.892784 
0.915740 
0.892784 
SCALARS MASS float 
LOOKUP_TABLE default 
0.781831 
0.864274 
0.946717 
0.864274 
0.881307 
0.921110 
0.858535 
0.921110 
0.881307 
0.887046 
0.910001 
0.869829 
0.915556 
0.869829 
0.910001 
0.887046 
0.892784 
0.915740 
0.892784 
0.927218 
0.892784 
0.927218 
0.892784 
0.915740 
0.892784 
0.781831 
0.864274 
0.946717 
0.864274 
0.881307 
0.921110 
0.858535 
0.921110 
0.881307 
0.887046 
0.910001 
0.869829 
0.915556 
0.869829 
0.910001 
0.887046 
0.892784 
0.915740 
0.892784 
0.927218 
0.892784 
0.927218 
0.892784 
0.915740 
0.892784 
0.781831 
0.864274 
0.946717 
0.864274 
0.881307 
0.921110 
0.858535 
0.921110 
0.881307 
0.887046 
0.910001 
0.869829 
0.915556 
0.869829 
0.910001 
0.887046 
0.892784 
0.915740 
0.892784 
0.927218 
0.892784 
0.927218 
0.892784 
0.915740 
0.892784 
0.781831 
0.864274 
0.946717 
0.864274 
0.881307 
0.921110 
0.858535 
0.921110 
0.881307 
0.887046 
0.910001 
0.869829 
0.915556 
0.869829 
0.910001 
0.887046 
0.892784 
0.915740 
0.892784 
0.927218 
0.892784 
0.927218 
0.892784 
0.915740 
0.892784 
0.781831 
0.864274 
0.946717 
0.864274 
0.881307 
0.921110 
0.858535 
0.921110 
0.881307 
0.887046 
0.910001 
0.869829 
0.915556 
0.869829 
0.910001 
0.887046 
0.892784 
0.915740 
0.892784 
0.927218 
0.892784 
0.927218 
0.892784 
0.915740 
0.892784 
0.781831 
0.864274 
0.946717 
0.864274 
0.881307 
0.921110 
0.858535 
0.921110 
0.881307 
0.887046 
0.910001 
0.869829 
0.915556 
0.869829 
0.910001 
0.887046 
0.892784 
0.915740 
0.892784 
0.927218 
0.892784 
0.927218 
0.892784 
0.915740 
0.892784 
0.781831 
0.864274 
0.946717 
0.864274 
0.881307 
0.921110 
0.858535 
0.921110 
0.881307 
0.887046 
0.910001 
0.869829 
0.915556 
0.869829 
0.910001 
0.887046 
0.892784 
0.915740 
0.892784 
0.927218 
0.892784 
0.927218 
0.892784 
0.915740 
0.892784 
SCALARS DENSITY float 
LOOKUP_TABLE default 
200.000000 
200.000000 
200.000000 
200.000000 
200.000000 
200.000000 
200.000000 
200.000000 
200.000000 
200.000000 
200.000000 
200.000000 
200.000000 
200.000000 
200.000000 
200.000000 
200.000000 
200.000000 
200.000000 
200.000000 
200.000000 
200.000000 
200.000000 
200.000000 
200.000000 
200.000000 
200.000000 
200.000000 
200.000000 
200.000000 
200.000000 
200.000000 
200.000000 
200.000000 
200.000000 
200.000000 
200.000000 
200.000000 
200.000000 
200.000000 
200.000000 
200.000000 
200.000000 
200.000000 
200.000000 
200.000000 
200.000000 
200.000000 
200.000000 
200.000000 
200.000000 
200.000000 
200.000000 
200.000000 
200.000000 
200.000000 
200.000000 
200.000000 
200.000000 
200.000000 
200.000000 
200.000000 
200.000000 
200.000000 
200.000000 
200.000000 
200.000000 
200.000000 
200.000000 
200.000000 
200.000000 
200.000000 
200.000000 
200.000000 
200.000000 
200.000000 
200.000000 
200.000000 
200.000000 
200.000000 
200.000000 
200.000000 
200.000000 
200.000000 
200.000000 
200.000000 
200.000000 
200.000000 
200.000000 
200.000000 
200.000000 
200.000000 
200.000000 
200.000000 
200.000000 
200.000000 
200.000000 
200.000000 
200.000000 
200.000000 
200.000000 
200.000000 
200.000000 
200.000000 
200.000000 
200.000000 
200.000000 
200.000000 
200.000000 
200.000000 
200.000000 
200.000000 
200.000000 
200.000000 
200.000000 
200.000000 
200.000000 
200.000000 
200.000000 
200.000000 
200.000000 
200.000000 
200.000000 
200.000000 
200.000000 
200.000000 
200.000000 
200.000000 
200.000000 
200.000000 
200.000000 
200.000000 
200.000000 
200.000000 
200.000000 
200.000000 
200.000000 
200.000000 
200.000000 
200.000000 
200.000000 
200.000000 
200.000000 
200.000000 
200.000000 
200.000000 
200.000000 
200.000000 
200.000000 
200.000000 
200.000000 
200.000000 
200.000000 
200.000000 
200.000000 
200.000000 
200.000000 
200.000000 
200.000000 
200.000000 
200.000000 
200.000000 
200.000000 
200.000000 
200.000000 
200.000000 
200.000000 
200.000000 
200.000000 
200.000000 
200.000000 
200.000000 
200.000000 
200.000000 
200.000000 
SCALARS ELEM_i float 
LOOKUP_TABLE default 
171 
199 
172 
172 
199 
199 
200 
173 
173 
227 
200 
200 
200 
200 
173 
174 
227 
227 
228 
201 
201 
201 
201 
174 
174 
171 
198 
198 
199 
225 
198 
225 
199 
199 
225 
225 
225 
226 
226 
226 
226 
252 
252 
252 
252 
253 
253 
253 
227 
227 
171 
197 
198 
198 
197 
197 
197 
197 
225 
196 
196 
223 
224 
224 
224 
224 
195 
223 
223 
223 
223 
224 
251 
251 
251 
171 
170 
170 
170 
142 
170 
169 
170 
196 
142 
142 
169 
169 
169 
196 
196 
141 
141 
141 
168 
168 
168 
195 
195 
195 
171 
144 
144 
143 
117 
143 
143 
143 
143 
116 
116 
116 
116 
115 
142 
142 
89 
89 
89 
116 
115 
115 
115 
115 
141 
171 
145 
144 
144 
145 
145 
117 
144 
117 
118 
118 
118 
118 
117 
117 
117 
119 
119 
91 
91 
91 
90 
90 
90 
90 
171 
172 
172 
145 
173 
173 
146 
145 
145 
174 
173 
146 
146 
146 
146 
119 
174 
174 
147 
147 
147 
147 
120 
119 
119 
VECTORS VELOCITY float 
-0.000000 -5.564232 0.000000 
-0.000000 -5.564232 0.000000 
-0.000000 -5.564232 0.000000 
-0.000000 -5.564232 0.000000 
-0.000000 -5.564232 0.000000 
-0.000000 -5.564232 0.000000 
-0.000000 -5.564232 0.000000 
-0.000000 -5.564232 0.000000 
0.000000 -5.564232 0.000000 
-0.000000 -5.564232 0.000000 
-0.000000 -5.564232 0.000000 
0.000000 -5.564232 0.000000 
0.000000 -5.564232 0.000000 
-0.000000 -5.564232 0.000000 
0.000000 -5.564232 0.000000 
-0.000000 -5.564232 0.000000 
0.000000 -5.564232 0.000000 
0.000000 -5.564232 0.000000 
0.000000 -5.564232 0.000000 
0.000000 -5.564232 0.000000 
0.000000 -5.564232 0.000000 
0.000000 -5.564232 0.000000 
-0.000000 -5.564232 0.000000 
0.000000 -5.564232 0.000000 
0.000000 -5.564232 0.000000 
0.000000 -5.564232 0.000000 
-0.000000 -5.564232 0.000000 
0.000000 -5.564232 0.000000 
0.000000 -5.564232 0.000000 
-0.000000 -5.564232 0.000000 
-0.000000 -5.564232 0.000000 
-0.000000 -5.564232 0.000000 
-0.000000 -5.564232 0.000000 
-0.000000 -5.564232 0.000000 
0.000000 -5.564232 0.000000 
0.000000 -5.564232 0.000000 
0.000000 -5.564232 0.000000 
0.000000 -5.564232 0.000000 
-0.000000 -5.564232 0.000000 
-0.000000 -5.564232 0.000000 
-0.000000 -5.564232 0.000000 
-0.000000 -5.564232 0.000000 
-0.000000 -5.564232 0.000000 
-0.000000 -5.564232 0.000000 
0.000000 -5.564232 0.000000 
0.000000 -5.564232 0.000000 
0.000000 -5.564232 0.000000 
0.000000 -5.564232 0.000000 
0.000000 -5.564232 0.000000 
0.000000 -5.564232 0.000000 
-0.000000 -5.564232 0.000000 
0.000000 -5.564232 0.000000 
0.000000 -5.564232 0.000000 
-0.000000 -5.564232 0.000000 
0.000000 -5.564232 0.000000 
0.000000 -5.564232 0.000000 
0.000000 -5.564232 0.000000 
0.000000 -5.564232 0.000000 
0.000000 -5.564232 0.000000 
-0.000000 -5.564232 0.000000 
-0.000000 -5.564232 0.000000 
-0.000000 -5.564232 0.000000 
-0.000000 -5.564232 0.000000 
-0.000000 -5.564232 0.000000 
0.000000 -5.564232 0.000000 
-0.000000 -5.564232 0.000000 
0.000000 -5.564232 0.000000 
-0.000000 -5.564232 0.000000 
-0.000000 -5.564232 0.000000 
-0.000000 -5.564232 0.000000 
-0.000000 -5.564232 0.000000 
-0.000000 -5.564232 0.000000 
0.000000 -5.564232 0.000000 
-0.000000 -5.564232 0.000000 
0.000000 -5.564232 0.000000 
-0.000000 -5.564232 0.000000 
-0.000000 -5.564232 0.000000 
-0.000000 -5.564232 0.000000 
0.000000 -5.564232 0.000000 
0.000000 -5.564232 0.000000 
0.000000 -5.564232 0.000000 
0.000000 -5.564232 0.000000 
0.000000 -5.564232 0.000000 
0.000000 -5.564232 0.000000 
0.000000 -5.564232 0.000000 
0.000000 -5.564232 0.000000 
0.000000 -5.564232 0.000000 
0.000000 -5.564232 0.000000 
0.000000 -5.564232 0.000000 
-0.000000 -5.564232 0.000000 
-0.000000 -5.564232 0.000000 
0.000000 -5.564232 0.000000 
0.000000 -5.564232 0.000000 
-0.000000 -5.564232 0.000000 
-0.000000 -5.564232 0.000000 
-0.000000 -5.564232 0.000000 
0.000000 -5.564232 0.000000 
0.000000 -5.564232 0.000000 
0.000000 -5.564232 0.000000 
-0.000000 -5.564232 0.000000 
-0.000000 -5.564232 0.000000 
-0.000000 -5.564232 0.000000 
-0.000000 -5.564232 0.000000 
-0.000000 -5.564232 0.000000 
-0.000000 -5.564232 0.000000 
-0.000000 -5.564232 0.000000 
-0.000000 -5.564232 0.000000 
-0.000000 -5.564232 0.000000 
-0.000000 -5.564232 0.000000 
0.000000 -5.564232 0.000000 
0.000000 -5.564232 0.000000 
-0.000000 -5.564232 0.000000 
-0.000000 -5.564232 0.000000 
-0.000000 -5.564232 0.000000 
-0.000000 -5.564232 0.000000 
-0.000000 -5.564232 0.000000 
-0.000000 -5.564232 0.000000 
0.000000 -5.564232 0.000000 
0.000000 -5.564232 0.000000 
0.000000 -5.564232 0.000000 
-0.000000 -5.564232 0.000000 
-0.000000 -5.564232 0.000000 
-0.000000 -5.564232 0.000000 
-0.000000 -5.564232 0.000000 
0.000000 -5.564232 0.000000 
-0.000000 -5.564232 0.000000 
-0.000000 -5.564232 0.000000 
-0.000000 -5.564232 0.000000 
0.000000 -5.564232 0.000000 
-0.000000 -5.564232 0.000000 
0.000000 -5.564232 0.000000 
0.000000 -5.564232 0.000000 
0.000000 -5.564232 0.000000 
0.000000 -5.564232 0.000000 
-0.000000 -5.564232 0.000000 
-0.000000 -5.564232 0.000000 
0.000000 -5.564232 0.000000 
0.000000 -5.564232 0.000000 
-0.000000 -5.564232 0.000000 
-0.000000 -5.564232 0.000000 
0.000000 -5.564232 0.000000 
-0.000000 -5.564232 0.000000 
0.000000 -5.564232 0.000000 
0.000000 -5.564232 0.000000 
0.000000 -5.564232 0.000000 
0.000000 -5.564232 0.000000 
-0.000000 -5.564232 0.000000 
-0.000000 -5.564232 0.000000 
0.000000 -5.564232 0.000000 
0.000000 -5.564232 0.000000 
-0.000000 -5.564232 0.000000 
0.000000 -5.564232 0.000000 
-0.000000 -5.564232 0.000000 
-0.000000 -5.564232 0.000000 
0.000000 -5.564232 0.000000 
-0.000000 -5.564232 0.000000 
0.000000 -5.564232 0.000000 
0.000000 -5.564232 0.000000 
-0.000000 -5.564232 0.000000 
0.000000 -5.564232 0.000000 
-0.000000 -5.564232 0.000000 
0.000000 -5.564232 0.000000 
0.000000 -5.564232 0.000000 
0.000000 -5.564232 0.000000 
-0.000000 -5.564232 0.000000 
-0.000000 -5.564232 0.000000 
0.000000 -5.564232 0.000000 
0.000000 -5.564232 0.000000 
0.000000 -5.564232 0.000000 
0.000000 -5.564232 0.000000 
0.000000 -5.564232 0.000000 
0.000000 -5.564232 0.000000 
-0.000000 -5.564232 0.000000 
-0.000000 -5.564232 0.000000 
-0.000000 -5.564232 0.000000 
TENSORS STRESS float 
0.000000 -0.000000 0.000000 
0.000000 0.000000 0.000000 
0.000000 0.000000 0.000000 

0.000000 -0.000000 0.000000 
0.000000 0.000000 0.000000 
0.000000 0.000000 0.000000 

-0.000000 0.000000 0.000000 
0.000000 -0.000000 0.000000 
0.000000 0.000000 0.000000 

0.000000 0.000000 0.000000 
0.000000 0.000000 0.000000 
0.000000 0.000000 0.000000 

-0.000000 0.000000 0.000000 
0.000000 -0.000000 0.000000 
0.000000 0.000000 0.000000 

0.000000 0.000000 0.000000 
0.000000 0.000000 0.000000 
0.000000 0.000000 0.000000 

0.000000 -0.000000 0.000000 
0.000000 0.000000 0.000000 
0.000000 0.000000 0.000000 

-0.000000 -0.000000 0.000000 
0.000000 -0.000000 0.000000 
0.000000 0.000000 0.000000 

0.000000 -0.000000 0.000000 
0.000000 0.000000 0.000000 
0.000000 0.000000 0.000000 

-0.000000 -0.000000 0.000000 
0.000000 -0.000000 0.000000 
0.000000 0.000000 0.000000 

-0.000000 -0.000000 0.000000 
0.000000 -0.000000 0.000000 
0.000000 0.000000 0.000000 

0.000000 0.000000 0.000000 
0.000000 0.000000 0.000000 
0.000000 0.000000 0.000000 

0.000000 0.000000 0.000000 
0.000000 0.000000 0.000000 
0.000000 0.000000 0.000000 

-0.000000 0.000000 0.000000 
0.000000 0.000000 0.000000 
0.000000 0.000000 0.000000 

-0.000000 0.000000 0.000000 
0.000000 -0.000000 0.000000 
0.000000 0.000000 0.000000 

-0.000000 0.000000 0.000000 
0.000000 -0.000000 0.000000 
0.000000 0.000000 0.000000 

0.000000 -0.000000 0.000000 
0.000000 0.000000 0.000000 
0.000000 0.000000 0.000000 

0.000000 -0.000000 0.000000 
0.000000 0.000000 0.000000 
0.000000 0.000000 0.000000 

-0.000000 -0.000000 0.000000 
0.000000 -0.000000 0.000000 
0.000000 0.000000 0.000000 

0.000000 -0.000000 0.000000 
0.000000 0.000000 0.000000 
0.000000 0.000000 0.000000 

-0.000000 -0.000000 0.000000 
0.000000 -0.000000 0.000000 
0.000000 0.000000 0.000000 

-0.000000 -0.000000 0.000000 
0.000000 -0.000000 0.000000 
0.000000 0.000000 0.000000 

-0.000000 -0.000000 0.000000 
0.000000 -0.000000 0.000000 
0.000000 0.000000 0.000000 

0.000000 0.000000 0.000000 
0.000000 0.000000 0.000000 
0.000000 0.000000 0.000000 

0.000000 0.000000 0.000000 
0.000000 0.000000 0.000000 
0.000000 0.000000 0.000000 

-0.000000 0.000000 0.000000 
0.000000 -0.000000 0.000000 
0.000000 0.000000 0.000000 

0.000000 0.000000 0.000000 
0.000000 0.000000 0.000000 
0.000000 0.000000 0.000000 

0.000000 -0.000000 0.000000 
0.000000 0.000000 0.000000 
0.000000 0.000000 0.000000 

0.000000 0.000000 0.000000 
0.000000 -0.000000 0.000000 
0.000000 0.000000 0.000000 

0.000000 -0.000000 0.000000 
0.000000 -0.000000 0.000000 
0.000000 0.000000 0.000000 

0.000000 0.000000 0.000000 
0.000000 0.000000 0.000000 
0.000000 0.000000 0.000000 

0.000000 0.000000 0.000000 
0.000000 0.000000 0.000000 
0.000000 0.000000 0.000000 

0.000000 0.000000 0.000000 
0.000000 -0.000000 0.000000 
0.000000 0.000000 0.000000 

0.000000 0.000000 0.000000 
0.000000 0.000000 0.000000 
0.000000 0.000000 0.000000 

-0.000000 -0.000000 0.000000 
0.000000 -0.000000 0.000000 
0.000000 0.000000 0.000000 

-0.000000 -0.000000 0.000000 
0.000000 -0.000000 0.000000 
0.000000 0.000000 0.000000 

-0.000000 0.000000 0.000000 
0.000000 -0.000000 0.000000 
0.000000 0.000000 0.000000 

0.000000 0.000000 0.000000 
0.000000 0.000000 0.000000 
0.000000 0.000000 0.000000 

0.000000 0.000000 0.000000 
0.000000 0.000000 0.000000 
0.000000 0.000000 0.000000 

0.000000 0.000000 0.000000 
0.000000 0.000000 0.000000 
0.000000 0.000000 0.000000 

-0.000000 -0.000000 0.000000 
0.000000 -0.000000 0.000000 
0.000000 0.000000 0.000000 

-0.000000 0.000000 0.000000 
0.000000 -0.000000 0.000000 
0.000000 0.000000 0.000000 

-0.000000 -0.000000 0.000000 
0.000000 -0.000000 0.000000 
0.000000 0.000000 0.000000 

-0.000000 -0.000000 0.000000 
0.000000 -0.000000 0.000000 
0.000000 0.000000 0.000000 

-0.000000 0.000000 0.000000 
0.000000 -0.000000 0.000000 
0.000000 0.000000 0.000000 

0.000000 -0.000000 0.000000 
0.000000 0.000000 0.000000 
0.000000 0.000000 0.000000 

0.000000 -0.000000 0.000000 
0.000000 0.000000 0.000000 
0.000000 0.000000 0.000000 

-0.000000 -0.000000 0.000000 
0.000000 -0.000000 0.000000 
0.000000 0.000000 0.000000 

-0.000000 0.000000 0.000000 
0.000000 -0.000000 0.000000 
0.000000 0.000000 0.000000 

0.000000 -0.000000 0.000000 
0.000000 0.000000 0.000000 
0.000000 0.000000 0.000000 

0.000000 -0.000000 0.000000 
0.000000 0.000000 0.000000 
0.000000 0.000000 0.000000 

0.000000 -0.000000 0.000000 
0.000000 0.000000 0.000000 
0.000000 0.000000 0.000000 

0.000000 -0.000000 0.000000 
0.000000 0.000000 0.000000 
0.000000 0.000000 0.000000 

-0.000000 -0.000000 0.000000 
0.000000 -0.000000 0.000000 
0.000000 0.000000 0.000000 

-0.000000 0.000000 0.000000 
0.000000 -0.000000 0.000000 
0.000000 0.000000 0.000000 

0.000000 -0.000000 0.000000 
0.000000 0.000000 0.000000 
0.000000 0.000000 0.000000 

-0.000000 -0.000000 0.000000 
0.000000 -0.000000 0.000000 
0.000000 0.000000 0.000000 

0.000000 -0.000000 0.000000 
0.000000 0.000000 0.000000 
0.000000 0.000000 0.000000 

-0.000000 -0.000000 0.000000 
0.000000 -0.000000 0.000000 
0.000000 0.000000 0.000000 

0.000000 -0.000000 0.000000 
0.000000 0.000000 0.000000 
0.000000 0.000000 0.000000 

0.000000 -0.000000 0.000000 
0.000000 0.000000 0.000000 
0.000000 0.000000 0.000000 

-0.000000 0.000000 0.000000 
0.000000 -0.000000 0.000000 
0.000000 0.000000 0.000000 

0.000000 -0.000000 0.000000 
0.000000 0.000000 0.000000 
0.000000 0.000000 0.000000 

0.000000 -0.000000 0.000000 
0.000000 0.000000 0.000000 
0.000000 0.000000 0.000000 

-0.000000 -0.000000 0.000000 
0.000000 -0.000000 0.000000 
0.000000 0.000000 0.000000 

-0.000000 -0.000000 0.000000 
0.000000 -0.000000 0.000000 
0.000000 0.000000 0.000000 

0.000000 -0.000000 0.000000 
0.000000 0.000000 0.000000 
0.000000 0.000000 0.000000 

0.000000 -0.000000 0.000000 
0.000000 0.000000 0.000000 
0.000000 0.000000 0.000000 

-0.000000 -0.000000 0.000000 
0.000000 -0.000000 0.000000 
0.000000 0.000000 0.000000 

0.000000 0.000000 0.000000 
0.000000 0.000000 0.000000 
0.000000 0.000000 0.000000 

-0.000000 0.000000 0.000000 
0.000000 -0.000000 0.000000 
0.000000 0.000000 0.000000 

0.000000 0.000000 0.000000 
0.000000 0.000000 0.000000 
0.000000 0.000000 0.000000 

-0.000000 0.000000 0.000000 
0.000000 -0.000000 0.000000 
0.000000 0.000000 0.000000 

-0.000000 0.000000 0.000000 
0.000000 -0.000000 0.000000 
0.000000 0.000000 0.000000 

0.000000 0.000000 0.000000 
0.000000 0.000000 0.000000 
0.000000 0.000000 0.000000 

-0.000000 -0.000000 0.000000 
0.000000 -0.000000 0.000000 
0.000000 0.000000 0.000000 

0.000000 0.000000 0.000000 
0.000000 0.000000 0.000000 
0.000000 0.000000 0.000000 

-0.000000 -0.000000 0.000000 
0.000000 -0.000000 0.000000 
0.000000 0.000000 0.000000 

0.000000 -0.000000 0.000000 
0.000000 0.000000 0.000000 
0.000000 0.000000 0.000000 

-0.000000 0.000000 0.000000 
0.000000 -0.000000 0.000000 
0.000000 0.000000 0.000000 

-0.000000 0.000000 0.000000 
0.000000 -0.000000 0.000000 
0.000000 0.000000 0.000000 

-0.000000 0.000000 0.000000 
0.000000 -0.000000 0.000000 
0.000000 0.000000 0.000000 

-0.000000 0.000000 0.000000 
0.000000 -0.000000 0.000000 
0.000000 0.000000 0.000000 

-0.000000 0.000000 0.000000 
0.000000 -0.000000 0.000000 
0.000000 0.000000 0.000000 

-0.000000 0.000000 0.000000 
0.000000 -0.000000 0.000000 
0.000000 0.000000 0.000000 

-0.000000 0.000000 0.000000 
0.000000 -0.000000 0.000000 
0.000000 0.000000 0.000000 

-0.000000 0.000000 0.000000 
0.000000 -0.000000 0.000000 
0.000000 0.000000 0.000000 

0.000000 0.000000 0.000000 
0.000000 0.000000 0.000000 
0.000000 0.000000 0.000000 

-0.000000 0.000000 0.000000 
0.000000 -0.000000 0.000000 
0.000000 0.000000 0.000000 

0.000000 -0.000000 0.000000 
0.000000 0.000000 0.000000 
0.000000 0.000000 0.000000 

-0.000000 -0.000000 0.000000 
0.000000 -0.000000 0.000000 
0.000000 0.000000 0.000000 

-0.000000 0.000000 0.000000 
0.000000 -0.000000 0.000000 
0.000000 0.000000 0.000000 

0.000000 -0.000000 0.000000 
0.000000 0.000000 0.000000 
0.000000 0.000000 0.000000 

-0.000000 -0.000000 0.000000 
0.000000 -0.000000 0.000000 
0.000000 0.000000 0.000000 

-0.000000 0.000000 0.000000 
0.000000 -0.000000 0.000000 
0.000000 0.000000 0.000000 

0.000000 -0.000000 0.000000 
0.000000 0.000000 0.000000 
0.000000 0.000000 0.000000 

0.000000 0.000000 0.000000 
0.000000 0.000000 0.000000 
0.000000 0.000000 0.000000 

0.000000 -0.000000 0.000000 
0.000000 -0.000000 0.000000 
0.000000 0.000000 0.000000 

0.000000 -0.000000 0.000000 
0.000000 0.000000 0.000000 
0.000000 0.000000 0.000000 

0.000000 -0.000000 0.000000 
0.000000 0.000000 0.000000 
0.000000 0.000000 0.000000 

0.000000 -0.000000 0.000000 
0.000000 0.000000 0.000000 
0.000000 0.000000 0.000000 

0.000000 0.000000 0.000000 
0.000000 0.000000 0.000000 
0.000000 0.000000 0.000000 

-0.000000 0.000000 0.000000 
0.000000 -0.000000 0.000000 
0.000000 0.000000 0.000000 

0.000000 0.000000 0.000000 
0.000000 0.000000 0.000000 
0.000000 0.000000 0.000000 

0.000000 0.000000 0.000000 
0.000000 0.000000 0.000000 
0.000000 0.000000 0.000000 

0.000000 -0.000000 0.000000 
0.000000 0.000000 0.000000 
0.000000 0.000000 0.000000 

0.000000 0.000000 0.000000 
0.000000 -0.000000 0.000000 
0.000000 0.000000 0.000000 

-0.000000 0.000000 0.000000 
0.000000 -0.000000 0.000000 
0.000000 0.000000 0.000000 

-0.000000 0.000000 0.000000 
0.000000 -0.000000 0.000000 
0.000000 0.000000 0.000000 

0.000000 0.000000 0.000000 
0.000000 0.000000 0.000000 
0.000000 0.000000 0.000000 

0.000000 0.000000 0.000000 
0.000000 0.000000 0.000000 
0.000000 0.000000 0.000000 

0.000000 0.000000 0.000000 
0.000000 0.000000 0.000000 
0.000000 0.000000 0.000000 

-0.000000 0.000000 0.000000 
0.000000 -0.000000 0.000000 
0.000000 0.000000 0.000000 

-0.000000 -0.000000 0.000000 
0.000000 -0.000000 0.000000 
0.000000 0.000000 0.000000 

-0.000000 -0.000000 0.000000 
0.000000 -0.000000 0.000000 
0.000000 0.000000 0.000000 

-0.000000 -0.000000 0.000000 
0.000000 -0.000000 0.000000 
0.000000 0.000000 0.000000 

0.000000 0.000000 0.000000 
0.000000 0.000000 0.000000 
0.000000 0.000000 0.000000 

0.000000 0.000000 0.000000 
0.000000 0.000000 0.000000 
0.000000 0.000000 0.000000 

0.000000 0.000000 0.000000 
0.000000 0.000000 0.000000 
0.000000 0.000000 0.000000 

-0.000000 0.000000 0.000000 
0.000000 -0.000000 0.000000 
0.000000 0.000000 0.000000 

-0.000000 -0.000000 0.000000 
0.000000 -0.000000 0.000000 
0.000000 0.000000 0.000000 

-0.000000 0.000000 0.000000 
0.000000 -0.000000 0.000000 
0.000000 0.000000 0.000000 

-0.000000 -0.000000 0.000000 
0.000000 -0.000000 0.000000 
0.000000 0.000000 0.000000 

-0.000000 -0.000000 0.000000 
0.000000 -0.000000 0.000000 
0.000000 0.000000 0.000000 

-0.000000 -0.000000 0.000000 
0.000000 -0.000000 0.000000 
0.000000 0.000000 0.000000 

0.000000 -0.000000 0.000000 
0.000000 0.000000 0.000000 
0.000000 0.000000 0.000000 

-0.000000 0.000000 0.000000 
0.000000 -0.000000 0.000000 
0.000000 0.000000 0.000000 

-0.000000 0.000000 0.000000 
0.000000 -0.000000 0.000000 
0.000000 0.000000 0.000000 

0.000000 0.000000 0.000000 
0.000000 0.000000 0.000000 
0.000000 0.000000 0.000000 

-0.000000 0.000000 0.000000 
0.000000 -0.000000 0.000000 
0.000000 0.000000 0.000000 

-0.000000 0.000000 0.000000 
0.000000 -0.000000 0.000000 
0.000000 0.000000 0.000000 

-0.000000 -0.000000 0.000000 
0.000000 -0.000000 0.000000 
0.000000 0.000000 0.000000 

0.000000 0.000000 0.000000 
0.000000 0.000000 0.000000 
0.000000 0.000000 0.000000 

0.000000 -0.000000 0.000000 
0.000000 0.000000 0.000000 
0.000000 0.000000 0.000000 

-0.000000 -0.000000 0.000000 
0.000000 -0.000000 0.000000 
0.000000 0.000000 0.000000 

-0.000000 0.000000 0.000000 
0.000000 -0.000000 0.000000 
0.000000 0.000000 0.000000 

0.000000 0.000000 0.000000 
0.000000 0.000000 0.000000 
0.000000 0.000000 0.000000 

-0.000000 -0.000000 0.000000 
0.000000 -0.000000 0.000000 
0.000000 0.000000 0.000000 

0.000000 -0.000000 0.000000 
0.000000 0.000000 0.000000 
0.000000 0.000000 0.000000 

0.000000 -0.000000 0.000000 
0.000000 0.000000 0.000000 
0.000000 0.000000 0.000000 

-0.000000 0.000000 0.000000 
0.000000 -0.000000 0.000000 
0.000000 0.000000 0.000000 

-0.000000 -0.000000 0.000000 
0.000000 -0.000000 0.000000 
0.000000 0.000000 0.000000 

-0.000000 -0.000000 0.000000 
0.000000 -0.000000 0.000000 
0.000000 0.000000 0.000000 

-0.000000 -0.000000 0.000000 
0.000000 -0.000000 0.000000 
0.000000 0.000000 0.000000 

0.000000 -0.000000 0.000000 
0.000000 0.000000 0.000000 
0.000000 0.000000 0.000000 

-0.000000 -0.000000 0.000000 
0.000000 -0.000000 0.000000 
0.000000 0.000000 0.000000 

-0.000000 -0.000000 0.000000 
0.000000 -0.000000 0.000000 
0.000000 0.000000 0.000000 

-0.000000 -0.000000 0.000000 
0.000000 -0.000000 0.000000 
0.000000 0.000000 0.000000 

0.000000 -0.000000 0.000000 
0.000000 0.000000 0.000000 
0.000000 0.000000 0.000000 

-0.000000 -0.000000 0.000000 
0.000000 -0.000000 0.000000 
0.000000 0.000000 0.000000 

0.000000 -0.000000 0.000000 
0.000000 0.000000 0.000000 
0.000000 0.000000 0.000000 

0.000000 0.000000 0.000000 
0.000000 -0.000000 0.000000 
0.000000 0.000000 0.000000 

0.000000 0.000000 0.000000 
0.000000 0.000000 0.000000 
0.000000 0.000000 0.000000 

0.000000 0.000000 0.000000 
0.000000 0.000000 0.000000 
0.000000 0.000000 0.000000 

0.000000 -0.000000 0.000000 
0.000000 0.000000 0.000000 
0.000000 0.000000 0.000000 

0.000000 -0.000000 0.000000 
0.000000 0.000000 0.000000 
0.000000 0.000000 0.000000 

-0.000000 -0.000000 0.000000 
0.000000 -0.000000 0.000000 
0.000000 0.000000 0.000000 

0.000000 0.000000 0.000000 
0.000000 0.000000 0.000000 
0.000000 0.000000 0.000000 

-0.000000 0.000000 0.000000 
0.000000 -0.000000 0.000000 
0.000000 0.000000 0.000000 

0.000000 0.000000 0.000000 
0.000000 0.000000 0.000000 
0.000000 0.000000 0.000000 

-0.000000 0.000000 0.000000 
0.000000 -0.000000 0.000000 
0.000000 0.000000 0.000000 

-0.000000 0.000000 0.000000 
0.000000 -0.000000 0.000000 
0.000000 0.000000 0.000000 

0.000000 0.000000 0.000000 
0.000000 0.000000 0.000000 
0.000000 0.000000 0.000000 

0.000000 0.000000 0.000000 
0.000000 0.000000 0.000000 
0.000000 0.000000 0.000000 

0.000000 -0.000000 0.000000 
0.000000 0.000000 0.000000 
0.000000 0.000000 0.000000 

0.000000 -0.000000 0.000000 
0.000000 0.000000 0.000000 
0.000000 0.000000 0.000000 

-0.000000 0.000000 0.000000 
0.000000 -0.000000 0.000000 
0.000000 0.000000 0.000000 

0.000000 0.000000 0.000000 
0.000000 0.000000 0.000000 
0.000000 0.000000 0.000000 

-0.000000 -0.000000 0.000000 
0.000000 -0.000000 0.000000 
0.000000 0.000000 0.000000 

-0.000000 0.000000 0.000000 
0.000000 -0.000000 0.000000 
0.000000 0.000000 0.000000 

-0.000000 0.000000 0.000000 
0.000000 -0.000000 0.000000 
0.000000 0.000000 0.000000 

-0.000000 0.000000 0.000000 
0.000000 -0.000000 0.000000 
0.000000 0.000000 0.000000 

-0.000000 0.000000 0.000000 
0.000000 -0.000000 0.000000 
0.000000 0.000000 0.000000 

-0.000000 -0.000000 0.000000 
0.000000 -0.000000 0.000000 
0.000000 0.000000 0.000000 

-0.000000 -0.000000 0.000000 
0.000000 -0.000000 0.000000 
0.000000 0.000000 0.000000 

TENSORS STRAIN float 
0.000000 -0.000000 0.000000 
0.000000 -0.000000 0.000000 
0.000000 0.000000 0.000000 

0.000000 -0.000000 0.000000 
0.000000 0.000000 0.000000 
0.000000 0.000000 0.000000 

0.000000 0.000000 0.000000 
0.000000 -0.000000 0.000000 
0.000000 0.000000 0.000000 

0.000000 0.000000 0.000000 
0.000000 0.000000 0.000000 
0.000000 0.000000 0.000000 

0.000000 0.000000 0.000000 
0.000000 -0.000000 0.000000 
0.000000 0.000000 0.000000 

0.000000 0.000000 0.000000 
0.000000 0.000000 0.000000 
0.000000 0.000000 0.000000 

-0.000000 -0.000000 0.000000 
0.000000 0.000000 0.000000 
0.000000 0.000000 0.000000 

0.000000 -0.000000 0.000000 
0.000000 -0.000000 0.000000 
0.000000 0.000000 0.000000 

0.000000 -0.000000 0.000000 
0.000000 0.000000 0.000000 
0.000000 0.000000 0.000000 

-0.000000 -0.000000 0.000000 
0.000000 0.000000 0.000000 
0.000000 0.000000 0.000000 

-0.000000 -0.000000 0.000000 
0.000000 -0.000000 0.000000 
0.000000 0.000000 0.000000 

-0.000000 0.000000 0.000000 
0.000000 0.000000 0.000000 
0.000000 0.000000 0.000000 

-0.000000 0.000000 0.000000 
0.000000 0.000000 0.000000 
0.000000 0.000000 0.000000 

-0.000000 0.000000 0.000000 
0.000000 0.000000 0.000000 
0.000000 0.000000 0.000000 

0.000000 0.000000 0.000000 
0.000000 -0.000000 0.000000 
0.000000 0.000000 0.000000 

0.000000 0.000000 0.000000 
0.000000 -0.000000 0.000000 
0.000000 0.000000 0.000000 

-0.000000 -0.000000 0.000000 
0.000000 0.000000 0.000000 
0.000000 0.000000 0.000000 

-0.000000 -0.000000 0.000000 
0.000000 0.000000 0.000000 
0.000000 0.000000 0.000000 

-0.000000 -0.000000 0.000000 
0.000000 0.000000 0.000000 
0.000000 0.000000 0.000000 

-0.000000 -0.000000 0.000000 
0.000000 0.000000 0.000000 
0.000000 0.000000 0.000000 

-0.000000 -0.000000 0.000000 
0.000000 0.000000 0.000000 
0.000000 0.000000 0.000000 

-0.000000 -0.000000 0.000000 
0.000000 -0.000000 0.000000 
0.000000 0.000000 0.000000 

0.000000 -0.000000 0.000000 
0.000000 -0.000000 0.000000 
0.000000 0.000000 0.000000 

0.000000 0.000000 0.000000 
0.000000 0.000000 0.000000 
0.000000 0.000000 0.000000 

0.000000 0.000000 0.000000 
0.000000 0.000000 0.000000 
0.000000 0.000000 0.000000 

0.000000 0.000000 0.000000 
0.000000 -0.000000 0.000000 
0.000000 0.000000 0.000000 

0.000000 0.000000 0.000000 
0.000000 -0.000000 0.000000 
0.000000 0.000000 0.000000 

0.000000 -0.000000 0.000000 
0.000000 -0.000000 0.000000 
0.000000 0.000000 0.000000 

0.000000 0.000000 0.000000 
0.000000 -0.000000 0.000000 
0.000000 0.000000 0.000000 

0.000000 -0.000000 0.000000 
0.000000 -0.000000 0.000000 
0.000000 0.000000 0.000000 

0.000000 0.000000 0.000000 
0.000000 -0.000000 0.000000 
0.000000 0.000000 0.000000 

0.000000 0.000000 0.000000 
0.000000 0.000000 0.000000 
0.000000 0.000000 0.000000 

0.000000 0.000000 0.000000 
0.000000 -0.000000 0.000000 
0.000000 0.000000 0.000000 

0.000000 0.000000 0.000000 
0.000000 -0.000000 0.000000 
0.000000 0.000000 0.000000 

0.000000 -0.000000 0.000000 
0.000000 -0.000000 0.000000 
0.000000 0.000000 0.000000 

0.000000 -0.000000 0.000000 
0.000000 -0.000000 0.000000 
0.000000 0.000000 0.000000 

0.000000 0.000000 0.000000 
0.000000 -0.000000 0.000000 
0.000000 0.000000 0.000000 

0.000000 0.000000 0.000000 
0.000000 0.000000 0.000000 
0.000000 0.000000 0.000000 

0.000000 0.000000 0.000000 
0.000000 -0.000000 0.000000 
0.000000 0.000000 0.000000 

0.000000 0.000000 0.000000 
0.000000 0.000000 0.000000 
0.000000 0.000000 0.000000 

0.000000 -0.000000 0.000000 
0.000000 -0.000000 0.000000 
0.000000 0.000000 0.000000 

-0.000000 0.000000 0.000000 
0.000000 -0.000000 0.000000 
0.000000 0.000000 0.000000 

-0.000000 -0.000000 0.000000 
0.000000 0.000000 0.000000 
0.000000 0.000000 0.000000 

-0.000000 -0.000000 0.000000 
0.000000 0.000000 0.000000 
0.000000 0.000000 0.000000 

-0.000000 0.000000 0.000000 
0.000000 0.000000 0.000000 
0.000000 0.000000 0.000000 

-0.000000 -0.000000 0.000000 
0.000000 0.000000 0.000000 
0.000000 0.000000 0.000000 

0.000000 -0.000000 0.000000 
0.000000 0.000000 0.000000 
0.000000 0.000000 0.000000 

0.000000 -0.000000 0.000000 
0.000000 -0.000000 0.000000 
0.000000 0.000000 0.000000 

0.000000 0.000000 0.000000 
0.000000 -0.000000 0.000000 
0.000000 0.000000 0.000000 

-0.000000 -0.000000 0.000000 
0.000000 0.000000 0.000000 
0.000000 0.000000 0.000000 

0.000000 -0.000000 0.000000 
0.000000 0.000000 0.000000 
0.000000 0.000000 0.000000 

0.000000 -0.000000 0.000000 
0.000000 0.000000 0.000000 
0.000000 0.000000 0.000000 

0.000000 -0.000000 0.000000 
0.000000 0.000000 0.000000 
0.000000 0.000000 0.000000 

0.000000 -0.000000 0.000000 
0.000000 -0.000000 0.000000 
0.000000 0.000000 0.000000 

-0.000000 0.000000 0.000000 
0.000000 -0.000000 0.000000 
0.000000 0.000000 0.000000 

0.000000 -0.000000 0.000000 
0.000000 -0.000000 0.000000 
0.000000 0.000000 0.000000 

0.000000 -0.000000 0.000000 
0.000000 -0.000000 0.000000 
0.000000 0.000000 0.000000 

-0.000000 -0.000000 0.000000 
0.000000 0.000000 0.000000 
0.000000 0.000000 0.000000 

0.000000 -0.000000 0.000000 
0.000000 -0.000000 0.000000 
0.000000 0.000000 0.000000 

-0.000000 -0.000000 0.000000 
0.000000 0.000000 0.000000 
0.000000 0.000000 0.000000 

-0.000000 -0.000000 0.000000 
0.000000 0.000000 0.000000 
0.000000 0.000000 0.000000 

-0.000000 0.000000 0.000000 
0.000000 0.000000 0.000000 
0.000000 0.000000 0.000000 

0.000000 -0.000000 0.000000 
0.000000 -0.000000 0.000000 
0.000000 0.000000 0.000000 

0.000000 -0.000000 0.000000 
0.000000 0.000000 0.000000 
0.000000 0.000000 0.000000 

0.000000 -0.000000 0.000000 
0.000000 -0.000000 0.000000 
0.000000 0.000000 0.000000 

0.000000 -0.000000 0.000000 
0.000000 -0.000000 0.000000 
0.000000 0.000000 0.000000 

0.000000 -0.000000 0.000000 
0.000000 0.000000 0.000000 
0.000000 0.000000 0.000000 

-0.000000 -0.000000 0.000000 
0.000000 0.000000 0.000000 
0.000000 0.000000 0.000000 

-0.000000 -0.000000 0.000000 
0.000000 -0.000000 0.000000 
0.000000 0.000000 0.000000 

-0.000000 0.000000 0.000000 
0.000000 0.000000 0.000000 
0.000000 0.000000 0.000000 

-0.000000 0.000000 0.000000 
0.000000 -0.000000 0.000000 
0.000000 0.000000 0.000000 

-0.000000 0.000000 0.000000 
0.000000 0.000000 0.000000 
0.000000 0.000000 0.000000 

0.000000 0.000000 0.000000 
0.000000 -0.000000 0.000000 
0.000000 0.000000 0.000000 

0.000000 0.000000 0.000000 
0.000000 -0.000000 0.000000 
0.000000 0.000000 0.000000 

0.000000 0.000000 0.000000 
0.000000 0.000000 0.000000 
0.000000 0.000000 0.000000 

0.000000 -0.000000 0.000000 
0.000000 -0.000000 0.000000 
0.000000 0.000000 0.000000 

-0.000000 0.000000 0.000000 
0.000000 0.000000 0.000000 
0.000000 0.000000 0.000000 

-0.000000 -0.000000 0.000000 
0.000000 0.000000 0.000000 
0.000000 0.000000 0.000000 

-0.000000 -0.000000 0.000000 
0.000000 0.000000 0.000000 
0.000000 0.000000 0.000000 

0.000000 0.000000 0.000000 
0.000000 -0.000000 0.000000 
0.000000 0.000000 0.000000 

-0.000000 0.000000 0.000000 
0.000000 -0.000000 0.000000 
0.000000 0.000000 0.000000 

0.000000 0.000000 0.000000 
0.000000 -0.000000 0.000000 
0.000000 0.000000 0.000000 

-0.000000 0.000000 0.000000 
0.000000 -0.000000 0.000000 
0.000000 0.000000 0.000000 

0.000000 0.000000 0.000000 
0.000000 -0.000000 0.000000 
0.000000 0.000000 0.000000 

0.000000 0.000000 0.000000 
0.000000 -0.000000 0.000000 
0.000000 0.000000 0.000000 

0.000000 0.000000 0.000000 
0.000000 -0.000000 0.000000 
0.000000 0.000000 0.000000 

0.000000 0.000000 0.000000 
0.000000 -0.000000 0.000000 
0.000000 0.000000 0.000000 

0.000000 0.000000 0.000000 
0.000000 -0.000000 0.000000 
0.000000 0.000000 0.000000 

0.000000 0.000000 0.000000 
0.000000 -0.000000 0.000000 
0.000000 0.000000 0.000000 

-0.000000 -0.000000 0.000000 
0.000000 0.000000 0.000000 
0.000000 0.000000 0.000000 

-0.000000 -0.000000 0.000000 
0.000000 -0.000000 0.000000 
0.000000 0.000000 0.000000 

0.000000 0.000000 0.000000 
0.000000 -0.000000 0.000000 
0.000000 0.000000 0.000000 

0.000000 -0.000000 0.000000 
0.000000 -0.000000 0.000000 
0.000000 0.000000 0.000000 

0.000000 -0.000000 0.000000 
0.000000 -0.000000 0.000000 
0.000000 0.000000 0.000000 

-0.000000 0.000000 0.000000 
0.000000 0.000000 0.000000 
0.000000 0.000000 0.000000 

-0.000000 -0.000000 0.000000 
0.000000 0.000000 0.000000 
0.000000 0.000000 0.000000 

-0.000000 0.000000 0.000000 
0.000000 0.000000 0.000000 
0.000000 0.000000 0.000000 

0.000000 -0.000000 0.000000 
0.000000 -0.000000 0.000000 
0.000000 0.000000 0.000000 

0.000000 -0.000000 0.000000 
0.000000 0.000000 0.000000 
0.000000 0.000000 0.000000 

0.000000 -0.000000 0.000000 
0.000000 0.000000 0.000000 
0.000000 0.000000 0.000000 

0.000000 -0.000000 0.000000 
0.000000 -0.000000 0.000000 
0.000000 0.000000 0.000000 

-0.000000 0.000000 0.000000 
0.000000 0.000000 0.000000 
0.000000 0.000000 0.000000 

0.000000 0.000000 0.000000 
0.000000 -0.000000 0.000000 
0.000000 0.000000 0.000000 

0.000000 0.000000 0.000000 
0.000000 0.000000 0.000000 
0.000000 0.000000 0.000000 

-0.000000 0.000000 0.000000 
0.000000 0.000000 0.000000 
0.000000 0.000000 0.000000 

0.000000 -0.000000 0.000000 
0.000000 0.000000 0.000000 
0.000000 0.000000 0.000000 

0.000000 0.000000 0.000000 
0.000000 -0.000000 0.000000 
0.000000 0.000000 0.000000 

0.000000 0.000000 0.000000 
0.000000 -0.000000 0.000000 
0.000000 0.000000 0.000000 

0.000000 0.000000 0.000000 
0.000000 -0.000000 0.000000 
0.000000 0.000000 0.000000 

-0.000000 0.000000 0.000000 
0.000000 0.000000 0.000000 
0.000000 0.000000 0.000000 

-0.000000 0.000000 0.000000 
0.000000 0.000000 0.000000 
0.000000 0.000000 0.000000 

-0.000000 0.000000 0.000000 
0.000000 0.000000 0.000000 
0.000000 0.000000 0.000000 

-0.000000 0.000000 0.000000 
0.000000 0.000000 0.000000 
0.000000 0.000000 0.000000 

-0.000000 -0.000000 0.000000 
0.000000 -0.000000 0.000000 
0.000000 0.000000 0.000000 

0.000000 -0.000000 0.000000 
0.000000 -0.000000 0.000000 
0.000000 0.000000 0.000000 

0.000000 -0.000000 0.000000 
0.000000 -0.000000 0.000000 
0.000000 0.000000 0.000000 

-0.000000 0.000000 0.000000 
0.000000 0.000000 0.000000 
0.000000 0.000000 0.000000 

-0.000000 0.000000 0.000000 
0.000000 0.000000 0.000000 
0.000000 0.000000 0.000000 

-0.000000 0.000000 0.000000 
0.000000 0.000000 0.000000 
0.000000 0.000000 0.000000 

-0.000000 0.000000 0.000000 
0.000000 -0.000000 0.000000 
0.000000 0.000000 0.000000 

-0.000000 -0.000000 0.000000 
0.000000 -0.000000 0.000000 
0.000000 0.000000 0.000000 

-0.000000 0.000000 0.000000 
0.000000 -0.000000 0.000000 
0.000000 0.000000 0.000000 

0.000000 -0.000000 0.000000 
0.000000 -0.000000 0.000000 
0.000000 0.000000 0.000000 

0.000000 -0.000000 0.000000 
0.000000 -0.000000 0.000000 
0.000000 0.000000 0.000000 

0.000000 -0.000000 0.000000 
0.000000 -0.000000 0.000000 
0.000000 0.000000 0.000000 

0.000000 -0.000000 0.000000 
0.000000 -0.000000 0.000000 
0.000000 0.000000 0.000000 

-0.000000 0.000000 0.000000 
0.000000 -0.000000 0.000000 
0.000000 0.000000 0.000000 

-0.000000 0.000000 0.000000 
0.000000 0.000000 0.000000 
0.000000 0.000000 0.000000 

-0.000000 0.000000 0.000000 
0.000000 0.000000 0.000000 
0.000000 0.000000 0.000000 

-0.000000 0.000000 0.000000 
0.000000 0.000000 0.000000 
0.000000 0.000000 0.000000 

-0.000000 0.000000 0.000000 
0.000000 -0.000000 0.000000 
0.000000 0.000000 0.000000 

-0.000000 -0.000000 0.000000 
0.000000 -0.000000 0.000000 
0.000000 0.000000 0.000000 

-0.000000 0.000000 0.000000 
0.000000 0.000000 0.000000 
0.000000 0.000000 0.000000 

-0.000000 -0.000000 0.000000 
0.000000 0.000000 0.000000 
0.000000 0.000000 0.000000 

0.000000 -0.000000 0.000000 
0.000000 -0.000000 0.000000 
0.000000 0.000000 0.000000 

0.000000 0.000000 0.000000 
0.000000 -0.000000 0.000000 
0.000000 0.000000 0.000000 

-0.000000 0.000000 0.000000 
0.000000 0.000000 0.000000 
0.000000 0.000000 0.000000 

-0.000000 -0.000000 0.000000 
0.000000 0.000000 0.000000 
0.000000 0.000000 0.000000 

-0.000000 -0.000000 0.000000 
0.000000 0.000000 0.000000 
0.000000 0.000000 0.000000 

-0.000000 -0.000000 0.000000 
0.000000 0.000000 0.000000 
0.000000 0.000000 0.000000 

-0.000000 0.000000 0.000000 
0.000000 0.000000 0.000000 
0.000000 0.000000 0.000000 

-0.000000 -0.000000 0.000000 
0.000000 -0.000000 0.000000 
0.000000 0.000000 0.000000 

0.000000 -0.000000 0.000000 
0.000000 -0.000000 0.000000 
0.000000 0.000000 0.000000 

-0.000000 -0.000000 0.000000 
0.000000 -0.000000 0.000000 
0.000000 0.000000 0.000000 

0.000000 -0.000000 0.000000 
0.000000 0.000000 0.000000 
0.000000 0.000000 0.000000 

0.000000 -0.000000 0.000000 
0.000000 -0.000000 0.000000 
0.000000 0.000000 0.000000 

-0.000000 -0.000000 0.000000 
0.000000 -0.000000 0.000000 
0.000000 0.000000 0.000000 

0.000000 -0.000000 0.000000 
0.000000 -0.000000 0.000000 
0.000000 0.000000 0.000000 

0.000000 -0.000000 0.000000 
0.000000 0.000000 0.000000 
0.000000 0.000000 0.000000 

0.000000 -0.000000 0.000000 
0.000000 -0.000000 0.000000 
0.000000 0.000000 0.000000 

0.000000 -0.000000 0.000000 
0.000000 0.000000 0.000000 
0.000000 0.000000 0.000000 

0.000000 0.000000 0.000000 
0.000000 -0.000000 0.000000 
0.000000 0.000000 0.000000 

0.000000 0.000000 0.000000 
0.000000 0.000000 0.000000 
0.000000 0.000000 0.000000 

-0.000000 0.000000 0.000000 
0.000000 0.000000 0.000000 
0.000000 0.000000 0.000000 

0.000000 -0.000000 0.000000 
0.000000 -0.000000 0.000000 
0.000000 0.000000 0.000000 

0.000000 -0.000000 0.000000 
0.000000 -0.000000 0.000000 
0.000000 0.000000 0.000000 

-0.000000 -0.000000 0.000000 
0.000000 -0.000000 0.000000 
0.000000 0.000000 0.000000 

-0.000000 0.000000 0.000000 
0.000000 0.000000 0.000000 
0.000000 0.000000 0.000000 

-0.000000 0.000000 0.000000 
0.000000 0.000000 0.000000 
0.000000 0.000000 0.000000 

0.000000 0.000000 0.000000 
0.000000 0.000000 0.000000 
0.000000 0.000000 0.000000 

0.000000 0.000000 0.000000 
0.000000 -0.000000 0.000000 
0.000000 0.000000 0.000000 

0.000000 0.000000 0.000000 
0.000000 -0.000000 0.000000 
0.000000 0.000000 0.000000 

-0.000000 0.000000 0.000000 
0.000000 0.000000 0.000000 
0.000000 0.000000 0.000000 

0.000000 0.000000 0.000000 
0.000000 0.000000 0.000000 
0.000000 0.000000 0.000000 

-0.000000 -0.000000 0.000000 
0.000000 0.000000 0.000000 
0.000000 0.000000 0.000000 

-0.000000 -0.000000 0.000000 
0.000000 0.000000 0.000000 
0.000000 0.000000 0.000000 

0.000000 0.000000 0.000000 
0.000000 -0.000000 0.000000 
0.000000 0.000000 0.000000 

0.000000 0.000000 0.000000 
0.000000 -0.000000 0.000000 
0.000000 0.000000 0.000000 

0.000000 -0.000000 0.000000 
0.000000 -0.000000 0.000000 
0.000000 0.000000 0.000000 

0.000000 0.000000 0.000000 
0.000000 -0.000000 0.000000 
0.000000 0.000000 0.000000 

0.000000 0.000000 0.000000 
0.000000 -0.000000 0.000000 
0.000000 0.000000 0.000000 

0.000000 0.000000 0.000000 
0.000000 -0.000000 0.000000 
0.000000 0.000000 0.000000 

-0.000000 0.000000 0.000000 
0.000000 0.000000 0.000000 
0.000000 0.000000 0.000000 

-0.000000 -0.000000 0.000000 
0.000000 0.000000 0.000000 
0.000000 0.000000 0.000000 

-0.000000 -0.000000 0.000000 
0.000000 0.000000 0.000000 
0.000000 0.000000 0.000000 

