# vtk DataFile Version 3.0 
vtk output 
ASCII 
DATASET UNSTRUCTURED_GRID 
POINTS 175 float 
-0.026061 -0.370141 0.000000 
-0.106992 -0.302085 0.000000 
-0.054870 -0.310318 0.000000 
-0.028809 -0.264434 0.000000 
-0.186430 -0.238010 0.000000 
-0.137056 -0.240536 0.000000 
-0.114311 -0.186889 0.000000 
-0.058186 -0.202554 0.000000 
-0.029377 -0.162377 0.000000 
-0.265318 -0.174854 0.000000 
-0.217198 -0.175654 0.000000 
-0.196633 -0.118357 0.000000 
-0.143120 -0.127066 0.000000 
-0.116563 -0.079797 0.000000 
-0.058945 -0.099443 0.000000 
-0.029568 -0.061323 0.000000 
-0.344206 -0.111698 0.000000 
-0.296791 -0.111691 0.000000 
-0.278030 -0.051748 0.000000 
-0.225992 -0.057615 0.000000 
-0.201664 -0.005497 0.000000 
-0.145749 -0.018971 0.000000 
-0.117890 0.025371 0.000000 
-0.059328 0.002665 0.000000 
-0.029759 0.039731 0.000000 
-0.058559 -0.410891 0.000000 
-0.162226 -0.431734 0.000000 
-0.123292 -0.396116 0.000000 
-0.142917 -0.347133 0.000000 
-0.261851 -0.453890 0.000000 
-0.229092 -0.416863 0.000000 
-0.256854 -0.365632 0.000000 
-0.209613 -0.331519 0.000000 
-0.223062 -0.283945 0.000000 
-0.360414 -0.476191 0.000000 
-0.329787 -0.439068 0.000000 
-0.361761 -0.387266 0.000000 
-0.321587 -0.350857 0.000000 
-0.341985 -0.300623 0.000000 
-0.290702 -0.267824 0.000000 
-0.302189 -0.221089 0.000000 
-0.458977 -0.498491 0.000000 
-0.429420 -0.461416 0.000000 
-0.464588 -0.409374 0.000000 
-0.427556 -0.372347 0.000000 
-0.453135 -0.320832 0.000000 
-0.407738 -0.285517 0.000000 
-0.425037 -0.236089 0.000000 
-0.370772 -0.204459 0.000000 
-0.381315 -0.158232 0.000000 
-0.046960 -0.461707 0.000000 
-0.095301 -0.555753 0.000000 
-0.098873 -0.503105 0.000000 
-0.149405 -0.487908 0.000000 
-0.140093 -0.647457 0.000000 
-0.148617 -0.598758 0.000000 
-0.205981 -0.588521 0.000000 
-0.203197 -0.530318 0.000000 
-0.248777 -0.511171 0.000000 
-0.184111 -0.738420 0.000000 
-0.194039 -0.691329 0.000000 
-0.254475 -0.684030 0.000000 
-0.257893 -0.629920 0.000000 
-0.309886 -0.614547 0.000000 
-0.303554 -0.554002 0.000000 
-0.347255 -0.533844 0.000000 
-0.228129 -0.829384 0.000000 
-0.238687 -0.783159 0.000000 
-0.301302 -0.778207 0.000000 
-0.307162 -0.726169 0.000000 
-0.363386 -0.714048 0.000000 
-0.362692 -0.656536 0.000000 
-0.412122 -0.639243 0.000000 
-0.403017 -0.577096 0.000000 
-0.445733 -0.556517 0.000000 
-0.000000 -0.484322 0.000000 
0.043388 -0.580752 0.000000 
-0.000000 -0.550720 0.000000 
-0.043388 -0.580752 0.000000 
0.087158 -0.672949 0.000000 
0.043769 -0.649250 0.000000 
-0.000000 -0.687716 0.000000 
-0.043769 -0.649250 0.000000 
-0.087158 -0.672949 0.000000 
0.130831 -0.764078 0.000000 
0.087824 -0.742480 0.000000 
0.044436 -0.785179 0.000000 
-0.000000 -0.754114 0.000000 
-0.044436 -0.785179 0.000000 
-0.087824 -0.742480 0.000000 
-0.130831 -0.764078 0.000000 
0.174505 -0.855208 0.000000 
0.131782 -0.834642 0.000000 
0.088871 -0.880509 0.000000 
0.044532 -0.852645 0.000000 
-0.000000 -0.889045 0.000000 
-0.044532 -0.852645 0.000000 
-0.088871 -0.880509 0.000000 
-0.131782 -0.834642 0.000000 
-0.174505 -0.855208 0.000000 
0.046960 -0.461707 0.000000 
0.149405 -0.487908 0.000000 
0.098873 -0.503105 0.000000 
0.095301 -0.555753 0.000000 
0.248777 -0.511171 0.000000 
0.203197 -0.530318 0.000000 
0.205981 -0.588521 0.000000 
0.148617 -0.598758 0.000000 
0.140093 -0.647457 0.000000 
0.347255 -0.533844 0.000000 
0.303554 -0.554002 0.000000 
0.309886 -0.614547 0.000000 
0.257893 -0.629920 0.000000 
0.254475 -0.684030 0.000000 
0.194039 -0.691329 0.000000 
0.184111 -0.738420 0.000000 
0.445733 -0.556517 0.000000 
0.403017 -0.577096 0.000000 
0.412122 -0.639243 0.000000 
0.362692 -0.656536 0.000000 
0.363386 -0.714048 0.000000 
0.307162 -0.726169 0.000000 
0.301302 -0.778207 0.000000 
0.238687 -0.783159 0.000000 
0.228129 -0.829384 0.000000 
0.058559 -0.410891 0.000000 
0.142917 -0.347133 0.000000 
0.123292 -0.396116 0.000000 
0.162226 -0.431734 0.000000 
0.223062 -0.283945 0.000000 
0.209613 -0.331519 0.000000 
0.256854 -0.365632 0.000000 
0.229092 -0.416863 0.000000 
0.261851 -0.453890 0.000000 
0.302189 -0.221089 0.000000 
0.290702 -0.267824 0.000000 
0.341985 -0.300623 0.000000 
0.321587 -0.350857 0.000000 
0.361761 -0.387266 0.000000 
0.329787 -0.439068 0.000000 
0.360414 -0.476191 0.000000 
0.381315 -0.158232 0.000000 
0.370772 -0.204459 0.000000 
0.425037 -0.236089 0.000000 
0.407738 -0.285517 0.000000 
0.453135 -0.320832 0.000000 
0.427556 -0.372347 0.000000 
0.464588 -0.409374 0.000000 
0.429420 -0.461416 0.000000 
0.458977 -0.498491 0.000000 
0.026061 -0.370141 0.000000 
0.028809 -0.264434 0.000000 
0.054870 -0.310318 0.000000 
0.106992 -0.302085 0.000000 
0.029377 -0.162377 0.000000 
0.058186 -0.202554 0.000000 
0.114311 -0.186889 0.000000 
0.137056 -0.240536 0.000000 
0.186430 -0.238010 0.000000 
0.029568 -0.061323 0.000000 
0.058945 -0.099443 0.000000 
0.116563 -0.079797 0.000000 
0.143120 -0.127066 0.000000 
0.196633 -0.118357 0.000000 
0.217198 -0.175654 0.000000 
0.265318 -0.174854 0.000000 
0.029759 0.039731 0.000000 
0.059328 0.002665 0.000000 
0.117890 0.025371 0.000000 
0.145749 -0.018971 0.000000 
0.201664 -0.005497 0.000000 
0.225992 -0.057615 0.000000 
0.278030 -0.051748 0.000000 
0.296791 -0.111691 0.000000 
0.344206 -0.111698 0.000000 
CELLS 175 350 
1 0 
1 1 
1 2 
1 3 
1 4 
1 5 
1 6 
1 7 
1 8 
1 9 
1 10 
1 11 
1 12 
1 13 
1 14 
1 15 
1 16 
1 17 
1 18 
1 19 
1 20 
1 21 
1 22 
1 23 
1 24 
1 25 
1 26 
1 27 
1 28 
1 29 
1 30 
1 31 
1 32 
1 33 
1 34 
1 35 
1 36 
1 37 
1 38 
1 39 
1 40 
1 41 
1 42 
1 43 
1 44 
1 45 
1 46 
1 47 
1 48 
1 49 
1 50 
1 51 
1 52 
1 53 
1 54 
1 55 
1 56 
1 57 
1 58 
1 59 
1 60 
1 61 
1 62 
1 63 
1 64 
1 65 
1 66 
1 67 
1 68 
1 69 
1 70 
1 71 
1 72 
1 73 
1 74 
1 75 
1 76 
1 77 
1 78 
1 79 
1 80 
1 81 
1 82 
1 83 
1 84 
1 85 
1 86 
1 87 
1 88 
1 89 
1 90 
1 91 
1 92 
1 93 
1 94 
1 95 
1 96 
1 97 
1 98 
1 99 
1 100 
1 101 
1 102 
1 103 
1 104 
1 105 
1 106 
1 107 
1 108 
1 109 
1 110 
1 111 
1 112 
1 113 
1 114 
1 115 
1 116 
1 117 
1 118 
1 119 
1 120 
1 121 
1 122 
1 123 
1 124 
1 125 
1 126 
1 127 
1 128 
1 129 
1 130 
1 131 
1 132 
1 133 
1 134 
1 135 
1 136 
1 137 
1 138 
1 139 
1 140 
1 141 
1 142 
1 143 
1 144 
1 145 
1 146 
1 147 
1 148 
1 149 
1 150 
1 151 
1 152 
1 153 
1 154 
1 155 
1 156 
1 157 
1 158 
1 159 
1 160 
1 161 
1 162 
1 163 
1 164 
1 165 
1 166 
1 167 
1 168 
1 169 
1 170 
1 171 
1 172 
1 173 
1 174 
CELL_TYPES 175 
1 
1 
1 
1 
1 
1 
1 
1 
1 
1 
1 
1 
1 
1 
1 
1 
1 
1 
1 
1 
1 
1 
1 
1 
1 
1 
1 
1 
1 
1 
1 
1 
1 
1 
1 
1 
1 
1 
1 
1 
1 
1 
1 
1 
1 
1 
1 
1 
1 
1 
1 
1 
1 
1 
1 
1 
1 
1 
1 
1 
1 
1 
1 
1 
1 
1 
1 
1 
1 
1 
1 
1 
1 
1 
1 
1 
1 
1 
1 
1 
1 
1 
1 
1 
1 
1 
1 
1 
1 
1 
1 
1 
1 
1 
1 
1 
1 
1 
1 
1 
1 
1 
1 
1 
1 
1 
1 
1 
1 
1 
1 
1 
1 
1 
1 
1 
1 
1 
1 
1 
1 
1 
1 
1 
1 
1 
1 
1 
1 
1 
1 
1 
1 
1 
1 
1 
1 
1 
1 
1 
1 
1 
1 
1 
1 
1 
1 
1 
1 
1 
1 
1 
1 
1 
1 
1 
1 
1 
1 
1 
1 
1 
1 
1 
1 
1 
1 
1 
1 
1 
1 
1 
1 
1 
1 
POINT_DATA 175 
VECTORS X_GC float 
-0.026061 -0.370141 0.000000 
-0.106992 -0.302085 0.000000 
-0.054870 -0.310318 0.000000 
-0.028809 -0.264434 0.000000 
-0.186430 -0.238010 0.000000 
-0.137056 -0.240536 0.000000 
-0.114311 -0.186889 0.000000 
-0.058186 -0.202554 0.000000 
-0.029377 -0.162377 0.000000 
-0.265318 -0.174854 0.000000 
-0.217198 -0.175654 0.000000 
-0.196633 -0.118357 0.000000 
-0.143120 -0.127066 0.000000 
-0.116563 -0.079797 0.000000 
-0.058945 -0.099443 0.000000 
-0.029568 -0.061323 0.000000 
-0.344206 -0.111698 0.000000 
-0.296791 -0.111691 0.000000 
-0.278030 -0.051748 0.000000 
-0.225992 -0.057615 0.000000 
-0.201664 -0.005497 0.000000 
-0.145749 -0.018971 0.000000 
-0.117890 0.025371 0.000000 
-0.059328 0.002665 0.000000 
-0.029759 0.039731 0.000000 
-0.058559 -0.410891 0.000000 
-0.162226 -0.431734 0.000000 
-0.123292 -0.396116 0.000000 
-0.142917 -0.347133 0.000000 
-0.261851 -0.453890 0.000000 
-0.229092 -0.416863 0.000000 
-0.256854 -0.365632 0.000000 
-0.209613 -0.331519 0.000000 
-0.223062 -0.283945 0.000000 
-0.360414 -0.476191 0.000000 
-0.329787 -0.439068 0.000000 
-0.361761 -0.387266 0.000000 
-0.321587 -0.350857 0.000000 
-0.341985 -0.300623 0.000000 
-0.290702 -0.267824 0.000000 
-0.302189 -0.221089 0.000000 
-0.458977 -0.498491 0.000000 
-0.429420 -0.461416 0.000000 
-0.464588 -0.409374 0.000000 
-0.427556 -0.372347 0.000000 
-0.453135 -0.320832 0.000000 
-0.407738 -0.285517 0.000000 
-0.425037 -0.236089 0.000000 
-0.370772 -0.204459 0.000000 
-0.381315 -0.158232 0.000000 
-0.046960 -0.461707 0.000000 
-0.095301 -0.555753 0.000000 
-0.098873 -0.503105 0.000000 
-0.149405 -0.487908 0.000000 
-0.140093 -0.647457 0.000000 
-0.148617 -0.598758 0.000000 
-0.205981 -0.588521 0.000000 
-0.203197 -0.530318 0.000000 
-0.248777 -0.511171 0.000000 
-0.184111 -0.738420 0.000000 
-0.194039 -0.691329 0.000000 
-0.254475 -0.684030 0.000000 
-0.257893 -0.629920 0.000000 
-0.309886 -0.614547 0.000000 
-0.303554 -0.554002 0.000000 
-0.347255 -0.533844 0.000000 
-0.228129 -0.829384 0.000000 
-0.238687 -0.783159 0.000000 
-0.301302 -0.778207 0.000000 
-0.307162 -0.726169 0.000000 
-0.363386 -0.714048 0.000000 
-0.362692 -0.656536 0.000000 
-0.412122 -0.639243 0.000000 
-0.403017 -0.577096 0.000000 
-0.445733 -0.556517 0.000000 
-0.000000 -0.484322 0.000000 
0.043388 -0.580752 0.000000 
-0.000000 -0.550720 0.000000 
-0.043388 -0.580752 0.000000 
0.087158 -0.672949 0.000000 
0.043769 -0.649250 0.000000 
-0.000000 -0.687716 0.000000 
-0.043769 -0.649250 0.000000 
-0.087158 -0.672949 0.000000 
0.130831 -0.764078 0.000000 
0.087824 -0.742480 0.000000 
0.044436 -0.785179 0.000000 
-0.000000 -0.754114 0.000000 
-0.044436 -0.785179 0.000000 
-0.087824 -0.742480 0.000000 
-0.130831 -0.764078 0.000000 
0.174505 -0.855208 0.000000 
0.131782 -0.834642 0.000000 
0.088871 -0.880509 0.000000 
0.044532 -0.852645 0.000000 
-0.000000 -0.889045 0.000000 
-0.044532 -0.852645 0.000000 
-0.088871 -0.880509 0.000000 
-0.131782 -0.834642 0.000000 
-0.174505 -0.855208 0.000000 
0.046960 -0.461707 0.000000 
0.149405 -0.487908 0.000000 
0.098873 -0.503105 0.000000 
0.095301 -0.555753 0.000000 
0.248777 -0.511171 0.000000 
0.203197 -0.530318 0.000000 
0.205981 -0.588521 0.000000 
0.148617 -0.598758 0.000000 
0.140093 -0.647457 0.000000 
0.347255 -0.533844 0.000000 
0.303554 -0.554002 0.000000 
0.309886 -0.614547 0.000000 
0.257893 -0.629920 0.000000 
0.254475 -0.684030 0.000000 
0.194039 -0.691329 0.000000 
0.184111 -0.738420 0.000000 
0.445733 -0.556517 0.000000 
0.403017 -0.577096 0.000000 
0.412122 -0.639243 0.000000 
0.362692 -0.656536 0.000000 
0.363386 -0.714048 0.000000 
0.307162 -0.726169 0.000000 
0.301302 -0.778207 0.000000 
0.238687 -0.783159 0.000000 
0.228129 -0.829384 0.000000 
0.058559 -0.410891 0.000000 
0.142917 -0.347133 0.000000 
0.123292 -0.396116 0.000000 
0.162226 -0.431734 0.000000 
0.223062 -0.283945 0.000000 
0.209613 -0.331519 0.000000 
0.256854 -0.365632 0.000000 
0.229092 -0.416863 0.000000 
0.261851 -0.453890 0.000000 
0.302189 -0.221089 0.000000 
0.290702 -0.267824 0.000000 
0.341985 -0.300623 0.000000 
0.321587 -0.350857 0.000000 
0.361761 -0.387266 0.000000 
0.329787 -0.439068 0.000000 
0.360414 -0.476191 0.000000 
0.381315 -0.158232 0.000000 
0.370772 -0.204459 0.000000 
0.425037 -0.236089 0.000000 
0.407738 -0.285517 0.000000 
0.453135 -0.320832 0.000000 
0.427556 -0.372347 0.000000 
0.464588 -0.409374 0.000000 
0.429420 -0.461416 0.000000 
0.458977 -0.498491 0.000000 
0.026061 -0.370141 0.000000 
0.028809 -0.264434 0.000000 
0.054870 -0.310318 0.000000 
0.106992 -0.302085 0.000000 
0.029377 -0.162377 0.000000 
0.058186 -0.202554 0.000000 
0.114311 -0.186889 0.000000 
0.137056 -0.240536 0.000000 
0.186430 -0.238010 0.000000 
0.029568 -0.061323 0.000000 
0.058945 -0.099443 0.000000 
0.116563 -0.079797 0.000000 
0.143120 -0.127066 0.000000 
0.196633 -0.118357 0.000000 
0.217198 -0.175654 0.000000 
0.265318 -0.174854 0.000000 
0.029759 0.039731 0.000000 
0.059328 0.002665 0.000000 
0.117890 0.025371 0.000000 
0.145749 -0.018971 0.000000 
0.201664 -0.005497 0.000000 
0.225992 -0.057615 0.000000 
0.278030 -0.051748 0.000000 
0.296791 -0.111691 0.000000 
0.344206 -0.111698 0.000000 
VECTORS X_EC float 
0.338794 -0.503101 0.000000 
-0.609100 0.578151 0.000000 
0.713312 0.689291 0.000000 
0.374519 0.069862 0.000000 
0.423588 -0.286869 0.000000 
-0.218274 -0.252765 0.000000 
-0.513962 -0.977004 0.000000 
0.756418 -0.765518 0.000000 
0.381900 0.692090 0.000000 
-0.550868 0.860528 0.000000 
0.823577 0.871324 0.000000 
0.556234 0.097820 0.000000 
-0.139443 0.215388 0.000000 
-0.484677 -0.422736 0.000000 
0.766286 -0.157521 0.000000 
0.384386 -0.672141 0.000000 
0.474677 0.007925 0.000000 
-0.141715 0.007829 0.000000 
-0.385608 -0.801400 0.000000 
0.937896 -0.722204 0.000000 
0.621631 0.574216 0.000000 
-0.105264 0.756115 0.000000 
-0.467428 0.157489 0.000000 
0.771260 0.464017 0.000000 
0.386873 -0.036372 0.000000 
0.761262 0.047033 0.000000 
0.108942 0.328410 0.000000 
-0.397202 -0.152429 0.000000 
-0.142083 -0.813704 0.000000 
-0.595936 0.627521 0.000000 
0.978194 0.127655 0.000000 
-0.660903 -0.563970 0.000000 
0.724964 0.975510 0.000000 
0.899809 0.333261 0.000000 
0.685384 0.928573 0.000000 
0.287229 0.427414 0.000000 
0.702895 -0.271914 0.000000 
0.180633 -0.763433 0.000000 
0.445811 0.558408 0.000000 
-0.220880 0.115622 0.000000 
-0.071546 -0.515304 0.000000 
-0.033296 -0.770375 0.000000 
-0.417537 0.729116 0.000000 
0.039645 0.026553 0.000000 
-0.441768 -0.473318 0.000000 
-0.109248 0.831231 0.000000 
-0.699407 0.354476 0.000000 
-0.474522 -0.312804 0.000000 
0.820030 -0.739797 0.000000 
0.957100 0.636131 0.000000 
0.610485 0.733040 0.000000 
-0.761092 0.002659 0.000000 
-0.714655 -0.708078 0.000000 
-0.057734 -0.913245 0.000000 
-0.178789 -0.759337 0.000000 
-0.067979 0.583237 0.000000 
0.677748 0.445034 0.000000 
0.641556 -0.340711 0.000000 
-0.765897 -0.599190 0.000000 
0.393446 0.468672 0.000000 
0.522510 -0.167057 0.000000 
-0.691820 -0.265602 0.000000 
-0.647393 -0.996084 0.000000 
0.028512 0.796389 0.000000 
-0.053800 -0.020971 0.000000 
0.514316 -0.293102 0.000000 
0.965681 -0.303318 0.000000 
-0.897068 -0.927347 0.000000 
-0.083078 -0.994200 0.000000 
-0.006893 0.303275 0.000000 
0.724017 0.139642 0.000000 
0.714996 -0.636761 0.000000 
-0.642413 -0.870219 0.000000 
-0.760780 0.290801 0.000000 
-0.205471 0.012986 0.000000 
0.000000 -0.961659 0.000000 
-0.564049 0.340154 0.000000 
0.000000 -0.065282 0.000000 
0.564049 0.340154 0.000000 
0.866949 -0.415190 0.000000 
-0.569003 -0.735122 0.000000 
0.000000 -0.215833 0.000000 
0.569003 -0.735122 0.000000 
-0.866949 -0.415190 0.000000 
0.299194 0.815060 0.000000 
0.858290 0.523476 0.000000 
-0.577662 -0.900078 0.000000 
0.000000 0.680543 0.000000 
0.577662 -0.900078 0.000000 
-0.858290 0.523476 0.000000 
-0.299194 0.815060 0.000000 
-0.268560 0.045310 0.000000 
0.286830 -0.232332 0.000000 
0.844677 0.386866 0.000000 
-0.578910 0.010704 0.000000 
0.000000 0.502107 0.000000 
0.578910 0.010704 0.000000 
-0.844677 0.386866 0.000000 
-0.286830 -0.232332 0.000000 
0.268560 0.045310 0.000000 
-0.610485 0.733040 0.000000 
0.057734 -0.913245 0.000000 
0.714655 -0.708078 0.000000 
0.761092 0.002659 0.000000 
0.765897 -0.599190 0.000000 
-0.641556 -0.340711 0.000000 
-0.677748 0.445034 0.000000 
0.067979 0.583237 0.000000 
0.178789 -0.759337 0.000000 
-0.514316 -0.293102 0.000000 
0.053800 -0.020971 0.000000 
-0.028512 0.796389 0.000000 
0.647393 -0.996084 0.000000 
0.691820 -0.265602 0.000000 
-0.522510 -0.167057 0.000000 
-0.393446 0.468672 0.000000 
0.205471 0.012986 0.000000 
0.760780 0.290801 0.000000 
0.642413 -0.870219 0.000000 
-0.714996 -0.636761 0.000000 
-0.724017 0.139642 0.000000 
0.006894 0.303275 0.000000 
0.083078 -0.994200 0.000000 
0.897068 -0.927347 0.000000 
-0.965681 -0.303318 0.000000 
-0.761262 0.047033 0.000000 
0.142083 -0.813704 0.000000 
0.397202 -0.152429 0.000000 
-0.108942 0.328410 0.000000 
-0.899809 0.333261 0.000000 
-0.724964 0.975510 0.000000 
0.660903 -0.563970 0.000000 
-0.978194 0.127655 0.000000 
0.595936 0.627521 0.000000 
0.071546 -0.515304 0.000000 
0.220880 0.115622 0.000000 
-0.445811 0.558408 0.000000 
-0.180633 -0.763433 0.000000 
-0.702895 -0.271914 0.000000 
-0.287229 0.427414 0.000000 
-0.685384 0.928573 0.000000 
-0.957100 0.636131 0.000000 
-0.820030 -0.739797 0.000000 
0.474522 -0.312804 0.000000 
0.699407 0.354476 0.000000 
0.109248 0.831231 0.000000 
0.441768 -0.473318 0.000000 
-0.039645 0.026553 0.000000 
0.417537 0.729116 0.000000 
0.033296 -0.770375 0.000000 
-0.338794 -0.503101 0.000000 
-0.374519 0.069862 0.000000 
-0.713312 0.689291 0.000000 
0.609100 0.578151 0.000000 
-0.381900 0.692090 0.000000 
-0.756418 -0.765518 0.000000 
0.513962 -0.977004 0.000000 
0.218274 -0.252765 0.000000 
-0.423588 -0.286869 0.000000 
-0.384386 -0.672141 0.000000 
-0.766286 -0.157521 0.000000 
0.484677 -0.422736 0.000000 
0.139443 0.215388 0.000000 
-0.556234 0.097820 0.000000 
-0.823577 0.871324 0.000000 
0.550868 0.860528 0.000000 
-0.386873 -0.036372 0.000000 
-0.771260 0.464017 0.000000 
0.467428 0.157489 0.000000 
0.105264 0.756115 0.000000 
-0.621631 0.574216 0.000000 
-0.937896 -0.722204 0.000000 
0.385608 -0.801400 0.000000 
0.141715 0.007829 0.000000 
-0.474677 0.007925 0.000000 
CELL_DATA 175 
SCALARS MASS float 
LOOKUP_TABLE default 
0.781831 
0.864274 
0.946717 
0.864274 
0.881307 
0.921110 
0.858535 
0.921110 
0.881307 
0.887046 
0.910001 
0.869829 
0.915556 
0.869829 
0.910001 
0.887046 
0.892784 
0.915740 
0.892784 
0.927218 
0.892784 
0.927218 
0.892784 
0.915740 
0.892784 
0.781831 
0.864274 
0.946717 
0.864274 
0.881307 
0.921110 
0.858535 
0.921110 
0.881307 
0.887046 
0.910001 
0.869829 
0.915556 
0.869829 
0.910001 
0.887046 
0.892784 
0.915740 
0.892784 
0.927218 
0.892784 
0.927218 
0.892784 
0.915740 
0.892784 
0.781831 
0.864274 
0.946717 
0.864274 
0.881307 
0.921110 
0.858535 
0.921110 
0.881307 
0.887046 
0.910001 
0.869829 
0.915556 
0.869829 
0.910001 
0.887046 
0.892784 
0.915740 
0.892784 
0.927218 
0.892784 
0.927218 
0.892784 
0.915740 
0.892784 
0.781831 
0.864274 
0.946717 
0.864274 
0.881307 
0.921110 
0.858535 
0.921110 
0.881307 
0.887046 
0.910001 
0.869829 
0.915556 
0.869829 
0.910001 
0.887046 
0.892784 
0.915740 
0.892784 
0.927218 
0.892784 
0.927218 
0.892784 
0.915740 
0.892784 
0.781831 
0.864274 
0.946717 
0.864274 
0.881307 
0.921110 
0.858535 
0.921110 
0.881307 
0.887046 
0.910001 
0.869829 
0.915556 
0.869829 
0.910001 
0.887046 
0.892784 
0.915740 
0.892784 
0.927218 
0.892784 
0.927218 
0.892784 
0.915740 
0.892784 
0.781831 
0.864274 
0.946717 
0.864274 
0.881307 
0.921110 
0.858535 
0.921110 
0.881307 
0.887046 
0.910001 
0.869829 
0.915556 
0.869829 
0.910001 
0.887046 
0.892784 
0.915740 
0.892784 
0.927218 
0.892784 
0.927218 
0.892784 
0.915740 
0.892784 
0.781831 
0.864274 
0.946717 
0.864274 
0.881307 
0.921110 
0.858535 
0.921110 
0.881307 
0.887046 
0.910001 
0.869829 
0.915556 
0.869829 
0.910001 
0.887046 
0.892784 
0.915740 
0.892784 
0.927218 
0.892784 
0.927218 
0.892784 
0.915740 
0.892784 
SCALARS MASS float 
LOOKUP_TABLE default 
0.781831 
0.864274 
0.946717 
0.864274 
0.881307 
0.921110 
0.858535 
0.921110 
0.881307 
0.887046 
0.910001 
0.869829 
0.915556 
0.869829 
0.910001 
0.887046 
0.892784 
0.915740 
0.892784 
0.927218 
0.892784 
0.927218 
0.892784 
0.915740 
0.892784 
0.781831 
0.864274 
0.946717 
0.864274 
0.881307 
0.921110 
0.858535 
0.921110 
0.881307 
0.887046 
0.910001 
0.869829 
0.915556 
0.869829 
0.910001 
0.887046 
0.892784 
0.915740 
0.892784 
0.927218 
0.892784 
0.927218 
0.892784 
0.915740 
0.892784 
0.781831 
0.864274 
0.946717 
0.864274 
0.881307 
0.921110 
0.858535 
0.921110 
0.881307 
0.887046 
0.910001 
0.869829 
0.915556 
0.869829 
0.910001 
0.887046 
0.892784 
0.915740 
0.892784 
0.927218 
0.892784 
0.927218 
0.892784 
0.915740 
0.892784 
0.781831 
0.864274 
0.946717 
0.864274 
0.881307 
0.921110 
0.858535 
0.921110 
0.881307 
0.887046 
0.910001 
0.869829 
0.915556 
0.869829 
0.910001 
0.887046 
0.892784 
0.915740 
0.892784 
0.927218 
0.892784 
0.927218 
0.892784 
0.915740 
0.892784 
0.781831 
0.864274 
0.946717 
0.864274 
0.881307 
0.921110 
0.858535 
0.921110 
0.881307 
0.887046 
0.910001 
0.869829 
0.915556 
0.869829 
0.910001 
0.887046 
0.892784 
0.915740 
0.892784 
0.927218 
0.892784 
0.927218 
0.892784 
0.915740 
0.892784 
0.781831 
0.864274 
0.946717 
0.864274 
0.881307 
0.921110 
0.858535 
0.921110 
0.881307 
0.887046 
0.910001 
0.869829 
0.915556 
0.869829 
0.910001 
0.887046 
0.892784 
0.915740 
0.892784 
0.927218 
0.892784 
0.927218 
0.892784 
0.915740 
0.892784 
0.781831 
0.864274 
0.946717 
0.864274 
0.881307 
0.921110 
0.858535 
0.921110 
0.881307 
0.887046 
0.910001 
0.869829 
0.915556 
0.869829 
0.910001 
0.887046 
0.892784 
0.915740 
0.892784 
0.927218 
0.892784 
0.927218 
0.892784 
0.915740 
0.892784 
SCALARS DENSITY float 
LOOKUP_TABLE default 
200.000000 
200.000000 
200.000000 
200.000000 
200.000000 
200.000000 
200.000000 
200.000000 
200.000000 
200.000000 
200.000000 
200.000000 
200.000000 
200.000000 
200.000000 
200.000000 
200.000000 
200.000000 
200.000000 
200.000000 
200.000000 
200.000000 
200.000000 
200.000000 
200.000000 
200.000000 
200.000000 
200.000000 
200.000000 
200.000000 
200.000000 
200.000000 
200.000000 
200.000000 
200.000000 
200.000000 
200.000000 
200.000000 
200.000000 
200.000000 
200.000000 
200.000000 
200.000000 
200.000000 
200.000000 
200.000000 
200.000000 
200.000000 
200.000000 
200.000000 
200.000000 
200.000000 
200.000000 
200.000000 
200.000000 
200.000000 
200.000000 
200.000000 
200.000000 
200.000000 
200.000000 
200.000000 
200.000000 
200.000000 
200.000000 
200.000000 
200.000000 
200.000000 
200.000000 
200.000000 
200.000000 
200.000000 
200.000000 
200.000000 
200.000000 
200.000000 
200.000000 
200.000000 
200.000000 
200.000000 
200.000000 
200.000000 
200.000000 
200.000000 
200.000000 
200.000000 
200.000000 
200.000000 
200.000000 
200.000000 
200.000000 
200.000000 
200.000000 
200.000000 
200.000000 
200.000000 
200.000000 
200.000000 
200.000000 
200.000000 
200.000000 
200.000000 
200.000000 
200.000000 
200.000000 
200.000000 
200.000000 
200.000000 
200.000000 
200.000000 
200.000000 
200.000000 
200.000000 
200.000000 
200.000000 
200.000000 
200.000000 
200.000000 
200.000000 
200.000000 
200.000000 
200.000000 
200.000000 
200.000000 
200.000000 
200.000000 
200.000000 
200.000000 
200.000000 
200.000000 
200.000000 
200.000000 
200.000000 
200.000000 
200.000000 
200.000000 
200.000000 
200.000000 
200.000000 
200.000000 
200.000000 
200.000000 
200.000000 
200.000000 
200.000000 
200.000000 
200.000000 
200.000000 
200.000000 
200.000000 
200.000000 
200.000000 
200.000000 
200.000000 
200.000000 
200.000000 
200.000000 
200.000000 
200.000000 
200.000000 
200.000000 
200.000000 
200.000000 
200.000000 
200.000000 
200.000000 
200.000000 
200.000000 
200.000000 
200.000000 
200.000000 
200.000000 
200.000000 
200.000000 
200.000000 
SCALARS ELEM_i float 
LOOKUP_TABLE default 
179 
207 
180 
180 
207 
207 
207 
180 
181 
235 
208 
208 
208 
208 
181 
181 
235 
235 
235 
208 
209 
209 
209 
182 
182 
179 
206 
206 
206 
233 
206 
233 
207 
207 
233 
233 
233 
233 
234 
234 
234 
259 
260 
260 
260 
261 
261 
261 
234 
235 
179 
205 
205 
205 
204 
205 
205 
205 
232 
204 
204 
231 
231 
232 
232 
232 
203 
230 
230 
231 
231 
231 
258 
259 
259 
178 
178 
178 
178 
150 
177 
177 
177 
204 
150 
150 
176 
177 
176 
204 
204 
149 
149 
149 
176 
176 
176 
203 
203 
203 
179 
151 
151 
151 
124 
151 
151 
151 
150 
124 
124 
124 
123 
123 
150 
150 
97 
97 
96 
123 
123 
123 
122 
122 
149 
179 
152 
152 
152 
153 
153 
125 
152 
125 
126 
126 
126 
125 
125 
125 
125 
127 
126 
99 
99 
99 
98 
98 
98 
97 
179 
180 
180 
153 
181 
180 
153 
153 
153 
181 
181 
154 
154 
154 
154 
127 
182 
182 
155 
155 
155 
154 
127 
127 
127 
VECTORS VELOCITY float 
-0.000000 -2.884140 0.000000 
0.000000 -2.884140 0.000000 
0.000000 -2.884140 0.000000 
0.000000 -2.884140 0.000000 
0.000000 -2.884140 0.000000 
0.000000 -2.884140 0.000000 
0.000000 -2.884140 0.000000 
0.000000 -2.884140 0.000000 
0.000000 -2.884140 0.000000 
0.000000 -2.884140 0.000000 
0.000000 -2.884140 0.000000 
0.000000 -2.884140 0.000000 
0.000000 -2.884140 0.000000 
0.000000 -2.884140 0.000000 
0.000000 -2.884140 0.000000 
0.000000 -2.884140 0.000000 
-0.000000 -2.884140 0.000000 
0.000000 -2.884140 0.000000 
0.000000 -2.884140 0.000000 
-0.000000 -2.884140 0.000000 
0.000000 -2.884140 0.000000 
0.000000 -2.884140 0.000000 
0.000000 -2.884140 0.000000 
-0.000000 -2.884140 0.000000 
-0.000000 -2.884140 0.000000 
0.000000 -2.884140 0.000000 
0.000000 -2.884140 0.000000 
0.000000 -2.884140 0.000000 
0.000000 -2.884140 0.000000 
-0.000000 -2.884140 0.000000 
0.000000 -2.884140 0.000000 
0.000000 -2.884140 0.000000 
0.000000 -2.884140 0.000000 
0.000000 -2.884140 0.000000 
-0.000000 -2.884140 0.000000 
0.000000 -2.884140 0.000000 
0.000000 -2.884140 0.000000 
0.000000 -2.884140 0.000000 
0.000000 -2.884140 0.000000 
0.000000 -2.884140 0.000000 
0.000000 -2.884140 0.000000 
0.000000 -2.884140 0.000000 
0.000000 -2.884140 0.000000 
0.000000 -2.884140 0.000000 
0.000000 -2.884140 0.000000 
-0.000000 -2.884140 0.000000 
0.000000 -2.884140 0.000000 
0.000000 -2.884140 0.000000 
0.000000 -2.884140 0.000000 
-0.000000 -2.884140 0.000000 
0.000000 -2.884140 0.000000 
0.000000 -2.884140 0.000000 
0.000000 -2.884140 0.000000 
0.000000 -2.884140 0.000000 
-0.000000 -2.884140 0.000000 
0.000000 -2.884140 0.000000 
0.000000 -2.884140 0.000000 
-0.000000 -2.884140 0.000000 
-0.000000 -2.884140 0.000000 
0.000000 -2.884140 0.000000 
0.000000 -2.884140 0.000000 
0.000000 -2.884140 0.000000 
0.000000 -2.884140 0.000000 
0.000000 -2.884140 0.000000 
0.000000 -2.884140 0.000000 
-0.000000 -2.884140 0.000000 
-0.000000 -2.884140 0.000000 
-0.000000 -2.884140 0.000000 
-0.000000 -2.884140 0.000000 
-0.000000 -2.884140 0.000000 
-0.000000 -2.884140 0.000000 
0.000000 -2.884140 0.000000 
0.000000 -2.884140 0.000000 
0.000000 -2.884140 0.000000 
-0.000000 -2.884140 0.000000 
0.000000 -2.884140 0.000000 
0.000000 -2.884140 0.000000 
0.000000 -2.884140 0.000000 
0.000000 -2.884140 0.000000 
-0.000000 -2.884140 0.000000 
-0.000000 -2.884140 0.000000 
-0.000000 -2.884140 0.000000 
-0.000000 -2.884140 0.000000 
-0.000000 -2.884140 0.000000 
-0.000000 -2.884140 0.000000 
-0.000000 -2.884140 0.000000 
-0.000000 -2.884140 0.000000 
-0.000000 -2.884140 0.000000 
-0.000000 -2.884140 0.000000 
-0.000000 -2.884140 0.000000 
-0.000000 -2.884140 0.000000 
-0.000000 -2.884140 0.000000 
0.000000 -2.884140 0.000000 
0.000000 -2.884140 0.000000 
0.000000 -2.884140 0.000000 
-0.000000 -2.884140 0.000000 
-0.000000 -2.884140 0.000000 
-0.000000 -2.884140 0.000000 
-0.000000 -2.884140 0.000000 
0.000000 -2.884140 0.000000 
0.000000 -2.884140 0.000000 
0.000000 -2.884140 0.000000 
0.000000 -2.884140 0.000000 
0.000000 -2.884140 0.000000 
0.000000 -2.884140 0.000000 
0.000000 -2.884140 0.000000 
-0.000000 -2.884140 0.000000 
0.000000 -2.884140 0.000000 
-0.000000 -2.884140 0.000000 
-0.000000 -2.884140 0.000000 
-0.000000 -2.884140 0.000000 
-0.000000 -2.884140 0.000000 
-0.000000 -2.884140 0.000000 
-0.000000 -2.884140 0.000000 
-0.000000 -2.884140 0.000000 
-0.000000 -2.884140 0.000000 
0.000000 -2.884140 0.000000 
-0.000000 -2.884140 0.000000 
-0.000000 -2.884140 0.000000 
-0.000000 -2.884140 0.000000 
-0.000000 -2.884140 0.000000 
-0.000000 -2.884140 0.000000 
-0.000000 -2.884140 0.000000 
-0.000000 -2.884140 0.000000 
-0.000000 -2.884140 0.000000 
0.000000 -2.884140 0.000000 
-0.000000 -2.884140 0.000000 
-0.000000 -2.884140 0.000000 
-0.000000 -2.884140 0.000000 
-0.000000 -2.884140 0.000000 
-0.000000 -2.884140 0.000000 
-0.000000 -2.884140 0.000000 
-0.000000 -2.884140 0.000000 
-0.000000 -2.884140 0.000000 
-0.000000 -2.884140 0.000000 
-0.000000 -2.884140 0.000000 
-0.000000 -2.884140 0.000000 
-0.000000 -2.884140 0.000000 
0.000000 -2.884140 0.000000 
-0.000000 -2.884140 0.000000 
-0.000000 -2.884140 0.000000 
0.000000 -2.884140 0.000000 
-0.000000 -2.884140 0.000000 
-0.000000 -2.884140 0.000000 
-0.000000 -2.884140 0.000000 
-0.000000 -2.884140 0.000000 
0.000000 -2.884140 0.000000 
0.000000 -2.884140 0.000000 
0.000000 -2.884140 0.000000 
0.000000 -2.884140 0.000000 
-0.000000 -2.884140 0.000000 
-0.000000 -2.884140 0.000000 
-0.000000 -2.884140 0.000000 
-0.000000 -2.884140 0.000000 
-0.000000 -2.884140 0.000000 
-0.000000 -2.884140 0.000000 
-0.000000 -2.884140 0.000000 
-0.000000 -2.884140 0.000000 
-0.000000 -2.884140 0.000000 
0.000000 -2.884140 0.000000 
0.000000 -2.884140 0.000000 
-0.000000 -2.884140 0.000000 
-0.000000 -2.884140 0.000000 
-0.000000 -2.884140 0.000000 
-0.000000 -2.884140 0.000000 
-0.000000 -2.884140 0.000000 
0.000000 -2.884140 0.000000 
0.000000 -2.884140 0.000000 
0.000000 -2.884140 0.000000 
0.000000 -2.884140 0.000000 
0.000000 -2.884140 0.000000 
-0.000000 -2.884140 0.000000 
-0.000000 -2.884140 0.000000 
-0.000000 -2.884140 0.000000 
-0.000000 -2.884140 0.000000 
TENSORS STRESS float 
-0.000000 -0.000000 0.000000 
0.000000 -0.000000 0.000000 
0.000000 0.000000 0.000000 

0.000000 0.000000 0.000000 
0.000000 0.000000 0.000000 
0.000000 0.000000 0.000000 

-0.000000 -0.000000 0.000000 
0.000000 -0.000000 0.000000 
0.000000 0.000000 0.000000 

0.000000 -0.000000 0.000000 
0.000000 0.000000 0.000000 
0.000000 0.000000 0.000000 

0.000000 0.000000 0.000000 
0.000000 0.000000 0.000000 
0.000000 0.000000 0.000000 

-0.000000 0.000000 0.000000 
0.000000 -0.000000 0.000000 
0.000000 0.000000 0.000000 

-0.000000 -0.000000 0.000000 
0.000000 -0.000000 0.000000 
0.000000 0.000000 0.000000 

-0.000000 -0.000000 0.000000 
0.000000 -0.000000 0.000000 
0.000000 0.000000 0.000000 

-0.000000 -0.000000 0.000000 
0.000000 -0.000000 0.000000 
0.000000 0.000000 0.000000 

0.000000 -0.000000 0.000000 
0.000000 0.000000 0.000000 
0.000000 0.000000 0.000000 

0.000000 -0.000000 0.000000 
0.000000 0.000000 0.000000 
0.000000 0.000000 0.000000 

-0.000000 -0.000000 0.000000 
0.000000 -0.000000 0.000000 
0.000000 0.000000 0.000000 

0.000000 0.000000 0.000000 
0.000000 0.000000 0.000000 
0.000000 0.000000 0.000000 

0.000000 0.000000 0.000000 
0.000000 0.000000 0.000000 
0.000000 0.000000 0.000000 

0.000000 -0.000000 0.000000 
0.000000 0.000000 0.000000 
0.000000 0.000000 0.000000 

-0.000000 0.000000 0.000000 
0.000000 -0.000000 0.000000 
0.000000 0.000000 0.000000 

0.000000 -0.000000 0.000000 
0.000000 0.000000 0.000000 
0.000000 0.000000 0.000000 

0.000000 -0.000000 0.000000 
0.000000 0.000000 0.000000 
0.000000 0.000000 0.000000 

-0.000000 0.000000 0.000000 
0.000000 -0.000000 0.000000 
0.000000 0.000000 0.000000 

-0.000000 -0.000000 0.000000 
0.000000 -0.000000 0.000000 
0.000000 0.000000 0.000000 

0.000000 -0.000000 0.000000 
0.000000 0.000000 0.000000 
0.000000 0.000000 0.000000 

0.000000 -0.000000 0.000000 
0.000000 0.000000 0.000000 
0.000000 0.000000 0.000000 

-0.000000 -0.000000 0.000000 
0.000000 -0.000000 0.000000 
0.000000 0.000000 0.000000 

0.000000 -0.000000 0.000000 
0.000000 0.000000 0.000000 
0.000000 0.000000 0.000000 

-0.000000 -0.000000 0.000000 
0.000000 -0.000000 0.000000 
0.000000 0.000000 0.000000 

-0.000000 0.000000 0.000000 
0.000000 -0.000000 0.000000 
0.000000 0.000000 0.000000 

0.000000 -0.000000 0.000000 
0.000000 0.000000 0.000000 
0.000000 0.000000 0.000000 

0.000000 -0.000000 0.000000 
0.000000 0.000000 0.000000 
0.000000 0.000000 0.000000 

0.000000 -0.000000 0.000000 
0.000000 0.000000 0.000000 
0.000000 0.000000 0.000000 

-0.000000 -0.000000 0.000000 
0.000000 -0.000000 0.000000 
0.000000 0.000000 0.000000 

0.000000 -0.000000 0.000000 
0.000000 0.000000 0.000000 
0.000000 0.000000 0.000000 

-0.000000 -0.000000 0.000000 
0.000000 -0.000000 0.000000 
0.000000 0.000000 0.000000 

-0.000000 0.000000 0.000000 
0.000000 -0.000000 0.000000 
0.000000 0.000000 0.000000 

0.000000 -0.000000 0.000000 
0.000000 0.000000 0.000000 
0.000000 0.000000 0.000000 

-0.000000 -0.000000 0.000000 
0.000000 -0.000000 0.000000 
0.000000 0.000000 0.000000 

-0.000000 -0.000000 0.000000 
0.000000 -0.000000 0.000000 
0.000000 0.000000 0.000000 

-0.000000 -0.000000 0.000000 
0.000000 -0.000000 0.000000 
0.000000 0.000000 0.000000 

-0.000000 -0.000000 0.000000 
0.000000 -0.000000 0.000000 
0.000000 0.000000 0.000000 

0.000000 -0.000000 0.000000 
0.000000 0.000000 0.000000 
0.000000 0.000000 0.000000 

0.000000 -0.000000 0.000000 
0.000000 0.000000 0.000000 
0.000000 0.000000 0.000000 

0.000000 -0.000000 0.000000 
0.000000 0.000000 0.000000 
0.000000 0.000000 0.000000 

-0.000000 -0.000000 0.000000 
0.000000 -0.000000 0.000000 
0.000000 0.000000 0.000000 

0.000000 0.000000 0.000000 
0.000000 0.000000 0.000000 
0.000000 0.000000 0.000000 

-0.000000 0.000000 0.000000 
0.000000 -0.000000 0.000000 
0.000000 0.000000 0.000000 

-0.000000 0.000000 0.000000 
0.000000 -0.000000 0.000000 
0.000000 0.000000 0.000000 

-0.000000 -0.000000 0.000000 
0.000000 -0.000000 0.000000 
0.000000 0.000000 0.000000 

0.000000 -0.000000 0.000000 
0.000000 0.000000 0.000000 
0.000000 0.000000 0.000000 

0.000000 0.000000 0.000000 
0.000000 -0.000000 0.000000 
0.000000 0.000000 0.000000 

-0.000000 -0.000000 0.000000 
0.000000 -0.000000 0.000000 
0.000000 0.000000 0.000000 

0.000000 -0.000000 0.000000 
0.000000 0.000000 0.000000 
0.000000 0.000000 0.000000 

0.000000 -0.000000 0.000000 
0.000000 0.000000 0.000000 
0.000000 0.000000 0.000000 

-0.000000 -0.000000 0.000000 
0.000000 0.000000 0.000000 
0.000000 0.000000 0.000000 

0.000000 -0.000000 0.000000 
0.000000 0.000000 0.000000 
0.000000 0.000000 0.000000 

-0.000000 -0.000000 0.000000 
0.000000 -0.000000 0.000000 
0.000000 0.000000 0.000000 

-0.000000 -0.000000 0.000000 
0.000000 -0.000000 0.000000 
0.000000 0.000000 0.000000 

-0.000000 0.000000 0.000000 
0.000000 -0.000000 0.000000 
0.000000 0.000000 0.000000 

-0.000000 -0.000000 0.000000 
0.000000 -0.000000 0.000000 
0.000000 0.000000 0.000000 

-0.000000 -0.000000 0.000000 
0.000000 -0.000000 0.000000 
0.000000 0.000000 0.000000 

-0.000000 -0.000000 0.000000 
0.000000 -0.000000 0.000000 
0.000000 0.000000 0.000000 

0.000000 0.000000 0.000000 
0.000000 0.000000 0.000000 
0.000000 0.000000 0.000000 

-0.000000 -0.000000 0.000000 
0.000000 -0.000000 0.000000 
0.000000 0.000000 0.000000 

0.000000 -0.000000 0.000000 
0.000000 0.000000 0.000000 
0.000000 0.000000 0.000000 

-0.000000 0.000000 0.000000 
0.000000 -0.000000 0.000000 
0.000000 0.000000 0.000000 

-0.000000 -0.000000 0.000000 
0.000000 -0.000000 0.000000 
0.000000 0.000000 0.000000 

0.000000 0.000000 0.000000 
0.000000 0.000000 0.000000 
0.000000 0.000000 0.000000 

0.000000 -0.000000 0.000000 
0.000000 -0.000000 0.000000 
0.000000 0.000000 0.000000 

0.000000 -0.000000 0.000000 
0.000000 0.000000 0.000000 
0.000000 0.000000 0.000000 

-0.000000 -0.000000 0.000000 
0.000000 -0.000000 0.000000 
0.000000 0.000000 0.000000 

-0.000000 -0.000000 0.000000 
0.000000 -0.000000 0.000000 
0.000000 0.000000 0.000000 

-0.000000 -0.000000 0.000000 
0.000000 -0.000000 0.000000 
0.000000 0.000000 0.000000 

-0.000000 -0.000000 0.000000 
0.000000 -0.000000 0.000000 
0.000000 0.000000 0.000000 

0.000000 0.000000 0.000000 
0.000000 0.000000 0.000000 
0.000000 0.000000 0.000000 

-0.000000 0.000000 0.000000 
0.000000 -0.000000 0.000000 
0.000000 0.000000 0.000000 

0.000000 0.000000 0.000000 
0.000000 0.000000 0.000000 
0.000000 0.000000 0.000000 

0.000000 0.000000 0.000000 
0.000000 0.000000 0.000000 
0.000000 0.000000 0.000000 

-0.000000 -0.000000 0.000000 
0.000000 -0.000000 0.000000 
0.000000 0.000000 0.000000 

0.000000 0.000000 0.000000 
0.000000 0.000000 0.000000 
0.000000 0.000000 0.000000 

-0.000000 -0.000000 0.000000 
0.000000 -0.000000 0.000000 
0.000000 0.000000 0.000000 

0.000000 0.000000 0.000000 
0.000000 0.000000 0.000000 
0.000000 0.000000 0.000000 

-0.000000 -0.000000 0.000000 
0.000000 -0.000000 0.000000 
0.000000 0.000000 0.000000 

0.000000 -0.000000 0.000000 
0.000000 -0.000000 0.000000 
0.000000 0.000000 0.000000 

0.000000 -0.000000 0.000000 
0.000000 0.000000 0.000000 
0.000000 0.000000 0.000000 

0.000000 -0.000000 0.000000 
0.000000 0.000000 0.000000 
0.000000 0.000000 0.000000 

-0.000000 -0.000000 0.000000 
0.000000 -0.000000 0.000000 
0.000000 0.000000 0.000000 

-0.000000 -0.000000 0.000000 
0.000000 -0.000000 0.000000 
0.000000 0.000000 0.000000 

0.000000 -0.000000 0.000000 
0.000000 0.000000 0.000000 
0.000000 0.000000 0.000000 

0.000000 -0.000000 0.000000 
0.000000 0.000000 0.000000 
0.000000 0.000000 0.000000 

0.000000 -0.000000 0.000000 
0.000000 0.000000 0.000000 
0.000000 0.000000 0.000000 

-0.000000 -0.000000 0.000000 
0.000000 -0.000000 0.000000 
0.000000 0.000000 0.000000 

0.000000 -0.000000 0.000000 
0.000000 0.000000 0.000000 
0.000000 0.000000 0.000000 

0.000000 -0.000000 0.000000 
0.000000 0.000000 0.000000 
0.000000 0.000000 0.000000 

0.000000 0.000000 0.000000 
0.000000 0.000000 0.000000 
0.000000 0.000000 0.000000 

-0.000000 0.000000 0.000000 
0.000000 -0.000000 0.000000 
0.000000 0.000000 0.000000 

-0.000000 0.000000 0.000000 
0.000000 -0.000000 0.000000 
0.000000 0.000000 0.000000 

0.000000 -0.000000 0.000000 
0.000000 0.000000 0.000000 
0.000000 0.000000 0.000000 

-0.000000 -0.000000 0.000000 
0.000000 0.000000 0.000000 
0.000000 0.000000 0.000000 

-0.000000 -0.000000 0.000000 
0.000000 -0.000000 0.000000 
0.000000 0.000000 0.000000 

0.000000 -0.000000 0.000000 
0.000000 0.000000 0.000000 
0.000000 0.000000 0.000000 

-0.000000 -0.000000 0.000000 
0.000000 -0.000000 0.000000 
0.000000 0.000000 0.000000 

0.000000 -0.000000 0.000000 
0.000000 0.000000 0.000000 
0.000000 0.000000 0.000000 

-0.000000 -0.000000 0.000000 
0.000000 -0.000000 0.000000 
0.000000 0.000000 0.000000 

-0.000000 -0.000000 0.000000 
0.000000 -0.000000 0.000000 
0.000000 0.000000 0.000000 

-0.000000 -0.000000 0.000000 
0.000000 0.000000 0.000000 
0.000000 0.000000 0.000000 

-0.000000 -0.000000 0.000000 
0.000000 0.000000 0.000000 
0.000000 0.000000 0.000000 

-0.000000 -0.000000 0.000000 
0.000000 -0.000000 0.000000 
0.000000 0.000000 0.000000 

-0.000000 -0.000000 0.000000 
0.000000 -0.000000 0.000000 
0.000000 0.000000 0.000000 

-0.000000 -0.000000 0.000000 
0.000000 -0.000000 0.000000 
0.000000 0.000000 0.000000 

-0.000000 0.000000 0.000000 
0.000000 -0.000000 0.000000 
0.000000 0.000000 0.000000 

0.000000 -0.000000 0.000000 
0.000000 0.000000 0.000000 
0.000000 0.000000 0.000000 

0.000000 -0.000000 0.000000 
0.000000 0.000000 0.000000 
0.000000 0.000000 0.000000 

0.000000 -0.000000 0.000000 
0.000000 0.000000 0.000000 
0.000000 0.000000 0.000000 

-0.000000 0.000000 0.000000 
0.000000 -0.000000 0.000000 
0.000000 0.000000 0.000000 

0.000000 0.000000 0.000000 
0.000000 0.000000 0.000000 
0.000000 0.000000 0.000000 

-0.000000 -0.000000 0.000000 
0.000000 -0.000000 0.000000 
0.000000 0.000000 0.000000 

0.000000 -0.000000 0.000000 
0.000000 0.000000 0.000000 
0.000000 0.000000 0.000000 

0.000000 0.000000 0.000000 
0.000000 0.000000 0.000000 
0.000000 0.000000 0.000000 

-0.000000 -0.000000 0.000000 
0.000000 -0.000000 0.000000 
0.000000 0.000000 0.000000 

-0.000000 -0.000000 0.000000 
0.000000 0.000000 0.000000 
0.000000 0.000000 0.000000 

-0.000000 -0.000000 0.000000 
0.000000 -0.000000 0.000000 
0.000000 0.000000 0.000000 

-0.000000 -0.000000 0.000000 
0.000000 -0.000000 0.000000 
0.000000 0.000000 0.000000 

-0.000000 0.000000 0.000000 
0.000000 -0.000000 0.000000 
0.000000 0.000000 0.000000 

0.000000 0.000000 0.000000 
0.000000 0.000000 0.000000 
0.000000 0.000000 0.000000 

-0.000000 0.000000 0.000000 
0.000000 -0.000000 0.000000 
0.000000 0.000000 0.000000 

0.000000 0.000000 0.000000 
0.000000 0.000000 0.000000 
0.000000 0.000000 0.000000 

-0.000000 0.000000 0.000000 
0.000000 -0.000000 0.000000 
0.000000 0.000000 0.000000 

-0.000000 0.000000 0.000000 
0.000000 -0.000000 0.000000 
0.000000 0.000000 0.000000 

-0.000000 -0.000000 0.000000 
0.000000 -0.000000 0.000000 
0.000000 0.000000 0.000000 

-0.000000 0.000000 0.000000 
0.000000 -0.000000 0.000000 
0.000000 0.000000 0.000000 

0.000000 -0.000000 0.000000 
0.000000 0.000000 0.000000 
0.000000 0.000000 0.000000 

-0.000000 0.000000 0.000000 
0.000000 -0.000000 0.000000 
0.000000 0.000000 0.000000 

-0.000000 -0.000000 0.000000 
0.000000 -0.000000 0.000000 
0.000000 0.000000 0.000000 

-0.000000 -0.000000 0.000000 
0.000000 -0.000000 0.000000 
0.000000 0.000000 0.000000 

0.000000 0.000000 0.000000 
0.000000 0.000000 0.000000 
0.000000 0.000000 0.000000 

-0.000000 -0.000000 0.000000 
0.000000 -0.000000 0.000000 
0.000000 0.000000 0.000000 

-0.000000 0.000000 0.000000 
0.000000 -0.000000 0.000000 
0.000000 0.000000 0.000000 

-0.000000 0.000000 0.000000 
0.000000 -0.000000 0.000000 
0.000000 0.000000 0.000000 

0.000000 -0.000000 0.000000 
0.000000 0.000000 0.000000 
0.000000 0.000000 0.000000 

-0.000000 -0.000000 0.000000 
0.000000 -0.000000 0.000000 
0.000000 0.000000 0.000000 

-0.000000 -0.000000 0.000000 
0.000000 -0.000000 0.000000 
0.000000 0.000000 0.000000 

-0.000000 -0.000000 0.000000 
0.000000 -0.000000 0.000000 
0.000000 0.000000 0.000000 

-0.000000 -0.000000 0.000000 
0.000000 -0.000000 0.000000 
0.000000 0.000000 0.000000 

0.000000 0.000000 0.000000 
0.000000 0.000000 0.000000 
0.000000 0.000000 0.000000 

0.000000 0.000000 0.000000 
0.000000 0.000000 0.000000 
0.000000 0.000000 0.000000 

-0.000000 -0.000000 0.000000 
0.000000 -0.000000 0.000000 
0.000000 0.000000 0.000000 

0.000000 -0.000000 0.000000 
0.000000 0.000000 0.000000 
0.000000 0.000000 0.000000 

-0.000000 0.000000 0.000000 
0.000000 -0.000000 0.000000 
0.000000 0.000000 0.000000 

0.000000 0.000000 0.000000 
0.000000 0.000000 0.000000 
0.000000 0.000000 0.000000 

0.000000 0.000000 0.000000 
0.000000 0.000000 0.000000 
0.000000 0.000000 0.000000 

-0.000000 -0.000000 0.000000 
0.000000 -0.000000 0.000000 
0.000000 0.000000 0.000000 

-0.000000 -0.000000 0.000000 
0.000000 -0.000000 0.000000 
0.000000 0.000000 0.000000 

-0.000000 -0.000000 0.000000 
0.000000 -0.000000 0.000000 
0.000000 0.000000 0.000000 

-0.000000 -0.000000 0.000000 
0.000000 -0.000000 0.000000 
0.000000 0.000000 0.000000 

0.000000 -0.000000 0.000000 
0.000000 0.000000 0.000000 
0.000000 0.000000 0.000000 

-0.000000 -0.000000 0.000000 
0.000000 -0.000000 0.000000 
0.000000 0.000000 0.000000 

0.000000 -0.000000 0.000000 
0.000000 -0.000000 0.000000 
0.000000 0.000000 0.000000 

-0.000000 -0.000000 0.000000 
0.000000 -0.000000 0.000000 
0.000000 0.000000 0.000000 

-0.000000 0.000000 0.000000 
0.000000 -0.000000 0.000000 
0.000000 0.000000 0.000000 

0.000000 -0.000000 0.000000 
0.000000 0.000000 0.000000 
0.000000 0.000000 0.000000 

0.000000 -0.000000 0.000000 
0.000000 0.000000 0.000000 
0.000000 0.000000 0.000000 

-0.000000 -0.000000 0.000000 
0.000000 -0.000000 0.000000 
0.000000 0.000000 0.000000 

0.000000 -0.000000 0.000000 
0.000000 -0.000000 0.000000 
0.000000 0.000000 0.000000 

0.000000 -0.000000 0.000000 
0.000000 0.000000 0.000000 
0.000000 0.000000 0.000000 

-0.000000 -0.000000 0.000000 
0.000000 -0.000000 0.000000 
0.000000 0.000000 0.000000 

0.000000 0.000000 0.000000 
0.000000 0.000000 0.000000 
0.000000 0.000000 0.000000 

0.000000 -0.000000 0.000000 
0.000000 0.000000 0.000000 
0.000000 0.000000 0.000000 

-0.000000 0.000000 0.000000 
0.000000 -0.000000 0.000000 
0.000000 0.000000 0.000000 

0.000000 -0.000000 0.000000 
0.000000 0.000000 0.000000 
0.000000 0.000000 0.000000 

-0.000000 -0.000000 0.000000 
0.000000 -0.000000 0.000000 
0.000000 0.000000 0.000000 

-0.000000 -0.000000 0.000000 
0.000000 -0.000000 0.000000 
0.000000 0.000000 0.000000 

-0.000000 0.000000 0.000000 
0.000000 -0.000000 0.000000 
0.000000 0.000000 0.000000 

0.000000 -0.000000 0.000000 
0.000000 0.000000 0.000000 
0.000000 0.000000 0.000000 

0.000000 -0.000000 0.000000 
0.000000 0.000000 0.000000 
0.000000 0.000000 0.000000 

0.000000 0.000000 0.000000 
0.000000 0.000000 0.000000 
0.000000 0.000000 0.000000 

-0.000000 -0.000000 0.000000 
0.000000 -0.000000 0.000000 
0.000000 0.000000 0.000000 

0.000000 -0.000000 0.000000 
0.000000 0.000000 0.000000 
0.000000 0.000000 0.000000 

TENSORS STRAIN float 
-0.000000 -0.000000 0.000000 
0.000000 0.000000 0.000000 
0.000000 0.000000 0.000000 

0.000000 0.000000 0.000000 
0.000000 0.000000 0.000000 
0.000000 0.000000 0.000000 

-0.000000 -0.000000 0.000000 
0.000000 -0.000000 0.000000 
0.000000 0.000000 0.000000 

0.000000 -0.000000 0.000000 
0.000000 -0.000000 0.000000 
0.000000 0.000000 0.000000 

-0.000000 0.000000 0.000000 
0.000000 0.000000 0.000000 
0.000000 0.000000 0.000000 

-0.000000 0.000000 0.000000 
0.000000 0.000000 0.000000 
0.000000 0.000000 0.000000 

-0.000000 -0.000000 0.000000 
0.000000 0.000000 0.000000 
0.000000 0.000000 0.000000 

0.000000 -0.000000 0.000000 
0.000000 -0.000000 0.000000 
0.000000 0.000000 0.000000 

0.000000 -0.000000 0.000000 
0.000000 -0.000000 0.000000 
0.000000 0.000000 0.000000 

0.000000 -0.000000 0.000000 
0.000000 0.000000 0.000000 
0.000000 0.000000 0.000000 

-0.000000 -0.000000 0.000000 
0.000000 0.000000 0.000000 
0.000000 0.000000 0.000000 

-0.000000 -0.000000 0.000000 
0.000000 0.000000 0.000000 
0.000000 0.000000 0.000000 

-0.000000 0.000000 0.000000 
0.000000 0.000000 0.000000 
0.000000 0.000000 0.000000 

-0.000000 0.000000 0.000000 
0.000000 0.000000 0.000000 
0.000000 0.000000 0.000000 

0.000000 -0.000000 0.000000 
0.000000 -0.000000 0.000000 
0.000000 0.000000 0.000000 

0.000000 0.000000 0.000000 
0.000000 -0.000000 0.000000 
0.000000 0.000000 0.000000 

0.000000 -0.000000 0.000000 
0.000000 -0.000000 0.000000 
0.000000 0.000000 0.000000 

0.000000 -0.000000 0.000000 
0.000000 -0.000000 0.000000 
0.000000 0.000000 0.000000 

0.000000 0.000000 0.000000 
0.000000 -0.000000 0.000000 
0.000000 0.000000 0.000000 

0.000000 -0.000000 0.000000 
0.000000 -0.000000 0.000000 
0.000000 0.000000 0.000000 

0.000000 -0.000000 0.000000 
0.000000 0.000000 0.000000 
0.000000 0.000000 0.000000 

0.000000 -0.000000 0.000000 
0.000000 -0.000000 0.000000 
0.000000 0.000000 0.000000 

0.000000 -0.000000 0.000000 
0.000000 -0.000000 0.000000 
0.000000 0.000000 0.000000 

0.000000 -0.000000 0.000000 
0.000000 0.000000 0.000000 
0.000000 0.000000 0.000000 

0.000000 -0.000000 0.000000 
0.000000 -0.000000 0.000000 
0.000000 0.000000 0.000000 

-0.000000 0.000000 0.000000 
0.000000 0.000000 0.000000 
0.000000 0.000000 0.000000 

0.000000 -0.000000 0.000000 
0.000000 0.000000 0.000000 
0.000000 0.000000 0.000000 

0.000000 -0.000000 0.000000 
0.000000 0.000000 0.000000 
0.000000 0.000000 0.000000 

0.000000 -0.000000 0.000000 
0.000000 0.000000 0.000000 
0.000000 0.000000 0.000000 

0.000000 -0.000000 0.000000 
0.000000 -0.000000 0.000000 
0.000000 0.000000 0.000000 

0.000000 -0.000000 0.000000 
0.000000 0.000000 0.000000 
0.000000 0.000000 0.000000 

0.000000 -0.000000 0.000000 
0.000000 -0.000000 0.000000 
0.000000 0.000000 0.000000 

0.000000 0.000000 0.000000 
0.000000 -0.000000 0.000000 
0.000000 0.000000 0.000000 

0.000000 -0.000000 0.000000 
0.000000 0.000000 0.000000 
0.000000 0.000000 0.000000 

0.000000 -0.000000 0.000000 
0.000000 -0.000000 0.000000 
0.000000 0.000000 0.000000 

0.000000 -0.000000 0.000000 
0.000000 -0.000000 0.000000 
0.000000 0.000000 0.000000 

0.000000 -0.000000 0.000000 
0.000000 -0.000000 0.000000 
0.000000 0.000000 0.000000 

0.000000 -0.000000 0.000000 
0.000000 -0.000000 0.000000 
0.000000 0.000000 0.000000 

0.000000 -0.000000 0.000000 
0.000000 0.000000 0.000000 
0.000000 0.000000 0.000000 

-0.000000 -0.000000 0.000000 
0.000000 0.000000 0.000000 
0.000000 0.000000 0.000000 

-0.000000 -0.000000 0.000000 
0.000000 0.000000 0.000000 
0.000000 0.000000 0.000000 

0.000000 -0.000000 0.000000 
0.000000 -0.000000 0.000000 
0.000000 0.000000 0.000000 

0.000000 0.000000 0.000000 
0.000000 -0.000000 0.000000 
0.000000 0.000000 0.000000 

0.000000 0.000000 0.000000 
0.000000 -0.000000 0.000000 
0.000000 0.000000 0.000000 

-0.000000 0.000000 0.000000 
0.000000 -0.000000 0.000000 
0.000000 0.000000 0.000000 

-0.000000 -0.000000 0.000000 
0.000000 0.000000 0.000000 
0.000000 0.000000 0.000000 

0.000000 -0.000000 0.000000 
0.000000 0.000000 0.000000 
0.000000 0.000000 0.000000 

0.000000 0.000000 0.000000 
0.000000 -0.000000 0.000000 
0.000000 0.000000 0.000000 

0.000000 -0.000000 0.000000 
0.000000 -0.000000 0.000000 
0.000000 0.000000 0.000000 

0.000000 -0.000000 0.000000 
0.000000 0.000000 0.000000 
0.000000 0.000000 0.000000 

-0.000000 -0.000000 0.000000 
0.000000 0.000000 0.000000 
0.000000 0.000000 0.000000 

-0.000000 -0.000000 0.000000 
0.000000 0.000000 0.000000 
0.000000 0.000000 0.000000 

-0.000000 -0.000000 0.000000 
0.000000 0.000000 0.000000 
0.000000 0.000000 0.000000 

0.000000 -0.000000 0.000000 
0.000000 -0.000000 0.000000 
0.000000 0.000000 0.000000 

-0.000000 -0.000000 0.000000 
0.000000 0.000000 0.000000 
0.000000 0.000000 0.000000 

-0.000000 0.000000 0.000000 
0.000000 0.000000 0.000000 
0.000000 0.000000 0.000000 

-0.000000 -0.000000 0.000000 
0.000000 -0.000000 0.000000 
0.000000 0.000000 0.000000 

-0.000000 -0.000000 0.000000 
0.000000 0.000000 0.000000 
0.000000 0.000000 0.000000 

0.000000 -0.000000 0.000000 
0.000000 -0.000000 0.000000 
0.000000 0.000000 0.000000 

-0.000000 0.000000 0.000000 
0.000000 0.000000 0.000000 
0.000000 0.000000 0.000000 

-0.000000 -0.000000 0.000000 
0.000000 0.000000 0.000000 
0.000000 0.000000 0.000000 

-0.000000 -0.000000 0.000000 
0.000000 0.000000 0.000000 
0.000000 0.000000 0.000000 

-0.000000 0.000000 0.000000 
0.000000 0.000000 0.000000 
0.000000 0.000000 0.000000 

-0.000000 -0.000000 0.000000 
0.000000 -0.000000 0.000000 
0.000000 0.000000 0.000000 

-0.000000 0.000000 0.000000 
0.000000 0.000000 0.000000 
0.000000 0.000000 0.000000 

0.000000 -0.000000 0.000000 
0.000000 -0.000000 0.000000 
0.000000 0.000000 0.000000 

0.000000 -0.000000 0.000000 
0.000000 -0.000000 0.000000 
0.000000 0.000000 0.000000 

-0.000000 -0.000000 0.000000 
0.000000 -0.000000 0.000000 
0.000000 0.000000 0.000000 

-0.000000 -0.000000 0.000000 
0.000000 -0.000000 0.000000 
0.000000 0.000000 0.000000 

-0.000000 -0.000000 0.000000 
0.000000 0.000000 0.000000 
0.000000 0.000000 0.000000 

-0.000000 -0.000000 0.000000 
0.000000 0.000000 0.000000 
0.000000 0.000000 0.000000 

-0.000000 0.000000 0.000000 
0.000000 0.000000 0.000000 
0.000000 0.000000 0.000000 

0.000000 0.000000 0.000000 
0.000000 -0.000000 0.000000 
0.000000 0.000000 0.000000 

0.000000 0.000000 0.000000 
0.000000 0.000000 0.000000 
0.000000 0.000000 0.000000 

0.000000 0.000000 0.000000 
0.000000 -0.000000 0.000000 
0.000000 0.000000 0.000000 

-0.000000 -0.000000 0.000000 
0.000000 0.000000 0.000000 
0.000000 0.000000 0.000000 

0.000000 0.000000 0.000000 
0.000000 0.000000 0.000000 
0.000000 0.000000 0.000000 

-0.000000 -0.000000 0.000000 
0.000000 -0.000000 0.000000 
0.000000 0.000000 0.000000 

0.000000 0.000000 0.000000 
0.000000 0.000000 0.000000 
0.000000 0.000000 0.000000 

0.000000 -0.000000 0.000000 
0.000000 -0.000000 0.000000 
0.000000 0.000000 0.000000 

0.000000 -0.000000 0.000000 
0.000000 -0.000000 0.000000 
0.000000 0.000000 0.000000 

0.000000 -0.000000 0.000000 
0.000000 0.000000 0.000000 
0.000000 0.000000 0.000000 

0.000000 -0.000000 0.000000 
0.000000 0.000000 0.000000 
0.000000 0.000000 0.000000 

-0.000000 -0.000000 0.000000 
0.000000 0.000000 0.000000 
0.000000 0.000000 0.000000 

-0.000000 -0.000000 0.000000 
0.000000 -0.000000 0.000000 
0.000000 0.000000 0.000000 

-0.000000 -0.000000 0.000000 
0.000000 0.000000 0.000000 
0.000000 0.000000 0.000000 

-0.000000 -0.000000 0.000000 
0.000000 0.000000 0.000000 
0.000000 0.000000 0.000000 

-0.000000 -0.000000 0.000000 
0.000000 0.000000 0.000000 
0.000000 0.000000 0.000000 

-0.000000 -0.000000 0.000000 
0.000000 -0.000000 0.000000 
0.000000 0.000000 0.000000 

-0.000000 -0.000000 0.000000 
0.000000 0.000000 0.000000 
0.000000 0.000000 0.000000 

0.000000 -0.000000 0.000000 
0.000000 -0.000000 0.000000 
0.000000 0.000000 0.000000 

-0.000000 0.000000 0.000000 
0.000000 0.000000 0.000000 
0.000000 0.000000 0.000000 

-0.000000 0.000000 0.000000 
0.000000 -0.000000 0.000000 
0.000000 0.000000 0.000000 

-0.000000 0.000000 0.000000 
0.000000 -0.000000 0.000000 
0.000000 0.000000 0.000000 

-0.000000 -0.000000 0.000000 
0.000000 0.000000 0.000000 
0.000000 0.000000 0.000000 

-0.000000 -0.000000 0.000000 
0.000000 0.000000 0.000000 
0.000000 0.000000 0.000000 

-0.000000 -0.000000 0.000000 
0.000000 0.000000 0.000000 
0.000000 0.000000 0.000000 

0.000000 -0.000000 0.000000 
0.000000 -0.000000 0.000000 
0.000000 0.000000 0.000000 

0.000000 -0.000000 0.000000 
0.000000 -0.000000 0.000000 
0.000000 0.000000 0.000000 

0.000000 -0.000000 0.000000 
0.000000 0.000000 0.000000 
0.000000 0.000000 0.000000 

-0.000000 -0.000000 0.000000 
0.000000 0.000000 0.000000 
0.000000 0.000000 0.000000 

-0.000000 -0.000000 0.000000 
0.000000 -0.000000 0.000000 
0.000000 0.000000 0.000000 

-0.000000 -0.000000 0.000000 
0.000000 0.000000 0.000000 
0.000000 0.000000 0.000000 

-0.000000 -0.000000 0.000000 
0.000000 0.000000 0.000000 
0.000000 0.000000 0.000000 

0.000000 -0.000000 0.000000 
0.000000 -0.000000 0.000000 
0.000000 0.000000 0.000000 

-0.000000 -0.000000 0.000000 
0.000000 0.000000 0.000000 
0.000000 0.000000 0.000000 

-0.000000 -0.000000 0.000000 
0.000000 0.000000 0.000000 
0.000000 0.000000 0.000000 

-0.000000 0.000000 0.000000 
0.000000 0.000000 0.000000 
0.000000 0.000000 0.000000 

-0.000000 -0.000000 0.000000 
0.000000 0.000000 0.000000 
0.000000 0.000000 0.000000 

0.000000 -0.000000 0.000000 
0.000000 -0.000000 0.000000 
0.000000 0.000000 0.000000 

0.000000 -0.000000 0.000000 
0.000000 0.000000 0.000000 
0.000000 0.000000 0.000000 

-0.000000 0.000000 0.000000 
0.000000 0.000000 0.000000 
0.000000 0.000000 0.000000 

-0.000000 0.000000 0.000000 
0.000000 0.000000 0.000000 
0.000000 0.000000 0.000000 

-0.000000 -0.000000 0.000000 
0.000000 0.000000 0.000000 
0.000000 0.000000 0.000000 

0.000000 -0.000000 0.000000 
0.000000 0.000000 0.000000 
0.000000 0.000000 0.000000 

-0.000000 0.000000 0.000000 
0.000000 0.000000 0.000000 
0.000000 0.000000 0.000000 

-0.000000 -0.000000 0.000000 
0.000000 0.000000 0.000000 
0.000000 0.000000 0.000000 

-0.000000 -0.000000 0.000000 
0.000000 0.000000 0.000000 
0.000000 0.000000 0.000000 

-0.000000 -0.000000 0.000000 
0.000000 0.000000 0.000000 
0.000000 0.000000 0.000000 

-0.000000 -0.000000 0.000000 
0.000000 -0.000000 0.000000 
0.000000 0.000000 0.000000 

0.000000 0.000000 0.000000 
0.000000 -0.000000 0.000000 
0.000000 0.000000 0.000000 

0.000000 0.000000 0.000000 
0.000000 0.000000 0.000000 
0.000000 0.000000 0.000000 

0.000000 0.000000 0.000000 
0.000000 -0.000000 0.000000 
0.000000 0.000000 0.000000 

0.000000 0.000000 0.000000 
0.000000 -0.000000 0.000000 
0.000000 0.000000 0.000000 

-0.000000 0.000000 0.000000 
0.000000 -0.000000 0.000000 
0.000000 0.000000 0.000000 

-0.000000 0.000000 0.000000 
0.000000 0.000000 0.000000 
0.000000 0.000000 0.000000 

-0.000000 -0.000000 0.000000 
0.000000 0.000000 0.000000 
0.000000 0.000000 0.000000 

-0.000000 0.000000 0.000000 
0.000000 0.000000 0.000000 
0.000000 0.000000 0.000000 

-0.000000 -0.000000 0.000000 
0.000000 0.000000 0.000000 
0.000000 0.000000 0.000000 

-0.000000 0.000000 0.000000 
0.000000 -0.000000 0.000000 
0.000000 0.000000 0.000000 

-0.000000 -0.000000 0.000000 
0.000000 -0.000000 0.000000 
0.000000 0.000000 0.000000 

-0.000000 -0.000000 0.000000 
0.000000 -0.000000 0.000000 
0.000000 0.000000 0.000000 

-0.000000 0.000000 0.000000 
0.000000 0.000000 0.000000 
0.000000 0.000000 0.000000 

0.000000 -0.000000 0.000000 
0.000000 -0.000000 0.000000 
0.000000 0.000000 0.000000 

-0.000000 0.000000 0.000000 
0.000000 -0.000000 0.000000 
0.000000 0.000000 0.000000 

-0.000000 0.000000 0.000000 
0.000000 -0.000000 0.000000 
0.000000 0.000000 0.000000 

-0.000000 -0.000000 0.000000 
0.000000 0.000000 0.000000 
0.000000 0.000000 0.000000 

-0.000000 -0.000000 0.000000 
0.000000 -0.000000 0.000000 
0.000000 0.000000 0.000000 

-0.000000 -0.000000 0.000000 
0.000000 0.000000 0.000000 
0.000000 0.000000 0.000000 

0.000000 -0.000000 0.000000 
0.000000 -0.000000 0.000000 
0.000000 0.000000 0.000000 

0.000000 -0.000000 0.000000 
0.000000 -0.000000 0.000000 
0.000000 0.000000 0.000000 

-0.000000 0.000000 0.000000 
0.000000 0.000000 0.000000 
0.000000 0.000000 0.000000 

-0.000000 0.000000 0.000000 
0.000000 0.000000 0.000000 
0.000000 0.000000 0.000000 

0.000000 -0.000000 0.000000 
0.000000 -0.000000 0.000000 
0.000000 0.000000 0.000000 

0.000000 -0.000000 0.000000 
0.000000 -0.000000 0.000000 
0.000000 0.000000 0.000000 

0.000000 0.000000 0.000000 
0.000000 -0.000000 0.000000 
0.000000 0.000000 0.000000 

-0.000000 0.000000 0.000000 
0.000000 0.000000 0.000000 
0.000000 0.000000 0.000000 

-0.000000 0.000000 0.000000 
0.000000 0.000000 0.000000 
0.000000 0.000000 0.000000 

-0.000000 -0.000000 0.000000 
0.000000 0.000000 0.000000 
0.000000 0.000000 0.000000 

-0.000000 -0.000000 0.000000 
0.000000 0.000000 0.000000 
0.000000 0.000000 0.000000 

-0.000000 -0.000000 0.000000 
0.000000 -0.000000 0.000000 
0.000000 0.000000 0.000000 

0.000000 -0.000000 0.000000 
0.000000 -0.000000 0.000000 
0.000000 0.000000 0.000000 

-0.000000 -0.000000 0.000000 
0.000000 0.000000 0.000000 
0.000000 0.000000 0.000000 

-0.000000 -0.000000 0.000000 
0.000000 0.000000 0.000000 
0.000000 0.000000 0.000000 

0.000000 -0.000000 0.000000 
0.000000 -0.000000 0.000000 
0.000000 0.000000 0.000000 

0.000000 -0.000000 0.000000 
0.000000 -0.000000 0.000000 
0.000000 0.000000 0.000000 

0.000000 0.000000 0.000000 
0.000000 -0.000000 0.000000 
0.000000 0.000000 0.000000 

0.000000 -0.000000 0.000000 
0.000000 0.000000 0.000000 
0.000000 0.000000 0.000000 

0.000000 -0.000000 0.000000 
0.000000 -0.000000 0.000000 
0.000000 0.000000 0.000000 

0.000000 -0.000000 0.000000 
0.000000 -0.000000 0.000000 
0.000000 0.000000 0.000000 

0.000000 -0.000000 0.000000 
0.000000 -0.000000 0.000000 
0.000000 0.000000 0.000000 

0.000000 -0.000000 0.000000 
0.000000 -0.000000 0.000000 
0.000000 0.000000 0.000000 

0.000000 -0.000000 0.000000 
0.000000 -0.000000 0.000000 
0.000000 0.000000 0.000000 

0.000000 0.000000 0.000000 
0.000000 -0.000000 0.000000 
0.000000 0.000000 0.000000 

0.000000 -0.000000 0.000000 
0.000000 -0.000000 0.000000 
0.000000 0.000000 0.000000 

-0.000000 0.000000 0.000000 
0.000000 -0.000000 0.000000 
0.000000 0.000000 0.000000 

0.000000 -0.000000 0.000000 
0.000000 -0.000000 0.000000 
0.000000 0.000000 0.000000 

0.000000 -0.000000 0.000000 
0.000000 -0.000000 0.000000 
0.000000 0.000000 0.000000 

0.000000 -0.000000 0.000000 
0.000000 -0.000000 0.000000 
0.000000 0.000000 0.000000 

0.000000 0.000000 0.000000 
0.000000 -0.000000 0.000000 
0.000000 0.000000 0.000000 

0.000000 -0.000000 0.000000 
0.000000 -0.000000 0.000000 
0.000000 0.000000 0.000000 

0.000000 -0.000000 0.000000 
0.000000 0.000000 0.000000 
0.000000 0.000000 0.000000 

-0.000000 0.000000 0.000000 
0.000000 0.000000 0.000000 
0.000000 0.000000 0.000000 

-0.000000 -0.000000 0.000000 
0.000000 0.000000 0.000000 
0.000000 0.000000 0.000000 

-0.000000 -0.000000 0.000000 
0.000000 0.000000 0.000000 
0.000000 0.000000 0.000000 

