# vtk DataFile Version 3.0 
vtk output 
ASCII 
DATASET UNSTRUCTURED_GRID 
POINTS 175 float 
-0.026061 -0.359818 0.000000 
-0.106992 -0.291762 0.000000 
-0.054870 -0.299995 0.000000 
-0.028809 -0.254111 0.000000 
-0.186430 -0.227687 0.000000 
-0.137056 -0.230213 0.000000 
-0.114311 -0.176566 0.000000 
-0.058186 -0.192231 0.000000 
-0.029377 -0.152054 0.000000 
-0.265318 -0.164531 0.000000 
-0.217198 -0.165331 0.000000 
-0.196633 -0.108034 0.000000 
-0.143120 -0.116743 0.000000 
-0.116563 -0.069474 0.000000 
-0.058945 -0.089120 0.000000 
-0.029568 -0.051000 0.000000 
-0.344206 -0.101375 0.000000 
-0.296791 -0.101368 0.000000 
-0.278030 -0.041425 0.000000 
-0.225992 -0.047292 0.000000 
-0.201664 0.004825 0.000000 
-0.145749 -0.008649 0.000000 
-0.117890 0.035694 0.000000 
-0.059328 0.012988 0.000000 
-0.029759 0.050054 0.000000 
-0.058559 -0.400568 0.000000 
-0.162226 -0.421411 0.000000 
-0.123292 -0.385793 0.000000 
-0.142917 -0.336810 0.000000 
-0.261851 -0.443568 0.000000 
-0.229092 -0.406540 0.000000 
-0.256854 -0.355309 0.000000 
-0.209613 -0.321196 0.000000 
-0.223062 -0.273622 0.000000 
-0.360414 -0.465868 0.000000 
-0.329787 -0.428745 0.000000 
-0.361761 -0.376943 0.000000 
-0.321587 -0.340534 0.000000 
-0.341985 -0.290300 0.000000 
-0.290702 -0.257501 0.000000 
-0.302189 -0.210766 0.000000 
-0.458977 -0.488168 0.000000 
-0.429420 -0.451093 0.000000 
-0.464588 -0.399051 0.000000 
-0.427556 -0.362024 0.000000 
-0.453135 -0.310509 0.000000 
-0.407738 -0.275194 0.000000 
-0.425037 -0.225766 0.000000 
-0.370772 -0.194137 0.000000 
-0.381315 -0.147909 0.000000 
-0.046960 -0.451384 0.000000 
-0.095301 -0.545430 0.000000 
-0.098873 -0.492782 0.000000 
-0.149405 -0.477585 0.000000 
-0.140093 -0.637134 0.000000 
-0.148617 -0.588435 0.000000 
-0.205981 -0.578198 0.000000 
-0.203197 -0.519995 0.000000 
-0.248777 -0.500848 0.000000 
-0.184111 -0.728097 0.000000 
-0.194039 -0.681006 0.000000 
-0.254475 -0.673707 0.000000 
-0.257893 -0.619597 0.000000 
-0.309886 -0.604224 0.000000 
-0.303554 -0.543679 0.000000 
-0.347255 -0.523521 0.000000 
-0.228129 -0.819061 0.000000 
-0.238687 -0.772837 0.000000 
-0.301302 -0.767885 0.000000 
-0.307162 -0.715846 0.000000 
-0.363386 -0.703725 0.000000 
-0.362692 -0.646213 0.000000 
-0.412122 -0.628920 0.000000 
-0.403017 -0.566773 0.000000 
-0.445733 -0.546195 0.000000 
-0.000000 -0.473999 0.000000 
0.043388 -0.570429 0.000000 
-0.000000 -0.540397 0.000000 
-0.043388 -0.570429 0.000000 
0.087158 -0.662626 0.000000 
0.043769 -0.638927 0.000000 
-0.000000 -0.677393 0.000000 
-0.043769 -0.638927 0.000000 
-0.087158 -0.662626 0.000000 
0.130831 -0.753756 0.000000 
0.087824 -0.732157 0.000000 
0.044436 -0.774857 0.000000 
-0.000000 -0.743791 0.000000 
-0.044436 -0.774857 0.000000 
-0.087824 -0.732157 0.000000 
-0.130831 -0.753756 0.000000 
0.174505 -0.844885 0.000000 
0.131782 -0.824319 0.000000 
0.088871 -0.870186 0.000000 
0.044532 -0.842322 0.000000 
-0.000000 -0.878722 0.000000 
-0.044532 -0.842322 0.000000 
-0.088871 -0.870186 0.000000 
-0.131782 -0.824319 0.000000 
-0.174505 -0.844885 0.000000 
0.046960 -0.451384 0.000000 
0.149405 -0.477585 0.000000 
0.098873 -0.492782 0.000000 
0.095301 -0.545430 0.000000 
0.248777 -0.500848 0.000000 
0.203197 -0.519995 0.000000 
0.205981 -0.578198 0.000000 
0.148617 -0.588435 0.000000 
0.140093 -0.637134 0.000000 
0.347255 -0.523521 0.000000 
0.303554 -0.543679 0.000000 
0.309886 -0.604224 0.000000 
0.257893 -0.619597 0.000000 
0.254475 -0.673707 0.000000 
0.194039 -0.681006 0.000000 
0.184111 -0.728097 0.000000 
0.445733 -0.546195 0.000000 
0.403017 -0.566773 0.000000 
0.412122 -0.628920 0.000000 
0.362692 -0.646213 0.000000 
0.363386 -0.703725 0.000000 
0.307162 -0.715846 0.000000 
0.301302 -0.767885 0.000000 
0.238687 -0.772837 0.000000 
0.228129 -0.819061 0.000000 
0.058559 -0.400568 0.000000 
0.142917 -0.336810 0.000000 
0.123292 -0.385793 0.000000 
0.162226 -0.421411 0.000000 
0.223062 -0.273622 0.000000 
0.209613 -0.321196 0.000000 
0.256854 -0.355309 0.000000 
0.229092 -0.406540 0.000000 
0.261851 -0.443568 0.000000 
0.302189 -0.210766 0.000000 
0.290702 -0.257501 0.000000 
0.341985 -0.290300 0.000000 
0.321587 -0.340534 0.000000 
0.361761 -0.376943 0.000000 
0.329787 -0.428745 0.000000 
0.360414 -0.465868 0.000000 
0.381315 -0.147909 0.000000 
0.370772 -0.194137 0.000000 
0.425037 -0.225766 0.000000 
0.407738 -0.275194 0.000000 
0.453135 -0.310509 0.000000 
0.427556 -0.362024 0.000000 
0.464588 -0.399051 0.000000 
0.429420 -0.451093 0.000000 
0.458977 -0.488168 0.000000 
0.026061 -0.359818 0.000000 
0.028809 -0.254111 0.000000 
0.054870 -0.299995 0.000000 
0.106992 -0.291762 0.000000 
0.029377 -0.152054 0.000000 
0.058186 -0.192231 0.000000 
0.114311 -0.176566 0.000000 
0.137056 -0.230213 0.000000 
0.186430 -0.227687 0.000000 
0.029568 -0.051000 0.000000 
0.058945 -0.089120 0.000000 
0.116563 -0.069474 0.000000 
0.143120 -0.116743 0.000000 
0.196633 -0.108034 0.000000 
0.217198 -0.165331 0.000000 
0.265318 -0.164531 0.000000 
0.029759 0.050054 0.000000 
0.059328 0.012988 0.000000 
0.117890 0.035694 0.000000 
0.145749 -0.008649 0.000000 
0.201664 0.004825 0.000000 
0.225992 -0.047292 0.000000 
0.278030 -0.041425 0.000000 
0.296791 -0.101368 0.000000 
0.344206 -0.101375 0.000000 
CELLS 175 350 
1 0 
1 1 
1 2 
1 3 
1 4 
1 5 
1 6 
1 7 
1 8 
1 9 
1 10 
1 11 
1 12 
1 13 
1 14 
1 15 
1 16 
1 17 
1 18 
1 19 
1 20 
1 21 
1 22 
1 23 
1 24 
1 25 
1 26 
1 27 
1 28 
1 29 
1 30 
1 31 
1 32 
1 33 
1 34 
1 35 
1 36 
1 37 
1 38 
1 39 
1 40 
1 41 
1 42 
1 43 
1 44 
1 45 
1 46 
1 47 
1 48 
1 49 
1 50 
1 51 
1 52 
1 53 
1 54 
1 55 
1 56 
1 57 
1 58 
1 59 
1 60 
1 61 
1 62 
1 63 
1 64 
1 65 
1 66 
1 67 
1 68 
1 69 
1 70 
1 71 
1 72 
1 73 
1 74 
1 75 
1 76 
1 77 
1 78 
1 79 
1 80 
1 81 
1 82 
1 83 
1 84 
1 85 
1 86 
1 87 
1 88 
1 89 
1 90 
1 91 
1 92 
1 93 
1 94 
1 95 
1 96 
1 97 
1 98 
1 99 
1 100 
1 101 
1 102 
1 103 
1 104 
1 105 
1 106 
1 107 
1 108 
1 109 
1 110 
1 111 
1 112 
1 113 
1 114 
1 115 
1 116 
1 117 
1 118 
1 119 
1 120 
1 121 
1 122 
1 123 
1 124 
1 125 
1 126 
1 127 
1 128 
1 129 
1 130 
1 131 
1 132 
1 133 
1 134 
1 135 
1 136 
1 137 
1 138 
1 139 
1 140 
1 141 
1 142 
1 143 
1 144 
1 145 
1 146 
1 147 
1 148 
1 149 
1 150 
1 151 
1 152 
1 153 
1 154 
1 155 
1 156 
1 157 
1 158 
1 159 
1 160 
1 161 
1 162 
1 163 
1 164 
1 165 
1 166 
1 167 
1 168 
1 169 
1 170 
1 171 
1 172 
1 173 
1 174 
CELL_TYPES 175 
1 
1 
1 
1 
1 
1 
1 
1 
1 
1 
1 
1 
1 
1 
1 
1 
1 
1 
1 
1 
1 
1 
1 
1 
1 
1 
1 
1 
1 
1 
1 
1 
1 
1 
1 
1 
1 
1 
1 
1 
1 
1 
1 
1 
1 
1 
1 
1 
1 
1 
1 
1 
1 
1 
1 
1 
1 
1 
1 
1 
1 
1 
1 
1 
1 
1 
1 
1 
1 
1 
1 
1 
1 
1 
1 
1 
1 
1 
1 
1 
1 
1 
1 
1 
1 
1 
1 
1 
1 
1 
1 
1 
1 
1 
1 
1 
1 
1 
1 
1 
1 
1 
1 
1 
1 
1 
1 
1 
1 
1 
1 
1 
1 
1 
1 
1 
1 
1 
1 
1 
1 
1 
1 
1 
1 
1 
1 
1 
1 
1 
1 
1 
1 
1 
1 
1 
1 
1 
1 
1 
1 
1 
1 
1 
1 
1 
1 
1 
1 
1 
1 
1 
1 
1 
1 
1 
1 
1 
1 
1 
1 
1 
1 
1 
1 
1 
1 
1 
1 
1 
1 
1 
1 
1 
1 
POINT_DATA 175 
VECTORS X_GC float 
-0.026061 -0.359818 0.000000 
-0.106992 -0.291762 0.000000 
-0.054870 -0.299995 0.000000 
-0.028809 -0.254111 0.000000 
-0.186430 -0.227687 0.000000 
-0.137056 -0.230213 0.000000 
-0.114311 -0.176566 0.000000 
-0.058186 -0.192231 0.000000 
-0.029377 -0.152054 0.000000 
-0.265318 -0.164531 0.000000 
-0.217198 -0.165331 0.000000 
-0.196633 -0.108034 0.000000 
-0.143120 -0.116743 0.000000 
-0.116563 -0.069474 0.000000 
-0.058945 -0.089120 0.000000 
-0.029568 -0.051000 0.000000 
-0.344206 -0.101375 0.000000 
-0.296791 -0.101368 0.000000 
-0.278030 -0.041425 0.000000 
-0.225992 -0.047292 0.000000 
-0.201664 0.004825 0.000000 
-0.145749 -0.008649 0.000000 
-0.117890 0.035694 0.000000 
-0.059328 0.012988 0.000000 
-0.029759 0.050054 0.000000 
-0.058559 -0.400568 0.000000 
-0.162226 -0.421411 0.000000 
-0.123292 -0.385793 0.000000 
-0.142917 -0.336810 0.000000 
-0.261851 -0.443568 0.000000 
-0.229092 -0.406540 0.000000 
-0.256854 -0.355309 0.000000 
-0.209613 -0.321196 0.000000 
-0.223062 -0.273622 0.000000 
-0.360414 -0.465868 0.000000 
-0.329787 -0.428745 0.000000 
-0.361761 -0.376943 0.000000 
-0.321587 -0.340534 0.000000 
-0.341985 -0.290300 0.000000 
-0.290702 -0.257501 0.000000 
-0.302189 -0.210766 0.000000 
-0.458977 -0.488168 0.000000 
-0.429420 -0.451093 0.000000 
-0.464588 -0.399051 0.000000 
-0.427556 -0.362024 0.000000 
-0.453135 -0.310509 0.000000 
-0.407738 -0.275194 0.000000 
-0.425037 -0.225766 0.000000 
-0.370772 -0.194137 0.000000 
-0.381315 -0.147909 0.000000 
-0.046960 -0.451384 0.000000 
-0.095301 -0.545430 0.000000 
-0.098873 -0.492782 0.000000 
-0.149405 -0.477585 0.000000 
-0.140093 -0.637134 0.000000 
-0.148617 -0.588435 0.000000 
-0.205981 -0.578198 0.000000 
-0.203197 -0.519995 0.000000 
-0.248777 -0.500848 0.000000 
-0.184111 -0.728097 0.000000 
-0.194039 -0.681006 0.000000 
-0.254475 -0.673707 0.000000 
-0.257893 -0.619597 0.000000 
-0.309886 -0.604224 0.000000 
-0.303554 -0.543679 0.000000 
-0.347255 -0.523521 0.000000 
-0.228129 -0.819061 0.000000 
-0.238687 -0.772837 0.000000 
-0.301302 -0.767885 0.000000 
-0.307162 -0.715846 0.000000 
-0.363386 -0.703725 0.000000 
-0.362692 -0.646213 0.000000 
-0.412122 -0.628920 0.000000 
-0.403017 -0.566773 0.000000 
-0.445733 -0.546195 0.000000 
-0.000000 -0.473999 0.000000 
0.043388 -0.570429 0.000000 
-0.000000 -0.540397 0.000000 
-0.043388 -0.570429 0.000000 
0.087158 -0.662626 0.000000 
0.043769 -0.638927 0.000000 
-0.000000 -0.677393 0.000000 
-0.043769 -0.638927 0.000000 
-0.087158 -0.662626 0.000000 
0.130831 -0.753756 0.000000 
0.087824 -0.732157 0.000000 
0.044436 -0.774857 0.000000 
-0.000000 -0.743791 0.000000 
-0.044436 -0.774857 0.000000 
-0.087824 -0.732157 0.000000 
-0.130831 -0.753756 0.000000 
0.174505 -0.844885 0.000000 
0.131782 -0.824319 0.000000 
0.088871 -0.870186 0.000000 
0.044532 -0.842322 0.000000 
-0.000000 -0.878722 0.000000 
-0.044532 -0.842322 0.000000 
-0.088871 -0.870186 0.000000 
-0.131782 -0.824319 0.000000 
-0.174505 -0.844885 0.000000 
0.046960 -0.451384 0.000000 
0.149405 -0.477585 0.000000 
0.098873 -0.492782 0.000000 
0.095301 -0.545430 0.000000 
0.248777 -0.500848 0.000000 
0.203197 -0.519995 0.000000 
0.205981 -0.578198 0.000000 
0.148617 -0.588435 0.000000 
0.140093 -0.637134 0.000000 
0.347255 -0.523521 0.000000 
0.303554 -0.543679 0.000000 
0.309886 -0.604224 0.000000 
0.257893 -0.619597 0.000000 
0.254475 -0.673707 0.000000 
0.194039 -0.681006 0.000000 
0.184111 -0.728097 0.000000 
0.445733 -0.546195 0.000000 
0.403017 -0.566773 0.000000 
0.412122 -0.628920 0.000000 
0.362692 -0.646213 0.000000 
0.363386 -0.703725 0.000000 
0.307162 -0.715846 0.000000 
0.301302 -0.767885 0.000000 
0.238687 -0.772837 0.000000 
0.228129 -0.819061 0.000000 
0.058559 -0.400568 0.000000 
0.142917 -0.336810 0.000000 
0.123292 -0.385793 0.000000 
0.162226 -0.421411 0.000000 
0.223062 -0.273622 0.000000 
0.209613 -0.321196 0.000000 
0.256854 -0.355309 0.000000 
0.229092 -0.406540 0.000000 
0.261851 -0.443568 0.000000 
0.302189 -0.210766 0.000000 
0.290702 -0.257501 0.000000 
0.341985 -0.290300 0.000000 
0.321587 -0.340534 0.000000 
0.361761 -0.376943 0.000000 
0.329787 -0.428745 0.000000 
0.360414 -0.465868 0.000000 
0.381315 -0.147909 0.000000 
0.370772 -0.194137 0.000000 
0.425037 -0.225766 0.000000 
0.407738 -0.275194 0.000000 
0.453135 -0.310509 0.000000 
0.427556 -0.362024 0.000000 
0.464588 -0.399051 0.000000 
0.429420 -0.451093 0.000000 
0.458977 -0.488168 0.000000 
0.026061 -0.359818 0.000000 
0.028809 -0.254111 0.000000 
0.054870 -0.299995 0.000000 
0.106992 -0.291762 0.000000 
0.029377 -0.152054 0.000000 
0.058186 -0.192231 0.000000 
0.114311 -0.176566 0.000000 
0.137056 -0.230213 0.000000 
0.186430 -0.227687 0.000000 
0.029568 -0.051000 0.000000 
0.058945 -0.089120 0.000000 
0.116563 -0.069474 0.000000 
0.143120 -0.116743 0.000000 
0.196633 -0.108034 0.000000 
0.217198 -0.165331 0.000000 
0.265318 -0.164531 0.000000 
0.029759 0.050054 0.000000 
0.059328 0.012988 0.000000 
0.117890 0.035694 0.000000 
0.145749 -0.008649 0.000000 
0.201664 0.004825 0.000000 
0.225992 -0.047292 0.000000 
0.278030 -0.041425 0.000000 
0.296791 -0.101368 0.000000 
0.344206 -0.101375 0.000000 
VECTORS X_EC float 
0.338794 -0.642460 0.000000 
-0.609100 0.438792 0.000000 
0.713312 0.549933 0.000000 
0.374519 -0.069497 0.000000 
0.423588 -0.426227 0.000000 
-0.218274 -0.392124 0.000000 
-0.513962 0.883637 0.000000 
0.756418 -0.904877 0.000000 
0.381900 0.552731 0.000000 
-0.550868 0.721169 0.000000 
0.823577 0.731965 0.000000 
0.556234 -0.041539 0.000000 
-0.139443 0.076030 0.000000 
-0.484677 -0.562095 0.000000 
0.766286 -0.296880 0.000000 
0.384386 -0.811500 0.000000 
0.474677 -0.131434 0.000000 
-0.141715 -0.131530 0.000000 
-0.385608 -0.940758 0.000000 
0.937896 -0.861563 0.000000 
0.621631 0.434857 0.000000 
-0.105264 0.616756 0.000000 
-0.467428 0.018130 0.000000 
0.771260 0.324659 0.000000 
0.386873 -0.175731 0.000000 
0.761262 -0.092325 0.000000 
0.108942 0.189051 0.000000 
-0.397202 -0.291788 0.000000 
-0.142083 -0.953063 0.000000 
-0.595936 0.488162 0.000000 
0.978194 -0.011704 0.000000 
-0.660903 -0.703329 0.000000 
0.724964 0.836151 0.000000 
0.899809 0.193902 0.000000 
0.685384 0.789214 0.000000 
0.287229 0.288056 0.000000 
0.702895 -0.411273 0.000000 
0.180633 -0.902791 0.000000 
0.445811 0.419049 0.000000 
-0.220880 -0.023737 0.000000 
-0.071546 -0.654663 0.000000 
-0.033296 -0.909734 0.000000 
-0.417537 0.589757 0.000000 
0.039645 -0.112806 0.000000 
-0.441768 -0.612677 0.000000 
-0.109248 0.691872 0.000000 
-0.699407 0.215117 0.000000 
-0.474522 -0.452162 0.000000 
0.820030 -0.879156 0.000000 
0.957100 0.496773 0.000000 
0.610485 0.593681 0.000000 
-0.761092 -0.136699 0.000000 
-0.714655 -0.847437 0.000000 
-0.057734 0.947396 0.000000 
-0.178789 -0.898695 0.000000 
-0.067979 0.443879 0.000000 
0.677748 0.305675 0.000000 
0.641556 -0.480070 0.000000 
-0.765897 -0.738549 0.000000 
0.393446 0.329314 0.000000 
0.522510 -0.306416 0.000000 
-0.691820 -0.404960 0.000000 
-0.647393 0.864557 0.000000 
0.028512 0.657030 0.000000 
-0.053800 -0.160330 0.000000 
0.514316 -0.432461 0.000000 
0.965681 -0.442677 0.000000 
-0.897068 0.933294 0.000000 
-0.083078 0.866441 0.000000 
-0.006893 0.163916 0.000000 
0.724017 0.000284 0.000000 
0.714996 -0.776120 0.000000 
-0.642413 0.990423 0.000000 
-0.760780 0.151442 0.000000 
-0.205471 -0.126373 0.000000 
0.000000 0.898983 0.000000 
-0.564049 0.200796 0.000000 
0.000000 -0.204640 0.000000 
0.564049 0.200796 0.000000 
0.866949 -0.554549 0.000000 
-0.569003 -0.874480 0.000000 
0.000000 -0.355192 0.000000 
0.569003 -0.874480 0.000000 
-0.866949 -0.554549 0.000000 
0.299194 0.675701 0.000000 
0.858290 0.384117 0.000000 
-0.577662 0.960563 0.000000 
0.000000 0.541185 0.000000 
0.577662 0.960563 0.000000 
-0.858290 0.384117 0.000000 
-0.299194 0.675701 0.000000 
-0.268560 -0.094049 0.000000 
0.286830 -0.371691 0.000000 
0.844677 0.247508 0.000000 
-0.578910 -0.128655 0.000000 
0.000000 0.362749 0.000000 
0.578910 -0.128655 0.000000 
-0.844677 0.247508 0.000000 
-0.286830 -0.371691 0.000000 
0.268560 -0.094049 0.000000 
-0.610485 0.593681 0.000000 
0.057734 0.947396 0.000000 
0.714655 -0.847437 0.000000 
0.761092 -0.136699 0.000000 
0.765897 -0.738549 0.000000 
-0.641556 -0.480070 0.000000 
-0.677748 0.305675 0.000000 
0.067979 0.443879 0.000000 
0.178789 -0.898695 0.000000 
-0.514316 -0.432461 0.000000 
0.053800 -0.160330 0.000000 
-0.028512 0.657030 0.000000 
0.647393 0.864557 0.000000 
0.691820 -0.404960 0.000000 
-0.522510 -0.306416 0.000000 
-0.393446 0.329314 0.000000 
0.205471 -0.126373 0.000000 
0.760780 0.151442 0.000000 
0.642413 0.990423 0.000000 
-0.714996 -0.776120 0.000000 
-0.724017 0.000284 0.000000 
0.006894 0.163916 0.000000 
0.083078 0.866441 0.000000 
0.897068 0.933294 0.000000 
-0.965681 -0.442677 0.000000 
-0.761262 -0.092325 0.000000 
0.142083 -0.953063 0.000000 
0.397202 -0.291788 0.000000 
-0.108942 0.189051 0.000000 
-0.899809 0.193902 0.000000 
-0.724964 0.836151 0.000000 
0.660903 -0.703329 0.000000 
-0.978194 -0.011704 0.000000 
0.595936 0.488162 0.000000 
0.071546 -0.654662 0.000000 
0.220880 -0.023737 0.000000 
-0.445811 0.419049 0.000000 
-0.180633 -0.902791 0.000000 
-0.702895 -0.411273 0.000000 
-0.287229 0.288056 0.000000 
-0.685384 0.789214 0.000000 
-0.957100 0.496773 0.000000 
-0.820030 -0.879156 0.000000 
0.474522 -0.452162 0.000000 
0.699407 0.215117 0.000000 
0.109248 0.691872 0.000000 
0.441768 -0.612677 0.000000 
-0.039645 -0.112806 0.000000 
0.417537 0.589757 0.000000 
0.033296 -0.909734 0.000000 
-0.338794 -0.642460 0.000000 
-0.374519 -0.069497 0.000000 
-0.713312 0.549933 0.000000 
0.609100 0.438792 0.000000 
-0.381900 0.552731 0.000000 
-0.756418 -0.904877 0.000000 
0.513962 0.883637 0.000000 
0.218274 -0.392124 0.000000 
-0.423588 -0.426227 0.000000 
-0.384386 -0.811500 0.000000 
-0.766286 -0.296880 0.000000 
0.484677 -0.562095 0.000000 
0.139443 0.076030 0.000000 
-0.556234 -0.041539 0.000000 
-0.823577 0.731965 0.000000 
0.550868 0.721169 0.000000 
-0.386873 -0.175731 0.000000 
-0.771260 0.324659 0.000000 
0.467428 0.018130 0.000000 
0.105264 0.616756 0.000000 
-0.621631 0.434857 0.000000 
-0.937896 -0.861563 0.000000 
0.385608 -0.940758 0.000000 
0.141715 -0.131530 0.000000 
-0.474677 -0.131434 0.000000 
CELL_DATA 175 
SCALARS MASS float 
LOOKUP_TABLE default 
0.781831 
0.864274 
0.946717 
0.864274 
0.881307 
0.921110 
0.858535 
0.921110 
0.881307 
0.887046 
0.910001 
0.869829 
0.915556 
0.869829 
0.910001 
0.887046 
0.892784 
0.915740 
0.892784 
0.927218 
0.892784 
0.927218 
0.892784 
0.915740 
0.892784 
0.781831 
0.864274 
0.946717 
0.864274 
0.881307 
0.921110 
0.858535 
0.921110 
0.881307 
0.887046 
0.910001 
0.869829 
0.915556 
0.869829 
0.910001 
0.887046 
0.892784 
0.915740 
0.892784 
0.927218 
0.892784 
0.927218 
0.892784 
0.915740 
0.892784 
0.781831 
0.864274 
0.946717 
0.864274 
0.881307 
0.921110 
0.858535 
0.921110 
0.881307 
0.887046 
0.910001 
0.869829 
0.915556 
0.869829 
0.910001 
0.887046 
0.892784 
0.915740 
0.892784 
0.927218 
0.892784 
0.927218 
0.892784 
0.915740 
0.892784 
0.781831 
0.864274 
0.946717 
0.864274 
0.881307 
0.921110 
0.858535 
0.921110 
0.881307 
0.887046 
0.910001 
0.869829 
0.915556 
0.869829 
0.910001 
0.887046 
0.892784 
0.915740 
0.892784 
0.927218 
0.892784 
0.927218 
0.892784 
0.915740 
0.892784 
0.781831 
0.864274 
0.946717 
0.864274 
0.881307 
0.921110 
0.858535 
0.921110 
0.881307 
0.887046 
0.910001 
0.869829 
0.915556 
0.869829 
0.910001 
0.887046 
0.892784 
0.915740 
0.892784 
0.927218 
0.892784 
0.927218 
0.892784 
0.915740 
0.892784 
0.781831 
0.864274 
0.946717 
0.864274 
0.881307 
0.921110 
0.858535 
0.921110 
0.881307 
0.887046 
0.910001 
0.869829 
0.915556 
0.869829 
0.910001 
0.887046 
0.892784 
0.915740 
0.892784 
0.927218 
0.892784 
0.927218 
0.892784 
0.915740 
0.892784 
0.781831 
0.864274 
0.946717 
0.864274 
0.881307 
0.921110 
0.858535 
0.921110 
0.881307 
0.887046 
0.910001 
0.869829 
0.915556 
0.869829 
0.910001 
0.887046 
0.892784 
0.915740 
0.892784 
0.927218 
0.892784 
0.927218 
0.892784 
0.915740 
0.892784 
SCALARS MASS float 
LOOKUP_TABLE default 
0.781831 
0.864274 
0.946717 
0.864274 
0.881307 
0.921110 
0.858535 
0.921110 
0.881307 
0.887046 
0.910001 
0.869829 
0.915556 
0.869829 
0.910001 
0.887046 
0.892784 
0.915740 
0.892784 
0.927218 
0.892784 
0.927218 
0.892784 
0.915740 
0.892784 
0.781831 
0.864274 
0.946717 
0.864274 
0.881307 
0.921110 
0.858535 
0.921110 
0.881307 
0.887046 
0.910001 
0.869829 
0.915556 
0.869829 
0.910001 
0.887046 
0.892784 
0.915740 
0.892784 
0.927218 
0.892784 
0.927218 
0.892784 
0.915740 
0.892784 
0.781831 
0.864274 
0.946717 
0.864274 
0.881307 
0.921110 
0.858535 
0.921110 
0.881307 
0.887046 
0.910001 
0.869829 
0.915556 
0.869829 
0.910001 
0.887046 
0.892784 
0.915740 
0.892784 
0.927218 
0.892784 
0.927218 
0.892784 
0.915740 
0.892784 
0.781831 
0.864274 
0.946717 
0.864274 
0.881307 
0.921110 
0.858535 
0.921110 
0.881307 
0.887046 
0.910001 
0.869829 
0.915556 
0.869829 
0.910001 
0.887046 
0.892784 
0.915740 
0.892784 
0.927218 
0.892784 
0.927218 
0.892784 
0.915740 
0.892784 
0.781831 
0.864274 
0.946717 
0.864274 
0.881307 
0.921110 
0.858535 
0.921110 
0.881307 
0.887046 
0.910001 
0.869829 
0.915556 
0.869829 
0.910001 
0.887046 
0.892784 
0.915740 
0.892784 
0.927218 
0.892784 
0.927218 
0.892784 
0.915740 
0.892784 
0.781831 
0.864274 
0.946717 
0.864274 
0.881307 
0.921110 
0.858535 
0.921110 
0.881307 
0.887046 
0.910001 
0.869829 
0.915556 
0.869829 
0.910001 
0.887046 
0.892784 
0.915740 
0.892784 
0.927218 
0.892784 
0.927218 
0.892784 
0.915740 
0.892784 
0.781831 
0.864274 
0.946717 
0.864274 
0.881307 
0.921110 
0.858535 
0.921110 
0.881307 
0.887046 
0.910001 
0.869829 
0.915556 
0.869829 
0.910001 
0.887046 
0.892784 
0.915740 
0.892784 
0.927218 
0.892784 
0.927218 
0.892784 
0.915740 
0.892784 
SCALARS DENSITY float 
LOOKUP_TABLE default 
200.000000 
200.000000 
200.000000 
200.000000 
200.000000 
200.000000 
200.000000 
200.000000 
200.000000 
200.000000 
200.000000 
200.000000 
200.000000 
200.000000 
200.000000 
200.000000 
200.000000 
200.000000 
200.000000 
200.000000 
200.000000 
200.000000 
200.000000 
200.000000 
200.000000 
200.000000 
200.000000 
200.000000 
200.000000 
200.000000 
200.000000 
200.000000 
200.000000 
200.000000 
200.000000 
200.000000 
200.000000 
200.000000 
200.000000 
200.000000 
200.000000 
200.000000 
200.000000 
200.000000 
200.000000 
200.000000 
200.000000 
200.000000 
200.000000 
200.000000 
200.000000 
200.000000 
200.000000 
200.000000 
200.000000 
200.000000 
200.000000 
200.000000 
200.000000 
200.000000 
200.000000 
200.000000 
200.000000 
200.000000 
200.000000 
200.000000 
200.000000 
200.000000 
200.000000 
200.000000 
200.000000 
200.000000 
200.000000 
200.000000 
200.000000 
200.000000 
200.000000 
200.000000 
200.000000 
200.000000 
200.000000 
200.000000 
200.000000 
200.000000 
200.000000 
200.000000 
200.000000 
200.000000 
200.000000 
200.000000 
200.000000 
200.000000 
200.000000 
200.000000 
200.000000 
200.000000 
200.000000 
200.000000 
200.000000 
200.000000 
200.000000 
200.000000 
200.000000 
200.000000 
200.000000 
200.000000 
200.000000 
200.000000 
200.000000 
200.000000 
200.000000 
200.000000 
200.000000 
200.000000 
200.000000 
200.000000 
200.000000 
200.000000 
200.000000 
200.000000 
200.000000 
200.000000 
200.000000 
200.000000 
200.000000 
200.000000 
200.000000 
200.000000 
200.000000 
200.000000 
200.000000 
200.000000 
200.000000 
200.000000 
200.000000 
200.000000 
200.000000 
200.000000 
200.000000 
200.000000 
200.000000 
200.000000 
200.000000 
200.000000 
200.000000 
200.000000 
200.000000 
200.000000 
200.000000 
200.000000 
200.000000 
200.000000 
200.000000 
200.000000 
200.000000 
200.000000 
200.000000 
200.000000 
200.000000 
200.000000 
200.000000 
200.000000 
200.000000 
200.000000 
200.000000 
200.000000 
200.000000 
200.000000 
200.000000 
200.000000 
200.000000 
200.000000 
200.000000 
200.000000 
200.000000 
SCALARS ELEM_i float 
LOOKUP_TABLE default 
179 
207 
180 
180 
207 
207 
208 
180 
181 
235 
208 
208 
208 
208 
181 
181 
235 
235 
235 
208 
209 
209 
209 
182 
182 
179 
206 
206 
206 
233 
206 
233 
207 
207 
233 
233 
233 
233 
234 
234 
234 
259 
260 
260 
260 
261 
261 
261 
234 
235 
179 
205 
205 
206 
204 
205 
205 
205 
232 
204 
204 
231 
232 
232 
232 
232 
203 
231 
231 
231 
231 
231 
259 
259 
259 
179 
178 
178 
178 
150 
177 
177 
177 
204 
150 
150 
177 
177 
177 
204 
204 
149 
149 
149 
176 
176 
176 
203 
203 
203 
179 
152 
151 
151 
124 
151 
151 
151 
150 
124 
124 
124 
124 
123 
150 
150 
97 
97 
97 
123 
123 
123 
123 
123 
149 
179 
152 
152 
152 
153 
153 
125 
152 
125 
126 
126 
126 
125 
125 
125 
125 
127 
126 
99 
99 
99 
98 
98 
98 
97 
179 
180 
180 
153 
181 
180 
154 
153 
153 
181 
181 
154 
154 
154 
154 
127 
182 
182 
155 
155 
155 
154 
127 
127 
127 
VECTORS VELOCITY float 
0.000000 -2.848824 0.000000 
0.000000 -2.848824 0.000000 
0.000000 -2.848824 0.000000 
0.000000 -2.848824 0.000000 
0.000000 -2.848824 0.000000 
0.000000 -2.848824 0.000000 
0.000000 -2.848824 0.000000 
0.000000 -2.848824 0.000000 
-0.000000 -2.848824 0.000000 
0.000000 -2.848824 0.000000 
0.000000 -2.848824 0.000000 
0.000000 -2.848824 0.000000 
0.000000 -2.848824 0.000000 
0.000000 -2.848824 0.000000 
0.000000 -2.848824 0.000000 
0.000000 -2.848824 0.000000 
-0.000000 -2.848824 0.000000 
0.000000 -2.848824 0.000000 
0.000000 -2.848824 0.000000 
-0.000000 -2.848824 0.000000 
0.000000 -2.848824 0.000000 
0.000000 -2.848824 0.000000 
0.000000 -2.848824 0.000000 
-0.000000 -2.848824 0.000000 
-0.000000 -2.848824 0.000000 
0.000000 -2.848824 0.000000 
0.000000 -2.848824 0.000000 
0.000000 -2.848824 0.000000 
0.000000 -2.848824 0.000000 
-0.000000 -2.848824 0.000000 
-0.000000 -2.848824 0.000000 
-0.000000 -2.848824 0.000000 
-0.000000 -2.848824 0.000000 
-0.000000 -2.848824 0.000000 
-0.000000 -2.848824 0.000000 
-0.000000 -2.848824 0.000000 
0.000000 -2.848824 0.000000 
0.000000 -2.848824 0.000000 
0.000000 -2.848824 0.000000 
0.000000 -2.848824 0.000000 
0.000000 -2.848824 0.000000 
-0.000000 -2.848824 0.000000 
0.000000 -2.848824 0.000000 
0.000000 -2.848824 0.000000 
0.000000 -2.848824 0.000000 
0.000000 -2.848824 0.000000 
0.000000 -2.848824 0.000000 
0.000000 -2.848824 0.000000 
0.000000 -2.848824 0.000000 
-0.000000 -2.848824 0.000000 
0.000000 -2.848824 0.000000 
-0.000000 -2.848824 0.000000 
0.000000 -2.848824 0.000000 
0.000000 -2.848824 0.000000 
-0.000000 -2.848824 0.000000 
0.000000 -2.848824 0.000000 
0.000000 -2.848824 0.000000 
0.000000 -2.848824 0.000000 
-0.000000 -2.848824 0.000000 
-0.000000 -2.848824 0.000000 
0.000000 -2.848824 0.000000 
0.000000 -2.848824 0.000000 
0.000000 -2.848824 0.000000 
0.000000 -2.848824 0.000000 
0.000000 -2.848824 0.000000 
-0.000000 -2.848824 0.000000 
-0.000000 -2.848824 0.000000 
-0.000000 -2.848824 0.000000 
-0.000000 -2.848824 0.000000 
0.000000 -2.848824 0.000000 
0.000000 -2.848824 0.000000 
0.000000 -2.848824 0.000000 
0.000000 -2.848824 0.000000 
0.000000 -2.848824 0.000000 
-0.000000 -2.848824 0.000000 
0.000000 -2.848824 0.000000 
0.000000 -2.848824 0.000000 
0.000000 -2.848824 0.000000 
-0.000000 -2.848824 0.000000 
-0.000000 -2.848824 0.000000 
-0.000000 -2.848824 0.000000 
-0.000000 -2.848824 0.000000 
-0.000000 -2.848824 0.000000 
-0.000000 -2.848824 0.000000 
-0.000000 -2.848824 0.000000 
-0.000000 -2.848824 0.000000 
-0.000000 -2.848824 0.000000 
-0.000000 -2.848824 0.000000 
-0.000000 -2.848824 0.000000 
-0.000000 -2.848824 0.000000 
-0.000000 -2.848824 0.000000 
-0.000000 -2.848824 0.000000 
0.000000 -2.848824 0.000000 
-0.000000 -2.848824 0.000000 
0.000000 -2.848824 0.000000 
-0.000000 -2.848824 0.000000 
0.000000 -2.848824 0.000000 
0.000000 -2.848824 0.000000 
-0.000000 -2.848824 0.000000 
-0.000000 -2.848824 0.000000 
0.000000 -2.848824 0.000000 
0.000000 -2.848824 0.000000 
0.000000 -2.848824 0.000000 
0.000000 -2.848824 0.000000 
0.000000 -2.848824 0.000000 
0.000000 -2.848824 0.000000 
0.000000 -2.848824 0.000000 
0.000000 -2.848824 0.000000 
-0.000000 -2.848824 0.000000 
-0.000000 -2.848824 0.000000 
-0.000000 -2.848824 0.000000 
-0.000000 -2.848824 0.000000 
-0.000000 -2.848824 0.000000 
-0.000000 -2.848824 0.000000 
-0.000000 -2.848824 0.000000 
-0.000000 -2.848824 0.000000 
-0.000000 -2.848824 0.000000 
-0.000000 -2.848824 0.000000 
-0.000000 -2.848824 0.000000 
-0.000000 -2.848824 0.000000 
-0.000000 -2.848824 0.000000 
-0.000000 -2.848824 0.000000 
-0.000000 -2.848824 0.000000 
-0.000000 -2.848824 0.000000 
-0.000000 -2.848824 0.000000 
0.000000 -2.848824 0.000000 
-0.000000 -2.848824 0.000000 
0.000000 -2.848824 0.000000 
0.000000 -2.848824 0.000000 
0.000000 -2.848824 0.000000 
-0.000000 -2.848824 0.000000 
-0.000000 -2.848824 0.000000 
-0.000000 -2.848824 0.000000 
-0.000000 -2.848824 0.000000 
0.000000 -2.848824 0.000000 
-0.000000 -2.848824 0.000000 
-0.000000 -2.848824 0.000000 
-0.000000 -2.848824 0.000000 
-0.000000 -2.848824 0.000000 
-0.000000 -2.848824 0.000000 
-0.000000 -2.848824 0.000000 
0.000000 -2.848824 0.000000 
-0.000000 -2.848824 0.000000 
-0.000000 -2.848824 0.000000 
-0.000000 -2.848824 0.000000 
-0.000000 -2.848824 0.000000 
-0.000000 -2.848824 0.000000 
-0.000000 -2.848824 0.000000 
-0.000000 -2.848824 0.000000 
-0.000000 -2.848824 0.000000 
0.000000 -2.848824 0.000000 
-0.000000 -2.848824 0.000000 
-0.000000 -2.848824 0.000000 
-0.000000 -2.848824 0.000000 
-0.000000 -2.848824 0.000000 
-0.000000 -2.848824 0.000000 
-0.000000 -2.848824 0.000000 
-0.000000 -2.848824 0.000000 
0.000000 -2.848824 0.000000 
0.000000 -2.848824 0.000000 
0.000000 -2.848824 0.000000 
-0.000000 -2.848824 0.000000 
-0.000000 -2.848824 0.000000 
-0.000000 -2.848824 0.000000 
0.000000 -2.848824 0.000000 
0.000000 -2.848824 0.000000 
0.000000 -2.848824 0.000000 
0.000000 -2.848824 0.000000 
0.000000 -2.848824 0.000000 
0.000000 -2.848824 0.000000 
0.000000 -2.848824 0.000000 
-0.000000 -2.848824 0.000000 
0.000000 -2.848824 0.000000 
-0.000000 -2.848824 0.000000 
-0.000000 -2.848824 0.000000 
TENSORS STRESS float 
0.000000 -0.000000 0.000000 
0.000000 0.000000 0.000000 
0.000000 0.000000 0.000000 

-0.000000 0.000000 0.000000 
0.000000 -0.000000 0.000000 
0.000000 0.000000 0.000000 

0.000000 -0.000000 0.000000 
0.000000 0.000000 0.000000 
0.000000 0.000000 0.000000 

0.000000 -0.000000 0.000000 
0.000000 0.000000 0.000000 
0.000000 0.000000 0.000000 

0.000000 0.000000 0.000000 
0.000000 0.000000 0.000000 
0.000000 0.000000 0.000000 

-0.000000 0.000000 0.000000 
0.000000 -0.000000 0.000000 
0.000000 0.000000 0.000000 

-0.000000 -0.000000 0.000000 
0.000000 -0.000000 0.000000 
0.000000 0.000000 0.000000 

0.000000 0.000000 0.000000 
0.000000 0.000000 0.000000 
0.000000 0.000000 0.000000 

0.000000 -0.000000 0.000000 
0.000000 0.000000 0.000000 
0.000000 0.000000 0.000000 

0.000000 -0.000000 0.000000 
0.000000 0.000000 0.000000 
0.000000 0.000000 0.000000 

-0.000000 -0.000000 0.000000 
0.000000 -0.000000 0.000000 
0.000000 0.000000 0.000000 

-0.000000 -0.000000 0.000000 
0.000000 -0.000000 0.000000 
0.000000 0.000000 0.000000 

0.000000 -0.000000 0.000000 
0.000000 0.000000 0.000000 
0.000000 0.000000 0.000000 

0.000000 0.000000 0.000000 
0.000000 0.000000 0.000000 
0.000000 0.000000 0.000000 

0.000000 0.000000 0.000000 
0.000000 0.000000 0.000000 
0.000000 0.000000 0.000000 

-0.000000 0.000000 0.000000 
0.000000 -0.000000 0.000000 
0.000000 0.000000 0.000000 

-0.000000 -0.000000 0.000000 
0.000000 -0.000000 0.000000 
0.000000 0.000000 0.000000 

-0.000000 -0.000000 0.000000 
0.000000 -0.000000 0.000000 
0.000000 0.000000 0.000000 

-0.000000 0.000000 0.000000 
0.000000 -0.000000 0.000000 
0.000000 0.000000 0.000000 

-0.000000 -0.000000 0.000000 
0.000000 -0.000000 0.000000 
0.000000 0.000000 0.000000 

0.000000 -0.000000 0.000000 
0.000000 0.000000 0.000000 
0.000000 0.000000 0.000000 

0.000000 -0.000000 0.000000 
0.000000 0.000000 0.000000 
0.000000 0.000000 0.000000 

-0.000000 -0.000000 0.000000 
0.000000 -0.000000 0.000000 
0.000000 0.000000 0.000000 

0.000000 -0.000000 0.000000 
0.000000 0.000000 0.000000 
0.000000 0.000000 0.000000 

0.000000 -0.000000 0.000000 
0.000000 -0.000000 0.000000 
0.000000 0.000000 0.000000 

-0.000000 0.000000 0.000000 
0.000000 -0.000000 0.000000 
0.000000 0.000000 0.000000 

0.000000 -0.000000 0.000000 
0.000000 0.000000 0.000000 
0.000000 0.000000 0.000000 

0.000000 -0.000000 0.000000 
0.000000 0.000000 0.000000 
0.000000 0.000000 0.000000 

0.000000 -0.000000 0.000000 
0.000000 0.000000 0.000000 
0.000000 0.000000 0.000000 

0.000000 -0.000000 0.000000 
0.000000 0.000000 0.000000 
0.000000 0.000000 0.000000 

0.000000 -0.000000 0.000000 
0.000000 0.000000 0.000000 
0.000000 0.000000 0.000000 

0.000000 -0.000000 0.000000 
0.000000 0.000000 0.000000 
0.000000 0.000000 0.000000 

-0.000000 0.000000 0.000000 
0.000000 -0.000000 0.000000 
0.000000 0.000000 0.000000 

0.000000 -0.000000 0.000000 
0.000000 0.000000 0.000000 
0.000000 0.000000 0.000000 

0.000000 -0.000000 0.000000 
0.000000 0.000000 0.000000 
0.000000 0.000000 0.000000 

0.000000 -0.000000 0.000000 
0.000000 -0.000000 0.000000 
0.000000 0.000000 0.000000 

0.000000 -0.000000 0.000000 
0.000000 0.000000 0.000000 
0.000000 0.000000 0.000000 

-0.000000 -0.000000 0.000000 
0.000000 -0.000000 0.000000 
0.000000 0.000000 0.000000 

0.000000 -0.000000 0.000000 
0.000000 0.000000 0.000000 
0.000000 0.000000 0.000000 

0.000000 -0.000000 0.000000 
0.000000 0.000000 0.000000 
0.000000 0.000000 0.000000 

-0.000000 0.000000 0.000000 
0.000000 -0.000000 0.000000 
0.000000 0.000000 0.000000 

-0.000000 -0.000000 0.000000 
0.000000 -0.000000 0.000000 
0.000000 0.000000 0.000000 

0.000000 0.000000 0.000000 
0.000000 0.000000 0.000000 
0.000000 0.000000 0.000000 

0.000000 0.000000 0.000000 
0.000000 0.000000 0.000000 
0.000000 0.000000 0.000000 

-0.000000 0.000000 0.000000 
0.000000 -0.000000 0.000000 
0.000000 0.000000 0.000000 

-0.000000 -0.000000 0.000000 
0.000000 -0.000000 0.000000 
0.000000 0.000000 0.000000 

-0.000000 -0.000000 0.000000 
0.000000 -0.000000 0.000000 
0.000000 0.000000 0.000000 

-0.000000 0.000000 0.000000 
0.000000 -0.000000 0.000000 
0.000000 0.000000 0.000000 

-0.000000 0.000000 0.000000 
0.000000 -0.000000 0.000000 
0.000000 0.000000 0.000000 

-0.000000 -0.000000 0.000000 
0.000000 -0.000000 0.000000 
0.000000 0.000000 0.000000 

0.000000 -0.000000 0.000000 
0.000000 0.000000 0.000000 
0.000000 0.000000 0.000000 

0.000000 -0.000000 0.000000 
0.000000 0.000000 0.000000 
0.000000 0.000000 0.000000 

-0.000000 -0.000000 0.000000 
0.000000 0.000000 0.000000 
0.000000 0.000000 0.000000 

-0.000000 -0.000000 0.000000 
0.000000 -0.000000 0.000000 
0.000000 0.000000 0.000000 

-0.000000 -0.000000 0.000000 
0.000000 0.000000 0.000000 
0.000000 0.000000 0.000000 

0.000000 0.000000 0.000000 
0.000000 0.000000 0.000000 
0.000000 0.000000 0.000000 

-0.000000 0.000000 0.000000 
0.000000 -0.000000 0.000000 
0.000000 0.000000 0.000000 

-0.000000 -0.000000 0.000000 
0.000000 -0.000000 0.000000 
0.000000 0.000000 0.000000 

0.000000 -0.000000 0.000000 
0.000000 0.000000 0.000000 
0.000000 0.000000 0.000000 

-0.000000 0.000000 0.000000 
0.000000 -0.000000 0.000000 
0.000000 0.000000 0.000000 

-0.000000 -0.000000 0.000000 
0.000000 -0.000000 0.000000 
0.000000 0.000000 0.000000 

0.000000 -0.000000 0.000000 
0.000000 0.000000 0.000000 
0.000000 0.000000 0.000000 

0.000000 -0.000000 0.000000 
0.000000 0.000000 0.000000 
0.000000 0.000000 0.000000 

0.000000 -0.000000 0.000000 
0.000000 0.000000 0.000000 
0.000000 0.000000 0.000000 

0.000000 0.000000 0.000000 
0.000000 0.000000 0.000000 
0.000000 0.000000 0.000000 

0.000000 -0.000000 0.000000 
0.000000 0.000000 0.000000 
0.000000 0.000000 0.000000 

-0.000000 -0.000000 0.000000 
0.000000 -0.000000 0.000000 
0.000000 0.000000 0.000000 

-0.000000 -0.000000 0.000000 
0.000000 -0.000000 0.000000 
0.000000 0.000000 0.000000 

-0.000000 -0.000000 0.000000 
0.000000 -0.000000 0.000000 
0.000000 0.000000 0.000000 

-0.000000 -0.000000 0.000000 
0.000000 -0.000000 0.000000 
0.000000 0.000000 0.000000 

-0.000000 -0.000000 0.000000 
0.000000 -0.000000 0.000000 
0.000000 0.000000 0.000000 

0.000000 -0.000000 0.000000 
0.000000 0.000000 0.000000 
0.000000 0.000000 0.000000 

-0.000000 -0.000000 0.000000 
0.000000 -0.000000 0.000000 
0.000000 0.000000 0.000000 

0.000000 0.000000 0.000000 
0.000000 0.000000 0.000000 
0.000000 0.000000 0.000000 

0.000000 0.000000 0.000000 
0.000000 -0.000000 0.000000 
0.000000 0.000000 0.000000 

-0.000000 -0.000000 0.000000 
0.000000 -0.000000 0.000000 
0.000000 0.000000 0.000000 

0.000000 0.000000 0.000000 
0.000000 0.000000 0.000000 
0.000000 0.000000 0.000000 

-0.000000 -0.000000 0.000000 
0.000000 -0.000000 0.000000 
0.000000 0.000000 0.000000 

0.000000 0.000000 0.000000 
0.000000 0.000000 0.000000 
0.000000 0.000000 0.000000 

-0.000000 -0.000000 0.000000 
0.000000 -0.000000 0.000000 
0.000000 0.000000 0.000000 

-0.000000 -0.000000 0.000000 
0.000000 -0.000000 0.000000 
0.000000 0.000000 0.000000 

0.000000 -0.000000 0.000000 
0.000000 0.000000 0.000000 
0.000000 0.000000 0.000000 

0.000000 -0.000000 0.000000 
0.000000 0.000000 0.000000 
0.000000 0.000000 0.000000 

-0.000000 -0.000000 0.000000 
0.000000 -0.000000 0.000000 
0.000000 0.000000 0.000000 

-0.000000 -0.000000 0.000000 
0.000000 -0.000000 0.000000 
0.000000 0.000000 0.000000 

0.000000 -0.000000 0.000000 
0.000000 0.000000 0.000000 
0.000000 0.000000 0.000000 

0.000000 -0.000000 0.000000 
0.000000 0.000000 0.000000 
0.000000 0.000000 0.000000 

0.000000 -0.000000 0.000000 
0.000000 0.000000 0.000000 
0.000000 0.000000 0.000000 

-0.000000 -0.000000 0.000000 
0.000000 -0.000000 0.000000 
0.000000 0.000000 0.000000 

0.000000 -0.000000 0.000000 
0.000000 0.000000 0.000000 
0.000000 0.000000 0.000000 

-0.000000 -0.000000 0.000000 
0.000000 -0.000000 0.000000 
0.000000 0.000000 0.000000 

0.000000 0.000000 0.000000 
0.000000 0.000000 0.000000 
0.000000 0.000000 0.000000 

-0.000000 0.000000 0.000000 
0.000000 -0.000000 0.000000 
0.000000 0.000000 0.000000 

-0.000000 0.000000 0.000000 
0.000000 -0.000000 0.000000 
0.000000 0.000000 0.000000 

0.000000 0.000000 0.000000 
0.000000 0.000000 0.000000 
0.000000 0.000000 0.000000 

0.000000 -0.000000 0.000000 
0.000000 0.000000 0.000000 
0.000000 0.000000 0.000000 

-0.000000 -0.000000 0.000000 
0.000000 -0.000000 0.000000 
0.000000 0.000000 0.000000 

0.000000 -0.000000 0.000000 
0.000000 0.000000 0.000000 
0.000000 0.000000 0.000000 

-0.000000 -0.000000 0.000000 
0.000000 -0.000000 0.000000 
0.000000 0.000000 0.000000 

0.000000 -0.000000 0.000000 
0.000000 0.000000 0.000000 
0.000000 0.000000 0.000000 

-0.000000 -0.000000 0.000000 
0.000000 0.000000 0.000000 
0.000000 0.000000 0.000000 

-0.000000 -0.000000 0.000000 
0.000000 -0.000000 0.000000 
0.000000 0.000000 0.000000 

0.000000 -0.000000 0.000000 
0.000000 0.000000 0.000000 
0.000000 0.000000 0.000000 

0.000000 -0.000000 0.000000 
0.000000 0.000000 0.000000 
0.000000 0.000000 0.000000 

0.000000 -0.000000 0.000000 
0.000000 0.000000 0.000000 
0.000000 0.000000 0.000000 

0.000000 -0.000000 0.000000 
0.000000 0.000000 0.000000 
0.000000 0.000000 0.000000 

0.000000 -0.000000 0.000000 
0.000000 0.000000 0.000000 
0.000000 0.000000 0.000000 

0.000000 -0.000000 0.000000 
0.000000 0.000000 0.000000 
0.000000 0.000000 0.000000 

0.000000 -0.000000 0.000000 
0.000000 0.000000 0.000000 
0.000000 0.000000 0.000000 

0.000000 -0.000000 0.000000 
0.000000 0.000000 0.000000 
0.000000 0.000000 0.000000 

0.000000 0.000000 0.000000 
0.000000 0.000000 0.000000 
0.000000 0.000000 0.000000 

0.000000 0.000000 0.000000 
0.000000 0.000000 0.000000 
0.000000 0.000000 0.000000 

0.000000 0.000000 0.000000 
0.000000 0.000000 0.000000 
0.000000 0.000000 0.000000 

-0.000000 0.000000 0.000000 
0.000000 -0.000000 0.000000 
0.000000 0.000000 0.000000 

-0.000000 -0.000000 0.000000 
0.000000 -0.000000 0.000000 
0.000000 0.000000 0.000000 

-0.000000 0.000000 0.000000 
0.000000 -0.000000 0.000000 
0.000000 0.000000 0.000000 

-0.000000 -0.000000 0.000000 
0.000000 -0.000000 0.000000 
0.000000 0.000000 0.000000 

-0.000000 -0.000000 0.000000 
0.000000 -0.000000 0.000000 
0.000000 0.000000 0.000000 

-0.000000 -0.000000 0.000000 
0.000000 -0.000000 0.000000 
0.000000 0.000000 0.000000 

-0.000000 0.000000 0.000000 
0.000000 -0.000000 0.000000 
0.000000 0.000000 0.000000 

-0.000000 0.000000 0.000000 
0.000000 -0.000000 0.000000 
0.000000 0.000000 0.000000 

0.000000 0.000000 0.000000 
0.000000 0.000000 0.000000 
0.000000 0.000000 0.000000 

-0.000000 0.000000 0.000000 
0.000000 -0.000000 0.000000 
0.000000 0.000000 0.000000 

0.000000 0.000000 0.000000 
0.000000 0.000000 0.000000 
0.000000 0.000000 0.000000 

-0.000000 0.000000 0.000000 
0.000000 -0.000000 0.000000 
0.000000 0.000000 0.000000 

-0.000000 0.000000 0.000000 
0.000000 -0.000000 0.000000 
0.000000 0.000000 0.000000 

-0.000000 -0.000000 0.000000 
0.000000 -0.000000 0.000000 
0.000000 0.000000 0.000000 

0.000000 0.000000 0.000000 
0.000000 0.000000 0.000000 
0.000000 0.000000 0.000000 

0.000000 -0.000000 0.000000 
0.000000 0.000000 0.000000 
0.000000 0.000000 0.000000 

0.000000 -0.000000 0.000000 
0.000000 0.000000 0.000000 
0.000000 0.000000 0.000000 

-0.000000 -0.000000 0.000000 
0.000000 -0.000000 0.000000 
0.000000 0.000000 0.000000 

-0.000000 -0.000000 0.000000 
0.000000 -0.000000 0.000000 
0.000000 0.000000 0.000000 

0.000000 0.000000 0.000000 
0.000000 0.000000 0.000000 
0.000000 0.000000 0.000000 

-0.000000 -0.000000 0.000000 
0.000000 -0.000000 0.000000 
0.000000 0.000000 0.000000 

-0.000000 0.000000 0.000000 
0.000000 -0.000000 0.000000 
0.000000 0.000000 0.000000 

-0.000000 0.000000 0.000000 
0.000000 -0.000000 0.000000 
0.000000 0.000000 0.000000 

0.000000 -0.000000 0.000000 
0.000000 0.000000 0.000000 
0.000000 0.000000 0.000000 

-0.000000 -0.000000 0.000000 
0.000000 -0.000000 0.000000 
0.000000 0.000000 0.000000 

-0.000000 -0.000000 0.000000 
0.000000 -0.000000 0.000000 
0.000000 0.000000 0.000000 

-0.000000 -0.000000 0.000000 
0.000000 -0.000000 0.000000 
0.000000 0.000000 0.000000 

-0.000000 -0.000000 0.000000 
0.000000 -0.000000 0.000000 
0.000000 0.000000 0.000000 

-0.000000 0.000000 0.000000 
0.000000 -0.000000 0.000000 
0.000000 0.000000 0.000000 

0.000000 0.000000 0.000000 
0.000000 0.000000 0.000000 
0.000000 0.000000 0.000000 

0.000000 -0.000000 0.000000 
0.000000 -0.000000 0.000000 
0.000000 0.000000 0.000000 

0.000000 0.000000 0.000000 
0.000000 0.000000 0.000000 
0.000000 0.000000 0.000000 

-0.000000 0.000000 0.000000 
0.000000 -0.000000 0.000000 
0.000000 0.000000 0.000000 

0.000000 0.000000 0.000000 
0.000000 0.000000 0.000000 
0.000000 0.000000 0.000000 

-0.000000 0.000000 0.000000 
0.000000 0.000000 0.000000 
0.000000 0.000000 0.000000 

-0.000000 -0.000000 0.000000 
0.000000 -0.000000 0.000000 
0.000000 0.000000 0.000000 

-0.000000 -0.000000 0.000000 
0.000000 -0.000000 0.000000 
0.000000 0.000000 0.000000 

-0.000000 -0.000000 0.000000 
0.000000 -0.000000 0.000000 
0.000000 0.000000 0.000000 

0.000000 -0.000000 0.000000 
0.000000 0.000000 0.000000 
0.000000 0.000000 0.000000 

0.000000 -0.000000 0.000000 
0.000000 0.000000 0.000000 
0.000000 0.000000 0.000000 

0.000000 -0.000000 0.000000 
0.000000 0.000000 0.000000 
0.000000 0.000000 0.000000 

0.000000 -0.000000 0.000000 
0.000000 0.000000 0.000000 
0.000000 0.000000 0.000000 

0.000000 0.000000 0.000000 
0.000000 0.000000 0.000000 
0.000000 0.000000 0.000000 

-0.000000 -0.000000 0.000000 
0.000000 -0.000000 0.000000 
0.000000 0.000000 0.000000 

0.000000 -0.000000 0.000000 
0.000000 0.000000 0.000000 
0.000000 0.000000 0.000000 

0.000000 -0.000000 0.000000 
0.000000 0.000000 0.000000 
0.000000 0.000000 0.000000 

-0.000000 -0.000000 0.000000 
0.000000 -0.000000 0.000000 
0.000000 0.000000 0.000000 

0.000000 0.000000 0.000000 
0.000000 -0.000000 0.000000 
0.000000 0.000000 0.000000 

0.000000 -0.000000 0.000000 
0.000000 -0.000000 0.000000 
0.000000 0.000000 0.000000 

-0.000000 -0.000000 0.000000 
0.000000 -0.000000 0.000000 
0.000000 0.000000 0.000000 

0.000000 -0.000000 0.000000 
0.000000 0.000000 0.000000 
0.000000 0.000000 0.000000 

-0.000000 -0.000000 0.000000 
0.000000 -0.000000 0.000000 
0.000000 0.000000 0.000000 

-0.000000 0.000000 0.000000 
0.000000 -0.000000 0.000000 
0.000000 0.000000 0.000000 

0.000000 -0.000000 0.000000 
0.000000 0.000000 0.000000 
0.000000 0.000000 0.000000 

-0.000000 -0.000000 0.000000 
0.000000 -0.000000 0.000000 
0.000000 0.000000 0.000000 

-0.000000 -0.000000 0.000000 
0.000000 -0.000000 0.000000 
0.000000 0.000000 0.000000 

0.000000 -0.000000 0.000000 
0.000000 0.000000 0.000000 
0.000000 0.000000 0.000000 

0.000000 -0.000000 0.000000 
0.000000 0.000000 0.000000 
0.000000 0.000000 0.000000 

0.000000 -0.000000 0.000000 
0.000000 0.000000 0.000000 
0.000000 0.000000 0.000000 

-0.000000 0.000000 0.000000 
0.000000 0.000000 0.000000 
0.000000 0.000000 0.000000 

-0.000000 -0.000000 0.000000 
0.000000 -0.000000 0.000000 
0.000000 0.000000 0.000000 

-0.000000 -0.000000 0.000000 
0.000000 -0.000000 0.000000 
0.000000 0.000000 0.000000 

TENSORS STRAIN float 
0.000000 -0.000000 0.000000 
0.000000 0.000000 0.000000 
0.000000 0.000000 0.000000 

-0.000000 0.000000 0.000000 
0.000000 -0.000000 0.000000 
0.000000 0.000000 0.000000 

0.000000 -0.000000 0.000000 
0.000000 -0.000000 0.000000 
0.000000 0.000000 0.000000 

0.000000 -0.000000 0.000000 
0.000000 -0.000000 0.000000 
0.000000 0.000000 0.000000 

-0.000000 0.000000 0.000000 
0.000000 0.000000 0.000000 
0.000000 0.000000 0.000000 

-0.000000 0.000000 0.000000 
0.000000 -0.000000 0.000000 
0.000000 0.000000 0.000000 

-0.000000 -0.000000 0.000000 
0.000000 0.000000 0.000000 
0.000000 0.000000 0.000000 

0.000000 0.000000 0.000000 
0.000000 -0.000000 0.000000 
0.000000 0.000000 0.000000 

0.000000 -0.000000 0.000000 
0.000000 -0.000000 0.000000 
0.000000 0.000000 0.000000 

-0.000000 -0.000000 0.000000 
0.000000 0.000000 0.000000 
0.000000 0.000000 0.000000 

-0.000000 -0.000000 0.000000 
0.000000 0.000000 0.000000 
0.000000 0.000000 0.000000 

-0.000000 -0.000000 0.000000 
0.000000 -0.000000 0.000000 
0.000000 0.000000 0.000000 

-0.000000 -0.000000 0.000000 
0.000000 0.000000 0.000000 
0.000000 0.000000 0.000000 

-0.000000 0.000000 0.000000 
0.000000 0.000000 0.000000 
0.000000 0.000000 0.000000 

0.000000 0.000000 0.000000 
0.000000 -0.000000 0.000000 
0.000000 0.000000 0.000000 

0.000000 0.000000 0.000000 
0.000000 -0.000000 0.000000 
0.000000 0.000000 0.000000 

0.000000 -0.000000 0.000000 
0.000000 -0.000000 0.000000 
0.000000 0.000000 0.000000 

0.000000 -0.000000 0.000000 
0.000000 -0.000000 0.000000 
0.000000 0.000000 0.000000 

-0.000000 0.000000 0.000000 
0.000000 -0.000000 0.000000 
0.000000 0.000000 0.000000 

0.000000 -0.000000 0.000000 
0.000000 -0.000000 0.000000 
0.000000 0.000000 0.000000 

0.000000 -0.000000 0.000000 
0.000000 0.000000 0.000000 
0.000000 0.000000 0.000000 

0.000000 -0.000000 0.000000 
0.000000 -0.000000 0.000000 
0.000000 0.000000 0.000000 

0.000000 -0.000000 0.000000 
0.000000 -0.000000 0.000000 
0.000000 0.000000 0.000000 

0.000000 -0.000000 0.000000 
0.000000 0.000000 0.000000 
0.000000 0.000000 0.000000 

0.000000 -0.000000 0.000000 
0.000000 -0.000000 0.000000 
0.000000 0.000000 0.000000 

-0.000000 0.000000 0.000000 
0.000000 0.000000 0.000000 
0.000000 0.000000 0.000000 

-0.000000 -0.000000 0.000000 
0.000000 0.000000 0.000000 
0.000000 0.000000 0.000000 

-0.000000 -0.000000 0.000000 
0.000000 0.000000 0.000000 
0.000000 0.000000 0.000000 

-0.000000 -0.000000 0.000000 
0.000000 0.000000 0.000000 
0.000000 0.000000 0.000000 

0.000000 -0.000000 0.000000 
0.000000 -0.000000 0.000000 
0.000000 0.000000 0.000000 

-0.000000 -0.000000 0.000000 
0.000000 0.000000 0.000000 
0.000000 0.000000 0.000000 

0.000000 -0.000000 0.000000 
0.000000 0.000000 0.000000 
0.000000 0.000000 0.000000 

-0.000000 0.000000 0.000000 
0.000000 -0.000000 0.000000 
0.000000 0.000000 0.000000 

-0.000000 -0.000000 0.000000 
0.000000 0.000000 0.000000 
0.000000 0.000000 0.000000 

0.000000 -0.000000 0.000000 
0.000000 -0.000000 0.000000 
0.000000 0.000000 0.000000 

0.000000 -0.000000 0.000000 
0.000000 -0.000000 0.000000 
0.000000 0.000000 0.000000 

0.000000 -0.000000 0.000000 
0.000000 -0.000000 0.000000 
0.000000 0.000000 0.000000 

0.000000 -0.000000 0.000000 
0.000000 -0.000000 0.000000 
0.000000 0.000000 0.000000 

0.000000 -0.000000 0.000000 
0.000000 -0.000000 0.000000 
0.000000 0.000000 0.000000 

0.000000 -0.000000 0.000000 
0.000000 0.000000 0.000000 
0.000000 0.000000 0.000000 

-0.000000 0.000000 0.000000 
0.000000 -0.000000 0.000000 
0.000000 0.000000 0.000000 

0.000000 -0.000000 0.000000 
0.000000 -0.000000 0.000000 
0.000000 0.000000 0.000000 

0.000000 0.000000 0.000000 
0.000000 0.000000 0.000000 
0.000000 0.000000 0.000000 

0.000000 0.000000 0.000000 
0.000000 -0.000000 0.000000 
0.000000 0.000000 0.000000 

0.000000 0.000000 0.000000 
0.000000 -0.000000 0.000000 
0.000000 0.000000 0.000000 

-0.000000 -0.000000 0.000000 
0.000000 -0.000000 0.000000 
0.000000 0.000000 0.000000 

0.000000 -0.000000 0.000000 
0.000000 -0.000000 0.000000 
0.000000 0.000000 0.000000 

0.000000 0.000000 0.000000 
0.000000 -0.000000 0.000000 
0.000000 0.000000 0.000000 

0.000000 0.000000 0.000000 
0.000000 -0.000000 0.000000 
0.000000 0.000000 0.000000 

-0.000000 -0.000000 0.000000 
0.000000 0.000000 0.000000 
0.000000 0.000000 0.000000 

-0.000000 -0.000000 0.000000 
0.000000 0.000000 0.000000 
0.000000 0.000000 0.000000 

-0.000000 -0.000000 0.000000 
0.000000 0.000000 0.000000 
0.000000 0.000000 0.000000 

-0.000000 -0.000000 0.000000 
0.000000 0.000000 0.000000 
0.000000 0.000000 0.000000 

-0.000000 -0.000000 0.000000 
0.000000 0.000000 0.000000 
0.000000 0.000000 0.000000 

-0.000000 -0.000000 0.000000 
0.000000 0.000000 0.000000 
0.000000 0.000000 0.000000 

-0.000000 0.000000 0.000000 
0.000000 0.000000 0.000000 
0.000000 0.000000 0.000000 

-0.000000 0.000000 0.000000 
0.000000 0.000000 0.000000 
0.000000 0.000000 0.000000 

-0.000000 -0.000000 0.000000 
0.000000 0.000000 0.000000 
0.000000 0.000000 0.000000 

0.000000 -0.000000 0.000000 
0.000000 0.000000 0.000000 
0.000000 0.000000 0.000000 

-0.000000 0.000000 0.000000 
0.000000 -0.000000 0.000000 
0.000000 0.000000 0.000000 

-0.000000 -0.000000 0.000000 
0.000000 -0.000000 0.000000 
0.000000 0.000000 0.000000 

-0.000000 -0.000000 0.000000 
0.000000 0.000000 0.000000 
0.000000 0.000000 0.000000 

0.000000 -0.000000 0.000000 
0.000000 0.000000 0.000000 
0.000000 0.000000 0.000000 

0.000000 -0.000000 0.000000 
0.000000 0.000000 0.000000 
0.000000 0.000000 0.000000 

0.000000 0.000000 0.000000 
0.000000 0.000000 0.000000 
0.000000 0.000000 0.000000 

0.000000 -0.000000 0.000000 
0.000000 0.000000 0.000000 
0.000000 0.000000 0.000000 

-0.000000 -0.000000 0.000000 
0.000000 -0.000000 0.000000 
0.000000 0.000000 0.000000 

0.000000 -0.000000 0.000000 
0.000000 -0.000000 0.000000 
0.000000 0.000000 0.000000 

0.000000 -0.000000 0.000000 
0.000000 -0.000000 0.000000 
0.000000 0.000000 0.000000 

-0.000000 -0.000000 0.000000 
0.000000 -0.000000 0.000000 
0.000000 0.000000 0.000000 

-0.000000 -0.000000 0.000000 
0.000000 0.000000 0.000000 
0.000000 0.000000 0.000000 

-0.000000 -0.000000 0.000000 
0.000000 0.000000 0.000000 
0.000000 0.000000 0.000000 

0.000000 -0.000000 0.000000 
0.000000 -0.000000 0.000000 
0.000000 0.000000 0.000000 

0.000000 0.000000 0.000000 
0.000000 -0.000000 0.000000 
0.000000 0.000000 0.000000 

0.000000 0.000000 0.000000 
0.000000 -0.000000 0.000000 
0.000000 0.000000 0.000000 

-0.000000 -0.000000 0.000000 
0.000000 0.000000 0.000000 
0.000000 0.000000 0.000000 

-0.000000 0.000000 0.000000 
0.000000 0.000000 0.000000 
0.000000 0.000000 0.000000 

-0.000000 -0.000000 0.000000 
0.000000 0.000000 0.000000 
0.000000 0.000000 0.000000 

-0.000000 0.000000 0.000000 
0.000000 0.000000 0.000000 
0.000000 0.000000 0.000000 

0.000000 -0.000000 0.000000 
0.000000 -0.000000 0.000000 
0.000000 0.000000 0.000000 

0.000000 -0.000000 0.000000 
0.000000 -0.000000 0.000000 
0.000000 0.000000 0.000000 

-0.000000 -0.000000 0.000000 
0.000000 0.000000 0.000000 
0.000000 0.000000 0.000000 

0.000000 -0.000000 0.000000 
0.000000 0.000000 0.000000 
0.000000 0.000000 0.000000 

-0.000000 -0.000000 0.000000 
0.000000 0.000000 0.000000 
0.000000 0.000000 0.000000 

-0.000000 -0.000000 0.000000 
0.000000 -0.000000 0.000000 
0.000000 0.000000 0.000000 

-0.000000 -0.000000 0.000000 
0.000000 0.000000 0.000000 
0.000000 0.000000 0.000000 

-0.000000 -0.000000 0.000000 
0.000000 0.000000 0.000000 
0.000000 0.000000 0.000000 

-0.000000 -0.000000 0.000000 
0.000000 0.000000 0.000000 
0.000000 0.000000 0.000000 

-0.000000 -0.000000 0.000000 
0.000000 -0.000000 0.000000 
0.000000 0.000000 0.000000 

-0.000000 -0.000000 0.000000 
0.000000 0.000000 0.000000 
0.000000 0.000000 0.000000 

-0.000000 -0.000000 0.000000 
0.000000 -0.000000 0.000000 
0.000000 0.000000 0.000000 

-0.000000 0.000000 0.000000 
0.000000 0.000000 0.000000 
0.000000 0.000000 0.000000 

-0.000000 0.000000 0.000000 
0.000000 -0.000000 0.000000 
0.000000 0.000000 0.000000 

0.000000 0.000000 0.000000 
0.000000 -0.000000 0.000000 
0.000000 0.000000 0.000000 

-0.000000 0.000000 0.000000 
0.000000 0.000000 0.000000 
0.000000 0.000000 0.000000 

-0.000000 -0.000000 0.000000 
0.000000 0.000000 0.000000 
0.000000 0.000000 0.000000 

-0.000000 -0.000000 0.000000 
0.000000 0.000000 0.000000 
0.000000 0.000000 0.000000 

0.000000 -0.000000 0.000000 
0.000000 -0.000000 0.000000 
0.000000 0.000000 0.000000 

-0.000000 -0.000000 0.000000 
0.000000 -0.000000 0.000000 
0.000000 0.000000 0.000000 

0.000000 -0.000000 0.000000 
0.000000 0.000000 0.000000 
0.000000 0.000000 0.000000 

-0.000000 -0.000000 0.000000 
0.000000 0.000000 0.000000 
0.000000 0.000000 0.000000 

-0.000000 -0.000000 0.000000 
0.000000 0.000000 0.000000 
0.000000 0.000000 0.000000 

-0.000000 -0.000000 0.000000 
0.000000 0.000000 0.000000 
0.000000 0.000000 0.000000 

-0.000000 -0.000000 0.000000 
0.000000 0.000000 0.000000 
0.000000 0.000000 0.000000 

0.000000 -0.000000 0.000000 
0.000000 -0.000000 0.000000 
0.000000 0.000000 0.000000 

-0.000000 -0.000000 0.000000 
0.000000 0.000000 0.000000 
0.000000 0.000000 0.000000 

-0.000000 -0.000000 0.000000 
0.000000 0.000000 0.000000 
0.000000 0.000000 0.000000 

-0.000000 -0.000000 0.000000 
0.000000 0.000000 0.000000 
0.000000 0.000000 0.000000 

-0.000000 -0.000000 0.000000 
0.000000 0.000000 0.000000 
0.000000 0.000000 0.000000 

0.000000 -0.000000 0.000000 
0.000000 -0.000000 0.000000 
0.000000 0.000000 0.000000 

0.000000 0.000000 0.000000 
0.000000 0.000000 0.000000 
0.000000 0.000000 0.000000 

-0.000000 0.000000 0.000000 
0.000000 0.000000 0.000000 
0.000000 0.000000 0.000000 

-0.000000 0.000000 0.000000 
0.000000 0.000000 0.000000 
0.000000 0.000000 0.000000 

-0.000000 0.000000 0.000000 
0.000000 -0.000000 0.000000 
0.000000 0.000000 0.000000 

0.000000 -0.000000 0.000000 
0.000000 -0.000000 0.000000 
0.000000 0.000000 0.000000 

0.000000 0.000000 0.000000 
0.000000 -0.000000 0.000000 
0.000000 0.000000 0.000000 

-0.000000 -0.000000 0.000000 
0.000000 0.000000 0.000000 
0.000000 0.000000 0.000000 

-0.000000 -0.000000 0.000000 
0.000000 0.000000 0.000000 
0.000000 0.000000 0.000000 

-0.000000 -0.000000 0.000000 
0.000000 0.000000 0.000000 
0.000000 0.000000 0.000000 

-0.000000 0.000000 0.000000 
0.000000 -0.000000 0.000000 
0.000000 0.000000 0.000000 

0.000000 0.000000 0.000000 
0.000000 -0.000000 0.000000 
0.000000 0.000000 0.000000 

0.000000 0.000000 0.000000 
0.000000 -0.000000 0.000000 
0.000000 0.000000 0.000000 

0.000000 0.000000 0.000000 
0.000000 -0.000000 0.000000 
0.000000 0.000000 0.000000 

0.000000 0.000000 0.000000 
0.000000 -0.000000 0.000000 
0.000000 0.000000 0.000000 

-0.000000 0.000000 0.000000 
0.000000 -0.000000 0.000000 
0.000000 0.000000 0.000000 

-0.000000 0.000000 0.000000 
0.000000 0.000000 0.000000 
0.000000 0.000000 0.000000 

-0.000000 -0.000000 0.000000 
0.000000 0.000000 0.000000 
0.000000 0.000000 0.000000 

-0.000000 0.000000 0.000000 
0.000000 0.000000 0.000000 
0.000000 0.000000 0.000000 

-0.000000 -0.000000 0.000000 
0.000000 0.000000 0.000000 
0.000000 0.000000 0.000000 

0.000000 -0.000000 0.000000 
0.000000 0.000000 0.000000 
0.000000 0.000000 0.000000 

-0.000000 -0.000000 0.000000 
0.000000 -0.000000 0.000000 
0.000000 0.000000 0.000000 

-0.000000 -0.000000 0.000000 
0.000000 -0.000000 0.000000 
0.000000 0.000000 0.000000 

-0.000000 0.000000 0.000000 
0.000000 0.000000 0.000000 
0.000000 0.000000 0.000000 

0.000000 -0.000000 0.000000 
0.000000 -0.000000 0.000000 
0.000000 0.000000 0.000000 

-0.000000 0.000000 0.000000 
0.000000 -0.000000 0.000000 
0.000000 0.000000 0.000000 

-0.000000 0.000000 0.000000 
0.000000 0.000000 0.000000 
0.000000 0.000000 0.000000 

-0.000000 -0.000000 0.000000 
0.000000 0.000000 0.000000 
0.000000 0.000000 0.000000 

-0.000000 -0.000000 0.000000 
0.000000 -0.000000 0.000000 
0.000000 0.000000 0.000000 

-0.000000 -0.000000 0.000000 
0.000000 -0.000000 0.000000 
0.000000 0.000000 0.000000 

0.000000 -0.000000 0.000000 
0.000000 -0.000000 0.000000 
0.000000 0.000000 0.000000 

0.000000 -0.000000 0.000000 
0.000000 -0.000000 0.000000 
0.000000 0.000000 0.000000 

-0.000000 0.000000 0.000000 
0.000000 0.000000 0.000000 
0.000000 0.000000 0.000000 

-0.000000 0.000000 0.000000 
0.000000 0.000000 0.000000 
0.000000 0.000000 0.000000 

0.000000 -0.000000 0.000000 
0.000000 -0.000000 0.000000 
0.000000 0.000000 0.000000 

0.000000 0.000000 0.000000 
0.000000 -0.000000 0.000000 
0.000000 0.000000 0.000000 

0.000000 0.000000 0.000000 
0.000000 -0.000000 0.000000 
0.000000 0.000000 0.000000 

-0.000000 0.000000 0.000000 
0.000000 0.000000 0.000000 
0.000000 0.000000 0.000000 

-0.000000 0.000000 0.000000 
0.000000 0.000000 0.000000 
0.000000 0.000000 0.000000 

-0.000000 -0.000000 0.000000 
0.000000 0.000000 0.000000 
0.000000 0.000000 0.000000 

-0.000000 -0.000000 0.000000 
0.000000 0.000000 0.000000 
0.000000 0.000000 0.000000 

0.000000 -0.000000 0.000000 
0.000000 -0.000000 0.000000 
0.000000 0.000000 0.000000 

0.000000 -0.000000 0.000000 
0.000000 -0.000000 0.000000 
0.000000 0.000000 0.000000 

0.000000 -0.000000 0.000000 
0.000000 0.000000 0.000000 
0.000000 0.000000 0.000000 

-0.000000 -0.000000 0.000000 
0.000000 0.000000 0.000000 
0.000000 0.000000 0.000000 

0.000000 -0.000000 0.000000 
0.000000 -0.000000 0.000000 
0.000000 0.000000 0.000000 

0.000000 0.000000 0.000000 
0.000000 -0.000000 0.000000 
0.000000 0.000000 0.000000 

0.000000 -0.000000 0.000000 
0.000000 -0.000000 0.000000 
0.000000 0.000000 0.000000 

0.000000 -0.000000 0.000000 
0.000000 0.000000 0.000000 
0.000000 0.000000 0.000000 

0.000000 -0.000000 0.000000 
0.000000 0.000000 0.000000 
0.000000 0.000000 0.000000 

0.000000 -0.000000 0.000000 
0.000000 -0.000000 0.000000 
0.000000 0.000000 0.000000 

0.000000 0.000000 0.000000 
0.000000 -0.000000 0.000000 
0.000000 0.000000 0.000000 

0.000000 -0.000000 0.000000 
0.000000 -0.000000 0.000000 
0.000000 0.000000 0.000000 

0.000000 -0.000000 0.000000 
0.000000 -0.000000 0.000000 
0.000000 0.000000 0.000000 

0.000000 -0.000000 0.000000 
0.000000 -0.000000 0.000000 
0.000000 0.000000 0.000000 

0.000000 -0.000000 0.000000 
0.000000 -0.000000 0.000000 
0.000000 0.000000 0.000000 

-0.000000 0.000000 0.000000 
0.000000 -0.000000 0.000000 
0.000000 0.000000 0.000000 

0.000000 -0.000000 0.000000 
0.000000 -0.000000 0.000000 
0.000000 0.000000 0.000000 

0.000000 -0.000000 0.000000 
0.000000 -0.000000 0.000000 
0.000000 0.000000 0.000000 

0.000000 -0.000000 0.000000 
0.000000 -0.000000 0.000000 
0.000000 0.000000 0.000000 

0.000000 -0.000000 0.000000 
0.000000 -0.000000 0.000000 
0.000000 0.000000 0.000000 

0.000000 -0.000000 0.000000 
0.000000 -0.000000 0.000000 
0.000000 0.000000 0.000000 

0.000000 -0.000000 0.000000 
0.000000 -0.000000 0.000000 
0.000000 0.000000 0.000000 

-0.000000 0.000000 0.000000 
0.000000 0.000000 0.000000 
0.000000 0.000000 0.000000 

-0.000000 -0.000000 0.000000 
0.000000 -0.000000 0.000000 
0.000000 0.000000 0.000000 

-0.000000 -0.000000 0.000000 
0.000000 0.000000 0.000000 
0.000000 0.000000 0.000000 

