# vtk DataFile Version 3.0 
vtk output 
ASCII 
DATASET UNSTRUCTURED_GRID 
POINTS 175 float 
-0.026061 -2.268311 0.000000 
-0.106992 -2.200255 0.000000 
-0.054870 -2.208488 0.000000 
-0.028809 -2.162604 0.000000 
-0.186430 -2.136180 0.000000 
-0.137056 -2.138706 0.000000 
-0.114311 -2.085059 0.000000 
-0.058186 -2.100724 0.000000 
-0.029377 -2.060547 0.000000 
-0.265318 -2.073024 0.000000 
-0.217198 -2.073824 0.000000 
-0.196633 -2.016527 0.000000 
-0.143120 -2.025236 0.000000 
-0.116563 -1.977968 0.000000 
-0.058945 -1.997613 0.000000 
-0.029568 -1.959493 0.000000 
-0.344206 -2.009868 0.000000 
-0.296791 -2.009861 0.000000 
-0.278030 -1.949918 0.000000 
-0.225992 -1.955785 0.000000 
-0.201664 -1.903668 0.000000 
-0.145749 -1.917142 0.000000 
-0.117890 -1.872799 0.000000 
-0.059328 -1.895505 0.000000 
-0.029759 -1.858439 0.000000 
-0.058559 -2.309062 0.000000 
-0.162226 -2.329904 0.000000 
-0.123292 -2.294287 0.000000 
-0.142917 -2.245303 0.000000 
-0.261851 -2.352061 0.000000 
-0.229092 -2.315034 0.000000 
-0.256854 -2.263802 0.000000 
-0.209613 -2.229689 0.000000 
-0.223062 -2.182116 0.000000 
-0.360414 -2.374361 0.000000 
-0.329787 -2.337238 0.000000 
-0.361761 -2.285436 0.000000 
-0.321587 -2.249027 0.000000 
-0.341985 -2.198793 0.000000 
-0.290702 -2.165994 0.000000 
-0.302189 -2.119259 0.000000 
-0.458977 -2.396661 0.000000 
-0.429420 -2.359586 0.000000 
-0.464588 -2.307545 0.000000 
-0.427556 -2.270517 0.000000 
-0.453135 -2.219002 0.000000 
-0.407738 -2.183687 0.000000 
-0.425037 -2.134259 0.000000 
-0.370772 -2.102630 0.000000 
-0.381315 -2.056402 0.000000 
-0.046960 -2.359877 0.000000 
-0.095301 -2.453923 0.000000 
-0.098873 -2.401276 0.000000 
-0.149405 -2.386078 0.000000 
-0.140093 -2.545627 0.000000 
-0.148617 -2.496929 0.000000 
-0.205981 -2.486691 0.000000 
-0.203197 -2.428488 0.000000 
-0.248777 -2.409341 0.000000 
-0.184111 -2.636590 0.000000 
-0.194039 -2.589499 0.000000 
-0.254475 -2.582200 0.000000 
-0.257893 -2.528090 0.000000 
-0.309886 -2.512718 0.000000 
-0.303554 -2.452172 0.000000 
-0.347255 -2.432015 0.000000 
-0.228129 -2.727554 0.000000 
-0.238687 -2.681330 0.000000 
-0.301302 -2.676378 0.000000 
-0.307162 -2.624339 0.000000 
-0.363386 -2.612218 0.000000 
-0.362692 -2.554706 0.000000 
-0.412122 -2.537413 0.000000 
-0.403017 -2.475267 0.000000 
-0.445733 -2.454688 0.000000 
-0.000000 -2.382492 0.000000 
0.043388 -2.478922 0.000000 
-0.000000 -2.448890 0.000000 
-0.043388 -2.478922 0.000000 
0.087158 -2.571119 0.000000 
0.043769 -2.547421 0.000000 
-0.000000 -2.585886 0.000000 
-0.043769 -2.547421 0.000000 
-0.087158 -2.571119 0.000000 
0.130831 -2.662249 0.000000 
0.087824 -2.640650 0.000000 
0.044436 -2.683350 0.000000 
-0.000000 -2.652285 0.000000 
-0.044436 -2.683350 0.000000 
-0.087824 -2.640650 0.000000 
-0.130831 -2.662249 0.000000 
0.174505 -2.753378 0.000000 
0.131782 -2.732812 0.000000 
0.088871 -2.778679 0.000000 
0.044532 -2.750815 0.000000 
-0.000000 -2.787215 0.000000 
-0.044532 -2.750815 0.000000 
-0.088871 -2.778679 0.000000 
-0.131782 -2.732812 0.000000 
-0.174505 -2.753378 0.000000 
0.046960 -2.359877 0.000000 
0.149405 -2.386078 0.000000 
0.098873 -2.401276 0.000000 
0.095301 -2.453923 0.000000 
0.248777 -2.409341 0.000000 
0.203197 -2.428488 0.000000 
0.205981 -2.486691 0.000000 
0.148617 -2.496929 0.000000 
0.140093 -2.545627 0.000000 
0.347255 -2.432015 0.000000 
0.303554 -2.452172 0.000000 
0.309886 -2.512718 0.000000 
0.257893 -2.528090 0.000000 
0.254475 -2.582200 0.000000 
0.194039 -2.589499 0.000000 
0.184111 -2.636590 0.000000 
0.445733 -2.454688 0.000000 
0.403017 -2.475267 0.000000 
0.412122 -2.537413 0.000000 
0.362692 -2.554706 0.000000 
0.363386 -2.612218 0.000000 
0.307162 -2.624339 0.000000 
0.301302 -2.676378 0.000000 
0.238687 -2.681330 0.000000 
0.228129 -2.727554 0.000000 
0.058559 -2.309062 0.000000 
0.142917 -2.245303 0.000000 
0.123292 -2.294287 0.000000 
0.162226 -2.329904 0.000000 
0.223062 -2.182116 0.000000 
0.209613 -2.229689 0.000000 
0.256854 -2.263802 0.000000 
0.229092 -2.315034 0.000000 
0.261851 -2.352061 0.000000 
0.302189 -2.119259 0.000000 
0.290702 -2.165994 0.000000 
0.341985 -2.198793 0.000000 
0.321587 -2.249027 0.000000 
0.361761 -2.285436 0.000000 
0.329787 -2.337238 0.000000 
0.360414 -2.374361 0.000000 
0.381315 -2.056402 0.000000 
0.370772 -2.102630 0.000000 
0.425037 -2.134259 0.000000 
0.407738 -2.183687 0.000000 
0.453135 -2.219002 0.000000 
0.427556 -2.270517 0.000000 
0.464588 -2.307545 0.000000 
0.429420 -2.359586 0.000000 
0.458977 -2.396661 0.000000 
0.026061 -2.268311 0.000000 
0.028809 -2.162604 0.000000 
0.054870 -2.208488 0.000000 
0.106992 -2.200255 0.000000 
0.029377 -2.060547 0.000000 
0.058186 -2.100724 0.000000 
0.114311 -2.085059 0.000000 
0.137056 -2.138706 0.000000 
0.186430 -2.136180 0.000000 
0.029568 -1.959493 0.000000 
0.058945 -1.997613 0.000000 
0.116563 -1.977968 0.000000 
0.143120 -2.025236 0.000000 
0.196633 -2.016527 0.000000 
0.217198 -2.073824 0.000000 
0.265318 -2.073024 0.000000 
0.029759 -1.858439 0.000000 
0.059328 -1.895505 0.000000 
0.117890 -1.872799 0.000000 
0.145749 -1.917142 0.000000 
0.201664 -1.903668 0.000000 
0.225992 -1.955785 0.000000 
0.278030 -1.949918 0.000000 
0.296791 -2.009861 0.000000 
0.344206 -2.009868 0.000000 
CELLS 175 350 
1 0 
1 1 
1 2 
1 3 
1 4 
1 5 
1 6 
1 7 
1 8 
1 9 
1 10 
1 11 
1 12 
1 13 
1 14 
1 15 
1 16 
1 17 
1 18 
1 19 
1 20 
1 21 
1 22 
1 23 
1 24 
1 25 
1 26 
1 27 
1 28 
1 29 
1 30 
1 31 
1 32 
1 33 
1 34 
1 35 
1 36 
1 37 
1 38 
1 39 
1 40 
1 41 
1 42 
1 43 
1 44 
1 45 
1 46 
1 47 
1 48 
1 49 
1 50 
1 51 
1 52 
1 53 
1 54 
1 55 
1 56 
1 57 
1 58 
1 59 
1 60 
1 61 
1 62 
1 63 
1 64 
1 65 
1 66 
1 67 
1 68 
1 69 
1 70 
1 71 
1 72 
1 73 
1 74 
1 75 
1 76 
1 77 
1 78 
1 79 
1 80 
1 81 
1 82 
1 83 
1 84 
1 85 
1 86 
1 87 
1 88 
1 89 
1 90 
1 91 
1 92 
1 93 
1 94 
1 95 
1 96 
1 97 
1 98 
1 99 
1 100 
1 101 
1 102 
1 103 
1 104 
1 105 
1 106 
1 107 
1 108 
1 109 
1 110 
1 111 
1 112 
1 113 
1 114 
1 115 
1 116 
1 117 
1 118 
1 119 
1 120 
1 121 
1 122 
1 123 
1 124 
1 125 
1 126 
1 127 
1 128 
1 129 
1 130 
1 131 
1 132 
1 133 
1 134 
1 135 
1 136 
1 137 
1 138 
1 139 
1 140 
1 141 
1 142 
1 143 
1 144 
1 145 
1 146 
1 147 
1 148 
1 149 
1 150 
1 151 
1 152 
1 153 
1 154 
1 155 
1 156 
1 157 
1 158 
1 159 
1 160 
1 161 
1 162 
1 163 
1 164 
1 165 
1 166 
1 167 
1 168 
1 169 
1 170 
1 171 
1 172 
1 173 
1 174 
CELL_TYPES 175 
1 
1 
1 
1 
1 
1 
1 
1 
1 
1 
1 
1 
1 
1 
1 
1 
1 
1 
1 
1 
1 
1 
1 
1 
1 
1 
1 
1 
1 
1 
1 
1 
1 
1 
1 
1 
1 
1 
1 
1 
1 
1 
1 
1 
1 
1 
1 
1 
1 
1 
1 
1 
1 
1 
1 
1 
1 
1 
1 
1 
1 
1 
1 
1 
1 
1 
1 
1 
1 
1 
1 
1 
1 
1 
1 
1 
1 
1 
1 
1 
1 
1 
1 
1 
1 
1 
1 
1 
1 
1 
1 
1 
1 
1 
1 
1 
1 
1 
1 
1 
1 
1 
1 
1 
1 
1 
1 
1 
1 
1 
1 
1 
1 
1 
1 
1 
1 
1 
1 
1 
1 
1 
1 
1 
1 
1 
1 
1 
1 
1 
1 
1 
1 
1 
1 
1 
1 
1 
1 
1 
1 
1 
1 
1 
1 
1 
1 
1 
1 
1 
1 
1 
1 
1 
1 
1 
1 
1 
1 
1 
1 
1 
1 
1 
1 
1 
1 
1 
1 
1 
1 
1 
1 
1 
1 
POINT_DATA 175 
VECTORS X_GC float 
-0.026061 -2.268311 0.000000 
-0.106992 -2.200255 0.000000 
-0.054870 -2.208488 0.000000 
-0.028809 -2.162604 0.000000 
-0.186430 -2.136180 0.000000 
-0.137056 -2.138706 0.000000 
-0.114311 -2.085059 0.000000 
-0.058186 -2.100724 0.000000 
-0.029377 -2.060547 0.000000 
-0.265318 -2.073024 0.000000 
-0.217198 -2.073824 0.000000 
-0.196633 -2.016527 0.000000 
-0.143120 -2.025236 0.000000 
-0.116563 -1.977968 0.000000 
-0.058945 -1.997613 0.000000 
-0.029568 -1.959493 0.000000 
-0.344206 -2.009868 0.000000 
-0.296791 -2.009861 0.000000 
-0.278030 -1.949918 0.000000 
-0.225992 -1.955785 0.000000 
-0.201664 -1.903668 0.000000 
-0.145749 -1.917142 0.000000 
-0.117890 -1.872799 0.000000 
-0.059328 -1.895505 0.000000 
-0.029759 -1.858439 0.000000 
-0.058559 -2.309062 0.000000 
-0.162226 -2.329904 0.000000 
-0.123292 -2.294287 0.000000 
-0.142917 -2.245303 0.000000 
-0.261851 -2.352061 0.000000 
-0.229092 -2.315034 0.000000 
-0.256854 -2.263802 0.000000 
-0.209613 -2.229689 0.000000 
-0.223062 -2.182116 0.000000 
-0.360414 -2.374361 0.000000 
-0.329787 -2.337238 0.000000 
-0.361761 -2.285436 0.000000 
-0.321587 -2.249027 0.000000 
-0.341985 -2.198793 0.000000 
-0.290702 -2.165994 0.000000 
-0.302189 -2.119259 0.000000 
-0.458977 -2.396661 0.000000 
-0.429420 -2.359586 0.000000 
-0.464588 -2.307545 0.000000 
-0.427556 -2.270517 0.000000 
-0.453135 -2.219002 0.000000 
-0.407738 -2.183687 0.000000 
-0.425037 -2.134259 0.000000 
-0.370772 -2.102630 0.000000 
-0.381315 -2.056402 0.000000 
-0.046960 -2.359877 0.000000 
-0.095301 -2.453923 0.000000 
-0.098873 -2.401276 0.000000 
-0.149405 -2.386078 0.000000 
-0.140093 -2.545627 0.000000 
-0.148617 -2.496929 0.000000 
-0.205981 -2.486691 0.000000 
-0.203197 -2.428488 0.000000 
-0.248777 -2.409341 0.000000 
-0.184111 -2.636590 0.000000 
-0.194039 -2.589499 0.000000 
-0.254475 -2.582200 0.000000 
-0.257893 -2.528090 0.000000 
-0.309886 -2.512718 0.000000 
-0.303554 -2.452172 0.000000 
-0.347255 -2.432015 0.000000 
-0.228129 -2.727554 0.000000 
-0.238687 -2.681330 0.000000 
-0.301302 -2.676378 0.000000 
-0.307162 -2.624339 0.000000 
-0.363386 -2.612218 0.000000 
-0.362692 -2.554706 0.000000 
-0.412122 -2.537413 0.000000 
-0.403017 -2.475267 0.000000 
-0.445733 -2.454688 0.000000 
-0.000000 -2.382492 0.000000 
0.043388 -2.478922 0.000000 
-0.000000 -2.448890 0.000000 
-0.043388 -2.478922 0.000000 
0.087158 -2.571119 0.000000 
0.043769 -2.547421 0.000000 
-0.000000 -2.585886 0.000000 
-0.043769 -2.547421 0.000000 
-0.087158 -2.571119 0.000000 
0.130831 -2.662249 0.000000 
0.087824 -2.640650 0.000000 
0.044436 -2.683350 0.000000 
-0.000000 -2.652285 0.000000 
-0.044436 -2.683350 0.000000 
-0.087824 -2.640650 0.000000 
-0.130831 -2.662249 0.000000 
0.174505 -2.753378 0.000000 
0.131782 -2.732812 0.000000 
0.088871 -2.778679 0.000000 
0.044532 -2.750815 0.000000 
-0.000000 -2.787215 0.000000 
-0.044532 -2.750815 0.000000 
-0.088871 -2.778679 0.000000 
-0.131782 -2.732812 0.000000 
-0.174505 -2.753378 0.000000 
0.046960 -2.359877 0.000000 
0.149405 -2.386078 0.000000 
0.098873 -2.401276 0.000000 
0.095301 -2.453923 0.000000 
0.248777 -2.409341 0.000000 
0.203197 -2.428488 0.000000 
0.205981 -2.486691 0.000000 
0.148617 -2.496929 0.000000 
0.140093 -2.545627 0.000000 
0.347255 -2.432015 0.000000 
0.303554 -2.452172 0.000000 
0.309886 -2.512718 0.000000 
0.257893 -2.528090 0.000000 
0.254475 -2.582200 0.000000 
0.194039 -2.589499 0.000000 
0.184111 -2.636590 0.000000 
0.445733 -2.454688 0.000000 
0.403017 -2.475267 0.000000 
0.412122 -2.537413 0.000000 
0.362692 -2.554706 0.000000 
0.363386 -2.612218 0.000000 
0.307162 -2.624339 0.000000 
0.301302 -2.676378 0.000000 
0.238687 -2.681330 0.000000 
0.228129 -2.727554 0.000000 
0.058559 -2.309062 0.000000 
0.142917 -2.245303 0.000000 
0.123292 -2.294287 0.000000 
0.162226 -2.329904 0.000000 
0.223062 -2.182116 0.000000 
0.209613 -2.229689 0.000000 
0.256854 -2.263802 0.000000 
0.229092 -2.315034 0.000000 
0.261851 -2.352061 0.000000 
0.302189 -2.119259 0.000000 
0.290702 -2.165994 0.000000 
0.341985 -2.198793 0.000000 
0.321587 -2.249027 0.000000 
0.361761 -2.285436 0.000000 
0.329787 -2.337238 0.000000 
0.360414 -2.374361 0.000000 
0.381315 -2.056402 0.000000 
0.370772 -2.102630 0.000000 
0.425037 -2.134259 0.000000 
0.407738 -2.183687 0.000000 
0.453135 -2.219002 0.000000 
0.427556 -2.270517 0.000000 
0.464588 -2.307545 0.000000 
0.429420 -2.359586 0.000000 
0.458977 -2.396661 0.000000 
0.026061 -2.268311 0.000000 
0.028809 -2.162604 0.000000 
0.054870 -2.208488 0.000000 
0.106992 -2.200255 0.000000 
0.029377 -2.060547 0.000000 
0.058186 -2.100724 0.000000 
0.114311 -2.085059 0.000000 
0.137056 -2.138706 0.000000 
0.186430 -2.136180 0.000000 
0.029568 -1.959493 0.000000 
0.058945 -1.997613 0.000000 
0.116563 -1.977968 0.000000 
0.143120 -2.025236 0.000000 
0.196633 -2.016527 0.000000 
0.217198 -2.073824 0.000000 
0.265318 -2.073024 0.000000 
0.029759 -1.858439 0.000000 
0.059328 -1.895505 0.000000 
0.117890 -1.872799 0.000000 
0.145749 -1.917142 0.000000 
0.201664 -1.903668 0.000000 
0.225992 -1.955785 0.000000 
0.278030 -1.949918 0.000000 
0.296791 -2.009861 0.000000 
0.344206 -2.009868 0.000000 
VECTORS X_EC float 
0.338794 -0.877803 0.000000 
-0.609100 0.203449 0.000000 
0.713312 0.314590 0.000000 
0.374519 -0.304840 0.000000 
0.423588 -0.661570 0.000000 
-0.218274 -0.627467 0.000000 
-0.513962 0.648294 0.000000 
0.756418 0.859781 0.000000 
0.381900 0.317388 0.000000 
-0.550868 0.485827 0.000000 
0.823577 0.496622 0.000000 
0.556234 -0.276882 0.000000 
-0.139443 -0.159313 0.000000 
-0.484677 -0.797438 0.000000 
0.766286 -0.532222 0.000000 
0.384386 0.953157 0.000000 
0.474677 -0.366777 0.000000 
-0.141715 -0.366873 0.000000 
-0.385608 0.823899 0.000000 
0.937896 0.903094 0.000000 
0.621631 0.199514 0.000000 
-0.105264 0.381414 0.000000 
-0.467428 -0.217213 0.000000 
0.771260 0.089316 0.000000 
0.386873 -0.411074 0.000000 
0.761262 -0.327668 0.000000 
0.108942 -0.046292 0.000000 
-0.397202 -0.527131 0.000000 
-0.142083 0.811594 0.000000 
-0.595936 0.252819 0.000000 
0.978194 -0.247047 0.000000 
-0.660903 -0.938672 0.000000 
0.724964 0.600808 0.000000 
0.899809 -0.041440 0.000000 
0.685384 0.553871 0.000000 
0.287229 0.052713 0.000000 
0.702895 -0.646616 0.000000 
0.180633 0.861866 0.000000 
0.445811 0.183706 0.000000 
-0.220880 -0.259080 0.000000 
-0.071546 -0.890005 0.000000 
-0.033296 0.854923 0.000000 
-0.417537 0.354414 0.000000 
0.039645 -0.348149 0.000000 
-0.441768 -0.848020 0.000000 
-0.109248 0.456530 0.000000 
-0.699407 -0.020226 0.000000 
-0.474522 -0.687505 0.000000 
0.820030 0.885501 0.000000 
0.957100 0.261430 0.000000 
0.610485 0.358338 0.000000 
-0.761092 -0.372042 0.000000 
-0.714655 0.917220 0.000000 
-0.057734 0.712053 0.000000 
-0.178789 0.865962 0.000000 
-0.067979 0.208536 0.000000 
0.677748 0.070332 0.000000 
0.641556 -0.715413 0.000000 
-0.765897 -0.973892 0.000000 
0.393446 0.093971 0.000000 
0.522510 -0.541759 0.000000 
-0.691820 -0.640303 0.000000 
-0.647393 0.629214 0.000000 
0.028512 0.421687 0.000000 
-0.053800 -0.395673 0.000000 
0.514316 -0.667804 0.000000 
0.965681 -0.678020 0.000000 
-0.897068 0.697951 0.000000 
-0.083078 0.631098 0.000000 
-0.006893 -0.071426 0.000000 
0.724017 -0.235059 0.000000 
0.714996 0.988537 0.000000 
-0.642413 0.755080 0.000000 
-0.760780 -0.083901 0.000000 
-0.205471 -0.361716 0.000000 
0.000000 0.663640 0.000000 
-0.564049 -0.034547 0.000000 
0.000000 -0.439983 0.000000 
0.564049 -0.034547 0.000000 
0.866949 -0.789892 0.000000 
-0.569003 0.890177 0.000000 
0.000000 -0.590535 0.000000 
0.569003 0.890177 0.000000 
-0.866949 -0.789892 0.000000 
0.299194 0.440358 0.000000 
0.858290 0.148774 0.000000 
-0.577662 0.725220 0.000000 
0.000000 0.305842 0.000000 
0.577662 0.725220 0.000000 
-0.858290 0.148774 0.000000 
-0.299194 0.440358 0.000000 
-0.268560 -0.329392 0.000000 
0.286830 -0.607033 0.000000 
0.844677 0.012165 0.000000 
-0.578910 -0.363998 0.000000 
0.000000 0.127406 0.000000 
0.578910 -0.363998 0.000000 
-0.844677 0.012165 0.000000 
-0.286830 -0.607033 0.000000 
0.268560 -0.329392 0.000000 
-0.610485 0.358338 0.000000 
0.057734 0.712053 0.000000 
0.714655 0.917220 0.000000 
0.761092 -0.372042 0.000000 
0.765897 -0.973892 0.000000 
-0.641556 -0.715413 0.000000 
-0.677748 0.070332 0.000000 
0.067979 0.208536 0.000000 
0.178789 0.865962 0.000000 
-0.514316 -0.667804 0.000000 
0.053800 -0.395673 0.000000 
-0.028512 0.421687 0.000000 
0.647393 0.629214 0.000000 
0.691820 -0.640303 0.000000 
-0.522510 -0.541759 0.000000 
-0.393446 0.093971 0.000000 
0.205471 -0.361716 0.000000 
0.760780 -0.083901 0.000000 
0.642413 0.755080 0.000000 
-0.714996 0.988537 0.000000 
-0.724017 -0.235059 0.000000 
0.006894 -0.071426 0.000000 
0.083078 0.631098 0.000000 
0.897068 0.697951 0.000000 
-0.965681 -0.678020 0.000000 
-0.761262 -0.327668 0.000000 
0.142083 0.811594 0.000000 
0.397202 -0.527131 0.000000 
-0.108942 -0.046292 0.000000 
-0.899809 -0.041440 0.000000 
-0.724964 0.600808 0.000000 
0.660903 -0.938672 0.000000 
-0.978194 -0.247047 0.000000 
0.595936 0.252819 0.000000 
0.071546 -0.890005 0.000000 
0.220880 -0.259080 0.000000 
-0.445811 0.183706 0.000000 
-0.180633 0.861866 0.000000 
-0.702895 -0.646616 0.000000 
-0.287229 0.052713 0.000000 
-0.685384 0.553871 0.000000 
-0.957100 0.261430 0.000000 
-0.820030 0.885501 0.000000 
0.474522 -0.687505 0.000000 
0.699407 -0.020226 0.000000 
0.109248 0.456530 0.000000 
0.441768 -0.848020 0.000000 
-0.039645 -0.348149 0.000000 
0.417537 0.354414 0.000000 
0.033296 0.854923 0.000000 
-0.338794 -0.877803 0.000000 
-0.374519 -0.304840 0.000000 
-0.713312 0.314590 0.000000 
0.609100 0.203449 0.000000 
-0.381900 0.317388 0.000000 
-0.756418 0.859781 0.000000 
0.513962 0.648294 0.000000 
0.218274 -0.627467 0.000000 
-0.423588 -0.661570 0.000000 
-0.384386 0.953157 0.000000 
-0.766286 -0.532222 0.000000 
0.484677 -0.797438 0.000000 
0.139443 -0.159313 0.000000 
-0.556234 -0.276882 0.000000 
-0.823577 0.496622 0.000000 
0.550868 0.485827 0.000000 
-0.386873 -0.411074 0.000000 
-0.771260 0.089316 0.000000 
0.467428 -0.217213 0.000000 
0.105264 0.381414 0.000000 
-0.621631 0.199514 0.000000 
-0.937896 0.903094 0.000000 
0.385608 0.823899 0.000000 
0.141715 -0.366873 0.000000 
-0.474677 -0.366777 0.000000 
CELL_DATA 175 
SCALARS MASS float 
LOOKUP_TABLE default 
0.781831 
0.864274 
0.946717 
0.864274 
0.881307 
0.921110 
0.858535 
0.921110 
0.881307 
0.887046 
0.910001 
0.869829 
0.915556 
0.869829 
0.910001 
0.887046 
0.892784 
0.915740 
0.892784 
0.927218 
0.892784 
0.927218 
0.892784 
0.915740 
0.892784 
0.781831 
0.864274 
0.946717 
0.864274 
0.881307 
0.921110 
0.858535 
0.921110 
0.881307 
0.887046 
0.910001 
0.869829 
0.915556 
0.869829 
0.910001 
0.887046 
0.892784 
0.915740 
0.892784 
0.927218 
0.892784 
0.927218 
0.892784 
0.915740 
0.892784 
0.781831 
0.864274 
0.946717 
0.864274 
0.881307 
0.921110 
0.858535 
0.921110 
0.881307 
0.887046 
0.910001 
0.869829 
0.915556 
0.869829 
0.910001 
0.887046 
0.892784 
0.915740 
0.892784 
0.927218 
0.892784 
0.927218 
0.892784 
0.915740 
0.892784 
0.781831 
0.864274 
0.946717 
0.864274 
0.881307 
0.921110 
0.858535 
0.921110 
0.881307 
0.887046 
0.910001 
0.869829 
0.915556 
0.869829 
0.910001 
0.887046 
0.892784 
0.915740 
0.892784 
0.927218 
0.892784 
0.927218 
0.892784 
0.915740 
0.892784 
0.781831 
0.864274 
0.946717 
0.864274 
0.881307 
0.921110 
0.858535 
0.921110 
0.881307 
0.887046 
0.910001 
0.869829 
0.915556 
0.869829 
0.910001 
0.887046 
0.892784 
0.915740 
0.892784 
0.927218 
0.892784 
0.927218 
0.892784 
0.915740 
0.892784 
0.781831 
0.864274 
0.946717 
0.864274 
0.881307 
0.921110 
0.858535 
0.921110 
0.881307 
0.887046 
0.910001 
0.869829 
0.915556 
0.869829 
0.910001 
0.887046 
0.892784 
0.915740 
0.892784 
0.927218 
0.892784 
0.927218 
0.892784 
0.915740 
0.892784 
0.781831 
0.864274 
0.946717 
0.864274 
0.881307 
0.921110 
0.858535 
0.921110 
0.881307 
0.887046 
0.910001 
0.869829 
0.915556 
0.869829 
0.910001 
0.887046 
0.892784 
0.915740 
0.892784 
0.927218 
0.892784 
0.927218 
0.892784 
0.915740 
0.892784 
SCALARS MASS float 
LOOKUP_TABLE default 
0.781831 
0.864274 
0.946717 
0.864274 
0.881307 
0.921110 
0.858535 
0.921110 
0.881307 
0.887046 
0.910001 
0.869829 
0.915556 
0.869829 
0.910001 
0.887046 
0.892784 
0.915740 
0.892784 
0.927218 
0.892784 
0.927218 
0.892784 
0.915740 
0.892784 
0.781831 
0.864274 
0.946717 
0.864274 
0.881307 
0.921110 
0.858535 
0.921110 
0.881307 
0.887046 
0.910001 
0.869829 
0.915556 
0.869829 
0.910001 
0.887046 
0.892784 
0.915740 
0.892784 
0.927218 
0.892784 
0.927218 
0.892784 
0.915740 
0.892784 
0.781831 
0.864274 
0.946717 
0.864274 
0.881307 
0.921110 
0.858535 
0.921110 
0.881307 
0.887046 
0.910001 
0.869829 
0.915556 
0.869829 
0.910001 
0.887046 
0.892784 
0.915740 
0.892784 
0.927218 
0.892784 
0.927218 
0.892784 
0.915740 
0.892784 
0.781831 
0.864274 
0.946717 
0.864274 
0.881307 
0.921110 
0.858535 
0.921110 
0.881307 
0.887046 
0.910001 
0.869829 
0.915556 
0.869829 
0.910001 
0.887046 
0.892784 
0.915740 
0.892784 
0.927218 
0.892784 
0.927218 
0.892784 
0.915740 
0.892784 
0.781831 
0.864274 
0.946717 
0.864274 
0.881307 
0.921110 
0.858535 
0.921110 
0.881307 
0.887046 
0.910001 
0.869829 
0.915556 
0.869829 
0.910001 
0.887046 
0.892784 
0.915740 
0.892784 
0.927218 
0.892784 
0.927218 
0.892784 
0.915740 
0.892784 
0.781831 
0.864274 
0.946717 
0.864274 
0.881307 
0.921110 
0.858535 
0.921110 
0.881307 
0.887046 
0.910001 
0.869829 
0.915556 
0.869829 
0.910001 
0.887046 
0.892784 
0.915740 
0.892784 
0.927218 
0.892784 
0.927218 
0.892784 
0.915740 
0.892784 
0.781831 
0.864274 
0.946717 
0.864274 
0.881307 
0.921110 
0.858535 
0.921110 
0.881307 
0.887046 
0.910001 
0.869829 
0.915556 
0.869829 
0.910001 
0.887046 
0.892784 
0.915740 
0.892784 
0.927218 
0.892784 
0.927218 
0.892784 
0.915740 
0.892784 
SCALARS DENSITY float 
LOOKUP_TABLE default 
200.000000 
200.000000 
200.000000 
200.000000 
200.000000 
200.000000 
200.000000 
200.000000 
200.000000 
200.000000 
200.000000 
200.000000 
200.000000 
200.000000 
200.000000 
200.000000 
200.000000 
200.000000 
200.000000 
200.000000 
200.000000 
200.000000 
200.000000 
200.000000 
200.000000 
200.000000 
200.000000 
200.000000 
200.000000 
200.000000 
200.000000 
200.000000 
200.000000 
200.000000 
200.000000 
200.000000 
200.000000 
200.000000 
200.000000 
200.000000 
200.000000 
200.000000 
200.000000 
200.000000 
200.000000 
200.000000 
200.000000 
200.000000 
200.000000 
200.000000 
200.000000 
200.000000 
200.000000 
200.000000 
200.000000 
200.000000 
200.000000 
200.000000 
200.000000 
200.000000 
200.000000 
200.000000 
200.000000 
200.000000 
200.000000 
200.000000 
200.000000 
200.000000 
200.000000 
200.000000 
200.000000 
200.000000 
200.000000 
200.000000 
200.000000 
200.000000 
200.000000 
200.000000 
200.000000 
200.000000 
200.000000 
200.000000 
200.000000 
200.000000 
200.000000 
200.000000 
200.000000 
200.000000 
200.000000 
200.000000 
200.000000 
200.000000 
200.000000 
200.000000 
200.000000 
200.000000 
200.000000 
200.000000 
200.000000 
200.000000 
200.000000 
200.000000 
200.000000 
200.000000 
200.000000 
200.000000 
200.000000 
200.000000 
200.000000 
200.000000 
200.000000 
200.000000 
200.000000 
200.000000 
200.000000 
200.000000 
200.000000 
200.000000 
200.000000 
200.000000 
200.000000 
200.000000 
200.000000 
200.000000 
200.000000 
200.000000 
200.000000 
200.000000 
200.000000 
200.000000 
200.000000 
200.000000 
200.000000 
200.000000 
200.000000 
200.000000 
200.000000 
200.000000 
200.000000 
200.000000 
200.000000 
200.000000 
200.000000 
200.000000 
200.000000 
200.000000 
200.000000 
200.000000 
200.000000 
200.000000 
200.000000 
200.000000 
200.000000 
200.000000 
200.000000 
200.000000 
200.000000 
200.000000 
200.000000 
200.000000 
200.000000 
200.000000 
200.000000 
200.000000 
200.000000 
200.000000 
200.000000 
200.000000 
200.000000 
200.000000 
200.000000 
200.000000 
200.000000 
200.000000 
200.000000 
SCALARS ELEM_i float 
LOOKUP_TABLE default 
166 
194 
167 
167 
194 
194 
195 
168 
168 
222 
195 
195 
195 
195 
168 
169 
222 
222 
223 
196 
196 
196 
196 
169 
169 
166 
193 
193 
194 
220 
193 
220 
194 
194 
220 
220 
220 
221 
221 
221 
221 
247 
247 
247 
247 
248 
248 
248 
222 
222 
166 
192 
193 
193 
192 
192 
192 
192 
219 
191 
191 
218 
219 
219 
219 
219 
190 
218 
218 
218 
218 
219 
246 
246 
246 
166 
165 
165 
165 
137 
165 
164 
165 
191 
137 
137 
164 
164 
164 
191 
191 
136 
136 
136 
163 
163 
163 
190 
190 
190 
166 
139 
139 
138 
111 
138 
138 
138 
138 
111 
111 
111 
111 
110 
137 
137 
84 
84 
84 
111 
110 
110 
110 
110 
136 
166 
140 
139 
139 
140 
140 
112 
139 
112 
113 
113 
113 
113 
112 
112 
112 
114 
114 
86 
86 
86 
85 
85 
85 
85 
166 
167 
167 
140 
168 
168 
141 
140 
140 
169 
168 
141 
141 
141 
141 
114 
169 
169 
142 
142 
142 
142 
115 
114 
114 
VECTORS VELOCITY float 
0.000000 -6.749280 0.000000 
0.000000 -6.749280 0.000000 
0.000000 -6.749280 0.000000 
-0.000000 -6.749280 0.000000 
0.000000 -6.749280 0.000000 
0.000000 -6.749280 0.000000 
-0.000000 -6.749280 0.000000 
-0.000000 -6.749280 0.000000 
0.000000 -6.749280 0.000000 
-0.000000 -6.749280 0.000000 
-0.000000 -6.749280 0.000000 
-0.000000 -6.749280 0.000000 
-0.000000 -6.749280 0.000000 
0.000000 -6.749280 0.000000 
0.000000 -6.749280 0.000000 
0.000000 -6.749280 0.000000 
-0.000000 -6.749280 0.000000 
-0.000000 -6.749280 0.000000 
0.000000 -6.749280 0.000000 
-0.000000 -6.749280 0.000000 
0.000000 -6.749280 0.000000 
0.000000 -6.749280 0.000000 
0.000000 -6.749280 0.000000 
0.000000 -6.749280 0.000000 
-0.000000 -6.749280 0.000000 
0.000000 -6.749280 0.000000 
-0.000000 -6.749280 0.000000 
0.000000 -6.749280 0.000000 
0.000000 -6.749280 0.000000 
-0.000000 -6.749280 0.000000 
-0.000000 -6.749280 0.000000 
-0.000000 -6.749280 0.000000 
-0.000000 -6.749280 0.000000 
0.000000 -6.749280 0.000000 
-0.000000 -6.749280 0.000000 
-0.000000 -6.749280 0.000000 
-0.000000 -6.749280 0.000000 
-0.000000 -6.749280 0.000000 
-0.000000 -6.749280 0.000000 
-0.000000 -6.749280 0.000000 
-0.000000 -6.749280 0.000000 
0.000000 -6.749280 0.000000 
0.000000 -6.749280 0.000000 
-0.000000 -6.749280 0.000000 
-0.000000 -6.749280 0.000000 
-0.000000 -6.749280 0.000000 
-0.000000 -6.749280 0.000000 
-0.000000 -6.749280 0.000000 
-0.000000 -6.749280 0.000000 
-0.000000 -6.749280 0.000000 
-0.000000 -6.749280 0.000000 
0.000000 -6.749280 0.000000 
0.000000 -6.749280 0.000000 
-0.000000 -6.749280 0.000000 
-0.000000 -6.749280 0.000000 
0.000000 -6.749280 0.000000 
-0.000000 -6.749280 0.000000 
-0.000000 -6.749280 0.000000 
-0.000000 -6.749280 0.000000 
-0.000000 -6.749280 0.000000 
0.000000 -6.749280 0.000000 
0.000000 -6.749280 0.000000 
0.000000 -6.749280 0.000000 
0.000000 -6.749280 0.000000 
0.000000 -6.749280 0.000000 
0.000000 -6.749280 0.000000 
-0.000000 -6.749280 0.000000 
-0.000000 -6.749280 0.000000 
-0.000000 -6.749280 0.000000 
0.000000 -6.749280 0.000000 
-0.000000 -6.749280 0.000000 
0.000000 -6.749280 0.000000 
0.000000 -6.749280 0.000000 
-0.000000 -6.749280 0.000000 
-0.000000 -6.749280 0.000000 
-0.000000 -6.749280 0.000000 
0.000000 -6.749280 0.000000 
0.000000 -6.749280 0.000000 
0.000000 -6.749280 0.000000 
-0.000000 -6.749280 0.000000 
-0.000000 -6.749280 0.000000 
-0.000000 -6.749280 0.000000 
-0.000000 -6.749280 0.000000 
-0.000000 -6.749280 0.000000 
-0.000000 -6.749280 0.000000 
-0.000000 -6.749280 0.000000 
-0.000000 -6.749280 0.000000 
-0.000000 -6.749280 0.000000 
-0.000000 -6.749280 0.000000 
-0.000000 -6.749280 0.000000 
-0.000000 -6.749280 0.000000 
-0.000000 -6.749280 0.000000 
0.000000 -6.749280 0.000000 
-0.000000 -6.749280 0.000000 
0.000000 -6.749280 0.000000 
-0.000000 -6.749280 0.000000 
-0.000000 -6.749280 0.000000 
-0.000000 -6.749280 0.000000 
-0.000000 -6.749280 0.000000 
-0.000000 -6.749280 0.000000 
-0.000000 -6.749280 0.000000 
0.000000 -6.749280 0.000000 
0.000000 -6.749280 0.000000 
-0.000000 -6.749280 0.000000 
0.000000 -6.749280 0.000000 
0.000000 -6.749280 0.000000 
-0.000000 -6.749280 0.000000 
0.000000 -6.749280 0.000000 
0.000000 -6.749280 0.000000 
-0.000000 -6.749280 0.000000 
0.000000 -6.749280 0.000000 
-0.000000 -6.749280 0.000000 
-0.000000 -6.749280 0.000000 
0.000000 -6.749280 0.000000 
0.000000 -6.749280 0.000000 
0.000000 -6.749280 0.000000 
-0.000000 -6.749280 0.000000 
-0.000000 -6.749280 0.000000 
0.000000 -6.749280 0.000000 
-0.000000 -6.749280 0.000000 
-0.000000 -6.749280 0.000000 
0.000000 -6.749280 0.000000 
-0.000000 -6.749280 0.000000 
0.000000 -6.749280 0.000000 
-0.000000 -6.749280 0.000000 
0.000000 -6.749280 0.000000 
0.000000 -6.749280 0.000000 
0.000000 -6.749280 0.000000 
0.000000 -6.749280 0.000000 
0.000000 -6.749280 0.000000 
0.000000 -6.749280 0.000000 
0.000000 -6.749280 0.000000 
0.000000 -6.749280 0.000000 
0.000000 -6.749280 0.000000 
0.000000 -6.749280 0.000000 
0.000000 -6.749280 0.000000 
0.000000 -6.749280 0.000000 
-0.000000 -6.749280 0.000000 
-0.000000 -6.749280 0.000000 
-0.000000 -6.749280 0.000000 
0.000000 -6.749280 0.000000 
0.000000 -6.749280 0.000000 
0.000000 -6.749280 0.000000 
0.000000 -6.749280 0.000000 
0.000000 -6.749280 0.000000 
0.000000 -6.749280 0.000000 
0.000000 -6.749280 0.000000 
0.000000 -6.749280 0.000000 
0.000000 -6.749280 0.000000 
0.000000 -6.749280 0.000000 
0.000000 -6.749280 0.000000 
-0.000000 -6.749280 0.000000 
-0.000000 -6.749280 0.000000 
-0.000000 -6.749280 0.000000 
0.000000 -6.749280 0.000000 
-0.000000 -6.749280 0.000000 
0.000000 -6.749280 0.000000 
-0.000000 -6.749280 0.000000 
-0.000000 -6.749280 0.000000 
0.000000 -6.749280 0.000000 
0.000000 -6.749280 0.000000 
0.000000 -6.749280 0.000000 
0.000000 -6.749280 0.000000 
0.000000 -6.749280 0.000000 
-0.000000 -6.749280 0.000000 
-0.000000 -6.749280 0.000000 
0.000000 -6.749280 0.000000 
0.000000 -6.749280 0.000000 
0.000000 -6.749280 0.000000 
-0.000000 -6.749280 0.000000 
-0.000000 -6.749280 0.000000 
0.000000 -6.749280 0.000000 
-0.000000 -6.749280 0.000000 
0.000000 -6.749280 0.000000 
0.000000 -6.749280 0.000000 
TENSORS STRESS float 
-0.000000 -0.000000 0.000000 
0.000000 -0.000000 0.000000 
0.000000 0.000000 0.000000 

0.000000 -0.000000 0.000000 
0.000000 0.000000 0.000000 
0.000000 0.000000 0.000000 

0.000000 -0.000000 0.000000 
0.000000 0.000000 0.000000 
0.000000 0.000000 0.000000 

0.000000 -0.000000 0.000000 
0.000000 0.000000 0.000000 
0.000000 0.000000 0.000000 

-0.000000 -0.000000 0.000000 
0.000000 -0.000000 0.000000 
0.000000 0.000000 0.000000 

0.000000 -0.000000 0.000000 
0.000000 0.000000 0.000000 
0.000000 0.000000 0.000000 

0.000000 -0.000000 0.000000 
0.000000 0.000000 0.000000 
0.000000 0.000000 0.000000 

0.000000 -0.000000 0.000000 
0.000000 0.000000 0.000000 
0.000000 0.000000 0.000000 

0.000000 0.000000 0.000000 
0.000000 -0.000000 0.000000 
0.000000 0.000000 0.000000 

-0.000000 -0.000000 0.000000 
0.000000 -0.000000 0.000000 
0.000000 0.000000 0.000000 

-0.000000 -0.000000 0.000000 
0.000000 -0.000000 0.000000 
0.000000 0.000000 0.000000 

0.000000 -0.000000 0.000000 
0.000000 0.000000 0.000000 
0.000000 0.000000 0.000000 

0.000000 -0.000000 0.000000 
0.000000 0.000000 0.000000 
0.000000 0.000000 0.000000 

0.000000 -0.000000 0.000000 
0.000000 0.000000 0.000000 
0.000000 0.000000 0.000000 

-0.000000 0.000000 0.000000 
0.000000 -0.000000 0.000000 
0.000000 0.000000 0.000000 

-0.000000 0.000000 0.000000 
0.000000 -0.000000 0.000000 
0.000000 0.000000 0.000000 

0.000000 -0.000000 0.000000 
0.000000 0.000000 0.000000 
0.000000 0.000000 0.000000 

0.000000 -0.000000 0.000000 
0.000000 0.000000 0.000000 
0.000000 0.000000 0.000000 

0.000000 0.000000 0.000000 
0.000000 0.000000 0.000000 
0.000000 0.000000 0.000000 

-0.000000 -0.000000 0.000000 
0.000000 -0.000000 0.000000 
0.000000 0.000000 0.000000 

0.000000 -0.000000 0.000000 
0.000000 0.000000 0.000000 
0.000000 0.000000 0.000000 

-0.000000 -0.000000 0.000000 
0.000000 -0.000000 0.000000 
0.000000 0.000000 0.000000 

-0.000000 -0.000000 0.000000 
0.000000 -0.000000 0.000000 
0.000000 0.000000 0.000000 

0.000000 0.000000 0.000000 
0.000000 0.000000 0.000000 
0.000000 0.000000 0.000000 

-0.000000 0.000000 0.000000 
0.000000 -0.000000 0.000000 
0.000000 0.000000 0.000000 

-0.000000 -0.000000 0.000000 
0.000000 -0.000000 0.000000 
0.000000 0.000000 0.000000 

-0.000000 -0.000000 0.000000 
0.000000 -0.000000 0.000000 
0.000000 0.000000 0.000000 

0.000000 -0.000000 0.000000 
0.000000 0.000000 0.000000 
0.000000 0.000000 0.000000 

-0.000000 -0.000000 0.000000 
0.000000 -0.000000 0.000000 
0.000000 0.000000 0.000000 

0.000000 -0.000000 0.000000 
0.000000 0.000000 0.000000 
0.000000 0.000000 0.000000 

-0.000000 -0.000000 0.000000 
0.000000 -0.000000 0.000000 
0.000000 0.000000 0.000000 

0.000000 0.000000 0.000000 
0.000000 0.000000 0.000000 
0.000000 0.000000 0.000000 

-0.000000 -0.000000 0.000000 
0.000000 -0.000000 0.000000 
0.000000 0.000000 0.000000 

0.000000 -0.000000 0.000000 
0.000000 0.000000 0.000000 
0.000000 0.000000 0.000000 

0.000000 0.000000 0.000000 
0.000000 0.000000 0.000000 
0.000000 0.000000 0.000000 

-0.000000 0.000000 0.000000 
0.000000 -0.000000 0.000000 
0.000000 0.000000 0.000000 

-0.000000 0.000000 0.000000 
0.000000 -0.000000 0.000000 
0.000000 0.000000 0.000000 

-0.000000 0.000000 0.000000 
0.000000 -0.000000 0.000000 
0.000000 0.000000 0.000000 

0.000000 0.000000 0.000000 
0.000000 0.000000 0.000000 
0.000000 0.000000 0.000000 

0.000000 0.000000 0.000000 
0.000000 0.000000 0.000000 
0.000000 0.000000 0.000000 

-0.000000 0.000000 0.000000 
0.000000 -0.000000 0.000000 
0.000000 0.000000 0.000000 

0.000000 -0.000000 0.000000 
0.000000 0.000000 0.000000 
0.000000 0.000000 0.000000 

-0.000000 0.000000 0.000000 
0.000000 -0.000000 0.000000 
0.000000 0.000000 0.000000 

-0.000000 0.000000 0.000000 
0.000000 -0.000000 0.000000 
0.000000 0.000000 0.000000 

0.000000 0.000000 0.000000 
0.000000 0.000000 0.000000 
0.000000 0.000000 0.000000 

-0.000000 0.000000 0.000000 
0.000000 -0.000000 0.000000 
0.000000 0.000000 0.000000 

-0.000000 0.000000 0.000000 
0.000000 0.000000 0.000000 
0.000000 0.000000 0.000000 

0.000000 0.000000 0.000000 
0.000000 0.000000 0.000000 
0.000000 0.000000 0.000000 

-0.000000 -0.000000 0.000000 
0.000000 -0.000000 0.000000 
0.000000 0.000000 0.000000 

-0.000000 -0.000000 0.000000 
0.000000 -0.000000 0.000000 
0.000000 0.000000 0.000000 

-0.000000 -0.000000 0.000000 
0.000000 -0.000000 0.000000 
0.000000 0.000000 0.000000 

-0.000000 0.000000 0.000000 
0.000000 -0.000000 0.000000 
0.000000 0.000000 0.000000 

-0.000000 0.000000 0.000000 
0.000000 -0.000000 0.000000 
0.000000 0.000000 0.000000 

-0.000000 0.000000 0.000000 
0.000000 -0.000000 0.000000 
0.000000 0.000000 0.000000 

-0.000000 -0.000000 0.000000 
0.000000 -0.000000 0.000000 
0.000000 0.000000 0.000000 

-0.000000 0.000000 0.000000 
0.000000 -0.000000 0.000000 
0.000000 0.000000 0.000000 

-0.000000 0.000000 0.000000 
0.000000 0.000000 0.000000 
0.000000 0.000000 0.000000 

-0.000000 0.000000 0.000000 
0.000000 -0.000000 0.000000 
0.000000 0.000000 0.000000 

0.000000 0.000000 0.000000 
0.000000 0.000000 0.000000 
0.000000 0.000000 0.000000 

0.000000 -0.000000 0.000000 
0.000000 0.000000 0.000000 
0.000000 0.000000 0.000000 

0.000000 -0.000000 0.000000 
0.000000 0.000000 0.000000 
0.000000 0.000000 0.000000 

0.000000 0.000000 0.000000 
0.000000 0.000000 0.000000 
0.000000 0.000000 0.000000 

0.000000 0.000000 0.000000 
0.000000 0.000000 0.000000 
0.000000 0.000000 0.000000 

0.000000 -0.000000 0.000000 
0.000000 0.000000 0.000000 
0.000000 0.000000 0.000000 

0.000000 0.000000 0.000000 
0.000000 0.000000 0.000000 
0.000000 0.000000 0.000000 

-0.000000 0.000000 0.000000 
0.000000 -0.000000 0.000000 
0.000000 0.000000 0.000000 

0.000000 0.000000 0.000000 
0.000000 0.000000 0.000000 
0.000000 0.000000 0.000000 

0.000000 0.000000 0.000000 
0.000000 0.000000 0.000000 
0.000000 0.000000 0.000000 

0.000000 -0.000000 0.000000 
0.000000 0.000000 0.000000 
0.000000 0.000000 0.000000 

-0.000000 0.000000 0.000000 
0.000000 -0.000000 0.000000 
0.000000 0.000000 0.000000 

-0.000000 0.000000 0.000000 
0.000000 -0.000000 0.000000 
0.000000 0.000000 0.000000 

0.000000 0.000000 0.000000 
0.000000 0.000000 0.000000 
0.000000 0.000000 0.000000 

-0.000000 0.000000 0.000000 
0.000000 -0.000000 0.000000 
0.000000 0.000000 0.000000 

0.000000 -0.000000 0.000000 
0.000000 0.000000 0.000000 
0.000000 0.000000 0.000000 

0.000000 -0.000000 0.000000 
0.000000 0.000000 0.000000 
0.000000 0.000000 0.000000 

-0.000000 -0.000000 0.000000 
0.000000 -0.000000 0.000000 
0.000000 0.000000 0.000000 

0.000000 -0.000000 0.000000 
0.000000 0.000000 0.000000 
0.000000 0.000000 0.000000 

-0.000000 -0.000000 0.000000 
0.000000 -0.000000 0.000000 
0.000000 0.000000 0.000000 

0.000000 -0.000000 0.000000 
0.000000 0.000000 0.000000 
0.000000 0.000000 0.000000 

0.000000 -0.000000 0.000000 
0.000000 0.000000 0.000000 
0.000000 0.000000 0.000000 

-0.000000 -0.000000 0.000000 
0.000000 -0.000000 0.000000 
0.000000 0.000000 0.000000 

-0.000000 -0.000000 0.000000 
0.000000 -0.000000 0.000000 
0.000000 0.000000 0.000000 

-0.000000 -0.000000 0.000000 
0.000000 -0.000000 0.000000 
0.000000 0.000000 0.000000 

0.000000 -0.000000 0.000000 
0.000000 0.000000 0.000000 
0.000000 0.000000 0.000000 

-0.000000 -0.000000 0.000000 
0.000000 -0.000000 0.000000 
0.000000 0.000000 0.000000 

0.000000 -0.000000 0.000000 
0.000000 0.000000 0.000000 
0.000000 0.000000 0.000000 

0.000000 -0.000000 0.000000 
0.000000 0.000000 0.000000 
0.000000 0.000000 0.000000 

-0.000000 -0.000000 0.000000 
0.000000 -0.000000 0.000000 
0.000000 0.000000 0.000000 

-0.000000 -0.000000 0.000000 
0.000000 -0.000000 0.000000 
0.000000 0.000000 0.000000 

-0.000000 -0.000000 0.000000 
0.000000 -0.000000 0.000000 
0.000000 0.000000 0.000000 

-0.000000 -0.000000 0.000000 
0.000000 -0.000000 0.000000 
0.000000 0.000000 0.000000 

-0.000000 -0.000000 0.000000 
0.000000 -0.000000 0.000000 
0.000000 0.000000 0.000000 

-0.000000 -0.000000 0.000000 
0.000000 -0.000000 0.000000 
0.000000 0.000000 0.000000 

0.000000 -0.000000 0.000000 
0.000000 0.000000 0.000000 
0.000000 0.000000 0.000000 

-0.000000 -0.000000 0.000000 
0.000000 -0.000000 0.000000 
0.000000 0.000000 0.000000 

0.000000 0.000000 0.000000 
0.000000 0.000000 0.000000 
0.000000 0.000000 0.000000 

-0.000000 -0.000000 0.000000 
0.000000 -0.000000 0.000000 
0.000000 0.000000 0.000000 

-0.000000 0.000000 0.000000 
0.000000 -0.000000 0.000000 
0.000000 0.000000 0.000000 

-0.000000 0.000000 0.000000 
0.000000 -0.000000 0.000000 
0.000000 0.000000 0.000000 

0.000000 0.000000 0.000000 
0.000000 0.000000 0.000000 
0.000000 0.000000 0.000000 

0.000000 -0.000000 0.000000 
0.000000 0.000000 0.000000 
0.000000 0.000000 0.000000 

0.000000 0.000000 0.000000 
0.000000 0.000000 0.000000 
0.000000 0.000000 0.000000 

-0.000000 0.000000 0.000000 
0.000000 -0.000000 0.000000 
0.000000 0.000000 0.000000 

0.000000 -0.000000 0.000000 
0.000000 0.000000 0.000000 
0.000000 0.000000 0.000000 

0.000000 0.000000 0.000000 
0.000000 0.000000 0.000000 
0.000000 0.000000 0.000000 

-0.000000 0.000000 0.000000 
0.000000 -0.000000 0.000000 
0.000000 0.000000 0.000000 

0.000000 -0.000000 0.000000 
0.000000 0.000000 0.000000 
0.000000 0.000000 0.000000 

0.000000 -0.000000 0.000000 
0.000000 0.000000 0.000000 
0.000000 0.000000 0.000000 

-0.000000 -0.000000 0.000000 
0.000000 -0.000000 0.000000 
0.000000 0.000000 0.000000 

-0.000000 0.000000 0.000000 
0.000000 -0.000000 0.000000 
0.000000 0.000000 0.000000 

0.000000 0.000000 0.000000 
0.000000 0.000000 0.000000 
0.000000 0.000000 0.000000 

-0.000000 0.000000 0.000000 
0.000000 -0.000000 0.000000 
0.000000 0.000000 0.000000 

-0.000000 0.000000 0.000000 
0.000000 -0.000000 0.000000 
0.000000 0.000000 0.000000 

-0.000000 -0.000000 0.000000 
0.000000 -0.000000 0.000000 
0.000000 0.000000 0.000000 

0.000000 -0.000000 0.000000 
0.000000 0.000000 0.000000 
0.000000 0.000000 0.000000 

-0.000000 -0.000000 0.000000 
0.000000 -0.000000 0.000000 
0.000000 0.000000 0.000000 

-0.000000 -0.000000 0.000000 
0.000000 -0.000000 0.000000 
0.000000 0.000000 0.000000 

-0.000000 -0.000000 0.000000 
0.000000 -0.000000 0.000000 
0.000000 0.000000 0.000000 

-0.000000 0.000000 0.000000 
0.000000 -0.000000 0.000000 
0.000000 0.000000 0.000000 

-0.000000 0.000000 0.000000 
0.000000 -0.000000 0.000000 
0.000000 0.000000 0.000000 

-0.000000 0.000000 0.000000 
0.000000 -0.000000 0.000000 
0.000000 0.000000 0.000000 

-0.000000 -0.000000 0.000000 
0.000000 -0.000000 0.000000 
0.000000 0.000000 0.000000 

0.000000 -0.000000 0.000000 
0.000000 0.000000 0.000000 
0.000000 0.000000 0.000000 

-0.000000 -0.000000 0.000000 
0.000000 -0.000000 0.000000 
0.000000 0.000000 0.000000 

0.000000 -0.000000 0.000000 
0.000000 0.000000 0.000000 
0.000000 0.000000 0.000000 

0.000000 -0.000000 0.000000 
0.000000 0.000000 0.000000 
0.000000 0.000000 0.000000 

-0.000000 0.000000 0.000000 
0.000000 -0.000000 0.000000 
0.000000 0.000000 0.000000 

-0.000000 -0.000000 0.000000 
0.000000 -0.000000 0.000000 
0.000000 0.000000 0.000000 

0.000000 0.000000 0.000000 
0.000000 0.000000 0.000000 
0.000000 0.000000 0.000000 

-0.000000 -0.000000 0.000000 
0.000000 -0.000000 0.000000 
0.000000 0.000000 0.000000 

0.000000 0.000000 0.000000 
0.000000 0.000000 0.000000 
0.000000 0.000000 0.000000 

-0.000000 -0.000000 0.000000 
0.000000 -0.000000 0.000000 
0.000000 0.000000 0.000000 

0.000000 0.000000 0.000000 
0.000000 0.000000 0.000000 
0.000000 0.000000 0.000000 

-0.000000 -0.000000 0.000000 
0.000000 -0.000000 0.000000 
0.000000 0.000000 0.000000 

-0.000000 -0.000000 0.000000 
0.000000 -0.000000 0.000000 
0.000000 0.000000 0.000000 

-0.000000 -0.000000 0.000000 
0.000000 -0.000000 0.000000 
0.000000 0.000000 0.000000 

0.000000 -0.000000 0.000000 
0.000000 0.000000 0.000000 
0.000000 0.000000 0.000000 

0.000000 -0.000000 0.000000 
0.000000 0.000000 0.000000 
0.000000 0.000000 0.000000 

-0.000000 -0.000000 0.000000 
0.000000 -0.000000 0.000000 
0.000000 0.000000 0.000000 

-0.000000 -0.000000 0.000000 
0.000000 -0.000000 0.000000 
0.000000 0.000000 0.000000 

0.000000 -0.000000 0.000000 
0.000000 0.000000 0.000000 
0.000000 0.000000 0.000000 

-0.000000 0.000000 0.000000 
0.000000 -0.000000 0.000000 
0.000000 0.000000 0.000000 

0.000000 -0.000000 0.000000 
0.000000 0.000000 0.000000 
0.000000 0.000000 0.000000 

0.000000 0.000000 0.000000 
0.000000 0.000000 0.000000 
0.000000 0.000000 0.000000 

0.000000 -0.000000 0.000000 
0.000000 0.000000 0.000000 
0.000000 0.000000 0.000000 

-0.000000 -0.000000 0.000000 
0.000000 -0.000000 0.000000 
0.000000 0.000000 0.000000 

0.000000 0.000000 0.000000 
0.000000 0.000000 0.000000 
0.000000 0.000000 0.000000 

-0.000000 0.000000 0.000000 
0.000000 -0.000000 0.000000 
0.000000 0.000000 0.000000 

0.000000 0.000000 0.000000 
0.000000 0.000000 0.000000 
0.000000 0.000000 0.000000 

0.000000 -0.000000 0.000000 
0.000000 0.000000 0.000000 
0.000000 0.000000 0.000000 

-0.000000 -0.000000 0.000000 
0.000000 -0.000000 0.000000 
0.000000 0.000000 0.000000 

0.000000 0.000000 0.000000 
0.000000 -0.000000 0.000000 
0.000000 0.000000 0.000000 

0.000000 -0.000000 0.000000 
0.000000 0.000000 0.000000 
0.000000 0.000000 0.000000 

0.000000 -0.000000 0.000000 
0.000000 0.000000 0.000000 
0.000000 0.000000 0.000000 

0.000000 0.000000 0.000000 
0.000000 0.000000 0.000000 
0.000000 0.000000 0.000000 

0.000000 -0.000000 0.000000 
0.000000 -0.000000 0.000000 
0.000000 0.000000 0.000000 

-0.000000 -0.000000 0.000000 
0.000000 -0.000000 0.000000 
0.000000 0.000000 0.000000 

0.000000 0.000000 0.000000 
0.000000 0.000000 0.000000 
0.000000 0.000000 0.000000 

-0.000000 -0.000000 0.000000 
0.000000 0.000000 0.000000 
0.000000 0.000000 0.000000 

-0.000000 0.000000 0.000000 
0.000000 -0.000000 0.000000 
0.000000 0.000000 0.000000 

0.000000 0.000000 0.000000 
0.000000 0.000000 0.000000 
0.000000 0.000000 0.000000 

-0.000000 -0.000000 0.000000 
0.000000 -0.000000 0.000000 
0.000000 0.000000 0.000000 

-0.000000 0.000000 0.000000 
0.000000 -0.000000 0.000000 
0.000000 0.000000 0.000000 

-0.000000 0.000000 0.000000 
0.000000 -0.000000 0.000000 
0.000000 0.000000 0.000000 

-0.000000 -0.000000 0.000000 
0.000000 -0.000000 0.000000 
0.000000 0.000000 0.000000 

0.000000 -0.000000 0.000000 
0.000000 0.000000 0.000000 
0.000000 0.000000 0.000000 

-0.000000 0.000000 0.000000 
0.000000 -0.000000 0.000000 
0.000000 0.000000 0.000000 

-0.000000 0.000000 0.000000 
0.000000 -0.000000 0.000000 
0.000000 0.000000 0.000000 

-0.000000 -0.000000 0.000000 
0.000000 -0.000000 0.000000 
0.000000 0.000000 0.000000 

-0.000000 0.000000 0.000000 
0.000000 -0.000000 0.000000 
0.000000 0.000000 0.000000 

-0.000000 0.000000 0.000000 
0.000000 -0.000000 0.000000 
0.000000 0.000000 0.000000 

-0.000000 0.000000 0.000000 
0.000000 -0.000000 0.000000 
0.000000 0.000000 0.000000 

0.000000 0.000000 0.000000 
0.000000 0.000000 0.000000 
0.000000 0.000000 0.000000 

-0.000000 0.000000 0.000000 
0.000000 -0.000000 0.000000 
0.000000 0.000000 0.000000 

-0.000000 0.000000 0.000000 
0.000000 -0.000000 0.000000 
0.000000 0.000000 0.000000 

TENSORS STRAIN float 
0.000000 -0.000000 0.000000 
0.000000 -0.000000 0.000000 
0.000000 0.000000 0.000000 

0.000000 -0.000000 0.000000 
0.000000 0.000000 0.000000 
0.000000 0.000000 0.000000 

0.000000 -0.000000 0.000000 
0.000000 -0.000000 0.000000 
0.000000 0.000000 0.000000 

0.000000 -0.000000 0.000000 
0.000000 -0.000000 0.000000 
0.000000 0.000000 0.000000 

-0.000000 -0.000000 0.000000 
0.000000 -0.000000 0.000000 
0.000000 0.000000 0.000000 

-0.000000 -0.000000 0.000000 
0.000000 0.000000 0.000000 
0.000000 0.000000 0.000000 

-0.000000 -0.000000 0.000000 
0.000000 0.000000 0.000000 
0.000000 0.000000 0.000000 

0.000000 -0.000000 0.000000 
0.000000 -0.000000 0.000000 
0.000000 0.000000 0.000000 

0.000000 0.000000 0.000000 
0.000000 -0.000000 0.000000 
0.000000 0.000000 0.000000 

-0.000000 -0.000000 0.000000 
0.000000 0.000000 0.000000 
0.000000 0.000000 0.000000 

-0.000000 -0.000000 0.000000 
0.000000 0.000000 0.000000 
0.000000 0.000000 0.000000 

0.000000 -0.000000 0.000000 
0.000000 0.000000 0.000000 
0.000000 0.000000 0.000000 

0.000000 -0.000000 0.000000 
0.000000 0.000000 0.000000 
0.000000 0.000000 0.000000 

0.000000 -0.000000 0.000000 
0.000000 0.000000 0.000000 
0.000000 0.000000 0.000000 

0.000000 0.000000 0.000000 
0.000000 -0.000000 0.000000 
0.000000 0.000000 0.000000 

0.000000 0.000000 0.000000 
0.000000 -0.000000 0.000000 
0.000000 0.000000 0.000000 

0.000000 -0.000000 0.000000 
0.000000 -0.000000 0.000000 
0.000000 0.000000 0.000000 

0.000000 -0.000000 0.000000 
0.000000 -0.000000 0.000000 
0.000000 0.000000 0.000000 

0.000000 0.000000 0.000000 
0.000000 -0.000000 0.000000 
0.000000 0.000000 0.000000 

0.000000 -0.000000 0.000000 
0.000000 -0.000000 0.000000 
0.000000 0.000000 0.000000 

0.000000 -0.000000 0.000000 
0.000000 -0.000000 0.000000 
0.000000 0.000000 0.000000 

0.000000 -0.000000 0.000000 
0.000000 -0.000000 0.000000 
0.000000 0.000000 0.000000 

0.000000 -0.000000 0.000000 
0.000000 -0.000000 0.000000 
0.000000 0.000000 0.000000 

0.000000 0.000000 0.000000 
0.000000 0.000000 0.000000 
0.000000 0.000000 0.000000 

0.000000 0.000000 0.000000 
0.000000 -0.000000 0.000000 
0.000000 0.000000 0.000000 

0.000000 -0.000000 0.000000 
0.000000 -0.000000 0.000000 
0.000000 0.000000 0.000000 

0.000000 -0.000000 0.000000 
0.000000 -0.000000 0.000000 
0.000000 0.000000 0.000000 

0.000000 -0.000000 0.000000 
0.000000 -0.000000 0.000000 
0.000000 0.000000 0.000000 

0.000000 -0.000000 0.000000 
0.000000 -0.000000 0.000000 
0.000000 0.000000 0.000000 

0.000000 -0.000000 0.000000 
0.000000 -0.000000 0.000000 
0.000000 0.000000 0.000000 

0.000000 -0.000000 0.000000 
0.000000 -0.000000 0.000000 
0.000000 0.000000 0.000000 

-0.000000 0.000000 0.000000 
0.000000 0.000000 0.000000 
0.000000 0.000000 0.000000 

0.000000 -0.000000 0.000000 
0.000000 -0.000000 0.000000 
0.000000 0.000000 0.000000 

0.000000 -0.000000 0.000000 
0.000000 0.000000 0.000000 
0.000000 0.000000 0.000000 

0.000000 0.000000 0.000000 
0.000000 -0.000000 0.000000 
0.000000 0.000000 0.000000 

0.000000 0.000000 0.000000 
0.000000 -0.000000 0.000000 
0.000000 0.000000 0.000000 

0.000000 0.000000 0.000000 
0.000000 -0.000000 0.000000 
0.000000 0.000000 0.000000 

-0.000000 0.000000 0.000000 
0.000000 0.000000 0.000000 
0.000000 0.000000 0.000000 

-0.000000 0.000000 0.000000 
0.000000 0.000000 0.000000 
0.000000 0.000000 0.000000 

-0.000000 0.000000 0.000000 
0.000000 0.000000 0.000000 
0.000000 0.000000 0.000000 

-0.000000 0.000000 0.000000 
0.000000 0.000000 0.000000 
0.000000 0.000000 0.000000 

0.000000 -0.000000 0.000000 
0.000000 -0.000000 0.000000 
0.000000 0.000000 0.000000 

0.000000 0.000000 0.000000 
0.000000 -0.000000 0.000000 
0.000000 0.000000 0.000000 

-0.000000 0.000000 0.000000 
0.000000 -0.000000 0.000000 
0.000000 0.000000 0.000000 

-0.000000 0.000000 0.000000 
0.000000 0.000000 0.000000 
0.000000 0.000000 0.000000 

-0.000000 0.000000 0.000000 
0.000000 0.000000 0.000000 
0.000000 0.000000 0.000000 

-0.000000 0.000000 0.000000 
0.000000 0.000000 0.000000 
0.000000 0.000000 0.000000 

-0.000000 0.000000 0.000000 
0.000000 0.000000 0.000000 
0.000000 0.000000 0.000000 

-0.000000 -0.000000 0.000000 
0.000000 0.000000 0.000000 
0.000000 0.000000 0.000000 

-0.000000 -0.000000 0.000000 
0.000000 0.000000 0.000000 
0.000000 0.000000 0.000000 

0.000000 -0.000000 0.000000 
0.000000 -0.000000 0.000000 
0.000000 0.000000 0.000000 

-0.000000 0.000000 0.000000 
0.000000 -0.000000 0.000000 
0.000000 0.000000 0.000000 

-0.000000 0.000000 0.000000 
0.000000 0.000000 0.000000 
0.000000 0.000000 0.000000 

-0.000000 0.000000 0.000000 
0.000000 -0.000000 0.000000 
0.000000 0.000000 0.000000 

-0.000000 -0.000000 0.000000 
0.000000 -0.000000 0.000000 
0.000000 0.000000 0.000000 

-0.000000 0.000000 0.000000 
0.000000 0.000000 0.000000 
0.000000 0.000000 0.000000 

-0.000000 0.000000 0.000000 
0.000000 0.000000 0.000000 
0.000000 0.000000 0.000000 

-0.000000 0.000000 0.000000 
0.000000 0.000000 0.000000 
0.000000 0.000000 0.000000 

0.000000 0.000000 0.000000 
0.000000 0.000000 0.000000 
0.000000 0.000000 0.000000 

-0.000000 -0.000000 0.000000 
0.000000 0.000000 0.000000 
0.000000 0.000000 0.000000 

-0.000000 -0.000000 0.000000 
0.000000 0.000000 0.000000 
0.000000 0.000000 0.000000 

-0.000000 0.000000 0.000000 
0.000000 0.000000 0.000000 
0.000000 0.000000 0.000000 

-0.000000 0.000000 0.000000 
0.000000 0.000000 0.000000 
0.000000 0.000000 0.000000 

-0.000000 -0.000000 0.000000 
0.000000 0.000000 0.000000 
0.000000 0.000000 0.000000 

0.000000 0.000000 0.000000 
0.000000 0.000000 0.000000 
0.000000 0.000000 0.000000 

0.000000 0.000000 0.000000 
0.000000 -0.000000 0.000000 
0.000000 0.000000 0.000000 

0.000000 0.000000 0.000000 
0.000000 0.000000 0.000000 
0.000000 0.000000 0.000000 

-0.000000 0.000000 0.000000 
0.000000 0.000000 0.000000 
0.000000 0.000000 0.000000 

-0.000000 -0.000000 0.000000 
0.000000 0.000000 0.000000 
0.000000 0.000000 0.000000 

-0.000000 0.000000 0.000000 
0.000000 0.000000 0.000000 
0.000000 0.000000 0.000000 

-0.000000 0.000000 0.000000 
0.000000 0.000000 0.000000 
0.000000 0.000000 0.000000 

-0.000000 0.000000 0.000000 
0.000000 0.000000 0.000000 
0.000000 0.000000 0.000000 

-0.000000 0.000000 0.000000 
0.000000 -0.000000 0.000000 
0.000000 0.000000 0.000000 

-0.000000 -0.000000 0.000000 
0.000000 0.000000 0.000000 
0.000000 0.000000 0.000000 

0.000000 -0.000000 0.000000 
0.000000 0.000000 0.000000 
0.000000 0.000000 0.000000 

-0.000000 -0.000000 0.000000 
0.000000 -0.000000 0.000000 
0.000000 0.000000 0.000000 

-0.000000 -0.000000 0.000000 
0.000000 0.000000 0.000000 
0.000000 0.000000 0.000000 

-0.000000 -0.000000 0.000000 
0.000000 -0.000000 0.000000 
0.000000 0.000000 0.000000 

-0.000000 -0.000000 0.000000 
0.000000 0.000000 0.000000 
0.000000 0.000000 0.000000 

0.000000 -0.000000 0.000000 
0.000000 -0.000000 0.000000 
0.000000 0.000000 0.000000 

-0.000000 -0.000000 0.000000 
0.000000 -0.000000 0.000000 
0.000000 0.000000 0.000000 

-0.000000 -0.000000 0.000000 
0.000000 -0.000000 0.000000 
0.000000 0.000000 0.000000 

-0.000000 -0.000000 0.000000 
0.000000 0.000000 0.000000 
0.000000 0.000000 0.000000 

-0.000000 -0.000000 0.000000 
0.000000 0.000000 0.000000 
0.000000 0.000000 0.000000 

0.000000 -0.000000 0.000000 
0.000000 -0.000000 0.000000 
0.000000 0.000000 0.000000 

0.000000 -0.000000 0.000000 
0.000000 -0.000000 0.000000 
0.000000 0.000000 0.000000 

-0.000000 -0.000000 0.000000 
0.000000 0.000000 0.000000 
0.000000 0.000000 0.000000 

-0.000000 -0.000000 0.000000 
0.000000 0.000000 0.000000 
0.000000 0.000000 0.000000 

-0.000000 -0.000000 0.000000 
0.000000 -0.000000 0.000000 
0.000000 0.000000 0.000000 

-0.000000 -0.000000 0.000000 
0.000000 -0.000000 0.000000 
0.000000 0.000000 0.000000 

-0.000000 -0.000000 0.000000 
0.000000 -0.000000 0.000000 
0.000000 0.000000 0.000000 

0.000000 -0.000000 0.000000 
0.000000 -0.000000 0.000000 
0.000000 0.000000 0.000000 

0.000000 -0.000000 0.000000 
0.000000 -0.000000 0.000000 
0.000000 0.000000 0.000000 

0.000000 -0.000000 0.000000 
0.000000 0.000000 0.000000 
0.000000 0.000000 0.000000 

0.000000 -0.000000 0.000000 
0.000000 -0.000000 0.000000 
0.000000 0.000000 0.000000 

0.000000 0.000000 0.000000 
0.000000 0.000000 0.000000 
0.000000 0.000000 0.000000 

0.000000 -0.000000 0.000000 
0.000000 -0.000000 0.000000 
0.000000 0.000000 0.000000 

0.000000 0.000000 0.000000 
0.000000 -0.000000 0.000000 
0.000000 0.000000 0.000000 

0.000000 0.000000 0.000000 
0.000000 -0.000000 0.000000 
0.000000 0.000000 0.000000 

0.000000 0.000000 0.000000 
0.000000 0.000000 0.000000 
0.000000 0.000000 0.000000 

0.000000 -0.000000 0.000000 
0.000000 0.000000 0.000000 
0.000000 0.000000 0.000000 

-0.000000 0.000000 0.000000 
0.000000 0.000000 0.000000 
0.000000 0.000000 0.000000 

0.000000 0.000000 0.000000 
0.000000 -0.000000 0.000000 
0.000000 0.000000 0.000000 

0.000000 -0.000000 0.000000 
0.000000 0.000000 0.000000 
0.000000 0.000000 0.000000 

0.000000 0.000000 0.000000 
0.000000 -0.000000 0.000000 
0.000000 0.000000 0.000000 

0.000000 0.000000 0.000000 
0.000000 -0.000000 0.000000 
0.000000 0.000000 0.000000 

0.000000 -0.000000 0.000000 
0.000000 -0.000000 0.000000 
0.000000 0.000000 0.000000 

0.000000 -0.000000 0.000000 
0.000000 -0.000000 0.000000 
0.000000 0.000000 0.000000 

0.000000 -0.000000 0.000000 
0.000000 -0.000000 0.000000 
0.000000 0.000000 0.000000 

0.000000 0.000000 0.000000 
0.000000 -0.000000 0.000000 
0.000000 0.000000 0.000000 

0.000000 0.000000 0.000000 
0.000000 -0.000000 0.000000 
0.000000 0.000000 0.000000 

0.000000 0.000000 0.000000 
0.000000 -0.000000 0.000000 
0.000000 0.000000 0.000000 

-0.000000 0.000000 0.000000 
0.000000 -0.000000 0.000000 
0.000000 0.000000 0.000000 

-0.000000 -0.000000 0.000000 
0.000000 -0.000000 0.000000 
0.000000 0.000000 0.000000 

0.000000 -0.000000 0.000000 
0.000000 -0.000000 0.000000 
0.000000 0.000000 0.000000 

0.000000 -0.000000 0.000000 
0.000000 -0.000000 0.000000 
0.000000 0.000000 0.000000 

-0.000000 -0.000000 0.000000 
0.000000 -0.000000 0.000000 
0.000000 0.000000 0.000000 

-0.000000 -0.000000 0.000000 
0.000000 -0.000000 0.000000 
0.000000 0.000000 0.000000 

0.000000 0.000000 0.000000 
0.000000 -0.000000 0.000000 
0.000000 0.000000 0.000000 

-0.000000 0.000000 0.000000 
0.000000 -0.000000 0.000000 
0.000000 0.000000 0.000000 

-0.000000 0.000000 0.000000 
0.000000 0.000000 0.000000 
0.000000 0.000000 0.000000 

-0.000000 -0.000000 0.000000 
0.000000 0.000000 0.000000 
0.000000 0.000000 0.000000 

-0.000000 -0.000000 0.000000 
0.000000 0.000000 0.000000 
0.000000 0.000000 0.000000 

-0.000000 -0.000000 0.000000 
0.000000 -0.000000 0.000000 
0.000000 0.000000 0.000000 

0.000000 -0.000000 0.000000 
0.000000 0.000000 0.000000 
0.000000 0.000000 0.000000 

0.000000 -0.000000 0.000000 
0.000000 0.000000 0.000000 
0.000000 0.000000 0.000000 

0.000000 0.000000 0.000000 
0.000000 -0.000000 0.000000 
0.000000 0.000000 0.000000 

0.000000 -0.000000 0.000000 
0.000000 -0.000000 0.000000 
0.000000 0.000000 0.000000 

-0.000000 0.000000 0.000000 
0.000000 0.000000 0.000000 
0.000000 0.000000 0.000000 

-0.000000 -0.000000 0.000000 
0.000000 0.000000 0.000000 
0.000000 0.000000 0.000000 

-0.000000 0.000000 0.000000 
0.000000 0.000000 0.000000 
0.000000 0.000000 0.000000 

-0.000000 -0.000000 0.000000 
0.000000 -0.000000 0.000000 
0.000000 0.000000 0.000000 

-0.000000 0.000000 0.000000 
0.000000 0.000000 0.000000 
0.000000 0.000000 0.000000 

0.000000 -0.000000 0.000000 
0.000000 -0.000000 0.000000 
0.000000 0.000000 0.000000 

0.000000 -0.000000 0.000000 
0.000000 -0.000000 0.000000 
0.000000 0.000000 0.000000 

-0.000000 -0.000000 0.000000 
0.000000 -0.000000 0.000000 
0.000000 0.000000 0.000000 

-0.000000 -0.000000 0.000000 
0.000000 0.000000 0.000000 
0.000000 0.000000 0.000000 

-0.000000 -0.000000 0.000000 
0.000000 0.000000 0.000000 
0.000000 0.000000 0.000000 

0.000000 -0.000000 0.000000 
0.000000 -0.000000 0.000000 
0.000000 0.000000 0.000000 

0.000000 -0.000000 0.000000 
0.000000 -0.000000 0.000000 
0.000000 0.000000 0.000000 

0.000000 -0.000000 0.000000 
0.000000 -0.000000 0.000000 
0.000000 0.000000 0.000000 

0.000000 0.000000 0.000000 
0.000000 -0.000000 0.000000 
0.000000 0.000000 0.000000 

0.000000 -0.000000 0.000000 
0.000000 -0.000000 0.000000 
0.000000 0.000000 0.000000 

-0.000000 0.000000 0.000000 
0.000000 0.000000 0.000000 
0.000000 0.000000 0.000000 

0.000000 -0.000000 0.000000 
0.000000 0.000000 0.000000 
0.000000 0.000000 0.000000 

0.000000 -0.000000 0.000000 
0.000000 -0.000000 0.000000 
0.000000 0.000000 0.000000 

0.000000 0.000000 0.000000 
0.000000 -0.000000 0.000000 
0.000000 0.000000 0.000000 

0.000000 0.000000 0.000000 
0.000000 -0.000000 0.000000 
0.000000 0.000000 0.000000 

-0.000000 0.000000 0.000000 
0.000000 0.000000 0.000000 
0.000000 0.000000 0.000000 

-0.000000 -0.000000 0.000000 
0.000000 0.000000 0.000000 
0.000000 0.000000 0.000000 

0.000000 -0.000000 0.000000 
0.000000 -0.000000 0.000000 
0.000000 0.000000 0.000000 

0.000000 0.000000 0.000000 
0.000000 -0.000000 0.000000 
0.000000 0.000000 0.000000 

0.000000 -0.000000 0.000000 
0.000000 0.000000 0.000000 
0.000000 0.000000 0.000000 

-0.000000 -0.000000 0.000000 
0.000000 0.000000 0.000000 
0.000000 0.000000 0.000000 

0.000000 0.000000 0.000000 
0.000000 -0.000000 0.000000 
0.000000 0.000000 0.000000 

0.000000 -0.000000 0.000000 
0.000000 -0.000000 0.000000 
0.000000 0.000000 0.000000 

-0.000000 -0.000000 0.000000 
0.000000 -0.000000 0.000000 
0.000000 0.000000 0.000000 

-0.000000 0.000000 0.000000 
0.000000 0.000000 0.000000 
0.000000 0.000000 0.000000 

-0.000000 -0.000000 0.000000 
0.000000 0.000000 0.000000 
0.000000 0.000000 0.000000 

0.000000 0.000000 0.000000 
0.000000 -0.000000 0.000000 
0.000000 0.000000 0.000000 

0.000000 0.000000 0.000000 
0.000000 0.000000 0.000000 
0.000000 0.000000 0.000000 

0.000000 -0.000000 0.000000 
0.000000 -0.000000 0.000000 
0.000000 0.000000 0.000000 

-0.000000 0.000000 0.000000 
0.000000 0.000000 0.000000 
0.000000 0.000000 0.000000 

-0.000000 0.000000 0.000000 
0.000000 -0.000000 0.000000 
0.000000 0.000000 0.000000 

-0.000000 -0.000000 0.000000 
0.000000 -0.000000 0.000000 
0.000000 0.000000 0.000000 

0.000000 -0.000000 0.000000 
0.000000 -0.000000 0.000000 
0.000000 0.000000 0.000000 

0.000000 0.000000 0.000000 
0.000000 -0.000000 0.000000 
0.000000 0.000000 0.000000 

0.000000 0.000000 0.000000 
0.000000 -0.000000 0.000000 
0.000000 0.000000 0.000000 

0.000000 -0.000000 0.000000 
0.000000 -0.000000 0.000000 
0.000000 0.000000 0.000000 

0.000000 0.000000 0.000000 
0.000000 -0.000000 0.000000 
0.000000 0.000000 0.000000 

0.000000 0.000000 0.000000 
0.000000 -0.000000 0.000000 
0.000000 0.000000 0.000000 

0.000000 0.000000 0.000000 
0.000000 -0.000000 0.000000 
0.000000 0.000000 0.000000 

0.000000 0.000000 0.000000 
0.000000 0.000000 0.000000 
0.000000 0.000000 0.000000 

0.000000 0.000000 0.000000 
0.000000 -0.000000 0.000000 
0.000000 0.000000 0.000000 

0.000000 0.000000 0.000000 
0.000000 -0.000000 0.000000 
0.000000 0.000000 0.000000 

