# vtk DataFile Version 3.0 
vtk output 
ASCII 
DATASET UNSTRUCTURED_GRID 
POINTS 175 float 
-0.026061 -0.987847 0.000000 
-0.106992 -0.919791 0.000000 
-0.054870 -0.928024 0.000000 
-0.028809 -0.882140 0.000000 
-0.186430 -0.855716 0.000000 
-0.137056 -0.858242 0.000000 
-0.114311 -0.804595 0.000000 
-0.058186 -0.820260 0.000000 
-0.029377 -0.780083 0.000000 
-0.265318 -0.792560 0.000000 
-0.217198 -0.793360 0.000000 
-0.196633 -0.736063 0.000000 
-0.143120 -0.744772 0.000000 
-0.116563 -0.697504 0.000000 
-0.058945 -0.717149 0.000000 
-0.029568 -0.679029 0.000000 
-0.344206 -0.729404 0.000000 
-0.296791 -0.729397 0.000000 
-0.278030 -0.669454 0.000000 
-0.225992 -0.675321 0.000000 
-0.201664 -0.623204 0.000000 
-0.145749 -0.636678 0.000000 
-0.117890 -0.592335 0.000000 
-0.059328 -0.615041 0.000000 
-0.029759 -0.577975 0.000000 
-0.058559 -1.028598 0.000000 
-0.162226 -1.049440 0.000000 
-0.123292 -1.013823 0.000000 
-0.142917 -0.964839 0.000000 
-0.261851 -1.071597 0.000000 
-0.229092 -1.034570 0.000000 
-0.256854 -0.983338 0.000000 
-0.209613 -0.949226 0.000000 
-0.223062 -0.901652 0.000000 
-0.360414 -1.093897 0.000000 
-0.329787 -1.056774 0.000000 
-0.361761 -1.004972 0.000000 
-0.321587 -0.968563 0.000000 
-0.341985 -0.918329 0.000000 
-0.290702 -0.885530 0.000000 
-0.302189 -0.838795 0.000000 
-0.458977 -1.116197 0.000000 
-0.429420 -1.079122 0.000000 
-0.464588 -1.027081 0.000000 
-0.427556 -0.990053 0.000000 
-0.453135 -0.938538 0.000000 
-0.407738 -0.903223 0.000000 
-0.425037 -0.853795 0.000000 
-0.370772 -0.822166 0.000000 
-0.381315 -0.775938 0.000000 
-0.046960 -1.079413 0.000000 
-0.095301 -1.173459 0.000000 
-0.098873 -1.120812 0.000000 
-0.149405 -1.105614 0.000000 
-0.140093 -1.265163 0.000000 
-0.148617 -1.216465 0.000000 
-0.205981 -1.206227 0.000000 
-0.203197 -1.148024 0.000000 
-0.248777 -1.128877 0.000000 
-0.184111 -1.356126 0.000000 
-0.194039 -1.309035 0.000000 
-0.254475 -1.301736 0.000000 
-0.257893 -1.247626 0.000000 
-0.309886 -1.232254 0.000000 
-0.303554 -1.171708 0.000000 
-0.347255 -1.151551 0.000000 
-0.228129 -1.447090 0.000000 
-0.238687 -1.400866 0.000000 
-0.301302 -1.395914 0.000000 
-0.307162 -1.343875 0.000000 
-0.363386 -1.331754 0.000000 
-0.362692 -1.274242 0.000000 
-0.412122 -1.256949 0.000000 
-0.403017 -1.194803 0.000000 
-0.445733 -1.174224 0.000000 
-0.000000 -1.102028 0.000000 
0.043388 -1.198458 0.000000 
-0.000000 -1.168426 0.000000 
-0.043388 -1.198458 0.000000 
0.087158 -1.290655 0.000000 
0.043769 -1.266957 0.000000 
-0.000000 -1.305422 0.000000 
-0.043769 -1.266957 0.000000 
-0.087158 -1.290655 0.000000 
0.130831 -1.381785 0.000000 
0.087824 -1.360186 0.000000 
0.044436 -1.402886 0.000000 
-0.000000 -1.371821 0.000000 
-0.044436 -1.402886 0.000000 
-0.087824 -1.360186 0.000000 
-0.130831 -1.381785 0.000000 
0.174505 -1.472914 0.000000 
0.131782 -1.452348 0.000000 
0.088871 -1.498215 0.000000 
0.044532 -1.470351 0.000000 
-0.000000 -1.506751 0.000000 
-0.044532 -1.470351 0.000000 
-0.088871 -1.498215 0.000000 
-0.131782 -1.452348 0.000000 
-0.174505 -1.472914 0.000000 
0.046960 -1.079413 0.000000 
0.149405 -1.105614 0.000000 
0.098873 -1.120812 0.000000 
0.095301 -1.173459 0.000000 
0.248777 -1.128877 0.000000 
0.203197 -1.148024 0.000000 
0.205981 -1.206227 0.000000 
0.148617 -1.216465 0.000000 
0.140093 -1.265163 0.000000 
0.347255 -1.151551 0.000000 
0.303554 -1.171708 0.000000 
0.309886 -1.232254 0.000000 
0.257893 -1.247626 0.000000 
0.254475 -1.301736 0.000000 
0.194039 -1.309035 0.000000 
0.184111 -1.356126 0.000000 
0.445733 -1.174224 0.000000 
0.403017 -1.194803 0.000000 
0.412122 -1.256949 0.000000 
0.362692 -1.274242 0.000000 
0.363386 -1.331754 0.000000 
0.307162 -1.343875 0.000000 
0.301302 -1.395914 0.000000 
0.238687 -1.400866 0.000000 
0.228129 -1.447090 0.000000 
0.058559 -1.028598 0.000000 
0.142917 -0.964839 0.000000 
0.123292 -1.013823 0.000000 
0.162226 -1.049440 0.000000 
0.223062 -0.901652 0.000000 
0.209613 -0.949226 0.000000 
0.256854 -0.983338 0.000000 
0.229092 -1.034570 0.000000 
0.261851 -1.071597 0.000000 
0.302189 -0.838795 0.000000 
0.290702 -0.885530 0.000000 
0.341985 -0.918329 0.000000 
0.321587 -0.968563 0.000000 
0.361761 -1.004972 0.000000 
0.329787 -1.056774 0.000000 
0.360414 -1.093897 0.000000 
0.381315 -0.775938 0.000000 
0.370772 -0.822166 0.000000 
0.425037 -0.853795 0.000000 
0.407738 -0.903223 0.000000 
0.453135 -0.938538 0.000000 
0.427556 -0.990053 0.000000 
0.464588 -1.027081 0.000000 
0.429420 -1.079122 0.000000 
0.458977 -1.116197 0.000000 
0.026061 -0.987847 0.000000 
0.028809 -0.882140 0.000000 
0.054870 -0.928024 0.000000 
0.106992 -0.919791 0.000000 
0.029377 -0.780083 0.000000 
0.058186 -0.820260 0.000000 
0.114311 -0.804595 0.000000 
0.137056 -0.858242 0.000000 
0.186430 -0.855716 0.000000 
0.029568 -0.679029 0.000000 
0.058945 -0.717149 0.000000 
0.116563 -0.697504 0.000000 
0.143120 -0.744772 0.000000 
0.196633 -0.736063 0.000000 
0.217198 -0.793360 0.000000 
0.265318 -0.792560 0.000000 
0.029759 -0.577975 0.000000 
0.059328 -0.615041 0.000000 
0.117890 -0.592335 0.000000 
0.145749 -0.636678 0.000000 
0.201664 -0.623204 0.000000 
0.225992 -0.675321 0.000000 
0.278030 -0.669454 0.000000 
0.296791 -0.729397 0.000000 
0.344206 -0.729404 0.000000 
CELLS 175 350 
1 0 
1 1 
1 2 
1 3 
1 4 
1 5 
1 6 
1 7 
1 8 
1 9 
1 10 
1 11 
1 12 
1 13 
1 14 
1 15 
1 16 
1 17 
1 18 
1 19 
1 20 
1 21 
1 22 
1 23 
1 24 
1 25 
1 26 
1 27 
1 28 
1 29 
1 30 
1 31 
1 32 
1 33 
1 34 
1 35 
1 36 
1 37 
1 38 
1 39 
1 40 
1 41 
1 42 
1 43 
1 44 
1 45 
1 46 
1 47 
1 48 
1 49 
1 50 
1 51 
1 52 
1 53 
1 54 
1 55 
1 56 
1 57 
1 58 
1 59 
1 60 
1 61 
1 62 
1 63 
1 64 
1 65 
1 66 
1 67 
1 68 
1 69 
1 70 
1 71 
1 72 
1 73 
1 74 
1 75 
1 76 
1 77 
1 78 
1 79 
1 80 
1 81 
1 82 
1 83 
1 84 
1 85 
1 86 
1 87 
1 88 
1 89 
1 90 
1 91 
1 92 
1 93 
1 94 
1 95 
1 96 
1 97 
1 98 
1 99 
1 100 
1 101 
1 102 
1 103 
1 104 
1 105 
1 106 
1 107 
1 108 
1 109 
1 110 
1 111 
1 112 
1 113 
1 114 
1 115 
1 116 
1 117 
1 118 
1 119 
1 120 
1 121 
1 122 
1 123 
1 124 
1 125 
1 126 
1 127 
1 128 
1 129 
1 130 
1 131 
1 132 
1 133 
1 134 
1 135 
1 136 
1 137 
1 138 
1 139 
1 140 
1 141 
1 142 
1 143 
1 144 
1 145 
1 146 
1 147 
1 148 
1 149 
1 150 
1 151 
1 152 
1 153 
1 154 
1 155 
1 156 
1 157 
1 158 
1 159 
1 160 
1 161 
1 162 
1 163 
1 164 
1 165 
1 166 
1 167 
1 168 
1 169 
1 170 
1 171 
1 172 
1 173 
1 174 
CELL_TYPES 175 
1 
1 
1 
1 
1 
1 
1 
1 
1 
1 
1 
1 
1 
1 
1 
1 
1 
1 
1 
1 
1 
1 
1 
1 
1 
1 
1 
1 
1 
1 
1 
1 
1 
1 
1 
1 
1 
1 
1 
1 
1 
1 
1 
1 
1 
1 
1 
1 
1 
1 
1 
1 
1 
1 
1 
1 
1 
1 
1 
1 
1 
1 
1 
1 
1 
1 
1 
1 
1 
1 
1 
1 
1 
1 
1 
1 
1 
1 
1 
1 
1 
1 
1 
1 
1 
1 
1 
1 
1 
1 
1 
1 
1 
1 
1 
1 
1 
1 
1 
1 
1 
1 
1 
1 
1 
1 
1 
1 
1 
1 
1 
1 
1 
1 
1 
1 
1 
1 
1 
1 
1 
1 
1 
1 
1 
1 
1 
1 
1 
1 
1 
1 
1 
1 
1 
1 
1 
1 
1 
1 
1 
1 
1 
1 
1 
1 
1 
1 
1 
1 
1 
1 
1 
1 
1 
1 
1 
1 
1 
1 
1 
1 
1 
1 
1 
1 
1 
1 
1 
1 
1 
1 
1 
1 
1 
POINT_DATA 175 
VECTORS X_GC float 
-0.026061 -0.987847 0.000000 
-0.106992 -0.919791 0.000000 
-0.054870 -0.928024 0.000000 
-0.028809 -0.882140 0.000000 
-0.186430 -0.855716 0.000000 
-0.137056 -0.858242 0.000000 
-0.114311 -0.804595 0.000000 
-0.058186 -0.820260 0.000000 
-0.029377 -0.780083 0.000000 
-0.265318 -0.792560 0.000000 
-0.217198 -0.793360 0.000000 
-0.196633 -0.736063 0.000000 
-0.143120 -0.744772 0.000000 
-0.116563 -0.697504 0.000000 
-0.058945 -0.717149 0.000000 
-0.029568 -0.679029 0.000000 
-0.344206 -0.729404 0.000000 
-0.296791 -0.729397 0.000000 
-0.278030 -0.669454 0.000000 
-0.225992 -0.675321 0.000000 
-0.201664 -0.623204 0.000000 
-0.145749 -0.636678 0.000000 
-0.117890 -0.592335 0.000000 
-0.059328 -0.615041 0.000000 
-0.029759 -0.577975 0.000000 
-0.058559 -1.028598 0.000000 
-0.162226 -1.049440 0.000000 
-0.123292 -1.013823 0.000000 
-0.142917 -0.964839 0.000000 
-0.261851 -1.071597 0.000000 
-0.229092 -1.034570 0.000000 
-0.256854 -0.983338 0.000000 
-0.209613 -0.949226 0.000000 
-0.223062 -0.901652 0.000000 
-0.360414 -1.093897 0.000000 
-0.329787 -1.056774 0.000000 
-0.361761 -1.004972 0.000000 
-0.321587 -0.968563 0.000000 
-0.341985 -0.918329 0.000000 
-0.290702 -0.885530 0.000000 
-0.302189 -0.838795 0.000000 
-0.458977 -1.116197 0.000000 
-0.429420 -1.079122 0.000000 
-0.464588 -1.027081 0.000000 
-0.427556 -0.990053 0.000000 
-0.453135 -0.938538 0.000000 
-0.407738 -0.903223 0.000000 
-0.425037 -0.853795 0.000000 
-0.370772 -0.822166 0.000000 
-0.381315 -0.775938 0.000000 
-0.046960 -1.079413 0.000000 
-0.095301 -1.173459 0.000000 
-0.098873 -1.120812 0.000000 
-0.149405 -1.105614 0.000000 
-0.140093 -1.265163 0.000000 
-0.148617 -1.216465 0.000000 
-0.205981 -1.206227 0.000000 
-0.203197 -1.148024 0.000000 
-0.248777 -1.128877 0.000000 
-0.184111 -1.356126 0.000000 
-0.194039 -1.309035 0.000000 
-0.254475 -1.301736 0.000000 
-0.257893 -1.247626 0.000000 
-0.309886 -1.232254 0.000000 
-0.303554 -1.171708 0.000000 
-0.347255 -1.151551 0.000000 
-0.228129 -1.447090 0.000000 
-0.238687 -1.400866 0.000000 
-0.301302 -1.395914 0.000000 
-0.307162 -1.343875 0.000000 
-0.363386 -1.331754 0.000000 
-0.362692 -1.274242 0.000000 
-0.412122 -1.256949 0.000000 
-0.403017 -1.194803 0.000000 
-0.445733 -1.174224 0.000000 
-0.000000 -1.102028 0.000000 
0.043388 -1.198458 0.000000 
-0.000000 -1.168426 0.000000 
-0.043388 -1.198458 0.000000 
0.087158 -1.290655 0.000000 
0.043769 -1.266957 0.000000 
-0.000000 -1.305422 0.000000 
-0.043769 -1.266957 0.000000 
-0.087158 -1.290655 0.000000 
0.130831 -1.381785 0.000000 
0.087824 -1.360186 0.000000 
0.044436 -1.402886 0.000000 
-0.000000 -1.371821 0.000000 
-0.044436 -1.402886 0.000000 
-0.087824 -1.360186 0.000000 
-0.130831 -1.381785 0.000000 
0.174505 -1.472914 0.000000 
0.131782 -1.452348 0.000000 
0.088871 -1.498215 0.000000 
0.044532 -1.470351 0.000000 
-0.000000 -1.506751 0.000000 
-0.044532 -1.470351 0.000000 
-0.088871 -1.498215 0.000000 
-0.131782 -1.452348 0.000000 
-0.174505 -1.472914 0.000000 
0.046960 -1.079413 0.000000 
0.149405 -1.105614 0.000000 
0.098873 -1.120812 0.000000 
0.095301 -1.173459 0.000000 
0.248777 -1.128877 0.000000 
0.203197 -1.148024 0.000000 
0.205981 -1.206227 0.000000 
0.148617 -1.216465 0.000000 
0.140093 -1.265163 0.000000 
0.347255 -1.151551 0.000000 
0.303554 -1.171708 0.000000 
0.309886 -1.232254 0.000000 
0.257893 -1.247626 0.000000 
0.254475 -1.301736 0.000000 
0.194039 -1.309035 0.000000 
0.184111 -1.356126 0.000000 
0.445733 -1.174224 0.000000 
0.403017 -1.194803 0.000000 
0.412122 -1.256949 0.000000 
0.362692 -1.274242 0.000000 
0.363386 -1.331754 0.000000 
0.307162 -1.343875 0.000000 
0.301302 -1.395914 0.000000 
0.238687 -1.400866 0.000000 
0.228129 -1.447090 0.000000 
0.058559 -1.028598 0.000000 
0.142917 -0.964839 0.000000 
0.123292 -1.013823 0.000000 
0.162226 -1.049440 0.000000 
0.223062 -0.901652 0.000000 
0.209613 -0.949226 0.000000 
0.256854 -0.983338 0.000000 
0.229092 -1.034570 0.000000 
0.261851 -1.071597 0.000000 
0.302189 -0.838795 0.000000 
0.290702 -0.885530 0.000000 
0.341985 -0.918329 0.000000 
0.321587 -0.968563 0.000000 
0.361761 -1.004972 0.000000 
0.329787 -1.056774 0.000000 
0.360414 -1.093897 0.000000 
0.381315 -0.775938 0.000000 
0.370772 -0.822166 0.000000 
0.425037 -0.853795 0.000000 
0.407738 -0.903223 0.000000 
0.453135 -0.938538 0.000000 
0.427556 -0.990053 0.000000 
0.464588 -1.027081 0.000000 
0.429420 -1.079122 0.000000 
0.458977 -1.116197 0.000000 
0.026061 -0.987847 0.000000 
0.028809 -0.882140 0.000000 
0.054870 -0.928024 0.000000 
0.106992 -0.919791 0.000000 
0.029377 -0.780083 0.000000 
0.058186 -0.820260 0.000000 
0.114311 -0.804595 0.000000 
0.137056 -0.858242 0.000000 
0.186430 -0.855716 0.000000 
0.029568 -0.679029 0.000000 
0.058945 -0.717149 0.000000 
0.116563 -0.697504 0.000000 
0.143120 -0.744772 0.000000 
0.196633 -0.736063 0.000000 
0.217198 -0.793360 0.000000 
0.265318 -0.792560 0.000000 
0.029759 -0.577975 0.000000 
0.059328 -0.615041 0.000000 
0.117890 -0.592335 0.000000 
0.145749 -0.636678 0.000000 
0.201664 -0.623204 0.000000 
0.225992 -0.675321 0.000000 
0.278030 -0.669454 0.000000 
0.296791 -0.729397 0.000000 
0.344206 -0.729404 0.000000 
VECTORS X_EC float 
0.338794 -0.164066 0.000000 
-0.609100 0.917185 0.000000 
0.713312 -0.971674 0.000000 
0.374519 0.408896 0.000000 
0.423588 0.052166 0.000000 
-0.218274 0.086270 0.000000 
-0.513962 -0.637969 0.000000 
0.756418 -0.426483 0.000000 
0.381900 -0.968876 0.000000 
-0.550868 -0.800437 0.000000 
0.823577 -0.789642 0.000000 
0.556234 0.436854 0.000000 
-0.139443 0.554423 0.000000 
-0.484677 -0.083702 0.000000 
0.766286 0.181514 0.000000 
0.384386 -0.333107 0.000000 
0.474677 0.346960 0.000000 
-0.141715 0.346863 0.000000 
-0.385608 -0.462365 0.000000 
0.937896 -0.383169 0.000000 
0.621631 0.913251 0.000000 
-0.105264 -0.904850 0.000000 
-0.467428 0.496523 0.000000 
0.771260 0.803052 0.000000 
0.386873 0.302662 0.000000 
0.761262 0.386068 0.000000 
0.108942 0.667445 0.000000 
-0.397202 0.186605 0.000000 
-0.142083 -0.474670 0.000000 
-0.595936 0.966555 0.000000 
0.978194 0.466690 0.000000 
-0.660903 -0.224935 0.000000 
0.724964 -0.685456 0.000000 
0.899809 0.672296 0.000000 
0.685384 -0.732392 0.000000 
0.287229 0.766449 0.000000 
0.702895 0.067121 0.000000 
0.180633 -0.424398 0.000000 
0.445811 0.897442 0.000000 
-0.220880 0.454656 0.000000 
-0.071546 -0.176269 0.000000 
-0.033296 -0.431340 0.000000 
-0.417537 -0.931850 0.000000 
0.039645 0.365588 0.000000 
-0.441768 -0.134283 0.000000 
-0.109248 -0.829734 0.000000 
-0.699407 0.693510 0.000000 
-0.474522 0.026231 0.000000 
0.820030 -0.400762 0.000000 
0.957100 0.975166 0.000000 
0.610485 -0.927925 0.000000 
-0.761092 0.341694 0.000000 
-0.714655 -0.369044 0.000000 
-0.057734 -0.574211 0.000000 
-0.178789 -0.420302 0.000000 
-0.067979 0.922272 0.000000 
0.677748 0.784069 0.000000 
0.641556 -0.001677 0.000000 
-0.765897 -0.260155 0.000000 
0.393446 0.807707 0.000000 
0.522510 0.171977 0.000000 
-0.691820 0.073433 0.000000 
-0.647393 -0.657050 0.000000 
0.028512 -0.864576 0.000000 
-0.053800 0.318063 0.000000 
0.514316 0.045932 0.000000 
0.965681 0.035716 0.000000 
-0.897068 -0.588313 0.000000 
-0.083078 -0.655166 0.000000 
-0.006893 0.642310 0.000000 
0.724017 0.478677 0.000000 
0.714996 -0.297727 0.000000 
-0.642413 -0.531184 0.000000 
-0.760780 0.629836 0.000000 
-0.205471 0.352020 0.000000 
0.000000 -0.622624 0.000000 
-0.564049 0.679189 0.000000 
0.000000 0.273753 0.000000 
0.564049 0.679189 0.000000 
0.866949 -0.076156 0.000000 
-0.569003 -0.396087 0.000000 
0.000000 0.123201 0.000000 
0.569003 -0.396087 0.000000 
-0.866949 -0.076156 0.000000 
0.299194 -0.845906 0.000000 
0.858290 0.862510 0.000000 
-0.577662 -0.561044 0.000000 
0.000000 -0.980422 0.000000 
0.577662 -0.561044 0.000000 
-0.858290 0.862510 0.000000 
-0.299194 -0.845906 0.000000 
-0.268560 0.384344 0.000000 
0.286830 0.106703 0.000000 
0.844677 0.725901 0.000000 
-0.578910 0.349738 0.000000 
0.000000 0.841142 0.000000 
0.578910 0.349738 0.000000 
-0.844677 0.725901 0.000000 
-0.286830 0.106703 0.000000 
0.268560 0.384344 0.000000 
-0.610485 -0.927925 0.000000 
0.057734 -0.574211 0.000000 
0.714655 -0.369044 0.000000 
0.761092 0.341694 0.000000 
0.765897 -0.260155 0.000000 
-0.641556 -0.001677 0.000000 
-0.677748 0.784069 0.000000 
0.067979 0.922272 0.000000 
0.178789 -0.420302 0.000000 
-0.514316 0.045932 0.000000 
0.053800 0.318063 0.000000 
-0.028512 -0.864576 0.000000 
0.647393 -0.657050 0.000000 
0.691820 0.073433 0.000000 
-0.522510 0.171977 0.000000 
-0.393446 0.807707 0.000000 
0.205471 0.352020 0.000000 
0.760780 0.629836 0.000000 
0.642413 -0.531184 0.000000 
-0.714996 -0.297727 0.000000 
-0.724017 0.478677 0.000000 
0.006894 0.642310 0.000000 
0.083078 -0.655166 0.000000 
0.897068 -0.588313 0.000000 
-0.965681 0.035716 0.000000 
-0.761262 0.386068 0.000000 
0.142083 -0.474670 0.000000 
0.397202 0.186605 0.000000 
-0.108942 0.667445 0.000000 
-0.899809 0.672296 0.000000 
-0.724964 -0.685456 0.000000 
0.660903 -0.224935 0.000000 
-0.978194 0.466690 0.000000 
0.595936 0.966555 0.000000 
0.071546 -0.176269 0.000000 
0.220880 0.454656 0.000000 
-0.445811 0.897442 0.000000 
-0.180633 -0.424398 0.000000 
-0.702895 0.067121 0.000000 
-0.287229 0.766449 0.000000 
-0.685384 -0.732392 0.000000 
-0.957100 0.975166 0.000000 
-0.820030 -0.400762 0.000000 
0.474522 0.026231 0.000000 
0.699407 0.693510 0.000000 
0.109248 -0.829734 0.000000 
0.441768 -0.134283 0.000000 
-0.039645 0.365588 0.000000 
0.417537 -0.931850 0.000000 
0.033296 -0.431340 0.000000 
-0.338794 -0.164066 0.000000 
-0.374519 0.408896 0.000000 
-0.713312 -0.971674 0.000000 
0.609100 0.917185 0.000000 
-0.381900 -0.968876 0.000000 
-0.756418 -0.426483 0.000000 
0.513962 -0.637969 0.000000 
0.218274 0.086270 0.000000 
-0.423588 0.052166 0.000000 
-0.384386 -0.333107 0.000000 
-0.766286 0.181514 0.000000 
0.484677 -0.083702 0.000000 
0.139443 0.554423 0.000000 
-0.556234 0.436854 0.000000 
-0.823577 -0.789642 0.000000 
0.550868 -0.800437 0.000000 
-0.386873 0.302662 0.000000 
-0.771260 0.803052 0.000000 
0.467428 0.496523 0.000000 
0.105264 -0.904850 0.000000 
-0.621631 0.913251 0.000000 
-0.937896 -0.383169 0.000000 
0.385608 -0.462365 0.000000 
0.141715 0.346863 0.000000 
-0.474677 0.346960 0.000000 
CELL_DATA 175 
SCALARS MASS float 
LOOKUP_TABLE default 
0.781831 
0.864274 
0.946717 
0.864274 
0.881307 
0.921110 
0.858535 
0.921110 
0.881307 
0.887046 
0.910001 
0.869829 
0.915556 
0.869829 
0.910001 
0.887046 
0.892784 
0.915740 
0.892784 
0.927218 
0.892784 
0.927218 
0.892784 
0.915740 
0.892784 
0.781831 
0.864274 
0.946717 
0.864274 
0.881307 
0.921110 
0.858535 
0.921110 
0.881307 
0.887046 
0.910001 
0.869829 
0.915556 
0.869829 
0.910001 
0.887046 
0.892784 
0.915740 
0.892784 
0.927218 
0.892784 
0.927218 
0.892784 
0.915740 
0.892784 
0.781831 
0.864274 
0.946717 
0.864274 
0.881307 
0.921110 
0.858535 
0.921110 
0.881307 
0.887046 
0.910001 
0.869829 
0.915556 
0.869829 
0.910001 
0.887046 
0.892784 
0.915740 
0.892784 
0.927218 
0.892784 
0.927218 
0.892784 
0.915740 
0.892784 
0.781831 
0.864274 
0.946717 
0.864274 
0.881307 
0.921110 
0.858535 
0.921110 
0.881307 
0.887046 
0.910001 
0.869829 
0.915556 
0.869829 
0.910001 
0.887046 
0.892784 
0.915740 
0.892784 
0.927218 
0.892784 
0.927218 
0.892784 
0.915740 
0.892784 
0.781831 
0.864274 
0.946717 
0.864274 
0.881307 
0.921110 
0.858535 
0.921110 
0.881307 
0.887046 
0.910001 
0.869829 
0.915556 
0.869829 
0.910001 
0.887046 
0.892784 
0.915740 
0.892784 
0.927218 
0.892784 
0.927218 
0.892784 
0.915740 
0.892784 
0.781831 
0.864274 
0.946717 
0.864274 
0.881307 
0.921110 
0.858535 
0.921110 
0.881307 
0.887046 
0.910001 
0.869829 
0.915556 
0.869829 
0.910001 
0.887046 
0.892784 
0.915740 
0.892784 
0.927218 
0.892784 
0.927218 
0.892784 
0.915740 
0.892784 
0.781831 
0.864274 
0.946717 
0.864274 
0.881307 
0.921110 
0.858535 
0.921110 
0.881307 
0.887046 
0.910001 
0.869829 
0.915556 
0.869829 
0.910001 
0.887046 
0.892784 
0.915740 
0.892784 
0.927218 
0.892784 
0.927218 
0.892784 
0.915740 
0.892784 
SCALARS MASS float 
LOOKUP_TABLE default 
0.781831 
0.864274 
0.946717 
0.864274 
0.881307 
0.921110 
0.858535 
0.921110 
0.881307 
0.887046 
0.910001 
0.869829 
0.915556 
0.869829 
0.910001 
0.887046 
0.892784 
0.915740 
0.892784 
0.927218 
0.892784 
0.927218 
0.892784 
0.915740 
0.892784 
0.781831 
0.864274 
0.946717 
0.864274 
0.881307 
0.921110 
0.858535 
0.921110 
0.881307 
0.887046 
0.910001 
0.869829 
0.915556 
0.869829 
0.910001 
0.887046 
0.892784 
0.915740 
0.892784 
0.927218 
0.892784 
0.927218 
0.892784 
0.915740 
0.892784 
0.781831 
0.864274 
0.946717 
0.864274 
0.881307 
0.921110 
0.858535 
0.921110 
0.881307 
0.887046 
0.910001 
0.869829 
0.915556 
0.869829 
0.910001 
0.887046 
0.892784 
0.915740 
0.892784 
0.927218 
0.892784 
0.927218 
0.892784 
0.915740 
0.892784 
0.781831 
0.864274 
0.946717 
0.864274 
0.881307 
0.921110 
0.858535 
0.921110 
0.881307 
0.887046 
0.910001 
0.869829 
0.915556 
0.869829 
0.910001 
0.887046 
0.892784 
0.915740 
0.892784 
0.927218 
0.892784 
0.927218 
0.892784 
0.915740 
0.892784 
0.781831 
0.864274 
0.946717 
0.864274 
0.881307 
0.921110 
0.858535 
0.921110 
0.881307 
0.887046 
0.910001 
0.869829 
0.915556 
0.869829 
0.910001 
0.887046 
0.892784 
0.915740 
0.892784 
0.927218 
0.892784 
0.927218 
0.892784 
0.915740 
0.892784 
0.781831 
0.864274 
0.946717 
0.864274 
0.881307 
0.921110 
0.858535 
0.921110 
0.881307 
0.887046 
0.910001 
0.869829 
0.915556 
0.869829 
0.910001 
0.887046 
0.892784 
0.915740 
0.892784 
0.927218 
0.892784 
0.927218 
0.892784 
0.915740 
0.892784 
0.781831 
0.864274 
0.946717 
0.864274 
0.881307 
0.921110 
0.858535 
0.921110 
0.881307 
0.887046 
0.910001 
0.869829 
0.915556 
0.869829 
0.910001 
0.887046 
0.892784 
0.915740 
0.892784 
0.927218 
0.892784 
0.927218 
0.892784 
0.915740 
0.892784 
SCALARS DENSITY float 
LOOKUP_TABLE default 
200.000000 
200.000000 
200.000000 
200.000000 
200.000000 
200.000000 
200.000000 
200.000000 
200.000000 
200.000000 
200.000000 
200.000000 
200.000000 
200.000000 
200.000000 
200.000000 
200.000000 
200.000000 
200.000000 
200.000000 
200.000000 
200.000000 
200.000000 
200.000000 
200.000000 
200.000000 
200.000000 
200.000000 
200.000000 
200.000000 
200.000000 
200.000000 
200.000000 
200.000000 
200.000000 
200.000000 
200.000000 
200.000000 
200.000000 
200.000000 
200.000000 
200.000000 
200.000000 
200.000000 
200.000000 
200.000000 
200.000000 
200.000000 
200.000000 
200.000000 
200.000000 
200.000000 
200.000000 
200.000000 
200.000000 
200.000000 
200.000000 
200.000000 
200.000000 
200.000000 
200.000000 
200.000000 
200.000000 
200.000000 
200.000000 
200.000000 
200.000000 
200.000000 
200.000000 
200.000000 
200.000000 
200.000000 
200.000000 
200.000000 
200.000000 
200.000000 
200.000000 
200.000000 
200.000000 
200.000000 
200.000000 
200.000000 
200.000000 
200.000000 
200.000000 
200.000000 
200.000000 
200.000000 
200.000000 
200.000000 
200.000000 
200.000000 
200.000000 
200.000000 
200.000000 
200.000000 
200.000000 
200.000000 
200.000000 
200.000000 
200.000000 
200.000000 
200.000000 
200.000000 
200.000000 
200.000000 
200.000000 
200.000000 
200.000000 
200.000000 
200.000000 
200.000000 
200.000000 
200.000000 
200.000000 
200.000000 
200.000000 
200.000000 
200.000000 
200.000000 
200.000000 
200.000000 
200.000000 
200.000000 
200.000000 
200.000000 
200.000000 
200.000000 
200.000000 
200.000000 
200.000000 
200.000000 
200.000000 
200.000000 
200.000000 
200.000000 
200.000000 
200.000000 
200.000000 
200.000000 
200.000000 
200.000000 
200.000000 
200.000000 
200.000000 
200.000000 
200.000000 
200.000000 
200.000000 
200.000000 
200.000000 
200.000000 
200.000000 
200.000000 
200.000000 
200.000000 
200.000000 
200.000000 
200.000000 
200.000000 
200.000000 
200.000000 
200.000000 
200.000000 
200.000000 
200.000000 
200.000000 
200.000000 
200.000000 
200.000000 
200.000000 
200.000000 
200.000000 
200.000000 
200.000000 
SCALARS ELEM_i float 
LOOKUP_TABLE default 
175 
203 
175 
176 
203 
203 
203 
176 
176 
230 
203 
204 
204 
204 
177 
177 
231 
231 
231 
204 
205 
204 
205 
178 
178 
175 
202 
202 
202 
229 
202 
229 
202 
203 
228 
229 
229 
229 
230 
230 
230 
255 
255 
256 
256 
256 
257 
257 
230 
231 
174 
201 
201 
201 
200 
201 
201 
201 
228 
200 
200 
227 
227 
227 
228 
228 
199 
226 
226 
227 
227 
227 
254 
255 
255 
174 
174 
174 
174 
146 
173 
173 
173 
200 
145 
146 
172 
172 
172 
200 
199 
145 
145 
145 
172 
172 
172 
199 
199 
199 
174 
147 
147 
147 
120 
147 
147 
147 
146 
120 
120 
119 
119 
119 
146 
146 
93 
93 
92 
119 
119 
119 
118 
118 
145 
175 
148 
148 
148 
149 
148 
121 
148 
121 
122 
122 
122 
121 
121 
121 
120 
123 
122 
95 
95 
94 
94 
94 
93 
93 
175 
176 
175 
149 
176 
176 
149 
149 
149 
177 
177 
150 
150 
150 
149 
122 
178 
178 
151 
150 
151 
150 
123 
123 
123 
VECTORS VELOCITY float 
-0.000000 -4.520448 0.000000 
0.000000 -4.520448 0.000000 
0.000000 -4.520448 0.000000 
0.000000 -4.520448 0.000000 
0.000000 -4.520448 0.000000 
0.000000 -4.520448 0.000000 
0.000000 -4.520448 0.000000 
0.000000 -4.520448 0.000000 
0.000000 -4.520448 0.000000 
0.000000 -4.520448 0.000000 
0.000000 -4.520448 0.000000 
0.000000 -4.520448 0.000000 
0.000000 -4.520448 0.000000 
-0.000000 -4.520448 0.000000 
-0.000000 -4.520448 0.000000 
-0.000000 -4.520448 0.000000 
0.000000 -4.520448 0.000000 
0.000000 -4.520448 0.000000 
0.000000 -4.520448 0.000000 
0.000000 -4.520448 0.000000 
0.000000 -4.520448 0.000000 
0.000000 -4.520448 0.000000 
0.000000 -4.520448 0.000000 
-0.000000 -4.520448 0.000000 
0.000000 -4.520448 0.000000 
-0.000000 -4.520448 0.000000 
0.000000 -4.520448 0.000000 
-0.000000 -4.520448 0.000000 
-0.000000 -4.520448 0.000000 
0.000000 -4.520448 0.000000 
0.000000 -4.520448 0.000000 
0.000000 -4.520448 0.000000 
-0.000000 -4.520448 0.000000 
-0.000000 -4.520448 0.000000 
-0.000000 -4.520448 0.000000 
-0.000000 -4.520448 0.000000 
0.000000 -4.520448 0.000000 
0.000000 -4.520448 0.000000 
0.000000 -4.520448 0.000000 
-0.000000 -4.520448 0.000000 
0.000000 -4.520448 0.000000 
-0.000000 -4.520448 0.000000 
-0.000000 -4.520448 0.000000 
-0.000000 -4.520448 0.000000 
-0.000000 -4.520448 0.000000 
-0.000000 -4.520448 0.000000 
0.000000 -4.520448 0.000000 
0.000000 -4.520448 0.000000 
0.000000 -4.520448 0.000000 
0.000000 -4.520448 0.000000 
0.000000 -4.520448 0.000000 
0.000000 -4.520448 0.000000 
0.000000 -4.520448 0.000000 
0.000000 -4.520448 0.000000 
0.000000 -4.520448 0.000000 
0.000000 -4.520448 0.000000 
-0.000000 -4.520448 0.000000 
-0.000000 -4.520448 0.000000 
-0.000000 -4.520448 0.000000 
-0.000000 -4.520448 0.000000 
-0.000000 -4.520448 0.000000 
-0.000000 -4.520448 0.000000 
-0.000000 -4.520448 0.000000 
-0.000000 -4.520448 0.000000 
-0.000000 -4.520448 0.000000 
-0.000000 -4.520448 0.000000 
-0.000000 -4.520448 0.000000 
-0.000000 -4.520448 0.000000 
0.000000 -4.520448 0.000000 
-0.000000 -4.520448 0.000000 
-0.000000 -4.520448 0.000000 
-0.000000 -4.520448 0.000000 
-0.000000 -4.520448 0.000000 
-0.000000 -4.520448 0.000000 
0.000000 -4.520448 0.000000 
0.000000 -4.520448 0.000000 
-0.000000 -4.520448 0.000000 
0.000000 -4.520448 0.000000 
0.000000 -4.520448 0.000000 
-0.000000 -4.520448 0.000000 
-0.000000 -4.520448 0.000000 
0.000000 -4.520448 0.000000 
0.000000 -4.520448 0.000000 
0.000000 -4.520448 0.000000 
-0.000000 -4.520448 0.000000 
-0.000000 -4.520448 0.000000 
-0.000000 -4.520448 0.000000 
0.000000 -4.520448 0.000000 
0.000000 -4.520448 0.000000 
0.000000 -4.520448 0.000000 
-0.000000 -4.520448 0.000000 
-0.000000 -4.520448 0.000000 
0.000000 -4.520448 0.000000 
-0.000000 -4.520448 0.000000 
-0.000000 -4.520448 0.000000 
-0.000000 -4.520448 0.000000 
-0.000000 -4.520448 0.000000 
-0.000000 -4.520448 0.000000 
-0.000000 -4.520448 0.000000 
-0.000000 -4.520448 0.000000 
0.000000 -4.520448 0.000000 
-0.000000 -4.520448 0.000000 
-0.000000 -4.520448 0.000000 
-0.000000 -4.520448 0.000000 
-0.000000 -4.520448 0.000000 
-0.000000 -4.520448 0.000000 
-0.000000 -4.520448 0.000000 
-0.000000 -4.520448 0.000000 
-0.000000 -4.520448 0.000000 
-0.000000 -4.520448 0.000000 
-0.000000 -4.520448 0.000000 
0.000000 -4.520448 0.000000 
0.000000 -4.520448 0.000000 
0.000000 -4.520448 0.000000 
-0.000000 -4.520448 0.000000 
0.000000 -4.520448 0.000000 
-0.000000 -4.520448 0.000000 
0.000000 -4.520448 0.000000 
0.000000 -4.520448 0.000000 
0.000000 -4.520448 0.000000 
0.000000 -4.520448 0.000000 
0.000000 -4.520448 0.000000 
0.000000 -4.520448 0.000000 
-0.000000 -4.520448 0.000000 
0.000000 -4.520448 0.000000 
0.000000 -4.520448 0.000000 
0.000000 -4.520448 0.000000 
0.000000 -4.520448 0.000000 
0.000000 -4.520448 0.000000 
-0.000000 -4.520448 0.000000 
-0.000000 -4.520448 0.000000 
-0.000000 -4.520448 0.000000 
0.000000 -4.520448 0.000000 
-0.000000 -4.520448 0.000000 
0.000000 -4.520448 0.000000 
0.000000 -4.520448 0.000000 
0.000000 -4.520448 0.000000 
0.000000 -4.520448 0.000000 
-0.000000 -4.520448 0.000000 
-0.000000 -4.520448 0.000000 
-0.000000 -4.520448 0.000000 
0.000000 -4.520448 0.000000 
0.000000 -4.520448 0.000000 
0.000000 -4.520448 0.000000 
0.000000 -4.520448 0.000000 
-0.000000 -4.520448 0.000000 
0.000000 -4.520448 0.000000 
0.000000 -4.520448 0.000000 
0.000000 -4.520448 0.000000 
-0.000000 -4.520448 0.000000 
0.000000 -4.520448 0.000000 
0.000000 -4.520448 0.000000 
-0.000000 -4.520448 0.000000 
-0.000000 -4.520448 0.000000 
0.000000 -4.520448 0.000000 
-0.000000 -4.520448 0.000000 
0.000000 -4.520448 0.000000 
-0.000000 -4.520448 0.000000 
0.000000 -4.520448 0.000000 
0.000000 -4.520448 0.000000 
0.000000 -4.520448 0.000000 
0.000000 -4.520448 0.000000 
0.000000 -4.520448 0.000000 
0.000000 -4.520448 0.000000 
0.000000 -4.520448 0.000000 
0.000000 -4.520448 0.000000 
0.000000 -4.520448 0.000000 
-0.000000 -4.520448 0.000000 
-0.000000 -4.520448 0.000000 
0.000000 -4.520448 0.000000 
0.000000 -4.520448 0.000000 
0.000000 -4.520448 0.000000 
0.000000 -4.520448 0.000000 
0.000000 -4.520448 0.000000 
-0.000000 -4.520448 0.000000 
TENSORS STRESS float 
-0.000000 0.000000 0.000000 
0.000000 -0.000000 0.000000 
0.000000 0.000000 0.000000 

0.000000 -0.000000 0.000000 
0.000000 0.000000 0.000000 
0.000000 0.000000 0.000000 

-0.000000 0.000000 0.000000 
0.000000 -0.000000 0.000000 
0.000000 0.000000 0.000000 

0.000000 0.000000 0.000000 
0.000000 0.000000 0.000000 
0.000000 0.000000 0.000000 

0.000000 0.000000 0.000000 
0.000000 0.000000 0.000000 
0.000000 0.000000 0.000000 

0.000000 0.000000 0.000000 
0.000000 0.000000 0.000000 
0.000000 0.000000 0.000000 

0.000000 -0.000000 0.000000 
0.000000 0.000000 0.000000 
0.000000 0.000000 0.000000 

-0.000000 -0.000000 0.000000 
0.000000 -0.000000 0.000000 
0.000000 0.000000 0.000000 

-0.000000 -0.000000 0.000000 
0.000000 -0.000000 0.000000 
0.000000 0.000000 0.000000 

-0.000000 -0.000000 0.000000 
0.000000 -0.000000 0.000000 
0.000000 0.000000 0.000000 

0.000000 -0.000000 0.000000 
0.000000 0.000000 0.000000 
0.000000 0.000000 0.000000 

0.000000 -0.000000 0.000000 
0.000000 0.000000 0.000000 
0.000000 0.000000 0.000000 

-0.000000 -0.000000 0.000000 
0.000000 0.000000 0.000000 
0.000000 0.000000 0.000000 

0.000000 0.000000 0.000000 
0.000000 0.000000 0.000000 
0.000000 0.000000 0.000000 

0.000000 0.000000 0.000000 
0.000000 0.000000 0.000000 
0.000000 0.000000 0.000000 

-0.000000 0.000000 0.000000 
0.000000 -0.000000 0.000000 
0.000000 0.000000 0.000000 

0.000000 -0.000000 0.000000 
0.000000 0.000000 0.000000 
0.000000 0.000000 0.000000 

-0.000000 -0.000000 0.000000 
0.000000 -0.000000 0.000000 
0.000000 0.000000 0.000000 

-0.000000 -0.000000 0.000000 
0.000000 -0.000000 0.000000 
0.000000 0.000000 0.000000 

-0.000000 -0.000000 0.000000 
0.000000 -0.000000 0.000000 
0.000000 0.000000 0.000000 

0.000000 -0.000000 0.000000 
0.000000 0.000000 0.000000 
0.000000 0.000000 0.000000 

0.000000 0.000000 0.000000 
0.000000 0.000000 0.000000 
0.000000 0.000000 0.000000 

-0.000000 -0.000000 0.000000 
0.000000 -0.000000 0.000000 
0.000000 0.000000 0.000000 

0.000000 0.000000 0.000000 
0.000000 0.000000 0.000000 
0.000000 0.000000 0.000000 

0.000000 0.000000 0.000000 
0.000000 0.000000 0.000000 
0.000000 0.000000 0.000000 

-0.000000 -0.000000 0.000000 
0.000000 -0.000000 0.000000 
0.000000 0.000000 0.000000 

-0.000000 0.000000 0.000000 
0.000000 -0.000000 0.000000 
0.000000 0.000000 0.000000 

0.000000 -0.000000 0.000000 
0.000000 0.000000 0.000000 
0.000000 0.000000 0.000000 

-0.000000 -0.000000 0.000000 
0.000000 -0.000000 0.000000 
0.000000 0.000000 0.000000 

0.000000 -0.000000 0.000000 
0.000000 0.000000 0.000000 
0.000000 0.000000 0.000000 

0.000000 0.000000 0.000000 
0.000000 0.000000 0.000000 
0.000000 0.000000 0.000000 

0.000000 -0.000000 0.000000 
0.000000 0.000000 0.000000 
0.000000 0.000000 0.000000 

0.000000 -0.000000 0.000000 
0.000000 0.000000 0.000000 
0.000000 0.000000 0.000000 

0.000000 -0.000000 0.000000 
0.000000 0.000000 0.000000 
0.000000 0.000000 0.000000 

-0.000000 -0.000000 0.000000 
0.000000 -0.000000 0.000000 
0.000000 0.000000 0.000000 

-0.000000 -0.000000 0.000000 
0.000000 -0.000000 0.000000 
0.000000 0.000000 0.000000 

-0.000000 -0.000000 0.000000 
0.000000 -0.000000 0.000000 
0.000000 0.000000 0.000000 

0.000000 0.000000 0.000000 
0.000000 0.000000 0.000000 
0.000000 0.000000 0.000000 

0.000000 0.000000 0.000000 
0.000000 0.000000 0.000000 
0.000000 0.000000 0.000000 

-0.000000 0.000000 0.000000 
0.000000 -0.000000 0.000000 
0.000000 0.000000 0.000000 

-0.000000 0.000000 0.000000 
0.000000 -0.000000 0.000000 
0.000000 0.000000 0.000000 

0.000000 -0.000000 0.000000 
0.000000 0.000000 0.000000 
0.000000 0.000000 0.000000 

0.000000 -0.000000 0.000000 
0.000000 0.000000 0.000000 
0.000000 0.000000 0.000000 

-0.000000 -0.000000 0.000000 
0.000000 -0.000000 0.000000 
0.000000 0.000000 0.000000 

-0.000000 -0.000000 0.000000 
0.000000 -0.000000 0.000000 
0.000000 0.000000 0.000000 

0.000000 -0.000000 0.000000 
0.000000 0.000000 0.000000 
0.000000 0.000000 0.000000 

0.000000 -0.000000 0.000000 
0.000000 0.000000 0.000000 
0.000000 0.000000 0.000000 

-0.000000 -0.000000 0.000000 
0.000000 0.000000 0.000000 
0.000000 0.000000 0.000000 

0.000000 0.000000 0.000000 
0.000000 0.000000 0.000000 
0.000000 0.000000 0.000000 

0.000000 -0.000000 0.000000 
0.000000 0.000000 0.000000 
0.000000 0.000000 0.000000 

0.000000 -0.000000 0.000000 
0.000000 0.000000 0.000000 
0.000000 0.000000 0.000000 

-0.000000 0.000000 0.000000 
0.000000 -0.000000 0.000000 
0.000000 0.000000 0.000000 

0.000000 -0.000000 0.000000 
0.000000 0.000000 0.000000 
0.000000 0.000000 0.000000 

-0.000000 -0.000000 0.000000 
0.000000 -0.000000 0.000000 
0.000000 0.000000 0.000000 

-0.000000 0.000000 0.000000 
0.000000 -0.000000 0.000000 
0.000000 0.000000 0.000000 

0.000000 0.000000 0.000000 
0.000000 0.000000 0.000000 
0.000000 0.000000 0.000000 

-0.000000 0.000000 0.000000 
0.000000 -0.000000 0.000000 
0.000000 0.000000 0.000000 

0.000000 -0.000000 0.000000 
0.000000 0.000000 0.000000 
0.000000 0.000000 0.000000 

0.000000 -0.000000 0.000000 
0.000000 0.000000 0.000000 
0.000000 0.000000 0.000000 

0.000000 0.000000 0.000000 
0.000000 0.000000 0.000000 
0.000000 0.000000 0.000000 

-0.000000 -0.000000 0.000000 
0.000000 -0.000000 0.000000 
0.000000 0.000000 0.000000 

-0.000000 -0.000000 0.000000 
0.000000 -0.000000 0.000000 
0.000000 0.000000 0.000000 

0.000000 -0.000000 0.000000 
0.000000 -0.000000 0.000000 
0.000000 0.000000 0.000000 

0.000000 -0.000000 0.000000 
0.000000 -0.000000 0.000000 
0.000000 0.000000 0.000000 

0.000000 -0.000000 0.000000 
0.000000 0.000000 0.000000 
0.000000 0.000000 0.000000 

-0.000000 -0.000000 0.000000 
0.000000 -0.000000 0.000000 
0.000000 0.000000 0.000000 

-0.000000 0.000000 0.000000 
0.000000 -0.000000 0.000000 
0.000000 0.000000 0.000000 

0.000000 -0.000000 0.000000 
0.000000 0.000000 0.000000 
0.000000 0.000000 0.000000 

-0.000000 -0.000000 0.000000 
0.000000 -0.000000 0.000000 
0.000000 0.000000 0.000000 

-0.000000 -0.000000 0.000000 
0.000000 -0.000000 0.000000 
0.000000 0.000000 0.000000 

-0.000000 -0.000000 0.000000 
0.000000 -0.000000 0.000000 
0.000000 0.000000 0.000000 

0.000000 -0.000000 0.000000 
0.000000 0.000000 0.000000 
0.000000 0.000000 0.000000 

-0.000000 -0.000000 0.000000 
0.000000 -0.000000 0.000000 
0.000000 0.000000 0.000000 

0.000000 -0.000000 0.000000 
0.000000 0.000000 0.000000 
0.000000 0.000000 0.000000 

0.000000 -0.000000 0.000000 
0.000000 0.000000 0.000000 
0.000000 0.000000 0.000000 

-0.000000 -0.000000 0.000000 
0.000000 -0.000000 0.000000 
0.000000 0.000000 0.000000 

0.000000 0.000000 0.000000 
0.000000 0.000000 0.000000 
0.000000 0.000000 0.000000 

0.000000 -0.000000 0.000000 
0.000000 0.000000 0.000000 
0.000000 0.000000 0.000000 

0.000000 -0.000000 0.000000 
0.000000 0.000000 0.000000 
0.000000 0.000000 0.000000 

0.000000 -0.000000 0.000000 
0.000000 0.000000 0.000000 
0.000000 0.000000 0.000000 

-0.000000 -0.000000 0.000000 
0.000000 -0.000000 0.000000 
0.000000 0.000000 0.000000 

-0.000000 -0.000000 0.000000 
0.000000 -0.000000 0.000000 
0.000000 0.000000 0.000000 

-0.000000 -0.000000 0.000000 
0.000000 -0.000000 0.000000 
0.000000 0.000000 0.000000 

0.000000 0.000000 0.000000 
0.000000 0.000000 0.000000 
0.000000 0.000000 0.000000 

-0.000000 -0.000000 0.000000 
0.000000 -0.000000 0.000000 
0.000000 0.000000 0.000000 

0.000000 -0.000000 0.000000 
0.000000 0.000000 0.000000 
0.000000 0.000000 0.000000 

0.000000 -0.000000 0.000000 
0.000000 0.000000 0.000000 
0.000000 0.000000 0.000000 

-0.000000 -0.000000 0.000000 
0.000000 -0.000000 0.000000 
0.000000 0.000000 0.000000 

-0.000000 -0.000000 0.000000 
0.000000 -0.000000 0.000000 
0.000000 0.000000 0.000000 

-0.000000 -0.000000 0.000000 
0.000000 -0.000000 0.000000 
0.000000 0.000000 0.000000 

-0.000000 0.000000 0.000000 
0.000000 -0.000000 0.000000 
0.000000 0.000000 0.000000 

0.000000 -0.000000 0.000000 
0.000000 0.000000 0.000000 
0.000000 0.000000 0.000000 

-0.000000 0.000000 0.000000 
0.000000 -0.000000 0.000000 
0.000000 0.000000 0.000000 

0.000000 0.000000 0.000000 
0.000000 -0.000000 0.000000 
0.000000 0.000000 0.000000 

-0.000000 0.000000 0.000000 
0.000000 -0.000000 0.000000 
0.000000 0.000000 0.000000 

0.000000 0.000000 0.000000 
0.000000 0.000000 0.000000 
0.000000 0.000000 0.000000 

0.000000 -0.000000 0.000000 
0.000000 0.000000 0.000000 
0.000000 0.000000 0.000000 

0.000000 -0.000000 0.000000 
0.000000 0.000000 0.000000 
0.000000 0.000000 0.000000 

0.000000 0.000000 0.000000 
0.000000 0.000000 0.000000 
0.000000 0.000000 0.000000 

-0.000000 -0.000000 0.000000 
0.000000 -0.000000 0.000000 
0.000000 0.000000 0.000000 

-0.000000 -0.000000 0.000000 
0.000000 -0.000000 0.000000 
0.000000 0.000000 0.000000 

0.000000 0.000000 0.000000 
0.000000 -0.000000 0.000000 
0.000000 0.000000 0.000000 

0.000000 -0.000000 0.000000 
0.000000 0.000000 0.000000 
0.000000 0.000000 0.000000 

0.000000 0.000000 0.000000 
0.000000 0.000000 0.000000 
0.000000 0.000000 0.000000 

0.000000 0.000000 0.000000 
0.000000 0.000000 0.000000 
0.000000 0.000000 0.000000 

0.000000 -0.000000 0.000000 
0.000000 0.000000 0.000000 
0.000000 0.000000 0.000000 

0.000000 -0.000000 0.000000 
0.000000 0.000000 0.000000 
0.000000 0.000000 0.000000 

0.000000 -0.000000 0.000000 
0.000000 0.000000 0.000000 
0.000000 0.000000 0.000000 

0.000000 -0.000000 0.000000 
0.000000 0.000000 0.000000 
0.000000 0.000000 0.000000 

-0.000000 0.000000 0.000000 
0.000000 -0.000000 0.000000 
0.000000 0.000000 0.000000 

-0.000000 0.000000 0.000000 
0.000000 -0.000000 0.000000 
0.000000 0.000000 0.000000 

0.000000 0.000000 0.000000 
0.000000 0.000000 0.000000 
0.000000 0.000000 0.000000 

0.000000 0.000000 0.000000 
0.000000 0.000000 0.000000 
0.000000 0.000000 0.000000 

0.000000 0.000000 0.000000 
0.000000 0.000000 0.000000 
0.000000 0.000000 0.000000 

0.000000 -0.000000 0.000000 
0.000000 0.000000 0.000000 
0.000000 0.000000 0.000000 

0.000000 -0.000000 0.000000 
0.000000 0.000000 0.000000 
0.000000 0.000000 0.000000 

0.000000 -0.000000 0.000000 
0.000000 0.000000 0.000000 
0.000000 0.000000 0.000000 

0.000000 0.000000 0.000000 
0.000000 0.000000 0.000000 
0.000000 0.000000 0.000000 

-0.000000 -0.000000 0.000000 
0.000000 0.000000 0.000000 
0.000000 0.000000 0.000000 

-0.000000 0.000000 0.000000 
0.000000 -0.000000 0.000000 
0.000000 0.000000 0.000000 

-0.000000 -0.000000 0.000000 
0.000000 -0.000000 0.000000 
0.000000 0.000000 0.000000 

0.000000 0.000000 0.000000 
0.000000 0.000000 0.000000 
0.000000 0.000000 0.000000 

-0.000000 0.000000 0.000000 
0.000000 -0.000000 0.000000 
0.000000 0.000000 0.000000 

0.000000 0.000000 0.000000 
0.000000 0.000000 0.000000 
0.000000 0.000000 0.000000 

-0.000000 -0.000000 0.000000 
0.000000 -0.000000 0.000000 
0.000000 0.000000 0.000000 

0.000000 -0.000000 0.000000 
0.000000 0.000000 0.000000 
0.000000 0.000000 0.000000 

-0.000000 -0.000000 0.000000 
0.000000 -0.000000 0.000000 
0.000000 0.000000 0.000000 

0.000000 -0.000000 0.000000 
0.000000 0.000000 0.000000 
0.000000 0.000000 0.000000 

0.000000 0.000000 0.000000 
0.000000 0.000000 0.000000 
0.000000 0.000000 0.000000 

0.000000 -0.000000 0.000000 
0.000000 0.000000 0.000000 
0.000000 0.000000 0.000000 

-0.000000 -0.000000 0.000000 
0.000000 -0.000000 0.000000 
0.000000 0.000000 0.000000 

-0.000000 -0.000000 0.000000 
0.000000 -0.000000 0.000000 
0.000000 0.000000 0.000000 

0.000000 -0.000000 0.000000 
0.000000 0.000000 0.000000 
0.000000 0.000000 0.000000 

-0.000000 -0.000000 0.000000 
0.000000 -0.000000 0.000000 
0.000000 0.000000 0.000000 

-0.000000 0.000000 0.000000 
0.000000 -0.000000 0.000000 
0.000000 0.000000 0.000000 

0.000000 0.000000 0.000000 
0.000000 0.000000 0.000000 
0.000000 0.000000 0.000000 

0.000000 0.000000 0.000000 
0.000000 0.000000 0.000000 
0.000000 0.000000 0.000000 

0.000000 0.000000 0.000000 
0.000000 0.000000 0.000000 
0.000000 0.000000 0.000000 

-0.000000 0.000000 0.000000 
0.000000 -0.000000 0.000000 
0.000000 0.000000 0.000000 

0.000000 0.000000 0.000000 
0.000000 0.000000 0.000000 
0.000000 0.000000 0.000000 

-0.000000 0.000000 0.000000 
0.000000 -0.000000 0.000000 
0.000000 0.000000 0.000000 

-0.000000 -0.000000 0.000000 
0.000000 -0.000000 0.000000 
0.000000 0.000000 0.000000 

0.000000 -0.000000 0.000000 
0.000000 0.000000 0.000000 
0.000000 0.000000 0.000000 

-0.000000 0.000000 0.000000 
0.000000 -0.000000 0.000000 
0.000000 0.000000 0.000000 

-0.000000 0.000000 0.000000 
0.000000 -0.000000 0.000000 
0.000000 0.000000 0.000000 

0.000000 0.000000 0.000000 
0.000000 0.000000 0.000000 
0.000000 0.000000 0.000000 

0.000000 0.000000 0.000000 
0.000000 0.000000 0.000000 
0.000000 0.000000 0.000000 

-0.000000 0.000000 0.000000 
0.000000 -0.000000 0.000000 
0.000000 0.000000 0.000000 

-0.000000 -0.000000 0.000000 
0.000000 -0.000000 0.000000 
0.000000 0.000000 0.000000 

0.000000 -0.000000 0.000000 
0.000000 0.000000 0.000000 
0.000000 0.000000 0.000000 

0.000000 0.000000 0.000000 
0.000000 0.000000 0.000000 
0.000000 0.000000 0.000000 

-0.000000 0.000000 0.000000 
0.000000 -0.000000 0.000000 
0.000000 0.000000 0.000000 

0.000000 0.000000 0.000000 
0.000000 0.000000 0.000000 
0.000000 0.000000 0.000000 

-0.000000 -0.000000 0.000000 
0.000000 -0.000000 0.000000 
0.000000 0.000000 0.000000 

0.000000 -0.000000 0.000000 
0.000000 -0.000000 0.000000 
0.000000 0.000000 0.000000 

-0.000000 -0.000000 0.000000 
0.000000 -0.000000 0.000000 
0.000000 0.000000 0.000000 

0.000000 -0.000000 0.000000 
0.000000 0.000000 0.000000 
0.000000 0.000000 0.000000 

-0.000000 -0.000000 0.000000 
0.000000 -0.000000 0.000000 
0.000000 0.000000 0.000000 

-0.000000 0.000000 0.000000 
0.000000 -0.000000 0.000000 
0.000000 0.000000 0.000000 

-0.000000 0.000000 0.000000 
0.000000 -0.000000 0.000000 
0.000000 0.000000 0.000000 

0.000000 0.000000 0.000000 
0.000000 0.000000 0.000000 
0.000000 0.000000 0.000000 

-0.000000 -0.000000 0.000000 
0.000000 -0.000000 0.000000 
0.000000 0.000000 0.000000 

-0.000000 0.000000 0.000000 
0.000000 -0.000000 0.000000 
0.000000 0.000000 0.000000 

0.000000 -0.000000 0.000000 
0.000000 0.000000 0.000000 
0.000000 0.000000 0.000000 

0.000000 -0.000000 0.000000 
0.000000 0.000000 0.000000 
0.000000 0.000000 0.000000 

-0.000000 -0.000000 0.000000 
0.000000 -0.000000 0.000000 
0.000000 0.000000 0.000000 

0.000000 0.000000 0.000000 
0.000000 0.000000 0.000000 
0.000000 0.000000 0.000000 

0.000000 0.000000 0.000000 
0.000000 0.000000 0.000000 
0.000000 0.000000 0.000000 

-0.000000 -0.000000 0.000000 
0.000000 -0.000000 0.000000 
0.000000 0.000000 0.000000 

-0.000000 0.000000 0.000000 
0.000000 -0.000000 0.000000 
0.000000 0.000000 0.000000 

-0.000000 -0.000000 0.000000 
0.000000 -0.000000 0.000000 
0.000000 0.000000 0.000000 

0.000000 -0.000000 0.000000 
0.000000 0.000000 0.000000 
0.000000 0.000000 0.000000 

0.000000 -0.000000 0.000000 
0.000000 0.000000 0.000000 
0.000000 0.000000 0.000000 

-0.000000 -0.000000 0.000000 
0.000000 -0.000000 0.000000 
0.000000 0.000000 0.000000 

0.000000 -0.000000 0.000000 
0.000000 0.000000 0.000000 
0.000000 0.000000 0.000000 

TENSORS STRAIN float 
0.000000 0.000000 0.000000 
0.000000 -0.000000 0.000000 
0.000000 0.000000 0.000000 

0.000000 -0.000000 0.000000 
0.000000 0.000000 0.000000 
0.000000 0.000000 0.000000 

0.000000 0.000000 0.000000 
0.000000 -0.000000 0.000000 
0.000000 0.000000 0.000000 

0.000000 0.000000 0.000000 
0.000000 -0.000000 0.000000 
0.000000 0.000000 0.000000 

0.000000 0.000000 0.000000 
0.000000 -0.000000 0.000000 
0.000000 0.000000 0.000000 

0.000000 0.000000 0.000000 
0.000000 -0.000000 0.000000 
0.000000 0.000000 0.000000 

0.000000 -0.000000 0.000000 
0.000000 0.000000 0.000000 
0.000000 0.000000 0.000000 

0.000000 -0.000000 0.000000 
0.000000 -0.000000 0.000000 
0.000000 0.000000 0.000000 

0.000000 -0.000000 0.000000 
0.000000 -0.000000 0.000000 
0.000000 0.000000 0.000000 

-0.000000 -0.000000 0.000000 
0.000000 0.000000 0.000000 
0.000000 0.000000 0.000000 

-0.000000 -0.000000 0.000000 
0.000000 0.000000 0.000000 
0.000000 0.000000 0.000000 

-0.000000 -0.000000 0.000000 
0.000000 0.000000 0.000000 
0.000000 0.000000 0.000000 

-0.000000 -0.000000 0.000000 
0.000000 0.000000 0.000000 
0.000000 0.000000 0.000000 

-0.000000 0.000000 0.000000 
0.000000 0.000000 0.000000 
0.000000 0.000000 0.000000 

0.000000 0.000000 0.000000 
0.000000 -0.000000 0.000000 
0.000000 0.000000 0.000000 

0.000000 0.000000 0.000000 
0.000000 -0.000000 0.000000 
0.000000 0.000000 0.000000 

-0.000000 -0.000000 0.000000 
0.000000 0.000000 0.000000 
0.000000 0.000000 0.000000 

-0.000000 -0.000000 0.000000 
0.000000 0.000000 0.000000 
0.000000 0.000000 0.000000 

-0.000000 -0.000000 0.000000 
0.000000 -0.000000 0.000000 
0.000000 0.000000 0.000000 

0.000000 -0.000000 0.000000 
0.000000 -0.000000 0.000000 
0.000000 0.000000 0.000000 

0.000000 -0.000000 0.000000 
0.000000 0.000000 0.000000 
0.000000 0.000000 0.000000 

0.000000 0.000000 0.000000 
0.000000 -0.000000 0.000000 
0.000000 0.000000 0.000000 

0.000000 -0.000000 0.000000 
0.000000 -0.000000 0.000000 
0.000000 0.000000 0.000000 

-0.000000 0.000000 0.000000 
0.000000 0.000000 0.000000 
0.000000 0.000000 0.000000 

-0.000000 0.000000 0.000000 
0.000000 0.000000 0.000000 
0.000000 0.000000 0.000000 

0.000000 -0.000000 0.000000 
0.000000 -0.000000 0.000000 
0.000000 0.000000 0.000000 

-0.000000 0.000000 0.000000 
0.000000 -0.000000 0.000000 
0.000000 0.000000 0.000000 

-0.000000 -0.000000 0.000000 
0.000000 0.000000 0.000000 
0.000000 0.000000 0.000000 

-0.000000 -0.000000 0.000000 
0.000000 -0.000000 0.000000 
0.000000 0.000000 0.000000 

0.000000 -0.000000 0.000000 
0.000000 -0.000000 0.000000 
0.000000 0.000000 0.000000 

-0.000000 0.000000 0.000000 
0.000000 0.000000 0.000000 
0.000000 0.000000 0.000000 

0.000000 -0.000000 0.000000 
0.000000 0.000000 0.000000 
0.000000 0.000000 0.000000 

0.000000 -0.000000 0.000000 
0.000000 0.000000 0.000000 
0.000000 0.000000 0.000000 

0.000000 -0.000000 0.000000 
0.000000 -0.000000 0.000000 
0.000000 0.000000 0.000000 

0.000000 -0.000000 0.000000 
0.000000 -0.000000 0.000000 
0.000000 0.000000 0.000000 

0.000000 -0.000000 0.000000 
0.000000 -0.000000 0.000000 
0.000000 0.000000 0.000000 

0.000000 -0.000000 0.000000 
0.000000 -0.000000 0.000000 
0.000000 0.000000 0.000000 

0.000000 0.000000 0.000000 
0.000000 -0.000000 0.000000 
0.000000 0.000000 0.000000 

-0.000000 0.000000 0.000000 
0.000000 0.000000 0.000000 
0.000000 0.000000 0.000000 

-0.000000 0.000000 0.000000 
0.000000 0.000000 0.000000 
0.000000 0.000000 0.000000 

-0.000000 0.000000 0.000000 
0.000000 0.000000 0.000000 
0.000000 0.000000 0.000000 

0.000000 -0.000000 0.000000 
0.000000 -0.000000 0.000000 
0.000000 0.000000 0.000000 

0.000000 -0.000000 0.000000 
0.000000 -0.000000 0.000000 
0.000000 0.000000 0.000000 

0.000000 -0.000000 0.000000 
0.000000 -0.000000 0.000000 
0.000000 0.000000 0.000000 

-0.000000 -0.000000 0.000000 
0.000000 -0.000000 0.000000 
0.000000 0.000000 0.000000 

-0.000000 -0.000000 0.000000 
0.000000 0.000000 0.000000 
0.000000 0.000000 0.000000 

-0.000000 -0.000000 0.000000 
0.000000 0.000000 0.000000 
0.000000 0.000000 0.000000 

-0.000000 -0.000000 0.000000 
0.000000 0.000000 0.000000 
0.000000 0.000000 0.000000 

-0.000000 0.000000 0.000000 
0.000000 0.000000 0.000000 
0.000000 0.000000 0.000000 

-0.000000 -0.000000 0.000000 
0.000000 0.000000 0.000000 
0.000000 0.000000 0.000000 

0.000000 -0.000000 0.000000 
0.000000 0.000000 0.000000 
0.000000 0.000000 0.000000 

0.000000 0.000000 0.000000 
0.000000 -0.000000 0.000000 
0.000000 0.000000 0.000000 

0.000000 -0.000000 0.000000 
0.000000 -0.000000 0.000000 
0.000000 0.000000 0.000000 

0.000000 -0.000000 0.000000 
0.000000 -0.000000 0.000000 
0.000000 0.000000 0.000000 

-0.000000 0.000000 0.000000 
0.000000 -0.000000 0.000000 
0.000000 0.000000 0.000000 

0.000000 0.000000 0.000000 
0.000000 0.000000 0.000000 
0.000000 0.000000 0.000000 

0.000000 0.000000 0.000000 
0.000000 -0.000000 0.000000 
0.000000 0.000000 0.000000 

0.000000 -0.000000 0.000000 
0.000000 0.000000 0.000000 
0.000000 0.000000 0.000000 

0.000000 -0.000000 0.000000 
0.000000 0.000000 0.000000 
0.000000 0.000000 0.000000 

0.000000 0.000000 0.000000 
0.000000 -0.000000 0.000000 
0.000000 0.000000 0.000000 

0.000000 -0.000000 0.000000 
0.000000 -0.000000 0.000000 
0.000000 0.000000 0.000000 

0.000000 -0.000000 0.000000 
0.000000 -0.000000 0.000000 
0.000000 0.000000 0.000000 

0.000000 -0.000000 0.000000 
0.000000 -0.000000 0.000000 
0.000000 0.000000 0.000000 

0.000000 -0.000000 0.000000 
0.000000 -0.000000 0.000000 
0.000000 0.000000 0.000000 

0.000000 -0.000000 0.000000 
0.000000 0.000000 0.000000 
0.000000 0.000000 0.000000 

0.000000 -0.000000 0.000000 
0.000000 -0.000000 0.000000 
0.000000 0.000000 0.000000 

0.000000 0.000000 0.000000 
0.000000 -0.000000 0.000000 
0.000000 0.000000 0.000000 

0.000000 -0.000000 0.000000 
0.000000 0.000000 0.000000 
0.000000 0.000000 0.000000 

0.000000 -0.000000 0.000000 
0.000000 -0.000000 0.000000 
0.000000 0.000000 0.000000 

0.000000 -0.000000 0.000000 
0.000000 -0.000000 0.000000 
0.000000 0.000000 0.000000 

0.000000 -0.000000 0.000000 
0.000000 -0.000000 0.000000 
0.000000 0.000000 0.000000 

0.000000 -0.000000 0.000000 
0.000000 -0.000000 0.000000 
0.000000 0.000000 0.000000 

0.000000 -0.000000 0.000000 
0.000000 -0.000000 0.000000 
0.000000 0.000000 0.000000 

0.000000 -0.000000 0.000000 
0.000000 -0.000000 0.000000 
0.000000 0.000000 0.000000 

0.000000 -0.000000 0.000000 
0.000000 -0.000000 0.000000 
0.000000 0.000000 0.000000 

0.000000 -0.000000 0.000000 
0.000000 -0.000000 0.000000 
0.000000 0.000000 0.000000 

-0.000000 0.000000 0.000000 
0.000000 0.000000 0.000000 
0.000000 0.000000 0.000000 

0.000000 -0.000000 0.000000 
0.000000 -0.000000 0.000000 
0.000000 0.000000 0.000000 

-0.000000 -0.000000 0.000000 
0.000000 0.000000 0.000000 
0.000000 0.000000 0.000000 

0.000000 -0.000000 0.000000 
0.000000 0.000000 0.000000 
0.000000 0.000000 0.000000 

0.000000 -0.000000 0.000000 
0.000000 -0.000000 0.000000 
0.000000 0.000000 0.000000 

0.000000 -0.000000 0.000000 
0.000000 -0.000000 0.000000 
0.000000 0.000000 0.000000 

0.000000 -0.000000 0.000000 
0.000000 -0.000000 0.000000 
0.000000 0.000000 0.000000 

-0.000000 0.000000 0.000000 
0.000000 0.000000 0.000000 
0.000000 0.000000 0.000000 

-0.000000 -0.000000 0.000000 
0.000000 -0.000000 0.000000 
0.000000 0.000000 0.000000 

-0.000000 -0.000000 0.000000 
0.000000 0.000000 0.000000 
0.000000 0.000000 0.000000 

0.000000 -0.000000 0.000000 
0.000000 0.000000 0.000000 
0.000000 0.000000 0.000000 

0.000000 -0.000000 0.000000 
0.000000 -0.000000 0.000000 
0.000000 0.000000 0.000000 

0.000000 -0.000000 0.000000 
0.000000 -0.000000 0.000000 
0.000000 0.000000 0.000000 

0.000000 -0.000000 0.000000 
0.000000 -0.000000 0.000000 
0.000000 0.000000 0.000000 

0.000000 0.000000 0.000000 
0.000000 -0.000000 0.000000 
0.000000 0.000000 0.000000 

0.000000 -0.000000 0.000000 
0.000000 0.000000 0.000000 
0.000000 0.000000 0.000000 

0.000000 0.000000 0.000000 
0.000000 -0.000000 0.000000 
0.000000 0.000000 0.000000 

0.000000 0.000000 0.000000 
0.000000 -0.000000 0.000000 
0.000000 0.000000 0.000000 

-0.000000 0.000000 0.000000 
0.000000 -0.000000 0.000000 
0.000000 0.000000 0.000000 

-0.000000 0.000000 0.000000 
0.000000 0.000000 0.000000 
0.000000 0.000000 0.000000 

-0.000000 -0.000000 0.000000 
0.000000 0.000000 0.000000 
0.000000 0.000000 0.000000 

0.000000 -0.000000 0.000000 
0.000000 -0.000000 0.000000 
0.000000 0.000000 0.000000 

0.000000 0.000000 0.000000 
0.000000 -0.000000 0.000000 
0.000000 0.000000 0.000000 

0.000000 -0.000000 0.000000 
0.000000 -0.000000 0.000000 
0.000000 0.000000 0.000000 

0.000000 -0.000000 0.000000 
0.000000 -0.000000 0.000000 
0.000000 0.000000 0.000000 

0.000000 0.000000 0.000000 
0.000000 -0.000000 0.000000 
0.000000 0.000000 0.000000 

0.000000 -0.000000 0.000000 
0.000000 0.000000 0.000000 
0.000000 0.000000 0.000000 

-0.000000 0.000000 0.000000 
0.000000 0.000000 0.000000 
0.000000 0.000000 0.000000 

0.000000 0.000000 0.000000 
0.000000 -0.000000 0.000000 
0.000000 0.000000 0.000000 

-0.000000 -0.000000 0.000000 
0.000000 0.000000 0.000000 
0.000000 0.000000 0.000000 

0.000000 -0.000000 0.000000 
0.000000 0.000000 0.000000 
0.000000 0.000000 0.000000 

0.000000 -0.000000 0.000000 
0.000000 0.000000 0.000000 
0.000000 0.000000 0.000000 

-0.000000 -0.000000 0.000000 
0.000000 0.000000 0.000000 
0.000000 0.000000 0.000000 

0.000000 0.000000 0.000000 
0.000000 -0.000000 0.000000 
0.000000 0.000000 0.000000 

0.000000 0.000000 0.000000 
0.000000 -0.000000 0.000000 
0.000000 0.000000 0.000000 

-0.000000 0.000000 0.000000 
0.000000 0.000000 0.000000 
0.000000 0.000000 0.000000 

-0.000000 0.000000 0.000000 
0.000000 0.000000 0.000000 
0.000000 0.000000 0.000000 

-0.000000 0.000000 0.000000 
0.000000 0.000000 0.000000 
0.000000 0.000000 0.000000 

0.000000 -0.000000 0.000000 
0.000000 0.000000 0.000000 
0.000000 0.000000 0.000000 

-0.000000 -0.000000 0.000000 
0.000000 0.000000 0.000000 
0.000000 0.000000 0.000000 

0.000000 -0.000000 0.000000 
0.000000 -0.000000 0.000000 
0.000000 0.000000 0.000000 

0.000000 0.000000 0.000000 
0.000000 0.000000 0.000000 
0.000000 0.000000 0.000000 

-0.000000 -0.000000 0.000000 
0.000000 0.000000 0.000000 
0.000000 0.000000 0.000000 

-0.000000 0.000000 0.000000 
0.000000 0.000000 0.000000 
0.000000 0.000000 0.000000 

-0.000000 -0.000000 0.000000 
0.000000 -0.000000 0.000000 
0.000000 0.000000 0.000000 

-0.000000 0.000000 0.000000 
0.000000 0.000000 0.000000 
0.000000 0.000000 0.000000 

0.000000 0.000000 0.000000 
0.000000 -0.000000 0.000000 
0.000000 0.000000 0.000000 

0.000000 0.000000 0.000000 
0.000000 0.000000 0.000000 
0.000000 0.000000 0.000000 

0.000000 -0.000000 0.000000 
0.000000 -0.000000 0.000000 
0.000000 0.000000 0.000000 

0.000000 -0.000000 0.000000 
0.000000 0.000000 0.000000 
0.000000 0.000000 0.000000 

0.000000 -0.000000 0.000000 
0.000000 -0.000000 0.000000 
0.000000 0.000000 0.000000 

0.000000 -0.000000 0.000000 
0.000000 -0.000000 0.000000 
0.000000 0.000000 0.000000 

0.000000 0.000000 0.000000 
0.000000 0.000000 0.000000 
0.000000 0.000000 0.000000 

-0.000000 -0.000000 0.000000 
0.000000 0.000000 0.000000 
0.000000 0.000000 0.000000 

-0.000000 -0.000000 0.000000 
0.000000 -0.000000 0.000000 
0.000000 0.000000 0.000000 

0.000000 -0.000000 0.000000 
0.000000 -0.000000 0.000000 
0.000000 0.000000 0.000000 

0.000000 -0.000000 0.000000 
0.000000 -0.000000 0.000000 
0.000000 0.000000 0.000000 

0.000000 -0.000000 0.000000 
0.000000 -0.000000 0.000000 
0.000000 0.000000 0.000000 

0.000000 0.000000 0.000000 
0.000000 -0.000000 0.000000 
0.000000 0.000000 0.000000 

0.000000 0.000000 0.000000 
0.000000 -0.000000 0.000000 
0.000000 0.000000 0.000000 

0.000000 0.000000 0.000000 
0.000000 -0.000000 0.000000 
0.000000 0.000000 0.000000 

0.000000 0.000000 0.000000 
0.000000 -0.000000 0.000000 
0.000000 0.000000 0.000000 

0.000000 0.000000 0.000000 
0.000000 -0.000000 0.000000 
0.000000 0.000000 0.000000 

0.000000 0.000000 0.000000 
0.000000 -0.000000 0.000000 
0.000000 0.000000 0.000000 

0.000000 0.000000 0.000000 
0.000000 -0.000000 0.000000 
0.000000 0.000000 0.000000 

0.000000 -0.000000 0.000000 
0.000000 -0.000000 0.000000 
0.000000 0.000000 0.000000 

0.000000 -0.000000 0.000000 
0.000000 -0.000000 0.000000 
0.000000 0.000000 0.000000 

-0.000000 0.000000 0.000000 
0.000000 0.000000 0.000000 
0.000000 0.000000 0.000000 

0.000000 0.000000 0.000000 
0.000000 -0.000000 0.000000 
0.000000 0.000000 0.000000 

0.000000 0.000000 0.000000 
0.000000 0.000000 0.000000 
0.000000 0.000000 0.000000 

0.000000 0.000000 0.000000 
0.000000 0.000000 0.000000 
0.000000 0.000000 0.000000 

-0.000000 0.000000 0.000000 
0.000000 -0.000000 0.000000 
0.000000 0.000000 0.000000 

-0.000000 -0.000000 0.000000 
0.000000 -0.000000 0.000000 
0.000000 0.000000 0.000000 

-0.000000 -0.000000 0.000000 
0.000000 0.000000 0.000000 
0.000000 0.000000 0.000000 

0.000000 0.000000 0.000000 
0.000000 -0.000000 0.000000 
0.000000 0.000000 0.000000 

0.000000 0.000000 0.000000 
0.000000 -0.000000 0.000000 
0.000000 0.000000 0.000000 

0.000000 0.000000 0.000000 
0.000000 -0.000000 0.000000 
0.000000 0.000000 0.000000 

-0.000000 -0.000000 0.000000 
0.000000 -0.000000 0.000000 
0.000000 0.000000 0.000000 

0.000000 -0.000000 0.000000 
0.000000 -0.000000 0.000000 
0.000000 0.000000 0.000000 

0.000000 -0.000000 0.000000 
0.000000 -0.000000 0.000000 
0.000000 0.000000 0.000000 

0.000000 -0.000000 0.000000 
0.000000 -0.000000 0.000000 
0.000000 0.000000 0.000000 

-0.000000 -0.000000 0.000000 
0.000000 -0.000000 0.000000 
0.000000 0.000000 0.000000 

-0.000000 0.000000 0.000000 
0.000000 -0.000000 0.000000 
0.000000 0.000000 0.000000 

0.000000 0.000000 0.000000 
0.000000 -0.000000 0.000000 
0.000000 0.000000 0.000000 

0.000000 0.000000 0.000000 
0.000000 -0.000000 0.000000 
0.000000 0.000000 0.000000 

0.000000 -0.000000 0.000000 
0.000000 -0.000000 0.000000 
0.000000 0.000000 0.000000 

0.000000 0.000000 0.000000 
0.000000 -0.000000 0.000000 
0.000000 0.000000 0.000000 

0.000000 -0.000000 0.000000 
0.000000 -0.000000 0.000000 
0.000000 0.000000 0.000000 

0.000000 -0.000000 0.000000 
0.000000 0.000000 0.000000 
0.000000 0.000000 0.000000 

0.000000 -0.000000 0.000000 
0.000000 -0.000000 0.000000 
0.000000 0.000000 0.000000 

-0.000000 0.000000 0.000000 
0.000000 0.000000 0.000000 
0.000000 0.000000 0.000000 

-0.000000 0.000000 0.000000 
0.000000 0.000000 0.000000 
0.000000 0.000000 0.000000 

-0.000000 -0.000000 0.000000 
0.000000 -0.000000 0.000000 
0.000000 0.000000 0.000000 

0.000000 0.000000 0.000000 
0.000000 -0.000000 0.000000 
0.000000 0.000000 0.000000 

-0.000000 -0.000000 0.000000 
0.000000 -0.000000 0.000000 
0.000000 0.000000 0.000000 

0.000000 -0.000000 0.000000 
0.000000 0.000000 0.000000 
0.000000 0.000000 0.000000 

-0.000000 -0.000000 0.000000 
0.000000 0.000000 0.000000 
0.000000 0.000000 0.000000 

-0.000000 -0.000000 0.000000 
0.000000 -0.000000 0.000000 
0.000000 0.000000 0.000000 

-0.000000 -0.000000 0.000000 
0.000000 0.000000 0.000000 
0.000000 0.000000 0.000000 

