# vtk DataFile Version 3.0 
vtk output 
ASCII 
DATASET UNSTRUCTURED_GRID 
POINTS 175 float 
-0.026061 -0.470691 0.000000 
-0.106992 -0.402636 0.000000 
-0.054870 -0.410868 0.000000 
-0.028809 -0.364985 0.000000 
-0.186430 -0.338560 0.000000 
-0.137056 -0.341086 0.000000 
-0.114311 -0.287439 0.000000 
-0.058186 -0.303105 0.000000 
-0.029377 -0.262928 0.000000 
-0.265318 -0.275404 0.000000 
-0.217198 -0.276204 0.000000 
-0.196633 -0.218908 0.000000 
-0.143120 -0.227616 0.000000 
-0.116563 -0.180348 0.000000 
-0.058945 -0.199993 0.000000 
-0.029568 -0.161873 0.000000 
-0.344206 -0.212249 0.000000 
-0.296791 -0.212242 0.000000 
-0.278030 -0.152299 0.000000 
-0.225992 -0.158165 0.000000 
-0.201664 -0.106048 0.000000 
-0.145749 -0.119522 0.000000 
-0.117890 -0.075179 0.000000 
-0.059328 -0.097885 0.000000 
-0.029759 -0.060819 0.000000 
-0.058559 -0.511442 0.000000 
-0.162226 -0.532285 0.000000 
-0.123292 -0.496667 0.000000 
-0.142917 -0.447684 0.000000 
-0.261851 -0.554441 0.000000 
-0.229092 -0.517414 0.000000 
-0.256854 -0.466182 0.000000 
-0.209613 -0.432070 0.000000 
-0.223062 -0.384496 0.000000 
-0.360414 -0.576741 0.000000 
-0.329787 -0.539618 0.000000 
-0.361761 -0.487816 0.000000 
-0.321587 -0.451407 0.000000 
-0.341985 -0.401173 0.000000 
-0.290702 -0.368374 0.000000 
-0.302189 -0.321639 0.000000 
-0.458977 -0.599041 0.000000 
-0.429420 -0.561967 0.000000 
-0.464588 -0.509925 0.000000 
-0.427556 -0.472897 0.000000 
-0.453135 -0.421382 0.000000 
-0.407738 -0.386067 0.000000 
-0.425037 -0.336639 0.000000 
-0.370772 -0.305010 0.000000 
-0.381315 -0.258782 0.000000 
-0.046960 -0.562257 0.000000 
-0.095301 -0.656303 0.000000 
-0.098873 -0.603656 0.000000 
-0.149405 -0.588458 0.000000 
-0.140093 -0.748007 0.000000 
-0.148617 -0.699309 0.000000 
-0.205981 -0.689072 0.000000 
-0.203197 -0.630868 0.000000 
-0.248777 -0.611722 0.000000 
-0.184111 -0.838971 0.000000 
-0.194039 -0.791880 0.000000 
-0.254475 -0.784580 0.000000 
-0.257893 -0.730470 0.000000 
-0.309886 -0.715098 0.000000 
-0.303554 -0.654553 0.000000 
-0.347255 -0.634395 0.000000 
-0.228129 -0.929934 0.000000 
-0.238687 -0.883710 0.000000 
-0.301302 -0.878758 0.000000 
-0.307162 -0.826719 0.000000 
-0.363386 -0.814598 0.000000 
-0.362692 -0.757087 0.000000 
-0.412122 -0.739794 0.000000 
-0.403017 -0.677647 0.000000 
-0.445733 -0.657068 0.000000 
-0.000000 -0.584872 0.000000 
0.043388 -0.681303 0.000000 
-0.000000 -0.651270 0.000000 
-0.043388 -0.681303 0.000000 
0.087158 -0.773499 0.000000 
0.043769 -0.749801 0.000000 
-0.000000 -0.788267 0.000000 
-0.043769 -0.749801 0.000000 
-0.087158 -0.773499 0.000000 
0.130831 -0.864629 0.000000 
0.087824 -0.843030 0.000000 
0.044436 -0.885730 0.000000 
-0.000000 -0.854665 0.000000 
-0.044436 -0.885730 0.000000 
-0.087824 -0.843030 0.000000 
-0.130831 -0.864629 0.000000 
0.174505 -0.955759 0.000000 
0.131782 -0.935193 0.000000 
0.088871 -0.981059 0.000000 
0.044532 -0.953195 0.000000 
-0.000000 -0.989596 0.000000 
-0.044532 -0.953195 0.000000 
-0.088871 -0.981059 0.000000 
-0.131782 -0.935193 0.000000 
-0.174505 -0.955759 0.000000 
0.046960 -0.562257 0.000000 
0.149405 -0.588458 0.000000 
0.098873 -0.603656 0.000000 
0.095301 -0.656303 0.000000 
0.248777 -0.611722 0.000000 
0.203197 -0.630868 0.000000 
0.205981 -0.689072 0.000000 
0.148617 -0.699309 0.000000 
0.140093 -0.748007 0.000000 
0.347255 -0.634395 0.000000 
0.303554 -0.654553 0.000000 
0.309886 -0.715098 0.000000 
0.257893 -0.730470 0.000000 
0.254475 -0.784580 0.000000 
0.194039 -0.791880 0.000000 
0.184111 -0.838971 0.000000 
0.445733 -0.657068 0.000000 
0.403017 -0.677647 0.000000 
0.412122 -0.739794 0.000000 
0.362692 -0.757087 0.000000 
0.363386 -0.814598 0.000000 
0.307162 -0.826719 0.000000 
0.301302 -0.878758 0.000000 
0.238687 -0.883710 0.000000 
0.228129 -0.929934 0.000000 
0.058559 -0.511442 0.000000 
0.142917 -0.447684 0.000000 
0.123292 -0.496667 0.000000 
0.162226 -0.532285 0.000000 
0.223062 -0.384496 0.000000 
0.209613 -0.432070 0.000000 
0.256854 -0.466182 0.000000 
0.229092 -0.517414 0.000000 
0.261851 -0.554441 0.000000 
0.302189 -0.321639 0.000000 
0.290702 -0.368374 0.000000 
0.341985 -0.401173 0.000000 
0.321587 -0.451407 0.000000 
0.361761 -0.487816 0.000000 
0.329787 -0.539618 0.000000 
0.360414 -0.576741 0.000000 
0.381315 -0.258782 0.000000 
0.370772 -0.305010 0.000000 
0.425037 -0.336639 0.000000 
0.407738 -0.386067 0.000000 
0.453135 -0.421382 0.000000 
0.427556 -0.472897 0.000000 
0.464588 -0.509925 0.000000 
0.429420 -0.561967 0.000000 
0.458977 -0.599041 0.000000 
0.026061 -0.470691 0.000000 
0.028809 -0.364985 0.000000 
0.054870 -0.410868 0.000000 
0.106992 -0.402636 0.000000 
0.029377 -0.262928 0.000000 
0.058186 -0.303105 0.000000 
0.114311 -0.287439 0.000000 
0.137056 -0.341086 0.000000 
0.186430 -0.338560 0.000000 
0.029568 -0.161873 0.000000 
0.058945 -0.199993 0.000000 
0.116563 -0.180348 0.000000 
0.143120 -0.227616 0.000000 
0.196633 -0.218908 0.000000 
0.217198 -0.276204 0.000000 
0.265318 -0.275404 0.000000 
0.029759 -0.060819 0.000000 
0.059328 -0.097885 0.000000 
0.117890 -0.075179 0.000000 
0.145749 -0.119522 0.000000 
0.201664 -0.106048 0.000000 
0.225992 -0.158165 0.000000 
0.278030 -0.152299 0.000000 
0.296791 -0.212242 0.000000 
0.344206 -0.212249 0.000000 
CELLS 175 350 
1 0 
1 1 
1 2 
1 3 
1 4 
1 5 
1 6 
1 7 
1 8 
1 9 
1 10 
1 11 
1 12 
1 13 
1 14 
1 15 
1 16 
1 17 
1 18 
1 19 
1 20 
1 21 
1 22 
1 23 
1 24 
1 25 
1 26 
1 27 
1 28 
1 29 
1 30 
1 31 
1 32 
1 33 
1 34 
1 35 
1 36 
1 37 
1 38 
1 39 
1 40 
1 41 
1 42 
1 43 
1 44 
1 45 
1 46 
1 47 
1 48 
1 49 
1 50 
1 51 
1 52 
1 53 
1 54 
1 55 
1 56 
1 57 
1 58 
1 59 
1 60 
1 61 
1 62 
1 63 
1 64 
1 65 
1 66 
1 67 
1 68 
1 69 
1 70 
1 71 
1 72 
1 73 
1 74 
1 75 
1 76 
1 77 
1 78 
1 79 
1 80 
1 81 
1 82 
1 83 
1 84 
1 85 
1 86 
1 87 
1 88 
1 89 
1 90 
1 91 
1 92 
1 93 
1 94 
1 95 
1 96 
1 97 
1 98 
1 99 
1 100 
1 101 
1 102 
1 103 
1 104 
1 105 
1 106 
1 107 
1 108 
1 109 
1 110 
1 111 
1 112 
1 113 
1 114 
1 115 
1 116 
1 117 
1 118 
1 119 
1 120 
1 121 
1 122 
1 123 
1 124 
1 125 
1 126 
1 127 
1 128 
1 129 
1 130 
1 131 
1 132 
1 133 
1 134 
1 135 
1 136 
1 137 
1 138 
1 139 
1 140 
1 141 
1 142 
1 143 
1 144 
1 145 
1 146 
1 147 
1 148 
1 149 
1 150 
1 151 
1 152 
1 153 
1 154 
1 155 
1 156 
1 157 
1 158 
1 159 
1 160 
1 161 
1 162 
1 163 
1 164 
1 165 
1 166 
1 167 
1 168 
1 169 
1 170 
1 171 
1 172 
1 173 
1 174 
CELL_TYPES 175 
1 
1 
1 
1 
1 
1 
1 
1 
1 
1 
1 
1 
1 
1 
1 
1 
1 
1 
1 
1 
1 
1 
1 
1 
1 
1 
1 
1 
1 
1 
1 
1 
1 
1 
1 
1 
1 
1 
1 
1 
1 
1 
1 
1 
1 
1 
1 
1 
1 
1 
1 
1 
1 
1 
1 
1 
1 
1 
1 
1 
1 
1 
1 
1 
1 
1 
1 
1 
1 
1 
1 
1 
1 
1 
1 
1 
1 
1 
1 
1 
1 
1 
1 
1 
1 
1 
1 
1 
1 
1 
1 
1 
1 
1 
1 
1 
1 
1 
1 
1 
1 
1 
1 
1 
1 
1 
1 
1 
1 
1 
1 
1 
1 
1 
1 
1 
1 
1 
1 
1 
1 
1 
1 
1 
1 
1 
1 
1 
1 
1 
1 
1 
1 
1 
1 
1 
1 
1 
1 
1 
1 
1 
1 
1 
1 
1 
1 
1 
1 
1 
1 
1 
1 
1 
1 
1 
1 
1 
1 
1 
1 
1 
1 
1 
1 
1 
1 
1 
1 
1 
1 
1 
1 
1 
1 
POINT_DATA 175 
VECTORS X_GC float 
-0.026061 -0.470691 0.000000 
-0.106992 -0.402636 0.000000 
-0.054870 -0.410868 0.000000 
-0.028809 -0.364985 0.000000 
-0.186430 -0.338560 0.000000 
-0.137056 -0.341086 0.000000 
-0.114311 -0.287439 0.000000 
-0.058186 -0.303105 0.000000 
-0.029377 -0.262928 0.000000 
-0.265318 -0.275404 0.000000 
-0.217198 -0.276204 0.000000 
-0.196633 -0.218908 0.000000 
-0.143120 -0.227616 0.000000 
-0.116563 -0.180348 0.000000 
-0.058945 -0.199993 0.000000 
-0.029568 -0.161873 0.000000 
-0.344206 -0.212249 0.000000 
-0.296791 -0.212242 0.000000 
-0.278030 -0.152299 0.000000 
-0.225992 -0.158165 0.000000 
-0.201664 -0.106048 0.000000 
-0.145749 -0.119522 0.000000 
-0.117890 -0.075179 0.000000 
-0.059328 -0.097885 0.000000 
-0.029759 -0.060819 0.000000 
-0.058559 -0.511442 0.000000 
-0.162226 -0.532285 0.000000 
-0.123292 -0.496667 0.000000 
-0.142917 -0.447684 0.000000 
-0.261851 -0.554441 0.000000 
-0.229092 -0.517414 0.000000 
-0.256854 -0.466182 0.000000 
-0.209613 -0.432070 0.000000 
-0.223062 -0.384496 0.000000 
-0.360414 -0.576741 0.000000 
-0.329787 -0.539618 0.000000 
-0.361761 -0.487816 0.000000 
-0.321587 -0.451407 0.000000 
-0.341985 -0.401173 0.000000 
-0.290702 -0.368374 0.000000 
-0.302189 -0.321639 0.000000 
-0.458977 -0.599041 0.000000 
-0.429420 -0.561967 0.000000 
-0.464588 -0.509925 0.000000 
-0.427556 -0.472897 0.000000 
-0.453135 -0.421382 0.000000 
-0.407738 -0.386067 0.000000 
-0.425037 -0.336639 0.000000 
-0.370772 -0.305010 0.000000 
-0.381315 -0.258782 0.000000 
-0.046960 -0.562257 0.000000 
-0.095301 -0.656303 0.000000 
-0.098873 -0.603656 0.000000 
-0.149405 -0.588458 0.000000 
-0.140093 -0.748007 0.000000 
-0.148617 -0.699309 0.000000 
-0.205981 -0.689072 0.000000 
-0.203197 -0.630868 0.000000 
-0.248777 -0.611722 0.000000 
-0.184111 -0.838971 0.000000 
-0.194039 -0.791880 0.000000 
-0.254475 -0.784580 0.000000 
-0.257893 -0.730470 0.000000 
-0.309886 -0.715098 0.000000 
-0.303554 -0.654553 0.000000 
-0.347255 -0.634395 0.000000 
-0.228129 -0.929934 0.000000 
-0.238687 -0.883710 0.000000 
-0.301302 -0.878758 0.000000 
-0.307162 -0.826719 0.000000 
-0.363386 -0.814598 0.000000 
-0.362692 -0.757087 0.000000 
-0.412122 -0.739794 0.000000 
-0.403017 -0.677647 0.000000 
-0.445733 -0.657068 0.000000 
-0.000000 -0.584872 0.000000 
0.043388 -0.681303 0.000000 
-0.000000 -0.651270 0.000000 
-0.043388 -0.681303 0.000000 
0.087158 -0.773499 0.000000 
0.043769 -0.749801 0.000000 
-0.000000 -0.788267 0.000000 
-0.043769 -0.749801 0.000000 
-0.087158 -0.773499 0.000000 
0.130831 -0.864629 0.000000 
0.087824 -0.843030 0.000000 
0.044436 -0.885730 0.000000 
-0.000000 -0.854665 0.000000 
-0.044436 -0.885730 0.000000 
-0.087824 -0.843030 0.000000 
-0.130831 -0.864629 0.000000 
0.174505 -0.955759 0.000000 
0.131782 -0.935193 0.000000 
0.088871 -0.981059 0.000000 
0.044532 -0.953195 0.000000 
-0.000000 -0.989596 0.000000 
-0.044532 -0.953195 0.000000 
-0.088871 -0.981059 0.000000 
-0.131782 -0.935193 0.000000 
-0.174505 -0.955759 0.000000 
0.046960 -0.562257 0.000000 
0.149405 -0.588458 0.000000 
0.098873 -0.603656 0.000000 
0.095301 -0.656303 0.000000 
0.248777 -0.611722 0.000000 
0.203197 -0.630868 0.000000 
0.205981 -0.689072 0.000000 
0.148617 -0.699309 0.000000 
0.140093 -0.748007 0.000000 
0.347255 -0.634395 0.000000 
0.303554 -0.654553 0.000000 
0.309886 -0.715098 0.000000 
0.257893 -0.730470 0.000000 
0.254475 -0.784580 0.000000 
0.194039 -0.791880 0.000000 
0.184111 -0.838971 0.000000 
0.445733 -0.657068 0.000000 
0.403017 -0.677647 0.000000 
0.412122 -0.739794 0.000000 
0.362692 -0.757087 0.000000 
0.363386 -0.814598 0.000000 
0.307162 -0.826719 0.000000 
0.301302 -0.878758 0.000000 
0.238687 -0.883710 0.000000 
0.228129 -0.929934 0.000000 
0.058559 -0.511442 0.000000 
0.142917 -0.447684 0.000000 
0.123292 -0.496667 0.000000 
0.162226 -0.532285 0.000000 
0.223062 -0.384496 0.000000 
0.209613 -0.432070 0.000000 
0.256854 -0.466182 0.000000 
0.229092 -0.517414 0.000000 
0.261851 -0.554441 0.000000 
0.302189 -0.321639 0.000000 
0.290702 -0.368374 0.000000 
0.341985 -0.401173 0.000000 
0.321587 -0.451407 0.000000 
0.361761 -0.487816 0.000000 
0.329787 -0.539618 0.000000 
0.360414 -0.576741 0.000000 
0.381315 -0.258782 0.000000 
0.370772 -0.305010 0.000000 
0.425037 -0.336639 0.000000 
0.407738 -0.386067 0.000000 
0.453135 -0.421382 0.000000 
0.427556 -0.472897 0.000000 
0.464588 -0.509925 0.000000 
0.429420 -0.561967 0.000000 
0.458977 -0.599041 0.000000 
0.026061 -0.470691 0.000000 
0.028809 -0.364985 0.000000 
0.054870 -0.410868 0.000000 
0.106992 -0.402636 0.000000 
0.029377 -0.262928 0.000000 
0.058186 -0.303105 0.000000 
0.114311 -0.287439 0.000000 
0.137056 -0.341086 0.000000 
0.186430 -0.338560 0.000000 
0.029568 -0.161873 0.000000 
0.058945 -0.199993 0.000000 
0.116563 -0.180348 0.000000 
0.143120 -0.227616 0.000000 
0.196633 -0.218908 0.000000 
0.217198 -0.276204 0.000000 
0.265318 -0.275404 0.000000 
0.029759 -0.060819 0.000000 
0.059328 -0.097885 0.000000 
0.117890 -0.075179 0.000000 
0.145749 -0.119522 0.000000 
0.201664 -0.106048 0.000000 
0.225992 -0.158165 0.000000 
0.278030 -0.152299 0.000000 
0.296791 -0.212242 0.000000 
0.344206 -0.212249 0.000000 
VECTORS X_EC float 
0.338794 0.854331 0.000000 
-0.609100 -0.064417 0.000000 
0.713312 0.046724 0.000000 
0.374519 -0.572706 0.000000 
0.423588 -0.929436 0.000000 
-0.218274 -0.895333 0.000000 
-0.513962 0.380428 0.000000 
0.756418 0.591914 0.000000 
0.381900 0.049522 0.000000 
-0.550868 0.217960 0.000000 
0.823577 0.228756 0.000000 
0.556234 -0.544748 0.000000 
-0.139443 -0.427179 0.000000 
-0.484677 0.934696 0.000000 
0.766286 -0.800089 0.000000 
0.384386 0.685291 0.000000 
0.474677 -0.634643 0.000000 
-0.141715 -0.634739 0.000000 
-0.385608 0.556033 0.000000 
0.937896 0.635228 0.000000 
0.621631 -0.068352 0.000000 
-0.105264 0.113547 0.000000 
-0.467428 -0.485079 0.000000 
0.771260 -0.178551 0.000000 
0.386873 -0.678940 0.000000 
0.761262 -0.595534 0.000000 
0.108942 -0.314158 0.000000 
-0.397202 -0.794997 0.000000 
-0.142083 0.543728 0.000000 
-0.595936 -0.015047 0.000000 
0.978194 -0.514913 0.000000 
-0.660903 0.793462 0.000000 
0.724964 0.332942 0.000000 
0.899809 -0.309307 0.000000 
0.685384 0.286005 0.000000 
0.287229 -0.215153 0.000000 
0.702895 -0.914482 0.000000 
0.180633 0.593999 0.000000 
0.445811 -0.084160 0.000000 
-0.220880 -0.526946 0.000000 
-0.071546 0.842128 0.000000 
-0.033296 0.587057 0.000000 
-0.417537 0.086548 0.000000 
0.039645 -0.616015 0.000000 
-0.441768 0.884114 0.000000 
-0.109248 0.188663 0.000000 
-0.699407 -0.288092 0.000000 
-0.474522 -0.955371 0.000000 
0.820030 0.617635 0.000000 
0.957100 -0.006437 0.000000 
0.610485 0.090472 0.000000 
-0.761092 -0.639909 0.000000 
-0.714655 0.649354 0.000000 
-0.057734 0.444187 0.000000 
-0.178789 0.598096 0.000000 
-0.067979 -0.059330 0.000000 
0.677748 -0.197534 0.000000 
0.641556 -0.983279 0.000000 
-0.765897 0.758242 0.000000 
0.393446 -0.173895 0.000000 
0.522510 -0.809625 0.000000 
-0.691820 -0.908169 0.000000 
-0.647393 0.361348 0.000000 
0.028512 0.153821 0.000000 
-0.053800 -0.663539 0.000000 
0.514316 -0.935670 0.000000 
0.965681 -0.945886 0.000000 
-0.897068 0.430085 0.000000 
-0.083078 0.363232 0.000000 
-0.006893 -0.339293 0.000000 
0.724017 -0.502925 0.000000 
0.714996 0.720671 0.000000 
-0.642413 0.487214 0.000000 
-0.760780 -0.351767 0.000000 
-0.205471 -0.629582 0.000000 
0.000000 0.395774 0.000000 
-0.564049 -0.302413 0.000000 
0.000000 -0.707849 0.000000 
0.564049 -0.302413 0.000000 
0.866949 0.942242 0.000000 
-0.569003 0.622311 0.000000 
0.000000 -0.858401 0.000000 
0.569003 0.622311 0.000000 
-0.866949 0.942242 0.000000 
0.299194 0.172492 0.000000 
0.858290 -0.119092 0.000000 
-0.577662 0.457354 0.000000 
0.000000 0.037976 0.000000 
0.577662 0.457354 0.000000 
-0.858290 -0.119092 0.000000 
-0.299194 0.172492 0.000000 
-0.268560 -0.597258 0.000000 
0.286830 -0.874900 0.000000 
0.844677 -0.255701 0.000000 
-0.578910 -0.631864 0.000000 
0.000000 -0.140460 0.000000 
0.578910 -0.631864 0.000000 
-0.844677 -0.255701 0.000000 
-0.286830 -0.874900 0.000000 
0.268560 -0.597258 0.000000 
-0.610485 0.090472 0.000000 
0.057734 0.444187 0.000000 
0.714655 0.649354 0.000000 
0.761092 -0.639909 0.000000 
0.765897 0.758242 0.000000 
-0.641556 -0.983279 0.000000 
-0.677748 -0.197534 0.000000 
0.067979 -0.059330 0.000000 
0.178789 0.598096 0.000000 
-0.514316 -0.935670 0.000000 
0.053800 -0.663539 0.000000 
-0.028512 0.153821 0.000000 
0.647393 0.361348 0.000000 
0.691820 -0.908169 0.000000 
-0.522510 -0.809625 0.000000 
-0.393446 -0.173895 0.000000 
0.205471 -0.629582 0.000000 
0.760780 -0.351767 0.000000 
0.642413 0.487214 0.000000 
-0.714996 0.720671 0.000000 
-0.724017 -0.502925 0.000000 
0.006894 -0.339293 0.000000 
0.083078 0.363232 0.000000 
0.897068 0.430085 0.000000 
-0.965681 -0.945886 0.000000 
-0.761262 -0.595534 0.000000 
0.142083 0.543728 0.000000 
0.397202 -0.794997 0.000000 
-0.108942 -0.314158 0.000000 
-0.899809 -0.309307 0.000000 
-0.724964 0.332942 0.000000 
0.660903 0.793462 0.000000 
-0.978194 -0.514913 0.000000 
0.595936 -0.015047 0.000000 
0.071546 0.842128 0.000000 
0.220880 -0.526946 0.000000 
-0.445811 -0.084160 0.000000 
-0.180633 0.593999 0.000000 
-0.702895 -0.914482 0.000000 
-0.287229 -0.215153 0.000000 
-0.685384 0.286005 0.000000 
-0.957100 -0.006436 0.000000 
-0.820030 0.617635 0.000000 
0.474522 -0.955371 0.000000 
0.699407 -0.288092 0.000000 
0.109248 0.188663 0.000000 
0.441768 0.884114 0.000000 
-0.039645 -0.616015 0.000000 
0.417537 0.086548 0.000000 
0.033296 0.587057 0.000000 
-0.338794 0.854331 0.000000 
-0.374519 -0.572706 0.000000 
-0.713312 0.046724 0.000000 
0.609100 -0.064417 0.000000 
-0.381900 0.049522 0.000000 
-0.756418 0.591914 0.000000 
0.513962 0.380428 0.000000 
0.218274 -0.895333 0.000000 
-0.423588 -0.929436 0.000000 
-0.384386 0.685291 0.000000 
-0.766286 -0.800089 0.000000 
0.484677 0.934696 0.000000 
0.139443 -0.427179 0.000000 
-0.556234 -0.544748 0.000000 
-0.823577 0.228756 0.000000 
0.550868 0.217960 0.000000 
-0.386873 -0.678940 0.000000 
-0.771260 -0.178551 0.000000 
0.467428 -0.485079 0.000000 
0.105264 0.113547 0.000000 
-0.621631 -0.068352 0.000000 
-0.937896 0.635228 0.000000 
0.385608 0.556033 0.000000 
0.141715 -0.634739 0.000000 
-0.474677 -0.634643 0.000000 
CELL_DATA 175 
SCALARS MASS float 
LOOKUP_TABLE default 
0.781831 
0.864274 
0.946717 
0.864274 
0.881307 
0.921110 
0.858535 
0.921110 
0.881307 
0.887046 
0.910001 
0.869829 
0.915556 
0.869829 
0.910001 
0.887046 
0.892784 
0.915740 
0.892784 
0.927218 
0.892784 
0.927218 
0.892784 
0.915740 
0.892784 
0.781831 
0.864274 
0.946717 
0.864274 
0.881307 
0.921110 
0.858535 
0.921110 
0.881307 
0.887046 
0.910001 
0.869829 
0.915556 
0.869829 
0.910001 
0.887046 
0.892784 
0.915740 
0.892784 
0.927218 
0.892784 
0.927218 
0.892784 
0.915740 
0.892784 
0.781831 
0.864274 
0.946717 
0.864274 
0.881307 
0.921110 
0.858535 
0.921110 
0.881307 
0.887046 
0.910001 
0.869829 
0.915556 
0.869829 
0.910001 
0.887046 
0.892784 
0.915740 
0.892784 
0.927218 
0.892784 
0.927218 
0.892784 
0.915740 
0.892784 
0.781831 
0.864274 
0.946717 
0.864274 
0.881307 
0.921110 
0.858535 
0.921110 
0.881307 
0.887046 
0.910001 
0.869829 
0.915556 
0.869829 
0.910001 
0.887046 
0.892784 
0.915740 
0.892784 
0.927218 
0.892784 
0.927218 
0.892784 
0.915740 
0.892784 
0.781831 
0.864274 
0.946717 
0.864274 
0.881307 
0.921110 
0.858535 
0.921110 
0.881307 
0.887046 
0.910001 
0.869829 
0.915556 
0.869829 
0.910001 
0.887046 
0.892784 
0.915740 
0.892784 
0.927218 
0.892784 
0.927218 
0.892784 
0.915740 
0.892784 
0.781831 
0.864274 
0.946717 
0.864274 
0.881307 
0.921110 
0.858535 
0.921110 
0.881307 
0.887046 
0.910001 
0.869829 
0.915556 
0.869829 
0.910001 
0.887046 
0.892784 
0.915740 
0.892784 
0.927218 
0.892784 
0.927218 
0.892784 
0.915740 
0.892784 
0.781831 
0.864274 
0.946717 
0.864274 
0.881307 
0.921110 
0.858535 
0.921110 
0.881307 
0.887046 
0.910001 
0.869829 
0.915556 
0.869829 
0.910001 
0.887046 
0.892784 
0.915740 
0.892784 
0.927218 
0.892784 
0.927218 
0.892784 
0.915740 
0.892784 
SCALARS MASS float 
LOOKUP_TABLE default 
0.781831 
0.864274 
0.946717 
0.864274 
0.881307 
0.921110 
0.858535 
0.921110 
0.881307 
0.887046 
0.910001 
0.869829 
0.915556 
0.869829 
0.910001 
0.887046 
0.892784 
0.915740 
0.892784 
0.927218 
0.892784 
0.927218 
0.892784 
0.915740 
0.892784 
0.781831 
0.864274 
0.946717 
0.864274 
0.881307 
0.921110 
0.858535 
0.921110 
0.881307 
0.887046 
0.910001 
0.869829 
0.915556 
0.869829 
0.910001 
0.887046 
0.892784 
0.915740 
0.892784 
0.927218 
0.892784 
0.927218 
0.892784 
0.915740 
0.892784 
0.781831 
0.864274 
0.946717 
0.864274 
0.881307 
0.921110 
0.858535 
0.921110 
0.881307 
0.887046 
0.910001 
0.869829 
0.915556 
0.869829 
0.910001 
0.887046 
0.892784 
0.915740 
0.892784 
0.927218 
0.892784 
0.927218 
0.892784 
0.915740 
0.892784 
0.781831 
0.864274 
0.946717 
0.864274 
0.881307 
0.921110 
0.858535 
0.921110 
0.881307 
0.887046 
0.910001 
0.869829 
0.915556 
0.869829 
0.910001 
0.887046 
0.892784 
0.915740 
0.892784 
0.927218 
0.892784 
0.927218 
0.892784 
0.915740 
0.892784 
0.781831 
0.864274 
0.946717 
0.864274 
0.881307 
0.921110 
0.858535 
0.921110 
0.881307 
0.887046 
0.910001 
0.869829 
0.915556 
0.869829 
0.910001 
0.887046 
0.892784 
0.915740 
0.892784 
0.927218 
0.892784 
0.927218 
0.892784 
0.915740 
0.892784 
0.781831 
0.864274 
0.946717 
0.864274 
0.881307 
0.921110 
0.858535 
0.921110 
0.881307 
0.887046 
0.910001 
0.869829 
0.915556 
0.869829 
0.910001 
0.887046 
0.892784 
0.915740 
0.892784 
0.927218 
0.892784 
0.927218 
0.892784 
0.915740 
0.892784 
0.781831 
0.864274 
0.946717 
0.864274 
0.881307 
0.921110 
0.858535 
0.921110 
0.881307 
0.887046 
0.910001 
0.869829 
0.915556 
0.869829 
0.910001 
0.887046 
0.892784 
0.915740 
0.892784 
0.927218 
0.892784 
0.927218 
0.892784 
0.915740 
0.892784 
SCALARS DENSITY float 
LOOKUP_TABLE default 
200.000000 
200.000000 
200.000000 
200.000000 
200.000000 
200.000000 
200.000000 
200.000000 
200.000000 
200.000000 
200.000000 
200.000000 
200.000000 
200.000000 
200.000000 
200.000000 
200.000000 
200.000000 
200.000000 
200.000000 
200.000000 
200.000000 
200.000000 
200.000000 
200.000000 
200.000000 
200.000000 
200.000000 
200.000000 
200.000000 
200.000000 
200.000000 
200.000000 
200.000000 
200.000000 
200.000000 
200.000000 
200.000000 
200.000000 
200.000000 
200.000000 
200.000000 
200.000000 
200.000000 
200.000000 
200.000000 
200.000000 
200.000000 
200.000000 
200.000000 
200.000000 
200.000000 
200.000000 
200.000000 
200.000000 
200.000000 
200.000000 
200.000000 
200.000000 
200.000000 
200.000000 
200.000000 
200.000000 
200.000000 
200.000000 
200.000000 
200.000000 
200.000000 
200.000000 
200.000000 
200.000000 
200.000000 
200.000000 
200.000000 
200.000000 
200.000000 
200.000000 
200.000000 
200.000000 
200.000000 
200.000000 
200.000000 
200.000000 
200.000000 
200.000000 
200.000000 
200.000000 
200.000000 
200.000000 
200.000000 
200.000000 
200.000000 
200.000000 
200.000000 
200.000000 
200.000000 
200.000000 
200.000000 
200.000000 
200.000000 
200.000000 
200.000000 
200.000000 
200.000000 
200.000000 
200.000000 
200.000000 
200.000000 
200.000000 
200.000000 
200.000000 
200.000000 
200.000000 
200.000000 
200.000000 
200.000000 
200.000000 
200.000000 
200.000000 
200.000000 
200.000000 
200.000000 
200.000000 
200.000000 
200.000000 
200.000000 
200.000000 
200.000000 
200.000000 
200.000000 
200.000000 
200.000000 
200.000000 
200.000000 
200.000000 
200.000000 
200.000000 
200.000000 
200.000000 
200.000000 
200.000000 
200.000000 
200.000000 
200.000000 
200.000000 
200.000000 
200.000000 
200.000000 
200.000000 
200.000000 
200.000000 
200.000000 
200.000000 
200.000000 
200.000000 
200.000000 
200.000000 
200.000000 
200.000000 
200.000000 
200.000000 
200.000000 
200.000000 
200.000000 
200.000000 
200.000000 
200.000000 
200.000000 
200.000000 
200.000000 
200.000000 
200.000000 
200.000000 
200.000000 
200.000000 
SCALARS ELEM_i float 
LOOKUP_TABLE default 
179 
206 
179 
179 
206 
206 
207 
180 
180 
234 
207 
207 
207 
208 
180 
181 
234 
234 
235 
208 
208 
208 
208 
181 
181 
178 
205 
205 
206 
232 
205 
233 
206 
206 
232 
232 
232 
233 
233 
233 
234 
259 
259 
259 
260 
260 
260 
260 
234 
234 
178 
204 
205 
205 
204 
204 
204 
204 
232 
203 
203 
230 
231 
231 
231 
231 
202 
230 
230 
230 
230 
231 
258 
258 
258 
178 
177 
177 
177 
150 
177 
176 
177 
204 
149 
149 
176 
176 
176 
203 
203 
148 
148 
148 
175 
175 
175 
202 
202 
202 
178 
151 
151 
150 
124 
150 
150 
150 
150 
123 
123 
123 
123 
122 
149 
149 
96 
96 
96 
123 
122 
122 
122 
122 
148 
178 
152 
151 
151 
152 
152 
125 
151 
124 
126 
125 
125 
125 
124 
124 
124 
126 
126 
98 
98 
98 
98 
97 
97 
97 
179 
179 
179 
152 
180 
180 
153 
152 
152 
181 
180 
154 
153 
153 
153 
126 
181 
181 
154 
154 
154 
154 
127 
126 
126 
VECTORS VELOCITY float 
-0.000000 -3.207870 0.000000 
0.000000 -3.207870 0.000000 
0.000000 -3.207870 0.000000 
-0.000000 -3.207870 0.000000 
0.000000 -3.207870 0.000000 
0.000000 -3.207870 0.000000 
0.000000 -3.207870 0.000000 
0.000000 -3.207870 0.000000 
0.000000 -3.207870 0.000000 
0.000000 -3.207870 0.000000 
0.000000 -3.207870 0.000000 
0.000000 -3.207870 0.000000 
0.000000 -3.207870 0.000000 
0.000000 -3.207870 0.000000 
0.000000 -3.207870 0.000000 
0.000000 -3.207870 0.000000 
-0.000000 -3.207870 0.000000 
-0.000000 -3.207870 0.000000 
-0.000000 -3.207870 0.000000 
-0.000000 -3.207870 0.000000 
0.000000 -3.207870 0.000000 
-0.000000 -3.207870 0.000000 
0.000000 -3.207870 0.000000 
-0.000000 -3.207870 0.000000 
-0.000000 -3.207870 0.000000 
0.000000 -3.207870 0.000000 
-0.000000 -3.207870 0.000000 
-0.000000 -3.207870 0.000000 
-0.000000 -3.207870 0.000000 
-0.000000 -3.207870 0.000000 
-0.000000 -3.207870 0.000000 
-0.000000 -3.207870 0.000000 
-0.000000 -3.207870 0.000000 
0.000000 -3.207870 0.000000 
0.000000 -3.207870 0.000000 
-0.000000 -3.207870 0.000000 
-0.000000 -3.207870 0.000000 
-0.000000 -3.207870 0.000000 
-0.000000 -3.207870 0.000000 
-0.000000 -3.207870 0.000000 
0.000000 -3.207870 0.000000 
0.000000 -3.207870 0.000000 
0.000000 -3.207870 0.000000 
0.000000 -3.207870 0.000000 
0.000000 -3.207870 0.000000 
0.000000 -3.207870 0.000000 
-0.000000 -3.207870 0.000000 
0.000000 -3.207870 0.000000 
0.000000 -3.207870 0.000000 
-0.000000 -3.207870 0.000000 
-0.000000 -3.207870 0.000000 
-0.000000 -3.207870 0.000000 
0.000000 -3.207870 0.000000 
-0.000000 -3.207870 0.000000 
-0.000000 -3.207870 0.000000 
-0.000000 -3.207870 0.000000 
-0.000000 -3.207870 0.000000 
-0.000000 -3.207870 0.000000 
-0.000000 -3.207870 0.000000 
0.000000 -3.207870 0.000000 
-0.000000 -3.207870 0.000000 
-0.000000 -3.207870 0.000000 
-0.000000 -3.207870 0.000000 
-0.000000 -3.207870 0.000000 
-0.000000 -3.207870 0.000000 
-0.000000 -3.207870 0.000000 
-0.000000 -3.207870 0.000000 
-0.000000 -3.207870 0.000000 
-0.000000 -3.207870 0.000000 
-0.000000 -3.207870 0.000000 
-0.000000 -3.207870 0.000000 
0.000000 -3.207870 0.000000 
-0.000000 -3.207870 0.000000 
-0.000000 -3.207870 0.000000 
-0.000000 -3.207870 0.000000 
-0.000000 -3.207870 0.000000 
-0.000000 -3.207870 0.000000 
-0.000000 -3.207870 0.000000 
-0.000000 -3.207870 0.000000 
0.000000 -3.207870 0.000000 
-0.000000 -3.207870 0.000000 
-0.000000 -3.207870 0.000000 
-0.000000 -3.207870 0.000000 
-0.000000 -3.207870 0.000000 
0.000000 -3.207870 0.000000 
0.000000 -3.207870 0.000000 
-0.000000 -3.207870 0.000000 
-0.000000 -3.207870 0.000000 
-0.000000 -3.207870 0.000000 
-0.000000 -3.207870 0.000000 
-0.000000 -3.207870 0.000000 
-0.000000 -3.207870 0.000000 
0.000000 -3.207870 0.000000 
0.000000 -3.207870 0.000000 
0.000000 -3.207870 0.000000 
-0.000000 -3.207870 0.000000 
-0.000000 -3.207870 0.000000 
-0.000000 -3.207870 0.000000 
-0.000000 -3.207870 0.000000 
0.000000 -3.207870 0.000000 
-0.000000 -3.207870 0.000000 
0.000000 -3.207870 0.000000 
-0.000000 -3.207870 0.000000 
-0.000000 -3.207870 0.000000 
0.000000 -3.207870 0.000000 
0.000000 -3.207870 0.000000 
-0.000000 -3.207870 0.000000 
-0.000000 -3.207870 0.000000 
-0.000000 -3.207870 0.000000 
-0.000000 -3.207870 0.000000 
0.000000 -3.207870 0.000000 
-0.000000 -3.207870 0.000000 
-0.000000 -3.207870 0.000000 
-0.000000 -3.207870 0.000000 
-0.000000 -3.207870 0.000000 
0.000000 -3.207870 0.000000 
0.000000 -3.207870 0.000000 
0.000000 -3.207870 0.000000 
0.000000 -3.207870 0.000000 
0.000000 -3.207870 0.000000 
-0.000000 -3.207870 0.000000 
-0.000000 -3.207870 0.000000 
-0.000000 -3.207870 0.000000 
0.000000 -3.207870 0.000000 
0.000000 -3.207870 0.000000 
-0.000000 -3.207870 0.000000 
-0.000000 -3.207870 0.000000 
0.000000 -3.207870 0.000000 
0.000000 -3.207870 0.000000 
0.000000 -3.207870 0.000000 
0.000000 -3.207870 0.000000 
-0.000000 -3.207870 0.000000 
0.000000 -3.207870 0.000000 
0.000000 -3.207870 0.000000 
0.000000 -3.207870 0.000000 
0.000000 -3.207870 0.000000 
0.000000 -3.207870 0.000000 
0.000000 -3.207870 0.000000 
0.000000 -3.207870 0.000000 
-0.000000 -3.207870 0.000000 
-0.000000 -3.207870 0.000000 
-0.000000 -3.207870 0.000000 
-0.000000 -3.207870 0.000000 
-0.000000 -3.207870 0.000000 
0.000000 -3.207870 0.000000 
0.000000 -3.207870 0.000000 
0.000000 -3.207870 0.000000 
0.000000 -3.207870 0.000000 
0.000000 -3.207870 0.000000 
0.000000 -3.207870 0.000000 
0.000000 -3.207870 0.000000 
0.000000 -3.207870 0.000000 
0.000000 -3.207870 0.000000 
0.000000 -3.207870 0.000000 
0.000000 -3.207870 0.000000 
0.000000 -3.207870 0.000000 
0.000000 -3.207870 0.000000 
0.000000 -3.207870 0.000000 
0.000000 -3.207870 0.000000 
-0.000000 -3.207870 0.000000 
-0.000000 -3.207870 0.000000 
-0.000000 -3.207870 0.000000 
0.000000 -3.207870 0.000000 
0.000000 -3.207870 0.000000 
0.000000 -3.207870 0.000000 
0.000000 -3.207870 0.000000 
0.000000 -3.207870 0.000000 
0.000000 -3.207870 0.000000 
0.000000 -3.207870 0.000000 
0.000000 -3.207870 0.000000 
0.000000 -3.207870 0.000000 
0.000000 -3.207870 0.000000 
0.000000 -3.207870 0.000000 
0.000000 -3.207870 0.000000 
0.000000 -3.207870 0.000000 
TENSORS STRESS float 
-0.000000 0.000000 0.000000 
0.000000 -0.000000 0.000000 
0.000000 0.000000 0.000000 

0.000000 0.000000 0.000000 
0.000000 0.000000 0.000000 
0.000000 0.000000 0.000000 

-0.000000 0.000000 0.000000 
0.000000 -0.000000 0.000000 
0.000000 0.000000 0.000000 

0.000000 -0.000000 0.000000 
0.000000 0.000000 0.000000 
0.000000 0.000000 0.000000 

-0.000000 0.000000 0.000000 
0.000000 -0.000000 0.000000 
0.000000 0.000000 0.000000 

-0.000000 0.000000 0.000000 
0.000000 -0.000000 0.000000 
0.000000 0.000000 0.000000 

0.000000 -0.000000 0.000000 
0.000000 0.000000 0.000000 
0.000000 0.000000 0.000000 

0.000000 -0.000000 0.000000 
0.000000 0.000000 0.000000 
0.000000 0.000000 0.000000 

-0.000000 -0.000000 0.000000 
0.000000 -0.000000 0.000000 
0.000000 0.000000 0.000000 

0.000000 -0.000000 0.000000 
0.000000 0.000000 0.000000 
0.000000 0.000000 0.000000 

0.000000 -0.000000 0.000000 
0.000000 0.000000 0.000000 
0.000000 0.000000 0.000000 

-0.000000 -0.000000 0.000000 
0.000000 0.000000 0.000000 
0.000000 0.000000 0.000000 

0.000000 0.000000 0.000000 
0.000000 0.000000 0.000000 
0.000000 0.000000 0.000000 

0.000000 0.000000 0.000000 
0.000000 0.000000 0.000000 
0.000000 0.000000 0.000000 

-0.000000 0.000000 0.000000 
0.000000 -0.000000 0.000000 
0.000000 0.000000 0.000000 

-0.000000 0.000000 0.000000 
0.000000 -0.000000 0.000000 
0.000000 0.000000 0.000000 

0.000000 0.000000 0.000000 
0.000000 0.000000 0.000000 
0.000000 0.000000 0.000000 

0.000000 0.000000 0.000000 
0.000000 0.000000 0.000000 
0.000000 0.000000 0.000000 

-0.000000 0.000000 0.000000 
0.000000 -0.000000 0.000000 
0.000000 0.000000 0.000000 

0.000000 -0.000000 0.000000 
0.000000 0.000000 0.000000 
0.000000 0.000000 0.000000 

0.000000 -0.000000 0.000000 
0.000000 0.000000 0.000000 
0.000000 0.000000 0.000000 

-0.000000 -0.000000 0.000000 
0.000000 -0.000000 0.000000 
0.000000 0.000000 0.000000 

-0.000000 -0.000000 0.000000 
0.000000 -0.000000 0.000000 
0.000000 0.000000 0.000000 

0.000000 -0.000000 0.000000 
0.000000 0.000000 0.000000 
0.000000 0.000000 0.000000 

0.000000 0.000000 0.000000 
0.000000 -0.000000 0.000000 
0.000000 0.000000 0.000000 

-0.000000 0.000000 0.000000 
0.000000 -0.000000 0.000000 
0.000000 0.000000 0.000000 

0.000000 0.000000 0.000000 
0.000000 0.000000 0.000000 
0.000000 0.000000 0.000000 

0.000000 0.000000 0.000000 
0.000000 0.000000 0.000000 
0.000000 0.000000 0.000000 

0.000000 0.000000 0.000000 
0.000000 0.000000 0.000000 
0.000000 0.000000 0.000000 

0.000000 0.000000 0.000000 
0.000000 0.000000 0.000000 
0.000000 0.000000 0.000000 

-0.000000 0.000000 0.000000 
0.000000 0.000000 0.000000 
0.000000 0.000000 0.000000 

0.000000 0.000000 0.000000 
0.000000 0.000000 0.000000 
0.000000 0.000000 0.000000 

0.000000 0.000000 0.000000 
0.000000 0.000000 0.000000 
0.000000 0.000000 0.000000 

0.000000 -0.000000 0.000000 
0.000000 0.000000 0.000000 
0.000000 0.000000 0.000000 

0.000000 0.000000 0.000000 
0.000000 0.000000 0.000000 
0.000000 0.000000 0.000000 

0.000000 0.000000 0.000000 
0.000000 0.000000 0.000000 
0.000000 0.000000 0.000000 

0.000000 0.000000 0.000000 
0.000000 0.000000 0.000000 
0.000000 0.000000 0.000000 

-0.000000 0.000000 0.000000 
0.000000 -0.000000 0.000000 
0.000000 0.000000 0.000000 

-0.000000 -0.000000 0.000000 
0.000000 -0.000000 0.000000 
0.000000 0.000000 0.000000 

0.000000 0.000000 0.000000 
0.000000 0.000000 0.000000 
0.000000 0.000000 0.000000 

-0.000000 0.000000 0.000000 
0.000000 -0.000000 0.000000 
0.000000 0.000000 0.000000 

0.000000 -0.000000 0.000000 
0.000000 0.000000 0.000000 
0.000000 0.000000 0.000000 

0.000000 0.000000 0.000000 
0.000000 0.000000 0.000000 
0.000000 0.000000 0.000000 

0.000000 -0.000000 0.000000 
0.000000 0.000000 0.000000 
0.000000 0.000000 0.000000 

-0.000000 0.000000 0.000000 
0.000000 -0.000000 0.000000 
0.000000 0.000000 0.000000 

-0.000000 -0.000000 0.000000 
0.000000 -0.000000 0.000000 
0.000000 0.000000 0.000000 

-0.000000 -0.000000 0.000000 
0.000000 -0.000000 0.000000 
0.000000 0.000000 0.000000 

-0.000000 -0.000000 0.000000 
0.000000 -0.000000 0.000000 
0.000000 0.000000 0.000000 

-0.000000 -0.000000 0.000000 
0.000000 -0.000000 0.000000 
0.000000 0.000000 0.000000 

0.000000 -0.000000 0.000000 
0.000000 0.000000 0.000000 
0.000000 0.000000 0.000000 

0.000000 -0.000000 0.000000 
0.000000 0.000000 0.000000 
0.000000 0.000000 0.000000 

-0.000000 -0.000000 0.000000 
0.000000 -0.000000 0.000000 
0.000000 0.000000 0.000000 

-0.000000 0.000000 0.000000 
0.000000 -0.000000 0.000000 
0.000000 0.000000 0.000000 

-0.000000 0.000000 0.000000 
0.000000 -0.000000 0.000000 
0.000000 0.000000 0.000000 

-0.000000 0.000000 0.000000 
0.000000 0.000000 0.000000 
0.000000 0.000000 0.000000 

-0.000000 0.000000 0.000000 
0.000000 -0.000000 0.000000 
0.000000 0.000000 0.000000 

-0.000000 0.000000 0.000000 
0.000000 -0.000000 0.000000 
0.000000 0.000000 0.000000 

0.000000 0.000000 0.000000 
0.000000 0.000000 0.000000 
0.000000 0.000000 0.000000 

0.000000 0.000000 0.000000 
0.000000 0.000000 0.000000 
0.000000 0.000000 0.000000 

0.000000 0.000000 0.000000 
0.000000 0.000000 0.000000 
0.000000 0.000000 0.000000 

0.000000 -0.000000 0.000000 
0.000000 0.000000 0.000000 
0.000000 0.000000 0.000000 

0.000000 -0.000000 0.000000 
0.000000 0.000000 0.000000 
0.000000 0.000000 0.000000 

-0.000000 -0.000000 0.000000 
0.000000 -0.000000 0.000000 
0.000000 0.000000 0.000000 

-0.000000 -0.000000 0.000000 
0.000000 -0.000000 0.000000 
0.000000 0.000000 0.000000 

-0.000000 0.000000 0.000000 
0.000000 -0.000000 0.000000 
0.000000 0.000000 0.000000 

0.000000 0.000000 0.000000 
0.000000 0.000000 0.000000 
0.000000 0.000000 0.000000 

0.000000 0.000000 0.000000 
0.000000 0.000000 0.000000 
0.000000 0.000000 0.000000 

0.000000 -0.000000 0.000000 
0.000000 0.000000 0.000000 
0.000000 0.000000 0.000000 

0.000000 -0.000000 0.000000 
0.000000 0.000000 0.000000 
0.000000 0.000000 0.000000 

-0.000000 -0.000000 0.000000 
0.000000 -0.000000 0.000000 
0.000000 0.000000 0.000000 

-0.000000 -0.000000 0.000000 
0.000000 -0.000000 0.000000 
0.000000 0.000000 0.000000 

0.000000 0.000000 0.000000 
0.000000 0.000000 0.000000 
0.000000 0.000000 0.000000 

-0.000000 -0.000000 0.000000 
0.000000 -0.000000 0.000000 
0.000000 0.000000 0.000000 

-0.000000 0.000000 0.000000 
0.000000 -0.000000 0.000000 
0.000000 0.000000 0.000000 

-0.000000 0.000000 0.000000 
0.000000 -0.000000 0.000000 
0.000000 0.000000 0.000000 

0.000000 0.000000 0.000000 
0.000000 -0.000000 0.000000 
0.000000 0.000000 0.000000 

0.000000 0.000000 0.000000 
0.000000 0.000000 0.000000 
0.000000 0.000000 0.000000 

0.000000 0.000000 0.000000 
0.000000 0.000000 0.000000 
0.000000 0.000000 0.000000 

0.000000 0.000000 0.000000 
0.000000 0.000000 0.000000 
0.000000 0.000000 0.000000 

-0.000000 -0.000000 0.000000 
0.000000 -0.000000 0.000000 
0.000000 0.000000 0.000000 

-0.000000 0.000000 0.000000 
0.000000 -0.000000 0.000000 
0.000000 0.000000 0.000000 

0.000000 0.000000 0.000000 
0.000000 0.000000 0.000000 
0.000000 0.000000 0.000000 

0.000000 0.000000 0.000000 
0.000000 0.000000 0.000000 
0.000000 0.000000 0.000000 

0.000000 -0.000000 0.000000 
0.000000 0.000000 0.000000 
0.000000 0.000000 0.000000 

-0.000000 -0.000000 0.000000 
0.000000 -0.000000 0.000000 
0.000000 0.000000 0.000000 

0.000000 -0.000000 0.000000 
0.000000 0.000000 0.000000 
0.000000 0.000000 0.000000 

0.000000 0.000000 0.000000 
0.000000 0.000000 0.000000 
0.000000 0.000000 0.000000 

0.000000 0.000000 0.000000 
0.000000 0.000000 0.000000 
0.000000 0.000000 0.000000 

-0.000000 -0.000000 0.000000 
0.000000 -0.000000 0.000000 
0.000000 0.000000 0.000000 

0.000000 0.000000 0.000000 
0.000000 0.000000 0.000000 
0.000000 0.000000 0.000000 

-0.000000 0.000000 0.000000 
0.000000 -0.000000 0.000000 
0.000000 0.000000 0.000000 

0.000000 -0.000000 0.000000 
0.000000 0.000000 0.000000 
0.000000 0.000000 0.000000 

-0.000000 -0.000000 0.000000 
0.000000 -0.000000 0.000000 
0.000000 0.000000 0.000000 

-0.000000 0.000000 0.000000 
0.000000 -0.000000 0.000000 
0.000000 0.000000 0.000000 

-0.000000 0.000000 0.000000 
0.000000 -0.000000 0.000000 
0.000000 0.000000 0.000000 

-0.000000 0.000000 0.000000 
0.000000 -0.000000 0.000000 
0.000000 0.000000 0.000000 

-0.000000 0.000000 0.000000 
0.000000 -0.000000 0.000000 
0.000000 0.000000 0.000000 

-0.000000 0.000000 0.000000 
0.000000 -0.000000 0.000000 
0.000000 0.000000 0.000000 

-0.000000 0.000000 0.000000 
0.000000 -0.000000 0.000000 
0.000000 0.000000 0.000000 

0.000000 0.000000 0.000000 
0.000000 0.000000 0.000000 
0.000000 0.000000 0.000000 

0.000000 -0.000000 0.000000 
0.000000 0.000000 0.000000 
0.000000 0.000000 0.000000 

-0.000000 -0.000000 0.000000 
0.000000 -0.000000 0.000000 
0.000000 0.000000 0.000000 

-0.000000 0.000000 0.000000 
0.000000 -0.000000 0.000000 
0.000000 0.000000 0.000000 

0.000000 -0.000000 0.000000 
0.000000 0.000000 0.000000 
0.000000 0.000000 0.000000 

-0.000000 0.000000 0.000000 
0.000000 -0.000000 0.000000 
0.000000 0.000000 0.000000 

0.000000 -0.000000 0.000000 
0.000000 0.000000 0.000000 
0.000000 0.000000 0.000000 

0.000000 -0.000000 0.000000 
0.000000 0.000000 0.000000 
0.000000 0.000000 0.000000 

0.000000 -0.000000 0.000000 
0.000000 0.000000 0.000000 
0.000000 0.000000 0.000000 

0.000000 -0.000000 0.000000 
0.000000 0.000000 0.000000 
0.000000 0.000000 0.000000 

0.000000 0.000000 0.000000 
0.000000 0.000000 0.000000 
0.000000 0.000000 0.000000 

0.000000 0.000000 0.000000 
0.000000 0.000000 0.000000 
0.000000 0.000000 0.000000 

-0.000000 0.000000 0.000000 
0.000000 -0.000000 0.000000 
0.000000 0.000000 0.000000 

-0.000000 0.000000 0.000000 
0.000000 -0.000000 0.000000 
0.000000 0.000000 0.000000 

-0.000000 -0.000000 0.000000 
0.000000 -0.000000 0.000000 
0.000000 0.000000 0.000000 

0.000000 -0.000000 0.000000 
0.000000 0.000000 0.000000 
0.000000 0.000000 0.000000 

0.000000 -0.000000 0.000000 
0.000000 0.000000 0.000000 
0.000000 0.000000 0.000000 

-0.000000 0.000000 0.000000 
0.000000 -0.000000 0.000000 
0.000000 0.000000 0.000000 

0.000000 0.000000 0.000000 
0.000000 0.000000 0.000000 
0.000000 0.000000 0.000000 

0.000000 0.000000 0.000000 
0.000000 0.000000 0.000000 
0.000000 0.000000 0.000000 

0.000000 -0.000000 0.000000 
0.000000 0.000000 0.000000 
0.000000 0.000000 0.000000 

-0.000000 -0.000000 0.000000 
0.000000 -0.000000 0.000000 
0.000000 0.000000 0.000000 

0.000000 0.000000 0.000000 
0.000000 0.000000 0.000000 
0.000000 0.000000 0.000000 

-0.000000 0.000000 0.000000 
0.000000 -0.000000 0.000000 
0.000000 0.000000 0.000000 

0.000000 0.000000 0.000000 
0.000000 0.000000 0.000000 
0.000000 0.000000 0.000000 

-0.000000 -0.000000 0.000000 
0.000000 -0.000000 0.000000 
0.000000 0.000000 0.000000 

0.000000 0.000000 0.000000 
0.000000 0.000000 0.000000 
0.000000 0.000000 0.000000 

0.000000 -0.000000 0.000000 
0.000000 0.000000 0.000000 
0.000000 0.000000 0.000000 

0.000000 -0.000000 0.000000 
0.000000 0.000000 0.000000 
0.000000 0.000000 0.000000 

0.000000 -0.000000 0.000000 
0.000000 0.000000 0.000000 
0.000000 0.000000 0.000000 

0.000000 -0.000000 0.000000 
0.000000 0.000000 0.000000 
0.000000 0.000000 0.000000 

-0.000000 -0.000000 0.000000 
0.000000 -0.000000 0.000000 
0.000000 0.000000 0.000000 

-0.000000 -0.000000 0.000000 
0.000000 -0.000000 0.000000 
0.000000 0.000000 0.000000 

0.000000 -0.000000 0.000000 
0.000000 0.000000 0.000000 
0.000000 0.000000 0.000000 

-0.000000 -0.000000 0.000000 
0.000000 -0.000000 0.000000 
0.000000 0.000000 0.000000 

-0.000000 0.000000 0.000000 
0.000000 -0.000000 0.000000 
0.000000 0.000000 0.000000 

-0.000000 0.000000 0.000000 
0.000000 -0.000000 0.000000 
0.000000 0.000000 0.000000 

-0.000000 0.000000 0.000000 
0.000000 -0.000000 0.000000 
0.000000 0.000000 0.000000 

0.000000 0.000000 0.000000 
0.000000 0.000000 0.000000 
0.000000 0.000000 0.000000 

0.000000 0.000000 0.000000 
0.000000 0.000000 0.000000 
0.000000 0.000000 0.000000 

-0.000000 -0.000000 0.000000 
0.000000 0.000000 0.000000 
0.000000 0.000000 0.000000 

-0.000000 0.000000 0.000000 
0.000000 -0.000000 0.000000 
0.000000 0.000000 0.000000 

-0.000000 0.000000 0.000000 
0.000000 -0.000000 0.000000 
0.000000 0.000000 0.000000 

-0.000000 0.000000 0.000000 
0.000000 -0.000000 0.000000 
0.000000 0.000000 0.000000 

-0.000000 0.000000 0.000000 
0.000000 -0.000000 0.000000 
0.000000 0.000000 0.000000 

-0.000000 -0.000000 0.000000 
0.000000 -0.000000 0.000000 
0.000000 0.000000 0.000000 

-0.000000 0.000000 0.000000 
0.000000 -0.000000 0.000000 
0.000000 0.000000 0.000000 

0.000000 0.000000 0.000000 
0.000000 0.000000 0.000000 
0.000000 0.000000 0.000000 

-0.000000 0.000000 0.000000 
0.000000 -0.000000 0.000000 
0.000000 0.000000 0.000000 

0.000000 0.000000 0.000000 
0.000000 0.000000 0.000000 
0.000000 0.000000 0.000000 

-0.000000 -0.000000 0.000000 
0.000000 0.000000 0.000000 
0.000000 0.000000 0.000000 

-0.000000 0.000000 0.000000 
0.000000 -0.000000 0.000000 
0.000000 0.000000 0.000000 

0.000000 0.000000 0.000000 
0.000000 0.000000 0.000000 
0.000000 0.000000 0.000000 

-0.000000 0.000000 0.000000 
0.000000 -0.000000 0.000000 
0.000000 0.000000 0.000000 

0.000000 0.000000 0.000000 
0.000000 0.000000 0.000000 
0.000000 0.000000 0.000000 

0.000000 -0.000000 0.000000 
0.000000 0.000000 0.000000 
0.000000 0.000000 0.000000 

0.000000 0.000000 0.000000 
0.000000 0.000000 0.000000 
0.000000 0.000000 0.000000 

0.000000 -0.000000 0.000000 
0.000000 0.000000 0.000000 
0.000000 0.000000 0.000000 

0.000000 -0.000000 0.000000 
0.000000 0.000000 0.000000 
0.000000 0.000000 0.000000 

0.000000 -0.000000 0.000000 
0.000000 0.000000 0.000000 
0.000000 0.000000 0.000000 

-0.000000 0.000000 0.000000 
0.000000 -0.000000 0.000000 
0.000000 0.000000 0.000000 

-0.000000 0.000000 0.000000 
0.000000 -0.000000 0.000000 
0.000000 0.000000 0.000000 

0.000000 -0.000000 0.000000 
0.000000 0.000000 0.000000 
0.000000 0.000000 0.000000 

-0.000000 -0.000000 0.000000 
0.000000 -0.000000 0.000000 
0.000000 0.000000 0.000000 

0.000000 0.000000 0.000000 
0.000000 0.000000 0.000000 
0.000000 0.000000 0.000000 

0.000000 -0.000000 0.000000 
0.000000 0.000000 0.000000 
0.000000 0.000000 0.000000 

0.000000 0.000000 0.000000 
0.000000 0.000000 0.000000 
0.000000 0.000000 0.000000 

0.000000 0.000000 0.000000 
0.000000 0.000000 0.000000 
0.000000 0.000000 0.000000 

0.000000 0.000000 0.000000 
0.000000 0.000000 0.000000 
0.000000 0.000000 0.000000 

-0.000000 -0.000000 0.000000 
0.000000 -0.000000 0.000000 
0.000000 0.000000 0.000000 

-0.000000 -0.000000 0.000000 
0.000000 -0.000000 0.000000 
0.000000 0.000000 0.000000 

0.000000 -0.000000 0.000000 
0.000000 0.000000 0.000000 
0.000000 0.000000 0.000000 

-0.000000 -0.000000 0.000000 
0.000000 -0.000000 0.000000 
0.000000 0.000000 0.000000 

-0.000000 0.000000 0.000000 
0.000000 -0.000000 0.000000 
0.000000 0.000000 0.000000 

-0.000000 0.000000 0.000000 
0.000000 -0.000000 0.000000 
0.000000 0.000000 0.000000 

0.000000 0.000000 0.000000 
0.000000 -0.000000 0.000000 
0.000000 0.000000 0.000000 

TENSORS STRAIN float 
0.000000 0.000000 0.000000 
0.000000 -0.000000 0.000000 
0.000000 0.000000 0.000000 

0.000000 0.000000 0.000000 
0.000000 0.000000 0.000000 
0.000000 0.000000 0.000000 

-0.000000 0.000000 0.000000 
0.000000 -0.000000 0.000000 
0.000000 0.000000 0.000000 

0.000000 -0.000000 0.000000 
0.000000 0.000000 0.000000 
0.000000 0.000000 0.000000 

-0.000000 0.000000 0.000000 
0.000000 -0.000000 0.000000 
0.000000 0.000000 0.000000 

-0.000000 0.000000 0.000000 
0.000000 -0.000000 0.000000 
0.000000 0.000000 0.000000 

-0.000000 -0.000000 0.000000 
0.000000 0.000000 0.000000 
0.000000 0.000000 0.000000 

-0.000000 -0.000000 0.000000 
0.000000 0.000000 0.000000 
0.000000 0.000000 0.000000 

0.000000 -0.000000 0.000000 
0.000000 -0.000000 0.000000 
0.000000 0.000000 0.000000 

-0.000000 -0.000000 0.000000 
0.000000 0.000000 0.000000 
0.000000 0.000000 0.000000 

-0.000000 -0.000000 0.000000 
0.000000 0.000000 0.000000 
0.000000 0.000000 0.000000 

-0.000000 -0.000000 0.000000 
0.000000 0.000000 0.000000 
0.000000 0.000000 0.000000 

-0.000000 0.000000 0.000000 
0.000000 0.000000 0.000000 
0.000000 0.000000 0.000000 

-0.000000 0.000000 0.000000 
0.000000 0.000000 0.000000 
0.000000 0.000000 0.000000 

0.000000 0.000000 0.000000 
0.000000 -0.000000 0.000000 
0.000000 0.000000 0.000000 

0.000000 0.000000 0.000000 
0.000000 -0.000000 0.000000 
0.000000 0.000000 0.000000 

-0.000000 0.000000 0.000000 
0.000000 0.000000 0.000000 
0.000000 0.000000 0.000000 

-0.000000 0.000000 0.000000 
0.000000 0.000000 0.000000 
0.000000 0.000000 0.000000 

-0.000000 0.000000 0.000000 
0.000000 -0.000000 0.000000 
0.000000 0.000000 0.000000 

-0.000000 -0.000000 0.000000 
0.000000 0.000000 0.000000 
0.000000 0.000000 0.000000 

-0.000000 -0.000000 0.000000 
0.000000 0.000000 0.000000 
0.000000 0.000000 0.000000 

-0.000000 -0.000000 0.000000 
0.000000 -0.000000 0.000000 
0.000000 0.000000 0.000000 

-0.000000 -0.000000 0.000000 
0.000000 -0.000000 0.000000 
0.000000 0.000000 0.000000 

0.000000 -0.000000 0.000000 
0.000000 0.000000 0.000000 
0.000000 0.000000 0.000000 

0.000000 0.000000 0.000000 
0.000000 -0.000000 0.000000 
0.000000 0.000000 0.000000 

0.000000 0.000000 0.000000 
0.000000 -0.000000 0.000000 
0.000000 0.000000 0.000000 

-0.000000 0.000000 0.000000 
0.000000 0.000000 0.000000 
0.000000 0.000000 0.000000 

-0.000000 0.000000 0.000000 
0.000000 0.000000 0.000000 
0.000000 0.000000 0.000000 

-0.000000 0.000000 0.000000 
0.000000 0.000000 0.000000 
0.000000 0.000000 0.000000 

0.000000 0.000000 0.000000 
0.000000 0.000000 0.000000 
0.000000 0.000000 0.000000 

-0.000000 0.000000 0.000000 
0.000000 0.000000 0.000000 
0.000000 0.000000 0.000000 

0.000000 0.000000 0.000000 
0.000000 0.000000 0.000000 
0.000000 0.000000 0.000000 

-0.000000 0.000000 0.000000 
0.000000 0.000000 0.000000 
0.000000 0.000000 0.000000 

0.000000 -0.000000 0.000000 
0.000000 -0.000000 0.000000 
0.000000 0.000000 0.000000 

0.000000 0.000000 0.000000 
0.000000 -0.000000 0.000000 
0.000000 0.000000 0.000000 

0.000000 0.000000 0.000000 
0.000000 0.000000 0.000000 
0.000000 0.000000 0.000000 

0.000000 0.000000 0.000000 
0.000000 -0.000000 0.000000 
0.000000 0.000000 0.000000 

0.000000 0.000000 0.000000 
0.000000 -0.000000 0.000000 
0.000000 0.000000 0.000000 

0.000000 -0.000000 0.000000 
0.000000 -0.000000 0.000000 
0.000000 0.000000 0.000000 

-0.000000 0.000000 0.000000 
0.000000 0.000000 0.000000 
0.000000 0.000000 0.000000 

-0.000000 0.000000 0.000000 
0.000000 0.000000 0.000000 
0.000000 0.000000 0.000000 

-0.000000 -0.000000 0.000000 
0.000000 0.000000 0.000000 
0.000000 0.000000 0.000000 

-0.000000 0.000000 0.000000 
0.000000 0.000000 0.000000 
0.000000 0.000000 0.000000 

0.000000 -0.000000 0.000000 
0.000000 -0.000000 0.000000 
0.000000 0.000000 0.000000 

0.000000 0.000000 0.000000 
0.000000 -0.000000 0.000000 
0.000000 0.000000 0.000000 

-0.000000 -0.000000 0.000000 
0.000000 -0.000000 0.000000 
0.000000 0.000000 0.000000 

-0.000000 -0.000000 0.000000 
0.000000 -0.000000 0.000000 
0.000000 0.000000 0.000000 

-0.000000 -0.000000 0.000000 
0.000000 0.000000 0.000000 
0.000000 0.000000 0.000000 

-0.000000 -0.000000 0.000000 
0.000000 0.000000 0.000000 
0.000000 0.000000 0.000000 

-0.000000 -0.000000 0.000000 
0.000000 0.000000 0.000000 
0.000000 0.000000 0.000000 

0.000000 -0.000000 0.000000 
0.000000 0.000000 0.000000 
0.000000 0.000000 0.000000 

-0.000000 -0.000000 0.000000 
0.000000 0.000000 0.000000 
0.000000 0.000000 0.000000 

-0.000000 0.000000 0.000000 
0.000000 -0.000000 0.000000 
0.000000 0.000000 0.000000 

-0.000000 0.000000 0.000000 
0.000000 -0.000000 0.000000 
0.000000 0.000000 0.000000 

-0.000000 0.000000 0.000000 
0.000000 0.000000 0.000000 
0.000000 0.000000 0.000000 

0.000000 0.000000 0.000000 
0.000000 -0.000000 0.000000 
0.000000 0.000000 0.000000 

0.000000 0.000000 0.000000 
0.000000 -0.000000 0.000000 
0.000000 0.000000 0.000000 

-0.000000 0.000000 0.000000 
0.000000 0.000000 0.000000 
0.000000 0.000000 0.000000 

0.000000 0.000000 0.000000 
0.000000 0.000000 0.000000 
0.000000 0.000000 0.000000 

-0.000000 0.000000 0.000000 
0.000000 0.000000 0.000000 
0.000000 0.000000 0.000000 

-0.000000 -0.000000 0.000000 
0.000000 0.000000 0.000000 
0.000000 0.000000 0.000000 

-0.000000 -0.000000 0.000000 
0.000000 0.000000 0.000000 
0.000000 0.000000 0.000000 

0.000000 -0.000000 0.000000 
0.000000 -0.000000 0.000000 
0.000000 0.000000 0.000000 

0.000000 -0.000000 0.000000 
0.000000 -0.000000 0.000000 
0.000000 0.000000 0.000000 

0.000000 0.000000 0.000000 
0.000000 -0.000000 0.000000 
0.000000 0.000000 0.000000 

0.000000 0.000000 0.000000 
0.000000 -0.000000 0.000000 
0.000000 0.000000 0.000000 

-0.000000 0.000000 0.000000 
0.000000 0.000000 0.000000 
0.000000 0.000000 0.000000 

-0.000000 -0.000000 0.000000 
0.000000 0.000000 0.000000 
0.000000 0.000000 0.000000 

-0.000000 -0.000000 0.000000 
0.000000 0.000000 0.000000 
0.000000 0.000000 0.000000 

-0.000000 -0.000000 0.000000 
0.000000 0.000000 0.000000 
0.000000 0.000000 0.000000 

-0.000000 -0.000000 0.000000 
0.000000 -0.000000 0.000000 
0.000000 0.000000 0.000000 

0.000000 0.000000 0.000000 
0.000000 0.000000 0.000000 
0.000000 0.000000 0.000000 

0.000000 -0.000000 0.000000 
0.000000 -0.000000 0.000000 
0.000000 0.000000 0.000000 

0.000000 0.000000 0.000000 
0.000000 -0.000000 0.000000 
0.000000 0.000000 0.000000 

0.000000 0.000000 0.000000 
0.000000 -0.000000 0.000000 
0.000000 0.000000 0.000000 

0.000000 0.000000 0.000000 
0.000000 -0.000000 0.000000 
0.000000 0.000000 0.000000 

0.000000 0.000000 0.000000 
0.000000 0.000000 0.000000 
0.000000 0.000000 0.000000 

0.000000 0.000000 0.000000 
0.000000 -0.000000 0.000000 
0.000000 0.000000 0.000000 

0.000000 0.000000 0.000000 
0.000000 -0.000000 0.000000 
0.000000 0.000000 0.000000 

0.000000 -0.000000 0.000000 
0.000000 -0.000000 0.000000 
0.000000 0.000000 0.000000 

0.000000 0.000000 0.000000 
0.000000 -0.000000 0.000000 
0.000000 0.000000 0.000000 

0.000000 0.000000 0.000000 
0.000000 -0.000000 0.000000 
0.000000 0.000000 0.000000 

0.000000 0.000000 0.000000 
0.000000 0.000000 0.000000 
0.000000 0.000000 0.000000 

-0.000000 -0.000000 0.000000 
0.000000 0.000000 0.000000 
0.000000 0.000000 0.000000 

0.000000 -0.000000 0.000000 
0.000000 -0.000000 0.000000 
0.000000 0.000000 0.000000 

0.000000 -0.000000 0.000000 
0.000000 0.000000 0.000000 
0.000000 0.000000 0.000000 

0.000000 0.000000 0.000000 
0.000000 0.000000 0.000000 
0.000000 0.000000 0.000000 

0.000000 0.000000 0.000000 
0.000000 -0.000000 0.000000 
0.000000 0.000000 0.000000 

0.000000 -0.000000 0.000000 
0.000000 -0.000000 0.000000 
0.000000 0.000000 0.000000 

-0.000000 0.000000 0.000000 
0.000000 0.000000 0.000000 
0.000000 0.000000 0.000000 

-0.000000 0.000000 0.000000 
0.000000 0.000000 0.000000 
0.000000 0.000000 0.000000 

-0.000000 -0.000000 0.000000 
0.000000 0.000000 0.000000 
0.000000 0.000000 0.000000 

-0.000000 -0.000000 0.000000 
0.000000 -0.000000 0.000000 
0.000000 0.000000 0.000000 

0.000000 0.000000 0.000000 
0.000000 -0.000000 0.000000 
0.000000 0.000000 0.000000 

-0.000000 0.000000 0.000000 
0.000000 -0.000000 0.000000 
0.000000 0.000000 0.000000 

-0.000000 0.000000 0.000000 
0.000000 0.000000 0.000000 
0.000000 0.000000 0.000000 

-0.000000 0.000000 0.000000 
0.000000 -0.000000 0.000000 
0.000000 0.000000 0.000000 

-0.000000 0.000000 0.000000 
0.000000 -0.000000 0.000000 
0.000000 0.000000 0.000000 

-0.000000 0.000000 0.000000 
0.000000 -0.000000 0.000000 
0.000000 0.000000 0.000000 

-0.000000 0.000000 0.000000 
0.000000 0.000000 0.000000 
0.000000 0.000000 0.000000 

0.000000 -0.000000 0.000000 
0.000000 -0.000000 0.000000 
0.000000 0.000000 0.000000 

-0.000000 -0.000000 0.000000 
0.000000 -0.000000 0.000000 
0.000000 0.000000 0.000000 

-0.000000 0.000000 0.000000 
0.000000 -0.000000 0.000000 
0.000000 0.000000 0.000000 

-0.000000 -0.000000 0.000000 
0.000000 0.000000 0.000000 
0.000000 0.000000 0.000000 

-0.000000 0.000000 0.000000 
0.000000 -0.000000 0.000000 
0.000000 0.000000 0.000000 

-0.000000 -0.000000 0.000000 
0.000000 0.000000 0.000000 
0.000000 0.000000 0.000000 

-0.000000 -0.000000 0.000000 
0.000000 0.000000 0.000000 
0.000000 0.000000 0.000000 

-0.000000 -0.000000 0.000000 
0.000000 0.000000 0.000000 
0.000000 0.000000 0.000000 

0.000000 -0.000000 0.000000 
0.000000 -0.000000 0.000000 
0.000000 0.000000 0.000000 

0.000000 0.000000 0.000000 
0.000000 0.000000 0.000000 
0.000000 0.000000 0.000000 

0.000000 0.000000 0.000000 
0.000000 0.000000 0.000000 
0.000000 0.000000 0.000000 

-0.000000 0.000000 0.000000 
0.000000 -0.000000 0.000000 
0.000000 0.000000 0.000000 

-0.000000 0.000000 0.000000 
0.000000 0.000000 0.000000 
0.000000 0.000000 0.000000 

-0.000000 -0.000000 0.000000 
0.000000 -0.000000 0.000000 
0.000000 0.000000 0.000000 

0.000000 -0.000000 0.000000 
0.000000 0.000000 0.000000 
0.000000 0.000000 0.000000 

0.000000 -0.000000 0.000000 
0.000000 0.000000 0.000000 
0.000000 0.000000 0.000000 

-0.000000 0.000000 0.000000 
0.000000 0.000000 0.000000 
0.000000 0.000000 0.000000 

-0.000000 0.000000 0.000000 
0.000000 0.000000 0.000000 
0.000000 0.000000 0.000000 

-0.000000 0.000000 0.000000 
0.000000 0.000000 0.000000 
0.000000 0.000000 0.000000 

-0.000000 -0.000000 0.000000 
0.000000 0.000000 0.000000 
0.000000 0.000000 0.000000 

0.000000 -0.000000 0.000000 
0.000000 -0.000000 0.000000 
0.000000 0.000000 0.000000 

0.000000 0.000000 0.000000 
0.000000 0.000000 0.000000 
0.000000 0.000000 0.000000 

0.000000 0.000000 0.000000 
0.000000 -0.000000 0.000000 
0.000000 0.000000 0.000000 

0.000000 0.000000 0.000000 
0.000000 -0.000000 0.000000 
0.000000 0.000000 0.000000 

-0.000000 -0.000000 0.000000 
0.000000 -0.000000 0.000000 
0.000000 0.000000 0.000000 

0.000000 0.000000 0.000000 
0.000000 -0.000000 0.000000 
0.000000 0.000000 0.000000 

-0.000000 -0.000000 0.000000 
0.000000 0.000000 0.000000 
0.000000 0.000000 0.000000 

0.000000 -0.000000 0.000000 
0.000000 -0.000000 0.000000 
0.000000 0.000000 0.000000 

0.000000 -0.000000 0.000000 
0.000000 0.000000 0.000000 
0.000000 0.000000 0.000000 

-0.000000 -0.000000 0.000000 
0.000000 0.000000 0.000000 
0.000000 0.000000 0.000000 

-0.000000 -0.000000 0.000000 
0.000000 -0.000000 0.000000 
0.000000 0.000000 0.000000 

-0.000000 -0.000000 0.000000 
0.000000 0.000000 0.000000 
0.000000 0.000000 0.000000 

0.000000 -0.000000 0.000000 
0.000000 0.000000 0.000000 
0.000000 0.000000 0.000000 

-0.000000 -0.000000 0.000000 
0.000000 0.000000 0.000000 
0.000000 0.000000 0.000000 

0.000000 0.000000 0.000000 
0.000000 -0.000000 0.000000 
0.000000 0.000000 0.000000 

-0.000000 0.000000 0.000000 
0.000000 0.000000 0.000000 
0.000000 0.000000 0.000000 

-0.000000 0.000000 0.000000 
0.000000 0.000000 0.000000 
0.000000 0.000000 0.000000 

-0.000000 0.000000 0.000000 
0.000000 0.000000 0.000000 
0.000000 0.000000 0.000000 

-0.000000 0.000000 0.000000 
0.000000 0.000000 0.000000 
0.000000 0.000000 0.000000 

-0.000000 -0.000000 0.000000 
0.000000 0.000000 0.000000 
0.000000 0.000000 0.000000 

-0.000000 0.000000 0.000000 
0.000000 0.000000 0.000000 
0.000000 0.000000 0.000000 

0.000000 0.000000 0.000000 
0.000000 -0.000000 0.000000 
0.000000 0.000000 0.000000 

0.000000 0.000000 0.000000 
0.000000 -0.000000 0.000000 
0.000000 0.000000 0.000000 

-0.000000 0.000000 0.000000 
0.000000 0.000000 0.000000 
0.000000 0.000000 0.000000 

-0.000000 -0.000000 0.000000 
0.000000 -0.000000 0.000000 
0.000000 0.000000 0.000000 

-0.000000 0.000000 0.000000 
0.000000 -0.000000 0.000000 
0.000000 0.000000 0.000000 

-0.000000 0.000000 0.000000 
0.000000 0.000000 0.000000 
0.000000 0.000000 0.000000 

-0.000000 0.000000 0.000000 
0.000000 0.000000 0.000000 
0.000000 0.000000 0.000000 

-0.000000 0.000000 0.000000 
0.000000 0.000000 0.000000 
0.000000 0.000000 0.000000 

-0.000000 -0.000000 0.000000 
0.000000 0.000000 0.000000 
0.000000 0.000000 0.000000 

0.000000 0.000000 0.000000 
0.000000 -0.000000 0.000000 
0.000000 0.000000 0.000000 

0.000000 0.000000 0.000000 
0.000000 0.000000 0.000000 
0.000000 0.000000 0.000000 

-0.000000 0.000000 0.000000 
0.000000 0.000000 0.000000 
0.000000 0.000000 0.000000 

-0.000000 0.000000 0.000000 
0.000000 0.000000 0.000000 
0.000000 0.000000 0.000000 

0.000000 -0.000000 0.000000 
0.000000 0.000000 0.000000 
0.000000 0.000000 0.000000 

-0.000000 0.000000 0.000000 
0.000000 0.000000 0.000000 
0.000000 0.000000 0.000000 

0.000000 -0.000000 0.000000 
0.000000 -0.000000 0.000000 
0.000000 0.000000 0.000000 

-0.000000 -0.000000 0.000000 
0.000000 0.000000 0.000000 
0.000000 0.000000 0.000000 

-0.000000 -0.000000 0.000000 
0.000000 0.000000 0.000000 
0.000000 0.000000 0.000000 

0.000000 0.000000 0.000000 
0.000000 -0.000000 0.000000 
0.000000 0.000000 0.000000 

0.000000 0.000000 0.000000 
0.000000 -0.000000 0.000000 
0.000000 0.000000 0.000000 

0.000000 -0.000000 0.000000 
0.000000 -0.000000 0.000000 
0.000000 0.000000 0.000000 

0.000000 -0.000000 0.000000 
0.000000 -0.000000 0.000000 
0.000000 0.000000 0.000000 

0.000000 0.000000 0.000000 
0.000000 -0.000000 0.000000 
0.000000 0.000000 0.000000 

0.000000 -0.000000 0.000000 
0.000000 0.000000 0.000000 
0.000000 0.000000 0.000000 

0.000000 0.000000 0.000000 
0.000000 -0.000000 0.000000 
0.000000 0.000000 0.000000 

0.000000 0.000000 0.000000 
0.000000 -0.000000 0.000000 
0.000000 0.000000 0.000000 

0.000000 0.000000 0.000000 
0.000000 -0.000000 0.000000 
0.000000 0.000000 0.000000 

0.000000 -0.000000 0.000000 
0.000000 -0.000000 0.000000 
0.000000 0.000000 0.000000 

0.000000 -0.000000 0.000000 
0.000000 -0.000000 0.000000 
0.000000 0.000000 0.000000 

0.000000 -0.000000 0.000000 
0.000000 -0.000000 0.000000 
0.000000 0.000000 0.000000 

0.000000 -0.000000 0.000000 
0.000000 -0.000000 0.000000 
0.000000 0.000000 0.000000 

-0.000000 0.000000 0.000000 
0.000000 0.000000 0.000000 
0.000000 0.000000 0.000000 

0.000000 0.000000 0.000000 
0.000000 -0.000000 0.000000 
0.000000 0.000000 0.000000 

0.000000 0.000000 0.000000 
0.000000 -0.000000 0.000000 
0.000000 0.000000 0.000000 

