# vtk DataFile Version 3.0 
vtk output 
ASCII 
DATASET UNSTRUCTURED_GRID 
POINTS 175 float 
-0.026061 -0.139541 0.000000 
-0.106992 -0.071486 0.000000 
-0.054870 -0.079719 0.000000 
-0.028809 -0.033835 0.000000 
-0.186430 -0.007410 0.000000 
-0.137056 -0.009937 0.000000 
-0.114311 0.043711 0.000000 
-0.058186 0.028045 0.000000 
-0.029377 0.068222 0.000000 
-0.265318 0.055745 0.000000 
-0.217198 0.054946 0.000000 
-0.196633 0.112242 0.000000 
-0.143120 0.103534 0.000000 
-0.116563 0.150802 0.000000 
-0.058945 0.131156 0.000000 
-0.029568 0.169276 0.000000 
-0.344206 0.118901 0.000000 
-0.296791 0.118908 0.000000 
-0.278030 0.178851 0.000000 
-0.225992 0.172985 0.000000 
-0.201664 0.225102 0.000000 
-0.145749 0.211628 0.000000 
-0.117890 0.255971 0.000000 
-0.059328 0.233265 0.000000 
-0.029759 0.270331 0.000000 
-0.058559 -0.180292 0.000000 
-0.162226 -0.201135 0.000000 
-0.123292 -0.165517 0.000000 
-0.142917 -0.116534 0.000000 
-0.261851 -0.223291 0.000000 
-0.229092 -0.186264 0.000000 
-0.256854 -0.135032 0.000000 
-0.209613 -0.100920 0.000000 
-0.223062 -0.053346 0.000000 
-0.360414 -0.245591 0.000000 
-0.329787 -0.208468 0.000000 
-0.361761 -0.156666 0.000000 
-0.321587 -0.120257 0.000000 
-0.341985 -0.070023 0.000000 
-0.290702 -0.037224 0.000000 
-0.302189 0.009511 0.000000 
-0.458977 -0.267891 0.000000 
-0.429420 -0.230817 0.000000 
-0.464588 -0.178775 0.000000 
-0.427556 -0.141747 0.000000 
-0.453135 -0.090233 0.000000 
-0.407738 -0.054917 0.000000 
-0.425037 -0.005489 0.000000 
-0.370772 0.026140 0.000000 
-0.381315 0.072367 0.000000 
-0.046960 -0.231107 0.000000 
-0.095301 -0.325153 0.000000 
-0.098873 -0.272506 0.000000 
-0.149405 -0.257308 0.000000 
-0.140093 -0.416857 0.000000 
-0.148617 -0.368159 0.000000 
-0.205981 -0.357922 0.000000 
-0.203197 -0.299718 0.000000 
-0.248777 -0.280572 0.000000 
-0.184111 -0.507821 0.000000 
-0.194039 -0.460730 0.000000 
-0.254475 -0.453430 0.000000 
-0.257893 -0.399320 0.000000 
-0.309886 -0.383948 0.000000 
-0.303554 -0.323403 0.000000 
-0.347255 -0.303245 0.000000 
-0.228129 -0.598784 0.000000 
-0.238687 -0.552560 0.000000 
-0.301302 -0.547608 0.000000 
-0.307162 -0.495569 0.000000 
-0.363386 -0.483448 0.000000 
-0.362692 -0.425937 0.000000 
-0.412122 -0.408644 0.000000 
-0.403017 -0.346497 0.000000 
-0.445733 -0.325918 0.000000 
-0.000000 -0.253722 0.000000 
0.043388 -0.350153 0.000000 
-0.000000 -0.320121 0.000000 
-0.043388 -0.350153 0.000000 
0.087158 -0.442350 0.000000 
0.043769 -0.418651 0.000000 
-0.000000 -0.457117 0.000000 
-0.043769 -0.418651 0.000000 
-0.087158 -0.442350 0.000000 
0.130831 -0.533479 0.000000 
0.087824 -0.511880 0.000000 
0.044436 -0.554580 0.000000 
-0.000000 -0.523515 0.000000 
-0.044436 -0.554580 0.000000 
-0.087824 -0.511880 0.000000 
-0.130831 -0.533479 0.000000 
0.174505 -0.624609 0.000000 
0.131782 -0.604043 0.000000 
0.088871 -0.649909 0.000000 
0.044532 -0.622045 0.000000 
-0.000000 -0.658446 0.000000 
-0.044532 -0.622045 0.000000 
-0.088871 -0.649909 0.000000 
-0.131782 -0.604043 0.000000 
-0.174505 -0.624609 0.000000 
0.046960 -0.231107 0.000000 
0.149405 -0.257308 0.000000 
0.098873 -0.272506 0.000000 
0.095301 -0.325153 0.000000 
0.248777 -0.280572 0.000000 
0.203197 -0.299718 0.000000 
0.205981 -0.357922 0.000000 
0.148617 -0.368159 0.000000 
0.140093 -0.416857 0.000000 
0.347255 -0.303245 0.000000 
0.303554 -0.323403 0.000000 
0.309886 -0.383948 0.000000 
0.257893 -0.399320 0.000000 
0.254475 -0.453430 0.000000 
0.194039 -0.460730 0.000000 
0.184111 -0.507821 0.000000 
0.445733 -0.325918 0.000000 
0.403017 -0.346497 0.000000 
0.412122 -0.408644 0.000000 
0.362692 -0.425937 0.000000 
0.363386 -0.483448 0.000000 
0.307162 -0.495569 0.000000 
0.301302 -0.547608 0.000000 
0.238687 -0.552560 0.000000 
0.228129 -0.598784 0.000000 
0.058559 -0.180292 0.000000 
0.142917 -0.116534 0.000000 
0.123292 -0.165517 0.000000 
0.162226 -0.201135 0.000000 
0.223062 -0.053346 0.000000 
0.209613 -0.100920 0.000000 
0.256854 -0.135032 0.000000 
0.229092 -0.186264 0.000000 
0.261851 -0.223291 0.000000 
0.302189 0.009511 0.000000 
0.290702 -0.037224 0.000000 
0.341985 -0.070023 0.000000 
0.321587 -0.120257 0.000000 
0.361761 -0.156666 0.000000 
0.329787 -0.208468 0.000000 
0.360414 -0.245591 0.000000 
0.381315 0.072367 0.000000 
0.370772 0.026140 0.000000 
0.425037 -0.005489 0.000000 
0.407738 -0.054917 0.000000 
0.453135 -0.090233 0.000000 
0.427556 -0.141747 0.000000 
0.464588 -0.178775 0.000000 
0.429420 -0.230817 0.000000 
0.458977 -0.267891 0.000000 
0.026061 -0.139541 0.000000 
0.028809 -0.033835 0.000000 
0.054870 -0.079719 0.000000 
0.106992 -0.071486 0.000000 
0.029377 0.068222 0.000000 
0.058186 0.028045 0.000000 
0.114311 0.043711 0.000000 
0.137056 -0.009937 0.000000 
0.186430 -0.007410 0.000000 
0.029568 0.169276 0.000000 
0.058945 0.131156 0.000000 
0.116563 0.150802 0.000000 
0.143120 0.103534 0.000000 
0.196633 0.112242 0.000000 
0.217198 0.054946 0.000000 
0.265318 0.055745 0.000000 
0.029759 0.270331 0.000000 
0.059328 0.233265 0.000000 
0.117890 0.255971 0.000000 
0.145749 0.211628 0.000000 
0.201664 0.225102 0.000000 
0.225992 0.172985 0.000000 
0.278030 0.178851 0.000000 
0.296791 0.118908 0.000000 
0.344206 0.118901 0.000000 
CELLS 175 350 
1 0 
1 1 
1 2 
1 3 
1 4 
1 5 
1 6 
1 7 
1 8 
1 9 
1 10 
1 11 
1 12 
1 13 
1 14 
1 15 
1 16 
1 17 
1 18 
1 19 
1 20 
1 21 
1 22 
1 23 
1 24 
1 25 
1 26 
1 27 
1 28 
1 29 
1 30 
1 31 
1 32 
1 33 
1 34 
1 35 
1 36 
1 37 
1 38 
1 39 
1 40 
1 41 
1 42 
1 43 
1 44 
1 45 
1 46 
1 47 
1 48 
1 49 
1 50 
1 51 
1 52 
1 53 
1 54 
1 55 
1 56 
1 57 
1 58 
1 59 
1 60 
1 61 
1 62 
1 63 
1 64 
1 65 
1 66 
1 67 
1 68 
1 69 
1 70 
1 71 
1 72 
1 73 
1 74 
1 75 
1 76 
1 77 
1 78 
1 79 
1 80 
1 81 
1 82 
1 83 
1 84 
1 85 
1 86 
1 87 
1 88 
1 89 
1 90 
1 91 
1 92 
1 93 
1 94 
1 95 
1 96 
1 97 
1 98 
1 99 
1 100 
1 101 
1 102 
1 103 
1 104 
1 105 
1 106 
1 107 
1 108 
1 109 
1 110 
1 111 
1 112 
1 113 
1 114 
1 115 
1 116 
1 117 
1 118 
1 119 
1 120 
1 121 
1 122 
1 123 
1 124 
1 125 
1 126 
1 127 
1 128 
1 129 
1 130 
1 131 
1 132 
1 133 
1 134 
1 135 
1 136 
1 137 
1 138 
1 139 
1 140 
1 141 
1 142 
1 143 
1 144 
1 145 
1 146 
1 147 
1 148 
1 149 
1 150 
1 151 
1 152 
1 153 
1 154 
1 155 
1 156 
1 157 
1 158 
1 159 
1 160 
1 161 
1 162 
1 163 
1 164 
1 165 
1 166 
1 167 
1 168 
1 169 
1 170 
1 171 
1 172 
1 173 
1 174 
CELL_TYPES 175 
1 
1 
1 
1 
1 
1 
1 
1 
1 
1 
1 
1 
1 
1 
1 
1 
1 
1 
1 
1 
1 
1 
1 
1 
1 
1 
1 
1 
1 
1 
1 
1 
1 
1 
1 
1 
1 
1 
1 
1 
1 
1 
1 
1 
1 
1 
1 
1 
1 
1 
1 
1 
1 
1 
1 
1 
1 
1 
1 
1 
1 
1 
1 
1 
1 
1 
1 
1 
1 
1 
1 
1 
1 
1 
1 
1 
1 
1 
1 
1 
1 
1 
1 
1 
1 
1 
1 
1 
1 
1 
1 
1 
1 
1 
1 
1 
1 
1 
1 
1 
1 
1 
1 
1 
1 
1 
1 
1 
1 
1 
1 
1 
1 
1 
1 
1 
1 
1 
1 
1 
1 
1 
1 
1 
1 
1 
1 
1 
1 
1 
1 
1 
1 
1 
1 
1 
1 
1 
1 
1 
1 
1 
1 
1 
1 
1 
1 
1 
1 
1 
1 
1 
1 
1 
1 
1 
1 
1 
1 
1 
1 
1 
1 
1 
1 
1 
1 
1 
1 
1 
1 
1 
1 
1 
1 
POINT_DATA 175 
VECTORS X_GC float 
-0.026061 -0.139541 0.000000 
-0.106992 -0.071486 0.000000 
-0.054870 -0.079719 0.000000 
-0.028809 -0.033835 0.000000 
-0.186430 -0.007410 0.000000 
-0.137056 -0.009937 0.000000 
-0.114311 0.043711 0.000000 
-0.058186 0.028045 0.000000 
-0.029377 0.068222 0.000000 
-0.265318 0.055745 0.000000 
-0.217198 0.054946 0.000000 
-0.196633 0.112242 0.000000 
-0.143120 0.103534 0.000000 
-0.116563 0.150802 0.000000 
-0.058945 0.131156 0.000000 
-0.029568 0.169276 0.000000 
-0.344206 0.118901 0.000000 
-0.296791 0.118908 0.000000 
-0.278030 0.178851 0.000000 
-0.225992 0.172985 0.000000 
-0.201664 0.225102 0.000000 
-0.145749 0.211628 0.000000 
-0.117890 0.255971 0.000000 
-0.059328 0.233265 0.000000 
-0.029759 0.270331 0.000000 
-0.058559 -0.180292 0.000000 
-0.162226 -0.201135 0.000000 
-0.123292 -0.165517 0.000000 
-0.142917 -0.116534 0.000000 
-0.261851 -0.223291 0.000000 
-0.229092 -0.186264 0.000000 
-0.256854 -0.135032 0.000000 
-0.209613 -0.100920 0.000000 
-0.223062 -0.053346 0.000000 
-0.360414 -0.245591 0.000000 
-0.329787 -0.208468 0.000000 
-0.361761 -0.156666 0.000000 
-0.321587 -0.120257 0.000000 
-0.341985 -0.070023 0.000000 
-0.290702 -0.037224 0.000000 
-0.302189 0.009511 0.000000 
-0.458977 -0.267891 0.000000 
-0.429420 -0.230817 0.000000 
-0.464588 -0.178775 0.000000 
-0.427556 -0.141747 0.000000 
-0.453135 -0.090233 0.000000 
-0.407738 -0.054917 0.000000 
-0.425037 -0.005489 0.000000 
-0.370772 0.026140 0.000000 
-0.381315 0.072367 0.000000 
-0.046960 -0.231107 0.000000 
-0.095301 -0.325153 0.000000 
-0.098873 -0.272506 0.000000 
-0.149405 -0.257308 0.000000 
-0.140093 -0.416857 0.000000 
-0.148617 -0.368159 0.000000 
-0.205981 -0.357922 0.000000 
-0.203197 -0.299718 0.000000 
-0.248777 -0.280572 0.000000 
-0.184111 -0.507821 0.000000 
-0.194039 -0.460730 0.000000 
-0.254475 -0.453430 0.000000 
-0.257893 -0.399320 0.000000 
-0.309886 -0.383948 0.000000 
-0.303554 -0.323403 0.000000 
-0.347255 -0.303245 0.000000 
-0.228129 -0.598784 0.000000 
-0.238687 -0.552560 0.000000 
-0.301302 -0.547608 0.000000 
-0.307162 -0.495569 0.000000 
-0.363386 -0.483448 0.000000 
-0.362692 -0.425937 0.000000 
-0.412122 -0.408644 0.000000 
-0.403017 -0.346497 0.000000 
-0.445733 -0.325918 0.000000 
-0.000000 -0.253722 0.000000 
0.043388 -0.350153 0.000000 
-0.000000 -0.320121 0.000000 
-0.043388 -0.350153 0.000000 
0.087158 -0.442350 0.000000 
0.043769 -0.418651 0.000000 
-0.000000 -0.457117 0.000000 
-0.043769 -0.418651 0.000000 
-0.087158 -0.442350 0.000000 
0.130831 -0.533479 0.000000 
0.087824 -0.511880 0.000000 
0.044436 -0.554580 0.000000 
-0.000000 -0.523515 0.000000 
-0.044436 -0.554580 0.000000 
-0.087824 -0.511880 0.000000 
-0.130831 -0.533479 0.000000 
0.174505 -0.624609 0.000000 
0.131782 -0.604043 0.000000 
0.088871 -0.649909 0.000000 
0.044532 -0.622045 0.000000 
-0.000000 -0.658446 0.000000 
-0.044532 -0.622045 0.000000 
-0.088871 -0.649909 0.000000 
-0.131782 -0.604043 0.000000 
-0.174505 -0.624609 0.000000 
0.046960 -0.231107 0.000000 
0.149405 -0.257308 0.000000 
0.098873 -0.272506 0.000000 
0.095301 -0.325153 0.000000 
0.248777 -0.280572 0.000000 
0.203197 -0.299718 0.000000 
0.205981 -0.357922 0.000000 
0.148617 -0.368159 0.000000 
0.140093 -0.416857 0.000000 
0.347255 -0.303245 0.000000 
0.303554 -0.323403 0.000000 
0.309886 -0.383948 0.000000 
0.257893 -0.399320 0.000000 
0.254475 -0.453430 0.000000 
0.194039 -0.460730 0.000000 
0.184111 -0.507821 0.000000 
0.445733 -0.325918 0.000000 
0.403017 -0.346497 0.000000 
0.412122 -0.408644 0.000000 
0.362692 -0.425937 0.000000 
0.363386 -0.483448 0.000000 
0.307162 -0.495569 0.000000 
0.301302 -0.547608 0.000000 
0.238687 -0.552560 0.000000 
0.228129 -0.598784 0.000000 
0.058559 -0.180292 0.000000 
0.142917 -0.116534 0.000000 
0.123292 -0.165517 0.000000 
0.162226 -0.201135 0.000000 
0.223062 -0.053346 0.000000 
0.209613 -0.100920 0.000000 
0.256854 -0.135032 0.000000 
0.229092 -0.186264 0.000000 
0.261851 -0.223291 0.000000 
0.302189 0.009511 0.000000 
0.290702 -0.037224 0.000000 
0.341985 -0.070023 0.000000 
0.321587 -0.120257 0.000000 
0.361761 -0.156666 0.000000 
0.329787 -0.208468 0.000000 
0.360414 -0.245591 0.000000 
0.381315 0.072367 0.000000 
0.370772 0.026140 0.000000 
0.425037 -0.005489 0.000000 
0.407738 -0.054917 0.000000 
0.453135 -0.090233 0.000000 
0.427556 -0.141747 0.000000 
0.464588 -0.178775 0.000000 
0.429420 -0.230817 0.000000 
0.458977 -0.267891 0.000000 
0.026061 -0.139541 0.000000 
0.028809 -0.033835 0.000000 
0.054870 -0.079719 0.000000 
0.106992 -0.071486 0.000000 
0.029377 0.068222 0.000000 
0.058186 0.028045 0.000000 
0.114311 0.043711 0.000000 
0.137056 -0.009937 0.000000 
0.186430 -0.007410 0.000000 
0.029568 0.169276 0.000000 
0.058945 0.131156 0.000000 
0.116563 0.150802 0.000000 
0.143120 0.103534 0.000000 
0.196633 0.112242 0.000000 
0.217198 0.054946 0.000000 
0.265318 0.055745 0.000000 
0.029759 0.270331 0.000000 
0.059328 0.233265 0.000000 
0.117890 0.255971 0.000000 
0.145749 0.211628 0.000000 
0.201664 0.225102 0.000000 
0.225992 0.172985 0.000000 
0.278030 0.178851 0.000000 
0.296791 0.118908 0.000000 
0.344206 0.118901 0.000000 
VECTORS X_EC float 
0.338794 0.383808 0.000000 
-0.609100 -0.534941 0.000000 
0.713312 -0.423800 0.000000 
0.374519 0.956770 0.000000 
0.423588 0.600040 0.000000 
-0.218274 0.634144 0.000000 
-0.513962 -0.090095 0.000000 
0.756418 0.121391 0.000000 
0.381900 -0.421002 0.000000 
-0.550868 -0.252563 0.000000 
0.823577 -0.241768 0.000000 
0.556234 0.984728 0.000000 
-0.139443 -0.897703 0.000000 
-0.484677 0.464173 0.000000 
0.766286 0.729388 0.000000 
0.384386 0.214768 0.000000 
0.474677 0.894834 0.000000 
-0.141715 0.894737 0.000000 
-0.385608 0.085509 0.000000 
0.937896 0.164705 0.000000 
0.621631 -0.538875 0.000000 
-0.105264 -0.356976 0.000000 
-0.467428 -0.955603 0.000000 
0.771260 -0.649074 0.000000 
0.386873 0.850537 0.000000 
0.761262 0.933942 0.000000 
0.108942 -0.784681 0.000000 
-0.397202 0.734480 0.000000 
-0.142083 0.073204 0.000000 
-0.595936 -0.485571 0.000000 
0.978194 -0.985436 0.000000 
-0.660903 0.322939 0.000000 
0.724964 -0.137581 0.000000 
0.899809 -0.779830 0.000000 
0.685384 -0.184518 0.000000 
0.287229 -0.685677 0.000000 
0.702895 0.614995 0.000000 
0.180633 0.123476 0.000000 
0.445811 -0.554684 0.000000 
-0.220880 -0.997470 0.000000 
-0.071546 0.371605 0.000000 
-0.033296 0.116534 0.000000 
-0.417537 -0.383976 0.000000 
0.039645 0.913462 0.000000 
-0.441768 0.413591 0.000000 
-0.109248 -0.281860 0.000000 
-0.699407 -0.758616 0.000000 
-0.474522 0.574105 0.000000 
0.820030 0.147112 0.000000 
0.957100 -0.476960 0.000000 
0.610485 -0.380051 0.000000 
-0.761092 0.889568 0.000000 
-0.714655 0.178830 0.000000 
-0.057734 -0.026337 0.000000 
-0.178789 0.127572 0.000000 
-0.067979 -0.529854 0.000000 
0.677748 -0.668057 0.000000 
0.641556 0.546197 0.000000 
-0.765897 0.287719 0.000000 
0.393446 -0.644419 0.000000 
0.522510 0.719851 0.000000 
-0.691820 0.621307 0.000000 
-0.647393 -0.109176 0.000000 
0.028512 -0.316702 0.000000 
-0.053800 0.865937 0.000000 
0.514316 0.593807 0.000000 
0.965681 0.583590 0.000000 
-0.897068 -0.040439 0.000000 
-0.083078 -0.107292 0.000000 
-0.006893 -0.809816 0.000000 
0.724017 -0.973449 0.000000 
0.714996 0.250147 0.000000 
-0.642413 0.016690 0.000000 
-0.760780 -0.822290 0.000000 
-0.205471 0.899894 0.000000 
0.000000 -0.074750 0.000000 
-0.564049 -0.772937 0.000000 
0.000000 0.821627 0.000000 
0.564049 -0.772937 0.000000 
0.866949 0.471718 0.000000 
-0.569003 0.151787 0.000000 
0.000000 0.671075 0.000000 
0.569003 0.151787 0.000000 
-0.866949 0.471718 0.000000 
0.299194 -0.298032 0.000000 
0.858290 -0.589615 0.000000 
-0.577662 -0.013170 0.000000 
0.000000 -0.432548 0.000000 
0.577662 -0.013170 0.000000 
-0.858290 -0.589615 0.000000 
-0.299194 -0.298032 0.000000 
-0.268560 0.932218 0.000000 
0.286830 0.654577 0.000000 
0.844677 -0.726225 0.000000 
-0.578910 0.897612 0.000000 
0.000000 -0.610984 0.000000 
0.578910 0.897612 0.000000 
-0.844677 -0.726225 0.000000 
-0.286830 0.654577 0.000000 
0.268560 0.932218 0.000000 
-0.610485 -0.380051 0.000000 
0.057734 -0.026337 0.000000 
0.714655 0.178830 0.000000 
0.761092 0.889568 0.000000 
0.765897 0.287719 0.000000 
-0.641556 0.546197 0.000000 
-0.677748 -0.668057 0.000000 
0.067979 -0.529854 0.000000 
0.178789 0.127572 0.000000 
-0.514316 0.593807 0.000000 
0.053800 0.865937 0.000000 
-0.028512 -0.316702 0.000000 
0.647393 -0.109176 0.000000 
0.691820 0.621307 0.000000 
-0.522510 0.719851 0.000000 
-0.393446 -0.644419 0.000000 
0.205471 0.899894 0.000000 
0.760780 -0.822290 0.000000 
0.642413 0.016690 0.000000 
-0.714996 0.250147 0.000000 
-0.724017 -0.973449 0.000000 
0.006894 -0.809816 0.000000 
0.083078 -0.107292 0.000000 
0.897068 -0.040439 0.000000 
-0.965681 0.583590 0.000000 
-0.761262 0.933942 0.000000 
0.142083 0.073204 0.000000 
0.397202 0.734480 0.000000 
-0.108942 -0.784681 0.000000 
-0.899809 -0.779830 0.000000 
-0.724964 -0.137581 0.000000 
0.660903 0.322939 0.000000 
-0.978194 -0.985436 0.000000 
0.595936 -0.485571 0.000000 
0.071546 0.371605 0.000000 
0.220880 -0.997470 0.000000 
-0.445811 -0.554684 0.000000 
-0.180633 0.123476 0.000000 
-0.702895 0.614995 0.000000 
-0.287229 -0.685677 0.000000 
-0.685384 -0.184518 0.000000 
-0.957100 -0.476960 0.000000 
-0.820030 0.147112 0.000000 
0.474522 0.574105 0.000000 
0.699407 -0.758616 0.000000 
0.109248 -0.281860 0.000000 
0.441768 0.413591 0.000000 
-0.039645 0.913462 0.000000 
0.417537 -0.383976 0.000000 
0.033296 0.116534 0.000000 
-0.338794 0.383808 0.000000 
-0.374519 0.956770 0.000000 
-0.713312 -0.423800 0.000000 
0.609100 -0.534941 0.000000 
-0.381900 -0.421002 0.000000 
-0.756418 0.121391 0.000000 
0.513962 -0.090095 0.000000 
0.218274 0.634144 0.000000 
-0.423588 0.600040 0.000000 
-0.384386 0.214768 0.000000 
-0.766286 0.729388 0.000000 
0.484677 0.464173 0.000000 
0.139443 -0.897703 0.000000 
-0.556234 0.984728 0.000000 
-0.823577 -0.241768 0.000000 
0.550868 -0.252563 0.000000 
-0.386873 0.850537 0.000000 
-0.771260 -0.649074 0.000000 
0.467428 -0.955603 0.000000 
0.105264 -0.356976 0.000000 
-0.621631 -0.538875 0.000000 
-0.937896 0.164705 0.000000 
0.385608 0.085509 0.000000 
0.141715 0.894737 0.000000 
-0.474677 0.894834 0.000000 
CELL_DATA 175 
SCALARS MASS float 
LOOKUP_TABLE default 
0.781831 
0.864274 
0.946717 
0.864274 
0.881307 
0.921110 
0.858535 
0.921110 
0.881307 
0.887046 
0.910001 
0.869829 
0.915556 
0.869829 
0.910001 
0.887046 
0.892784 
0.915740 
0.892784 
0.927218 
0.892784 
0.927218 
0.892784 
0.915740 
0.892784 
0.781831 
0.864274 
0.946717 
0.864274 
0.881307 
0.921110 
0.858535 
0.921110 
0.881307 
0.887046 
0.910001 
0.869829 
0.915556 
0.869829 
0.910001 
0.887046 
0.892784 
0.915740 
0.892784 
0.927218 
0.892784 
0.927218 
0.892784 
0.915740 
0.892784 
0.781831 
0.864274 
0.946717 
0.864274 
0.881307 
0.921110 
0.858535 
0.921110 
0.881307 
0.887046 
0.910001 
0.869829 
0.915556 
0.869829 
0.910001 
0.887046 
0.892784 
0.915740 
0.892784 
0.927218 
0.892784 
0.927218 
0.892784 
0.915740 
0.892784 
0.781831 
0.864274 
0.946717 
0.864274 
0.881307 
0.921110 
0.858535 
0.921110 
0.881307 
0.887046 
0.910001 
0.869829 
0.915556 
0.869829 
0.910001 
0.887046 
0.892784 
0.915740 
0.892784 
0.927218 
0.892784 
0.927218 
0.892784 
0.915740 
0.892784 
0.781831 
0.864274 
0.946717 
0.864274 
0.881307 
0.921110 
0.858535 
0.921110 
0.881307 
0.887046 
0.910001 
0.869829 
0.915556 
0.869829 
0.910001 
0.887046 
0.892784 
0.915740 
0.892784 
0.927218 
0.892784 
0.927218 
0.892784 
0.915740 
0.892784 
0.781831 
0.864274 
0.946717 
0.864274 
0.881307 
0.921110 
0.858535 
0.921110 
0.881307 
0.887046 
0.910001 
0.869829 
0.915556 
0.869829 
0.910001 
0.887046 
0.892784 
0.915740 
0.892784 
0.927218 
0.892784 
0.927218 
0.892784 
0.915740 
0.892784 
0.781831 
0.864274 
0.946717 
0.864274 
0.881307 
0.921110 
0.858535 
0.921110 
0.881307 
0.887046 
0.910001 
0.869829 
0.915556 
0.869829 
0.910001 
0.887046 
0.892784 
0.915740 
0.892784 
0.927218 
0.892784 
0.927218 
0.892784 
0.915740 
0.892784 
SCALARS MASS float 
LOOKUP_TABLE default 
0.781831 
0.864274 
0.946717 
0.864274 
0.881307 
0.921110 
0.858535 
0.921110 
0.881307 
0.887046 
0.910001 
0.869829 
0.915556 
0.869829 
0.910001 
0.887046 
0.892784 
0.915740 
0.892784 
0.927218 
0.892784 
0.927218 
0.892784 
0.915740 
0.892784 
0.781831 
0.864274 
0.946717 
0.864274 
0.881307 
0.921110 
0.858535 
0.921110 
0.881307 
0.887046 
0.910001 
0.869829 
0.915556 
0.869829 
0.910001 
0.887046 
0.892784 
0.915740 
0.892784 
0.927218 
0.892784 
0.927218 
0.892784 
0.915740 
0.892784 
0.781831 
0.864274 
0.946717 
0.864274 
0.881307 
0.921110 
0.858535 
0.921110 
0.881307 
0.887046 
0.910001 
0.869829 
0.915556 
0.869829 
0.910001 
0.887046 
0.892784 
0.915740 
0.892784 
0.927218 
0.892784 
0.927218 
0.892784 
0.915740 
0.892784 
0.781831 
0.864274 
0.946717 
0.864274 
0.881307 
0.921110 
0.858535 
0.921110 
0.881307 
0.887046 
0.910001 
0.869829 
0.915556 
0.869829 
0.910001 
0.887046 
0.892784 
0.915740 
0.892784 
0.927218 
0.892784 
0.927218 
0.892784 
0.915740 
0.892784 
0.781831 
0.864274 
0.946717 
0.864274 
0.881307 
0.921110 
0.858535 
0.921110 
0.881307 
0.887046 
0.910001 
0.869829 
0.915556 
0.869829 
0.910001 
0.887046 
0.892784 
0.915740 
0.892784 
0.927218 
0.892784 
0.927218 
0.892784 
0.915740 
0.892784 
0.781831 
0.864274 
0.946717 
0.864274 
0.881307 
0.921110 
0.858535 
0.921110 
0.881307 
0.887046 
0.910001 
0.869829 
0.915556 
0.869829 
0.910001 
0.887046 
0.892784 
0.915740 
0.892784 
0.927218 
0.892784 
0.927218 
0.892784 
0.915740 
0.892784 
0.781831 
0.864274 
0.946717 
0.864274 
0.881307 
0.921110 
0.858535 
0.921110 
0.881307 
0.887046 
0.910001 
0.869829 
0.915556 
0.869829 
0.910001 
0.887046 
0.892784 
0.915740 
0.892784 
0.927218 
0.892784 
0.927218 
0.892784 
0.915740 
0.892784 
SCALARS DENSITY float 
LOOKUP_TABLE default 
200.000000 
200.000000 
200.000000 
200.000000 
200.000000 
200.000000 
200.000000 
200.000000 
200.000000 
200.000000 
200.000000 
200.000000 
200.000000 
200.000000 
200.000000 
200.000000 
200.000000 
200.000000 
200.000000 
200.000000 
200.000000 
200.000000 
200.000000 
200.000000 
200.000000 
200.000000 
200.000000 
200.000000 
200.000000 
200.000000 
200.000000 
200.000000 
200.000000 
200.000000 
200.000000 
200.000000 
200.000000 
200.000000 
200.000000 
200.000000 
200.000000 
200.000000 
200.000000 
200.000000 
200.000000 
200.000000 
200.000000 
200.000000 
200.000000 
200.000000 
200.000000 
200.000000 
200.000000 
200.000000 
200.000000 
200.000000 
200.000000 
200.000000 
200.000000 
200.000000 
200.000000 
200.000000 
200.000000 
200.000000 
200.000000 
200.000000 
200.000000 
200.000000 
200.000000 
200.000000 
200.000000 
200.000000 
200.000000 
200.000000 
200.000000 
200.000000 
200.000000 
200.000000 
200.000000 
200.000000 
200.000000 
200.000000 
200.000000 
200.000000 
200.000000 
200.000000 
200.000000 
200.000000 
200.000000 
200.000000 
200.000000 
200.000000 
200.000000 
200.000000 
200.000000 
200.000000 
200.000000 
200.000000 
200.000000 
200.000000 
200.000000 
200.000000 
200.000000 
200.000000 
200.000000 
200.000000 
200.000000 
200.000000 
200.000000 
200.000000 
200.000000 
200.000000 
200.000000 
200.000000 
200.000000 
200.000000 
200.000000 
200.000000 
200.000000 
200.000000 
200.000000 
200.000000 
200.000000 
200.000000 
200.000000 
200.000000 
200.000000 
200.000000 
200.000000 
200.000000 
200.000000 
200.000000 
200.000000 
200.000000 
200.000000 
200.000000 
200.000000 
200.000000 
200.000000 
200.000000 
200.000000 
200.000000 
200.000000 
200.000000 
200.000000 
200.000000 
200.000000 
200.000000 
200.000000 
200.000000 
200.000000 
200.000000 
200.000000 
200.000000 
200.000000 
200.000000 
200.000000 
200.000000 
200.000000 
200.000000 
200.000000 
200.000000 
200.000000 
200.000000 
200.000000 
200.000000 
200.000000 
200.000000 
200.000000 
200.000000 
200.000000 
200.000000 
200.000000 
200.000000 
200.000000 
SCALARS ELEM_i float 
LOOKUP_TABLE default 
181 
208 
181 
182 
209 
209 
209 
182 
182 
236 
209 
210 
209 
210 
183 
183 
237 
237 
237 
210 
210 
210 
210 
183 
184 
181 
207 
208 
208 
234 
207 
235 
208 
208 
234 
234 
235 
235 
235 
235 
236 
261 
261 
262 
262 
262 
262 
263 
236 
236 
180 
207 
207 
207 
206 
206 
206 
207 
234 
205 
206 
233 
233 
233 
234 
234 
205 
232 
232 
232 
232 
233 
260 
260 
261 
180 
179 
180 
179 
152 
179 
179 
179 
206 
151 
151 
178 
178 
178 
205 
205 
151 
151 
150 
178 
177 
178 
204 
205 
205 
180 
153 
153 
153 
126 
153 
152 
152 
152 
126 
126 
125 
125 
125 
152 
151 
99 
98 
98 
125 
124 
124 
124 
124 
151 
181 
154 
154 
153 
154 
154 
127 
153 
126 
128 
127 
127 
127 
127 
126 
126 
128 
128 
101 
100 
100 
100 
100 
99 
99 
181 
182 
181 
154 
182 
182 
155 
155 
155 
183 
183 
156 
155 
156 
155 
128 
184 
183 
156 
156 
156 
156 
129 
129 
129 
VECTORS VELOCITY float 
-0.000000 -1.948266 0.000000 
-0.000000 -1.948266 0.000000 
-0.000000 -1.948266 0.000000 
-0.000000 -1.948266 0.000000 
0.000000 -1.948266 0.000000 
-0.000000 -1.948266 0.000000 
0.000000 -1.948266 0.000000 
0.000000 -1.948266 0.000000 
0.000000 -1.948266 0.000000 
-0.000000 -1.948266 0.000000 
-0.000000 -1.948266 0.000000 
-0.000000 -1.948266 0.000000 
0.000000 -1.948266 0.000000 
0.000000 -1.948266 0.000000 
0.000000 -1.948266 0.000000 
0.000000 -1.948266 0.000000 
0.000000 -1.948266 0.000000 
-0.000000 -1.948266 0.000000 
-0.000000 -1.948266 0.000000 
-0.000000 -1.948266 0.000000 
0.000000 -1.948266 0.000000 
0.000000 -1.948266 0.000000 
-0.000000 -1.948266 0.000000 
0.000000 -1.948266 0.000000 
0.000000 -1.948266 0.000000 
-0.000000 -1.948266 0.000000 
0.000000 -1.948266 0.000000 
-0.000000 -1.948266 0.000000 
0.000000 -1.948266 0.000000 
0.000000 -1.948266 0.000000 
0.000000 -1.948266 0.000000 
0.000000 -1.948266 0.000000 
0.000000 -1.948266 0.000000 
0.000000 -1.948266 0.000000 
0.000000 -1.948266 0.000000 
0.000000 -1.948266 0.000000 
-0.000000 -1.948266 0.000000 
-0.000000 -1.948266 0.000000 
-0.000000 -1.948266 0.000000 
0.000000 -1.948266 0.000000 
-0.000000 -1.948266 0.000000 
-0.000000 -1.948266 0.000000 
0.000000 -1.948266 0.000000 
0.000000 -1.948266 0.000000 
-0.000000 -1.948266 0.000000 
0.000000 -1.948266 0.000000 
-0.000000 -1.948266 0.000000 
-0.000000 -1.948266 0.000000 
-0.000000 -1.948266 0.000000 
0.000000 -1.948266 0.000000 
-0.000000 -1.948266 0.000000 
0.000000 -1.948266 0.000000 
0.000000 -1.948266 0.000000 
0.000000 -1.948266 0.000000 
0.000000 -1.948266 0.000000 
0.000000 -1.948266 0.000000 
0.000000 -1.948266 0.000000 
0.000000 -1.948266 0.000000 
0.000000 -1.948266 0.000000 
0.000000 -1.948266 0.000000 
0.000000 -1.948266 0.000000 
0.000000 -1.948266 0.000000 
0.000000 -1.948266 0.000000 
0.000000 -1.948266 0.000000 
0.000000 -1.948266 0.000000 
0.000000 -1.948266 0.000000 
-0.000000 -1.948266 0.000000 
0.000000 -1.948266 0.000000 
-0.000000 -1.948266 0.000000 
0.000000 -1.948266 0.000000 
-0.000000 -1.948266 0.000000 
0.000000 -1.948266 0.000000 
0.000000 -1.948266 0.000000 
0.000000 -1.948266 0.000000 
-0.000000 -1.948266 0.000000 
0.000000 -1.948266 0.000000 
0.000000 -1.948266 0.000000 
0.000000 -1.948266 0.000000 
0.000000 -1.948266 0.000000 
-0.000000 -1.948266 0.000000 
-0.000000 -1.948266 0.000000 
-0.000000 -1.948266 0.000000 
-0.000000 -1.948266 0.000000 
-0.000000 -1.948266 0.000000 
-0.000000 -1.948266 0.000000 
-0.000000 -1.948266 0.000000 
-0.000000 -1.948266 0.000000 
-0.000000 -1.948266 0.000000 
-0.000000 -1.948266 0.000000 
-0.000000 -1.948266 0.000000 
0.000000 -1.948266 0.000000 
-0.000000 -1.948266 0.000000 
-0.000000 -1.948266 0.000000 
-0.000000 -1.948266 0.000000 
-0.000000 -1.948266 0.000000 
0.000000 -1.948266 0.000000 
0.000000 -1.948266 0.000000 
-0.000000 -1.948266 0.000000 
-0.000000 -1.948266 0.000000 
-0.000000 -1.948266 0.000000 
0.000000 -1.948266 0.000000 
-0.000000 -1.948266 0.000000 
0.000000 -1.948266 0.000000 
-0.000000 -1.948266 0.000000 
-0.000000 -1.948266 0.000000 
-0.000000 -1.948266 0.000000 
-0.000000 -1.948266 0.000000 
-0.000000 -1.948266 0.000000 
-0.000000 -1.948266 0.000000 
0.000000 -1.948266 0.000000 
0.000000 -1.948266 0.000000 
0.000000 -1.948266 0.000000 
-0.000000 -1.948266 0.000000 
0.000000 -1.948266 0.000000 
0.000000 -1.948266 0.000000 
0.000000 -1.948266 0.000000 
-0.000000 -1.948266 0.000000 
0.000000 -1.948266 0.000000 
-0.000000 -1.948266 0.000000 
0.000000 -1.948266 0.000000 
-0.000000 -1.948266 0.000000 
0.000000 -1.948266 0.000000 
-0.000000 -1.948266 0.000000 
0.000000 -1.948266 0.000000 
-0.000000 -1.948266 0.000000 
0.000000 -1.948266 0.000000 
0.000000 -1.948266 0.000000 
0.000000 -1.948266 0.000000 
-0.000000 -1.948266 0.000000 
-0.000000 -1.948266 0.000000 
-0.000000 -1.948266 0.000000 
-0.000000 -1.948266 0.000000 
-0.000000 -1.948266 0.000000 
-0.000000 -1.948266 0.000000 
-0.000000 -1.948266 0.000000 
-0.000000 -1.948266 0.000000 
0.000000 -1.948266 0.000000 
0.000000 -1.948266 0.000000 
0.000000 -1.948266 0.000000 
-0.000000 -1.948266 0.000000 
0.000000 -1.948266 0.000000 
-0.000000 -1.948266 0.000000 
0.000000 -1.948266 0.000000 
-0.000000 -1.948266 0.000000 
-0.000000 -1.948266 0.000000 
-0.000000 -1.948266 0.000000 
-0.000000 -1.948266 0.000000 
0.000000 -1.948266 0.000000 
0.000000 -1.948266 0.000000 
0.000000 -1.948266 0.000000 
-0.000000 -1.948266 0.000000 
0.000000 -1.948266 0.000000 
0.000000 -1.948266 0.000000 
0.000000 -1.948266 0.000000 
0.000000 -1.948266 0.000000 
0.000000 -1.948266 0.000000 
0.000000 -1.948266 0.000000 
0.000000 -1.948266 0.000000 
-0.000000 -1.948266 0.000000 
-0.000000 -1.948266 0.000000 
-0.000000 -1.948266 0.000000 
-0.000000 -1.948266 0.000000 
-0.000000 -1.948266 0.000000 
-0.000000 -1.948266 0.000000 
-0.000000 -1.948266 0.000000 
-0.000000 -1.948266 0.000000 
0.000000 -1.948266 0.000000 
-0.000000 -1.948266 0.000000 
-0.000000 -1.948266 0.000000 
0.000000 -1.948266 0.000000 
0.000000 -1.948266 0.000000 
0.000000 -1.948266 0.000000 
-0.000000 -1.948266 0.000000 
-0.000000 -1.948266 0.000000 
-0.000000 -1.948266 0.000000 
TENSORS STRESS float 
0.000000 -0.000000 0.000000 
0.000000 0.000000 0.000000 
0.000000 0.000000 0.000000 

-0.000000 0.000000 0.000000 
0.000000 -0.000000 0.000000 
0.000000 0.000000 0.000000 

-0.000000 0.000000 0.000000 
0.000000 -0.000000 0.000000 
0.000000 0.000000 0.000000 

-0.000000 -0.000000 0.000000 
0.000000 -0.000000 0.000000 
0.000000 0.000000 0.000000 

0.000000 -0.000000 0.000000 
0.000000 0.000000 0.000000 
0.000000 0.000000 0.000000 

0.000000 -0.000000 0.000000 
0.000000 0.000000 0.000000 
0.000000 0.000000 0.000000 

0.000000 -0.000000 0.000000 
0.000000 0.000000 0.000000 
0.000000 0.000000 0.000000 

0.000000 -0.000000 0.000000 
0.000000 0.000000 0.000000 
0.000000 0.000000 0.000000 

0.000000 -0.000000 0.000000 
0.000000 0.000000 0.000000 
0.000000 0.000000 0.000000 

0.000000 -0.000000 0.000000 
0.000000 0.000000 0.000000 
0.000000 0.000000 0.000000 

-0.000000 -0.000000 0.000000 
0.000000 -0.000000 0.000000 
0.000000 0.000000 0.000000 

-0.000000 0.000000 0.000000 
0.000000 -0.000000 0.000000 
0.000000 0.000000 0.000000 

-0.000000 0.000000 0.000000 
0.000000 -0.000000 0.000000 
0.000000 0.000000 0.000000 

-0.000000 0.000000 0.000000 
0.000000 -0.000000 0.000000 
0.000000 0.000000 0.000000 

-0.000000 -0.000000 0.000000 
0.000000 -0.000000 0.000000 
0.000000 0.000000 0.000000 

0.000000 -0.000000 0.000000 
0.000000 0.000000 0.000000 
0.000000 0.000000 0.000000 

-0.000000 0.000000 0.000000 
0.000000 -0.000000 0.000000 
0.000000 0.000000 0.000000 

-0.000000 0.000000 0.000000 
0.000000 -0.000000 0.000000 
0.000000 0.000000 0.000000 

-0.000000 0.000000 0.000000 
0.000000 -0.000000 0.000000 
0.000000 0.000000 0.000000 

-0.000000 -0.000000 0.000000 
0.000000 -0.000000 0.000000 
0.000000 0.000000 0.000000 

-0.000000 -0.000000 0.000000 
0.000000 -0.000000 0.000000 
0.000000 0.000000 0.000000 

-0.000000 -0.000000 0.000000 
0.000000 -0.000000 0.000000 
0.000000 0.000000 0.000000 

-0.000000 -0.000000 0.000000 
0.000000 -0.000000 0.000000 
0.000000 0.000000 0.000000 

0.000000 -0.000000 0.000000 
0.000000 0.000000 0.000000 
0.000000 0.000000 0.000000 

0.000000 -0.000000 0.000000 
0.000000 -0.000000 0.000000 
0.000000 0.000000 0.000000 

-0.000000 -0.000000 0.000000 
0.000000 -0.000000 0.000000 
0.000000 0.000000 0.000000 

-0.000000 -0.000000 0.000000 
0.000000 -0.000000 0.000000 
0.000000 0.000000 0.000000 

0.000000 -0.000000 0.000000 
0.000000 0.000000 0.000000 
0.000000 0.000000 0.000000 

0.000000 -0.000000 0.000000 
0.000000 0.000000 0.000000 
0.000000 0.000000 0.000000 

-0.000000 0.000000 0.000000 
0.000000 0.000000 0.000000 
0.000000 0.000000 0.000000 

-0.000000 -0.000000 0.000000 
0.000000 -0.000000 0.000000 
0.000000 0.000000 0.000000 

0.000000 0.000000 0.000000 
0.000000 0.000000 0.000000 
0.000000 0.000000 0.000000 

-0.000000 -0.000000 0.000000 
0.000000 -0.000000 0.000000 
0.000000 0.000000 0.000000 

0.000000 -0.000000 0.000000 
0.000000 0.000000 0.000000 
0.000000 0.000000 0.000000 

-0.000000 -0.000000 0.000000 
0.000000 -0.000000 0.000000 
0.000000 0.000000 0.000000 

0.000000 -0.000000 0.000000 
0.000000 0.000000 0.000000 
0.000000 0.000000 0.000000 

-0.000000 -0.000000 0.000000 
0.000000 -0.000000 0.000000 
0.000000 0.000000 0.000000 

-0.000000 -0.000000 0.000000 
0.000000 -0.000000 0.000000 
0.000000 0.000000 0.000000 

-0.000000 -0.000000 0.000000 
0.000000 -0.000000 0.000000 
0.000000 0.000000 0.000000 

-0.000000 0.000000 0.000000 
0.000000 -0.000000 0.000000 
0.000000 0.000000 0.000000 

0.000000 0.000000 0.000000 
0.000000 0.000000 0.000000 
0.000000 0.000000 0.000000 

-0.000000 0.000000 0.000000 
0.000000 -0.000000 0.000000 
0.000000 0.000000 0.000000 

0.000000 0.000000 0.000000 
0.000000 0.000000 0.000000 
0.000000 0.000000 0.000000 

0.000000 0.000000 0.000000 
0.000000 0.000000 0.000000 
0.000000 0.000000 0.000000 

-0.000000 -0.000000 0.000000 
0.000000 -0.000000 0.000000 
0.000000 0.000000 0.000000 

0.000000 -0.000000 0.000000 
0.000000 0.000000 0.000000 
0.000000 0.000000 0.000000 

0.000000 -0.000000 0.000000 
0.000000 0.000000 0.000000 
0.000000 0.000000 0.000000 

0.000000 0.000000 0.000000 
0.000000 -0.000000 0.000000 
0.000000 0.000000 0.000000 

0.000000 -0.000000 0.000000 
0.000000 0.000000 0.000000 
0.000000 0.000000 0.000000 

-0.000000 -0.000000 0.000000 
0.000000 -0.000000 0.000000 
0.000000 0.000000 0.000000 

0.000000 -0.000000 0.000000 
0.000000 0.000000 0.000000 
0.000000 0.000000 0.000000 

0.000000 -0.000000 0.000000 
0.000000 0.000000 0.000000 
0.000000 0.000000 0.000000 

0.000000 -0.000000 0.000000 
0.000000 0.000000 0.000000 
0.000000 0.000000 0.000000 

-0.000000 -0.000000 0.000000 
0.000000 -0.000000 0.000000 
0.000000 0.000000 0.000000 

-0.000000 -0.000000 0.000000 
0.000000 -0.000000 0.000000 
0.000000 0.000000 0.000000 

0.000000 -0.000000 0.000000 
0.000000 0.000000 0.000000 
0.000000 0.000000 0.000000 

0.000000 -0.000000 0.000000 
0.000000 0.000000 0.000000 
0.000000 0.000000 0.000000 

-0.000000 -0.000000 0.000000 
0.000000 -0.000000 0.000000 
0.000000 0.000000 0.000000 

-0.000000 0.000000 0.000000 
0.000000 -0.000000 0.000000 
0.000000 0.000000 0.000000 

-0.000000 -0.000000 0.000000 
0.000000 -0.000000 0.000000 
0.000000 0.000000 0.000000 

0.000000 -0.000000 0.000000 
0.000000 0.000000 0.000000 
0.000000 0.000000 0.000000 

0.000000 0.000000 0.000000 
0.000000 0.000000 0.000000 
0.000000 0.000000 0.000000 

-0.000000 0.000000 0.000000 
0.000000 -0.000000 0.000000 
0.000000 0.000000 0.000000 

0.000000 0.000000 0.000000 
0.000000 0.000000 0.000000 
0.000000 0.000000 0.000000 

-0.000000 -0.000000 0.000000 
0.000000 -0.000000 0.000000 
0.000000 0.000000 0.000000 

-0.000000 -0.000000 0.000000 
0.000000 -0.000000 0.000000 
0.000000 0.000000 0.000000 

-0.000000 -0.000000 0.000000 
0.000000 -0.000000 0.000000 
0.000000 0.000000 0.000000 

0.000000 -0.000000 0.000000 
0.000000 0.000000 0.000000 
0.000000 0.000000 0.000000 

-0.000000 -0.000000 0.000000 
0.000000 -0.000000 0.000000 
0.000000 0.000000 0.000000 

0.000000 0.000000 0.000000 
0.000000 0.000000 0.000000 
0.000000 0.000000 0.000000 

-0.000000 0.000000 0.000000 
0.000000 -0.000000 0.000000 
0.000000 0.000000 0.000000 

-0.000000 0.000000 0.000000 
0.000000 0.000000 0.000000 
0.000000 0.000000 0.000000 

-0.000000 -0.000000 0.000000 
0.000000 -0.000000 0.000000 
0.000000 0.000000 0.000000 

-0.000000 0.000000 0.000000 
0.000000 -0.000000 0.000000 
0.000000 0.000000 0.000000 

-0.000000 0.000000 0.000000 
0.000000 -0.000000 0.000000 
0.000000 0.000000 0.000000 

-0.000000 -0.000000 0.000000 
0.000000 -0.000000 0.000000 
0.000000 0.000000 0.000000 

-0.000000 -0.000000 0.000000 
0.000000 -0.000000 0.000000 
0.000000 0.000000 0.000000 

-0.000000 -0.000000 0.000000 
0.000000 -0.000000 0.000000 
0.000000 0.000000 0.000000 

0.000000 -0.000000 0.000000 
0.000000 0.000000 0.000000 
0.000000 0.000000 0.000000 

-0.000000 0.000000 0.000000 
0.000000 -0.000000 0.000000 
0.000000 0.000000 0.000000 

-0.000000 -0.000000 0.000000 
0.000000 -0.000000 0.000000 
0.000000 0.000000 0.000000 

-0.000000 -0.000000 0.000000 
0.000000 -0.000000 0.000000 
0.000000 0.000000 0.000000 

-0.000000 -0.000000 0.000000 
0.000000 -0.000000 0.000000 
0.000000 0.000000 0.000000 

-0.000000 -0.000000 0.000000 
0.000000 -0.000000 0.000000 
0.000000 0.000000 0.000000 

-0.000000 0.000000 0.000000 
0.000000 -0.000000 0.000000 
0.000000 0.000000 0.000000 

0.000000 -0.000000 0.000000 
0.000000 0.000000 0.000000 
0.000000 0.000000 0.000000 

-0.000000 -0.000000 0.000000 
0.000000 0.000000 0.000000 
0.000000 0.000000 0.000000 

-0.000000 -0.000000 0.000000 
0.000000 -0.000000 0.000000 
0.000000 0.000000 0.000000 

-0.000000 -0.000000 0.000000 
0.000000 -0.000000 0.000000 
0.000000 0.000000 0.000000 

0.000000 -0.000000 0.000000 
0.000000 0.000000 0.000000 
0.000000 0.000000 0.000000 

0.000000 -0.000000 0.000000 
0.000000 0.000000 0.000000 
0.000000 0.000000 0.000000 

-0.000000 0.000000 0.000000 
0.000000 -0.000000 0.000000 
0.000000 0.000000 0.000000 

0.000000 0.000000 0.000000 
0.000000 0.000000 0.000000 
0.000000 0.000000 0.000000 

-0.000000 0.000000 0.000000 
0.000000 -0.000000 0.000000 
0.000000 0.000000 0.000000 

-0.000000 0.000000 0.000000 
0.000000 -0.000000 0.000000 
0.000000 0.000000 0.000000 

0.000000 0.000000 0.000000 
0.000000 0.000000 0.000000 
0.000000 0.000000 0.000000 

0.000000 0.000000 0.000000 
0.000000 0.000000 0.000000 
0.000000 0.000000 0.000000 

-0.000000 -0.000000 0.000000 
0.000000 -0.000000 0.000000 
0.000000 0.000000 0.000000 

-0.000000 -0.000000 0.000000 
0.000000 -0.000000 0.000000 
0.000000 0.000000 0.000000 

-0.000000 -0.000000 0.000000 
0.000000 -0.000000 0.000000 
0.000000 0.000000 0.000000 

0.000000 0.000000 0.000000 
0.000000 0.000000 0.000000 
0.000000 0.000000 0.000000 

0.000000 0.000000 0.000000 
0.000000 0.000000 0.000000 
0.000000 0.000000 0.000000 

-0.000000 0.000000 0.000000 
0.000000 -0.000000 0.000000 
0.000000 0.000000 0.000000 

0.000000 -0.000000 0.000000 
0.000000 0.000000 0.000000 
0.000000 0.000000 0.000000 

-0.000000 -0.000000 0.000000 
0.000000 -0.000000 0.000000 
0.000000 0.000000 0.000000 

0.000000 0.000000 0.000000 
0.000000 0.000000 0.000000 
0.000000 0.000000 0.000000 

-0.000000 -0.000000 0.000000 
0.000000 -0.000000 0.000000 
0.000000 0.000000 0.000000 

-0.000000 -0.000000 0.000000 
0.000000 -0.000000 0.000000 
0.000000 0.000000 0.000000 

0.000000 -0.000000 0.000000 
0.000000 0.000000 0.000000 
0.000000 0.000000 0.000000 

-0.000000 -0.000000 0.000000 
0.000000 -0.000000 0.000000 
0.000000 0.000000 0.000000 

0.000000 0.000000 0.000000 
0.000000 0.000000 0.000000 
0.000000 0.000000 0.000000 

0.000000 -0.000000 0.000000 
0.000000 0.000000 0.000000 
0.000000 0.000000 0.000000 

0.000000 -0.000000 0.000000 
0.000000 0.000000 0.000000 
0.000000 0.000000 0.000000 

0.000000 -0.000000 0.000000 
0.000000 0.000000 0.000000 
0.000000 0.000000 0.000000 

-0.000000 -0.000000 0.000000 
0.000000 -0.000000 0.000000 
0.000000 0.000000 0.000000 

0.000000 -0.000000 0.000000 
0.000000 0.000000 0.000000 
0.000000 0.000000 0.000000 

0.000000 -0.000000 0.000000 
0.000000 0.000000 0.000000 
0.000000 0.000000 0.000000 

0.000000 -0.000000 0.000000 
0.000000 0.000000 0.000000 
0.000000 0.000000 0.000000 

0.000000 -0.000000 0.000000 
0.000000 0.000000 0.000000 
0.000000 0.000000 0.000000 

0.000000 0.000000 0.000000 
0.000000 0.000000 0.000000 
0.000000 0.000000 0.000000 

-0.000000 0.000000 0.000000 
0.000000 -0.000000 0.000000 
0.000000 0.000000 0.000000 

-0.000000 0.000000 0.000000 
0.000000 -0.000000 0.000000 
0.000000 0.000000 0.000000 

0.000000 -0.000000 0.000000 
0.000000 0.000000 0.000000 
0.000000 0.000000 0.000000 

-0.000000 -0.000000 0.000000 
0.000000 -0.000000 0.000000 
0.000000 0.000000 0.000000 

0.000000 0.000000 0.000000 
0.000000 0.000000 0.000000 
0.000000 0.000000 0.000000 

0.000000 0.000000 0.000000 
0.000000 0.000000 0.000000 
0.000000 0.000000 0.000000 

0.000000 -0.000000 0.000000 
0.000000 0.000000 0.000000 
0.000000 0.000000 0.000000 

0.000000 -0.000000 0.000000 
0.000000 0.000000 0.000000 
0.000000 0.000000 0.000000 

-0.000000 -0.000000 0.000000 
0.000000 -0.000000 0.000000 
0.000000 0.000000 0.000000 

0.000000 0.000000 0.000000 
0.000000 0.000000 0.000000 
0.000000 0.000000 0.000000 

0.000000 -0.000000 0.000000 
0.000000 0.000000 0.000000 
0.000000 0.000000 0.000000 

-0.000000 -0.000000 0.000000 
0.000000 -0.000000 0.000000 
0.000000 0.000000 0.000000 

-0.000000 -0.000000 0.000000 
0.000000 -0.000000 0.000000 
0.000000 0.000000 0.000000 

-0.000000 -0.000000 0.000000 
0.000000 -0.000000 0.000000 
0.000000 0.000000 0.000000 

-0.000000 -0.000000 0.000000 
0.000000 -0.000000 0.000000 
0.000000 0.000000 0.000000 

-0.000000 -0.000000 0.000000 
0.000000 -0.000000 0.000000 
0.000000 0.000000 0.000000 

-0.000000 0.000000 0.000000 
0.000000 -0.000000 0.000000 
0.000000 0.000000 0.000000 

0.000000 -0.000000 0.000000 
0.000000 0.000000 0.000000 
0.000000 0.000000 0.000000 

0.000000 -0.000000 0.000000 
0.000000 0.000000 0.000000 
0.000000 0.000000 0.000000 

-0.000000 -0.000000 0.000000 
0.000000 -0.000000 0.000000 
0.000000 0.000000 0.000000 

0.000000 -0.000000 0.000000 
0.000000 0.000000 0.000000 
0.000000 0.000000 0.000000 

0.000000 -0.000000 0.000000 
0.000000 0.000000 0.000000 
0.000000 0.000000 0.000000 

-0.000000 0.000000 0.000000 
0.000000 -0.000000 0.000000 
0.000000 0.000000 0.000000 

0.000000 -0.000000 0.000000 
0.000000 0.000000 0.000000 
0.000000 0.000000 0.000000 

0.000000 -0.000000 0.000000 
0.000000 0.000000 0.000000 
0.000000 0.000000 0.000000 

-0.000000 0.000000 0.000000 
0.000000 -0.000000 0.000000 
0.000000 0.000000 0.000000 

0.000000 -0.000000 0.000000 
0.000000 0.000000 0.000000 
0.000000 0.000000 0.000000 

0.000000 -0.000000 0.000000 
0.000000 0.000000 0.000000 
0.000000 0.000000 0.000000 

0.000000 -0.000000 0.000000 
0.000000 0.000000 0.000000 
0.000000 0.000000 0.000000 

-0.000000 -0.000000 0.000000 
0.000000 -0.000000 0.000000 
0.000000 0.000000 0.000000 

0.000000 0.000000 0.000000 
0.000000 0.000000 0.000000 
0.000000 0.000000 0.000000 

-0.000000 0.000000 0.000000 
0.000000 -0.000000 0.000000 
0.000000 0.000000 0.000000 

-0.000000 0.000000 0.000000 
0.000000 -0.000000 0.000000 
0.000000 0.000000 0.000000 

0.000000 -0.000000 0.000000 
0.000000 0.000000 0.000000 
0.000000 0.000000 0.000000 

0.000000 -0.000000 0.000000 
0.000000 0.000000 0.000000 
0.000000 0.000000 0.000000 

0.000000 0.000000 0.000000 
0.000000 0.000000 0.000000 
0.000000 0.000000 0.000000 

-0.000000 0.000000 0.000000 
0.000000 -0.000000 0.000000 
0.000000 0.000000 0.000000 

0.000000 -0.000000 0.000000 
0.000000 -0.000000 0.000000 
0.000000 0.000000 0.000000 

-0.000000 -0.000000 0.000000 
0.000000 -0.000000 0.000000 
0.000000 0.000000 0.000000 

0.000000 -0.000000 0.000000 
0.000000 0.000000 0.000000 
0.000000 0.000000 0.000000 

0.000000 -0.000000 0.000000 
0.000000 0.000000 0.000000 
0.000000 0.000000 0.000000 

0.000000 0.000000 0.000000 
0.000000 0.000000 0.000000 
0.000000 0.000000 0.000000 

-0.000000 0.000000 0.000000 
0.000000 -0.000000 0.000000 
0.000000 0.000000 0.000000 

0.000000 0.000000 0.000000 
0.000000 0.000000 0.000000 
0.000000 0.000000 0.000000 

0.000000 -0.000000 0.000000 
0.000000 0.000000 0.000000 
0.000000 0.000000 0.000000 

0.000000 -0.000000 0.000000 
0.000000 0.000000 0.000000 
0.000000 0.000000 0.000000 

-0.000000 -0.000000 0.000000 
0.000000 -0.000000 0.000000 
0.000000 0.000000 0.000000 

-0.000000 -0.000000 0.000000 
0.000000 -0.000000 0.000000 
0.000000 0.000000 0.000000 

-0.000000 0.000000 0.000000 
0.000000 -0.000000 0.000000 
0.000000 0.000000 0.000000 

0.000000 0.000000 0.000000 
0.000000 0.000000 0.000000 
0.000000 0.000000 0.000000 

0.000000 0.000000 0.000000 
0.000000 -0.000000 0.000000 
0.000000 0.000000 0.000000 

0.000000 0.000000 0.000000 
0.000000 0.000000 0.000000 
0.000000 0.000000 0.000000 

0.000000 -0.000000 0.000000 
0.000000 0.000000 0.000000 
0.000000 0.000000 0.000000 

0.000000 -0.000000 0.000000 
0.000000 -0.000000 0.000000 
0.000000 0.000000 0.000000 

-0.000000 0.000000 0.000000 
0.000000 -0.000000 0.000000 
0.000000 0.000000 0.000000 

TENSORS STRAIN float 
0.000000 -0.000000 0.000000 
0.000000 -0.000000 0.000000 
0.000000 0.000000 0.000000 

-0.000000 0.000000 0.000000 
0.000000 -0.000000 0.000000 
0.000000 0.000000 0.000000 

0.000000 0.000000 0.000000 
0.000000 -0.000000 0.000000 
0.000000 0.000000 0.000000 

-0.000000 -0.000000 0.000000 
0.000000 -0.000000 0.000000 
0.000000 0.000000 0.000000 

0.000000 -0.000000 0.000000 
0.000000 0.000000 0.000000 
0.000000 0.000000 0.000000 

0.000000 -0.000000 0.000000 
0.000000 0.000000 0.000000 
0.000000 0.000000 0.000000 

-0.000000 -0.000000 0.000000 
0.000000 0.000000 0.000000 
0.000000 0.000000 0.000000 

0.000000 -0.000000 0.000000 
0.000000 0.000000 0.000000 
0.000000 0.000000 0.000000 

0.000000 -0.000000 0.000000 
0.000000 -0.000000 0.000000 
0.000000 0.000000 0.000000 

0.000000 -0.000000 0.000000 
0.000000 -0.000000 0.000000 
0.000000 0.000000 0.000000 

-0.000000 -0.000000 0.000000 
0.000000 -0.000000 0.000000 
0.000000 0.000000 0.000000 

-0.000000 0.000000 0.000000 
0.000000 -0.000000 0.000000 
0.000000 0.000000 0.000000 

-0.000000 0.000000 0.000000 
0.000000 0.000000 0.000000 
0.000000 0.000000 0.000000 

-0.000000 0.000000 0.000000 
0.000000 0.000000 0.000000 
0.000000 0.000000 0.000000 

0.000000 -0.000000 0.000000 
0.000000 -0.000000 0.000000 
0.000000 0.000000 0.000000 

0.000000 -0.000000 0.000000 
0.000000 -0.000000 0.000000 
0.000000 0.000000 0.000000 

0.000000 0.000000 0.000000 
0.000000 -0.000000 0.000000 
0.000000 0.000000 0.000000 

0.000000 0.000000 0.000000 
0.000000 -0.000000 0.000000 
0.000000 0.000000 0.000000 

0.000000 0.000000 0.000000 
0.000000 -0.000000 0.000000 
0.000000 0.000000 0.000000 

-0.000000 -0.000000 0.000000 
0.000000 -0.000000 0.000000 
0.000000 0.000000 0.000000 

-0.000000 -0.000000 0.000000 
0.000000 -0.000000 0.000000 
0.000000 0.000000 0.000000 

-0.000000 -0.000000 0.000000 
0.000000 -0.000000 0.000000 
0.000000 0.000000 0.000000 

-0.000000 -0.000000 0.000000 
0.000000 -0.000000 0.000000 
0.000000 0.000000 0.000000 

0.000000 -0.000000 0.000000 
0.000000 0.000000 0.000000 
0.000000 0.000000 0.000000 

0.000000 -0.000000 0.000000 
0.000000 -0.000000 0.000000 
0.000000 0.000000 0.000000 

0.000000 -0.000000 0.000000 
0.000000 -0.000000 0.000000 
0.000000 0.000000 0.000000 

-0.000000 -0.000000 0.000000 
0.000000 -0.000000 0.000000 
0.000000 0.000000 0.000000 

-0.000000 -0.000000 0.000000 
0.000000 0.000000 0.000000 
0.000000 0.000000 0.000000 

-0.000000 -0.000000 0.000000 
0.000000 0.000000 0.000000 
0.000000 0.000000 0.000000 

-0.000000 0.000000 0.000000 
0.000000 0.000000 0.000000 
0.000000 0.000000 0.000000 

-0.000000 -0.000000 0.000000 
0.000000 0.000000 0.000000 
0.000000 0.000000 0.000000 

-0.000000 0.000000 0.000000 
0.000000 0.000000 0.000000 
0.000000 0.000000 0.000000 

-0.000000 -0.000000 0.000000 
0.000000 0.000000 0.000000 
0.000000 0.000000 0.000000 

0.000000 -0.000000 0.000000 
0.000000 0.000000 0.000000 
0.000000 0.000000 0.000000 

-0.000000 -0.000000 0.000000 
0.000000 0.000000 0.000000 
0.000000 0.000000 0.000000 

-0.000000 -0.000000 0.000000 
0.000000 0.000000 0.000000 
0.000000 0.000000 0.000000 

-0.000000 -0.000000 0.000000 
0.000000 -0.000000 0.000000 
0.000000 0.000000 0.000000 

-0.000000 -0.000000 0.000000 
0.000000 -0.000000 0.000000 
0.000000 0.000000 0.000000 

-0.000000 -0.000000 0.000000 
0.000000 -0.000000 0.000000 
0.000000 0.000000 0.000000 

-0.000000 0.000000 0.000000 
0.000000 0.000000 0.000000 
0.000000 0.000000 0.000000 

0.000000 0.000000 0.000000 
0.000000 0.000000 0.000000 
0.000000 0.000000 0.000000 

-0.000000 0.000000 0.000000 
0.000000 0.000000 0.000000 
0.000000 0.000000 0.000000 

-0.000000 0.000000 0.000000 
0.000000 0.000000 0.000000 
0.000000 0.000000 0.000000 

-0.000000 0.000000 0.000000 
0.000000 0.000000 0.000000 
0.000000 0.000000 0.000000 

-0.000000 -0.000000 0.000000 
0.000000 -0.000000 0.000000 
0.000000 0.000000 0.000000 

-0.000000 -0.000000 0.000000 
0.000000 0.000000 0.000000 
0.000000 0.000000 0.000000 

0.000000 -0.000000 0.000000 
0.000000 -0.000000 0.000000 
0.000000 0.000000 0.000000 

0.000000 0.000000 0.000000 
0.000000 -0.000000 0.000000 
0.000000 0.000000 0.000000 

0.000000 -0.000000 0.000000 
0.000000 0.000000 0.000000 
0.000000 0.000000 0.000000 

0.000000 -0.000000 0.000000 
0.000000 -0.000000 0.000000 
0.000000 0.000000 0.000000 

-0.000000 -0.000000 0.000000 
0.000000 0.000000 0.000000 
0.000000 0.000000 0.000000 

0.000000 -0.000000 0.000000 
0.000000 -0.000000 0.000000 
0.000000 0.000000 0.000000 

0.000000 -0.000000 0.000000 
0.000000 0.000000 0.000000 
0.000000 0.000000 0.000000 

-0.000000 -0.000000 0.000000 
0.000000 -0.000000 0.000000 
0.000000 0.000000 0.000000 

-0.000000 -0.000000 0.000000 
0.000000 0.000000 0.000000 
0.000000 0.000000 0.000000 

0.000000 -0.000000 0.000000 
0.000000 0.000000 0.000000 
0.000000 0.000000 0.000000 

0.000000 -0.000000 0.000000 
0.000000 -0.000000 0.000000 
0.000000 0.000000 0.000000 

0.000000 -0.000000 0.000000 
0.000000 -0.000000 0.000000 
0.000000 0.000000 0.000000 

-0.000000 0.000000 0.000000 
0.000000 0.000000 0.000000 
0.000000 0.000000 0.000000 

-0.000000 -0.000000 0.000000 
0.000000 0.000000 0.000000 
0.000000 0.000000 0.000000 

-0.000000 -0.000000 0.000000 
0.000000 0.000000 0.000000 
0.000000 0.000000 0.000000 

-0.000000 0.000000 0.000000 
0.000000 0.000000 0.000000 
0.000000 0.000000 0.000000 

-0.000000 0.000000 0.000000 
0.000000 -0.000000 0.000000 
0.000000 0.000000 0.000000 

-0.000000 0.000000 0.000000 
0.000000 0.000000 0.000000 
0.000000 0.000000 0.000000 

-0.000000 -0.000000 0.000000 
0.000000 0.000000 0.000000 
0.000000 0.000000 0.000000 

-0.000000 -0.000000 0.000000 
0.000000 0.000000 0.000000 
0.000000 0.000000 0.000000 

-0.000000 -0.000000 0.000000 
0.000000 -0.000000 0.000000 
0.000000 0.000000 0.000000 

0.000000 -0.000000 0.000000 
0.000000 0.000000 0.000000 
0.000000 0.000000 0.000000 

0.000000 -0.000000 0.000000 
0.000000 -0.000000 0.000000 
0.000000 0.000000 0.000000 

-0.000000 0.000000 0.000000 
0.000000 0.000000 0.000000 
0.000000 0.000000 0.000000 

-0.000000 0.000000 0.000000 
0.000000 0.000000 0.000000 
0.000000 0.000000 0.000000 

-0.000000 0.000000 0.000000 
0.000000 0.000000 0.000000 
0.000000 0.000000 0.000000 

-0.000000 -0.000000 0.000000 
0.000000 -0.000000 0.000000 
0.000000 0.000000 0.000000 

-0.000000 0.000000 0.000000 
0.000000 0.000000 0.000000 
0.000000 0.000000 0.000000 

-0.000000 0.000000 0.000000 
0.000000 -0.000000 0.000000 
0.000000 0.000000 0.000000 

-0.000000 -0.000000 0.000000 
0.000000 -0.000000 0.000000 
0.000000 0.000000 0.000000 

-0.000000 -0.000000 0.000000 
0.000000 0.000000 0.000000 
0.000000 0.000000 0.000000 

-0.000000 -0.000000 0.000000 
0.000000 0.000000 0.000000 
0.000000 0.000000 0.000000 

-0.000000 -0.000000 0.000000 
0.000000 0.000000 0.000000 
0.000000 0.000000 0.000000 

0.000000 0.000000 0.000000 
0.000000 -0.000000 0.000000 
0.000000 0.000000 0.000000 

-0.000000 -0.000000 0.000000 
0.000000 -0.000000 0.000000 
0.000000 0.000000 0.000000 

-0.000000 -0.000000 0.000000 
0.000000 0.000000 0.000000 
0.000000 0.000000 0.000000 

-0.000000 -0.000000 0.000000 
0.000000 0.000000 0.000000 
0.000000 0.000000 0.000000 

-0.000000 -0.000000 0.000000 
0.000000 -0.000000 0.000000 
0.000000 0.000000 0.000000 

0.000000 0.000000 0.000000 
0.000000 -0.000000 0.000000 
0.000000 0.000000 0.000000 

0.000000 -0.000000 0.000000 
0.000000 0.000000 0.000000 
0.000000 0.000000 0.000000 

-0.000000 -0.000000 0.000000 
0.000000 0.000000 0.000000 
0.000000 0.000000 0.000000 

-0.000000 -0.000000 0.000000 
0.000000 0.000000 0.000000 
0.000000 0.000000 0.000000 

-0.000000 -0.000000 0.000000 
0.000000 0.000000 0.000000 
0.000000 0.000000 0.000000 

-0.000000 -0.000000 0.000000 
0.000000 0.000000 0.000000 
0.000000 0.000000 0.000000 

-0.000000 -0.000000 0.000000 
0.000000 0.000000 0.000000 
0.000000 0.000000 0.000000 

0.000000 0.000000 0.000000 
0.000000 -0.000000 0.000000 
0.000000 0.000000 0.000000 

0.000000 0.000000 0.000000 
0.000000 0.000000 0.000000 
0.000000 0.000000 0.000000 

0.000000 0.000000 0.000000 
0.000000 -0.000000 0.000000 
0.000000 0.000000 0.000000 

-0.000000 0.000000 0.000000 
0.000000 0.000000 0.000000 
0.000000 0.000000 0.000000 

-0.000000 0.000000 0.000000 
0.000000 0.000000 0.000000 
0.000000 0.000000 0.000000 

-0.000000 0.000000 0.000000 
0.000000 0.000000 0.000000 
0.000000 0.000000 0.000000 

-0.000000 -0.000000 0.000000 
0.000000 -0.000000 0.000000 
0.000000 0.000000 0.000000 

-0.000000 -0.000000 0.000000 
0.000000 0.000000 0.000000 
0.000000 0.000000 0.000000 

-0.000000 -0.000000 0.000000 
0.000000 0.000000 0.000000 
0.000000 0.000000 0.000000 

-0.000000 0.000000 0.000000 
0.000000 0.000000 0.000000 
0.000000 0.000000 0.000000 

-0.000000 0.000000 0.000000 
0.000000 0.000000 0.000000 
0.000000 0.000000 0.000000 

-0.000000 0.000000 0.000000 
0.000000 -0.000000 0.000000 
0.000000 0.000000 0.000000 

-0.000000 -0.000000 0.000000 
0.000000 0.000000 0.000000 
0.000000 0.000000 0.000000 

0.000000 -0.000000 0.000000 
0.000000 -0.000000 0.000000 
0.000000 0.000000 0.000000 

-0.000000 0.000000 0.000000 
0.000000 0.000000 0.000000 
0.000000 0.000000 0.000000 

-0.000000 -0.000000 0.000000 
0.000000 0.000000 0.000000 
0.000000 0.000000 0.000000 

-0.000000 -0.000000 0.000000 
0.000000 -0.000000 0.000000 
0.000000 0.000000 0.000000 

-0.000000 -0.000000 0.000000 
0.000000 0.000000 0.000000 
0.000000 0.000000 0.000000 

0.000000 -0.000000 0.000000 
0.000000 -0.000000 0.000000 
0.000000 0.000000 0.000000 

0.000000 0.000000 0.000000 
0.000000 -0.000000 0.000000 
0.000000 0.000000 0.000000 

0.000000 -0.000000 0.000000 
0.000000 -0.000000 0.000000 
0.000000 0.000000 0.000000 

0.000000 -0.000000 0.000000 
0.000000 -0.000000 0.000000 
0.000000 0.000000 0.000000 

-0.000000 -0.000000 0.000000 
0.000000 0.000000 0.000000 
0.000000 0.000000 0.000000 

0.000000 -0.000000 0.000000 
0.000000 -0.000000 0.000000 
0.000000 0.000000 0.000000 

0.000000 -0.000000 0.000000 
0.000000 -0.000000 0.000000 
0.000000 0.000000 0.000000 

0.000000 -0.000000 0.000000 
0.000000 0.000000 0.000000 
0.000000 0.000000 0.000000 

0.000000 -0.000000 0.000000 
0.000000 0.000000 0.000000 
0.000000 0.000000 0.000000 

0.000000 -0.000000 0.000000 
0.000000 -0.000000 0.000000 
0.000000 0.000000 0.000000 

0.000000 0.000000 0.000000 
0.000000 0.000000 0.000000 
0.000000 0.000000 0.000000 

-0.000000 0.000000 0.000000 
0.000000 -0.000000 0.000000 
0.000000 0.000000 0.000000 

-0.000000 0.000000 0.000000 
0.000000 0.000000 0.000000 
0.000000 0.000000 0.000000 

-0.000000 -0.000000 0.000000 
0.000000 0.000000 0.000000 
0.000000 0.000000 0.000000 

-0.000000 -0.000000 0.000000 
0.000000 -0.000000 0.000000 
0.000000 0.000000 0.000000 

0.000000 0.000000 0.000000 
0.000000 -0.000000 0.000000 
0.000000 0.000000 0.000000 

0.000000 0.000000 0.000000 
0.000000 0.000000 0.000000 
0.000000 0.000000 0.000000 

-0.000000 -0.000000 0.000000 
0.000000 0.000000 0.000000 
0.000000 0.000000 0.000000 

-0.000000 -0.000000 0.000000 
0.000000 0.000000 0.000000 
0.000000 0.000000 0.000000 

0.000000 -0.000000 0.000000 
0.000000 -0.000000 0.000000 
0.000000 0.000000 0.000000 

0.000000 0.000000 0.000000 
0.000000 0.000000 0.000000 
0.000000 0.000000 0.000000 

-0.000000 -0.000000 0.000000 
0.000000 0.000000 0.000000 
0.000000 0.000000 0.000000 

-0.000000 -0.000000 0.000000 
0.000000 -0.000000 0.000000 
0.000000 0.000000 0.000000 

-0.000000 -0.000000 0.000000 
0.000000 -0.000000 0.000000 
0.000000 0.000000 0.000000 

-0.000000 -0.000000 0.000000 
0.000000 -0.000000 0.000000 
0.000000 0.000000 0.000000 

-0.000000 -0.000000 0.000000 
0.000000 0.000000 0.000000 
0.000000 0.000000 0.000000 

-0.000000 -0.000000 0.000000 
0.000000 0.000000 0.000000 
0.000000 0.000000 0.000000 

-0.000000 0.000000 0.000000 
0.000000 0.000000 0.000000 
0.000000 0.000000 0.000000 

-0.000000 -0.000000 0.000000 
0.000000 0.000000 0.000000 
0.000000 0.000000 0.000000 

-0.000000 -0.000000 0.000000 
0.000000 0.000000 0.000000 
0.000000 0.000000 0.000000 

-0.000000 -0.000000 0.000000 
0.000000 0.000000 0.000000 
0.000000 0.000000 0.000000 

0.000000 -0.000000 0.000000 
0.000000 0.000000 0.000000 
0.000000 0.000000 0.000000 

-0.000000 -0.000000 0.000000 
0.000000 0.000000 0.000000 
0.000000 0.000000 0.000000 

-0.000000 0.000000 0.000000 
0.000000 -0.000000 0.000000 
0.000000 0.000000 0.000000 

0.000000 -0.000000 0.000000 
0.000000 0.000000 0.000000 
0.000000 0.000000 0.000000 

0.000000 -0.000000 0.000000 
0.000000 -0.000000 0.000000 
0.000000 0.000000 0.000000 

0.000000 0.000000 0.000000 
0.000000 -0.000000 0.000000 
0.000000 0.000000 0.000000 

0.000000 -0.000000 0.000000 
0.000000 0.000000 0.000000 
0.000000 0.000000 0.000000 

0.000000 -0.000000 0.000000 
0.000000 0.000000 0.000000 
0.000000 0.000000 0.000000 

-0.000000 -0.000000 0.000000 
0.000000 0.000000 0.000000 
0.000000 0.000000 0.000000 

0.000000 -0.000000 0.000000 
0.000000 -0.000000 0.000000 
0.000000 0.000000 0.000000 

0.000000 0.000000 0.000000 
0.000000 -0.000000 0.000000 
0.000000 0.000000 0.000000 

-0.000000 0.000000 0.000000 
0.000000 -0.000000 0.000000 
0.000000 0.000000 0.000000 

0.000000 0.000000 0.000000 
0.000000 -0.000000 0.000000 
0.000000 0.000000 0.000000 

-0.000000 -0.000000 0.000000 
0.000000 0.000000 0.000000 
0.000000 0.000000 0.000000 

0.000000 -0.000000 0.000000 
0.000000 -0.000000 0.000000 
0.000000 0.000000 0.000000 

0.000000 0.000000 0.000000 
0.000000 0.000000 0.000000 
0.000000 0.000000 0.000000 

-0.000000 0.000000 0.000000 
0.000000 -0.000000 0.000000 
0.000000 0.000000 0.000000 

0.000000 -0.000000 0.000000 
0.000000 -0.000000 0.000000 
0.000000 0.000000 0.000000 

0.000000 -0.000000 0.000000 
0.000000 -0.000000 0.000000 
0.000000 0.000000 0.000000 

0.000000 -0.000000 0.000000 
0.000000 0.000000 0.000000 
0.000000 0.000000 0.000000 

0.000000 -0.000000 0.000000 
0.000000 -0.000000 0.000000 
0.000000 0.000000 0.000000 

-0.000000 0.000000 0.000000 
0.000000 0.000000 0.000000 
0.000000 0.000000 0.000000 

-0.000000 0.000000 0.000000 
0.000000 -0.000000 0.000000 
0.000000 0.000000 0.000000 

-0.000000 0.000000 0.000000 
0.000000 0.000000 0.000000 
0.000000 0.000000 0.000000 

-0.000000 -0.000000 0.000000 
0.000000 0.000000 0.000000 
0.000000 0.000000 0.000000 

-0.000000 -0.000000 0.000000 
0.000000 0.000000 0.000000 
0.000000 0.000000 0.000000 

0.000000 -0.000000 0.000000 
0.000000 -0.000000 0.000000 
0.000000 0.000000 0.000000 

0.000000 -0.000000 0.000000 
0.000000 -0.000000 0.000000 
0.000000 0.000000 0.000000 

-0.000000 0.000000 0.000000 
0.000000 0.000000 0.000000 
0.000000 0.000000 0.000000 

0.000000 0.000000 0.000000 
0.000000 0.000000 0.000000 
0.000000 0.000000 0.000000 

0.000000 0.000000 0.000000 
0.000000 -0.000000 0.000000 
0.000000 0.000000 0.000000 

-0.000000 0.000000 0.000000 
0.000000 0.000000 0.000000 
0.000000 0.000000 0.000000 

0.000000 -0.000000 0.000000 
0.000000 0.000000 0.000000 
0.000000 0.000000 0.000000 

0.000000 -0.000000 0.000000 
0.000000 -0.000000 0.000000 
0.000000 0.000000 0.000000 

0.000000 0.000000 0.000000 
0.000000 -0.000000 0.000000 
0.000000 0.000000 0.000000 

