# vtk DataFile Version 3.0 
vtk output 
ASCII 
DATASET UNSTRUCTURED_GRID 
POINTS 175 float 
-0.026061 -0.114666 0.000000 
-0.106992 -0.046610 0.000000 
-0.054870 -0.054843 0.000000 
-0.028809 -0.008959 0.000000 
-0.186430 0.017465 0.000000 
-0.137056 0.014939 0.000000 
-0.114311 0.068586 0.000000 
-0.058186 0.052921 0.000000 
-0.029377 0.093098 0.000000 
-0.265318 0.080621 0.000000 
-0.217198 0.079821 0.000000 
-0.196633 0.137118 0.000000 
-0.143120 0.128409 0.000000 
-0.116563 0.175677 0.000000 
-0.058945 0.156032 0.000000 
-0.029568 0.194152 0.000000 
-0.344206 0.143777 0.000000 
-0.296791 0.143784 0.000000 
-0.278030 0.203727 0.000000 
-0.225992 0.197860 0.000000 
-0.201664 0.249977 0.000000 
-0.145749 0.236503 0.000000 
-0.117890 0.280846 0.000000 
-0.059328 0.258140 0.000000 
-0.029759 0.295206 0.000000 
-0.058559 -0.155417 0.000000 
-0.162226 -0.176259 0.000000 
-0.123292 -0.140642 0.000000 
-0.142917 -0.091658 0.000000 
-0.261851 -0.198416 0.000000 
-0.229092 -0.161389 0.000000 
-0.256854 -0.110157 0.000000 
-0.209613 -0.076044 0.000000 
-0.223062 -0.028471 0.000000 
-0.360414 -0.220716 0.000000 
-0.329787 -0.183593 0.000000 
-0.361761 -0.131791 0.000000 
-0.321587 -0.095382 0.000000 
-0.341985 -0.045148 0.000000 
-0.290702 -0.012349 0.000000 
-0.302189 0.034386 0.000000 
-0.458977 -0.243016 0.000000 
-0.429420 -0.205941 0.000000 
-0.464588 -0.153900 0.000000 
-0.427556 -0.116872 0.000000 
-0.453135 -0.065357 0.000000 
-0.407738 -0.030042 0.000000 
-0.425037 0.019386 0.000000 
-0.370772 0.051015 0.000000 
-0.381315 0.097243 0.000000 
-0.046960 -0.206232 0.000000 
-0.095301 -0.300278 0.000000 
-0.098873 -0.247631 0.000000 
-0.149405 -0.232433 0.000000 
-0.140093 -0.391982 0.000000 
-0.148617 -0.343284 0.000000 
-0.205981 -0.333046 0.000000 
-0.203197 -0.274843 0.000000 
-0.248777 -0.255696 0.000000 
-0.184111 -0.482945 0.000000 
-0.194039 -0.435854 0.000000 
-0.254475 -0.428555 0.000000 
-0.257893 -0.374445 0.000000 
-0.309886 -0.359073 0.000000 
-0.303554 -0.298527 0.000000 
-0.347255 -0.278370 0.000000 
-0.228129 -0.573909 0.000000 
-0.238687 -0.527685 0.000000 
-0.301302 -0.522733 0.000000 
-0.307162 -0.470694 0.000000 
-0.363386 -0.458573 0.000000 
-0.362692 -0.401061 0.000000 
-0.412122 -0.383768 0.000000 
-0.403017 -0.321622 0.000000 
-0.445733 -0.301043 0.000000 
-0.000000 -0.228847 0.000000 
0.043388 -0.325277 0.000000 
-0.000000 -0.295245 0.000000 
-0.043388 -0.325277 0.000000 
0.087158 -0.417474 0.000000 
0.043769 -0.393775 0.000000 
-0.000000 -0.432241 0.000000 
-0.043769 -0.393775 0.000000 
-0.087158 -0.417474 0.000000 
0.130831 -0.508604 0.000000 
0.087824 -0.487005 0.000000 
0.044436 -0.529705 0.000000 
-0.000000 -0.498640 0.000000 
-0.044436 -0.529705 0.000000 
-0.087824 -0.487005 0.000000 
-0.130831 -0.508604 0.000000 
0.174505 -0.599733 0.000000 
0.131782 -0.579167 0.000000 
0.088871 -0.625034 0.000000 
0.044532 -0.597170 0.000000 
-0.000000 -0.633570 0.000000 
-0.044532 -0.597170 0.000000 
-0.088871 -0.625034 0.000000 
-0.131782 -0.579167 0.000000 
-0.174505 -0.599733 0.000000 
0.046960 -0.206232 0.000000 
0.149405 -0.232433 0.000000 
0.098873 -0.247631 0.000000 
0.095301 -0.300278 0.000000 
0.248777 -0.255696 0.000000 
0.203197 -0.274843 0.000000 
0.205981 -0.333046 0.000000 
0.148617 -0.343284 0.000000 
0.140093 -0.391982 0.000000 
0.347255 -0.278370 0.000000 
0.303554 -0.298527 0.000000 
0.309886 -0.359073 0.000000 
0.257893 -0.374445 0.000000 
0.254475 -0.428555 0.000000 
0.194039 -0.435854 0.000000 
0.184111 -0.482945 0.000000 
0.445733 -0.301043 0.000000 
0.403017 -0.321622 0.000000 
0.412122 -0.383768 0.000000 
0.362692 -0.401061 0.000000 
0.363386 -0.458573 0.000000 
0.307162 -0.470694 0.000000 
0.301302 -0.522733 0.000000 
0.238687 -0.527685 0.000000 
0.228129 -0.573909 0.000000 
0.058559 -0.155417 0.000000 
0.142917 -0.091658 0.000000 
0.123292 -0.140642 0.000000 
0.162226 -0.176259 0.000000 
0.223062 -0.028471 0.000000 
0.209613 -0.076044 0.000000 
0.256854 -0.110157 0.000000 
0.229092 -0.161389 0.000000 
0.261851 -0.198416 0.000000 
0.302189 0.034386 0.000000 
0.290702 -0.012349 0.000000 
0.341985 -0.045148 0.000000 
0.321587 -0.095382 0.000000 
0.361761 -0.131791 0.000000 
0.329787 -0.183593 0.000000 
0.360414 -0.220716 0.000000 
0.381315 0.097243 0.000000 
0.370772 0.051015 0.000000 
0.425037 0.019386 0.000000 
0.407738 -0.030042 0.000000 
0.453135 -0.065357 0.000000 
0.427556 -0.116872 0.000000 
0.464588 -0.153900 0.000000 
0.429420 -0.205941 0.000000 
0.458977 -0.243016 0.000000 
0.026061 -0.114666 0.000000 
0.028809 -0.008959 0.000000 
0.054870 -0.054843 0.000000 
0.106992 -0.046610 0.000000 
0.029377 0.093098 0.000000 
0.058186 0.052921 0.000000 
0.114311 0.068586 0.000000 
0.137056 0.014939 0.000000 
0.186430 0.017465 0.000000 
0.029568 0.194152 0.000000 
0.058945 0.156032 0.000000 
0.116563 0.175677 0.000000 
0.143120 0.128409 0.000000 
0.196633 0.137118 0.000000 
0.217198 0.079821 0.000000 
0.265318 0.080621 0.000000 
0.029759 0.295206 0.000000 
0.059328 0.258140 0.000000 
0.117890 0.280846 0.000000 
0.145749 0.236503 0.000000 
0.201664 0.249977 0.000000 
0.225992 0.197860 0.000000 
0.278030 0.203727 0.000000 
0.296791 0.143784 0.000000 
0.344206 0.143777 0.000000 
CELLS 175 350 
1 0 
1 1 
1 2 
1 3 
1 4 
1 5 
1 6 
1 7 
1 8 
1 9 
1 10 
1 11 
1 12 
1 13 
1 14 
1 15 
1 16 
1 17 
1 18 
1 19 
1 20 
1 21 
1 22 
1 23 
1 24 
1 25 
1 26 
1 27 
1 28 
1 29 
1 30 
1 31 
1 32 
1 33 
1 34 
1 35 
1 36 
1 37 
1 38 
1 39 
1 40 
1 41 
1 42 
1 43 
1 44 
1 45 
1 46 
1 47 
1 48 
1 49 
1 50 
1 51 
1 52 
1 53 
1 54 
1 55 
1 56 
1 57 
1 58 
1 59 
1 60 
1 61 
1 62 
1 63 
1 64 
1 65 
1 66 
1 67 
1 68 
1 69 
1 70 
1 71 
1 72 
1 73 
1 74 
1 75 
1 76 
1 77 
1 78 
1 79 
1 80 
1 81 
1 82 
1 83 
1 84 
1 85 
1 86 
1 87 
1 88 
1 89 
1 90 
1 91 
1 92 
1 93 
1 94 
1 95 
1 96 
1 97 
1 98 
1 99 
1 100 
1 101 
1 102 
1 103 
1 104 
1 105 
1 106 
1 107 
1 108 
1 109 
1 110 
1 111 
1 112 
1 113 
1 114 
1 115 
1 116 
1 117 
1 118 
1 119 
1 120 
1 121 
1 122 
1 123 
1 124 
1 125 
1 126 
1 127 
1 128 
1 129 
1 130 
1 131 
1 132 
1 133 
1 134 
1 135 
1 136 
1 137 
1 138 
1 139 
1 140 
1 141 
1 142 
1 143 
1 144 
1 145 
1 146 
1 147 
1 148 
1 149 
1 150 
1 151 
1 152 
1 153 
1 154 
1 155 
1 156 
1 157 
1 158 
1 159 
1 160 
1 161 
1 162 
1 163 
1 164 
1 165 
1 166 
1 167 
1 168 
1 169 
1 170 
1 171 
1 172 
1 173 
1 174 
CELL_TYPES 175 
1 
1 
1 
1 
1 
1 
1 
1 
1 
1 
1 
1 
1 
1 
1 
1 
1 
1 
1 
1 
1 
1 
1 
1 
1 
1 
1 
1 
1 
1 
1 
1 
1 
1 
1 
1 
1 
1 
1 
1 
1 
1 
1 
1 
1 
1 
1 
1 
1 
1 
1 
1 
1 
1 
1 
1 
1 
1 
1 
1 
1 
1 
1 
1 
1 
1 
1 
1 
1 
1 
1 
1 
1 
1 
1 
1 
1 
1 
1 
1 
1 
1 
1 
1 
1 
1 
1 
1 
1 
1 
1 
1 
1 
1 
1 
1 
1 
1 
1 
1 
1 
1 
1 
1 
1 
1 
1 
1 
1 
1 
1 
1 
1 
1 
1 
1 
1 
1 
1 
1 
1 
1 
1 
1 
1 
1 
1 
1 
1 
1 
1 
1 
1 
1 
1 
1 
1 
1 
1 
1 
1 
1 
1 
1 
1 
1 
1 
1 
1 
1 
1 
1 
1 
1 
1 
1 
1 
1 
1 
1 
1 
1 
1 
1 
1 
1 
1 
1 
1 
1 
1 
1 
1 
1 
1 
POINT_DATA 175 
VECTORS X_GC float 
-0.026061 -0.114666 0.000000 
-0.106992 -0.046610 0.000000 
-0.054870 -0.054843 0.000000 
-0.028809 -0.008959 0.000000 
-0.186430 0.017465 0.000000 
-0.137056 0.014939 0.000000 
-0.114311 0.068586 0.000000 
-0.058186 0.052921 0.000000 
-0.029377 0.093098 0.000000 
-0.265318 0.080621 0.000000 
-0.217198 0.079821 0.000000 
-0.196633 0.137118 0.000000 
-0.143120 0.128409 0.000000 
-0.116563 0.175677 0.000000 
-0.058945 0.156032 0.000000 
-0.029568 0.194152 0.000000 
-0.344206 0.143777 0.000000 
-0.296791 0.143784 0.000000 
-0.278030 0.203727 0.000000 
-0.225992 0.197860 0.000000 
-0.201664 0.249977 0.000000 
-0.145749 0.236503 0.000000 
-0.117890 0.280846 0.000000 
-0.059328 0.258140 0.000000 
-0.029759 0.295206 0.000000 
-0.058559 -0.155417 0.000000 
-0.162226 -0.176259 0.000000 
-0.123292 -0.140642 0.000000 
-0.142917 -0.091658 0.000000 
-0.261851 -0.198416 0.000000 
-0.229092 -0.161389 0.000000 
-0.256854 -0.110157 0.000000 
-0.209613 -0.076044 0.000000 
-0.223062 -0.028471 0.000000 
-0.360414 -0.220716 0.000000 
-0.329787 -0.183593 0.000000 
-0.361761 -0.131791 0.000000 
-0.321587 -0.095382 0.000000 
-0.341985 -0.045148 0.000000 
-0.290702 -0.012349 0.000000 
-0.302189 0.034386 0.000000 
-0.458977 -0.243016 0.000000 
-0.429420 -0.205941 0.000000 
-0.464588 -0.153900 0.000000 
-0.427556 -0.116872 0.000000 
-0.453135 -0.065357 0.000000 
-0.407738 -0.030042 0.000000 
-0.425037 0.019386 0.000000 
-0.370772 0.051015 0.000000 
-0.381315 0.097243 0.000000 
-0.046960 -0.206232 0.000000 
-0.095301 -0.300278 0.000000 
-0.098873 -0.247631 0.000000 
-0.149405 -0.232433 0.000000 
-0.140093 -0.391982 0.000000 
-0.148617 -0.343284 0.000000 
-0.205981 -0.333046 0.000000 
-0.203197 -0.274843 0.000000 
-0.248777 -0.255696 0.000000 
-0.184111 -0.482945 0.000000 
-0.194039 -0.435854 0.000000 
-0.254475 -0.428555 0.000000 
-0.257893 -0.374445 0.000000 
-0.309886 -0.359073 0.000000 
-0.303554 -0.298527 0.000000 
-0.347255 -0.278370 0.000000 
-0.228129 -0.573909 0.000000 
-0.238687 -0.527685 0.000000 
-0.301302 -0.522733 0.000000 
-0.307162 -0.470694 0.000000 
-0.363386 -0.458573 0.000000 
-0.362692 -0.401061 0.000000 
-0.412122 -0.383768 0.000000 
-0.403017 -0.321622 0.000000 
-0.445733 -0.301043 0.000000 
-0.000000 -0.228847 0.000000 
0.043388 -0.325277 0.000000 
-0.000000 -0.295245 0.000000 
-0.043388 -0.325277 0.000000 
0.087158 -0.417474 0.000000 
0.043769 -0.393775 0.000000 
-0.000000 -0.432241 0.000000 
-0.043769 -0.393775 0.000000 
-0.087158 -0.417474 0.000000 
0.130831 -0.508604 0.000000 
0.087824 -0.487005 0.000000 
0.044436 -0.529705 0.000000 
-0.000000 -0.498640 0.000000 
-0.044436 -0.529705 0.000000 
-0.087824 -0.487005 0.000000 
-0.130831 -0.508604 0.000000 
0.174505 -0.599733 0.000000 
0.131782 -0.579167 0.000000 
0.088871 -0.625034 0.000000 
0.044532 -0.597170 0.000000 
-0.000000 -0.633570 0.000000 
-0.044532 -0.597170 0.000000 
-0.088871 -0.625034 0.000000 
-0.131782 -0.579167 0.000000 
-0.174505 -0.599733 0.000000 
0.046960 -0.206232 0.000000 
0.149405 -0.232433 0.000000 
0.098873 -0.247631 0.000000 
0.095301 -0.300278 0.000000 
0.248777 -0.255696 0.000000 
0.203197 -0.274843 0.000000 
0.205981 -0.333046 0.000000 
0.148617 -0.343284 0.000000 
0.140093 -0.391982 0.000000 
0.347255 -0.278370 0.000000 
0.303554 -0.298527 0.000000 
0.309886 -0.359073 0.000000 
0.257893 -0.374445 0.000000 
0.254475 -0.428555 0.000000 
0.194039 -0.435854 0.000000 
0.184111 -0.482945 0.000000 
0.445733 -0.301043 0.000000 
0.403017 -0.321622 0.000000 
0.412122 -0.383768 0.000000 
0.362692 -0.401061 0.000000 
0.363386 -0.458573 0.000000 
0.307162 -0.470694 0.000000 
0.301302 -0.522733 0.000000 
0.238687 -0.527685 0.000000 
0.228129 -0.573909 0.000000 
0.058559 -0.155417 0.000000 
0.142917 -0.091658 0.000000 
0.123292 -0.140642 0.000000 
0.162226 -0.176259 0.000000 
0.223062 -0.028471 0.000000 
0.209613 -0.076044 0.000000 
0.256854 -0.110157 0.000000 
0.229092 -0.161389 0.000000 
0.261851 -0.198416 0.000000 
0.302189 0.034386 0.000000 
0.290702 -0.012349 0.000000 
0.341985 -0.045148 0.000000 
0.321587 -0.095382 0.000000 
0.361761 -0.131791 0.000000 
0.329787 -0.183593 0.000000 
0.360414 -0.220716 0.000000 
0.381315 0.097243 0.000000 
0.370772 0.051015 0.000000 
0.425037 0.019386 0.000000 
0.407738 -0.030042 0.000000 
0.453135 -0.065357 0.000000 
0.427556 -0.116872 0.000000 
0.464588 -0.153900 0.000000 
0.429420 -0.205941 0.000000 
0.458977 -0.243016 0.000000 
0.026061 -0.114666 0.000000 
0.028809 -0.008959 0.000000 
0.054870 -0.054843 0.000000 
0.106992 -0.046610 0.000000 
0.029377 0.093098 0.000000 
0.058186 0.052921 0.000000 
0.114311 0.068586 0.000000 
0.137056 0.014939 0.000000 
0.186430 0.017465 0.000000 
0.029568 0.194152 0.000000 
0.058945 0.156032 0.000000 
0.116563 0.175677 0.000000 
0.143120 0.128409 0.000000 
0.196633 0.137118 0.000000 
0.217198 0.079821 0.000000 
0.265318 0.080621 0.000000 
0.029759 0.295206 0.000000 
0.059328 0.258140 0.000000 
0.117890 0.280846 0.000000 
0.145749 0.236503 0.000000 
0.201664 0.249977 0.000000 
0.225992 0.197860 0.000000 
0.278030 0.203727 0.000000 
0.296791 0.143784 0.000000 
0.344206 0.143777 0.000000 
VECTORS X_EC float 
0.338794 0.047990 0.000000 
-0.609100 -0.870759 0.000000 
0.713312 -0.759618 0.000000 
0.374519 0.620952 0.000000 
0.423588 0.264222 0.000000 
-0.218274 0.298326 0.000000 
-0.513962 -0.425913 0.000000 
0.756418 -0.214427 0.000000 
0.381900 -0.756820 0.000000 
-0.550868 -0.588381 0.000000 
0.823577 -0.577586 0.000000 
0.556234 0.648910 0.000000 
-0.139443 0.766479 0.000000 
-0.484677 0.128354 0.000000 
0.766286 0.393570 0.000000 
0.384386 -0.121051 0.000000 
0.474677 0.559016 0.000000 
-0.141715 0.558919 0.000000 
-0.385608 -0.250309 0.000000 
0.937896 -0.171113 0.000000 
0.621631 -0.874693 0.000000 
-0.105264 -0.692794 0.000000 
-0.467428 0.708579 0.000000 
0.771260 -0.984892 0.000000 
0.386873 0.514718 0.000000 
0.761262 0.598124 0.000000 
0.108942 0.879501 0.000000 
-0.397202 0.398661 0.000000 
-0.142083 -0.262614 0.000000 
-0.595936 -0.821389 0.000000 
0.978194 0.678746 0.000000 
-0.660903 -0.012880 0.000000 
0.724964 -0.473400 0.000000 
0.899809 0.884352 0.000000 
0.685384 -0.520336 0.000000 
0.287229 0.978505 0.000000 
0.702895 0.279177 0.000000 
0.180633 -0.212342 0.000000 
0.445811 -0.890502 0.000000 
-0.220880 0.666712 0.000000 
-0.071546 0.035787 0.000000 
-0.033296 -0.219284 0.000000 
-0.417537 -0.719794 0.000000 
0.039645 0.577644 0.000000 
-0.441768 0.077773 0.000000 
-0.109248 -0.617678 0.000000 
-0.699407 0.905566 0.000000 
-0.474522 0.238287 0.000000 
0.820030 -0.188706 0.000000 
0.957100 -0.812778 0.000000 
0.610485 -0.715870 0.000000 
-0.761092 0.553750 0.000000 
-0.714655 -0.156988 0.000000 
-0.057734 -0.362155 0.000000 
-0.178789 -0.208246 0.000000 
-0.067979 -0.865672 0.000000 
0.677748 0.996124 0.000000 
0.641556 0.210379 0.000000 
-0.765897 -0.048099 0.000000 
0.393446 -0.980237 0.000000 
0.522510 0.384033 0.000000 
-0.691820 0.285489 0.000000 
-0.647393 -0.444994 0.000000 
0.028512 -0.652520 0.000000 
-0.053800 0.530119 0.000000 
0.514316 0.257988 0.000000 
0.965681 0.247772 0.000000 
-0.897068 -0.376257 0.000000 
-0.083078 -0.443110 0.000000 
-0.006893 0.854366 0.000000 
0.724017 0.690733 0.000000 
0.714996 -0.085671 0.000000 
-0.642413 -0.319128 0.000000 
-0.760780 0.841891 0.000000 
-0.205471 0.564076 0.000000 
0.000000 -0.410568 0.000000 
-0.564049 0.891245 0.000000 
0.000000 0.485809 0.000000 
0.564049 0.891245 0.000000 
0.866949 0.135900 0.000000 
-0.569003 -0.184031 0.000000 
0.000000 0.335257 0.000000 
0.569003 -0.184031 0.000000 
-0.866949 0.135900 0.000000 
0.299194 -0.633850 0.000000 
0.858290 -0.925434 0.000000 
-0.577662 -0.348988 0.000000 
0.000000 -0.768366 0.000000 
0.577662 -0.348988 0.000000 
-0.858290 -0.925434 0.000000 
-0.299194 -0.633850 0.000000 
-0.268560 0.596400 0.000000 
0.286830 0.318759 0.000000 
0.844677 0.937957 0.000000 
-0.578910 0.561794 0.000000 
0.000000 -0.946802 0.000000 
0.578910 0.561794 0.000000 
-0.844677 0.937957 0.000000 
-0.286830 0.318759 0.000000 
0.268560 0.596400 0.000000 
-0.610485 -0.715870 0.000000 
0.057734 -0.362155 0.000000 
0.714655 -0.156988 0.000000 
0.761092 0.553750 0.000000 
0.765897 -0.048099 0.000000 
-0.641556 0.210379 0.000000 
-0.677748 0.996124 0.000000 
0.067979 -0.865672 0.000000 
0.178789 -0.208246 0.000000 
-0.514316 0.257988 0.000000 
0.053800 0.530119 0.000000 
-0.028512 -0.652520 0.000000 
0.647393 -0.444994 0.000000 
0.691820 0.285489 0.000000 
-0.522510 0.384033 0.000000 
-0.393446 -0.980237 0.000000 
0.205471 0.564076 0.000000 
0.760780 0.841892 0.000000 
0.642413 -0.319128 0.000000 
-0.714996 -0.085671 0.000000 
-0.724017 0.690733 0.000000 
0.006894 0.854366 0.000000 
0.083078 -0.443110 0.000000 
0.897068 -0.376257 0.000000 
-0.965681 0.247772 0.000000 
-0.761262 0.598124 0.000000 
0.142083 -0.262614 0.000000 
0.397202 0.398661 0.000000 
-0.108942 0.879501 0.000000 
-0.899809 0.884352 0.000000 
-0.724964 -0.473400 0.000000 
0.660903 -0.012880 0.000000 
-0.978194 0.678746 0.000000 
0.595936 -0.821389 0.000000 
0.071546 0.035787 0.000000 
0.220880 0.666712 0.000000 
-0.445811 -0.890502 0.000000 
-0.180633 -0.212342 0.000000 
-0.702895 0.279177 0.000000 
-0.287229 0.978505 0.000000 
-0.685384 -0.520336 0.000000 
-0.957100 -0.812778 0.000000 
-0.820030 -0.188706 0.000000 
0.474522 0.238287 0.000000 
0.699407 0.905566 0.000000 
0.109248 -0.617678 0.000000 
0.441768 0.077773 0.000000 
-0.039645 0.577644 0.000000 
0.417537 -0.719794 0.000000 
0.033296 -0.219284 0.000000 
-0.338794 0.047990 0.000000 
-0.374519 0.620952 0.000000 
-0.713312 -0.759618 0.000000 
0.609100 -0.870759 0.000000 
-0.381900 -0.756820 0.000000 
-0.756418 -0.214427 0.000000 
0.513962 -0.425913 0.000000 
0.218274 0.298326 0.000000 
-0.423588 0.264222 0.000000 
-0.384386 -0.121051 0.000000 
-0.766286 0.393570 0.000000 
0.484677 0.128354 0.000000 
0.139443 0.766479 0.000000 
-0.556234 0.648910 0.000000 
-0.823577 -0.577586 0.000000 
0.550868 -0.588381 0.000000 
-0.386873 0.514718 0.000000 
-0.771260 -0.984892 0.000000 
0.467428 0.708579 0.000000 
0.105264 -0.692794 0.000000 
-0.621631 -0.874693 0.000000 
-0.937896 -0.171113 0.000000 
0.385608 -0.250309 0.000000 
0.141715 0.558919 0.000000 
-0.474677 0.559016 0.000000 
CELL_DATA 175 
SCALARS MASS float 
LOOKUP_TABLE default 
0.781831 
0.864274 
0.946717 
0.864274 
0.881307 
0.921110 
0.858535 
0.921110 
0.881307 
0.887046 
0.910001 
0.869829 
0.915556 
0.869829 
0.910001 
0.887046 
0.892784 
0.915740 
0.892784 
0.927218 
0.892784 
0.927218 
0.892784 
0.915740 
0.892784 
0.781831 
0.864274 
0.946717 
0.864274 
0.881307 
0.921110 
0.858535 
0.921110 
0.881307 
0.887046 
0.910001 
0.869829 
0.915556 
0.869829 
0.910001 
0.887046 
0.892784 
0.915740 
0.892784 
0.927218 
0.892784 
0.927218 
0.892784 
0.915740 
0.892784 
0.781831 
0.864274 
0.946717 
0.864274 
0.881307 
0.921110 
0.858535 
0.921110 
0.881307 
0.887046 
0.910001 
0.869829 
0.915556 
0.869829 
0.910001 
0.887046 
0.892784 
0.915740 
0.892784 
0.927218 
0.892784 
0.927218 
0.892784 
0.915740 
0.892784 
0.781831 
0.864274 
0.946717 
0.864274 
0.881307 
0.921110 
0.858535 
0.921110 
0.881307 
0.887046 
0.910001 
0.869829 
0.915556 
0.869829 
0.910001 
0.887046 
0.892784 
0.915740 
0.892784 
0.927218 
0.892784 
0.927218 
0.892784 
0.915740 
0.892784 
0.781831 
0.864274 
0.946717 
0.864274 
0.881307 
0.921110 
0.858535 
0.921110 
0.881307 
0.887046 
0.910001 
0.869829 
0.915556 
0.869829 
0.910001 
0.887046 
0.892784 
0.915740 
0.892784 
0.927218 
0.892784 
0.927218 
0.892784 
0.915740 
0.892784 
0.781831 
0.864274 
0.946717 
0.864274 
0.881307 
0.921110 
0.858535 
0.921110 
0.881307 
0.887046 
0.910001 
0.869829 
0.915556 
0.869829 
0.910001 
0.887046 
0.892784 
0.915740 
0.892784 
0.927218 
0.892784 
0.927218 
0.892784 
0.915740 
0.892784 
0.781831 
0.864274 
0.946717 
0.864274 
0.881307 
0.921110 
0.858535 
0.921110 
0.881307 
0.887046 
0.910001 
0.869829 
0.915556 
0.869829 
0.910001 
0.887046 
0.892784 
0.915740 
0.892784 
0.927218 
0.892784 
0.927218 
0.892784 
0.915740 
0.892784 
SCALARS MASS float 
LOOKUP_TABLE default 
0.781831 
0.864274 
0.946717 
0.864274 
0.881307 
0.921110 
0.858535 
0.921110 
0.881307 
0.887046 
0.910001 
0.869829 
0.915556 
0.869829 
0.910001 
0.887046 
0.892784 
0.915740 
0.892784 
0.927218 
0.892784 
0.927218 
0.892784 
0.915740 
0.892784 
0.781831 
0.864274 
0.946717 
0.864274 
0.881307 
0.921110 
0.858535 
0.921110 
0.881307 
0.887046 
0.910001 
0.869829 
0.915556 
0.869829 
0.910001 
0.887046 
0.892784 
0.915740 
0.892784 
0.927218 
0.892784 
0.927218 
0.892784 
0.915740 
0.892784 
0.781831 
0.864274 
0.946717 
0.864274 
0.881307 
0.921110 
0.858535 
0.921110 
0.881307 
0.887046 
0.910001 
0.869829 
0.915556 
0.869829 
0.910001 
0.887046 
0.892784 
0.915740 
0.892784 
0.927218 
0.892784 
0.927218 
0.892784 
0.915740 
0.892784 
0.781831 
0.864274 
0.946717 
0.864274 
0.881307 
0.921110 
0.858535 
0.921110 
0.881307 
0.887046 
0.910001 
0.869829 
0.915556 
0.869829 
0.910001 
0.887046 
0.892784 
0.915740 
0.892784 
0.927218 
0.892784 
0.927218 
0.892784 
0.915740 
0.892784 
0.781831 
0.864274 
0.946717 
0.864274 
0.881307 
0.921110 
0.858535 
0.921110 
0.881307 
0.887046 
0.910001 
0.869829 
0.915556 
0.869829 
0.910001 
0.887046 
0.892784 
0.915740 
0.892784 
0.927218 
0.892784 
0.927218 
0.892784 
0.915740 
0.892784 
0.781831 
0.864274 
0.946717 
0.864274 
0.881307 
0.921110 
0.858535 
0.921110 
0.881307 
0.887046 
0.910001 
0.869829 
0.915556 
0.869829 
0.910001 
0.887046 
0.892784 
0.915740 
0.892784 
0.927218 
0.892784 
0.927218 
0.892784 
0.915740 
0.892784 
0.781831 
0.864274 
0.946717 
0.864274 
0.881307 
0.921110 
0.858535 
0.921110 
0.881307 
0.887046 
0.910001 
0.869829 
0.915556 
0.869829 
0.910001 
0.887046 
0.892784 
0.915740 
0.892784 
0.927218 
0.892784 
0.927218 
0.892784 
0.915740 
0.892784 
SCALARS DENSITY float 
LOOKUP_TABLE default 
200.000000 
200.000000 
200.000000 
200.000000 
200.000000 
200.000000 
200.000000 
200.000000 
200.000000 
200.000000 
200.000000 
200.000000 
200.000000 
200.000000 
200.000000 
200.000000 
200.000000 
200.000000 
200.000000 
200.000000 
200.000000 
200.000000 
200.000000 
200.000000 
200.000000 
200.000000 
200.000000 
200.000000 
200.000000 
200.000000 
200.000000 
200.000000 
200.000000 
200.000000 
200.000000 
200.000000 
200.000000 
200.000000 
200.000000 
200.000000 
200.000000 
200.000000 
200.000000 
200.000000 
200.000000 
200.000000 
200.000000 
200.000000 
200.000000 
200.000000 
200.000000 
200.000000 
200.000000 
200.000000 
200.000000 
200.000000 
200.000000 
200.000000 
200.000000 
200.000000 
200.000000 
200.000000 
200.000000 
200.000000 
200.000000 
200.000000 
200.000000 
200.000000 
200.000000 
200.000000 
200.000000 
200.000000 
200.000000 
200.000000 
200.000000 
200.000000 
200.000000 
200.000000 
200.000000 
200.000000 
200.000000 
200.000000 
200.000000 
200.000000 
200.000000 
200.000000 
200.000000 
200.000000 
200.000000 
200.000000 
200.000000 
200.000000 
200.000000 
200.000000 
200.000000 
200.000000 
200.000000 
200.000000 
200.000000 
200.000000 
200.000000 
200.000000 
200.000000 
200.000000 
200.000000 
200.000000 
200.000000 
200.000000 
200.000000 
200.000000 
200.000000 
200.000000 
200.000000 
200.000000 
200.000000 
200.000000 
200.000000 
200.000000 
200.000000 
200.000000 
200.000000 
200.000000 
200.000000 
200.000000 
200.000000 
200.000000 
200.000000 
200.000000 
200.000000 
200.000000 
200.000000 
200.000000 
200.000000 
200.000000 
200.000000 
200.000000 
200.000000 
200.000000 
200.000000 
200.000000 
200.000000 
200.000000 
200.000000 
200.000000 
200.000000 
200.000000 
200.000000 
200.000000 
200.000000 
200.000000 
200.000000 
200.000000 
200.000000 
200.000000 
200.000000 
200.000000 
200.000000 
200.000000 
200.000000 
200.000000 
200.000000 
200.000000 
200.000000 
200.000000 
200.000000 
200.000000 
200.000000 
200.000000 
200.000000 
200.000000 
200.000000 
200.000000 
200.000000 
200.000000 
200.000000 
SCALARS ELEM_i float 
LOOKUP_TABLE default 
181 
208 
181 
182 
209 
209 
209 
182 
182 
236 
209 
210 
210 
210 
183 
183 
237 
237 
237 
210 
210 
210 
211 
183 
184 
181 
208 
208 
208 
234 
208 
235 
208 
209 
234 
235 
235 
235 
235 
236 
236 
261 
261 
262 
262 
262 
263 
263 
236 
236 
180 
207 
207 
207 
206 
206 
207 
207 
234 
205 
206 
233 
233 
233 
234 
234 
205 
232 
232 
233 
233 
233 
260 
261 
261 
180 
180 
180 
180 
152 
179 
179 
179 
206 
151 
151 
178 
178 
178 
205 
205 
151 
151 
151 
178 
177 
178 
205 
205 
205 
180 
153 
153 
153 
126 
153 
153 
152 
152 
126 
126 
125 
125 
125 
152 
151 
99 
99 
98 
125 
125 
125 
124 
124 
151 
181 
154 
154 
154 
155 
154 
127 
154 
126 
128 
128 
127 
127 
127 
127 
126 
128 
128 
101 
101 
100 
100 
100 
99 
99 
181 
182 
181 
154 
182 
182 
155 
155 
155 
183 
183 
156 
156 
156 
155 
128 
184 
183 
157 
156 
156 
156 
129 
129 
129 
VECTORS VELOCITY float 
0.000000 -1.818774 0.000000 
0.000000 -1.818774 0.000000 
0.000000 -1.818774 0.000000 
0.000000 -1.818774 0.000000 
-0.000000 -1.818774 0.000000 
-0.000000 -1.818774 0.000000 
-0.000000 -1.818774 0.000000 
-0.000000 -1.818774 0.000000 
-0.000000 -1.818774 0.000000 
0.000000 -1.818774 0.000000 
0.000000 -1.818774 0.000000 
0.000000 -1.818774 0.000000 
-0.000000 -1.818774 0.000000 
-0.000000 -1.818774 0.000000 
-0.000000 -1.818774 0.000000 
-0.000000 -1.818774 0.000000 
0.000000 -1.818774 0.000000 
0.000000 -1.818774 0.000000 
0.000000 -1.818774 0.000000 
0.000000 -1.818774 0.000000 
-0.000000 -1.818774 0.000000 
0.000000 -1.818774 0.000000 
-0.000000 -1.818774 0.000000 
0.000000 -1.818774 0.000000 
0.000000 -1.818774 0.000000 
0.000000 -1.818774 0.000000 
0.000000 -1.818774 0.000000 
0.000000 -1.818774 0.000000 
0.000000 -1.818774 0.000000 
-0.000000 -1.818774 0.000000 
0.000000 -1.818774 0.000000 
0.000000 -1.818774 0.000000 
-0.000000 -1.818774 0.000000 
-0.000000 -1.818774 0.000000 
-0.000000 -1.818774 0.000000 
-0.000000 -1.818774 0.000000 
0.000000 -1.818774 0.000000 
0.000000 -1.818774 0.000000 
0.000000 -1.818774 0.000000 
0.000000 -1.818774 0.000000 
0.000000 -1.818774 0.000000 
0.000000 -1.818774 0.000000 
0.000000 -1.818774 0.000000 
0.000000 -1.818774 0.000000 
0.000000 -1.818774 0.000000 
-0.000000 -1.818774 0.000000 
0.000000 -1.818774 0.000000 
-0.000000 -1.818774 0.000000 
0.000000 -1.818774 0.000000 
0.000000 -1.818774 0.000000 
0.000000 -1.818774 0.000000 
-0.000000 -1.818774 0.000000 
-0.000000 -1.818774 0.000000 
-0.000000 -1.818774 0.000000 
-0.000000 -1.818774 0.000000 
-0.000000 -1.818774 0.000000 
-0.000000 -1.818774 0.000000 
-0.000000 -1.818774 0.000000 
-0.000000 -1.818774 0.000000 
0.000000 -1.818774 0.000000 
0.000000 -1.818774 0.000000 
0.000000 -1.818774 0.000000 
0.000000 -1.818774 0.000000 
0.000000 -1.818774 0.000000 
0.000000 -1.818774 0.000000 
0.000000 -1.818774 0.000000 
-0.000000 -1.818774 0.000000 
0.000000 -1.818774 0.000000 
0.000000 -1.818774 0.000000 
0.000000 -1.818774 0.000000 
0.000000 -1.818774 0.000000 
0.000000 -1.818774 0.000000 
-0.000000 -1.818774 0.000000 
0.000000 -1.818774 0.000000 
0.000000 -1.818774 0.000000 
0.000000 -1.818774 0.000000 
-0.000000 -1.818774 0.000000 
-0.000000 -1.818774 0.000000 
-0.000000 -1.818774 0.000000 
-0.000000 -1.818774 0.000000 
-0.000000 -1.818774 0.000000 
-0.000000 -1.818774 0.000000 
-0.000000 -1.818774 0.000000 
-0.000000 -1.818774 0.000000 
-0.000000 -1.818774 0.000000 
-0.000000 -1.818774 0.000000 
-0.000000 -1.818774 0.000000 
-0.000000 -1.818774 0.000000 
0.000000 -1.818774 0.000000 
0.000000 -1.818774 0.000000 
0.000000 -1.818774 0.000000 
-0.000000 -1.818774 0.000000 
-0.000000 -1.818774 0.000000 
-0.000000 -1.818774 0.000000 
-0.000000 -1.818774 0.000000 
-0.000000 -1.818774 0.000000 
0.000000 -1.818774 0.000000 
0.000000 -1.818774 0.000000 
0.000000 -1.818774 0.000000 
-0.000000 -1.818774 0.000000 
0.000000 -1.818774 0.000000 
-0.000000 -1.818774 0.000000 
0.000000 -1.818774 0.000000 
0.000000 -1.818774 0.000000 
-0.000000 -1.818774 0.000000 
-0.000000 -1.818774 0.000000 
0.000000 -1.818774 0.000000 
0.000000 -1.818774 0.000000 
0.000000 -1.818774 0.000000 
0.000000 -1.818774 0.000000 
0.000000 -1.818774 0.000000 
0.000000 -1.818774 0.000000 
0.000000 -1.818774 0.000000 
-0.000000 -1.818774 0.000000 
-0.000000 -1.818774 0.000000 
-0.000000 -1.818774 0.000000 
-0.000000 -1.818774 0.000000 
0.000000 -1.818774 0.000000 
-0.000000 -1.818774 0.000000 
0.000000 -1.818774 0.000000 
0.000000 -1.818774 0.000000 
-0.000000 -1.818774 0.000000 
0.000000 -1.818774 0.000000 
-0.000000 -1.818774 0.000000 
-0.000000 -1.818774 0.000000 
0.000000 -1.818774 0.000000 
-0.000000 -1.818774 0.000000 
-0.000000 -1.818774 0.000000 
-0.000000 -1.818774 0.000000 
-0.000000 -1.818774 0.000000 
-0.000000 -1.818774 0.000000 
-0.000000 -1.818774 0.000000 
-0.000000 -1.818774 0.000000 
-0.000000 -1.818774 0.000000 
-0.000000 -1.818774 0.000000 
-0.000000 -1.818774 0.000000 
0.000000 -1.818774 0.000000 
0.000000 -1.818774 0.000000 
0.000000 -1.818774 0.000000 
0.000000 -1.818774 0.000000 
0.000000 -1.818774 0.000000 
-0.000000 -1.818774 0.000000 
-0.000000 -1.818774 0.000000 
-0.000000 -1.818774 0.000000 
0.000000 -1.818774 0.000000 
0.000000 -1.818774 0.000000 
0.000000 -1.818774 0.000000 
-0.000000 -1.818774 0.000000 
0.000000 -1.818774 0.000000 
-0.000000 -1.818774 0.000000 
0.000000 -1.818774 0.000000 
0.000000 -1.818774 0.000000 
0.000000 -1.818774 0.000000 
-0.000000 -1.818774 0.000000 
-0.000000 -1.818774 0.000000 
0.000000 -1.818774 0.000000 
0.000000 -1.818774 0.000000 
-0.000000 -1.818774 0.000000 
-0.000000 -1.818774 0.000000 
-0.000000 -1.818774 0.000000 
-0.000000 -1.818774 0.000000 
-0.000000 -1.818774 0.000000 
0.000000 -1.818774 0.000000 
-0.000000 -1.818774 0.000000 
-0.000000 -1.818774 0.000000 
-0.000000 -1.818774 0.000000 
-0.000000 -1.818774 0.000000 
-0.000000 -1.818774 0.000000 
-0.000000 -1.818774 0.000000 
0.000000 -1.818774 0.000000 
0.000000 -1.818774 0.000000 
0.000000 -1.818774 0.000000 
0.000000 -1.818774 0.000000 
0.000000 -1.818774 0.000000 
0.000000 -1.818774 0.000000 
TENSORS STRESS float 
0.000000 -0.000000 0.000000 
0.000000 0.000000 0.000000 
0.000000 0.000000 0.000000 

-0.000000 0.000000 0.000000 
0.000000 -0.000000 0.000000 
0.000000 0.000000 0.000000 

0.000000 0.000000 0.000000 
0.000000 0.000000 0.000000 
0.000000 0.000000 0.000000 

-0.000000 0.000000 0.000000 
0.000000 -0.000000 0.000000 
0.000000 0.000000 0.000000 

0.000000 0.000000 0.000000 
0.000000 0.000000 0.000000 
0.000000 0.000000 0.000000 

0.000000 0.000000 0.000000 
0.000000 0.000000 0.000000 
0.000000 0.000000 0.000000 

0.000000 0.000000 0.000000 
0.000000 0.000000 0.000000 
0.000000 0.000000 0.000000 

0.000000 0.000000 0.000000 
0.000000 0.000000 0.000000 
0.000000 0.000000 0.000000 

-0.000000 -0.000000 0.000000 
0.000000 -0.000000 0.000000 
0.000000 0.000000 0.000000 

0.000000 -0.000000 0.000000 
0.000000 0.000000 0.000000 
0.000000 0.000000 0.000000 

0.000000 -0.000000 0.000000 
0.000000 0.000000 0.000000 
0.000000 0.000000 0.000000 

0.000000 0.000000 0.000000 
0.000000 0.000000 0.000000 
0.000000 0.000000 0.000000 

-0.000000 0.000000 0.000000 
0.000000 -0.000000 0.000000 
0.000000 0.000000 0.000000 

0.000000 0.000000 0.000000 
0.000000 0.000000 0.000000 
0.000000 0.000000 0.000000 

-0.000000 0.000000 0.000000 
0.000000 -0.000000 0.000000 
0.000000 0.000000 0.000000 

0.000000 0.000000 0.000000 
0.000000 0.000000 0.000000 
0.000000 0.000000 0.000000 

-0.000000 -0.000000 0.000000 
0.000000 -0.000000 0.000000 
0.000000 0.000000 0.000000 

-0.000000 0.000000 0.000000 
0.000000 -0.000000 0.000000 
0.000000 0.000000 0.000000 

-0.000000 0.000000 0.000000 
0.000000 -0.000000 0.000000 
0.000000 0.000000 0.000000 

0.000000 -0.000000 0.000000 
0.000000 0.000000 0.000000 
0.000000 0.000000 0.000000 

-0.000000 -0.000000 0.000000 
0.000000 -0.000000 0.000000 
0.000000 0.000000 0.000000 

-0.000000 -0.000000 0.000000 
0.000000 -0.000000 0.000000 
0.000000 0.000000 0.000000 

-0.000000 -0.000000 0.000000 
0.000000 -0.000000 0.000000 
0.000000 0.000000 0.000000 

0.000000 -0.000000 0.000000 
0.000000 0.000000 0.000000 
0.000000 0.000000 0.000000 

0.000000 -0.000000 0.000000 
0.000000 0.000000 0.000000 
0.000000 0.000000 0.000000 

-0.000000 -0.000000 0.000000 
0.000000 -0.000000 0.000000 
0.000000 0.000000 0.000000 

0.000000 0.000000 0.000000 
0.000000 0.000000 0.000000 
0.000000 0.000000 0.000000 

0.000000 0.000000 0.000000 
0.000000 0.000000 0.000000 
0.000000 0.000000 0.000000 

-0.000000 0.000000 0.000000 
0.000000 0.000000 0.000000 
0.000000 0.000000 0.000000 

-0.000000 0.000000 0.000000 
0.000000 -0.000000 0.000000 
0.000000 0.000000 0.000000 

0.000000 0.000000 0.000000 
0.000000 0.000000 0.000000 
0.000000 0.000000 0.000000 

0.000000 0.000000 0.000000 
0.000000 0.000000 0.000000 
0.000000 0.000000 0.000000 

-0.000000 0.000000 0.000000 
0.000000 -0.000000 0.000000 
0.000000 0.000000 0.000000 

0.000000 -0.000000 0.000000 
0.000000 0.000000 0.000000 
0.000000 0.000000 0.000000 

-0.000000 0.000000 0.000000 
0.000000 -0.000000 0.000000 
0.000000 0.000000 0.000000 

0.000000 0.000000 0.000000 
0.000000 0.000000 0.000000 
0.000000 0.000000 0.000000 

0.000000 0.000000 0.000000 
0.000000 0.000000 0.000000 
0.000000 0.000000 0.000000 

0.000000 -0.000000 0.000000 
0.000000 0.000000 0.000000 
0.000000 0.000000 0.000000 

-0.000000 0.000000 0.000000 
0.000000 -0.000000 0.000000 
0.000000 0.000000 0.000000 

0.000000 0.000000 0.000000 
0.000000 0.000000 0.000000 
0.000000 0.000000 0.000000 

0.000000 -0.000000 0.000000 
0.000000 0.000000 0.000000 
0.000000 0.000000 0.000000 

-0.000000 0.000000 0.000000 
0.000000 -0.000000 0.000000 
0.000000 0.000000 0.000000 

-0.000000 0.000000 0.000000 
0.000000 0.000000 0.000000 
0.000000 0.000000 0.000000 

0.000000 0.000000 0.000000 
0.000000 0.000000 0.000000 
0.000000 0.000000 0.000000 

-0.000000 0.000000 0.000000 
0.000000 -0.000000 0.000000 
0.000000 0.000000 0.000000 

-0.000000 0.000000 0.000000 
0.000000 -0.000000 0.000000 
0.000000 0.000000 0.000000 

0.000000 0.000000 0.000000 
0.000000 0.000000 0.000000 
0.000000 0.000000 0.000000 

0.000000 0.000000 0.000000 
0.000000 -0.000000 0.000000 
0.000000 0.000000 0.000000 

0.000000 -0.000000 0.000000 
0.000000 0.000000 0.000000 
0.000000 0.000000 0.000000 

-0.000000 -0.000000 0.000000 
0.000000 -0.000000 0.000000 
0.000000 0.000000 0.000000 

0.000000 -0.000000 0.000000 
0.000000 0.000000 0.000000 
0.000000 0.000000 0.000000 

0.000000 0.000000 0.000000 
0.000000 0.000000 0.000000 
0.000000 0.000000 0.000000 

0.000000 -0.000000 0.000000 
0.000000 0.000000 0.000000 
0.000000 0.000000 0.000000 

-0.000000 0.000000 0.000000 
0.000000 -0.000000 0.000000 
0.000000 0.000000 0.000000 

-0.000000 -0.000000 0.000000 
0.000000 -0.000000 0.000000 
0.000000 0.000000 0.000000 

0.000000 -0.000000 0.000000 
0.000000 0.000000 0.000000 
0.000000 0.000000 0.000000 

-0.000000 -0.000000 0.000000 
0.000000 -0.000000 0.000000 
0.000000 0.000000 0.000000 

-0.000000 -0.000000 0.000000 
0.000000 -0.000000 0.000000 
0.000000 0.000000 0.000000 

-0.000000 0.000000 0.000000 
0.000000 -0.000000 0.000000 
0.000000 0.000000 0.000000 

0.000000 0.000000 0.000000 
0.000000 0.000000 0.000000 
0.000000 0.000000 0.000000 

0.000000 -0.000000 0.000000 
0.000000 0.000000 0.000000 
0.000000 0.000000 0.000000 

0.000000 0.000000 0.000000 
0.000000 0.000000 0.000000 
0.000000 0.000000 0.000000 

-0.000000 0.000000 0.000000 
0.000000 -0.000000 0.000000 
0.000000 0.000000 0.000000 

0.000000 0.000000 0.000000 
0.000000 0.000000 0.000000 
0.000000 0.000000 0.000000 

-0.000000 0.000000 0.000000 
0.000000 -0.000000 0.000000 
0.000000 0.000000 0.000000 

-0.000000 0.000000 0.000000 
0.000000 -0.000000 0.000000 
0.000000 0.000000 0.000000 

0.000000 -0.000000 0.000000 
0.000000 0.000000 0.000000 
0.000000 0.000000 0.000000 

0.000000 -0.000000 0.000000 
0.000000 0.000000 0.000000 
0.000000 0.000000 0.000000 

-0.000000 -0.000000 0.000000 
0.000000 -0.000000 0.000000 
0.000000 0.000000 0.000000 

-0.000000 0.000000 0.000000 
0.000000 -0.000000 0.000000 
0.000000 0.000000 0.000000 

-0.000000 0.000000 0.000000 
0.000000 -0.000000 0.000000 
0.000000 0.000000 0.000000 

-0.000000 0.000000 0.000000 
0.000000 -0.000000 0.000000 
0.000000 0.000000 0.000000 

0.000000 -0.000000 0.000000 
0.000000 0.000000 0.000000 
0.000000 0.000000 0.000000 

-0.000000 -0.000000 0.000000 
0.000000 -0.000000 0.000000 
0.000000 0.000000 0.000000 

-0.000000 -0.000000 0.000000 
0.000000 -0.000000 0.000000 
0.000000 0.000000 0.000000 

-0.000000 0.000000 0.000000 
0.000000 -0.000000 0.000000 
0.000000 0.000000 0.000000 

-0.000000 0.000000 0.000000 
0.000000 -0.000000 0.000000 
0.000000 0.000000 0.000000 

-0.000000 0.000000 0.000000 
0.000000 -0.000000 0.000000 
0.000000 0.000000 0.000000 

-0.000000 0.000000 0.000000 
0.000000 -0.000000 0.000000 
0.000000 0.000000 0.000000 

-0.000000 -0.000000 0.000000 
0.000000 -0.000000 0.000000 
0.000000 0.000000 0.000000 

-0.000000 0.000000 0.000000 
0.000000 -0.000000 0.000000 
0.000000 0.000000 0.000000 

-0.000000 -0.000000 0.000000 
0.000000 -0.000000 0.000000 
0.000000 0.000000 0.000000 

-0.000000 0.000000 0.000000 
0.000000 -0.000000 0.000000 
0.000000 0.000000 0.000000 

-0.000000 -0.000000 0.000000 
0.000000 -0.000000 0.000000 
0.000000 0.000000 0.000000 

-0.000000 -0.000000 0.000000 
0.000000 -0.000000 0.000000 
0.000000 0.000000 0.000000 

0.000000 -0.000000 0.000000 
0.000000 0.000000 0.000000 
0.000000 0.000000 0.000000 

0.000000 -0.000000 0.000000 
0.000000 0.000000 0.000000 
0.000000 0.000000 0.000000 

0.000000 -0.000000 0.000000 
0.000000 0.000000 0.000000 
0.000000 0.000000 0.000000 

-0.000000 -0.000000 0.000000 
0.000000 -0.000000 0.000000 
0.000000 0.000000 0.000000 

0.000000 -0.000000 0.000000 
0.000000 0.000000 0.000000 
0.000000 0.000000 0.000000 

0.000000 -0.000000 0.000000 
0.000000 0.000000 0.000000 
0.000000 0.000000 0.000000 

-0.000000 0.000000 0.000000 
0.000000 -0.000000 0.000000 
0.000000 0.000000 0.000000 

0.000000 0.000000 0.000000 
0.000000 0.000000 0.000000 
0.000000 0.000000 0.000000 

0.000000 0.000000 0.000000 
0.000000 0.000000 0.000000 
0.000000 0.000000 0.000000 

-0.000000 0.000000 0.000000 
0.000000 -0.000000 0.000000 
0.000000 0.000000 0.000000 

-0.000000 0.000000 0.000000 
0.000000 0.000000 0.000000 
0.000000 0.000000 0.000000 

-0.000000 0.000000 0.000000 
0.000000 -0.000000 0.000000 
0.000000 0.000000 0.000000 

0.000000 0.000000 0.000000 
0.000000 0.000000 0.000000 
0.000000 0.000000 0.000000 

-0.000000 0.000000 0.000000 
0.000000 -0.000000 0.000000 
0.000000 0.000000 0.000000 

0.000000 0.000000 0.000000 
0.000000 0.000000 0.000000 
0.000000 0.000000 0.000000 

-0.000000 0.000000 0.000000 
0.000000 -0.000000 0.000000 
0.000000 0.000000 0.000000 

0.000000 0.000000 0.000000 
0.000000 0.000000 0.000000 
0.000000 0.000000 0.000000 

-0.000000 0.000000 0.000000 
0.000000 -0.000000 0.000000 
0.000000 0.000000 0.000000 

-0.000000 -0.000000 0.000000 
0.000000 -0.000000 0.000000 
0.000000 0.000000 0.000000 

-0.000000 -0.000000 0.000000 
0.000000 -0.000000 0.000000 
0.000000 0.000000 0.000000 

0.000000 0.000000 0.000000 
0.000000 0.000000 0.000000 
0.000000 0.000000 0.000000 

0.000000 -0.000000 0.000000 
0.000000 0.000000 0.000000 
0.000000 0.000000 0.000000 

-0.000000 -0.000000 0.000000 
0.000000 -0.000000 0.000000 
0.000000 0.000000 0.000000 

0.000000 -0.000000 0.000000 
0.000000 0.000000 0.000000 
0.000000 0.000000 0.000000 

-0.000000 0.000000 0.000000 
0.000000 -0.000000 0.000000 
0.000000 0.000000 0.000000 

-0.000000 0.000000 0.000000 
0.000000 -0.000000 0.000000 
0.000000 0.000000 0.000000 

-0.000000 0.000000 0.000000 
0.000000 -0.000000 0.000000 
0.000000 0.000000 0.000000 

0.000000 0.000000 0.000000 
0.000000 0.000000 0.000000 
0.000000 0.000000 0.000000 

0.000000 -0.000000 0.000000 
0.000000 0.000000 0.000000 
0.000000 0.000000 0.000000 

-0.000000 -0.000000 0.000000 
0.000000 -0.000000 0.000000 
0.000000 0.000000 0.000000 

-0.000000 -0.000000 0.000000 
0.000000 -0.000000 0.000000 
0.000000 0.000000 0.000000 

0.000000 0.000000 0.000000 
0.000000 0.000000 0.000000 
0.000000 0.000000 0.000000 

-0.000000 -0.000000 0.000000 
0.000000 -0.000000 0.000000 
0.000000 0.000000 0.000000 

0.000000 -0.000000 0.000000 
0.000000 0.000000 0.000000 
0.000000 0.000000 0.000000 

0.000000 0.000000 0.000000 
0.000000 0.000000 0.000000 
0.000000 0.000000 0.000000 

0.000000 0.000000 0.000000 
0.000000 0.000000 0.000000 
0.000000 0.000000 0.000000 

0.000000 0.000000 0.000000 
0.000000 0.000000 0.000000 
0.000000 0.000000 0.000000 

-0.000000 -0.000000 0.000000 
0.000000 -0.000000 0.000000 
0.000000 0.000000 0.000000 

0.000000 -0.000000 0.000000 
0.000000 0.000000 0.000000 
0.000000 0.000000 0.000000 

0.000000 -0.000000 0.000000 
0.000000 -0.000000 0.000000 
0.000000 0.000000 0.000000 

0.000000 0.000000 0.000000 
0.000000 0.000000 0.000000 
0.000000 0.000000 0.000000 

0.000000 -0.000000 0.000000 
0.000000 0.000000 0.000000 
0.000000 0.000000 0.000000 

0.000000 0.000000 0.000000 
0.000000 0.000000 0.000000 
0.000000 0.000000 0.000000 

0.000000 0.000000 0.000000 
0.000000 0.000000 0.000000 
0.000000 0.000000 0.000000 

-0.000000 0.000000 0.000000 
0.000000 -0.000000 0.000000 
0.000000 0.000000 0.000000 

-0.000000 -0.000000 0.000000 
0.000000 -0.000000 0.000000 
0.000000 0.000000 0.000000 

-0.000000 -0.000000 0.000000 
0.000000 -0.000000 0.000000 
0.000000 0.000000 0.000000 

0.000000 0.000000 0.000000 
0.000000 0.000000 0.000000 
0.000000 0.000000 0.000000 

-0.000000 -0.000000 0.000000 
0.000000 -0.000000 0.000000 
0.000000 0.000000 0.000000 

0.000000 0.000000 0.000000 
0.000000 0.000000 0.000000 
0.000000 0.000000 0.000000 

0.000000 0.000000 0.000000 
0.000000 0.000000 0.000000 
0.000000 0.000000 0.000000 

0.000000 0.000000 0.000000 
0.000000 0.000000 0.000000 
0.000000 0.000000 0.000000 

0.000000 -0.000000 0.000000 
0.000000 0.000000 0.000000 
0.000000 0.000000 0.000000 

0.000000 0.000000 0.000000 
0.000000 0.000000 0.000000 
0.000000 0.000000 0.000000 

0.000000 0.000000 0.000000 
0.000000 0.000000 0.000000 
0.000000 0.000000 0.000000 

0.000000 -0.000000 0.000000 
0.000000 0.000000 0.000000 
0.000000 0.000000 0.000000 

0.000000 -0.000000 0.000000 
0.000000 0.000000 0.000000 
0.000000 0.000000 0.000000 

-0.000000 0.000000 0.000000 
0.000000 -0.000000 0.000000 
0.000000 0.000000 0.000000 

0.000000 -0.000000 0.000000 
0.000000 0.000000 0.000000 
0.000000 0.000000 0.000000 

0.000000 -0.000000 0.000000 
0.000000 0.000000 0.000000 
0.000000 0.000000 0.000000 

-0.000000 0.000000 0.000000 
0.000000 -0.000000 0.000000 
0.000000 0.000000 0.000000 

0.000000 0.000000 0.000000 
0.000000 0.000000 0.000000 
0.000000 0.000000 0.000000 

-0.000000 0.000000 0.000000 
0.000000 -0.000000 0.000000 
0.000000 0.000000 0.000000 

-0.000000 0.000000 0.000000 
0.000000 -0.000000 0.000000 
0.000000 0.000000 0.000000 

-0.000000 0.000000 0.000000 
0.000000 -0.000000 0.000000 
0.000000 0.000000 0.000000 

0.000000 0.000000 0.000000 
0.000000 0.000000 0.000000 
0.000000 0.000000 0.000000 

-0.000000 0.000000 0.000000 
0.000000 -0.000000 0.000000 
0.000000 0.000000 0.000000 

0.000000 0.000000 0.000000 
0.000000 0.000000 0.000000 
0.000000 0.000000 0.000000 

0.000000 0.000000 0.000000 
0.000000 0.000000 0.000000 
0.000000 0.000000 0.000000 

0.000000 -0.000000 0.000000 
0.000000 0.000000 0.000000 
0.000000 0.000000 0.000000 

0.000000 0.000000 0.000000 
0.000000 0.000000 0.000000 
0.000000 0.000000 0.000000 

-0.000000 0.000000 0.000000 
0.000000 -0.000000 0.000000 
0.000000 0.000000 0.000000 

-0.000000 0.000000 0.000000 
0.000000 -0.000000 0.000000 
0.000000 0.000000 0.000000 

-0.000000 0.000000 0.000000 
0.000000 -0.000000 0.000000 
0.000000 0.000000 0.000000 

0.000000 0.000000 0.000000 
0.000000 0.000000 0.000000 
0.000000 0.000000 0.000000 

0.000000 0.000000 0.000000 
0.000000 0.000000 0.000000 
0.000000 0.000000 0.000000 

0.000000 -0.000000 0.000000 
0.000000 0.000000 0.000000 
0.000000 0.000000 0.000000 

0.000000 -0.000000 0.000000 
0.000000 0.000000 0.000000 
0.000000 0.000000 0.000000 

-0.000000 0.000000 0.000000 
0.000000 -0.000000 0.000000 
0.000000 0.000000 0.000000 

0.000000 0.000000 0.000000 
0.000000 0.000000 0.000000 
0.000000 0.000000 0.000000 

0.000000 -0.000000 0.000000 
0.000000 -0.000000 0.000000 
0.000000 0.000000 0.000000 

0.000000 0.000000 0.000000 
0.000000 -0.000000 0.000000 
0.000000 0.000000 0.000000 

-0.000000 0.000000 0.000000 
0.000000 -0.000000 0.000000 
0.000000 0.000000 0.000000 

0.000000 -0.000000 0.000000 
0.000000 0.000000 0.000000 
0.000000 0.000000 0.000000 

0.000000 0.000000 0.000000 
0.000000 0.000000 0.000000 
0.000000 0.000000 0.000000 

0.000000 0.000000 0.000000 
0.000000 -0.000000 0.000000 
0.000000 0.000000 0.000000 

0.000000 0.000000 0.000000 
0.000000 0.000000 0.000000 
0.000000 0.000000 0.000000 

0.000000 -0.000000 0.000000 
0.000000 0.000000 0.000000 
0.000000 0.000000 0.000000 

0.000000 0.000000 0.000000 
0.000000 0.000000 0.000000 
0.000000 0.000000 0.000000 

0.000000 0.000000 0.000000 
0.000000 -0.000000 0.000000 
0.000000 0.000000 0.000000 

TENSORS STRAIN float 
0.000000 -0.000000 0.000000 
0.000000 -0.000000 0.000000 
0.000000 0.000000 0.000000 

-0.000000 0.000000 0.000000 
0.000000 -0.000000 0.000000 
0.000000 0.000000 0.000000 

0.000000 0.000000 0.000000 
0.000000 -0.000000 0.000000 
0.000000 0.000000 0.000000 

0.000000 0.000000 0.000000 
0.000000 -0.000000 0.000000 
0.000000 0.000000 0.000000 

0.000000 0.000000 0.000000 
0.000000 0.000000 0.000000 
0.000000 0.000000 0.000000 

-0.000000 0.000000 0.000000 
0.000000 0.000000 0.000000 
0.000000 0.000000 0.000000 

0.000000 0.000000 0.000000 
0.000000 0.000000 0.000000 
0.000000 0.000000 0.000000 

0.000000 0.000000 0.000000 
0.000000 0.000000 0.000000 
0.000000 0.000000 0.000000 

0.000000 -0.000000 0.000000 
0.000000 -0.000000 0.000000 
0.000000 0.000000 0.000000 

-0.000000 -0.000000 0.000000 
0.000000 0.000000 0.000000 
0.000000 0.000000 0.000000 

0.000000 -0.000000 0.000000 
0.000000 -0.000000 0.000000 
0.000000 0.000000 0.000000 

0.000000 0.000000 0.000000 
0.000000 0.000000 0.000000 
0.000000 0.000000 0.000000 

0.000000 0.000000 0.000000 
0.000000 -0.000000 0.000000 
0.000000 0.000000 0.000000 

0.000000 0.000000 0.000000 
0.000000 0.000000 0.000000 
0.000000 0.000000 0.000000 

0.000000 0.000000 0.000000 
0.000000 -0.000000 0.000000 
0.000000 0.000000 0.000000 

0.000000 0.000000 0.000000 
0.000000 0.000000 0.000000 
0.000000 0.000000 0.000000 

0.000000 -0.000000 0.000000 
0.000000 -0.000000 0.000000 
0.000000 0.000000 0.000000 

0.000000 0.000000 0.000000 
0.000000 -0.000000 0.000000 
0.000000 0.000000 0.000000 

0.000000 0.000000 0.000000 
0.000000 -0.000000 0.000000 
0.000000 0.000000 0.000000 

0.000000 -0.000000 0.000000 
0.000000 -0.000000 0.000000 
0.000000 0.000000 0.000000 

0.000000 -0.000000 0.000000 
0.000000 -0.000000 0.000000 
0.000000 0.000000 0.000000 

-0.000000 -0.000000 0.000000 
0.000000 -0.000000 0.000000 
0.000000 0.000000 0.000000 

0.000000 -0.000000 0.000000 
0.000000 -0.000000 0.000000 
0.000000 0.000000 0.000000 

0.000000 -0.000000 0.000000 
0.000000 0.000000 0.000000 
0.000000 0.000000 0.000000 

0.000000 -0.000000 0.000000 
0.000000 -0.000000 0.000000 
0.000000 0.000000 0.000000 

0.000000 -0.000000 0.000000 
0.000000 -0.000000 0.000000 
0.000000 0.000000 0.000000 

0.000000 0.000000 0.000000 
0.000000 0.000000 0.000000 
0.000000 0.000000 0.000000 

-0.000000 0.000000 0.000000 
0.000000 0.000000 0.000000 
0.000000 0.000000 0.000000 

-0.000000 0.000000 0.000000 
0.000000 0.000000 0.000000 
0.000000 0.000000 0.000000 

-0.000000 0.000000 0.000000 
0.000000 -0.000000 0.000000 
0.000000 0.000000 0.000000 

-0.000000 0.000000 0.000000 
0.000000 0.000000 0.000000 
0.000000 0.000000 0.000000 

0.000000 0.000000 0.000000 
0.000000 0.000000 0.000000 
0.000000 0.000000 0.000000 

-0.000000 0.000000 0.000000 
0.000000 0.000000 0.000000 
0.000000 0.000000 0.000000 

-0.000000 -0.000000 0.000000 
0.000000 0.000000 0.000000 
0.000000 0.000000 0.000000 

-0.000000 0.000000 0.000000 
0.000000 -0.000000 0.000000 
0.000000 0.000000 0.000000 

-0.000000 0.000000 0.000000 
0.000000 0.000000 0.000000 
0.000000 0.000000 0.000000 

-0.000000 0.000000 0.000000 
0.000000 0.000000 0.000000 
0.000000 0.000000 0.000000 

0.000000 -0.000000 0.000000 
0.000000 0.000000 0.000000 
0.000000 0.000000 0.000000 

0.000000 0.000000 0.000000 
0.000000 -0.000000 0.000000 
0.000000 0.000000 0.000000 

0.000000 0.000000 0.000000 
0.000000 0.000000 0.000000 
0.000000 0.000000 0.000000 

-0.000000 -0.000000 0.000000 
0.000000 0.000000 0.000000 
0.000000 0.000000 0.000000 

-0.000000 0.000000 0.000000 
0.000000 0.000000 0.000000 
0.000000 0.000000 0.000000 

-0.000000 0.000000 0.000000 
0.000000 0.000000 0.000000 
0.000000 0.000000 0.000000 

-0.000000 0.000000 0.000000 
0.000000 0.000000 0.000000 
0.000000 0.000000 0.000000 

-0.000000 0.000000 0.000000 
0.000000 -0.000000 0.000000 
0.000000 0.000000 0.000000 

-0.000000 0.000000 0.000000 
0.000000 0.000000 0.000000 
0.000000 0.000000 0.000000 

0.000000 0.000000 0.000000 
0.000000 0.000000 0.000000 
0.000000 0.000000 0.000000 

0.000000 0.000000 0.000000 
0.000000 -0.000000 0.000000 
0.000000 0.000000 0.000000 

-0.000000 -0.000000 0.000000 
0.000000 0.000000 0.000000 
0.000000 0.000000 0.000000 

0.000000 -0.000000 0.000000 
0.000000 -0.000000 0.000000 
0.000000 0.000000 0.000000 

-0.000000 -0.000000 0.000000 
0.000000 0.000000 0.000000 
0.000000 0.000000 0.000000 

0.000000 0.000000 0.000000 
0.000000 0.000000 0.000000 
0.000000 0.000000 0.000000 

0.000000 -0.000000 0.000000 
0.000000 0.000000 0.000000 
0.000000 0.000000 0.000000 

0.000000 0.000000 0.000000 
0.000000 -0.000000 0.000000 
0.000000 0.000000 0.000000 

0.000000 -0.000000 0.000000 
0.000000 -0.000000 0.000000 
0.000000 0.000000 0.000000 

0.000000 -0.000000 0.000000 
0.000000 0.000000 0.000000 
0.000000 0.000000 0.000000 

0.000000 -0.000000 0.000000 
0.000000 -0.000000 0.000000 
0.000000 0.000000 0.000000 

0.000000 -0.000000 0.000000 
0.000000 -0.000000 0.000000 
0.000000 0.000000 0.000000 

-0.000000 0.000000 0.000000 
0.000000 -0.000000 0.000000 
0.000000 0.000000 0.000000 

0.000000 0.000000 0.000000 
0.000000 0.000000 0.000000 
0.000000 0.000000 0.000000 

0.000000 -0.000000 0.000000 
0.000000 0.000000 0.000000 
0.000000 0.000000 0.000000 

-0.000000 0.000000 0.000000 
0.000000 0.000000 0.000000 
0.000000 0.000000 0.000000 

-0.000000 0.000000 0.000000 
0.000000 -0.000000 0.000000 
0.000000 0.000000 0.000000 

-0.000000 0.000000 0.000000 
0.000000 0.000000 0.000000 
0.000000 0.000000 0.000000 

-0.000000 0.000000 0.000000 
0.000000 -0.000000 0.000000 
0.000000 0.000000 0.000000 

-0.000000 0.000000 0.000000 
0.000000 -0.000000 0.000000 
0.000000 0.000000 0.000000 

-0.000000 -0.000000 0.000000 
0.000000 0.000000 0.000000 
0.000000 0.000000 0.000000 

-0.000000 -0.000000 0.000000 
0.000000 0.000000 0.000000 
0.000000 0.000000 0.000000 

-0.000000 -0.000000 0.000000 
0.000000 0.000000 0.000000 
0.000000 0.000000 0.000000 

-0.000000 0.000000 0.000000 
0.000000 0.000000 0.000000 
0.000000 0.000000 0.000000 

-0.000000 0.000000 0.000000 
0.000000 -0.000000 0.000000 
0.000000 0.000000 0.000000 

-0.000000 0.000000 0.000000 
0.000000 0.000000 0.000000 
0.000000 0.000000 0.000000 

0.000000 -0.000000 0.000000 
0.000000 -0.000000 0.000000 
0.000000 0.000000 0.000000 

-0.000000 -0.000000 0.000000 
0.000000 0.000000 0.000000 
0.000000 0.000000 0.000000 

-0.000000 -0.000000 0.000000 
0.000000 -0.000000 0.000000 
0.000000 0.000000 0.000000 

-0.000000 0.000000 0.000000 
0.000000 -0.000000 0.000000 
0.000000 0.000000 0.000000 

-0.000000 0.000000 0.000000 
0.000000 0.000000 0.000000 
0.000000 0.000000 0.000000 

-0.000000 0.000000 0.000000 
0.000000 -0.000000 0.000000 
0.000000 0.000000 0.000000 

-0.000000 0.000000 0.000000 
0.000000 0.000000 0.000000 
0.000000 0.000000 0.000000 

-0.000000 -0.000000 0.000000 
0.000000 0.000000 0.000000 
0.000000 0.000000 0.000000 

-0.000000 0.000000 0.000000 
0.000000 -0.000000 0.000000 
0.000000 0.000000 0.000000 

-0.000000 -0.000000 0.000000 
0.000000 -0.000000 0.000000 
0.000000 0.000000 0.000000 

-0.000000 0.000000 0.000000 
0.000000 -0.000000 0.000000 
0.000000 0.000000 0.000000 

0.000000 -0.000000 0.000000 
0.000000 -0.000000 0.000000 
0.000000 0.000000 0.000000 

-0.000000 -0.000000 0.000000 
0.000000 -0.000000 0.000000 
0.000000 0.000000 0.000000 

-0.000000 -0.000000 0.000000 
0.000000 0.000000 0.000000 
0.000000 0.000000 0.000000 

-0.000000 -0.000000 0.000000 
0.000000 0.000000 0.000000 
0.000000 0.000000 0.000000 

-0.000000 -0.000000 0.000000 
0.000000 0.000000 0.000000 
0.000000 0.000000 0.000000 

-0.000000 -0.000000 0.000000 
0.000000 -0.000000 0.000000 
0.000000 0.000000 0.000000 

0.000000 -0.000000 0.000000 
0.000000 0.000000 0.000000 
0.000000 0.000000 0.000000 

0.000000 -0.000000 0.000000 
0.000000 0.000000 0.000000 
0.000000 0.000000 0.000000 

0.000000 0.000000 0.000000 
0.000000 -0.000000 0.000000 
0.000000 0.000000 0.000000 

0.000000 0.000000 0.000000 
0.000000 0.000000 0.000000 
0.000000 0.000000 0.000000 

0.000000 0.000000 0.000000 
0.000000 -0.000000 0.000000 
0.000000 0.000000 0.000000 

-0.000000 0.000000 0.000000 
0.000000 0.000000 0.000000 
0.000000 0.000000 0.000000 

-0.000000 0.000000 0.000000 
0.000000 0.000000 0.000000 
0.000000 0.000000 0.000000 

-0.000000 0.000000 0.000000 
0.000000 0.000000 0.000000 
0.000000 0.000000 0.000000 

-0.000000 0.000000 0.000000 
0.000000 0.000000 0.000000 
0.000000 0.000000 0.000000 

-0.000000 0.000000 0.000000 
0.000000 -0.000000 0.000000 
0.000000 0.000000 0.000000 

-0.000000 0.000000 0.000000 
0.000000 0.000000 0.000000 
0.000000 0.000000 0.000000 

-0.000000 0.000000 0.000000 
0.000000 -0.000000 0.000000 
0.000000 0.000000 0.000000 

0.000000 0.000000 0.000000 
0.000000 0.000000 0.000000 
0.000000 0.000000 0.000000 

0.000000 0.000000 0.000000 
0.000000 -0.000000 0.000000 
0.000000 0.000000 0.000000 

0.000000 -0.000000 0.000000 
0.000000 -0.000000 0.000000 
0.000000 0.000000 0.000000 

-0.000000 -0.000000 0.000000 
0.000000 -0.000000 0.000000 
0.000000 0.000000 0.000000 

0.000000 0.000000 0.000000 
0.000000 0.000000 0.000000 
0.000000 0.000000 0.000000 

-0.000000 -0.000000 0.000000 
0.000000 0.000000 0.000000 
0.000000 0.000000 0.000000 

-0.000000 -0.000000 0.000000 
0.000000 -0.000000 0.000000 
0.000000 0.000000 0.000000 

-0.000000 -0.000000 0.000000 
0.000000 0.000000 0.000000 
0.000000 0.000000 0.000000 

-0.000000 0.000000 0.000000 
0.000000 -0.000000 0.000000 
0.000000 0.000000 0.000000 

-0.000000 0.000000 0.000000 
0.000000 0.000000 0.000000 
0.000000 0.000000 0.000000 

-0.000000 0.000000 0.000000 
0.000000 -0.000000 0.000000 
0.000000 0.000000 0.000000 

0.000000 0.000000 0.000000 
0.000000 0.000000 0.000000 
0.000000 0.000000 0.000000 

0.000000 -0.000000 0.000000 
0.000000 0.000000 0.000000 
0.000000 0.000000 0.000000 

-0.000000 -0.000000 0.000000 
0.000000 -0.000000 0.000000 
0.000000 0.000000 0.000000 

-0.000000 -0.000000 0.000000 
0.000000 -0.000000 0.000000 
0.000000 0.000000 0.000000 

0.000000 0.000000 0.000000 
0.000000 0.000000 0.000000 
0.000000 0.000000 0.000000 

0.000000 -0.000000 0.000000 
0.000000 -0.000000 0.000000 
0.000000 0.000000 0.000000 

0.000000 -0.000000 0.000000 
0.000000 -0.000000 0.000000 
0.000000 0.000000 0.000000 

0.000000 0.000000 0.000000 
0.000000 0.000000 0.000000 
0.000000 0.000000 0.000000 

0.000000 0.000000 0.000000 
0.000000 -0.000000 0.000000 
0.000000 0.000000 0.000000 

0.000000 0.000000 0.000000 
0.000000 0.000000 0.000000 
0.000000 0.000000 0.000000 

0.000000 -0.000000 0.000000 
0.000000 -0.000000 0.000000 
0.000000 0.000000 0.000000 

0.000000 -0.000000 0.000000 
0.000000 -0.000000 0.000000 
0.000000 0.000000 0.000000 

0.000000 -0.000000 0.000000 
0.000000 -0.000000 0.000000 
0.000000 0.000000 0.000000 

0.000000 0.000000 0.000000 
0.000000 0.000000 0.000000 
0.000000 0.000000 0.000000 

-0.000000 -0.000000 0.000000 
0.000000 0.000000 0.000000 
0.000000 0.000000 0.000000 

0.000000 0.000000 0.000000 
0.000000 0.000000 0.000000 
0.000000 0.000000 0.000000 

0.000000 0.000000 0.000000 
0.000000 0.000000 0.000000 
0.000000 0.000000 0.000000 

-0.000000 0.000000 0.000000 
0.000000 -0.000000 0.000000 
0.000000 0.000000 0.000000 

-0.000000 -0.000000 0.000000 
0.000000 0.000000 0.000000 
0.000000 0.000000 0.000000 

0.000000 -0.000000 0.000000 
0.000000 -0.000000 0.000000 
0.000000 0.000000 0.000000 

0.000000 0.000000 0.000000 
0.000000 -0.000000 0.000000 
0.000000 0.000000 0.000000 

-0.000000 -0.000000 0.000000 
0.000000 -0.000000 0.000000 
0.000000 0.000000 0.000000 

0.000000 0.000000 0.000000 
0.000000 -0.000000 0.000000 
0.000000 0.000000 0.000000 

0.000000 0.000000 0.000000 
0.000000 -0.000000 0.000000 
0.000000 0.000000 0.000000 

0.000000 0.000000 0.000000 
0.000000 -0.000000 0.000000 
0.000000 0.000000 0.000000 

0.000000 -0.000000 0.000000 
0.000000 0.000000 0.000000 
0.000000 0.000000 0.000000 

0.000000 0.000000 0.000000 
0.000000 0.000000 0.000000 
0.000000 0.000000 0.000000 

-0.000000 0.000000 0.000000 
0.000000 0.000000 0.000000 
0.000000 0.000000 0.000000 

-0.000000 -0.000000 0.000000 
0.000000 0.000000 0.000000 
0.000000 0.000000 0.000000 

0.000000 -0.000000 0.000000 
0.000000 0.000000 0.000000 
0.000000 0.000000 0.000000 

0.000000 0.000000 0.000000 
0.000000 -0.000000 0.000000 
0.000000 0.000000 0.000000 

0.000000 -0.000000 0.000000 
0.000000 -0.000000 0.000000 
0.000000 0.000000 0.000000 

0.000000 -0.000000 0.000000 
0.000000 -0.000000 0.000000 
0.000000 0.000000 0.000000 

0.000000 0.000000 0.000000 
0.000000 -0.000000 0.000000 
0.000000 0.000000 0.000000 

0.000000 0.000000 0.000000 
0.000000 0.000000 0.000000 
0.000000 0.000000 0.000000 

-0.000000 0.000000 0.000000 
0.000000 -0.000000 0.000000 
0.000000 0.000000 0.000000 

-0.000000 0.000000 0.000000 
0.000000 0.000000 0.000000 
0.000000 0.000000 0.000000 

-0.000000 0.000000 0.000000 
0.000000 -0.000000 0.000000 
0.000000 0.000000 0.000000 

0.000000 0.000000 0.000000 
0.000000 -0.000000 0.000000 
0.000000 0.000000 0.000000 

0.000000 0.000000 0.000000 
0.000000 -0.000000 0.000000 
0.000000 0.000000 0.000000 

0.000000 0.000000 0.000000 
0.000000 -0.000000 0.000000 
0.000000 0.000000 0.000000 

-0.000000 0.000000 0.000000 
0.000000 0.000000 0.000000 
0.000000 0.000000 0.000000 

0.000000 -0.000000 0.000000 
0.000000 0.000000 0.000000 
0.000000 0.000000 0.000000 

0.000000 0.000000 0.000000 
0.000000 0.000000 0.000000 
0.000000 0.000000 0.000000 

0.000000 0.000000 0.000000 
0.000000 -0.000000 0.000000 
0.000000 0.000000 0.000000 

0.000000 0.000000 0.000000 
0.000000 -0.000000 0.000000 
0.000000 0.000000 0.000000 

0.000000 0.000000 0.000000 
0.000000 -0.000000 0.000000 
0.000000 0.000000 0.000000 

0.000000 0.000000 0.000000 
0.000000 0.000000 0.000000 
0.000000 0.000000 0.000000 

0.000000 0.000000 0.000000 
0.000000 -0.000000 0.000000 
0.000000 0.000000 0.000000 

0.000000 -0.000000 0.000000 
0.000000 0.000000 0.000000 
0.000000 0.000000 0.000000 

0.000000 -0.000000 0.000000 
0.000000 -0.000000 0.000000 
0.000000 0.000000 0.000000 

0.000000 0.000000 0.000000 
0.000000 -0.000000 0.000000 
0.000000 0.000000 0.000000 

0.000000 0.000000 0.000000 
0.000000 0.000000 0.000000 
0.000000 0.000000 0.000000 

0.000000 -0.000000 0.000000 
0.000000 -0.000000 0.000000 
0.000000 0.000000 0.000000 

0.000000 0.000000 0.000000 
0.000000 -0.000000 0.000000 
0.000000 0.000000 0.000000 

0.000000 0.000000 0.000000 
0.000000 -0.000000 0.000000 
0.000000 0.000000 0.000000 

0.000000 -0.000000 0.000000 
0.000000 0.000000 0.000000 
0.000000 0.000000 0.000000 

0.000000 0.000000 0.000000 
0.000000 -0.000000 0.000000 
0.000000 0.000000 0.000000 

0.000000 0.000000 0.000000 
0.000000 -0.000000 0.000000 
0.000000 0.000000 0.000000 

0.000000 0.000000 0.000000 
0.000000 -0.000000 0.000000 
0.000000 0.000000 0.000000 

0.000000 -0.000000 0.000000 
0.000000 -0.000000 0.000000 
0.000000 0.000000 0.000000 

0.000000 0.000000 0.000000 
0.000000 -0.000000 0.000000 
0.000000 0.000000 0.000000 

0.000000 0.000000 0.000000 
0.000000 -0.000000 0.000000 
0.000000 0.000000 0.000000 

