# vtk DataFile Version 3.0 
vtk output 
ASCII 
DATASET UNSTRUCTURED_GRID 
POINTS 175 float 
-0.026061 -1.636570 0.000000 
-0.106992 -1.568515 0.000000 
-0.054870 -1.576748 0.000000 
-0.028809 -1.530864 0.000000 
-0.186430 -1.504440 0.000000 
-0.137056 -1.506966 0.000000 
-0.114311 -1.453318 0.000000 
-0.058186 -1.468984 0.000000 
-0.029377 -1.428807 0.000000 
-0.265318 -1.441284 0.000000 
-0.217198 -1.442083 0.000000 
-0.196633 -1.384787 0.000000 
-0.143120 -1.393496 0.000000 
-0.116563 -1.346227 0.000000 
-0.058945 -1.365873 0.000000 
-0.029568 -1.327753 0.000000 
-0.344206 -1.378128 0.000000 
-0.296791 -1.378121 0.000000 
-0.278030 -1.318178 0.000000 
-0.225992 -1.324044 0.000000 
-0.201664 -1.271927 0.000000 
-0.145749 -1.285401 0.000000 
-0.117890 -1.241059 0.000000 
-0.059328 -1.263764 0.000000 
-0.029759 -1.226699 0.000000 
-0.058559 -1.677321 0.000000 
-0.162226 -1.698164 0.000000 
-0.123292 -1.662546 0.000000 
-0.142917 -1.613563 0.000000 
-0.261851 -1.720320 0.000000 
-0.229092 -1.683293 0.000000 
-0.256854 -1.632062 0.000000 
-0.209613 -1.597949 0.000000 
-0.223062 -1.550375 0.000000 
-0.360414 -1.742620 0.000000 
-0.329787 -1.705498 0.000000 
-0.361761 -1.653695 0.000000 
-0.321587 -1.617287 0.000000 
-0.341985 -1.567053 0.000000 
-0.290702 -1.534254 0.000000 
-0.302189 -1.487518 0.000000 
-0.458977 -1.764921 0.000000 
-0.429420 -1.727846 0.000000 
-0.464588 -1.675804 0.000000 
-0.427556 -1.638777 0.000000 
-0.453135 -1.587262 0.000000 
-0.407738 -1.551947 0.000000 
-0.425037 -1.502518 0.000000 
-0.370772 -1.470889 0.000000 
-0.381315 -1.424662 0.000000 
-0.046960 -1.728136 0.000000 
-0.095301 -1.822182 0.000000 
-0.098873 -1.769535 0.000000 
-0.149405 -1.754338 0.000000 
-0.140093 -1.913886 0.000000 
-0.148617 -1.865188 0.000000 
-0.205981 -1.854951 0.000000 
-0.203197 -1.796747 0.000000 
-0.248777 -1.777601 0.000000 
-0.184111 -2.004850 0.000000 
-0.194039 -1.957759 0.000000 
-0.254475 -1.950459 0.000000 
-0.257893 -1.896349 0.000000 
-0.309886 -1.880977 0.000000 
-0.303554 -1.820432 0.000000 
-0.347255 -1.800274 0.000000 
-0.228129 -2.095814 0.000000 
-0.238687 -2.049589 0.000000 
-0.301302 -2.044637 0.000000 
-0.307162 -1.992598 0.000000 
-0.363386 -1.980477 0.000000 
-0.362692 -1.922966 0.000000 
-0.412122 -1.905673 0.000000 
-0.403017 -1.843526 0.000000 
-0.445733 -1.822947 0.000000 
-0.000000 -1.750751 0.000000 
0.043388 -1.847182 0.000000 
-0.000000 -1.817150 0.000000 
-0.043388 -1.847182 0.000000 
0.087158 -1.939379 0.000000 
0.043769 -1.915680 0.000000 
-0.000000 -1.954146 0.000000 
-0.043769 -1.915680 0.000000 
-0.087158 -1.939379 0.000000 
0.130831 -2.030508 0.000000 
0.087824 -2.008909 0.000000 
0.044436 -2.051609 0.000000 
-0.000000 -2.020544 0.000000 
-0.044436 -2.051609 0.000000 
-0.087824 -2.008909 0.000000 
-0.130831 -2.030508 0.000000 
0.174505 -2.121638 0.000000 
0.131782 -2.101072 0.000000 
0.088871 -2.146938 0.000000 
0.044532 -2.119075 0.000000 
-0.000000 -2.155475 0.000000 
-0.044532 -2.119075 0.000000 
-0.088871 -2.146938 0.000000 
-0.131782 -2.101072 0.000000 
-0.174505 -2.121638 0.000000 
0.046960 -1.728136 0.000000 
0.149405 -1.754338 0.000000 
0.098873 -1.769535 0.000000 
0.095301 -1.822182 0.000000 
0.248777 -1.777601 0.000000 
0.203197 -1.796747 0.000000 
0.205981 -1.854951 0.000000 
0.148617 -1.865188 0.000000 
0.140093 -1.913886 0.000000 
0.347255 -1.800274 0.000000 
0.303554 -1.820432 0.000000 
0.309886 -1.880977 0.000000 
0.257893 -1.896349 0.000000 
0.254475 -1.950459 0.000000 
0.194039 -1.957759 0.000000 
0.184111 -2.004850 0.000000 
0.445733 -1.822947 0.000000 
0.403017 -1.843526 0.000000 
0.412122 -1.905673 0.000000 
0.362692 -1.922966 0.000000 
0.363386 -1.980477 0.000000 
0.307162 -1.992598 0.000000 
0.301302 -2.044637 0.000000 
0.238687 -2.049589 0.000000 
0.228129 -2.095814 0.000000 
0.058559 -1.677321 0.000000 
0.142917 -1.613563 0.000000 
0.123292 -1.662546 0.000000 
0.162226 -1.698164 0.000000 
0.223062 -1.550375 0.000000 
0.209613 -1.597949 0.000000 
0.256854 -1.632062 0.000000 
0.229092 -1.683293 0.000000 
0.261851 -1.720320 0.000000 
0.302189 -1.487518 0.000000 
0.290702 -1.534254 0.000000 
0.341985 -1.567053 0.000000 
0.321587 -1.617287 0.000000 
0.361761 -1.653695 0.000000 
0.329787 -1.705498 0.000000 
0.360414 -1.742620 0.000000 
0.381315 -1.424662 0.000000 
0.370772 -1.470889 0.000000 
0.425037 -1.502518 0.000000 
0.407738 -1.551947 0.000000 
0.453135 -1.587262 0.000000 
0.427556 -1.638777 0.000000 
0.464588 -1.675804 0.000000 
0.429420 -1.727846 0.000000 
0.458977 -1.764921 0.000000 
0.026061 -1.636570 0.000000 
0.028809 -1.530864 0.000000 
0.054870 -1.576748 0.000000 
0.106992 -1.568515 0.000000 
0.029377 -1.428807 0.000000 
0.058186 -1.468984 0.000000 
0.114311 -1.453318 0.000000 
0.137056 -1.506966 0.000000 
0.186430 -1.504440 0.000000 
0.029568 -1.327753 0.000000 
0.058945 -1.365873 0.000000 
0.116563 -1.346227 0.000000 
0.143120 -1.393496 0.000000 
0.196633 -1.384787 0.000000 
0.217198 -1.442083 0.000000 
0.265318 -1.441284 0.000000 
0.029759 -1.226699 0.000000 
0.059328 -1.263764 0.000000 
0.117890 -1.241059 0.000000 
0.145749 -1.285401 0.000000 
0.201664 -1.271927 0.000000 
0.225992 -1.324044 0.000000 
0.278030 -1.318178 0.000000 
0.296791 -1.378121 0.000000 
0.344206 -1.378128 0.000000 
CELLS 175 350 
1 0 
1 1 
1 2 
1 3 
1 4 
1 5 
1 6 
1 7 
1 8 
1 9 
1 10 
1 11 
1 12 
1 13 
1 14 
1 15 
1 16 
1 17 
1 18 
1 19 
1 20 
1 21 
1 22 
1 23 
1 24 
1 25 
1 26 
1 27 
1 28 
1 29 
1 30 
1 31 
1 32 
1 33 
1 34 
1 35 
1 36 
1 37 
1 38 
1 39 
1 40 
1 41 
1 42 
1 43 
1 44 
1 45 
1 46 
1 47 
1 48 
1 49 
1 50 
1 51 
1 52 
1 53 
1 54 
1 55 
1 56 
1 57 
1 58 
1 59 
1 60 
1 61 
1 62 
1 63 
1 64 
1 65 
1 66 
1 67 
1 68 
1 69 
1 70 
1 71 
1 72 
1 73 
1 74 
1 75 
1 76 
1 77 
1 78 
1 79 
1 80 
1 81 
1 82 
1 83 
1 84 
1 85 
1 86 
1 87 
1 88 
1 89 
1 90 
1 91 
1 92 
1 93 
1 94 
1 95 
1 96 
1 97 
1 98 
1 99 
1 100 
1 101 
1 102 
1 103 
1 104 
1 105 
1 106 
1 107 
1 108 
1 109 
1 110 
1 111 
1 112 
1 113 
1 114 
1 115 
1 116 
1 117 
1 118 
1 119 
1 120 
1 121 
1 122 
1 123 
1 124 
1 125 
1 126 
1 127 
1 128 
1 129 
1 130 
1 131 
1 132 
1 133 
1 134 
1 135 
1 136 
1 137 
1 138 
1 139 
1 140 
1 141 
1 142 
1 143 
1 144 
1 145 
1 146 
1 147 
1 148 
1 149 
1 150 
1 151 
1 152 
1 153 
1 154 
1 155 
1 156 
1 157 
1 158 
1 159 
1 160 
1 161 
1 162 
1 163 
1 164 
1 165 
1 166 
1 167 
1 168 
1 169 
1 170 
1 171 
1 172 
1 173 
1 174 
CELL_TYPES 175 
1 
1 
1 
1 
1 
1 
1 
1 
1 
1 
1 
1 
1 
1 
1 
1 
1 
1 
1 
1 
1 
1 
1 
1 
1 
1 
1 
1 
1 
1 
1 
1 
1 
1 
1 
1 
1 
1 
1 
1 
1 
1 
1 
1 
1 
1 
1 
1 
1 
1 
1 
1 
1 
1 
1 
1 
1 
1 
1 
1 
1 
1 
1 
1 
1 
1 
1 
1 
1 
1 
1 
1 
1 
1 
1 
1 
1 
1 
1 
1 
1 
1 
1 
1 
1 
1 
1 
1 
1 
1 
1 
1 
1 
1 
1 
1 
1 
1 
1 
1 
1 
1 
1 
1 
1 
1 
1 
1 
1 
1 
1 
1 
1 
1 
1 
1 
1 
1 
1 
1 
1 
1 
1 
1 
1 
1 
1 
1 
1 
1 
1 
1 
1 
1 
1 
1 
1 
1 
1 
1 
1 
1 
1 
1 
1 
1 
1 
1 
1 
1 
1 
1 
1 
1 
1 
1 
1 
1 
1 
1 
1 
1 
1 
1 
1 
1 
1 
1 
1 
1 
1 
1 
1 
1 
1 
POINT_DATA 175 
VECTORS X_GC float 
-0.026061 -1.636570 0.000000 
-0.106992 -1.568515 0.000000 
-0.054870 -1.576748 0.000000 
-0.028809 -1.530864 0.000000 
-0.186430 -1.504440 0.000000 
-0.137056 -1.506966 0.000000 
-0.114311 -1.453318 0.000000 
-0.058186 -1.468984 0.000000 
-0.029377 -1.428807 0.000000 
-0.265318 -1.441284 0.000000 
-0.217198 -1.442083 0.000000 
-0.196633 -1.384787 0.000000 
-0.143120 -1.393496 0.000000 
-0.116563 -1.346227 0.000000 
-0.058945 -1.365873 0.000000 
-0.029568 -1.327753 0.000000 
-0.344206 -1.378128 0.000000 
-0.296791 -1.378121 0.000000 
-0.278030 -1.318178 0.000000 
-0.225992 -1.324044 0.000000 
-0.201664 -1.271927 0.000000 
-0.145749 -1.285401 0.000000 
-0.117890 -1.241059 0.000000 
-0.059328 -1.263764 0.000000 
-0.029759 -1.226699 0.000000 
-0.058559 -1.677321 0.000000 
-0.162226 -1.698164 0.000000 
-0.123292 -1.662546 0.000000 
-0.142917 -1.613563 0.000000 
-0.261851 -1.720320 0.000000 
-0.229092 -1.683293 0.000000 
-0.256854 -1.632062 0.000000 
-0.209613 -1.597949 0.000000 
-0.223062 -1.550375 0.000000 
-0.360414 -1.742620 0.000000 
-0.329787 -1.705498 0.000000 
-0.361761 -1.653695 0.000000 
-0.321587 -1.617287 0.000000 
-0.341985 -1.567053 0.000000 
-0.290702 -1.534254 0.000000 
-0.302189 -1.487518 0.000000 
-0.458977 -1.764921 0.000000 
-0.429420 -1.727846 0.000000 
-0.464588 -1.675804 0.000000 
-0.427556 -1.638777 0.000000 
-0.453135 -1.587262 0.000000 
-0.407738 -1.551947 0.000000 
-0.425037 -1.502518 0.000000 
-0.370772 -1.470889 0.000000 
-0.381315 -1.424662 0.000000 
-0.046960 -1.728136 0.000000 
-0.095301 -1.822182 0.000000 
-0.098873 -1.769535 0.000000 
-0.149405 -1.754338 0.000000 
-0.140093 -1.913886 0.000000 
-0.148617 -1.865188 0.000000 
-0.205981 -1.854951 0.000000 
-0.203197 -1.796747 0.000000 
-0.248777 -1.777601 0.000000 
-0.184111 -2.004850 0.000000 
-0.194039 -1.957759 0.000000 
-0.254475 -1.950459 0.000000 
-0.257893 -1.896349 0.000000 
-0.309886 -1.880977 0.000000 
-0.303554 -1.820432 0.000000 
-0.347255 -1.800274 0.000000 
-0.228129 -2.095814 0.000000 
-0.238687 -2.049589 0.000000 
-0.301302 -2.044637 0.000000 
-0.307162 -1.992598 0.000000 
-0.363386 -1.980477 0.000000 
-0.362692 -1.922966 0.000000 
-0.412122 -1.905673 0.000000 
-0.403017 -1.843526 0.000000 
-0.445733 -1.822947 0.000000 
-0.000000 -1.750751 0.000000 
0.043388 -1.847182 0.000000 
-0.000000 -1.817150 0.000000 
-0.043388 -1.847182 0.000000 
0.087158 -1.939379 0.000000 
0.043769 -1.915680 0.000000 
-0.000000 -1.954146 0.000000 
-0.043769 -1.915680 0.000000 
-0.087158 -1.939379 0.000000 
0.130831 -2.030508 0.000000 
0.087824 -2.008909 0.000000 
0.044436 -2.051609 0.000000 
-0.000000 -2.020544 0.000000 
-0.044436 -2.051609 0.000000 
-0.087824 -2.008909 0.000000 
-0.130831 -2.030508 0.000000 
0.174505 -2.121638 0.000000 
0.131782 -2.101072 0.000000 
0.088871 -2.146938 0.000000 
0.044532 -2.119075 0.000000 
-0.000000 -2.155475 0.000000 
-0.044532 -2.119075 0.000000 
-0.088871 -2.146938 0.000000 
-0.131782 -2.101072 0.000000 
-0.174505 -2.121638 0.000000 
0.046960 -1.728136 0.000000 
0.149405 -1.754338 0.000000 
0.098873 -1.769535 0.000000 
0.095301 -1.822182 0.000000 
0.248777 -1.777601 0.000000 
0.203197 -1.796747 0.000000 
0.205981 -1.854951 0.000000 
0.148617 -1.865188 0.000000 
0.140093 -1.913886 0.000000 
0.347255 -1.800274 0.000000 
0.303554 -1.820432 0.000000 
0.309886 -1.880977 0.000000 
0.257893 -1.896349 0.000000 
0.254475 -1.950459 0.000000 
0.194039 -1.957759 0.000000 
0.184111 -2.004850 0.000000 
0.445733 -1.822947 0.000000 
0.403017 -1.843526 0.000000 
0.412122 -1.905673 0.000000 
0.362692 -1.922966 0.000000 
0.363386 -1.980477 0.000000 
0.307162 -1.992598 0.000000 
0.301302 -2.044637 0.000000 
0.238687 -2.049589 0.000000 
0.228129 -2.095814 0.000000 
0.058559 -1.677321 0.000000 
0.142917 -1.613563 0.000000 
0.123292 -1.662546 0.000000 
0.162226 -1.698164 0.000000 
0.223062 -1.550375 0.000000 
0.209613 -1.597949 0.000000 
0.256854 -1.632062 0.000000 
0.229092 -1.683293 0.000000 
0.261851 -1.720320 0.000000 
0.302189 -1.487518 0.000000 
0.290702 -1.534254 0.000000 
0.341985 -1.567053 0.000000 
0.321587 -1.617287 0.000000 
0.361761 -1.653695 0.000000 
0.329787 -1.705498 0.000000 
0.360414 -1.742620 0.000000 
0.381315 -1.424662 0.000000 
0.370772 -1.470889 0.000000 
0.425037 -1.502518 0.000000 
0.407738 -1.551947 0.000000 
0.453135 -1.587262 0.000000 
0.427556 -1.638777 0.000000 
0.464588 -1.675804 0.000000 
0.429420 -1.727846 0.000000 
0.458977 -1.764921 0.000000 
0.026061 -1.636570 0.000000 
0.028809 -1.530864 0.000000 
0.054870 -1.576748 0.000000 
0.106992 -1.568515 0.000000 
0.029377 -1.428807 0.000000 
0.058186 -1.468984 0.000000 
0.114311 -1.453318 0.000000 
0.137056 -1.506966 0.000000 
0.186430 -1.504440 0.000000 
0.029568 -1.327753 0.000000 
0.058945 -1.365873 0.000000 
0.116563 -1.346227 0.000000 
0.143120 -1.393496 0.000000 
0.196633 -1.384787 0.000000 
0.217198 -1.442083 0.000000 
0.265318 -1.441284 0.000000 
0.029759 -1.226699 0.000000 
0.059328 -1.263764 0.000000 
0.117890 -1.241059 0.000000 
0.145749 -1.285401 0.000000 
0.201664 -1.271927 0.000000 
0.225992 -1.324044 0.000000 
0.278030 -1.318178 0.000000 
0.296791 -1.378121 0.000000 
0.344206 -1.378128 0.000000 
VECTORS X_EC float 
0.338794 0.593701 0.000000 
-0.609100 -0.325047 0.000000 
0.713312 -0.213906 0.000000 
0.374519 -0.833336 0.000000 
0.423588 0.809934 0.000000 
-0.218274 0.844037 0.000000 
-0.513962 0.119798 0.000000 
0.756418 0.331284 0.000000 
0.381900 -0.211108 0.000000 
-0.550868 -0.042670 0.000000 
0.823577 -0.031874 0.000000 
0.556234 -0.805378 0.000000 
-0.139443 -0.687809 0.000000 
-0.484677 0.674066 0.000000 
0.766286 0.939281 0.000000 
0.384386 0.424661 0.000000 
0.474677 -0.895273 0.000000 
-0.141715 -0.895369 0.000000 
-0.385608 0.295403 0.000000 
0.937896 0.374598 0.000000 
0.621631 -0.328982 0.000000 
-0.105264 -0.147083 0.000000 
-0.467428 -0.745709 0.000000 
0.771260 -0.439180 0.000000 
0.386873 -0.939570 0.000000 
0.761262 -0.856164 0.000000 
0.108942 -0.574788 0.000000 
-0.397202 0.944373 0.000000 
-0.142083 0.283098 0.000000 
-0.595936 -0.275677 0.000000 
0.978194 -0.775543 0.000000 
-0.660903 0.532832 0.000000 
0.724964 0.072312 0.000000 
0.899809 -0.569937 0.000000 
0.685384 0.025375 0.000000 
0.287229 -0.475783 0.000000 
0.702895 0.824888 0.000000 
0.180633 0.333369 0.000000 
0.445811 -0.344790 0.000000 
-0.220880 -0.787576 0.000000 
-0.071546 0.581498 0.000000 
-0.033296 0.326427 0.000000 
-0.417537 -0.174082 0.000000 
0.039645 -0.876645 0.000000 
-0.441768 0.623484 0.000000 
-0.109248 -0.071967 0.000000 
-0.699407 -0.548722 0.000000 
-0.474522 0.783999 0.000000 
0.820030 0.357005 0.000000 
0.957100 -0.267067 0.000000 
0.610485 -0.170158 0.000000 
-0.761092 -0.900538 0.000000 
-0.714655 0.388724 0.000000 
-0.057734 0.183557 0.000000 
-0.178789 0.337466 0.000000 
-0.067979 -0.319960 0.000000 
0.677748 -0.458164 0.000000 
0.641556 0.756091 0.000000 
-0.765897 0.497612 0.000000 
0.393446 -0.434525 0.000000 
0.522510 0.929745 0.000000 
-0.691820 0.831201 0.000000 
-0.647393 0.100718 0.000000 
0.028512 -0.106809 0.000000 
-0.053800 -0.924169 0.000000 
0.514316 0.803700 0.000000 
0.965681 0.793484 0.000000 
-0.897068 0.169455 0.000000 
-0.083078 0.102602 0.000000 
-0.006893 -0.599923 0.000000 
0.724017 -0.763555 0.000000 
0.714996 0.460041 0.000000 
-0.642413 0.226584 0.000000 
-0.760780 -0.612397 0.000000 
-0.205471 -0.890212 0.000000 
0.000000 0.135144 0.000000 
-0.564049 -0.563043 0.000000 
0.000000 -0.968479 0.000000 
0.564049 -0.563043 0.000000 
0.866949 0.681612 0.000000 
-0.569003 0.361681 0.000000 
0.000000 0.880969 0.000000 
0.569003 0.361681 0.000000 
-0.866949 0.681612 0.000000 
0.299194 -0.088138 0.000000 
0.858290 -0.379722 0.000000 
-0.577662 0.196724 0.000000 
0.000000 -0.222654 0.000000 
0.577662 0.196724 0.000000 
-0.858290 -0.379722 0.000000 
-0.299194 -0.088138 0.000000 
-0.268560 -0.857888 0.000000 
0.286830 0.864470 0.000000 
0.844677 -0.516331 0.000000 
-0.578910 -0.892494 0.000000 
0.000000 -0.401090 0.000000 
0.578910 -0.892494 0.000000 
-0.844677 -0.516331 0.000000 
-0.286830 0.864470 0.000000 
0.268560 -0.857888 0.000000 
-0.610485 -0.170158 0.000000 
0.057734 0.183557 0.000000 
0.714655 0.388724 0.000000 
0.761092 -0.900538 0.000000 
0.765897 0.497612 0.000000 
-0.641556 0.756091 0.000000 
-0.677748 -0.458164 0.000000 
0.067979 -0.319960 0.000000 
0.178789 0.337466 0.000000 
-0.514316 0.803700 0.000000 
0.053800 -0.924169 0.000000 
-0.028512 -0.106809 0.000000 
0.647393 0.100718 0.000000 
0.691820 0.831201 0.000000 
-0.522510 0.929745 0.000000 
-0.393446 -0.434525 0.000000 
0.205471 -0.890212 0.000000 
0.760780 -0.612397 0.000000 
0.642413 0.226584 0.000000 
-0.714996 0.460041 0.000000 
-0.724017 -0.763555 0.000000 
0.006894 -0.599923 0.000000 
0.083078 0.102602 0.000000 
0.897068 0.169455 0.000000 
-0.965681 0.793484 0.000000 
-0.761262 -0.856164 0.000000 
0.142083 0.283098 0.000000 
0.397202 0.944373 0.000000 
-0.108942 -0.574788 0.000000 
-0.899809 -0.569937 0.000000 
-0.724964 0.072312 0.000000 
0.660903 0.532832 0.000000 
-0.978194 -0.775543 0.000000 
0.595936 -0.275677 0.000000 
0.071546 0.581498 0.000000 
0.220880 -0.787576 0.000000 
-0.445811 -0.344790 0.000000 
-0.180633 0.333369 0.000000 
-0.702895 0.824888 0.000000 
-0.287229 -0.475783 0.000000 
-0.685384 0.025375 0.000000 
-0.957100 -0.267066 0.000000 
-0.820030 0.357005 0.000000 
0.474522 0.783999 0.000000 
0.699407 -0.548722 0.000000 
0.109248 -0.071967 0.000000 
0.441768 0.623484 0.000000 
-0.039645 -0.876645 0.000000 
0.417537 -0.174082 0.000000 
0.033296 0.326427 0.000000 
-0.338794 0.593701 0.000000 
-0.374519 -0.833336 0.000000 
-0.713312 -0.213906 0.000000 
0.609100 -0.325047 0.000000 
-0.381900 -0.211108 0.000000 
-0.756418 0.331284 0.000000 
0.513962 0.119798 0.000000 
0.218274 0.844037 0.000000 
-0.423588 0.809934 0.000000 
-0.384386 0.424661 0.000000 
-0.766286 0.939281 0.000000 
0.484677 0.674066 0.000000 
0.139443 -0.687809 0.000000 
-0.556234 -0.805378 0.000000 
-0.823577 -0.031874 0.000000 
0.550868 -0.042670 0.000000 
-0.386873 -0.939570 0.000000 
-0.771260 -0.439180 0.000000 
0.467428 -0.745709 0.000000 
0.105264 -0.147083 0.000000 
-0.621631 -0.328982 0.000000 
-0.937896 0.374598 0.000000 
0.385608 0.295403 0.000000 
0.141715 -0.895369 0.000000 
-0.474677 -0.895273 0.000000 
CELL_DATA 175 
SCALARS MASS float 
LOOKUP_TABLE default 
0.781831 
0.864274 
0.946717 
0.864274 
0.881307 
0.921110 
0.858535 
0.921110 
0.881307 
0.887046 
0.910001 
0.869829 
0.915556 
0.869829 
0.910001 
0.887046 
0.892784 
0.915740 
0.892784 
0.927218 
0.892784 
0.927218 
0.892784 
0.915740 
0.892784 
0.781831 
0.864274 
0.946717 
0.864274 
0.881307 
0.921110 
0.858535 
0.921110 
0.881307 
0.887046 
0.910001 
0.869829 
0.915556 
0.869829 
0.910001 
0.887046 
0.892784 
0.915740 
0.892784 
0.927218 
0.892784 
0.927218 
0.892784 
0.915740 
0.892784 
0.781831 
0.864274 
0.946717 
0.864274 
0.881307 
0.921110 
0.858535 
0.921110 
0.881307 
0.887046 
0.910001 
0.869829 
0.915556 
0.869829 
0.910001 
0.887046 
0.892784 
0.915740 
0.892784 
0.927218 
0.892784 
0.927218 
0.892784 
0.915740 
0.892784 
0.781831 
0.864274 
0.946717 
0.864274 
0.881307 
0.921110 
0.858535 
0.921110 
0.881307 
0.887046 
0.910001 
0.869829 
0.915556 
0.869829 
0.910001 
0.887046 
0.892784 
0.915740 
0.892784 
0.927218 
0.892784 
0.927218 
0.892784 
0.915740 
0.892784 
0.781831 
0.864274 
0.946717 
0.864274 
0.881307 
0.921110 
0.858535 
0.921110 
0.881307 
0.887046 
0.910001 
0.869829 
0.915556 
0.869829 
0.910001 
0.887046 
0.892784 
0.915740 
0.892784 
0.927218 
0.892784 
0.927218 
0.892784 
0.915740 
0.892784 
0.781831 
0.864274 
0.946717 
0.864274 
0.881307 
0.921110 
0.858535 
0.921110 
0.881307 
0.887046 
0.910001 
0.869829 
0.915556 
0.869829 
0.910001 
0.887046 
0.892784 
0.915740 
0.892784 
0.927218 
0.892784 
0.927218 
0.892784 
0.915740 
0.892784 
0.781831 
0.864274 
0.946717 
0.864274 
0.881307 
0.921110 
0.858535 
0.921110 
0.881307 
0.887046 
0.910001 
0.869829 
0.915556 
0.869829 
0.910001 
0.887046 
0.892784 
0.915740 
0.892784 
0.927218 
0.892784 
0.927218 
0.892784 
0.915740 
0.892784 
SCALARS MASS float 
LOOKUP_TABLE default 
0.781831 
0.864274 
0.946717 
0.864274 
0.881307 
0.921110 
0.858535 
0.921110 
0.881307 
0.887046 
0.910001 
0.869829 
0.915556 
0.869829 
0.910001 
0.887046 
0.892784 
0.915740 
0.892784 
0.927218 
0.892784 
0.927218 
0.892784 
0.915740 
0.892784 
0.781831 
0.864274 
0.946717 
0.864274 
0.881307 
0.921110 
0.858535 
0.921110 
0.881307 
0.887046 
0.910001 
0.869829 
0.915556 
0.869829 
0.910001 
0.887046 
0.892784 
0.915740 
0.892784 
0.927218 
0.892784 
0.927218 
0.892784 
0.915740 
0.892784 
0.781831 
0.864274 
0.946717 
0.864274 
0.881307 
0.921110 
0.858535 
0.921110 
0.881307 
0.887046 
0.910001 
0.869829 
0.915556 
0.869829 
0.910001 
0.887046 
0.892784 
0.915740 
0.892784 
0.927218 
0.892784 
0.927218 
0.892784 
0.915740 
0.892784 
0.781831 
0.864274 
0.946717 
0.864274 
0.881307 
0.921110 
0.858535 
0.921110 
0.881307 
0.887046 
0.910001 
0.869829 
0.915556 
0.869829 
0.910001 
0.887046 
0.892784 
0.915740 
0.892784 
0.927218 
0.892784 
0.927218 
0.892784 
0.915740 
0.892784 
0.781831 
0.864274 
0.946717 
0.864274 
0.881307 
0.921110 
0.858535 
0.921110 
0.881307 
0.887046 
0.910001 
0.869829 
0.915556 
0.869829 
0.910001 
0.887046 
0.892784 
0.915740 
0.892784 
0.927218 
0.892784 
0.927218 
0.892784 
0.915740 
0.892784 
0.781831 
0.864274 
0.946717 
0.864274 
0.881307 
0.921110 
0.858535 
0.921110 
0.881307 
0.887046 
0.910001 
0.869829 
0.915556 
0.869829 
0.910001 
0.887046 
0.892784 
0.915740 
0.892784 
0.927218 
0.892784 
0.927218 
0.892784 
0.915740 
0.892784 
0.781831 
0.864274 
0.946717 
0.864274 
0.881307 
0.921110 
0.858535 
0.921110 
0.881307 
0.887046 
0.910001 
0.869829 
0.915556 
0.869829 
0.910001 
0.887046 
0.892784 
0.915740 
0.892784 
0.927218 
0.892784 
0.927218 
0.892784 
0.915740 
0.892784 
SCALARS DENSITY float 
LOOKUP_TABLE default 
200.000000 
200.000000 
200.000000 
200.000000 
200.000000 
200.000000 
200.000000 
200.000000 
200.000000 
200.000000 
200.000000 
200.000000 
200.000000 
200.000000 
200.000000 
200.000000 
200.000000 
200.000000 
200.000000 
200.000000 
200.000000 
200.000000 
200.000000 
200.000000 
200.000000 
200.000000 
200.000000 
200.000000 
200.000000 
200.000000 
200.000000 
200.000000 
200.000000 
200.000000 
200.000000 
200.000000 
200.000000 
200.000000 
200.000000 
200.000000 
200.000000 
200.000000 
200.000000 
200.000000 
200.000000 
200.000000 
200.000000 
200.000000 
200.000000 
200.000000 
200.000000 
200.000000 
200.000000 
200.000000 
200.000000 
200.000000 
200.000000 
200.000000 
200.000000 
200.000000 
200.000000 
200.000000 
200.000000 
200.000000 
200.000000 
200.000000 
200.000000 
200.000000 
200.000000 
200.000000 
200.000000 
200.000000 
200.000000 
200.000000 
200.000000 
200.000000 
200.000000 
200.000000 
200.000000 
200.000000 
200.000000 
200.000000 
200.000000 
200.000000 
200.000000 
200.000000 
200.000000 
200.000000 
200.000000 
200.000000 
200.000000 
200.000000 
200.000000 
200.000000 
200.000000 
200.000000 
200.000000 
200.000000 
200.000000 
200.000000 
200.000000 
200.000000 
200.000000 
200.000000 
200.000000 
200.000000 
200.000000 
200.000000 
200.000000 
200.000000 
200.000000 
200.000000 
200.000000 
200.000000 
200.000000 
200.000000 
200.000000 
200.000000 
200.000000 
200.000000 
200.000000 
200.000000 
200.000000 
200.000000 
200.000000 
200.000000 
200.000000 
200.000000 
200.000000 
200.000000 
200.000000 
200.000000 
200.000000 
200.000000 
200.000000 
200.000000 
200.000000 
200.000000 
200.000000 
200.000000 
200.000000 
200.000000 
200.000000 
200.000000 
200.000000 
200.000000 
200.000000 
200.000000 
200.000000 
200.000000 
200.000000 
200.000000 
200.000000 
200.000000 
200.000000 
200.000000 
200.000000 
200.000000 
200.000000 
200.000000 
200.000000 
200.000000 
200.000000 
200.000000 
200.000000 
200.000000 
200.000000 
200.000000 
200.000000 
200.000000 
200.000000 
200.000000 
200.000000 
200.000000 
200.000000 
SCALARS ELEM_i float 
LOOKUP_TABLE default 
171 
198 
171 
171 
199 
199 
199 
172 
172 
226 
199 
199 
199 
200 
173 
173 
226 
226 
227 
200 
200 
200 
200 
173 
173 
170 
197 
198 
198 
224 
197 
225 
198 
198 
224 
224 
225 
225 
225 
225 
226 
251 
251 
251 
252 
252 
252 
253 
226 
226 
170 
196 
197 
197 
196 
196 
196 
197 
224 
195 
196 
223 
223 
223 
223 
224 
195 
222 
222 
222 
222 
223 
250 
250 
250 
170 
169 
169 
169 
142 
169 
169 
169 
196 
141 
141 
168 
168 
168 
195 
195 
140 
141 
140 
167 
167 
167 
194 
195 
194 
170 
143 
143 
142 
116 
143 
142 
142 
142 
116 
115 
115 
115 
115 
142 
141 
88 
88 
88 
115 
114 
114 
114 
114 
141 
170 
144 
144 
143 
144 
144 
117 
143 
116 
118 
117 
117 
117 
117 
116 
116 
118 
118 
91 
90 
90 
90 
89 
89 
89 
171 
171 
171 
144 
172 
172 
145 
145 
145 
173 
173 
146 
145 
145 
145 
118 
173 
173 
146 
146 
146 
146 
119 
118 
118 
VECTORS VELOCITY float 
-0.000000 -5.758470 0.000000 
-0.000000 -5.758470 0.000000 
-0.000000 -5.758470 0.000000 
-0.000000 -5.758470 0.000000 
-0.000000 -5.758470 0.000000 
-0.000000 -5.758470 0.000000 
0.000000 -5.758470 0.000000 
-0.000000 -5.758470 0.000000 
0.000000 -5.758470 0.000000 
-0.000000 -5.758470 0.000000 
-0.000000 -5.758470 0.000000 
0.000000 -5.758470 0.000000 
0.000000 -5.758470 0.000000 
0.000000 -5.758470 0.000000 
0.000000 -5.758470 0.000000 
0.000000 -5.758470 0.000000 
-0.000000 -5.758470 0.000000 
-0.000000 -5.758470 0.000000 
-0.000000 -5.758470 0.000000 
0.000000 -5.758470 0.000000 
0.000000 -5.758470 0.000000 
0.000000 -5.758470 0.000000 
0.000000 -5.758470 0.000000 
0.000000 -5.758470 0.000000 
-0.000000 -5.758470 0.000000 
-0.000000 -5.758470 0.000000 
0.000000 -5.758470 0.000000 
-0.000000 -5.758470 0.000000 
-0.000000 -5.758470 0.000000 
0.000000 -5.758470 0.000000 
0.000000 -5.758470 0.000000 
-0.000000 -5.758470 0.000000 
-0.000000 -5.758470 0.000000 
-0.000000 -5.758470 0.000000 
-0.000000 -5.758470 0.000000 
0.000000 -5.758470 0.000000 
0.000000 -5.758470 0.000000 
0.000000 -5.758470 0.000000 
-0.000000 -5.758470 0.000000 
-0.000000 -5.758470 0.000000 
-0.000000 -5.758470 0.000000 
0.000000 -5.758470 0.000000 
0.000000 -5.758470 0.000000 
-0.000000 -5.758470 0.000000 
0.000000 -5.758470 0.000000 
0.000000 -5.758470 0.000000 
-0.000000 -5.758470 0.000000 
-0.000000 -5.758470 0.000000 
0.000000 -5.758470 0.000000 
0.000000 -5.758470 0.000000 
-0.000000 -5.758470 0.000000 
-0.000000 -5.758470 0.000000 
-0.000000 -5.758470 0.000000 
0.000000 -5.758470 0.000000 
-0.000000 -5.758470 0.000000 
-0.000000 -5.758470 0.000000 
-0.000000 -5.758470 0.000000 
0.000000 -5.758470 0.000000 
0.000000 -5.758470 0.000000 
-0.000000 -5.758470 0.000000 
-0.000000 -5.758470 0.000000 
-0.000000 -5.758470 0.000000 
-0.000000 -5.758470 0.000000 
-0.000000 -5.758470 0.000000 
0.000000 -5.758470 0.000000 
0.000000 -5.758470 0.000000 
-0.000000 -5.758470 0.000000 
-0.000000 -5.758470 0.000000 
0.000000 -5.758470 0.000000 
0.000000 -5.758470 0.000000 
0.000000 -5.758470 0.000000 
0.000000 -5.758470 0.000000 
-0.000000 -5.758470 0.000000 
0.000000 -5.758470 0.000000 
-0.000000 -5.758470 0.000000 
-0.000000 -5.758470 0.000000 
-0.000000 -5.758470 0.000000 
-0.000000 -5.758470 0.000000 
-0.000000 -5.758470 0.000000 
0.000000 -5.758470 0.000000 
-0.000000 -5.758470 0.000000 
0.000000 -5.758470 0.000000 
-0.000000 -5.758470 0.000000 
-0.000000 -5.758470 0.000000 
0.000000 -5.758470 0.000000 
0.000000 -5.758470 0.000000 
0.000000 -5.758470 0.000000 
0.000000 -5.758470 0.000000 
0.000000 -5.758470 0.000000 
-0.000000 -5.758470 0.000000 
-0.000000 -5.758470 0.000000 
-0.000000 -5.758470 0.000000 
0.000000 -5.758470 0.000000 
0.000000 -5.758470 0.000000 
0.000000 -5.758470 0.000000 
-0.000000 -5.758470 0.000000 
0.000000 -5.758470 0.000000 
-0.000000 -5.758470 0.000000 
0.000000 -5.758470 0.000000 
-0.000000 -5.758470 0.000000 
0.000000 -5.758470 0.000000 
-0.000000 -5.758470 0.000000 
0.000000 -5.758470 0.000000 
-0.000000 -5.758470 0.000000 
-0.000000 -5.758470 0.000000 
-0.000000 -5.758470 0.000000 
-0.000000 -5.758470 0.000000 
-0.000000 -5.758470 0.000000 
0.000000 -5.758470 0.000000 
0.000000 -5.758470 0.000000 
-0.000000 -5.758470 0.000000 
-0.000000 -5.758470 0.000000 
0.000000 -5.758470 0.000000 
-0.000000 -5.758470 0.000000 
0.000000 -5.758470 0.000000 
0.000000 -5.758470 0.000000 
-0.000000 -5.758470 0.000000 
-0.000000 -5.758470 0.000000 
0.000000 -5.758470 0.000000 
-0.000000 -5.758470 0.000000 
-0.000000 -5.758470 0.000000 
-0.000000 -5.758470 0.000000 
-0.000000 -5.758470 0.000000 
-0.000000 -5.758470 0.000000 
-0.000000 -5.758470 0.000000 
-0.000000 -5.758470 0.000000 
0.000000 -5.758470 0.000000 
0.000000 -5.758470 0.000000 
-0.000000 -5.758470 0.000000 
-0.000000 -5.758470 0.000000 
0.000000 -5.758470 0.000000 
0.000000 -5.758470 0.000000 
-0.000000 -5.758470 0.000000 
-0.000000 -5.758470 0.000000 
-0.000000 -5.758470 0.000000 
-0.000000 -5.758470 0.000000 
-0.000000 -5.758470 0.000000 
0.000000 -5.758470 0.000000 
0.000000 -5.758470 0.000000 
0.000000 -5.758470 0.000000 
0.000000 -5.758470 0.000000 
-0.000000 -5.758470 0.000000 
-0.000000 -5.758470 0.000000 
0.000000 -5.758470 0.000000 
0.000000 -5.758470 0.000000 
-0.000000 -5.758470 0.000000 
-0.000000 -5.758470 0.000000 
-0.000000 -5.758470 0.000000 
0.000000 -5.758470 0.000000 
0.000000 -5.758470 0.000000 
-0.000000 -5.758470 0.000000 
0.000000 -5.758470 0.000000 
0.000000 -5.758470 0.000000 
0.000000 -5.758470 0.000000 
0.000000 -5.758470 0.000000 
0.000000 -5.758470 0.000000 
0.000000 -5.758470 0.000000 
0.000000 -5.758470 0.000000 
0.000000 -5.758470 0.000000 
0.000000 -5.758470 0.000000 
0.000000 -5.758470 0.000000 
0.000000 -5.758470 0.000000 
0.000000 -5.758470 0.000000 
0.000000 -5.758470 0.000000 
0.000000 -5.758470 0.000000 
0.000000 -5.758470 0.000000 
-0.000000 -5.758470 0.000000 
0.000000 -5.758470 0.000000 
0.000000 -5.758470 0.000000 
0.000000 -5.758470 0.000000 
0.000000 -5.758470 0.000000 
0.000000 -5.758470 0.000000 
0.000000 -5.758470 0.000000 
0.000000 -5.758470 0.000000 
0.000000 -5.758470 0.000000 
TENSORS STRESS float 
-0.000000 -0.000000 0.000000 
0.000000 -0.000000 0.000000 
0.000000 0.000000 0.000000 

0.000000 0.000000 0.000000 
0.000000 0.000000 0.000000 
0.000000 0.000000 0.000000 

0.000000 0.000000 0.000000 
0.000000 0.000000 0.000000 
0.000000 0.000000 0.000000 

-0.000000 0.000000 0.000000 
0.000000 -0.000000 0.000000 
0.000000 0.000000 0.000000 

-0.000000 0.000000 0.000000 
0.000000 -0.000000 0.000000 
0.000000 0.000000 0.000000 

0.000000 0.000000 0.000000 
0.000000 0.000000 0.000000 
0.000000 0.000000 0.000000 

0.000000 0.000000 0.000000 
0.000000 0.000000 0.000000 
0.000000 0.000000 0.000000 

-0.000000 -0.000000 0.000000 
0.000000 -0.000000 0.000000 
0.000000 0.000000 0.000000 

0.000000 -0.000000 0.000000 
0.000000 0.000000 0.000000 
0.000000 0.000000 0.000000 

0.000000 0.000000 0.000000 
0.000000 0.000000 0.000000 
0.000000 0.000000 0.000000 

-0.000000 0.000000 0.000000 
0.000000 -0.000000 0.000000 
0.000000 0.000000 0.000000 

0.000000 0.000000 0.000000 
0.000000 0.000000 0.000000 
0.000000 0.000000 0.000000 

0.000000 0.000000 0.000000 
0.000000 0.000000 0.000000 
0.000000 0.000000 0.000000 

0.000000 0.000000 0.000000 
0.000000 0.000000 0.000000 
0.000000 0.000000 0.000000 

-0.000000 0.000000 0.000000 
0.000000 -0.000000 0.000000 
0.000000 0.000000 0.000000 

-0.000000 0.000000 0.000000 
0.000000 -0.000000 0.000000 
0.000000 0.000000 0.000000 

-0.000000 0.000000 0.000000 
0.000000 -0.000000 0.000000 
0.000000 0.000000 0.000000 

0.000000 0.000000 0.000000 
0.000000 0.000000 0.000000 
0.000000 0.000000 0.000000 

0.000000 -0.000000 0.000000 
0.000000 0.000000 0.000000 
0.000000 0.000000 0.000000 

-0.000000 0.000000 0.000000 
0.000000 0.000000 0.000000 
0.000000 0.000000 0.000000 

0.000000 -0.000000 0.000000 
0.000000 0.000000 0.000000 
0.000000 0.000000 0.000000 

-0.000000 0.000000 0.000000 
0.000000 -0.000000 0.000000 
0.000000 0.000000 0.000000 

-0.000000 -0.000000 0.000000 
0.000000 -0.000000 0.000000 
0.000000 0.000000 0.000000 

0.000000 -0.000000 0.000000 
0.000000 0.000000 0.000000 
0.000000 0.000000 0.000000 

0.000000 0.000000 0.000000 
0.000000 0.000000 0.000000 
0.000000 0.000000 0.000000 

-0.000000 -0.000000 0.000000 
0.000000 -0.000000 0.000000 
0.000000 0.000000 0.000000 

0.000000 0.000000 0.000000 
0.000000 0.000000 0.000000 
0.000000 0.000000 0.000000 

0.000000 -0.000000 0.000000 
0.000000 0.000000 0.000000 
0.000000 0.000000 0.000000 

-0.000000 0.000000 0.000000 
0.000000 -0.000000 0.000000 
0.000000 0.000000 0.000000 

0.000000 -0.000000 0.000000 
0.000000 0.000000 0.000000 
0.000000 0.000000 0.000000 

-0.000000 -0.000000 0.000000 
0.000000 -0.000000 0.000000 
0.000000 0.000000 0.000000 

0.000000 0.000000 0.000000 
0.000000 0.000000 0.000000 
0.000000 0.000000 0.000000 

-0.000000 0.000000 0.000000 
0.000000 -0.000000 0.000000 
0.000000 0.000000 0.000000 

-0.000000 0.000000 0.000000 
0.000000 -0.000000 0.000000 
0.000000 0.000000 0.000000 

0.000000 -0.000000 0.000000 
0.000000 -0.000000 0.000000 
0.000000 0.000000 0.000000 

-0.000000 -0.000000 0.000000 
0.000000 -0.000000 0.000000 
0.000000 0.000000 0.000000 

-0.000000 0.000000 0.000000 
0.000000 -0.000000 0.000000 
0.000000 0.000000 0.000000 

-0.000000 0.000000 0.000000 
0.000000 -0.000000 0.000000 
0.000000 0.000000 0.000000 

0.000000 0.000000 0.000000 
0.000000 0.000000 0.000000 
0.000000 0.000000 0.000000 

-0.000000 0.000000 0.000000 
0.000000 -0.000000 0.000000 
0.000000 0.000000 0.000000 

-0.000000 -0.000000 0.000000 
0.000000 -0.000000 0.000000 
0.000000 0.000000 0.000000 

-0.000000 0.000000 0.000000 
0.000000 -0.000000 0.000000 
0.000000 0.000000 0.000000 

-0.000000 0.000000 0.000000 
0.000000 -0.000000 0.000000 
0.000000 0.000000 0.000000 

-0.000000 0.000000 0.000000 
0.000000 -0.000000 0.000000 
0.000000 0.000000 0.000000 

0.000000 0.000000 0.000000 
0.000000 0.000000 0.000000 
0.000000 0.000000 0.000000 

0.000000 -0.000000 0.000000 
0.000000 0.000000 0.000000 
0.000000 0.000000 0.000000 

0.000000 -0.000000 0.000000 
0.000000 0.000000 0.000000 
0.000000 0.000000 0.000000 

-0.000000 -0.000000 0.000000 
0.000000 -0.000000 0.000000 
0.000000 0.000000 0.000000 

-0.000000 -0.000000 0.000000 
0.000000 -0.000000 0.000000 
0.000000 0.000000 0.000000 

-0.000000 0.000000 0.000000 
0.000000 -0.000000 0.000000 
0.000000 0.000000 0.000000 

0.000000 -0.000000 0.000000 
0.000000 0.000000 0.000000 
0.000000 0.000000 0.000000 

-0.000000 0.000000 0.000000 
0.000000 -0.000000 0.000000 
0.000000 0.000000 0.000000 

-0.000000 0.000000 0.000000 
0.000000 -0.000000 0.000000 
0.000000 0.000000 0.000000 

-0.000000 0.000000 0.000000 
0.000000 -0.000000 0.000000 
0.000000 0.000000 0.000000 

0.000000 0.000000 0.000000 
0.000000 0.000000 0.000000 
0.000000 0.000000 0.000000 

0.000000 0.000000 0.000000 
0.000000 0.000000 0.000000 
0.000000 0.000000 0.000000 

0.000000 0.000000 0.000000 
0.000000 0.000000 0.000000 
0.000000 0.000000 0.000000 

0.000000 0.000000 0.000000 
0.000000 0.000000 0.000000 
0.000000 0.000000 0.000000 

0.000000 -0.000000 0.000000 
0.000000 0.000000 0.000000 
0.000000 0.000000 0.000000 

0.000000 0.000000 0.000000 
0.000000 0.000000 0.000000 
0.000000 0.000000 0.000000 

0.000000 0.000000 0.000000 
0.000000 0.000000 0.000000 
0.000000 0.000000 0.000000 

-0.000000 0.000000 0.000000 
0.000000 -0.000000 0.000000 
0.000000 0.000000 0.000000 

-0.000000 -0.000000 0.000000 
0.000000 -0.000000 0.000000 
0.000000 0.000000 0.000000 

0.000000 -0.000000 0.000000 
0.000000 0.000000 0.000000 
0.000000 0.000000 0.000000 

-0.000000 0.000000 0.000000 
0.000000 -0.000000 0.000000 
0.000000 0.000000 0.000000 

-0.000000 -0.000000 0.000000 
0.000000 -0.000000 0.000000 
0.000000 0.000000 0.000000 

-0.000000 0.000000 0.000000 
0.000000 -0.000000 0.000000 
0.000000 0.000000 0.000000 

-0.000000 -0.000000 0.000000 
0.000000 0.000000 0.000000 
0.000000 0.000000 0.000000 

-0.000000 -0.000000 0.000000 
0.000000 0.000000 0.000000 
0.000000 0.000000 0.000000 

-0.000000 -0.000000 0.000000 
0.000000 0.000000 0.000000 
0.000000 0.000000 0.000000 

-0.000000 0.000000 0.000000 
0.000000 -0.000000 0.000000 
0.000000 0.000000 0.000000 

0.000000 -0.000000 0.000000 
0.000000 0.000000 0.000000 
0.000000 0.000000 0.000000 

0.000000 -0.000000 0.000000 
0.000000 -0.000000 0.000000 
0.000000 0.000000 0.000000 

-0.000000 0.000000 0.000000 
0.000000 -0.000000 0.000000 
0.000000 0.000000 0.000000 

0.000000 -0.000000 0.000000 
0.000000 0.000000 0.000000 
0.000000 0.000000 0.000000 

-0.000000 -0.000000 0.000000 
0.000000 -0.000000 0.000000 
0.000000 0.000000 0.000000 

0.000000 0.000000 0.000000 
0.000000 0.000000 0.000000 
0.000000 0.000000 0.000000 

-0.000000 -0.000000 0.000000 
0.000000 -0.000000 0.000000 
0.000000 0.000000 0.000000 

0.000000 -0.000000 0.000000 
0.000000 0.000000 0.000000 
0.000000 0.000000 0.000000 

-0.000000 -0.000000 0.000000 
0.000000 -0.000000 0.000000 
0.000000 0.000000 0.000000 

0.000000 -0.000000 0.000000 
0.000000 0.000000 0.000000 
0.000000 0.000000 0.000000 

-0.000000 -0.000000 0.000000 
0.000000 -0.000000 0.000000 
0.000000 0.000000 0.000000 

0.000000 -0.000000 0.000000 
0.000000 0.000000 0.000000 
0.000000 0.000000 0.000000 

0.000000 0.000000 0.000000 
0.000000 0.000000 0.000000 
0.000000 0.000000 0.000000 

-0.000000 0.000000 0.000000 
0.000000 -0.000000 0.000000 
0.000000 0.000000 0.000000 

-0.000000 -0.000000 0.000000 
0.000000 0.000000 0.000000 
0.000000 0.000000 0.000000 

0.000000 -0.000000 0.000000 
0.000000 0.000000 0.000000 
0.000000 0.000000 0.000000 

0.000000 -0.000000 0.000000 
0.000000 0.000000 0.000000 
0.000000 0.000000 0.000000 

-0.000000 -0.000000 0.000000 
0.000000 -0.000000 0.000000 
0.000000 0.000000 0.000000 

-0.000000 0.000000 0.000000 
0.000000 -0.000000 0.000000 
0.000000 0.000000 0.000000 

-0.000000 0.000000 0.000000 
0.000000 -0.000000 0.000000 
0.000000 0.000000 0.000000 

-0.000000 0.000000 0.000000 
0.000000 -0.000000 0.000000 
0.000000 0.000000 0.000000 

0.000000 0.000000 0.000000 
0.000000 0.000000 0.000000 
0.000000 0.000000 0.000000 

0.000000 0.000000 0.000000 
0.000000 0.000000 0.000000 
0.000000 0.000000 0.000000 

0.000000 -0.000000 0.000000 
0.000000 0.000000 0.000000 
0.000000 0.000000 0.000000 

0.000000 -0.000000 0.000000 
0.000000 0.000000 0.000000 
0.000000 0.000000 0.000000 

-0.000000 -0.000000 0.000000 
0.000000 -0.000000 0.000000 
0.000000 0.000000 0.000000 

-0.000000 0.000000 0.000000 
0.000000 -0.000000 0.000000 
0.000000 0.000000 0.000000 

-0.000000 0.000000 0.000000 
0.000000 -0.000000 0.000000 
0.000000 0.000000 0.000000 

-0.000000 0.000000 0.000000 
0.000000 -0.000000 0.000000 
0.000000 0.000000 0.000000 

0.000000 -0.000000 0.000000 
0.000000 0.000000 0.000000 
0.000000 0.000000 0.000000 

-0.000000 -0.000000 0.000000 
0.000000 -0.000000 0.000000 
0.000000 0.000000 0.000000 

-0.000000 0.000000 0.000000 
0.000000 -0.000000 0.000000 
0.000000 0.000000 0.000000 

0.000000 -0.000000 0.000000 
0.000000 0.000000 0.000000 
0.000000 0.000000 0.000000 

0.000000 -0.000000 0.000000 
0.000000 0.000000 0.000000 
0.000000 0.000000 0.000000 

-0.000000 -0.000000 0.000000 
0.000000 -0.000000 0.000000 
0.000000 0.000000 0.000000 

-0.000000 -0.000000 0.000000 
0.000000 -0.000000 0.000000 
0.000000 0.000000 0.000000 

-0.000000 -0.000000 0.000000 
0.000000 -0.000000 0.000000 
0.000000 0.000000 0.000000 

0.000000 -0.000000 0.000000 
0.000000 0.000000 0.000000 
0.000000 0.000000 0.000000 

0.000000 -0.000000 0.000000 
0.000000 0.000000 0.000000 
0.000000 0.000000 0.000000 

-0.000000 -0.000000 0.000000 
0.000000 -0.000000 0.000000 
0.000000 0.000000 0.000000 

0.000000 -0.000000 0.000000 
0.000000 0.000000 0.000000 
0.000000 0.000000 0.000000 

-0.000000 0.000000 0.000000 
0.000000 -0.000000 0.000000 
0.000000 0.000000 0.000000 

0.000000 -0.000000 0.000000 
0.000000 0.000000 0.000000 
0.000000 0.000000 0.000000 

0.000000 -0.000000 0.000000 
0.000000 0.000000 0.000000 
0.000000 0.000000 0.000000 

-0.000000 0.000000 0.000000 
0.000000 -0.000000 0.000000 
0.000000 0.000000 0.000000 

-0.000000 -0.000000 0.000000 
0.000000 -0.000000 0.000000 
0.000000 0.000000 0.000000 

-0.000000 -0.000000 0.000000 
0.000000 -0.000000 0.000000 
0.000000 0.000000 0.000000 

0.000000 -0.000000 0.000000 
0.000000 0.000000 0.000000 
0.000000 0.000000 0.000000 

0.000000 0.000000 0.000000 
0.000000 0.000000 0.000000 
0.000000 0.000000 0.000000 

-0.000000 0.000000 0.000000 
0.000000 -0.000000 0.000000 
0.000000 0.000000 0.000000 

0.000000 0.000000 0.000000 
0.000000 0.000000 0.000000 
0.000000 0.000000 0.000000 

0.000000 -0.000000 0.000000 
0.000000 0.000000 0.000000 
0.000000 0.000000 0.000000 

0.000000 -0.000000 0.000000 
0.000000 0.000000 0.000000 
0.000000 0.000000 0.000000 

-0.000000 -0.000000 0.000000 
0.000000 -0.000000 0.000000 
0.000000 0.000000 0.000000 

0.000000 -0.000000 0.000000 
0.000000 0.000000 0.000000 
0.000000 0.000000 0.000000 

0.000000 0.000000 0.000000 
0.000000 -0.000000 0.000000 
0.000000 0.000000 0.000000 

-0.000000 -0.000000 0.000000 
0.000000 -0.000000 0.000000 
0.000000 0.000000 0.000000 

0.000000 -0.000000 0.000000 
0.000000 0.000000 0.000000 
0.000000 0.000000 0.000000 

0.000000 0.000000 0.000000 
0.000000 0.000000 0.000000 
0.000000 0.000000 0.000000 

0.000000 0.000000 0.000000 
0.000000 0.000000 0.000000 
0.000000 0.000000 0.000000 

-0.000000 -0.000000 0.000000 
0.000000 -0.000000 0.000000 
0.000000 0.000000 0.000000 

0.000000 0.000000 0.000000 
0.000000 0.000000 0.000000 
0.000000 0.000000 0.000000 

0.000000 -0.000000 0.000000 
0.000000 0.000000 0.000000 
0.000000 0.000000 0.000000 

0.000000 -0.000000 0.000000 
0.000000 -0.000000 0.000000 
0.000000 0.000000 0.000000 

-0.000000 -0.000000 0.000000 
0.000000 -0.000000 0.000000 
0.000000 0.000000 0.000000 

0.000000 0.000000 0.000000 
0.000000 0.000000 0.000000 
0.000000 0.000000 0.000000 

0.000000 0.000000 0.000000 
0.000000 0.000000 0.000000 
0.000000 0.000000 0.000000 

0.000000 0.000000 0.000000 
0.000000 0.000000 0.000000 
0.000000 0.000000 0.000000 

0.000000 0.000000 0.000000 
0.000000 0.000000 0.000000 
0.000000 0.000000 0.000000 

0.000000 -0.000000 0.000000 
0.000000 0.000000 0.000000 
0.000000 0.000000 0.000000 

0.000000 -0.000000 0.000000 
0.000000 0.000000 0.000000 
0.000000 0.000000 0.000000 

0.000000 -0.000000 0.000000 
0.000000 -0.000000 0.000000 
0.000000 0.000000 0.000000 

0.000000 -0.000000 0.000000 
0.000000 0.000000 0.000000 
0.000000 0.000000 0.000000 

0.000000 -0.000000 0.000000 
0.000000 0.000000 0.000000 
0.000000 0.000000 0.000000 

-0.000000 0.000000 0.000000 
0.000000 -0.000000 0.000000 
0.000000 0.000000 0.000000 

-0.000000 0.000000 0.000000 
0.000000 -0.000000 0.000000 
0.000000 0.000000 0.000000 

-0.000000 0.000000 0.000000 
0.000000 0.000000 0.000000 
0.000000 0.000000 0.000000 

0.000000 -0.000000 0.000000 
0.000000 0.000000 0.000000 
0.000000 0.000000 0.000000 

-0.000000 -0.000000 0.000000 
0.000000 -0.000000 0.000000 
0.000000 0.000000 0.000000 

0.000000 -0.000000 0.000000 
0.000000 0.000000 0.000000 
0.000000 0.000000 0.000000 

-0.000000 0.000000 0.000000 
0.000000 -0.000000 0.000000 
0.000000 0.000000 0.000000 

0.000000 0.000000 0.000000 
0.000000 0.000000 0.000000 
0.000000 0.000000 0.000000 

-0.000000 -0.000000 0.000000 
0.000000 -0.000000 0.000000 
0.000000 0.000000 0.000000 

0.000000 -0.000000 0.000000 
0.000000 0.000000 0.000000 
0.000000 0.000000 0.000000 

-0.000000 -0.000000 0.000000 
0.000000 -0.000000 0.000000 
0.000000 0.000000 0.000000 

-0.000000 0.000000 0.000000 
0.000000 -0.000000 0.000000 
0.000000 0.000000 0.000000 

0.000000 0.000000 0.000000 
0.000000 0.000000 0.000000 
0.000000 0.000000 0.000000 

-0.000000 0.000000 0.000000 
0.000000 -0.000000 0.000000 
0.000000 0.000000 0.000000 

-0.000000 0.000000 0.000000 
0.000000 0.000000 0.000000 
0.000000 0.000000 0.000000 

-0.000000 -0.000000 0.000000 
0.000000 -0.000000 0.000000 
0.000000 0.000000 0.000000 

-0.000000 -0.000000 0.000000 
0.000000 -0.000000 0.000000 
0.000000 0.000000 0.000000 

0.000000 -0.000000 0.000000 
0.000000 0.000000 0.000000 
0.000000 0.000000 0.000000 

0.000000 -0.000000 0.000000 
0.000000 0.000000 0.000000 
0.000000 0.000000 0.000000 

0.000000 0.000000 0.000000 
0.000000 0.000000 0.000000 
0.000000 0.000000 0.000000 

-0.000000 -0.000000 0.000000 
0.000000 -0.000000 0.000000 
0.000000 0.000000 0.000000 

-0.000000 -0.000000 0.000000 
0.000000 -0.000000 0.000000 
0.000000 0.000000 0.000000 

-0.000000 -0.000000 0.000000 
0.000000 -0.000000 0.000000 
0.000000 0.000000 0.000000 

0.000000 -0.000000 0.000000 
0.000000 0.000000 0.000000 
0.000000 0.000000 0.000000 

0.000000 -0.000000 0.000000 
0.000000 0.000000 0.000000 
0.000000 0.000000 0.000000 

0.000000 -0.000000 0.000000 
0.000000 0.000000 0.000000 
0.000000 0.000000 0.000000 

-0.000000 -0.000000 0.000000 
0.000000 -0.000000 0.000000 
0.000000 0.000000 0.000000 

0.000000 0.000000 0.000000 
0.000000 0.000000 0.000000 
0.000000 0.000000 0.000000 

-0.000000 -0.000000 0.000000 
0.000000 -0.000000 0.000000 
0.000000 0.000000 0.000000 

-0.000000 -0.000000 0.000000 
0.000000 -0.000000 0.000000 
0.000000 0.000000 0.000000 

TENSORS STRAIN float 
0.000000 -0.000000 0.000000 
0.000000 -0.000000 0.000000 
0.000000 0.000000 0.000000 

0.000000 0.000000 0.000000 
0.000000 0.000000 0.000000 
0.000000 0.000000 0.000000 

0.000000 0.000000 0.000000 
0.000000 -0.000000 0.000000 
0.000000 0.000000 0.000000 

0.000000 0.000000 0.000000 
0.000000 -0.000000 0.000000 
0.000000 0.000000 0.000000 

0.000000 0.000000 0.000000 
0.000000 -0.000000 0.000000 
0.000000 0.000000 0.000000 

0.000000 0.000000 0.000000 
0.000000 0.000000 0.000000 
0.000000 0.000000 0.000000 

-0.000000 0.000000 0.000000 
0.000000 0.000000 0.000000 
0.000000 0.000000 0.000000 

0.000000 -0.000000 0.000000 
0.000000 -0.000000 0.000000 
0.000000 0.000000 0.000000 

0.000000 -0.000000 0.000000 
0.000000 -0.000000 0.000000 
0.000000 0.000000 0.000000 

-0.000000 0.000000 0.000000 
0.000000 0.000000 0.000000 
0.000000 0.000000 0.000000 

-0.000000 0.000000 0.000000 
0.000000 0.000000 0.000000 
0.000000 0.000000 0.000000 

-0.000000 0.000000 0.000000 
0.000000 0.000000 0.000000 
0.000000 0.000000 0.000000 

-0.000000 0.000000 0.000000 
0.000000 0.000000 0.000000 
0.000000 0.000000 0.000000 

-0.000000 0.000000 0.000000 
0.000000 0.000000 0.000000 
0.000000 0.000000 0.000000 

-0.000000 0.000000 0.000000 
0.000000 0.000000 0.000000 
0.000000 0.000000 0.000000 

-0.000000 0.000000 0.000000 
0.000000 0.000000 0.000000 
0.000000 0.000000 0.000000 

0.000000 0.000000 0.000000 
0.000000 -0.000000 0.000000 
0.000000 0.000000 0.000000 

0.000000 0.000000 0.000000 
0.000000 0.000000 0.000000 
0.000000 0.000000 0.000000 

0.000000 -0.000000 0.000000 
0.000000 0.000000 0.000000 
0.000000 0.000000 0.000000 

-0.000000 0.000000 0.000000 
0.000000 0.000000 0.000000 
0.000000 0.000000 0.000000 

-0.000000 -0.000000 0.000000 
0.000000 0.000000 0.000000 
0.000000 0.000000 0.000000 

-0.000000 0.000000 0.000000 
0.000000 0.000000 0.000000 
0.000000 0.000000 0.000000 

0.000000 -0.000000 0.000000 
0.000000 -0.000000 0.000000 
0.000000 0.000000 0.000000 

-0.000000 -0.000000 0.000000 
0.000000 0.000000 0.000000 
0.000000 0.000000 0.000000 

-0.000000 0.000000 0.000000 
0.000000 0.000000 0.000000 
0.000000 0.000000 0.000000 

0.000000 -0.000000 0.000000 
0.000000 -0.000000 0.000000 
0.000000 0.000000 0.000000 

0.000000 0.000000 0.000000 
0.000000 -0.000000 0.000000 
0.000000 0.000000 0.000000 

0.000000 -0.000000 0.000000 
0.000000 -0.000000 0.000000 
0.000000 0.000000 0.000000 

0.000000 0.000000 0.000000 
0.000000 -0.000000 0.000000 
0.000000 0.000000 0.000000 

0.000000 -0.000000 0.000000 
0.000000 -0.000000 0.000000 
0.000000 0.000000 0.000000 

0.000000 -0.000000 0.000000 
0.000000 -0.000000 0.000000 
0.000000 0.000000 0.000000 

-0.000000 0.000000 0.000000 
0.000000 0.000000 0.000000 
0.000000 0.000000 0.000000 

0.000000 0.000000 0.000000 
0.000000 -0.000000 0.000000 
0.000000 0.000000 0.000000 

0.000000 0.000000 0.000000 
0.000000 -0.000000 0.000000 
0.000000 0.000000 0.000000 

0.000000 -0.000000 0.000000 
0.000000 -0.000000 0.000000 
0.000000 0.000000 0.000000 

0.000000 -0.000000 0.000000 
0.000000 -0.000000 0.000000 
0.000000 0.000000 0.000000 

-0.000000 0.000000 0.000000 
0.000000 -0.000000 0.000000 
0.000000 0.000000 0.000000 

-0.000000 0.000000 0.000000 
0.000000 0.000000 0.000000 
0.000000 0.000000 0.000000 

-0.000000 0.000000 0.000000 
0.000000 0.000000 0.000000 
0.000000 0.000000 0.000000 

-0.000000 0.000000 0.000000 
0.000000 0.000000 0.000000 
0.000000 0.000000 0.000000 

-0.000000 -0.000000 0.000000 
0.000000 -0.000000 0.000000 
0.000000 0.000000 0.000000 

0.000000 0.000000 0.000000 
0.000000 -0.000000 0.000000 
0.000000 0.000000 0.000000 

-0.000000 0.000000 0.000000 
0.000000 0.000000 0.000000 
0.000000 0.000000 0.000000 

-0.000000 0.000000 0.000000 
0.000000 0.000000 0.000000 
0.000000 0.000000 0.000000 

-0.000000 0.000000 0.000000 
0.000000 0.000000 0.000000 
0.000000 0.000000 0.000000 

-0.000000 -0.000000 0.000000 
0.000000 0.000000 0.000000 
0.000000 0.000000 0.000000 

-0.000000 -0.000000 0.000000 
0.000000 0.000000 0.000000 
0.000000 0.000000 0.000000 

-0.000000 -0.000000 0.000000 
0.000000 0.000000 0.000000 
0.000000 0.000000 0.000000 

-0.000000 -0.000000 0.000000 
0.000000 0.000000 0.000000 
0.000000 0.000000 0.000000 

-0.000000 0.000000 0.000000 
0.000000 -0.000000 0.000000 
0.000000 0.000000 0.000000 

0.000000 -0.000000 0.000000 
0.000000 -0.000000 0.000000 
0.000000 0.000000 0.000000 

-0.000000 0.000000 0.000000 
0.000000 -0.000000 0.000000 
0.000000 0.000000 0.000000 

-0.000000 0.000000 0.000000 
0.000000 0.000000 0.000000 
0.000000 0.000000 0.000000 

0.000000 0.000000 0.000000 
0.000000 -0.000000 0.000000 
0.000000 0.000000 0.000000 

0.000000 0.000000 0.000000 
0.000000 -0.000000 0.000000 
0.000000 0.000000 0.000000 

0.000000 0.000000 0.000000 
0.000000 0.000000 0.000000 
0.000000 0.000000 0.000000 

0.000000 0.000000 0.000000 
0.000000 0.000000 0.000000 
0.000000 0.000000 0.000000 

-0.000000 0.000000 0.000000 
0.000000 0.000000 0.000000 
0.000000 0.000000 0.000000 

0.000000 -0.000000 0.000000 
0.000000 -0.000000 0.000000 
0.000000 0.000000 0.000000 

0.000000 0.000000 0.000000 
0.000000 0.000000 0.000000 
0.000000 0.000000 0.000000 

0.000000 0.000000 0.000000 
0.000000 0.000000 0.000000 
0.000000 0.000000 0.000000 

-0.000000 0.000000 0.000000 
0.000000 0.000000 0.000000 
0.000000 0.000000 0.000000 

-0.000000 -0.000000 0.000000 
0.000000 0.000000 0.000000 
0.000000 0.000000 0.000000 

-0.000000 -0.000000 0.000000 
0.000000 0.000000 0.000000 
0.000000 0.000000 0.000000 

0.000000 0.000000 0.000000 
0.000000 -0.000000 0.000000 
0.000000 0.000000 0.000000 

0.000000 -0.000000 0.000000 
0.000000 -0.000000 0.000000 
0.000000 0.000000 0.000000 

-0.000000 0.000000 0.000000 
0.000000 -0.000000 0.000000 
0.000000 0.000000 0.000000 

-0.000000 -0.000000 0.000000 
0.000000 0.000000 0.000000 
0.000000 0.000000 0.000000 

-0.000000 -0.000000 0.000000 
0.000000 0.000000 0.000000 
0.000000 0.000000 0.000000 

-0.000000 -0.000000 0.000000 
0.000000 0.000000 0.000000 
0.000000 0.000000 0.000000 

-0.000000 0.000000 0.000000 
0.000000 0.000000 0.000000 
0.000000 0.000000 0.000000 

-0.000000 -0.000000 0.000000 
0.000000 0.000000 0.000000 
0.000000 0.000000 0.000000 

0.000000 -0.000000 0.000000 
0.000000 -0.000000 0.000000 
0.000000 0.000000 0.000000 

0.000000 0.000000 0.000000 
0.000000 -0.000000 0.000000 
0.000000 0.000000 0.000000 

0.000000 -0.000000 0.000000 
0.000000 0.000000 0.000000 
0.000000 0.000000 0.000000 

0.000000 -0.000000 0.000000 
0.000000 -0.000000 0.000000 
0.000000 0.000000 0.000000 

-0.000000 0.000000 0.000000 
0.000000 0.000000 0.000000 
0.000000 0.000000 0.000000 

0.000000 -0.000000 0.000000 
0.000000 -0.000000 0.000000 
0.000000 0.000000 0.000000 

-0.000000 -0.000000 0.000000 
0.000000 0.000000 0.000000 
0.000000 0.000000 0.000000 

-0.000000 -0.000000 0.000000 
0.000000 0.000000 0.000000 
0.000000 0.000000 0.000000 

-0.000000 -0.000000 0.000000 
0.000000 0.000000 0.000000 
0.000000 0.000000 0.000000 

-0.000000 -0.000000 0.000000 
0.000000 -0.000000 0.000000 
0.000000 0.000000 0.000000 

-0.000000 -0.000000 0.000000 
0.000000 0.000000 0.000000 
0.000000 0.000000 0.000000 

0.000000 0.000000 0.000000 
0.000000 -0.000000 0.000000 
0.000000 0.000000 0.000000 

-0.000000 0.000000 0.000000 
0.000000 0.000000 0.000000 
0.000000 0.000000 0.000000 

-0.000000 -0.000000 0.000000 
0.000000 0.000000 0.000000 
0.000000 0.000000 0.000000 

-0.000000 -0.000000 0.000000 
0.000000 0.000000 0.000000 
0.000000 0.000000 0.000000 

0.000000 -0.000000 0.000000 
0.000000 0.000000 0.000000 
0.000000 0.000000 0.000000 

-0.000000 -0.000000 0.000000 
0.000000 -0.000000 0.000000 
0.000000 0.000000 0.000000 

0.000000 0.000000 0.000000 
0.000000 -0.000000 0.000000 
0.000000 0.000000 0.000000 

0.000000 0.000000 0.000000 
0.000000 -0.000000 0.000000 
0.000000 0.000000 0.000000 

0.000000 0.000000 0.000000 
0.000000 -0.000000 0.000000 
0.000000 0.000000 0.000000 

-0.000000 0.000000 0.000000 
0.000000 0.000000 0.000000 
0.000000 0.000000 0.000000 

0.000000 0.000000 0.000000 
0.000000 0.000000 0.000000 
0.000000 0.000000 0.000000 

-0.000000 -0.000000 0.000000 
0.000000 0.000000 0.000000 
0.000000 0.000000 0.000000 

-0.000000 -0.000000 0.000000 
0.000000 0.000000 0.000000 
0.000000 0.000000 0.000000 

-0.000000 -0.000000 0.000000 
0.000000 0.000000 0.000000 
0.000000 0.000000 0.000000 

0.000000 0.000000 0.000000 
0.000000 -0.000000 0.000000 
0.000000 0.000000 0.000000 

-0.000000 0.000000 0.000000 
0.000000 -0.000000 0.000000 
0.000000 0.000000 0.000000 

0.000000 0.000000 0.000000 
0.000000 -0.000000 0.000000 
0.000000 0.000000 0.000000 

0.000000 -0.000000 0.000000 
0.000000 -0.000000 0.000000 
0.000000 0.000000 0.000000 

-0.000000 -0.000000 0.000000 
0.000000 -0.000000 0.000000 
0.000000 0.000000 0.000000 

-0.000000 0.000000 0.000000 
0.000000 -0.000000 0.000000 
0.000000 0.000000 0.000000 

0.000000 -0.000000 0.000000 
0.000000 0.000000 0.000000 
0.000000 0.000000 0.000000 

0.000000 -0.000000 0.000000 
0.000000 -0.000000 0.000000 
0.000000 0.000000 0.000000 

-0.000000 -0.000000 0.000000 
0.000000 -0.000000 0.000000 
0.000000 0.000000 0.000000 

0.000000 -0.000000 0.000000 
0.000000 -0.000000 0.000000 
0.000000 0.000000 0.000000 

0.000000 -0.000000 0.000000 
0.000000 -0.000000 0.000000 
0.000000 0.000000 0.000000 

-0.000000 -0.000000 0.000000 
0.000000 0.000000 0.000000 
0.000000 0.000000 0.000000 

0.000000 -0.000000 0.000000 
0.000000 -0.000000 0.000000 
0.000000 0.000000 0.000000 

0.000000 -0.000000 0.000000 
0.000000 -0.000000 0.000000 
0.000000 0.000000 0.000000 

0.000000 -0.000000 0.000000 
0.000000 -0.000000 0.000000 
0.000000 0.000000 0.000000 

0.000000 0.000000 0.000000 
0.000000 -0.000000 0.000000 
0.000000 0.000000 0.000000 

0.000000 -0.000000 0.000000 
0.000000 0.000000 0.000000 
0.000000 0.000000 0.000000 

-0.000000 -0.000000 0.000000 
0.000000 0.000000 0.000000 
0.000000 0.000000 0.000000 

-0.000000 0.000000 0.000000 
0.000000 0.000000 0.000000 
0.000000 0.000000 0.000000 

-0.000000 -0.000000 0.000000 
0.000000 -0.000000 0.000000 
0.000000 0.000000 0.000000 

-0.000000 -0.000000 0.000000 
0.000000 0.000000 0.000000 
0.000000 0.000000 0.000000 

-0.000000 -0.000000 0.000000 
0.000000 0.000000 0.000000 
0.000000 0.000000 0.000000 

0.000000 0.000000 0.000000 
0.000000 0.000000 0.000000 
0.000000 0.000000 0.000000 

-0.000000 0.000000 0.000000 
0.000000 -0.000000 0.000000 
0.000000 0.000000 0.000000 

-0.000000 0.000000 0.000000 
0.000000 0.000000 0.000000 
0.000000 0.000000 0.000000 

-0.000000 -0.000000 0.000000 
0.000000 0.000000 0.000000 
0.000000 0.000000 0.000000 

-0.000000 -0.000000 0.000000 
0.000000 0.000000 0.000000 
0.000000 0.000000 0.000000 

-0.000000 -0.000000 0.000000 
0.000000 -0.000000 0.000000 
0.000000 0.000000 0.000000 

0.000000 -0.000000 0.000000 
0.000000 -0.000000 0.000000 
0.000000 0.000000 0.000000 

0.000000 0.000000 0.000000 
0.000000 -0.000000 0.000000 
0.000000 0.000000 0.000000 

-0.000000 -0.000000 0.000000 
0.000000 -0.000000 0.000000 
0.000000 0.000000 0.000000 

-0.000000 -0.000000 0.000000 
0.000000 0.000000 0.000000 
0.000000 0.000000 0.000000 

0.000000 0.000000 0.000000 
0.000000 0.000000 0.000000 
0.000000 0.000000 0.000000 

0.000000 0.000000 0.000000 
0.000000 -0.000000 0.000000 
0.000000 0.000000 0.000000 

0.000000 -0.000000 0.000000 
0.000000 -0.000000 0.000000 
0.000000 0.000000 0.000000 

-0.000000 0.000000 0.000000 
0.000000 0.000000 0.000000 
0.000000 0.000000 0.000000 

0.000000 -0.000000 0.000000 
0.000000 0.000000 0.000000 
0.000000 0.000000 0.000000 

0.000000 -0.000000 0.000000 
0.000000 -0.000000 0.000000 
0.000000 0.000000 0.000000 

0.000000 -0.000000 0.000000 
0.000000 -0.000000 0.000000 
0.000000 0.000000 0.000000 

0.000000 0.000000 0.000000 
0.000000 -0.000000 0.000000 
0.000000 0.000000 0.000000 

0.000000 0.000000 0.000000 
0.000000 0.000000 0.000000 
0.000000 0.000000 0.000000 

0.000000 0.000000 0.000000 
0.000000 0.000000 0.000000 
0.000000 0.000000 0.000000 

0.000000 0.000000 0.000000 
0.000000 -0.000000 0.000000 
0.000000 0.000000 0.000000 

0.000000 -0.000000 0.000000 
0.000000 0.000000 0.000000 
0.000000 0.000000 0.000000 

0.000000 -0.000000 0.000000 
0.000000 -0.000000 0.000000 
0.000000 0.000000 0.000000 

0.000000 -0.000000 0.000000 
0.000000 -0.000000 0.000000 
0.000000 0.000000 0.000000 

0.000000 -0.000000 0.000000 
0.000000 -0.000000 0.000000 
0.000000 0.000000 0.000000 

0.000000 -0.000000 0.000000 
0.000000 -0.000000 0.000000 
0.000000 0.000000 0.000000 

0.000000 0.000000 0.000000 
0.000000 -0.000000 0.000000 
0.000000 0.000000 0.000000 

-0.000000 0.000000 0.000000 
0.000000 -0.000000 0.000000 
0.000000 0.000000 0.000000 

-0.000000 0.000000 0.000000 
0.000000 0.000000 0.000000 
0.000000 0.000000 0.000000 

-0.000000 -0.000000 0.000000 
0.000000 0.000000 0.000000 
0.000000 0.000000 0.000000 

-0.000000 -0.000000 0.000000 
0.000000 -0.000000 0.000000 
0.000000 0.000000 0.000000 

0.000000 -0.000000 0.000000 
0.000000 -0.000000 0.000000 
0.000000 0.000000 0.000000 

0.000000 0.000000 0.000000 
0.000000 -0.000000 0.000000 
0.000000 0.000000 0.000000 

0.000000 0.000000 0.000000 
0.000000 -0.000000 0.000000 
0.000000 0.000000 0.000000 

0.000000 -0.000000 0.000000 
0.000000 -0.000000 0.000000 
0.000000 0.000000 0.000000 

0.000000 -0.000000 0.000000 
0.000000 0.000000 0.000000 
0.000000 0.000000 0.000000 

0.000000 -0.000000 0.000000 
0.000000 -0.000000 0.000000 
0.000000 0.000000 0.000000 

0.000000 0.000000 0.000000 
0.000000 -0.000000 0.000000 
0.000000 0.000000 0.000000 

0.000000 0.000000 0.000000 
0.000000 0.000000 0.000000 
0.000000 0.000000 0.000000 

0.000000 0.000000 0.000000 
0.000000 -0.000000 0.000000 
0.000000 0.000000 0.000000 

-0.000000 0.000000 0.000000 
0.000000 0.000000 0.000000 
0.000000 0.000000 0.000000 

-0.000000 -0.000000 0.000000 
0.000000 -0.000000 0.000000 
0.000000 0.000000 0.000000 

0.000000 -0.000000 0.000000 
0.000000 -0.000000 0.000000 
0.000000 0.000000 0.000000 

0.000000 -0.000000 0.000000 
0.000000 0.000000 0.000000 
0.000000 0.000000 0.000000 

0.000000 -0.000000 0.000000 
0.000000 -0.000000 0.000000 
0.000000 0.000000 0.000000 

0.000000 0.000000 0.000000 
0.000000 -0.000000 0.000000 
0.000000 0.000000 0.000000 

0.000000 -0.000000 0.000000 
0.000000 -0.000000 0.000000 
0.000000 0.000000 0.000000 

-0.000000 -0.000000 0.000000 
0.000000 0.000000 0.000000 
0.000000 0.000000 0.000000 

-0.000000 -0.000000 0.000000 
0.000000 0.000000 0.000000 
0.000000 0.000000 0.000000 

0.000000 -0.000000 0.000000 
0.000000 0.000000 0.000000 
0.000000 0.000000 0.000000 

0.000000 -0.000000 0.000000 
0.000000 -0.000000 0.000000 
0.000000 0.000000 0.000000 

0.000000 -0.000000 0.000000 
0.000000 -0.000000 0.000000 
0.000000 0.000000 0.000000 

0.000000 -0.000000 0.000000 
0.000000 -0.000000 0.000000 
0.000000 0.000000 0.000000 

0.000000 0.000000 0.000000 
0.000000 0.000000 0.000000 
0.000000 0.000000 0.000000 

0.000000 -0.000000 0.000000 
0.000000 -0.000000 0.000000 
0.000000 0.000000 0.000000 

0.000000 -0.000000 0.000000 
0.000000 -0.000000 0.000000 
0.000000 0.000000 0.000000 

