# vtk DataFile Version 3.0 
vtk output 
ASCII 
DATASET UNSTRUCTURED_GRID 
POINTS 175 float 
-0.026061 -0.450985 0.000000 
-0.106992 -0.382929 0.000000 
-0.054870 -0.391162 0.000000 
-0.028809 -0.345278 0.000000 
-0.186430 -0.318854 0.000000 
-0.137056 -0.321380 0.000000 
-0.114311 -0.267733 0.000000 
-0.058186 -0.283398 0.000000 
-0.029377 -0.243221 0.000000 
-0.265318 -0.255698 0.000000 
-0.217198 -0.256498 0.000000 
-0.196633 -0.199201 0.000000 
-0.143120 -0.207910 0.000000 
-0.116563 -0.160642 0.000000 
-0.058945 -0.180287 0.000000 
-0.029568 -0.142167 0.000000 
-0.344206 -0.192542 0.000000 
-0.296791 -0.192535 0.000000 
-0.278030 -0.132592 0.000000 
-0.225992 -0.138459 0.000000 
-0.201664 -0.086342 0.000000 
-0.145749 -0.099816 0.000000 
-0.117890 -0.055473 0.000000 
-0.059328 -0.078179 0.000000 
-0.029759 -0.041113 0.000000 
-0.058559 -0.491736 0.000000 
-0.162226 -0.512578 0.000000 
-0.123292 -0.476961 0.000000 
-0.142917 -0.427977 0.000000 
-0.261851 -0.534735 0.000000 
-0.229092 -0.497708 0.000000 
-0.256854 -0.446476 0.000000 
-0.209613 -0.412363 0.000000 
-0.223062 -0.364789 0.000000 
-0.360414 -0.557035 0.000000 
-0.329787 -0.519912 0.000000 
-0.361761 -0.468110 0.000000 
-0.321587 -0.431701 0.000000 
-0.341985 -0.381467 0.000000 
-0.290702 -0.348668 0.000000 
-0.302189 -0.301933 0.000000 
-0.458977 -0.579335 0.000000 
-0.429420 -0.542260 0.000000 
-0.464588 -0.490219 0.000000 
-0.427556 -0.453191 0.000000 
-0.453135 -0.401676 0.000000 
-0.407738 -0.366361 0.000000 
-0.425037 -0.316933 0.000000 
-0.370772 -0.285304 0.000000 
-0.381315 -0.239076 0.000000 
-0.046960 -0.542551 0.000000 
-0.095301 -0.636597 0.000000 
-0.098873 -0.583950 0.000000 
-0.149405 -0.568752 0.000000 
-0.140093 -0.728301 0.000000 
-0.148617 -0.679603 0.000000 
-0.205981 -0.669365 0.000000 
-0.203197 -0.611162 0.000000 
-0.248777 -0.592015 0.000000 
-0.184111 -0.819264 0.000000 
-0.194039 -0.772173 0.000000 
-0.254475 -0.764874 0.000000 
-0.257893 -0.710764 0.000000 
-0.309886 -0.695392 0.000000 
-0.303554 -0.634846 0.000000 
-0.347255 -0.614688 0.000000 
-0.228129 -0.910228 0.000000 
-0.238687 -0.864004 0.000000 
-0.301302 -0.859052 0.000000 
-0.307162 -0.807013 0.000000 
-0.363386 -0.794892 0.000000 
-0.362692 -0.737380 0.000000 
-0.412122 -0.720087 0.000000 
-0.403017 -0.657941 0.000000 
-0.445733 -0.637362 0.000000 
-0.000000 -0.565166 0.000000 
0.043388 -0.661596 0.000000 
-0.000000 -0.631564 0.000000 
-0.043388 -0.661596 0.000000 
0.087158 -0.753793 0.000000 
0.043769 -0.730094 0.000000 
-0.000000 -0.768560 0.000000 
-0.043769 -0.730094 0.000000 
-0.087158 -0.753793 0.000000 
0.130831 -0.844923 0.000000 
0.087824 -0.823324 0.000000 
0.044436 -0.866024 0.000000 
-0.000000 -0.834959 0.000000 
-0.044436 -0.866024 0.000000 
-0.087824 -0.823324 0.000000 
-0.130831 -0.844923 0.000000 
0.174505 -0.936052 0.000000 
0.131782 -0.915486 0.000000 
0.088871 -0.961353 0.000000 
0.044532 -0.933489 0.000000 
-0.000000 -0.969889 0.000000 
-0.044532 -0.933489 0.000000 
-0.088871 -0.961353 0.000000 
-0.131782 -0.915486 0.000000 
-0.174505 -0.936052 0.000000 
0.046960 -0.542551 0.000000 
0.149405 -0.568752 0.000000 
0.098873 -0.583950 0.000000 
0.095301 -0.636597 0.000000 
0.248777 -0.592015 0.000000 
0.203197 -0.611162 0.000000 
0.205981 -0.669365 0.000000 
0.148617 -0.679603 0.000000 
0.140093 -0.728301 0.000000 
0.347255 -0.614688 0.000000 
0.303554 -0.634846 0.000000 
0.309886 -0.695392 0.000000 
0.257893 -0.710764 0.000000 
0.254475 -0.764874 0.000000 
0.194039 -0.772173 0.000000 
0.184111 -0.819264 0.000000 
0.445733 -0.637362 0.000000 
0.403017 -0.657941 0.000000 
0.412122 -0.720087 0.000000 
0.362692 -0.737380 0.000000 
0.363386 -0.794892 0.000000 
0.307162 -0.807013 0.000000 
0.301302 -0.859052 0.000000 
0.238687 -0.864004 0.000000 
0.228129 -0.910228 0.000000 
0.058559 -0.491736 0.000000 
0.142917 -0.427977 0.000000 
0.123292 -0.476961 0.000000 
0.162226 -0.512578 0.000000 
0.223062 -0.364789 0.000000 
0.209613 -0.412363 0.000000 
0.256854 -0.446476 0.000000 
0.229092 -0.497708 0.000000 
0.261851 -0.534735 0.000000 
0.302189 -0.301933 0.000000 
0.290702 -0.348668 0.000000 
0.341985 -0.381467 0.000000 
0.321587 -0.431701 0.000000 
0.361761 -0.468110 0.000000 
0.329787 -0.519912 0.000000 
0.360414 -0.557035 0.000000 
0.381315 -0.239076 0.000000 
0.370772 -0.285304 0.000000 
0.425037 -0.316933 0.000000 
0.407738 -0.366361 0.000000 
0.453135 -0.401676 0.000000 
0.427556 -0.453191 0.000000 
0.464588 -0.490219 0.000000 
0.429420 -0.542260 0.000000 
0.458977 -0.579335 0.000000 
0.026061 -0.450985 0.000000 
0.028809 -0.345278 0.000000 
0.054870 -0.391162 0.000000 
0.106992 -0.382929 0.000000 
0.029377 -0.243221 0.000000 
0.058186 -0.283398 0.000000 
0.114311 -0.267733 0.000000 
0.137056 -0.321380 0.000000 
0.186430 -0.318854 0.000000 
0.029568 -0.142167 0.000000 
0.058945 -0.180287 0.000000 
0.116563 -0.160642 0.000000 
0.143120 -0.207910 0.000000 
0.196633 -0.199201 0.000000 
0.217198 -0.256498 0.000000 
0.265318 -0.255698 0.000000 
0.029759 -0.041113 0.000000 
0.059328 -0.078179 0.000000 
0.117890 -0.055473 0.000000 
0.145749 -0.099816 0.000000 
0.201664 -0.086342 0.000000 
0.225992 -0.138459 0.000000 
0.278030 -0.132592 0.000000 
0.296791 -0.192535 0.000000 
0.344206 -0.192542 0.000000 
CELLS 175 350 
1 0 
1 1 
1 2 
1 3 
1 4 
1 5 
1 6 
1 7 
1 8 
1 9 
1 10 
1 11 
1 12 
1 13 
1 14 
1 15 
1 16 
1 17 
1 18 
1 19 
1 20 
1 21 
1 22 
1 23 
1 24 
1 25 
1 26 
1 27 
1 28 
1 29 
1 30 
1 31 
1 32 
1 33 
1 34 
1 35 
1 36 
1 37 
1 38 
1 39 
1 40 
1 41 
1 42 
1 43 
1 44 
1 45 
1 46 
1 47 
1 48 
1 49 
1 50 
1 51 
1 52 
1 53 
1 54 
1 55 
1 56 
1 57 
1 58 
1 59 
1 60 
1 61 
1 62 
1 63 
1 64 
1 65 
1 66 
1 67 
1 68 
1 69 
1 70 
1 71 
1 72 
1 73 
1 74 
1 75 
1 76 
1 77 
1 78 
1 79 
1 80 
1 81 
1 82 
1 83 
1 84 
1 85 
1 86 
1 87 
1 88 
1 89 
1 90 
1 91 
1 92 
1 93 
1 94 
1 95 
1 96 
1 97 
1 98 
1 99 
1 100 
1 101 
1 102 
1 103 
1 104 
1 105 
1 106 
1 107 
1 108 
1 109 
1 110 
1 111 
1 112 
1 113 
1 114 
1 115 
1 116 
1 117 
1 118 
1 119 
1 120 
1 121 
1 122 
1 123 
1 124 
1 125 
1 126 
1 127 
1 128 
1 129 
1 130 
1 131 
1 132 
1 133 
1 134 
1 135 
1 136 
1 137 
1 138 
1 139 
1 140 
1 141 
1 142 
1 143 
1 144 
1 145 
1 146 
1 147 
1 148 
1 149 
1 150 
1 151 
1 152 
1 153 
1 154 
1 155 
1 156 
1 157 
1 158 
1 159 
1 160 
1 161 
1 162 
1 163 
1 164 
1 165 
1 166 
1 167 
1 168 
1 169 
1 170 
1 171 
1 172 
1 173 
1 174 
CELL_TYPES 175 
1 
1 
1 
1 
1 
1 
1 
1 
1 
1 
1 
1 
1 
1 
1 
1 
1 
1 
1 
1 
1 
1 
1 
1 
1 
1 
1 
1 
1 
1 
1 
1 
1 
1 
1 
1 
1 
1 
1 
1 
1 
1 
1 
1 
1 
1 
1 
1 
1 
1 
1 
1 
1 
1 
1 
1 
1 
1 
1 
1 
1 
1 
1 
1 
1 
1 
1 
1 
1 
1 
1 
1 
1 
1 
1 
1 
1 
1 
1 
1 
1 
1 
1 
1 
1 
1 
1 
1 
1 
1 
1 
1 
1 
1 
1 
1 
1 
1 
1 
1 
1 
1 
1 
1 
1 
1 
1 
1 
1 
1 
1 
1 
1 
1 
1 
1 
1 
1 
1 
1 
1 
1 
1 
1 
1 
1 
1 
1 
1 
1 
1 
1 
1 
1 
1 
1 
1 
1 
1 
1 
1 
1 
1 
1 
1 
1 
1 
1 
1 
1 
1 
1 
1 
1 
1 
1 
1 
1 
1 
1 
1 
1 
1 
1 
1 
1 
1 
1 
1 
1 
1 
1 
1 
1 
1 
POINT_DATA 175 
VECTORS X_GC float 
-0.026061 -0.450985 0.000000 
-0.106992 -0.382929 0.000000 
-0.054870 -0.391162 0.000000 
-0.028809 -0.345278 0.000000 
-0.186430 -0.318854 0.000000 
-0.137056 -0.321380 0.000000 
-0.114311 -0.267733 0.000000 
-0.058186 -0.283398 0.000000 
-0.029377 -0.243221 0.000000 
-0.265318 -0.255698 0.000000 
-0.217198 -0.256498 0.000000 
-0.196633 -0.199201 0.000000 
-0.143120 -0.207910 0.000000 
-0.116563 -0.160642 0.000000 
-0.058945 -0.180287 0.000000 
-0.029568 -0.142167 0.000000 
-0.344206 -0.192542 0.000000 
-0.296791 -0.192535 0.000000 
-0.278030 -0.132592 0.000000 
-0.225992 -0.138459 0.000000 
-0.201664 -0.086342 0.000000 
-0.145749 -0.099816 0.000000 
-0.117890 -0.055473 0.000000 
-0.059328 -0.078179 0.000000 
-0.029759 -0.041113 0.000000 
-0.058559 -0.491736 0.000000 
-0.162226 -0.512578 0.000000 
-0.123292 -0.476961 0.000000 
-0.142917 -0.427977 0.000000 
-0.261851 -0.534735 0.000000 
-0.229092 -0.497708 0.000000 
-0.256854 -0.446476 0.000000 
-0.209613 -0.412363 0.000000 
-0.223062 -0.364789 0.000000 
-0.360414 -0.557035 0.000000 
-0.329787 -0.519912 0.000000 
-0.361761 -0.468110 0.000000 
-0.321587 -0.431701 0.000000 
-0.341985 -0.381467 0.000000 
-0.290702 -0.348668 0.000000 
-0.302189 -0.301933 0.000000 
-0.458977 -0.579335 0.000000 
-0.429420 -0.542260 0.000000 
-0.464588 -0.490219 0.000000 
-0.427556 -0.453191 0.000000 
-0.453135 -0.401676 0.000000 
-0.407738 -0.366361 0.000000 
-0.425037 -0.316933 0.000000 
-0.370772 -0.285304 0.000000 
-0.381315 -0.239076 0.000000 
-0.046960 -0.542551 0.000000 
-0.095301 -0.636597 0.000000 
-0.098873 -0.583950 0.000000 
-0.149405 -0.568752 0.000000 
-0.140093 -0.728301 0.000000 
-0.148617 -0.679603 0.000000 
-0.205981 -0.669365 0.000000 
-0.203197 -0.611162 0.000000 
-0.248777 -0.592015 0.000000 
-0.184111 -0.819264 0.000000 
-0.194039 -0.772173 0.000000 
-0.254475 -0.764874 0.000000 
-0.257893 -0.710764 0.000000 
-0.309886 -0.695392 0.000000 
-0.303554 -0.634846 0.000000 
-0.347255 -0.614688 0.000000 
-0.228129 -0.910228 0.000000 
-0.238687 -0.864004 0.000000 
-0.301302 -0.859052 0.000000 
-0.307162 -0.807013 0.000000 
-0.363386 -0.794892 0.000000 
-0.362692 -0.737380 0.000000 
-0.412122 -0.720087 0.000000 
-0.403017 -0.657941 0.000000 
-0.445733 -0.637362 0.000000 
-0.000000 -0.565166 0.000000 
0.043388 -0.661596 0.000000 
-0.000000 -0.631564 0.000000 
-0.043388 -0.661596 0.000000 
0.087158 -0.753793 0.000000 
0.043769 -0.730094 0.000000 
-0.000000 -0.768560 0.000000 
-0.043769 -0.730094 0.000000 
-0.087158 -0.753793 0.000000 
0.130831 -0.844923 0.000000 
0.087824 -0.823324 0.000000 
0.044436 -0.866024 0.000000 
-0.000000 -0.834959 0.000000 
-0.044436 -0.866024 0.000000 
-0.087824 -0.823324 0.000000 
-0.130831 -0.844923 0.000000 
0.174505 -0.936052 0.000000 
0.131782 -0.915486 0.000000 
0.088871 -0.961353 0.000000 
0.044532 -0.933489 0.000000 
-0.000000 -0.969889 0.000000 
-0.044532 -0.933489 0.000000 
-0.088871 -0.961353 0.000000 
-0.131782 -0.915486 0.000000 
-0.174505 -0.936052 0.000000 
0.046960 -0.542551 0.000000 
0.149405 -0.568752 0.000000 
0.098873 -0.583950 0.000000 
0.095301 -0.636597 0.000000 
0.248777 -0.592015 0.000000 
0.203197 -0.611162 0.000000 
0.205981 -0.669365 0.000000 
0.148617 -0.679603 0.000000 
0.140093 -0.728301 0.000000 
0.347255 -0.614688 0.000000 
0.303554 -0.634846 0.000000 
0.309886 -0.695392 0.000000 
0.257893 -0.710764 0.000000 
0.254475 -0.764874 0.000000 
0.194039 -0.772173 0.000000 
0.184111 -0.819264 0.000000 
0.445733 -0.637362 0.000000 
0.403017 -0.657941 0.000000 
0.412122 -0.720087 0.000000 
0.362692 -0.737380 0.000000 
0.363386 -0.794892 0.000000 
0.307162 -0.807013 0.000000 
0.301302 -0.859052 0.000000 
0.238687 -0.864004 0.000000 
0.228129 -0.910228 0.000000 
0.058559 -0.491736 0.000000 
0.142917 -0.427977 0.000000 
0.123292 -0.476961 0.000000 
0.162226 -0.512578 0.000000 
0.223062 -0.364789 0.000000 
0.209613 -0.412363 0.000000 
0.256854 -0.446476 0.000000 
0.229092 -0.497708 0.000000 
0.261851 -0.534735 0.000000 
0.302189 -0.301933 0.000000 
0.290702 -0.348668 0.000000 
0.341985 -0.381467 0.000000 
0.321587 -0.431701 0.000000 
0.361761 -0.468110 0.000000 
0.329787 -0.519912 0.000000 
0.360414 -0.557035 0.000000 
0.381315 -0.239076 0.000000 
0.370772 -0.285304 0.000000 
0.425037 -0.316933 0.000000 
0.407738 -0.366361 0.000000 
0.453135 -0.401676 0.000000 
0.427556 -0.453191 0.000000 
0.464588 -0.490219 0.000000 
0.429420 -0.542260 0.000000 
0.458977 -0.579335 0.000000 
0.026061 -0.450985 0.000000 
0.028809 -0.345278 0.000000 
0.054870 -0.391162 0.000000 
0.106992 -0.382929 0.000000 
0.029377 -0.243221 0.000000 
0.058186 -0.283398 0.000000 
0.114311 -0.267733 0.000000 
0.137056 -0.321380 0.000000 
0.186430 -0.318854 0.000000 
0.029568 -0.142167 0.000000 
0.058945 -0.180287 0.000000 
0.116563 -0.160642 0.000000 
0.143120 -0.207910 0.000000 
0.196633 -0.199201 0.000000 
0.217198 -0.256498 0.000000 
0.265318 -0.255698 0.000000 
0.029759 -0.041113 0.000000 
0.059328 -0.078179 0.000000 
0.117890 -0.055473 0.000000 
0.145749 -0.099816 0.000000 
0.201664 -0.086342 0.000000 
0.225992 -0.138459 0.000000 
0.278030 -0.132592 0.000000 
0.296791 -0.192535 0.000000 
0.344206 -0.192542 0.000000 
VECTORS X_EC float 
0.338794 0.588296 0.000000 
-0.609100 -0.330453 0.000000 
0.713312 -0.219312 0.000000 
0.374519 -0.838741 0.000000 
0.423588 0.804528 0.000000 
-0.218274 0.838632 0.000000 
-0.513962 0.114393 0.000000 
0.756418 0.325879 0.000000 
0.381900 -0.216513 0.000000 
-0.550868 -0.048075 0.000000 
0.823577 -0.037279 0.000000 
0.556234 -0.810784 0.000000 
-0.139443 -0.693215 0.000000 
-0.484677 0.668661 0.000000 
0.766286 0.933876 0.000000 
0.384386 0.419256 0.000000 
0.474677 -0.900678 0.000000 
-0.141715 -0.900775 0.000000 
-0.385608 0.289997 0.000000 
0.937896 0.369193 0.000000 
0.621631 -0.334387 0.000000 
-0.105264 -0.152488 0.000000 
-0.467428 -0.751114 0.000000 
0.771260 -0.444586 0.000000 
0.386873 -0.944975 0.000000 
0.761262 -0.861570 0.000000 
0.108942 -0.580193 0.000000 
-0.397202 0.938968 0.000000 
-0.142083 0.277692 0.000000 
-0.595936 -0.281082 0.000000 
0.978194 -0.780948 0.000000 
-0.660903 0.527427 0.000000 
0.724964 0.066907 0.000000 
0.899809 -0.575342 0.000000 
0.685384 0.019970 0.000000 
0.287229 -0.481189 0.000000 
0.702895 0.819483 0.000000 
0.180633 0.327964 0.000000 
0.445811 -0.350196 0.000000 
-0.220880 -0.792982 0.000000 
-0.071546 0.576093 0.000000 
-0.033296 0.321022 0.000000 
-0.417537 -0.179488 0.000000 
0.039645 -0.882050 0.000000 
-0.441768 0.618079 0.000000 
-0.109248 -0.077372 0.000000 
-0.699407 -0.554128 0.000000 
-0.474522 0.778593 0.000000 
0.820030 0.351600 0.000000 
0.957100 -0.272472 0.000000 
0.610485 -0.175563 0.000000 
-0.761092 -0.905944 0.000000 
-0.714655 0.383318 0.000000 
-0.057734 0.178151 0.000000 
-0.178789 0.332060 0.000000 
-0.067979 -0.325366 0.000000 
0.677748 -0.463569 0.000000 
0.641556 0.750685 0.000000 
-0.765897 0.492207 0.000000 
0.393446 -0.439931 0.000000 
0.522510 0.924339 0.000000 
-0.691820 0.825795 0.000000 
-0.647393 0.095312 0.000000 
0.028512 -0.112214 0.000000 
-0.053800 -0.929575 0.000000 
0.514316 0.798295 0.000000 
0.965681 0.788078 0.000000 
-0.897068 0.164050 0.000000 
-0.083078 0.097197 0.000000 
-0.006893 -0.605328 0.000000 
0.724017 -0.768961 0.000000 
0.714996 0.454636 0.000000 
-0.642413 0.221178 0.000000 
-0.760780 -0.617802 0.000000 
-0.205471 -0.895618 0.000000 
0.000000 0.129738 0.000000 
-0.564049 -0.568449 0.000000 
0.000000 -0.973885 0.000000 
0.564049 -0.568449 0.000000 
0.866949 0.676206 0.000000 
-0.569003 0.356275 0.000000 
0.000000 0.875563 0.000000 
0.569003 0.356275 0.000000 
-0.866949 0.676206 0.000000 
0.299194 -0.093544 0.000000 
0.858290 -0.385127 0.000000 
-0.577662 0.191318 0.000000 
0.000000 -0.228060 0.000000 
0.577662 0.191318 0.000000 
-0.858290 -0.385127 0.000000 
-0.299194 -0.093544 0.000000 
-0.268560 -0.863293 0.000000 
0.286830 0.859065 0.000000 
0.844677 -0.521737 0.000000 
-0.578910 -0.897900 0.000000 
0.000000 -0.406496 0.000000 
0.578910 -0.897900 0.000000 
-0.844677 -0.521737 0.000000 
-0.286830 0.859065 0.000000 
0.268560 -0.863293 0.000000 
-0.610485 -0.175563 0.000000 
0.057734 0.178151 0.000000 
0.714655 0.383318 0.000000 
0.761092 -0.905944 0.000000 
0.765897 0.492207 0.000000 
-0.641556 0.750685 0.000000 
-0.677748 -0.463569 0.000000 
0.067979 -0.325366 0.000000 
0.178789 0.332060 0.000000 
-0.514316 0.798295 0.000000 
0.053800 -0.929575 0.000000 
-0.028512 -0.112214 0.000000 
0.647393 0.095313 0.000000 
0.691820 0.825795 0.000000 
-0.522510 0.924339 0.000000 
-0.393446 -0.439931 0.000000 
0.205471 -0.895618 0.000000 
0.760780 -0.617802 0.000000 
0.642413 0.221178 0.000000 
-0.714996 0.454636 0.000000 
-0.724017 -0.768961 0.000000 
0.006894 -0.605328 0.000000 
0.083078 0.097197 0.000000 
0.897068 0.164050 0.000000 
-0.965681 0.788078 0.000000 
-0.761262 -0.861570 0.000000 
0.142083 0.277692 0.000000 
0.397202 0.938968 0.000000 
-0.108942 -0.580193 0.000000 
-0.899809 -0.575342 0.000000 
-0.724964 0.066907 0.000000 
0.660903 0.527427 0.000000 
-0.978194 -0.780948 0.000000 
0.595936 -0.281082 0.000000 
0.071546 0.576093 0.000000 
0.220880 -0.792982 0.000000 
-0.445811 -0.350196 0.000000 
-0.180633 0.327964 0.000000 
-0.702895 0.819483 0.000000 
-0.287229 -0.481189 0.000000 
-0.685384 0.019970 0.000000 
-0.957100 -0.272472 0.000000 
-0.820030 0.351600 0.000000 
0.474522 0.778593 0.000000 
0.699407 -0.554128 0.000000 
0.109248 -0.077372 0.000000 
0.441768 0.618079 0.000000 
-0.039645 -0.882050 0.000000 
0.417537 -0.179488 0.000000 
0.033296 0.321022 0.000000 
-0.338794 0.588296 0.000000 
-0.374519 -0.838741 0.000000 
-0.713312 -0.219312 0.000000 
0.609100 -0.330453 0.000000 
-0.381900 -0.216513 0.000000 
-0.756418 0.325879 0.000000 
0.513962 0.114393 0.000000 
0.218274 0.838632 0.000000 
-0.423588 0.804528 0.000000 
-0.384386 0.419256 0.000000 
-0.766286 0.933876 0.000000 
0.484677 0.668661 0.000000 
0.139443 -0.693215 0.000000 
-0.556234 -0.810784 0.000000 
-0.823577 -0.037279 0.000000 
0.550868 -0.048075 0.000000 
-0.386873 -0.944975 0.000000 
-0.771260 -0.444586 0.000000 
0.467428 -0.751114 0.000000 
0.105264 -0.152488 0.000000 
-0.621631 -0.334387 0.000000 
-0.937896 0.369193 0.000000 
0.385608 0.289997 0.000000 
0.141715 -0.900775 0.000000 
-0.474677 -0.900678 0.000000 
CELL_DATA 175 
SCALARS MASS float 
LOOKUP_TABLE default 
0.781831 
0.864274 
0.946717 
0.864274 
0.881307 
0.921110 
0.858535 
0.921110 
0.881307 
0.887046 
0.910001 
0.869829 
0.915556 
0.869829 
0.910001 
0.887046 
0.892784 
0.915740 
0.892784 
0.927218 
0.892784 
0.927218 
0.892784 
0.915740 
0.892784 
0.781831 
0.864274 
0.946717 
0.864274 
0.881307 
0.921110 
0.858535 
0.921110 
0.881307 
0.887046 
0.910001 
0.869829 
0.915556 
0.869829 
0.910001 
0.887046 
0.892784 
0.915740 
0.892784 
0.927218 
0.892784 
0.927218 
0.892784 
0.915740 
0.892784 
0.781831 
0.864274 
0.946717 
0.864274 
0.881307 
0.921110 
0.858535 
0.921110 
0.881307 
0.887046 
0.910001 
0.869829 
0.915556 
0.869829 
0.910001 
0.887046 
0.892784 
0.915740 
0.892784 
0.927218 
0.892784 
0.927218 
0.892784 
0.915740 
0.892784 
0.781831 
0.864274 
0.946717 
0.864274 
0.881307 
0.921110 
0.858535 
0.921110 
0.881307 
0.887046 
0.910001 
0.869829 
0.915556 
0.869829 
0.910001 
0.887046 
0.892784 
0.915740 
0.892784 
0.927218 
0.892784 
0.927218 
0.892784 
0.915740 
0.892784 
0.781831 
0.864274 
0.946717 
0.864274 
0.881307 
0.921110 
0.858535 
0.921110 
0.881307 
0.887046 
0.910001 
0.869829 
0.915556 
0.869829 
0.910001 
0.887046 
0.892784 
0.915740 
0.892784 
0.927218 
0.892784 
0.927218 
0.892784 
0.915740 
0.892784 
0.781831 
0.864274 
0.946717 
0.864274 
0.881307 
0.921110 
0.858535 
0.921110 
0.881307 
0.887046 
0.910001 
0.869829 
0.915556 
0.869829 
0.910001 
0.887046 
0.892784 
0.915740 
0.892784 
0.927218 
0.892784 
0.927218 
0.892784 
0.915740 
0.892784 
0.781831 
0.864274 
0.946717 
0.864274 
0.881307 
0.921110 
0.858535 
0.921110 
0.881307 
0.887046 
0.910001 
0.869829 
0.915556 
0.869829 
0.910001 
0.887046 
0.892784 
0.915740 
0.892784 
0.927218 
0.892784 
0.927218 
0.892784 
0.915740 
0.892784 
SCALARS MASS float 
LOOKUP_TABLE default 
0.781831 
0.864274 
0.946717 
0.864274 
0.881307 
0.921110 
0.858535 
0.921110 
0.881307 
0.887046 
0.910001 
0.869829 
0.915556 
0.869829 
0.910001 
0.887046 
0.892784 
0.915740 
0.892784 
0.927218 
0.892784 
0.927218 
0.892784 
0.915740 
0.892784 
0.781831 
0.864274 
0.946717 
0.864274 
0.881307 
0.921110 
0.858535 
0.921110 
0.881307 
0.887046 
0.910001 
0.869829 
0.915556 
0.869829 
0.910001 
0.887046 
0.892784 
0.915740 
0.892784 
0.927218 
0.892784 
0.927218 
0.892784 
0.915740 
0.892784 
0.781831 
0.864274 
0.946717 
0.864274 
0.881307 
0.921110 
0.858535 
0.921110 
0.881307 
0.887046 
0.910001 
0.869829 
0.915556 
0.869829 
0.910001 
0.887046 
0.892784 
0.915740 
0.892784 
0.927218 
0.892784 
0.927218 
0.892784 
0.915740 
0.892784 
0.781831 
0.864274 
0.946717 
0.864274 
0.881307 
0.921110 
0.858535 
0.921110 
0.881307 
0.887046 
0.910001 
0.869829 
0.915556 
0.869829 
0.910001 
0.887046 
0.892784 
0.915740 
0.892784 
0.927218 
0.892784 
0.927218 
0.892784 
0.915740 
0.892784 
0.781831 
0.864274 
0.946717 
0.864274 
0.881307 
0.921110 
0.858535 
0.921110 
0.881307 
0.887046 
0.910001 
0.869829 
0.915556 
0.869829 
0.910001 
0.887046 
0.892784 
0.915740 
0.892784 
0.927218 
0.892784 
0.927218 
0.892784 
0.915740 
0.892784 
0.781831 
0.864274 
0.946717 
0.864274 
0.881307 
0.921110 
0.858535 
0.921110 
0.881307 
0.887046 
0.910001 
0.869829 
0.915556 
0.869829 
0.910001 
0.887046 
0.892784 
0.915740 
0.892784 
0.927218 
0.892784 
0.927218 
0.892784 
0.915740 
0.892784 
0.781831 
0.864274 
0.946717 
0.864274 
0.881307 
0.921110 
0.858535 
0.921110 
0.881307 
0.887046 
0.910001 
0.869829 
0.915556 
0.869829 
0.910001 
0.887046 
0.892784 
0.915740 
0.892784 
0.927218 
0.892784 
0.927218 
0.892784 
0.915740 
0.892784 
SCALARS DENSITY float 
LOOKUP_TABLE default 
200.000000 
200.000000 
200.000000 
200.000000 
200.000000 
200.000000 
200.000000 
200.000000 
200.000000 
200.000000 
200.000000 
200.000000 
200.000000 
200.000000 
200.000000 
200.000000 
200.000000 
200.000000 
200.000000 
200.000000 
200.000000 
200.000000 
200.000000 
200.000000 
200.000000 
200.000000 
200.000000 
200.000000 
200.000000 
200.000000 
200.000000 
200.000000 
200.000000 
200.000000 
200.000000 
200.000000 
200.000000 
200.000000 
200.000000 
200.000000 
200.000000 
200.000000 
200.000000 
200.000000 
200.000000 
200.000000 
200.000000 
200.000000 
200.000000 
200.000000 
200.000000 
200.000000 
200.000000 
200.000000 
200.000000 
200.000000 
200.000000 
200.000000 
200.000000 
200.000000 
200.000000 
200.000000 
200.000000 
200.000000 
200.000000 
200.000000 
200.000000 
200.000000 
200.000000 
200.000000 
200.000000 
200.000000 
200.000000 
200.000000 
200.000000 
200.000000 
200.000000 
200.000000 
200.000000 
200.000000 
200.000000 
200.000000 
200.000000 
200.000000 
200.000000 
200.000000 
200.000000 
200.000000 
200.000000 
200.000000 
200.000000 
200.000000 
200.000000 
200.000000 
200.000000 
200.000000 
200.000000 
200.000000 
200.000000 
200.000000 
200.000000 
200.000000 
200.000000 
200.000000 
200.000000 
200.000000 
200.000000 
200.000000 
200.000000 
200.000000 
200.000000 
200.000000 
200.000000 
200.000000 
200.000000 
200.000000 
200.000000 
200.000000 
200.000000 
200.000000 
200.000000 
200.000000 
200.000000 
200.000000 
200.000000 
200.000000 
200.000000 
200.000000 
200.000000 
200.000000 
200.000000 
200.000000 
200.000000 
200.000000 
200.000000 
200.000000 
200.000000 
200.000000 
200.000000 
200.000000 
200.000000 
200.000000 
200.000000 
200.000000 
200.000000 
200.000000 
200.000000 
200.000000 
200.000000 
200.000000 
200.000000 
200.000000 
200.000000 
200.000000 
200.000000 
200.000000 
200.000000 
200.000000 
200.000000 
200.000000 
200.000000 
200.000000 
200.000000 
200.000000 
200.000000 
200.000000 
200.000000 
200.000000 
200.000000 
200.000000 
200.000000 
200.000000 
200.000000 
200.000000 
200.000000 
SCALARS ELEM_i float 
LOOKUP_TABLE default 
179 
206 
179 
179 
207 
207 
207 
180 
180 
234 
207 
207 
207 
208 
181 
181 
234 
234 
235 
208 
208 
208 
208 
181 
181 
178 
205 
206 
206 
232 
205 
233 
206 
206 
232 
232 
233 
233 
233 
233 
234 
259 
259 
259 
260 
260 
260 
261 
234 
234 
178 
204 
205 
205 
204 
204 
204 
205 
232 
203 
204 
231 
231 
231 
231 
232 
203 
230 
230 
230 
230 
231 
258 
258 
258 
178 
177 
177 
177 
150 
177 
177 
177 
204 
149 
149 
176 
176 
176 
203 
203 
148 
149 
148 
175 
175 
175 
202 
203 
202 
178 
151 
151 
150 
124 
151 
150 
150 
150 
124 
123 
123 
123 
123 
150 
149 
96 
96 
96 
123 
122 
122 
122 
122 
149 
178 
152 
152 
151 
152 
152 
125 
151 
124 
126 
125 
125 
125 
125 
124 
124 
126 
126 
99 
98 
98 
98 
97 
97 
97 
179 
179 
179 
152 
180 
180 
153 
153 
153 
181 
181 
154 
153 
153 
153 
126 
181 
181 
154 
154 
154 
154 
127 
126 
126 
VECTORS VELOCITY float 
-0.000000 -3.147048 0.000000 
-0.000000 -3.147048 0.000000 
-0.000000 -3.147048 0.000000 
-0.000000 -3.147048 0.000000 
0.000000 -3.147048 0.000000 
0.000000 -3.147048 0.000000 
0.000000 -3.147048 0.000000 
0.000000 -3.147048 0.000000 
0.000000 -3.147048 0.000000 
0.000000 -3.147048 0.000000 
0.000000 -3.147048 0.000000 
-0.000000 -3.147048 0.000000 
0.000000 -3.147048 0.000000 
0.000000 -3.147048 0.000000 
0.000000 -3.147048 0.000000 
0.000000 -3.147048 0.000000 
0.000000 -3.147048 0.000000 
0.000000 -3.147048 0.000000 
0.000000 -3.147048 0.000000 
-0.000000 -3.147048 0.000000 
0.000000 -3.147048 0.000000 
-0.000000 -3.147048 0.000000 
-0.000000 -3.147048 0.000000 
-0.000000 -3.147048 0.000000 
-0.000000 -3.147048 0.000000 
0.000000 -3.147048 0.000000 
0.000000 -3.147048 0.000000 
0.000000 -3.147048 0.000000 
0.000000 -3.147048 0.000000 
0.000000 -3.147048 0.000000 
0.000000 -3.147048 0.000000 
0.000000 -3.147048 0.000000 
0.000000 -3.147048 0.000000 
0.000000 -3.147048 0.000000 
-0.000000 -3.147048 0.000000 
0.000000 -3.147048 0.000000 
-0.000000 -3.147048 0.000000 
-0.000000 -3.147048 0.000000 
-0.000000 -3.147048 0.000000 
0.000000 -3.147048 0.000000 
0.000000 -3.147048 0.000000 
-0.000000 -3.147048 0.000000 
-0.000000 -3.147048 0.000000 
-0.000000 -3.147048 0.000000 
-0.000000 -3.147048 0.000000 
0.000000 -3.147048 0.000000 
-0.000000 -3.147048 0.000000 
0.000000 -3.147048 0.000000 
0.000000 -3.147048 0.000000 
0.000000 -3.147048 0.000000 
-0.000000 -3.147048 0.000000 
-0.000000 -3.147048 0.000000 
-0.000000 -3.147048 0.000000 
-0.000000 -3.147048 0.000000 
-0.000000 -3.147048 0.000000 
-0.000000 -3.147048 0.000000 
-0.000000 -3.147048 0.000000 
0.000000 -3.147048 0.000000 
0.000000 -3.147048 0.000000 
-0.000000 -3.147048 0.000000 
-0.000000 -3.147048 0.000000 
-0.000000 -3.147048 0.000000 
-0.000000 -3.147048 0.000000 
-0.000000 -3.147048 0.000000 
0.000000 -3.147048 0.000000 
-0.000000 -3.147048 0.000000 
-0.000000 -3.147048 0.000000 
-0.000000 -3.147048 0.000000 
0.000000 -3.147048 0.000000 
-0.000000 -3.147048 0.000000 
-0.000000 -3.147048 0.000000 
-0.000000 -3.147048 0.000000 
-0.000000 -3.147048 0.000000 
-0.000000 -3.147048 0.000000 
-0.000000 -3.147048 0.000000 
-0.000000 -3.147048 0.000000 
-0.000000 -3.147048 0.000000 
-0.000000 -3.147048 0.000000 
-0.000000 -3.147048 0.000000 
-0.000000 -3.147048 0.000000 
-0.000000 -3.147048 0.000000 
-0.000000 -3.147048 0.000000 
-0.000000 -3.147048 0.000000 
-0.000000 -3.147048 0.000000 
-0.000000 -3.147048 0.000000 
-0.000000 -3.147048 0.000000 
-0.000000 -3.147048 0.000000 
-0.000000 -3.147048 0.000000 
-0.000000 -3.147048 0.000000 
-0.000000 -3.147048 0.000000 
-0.000000 -3.147048 0.000000 
-0.000000 -3.147048 0.000000 
0.000000 -3.147048 0.000000 
-0.000000 -3.147048 0.000000 
0.000000 -3.147048 0.000000 
-0.000000 -3.147048 0.000000 
0.000000 -3.147048 0.000000 
0.000000 -3.147048 0.000000 
-0.000000 -3.147048 0.000000 
0.000000 -3.147048 0.000000 
-0.000000 -3.147048 0.000000 
0.000000 -3.147048 0.000000 
0.000000 -3.147048 0.000000 
0.000000 -3.147048 0.000000 
0.000000 -3.147048 0.000000 
0.000000 -3.147048 0.000000 
-0.000000 -3.147048 0.000000 
-0.000000 -3.147048 0.000000 
-0.000000 -3.147048 0.000000 
-0.000000 -3.147048 0.000000 
0.000000 -3.147048 0.000000 
-0.000000 -3.147048 0.000000 
-0.000000 -3.147048 0.000000 
-0.000000 -3.147048 0.000000 
-0.000000 -3.147048 0.000000 
0.000000 -3.147048 0.000000 
-0.000000 -3.147048 0.000000 
0.000000 -3.147048 0.000000 
-0.000000 -3.147048 0.000000 
-0.000000 -3.147048 0.000000 
-0.000000 -3.147048 0.000000 
-0.000000 -3.147048 0.000000 
-0.000000 -3.147048 0.000000 
0.000000 -3.147048 0.000000 
-0.000000 -3.147048 0.000000 
-0.000000 -3.147048 0.000000 
-0.000000 -3.147048 0.000000 
0.000000 -3.147048 0.000000 
0.000000 -3.147048 0.000000 
-0.000000 -3.147048 0.000000 
-0.000000 -3.147048 0.000000 
-0.000000 -3.147048 0.000000 
0.000000 -3.147048 0.000000 
0.000000 -3.147048 0.000000 
0.000000 -3.147048 0.000000 
0.000000 -3.147048 0.000000 
0.000000 -3.147048 0.000000 
0.000000 -3.147048 0.000000 
0.000000 -3.147048 0.000000 
-0.000000 -3.147048 0.000000 
-0.000000 -3.147048 0.000000 
0.000000 -3.147048 0.000000 
0.000000 -3.147048 0.000000 
-0.000000 -3.147048 0.000000 
0.000000 -3.147048 0.000000 
-0.000000 -3.147048 0.000000 
0.000000 -3.147048 0.000000 
-0.000000 -3.147048 0.000000 
-0.000000 -3.147048 0.000000 
-0.000000 -3.147048 0.000000 
0.000000 -3.147048 0.000000 
0.000000 -3.147048 0.000000 
0.000000 -3.147048 0.000000 
0.000000 -3.147048 0.000000 
0.000000 -3.147048 0.000000 
0.000000 -3.147048 0.000000 
0.000000 -3.147048 0.000000 
0.000000 -3.147048 0.000000 
0.000000 -3.147048 0.000000 
0.000000 -3.147048 0.000000 
0.000000 -3.147048 0.000000 
-0.000000 -3.147048 0.000000 
0.000000 -3.147048 0.000000 
0.000000 -3.147048 0.000000 
0.000000 -3.147048 0.000000 
0.000000 -3.147048 0.000000 
0.000000 -3.147048 0.000000 
0.000000 -3.147048 0.000000 
0.000000 -3.147048 0.000000 
0.000000 -3.147048 0.000000 
0.000000 -3.147048 0.000000 
-0.000000 -3.147048 0.000000 
0.000000 -3.147048 0.000000 
0.000000 -3.147048 0.000000 
0.000000 -3.147048 0.000000 
TENSORS STRESS float 
-0.000000 0.000000 0.000000 
0.000000 -0.000000 0.000000 
0.000000 0.000000 0.000000 

0.000000 0.000000 0.000000 
0.000000 0.000000 0.000000 
0.000000 0.000000 0.000000 

-0.000000 0.000000 0.000000 
0.000000 -0.000000 0.000000 
0.000000 0.000000 0.000000 

0.000000 -0.000000 0.000000 
0.000000 0.000000 0.000000 
0.000000 0.000000 0.000000 

0.000000 0.000000 0.000000 
0.000000 0.000000 0.000000 
0.000000 0.000000 0.000000 

-0.000000 0.000000 0.000000 
0.000000 -0.000000 0.000000 
0.000000 0.000000 0.000000 

-0.000000 -0.000000 0.000000 
0.000000 -0.000000 0.000000 
0.000000 0.000000 0.000000 

0.000000 0.000000 0.000000 
0.000000 0.000000 0.000000 
0.000000 0.000000 0.000000 

-0.000000 -0.000000 0.000000 
0.000000 -0.000000 0.000000 
0.000000 0.000000 0.000000 

0.000000 -0.000000 0.000000 
0.000000 0.000000 0.000000 
0.000000 0.000000 0.000000 

-0.000000 -0.000000 0.000000 
0.000000 -0.000000 0.000000 
0.000000 0.000000 0.000000 

-0.000000 -0.000000 0.000000 
0.000000 -0.000000 0.000000 
0.000000 0.000000 0.000000 

0.000000 -0.000000 0.000000 
0.000000 0.000000 0.000000 
0.000000 0.000000 0.000000 

0.000000 0.000000 0.000000 
0.000000 0.000000 0.000000 
0.000000 0.000000 0.000000 

0.000000 0.000000 0.000000 
0.000000 0.000000 0.000000 
0.000000 0.000000 0.000000 

-0.000000 0.000000 0.000000 
0.000000 -0.000000 0.000000 
0.000000 0.000000 0.000000 

0.000000 0.000000 0.000000 
0.000000 0.000000 0.000000 
0.000000 0.000000 0.000000 

0.000000 0.000000 0.000000 
0.000000 0.000000 0.000000 
0.000000 0.000000 0.000000 

-0.000000 0.000000 0.000000 
0.000000 -0.000000 0.000000 
0.000000 0.000000 0.000000 

-0.000000 -0.000000 0.000000 
0.000000 -0.000000 0.000000 
0.000000 0.000000 0.000000 

0.000000 -0.000000 0.000000 
0.000000 0.000000 0.000000 
0.000000 0.000000 0.000000 

-0.000000 -0.000000 0.000000 
0.000000 -0.000000 0.000000 
0.000000 0.000000 0.000000 

-0.000000 -0.000000 0.000000 
0.000000 -0.000000 0.000000 
0.000000 0.000000 0.000000 

0.000000 0.000000 0.000000 
0.000000 0.000000 0.000000 
0.000000 0.000000 0.000000 

-0.000000 0.000000 0.000000 
0.000000 -0.000000 0.000000 
0.000000 0.000000 0.000000 

-0.000000 0.000000 0.000000 
0.000000 -0.000000 0.000000 
0.000000 0.000000 0.000000 

-0.000000 0.000000 0.000000 
0.000000 -0.000000 0.000000 
0.000000 0.000000 0.000000 

0.000000 0.000000 0.000000 
0.000000 0.000000 0.000000 
0.000000 0.000000 0.000000 

-0.000000 -0.000000 0.000000 
0.000000 -0.000000 0.000000 
0.000000 0.000000 0.000000 

-0.000000 0.000000 0.000000 
0.000000 -0.000000 0.000000 
0.000000 0.000000 0.000000 

-0.000000 0.000000 0.000000 
0.000000 -0.000000 0.000000 
0.000000 0.000000 0.000000 

0.000000 0.000000 0.000000 
0.000000 0.000000 0.000000 
0.000000 0.000000 0.000000 

0.000000 0.000000 0.000000 
0.000000 0.000000 0.000000 
0.000000 0.000000 0.000000 

-0.000000 -0.000000 0.000000 
0.000000 -0.000000 0.000000 
0.000000 0.000000 0.000000 

-0.000000 0.000000 0.000000 
0.000000 -0.000000 0.000000 
0.000000 0.000000 0.000000 

-0.000000 0.000000 0.000000 
0.000000 -0.000000 0.000000 
0.000000 0.000000 0.000000 

-0.000000 0.000000 0.000000 
0.000000 -0.000000 0.000000 
0.000000 0.000000 0.000000 

-0.000000 0.000000 0.000000 
0.000000 -0.000000 0.000000 
0.000000 0.000000 0.000000 

-0.000000 -0.000000 0.000000 
0.000000 0.000000 0.000000 
0.000000 0.000000 0.000000 

0.000000 0.000000 0.000000 
0.000000 0.000000 0.000000 
0.000000 0.000000 0.000000 

-0.000000 0.000000 0.000000 
0.000000 -0.000000 0.000000 
0.000000 0.000000 0.000000 

-0.000000 -0.000000 0.000000 
0.000000 -0.000000 0.000000 
0.000000 0.000000 0.000000 

0.000000 0.000000 0.000000 
0.000000 0.000000 0.000000 
0.000000 0.000000 0.000000 

-0.000000 -0.000000 0.000000 
0.000000 -0.000000 0.000000 
0.000000 0.000000 0.000000 

0.000000 0.000000 0.000000 
0.000000 0.000000 0.000000 
0.000000 0.000000 0.000000 

-0.000000 -0.000000 0.000000 
0.000000 -0.000000 0.000000 
0.000000 0.000000 0.000000 

0.000000 -0.000000 0.000000 
0.000000 0.000000 0.000000 
0.000000 0.000000 0.000000 

0.000000 0.000000 0.000000 
0.000000 0.000000 0.000000 
0.000000 0.000000 0.000000 

-0.000000 0.000000 0.000000 
0.000000 -0.000000 0.000000 
0.000000 0.000000 0.000000 

0.000000 -0.000000 0.000000 
0.000000 0.000000 0.000000 
0.000000 0.000000 0.000000 

0.000000 -0.000000 0.000000 
0.000000 0.000000 0.000000 
0.000000 0.000000 0.000000 

0.000000 -0.000000 0.000000 
0.000000 0.000000 0.000000 
0.000000 0.000000 0.000000 

-0.000000 -0.000000 0.000000 
0.000000 -0.000000 0.000000 
0.000000 0.000000 0.000000 

-0.000000 -0.000000 0.000000 
0.000000 -0.000000 0.000000 
0.000000 0.000000 0.000000 

0.000000 0.000000 0.000000 
0.000000 0.000000 0.000000 
0.000000 0.000000 0.000000 

0.000000 0.000000 0.000000 
0.000000 0.000000 0.000000 
0.000000 0.000000 0.000000 

0.000000 0.000000 0.000000 
0.000000 0.000000 0.000000 
0.000000 0.000000 0.000000 

-0.000000 0.000000 0.000000 
0.000000 -0.000000 0.000000 
0.000000 0.000000 0.000000 

-0.000000 0.000000 0.000000 
0.000000 -0.000000 0.000000 
0.000000 0.000000 0.000000 

0.000000 0.000000 0.000000 
0.000000 0.000000 0.000000 
0.000000 0.000000 0.000000 

-0.000000 -0.000000 0.000000 
0.000000 -0.000000 0.000000 
0.000000 0.000000 0.000000 

0.000000 -0.000000 0.000000 
0.000000 0.000000 0.000000 
0.000000 0.000000 0.000000 

0.000000 -0.000000 0.000000 
0.000000 0.000000 0.000000 
0.000000 0.000000 0.000000 

0.000000 -0.000000 0.000000 
0.000000 0.000000 0.000000 
0.000000 0.000000 0.000000 

0.000000 0.000000 0.000000 
0.000000 0.000000 0.000000 
0.000000 0.000000 0.000000 

-0.000000 0.000000 0.000000 
0.000000 -0.000000 0.000000 
0.000000 0.000000 0.000000 

-0.000000 -0.000000 0.000000 
0.000000 0.000000 0.000000 
0.000000 0.000000 0.000000 

-0.000000 -0.000000 0.000000 
0.000000 -0.000000 0.000000 
0.000000 0.000000 0.000000 

-0.000000 -0.000000 0.000000 
0.000000 0.000000 0.000000 
0.000000 0.000000 0.000000 

-0.000000 -0.000000 0.000000 
0.000000 -0.000000 0.000000 
0.000000 0.000000 0.000000 

-0.000000 -0.000000 0.000000 
0.000000 -0.000000 0.000000 
0.000000 0.000000 0.000000 

0.000000 0.000000 0.000000 
0.000000 0.000000 0.000000 
0.000000 0.000000 0.000000 

-0.000000 -0.000000 0.000000 
0.000000 -0.000000 0.000000 
0.000000 0.000000 0.000000 

-0.000000 0.000000 0.000000 
0.000000 -0.000000 0.000000 
0.000000 0.000000 0.000000 

0.000000 0.000000 0.000000 
0.000000 0.000000 0.000000 
0.000000 0.000000 0.000000 

-0.000000 -0.000000 0.000000 
0.000000 -0.000000 0.000000 
0.000000 0.000000 0.000000 

-0.000000 0.000000 0.000000 
0.000000 -0.000000 0.000000 
0.000000 0.000000 0.000000 

-0.000000 0.000000 0.000000 
0.000000 -0.000000 0.000000 
0.000000 0.000000 0.000000 

-0.000000 0.000000 0.000000 
0.000000 -0.000000 0.000000 
0.000000 0.000000 0.000000 

-0.000000 -0.000000 0.000000 
0.000000 -0.000000 0.000000 
0.000000 0.000000 0.000000 

-0.000000 0.000000 0.000000 
0.000000 -0.000000 0.000000 
0.000000 0.000000 0.000000 

-0.000000 0.000000 0.000000 
0.000000 -0.000000 0.000000 
0.000000 0.000000 0.000000 

0.000000 0.000000 0.000000 
0.000000 0.000000 0.000000 
0.000000 0.000000 0.000000 

0.000000 0.000000 0.000000 
0.000000 0.000000 0.000000 
0.000000 0.000000 0.000000 

-0.000000 -0.000000 0.000000 
0.000000 -0.000000 0.000000 
0.000000 0.000000 0.000000 

0.000000 -0.000000 0.000000 
0.000000 0.000000 0.000000 
0.000000 0.000000 0.000000 

0.000000 0.000000 0.000000 
0.000000 0.000000 0.000000 
0.000000 0.000000 0.000000 

-0.000000 0.000000 0.000000 
0.000000 -0.000000 0.000000 
0.000000 0.000000 0.000000 

-0.000000 0.000000 0.000000 
0.000000 -0.000000 0.000000 
0.000000 0.000000 0.000000 

-0.000000 0.000000 0.000000 
0.000000 -0.000000 0.000000 
0.000000 0.000000 0.000000 

-0.000000 0.000000 0.000000 
0.000000 -0.000000 0.000000 
0.000000 0.000000 0.000000 

0.000000 -0.000000 0.000000 
0.000000 0.000000 0.000000 
0.000000 0.000000 0.000000 

-0.000000 -0.000000 0.000000 
0.000000 -0.000000 0.000000 
0.000000 0.000000 0.000000 

-0.000000 0.000000 0.000000 
0.000000 -0.000000 0.000000 
0.000000 0.000000 0.000000 

-0.000000 0.000000 0.000000 
0.000000 -0.000000 0.000000 
0.000000 0.000000 0.000000 

0.000000 0.000000 0.000000 
0.000000 0.000000 0.000000 
0.000000 0.000000 0.000000 

-0.000000 0.000000 0.000000 
0.000000 -0.000000 0.000000 
0.000000 0.000000 0.000000 

-0.000000 0.000000 0.000000 
0.000000 -0.000000 0.000000 
0.000000 0.000000 0.000000 

-0.000000 -0.000000 0.000000 
0.000000 -0.000000 0.000000 
0.000000 0.000000 0.000000 

0.000000 0.000000 0.000000 
0.000000 0.000000 0.000000 
0.000000 0.000000 0.000000 

0.000000 -0.000000 0.000000 
0.000000 0.000000 0.000000 
0.000000 0.000000 0.000000 

-0.000000 0.000000 0.000000 
0.000000 -0.000000 0.000000 
0.000000 0.000000 0.000000 

-0.000000 0.000000 0.000000 
0.000000 -0.000000 0.000000 
0.000000 0.000000 0.000000 

-0.000000 -0.000000 0.000000 
0.000000 -0.000000 0.000000 
0.000000 0.000000 0.000000 

-0.000000 0.000000 0.000000 
0.000000 -0.000000 0.000000 
0.000000 0.000000 0.000000 

-0.000000 -0.000000 0.000000 
0.000000 -0.000000 0.000000 
0.000000 0.000000 0.000000 

0.000000 -0.000000 0.000000 
0.000000 0.000000 0.000000 
0.000000 0.000000 0.000000 

-0.000000 -0.000000 0.000000 
0.000000 -0.000000 0.000000 
0.000000 0.000000 0.000000 

-0.000000 -0.000000 0.000000 
0.000000 -0.000000 0.000000 
0.000000 0.000000 0.000000 

0.000000 0.000000 0.000000 
0.000000 0.000000 0.000000 
0.000000 0.000000 0.000000 

0.000000 0.000000 0.000000 
0.000000 0.000000 0.000000 
0.000000 0.000000 0.000000 

-0.000000 0.000000 0.000000 
0.000000 -0.000000 0.000000 
0.000000 0.000000 0.000000 

-0.000000 0.000000 0.000000 
0.000000 0.000000 0.000000 
0.000000 0.000000 0.000000 

-0.000000 -0.000000 0.000000 
0.000000 -0.000000 0.000000 
0.000000 0.000000 0.000000 

0.000000 -0.000000 0.000000 
0.000000 0.000000 0.000000 
0.000000 0.000000 0.000000 

-0.000000 -0.000000 0.000000 
0.000000 -0.000000 0.000000 
0.000000 0.000000 0.000000 

-0.000000 0.000000 0.000000 
0.000000 -0.000000 0.000000 
0.000000 0.000000 0.000000 

0.000000 0.000000 0.000000 
0.000000 0.000000 0.000000 
0.000000 0.000000 0.000000 

-0.000000 0.000000 0.000000 
0.000000 -0.000000 0.000000 
0.000000 0.000000 0.000000 

-0.000000 -0.000000 0.000000 
0.000000 -0.000000 0.000000 
0.000000 0.000000 0.000000 

0.000000 -0.000000 0.000000 
0.000000 0.000000 0.000000 
0.000000 0.000000 0.000000 

0.000000 0.000000 0.000000 
0.000000 0.000000 0.000000 
0.000000 0.000000 0.000000 

-0.000000 0.000000 0.000000 
0.000000 -0.000000 0.000000 
0.000000 0.000000 0.000000 

0.000000 0.000000 0.000000 
0.000000 -0.000000 0.000000 
0.000000 0.000000 0.000000 

-0.000000 -0.000000 0.000000 
0.000000 -0.000000 0.000000 
0.000000 0.000000 0.000000 

0.000000 0.000000 0.000000 
0.000000 0.000000 0.000000 
0.000000 0.000000 0.000000 

-0.000000 -0.000000 0.000000 
0.000000 -0.000000 0.000000 
0.000000 0.000000 0.000000 

-0.000000 -0.000000 0.000000 
0.000000 -0.000000 0.000000 
0.000000 0.000000 0.000000 

-0.000000 -0.000000 0.000000 
0.000000 -0.000000 0.000000 
0.000000 0.000000 0.000000 

-0.000000 -0.000000 0.000000 
0.000000 -0.000000 0.000000 
0.000000 0.000000 0.000000 

-0.000000 -0.000000 0.000000 
0.000000 -0.000000 0.000000 
0.000000 0.000000 0.000000 

-0.000000 -0.000000 0.000000 
0.000000 -0.000000 0.000000 
0.000000 0.000000 0.000000 

0.000000 -0.000000 0.000000 
0.000000 0.000000 0.000000 
0.000000 0.000000 0.000000 

-0.000000 -0.000000 0.000000 
0.000000 -0.000000 0.000000 
0.000000 0.000000 0.000000 

-0.000000 0.000000 0.000000 
0.000000 -0.000000 0.000000 
0.000000 0.000000 0.000000 

0.000000 0.000000 0.000000 
0.000000 0.000000 0.000000 
0.000000 0.000000 0.000000 

0.000000 0.000000 0.000000 
0.000000 0.000000 0.000000 
0.000000 0.000000 0.000000 

0.000000 0.000000 0.000000 
0.000000 0.000000 0.000000 
0.000000 0.000000 0.000000 

0.000000 0.000000 0.000000 
0.000000 0.000000 0.000000 
0.000000 0.000000 0.000000 

0.000000 -0.000000 0.000000 
0.000000 0.000000 0.000000 
0.000000 0.000000 0.000000 

-0.000000 0.000000 0.000000 
0.000000 -0.000000 0.000000 
0.000000 0.000000 0.000000 

-0.000000 0.000000 0.000000 
0.000000 -0.000000 0.000000 
0.000000 0.000000 0.000000 

0.000000 0.000000 0.000000 
0.000000 -0.000000 0.000000 
0.000000 0.000000 0.000000 

0.000000 0.000000 0.000000 
0.000000 0.000000 0.000000 
0.000000 0.000000 0.000000 

0.000000 -0.000000 0.000000 
0.000000 0.000000 0.000000 
0.000000 0.000000 0.000000 

-0.000000 0.000000 0.000000 
0.000000 -0.000000 0.000000 
0.000000 0.000000 0.000000 

0.000000 0.000000 0.000000 
0.000000 0.000000 0.000000 
0.000000 0.000000 0.000000 

-0.000000 0.000000 0.000000 
0.000000 0.000000 0.000000 
0.000000 0.000000 0.000000 

0.000000 -0.000000 0.000000 
0.000000 0.000000 0.000000 
0.000000 0.000000 0.000000 

-0.000000 -0.000000 0.000000 
0.000000 0.000000 0.000000 
0.000000 0.000000 0.000000 

-0.000000 0.000000 0.000000 
0.000000 -0.000000 0.000000 
0.000000 0.000000 0.000000 

0.000000 0.000000 0.000000 
0.000000 0.000000 0.000000 
0.000000 0.000000 0.000000 

-0.000000 0.000000 0.000000 
0.000000 -0.000000 0.000000 
0.000000 0.000000 0.000000 

-0.000000 -0.000000 0.000000 
0.000000 -0.000000 0.000000 
0.000000 0.000000 0.000000 

0.000000 0.000000 0.000000 
0.000000 0.000000 0.000000 
0.000000 0.000000 0.000000 

0.000000 0.000000 0.000000 
0.000000 0.000000 0.000000 
0.000000 0.000000 0.000000 

-0.000000 -0.000000 0.000000 
0.000000 -0.000000 0.000000 
0.000000 0.000000 0.000000 

-0.000000 -0.000000 0.000000 
0.000000 0.000000 0.000000 
0.000000 0.000000 0.000000 

-0.000000 -0.000000 0.000000 
0.000000 -0.000000 0.000000 
0.000000 0.000000 0.000000 

-0.000000 0.000000 0.000000 
0.000000 -0.000000 0.000000 
0.000000 0.000000 0.000000 

0.000000 0.000000 0.000000 
0.000000 0.000000 0.000000 
0.000000 0.000000 0.000000 

0.000000 -0.000000 0.000000 
0.000000 0.000000 0.000000 
0.000000 0.000000 0.000000 

-0.000000 0.000000 0.000000 
0.000000 -0.000000 0.000000 
0.000000 0.000000 0.000000 

-0.000000 0.000000 0.000000 
0.000000 -0.000000 0.000000 
0.000000 0.000000 0.000000 

-0.000000 -0.000000 0.000000 
0.000000 -0.000000 0.000000 
0.000000 0.000000 0.000000 

0.000000 0.000000 0.000000 
0.000000 0.000000 0.000000 
0.000000 0.000000 0.000000 

-0.000000 0.000000 0.000000 
0.000000 -0.000000 0.000000 
0.000000 0.000000 0.000000 

0.000000 0.000000 0.000000 
0.000000 0.000000 0.000000 
0.000000 0.000000 0.000000 

0.000000 -0.000000 0.000000 
0.000000 0.000000 0.000000 
0.000000 0.000000 0.000000 

0.000000 -0.000000 0.000000 
0.000000 0.000000 0.000000 
0.000000 0.000000 0.000000 

0.000000 -0.000000 0.000000 
0.000000 0.000000 0.000000 
0.000000 0.000000 0.000000 

-0.000000 -0.000000 0.000000 
0.000000 -0.000000 0.000000 
0.000000 0.000000 0.000000 

0.000000 -0.000000 0.000000 
0.000000 0.000000 0.000000 
0.000000 0.000000 0.000000 

0.000000 -0.000000 0.000000 
0.000000 -0.000000 0.000000 
0.000000 0.000000 0.000000 

-0.000000 -0.000000 0.000000 
0.000000 -0.000000 0.000000 
0.000000 0.000000 0.000000 

TENSORS STRAIN float 
0.000000 0.000000 0.000000 
0.000000 -0.000000 0.000000 
0.000000 0.000000 0.000000 

-0.000000 0.000000 0.000000 
0.000000 0.000000 0.000000 
0.000000 0.000000 0.000000 

-0.000000 0.000000 0.000000 
0.000000 -0.000000 0.000000 
0.000000 0.000000 0.000000 

-0.000000 -0.000000 0.000000 
0.000000 0.000000 0.000000 
0.000000 0.000000 0.000000 

-0.000000 0.000000 0.000000 
0.000000 0.000000 0.000000 
0.000000 0.000000 0.000000 

-0.000000 0.000000 0.000000 
0.000000 0.000000 0.000000 
0.000000 0.000000 0.000000 

-0.000000 -0.000000 0.000000 
0.000000 0.000000 0.000000 
0.000000 0.000000 0.000000 

-0.000000 0.000000 0.000000 
0.000000 0.000000 0.000000 
0.000000 0.000000 0.000000 

0.000000 -0.000000 0.000000 
0.000000 -0.000000 0.000000 
0.000000 0.000000 0.000000 

-0.000000 -0.000000 0.000000 
0.000000 0.000000 0.000000 
0.000000 0.000000 0.000000 

-0.000000 -0.000000 0.000000 
0.000000 0.000000 0.000000 
0.000000 0.000000 0.000000 

-0.000000 -0.000000 0.000000 
0.000000 0.000000 0.000000 
0.000000 0.000000 0.000000 

-0.000000 -0.000000 0.000000 
0.000000 0.000000 0.000000 
0.000000 0.000000 0.000000 

-0.000000 0.000000 0.000000 
0.000000 0.000000 0.000000 
0.000000 0.000000 0.000000 

0.000000 0.000000 0.000000 
0.000000 0.000000 0.000000 
0.000000 0.000000 0.000000 

-0.000000 0.000000 0.000000 
0.000000 -0.000000 0.000000 
0.000000 0.000000 0.000000 

0.000000 0.000000 0.000000 
0.000000 0.000000 0.000000 
0.000000 0.000000 0.000000 

0.000000 0.000000 0.000000 
0.000000 0.000000 0.000000 
0.000000 0.000000 0.000000 

-0.000000 0.000000 0.000000 
0.000000 0.000000 0.000000 
0.000000 0.000000 0.000000 

-0.000000 -0.000000 0.000000 
0.000000 0.000000 0.000000 
0.000000 0.000000 0.000000 

-0.000000 -0.000000 0.000000 
0.000000 0.000000 0.000000 
0.000000 0.000000 0.000000 

-0.000000 -0.000000 0.000000 
0.000000 0.000000 0.000000 
0.000000 0.000000 0.000000 

-0.000000 -0.000000 0.000000 
0.000000 0.000000 0.000000 
0.000000 0.000000 0.000000 

-0.000000 0.000000 0.000000 
0.000000 0.000000 0.000000 
0.000000 0.000000 0.000000 

-0.000000 0.000000 0.000000 
0.000000 -0.000000 0.000000 
0.000000 0.000000 0.000000 

0.000000 0.000000 0.000000 
0.000000 -0.000000 0.000000 
0.000000 0.000000 0.000000 

-0.000000 0.000000 0.000000 
0.000000 0.000000 0.000000 
0.000000 0.000000 0.000000 

-0.000000 0.000000 0.000000 
0.000000 0.000000 0.000000 
0.000000 0.000000 0.000000 

-0.000000 -0.000000 0.000000 
0.000000 0.000000 0.000000 
0.000000 0.000000 0.000000 

0.000000 0.000000 0.000000 
0.000000 -0.000000 0.000000 
0.000000 0.000000 0.000000 

-0.000000 0.000000 0.000000 
0.000000 -0.000000 0.000000 
0.000000 0.000000 0.000000 

-0.000000 0.000000 0.000000 
0.000000 0.000000 0.000000 
0.000000 0.000000 0.000000 

-0.000000 0.000000 0.000000 
0.000000 0.000000 0.000000 
0.000000 0.000000 0.000000 

0.000000 -0.000000 0.000000 
0.000000 -0.000000 0.000000 
0.000000 0.000000 0.000000 

0.000000 0.000000 0.000000 
0.000000 -0.000000 0.000000 
0.000000 0.000000 0.000000 

-0.000000 0.000000 0.000000 
0.000000 -0.000000 0.000000 
0.000000 0.000000 0.000000 

-0.000000 0.000000 0.000000 
0.000000 -0.000000 0.000000 
0.000000 0.000000 0.000000 

-0.000000 0.000000 0.000000 
0.000000 -0.000000 0.000000 
0.000000 0.000000 0.000000 

-0.000000 -0.000000 0.000000 
0.000000 0.000000 0.000000 
0.000000 0.000000 0.000000 

-0.000000 0.000000 0.000000 
0.000000 0.000000 0.000000 
0.000000 0.000000 0.000000 

-0.000000 0.000000 0.000000 
0.000000 -0.000000 0.000000 
0.000000 0.000000 0.000000 

-0.000000 -0.000000 0.000000 
0.000000 -0.000000 0.000000 
0.000000 0.000000 0.000000 

-0.000000 0.000000 0.000000 
0.000000 0.000000 0.000000 
0.000000 0.000000 0.000000 

0.000000 -0.000000 0.000000 
0.000000 -0.000000 0.000000 
0.000000 0.000000 0.000000 

0.000000 0.000000 0.000000 
0.000000 -0.000000 0.000000 
0.000000 0.000000 0.000000 

0.000000 -0.000000 0.000000 
0.000000 -0.000000 0.000000 
0.000000 0.000000 0.000000 

0.000000 -0.000000 0.000000 
0.000000 0.000000 0.000000 
0.000000 0.000000 0.000000 

0.000000 0.000000 0.000000 
0.000000 -0.000000 0.000000 
0.000000 0.000000 0.000000 

-0.000000 0.000000 0.000000 
0.000000 -0.000000 0.000000 
0.000000 0.000000 0.000000 

-0.000000 -0.000000 0.000000 
0.000000 0.000000 0.000000 
0.000000 0.000000 0.000000 

0.000000 -0.000000 0.000000 
0.000000 0.000000 0.000000 
0.000000 0.000000 0.000000 

0.000000 -0.000000 0.000000 
0.000000 0.000000 0.000000 
0.000000 0.000000 0.000000 

-0.000000 -0.000000 0.000000 
0.000000 -0.000000 0.000000 
0.000000 0.000000 0.000000 

-0.000000 -0.000000 0.000000 
0.000000 -0.000000 0.000000 
0.000000 0.000000 0.000000 

-0.000000 0.000000 0.000000 
0.000000 0.000000 0.000000 
0.000000 0.000000 0.000000 

0.000000 0.000000 0.000000 
0.000000 0.000000 0.000000 
0.000000 0.000000 0.000000 

0.000000 0.000000 0.000000 
0.000000 -0.000000 0.000000 
0.000000 0.000000 0.000000 

-0.000000 0.000000 0.000000 
0.000000 0.000000 0.000000 
0.000000 0.000000 0.000000 

0.000000 0.000000 0.000000 
0.000000 -0.000000 0.000000 
0.000000 0.000000 0.000000 

-0.000000 0.000000 0.000000 
0.000000 0.000000 0.000000 
0.000000 0.000000 0.000000 

-0.000000 -0.000000 0.000000 
0.000000 0.000000 0.000000 
0.000000 0.000000 0.000000 

-0.000000 -0.000000 0.000000 
0.000000 0.000000 0.000000 
0.000000 0.000000 0.000000 

0.000000 -0.000000 0.000000 
0.000000 0.000000 0.000000 
0.000000 0.000000 0.000000 

0.000000 -0.000000 0.000000 
0.000000 0.000000 0.000000 
0.000000 0.000000 0.000000 

0.000000 0.000000 0.000000 
0.000000 0.000000 0.000000 
0.000000 0.000000 0.000000 

0.000000 0.000000 0.000000 
0.000000 -0.000000 0.000000 
0.000000 0.000000 0.000000 

-0.000000 -0.000000 0.000000 
0.000000 0.000000 0.000000 
0.000000 0.000000 0.000000 

-0.000000 -0.000000 0.000000 
0.000000 0.000000 0.000000 
0.000000 0.000000 0.000000 

-0.000000 -0.000000 0.000000 
0.000000 0.000000 0.000000 
0.000000 0.000000 0.000000 

-0.000000 -0.000000 0.000000 
0.000000 -0.000000 0.000000 
0.000000 0.000000 0.000000 

-0.000000 -0.000000 0.000000 
0.000000 -0.000000 0.000000 
0.000000 0.000000 0.000000 

0.000000 0.000000 0.000000 
0.000000 0.000000 0.000000 
0.000000 0.000000 0.000000 

0.000000 -0.000000 0.000000 
0.000000 -0.000000 0.000000 
0.000000 0.000000 0.000000 

-0.000000 0.000000 0.000000 
0.000000 -0.000000 0.000000 
0.000000 0.000000 0.000000 

0.000000 0.000000 0.000000 
0.000000 0.000000 0.000000 
0.000000 0.000000 0.000000 

0.000000 -0.000000 0.000000 
0.000000 -0.000000 0.000000 
0.000000 0.000000 0.000000 

-0.000000 0.000000 0.000000 
0.000000 0.000000 0.000000 
0.000000 0.000000 0.000000 

-0.000000 0.000000 0.000000 
0.000000 -0.000000 0.000000 
0.000000 0.000000 0.000000 

-0.000000 0.000000 0.000000 
0.000000 -0.000000 0.000000 
0.000000 0.000000 0.000000 

0.000000 -0.000000 0.000000 
0.000000 -0.000000 0.000000 
0.000000 0.000000 0.000000 

-0.000000 0.000000 0.000000 
0.000000 -0.000000 0.000000 
0.000000 0.000000 0.000000 

-0.000000 0.000000 0.000000 
0.000000 0.000000 0.000000 
0.000000 0.000000 0.000000 

-0.000000 0.000000 0.000000 
0.000000 0.000000 0.000000 
0.000000 0.000000 0.000000 

-0.000000 0.000000 0.000000 
0.000000 0.000000 0.000000 
0.000000 0.000000 0.000000 

0.000000 -0.000000 0.000000 
0.000000 -0.000000 0.000000 
0.000000 0.000000 0.000000 

0.000000 -0.000000 0.000000 
0.000000 -0.000000 0.000000 
0.000000 0.000000 0.000000 

0.000000 0.000000 0.000000 
0.000000 0.000000 0.000000 
0.000000 0.000000 0.000000 

0.000000 0.000000 0.000000 
0.000000 -0.000000 0.000000 
0.000000 0.000000 0.000000 

0.000000 0.000000 0.000000 
0.000000 -0.000000 0.000000 
0.000000 0.000000 0.000000 

-0.000000 0.000000 0.000000 
0.000000 0.000000 0.000000 
0.000000 0.000000 0.000000 

-0.000000 0.000000 0.000000 
0.000000 0.000000 0.000000 
0.000000 0.000000 0.000000 

-0.000000 -0.000000 0.000000 
0.000000 0.000000 0.000000 
0.000000 0.000000 0.000000 

-0.000000 -0.000000 0.000000 
0.000000 -0.000000 0.000000 
0.000000 0.000000 0.000000 

0.000000 0.000000 0.000000 
0.000000 -0.000000 0.000000 
0.000000 0.000000 0.000000 

-0.000000 0.000000 0.000000 
0.000000 0.000000 0.000000 
0.000000 0.000000 0.000000 

-0.000000 0.000000 0.000000 
0.000000 0.000000 0.000000 
0.000000 0.000000 0.000000 

-0.000000 0.000000 0.000000 
0.000000 0.000000 0.000000 
0.000000 0.000000 0.000000 

-0.000000 0.000000 0.000000 
0.000000 0.000000 0.000000 
0.000000 0.000000 0.000000 

-0.000000 -0.000000 0.000000 
0.000000 -0.000000 0.000000 
0.000000 0.000000 0.000000 

-0.000000 0.000000 0.000000 
0.000000 0.000000 0.000000 
0.000000 0.000000 0.000000 

0.000000 -0.000000 0.000000 
0.000000 0.000000 0.000000 
0.000000 0.000000 0.000000 

-0.000000 0.000000 0.000000 
0.000000 -0.000000 0.000000 
0.000000 0.000000 0.000000 

-0.000000 0.000000 0.000000 
0.000000 0.000000 0.000000 
0.000000 0.000000 0.000000 

-0.000000 -0.000000 0.000000 
0.000000 0.000000 0.000000 
0.000000 0.000000 0.000000 

-0.000000 0.000000 0.000000 
0.000000 -0.000000 0.000000 
0.000000 0.000000 0.000000 

-0.000000 -0.000000 0.000000 
0.000000 0.000000 0.000000 
0.000000 0.000000 0.000000 

-0.000000 -0.000000 0.000000 
0.000000 0.000000 0.000000 
0.000000 0.000000 0.000000 

-0.000000 -0.000000 0.000000 
0.000000 0.000000 0.000000 
0.000000 0.000000 0.000000 

-0.000000 -0.000000 0.000000 
0.000000 -0.000000 0.000000 
0.000000 0.000000 0.000000 

0.000000 0.000000 0.000000 
0.000000 0.000000 0.000000 
0.000000 0.000000 0.000000 

0.000000 0.000000 0.000000 
0.000000 0.000000 0.000000 
0.000000 0.000000 0.000000 

-0.000000 0.000000 0.000000 
0.000000 0.000000 0.000000 
0.000000 0.000000 0.000000 

-0.000000 0.000000 0.000000 
0.000000 0.000000 0.000000 
0.000000 0.000000 0.000000 

-0.000000 -0.000000 0.000000 
0.000000 -0.000000 0.000000 
0.000000 0.000000 0.000000 

0.000000 -0.000000 0.000000 
0.000000 -0.000000 0.000000 
0.000000 0.000000 0.000000 

0.000000 -0.000000 0.000000 
0.000000 -0.000000 0.000000 
0.000000 0.000000 0.000000 

-0.000000 0.000000 0.000000 
0.000000 0.000000 0.000000 
0.000000 0.000000 0.000000 

-0.000000 0.000000 0.000000 
0.000000 0.000000 0.000000 
0.000000 0.000000 0.000000 

-0.000000 0.000000 0.000000 
0.000000 0.000000 0.000000 
0.000000 0.000000 0.000000 

-0.000000 -0.000000 0.000000 
0.000000 0.000000 0.000000 
0.000000 0.000000 0.000000 

0.000000 -0.000000 0.000000 
0.000000 0.000000 0.000000 
0.000000 0.000000 0.000000 

0.000000 0.000000 0.000000 
0.000000 0.000000 0.000000 
0.000000 0.000000 0.000000 

0.000000 0.000000 0.000000 
0.000000 -0.000000 0.000000 
0.000000 0.000000 0.000000 

0.000000 0.000000 0.000000 
0.000000 -0.000000 0.000000 
0.000000 0.000000 0.000000 

-0.000000 -0.000000 0.000000 
0.000000 -0.000000 0.000000 
0.000000 0.000000 0.000000 

0.000000 0.000000 0.000000 
0.000000 0.000000 0.000000 
0.000000 0.000000 0.000000 

-0.000000 -0.000000 0.000000 
0.000000 0.000000 0.000000 
0.000000 0.000000 0.000000 

-0.000000 -0.000000 0.000000 
0.000000 0.000000 0.000000 
0.000000 0.000000 0.000000 

-0.000000 -0.000000 0.000000 
0.000000 0.000000 0.000000 
0.000000 0.000000 0.000000 

-0.000000 -0.000000 0.000000 
0.000000 0.000000 0.000000 
0.000000 0.000000 0.000000 

-0.000000 -0.000000 0.000000 
0.000000 -0.000000 0.000000 
0.000000 0.000000 0.000000 

-0.000000 -0.000000 0.000000 
0.000000 0.000000 0.000000 
0.000000 0.000000 0.000000 

-0.000000 -0.000000 0.000000 
0.000000 0.000000 0.000000 
0.000000 0.000000 0.000000 

-0.000000 -0.000000 0.000000 
0.000000 -0.000000 0.000000 
0.000000 0.000000 0.000000 

0.000000 0.000000 0.000000 
0.000000 -0.000000 0.000000 
0.000000 0.000000 0.000000 

0.000000 0.000000 0.000000 
0.000000 0.000000 0.000000 
0.000000 0.000000 0.000000 

0.000000 0.000000 0.000000 
0.000000 0.000000 0.000000 
0.000000 0.000000 0.000000 

-0.000000 0.000000 0.000000 
0.000000 0.000000 0.000000 
0.000000 0.000000 0.000000 

-0.000000 0.000000 0.000000 
0.000000 0.000000 0.000000 
0.000000 0.000000 0.000000 

-0.000000 -0.000000 0.000000 
0.000000 0.000000 0.000000 
0.000000 0.000000 0.000000 

-0.000000 0.000000 0.000000 
0.000000 -0.000000 0.000000 
0.000000 0.000000 0.000000 

0.000000 0.000000 0.000000 
0.000000 -0.000000 0.000000 
0.000000 0.000000 0.000000 

0.000000 0.000000 0.000000 
0.000000 -0.000000 0.000000 
0.000000 0.000000 0.000000 

0.000000 0.000000 0.000000 
0.000000 -0.000000 0.000000 
0.000000 0.000000 0.000000 

0.000000 -0.000000 0.000000 
0.000000 -0.000000 0.000000 
0.000000 0.000000 0.000000 

0.000000 0.000000 0.000000 
0.000000 -0.000000 0.000000 
0.000000 0.000000 0.000000 

-0.000000 0.000000 0.000000 
0.000000 0.000000 0.000000 
0.000000 0.000000 0.000000 

-0.000000 0.000000 0.000000 
0.000000 0.000000 0.000000 
0.000000 0.000000 0.000000 

-0.000000 -0.000000 0.000000 
0.000000 0.000000 0.000000 
0.000000 0.000000 0.000000 

-0.000000 -0.000000 0.000000 
0.000000 0.000000 0.000000 
0.000000 0.000000 0.000000 

0.000000 0.000000 0.000000 
0.000000 -0.000000 0.000000 
0.000000 0.000000 0.000000 

-0.000000 0.000000 0.000000 
0.000000 0.000000 0.000000 
0.000000 0.000000 0.000000 

-0.000000 0.000000 0.000000 
0.000000 -0.000000 0.000000 
0.000000 0.000000 0.000000 

-0.000000 -0.000000 0.000000 
0.000000 0.000000 0.000000 
0.000000 0.000000 0.000000 

0.000000 0.000000 0.000000 
0.000000 0.000000 0.000000 
0.000000 0.000000 0.000000 

-0.000000 0.000000 0.000000 
0.000000 0.000000 0.000000 
0.000000 0.000000 0.000000 

-0.000000 -0.000000 0.000000 
0.000000 0.000000 0.000000 
0.000000 0.000000 0.000000 

-0.000000 -0.000000 0.000000 
0.000000 0.000000 0.000000 
0.000000 0.000000 0.000000 

-0.000000 -0.000000 0.000000 
0.000000 0.000000 0.000000 
0.000000 0.000000 0.000000 

-0.000000 0.000000 0.000000 
0.000000 -0.000000 0.000000 
0.000000 0.000000 0.000000 

0.000000 0.000000 0.000000 
0.000000 0.000000 0.000000 
0.000000 0.000000 0.000000 

-0.000000 -0.000000 0.000000 
0.000000 0.000000 0.000000 
0.000000 0.000000 0.000000 

-0.000000 0.000000 0.000000 
0.000000 -0.000000 0.000000 
0.000000 0.000000 0.000000 

-0.000000 0.000000 0.000000 
0.000000 -0.000000 0.000000 
0.000000 0.000000 0.000000 

-0.000000 -0.000000 0.000000 
0.000000 0.000000 0.000000 
0.000000 0.000000 0.000000 

0.000000 0.000000 0.000000 
0.000000 -0.000000 0.000000 
0.000000 0.000000 0.000000 

-0.000000 0.000000 0.000000 
0.000000 -0.000000 0.000000 
0.000000 0.000000 0.000000 

-0.000000 0.000000 0.000000 
0.000000 0.000000 0.000000 
0.000000 0.000000 0.000000 

0.000000 -0.000000 0.000000 
0.000000 0.000000 0.000000 
0.000000 0.000000 0.000000 

0.000000 -0.000000 0.000000 
0.000000 -0.000000 0.000000 
0.000000 0.000000 0.000000 

0.000000 -0.000000 0.000000 
0.000000 0.000000 0.000000 
0.000000 0.000000 0.000000 

-0.000000 -0.000000 0.000000 
0.000000 -0.000000 0.000000 
0.000000 0.000000 0.000000 

-0.000000 -0.000000 0.000000 
0.000000 0.000000 0.000000 
0.000000 0.000000 0.000000 

0.000000 -0.000000 0.000000 
0.000000 -0.000000 0.000000 
0.000000 0.000000 0.000000 

0.000000 -0.000000 0.000000 
0.000000 -0.000000 0.000000 
0.000000 0.000000 0.000000 

