# vtk DataFile Version 3.0 
vtk output 
ASCII 
DATASET UNSTRUCTURED_GRID 
POINTS 175 float 
-0.025995 -2.451787 0.000000 
-0.106871 -2.383525 0.000000 
-0.054787 -2.391824 0.000000 
-0.028781 -2.345861 0.000000 
-0.186324 -2.319289 0.000000 
-0.136973 -2.321864 0.000000 
-0.114269 -2.268191 0.000000 
-0.058165 -2.283887 0.000000 
-0.029368 -2.243682 0.000000 
-0.265242 -2.256074 0.000000 
-0.217114 -2.256907 0.000000 
-0.196579 -2.199604 0.000000 
-0.143078 -2.208332 0.000000 
-0.116538 -2.161051 0.000000 
-0.058931 -2.180715 0.000000 
-0.029561 -2.142577 0.000000 
-0.344167 -2.192873 0.000000 
-0.296743 -2.192891 0.000000 
-0.277994 -2.132958 0.000000 
-0.225954 -2.138841 0.000000 
-0.201637 -2.086723 0.000000 
-0.145726 -2.100206 0.000000 
-0.117873 -2.055861 0.000000 
-0.059316 -2.078574 0.000000 
-0.029754 -2.041502 0.000000 
-0.058372 -2.492660 0.000000 
-0.162029 -2.513189 0.000000 
-0.123083 -2.477676 0.000000 
-0.142746 -2.428554 0.000000 
-0.261808 -2.534880 0.000000 
-0.228941 -2.498032 0.000000 
-0.256720 -2.446770 0.000000 
-0.209430 -2.412780 0.000000 
-0.222907 -2.365185 0.000000 
-0.360712 -2.556670 0.000000 
-0.329912 -2.519812 0.000000 
-0.361851 -2.468076 0.000000 
-0.321549 -2.431865 0.000000 
-0.341958 -2.381659 0.000000 
-0.290615 -2.348972 0.000000 
-0.302120 -2.302260 0.000000 
-0.459944 -2.578604 0.000000 
-0.430016 -2.541742 0.000000 
-0.465108 -2.489875 0.000000 
-0.427786 -2.453077 0.000000 
-0.453311 -2.401682 0.000000 
-0.407797 -2.366480 0.000000 
-0.425085 -2.317115 0.000000 
-0.370743 -2.285579 0.000000 
-0.381286 -2.239367 0.000000 
-0.046780 -2.543649 0.000000 
-0.095259 -2.637930 0.000000 
-0.098642 -2.585020 0.000000 
-0.149197 -2.569486 0.000000 
-0.140490 -2.729075 0.000000 
-0.148827 -2.680339 0.000000 
-0.206262 -2.669254 0.000000 
-0.203202 -2.611447 0.000000 
-0.248807 -2.592105 0.000000 
-0.187417 -2.817086 0.000000 
-0.195529 -2.771078 0.000000 
-0.256516 -2.763064 0.000000 
-0.258777 -2.709823 0.000000 
-0.311160 -2.694436 0.000000 
-0.304116 -2.634377 0.000000 
-0.347832 -2.614167 0.000000 
-0.237601 -2.897272 0.000000 
-0.245960 -2.859664 0.000000 
-0.310103 -2.854846 0.000000 
-0.312738 -2.804026 0.000000 
-0.369538 -2.791905 0.000000 
-0.365483 -2.735699 0.000000 
-0.414741 -2.718874 0.000000 
-0.404539 -2.657016 0.000000 
-0.447230 -2.636552 0.000000 
-0.000000 -2.566331 0.000000 
0.043387 -2.663344 0.000000 
-0.000000 -2.633060 0.000000 
-0.043387 -2.663344 0.000000 
0.087417 -2.755282 0.000000 
0.043863 -2.732175 0.000000 
-0.000000 -2.769898 0.000000 
-0.043863 -2.732175 0.000000 
-0.087417 -2.755282 0.000000 
0.133701 -2.842858 0.000000 
0.089001 -2.822650 0.000000 
0.045315 -2.863719 0.000000 
-0.000000 -2.834087 0.000000 
-0.045315 -2.863719 0.000000 
-0.089001 -2.822650 0.000000 
-0.133701 -2.842858 0.000000 
0.182173 -2.915006 0.000000 
0.136804 -2.901821 0.000000 
0.092669 -2.929670 0.000000 
0.046079 -2.913801 0.000000 
-0.000000 -2.934220 0.000000 
-0.046079 -2.913801 0.000000 
-0.092669 -2.929670 0.000000 
-0.136804 -2.901821 0.000000 
-0.182173 -2.915006 0.000000 
0.046780 -2.543649 0.000000 
0.149197 -2.569486 0.000000 
0.098642 -2.585020 0.000000 
0.095259 -2.637930 0.000000 
0.248807 -2.592105 0.000000 
0.203202 -2.611447 0.000000 
0.206262 -2.669254 0.000000 
0.148827 -2.680339 0.000000 
0.140490 -2.729075 0.000000 
0.347832 -2.614167 0.000000 
0.304116 -2.634377 0.000000 
0.311160 -2.694436 0.000000 
0.258777 -2.709823 0.000000 
0.256516 -2.763064 0.000000 
0.195529 -2.771078 0.000000 
0.187417 -2.817086 0.000000 
0.447230 -2.636552 0.000000 
0.404539 -2.657016 0.000000 
0.414741 -2.718874 0.000000 
0.365483 -2.735699 0.000000 
0.369538 -2.791905 0.000000 
0.312738 -2.804026 0.000000 
0.310103 -2.854846 0.000000 
0.245960 -2.859664 0.000000 
0.237601 -2.897272 0.000000 
0.058372 -2.492660 0.000000 
0.142746 -2.428554 0.000000 
0.123083 -2.477676 0.000000 
0.162029 -2.513189 0.000000 
0.222907 -2.365185 0.000000 
0.209430 -2.412780 0.000000 
0.256720 -2.446770 0.000000 
0.228941 -2.498032 0.000000 
0.261808 -2.534880 0.000000 
0.302120 -2.302260 0.000000 
0.290615 -2.348972 0.000000 
0.341958 -2.381659 0.000000 
0.321549 -2.431865 0.000000 
0.361851 -2.468076 0.000000 
0.329912 -2.519812 0.000000 
0.360712 -2.556670 0.000000 
0.381286 -2.239367 0.000000 
0.370743 -2.285579 0.000000 
0.425085 -2.317115 0.000000 
0.407797 -2.366480 0.000000 
0.453311 -2.401682 0.000000 
0.427786 -2.453077 0.000000 
0.465108 -2.489875 0.000000 
0.430016 -2.541742 0.000000 
0.459944 -2.578604 0.000000 
0.025995 -2.451787 0.000000 
0.028781 -2.345861 0.000000 
0.054787 -2.391824 0.000000 
0.106871 -2.383525 0.000000 
0.029368 -2.243682 0.000000 
0.058165 -2.283887 0.000000 
0.114269 -2.268191 0.000000 
0.136973 -2.321864 0.000000 
0.186324 -2.319289 0.000000 
0.029561 -2.142577 0.000000 
0.058931 -2.180715 0.000000 
0.116538 -2.161051 0.000000 
0.143078 -2.208332 0.000000 
0.196579 -2.199604 0.000000 
0.217114 -2.256907 0.000000 
0.265242 -2.256074 0.000000 
0.029754 -2.041502 0.000000 
0.059316 -2.078574 0.000000 
0.117873 -2.055861 0.000000 
0.145726 -2.100206 0.000000 
0.201637 -2.086723 0.000000 
0.225954 -2.138841 0.000000 
0.277994 -2.132958 0.000000 
0.296743 -2.192891 0.000000 
0.344167 -2.192873 0.000000 
CELLS 175 350 
1 0 
1 1 
1 2 
1 3 
1 4 
1 5 
1 6 
1 7 
1 8 
1 9 
1 10 
1 11 
1 12 
1 13 
1 14 
1 15 
1 16 
1 17 
1 18 
1 19 
1 20 
1 21 
1 22 
1 23 
1 24 
1 25 
1 26 
1 27 
1 28 
1 29 
1 30 
1 31 
1 32 
1 33 
1 34 
1 35 
1 36 
1 37 
1 38 
1 39 
1 40 
1 41 
1 42 
1 43 
1 44 
1 45 
1 46 
1 47 
1 48 
1 49 
1 50 
1 51 
1 52 
1 53 
1 54 
1 55 
1 56 
1 57 
1 58 
1 59 
1 60 
1 61 
1 62 
1 63 
1 64 
1 65 
1 66 
1 67 
1 68 
1 69 
1 70 
1 71 
1 72 
1 73 
1 74 
1 75 
1 76 
1 77 
1 78 
1 79 
1 80 
1 81 
1 82 
1 83 
1 84 
1 85 
1 86 
1 87 
1 88 
1 89 
1 90 
1 91 
1 92 
1 93 
1 94 
1 95 
1 96 
1 97 
1 98 
1 99 
1 100 
1 101 
1 102 
1 103 
1 104 
1 105 
1 106 
1 107 
1 108 
1 109 
1 110 
1 111 
1 112 
1 113 
1 114 
1 115 
1 116 
1 117 
1 118 
1 119 
1 120 
1 121 
1 122 
1 123 
1 124 
1 125 
1 126 
1 127 
1 128 
1 129 
1 130 
1 131 
1 132 
1 133 
1 134 
1 135 
1 136 
1 137 
1 138 
1 139 
1 140 
1 141 
1 142 
1 143 
1 144 
1 145 
1 146 
1 147 
1 148 
1 149 
1 150 
1 151 
1 152 
1 153 
1 154 
1 155 
1 156 
1 157 
1 158 
1 159 
1 160 
1 161 
1 162 
1 163 
1 164 
1 165 
1 166 
1 167 
1 168 
1 169 
1 170 
1 171 
1 172 
1 173 
1 174 
CELL_TYPES 175 
1 
1 
1 
1 
1 
1 
1 
1 
1 
1 
1 
1 
1 
1 
1 
1 
1 
1 
1 
1 
1 
1 
1 
1 
1 
1 
1 
1 
1 
1 
1 
1 
1 
1 
1 
1 
1 
1 
1 
1 
1 
1 
1 
1 
1 
1 
1 
1 
1 
1 
1 
1 
1 
1 
1 
1 
1 
1 
1 
1 
1 
1 
1 
1 
1 
1 
1 
1 
1 
1 
1 
1 
1 
1 
1 
1 
1 
1 
1 
1 
1 
1 
1 
1 
1 
1 
1 
1 
1 
1 
1 
1 
1 
1 
1 
1 
1 
1 
1 
1 
1 
1 
1 
1 
1 
1 
1 
1 
1 
1 
1 
1 
1 
1 
1 
1 
1 
1 
1 
1 
1 
1 
1 
1 
1 
1 
1 
1 
1 
1 
1 
1 
1 
1 
1 
1 
1 
1 
1 
1 
1 
1 
1 
1 
1 
1 
1 
1 
1 
1 
1 
1 
1 
1 
1 
1 
1 
1 
1 
1 
1 
1 
1 
1 
1 
1 
1 
1 
1 
1 
1 
1 
1 
1 
1 
POINT_DATA 175 
VECTORS X_GC float 
-0.025995 -2.451787 0.000000 
-0.106871 -2.383525 0.000000 
-0.054787 -2.391824 0.000000 
-0.028781 -2.345861 0.000000 
-0.186324 -2.319289 0.000000 
-0.136973 -2.321864 0.000000 
-0.114269 -2.268191 0.000000 
-0.058165 -2.283887 0.000000 
-0.029368 -2.243682 0.000000 
-0.265242 -2.256074 0.000000 
-0.217114 -2.256907 0.000000 
-0.196579 -2.199604 0.000000 
-0.143078 -2.208332 0.000000 
-0.116538 -2.161051 0.000000 
-0.058931 -2.180715 0.000000 
-0.029561 -2.142577 0.000000 
-0.344167 -2.192873 0.000000 
-0.296743 -2.192891 0.000000 
-0.277994 -2.132958 0.000000 
-0.225954 -2.138841 0.000000 
-0.201637 -2.086723 0.000000 
-0.145726 -2.100206 0.000000 
-0.117873 -2.055861 0.000000 
-0.059316 -2.078574 0.000000 
-0.029754 -2.041502 0.000000 
-0.058372 -2.492660 0.000000 
-0.162029 -2.513189 0.000000 
-0.123083 -2.477676 0.000000 
-0.142746 -2.428554 0.000000 
-0.261808 -2.534880 0.000000 
-0.228941 -2.498032 0.000000 
-0.256720 -2.446770 0.000000 
-0.209430 -2.412780 0.000000 
-0.222907 -2.365185 0.000000 
-0.360712 -2.556670 0.000000 
-0.329912 -2.519812 0.000000 
-0.361851 -2.468076 0.000000 
-0.321549 -2.431865 0.000000 
-0.341958 -2.381659 0.000000 
-0.290615 -2.348972 0.000000 
-0.302120 -2.302260 0.000000 
-0.459944 -2.578604 0.000000 
-0.430016 -2.541742 0.000000 
-0.465108 -2.489875 0.000000 
-0.427786 -2.453077 0.000000 
-0.453311 -2.401682 0.000000 
-0.407797 -2.366480 0.000000 
-0.425085 -2.317115 0.000000 
-0.370743 -2.285579 0.000000 
-0.381286 -2.239367 0.000000 
-0.046780 -2.543649 0.000000 
-0.095259 -2.637930 0.000000 
-0.098642 -2.585020 0.000000 
-0.149197 -2.569486 0.000000 
-0.140490 -2.729075 0.000000 
-0.148827 -2.680339 0.000000 
-0.206262 -2.669254 0.000000 
-0.203202 -2.611447 0.000000 
-0.248807 -2.592105 0.000000 
-0.187417 -2.817086 0.000000 
-0.195529 -2.771078 0.000000 
-0.256516 -2.763064 0.000000 
-0.258777 -2.709823 0.000000 
-0.311160 -2.694436 0.000000 
-0.304116 -2.634377 0.000000 
-0.347832 -2.614167 0.000000 
-0.237601 -2.897272 0.000000 
-0.245960 -2.859664 0.000000 
-0.310103 -2.854846 0.000000 
-0.312738 -2.804026 0.000000 
-0.369538 -2.791905 0.000000 
-0.365483 -2.735699 0.000000 
-0.414741 -2.718874 0.000000 
-0.404539 -2.657016 0.000000 
-0.447230 -2.636552 0.000000 
-0.000000 -2.566331 0.000000 
0.043387 -2.663344 0.000000 
-0.000000 -2.633060 0.000000 
-0.043387 -2.663344 0.000000 
0.087417 -2.755282 0.000000 
0.043863 -2.732175 0.000000 
-0.000000 -2.769898 0.000000 
-0.043863 -2.732175 0.000000 
-0.087417 -2.755282 0.000000 
0.133701 -2.842858 0.000000 
0.089001 -2.822650 0.000000 
0.045315 -2.863719 0.000000 
-0.000000 -2.834087 0.000000 
-0.045315 -2.863719 0.000000 
-0.089001 -2.822650 0.000000 
-0.133701 -2.842858 0.000000 
0.182173 -2.915006 0.000000 
0.136804 -2.901821 0.000000 
0.092669 -2.929670 0.000000 
0.046079 -2.913801 0.000000 
-0.000000 -2.934220 0.000000 
-0.046079 -2.913801 0.000000 
-0.092669 -2.929670 0.000000 
-0.136804 -2.901821 0.000000 
-0.182173 -2.915006 0.000000 
0.046780 -2.543649 0.000000 
0.149197 -2.569486 0.000000 
0.098642 -2.585020 0.000000 
0.095259 -2.637930 0.000000 
0.248807 -2.592105 0.000000 
0.203202 -2.611447 0.000000 
0.206262 -2.669254 0.000000 
0.148827 -2.680339 0.000000 
0.140490 -2.729075 0.000000 
0.347832 -2.614167 0.000000 
0.304116 -2.634377 0.000000 
0.311160 -2.694436 0.000000 
0.258777 -2.709823 0.000000 
0.256516 -2.763064 0.000000 
0.195529 -2.771078 0.000000 
0.187417 -2.817086 0.000000 
0.447230 -2.636552 0.000000 
0.404539 -2.657016 0.000000 
0.414741 -2.718874 0.000000 
0.365483 -2.735699 0.000000 
0.369538 -2.791905 0.000000 
0.312738 -2.804026 0.000000 
0.310103 -2.854846 0.000000 
0.245960 -2.859664 0.000000 
0.237601 -2.897272 0.000000 
0.058372 -2.492660 0.000000 
0.142746 -2.428554 0.000000 
0.123083 -2.477676 0.000000 
0.162029 -2.513189 0.000000 
0.222907 -2.365185 0.000000 
0.209430 -2.412780 0.000000 
0.256720 -2.446770 0.000000 
0.228941 -2.498032 0.000000 
0.261808 -2.534880 0.000000 
0.302120 -2.302260 0.000000 
0.290615 -2.348972 0.000000 
0.341958 -2.381659 0.000000 
0.321549 -2.431865 0.000000 
0.361851 -2.468076 0.000000 
0.329912 -2.519812 0.000000 
0.360712 -2.556670 0.000000 
0.381286 -2.239367 0.000000 
0.370743 -2.285579 0.000000 
0.425085 -2.317115 0.000000 
0.407797 -2.366480 0.000000 
0.453311 -2.401682 0.000000 
0.427786 -2.453077 0.000000 
0.465108 -2.489875 0.000000 
0.430016 -2.541742 0.000000 
0.459944 -2.578604 0.000000 
0.025995 -2.451787 0.000000 
0.028781 -2.345861 0.000000 
0.054787 -2.391824 0.000000 
0.106871 -2.383525 0.000000 
0.029368 -2.243682 0.000000 
0.058165 -2.283887 0.000000 
0.114269 -2.268191 0.000000 
0.136973 -2.321864 0.000000 
0.186324 -2.319289 0.000000 
0.029561 -2.142577 0.000000 
0.058931 -2.180715 0.000000 
0.116538 -2.161051 0.000000 
0.143078 -2.208332 0.000000 
0.196579 -2.199604 0.000000 
0.217114 -2.256907 0.000000 
0.265242 -2.256074 0.000000 
0.029754 -2.041502 0.000000 
0.059316 -2.078574 0.000000 
0.117873 -2.055861 0.000000 
0.145726 -2.100206 0.000000 
0.201637 -2.086723 0.000000 
0.225954 -2.138841 0.000000 
0.277994 -2.132958 0.000000 
0.296743 -2.192891 0.000000 
0.344167 -2.192873 0.000000 
VECTORS X_EC float 
0.337937 -0.400869 0.000000 
-0.610683 0.677586 0.000000 
0.712225 0.789629 0.000000 
0.374149 0.169126 0.000000 
0.422216 -0.189592 0.000000 
-0.219357 -0.154843 0.000000 
-0.514506 -0.879424 0.000000 
0.756147 -0.667526 0.000000 
0.381786 0.789712 0.000000 
-0.551854 0.957001 0.000000 
0.822477 0.968247 0.000000 
0.555521 0.194660 0.000000 
-0.139981 0.312483 0.000000 
-0.485010 -0.325808 0.000000 
0.766097 -0.060345 0.000000 
0.384298 -0.575215 0.000000 
0.474172 0.103781 0.000000 
-0.142344 0.104033 0.000000 
-0.386072 -0.705061 0.000000 
0.937406 -0.625643 0.000000 
0.621283 0.670767 0.000000 
-0.105560 0.852777 0.000000 
-0.467657 0.254122 0.000000 
0.771105 0.560754 0.000000 
0.386804 0.060282 0.000000 
0.758840 0.150916 0.000000 
0.106376 0.428056 0.000000 
-0.399918 -0.051371 0.000000 
-0.144304 -0.714516 0.000000 
-0.596492 0.720876 0.000000 
0.976233 0.223435 0.000000 
-0.662646 -0.468605 0.000000 
0.722595 -0.927475 0.000000 
0.897793 0.429994 0.000000 
0.689253 -0.984954 0.000000 
0.288858 0.517457 0.000000 
0.704065 -0.180977 0.000000 
0.180137 -0.669823 0.000000 
0.445458 0.652400 0.000000 
-0.222000 0.211117 0.000000 
-0.072437 -0.419495 0.000000 
-0.020734 -0.688845 0.000000 
-0.409792 0.813524 0.000000 
0.046409 0.113315 0.000000 
-0.438785 -0.383454 0.000000 
-0.106960 0.922703 0.000000 
-0.698634 0.447476 0.000000 
-0.473894 -0.218943 0.000000 
0.819663 -0.644687 0.000000 
0.956724 0.731450 0.000000 
0.608145 0.839256 0.000000 
-0.761634 0.112052 0.000000 
-0.717653 -0.602235 0.000000 
-0.060435 -0.811940 0.000000 
-0.173634 -0.657486 0.000000 
-0.065254 0.684571 0.000000 
0.681411 0.534929 0.000000 
0.641623 -0.245466 0.000000 
-0.765515 -0.506576 0.000000 
0.436425 0.530662 0.000000 
0.541881 -0.090448 0.000000 
-0.665295 -0.198633 0.000000 
-0.635904 -0.917385 0.000000 
0.045078 0.874888 0.000000 
-0.046490 0.064088 0.000000 
0.521819 -0.208744 0.000000 
-0.911190 -0.386831 0.000000 
-0.802525 -0.894535 0.000000 
0.031344 -0.959576 0.000000 
0.065600 0.354349 0.000000 
0.803988 0.190717 0.000000 
0.751279 -0.568062 0.000000 
-0.608364 -0.795204 0.000000 
-0.740999 0.369721 0.000000 
-0.186008 0.093455 0.000000 
0.000000 -0.854535 0.000000 
-0.564030 0.455141 0.000000 
0.000000 0.046310 0.000000 
0.564030 0.455141 0.000000 
0.863583 -0.303695 0.000000 
-0.570216 -0.615632 0.000000 
0.000000 -0.106384 0.000000 
0.570216 -0.615632 0.000000 
-0.863583 -0.303695 0.000000 
0.261889 0.878582 0.000000 
0.842991 0.605782 0.000000 
-0.589092 -0.839799 0.000000 
0.000000 0.760174 0.000000 
0.589092 -0.839799 0.000000 
-0.842991 0.605782 0.000000 
-0.261889 0.878582 0.000000 
-0.368248 -0.147417 0.000000 
0.221544 -0.325414 0.000000 
0.795305 0.050549 0.000000 
-0.599026 -0.163687 0.000000 
0.000000 0.111975 0.000000 
0.599026 -0.163687 0.000000 
-0.795305 0.050549 0.000000 
-0.221544 -0.325414 0.000000 
0.368248 -0.147417 0.000000 
-0.608145 0.839256 0.000000 
0.060435 -0.811940 0.000000 
0.717653 -0.602235 0.000000 
0.761634 0.112052 0.000000 
0.765515 -0.506576 0.000000 
-0.641623 -0.245466 0.000000 
-0.681411 0.534929 0.000000 
0.065254 0.684571 0.000000 
0.173634 -0.657486 0.000000 
-0.521819 -0.208744 0.000000 
0.046490 0.064088 0.000000 
-0.045078 0.874888 0.000000 
0.635904 -0.917385 0.000000 
0.665295 -0.198633 0.000000 
-0.541881 -0.090448 0.000000 
-0.436425 0.530662 0.000000 
0.186008 0.093455 0.000000 
0.740999 0.369721 0.000000 
0.608364 -0.795204 0.000000 
-0.751279 -0.568062 0.000000 
-0.803988 0.190717 0.000000 
-0.065600 0.354349 0.000000 
-0.031344 -0.959576 0.000000 
0.802525 -0.894535 0.000000 
0.911190 -0.386831 0.000000 
-0.758840 0.150916 0.000000 
0.144304 -0.714516 0.000000 
0.399918 -0.051371 0.000000 
-0.106376 0.428056 0.000000 
-0.897793 0.429994 0.000000 
-0.722595 -0.927475 0.000000 
0.662646 -0.468605 0.000000 
-0.976233 0.223435 0.000000 
0.596492 0.720876 0.000000 
0.072437 -0.419495 0.000000 
0.222000 0.211117 0.000000 
-0.445458 0.652400 0.000000 
-0.180137 -0.669823 0.000000 
-0.704065 -0.180977 0.000000 
-0.288858 0.517457 0.000000 
-0.689253 -0.984954 0.000000 
-0.956724 0.731450 0.000000 
-0.819663 -0.644687 0.000000 
0.473894 -0.218943 0.000000 
0.698634 0.447476 0.000000 
0.106960 0.922703 0.000000 
0.438785 -0.383454 0.000000 
-0.046409 0.113315 0.000000 
0.409792 0.813524 0.000000 
0.020734 -0.688845 0.000000 
-0.337937 -0.400869 0.000000 
-0.374149 0.169126 0.000000 
-0.712225 0.789629 0.000000 
0.610683 0.677586 0.000000 
-0.381786 0.789712 0.000000 
-0.756147 -0.667526 0.000000 
0.514506 -0.879424 0.000000 
0.219357 -0.154843 0.000000 
-0.422216 -0.189592 0.000000 
-0.384298 -0.575215 0.000000 
-0.766097 -0.060345 0.000000 
0.485010 -0.325808 0.000000 
0.139981 0.312483 0.000000 
-0.555521 0.194660 0.000000 
-0.822477 0.968247 0.000000 
0.551854 0.957001 0.000000 
-0.386804 0.060282 0.000000 
-0.771105 0.560754 0.000000 
0.467657 0.254122 0.000000 
0.105560 0.852777 0.000000 
-0.621283 0.670767 0.000000 
-0.937406 -0.625643 0.000000 
0.386072 -0.705061 0.000000 
0.142344 0.104033 0.000000 
-0.474172 0.103781 0.000000 
CELL_DATA 175 
SCALARS MASS float 
LOOKUP_TABLE default 
0.781831 
0.864274 
0.946717 
0.864274 
0.881307 
0.921110 
0.858535 
0.921110 
0.881307 
0.887046 
0.910001 
0.869829 
0.915556 
0.869829 
0.910001 
0.887046 
0.892784 
0.915740 
0.892784 
0.927218 
0.892784 
0.927218 
0.892784 
0.915740 
0.892784 
0.781831 
0.864274 
0.946717 
0.864274 
0.881307 
0.921110 
0.858535 
0.921110 
0.881307 
0.887046 
0.910001 
0.869829 
0.915556 
0.869829 
0.910001 
0.887046 
0.892784 
0.915740 
0.892784 
0.927218 
0.892784 
0.927218 
0.892784 
0.915740 
0.892784 
0.781831 
0.864274 
0.946717 
0.864274 
0.881307 
0.921110 
0.858535 
0.921110 
0.881307 
0.887046 
0.910001 
0.869829 
0.915556 
0.869829 
0.910001 
0.887046 
0.892784 
0.915740 
0.892784 
0.927218 
0.892784 
0.927218 
0.892784 
0.915740 
0.892784 
0.781831 
0.864274 
0.946717 
0.864274 
0.881307 
0.921110 
0.858535 
0.921110 
0.881307 
0.887046 
0.910001 
0.869829 
0.915556 
0.869829 
0.910001 
0.887046 
0.892784 
0.915740 
0.892784 
0.927218 
0.892784 
0.927218 
0.892784 
0.915740 
0.892784 
0.781831 
0.864274 
0.946717 
0.864274 
0.881307 
0.921110 
0.858535 
0.921110 
0.881307 
0.887046 
0.910001 
0.869829 
0.915556 
0.869829 
0.910001 
0.887046 
0.892784 
0.915740 
0.892784 
0.927218 
0.892784 
0.927218 
0.892784 
0.915740 
0.892784 
0.781831 
0.864274 
0.946717 
0.864274 
0.881307 
0.921110 
0.858535 
0.921110 
0.881307 
0.887046 
0.910001 
0.869829 
0.915556 
0.869829 
0.910001 
0.887046 
0.892784 
0.915740 
0.892784 
0.927218 
0.892784 
0.927218 
0.892784 
0.915740 
0.892784 
0.781831 
0.864274 
0.946717 
0.864274 
0.881307 
0.921110 
0.858535 
0.921110 
0.881307 
0.887046 
0.910001 
0.869829 
0.915556 
0.869829 
0.910001 
0.887046 
0.892784 
0.915740 
0.892784 
0.927218 
0.892784 
0.927218 
0.892784 
0.915740 
0.892784 
SCALARS MASS float 
LOOKUP_TABLE default 
0.781831 
0.864274 
0.946717 
0.864274 
0.881307 
0.921110 
0.858535 
0.921110 
0.881307 
0.887046 
0.910001 
0.869829 
0.915556 
0.869829 
0.910001 
0.887046 
0.892784 
0.915740 
0.892784 
0.927218 
0.892784 
0.927218 
0.892784 
0.915740 
0.892784 
0.781831 
0.864274 
0.946717 
0.864274 
0.881307 
0.921110 
0.858535 
0.921110 
0.881307 
0.887046 
0.910001 
0.869829 
0.915556 
0.869829 
0.910001 
0.887046 
0.892784 
0.915740 
0.892784 
0.927218 
0.892784 
0.927218 
0.892784 
0.915740 
0.892784 
0.781831 
0.864274 
0.946717 
0.864274 
0.881307 
0.921110 
0.858535 
0.921110 
0.881307 
0.887046 
0.910001 
0.869829 
0.915556 
0.869829 
0.910001 
0.887046 
0.892784 
0.915740 
0.892784 
0.927218 
0.892784 
0.927218 
0.892784 
0.915740 
0.892784 
0.781831 
0.864274 
0.946717 
0.864274 
0.881307 
0.921110 
0.858535 
0.921110 
0.881307 
0.887046 
0.910001 
0.869829 
0.915556 
0.869829 
0.910001 
0.887046 
0.892784 
0.915740 
0.892784 
0.927218 
0.892784 
0.927218 
0.892784 
0.915740 
0.892784 
0.781831 
0.864274 
0.946717 
0.864274 
0.881307 
0.921110 
0.858535 
0.921110 
0.881307 
0.887046 
0.910001 
0.869829 
0.915556 
0.869829 
0.910001 
0.887046 
0.892784 
0.915740 
0.892784 
0.927218 
0.892784 
0.927218 
0.892784 
0.915740 
0.892784 
0.781831 
0.864274 
0.946717 
0.864274 
0.881307 
0.921110 
0.858535 
0.921110 
0.881307 
0.887046 
0.910001 
0.869829 
0.915556 
0.869829 
0.910001 
0.887046 
0.892784 
0.915740 
0.892784 
0.927218 
0.892784 
0.927218 
0.892784 
0.915740 
0.892784 
0.781831 
0.864274 
0.946717 
0.864274 
0.881307 
0.921110 
0.858535 
0.921110 
0.881307 
0.887046 
0.910001 
0.869829 
0.915556 
0.869829 
0.910001 
0.887046 
0.892784 
0.915740 
0.892784 
0.927218 
0.892784 
0.927218 
0.892784 
0.915740 
0.892784 
SCALARS DENSITY float 
LOOKUP_TABLE default 
201.638776 
194.870965 
199.888467 
197.321352 
198.728024 
196.414205 
199.350243 
198.573156 
199.110116 
198.895653 
200.343042 
199.944778 
199.492614 
199.275883 
198.825950 
199.411993 
200.206800 
199.735385 
199.788858 
199.947991 
200.049788 
199.973153 
199.872150 
199.920673 
199.877959 
196.465665 
195.044430 
193.533784 
195.108876 
196.343053 
204.123905 
197.294942 
198.793073 
199.978037 
201.358422 
203.078388 
205.601891 
200.050157 
200.942451 
199.688171 
200.945370 
191.244676 
200.440646 
203.804633 
202.196432 
200.727061 
201.318668 
202.570299 
201.041578 
200.203950 
192.728272 
163.967964 
182.837206 
194.345653 
207.910785 
200.323990 
234.134601 
233.568302 
203.421773 
188.103653 
223.907300 
164.580761 
180.009951 
180.566694 
206.998259 
210.630889 
514798.586715 
431.253702 
282.650967 
219.948206 
168.475534 
184.239717 
275.601665 
235.209731 
218.633199 
192.490097 
180.682183 
159.069531 
180.682184 
231.924717 
230.100966 
351.681441 
230.100966 
231.924717 
126.085793 
133.717246 
196.823138 
177.673114 
196.823140 
133.717248 
126.085794 
17182604789.298031 
1974983.404138 
5640678305890038784.000000 
6362953888.834623 
30069899171130861682688.000000 
6362953899.889922 
5640678081502984192.000000 
1974983.411435 
17182604729.752533 
192.728271 
194.345653 
182.837206 
163.967964 
203.421773 
233.568302 
234.134601 
200.323990 
207.910785 
210.630889 
206.998259 
180.566694 
180.009950 
164.580761 
223.907300 
188.103653 
218.633199 
235.209732 
275.601665 
184.239717 
168.475533 
219.948207 
282.650967 
431.253703 
514798.589651 
196.465665 
195.108876 
193.533784 
195.044430 
199.978037 
198.793073 
197.294942 
204.123905 
196.343053 
200.945370 
199.688171 
200.942451 
200.050157 
205.601891 
203.078388 
201.358422 
200.203950 
201.041578 
202.570299 
201.318668 
200.727061 
202.196432 
203.804633 
200.440646 
191.244676 
201.638776 
197.321352 
199.888467 
194.870965 
199.110116 
198.573156 
199.350243 
196.414205 
198.728024 
199.411993 
198.825950 
199.275883 
199.492614 
199.944778 
200.343042 
198.895653 
199.877959 
199.920673 
199.872150 
199.973153 
200.049788 
199.947991 
199.788858 
199.735385 
200.206800 
SCALARS ELEM_i float 
LOOKUP_TABLE default 
165 
193 
166 
166 
193 
193 
193 
166 
167 
221 
194 
194 
194 
194 
167 
167 
221 
221 
221 
194 
195 
195 
195 
168 
168 
165 
192 
192 
192 
219 
192 
219 
192 
193 
218 
219 
219 
219 
220 
220 
220 
245 
246 
246 
246 
247 
247 
247 
220 
221 
165 
191 
191 
191 
190 
191 
191 
191 
218 
190 
190 
217 
217 
218 
218 
218 
216 
216 
216 
217 
217 
217 
244 
245 
245 
164 
164 
164 
164 
136 
163 
163 
163 
190 
136 
136 
162 
163 
162 
190 
190 
135 
135 
135 
162 
162 
162 
189 
189 
189 
165 
137 
137 
137 
110 
137 
137 
137 
136 
110 
110 
110 
109 
109 
136 
136 
83 
83 
82 
109 
109 
109 
108 
108 
108 
165 
138 
138 
138 
139 
138 
111 
138 
111 
112 
112 
112 
111 
111 
111 
110 
113 
112 
85 
85 
85 
84 
84 
84 
83 
165 
166 
166 
139 
167 
166 
139 
139 
139 
167 
167 
140 
140 
140 
140 
113 
168 
168 
141 
141 
141 
140 
113 
113 
113 
VECTORS VELOCITY float 
0.001218 -7.141470 0.000000 
-0.011031 -7.042942 0.000000 
-0.024714 -7.045633 0.000000 
-0.009207 -7.038633 0.000000 
0.036128 -7.039185 0.000000 
0.011883 -7.038864 0.000000 
0.018825 -7.045225 0.000000 
0.003328 -7.048630 0.000000 
0.005440 -7.047461 0.000000 
0.030194 -7.016450 0.000000 
0.033319 -7.030227 0.000000 
0.020594 -7.027824 0.000000 
0.018851 -7.034922 0.000000 
0.014852 -7.031244 0.000000 
0.011708 -7.038669 0.000000 
0.005722 -7.032294 0.000000 
0.016331 -7.002173 0.000000 
0.018143 -7.011029 0.000000 
0.011086 -7.018338 0.000000 
0.009028 -7.019682 0.000000 
0.007718 -7.020861 0.000000 
0.009434 -7.024546 0.000000 
0.007889 -7.022666 0.000000 
0.007543 -7.026334 0.000000 
0.002827 -7.022847 0.000000 
0.071775 -7.256203 0.000000 
0.112976 -7.103601 0.000000 
0.076434 -7.145889 0.000000 
0.023111 -7.054911 0.000000 
0.069885 -6.916687 0.000000 
0.102507 -6.965941 0.000000 
0.085591 -6.999448 0.000000 
0.071862 -7.038194 0.000000 
0.067691 -7.037498 0.000000 
-0.013718 -6.846649 0.000000 
0.018073 -6.904054 0.000000 
0.000361 -6.950766 0.000000 
0.042038 -6.999640 0.000000 
0.031506 -6.996960 0.000000 
0.046191 -7.015056 0.000000 
0.034243 -7.010277 0.000000 
-0.305212 -6.651661 0.000000 
-0.130442 -6.800571 0.000000 
-0.124906 -6.854260 0.000000 
-0.044502 -6.941040 0.000000 
-0.053652 -6.951790 0.000000 
-0.010128 -6.969600 0.000000 
-0.030028 -6.956511 0.000000 
0.016636 -6.978823 0.000000 
0.014282 -6.981507 0.000000 
0.109728 -7.346372 0.000000 
-0.019621 -6.904637 0.000000 
0.182813 -7.184777 0.000000 
0.146601 -7.139192 0.000000 
-0.478734 -7.216634 0.000000 
-0.316135 -7.052903 0.000000 
-0.420714 -7.132580 0.000000 
-0.145517 -7.057919 0.000000 
-0.051662 -6.962432 0.000000 
0.123826 -5.936872 0.000000 
-0.018608 -6.869826 0.000000 
0.052969 -6.738148 0.000000 
-0.395722 -7.167774 0.000000 
0.010603 -7.017334 0.000000 
-0.023110 -6.984582 0.000000 
0.119191 -6.885073 0.000000 
-0.807309 -7.243618 0.000000 
0.096488 -5.309059 0.000000 
-1.717200 -5.702463 0.000000 
-0.645239 -6.164855 0.000000 
-0.999201 -6.222166 0.000000 
0.498382 -6.808672 0.000000 
-0.278271 -6.958302 0.000000 
0.049707 -6.807614 0.000000 
-0.599072 -6.718985 0.000000 
0.000000 -7.355367 0.000000 
0.041757 -6.882669 0.000000 
0.000000 -6.891285 0.000000 
-0.041757 -6.882669 0.000000 
0.596376 -7.451818 0.000000 
0.274032 -7.257741 0.000000 
-0.000000 -7.447318 0.000000 
-0.274032 -7.257741 0.000000 
-0.596376 -7.451818 0.000000 
0.364677 -4.979915 0.000000 
0.696724 -5.709020 0.000000 
0.485761 -3.771248 0.000000 
-0.000000 -5.145508 0.000000 
-0.485761 -3.771248 0.000000 
-0.696724 -5.709020 0.000000 
-0.364677 -4.979915 0.000000 
0.971742 -11.637321 0.000000 
0.415787 -4.960540 0.000000 
1.006556 -13.968562 0.000000 
0.240936 -4.879082 0.000000 
-0.000000 -18.046642 0.000000 
-0.240936 -4.879082 0.000000 
-1.006556 -13.968562 0.000000 
-0.415787 -4.960540 0.000000 
-0.971742 -11.637321 0.000000 
-0.109728 -7.346372 0.000000 
-0.146601 -7.139192 0.000000 
-0.182813 -7.184777 0.000000 
0.019621 -6.904637 0.000000 
0.051662 -6.962432 0.000000 
0.145517 -7.057919 0.000000 
0.420714 -7.132580 0.000000 
0.316135 -7.052903 0.000000 
0.478734 -7.216634 0.000000 
-0.119191 -6.885073 0.000000 
0.023110 -6.984582 0.000000 
-0.010603 -7.017334 0.000000 
0.395722 -7.167774 0.000000 
-0.052969 -6.738148 0.000000 
0.018608 -6.869826 0.000000 
-0.123826 -5.936872 0.000000 
0.599072 -6.718985 0.000000 
-0.049707 -6.807614 0.000000 
0.278271 -6.958302 0.000000 
-0.498382 -6.808672 0.000000 
0.999201 -6.222166 0.000000 
0.645239 -6.164855 0.000000 
1.717200 -5.702463 0.000000 
-0.096488 -5.309059 0.000000 
0.807309 -7.243618 0.000000 
-0.071775 -7.256203 0.000000 
-0.023111 -7.054911 0.000000 
-0.076434 -7.145889 0.000000 
-0.112976 -7.103601 0.000000 
-0.067691 -7.037498 0.000000 
-0.071862 -7.038194 0.000000 
-0.085591 -6.999448 0.000000 
-0.102507 -6.965941 0.000000 
-0.069885 -6.916687 0.000000 
-0.034243 -7.010277 0.000000 
-0.046191 -7.015056 0.000000 
-0.031506 -6.996960 0.000000 
-0.042038 -6.999640 0.000000 
-0.000361 -6.950766 0.000000 
-0.018073 -6.904054 0.000000 
0.013718 -6.846649 0.000000 
-0.014282 -6.981507 0.000000 
-0.016636 -6.978823 0.000000 
0.030028 -6.956511 0.000000 
0.010128 -6.969600 0.000000 
0.053652 -6.951790 0.000000 
0.044502 -6.941040 0.000000 
0.124906 -6.854260 0.000000 
0.130442 -6.800571 0.000000 
0.305212 -6.651661 0.000000 
-0.001218 -7.141470 0.000000 
0.009207 -7.038633 0.000000 
0.024714 -7.045633 0.000000 
0.011031 -7.042942 0.000000 
-0.005440 -7.047461 0.000000 
-0.003328 -7.048630 0.000000 
-0.018825 -7.045225 0.000000 
-0.011883 -7.038864 0.000000 
-0.036128 -7.039185 0.000000 
-0.005722 -7.032294 0.000000 
-0.011708 -7.038669 0.000000 
-0.014852 -7.031244 0.000000 
-0.018851 -7.034922 0.000000 
-0.020594 -7.027824 0.000000 
-0.033319 -7.030227 0.000000 
-0.030194 -7.016450 0.000000 
-0.002827 -7.022847 0.000000 
-0.007543 -7.026334 0.000000 
-0.007889 -7.022666 0.000000 
-0.009434 -7.024546 0.000000 
-0.007718 -7.020861 0.000000 
-0.009028 -7.019682 0.000000 
-0.011086 -7.018338 0.000000 
-0.018143 -7.011029 0.000000 
-0.016331 -7.002173 0.000000 
TENSORS STRESS float 
-1.239669 -0.105415 0.000000 
0.000000 0.033403 0.000000 
0.000000 0.000000 0.000000 

3.760047 -0.785043 0.000000 
0.000000 4.228621 0.000000 
0.000000 0.000000 0.000000 

-0.208266 -0.215898 0.000000 
0.000000 0.851803 0.000000 
0.000000 0.000000 0.000000 

2.092039 -0.105565 0.000000 
0.000000 2.914172 0.000000 
0.000000 0.000000 0.000000 

-0.392081 -0.490284 0.000000 
0.000000 -0.178166 0.000000 
0.000000 0.000000 0.000000 

2.071468 -0.567389 0.000000 
0.000000 2.500830 0.000000 
0.000000 0.000000 0.000000 

0.360140 -0.191961 0.000000 
0.000000 0.651889 0.000000 
0.000000 0.000000 0.000000 

2.484838 -0.114172 0.000000 
0.000000 2.919002 0.000000 
0.000000 0.000000 0.000000 

0.778015 -0.007438 0.000000 
0.000000 1.004966 0.000000 
0.000000 0.000000 0.000000 

1.669310 -0.310045 0.000000 
0.000000 1.566891 0.000000 
0.000000 0.000000 0.000000 

-0.903824 -0.235232 0.000000 
0.000000 -0.719018 0.000000 
0.000000 0.000000 0.000000 

-0.225805 -0.175498 0.000000 
0.000000 -0.072903 0.000000 
0.000000 0.000000 0.000000 

0.114805 -0.154423 0.000000 
0.000000 0.317954 0.000000 
0.000000 0.000000 0.000000 

0.634076 -0.092872 0.000000 
0.000000 0.806150 0.000000 
0.000000 0.000000 0.000000 

0.981069 -0.014235 0.000000 
0.000000 1.196349 0.000000 
0.000000 0.000000 0.000000 

0.615021 0.000098 0.000000 
0.000000 0.785865 0.000000 
0.000000 0.000000 0.000000 

-0.071491 -0.171719 0.000000 
0.000000 -0.199319 0.000000 
0.000000 0.000000 0.000000 

0.543054 -0.220717 0.000000 
0.000000 0.463000 0.000000 
0.000000 0.000000 0.000000 

0.152729 -0.153747 0.000000 
0.000000 0.148826 0.000000 
0.000000 0.000000 0.000000 

0.026744 -0.149395 0.000000 
0.000000 0.121833 0.000000 
0.000000 0.000000 0.000000 

-0.162715 -0.058483 0.000000 
0.000000 -0.118170 0.000000 
0.000000 0.000000 0.000000 

-0.040448 -0.056464 0.000000 
0.000000 0.020239 0.000000 
0.000000 0.000000 0.000000 

0.107187 -0.041219 0.000000 
0.000000 0.166139 0.000000 
0.000000 0.000000 0.000000 

-0.164718 -0.007361 0.000000 
0.000000 -0.065627 0.000000 
0.000000 0.000000 0.000000 

-0.096108 -0.003601 0.000000 
0.000000 -0.003449 0.000000 
0.000000 0.000000 0.000000 

-1.186334 -0.121383 0.000000 
0.000000 0.362481 0.000000 
0.000000 0.000000 0.000000 

6.116208 -1.234024 0.000000 
0.000000 6.153817 0.000000 
0.000000 0.000000 0.000000 

8.103358 -1.151191 0.000000 
0.000000 8.428213 0.000000 
0.000000 0.000000 0.000000 

4.174178 -0.870923 0.000000 
0.000000 4.546866 0.000000 
0.000000 0.000000 0.000000 

5.250898 -1.010076 0.000000 
0.000000 3.955811 0.000000 
0.000000 0.000000 0.000000 

-0.409693 -0.994331 0.000000 
0.000000 -0.858158 0.000000 
0.000000 0.000000 0.000000 

3.542485 -0.458809 0.000000 
0.000000 2.852378 0.000000 
0.000000 0.000000 0.000000 

-0.698655 -0.794942 0.000000 
0.000000 -0.642360 0.000000 
0.000000 0.000000 0.000000 

-1.694997 -0.632989 0.000000 
0.000000 -1.656545 0.000000 
0.000000 0.000000 0.000000 

-0.912753 -0.678920 0.000000 
0.000000 -2.900135 0.000000 
0.000000 0.000000 0.000000 

-0.826654 -0.598483 0.000000 
0.000000 -2.481666 0.000000 
0.000000 0.000000 0.000000 

-4.228968 -0.247688 0.000000 
0.000000 -5.647662 0.000000 
0.000000 0.000000 0.000000 

-0.186196 -0.363932 0.000000 
0.000000 -1.183954 0.000000 
0.000000 0.000000 0.000000 

0.299572 -0.406609 0.000000 
0.000000 -0.403546 0.000000 
0.000000 0.000000 0.000000 

1.019537 -0.459789 0.000000 
0.000000 0.492305 0.000000 
0.000000 0.000000 0.000000 

-0.626237 -0.305329 0.000000 
0.000000 -1.063672 0.000000 
0.000000 0.000000 0.000000 

22.574160 0.938286 0.000000 
0.000000 20.386542 0.000000 
0.000000 0.000000 0.000000 

5.399278 0.624301 0.000000 
0.000000 2.405388 0.000000 
0.000000 0.000000 0.000000 

-0.985124 0.950918 0.000000 
0.000000 -3.451689 0.000000 
0.000000 0.000000 0.000000 

-2.449349 0.500909 0.000000 
0.000000 -4.455997 0.000000 
0.000000 0.000000 0.000000 

0.539024 -0.012137 0.000000 
0.000000 -0.551740 0.000000 
0.000000 0.000000 0.000000 

-0.002280 -0.088832 0.000000 
0.000000 -0.992467 0.000000 
0.000000 0.000000 0.000000 

-1.534626 -0.009331 0.000000 
0.000000 -2.362908 0.000000 
0.000000 0.000000 0.000000 

-1.468087 -0.170654 0.000000 
0.000000 -1.921308 0.000000 
0.000000 0.000000 0.000000 

0.000794 -0.186918 0.000000 
0.000000 -0.209083 0.000000 
0.000000 0.000000 0.000000 

-1.914806 -0.110174 0.000000 
0.000000 -0.148799 0.000000 
0.000000 0.000000 0.000000 

33.879315 -3.325982 0.000000 
0.000000 36.002801 0.000000 
0.000000 0.000000 0.000000 

21.460335 -1.149564 0.000000 
0.000000 22.523019 0.000000 
0.000000 0.000000 0.000000 

7.305014 -1.119770 0.000000 
0.000000 7.235799 0.000000 
0.000000 0.000000 0.000000 

-29.690377 -4.655681 0.000000 
0.000000 -34.334522 0.000000 
0.000000 0.000000 0.000000 

4.708039 -3.940141 0.000000 
0.000000 3.933530 0.000000 
0.000000 0.000000 0.000000 

-15.652392 -2.542110 0.000000 
0.000000 -17.771990 0.000000 
0.000000 0.000000 0.000000 

-16.305074 -1.493997 0.000000 
0.000000 -18.148371 0.000000 
0.000000 0.000000 0.000000 

-4.889728 -0.557181 0.000000 
0.000000 -7.576217 0.000000 
0.000000 0.000000 0.000000 

11.331060 8.852520 0.000000 
0.000000 -3.876360 0.000000 
0.000000 0.000000 0.000000 

-21.015136 4.901882 0.000000 
0.000000 -29.237917 0.000000 
0.000000 0.000000 0.000000 

27.004981 14.124423 0.000000 
0.000000 14.457188 0.000000 
0.000000 0.000000 0.000000 

9.510769 2.267075 0.000000 
0.000000 1.349762 0.000000 
0.000000 0.000000 0.000000 

17.484463 2.918370 0.000000 
0.000000 11.281378 0.000000 
0.000000 0.000000 0.000000 

-2.380579 1.680854 0.000000 
0.000000 -6.697244 0.000000 
0.000000 0.000000 0.000000 

-3.488114 1.979108 0.000000 
0.000000 -6.787568 0.000000 
0.000000 0.000000 0.000000 

-0.462381 0.002781 0.000000 
0.000000 -0.509349 0.000000 
0.000000 0.000000 0.000000 

-82.577443 7.925494 0.000000 
0.000000 -96.184322 0.000000 
0.000000 0.000000 0.000000 

-33.271835 11.920032 0.000000 
0.000000 -46.075276 0.000000 
0.000000 0.000000 0.000000 

7.468601 15.677248 0.000000 
0.000000 -4.794145 0.000000 
0.000000 0.000000 0.000000 

14.234696 19.555894 0.000000 
0.000000 -0.571974 0.000000 
0.000000 0.000000 0.000000 

-16.583586 12.698844 0.000000 
0.000000 -29.341970 0.000000 
0.000000 0.000000 0.000000 

-37.850611 6.445149 0.000000 
0.000000 -40.205574 0.000000 
0.000000 0.000000 0.000000 

-6.784051 4.610996 0.000000 
0.000000 -8.803627 0.000000 
0.000000 0.000000 0.000000 

4.117459 3.700354 0.000000 
0.000000 2.226977 0.000000 
0.000000 0.000000 0.000000 

-3.397354 -0.000000 0.000000 
0.000000 -1.730121 0.000000 
0.000000 0.000000 0.000000 

27.386541 -0.356512 0.000000 
0.000000 29.820989 0.000000 
0.000000 0.000000 0.000000 

38.263279 -0.000000 0.000000 
0.000000 42.248576 0.000000 
0.000000 0.000000 0.000000 

27.386541 0.356512 0.000000 
0.000000 29.820988 0.000000 
0.000000 0.000000 0.000000 

-41.578580 4.120155 0.000000 
0.000000 -49.048098 0.000000 
0.000000 0.000000 0.000000 

-34.786831 0.221345 0.000000 
0.000000 -38.180498 0.000000 
0.000000 0.000000 0.000000 

-48.473111 -0.000000 0.000000 
0.000000 -53.106270 0.000000 
0.000000 0.000000 0.000000 

-34.786831 -0.221345 0.000000 
0.000000 -38.180499 0.000000 
0.000000 0.000000 0.000000 

-41.578580 -4.120155 0.000000 
0.000000 -49.048098 0.000000 
0.000000 0.000000 0.000000 

59.941268 -6.055094 0.000000 
0.000000 33.544739 0.000000 
0.000000 0.000000 0.000000 

19.771083 -0.037267 0.000000 
0.000000 -3.204212 0.000000 
0.000000 0.000000 0.000000 

-287.570812 -2.743702 0.000000 
0.000000 -322.385984 0.000000 
0.000000 0.000000 0.000000 

-48.719586 -0.000000 0.000000 
0.000000 -61.310078 0.000000 
0.000000 0.000000 0.000000 

-287.570810 2.743702 0.000000 
0.000000 -322.385982 0.000000 
0.000000 0.000000 0.000000 

19.771083 0.037267 0.000000 
0.000000 -3.204213 0.000000 
0.000000 0.000000 0.000000 

59.941268 6.055094 0.000000 
0.000000 33.544739 0.000000 
0.000000 0.000000 0.000000 

-0.000021 -0.000000 0.000000 
0.000000 -0.000023 0.000000 
0.000000 0.000000 0.000000 

-0.134603 -0.000222 0.000000 
0.000000 -0.148854 0.000000 
0.000000 0.000000 0.000000 

-0.000000 0.000000 0.000000 
0.000000 -0.000000 0.000000 
0.000000 0.000000 0.000000 

-0.000058 -0.000000 0.000000 
0.000000 -0.000063 0.000000 
0.000000 0.000000 0.000000 

-0.000000 0.000000 0.000000 
0.000000 -0.000000 0.000000 
0.000000 0.000000 0.000000 

-0.000058 0.000000 0.000000 
0.000000 -0.000063 0.000000 
0.000000 0.000000 0.000000 

-0.000000 -0.000000 0.000000 
0.000000 -0.000000 0.000000 
0.000000 0.000000 0.000000 

-0.134603 0.000222 0.000000 
0.000000 -0.148854 0.000000 
0.000000 0.000000 0.000000 

-0.000021 0.000000 0.000000 
0.000000 -0.000023 0.000000 
0.000000 0.000000 0.000000 

-1.914806 0.110174 0.000000 
0.000000 -0.148799 0.000000 
0.000000 0.000000 0.000000 

7.305013 1.119770 0.000000 
0.000000 7.235799 0.000000 
0.000000 0.000000 0.000000 

21.460335 1.149564 0.000000 
0.000000 22.523019 0.000000 
0.000000 0.000000 0.000000 

33.879315 3.325982 0.000000 
0.000000 36.002801 0.000000 
0.000000 0.000000 0.000000 

-4.889728 0.557181 0.000000 
0.000000 -7.576217 0.000000 
0.000000 0.000000 0.000000 

-16.305074 1.493997 0.000000 
0.000000 -18.148371 0.000000 
0.000000 0.000000 0.000000 

-15.652392 2.542110 0.000000 
0.000000 -17.771991 0.000000 
0.000000 0.000000 0.000000 

4.708039 3.940142 0.000000 
0.000000 3.933530 0.000000 
0.000000 0.000000 0.000000 

-29.690378 4.655681 0.000000 
0.000000 -34.334523 0.000000 
0.000000 0.000000 0.000000 

-3.488114 -1.979108 0.000000 
0.000000 -6.787568 0.000000 
0.000000 0.000000 0.000000 

-2.380579 -1.680854 0.000000 
0.000000 -6.697244 0.000000 
0.000000 0.000000 0.000000 

17.484462 -2.918370 0.000000 
0.000000 11.281378 0.000000 
0.000000 0.000000 0.000000 

9.510769 -2.267075 0.000000 
0.000000 1.349762 0.000000 
0.000000 0.000000 0.000000 

27.004980 -14.124422 0.000000 
0.000000 14.457188 0.000000 
0.000000 0.000000 0.000000 

-21.015136 -4.901882 0.000000 
0.000000 -29.237918 0.000000 
0.000000 0.000000 0.000000 

11.331060 -8.852520 0.000000 
0.000000 -3.876360 0.000000 
0.000000 0.000000 0.000000 

4.117459 -3.700354 0.000000 
0.000000 2.226977 0.000000 
0.000000 0.000000 0.000000 

-6.784051 -4.610996 0.000000 
0.000000 -8.803627 0.000000 
0.000000 0.000000 0.000000 

-37.850611 -6.445149 0.000000 
0.000000 -40.205573 0.000000 
0.000000 0.000000 0.000000 

-16.583586 -12.698844 0.000000 
0.000000 -29.341970 0.000000 
0.000000 0.000000 0.000000 

14.234696 -19.555894 0.000000 
0.000000 -0.571974 0.000000 
0.000000 0.000000 0.000000 

7.468601 -15.677248 0.000000 
0.000000 -4.794145 0.000000 
0.000000 0.000000 0.000000 

-33.271835 -11.920032 0.000000 
0.000000 -46.075276 0.000000 
0.000000 0.000000 0.000000 

-82.577443 -7.925494 0.000000 
0.000000 -96.184322 0.000000 
0.000000 0.000000 0.000000 

-0.462381 -0.002781 0.000000 
0.000000 -0.509349 0.000000 
0.000000 0.000000 0.000000 

-1.186334 0.121383 0.000000 
0.000000 0.362481 0.000000 
0.000000 0.000000 0.000000 

4.174178 0.870923 0.000000 
0.000000 4.546866 0.000000 
0.000000 0.000000 0.000000 

8.103358 1.151191 0.000000 
0.000000 8.428213 0.000000 
0.000000 0.000000 0.000000 

6.116208 1.234024 0.000000 
0.000000 6.153817 0.000000 
0.000000 0.000000 0.000000 

-1.694997 0.632989 0.000000 
0.000000 -1.656545 0.000000 
0.000000 0.000000 0.000000 

-0.698655 0.794942 0.000000 
0.000000 -0.642361 0.000000 
0.000000 0.000000 0.000000 

3.542485 0.458809 0.000000 
0.000000 2.852378 0.000000 
0.000000 0.000000 0.000000 

-0.409693 0.994331 0.000000 
0.000000 -0.858158 0.000000 
0.000000 0.000000 0.000000 

5.250898 1.010076 0.000000 
0.000000 3.955811 0.000000 
0.000000 0.000000 0.000000 

-0.626237 0.305329 0.000000 
0.000000 -1.063672 0.000000 
0.000000 0.000000 0.000000 

1.019537 0.459789 0.000000 
0.000000 0.492305 0.000000 
0.000000 0.000000 0.000000 

0.299572 0.406609 0.000000 
0.000000 -0.403546 0.000000 
0.000000 0.000000 0.000000 

-0.186196 0.363932 0.000000 
0.000000 -1.183954 0.000000 
0.000000 0.000000 0.000000 

-4.228968 0.247688 0.000000 
0.000000 -5.647662 0.000000 
0.000000 0.000000 0.000000 

-0.826654 0.598483 0.000000 
0.000000 -2.481666 0.000000 
0.000000 0.000000 0.000000 

-0.912753 0.678920 0.000000 
0.000000 -2.900135 0.000000 
0.000000 0.000000 0.000000 

0.000794 0.186918 0.000000 
0.000000 -0.209083 0.000000 
0.000000 0.000000 0.000000 

-1.468087 0.170654 0.000000 
0.000000 -1.921308 0.000000 
0.000000 0.000000 0.000000 

-1.534626 0.009331 0.000000 
0.000000 -2.362908 0.000000 
0.000000 0.000000 0.000000 

-0.002280 0.088832 0.000000 
0.000000 -0.992467 0.000000 
0.000000 0.000000 0.000000 

0.539024 0.012137 0.000000 
0.000000 -0.551740 0.000000 
0.000000 0.000000 0.000000 

-2.449349 -0.500909 0.000000 
0.000000 -4.455997 0.000000 
0.000000 0.000000 0.000000 

-0.985124 -0.950918 0.000000 
0.000000 -3.451689 0.000000 
0.000000 0.000000 0.000000 

5.399278 -0.624301 0.000000 
0.000000 2.405389 0.000000 
0.000000 0.000000 0.000000 

22.574160 -0.938286 0.000000 
0.000000 20.386542 0.000000 
0.000000 0.000000 0.000000 

-1.239669 0.105415 0.000000 
0.000000 0.033403 0.000000 
0.000000 0.000000 0.000000 

2.092039 0.105565 0.000000 
0.000000 2.914172 0.000000 
0.000000 0.000000 0.000000 

-0.208266 0.215898 0.000000 
0.000000 0.851803 0.000000 
0.000000 0.000000 0.000000 

3.760047 0.785043 0.000000 
0.000000 4.228621 0.000000 
0.000000 0.000000 0.000000 

0.778015 0.007438 0.000000 
0.000000 1.004966 0.000000 
0.000000 0.000000 0.000000 

2.484838 0.114172 0.000000 
0.000000 2.919002 0.000000 
0.000000 0.000000 0.000000 

0.360140 0.191961 0.000000 
0.000000 0.651889 0.000000 
0.000000 0.000000 0.000000 

2.071468 0.567389 0.000000 
0.000000 2.500830 0.000000 
0.000000 0.000000 0.000000 

-0.392081 0.490284 0.000000 
0.000000 -0.178166 0.000000 
0.000000 0.000000 0.000000 

0.615021 -0.000098 0.000000 
0.000000 0.785865 0.000000 
0.000000 0.000000 0.000000 

0.981069 0.014235 0.000000 
0.000000 1.196349 0.000000 
0.000000 0.000000 0.000000 

0.634076 0.092872 0.000000 
0.000000 0.806150 0.000000 
0.000000 0.000000 0.000000 

0.114805 0.154423 0.000000 
0.000000 0.317954 0.000000 
0.000000 0.000000 0.000000 

-0.225805 0.175498 0.000000 
0.000000 -0.072903 0.000000 
0.000000 0.000000 0.000000 

-0.903824 0.235232 0.000000 
0.000000 -0.719018 0.000000 
0.000000 0.000000 0.000000 

1.669310 0.310045 0.000000 
0.000000 1.566891 0.000000 
0.000000 0.000000 0.000000 

-0.096108 0.003601 0.000000 
0.000000 -0.003449 0.000000 
0.000000 0.000000 0.000000 

-0.164718 0.007361 0.000000 
0.000000 -0.065627 0.000000 
0.000000 0.000000 0.000000 

0.107187 0.041219 0.000000 
0.000000 0.166139 0.000000 
0.000000 0.000000 0.000000 

-0.040448 0.056464 0.000000 
0.000000 0.020239 0.000000 
0.000000 0.000000 0.000000 

-0.162715 0.058483 0.000000 
0.000000 -0.118170 0.000000 
0.000000 0.000000 0.000000 

0.026744 0.149395 0.000000 
0.000000 0.121833 0.000000 
0.000000 0.000000 0.000000 

0.152729 0.153747 0.000000 
0.000000 0.148826 0.000000 
0.000000 0.000000 0.000000 

0.543054 0.220717 0.000000 
0.000000 0.463000 0.000000 
0.000000 0.000000 0.000000 

-0.071491 0.171719 0.000000 
0.000000 -0.199319 0.000000 
0.000000 0.000000 0.000000 

TENSORS STRAIN float 
-0.002522 -0.000402 0.000000 
0.000000 0.002338 0.000000 
0.000000 0.000000 0.000000 

-0.000249 -0.002620 0.000000 
0.000000 0.001315 0.000000 
0.000000 0.000000 0.000000 

-0.001616 -0.000675 0.000000 
0.000000 0.001696 0.000000 
0.000000 0.000000 0.000000 

-0.001051 -0.000357 0.000000 
0.000000 0.001727 0.000000 
0.000000 0.000000 0.000000 

-0.000395 -0.001636 0.000000 
0.000000 0.000319 0.000000 
0.000000 0.000000 0.000000 

-0.000389 -0.001791 0.000000 
0.000000 0.000966 0.000000 
0.000000 0.000000 0.000000 

-0.000432 -0.000660 0.000000 
0.000000 0.000571 0.000000 
0.000000 0.000000 0.000000 

-0.000348 -0.000364 0.000000 
0.000000 0.001037 0.000000 
0.000000 0.000000 0.000000 

-0.000260 -0.000025 0.000000 
0.000000 0.000499 0.000000 
0.000000 0.000000 0.000000 

0.000385 -0.001029 0.000000 
0.000000 0.000045 0.000000 
0.000000 0.000000 0.000000 

-0.000407 -0.000766 0.000000 
0.000000 0.000195 0.000000 
0.000000 0.000000 0.000000 

-0.000280 -0.000597 0.000000 
0.000000 0.000240 0.000000 
0.000000 0.000000 0.000000 

-0.000300 -0.000498 0.000000 
0.000000 0.000355 0.000000 
0.000000 0.000000 0.000000 

-0.000194 -0.000315 0.000000 
0.000000 0.000389 0.000000 
0.000000 0.000000 0.000000 

-0.000207 -0.000046 0.000000 
0.000000 0.000489 0.000000 
0.000000 0.000000 0.000000 

-0.000191 0.000000 0.000000 
0.000000 0.000377 0.000000 
0.000000 0.000000 0.000000 

0.000194 -0.000570 0.000000 
0.000000 -0.000230 0.000000 
0.000000 0.000000 0.000000 

0.000194 -0.000712 0.000000 
0.000000 -0.000064 0.000000 
0.000000 0.000000 0.000000 

0.000026 -0.000509 0.000000 
0.000000 0.000014 0.000000 
0.000000 0.000000 0.000000 

-0.000142 -0.000477 0.000000 
0.000000 0.000161 0.000000 
0.000000 0.000000 0.000000 

-0.000092 -0.000194 0.000000 
0.000000 0.000055 0.000000 
0.000000 0.000000 0.000000 

-0.000098 -0.000180 0.000000 
0.000000 0.000096 0.000000 
0.000000 0.000000 0.000000 

-0.000080 -0.000137 0.000000 
0.000000 0.000116 0.000000 
0.000000 0.000000 0.000000 

-0.000175 -0.000024 0.000000 
0.000000 0.000145 0.000000 
0.000000 0.000000 0.000000 

-0.000160 -0.000012 0.000000 
0.000000 0.000147 0.000000 
0.000000 0.000000 0.000000 

-0.002941 -0.000451 0.000000 
0.000000 0.002819 0.000000 
0.000000 0.000000 0.000000 

0.000757 -0.004122 0.000000 
0.000000 0.000882 0.000000 
0.000000 0.000000 0.000000 

0.000509 -0.003483 0.000000 
0.000000 0.001492 0.000000 
0.000000 0.000000 0.000000 

-0.000040 -0.002910 0.000000 
0.000000 0.001205 0.000000 
0.000000 0.000000 0.000000 

0.002742 -0.003330 0.000000 
0.000000 -0.001528 0.000000 
0.000000 0.000000 0.000000 

0.000652 -0.003261 0.000000 
0.000000 -0.000819 0.000000 
0.000000 0.000000 0.000000 

0.001609 -0.001560 0.000000 
0.000000 -0.000739 0.000000 
0.000000 0.000000 0.000000 

-0.000176 -0.002539 0.000000 
0.000000 0.000004 0.000000 
0.000000 0.000000 0.000000 

-0.000290 -0.002126 0.000000 
0.000000 -0.000161 0.000000 
0.000000 0.000000 0.000000 

0.003082 -0.002281 0.000000 
0.000000 -0.003595 0.000000 
0.000000 0.000000 0.000000 

0.002515 -0.001977 0.000000 
0.000000 -0.002952 0.000000 
0.000000 0.000000 0.000000 

0.001790 -0.000866 0.000000 
0.000000 -0.003173 0.000000 
0.000000 0.000000 0.000000 

0.001525 -0.001177 0.000000 
0.000000 -0.001702 0.000000 
0.000000 0.000000 0.000000 

0.001195 -0.001390 0.000000 
0.000000 -0.001209 0.000000 
0.000000 0.000000 0.000000 

0.000954 -0.001493 0.000000 
0.000000 -0.000758 0.000000 
0.000000 0.000000 0.000000 

0.000620 -0.001024 0.000000 
0.000000 -0.000847 0.000000 
0.000000 0.000000 0.000000 

0.006192 0.002975 0.000000 
0.000000 -0.000744 0.000000 
0.000000 0.000000 0.000000 

0.005355 0.002022 0.000000 
0.000000 -0.004344 0.000000 
0.000000 0.000000 0.000000 

0.003867 0.003213 0.000000 
0.000000 -0.004466 0.000000 
0.000000 0.000000 0.000000 

0.002792 0.001617 0.000000 
0.000000 -0.003684 0.000000 
0.000000 0.000000 0.000000 

0.001814 -0.000040 0.000000 
0.000000 -0.001816 0.000000 
0.000000 0.000000 0.000000 

0.001527 -0.000285 0.000000 
0.000000 -0.001655 0.000000 
0.000000 0.000000 0.000000 

0.001129 -0.000031 0.000000 
0.000000 -0.001652 0.000000 
0.000000 0.000000 0.000000 

0.000516 -0.000554 0.000000 
0.000000 -0.000957 0.000000 
0.000000 0.000000 0.000000 

0.000334 -0.000620 0.000000 
0.000000 -0.000362 0.000000 
0.000000 0.000000 0.000000 

-0.003372 -0.000402 0.000000 
0.000000 0.003071 0.000000 
0.000000 0.000000 0.000000 

0.000943 -0.009339 0.000000 
0.000000 0.006906 0.000000 
0.000000 0.000000 0.000000 

0.000996 -0.003286 0.000000 
0.000000 0.004033 0.000000 
0.000000 0.000000 0.000000 

0.001083 -0.003727 0.000000 
0.000000 0.000853 0.000000 
0.000000 0.000000 0.000000 

0.003637 -0.016255 0.000000 
0.000000 -0.012578 0.000000 
0.000000 0.000000 0.000000 

0.001803 -0.012682 0.000000 
0.000000 -0.000690 0.000000 
0.000000 0.000000 0.000000 

0.001579 -0.010260 0.000000 
0.000000 -0.006976 0.000000 
0.000000 0.000000 0.000000 

0.000873 -0.005607 0.000000 
0.000000 -0.006045 0.000000 
0.000000 0.000000 0.000000 

0.003737 -0.001903 0.000000 
0.000000 -0.005440 0.000000 
0.000000 0.000000 0.000000 

0.024332 0.027783 0.000000 
0.000000 -0.023396 0.000000 
0.000000 0.000000 0.000000 

0.011312 0.017851 0.000000 
0.000000 -0.018632 0.000000 
0.000000 0.000000 0.000000 

0.019891 0.039553 0.000000 
0.000000 -0.015247 0.000000 
0.000000 0.000000 0.000000 

0.012506 0.006597 0.000000 
0.000000 -0.011242 0.000000 
0.000000 0.000000 0.000000 

0.011296 0.008966 0.000000 
0.000000 -0.007761 0.000000 
0.000000 0.000000 0.000000 

0.006655 0.005659 0.000000 
0.000000 -0.007877 0.000000 
0.000000 0.000000 0.000000 

0.005075 0.006955 0.000000 
0.000000 -0.006520 0.000000 
0.000000 0.000000 0.000000 

0.034554 0.023733 0.000000 
0.000000 -0.366264 0.000000 
0.000000 0.000000 0.000000 

0.022500 0.055239 0.000000 
0.000000 -0.072338 0.000000 
0.000000 0.000000 0.000000 

0.022560 0.055853 0.000000 
0.000000 -0.037432 0.000000 
0.000000 0.000000 0.000000 

0.021714 0.055039 0.000000 
0.000000 -0.021338 0.000000 
0.000000 0.000000 0.000000 

0.021440 0.054617 0.000000 
0.000000 -0.019913 0.000000 
0.000000 0.000000 0.000000 

0.016059 0.037345 0.000000 
0.000000 -0.021461 0.000000 
0.000000 0.000000 0.000000 

-0.001753 0.029446 0.000000 
0.000000 -0.012512 0.000000 
0.000000 0.000000 0.000000 

0.002654 0.017528 0.000000 
0.000000 -0.005024 0.000000 
0.000000 0.000000 0.000000 

0.003886 0.013411 0.000000 
0.000000 -0.002966 0.000000 
0.000000 0.000000 0.000000 

-0.003411 -0.000000 0.000000 
0.000000 0.002664 0.000000 
0.000000 0.000000 0.000000 

-0.000226 -0.001103 0.000000 
0.000000 0.007306 0.000000 
0.000000 0.000000 0.000000 

-0.000951 -0.000000 0.000000 
0.000000 0.008959 0.000000 
0.000000 0.000000 0.000000 

-0.000226 0.001103 0.000000 
0.000000 0.007306 0.000000 
0.000000 0.000000 0.000000 

0.007487 0.016047 0.000000 
0.000000 -0.021605 0.000000 
0.000000 0.000000 0.000000 

0.000878 0.000818 0.000000 
0.000000 -0.011669 0.000000 
0.000000 0.000000 0.000000 

0.001728 -0.000000 0.000000 
0.000000 -0.026361 0.000000 
0.000000 0.000000 0.000000 

0.000878 -0.000818 0.000000 
0.000000 -0.011669 0.000000 
0.000000 0.000000 0.000000 

0.007487 -0.016047 0.000000 
0.000000 -0.021605 0.000000 
0.000000 0.000000 0.000000 

0.031698 -0.012738 0.000000 
0.000000 -0.023832 0.000000 
0.000000 0.000000 0.000000 

0.025703 -0.000081 0.000000 
0.000000 -0.024262 0.000000 
0.000000 0.000000 0.000000 

0.017443 -0.009188 0.000000 
0.000000 -0.099150 0.000000 
0.000000 0.000000 0.000000 

0.011760 -0.000000 0.000000 
0.000000 -0.024401 0.000000 
0.000000 0.000000 0.000000 

0.017443 0.009188 0.000000 
0.000000 -0.099150 0.000000 
0.000000 0.000000 0.000000 

0.025703 0.000081 0.000000 
0.000000 -0.024262 0.000000 
0.000000 0.000000 0.000000 

0.031698 0.012738 0.000000 
0.000000 -0.023832 0.000000 
0.000000 0.000000 0.000000 

0.048081 -0.005468 0.000000 
0.000000 -0.538763 0.000000 
0.000000 0.000000 0.000000 

0.046479 -0.007094 0.000000 
0.000000 -0.408388 0.000000 
0.000000 0.000000 0.000000 

0.048628 0.000408 0.000000 
0.000000 -0.725479 0.000000 
0.000000 0.000000 0.000000 

0.033115 -0.010628 0.000000 
0.000000 -0.525533 0.000000 
0.000000 0.000000 0.000000 

0.038915 0.000000 0.000000 
0.000000 -0.783083 0.000000 
0.000000 0.000000 0.000000 

0.033115 0.010628 0.000000 
0.000000 -0.525533 0.000000 
0.000000 0.000000 0.000000 

0.048628 -0.000408 0.000000 
0.000000 -0.725479 0.000000 
0.000000 0.000000 0.000000 

0.046479 0.007094 0.000000 
0.000000 -0.408388 0.000000 
0.000000 0.000000 0.000000 

0.048081 0.005468 0.000000 
0.000000 -0.538763 0.000000 
0.000000 0.000000 0.000000 

-0.003372 0.000402 0.000000 
0.000000 0.003071 0.000000 
0.000000 0.000000 0.000000 

0.001083 0.003727 0.000000 
0.000000 0.000853 0.000000 
0.000000 0.000000 0.000000 

0.000996 0.003286 0.000000 
0.000000 0.004033 0.000000 
0.000000 0.000000 0.000000 

0.000943 0.009339 0.000000 
0.000000 0.006906 0.000000 
0.000000 0.000000 0.000000 

0.003737 0.001903 0.000000 
0.000000 -0.005440 0.000000 
0.000000 0.000000 0.000000 

0.000873 0.005607 0.000000 
0.000000 -0.006045 0.000000 
0.000000 0.000000 0.000000 

0.001579 0.010260 0.000000 
0.000000 -0.006976 0.000000 
0.000000 0.000000 0.000000 

0.001803 0.012682 0.000000 
0.000000 -0.000690 0.000000 
0.000000 0.000000 0.000000 

0.003637 0.016255 0.000000 
0.000000 -0.012578 0.000000 
0.000000 0.000000 0.000000 

0.005075 -0.006955 0.000000 
0.000000 -0.006520 0.000000 
0.000000 0.000000 0.000000 

0.006655 -0.005659 0.000000 
0.000000 -0.007877 0.000000 
0.000000 0.000000 0.000000 

0.011296 -0.008966 0.000000 
0.000000 -0.007761 0.000000 
0.000000 0.000000 0.000000 

0.012506 -0.006597 0.000000 
0.000000 -0.011242 0.000000 
0.000000 0.000000 0.000000 

0.019891 -0.039553 0.000000 
0.000000 -0.015247 0.000000 
0.000000 0.000000 0.000000 

0.011312 -0.017851 0.000000 
0.000000 -0.018632 0.000000 
0.000000 0.000000 0.000000 

0.024332 -0.027783 0.000000 
0.000000 -0.023396 0.000000 
0.000000 0.000000 0.000000 

0.003886 -0.013411 0.000000 
0.000000 -0.002966 0.000000 
0.000000 0.000000 0.000000 

0.002654 -0.017528 0.000000 
0.000000 -0.005024 0.000000 
0.000000 0.000000 0.000000 

-0.001753 -0.029446 0.000000 
0.000000 -0.012512 0.000000 
0.000000 0.000000 0.000000 

0.016059 -0.037345 0.000000 
0.000000 -0.021461 0.000000 
0.000000 0.000000 0.000000 

0.021440 -0.054617 0.000000 
0.000000 -0.019913 0.000000 
0.000000 0.000000 0.000000 

0.021714 -0.055039 0.000000 
0.000000 -0.021338 0.000000 
0.000000 0.000000 0.000000 

0.022560 -0.055853 0.000000 
0.000000 -0.037432 0.000000 
0.000000 0.000000 0.000000 

0.022500 -0.055239 0.000000 
0.000000 -0.072338 0.000000 
0.000000 0.000000 0.000000 

0.034554 -0.023733 0.000000 
0.000000 -0.366264 0.000000 
0.000000 0.000000 0.000000 

-0.002941 0.000451 0.000000 
0.000000 0.002819 0.000000 
0.000000 0.000000 0.000000 

-0.000040 0.002910 0.000000 
0.000000 0.001205 0.000000 
0.000000 0.000000 0.000000 

0.000509 0.003483 0.000000 
0.000000 0.001492 0.000000 
0.000000 0.000000 0.000000 

0.000757 0.004122 0.000000 
0.000000 0.000882 0.000000 
0.000000 0.000000 0.000000 

-0.000290 0.002126 0.000000 
0.000000 -0.000161 0.000000 
0.000000 0.000000 0.000000 

-0.000176 0.002539 0.000000 
0.000000 0.000004 0.000000 
0.000000 0.000000 0.000000 

0.001609 0.001560 0.000000 
0.000000 -0.000739 0.000000 
0.000000 0.000000 0.000000 

0.000652 0.003261 0.000000 
0.000000 -0.000819 0.000000 
0.000000 0.000000 0.000000 

0.002742 0.003330 0.000000 
0.000000 -0.001528 0.000000 
0.000000 0.000000 0.000000 

0.000620 0.001024 0.000000 
0.000000 -0.000847 0.000000 
0.000000 0.000000 0.000000 

0.000954 0.001493 0.000000 
0.000000 -0.000758 0.000000 
0.000000 0.000000 0.000000 

0.001195 0.001390 0.000000 
0.000000 -0.001209 0.000000 
0.000000 0.000000 0.000000 

0.001525 0.001177 0.000000 
0.000000 -0.001702 0.000000 
0.000000 0.000000 0.000000 

0.001790 0.000866 0.000000 
0.000000 -0.003173 0.000000 
0.000000 0.000000 0.000000 

0.002515 0.001977 0.000000 
0.000000 -0.002952 0.000000 
0.000000 0.000000 0.000000 

0.003082 0.002281 0.000000 
0.000000 -0.003595 0.000000 
0.000000 0.000000 0.000000 

0.000334 0.000620 0.000000 
0.000000 -0.000362 0.000000 
0.000000 0.000000 0.000000 

0.000516 0.000554 0.000000 
0.000000 -0.000957 0.000000 
0.000000 0.000000 0.000000 

0.001129 0.000031 0.000000 
0.000000 -0.001652 0.000000 
0.000000 0.000000 0.000000 

0.001527 0.000285 0.000000 
0.000000 -0.001655 0.000000 
0.000000 0.000000 0.000000 

0.001814 0.000040 0.000000 
0.000000 -0.001816 0.000000 
0.000000 0.000000 0.000000 

0.002792 -0.001617 0.000000 
0.000000 -0.003684 0.000000 
0.000000 0.000000 0.000000 

0.003867 -0.003213 0.000000 
0.000000 -0.004466 0.000000 
0.000000 0.000000 0.000000 

0.005355 -0.002022 0.000000 
0.000000 -0.004344 0.000000 
0.000000 0.000000 0.000000 

0.006192 -0.002975 0.000000 
0.000000 -0.000744 0.000000 
0.000000 0.000000 0.000000 

-0.002522 0.000402 0.000000 
0.000000 0.002338 0.000000 
0.000000 0.000000 0.000000 

-0.001051 0.000357 0.000000 
0.000000 0.001727 0.000000 
0.000000 0.000000 0.000000 

-0.001616 0.000675 0.000000 
0.000000 0.001696 0.000000 
0.000000 0.000000 0.000000 

-0.000249 0.002620 0.000000 
0.000000 0.001315 0.000000 
0.000000 0.000000 0.000000 

-0.000260 0.000025 0.000000 
0.000000 0.000499 0.000000 
0.000000 0.000000 0.000000 

-0.000348 0.000364 0.000000 
0.000000 0.001037 0.000000 
0.000000 0.000000 0.000000 

-0.000432 0.000660 0.000000 
0.000000 0.000571 0.000000 
0.000000 0.000000 0.000000 

-0.000389 0.001791 0.000000 
0.000000 0.000966 0.000000 
0.000000 0.000000 0.000000 

-0.000395 0.001636 0.000000 
0.000000 0.000319 0.000000 
0.000000 0.000000 0.000000 

-0.000191 -0.000000 0.000000 
0.000000 0.000377 0.000000 
0.000000 0.000000 0.000000 

-0.000207 0.000046 0.000000 
0.000000 0.000489 0.000000 
0.000000 0.000000 0.000000 

-0.000194 0.000315 0.000000 
0.000000 0.000389 0.000000 
0.000000 0.000000 0.000000 

-0.000300 0.000498 0.000000 
0.000000 0.000355 0.000000 
0.000000 0.000000 0.000000 

-0.000280 0.000597 0.000000 
0.000000 0.000240 0.000000 
0.000000 0.000000 0.000000 

-0.000407 0.000766 0.000000 
0.000000 0.000195 0.000000 
0.000000 0.000000 0.000000 

0.000385 0.001029 0.000000 
0.000000 0.000045 0.000000 
0.000000 0.000000 0.000000 

-0.000160 0.000012 0.000000 
0.000000 0.000147 0.000000 
0.000000 0.000000 0.000000 

-0.000175 0.000024 0.000000 
0.000000 0.000145 0.000000 
0.000000 0.000000 0.000000 

-0.000080 0.000137 0.000000 
0.000000 0.000116 0.000000 
0.000000 0.000000 0.000000 

-0.000098 0.000180 0.000000 
0.000000 0.000096 0.000000 
0.000000 0.000000 0.000000 

-0.000092 0.000194 0.000000 
0.000000 0.000055 0.000000 
0.000000 0.000000 0.000000 

-0.000142 0.000477 0.000000 
0.000000 0.000161 0.000000 
0.000000 0.000000 0.000000 

0.000026 0.000509 0.000000 
0.000000 0.000014 0.000000 
0.000000 0.000000 0.000000 

0.000194 0.000712 0.000000 
0.000000 -0.000064 0.000000 
0.000000 0.000000 0.000000 

0.000194 0.000570 0.000000 
0.000000 -0.000230 0.000000 
0.000000 0.000000 0.000000 

