# vtk DataFile Version 3.0 
vtk output 
ASCII 
DATASET UNSTRUCTURED_GRID 
POINTS 175 float 
-0.026061 -1.181471 0.000000 
-0.106992 -1.113415 0.000000 
-0.054870 -1.121648 0.000000 
-0.028809 -1.075764 0.000000 
-0.186430 -1.049340 0.000000 
-0.137056 -1.051866 0.000000 
-0.114311 -0.998219 0.000000 
-0.058186 -1.013884 0.000000 
-0.029377 -0.973707 0.000000 
-0.265318 -0.986184 0.000000 
-0.217198 -0.986984 0.000000 
-0.196633 -0.929687 0.000000 
-0.143120 -0.938396 0.000000 
-0.116563 -0.891127 0.000000 
-0.058945 -0.910773 0.000000 
-0.029568 -0.872653 0.000000 
-0.344206 -0.923028 0.000000 
-0.296791 -0.923021 0.000000 
-0.278030 -0.863078 0.000000 
-0.225992 -0.868945 0.000000 
-0.201664 -0.816828 0.000000 
-0.145749 -0.830302 0.000000 
-0.117890 -0.785959 0.000000 
-0.059328 -0.808665 0.000000 
-0.029759 -0.771599 0.000000 
-0.058559 -1.222222 0.000000 
-0.162226 -1.243064 0.000000 
-0.123292 -1.207447 0.000000 
-0.142917 -1.158463 0.000000 
-0.261851 -1.265221 0.000000 
-0.229092 -1.228193 0.000000 
-0.256854 -1.176962 0.000000 
-0.209613 -1.142849 0.000000 
-0.223062 -1.095275 0.000000 
-0.360414 -1.287521 0.000000 
-0.329787 -1.250398 0.000000 
-0.361761 -1.198596 0.000000 
-0.321587 -1.162187 0.000000 
-0.341985 -1.111953 0.000000 
-0.290702 -1.079154 0.000000 
-0.302189 -1.032419 0.000000 
-0.458977 -1.309821 0.000000 
-0.429420 -1.272746 0.000000 
-0.464588 -1.220704 0.000000 
-0.427556 -1.183677 0.000000 
-0.453135 -1.132162 0.000000 
-0.407738 -1.096847 0.000000 
-0.425037 -1.047419 0.000000 
-0.370772 -1.015790 0.000000 
-0.381315 -0.969562 0.000000 
-0.046960 -1.273037 0.000000 
-0.095301 -1.367083 0.000000 
-0.098873 -1.314435 0.000000 
-0.149405 -1.299238 0.000000 
-0.140093 -1.458787 0.000000 
-0.148617 -1.410088 0.000000 
-0.205981 -1.399851 0.000000 
-0.203197 -1.341648 0.000000 
-0.248777 -1.322501 0.000000 
-0.184111 -1.549750 0.000000 
-0.194039 -1.502659 0.000000 
-0.254475 -1.495360 0.000000 
-0.257893 -1.441250 0.000000 
-0.309886 -1.425878 0.000000 
-0.303554 -1.365332 0.000000 
-0.347255 -1.345174 0.000000 
-0.228129 -1.640714 0.000000 
-0.238687 -1.594490 0.000000 
-0.301302 -1.589538 0.000000 
-0.307162 -1.537499 0.000000 
-0.363386 -1.525378 0.000000 
-0.362692 -1.467866 0.000000 
-0.412122 -1.450573 0.000000 
-0.403017 -1.388427 0.000000 
-0.445733 -1.367848 0.000000 
-0.000000 -1.295652 0.000000 
0.043388 -1.392082 0.000000 
-0.000000 -1.362050 0.000000 
-0.043388 -1.392082 0.000000 
0.087158 -1.484279 0.000000 
0.043769 -1.460580 0.000000 
-0.000000 -1.499046 0.000000 
-0.043769 -1.460580 0.000000 
-0.087158 -1.484279 0.000000 
0.130831 -1.575409 0.000000 
0.087824 -1.553810 0.000000 
0.044436 -1.596510 0.000000 
-0.000000 -1.565444 0.000000 
-0.044436 -1.596510 0.000000 
-0.087824 -1.553810 0.000000 
-0.130831 -1.575409 0.000000 
0.174505 -1.666538 0.000000 
0.131782 -1.645972 0.000000 
0.088871 -1.691839 0.000000 
0.044532 -1.663975 0.000000 
-0.000000 -1.700375 0.000000 
-0.044532 -1.663975 0.000000 
-0.088871 -1.691839 0.000000 
-0.131782 -1.645972 0.000000 
-0.174505 -1.666538 0.000000 
0.046960 -1.273037 0.000000 
0.149405 -1.299238 0.000000 
0.098873 -1.314435 0.000000 
0.095301 -1.367083 0.000000 
0.248777 -1.322501 0.000000 
0.203197 -1.341648 0.000000 
0.205981 -1.399851 0.000000 
0.148617 -1.410088 0.000000 
0.140093 -1.458787 0.000000 
0.347255 -1.345174 0.000000 
0.303554 -1.365332 0.000000 
0.309886 -1.425878 0.000000 
0.257893 -1.441250 0.000000 
0.254475 -1.495360 0.000000 
0.194039 -1.502659 0.000000 
0.184111 -1.549750 0.000000 
0.445733 -1.367848 0.000000 
0.403017 -1.388427 0.000000 
0.412122 -1.450573 0.000000 
0.362692 -1.467866 0.000000 
0.363386 -1.525378 0.000000 
0.307162 -1.537499 0.000000 
0.301302 -1.589538 0.000000 
0.238687 -1.594490 0.000000 
0.228129 -1.640714 0.000000 
0.058559 -1.222222 0.000000 
0.142917 -1.158463 0.000000 
0.123292 -1.207447 0.000000 
0.162226 -1.243064 0.000000 
0.223062 -1.095275 0.000000 
0.209613 -1.142849 0.000000 
0.256854 -1.176962 0.000000 
0.229092 -1.228193 0.000000 
0.261851 -1.265221 0.000000 
0.302189 -1.032419 0.000000 
0.290702 -1.079154 0.000000 
0.341985 -1.111953 0.000000 
0.321587 -1.162187 0.000000 
0.361761 -1.198596 0.000000 
0.329787 -1.250398 0.000000 
0.360414 -1.287521 0.000000 
0.381315 -0.969562 0.000000 
0.370772 -1.015790 0.000000 
0.425037 -1.047419 0.000000 
0.407738 -1.096847 0.000000 
0.453135 -1.132162 0.000000 
0.427556 -1.183677 0.000000 
0.464588 -1.220704 0.000000 
0.429420 -1.272746 0.000000 
0.458977 -1.309821 0.000000 
0.026061 -1.181471 0.000000 
0.028809 -1.075764 0.000000 
0.054870 -1.121648 0.000000 
0.106992 -1.113415 0.000000 
0.029377 -0.973707 0.000000 
0.058186 -1.013884 0.000000 
0.114311 -0.998219 0.000000 
0.137056 -1.051866 0.000000 
0.186430 -1.049340 0.000000 
0.029568 -0.872653 0.000000 
0.058945 -0.910773 0.000000 
0.116563 -0.891127 0.000000 
0.143120 -0.938396 0.000000 
0.196633 -0.929687 0.000000 
0.217198 -0.986984 0.000000 
0.265318 -0.986184 0.000000 
0.029759 -0.771599 0.000000 
0.059328 -0.808665 0.000000 
0.117890 -0.785959 0.000000 
0.145749 -0.830302 0.000000 
0.201664 -0.816828 0.000000 
0.225992 -0.868945 0.000000 
0.278030 -0.863078 0.000000 
0.296791 -0.923021 0.000000 
0.344206 -0.923028 0.000000 
CELLS 175 350 
1 0 
1 1 
1 2 
1 3 
1 4 
1 5 
1 6 
1 7 
1 8 
1 9 
1 10 
1 11 
1 12 
1 13 
1 14 
1 15 
1 16 
1 17 
1 18 
1 19 
1 20 
1 21 
1 22 
1 23 
1 24 
1 25 
1 26 
1 27 
1 28 
1 29 
1 30 
1 31 
1 32 
1 33 
1 34 
1 35 
1 36 
1 37 
1 38 
1 39 
1 40 
1 41 
1 42 
1 43 
1 44 
1 45 
1 46 
1 47 
1 48 
1 49 
1 50 
1 51 
1 52 
1 53 
1 54 
1 55 
1 56 
1 57 
1 58 
1 59 
1 60 
1 61 
1 62 
1 63 
1 64 
1 65 
1 66 
1 67 
1 68 
1 69 
1 70 
1 71 
1 72 
1 73 
1 74 
1 75 
1 76 
1 77 
1 78 
1 79 
1 80 
1 81 
1 82 
1 83 
1 84 
1 85 
1 86 
1 87 
1 88 
1 89 
1 90 
1 91 
1 92 
1 93 
1 94 
1 95 
1 96 
1 97 
1 98 
1 99 
1 100 
1 101 
1 102 
1 103 
1 104 
1 105 
1 106 
1 107 
1 108 
1 109 
1 110 
1 111 
1 112 
1 113 
1 114 
1 115 
1 116 
1 117 
1 118 
1 119 
1 120 
1 121 
1 122 
1 123 
1 124 
1 125 
1 126 
1 127 
1 128 
1 129 
1 130 
1 131 
1 132 
1 133 
1 134 
1 135 
1 136 
1 137 
1 138 
1 139 
1 140 
1 141 
1 142 
1 143 
1 144 
1 145 
1 146 
1 147 
1 148 
1 149 
1 150 
1 151 
1 152 
1 153 
1 154 
1 155 
1 156 
1 157 
1 158 
1 159 
1 160 
1 161 
1 162 
1 163 
1 164 
1 165 
1 166 
1 167 
1 168 
1 169 
1 170 
1 171 
1 172 
1 173 
1 174 
CELL_TYPES 175 
1 
1 
1 
1 
1 
1 
1 
1 
1 
1 
1 
1 
1 
1 
1 
1 
1 
1 
1 
1 
1 
1 
1 
1 
1 
1 
1 
1 
1 
1 
1 
1 
1 
1 
1 
1 
1 
1 
1 
1 
1 
1 
1 
1 
1 
1 
1 
1 
1 
1 
1 
1 
1 
1 
1 
1 
1 
1 
1 
1 
1 
1 
1 
1 
1 
1 
1 
1 
1 
1 
1 
1 
1 
1 
1 
1 
1 
1 
1 
1 
1 
1 
1 
1 
1 
1 
1 
1 
1 
1 
1 
1 
1 
1 
1 
1 
1 
1 
1 
1 
1 
1 
1 
1 
1 
1 
1 
1 
1 
1 
1 
1 
1 
1 
1 
1 
1 
1 
1 
1 
1 
1 
1 
1 
1 
1 
1 
1 
1 
1 
1 
1 
1 
1 
1 
1 
1 
1 
1 
1 
1 
1 
1 
1 
1 
1 
1 
1 
1 
1 
1 
1 
1 
1 
1 
1 
1 
1 
1 
1 
1 
1 
1 
1 
1 
1 
1 
1 
1 
1 
1 
1 
1 
1 
1 
POINT_DATA 175 
VECTORS X_GC float 
-0.026061 -1.181471 0.000000 
-0.106992 -1.113415 0.000000 
-0.054870 -1.121648 0.000000 
-0.028809 -1.075764 0.000000 
-0.186430 -1.049340 0.000000 
-0.137056 -1.051866 0.000000 
-0.114311 -0.998219 0.000000 
-0.058186 -1.013884 0.000000 
-0.029377 -0.973707 0.000000 
-0.265318 -0.986184 0.000000 
-0.217198 -0.986984 0.000000 
-0.196633 -0.929687 0.000000 
-0.143120 -0.938396 0.000000 
-0.116563 -0.891127 0.000000 
-0.058945 -0.910773 0.000000 
-0.029568 -0.872653 0.000000 
-0.344206 -0.923028 0.000000 
-0.296791 -0.923021 0.000000 
-0.278030 -0.863078 0.000000 
-0.225992 -0.868945 0.000000 
-0.201664 -0.816828 0.000000 
-0.145749 -0.830302 0.000000 
-0.117890 -0.785959 0.000000 
-0.059328 -0.808665 0.000000 
-0.029759 -0.771599 0.000000 
-0.058559 -1.222222 0.000000 
-0.162226 -1.243064 0.000000 
-0.123292 -1.207447 0.000000 
-0.142917 -1.158463 0.000000 
-0.261851 -1.265221 0.000000 
-0.229092 -1.228193 0.000000 
-0.256854 -1.176962 0.000000 
-0.209613 -1.142849 0.000000 
-0.223062 -1.095275 0.000000 
-0.360414 -1.287521 0.000000 
-0.329787 -1.250398 0.000000 
-0.361761 -1.198596 0.000000 
-0.321587 -1.162187 0.000000 
-0.341985 -1.111953 0.000000 
-0.290702 -1.079154 0.000000 
-0.302189 -1.032419 0.000000 
-0.458977 -1.309821 0.000000 
-0.429420 -1.272746 0.000000 
-0.464588 -1.220704 0.000000 
-0.427556 -1.183677 0.000000 
-0.453135 -1.132162 0.000000 
-0.407738 -1.096847 0.000000 
-0.425037 -1.047419 0.000000 
-0.370772 -1.015790 0.000000 
-0.381315 -0.969562 0.000000 
-0.046960 -1.273037 0.000000 
-0.095301 -1.367083 0.000000 
-0.098873 -1.314435 0.000000 
-0.149405 -1.299238 0.000000 
-0.140093 -1.458787 0.000000 
-0.148617 -1.410088 0.000000 
-0.205981 -1.399851 0.000000 
-0.203197 -1.341648 0.000000 
-0.248777 -1.322501 0.000000 
-0.184111 -1.549750 0.000000 
-0.194039 -1.502659 0.000000 
-0.254475 -1.495360 0.000000 
-0.257893 -1.441250 0.000000 
-0.309886 -1.425878 0.000000 
-0.303554 -1.365332 0.000000 
-0.347255 -1.345174 0.000000 
-0.228129 -1.640714 0.000000 
-0.238687 -1.594490 0.000000 
-0.301302 -1.589538 0.000000 
-0.307162 -1.537499 0.000000 
-0.363386 -1.525378 0.000000 
-0.362692 -1.467866 0.000000 
-0.412122 -1.450573 0.000000 
-0.403017 -1.388427 0.000000 
-0.445733 -1.367848 0.000000 
-0.000000 -1.295652 0.000000 
0.043388 -1.392082 0.000000 
-0.000000 -1.362050 0.000000 
-0.043388 -1.392082 0.000000 
0.087158 -1.484279 0.000000 
0.043769 -1.460580 0.000000 
-0.000000 -1.499046 0.000000 
-0.043769 -1.460580 0.000000 
-0.087158 -1.484279 0.000000 
0.130831 -1.575409 0.000000 
0.087824 -1.553810 0.000000 
0.044436 -1.596510 0.000000 
-0.000000 -1.565444 0.000000 
-0.044436 -1.596510 0.000000 
-0.087824 -1.553810 0.000000 
-0.130831 -1.575409 0.000000 
0.174505 -1.666538 0.000000 
0.131782 -1.645972 0.000000 
0.088871 -1.691839 0.000000 
0.044532 -1.663975 0.000000 
-0.000000 -1.700375 0.000000 
-0.044532 -1.663975 0.000000 
-0.088871 -1.691839 0.000000 
-0.131782 -1.645972 0.000000 
-0.174505 -1.666538 0.000000 
0.046960 -1.273037 0.000000 
0.149405 -1.299238 0.000000 
0.098873 -1.314435 0.000000 
0.095301 -1.367083 0.000000 
0.248777 -1.322501 0.000000 
0.203197 -1.341648 0.000000 
0.205981 -1.399851 0.000000 
0.148617 -1.410088 0.000000 
0.140093 -1.458787 0.000000 
0.347255 -1.345174 0.000000 
0.303554 -1.365332 0.000000 
0.309886 -1.425878 0.000000 
0.257893 -1.441250 0.000000 
0.254475 -1.495360 0.000000 
0.194039 -1.502659 0.000000 
0.184111 -1.549750 0.000000 
0.445733 -1.367848 0.000000 
0.403017 -1.388427 0.000000 
0.412122 -1.450573 0.000000 
0.362692 -1.467866 0.000000 
0.363386 -1.525378 0.000000 
0.307162 -1.537499 0.000000 
0.301302 -1.589538 0.000000 
0.238687 -1.594490 0.000000 
0.228129 -1.640714 0.000000 
0.058559 -1.222222 0.000000 
0.142917 -1.158463 0.000000 
0.123292 -1.207447 0.000000 
0.162226 -1.243064 0.000000 
0.223062 -1.095275 0.000000 
0.209613 -1.142849 0.000000 
0.256854 -1.176962 0.000000 
0.229092 -1.228193 0.000000 
0.261851 -1.265221 0.000000 
0.302189 -1.032419 0.000000 
0.290702 -1.079154 0.000000 
0.341985 -1.111953 0.000000 
0.321587 -1.162187 0.000000 
0.361761 -1.198596 0.000000 
0.329787 -1.250398 0.000000 
0.360414 -1.287521 0.000000 
0.381315 -0.969562 0.000000 
0.370772 -1.015790 0.000000 
0.425037 -1.047419 0.000000 
0.407738 -1.096847 0.000000 
0.453135 -1.132162 0.000000 
0.427556 -1.183677 0.000000 
0.464588 -1.220704 0.000000 
0.429420 -1.272746 0.000000 
0.458977 -1.309821 0.000000 
0.026061 -1.181471 0.000000 
0.028809 -1.075764 0.000000 
0.054870 -1.121648 0.000000 
0.106992 -1.113415 0.000000 
0.029377 -0.973707 0.000000 
0.058186 -1.013884 0.000000 
0.114311 -0.998219 0.000000 
0.137056 -1.051866 0.000000 
0.186430 -1.049340 0.000000 
0.029568 -0.872653 0.000000 
0.058945 -0.910773 0.000000 
0.116563 -0.891127 0.000000 
0.143120 -0.938396 0.000000 
0.196633 -0.929687 0.000000 
0.217198 -0.986984 0.000000 
0.265318 -0.986184 0.000000 
0.029759 -0.771599 0.000000 
0.059328 -0.808665 0.000000 
0.117890 -0.785959 0.000000 
0.145749 -0.830302 0.000000 
0.201664 -0.816828 0.000000 
0.225992 -0.868945 0.000000 
0.278030 -0.863078 0.000000 
0.296791 -0.923021 0.000000 
0.344206 -0.923028 0.000000 
VECTORS X_EC float 
0.338794 0.449856 0.000000 
-0.609100 -0.468892 0.000000 
0.713312 -0.357751 0.000000 
0.374519 -0.977181 0.000000 
0.423588 0.666089 0.000000 
-0.218274 0.700192 0.000000 
-0.513962 -0.024047 0.000000 
0.756418 0.187439 0.000000 
0.381900 -0.354953 0.000000 
-0.550868 -0.186515 0.000000 
0.823577 -0.175719 0.000000 
0.556234 -0.949223 0.000000 
-0.139443 -0.831654 0.000000 
-0.484677 0.530221 0.000000 
0.766286 0.795436 0.000000 
0.384386 0.280816 0.000000 
0.474677 0.960882 0.000000 
-0.141715 0.960786 0.000000 
-0.385608 0.151558 0.000000 
0.937896 0.230753 0.000000 
0.621631 -0.472827 0.000000 
-0.105264 -0.290928 0.000000 
-0.467428 -0.889554 0.000000 
0.771260 -0.583026 0.000000 
0.386873 0.916585 0.000000 
0.761262 0.999991 0.000000 
0.108942 -0.718633 0.000000 
-0.397202 0.800528 0.000000 
-0.142083 0.139253 0.000000 
-0.595936 -0.419522 0.000000 
0.978194 -0.919388 0.000000 
-0.660903 0.388987 0.000000 
0.724964 -0.071533 0.000000 
0.899809 -0.713782 0.000000 
0.685384 -0.118470 0.000000 
0.287229 -0.619628 0.000000 
0.702895 0.681043 0.000000 
0.180633 0.189524 0.000000 
0.445811 -0.488635 0.000000 
-0.220880 -0.931421 0.000000 
-0.071546 0.437653 0.000000 
-0.033296 0.182582 0.000000 
-0.417537 -0.317927 0.000000 
0.039645 0.979510 0.000000 
-0.441768 0.479639 0.000000 
-0.109248 -0.215812 0.000000 
-0.699407 -0.692567 0.000000 
-0.474522 0.640154 0.000000 
0.820030 0.213160 0.000000 
0.957100 -0.410912 0.000000 
0.610485 -0.314003 0.000000 
-0.761092 0.955616 0.000000 
-0.714655 0.244879 0.000000 
-0.057734 0.039712 0.000000 
-0.178789 0.193621 0.000000 
-0.067979 -0.463806 0.000000 
0.677748 -0.602009 0.000000 
0.641556 0.612246 0.000000 
-0.765897 0.353767 0.000000 
0.393446 -0.578370 0.000000 
0.522510 0.785900 0.000000 
-0.691820 0.687355 0.000000 
-0.647393 -0.043127 0.000000 
0.028512 -0.250654 0.000000 
-0.053800 0.931986 0.000000 
0.514316 0.659855 0.000000 
0.965681 0.649639 0.000000 
-0.897068 0.025610 0.000000 
-0.083078 -0.041243 0.000000 
-0.006893 -0.743768 0.000000 
0.724017 -0.907401 0.000000 
0.714996 0.316196 0.000000 
-0.642413 0.082739 0.000000 
-0.760780 -0.756242 0.000000 
-0.205471 0.965943 0.000000 
0.000000 -0.008701 0.000000 
-0.564049 -0.706889 0.000000 
0.000000 0.887675 0.000000 
0.564049 -0.706889 0.000000 
0.866949 0.537767 0.000000 
-0.569003 0.217836 0.000000 
0.000000 0.737124 0.000000 
0.569003 0.217836 0.000000 
-0.866949 0.537767 0.000000 
0.299194 -0.231983 0.000000 
0.858290 -0.523567 0.000000 
-0.577662 0.052879 0.000000 
0.000000 -0.366499 0.000000 
0.577662 0.052879 0.000000 
-0.858290 -0.523567 0.000000 
-0.299194 -0.231983 0.000000 
-0.268560 0.998267 0.000000 
0.286830 0.720625 0.000000 
0.844677 -0.660176 0.000000 
-0.578910 0.963661 0.000000 
0.000000 -0.544935 0.000000 
0.578910 0.963661 0.000000 
-0.844677 -0.660177 0.000000 
-0.286830 0.720625 0.000000 
0.268560 0.998267 0.000000 
-0.610485 -0.314003 0.000000 
0.057734 0.039712 0.000000 
0.714655 0.244879 0.000000 
0.761092 0.955616 0.000000 
0.765897 0.353767 0.000000 
-0.641556 0.612246 0.000000 
-0.677748 -0.602009 0.000000 
0.067979 -0.463806 0.000000 
0.178789 0.193621 0.000000 
-0.514316 0.659855 0.000000 
0.053800 0.931986 0.000000 
-0.028512 -0.250654 0.000000 
0.647393 -0.043127 0.000000 
0.691820 0.687355 0.000000 
-0.522510 0.785900 0.000000 
-0.393446 -0.578370 0.000000 
0.205471 0.965943 0.000000 
0.760780 -0.756242 0.000000 
0.642413 0.082739 0.000000 
-0.714996 0.316196 0.000000 
-0.724017 -0.907401 0.000000 
0.006894 -0.743768 0.000000 
0.083078 -0.041243 0.000000 
0.897068 0.025610 0.000000 
-0.965681 0.649639 0.000000 
-0.761262 0.999991 0.000000 
0.142083 0.139253 0.000000 
0.397202 0.800528 0.000000 
-0.108942 -0.718633 0.000000 
-0.899809 -0.713782 0.000000 
-0.724964 -0.071533 0.000000 
0.660903 0.388987 0.000000 
-0.978194 -0.919388 0.000000 
0.595936 -0.419522 0.000000 
0.071546 0.437653 0.000000 
0.220880 -0.931421 0.000000 
-0.445811 -0.488635 0.000000 
-0.180633 0.189524 0.000000 
-0.702895 0.681043 0.000000 
-0.287229 -0.619628 0.000000 
-0.685384 -0.118470 0.000000 
-0.957100 -0.410912 0.000000 
-0.820030 0.213160 0.000000 
0.474522 0.640154 0.000000 
0.699407 -0.692567 0.000000 
0.109248 -0.215812 0.000000 
0.441768 0.479639 0.000000 
-0.039645 0.979510 0.000000 
0.417537 -0.317927 0.000000 
0.033296 0.182582 0.000000 
-0.338794 0.449856 0.000000 
-0.374519 -0.977181 0.000000 
-0.713312 -0.357751 0.000000 
0.609100 -0.468892 0.000000 
-0.381900 -0.354953 0.000000 
-0.756418 0.187439 0.000000 
0.513962 -0.024047 0.000000 
0.218274 0.700192 0.000000 
-0.423588 0.666089 0.000000 
-0.384386 0.280816 0.000000 
-0.766286 0.795436 0.000000 
0.484677 0.530221 0.000000 
0.139443 -0.831654 0.000000 
-0.556234 -0.949223 0.000000 
-0.823577 -0.175719 0.000000 
0.550868 -0.186515 0.000000 
-0.386873 0.916585 0.000000 
-0.771260 -0.583026 0.000000 
0.467428 -0.889554 0.000000 
0.105264 -0.290928 0.000000 
-0.621631 -0.472827 0.000000 
-0.937896 0.230753 0.000000 
0.385608 0.151558 0.000000 
0.141715 0.960786 0.000000 
-0.474677 0.960882 0.000000 
CELL_DATA 175 
SCALARS MASS float 
LOOKUP_TABLE default 
0.781831 
0.864274 
0.946717 
0.864274 
0.881307 
0.921110 
0.858535 
0.921110 
0.881307 
0.887046 
0.910001 
0.869829 
0.915556 
0.869829 
0.910001 
0.887046 
0.892784 
0.915740 
0.892784 
0.927218 
0.892784 
0.927218 
0.892784 
0.915740 
0.892784 
0.781831 
0.864274 
0.946717 
0.864274 
0.881307 
0.921110 
0.858535 
0.921110 
0.881307 
0.887046 
0.910001 
0.869829 
0.915556 
0.869829 
0.910001 
0.887046 
0.892784 
0.915740 
0.892784 
0.927218 
0.892784 
0.927218 
0.892784 
0.915740 
0.892784 
0.781831 
0.864274 
0.946717 
0.864274 
0.881307 
0.921110 
0.858535 
0.921110 
0.881307 
0.887046 
0.910001 
0.869829 
0.915556 
0.869829 
0.910001 
0.887046 
0.892784 
0.915740 
0.892784 
0.927218 
0.892784 
0.927218 
0.892784 
0.915740 
0.892784 
0.781831 
0.864274 
0.946717 
0.864274 
0.881307 
0.921110 
0.858535 
0.921110 
0.881307 
0.887046 
0.910001 
0.869829 
0.915556 
0.869829 
0.910001 
0.887046 
0.892784 
0.915740 
0.892784 
0.927218 
0.892784 
0.927218 
0.892784 
0.915740 
0.892784 
0.781831 
0.864274 
0.946717 
0.864274 
0.881307 
0.921110 
0.858535 
0.921110 
0.881307 
0.887046 
0.910001 
0.869829 
0.915556 
0.869829 
0.910001 
0.887046 
0.892784 
0.915740 
0.892784 
0.927218 
0.892784 
0.927218 
0.892784 
0.915740 
0.892784 
0.781831 
0.864274 
0.946717 
0.864274 
0.881307 
0.921110 
0.858535 
0.921110 
0.881307 
0.887046 
0.910001 
0.869829 
0.915556 
0.869829 
0.910001 
0.887046 
0.892784 
0.915740 
0.892784 
0.927218 
0.892784 
0.927218 
0.892784 
0.915740 
0.892784 
0.781831 
0.864274 
0.946717 
0.864274 
0.881307 
0.921110 
0.858535 
0.921110 
0.881307 
0.887046 
0.910001 
0.869829 
0.915556 
0.869829 
0.910001 
0.887046 
0.892784 
0.915740 
0.892784 
0.927218 
0.892784 
0.927218 
0.892784 
0.915740 
0.892784 
SCALARS MASS float 
LOOKUP_TABLE default 
0.781831 
0.864274 
0.946717 
0.864274 
0.881307 
0.921110 
0.858535 
0.921110 
0.881307 
0.887046 
0.910001 
0.869829 
0.915556 
0.869829 
0.910001 
0.887046 
0.892784 
0.915740 
0.892784 
0.927218 
0.892784 
0.927218 
0.892784 
0.915740 
0.892784 
0.781831 
0.864274 
0.946717 
0.864274 
0.881307 
0.921110 
0.858535 
0.921110 
0.881307 
0.887046 
0.910001 
0.869829 
0.915556 
0.869829 
0.910001 
0.887046 
0.892784 
0.915740 
0.892784 
0.927218 
0.892784 
0.927218 
0.892784 
0.915740 
0.892784 
0.781831 
0.864274 
0.946717 
0.864274 
0.881307 
0.921110 
0.858535 
0.921110 
0.881307 
0.887046 
0.910001 
0.869829 
0.915556 
0.869829 
0.910001 
0.887046 
0.892784 
0.915740 
0.892784 
0.927218 
0.892784 
0.927218 
0.892784 
0.915740 
0.892784 
0.781831 
0.864274 
0.946717 
0.864274 
0.881307 
0.921110 
0.858535 
0.921110 
0.881307 
0.887046 
0.910001 
0.869829 
0.915556 
0.869829 
0.910001 
0.887046 
0.892784 
0.915740 
0.892784 
0.927218 
0.892784 
0.927218 
0.892784 
0.915740 
0.892784 
0.781831 
0.864274 
0.946717 
0.864274 
0.881307 
0.921110 
0.858535 
0.921110 
0.881307 
0.887046 
0.910001 
0.869829 
0.915556 
0.869829 
0.910001 
0.887046 
0.892784 
0.915740 
0.892784 
0.927218 
0.892784 
0.927218 
0.892784 
0.915740 
0.892784 
0.781831 
0.864274 
0.946717 
0.864274 
0.881307 
0.921110 
0.858535 
0.921110 
0.881307 
0.887046 
0.910001 
0.869829 
0.915556 
0.869829 
0.910001 
0.887046 
0.892784 
0.915740 
0.892784 
0.927218 
0.892784 
0.927218 
0.892784 
0.915740 
0.892784 
0.781831 
0.864274 
0.946717 
0.864274 
0.881307 
0.921110 
0.858535 
0.921110 
0.881307 
0.887046 
0.910001 
0.869829 
0.915556 
0.869829 
0.910001 
0.887046 
0.892784 
0.915740 
0.892784 
0.927218 
0.892784 
0.927218 
0.892784 
0.915740 
0.892784 
SCALARS DENSITY float 
LOOKUP_TABLE default 
200.000000 
200.000000 
200.000000 
200.000000 
200.000000 
200.000000 
200.000000 
200.000000 
200.000000 
200.000000 
200.000000 
200.000000 
200.000000 
200.000000 
200.000000 
200.000000 
200.000000 
200.000000 
200.000000 
200.000000 
200.000000 
200.000000 
200.000000 
200.000000 
200.000000 
200.000000 
200.000000 
200.000000 
200.000000 
200.000000 
200.000000 
200.000000 
200.000000 
200.000000 
200.000000 
200.000000 
200.000000 
200.000000 
200.000000 
200.000000 
200.000000 
200.000000 
200.000000 
200.000000 
200.000000 
200.000000 
200.000000 
200.000000 
200.000000 
200.000000 
200.000000 
200.000000 
200.000000 
200.000000 
200.000000 
200.000000 
200.000000 
200.000000 
200.000000 
200.000000 
200.000000 
200.000000 
200.000000 
200.000000 
200.000000 
200.000000 
200.000000 
200.000000 
200.000000 
200.000000 
200.000000 
200.000000 
200.000000 
200.000000 
200.000000 
200.000000 
200.000000 
200.000000 
200.000000 
200.000000 
200.000000 
200.000000 
200.000000 
200.000000 
200.000000 
200.000000 
200.000000 
200.000000 
200.000000 
200.000000 
200.000000 
200.000000 
200.000000 
200.000000 
200.000000 
200.000000 
200.000000 
200.000000 
200.000000 
200.000000 
200.000000 
200.000000 
200.000000 
200.000000 
200.000000 
200.000000 
200.000000 
200.000000 
200.000000 
200.000000 
200.000000 
200.000000 
200.000000 
200.000000 
200.000000 
200.000000 
200.000000 
200.000000 
200.000000 
200.000000 
200.000000 
200.000000 
200.000000 
200.000000 
200.000000 
200.000000 
200.000000 
200.000000 
200.000000 
200.000000 
200.000000 
200.000000 
200.000000 
200.000000 
200.000000 
200.000000 
200.000000 
200.000000 
200.000000 
200.000000 
200.000000 
200.000000 
200.000000 
200.000000 
200.000000 
200.000000 
200.000000 
200.000000 
200.000000 
200.000000 
200.000000 
200.000000 
200.000000 
200.000000 
200.000000 
200.000000 
200.000000 
200.000000 
200.000000 
200.000000 
200.000000 
200.000000 
200.000000 
200.000000 
200.000000 
200.000000 
200.000000 
200.000000 
200.000000 
200.000000 
200.000000 
200.000000 
200.000000 
200.000000 
200.000000 
SCALARS ELEM_i float 
LOOKUP_TABLE default 
174 
201 
174 
174 
202 
202 
202 
175 
175 
229 
202 
202 
202 
203 
176 
176 
230 
230 
230 
203 
203 
203 
203 
176 
177 
174 
200 
201 
201 
227 
200 
228 
201 
201 
227 
227 
228 
228 
228 
228 
229 
254 
254 
255 
255 
255 
255 
256 
229 
229 
173 
200 
200 
200 
199 
199 
199 
200 
227 
198 
199 
226 
226 
226 
227 
227 
198 
225 
225 
225 
225 
226 
253 
253 
254 
173 
172 
173 
172 
145 
172 
172 
172 
199 
144 
144 
171 
171 
171 
198 
198 
144 
144 
143 
171 
170 
171 
197 
198 
198 
173 
146 
146 
146 
119 
146 
145 
145 
145 
119 
119 
118 
118 
118 
145 
144 
92 
91 
91 
118 
117 
117 
117 
117 
144 
174 
147 
147 
146 
147 
147 
120 
146 
119 
121 
120 
120 
120 
120 
119 
119 
121 
121 
94 
93 
93 
93 
93 
92 
92 
174 
174 
174 
147 
175 
175 
148 
148 
148 
176 
176 
149 
148 
148 
148 
121 
177 
176 
149 
149 
149 
149 
122 
122 
122 
VECTORS VELOCITY float 
0.000000 -4.922658 0.000000 
-0.000000 -4.922658 0.000000 
0.000000 -4.922658 0.000000 
0.000000 -4.922658 0.000000 
-0.000000 -4.922658 0.000000 
-0.000000 -4.922658 0.000000 
-0.000000 -4.922658 0.000000 
-0.000000 -4.922658 0.000000 
-0.000000 -4.922658 0.000000 
0.000000 -4.922658 0.000000 
-0.000000 -4.922658 0.000000 
-0.000000 -4.922658 0.000000 
0.000000 -4.922658 0.000000 
0.000000 -4.922658 0.000000 
0.000000 -4.922658 0.000000 
0.000000 -4.922658 0.000000 
0.000000 -4.922658 0.000000 
0.000000 -4.922658 0.000000 
0.000000 -4.922658 0.000000 
0.000000 -4.922658 0.000000 
0.000000 -4.922658 0.000000 
0.000000 -4.922658 0.000000 
-0.000000 -4.922658 0.000000 
0.000000 -4.922658 0.000000 
0.000000 -4.922658 0.000000 
0.000000 -4.922658 0.000000 
0.000000 -4.922658 0.000000 
0.000000 -4.922658 0.000000 
0.000000 -4.922658 0.000000 
0.000000 -4.922658 0.000000 
0.000000 -4.922658 0.000000 
0.000000 -4.922658 0.000000 
-0.000000 -4.922658 0.000000 
-0.000000 -4.922658 0.000000 
0.000000 -4.922658 0.000000 
0.000000 -4.922658 0.000000 
0.000000 -4.922658 0.000000 
0.000000 -4.922658 0.000000 
0.000000 -4.922658 0.000000 
-0.000000 -4.922658 0.000000 
-0.000000 -4.922658 0.000000 
0.000000 -4.922658 0.000000 
0.000000 -4.922658 0.000000 
0.000000 -4.922658 0.000000 
0.000000 -4.922658 0.000000 
-0.000000 -4.922658 0.000000 
-0.000000 -4.922658 0.000000 
-0.000000 -4.922658 0.000000 
0.000000 -4.922658 0.000000 
0.000000 -4.922658 0.000000 
0.000000 -4.922658 0.000000 
-0.000000 -4.922658 0.000000 
-0.000000 -4.922658 0.000000 
-0.000000 -4.922658 0.000000 
0.000000 -4.922658 0.000000 
0.000000 -4.922658 0.000000 
0.000000 -4.922658 0.000000 
-0.000000 -4.922658 0.000000 
-0.000000 -4.922658 0.000000 
-0.000000 -4.922658 0.000000 
0.000000 -4.922658 0.000000 
0.000000 -4.922658 0.000000 
0.000000 -4.922658 0.000000 
-0.000000 -4.922658 0.000000 
-0.000000 -4.922658 0.000000 
-0.000000 -4.922658 0.000000 
0.000000 -4.922658 0.000000 
0.000000 -4.922658 0.000000 
0.000000 -4.922658 0.000000 
-0.000000 -4.922658 0.000000 
-0.000000 -4.922658 0.000000 
0.000000 -4.922658 0.000000 
0.000000 -4.922658 0.000000 
-0.000000 -4.922658 0.000000 
0.000000 -4.922658 0.000000 
-0.000000 -4.922658 0.000000 
-0.000000 -4.922658 0.000000 
-0.000000 -4.922658 0.000000 
-0.000000 -4.922658 0.000000 
0.000000 -4.922658 0.000000 
0.000000 -4.922658 0.000000 
0.000000 -4.922658 0.000000 
0.000000 -4.922658 0.000000 
0.000000 -4.922658 0.000000 
-0.000000 -4.922658 0.000000 
0.000000 -4.922658 0.000000 
-0.000000 -4.922658 0.000000 
-0.000000 -4.922658 0.000000 
-0.000000 -4.922658 0.000000 
-0.000000 -4.922658 0.000000 
-0.000000 -4.922658 0.000000 
-0.000000 -4.922658 0.000000 
-0.000000 -4.922658 0.000000 
-0.000000 -4.922658 0.000000 
-0.000000 -4.922658 0.000000 
-0.000000 -4.922658 0.000000 
-0.000000 -4.922658 0.000000 
-0.000000 -4.922658 0.000000 
0.000000 -4.922658 0.000000 
0.000000 -4.922658 0.000000 
0.000000 -4.922658 0.000000 
0.000000 -4.922658 0.000000 
0.000000 -4.922658 0.000000 
-0.000000 -4.922658 0.000000 
-0.000000 -4.922658 0.000000 
-0.000000 -4.922658 0.000000 
-0.000000 -4.922658 0.000000 
-0.000000 -4.922658 0.000000 
-0.000000 -4.922658 0.000000 
-0.000000 -4.922658 0.000000 
-0.000000 -4.922658 0.000000 
-0.000000 -4.922658 0.000000 
-0.000000 -4.922658 0.000000 
-0.000000 -4.922658 0.000000 
-0.000000 -4.922658 0.000000 
0.000000 -4.922658 0.000000 
-0.000000 -4.922658 0.000000 
-0.000000 -4.922658 0.000000 
0.000000 -4.922658 0.000000 
0.000000 -4.922658 0.000000 
-0.000000 -4.922658 0.000000 
-0.000000 -4.922658 0.000000 
-0.000000 -4.922658 0.000000 
0.000000 -4.922658 0.000000 
0.000000 -4.922658 0.000000 
-0.000000 -4.922658 0.000000 
-0.000000 -4.922658 0.000000 
-0.000000 -4.922658 0.000000 
0.000000 -4.922658 0.000000 
-0.000000 -4.922658 0.000000 
-0.000000 -4.922658 0.000000 
-0.000000 -4.922658 0.000000 
0.000000 -4.922658 0.000000 
-0.000000 -4.922658 0.000000 
0.000000 -4.922658 0.000000 
0.000000 -4.922658 0.000000 
0.000000 -4.922658 0.000000 
0.000000 -4.922658 0.000000 
0.000000 -4.922658 0.000000 
-0.000000 -4.922658 0.000000 
-0.000000 -4.922658 0.000000 
0.000000 -4.922658 0.000000 
-0.000000 -4.922658 0.000000 
-0.000000 -4.922658 0.000000 
0.000000 -4.922658 0.000000 
-0.000000 -4.922658 0.000000 
-0.000000 -4.922658 0.000000 
-0.000000 -4.922658 0.000000 
-0.000000 -4.922658 0.000000 
-0.000000 -4.922658 0.000000 
-0.000000 -4.922658 0.000000 
0.000000 -4.922658 0.000000 
0.000000 -4.922658 0.000000 
-0.000000 -4.922658 0.000000 
0.000000 -4.922658 0.000000 
-0.000000 -4.922658 0.000000 
0.000000 -4.922658 0.000000 
0.000000 -4.922658 0.000000 
0.000000 -4.922658 0.000000 
0.000000 -4.922658 0.000000 
0.000000 -4.922658 0.000000 
0.000000 -4.922658 0.000000 
0.000000 -4.922658 0.000000 
0.000000 -4.922658 0.000000 
0.000000 -4.922658 0.000000 
0.000000 -4.922658 0.000000 
-0.000000 -4.922658 0.000000 
0.000000 -4.922658 0.000000 
0.000000 -4.922658 0.000000 
0.000000 -4.922658 0.000000 
0.000000 -4.922658 0.000000 
-0.000000 -4.922658 0.000000 
0.000000 -4.922658 0.000000 
0.000000 -4.922658 0.000000 
0.000000 -4.922658 0.000000 
TENSORS STRESS float 
-0.000000 -0.000000 0.000000 
0.000000 -0.000000 0.000000 
0.000000 0.000000 0.000000 

0.000000 0.000000 0.000000 
0.000000 0.000000 0.000000 
0.000000 0.000000 0.000000 

-0.000000 0.000000 0.000000 
0.000000 -0.000000 0.000000 
0.000000 0.000000 0.000000 

0.000000 0.000000 0.000000 
0.000000 0.000000 0.000000 
0.000000 0.000000 0.000000 

-0.000000 0.000000 0.000000 
0.000000 -0.000000 0.000000 
0.000000 0.000000 0.000000 

0.000000 0.000000 0.000000 
0.000000 0.000000 0.000000 
0.000000 0.000000 0.000000 

0.000000 -0.000000 0.000000 
0.000000 0.000000 0.000000 
0.000000 0.000000 0.000000 

-0.000000 -0.000000 0.000000 
0.000000 -0.000000 0.000000 
0.000000 0.000000 0.000000 

-0.000000 -0.000000 0.000000 
0.000000 -0.000000 0.000000 
0.000000 0.000000 0.000000 

0.000000 0.000000 0.000000 
0.000000 0.000000 0.000000 
0.000000 0.000000 0.000000 

0.000000 -0.000000 0.000000 
0.000000 0.000000 0.000000 
0.000000 0.000000 0.000000 

-0.000000 -0.000000 0.000000 
0.000000 -0.000000 0.000000 
0.000000 0.000000 0.000000 

-0.000000 -0.000000 0.000000 
0.000000 -0.000000 0.000000 
0.000000 0.000000 0.000000 

-0.000000 0.000000 0.000000 
0.000000 -0.000000 0.000000 
0.000000 0.000000 0.000000 

-0.000000 0.000000 0.000000 
0.000000 -0.000000 0.000000 
0.000000 0.000000 0.000000 

-0.000000 0.000000 0.000000 
0.000000 -0.000000 0.000000 
0.000000 0.000000 0.000000 

-0.000000 0.000000 0.000000 
0.000000 -0.000000 0.000000 
0.000000 0.000000 0.000000 

-0.000000 0.000000 0.000000 
0.000000 -0.000000 0.000000 
0.000000 0.000000 0.000000 

-0.000000 -0.000000 0.000000 
0.000000 -0.000000 0.000000 
0.000000 0.000000 0.000000 

-0.000000 -0.000000 0.000000 
0.000000 -0.000000 0.000000 
0.000000 0.000000 0.000000 

0.000000 -0.000000 0.000000 
0.000000 0.000000 0.000000 
0.000000 0.000000 0.000000 

-0.000000 -0.000000 0.000000 
0.000000 -0.000000 0.000000 
0.000000 0.000000 0.000000 

-0.000000 -0.000000 0.000000 
0.000000 -0.000000 0.000000 
0.000000 0.000000 0.000000 

-0.000000 0.000000 0.000000 
0.000000 -0.000000 0.000000 
0.000000 0.000000 0.000000 

0.000000 0.000000 0.000000 
0.000000 0.000000 0.000000 
0.000000 0.000000 0.000000 

-0.000000 -0.000000 0.000000 
0.000000 -0.000000 0.000000 
0.000000 0.000000 0.000000 

-0.000000 0.000000 0.000000 
0.000000 -0.000000 0.000000 
0.000000 0.000000 0.000000 

0.000000 0.000000 0.000000 
0.000000 0.000000 0.000000 
0.000000 0.000000 0.000000 

-0.000000 0.000000 0.000000 
0.000000 -0.000000 0.000000 
0.000000 0.000000 0.000000 

-0.000000 0.000000 0.000000 
0.000000 -0.000000 0.000000 
0.000000 0.000000 0.000000 

0.000000 0.000000 0.000000 
0.000000 0.000000 0.000000 
0.000000 0.000000 0.000000 

0.000000 0.000000 0.000000 
0.000000 0.000000 0.000000 
0.000000 0.000000 0.000000 

-0.000000 0.000000 0.000000 
0.000000 -0.000000 0.000000 
0.000000 0.000000 0.000000 

-0.000000 -0.000000 0.000000 
0.000000 -0.000000 0.000000 
0.000000 0.000000 0.000000 

-0.000000 0.000000 0.000000 
0.000000 -0.000000 0.000000 
0.000000 0.000000 0.000000 

-0.000000 -0.000000 0.000000 
0.000000 -0.000000 0.000000 
0.000000 0.000000 0.000000 

-0.000000 -0.000000 0.000000 
0.000000 -0.000000 0.000000 
0.000000 0.000000 0.000000 

-0.000000 -0.000000 0.000000 
0.000000 -0.000000 0.000000 
0.000000 0.000000 0.000000 

-0.000000 0.000000 0.000000 
0.000000 -0.000000 0.000000 
0.000000 0.000000 0.000000 

0.000000 0.000000 0.000000 
0.000000 0.000000 0.000000 
0.000000 0.000000 0.000000 

-0.000000 0.000000 0.000000 
0.000000 -0.000000 0.000000 
0.000000 0.000000 0.000000 

-0.000000 -0.000000 0.000000 
0.000000 0.000000 0.000000 
0.000000 0.000000 0.000000 

-0.000000 -0.000000 0.000000 
0.000000 -0.000000 0.000000 
0.000000 0.000000 0.000000 

-0.000000 -0.000000 0.000000 
0.000000 -0.000000 0.000000 
0.000000 0.000000 0.000000 

0.000000 0.000000 0.000000 
0.000000 0.000000 0.000000 
0.000000 0.000000 0.000000 

0.000000 -0.000000 0.000000 
0.000000 0.000000 0.000000 
0.000000 0.000000 0.000000 

-0.000000 0.000000 0.000000 
0.000000 -0.000000 0.000000 
0.000000 0.000000 0.000000 

-0.000000 0.000000 0.000000 
0.000000 -0.000000 0.000000 
0.000000 0.000000 0.000000 

-0.000000 0.000000 0.000000 
0.000000 -0.000000 0.000000 
0.000000 0.000000 0.000000 

-0.000000 0.000000 0.000000 
0.000000 -0.000000 0.000000 
0.000000 0.000000 0.000000 

0.000000 -0.000000 0.000000 
0.000000 0.000000 0.000000 
0.000000 0.000000 0.000000 

0.000000 0.000000 0.000000 
0.000000 0.000000 0.000000 
0.000000 0.000000 0.000000 

0.000000 0.000000 0.000000 
0.000000 0.000000 0.000000 
0.000000 0.000000 0.000000 

0.000000 0.000000 0.000000 
0.000000 -0.000000 0.000000 
0.000000 0.000000 0.000000 

-0.000000 0.000000 0.000000 
0.000000 -0.000000 0.000000 
0.000000 0.000000 0.000000 

0.000000 0.000000 0.000000 
0.000000 0.000000 0.000000 
0.000000 0.000000 0.000000 

0.000000 0.000000 0.000000 
0.000000 0.000000 0.000000 
0.000000 0.000000 0.000000 

0.000000 0.000000 0.000000 
0.000000 0.000000 0.000000 
0.000000 0.000000 0.000000 

-0.000000 -0.000000 0.000000 
0.000000 -0.000000 0.000000 
0.000000 0.000000 0.000000 

0.000000 0.000000 0.000000 
0.000000 0.000000 0.000000 
0.000000 0.000000 0.000000 

0.000000 0.000000 0.000000 
0.000000 0.000000 0.000000 
0.000000 0.000000 0.000000 

-0.000000 0.000000 0.000000 
0.000000 -0.000000 0.000000 
0.000000 0.000000 0.000000 

0.000000 -0.000000 0.000000 
0.000000 0.000000 0.000000 
0.000000 0.000000 0.000000 

0.000000 -0.000000 0.000000 
0.000000 0.000000 0.000000 
0.000000 0.000000 0.000000 

0.000000 0.000000 0.000000 
0.000000 0.000000 0.000000 
0.000000 0.000000 0.000000 

-0.000000 -0.000000 0.000000 
0.000000 -0.000000 0.000000 
0.000000 0.000000 0.000000 

0.000000 -0.000000 0.000000 
0.000000 0.000000 0.000000 
0.000000 0.000000 0.000000 

-0.000000 0.000000 0.000000 
0.000000 -0.000000 0.000000 
0.000000 0.000000 0.000000 

0.000000 -0.000000 0.000000 
0.000000 0.000000 0.000000 
0.000000 0.000000 0.000000 

0.000000 0.000000 0.000000 
0.000000 0.000000 0.000000 
0.000000 0.000000 0.000000 

0.000000 0.000000 0.000000 
0.000000 0.000000 0.000000 
0.000000 0.000000 0.000000 

0.000000 0.000000 0.000000 
0.000000 0.000000 0.000000 
0.000000 0.000000 0.000000 

0.000000 0.000000 0.000000 
0.000000 0.000000 0.000000 
0.000000 0.000000 0.000000 

-0.000000 0.000000 0.000000 
0.000000 -0.000000 0.000000 
0.000000 0.000000 0.000000 

0.000000 -0.000000 0.000000 
0.000000 0.000000 0.000000 
0.000000 0.000000 0.000000 

-0.000000 -0.000000 0.000000 
0.000000 -0.000000 0.000000 
0.000000 0.000000 0.000000 

0.000000 0.000000 0.000000 
0.000000 0.000000 0.000000 
0.000000 0.000000 0.000000 

-0.000000 0.000000 0.000000 
0.000000 -0.000000 0.000000 
0.000000 0.000000 0.000000 

0.000000 -0.000000 0.000000 
0.000000 0.000000 0.000000 
0.000000 0.000000 0.000000 

0.000000 -0.000000 0.000000 
0.000000 0.000000 0.000000 
0.000000 0.000000 0.000000 

-0.000000 -0.000000 0.000000 
0.000000 -0.000000 0.000000 
0.000000 0.000000 0.000000 

0.000000 -0.000000 0.000000 
0.000000 0.000000 0.000000 
0.000000 0.000000 0.000000 

0.000000 0.000000 0.000000 
0.000000 0.000000 0.000000 
0.000000 0.000000 0.000000 

0.000000 0.000000 0.000000 
0.000000 0.000000 0.000000 
0.000000 0.000000 0.000000 

-0.000000 0.000000 0.000000 
0.000000 -0.000000 0.000000 
0.000000 0.000000 0.000000 

-0.000000 -0.000000 0.000000 
0.000000 -0.000000 0.000000 
0.000000 0.000000 0.000000 

0.000000 0.000000 0.000000 
0.000000 0.000000 0.000000 
0.000000 0.000000 0.000000 

-0.000000 -0.000000 0.000000 
0.000000 -0.000000 0.000000 
0.000000 0.000000 0.000000 

-0.000000 -0.000000 0.000000 
0.000000 -0.000000 0.000000 
0.000000 0.000000 0.000000 

0.000000 -0.000000 0.000000 
0.000000 0.000000 0.000000 
0.000000 0.000000 0.000000 

-0.000000 -0.000000 0.000000 
0.000000 -0.000000 0.000000 
0.000000 0.000000 0.000000 

-0.000000 0.000000 0.000000 
0.000000 -0.000000 0.000000 
0.000000 0.000000 0.000000 

-0.000000 -0.000000 0.000000 
0.000000 -0.000000 0.000000 
0.000000 0.000000 0.000000 

-0.000000 -0.000000 0.000000 
0.000000 -0.000000 0.000000 
0.000000 0.000000 0.000000 

0.000000 -0.000000 0.000000 
0.000000 0.000000 0.000000 
0.000000 0.000000 0.000000 

-0.000000 -0.000000 0.000000 
0.000000 0.000000 0.000000 
0.000000 0.000000 0.000000 

0.000000 -0.000000 0.000000 
0.000000 0.000000 0.000000 
0.000000 0.000000 0.000000 

0.000000 -0.000000 0.000000 
0.000000 0.000000 0.000000 
0.000000 0.000000 0.000000 

0.000000 0.000000 0.000000 
0.000000 0.000000 0.000000 
0.000000 0.000000 0.000000 

0.000000 -0.000000 0.000000 
0.000000 0.000000 0.000000 
0.000000 0.000000 0.000000 

0.000000 -0.000000 0.000000 
0.000000 0.000000 0.000000 
0.000000 0.000000 0.000000 

-0.000000 -0.000000 0.000000 
0.000000 -0.000000 0.000000 
0.000000 0.000000 0.000000 

-0.000000 -0.000000 0.000000 
0.000000 -0.000000 0.000000 
0.000000 0.000000 0.000000 

0.000000 -0.000000 0.000000 
0.000000 0.000000 0.000000 
0.000000 0.000000 0.000000 

0.000000 0.000000 0.000000 
0.000000 0.000000 0.000000 
0.000000 0.000000 0.000000 

0.000000 -0.000000 0.000000 
0.000000 0.000000 0.000000 
0.000000 0.000000 0.000000 

-0.000000 -0.000000 0.000000 
0.000000 -0.000000 0.000000 
0.000000 0.000000 0.000000 

0.000000 -0.000000 0.000000 
0.000000 0.000000 0.000000 
0.000000 0.000000 0.000000 

-0.000000 -0.000000 0.000000 
0.000000 -0.000000 0.000000 
0.000000 0.000000 0.000000 

0.000000 -0.000000 0.000000 
0.000000 0.000000 0.000000 
0.000000 0.000000 0.000000 

0.000000 0.000000 0.000000 
0.000000 0.000000 0.000000 
0.000000 0.000000 0.000000 

0.000000 0.000000 0.000000 
0.000000 0.000000 0.000000 
0.000000 0.000000 0.000000 

-0.000000 0.000000 0.000000 
0.000000 -0.000000 0.000000 
0.000000 0.000000 0.000000 

-0.000000 0.000000 0.000000 
0.000000 -0.000000 0.000000 
0.000000 0.000000 0.000000 

-0.000000 -0.000000 0.000000 
0.000000 -0.000000 0.000000 
0.000000 0.000000 0.000000 

-0.000000 0.000000 0.000000 
0.000000 -0.000000 0.000000 
0.000000 0.000000 0.000000 

-0.000000 0.000000 0.000000 
0.000000 -0.000000 0.000000 
0.000000 0.000000 0.000000 

0.000000 0.000000 0.000000 
0.000000 0.000000 0.000000 
0.000000 0.000000 0.000000 

0.000000 0.000000 0.000000 
0.000000 0.000000 0.000000 
0.000000 0.000000 0.000000 

-0.000000 0.000000 0.000000 
0.000000 -0.000000 0.000000 
0.000000 0.000000 0.000000 

-0.000000 0.000000 0.000000 
0.000000 -0.000000 0.000000 
0.000000 0.000000 0.000000 

0.000000 0.000000 0.000000 
0.000000 0.000000 0.000000 
0.000000 0.000000 0.000000 

-0.000000 0.000000 0.000000 
0.000000 -0.000000 0.000000 
0.000000 0.000000 0.000000 

0.000000 0.000000 0.000000 
0.000000 0.000000 0.000000 
0.000000 0.000000 0.000000 

-0.000000 0.000000 0.000000 
0.000000 -0.000000 0.000000 
0.000000 0.000000 0.000000 

0.000000 -0.000000 0.000000 
0.000000 0.000000 0.000000 
0.000000 0.000000 0.000000 

0.000000 -0.000000 0.000000 
0.000000 0.000000 0.000000 
0.000000 0.000000 0.000000 

-0.000000 -0.000000 0.000000 
0.000000 -0.000000 0.000000 
0.000000 0.000000 0.000000 

0.000000 -0.000000 0.000000 
0.000000 0.000000 0.000000 
0.000000 0.000000 0.000000 

0.000000 -0.000000 0.000000 
0.000000 0.000000 0.000000 
0.000000 0.000000 0.000000 

0.000000 -0.000000 0.000000 
0.000000 0.000000 0.000000 
0.000000 0.000000 0.000000 

-0.000000 -0.000000 0.000000 
0.000000 -0.000000 0.000000 
0.000000 0.000000 0.000000 

0.000000 -0.000000 0.000000 
0.000000 0.000000 0.000000 
0.000000 0.000000 0.000000 

0.000000 -0.000000 0.000000 
0.000000 0.000000 0.000000 
0.000000 0.000000 0.000000 

-0.000000 -0.000000 0.000000 
0.000000 -0.000000 0.000000 
0.000000 0.000000 0.000000 

0.000000 -0.000000 0.000000 
0.000000 0.000000 0.000000 
0.000000 0.000000 0.000000 

0.000000 -0.000000 0.000000 
0.000000 0.000000 0.000000 
0.000000 0.000000 0.000000 

0.000000 0.000000 0.000000 
0.000000 0.000000 0.000000 
0.000000 0.000000 0.000000 

0.000000 0.000000 0.000000 
0.000000 0.000000 0.000000 
0.000000 0.000000 0.000000 

0.000000 0.000000 0.000000 
0.000000 0.000000 0.000000 
0.000000 0.000000 0.000000 

-0.000000 -0.000000 0.000000 
0.000000 -0.000000 0.000000 
0.000000 0.000000 0.000000 

-0.000000 0.000000 0.000000 
0.000000 -0.000000 0.000000 
0.000000 0.000000 0.000000 

0.000000 -0.000000 0.000000 
0.000000 0.000000 0.000000 
0.000000 0.000000 0.000000 

0.000000 0.000000 0.000000 
0.000000 0.000000 0.000000 
0.000000 0.000000 0.000000 

-0.000000 -0.000000 0.000000 
0.000000 -0.000000 0.000000 
0.000000 0.000000 0.000000 

0.000000 -0.000000 0.000000 
0.000000 -0.000000 0.000000 
0.000000 0.000000 0.000000 

0.000000 0.000000 0.000000 
0.000000 0.000000 0.000000 
0.000000 0.000000 0.000000 

-0.000000 0.000000 0.000000 
0.000000 -0.000000 0.000000 
0.000000 0.000000 0.000000 

-0.000000 0.000000 0.000000 
0.000000 -0.000000 0.000000 
0.000000 0.000000 0.000000 

-0.000000 -0.000000 0.000000 
0.000000 -0.000000 0.000000 
0.000000 0.000000 0.000000 

0.000000 -0.000000 0.000000 
0.000000 0.000000 0.000000 
0.000000 0.000000 0.000000 

-0.000000 0.000000 0.000000 
0.000000 -0.000000 0.000000 
0.000000 0.000000 0.000000 

-0.000000 0.000000 0.000000 
0.000000 -0.000000 0.000000 
0.000000 0.000000 0.000000 

-0.000000 -0.000000 0.000000 
0.000000 -0.000000 0.000000 
0.000000 0.000000 0.000000 

0.000000 -0.000000 0.000000 
0.000000 0.000000 0.000000 
0.000000 0.000000 0.000000 

-0.000000 -0.000000 0.000000 
0.000000 -0.000000 0.000000 
0.000000 0.000000 0.000000 

-0.000000 -0.000000 0.000000 
0.000000 -0.000000 0.000000 
0.000000 0.000000 0.000000 

-0.000000 0.000000 0.000000 
0.000000 -0.000000 0.000000 
0.000000 0.000000 0.000000 

-0.000000 0.000000 0.000000 
0.000000 -0.000000 0.000000 
0.000000 0.000000 0.000000 

0.000000 0.000000 0.000000 
0.000000 -0.000000 0.000000 
0.000000 0.000000 0.000000 

0.000000 0.000000 0.000000 
0.000000 0.000000 0.000000 
0.000000 0.000000 0.000000 

0.000000 -0.000000 0.000000 
0.000000 0.000000 0.000000 
0.000000 0.000000 0.000000 

-0.000000 0.000000 0.000000 
0.000000 -0.000000 0.000000 
0.000000 0.000000 0.000000 

0.000000 0.000000 0.000000 
0.000000 0.000000 0.000000 
0.000000 0.000000 0.000000 

0.000000 0.000000 0.000000 
0.000000 0.000000 0.000000 
0.000000 0.000000 0.000000 

0.000000 0.000000 0.000000 
0.000000 -0.000000 0.000000 
0.000000 0.000000 0.000000 

-0.000000 0.000000 0.000000 
0.000000 -0.000000 0.000000 
0.000000 0.000000 0.000000 

0.000000 0.000000 0.000000 
0.000000 0.000000 0.000000 
0.000000 0.000000 0.000000 

0.000000 -0.000000 0.000000 
0.000000 0.000000 0.000000 
0.000000 0.000000 0.000000 

-0.000000 -0.000000 0.000000 
0.000000 -0.000000 0.000000 
0.000000 0.000000 0.000000 

-0.000000 -0.000000 0.000000 
0.000000 -0.000000 0.000000 
0.000000 0.000000 0.000000 

0.000000 -0.000000 0.000000 
0.000000 0.000000 0.000000 
0.000000 0.000000 0.000000 

0.000000 0.000000 0.000000 
0.000000 0.000000 0.000000 
0.000000 0.000000 0.000000 

-0.000000 0.000000 0.000000 
0.000000 -0.000000 0.000000 
0.000000 0.000000 0.000000 

-0.000000 0.000000 0.000000 
0.000000 -0.000000 0.000000 
0.000000 0.000000 0.000000 

TENSORS STRAIN float 
0.000000 -0.000000 0.000000 
0.000000 -0.000000 0.000000 
0.000000 0.000000 0.000000 

-0.000000 0.000000 0.000000 
0.000000 0.000000 0.000000 
0.000000 0.000000 0.000000 

0.000000 0.000000 0.000000 
0.000000 -0.000000 0.000000 
0.000000 0.000000 0.000000 

0.000000 0.000000 0.000000 
0.000000 0.000000 0.000000 
0.000000 0.000000 0.000000 

0.000000 0.000000 0.000000 
0.000000 -0.000000 0.000000 
0.000000 0.000000 0.000000 

-0.000000 0.000000 0.000000 
0.000000 0.000000 0.000000 
0.000000 0.000000 0.000000 

-0.000000 -0.000000 0.000000 
0.000000 0.000000 0.000000 
0.000000 0.000000 0.000000 

0.000000 -0.000000 0.000000 
0.000000 -0.000000 0.000000 
0.000000 0.000000 0.000000 

0.000000 -0.000000 0.000000 
0.000000 -0.000000 0.000000 
0.000000 0.000000 0.000000 

-0.000000 0.000000 0.000000 
0.000000 0.000000 0.000000 
0.000000 0.000000 0.000000 

-0.000000 -0.000000 0.000000 
0.000000 0.000000 0.000000 
0.000000 0.000000 0.000000 

-0.000000 -0.000000 0.000000 
0.000000 0.000000 0.000000 
0.000000 0.000000 0.000000 

-0.000000 -0.000000 0.000000 
0.000000 0.000000 0.000000 
0.000000 0.000000 0.000000 

-0.000000 0.000000 0.000000 
0.000000 0.000000 0.000000 
0.000000 0.000000 0.000000 

0.000000 0.000000 0.000000 
0.000000 -0.000000 0.000000 
0.000000 0.000000 0.000000 

0.000000 0.000000 0.000000 
0.000000 -0.000000 0.000000 
0.000000 0.000000 0.000000 

-0.000000 0.000000 0.000000 
0.000000 -0.000000 0.000000 
0.000000 0.000000 0.000000 

-0.000000 0.000000 0.000000 
0.000000 -0.000000 0.000000 
0.000000 0.000000 0.000000 

0.000000 -0.000000 0.000000 
0.000000 -0.000000 0.000000 
0.000000 0.000000 0.000000 

0.000000 -0.000000 0.000000 
0.000000 -0.000000 0.000000 
0.000000 0.000000 0.000000 

0.000000 -0.000000 0.000000 
0.000000 -0.000000 0.000000 
0.000000 0.000000 0.000000 

0.000000 -0.000000 0.000000 
0.000000 -0.000000 0.000000 
0.000000 0.000000 0.000000 

0.000000 -0.000000 0.000000 
0.000000 -0.000000 0.000000 
0.000000 0.000000 0.000000 

0.000000 0.000000 0.000000 
0.000000 -0.000000 0.000000 
0.000000 0.000000 0.000000 

0.000000 0.000000 0.000000 
0.000000 0.000000 0.000000 
0.000000 0.000000 0.000000 

0.000000 -0.000000 0.000000 
0.000000 -0.000000 0.000000 
0.000000 0.000000 0.000000 

0.000000 0.000000 0.000000 
0.000000 -0.000000 0.000000 
0.000000 0.000000 0.000000 

-0.000000 0.000000 0.000000 
0.000000 0.000000 0.000000 
0.000000 0.000000 0.000000 

-0.000000 0.000000 0.000000 
0.000000 -0.000000 0.000000 
0.000000 0.000000 0.000000 

-0.000000 0.000000 0.000000 
0.000000 0.000000 0.000000 
0.000000 0.000000 0.000000 

0.000000 0.000000 0.000000 
0.000000 0.000000 0.000000 
0.000000 0.000000 0.000000 

0.000000 0.000000 0.000000 
0.000000 0.000000 0.000000 
0.000000 0.000000 0.000000 

-0.000000 0.000000 0.000000 
0.000000 0.000000 0.000000 
0.000000 0.000000 0.000000 

-0.000000 -0.000000 0.000000 
0.000000 0.000000 0.000000 
0.000000 0.000000 0.000000 

-0.000000 0.000000 0.000000 
0.000000 0.000000 0.000000 
0.000000 0.000000 0.000000 

-0.000000 -0.000000 0.000000 
0.000000 0.000000 0.000000 
0.000000 0.000000 0.000000 

-0.000000 -0.000000 0.000000 
0.000000 -0.000000 0.000000 
0.000000 0.000000 0.000000 

0.000000 -0.000000 0.000000 
0.000000 -0.000000 0.000000 
0.000000 0.000000 0.000000 

0.000000 0.000000 0.000000 
0.000000 -0.000000 0.000000 
0.000000 0.000000 0.000000 

-0.000000 0.000000 0.000000 
0.000000 0.000000 0.000000 
0.000000 0.000000 0.000000 

-0.000000 0.000000 0.000000 
0.000000 0.000000 0.000000 
0.000000 0.000000 0.000000 

-0.000000 -0.000000 0.000000 
0.000000 0.000000 0.000000 
0.000000 0.000000 0.000000 

-0.000000 -0.000000 0.000000 
0.000000 0.000000 0.000000 
0.000000 0.000000 0.000000 

0.000000 -0.000000 0.000000 
0.000000 -0.000000 0.000000 
0.000000 0.000000 0.000000 

0.000000 0.000000 0.000000 
0.000000 -0.000000 0.000000 
0.000000 0.000000 0.000000 

0.000000 -0.000000 0.000000 
0.000000 0.000000 0.000000 
0.000000 0.000000 0.000000 

0.000000 0.000000 0.000000 
0.000000 -0.000000 0.000000 
0.000000 0.000000 0.000000 

-0.000000 0.000000 0.000000 
0.000000 0.000000 0.000000 
0.000000 0.000000 0.000000 

-0.000000 0.000000 0.000000 
0.000000 -0.000000 0.000000 
0.000000 0.000000 0.000000 

-0.000000 0.000000 0.000000 
0.000000 -0.000000 0.000000 
0.000000 0.000000 0.000000 

0.000000 -0.000000 0.000000 
0.000000 -0.000000 0.000000 
0.000000 0.000000 0.000000 

0.000000 0.000000 0.000000 
0.000000 0.000000 0.000000 
0.000000 0.000000 0.000000 

0.000000 0.000000 0.000000 
0.000000 -0.000000 0.000000 
0.000000 0.000000 0.000000 

0.000000 0.000000 0.000000 
0.000000 -0.000000 0.000000 
0.000000 0.000000 0.000000 

-0.000000 0.000000 0.000000 
0.000000 -0.000000 0.000000 
0.000000 0.000000 0.000000 

-0.000000 0.000000 0.000000 
0.000000 0.000000 0.000000 
0.000000 0.000000 0.000000 

-0.000000 0.000000 0.000000 
0.000000 0.000000 0.000000 
0.000000 0.000000 0.000000 

0.000000 0.000000 0.000000 
0.000000 0.000000 0.000000 
0.000000 0.000000 0.000000 

-0.000000 -0.000000 0.000000 
0.000000 0.000000 0.000000 
0.000000 0.000000 0.000000 

0.000000 0.000000 0.000000 
0.000000 0.000000 0.000000 
0.000000 0.000000 0.000000 

-0.000000 0.000000 0.000000 
0.000000 0.000000 0.000000 
0.000000 0.000000 0.000000 

-0.000000 0.000000 0.000000 
0.000000 0.000000 0.000000 
0.000000 0.000000 0.000000 

-0.000000 -0.000000 0.000000 
0.000000 0.000000 0.000000 
0.000000 0.000000 0.000000 

-0.000000 -0.000000 0.000000 
0.000000 0.000000 0.000000 
0.000000 0.000000 0.000000 

-0.000000 0.000000 0.000000 
0.000000 0.000000 0.000000 
0.000000 0.000000 0.000000 

-0.000000 -0.000000 0.000000 
0.000000 -0.000000 0.000000 
0.000000 0.000000 0.000000 

0.000000 -0.000000 0.000000 
0.000000 -0.000000 0.000000 
0.000000 0.000000 0.000000 

-0.000000 0.000000 0.000000 
0.000000 0.000000 0.000000 
0.000000 0.000000 0.000000 

-0.000000 -0.000000 0.000000 
0.000000 0.000000 0.000000 
0.000000 0.000000 0.000000 

-0.000000 0.000000 0.000000 
0.000000 0.000000 0.000000 
0.000000 0.000000 0.000000 

-0.000000 0.000000 0.000000 
0.000000 0.000000 0.000000 
0.000000 0.000000 0.000000 

-0.000000 0.000000 0.000000 
0.000000 0.000000 0.000000 
0.000000 0.000000 0.000000 

-0.000000 0.000000 0.000000 
0.000000 0.000000 0.000000 
0.000000 0.000000 0.000000 

-0.000000 0.000000 0.000000 
0.000000 0.000000 0.000000 
0.000000 0.000000 0.000000 

-0.000000 -0.000000 0.000000 
0.000000 0.000000 0.000000 
0.000000 0.000000 0.000000 

0.000000 -0.000000 0.000000 
0.000000 -0.000000 0.000000 
0.000000 0.000000 0.000000 

0.000000 0.000000 0.000000 
0.000000 0.000000 0.000000 
0.000000 0.000000 0.000000 

0.000000 0.000000 0.000000 
0.000000 -0.000000 0.000000 
0.000000 0.000000 0.000000 

0.000000 -0.000000 0.000000 
0.000000 0.000000 0.000000 
0.000000 0.000000 0.000000 

0.000000 -0.000000 0.000000 
0.000000 -0.000000 0.000000 
0.000000 0.000000 0.000000 

0.000000 -0.000000 0.000000 
0.000000 -0.000000 0.000000 
0.000000 0.000000 0.000000 

0.000000 -0.000000 0.000000 
0.000000 -0.000000 0.000000 
0.000000 0.000000 0.000000 

0.000000 0.000000 0.000000 
0.000000 -0.000000 0.000000 
0.000000 0.000000 0.000000 

-0.000000 0.000000 0.000000 
0.000000 0.000000 0.000000 
0.000000 0.000000 0.000000 

0.000000 0.000000 0.000000 
0.000000 -0.000000 0.000000 
0.000000 0.000000 0.000000 

0.000000 -0.000000 0.000000 
0.000000 -0.000000 0.000000 
0.000000 0.000000 0.000000 

-0.000000 0.000000 0.000000 
0.000000 0.000000 0.000000 
0.000000 0.000000 0.000000 

-0.000000 -0.000000 0.000000 
0.000000 -0.000000 0.000000 
0.000000 0.000000 0.000000 

-0.000000 -0.000000 0.000000 
0.000000 -0.000000 0.000000 
0.000000 0.000000 0.000000 

0.000000 -0.000000 0.000000 
0.000000 0.000000 0.000000 
0.000000 0.000000 0.000000 

0.000000 -0.000000 0.000000 
0.000000 -0.000000 0.000000 
0.000000 0.000000 0.000000 

-0.000000 0.000000 0.000000 
0.000000 0.000000 0.000000 
0.000000 0.000000 0.000000 

-0.000000 -0.000000 0.000000 
0.000000 0.000000 0.000000 
0.000000 0.000000 0.000000 

-0.000000 -0.000000 0.000000 
0.000000 -0.000000 0.000000 
0.000000 0.000000 0.000000 

-0.000000 -0.000000 0.000000 
0.000000 0.000000 0.000000 
0.000000 0.000000 0.000000 

-0.000000 -0.000000 0.000000 
0.000000 0.000000 0.000000 
0.000000 0.000000 0.000000 

-0.000000 -0.000000 0.000000 
0.000000 0.000000 0.000000 
0.000000 0.000000 0.000000 

0.000000 -0.000000 0.000000 
0.000000 0.000000 0.000000 
0.000000 0.000000 0.000000 

0.000000 0.000000 0.000000 
0.000000 -0.000000 0.000000 
0.000000 0.000000 0.000000 

0.000000 -0.000000 0.000000 
0.000000 0.000000 0.000000 
0.000000 0.000000 0.000000 

0.000000 -0.000000 0.000000 
0.000000 -0.000000 0.000000 
0.000000 0.000000 0.000000 

-0.000000 -0.000000 0.000000 
0.000000 0.000000 0.000000 
0.000000 0.000000 0.000000 

-0.000000 -0.000000 0.000000 
0.000000 0.000000 0.000000 
0.000000 0.000000 0.000000 

0.000000 -0.000000 0.000000 
0.000000 0.000000 0.000000 
0.000000 0.000000 0.000000 

0.000000 0.000000 0.000000 
0.000000 0.000000 0.000000 
0.000000 0.000000 0.000000 

0.000000 -0.000000 0.000000 
0.000000 0.000000 0.000000 
0.000000 0.000000 0.000000 

0.000000 -0.000000 0.000000 
0.000000 -0.000000 0.000000 
0.000000 0.000000 0.000000 

0.000000 -0.000000 0.000000 
0.000000 -0.000000 0.000000 
0.000000 0.000000 0.000000 

0.000000 -0.000000 0.000000 
0.000000 -0.000000 0.000000 
0.000000 0.000000 0.000000 

0.000000 -0.000000 0.000000 
0.000000 -0.000000 0.000000 
0.000000 0.000000 0.000000 

0.000000 0.000000 0.000000 
0.000000 -0.000000 0.000000 
0.000000 0.000000 0.000000 

0.000000 0.000000 0.000000 
0.000000 0.000000 0.000000 
0.000000 0.000000 0.000000 

0.000000 0.000000 0.000000 
0.000000 -0.000000 0.000000 
0.000000 0.000000 0.000000 

0.000000 0.000000 0.000000 
0.000000 -0.000000 0.000000 
0.000000 0.000000 0.000000 

0.000000 -0.000000 0.000000 
0.000000 -0.000000 0.000000 
0.000000 0.000000 0.000000 

0.000000 0.000000 0.000000 
0.000000 -0.000000 0.000000 
0.000000 0.000000 0.000000 

-0.000000 0.000000 0.000000 
0.000000 0.000000 0.000000 
0.000000 0.000000 0.000000 

-0.000000 0.000000 0.000000 
0.000000 0.000000 0.000000 
0.000000 0.000000 0.000000 

-0.000000 0.000000 0.000000 
0.000000 0.000000 0.000000 
0.000000 0.000000 0.000000 

0.000000 0.000000 0.000000 
0.000000 -0.000000 0.000000 
0.000000 0.000000 0.000000 

0.000000 0.000000 0.000000 
0.000000 -0.000000 0.000000 
0.000000 0.000000 0.000000 

0.000000 0.000000 0.000000 
0.000000 0.000000 0.000000 
0.000000 0.000000 0.000000 

0.000000 0.000000 0.000000 
0.000000 -0.000000 0.000000 
0.000000 0.000000 0.000000 

0.000000 0.000000 0.000000 
0.000000 0.000000 0.000000 
0.000000 0.000000 0.000000 

-0.000000 0.000000 0.000000 
0.000000 -0.000000 0.000000 
0.000000 0.000000 0.000000 

0.000000 -0.000000 0.000000 
0.000000 -0.000000 0.000000 
0.000000 0.000000 0.000000 

-0.000000 -0.000000 0.000000 
0.000000 0.000000 0.000000 
0.000000 0.000000 0.000000 

-0.000000 -0.000000 0.000000 
0.000000 -0.000000 0.000000 
0.000000 0.000000 0.000000 

-0.000000 -0.000000 0.000000 
0.000000 0.000000 0.000000 
0.000000 0.000000 0.000000 

-0.000000 -0.000000 0.000000 
0.000000 0.000000 0.000000 
0.000000 0.000000 0.000000 

-0.000000 -0.000000 0.000000 
0.000000 0.000000 0.000000 
0.000000 0.000000 0.000000 

0.000000 -0.000000 0.000000 
0.000000 -0.000000 0.000000 
0.000000 0.000000 0.000000 

-0.000000 -0.000000 0.000000 
0.000000 0.000000 0.000000 
0.000000 0.000000 0.000000 

0.000000 -0.000000 0.000000 
0.000000 0.000000 0.000000 
0.000000 0.000000 0.000000 

0.000000 -0.000000 0.000000 
0.000000 -0.000000 0.000000 
0.000000 0.000000 0.000000 

0.000000 -0.000000 0.000000 
0.000000 -0.000000 0.000000 
0.000000 0.000000 0.000000 

0.000000 -0.000000 0.000000 
0.000000 -0.000000 0.000000 
0.000000 0.000000 0.000000 

0.000000 0.000000 0.000000 
0.000000 -0.000000 0.000000 
0.000000 0.000000 0.000000 

0.000000 0.000000 0.000000 
0.000000 0.000000 0.000000 
0.000000 0.000000 0.000000 

0.000000 0.000000 0.000000 
0.000000 0.000000 0.000000 
0.000000 0.000000 0.000000 

0.000000 -0.000000 0.000000 
0.000000 -0.000000 0.000000 
0.000000 0.000000 0.000000 

0.000000 0.000000 0.000000 
0.000000 -0.000000 0.000000 
0.000000 0.000000 0.000000 

0.000000 -0.000000 0.000000 
0.000000 -0.000000 0.000000 
0.000000 0.000000 0.000000 

0.000000 0.000000 0.000000 
0.000000 -0.000000 0.000000 
0.000000 0.000000 0.000000 

0.000000 -0.000000 0.000000 
0.000000 -0.000000 0.000000 
0.000000 0.000000 0.000000 

0.000000 -0.000000 0.000000 
0.000000 -0.000000 0.000000 
0.000000 0.000000 0.000000 

0.000000 0.000000 0.000000 
0.000000 0.000000 0.000000 
0.000000 0.000000 0.000000 

0.000000 0.000000 0.000000 
0.000000 -0.000000 0.000000 
0.000000 0.000000 0.000000 

0.000000 0.000000 0.000000 
0.000000 -0.000000 0.000000 
0.000000 0.000000 0.000000 

-0.000000 -0.000000 0.000000 
0.000000 -0.000000 0.000000 
0.000000 0.000000 0.000000 

0.000000 -0.000000 0.000000 
0.000000 -0.000000 0.000000 
0.000000 0.000000 0.000000 

0.000000 0.000000 0.000000 
0.000000 -0.000000 0.000000 
0.000000 0.000000 0.000000 

0.000000 0.000000 0.000000 
0.000000 -0.000000 0.000000 
0.000000 0.000000 0.000000 

-0.000000 -0.000000 0.000000 
0.000000 -0.000000 0.000000 
0.000000 0.000000 0.000000 

0.000000 -0.000000 0.000000 
0.000000 -0.000000 0.000000 
0.000000 0.000000 0.000000 

0.000000 -0.000000 0.000000 
0.000000 -0.000000 0.000000 
0.000000 0.000000 0.000000 

-0.000000 -0.000000 0.000000 
0.000000 0.000000 0.000000 
0.000000 0.000000 0.000000 

-0.000000 0.000000 0.000000 
0.000000 0.000000 0.000000 
0.000000 0.000000 0.000000 

-0.000000 0.000000 0.000000 
0.000000 -0.000000 0.000000 
0.000000 0.000000 0.000000 

0.000000 0.000000 0.000000 
0.000000 -0.000000 0.000000 
0.000000 0.000000 0.000000 

0.000000 0.000000 0.000000 
0.000000 -0.000000 0.000000 
0.000000 0.000000 0.000000 

0.000000 -0.000000 0.000000 
0.000000 -0.000000 0.000000 
0.000000 0.000000 0.000000 

0.000000 0.000000 0.000000 
0.000000 -0.000000 0.000000 
0.000000 0.000000 0.000000 

0.000000 0.000000 0.000000 
0.000000 -0.000000 0.000000 
0.000000 0.000000 0.000000 

-0.000000 0.000000 0.000000 
0.000000 0.000000 0.000000 
0.000000 0.000000 0.000000 

0.000000 0.000000 0.000000 
0.000000 -0.000000 0.000000 
0.000000 0.000000 0.000000 

0.000000 0.000000 0.000000 
0.000000 -0.000000 0.000000 
0.000000 0.000000 0.000000 

0.000000 0.000000 0.000000 
0.000000 0.000000 0.000000 
0.000000 0.000000 0.000000 

0.000000 -0.000000 0.000000 
0.000000 0.000000 0.000000 
0.000000 0.000000 0.000000 

0.000000 -0.000000 0.000000 
0.000000 -0.000000 0.000000 
0.000000 0.000000 0.000000 

0.000000 -0.000000 0.000000 
0.000000 -0.000000 0.000000 
0.000000 0.000000 0.000000 

0.000000 -0.000000 0.000000 
0.000000 -0.000000 0.000000 
0.000000 0.000000 0.000000 

0.000000 0.000000 0.000000 
0.000000 -0.000000 0.000000 
0.000000 0.000000 0.000000 

0.000000 0.000000 0.000000 
0.000000 -0.000000 0.000000 
0.000000 0.000000 0.000000 

0.000000 0.000000 0.000000 
0.000000 -0.000000 0.000000 
0.000000 0.000000 0.000000 

