# vtk DataFile Version 3.0 
vtk output 
ASCII 
DATASET UNSTRUCTURED_GRID 
POINTS 175 float 
-0.026061 -2.015059 0.000000 
-0.106992 -1.947004 0.000000 
-0.054870 -1.955236 0.000000 
-0.028809 -1.909353 0.000000 
-0.186430 -1.882928 0.000000 
-0.137056 -1.885454 0.000000 
-0.114311 -1.831807 0.000000 
-0.058186 -1.847473 0.000000 
-0.029377 -1.807295 0.000000 
-0.265318 -1.819772 0.000000 
-0.217198 -1.820572 0.000000 
-0.196633 -1.763275 0.000000 
-0.143120 -1.771984 0.000000 
-0.116563 -1.724716 0.000000 
-0.058945 -1.744361 0.000000 
-0.029568 -1.706241 0.000000 
-0.344206 -1.756617 0.000000 
-0.296791 -1.756609 0.000000 
-0.278030 -1.696667 0.000000 
-0.225992 -1.702533 0.000000 
-0.201664 -1.650416 0.000000 
-0.145749 -1.663890 0.000000 
-0.117890 -1.619547 0.000000 
-0.059328 -1.642253 0.000000 
-0.029759 -1.605187 0.000000 
-0.058559 -2.055810 0.000000 
-0.162226 -2.076653 0.000000 
-0.123292 -2.041035 0.000000 
-0.142917 -1.992051 0.000000 
-0.261851 -2.098809 0.000000 
-0.229092 -2.061782 0.000000 
-0.256854 -2.010550 0.000000 
-0.209613 -1.976438 0.000000 
-0.223062 -1.928864 0.000000 
-0.360414 -2.121109 0.000000 
-0.329787 -2.083986 0.000000 
-0.361761 -2.032184 0.000000 
-0.321587 -1.995775 0.000000 
-0.341985 -1.945541 0.000000 
-0.290702 -1.912742 0.000000 
-0.302189 -1.866007 0.000000 
-0.458977 -2.143409 0.000000 
-0.429420 -2.106334 0.000000 
-0.464588 -2.054293 0.000000 
-0.427556 -2.017265 0.000000 
-0.453135 -1.965750 0.000000 
-0.407738 -1.930435 0.000000 
-0.425037 -1.881007 0.000000 
-0.370772 -1.849378 0.000000 
-0.381315 -1.803150 0.000000 
-0.046960 -2.106625 0.000000 
-0.095301 -2.200671 0.000000 
-0.098873 -2.148024 0.000000 
-0.149405 -2.132826 0.000000 
-0.140093 -2.292375 0.000000 
-0.148617 -2.243677 0.000000 
-0.205981 -2.233439 0.000000 
-0.203197 -2.175236 0.000000 
-0.248777 -2.156090 0.000000 
-0.184111 -2.383339 0.000000 
-0.194039 -2.336248 0.000000 
-0.254475 -2.328948 0.000000 
-0.257893 -2.274838 0.000000 
-0.309886 -2.259466 0.000000 
-0.303554 -2.198921 0.000000 
-0.347255 -2.178763 0.000000 
-0.228129 -2.474302 0.000000 
-0.238687 -2.428078 0.000000 
-0.301302 -2.423126 0.000000 
-0.307162 -2.371087 0.000000 
-0.363386 -2.358966 0.000000 
-0.362692 -2.301455 0.000000 
-0.412122 -2.284161 0.000000 
-0.403017 -2.222015 0.000000 
-0.445733 -2.201436 0.000000 
-0.000000 -2.129240 0.000000 
0.043388 -2.225671 0.000000 
-0.000000 -2.195638 0.000000 
-0.043388 -2.225671 0.000000 
0.087158 -2.317867 0.000000 
0.043769 -2.294169 0.000000 
-0.000000 -2.332634 0.000000 
-0.043769 -2.294169 0.000000 
-0.087158 -2.317867 0.000000 
0.130831 -2.408997 0.000000 
0.087824 -2.387398 0.000000 
0.044436 -2.430098 0.000000 
-0.000000 -2.399033 0.000000 
-0.044436 -2.430098 0.000000 
-0.087824 -2.387398 0.000000 
-0.130831 -2.408997 0.000000 
0.174505 -2.500127 0.000000 
0.131782 -2.479561 0.000000 
0.088871 -2.525427 0.000000 
0.044532 -2.497563 0.000000 
-0.000000 -2.533963 0.000000 
-0.044532 -2.497563 0.000000 
-0.088871 -2.525427 0.000000 
-0.131782 -2.479561 0.000000 
-0.174505 -2.500127 0.000000 
0.046960 -2.106625 0.000000 
0.149405 -2.132826 0.000000 
0.098873 -2.148024 0.000000 
0.095301 -2.200671 0.000000 
0.248777 -2.156090 0.000000 
0.203197 -2.175236 0.000000 
0.205981 -2.233439 0.000000 
0.148617 -2.243677 0.000000 
0.140093 -2.292375 0.000000 
0.347255 -2.178763 0.000000 
0.303554 -2.198921 0.000000 
0.309886 -2.259466 0.000000 
0.257893 -2.274838 0.000000 
0.254475 -2.328948 0.000000 
0.194039 -2.336248 0.000000 
0.184111 -2.383339 0.000000 
0.445733 -2.201436 0.000000 
0.403017 -2.222015 0.000000 
0.412122 -2.284161 0.000000 
0.362692 -2.301455 0.000000 
0.363386 -2.358966 0.000000 
0.307162 -2.371087 0.000000 
0.301302 -2.423126 0.000000 
0.238687 -2.428078 0.000000 
0.228129 -2.474302 0.000000 
0.058559 -2.055810 0.000000 
0.142917 -1.992051 0.000000 
0.123292 -2.041035 0.000000 
0.162226 -2.076653 0.000000 
0.223062 -1.928864 0.000000 
0.209613 -1.976438 0.000000 
0.256854 -2.010550 0.000000 
0.229092 -2.061782 0.000000 
0.261851 -2.098809 0.000000 
0.302189 -1.866007 0.000000 
0.290702 -1.912742 0.000000 
0.341985 -1.945541 0.000000 
0.321587 -1.995775 0.000000 
0.361761 -2.032184 0.000000 
0.329787 -2.083986 0.000000 
0.360414 -2.121109 0.000000 
0.381315 -1.803150 0.000000 
0.370772 -1.849378 0.000000 
0.425037 -1.881007 0.000000 
0.407738 -1.930435 0.000000 
0.453135 -1.965750 0.000000 
0.427556 -2.017265 0.000000 
0.464588 -2.054293 0.000000 
0.429420 -2.106334 0.000000 
0.458977 -2.143409 0.000000 
0.026061 -2.015059 0.000000 
0.028809 -1.909353 0.000000 
0.054870 -1.955236 0.000000 
0.106992 -1.947004 0.000000 
0.029377 -1.807295 0.000000 
0.058186 -1.847473 0.000000 
0.114311 -1.831807 0.000000 
0.137056 -1.885454 0.000000 
0.186430 -1.882928 0.000000 
0.029568 -1.706241 0.000000 
0.058945 -1.744361 0.000000 
0.116563 -1.724716 0.000000 
0.143120 -1.771984 0.000000 
0.196633 -1.763275 0.000000 
0.217198 -1.820572 0.000000 
0.265318 -1.819772 0.000000 
0.029759 -1.605187 0.000000 
0.059328 -1.642253 0.000000 
0.117890 -1.619547 0.000000 
0.145749 -1.663890 0.000000 
0.201664 -1.650416 0.000000 
0.225992 -1.702533 0.000000 
0.278030 -1.696667 0.000000 
0.296791 -1.756609 0.000000 
0.344206 -1.756617 0.000000 
CELLS 175 350 
1 0 
1 1 
1 2 
1 3 
1 4 
1 5 
1 6 
1 7 
1 8 
1 9 
1 10 
1 11 
1 12 
1 13 
1 14 
1 15 
1 16 
1 17 
1 18 
1 19 
1 20 
1 21 
1 22 
1 23 
1 24 
1 25 
1 26 
1 27 
1 28 
1 29 
1 30 
1 31 
1 32 
1 33 
1 34 
1 35 
1 36 
1 37 
1 38 
1 39 
1 40 
1 41 
1 42 
1 43 
1 44 
1 45 
1 46 
1 47 
1 48 
1 49 
1 50 
1 51 
1 52 
1 53 
1 54 
1 55 
1 56 
1 57 
1 58 
1 59 
1 60 
1 61 
1 62 
1 63 
1 64 
1 65 
1 66 
1 67 
1 68 
1 69 
1 70 
1 71 
1 72 
1 73 
1 74 
1 75 
1 76 
1 77 
1 78 
1 79 
1 80 
1 81 
1 82 
1 83 
1 84 
1 85 
1 86 
1 87 
1 88 
1 89 
1 90 
1 91 
1 92 
1 93 
1 94 
1 95 
1 96 
1 97 
1 98 
1 99 
1 100 
1 101 
1 102 
1 103 
1 104 
1 105 
1 106 
1 107 
1 108 
1 109 
1 110 
1 111 
1 112 
1 113 
1 114 
1 115 
1 116 
1 117 
1 118 
1 119 
1 120 
1 121 
1 122 
1 123 
1 124 
1 125 
1 126 
1 127 
1 128 
1 129 
1 130 
1 131 
1 132 
1 133 
1 134 
1 135 
1 136 
1 137 
1 138 
1 139 
1 140 
1 141 
1 142 
1 143 
1 144 
1 145 
1 146 
1 147 
1 148 
1 149 
1 150 
1 151 
1 152 
1 153 
1 154 
1 155 
1 156 
1 157 
1 158 
1 159 
1 160 
1 161 
1 162 
1 163 
1 164 
1 165 
1 166 
1 167 
1 168 
1 169 
1 170 
1 171 
1 172 
1 173 
1 174 
CELL_TYPES 175 
1 
1 
1 
1 
1 
1 
1 
1 
1 
1 
1 
1 
1 
1 
1 
1 
1 
1 
1 
1 
1 
1 
1 
1 
1 
1 
1 
1 
1 
1 
1 
1 
1 
1 
1 
1 
1 
1 
1 
1 
1 
1 
1 
1 
1 
1 
1 
1 
1 
1 
1 
1 
1 
1 
1 
1 
1 
1 
1 
1 
1 
1 
1 
1 
1 
1 
1 
1 
1 
1 
1 
1 
1 
1 
1 
1 
1 
1 
1 
1 
1 
1 
1 
1 
1 
1 
1 
1 
1 
1 
1 
1 
1 
1 
1 
1 
1 
1 
1 
1 
1 
1 
1 
1 
1 
1 
1 
1 
1 
1 
1 
1 
1 
1 
1 
1 
1 
1 
1 
1 
1 
1 
1 
1 
1 
1 
1 
1 
1 
1 
1 
1 
1 
1 
1 
1 
1 
1 
1 
1 
1 
1 
1 
1 
1 
1 
1 
1 
1 
1 
1 
1 
1 
1 
1 
1 
1 
1 
1 
1 
1 
1 
1 
1 
1 
1 
1 
1 
1 
1 
1 
1 
1 
1 
1 
POINT_DATA 175 
VECTORS X_GC float 
-0.026061 -2.015059 0.000000 
-0.106992 -1.947004 0.000000 
-0.054870 -1.955236 0.000000 
-0.028809 -1.909353 0.000000 
-0.186430 -1.882928 0.000000 
-0.137056 -1.885454 0.000000 
-0.114311 -1.831807 0.000000 
-0.058186 -1.847473 0.000000 
-0.029377 -1.807295 0.000000 
-0.265318 -1.819772 0.000000 
-0.217198 -1.820572 0.000000 
-0.196633 -1.763275 0.000000 
-0.143120 -1.771984 0.000000 
-0.116563 -1.724716 0.000000 
-0.058945 -1.744361 0.000000 
-0.029568 -1.706241 0.000000 
-0.344206 -1.756617 0.000000 
-0.296791 -1.756609 0.000000 
-0.278030 -1.696667 0.000000 
-0.225992 -1.702533 0.000000 
-0.201664 -1.650416 0.000000 
-0.145749 -1.663890 0.000000 
-0.117890 -1.619547 0.000000 
-0.059328 -1.642253 0.000000 
-0.029759 -1.605187 0.000000 
-0.058559 -2.055810 0.000000 
-0.162226 -2.076653 0.000000 
-0.123292 -2.041035 0.000000 
-0.142917 -1.992051 0.000000 
-0.261851 -2.098809 0.000000 
-0.229092 -2.061782 0.000000 
-0.256854 -2.010550 0.000000 
-0.209613 -1.976438 0.000000 
-0.223062 -1.928864 0.000000 
-0.360414 -2.121109 0.000000 
-0.329787 -2.083986 0.000000 
-0.361761 -2.032184 0.000000 
-0.321587 -1.995775 0.000000 
-0.341985 -1.945541 0.000000 
-0.290702 -1.912742 0.000000 
-0.302189 -1.866007 0.000000 
-0.458977 -2.143409 0.000000 
-0.429420 -2.106334 0.000000 
-0.464588 -2.054293 0.000000 
-0.427556 -2.017265 0.000000 
-0.453135 -1.965750 0.000000 
-0.407738 -1.930435 0.000000 
-0.425037 -1.881007 0.000000 
-0.370772 -1.849378 0.000000 
-0.381315 -1.803150 0.000000 
-0.046960 -2.106625 0.000000 
-0.095301 -2.200671 0.000000 
-0.098873 -2.148024 0.000000 
-0.149405 -2.132826 0.000000 
-0.140093 -2.292375 0.000000 
-0.148617 -2.243677 0.000000 
-0.205981 -2.233439 0.000000 
-0.203197 -2.175236 0.000000 
-0.248777 -2.156090 0.000000 
-0.184111 -2.383339 0.000000 
-0.194039 -2.336248 0.000000 
-0.254475 -2.328948 0.000000 
-0.257893 -2.274838 0.000000 
-0.309886 -2.259466 0.000000 
-0.303554 -2.198921 0.000000 
-0.347255 -2.178763 0.000000 
-0.228129 -2.474302 0.000000 
-0.238687 -2.428078 0.000000 
-0.301302 -2.423126 0.000000 
-0.307162 -2.371087 0.000000 
-0.363386 -2.358966 0.000000 
-0.362692 -2.301455 0.000000 
-0.412122 -2.284161 0.000000 
-0.403017 -2.222015 0.000000 
-0.445733 -2.201436 0.000000 
-0.000000 -2.129240 0.000000 
0.043388 -2.225671 0.000000 
-0.000000 -2.195638 0.000000 
-0.043388 -2.225671 0.000000 
0.087158 -2.317867 0.000000 
0.043769 -2.294169 0.000000 
-0.000000 -2.332634 0.000000 
-0.043769 -2.294169 0.000000 
-0.087158 -2.317867 0.000000 
0.130831 -2.408997 0.000000 
0.087824 -2.387398 0.000000 
0.044436 -2.430098 0.000000 
-0.000000 -2.399033 0.000000 
-0.044436 -2.430098 0.000000 
-0.087824 -2.387398 0.000000 
-0.130831 -2.408997 0.000000 
0.174505 -2.500127 0.000000 
0.131782 -2.479561 0.000000 
0.088871 -2.525427 0.000000 
0.044532 -2.497563 0.000000 
-0.000000 -2.533963 0.000000 
-0.044532 -2.497563 0.000000 
-0.088871 -2.525427 0.000000 
-0.131782 -2.479561 0.000000 
-0.174505 -2.500127 0.000000 
0.046960 -2.106625 0.000000 
0.149405 -2.132826 0.000000 
0.098873 -2.148024 0.000000 
0.095301 -2.200671 0.000000 
0.248777 -2.156090 0.000000 
0.203197 -2.175236 0.000000 
0.205981 -2.233439 0.000000 
0.148617 -2.243677 0.000000 
0.140093 -2.292375 0.000000 
0.347255 -2.178763 0.000000 
0.303554 -2.198921 0.000000 
0.309886 -2.259466 0.000000 
0.257893 -2.274838 0.000000 
0.254475 -2.328948 0.000000 
0.194039 -2.336248 0.000000 
0.184111 -2.383339 0.000000 
0.445733 -2.201436 0.000000 
0.403017 -2.222015 0.000000 
0.412122 -2.284161 0.000000 
0.362692 -2.301455 0.000000 
0.363386 -2.358966 0.000000 
0.307162 -2.371087 0.000000 
0.301302 -2.423126 0.000000 
0.238687 -2.428078 0.000000 
0.228129 -2.474302 0.000000 
0.058559 -2.055810 0.000000 
0.142917 -1.992051 0.000000 
0.123292 -2.041035 0.000000 
0.162226 -2.076653 0.000000 
0.223062 -1.928864 0.000000 
0.209613 -1.976438 0.000000 
0.256854 -2.010550 0.000000 
0.229092 -2.061782 0.000000 
0.261851 -2.098809 0.000000 
0.302189 -1.866007 0.000000 
0.290702 -1.912742 0.000000 
0.341985 -1.945541 0.000000 
0.321587 -1.995775 0.000000 
0.361761 -2.032184 0.000000 
0.329787 -2.083986 0.000000 
0.360414 -2.121109 0.000000 
0.381315 -1.803150 0.000000 
0.370772 -1.849378 0.000000 
0.425037 -1.881007 0.000000 
0.407738 -1.930435 0.000000 
0.453135 -1.965750 0.000000 
0.427556 -2.017265 0.000000 
0.464588 -2.054293 0.000000 
0.429420 -2.106334 0.000000 
0.458977 -2.143409 0.000000 
0.026061 -2.015059 0.000000 
0.028809 -1.909353 0.000000 
0.054870 -1.955236 0.000000 
0.106992 -1.947004 0.000000 
0.029377 -1.807295 0.000000 
0.058186 -1.847473 0.000000 
0.114311 -1.831807 0.000000 
0.137056 -1.885454 0.000000 
0.186430 -1.882928 0.000000 
0.029568 -1.706241 0.000000 
0.058945 -1.744361 0.000000 
0.116563 -1.724716 0.000000 
0.143120 -1.771984 0.000000 
0.196633 -1.763275 0.000000 
0.217198 -1.820572 0.000000 
0.265318 -1.819772 0.000000 
0.029759 -1.605187 0.000000 
0.059328 -1.642253 0.000000 
0.117890 -1.619547 0.000000 
0.145749 -1.663890 0.000000 
0.201664 -1.650416 0.000000 
0.225992 -1.702533 0.000000 
0.278030 -1.696667 0.000000 
0.296791 -1.756609 0.000000 
0.344206 -1.756617 0.000000 
VECTORS X_EC float 
0.338794 -0.296702 0.000000 
-0.609100 0.784549 0.000000 
0.713312 0.895690 0.000000 
0.374519 0.276261 0.000000 
0.423588 -0.080470 0.000000 
-0.218274 -0.046366 0.000000 
-0.513962 -0.770605 0.000000 
0.756418 -0.559119 0.000000 
0.381900 0.898489 0.000000 
-0.550868 -0.933073 0.000000 
0.823577 -0.922277 0.000000 
0.556234 0.304218 0.000000 
-0.139443 0.421787 0.000000 
-0.484677 -0.216337 0.000000 
0.766286 0.048878 0.000000 
0.384386 -0.465742 0.000000 
0.474677 0.214324 0.000000 
-0.141715 0.214227 0.000000 
-0.385608 -0.595001 0.000000 
0.937896 -0.515805 0.000000 
0.621631 0.780615 0.000000 
-0.105264 0.962514 0.000000 
-0.467428 0.363888 0.000000 
0.771260 0.670416 0.000000 
0.386873 0.170027 0.000000 
0.761262 0.253432 0.000000 
0.108942 0.534809 0.000000 
-0.397202 0.053970 0.000000 
-0.142083 -0.607306 0.000000 
-0.595936 0.833920 0.000000 
0.978194 0.334054 0.000000 
-0.660903 -0.357571 0.000000 
0.724964 -0.818091 0.000000 
0.899809 0.539660 0.000000 
0.685384 -0.865028 0.000000 
0.287229 0.633813 0.000000 
0.702895 -0.065515 0.000000 
0.180633 -0.557034 0.000000 
0.445811 0.764807 0.000000 
-0.220880 0.322021 0.000000 
-0.071546 -0.308905 0.000000 
-0.033296 -0.563976 0.000000 
-0.417537 0.935514 0.000000 
0.039645 0.232952 0.000000 
-0.441768 -0.266919 0.000000 
-0.109248 -0.962370 0.000000 
-0.699407 0.560874 0.000000 
-0.474522 -0.106405 0.000000 
0.820030 -0.533398 0.000000 
0.957100 0.842530 0.000000 
0.610485 0.939439 0.000000 
-0.761092 0.209058 0.000000 
-0.714655 -0.501679 0.000000 
-0.057734 -0.706847 0.000000 
-0.178789 -0.552938 0.000000 
-0.067979 0.789636 0.000000 
0.677748 0.651433 0.000000 
0.641556 -0.134313 0.000000 
-0.765897 -0.392791 0.000000 
0.393446 0.675071 0.000000 
0.522510 0.039341 0.000000 
-0.691820 -0.059203 0.000000 
-0.647393 -0.789686 0.000000 
0.028512 -0.997212 0.000000 
-0.053800 0.185428 0.000000 
0.514316 -0.086703 0.000000 
0.965681 -0.096920 0.000000 
-0.897068 -0.720948 0.000000 
-0.083078 -0.787801 0.000000 
-0.006893 0.509674 0.000000 
0.724017 0.346041 0.000000 
0.714996 -0.430362 0.000000 
-0.642413 -0.663820 0.000000 
-0.760780 0.497200 0.000000 
-0.205471 0.219384 0.000000 
0.000000 -0.755260 0.000000 
-0.564049 0.546553 0.000000 
0.000000 0.141117 0.000000 
0.564049 0.546553 0.000000 
0.866949 -0.208792 0.000000 
-0.569003 -0.528723 0.000000 
0.000000 -0.009435 0.000000 
0.569003 -0.528723 0.000000 
-0.866949 -0.208792 0.000000 
0.299194 -0.978542 0.000000 
0.858290 0.729875 0.000000 
-0.577662 -0.693680 0.000000 
0.000000 0.886942 0.000000 
0.577662 -0.693680 0.000000 
-0.858290 0.729875 0.000000 
-0.299194 -0.978542 0.000000 
-0.268560 0.251709 0.000000 
0.286830 -0.025933 0.000000 
0.844677 0.593265 0.000000 
-0.578910 0.217102 0.000000 
0.000000 0.708506 0.000000 
0.578910 0.217102 0.000000 
-0.844677 0.593265 0.000000 
-0.286830 -0.025933 0.000000 
0.268560 0.251709 0.000000 
-0.610485 0.939439 0.000000 
0.057734 -0.706847 0.000000 
0.714655 -0.501679 0.000000 
0.761092 0.209058 0.000000 
0.765897 -0.392791 0.000000 
-0.641556 -0.134313 0.000000 
-0.677748 0.651433 0.000000 
0.067979 0.789636 0.000000 
0.178789 -0.552938 0.000000 
-0.514316 -0.086703 0.000000 
0.053800 0.185428 0.000000 
-0.028512 -0.997212 0.000000 
0.647393 -0.789685 0.000000 
0.691820 -0.059203 0.000000 
-0.522510 0.039341 0.000000 
-0.393446 0.675071 0.000000 
0.205471 0.219384 0.000000 
0.760780 0.497200 0.000000 
0.642413 -0.663820 0.000000 
-0.714996 -0.430362 0.000000 
-0.724017 0.346041 0.000000 
0.006894 0.509674 0.000000 
0.083078 -0.787801 0.000000 
0.897068 -0.720948 0.000000 
-0.965681 -0.096920 0.000000 
-0.761262 0.253432 0.000000 
0.142083 -0.607306 0.000000 
0.397202 0.053970 0.000000 
-0.108942 0.534809 0.000000 
-0.899809 0.539660 0.000000 
-0.724964 -0.818091 0.000000 
0.660903 -0.357571 0.000000 
-0.978194 0.334054 0.000000 
0.595936 0.833920 0.000000 
0.071546 -0.308905 0.000000 
0.220880 0.322021 0.000000 
-0.445811 0.764807 0.000000 
-0.180633 -0.557034 0.000000 
-0.702895 -0.065515 0.000000 
-0.287229 0.633813 0.000000 
-0.685384 -0.865028 0.000000 
-0.957100 0.842530 0.000000 
-0.820030 -0.533398 0.000000 
0.474522 -0.106405 0.000000 
0.699407 0.560875 0.000000 
0.109248 -0.962370 0.000000 
0.441768 -0.266919 0.000000 
-0.039645 0.232952 0.000000 
0.417537 0.935514 0.000000 
0.033296 -0.563976 0.000000 
-0.338794 -0.296702 0.000000 
-0.374519 0.276261 0.000000 
-0.713312 0.895690 0.000000 
0.609100 0.784549 0.000000 
-0.381900 0.898489 0.000000 
-0.756418 -0.559119 0.000000 
0.513962 -0.770605 0.000000 
0.218274 -0.046366 0.000000 
-0.423588 -0.080470 0.000000 
-0.384386 -0.465742 0.000000 
-0.766286 0.048878 0.000000 
0.484677 -0.216337 0.000000 
0.139443 0.421787 0.000000 
-0.556234 0.304218 0.000000 
-0.823577 -0.922277 0.000000 
0.550868 -0.933073 0.000000 
-0.386873 0.170027 0.000000 
-0.771260 0.670416 0.000000 
0.467428 0.363888 0.000000 
0.105264 0.962514 0.000000 
-0.621631 0.780615 0.000000 
-0.937896 -0.515805 0.000000 
0.385608 -0.595001 0.000000 
0.141715 0.214227 0.000000 
-0.474677 0.214324 0.000000 
CELL_DATA 175 
SCALARS MASS float 
LOOKUP_TABLE default 
0.781831 
0.864274 
0.946717 
0.864274 
0.881307 
0.921110 
0.858535 
0.921110 
0.881307 
0.887046 
0.910001 
0.869829 
0.915556 
0.869829 
0.910001 
0.887046 
0.892784 
0.915740 
0.892784 
0.927218 
0.892784 
0.927218 
0.892784 
0.915740 
0.892784 
0.781831 
0.864274 
0.946717 
0.864274 
0.881307 
0.921110 
0.858535 
0.921110 
0.881307 
0.887046 
0.910001 
0.869829 
0.915556 
0.869829 
0.910001 
0.887046 
0.892784 
0.915740 
0.892784 
0.927218 
0.892784 
0.927218 
0.892784 
0.915740 
0.892784 
0.781831 
0.864274 
0.946717 
0.864274 
0.881307 
0.921110 
0.858535 
0.921110 
0.881307 
0.887046 
0.910001 
0.869829 
0.915556 
0.869829 
0.910001 
0.887046 
0.892784 
0.915740 
0.892784 
0.927218 
0.892784 
0.927218 
0.892784 
0.915740 
0.892784 
0.781831 
0.864274 
0.946717 
0.864274 
0.881307 
0.921110 
0.858535 
0.921110 
0.881307 
0.887046 
0.910001 
0.869829 
0.915556 
0.869829 
0.910001 
0.887046 
0.892784 
0.915740 
0.892784 
0.927218 
0.892784 
0.927218 
0.892784 
0.915740 
0.892784 
0.781831 
0.864274 
0.946717 
0.864274 
0.881307 
0.921110 
0.858535 
0.921110 
0.881307 
0.887046 
0.910001 
0.869829 
0.915556 
0.869829 
0.910001 
0.887046 
0.892784 
0.915740 
0.892784 
0.927218 
0.892784 
0.927218 
0.892784 
0.915740 
0.892784 
0.781831 
0.864274 
0.946717 
0.864274 
0.881307 
0.921110 
0.858535 
0.921110 
0.881307 
0.887046 
0.910001 
0.869829 
0.915556 
0.869829 
0.910001 
0.887046 
0.892784 
0.915740 
0.892784 
0.927218 
0.892784 
0.927218 
0.892784 
0.915740 
0.892784 
0.781831 
0.864274 
0.946717 
0.864274 
0.881307 
0.921110 
0.858535 
0.921110 
0.881307 
0.887046 
0.910001 
0.869829 
0.915556 
0.869829 
0.910001 
0.887046 
0.892784 
0.915740 
0.892784 
0.927218 
0.892784 
0.927218 
0.892784 
0.915740 
0.892784 
SCALARS MASS float 
LOOKUP_TABLE default 
0.781831 
0.864274 
0.946717 
0.864274 
0.881307 
0.921110 
0.858535 
0.921110 
0.881307 
0.887046 
0.910001 
0.869829 
0.915556 
0.869829 
0.910001 
0.887046 
0.892784 
0.915740 
0.892784 
0.927218 
0.892784 
0.927218 
0.892784 
0.915740 
0.892784 
0.781831 
0.864274 
0.946717 
0.864274 
0.881307 
0.921110 
0.858535 
0.921110 
0.881307 
0.887046 
0.910001 
0.869829 
0.915556 
0.869829 
0.910001 
0.887046 
0.892784 
0.915740 
0.892784 
0.927218 
0.892784 
0.927218 
0.892784 
0.915740 
0.892784 
0.781831 
0.864274 
0.946717 
0.864274 
0.881307 
0.921110 
0.858535 
0.921110 
0.881307 
0.887046 
0.910001 
0.869829 
0.915556 
0.869829 
0.910001 
0.887046 
0.892784 
0.915740 
0.892784 
0.927218 
0.892784 
0.927218 
0.892784 
0.915740 
0.892784 
0.781831 
0.864274 
0.946717 
0.864274 
0.881307 
0.921110 
0.858535 
0.921110 
0.881307 
0.887046 
0.910001 
0.869829 
0.915556 
0.869829 
0.910001 
0.887046 
0.892784 
0.915740 
0.892784 
0.927218 
0.892784 
0.927218 
0.892784 
0.915740 
0.892784 
0.781831 
0.864274 
0.946717 
0.864274 
0.881307 
0.921110 
0.858535 
0.921110 
0.881307 
0.887046 
0.910001 
0.869829 
0.915556 
0.869829 
0.910001 
0.887046 
0.892784 
0.915740 
0.892784 
0.927218 
0.892784 
0.927218 
0.892784 
0.915740 
0.892784 
0.781831 
0.864274 
0.946717 
0.864274 
0.881307 
0.921110 
0.858535 
0.921110 
0.881307 
0.887046 
0.910001 
0.869829 
0.915556 
0.869829 
0.910001 
0.887046 
0.892784 
0.915740 
0.892784 
0.927218 
0.892784 
0.927218 
0.892784 
0.915740 
0.892784 
0.781831 
0.864274 
0.946717 
0.864274 
0.881307 
0.921110 
0.858535 
0.921110 
0.881307 
0.887046 
0.910001 
0.869829 
0.915556 
0.869829 
0.910001 
0.887046 
0.892784 
0.915740 
0.892784 
0.927218 
0.892784 
0.927218 
0.892784 
0.915740 
0.892784 
SCALARS DENSITY float 
LOOKUP_TABLE default 
200.000000 
200.000000 
200.000000 
200.000000 
200.000000 
200.000000 
200.000000 
200.000000 
200.000000 
200.000000 
200.000000 
200.000000 
200.000000 
200.000000 
200.000000 
200.000000 
200.000000 
200.000000 
200.000000 
200.000000 
200.000000 
200.000000 
200.000000 
200.000000 
200.000000 
200.000000 
200.000000 
200.000000 
200.000000 
200.000000 
200.000000 
200.000000 
200.000000 
200.000000 
200.000000 
200.000000 
200.000000 
200.000000 
200.000000 
200.000000 
200.000000 
200.000000 
200.000000 
200.000000 
200.000000 
200.000000 
200.000000 
200.000000 
200.000000 
200.000000 
200.000000 
200.000000 
200.000000 
200.000000 
200.000000 
200.000000 
200.000000 
200.000000 
200.000000 
200.000000 
200.000000 
200.000000 
200.000000 
200.000000 
200.000000 
200.000000 
200.000000 
200.000000 
200.000000 
200.000000 
200.000000 
200.000000 
200.000000 
200.000000 
200.000000 
200.000000 
200.000000 
200.000000 
200.000000 
200.000000 
200.000000 
200.000000 
200.000000 
200.000000 
200.000000 
200.000000 
200.000000 
200.000000 
200.000000 
200.000000 
200.000000 
200.000000 
200.000000 
200.000000 
200.000000 
200.000000 
200.000000 
200.000000 
200.000000 
200.000000 
200.000000 
200.000000 
200.000000 
200.000000 
200.000000 
200.000000 
200.000000 
200.000000 
200.000000 
200.000000 
200.000000 
200.000000 
200.000000 
200.000000 
200.000000 
200.000000 
200.000000 
200.000000 
200.000000 
200.000000 
200.000000 
200.000000 
200.000000 
200.000000 
200.000000 
200.000000 
200.000000 
200.000000 
200.000000 
200.000000 
200.000000 
200.000000 
200.000000 
200.000000 
200.000000 
200.000000 
200.000000 
200.000000 
200.000000 
200.000000 
200.000000 
200.000000 
200.000000 
200.000000 
200.000000 
200.000000 
200.000000 
200.000000 
200.000000 
200.000000 
200.000000 
200.000000 
200.000000 
200.000000 
200.000000 
200.000000 
200.000000 
200.000000 
200.000000 
200.000000 
200.000000 
200.000000 
200.000000 
200.000000 
200.000000 
200.000000 
200.000000 
200.000000 
200.000000 
200.000000 
200.000000 
200.000000 
200.000000 
200.000000 
200.000000 
SCALARS ELEM_i float 
LOOKUP_TABLE default 
168 
196 
169 
169 
196 
196 
196 
169 
170 
223 
196 
197 
197 
197 
170 
170 
224 
224 
224 
197 
198 
198 
198 
171 
171 
168 
195 
195 
195 
222 
195 
222 
195 
196 
221 
222 
222 
222 
223 
223 
223 
248 
249 
249 
249 
249 
250 
250 
223 
224 
168 
194 
194 
194 
193 
194 
194 
194 
221 
193 
193 
220 
220 
220 
221 
221 
192 
219 
219 
220 
220 
220 
247 
248 
248 
167 
167 
167 
167 
139 
166 
166 
166 
193 
138 
139 
165 
166 
165 
193 
192 
138 
138 
138 
165 
165 
165 
192 
192 
192 
168 
140 
140 
140 
113 
140 
140 
140 
139 
113 
113 
112 
112 
112 
139 
139 
86 
86 
85 
112 
112 
112 
111 
111 
138 
168 
141 
141 
141 
142 
141 
114 
141 
114 
115 
115 
115 
114 
114 
114 
113 
116 
115 
88 
88 
87 
87 
87 
87 
86 
168 
169 
169 
142 
170 
169 
142 
142 
142 
170 
170 
143 
143 
143 
142 
115 
171 
171 
144 
144 
144 
143 
116 
116 
116 
VECTORS VELOCITY float 
-0.000000 -6.370614 0.000000 
0.000000 -6.370614 0.000000 
-0.000000 -6.370614 0.000000 
-0.000000 -6.370614 0.000000 
-0.000000 -6.370614 0.000000 
0.000000 -6.370614 0.000000 
0.000000 -6.370614 0.000000 
0.000000 -6.370614 0.000000 
0.000000 -6.370614 0.000000 
0.000000 -6.370614 0.000000 
0.000000 -6.370614 0.000000 
0.000000 -6.370614 0.000000 
0.000000 -6.370614 0.000000 
0.000000 -6.370614 0.000000 
-0.000000 -6.370614 0.000000 
0.000000 -6.370614 0.000000 
0.000000 -6.370614 0.000000 
0.000000 -6.370614 0.000000 
0.000000 -6.370614 0.000000 
0.000000 -6.370614 0.000000 
0.000000 -6.370614 0.000000 
0.000000 -6.370614 0.000000 
-0.000000 -6.370614 0.000000 
0.000000 -6.370614 0.000000 
0.000000 -6.370614 0.000000 
-0.000000 -6.370614 0.000000 
0.000000 -6.370614 0.000000 
0.000000 -6.370614 0.000000 
0.000000 -6.370614 0.000000 
0.000000 -6.370614 0.000000 
0.000000 -6.370614 0.000000 
0.000000 -6.370614 0.000000 
0.000000 -6.370614 0.000000 
-0.000000 -6.370614 0.000000 
-0.000000 -6.370614 0.000000 
-0.000000 -6.370614 0.000000 
-0.000000 -6.370614 0.000000 
-0.000000 -6.370614 0.000000 
-0.000000 -6.370614 0.000000 
-0.000000 -6.370614 0.000000 
0.000000 -6.370614 0.000000 
-0.000000 -6.370614 0.000000 
-0.000000 -6.370614 0.000000 
-0.000000 -6.370614 0.000000 
-0.000000 -6.370614 0.000000 
0.000000 -6.370614 0.000000 
0.000000 -6.370614 0.000000 
0.000000 -6.370614 0.000000 
0.000000 -6.370614 0.000000 
0.000000 -6.370614 0.000000 
-0.000000 -6.370614 0.000000 
-0.000000 -6.370614 0.000000 
-0.000000 -6.370614 0.000000 
-0.000000 -6.370614 0.000000 
0.000000 -6.370614 0.000000 
0.000000 -6.370614 0.000000 
-0.000000 -6.370614 0.000000 
-0.000000 -6.370614 0.000000 
0.000000 -6.370614 0.000000 
0.000000 -6.370614 0.000000 
0.000000 -6.370614 0.000000 
0.000000 -6.370614 0.000000 
-0.000000 -6.370614 0.000000 
-0.000000 -6.370614 0.000000 
-0.000000 -6.370614 0.000000 
-0.000000 -6.370614 0.000000 
-0.000000 -6.370614 0.000000 
0.000000 -6.370614 0.000000 
-0.000000 -6.370614 0.000000 
0.000000 -6.370614 0.000000 
-0.000000 -6.370614 0.000000 
-0.000000 -6.370614 0.000000 
-0.000000 -6.370614 0.000000 
-0.000000 -6.370614 0.000000 
-0.000000 -6.370614 0.000000 
0.000000 -6.370614 0.000000 
0.000000 -6.370614 0.000000 
0.000000 -6.370614 0.000000 
0.000000 -6.370614 0.000000 
-0.000000 -6.370614 0.000000 
-0.000000 -6.370614 0.000000 
-0.000000 -6.370614 0.000000 
0.000000 -6.370614 0.000000 
0.000000 -6.370614 0.000000 
-0.000000 -6.370614 0.000000 
-0.000000 -6.370614 0.000000 
-0.000000 -6.370614 0.000000 
-0.000000 -6.370614 0.000000 
-0.000000 -6.370614 0.000000 
-0.000000 -6.370614 0.000000 
0.000000 -6.370614 0.000000 
-0.000000 -6.370614 0.000000 
-0.000000 -6.370614 0.000000 
0.000000 -6.370614 0.000000 
0.000000 -6.370614 0.000000 
-0.000000 -6.370614 0.000000 
-0.000000 -6.370614 0.000000 
-0.000000 -6.370614 0.000000 
-0.000000 -6.370614 0.000000 
-0.000000 -6.370614 0.000000 
0.000000 -6.370614 0.000000 
0.000000 -6.370614 0.000000 
0.000000 -6.370614 0.000000 
0.000000 -6.370614 0.000000 
-0.000000 -6.370614 0.000000 
-0.000000 -6.370614 0.000000 
-0.000000 -6.370614 0.000000 
-0.000000 -6.370614 0.000000 
-0.000000 -6.370614 0.000000 
0.000000 -6.370614 0.000000 
0.000000 -6.370614 0.000000 
-0.000000 -6.370614 0.000000 
-0.000000 -6.370614 0.000000 
-0.000000 -6.370614 0.000000 
-0.000000 -6.370614 0.000000 
-0.000000 -6.370614 0.000000 
-0.000000 -6.370614 0.000000 
0.000000 -6.370614 0.000000 
0.000000 -6.370614 0.000000 
-0.000000 -6.370614 0.000000 
-0.000000 -6.370614 0.000000 
-0.000000 -6.370614 0.000000 
-0.000000 -6.370614 0.000000 
-0.000000 -6.370614 0.000000 
-0.000000 -6.370614 0.000000 
-0.000000 -6.370614 0.000000 
-0.000000 -6.370614 0.000000 
-0.000000 -6.370614 0.000000 
0.000000 -6.370614 0.000000 
0.000000 -6.370614 0.000000 
0.000000 -6.370614 0.000000 
0.000000 -6.370614 0.000000 
0.000000 -6.370614 0.000000 
0.000000 -6.370614 0.000000 
-0.000000 -6.370614 0.000000 
0.000000 -6.370614 0.000000 
-0.000000 -6.370614 0.000000 
-0.000000 -6.370614 0.000000 
-0.000000 -6.370614 0.000000 
0.000000 -6.370614 0.000000 
0.000000 -6.370614 0.000000 
-0.000000 -6.370614 0.000000 
-0.000000 -6.370614 0.000000 
-0.000000 -6.370614 0.000000 
-0.000000 -6.370614 0.000000 
-0.000000 -6.370614 0.000000 
0.000000 -6.370614 0.000000 
-0.000000 -6.370614 0.000000 
-0.000000 -6.370614 0.000000 
-0.000000 -6.370614 0.000000 
-0.000000 -6.370614 0.000000 
-0.000000 -6.370614 0.000000 
-0.000000 -6.370614 0.000000 
-0.000000 -6.370614 0.000000 
0.000000 -6.370614 0.000000 
-0.000000 -6.370614 0.000000 
0.000000 -6.370614 0.000000 
-0.000000 -6.370614 0.000000 
-0.000000 -6.370614 0.000000 
0.000000 -6.370614 0.000000 
0.000000 -6.370614 0.000000 
0.000000 -6.370614 0.000000 
0.000000 -6.370614 0.000000 
0.000000 -6.370614 0.000000 
-0.000000 -6.370614 0.000000 
-0.000000 -6.370614 0.000000 
0.000000 -6.370614 0.000000 
0.000000 -6.370614 0.000000 
0.000000 -6.370614 0.000000 
0.000000 -6.370614 0.000000 
-0.000000 -6.370614 0.000000 
0.000000 -6.370614 0.000000 
0.000000 -6.370614 0.000000 
0.000000 -6.370614 0.000000 
0.000000 -6.370614 0.000000 
TENSORS STRESS float 
-0.000000 -0.000000 0.000000 
0.000000 -0.000000 0.000000 
0.000000 0.000000 0.000000 

0.000000 -0.000000 0.000000 
0.000000 0.000000 0.000000 
0.000000 0.000000 0.000000 

-0.000000 0.000000 0.000000 
0.000000 -0.000000 0.000000 
0.000000 0.000000 0.000000 

0.000000 0.000000 0.000000 
0.000000 0.000000 0.000000 
0.000000 0.000000 0.000000 

0.000000 -0.000000 0.000000 
0.000000 0.000000 0.000000 
0.000000 0.000000 0.000000 

0.000000 -0.000000 0.000000 
0.000000 0.000000 0.000000 
0.000000 0.000000 0.000000 

0.000000 -0.000000 0.000000 
0.000000 0.000000 0.000000 
0.000000 0.000000 0.000000 

-0.000000 -0.000000 0.000000 
0.000000 -0.000000 0.000000 
0.000000 0.000000 0.000000 

0.000000 0.000000 0.000000 
0.000000 0.000000 0.000000 
0.000000 0.000000 0.000000 

-0.000000 0.000000 0.000000 
0.000000 -0.000000 0.000000 
0.000000 0.000000 0.000000 

-0.000000 -0.000000 0.000000 
0.000000 -0.000000 0.000000 
0.000000 0.000000 0.000000 

-0.000000 0.000000 0.000000 
0.000000 -0.000000 0.000000 
0.000000 0.000000 0.000000 

0.000000 0.000000 0.000000 
0.000000 0.000000 0.000000 
0.000000 0.000000 0.000000 

0.000000 0.000000 0.000000 
0.000000 0.000000 0.000000 
0.000000 0.000000 0.000000 

0.000000 0.000000 0.000000 
0.000000 0.000000 0.000000 
0.000000 0.000000 0.000000 

0.000000 0.000000 0.000000 
0.000000 0.000000 0.000000 
0.000000 0.000000 0.000000 

0.000000 -0.000000 0.000000 
0.000000 0.000000 0.000000 
0.000000 0.000000 0.000000 

-0.000000 -0.000000 0.000000 
0.000000 -0.000000 0.000000 
0.000000 0.000000 0.000000 

-0.000000 -0.000000 0.000000 
0.000000 -0.000000 0.000000 
0.000000 0.000000 0.000000 

-0.000000 -0.000000 0.000000 
0.000000 0.000000 0.000000 
0.000000 0.000000 0.000000 

0.000000 -0.000000 0.000000 
0.000000 0.000000 0.000000 
0.000000 0.000000 0.000000 

-0.000000 -0.000000 0.000000 
0.000000 -0.000000 0.000000 
0.000000 0.000000 0.000000 

-0.000000 0.000000 0.000000 
0.000000 -0.000000 0.000000 
0.000000 0.000000 0.000000 

0.000000 0.000000 0.000000 
0.000000 0.000000 0.000000 
0.000000 0.000000 0.000000 

0.000000 0.000000 0.000000 
0.000000 0.000000 0.000000 
0.000000 0.000000 0.000000 

-0.000000 -0.000000 0.000000 
0.000000 -0.000000 0.000000 
0.000000 0.000000 0.000000 

0.000000 0.000000 0.000000 
0.000000 0.000000 0.000000 
0.000000 0.000000 0.000000 

0.000000 -0.000000 0.000000 
0.000000 0.000000 0.000000 
0.000000 0.000000 0.000000 

-0.000000 -0.000000 0.000000 
0.000000 -0.000000 0.000000 
0.000000 0.000000 0.000000 

0.000000 -0.000000 0.000000 
0.000000 0.000000 0.000000 
0.000000 0.000000 0.000000 

0.000000 0.000000 0.000000 
0.000000 0.000000 0.000000 
0.000000 0.000000 0.000000 

0.000000 0.000000 0.000000 
0.000000 0.000000 0.000000 
0.000000 0.000000 0.000000 

-0.000000 -0.000000 0.000000 
0.000000 0.000000 0.000000 
0.000000 0.000000 0.000000 

0.000000 -0.000000 0.000000 
0.000000 0.000000 0.000000 
0.000000 0.000000 0.000000 

0.000000 0.000000 0.000000 
0.000000 0.000000 0.000000 
0.000000 0.000000 0.000000 

-0.000000 0.000000 0.000000 
0.000000 0.000000 0.000000 
0.000000 0.000000 0.000000 

-0.000000 0.000000 0.000000 
0.000000 -0.000000 0.000000 
0.000000 0.000000 0.000000 

-0.000000 0.000000 0.000000 
0.000000 -0.000000 0.000000 
0.000000 0.000000 0.000000 

-0.000000 0.000000 0.000000 
0.000000 0.000000 0.000000 
0.000000 0.000000 0.000000 

0.000000 -0.000000 0.000000 
0.000000 0.000000 0.000000 
0.000000 0.000000 0.000000 

-0.000000 -0.000000 0.000000 
0.000000 -0.000000 0.000000 
0.000000 0.000000 0.000000 

0.000000 -0.000000 0.000000 
0.000000 0.000000 0.000000 
0.000000 0.000000 0.000000 

-0.000000 -0.000000 0.000000 
0.000000 -0.000000 0.000000 
0.000000 0.000000 0.000000 

0.000000 0.000000 0.000000 
0.000000 0.000000 0.000000 
0.000000 0.000000 0.000000 

0.000000 0.000000 0.000000 
0.000000 0.000000 0.000000 
0.000000 0.000000 0.000000 

-0.000000 -0.000000 0.000000 
0.000000 -0.000000 0.000000 
0.000000 0.000000 0.000000 

-0.000000 -0.000000 0.000000 
0.000000 -0.000000 0.000000 
0.000000 0.000000 0.000000 

0.000000 -0.000000 0.000000 
0.000000 0.000000 0.000000 
0.000000 0.000000 0.000000 

-0.000000 -0.000000 0.000000 
0.000000 -0.000000 0.000000 
0.000000 0.000000 0.000000 

0.000000 -0.000000 0.000000 
0.000000 0.000000 0.000000 
0.000000 0.000000 0.000000 

0.000000 -0.000000 0.000000 
0.000000 0.000000 0.000000 
0.000000 0.000000 0.000000 

0.000000 -0.000000 0.000000 
0.000000 0.000000 0.000000 
0.000000 0.000000 0.000000 

0.000000 0.000000 0.000000 
0.000000 0.000000 0.000000 
0.000000 0.000000 0.000000 

-0.000000 -0.000000 0.000000 
0.000000 -0.000000 0.000000 
0.000000 0.000000 0.000000 

-0.000000 0.000000 0.000000 
0.000000 -0.000000 0.000000 
0.000000 0.000000 0.000000 

0.000000 0.000000 0.000000 
0.000000 0.000000 0.000000 
0.000000 0.000000 0.000000 

-0.000000 0.000000 0.000000 
0.000000 -0.000000 0.000000 
0.000000 0.000000 0.000000 

0.000000 -0.000000 0.000000 
0.000000 0.000000 0.000000 
0.000000 0.000000 0.000000 

0.000000 -0.000000 0.000000 
0.000000 0.000000 0.000000 
0.000000 0.000000 0.000000 

0.000000 0.000000 0.000000 
0.000000 0.000000 0.000000 
0.000000 0.000000 0.000000 

0.000000 0.000000 0.000000 
0.000000 0.000000 0.000000 
0.000000 0.000000 0.000000 

0.000000 0.000000 0.000000 
0.000000 0.000000 0.000000 
0.000000 0.000000 0.000000 

-0.000000 -0.000000 0.000000 
0.000000 -0.000000 0.000000 
0.000000 0.000000 0.000000 

0.000000 -0.000000 0.000000 
0.000000 0.000000 0.000000 
0.000000 0.000000 0.000000 

-0.000000 0.000000 0.000000 
0.000000 -0.000000 0.000000 
0.000000 0.000000 0.000000 

-0.000000 0.000000 0.000000 
0.000000 -0.000000 0.000000 
0.000000 0.000000 0.000000 

-0.000000 0.000000 0.000000 
0.000000 -0.000000 0.000000 
0.000000 0.000000 0.000000 

-0.000000 0.000000 0.000000 
0.000000 -0.000000 0.000000 
0.000000 0.000000 0.000000 

-0.000000 0.000000 0.000000 
0.000000 -0.000000 0.000000 
0.000000 0.000000 0.000000 

-0.000000 0.000000 0.000000 
0.000000 -0.000000 0.000000 
0.000000 0.000000 0.000000 

-0.000000 0.000000 0.000000 
0.000000 -0.000000 0.000000 
0.000000 0.000000 0.000000 

-0.000000 0.000000 0.000000 
0.000000 -0.000000 0.000000 
0.000000 0.000000 0.000000 

0.000000 0.000000 0.000000 
0.000000 0.000000 0.000000 
0.000000 0.000000 0.000000 

0.000000 -0.000000 0.000000 
0.000000 -0.000000 0.000000 
0.000000 0.000000 0.000000 

0.000000 -0.000000 0.000000 
0.000000 0.000000 0.000000 
0.000000 0.000000 0.000000 

-0.000000 -0.000000 0.000000 
0.000000 -0.000000 0.000000 
0.000000 0.000000 0.000000 

0.000000 0.000000 0.000000 
0.000000 0.000000 0.000000 
0.000000 0.000000 0.000000 

-0.000000 -0.000000 0.000000 
0.000000 -0.000000 0.000000 
0.000000 0.000000 0.000000 

0.000000 -0.000000 0.000000 
0.000000 0.000000 0.000000 
0.000000 0.000000 0.000000 

-0.000000 -0.000000 0.000000 
0.000000 -0.000000 0.000000 
0.000000 0.000000 0.000000 

0.000000 0.000000 0.000000 
0.000000 0.000000 0.000000 
0.000000 0.000000 0.000000 

-0.000000 0.000000 0.000000 
0.000000 -0.000000 0.000000 
0.000000 0.000000 0.000000 

0.000000 0.000000 0.000000 
0.000000 0.000000 0.000000 
0.000000 0.000000 0.000000 

-0.000000 0.000000 0.000000 
0.000000 -0.000000 0.000000 
0.000000 0.000000 0.000000 

-0.000000 0.000000 0.000000 
0.000000 -0.000000 0.000000 
0.000000 0.000000 0.000000 

0.000000 0.000000 0.000000 
0.000000 0.000000 0.000000 
0.000000 0.000000 0.000000 

0.000000 0.000000 0.000000 
0.000000 0.000000 0.000000 
0.000000 0.000000 0.000000 

0.000000 0.000000 0.000000 
0.000000 0.000000 0.000000 
0.000000 0.000000 0.000000 

0.000000 0.000000 0.000000 
0.000000 0.000000 0.000000 
0.000000 0.000000 0.000000 

0.000000 0.000000 0.000000 
0.000000 0.000000 0.000000 
0.000000 0.000000 0.000000 

-0.000000 0.000000 0.000000 
0.000000 -0.000000 0.000000 
0.000000 0.000000 0.000000 

-0.000000 -0.000000 0.000000 
0.000000 -0.000000 0.000000 
0.000000 0.000000 0.000000 

0.000000 -0.000000 0.000000 
0.000000 0.000000 0.000000 
0.000000 0.000000 0.000000 

-0.000000 -0.000000 0.000000 
0.000000 -0.000000 0.000000 
0.000000 0.000000 0.000000 

-0.000000 -0.000000 0.000000 
0.000000 -0.000000 0.000000 
0.000000 0.000000 0.000000 

0.000000 0.000000 0.000000 
0.000000 0.000000 0.000000 
0.000000 0.000000 0.000000 

-0.000000 0.000000 0.000000 
0.000000 -0.000000 0.000000 
0.000000 0.000000 0.000000 

-0.000000 -0.000000 0.000000 
0.000000 -0.000000 0.000000 
0.000000 0.000000 0.000000 

-0.000000 -0.000000 0.000000 
0.000000 -0.000000 0.000000 
0.000000 0.000000 0.000000 

0.000000 0.000000 0.000000 
0.000000 0.000000 0.000000 
0.000000 0.000000 0.000000 

0.000000 -0.000000 0.000000 
0.000000 0.000000 0.000000 
0.000000 0.000000 0.000000 

-0.000000 0.000000 0.000000 
0.000000 -0.000000 0.000000 
0.000000 0.000000 0.000000 

-0.000000 0.000000 0.000000 
0.000000 -0.000000 0.000000 
0.000000 0.000000 0.000000 

0.000000 -0.000000 0.000000 
0.000000 0.000000 0.000000 
0.000000 0.000000 0.000000 

-0.000000 0.000000 0.000000 
0.000000 -0.000000 0.000000 
0.000000 0.000000 0.000000 

0.000000 -0.000000 0.000000 
0.000000 0.000000 0.000000 
0.000000 0.000000 0.000000 

0.000000 -0.000000 0.000000 
0.000000 0.000000 0.000000 
0.000000 0.000000 0.000000 

0.000000 -0.000000 0.000000 
0.000000 0.000000 0.000000 
0.000000 0.000000 0.000000 

0.000000 -0.000000 0.000000 
0.000000 0.000000 0.000000 
0.000000 0.000000 0.000000 

0.000000 0.000000 0.000000 
0.000000 0.000000 0.000000 
0.000000 0.000000 0.000000 

-0.000000 0.000000 0.000000 
0.000000 -0.000000 0.000000 
0.000000 0.000000 0.000000 

0.000000 0.000000 0.000000 
0.000000 0.000000 0.000000 
0.000000 0.000000 0.000000 

-0.000000 0.000000 0.000000 
0.000000 -0.000000 0.000000 
0.000000 0.000000 0.000000 

0.000000 0.000000 0.000000 
0.000000 0.000000 0.000000 
0.000000 0.000000 0.000000 

0.000000 -0.000000 0.000000 
0.000000 0.000000 0.000000 
0.000000 0.000000 0.000000 

0.000000 0.000000 0.000000 
0.000000 -0.000000 0.000000 
0.000000 0.000000 0.000000 

-0.000000 0.000000 0.000000 
0.000000 -0.000000 0.000000 
0.000000 0.000000 0.000000 

0.000000 -0.000000 0.000000 
0.000000 0.000000 0.000000 
0.000000 0.000000 0.000000 

-0.000000 -0.000000 0.000000 
0.000000 0.000000 0.000000 
0.000000 0.000000 0.000000 

0.000000 0.000000 0.000000 
0.000000 0.000000 0.000000 
0.000000 0.000000 0.000000 

-0.000000 0.000000 0.000000 
0.000000 -0.000000 0.000000 
0.000000 0.000000 0.000000 

0.000000 0.000000 0.000000 
0.000000 0.000000 0.000000 
0.000000 0.000000 0.000000 

-0.000000 0.000000 0.000000 
0.000000 -0.000000 0.000000 
0.000000 0.000000 0.000000 

-0.000000 0.000000 0.000000 
0.000000 -0.000000 0.000000 
0.000000 0.000000 0.000000 

0.000000 -0.000000 0.000000 
0.000000 0.000000 0.000000 
0.000000 0.000000 0.000000 

0.000000 -0.000000 0.000000 
0.000000 0.000000 0.000000 
0.000000 0.000000 0.000000 

-0.000000 -0.000000 0.000000 
0.000000 -0.000000 0.000000 
0.000000 0.000000 0.000000 

0.000000 -0.000000 0.000000 
0.000000 0.000000 0.000000 
0.000000 0.000000 0.000000 

0.000000 -0.000000 0.000000 
0.000000 0.000000 0.000000 
0.000000 0.000000 0.000000 

0.000000 0.000000 0.000000 
0.000000 0.000000 0.000000 
0.000000 0.000000 0.000000 

-0.000000 0.000000 0.000000 
0.000000 0.000000 0.000000 
0.000000 0.000000 0.000000 

-0.000000 -0.000000 0.000000 
0.000000 -0.000000 0.000000 
0.000000 0.000000 0.000000 

0.000000 -0.000000 0.000000 
0.000000 0.000000 0.000000 
0.000000 0.000000 0.000000 

0.000000 0.000000 0.000000 
0.000000 0.000000 0.000000 
0.000000 0.000000 0.000000 

0.000000 -0.000000 0.000000 
0.000000 0.000000 0.000000 
0.000000 0.000000 0.000000 

-0.000000 -0.000000 0.000000 
0.000000 -0.000000 0.000000 
0.000000 0.000000 0.000000 

0.000000 -0.000000 0.000000 
0.000000 0.000000 0.000000 
0.000000 0.000000 0.000000 

0.000000 -0.000000 0.000000 
0.000000 0.000000 0.000000 
0.000000 0.000000 0.000000 

-0.000000 0.000000 0.000000 
0.000000 -0.000000 0.000000 
0.000000 0.000000 0.000000 

-0.000000 0.000000 0.000000 
0.000000 -0.000000 0.000000 
0.000000 0.000000 0.000000 

0.000000 0.000000 0.000000 
0.000000 0.000000 0.000000 
0.000000 0.000000 0.000000 

0.000000 0.000000 0.000000 
0.000000 0.000000 0.000000 
0.000000 0.000000 0.000000 

0.000000 -0.000000 0.000000 
0.000000 0.000000 0.000000 
0.000000 0.000000 0.000000 

-0.000000 0.000000 0.000000 
0.000000 -0.000000 0.000000 
0.000000 0.000000 0.000000 

-0.000000 0.000000 0.000000 
0.000000 -0.000000 0.000000 
0.000000 0.000000 0.000000 

-0.000000 -0.000000 0.000000 
0.000000 -0.000000 0.000000 
0.000000 0.000000 0.000000 

-0.000000 0.000000 0.000000 
0.000000 -0.000000 0.000000 
0.000000 0.000000 0.000000 

-0.000000 0.000000 0.000000 
0.000000 -0.000000 0.000000 
0.000000 0.000000 0.000000 

0.000000 -0.000000 0.000000 
0.000000 0.000000 0.000000 
0.000000 0.000000 0.000000 

-0.000000 -0.000000 0.000000 
0.000000 -0.000000 0.000000 
0.000000 0.000000 0.000000 

-0.000000 -0.000000 0.000000 
0.000000 -0.000000 0.000000 
0.000000 0.000000 0.000000 

-0.000000 0.000000 0.000000 
0.000000 -0.000000 0.000000 
0.000000 0.000000 0.000000 

0.000000 0.000000 0.000000 
0.000000 0.000000 0.000000 
0.000000 0.000000 0.000000 

-0.000000 0.000000 0.000000 
0.000000 -0.000000 0.000000 
0.000000 0.000000 0.000000 

0.000000 0.000000 0.000000 
0.000000 0.000000 0.000000 
0.000000 0.000000 0.000000 

0.000000 -0.000000 0.000000 
0.000000 0.000000 0.000000 
0.000000 0.000000 0.000000 

-0.000000 0.000000 0.000000 
0.000000 0.000000 0.000000 
0.000000 0.000000 0.000000 

-0.000000 0.000000 0.000000 
0.000000 -0.000000 0.000000 
0.000000 0.000000 0.000000 

-0.000000 0.000000 0.000000 
0.000000 -0.000000 0.000000 
0.000000 0.000000 0.000000 

0.000000 0.000000 0.000000 
0.000000 0.000000 0.000000 
0.000000 0.000000 0.000000 

0.000000 0.000000 0.000000 
0.000000 0.000000 0.000000 
0.000000 0.000000 0.000000 

-0.000000 0.000000 0.000000 
0.000000 -0.000000 0.000000 
0.000000 0.000000 0.000000 

0.000000 0.000000 0.000000 
0.000000 0.000000 0.000000 
0.000000 0.000000 0.000000 

0.000000 0.000000 0.000000 
0.000000 0.000000 0.000000 
0.000000 0.000000 0.000000 

-0.000000 0.000000 0.000000 
0.000000 -0.000000 0.000000 
0.000000 0.000000 0.000000 

-0.000000 -0.000000 0.000000 
0.000000 -0.000000 0.000000 
0.000000 0.000000 0.000000 

0.000000 0.000000 0.000000 
0.000000 0.000000 0.000000 
0.000000 0.000000 0.000000 

0.000000 0.000000 0.000000 
0.000000 0.000000 0.000000 
0.000000 0.000000 0.000000 

-0.000000 -0.000000 0.000000 
0.000000 -0.000000 0.000000 
0.000000 0.000000 0.000000 

0.000000 0.000000 0.000000 
0.000000 0.000000 0.000000 
0.000000 0.000000 0.000000 

-0.000000 0.000000 0.000000 
0.000000 -0.000000 0.000000 
0.000000 0.000000 0.000000 

0.000000 0.000000 0.000000 
0.000000 0.000000 0.000000 
0.000000 0.000000 0.000000 

-0.000000 0.000000 0.000000 
0.000000 -0.000000 0.000000 
0.000000 0.000000 0.000000 

0.000000 0.000000 0.000000 
0.000000 0.000000 0.000000 
0.000000 0.000000 0.000000 

0.000000 0.000000 0.000000 
0.000000 0.000000 0.000000 
0.000000 0.000000 0.000000 

TENSORS STRAIN float 
-0.000000 -0.000000 0.000000 
0.000000 -0.000000 0.000000 
0.000000 0.000000 0.000000 

-0.000000 -0.000000 0.000000 
0.000000 0.000000 0.000000 
0.000000 0.000000 0.000000 

0.000000 0.000000 0.000000 
0.000000 -0.000000 0.000000 
0.000000 0.000000 0.000000 

0.000000 0.000000 0.000000 
0.000000 -0.000000 0.000000 
0.000000 0.000000 0.000000 

-0.000000 -0.000000 0.000000 
0.000000 0.000000 0.000000 
0.000000 0.000000 0.000000 

-0.000000 -0.000000 0.000000 
0.000000 0.000000 0.000000 
0.000000 0.000000 0.000000 

-0.000000 -0.000000 0.000000 
0.000000 0.000000 0.000000 
0.000000 0.000000 0.000000 

-0.000000 -0.000000 0.000000 
0.000000 -0.000000 0.000000 
0.000000 0.000000 0.000000 

-0.000000 0.000000 0.000000 
0.000000 0.000000 0.000000 
0.000000 0.000000 0.000000 

-0.000000 0.000000 0.000000 
0.000000 0.000000 0.000000 
0.000000 0.000000 0.000000 

-0.000000 -0.000000 0.000000 
0.000000 -0.000000 0.000000 
0.000000 0.000000 0.000000 

-0.000000 0.000000 0.000000 
0.000000 -0.000000 0.000000 
0.000000 0.000000 0.000000 

-0.000000 0.000000 0.000000 
0.000000 0.000000 0.000000 
0.000000 0.000000 0.000000 

-0.000000 0.000000 0.000000 
0.000000 0.000000 0.000000 
0.000000 0.000000 0.000000 

-0.000000 0.000000 0.000000 
0.000000 0.000000 0.000000 
0.000000 0.000000 0.000000 

0.000000 0.000000 0.000000 
0.000000 0.000000 0.000000 
0.000000 0.000000 0.000000 

-0.000000 -0.000000 0.000000 
0.000000 0.000000 0.000000 
0.000000 0.000000 0.000000 

-0.000000 -0.000000 0.000000 
0.000000 -0.000000 0.000000 
0.000000 0.000000 0.000000 

-0.000000 -0.000000 0.000000 
0.000000 0.000000 0.000000 
0.000000 0.000000 0.000000 

-0.000000 -0.000000 0.000000 
0.000000 0.000000 0.000000 
0.000000 0.000000 0.000000 

-0.000000 -0.000000 0.000000 
0.000000 0.000000 0.000000 
0.000000 0.000000 0.000000 

-0.000000 -0.000000 0.000000 
0.000000 -0.000000 0.000000 
0.000000 0.000000 0.000000 

0.000000 0.000000 0.000000 
0.000000 -0.000000 0.000000 
0.000000 0.000000 0.000000 

-0.000000 0.000000 0.000000 
0.000000 0.000000 0.000000 
0.000000 0.000000 0.000000 

-0.000000 0.000000 0.000000 
0.000000 0.000000 0.000000 
0.000000 0.000000 0.000000 

-0.000000 -0.000000 0.000000 
0.000000 -0.000000 0.000000 
0.000000 0.000000 0.000000 

-0.000000 0.000000 0.000000 
0.000000 0.000000 0.000000 
0.000000 0.000000 0.000000 

-0.000000 -0.000000 0.000000 
0.000000 0.000000 0.000000 
0.000000 0.000000 0.000000 

-0.000000 -0.000000 0.000000 
0.000000 -0.000000 0.000000 
0.000000 0.000000 0.000000 

-0.000000 -0.000000 0.000000 
0.000000 0.000000 0.000000 
0.000000 0.000000 0.000000 

-0.000000 0.000000 0.000000 
0.000000 0.000000 0.000000 
0.000000 0.000000 0.000000 

-0.000000 0.000000 0.000000 
0.000000 0.000000 0.000000 
0.000000 0.000000 0.000000 

-0.000000 -0.000000 0.000000 
0.000000 0.000000 0.000000 
0.000000 0.000000 0.000000 

-0.000000 -0.000000 0.000000 
0.000000 0.000000 0.000000 
0.000000 0.000000 0.000000 

-0.000000 0.000000 0.000000 
0.000000 0.000000 0.000000 
0.000000 0.000000 0.000000 

-0.000000 0.000000 0.000000 
0.000000 0.000000 0.000000 
0.000000 0.000000 0.000000 

-0.000000 0.000000 0.000000 
0.000000 0.000000 0.000000 
0.000000 0.000000 0.000000 

-0.000000 0.000000 0.000000 
0.000000 0.000000 0.000000 
0.000000 0.000000 0.000000 

-0.000000 0.000000 0.000000 
0.000000 0.000000 0.000000 
0.000000 0.000000 0.000000 

-0.000000 -0.000000 0.000000 
0.000000 0.000000 0.000000 
0.000000 0.000000 0.000000 

-0.000000 -0.000000 0.000000 
0.000000 0.000000 0.000000 
0.000000 0.000000 0.000000 

0.000000 -0.000000 0.000000 
0.000000 -0.000000 0.000000 
0.000000 0.000000 0.000000 

0.000000 -0.000000 0.000000 
0.000000 -0.000000 0.000000 
0.000000 0.000000 0.000000 

0.000000 0.000000 0.000000 
0.000000 -0.000000 0.000000 
0.000000 0.000000 0.000000 

-0.000000 0.000000 0.000000 
0.000000 0.000000 0.000000 
0.000000 0.000000 0.000000 

-0.000000 -0.000000 0.000000 
0.000000 0.000000 0.000000 
0.000000 0.000000 0.000000 

-0.000000 -0.000000 0.000000 
0.000000 0.000000 0.000000 
0.000000 0.000000 0.000000 

0.000000 -0.000000 0.000000 
0.000000 -0.000000 0.000000 
0.000000 0.000000 0.000000 

-0.000000 -0.000000 0.000000 
0.000000 0.000000 0.000000 
0.000000 0.000000 0.000000 

-0.000000 -0.000000 0.000000 
0.000000 0.000000 0.000000 
0.000000 0.000000 0.000000 

-0.000000 -0.000000 0.000000 
0.000000 0.000000 0.000000 
0.000000 0.000000 0.000000 

-0.000000 -0.000000 0.000000 
0.000000 0.000000 0.000000 
0.000000 0.000000 0.000000 

-0.000000 0.000000 0.000000 
0.000000 0.000000 0.000000 
0.000000 0.000000 0.000000 

-0.000000 -0.000000 0.000000 
0.000000 0.000000 0.000000 
0.000000 0.000000 0.000000 

-0.000000 0.000000 0.000000 
0.000000 -0.000000 0.000000 
0.000000 0.000000 0.000000 

-0.000000 0.000000 0.000000 
0.000000 0.000000 0.000000 
0.000000 0.000000 0.000000 

-0.000000 0.000000 0.000000 
0.000000 -0.000000 0.000000 
0.000000 0.000000 0.000000 

-0.000000 -0.000000 0.000000 
0.000000 0.000000 0.000000 
0.000000 0.000000 0.000000 

0.000000 -0.000000 0.000000 
0.000000 0.000000 0.000000 
0.000000 0.000000 0.000000 

0.000000 0.000000 0.000000 
0.000000 0.000000 0.000000 
0.000000 0.000000 0.000000 

0.000000 0.000000 0.000000 
0.000000 0.000000 0.000000 
0.000000 0.000000 0.000000 

0.000000 0.000000 0.000000 
0.000000 0.000000 0.000000 
0.000000 0.000000 0.000000 

0.000000 -0.000000 0.000000 
0.000000 -0.000000 0.000000 
0.000000 0.000000 0.000000 

0.000000 -0.000000 0.000000 
0.000000 0.000000 0.000000 
0.000000 0.000000 0.000000 

0.000000 0.000000 0.000000 
0.000000 -0.000000 0.000000 
0.000000 0.000000 0.000000 

0.000000 0.000000 0.000000 
0.000000 -0.000000 0.000000 
0.000000 0.000000 0.000000 

0.000000 0.000000 0.000000 
0.000000 -0.000000 0.000000 
0.000000 0.000000 0.000000 

-0.000000 0.000000 0.000000 
0.000000 -0.000000 0.000000 
0.000000 0.000000 0.000000 

-0.000000 0.000000 0.000000 
0.000000 -0.000000 0.000000 
0.000000 0.000000 0.000000 

0.000000 0.000000 0.000000 
0.000000 -0.000000 0.000000 
0.000000 0.000000 0.000000 

0.000000 0.000000 0.000000 
0.000000 -0.000000 0.000000 
0.000000 0.000000 0.000000 

0.000000 0.000000 0.000000 
0.000000 -0.000000 0.000000 
0.000000 0.000000 0.000000 

0.000000 0.000000 0.000000 
0.000000 -0.000000 0.000000 
0.000000 0.000000 0.000000 

0.000000 -0.000000 0.000000 
0.000000 -0.000000 0.000000 
0.000000 0.000000 0.000000 

0.000000 -0.000000 0.000000 
0.000000 -0.000000 0.000000 
0.000000 0.000000 0.000000 

-0.000000 -0.000000 0.000000 
0.000000 -0.000000 0.000000 
0.000000 0.000000 0.000000 

-0.000000 0.000000 0.000000 
0.000000 0.000000 0.000000 
0.000000 0.000000 0.000000 

-0.000000 -0.000000 0.000000 
0.000000 0.000000 0.000000 
0.000000 0.000000 0.000000 

-0.000000 -0.000000 0.000000 
0.000000 0.000000 0.000000 
0.000000 0.000000 0.000000 

-0.000000 -0.000000 0.000000 
0.000000 -0.000000 0.000000 
0.000000 0.000000 0.000000 

-0.000000 0.000000 0.000000 
0.000000 0.000000 0.000000 
0.000000 0.000000 0.000000 

-0.000000 0.000000 0.000000 
0.000000 -0.000000 0.000000 
0.000000 0.000000 0.000000 

-0.000000 0.000000 0.000000 
0.000000 0.000000 0.000000 
0.000000 0.000000 0.000000 

0.000000 0.000000 0.000000 
0.000000 -0.000000 0.000000 
0.000000 0.000000 0.000000 

0.000000 0.000000 0.000000 
0.000000 -0.000000 0.000000 
0.000000 0.000000 0.000000 

0.000000 0.000000 0.000000 
0.000000 0.000000 0.000000 
0.000000 0.000000 0.000000 

-0.000000 0.000000 0.000000 
0.000000 0.000000 0.000000 
0.000000 0.000000 0.000000 

0.000000 0.000000 0.000000 
0.000000 0.000000 0.000000 
0.000000 0.000000 0.000000 

-0.000000 0.000000 0.000000 
0.000000 0.000000 0.000000 
0.000000 0.000000 0.000000 

0.000000 0.000000 0.000000 
0.000000 0.000000 0.000000 
0.000000 0.000000 0.000000 

0.000000 0.000000 0.000000 
0.000000 -0.000000 0.000000 
0.000000 0.000000 0.000000 

0.000000 -0.000000 0.000000 
0.000000 -0.000000 0.000000 
0.000000 0.000000 0.000000 

0.000000 -0.000000 0.000000 
0.000000 -0.000000 0.000000 
0.000000 0.000000 0.000000 

0.000000 -0.000000 0.000000 
0.000000 -0.000000 0.000000 
0.000000 0.000000 0.000000 

0.000000 -0.000000 0.000000 
0.000000 -0.000000 0.000000 
0.000000 0.000000 0.000000 

0.000000 0.000000 0.000000 
0.000000 -0.000000 0.000000 
0.000000 0.000000 0.000000 

0.000000 0.000000 0.000000 
0.000000 -0.000000 0.000000 
0.000000 0.000000 0.000000 

0.000000 -0.000000 0.000000 
0.000000 -0.000000 0.000000 
0.000000 0.000000 0.000000 

0.000000 -0.000000 0.000000 
0.000000 -0.000000 0.000000 
0.000000 0.000000 0.000000 

0.000000 0.000000 0.000000 
0.000000 -0.000000 0.000000 
0.000000 0.000000 0.000000 

-0.000000 -0.000000 0.000000 
0.000000 0.000000 0.000000 
0.000000 0.000000 0.000000 

-0.000000 0.000000 0.000000 
0.000000 0.000000 0.000000 
0.000000 0.000000 0.000000 

-0.000000 0.000000 0.000000 
0.000000 -0.000000 0.000000 
0.000000 0.000000 0.000000 

-0.000000 -0.000000 0.000000 
0.000000 0.000000 0.000000 
0.000000 0.000000 0.000000 

0.000000 0.000000 0.000000 
0.000000 -0.000000 0.000000 
0.000000 0.000000 0.000000 

-0.000000 -0.000000 0.000000 
0.000000 0.000000 0.000000 
0.000000 0.000000 0.000000 

0.000000 -0.000000 0.000000 
0.000000 0.000000 0.000000 
0.000000 0.000000 0.000000 

0.000000 -0.000000 0.000000 
0.000000 0.000000 0.000000 
0.000000 0.000000 0.000000 

0.000000 -0.000000 0.000000 
0.000000 0.000000 0.000000 
0.000000 0.000000 0.000000 

-0.000000 0.000000 0.000000 
0.000000 0.000000 0.000000 
0.000000 0.000000 0.000000 

-0.000000 0.000000 0.000000 
0.000000 0.000000 0.000000 
0.000000 0.000000 0.000000 

-0.000000 0.000000 0.000000 
0.000000 0.000000 0.000000 
0.000000 0.000000 0.000000 

-0.000000 0.000000 0.000000 
0.000000 0.000000 0.000000 
0.000000 0.000000 0.000000 

-0.000000 0.000000 0.000000 
0.000000 0.000000 0.000000 
0.000000 0.000000 0.000000 

0.000000 -0.000000 0.000000 
0.000000 0.000000 0.000000 
0.000000 0.000000 0.000000 

0.000000 0.000000 0.000000 
0.000000 -0.000000 0.000000 
0.000000 0.000000 0.000000 

-0.000000 0.000000 0.000000 
0.000000 -0.000000 0.000000 
0.000000 0.000000 0.000000 

-0.000000 -0.000000 0.000000 
0.000000 0.000000 0.000000 
0.000000 0.000000 0.000000 

-0.000000 -0.000000 0.000000 
0.000000 0.000000 0.000000 
0.000000 0.000000 0.000000 

-0.000000 0.000000 0.000000 
0.000000 0.000000 0.000000 
0.000000 0.000000 0.000000 

-0.000000 0.000000 0.000000 
0.000000 0.000000 0.000000 
0.000000 0.000000 0.000000 

-0.000000 0.000000 0.000000 
0.000000 0.000000 0.000000 
0.000000 0.000000 0.000000 

0.000000 0.000000 0.000000 
0.000000 -0.000000 0.000000 
0.000000 0.000000 0.000000 

0.000000 0.000000 0.000000 
0.000000 -0.000000 0.000000 
0.000000 0.000000 0.000000 

0.000000 -0.000000 0.000000 
0.000000 0.000000 0.000000 
0.000000 0.000000 0.000000 

-0.000000 -0.000000 0.000000 
0.000000 0.000000 0.000000 
0.000000 0.000000 0.000000 

-0.000000 -0.000000 0.000000 
0.000000 0.000000 0.000000 
0.000000 0.000000 0.000000 

-0.000000 -0.000000 0.000000 
0.000000 0.000000 0.000000 
0.000000 0.000000 0.000000 

-0.000000 -0.000000 0.000000 
0.000000 0.000000 0.000000 
0.000000 0.000000 0.000000 

-0.000000 0.000000 0.000000 
0.000000 0.000000 0.000000 
0.000000 0.000000 0.000000 

-0.000000 0.000000 0.000000 
0.000000 0.000000 0.000000 
0.000000 0.000000 0.000000 

0.000000 -0.000000 0.000000 
0.000000 -0.000000 0.000000 
0.000000 0.000000 0.000000 

-0.000000 -0.000000 0.000000 
0.000000 0.000000 0.000000 
0.000000 0.000000 0.000000 

0.000000 0.000000 0.000000 
0.000000 -0.000000 0.000000 
0.000000 0.000000 0.000000 

-0.000000 -0.000000 0.000000 
0.000000 0.000000 0.000000 
0.000000 0.000000 0.000000 

-0.000000 -0.000000 0.000000 
0.000000 -0.000000 0.000000 
0.000000 0.000000 0.000000 

-0.000000 -0.000000 0.000000 
0.000000 0.000000 0.000000 
0.000000 0.000000 0.000000 

0.000000 -0.000000 0.000000 
0.000000 -0.000000 0.000000 
0.000000 0.000000 0.000000 

0.000000 0.000000 0.000000 
0.000000 -0.000000 0.000000 
0.000000 0.000000 0.000000 

0.000000 0.000000 0.000000 
0.000000 -0.000000 0.000000 
0.000000 0.000000 0.000000 

0.000000 0.000000 0.000000 
0.000000 0.000000 0.000000 
0.000000 0.000000 0.000000 

0.000000 0.000000 0.000000 
0.000000 0.000000 0.000000 
0.000000 0.000000 0.000000 

-0.000000 -0.000000 0.000000 
0.000000 0.000000 0.000000 
0.000000 0.000000 0.000000 

-0.000000 0.000000 0.000000 
0.000000 0.000000 0.000000 
0.000000 0.000000 0.000000 

-0.000000 0.000000 0.000000 
0.000000 0.000000 0.000000 
0.000000 0.000000 0.000000 

0.000000 -0.000000 0.000000 
0.000000 -0.000000 0.000000 
0.000000 0.000000 0.000000 

-0.000000 0.000000 0.000000 
0.000000 -0.000000 0.000000 
0.000000 0.000000 0.000000 

-0.000000 0.000000 0.000000 
0.000000 -0.000000 0.000000 
0.000000 0.000000 0.000000 

0.000000 -0.000000 0.000000 
0.000000 0.000000 0.000000 
0.000000 0.000000 0.000000 

0.000000 -0.000000 0.000000 
0.000000 -0.000000 0.000000 
0.000000 0.000000 0.000000 

-0.000000 -0.000000 0.000000 
0.000000 0.000000 0.000000 
0.000000 0.000000 0.000000 

0.000000 0.000000 0.000000 
0.000000 -0.000000 0.000000 
0.000000 0.000000 0.000000 

0.000000 0.000000 0.000000 
0.000000 -0.000000 0.000000 
0.000000 0.000000 0.000000 

-0.000000 0.000000 0.000000 
0.000000 0.000000 0.000000 
0.000000 0.000000 0.000000 

-0.000000 0.000000 0.000000 
0.000000 0.000000 0.000000 
0.000000 0.000000 0.000000 

-0.000000 -0.000000 0.000000 
0.000000 0.000000 0.000000 
0.000000 0.000000 0.000000 

-0.000000 0.000000 0.000000 
0.000000 0.000000 0.000000 
0.000000 0.000000 0.000000 

-0.000000 0.000000 0.000000 
0.000000 0.000000 0.000000 
0.000000 0.000000 0.000000 

-0.000000 0.000000 0.000000 
0.000000 0.000000 0.000000 
0.000000 0.000000 0.000000 

0.000000 0.000000 0.000000 
0.000000 0.000000 0.000000 
0.000000 0.000000 0.000000 

-0.000000 0.000000 0.000000 
0.000000 0.000000 0.000000 
0.000000 0.000000 0.000000 

-0.000000 0.000000 0.000000 
0.000000 -0.000000 0.000000 
0.000000 0.000000 0.000000 

-0.000000 0.000000 0.000000 
0.000000 0.000000 0.000000 
0.000000 0.000000 0.000000 

-0.000000 0.000000 0.000000 
0.000000 0.000000 0.000000 
0.000000 0.000000 0.000000 

-0.000000 0.000000 0.000000 
0.000000 0.000000 0.000000 
0.000000 0.000000 0.000000 

-0.000000 -0.000000 0.000000 
0.000000 -0.000000 0.000000 
0.000000 0.000000 0.000000 

-0.000000 0.000000 0.000000 
0.000000 0.000000 0.000000 
0.000000 0.000000 0.000000 

-0.000000 0.000000 0.000000 
0.000000 0.000000 0.000000 
0.000000 0.000000 0.000000 

0.000000 -0.000000 0.000000 
0.000000 -0.000000 0.000000 
0.000000 0.000000 0.000000 

0.000000 0.000000 0.000000 
0.000000 0.000000 0.000000 
0.000000 0.000000 0.000000 

0.000000 0.000000 0.000000 
0.000000 -0.000000 0.000000 
0.000000 0.000000 0.000000 

-0.000000 0.000000 0.000000 
0.000000 0.000000 0.000000 
0.000000 0.000000 0.000000 

-0.000000 0.000000 0.000000 
0.000000 -0.000000 0.000000 
0.000000 0.000000 0.000000 

0.000000 0.000000 0.000000 
0.000000 0.000000 0.000000 
0.000000 0.000000 0.000000 

0.000000 0.000000 0.000000 
0.000000 0.000000 0.000000 
0.000000 0.000000 0.000000 

