# vtk DataFile Version 3.0 
vtk output 
ASCII 
DATASET UNSTRUCTURED_GRID 
POINTS 175 float 
-0.026061 -0.413915 0.000000 
-0.106992 -0.345859 0.000000 
-0.054870 -0.354092 0.000000 
-0.028809 -0.308208 0.000000 
-0.186430 -0.281784 0.000000 
-0.137056 -0.284310 0.000000 
-0.114311 -0.230663 0.000000 
-0.058186 -0.246328 0.000000 
-0.029377 -0.206151 0.000000 
-0.265318 -0.218628 0.000000 
-0.217198 -0.219428 0.000000 
-0.196633 -0.162131 0.000000 
-0.143120 -0.170840 0.000000 
-0.116563 -0.123571 0.000000 
-0.058945 -0.143217 0.000000 
-0.029568 -0.105097 0.000000 
-0.344206 -0.155472 0.000000 
-0.296791 -0.155465 0.000000 
-0.278030 -0.095522 0.000000 
-0.225992 -0.101389 0.000000 
-0.201664 -0.049272 0.000000 
-0.145749 -0.062746 0.000000 
-0.117890 -0.018403 0.000000 
-0.059328 -0.041109 0.000000 
-0.029759 -0.004043 0.000000 
-0.058559 -0.454666 0.000000 
-0.162226 -0.475508 0.000000 
-0.123292 -0.439891 0.000000 
-0.142917 -0.390907 0.000000 
-0.261851 -0.497665 0.000000 
-0.229092 -0.460638 0.000000 
-0.256854 -0.409406 0.000000 
-0.209613 -0.375293 0.000000 
-0.223062 -0.327719 0.000000 
-0.360414 -0.519965 0.000000 
-0.329787 -0.482842 0.000000 
-0.361761 -0.431040 0.000000 
-0.321587 -0.394631 0.000000 
-0.341985 -0.344397 0.000000 
-0.290702 -0.311598 0.000000 
-0.302189 -0.264863 0.000000 
-0.458977 -0.542265 0.000000 
-0.429420 -0.505190 0.000000 
-0.464588 -0.453148 0.000000 
-0.427556 -0.416121 0.000000 
-0.453135 -0.364606 0.000000 
-0.407738 -0.329291 0.000000 
-0.425037 -0.279863 0.000000 
-0.370772 -0.248234 0.000000 
-0.381315 -0.202006 0.000000 
-0.046960 -0.505481 0.000000 
-0.095301 -0.599527 0.000000 
-0.098873 -0.546879 0.000000 
-0.149405 -0.531682 0.000000 
-0.140093 -0.691231 0.000000 
-0.148617 -0.642532 0.000000 
-0.205981 -0.632295 0.000000 
-0.203197 -0.574092 0.000000 
-0.248777 -0.554945 0.000000 
-0.184111 -0.782194 0.000000 
-0.194039 -0.735103 0.000000 
-0.254475 -0.727804 0.000000 
-0.257893 -0.673694 0.000000 
-0.309886 -0.658322 0.000000 
-0.303554 -0.597776 0.000000 
-0.347255 -0.577618 0.000000 
-0.228129 -0.873158 0.000000 
-0.238687 -0.826934 0.000000 
-0.301302 -0.821982 0.000000 
-0.307162 -0.769943 0.000000 
-0.363386 -0.757822 0.000000 
-0.362692 -0.700310 0.000000 
-0.412122 -0.683017 0.000000 
-0.403017 -0.620871 0.000000 
-0.445733 -0.600292 0.000000 
-0.000000 -0.528096 0.000000 
0.043388 -0.624526 0.000000 
-0.000000 -0.594494 0.000000 
-0.043388 -0.624526 0.000000 
0.087158 -0.716723 0.000000 
0.043769 -0.693024 0.000000 
-0.000000 -0.731490 0.000000 
-0.043769 -0.693024 0.000000 
-0.087158 -0.716723 0.000000 
0.130831 -0.807853 0.000000 
0.087824 -0.786254 0.000000 
0.044436 -0.828954 0.000000 
-0.000000 -0.797889 0.000000 
-0.044436 -0.828954 0.000000 
-0.087824 -0.786254 0.000000 
-0.130831 -0.807853 0.000000 
0.174505 -0.898982 0.000000 
0.131782 -0.878416 0.000000 
0.088871 -0.924283 0.000000 
0.044532 -0.896419 0.000000 
-0.000000 -0.932819 0.000000 
-0.044532 -0.896419 0.000000 
-0.088871 -0.924283 0.000000 
-0.131782 -0.878416 0.000000 
-0.174505 -0.898982 0.000000 
0.046960 -0.505481 0.000000 
0.149405 -0.531682 0.000000 
0.098873 -0.546879 0.000000 
0.095301 -0.599527 0.000000 
0.248777 -0.554945 0.000000 
0.203197 -0.574092 0.000000 
0.205981 -0.632295 0.000000 
0.148617 -0.642532 0.000000 
0.140093 -0.691231 0.000000 
0.347255 -0.577618 0.000000 
0.303554 -0.597776 0.000000 
0.309886 -0.658322 0.000000 
0.257893 -0.673694 0.000000 
0.254475 -0.727804 0.000000 
0.194039 -0.735103 0.000000 
0.184111 -0.782194 0.000000 
0.445733 -0.600292 0.000000 
0.403017 -0.620871 0.000000 
0.412122 -0.683017 0.000000 
0.362692 -0.700310 0.000000 
0.363386 -0.757822 0.000000 
0.307162 -0.769943 0.000000 
0.301302 -0.821982 0.000000 
0.238687 -0.826934 0.000000 
0.228129 -0.873158 0.000000 
0.058559 -0.454666 0.000000 
0.142917 -0.390907 0.000000 
0.123292 -0.439891 0.000000 
0.162226 -0.475508 0.000000 
0.223062 -0.327719 0.000000 
0.209613 -0.375293 0.000000 
0.256854 -0.409406 0.000000 
0.229092 -0.460638 0.000000 
0.261851 -0.497665 0.000000 
0.302189 -0.264863 0.000000 
0.290702 -0.311598 0.000000 
0.341985 -0.344397 0.000000 
0.321587 -0.394631 0.000000 
0.361761 -0.431040 0.000000 
0.329787 -0.482842 0.000000 
0.360414 -0.519965 0.000000 
0.381315 -0.202006 0.000000 
0.370772 -0.248234 0.000000 
0.425037 -0.279863 0.000000 
0.407738 -0.329291 0.000000 
0.453135 -0.364606 0.000000 
0.427556 -0.416121 0.000000 
0.464588 -0.453148 0.000000 
0.429420 -0.505190 0.000000 
0.458977 -0.542265 0.000000 
0.026061 -0.413915 0.000000 
0.028809 -0.308208 0.000000 
0.054870 -0.354092 0.000000 
0.106992 -0.345859 0.000000 
0.029377 -0.206151 0.000000 
0.058186 -0.246328 0.000000 
0.114311 -0.230663 0.000000 
0.137056 -0.284310 0.000000 
0.186430 -0.281784 0.000000 
0.029568 -0.105097 0.000000 
0.058945 -0.143217 0.000000 
0.116563 -0.123571 0.000000 
0.143120 -0.170840 0.000000 
0.196633 -0.162131 0.000000 
0.217198 -0.219428 0.000000 
0.265318 -0.218628 0.000000 
0.029759 -0.004043 0.000000 
0.059328 -0.041109 0.000000 
0.117890 -0.018403 0.000000 
0.145749 -0.062746 0.000000 
0.201664 -0.049272 0.000000 
0.225992 -0.101389 0.000000 
0.278030 -0.095522 0.000000 
0.296791 -0.155465 0.000000 
0.344206 -0.155472 0.000000 
CELLS 175 350 
1 0 
1 1 
1 2 
1 3 
1 4 
1 5 
1 6 
1 7 
1 8 
1 9 
1 10 
1 11 
1 12 
1 13 
1 14 
1 15 
1 16 
1 17 
1 18 
1 19 
1 20 
1 21 
1 22 
1 23 
1 24 
1 25 
1 26 
1 27 
1 28 
1 29 
1 30 
1 31 
1 32 
1 33 
1 34 
1 35 
1 36 
1 37 
1 38 
1 39 
1 40 
1 41 
1 42 
1 43 
1 44 
1 45 
1 46 
1 47 
1 48 
1 49 
1 50 
1 51 
1 52 
1 53 
1 54 
1 55 
1 56 
1 57 
1 58 
1 59 
1 60 
1 61 
1 62 
1 63 
1 64 
1 65 
1 66 
1 67 
1 68 
1 69 
1 70 
1 71 
1 72 
1 73 
1 74 
1 75 
1 76 
1 77 
1 78 
1 79 
1 80 
1 81 
1 82 
1 83 
1 84 
1 85 
1 86 
1 87 
1 88 
1 89 
1 90 
1 91 
1 92 
1 93 
1 94 
1 95 
1 96 
1 97 
1 98 
1 99 
1 100 
1 101 
1 102 
1 103 
1 104 
1 105 
1 106 
1 107 
1 108 
1 109 
1 110 
1 111 
1 112 
1 113 
1 114 
1 115 
1 116 
1 117 
1 118 
1 119 
1 120 
1 121 
1 122 
1 123 
1 124 
1 125 
1 126 
1 127 
1 128 
1 129 
1 130 
1 131 
1 132 
1 133 
1 134 
1 135 
1 136 
1 137 
1 138 
1 139 
1 140 
1 141 
1 142 
1 143 
1 144 
1 145 
1 146 
1 147 
1 148 
1 149 
1 150 
1 151 
1 152 
1 153 
1 154 
1 155 
1 156 
1 157 
1 158 
1 159 
1 160 
1 161 
1 162 
1 163 
1 164 
1 165 
1 166 
1 167 
1 168 
1 169 
1 170 
1 171 
1 172 
1 173 
1 174 
CELL_TYPES 175 
1 
1 
1 
1 
1 
1 
1 
1 
1 
1 
1 
1 
1 
1 
1 
1 
1 
1 
1 
1 
1 
1 
1 
1 
1 
1 
1 
1 
1 
1 
1 
1 
1 
1 
1 
1 
1 
1 
1 
1 
1 
1 
1 
1 
1 
1 
1 
1 
1 
1 
1 
1 
1 
1 
1 
1 
1 
1 
1 
1 
1 
1 
1 
1 
1 
1 
1 
1 
1 
1 
1 
1 
1 
1 
1 
1 
1 
1 
1 
1 
1 
1 
1 
1 
1 
1 
1 
1 
1 
1 
1 
1 
1 
1 
1 
1 
1 
1 
1 
1 
1 
1 
1 
1 
1 
1 
1 
1 
1 
1 
1 
1 
1 
1 
1 
1 
1 
1 
1 
1 
1 
1 
1 
1 
1 
1 
1 
1 
1 
1 
1 
1 
1 
1 
1 
1 
1 
1 
1 
1 
1 
1 
1 
1 
1 
1 
1 
1 
1 
1 
1 
1 
1 
1 
1 
1 
1 
1 
1 
1 
1 
1 
1 
1 
1 
1 
1 
1 
1 
1 
1 
1 
1 
1 
1 
POINT_DATA 175 
VECTORS X_GC float 
-0.026061 -0.413915 0.000000 
-0.106992 -0.345859 0.000000 
-0.054870 -0.354092 0.000000 
-0.028809 -0.308208 0.000000 
-0.186430 -0.281784 0.000000 
-0.137056 -0.284310 0.000000 
-0.114311 -0.230663 0.000000 
-0.058186 -0.246328 0.000000 
-0.029377 -0.206151 0.000000 
-0.265318 -0.218628 0.000000 
-0.217198 -0.219428 0.000000 
-0.196633 -0.162131 0.000000 
-0.143120 -0.170840 0.000000 
-0.116563 -0.123571 0.000000 
-0.058945 -0.143217 0.000000 
-0.029568 -0.105097 0.000000 
-0.344206 -0.155472 0.000000 
-0.296791 -0.155465 0.000000 
-0.278030 -0.095522 0.000000 
-0.225992 -0.101389 0.000000 
-0.201664 -0.049272 0.000000 
-0.145749 -0.062746 0.000000 
-0.117890 -0.018403 0.000000 
-0.059328 -0.041109 0.000000 
-0.029759 -0.004043 0.000000 
-0.058559 -0.454666 0.000000 
-0.162226 -0.475508 0.000000 
-0.123292 -0.439891 0.000000 
-0.142917 -0.390907 0.000000 
-0.261851 -0.497665 0.000000 
-0.229092 -0.460638 0.000000 
-0.256854 -0.409406 0.000000 
-0.209613 -0.375293 0.000000 
-0.223062 -0.327719 0.000000 
-0.360414 -0.519965 0.000000 
-0.329787 -0.482842 0.000000 
-0.361761 -0.431040 0.000000 
-0.321587 -0.394631 0.000000 
-0.341985 -0.344397 0.000000 
-0.290702 -0.311598 0.000000 
-0.302189 -0.264863 0.000000 
-0.458977 -0.542265 0.000000 
-0.429420 -0.505190 0.000000 
-0.464588 -0.453148 0.000000 
-0.427556 -0.416121 0.000000 
-0.453135 -0.364606 0.000000 
-0.407738 -0.329291 0.000000 
-0.425037 -0.279863 0.000000 
-0.370772 -0.248234 0.000000 
-0.381315 -0.202006 0.000000 
-0.046960 -0.505481 0.000000 
-0.095301 -0.599527 0.000000 
-0.098873 -0.546879 0.000000 
-0.149405 -0.531682 0.000000 
-0.140093 -0.691231 0.000000 
-0.148617 -0.642532 0.000000 
-0.205981 -0.632295 0.000000 
-0.203197 -0.574092 0.000000 
-0.248777 -0.554945 0.000000 
-0.184111 -0.782194 0.000000 
-0.194039 -0.735103 0.000000 
-0.254475 -0.727804 0.000000 
-0.257893 -0.673694 0.000000 
-0.309886 -0.658322 0.000000 
-0.303554 -0.597776 0.000000 
-0.347255 -0.577618 0.000000 
-0.228129 -0.873158 0.000000 
-0.238687 -0.826934 0.000000 
-0.301302 -0.821982 0.000000 
-0.307162 -0.769943 0.000000 
-0.363386 -0.757822 0.000000 
-0.362692 -0.700310 0.000000 
-0.412122 -0.683017 0.000000 
-0.403017 -0.620871 0.000000 
-0.445733 -0.600292 0.000000 
-0.000000 -0.528096 0.000000 
0.043388 -0.624526 0.000000 
-0.000000 -0.594494 0.000000 
-0.043388 -0.624526 0.000000 
0.087158 -0.716723 0.000000 
0.043769 -0.693024 0.000000 
-0.000000 -0.731490 0.000000 
-0.043769 -0.693024 0.000000 
-0.087158 -0.716723 0.000000 
0.130831 -0.807853 0.000000 
0.087824 -0.786254 0.000000 
0.044436 -0.828954 0.000000 
-0.000000 -0.797889 0.000000 
-0.044436 -0.828954 0.000000 
-0.087824 -0.786254 0.000000 
-0.130831 -0.807853 0.000000 
0.174505 -0.898982 0.000000 
0.131782 -0.878416 0.000000 
0.088871 -0.924283 0.000000 
0.044532 -0.896419 0.000000 
-0.000000 -0.932819 0.000000 
-0.044532 -0.896419 0.000000 
-0.088871 -0.924283 0.000000 
-0.131782 -0.878416 0.000000 
-0.174505 -0.898982 0.000000 
0.046960 -0.505481 0.000000 
0.149405 -0.531682 0.000000 
0.098873 -0.546879 0.000000 
0.095301 -0.599527 0.000000 
0.248777 -0.554945 0.000000 
0.203197 -0.574092 0.000000 
0.205981 -0.632295 0.000000 
0.148617 -0.642532 0.000000 
0.140093 -0.691231 0.000000 
0.347255 -0.577618 0.000000 
0.303554 -0.597776 0.000000 
0.309886 -0.658322 0.000000 
0.257893 -0.673694 0.000000 
0.254475 -0.727804 0.000000 
0.194039 -0.735103 0.000000 
0.184111 -0.782194 0.000000 
0.445733 -0.600292 0.000000 
0.403017 -0.620871 0.000000 
0.412122 -0.683017 0.000000 
0.362692 -0.700310 0.000000 
0.363386 -0.757822 0.000000 
0.307162 -0.769943 0.000000 
0.301302 -0.821982 0.000000 
0.238687 -0.826934 0.000000 
0.228129 -0.873158 0.000000 
0.058559 -0.454666 0.000000 
0.142917 -0.390907 0.000000 
0.123292 -0.439891 0.000000 
0.162226 -0.475508 0.000000 
0.223062 -0.327719 0.000000 
0.209613 -0.375293 0.000000 
0.256854 -0.409406 0.000000 
0.229092 -0.460638 0.000000 
0.261851 -0.497665 0.000000 
0.302189 -0.264863 0.000000 
0.290702 -0.311598 0.000000 
0.341985 -0.344397 0.000000 
0.321587 -0.394631 0.000000 
0.361761 -0.431040 0.000000 
0.329787 -0.482842 0.000000 
0.360414 -0.519965 0.000000 
0.381315 -0.202006 0.000000 
0.370772 -0.248234 0.000000 
0.425037 -0.279863 0.000000 
0.407738 -0.329291 0.000000 
0.453135 -0.364606 0.000000 
0.427556 -0.416121 0.000000 
0.464588 -0.453148 0.000000 
0.429420 -0.505190 0.000000 
0.458977 -0.542265 0.000000 
0.026061 -0.413915 0.000000 
0.028809 -0.308208 0.000000 
0.054870 -0.354092 0.000000 
0.106992 -0.345859 0.000000 
0.029377 -0.206151 0.000000 
0.058186 -0.246328 0.000000 
0.114311 -0.230663 0.000000 
0.137056 -0.284310 0.000000 
0.186430 -0.281784 0.000000 
0.029568 -0.105097 0.000000 
0.058945 -0.143217 0.000000 
0.116563 -0.123571 0.000000 
0.143120 -0.170840 0.000000 
0.196633 -0.162131 0.000000 
0.217198 -0.219428 0.000000 
0.265318 -0.218628 0.000000 
0.029759 -0.004043 0.000000 
0.059328 -0.041109 0.000000 
0.117890 -0.018403 0.000000 
0.145749 -0.062746 0.000000 
0.201664 -0.049272 0.000000 
0.225992 -0.101389 0.000000 
0.278030 -0.095522 0.000000 
0.296791 -0.155465 0.000000 
0.344206 -0.155472 0.000000 
VECTORS X_EC float 
0.338794 0.087850 0.000000 
-0.609100 -0.830898 0.000000 
0.713312 -0.719757 0.000000 
0.374519 0.660813 0.000000 
0.423588 0.304083 0.000000 
-0.218274 0.338186 0.000000 
-0.513962 -0.386053 0.000000 
0.756418 -0.174566 0.000000 
0.381900 -0.716959 0.000000 
-0.550868 -0.548520 0.000000 
0.823577 -0.537725 0.000000 
0.556234 0.688771 0.000000 
-0.139443 0.806340 0.000000 
-0.484677 0.168215 0.000000 
0.766286 0.433431 0.000000 
0.384386 -0.081190 0.000000 
0.474677 0.598876 0.000000 
-0.141715 0.598780 0.000000 
-0.385608 -0.210448 0.000000 
0.937896 -0.131253 0.000000 
0.621631 -0.834833 0.000000 
-0.105264 -0.652934 0.000000 
-0.467428 0.748440 0.000000 
0.771260 -0.945031 0.000000 
0.386873 0.554579 0.000000 
0.761262 0.637985 0.000000 
0.108942 0.919362 0.000000 
-0.397202 0.438522 0.000000 
-0.142083 -0.222753 0.000000 
-0.595936 -0.781528 0.000000 
0.978194 0.718606 0.000000 
-0.660903 0.026981 0.000000 
0.724964 -0.433539 0.000000 
0.899809 0.924213 0.000000 
0.685384 -0.480476 0.000000 
0.287229 -0.981634 0.000000 
0.702895 0.319037 0.000000 
0.180633 -0.172481 0.000000 
0.445811 -0.850641 0.000000 
-0.220880 0.706573 0.000000 
-0.071546 0.075648 0.000000 
-0.033296 -0.179423 0.000000 
-0.417537 -0.679933 0.000000 
0.039645 0.617504 0.000000 
-0.441768 0.117633 0.000000 
-0.109248 -0.577817 0.000000 
-0.699407 0.945427 0.000000 
-0.474522 0.278148 0.000000 
0.820030 -0.148846 0.000000 
0.957100 -0.772917 0.000000 
0.610485 -0.676009 0.000000 
-0.761092 0.593611 0.000000 
-0.714655 -0.117127 0.000000 
-0.057734 -0.322294 0.000000 
-0.178789 -0.168385 0.000000 
-0.067979 -0.825811 0.000000 
0.677748 -0.964015 0.000000 
0.641556 0.250240 0.000000 
-0.765897 -0.008238 0.000000 
0.393446 -0.940376 0.000000 
0.522510 0.423894 0.000000 
-0.691820 0.325350 0.000000 
-0.647393 -0.405133 0.000000 
0.028512 -0.612659 0.000000 
-0.053800 0.569980 0.000000 
0.514316 0.297849 0.000000 
0.965681 0.287633 0.000000 
-0.897068 -0.336396 0.000000 
-0.083078 -0.403249 0.000000 
-0.006893 0.894227 0.000000 
0.724017 0.730594 0.000000 
0.714996 -0.045810 0.000000 
-0.642413 -0.279267 0.000000 
-0.760780 0.881752 0.000000 
-0.205471 0.603937 0.000000 
0.000000 -0.370707 0.000000 
-0.564049 0.931106 0.000000 
0.000000 0.525670 0.000000 
0.564049 0.931106 0.000000 
0.866949 0.175761 0.000000 
-0.569003 -0.144170 0.000000 
0.000000 0.375118 0.000000 
0.569003 -0.144170 0.000000 
-0.866949 0.175761 0.000000 
0.299194 -0.593989 0.000000 
0.858290 -0.885573 0.000000 
-0.577662 -0.309127 0.000000 
0.000000 -0.728505 0.000000 
0.577662 -0.309127 0.000000 
-0.858290 -0.885573 0.000000 
-0.299194 -0.593989 0.000000 
-0.268560 0.636261 0.000000 
0.286830 0.358620 0.000000 
0.844677 0.977818 0.000000 
-0.578910 0.601655 0.000000 
0.000000 -0.906941 0.000000 
0.578910 0.601655 0.000000 
-0.844677 0.977818 0.000000 
-0.286830 0.358620 0.000000 
0.268560 0.636261 0.000000 
-0.610485 -0.676009 0.000000 
0.057734 -0.322294 0.000000 
0.714655 -0.117127 0.000000 
0.761092 0.593611 0.000000 
0.765897 -0.008238 0.000000 
-0.641556 0.250240 0.000000 
-0.677748 -0.964015 0.000000 
0.067979 -0.825811 0.000000 
0.178789 -0.168385 0.000000 
-0.514316 0.297849 0.000000 
0.053800 0.569980 0.000000 
-0.028512 -0.612659 0.000000 
0.647393 -0.405133 0.000000 
0.691820 0.325350 0.000000 
-0.522510 0.423894 0.000000 
-0.393446 -0.940376 0.000000 
0.205471 0.603937 0.000000 
0.760780 0.881752 0.000000 
0.642413 -0.279267 0.000000 
-0.714996 -0.045810 0.000000 
-0.724017 0.730594 0.000000 
0.006894 0.894227 0.000000 
0.083078 -0.403249 0.000000 
0.897068 -0.336396 0.000000 
-0.965681 0.287633 0.000000 
-0.761262 0.637985 0.000000 
0.142083 -0.222753 0.000000 
0.397202 0.438522 0.000000 
-0.108942 0.919362 0.000000 
-0.899809 0.924213 0.000000 
-0.724964 -0.433539 0.000000 
0.660903 0.026981 0.000000 
-0.978194 0.718606 0.000000 
0.595936 -0.781528 0.000000 
0.071546 0.075648 0.000000 
0.220880 0.706573 0.000000 
-0.445811 -0.850641 0.000000 
-0.180633 -0.172481 0.000000 
-0.702895 0.319037 0.000000 
-0.287229 -0.981634 0.000000 
-0.685384 -0.480476 0.000000 
-0.957100 -0.772917 0.000000 
-0.820030 -0.148846 0.000000 
0.474522 0.278148 0.000000 
0.699407 0.945427 0.000000 
0.109248 -0.577817 0.000000 
0.441768 0.117633 0.000000 
-0.039645 0.617504 0.000000 
0.417537 -0.679933 0.000000 
0.033296 -0.179423 0.000000 
-0.338794 0.087850 0.000000 
-0.374519 0.660813 0.000000 
-0.713312 -0.719757 0.000000 
0.609100 -0.830898 0.000000 
-0.381900 -0.716959 0.000000 
-0.756418 -0.174566 0.000000 
0.513962 -0.386053 0.000000 
0.218274 0.338186 0.000000 
-0.423588 0.304083 0.000000 
-0.384386 -0.081190 0.000000 
-0.766286 0.433431 0.000000 
0.484677 0.168215 0.000000 
0.139443 0.806340 0.000000 
-0.556234 0.688771 0.000000 
-0.823577 -0.537725 0.000000 
0.550868 -0.548520 0.000000 
-0.386873 0.554579 0.000000 
-0.771260 -0.945031 0.000000 
0.467428 0.748440 0.000000 
0.105264 -0.652934 0.000000 
-0.621631 -0.834833 0.000000 
-0.937896 -0.131253 0.000000 
0.385608 -0.210448 0.000000 
0.141715 0.598780 0.000000 
-0.474677 0.598876 0.000000 
CELL_DATA 175 
SCALARS MASS float 
LOOKUP_TABLE default 
0.781831 
0.864274 
0.946717 
0.864274 
0.881307 
0.921110 
0.858535 
0.921110 
0.881307 
0.887046 
0.910001 
0.869829 
0.915556 
0.869829 
0.910001 
0.887046 
0.892784 
0.915740 
0.892784 
0.927218 
0.892784 
0.927218 
0.892784 
0.915740 
0.892784 
0.781831 
0.864274 
0.946717 
0.864274 
0.881307 
0.921110 
0.858535 
0.921110 
0.881307 
0.887046 
0.910001 
0.869829 
0.915556 
0.869829 
0.910001 
0.887046 
0.892784 
0.915740 
0.892784 
0.927218 
0.892784 
0.927218 
0.892784 
0.915740 
0.892784 
0.781831 
0.864274 
0.946717 
0.864274 
0.881307 
0.921110 
0.858535 
0.921110 
0.881307 
0.887046 
0.910001 
0.869829 
0.915556 
0.869829 
0.910001 
0.887046 
0.892784 
0.915740 
0.892784 
0.927218 
0.892784 
0.927218 
0.892784 
0.915740 
0.892784 
0.781831 
0.864274 
0.946717 
0.864274 
0.881307 
0.921110 
0.858535 
0.921110 
0.881307 
0.887046 
0.910001 
0.869829 
0.915556 
0.869829 
0.910001 
0.887046 
0.892784 
0.915740 
0.892784 
0.927218 
0.892784 
0.927218 
0.892784 
0.915740 
0.892784 
0.781831 
0.864274 
0.946717 
0.864274 
0.881307 
0.921110 
0.858535 
0.921110 
0.881307 
0.887046 
0.910001 
0.869829 
0.915556 
0.869829 
0.910001 
0.887046 
0.892784 
0.915740 
0.892784 
0.927218 
0.892784 
0.927218 
0.892784 
0.915740 
0.892784 
0.781831 
0.864274 
0.946717 
0.864274 
0.881307 
0.921110 
0.858535 
0.921110 
0.881307 
0.887046 
0.910001 
0.869829 
0.915556 
0.869829 
0.910001 
0.887046 
0.892784 
0.915740 
0.892784 
0.927218 
0.892784 
0.927218 
0.892784 
0.915740 
0.892784 
0.781831 
0.864274 
0.946717 
0.864274 
0.881307 
0.921110 
0.858535 
0.921110 
0.881307 
0.887046 
0.910001 
0.869829 
0.915556 
0.869829 
0.910001 
0.887046 
0.892784 
0.915740 
0.892784 
0.927218 
0.892784 
0.927218 
0.892784 
0.915740 
0.892784 
SCALARS MASS float 
LOOKUP_TABLE default 
0.781831 
0.864274 
0.946717 
0.864274 
0.881307 
0.921110 
0.858535 
0.921110 
0.881307 
0.887046 
0.910001 
0.869829 
0.915556 
0.869829 
0.910001 
0.887046 
0.892784 
0.915740 
0.892784 
0.927218 
0.892784 
0.927218 
0.892784 
0.915740 
0.892784 
0.781831 
0.864274 
0.946717 
0.864274 
0.881307 
0.921110 
0.858535 
0.921110 
0.881307 
0.887046 
0.910001 
0.869829 
0.915556 
0.869829 
0.910001 
0.887046 
0.892784 
0.915740 
0.892784 
0.927218 
0.892784 
0.927218 
0.892784 
0.915740 
0.892784 
0.781831 
0.864274 
0.946717 
0.864274 
0.881307 
0.921110 
0.858535 
0.921110 
0.881307 
0.887046 
0.910001 
0.869829 
0.915556 
0.869829 
0.910001 
0.887046 
0.892784 
0.915740 
0.892784 
0.927218 
0.892784 
0.927218 
0.892784 
0.915740 
0.892784 
0.781831 
0.864274 
0.946717 
0.864274 
0.881307 
0.921110 
0.858535 
0.921110 
0.881307 
0.887046 
0.910001 
0.869829 
0.915556 
0.869829 
0.910001 
0.887046 
0.892784 
0.915740 
0.892784 
0.927218 
0.892784 
0.927218 
0.892784 
0.915740 
0.892784 
0.781831 
0.864274 
0.946717 
0.864274 
0.881307 
0.921110 
0.858535 
0.921110 
0.881307 
0.887046 
0.910001 
0.869829 
0.915556 
0.869829 
0.910001 
0.887046 
0.892784 
0.915740 
0.892784 
0.927218 
0.892784 
0.927218 
0.892784 
0.915740 
0.892784 
0.781831 
0.864274 
0.946717 
0.864274 
0.881307 
0.921110 
0.858535 
0.921110 
0.881307 
0.887046 
0.910001 
0.869829 
0.915556 
0.869829 
0.910001 
0.887046 
0.892784 
0.915740 
0.892784 
0.927218 
0.892784 
0.927218 
0.892784 
0.915740 
0.892784 
0.781831 
0.864274 
0.946717 
0.864274 
0.881307 
0.921110 
0.858535 
0.921110 
0.881307 
0.887046 
0.910001 
0.869829 
0.915556 
0.869829 
0.910001 
0.887046 
0.892784 
0.915740 
0.892784 
0.927218 
0.892784 
0.927218 
0.892784 
0.915740 
0.892784 
SCALARS DENSITY float 
LOOKUP_TABLE default 
200.000000 
200.000000 
200.000000 
200.000000 
200.000000 
200.000000 
200.000000 
200.000000 
200.000000 
200.000000 
200.000000 
200.000000 
200.000000 
200.000000 
200.000000 
200.000000 
200.000000 
200.000000 
200.000000 
200.000000 
200.000000 
200.000000 
200.000000 
200.000000 
200.000000 
200.000000 
200.000000 
200.000000 
200.000000 
200.000000 
200.000000 
200.000000 
200.000000 
200.000000 
200.000000 
200.000000 
200.000000 
200.000000 
200.000000 
200.000000 
200.000000 
200.000000 
200.000000 
200.000000 
200.000000 
200.000000 
200.000000 
200.000000 
200.000000 
200.000000 
200.000000 
200.000000 
200.000000 
200.000000 
200.000000 
200.000000 
200.000000 
200.000000 
200.000000 
200.000000 
200.000000 
200.000000 
200.000000 
200.000000 
200.000000 
200.000000 
200.000000 
200.000000 
200.000000 
200.000000 
200.000000 
200.000000 
200.000000 
200.000000 
200.000000 
200.000000 
200.000000 
200.000000 
200.000000 
200.000000 
200.000000 
200.000000 
200.000000 
200.000000 
200.000000 
200.000000 
200.000000 
200.000000 
200.000000 
200.000000 
200.000000 
200.000000 
200.000000 
200.000000 
200.000000 
200.000000 
200.000000 
200.000000 
200.000000 
200.000000 
200.000000 
200.000000 
200.000000 
200.000000 
200.000000 
200.000000 
200.000000 
200.000000 
200.000000 
200.000000 
200.000000 
200.000000 
200.000000 
200.000000 
200.000000 
200.000000 
200.000000 
200.000000 
200.000000 
200.000000 
200.000000 
200.000000 
200.000000 
200.000000 
200.000000 
200.000000 
200.000000 
200.000000 
200.000000 
200.000000 
200.000000 
200.000000 
200.000000 
200.000000 
200.000000 
200.000000 
200.000000 
200.000000 
200.000000 
200.000000 
200.000000 
200.000000 
200.000000 
200.000000 
200.000000 
200.000000 
200.000000 
200.000000 
200.000000 
200.000000 
200.000000 
200.000000 
200.000000 
200.000000 
200.000000 
200.000000 
200.000000 
200.000000 
200.000000 
200.000000 
200.000000 
200.000000 
200.000000 
200.000000 
200.000000 
200.000000 
200.000000 
200.000000 
200.000000 
200.000000 
200.000000 
200.000000 
200.000000 
200.000000 
200.000000 
SCALARS ELEM_i float 
LOOKUP_TABLE default 
179 
206 
179 
180 
207 
207 
207 
180 
180 
234 
207 
208 
208 
208 
181 
181 
235 
235 
235 
208 
208 
208 
209 
181 
182 
179 
206 
206 
206 
232 
206 
233 
206 
207 
232 
232 
233 
233 
233 
234 
234 
259 
259 
260 
260 
260 
261 
261 
234 
234 
178 
205 
205 
205 
204 
204 
204 
205 
232 
203 
204 
231 
231 
231 
232 
232 
203 
230 
230 
231 
231 
231 
258 
259 
259 
178 
178 
178 
178 
150 
177 
177 
177 
204 
149 
149 
176 
176 
176 
203 
203 
149 
149 
149 
176 
175 
176 
203 
203 
203 
178 
151 
151 
151 
124 
151 
150 
150 
150 
124 
124 
123 
123 
123 
150 
149 
97 
97 
96 
123 
123 
123 
122 
122 
149 
179 
152 
152 
152 
153 
152 
125 
152 
124 
126 
126 
125 
125 
125 
124 
124 
126 
126 
99 
99 
98 
98 
98 
97 
97 
179 
180 
179 
152 
180 
180 
153 
153 
153 
181 
181 
154 
154 
154 
153 
126 
182 
181 
155 
154 
154 
154 
127 
127 
127 
VECTORS VELOCITY float 
-0.000000 -3.029328 0.000000 
0.000000 -3.029328 0.000000 
0.000000 -3.029328 0.000000 
0.000000 -3.029328 0.000000 
0.000000 -3.029328 0.000000 
0.000000 -3.029328 0.000000 
0.000000 -3.029328 0.000000 
0.000000 -3.029328 0.000000 
0.000000 -3.029328 0.000000 
0.000000 -3.029328 0.000000 
0.000000 -3.029328 0.000000 
0.000000 -3.029328 0.000000 
0.000000 -3.029328 0.000000 
0.000000 -3.029328 0.000000 
-0.000000 -3.029328 0.000000 
0.000000 -3.029328 0.000000 
0.000000 -3.029328 0.000000 
0.000000 -3.029328 0.000000 
0.000000 -3.029328 0.000000 
-0.000000 -3.029328 0.000000 
0.000000 -3.029328 0.000000 
0.000000 -3.029328 0.000000 
0.000000 -3.029328 0.000000 
-0.000000 -3.029328 0.000000 
0.000000 -3.029328 0.000000 
-0.000000 -3.029328 0.000000 
-0.000000 -3.029328 0.000000 
-0.000000 -3.029328 0.000000 
-0.000000 -3.029328 0.000000 
0.000000 -3.029328 0.000000 
0.000000 -3.029328 0.000000 
0.000000 -3.029328 0.000000 
-0.000000 -3.029328 0.000000 
-0.000000 -3.029328 0.000000 
0.000000 -3.029328 0.000000 
0.000000 -3.029328 0.000000 
0.000000 -3.029328 0.000000 
0.000000 -3.029328 0.000000 
0.000000 -3.029328 0.000000 
0.000000 -3.029328 0.000000 
0.000000 -3.029328 0.000000 
-0.000000 -3.029328 0.000000 
0.000000 -3.029328 0.000000 
-0.000000 -3.029328 0.000000 
0.000000 -3.029328 0.000000 
-0.000000 -3.029328 0.000000 
0.000000 -3.029328 0.000000 
0.000000 -3.029328 0.000000 
0.000000 -3.029328 0.000000 
0.000000 -3.029328 0.000000 
-0.000000 -3.029328 0.000000 
-0.000000 -3.029328 0.000000 
-0.000000 -3.029328 0.000000 
-0.000000 -3.029328 0.000000 
-0.000000 -3.029328 0.000000 
-0.000000 -3.029328 0.000000 
-0.000000 -3.029328 0.000000 
-0.000000 -3.029328 0.000000 
-0.000000 -3.029328 0.000000 
0.000000 -3.029328 0.000000 
0.000000 -3.029328 0.000000 
0.000000 -3.029328 0.000000 
-0.000000 -3.029328 0.000000 
-0.000000 -3.029328 0.000000 
-0.000000 -3.029328 0.000000 
-0.000000 -3.029328 0.000000 
-0.000000 -3.029328 0.000000 
0.000000 -3.029328 0.000000 
0.000000 -3.029328 0.000000 
0.000000 -3.029328 0.000000 
-0.000000 -3.029328 0.000000 
-0.000000 -3.029328 0.000000 
-0.000000 -3.029328 0.000000 
-0.000000 -3.029328 0.000000 
-0.000000 -3.029328 0.000000 
-0.000000 -3.029328 0.000000 
-0.000000 -3.029328 0.000000 
-0.000000 -3.029328 0.000000 
-0.000000 -3.029328 0.000000 
-0.000000 -3.029328 0.000000 
-0.000000 -3.029328 0.000000 
-0.000000 -3.029328 0.000000 
-0.000000 -3.029328 0.000000 
-0.000000 -3.029328 0.000000 
0.000000 -3.029328 0.000000 
0.000000 -3.029328 0.000000 
-0.000000 -3.029328 0.000000 
-0.000000 -3.029328 0.000000 
-0.000000 -3.029328 0.000000 
-0.000000 -3.029328 0.000000 
-0.000000 -3.029328 0.000000 
-0.000000 -3.029328 0.000000 
-0.000000 -3.029328 0.000000 
-0.000000 -3.029328 0.000000 
-0.000000 -3.029328 0.000000 
-0.000000 -3.029328 0.000000 
-0.000000 -3.029328 0.000000 
0.000000 -3.029328 0.000000 
-0.000000 -3.029328 0.000000 
0.000000 -3.029328 0.000000 
-0.000000 -3.029328 0.000000 
0.000000 -3.029328 0.000000 
0.000000 -3.029328 0.000000 
0.000000 -3.029328 0.000000 
0.000000 -3.029328 0.000000 
0.000000 -3.029328 0.000000 
-0.000000 -3.029328 0.000000 
-0.000000 -3.029328 0.000000 
-0.000000 -3.029328 0.000000 
-0.000000 -3.029328 0.000000 
-0.000000 -3.029328 0.000000 
-0.000000 -3.029328 0.000000 
-0.000000 -3.029328 0.000000 
-0.000000 -3.029328 0.000000 
-0.000000 -3.029328 0.000000 
0.000000 -3.029328 0.000000 
-0.000000 -3.029328 0.000000 
-0.000000 -3.029328 0.000000 
-0.000000 -3.029328 0.000000 
-0.000000 -3.029328 0.000000 
-0.000000 -3.029328 0.000000 
0.000000 -3.029328 0.000000 
-0.000000 -3.029328 0.000000 
0.000000 -3.029328 0.000000 
-0.000000 -3.029328 0.000000 
0.000000 -3.029328 0.000000 
-0.000000 -3.029328 0.000000 
0.000000 -3.029328 0.000000 
0.000000 -3.029328 0.000000 
0.000000 -3.029328 0.000000 
0.000000 -3.029328 0.000000 
0.000000 -3.029328 0.000000 
0.000000 -3.029328 0.000000 
0.000000 -3.029328 0.000000 
0.000000 -3.029328 0.000000 
0.000000 -3.029328 0.000000 
-0.000000 -3.029328 0.000000 
0.000000 -3.029328 0.000000 
0.000000 -3.029328 0.000000 
-0.000000 -3.029328 0.000000 
-0.000000 -3.029328 0.000000 
0.000000 -3.029328 0.000000 
-0.000000 -3.029328 0.000000 
0.000000 -3.029328 0.000000 
0.000000 -3.029328 0.000000 
0.000000 -3.029328 0.000000 
0.000000 -3.029328 0.000000 
0.000000 -3.029328 0.000000 
-0.000000 -3.029328 0.000000 
-0.000000 -3.029328 0.000000 
-0.000000 -3.029328 0.000000 
-0.000000 -3.029328 0.000000 
-0.000000 -3.029328 0.000000 
-0.000000 -3.029328 0.000000 
0.000000 -3.029328 0.000000 
0.000000 -3.029328 0.000000 
0.000000 -3.029328 0.000000 
-0.000000 -3.029328 0.000000 
0.000000 -3.029328 0.000000 
0.000000 -3.029328 0.000000 
0.000000 -3.029328 0.000000 
-0.000000 -3.029328 0.000000 
0.000000 -3.029328 0.000000 
-0.000000 -3.029328 0.000000 
-0.000000 -3.029328 0.000000 
-0.000000 -3.029328 0.000000 
0.000000 -3.029328 0.000000 
0.000000 -3.029328 0.000000 
0.000000 -3.029328 0.000000 
0.000000 -3.029328 0.000000 
0.000000 -3.029328 0.000000 
-0.000000 -3.029328 0.000000 
0.000000 -3.029328 0.000000 
-0.000000 -3.029328 0.000000 
0.000000 -3.029328 0.000000 
TENSORS STRESS float 
0.000000 -0.000000 0.000000 
0.000000 0.000000 0.000000 
0.000000 0.000000 0.000000 

0.000000 -0.000000 0.000000 
0.000000 0.000000 0.000000 
0.000000 0.000000 0.000000 

0.000000 0.000000 0.000000 
0.000000 0.000000 0.000000 
0.000000 0.000000 0.000000 

0.000000 -0.000000 0.000000 
0.000000 0.000000 0.000000 
0.000000 0.000000 0.000000 

0.000000 0.000000 0.000000 
0.000000 0.000000 0.000000 
0.000000 0.000000 0.000000 

0.000000 0.000000 0.000000 
0.000000 0.000000 0.000000 
0.000000 0.000000 0.000000 

0.000000 -0.000000 0.000000 
0.000000 0.000000 0.000000 
0.000000 0.000000 0.000000 

0.000000 -0.000000 0.000000 
0.000000 0.000000 0.000000 
0.000000 0.000000 0.000000 

-0.000000 -0.000000 0.000000 
0.000000 -0.000000 0.000000 
0.000000 0.000000 0.000000 

0.000000 -0.000000 0.000000 
0.000000 0.000000 0.000000 
0.000000 0.000000 0.000000 

0.000000 -0.000000 0.000000 
0.000000 0.000000 0.000000 
0.000000 0.000000 0.000000 

-0.000000 -0.000000 0.000000 
0.000000 -0.000000 0.000000 
0.000000 0.000000 0.000000 

0.000000 0.000000 0.000000 
0.000000 0.000000 0.000000 
0.000000 0.000000 0.000000 

0.000000 0.000000 0.000000 
0.000000 0.000000 0.000000 
0.000000 0.000000 0.000000 

0.000000 0.000000 0.000000 
0.000000 0.000000 0.000000 
0.000000 0.000000 0.000000 

-0.000000 0.000000 0.000000 
0.000000 -0.000000 0.000000 
0.000000 0.000000 0.000000 

0.000000 -0.000000 0.000000 
0.000000 0.000000 0.000000 
0.000000 0.000000 0.000000 

0.000000 0.000000 0.000000 
0.000000 0.000000 0.000000 
0.000000 0.000000 0.000000 

-0.000000 0.000000 0.000000 
0.000000 -0.000000 0.000000 
0.000000 0.000000 0.000000 

-0.000000 -0.000000 0.000000 
0.000000 -0.000000 0.000000 
0.000000 0.000000 0.000000 

0.000000 0.000000 0.000000 
0.000000 0.000000 0.000000 
0.000000 0.000000 0.000000 

-0.000000 0.000000 0.000000 
0.000000 -0.000000 0.000000 
0.000000 0.000000 0.000000 

0.000000 0.000000 0.000000 
0.000000 0.000000 0.000000 
0.000000 0.000000 0.000000 

0.000000 0.000000 0.000000 
0.000000 0.000000 0.000000 
0.000000 0.000000 0.000000 

0.000000 0.000000 0.000000 
0.000000 0.000000 0.000000 
0.000000 0.000000 0.000000 

0.000000 0.000000 0.000000 
0.000000 0.000000 0.000000 
0.000000 0.000000 0.000000 

-0.000000 -0.000000 0.000000 
0.000000 0.000000 0.000000 
0.000000 0.000000 0.000000 

0.000000 -0.000000 0.000000 
0.000000 0.000000 0.000000 
0.000000 0.000000 0.000000 

0.000000 -0.000000 0.000000 
0.000000 0.000000 0.000000 
0.000000 0.000000 0.000000 

0.000000 0.000000 0.000000 
0.000000 0.000000 0.000000 
0.000000 0.000000 0.000000 

0.000000 -0.000000 0.000000 
0.000000 0.000000 0.000000 
0.000000 0.000000 0.000000 

0.000000 -0.000000 0.000000 
0.000000 0.000000 0.000000 
0.000000 0.000000 0.000000 

-0.000000 0.000000 0.000000 
0.000000 -0.000000 0.000000 
0.000000 0.000000 0.000000 

-0.000000 -0.000000 0.000000 
0.000000 -0.000000 0.000000 
0.000000 0.000000 0.000000 

-0.000000 0.000000 0.000000 
0.000000 -0.000000 0.000000 
0.000000 0.000000 0.000000 

0.000000 0.000000 0.000000 
0.000000 0.000000 0.000000 
0.000000 0.000000 0.000000 

0.000000 0.000000 0.000000 
0.000000 0.000000 0.000000 
0.000000 0.000000 0.000000 

-0.000000 0.000000 0.000000 
0.000000 -0.000000 0.000000 
0.000000 0.000000 0.000000 

0.000000 -0.000000 0.000000 
0.000000 0.000000 0.000000 
0.000000 0.000000 0.000000 

0.000000 -0.000000 0.000000 
0.000000 0.000000 0.000000 
0.000000 0.000000 0.000000 

-0.000000 0.000000 0.000000 
0.000000 -0.000000 0.000000 
0.000000 0.000000 0.000000 

-0.000000 -0.000000 0.000000 
0.000000 -0.000000 0.000000 
0.000000 0.000000 0.000000 

-0.000000 0.000000 0.000000 
0.000000 -0.000000 0.000000 
0.000000 0.000000 0.000000 

-0.000000 0.000000 0.000000 
0.000000 -0.000000 0.000000 
0.000000 0.000000 0.000000 

-0.000000 0.000000 0.000000 
0.000000 -0.000000 0.000000 
0.000000 0.000000 0.000000 

-0.000000 -0.000000 0.000000 
0.000000 -0.000000 0.000000 
0.000000 0.000000 0.000000 

0.000000 0.000000 0.000000 
0.000000 0.000000 0.000000 
0.000000 0.000000 0.000000 

0.000000 0.000000 0.000000 
0.000000 -0.000000 0.000000 
0.000000 0.000000 0.000000 

-0.000000 -0.000000 0.000000 
0.000000 -0.000000 0.000000 
0.000000 0.000000 0.000000 

0.000000 -0.000000 0.000000 
0.000000 0.000000 0.000000 
0.000000 0.000000 0.000000 

0.000000 -0.000000 0.000000 
0.000000 0.000000 0.000000 
0.000000 0.000000 0.000000 

-0.000000 -0.000000 0.000000 
0.000000 -0.000000 0.000000 
0.000000 0.000000 0.000000 

-0.000000 -0.000000 0.000000 
0.000000 -0.000000 0.000000 
0.000000 0.000000 0.000000 

-0.000000 -0.000000 0.000000 
0.000000 -0.000000 0.000000 
0.000000 0.000000 0.000000 

0.000000 0.000000 0.000000 
0.000000 0.000000 0.000000 
0.000000 0.000000 0.000000 

0.000000 0.000000 0.000000 
0.000000 0.000000 0.000000 
0.000000 0.000000 0.000000 

0.000000 0.000000 0.000000 
0.000000 0.000000 0.000000 
0.000000 0.000000 0.000000 

-0.000000 -0.000000 0.000000 
0.000000 -0.000000 0.000000 
0.000000 0.000000 0.000000 

0.000000 0.000000 0.000000 
0.000000 -0.000000 0.000000 
0.000000 0.000000 0.000000 

0.000000 0.000000 0.000000 
0.000000 0.000000 0.000000 
0.000000 0.000000 0.000000 

0.000000 -0.000000 0.000000 
0.000000 0.000000 0.000000 
0.000000 0.000000 0.000000 

0.000000 0.000000 0.000000 
0.000000 0.000000 0.000000 
0.000000 0.000000 0.000000 

-0.000000 0.000000 0.000000 
0.000000 -0.000000 0.000000 
0.000000 0.000000 0.000000 

-0.000000 -0.000000 0.000000 
0.000000 -0.000000 0.000000 
0.000000 0.000000 0.000000 

0.000000 0.000000 0.000000 
0.000000 0.000000 0.000000 
0.000000 0.000000 0.000000 

-0.000000 -0.000000 0.000000 
0.000000 -0.000000 0.000000 
0.000000 0.000000 0.000000 

-0.000000 -0.000000 0.000000 
0.000000 -0.000000 0.000000 
0.000000 0.000000 0.000000 

-0.000000 0.000000 0.000000 
0.000000 -0.000000 0.000000 
0.000000 0.000000 0.000000 

0.000000 0.000000 0.000000 
0.000000 0.000000 0.000000 
0.000000 0.000000 0.000000 

-0.000000 0.000000 0.000000 
0.000000 -0.000000 0.000000 
0.000000 0.000000 0.000000 

0.000000 0.000000 0.000000 
0.000000 0.000000 0.000000 
0.000000 0.000000 0.000000 

0.000000 0.000000 0.000000 
0.000000 0.000000 0.000000 
0.000000 0.000000 0.000000 

0.000000 -0.000000 0.000000 
0.000000 0.000000 0.000000 
0.000000 0.000000 0.000000 

0.000000 0.000000 0.000000 
0.000000 0.000000 0.000000 
0.000000 0.000000 0.000000 

0.000000 0.000000 0.000000 
0.000000 0.000000 0.000000 
0.000000 0.000000 0.000000 

-0.000000 -0.000000 0.000000 
0.000000 -0.000000 0.000000 
0.000000 0.000000 0.000000 

0.000000 -0.000000 0.000000 
0.000000 0.000000 0.000000 
0.000000 0.000000 0.000000 

-0.000000 -0.000000 0.000000 
0.000000 -0.000000 0.000000 
0.000000 0.000000 0.000000 

-0.000000 -0.000000 0.000000 
0.000000 -0.000000 0.000000 
0.000000 0.000000 0.000000 

-0.000000 0.000000 0.000000 
0.000000 -0.000000 0.000000 
0.000000 0.000000 0.000000 

-0.000000 -0.000000 0.000000 
0.000000 -0.000000 0.000000 
0.000000 0.000000 0.000000 

0.000000 -0.000000 0.000000 
0.000000 0.000000 0.000000 
0.000000 0.000000 0.000000 

0.000000 -0.000000 0.000000 
0.000000 0.000000 0.000000 
0.000000 0.000000 0.000000 

0.000000 0.000000 0.000000 
0.000000 0.000000 0.000000 
0.000000 0.000000 0.000000 

-0.000000 0.000000 0.000000 
0.000000 -0.000000 0.000000 
0.000000 0.000000 0.000000 

-0.000000 0.000000 0.000000 
0.000000 -0.000000 0.000000 
0.000000 0.000000 0.000000 

0.000000 -0.000000 0.000000 
0.000000 0.000000 0.000000 
0.000000 0.000000 0.000000 

-0.000000 0.000000 0.000000 
0.000000 -0.000000 0.000000 
0.000000 0.000000 0.000000 

-0.000000 -0.000000 0.000000 
0.000000 -0.000000 0.000000 
0.000000 0.000000 0.000000 

0.000000 0.000000 0.000000 
0.000000 0.000000 0.000000 
0.000000 0.000000 0.000000 

-0.000000 0.000000 0.000000 
0.000000 -0.000000 0.000000 
0.000000 0.000000 0.000000 

0.000000 0.000000 0.000000 
0.000000 0.000000 0.000000 
0.000000 0.000000 0.000000 

-0.000000 0.000000 0.000000 
0.000000 -0.000000 0.000000 
0.000000 0.000000 0.000000 

-0.000000 0.000000 0.000000 
0.000000 -0.000000 0.000000 
0.000000 0.000000 0.000000 

-0.000000 0.000000 0.000000 
0.000000 -0.000000 0.000000 
0.000000 0.000000 0.000000 

-0.000000 0.000000 0.000000 
0.000000 -0.000000 0.000000 
0.000000 0.000000 0.000000 

0.000000 -0.000000 0.000000 
0.000000 0.000000 0.000000 
0.000000 0.000000 0.000000 

0.000000 -0.000000 0.000000 
0.000000 0.000000 0.000000 
0.000000 0.000000 0.000000 

-0.000000 -0.000000 0.000000 
0.000000 -0.000000 0.000000 
0.000000 0.000000 0.000000 

0.000000 -0.000000 0.000000 
0.000000 0.000000 0.000000 
0.000000 0.000000 0.000000 

0.000000 -0.000000 0.000000 
0.000000 0.000000 0.000000 
0.000000 0.000000 0.000000 

-0.000000 0.000000 0.000000 
0.000000 -0.000000 0.000000 
0.000000 0.000000 0.000000 

-0.000000 0.000000 0.000000 
0.000000 -0.000000 0.000000 
0.000000 0.000000 0.000000 

-0.000000 0.000000 0.000000 
0.000000 0.000000 0.000000 
0.000000 0.000000 0.000000 

0.000000 0.000000 0.000000 
0.000000 0.000000 0.000000 
0.000000 0.000000 0.000000 

-0.000000 0.000000 0.000000 
0.000000 0.000000 0.000000 
0.000000 0.000000 0.000000 

0.000000 0.000000 0.000000 
0.000000 0.000000 0.000000 
0.000000 0.000000 0.000000 

-0.000000 0.000000 0.000000 
0.000000 -0.000000 0.000000 
0.000000 0.000000 0.000000 

0.000000 -0.000000 0.000000 
0.000000 0.000000 0.000000 
0.000000 0.000000 0.000000 

0.000000 0.000000 0.000000 
0.000000 0.000000 0.000000 
0.000000 0.000000 0.000000 

0.000000 0.000000 0.000000 
0.000000 0.000000 0.000000 
0.000000 0.000000 0.000000 

-0.000000 0.000000 0.000000 
0.000000 -0.000000 0.000000 
0.000000 0.000000 0.000000 

-0.000000 0.000000 0.000000 
0.000000 -0.000000 0.000000 
0.000000 0.000000 0.000000 

-0.000000 -0.000000 0.000000 
0.000000 -0.000000 0.000000 
0.000000 0.000000 0.000000 

0.000000 -0.000000 0.000000 
0.000000 0.000000 0.000000 
0.000000 0.000000 0.000000 

0.000000 0.000000 0.000000 
0.000000 0.000000 0.000000 
0.000000 0.000000 0.000000 

-0.000000 -0.000000 0.000000 
0.000000 -0.000000 0.000000 
0.000000 0.000000 0.000000 

0.000000 0.000000 0.000000 
0.000000 0.000000 0.000000 
0.000000 0.000000 0.000000 

0.000000 0.000000 0.000000 
0.000000 0.000000 0.000000 
0.000000 0.000000 0.000000 

-0.000000 -0.000000 0.000000 
0.000000 -0.000000 0.000000 
0.000000 0.000000 0.000000 

0.000000 -0.000000 0.000000 
0.000000 0.000000 0.000000 
0.000000 0.000000 0.000000 

0.000000 0.000000 0.000000 
0.000000 0.000000 0.000000 
0.000000 0.000000 0.000000 

-0.000000 0.000000 0.000000 
0.000000 -0.000000 0.000000 
0.000000 0.000000 0.000000 

0.000000 0.000000 0.000000 
0.000000 0.000000 0.000000 
0.000000 0.000000 0.000000 

-0.000000 0.000000 0.000000 
0.000000 -0.000000 0.000000 
0.000000 0.000000 0.000000 

0.000000 -0.000000 0.000000 
0.000000 0.000000 0.000000 
0.000000 0.000000 0.000000 

-0.000000 -0.000000 0.000000 
0.000000 -0.000000 0.000000 
0.000000 0.000000 0.000000 

-0.000000 0.000000 0.000000 
0.000000 -0.000000 0.000000 
0.000000 0.000000 0.000000 

-0.000000 -0.000000 0.000000 
0.000000 0.000000 0.000000 
0.000000 0.000000 0.000000 

-0.000000 0.000000 0.000000 
0.000000 0.000000 0.000000 
0.000000 0.000000 0.000000 

-0.000000 -0.000000 0.000000 
0.000000 -0.000000 0.000000 
0.000000 0.000000 0.000000 

-0.000000 -0.000000 0.000000 
0.000000 -0.000000 0.000000 
0.000000 0.000000 0.000000 

0.000000 0.000000 0.000000 
0.000000 0.000000 0.000000 
0.000000 0.000000 0.000000 

0.000000 -0.000000 0.000000 
0.000000 0.000000 0.000000 
0.000000 0.000000 0.000000 

-0.000000 0.000000 0.000000 
0.000000 -0.000000 0.000000 
0.000000 0.000000 0.000000 

-0.000000 0.000000 0.000000 
0.000000 -0.000000 0.000000 
0.000000 0.000000 0.000000 

-0.000000 0.000000 0.000000 
0.000000 -0.000000 0.000000 
0.000000 0.000000 0.000000 

0.000000 -0.000000 0.000000 
0.000000 0.000000 0.000000 
0.000000 0.000000 0.000000 

0.000000 -0.000000 0.000000 
0.000000 0.000000 0.000000 
0.000000 0.000000 0.000000 

0.000000 -0.000000 0.000000 
0.000000 0.000000 0.000000 
0.000000 0.000000 0.000000 

0.000000 -0.000000 0.000000 
0.000000 0.000000 0.000000 
0.000000 0.000000 0.000000 

-0.000000 -0.000000 0.000000 
0.000000 -0.000000 0.000000 
0.000000 0.000000 0.000000 

0.000000 0.000000 0.000000 
0.000000 0.000000 0.000000 
0.000000 0.000000 0.000000 

-0.000000 -0.000000 0.000000 
0.000000 -0.000000 0.000000 
0.000000 0.000000 0.000000 

0.000000 -0.000000 0.000000 
0.000000 0.000000 0.000000 
0.000000 0.000000 0.000000 

-0.000000 -0.000000 0.000000 
0.000000 -0.000000 0.000000 
0.000000 0.000000 0.000000 

0.000000 -0.000000 0.000000 
0.000000 0.000000 0.000000 
0.000000 0.000000 0.000000 

0.000000 0.000000 0.000000 
0.000000 0.000000 0.000000 
0.000000 0.000000 0.000000 

0.000000 -0.000000 0.000000 
0.000000 0.000000 0.000000 
0.000000 0.000000 0.000000 

-0.000000 -0.000000 0.000000 
0.000000 -0.000000 0.000000 
0.000000 0.000000 0.000000 

-0.000000 -0.000000 0.000000 
0.000000 -0.000000 0.000000 
0.000000 0.000000 0.000000 

0.000000 -0.000000 0.000000 
0.000000 0.000000 0.000000 
0.000000 0.000000 0.000000 

-0.000000 -0.000000 0.000000 
0.000000 0.000000 0.000000 
0.000000 0.000000 0.000000 

0.000000 0.000000 0.000000 
0.000000 0.000000 0.000000 
0.000000 0.000000 0.000000 

0.000000 -0.000000 0.000000 
0.000000 0.000000 0.000000 
0.000000 0.000000 0.000000 

-0.000000 -0.000000 0.000000 
0.000000 -0.000000 0.000000 
0.000000 0.000000 0.000000 

-0.000000 0.000000 0.000000 
0.000000 -0.000000 0.000000 
0.000000 0.000000 0.000000 

0.000000 -0.000000 0.000000 
0.000000 0.000000 0.000000 
0.000000 0.000000 0.000000 

0.000000 -0.000000 0.000000 
0.000000 0.000000 0.000000 
0.000000 0.000000 0.000000 

-0.000000 0.000000 0.000000 
0.000000 -0.000000 0.000000 
0.000000 0.000000 0.000000 

0.000000 0.000000 0.000000 
0.000000 0.000000 0.000000 
0.000000 0.000000 0.000000 

0.000000 0.000000 0.000000 
0.000000 0.000000 0.000000 
0.000000 0.000000 0.000000 

-0.000000 0.000000 0.000000 
0.000000 -0.000000 0.000000 
0.000000 0.000000 0.000000 

-0.000000 0.000000 0.000000 
0.000000 -0.000000 0.000000 
0.000000 0.000000 0.000000 

0.000000 -0.000000 0.000000 
0.000000 0.000000 0.000000 
0.000000 0.000000 0.000000 

0.000000 -0.000000 0.000000 
0.000000 0.000000 0.000000 
0.000000 0.000000 0.000000 

0.000000 0.000000 0.000000 
0.000000 0.000000 0.000000 
0.000000 0.000000 0.000000 

-0.000000 0.000000 0.000000 
0.000000 -0.000000 0.000000 
0.000000 0.000000 0.000000 

-0.000000 0.000000 0.000000 
0.000000 0.000000 0.000000 
0.000000 0.000000 0.000000 

-0.000000 0.000000 0.000000 
0.000000 -0.000000 0.000000 
0.000000 0.000000 0.000000 

0.000000 0.000000 0.000000 
0.000000 0.000000 0.000000 
0.000000 0.000000 0.000000 

-0.000000 0.000000 0.000000 
0.000000 -0.000000 0.000000 
0.000000 0.000000 0.000000 

0.000000 -0.000000 0.000000 
0.000000 0.000000 0.000000 
0.000000 0.000000 0.000000 

0.000000 -0.000000 0.000000 
0.000000 0.000000 0.000000 
0.000000 0.000000 0.000000 

0.000000 -0.000000 0.000000 
0.000000 0.000000 0.000000 
0.000000 0.000000 0.000000 

TENSORS STRAIN float 
0.000000 -0.000000 0.000000 
0.000000 0.000000 0.000000 
0.000000 0.000000 0.000000 

-0.000000 -0.000000 0.000000 
0.000000 0.000000 0.000000 
0.000000 0.000000 0.000000 

-0.000000 0.000000 0.000000 
0.000000 0.000000 0.000000 
0.000000 0.000000 0.000000 

-0.000000 -0.000000 0.000000 
0.000000 0.000000 0.000000 
0.000000 0.000000 0.000000 

-0.000000 0.000000 0.000000 
0.000000 0.000000 0.000000 
0.000000 0.000000 0.000000 

-0.000000 0.000000 0.000000 
0.000000 0.000000 0.000000 
0.000000 0.000000 0.000000 

-0.000000 -0.000000 0.000000 
0.000000 0.000000 0.000000 
0.000000 0.000000 0.000000 

-0.000000 -0.000000 0.000000 
0.000000 0.000000 0.000000 
0.000000 0.000000 0.000000 

-0.000000 -0.000000 0.000000 
0.000000 -0.000000 0.000000 
0.000000 0.000000 0.000000 

-0.000000 -0.000000 0.000000 
0.000000 0.000000 0.000000 
0.000000 0.000000 0.000000 

-0.000000 -0.000000 0.000000 
0.000000 0.000000 0.000000 
0.000000 0.000000 0.000000 

-0.000000 -0.000000 0.000000 
0.000000 0.000000 0.000000 
0.000000 0.000000 0.000000 

-0.000000 0.000000 0.000000 
0.000000 0.000000 0.000000 
0.000000 0.000000 0.000000 

-0.000000 0.000000 0.000000 
0.000000 0.000000 0.000000 
0.000000 0.000000 0.000000 

-0.000000 0.000000 0.000000 
0.000000 0.000000 0.000000 
0.000000 0.000000 0.000000 

-0.000000 0.000000 0.000000 
0.000000 0.000000 0.000000 
0.000000 0.000000 0.000000 

0.000000 -0.000000 0.000000 
0.000000 -0.000000 0.000000 
0.000000 0.000000 0.000000 

0.000000 0.000000 0.000000 
0.000000 -0.000000 0.000000 
0.000000 0.000000 0.000000 

-0.000000 0.000000 0.000000 
0.000000 -0.000000 0.000000 
0.000000 0.000000 0.000000 

-0.000000 -0.000000 0.000000 
0.000000 -0.000000 0.000000 
0.000000 0.000000 0.000000 

0.000000 0.000000 0.000000 
0.000000 0.000000 0.000000 
0.000000 0.000000 0.000000 

0.000000 0.000000 0.000000 
0.000000 -0.000000 0.000000 
0.000000 0.000000 0.000000 

-0.000000 0.000000 0.000000 
0.000000 0.000000 0.000000 
0.000000 0.000000 0.000000 

-0.000000 0.000000 0.000000 
0.000000 0.000000 0.000000 
0.000000 0.000000 0.000000 

-0.000000 0.000000 0.000000 
0.000000 0.000000 0.000000 
0.000000 0.000000 0.000000 

0.000000 0.000000 0.000000 
0.000000 0.000000 0.000000 
0.000000 0.000000 0.000000 

-0.000000 -0.000000 0.000000 
0.000000 0.000000 0.000000 
0.000000 0.000000 0.000000 

-0.000000 -0.000000 0.000000 
0.000000 0.000000 0.000000 
0.000000 0.000000 0.000000 

-0.000000 -0.000000 0.000000 
0.000000 0.000000 0.000000 
0.000000 0.000000 0.000000 

0.000000 0.000000 0.000000 
0.000000 -0.000000 0.000000 
0.000000 0.000000 0.000000 

-0.000000 -0.000000 0.000000 
0.000000 0.000000 0.000000 
0.000000 0.000000 0.000000 

0.000000 -0.000000 0.000000 
0.000000 0.000000 0.000000 
0.000000 0.000000 0.000000 

-0.000000 0.000000 0.000000 
0.000000 0.000000 0.000000 
0.000000 0.000000 0.000000 

0.000000 -0.000000 0.000000 
0.000000 -0.000000 0.000000 
0.000000 0.000000 0.000000 

0.000000 0.000000 0.000000 
0.000000 -0.000000 0.000000 
0.000000 0.000000 0.000000 

0.000000 0.000000 0.000000 
0.000000 0.000000 0.000000 
0.000000 0.000000 0.000000 

0.000000 0.000000 0.000000 
0.000000 0.000000 0.000000 
0.000000 0.000000 0.000000 

-0.000000 0.000000 0.000000 
0.000000 -0.000000 0.000000 
0.000000 0.000000 0.000000 

-0.000000 -0.000000 0.000000 
0.000000 0.000000 0.000000 
0.000000 0.000000 0.000000 

-0.000000 -0.000000 0.000000 
0.000000 0.000000 0.000000 
0.000000 0.000000 0.000000 

-0.000000 0.000000 0.000000 
0.000000 0.000000 0.000000 
0.000000 0.000000 0.000000 

-0.000000 -0.000000 0.000000 
0.000000 -0.000000 0.000000 
0.000000 0.000000 0.000000 

-0.000000 0.000000 0.000000 
0.000000 0.000000 0.000000 
0.000000 0.000000 0.000000 

-0.000000 0.000000 0.000000 
0.000000 -0.000000 0.000000 
0.000000 0.000000 0.000000 

-0.000000 0.000000 0.000000 
0.000000 -0.000000 0.000000 
0.000000 0.000000 0.000000 

-0.000000 -0.000000 0.000000 
0.000000 -0.000000 0.000000 
0.000000 0.000000 0.000000 

0.000000 0.000000 0.000000 
0.000000 0.000000 0.000000 
0.000000 0.000000 0.000000 

0.000000 0.000000 0.000000 
0.000000 -0.000000 0.000000 
0.000000 0.000000 0.000000 

-0.000000 -0.000000 0.000000 
0.000000 -0.000000 0.000000 
0.000000 0.000000 0.000000 

-0.000000 -0.000000 0.000000 
0.000000 0.000000 0.000000 
0.000000 0.000000 0.000000 

0.000000 -0.000000 0.000000 
0.000000 0.000000 0.000000 
0.000000 0.000000 0.000000 

0.000000 -0.000000 0.000000 
0.000000 -0.000000 0.000000 
0.000000 0.000000 0.000000 

0.000000 -0.000000 0.000000 
0.000000 -0.000000 0.000000 
0.000000 0.000000 0.000000 

0.000000 -0.000000 0.000000 
0.000000 -0.000000 0.000000 
0.000000 0.000000 0.000000 

-0.000000 0.000000 0.000000 
0.000000 0.000000 0.000000 
0.000000 0.000000 0.000000 

0.000000 0.000000 0.000000 
0.000000 0.000000 0.000000 
0.000000 0.000000 0.000000 

0.000000 0.000000 0.000000 
0.000000 -0.000000 0.000000 
0.000000 0.000000 0.000000 

-0.000000 -0.000000 0.000000 
0.000000 0.000000 0.000000 
0.000000 0.000000 0.000000 

0.000000 0.000000 0.000000 
0.000000 -0.000000 0.000000 
0.000000 0.000000 0.000000 

-0.000000 0.000000 0.000000 
0.000000 0.000000 0.000000 
0.000000 0.000000 0.000000 

-0.000000 -0.000000 0.000000 
0.000000 0.000000 0.000000 
0.000000 0.000000 0.000000 

-0.000000 0.000000 0.000000 
0.000000 0.000000 0.000000 
0.000000 0.000000 0.000000 

-0.000000 0.000000 0.000000 
0.000000 0.000000 0.000000 
0.000000 0.000000 0.000000 

-0.000000 -0.000000 0.000000 
0.000000 0.000000 0.000000 
0.000000 0.000000 0.000000 

-0.000000 0.000000 0.000000 
0.000000 0.000000 0.000000 
0.000000 0.000000 0.000000 

-0.000000 -0.000000 0.000000 
0.000000 -0.000000 0.000000 
0.000000 0.000000 0.000000 

-0.000000 -0.000000 0.000000 
0.000000 -0.000000 0.000000 
0.000000 0.000000 0.000000 

-0.000000 0.000000 0.000000 
0.000000 0.000000 0.000000 
0.000000 0.000000 0.000000 

-0.000000 0.000000 0.000000 
0.000000 0.000000 0.000000 
0.000000 0.000000 0.000000 

-0.000000 0.000000 0.000000 
0.000000 0.000000 0.000000 
0.000000 0.000000 0.000000 

-0.000000 0.000000 0.000000 
0.000000 0.000000 0.000000 
0.000000 0.000000 0.000000 

-0.000000 0.000000 0.000000 
0.000000 0.000000 0.000000 
0.000000 0.000000 0.000000 

0.000000 -0.000000 0.000000 
0.000000 0.000000 0.000000 
0.000000 0.000000 0.000000 

0.000000 0.000000 0.000000 
0.000000 0.000000 0.000000 
0.000000 0.000000 0.000000 

0.000000 0.000000 0.000000 
0.000000 0.000000 0.000000 
0.000000 0.000000 0.000000 

0.000000 -0.000000 0.000000 
0.000000 -0.000000 0.000000 
0.000000 0.000000 0.000000 

0.000000 -0.000000 0.000000 
0.000000 0.000000 0.000000 
0.000000 0.000000 0.000000 

0.000000 -0.000000 0.000000 
0.000000 -0.000000 0.000000 
0.000000 0.000000 0.000000 

0.000000 -0.000000 0.000000 
0.000000 -0.000000 0.000000 
0.000000 0.000000 0.000000 

0.000000 0.000000 0.000000 
0.000000 -0.000000 0.000000 
0.000000 0.000000 0.000000 

0.000000 -0.000000 0.000000 
0.000000 -0.000000 0.000000 
0.000000 0.000000 0.000000 

0.000000 -0.000000 0.000000 
0.000000 0.000000 0.000000 
0.000000 0.000000 0.000000 

0.000000 -0.000000 0.000000 
0.000000 0.000000 0.000000 
0.000000 0.000000 0.000000 

0.000000 0.000000 0.000000 
0.000000 0.000000 0.000000 
0.000000 0.000000 0.000000 

0.000000 0.000000 0.000000 
0.000000 -0.000000 0.000000 
0.000000 0.000000 0.000000 

0.000000 0.000000 0.000000 
0.000000 -0.000000 0.000000 
0.000000 0.000000 0.000000 

0.000000 -0.000000 0.000000 
0.000000 -0.000000 0.000000 
0.000000 0.000000 0.000000 

0.000000 0.000000 0.000000 
0.000000 -0.000000 0.000000 
0.000000 0.000000 0.000000 

0.000000 -0.000000 0.000000 
0.000000 -0.000000 0.000000 
0.000000 0.000000 0.000000 

-0.000000 0.000000 0.000000 
0.000000 0.000000 0.000000 
0.000000 0.000000 0.000000 

-0.000000 0.000000 0.000000 
0.000000 0.000000 0.000000 
0.000000 0.000000 0.000000 

0.000000 0.000000 0.000000 
0.000000 0.000000 0.000000 
0.000000 0.000000 0.000000 

0.000000 0.000000 0.000000 
0.000000 -0.000000 0.000000 
0.000000 0.000000 0.000000 

0.000000 0.000000 0.000000 
0.000000 -0.000000 0.000000 
0.000000 0.000000 0.000000 

-0.000000 0.000000 0.000000 
0.000000 -0.000000 0.000000 
0.000000 0.000000 0.000000 

-0.000000 0.000000 0.000000 
0.000000 0.000000 0.000000 
0.000000 0.000000 0.000000 

-0.000000 -0.000000 0.000000 
0.000000 0.000000 0.000000 
0.000000 0.000000 0.000000 

-0.000000 -0.000000 0.000000 
0.000000 0.000000 0.000000 
0.000000 0.000000 0.000000 

-0.000000 -0.000000 0.000000 
0.000000 -0.000000 0.000000 
0.000000 0.000000 0.000000 

-0.000000 -0.000000 0.000000 
0.000000 0.000000 0.000000 
0.000000 0.000000 0.000000 

0.000000 -0.000000 0.000000 
0.000000 0.000000 0.000000 
0.000000 0.000000 0.000000 

-0.000000 0.000000 0.000000 
0.000000 0.000000 0.000000 
0.000000 0.000000 0.000000 

-0.000000 0.000000 0.000000 
0.000000 0.000000 0.000000 
0.000000 0.000000 0.000000 

-0.000000 0.000000 0.000000 
0.000000 0.000000 0.000000 
0.000000 0.000000 0.000000 

0.000000 0.000000 0.000000 
0.000000 0.000000 0.000000 
0.000000 0.000000 0.000000 

-0.000000 0.000000 0.000000 
0.000000 0.000000 0.000000 
0.000000 0.000000 0.000000 

-0.000000 0.000000 0.000000 
0.000000 0.000000 0.000000 
0.000000 0.000000 0.000000 

-0.000000 0.000000 0.000000 
0.000000 0.000000 0.000000 
0.000000 0.000000 0.000000 

-0.000000 -0.000000 0.000000 
0.000000 0.000000 0.000000 
0.000000 0.000000 0.000000 

0.000000 0.000000 0.000000 
0.000000 0.000000 0.000000 
0.000000 0.000000 0.000000 

0.000000 0.000000 0.000000 
0.000000 0.000000 0.000000 
0.000000 0.000000 0.000000 

-0.000000 0.000000 0.000000 
0.000000 -0.000000 0.000000 
0.000000 0.000000 0.000000 

-0.000000 0.000000 0.000000 
0.000000 0.000000 0.000000 
0.000000 0.000000 0.000000 

-0.000000 -0.000000 0.000000 
0.000000 -0.000000 0.000000 
0.000000 0.000000 0.000000 

0.000000 -0.000000 0.000000 
0.000000 -0.000000 0.000000 
0.000000 0.000000 0.000000 

0.000000 0.000000 0.000000 
0.000000 -0.000000 0.000000 
0.000000 0.000000 0.000000 

-0.000000 -0.000000 0.000000 
0.000000 0.000000 0.000000 
0.000000 0.000000 0.000000 

-0.000000 0.000000 0.000000 
0.000000 0.000000 0.000000 
0.000000 0.000000 0.000000 

-0.000000 0.000000 0.000000 
0.000000 0.000000 0.000000 
0.000000 0.000000 0.000000 

-0.000000 -0.000000 0.000000 
0.000000 0.000000 0.000000 
0.000000 0.000000 0.000000 

0.000000 -0.000000 0.000000 
0.000000 0.000000 0.000000 
0.000000 0.000000 0.000000 

0.000000 0.000000 0.000000 
0.000000 0.000000 0.000000 
0.000000 0.000000 0.000000 

0.000000 0.000000 0.000000 
0.000000 -0.000000 0.000000 
0.000000 0.000000 0.000000 

0.000000 0.000000 0.000000 
0.000000 -0.000000 0.000000 
0.000000 0.000000 0.000000 

0.000000 0.000000 0.000000 
0.000000 -0.000000 0.000000 
0.000000 0.000000 0.000000 

0.000000 -0.000000 0.000000 
0.000000 0.000000 0.000000 
0.000000 0.000000 0.000000 

-0.000000 -0.000000 0.000000 
0.000000 0.000000 0.000000 
0.000000 0.000000 0.000000 

-0.000000 0.000000 0.000000 
0.000000 0.000000 0.000000 
0.000000 0.000000 0.000000 

-0.000000 -0.000000 0.000000 
0.000000 0.000000 0.000000 
0.000000 0.000000 0.000000 

-0.000000 0.000000 0.000000 
0.000000 0.000000 0.000000 
0.000000 0.000000 0.000000 

-0.000000 -0.000000 0.000000 
0.000000 -0.000000 0.000000 
0.000000 0.000000 0.000000 

-0.000000 -0.000000 0.000000 
0.000000 -0.000000 0.000000 
0.000000 0.000000 0.000000 

-0.000000 0.000000 0.000000 
0.000000 0.000000 0.000000 
0.000000 0.000000 0.000000 

0.000000 -0.000000 0.000000 
0.000000 0.000000 0.000000 
0.000000 0.000000 0.000000 

0.000000 0.000000 0.000000 
0.000000 -0.000000 0.000000 
0.000000 0.000000 0.000000 

-0.000000 0.000000 0.000000 
0.000000 -0.000000 0.000000 
0.000000 0.000000 0.000000 

-0.000000 0.000000 0.000000 
0.000000 0.000000 0.000000 
0.000000 0.000000 0.000000 

-0.000000 -0.000000 0.000000 
0.000000 0.000000 0.000000 
0.000000 0.000000 0.000000 

-0.000000 -0.000000 0.000000 
0.000000 0.000000 0.000000 
0.000000 0.000000 0.000000 

0.000000 -0.000000 0.000000 
0.000000 0.000000 0.000000 
0.000000 0.000000 0.000000 

0.000000 -0.000000 0.000000 
0.000000 -0.000000 0.000000 
0.000000 0.000000 0.000000 

0.000000 -0.000000 0.000000 
0.000000 -0.000000 0.000000 
0.000000 0.000000 0.000000 

0.000000 0.000000 0.000000 
0.000000 -0.000000 0.000000 
0.000000 0.000000 0.000000 

0.000000 -0.000000 0.000000 
0.000000 -0.000000 0.000000 
0.000000 0.000000 0.000000 

0.000000 -0.000000 0.000000 
0.000000 -0.000000 0.000000 
0.000000 0.000000 0.000000 

0.000000 -0.000000 0.000000 
0.000000 -0.000000 0.000000 
0.000000 0.000000 0.000000 

-0.000000 -0.000000 0.000000 
0.000000 0.000000 0.000000 
0.000000 0.000000 0.000000 

-0.000000 0.000000 0.000000 
0.000000 0.000000 0.000000 
0.000000 0.000000 0.000000 

-0.000000 -0.000000 0.000000 
0.000000 0.000000 0.000000 
0.000000 0.000000 0.000000 

-0.000000 -0.000000 0.000000 
0.000000 0.000000 0.000000 
0.000000 0.000000 0.000000 

0.000000 -0.000000 0.000000 
0.000000 -0.000000 0.000000 
0.000000 0.000000 0.000000 

-0.000000 -0.000000 0.000000 
0.000000 0.000000 0.000000 
0.000000 0.000000 0.000000 

-0.000000 -0.000000 0.000000 
0.000000 0.000000 0.000000 
0.000000 0.000000 0.000000 

-0.000000 0.000000 0.000000 
0.000000 0.000000 0.000000 
0.000000 0.000000 0.000000 

-0.000000 -0.000000 0.000000 
0.000000 0.000000 0.000000 
0.000000 0.000000 0.000000 

-0.000000 -0.000000 0.000000 
0.000000 0.000000 0.000000 
0.000000 0.000000 0.000000 

-0.000000 0.000000 0.000000 
0.000000 -0.000000 0.000000 
0.000000 0.000000 0.000000 

-0.000000 -0.000000 0.000000 
0.000000 0.000000 0.000000 
0.000000 0.000000 0.000000 

-0.000000 -0.000000 0.000000 
0.000000 0.000000 0.000000 
0.000000 0.000000 0.000000 

-0.000000 0.000000 0.000000 
0.000000 0.000000 0.000000 
0.000000 0.000000 0.000000 

-0.000000 0.000000 0.000000 
0.000000 0.000000 0.000000 
0.000000 0.000000 0.000000 

-0.000000 0.000000 0.000000 
0.000000 0.000000 0.000000 
0.000000 0.000000 0.000000 

-0.000000 0.000000 0.000000 
0.000000 0.000000 0.000000 
0.000000 0.000000 0.000000 

-0.000000 0.000000 0.000000 
0.000000 0.000000 0.000000 
0.000000 0.000000 0.000000 

-0.000000 -0.000000 0.000000 
0.000000 0.000000 0.000000 
0.000000 0.000000 0.000000 

0.000000 -0.000000 0.000000 
0.000000 0.000000 0.000000 
0.000000 0.000000 0.000000 

-0.000000 0.000000 0.000000 
0.000000 0.000000 0.000000 
0.000000 0.000000 0.000000 

-0.000000 0.000000 0.000000 
0.000000 0.000000 0.000000 
0.000000 0.000000 0.000000 

-0.000000 0.000000 0.000000 
0.000000 0.000000 0.000000 
0.000000 0.000000 0.000000 

-0.000000 0.000000 0.000000 
0.000000 0.000000 0.000000 
0.000000 0.000000 0.000000 

-0.000000 0.000000 0.000000 
0.000000 0.000000 0.000000 
0.000000 0.000000 0.000000 

-0.000000 0.000000 0.000000 
0.000000 0.000000 0.000000 
0.000000 0.000000 0.000000 

-0.000000 -0.000000 0.000000 
0.000000 0.000000 0.000000 
0.000000 0.000000 0.000000 

0.000000 -0.000000 0.000000 
0.000000 -0.000000 0.000000 
0.000000 0.000000 0.000000 

0.000000 -0.000000 0.000000 
0.000000 -0.000000 0.000000 
0.000000 0.000000 0.000000 

