# vtk DataFile Version 3.0 
vtk output 
ASCII 
DATASET UNSTRUCTURED_GRID 
POINTS 175 float 
-0.026061 -1.169681 0.000000 
-0.106992 -1.101626 0.000000 
-0.054870 -1.109858 0.000000 
-0.028809 -1.063975 0.000000 
-0.186430 -1.037550 0.000000 
-0.137056 -1.040076 0.000000 
-0.114311 -0.986429 0.000000 
-0.058186 -1.002095 0.000000 
-0.029377 -0.961918 0.000000 
-0.265318 -0.974394 0.000000 
-0.217198 -0.975194 0.000000 
-0.196633 -0.917898 0.000000 
-0.143120 -0.926606 0.000000 
-0.116563 -0.879338 0.000000 
-0.058945 -0.898983 0.000000 
-0.029568 -0.860863 0.000000 
-0.344206 -0.911239 0.000000 
-0.296791 -0.911232 0.000000 
-0.278030 -0.851289 0.000000 
-0.225992 -0.857155 0.000000 
-0.201664 -0.805038 0.000000 
-0.145749 -0.818512 0.000000 
-0.117890 -0.774169 0.000000 
-0.059328 -0.796875 0.000000 
-0.029759 -0.759809 0.000000 
-0.058559 -1.210432 0.000000 
-0.162226 -1.231275 0.000000 
-0.123292 -1.195657 0.000000 
-0.142917 -1.146674 0.000000 
-0.261851 -1.253431 0.000000 
-0.229092 -1.216404 0.000000 
-0.256854 -1.165172 0.000000 
-0.209613 -1.131060 0.000000 
-0.223062 -1.083486 0.000000 
-0.360414 -1.275731 0.000000 
-0.329787 -1.238608 0.000000 
-0.361761 -1.186806 0.000000 
-0.321587 -1.150397 0.000000 
-0.341985 -1.100163 0.000000 
-0.290702 -1.067364 0.000000 
-0.302189 -1.020629 0.000000 
-0.458977 -1.298031 0.000000 
-0.429420 -1.260956 0.000000 
-0.464588 -1.208915 0.000000 
-0.427556 -1.171887 0.000000 
-0.453135 -1.120372 0.000000 
-0.407738 -1.085057 0.000000 
-0.425037 -1.035629 0.000000 
-0.370772 -1.004000 0.000000 
-0.381315 -0.957772 0.000000 
-0.046960 -1.261247 0.000000 
-0.095301 -1.355293 0.000000 
-0.098873 -1.302646 0.000000 
-0.149405 -1.287448 0.000000 
-0.140093 -1.446997 0.000000 
-0.148617 -1.398299 0.000000 
-0.205981 -1.388062 0.000000 
-0.203197 -1.329858 0.000000 
-0.248777 -1.310712 0.000000 
-0.184111 -1.537961 0.000000 
-0.194039 -1.490870 0.000000 
-0.254475 -1.483570 0.000000 
-0.257893 -1.429460 0.000000 
-0.309886 -1.414088 0.000000 
-0.303554 -1.353543 0.000000 
-0.347255 -1.333385 0.000000 
-0.228129 -1.628924 0.000000 
-0.238687 -1.582700 0.000000 
-0.301302 -1.577748 0.000000 
-0.307162 -1.525709 0.000000 
-0.363386 -1.513588 0.000000 
-0.362692 -1.456077 0.000000 
-0.412122 -1.438784 0.000000 
-0.403017 -1.376637 0.000000 
-0.445733 -1.356058 0.000000 
-0.000000 -1.283862 0.000000 
0.043388 -1.380293 0.000000 
-0.000000 -1.350260 0.000000 
-0.043388 -1.380293 0.000000 
0.087158 -1.472489 0.000000 
0.043769 -1.448791 0.000000 
-0.000000 -1.487257 0.000000 
-0.043769 -1.448791 0.000000 
-0.087158 -1.472489 0.000000 
0.130831 -1.563619 0.000000 
0.087824 -1.542020 0.000000 
0.044436 -1.584720 0.000000 
-0.000000 -1.553655 0.000000 
-0.044436 -1.584720 0.000000 
-0.087824 -1.542020 0.000000 
-0.130831 -1.563619 0.000000 
0.174505 -1.654749 0.000000 
0.131782 -1.634183 0.000000 
0.088871 -1.680049 0.000000 
0.044532 -1.652185 0.000000 
-0.000000 -1.688586 0.000000 
-0.044532 -1.652185 0.000000 
-0.088871 -1.680049 0.000000 
-0.131782 -1.634183 0.000000 
-0.174505 -1.654749 0.000000 
0.046960 -1.261247 0.000000 
0.149405 -1.287448 0.000000 
0.098873 -1.302646 0.000000 
0.095301 -1.355293 0.000000 
0.248777 -1.310712 0.000000 
0.203197 -1.329858 0.000000 
0.205981 -1.388062 0.000000 
0.148617 -1.398299 0.000000 
0.140093 -1.446997 0.000000 
0.347255 -1.333385 0.000000 
0.303554 -1.353543 0.000000 
0.309886 -1.414088 0.000000 
0.257893 -1.429460 0.000000 
0.254475 -1.483570 0.000000 
0.194039 -1.490870 0.000000 
0.184111 -1.537961 0.000000 
0.445733 -1.356058 0.000000 
0.403017 -1.376637 0.000000 
0.412122 -1.438784 0.000000 
0.362692 -1.456077 0.000000 
0.363386 -1.513588 0.000000 
0.307162 -1.525709 0.000000 
0.301302 -1.577748 0.000000 
0.238687 -1.582700 0.000000 
0.228129 -1.628924 0.000000 
0.058559 -1.210432 0.000000 
0.142917 -1.146674 0.000000 
0.123292 -1.195657 0.000000 
0.162226 -1.231275 0.000000 
0.223062 -1.083486 0.000000 
0.209613 -1.131060 0.000000 
0.256854 -1.165172 0.000000 
0.229092 -1.216404 0.000000 
0.261851 -1.253431 0.000000 
0.302189 -1.020629 0.000000 
0.290702 -1.067364 0.000000 
0.341985 -1.100163 0.000000 
0.321587 -1.150397 0.000000 
0.361761 -1.186806 0.000000 
0.329787 -1.238608 0.000000 
0.360414 -1.275731 0.000000 
0.381315 -0.957772 0.000000 
0.370772 -1.004000 0.000000 
0.425037 -1.035629 0.000000 
0.407738 -1.085057 0.000000 
0.453135 -1.120372 0.000000 
0.427556 -1.171887 0.000000 
0.464588 -1.208915 0.000000 
0.429420 -1.260956 0.000000 
0.458977 -1.298031 0.000000 
0.026061 -1.169681 0.000000 
0.028809 -1.063975 0.000000 
0.054870 -1.109858 0.000000 
0.106992 -1.101626 0.000000 
0.029377 -0.961918 0.000000 
0.058186 -1.002095 0.000000 
0.114311 -0.986429 0.000000 
0.137056 -1.040076 0.000000 
0.186430 -1.037550 0.000000 
0.029568 -0.860863 0.000000 
0.058945 -0.898983 0.000000 
0.116563 -0.879338 0.000000 
0.143120 -0.926606 0.000000 
0.196633 -0.917898 0.000000 
0.217198 -0.975194 0.000000 
0.265318 -0.974394 0.000000 
0.029759 -0.759809 0.000000 
0.059328 -0.796875 0.000000 
0.117890 -0.774169 0.000000 
0.145749 -0.818512 0.000000 
0.201664 -0.805038 0.000000 
0.225992 -0.857155 0.000000 
0.278030 -0.851289 0.000000 
0.296791 -0.911232 0.000000 
0.344206 -0.911239 0.000000 
CELLS 175 350 
1 0 
1 1 
1 2 
1 3 
1 4 
1 5 
1 6 
1 7 
1 8 
1 9 
1 10 
1 11 
1 12 
1 13 
1 14 
1 15 
1 16 
1 17 
1 18 
1 19 
1 20 
1 21 
1 22 
1 23 
1 24 
1 25 
1 26 
1 27 
1 28 
1 29 
1 30 
1 31 
1 32 
1 33 
1 34 
1 35 
1 36 
1 37 
1 38 
1 39 
1 40 
1 41 
1 42 
1 43 
1 44 
1 45 
1 46 
1 47 
1 48 
1 49 
1 50 
1 51 
1 52 
1 53 
1 54 
1 55 
1 56 
1 57 
1 58 
1 59 
1 60 
1 61 
1 62 
1 63 
1 64 
1 65 
1 66 
1 67 
1 68 
1 69 
1 70 
1 71 
1 72 
1 73 
1 74 
1 75 
1 76 
1 77 
1 78 
1 79 
1 80 
1 81 
1 82 
1 83 
1 84 
1 85 
1 86 
1 87 
1 88 
1 89 
1 90 
1 91 
1 92 
1 93 
1 94 
1 95 
1 96 
1 97 
1 98 
1 99 
1 100 
1 101 
1 102 
1 103 
1 104 
1 105 
1 106 
1 107 
1 108 
1 109 
1 110 
1 111 
1 112 
1 113 
1 114 
1 115 
1 116 
1 117 
1 118 
1 119 
1 120 
1 121 
1 122 
1 123 
1 124 
1 125 
1 126 
1 127 
1 128 
1 129 
1 130 
1 131 
1 132 
1 133 
1 134 
1 135 
1 136 
1 137 
1 138 
1 139 
1 140 
1 141 
1 142 
1 143 
1 144 
1 145 
1 146 
1 147 
1 148 
1 149 
1 150 
1 151 
1 152 
1 153 
1 154 
1 155 
1 156 
1 157 
1 158 
1 159 
1 160 
1 161 
1 162 
1 163 
1 164 
1 165 
1 166 
1 167 
1 168 
1 169 
1 170 
1 171 
1 172 
1 173 
1 174 
CELL_TYPES 175 
1 
1 
1 
1 
1 
1 
1 
1 
1 
1 
1 
1 
1 
1 
1 
1 
1 
1 
1 
1 
1 
1 
1 
1 
1 
1 
1 
1 
1 
1 
1 
1 
1 
1 
1 
1 
1 
1 
1 
1 
1 
1 
1 
1 
1 
1 
1 
1 
1 
1 
1 
1 
1 
1 
1 
1 
1 
1 
1 
1 
1 
1 
1 
1 
1 
1 
1 
1 
1 
1 
1 
1 
1 
1 
1 
1 
1 
1 
1 
1 
1 
1 
1 
1 
1 
1 
1 
1 
1 
1 
1 
1 
1 
1 
1 
1 
1 
1 
1 
1 
1 
1 
1 
1 
1 
1 
1 
1 
1 
1 
1 
1 
1 
1 
1 
1 
1 
1 
1 
1 
1 
1 
1 
1 
1 
1 
1 
1 
1 
1 
1 
1 
1 
1 
1 
1 
1 
1 
1 
1 
1 
1 
1 
1 
1 
1 
1 
1 
1 
1 
1 
1 
1 
1 
1 
1 
1 
1 
1 
1 
1 
1 
1 
1 
1 
1 
1 
1 
1 
1 
1 
1 
1 
1 
1 
POINT_DATA 175 
VECTORS X_GC float 
-0.026061 -1.169681 0.000000 
-0.106992 -1.101626 0.000000 
-0.054870 -1.109858 0.000000 
-0.028809 -1.063975 0.000000 
-0.186430 -1.037550 0.000000 
-0.137056 -1.040076 0.000000 
-0.114311 -0.986429 0.000000 
-0.058186 -1.002095 0.000000 
-0.029377 -0.961918 0.000000 
-0.265318 -0.974394 0.000000 
-0.217198 -0.975194 0.000000 
-0.196633 -0.917898 0.000000 
-0.143120 -0.926606 0.000000 
-0.116563 -0.879338 0.000000 
-0.058945 -0.898983 0.000000 
-0.029568 -0.860863 0.000000 
-0.344206 -0.911239 0.000000 
-0.296791 -0.911232 0.000000 
-0.278030 -0.851289 0.000000 
-0.225992 -0.857155 0.000000 
-0.201664 -0.805038 0.000000 
-0.145749 -0.818512 0.000000 
-0.117890 -0.774169 0.000000 
-0.059328 -0.796875 0.000000 
-0.029759 -0.759809 0.000000 
-0.058559 -1.210432 0.000000 
-0.162226 -1.231275 0.000000 
-0.123292 -1.195657 0.000000 
-0.142917 -1.146674 0.000000 
-0.261851 -1.253431 0.000000 
-0.229092 -1.216404 0.000000 
-0.256854 -1.165172 0.000000 
-0.209613 -1.131060 0.000000 
-0.223062 -1.083486 0.000000 
-0.360414 -1.275731 0.000000 
-0.329787 -1.238608 0.000000 
-0.361761 -1.186806 0.000000 
-0.321587 -1.150397 0.000000 
-0.341985 -1.100163 0.000000 
-0.290702 -1.067364 0.000000 
-0.302189 -1.020629 0.000000 
-0.458977 -1.298031 0.000000 
-0.429420 -1.260956 0.000000 
-0.464588 -1.208915 0.000000 
-0.427556 -1.171887 0.000000 
-0.453135 -1.120372 0.000000 
-0.407738 -1.085057 0.000000 
-0.425037 -1.035629 0.000000 
-0.370772 -1.004000 0.000000 
-0.381315 -0.957772 0.000000 
-0.046960 -1.261247 0.000000 
-0.095301 -1.355293 0.000000 
-0.098873 -1.302646 0.000000 
-0.149405 -1.287448 0.000000 
-0.140093 -1.446997 0.000000 
-0.148617 -1.398299 0.000000 
-0.205981 -1.388062 0.000000 
-0.203197 -1.329858 0.000000 
-0.248777 -1.310712 0.000000 
-0.184111 -1.537961 0.000000 
-0.194039 -1.490870 0.000000 
-0.254475 -1.483570 0.000000 
-0.257893 -1.429460 0.000000 
-0.309886 -1.414088 0.000000 
-0.303554 -1.353543 0.000000 
-0.347255 -1.333385 0.000000 
-0.228129 -1.628924 0.000000 
-0.238687 -1.582700 0.000000 
-0.301302 -1.577748 0.000000 
-0.307162 -1.525709 0.000000 
-0.363386 -1.513588 0.000000 
-0.362692 -1.456077 0.000000 
-0.412122 -1.438784 0.000000 
-0.403017 -1.376637 0.000000 
-0.445733 -1.356058 0.000000 
-0.000000 -1.283862 0.000000 
0.043388 -1.380293 0.000000 
-0.000000 -1.350260 0.000000 
-0.043388 -1.380293 0.000000 
0.087158 -1.472489 0.000000 
0.043769 -1.448791 0.000000 
-0.000000 -1.487257 0.000000 
-0.043769 -1.448791 0.000000 
-0.087158 -1.472489 0.000000 
0.130831 -1.563619 0.000000 
0.087824 -1.542020 0.000000 
0.044436 -1.584720 0.000000 
-0.000000 -1.553655 0.000000 
-0.044436 -1.584720 0.000000 
-0.087824 -1.542020 0.000000 
-0.130831 -1.563619 0.000000 
0.174505 -1.654749 0.000000 
0.131782 -1.634183 0.000000 
0.088871 -1.680049 0.000000 
0.044532 -1.652185 0.000000 
-0.000000 -1.688586 0.000000 
-0.044532 -1.652185 0.000000 
-0.088871 -1.680049 0.000000 
-0.131782 -1.634183 0.000000 
-0.174505 -1.654749 0.000000 
0.046960 -1.261247 0.000000 
0.149405 -1.287448 0.000000 
0.098873 -1.302646 0.000000 
0.095301 -1.355293 0.000000 
0.248777 -1.310712 0.000000 
0.203197 -1.329858 0.000000 
0.205981 -1.388062 0.000000 
0.148617 -1.398299 0.000000 
0.140093 -1.446997 0.000000 
0.347255 -1.333385 0.000000 
0.303554 -1.353543 0.000000 
0.309886 -1.414088 0.000000 
0.257893 -1.429460 0.000000 
0.254475 -1.483570 0.000000 
0.194039 -1.490870 0.000000 
0.184111 -1.537961 0.000000 
0.445733 -1.356058 0.000000 
0.403017 -1.376637 0.000000 
0.412122 -1.438784 0.000000 
0.362692 -1.456077 0.000000 
0.363386 -1.513588 0.000000 
0.307162 -1.525709 0.000000 
0.301302 -1.577748 0.000000 
0.238687 -1.582700 0.000000 
0.228129 -1.628924 0.000000 
0.058559 -1.210432 0.000000 
0.142917 -1.146674 0.000000 
0.123292 -1.195657 0.000000 
0.162226 -1.231275 0.000000 
0.223062 -1.083486 0.000000 
0.209613 -1.131060 0.000000 
0.256854 -1.165172 0.000000 
0.229092 -1.216404 0.000000 
0.261851 -1.253431 0.000000 
0.302189 -1.020629 0.000000 
0.290702 -1.067364 0.000000 
0.341985 -1.100163 0.000000 
0.321587 -1.150397 0.000000 
0.361761 -1.186806 0.000000 
0.329787 -1.238608 0.000000 
0.360414 -1.275731 0.000000 
0.381315 -0.957772 0.000000 
0.370772 -1.004000 0.000000 
0.425037 -1.035629 0.000000 
0.407738 -1.085057 0.000000 
0.453135 -1.120372 0.000000 
0.427556 -1.171887 0.000000 
0.464588 -1.208915 0.000000 
0.429420 -1.260956 0.000000 
0.458977 -1.298031 0.000000 
0.026061 -1.169681 0.000000 
0.028809 -1.063975 0.000000 
0.054870 -1.109858 0.000000 
0.106992 -1.101626 0.000000 
0.029377 -0.961918 0.000000 
0.058186 -1.002095 0.000000 
0.114311 -0.986429 0.000000 
0.137056 -1.040076 0.000000 
0.186430 -1.037550 0.000000 
0.029568 -0.860863 0.000000 
0.058945 -0.898983 0.000000 
0.116563 -0.879338 0.000000 
0.143120 -0.926606 0.000000 
0.196633 -0.917898 0.000000 
0.217198 -0.975194 0.000000 
0.265318 -0.974394 0.000000 
0.029759 -0.759809 0.000000 
0.059328 -0.796875 0.000000 
0.117890 -0.774169 0.000000 
0.145749 -0.818512 0.000000 
0.201664 -0.805038 0.000000 
0.225992 -0.857155 0.000000 
0.278030 -0.851289 0.000000 
0.296791 -0.911232 0.000000 
0.344206 -0.911239 0.000000 
VECTORS X_EC float 
0.338794 0.290696 0.000000 
-0.609100 -0.628053 0.000000 
0.713312 -0.516912 0.000000 
0.374519 0.863659 0.000000 
0.423588 0.506928 0.000000 
-0.218274 0.541032 0.000000 
-0.513962 -0.183207 0.000000 
0.756418 0.028279 0.000000 
0.381900 -0.514113 0.000000 
-0.550868 -0.345675 0.000000 
0.823577 -0.334879 0.000000 
0.556234 0.891616 0.000000 
-0.139443 -0.990815 0.000000 
-0.484677 0.371061 0.000000 
0.766286 0.636276 0.000000 
0.384386 0.121656 0.000000 
0.474677 0.801722 0.000000 
-0.141715 0.801625 0.000000 
-0.385608 -0.007603 0.000000 
0.937896 0.071593 0.000000 
0.621631 -0.631987 0.000000 
-0.105264 -0.450088 0.000000 
-0.467428 0.951286 0.000000 
0.771260 -0.742186 0.000000 
0.386873 0.757425 0.000000 
0.761262 0.840830 0.000000 
0.108942 -0.877793 0.000000 
-0.397202 0.641368 0.000000 
-0.142083 -0.019908 0.000000 
-0.595936 -0.578682 0.000000 
0.978194 0.921452 0.000000 
-0.660903 0.229827 0.000000 
0.724964 -0.230693 0.000000 
0.899809 -0.872942 0.000000 
0.685384 -0.277630 0.000000 
0.287229 -0.778789 0.000000 
0.702895 0.521883 0.000000 
0.180633 0.030364 0.000000 
0.445811 -0.647795 0.000000 
-0.220880 0.909419 0.000000 
-0.071546 0.278493 0.000000 
-0.033296 0.023422 0.000000 
-0.417537 -0.477088 0.000000 
0.039645 0.820350 0.000000 
-0.441768 0.320479 0.000000 
-0.109248 -0.374972 0.000000 
-0.699407 -0.851728 0.000000 
-0.474522 0.480993 0.000000 
0.820030 0.054000 0.000000 
0.957100 -0.570072 0.000000 
0.610485 -0.473163 0.000000 
-0.761092 0.796456 0.000000 
-0.714655 0.085719 0.000000 
-0.057734 -0.119449 0.000000 
-0.178789 0.034460 0.000000 
-0.067979 -0.622966 0.000000 
0.677748 -0.761169 0.000000 
0.641556 0.453085 0.000000 
-0.765897 0.194607 0.000000 
0.393446 -0.737531 0.000000 
0.522510 0.626739 0.000000 
-0.691820 0.528195 0.000000 
-0.647393 -0.202288 0.000000 
0.028512 -0.409814 0.000000 
-0.053800 0.772825 0.000000 
0.514316 0.500695 0.000000 
0.965681 0.490478 0.000000 
-0.897068 -0.133550 0.000000 
-0.083078 -0.200403 0.000000 
-0.006893 -0.902928 0.000000 
0.724017 0.933439 0.000000 
0.714996 0.157036 0.000000 
-0.642413 -0.076422 0.000000 
-0.760780 -0.915402 0.000000 
-0.205471 0.806782 0.000000 
0.000000 -0.167862 0.000000 
-0.564049 -0.866049 0.000000 
0.000000 0.728515 0.000000 
0.564049 -0.866049 0.000000 
0.866949 0.378606 0.000000 
-0.569003 0.058675 0.000000 
0.000000 0.577963 0.000000 
0.569003 0.058675 0.000000 
-0.866949 0.378606 0.000000 
0.299194 -0.391144 0.000000 
0.858290 -0.682727 0.000000 
-0.577662 -0.106282 0.000000 
0.000000 -0.525660 0.000000 
0.577662 -0.106282 0.000000 
-0.858290 -0.682727 0.000000 
-0.299194 -0.391144 0.000000 
-0.268560 0.839107 0.000000 
0.286830 0.561465 0.000000 
0.844677 -0.819337 0.000000 
-0.578910 0.804500 0.000000 
0.000000 -0.704096 0.000000 
0.578910 0.804500 0.000000 
-0.844677 -0.819337 0.000000 
-0.286830 0.561465 0.000000 
0.268560 0.839107 0.000000 
-0.610485 -0.473163 0.000000 
0.057734 -0.119449 0.000000 
0.714655 0.085719 0.000000 
0.761092 0.796456 0.000000 
0.765897 0.194607 0.000000 
-0.641556 0.453085 0.000000 
-0.677748 -0.761169 0.000000 
0.067979 -0.622966 0.000000 
0.178789 0.034460 0.000000 
-0.514316 0.500695 0.000000 
0.053800 0.772826 0.000000 
-0.028512 -0.409814 0.000000 
0.647393 -0.202288 0.000000 
0.691820 0.528195 0.000000 
-0.522510 0.626739 0.000000 
-0.393446 -0.737531 0.000000 
0.205471 0.806782 0.000000 
0.760780 -0.915402 0.000000 
0.642413 -0.076422 0.000000 
-0.714996 0.157036 0.000000 
-0.724017 0.933439 0.000000 
0.006894 -0.902928 0.000000 
0.083078 -0.200403 0.000000 
0.897068 -0.133550 0.000000 
-0.965681 0.490478 0.000000 
-0.761262 0.840830 0.000000 
0.142083 -0.019908 0.000000 
0.397202 0.641368 0.000000 
-0.108942 -0.877793 0.000000 
-0.899809 -0.872942 0.000000 
-0.724964 -0.230693 0.000000 
0.660903 0.229827 0.000000 
-0.978194 0.921452 0.000000 
0.595936 -0.578682 0.000000 
0.071546 0.278493 0.000000 
0.220880 0.909419 0.000000 
-0.445811 -0.647795 0.000000 
-0.180633 0.030364 0.000000 
-0.702895 0.521883 0.000000 
-0.287229 -0.778789 0.000000 
-0.685384 -0.277630 0.000000 
-0.957100 -0.570072 0.000000 
-0.820030 0.054000 0.000000 
0.474522 0.480993 0.000000 
0.699407 -0.851728 0.000000 
0.109248 -0.374972 0.000000 
0.441768 0.320479 0.000000 
-0.039645 0.820350 0.000000 
0.417537 -0.477088 0.000000 
0.033296 0.023422 0.000000 
-0.338794 0.290696 0.000000 
-0.374519 0.863659 0.000000 
-0.713312 -0.516912 0.000000 
0.609100 -0.628053 0.000000 
-0.381900 -0.514113 0.000000 
-0.756418 0.028279 0.000000 
0.513962 -0.183207 0.000000 
0.218274 0.541032 0.000000 
-0.423588 0.506928 0.000000 
-0.384386 0.121656 0.000000 
-0.766286 0.636276 0.000000 
0.484677 0.371061 0.000000 
0.139443 -0.990815 0.000000 
-0.556234 0.891616 0.000000 
-0.823577 -0.334879 0.000000 
0.550868 -0.345675 0.000000 
-0.386873 0.757425 0.000000 
-0.771260 -0.742186 0.000000 
0.467428 0.951286 0.000000 
0.105264 -0.450088 0.000000 
-0.621631 -0.631987 0.000000 
-0.937896 0.071593 0.000000 
0.385608 -0.007603 0.000000 
0.141715 0.801625 0.000000 
-0.474677 0.801722 0.000000 
CELL_DATA 175 
SCALARS MASS float 
LOOKUP_TABLE default 
0.781831 
0.864274 
0.946717 
0.864274 
0.881307 
0.921110 
0.858535 
0.921110 
0.881307 
0.887046 
0.910001 
0.869829 
0.915556 
0.869829 
0.910001 
0.887046 
0.892784 
0.915740 
0.892784 
0.927218 
0.892784 
0.927218 
0.892784 
0.915740 
0.892784 
0.781831 
0.864274 
0.946717 
0.864274 
0.881307 
0.921110 
0.858535 
0.921110 
0.881307 
0.887046 
0.910001 
0.869829 
0.915556 
0.869829 
0.910001 
0.887046 
0.892784 
0.915740 
0.892784 
0.927218 
0.892784 
0.927218 
0.892784 
0.915740 
0.892784 
0.781831 
0.864274 
0.946717 
0.864274 
0.881307 
0.921110 
0.858535 
0.921110 
0.881307 
0.887046 
0.910001 
0.869829 
0.915556 
0.869829 
0.910001 
0.887046 
0.892784 
0.915740 
0.892784 
0.927218 
0.892784 
0.927218 
0.892784 
0.915740 
0.892784 
0.781831 
0.864274 
0.946717 
0.864274 
0.881307 
0.921110 
0.858535 
0.921110 
0.881307 
0.887046 
0.910001 
0.869829 
0.915556 
0.869829 
0.910001 
0.887046 
0.892784 
0.915740 
0.892784 
0.927218 
0.892784 
0.927218 
0.892784 
0.915740 
0.892784 
0.781831 
0.864274 
0.946717 
0.864274 
0.881307 
0.921110 
0.858535 
0.921110 
0.881307 
0.887046 
0.910001 
0.869829 
0.915556 
0.869829 
0.910001 
0.887046 
0.892784 
0.915740 
0.892784 
0.927218 
0.892784 
0.927218 
0.892784 
0.915740 
0.892784 
0.781831 
0.864274 
0.946717 
0.864274 
0.881307 
0.921110 
0.858535 
0.921110 
0.881307 
0.887046 
0.910001 
0.869829 
0.915556 
0.869829 
0.910001 
0.887046 
0.892784 
0.915740 
0.892784 
0.927218 
0.892784 
0.927218 
0.892784 
0.915740 
0.892784 
0.781831 
0.864274 
0.946717 
0.864274 
0.881307 
0.921110 
0.858535 
0.921110 
0.881307 
0.887046 
0.910001 
0.869829 
0.915556 
0.869829 
0.910001 
0.887046 
0.892784 
0.915740 
0.892784 
0.927218 
0.892784 
0.927218 
0.892784 
0.915740 
0.892784 
SCALARS MASS float 
LOOKUP_TABLE default 
0.781831 
0.864274 
0.946717 
0.864274 
0.881307 
0.921110 
0.858535 
0.921110 
0.881307 
0.887046 
0.910001 
0.869829 
0.915556 
0.869829 
0.910001 
0.887046 
0.892784 
0.915740 
0.892784 
0.927218 
0.892784 
0.927218 
0.892784 
0.915740 
0.892784 
0.781831 
0.864274 
0.946717 
0.864274 
0.881307 
0.921110 
0.858535 
0.921110 
0.881307 
0.887046 
0.910001 
0.869829 
0.915556 
0.869829 
0.910001 
0.887046 
0.892784 
0.915740 
0.892784 
0.927218 
0.892784 
0.927218 
0.892784 
0.915740 
0.892784 
0.781831 
0.864274 
0.946717 
0.864274 
0.881307 
0.921110 
0.858535 
0.921110 
0.881307 
0.887046 
0.910001 
0.869829 
0.915556 
0.869829 
0.910001 
0.887046 
0.892784 
0.915740 
0.892784 
0.927218 
0.892784 
0.927218 
0.892784 
0.915740 
0.892784 
0.781831 
0.864274 
0.946717 
0.864274 
0.881307 
0.921110 
0.858535 
0.921110 
0.881307 
0.887046 
0.910001 
0.869829 
0.915556 
0.869829 
0.910001 
0.887046 
0.892784 
0.915740 
0.892784 
0.927218 
0.892784 
0.927218 
0.892784 
0.915740 
0.892784 
0.781831 
0.864274 
0.946717 
0.864274 
0.881307 
0.921110 
0.858535 
0.921110 
0.881307 
0.887046 
0.910001 
0.869829 
0.915556 
0.869829 
0.910001 
0.887046 
0.892784 
0.915740 
0.892784 
0.927218 
0.892784 
0.927218 
0.892784 
0.915740 
0.892784 
0.781831 
0.864274 
0.946717 
0.864274 
0.881307 
0.921110 
0.858535 
0.921110 
0.881307 
0.887046 
0.910001 
0.869829 
0.915556 
0.869829 
0.910001 
0.887046 
0.892784 
0.915740 
0.892784 
0.927218 
0.892784 
0.927218 
0.892784 
0.915740 
0.892784 
0.781831 
0.864274 
0.946717 
0.864274 
0.881307 
0.921110 
0.858535 
0.921110 
0.881307 
0.887046 
0.910001 
0.869829 
0.915556 
0.869829 
0.910001 
0.887046 
0.892784 
0.915740 
0.892784 
0.927218 
0.892784 
0.927218 
0.892784 
0.915740 
0.892784 
SCALARS DENSITY float 
LOOKUP_TABLE default 
200.000000 
200.000000 
200.000000 
200.000000 
200.000000 
200.000000 
200.000000 
200.000000 
200.000000 
200.000000 
200.000000 
200.000000 
200.000000 
200.000000 
200.000000 
200.000000 
200.000000 
200.000000 
200.000000 
200.000000 
200.000000 
200.000000 
200.000000 
200.000000 
200.000000 
200.000000 
200.000000 
200.000000 
200.000000 
200.000000 
200.000000 
200.000000 
200.000000 
200.000000 
200.000000 
200.000000 
200.000000 
200.000000 
200.000000 
200.000000 
200.000000 
200.000000 
200.000000 
200.000000 
200.000000 
200.000000 
200.000000 
200.000000 
200.000000 
200.000000 
200.000000 
200.000000 
200.000000 
200.000000 
200.000000 
200.000000 
200.000000 
200.000000 
200.000000 
200.000000 
200.000000 
200.000000 
200.000000 
200.000000 
200.000000 
200.000000 
200.000000 
200.000000 
200.000000 
200.000000 
200.000000 
200.000000 
200.000000 
200.000000 
200.000000 
200.000000 
200.000000 
200.000000 
200.000000 
200.000000 
200.000000 
200.000000 
200.000000 
200.000000 
200.000000 
200.000000 
200.000000 
200.000000 
200.000000 
200.000000 
200.000000 
200.000000 
200.000000 
200.000000 
200.000000 
200.000000 
200.000000 
200.000000 
200.000000 
200.000000 
200.000000 
200.000000 
200.000000 
200.000000 
200.000000 
200.000000 
200.000000 
200.000000 
200.000000 
200.000000 
200.000000 
200.000000 
200.000000 
200.000000 
200.000000 
200.000000 
200.000000 
200.000000 
200.000000 
200.000000 
200.000000 
200.000000 
200.000000 
200.000000 
200.000000 
200.000000 
200.000000 
200.000000 
200.000000 
200.000000 
200.000000 
200.000000 
200.000000 
200.000000 
200.000000 
200.000000 
200.000000 
200.000000 
200.000000 
200.000000 
200.000000 
200.000000 
200.000000 
200.000000 
200.000000 
200.000000 
200.000000 
200.000000 
200.000000 
200.000000 
200.000000 
200.000000 
200.000000 
200.000000 
200.000000 
200.000000 
200.000000 
200.000000 
200.000000 
200.000000 
200.000000 
200.000000 
200.000000 
200.000000 
200.000000 
200.000000 
200.000000 
200.000000 
200.000000 
200.000000 
200.000000 
200.000000 
200.000000 
200.000000 
200.000000 
SCALARS ELEM_i float 
LOOKUP_TABLE default 
174 
201 
174 
175 
202 
202 
202 
175 
175 
229 
202 
203 
202 
203 
176 
176 
230 
230 
230 
203 
203 
203 
204 
176 
177 
174 
200 
201 
201 
227 
201 
228 
201 
201 
227 
227 
228 
228 
228 
229 
229 
254 
254 
255 
255 
255 
255 
256 
229 
229 
173 
200 
200 
200 
199 
199 
199 
200 
227 
198 
199 
226 
226 
226 
227 
227 
198 
225 
225 
225 
226 
226 
253 
253 
254 
173 
172 
173 
172 
145 
172 
172 
172 
199 
144 
144 
171 
171 
171 
198 
198 
144 
144 
143 
171 
170 
171 
197 
198 
198 
173 
146 
146 
146 
119 
146 
145 
145 
145 
119 
119 
118 
118 
118 
145 
144 
92 
91 
91 
118 
118 
117 
117 
117 
144 
174 
147 
147 
146 
147 
147 
120 
147 
119 
121 
121 
120 
120 
120 
119 
119 
121 
121 
94 
93 
93 
93 
93 
92 
92 
174 
175 
174 
147 
175 
175 
148 
148 
148 
176 
176 
149 
148 
149 
148 
121 
177 
176 
150 
149 
149 
149 
122 
122 
122 
VECTORS VELOCITY float 
0.000000 -4.895190 0.000000 
-0.000000 -4.895190 0.000000 
-0.000000 -4.895190 0.000000 
0.000000 -4.895190 0.000000 
-0.000000 -4.895190 0.000000 
-0.000000 -4.895190 0.000000 
0.000000 -4.895190 0.000000 
0.000000 -4.895190 0.000000 
0.000000 -4.895190 0.000000 
-0.000000 -4.895190 0.000000 
-0.000000 -4.895190 0.000000 
0.000000 -4.895190 0.000000 
0.000000 -4.895190 0.000000 
0.000000 -4.895190 0.000000 
0.000000 -4.895190 0.000000 
0.000000 -4.895190 0.000000 
-0.000000 -4.895190 0.000000 
-0.000000 -4.895190 0.000000 
-0.000000 -4.895190 0.000000 
0.000000 -4.895190 0.000000 
-0.000000 -4.895190 0.000000 
-0.000000 -4.895190 0.000000 
-0.000000 -4.895190 0.000000 
0.000000 -4.895190 0.000000 
0.000000 -4.895190 0.000000 
0.000000 -4.895190 0.000000 
-0.000000 -4.895190 0.000000 
0.000000 -4.895190 0.000000 
0.000000 -4.895190 0.000000 
0.000000 -4.895190 0.000000 
-0.000000 -4.895190 0.000000 
0.000000 -4.895190 0.000000 
0.000000 -4.895190 0.000000 
0.000000 -4.895190 0.000000 
0.000000 -4.895190 0.000000 
0.000000 -4.895190 0.000000 
0.000000 -4.895190 0.000000 
0.000000 -4.895190 0.000000 
-0.000000 -4.895190 0.000000 
-0.000000 -4.895190 0.000000 
-0.000000 -4.895190 0.000000 
-0.000000 -4.895190 0.000000 
0.000000 -4.895190 0.000000 
-0.000000 -4.895190 0.000000 
0.000000 -4.895190 0.000000 
0.000000 -4.895190 0.000000 
-0.000000 -4.895190 0.000000 
0.000000 -4.895190 0.000000 
-0.000000 -4.895190 0.000000 
0.000000 -4.895190 0.000000 
0.000000 -4.895190 0.000000 
-0.000000 -4.895190 0.000000 
0.000000 -4.895190 0.000000 
0.000000 -4.895190 0.000000 
0.000000 -4.895190 0.000000 
0.000000 -4.895190 0.000000 
-0.000000 -4.895190 0.000000 
-0.000000 -4.895190 0.000000 
-0.000000 -4.895190 0.000000 
-0.000000 -4.895190 0.000000 
-0.000000 -4.895190 0.000000 
-0.000000 -4.895190 0.000000 
0.000000 -4.895190 0.000000 
0.000000 -4.895190 0.000000 
0.000000 -4.895190 0.000000 
0.000000 -4.895190 0.000000 
-0.000000 -4.895190 0.000000 
-0.000000 -4.895190 0.000000 
-0.000000 -4.895190 0.000000 
-0.000000 -4.895190 0.000000 
-0.000000 -4.895190 0.000000 
0.000000 -4.895190 0.000000 
0.000000 -4.895190 0.000000 
0.000000 -4.895190 0.000000 
0.000000 -4.895190 0.000000 
0.000000 -4.895190 0.000000 
-0.000000 -4.895190 0.000000 
-0.000000 -4.895190 0.000000 
0.000000 -4.895190 0.000000 
-0.000000 -4.895190 0.000000 
-0.000000 -4.895190 0.000000 
0.000000 -4.895190 0.000000 
-0.000000 -4.895190 0.000000 
0.000000 -4.895190 0.000000 
0.000000 -4.895190 0.000000 
0.000000 -4.895190 0.000000 
0.000000 -4.895190 0.000000 
0.000000 -4.895190 0.000000 
0.000000 -4.895190 0.000000 
0.000000 -4.895190 0.000000 
0.000000 -4.895190 0.000000 
0.000000 -4.895190 0.000000 
0.000000 -4.895190 0.000000 
-0.000000 -4.895190 0.000000 
0.000000 -4.895190 0.000000 
0.000000 -4.895190 0.000000 
-0.000000 -4.895190 0.000000 
0.000000 -4.895190 0.000000 
-0.000000 -4.895190 0.000000 
-0.000000 -4.895190 0.000000 
-0.000000 -4.895190 0.000000 
-0.000000 -4.895190 0.000000 
-0.000000 -4.895190 0.000000 
-0.000000 -4.895190 0.000000 
-0.000000 -4.895190 0.000000 
-0.000000 -4.895190 0.000000 
0.000000 -4.895190 0.000000 
-0.000000 -4.895190 0.000000 
0.000000 -4.895190 0.000000 
-0.000000 -4.895190 0.000000 
-0.000000 -4.895190 0.000000 
-0.000000 -4.895190 0.000000 
0.000000 -4.895190 0.000000 
0.000000 -4.895190 0.000000 
0.000000 -4.895190 0.000000 
0.000000 -4.895190 0.000000 
-0.000000 -4.895190 0.000000 
-0.000000 -4.895190 0.000000 
-0.000000 -4.895190 0.000000 
-0.000000 -4.895190 0.000000 
0.000000 -4.895190 0.000000 
0.000000 -4.895190 0.000000 
-0.000000 -4.895190 0.000000 
0.000000 -4.895190 0.000000 
0.000000 -4.895190 0.000000 
0.000000 -4.895190 0.000000 
0.000000 -4.895190 0.000000 
0.000000 -4.895190 0.000000 
-0.000000 -4.895190 0.000000 
-0.000000 -4.895190 0.000000 
0.000000 -4.895190 0.000000 
0.000000 -4.895190 0.000000 
-0.000000 -4.895190 0.000000 
-0.000000 -4.895190 0.000000 
-0.000000 -4.895190 0.000000 
-0.000000 -4.895190 0.000000 
-0.000000 -4.895190 0.000000 
-0.000000 -4.895190 0.000000 
-0.000000 -4.895190 0.000000 
-0.000000 -4.895190 0.000000 
-0.000000 -4.895190 0.000000 
0.000000 -4.895190 0.000000 
-0.000000 -4.895190 0.000000 
-0.000000 -4.895190 0.000000 
0.000000 -4.895190 0.000000 
0.000000 -4.895190 0.000000 
0.000000 -4.895190 0.000000 
0.000000 -4.895190 0.000000 
0.000000 -4.895190 0.000000 
-0.000000 -4.895190 0.000000 
0.000000 -4.895190 0.000000 
-0.000000 -4.895190 0.000000 
0.000000 -4.895190 0.000000 
0.000000 -4.895190 0.000000 
0.000000 -4.895190 0.000000 
0.000000 -4.895190 0.000000 
0.000000 -4.895190 0.000000 
0.000000 -4.895190 0.000000 
0.000000 -4.895190 0.000000 
0.000000 -4.895190 0.000000 
0.000000 -4.895190 0.000000 
-0.000000 -4.895190 0.000000 
0.000000 -4.895190 0.000000 
-0.000000 -4.895190 0.000000 
0.000000 -4.895190 0.000000 
-0.000000 -4.895190 0.000000 
-0.000000 -4.895190 0.000000 
0.000000 -4.895190 0.000000 
-0.000000 -4.895190 0.000000 
0.000000 -4.895190 0.000000 
-0.000000 -4.895190 0.000000 
-0.000000 -4.895190 0.000000 
-0.000000 -4.895190 0.000000 
0.000000 -4.895190 0.000000 
0.000000 -4.895190 0.000000 
TENSORS STRESS float 
-0.000000 -0.000000 0.000000 
0.000000 -0.000000 0.000000 
0.000000 0.000000 0.000000 

0.000000 -0.000000 0.000000 
0.000000 0.000000 0.000000 
0.000000 0.000000 0.000000 

-0.000000 -0.000000 0.000000 
0.000000 -0.000000 0.000000 
0.000000 0.000000 0.000000 

0.000000 0.000000 0.000000 
0.000000 0.000000 0.000000 
0.000000 0.000000 0.000000 

-0.000000 -0.000000 0.000000 
0.000000 -0.000000 0.000000 
0.000000 0.000000 0.000000 

0.000000 -0.000000 0.000000 
0.000000 0.000000 0.000000 
0.000000 0.000000 0.000000 

0.000000 -0.000000 0.000000 
0.000000 0.000000 0.000000 
0.000000 0.000000 0.000000 

0.000000 0.000000 0.000000 
0.000000 0.000000 0.000000 
0.000000 0.000000 0.000000 

0.000000 0.000000 0.000000 
0.000000 0.000000 0.000000 
0.000000 0.000000 0.000000 

0.000000 -0.000000 0.000000 
0.000000 0.000000 0.000000 
0.000000 0.000000 0.000000 

-0.000000 -0.000000 0.000000 
0.000000 -0.000000 0.000000 
0.000000 0.000000 0.000000 

0.000000 0.000000 0.000000 
0.000000 0.000000 0.000000 
0.000000 0.000000 0.000000 

0.000000 0.000000 0.000000 
0.000000 0.000000 0.000000 
0.000000 0.000000 0.000000 

0.000000 0.000000 0.000000 
0.000000 0.000000 0.000000 
0.000000 0.000000 0.000000 

0.000000 0.000000 0.000000 
0.000000 -0.000000 0.000000 
0.000000 0.000000 0.000000 

0.000000 -0.000000 0.000000 
0.000000 0.000000 0.000000 
0.000000 0.000000 0.000000 

0.000000 0.000000 0.000000 
0.000000 0.000000 0.000000 
0.000000 0.000000 0.000000 

0.000000 0.000000 0.000000 
0.000000 0.000000 0.000000 
0.000000 0.000000 0.000000 

0.000000 -0.000000 0.000000 
0.000000 0.000000 0.000000 
0.000000 0.000000 0.000000 

-0.000000 -0.000000 0.000000 
0.000000 -0.000000 0.000000 
0.000000 0.000000 0.000000 

0.000000 -0.000000 0.000000 
0.000000 0.000000 0.000000 
0.000000 0.000000 0.000000 

0.000000 -0.000000 0.000000 
0.000000 0.000000 0.000000 
0.000000 0.000000 0.000000 

-0.000000 0.000000 0.000000 
0.000000 -0.000000 0.000000 
0.000000 0.000000 0.000000 

-0.000000 0.000000 0.000000 
0.000000 -0.000000 0.000000 
0.000000 0.000000 0.000000 

0.000000 -0.000000 0.000000 
0.000000 0.000000 0.000000 
0.000000 0.000000 0.000000 

0.000000 -0.000000 0.000000 
0.000000 0.000000 0.000000 
0.000000 0.000000 0.000000 

0.000000 -0.000000 0.000000 
0.000000 0.000000 0.000000 
0.000000 0.000000 0.000000 

-0.000000 -0.000000 0.000000 
0.000000 -0.000000 0.000000 
0.000000 0.000000 0.000000 

0.000000 -0.000000 0.000000 
0.000000 0.000000 0.000000 
0.000000 0.000000 0.000000 

-0.000000 0.000000 0.000000 
0.000000 -0.000000 0.000000 
0.000000 0.000000 0.000000 

0.000000 -0.000000 0.000000 
0.000000 0.000000 0.000000 
0.000000 0.000000 0.000000 

-0.000000 0.000000 0.000000 
0.000000 -0.000000 0.000000 
0.000000 0.000000 0.000000 

-0.000000 -0.000000 0.000000 
0.000000 -0.000000 0.000000 
0.000000 0.000000 0.000000 

0.000000 -0.000000 0.000000 
0.000000 0.000000 0.000000 
0.000000 0.000000 0.000000 

-0.000000 0.000000 0.000000 
0.000000 -0.000000 0.000000 
0.000000 0.000000 0.000000 

-0.000000 0.000000 0.000000 
0.000000 -0.000000 0.000000 
0.000000 0.000000 0.000000 

-0.000000 0.000000 0.000000 
0.000000 -0.000000 0.000000 
0.000000 0.000000 0.000000 

0.000000 0.000000 0.000000 
0.000000 0.000000 0.000000 
0.000000 0.000000 0.000000 

0.000000 0.000000 0.000000 
0.000000 0.000000 0.000000 
0.000000 0.000000 0.000000 

0.000000 0.000000 0.000000 
0.000000 0.000000 0.000000 
0.000000 0.000000 0.000000 

-0.000000 0.000000 0.000000 
0.000000 -0.000000 0.000000 
0.000000 0.000000 0.000000 

-0.000000 -0.000000 0.000000 
0.000000 -0.000000 0.000000 
0.000000 0.000000 0.000000 

0.000000 0.000000 0.000000 
0.000000 0.000000 0.000000 
0.000000 0.000000 0.000000 

-0.000000 -0.000000 0.000000 
0.000000 -0.000000 0.000000 
0.000000 0.000000 0.000000 

0.000000 0.000000 0.000000 
0.000000 0.000000 0.000000 
0.000000 0.000000 0.000000 

-0.000000 0.000000 0.000000 
0.000000 -0.000000 0.000000 
0.000000 0.000000 0.000000 

0.000000 -0.000000 0.000000 
0.000000 0.000000 0.000000 
0.000000 0.000000 0.000000 

0.000000 0.000000 0.000000 
0.000000 0.000000 0.000000 
0.000000 0.000000 0.000000 

-0.000000 -0.000000 0.000000 
0.000000 -0.000000 0.000000 
0.000000 0.000000 0.000000 

0.000000 -0.000000 0.000000 
0.000000 0.000000 0.000000 
0.000000 0.000000 0.000000 

-0.000000 -0.000000 0.000000 
0.000000 -0.000000 0.000000 
0.000000 0.000000 0.000000 

0.000000 -0.000000 0.000000 
0.000000 0.000000 0.000000 
0.000000 0.000000 0.000000 

0.000000 0.000000 0.000000 
0.000000 0.000000 0.000000 
0.000000 0.000000 0.000000 

0.000000 -0.000000 0.000000 
0.000000 -0.000000 0.000000 
0.000000 0.000000 0.000000 

-0.000000 0.000000 0.000000 
0.000000 -0.000000 0.000000 
0.000000 0.000000 0.000000 

0.000000 0.000000 0.000000 
0.000000 0.000000 0.000000 
0.000000 0.000000 0.000000 

-0.000000 -0.000000 0.000000 
0.000000 -0.000000 0.000000 
0.000000 0.000000 0.000000 

0.000000 0.000000 0.000000 
0.000000 0.000000 0.000000 
0.000000 0.000000 0.000000 

0.000000 0.000000 0.000000 
0.000000 0.000000 0.000000 
0.000000 0.000000 0.000000 

0.000000 0.000000 0.000000 
0.000000 0.000000 0.000000 
0.000000 0.000000 0.000000 

-0.000000 0.000000 0.000000 
0.000000 -0.000000 0.000000 
0.000000 0.000000 0.000000 

0.000000 0.000000 0.000000 
0.000000 0.000000 0.000000 
0.000000 0.000000 0.000000 

-0.000000 0.000000 0.000000 
0.000000 -0.000000 0.000000 
0.000000 0.000000 0.000000 

-0.000000 0.000000 0.000000 
0.000000 -0.000000 0.000000 
0.000000 0.000000 0.000000 

-0.000000 0.000000 0.000000 
0.000000 -0.000000 0.000000 
0.000000 0.000000 0.000000 

-0.000000 0.000000 0.000000 
0.000000 0.000000 0.000000 
0.000000 0.000000 0.000000 

-0.000000 -0.000000 0.000000 
0.000000 -0.000000 0.000000 
0.000000 0.000000 0.000000 

-0.000000 -0.000000 0.000000 
0.000000 -0.000000 0.000000 
0.000000 0.000000 0.000000 

-0.000000 -0.000000 0.000000 
0.000000 -0.000000 0.000000 
0.000000 0.000000 0.000000 

-0.000000 0.000000 0.000000 
0.000000 -0.000000 0.000000 
0.000000 0.000000 0.000000 

-0.000000 -0.000000 0.000000 
0.000000 -0.000000 0.000000 
0.000000 0.000000 0.000000 

-0.000000 0.000000 0.000000 
0.000000 -0.000000 0.000000 
0.000000 0.000000 0.000000 

-0.000000 -0.000000 0.000000 
0.000000 -0.000000 0.000000 
0.000000 0.000000 0.000000 

-0.000000 0.000000 0.000000 
0.000000 -0.000000 0.000000 
0.000000 0.000000 0.000000 

-0.000000 -0.000000 0.000000 
0.000000 -0.000000 0.000000 
0.000000 0.000000 0.000000 

-0.000000 0.000000 0.000000 
0.000000 -0.000000 0.000000 
0.000000 0.000000 0.000000 

-0.000000 -0.000000 0.000000 
0.000000 -0.000000 0.000000 
0.000000 0.000000 0.000000 

-0.000000 0.000000 0.000000 
0.000000 -0.000000 0.000000 
0.000000 0.000000 0.000000 

-0.000000 0.000000 0.000000 
0.000000 -0.000000 0.000000 
0.000000 0.000000 0.000000 

0.000000 -0.000000 0.000000 
0.000000 0.000000 0.000000 
0.000000 0.000000 0.000000 

-0.000000 0.000000 0.000000 
0.000000 -0.000000 0.000000 
0.000000 0.000000 0.000000 

0.000000 0.000000 0.000000 
0.000000 0.000000 0.000000 
0.000000 0.000000 0.000000 

-0.000000 0.000000 0.000000 
0.000000 -0.000000 0.000000 
0.000000 0.000000 0.000000 

0.000000 0.000000 0.000000 
0.000000 0.000000 0.000000 
0.000000 0.000000 0.000000 

-0.000000 0.000000 0.000000 
0.000000 -0.000000 0.000000 
0.000000 0.000000 0.000000 

0.000000 0.000000 0.000000 
0.000000 0.000000 0.000000 
0.000000 0.000000 0.000000 

0.000000 -0.000000 0.000000 
0.000000 0.000000 0.000000 
0.000000 0.000000 0.000000 

-0.000000 0.000000 0.000000 
0.000000 -0.000000 0.000000 
0.000000 0.000000 0.000000 

0.000000 0.000000 0.000000 
0.000000 0.000000 0.000000 
0.000000 0.000000 0.000000 

-0.000000 0.000000 0.000000 
0.000000 -0.000000 0.000000 
0.000000 0.000000 0.000000 

-0.000000 0.000000 0.000000 
0.000000 -0.000000 0.000000 
0.000000 0.000000 0.000000 

-0.000000 0.000000 0.000000 
0.000000 -0.000000 0.000000 
0.000000 0.000000 0.000000 

0.000000 -0.000000 0.000000 
0.000000 0.000000 0.000000 
0.000000 0.000000 0.000000 

-0.000000 0.000000 0.000000 
0.000000 -0.000000 0.000000 
0.000000 0.000000 0.000000 

0.000000 -0.000000 0.000000 
0.000000 0.000000 0.000000 
0.000000 0.000000 0.000000 

0.000000 -0.000000 0.000000 
0.000000 0.000000 0.000000 
0.000000 0.000000 0.000000 

0.000000 -0.000000 0.000000 
0.000000 0.000000 0.000000 
0.000000 0.000000 0.000000 

-0.000000 0.000000 0.000000 
0.000000 -0.000000 0.000000 
0.000000 0.000000 0.000000 

-0.000000 0.000000 0.000000 
0.000000 -0.000000 0.000000 
0.000000 0.000000 0.000000 

-0.000000 -0.000000 0.000000 
0.000000 -0.000000 0.000000 
0.000000 0.000000 0.000000 

0.000000 -0.000000 0.000000 
0.000000 0.000000 0.000000 
0.000000 0.000000 0.000000 

0.000000 -0.000000 0.000000 
0.000000 0.000000 0.000000 
0.000000 0.000000 0.000000 

0.000000 -0.000000 0.000000 
0.000000 0.000000 0.000000 
0.000000 0.000000 0.000000 

0.000000 -0.000000 0.000000 
0.000000 0.000000 0.000000 
0.000000 0.000000 0.000000 

0.000000 -0.000000 0.000000 
0.000000 0.000000 0.000000 
0.000000 0.000000 0.000000 

0.000000 -0.000000 0.000000 
0.000000 -0.000000 0.000000 
0.000000 0.000000 0.000000 

-0.000000 0.000000 0.000000 
0.000000 -0.000000 0.000000 
0.000000 0.000000 0.000000 

0.000000 -0.000000 0.000000 
0.000000 0.000000 0.000000 
0.000000 0.000000 0.000000 

0.000000 0.000000 0.000000 
0.000000 0.000000 0.000000 
0.000000 0.000000 0.000000 

-0.000000 -0.000000 0.000000 
0.000000 -0.000000 0.000000 
0.000000 0.000000 0.000000 

0.000000 -0.000000 0.000000 
0.000000 0.000000 0.000000 
0.000000 0.000000 0.000000 

0.000000 -0.000000 0.000000 
0.000000 0.000000 0.000000 
0.000000 0.000000 0.000000 

0.000000 0.000000 0.000000 
0.000000 0.000000 0.000000 
0.000000 0.000000 0.000000 

-0.000000 -0.000000 0.000000 
0.000000 -0.000000 0.000000 
0.000000 0.000000 0.000000 

-0.000000 -0.000000 0.000000 
0.000000 -0.000000 0.000000 
0.000000 0.000000 0.000000 

0.000000 -0.000000 0.000000 
0.000000 0.000000 0.000000 
0.000000 0.000000 0.000000 

0.000000 0.000000 0.000000 
0.000000 0.000000 0.000000 
0.000000 0.000000 0.000000 

-0.000000 0.000000 0.000000 
0.000000 -0.000000 0.000000 
0.000000 0.000000 0.000000 

0.000000 0.000000 0.000000 
0.000000 0.000000 0.000000 
0.000000 0.000000 0.000000 

0.000000 -0.000000 0.000000 
0.000000 0.000000 0.000000 
0.000000 0.000000 0.000000 

-0.000000 0.000000 0.000000 
0.000000 -0.000000 0.000000 
0.000000 0.000000 0.000000 

0.000000 0.000000 0.000000 
0.000000 0.000000 0.000000 
0.000000 0.000000 0.000000 

-0.000000 0.000000 0.000000 
0.000000 -0.000000 0.000000 
0.000000 0.000000 0.000000 

-0.000000 0.000000 0.000000 
0.000000 -0.000000 0.000000 
0.000000 0.000000 0.000000 

-0.000000 -0.000000 0.000000 
0.000000 -0.000000 0.000000 
0.000000 0.000000 0.000000 

-0.000000 0.000000 0.000000 
0.000000 -0.000000 0.000000 
0.000000 0.000000 0.000000 

0.000000 -0.000000 0.000000 
0.000000 0.000000 0.000000 
0.000000 0.000000 0.000000 

0.000000 0.000000 0.000000 
0.000000 0.000000 0.000000 
0.000000 0.000000 0.000000 

-0.000000 -0.000000 0.000000 
0.000000 -0.000000 0.000000 
0.000000 0.000000 0.000000 

0.000000 -0.000000 0.000000 
0.000000 0.000000 0.000000 
0.000000 0.000000 0.000000 

-0.000000 -0.000000 0.000000 
0.000000 -0.000000 0.000000 
0.000000 0.000000 0.000000 

-0.000000 0.000000 0.000000 
0.000000 -0.000000 0.000000 
0.000000 0.000000 0.000000 

0.000000 0.000000 0.000000 
0.000000 0.000000 0.000000 
0.000000 0.000000 0.000000 

0.000000 -0.000000 0.000000 
0.000000 0.000000 0.000000 
0.000000 0.000000 0.000000 

-0.000000 -0.000000 0.000000 
0.000000 -0.000000 0.000000 
0.000000 0.000000 0.000000 

-0.000000 0.000000 0.000000 
0.000000 -0.000000 0.000000 
0.000000 0.000000 0.000000 

0.000000 -0.000000 0.000000 
0.000000 0.000000 0.000000 
0.000000 0.000000 0.000000 

0.000000 -0.000000 0.000000 
0.000000 0.000000 0.000000 
0.000000 0.000000 0.000000 

0.000000 -0.000000 0.000000 
0.000000 0.000000 0.000000 
0.000000 0.000000 0.000000 

0.000000 -0.000000 0.000000 
0.000000 0.000000 0.000000 
0.000000 0.000000 0.000000 

-0.000000 -0.000000 0.000000 
0.000000 -0.000000 0.000000 
0.000000 0.000000 0.000000 

-0.000000 -0.000000 0.000000 
0.000000 -0.000000 0.000000 
0.000000 0.000000 0.000000 

-0.000000 -0.000000 0.000000 
0.000000 -0.000000 0.000000 
0.000000 0.000000 0.000000 

-0.000000 -0.000000 0.000000 
0.000000 -0.000000 0.000000 
0.000000 0.000000 0.000000 

0.000000 0.000000 0.000000 
0.000000 0.000000 0.000000 
0.000000 0.000000 0.000000 

-0.000000 -0.000000 0.000000 
0.000000 -0.000000 0.000000 
0.000000 0.000000 0.000000 

-0.000000 0.000000 0.000000 
0.000000 -0.000000 0.000000 
0.000000 0.000000 0.000000 

0.000000 0.000000 0.000000 
0.000000 0.000000 0.000000 
0.000000 0.000000 0.000000 

-0.000000 0.000000 0.000000 
0.000000 -0.000000 0.000000 
0.000000 0.000000 0.000000 

-0.000000 0.000000 0.000000 
0.000000 -0.000000 0.000000 
0.000000 0.000000 0.000000 

-0.000000 -0.000000 0.000000 
0.000000 -0.000000 0.000000 
0.000000 0.000000 0.000000 

0.000000 0.000000 0.000000 
0.000000 0.000000 0.000000 
0.000000 0.000000 0.000000 

0.000000 0.000000 0.000000 
0.000000 0.000000 0.000000 
0.000000 0.000000 0.000000 

0.000000 0.000000 0.000000 
0.000000 0.000000 0.000000 
0.000000 0.000000 0.000000 

0.000000 0.000000 0.000000 
0.000000 0.000000 0.000000 
0.000000 0.000000 0.000000 

0.000000 0.000000 0.000000 
0.000000 0.000000 0.000000 
0.000000 0.000000 0.000000 

-0.000000 -0.000000 0.000000 
0.000000 -0.000000 0.000000 
0.000000 0.000000 0.000000 

-0.000000 -0.000000 0.000000 
0.000000 -0.000000 0.000000 
0.000000 0.000000 0.000000 

-0.000000 -0.000000 0.000000 
0.000000 -0.000000 0.000000 
0.000000 0.000000 0.000000 

0.000000 -0.000000 0.000000 
0.000000 0.000000 0.000000 
0.000000 0.000000 0.000000 

-0.000000 -0.000000 0.000000 
0.000000 -0.000000 0.000000 
0.000000 0.000000 0.000000 

0.000000 -0.000000 0.000000 
0.000000 0.000000 0.000000 
0.000000 0.000000 0.000000 

-0.000000 -0.000000 0.000000 
0.000000 -0.000000 0.000000 
0.000000 0.000000 0.000000 

-0.000000 0.000000 0.000000 
0.000000 0.000000 0.000000 
0.000000 0.000000 0.000000 

-0.000000 0.000000 0.000000 
0.000000 0.000000 0.000000 
0.000000 0.000000 0.000000 

0.000000 0.000000 0.000000 
0.000000 -0.000000 0.000000 
0.000000 0.000000 0.000000 

0.000000 0.000000 0.000000 
0.000000 0.000000 0.000000 
0.000000 0.000000 0.000000 

-0.000000 -0.000000 0.000000 
0.000000 -0.000000 0.000000 
0.000000 0.000000 0.000000 

0.000000 0.000000 0.000000 
0.000000 -0.000000 0.000000 
0.000000 0.000000 0.000000 

0.000000 0.000000 0.000000 
0.000000 0.000000 0.000000 
0.000000 0.000000 0.000000 

0.000000 0.000000 0.000000 
0.000000 0.000000 0.000000 
0.000000 0.000000 0.000000 

0.000000 0.000000 0.000000 
0.000000 0.000000 0.000000 
0.000000 0.000000 0.000000 

0.000000 -0.000000 0.000000 
0.000000 0.000000 0.000000 
0.000000 0.000000 0.000000 

0.000000 -0.000000 0.000000 
0.000000 0.000000 0.000000 
0.000000 0.000000 0.000000 

-0.000000 -0.000000 0.000000 
0.000000 -0.000000 0.000000 
0.000000 0.000000 0.000000 

TENSORS STRAIN float 
0.000000 -0.000000 0.000000 
0.000000 -0.000000 0.000000 
0.000000 0.000000 0.000000 

-0.000000 -0.000000 0.000000 
0.000000 0.000000 0.000000 
0.000000 0.000000 0.000000 

0.000000 -0.000000 0.000000 
0.000000 -0.000000 0.000000 
0.000000 0.000000 0.000000 

0.000000 0.000000 0.000000 
0.000000 -0.000000 0.000000 
0.000000 0.000000 0.000000 

-0.000000 -0.000000 0.000000 
0.000000 -0.000000 0.000000 
0.000000 0.000000 0.000000 

-0.000000 -0.000000 0.000000 
0.000000 0.000000 0.000000 
0.000000 0.000000 0.000000 

-0.000000 -0.000000 0.000000 
0.000000 0.000000 0.000000 
0.000000 0.000000 0.000000 

0.000000 0.000000 0.000000 
0.000000 -0.000000 0.000000 
0.000000 0.000000 0.000000 

0.000000 0.000000 0.000000 
0.000000 -0.000000 0.000000 
0.000000 0.000000 0.000000 

0.000000 -0.000000 0.000000 
0.000000 0.000000 0.000000 
0.000000 0.000000 0.000000 

-0.000000 -0.000000 0.000000 
0.000000 0.000000 0.000000 
0.000000 0.000000 0.000000 

-0.000000 0.000000 0.000000 
0.000000 0.000000 0.000000 
0.000000 0.000000 0.000000 

-0.000000 0.000000 0.000000 
0.000000 0.000000 0.000000 
0.000000 0.000000 0.000000 

-0.000000 0.000000 0.000000 
0.000000 0.000000 0.000000 
0.000000 0.000000 0.000000 

0.000000 0.000000 0.000000 
0.000000 -0.000000 0.000000 
0.000000 0.000000 0.000000 

0.000000 -0.000000 0.000000 
0.000000 0.000000 0.000000 
0.000000 0.000000 0.000000 

0.000000 0.000000 0.000000 
0.000000 0.000000 0.000000 
0.000000 0.000000 0.000000 

0.000000 0.000000 0.000000 
0.000000 0.000000 0.000000 
0.000000 0.000000 0.000000 

-0.000000 -0.000000 0.000000 
0.000000 0.000000 0.000000 
0.000000 0.000000 0.000000 

-0.000000 -0.000000 0.000000 
0.000000 0.000000 0.000000 
0.000000 0.000000 0.000000 

0.000000 -0.000000 0.000000 
0.000000 -0.000000 0.000000 
0.000000 0.000000 0.000000 

0.000000 -0.000000 0.000000 
0.000000 0.000000 0.000000 
0.000000 0.000000 0.000000 

0.000000 0.000000 0.000000 
0.000000 -0.000000 0.000000 
0.000000 0.000000 0.000000 

0.000000 0.000000 0.000000 
0.000000 -0.000000 0.000000 
0.000000 0.000000 0.000000 

0.000000 -0.000000 0.000000 
0.000000 -0.000000 0.000000 
0.000000 0.000000 0.000000 

0.000000 -0.000000 0.000000 
0.000000 0.000000 0.000000 
0.000000 0.000000 0.000000 

0.000000 -0.000000 0.000000 
0.000000 0.000000 0.000000 
0.000000 0.000000 0.000000 

-0.000000 -0.000000 0.000000 
0.000000 -0.000000 0.000000 
0.000000 0.000000 0.000000 

-0.000000 -0.000000 0.000000 
0.000000 0.000000 0.000000 
0.000000 0.000000 0.000000 

-0.000000 0.000000 0.000000 
0.000000 -0.000000 0.000000 
0.000000 0.000000 0.000000 

-0.000000 -0.000000 0.000000 
0.000000 0.000000 0.000000 
0.000000 0.000000 0.000000 

-0.000000 0.000000 0.000000 
0.000000 0.000000 0.000000 
0.000000 0.000000 0.000000 

-0.000000 -0.000000 0.000000 
0.000000 -0.000000 0.000000 
0.000000 0.000000 0.000000 

-0.000000 -0.000000 0.000000 
0.000000 0.000000 0.000000 
0.000000 0.000000 0.000000 

-0.000000 0.000000 0.000000 
0.000000 -0.000000 0.000000 
0.000000 0.000000 0.000000 

-0.000000 0.000000 0.000000 
0.000000 -0.000000 0.000000 
0.000000 0.000000 0.000000 

-0.000000 0.000000 0.000000 
0.000000 -0.000000 0.000000 
0.000000 0.000000 0.000000 

-0.000000 0.000000 0.000000 
0.000000 0.000000 0.000000 
0.000000 0.000000 0.000000 

-0.000000 0.000000 0.000000 
0.000000 0.000000 0.000000 
0.000000 0.000000 0.000000 

-0.000000 0.000000 0.000000 
0.000000 0.000000 0.000000 
0.000000 0.000000 0.000000 

0.000000 0.000000 0.000000 
0.000000 -0.000000 0.000000 
0.000000 0.000000 0.000000 

-0.000000 -0.000000 0.000000 
0.000000 0.000000 0.000000 
0.000000 0.000000 0.000000 

-0.000000 0.000000 0.000000 
0.000000 0.000000 0.000000 
0.000000 0.000000 0.000000 

-0.000000 -0.000000 0.000000 
0.000000 0.000000 0.000000 
0.000000 0.000000 0.000000 

-0.000000 0.000000 0.000000 
0.000000 0.000000 0.000000 
0.000000 0.000000 0.000000 

0.000000 0.000000 0.000000 
0.000000 -0.000000 0.000000 
0.000000 0.000000 0.000000 

0.000000 -0.000000 0.000000 
0.000000 0.000000 0.000000 
0.000000 0.000000 0.000000 

-0.000000 0.000000 0.000000 
0.000000 0.000000 0.000000 
0.000000 0.000000 0.000000 

0.000000 -0.000000 0.000000 
0.000000 -0.000000 0.000000 
0.000000 0.000000 0.000000 

0.000000 -0.000000 0.000000 
0.000000 0.000000 0.000000 
0.000000 0.000000 0.000000 

-0.000000 -0.000000 0.000000 
0.000000 0.000000 0.000000 
0.000000 0.000000 0.000000 

0.000000 -0.000000 0.000000 
0.000000 -0.000000 0.000000 
0.000000 0.000000 0.000000 

0.000000 0.000000 0.000000 
0.000000 -0.000000 0.000000 
0.000000 0.000000 0.000000 

0.000000 -0.000000 0.000000 
0.000000 -0.000000 0.000000 
0.000000 0.000000 0.000000 

-0.000000 0.000000 0.000000 
0.000000 0.000000 0.000000 
0.000000 0.000000 0.000000 

-0.000000 0.000000 0.000000 
0.000000 0.000000 0.000000 
0.000000 0.000000 0.000000 

-0.000000 -0.000000 0.000000 
0.000000 -0.000000 0.000000 
0.000000 0.000000 0.000000 

0.000000 0.000000 0.000000 
0.000000 0.000000 0.000000 
0.000000 0.000000 0.000000 

-0.000000 0.000000 0.000000 
0.000000 0.000000 0.000000 
0.000000 0.000000 0.000000 

-0.000000 0.000000 0.000000 
0.000000 0.000000 0.000000 
0.000000 0.000000 0.000000 

-0.000000 0.000000 0.000000 
0.000000 -0.000000 0.000000 
0.000000 0.000000 0.000000 

0.000000 0.000000 0.000000 
0.000000 0.000000 0.000000 
0.000000 0.000000 0.000000 

0.000000 0.000000 0.000000 
0.000000 -0.000000 0.000000 
0.000000 0.000000 0.000000 

0.000000 0.000000 0.000000 
0.000000 -0.000000 0.000000 
0.000000 0.000000 0.000000 

-0.000000 0.000000 0.000000 
0.000000 -0.000000 0.000000 
0.000000 0.000000 0.000000 

-0.000000 0.000000 0.000000 
0.000000 0.000000 0.000000 
0.000000 0.000000 0.000000 

-0.000000 -0.000000 0.000000 
0.000000 -0.000000 0.000000 
0.000000 0.000000 0.000000 

-0.000000 -0.000000 0.000000 
0.000000 0.000000 0.000000 
0.000000 0.000000 0.000000 

-0.000000 -0.000000 0.000000 
0.000000 0.000000 0.000000 
0.000000 0.000000 0.000000 

-0.000000 0.000000 0.000000 
0.000000 -0.000000 0.000000 
0.000000 0.000000 0.000000 

-0.000000 -0.000000 0.000000 
0.000000 -0.000000 0.000000 
0.000000 0.000000 0.000000 

0.000000 0.000000 0.000000 
0.000000 -0.000000 0.000000 
0.000000 0.000000 0.000000 

-0.000000 -0.000000 0.000000 
0.000000 -0.000000 0.000000 
0.000000 0.000000 0.000000 

-0.000000 0.000000 0.000000 
0.000000 0.000000 0.000000 
0.000000 0.000000 0.000000 

-0.000000 -0.000000 0.000000 
0.000000 -0.000000 0.000000 
0.000000 0.000000 0.000000 

-0.000000 0.000000 0.000000 
0.000000 -0.000000 0.000000 
0.000000 0.000000 0.000000 

-0.000000 -0.000000 0.000000 
0.000000 0.000000 0.000000 
0.000000 0.000000 0.000000 

-0.000000 0.000000 0.000000 
0.000000 -0.000000 0.000000 
0.000000 0.000000 0.000000 

-0.000000 0.000000 0.000000 
0.000000 -0.000000 0.000000 
0.000000 0.000000 0.000000 

-0.000000 -0.000000 0.000000 
0.000000 0.000000 0.000000 
0.000000 0.000000 0.000000 

0.000000 0.000000 0.000000 
0.000000 -0.000000 0.000000 
0.000000 0.000000 0.000000 

0.000000 0.000000 0.000000 
0.000000 0.000000 0.000000 
0.000000 0.000000 0.000000 

0.000000 0.000000 0.000000 
0.000000 -0.000000 0.000000 
0.000000 0.000000 0.000000 

-0.000000 0.000000 0.000000 
0.000000 0.000000 0.000000 
0.000000 0.000000 0.000000 

-0.000000 0.000000 0.000000 
0.000000 -0.000000 0.000000 
0.000000 0.000000 0.000000 

-0.000000 0.000000 0.000000 
0.000000 0.000000 0.000000 
0.000000 0.000000 0.000000 

0.000000 -0.000000 0.000000 
0.000000 -0.000000 0.000000 
0.000000 0.000000 0.000000 

0.000000 0.000000 0.000000 
0.000000 -0.000000 0.000000 
0.000000 0.000000 0.000000 

0.000000 0.000000 0.000000 
0.000000 0.000000 0.000000 
0.000000 0.000000 0.000000 

-0.000000 0.000000 0.000000 
0.000000 -0.000000 0.000000 
0.000000 0.000000 0.000000 

0.000000 0.000000 0.000000 
0.000000 -0.000000 0.000000 
0.000000 0.000000 0.000000 

0.000000 0.000000 0.000000 
0.000000 -0.000000 0.000000 
0.000000 0.000000 0.000000 

0.000000 -0.000000 0.000000 
0.000000 0.000000 0.000000 
0.000000 0.000000 0.000000 

0.000000 0.000000 0.000000 
0.000000 -0.000000 0.000000 
0.000000 0.000000 0.000000 

0.000000 -0.000000 0.000000 
0.000000 -0.000000 0.000000 
0.000000 0.000000 0.000000 

0.000000 -0.000000 0.000000 
0.000000 -0.000000 0.000000 
0.000000 0.000000 0.000000 

0.000000 -0.000000 0.000000 
0.000000 -0.000000 0.000000 
0.000000 0.000000 0.000000 

-0.000000 0.000000 0.000000 
0.000000 0.000000 0.000000 
0.000000 0.000000 0.000000 

-0.000000 0.000000 0.000000 
0.000000 -0.000000 0.000000 
0.000000 0.000000 0.000000 

-0.000000 -0.000000 0.000000 
0.000000 0.000000 0.000000 
0.000000 0.000000 0.000000 

-0.000000 -0.000000 0.000000 
0.000000 0.000000 0.000000 
0.000000 0.000000 0.000000 

-0.000000 -0.000000 0.000000 
0.000000 0.000000 0.000000 
0.000000 0.000000 0.000000 

0.000000 -0.000000 0.000000 
0.000000 0.000000 0.000000 
0.000000 0.000000 0.000000 

0.000000 -0.000000 0.000000 
0.000000 0.000000 0.000000 
0.000000 0.000000 0.000000 

0.000000 -0.000000 0.000000 
0.000000 0.000000 0.000000 
0.000000 0.000000 0.000000 

0.000000 -0.000000 0.000000 
0.000000 -0.000000 0.000000 
0.000000 0.000000 0.000000 

0.000000 0.000000 0.000000 
0.000000 -0.000000 0.000000 
0.000000 0.000000 0.000000 

-0.000000 -0.000000 0.000000 
0.000000 0.000000 0.000000 
0.000000 0.000000 0.000000 

-0.000000 0.000000 0.000000 
0.000000 0.000000 0.000000 
0.000000 0.000000 0.000000 

0.000000 -0.000000 0.000000 
0.000000 -0.000000 0.000000 
0.000000 0.000000 0.000000 

0.000000 -0.000000 0.000000 
0.000000 -0.000000 0.000000 
0.000000 0.000000 0.000000 

0.000000 -0.000000 0.000000 
0.000000 0.000000 0.000000 
0.000000 0.000000 0.000000 

0.000000 0.000000 0.000000 
0.000000 0.000000 0.000000 
0.000000 0.000000 0.000000 

0.000000 -0.000000 0.000000 
0.000000 -0.000000 0.000000 
0.000000 0.000000 0.000000 

-0.000000 -0.000000 0.000000 
0.000000 -0.000000 0.000000 
0.000000 0.000000 0.000000 

-0.000000 -0.000000 0.000000 
0.000000 0.000000 0.000000 
0.000000 0.000000 0.000000 

0.000000 0.000000 0.000000 
0.000000 0.000000 0.000000 
0.000000 0.000000 0.000000 

0.000000 0.000000 0.000000 
0.000000 -0.000000 0.000000 
0.000000 0.000000 0.000000 

0.000000 0.000000 0.000000 
0.000000 0.000000 0.000000 
0.000000 0.000000 0.000000 

0.000000 -0.000000 0.000000 
0.000000 -0.000000 0.000000 
0.000000 0.000000 0.000000 

0.000000 0.000000 0.000000 
0.000000 -0.000000 0.000000 
0.000000 0.000000 0.000000 

0.000000 0.000000 0.000000 
0.000000 0.000000 0.000000 
0.000000 0.000000 0.000000 

-0.000000 0.000000 0.000000 
0.000000 -0.000000 0.000000 
0.000000 0.000000 0.000000 

-0.000000 0.000000 0.000000 
0.000000 -0.000000 0.000000 
0.000000 0.000000 0.000000 

0.000000 -0.000000 0.000000 
0.000000 -0.000000 0.000000 
0.000000 0.000000 0.000000 

0.000000 0.000000 0.000000 
0.000000 -0.000000 0.000000 
0.000000 0.000000 0.000000 

0.000000 -0.000000 0.000000 
0.000000 0.000000 0.000000 
0.000000 0.000000 0.000000 

-0.000000 0.000000 0.000000 
0.000000 0.000000 0.000000 
0.000000 0.000000 0.000000 

-0.000000 -0.000000 0.000000 
0.000000 0.000000 0.000000 
0.000000 0.000000 0.000000 

-0.000000 -0.000000 0.000000 
0.000000 0.000000 0.000000 
0.000000 0.000000 0.000000 

0.000000 -0.000000 0.000000 
0.000000 -0.000000 0.000000 
0.000000 0.000000 0.000000 

-0.000000 0.000000 0.000000 
0.000000 -0.000000 0.000000 
0.000000 0.000000 0.000000 

-0.000000 0.000000 0.000000 
0.000000 0.000000 0.000000 
0.000000 0.000000 0.000000 

0.000000 -0.000000 0.000000 
0.000000 -0.000000 0.000000 
0.000000 0.000000 0.000000 

0.000000 -0.000000 0.000000 
0.000000 -0.000000 0.000000 
0.000000 0.000000 0.000000 

-0.000000 0.000000 0.000000 
0.000000 0.000000 0.000000 
0.000000 0.000000 0.000000 

-0.000000 -0.000000 0.000000 
0.000000 0.000000 0.000000 
0.000000 0.000000 0.000000 

-0.000000 -0.000000 0.000000 
0.000000 0.000000 0.000000 
0.000000 0.000000 0.000000 

0.000000 -0.000000 0.000000 
0.000000 0.000000 0.000000 
0.000000 0.000000 0.000000 

0.000000 -0.000000 0.000000 
0.000000 0.000000 0.000000 
0.000000 0.000000 0.000000 

0.000000 -0.000000 0.000000 
0.000000 -0.000000 0.000000 
0.000000 0.000000 0.000000 

0.000000 -0.000000 0.000000 
0.000000 -0.000000 0.000000 
0.000000 0.000000 0.000000 

0.000000 -0.000000 0.000000 
0.000000 -0.000000 0.000000 
0.000000 0.000000 0.000000 

-0.000000 -0.000000 0.000000 
0.000000 0.000000 0.000000 
0.000000 0.000000 0.000000 

-0.000000 0.000000 0.000000 
0.000000 0.000000 0.000000 
0.000000 0.000000 0.000000 

0.000000 -0.000000 0.000000 
0.000000 -0.000000 0.000000 
0.000000 0.000000 0.000000 

0.000000 0.000000 0.000000 
0.000000 -0.000000 0.000000 
0.000000 0.000000 0.000000 

0.000000 0.000000 0.000000 
0.000000 0.000000 0.000000 
0.000000 0.000000 0.000000 

-0.000000 0.000000 0.000000 
0.000000 -0.000000 0.000000 
0.000000 0.000000 0.000000 

-0.000000 0.000000 0.000000 
0.000000 -0.000000 0.000000 
0.000000 0.000000 0.000000 

0.000000 -0.000000 0.000000 
0.000000 -0.000000 0.000000 
0.000000 0.000000 0.000000 

0.000000 0.000000 0.000000 
0.000000 0.000000 0.000000 
0.