# vtk DataFile Version 3.0 
vtk output 
ASCII 
DATASET UNSTRUCTURED_GRID 
POINTS 175 float 
-0.026061 -0.964468 0.000000 
-0.106992 -0.896413 0.000000 
-0.054870 -0.904645 0.000000 
-0.028809 -0.858762 0.000000 
-0.186430 -0.832337 0.000000 
-0.137056 -0.834863 0.000000 
-0.114311 -0.781216 0.000000 
-0.058186 -0.796882 0.000000 
-0.029377 -0.756704 0.000000 
-0.265318 -0.769181 0.000000 
-0.217198 -0.769981 0.000000 
-0.196633 -0.712684 0.000000 
-0.143120 -0.721393 0.000000 
-0.116563 -0.674125 0.000000 
-0.058945 -0.693770 0.000000 
-0.029568 -0.655650 0.000000 
-0.344206 -0.706026 0.000000 
-0.296791 -0.706018 0.000000 
-0.278030 -0.646076 0.000000 
-0.225992 -0.651942 0.000000 
-0.201664 -0.599825 0.000000 
-0.145749 -0.613299 0.000000 
-0.117890 -0.568956 0.000000 
-0.059328 -0.591662 0.000000 
-0.029759 -0.554596 0.000000 
-0.058559 -1.005219 0.000000 
-0.162226 -1.026062 0.000000 
-0.123292 -0.990444 0.000000 
-0.142917 -0.941460 0.000000 
-0.261851 -1.048218 0.000000 
-0.229092 -1.011191 0.000000 
-0.256854 -0.959959 0.000000 
-0.209613 -0.925847 0.000000 
-0.223062 -0.878273 0.000000 
-0.360414 -1.070518 0.000000 
-0.329787 -1.033395 0.000000 
-0.361761 -0.981593 0.000000 
-0.321587 -0.945184 0.000000 
-0.341985 -0.894950 0.000000 
-0.290702 -0.862151 0.000000 
-0.302189 -0.815416 0.000000 
-0.458977 -1.092818 0.000000 
-0.429420 -1.055743 0.000000 
-0.464588 -1.003702 0.000000 
-0.427556 -0.966674 0.000000 
-0.453135 -0.915159 0.000000 
-0.407738 -0.879844 0.000000 
-0.425037 -0.830416 0.000000 
-0.370772 -0.798787 0.000000 
-0.381315 -0.752559 0.000000 
-0.046960 -1.056034 0.000000 
-0.095301 -1.150080 0.000000 
-0.098873 -1.097433 0.000000 
-0.149405 -1.082235 0.000000 
-0.140093 -1.241784 0.000000 
-0.148617 -1.193086 0.000000 
-0.205981 -1.182848 0.000000 
-0.203197 -1.124645 0.000000 
-0.248777 -1.105499 0.000000 
-0.184111 -1.332748 0.000000 
-0.194039 -1.285657 0.000000 
-0.254475 -1.278357 0.000000 
-0.257893 -1.224247 0.000000 
-0.309886 -1.208875 0.000000 
-0.303554 -1.148330 0.000000 
-0.347255 -1.128172 0.000000 
-0.228129 -1.423711 0.000000 
-0.238687 -1.377487 0.000000 
-0.301302 -1.372535 0.000000 
-0.307162 -1.320496 0.000000 
-0.363386 -1.308375 0.000000 
-0.362692 -1.250864 0.000000 
-0.412122 -1.233571 0.000000 
-0.403017 -1.171424 0.000000 
-0.445733 -1.150845 0.000000 
-0.000000 -1.078649 0.000000 
0.043388 -1.175080 0.000000 
-0.000000 -1.145047 0.000000 
-0.043388 -1.175080 0.000000 
0.087158 -1.267276 0.000000 
0.043769 -1.243578 0.000000 
-0.000000 -1.282044 0.000000 
-0.043769 -1.243578 0.000000 
-0.087158 -1.267276 0.000000 
0.130831 -1.358406 0.000000 
0.087824 -1.336807 0.000000 
0.044436 -1.379507 0.000000 
-0.000000 -1.348442 0.000000 
-0.044436 -1.379507 0.000000 
-0.087824 -1.336807 0.000000 
-0.130831 -1.358406 0.000000 
0.174505 -1.449536 0.000000 
0.131782 -1.428970 0.000000 
0.088871 -1.474836 0.000000 
0.044532 -1.446972 0.000000 
-0.000000 -1.483372 0.000000 
-0.044532 -1.446972 0.000000 
-0.088871 -1.474836 0.000000 
-0.131782 -1.428970 0.000000 
-0.174505 -1.449536 0.000000 
0.046960 -1.056034 0.000000 
0.149405 -1.082235 0.000000 
0.098873 -1.097433 0.000000 
0.095301 -1.150080 0.000000 
0.248777 -1.105499 0.000000 
0.203197 -1.124645 0.000000 
0.205981 -1.182848 0.000000 
0.148617 -1.193086 0.000000 
0.140093 -1.241784 0.000000 
0.347255 -1.128172 0.000000 
0.303554 -1.148330 0.000000 
0.309886 -1.208875 0.000000 
0.257893 -1.224247 0.000000 
0.254475 -1.278357 0.000000 
0.194039 -1.285657 0.000000 
0.184111 -1.332748 0.000000 
0.445733 -1.150845 0.000000 
0.403017 -1.171424 0.000000 
0.412122 -1.233571 0.000000 
0.362692 -1.250864 0.000000 
0.363386 -1.308375 0.000000 
0.307162 -1.320496 0.000000 
0.301302 -1.372535 0.000000 
0.238687 -1.377487 0.000000 
0.228129 -1.423711 0.000000 
0.058559 -1.005219 0.000000 
0.142917 -0.941460 0.000000 
0.123292 -0.990444 0.000000 
0.162226 -1.026062 0.000000 
0.223062 -0.878273 0.000000 
0.209613 -0.925847 0.000000 
0.256854 -0.959959 0.000000 
0.229092 -1.011191 0.000000 
0.261851 -1.048218 0.000000 
0.302189 -0.815416 0.000000 
0.290702 -0.862151 0.000000 
0.341985 -0.894950 0.000000 
0.321587 -0.945184 0.000000 
0.361761 -0.981593 0.000000 
0.329787 -1.033395 0.000000 
0.360414 -1.070518 0.000000 
0.381315 -0.752559 0.000000 
0.370772 -0.798787 0.000000 
0.425037 -0.830416 0.000000 
0.407738 -0.879844 0.000000 
0.453135 -0.915159 0.000000 
0.427556 -0.966674 0.000000 
0.464588 -1.003702 0.000000 
0.429420 -1.055743 0.000000 
0.458977 -1.092818 0.000000 
0.026061 -0.964468 0.000000 
0.028809 -0.858762 0.000000 
0.054870 -0.904645 0.000000 
0.106992 -0.896413 0.000000 
0.029377 -0.756704 0.000000 
0.058186 -0.796882 0.000000 
0.114311 -0.781216 0.000000 
0.137056 -0.834863 0.000000 
0.186430 -0.832337 0.000000 
0.029568 -0.655650 0.000000 
0.058945 -0.693770 0.000000 
0.116563 -0.674125 0.000000 
0.143120 -0.721393 0.000000 
0.196633 -0.712684 0.000000 
0.217198 -0.769981 0.000000 
0.265318 -0.769181 0.000000 
0.029759 -0.554596 0.000000 
0.059328 -0.591662 0.000000 
0.117890 -0.568956 0.000000 
0.145749 -0.613299 0.000000 
0.201664 -0.599825 0.000000 
0.225992 -0.651942 0.000000 
0.278030 -0.646076 0.000000 
0.296791 -0.706018 0.000000 
0.344206 -0.706026 0.000000 
CELLS 175 350 
1 0 
1 1 
1 2 
1 3 
1 4 
1 5 
1 6 
1 7 
1 8 
1 9 
1 10 
1 11 
1 12 
1 13 
1 14 
1 15 
1 16 
1 17 
1 18 
1 19 
1 20 
1 21 
1 22 
1 23 
1 24 
1 25 
1 26 
1 27 
1 28 
1 29 
1 30 
1 31 
1 32 
1 33 
1 34 
1 35 
1 36 
1 37 
1 38 
1 39 
1 40 
1 41 
1 42 
1 43 
1 44 
1 45 
1 46 
1 47 
1 48 
1 49 
1 50 
1 51 
1 52 
1 53 
1 54 
1 55 
1 56 
1 57 
1 58 
1 59 
1 60 
1 61 
1 62 
1 63 
1 64 
1 65 
1 66 
1 67 
1 68 
1 69 
1 70 
1 71 
1 72 
1 73 
1 74 
1 75 
1 76 
1 77 
1 78 
1 79 
1 80 
1 81 
1 82 
1 83 
1 84 
1 85 
1 86 
1 87 
1 88 
1 89 
1 90 
1 91 
1 92 
1 93 
1 94 
1 95 
1 96 
1 97 
1 98 
1 99 
1 100 
1 101 
1 102 
1 103 
1 104 
1 105 
1 106 
1 107 
1 108 
1 109 
1 110 
1 111 
1 112 
1 113 
1 114 
1 115 
1 116 
1 117 
1 118 
1 119 
1 120 
1 121 
1 122 
1 123 
1 124 
1 125 
1 126 
1 127 
1 128 
1 129 
1 130 
1 131 
1 132 
1 133 
1 134 
1 135 
1 136 
1 137 
1 138 
1 139 
1 140 
1 141 
1 142 
1 143 
1 144 
1 145 
1 146 
1 147 
1 148 
1 149 
1 150 
1 151 
1 152 
1 153 
1 154 
1 155 
1 156 
1 157 
1 158 
1 159 
1 160 
1 161 
1 162 
1 163 
1 164 
1 165 
1 166 
1 167 
1 168 
1 169 
1 170 
1 171 
1 172 
1 173 
1 174 
CELL_TYPES 175 
1 
1 
1 
1 
1 
1 
1 
1 
1 
1 
1 
1 
1 
1 
1 
1 
1 
1 
1 
1 
1 
1 
1 
1 
1 
1 
1 
1 
1 
1 
1 
1 
1 
1 
1 
1 
1 
1 
1 
1 
1 
1 
1 
1 
1 
1 
1 
1 
1 
1 
1 
1 
1 
1 
1 
1 
1 
1 
1 
1 
1 
1 
1 
1 
1 
1 
1 
1 
1 
1 
1 
1 
1 
1 
1 
1 
1 
1 
1 
1 
1 
1 
1 
1 
1 
1 
1 
1 
1 
1 
1 
1 
1 
1 
1 
1 
1 
1 
1 
1 
1 
1 
1 
1 
1 
1 
1 
1 
1 
1 
1 
1 
1 
1 
1 
1 
1 
1 
1 
1 
1 
1 
1 
1 
1 
1 
1 
1 
1 
1 
1 
1 
1 
1 
1 
1 
1 
1 
1 
1 
1 
1 
1 
1 
1 
1 
1 
1 
1 
1 
1 
1 
1 
1 
1 
1 
1 
1 
1 
1 
1 
1 
1 
1 
1 
1 
1 
1 
1 
1 
1 
1 
1 
1 
1 
POINT_DATA 175 
VECTORS X_GC float 
-0.026061 -0.964468 0.000000 
-0.106992 -0.896413 0.000000 
-0.054870 -0.904645 0.000000 
-0.028809 -0.858762 0.000000 
-0.186430 -0.832337 0.000000 
-0.137056 -0.834863 0.000000 
-0.114311 -0.781216 0.000000 
-0.058186 -0.796882 0.000000 
-0.029377 -0.756704 0.000000 
-0.265318 -0.769181 0.000000 
-0.217198 -0.769981 0.000000 
-0.196633 -0.712684 0.000000 
-0.143120 -0.721393 0.000000 
-0.116563 -0.674125 0.000000 
-0.058945 -0.693770 0.000000 
-0.029568 -0.655650 0.000000 
-0.344206 -0.706026 0.000000 
-0.296791 -0.706018 0.000000 
-0.278030 -0.646076 0.000000 
-0.225992 -0.651942 0.000000 
-0.201664 -0.599825 0.000000 
-0.145749 -0.613299 0.000000 
-0.117890 -0.568956 0.000000 
-0.059328 -0.591662 0.000000 
-0.029759 -0.554596 0.000000 
-0.058559 -1.005219 0.000000 
-0.162226 -1.026062 0.000000 
-0.123292 -0.990444 0.000000 
-0.142917 -0.941460 0.000000 
-0.261851 -1.048218 0.000000 
-0.229092 -1.011191 0.000000 
-0.256854 -0.959959 0.000000 
-0.209613 -0.925847 0.000000 
-0.223062 -0.878273 0.000000 
-0.360414 -1.070518 0.000000 
-0.329787 -1.033395 0.000000 
-0.361761 -0.981593 0.000000 
-0.321587 -0.945184 0.000000 
-0.341985 -0.894950 0.000000 
-0.290702 -0.862151 0.000000 
-0.302189 -0.815416 0.000000 
-0.458977 -1.092818 0.000000 
-0.429420 -1.055743 0.000000 
-0.464588 -1.003702 0.000000 
-0.427556 -0.966674 0.000000 
-0.453135 -0.915159 0.000000 
-0.407738 -0.879844 0.000000 
-0.425037 -0.830416 0.000000 
-0.370772 -0.798787 0.000000 
-0.381315 -0.752559 0.000000 
-0.046960 -1.056034 0.000000 
-0.095301 -1.150080 0.000000 
-0.098873 -1.097433 0.000000 
-0.149405 -1.082235 0.000000 
-0.140093 -1.241784 0.000000 
-0.148617 -1.193086 0.000000 
-0.205981 -1.182848 0.000000 
-0.203197 -1.124645 0.000000 
-0.248777 -1.105499 0.000000 
-0.184111 -1.332748 0.000000 
-0.194039 -1.285657 0.000000 
-0.254475 -1.278357 0.000000 
-0.257893 -1.224247 0.000000 
-0.309886 -1.208875 0.000000 
-0.303554 -1.148330 0.000000 
-0.347255 -1.128172 0.000000 
-0.228129 -1.423711 0.000000 
-0.238687 -1.377487 0.000000 
-0.301302 -1.372535 0.000000 
-0.307162 -1.320496 0.000000 
-0.363386 -1.308375 0.000000 
-0.362692 -1.250864 0.000000 
-0.412122 -1.233571 0.000000 
-0.403017 -1.171424 0.000000 
-0.445733 -1.150845 0.000000 
-0.000000 -1.078649 0.000000 
0.043388 -1.175080 0.000000 
-0.000000 -1.145047 0.000000 
-0.043388 -1.175080 0.000000 
0.087158 -1.267276 0.000000 
0.043769 -1.243578 0.000000 
-0.000000 -1.282044 0.000000 
-0.043769 -1.243578 0.000000 
-0.087158 -1.267276 0.000000 
0.130831 -1.358406 0.000000 
0.087824 -1.336807 0.000000 
0.044436 -1.379507 0.000000 
-0.000000 -1.348442 0.000000 
-0.044436 -1.379507 0.000000 
-0.087824 -1.336807 0.000000 
-0.130831 -1.358406 0.000000 
0.174505 -1.449536 0.000000 
0.131782 -1.428970 0.000000 
0.088871 -1.474836 0.000000 
0.044532 -1.446972 0.000000 
-0.000000 -1.483372 0.000000 
-0.044532 -1.446972 0.000000 
-0.088871 -1.474836 0.000000 
-0.131782 -1.428970 0.000000 
-0.174505 -1.449536 0.000000 
0.046960 -1.056034 0.000000 
0.149405 -1.082235 0.000000 
0.098873 -1.097433 0.000000 
0.095301 -1.150080 0.000000 
0.248777 -1.105499 0.000000 
0.203197 -1.124645 0.000000 
0.205981 -1.182848 0.000000 
0.148617 -1.193086 0.000000 
0.140093 -1.241784 0.000000 
0.347255 -1.128172 0.000000 
0.303554 -1.148330 0.000000 
0.309886 -1.208875 0.000000 
0.257893 -1.224247 0.000000 
0.254475 -1.278357 0.000000 
0.194039 -1.285657 0.000000 
0.184111 -1.332748 0.000000 
0.445733 -1.150845 0.000000 
0.403017 -1.171424 0.000000 
0.412122 -1.233571 0.000000 
0.362692 -1.250864 0.000000 
0.363386 -1.308375 0.000000 
0.307162 -1.320496 0.000000 
0.301302 -1.372535 0.000000 
0.238687 -1.377487 0.000000 
0.228129 -1.423711 0.000000 
0.058559 -1.005219 0.000000 
0.142917 -0.941460 0.000000 
0.123292 -0.990444 0.000000 
0.162226 -1.026062 0.000000 
0.223062 -0.878273 0.000000 
0.209613 -0.925847 0.000000 
0.256854 -0.959959 0.000000 
0.229092 -1.011191 0.000000 
0.261851 -1.048218 0.000000 
0.302189 -0.815416 0.000000 
0.290702 -0.862151 0.000000 
0.341985 -0.894950 0.000000 
0.321587 -0.945184 0.000000 
0.361761 -0.981593 0.000000 
0.329787 -1.033395 0.000000 
0.360414 -1.070518 0.000000 
0.381315 -0.752559 0.000000 
0.370772 -0.798787 0.000000 
0.425037 -0.830416 0.000000 
0.407738 -0.879844 0.000000 
0.453135 -0.915159 0.000000 
0.427556 -0.966674 0.000000 
0.464588 -1.003702 0.000000 
0.429420 -1.055743 0.000000 
0.458977 -1.092818 0.000000 
0.026061 -0.964468 0.000000 
0.028809 -0.858762 0.000000 
0.054870 -0.904645 0.000000 
0.106992 -0.896413 0.000000 
0.029377 -0.756704 0.000000 
0.058186 -0.796882 0.000000 
0.114311 -0.781216 0.000000 
0.137056 -0.834863 0.000000 
0.186430 -0.832337 0.000000 
0.029568 -0.655650 0.000000 
0.058945 -0.693770 0.000000 
0.116563 -0.674125 0.000000 
0.143120 -0.721393 0.000000 
0.196633 -0.712684 0.000000 
0.217198 -0.769981 0.000000 
0.265318 -0.769181 0.000000 
0.029759 -0.554596 0.000000 
0.059328 -0.591662 0.000000 
0.117890 -0.568956 0.000000 
0.145749 -0.613299 0.000000 
0.201664 -0.599825 0.000000 
0.225992 -0.651942 0.000000 
0.278030 -0.646076 0.000000 
0.296791 -0.706018 0.000000 
0.344206 -0.706026 0.000000 
VECTORS X_EC float 
0.338794 -0.479680 0.000000 
-0.609100 0.601571 0.000000 
0.713312 0.712712 0.000000 
0.374519 0.093283 0.000000 
0.423588 -0.263448 0.000000 
-0.218274 -0.229344 0.000000 
-0.513962 -0.953583 0.000000 
0.756418 -0.742097 0.000000 
0.381900 0.715511 0.000000 
-0.550868 0.883949 0.000000 
0.823577 0.894745 0.000000 
0.556234 0.121240 0.000000 
-0.139443 0.238809 0.000000 
-0.484677 -0.399315 0.000000 
0.766286 -0.134100 0.000000 
0.384386 -0.648720 0.000000 
0.474677 0.031346 0.000000 
-0.141715 0.031249 0.000000 
-0.385608 -0.777979 0.000000 
0.937896 -0.698783 0.000000 
0.621631 0.597637 0.000000 
-0.105264 0.779536 0.000000 
-0.467428 0.180910 0.000000 
0.771260 0.487438 0.000000 
0.386873 -0.012951 0.000000 
0.761262 0.070454 0.000000 
0.108942 0.351831 0.000000 
-0.397202 -0.129008 0.000000 
-0.142083 -0.790284 0.000000 
-0.595936 0.650942 0.000000 
0.978194 0.151076 0.000000 
-0.660903 -0.540549 0.000000 
0.724964 0.998931 0.000000 
0.899809 0.356682 0.000000 
0.685384 0.951994 0.000000 
0.287229 0.450835 0.000000 
0.702895 -0.248493 0.000000 
0.180633 -0.740012 0.000000 
0.445811 0.581828 0.000000 
-0.220880 0.139042 0.000000 
-0.071546 -0.491883 0.000000 
-0.033296 -0.746954 0.000000 
-0.417537 0.752536 0.000000 
0.039645 0.049974 0.000000 
-0.441768 -0.449897 0.000000 
-0.109248 0.854652 0.000000 
-0.699407 0.377896 0.000000 
-0.474522 -0.289383 0.000000 
0.820030 -0.716376 0.000000 
0.957100 0.659552 0.000000 
0.610485 0.756461 0.000000 
-0.761092 0.026080 0.000000 
-0.714655 -0.684657 0.000000 
-0.057734 -0.889825 0.000000 
-0.178789 -0.735916 0.000000 
-0.067979 0.606658 0.000000 
0.677748 0.468455 0.000000 
0.641556 -0.317290 0.000000 
-0.765897 -0.575769 0.000000 
0.393446 0.492093 0.000000 
0.522510 -0.143637 0.000000 
-0.691820 -0.242181 0.000000 
-0.647393 -0.972663 0.000000 
0.028512 0.819810 0.000000 
-0.053800 0.002450 0.000000 
0.514316 -0.269681 0.000000 
0.965681 -0.279898 0.000000 
-0.897068 -0.903926 0.000000 
-0.083078 -0.970779 0.000000 
-0.006893 0.326696 0.000000 
0.724017 0.163063 0.000000 
0.714996 -0.613340 0.000000 
-0.642413 -0.846798 0.000000 
-0.760780 0.314222 0.000000 
-0.205471 0.036406 0.000000 
0.000000 -0.938238 0.000000 
-0.564049 0.363575 0.000000 
0.000000 -0.041861 0.000000 
0.564049 0.363575 0.000000 
0.866949 -0.391770 0.000000 
-0.569003 -0.711701 0.000000 
0.000000 -0.192413 0.000000 
0.569003 -0.711701 0.000000 
-0.866949 -0.391770 0.000000 
0.299194 0.838481 0.000000 
0.858290 0.546897 0.000000 
-0.577662 -0.876658 0.000000 
0.000000 0.703964 0.000000 
0.577662 -0.876658 0.000000 
-0.858290 0.546897 0.000000 
-0.299194 0.838481 0.000000 
-0.268560 0.068731 0.000000 
0.286830 -0.208911 0.000000 
0.844677 0.410287 0.000000 
-0.578910 0.034124 0.000000 
0.000000 0.525528 0.000000 
0.578910 0.034124 0.000000 
-0.844677 0.410287 0.000000 
-0.286830 -0.208911 0.000000 
0.268560 0.068731 0.000000 
-0.610485 0.756461 0.000000 
0.057734 -0.889825 0.000000 
0.714655 -0.684657 0.000000 
0.761092 0.026080 0.000000 
0.765897 -0.575769 0.000000 
-0.641556 -0.317290 0.000000 
-0.677748 0.468455 0.000000 
0.067979 0.606658 0.000000 
0.178789 -0.735916 0.000000 
-0.514316 -0.269681 0.000000 
0.053800 0.002450 0.000000 
-0.028512 0.819810 0.000000 
0.647393 -0.972663 0.000000 
0.691820 -0.242181 0.000000 
-0.522510 -0.143637 0.000000 
-0.393446 0.492093 0.000000 
0.205471 0.036406 0.000000 
0.760780 0.314222 0.000000 
0.642413 -0.846798 0.000000 
-0.714996 -0.613340 0.000000 
-0.724017 0.163063 0.000000 
0.006894 0.326696 0.000000 
0.083078 -0.970779 0.000000 
0.897068 -0.903926 0.000000 
-0.965681 -0.279898 0.000000 
-0.761262 0.070454 0.000000 
0.142083 -0.790284 0.000000 
0.397202 -0.129008 0.000000 
-0.108942 0.351831 0.000000 
-0.899809 0.356682 0.000000 
-0.724964 0.998931 0.000000 
0.660903 -0.540549 0.000000 
-0.978194 0.151076 0.000000 
0.595936 0.650942 0.000000 
0.071546 -0.491883 0.000000 
0.220880 0.139043 0.000000 
-0.445811 0.581829 0.000000 
-0.180633 -0.740012 0.000000 
-0.702895 -0.248493 0.000000 
-0.287229 0.450835 0.000000 
-0.685384 0.951994 0.000000 
-0.957100 0.659552 0.000000 
-0.820030 -0.716376 0.000000 
0.474522 -0.289383 0.000000 
0.699407 0.377896 0.000000 
0.109248 0.854652 0.000000 
0.441768 -0.449897 0.000000 
-0.039645 0.049974 0.000000 
0.417537 0.752536 0.000000 
0.033296 -0.746954 0.000000 
-0.338794 -0.479680 0.000000 
-0.374519 0.093283 0.000000 
-0.713312 0.712712 0.000000 
0.609100 0.601571 0.000000 
-0.381900 0.715511 0.000000 
-0.756418 -0.742097 0.000000 
0.513962 -0.953583 0.000000 
0.218274 -0.229344 0.000000 
-0.423588 -0.263448 0.000000 
-0.384386 -0.648720 0.000000 
-0.766286 -0.134100 0.000000 
0.484677 -0.399315 0.000000 
0.139443 0.238809 0.000000 
-0.556234 0.121240 0.000000 
-0.823577 0.894745 0.000000 
0.550868 0.883949 0.000000 
-0.386873 -0.012951 0.000000 
-0.771260 0.487438 0.000000 
0.467428 0.180910 0.000000 
0.105264 0.779536 0.000000 
-0.621631 0.597637 0.000000 
-0.937896 -0.698783 0.000000 
0.385608 -0.777979 0.000000 
0.141715 0.031249 0.000000 
-0.474677 0.031346 0.000000 
CELL_DATA 175 
SCALARS MASS float 
LOOKUP_TABLE default 
0.781831 
0.864274 
0.946717 
0.864274 
0.881307 
0.921110 
0.858535 
0.921110 
0.881307 
0.887046 
0.910001 
0.869829 
0.915556 
0.869829 
0.910001 
0.887046 
0.892784 
0.915740 
0.892784 
0.927218 
0.892784 
0.927218 
0.892784 
0.915740 
0.892784 
0.781831 
0.864274 
0.946717 
0.864274 
0.881307 
0.921110 
0.858535 
0.921110 
0.881307 
0.887046 
0.910001 
0.869829 
0.915556 
0.869829 
0.910001 
0.887046 
0.892784 
0.915740 
0.892784 
0.927218 
0.892784 
0.927218 
0.892784 
0.915740 
0.892784 
0.781831 
0.864274 
0.946717 
0.864274 
0.881307 
0.921110 
0.858535 
0.921110 
0.881307 
0.887046 
0.910001 
0.869829 
0.915556 
0.869829 
0.910001 
0.887046 
0.892784 
0.915740 
0.892784 
0.927218 
0.892784 
0.927218 
0.892784 
0.915740 
0.892784 
0.781831 
0.864274 
0.946717 
0.864274 
0.881307 
0.921110 
0.858535 
0.921110 
0.881307 
0.887046 
0.910001 
0.869829 
0.915556 
0.869829 
0.910001 
0.887046 
0.892784 
0.915740 
0.892784 
0.927218 
0.892784 
0.927218 
0.892784 
0.915740 
0.892784 
0.781831 
0.864274 
0.946717 
0.864274 
0.881307 
0.921110 
0.858535 
0.921110 
0.881307 
0.887046 
0.910001 
0.869829 
0.915556 
0.869829 
0.910001 
0.887046 
0.892784 
0.915740 
0.892784 
0.927218 
0.892784 
0.927218 
0.892784 
0.915740 
0.892784 
0.781831 
0.864274 
0.946717 
0.864274 
0.881307 
0.921110 
0.858535 
0.921110 
0.881307 
0.887046 
0.910001 
0.869829 
0.915556 
0.869829 
0.910001 
0.887046 
0.892784 
0.915740 
0.892784 
0.927218 
0.892784 
0.927218 
0.892784 
0.915740 
0.892784 
0.781831 
0.864274 
0.946717 
0.864274 
0.881307 
0.921110 
0.858535 
0.921110 
0.881307 
0.887046 
0.910001 
0.869829 
0.915556 
0.869829 
0.910001 
0.887046 
0.892784 
0.915740 
0.892784 
0.927218 
0.892784 
0.927218 
0.892784 
0.915740 
0.892784 
SCALARS MASS float 
LOOKUP_TABLE default 
0.781831 
0.864274 
0.946717 
0.864274 
0.881307 
0.921110 
0.858535 
0.921110 
0.881307 
0.887046 
0.910001 
0.869829 
0.915556 
0.869829 
0.910001 
0.887046 
0.892784 
0.915740 
0.892784 
0.927218 
0.892784 
0.927218 
0.892784 
0.915740 
0.892784 
0.781831 
0.864274 
0.946717 
0.864274 
0.881307 
0.921110 
0.858535 
0.921110 
0.881307 
0.887046 
0.910001 
0.869829 
0.915556 
0.869829 
0.910001 
0.887046 
0.892784 
0.915740 
0.892784 
0.927218 
0.892784 
0.927218 
0.892784 
0.915740 
0.892784 
0.781831 
0.864274 
0.946717 
0.864274 
0.881307 
0.921110 
0.858535 
0.921110 
0.881307 
0.887046 
0.910001 
0.869829 
0.915556 
0.869829 
0.910001 
0.887046 
0.892784 
0.915740 
0.892784 
0.927218 
0.892784 
0.927218 
0.892784 
0.915740 
0.892784 
0.781831 
0.864274 
0.946717 
0.864274 
0.881307 
0.921110 
0.858535 
0.921110 
0.881307 
0.887046 
0.910001 
0.869829 
0.915556 
0.869829 
0.910001 
0.887046 
0.892784 
0.915740 
0.892784 
0.927218 
0.892784 
0.927218 
0.892784 
0.915740 
0.892784 
0.781831 
0.864274 
0.946717 
0.864274 
0.881307 
0.921110 
0.858535 
0.921110 
0.881307 
0.887046 
0.910001 
0.869829 
0.915556 
0.869829 
0.910001 
0.887046 
0.892784 
0.915740 
0.892784 
0.927218 
0.892784 
0.927218 
0.892784 
0.915740 
0.892784 
0.781831 
0.864274 
0.946717 
0.864274 
0.881307 
0.921110 
0.858535 
0.921110 
0.881307 
0.887046 
0.910001 
0.869829 
0.915556 
0.869829 
0.910001 
0.887046 
0.892784 
0.915740 
0.892784 
0.927218 
0.892784 
0.927218 
0.892784 
0.915740 
0.892784 
0.781831 
0.864274 
0.946717 
0.864274 
0.881307 
0.921110 
0.858535 
0.921110 
0.881307 
0.887046 
0.910001 
0.869829 
0.915556 
0.869829 
0.910001 
0.887046 
0.892784 
0.915740 
0.892784 
0.927218 
0.892784 
0.927218 
0.892784 
0.915740 
0.892784 
SCALARS DENSITY float 
LOOKUP_TABLE default 
200.000000 
200.000000 
200.000000 
200.000000 
200.000000 
200.000000 
200.000000 
200.000000 
200.000000 
200.000000 
200.000000 
200.000000 
200.000000 
200.000000 
200.000000 
200.000000 
200.000000 
200.000000 
200.000000 
200.000000 
200.000000 
200.000000 
200.000000 
200.000000 
200.000000 
200.000000 
200.000000 
200.000000 
200.000000 
200.000000 
200.000000 
200.000000 
200.000000 
200.000000 
200.000000 
200.000000 
200.000000 
200.000000 
200.000000 
200.000000 
200.000000 
200.000000 
200.000000 
200.000000 
200.000000 
200.000000 
200.000000 
200.000000 
200.000000 
200.000000 
200.000000 
200.000000 
200.000000 
200.000000 
200.000000 
200.000000 
200.000000 
200.000000 
200.000000 
200.000000 
200.000000 
200.000000 
200.000000 
200.000000 
200.000000 
200.000000 
200.000000 
200.000000 
200.000000 
200.000000 
200.000000 
200.000000 
200.000000 
200.000000 
200.000000 
200.000000 
200.000000 
200.000000 
200.000000 
200.000000 
200.000000 
200.000000 
200.000000 
200.000000 
200.000000 
200.000000 
200.000000 
200.000000 
200.000000 
200.000000 
200.000000 
200.000000 
200.000000 
200.000000 
200.000000 
200.000000 
200.000000 
200.000000 
200.000000 
200.000000 
200.000000 
200.000000 
200.000000 
200.000000 
200.000000 
200.000000 
200.000000 
200.000000 
200.000000 
200.000000 
200.000000 
200.000000 
200.000000 
200.000000 
200.000000 
200.000000 
200.000000 
200.000000 
200.000000 
200.000000 
200.000000 
200.000000 
200.000000 
200.000000 
200.000000 
200.000000 
200.000000 
200.000000 
200.000000 
200.000000 
200.000000 
200.000000 
200.000000 
200.000000 
200.000000 
200.000000 
200.000000 
200.000000 
200.000000 
200.000000 
200.000000 
200.000000 
200.000000 
200.000000 
200.000000 
200.000000 
200.000000 
200.000000 
200.000000 
200.000000 
200.000000 
200.000000 
200.000000 
200.000000 
200.000000 
200.000000 
200.000000 
200.000000 
200.000000 
200.000000 
200.000000 
200.000000 
200.000000 
200.000000 
200.000000 
200.000000 
200.000000 
200.000000 
200.000000 
200.000000 
200.000000 
200.000000 
200.000000 
200.000000 
200.000000 
SCALARS ELEM_i float 
LOOKUP_TABLE default 
175 
203 
176 
176 
203 
203 
203 
176 
177 
231 
204 
204 
204 
204 
177 
177 
231 
231 
231 
204 
205 
205 
205 
178 
178 
175 
202 
202 
202 
229 
202 
229 
203 
203 
229 
229 
229 
229 
230 
230 
230 
255 
256 
256 
256 
257 
257 
257 
230 
231 
175 
201 
201 
201 
200 
201 
201 
201 
228 
200 
200 
227 
227 
228 
228 
228 
199 
226 
226 
227 
227 
227 
254 
255 
255 
174 
174 
174 
174 
146 
173 
173 
173 
200 
146 
146 
172 
173 
172 
200 
200 
145 
145 
145 
172 
172 
172 
199 
199 
199 
175 
147 
147 
147 
120 
147 
147 
147 
146 
120 
120 
120 
119 
119 
146 
146 
93 
93 
92 
119 
119 
119 
118 
118 
145 
175 
148 
148 
148 
149 
149 
121 
148 
121 
122 
122 
122 
121 
121 
121 
121 
123 
122 
95 
95 
95 
94 
94 
94 
93 
175 
176 
176 
149 
177 
176 
149 
149 
149 
177 
177 
150 
150 
150 
150 
123 
178 
178 
151 
151 
151 
150 
123 
123 
123 
VECTORS VELOCITY float 
-0.000000 -4.469436 0.000000 
0.000000 -4.469436 0.000000 
0.000000 -4.469436 0.000000 
0.000000 -4.469436 0.000000 
0.000000 -4.469436 0.000000 
0.000000 -4.469436 0.000000 
0.000000 -4.469436 0.000000 
0.000000 -4.469436 0.000000 
0.000000 -4.469436 0.000000 
-0.000000 -4.469436 0.000000 
0.000000 -4.469436 0.000000 
-0.000000 -4.469436 0.000000 
0.000000 -4.469436 0.000000 
-0.000000 -4.469436 0.000000 
0.000000 -4.469436 0.000000 
0.000000 -4.469436 0.000000 
0.000000 -4.469436 0.000000 
-0.000000 -4.469436 0.000000 
0.000000 -4.469436 0.000000 
0.000000 -4.469436 0.000000 
0.000000 -4.469436 0.000000 
0.000000 -4.469436 0.000000 
0.000000 -4.469436 0.000000 
0.000000 -4.469436 0.000000 
0.000000 -4.469436 0.000000 
-0.000000 -4.469436 0.000000 
-0.000000 -4.469436 0.000000 
-0.000000 -4.469436 0.000000 
-0.000000 -4.469436 0.000000 
0.000000 -4.469436 0.000000 
0.000000 -4.469436 0.000000 
0.000000 -4.469436 0.000000 
-0.000000 -4.469436 0.000000 
-0.000000 -4.469436 0.000000 
0.000000 -4.469436 0.000000 
0.000000 -4.469436 0.000000 
0.000000 -4.469436 0.000000 
0.000000 -4.469436 0.000000 
-0.000000 -4.469436 0.000000 
-0.000000 -4.469436 0.000000 
-0.000000 -4.469436 0.000000 
-0.000000 -4.469436 0.000000 
-0.000000 -4.469436 0.000000 
-0.000000 -4.469436 0.000000 
-0.000000 -4.469436 0.000000 
-0.000000 -4.469436 0.000000 
-0.000000 -4.469436 0.000000 
0.000000 -4.469436 0.000000 
-0.000000 -4.469436 0.000000 
0.000000 -4.469436 0.000000 
-0.000000 -4.469436 0.000000 
-0.000000 -4.469436 0.000000 
-0.000000 -4.469436 0.000000 
-0.000000 -4.469436 0.000000 
-0.000000 -4.469436 0.000000 
-0.000000 -4.469436 0.000000 
-0.000000 -4.469436 0.000000 
-0.000000 -4.469436 0.000000 
-0.000000 -4.469436 0.000000 
-0.000000 -4.469436 0.000000 
-0.000000 -4.469436 0.000000 
-0.000000 -4.469436 0.000000 
-0.000000 -4.469436 0.000000 
-0.000000 -4.469436 0.000000 
-0.000000 -4.469436 0.000000 
-0.000000 -4.469436 0.000000 
-0.000000 -4.469436 0.000000 
-0.000000 -4.469436 0.000000 
0.000000 -4.469436 0.000000 
-0.000000 -4.469436 0.000000 
-0.000000 -4.469436 0.000000 
-0.000000 -4.469436 0.000000 
-0.000000 -4.469436 0.000000 
0.000000 -4.469436 0.000000 
0.000000 -4.469436 0.000000 
-0.000000 -4.469436 0.000000 
-0.000000 -4.469436 0.000000 
-0.000000 -4.469436 0.000000 
-0.000000 -4.469436 0.000000 
0.000000 -4.469436 0.000000 
-0.000000 -4.469436 0.000000 
-0.000000 -4.469436 0.000000 
-0.000000 -4.469436 0.000000 
-0.000000 -4.469436 0.000000 
0.000000 -4.469436 0.000000 
0.000000 -4.469436 0.000000 
0.000000 -4.469436 0.000000 
0.000000 -4.469436 0.000000 
0.000000 -4.469436 0.000000 
-0.000000 -4.469436 0.000000 
-0.000000 -4.469436 0.000000 
-0.000000 -4.469436 0.000000 
0.000000 -4.469436 0.000000 
-0.000000 -4.469436 0.000000 
-0.000000 -4.469436 0.000000 
-0.000000 -4.469436 0.000000 
-0.000000 -4.469436 0.000000 
-0.000000 -4.469436 0.000000 
-0.000000 -4.469436 0.000000 
-0.000000 -4.469436 0.000000 
0.000000 -4.469436 0.000000 
0.000000 -4.469436 0.000000 
-0.000000 -4.469436 0.000000 
-0.000000 -4.469436 0.000000 
0.000000 -4.469436 0.000000 
0.000000 -4.469436 0.000000 
-0.000000 -4.469436 0.000000 
-0.000000 -4.469436 0.000000 
0.000000 -4.469436 0.000000 
-0.000000 -4.469436 0.000000 
-0.000000 -4.469436 0.000000 
0.000000 -4.469436 0.000000 
0.000000 -4.469436 0.000000 
-0.000000 -4.469436 0.000000 
0.000000 -4.469436 0.000000 
0.000000 -4.469436 0.000000 
-0.000000 -4.469436 0.000000 
0.000000 -4.469436 0.000000 
0.000000 -4.469436 0.000000 
0.000000 -4.469436 0.000000 
-0.000000 -4.469436 0.000000 
0.000000 -4.469436 0.000000 
-0.000000 -4.469436 0.000000 
-0.000000 -4.469436 0.000000 
0.000000 -4.469436 0.000000 
0.000000 -4.469436 0.000000 
0.000000 -4.469436 0.000000 
0.000000 -4.469436 0.000000 
0.000000 -4.469436 0.000000 
-0.000000 -4.469436 0.000000 
-0.000000 -4.469436 0.000000 
-0.000000 -4.469436 0.000000 
0.000000 -4.469436 0.000000 
0.000000 -4.469436 0.000000 
0.000000 -4.469436 0.000000 
0.000000 -4.469436 0.000000 
0.000000 -4.469436 0.000000 
0.000000 -4.469436 0.000000 
0.000000 -4.469436 0.000000 
0.000000 -4.469436 0.000000 
0.000000 -4.469436 0.000000 
0.000000 -4.469436 0.000000 
0.000000 -4.469436 0.000000 
-0.000000 -4.469436 0.000000 
0.000000 -4.469436 0.000000 
-0.000000 -4.469436 0.000000 
0.000000 -4.469436 0.000000 
0.000000 -4.469436 0.000000 
0.000000 -4.469436 0.000000 
0.000000 -4.469436 0.000000 
0.000000 -4.469436 0.000000 
0.000000 -4.469436 0.000000 
0.000000 -4.469436 0.000000 
-0.000000 -4.469436 0.000000 
0.000000 -4.469436 0.000000 
-0.000000 -4.469436 0.000000 
-0.000000 -4.469436 0.000000 
-0.000000 -4.469436 0.000000 
0.000000 -4.469436 0.000000 
0.000000 -4.469436 0.000000 
0.000000 -4.469436 0.000000 
0.000000 -4.469436 0.000000 
0.000000 -4.469436 0.000000 
0.000000 -4.469436 0.000000 
0.000000 -4.469436 0.000000 
0.000000 -4.469436 0.000000 
0.000000 -4.469436 0.000000 
0.000000 -4.469436 0.000000 
-0.000000 -4.469436 0.000000 
0.000000 -4.469436 0.000000 
-0.000000 -4.469436 0.000000 
0.000000 -4.469436 0.000000 
-0.000000 -4.469436 0.000000 
0.000000 -4.469436 0.000000 
0.000000 -4.469436 0.000000 
TENSORS STRESS float 
-0.000000 -0.000000 0.000000 
0.000000 -0.000000 0.000000 
0.000000 0.000000 0.000000 

0.000000 -0.000000 0.000000 
0.000000 0.000000 0.000000 
0.000000 0.000000 0.000000 

-0.000000 0.000000 0.000000 
0.000000 -0.000000 0.000000 
0.000000 0.000000 0.000000 

0.000000 0.000000 0.000000 
0.000000 0.000000 0.000000 
0.000000 0.000000 0.000000 

-0.000000 0.000000 0.000000 
0.000000 -0.000000 0.000000 
0.000000 0.000000 0.000000 

0.000000 -0.000000 0.000000 
0.000000 0.000000 0.000000 
0.000000 0.000000 0.000000 

-0.000000 -0.000000 0.000000 
0.000000 -0.000000 0.000000 
0.000000 0.000000 0.000000 

-0.000000 -0.000000 0.000000 
0.000000 -0.000000 0.000000 
0.000000 0.000000 0.000000 

0.000000 -0.000000 0.000000 
0.000000 -0.000000 0.000000 
0.000000 0.000000 0.000000 

-0.000000 -0.000000 0.000000 
0.000000 -0.000000 0.000000 
0.000000 0.000000 0.000000 

-0.000000 -0.000000 0.000000 
0.000000 -0.000000 0.000000 
0.000000 0.000000 0.000000 

0.000000 -0.000000 0.000000 
0.000000 0.000000 0.000000 
0.000000 0.000000 0.000000 

0.000000 -0.000000 0.000000 
0.000000 0.000000 0.000000 
0.000000 0.000000 0.000000 

0.000000 0.000000 0.000000 
0.000000 0.000000 0.000000 
0.000000 0.000000 0.000000 

0.000000 0.000000 0.000000 
0.000000 0.000000 0.000000 
0.000000 0.000000 0.000000 

-0.000000 0.000000 0.000000 
0.000000 -0.000000 0.000000 
0.000000 0.000000 0.000000 

0.000000 -0.000000 0.000000 
0.000000 0.000000 0.000000 
0.000000 0.000000 0.000000 

-0.000000 -0.000000 0.000000 
0.000000 -0.000000 0.000000 
0.000000 0.000000 0.000000 

-0.000000 -0.000000 0.000000 
0.000000 -0.000000 0.000000 
0.000000 0.000000 0.000000 

0.000000 -0.000000 0.000000 
0.000000 0.000000 0.000000 
0.000000 0.000000 0.000000 

0.000000 -0.000000 0.000000 
0.000000 0.000000 0.000000 
0.000000 0.000000 0.000000 

0.000000 -0.000000 0.000000 
0.000000 -0.000000 0.000000 
0.000000 0.000000 0.000000 

-0.000000 -0.000000 0.000000 
0.000000 -0.000000 0.000000 
0.000000 0.000000 0.000000 

-0.000000 0.000000 0.000000 
0.000000 -0.000000 0.000000 
0.000000 0.000000 0.000000 

-0.000000 0.000000 0.000000 
0.000000 -0.000000 0.000000 
0.000000 0.000000 0.000000 

-0.000000 -0.000000 0.000000 
0.000000 -0.000000 0.000000 
0.000000 0.000000 0.000000 

-0.000000 -0.000000 0.000000 
0.000000 -0.000000 0.000000 
0.000000 0.000000 0.000000 

0.000000 -0.000000 0.000000 
0.000000 0.000000 0.000000 
0.000000 0.000000 0.000000 

-0.000000 -0.000000 0.000000 
0.000000 -0.000000 0.000000 
0.000000 0.000000 0.000000 

-0.000000 0.000000 0.000000 
0.000000 -0.000000 0.000000 
0.000000 0.000000 0.000000 

-0.000000 0.000000 0.000000 
0.000000 -0.000000 0.000000 
0.000000 0.000000 0.000000 

0.000000 0.000000 0.000000 
0.000000 0.000000 0.000000 
0.000000 0.000000 0.000000 

0.000000 -0.000000 0.000000 
0.000000 0.000000 0.000000 
0.000000 0.000000 0.000000 

-0.000000 -0.000000 0.000000 
0.000000 -0.000000 0.000000 
0.000000 0.000000 0.000000 

-0.000000 -0.000000 0.000000 
0.000000 -0.000000 0.000000 
0.000000 0.000000 0.000000 

-0.000000 -0.000000 0.000000 
0.000000 -0.000000 0.000000 
0.000000 0.000000 0.000000 

-0.000000 0.000000 0.000000 
0.000000 -0.000000 0.000000 
0.000000 0.000000 0.000000 

0.000000 0.000000 0.000000 
0.000000 0.000000 0.000000 
0.000000 0.000000 0.000000 

0.000000 0.000000 0.000000 
0.000000 0.000000 0.000000 
0.000000 0.000000 0.000000 

-0.000000 0.000000 0.000000 
0.000000 -0.000000 0.000000 
0.000000 0.000000 0.000000 

-0.000000 0.000000 0.000000 
0.000000 -0.000000 0.000000 
0.000000 0.000000 0.000000 

-0.000000 -0.000000 0.000000 
0.000000 -0.000000 0.000000 
0.000000 0.000000 0.000000 

0.000000 -0.000000 0.000000 
0.000000 0.000000 0.000000 
0.000000 0.000000 0.000000 

-0.000000 -0.000000 0.000000 
0.000000 0.000000 0.000000 
0.000000 0.000000 0.000000 

-0.000000 -0.000000 0.000000 
0.000000 -0.000000 0.000000 
0.000000 0.000000 0.000000 

0.000000 -0.000000 0.000000 
0.000000 0.000000 0.000000 
0.000000 0.000000 0.000000 

-0.000000 -0.000000 0.000000 
0.000000 -0.000000 0.000000 
0.000000 0.000000 0.000000 

-0.000000 -0.000000 0.000000 
0.000000 -0.000000 0.000000 
0.000000 0.000000 0.000000 

-0.000000 0.000000 0.000000 
0.000000 -0.000000 0.000000 
0.000000 0.000000 0.000000 

0.000000 -0.000000 0.000000 
0.000000 0.000000 0.000000 
0.000000 0.000000 0.000000 

0.000000 -0.000000 0.000000 
0.000000 0.000000 0.000000 
0.000000 0.000000 0.000000 

-0.000000 0.000000 0.000000 
0.000000 -0.000000 0.000000 
0.000000 0.000000 0.000000 

0.000000 -0.000000 0.000000 
0.000000 0.000000 0.000000 
0.000000 0.000000 0.000000 

-0.000000 -0.000000 0.000000 
0.000000 -0.000000 0.000000 
0.000000 0.000000 0.000000 

-0.000000 -0.000000 0.000000 
0.000000 -0.000000 0.000000 
0.000000 0.000000 0.000000 

-0.000000 -0.000000 0.000000 
0.000000 -0.000000 0.000000 
0.000000 0.000000 0.000000 

-0.000000 0.000000 0.000000 
0.000000 -0.000000 0.000000 
0.000000 0.000000 0.000000 

0.000000 -0.000000 0.000000 
0.000000 0.000000 0.000000 
0.000000 0.000000 0.000000 

-0.000000 -0.000000 0.000000 
0.000000 -0.000000 0.000000 
0.000000 0.000000 0.000000 

0.000000 -0.000000 0.000000 
0.000000 0.000000 0.000000 
0.000000 0.000000 0.000000 

0.000000 -0.000000 0.000000 
0.000000 0.000000 0.000000 
0.000000 0.000000 0.000000 

0.000000 -0.000000 0.000000 
0.000000 0.000000 0.000000 
0.000000 0.000000 0.000000 

0.000000 -0.000000 0.000000 
0.000000 0.000000 0.000000 
0.000000 0.000000 0.000000 

-0.000000 -0.000000 0.000000 
0.000000 -0.000000 0.000000 
0.000000 0.000000 0.000000 

-0.000000 -0.000000 0.000000 
0.000000 -0.000000 0.000000 
0.000000 0.000000 0.000000 

-0.000000 -0.000000 0.000000 
0.000000 -0.000000 0.000000 
0.000000 0.000000 0.000000 

-0.000000 0.000000 0.000000 
0.000000 -0.000000 0.000000 
0.000000 0.000000 0.000000 

0.000000 -0.000000 0.000000 
0.000000 0.000000 0.000000 
0.000000 0.000000 0.000000 

-0.000000 -0.000000 0.000000 
0.000000 -0.000000 0.000000 
0.000000 0.000000 0.000000 

0.000000 -0.000000 0.000000 
0.000000 0.000000 0.000000 
0.000000 0.000000 0.000000 

-0.000000 0.000000 0.000000 
0.000000 -0.000000 0.000000 
0.000000 0.000000 0.000000 

-0.000000 -0.000000 0.000000 
0.000000 -0.000000 0.000000 
0.000000 0.000000 0.000000 

-0.000000 -0.000000 0.000000 
0.000000 -0.000000 0.000000 
0.000000 0.000000 0.000000 

0.000000 -0.000000 0.000000 
0.000000 0.000000 0.000000 
0.000000 0.000000 0.000000 

0.000000 -0.000000 0.000000 
0.000000 0.000000 0.000000 
0.000000 0.000000 0.000000 

-0.000000 -0.000000 0.000000 
0.000000 -0.000000 0.000000 
0.000000 0.000000 0.000000 

0.000000 -0.000000 0.000000 
0.000000 0.000000 0.000000 
0.000000 0.000000 0.000000 

0.000000 -0.000000 0.000000 
0.000000 -0.000000 0.000000 
0.000000 0.000000 0.000000 

0.000000 -0.000000 0.000000 
0.000000 0.000000 0.000000 
0.000000 0.000000 0.000000 

-0.000000 -0.000000 0.000000 
0.000000 0.000000 0.000000 
0.000000 0.000000 0.000000 

-0.000000 0.000000 0.000000 
0.000000 -0.000000 0.000000 
0.000000 0.000000 0.000000 

0.000000 -0.000000 0.000000 
0.000000 0.000000 0.000000 
0.000000 0.000000 0.000000 

0.000000 -0.000000 0.000000 
0.000000 0.000000 0.000000 
0.000000 0.000000 0.000000 

0.000000 -0.000000 0.000000 
0.000000 0.000000 0.000000 
0.000000 0.000000 0.000000 

-0.000000 -0.000000 0.000000 
0.000000 -0.000000 0.000000 
0.000000 0.000000 0.000000 

0.000000 -0.000000 0.000000 
0.000000 0.000000 0.000000 
0.000000 0.000000 0.000000 

0.000000 -0.000000 0.000000 
0.000000 0.000000 0.000000 
0.000000 0.000000 0.000000 

-0.000000 -0.000000 0.000000 
0.000000 -0.000000 0.000000 
0.000000 0.000000 0.000000 

-0.000000 -0.000000 0.000000 
0.000000 -0.000000 0.000000 
0.000000 0.000000 0.000000 

0.000000 -0.000000 0.000000 
0.000000 0.000000 0.000000 
0.000000 0.000000 0.000000 

-0.000000 0.000000 0.000000 
0.000000 -0.000000 0.000000 
0.000000 0.000000 0.000000 

0.000000 -0.000000 0.000000 
0.000000 0.000000 0.000000 
0.000000 0.000000 0.000000 

-0.000000 0.000000 0.000000 
0.000000 -0.000000 0.000000 
0.000000 0.000000 0.000000 

-0.000000 0.000000 0.000000 
0.000000 -0.000000 0.000000 
0.000000 0.000000 0.000000 

-0.000000 0.000000 0.000000 
0.000000 -0.000000 0.000000 
0.000000 0.000000 0.000000 

0.000000 0.000000 0.000000 
0.000000 0.000000 0.000000 
0.000000 0.000000 0.000000 

0.000000 -0.000000 0.000000 
0.000000 0.000000 0.000000 
0.000000 0.000000 0.000000 

0.000000 -0.000000 0.000000 
0.000000 0.000000 0.000000 
0.000000 0.000000 0.000000 

0.000000 0.000000 0.000000 
0.000000 0.000000 0.000000 
0.000000 0.000000 0.000000 

0.000000 -0.000000 0.000000 
0.000000 0.000000 0.000000 
0.000000 0.000000 0.000000 

0.000000 -0.000000 0.000000 
0.000000 0.000000 0.000000 
0.000000 0.000000 0.000000 

-0.000000 0.000000 0.000000 
0.000000 -0.000000 0.000000 
0.000000 0.000000 0.000000 

-0.000000 -0.000000 0.000000 
0.000000 -0.000000 0.000000 
0.000000 0.000000 0.000000 

-0.000000 -0.000000 0.000000 
0.000000 -0.000000 0.000000 
0.000000 0.000000 0.000000 

0.000000 0.000000 0.000000 
0.000000 0.000000 0.000000 
0.000000 0.000000 0.000000 

-0.000000 -0.000000 0.000000 
0.000000 -0.000000 0.000000 
0.000000 0.000000 0.000000 

-0.000000 -0.000000 0.000000 
0.000000 -0.000000 0.000000 
0.000000 0.000000 0.000000 

-0.000000 -0.000000 0.000000 
0.000000 -0.000000 0.000000 
0.000000 0.000000 0.000000 

-0.000000 -0.000000 0.000000 
0.000000 -0.000000 0.000000 
0.000000 0.000000 0.000000 

-0.000000 0.000000 0.000000 
0.000000 -0.000000 0.000000 
0.000000 0.000000 0.000000 

-0.000000 0.000000 0.000000 
0.000000 -0.000000 0.000000 
0.000000 0.000000 0.000000 

0.000000 0.000000 0.000000 
0.000000 0.000000 0.000000 
0.000000 0.000000 0.000000 

0.000000 0.000000 0.000000 
0.000000 0.000000 0.000000 
0.000000 0.000000 0.000000 

-0.000000 0.000000 0.000000 
0.000000 -0.000000 0.000000 
0.000000 0.000000 0.000000 

-0.000000 -0.000000 0.000000 
0.000000 -0.000000 0.000000 
0.000000 0.000000 0.000000 

-0.000000 -0.000000 0.000000 
0.000000 -0.000000 0.000000 
0.000000 0.000000 0.000000 

0.000000 -0.000000 0.000000 
0.000000 0.000000 0.000000 
0.000000 0.000000 0.000000 

0.000000 0.000000 0.000000 
0.000000 0.000000 0.000000 
0.000000 0.000000 0.000000 

-0.000000 -0.000000 0.000000 
0.000000 0.000000 0.000000 
0.000000 0.000000 0.000000 

-0.000000 0.000000 0.000000 
0.000000 -0.000000 0.000000 
0.000000 0.000000 0.000000 

-0.000000 0.000000 0.000000 
0.000000 -0.000000 0.000000 
0.000000 0.000000 0.000000 

0.000000 0.000000 0.000000 
0.000000 0.000000 0.000000 
0.000000 0.000000 0.000000 

0.000000 0.000000 0.000000 
0.000000 0.000000 0.000000 
0.000000 0.000000 0.000000 

0.000000 0.000000 0.000000 
0.000000 0.000000 0.000000 
0.000000 0.000000 0.000000 

-0.000000 -0.000000 0.000000 
0.000000 -0.000000 0.000000 
0.000000 0.000000 0.000000 

0.000000 -0.000000 0.000000 
0.000000 0.000000 0.000000 
0.000000 0.000000 0.000000 

0.000000 -0.000000 0.000000 
0.000000 0.000000 0.000000 
0.000000 0.000000 0.000000 

0.000000 -0.000000 0.000000 
0.000000 0.000000 0.000000 
0.000000 0.000000 0.000000 

0.000000 0.000000 0.000000 
0.000000 0.000000 0.000000 
0.000000 0.000000 0.000000 

0.000000 -0.000000 0.000000 
0.000000 0.000000 0.000000 
0.000000 0.000000 0.000000 

0.000000 -0.000000 0.000000 
0.000000 0.000000 0.000000 
0.000000 0.000000 0.000000 

-0.000000 -0.000000 0.000000 
0.000000 -0.000000 0.000000 
0.000000 0.000000 0.000000 

0.000000 0.000000 0.000000 
0.000000 0.000000 0.000000 
0.000000 0.000000 0.000000 

0.000000 0.000000 0.000000 
0.000000 0.000000 0.000000 
0.000000 0.000000 0.000000 

-0.000000 0.000000 0.000000 
0.000000 -0.000000 0.000000 
0.000000 0.000000 0.000000 

0.000000 0.000000 0.000000 
0.000000 0.000000 0.000000 
0.000000 0.000000 0.000000 

0.000000 -0.000000 0.000000 
0.000000 0.000000 0.000000 
0.000000 0.000000 0.000000 

0.000000 0.000000 0.000000 
0.000000 0.000000 0.000000 
0.000000 0.000000 0.000000 

0.000000 0.000000 0.000000 
0.000000 0.000000 0.000000 
0.000000 0.000000 0.000000 

0.000000 0.000000 0.000000 
0.000000 0.000000 0.000000 
0.000000 0.000000 0.000000 

0.000000 0.000000 0.000000 
0.000000 0.000000 0.000000 
0.000000 0.000000 0.000000 

-0.000000 -0.000000 0.000000 
0.000000 -0.000000 0.000000 
0.000000 0.000000 0.000000 

0.000000 -0.000000 0.000000 
0.000000 0.000000 0.000000 
0.000000 0.000000 0.000000 

-0.000000 0.000000 0.000000 
0.000000 -0.000000 0.000000 
0.000000 0.000000 0.000000 

-0.000000 0.000000 0.000000 
0.000000 -0.000000 0.000000 
0.000000 0.000000 0.000000 

0.000000 0.000000 0.000000 
0.000000 0.000000 0.000000 
0.000000 0.000000 0.000000 

0.000000 0.000000 0.000000 
0.000000 0.000000 0.000000 
0.000000 0.000000 0.000000 

-0.000000 0.000000 0.000000 
0.000000 -0.000000 0.000000 
0.000000 0.000000 0.000000 

-0.000000 0.000000 0.000000 
0.000000 -0.000000 0.000000 
0.000000 0.000000 0.000000 

0.000000 -0.000000 0.000000 
0.000000 0.000000 0.000000 
0.000000 0.000000 0.000000 

0.000000 -0.000000 0.000000 
0.000000 0.000000 0.000000 
0.000000 0.000000 0.000000 

0.000000 0.000000 0.000000 
0.000000 -0.000000 0.000000 
0.000000 0.000000 0.000000 

0.000000 0.000000 0.000000 
0.000000 0.000000 0.000000 
0.000000 0.000000 0.000000 

-0.000000 -0.000000 0.000000 
0.000000 -0.000000 0.000000 
0.000000 0.000000 0.000000 

0.000000 -0.000000 0.000000 
0.000000 0.000000 0.000000 
0.000000 0.000000 0.000000 

0.000000 -0.000000 0.000000 
0.000000 -0.000000 0.000000 
0.000000 0.000000 0.000000 

0.000000 -0.000000 0.000000 
0.000000 0.000000 0.000000 
0.000000 0.000000 0.000000 

-0.000000 -0.000000 0.000000 
0.000000 -0.000000 0.000000 
0.000000 0.000000 0.000000 

-0.000000 0.000000 0.000000 
0.000000 -0.000000 0.000000 
0.000000 0.000000 0.000000 

-0.000000 0.000000 0.000000 
0.000000 -0.000000 0.000000 
0.000000 0.000000 0.000000 

0.000000 0.000000 0.000000 
0.000000 0.000000 0.000000 
0.000000 0.000000 0.000000 

0.000000 -0.000000 0.000000 
0.000000 -0.000000 0.000000 
0.000000 0.000000 0.000000 

-0.000000 0.000000 0.000000 
0.000000 -0.000000 0.000000 
0.000000 0.000000 0.000000 

-0.000000 -0.000000 0.000000 
0.000000 -0.000000 0.000000 
0.000000 0.000000 0.000000 

0.000000 -0.000000 0.000000 
0.000000 0.000000 0.000000 
0.000000 0.000000 0.000000 

-0.000000 -0.000000 0.000000 
0.000000 -0.000000 0.000000 
0.000000 0.000000 0.000000 

0.000000 0.000000 0.000000 
0.000000 0.000000 0.000000 
0.000000 0.000000 0.000000 

0.000000 0.000000 0.000000 
0.000000 0.000000 0.000000 
0.000000 0.000000 0.000000 

-0.000000 -0.000000 0.000000 
0.000000 -0.000000 0.000000 
0.000000 0.000000 0.000000 

-0.000000 0.000000 0.000000 
0.000000 -0.000000 0.000000 
0.000000 0.000000 0.000000 

0.000000 -0.000000 0.000000 
0.000000 0.000000 0.000000 
0.000000 0.000000 0.000000 

0.000000 -0.000000 0.000000 
0.000000 0.000000 0.000000 
0.000000 0.000000 0.000000 

0.000000 -0.000000 0.000000 
0.000000 0.000000 0.000000 
0.000000 0.000000 0.000000 

-0.000000 -0.000000 0.000000 
0.000000 -0.000000 0.000000 
0.000000 0.000000 0.000000 

0.000000 -0.000000 0.000000 
0.000000 0.000000 0.000000 
0.000000 0.000000 0.000000 

TENSORS STRAIN float 
0.000000 -0.000000 0.000000 
0.000000 -0.000000 0.000000 
0.000000 0.000000 0.000000 

0.000000 -0.000000 0.000000 
0.000000 0.000000 0.000000 
0.000000 0.000000 0.000000 

0.000000 0.000000 0.000000 
0.000000 -0.000000 0.000000 
0.000000 0.000000 0.000000 

0.000000 0.000000 0.000000 
0.000000 -0.000000 0.000000 
0.000000 0.000000 0.000000 

0.000000 0.000000 0.000000 
0.000000 -0.000000 0.000000 
0.000000 0.000000 0.000000 

0.000000 -0.000000 0.000000 
0.000000 -0.000000 0.000000 
0.000000 0.000000 0.000000 

-0.000000 -0.000000 0.000000 
0.000000 0.000000 0.000000 
0.000000 0.000000 0.000000 

0.000000 -0.000000 0.000000 
0.000000 -0.000000 0.000000 
0.000000 0.000000 0.000000 

0.000000 -0.000000 0.000000 
0.000000 -0.000000 0.000000 
0.000000 0.000000 0.000000 

-0.000000 -0.000000 0.000000 
0.000000 0.000000 0.000000 
0.000000 0.000000 0.000000 

-0.000000 -0.000000 0.000000 
0.000000 0.000000 0.000000 
0.000000 0.000000 0.000000 

-0.000000 -0.000000 0.000000 
0.000000 0.000000 0.000000 
0.000000 0.000000 0.000000 

-0.000000 -0.000000 0.000000 
0.000000 0.000000 0.000000 
0.000000 0.000000 0.000000 

-0.000000 0.000000 0.000000 
0.000000 0.000000 0.000000 
0.000000 0.000000 0.000000 

0.000000 0.000000 0.000000 
0.000000 -0.000000 0.000000 
0.000000 0.000000 0.000000 

0.000000 0.000000 0.000000 
0.000000 -0.000000 0.000000 
0.000000 0.000000 0.000000 

-0.000000 -0.000000 0.000000 
0.000000 0.000000 0.000000 
0.000000 0.000000 0.000000 

-0.000000 -0.000000 0.000000 
0.000000 0.000000 0.000000 
0.000000 0.000000 0.000000 

-0.000000 -0.000000 0.000000 
0.000000 -0.000000 0.000000 
0.000000 0.000000 0.000000 

0.000000 -0.000000 0.000000 
0.000000 -0.000000 0.000000 
0.000000 0.000000 0.000000 

0.000000 -0.000000 0.000000 
0.000000 -0.000000 0.000000 
0.000000 0.000000 0.000000 

0.000000 -0.000000 0.000000 
0.000000 -0.000000 0.000000 
0.000000 0.000000 0.000000 

0.000000 -0.000000 0.000000 
0.000000 -0.000000 0.000000 
0.000000 0.000000 0.000000 

-0.000000 0.000000 0.000000 
0.000000 -0.000000 0.000000 
0.000000 0.000000 0.000000 

-0.000000 0.000000 0.000000 
0.000000 -0.000000 0.000000 
0.000000 0.000000 0.000000 

0.000000 -0.000000 0.000000 
0.000000 -0.000000 0.000000 
0.000000 0.000000 0.000000 

-0.000000 -0.000000 0.000000 
0.000000 -0.000000 0.000000 
0.000000 0.000000 0.000000 

-0.000000 -0.000000 0.000000 
0.000000 0.000000 0.000000 
0.000000 0.000000 0.000000 

-0.000000 -0.000000 0.000000 
0.000000 -0.000000 0.000000 
0.000000 0.000000 0.000000 

0.000000 0.000000 0.000000 
0.000000 -0.000000 0.000000 
0.000000 0.000000 0.000000 

-0.000000 0.000000 0.000000 
0.000000 0.000000 0.000000 
0.000000 0.000000 0.000000 

0.000000 0.000000 0.000000 
0.000000 0.000000 0.000000 
0.000000 0.000000 0.000000 

-0.000000 -0.000000 0.000000 
0.000000 0.000000 0.000000 
0.000000 0.000000 0.000000 

0.000000 -0.000000 0.000000 
0.000000 -0.000000 0.000000 
0.000000 0.000000 0.000000 

0.000000 -0.000000 0.000000 
0.000000 -0.000000 0.000000 
0.000000 0.000000 0.000000 

0.000000 -0.000000 0.000000 
0.000000 -0.000000 0.000000 
0.000000 0.000000 0.000000 

0.000000 0.000000 0.000000 
0.000000 -0.000000 0.000000 
0.000000 0.000000 0.000000 

0.000000 0.000000 0.000000 
0.000000 0.000000 0.000000 
0.000000 0.000000 0.000000 

-0.000000 0.000000 0.000000 
0.000000 0.000000 0.000000 
0.000000 0.000000 0.000000 

-0.000000 0.000000 0.000000 
0.000000 0.000000 0.000000 
0.000000 0.000000 0.000000 

-0.000000 0.000000 0.000000 
0.000000 0.000000 0.000000 
0.000000 0.000000 0.000000 

0.000000 -0.000000 0.000000 
0.000000 -0.000000 0.000000 
0.000000 0.000000 0.000000 

-0.000000 -0.000000 0.000000 
0.000000 0.000000 0.000000 
0.000000 0.000000 0.000000 

-0.000000 -0.000000 0.000000 
0.000000 0.000000 0.000000 
0.000000 0.000000 0.000000 

-0.000000 -0.000000 0.000000 
0.000000 0.000000 0.000000 
0.000000 0.000000 0.000000 

-0.000000 -0.000000 0.000000 
0.000000 0.000000 0.000000 
0.000000 0.000000 0.000000 

-0.000000 -0.000000 0.000000 
0.000000 0.000000 0.000000 
0.000000 0.000000 0.000000 

-0.000000 -0.000000 0.000000 
0.000000 0.000000 0.000000 
0.000000 0.000000 0.000000 

-0.000000 0.000000 0.000000 
0.000000 0.000000 0.000000 
0.000000 0.000000 0.000000 

-0.000000 -0.000000 0.000000 
0.000000 0.000000 0.000000 
0.000000 0.000000 0.000000 

0.000000 -0.000000 0.000000 
0.000000 0.000000 0.000000 
0.000000 0.000000 0.000000 

-0.000000 0.000000 0.000000 
0.000000 0.000000 0.000000 
0.000000 0.000000 0.000000 

0.000000 -0.000000 0.000000 
0.000000 0.000000 0.000000 
0.000000 0.000000 0.000000 

-0.000000 -0.000000 0.000000 
0.000000 -0.000000 0.000000 
0.000000 0.000000 0.000000 

-0.000000 -0.000000 0.000000 
0.000000 0.000000 0.000000 
0.000000 0.000000 0.000000 

-0.000000 -0.000000 0.000000 
0.000000 0.000000 0.000000 
0.000000 0.000000 0.000000 

-0.000000 0.000000 0.000000 
0.000000 -0.000000 0.000000 
0.000000 0.000000 0.000000 

-0.000000 -0.000000 0.000000 
0.000000 0.000000 0.000000 
0.000000 0.000000 0.000000 

-0.000000 -0.000000 0.000000 
0.000000 -0.000000 0.000000 
0.000000 0.000000 0.000000 

0.000000 -0.000000 0.000000 
0.000000 0.000000 0.000000 
0.000000 0.000000 0.000000 

-0.000000 -0.000000 0.000000 
0.000000 0.000000 0.000000 
0.000000 0.000000 0.000000 

0.000000 -0.000000 0.000000 
0.000000 0.000000 0.000000 
0.000000 0.000000 0.000000 

0.000000 -0.000000 0.000000 
0.000000 0.000000 0.000000 
0.000000 0.000000 0.000000 

0.000000 -0.000000 0.000000 
0.000000 -0.000000 0.000000 
0.000000 0.000000 0.000000 

-0.000000 -0.000000 0.000000 
0.000000 -0.000000 0.000000 
0.000000 0.000000 0.000000 

-0.000000 -0.000000 0.000000 
0.000000 -0.000000 0.000000 
0.000000 0.000000 0.000000 

0.000000 0.000000 0.000000 
0.000000 -0.000000 0.000000 
0.000000 0.000000 0.000000 

0.000000 -0.000000 0.000000 
0.000000 0.000000 0.000000 
0.000000 0.000000 0.000000 

0.000000 -0.000000 0.000000 
0.000000 -0.000000 0.000000 
0.000000 0.000000 0.000000 

0.000000 -0.000000 0.000000 
0.000000 -0.000000 0.000000 
0.000000 0.000000 0.000000 

0.000000 0.000000 0.000000 
0.000000 -0.000000 0.000000 
0.000000 0.000000 0.000000 

0.000000 -0.000000 0.000000 
0.000000 -0.000000 0.000000 
0.000000 0.000000 0.000000 

0.000000 -0.000000 0.000000 
0.000000 -0.000000 0.000000 
0.000000 0.000000 0.000000 

0.000000 -0.000000 0.000000 
0.000000 -0.000000 0.000000 
0.000000 0.000000 0.000000 

0.000000 -0.000000 0.000000 
0.000000 -0.000000 0.000000 
0.000000 0.000000 0.000000 

0.000000 -0.000000 0.000000 
0.000000 -0.000000 0.000000 
0.000000 0.000000 0.000000 

0.000000 -0.000000 0.000000 
0.000000 0.000000 0.000000 
0.000000 0.000000 0.000000 

0.000000 -0.000000 0.000000 
0.000000 -0.000000 0.000000 
0.000000 0.000000 0.000000 

0.000000 -0.000000 0.000000 
0.000000 0.000000 0.000000 
0.000000 0.000000 0.000000 

-0.000000 -0.000000 0.000000 
0.000000 0.000000 0.000000 
0.000000 0.000000 0.000000 

0.000000 0.000000 0.000000 
0.000000 -0.000000 0.000000 
0.000000 0.000000 0.000000 

0.000000 -0.000000 0.000000 
0.000000 0.000000 0.000000 
0.000000 0.000000 0.000000 

0.000000 -0.000000 0.000000 
0.000000 0.000000 0.000000 
0.000000 0.000000 0.000000 

-0.000000 -0.000000 0.000000 
0.000000 0.000000 0.000000 
0.000000 0.000000 0.000000 

-0.000000 -0.000000 0.000000 
0.000000 -0.000000 0.000000 
0.000000 0.000000 0.000000 

-0.000000 -0.000000 0.000000 
0.000000 0.000000 0.000000 
0.000000 0.000000 0.000000 

0.000000 -0.000000 0.000000 
0.000000 0.000000 0.000000 
0.000000 0.000000 0.000000 

0.000000 -0.000000 0.000000 
0.000000 -0.000000 0.000000 
0.000000 0.000000 0.000000 

0.000000 -0.000000 0.000000 
0.000000 -0.000000 0.000000 
0.000000 0.000000 0.000000 

0.000000 -0.000000 0.000000 
0.000000 -0.000000 0.000000 
0.000000 0.000000 0.000000 

0.000000 0.000000 0.000000 
0.000000 -0.000000 0.000000 
0.000000 0.000000 0.000000 

0.000000 -0.000000 0.000000 
0.000000 0.000000 0.000000 
0.000000 0.000000 0.000000 

0.000000 0.000000 0.000000 
0.000000 -0.000000 0.000000 
0.000000 0.000000 0.000000 

0.000000 0.000000 0.000000 
0.000000 -0.000000 0.000000 
0.000000 0.000000 0.000000 

-0.000000 0.000000 0.000000 
0.000000 -0.000000 0.000000 
0.000000 0.000000 0.000000 

-0.000000 0.000000 0.000000 
0.000000 0.000000 0.000000 
0.000000 0.000000 0.000000 

-0.000000 -0.000000 0.000000 
0.000000 0.000000 0.000000 
0.000000 0.000000 0.000000 

0.000000 -0.000000 0.000000 
0.000000 0.000000 0.000000 
0.000000 0.000000 0.000000 

0.000000 0.000000 0.000000 
0.000000 -0.000000 0.000000 
0.000000 0.000000 0.000000 

0.000000 -0.000000 0.000000 
0.000000 -0.000000 0.000000 
0.000000 0.000000 0.000000 

0.000000 -0.000000 0.000000 
0.000000 -0.000000 0.000000 
0.000000 0.000000 0.000000 

-0.000000 0.000000 0.000000 
0.000000 -0.000000 0.000000 
0.000000 0.000000 0.000000 

-0.000000 -0.000000 0.000000 
0.000000 -0.000000 0.000000 
0.000000 0.000000 0.000000 

-0.000000 -0.000000 0.000000 
0.000000 0.000000 0.000000 
0.000000 0.000000 0.000000 

0.000000 0.000000 0.000000 
0.000000 -0.000000 0.000000 
0.000000 0.000000 0.000000 

-0.000000 -0.000000 0.000000 
0.000000 0.000000 0.000000 
0.000000 0.000000 0.000000 

-0.000000 -0.000000 0.000000 
0.000000 -0.000000 0.000000 
0.000000 0.000000 0.000000 

-0.000000 -0.000000 0.000000 
0.000000 0.000000 0.000000 
0.000000 0.000000 0.000000 

-0.000000 -0.000000 0.000000 
0.000000 -0.000000 0.000000 
0.000000 0.000000 0.000000 

0.000000 0.000000 0.000000 
0.000000 -0.000000 0.000000 
0.000000 0.000000 0.000000 

0.000000 0.000000 0.000000 
0.000000 -0.000000 0.000000 
0.000000 0.000000 0.000000 

-0.000000 0.000000 0.000000 
0.000000 0.000000 0.000000 
0.000000 0.000000 0.000000 

-0.000000 0.000000 0.000000 
0.000000 0.000000 0.000000 
0.000000 0.000000 0.000000 

-0.000000 0.000000 0.000000 
0.000000 0.000000 0.000000 
0.000000 0.000000 0.000000 

-0.000000 -0.000000 0.000000 
0.000000 0.000000 0.000000 
0.000000 0.000000 0.000000 

-0.000000 -0.000000 0.000000 
0.000000 0.000000 0.000000 
0.000000 0.000000 0.000000 

0.000000 -0.000000 0.000000 
0.000000 -0.000000 0.000000 
0.000000 0.000000 0.000000 

0.000000 0.000000 0.000000 
0.000000 0.000000 0.000000 
0.000000 0.000000 0.000000 

-0.000000 -0.000000 0.000000 
0.000000 0.000000 0.000000 
0.000000 0.000000 0.000000 

-0.000000 0.000000 0.000000 
0.000000 -0.000000 0.000000 
0.000000 0.000000 0.000000 

-0.000000 0.000000 0.000000 
0.000000 -0.000000 0.000000 
0.000000 0.000000 0.000000 

0.000000 0.000000 0.000000 
0.000000 0.000000 0.000000 
0.000000 0.000000 0.000000 

0.000000 0.000000 0.000000 
0.000000 -0.000000 0.000000 
0.000000 0.000000 0.000000 

0.000000 0.000000 0.000000 
0.000000 0.000000 0.000000 
0.000000 0.000000 0.000000 

-0.000000 -0.000000 0.000000 
0.000000 -0.000000 0.000000 
0.000000 0.000000 0.000000 

0.000000 -0.000000 0.000000 
0.000000 0.000000 0.000000 
0.000000 0.000000 0.000000 

0.000000 -0.000000 0.000000 
0.000000 0.000000 0.000000 
0.000000 0.000000 0.000000 

0.000000 -0.000000 0.000000 
0.000000 0.000000 0.000000 
0.000000 0.000000 0.000000 

-0.000000 0.000000 0.000000 
0.000000 0.000000 0.000000 
0.000000 0.000000 0.000000 

-0.000000 -0.000000 0.000000 
0.000000 0.000000 0.000000 
0.000000 0.000000 0.000000 

0.000000 -0.000000 0.000000 
0.000000 0.000000 0.000000 
0.000000 0.000000 0.000000 

0.000000 -0.000000 0.000000 
0.000000 -0.000000 0.000000 
0.000000 0.000000 0.000000 

0.000000 0.000000 0.000000 
0.000000 0.000000 0.000000 
0.000000 0.000000 0.000000 

0.000000 0.000000 0.000000 
0.000000 -0.000000 0.000000 
0.000000 0.000000 0.000000 

0.000000 0.000000 0.000000 
0.000000 -0.000000 0.000000 
0.000000 0.000000 0.000000 

0.000000 0.000000 0.000000 
0.000000 -0.000000 0.000000 
0.000000 0.000000 0.000000 

0.000000 -0.000000 0.000000 
0.000000 -0.000000 0.000000 
0.000000 0.000000 0.000000 

0.000000 0.000000 0.000000 
0.000000 -0.000000 0.000000 
0.000000 0.000000 0.000000 

0.000000 0.000000 0.000000 
0.000000 -0.000000 0.000000 
0.000000 0.000000 0.000000 

0.000000 0.000000 0.000000 
0.000000 0.000000 0.000000 
0.000000 0.000000 0.000000 

0.000000 0.000000 0.000000 
0.000000 -0.000000 0.000000 
0.000000 0.000000 0.000000 

0.000000 -0.000000 0.000000 
0.000000 -0.000000 0.000000 
0.000000 0.000000 0.000000 

0.000000 -0.000000 0.000000 
0.000000 0.000000 0.000000 
0.000000 0.000000 0.000000 

-0.000000 0.000000 0.000000 
0.000000 0.000000 0.000000 
0.000000 0.000000 0.000000 

0.000000 0.000000 0.000000 
0.000000 -0.000000 0.000000 
0.000000 0.000000 0.000000 

0.000000 0.000000 0.000000 
0.000000 -0.000000 0.000000 
0.000000 0.000000 0.000000 

0.000000 0.000000 0.000000 
0.000000 0.000000 0.000000 
0.000000 0.000000 0.000000 

-0.000000 0.000000 0.000000 
0.000000 -0.000000 0.000000 
0.000000 0.000000 0.000000 

-0.000000 0.000000 0.000000 
0.000000 0.000000 0.000000 
0.000000 0.000000 0.000000 

-0.000000 -0.000000 0.000000 
0.000000 0.000000 0.000000 
0.000000 0.000000 0.000000 

0.000000 -0.000000 0.000000 
0.000000 -0.000000 0.000000 
0.000000 0.000000 0.000000 

0.000000 0.000000 0.000000 
0.000000 -0.000000 0.000000 
0.000000 0.000000 0.000000 

0.000000 0.000000 0.000000 
0.000000 -0.000000 0.000000 
0.000000 0.000000 0.000000 

-0.000000 -0.000000 0.000000 
0.000000 -0.000000 0.000000 
0.000000 0.000000 0.000000 

0.000000 -0.000000 0.000000 
0.000000 -0.000000 0.000000 
0.000000 0.000000 0.000000 

0.000000 -0.000000 0.000000 
0.000000 -0.000000 0.000000 
0.000000 0.000000 0.000000 

0.000000 -0.000000 0.000000 
0.000000 -0.000000 0.000000 
0.000000 0.000000 0.000000 

-0.000000 -0.000000 0.000000 
0.000000 -0.000000 0.000000 
0.000000 0.000000 0.000000 

-0.000000 0.000000 0.000000 
0.000000 -0.000000 0.000000 
0.000000 0.000000 0.000000 

0.000000 0.000000 0.000000 
0.000000 -0.000000 0.000000 
0.000000 0.000000 0.000000 

0.000000 0.000000 0.000000 
0.000000 -0.000000 0.000000 
0.000000 0.000000 0.000000 

0.000000 -0.000000 0.000000 
0.000000 -0.000000 0.000000 
0.000000 0.000000 0.000000 

0.000000 0.000000 0.000000 
0.000000 -0.000000 0.000000 
0.000000 0.000000 0.000000 

0.000000 -0.000000 0.000000 
0.000000 -0.000000 0.000000 
0.000000 0.000000 0.000000 

0.000000 -0.000000 0.000000 
0.000000 -0.000000 0.000000 
0.000000 0.000000 0.000000 

0.000000 -0.000000 0.000000 
0.000000 -0.000000 0.000000 
0.000000 0.000000 0.000000 

-0.000000 0.000000 0.000000 
0.000000 0.000000 0.000000 
0.000000 0.000000 0.000000 

-0.000000 0.000000 0.000000 
0.000000 0.000000 0.000000 
0.000000 0.000000 0.000000 

-0.000000 -0.000000 0.000000 
0.000000 0.000000 0.000000 
0.000000 0.000000 0.000000 

0.000000 0.000000 0.000000 
0.000000 -0.000000 0.000000 
0.000000 0.000000 0.000000 

0.000000 -0.000000 0.000000 
0.000000 0.000000 0.000000 
0.000000 0.000000 0.000000 

0.000000 -0.000000 0.000000 
0.000000 0.000000 0.000000 
0.000000 0.000000 0.000000 

-0.000000 -0.000000 0.000000 
0.000000 0.000000 0.000000 
0.000000 0.000000 0.000000 

-0.000000 -0.000000 0.000000 
0.000000 -0.000000 0.000000 
0.000000 0.000000 0.000000 

-0.000000 -0.000000 0.000000 
0.000000 0.000000 0.000000 
0.000000 0.000000 0.000000 

