# vtk DataFile Version 3.0 
vtk output 
ASCII 
DATASET UNSTRUCTURED_GRID 
POINTS 175 float 
-0.026061 -0.043815 0.000000 
-0.106992 0.024240 0.000000 
-0.054870 0.016007 0.000000 
-0.028809 0.061891 0.000000 
-0.186430 0.088316 0.000000 
-0.137056 0.085789 0.000000 
-0.114311 0.139437 0.000000 
-0.058186 0.123771 0.000000 
-0.029377 0.163948 0.000000 
-0.265318 0.151471 0.000000 
-0.217198 0.150672 0.000000 
-0.196633 0.207968 0.000000 
-0.143120 0.199260 0.000000 
-0.116563 0.246528 0.000000 
-0.058945 0.226882 0.000000 
-0.029568 0.265002 0.000000 
-0.344206 0.214627 0.000000 
-0.296791 0.214634 0.000000 
-0.278030 0.274577 0.000000 
-0.225992 0.268711 0.000000 
-0.201664 0.320828 0.000000 
-0.145749 0.307354 0.000000 
-0.117890 0.351697 0.000000 
-0.059328 0.328991 0.000000 
-0.029759 0.366057 0.000000 
-0.058559 -0.084566 0.000000 
-0.162226 -0.105409 0.000000 
-0.123292 -0.069791 0.000000 
-0.142917 -0.020808 0.000000 
-0.261851 -0.127565 0.000000 
-0.229092 -0.090538 0.000000 
-0.256854 -0.039307 0.000000 
-0.209613 -0.005194 0.000000 
-0.223062 0.042380 0.000000 
-0.360414 -0.149865 0.000000 
-0.329787 -0.112742 0.000000 
-0.361761 -0.060940 0.000000 
-0.321587 -0.024531 0.000000 
-0.341985 0.025703 0.000000 
-0.290702 0.058502 0.000000 
-0.302189 0.105237 0.000000 
-0.458977 -0.172165 0.000000 
-0.429420 -0.135091 0.000000 
-0.464588 -0.083049 0.000000 
-0.427556 -0.046021 0.000000 
-0.453135 0.005493 0.000000 
-0.407738 0.040809 0.000000 
-0.425037 0.090237 0.000000 
-0.370772 0.121866 0.000000 
-0.381315 0.168093 0.000000 
-0.046960 -0.135381 0.000000 
-0.095301 -0.229427 0.000000 
-0.098873 -0.176780 0.000000 
-0.149405 -0.161582 0.000000 
-0.140093 -0.321131 0.000000 
-0.148617 -0.272433 0.000000 
-0.205981 -0.262196 0.000000 
-0.203197 -0.203992 0.000000 
-0.248777 -0.184846 0.000000 
-0.184111 -0.412095 0.000000 
-0.194039 -0.365004 0.000000 
-0.254475 -0.357704 0.000000 
-0.257893 -0.303594 0.000000 
-0.309886 -0.288222 0.000000 
-0.303554 -0.227677 0.000000 
-0.347255 -0.207519 0.000000 
-0.228129 -0.503058 0.000000 
-0.238687 -0.456834 0.000000 
-0.301302 -0.451882 0.000000 
-0.307162 -0.399843 0.000000 
-0.363386 -0.387722 0.000000 
-0.362692 -0.330211 0.000000 
-0.412122 -0.312918 0.000000 
-0.403017 -0.250771 0.000000 
-0.445733 -0.230192 0.000000 
-0.000000 -0.157996 0.000000 
0.043388 -0.254427 0.000000 
-0.000000 -0.224395 0.000000 
-0.043388 -0.254427 0.000000 
0.087158 -0.346624 0.000000 
0.043769 -0.322925 0.000000 
-0.000000 -0.361391 0.000000 
-0.043769 -0.322925 0.000000 
-0.087158 -0.346624 0.000000 
0.130831 -0.437753 0.000000 
0.087824 -0.416154 0.000000 
0.044436 -0.458854 0.000000 
-0.000000 -0.427789 0.000000 
-0.044436 -0.458854 0.000000 
-0.087824 -0.416154 0.000000 
-0.130831 -0.437753 0.000000 
0.174505 -0.528883 0.000000 
0.131782 -0.508317 0.000000 
0.088871 -0.554183 0.000000 
0.044532 -0.526319 0.000000 
-0.000000 -0.562720 0.000000 
-0.044532 -0.526319 0.000000 
-0.088871 -0.554183 0.000000 
-0.131782 -0.508317 0.000000 
-0.174505 -0.528883 0.000000 
0.046960 -0.135381 0.000000 
0.149405 -0.161582 0.000000 
0.098873 -0.176780 0.000000 
0.095301 -0.229427 0.000000 
0.248777 -0.184846 0.000000 
0.203197 -0.203992 0.000000 
0.205981 -0.262196 0.000000 
0.148617 -0.272433 0.000000 
0.140093 -0.321131 0.000000 
0.347255 -0.207519 0.000000 
0.303554 -0.227677 0.000000 
0.309886 -0.288222 0.000000 
0.257893 -0.303594 0.000000 
0.254475 -0.357704 0.000000 
0.194039 -0.365004 0.000000 
0.184111 -0.412095 0.000000 
0.445733 -0.230192 0.000000 
0.403017 -0.250771 0.000000 
0.412122 -0.312918 0.000000 
0.362692 -0.330211 0.000000 
0.363386 -0.387722 0.000000 
0.307162 -0.399843 0.000000 
0.301302 -0.451882 0.000000 
0.238687 -0.456834 0.000000 
0.228129 -0.503058 0.000000 
0.058559 -0.084566 0.000000 
0.142917 -0.020808 0.000000 
0.123292 -0.069791 0.000000 
0.162226 -0.105409 0.000000 
0.223062 0.042380 0.000000 
0.209613 -0.005194 0.000000 
0.256854 -0.039307 0.000000 
0.229092 -0.090538 0.000000 
0.261851 -0.127565 0.000000 
0.302189 0.105237 0.000000 
0.290702 0.058502 0.000000 
0.341985 0.025703 0.000000 
0.321587 -0.024531 0.000000 
0.361761 -0.060940 0.000000 
0.329787 -0.112742 0.000000 
0.360414 -0.149865 0.000000 
0.381315 0.168093 0.000000 
0.370772 0.121866 0.000000 
0.425037 0.090237 0.000000 
0.407738 0.040809 0.000000 
0.453135 0.005493 0.000000 
0.427556 -0.046021 0.000000 
0.464588 -0.083049 0.000000 
0.429420 -0.135091 0.000000 
0.458977 -0.172165 0.000000 
0.026061 -0.043815 0.000000 
0.028809 0.061891 0.000000 
0.054870 0.016007 0.000000 
0.106992 0.024240 0.000000 
0.029377 0.163948 0.000000 
0.058186 0.123771 0.000000 
0.114311 0.139437 0.000000 
0.137056 0.085789 0.000000 
0.186430 0.088316 0.000000 
0.029568 0.265002 0.000000 
0.058945 0.226882 0.000000 
0.116563 0.246528 0.000000 
0.143120 0.199260 0.000000 
0.196633 0.207968 0.000000 
0.217198 0.150672 0.000000 
0.265318 0.151471 0.000000 
0.029759 0.366057 0.000000 
0.059328 0.328991 0.000000 
0.117890 0.351697 0.000000 
0.145749 0.307354 0.000000 
0.201664 0.320828 0.000000 
0.225992 0.268711 0.000000 
0.278030 0.274577 0.000000 
0.296791 0.214634 0.000000 
0.344206 0.214627 0.000000 
CELLS 175 350 
1 0 
1 1 
1 2 
1 3 
1 4 
1 5 
1 6 
1 7 
1 8 
1 9 
1 10 
1 11 
1 12 
1 13 
1 14 
1 15 
1 16 
1 17 
1 18 
1 19 
1 20 
1 21 
1 22 
1 23 
1 24 
1 25 
1 26 
1 27 
1 28 
1 29 
1 30 
1 31 
1 32 
1 33 
1 34 
1 35 
1 36 
1 37 
1 38 
1 39 
1 40 
1 41 
1 42 
1 43 
1 44 
1 45 
1 46 
1 47 
1 48 
1 49 
1 50 
1 51 
1 52 
1 53 
1 54 
1 55 
1 56 
1 57 
1 58 
1 59 
1 60 
1 61 
1 62 
1 63 
1 64 
1 65 
1 66 
1 67 
1 68 
1 69 
1 70 
1 71 
1 72 
1 73 
1 74 
1 75 
1 76 
1 77 
1 78 
1 79 
1 80 
1 81 
1 82 
1 83 
1 84 
1 85 
1 86 
1 87 
1 88 
1 89 
1 90 
1 91 
1 92 
1 93 
1 94 
1 95 
1 96 
1 97 
1 98 
1 99 
1 100 
1 101 
1 102 
1 103 
1 104 
1 105 
1 106 
1 107 
1 108 
1 109 
1 110 
1 111 
1 112 
1 113 
1 114 
1 115 
1 116 
1 117 
1 118 
1 119 
1 120 
1 121 
1 122 
1 123 
1 124 
1 125 
1 126 
1 127 
1 128 
1 129 
1 130 
1 131 
1 132 
1 133 
1 134 
1 135 
1 136 
1 137 
1 138 
1 139 
1 140 
1 141 
1 142 
1 143 
1 144 
1 145 
1 146 
1 147 
1 148 
1 149 
1 150 
1 151 
1 152 
1 153 
1 154 
1 155 
1 156 
1 157 
1 158 
1 159 
1 160 
1 161 
1 162 
1 163 
1 164 
1 165 
1 166 
1 167 
1 168 
1 169 
1 170 
1 171 
1 172 
1 173 
1 174 
CELL_TYPES 175 
1 
1 
1 
1 
1 
1 
1 
1 
1 
1 
1 
1 
1 
1 
1 
1 
1 
1 
1 
1 
1 
1 
1 
1 
1 
1 
1 
1 
1 
1 
1 
1 
1 
1 
1 
1 
1 
1 
1 
1 
1 
1 
1 
1 
1 
1 
1 
1 
1 
1 
1 
1 
1 
1 
1 
1 
1 
1 
1 
1 
1 
1 
1 
1 
1 
1 
1 
1 
1 
1 
1 
1 
1 
1 
1 
1 
1 
1 
1 
1 
1 
1 
1 
1 
1 
1 
1 
1 
1 
1 
1 
1 
1 
1 
1 
1 
1 
1 
1 
1 
1 
1 
1 
1 
1 
1 
1 
1 
1 
1 
1 
1 
1 
1 
1 
1 
1 
1 
1 
1 
1 
1 
1 
1 
1 
1 
1 
1 
1 
1 
1 
1 
1 
1 
1 
1 
1 
1 
1 
1 
1 
1 
1 
1 
1 
1 
1 
1 
1 
1 
1 
1 
1 
1 
1 
1 
1 
1 
1 
1 
1 
1 
1 
1 
1 
1 
1 
1 
1 
1 
1 
1 
1 
1 
1 
POINT_DATA 175 
VECTORS X_GC float 
-0.026061 -0.043815 0.000000 
-0.106992 0.024240 0.000000 
-0.054870 0.016007 0.000000 
-0.028809 0.061891 0.000000 
-0.186430 0.088316 0.000000 
-0.137056 0.085789 0.000000 
-0.114311 0.139437 0.000000 
-0.058186 0.123771 0.000000 
-0.029377 0.163948 0.000000 
-0.265318 0.151471 0.000000 
-0.217198 0.150672 0.000000 
-0.196633 0.207968 0.000000 
-0.143120 0.199260 0.000000 
-0.116563 0.246528 0.000000 
-0.058945 0.226882 0.000000 
-0.029568 0.265002 0.000000 
-0.344206 0.214627 0.000000 
-0.296791 0.214634 0.000000 
-0.278030 0.274577 0.000000 
-0.225992 0.268711 0.000000 
-0.201664 0.320828 0.000000 
-0.145749 0.307354 0.000000 
-0.117890 0.351697 0.000000 
-0.059328 0.328991 0.000000 
-0.029759 0.366057 0.000000 
-0.058559 -0.084566 0.000000 
-0.162226 -0.105409 0.000000 
-0.123292 -0.069791 0.000000 
-0.142917 -0.020808 0.000000 
-0.261851 -0.127565 0.000000 
-0.229092 -0.090538 0.000000 
-0.256854 -0.039307 0.000000 
-0.209613 -0.005194 0.000000 
-0.223062 0.042380 0.000000 
-0.360414 -0.149865 0.000000 
-0.329787 -0.112742 0.000000 
-0.361761 -0.060940 0.000000 
-0.321587 -0.024531 0.000000 
-0.341985 0.025703 0.000000 
-0.290702 0.058502 0.000000 
-0.302189 0.105237 0.000000 
-0.458977 -0.172165 0.000000 
-0.429420 -0.135091 0.000000 
-0.464588 -0.083049 0.000000 
-0.427556 -0.046021 0.000000 
-0.453135 0.005493 0.000000 
-0.407738 0.040809 0.000000 
-0.425037 0.090237 0.000000 
-0.370772 0.121866 0.000000 
-0.381315 0.168093 0.000000 
-0.046960 -0.135381 0.000000 
-0.095301 -0.229427 0.000000 
-0.098873 -0.176780 0.000000 
-0.149405 -0.161582 0.000000 
-0.140093 -0.321131 0.000000 
-0.148617 -0.272433 0.000000 
-0.205981 -0.262196 0.000000 
-0.203197 -0.203992 0.000000 
-0.248777 -0.184846 0.000000 
-0.184111 -0.412095 0.000000 
-0.194039 -0.365004 0.000000 
-0.254475 -0.357704 0.000000 
-0.257893 -0.303594 0.000000 
-0.309886 -0.288222 0.000000 
-0.303554 -0.227677 0.000000 
-0.347255 -0.207519 0.000000 
-0.228129 -0.503058 0.000000 
-0.238687 -0.456834 0.000000 
-0.301302 -0.451882 0.000000 
-0.307162 -0.399843 0.000000 
-0.363386 -0.387722 0.000000 
-0.362692 -0.330211 0.000000 
-0.412122 -0.312918 0.000000 
-0.403017 -0.250771 0.000000 
-0.445733 -0.230192 0.000000 
-0.000000 -0.157996 0.000000 
0.043388 -0.254427 0.000000 
-0.000000 -0.224395 0.000000 
-0.043388 -0.254427 0.000000 
0.087158 -0.346624 0.000000 
0.043769 -0.322925 0.000000 
-0.000000 -0.361391 0.000000 
-0.043769 -0.322925 0.000000 
-0.087158 -0.346624 0.000000 
0.130831 -0.437753 0.000000 
0.087824 -0.416154 0.000000 
0.044436 -0.458854 0.000000 
-0.000000 -0.427789 0.000000 
-0.044436 -0.458854 0.000000 
-0.087824 -0.416154 0.000000 
-0.130831 -0.437753 0.000000 
0.174505 -0.528883 0.000000 
0.131782 -0.508317 0.000000 
0.088871 -0.554183 0.000000 
0.044532 -0.526319 0.000000 
-0.000000 -0.562720 0.000000 
-0.044532 -0.526319 0.000000 
-0.088871 -0.554183 0.000000 
-0.131782 -0.508317 0.000000 
-0.174505 -0.528883 0.000000 
0.046960 -0.135381 0.000000 
0.149405 -0.161582 0.000000 
0.098873 -0.176780 0.000000 
0.095301 -0.229427 0.000000 
0.248777 -0.184846 0.000000 
0.203197 -0.203992 0.000000 
0.205981 -0.262196 0.000000 
0.148617 -0.272433 0.000000 
0.140093 -0.321131 0.000000 
0.347255 -0.207519 0.000000 
0.303554 -0.227677 0.000000 
0.309886 -0.288222 0.000000 
0.257893 -0.303594 0.000000 
0.254475 -0.357704 0.000000 
0.194039 -0.365004 0.000000 
0.184111 -0.412095 0.000000 
0.445733 -0.230192 0.000000 
0.403017 -0.250771 0.000000 
0.412122 -0.312918 0.000000 
0.362692 -0.330211 0.000000 
0.363386 -0.387722 0.000000 
0.307162 -0.399843 0.000000 
0.301302 -0.451882 0.000000 
0.238687 -0.456834 0.000000 
0.228129 -0.503058 0.000000 
0.058559 -0.084566 0.000000 
0.142917 -0.020808 0.000000 
0.123292 -0.069791 0.000000 
0.162226 -0.105409 0.000000 
0.223062 0.042380 0.000000 
0.209613 -0.005194 0.000000 
0.256854 -0.039307 0.000000 
0.229092 -0.090538 0.000000 
0.261851 -0.127565 0.000000 
0.302189 0.105237 0.000000 
0.290702 0.058502 0.000000 
0.341985 0.025703 0.000000 
0.321587 -0.024531 0.000000 
0.361761 -0.060940 0.000000 
0.329787 -0.112742 0.000000 
0.360414 -0.149865 0.000000 
0.381315 0.168093 0.000000 
0.370772 0.121866 0.000000 
0.425037 0.090237 0.000000 
0.407738 0.040809 0.000000 
0.453135 0.005493 0.000000 
0.427556 -0.046021 0.000000 
0.464588 -0.083049 0.000000 
0.429420 -0.135091 0.000000 
0.458977 -0.172165 0.000000 
0.026061 -0.043815 0.000000 
0.028809 0.061891 0.000000 
0.054870 0.016007 0.000000 
0.106992 0.024240 0.000000 
0.029377 0.163948 0.000000 
0.058186 0.123771 0.000000 
0.114311 0.139437 0.000000 
0.137056 0.085789 0.000000 
0.186430 0.088316 0.000000 
0.029568 0.265002 0.000000 
0.058945 0.226882 0.000000 
0.116563 0.246528 0.000000 
0.143120 0.199260 0.000000 
0.196633 0.207968 0.000000 
0.217198 0.150672 0.000000 
0.265318 0.151471 0.000000 
0.029759 0.366057 0.000000 
0.059328 0.328991 0.000000 
0.117890 0.351697 0.000000 
0.145749 0.307354 0.000000 
0.201664 0.320828 0.000000 
0.225992 0.268711 0.000000 
0.278030 0.274577 0.000000 
0.296791 0.214634 0.000000 
0.344206 0.214627 0.000000 
VECTORS X_EC float 
0.338794 -0.908493 0.000000 
-0.609100 0.172759 0.000000 
0.713312 0.283899 0.000000 
0.374519 -0.335530 0.000000 
0.423588 -0.692261 0.000000 
-0.218274 -0.658157 0.000000 
-0.513962 0.617604 0.000000 
0.756418 0.829090 0.000000 
0.381900 0.286698 0.000000 
-0.550868 0.455136 0.000000 
0.823577 0.465932 0.000000 
0.556234 -0.307572 0.000000 
-0.139443 -0.190004 0.000000 
-0.484677 -0.828128 0.000000 
0.766286 -0.562913 0.000000 
0.384386 0.922467 0.000000 
0.474677 -0.397467 0.000000 
-0.141715 -0.397563 0.000000 
-0.385608 0.793208 0.000000 
0.937896 0.872404 0.000000 
0.621631 0.168824 0.000000 
-0.105264 0.350723 0.000000 
-0.467428 -0.247903 0.000000 
0.771260 0.058625 0.000000 
0.386873 -0.441764 0.000000 
0.761262 -0.358359 0.000000 
0.108942 -0.076982 0.000000 
-0.397202 -0.557821 0.000000 
-0.142083 0.780904 0.000000 
-0.595936 0.222129 0.000000 
0.978194 -0.277737 0.000000 
-0.660903 -0.969362 0.000000 
0.724964 0.570118 0.000000 
0.899809 -0.072131 0.000000 
0.685384 0.523181 0.000000 
0.287229 0.022022 0.000000 
0.702895 -0.677306 0.000000 
0.180633 0.831175 0.000000 
0.445811 0.153016 0.000000 
-0.220880 -0.289770 0.000000 
-0.071546 -0.920696 0.000000 
-0.033296 0.824233 0.000000 
-0.417537 0.323724 0.000000 
0.039645 -0.378839 0.000000 
-0.441768 -0.878710 0.000000 
-0.109248 0.425839 0.000000 
-0.699407 -0.050916 0.000000 
-0.474522 -0.718196 0.000000 
0.820030 0.854811 0.000000 
0.957100 0.230739 0.000000 
0.610485 0.327648 0.000000 
-0.761092 -0.402733 0.000000 
-0.714655 0.886530 0.000000 
-0.057734 0.681363 0.000000 
-0.178789 0.835271 0.000000 
-0.067979 0.177845 0.000000 
0.677748 0.039642 0.000000 
0.641556 -0.746103 0.000000 
-0.765897 0.995418 0.000000 
0.393446 0.063280 0.000000 
0.522510 -0.572449 0.000000 
-0.691820 -0.670994 0.000000 
-0.647393 0.598524 0.000000 
0.028512 0.390997 0.000000 
-0.053800 -0.426363 0.000000 
0.514316 -0.698494 0.000000 
0.965681 -0.708710 0.000000 
-0.897068 0.667261 0.000000 
-0.083078 0.600408 0.000000 
-0.006893 -0.102117 0.000000 
0.724017 -0.265750 0.000000 
0.714996 0.957847 0.000000 
-0.642413 0.724389 0.000000 
-0.760780 -0.114591 0.000000 
-0.205471 -0.392406 0.000000 
0.000000 0.632949 0.000000 
-0.564049 -0.065238 0.000000 
0.000000 -0.470674 0.000000 
0.564049 -0.065238 0.000000 
0.866949 -0.820582 0.000000 
-0.569003 0.859486 0.000000 
0.000000 -0.621225 0.000000 
0.569003 0.859486 0.000000 
-0.866949 -0.820582 0.000000 
0.299194 0.409668 0.000000 
0.858290 0.118084 0.000000 
-0.577662 0.694530 0.000000 
0.000000 0.275151 0.000000 
0.577662 0.694530 0.000000 
-0.858290 0.118084 0.000000 
-0.299194 0.409668 0.000000 
-0.268560 -0.360082 0.000000 
0.286830 -0.637724 0.000000 
0.844677 -0.018526 0.000000 
-0.578910 -0.394688 0.000000 
0.000000 0.096715 0.000000 
0.578910 -0.394688 0.000000 
-0.844677 -0.018526 0.000000 
-0.286830 -0.637724 0.000000 
0.268560 -0.360082 0.000000 
-0.610485 0.327648 0.000000 
0.057734 0.681363 0.000000 
0.714655 0.886530 0.000000 
0.761092 -0.402733 0.000000 
0.765897 0.995418 0.000000 
-0.641556 -0.746103 0.000000 
-0.677748 0.039642 0.000000 
0.067979 0.177845 0.000000 
0.178789 0.835271 0.000000 
-0.514316 -0.698494 0.000000 
0.053800 -0.426363 0.000000 
-0.028512 0.390997 0.000000 
0.647393 0.598524 0.000000 
0.691820 -0.670994 0.000000 
-0.522510 -0.572449 0.000000 
-0.393446 0.063280 0.000000 
0.205471 -0.392406 0.000000 
0.760780 -0.114591 0.000000 
0.642413 0.724389 0.000000 
-0.714996 0.957847 0.000000 
-0.724017 -0.265750 0.000000 
0.006894 -0.102117 0.000000 
0.083078 0.600408 0.000000 
0.897068 0.667261 0.000000 
-0.965681 -0.708710 0.000000 
-0.761262 -0.358359 0.000000 
0.142083 0.780904 0.000000 
0.397202 -0.557821 0.000000 
-0.108942 -0.076982 0.000000 
-0.899809 -0.072131 0.000000 
-0.724964 0.570118 0.000000 
0.660903 -0.969362 0.000000 
-0.978194 -0.277737 0.000000 
0.595936 0.222129 0.000000 
0.071546 -0.920696 0.000000 
0.220880 -0.289770 0.000000 
-0.445811 0.153016 0.000000 
-0.180633 0.831175 0.000000 
-0.702895 -0.677306 0.000000 
-0.287229 0.022022 0.000000 
-0.685384 0.523181 0.000000 
-0.957100 0.230739 0.000000 
-0.820030 0.854811 0.000000 
0.474522 -0.718196 0.000000 
0.699407 -0.050916 0.000000 
0.109248 0.425839 0.000000 
0.441768 -0.878710 0.000000 
-0.039645 -0.378839 0.000000 
0.417537 0.323724 0.000000 
0.033296 0.824233 0.000000 
-0.338794 -0.908493 0.000000 
-0.374519 -0.335530 0.000000 
-0.713312 0.283899 0.000000 
0.609100 0.172759 0.000000 
-0.381900 0.286698 0.000000 
-0.756418 0.829090 0.000000 
0.513962 0.617604 0.000000 
0.218274 -0.658157 0.000000 
-0.423588 -0.692261 0.000000 
-0.384386 0.922467 0.000000 
-0.766286 -0.562913 0.000000 
0.484677 -0.828128 0.000000 
0.139443 -0.190004 0.000000 
-0.556234 -0.307572 0.000000 
-0.823577 0.465932 0.000000 
0.550868 0.455136 0.000000 
-0.386873 -0.441764 0.000000 
-0.771260 0.058625 0.000000 
0.467428 -0.247903 0.000000 
0.105264 0.350723 0.000000 
-0.621631 0.168824 0.000000 
-0.937896 0.872404 0.000000 
0.385608 0.793208 0.000000 
0.141715 -0.397563 0.000000 
-0.474677 -0.397467 0.000000 
CELL_DATA 175 
SCALARS MASS float 
LOOKUP_TABLE default 
0.781831 
0.864274 
0.946717 
0.864274 
0.881307 
0.921110 
0.858535 
0.921110 
0.881307 
0.887046 
0.910001 
0.869829 
0.915556 
0.869829 
0.910001 
0.887046 
0.892784 
0.915740 
0.892784 
0.927218 
0.892784 
0.927218 
0.892784 
0.915740 
0.892784 
0.781831 
0.864274 
0.946717 
0.864274 
0.881307 
0.921110 
0.858535 
0.921110 
0.881307 
0.887046 
0.910001 
0.869829 
0.915556 
0.869829 
0.910001 
0.887046 
0.892784 
0.915740 
0.892784 
0.927218 
0.892784 
0.927218 
0.892784 
0.915740 
0.892784 
0.781831 
0.864274 
0.946717 
0.864274 
0.881307 
0.921110 
0.858535 
0.921110 
0.881307 
0.887046 
0.910001 
0.869829 
0.915556 
0.869829 
0.910001 
0.887046 
0.892784 
0.915740 
0.892784 
0.927218 
0.892784 
0.927218 
0.892784 
0.915740 
0.892784 
0.781831 
0.864274 
0.946717 
0.864274 
0.881307 
0.921110 
0.858535 
0.921110 
0.881307 
0.887046 
0.910001 
0.869829 
0.915556 
0.869829 
0.910001 
0.887046 
0.892784 
0.915740 
0.892784 
0.927218 
0.892784 
0.927218 
0.892784 
0.915740 
0.892784 
0.781831 
0.864274 
0.946717 
0.864274 
0.881307 
0.921110 
0.858535 
0.921110 
0.881307 
0.887046 
0.910001 
0.869829 
0.915556 
0.869829 
0.910001 
0.887046 
0.892784 
0.915740 
0.892784 
0.927218 
0.892784 
0.927218 
0.892784 
0.915740 
0.892784 
0.781831 
0.864274 
0.946717 
0.864274 
0.881307 
0.921110 
0.858535 
0.921110 
0.881307 
0.887046 
0.910001 
0.869829 
0.915556 
0.869829 
0.910001 
0.887046 
0.892784 
0.915740 
0.892784 
0.927218 
0.892784 
0.927218 
0.892784 
0.915740 
0.892784 
0.781831 
0.864274 
0.946717 
0.864274 
0.881307 
0.921110 
0.858535 
0.921110 
0.881307 
0.887046 
0.910001 
0.869829 
0.915556 
0.869829 
0.910001 
0.887046 
0.892784 
0.915740 
0.892784 
0.927218 
0.892784 
0.927218 
0.892784 
0.915740 
0.892784 
SCALARS MASS float 
LOOKUP_TABLE default 
0.781831 
0.864274 
0.946717 
0.864274 
0.881307 
0.921110 
0.858535 
0.921110 
0.881307 
0.887046 
0.910001 
0.869829 
0.915556 
0.869829 
0.910001 
0.887046 
0.892784 
0.915740 
0.892784 
0.927218 
0.892784 
0.927218 
0.892784 
0.915740 
0.892784 
0.781831 
0.864274 
0.946717 
0.864274 
0.881307 
0.921110 
0.858535 
0.921110 
0.881307 
0.887046 
0.910001 
0.869829 
0.915556 
0.869829 
0.910001 
0.887046 
0.892784 
0.915740 
0.892784 
0.927218 
0.892784 
0.927218 
0.892784 
0.915740 
0.892784 
0.781831 
0.864274 
0.946717 
0.864274 
0.881307 
0.921110 
0.858535 
0.921110 
0.881307 
0.887046 
0.910001 
0.869829 
0.915556 
0.869829 
0.910001 
0.887046 
0.892784 
0.915740 
0.892784 
0.927218 
0.892784 
0.927218 
0.892784 
0.915740 
0.892784 
0.781831 
0.864274 
0.946717 
0.864274 
0.881307 
0.921110 
0.858535 
0.921110 
0.881307 
0.887046 
0.910001 
0.869829 
0.915556 
0.869829 
0.910001 
0.887046 
0.892784 
0.915740 
0.892784 
0.927218 
0.892784 
0.927218 
0.892784 
0.915740 
0.892784 
0.781831 
0.864274 
0.946717 
0.864274 
0.881307 
0.921110 
0.858535 
0.921110 
0.881307 
0.887046 
0.910001 
0.869829 
0.915556 
0.869829 
0.910001 
0.887046 
0.892784 
0.915740 
0.892784 
0.927218 
0.892784 
0.927218 
0.892784 
0.915740 
0.892784 
0.781831 
0.864274 
0.946717 
0.864274 
0.881307 
0.921110 
0.858535 
0.921110 
0.881307 
0.887046 
0.910001 
0.869829 
0.915556 
0.869829 
0.910001 
0.887046 
0.892784 
0.915740 
0.892784 
0.927218 
0.892784 
0.927218 
0.892784 
0.915740 
0.892784 
0.781831 
0.864274 
0.946717 
0.864274 
0.881307 
0.921110 
0.858535 
0.921110 
0.881307 
0.887046 
0.910001 
0.869829 
0.915556 
0.869829 
0.910001 
0.887046 
0.892784 
0.915740 
0.892784 
0.927218 
0.892784 
0.927218 
0.892784 
0.915740 
0.892784 
SCALARS DENSITY float 
LOOKUP_TABLE default 
200.000000 
200.000000 
200.000000 
200.000000 
200.000000 
200.000000 
200.000000 
200.000000 
200.000000 
200.000000 
200.000000 
200.000000 
200.000000 
200.000000 
200.000000 
200.000000 
200.000000 
200.000000 
200.000000 
200.000000 
200.000000 
200.000000 
200.000000 
200.000000 
200.000000 
200.000000 
200.000000 
200.000000 
200.000000 
200.000000 
200.000000 
200.000000 
200.000000 
200.000000 
200.000000 
200.000000 
200.000000 
200.000000 
200.000000 
200.000000 
200.000000 
200.000000 
200.000000 
200.000000 
200.000000 
200.000000 
200.000000 
200.000000 
200.000000 
200.000000 
200.000000 
200.000000 
200.000000 
200.000000 
200.000000 
200.000000 
200.000000 
200.000000 
200.000000 
200.000000 
200.000000 
200.000000 
200.000000 
200.000000 
200.000000 
200.000000 
200.000000 
200.000000 
200.000000 
200.000000 
200.000000 
200.000000 
200.000000 
200.000000 
200.000000 
200.000000 
200.000000 
200.000000 
200.000000 
200.000000 
200.000000 
200.000000 
200.000000 
200.000000 
200.000000 
200.000000 
200.000000 
200.000000 
200.000000 
200.000000 
200.000000 
200.000000 
200.000000 
200.000000 
200.000000 
200.000000 
200.000000 
200.000000 
200.000000 
200.000000 
200.000000 
200.000000 
200.000000 
200.000000 
200.000000 
200.000000 
200.000000 
200.000000 
200.000000 
200.000000 
200.000000 
200.000000 
200.000000 
200.000000 
200.000000 
200.000000 
200.000000 
200.000000 
200.000000 
200.000000 
200.000000 
200.000000 
200.000000 
200.000000 
200.000000 
200.000000 
200.000000 
200.000000 
200.000000 
200.000000 
200.000000 
200.000000 
200.000000 
200.000000 
200.000000 
200.000000 
200.000000 
200.000000 
200.000000 
200.000000 
200.000000 
200.000000 
200.000000 
200.000000 
200.000000 
200.000000 
200.000000 
200.000000 
200.000000 
200.000000 
200.000000 
200.000000 
200.000000 
200.000000 
200.000000 
200.000000 
200.000000 
200.000000 
200.000000 
200.000000 
200.000000 
200.000000 
200.000000 
200.000000 
200.000000 
200.000000 
200.000000 
200.000000 
200.000000 
200.000000 
200.000000 
200.000000 
200.000000 
200.000000 
200.000000 
SCALARS ELEM_i float 
LOOKUP_TABLE default 
181 
209 
182 
182 
209 
209 
210 
183 
183 
237 
210 
210 
210 
210 
183 
184 
237 
237 
238 
211 
211 
211 
211 
184 
184 
181 
208 
208 
209 
235 
208 
235 
209 
209 
235 
235 
235 
236 
236 
236 
236 
262 
262 
262 
262 
263 
263 
263 
237 
237 
181 
207 
208 
208 
207 
207 
207 
207 
235 
206 
206 
233 
234 
234 
234 
234 
205 
233 
233 
233 
233 
234 
261 
261 
261 
181 
180 
180 
180 
152 
180 
179 
180 
206 
152 
152 
179 
179 
179 
206 
206 
151 
151 
151 
178 
178 
178 
205 
205 
205 
181 
154 
154 
153 
127 
153 
153 
153 
153 
126 
126 
126 
126 
125 
152 
152 
99 
99 
99 
126 
125 
125 
125 
125 
151 
181 
155 
154 
154 
155 
155 
127 
154 
127 
128 
128 
128 
128 
127 
127 
127 
129 
129 
101 
101 
101 
100 
100 
100 
100 
181 
182 
182 
155 
183 
183 
156 
155 
155 
184 
183 
156 
156 
156 
156 
129 
184 
184 
157 
157 
157 
157 
130 
129 
129 
VECTORS VELOCITY float 
-0.000000 -1.385172 0.000000 
0.000000 -1.385172 0.000000 
0.000000 -1.385172 0.000000 
0.000000 -1.385172 0.000000 
0.000000 -1.385172 0.000000 
0.000000 -1.385172 0.000000 
0.000000 -1.385172 0.000000 
0.000000 -1.385172 0.000000 
0.000000 -1.385172 0.000000 
0.000000 -1.385172 0.000000 
0.000000 -1.385172 0.000000 
0.000000 -1.385172 0.000000 
0.000000 -1.385172 0.000000 
0.000000 -1.385172 0.000000 
0.000000 -1.385172 0.000000 
0.000000 -1.385172 0.000000 
-0.000000 -1.385172 0.000000 
0.000000 -1.385172 0.000000 
-0.000000 -1.385172 0.000000 
0.000000 -1.385172 0.000000 
0.000000 -1.385172 0.000000 
0.000000 -1.385172 0.000000 
0.000000 -1.385172 0.000000 
0.000000 -1.385172 0.000000 
0.000000 -1.385172 0.000000 
-0.000000 -1.385172 0.000000 
-0.000000 -1.385172 0.000000 
-0.000000 -1.385172 0.000000 
-0.000000 -1.385172 0.000000 
0.000000 -1.385172 0.000000 
0.000000 -1.385172 0.000000 
0.000000 -1.385172 0.000000 
0.000000 -1.385172 0.000000 
0.000000 -1.385172 0.000000 
-0.000000 -1.385172 0.000000 
0.000000 -1.385172 0.000000 
0.000000 -1.385172 0.000000 
0.000000 -1.385172 0.000000 
0.000000 -1.385172 0.000000 
0.000000 -1.385172 0.000000 
-0.000000 -1.385172 0.000000 
0.000000 -1.385172 0.000000 
-0.000000 -1.385172 0.000000 
-0.000000 -1.385172 0.000000 
-0.000000 -1.385172 0.000000 
0.000000 -1.385172 0.000000 
0.000000 -1.385172 0.000000 
0.000000 -1.385172 0.000000 
-0.000000 -1.385172 0.000000 
-0.000000 -1.385172 0.000000 
-0.000000 -1.385172 0.000000 
-0.000000 -1.385172 0.000000 
-0.000000 -1.385172 0.000000 
-0.000000 -1.385172 0.000000 
-0.000000 -1.385172 0.000000 
-0.000000 -1.385172 0.000000 
0.000000 -1.385172 0.000000 
-0.000000 -1.385172 0.000000 
-0.000000 -1.385172 0.000000 
-0.000000 -1.385172 0.000000 
-0.000000 -1.385172 0.000000 
0.000000 -1.385172 0.000000 
0.000000 -1.385172 0.000000 
0.000000 -1.385172 0.000000 
-0.000000 -1.385172 0.000000 
-0.000000 -1.385172 0.000000 
-0.000000 -1.385172 0.000000 
0.000000 -1.385172 0.000000 
-0.000000 -1.385172 0.000000 
-0.000000 -1.385172 0.000000 
-0.000000 -1.385172 0.000000 
0.000000 -1.385172 0.000000 
-0.000000 -1.385172 0.000000 
-0.000000 -1.385172 0.000000 
-0.000000 -1.385172 0.000000 
-0.000000 -1.385172 0.000000 
-0.000000 -1.385172 0.000000 
-0.000000 -1.385172 0.000000 
-0.000000 -1.385172 0.000000 
0.000000 -1.385172 0.000000 
0.000000 -1.385172 0.000000 
0.000000 -1.385172 0.000000 
-0.000000 -1.385172 0.000000 
-0.000000 -1.385172 0.000000 
-0.000000 -1.385172 0.000000 
0.000000 -1.385172 0.000000 
0.000000 -1.385172 0.000000 
-0.000000 -1.385172 0.000000 
-0.000000 -1.385172 0.000000 
-0.000000 -1.385172 0.000000 
-0.000000 -1.385172 0.000000 
-0.000000 -1.385172 0.000000 
-0.000000 -1.385172 0.000000 
-0.000000 -1.385172 0.000000 
-0.000000 -1.385172 0.000000 
-0.000000 -1.385172 0.000000 
-0.000000 -1.385172 0.000000 
-0.000000 -1.385172 0.000000 
-0.000000 -1.385172 0.000000 
-0.000000 -1.385172 0.000000 
-0.000000 -1.385172 0.000000 
0.000000 -1.385172 0.000000 
-0.000000 -1.385172 0.000000 
-0.000000 -1.385172 0.000000 
0.000000 -1.385172 0.000000 
0.000000 -1.385172 0.000000 
0.000000 -1.385172 0.000000 
-0.000000 -1.385172 0.000000 
-0.000000 -1.385172 0.000000 
-0.000000 -1.385172 0.000000 
-0.000000 -1.385172 0.000000 
-0.000000 -1.385172 0.000000 
-0.000000 -1.385172 0.000000 
-0.000000 -1.385172 0.000000 
-0.000000 -1.385172 0.000000 
-0.000000 -1.385172 0.000000 
0.000000 -1.385172 0.000000 
-0.000000 -1.385172 0.000000 
0.000000 -1.385172 0.000000 
-0.000000 -1.385172 0.000000 
0.000000 -1.385172 0.000000 
0.000000 -1.385172 0.000000 
0.000000 -1.385172 0.000000 
-0.000000 -1.385172 0.000000 
-0.000000 -1.385172 0.000000 
0.000000 -1.385172 0.000000 
0.000000 -1.385172 0.000000 
0.000000 -1.385172 0.000000 
0.000000 -1.385172 0.000000 
0.000000 -1.385172 0.000000 
0.000000 -1.385172 0.000000 
0.000000 -1.385172 0.000000 
0.000000 -1.385172 0.000000 
0.000000 -1.385172 0.000000 
-0.000000 -1.385172 0.000000 
-0.000000 -1.385172 0.000000 
-0.000000 -1.385172 0.000000 
-0.000000 -1.385172 0.000000 
-0.000000 -1.385172 0.000000 
-0.000000 -1.385172 0.000000 
-0.000000 -1.385172 0.000000 
0.000000 -1.385172 0.000000 
-0.000000 -1.385172 0.000000 
0.000000 -1.385172 0.000000 
-0.000000 -1.385172 0.000000 
0.000000 -1.385172 0.000000 
0.000000 -1.385172 0.000000 
0.000000 -1.385172 0.000000 
-0.000000 -1.385172 0.000000 
0.000000 -1.385172 0.000000 
0.000000 -1.385172 0.000000 
-0.000000 -1.385172 0.000000 
0.000000 -1.385172 0.000000 
0.000000 -1.385172 0.000000 
-0.000000 -1.385172 0.000000 
-0.000000 -1.385172 0.000000 
-0.000000 -1.385172 0.000000 
-0.000000 -1.385172 0.000000 
0.000000 -1.385172 0.000000 
-0.000000 -1.385172 0.000000 
-0.000000 -1.385172 0.000000 
-0.000000 -1.385172 0.000000 
-0.000000 -1.385172 0.000000 
-0.000000 -1.385172 0.000000 
0.000000 -1.385172 0.000000 
0.000000 -1.385172 0.000000 
-0.000000 -1.385172 0.000000 
-0.000000 -1.385172 0.000000 
-0.000000 -1.385172 0.000000 
-0.000000 -1.385172 0.000000 
-0.000000 -1.385172 0.000000 
-0.000000 -1.385172 0.000000 
-0.000000 -1.385172 0.000000 
0.000000 -1.385172 0.000000 
0.000000 -1.385172 0.000000 
TENSORS STRESS float 
-0.000000 -0.000000 0.000000 
0.000000 -0.000000 0.000000 
0.000000 0.000000 0.000000 

0.000000 -0.000000 0.000000 
0.000000 0.000000 0.000000 
0.000000 0.000000 0.000000 

0.000000 -0.000000 0.000000 
0.000000 0.000000 0.000000 
0.000000 0.000000 0.000000 

0.000000 -0.000000 0.000000 
0.000000 0.000000 0.000000 
0.000000 0.000000 0.000000 

0.000000 -0.000000 0.000000 
0.000000 0.000000 0.000000 
0.000000 0.000000 0.000000 

-0.000000 -0.000000 0.000000 
0.000000 -0.000000 0.000000 
0.000000 0.000000 0.000000 

-0.000000 -0.000000 0.000000 
0.000000 -0.000000 0.000000 
0.000000 0.000000 0.000000 

0.000000 -0.000000 0.000000 
0.000000 -0.000000 0.000000 
0.000000 0.000000 0.000000 

-0.000000 -0.000000 0.000000 
0.000000 -0.000000 0.000000 
0.000000 0.000000 0.000000 

-0.000000 -0.000000 0.000000 
0.000000 -0.000000 0.000000 
0.000000 0.000000 0.000000 

-0.000000 -0.000000 0.000000 
0.000000 -0.000000 0.000000 
0.000000 0.000000 0.000000 

-0.000000 -0.000000 0.000000 
0.000000 -0.000000 0.000000 
0.000000 0.000000 0.000000 

-0.000000 -0.000000 0.000000 
0.000000 -0.000000 0.000000 
0.000000 0.000000 0.000000 

-0.000000 -0.000000 0.000000 
0.000000 -0.000000 0.000000 
0.000000 0.000000 0.000000 

0.000000 -0.000000 0.000000 
0.000000 0.000000 0.000000 
0.000000 0.000000 0.000000 

0.000000 -0.000000 0.000000 
0.000000 0.000000 0.000000 
0.000000 0.000000 0.000000 

-0.000000 -0.000000 0.000000 
0.000000 -0.000000 0.000000 
0.000000 0.000000 0.000000 

0.000000 -0.000000 0.000000 
0.000000 0.000000 0.000000 
0.000000 0.000000 0.000000 

-0.000000 -0.000000 0.000000 
0.000000 -0.000000 0.000000 
0.000000 0.000000 0.000000 

-0.000000 -0.000000 0.000000 
0.000000 -0.000000 0.000000 
0.000000 0.000000 0.000000 

0.000000 -0.000000 0.000000 
0.000000 0.000000 0.000000 
0.000000 0.000000 0.000000 

-0.000000 -0.000000 0.000000 
0.000000 -0.000000 0.000000 
0.000000 0.000000 0.000000 

-0.000000 -0.000000 0.000000 
0.000000 -0.000000 0.000000 
0.000000 0.000000 0.000000 

0.000000 -0.000000 0.000000 
0.000000 0.000000 0.000000 
0.000000 0.000000 0.000000 

0.000000 -0.000000 0.000000 
0.000000 0.000000 0.000000 
0.000000 0.000000 0.000000 

-0.000000 -0.000000 0.000000 
0.000000 -0.000000 0.000000 
0.000000 0.000000 0.000000 

-0.000000 -0.000000 0.000000 
0.000000 -0.000000 0.000000 
0.000000 0.000000 0.000000 

-0.000000 -0.000000 0.000000 
0.000000 -0.000000 0.000000 
0.000000 0.000000 0.000000 

0.000000 -0.000000 0.000000 
0.000000 0.000000 0.000000 
0.000000 0.000000 0.000000 

-0.000000 0.000000 0.000000 
0.000000 -0.000000 0.000000 
0.000000 0.000000 0.000000 

-0.000000 0.000000 0.000000 
0.000000 -0.000000 0.000000 
0.000000 0.000000 0.000000 

0.000000 -0.000000 0.000000 
0.000000 -0.000000 0.000000 
0.000000 0.000000 0.000000 

-0.000000 -0.000000 0.000000 
0.000000 -0.000000 0.000000 
0.000000 0.000000 0.000000 

0.000000 -0.000000 0.000000 
0.000000 0.000000 0.000000 
0.000000 0.000000 0.000000 

-0.000000 0.000000 0.000000 
0.000000 -0.000000 0.000000 
0.000000 0.000000 0.000000 

-0.000000 -0.000000 0.000000 
0.000000 -0.000000 0.000000 
0.000000 0.000000 0.000000 

-0.000000 -0.000000 0.000000 
0.000000 -0.000000 0.000000 
0.000000 0.000000 0.000000 

0.000000 -0.000000 0.000000 
0.000000 0.000000 0.000000 
0.000000 0.000000 0.000000 

-0.000000 -0.000000 0.000000 
0.000000 0.000000 0.000000 
0.000000 0.000000 0.000000 

-0.000000 -0.000000 0.000000 
0.000000 -0.000000 0.000000 
0.000000 0.000000 0.000000 

-0.000000 -0.000000 0.000000 
0.000000 0.000000 0.000000 
0.000000 0.000000 0.000000 

-0.000000 0.000000 0.000000 
0.000000 0.000000 0.000000 
0.000000 0.000000 0.000000 

-0.000000 -0.000000 0.000000 
0.000000 -0.000000 0.000000 
0.000000 0.000000 0.000000 

0.000000 -0.000000 0.000000 
0.000000 0.000000 0.000000 
0.000000 0.000000 0.000000 

-0.000000 -0.000000 0.000000 
0.000000 -0.000000 0.000000 
0.000000 0.000000 0.000000 

0.000000 -0.000000 0.000000 
0.000000 0.000000 0.000000 
0.000000 0.000000 0.000000 

0.000000 -0.000000 0.000000 
0.000000 0.000000 0.000000 
0.000000 0.000000 0.000000 

0.000000 -0.000000 0.000000 
0.000000 -0.000000 0.000000 
0.000000 0.000000 0.000000 

0.000000 -0.000000 0.000000 
0.000000 0.000000 0.000000 
0.000000 0.000000 0.000000 

0.000000 -0.000000 0.000000 
0.000000 0.000000 0.000000 
0.000000 0.000000 0.000000 

-0.000000 -0.000000 0.000000 
0.000000 -0.000000 0.000000 
0.000000 0.000000 0.000000 

0.000000 -0.000000 0.000000 
0.000000 0.000000 0.000000 
0.000000 0.000000 0.000000 

-0.000000 -0.000000 0.000000 
0.000000 -0.000000 0.000000 
0.000000 0.000000 0.000000 

-0.000000 -0.000000 0.000000 
0.000000 -0.000000 0.000000 
0.000000 0.000000 0.000000 

0.000000 0.000000 0.000000 
0.000000 0.000000 0.000000 
0.000000 0.000000 0.000000 

0.000000 -0.000000 0.000000 
0.000000 0.000000 0.000000 
0.000000 0.000000 0.000000 

0.000000 0.000000 0.000000 
0.000000 0.000000 0.000000 
0.000000 0.000000 0.000000 

-0.000000 -0.000000 0.000000 
0.000000 -0.000000 0.000000 
0.000000 0.000000 0.000000 

-0.000000 0.000000 0.000000 
0.000000 -0.000000 0.000000 
0.000000 0.000000 0.000000 

0.000000 0.000000 0.000000 
0.000000 0.000000 0.000000 
0.000000 0.000000 0.000000 

0.000000 -0.000000 0.000000 
0.000000 0.000000 0.000000 
0.000000 0.000000 0.000000 

-0.000000 0.000000 0.000000 
0.000000 -0.000000 0.000000 
0.000000 0.000000 0.000000 

-0.000000 0.000000 0.000000 
0.000000 -0.000000 0.000000 
0.000000 0.000000 0.000000 

-0.000000 0.000000 0.000000 
0.000000 -0.000000 0.000000 
0.000000 0.000000 0.000000 

0.000000 0.000000 0.000000 
0.000000 0.000000 0.000000 
0.000000 0.000000 0.000000 

-0.000000 -0.000000 0.000000 
0.000000 -0.000000 0.000000 
0.000000 0.000000 0.000000 

0.000000 -0.000000 0.000000 
0.000000 0.000000 0.000000 
0.000000 0.000000 0.000000 

-0.000000 0.000000 0.000000 
0.000000 -0.000000 0.000000 
0.000000 0.000000 0.000000 

0.000000 0.000000 0.000000 
0.000000 0.000000 0.000000 
0.000000 0.000000 0.000000 

0.000000 0.000000 0.000000 
0.000000 0.000000 0.000000 
0.000000 0.000000 0.000000 

0.000000 0.000000 0.000000 
0.000000 0.000000 0.000000 
0.000000 0.000000 0.000000 

-0.000000 -0.000000 0.000000 
0.000000 -0.000000 0.000000 
0.000000 0.000000 0.000000 

0.000000 -0.000000 0.000000 
0.000000 0.000000 0.000000 
0.000000 0.000000 0.000000 

-0.000000 0.000000 0.000000 
0.000000 -0.000000 0.000000 
0.000000 0.000000 0.000000 

0.000000 -0.000000 0.000000 
0.000000 0.000000 0.000000 
0.000000 0.000000 0.000000 

-0.000000 -0.000000 0.000000 
0.000000 -0.000000 0.000000 
0.000000 0.000000 0.000000 

0.000000 -0.000000 0.000000 
0.000000 0.000000 0.000000 
0.000000 0.000000 0.000000 

-0.000000 -0.000000 0.000000 
0.000000 -0.000000 0.000000 
0.000000 0.000000 0.000000 

-0.000000 -0.000000 0.000000 
0.000000 -0.000000 0.000000 
0.000000 0.000000 0.000000 

-0.000000 0.000000 0.000000 
0.000000 -0.000000 0.000000 
0.000000 0.000000 0.000000 

-0.000000 -0.000000 0.000000 
0.000000 -0.000000 0.000000 
0.000000 0.000000 0.000000 

0.000000 -0.000000 0.000000 
0.000000 0.000000 0.000000 
0.000000 0.000000 0.000000 

-0.000000 -0.000000 0.000000 
0.000000 -0.000000 0.000000 
0.000000 0.000000 0.000000 

0.000000 0.000000 0.000000 
0.000000 0.000000 0.000000 
0.000000 0.000000 0.000000 

-0.000000 0.000000 0.000000 
0.000000 -0.000000 0.000000 
0.000000 0.000000 0.000000 

-0.000000 -0.000000 0.000000 
0.000000 -0.000000 0.000000 
0.000000 0.000000 0.000000 

0.000000 -0.000000 0.000000 
0.000000 0.000000 0.000000 
0.000000 0.000000 0.000000 

0.000000 -0.000000 0.000000 
0.000000 0.000000 0.000000 
0.000000 0.000000 0.000000 

-0.000000 -0.000000 0.000000 
0.000000 -0.000000 0.000000 
0.000000 0.000000 0.000000 

0.000000 0.000000 0.000000 
0.000000 0.000000 0.000000 
0.000000 0.000000 0.000000 

0.000000 0.000000 0.000000 
0.000000 0.000000 0.000000 
0.000000 0.000000 0.000000 

-0.000000 -0.000000 0.000000 
0.000000 -0.000000 0.000000 
0.000000 0.000000 0.000000 

0.000000 -0.000000 0.000000 
0.000000 0.000000 0.000000 
0.000000 0.000000 0.000000 

-0.000000 -0.000000 0.000000 
0.000000 -0.000000 0.000000 
0.000000 0.000000 0.000000 

0.000000 -0.000000 0.000000 
0.000000 0.000000 0.000000 
0.000000 0.000000 0.000000 

-0.000000 -0.000000 0.000000 
0.000000 0.000000 0.000000 
0.000000 0.000000 0.000000 

0.000000 -0.000000 0.000000 
0.000000 0.000000 0.000000 
0.000000 0.000000 0.000000 

-0.000000 -0.000000 0.000000 
0.000000 -0.000000 0.000000 
0.000000 0.000000 0.000000 

-0.000000 -0.000000 0.000000 
0.000000 -0.000000 0.000000 
0.000000 0.000000 0.000000 

0.000000 0.000000 0.000000 
0.000000 0.000000 0.000000 
0.000000 0.000000 0.000000 

0.000000 -0.000000 0.000000 
0.000000 0.000000 0.000000 
0.000000 0.000000 0.000000 

0.000000 0.000000 0.000000 
0.000000 0.000000 0.000000 
0.000000 0.000000 0.000000 

0.000000 0.000000 0.000000 
0.000000 0.000000 0.000000 
0.000000 0.000000 0.000000 

-0.000000 0.000000 0.000000 
0.000000 -0.000000 0.000000 
0.000000 0.000000 0.000000 

-0.000000 -0.000000 0.000000 
0.000000 -0.000000 0.000000 
0.000000 0.000000 0.000000 

0.000000 0.000000 0.000000 
0.000000 0.000000 0.000000 
0.000000 0.000000 0.000000 

-0.000000 0.000000 0.000000 
0.000000 0.000000 0.000000 
0.000000 0.000000 0.000000 

-0.000000 -0.000000 0.000000 
0.000000 -0.000000 0.000000 
0.000000 0.000000 0.000000 

-0.000000 0.000000 0.000000 
0.000000 -0.000000 0.000000 
0.000000 0.000000 0.000000 

0.000000 0.000000 0.000000 
0.000000 0.000000 0.000000 
0.000000 0.000000 0.000000 

0.000000 0.000000 0.000000 
0.000000 0.000000 0.000000 
0.000000 0.000000 0.000000 

-0.000000 -0.000000 0.000000 
0.000000 -0.000000 0.000000 
0.000000 0.000000 0.000000 

-0.000000 -0.000000 0.000000 
0.000000 -0.000000 0.000000 
0.000000 0.000000 0.000000 

0.000000 -0.000000 0.000000 
0.000000 0.000000 0.000000 
0.000000 0.000000 0.000000 

-0.000000 -0.000000 0.000000 
0.000000 -0.000000 0.000000 
0.000000 0.000000 0.000000 

-0.000000 -0.000000 0.000000 
0.000000 -0.000000 0.000000 
0.000000 0.000000 0.000000 

0.000000 -0.000000 0.000000 
0.000000 0.000000 0.000000 
0.000000 0.000000 0.000000 

-0.000000 -0.000000 0.000000 
0.000000 -0.000000 0.000000 
0.000000 0.000000 0.000000 

-0.000000 0.000000 0.000000 
0.000000 -0.000000 0.000000 
0.000000 0.000000 0.000000 

-0.000000 0.000000 0.000000 
0.000000 -0.000000 0.000000 
0.000000 0.000000 0.000000 

-0.000000 0.000000 0.000000 
0.000000 -0.000000 0.000000 
0.000000 0.000000 0.000000 

0.000000 0.000000 0.000000 
0.000000 0.000000 0.000000 
0.000000 0.000000 0.000000 

-0.000000 0.000000 0.000000 
0.000000 -0.000000 0.000000 
0.000000 0.000000 0.000000 

0.000000 0.000000 0.000000 
0.000000 0.000000 0.000000 
0.000000 0.000000 0.000000 

0.000000 -0.000000 0.000000 
0.000000 0.000000 0.000000 
0.000000 0.000000 0.000000 

0.000000 0.000000 0.000000 
0.000000 0.000000 0.000000 
0.000000 0.000000 0.000000 

0.000000 -0.000000 0.000000 
0.000000 0.000000 0.000000 
0.000000 0.000000 0.000000 

-0.000000 0.000000 0.000000 
0.000000 -0.000000 0.000000 
0.000000 0.000000 0.000000 

-0.000000 0.000000 0.000000 
0.000000 -0.000000 0.000000 
0.000000 0.000000 0.000000 

0.000000 0.000000 0.000000 
0.000000 0.000000 0.000000 
0.000000 0.000000 0.000000 

0.000000 -0.000000 0.000000 
0.000000 0.000000 0.000000 
0.000000 0.000000 0.000000 

-0.000000 -0.000000 0.000000 
0.000000 -0.000000 0.000000 
0.000000 0.000000 0.000000 

-0.000000 0.000000 0.000000 
0.000000 -0.000000 0.000000 
0.000000 0.000000 0.000000 

0.000000 -0.000000 0.000000 
0.000000 0.000000 0.000000 
0.000000 0.000000 0.000000 

-0.000000 -0.000000 0.000000 
0.000000 0.000000 0.000000 
0.000000 0.000000 0.000000 

-0.000000 -0.000000 0.000000 
0.000000 -0.000000 0.000000 
0.000000 0.000000 0.000000 

-0.000000 -0.000000 0.000000 
0.000000 -0.000000 0.000000 
0.000000 0.000000 0.000000 

0.000000 -0.000000 0.000000 
0.000000 0.000000 0.000000 
0.000000 0.000000 0.000000 

0.000000 -0.000000 0.000000 
0.000000 0.000000 0.000000 
0.000000 0.000000 0.000000 

0.000000 -0.000000 0.000000 
0.000000 0.000000 0.000000 
0.000000 0.000000 0.000000 

0.000000 -0.000000 0.000000 
0.000000 0.000000 0.000000 
0.000000 0.000000 0.000000 

0.000000 -0.000000 0.000000 
0.000000 0.000000 0.000000 
0.000000 0.000000 0.000000 

0.000000 -0.000000 0.000000 
0.000000 0.000000 0.000000 
0.000000 0.000000 0.000000 

-0.000000 0.000000 0.000000 
0.000000 -0.000000 0.000000 
0.000000 0.000000 0.000000 

-0.000000 -0.000000 0.000000 
0.000000 -0.000000 0.000000 
0.000000 0.000000 0.000000 

0.000000 -0.000000 0.000000 
0.000000 0.000000 0.000000 
0.000000 0.000000 0.000000 

0.000000 -0.000000 0.000000 
0.000000 0.000000 0.000000 
0.000000 0.000000 0.000000 

-0.000000 -0.000000 0.000000 
0.000000 -0.000000 0.000000 
0.000000 0.000000 0.000000 

-0.000000 -0.000000 0.000000 
0.000000 -0.000000 0.000000 
0.000000 0.000000 0.000000 

-0.000000 -0.000000 0.000000 
0.000000 -0.000000 0.000000 
0.000000 0.000000 0.000000 

-0.000000 -0.000000 0.000000 
0.000000 -0.000000 0.000000 
0.000000 0.000000 0.000000 

0.000000 -0.000000 0.000000 
0.000000 0.000000 0.000000 
0.000000 0.000000 0.000000 

0.000000 -0.000000 0.000000 
0.000000 0.000000 0.000000 
0.000000 0.000000 0.000000 

-0.000000 -0.000000 0.000000 
0.000000 -0.000000 0.000000 
0.000000 0.000000 0.000000 

0.000000 -0.000000 0.000000 
0.000000 0.000000 0.000000 
0.000000 0.000000 0.000000 

-0.000000 -0.000000 0.000000 
0.000000 -0.000000 0.000000 
0.000000 0.000000 0.000000 

-0.000000 0.000000 0.000000 
0.000000 -0.000000 0.000000 
0.000000 0.000000 0.000000 

-0.000000 -0.000000 0.000000 
0.000000 -0.000000 0.000000 
0.000000 0.000000 0.000000 

-0.000000 -0.000000 0.000000 
0.000000 -0.000000 0.000000 
0.000000 0.000000 0.000000 

0.000000 -0.000000 0.000000 
0.000000 0.000000 0.000000 
0.000000 0.000000 0.000000 

-0.000000 -0.000000 0.000000 
0.000000 -0.000000 0.000000 
0.000000 0.000000 0.000000 

0.000000 0.000000 0.000000 
0.000000 0.000000 0.000000 
0.000000 0.000000 0.000000 

0.000000 0.000000 0.000000 
0.000000 0.000000 0.000000 
0.000000 0.000000 0.000000 

0.000000 0.000000 0.000000 
0.000000 0.000000 0.000000 
0.000000 0.000000 0.000000 

-0.000000 0.000000 0.000000 
0.000000 -0.000000 0.000000 
0.000000 0.000000 0.000000 

-0.000000 -0.000000 0.000000 
0.000000 -0.000000 0.000000 
0.000000 0.000000 0.000000 

-0.000000 0.000000 0.000000 
0.000000 0.000000 0.000000 
0.000000 0.000000 0.000000 

0.000000 -0.000000 0.000000 
0.000000 0.000000 0.000000 
0.000000 0.000000 0.000000 

0.000000 0.000000 0.000000 
0.000000 0.000000 0.000000 
0.000000 0.000000 0.000000 

0.000000 0.000000 0.000000 
0.000000 0.000000 0.000000 
0.000000 0.000000 0.000000 

0.000000 -0.000000 0.000000 
0.000000 0.000000 0.000000 
0.000000 0.000000 0.000000 

0.000000 0.000000 0.000000 
0.000000 0.000000 0.000000 
0.000000 0.000000 0.000000 

0.000000 -0.000000 0.000000 
0.000000 0.000000 0.000000 
0.000000 0.000000 0.000000 

-0.000000 0.000000 0.000000 
0.000000 -0.000000 0.000000 
0.000000 0.000000 0.000000 

-0.000000 0.000000 0.000000 
0.000000 -0.000000 0.000000 
0.000000 0.000000 0.000000 

TENSORS STRAIN float 
0.000000 -0.000000 0.000000 
0.000000 -0.000000 0.000000 
0.000000 0.000000 0.000000 

-0.000000 -0.000000 0.000000 
0.000000 0.000000 0.000000 
0.000000 0.000000 0.000000 

0.000000 -0.000000 0.000000 
0.000000 -0.000000 0.000000 
0.000000 0.000000 0.000000 

0.000000 -0.000000 0.000000 
0.000000 -0.000000 0.000000 
0.000000 0.000000 0.000000 

-0.000000 -0.000000 0.000000 
0.000000 0.000000 0.000000 
0.000000 0.000000 0.000000 

-0.000000 -0.000000 0.000000 
0.000000 0.000000 0.000000 
0.000000 0.000000 0.000000 

-0.000000 -0.000000 0.000000 
0.000000 0.000000 0.000000 
0.000000 0.000000 0.000000 

0.000000 -0.000000 0.000000 
0.000000 -0.000000 0.000000 
0.000000 0.000000 0.000000 

0.000000 -0.000000 0.000000 
0.000000 -0.000000 0.000000 
0.000000 0.000000 0.000000 

-0.000000 -0.000000 0.000000 
0.000000 -0.000000 0.000000 
0.000000 0.000000 0.000000 

-0.000000 -0.000000 0.000000 
0.000000 -0.000000 0.000000 
0.000000 0.000000 0.000000 

-0.000000 -0.000000 0.000000 
0.000000 0.000000 0.000000 
0.000000 0.000000 0.000000 

-0.000000 -0.000000 0.000000 
0.000000 -0.000000 0.000000 
0.000000 0.000000 0.000000 

-0.000000 -0.000000 0.000000 
0.000000 0.000000 0.000000 
0.000000 0.000000 0.000000 

-0.000000 -0.000000 0.000000 
0.000000 0.000000 0.000000 
0.000000 0.000000 0.000000 

0.000000 -0.000000 0.000000 
0.000000 0.000000 0.000000 
0.000000 0.000000 0.000000 

0.000000 -0.000000 0.000000 
0.000000 -0.000000 0.000000 
0.000000 0.000000 0.000000 

0.000000 -0.000000 0.000000 
0.000000 0.000000 0.000000 
0.000000 0.000000 0.000000 

0.000000 -0.000000 0.000000 
0.000000 -0.000000 0.000000 
0.000000 0.000000 0.000000 

-0.000000 -0.000000 0.000000 
0.000000 0.000000 0.000000 
0.000000 0.000000 0.000000 

-0.000000 -0.000000 0.000000 
0.000000 0.000000 0.000000 
0.000000 0.000000 0.000000 

-0.000000 -0.000000 0.000000 
0.000000 0.000000 0.000000 
0.000000 0.000000 0.000000 

-0.000000 -0.000000 0.000000 
0.000000 0.000000 0.000000 
0.000000 0.000000 0.000000 

-0.000000 -0.000000 0.000000 
0.000000 0.000000 0.000000 
0.000000 0.000000 0.000000 

-0.000000 -0.000000 0.000000 
0.000000 0.000000 0.000000 
0.000000 0.000000 0.000000 

0.000000 -0.000000 0.000000 
0.000000 -0.000000 0.000000 
0.000000 0.000000 0.000000 

0.000000 -0.000000 0.000000 
0.000000 -0.000000 0.000000 
0.000000 0.000000 0.000000 

-0.000000 -0.000000 0.000000 
0.000000 -0.000000 0.000000 
0.000000 0.000000 0.000000 

-0.000000 -0.000000 0.000000 
0.000000 0.000000 0.000000 
0.000000 0.000000 0.000000 

0.000000 0.000000 0.000000 
0.000000 -0.000000 0.000000 
0.000000 0.000000 0.000000 

-0.000000 0.000000 0.000000 
0.000000 -0.000000 0.000000 
0.000000 0.000000 0.000000 

0.000000 -0.000000 0.000000 
0.000000 -0.000000 0.000000 
0.000000 0.000000 0.000000 

-0.000000 -0.000000 0.000000 
0.000000 -0.000000 0.000000 
0.000000 0.000000 0.000000 

-0.000000 -0.000000 0.000000 
0.000000 0.000000 0.000000 
0.000000 0.000000 0.000000 

0.000000 0.000000 0.000000 
0.000000 -0.000000 0.000000 
0.000000 0.000000 0.000000 

0.000000 -0.000000 0.000000 
0.000000 -0.000000 0.000000 
0.000000 0.000000 0.000000 

0.000000 -0.000000 0.000000 
0.000000 -0.000000 0.000000 
0.000000 0.000000 0.000000 

-0.000000 -0.000000 0.000000 
0.000000 0.000000 0.000000 
0.000000 0.000000 0.000000 

-0.000000 -0.000000 0.000000 
0.000000 0.000000 0.000000 
0.000000 0.000000 0.000000 

-0.000000 -0.000000 0.000000 
0.000000 0.000000 0.000000 
0.000000 0.000000 0.000000 

-0.000000 -0.000000 0.000000 
0.000000 0.000000 0.000000 
0.000000 0.000000 0.000000 

-0.000000 0.000000 0.000000 
0.000000 0.000000 0.000000 
0.000000 0.000000 0.000000 

-0.000000 -0.000000 0.000000 
0.000000 0.000000 0.000000 
0.000000 0.000000 0.000000 

-0.000000 -0.000000 0.000000 
0.000000 0.000000 0.000000 
0.000000 0.000000 0.000000 

-0.000000 -0.000000 0.000000 
0.000000 -0.000000 0.000000 
0.000000 0.000000 0.000000 

0.000000 -0.000000 0.000000 
0.000000 0.000000 0.000000 
0.000000 0.000000 0.000000 

0.000000 -0.000000 0.000000 
0.000000 0.000000 0.000000 
0.000000 0.000000 0.000000 

0.000000 -0.000000 0.000000 
0.000000 -0.000000 0.000000 
0.000000 0.000000 0.000000 

-0.000000 -0.000000 0.000000 
0.000000 0.000000 0.000000 
0.000000 0.000000 0.000000 

-0.000000 -0.000000 0.000000 
0.000000 0.000000 0.000000 
0.000000 0.000000 0.000000 

0.000000 -0.000000 0.000000 
0.000000 -0.000000 0.000000 
0.000000 0.000000 0.000000 

0.000000 -0.000000 0.000000 
0.000000 -0.000000 0.000000 
0.000000 0.000000 0.000000 

0.000000 -0.000000 0.000000 
0.000000 -0.000000 0.000000 
0.000000 0.000000 0.000000 

0.000000 -0.000000 0.000000 
0.000000 -0.000000 0.000000 
0.000000 0.000000 0.000000 

0.000000 0.000000 0.000000 
0.000000 -0.000000 0.000000 
0.000000 0.000000 0.000000 

0.000000 -0.000000 0.000000 
0.000000 -0.000000 0.000000 
0.000000 0.000000 0.000000 

0.000000 0.000000 0.000000 
0.000000 -0.000000 0.000000 
0.000000 0.000000 0.000000 

0.000000 -0.000000 0.000000 
0.000000 -0.000000 0.000000 
0.000000 0.000000 0.000000 

0.000000 0.000000 0.000000 
0.000000 -0.000000 0.000000 
0.000000 0.000000 0.000000 

0.000000 0.000000 0.000000 
0.000000 -0.000000 0.000000 
0.000000 0.000000 0.000000 

0.000000 -0.000000 0.000000 
0.000000 -0.000000 0.000000 
0.000000 0.000000 0.000000 

-0.000000 0.000000 0.000000 
0.000000 0.000000 0.000000 
0.000000 0.000000 0.000000 

-0.000000 0.000000 0.000000 
0.000000 -0.000000 0.000000 
0.000000 0.000000 0.000000 

-0.000000 0.000000 0.000000 
0.000000 0.000000 0.000000 
0.000000 0.000000 0.000000 

0.000000 0.000000 0.000000 
0.000000 0.000000 0.000000 
0.000000 0.000000 0.000000 

0.000000 -0.000000 0.000000 
0.000000 -0.000000 0.000000 
0.000000 0.000000 0.000000 

-0.000000 -0.000000 0.000000 
0.000000 0.000000 0.000000 
0.000000 0.000000 0.000000 

-0.000000 0.000000 0.000000 
0.000000 0.000000 0.000000 
0.000000 0.000000 0.000000 

-0.000000 0.000000 0.000000 
0.000000 0.000000 0.000000 
0.000000 0.000000 0.000000 

-0.000000 0.000000 0.000000 
0.000000 0.000000 0.000000 
0.000000 0.000000 0.000000 

-0.000000 0.000000 0.000000 
0.000000 0.000000 0.000000 
0.000000 0.000000 0.000000 

-0.000000 -0.000000 0.000000 
0.000000 0.000000 0.000000 
0.000000 0.000000 0.000000 

0.000000 -0.000000 0.000000 
0.000000 -0.000000 0.000000 
0.000000 0.000000 0.000000 

-0.000000 0.000000 0.000000 
0.000000 0.000000 0.000000 
0.000000 0.000000 0.000000 

-0.000000 -0.000000 0.000000 
0.000000 0.000000 0.000000 
0.000000 0.000000 0.000000 

0.000000 -0.000000 0.000000 
0.000000 -0.000000 0.000000 
0.000000 0.000000 0.000000 

0.000000 -0.000000 0.000000 
0.000000 -0.000000 0.000000 
0.000000 0.000000 0.000000 

0.000000 -0.000000 0.000000 
0.000000 -0.000000 0.000000 
0.000000 0.000000 0.000000 

0.000000 -0.000000 0.000000 
0.000000 -0.000000 0.000000 
0.000000 0.000000 0.000000 

-0.000000 0.000000 0.000000 
0.000000 0.000000 0.000000 
0.000000 0.000000 0.000000 

0.000000 -0.000000 0.000000 
0.000000 -0.000000 0.000000 
0.000000 0.000000 0.000000 

0.000000 -0.000000 0.000000 
0.000000 0.000000 0.000000 
0.000000 0.000000 0.000000 

0.000000 -0.000000 0.000000 
0.000000 -0.000000 0.000000 
0.000000 0.000000 0.000000 

0.000000 0.000000 0.000000 
0.000000 -0.000000 0.000000 
0.000000 0.000000 0.000000 

-0.000000 0.000000 0.000000 
0.000000 -0.000000 0.000000 
0.000000 0.000000 0.000000 

-0.000000 -0.000000 0.000000 
0.000000 0.000000 0.000000 
0.000000 0.000000 0.000000 

-0.000000 -0.000000 0.000000 
0.000000 0.000000 0.000000 
0.000000 0.000000 0.000000 

0.000000 -0.000000 0.000000 
0.000000 0.000000 0.000000 
0.000000 0.000000 0.000000 

-0.000000 -0.000000 0.000000 
0.000000 -0.000000 0.000000 
0.000000 0.000000 0.000000 

0.000000 0.000000 0.000000 
0.000000 0.000000 0.000000 
0.000000 0.000000 0.000000 

0.000000 0.000000 0.000000 
0.000000 -0.000000 0.000000 
0.000000 0.000000 0.000000 

-0.000000 -0.000000 0.000000 
0.000000 -0.000000 0.000000 
0.000000 0.000000 0.000000 

-0.000000 -0.000000 0.000000 
0.000000 0.000000 0.000000 
0.000000 0.000000 0.000000 

-0.000000 -0.000000 0.000000 
0.000000 0.000000 0.000000 
0.000000 0.000000 0.000000 

-0.000000 -0.000000 0.000000 
0.000000 0.000000 0.000000 
0.000000 0.000000 0.000000 

-0.000000 -0.000000 0.000000 
0.000000 0.000000 0.000000 
0.000000 0.000000 0.000000 

-0.000000 -0.000000 0.000000 
0.000000 0.000000 0.000000 
0.000000 0.000000 0.000000 

-0.000000 -0.000000 0.000000 
0.000000 0.000000 0.000000 
0.000000 0.000000 0.000000 

-0.000000 -0.000000 0.000000 
0.000000 -0.000000 0.000000 
0.000000 0.000000 0.000000 

-0.000000 0.000000 0.000000 
0.000000 0.000000 0.000000 
0.000000 0.000000 0.000000 

0.000000 -0.000000 0.000000 
0.000000 -0.000000 0.000000 
0.000000 0.000000 0.000000 

0.000000 0.000000 0.000000 
0.000000 -0.000000 0.000000 
0.000000 0.000000 0.000000 

0.000000 0.000000 0.000000 
0.000000 -0.000000 0.000000 
0.000000 0.000000 0.000000 

-0.000000 0.000000 0.000000 
0.000000 -0.000000 0.000000 
0.000000 0.000000 0.000000 

-0.000000 -0.000000 0.000000 
0.000000 -0.000000 0.000000 
0.000000 0.000000 0.000000 

-0.000000 0.000000 0.000000 
0.000000 0.000000 0.000000 
0.000000 0.000000 0.000000 

-0.000000 0.000000 0.000000 
0.000000 0.000000 0.000000 
0.000000 0.000000 0.000000 

-0.000000 -0.000000 0.000000 
0.000000 -0.000000 0.000000 
0.000000 0.000000 0.000000 

-0.000000 0.000000 0.000000 
0.000000 -0.000000 0.000000 
0.000000 0.000000 0.000000 

-0.000000 0.000000 0.000000 
0.000000 0.000000 0.000000 
0.000000 0.000000 0.000000 

-0.000000 0.000000 0.000000 
0.000000 0.000000 0.000000 
0.000000 0.000000 0.000000 

-0.000000 -0.000000 0.000000 
0.000000 0.000000 0.000000 
0.000000 0.000000 0.000000 

-0.000000 -0.000000 0.000000 
0.000000 0.000000 0.000000 
0.000000 0.000000 0.000000 

-0.000000 -0.000000 0.000000 
0.000000 0.000000 0.000000 
0.000000 0.000000 0.000000 

-0.000000 -0.000000 0.000000 
0.000000 0.000000 0.000000 
0.000000 0.000000 0.000000 

-0.000000 -0.000000 0.000000 
0.000000 0.000000 0.000000 
0.000000 0.000000 0.000000 

-0.000000 -0.000000 0.000000 
0.000000 0.000000 0.000000 
0.000000 0.000000 0.000000 

-0.000000 -0.000000 0.000000 
0.000000 0.000000 0.000000 
0.000000 0.000000 0.000000 

0.000000 0.000000 0.000000 
0.000000 -0.000000 0.000000 
0.000000 0.000000 0.000000 

-0.000000 0.000000 0.000000 
0.000000 0.000000 0.000000 
0.000000 0.000000 0.000000 

-0.000000 0.000000 0.000000 
0.000000 0.000000 0.000000 
0.000000 0.000000 0.000000 

-0.000000 0.000000 0.000000 
0.000000 0.000000 0.000000 
0.000000 0.000000 0.000000 

-0.000000 0.000000 0.000000 
0.000000 0.000000 0.000000 
0.000000 0.000000 0.000000 

-0.000000 0.000000 0.000000 
0.000000 0.000000 0.000000 
0.000000 0.000000 0.000000 

-0.000000 -0.000000 0.000000 
0.000000 0.000000 0.000000 
0.000000 0.000000 0.000000 

0.000000 0.000000 0.000000 
0.000000 -0.000000 0.000000 
0.000000 0.000000 0.000000 

0.000000 -0.000000 0.000000 
0.000000 0.000000 0.000000 
0.000000 0.000000 0.000000 

0.000000 0.000000 0.000000 
0.000000 -0.000000 0.000000 
0.000000 0.000000 0.000000 

0.000000 0.000000 0.000000 
0.000000 -0.000000 0.000000 
0.000000 0.000000 0.000000 

0.000000 0.000000 0.000000 
0.000000 0.000000 0.000000 
0.000000 0.000000 0.000000 

0.000000 -0.000000 0.000000 
0.000000 0.000000 0.000000 
0.000000 0.000000 0.000000 

0.000000 -0.000000 0.000000 
0.000000 -0.000000 0.000000 
0.000000 0.000000 0.000000 

0.000000 0.000000 0.000000 
0.000000 -0.000000 0.000000 
0.000000 0.000000 0.000000 

-0.000000 -0.000000 0.000000 
0.000000 0.000000 0.000000 
0.000000 0.000000 0.000000 

-0.000000 -0.000000 0.000000 
0.000000 0.000000 0.000000 
0.000000 0.000000 0.000000 

-0.000000 -0.000000 0.000000 
0.000000 0.000000 0.000000 
0.000000 0.000000 0.000000 

-0.000000 -0.000000 0.000000 
0.000000 0.000000 0.000000 
0.000000 0.000000 0.000000 

-0.000000 -0.000000 0.000000 
0.000000 0.000000 0.000000 
0.000000 0.000000 0.000000 

0.000000 -0.000000 0.000000 
0.000000 0.000000 0.000000 
0.000000 0.000000 0.000000 

0.000000 -0.000000 0.000000 
0.000000 0.000000 0.000000 
0.000000 0.000000 0.000000 

-0.000000 -0.000000 0.000000 
0.000000 0.000000 0.000000 
0.000000 0.000000 0.000000 

-0.000000 -0.000000 0.000000 
0.000000 0.000000 0.000000 
0.000000 0.000000 0.000000 

-0.000000 -0.000000 0.000000 
0.000000 0.000000 0.000000 
0.000000 0.000000 0.000000 

-0.000000 0.000000 0.000000 
0.000000 -0.000000 0.000000 
0.000000 0.000000 0.000000 

-0.000000 -0.000000 0.000000 
0.000000 0.000000 0.000000 
0.000000 0.000000 0.000000 

-0.000000 -0.000000 0.000000 
0.000000 0.000000 0.000000 
0.000000 0.000000 0.000000 

-0.000000 -0.000000 0.000000 
0.000000 0.000000 0.000000 
0.000000 0.000000 0.000000 

-0.000000 -0.000000 0.000000 
0.000000 0.000000 0.000000 
0.000000 0.000000 0.000000 

-0.000000 -0.000000 0.000000 
0.000000 0.000000 0.000000 
0.000000 0.000000 0.000000 

-0.000000 -0.000000 0.000000 
0.000000 0.000000 0.000000 
0.000000 0.000000 0.000000 

0.000000 -0.000000 0.000000 
0.000000 -0.000000 0.000000 
0.000000 0.000000 0.000000 

0.000000 -0.000000 0.000000 
0.000000 -0.000000 0.000000 
0.000000 0.000000 0.000000 

0.000000 -0.000000 0.000000 
0.000000 -0.000000 0.000000 
0.000000 0.000000 0.000000 

0.000000 -0.000000 0.000000 
0.000000 -0.000000 0.000000 
0.000000 0.000000 0.000000 

0.000000 -0.000000 0.000000 
0.000000 0.000000 0.000000 
0.000000 0.000000 0.000000 

0.000000 -0.000000 0.000000 
0.000000 -0.000000 0.000000 
0.000000 0.000000 0.000000 

0.000000 0.000000 0.000000 
0.000000 -0.000000 0.000000 
0.000000 0.000000 0.000000 

0.000000 -0.000000 0.000000 
0.000000 -0.000000 0.000000 
0.000000 0.000000 0.000000 

0.000000 -0.000000 0.000000 
0.000000 -0.000000 0.000000 
0.000000 0.000000 0.000000 

0.000000 -0.000000 0.000000 
0.000000 0.000000 0.000000 
0.000000 0.000000 0.000000 

-0.000000 -0.000000 0.000000 
0.000000 -0.000000 0.000000 
0.000000 0.000000 0.000000 

0.000000 0.000000 0.000000 
0.000000 0.000000 0.000000 
0.000000 0.000000 0.000000 

0.000000 0.000000 0.000000 
0.000000 0.000000 0.000000 
0.000000 0.000000 0.000000 

0.000000 0.000000 0.000000 
0.000000 0.000000 0.000000 
0.000000 0.000000 0.000000 

0.000000 0.000000 0.000000 
0.000000 -0.000000 0.000000 
0.000000 0.000000 0.000000 

-0.000000 -0.000000 0.000000 
0.000000 -0.000000 0.000000 
0.000000 0.000000 0.000000 

-0.000000 0.000000 0.000000 
0.000000 0.000000 0.000000 
0.000000 0.000000 0.000000 

-0.000000 -0.000000 0.000000 
0.000000 0.000000 0.000000 
0.000000 0.000000 0.000000 

-0.000000 0.000000 0.000000 
0.000000 0.000000 0.000000 
0.000000 0.000000 0.000000 

0.000000 0.000000 0.000000 
0.000000 0.000000 0.000000 
0.000000 0.000000 0.000000 

0.000000 -0.000000 0.000000 
0.000000 0.000000 0.000000 
0.000000 0.000000 0.000000 

0.000000 0.000000 0.000000 
0.000000 0.000000 0.000000 
0.000000 0.000000 0.000000 

-0.000000 -0.000000 0.000000 
0.000000 0.000000 0.000000 
0.000000 0.000000 0.000000 

0.000000 0.000000 0.000000 
0.000000 -0.000000 0.000000 
0.000000 0.000000 0.000000 

0.000000 0.000000 0.000000 
0.000000 -0.000000 0.000000 
0.000000 0.000000 0.000000 

