# vtk DataFile Version 3.0 
vtk output 
ASCII 
DATASET UNSTRUCTURED_GRID 
POINTS 899 float 
-3.648847 2.272562 0.000000 
-3.619410 2.232010 0.000000 
-3.578536 2.196416 0.000000 
-3.540028 2.160765 0.000000 
-3.511690 2.128569 0.000000 
-3.481362 2.098711 0.000000 
-3.451569 2.058038 0.000000 
0.772356 2.175076 0.000000 
0.774615 2.148955 0.000000 
0.769962 2.120201 0.000000 
-3.399514 2.027762 0.000000 
0.413960 -0.617080 0.000000 
0.455573 -0.612778 0.000000 
-1.762619 -0.516976 0.000000 
-1.783389 -0.481580 0.000000 
-1.714437 -0.452790 0.000000 
0.732567 2.169401 0.000000 
0.698438 2.155565 0.000000 
0.491831 -0.598575 0.000000 
0.519501 -0.568170 0.000000 
0.530556 -0.527723 0.000000 
0.532354 -0.481919 0.000000 
0.531774 -0.431412 0.000000 
-3.460923 1.966029 0.000000 
0.663989 2.133618 0.000000 
0.631675 2.106224 0.000000 
0.601833 2.082168 0.000000 
0.569607 2.058911 0.000000 
0.534059 2.036833 0.000000 
0.492599 2.015693 0.000000 
0.444403 1.997028 0.000000 
0.762807 2.079227 0.000000 
-1.708694 -0.418408 0.000000 
-1.726386 -0.378144 0.000000 
-1.761257 -0.354124 0.000000 
-1.812853 -0.346275 0.000000 
-0.690422 -0.598611 0.000000 
-0.624256 -0.616538 0.000000 
-0.561079 -0.624720 0.000000 
-0.500739 -0.626175 0.000000 
-0.445387 -0.626238 0.000000 
0.532260 -0.372329 0.000000 
0.536647 -0.302995 0.000000 
-1.881389 -0.333775 0.000000 
-0.389303 -0.623963 0.000000 
-0.340338 -0.608678 0.000000 
-0.344339 -0.554543 0.000000 
-0.358558 -0.502003 0.000000 
-0.381750 -0.461092 0.000000 
-0.406193 -0.426917 0.000000 
-0.417316 -0.395419 0.000000 
-0.428320 -0.361162 0.000000 
-0.436973 -0.316898 0.000000 
-0.444212 -0.261355 0.000000 
-0.452662 -0.202497 0.000000 
-0.468602 -0.145598 0.000000 
0.553166 -0.238280 0.000000 
0.573193 -0.180609 0.000000 
0.574450 -0.128869 0.000000 
0.561087 -0.078549 0.000000 
0.550432 -0.023226 0.000000 
0.748903 2.025909 0.000000 
0.730940 1.969416 0.000000 
0.715868 1.923257 0.000000 
0.699446 1.887129 0.000000 
0.684888 1.846140 0.000000 
0.675900 1.799935 0.000000 
0.669871 1.750375 0.000000 
0.664455 1.702518 0.000000 
0.668163 1.656099 0.000000 
0.672091 1.606265 0.000000 
0.674558 1.558242 0.000000 
0.673045 1.508163 0.000000 
0.386491 1.987348 0.000000 
0.664855 1.449424 0.000000 
0.652298 1.391346 0.000000 
0.638456 1.337696 0.000000 
0.623121 1.288186 0.000000 
0.616008 1.245159 0.000000 
0.600787 1.210217 0.000000 
0.571289 1.180768 0.000000 
0.539016 1.149607 0.000000 
0.513857 1.120708 0.000000 
0.493343 1.094472 0.000000 
0.469109 1.076660 0.000000 
0.444920 1.060215 0.000000 
0.415324 1.039250 0.000000 
0.383540 1.014497 0.000000 
0.356179 0.985165 0.000000 
0.343879 0.946265 0.000000 
0.337476 0.900745 0.000000 
0.332404 0.855459 0.000000 
0.328512 0.815769 0.000000 
0.319594 0.779689 0.000000 
0.304149 0.746278 0.000000 
0.290502 0.705887 0.000000 
0.275896 0.658025 0.000000 
0.261905 0.616056 0.000000 
0.250150 0.582461 0.000000 
0.250896 0.544656 0.000000 
0.259587 0.502052 0.000000 
0.284617 0.459279 0.000000 
0.315237 0.429618 0.000000 
0.340022 0.410181 0.000000 
0.354380 0.384332 0.000000 
0.368685 0.357190 0.000000 
0.385568 0.330794 0.000000 
0.415372 0.305997 0.000000 
0.447119 0.274284 0.000000 
0.477633 0.246368 0.000000 
0.503078 0.218431 0.000000 
0.518876 0.180377 0.000000 
0.527127 0.144408 0.000000 
0.534187 0.099863 0.000000 
0.543185 0.039083 0.000000 
0.322519 1.976292 0.000000 
0.263849 1.963175 0.000000 
0.208223 1.957756 0.000000 
0.150441 1.953927 0.000000 
-0.687392 -0.525543 0.000000 
-3.327058 2.001530 0.000000 
-3.276080 1.955108 0.000000 
-3.224941 1.921522 0.000000 
-3.181728 1.892363 0.000000 
-3.135074 1.855433 0.000000 
-3.078123 1.831140 0.000000 
-1.944260 -0.288896 0.000000 
0.083204 1.959083 0.000000 
0.005786 1.953730 0.000000 
-0.071812 1.962969 0.000000 
-0.135705 1.992510 0.000000 
-0.182391 2.034116 0.000000 
-1.999041 -0.217928 0.000000 
-1.843230 -0.492436 0.000000 
-0.491126 -0.081638 0.000000 
-0.512312 -0.008395 0.000000 
-0.526535 0.054438 0.000000 
-0.527935 0.116559 0.000000 
-0.524207 0.183729 0.000000 
-0.505864 0.240861 0.000000 
-0.468875 0.290073 0.000000 
-0.410369 0.319318 0.000000 
-0.354013 0.340435 0.000000 
-0.301050 0.350381 0.000000 
-0.255730 0.351153 0.000000 
-0.695595 -0.447248 0.000000 
-0.726457 -0.370366 0.000000 
-0.747352 -0.300911 0.000000 
-3.396487 1.944394 0.000000 
-3.344056 1.865007 0.000000 
-3.294256 1.821606 0.000000 
-3.248246 1.783281 0.000000 
-3.196818 1.743928 0.000000 
-3.159669 1.692618 0.000000 
-3.113281 1.645913 0.000000 
-3.056061 1.626350 0.000000 
-2.996684 1.603725 0.000000 
-2.933161 1.574109 0.000000 
-2.879064 1.537966 0.000000 
-2.813006 1.513181 0.000000 
-2.751664 1.490130 0.000000 
-2.686782 1.460807 0.000000 
-1.922020 -0.489630 0.000000 
-1.999705 -0.491129 0.000000 
-2.060018 -0.469525 0.000000 
-2.032615 -0.134537 0.000000 
-2.048550 -0.048815 0.000000 
-2.029059 0.017078 0.000000 
-2.105228 -0.412466 0.000000 
-2.154373 -0.344872 0.000000 
-2.203584 -0.290248 0.000000 
-2.237020 -0.228813 0.000000 
-2.250593 -0.163520 0.000000 
-2.270119 -0.091736 0.000000 
-2.297898 -0.021426 0.000000 
-2.327118 0.040154 0.000000 
-2.346747 0.094124 0.000000 
-2.362840 0.147234 0.000000 
-2.374561 0.198278 0.000000 
-2.373128 0.250254 0.000000 
-2.334174 0.316844 0.000000 
-2.331842 0.357462 0.000000 
-2.284565 0.366221 0.000000 
-0.236368 2.083651 0.000000 
-0.299146 2.127478 0.000000 
-0.346614 2.147403 0.000000 
-0.382877 2.110900 0.000000 
-0.412447 2.081850 0.000000 
-0.433989 2.041563 0.000000 
-0.446472 1.998596 0.000000 
-0.451628 1.959278 0.000000 
-0.451047 1.920816 0.000000 
-0.449242 1.884812 0.000000 
-0.453345 1.852923 0.000000 
-0.460251 1.825229 0.000000 
-0.470304 1.796444 0.000000 
-0.475290 1.766954 0.000000 
-0.478341 1.737169 0.000000 
-0.479442 1.700433 0.000000 
-2.609147 1.447018 0.000000 
-2.517189 1.441520 0.000000 
-2.434013 1.441856 0.000000 
-2.352624 1.431825 0.000000 
-2.274410 1.412454 0.000000 
-2.204499 1.377805 0.000000 
-2.180326 1.308922 0.000000 
-2.178559 1.220386 0.000000 
-2.168273 1.130357 0.000000 
-2.159086 1.032293 0.000000 
-2.144575 0.943135 0.000000 
-2.163040 0.867917 0.000000 
-2.183612 0.793826 0.000000 
-2.172907 0.729268 0.000000 
-2.161614 0.666513 0.000000 
-2.169833 0.606401 0.000000 
-2.188987 0.544648 0.000000 
-2.218663 0.493402 0.000000 
-2.229021 0.437529 0.000000 
-2.997130 1.814343 0.000000 
-3.021908 1.716205 0.000000 
-2.902046 1.782836 0.000000 
-0.770600 -0.218317 0.000000 
-0.790096 -0.126659 0.000000 
-0.811857 -0.045951 0.000000 
-0.835807 0.032613 0.000000 
-0.859157 0.102741 0.000000 
-0.881226 0.162792 0.000000 
-0.903169 0.222143 0.000000 
-0.928196 0.286187 0.000000 
-2.785442 1.750283 0.000000 
-2.944278 1.689541 0.000000 
-2.855014 1.652395 0.000000 
-2.796189 1.592315 0.000000 
-2.651235 1.735537 0.000000 
-2.517962 1.725190 0.000000 
-2.394240 1.716027 0.000000 
-2.275192 1.708030 0.000000 
-2.180847 1.683469 0.000000 
-2.099904 1.656990 0.000000 
-2.018420 1.625750 0.000000 
-1.945469 1.630048 0.000000 
-1.885190 1.663387 0.000000 
-1.829736 1.683956 0.000000 
-1.760875 1.709188 0.000000 
-1.680504 1.737612 0.000000 
-1.617798 1.755929 0.000000 
-1.570169 1.770453 0.000000 
-1.527149 1.784643 0.000000 
-1.482581 1.796772 0.000000 
-1.433927 1.803312 0.000000 
-1.386311 1.811227 0.000000 
-1.337319 1.819957 0.000000 
-1.286363 1.827037 0.000000 
-1.235962 1.827755 0.000000 
-1.188452 1.832568 0.000000 
-1.140860 1.842019 0.000000 
-1.091558 1.841328 0.000000 
-1.038962 1.830309 0.000000 
-0.982519 1.811311 0.000000 
-0.922315 1.794569 0.000000 
-0.869867 1.784244 0.000000 
-0.827747 1.777755 0.000000 
-0.785371 1.772843 0.000000 
-0.748025 1.763106 0.000000 
-0.712781 1.752839 0.000000 
-0.681690 1.738907 0.000000 
-0.657198 1.727773 0.000000 
-0.633895 1.721109 0.000000 
-0.612002 1.716654 0.000000 
-0.594184 1.709441 0.000000 
-0.577381 1.699991 0.000000 
-0.560109 1.684708 0.000000 
-0.540091 1.652253 0.000000 
-1.243914 0.013408 0.000000 
-1.232782 0.027124 0.000000 
-1.257376 -0.000946 0.000000 
-1.224378 0.045824 0.000000 
-1.271472 -0.020292 0.000000 
-1.215702 0.067821 0.000000 
-1.204660 0.093877 0.000000 
-1.290143 -0.048034 0.000000 
-1.314447 -0.093073 0.000000 
-1.190204 0.124184 0.000000 
-1.318041 -0.146428 0.000000 
-1.171655 0.158340 0.000000 
-1.149359 0.194654 0.000000 
-1.123094 0.232903 0.000000 
-1.284246 -0.196407 0.000000 
-1.239750 -0.247133 0.000000 
-1.083297 0.276894 0.000000 
-1.028190 0.308566 0.000000 
-1.181630 -0.289490 0.000000 
-1.112789 -0.320917 0.000000 
-1.040643 -0.333088 0.000000 
-0.978118 -0.336174 0.000000 
-0.927392 -0.349200 0.000000 
-0.889718 -0.388334 0.000000 
-0.873564 -0.444885 0.000000 
-0.920771 -0.477079 0.000000 
-0.935346 -0.409810 0.000000 
-0.991249 -0.486655 0.000000 
-1.088918 -0.483926 0.000000 
-1.067426 -0.404274 0.000000 
-1.189474 -0.476363 0.000000 
-1.147229 -0.391607 0.000000 
-1.266509 -0.453073 0.000000 
-1.219913 -0.365430 0.000000 
-1.335307 -0.417246 0.000000 
-1.284456 -0.327431 0.000000 
-1.402357 -0.373343 0.000000 
-1.341444 -0.279630 0.000000 
-1.466758 -0.320667 0.000000 
-1.539152 -0.259868 0.000000 
-1.393011 -0.221699 0.000000 
-1.612839 -0.189596 0.000000 
-1.665320 -0.132018 0.000000 
-1.691220 -0.067192 0.000000 
-1.704696 0.018302 0.000000 
-1.850073 0.185171 0.000000 
-1.911042 0.129346 0.000000 
-1.969645 0.072510 0.000000 
-1.726970 0.124713 0.000000 
-0.222881 0.332543 0.000000 
-0.195707 0.304959 0.000000 
-0.164205 0.268012 0.000000 
-0.127520 0.235314 0.000000 
-0.095686 0.205823 0.000000 
-0.059027 0.177345 0.000000 
-0.018954 0.147361 0.000000 
0.030296 0.116090 0.000000 
0.086536 0.095564 0.000000 
0.141893 0.076833 0.000000 
0.202102 0.047553 0.000000 
0.263408 0.007636 0.000000 
0.311661 -0.042350 0.000000 
0.333954 -0.101973 0.000000 
0.338621 -0.162423 0.000000 
0.341530 -0.216362 0.000000 
0.353165 -0.266550 0.000000 
0.365710 -0.324973 0.000000 
0.363543 -0.394502 0.000000 
0.357353 -0.456616 0.000000 
0.351188 -0.507359 0.000000 
0.363842 -0.554387 0.000000 
-1.737069 -0.421038 0.000000 
-0.199590 0.385160 0.000000 
-0.156305 0.355244 0.000000 
-0.462327 1.621200 0.000000 
0.741313 2.143774 0.000000 
0.482415 -0.565158 0.000000 
0.446104 -0.573054 0.000000 
0.403556 -0.578708 0.000000 
-0.104001 0.327179 0.000000 
-0.514998 1.553254 0.000000 
-0.059937 0.292774 0.000000 
0.738519 2.118509 0.000000 
0.714572 2.130809 0.000000 
-0.249752 0.411983 0.000000 
-0.036232 0.248976 0.000000 
0.000772 0.221143 0.000000 
0.035161 0.195499 0.000000 
-1.776537 -0.420480 0.000000 
-1.836238 -0.416295 0.000000 
-0.309416 0.426083 0.000000 
-0.378944 0.423819 0.000000 
-2.292732 0.303407 0.000000 
-2.315166 0.253416 0.000000 
-2.314418 0.205859 0.000000 
-2.293418 0.159473 0.000000 
-2.279687 0.109594 0.000000 
-2.253462 0.062329 0.000000 
0.075120 0.167756 0.000000 
0.131113 0.155148 0.000000 
-0.977004 0.357132 0.000000 
-0.860050 0.346966 0.000000 
-1.912142 -0.408238 0.000000 
-1.989966 -0.417019 0.000000 
-2.023752 -0.349477 0.000000 
-2.082175 -0.278216 0.000000 
0.723889 2.086996 0.000000 
0.691466 2.105839 0.000000 
0.665980 2.073192 0.000000 
0.704783 2.045924 0.000000 
0.637970 2.035134 0.000000 
0.681732 1.998715 0.000000 
0.670916 1.952540 0.000000 
0.602858 2.003466 0.000000 
0.659584 1.912116 0.000000 
0.560783 1.977095 0.000000 
0.636111 1.876042 0.000000 
0.607495 1.826251 0.000000 
0.595324 1.762770 0.000000 
0.604052 1.698097 0.000000 
0.514160 1.947692 0.000000 
0.453857 1.920247 0.000000 
0.392525 1.918268 0.000000 
0.334098 1.916740 0.000000 
0.278675 1.897986 0.000000 
0.217273 1.879911 0.000000 
0.149449 1.862555 0.000000 
0.614128 1.645822 0.000000 
0.621313 1.598242 0.000000 
0.624262 1.553362 0.000000 
-2.197766 0.009140 0.000000 
-2.158682 -0.065784 0.000000 
-2.124695 0.068470 0.000000 
-2.150589 -0.231910 0.000000 
-2.141926 -0.154364 0.000000 
-0.393439 -0.570924 0.000000 
-0.412631 -0.526881 0.000000 
-0.436983 -0.486278 0.000000 
-0.445953 -0.442858 0.000000 
-0.458251 -0.410032 0.000000 
-0.479726 -0.375266 0.000000 
-0.496934 -0.326535 0.000000 
-0.509002 -0.271451 0.000000 
-0.517157 -0.217121 0.000000 
-0.545309 -0.165845 0.000000 
-0.442273 -0.568319 0.000000 
-0.496002 -0.558801 0.000000 
-0.557668 -0.560908 0.000000 
-0.618975 -0.545428 0.000000 
-0.334659 2.085590 0.000000 
-0.367985 2.055873 0.000000 
-0.385153 2.019447 0.000000 
-0.396797 1.985580 0.000000 
-0.406285 1.950058 0.000000 
-0.402558 1.910925 0.000000 
-0.406645 1.872481 0.000000 
-0.418378 1.840067 0.000000 
-0.428059 1.810942 0.000000 
-0.435849 1.781394 0.000000 
-0.442335 1.751359 0.000000 
-0.445406 1.718294 0.000000 
-0.444483 1.672578 0.000000 
0.619822 1.507630 0.000000 
-1.077870 0.404195 0.000000 
-1.149036 0.362237 0.000000 
-1.174735 0.287394 0.000000 
-1.192231 0.235671 0.000000 
-1.210811 0.193894 0.000000 
-1.228352 0.154555 0.000000 
-1.238869 0.116575 0.000000 
-1.244643 0.085077 0.000000 
-1.248534 0.060176 0.000000 
-1.252336 0.040889 0.000000 
-1.262323 0.027637 0.000000 
-1.280319 0.016721 0.000000 
-0.451814 0.401159 0.000000 
-0.526928 0.357637 0.000000 
0.194935 0.138156 0.000000 
0.069048 1.848456 0.000000 
-0.574175 0.286953 0.000000 
-0.593607 0.205850 0.000000 
-1.764101 0.245535 0.000000 
-2.210991 0.364391 0.000000 
-0.825996 0.261689 0.000000 
-0.799223 0.190609 0.000000 
-0.760911 0.124175 0.000000 
0.605964 1.456679 0.000000 
0.587834 1.399319 0.000000 
0.576354 1.339470 0.000000 
0.574971 1.284462 0.000000 
0.580375 1.241437 0.000000 
0.545179 1.219053 0.000000 
0.509957 1.186791 0.000000 
0.484198 1.150388 0.000000 
0.468721 1.119234 0.000000 
0.449386 1.100703 0.000000 
0.422962 1.088038 0.000000 
0.391379 1.068887 0.000000 
0.357154 1.044823 0.000000 
0.323730 1.016451 0.000000 
-0.582151 -0.104978 0.000000 
0.265957 0.111726 0.000000 
0.333763 0.065597 0.000000 
0.378371 -0.001419 0.000000 
0.400918 -0.075814 0.000000 
0.401084 -0.138803 0.000000 
0.404345 -0.192904 0.000000 
0.432648 -0.243986 0.000000 
0.450030 -0.308427 0.000000 
0.529803 -0.155273 0.000000 
0.491947 -0.203411 0.000000 
0.453243 -0.153527 0.000000 
0.449550 -0.382751 0.000000 
0.498420 -0.109400 0.000000 
0.474171 -0.049459 0.000000 
0.457863 0.025115 0.000000 
0.462195 -0.441405 0.000000 
0.478704 -0.487741 0.000000 
0.483460 -0.528707 0.000000 
0.412910 -0.467046 0.000000 
0.398390 -0.505760 0.000000 
0.404290 -0.540047 0.000000 
0.442452 -0.535489 0.000000 
0.436659 -0.500325 0.000000 
-0.727378 0.050042 0.000000 
-0.616071 0.132061 0.000000 
-0.623548 0.057780 0.000000 
-0.605779 -0.023228 0.000000 
-0.706340 -0.035676 0.000000 
-0.681483 -0.121938 0.000000 
-0.032304 1.842895 0.000000 
-0.128010 1.879044 0.000000 
-0.195732 1.946168 0.000000 
-0.243911 2.000082 0.000000 
-0.287859 2.047486 0.000000 
-0.335518 2.019790 0.000000 
-0.667608 -0.207319 0.000000 
-0.584906 -0.214086 0.000000 
-0.658169 -0.287327 0.000000 
-0.578442 -0.279457 0.000000 
-0.639050 -0.358770 0.000000 
-0.607982 -0.434287 0.000000 
-0.562541 -0.342156 0.000000 
-0.536184 -0.403180 0.000000 
-0.495978 -0.441141 0.000000 
-0.500680 -0.493536 0.000000 
-0.573051 -0.497989 0.000000 
-2.690892 1.616189 0.000000 
-2.684799 1.530176 0.000000 
-2.602920 1.528914 0.000000 
-2.574381 1.613907 0.000000 
-2.518122 1.548782 0.000000 
-2.424460 1.572680 0.000000 
-2.320006 1.563748 0.000000 
-2.229986 1.540131 0.000000 
-2.146342 1.498891 0.000000 
-1.455055 -0.162718 0.000000 
-1.387692 -0.082394 0.000000 
-1.339496 -0.029066 0.000000 
-1.304977 -0.000506 0.000000 
-1.531301 -0.097225 0.000000 
-1.604385 -0.053112 0.000000 
-1.592423 0.047568 0.000000 
-1.608296 0.171531 0.000000 
-1.827918 0.369977 0.000000 
0.477873 0.138780 0.000000 
0.477147 0.173678 0.000000 
0.465631 0.207918 0.000000 
-0.587742 1.652128 0.000000 
-0.593403 1.676231 0.000000 
-0.604579 1.688887 0.000000 
-0.619289 1.694573 0.000000 
-0.639577 1.692400 0.000000 
-0.665912 1.694016 0.000000 
-0.697937 1.701003 0.000000 
-0.595692 1.598639 0.000000 
-0.726123 1.715814 0.000000 
-0.757398 1.726385 0.000000 
-0.794522 1.723810 0.000000 
-0.841416 1.721232 0.000000 
-0.894922 1.722592 0.000000 
-0.956071 1.731008 0.000000 
-1.020951 1.749930 0.000000 
-1.077937 1.777564 0.000000 
-1.120258 1.806293 0.000000 
-1.171769 1.782032 0.000000 
0.332207 0.335423 0.000000 
0.333662 0.293688 0.000000 
0.321472 0.364040 0.000000 
0.302407 0.390853 0.000000 
0.214022 0.405515 0.000000 
0.194081 0.466539 0.000000 
0.186716 0.522052 0.000000 
0.189303 0.574824 0.000000 
0.360023 0.254007 0.000000 
0.405131 0.228873 0.000000 
0.201671 0.624070 0.000000 
0.218038 0.674331 0.000000 
0.236652 0.723265 0.000000 
0.256885 0.765199 0.000000 
0.278373 0.793693 0.000000 
0.284019 0.827091 0.000000 
0.276718 0.873838 0.000000 
0.278735 0.930651 0.000000 
0.296322 0.980919 0.000000 
-1.507867 1.733790 0.000000 
-1.548116 1.709148 0.000000 
-1.598023 1.681768 0.000000 
-1.467251 1.748564 0.000000 
-1.422160 1.755847 0.000000 
-1.373311 1.762564 0.000000 
-1.322903 1.770340 0.000000 
-1.275577 1.779586 0.000000 
-1.225048 1.778187 0.000000 
-1.662214 1.658099 0.000000 
-1.732600 1.638159 0.000000 
-1.794687 1.623784 0.000000 
-1.841773 1.594597 0.000000 
-2.078405 0.661869 0.000000 
-2.079214 0.740459 0.000000 
-2.097651 0.584269 0.000000 
-2.129318 0.512530 0.000000 
-2.096743 0.821021 0.000000 
-2.169699 0.457187 0.000000 
-1.991686 0.384187 0.000000 
-1.642187 0.309743 0.000000 
-1.989898 0.216962 0.000000 
-2.064526 0.145149 0.000000 
-1.914688 0.290496 0.000000 
-2.037969 1.073573 0.000000 
-2.021377 0.957888 0.000000 
-2.055796 1.202735 0.000000 
-2.102728 1.305388 0.000000 
-2.047875 1.447690 0.000000 
0.428030 0.194421 0.000000 
0.375625 0.173185 0.000000 
0.313454 0.186286 0.000000 
0.290352 0.332321 0.000000 
0.238487 1.043238 0.000000 
0.440631 0.156313 0.000000 
0.396678 0.116536 0.000000 
0.460488 0.090616 0.000000 
0.523747 1.266728 0.000000 
-2.262588 0.229983 0.000000 
-2.220468 0.286010 0.000000 
-2.218579 0.176472 0.000000 
-2.146376 0.228322 0.000000 
-2.206503 0.111401 0.000000 
0.473879 1.228116 0.000000 
0.446488 1.175785 0.000000 
0.440978 1.131766 0.000000 
0.409581 1.123911 0.000000 
0.629179 1.952806 0.000000 
0.593839 1.920333 0.000000 
0.550362 1.876129 0.000000 
0.483841 1.835706 0.000000 
0.202470 0.976874 0.000000 
0.241245 0.829098 0.000000 
0.205152 0.804298 0.000000 
0.175878 0.756157 0.000000 
0.153326 0.697651 0.000000 
0.132079 0.637201 0.000000 
0.113278 0.572745 0.000000 
0.106000 0.504422 0.000000 
0.109640 0.435225 0.000000 
0.121648 0.364547 0.000000 
0.032483 0.274933 0.000000 
0.246820 0.357611 0.000000 
0.099619 0.223298 0.000000 
0.373127 1.109028 0.000000 
-0.307911 1.972168 0.000000 
-0.360136 1.953699 0.000000 
-0.343252 1.899353 0.000000 
-0.270247 1.907497 0.000000 
0.168337 0.219817 0.000000 
0.242346 0.209479 0.000000 
0.270369 0.278516 0.000000 
0.505525 1.334489 0.000000 
-0.689828 0.161744 0.000000 
-0.729540 0.219148 0.000000 
-0.746154 0.293621 0.000000 
-0.657668 0.310185 0.000000 
-0.661195 0.225898 0.000000 
-0.924642 0.462861 0.000000 
-1.137284 1.726224 0.000000 
-1.072920 1.681630 0.000000 
-1.248127 1.738521 0.000000 
-1.304069 1.722199 0.000000 
-1.360197 1.714539 0.000000 
-1.411221 1.710399 0.000000 
-1.453165 1.707169 0.000000 
-1.486003 1.689707 0.000000 
-1.510814 1.646238 0.000000 
-1.558800 1.601569 0.000000 
-0.995058 1.654877 0.000000 
-0.919611 1.644401 0.000000 
-0.852227 1.651333 0.000000 
-0.796966 1.667851 0.000000 
-0.752732 1.687020 0.000000 
-1.635591 1.574236 0.000000 
-1.992480 0.848938 0.000000 
-1.965104 0.739158 0.000000 
-1.974377 0.635826 0.000000 
-2.014368 0.542204 0.000000 
-2.065453 0.459018 0.000000 
-2.071492 0.305951 0.000000 
-2.131272 0.389487 0.000000 
-1.712039 1.560913 0.000000 
-1.781280 1.560864 0.000000 
-1.884796 1.530807 0.000000 
0.516332 1.750470 0.000000 
0.538779 1.679341 0.000000 
0.517174 1.408875 0.000000 
0.552532 1.470811 0.000000 
0.576896 1.512738 0.000000 
0.583356 1.549764 0.000000 
0.576083 1.586768 0.000000 
0.562288 1.629128 0.000000 
-0.776910 0.390234 0.000000 
-1.451771 -0.022913 0.000000 
-1.374596 0.014870 0.000000 
-1.326837 0.030330 0.000000 
-1.272657 0.045528 0.000000 
-1.295259 0.039759 0.000000 
-1.274719 0.067063 0.000000 
-1.277356 0.094166 0.000000 
-1.282752 0.129249 0.000000 
-1.279912 0.177024 0.000000 
-1.259061 0.220820 0.000000 
-1.246354 0.262313 0.000000 
-1.247511 0.317283 0.000000 
-1.260959 0.405914 0.000000 
-1.083075 0.576187 0.000000 
-1.474179 0.071598 0.000000 
-1.468523 0.197255 0.000000 
-1.714576 0.465010 0.000000 
-1.917838 0.471635 0.000000 
-1.479337 0.347108 0.000000 
-1.929043 1.403504 0.000000 
-1.933932 1.241162 0.000000 
-1.916094 1.101472 0.000000 
-1.891356 0.982189 0.000000 
-0.640008 1.657935 0.000000 
-0.671120 1.650912 0.000000 
-0.705575 1.657330 0.000000 
-0.401264 1.521213 0.000000 
-0.460851 1.365089 0.000000 
-0.397949 1.634684 0.000000 
-0.609239 1.652413 0.000000 
-0.410298 1.698817 0.000000 
-0.408964 1.733633 0.000000 
-0.399540 1.762752 0.000000 
-0.395782 1.795619 0.000000 
0.285100 1.077479 0.000000 
0.331625 1.094784 0.000000 
-0.121818 0.413345 0.000000 
0.021900 0.335998 0.000000 
0.115588 0.289761 0.000000 
0.198863 0.291714 0.000000 
-0.064867 0.392520 0.000000 
0.364707 1.860672 0.000000 
0.303732 1.829592 0.000000 
0.240047 1.798884 0.000000 
0.172732 1.760589 0.000000 
0.087651 1.720256 0.000000 
-0.030041 1.695510 0.000000 
-0.215594 1.818961 0.000000 
-0.230359 0.495442 0.000000 
-0.307828 0.529607 0.000000 
-0.401252 0.540478 0.000000 
-0.492206 0.512232 0.000000 
-0.743012 1.643789 0.000000 
-0.382985 1.822483 0.000000 
-0.353471 1.851227 0.000000 
-1.315709 0.256540 0.000000 
-1.343314 0.338460 0.000000 
-0.721193 1.602276 0.000000 
-0.632022 1.613204 0.000000 
-0.618292 1.671927 0.000000 
-1.300529 0.065252 0.000000 
-1.311319 0.091497 0.000000 
-0.675320 1.589742 0.000000 
-1.449691 1.666446 0.000000 
-0.167828 0.454197 0.000000 
-0.066773 0.470240 0.000000 
0.014030 0.407442 0.000000 
-1.331624 0.066632 0.000000 
-1.380062 0.080536 0.000000 
-1.340869 0.125240 0.000000 
-1.353905 0.195448 0.000000 
0.406993 1.172175 0.000000 
-1.403597 1.664933 0.000000 
0.364934 1.162127 0.000000 
-1.348692 1.665653 0.000000 
0.247855 1.175133 0.000000 
0.315701 1.171738 0.000000 
0.207111 0.896665 0.000000 
0.143206 0.875789 0.000000 
-1.453768 1.614170 0.000000 
-0.790281 1.602148 0.000000 
-1.284745 1.669324 0.000000 
-1.791133 1.481796 0.000000 
-1.698001 1.466004 0.000000 
-1.602996 1.471195 0.000000 
-1.509140 1.502064 0.000000 
-1.850904 0.862229 0.000000 
0.171486 1.146381 0.000000 
0.103791 0.804549 0.000000 
0.081732 0.730835 0.000000 
0.012465 0.493974 0.000000 
0.056973 0.659903 0.000000 
-0.859037 1.558716 0.000000 
-0.947148 1.542765 0.000000 
-1.042292 1.565413 0.000000 
-1.207800 1.688354 0.000000 
0.405236 1.797134 0.000000 
0.432576 1.706131 0.000000 
0.470249 1.638386 0.000000 
0.516988 1.601943 0.000000 
0.538064 1.568444 0.000000 
0.548893 1.534529 0.000000 
0.511168 1.504428 0.000000 
0.447440 1.457893 0.000000 
0.336576 1.764265 0.000000 
0.352905 1.684987 0.000000 
0.280111 1.726007 0.000000 
0.425405 1.557101 0.000000 
0.495333 1.555284 0.000000 
0.435871 1.291869 0.000000 
-0.582540 0.457908 0.000000 
-1.810838 0.717015 0.000000 
-1.837718 0.579194 0.000000 
0.231389 1.659066 0.000000 
-0.169223 1.676960 0.000000 
-0.358516 1.787981 0.000000 
-0.831990 0.514315 0.000000 
-0.676614 0.417997 0.000000 
-0.304985 1.796593 0.000000 
0.154076 1.569020 0.000000 
0.032165 1.503139 0.000000 
-1.118654 1.607952 0.000000 
-1.306357 0.586183 0.000000 
-1.538817 0.535148 0.000000 
-1.801087 1.366400 0.000000 
-1.802902 1.231865 0.000000 
-1.804665 1.112516 0.000000 
-1.777440 1.008870 0.000000 
-0.986798 0.805850 0.000000 
-0.372825 1.699431 0.000000 
-0.323929 1.621675 0.000000 
-0.283612 1.690671 0.000000 
-0.355311 1.737379 0.000000 
-0.277653 1.448816 0.000000 
-0.126264 1.457592 0.000000 
-0.312271 1.201956 0.000000 
-0.289946 0.662086 0.000000 
-0.193810 0.596679 0.000000 
-0.423907 0.705622 0.000000 
-0.114792 0.534449 0.000000 
-0.535770 0.660202 0.000000 
-1.422411 1.537126 0.000000 
-1.396637 1.619220 0.000000 
0.101283 1.075141 0.000000 
0.384708 1.225775 0.000000 
-0.765487 1.531073 0.000000 
0.024488 0.580488 0.000000 
-1.685710 1.344806 0.000000 
-0.851171 1.433344 0.000000 
-0.603497 1.482119 0.000000 
-0.978154 1.401177 0.000000 
-0.699634 1.484614 0.000000 
-1.566560 1.338839 0.000000 
0.324386 1.272283 0.000000 
0.225177 1.317491 0.000000 
0.103404 1.313337 0.000000 
0.264525 1.459982 0.000000 
0.375524 1.380253 0.000000 
-0.722859 0.543585 0.000000 
-0.804099 0.676445 0.000000 
-0.630108 0.587997 0.000000 
-1.342192 1.616898 0.000000 
-1.445045 1.371759 0.000000 
0.042573 0.974048 0.000000 
-1.197152 1.619246 0.000000 
-1.275712 1.608435 0.000000 
0.009788 0.860434 0.000000 
0.007428 0.766539 0.000000 
-1.624661 0.734942 0.000000 
-1.706493 0.901070 0.000000 
-0.014319 0.694995 0.000000 
-0.059935 0.619396 0.000000 
-0.139952 0.700031 0.000000 
-0.233328 0.822196 0.000000 
-0.073092 0.767116 0.000000 
-0.121108 0.896972 0.000000 
-0.119730 1.091550 0.000000 
-0.398430 0.944975 0.000000 
-0.026441 1.243300 0.000000 
-1.679294 1.206951 0.000000 
-1.698733 1.085214 0.000000 
-1.219031 0.991550 0.000000 
-0.854674 1.077344 0.000000 
-0.658235 0.752056 0.000000 
-0.623629 0.994251 0.000000 
-0.765556 1.318910 0.000000 
-0.596319 1.276218 0.000000 
-1.360217 1.571282 0.000000 
-1.334110 1.447120 0.000000 
-1.529501 1.167002 0.000000 
-1.363780 1.202939 0.000000 
-1.571029 1.005676 0.000000 
-1.188333 1.538971 0.000000 
-1.056334 1.208814 0.000000 
-1.217896 1.338073 0.000000 
-1.279678 1.533159 0.000000 
-0.993027 -0.408845 0.000000 
-3.091970 1.732689 0.000000 
-1.410358 0.834407 0.000000 
-1.115382 1.461396 0.000000 
0.330018 1.583815 0.000000 
-0.391446 2.143583 0.000000 
-1.734831 -0.477993 0.000000 
-2.357079 0.336452 0.000000 
-3.441445 1.920022 0.000000 
-2.367134 0.299228 0.000000 
-3.393690 1.894043 0.000000 
CELLS 899 1798 
1 0 
1 1 
1 2 
1 3 
1 4 
1 5 
1 6 
1 7 
1 8 
1 9 
1 10 
1 11 
1 12 
1 13 
1 14 
1 15 
1 16 
1 17 
1 18 
1 19 
1 20 
1 21 
1 22 
1 23 
1 24 
1 25 
1 26 
1 27 
1 28 
1 29 
1 30 
1 31 
1 32 
1 33 
1 34 
1 35 
1 36 
1 37 
1 38 
1 39 
1 40 
1 41 
1 42 
1 43 
1 44 
1 45 
1 46 
1 47 
1 48 
1 49 
1 50 
1 51 
1 52 
1 53 
1 54 
1 55 
1 56 
1 57 
1 58 
1 59 
1 60 
1 61 
1 62 
1 63 
1 64 
1 65 
1 66 
1 67 
1 68 
1 69 
1 70 
1 71 
1 72 
1 73 
1 74 
1 75 
1 76 
1 77 
1 78 
1 79 
1 80 
1 81 
1 82 
1 83 
1 84 
1 85 
1 86 
1 87 
1 88 
1 89 
1 90 
1 91 
1 92 
1 93 
1 94 
1 95 
1 96 
1 97 
1 98 
1 99 
1 100 
1 101 
1 102 
1 103 
1 104 
1 105 
1 106 
1 107 
1 108 
1 109 
1 110 
1 111 
1 112 
1 113 
1 114 
1 115 
1 116 
1 117 
1 118 
1 119 
1 120 
1 121 
1 122 
1 123 
1 124 
1 125 
1 126 
1 127 
1 128 
1 129 
1 130 
1 131 
1 132 
1 133 
1 134 
1 135 
1 136 
1 137 
1 138 
1 139 
1 140 
1 141 
1 142 
1 143 
1 144 
1 145 
1 146 
1 147 
1 148 
1 149 
1 150 
1 151 
1 152 
1 153 
1 154 
1 155 
1 156 
1 157 
1 158 
1 159 
1 160 
1 161 
1 162 
1 163 
1 164 
1 165 
1 166 
1 167 
1 168 
1 169 
1 170 
1 171 
1 172 
1 173 
1 174 
1 175 
1 176 
1 177 
1 178 
1 179 
1 180 
1 181 
1 182 
1 183 
1 184 
1 185 
1 186 
1 187 
1 188 
1 189 
1 190 
1 191 
1 192 
1 193 
1 194 
1 195 
1 196 
1 197 
1 198 
1 199 
1 200 
1 201 
1 202 
1 203 
1 204 
1 205 
1 206 
1 207 
1 208 
1 209 
1 210 
1 211 
1 212 
1 213 
1 214 
1 215 
1 216 
1 217 
1 218 
1 219 
1 220 
1 221 
1 222 
1 223 
1 224 
1 225 
1 226 
1 227 
1 228 
1 229 
1 230 
1 231 
1 232 
1 233 
1 234 
1 235 
1 236 
1 237 
1 238 
1 239 
1 240 
1 241 
1 242 
1 243 
1 244 
1 245 
1 246 
1 247 
1 248 
1 249 
1 250 
1 251 
1 252 
1 253 
1 254 
1 255 
1 256 
1 257 
1 258 
1 259 
1 260 
1 261 
1 262 
1 263 
1 264 
1 265 
1 266 
1 267 
1 268 
1 269 
1 270 
1 271 
1 272 
1 273 
1 274 
1 275 
1 276 
1 277 
1 278 
1 279 
1 280 
1 281 
1 282 
1 283 
1 284 
1 285 
1 286 
1 287 
1 288 
1 289 
1 290 
1 291 
1 292 
1 293 
1 294 
1 295 
1 296 
1 297 
1 298 
1 299 
1 300 
1 301 
1 302 
1 303 
1 304 
1 305 
1 306 
1 307 
1 308 
1 309 
1 310 
1 311 
1 312 
1 313 
1 314 
1 315 
1 316 
1 317 
1 318 
1 319 
1 320 
1 321 
1 322 
1 323 
1 324 
1 325 
1 326 
1 327 
1 328 
1 329 
1 330 
1 331 
1 332 
1 333 
1 334 
1 335 
1 336 
1 337 
1 338 
1 339 
1 340 
1 341 
1 342 
1 343 
1 344 
1 345 
1 346 
1 347 
1 348 
1 349 
1 350 
1 351 
1 352 
1 353 
1 354 
1 355 
1 356 
1 357 
1 358 
1 359 
1 360 
1 361 
1 362 
1 363 
1 364 
1 365 
1 366 
1 367 
1 368 
1 369 
1 370 
1 371 
1 372 
1 373 
1 374 
1 375 
1 376 
1 377 
1 378 
1 379 
1 380 
1 381 
1 382 
1 383 
1 384 
1 385 
1 386 
1 387 
1 388 
1 389 
1 390 
1 391 
1 392 
1 393 
1 394 
1 395 
1 396 
1 397 
1 398 
1 399 
1 400 
1 401 
1 402 
1 403 
1 404 
1 405 
1 406 
1 407 
1 408 
1 409 
1 410 
1 411 
1 412 
1 413 
1 414 
1 415 
1 416 
1 417 
1 418 
1 419 
1 420 
1 421 
1 422 
1 423 
1 424 
1 425 
1 426 
1 427 
1 428 
1 429 
1 430 
1 431 
1 432 
1 433 
1 434 
1 435 
1 436 
1 437 
1 438 
1 439 
1 440 
1 441 
1 442 
1 443 
1 444 
1 445 
1 446 
1 447 
1 448 
1 449 
1 450 
1 451 
1 452 
1 453 
1 454 
1 455 
1 456 
1 457 
1 458 
1 459 
1 460 
1 461 
1 462 
1 463 
1 464 
1 465 
1 466 
1 467 
1 468 
1 469 
1 470 
1 471 
1 472 
1 473 
1 474 
1 475 
1 476 
1 477 
1 478 
1 479 
1 480 
1 481 
1 482 
1 483 
1 484 
1 485 
1 486 
1 487 
1 488 
1 489 
1 490 
1 491 
1 492 
1 493 
1 494 
1 495 
1 496 
1 497 
1 498 
1 499 
1 500 
1 501 
1 502 
1 503 
1 504 
1 505 
1 506 
1 507 
1 508 
1 509 
1 510 
1 511 
1 512 
1 513 
1 514 
1 515 
1 516 
1 517 
1 518 
1 519 
1 520 
1 521 
1 522 
1 523 
1 524 
1 525 
1 526 
1 527 
1 528 
1 529 
1 530 
1 531 
1 532 
1 533 
1 534 
1 535 
1 536 
1 537 
1 538 
1 539 
1 540 
1 541 
1 542 
1 543 
1 544 
1 545 
1 546 
1 547 
1 548 
1 549 
1 550 
1 551 
1 552 
1 553 
1 554 
1 555 
1 556 
1 557 
1 558 
1 559 
1 560 
1 561 
1 562 
1 563 
1 564 
1 565 
1 566 
1 567 
1 568 
1 569 
1 570 
1 571 
1 572 
1 573 
1 574 
1 575 
1 576 
1 577 
1 578 
1 579 
1 580 
1 581 
1 582 
1 583 
1 584 
1 585 
1 586 
1 587 
1 588 
1 589 
1 590 
1 591 
1 592 
1 593 
1 594 
1 595 
1 596 
1 597 
1 598 
1 599 
1 600 
1 601 
1 602 
1 603 
1 604 
1 605 
1 606 
1 607 
1 608 
1 609 
1 610 
1 611 
1 612 
1 613 
1 614 
1 615 
1 616 
1 617 
1 618 
1 619 
1 620 
1 621 
1 622 
1 623 
1 624 
1 625 
1 626 
1 627 
1 628 
1 629 
1 630 
1 631 
1 632 
1 633 
1 634 
1 635 
1 636 
1 637 
1 638 
1 639 
1 640 
1 641 
1 642 
1 643 
1 644 
1 645 
1 646 
1 647 
1 648 
1 649 
1 650 
1 651 
1 652 
1 653 
1 654 
1 655 
1 656 
1 657 
1 658 
1 659 
1 660 
1 661 
1 662 
1 663 
1 664 
1 665 
1 666 
1 667 
1 668 
1 669 
1 670 
1 671 
1 672 
1 673 
1 674 
1 675 
1 676 
1 677 
1 678 
1 679 
1 680 
1 681 
1 682 
1 683 
1 684 
1 685 
1 686 
1 687 
1 688 
1 689 
1 690 
1 691 
1 692 
1 693 
1 694 
1 695 
1 696 
1 697 
1 698 
1 699 
1 700 
1 701 
1 702 
1 703 
1 704 
1 705 
1 706 
1 707 
1 708 
1 709 
1 710 
1 711 
1 712 
1 713 
1 714 
1 715 
1 716 
1 717 
1 718 
1 719 
1 720 
1 721 
1 722 
1 723 
1 724 
1 725 
1 726 
1 727 
1 728 
1 729 
1 730 
1 731 
1 732 
1 733 
1 734 
1 735 
1 736 
1 737 
1 738 
1 739 
1 740 
1 741 
1 742 
1 743 
1 744 
1 745 
1 746 
1 747 
1 748 
1 749 
1 750 
1 751 
1 752 
1 753 
1 754 
1 755 
1 756 
1 757 
1 758 
1 759 
1 760 
1 761 
1 762 
1 763 
1 764 
1 765 
1 766 
1 767 
1 768 
1 769 
1 770 
1 771 
1 772 
1 773 
1 774 
1 775 
1 776 
1 777 
1 778 
1 779 
1 780 
1 781 
1 782 
1 783 
1 784 
1 785 
1 786 
1 787 
1 788 
1 789 
1 790 
1 791 
1 792 
1 793 
1 794 
1 795 
1 796 
1 797 
1 798 
1 799 
1 800 
1 801 
1 802 
1 803 
1 804 
1 805 
1 806 
1 807 
1 808 
1 809 
1 810 
1 811 
1 812 
1 813 
1 814 
1 815 
1 816 
1 817 
1 818 
1 819 
1 820 
1 821 
1 822 
1 823 
1 824 
1 825 
1 826 
1 827 
1 828 
1 829 
1 830 
1 831 
1 832 
1 833 
1 834 
1 835 
1 836 
1 837 
1 838 
1 839 
1 840 
1 841 
1 842 
1 843 
1 844 
1 845 
1 846 
1 847 
1 848 
1 849 
1 850 
1 851 
1 852 
1 853 
1 854 
1 855 
1 856 
1 857 
1 858 
1 859 
1 860 
1 861 
1 862 
1 863 
1 864 
1 865 
1 866 
1 867 
1 868 
1 869 
1 870 
1 871 
1 872 
1 873 
1 874 
1 875 
1 876 
1 877 
1 878 
1 879 
1 880 
1 881 
1 882 
1 883 
1 884 
1 885 
1 886 
1 887 
1 888 
1 889 
1 890 
1 891 
1 892 
1 893 
1 894 
1 895 
1 896 
1 897 
1 898 
CELL_TYPES 899 
1 
1 
1 
1 
1 
1 
1 
1 
1 
1 
1 
1 
1 
1 
1 
1 
1 
1 
1 
1 
1 
1 
1 
1 
1 
1 
1 
1 
1 
1 
1 
1 
1 
1 
1 
1 
1 
1 
1 
1 
1 
1 
1 
1 
1 
1 
1 
1 
1 
1 
1 
1 
1 
1 
1 
1 
1 
1 
1 
1 
1 
1 
1 
1 
1 
1 
1 
1 
1 
1 
1 
1 
1 
1 
1 
1 
1 
1 
1 
1 
1 
1 
1 
1 
1 
1 
1 
1 
1 
1 
1 
1 
1 
1 
1 
1 
1 
1 
1 
1 
1 
1 
1 
1 
1 
1 
1 
1 
1 
1 
1 
1 
1 
1 
1 
1 
1 
1 
1 
1 
1 
1 
1 
1 
1 
1 
1 
1 
1 
1 
1 
1 
1 
1 
1 
1 
1 
1 
1 
1 
1 
1 
1 
1 
1 
1 
1 
1 
1 
1 
1 
1 
1 
1 
1 
1 
1 
1 
1 
1 
1 
1 
1 
1 
1 
1 
1 
1 
1 
1 
1 
1 
1 
1 
1 
1 
1 
1 
1 
1 
1 
1 
1 
1 
1 
1 
1 
1 
1 
1 
1 
1 
1 
1 
1 
1 
1 
1 
1 
1 
1 
1 
1 
1 
1 
1 
1 
1 
1 
1 
1 
1 
1 
1 
1 
1 
1 
1 
1 
1 
1 
1 
1 
1 
1 
1 
1 
1 
1 
1 
1 
1 
1 
1 
1 
1 
1 
1 
1 
1 
1 
1 
1 
1 
1 
1 
1 
1 
1 
1 
1 
1 
1 
1 
1 
1 
1 
1 
1 
1 
1 
1 
1 
1 
1 
1 
1 
1 
1 
1 
1 
1 
1 
1 
1 
1 
1 
1 
1 
1 
1 
1 
1 
1 
1 
1 
1 
1 
1 
1 
1 
1 
1 
1 
1 
1 
1 
1 
1 
1 
1 
1 
1 
1 
1 
1 
1 
1 
1 
1 
1 
1 
1 
1 
1 
1 
1 
1 
1 
1 
1 
1 
1 
1 
1 
1 
1 
1 
1 
1 
1 
1 
1 
1 
1 
1 
1 
1 
1 
1 
1 
1 
1 
1 
1 
1 
1 
1 
1 
1 
1 
1 
1 
1 
1 
1 
1 
1 
1 
1 
1 
1 
1 
1 
1 
1 
1 
1 
1 
1 
1 
1 
1 
1 
1 
1 
1 
1 
1 
1 
1 
1 
1 
1 
1 
1 
1 
1 
1 
1 
1 
1 
1 
1 
1 
1 
1 
1 
1 
1 
1 
1 
1 
1 
1 
1 
1 
1 
1 
1 
1 
1 
1 
1 
1 
1 
1 
1 
1 
1 
1 
1 
1 
1 
1 
1 
1 
1 
1 
1 
1 
1 
1 
1 
1 
1 
1 
1 
1 
1 
1 
1 
1 
1 
1 
1 
1 
1 
1 
1 
1 
1 
1 
1 
1 
1 
1 
1 
1 
1 
1 
1 
1 
1 
1 
1 
1 
1 
1 
1 
1 
1 
1 
1 
1 
1 
1 
1 
1 
1 
1 
1 
1 
1 
1 
1 
1 
1 
1 
1 
1 
1 
1 
1 
1 
1 
1 
1 
1 
1 
1 
1 
1 
1 
1 
1 
1 
1 
1 
1 
1 
1 
1 
1 
1 
1 
1 
1 
1 
1 
1 
1 
1 
1 
1 
1 
1 
1 
1 
1 
1 
1 
1 
1 
1 
1 
1 
1 
1 
1 
1 
1 
1 
1 
1 
1 
1 
1 
1 
1 
1 
1 
1 
1 
1 
1 
1 
1 
1 
1 
1 
1 
1 
1 
1 
1 
1 
1 
1 
1 
1 
1 
1 
1 
1 
1 
1 
1 
1 
1 
1 
1 
1 
1 
1 
1 
1 
1 
1 
1 
1 
1 
1 
1 
1 
1 
1 
1 
1 
1 
1 
1 
1 
1 
1 
1 
1 
1 
1 
1 
1 
1 
1 
1 
1 
1 
1 
1 
1 
1 
1 
1 
1 
1 
1 
1 
1 
1 
1 
1 
1 
1 
1 
1 
1 
1 
1 
1 
1 
1 
1 
1 
1 
1 
1 
1 
1 
1 
1 
1 
1 
1 
1 
1 
1 
1 
1 
1 
1 
1 
1 
1 
1 
1 
1 
1 
1 
1 
1 
1 
1 
1 
1 
1 
1 
1 
1 
1 
1 
1 
1 
1 
1 
1 
1 
1 
1 
1 
1 
1 
1 
1 
1 
1 
1 
1 
1 
1 
1 
1 
1 
1 
1 
1 
1 
1 
1 
1 
1 
1 
1 
1 
1 
1 
1 
1 
1 
1 
1 
1 
1 
1 
1 
1 
1 
1 
1 
1 
1 
1 
1 
1 
1 
1 
1 
1 
1 
1 
1 
1 
1 
1 
1 
1 
1 
1 
1 
1 
1 
1 
1 
1 
1 
1 
1 
1 
1 
1 
1 
1 
1 
1 
1 
1 
1 
1 
1 
1 
1 
1 
1 
1 
1 
1 
1 
1 
1 
1 
1 
1 
1 
1 
1 
1 
1 
1 
1 
1 
1 
1 
1 
1 
1 
1 
1 
1 
1 
1 
1 
1 
1 
1 
1 
1 
1 
1 
1 
1 
1 
1 
1 
1 
1 
1 
1 
1 
1 
1 
1 
1 
1 
1 
1 
1 
1 
1 
1 
1 
1 
1 
1 
1 
1 
1 
1 
1 
1 
1 
1 
1 
1 
1 
1 
1 
1 
1 
1 
1 
1 
1 
1 
1 
1 
1 
1 
1 
1 
1 
1 
1 
1 
1 
1 
1 
1 
1 
1 
1 
1 
1 
1 
1 
1 
1 
1 
1 
1 
1 
1 
1 
1 
1 
1 
1 
1 
1 
1 
1 
1 
1 
1 
1 
1 
1 
1 
1 
1 
1 
1 
POINT_DATA 899 
VECTORS X_GC float 
-3.648847 2.272562 0.000000 
-3.619410 2.232010 0.000000 
-3.578536 2.196416 0.000000 
-3.540028 2.160765 0.000000 
-3.511690 2.128569 0.000000 
-3.481362 2.098711 0.000000 
-3.451569 2.058038 0.000000 
0.772356 2.175076 0.000000 
0.774615 2.148955 0.000000 
0.769962 2.120201 0.000000 
-3.399514 2.027762 0.000000 
0.413960 -0.617080 0.000000 
0.455573 -0.612778 0.000000 
-1.762619 -0.516976 0.000000 
-1.783389 -0.481580 0.000000 
-1.714437 -0.452790 0.000000 
0.732567 2.169401 0.000000 
0.698438 2.155565 0.000000 
0.491831 -0.598575 0.000000 
0.519501 -0.568170 0.000000 
0.530556 -0.527723 0.000000 
0.532354 -0.481919 0.000000 
0.531774 -0.431412 0.000000 
-3.460923 1.966029 0.000000 
0.663989 2.133618 0.000000 
0.631675 2.106224 0.000000 
0.601833 2.082168 0.000000 
0.569607 2.058911 0.000000 
0.534059 2.036833 0.000000 
0.492599 2.015693 0.000000 
0.444403 1.997028 0.000000 
0.762807 2.079227 0.000000 
-1.708694 -0.418408 0.000000 
-1.726386 -0.378144 0.000000 
-1.761257 -0.354124 0.000000 
-1.812853 -0.346275 0.000000 
-0.690422 -0.598611 0.000000 
-0.624256 -0.616538 0.000000 
-0.561079 -0.624720 0.000000 
-0.500739 -0.626175 0.000000 
-0.445387 -0.626238 0.000000 
0.532260 -0.372329 0.000000 
0.536647 -0.302995 0.000000 
-1.881389 -0.333775 0.000000 
-0.389303 -0.623963 0.000000 
-0.340338 -0.608678 0.000000 
-0.344339 -0.554543 0.000000 
-0.358558 -0.502003 0.000000 
-0.381750 -0.461092 0.000000 
-0.406193 -0.426917 0.000000 
-0.417316 -0.395419 0.000000 
-0.428320 -0.361162 0.000000 
-0.436973 -0.316898 0.000000 
-0.444212 -0.261355 0.000000 
-0.452662 -0.202497 0.000000 
-0.468602 -0.145598 0.000000 
0.553166 -0.238280 0.000000 
0.573193 -0.180609 0.000000 
0.574450 -0.128869 0.000000 
0.561087 -0.078549 0.000000 
0.550432 -0.023226 0.000000 
0.748903 2.025909 0.000000 
0.730940 1.969416 0.000000 
0.715868 1.923257 0.000000 
0.699446 1.887129 0.000000 
0.684888 1.846140 0.000000 
0.675900 1.799935 0.000000 
0.669871 1.750375 0.000000 
0.664455 1.702518 0.000000 
0.668163 1.656099 0.000000 
0.672091 1.606265 0.000000 
0.674558 1.558242 0.000000 
0.673045 1.508163 0.000000 
0.386491 1.987348 0.000000 
0.664855 1.449424 0.000000 
0.652298 1.391346 0.000000 
0.638456 1.337696 0.000000 
0.623121 1.288186 0.000000 
0.616008 1.245159 0.000000 
0.600787 1.210217 0.000000 
0.571289 1.180768 0.000000 
0.539016 1.149607 0.000000 
0.513857 1.120708 0.000000 
0.493343 1.094472 0.000000 
0.469109 1.076660 0.000000 
0.444920 1.060215 0.000000 
0.415324 1.039250 0.000000 
0.383540 1.014497 0.000000 
0.356179 0.985165 0.000000 
0.343879 0.946265 0.000000 
0.337476 0.900745 0.000000 
0.332404 0.855459 0.000000 
0.328512 0.815769 0.000000 
0.319594 0.779689 0.000000 
0.304149 0.746278 0.000000 
0.290502 0.705887 0.000000 
0.275896 0.658025 0.000000 
0.261905 0.616056 0.000000 
0.250150 0.582461 0.000000 
0.250896 0.544656 0.000000 
0.259587 0.502052 0.000000 
0.284617 0.459279 0.000000 
0.315237 0.429618 0.000000 
0.340022 0.410181 0.000000 
0.354380 0.384332 0.000000 
0.368685 0.357190 0.000000 
0.385568 0.330794 0.000000 
0.415372 0.305997 0.000000 
0.447119 0.274284 0.000000 
0.477633 0.246368 0.000000 
0.503078 0.218431 0.000000 
0.518876 0.180377 0.000000 
0.527127 0.144408 0.000000 
0.534187 0.099863 0.000000 
0.543185 0.039083 0.000000 
0.322519 1.976292 0.000000 
0.263849 1.963175 0.000000 
0.208223 1.957756 0.000000 
0.150441 1.953927 0.000000 
-0.687392 -0.525543 0.000000 
-3.327058 2.001530 0.000000 
-3.276080 1.955108 0.000000 
-3.224941 1.921522 0.000000 
-3.181728 1.892363 0.000000 
-3.135074 1.855433 0.000000 
-3.078123 1.831140 0.000000 
-1.944260 -0.288896 0.000000 
0.083204 1.959083 0.000000 
0.005786 1.953730 0.000000 
-0.071812 1.962969 0.000000 
-0.135705 1.992510 0.000000 
-0.182391 2.034116 0.000000 
-1.999041 -0.217928 0.000000 
-1.843230 -0.492436 0.000000 
-0.491126 -0.081638 0.000000 
-0.512312 -0.008395 0.000000 
-0.526535 0.054438 0.000000 
-0.527935 0.116559 0.000000 
-0.524207 0.183729 0.000000 
-0.505864 0.240861 0.000000 
-0.468875 0.290073 0.000000 
-0.410369 0.319318 0.000000 
-0.354013 0.340435 0.000000 
-0.301050 0.350381 0.000000 
-0.255730 0.351153 0.000000 
-0.695595 -0.447248 0.000000 
-0.726457 -0.370366 0.000000 
-0.747352 -0.300911 0.000000 
-3.396487 1.944394 0.000000 
-3.344056 1.865007 0.000000 
-3.294256 1.821606 0.000000 
-3.248246 1.783281 0.000000 
-3.196818 1.743928 0.000000 
-3.159669 1.692618 0.000000 
-3.113281 1.645913 0.000000 
-3.056061 1.626350 0.000000 
-2.996684 1.603725 0.000000 
-2.933161 1.574109 0.000000 
-2.879064 1.537966 0.000000 
-2.813006 1.513181 0.000000 
-2.751664 1.490130 0.000000 
-2.686782 1.460807 0.000000 
-1.922020 -0.489630 0.000000 
-1.999705 -0.491129 0.000000 
-2.060018 -0.469525 0.000000 
-2.032615 -0.134537 0.000000 
-2.048550 -0.048815 0.000000 
-2.029059 0.017078 0.000000 
-2.105228 -0.412466 0.000000 
-2.154373 -0.344872 0.000000 
-2.203584 -0.290248 0.000000 
-2.237020 -0.228813 0.000000 
-2.250593 -0.163520 0.000000 
-2.270119 -0.091736 0.000000 
-2.297898 -0.021426 0.000000 
-2.327118 0.040154 0.000000 
-2.346747 0.094124 0.000000 
-2.362840 0.147234 0.000000 
-2.374561 0.198278 0.000000 
-2.373128 0.250254 0.000000 
-2.334174 0.316844 0.000000 
-2.331842 0.357462 0.000000 
-2.284565 0.366221 0.000000 
-0.236368 2.083651 0.000000 
-0.299146 2.127478 0.000000 
-0.346614 2.147403 0.000000 
-0.382877 2.110900 0.000000 
-0.412447 2.081850 0.000000 
-0.433989 2.041563 0.000000 
-0.446472 1.998596 0.000000 
-0.451628 1.959278 0.000000 
-0.451047 1.920816 0.000000 
-0.449242 1.884812 0.000000 
-0.453345 1.852923 0.000000 
-0.460251 1.825229 0.000000 
-0.470304 1.796444 0.000000 
-0.475290 1.766954 0.000000 
-0.478341 1.737169 0.000000 
-0.479442 1.700433 0.000000 
-2.609147 1.447018 0.000000 
-2.517189 1.441520 0.000000 
-2.434013 1.441856 0.000000 
-2.352624 1.431825 0.000000 
-2.274410 1.412454 0.000000 
-2.204499 1.377805 0.000000 
-2.180326 1.308922 0.000000 
-2.178559 1.220386 0.000000 
-2.168273 1.130357 0.000000 
-2.159086 1.032293 0.000000 
-2.144575 0.943135 0.000000 
-2.163040 0.867917 0.000000 
-2.183612 0.793826 0.000000 
-2.172907 0.729268 0.000000 
-2.161614 0.666513 0.000000 
-2.169833 0.606401 0.000000 
-2.188987 0.544648 0.000000 
-2.218663 0.493402 0.000000 
-2.229021 0.437529 0.000000 
-2.997130 1.814343 0.000000 
-3.021908 1.716205 0.000000 
-2.902046 1.782836 0.000000 
-0.770600 -0.218317 0.000000 
-0.790096 -0.126659 0.000000 
-0.811857 -0.045951 0.000000 
-0.835807 0.032613 0.000000 
-0.859157 0.102741 0.000000 
-0.881226 0.162792 0.000000 
-0.903169 0.222143 0.000000 
-0.928196 0.286187 0.000000 
-2.785442 1.750283 0.000000 
-2.944278 1.689541 0.000000 
-2.855014 1.652395 0.000000 
-2.796189 1.592315 0.000000 
-2.651235 1.735537 0.000000 
-2.517962 1.725190 0.000000 
-2.394240 1.716027 0.000000 
-2.275192 1.708030 0.000000 
-2.180847 1.683469 0.000000 
-2.099904 1.656990 0.000000 
-2.018420 1.625750 0.000000 
-1.945469 1.630048 0.000000 
-1.885190 1.663387 0.000000 
-1.829736 1.683956 0.000000 
-1.760875 1.709188 0.000000 
-1.680504 1.737612 0.000000 
-1.617798 1.755929 0.000000 
-1.570169 1.770453 0.000000 
-1.527149 1.784643 0.000000 
-1.482581 1.796772 0.000000 
-1.433927 1.803312 0.000000 
-1.386311 1.811227 0.000000 
-1.337319 1.819957 0.000000 
-1.286363 1.827037 0.000000 
-1.235962 1.827755 0.000000 
-1.188452 1.832568 0.000000 
-1.140860 1.842019 0.000000 
-1.091558 1.841328 0.000000 
-1.038962 1.830309 0.000000 
-0.982519 1.811311 0.000000 
-0.922315 1.794569 0.000000 
-0.869867 1.784244 0.000000 
-0.827747 1.777755 0.000000 
-0.785371 1.772843 0.000000 
-0.748025 1.763106 0.000000 
-0.712781 1.752839 0.000000 
-0.681690 1.738907 0.000000 
-0.657198 1.727773 0.000000 
-0.633895 1.721109 0.000000 
-0.612002 1.716654 0.000000 
-0.594184 1.709441 0.000000 
-0.577381 1.699991 0.000000 
-0.560109 1.684708 0.000000 
-0.540091 1.652253 0.000000 
-1.243914 0.013408 0.000000 
-1.232782 0.027124 0.000000 
-1.257376 -0.000946 0.000000 
-1.224378 0.045824 0.000000 
-1.271472 -0.020292 0.000000 
-1.215702 0.067821 0.000000 
-1.204660 0.093877 0.000000 
-1.290143 -0.048034 0.000000 
-1.314447 -0.093073 0.000000 
-1.190204 0.124184 0.000000 
-1.318041 -0.146428 0.000000 
-1.171655 0.158340 0.000000 
-1.149359 0.194654 0.000000 
-1.123094 0.232903 0.000000 
-1.284246 -0.196407 0.000000 
-1.239750 -0.247133 0.000000 
-1.083297 0.276894 0.000000 
-1.028190 0.308566 0.000000 
-1.181630 -0.289490 0.000000 
-1.112789 -0.320917 0.000000 
-1.040643 -0.333088 0.000000 
-0.978118 -0.336174 0.000000 
-0.927392 -0.349200 0.000000 
-0.889718 -0.388334 0.000000 
-0.873564 -0.444885 0.000000 
-0.920771 -0.477079 0.000000 
-0.935346 -0.409810 0.000000 
-0.991249 -0.486655 0.000000 
-1.088918 -0.483926 0.000000 
-1.067426 -0.404274 0.000000 
-1.189474 -0.476363 0.000000 
-1.147229 -0.391607 0.000000 
-1.266509 -0.453073 0.000000 
-1.219913 -0.365430 0.000000 
-1.335307 -0.417246 0.000000 
-1.284456 -0.327431 0.000000 
-1.402357 -0.373343 0.000000 
-1.341444 -0.279630 0.000000 
-1.466758 -0.320667 0.000000 
-1.539152 -0.259868 0.000000 
-1.393011 -0.221699 0.000000 
-1.612839 -0.189596 0.000000 
-1.665320 -0.132018 0.000000 
-1.691220 -0.067192 0.000000 
-1.704696 0.018302 0.000000 
-1.850073 0.185171 0.000000 
-1.911042 0.129346 0.000000 
-1.969645 0.072510 0.000000 
-1.726970 0.124713 0.000000 
-0.222881 0.332543 0.000000 
-0.195707 0.304959 0.000000 
-0.164205 0.268012 0.000000 
-0.127520 0.235314 0.000000 
-0.095686 0.205823 0.000000 
-0.059027 0.177345 0.000000 
-0.018954 0.147361 0.000000 
0.030296 0.116090 0.000000 
0.086536 0.095564 0.000000 
0.141893 0.076833 0.000000 
0.202102 0.047553 0.000000 
0.263408 0.007636 0.000000 
0.311661 -0.042350 0.000000 
0.333954 -0.101973 0.000000 
0.338621 -0.162423 0.000000 
0.341530 -0.216362 0.000000 
0.353165 -0.266550 0.000000 
0.365710 -0.324973 0.000000 
0.363543 -0.394502 0.000000 
0.357353 -0.456616 0.000000 
0.351188 -0.507359 0.000000 
0.363842 -0.554387 0.000000 
-1.737069 -0.421038 0.000000 
-0.199590 0.385160 0.000000 
-0.156305 0.355244 0.000000 
-0.462327 1.621200 0.000000 
0.741313 2.143774 0.000000 
0.482415 -0.565158 0.000000 
0.446104 -0.573054 0.000000 
0.403556 -0.578708 0.000000 
-0.104001 0.327179 0.000000 
-0.514998 1.553254 0.000000 
-0.059937 0.292774 0.000000 
0.738519 2.118509 0.000000 
0.714572 2.130809 0.000000 
-0.249752 0.411983 0.000000 
-0.036232 0.248976 0.000000 
0.000772 0.221143 0.000000 
0.035161 0.195499 0.000000 
-1.776537 -0.420480 0.000000 
-1.836238 -0.416295 0.000000 
-0.309416 0.426083 0.000000 
-0.378944 0.423819 0.000000 
-2.292732 0.303407 0.000000 
-2.315166 0.253416 0.000000 
-2.314418 0.205859 0.000000 
-2.293418 0.159473 0.000000 
-2.279687 0.109594 0.000000 
-2.253462 0.062329 0.000000 
0.075120 0.167756 0.000000 
0.131113 0.155148 0.000000 
-0.977004 0.357132 0.000000 
-0.860050 0.346966 0.000000 
-1.912142 -0.408238 0.000000 
-1.989966 -0.417019 0.000000 
-2.023752 -0.349477 0.000000 
-2.082175 -0.278216 0.000000 
0.723889 2.086996 0.000000 
0.691466 2.105839 0.000000 
0.665980 2.073192 0.000000 
0.704783 2.045924 0.000000 
0.637970 2.035134 0.000000 
0.681732 1.998715 0.000000 
0.670916 1.952540 0.000000 
0.602858 2.003466 0.000000 
0.659584 1.912116 0.000000 
0.560783 1.977095 0.000000 
0.636111 1.876042 0.000000 
0.607495 1.826251 0.000000 
0.595324 1.762770 0.000000 
0.604052 1.698097 0.000000 
0.514160 1.947692 0.000000 
0.453857 1.920247 0.000000 
0.392525 1.918268 0.000000 
0.334098 1.916740 0.000000 
0.278675 1.897986 0.000000 
0.217273 1.879911 0.000000 
0.149449 1.862555 0.000000 
0.614128 1.645822 0.000000 
0.621313 1.598242 0.000000 
0.624262 1.553362 0.000000 
-2.197766 0.009140 0.000000 
-2.158682 -0.065784 0.000000 
-2.124695 0.068470 0.000000 
-2.150589 -0.231910 0.000000 
-2.141926 -0.154364 0.000000 
-0.393439 -0.570924 0.000000 
-0.412631 -0.526881 0.000000 
-0.436983 -0.486278 0.000000 
-0.445953 -0.442858 0.000000 
-0.458251 -0.410032 0.000000 
-0.479726 -0.375266 0.000000 
-0.496934 -0.326535 0.000000 
-0.509002 -0.271451 0.000000 
-0.517157 -0.217121 0.000000 
-0.545309 -0.165845 0.000000 
-0.442273 -0.568319 0.000000 
-0.496002 -0.558801 0.000000 
-0.557668 -0.560908 0.000000 
-0.618975 -0.545428 0.000000 
-0.334659 2.085590 0.000000 
-0.367985 2.055873 0.000000 
-0.385153 2.019447 0.000000 
-0.396797 1.985580 0.000000 
-0.406285 1.950058 0.000000 
-0.402558 1.910925 0.000000 
-0.406645 1.872481 0.000000 
-0.418378 1.840067 0.000000 
-0.428059 1.810942 0.000000 
-0.435849 1.781394 0.000000 
-0.442335 1.751359 0.000000 
-0.445406 1.718294 0.000000 
-0.444483 1.672578 0.000000 
0.619822 1.507630 0.000000 
-1.077870 0.404195 0.000000 
-1.149036 0.362237 0.000000 
-1.174735 0.287394 0.000000 
-1.192231 0.235671 0.000000 
-1.210811 0.193894 0.000000 
-1.228352 0.154555 0.000000 
-1.238869 0.116575 0.000000 
-1.244643 0.085077 0.000000 
-1.248534 0.060176 0.000000 
-1.252336 0.040889 0.000000 
-1.262323 0.027637 0.000000 
-1.280319 0.016721 0.000000 
-0.451814 0.401159 0.000000 
-0.526928 0.357637 0.000000 
0.194935 0.138156 0.000000 
0.069048 1.848456 0.000000 
-0.574175 0.286953 0.000000 
-0.593607 0.205850 0.000000 
-1.764101 0.245535 0.000000 
-2.210991 0.364391 0.000000 
-0.825996 0.261689 0.000000 
-0.799223 0.190609 0.000000 
-0.760911 0.124175 0.000000 
0.605964 1.456679 0.000000 
0.587834 1.399319 0.000000 
0.576354 1.339470 0.000000 
0.574971 1.284462 0.000000 
0.580375 1.241437 0.000000 
0.545179 1.219053 0.000000 
0.509957 1.186791 0.000000 
0.484198 1.150388 0.000000 
0.468721 1.119234 0.000000 
0.449386 1.100703 0.000000 
0.422962 1.088038 0.000000 
0.391379 1.068887 0.000000 
0.357154 1.044823 0.000000 
0.323730 1.016451 0.000000 
-0.582151 -0.104978 0.000000 
0.265957 0.111726 0.000000 
0.333763 0.065597 0.000000 
0.378371 -0.001419 0.000000 
0.400918 -0.075814 0.000000 
0.401084 -0.138803 0.000000 
0.404345 -0.192904 0.000000 
0.432648 -0.243986 0.000000 
0.450030 -0.308427 0.000000 
0.529803 -0.155273 0.000000 
0.491947 -0.203411 0.000000 
0.453243 -0.153527 0.000000 
0.449550 -0.382751 0.000000 
0.498420 -0.109400 0.000000 
0.474171 -0.049459 0.000000 
0.457863 0.025115 0.000000 
0.462195 -0.441405 0.000000 
0.478704 -0.487741 0.000000 
0.483460 -0.528707 0.000000 
0.412910 -0.467046 0.000000 
0.398390 -0.505760 0.000000 
0.404290 -0.540047 0.000000 
0.442452 -0.535489 0.000000 
0.436659 -0.500325 0.000000 
-0.727378 0.050042 0.000000 
-0.616071 0.132061 0.000000 
-0.623548 0.057780 0.000000 
-0.605779 -0.023228 0.000000 
-0.706340 -0.035676 0.000000 
-0.681483 -0.121938 0.000000 
-0.032304 1.842895 0.000000 
-0.128010 1.879044 0.000000 
-0.195732 1.946168 0.000000 
-0.243911 2.000082 0.000000 
-0.287859 2.047486 0.000000 
-0.335518 2.019790 0.000000 
-0.667608 -0.207319 0.000000 
-0.584906 -0.214086 0.000000 
-0.658169 -0.287327 0.000000 
-0.578442 -0.279457 0.000000 
-0.639050 -0.358770 0.000000 
-0.607982 -0.434287 0.000000 
-0.562541 -0.342156 0.000000 
-0.536184 -0.403180 0.000000 
-0.495978 -0.441141 0.000000 
-0.500680 -0.493536 0.000000 
-0.573051 -0.497989 0.000000 
-2.690892 1.616189 0.000000 
-2.684799 1.530176 0.000000 
-2.602920 1.528914 0.000000 
-2.574381 1.613907 0.000000 
-2.518122 1.548782 0.000000 
-2.424460 1.572680 0.000000 
-2.320006 1.563748 0.000000 
-2.229986 1.540131 0.000000 
-2.146342 1.498891 0.000000 
-1.455055 -0.162718 0.000000 
-1.387692 -0.082394 0.000000 
-1.339496 -0.029066 0.000000 
-1.304977 -0.000506 0.000000 
-1.531301 -0.097225 0.000000 
-1.604385 -0.053112 0.000000 
-1.592423 0.047568 0.000000 
-1.608296 0.171531 0.000000 
-1.827918 0.369977 0.000000 
0.477873 0.138780 0.000000 
0.477147 0.173678 0.000000 
0.465631 0.207918 0.000000 
-0.587742 1.652128 0.000000 
-0.593403 1.676231 0.000000 
-0.604579 1.688887 0.000000 
-0.619289 1.694573 0.000000 
-0.639577 1.692400 0.000000 
-0.665912 1.694016 0.000000 
-0.697937 1.701003 0.000000 
-0.595692 1.598639 0.000000 
-0.726123 1.715814 0.000000 
-0.757398 1.726385 0.000000 
-0.794522 1.723810 0.000000 
-0.841416 1.721232 0.000000 
-0.894922 1.722592 0.000000 
-0.956071 1.731008 0.000000 
-1.020951 1.749930 0.000000 
-1.077937 1.777564 0.000000 
-1.120258 1.806293 0.000000 
-1.171769 1.782032 0.000000 
0.332207 0.335423 0.000000 
0.333662 0.293688 0.000000 
0.321472 0.364040 0.000000 
0.302407 0.390853 0.000000 
0.214022 0.405515 0.000000 
0.194081 0.466539 0.000000 
0.186716 0.522052 0.000000 
0.189303 0.574824 0.000000 
0.360023 0.254007 0.000000 
0.405131 0.228873 0.000000 
0.201671 0.624070 0.000000 
0.218038 0.674331 0.000000 
0.236652 0.723265 0.000000 
0.256885 0.765199 0.000000 
0.278373 0.793693 0.000000 
0.284019 0.827091 0.000000 
0.276718 0.873838 0.000000 
0.278735 0.930651 0.000000 
0.296322 0.980919 0.000000 
-1.507867 1.733790 0.000000 
-1.548116 1.709148 0.000000 
-1.598023 1.681768 0.000000 
-1.467251 1.748564 0.000000 
-1.422160 1.755847 0.000000 
-1.373311 1.762564 0.000000 
-1.322903 1.770340 0.000000 
-1.275577 1.779586 0.000000 
-1.225048 1.778187 0.000000 
-1.662214 1.658099 0.000000 
-1.732600 1.638159 0.000000 
-1.794687 1.623784 0.000000 
-1.841773 1.594597 0.000000 
-2.078405 0.661869 0.000000 
-2.079214 0.740459 0.000000 
-2.097651 0.584269 0.000000 
-2.129318 0.512530 0.000000 
-2.096743 0.821021 0.000000 
-2.169699 0.457187 0.000000 
-1.991686 0.384187 0.000000 
-1.642187 0.309743 0.000000 
-1.989898 0.216962 0.000000 
-2.064526 0.145149 0.000000 
-1.914688 0.290496 0.000000 
-2.037969 1.073573 0.000000 
-2.021377 0.957888 0.000000 
-2.055796 1.202735 0.000000 
-2.102728 1.305388 0.000000 
-2.047875 1.447690 0.000000 
0.428030 0.194421 0.000000 
0.375625 0.173185 0.000000 
0.313454 0.186286 0.000000 
0.290352 0.332321 0.000000 
0.238487 1.043238 0.000000 
0.440631 0.156313 0.000000 
0.396678 0.116536 0.000000 
0.460488 0.090616 0.000000 
0.523747 1.266728 0.000000 
-2.262588 0.229983 0.000000 
-2.220468 0.286010 0.000000 
-2.218579 0.176472 0.000000 
-2.146376 0.228322 0.000000 
-2.206503 0.111401 0.000000 
0.473879 1.228116 0.000000 
0.446488 1.175785 0.000000 
0.440978 1.131766 0.000000 
0.409581 1.123911 0.000000 
0.629179 1.952806 0.000000 
0.593839 1.920333 0.000000 
0.550362 1.876129 0.000000 
0.483841 1.835706 0.000000 
0.202470 0.976874 0.000000 
0.241245 0.829098 0.000000 
0.205152 0.804298 0.000000 
0.175878 0.756157 0.000000 
0.153326 0.697651 0.000000 
0.132079 0.637201 0.000000 
0.113278 0.572745 0.000000 
0.106000 0.504422 0.000000 
0.109640 0.435225 0.000000 
0.121648 0.364547 0.000000 
0.032483 0.274933 0.000000 
0.246820 0.357611 0.000000 
0.099619 0.223298 0.000000 
0.373127 1.109028 0.000000 
-0.307911 1.972168 0.000000 
-0.360136 1.953699 0.000000 
-0.343252 1.899353 0.000000 
-0.270247 1.907497 0.000000 
0.168337 0.219817 0.000000 
0.242346 0.209479 0.000000 
0.270369 0.278516 0.000000 
0.505525 1.334489 0.000000 
-0.689828 0.161744 0.000000 
-0.729540 0.219148 0.000000 
-0.746154 0.293621 0.000000 
-0.657668 0.310185 0.000000 
-0.661195 0.225898 0.000000 
-0.924642 0.462861 0.000000 
-1.137284 1.726224 0.000000 
-1.072920 1.681630 0.000000 
-1.248127 1.738521 0.000000 
-1.304069 1.722199 0.000000 
-1.360197 1.714539 0.000000 
-1.411221 1.710399 0.000000 
-1.453165 1.707169 0.000000 
-1.486003 1.689707 0.000000 
-1.510814 1.646238 0.000000 
-1.558800 1.601569 0.000000 
-0.995058 1.654877 0.000000 
-0.919611 1.644401 0.000000 
-0.852227 1.651333 0.000000 
-0.796966 1.667851 0.000000 
-0.752732 1.687020 0.000000 
-1.635591 1.574236 0.000000 
-1.992480 0.848938 0.000000 
-1.965104 0.739158 0.000000 
-1.974377 0.635826 0.000000 
-2.014368 0.542204 0.000000 
-2.065453 0.459018 0.000000 
-2.071492 0.305951 0.000000 
-2.131272 0.389487 0.000000 
-1.712039 1.560913 0.000000 
-1.781280 1.560864 0.000000 
-1.884796 1.530807 0.000000 
0.516332 1.750470 0.000000 
0.538779 1.679341 0.000000 
0.517174 1.408875 0.000000 
0.552532 1.470811 0.000000 
0.576896 1.512738 0.000000 
0.583356 1.549764 0.000000 
0.576083 1.586768 0.000000 
0.562288 1.629128 0.000000 
-0.776910 0.390234 0.000000 
-1.451771 -0.022913 0.000000 
-1.374596 0.014870 0.000000 
-1.326837 0.030330 0.000000 
-1.272657 0.045528 0.000000 
-1.295259 0.039759 0.000000 
-1.274719 0.067063 0.000000 
-1.277356 0.094166 0.000000 
-1.282752 0.129249 0.000000 
-1.279912 0.177024 0.000000 
-1.259061 0.220820 0.000000 
-1.246354 0.262313 0.000000 
-1.247511 0.317283 0.000000 
-1.260959 0.405914 0.000000 
-1.083075 0.576187 0.000000 
-1.474179 0.071598 0.000000 
-1.468523 0.197255 0.000000 
-1.714576 0.465010 0.000000 
-1.917838 0.471635 0.000000 
-1.479337 0.347108 0.000000 
-1.929043 1.403504 0.000000 
-1.933932 1.241162 0.000000 
-1.916094 1.101472 0.000000 
-1.891356 0.982189 0.000000 
-0.640008 1.657935 0.000000 
-0.671120 1.650912 0.000000 
-0.705575 1.657330 0.000000 
-0.401264 1.521213 0.000000 
-0.460851 1.365089 0.000000 
-0.397949 1.634684 0.000000 
-0.609239 1.652413 0.000000 
-0.410298 1.698817 0.000000 
-0.408964 1.733633 0.000000 
-0.399540 1.762752 0.000000 
-0.395782 1.795619 0.000000 
0.285100 1.077479 0.000000 
0.331625 1.094784 0.000000 
-0.121818 0.413345 0.000000 
0.021900 0.335998 0.000000 
0.115588 0.289761 0.000000 
0.198863 0.291714 0.000000 
-0.064867 0.392520 0.000000 
0.364707 1.860672 0.000000 
0.303732 1.829592 0.000000 
0.240047 1.798884 0.000000 
0.172732 1.760589 0.000000 
0.087651 1.720256 0.000000 
-0.030041 1.695510 0.000000 
-0.215594 1.818961 0.000000 
-0.230359 0.495442 0.000000 
-0.307828 0.529607 0.000000 
-0.401252 0.540478 0.000000 
-0.492206 0.512232 0.000000 
-0.743012 1.643789 0.000000 
-0.382985 1.822483 0.000000 
-0.353471 1.851227 0.000000 
-1.315709 0.256540 0.000000 
-1.343314 0.338460 0.000000 
-0.721193 1.602276 0.000000 
-0.632022 1.613204 0.000000 
-0.618292 1.671927 0.000000 
-1.300529 0.065252 0.000000 
-1.311319 0.091497 0.000000 
-0.675320 1.589742 0.000000 
-1.449691 1.666446 0.000000 
-0.167828 0.454197 0.000000 
-0.066773 0.470240 0.000000 
0.014030 0.407442 0.000000 
-1.331624 0.066632 0.000000 
-1.380062 0.080536 0.000000 
-1.340869 0.125240 0.000000 
-1.353905 0.195448 0.000000 
0.406993 1.172175 0.000000 
-1.403597 1.664933 0.000000 
0.364934 1.162127 0.000000 
-1.348692 1.665653 0.000000 
0.247855 1.175133 0.000000 
0.315701 1.171738 0.000000 
0.207111 0.896665 0.000000 
0.143206 0.875789 0.000000 
-1.453768 1.614170 0.000000 
-0.790281 1.602148 0.000000 
-1.284745 1.669324 0.000000 
-1.791133 1.481796 0.000000 
-1.698001 1.466004 0.000000 
-1.602996 1.471195 0.000000 
-1.509140 1.502064 0.000000 
-1.850904 0.862229 0.000000 
0.171486 1.146381 0.000000 
0.103791 0.804549 0.000000 
0.081732 0.730835 0.000000 
0.012465 0.493974 0.000000 
0.056973 0.659903 0.000000 
-0.859037 1.558716 0.000000 
-0.947148 1.542765 0.000000 
-1.042292 1.565413 0.000000 
-1.207800 1.688354 0.000000 
0.405236 1.797134 0.000000 
0.432576 1.706131 0.000000 
0.470249 1.638386 0.000000 
0.516988 1.601943 0.000000 
0.538064 1.568444 0.000000 
0.548893 1.534529 0.000000 
0.511168 1.504428 0.000000 
0.447440 1.457893 0.000000 
0.336576 1.764265 0.000000 
0.352905 1.684987 0.000000 
0.280111 1.726007 0.000000 
0.425405 1.557101 0.000000 
0.495333 1.555284 0.000000 
0.435871 1.291869 0.000000 
-0.582540 0.457908 0.000000 
-1.810838 0.717015 0.000000 
-1.837718 0.579194 0.000000 
0.231389 1.659066 0.000000 
-0.169223 1.676960 0.000000 
-0.358516 1.787981 0.000000 
-0.831990 0.514315 0.000000 
-0.676614 0.417997 0.000000 
-0.304985 1.796593 0.000000 
0.154076 1.569020 0.000000 
0.032165 1.503139 0.000000 
-1.118654 1.607952 0.000000 
-1.306357 0.586183 0.000000 
-1.538817 0.535148 0.000000 
-1.801087 1.366400 0.000000 
-1.802902 1.231865 0.000000 
-1.804665 1.112516 0.000000 
-1.777440 1.008870 0.000000 
-0.986798 0.805850 0.000000 
-0.372825 1.699431 0.000000 
-0.323929 1.621675 0.000000 
-0.283612 1.690671 0.000000 
-0.355311 1.737379 0.000000 
-0.277653 1.448816 0.000000 
-0.126264 1.457592 0.000000 
-0.312271 1.201956 0.000000 
-0.289946 0.662086 0.000000 
-0.193810 0.596679 0.000000 
-0.423907 0.705622 0.000000 
-0.114792 0.534449 0.000000 
-0.535770 0.660202 0.000000 
-1.422411 1.537126 0.000000 
-1.396637 1.619220 0.000000 
0.101283 1.075141 0.000000 
0.384708 1.225775 0.000000 
-0.765487 1.531073 0.000000 
0.024488 0.580488 0.000000 
-1.685710 1.344806 0.000000 
-0.851171 1.433344 0.000000 
-0.603497 1.482119 0.000000 
-0.978154 1.401177 0.000000 
-0.699634 1.484614 0.000000 
-1.566560 1.338839 0.000000 
0.324386 1.272283 0.000000 
0.225177 1.317491 0.000000 
0.103404 1.313337 0.000000 
0.264525 1.459982 0.000000 
0.375524 1.380253 0.000000 
-0.722859 0.543585 0.000000 
-0.804099 0.676445 0.000000 
-0.630108 0.587997 0.000000 
-1.342192 1.616898 0.000000 
-1.445045 1.371759 0.000000 
0.042573 0.974048 0.000000 
-1.197152 1.619246 0.000000 
-1.275712 1.608435 0.000000 
0.009788 0.860434 0.000000 
0.007428 0.766539 0.000000 
-1.624661 0.734942 0.000000 
-1.706493 0.901070 0.000000 
-0.014319 0.694995 0.000000 
-0.059935 0.619396 0.000000 
-0.139952 0.700031 0.000000 
-0.233328 0.822196 0.000000 
-0.073092 0.767116 0.000000 
-0.121108 0.896972 0.000000 
-0.119730 1.091550 0.000000 
-0.398430 0.944975 0.000000 
-0.026441 1.243300 0.000000 
-1.679294 1.206951 0.000000 
-1.698733 1.085214 0.000000 
-1.219031 0.991550 0.000000 
-0.854674 1.077344 0.000000 
-0.658235 0.752056 0.000000 
-0.623629 0.994251 0.000000 
-0.765556 1.318910 0.000000 
-0.596319 1.276218 0.000000 
-1.360217 1.571282 0.000000 
-1.334110 1.447120 0.000000 
-1.529501 1.167002 0.000000 
-1.363780 1.202939 0.000000 
-1.571029 1.005676 0.000000 
-1.188333 1.538971 0.000000 
-1.056334 1.208814 0.000000 
-1.217896 1.338073 0.000000 
-1.279678 1.533159 0.000000 
-0.993027 -0.408845 0.000000 
-3.091970 1.732689 0.000000 
-1.410358 0.834407 0.000000 
-1.115382 1.461396 0.000000 
0.330018 1.583815 0.000000 
-0.391446 2.143583 0.000000 
-1.734831 -0.477993 0.000000 
-2.357079 0.336452 0.000000 
-3.441445 1.920022 0.000000 
-2.367134 0.299228 0.000000 
-3.393690 1.894043 0.000000 
VECTORS X_EC float 
0.836018 0.190775 0.000000 
0.515870 -0.044719 0.000000 
0.234860 -0.371710 0.000000 
-0.046594 -0.679779 0.000000 
-0.300769 -0.906480 0.000000 
-0.536491 0.850898 0.000000 
-0.857598 0.612553 0.000000 
0.066391 0.821151 0.000000 
-0.139828 0.803080 0.000000 
-0.366835 0.840303 0.000000 
0.903381 0.196113 0.000000 
0.023049 -0.311677 0.000000 
0.057018 -0.644586 0.000000 
0.813347 -0.899046 0.000000 
-0.907208 -0.732884 0.000000 
-0.679924 0.715497 0.000000 
0.021585 -0.860540 0.000000 
-0.087647 -0.587501 0.000000 
0.169145 -0.934650 0.000000 
0.409185 0.843993 0.000000 
0.728501 0.755555 0.000000 
-0.909888 0.741169 0.000000 
-0.511150 0.745806 0.000000 
0.416017 0.687385 0.000000 
-0.260907 -0.311912 0.000000 
-0.477181 -0.053400 0.000000 
-0.667094 0.185337 0.000000 
-0.850706 0.443146 0.000000 
0.974998 0.727529 0.000000 
0.808104 -0.940788 0.000000 
0.660749 -0.555224 0.000000 
-0.690316 0.897547 0.000000 
-0.408484 0.669552 0.000000 
-0.090613 0.811087 0.000000 
0.099024 -0.909944 0.000000 
0.160985 -0.497178 0.000000 
0.168864 0.523373 0.000000 
0.027329 -0.005950 0.000000 
-0.037263 -0.511366 0.000000 
-0.048754 -0.994087 0.000000 
-0.049245 0.563100 0.000000 
-0.044700 0.741923 0.000000 
0.502668 0.706823 0.000000 
0.259674 0.051112 0.000000 
-0.031290 0.114425 0.000000 
0.089384 -0.277295 0.000000 
0.516766 -0.245290 0.000000 
0.931553 -0.131537 0.000000 
-0.745462 0.053998 0.000000 
-0.475662 0.249544 0.000000 
-0.226995 0.338528 0.000000 
0.043455 0.426562 0.000000 
0.392911 0.495783 0.000000 
0.831407 0.553696 0.000000 
-0.703923 0.621293 0.000000 
-0.254720 0.748819 0.000000 
-0.986425 0.574669 0.000000 
-0.531127 0.414456 0.000000 
-0.122650 0.404400 0.000000 
0.274612 0.511302 0.000000 
0.711373 0.596541 0.000000 
0.888753 -0.991227 0.000000 
0.442761 -0.847519 0.000000 
0.078346 -0.726941 0.000000 
-0.206875 -0.595571 0.000000 
-0.530477 -0.479104 0.000000 
-0.895248 -0.407199 0.000000 
0.713490 -0.358965 0.000000 
0.335671 -0.315643 0.000000 
-0.030797 -0.345300 0.000000 
-0.424220 -0.376727 0.000000 
-0.803353 -0.396467 0.000000 
0.801284 -0.384358 0.000000 
0.584327 -0.091925 0.000000 
0.337556 -0.318836 0.000000 
-0.120952 -0.218386 0.000000 
-0.544503 -0.107648 0.000000 
-0.935373 0.015035 0.000000 
0.724939 0.071940 0.000000 
0.449079 0.193703 0.000000 
0.216588 0.429691 0.000000 
-0.029422 0.687876 0.000000 
-0.257572 0.889142 0.000000 
-0.464692 -0.946745 0.000000 
-0.605317 -0.752872 0.000000 
-0.735141 -0.559356 0.000000 
-0.900661 -0.322596 0.000000 
0.903926 -0.068323 0.000000 
0.672356 0.150566 0.000000 
0.365253 0.248970 0.000000 
0.005881 0.300189 0.000000 
-0.351642 0.340765 0.000000 
-0.664984 0.371902 0.000000 
-0.949823 0.443251 0.000000 
0.786407 0.566808 0.000000 
0.467532 0.675986 0.000000 
0.089670 0.792836 0.000000 
-0.241665 0.904763 0.000000 
-0.506889 0.998799 0.000000 
-0.805350 0.992834 0.000000 
0.858308 0.923303 0.000000 
0.520626 0.723065 0.000000 
0.286457 0.478104 0.000000 
0.133011 0.279823 0.000000 
-0.071060 0.164962 0.000000 
-0.285345 0.050524 0.000000 
-0.493735 -0.084544 0.000000 
-0.689501 -0.322978 0.000000 
-0.939863 -0.576955 0.000000 
0.839744 -0.821065 0.000000 
0.619192 0.975373 0.000000 
0.318765 0.848993 0.000000 
0.034803 0.782983 0.000000 
-0.316872 0.726504 0.000000 
-0.796714 0.654519 0.000000 
0.497044 0.419846 0.000000 
0.393490 0.889211 0.000000 
0.350703 -0.665787 0.000000 
0.320477 -0.203528 0.000000 
0.745711 0.499133 0.000000 
0.696288 -0.383536 0.000000 
0.329803 -0.791357 0.000000 
0.064644 0.799525 0.000000 
-0.165554 0.453821 0.000000 
-0.457106 0.080591 0.000000 
-0.648893 -0.375016 0.000000 
0.613976 0.554079 0.000000 
0.361184 0.334372 0.000000 
0.318924 0.953709 0.000000 
0.391858 -0.425505 0.000000 
0.625081 0.085638 0.000000 
0.953546 0.459129 0.000000 
-0.825746 0.992327 0.000000 
-0.992920 -0.254161 0.000000 
0.250227 0.929011 0.000000 
0.828460 -0.901508 0.000000 
-0.675493 -0.787720 0.000000 
-0.185058 -0.776521 0.000000 
0.345230 -0.806344 0.000000 
0.796271 -0.953090 0.000000 
-0.815214 0.751000 0.000000 
-0.584332 0.282948 0.000000 
-0.417617 -0.167894 0.000000 
-0.339101 -0.591602 0.000000 
-0.333001 -0.954160 0.000000 
-0.636168 0.564764 0.000000 
-0.029208 0.811653 0.000000 
0.519124 0.978814 0.000000 
0.245220 0.171896 0.000000 
-0.381527 -0.247549 0.000000 
-0.724165 -0.645955 0.000000 
0.973274 0.985970 0.000000 
0.662588 0.574544 0.000000 
0.257508 0.277355 0.000000 
-0.111212 -0.093754 0.000000 
-0.265660 -0.551511 0.000000 
-0.444277 0.973471 0.000000 
-0.678089 0.465286 0.000000 
-0.963427 0.032514 0.000000 
0.840899 -0.495949 0.000000 
0.658923 -0.986687 0.000000 
0.427427 0.494257 0.000000 
-0.970761 0.376156 0.000000 
-0.982594 0.997643 0.000000 
-0.812037 -0.519857 0.000000 
-0.167401 -0.739080 0.000000 
0.509353 -0.611602 0.000000 
-0.970439 -0.767526 0.000000 
-0.361577 -0.158179 0.000000 
0.172065 0.234981 0.000000 
0.603305 0.628676 0.000000 
-0.911679 0.896157 0.000000 
-0.396211 -0.995252 0.000000 
0.170505 -0.839049 0.000000 
0.725587 -0.616812 0.000000 
-0.788256 -0.383053 0.000000 
-0.362177 -0.226024 0.000000 
0.057107 -0.097282 0.000000 
0.460091 -0.003515 0.000000 
0.870424 -0.014978 0.000000 
-0.603863 -0.326605 0.000000 
-0.283193 -0.345264 0.000000 
-0.214046 -0.723480 0.000000 
-0.655385 0.890942 0.000000 
-0.309385 -0.606828 0.000000 
-0.152080 -0.227086 0.000000 
-0.440263 0.063016 0.000000 
-0.669601 0.299572 0.000000 
-0.987663 0.471913 0.000000 
0.673130 0.571774 0.000000 
0.362722 0.613022 0.000000 
0.059072 0.608374 0.000000 
-0.225166 0.593932 0.000000 
-0.476926 0.626760 0.000000 
-0.695557 0.682006 0.000000 
-0.922809 0.762432 0.000000 
0.844375 0.802318 0.000000 
0.609227 0.826728 0.000000 
0.319205 0.835535 0.000000 
0.318564 -0.126824 0.000000 
0.275155 -0.862487 0.000000 
0.277813 0.472105 0.000000 
0.198616 -0.179007 0.000000 
0.045687 -0.804721 0.000000 
-0.227853 0.635993 0.000000 
-0.771665 0.442610 0.000000 
0.529366 0.428469 0.000000 
-0.181389 0.346180 0.000000 
-0.955579 0.272687 0.000000 
0.340536 0.156598 0.000000 
-0.253283 0.304321 0.000000 
-0.838218 0.468894 0.000000 
0.652118 0.383259 0.000000 
0.156683 0.292910 0.000000 
-0.317885 0.358667 0.000000 
-0.805411 0.511892 0.000000 
0.790018 0.749304 0.000000 
0.348914 0.832171 0.000000 
-0.781500 0.977041 0.000000 
0.443727 -0.824737 0.000000 
0.969758 0.216372 0.000000 
-0.828822 -0.835196 0.000000 
-0.105199 -0.679229 0.000000 
0.531967 -0.505142 0.000000 
-0.847791 -0.313544 0.000000 
-0.294150 -0.126741 0.000000 
0.179940 0.049810 0.000000 
0.648498 0.225349 0.000000 
-0.845891 0.425567 0.000000 
0.712759 -0.716460 0.000000 
0.233218 0.554221 0.000000 
-0.060038 -0.159889 0.000000 
-0.534355 -0.630485 0.000000 
0.596342 0.209878 0.000000 
0.514655 -0.856302 0.000000 
0.442317 0.153919 0.000000 
0.379187 -0.798465 0.000000 
0.185284 0.446773 0.000000 
-0.023765 -0.200768 0.000000 
-0.270395 -0.852640 0.000000 
-0.236466 0.563751 0.000000 
0.026743 0.081519 0.000000 
0.189127 -0.362111 0.000000 
0.388323 -0.912997 0.000000 
0.612726 0.444033 0.000000 
0.757333 -0.057615 0.000000 
0.871994 -0.438650 0.000000 
0.984020 -0.782810 0.000000 
-0.920225 0.860649 0.000000 
-0.868589 0.471412 0.000000 
-0.806104 0.090491 0.000000 
-0.737179 -0.301446 0.000000 
-0.681288 -0.709095 0.000000 
-0.675622 0.887692 0.000000 
-0.637625 0.507619 0.000000 
-0.563011 0.126882 0.000000 
-0.568465 -0.267535 0.000000 
-0.655455 -0.688304 0.000000 
-0.805439 0.860151 0.000000 
-0.937614 0.378519 0.000000 
0.980875 -0.041065 0.000000 
0.929641 -0.378026 0.000000 
0.890864 -0.717031 0.000000 
0.813992 0.984197 0.000000 
0.732936 0.702250 0.000000 
0.622948 0.453520 0.000000 
0.535046 0.257584 0.000000 
0.482441 0.071164 0.000000 
0.447268 -0.103988 0.000000 
0.390324 -0.246531 0.000000 
0.315718 -0.380948 0.000000 
0.195060 -0.519125 0.000000 
-0.061159 -0.679273 0.000000 
-0.999414 0.951310 0.000000 
-0.891123 0.862256 0.000000 
0.887266 -0.940994 0.000000 
-0.743495 0.795026 0.000000 
0.734539 -0.828220 0.000000 
-0.569835 0.725615 0.000000 
-0.364125 0.637279 0.000000 
0.515525 -0.678858 0.000000 
0.159947 -0.484423 0.000000 
-0.124864 0.521634 0.000000 
-0.261271 -0.455670 0.000000 
0.144790 0.373237 0.000000 
0.431483 0.194872 0.000000 
0.733444 -0.015246 0.000000 
-0.655847 -0.726036 0.000000 
0.943683 0.918002 0.000000 
-0.919256 -0.333626 0.000000 
-0.669219 -0.774479 0.000000 
0.609289 0.453039 0.000000 
0.361178 -0.097690 0.000000 
0.265098 -0.674853 0.000000 
0.240729 0.824948 0.000000 
0.137894 0.419132 0.000000 
-0.171061 0.117741 0.000000 
-0.617512 -0.011490 0.000000 
-0.871675 0.366172 0.000000 
-0.340607 0.482772 0.000000 
-0.947273 0.929994 0.000000 
-0.925735 -0.288653 0.000000 
-0.296904 -0.460592 0.000000 
-0.866025 0.515789 0.000000 
-0.196901 0.177834 0.000000 
-0.682157 -0.867928 0.000000 
0.009764 0.759308 0.000000 
-0.399313 -0.317541 0.000000 
0.309756 -0.724353 0.000000 
-0.052704 0.218857 0.000000 
0.687129 -0.268451 0.000000 
0.363154 0.734062 0.000000 
0.843147 -0.686787 0.000000 
-0.855521 0.144084 0.000000 
-0.602078 -0.097292 0.000000 
-0.147513 0.322564 0.000000 
0.364276 0.529758 0.000000 
-0.960774 0.637565 0.000000 
0.356615 -0.199418 0.000000 
-0.084108 0.288334 0.000000 
-0.532819 0.757158 0.000000 
-0.120689 0.815760 0.000000 
-0.479927 0.783045 0.000000 
-0.697689 0.565653 0.000000 
-0.989378 0.313636 0.000000 
0.752480 0.020160 0.000000 
0.519653 -0.234513 0.000000 
0.294825 -0.527783 0.000000 
0.058113 -0.848365 0.000000 
-0.188760 0.757632 0.000000 
-0.350807 0.307708 0.000000 
-0.498687 -0.135144 0.000000 
-0.729843 -0.616819 0.000000 
0.955024 0.892735 0.000000 
0.560391 0.506710 0.000000 
0.089686 0.328371 0.000000 
-0.387552 0.291035 0.000000 
-0.813382 0.267759 0.000000 
0.790392 0.174680 0.000000 
0.329159 0.074321 0.000000 
-0.219751 0.091660 0.000000 
-0.710130 0.141180 0.000000 
0.889273 0.190499 0.000000 
0.517997 0.089265 0.000000 
-0.429248 0.896548 0.000000 
-0.064528 0.596718 0.000000 
-0.300707 0.250439 0.000000 
-0.306319 0.698615 0.000000 
-0.180731 -0.930506 0.000000 
0.432965 -0.859322 0.000000 
0.370628 -0.568834 0.000000 
0.325989 -0.228445 0.000000 
-0.522273 -0.167992 0.000000 
-0.842731 -0.880017 0.000000 
-0.793890 -0.520504 0.000000 
-0.380192 -0.908153 0.000000 
-0.283085 -0.716574 0.000000 
0.147236 0.998019 0.000000 
0.860335 -0.710146 0.000000 
0.640606 0.993821 0.000000 
0.438148 0.718710 0.000000 
-0.424839 -0.787706 0.000000 
-0.391802 -0.310098 0.000000 
0.258553 -0.524675 0.000000 
0.240678 0.031556 0.000000 
-0.709942 -0.658146 0.000000 
0.895392 -0.478669 0.000000 
0.519943 -0.484658 0.000000 
0.153736 -0.652658 0.000000 
-0.240046 -0.762507 0.000000 
-0.613196 -0.972302 0.000000 
0.219127 0.399042 0.000000 
0.119591 -0.048901 0.000000 
-0.285803 0.816031 0.000000 
-0.366056 -0.119600 0.000000 
-0.328198 0.297138 0.000000 
-0.397517 0.919727 0.000000 
0.135709 -0.809986 0.000000 
0.698295 -0.342601 0.000000 
-0.628979 -0.791114 0.000000 
-0.480220 -0.531725 0.000000 
-0.737957 -0.327840 0.000000 
-0.953233 -0.638264 0.000000 
0.961585 -0.103763 0.000000 
0.674069 -0.453853 0.000000 
0.309528 -0.367331 0.000000 
0.711573 0.177133 0.000000 
-0.009608 -0.276675 0.000000 
0.503383 0.513733 0.000000 
-0.294407 -0.088885 0.000000 
-0.687493 0.140040 0.000000 
0.811346 0.237410 0.000000 
0.300767 0.167585 0.000000 
0.271251 0.886722 0.000000 
0.054579 -0.630857 0.000000 
0.038960 -0.140198 0.000000 
0.026893 0.327219 0.000000 
-0.121162 0.770601 0.000000 
-0.263862 -0.738188 0.000000 
-0.400880 -0.195592 0.000000 
-0.111935 0.086978 0.000000 
-0.487561 0.029495 0.000000 
-0.841875 0.005906 0.000000 
0.966895 0.582126 0.000000 
0.375392 0.269454 0.000000 
-0.564709 -0.002440 0.000000 
-0.936132 0.204709 0.000000 
-0.323929 0.135410 0.000000 
0.387439 0.147513 0.000000 
0.735149 0.301045 0.000000 
-0.944297 0.495866 0.000000 
-0.601511 0.567621 0.000000 
-0.342359 0.666009 0.000000 
-0.067887 0.837805 0.000000 
0.316829 0.975475 0.000000 
0.751701 -0.927988 0.000000 
-0.819373 -0.862746 0.000000 
-0.414569 -0.637530 0.000000 
0.408010 0.538185 0.000000 
0.483146 0.968014 0.000000 
0.466514 -0.538653 0.000000 
0.588726 -0.048203 0.000000 
-0.640076 -0.322732 0.000000 
-0.874687 -0.056120 0.000000 
0.837741 0.081222 0.000000 
0.570369 0.174375 0.000000 
0.289930 0.250283 0.000000 
-0.019016 0.220460 0.000000 
-0.322516 0.253160 0.000000 
-0.578419 0.347021 0.000000 
-0.808356 0.424476 0.000000 
0.958375 0.486795 0.000000 
0.721257 0.538679 0.000000 
0.460217 0.563245 0.000000 
0.099299 0.555866 0.000000 
0.797082 0.041427 0.000000 
0.085754 -0.377036 0.000000 
-0.245499 0.192288 0.000000 
-0.836361 0.397877 0.000000 
0.755297 0.537849 0.000000 
0.425481 0.686489 0.000000 
0.114905 0.826815 0.000000 
-0.184938 0.910948 0.000000 
-0.433599 0.957142 0.000000 
-0.630187 0.988270 0.000000 
-0.782459 -0.981311 0.000000 
-0.887076 -0.901417 0.000000 
-0.973255 -0.757449 0.000000 
0.061781 0.614515 0.000000 
-0.281811 -0.784575 0.000000 
-0.014558 -0.559480 0.000000 
-0.512193 0.447615 0.000000 
-0.839845 -0.406601 0.000000 
0.519869 -0.251146 0.000000 
0.833170 -0.887195 0.000000 
-0.228490 0.687928 0.000000 
0.960704 -0.392032 0.000000 
0.399542 -0.606217 0.000000 
-0.124931 -0.912708 0.000000 
0.394833 0.152292 0.000000 
-0.058010 0.297326 0.000000 
-0.530497 0.389168 0.000000 
-0.964775 0.400234 0.000000 
0.695557 0.357002 0.000000 
0.518841 0.638564 0.000000 
0.264137 0.920348 0.000000 
-0.023251 -0.873584 0.000000 
-0.269205 -0.749765 0.000000 
-0.415504 -0.595087 0.000000 
-0.515493 -0.383697 0.000000 
-0.666685 -0.131036 0.000000 
-0.856660 0.142766 0.000000 
0.919347 0.410160 0.000000 
0.065966 -0.342789 0.000000 
-0.223215 0.872341 0.000000 
-0.587394 0.329893 0.000000 
0.883535 -0.026967 0.000000 
0.296206 -0.207346 0.000000 
-0.201073 -0.208672 0.000000 
-0.628186 -0.234757 0.000000 
0.968535 -0.461182 0.000000 
0.459790 -0.600239 0.000000 
-0.331105 0.761578 0.000000 
-0.711137 -0.935578 0.000000 
-0.317320 -0.625942 0.000000 
-0.126979 -0.596399 0.000000 
0.031053 -0.987358 0.000000 
0.504275 -0.793371 0.000000 
-0.906989 -0.662901 0.000000 
-0.590039 -0.697560 0.000000 
-0.955848 -0.829633 0.000000 
0.720736 -0.867681 0.000000 
-0.792472 -0.303281 0.000000 
0.901897 -0.187123 0.000000 
0.631206 -0.234320 0.000000 
0.667192 -0.539614 0.000000 
0.944806 -0.493272 0.000000 
-0.710192 0.819025 0.000000 
-0.062680 -0.071434 0.000000 
-0.649106 -0.011617 0.000000 
0.711360 -0.153771 0.000000 
0.613085 0.650722 0.000000 
-0.067928 0.451860 0.000000 
-0.556094 -0.741571 0.000000 
-0.270702 0.024076 0.000000 
0.259223 0.565857 0.000000 
0.684860 0.951284 0.000000 
-0.940903 -0.697126 0.000000 
0.840448 -0.315859 0.000000 
-0.741988 0.340868 0.000000 
-0.795419 -0.320749 0.000000 
0.626365 0.265354 0.000000 
0.688498 -0.372466 0.000000 
0.062345 0.112402 0.000000 
-0.533842 -0.136144 0.000000 
0.193504 -0.499670 0.000000 
-0.288260 -0.710528 0.000000 
-0.587957 0.967820 0.000000 
0.998403 -0.994563 0.000000 
0.963248 -0.415593 0.000000 
-0.345876 0.527140 0.000000 
0.975077 0.478396 0.000000 
0.965114 -0.176642 0.000000 
-0.363888 -0.404948 0.000000 
-0.878040 -0.855021 0.000000 
-0.689372 0.395677 0.000000 
-0.759881 -0.439953 0.000000 
-0.946337 0.839884 0.000000 
0.728083 0.170738 0.000000 
-0.389880 0.640441 0.000000 
0.244255 0.101540 0.000000 
0.665267 -0.284033 0.000000 
0.890740 -0.560180 0.000000 
0.127170 -0.749591 0.000000 
0.475428 -0.164921 0.000000 
-0.729726 -0.260616 0.000000 
0.248928 -0.133635 0.000000 
-0.184396 -0.376658 0.000000 
-0.009634 -0.822983 0.000000 
0.265882 -0.817172 0.000000 
0.536198 -0.725050 0.000000 
-0.062150 -0.298067 0.000000 
0.128142 -0.252778 0.000000 
0.228057 -0.163364 0.000000 
0.272947 -0.045684 0.000000 
0.255789 0.116620 0.000000 
0.268548 0.327300 0.000000 
0.323707 0.583497 0.000000 
-0.484426 -0.234465 0.000000 
0.440640 0.808982 0.000000 
0.524091 -0.940815 0.000000 
0.503760 -0.643826 0.000000 
0.483409 -0.268675 0.000000 
0.494151 0.159379 0.000000 
0.560591 0.648571 0.000000 
0.709971 -0.832390 0.000000 
0.928140 -0.376500 0.000000 
-0.845059 -0.037936 0.000000 
0.963413 0.374150 0.000000 
-0.457184 0.342342 0.000000 
-0.786674 0.330702 0.000000 
-0.231264 0.428221 0.000000 
-0.019584 0.580747 0.000000 
0.096168 -0.712173 0.000000 
0.577941 -0.552650 0.000000 
-0.983799 -0.493725 0.000000 
-0.567177 -0.514423 0.000000 
0.900051 0.119819 0.000000 
0.701631 -0.241047 0.000000 
-0.178395 -0.613369 0.000000 
0.218403 -0.744300 0.000000 
0.604722 -0.893214 0.000000 
0.935778 0.944917 0.000000 
-0.839268 0.773015 0.000000 
-0.575600 0.727849 0.000000 
-0.206542 0.786259 0.000000 
0.241981 0.770117 0.000000 
0.638830 0.629424 0.000000 
0.582552 -0.937062 0.000000 
0.388008 -0.615076 0.000000 
0.171855 -0.215812 0.000000 
0.699188 0.738009 0.000000 
0.756689 0.377276 0.000000 
0.809712 -0.013514 0.000000 
0.871107 -0.416776 0.000000 
0.944100 -0.795383 0.000000 
0.933052 0.800383 0.000000 
-0.015009 0.297710 0.000000 
-0.172427 0.860799 0.000000 
-0.285917 -0.642503 0.000000 
-0.516343 -0.265814 0.000000 
0.120020 -0.372760 0.000000 
0.740462 -0.366288 0.000000 
-0.492612 -0.218793 0.000000 
0.941028 0.034547 0.000000 
-0.623521 -0.226059 0.000000 
0.504106 0.357594 0.000000 
-0.072211 0.933490 0.000000 
-0.659927 0.137498 0.000000 
0.607593 0.919181 0.000000 
0.040652 -0.483795 0.000000 
-0.811871 0.317508 0.000000 
-0.629688 -0.696244 0.000000 
0.457012 -0.828987 0.000000 
0.390010 -0.553633 0.000000 
-0.799571 -0.178179 0.000000 
0.323869 -0.617002 0.000000 
0.429638 -0.424238 0.000000 
0.261986 -0.005004 0.000000 
0.365414 0.492368 0.000000 
-0.481680 0.677180 0.000000 
-0.869174 -0.907893 0.000000 
0.128790 -0.525047 0.000000 
-0.185239 -0.173422 0.000000 
-0.389875 -0.683907 0.000000 
0.895222 0.810024 0.000000 
0.710389 -0.899296 0.000000 
-0.847290 0.763742 0.000000 
0.287933 0.748635 0.000000 
0.697276 0.171005 0.000000 
-0.225780 0.652020 0.000000 
0.590389 -0.791029 0.000000 
0.177247 -0.571902 0.000000 
-0.170271 -0.527821 0.000000 
-0.232285 -0.276648 0.000000 
0.311626 -0.033429 0.000000 
0.055258 0.249290 0.000000 
-0.293721 0.597101 0.000000 
-0.612847 -0.870727 0.000000 
0.606898 -0.619756 0.000000 
-0.559752 -0.929964 0.000000 
-0.755546 -0.641212 0.000000 
0.864396 -0.407027 0.000000 
0.402505 -0.226607 0.000000 
-0.074731 -0.056634 0.000000 
-0.583594 0.093777 0.000000 
0.877013 0.151997 0.000000 
0.330725 0.122881 0.000000 
-0.227259 0.026812 0.000000 
-0.934741 0.740136 0.000000 
-0.282015 -0.974563 0.000000 
0.657618 0.203046 0.000000 
-0.349776 0.014985 0.000000 
0.464486 -0.536714 0.000000 
0.318675 -0.118910 0.000000 
-0.110368 -0.253985 0.000000 
-0.046073 -0.838027 0.000000 
0.630131 -0.346695 0.000000 
0.548521 -0.938766 0.000000 
-0.906454 0.837050 0.000000 
-0.569821 0.955803 0.000000 
0.171667 0.518622 0.000000 
0.624856 0.836318 0.000000 
-0.787204 0.969231 0.000000 
-0.656434 0.261342 0.000000 
0.678145 0.289561 0.000000 
0.548901 0.397133 0.000000 
0.522821 0.098273 0.000000 
0.170763 -0.416638 0.000000 
0.619903 0.985014 0.000000 
0.491043 -0.567445 0.000000 
0.430568 -0.118420 0.000000 
0.397886 0.289767 0.000000 
0.372389 0.625316 0.000000 
0.234531 0.888027 0.000000 
-0.108646 -0.913491 0.000000 
-0.461296 -0.529600 0.000000 
-0.040446 0.960463 0.000000 
-0.123152 0.356891 0.000000 
-0.068425 -0.182182 0.000000 
0.061985 -0.624271 0.000000 
0.213315 -0.978142 0.000000 
-0.677082 0.084729 0.000000 
-0.403123 0.939842 0.000000 
0.730197 0.720830 0.000000 
-0.085587 0.795017 0.000000 
-0.824707 -0.885057 0.000000 
0.518561 -0.476377 0.000000 
-0.689863 -0.428060 0.000000 
-0.030363 0.050173 0.000000 
-0.782264 0.696314 0.000000 
-0.782655 -0.749758 0.000000 
0.980054 0.078366 0.000000 
0.714233 0.869340 0.000000 
0.152694 0.689765 0.000000 
0.017432 0.862610 0.000000 
0.506403 0.579745 0.000000 
0.837402 0.384830 0.000000 
-0.870286 0.333156 0.000000 
-0.578145 0.391338 0.000000 
-0.243723 0.501695 0.000000 
-0.024466 -0.784719 0.000000 
0.713846 0.614164 0.000000 
-0.987870 -0.003233 0.000000 
-0.865814 -0.385303 0.000000 
-0.745833 -0.818742 0.000000 
-0.791379 -0.637925 0.000000 
-0.575818 -0.802248 0.000000 
-0.361849 -0.781148 0.000000 
-0.084879 -0.737986 0.000000 
0.292298 -0.760704 0.000000 
0.638056 -0.927515 0.000000 
0.965633 0.970836 0.000000 
-0.600397 0.980091 0.000000 
0.099323 -0.912331 0.000000 
-0.556419 -0.335404 0.000000 
-0.540015 0.793433 0.000000 
0.452015 0.748186 0.000000 
0.565869 0.716607 0.000000 
0.618169 0.342700 0.000000 
-0.364937 0.834699 0.000000 
-0.024967 0.432347 0.000000 
0.693387 0.471457 0.000000 
-0.409429 0.328753 0.000000 
0.648858 0.130846 0.000000 
-0.016302 0.120064 0.000000 
-0.071750 0.368961 0.000000 
-0.021075 0.644600 0.000000 
0.904313 0.210109 0.000000 
-0.328245 0.686805 0.000000 
-0.199864 0.183589 0.000000 
-0.059894 -0.126088 0.000000 
0.306449 0.282381 0.000000 
0.581311 0.271711 0.000000 
0.811202 0.196319 0.000000 
-0.929321 0.166257 0.000000 
-0.598851 0.719201 0.000000 
-0.462229 0.346997 0.000000 
0.157983 -0.025457 0.000000 
-0.452647 0.824800 0.000000 
-0.817677 0.075295 0.000000 
-0.802257 -0.590900 0.000000 
-0.006423 -0.481067 0.000000 
-0.415749 0.082343 0.000000 
-0.661112 0.570144 0.000000 
-0.903545 -0.920374 0.000000 
0.794127 -0.381858 0.000000 
0.475703 0.298788 0.000000 
0.280339 -0.759672 0.000000 
-0.745047 0.724754 0.000000 
0.806125 0.842875 0.000000 
-0.924159 -0.537376 0.000000 
-0.838332 0.210014 0.000000 
0.938677 0.937650 0.000000 
-0.127984 0.944097 0.000000 
-0.717237 0.063880 0.000000 
-0.490315 -0.172232 0.000000 
0.920055 -0.474328 0.000000 
-0.433213 -0.253488 0.000000 
-0.455716 0.769545 0.000000 
-0.369439 0.056179 0.000000 
0.094162 -0.053661 0.000000 
-0.590112 -0.595769 0.000000 
-0.382918 -0.509445 0.000000 
-0.554670 0.402558 0.000000 
0.050890 0.597530 0.000000 
0.480506 0.342623 0.000000 
0.607162 -0.465815 0.000000 
0.111386 0.887762 0.000000 
-0.579220 -0.347012 0.000000 
-0.469452 0.040495 0.000000 
-0.116524 -0.273046 0.000000 
0.437746 -0.168757 0.000000 
0.148753 -0.255947 0.000000 
0.038944 0.228777 0.000000 
0.069423 0.080526 0.000000 
0.044630 -0.210466 0.000000 
0.172101 -0.982840 0.000000 
0.145303 0.474389 0.000000 
-0.026328 -0.656890 0.000000 
-0.191141 -0.145648 0.000000 
-0.361813 0.630142 0.000000 
-0.456727 -0.677752 0.000000 
0.073610 -0.722039 0.000000 
0.593127 -0.670935 0.000000 
0.468452 0.584008 0.000000 
0.509436 -0.176034 0.000000 
0.753135 -0.926878 0.000000 
-0.298191 -0.192766 0.000000 
-0.054883 -0.371885 0.000000 
-0.753564 0.169669 0.000000 
0.664489 0.346148 0.000000 
0.794532 0.900279 0.000000 
0.104494 0.544215 0.000000 
-0.799607 -0.127702 0.000000 
-0.925542 0.577184 0.000000 
-0.746737 -0.661662 0.000000 
0.223850 0.662399 0.000000 
-0.917366 -0.241884 0.000000 
0.364196 -0.460610 0.000000 
-0.170638 -0.761996 0.000000 
-0.458344 0.864097 0.000000 
-0.722814 0.695492 0.000000 
-0.990564 0.608854 0.000000 
0.771803 0.910652 0.000000 
0.404415 -0.579521 0.000000 
0.823147 0.307394 0.000000 
0.197263 0.176756 0.000000 
0.521108 0.759115 0.000000 
-0.812362 -0.403237 0.000000 
-0.826705 -0.962664 0.000000 
-0.906299 -0.486967 0.000000 
0.509798 -0.339684 0.000000 
0.555382 -0.513296 0.000000 
-0.532676 -0.298253 0.000000 
-0.007373 -0.851110 0.000000 
0.133899 0.353787 0.000000 
-0.989626 -0.131876 0.000000 
0.955119 -0.344083 0.000000 
0.194711 0.412916 0.000000 
-0.921632 -0.560120 0.000000 
-0.718261 -0.232606 0.000000 
0.761622 0.742677 0.000000 
-0.410907 -0.050772 0.000000 
-0.477502 -0.549146 0.000000 
-0.880410 -0.689463 0.000000 
-0.317894 -0.591300 0.000000 
0.619989 -0.576781 0.000000 
-0.322246 -0.562679 0.000000 
0.859501 -0.780478 0.000000 
-0.743292 0.894385 0.000000 
0.311297 -0.017402 0.000000 
-0.302565 -0.408568 0.000000 
0.242136 -0.731106 0.000000 
0.610888 -0.157512 0.000000 
0.332754 -0.778774 0.000000 
0.402043 0.010115 0.000000 
0.383866 -0.501829 0.000000 
0.121735 -0.680433 0.000000 
-0.394639 0.550477 0.000000 
0.465434 0.391254 0.000000 
-0.885931 -0.081667 0.000000 
0.106860 -0.713840 0.000000 
-0.970059 0.379288 0.000000 
-0.321951 0.173094 0.000000 
-0.617305 0.189738 0.000000 
0.571904 -0.077662 0.000000 
0.982152 -0.876107 0.000000 
-0.522462 0.804095 0.000000 
-0.488374 0.485676 0.000000 
0.210607 -0.190630 0.000000 
0.595678 -0.172023 0.000000 
-0.043339 0.825230 0.000000 
0.615377 0.597074 0.000000 
-0.535481 -0.467517 0.000000 
0.939078 0.404913 0.000000 
-0.704020 -0.801415 0.000000 
-0.736817 0.172768 0.000000 
0.420908 0.883803 0.000000 
-0.208532 -0.004196 0.000000 
-0.813804 0.782874 0.000000 
0.235093 -0.567206 0.000000 
-0.463181 0.040867 0.000000 
-0.340277 -0.262463 0.000000 
-0.275583 0.560361 0.000000 
0.584587 0.659412 0.000000 
-0.321741 0.577216 0.000000 
-0.407091 -0.794300 0.000000 
-0.312362 0.921697 0.000000 
0.946361 0.940580 0.000000 
0.696908 -0.002712 0.000000 
0.008450 0.651944 0.000000 
0.381537 -0.885449 0.000000 
-0.215298 -0.520523 0.000000 
0.421300 0.119613 0.000000 
-0.614241 0.866626 0.000000 
0.950913 -0.415262 0.000000 
-0.023907 -0.031133 0.000000 
-0.487760 -0.042158 0.000000 
0.355066 0.187444 0.000000 
0.710261 -0.788472 0.000000 
0.423295 0.434348 0.000000 
-0.537785 0.589867 0.000000 
0.722766 0.752248 0.000000 
-0.599914 -0.162612 0.000000 
0.832023 0.265881 0.000000 
0.744090 -0.010965 0.000000 
-0.692814 -0.875549 0.000000 
0.970142 -0.229445 0.000000 
-0.700403 -0.118263 0.000000 
0.319369 -0.327123 0.000000 
0.107907 -0.763988 0.000000 
0.391620 -0.089763 0.000000 
0.834286 -0.431767 0.000000 
-0.955494 0.506663 0.000000 
0.438002 -0.549332 0.000000 
-0.541529 0.743169 0.000000 
0.998622 -0.762577 0.000000 
-0.332985 0.944214 0.000000 
0.573862 -0.264238 0.000000 
-0.517839 0.282864 0.000000 
0.432073 -0.076942 0.000000 
-0.601461 0.359853 0.000000 
-0.182239 0.131570 0.000000 
-0.878892 0.878646 0.000000 
-0.449061 -0.143370 0.000000 
0.052809 0.531557 0.000000 
-0.742936 -0.062927 0.000000 
-0.152296 0.149516 0.000000 
CELL_DATA 899 
SCALARS MASS float 
LOOKUP_TABLE default 
0.814997 
1.448845 
1.668565 
1.794886 
1.361438 
1.831342 
2.259706 
0.213135 
0.196588 
0.207496 
1.880851 
0.439777 
0.331778 
0.364951 
0.612627 
0.274411 
0.260395 
0.217654 
0.296934 
0.266990 
0.466240 
0.509384 
0.733216 
0.739170 
0.387188 
0.345944 
0.452966 
0.494740 
0.551308 
0.648448 
0.752806 
0.417235 
0.218595 
0.289879 
0.722922 
0.804537 
1.021505 
0.937232 
0.841016 
0.803048 
0.619897 
1.038794 
1.293895 
1.301335 
0.691005 
0.431975 
0.647573 
0.616545 
0.576670 
0.266309 
0.297534 
0.391690 
0.604646 
0.774259 
0.831676 
0.939146 
1.129789 
0.520851 
0.464605 
0.716459 
0.889315 
0.593583 
0.614640 
0.457422 
0.372306 
0.488949 
0.641320 
0.747045 
0.490174 
0.551661 
0.523343 
0.508441 
0.614565 
0.859709 
0.765910 
0.720157 
0.682478 
0.421921 
0.268961 
0.262942 
0.426045 
0.393658 
0.278380 
0.261718 
0.162198 
0.234839 
0.278449 
0.287969 
0.244414 
0.403757 
0.550341 
0.463860 
0.338742 
0.350225 
0.337056 
0.525733 
0.562823 
0.419041 
0.314522 
0.509290 
0.523048 
0.877653 
0.349228 
0.225451 
0.235059 
0.249781 
0.366201 
0.644537 
0.620783 
0.339837 
0.287648 
0.382936 
0.362625 
0.799998 
1.122418 
0.799088 
0.680669 
0.866894 
1.003571 
1.354661 
1.853857 
1.742882 
1.214309 
1.426031 
1.636237 
1.719299 
1.801144 
1.602051 
1.452273 
1.275395 
0.790935 
0.890716 
2.050838 
1.154370 
1.385193 
1.297838 
0.991117 
1.158409 
0.767421 
0.829112 
0.895971 
1.063583 
0.809199 
0.656638 
0.354820 
1.452535 
1.387436 
1.274147 
0.537119 
1.620892 
1.463026 
1.596472 
1.756097 
1.271080 
1.065987 
1.156825 
1.276513 
1.414763 
1.006273 
1.096772 
1.062030 
0.892650 
1.284017 
0.980927 
1.000067 
2.321434 
1.747538 
1.536946 
1.712190 
1.447662 
1.007350 
0.975424 
1.487738 
1.639549 
1.486177 
0.979182 
0.805630 
0.813336 
0.641130 
0.711156 
0.207836 
0.269013 
0.855473 
1.045568 
0.791718 
0.342691 
0.453304 
0.426256 
0.570926 
0.416459 
0.375884 
0.354688 
0.264371 
0.216171 
0.182793 
0.252956 
0.179739 
0.222894 
0.247373 
1.613875 
1.875775 
2.035370 
2.127471 
1.947260 
1.753562 
1.040721 
1.279022 
2.278945 
2.333206 
2.040851 
1.424418 
1.098725 
1.255601 
0.836194 
0.905620 
0.781446 
0.664302 
0.776641 
2.067730 
1.483350 
2.145495 
2.073271 
1.781968 
1.685305 
1.731154 
1.299699 
1.074228 
1.103773 
1.132785 
3.482831 
1.755828 
2.272319 
1.700356 
3.950527 
3.859171 
4.115531 
3.468933 
2.708902 
2.764259 
2.968101 
1.994670 
1.150141 
0.864719 
1.360273 
1.259775 
0.807082 
0.599653 
0.479233 
0.529928 
0.462560 
0.503857 
0.524851 
0.560322 
0.460734 
0.506103 
0.374542 
0.350464 
0.749792 
0.811574 
0.783632 
0.544062 
0.438563 
0.445491 
0.244570 
0.308771 
0.220812 
0.160103 
0.126686 
0.100795 
0.090745 
0.138791 
0.256352 
0.827395 
0.086830 
0.099690 
0.123853 
0.122249 
0.207192 
0.163120 
0.239219 
0.388240 
0.778706 
0.322964 
1.048544 
0.414071 
0.474721 
0.656925 
1.198437 
1.126206 
1.144058 
1.116759 
1.171714 
1.045737 
0.926556 
0.873202 
0.589826 
0.563407 
0.678725 
0.923637 
0.558139 
1.464933 
1.743086 
1.227811 
1.812559 
1.349474 
1.574665 
1.398369 
1.722017 
1.454376 
1.874986 
1.585674 
2.084762 
2.671368 
1.933273 
2.296072 
1.169028 
1.156625 
2.228174 
2.060782 
1.818668 
1.896772 
2.747172 
0.356480 
0.460413 
0.890515 
0.731993 
0.649918 
0.694495 
0.769888 
0.887832 
0.786104 
0.885935 
1.154372 
1.160047 
0.850850 
0.772332 
0.725769 
0.677854 
0.922960 
0.985818 
1.362571 
0.788450 
0.532504 
0.494248 
0.214341 
0.695641 
0.716454 
0.927986 
0.140593 
0.232810 
0.297508 
0.349532 
1.033550 
2.961022 
1.053017 
0.145387 
0.144061 
0.809607 
0.589993 
0.615340 
0.626094 
0.689657 
0.994540 
1.160792 
1.457671 
0.764565 
0.547649 
0.479604 
0.768153 
0.631003 
0.751347 
0.606687 
0.855802 
1.587568 
1.962281 
1.395860 
1.144432 
1.877399 
1.893745 
0.307074 
0.297075 
0.412702 
0.466584 
0.608375 
0.625241 
0.418250 
0.646555 
0.337519 
0.675916 
0.579132 
0.988219 
1.131267 
0.718056 
0.879108 
1.199383 
0.793040 
0.661365 
0.868802 
1.074436 
1.419386 
0.547188 
0.455355 
0.411414 
1.820604 
2.103034 
2.247161 
1.270531 
2.033362 
0.460225 
0.498661 
0.656889 
0.297227 
0.292840 
0.534216 
0.692218 
0.754218 
0.660662 
0.881838 
0.523952 
0.881889 
0.697812 
0.857701 
0.566564 
0.361654 
0.403990 
0.352687 
0.306233 
0.418854 
0.354892 
0.241996 
0.210380 
0.233870 
0.214722 
0.243485 
0.362589 
0.465080 
2.404070 
1.947644 
0.946490 
0.551552 
0.469478 
0.425042 
0.292762 
0.184844 
0.118944 
0.071142 
0.069311 
0.140690 
1.644604 
1.893235 
1.094464 
2.101951 
1.617670 
1.159842 
3.355291 
1.447872 
1.426745 
1.222373 
1.548358 
0.643619 
0.812967 
0.750840 
0.476016 
0.273108 
0.427659 
0.469155 
0.325123 
0.178433 
0.143716 
0.248584 
0.314263 
0.411721 
0.481902 
1.690053 
1.476918 
1.750955 
1.388709 
1.153712 
0.686586 
0.616590 
1.108327 
1.329332 
0.511210 
0.928724 
0.687317 
1.249044 
0.884423 
1.205268 
1.358704 
0.759682 
0.446899 
0.348083 
0.411368 
0.262857 
0.264051 
0.288463 
0.259541 
1.978994 
1.433550 
1.716658 
1.612371 
1.823596 
1.988735 
2.807794 
2.419984 
1.251635 
0.924962 
0.718513 
0.481721 
1.781845 
0.894209 
1.301109 
0.938003 
1.269811 
1.581854 
0.925531 
0.921482 
0.498159 
0.933556 
1.013253 
2.739234 
1.145164 
1.227291 
1.904434 
1.736902 
3.063486 
2.776380 
2.646664 
3.200246 
2.496591 
1.436311 
0.582963 
0.268172 
2.462910 
1.560589 
2.856408 
3.513568 
3.593902 
0.313806 
0.255175 
0.284552 
0.169076 
0.087198 
0.062303 
0.069477 
0.146007 
0.222206 
0.310248 
0.758933 
0.249616 
0.227668 
0.427883 
0.591969 
0.790973 
0.979806 
1.022167 
0.782199 
0.388473 
0.703038 
0.244376 
0.616469 
0.216482 
0.314505 
1.391385 
0.951653 
0.796124 
0.689270 
0.892729 
0.523362 
0.654291 
0.686632 
0.607247 
0.450163 
0.252199 
0.297680 
0.621092 
0.825379 
0.636461 
0.457189 
0.663078 
1.013095 
0.416230 
0.453041 
0.503777 
0.509642 
0.417663 
0.478631 
1.205103 
1.079333 
0.670462 
0.804833 
1.408696 
1.576894 
1.369391 
1.055885 
1.473299 
0.762761 
2.615622 
4.566645 
2.476428 
2.644593 
2.724505 
3.060286 
3.131817 
3.546054 
2.473962 
5.027535 
0.382103 
0.663605 
1.403935 
0.387474 
1.270149 
0.338234 
1.065505 
0.881563 
0.663855 
0.618089 
1.364242 
1.257690 
2.466677 
0.974088 
0.844131 
0.492159 
0.192867 
0.305660 
0.440228 
0.670215 
1.177208 
1.848496 
1.692244 
0.408748 
0.799495 
0.921837 
0.950751 
0.955365 
1.131829 
1.204590 
1.319271 
1.583603 
0.815568 
0.976245 
0.757035 
0.378270 
0.892601 
0.456735 
0.772070 
1.410773 
0.999250 
1.273725 
0.914644 
1.254854 
1.025297 
0.850160 
1.507333 
1.841585 
0.899843 
3.992341 
1.351294 
1.521600 
0.555017 
0.589491 
0.537133 
0.428380 
0.284792 
0.327998 
0.851282 
1.588842 
1.454404 
1.288405 
0.949336 
0.599172 
0.327841 
1.499221 
3.123945 
2.747463 
2.536700 
2.100494 
1.740348 
2.701089 
1.748755 
1.250020 
0.781477 
2.169762 
1.574870 
0.921296 
1.196363 
0.600461 
0.283891 
0.246672 
0.359092 
0.522446 
2.217231 
1.931660 
0.725891 
0.286414 
0.075896 
0.146061 
0.126060 
0.195473 
0.393830 
0.699257 
0.496011 
0.498903 
1.132455 
2.956735 
10.748612 
2.871802 
4.109697 
6.144787 
3.072817 
6.278416 
5.009994 
4.284342 
3.102812 
3.001759 
0.205204 
0.352257 
0.338488 
2.649178 
6.640870 
0.907021 
0.113230 
0.269347 
0.219010 
0.295027 
0.198745 
0.904479 
0.620715 
0.738414 
1.354952 
1.464627 
1.239278 
0.967340 
0.881495 
1.028853 
1.265897 
1.813090 
3.056601 
4.921530 
2.946529 
1.506820 
2.030213 
2.709747 
2.592820 
0.433253 
0.236396 
0.621654 
0.843519 
2.215793 
0.504732 
0.417480 
0.081054 
0.139552 
0.190309 
0.792540 
0.347080 
1.171400 
1.183571 
1.583892 
0.241547 
0.951997 
0.634522 
1.687218 
0.434750 
0.455607 
0.468496 
0.593095 
1.769477 
1.026473 
1.135123 
1.797339 
0.839631 
0.924470 
0.845703 
1.808078 
1.990630 
2.331248 
2.656456 
3.846695 
2.656881 
1.466393 
1.220445 
1.697253 
1.217922 
1.607812 
2.306175 
2.119227 
1.344304 
1.608658 
1.750037 
1.220253 
0.411747 
0.285856 
0.263192 
0.643053 
2.046456 
0.977348 
1.352223 
1.049209 
1.939998 
0.491120 
1.675469 
2.874237 
5.346095 
4.954993 
2.321985 
5.378686 
0.323862 
3.161959 
2.749729 
1.165122 
4.639949 
6.903549 
1.388530 
13.130022 
10.399030 
3.176275 
3.281581 
2.130918 
2.202166 
18.677771 
0.393556 
1.882276 
2.128266 
0.573620 
7.101032 
8.996294 
13.909047 
3.497158 
2.349395 
5.829165 
1.989320 
3.556176 
1.849605 
0.467352 
3.873245 
0.849130 
1.446858 
1.777539 
3.009091 
3.431483 
3.236575 
5.184580 
2.636125 
3.658244 
1.858148 
3.842623 
5.484070 
4.842566 
3.248038 
2.871939 
6.080934 
2.967966 
0.510912 
4.233476 
4.334059 
1.175840 
0.988338 
2.421584 
1.183952 
9.306750 
4.726810 
1.141527 
2.158936 
2.739469 
6.032449 
1.581485 
4.493860 
9.539122 
14.209354 
7.199147 
3.501693 
2.506154 
17.244339 
16.271074 
6.174211 
16.507673 
7.044861 
8.528390 
0.721090 
3.682418 
6.244847 
8.654681 
6.615292 
1.636205 
11.522723 
6.939662 
1.665240 
0.989746 
1.140976 
14.709179 
3.872443 
3.269091 
0.344281 
0.338818 
0.155842 
0.445990 
0.366565 
0.562578 
SCALARS MASS float 
LOOKUP_TABLE default 
0.814997 
1.448845 
1.668565 
1.794886 
1.361438 
1.831342 
2.259706 
0.213135 
0.196588 
0.207496 
1.880851 
0.439777 
0.331778 
0.364951 
0.612627 
0.274411 
0.260395 
0.217654 
0.296934 
0.266990 
0.466240 
0.509384 
0.733216 
0.739170 
0.387188 
0.345944 
0.452966 
0.494740 
0.551308 
0.648448 
0.752806 
0.417235 
0.218595 
0.289879 
0.722922 
0.804537 
1.021505 
0.937232 
0.841016 
0.803048 
0.619897 
1.038794 
1.293895 
1.301335 
0.691005 
0.431975 
0.647573 
0.616545 
0.576670 
0.266309 
0.297534 
0.391690 
0.604646 
0.774259 
0.831676 
0.939146 
1.129789 
0.520851 
0.464605 
0.716459 
0.889315 
0.593583 
0.614640 
0.457422 
0.372306 
0.488949 
0.641320 
0.747045 
0.490174 
0.551661 
0.523343 
0.508441 
0.614565 
0.859709 
0.765910 
0.720157 
0.682478 
0.421921 
0.268961 
0.262942 
0.426045 
0.393658 
0.278380 
0.261718 
0.162198 
0.234839 
0.278449 
0.287969 
0.244414 
0.403757 
0.550341 
0.463860 
0.338742 
0.350225 
0.337056 
0.525733 
0.562823 
0.419041 
0.314522 
0.509290 
0.523048 
0.877653 
0.349228 
0.225451 
0.235059 
0.249781 
0.366201 
0.644537 
0.620783 
0.339837 
0.287648 
0.382936 
0.362625 
0.799998 
1.122418 
0.799088 
0.680669 
0.866894 
1.003571 
1.354661 
1.853857 
1.742882 
1.214309 
1.426031 
1.636237 
1.719299 
1.801144 
1.602051 
1.452273 
1.275395 
0.790935 
0.890716 
2.050838 
1.154370 
1.385193 
1.297838 
0.991117 
1.158409 
0.767421 
0.829112 
0.895971 
1.063583 
0.809199 
0.656638 
0.354820 
1.452535 
1.387436 
1.274147 
0.537119 
1.620892 
1.463026 
1.596472 
1.756097 
1.271080 
1.065987 
1.156825 
1.276513 
1.414763 
1.006273 
1.096772 
1.062030 
0.892650 
1.284017 
0.980927 
1.000067 
2.321434 
1.747538 
1.536946 
1.712190 
1.447662 
1.007350 
0.975424 
1.487738 
1.639549 
1.486177 
0.979182 
0.805630 
0.813336 
0.641130 
0.711156 
0.207836 
0.269013 
0.855473 
1.045568 
0.791718 
0.342691 
0.453304 
0.426256 
0.570926 
0.416459 
0.375884 
0.354688 
0.264371 
0.216171 
0.182793 
0.252956 
0.179739 
0.222894 
0.247373 
1.613875 
1.875775 
2.035370 
2.127471 
1.947260 
1.753562 
1.040721 
1.279022 
2.278945 
2.333206 
2.040851 
1.424418 
1.098725 
1.255601 
0.836194 
0.905620 
0.781446 
0.664302 
0.776641 
2.067730 
1.483350 
2.145495 
2.073271 
1.781968 
1.685305 
1.731154 
1.299699 
1.074228 
1.103773 
1.132785 
3.482831 
1.755828 
2.272319 
1.700356 
3.950527 
3.859171 
4.115531 
3.468933 
2.708902 
2.764259 
2.968101 
1.994670 
1.150141 
0.864719 
1.360273 
1.259775 
0.807082 
0.599653 
0.479233 
0.529928 
0.462560 
0.503857 
0.524851 
0.560322 
0.460734 
0.506103 
0.374542 
0.350464 
0.749792 
0.811574 
0.783632 
0.544062 
0.438563 
0.445491 
0.244570 
0.308771 
0.220812 
0.160103 
0.126686 
0.100795 
0.090745 
0.138791 
0.256352 
0.827395 
0.086830 
0.099690 
0.123853 
0.122249 
0.207192 
0.163120 
0.239219 
0.388240 
0.778706 
0.322964 
1.048544 
0.414071 
0.474721 
0.656925 
1.198437 
1.126206 
1.144058 
1.116759 
1.171714 
1.045737 
0.926556 
0.873202 
0.589826 
0.563407 
0.678725 
0.923637 
0.558139 
1.464933 
1.743086 
1.227811 
1.812559 
1.349474 
1.574665 
1.398369 
1.722017 
1.454376 
1.874986 
1.585674 
2.084762 
2.671368 
1.933273 
2.296072 
1.169028 
1.156625 
2.228174 
2.060782 
1.818668 
1.896772 
2.747172 
0.356480 
0.460413 
0.890515 
0.731993 
0.649918 
0.694495 
0.769888 
0.887832 
0.786104 
0.885935 
1.154372 
1.160047 
0.850850 
0.772332 
0.725769 
0.677854 
0.922960 
0.985818 
1.362571 
0.788450 
0.532504 
0.494248 
0.214341 
0.695641 
0.716454 
0.927986 
0.140593 
0.232810 
0.297508 
0.349532 
1.033550 
2.961022 
1.053017 
0.145387 
0.144061 
0.809607 
0.589993 
0.615340 
0.626094 
0.689657 
0.994540 
1.160792 
1.457671 
0.764565 
0.547649 
0.479604 
0.768153 
0.631003 
0.751347 
0.606687 
0.855802 
1.587568 
1.962281 
1.395860 
1.144432 
1.877399 
1.893745 
0.307074 
0.297075 
0.412702 
0.466584 
0.608375 
0.625241 
0.418250 
0.646555 
0.337519 
0.675916 
0.579132 
0.988219 
1.131267 
0.718056 
0.879108 
1.199383 
0.793040 
0.661365 
0.868802 
1.074436 
1.419386 
0.547188 
0.455355 
0.411414 
1.820604 
2.103034 
2.247161 
1.270531 
2.033362 
0.460225 
0.498661 
0.656889 
0.297227 
0.292840 
0.534216 
0.692218 
0.754218 
0.660662 
0.881838 
0.523952 
0.881889 
0.697812 
0.857701 
0.566564 
0.361654 
0.403990 
0.352687 
0.306233 
0.418854 
0.354892 
0.241996 
0.210380 
0.233870 
0.214722 
0.243485 
0.362589 
0.465080 
2.404070 
1.947644 
0.946490 
0.551552 
0.469478 
0.425042 
0.292762 
0.184844 
0.118944 
0.071142 
0.069311 
0.140690 
1.644604 
1.893235 
1.094464 
2.101951 
1.617670 
1.159842 
3.355291 
1.447872 
1.426745 
1.222373 
1.548358 
0.643619 
0.812967 
0.750840 
0.476016 
0.273108 
0.427659 
0.469155 
0.325123 
0.178433 
0.143716 
0.248584 
0.314263 
0.411721 
0.481902 
1.690053 
1.476918 
1.750955 
1.388709 
1.153712 
0.686586 
0.616590 
1.108327 
1.329332 
0.511210 
0.928724 
0.687317 
1.249044 
0.884423 
1.205268 
1.358704 
0.759682 
0.446899 
0.348083 
0.411368 
0.262857 
0.264051 
0.288463 
0.259541 
1.978994 
1.433550 
1.716658 
1.612371 
1.823596 
1.988735 
2.807794 
2.419984 
1.251635 
0.924962 
0.718513 
0.481721 
1.781845 
0.894209 
1.301109 
0.938003 
1.269811 
1.581854 
0.925531 
0.921482 
0.498159 
0.933556 
1.013253 
2.739234 
1.145164 
1.227291 
1.904434 
1.736902 
3.063486 
2.776380 
2.646664 
3.200246 
2.496591 
1.436311 
0.582963 
0.268172 
2.462910 
1.560589 
2.856408 
3.513568 
3.593902 
0.313806 
0.255175 
0.284552 
0.169076 
0.087198 
0.062303 
0.069477 
0.146007 
0.222206 
0.310248 
0.758933 
0.249616 
0.227668 
0.427883 
0.591969 
0.790973 
0.979806 
1.022167 
0.782199 
0.388473 
0.703038 
0.244376 
0.616469 
0.216482 
0.314505 
1.391385 
0.951653 
0.796124 
0.689270 
0.892729 
0.523362 
0.654291 
0.686632 
0.607247 
0.450163 
0.252199 
0.297680 
0.621092 
0.825379 
0.636461 
0.457189 
0.663078 
1.013095 
0.416230 
0.453041 
0.503777 
0.509642 
0.417663 
0.478631 
1.205103 
1.079333 
0.670462 
0.804833 
1.408696 
1.576894 
1.369391 
1.055885 
1.473299 
0.762761 
2.615622 
4.566645 
2.476428 
2.644593 
2.724505 
3.060286 
3.131817 
3.546054 
2.473962 
5.027535 
0.382103 
0.663605 
1.403935 
0.387474 
1.270149 
0.338234 
1.065505 
0.881563 
0.663855 
0.618089 
1.364242 
1.257690 
2.466677 
0.974088 
0.844131 
0.492159 
0.192867 
0.305660 
0.440228 
0.670215 
1.177208 
1.848496 
1.692244 
0.408748 
0.799495 
0.921837 
0.950751 
0.955365 
1.131829 
1.204590 
1.319271 
1.583603 
0.815568 
0.976245 
0.757035 
0.378270 
0.892601 
0.456735 
0.772070 
1.410773 
0.999250 
1.273725 
0.914644 
1.254854 
1.025297 
0.850160 
1.507333 
1.841585 
0.899843 
3.992341 
1.351294 
1.521600 
0.555017 
0.589491 
0.537133 
0.428380 
0.284792 
0.327998 
0.851282 
1.588842 
1.454404 
1.288405 
0.949336 
0.599172 
0.327841 
1.499221 
3.123945 
2.747463 
2.536700 
2.100494 
1.740348 
2.701089 
1.748755 
1.250020 
0.781477 
2.169762 
1.574870 
0.921296 
1.196363 
0.600461 
0.283891 
0.246672 
0.359092 
0.522446 
2.217231 
1.931660 
0.725891 
0.286414 
0.075896 
0.146061 
0.126060 
0.195473 
0.393830 
0.699257 
0.496011 
0.498903 
1.132455 
2.956735 
10.748612 
2.871802 
4.109697 
6.144787 
3.072817 
6.278416 
5.009994 
4.284342 
3.102812 
3.001759 
0.205204 
0.352257 
0.338488 
2.649178 
6.640870 
0.907021 
0.113230 
0.269347 
0.219010 
0.295027 
0.198745 
0.904479 
0.620715 
0.738414 
1.354952 
1.464627 
1.239278 
0.967340 
0.881495 
1.028853 
1.265897 
1.813090 
3.056601 
4.921530 
2.946529 
1.506820 
2.030213 
2.709747 
2.592820 
0.433253 
0.236396 
0.621654 
0.843519 
2.215793 
0.504732 
0.417480 
0.081054 
0.139552 
0.190309 
0.792540 
0.347080 
1.171400 
1.183571 
1.583892 
0.241547 
0.951997 
0.634522 
1.687218 
0.434750 
0.455607 
0.468496 
0.593095 
1.769477 
1.026473 
1.135123 
1.797339 
0.839631 
0.924470 
0.845703 
1.808078 
1.990630 
2.331248 
2.656456 
3.846695 
2.656881 
1.466393 
1.220445 
1.697253 
1.217922 
1.607812 
2.306175 
2.119227 
1.344304 
1.608658 
1.750037 
1.220253 
0.411747 
0.285856 
0.263192 
0.643053 
2.046456 
0.977348 
1.352223 
1.049209 
1.939998 
0.491120 
1.675469 
2.874237 
5.346095 
4.954993 
2.321985 
5.378686 
0.323862 
3.161959 
2.749729 
1.165122 
4.639949 
6.903549 
1.388530 
13.130022 
10.399030 
3.176275 
3.281581 
2.130918 
2.202166 
18.677771 
0.393556 
1.882276 
2.128266 
0.573620 
7.101032 
8.996294 
13.909047 
3.497158 
2.349395 
5.829165 
1.989320 
3.556176 
1.849605 
0.467352 
3.873245 
0.849130 
1.446858 
1.777539 
3.009091 
3.431483 
3.236575 
5.184580 
2.636125 
3.658244 
1.858148 
3.842623 
5.484070 
4.842566 
3.248038 
2.871939 
6.080934 
2.967966 
0.510912 
4.233476 
4.334059 
1.175840 
0.988338 
2.421584 
1.183952 
9.306750 
4.726810 
1.141527 
2.158936 
2.739469 
6.032449 
1.581485 
4.493860 
9.539122 
14.209354 
7.199147 
3.501693 
2.506154 
17.244339 
16.271074 
6.174211 
16.507673 
7.044861 
8.528390 
0.721090 
3.682418 
6.244847 
8.654681 
6.615292 
1.636205 
11.522723 
6.939662 
1.665240 
0.989746 
1.140976 
14.709179 
3.872443 
3.269091 
0.344281 
0.338818 
0.155842 
0.445990 
0.366565 
0.562578 
SCALARS DENSITY float 
LOOKUP_TABLE default 
200.000000 
200.000000 
200.000000 
200.000000 
200.000000 
200.000000 
200.000000 
200.000000 
200.000000 
200.000000 
200.000000 
200.000000 
200.000000 
200.000000 
200.000000 
200.000000 
200.000000 
200.000000 
200.000000 
200.000000 
200.000000 
200.000000 
200.000000 
200.000000 
200.000000 
200.000000 
200.000000 
200.000000 
200.000000 
200.000000 
200.000000 
200.000000 
200.000000 
200.000000 
200.000000 
200.000000 
200.000000 
200.000000 
200.000000 
200.000000 
200.000000 
200.000000 
200.000000 
200.000000 
200.000000 
200.000000 
200.000000 
200.000000 
200.000000 
200.000000 
200.000000 
200.000000 
200.000000 
200.000000 
200.000000 
200.000000 
200.000000 
200.000000 
200.000000 
200.000000 
200.000000 
200.000000 
200.000000 
200.000000 
200.000000 
200.000000 
200.000000 
200.000000 
200.000000 
200.000000 
200.000000 
200.000000 
200.000000 
200.000000 
200.000000 
200.000000 
200.000000 
200.000000 
200.000000 
200.000000 
200.000000 
200.000000 
200.000000 
200.000000 
200.000000 
200.000000 
200.000000 
200.000000 
200.000000 
200.000000 
200.000000 
200.000000 
200.000000 
200.000000 
200.000000 
200.000000 
200.000000 
200.000000 
200.000000 
200.000000 
200.000000 
200.000000 
200.000000 
200.000000 
200.000000 
200.000000 
200.000000 
200.000000 
200.000000 
200.000000 
200.000000 
200.000000 
200.000000 
200.000000 
200.000000 
200.000000 
200.000000 
200.000000 
200.000000 
200.000000 
200.000000 
200.000000 
200.000000 
200.000000 
200.000000 
200.000000 
200.000000 
200.000000 
200.000000 
200.000000 
200.000000 
200.000000 
200.000000 
200.000000 
200.000000 
200.000000 
200.000000 
200.000000 
200.000000 
200.000000 
200.000000 
200.000000 
200.000000 
200.000000 
200.000000 
200.000000 
200.000000 
200.000000 
200.000000 
200.000000 
200.000000 
200.000000 
200.000000 
200.000000 
200.000000 
200.000000 
200.000000 
200.000000 
200.000000 
200.000000 
200.000000 
200.000000 
200.000000 
200.000000 
200.000000 
200.000000 
200.000000 
200.000000 
200.000000 
200.000000 
200.000000 
200.000000 
200.000000 
200.000000 
200.000000 
200.000000 
200.000000 
200.000000 
200.000000 
200.000000 
200.000000 
200.000000 
200.000000 
200.000000 
200.000000 
200.000000 
200.000000 
200.000000 
200.000000 
200.000000 
200.000000 
200.000000 
200.000000 
200.000000 
200.000000 
200.000000 
200.000000 
200.000000 
200.000000 
200.000000 
200.000000 
200.000000 
200.000000 
200.000000 
200.000000 
200.000000 
200.000000 
200.000000 
200.000000 
200.000000 
200.000000 
200.000000 
200.000000 
200.000000 
200.000000 
200.000000 
200.000000 
200.000000 
200.000000 
200.000000 
200.000000 
200.000000 
200.000000 
200.000000 
200.000000 
200.000000 
200.000000 
200.000000 
200.000000 
200.000000 
200.000000 
200.000000 
200.000000 
200.000000 
200.000000 
200.000000 
200.000000 
200.000000 
200.000000 
200.000000 
200.000000 
200.000000 
200.000000 
200.000000 
200.000000 
200.000000 
200.000000 
200.000000 
200.000000 
200.000000 
200.000000 
200.000000 
200.000000 
200.000000 
200.000000 
200.000000 
200.000000 
200.000000 
200.000000 
200.000000 
200.000000 
200.000000 
200.000000 
200.000000 
200.000000 
200.000000 
200.000000 
200.000000 
200.000000 
200.000000 
200.000000 
200.000000 
200.000000 
200.000000 
200.000000 
200.000000 
200.000000 
200.000000 
200.000000 
200.000000 
200.000000 
200.000000 
200.000000 
200.000000 
200.000000 
200.000000 
200.000000 
200.000000 
200.000000 
200.000000 
200.000000 
200.000000 
200.000000 
200.000000 
200.000000 
200.000000 
200.000000 
200.000000 
200.000000 
200.000000 
200.000000 
200.000000 
200.000000 
200.000000 
200.000000 
200.000000 
200.000000 
200.000000 
200.000000 
200.000000 
200.000000 
200.000000 
200.000000 
200.000000 
200.000000 
200.000000 
200.000000 
200.000000 
200.000000 
200.000000 
200.000000 
200.000000 
200.000000 
200.000000 
200.000000 
200.000000 
200.000000 
200.000000 
200.000000 
200.000000 
200.000000 
200.000000 
200.000000 
200.000000 
200.000000 
200.000000 
200.000000 
200.000000 
200.000000 
200.000000 
200.000000 
200.000000 
200.000000 
200.000000 
200.000000 
200.000000 
200.000000 
200.000000 
200.000000 
200.000000 
200.000000 
200.000000 
200.000000 
200.000000 
200.000000 
200.000000 
200.000000 
200.000000 
200.000000 
200.000000 
200.000000 
200.000000 
200.000000 
200.000000 
200.000000 
200.000000 
200.000000 
200.000000 
200.000000 
200.000000 
200.000000 
200.000000 
200.000000 
200.000000 
200.000000 
200.000000 
200.000000 
200.000000 
200.000000 
200.000000 
200.000000 
200.000000 
200.000000 
200.000000 
200.000000 
200.000000 
200.000000 
200.000000 
200.000000 
200.000000 
200.000000 
200.000000 
200.000000 
200.000000 
200.000000 
200.000000 
200.000000 
200.000000 
200.000000 
200.000000 
200.000000 
200.000000 
200.000000 
200.000000 
200.000000 
200.000000 
200.000000 
200.000000 
200.000000 
200.000000 
200.000000 
200.000000 
200.000000 
200.000000 
200.000000 
200.000000 
200.000000 
200.000000 
200.000000 
200.000000 
200.000000 
200.000000 
200.000000 
200.000000 
200.000000 
200.000000 
200.000000 
200.000000 
200.000000 
200.000000 
200.000000 
200.000000 
200.000000 
200.000000 
200.000000 
200.000000 
200.000000 
200.000000 
200.000000 
200.000000 
200.000000 
200.000000 
200.000000 
200.000000 
200.000000 
200.000000 
200.000000 
200.000000 
200.000000 
200.000000 
200.000000 
200.000000 
200.000000 
200.000000 
200.000000 
200.000000 
200.000000 
200.000000 
200.000000 
200.000000 
200.000000 
200.000000 
200.000000 
200.000000 
200.000000 
200.000000 
200.000000 
200.000000 
200.000000 
200.000000 
200.000000 
200.000000 
200.000000 
200.000000 
200.000000 
200.000000 
200.000000 
200.000000 
200.000000 
200.000000 
200.000000 
200.000000 
200.000000 
200.000000 
200.000000 
200.000000 
200.000000 
200.000000 
200.000000 
200.000000 
200.000000 
200.000000 
200.000000 
200.000000 
200.000000 
200.000000 
200.000000 
200.000000 
200.000000 
200.000000 
200.000000 
200.000000 
200.000000 
200.000000 
200.000000 
200.000000 
200.000000 
200.000000 
200.000000 
200.000000 
200.000000 
200.000000 
200.000000 
200.000000 
200.000000 
200.000000 
200.000000 
200.000000 
200.000000 
200.000000 
200.000000 
200.000000 
200.000000 
200.000000 
200.000000 
200.000000 
200.000000 
200.000000 
200.000000 
200.000000 
200.000000 
200.000000 
200.000000 
200.000000 
200.000000 
200.000000 
200.000000 
200.000000 
200.000000 
200.000000 
200.000000 
200.000000 
200.000000 
200.000000 
200.000000 
200.000000 
200.000000 
200.000000 
200.000000 
200.000000 
200.000000 
200.000000 
200.000000 
200.000000 
200.000000 
200.000000 
200.000000 
200.000000 
200.000000 
200.000000 
200.000000 
200.000000 
200.000000 
200.000000 
200.000000 
200.000000 
200.000000 
200.000000 
200.000000 
200.000000 
200.000000 
200.000000 
200.000000 
200.000000 
200.000000 
200.000000 
200.000000 
200.000000 
200.000000 
200.000000 
200.000000 
200.000000 
200.000000 
200.000000 
200.000000 
200.000000 
200.000000 
200.000000 
200.000000 
200.000000 
200.000000 
200.000000 
200.000000 
200.000000 
200.000000 
200.000000 
200.000000 
200.000000 
200.000000 
200.000000 
200.000000 
200.000000 
200.000000 
200.000000 
200.000000 
200.000000 
200.000000 
200.000000 
200.000000 
200.000000 
200.000000 
200.000000 
200.000000 
200.000000 
200.000000 
200.000000 
200.000000 
200.000000 
200.000000 
200.000000 
200.000000 
200.000000 
200.000000 
200.000000 
200.000000 
200.000000 
200.000000 
200.000000 
200.000000 
200.000000 
200.000000 
200.000000 
200.000000 
200.000000 
200.000000 
200.000000 
200.000000 
200.000000 
200.000000 
200.000000 
200.000000 
200.000000 
200.000000 
200.000000 
200.000000 
200.000000 
200.000000 
200.000000 
200.000000 
200.000000 
200.000000 
200.000000 
200.000000 
200.000000 
200.000000 
200.000000 
200.000000 
200.000000 
200.000000 
200.000000 
200.000000 
200.000000 
200.000000 
200.000000 
200.000000 
200.000000 
200.000000 
200.000000 
200.000000 
200.000000 
200.000000 
200.000000 
200.000000 
200.000000 
200.000000 
200.000000 
200.000000 
200.000000 
200.000000 
200.000000 
200.000000 
200.000000 
200.000000 
200.000000 
200.000000 
200.000000 
200.000000 
200.000000 
200.000000 
200.000000 
200.000000 
200.000000 
200.000000 
200.000000 
200.000000 
200.000000 
200.000000 
200.000000 
200.000000 
200.000000 
200.000000 
200.000000 
200.000000 
200.000000 
200.000000 
200.000000 
200.000000 
200.000000 
200.000000 
200.000000 
200.000000 
200.000000 
200.000000 
200.000000 
200.000000 
200.000000 
200.000000 
200.000000 
200.000000 
200.000000 
200.000000 
200.000000 
200.000000 
200.000000 
200.000000 
200.000000 
200.000000 
200.000000 
200.000000 
200.000000 
200.000000 
200.000000 
200.000000 
200.000000 
200.000000 
200.000000 
200.000000 
200.000000 
200.000000 
200.000000 
200.000000 
200.000000 
200.000000 
200.000000 
200.000000 
200.000000 
200.000000 
200.000000 
200.000000 
200.000000 
200.000000 
200.000000 
200.000000 
200.000000 
200.000000 
200.000000 
200.000000 
200.000000 
200.000000 
200.000000 
200.000000 
200.000000 
200.000000 
200.000000 
200.000000 
200.000000 
200.000000 
200.000000 
200.000000 
200.000000 
200.000000 
200.000000 
200.000000 
200.000000 
200.000000 
200.000000 
200.000000 
200.000000 
200.000000 
200.000000 
200.000000 
200.000000 
200.000000 
200.000000 
200.000000 
200.000000 
200.000000 
200.000000 
200.000000 
200.000000 
200.000000 
200.000000 
200.000000 
200.000000 
200.000000 
200.000000 
200.000000 
200.000000 
200.000000 
200.000000 
200.000000 
200.000000 
200.000000 
200.000000 
200.000000 
200.000000 
200.000000 
200.000000 
200.000000 
200.000000 
200.000000 
200.000000 
200.000000 
200.000000 
200.000000 
200.000000 
200.000000 
200.000000 
200.000000 
200.000000 
200.000000 
200.000000 
200.000000 
200.000000 
200.000000 
200.000000 
200.000000 
200.000000 
200.000000 
200.000000 
200.000000 
200.000000 
200.000000 
200.000000 
200.000000 
200.000000 
200.000000 
200.000000 
200.000000 
200.000000 
200.000000 
200.000000 
200.000000 
200.000000 
200.000000 
200.000000 
200.000000 
200.000000 
200.000000 
200.000000 
200.000000 
200.000000 
200.000000 
200.000000 
200.000000 
200.000000 
200.000000 
200.000000 
200.000000 
200.000000 
200.000000 
200.000000 
200.000000 
200.000000 
200.000000 
200.000000 
200.000000 
200.000000 
200.000000 
200.000000 
200.000000 
200.000000 
200.000000 
200.000000 
200.000000 
200.000000 
200.000000 
200.000000 
200.000000 
200.000000 
200.000000 
200.000000 
200.000000 
200.000000 
200.000000 
200.000000 
200.000000 
200.000000 
200.000000 
200.000000 
200.000000 
200.000000 
200.000000 
200.000000 
200.000000 
200.000000 
200.000000 
200.000000 
200.000000 
SCALARS ELEM_i float 
LOOKUP_TABLE default 
241 
241 
241 
241 
241 
242 
242 
259 
259 
259 
222 
37 
37 
28 
48 
49 
258 
258 
37 
38 
38 
58 
58 
222 
258 
258 
258 
258 
238 
237 
237 
259 
49 
49 
48 
48 
33 
33 
33 
33 
34 
58 
58 
48 
34 
34 
34 
34 
54 
54 
54 
54 
54 
54 
74 
74 
78 
78 
78 
78 
78 
238 
238 
238 
238 
238 
238 
218 
218 
218 
218 
218 
198 
237 
198 
198 
198 
198 
178 
178 
178 
178 
178 
177 
177 
177 
177 
157 
157 
157 
157 
157 
157 
157 
137 
137 
137 
137 
137 
137 
117 
117 
117 
117 
117 
117 
117 
117 
117 
97 
98 
98 
98 
98 
98 
237 
237 
236 
236 
33 
222 
222 
223 
223 
223 
223 
48 
236 
236 
235 
235 
235 
68 
48 
74 
73 
93 
93 
93 
93 
114 
114 
114 
114 
114 
53 
53 
53 
222 
222 
222 
203 
203 
203 
203 
203 
204 
204 
204 
184 
184 
185 
48 
48 
47 
67 
67 
87 
47 
47 
47 
67 
66 
66 
66 
86 
86 
86 
86 
86 
106 
106 
106 
255 
254 
254 
254 
254 
254 
234 
234 
234 
234 
234 
234 
234 
214 
214 
214 
185 
185 
186 
186 
186 
187 
187 
167 
167 
167 
147 
147 
147 
127 
127 
127 
127 
107 
107 
224 
203 
204 
72 
72 
72 
92 
92 
92 
92 
112 
204 
204 
204 
204 
205 
205 
206 
206 
207 
207 
207 
208 
208 
208 
208 
209 
209 
209 
209 
230 
230 
230 
230 
230 
231 
231 
231 
231 
231 
232 
232 
212 
212 
212 
213 
213 
213 
213 
213 
213 
213 
213 
213 
213 
91 
91 
70 
91 
70 
91 
91 
70 
70 
91 
70 
91 
91 
91 
70 
51 
111 
111 
51 
51 
51 
52 
52 
52 
52 
52 
52 
52 
51 
51 
51 
51 
50 
51 
50 
50 
50 
50 
50 
49 
70 
69 
69 
69 
89 
88 
88 
88 
89 
115 
115 
115 
95 
95 
95 
95 
96 
96 
96 
96 
77 
77 
77 
77 
77 
57 
57 
57 
57 
37 
37 
49 
115 
115 
214 
258 
37 
37 
37 
115 
213 
115 
258 
258 
115 
95 
96 
96 
48 
48 
114 
114 
106 
86 
86 
86 
86 
86 
96 
96 
112 
112 
48 
48 
47 
47 
258 
258 
258 
258 
238 
238 
238 
238 
238 
238 
238 
238 
218 
218 
238 
237 
237 
237 
237 
236 
236 
218 
218 
218 
67 
67 
87 
67 
67 
34 
34 
54 
54 
54 
54 
54 
53 
73 
73 
34 
34 
33 
33 
254 
254 
234 
234 
234 
234 
234 
234 
234 
214 
214 
214 
214 
198 
111 
111 
111 
91 
91 
91 
91 
91 
91 
90 
90 
90 
114 
113 
96 
236 
113 
93 
88 
107 
92 
92 
92 
198 
198 
198 
198 
178 
178 
178 
177 
177 
177 
177 
177 
177 
157 
73 
97 
97 
77 
77 
77 
77 
57 
57 
78 
77 
77 
57 
77 
77 
97 
57 
57 
37 
57 
37 
37 
37 
37 
93 
93 
93 
73 
73 
73 
235 
235 
235 
235 
254 
234 
73 
73 
53 
53 
53 
53 
53 
53 
54 
33 
33 
205 
185 
185 
205 
205 
206 
206 
207 
187 
70 
70 
70 
70 
69 
69 
89 
89 
108 
97 
97 
97 
213 
213 
213 
213 
213 
213 
213 
213 
213 
212 
212 
212 
212 
212 
211 
211 
231 
211 
117 
117 
117 
117 
116 
116 
136 
136 
97 
97 
136 
136 
136 
137 
157 
157 
157 
157 
157 
209 
209 
209 
210 
210 
210 
210 
210 
211 
209 
209 
208 
208 
127 
127 
127 
107 
147 
107 
108 
109 
88 
87 
108 
167 
147 
167 
187 
187 
97 
97 
97 
117 
176 
97 
97 
97 
178 
86 
107 
87 
87 
87 
177 
177 
177 
177 
238 
238 
238 
237 
156 
156 
156 
136 
136 
136 
136 
116 
116 
116 
116 
116 
96 
177 
234 
234 
234 
234 
96 
96 
117 
198 
93 
93 
113 
113 
93 
112 
211 
211 
211 
210 
210 
210 
210 
210 
209 
209 
212 
212 
212 
212 
212 
209 
148 
128 
128 
127 
107 
107 
107 
209 
208 
188 
218 
218 
198 
198 
198 
218 
218 
218 
112 
70 
90 
90 
90 
90 
90 
90 
90 
90 
90 
91 
111 
110 
131 
90 
90 
109 
108 
110 
188 
168 
168 
148 
213 
213 
213 
194 
194 
214 
213 
214 
214 
214 
234 
177 
177 
115 
116 
116 
116 
115 
237 
237 
236 
216 
216 
215 
235 
115 
134 
134 
114 
213 
234 
234 
90 
110 
213 
213 
213 
90 
90 
213 
210 
115 
115 
116 
90 
90 
90 
90 
177 
210 
177 
210 
176 
177 
156 
156 
210 
212 
210 
188 
189 
189 
189 
148 
176 
156 
136 
116 
136 
212 
212 
211 
211 
237 
217 
217 
218 
218 
218 
198 
197 
217 
217 
217 
217 
217 
197 
113 
128 
128 
216 
215 
234 
112 
113 
234 
216 
196 
211 
130 
129 
188 
168 
168 
148 
152 
214 
214 
214 
214 
194 
195 
174 
134 
135 
134 
135 
133 
210 
210 
176 
177 
192 
136 
189 
192 
193 
192 
193 
189 
177 
196 
196 
197 
197 
133 
132 
133 
210 
190 
156 
211 
210 
156 
136 
129 
149 
135 
135 
135 
155 
135 
155 
175 
154 
175 
169 
169 
151 
172 
133 
153 
192 
173 
210 
190 
169 
170 
149 
211 
171 
191 
190 
52 
203 
150 
191 
217 
254 
49 
106 
222 
106 
222 
VECTORS VELOCITY float 
0.000000 -1.118340 0.000000 
0.000000 -1.118340 0.000000 
-0.000000 -1.118340 0.000000 
-0.000000 -1.118340 0.000000 
0.000000 -1.118340 0.000000 
0.000000 -1.118340 0.000000 
0.000000 -1.118340 0.000000 
0.000000 -1.118340 0.000000 
0.000000 -1.118340 0.000000 
0.000000 -1.118340 0.000000 
0.000000 -1.118340 0.000000 
0.000000 -1.118340 0.000000 
0.000000 -1.118340 0.000000 
0.000000 -1.118340 0.000000 
0.000000 -1.118340 0.000000 
0.000000 -1.118340 0.000000 
0.000000 -1.118340 0.000000 
-0.000000 -1.118340 0.000000 
0.000000 -1.118340 0.000000 
-0.000000 -1.118340 0.000000 
-0.000000 -1.118340 0.000000 
-0.000000 -1.118340 0.000000 
-0.000000 -1.118340 0.000000 
0.000000 -1.118340 0.000000 
-0.000000 -1.118340 0.000000 
-0.000000 -1.118340 0.000000 
-0.000000 -1.118340 0.000000 
-0.000000 -1.118340 0.000000 
-0.000000 -1.118340 0.000000 
-0.000000 -1.118340 0.000000 
-0.000000 -1.118340 0.000000 
0.000000 -1.118340 0.000000 
0.000000 -1.118340 0.000000 
0.000000 -1.118340 0.000000 
0.000000 -1.118340 0.000000 
0.000000 -1.118340 0.000000 
0.000000 -1.118340 0.000000 
0.000000 -1.118340 0.000000 
0.000000 -1.118340 0.000000 
0.000000 -1.118340 0.000000 
0.000000 -1.118340 0.000000 
-0.000000 -1.118340 0.000000 
-0.000000 -1.118340 0.000000 
0.000000 -1.118340 0.000000 
0.000000 -1.118340 0.000000 
0.000000 -1.118340 0.000000 
0.000000 -1.118340 0.000000 
0.000000 -1.118340 0.000000 
0.000000 -1.118340 0.000000 
-0.000000 -1.118340 0.000000 
-0.000000 -1.118340 0.000000 
-0.000000 -1.118340 0.000000 
-0.000000 -1.118340 0.000000 
-0.000000 -1.118340 0.000000 
-0.000000 -1.118340 0.000000 
0.000000 -1.118340 0.000000 
-0.000000 -1.118340 0.000000 
-0.000000 -1.118340 0.000000 
-0.000000 -1.118340 0.000000 
-0.000000 -1.118340 0.000000 
-0.000000 -1.118340 0.000000 
0.000000 -1.118340 0.000000 
0.000000 -1.118340 0.000000 
0.000000 -1.118340 0.000000 
0.000000 -1.118340 0.000000 
0.000000 -1.118340 0.000000 
0.000000 -1.118340 0.000000 
0.000000 -1.118340 0.000000 
0.000000 -1.118340 0.000000 
0.000000 -1.118340 0.000000 
0.000000 -1.118340 0.000000 
0.000000 -1.118340 0.000000 
0.000000 -1.118340 0.000000 
0.000000 -1.118340 0.000000 
0.000000 -1.118340 0.000000 
0.000000 -1.118340 0.000000 
0.000000 -1.118340 0.000000 
0.000000 -1.118340 0.000000 
0.000000 -1.118340 0.000000 
0.000000 -1.118340 0.000000 
0.000000 -1.118340 0.000000 
0.000000 -1.118340 0.000000 
0.000000 -1.118340 0.000000 
0.000000 -1.118340 0.000000 
0.000000 -1.118340 0.000000 
0.000000 -1.118340 0.000000 
0.000000 -1.118340 0.000000 
0.000000 -1.118340 0.000000 
0.000000 -1.118340 0.000000 
0.000000 -1.118340 0.000000 
0.000000 -1.118340 0.000000 
0.000000 -1.118340 0.000000 
0.000000 -1.118340 0.000000 
0.000000 -1.118340 0.000000 
0.000000 -1.118340 0.000000 
0.000000 -1.118340 0.000000 
0.000000 -1.118340 0.000000 
0.000000 -1.118340 0.000000 
0.000000 -1.118340 0.000000 
0.000000 -1.118340 0.000000 
0.000000 -1.118340 0.000000 
0.000000 -1.118340 0.000000 
0.000000 -1.118340 0.000000 
0.000000 -1.118340 0.000000 
0.000000 -1.118340 0.000000 
0.000000 -1.118340 0.000000 
0.000000 -1.118340 0.000000 
0.000000 -1.118340 0.000000 
0.000000 -1.118340 0.000000 
0.000000 -1.118340 0.000000 
0.000000 -1.118340 0.000000 
0.000000 -1.118340 0.000000 
0.000000 -1.118340 0.000000 
0.000000 -1.118340 0.000000 
-0.000000 -1.118340 0.000000 
0.000000 -1.118340 0.000000 
0.000000 -1.118340 0.000000 
0.000000 -1.118340 0.000000 
0.000000 -1.118340 0.000000 
-0.000000 -1.118340 0.000000 
-0.000000 -1.118340 0.000000 
-0.000000 -1.118340 0.000000 
-0.000000 -1.118340 0.000000 
-0.000000 -1.118340 0.000000 
-0.000000 -1.118340 0.000000 
-0.000000 -1.118340 0.000000 
0.000000 -1.118340 0.000000 
0.000000 -1.118340 0.000000 
0.000000 -1.118340 0.000000 
-0.000000 -1.118340 0.000000 
-0.000000 -1.118340 0.000000 
-0.000000 -1.118340 0.000000 
0.000000 -1.118340 0.000000 
0.000000 -1.118340 0.000000 
0.000000 -1.118340 0.000000 
0.000000 -1.118340 0.000000 
0.000000 -1.118340 0.000000 
0.000000 -1.118340 0.000000 
0.000000 -1.118340 0.000000 
0.000000 -1.118340 0.000000 
-0.000000 -1.118340 0.000000 
0.000000 -1.118340 0.000000 
0.000000 -1.118340 0.000000 
0.000000 -1.118340 0.000000 
0.000000 -1.118340 0.000000 
-0.000000 -1.118340 0.000000 
-0.000000 -1.118340 0.000000 
0.000000 -1.118340 0.000000 
0.000000 -1.118340 0.000000 
0.000000 -1.118340 0.000000 
-0.000000 -1.118340 0.000000 
-0.000000 -1.118340 0.000000 
-0.000000 -1.118340 0.000000 
-0.000000 -1.118340 0.000000 
-0.000000 -1.118340 0.000000 
-0.000000 -1.118340 0.000000 
-0.000000 -1.118340 0.000000 
-0.000000 -1.118340 0.000000 
-0.000000 -1.118340 0.000000 
-0.000000 -1.118340 0.000000 
0.000000 -1.118340 0.000000 
0.000000 -1.118340 0.000000 
-0.000000 -1.118340 0.000000 
-0.000000 -1.118340 0.000000 
-0.000000 -1.118340 0.000000 
-0.000000 -1.118340 0.000000 
-0.000000 -1.118340 0.000000 
-0.000000 -1.118340 0.000000 
0.000000 -1.118340 0.000000 
0.000000 -1.118340 0.000000 
0.000000 -1.118340 0.000000 
0.000000 -1.118340 0.000000 
0.000000 -1.118340 0.000000 
-0.000000 -1.118340 0.000000 
-0.000000 -1.118340 0.000000 
-0.000000 -1.118340 0.000000 
-0.000000 -1.118340 0.000000 
-0.000000 -1.118340 0.000000 
-0.000000 -1.118340 0.000000 
-0.000000 -1.118340 0.000000 
-0.000000 -1.118340 0.000000 
-0.000000 -1.118340 0.000000 
-0.000000 -1.118340 0.000000 
-0.000000 -1.118340 0.000000 
-0.000000 -1.118340 0.000000 
0.000000 -1.118340 0.000000 
0.000000 -1.118340 0.000000 
0.000000 -1.118340 0.000000 
0.000000 -1.118340 0.000000 
0.000000 -1.118340 0.000000 
0.000000 -1.118340 0.000000 
0.000000 -1.118340 0.000000 
0.000000 -1.118340 0.000000 
0.000000 -1.118340 0.000000 
0.000000 -1.118340 0.000000 
0.000000 -1.118340 0.000000 
0.000000 -1.118340 0.000000 
0.000000 -1.118340 0.000000 
0.000000 -1.118340 0.000000 
0.000000 -1.118340 0.000000 
0.000000 -1.118340 0.000000 
0.000000 -1.118340 0.000000 
0.000000 -1.118340 0.000000 
0.000000 -1.118340 0.000000 
0.000000 -1.118340 0.000000 
0.000000 -1.118340 0.000000 
0.000000 -1.118340 0.000000 
0.000000 -1.118340 0.000000 
0.000000 -1.118340 0.000000 
0.000000 -1.118340 0.000000 
0.000000 -1.118340 0.000000 
0.000000 -1.118340 0.000000 
0.000000 -1.118340 0.000000 
-0.000000 -1.118340 0.000000 
-0.000000 -1.118340 0.000000 
-0.000000 -1.118340 0.000000 
-0.000000 -1.118340 0.000000 
-0.000000 -1.118340 0.000000 
-0.000000 -1.118340 0.000000 
-0.000000 -1.118340 0.000000 
-0.000000 -1.118340 0.000000 
0.000000 -1.118340 0.000000 
-0.000000 -1.118340 0.000000 
-0.000000 -1.118340 0.000000 
-0.000000 -1.118340 0.000000 
-0.000000 -1.118340 0.000000 
0.000000 -1.118340 0.000000 
0.000000 -1.118340 0.000000 
0.000000 -1.118340 0.000000 
0.000000 -1.118340 0.000000 
-0.000000 -1.118340 0.000000 
-0.000000 -1.118340 0.000000 
0.000000 -1.118340 0.000000 
0.000000 -1.118340 0.000000 
0.000000 -1.118340 0.000000 
0.000000 -1.118340 0.000000 
-0.000000 -1.118340 0.000000 
-0.000000 -1.118340 0.000000 
-0.000000 -1.118340 0.000000 
0.000000 -1.118340 0.000000 
0.000000 -1.118340 0.000000 
0.000000 -1.118340 0.000000 
0.000000 -1.118340 0.000000 
0.000000 -1.118340 0.000000 
0.000000 -1.118340 0.000000 
0.000000 -1.118340 0.000000 
0.000000 -1.118340 0.000000 
0.000000 -1.118340 0.000000 
0.000000 -1.118340 0.000000 
0.000000 -1.118340 0.000000 
0.000000 -1.118340 0.000000 
0.000000 -1.118340 0.000000 
-0.000000 -1.118340 0.000000 
-0.000000 -1.118340 0.000000 
-0.000000 -1.118340 0.000000 
-0.000000 -1.118340 0.000000 
-0.000000 -1.118340 0.000000 
-0.000000 -1.118340 0.000000 
-0.000000 -1.118340 0.000000 
-0.000000 -1.118340 0.000000 
-0.000000 -1.118340 0.000000 
-0.000000 -1.118340 0.000000 
-0.000000 -1.118340 0.000000 
-0.000000 -1.118340 0.000000 
-0.000000 -1.118340 0.000000 
-0.000000 -1.118340 0.000000 
-0.000000 -1.118340 0.000000 
-0.000000 -1.118340 0.000000 
0.000000 -1.118340 0.000000 
0.000000 -1.118340 0.000000 
0.000000 -1.118340 0.000000 
0.000000 -1.118340 0.000000 
0.000000 -1.118340 0.000000 
-0.000000 -1.118340 0.000000 
-0.000000 -1.118340 0.000000 
-0.000000 -1.118340 0.000000 
-0.000000 -1.118340 0.000000 
-0.000000 -1.118340 0.000000 
-0.000000 -1.118340 0.000000 
-0.000000 -1.118340 0.000000 
-0.000000 -1.118340 0.000000 
0.000000 -1.118340 0.000000 
-0.000000 -1.118340 0.000000 
0.000000 -1.118340 0.000000 
-0.000000 -1.118340 0.000000 
-0.000000 -1.118340 0.000000 
-0.000000 -1.118340 0.000000 
0.000000 -1.118340 0.000000 
0.000000 -1.118340 0.000000 
0.000000 -1.118340 0.000000 
0.000000 -1.118340 0.000000 
0.000000 -1.118340 0.000000 
-0.000000 -1.118340 0.000000 
-0.000000 -1.118340 0.000000 
-0.000000 -1.118340 0.000000 
-0.000000 -1.118340 0.000000 
-0.000000 -1.118340 0.000000 
0.000000 -1.118340 0.000000 
0.000000 -1.118340 0.000000 
-0.000000 -1.118340 0.000000 
0.000000 -1.118340 0.000000 
0.000000 -1.118340 0.000000 
0.000000 -1.118340 0.000000 
0.000000 -1.118340 0.000000 
0.000000 -1.118340 0.000000 
0.000000 -1.118340 0.000000 
0.000000 -1.118340 0.000000 
-0.000000 -1.118340 0.000000 
0.000000 -1.118340 0.000000 
-0.000000 -1.118340 0.000000 
0.000000 -1.118340 0.000000 
-0.000000 -1.118340 0.000000 
-0.000000 -1.118340 0.000000 
-0.000000 -1.118340 0.000000 
-0.000000 -1.118340 0.000000 
0.000000 -1.118340 0.000000 
0.000000 -1.118340 0.000000 
0.000000 -1.118340 0.000000 
-0.000000 -1.118340 0.000000 
-0.000000 -1.118340 0.000000 
-0.000000 -1.118340 0.000000 
0.000000 -1.118340 0.000000 
0.000000 -1.118340 0.000000 
0.000000 -1.118340 0.000000 
0.000000 -1.118340 0.000000 
-0.000000 -1.118340 0.000000 
-0.000000 -1.118340 0.000000 
-0.000000 -1.118340 0.000000 
-0.000000 -1.118340 0.000000 
-0.000000 -1.118340 0.000000 
-0.000000 -1.118340 0.000000 
-0.000000 -1.118340 0.000000 
0.000000 -1.118340 0.000000 
0.000000 -1.118340 0.000000 
0.000000 -1.118340 0.000000 
0.000000 -1.118340 0.000000 
-0.000000 -1.118340 0.000000 
-0.000000 -1.118340 0.000000 
-0.000000 -1.118340 0.000000 
-0.000000 -1.118340 0.000000 
-0.000000 -1.118340 0.000000 
-0.000000 -1.118340 0.000000 
-0.000000 -1.118340 0.000000 
-0.000000 -1.118340 0.000000 
0.000000 -1.118340 0.000000 
0.000000 -1.118340 0.000000 
0.000000 -1.118340 0.000000 
0.000000 -1.118340 0.000000 
0.000000 -1.118340 0.000000 
0.000000 -1.118340 0.000000 
0.000000 -1.118340 0.000000 
0.000000 -1.118340 0.000000 
0.000000 -1.118340 0.000000 
0.000000 -1.118340 0.000000 
-0.000000 -1.118340 0.000000 
0.000000 -1.118340 0.000000 
-0.000000 -1.118340 0.000000 
0.000000 -1.118340 0.000000 
-0.000000 -1.118340 0.000000 
-0.000000 -1.118340 0.000000 
-0.000000 -1.118340 0.000000 
0.000000 -1.118340 0.000000 
0.000000 -1.118340 0.000000 
0.000000 -1.118340 0.000000 
0.000000 -1.118340 0.000000 
0.000000 -1.118340 0.000000 
0.000000 -1.118340 0.000000 
0.000000 -1.118340 0.000000 
0.000000 -1.118340 0.000000 
0.000000 -1.118340 0.000000 
0.000000 -1.118340 0.000000 
-0.000000 -1.118340 0.000000 
-0.000000 -1.118340 0.000000 
0.000000 -1.118340 0.000000 
0.000000 -1.118340 0.000000 
-0.000000 -1.118340 0.000000 
-0.000000 -1.118340 0.000000 
-0.000000 -1.118340 0.000000 
0.000000 -1.118340 0.000000 
0.000000 -1.118340 0.000000 
-0.000000 -1.118340 0.000000 
-0.000000 -1.118340 0.000000 
0.000000 -1.118340 0.000000 
-0.000000 -1.118340 0.000000 
0.000000 -1.118340 0.000000 
0.000000 -1.118340 0.000000 
-0.000000 -1.118340 0.000000 
0.000000 -1.118340 0.000000 
-0.000000 -1.118340 0.000000 
0.000000 -1.118340 0.000000 
0.000000 -1.118340 0.000000 
0.000000 -1.118340 0.000000 
0.000000 -1.118340 0.000000 
-0.000000 -1.118340 0.000000 
-0.000000 -1.118340 0.000000 
0.000000 -1.118340 0.000000 
0.000000 -1.118340 0.000000 
0.000000 -1.118340 0.000000 
0.000000 -1.118340 0.000000 
0.000000 -1.118340 0.000000 
0.000000 -1.118340 0.000000 
0.000000 -1.118340 0.000000 
0.000000 -1.118340 0.000000 
0.000000 -1.118340 0.000000 
0.000000 -1.118340 0.000000 
-0.000000 -1.118340 0.000000 
0.000000 -1.118340 0.000000 
0.000000 -1.118340 0.000000 
0.000000 -1.118340 0.000000 
0.000000 -1.118340 0.000000 
0.000000 -1.118340 0.000000 
-0.000000 -1.118340 0.000000 
-0.000000 -1.118340 0.000000 
-0.000000 -1.118340 0.000000 
-0.000000 -1.118340 0.000000 
-0.000000 -1.118340 0.000000 
0.000000 -1.118340 0.000000 
0.000000 -1.118340 0.000000 
0.000000 -1.118340 0.000000 
0.000000 -1.118340 0.000000 
-0.000000 -1.118340 0.000000 
-0.000000 -1.118340 0.000000 
0.000000 -1.118340 0.000000 
0.000000 -1.118340 0.000000 
0.000000 -1.118340 0.000000 
0.000000 -1.118340 0.000000 
0.000000 -1.118340 0.000000 
0.000000 -1.118340 0.000000 
-0.000000 -1.118340 0.000000 
0.000000 -1.118340 0.000000 
0.000000 -1.118340 0.000000 
0.000000 -1.118340 0.000000 
0.000000 -1.118340 0.000000 
0.000000 -1.118340 0.000000 
0.000000 -1.118340 0.000000 
0.000000 -1.118340 0.000000 
0.000000 -1.118340 0.000000 
0.000000 -1.118340 0.000000 
-0.000000 -1.118340 0.000000 
-0.000000 -1.118340 0.000000 
-0.000000 -1.118340 0.000000 
-0.000000 -1.118340 0.000000 
-0.000000 -1.118340 0.000000 
-0.000000 -1.118340 0.000000 
-0.000000 -1.118340 0.000000 
-0.000000 -1.118340 0.000000 
-0.000000 -1.118340 0.000000 
-0.000000 -1.118340 0.000000 
-0.000000 -1.118340 0.000000 
-0.000000 -1.118340 0.000000 
0.000000 -1.118340 0.000000 
0.000000 -1.118340 0.000000 
-0.000000 -1.118340 0.000000 
0.000000 -1.118340 0.000000 
-0.000000 -1.118340 0.000000 
-0.000000 -1.118340 0.000000 
0.000000 -1.118340 0.000000 
0.000000 -1.118340 0.000000 
-0.000000 -1.118340 0.000000 
0.000000 -1.118340 0.000000 
0.000000 -1.118340 0.000000 
0.000000 -1.118340 0.000000 
-0.000000 -1.118340 0.000000 
0.000000 -1.118340 0.000000 
-0.000000 -1.118340 0.000000 
-0.000000 -1.118340 0.000000 
-0.000000 -1.118340 0.000000 
-0.000000 -1.118340 0.000000 
0.000000 -1.118340 0.000000 
0.000000 -1.118340 0.000000 
0.000000 -1.118340 0.000000 
0.000000 -1.118340 0.000000 
0.000000 -1.118340 0.000000 
0.000000 -1.118340 0.000000 
0.000000 -1.118340 0.000000 
0.000000 -1.118340 0.000000 
0.000000 -1.118340 0.000000 
0.000000 -1.118340 0.000000 
0.000000 -1.118340 0.000000 
0.000000 -1.118340 0.000000 
0.000000 -1.118340 0.000000 
0.000000 -1.118340 0.000000 
-0.000000 -1.118340 0.000000 
0.000000 -1.118340 0.000000 
0.000000 -1.118340 0.000000 
0.000000 -1.118340 0.000000 
0.000000 -1.118340 0.000000 
0.000000 -1.118340 0.000000 
0.000000 -1.118340 0.000000 
0.000000 -1.118340 0.000000 
0.000000 -1.118340 0.000000 
0.000000 -1.118340 0.000000 
0.000000 -1.118340 0.000000 
-0.000000 -1.118340 0.000000 
0.000000 -1.118340 0.000000 
0.000000 -1.118340 0.000000 
0.000000 -1.118340 0.000000 
-0.000000 -1.118340 0.000000 
0.000000 -1.118340 0.000000 
0.000000 -1.118340 0.000000 
0.000000 -1.118340 0.000000 
-0.000000 -1.118340 0.000000 
0.000000 -1.118340 0.000000 
0.000000 -1.118340 0.000000 
-0.000000 -1.118340 0.000000 
-0.000000 -1.118340 0.000000 
-0.000000 -1.118340 0.000000 
-0.000000 -1.118340 0.000000 
0.000000 -1.118340 0.000000 
0.000000 -1.118340 0.000000 
0.000000 -1.118340 0.000000 
0.000000 -1.118340 0.000000 
0.000000 -1.118340 0.000000 
-0.000000 -1.118340 0.000000 
-0.000000 -1.118340 0.000000 
-0.000000 -1.118340 0.000000 
-0.000000 -1.118340 0.000000 
-0.000000 -1.118340 0.000000 
-0.000000 -1.118340 0.000000 
-0.000000 -1.118340 0.000000 
0.000000 -1.118340 0.000000 
0.000000 -1.118340 0.000000 
0.000000 -1.118340 0.000000 
0.000000 -1.118340 0.000000 
0.000000 -1.118340 0.000000 
0.000000 -1.118340 0.000000 
-0.000000 -1.118340 0.000000 
-0.000000 -1.118340 0.000000 
0.000000 -1.118340 0.000000 
-0.000000 -1.118340 0.000000 
-0.000000 -1.118340 0.000000 
-0.000000 -1.118340 0.000000 
-0.000000 -1.118340 0.000000 
-0.000000 -1.118340 0.000000 
-0.000000 -1.118340 0.000000 
-0.000000 -1.118340 0.000000 
0.000000 -1.118340 0.000000 
-0.000000 -1.118340 0.000000 
0.000000 -1.118340 0.000000 
0.000000 -1.118340 0.000000 
0.000000 -1.118340 0.000000 
0.000000 -1.118340 0.000000 
0.000000 -1.118340 0.000000 
0.000000 -1.118340 0.000000 
-0.000000 -1.118340 0.000000 
-0.000000 -1.118340 0.000000 
-0.000000 -1.118340 0.000000 
-0.000000 -1.118340 0.000000 
-0.000000 -1.118340 0.000000 
-0.000000 -1.118340 0.000000 
-0.000000 -1.118340 0.000000 
-0.000000 -1.118340 0.000000 
-0.000000 -1.118340 0.000000 
-0.000000 -1.118340 0.000000 
-0.000000 -1.118340 0.000000 
-0.000000 -1.118340 0.000000 
-0.000000 -1.118340 0.000000 
-0.000000 -1.118340 0.000000 
-0.000000 -1.118340 0.000000 
0.000000 -1.118340 0.000000 
0.000000 -1.118340 0.000000 
0.000000 -1.118340 0.000000 
0.000000 -1.118340 0.000000 
-0.000000 -1.118340 0.000000 
-0.000000 -1.118340 0.000000 
-0.000000 -1.118340 0.000000 
-0.000000 -1.118340 0.000000 
0.000000 -1.118340 0.000000 
0.000000 -1.118340 0.000000 
0.000000 -1.118340 0.000000 
0.000000 -1.118340 0.000000 
0.000000 -1.118340 0.000000 
0.000000 -1.118340 0.000000 
0.000000 -1.118340 0.000000 
0.000000 -1.118340 0.000000 
0.000000 -1.118340 0.000000 
0.000000 -1.118340 0.000000 
0.000000 -1.118340 0.000000 
0.000000 -1.118340 0.000000 
0.000000 -1.118340 0.000000 
0.000000 -1.118340 0.000000 
0.000000 -1.118340 0.000000 
0.000000 -1.118340 0.000000 
-0.000000 -1.118340 0.000000 
-0.000000 -1.118340 0.000000 
-0.000000 -1.118340 0.000000 
-0.000000 -1.118340 0.000000 
0.000000 -1.118340 0.000000 
0.000000 -1.118340 0.000000 
0.000000 -1.118340 0.000000 
0.000000 -1.118340 0.000000 
0.000000 -1.118340 0.000000 
0.000000 -1.118340 0.000000 
-0.000000 -1.118340 0.000000 
-0.000000 -1.118340 0.000000 
0.000000 -1.118340 0.000000 
-0.000000 -1.118340 0.000000 
-0.000000 -1.118340 0.000000 
0.000000 -1.118340 0.000000 
-0.000000 -1.118340 0.000000 
-0.000000 -1.118340 0.000000 
-0.000000 -1.118340 0.000000 
-0.000000 -1.118340 0.000000 
-0.000000 -1.118340 0.000000 
-0.000000 -1.118340 0.000000 
0.000000 -1.118340 0.000000 
-0.000000 -1.118340 0.000000 
0.000000 -1.118340 0.000000 
0.000000 -1.118340 0.000000 
0.000000 -1.118340 0.000000 
0.000000 -1.118340 0.000000 
0.000000 -1.118340 0.000000 
0.000000 -1.118340 0.000000 
0.000000 -1.118340 0.000000 
0.000000 -1.118340 0.000000 
-0.000000 -1.118340 0.000000 
0.000000 -1.118340 0.000000 
0.000000 -1.118340 0.000000 
0.000000 -1.118340 0.000000 
-0.000000 -1.118340 0.000000 
0.000000 -1.118340 0.000000 
-0.000000 -1.118340 0.000000 
-0.000000 -1.118340 0.000000 
-0.000000 -1.118340 0.000000 
0.000000 -1.118340 0.000000 
-0.000000 -1.118340 0.000000 
-0.000000 -1.118340 0.000000 
-0.000000 -1.118340 0.000000 
0.000000 -1.118340 0.000000 
0.000000 -1.118340 0.000000 
0.000000 -1.118340 0.000000 
0.000000 -1.118340 0.000000 
0.000000 -1.118340 0.000000 
0.000000 -1.118340 0.000000 
-0.000000 -1.118340 0.000000 
-0.000000 -1.118340 0.000000 
-0.000000 -1.118340 0.000000 
-0.000000 -1.118340 0.000000 
-0.000000 -1.118340 0.000000 
-0.000000 -1.118340 0.000000 
-0.000000 -1.118340 0.000000 
-0.000000 -1.118340 0.000000 
0.000000 -1.118340 0.000000 
-0.000000 -1.118340 0.000000 
-0.000000 -1.118340 0.000000 
-0.000000 -1.118340 0.000000 
-0.000000 -1.118340 0.000000 
-0.000000 -1.118340 0.000000 
0.000000 -1.118340 0.000000 
0.000000 -1.118340 0.000000 
-0.000000 -1.118340 0.000000 
-0.000000 -1.118340 0.000000 
-0.000000 -1.118340 0.000000 
0.000000 -1.118340 0.000000 
-0.000000 -1.118340 0.000000 
0.000000 -1.118340 0.000000 
0.000000 -1.118340 0.000000 
-0.000000 -1.118340 0.000000 
-0.000000 -1.118340 0.000000 
-0.000000 -1.118340 0.000000 
-0.000000 -1.118340 0.000000 
0.000000 -1.118340 0.000000 
0.000000 -1.118340 0.000000 
0.000000 -1.118340 0.000000 
0.000000 -1.118340 0.000000 
0.000000 -1.118340 0.000000 
0.000000 -1.118340 0.000000 
-0.000000 -1.118340 0.000000 
-0.000000 -1.118340 0.000000 
-0.000000 -1.118340 0.000000 
-0.000000 -1.118340 0.000000 
-0.000000 -1.118340 0.000000 
0.000000 -1.118340 0.000000 
0.000000 -1.118340 0.000000 
0.000000 -1.118340 0.000000 
0.000000 -1.118340 0.000000 
-0.000000 -1.118340 0.000000 
-0.000000 -1.118340 0.000000 
-0.000000 -1.118340 0.000000 
-0.000000 -1.118340 0.000000 
-0.000000 -1.118340 0.000000 
-0.000000 -1.118340 0.000000 
0.000000 -1.118340 0.000000 
0.000000 -1.118340 0.000000 
0.000000 -1.118340 0.000000 
-0.000000 -1.118340 0.000000 
0.000000 -1.118340 0.000000 
0.000000 -1.118340 0.000000 
0.000000 -1.118340 0.000000 
0.000000 -1.118340 0.000000 
0.000000 -1.118340 0.000000 
0.000000 -1.118340 0.000000 
-0.000000 -1.118340 0.000000 
-0.000000 -1.118340 0.000000 
-0.000000 -1.118340 0.000000 
-0.000000 -1.118340 0.000000 
-0.000000 -1.118340 0.000000 
-0.000000 -1.118340 0.000000 
-0.000000 -1.118340 0.000000 
-0.000000 -1.118340 0.000000 
-0.000000 -1.118340 0.000000 
-0.000000 -1.118340 0.000000 
-0.000000 -1.118340 0.000000 
-0.000000 -1.118340 0.000000 
0.000000 -1.118340 0.000000 
0.000000 -1.118340 0.000000 
-0.000000 -1.118340 0.000000 
0.000000 -1.118340 0.000000 
0.000000 -1.118340 0.000000 
-0.000000 -1.118340 0.000000 
0.000000 -1.118340 0.000000 
-0.000000 -1.118340 0.000000 
-0.000000 -1.118340 0.000000 
-0.000000 -1.118340 0.000000 
-0.000000 -1.118340 0.000000 
-0.000000 -1.118340 0.000000 
-0.000000 -1.118340 0.000000 
-0.000000 -1.118340 0.000000 
0.000000 -1.118340 0.000000 
-0.000000 -1.118340 0.000000 
-0.000000 -1.118340 0.000000 
-0.000000 -1.118340 0.000000 
-0.000000 -1.118340 0.000000 
-0.000000 -1.118340 0.000000 
-0.000000 -1.118340 0.000000 
-0.000000 -1.118340 0.000000 
0.000000 -1.118340 0.000000 
0.000000 -1.118340 0.000000 
0.000000 -1.118340 0.000000 
-0.000000 -1.118340 0.000000 
-0.000000 -1.118340 0.000000 
-0.000000 -1.118340 0.000000 
-0.000000 -1.118340 0.000000 
0.000000 -1.118340 0.000000 
0.000000 -1.118340 0.000000 
0.000000 -1.118340 0.000000 
0.000000 -1.118340 0.000000 
0.000000 -1.118340 0.000000 
0.000000 -1.118340 0.000000 
-0.000000 -1.118340 0.000000 
0.000000 -1.118340 0.000000 
0.000000 -1.118340 0.000000 
0.000000 -1.118340 0.000000 
-0.000000 -1.118340 0.000000 
-0.000000 -1.118340 0.000000 
-0.000000 -1.118340 0.000000 
-0.000000 -1.118340 0.000000 
-0.000000 -1.118340 0.000000 
-0.000000 -1.118340 0.000000 
-0.000000 -1.118340 0.000000 
-0.000000 -1.118340 0.000000 
-0.000000 -1.118340 0.000000 
-0.000000 -1.118340 0.000000 
-0.000000 -1.118340 0.000000 
-0.000000 -1.118340 0.000000 
0.000000 -1.118340 0.000000 
0.000000 -1.118340 0.000000 
-0.000000 -1.118340 0.000000 
-0.000000 -1.118340 0.000000 
-0.000000 -1.118340 0.000000 
-0.000000 -1.118340 0.000000 
-0.000000 -1.118340 0.000000 
-0.000000 -1.118340 0.000000 
-0.000000 -1.118340 0.000000 
0.000000 -1.118340 0.000000 
0.000000 -1.118340 0.000000 
0.000000 -1.118340 0.000000 
0.000000 -1.118340 0.000000 
0.000000 -1.118340 0.000000 
0.000000 -1.118340 0.000000 
0.000000 -1.118340 0.000000 
0.000000 -1.118340 0.000000 
-0.000000 -1.118340 0.000000 
0.000000 -1.118340 0.000000 
-0.000000 -1.118340 0.000000 
0.000000 -1.118340 0.000000 
0.000000 -1.118340 0.000000 
0.000000 -1.118340 0.000000 
-0.000000 -1.118340 0.000000 
0.000000 -1.118340 0.000000 
0.000000 -1.118340 0.000000 
-0.000000 -1.118340 0.000000 
-0.000000 -1.118340 0.000000 
-0.000000 -1.118340 0.000000 
-0.000000 -1.118340 0.000000 
-0.000000 -1.118340 0.000000 
-0.000000 -1.118340 0.000000 
-0.000000 -1.118340 0.000000 
0.000000 -1.118340 0.000000 
0.000000 -1.118340 0.000000 
0.000000 -1.118340 0.000000 
0.000000 -1.118340 0.000000 
0.000000 -1.118340 0.000000 
0.000000 -1.118340 0.000000 
-0.000000 -1.118340 0.000000 
-0.000000 -1.118340 0.000000 
0.000000 -1.118340 0.000000 
-0.000000 -1.118340 0.000000 
-0.000000 -1.118340 0.000000 
-0.000000 -1.118340 0.000000 
0.000000 -1.118340 0.000000 
-0.000000 -1.118340 0.000000 
-0.000000 -1.118340 0.000000 
-0.000000 -1.118340 0.000000 
0.000000 -1.118340 0.000000 
-0.000000 -1.118340 0.000000 
-0.000000 -1.118340 0.000000 
-0.000000 -1.118340 0.000000 
-0.000000 -1.118340 0.000000 
-0.000000 -1.118340 0.000000 
-0.000000 -1.118340 0.000000 
-0.000000 -1.118340 0.000000 
0.000000 -1.118340 0.000000 
-0.000000 -1.118340 0.000000 
0.000000 -1.118340 0.000000 
-0.000000 -1.118340 0.000000 
0.000000 -1.118340 0.000000 
0.000000 -1.118340 0.000000 
0.000000 -1.118340 0.000000 
0.000000 -1.118340 0.000000 
-0.000000 -1.118340 0.000000 
-0.000000 -1.118340 0.000000 
-0.000000 -1.118340 0.000000 
-0.000000 -1.118340 0.000000 
-0.000000 -1.118340 0.000000 
0.000000 -1.118340 0.000000 
0.000000 -1.118340 0.000000 
-0.000000 -1.118340 0.000000 
0.000000 -1.118340 0.000000 
0.000000 -1.118340 0.000000 
0.000000 -1.118340 0.000000 
0.000000 -1.118340 0.000000 
-0.000000 -1.118340 0.000000 
0.000000 -1.118340 0.000000 
0.000000 -1.118340 0.000000 
-0.000000 -1.118340 0.000000 
-0.000000 -1.118340 0.000000 
-0.000000 -1.118340 0.000000 
-0.000000 -1.118340 0.000000 
0.000000 -1.118340 0.000000 
0.000000 -1.118340 0.000000 
-0.000000 -1.118340 0.000000 
-0.000000 -1.118340 0.000000 
0.000000 -1.118340 0.000000 
-0.000000 -1.118340 0.000000 
-0.000000 -1.118340 0.000000 
0.000000 -1.118340 0.000000 
-0.000000 -1.118340 0.000000 
-0.000000 -1.118340 0.000000 
-0.000000 -1.118340 0.000000 
-0.000000 -1.118340 0.000000 
-0.000000 -1.118340 0.000000 
-0.000000 -1.118340 0.000000 
0.000000 -1.118340 0.000000 
-0.000000 -1.118340 0.000000 
-0.000000 -1.118340 0.000000 
0.000000 -1.118340 0.000000 
0.000000 -1.118340 0.000000 
-0.000000 -1.118340 0.000000 
-0.000000 -1.118340 0.000000 
-0.000000 -1.118340 0.000000 
-0.000000 -1.118340 0.000000 
-0.000000 -1.118340 0.000000 
-0.000000 -1.118340 0.000000 
0.000000 -1.118340 0.000000 
0.000000 -1.118340 0.000000 
0.000000 -1.118340 0.000000 
-0.000000 -1.118340 0.000000 
-0.000000 -1.118340 0.000000 
-0.000000 -1.118340 0.000000 
-0.000000 -1.118340 0.000000 
0.000000 -1.118340 0.000000 
0.000000 -1.118340 0.000000 
0.000000 -1.118340 0.000000 
0.000000 -1.118340 0.000000 
-0.000000 -1.118340 0.000000 
-0.000000 -1.118340 0.000000 
0.000000 -1.118340 0.000000 
0.000000 -1.118340 0.000000 
0.000000 -1.118340 0.000000 
0.000000 -1.118340 0.000000 
-0.000000 -1.118340 0.000000 
-0.000000 -1.118340 0.000000 
0.000000 -1.118340 0.000000 
0.000000 -1.118340 0.000000 
-0.000000 -1.118340 0.000000 
-0.000000 -1.118340 0.000000 
0.000000 -1.118340 0.000000 
0.000000 -1.118340 0.000000 
-0.000000 -1.118340 0.000000 
0.000000 -1.118340 0.000000 
-0.000000 -1.118340 0.000000 
-0.000000 -1.118340 0.000000 
0.000000 -1.118340 0.000000 
0.000000 -1.118340 0.000000 
-0.000000 -1.118340 0.000000 
0.000000 -1.118340 0.000000 
-0.000000 -1.118340 0.000000 
0.000000 -1.118340 0.000000 
TENSORS STRESS float 
0.000000 0.000000 0.000000 
0.000000 0.000000 0.000000 
0.000000 0.000000 0.000000 

-0.000000 -0.000000 0.000000 
0.000000 -0.000000 0.000000 
0.000000 0.000000 0.000000 

-0.000000 -0.000000 0.000000 
0.000000 -0.000000 0.000000 
0.000000 0.000000 0.000000 

-0.000000 -0.000000 0.000000 
0.000000 -0.000000 0.000000 
0.000000 0.000000 0.000000 

0.000000 -0.000000 0.000000 
0.000000 0.000000 0.000000 
0.000000 0.000000 0.000000 

0.000000 -0.000000 0.000000 
0.000000 0.000000 0.000000 
0.000000 0.000000 0.000000 

0.000000 -0.000000 0.000000 
0.000000 0.000000 0.000000 
0.000000 0.000000 0.000000 

0.000000 -0.000000 0.000000 
0.000000 0.000000 0.000000 
0.000000 0.000000 0.000000 

0.000000 0.000000 0.000000 
0.000000 0.000000 0.000000 
0.000000 0.000000 0.000000 

0.000000 0.000000 0.000000 
0.000000 0.000000 0.000000 
0.000000 0.000000 0.000000 

-0.000000 -0.000000 0.000000 
0.000000 -0.000000 0.000000 
0.000000 0.000000 0.000000 

-0.000000 -0.000000 0.000000 
0.000000 -0.000000 0.000000 
0.000000 0.000000 0.000000 

-0.000000 -0.000000 0.000000 
0.000000 -0.000000 0.000000 
0.000000 0.000000 0.000000 

0.000000 0.000000 0.000000 
0.000000 0.000000 0.000000 
0.000000 0.000000 0.000000 

0.000000 0.000000 0.000000 
0.000000 0.000000 0.000000 
0.000000 0.000000 0.000000 

0.000000 -0.000000 0.000000 
0.000000 0.000000 0.000000 
0.000000 0.000000 0.000000 

-0.000000 -0.000000 0.000000 
0.000000 -0.000000 0.000000 
0.000000 0.000000 0.000000 

-0.000000 -0.000000 0.000000 
0.000000 -0.000000 0.000000 
0.000000 0.000000 0.000000 

-0.000000 -0.000000 0.000000 
0.000000 -0.000000 0.000000 
0.000000 0.000000 0.000000 

-0.000000 -0.000000 0.000000 
0.000000 -0.000000 0.000000 
0.000000 0.000000 0.000000 

-0.000000 0.000000 0.000000 
0.000000 -0.000000 0.000000 
0.000000 0.000000 0.000000 

0.000000 -0.000000 0.000000 
0.000000 0.000000 0.000000 
0.000000 0.000000 0.000000 

0.000000 -0.000000 0.000000 
0.000000 0.000000 0.000000 
0.000000 0.000000 0.000000 

0.000000 -0.000000 0.000000 
0.000000 0.000000 0.000000 
0.000000 0.000000 0.000000 

0.000000 -0.000000 0.000000 
0.000000 -0.000000 0.000000 
0.000000 0.000000 0.000000 

0.000000 -0.000000 0.000000 
0.000000 0.000000 0.000000 
0.000000 0.000000 0.000000 

0.000000 -0.000000 0.000000 
0.000000 0.000000 0.000000 
0.000000 0.000000 0.000000 

0.000000 -0.000000 0.000000 
0.000000 0.000000 0.000000 
0.000000 0.000000 0.000000 

0.000000 -0.000000 0.000000 
0.000000 0.000000 0.000000 
0.000000 0.000000 0.000000 

-0.000000 -0.000000 0.000000 
0.000000 -0.000000 0.000000 
0.000000 0.000000 0.000000 

0.000000 -0.000000 0.000000 
0.000000 0.000000 0.000000 
0.000000 0.000000 0.000000 

0.000000 0.000000 0.000000 
0.000000 0.000000 0.000000 
0.000000 0.000000 0.000000 

0.000000 0.000000 0.000000 
0.000000 0.000000 0.000000 
0.000000 0.000000 0.000000 

0.000000 0.000000 0.000000 
0.000000 0.000000 0.000000 
0.000000 0.000000 0.000000 

0.000000 0.000000 0.000000 
0.000000 0.000000 0.000000 
0.000000 0.000000 0.000000 

0.000000 0.000000 0.000000 
0.000000 0.000000 0.000000 
0.000000 0.000000 0.000000 

-0.000000 0.000000 0.000000 
0.000000 -0.000000 0.000000 
0.000000 0.000000 0.000000 

-0.000000 0.000000 0.000000 
0.000000 -0.000000 0.000000 
0.000000 0.000000 0.000000 

-0.000000 0.000000 0.000000 
0.000000 -0.000000 0.000000 
0.000000 0.000000 0.000000 

-0.000000 0.000000 0.000000 
0.000000 -0.000000 0.000000 
0.000000 0.000000 0.000000 

-0.000000 0.000000 0.000000 
0.000000 -0.000000 0.000000 
0.000000 0.000000 0.000000 

0.000000 -0.000000 0.000000 
0.000000 0.000000 0.000000 
0.000000 0.000000 0.000000 

0.000000 -0.000000 0.000000 
0.000000 0.000000 0.000000 
0.000000 0.000000 0.000000 

0.000000 0.000000 0.000000 
0.000000 0.000000 0.000000 
0.000000 0.000000 0.000000 

-0.000000 0.000000 0.000000 
0.000000 -0.000000 0.000000 
0.000000 0.000000 0.000000 

-0.000000 0.000000 0.000000 
0.000000 -0.000000 0.000000 
0.000000 0.000000 0.000000 

-0.000000 0.000000 0.000000 
0.000000 -0.000000 0.000000 
0.000000 0.000000 0.000000 

-0.000000 0.000000 0.000000 
0.000000 -0.000000 0.000000 
0.000000 0.000000 0.000000 

-0.000000 0.000000 0.000000 
0.000000 -0.000000 0.000000 
0.000000 0.000000 0.000000 

-0.000000 0.000000 0.000000 
0.000000 -0.000000 0.000000 
0.000000 0.000000 0.000000 

-0.000000 0.000000 0.000000 
0.000000 -0.000000 0.000000 
0.000000 0.000000 0.000000 

-0.000000 -0.000000 0.000000 
0.000000 -0.000000 0.000000 
0.000000 0.000000 0.000000 

0.000000 -0.000000 0.000000 
0.000000 0.000000 0.000000 
0.000000 0.000000 0.000000 

-0.000000 -0.000000 0.000000 
0.000000 -0.000000 0.000000 
0.000000 0.000000 0.000000 

0.000000 -0.000000 0.000000 
0.000000 0.000000 0.000000 
0.000000 0.000000 0.000000 

0.000000 -0.000000 0.000000 
0.000000 0.000000 0.000000 
0.000000 0.000000 0.000000 

0.000000 -0.000000 0.000000 
0.000000 0.000000 0.000000 
0.000000 0.000000 0.000000 

0.000000 0.000000 0.000000 
0.000000 0.000000 0.000000 
0.000000 0.000000 0.000000 

0.000000 0.000000 0.000000 
0.000000 0.000000 0.000000 
0.000000 0.000000 0.000000 

0.000000 0.000000 0.000000 
0.000000 0.000000 0.000000 
0.000000 0.000000 0.000000 

0.000000 0.000000 0.000000 
0.000000 0.000000 0.000000 
0.000000 0.000000 0.000000 

0.000000 0.000000 0.000000 
0.000000 0.000000 0.000000 
0.000000 0.000000 0.000000 

-0.000000 0.000000 0.000000 
0.000000 -0.000000 0.000000 
0.000000 0.000000 0.000000 

-0.000000 -0.000000 0.000000 
0.000000 -0.000000 0.000000 
0.000000 0.000000 0.000000 

-0.000000 -0.000000 0.000000 
0.000000 -0.000000 0.000000 
0.000000 0.000000 0.000000 

-0.000000 -0.000000 0.000000 
0.000000 -0.000000 0.000000 
0.000000 0.000000 0.000000 

-0.000000 -0.000000 0.000000 
0.000000 -0.000000 0.000000 
0.000000 0.000000 0.000000 

-0.000000 -0.000000 0.000000 
0.000000 -0.000000 0.000000 
0.000000 0.000000 0.000000 

-0.000000 -0.000000 0.000000 
0.000000 -0.000000 0.000000 
0.000000 0.000000 0.000000 

-0.000000 -0.000000 0.000000 
0.000000 -0.000000 0.000000 
0.000000 0.000000 0.000000 

-0.000000 -0.000000 0.000000 
0.000000 -0.000000 0.000000 
0.000000 0.000000 0.000000 

-0.000000 -0.000000 0.000000 
0.000000 -0.000000 0.000000 
0.000000 0.000000 0.000000 

0.000000 -0.000000 0.000000 
0.000000 0.000000 0.000000 
0.000000 0.000000 0.000000 

-0.000000 -0.000000 0.000000 
0.000000 -0.000000 0.000000 
0.000000 0.000000 0.000000 

-0.000000 -0.000000 0.000000 
0.000000 -0.000000 0.000000 
0.000000 0.000000 0.000000 

-0.000000 0.000000 0.000000 
0.000000 -0.000000 0.000000 
0.000000 0.000000 0.000000 

-0.000000 0.000000 0.000000 
0.000000 -0.000000 0.000000 
0.000000 0.000000 0.000000 

-0.000000 0.000000 0.000000 
0.000000 -0.000000 0.000000 
0.000000 0.000000 0.000000 

0.000000 0.000000 0.000000 
0.000000 0.000000 0.000000 
0.000000 0.000000 0.000000 

0.000000 0.000000 0.000000 
0.000000 0.000000 0.000000 
0.000000 0.000000 0.000000 

0.000000 0.000000 0.000000 
0.000000 0.000000 0.000000 
0.000000 0.000000 0.000000 

0.000000 0.000000 0.000000 
0.000000 0.000000 0.000000 
0.000000 0.000000 0.000000 

0.000000 0.000000 0.000000 
0.000000 0.000000 0.000000 
0.000000 0.000000 0.000000 

0.000000 0.000000 0.000000 
0.000000 0.000000 0.000000 
0.000000 0.000000 0.000000 

0.000000 -0.000000 0.000000 
0.000000 0.000000 0.000000 
0.000000 0.000000 0.000000 

0.000000 -0.000000 0.000000 
0.000000 0.000000 0.000000 
0.000000 0.000000 0.000000 

0.000000 0.000000 0.000000 
0.000000 0.000000 0.000000 
0.000000 0.000000 0.000000 

-0.000000 -0.000000 0.000000 
0.000000 -0.000000 0.000000 
0.000000 0.000000 0.000000 

-0.000000 -0.000000 0.000000 
0.000000 -0.000000 0.000000 
0.000000 0.000000 0.000000 

-0.000000 -0.000000 0.000000 
0.000000 -0.000000 0.000000 
0.000000 0.000000 0.000000 

-0.000000 -0.000000 0.000000 
0.000000 -0.000000 0.000000 
0.000000 0.000000 0.000000 

-0.000000 -0.000000 0.000000 
0.000000 -0.000000 0.000000 
0.000000 0.000000 0.000000 

-0.000000 -0.000000 0.000000 
0.000000 -0.000000 0.000000 
0.000000 0.000000 0.000000 

-0.000000 -0.000000 0.000000 
0.000000 -0.000000 0.000000 
0.000000 0.000000 0.000000 

0.000000 -0.000000 0.000000 
0.000000 0.000000 0.000000 
0.000000 0.000000 0.000000 

0.000000 0.000000 0.000000 
0.000000 0.000000 0.000000 
0.000000 0.000000 0.000000 

0.000000 -0.000000 0.000000 
0.000000 0.000000 0.000000 
0.000000 0.000000 0.000000 

0.000000 -0.000000 0.000000 
0.000000 0.000000 0.000000 
0.000000 0.000000 0.000000 

0.000000 -0.000000 0.000000 
0.000000 0.000000 0.000000 
0.000000 0.000000 0.000000 

0.000000 -0.000000 0.000000 
0.000000 0.000000 0.000000 
0.000000 0.000000 0.000000 

0.000000 -0.000000 0.000000 
0.000000 0.000000 0.000000 
0.000000 0.000000 0.000000 

0.000000 0.000000 0.000000 
0.000000 0.000000 0.000000 
0.000000 0.000000 0.000000 

-0.000000 -0.000000 0.000000 
0.000000 -0.000000 0.000000 
0.000000 0.000000 0.000000 

0.000000 -0.000000 0.000000 
0.000000 0.000000 0.000000 
0.000000 0.000000 0.000000 

-0.000000 -0.000000 0.000000 
0.000000 -0.000000 0.000000 
0.000000 0.000000 0.000000 

-0.000000 -0.000000 0.000000 
0.000000 -0.000000 0.000000 
0.000000 0.000000 0.000000 

-0.000000 0.000000 0.000000 
0.000000 -0.000000 0.000000 
0.000000 0.000000 0.000000 

-0.000000 -0.000000 0.000000 
0.000000 -0.000000 0.000000 
0.000000 0.000000 0.000000 

-0.000000 0.000000 0.000000 
0.000000 -0.000000 0.000000 
0.000000 0.000000 0.000000 

0.000000 0.000000 0.000000 
0.000000 0.000000 0.000000 
0.000000 0.000000 0.000000 

0.000000 0.000000 0.000000 
0.000000 0.000000 0.000000 
0.000000 0.000000 0.000000 

-0.000000 0.000000 0.000000 
0.000000 -0.000000 0.000000 
0.000000 0.000000 0.000000 

-0.000000 0.000000 0.000000 
0.000000 -0.000000 0.000000 
0.000000 0.000000 0.000000 

0.000000 0.000000 0.000000 
0.000000 0.000000 0.000000 
0.000000 0.000000 0.000000 

0.000000 0.000000 0.000000 
0.000000 0.000000 0.000000 
0.000000 0.000000 0.000000 

-0.000000 -0.000000 0.000000 
0.000000 -0.000000 0.000000 
0.000000 0.000000 0.000000 

0.000000 -0.000000 0.000000 
0.000000 0.000000 0.000000 
0.000000 0.000000 0.000000 

-0.000000 0.000000 0.000000 
0.000000 -0.000000 0.000000 
0.000000 0.000000 0.000000 

-0.000000 0.000000 0.000000 
0.000000 -0.000000 0.000000 
0.000000 0.000000 0.000000 

-0.000000 -0.000000 0.000000 
0.000000 -0.000000 0.000000 
0.000000 0.000000 0.000000 

0.000000 -0.000000 0.000000 
0.000000 0.000000 0.000000 
0.000000 0.000000 0.000000 

0.000000 -0.000000 0.000000 
0.000000 0.000000 0.000000 
0.000000 0.000000 0.000000 

-0.000000 0.000000 0.000000 
0.000000 -0.000000 0.000000 
0.000000 0.000000 0.000000 

-0.000000 0.000000 0.000000 
0.000000 -0.000000 0.000000 
0.000000 0.000000 0.000000 

-0.000000 0.000000 0.000000 
0.000000 -0.000000 0.000000 
0.000000 0.000000 0.000000 

-0.000000 0.000000 0.000000 
0.000000 -0.000000 0.000000 
0.000000 0.000000 0.000000 

0.000000 0.000000 0.000000 
0.000000 0.000000 0.000000 
0.000000 0.000000 0.000000 

-0.000000 0.000000 0.000000 
0.000000 -0.000000 0.000000 
0.000000 0.000000 0.000000 

-0.000000 0.000000 0.000000 
0.000000 -0.000000 0.000000 
0.000000 0.000000 0.000000 

-0.000000 0.000000 0.000000 
0.000000 -0.000000 0.000000 
0.000000 0.000000 0.000000 

0.000000 0.000000 0.000000 
0.000000 0.000000 0.000000 
0.000000 0.000000 0.000000 

0.000000 0.000000 0.000000 
0.000000 0.000000 0.000000 
0.000000 0.000000 0.000000 

0.000000 0.000000 0.000000 
0.000000 0.000000 0.000000 
0.000000 0.000000 0.000000 

0.000000 0.000000 0.000000 
0.000000 0.000000 0.000000 
0.000000 0.000000 0.000000 

0.000000 -0.000000 0.000000 
0.000000 0.000000 0.000000 
0.000000 0.000000 0.000000 

0.000000 0.000000 0.000000 
0.000000 0.000000 0.000000 
0.000000 0.000000 0.000000 

-0.000000 0.000000 0.000000 
0.000000 -0.000000 0.000000 
0.000000 0.000000 0.000000 

0.000000 0.000000 0.000000 
0.000000 -0.000000 0.000000 
0.000000 0.000000 0.000000 

-0.000000 0.000000 0.000000 
0.000000 -0.000000 0.000000 
0.000000 0.000000 0.000000 

0.000000 0.000000 0.000000 
0.000000 0.000000 0.000000 
0.000000 0.000000 0.000000 

-0.000000 -0.000000 0.000000 
0.000000 -0.000000 0.000000 
0.000000 0.000000 0.000000 

-0.000000 -0.000000 0.000000 
0.000000 -0.000000 0.000000 
0.000000 0.000000 0.000000 

-0.000000 -0.000000 0.000000 
0.000000 -0.000000 0.000000 
0.000000 0.000000 0.000000 

-0.000000 -0.000000 0.000000 
0.000000 -0.000000 0.000000 
0.000000 0.000000 0.000000 

-0.000000 -0.000000 0.000000 
0.000000 -0.000000 0.000000 
0.000000 0.000000 0.000000 

0.000000 0.000000 0.000000 
0.000000 0.000000 0.000000 
0.000000 0.000000 0.000000 

0.000000 -0.000000 0.000000 
0.000000 0.000000 0.000000 
0.000000 0.000000 0.000000 

0.000000 -0.000000 0.000000 
0.000000 0.000000 0.000000 
0.000000 0.000000 0.000000 

0.000000 -0.000000 0.000000 
0.000000 -0.000000 0.000000 
0.000000 0.000000 0.000000 

-0.000000 -0.000000 0.000000 
0.000000 -0.000000 0.000000 
0.000000 0.000000 0.000000 

-0.000000 -0.000000 0.000000 
0.000000 -0.000000 0.000000 
0.000000 0.000000 0.000000 

-0.000000 0.000000 0.000000 
0.000000 -0.000000 0.000000 
0.000000 0.000000 0.000000 

-0.000000 0.000000 0.000000 
0.000000 -0.000000 0.000000 
0.000000 0.000000 0.000000 

-0.000000 0.000000 0.000000 
0.000000 -0.000000 0.000000 
0.000000 0.000000 0.000000 

-0.000000 0.000000 0.000000 
0.000000 -0.000000 0.000000 
0.000000 0.000000 0.000000 

-0.000000 0.000000 0.000000 
0.000000 -0.000000 0.000000 
0.000000 0.000000 0.000000 

-0.000000 -0.000000 0.000000 
0.000000 -0.000000 0.000000 
0.000000 0.000000 0.000000 

-0.000000 -0.000000 0.000000 
0.000000 -0.000000 0.000000 
0.000000 0.000000 0.000000 

-0.000000 -0.000000 0.000000 
0.000000 -0.000000 0.000000 
0.000000 0.000000 0.000000 

-0.000000 -0.000000 0.000000 
0.000000 -0.000000 0.000000 
0.000000 0.000000 0.000000 

-0.000000 0.000000 0.000000 
0.000000 -0.000000 0.000000 
0.000000 0.000000 0.000000 

-0.000000 -0.000000 0.000000 
0.000000 -0.000000 0.000000 
0.000000 0.000000 0.000000 

-0.000000 0.000000 0.000000 
0.000000 -0.000000 0.000000 
0.000000 0.000000 0.000000 

-0.000000 0.000000 0.000000 
0.000000 -0.000000 0.000000 
0.000000 0.000000 0.000000 

0.000000 0.000000 0.000000 
0.000000 0.000000 0.000000 
0.000000 0.000000 0.000000 

0.000000 -0.000000 0.000000 
0.000000 0.000000 0.000000 
0.000000 0.000000 0.000000 

0.000000 -0.000000 0.000000 
0.000000 0.000000 0.000000 
0.000000 0.000000 0.000000 

0.000000 0.000000 0.000000 
0.000000 0.000000 0.000000 
0.000000 0.000000 0.000000 

0.000000 0.000000 0.000000 
0.000000 0.000000 0.000000 
0.000000 0.000000 0.000000 

0.000000 0.000000 0.000000 
0.000000 0.000000 0.000000 
0.000000 0.000000 0.000000 

0.000000 0.000000 0.000000 
0.000000 0.000000 0.000000 
0.000000 0.000000 0.000000 

0.000000 -0.000000 0.000000 
0.000000 0.000000 0.000000 
0.000000 0.000000 0.000000 

0.000000 0.000000 0.000000 
0.000000 0.000000 0.000000 
0.000000 0.000000 0.000000 

0.000000 0.000000 0.000000 
0.000000 0.000000 0.000000 
0.000000 0.000000 0.000000 

0.000000 -0.000000 0.000000 
0.000000 0.000000 0.000000 
0.000000 0.000000 0.000000 

-0.000000 0.000000 0.000000 
0.000000 -0.000000 0.000000 
0.000000 0.000000 0.000000 

-0.000000 0.000000 0.000000 
0.000000 -0.000000 0.000000 
0.000000 0.000000 0.000000 

0.000000 0.000000 0.000000 
0.000000 0.000000 0.000000 
0.000000 0.000000 0.000000 

0.000000 0.000000 0.000000 
0.000000 0.000000 0.000000 
0.000000 0.000000 0.000000 

-0.000000 0.000000 0.000000 
0.000000 -0.000000 0.000000 
0.000000 0.000000 0.000000 

0.000000 0.000000 0.000000 
0.000000 0.000000 0.000000 
0.000000 0.000000 0.000000 

0.000000 0.000000 0.000000 
0.000000 0.000000 0.000000 
0.000000 0.000000 0.000000 

0.000000 0.000000 0.000000 
0.000000 0.000000 0.000000 
0.000000 0.000000 0.000000 

0.000000 0.000000 0.000000 
0.000000 0.000000 0.000000 
0.000000 0.000000 0.000000 

0.000000 -0.000000 0.000000 
0.000000 0.000000 0.000000 
0.000000 0.000000 0.000000 

0.000000 -0.000000 0.000000 
0.000000 0.000000 0.000000 
0.000000 0.000000 0.000000 

0.000000 -0.000000 0.000000 
0.000000 0.000000 0.000000 
0.000000 0.000000 0.000000 

0.000000 -0.000000 0.000000 
0.000000 0.000000 0.000000 
0.000000 0.000000 0.000000 

0.000000 -0.000000 0.000000 
0.000000 0.000000 0.000000 
0.000000 0.000000 0.000000 

-0.000000 0.000000 0.000000 
0.000000 -0.000000 0.000000 
0.000000 0.000000 0.000000 

-0.000000 -0.000000 0.000000 
0.000000 -0.000000 0.000000 
0.000000 0.000000 0.000000 

-0.000000 -0.000000 0.000000 
0.000000 -0.000000 0.000000 
0.000000 0.000000 0.000000 

-0.000000 -0.000000 0.000000 
0.000000 -0.000000 0.000000 
0.000000 0.000000 0.000000 

-0.000000 -0.000000 0.000000 
0.000000 -0.000000 0.000000 
0.000000 0.000000 0.000000 

-0.000000 -0.000000 0.000000 
0.000000 -0.000000 0.000000 
0.000000 0.000000 0.000000 

-0.000000 0.000000 0.000000 
0.000000 -0.000000 0.000000 
0.000000 0.000000 0.000000 

-0.000000 -0.000000 0.000000 
0.000000 -0.000000 0.000000 
0.000000 0.000000 0.000000 

0.000000 -0.000000 0.000000 
0.000000 0.000000 0.000000 
0.000000 0.000000 0.000000 

-0.000000 -0.000000 0.000000 
0.000000 -0.000000 0.000000 
0.000000 0.000000 0.000000 

-0.000000 -0.000000 0.000000 
0.000000 -0.000000 0.000000 
0.000000 0.000000 0.000000 

0.000000 -0.000000 0.000000 
0.000000 0.000000 0.000000 
0.000000 0.000000 0.000000 

0.000000 0.000000 0.000000 
0.000000 0.000000 0.000000 
0.000000 0.000000 0.000000 

0.000000 0.000000 0.000000 
0.000000 0.000000 0.000000 
0.000000 0.000000 0.000000 

0.000000 0.000000 0.000000 
0.000000 0.000000 0.000000 
0.000000 0.000000 0.000000 

-0.000000 -0.000000 0.000000 
0.000000 -0.000000 0.000000 
0.000000 0.000000 0.000000 

-0.000000 -0.000000 0.000000 
0.000000 -0.000000 0.000000 
0.000000 0.000000 0.000000 

0.000000 -0.000000 0.000000 
0.000000 0.000000 0.000000 
0.000000 0.000000 0.000000 

0.000000 -0.000000 0.000000 
0.000000 0.000000 0.000000 
0.000000 0.000000 0.000000 

0.000000 -0.000000 0.000000 
0.000000 0.000000 0.000000 
0.000000 0.000000 0.000000 

-0.000000 -0.000000 0.000000 
0.000000 -0.000000 0.000000 
0.000000 0.000000 0.000000 

-0.000000 -0.000000 0.000000 
0.000000 -0.000000 0.000000 
0.000000 0.000000 0.000000 

-0.000000 -0.000000 0.000000 
0.000000 -0.000000 0.000000 
0.000000 0.000000 0.000000 

-0.000000 -0.000000 0.000000 
0.000000 -0.000000 0.000000 
0.000000 0.000000 0.000000 

-0.000000 0.000000 0.000000 
0.000000 -0.000000 0.000000 
0.000000 0.000000 0.000000 

-0.000000 -0.000000 0.000000 
0.000000 -0.000000 0.000000 
0.000000 0.000000 0.000000 

-0.000000 -0.000000 0.000000 
0.000000 -0.000000 0.000000 
0.000000 0.000000 0.000000 

0.000000 0.000000 0.000000 
0.000000 0.000000 0.000000 
0.000000 0.000000 0.000000 

0.000000 -0.000000 0.000000 
0.000000 0.000000 0.000000 
0.000000 0.000000 0.000000 

-0.000000 -0.000000 0.000000 
0.000000 -0.000000 0.000000 
0.000000 0.000000 0.000000 

-0.000000 0.000000 0.000000 
0.000000 -0.000000 0.000000 
0.000000 0.000000 0.000000 

-0.000000 -0.000000 0.000000 
0.000000 -0.000000 0.000000 
0.000000 0.000000 0.000000 

-0.000000 0.000000 0.000000 
0.000000 -0.000000 0.000000 
0.000000 0.000000 0.000000 

-0.000000 0.000000 0.000000 
0.000000 -0.000000 0.000000 
0.000000 0.000000 0.000000 

-0.000000 -0.000000 0.000000 
0.000000 -0.000000 0.000000 
0.000000 0.000000 0.000000 

-0.000000 -0.000000 0.000000 
0.000000 -0.000000 0.000000 
0.000000 0.000000 0.000000 

-0.000000 -0.000000 0.000000 
0.000000 -0.000000 0.000000 
0.000000 0.000000 0.000000 

-0.000000 -0.000000 0.000000 
0.000000 -0.000000 0.000000 
0.000000 0.000000 0.000000 

0.000000 -0.000000 0.000000 
0.000000 0.000000 0.000000 
0.000000 0.000000 0.000000 

-0.000000 -0.000000 0.000000 
0.000000 -0.000000 0.000000 
0.000000 0.000000 0.000000 

-0.000000 -0.000000 0.000000 
0.000000 -0.000000 0.000000 
0.000000 0.000000 0.000000 

-0.000000 -0.000000 0.000000 
0.000000 -0.000000 0.000000 
0.000000 0.000000 0.000000 

-0.000000 -0.000000 0.000000 
0.000000 -0.000000 0.000000 
0.000000 0.000000 0.000000 

-0.000000 -0.000000 0.000000 
0.000000 -0.000000 0.000000 
0.000000 0.000000 0.000000 

-0.000000 -0.000000 0.000000 
0.000000 -0.000000 0.000000 
0.000000 0.000000 0.000000 

-0.000000 -0.000000 0.000000 
0.000000 -0.000000 0.000000 
0.000000 0.000000 0.000000 

0.000000 0.000000 0.000000 
0.000000 0.000000 0.000000 
0.000000 0.000000 0.000000 

0.000000 0.000000 0.000000 
0.000000 0.000000 0.000000 
0.000000 0.000000 0.000000 

0.000000 -0.000000 0.000000 
0.000000 0.000000 0.000000 
0.000000 0.000000 0.000000 

-0.000000 -0.000000 0.000000 
0.000000 -0.000000 0.000000 
0.000000 0.000000 0.000000 

-0.000000 0.000000 0.000000 
0.000000 -0.000000 0.000000 
0.000000 0.000000 0.000000 

-0.000000 -0.000000 0.000000 
0.000000 -0.000000 0.000000 
0.000000 0.000000 0.000000 

-0.000000 -0.000000 0.000000 
0.000000 -0.000000 0.000000 
0.000000 0.000000 0.000000 

-0.000000 -0.000000 0.000000 
0.000000 -0.000000 0.000000 
0.000000 0.000000 0.000000 

-0.000000 -0.000000 0.000000 
0.000000 -0.000000 0.000000 
0.000000 0.000000 0.000000 

-0.000000 0.000000 0.000000 
0.000000 -0.000000 0.000000 
0.000000 0.000000 0.000000 

0.000000 0.000000 0.000000 
0.000000 0.000000 0.000000 
0.000000 0.000000 0.000000 

-0.000000 0.000000 0.000000 
0.000000 -0.000000 0.000000 
0.000000 0.000000 0.000000 

-0.000000 0.000000 0.000000 
0.000000 -0.000000 0.000000 
0.000000 0.000000 0.000000 

-0.000000 0.000000 0.000000 
0.000000 -0.000000 0.000000 
0.000000 0.000000 0.000000 

-0.000000 -0.000000 0.000000 
0.000000 -0.000000 0.000000 
0.000000 0.000000 0.000000 

-0.000000 0.000000 0.000000 
0.000000 -0.000000 0.000000 
0.000000 0.000000 0.000000 

-0.000000 0.000000 0.000000 
0.000000 -0.000000 0.000000 
0.000000 0.000000 0.000000 

-0.000000 0.000000 0.000000 
0.000000 -0.000000 0.000000 
0.000000 0.000000 0.000000 

-0.000000 0.000000 0.000000 
0.000000 -0.000000 0.000000 
0.000000 0.000000 0.000000 

-0.000000 -0.000000 0.000000 
0.000000 -0.000000 0.000000 
0.000000 0.000000 0.000000 

-0.000000 -0.000000 0.000000 
0.000000 -0.000000 0.000000 
0.000000 0.000000 0.000000 

-0.000000 -0.000000 0.000000 
0.000000 -0.000000 0.000000 
0.000000 0.000000 0.000000 

-0.000000 -0.000000 0.000000 
0.000000 -0.000000 0.000000 
0.000000 0.000000 0.000000 

-0.000000 -0.000000 0.000000 
0.000000 -0.000000 0.000000 
0.000000 0.000000 0.000000 

-0.000000 0.000000 0.000000 
0.000000 -0.000000 0.000000 
0.000000 0.000000 0.000000 

-0.000000 -0.000000 0.000000 
0.000000 -0.000000 0.000000 
0.000000 0.000000 0.000000 

0.000000 0.000000 0.000000 
0.000000 0.000000 0.000000 
0.000000 0.000000 0.000000 

0.000000 0.000000 0.000000 
0.000000 0.000000 0.000000 
0.000000 0.000000 0.000000 

0.000000 0.000000 0.000000 
0.000000 0.000000 0.000000 
0.000000 0.000000 0.000000 

-0.000000 0.000000 0.000000 
0.000000 -0.000000 0.000000 
0.000000 0.000000 0.000000 

-0.000000 0.000000 0.000000 
0.000000 -0.000000 0.000000 
0.000000 0.000000 0.000000 

-0.000000 0.000000 0.000000 
0.000000 -0.000000 0.000000 
0.000000 0.000000 0.000000 

-0.000000 0.000000 0.000000 
0.000000 -0.000000 0.000000 
0.000000 0.000000 0.000000 

0.000000 0.000000 0.000000 
0.000000 0.000000 0.000000 
0.000000 0.000000 0.000000 

0.000000 -0.000000 0.000000 
0.000000 0.000000 0.000000 
0.000000 0.000000 0.000000 

-0.000000 0.000000 0.000000 
0.000000 -0.000000 0.000000 
0.000000 0.000000 0.000000 

-0.000000 0.000000 0.000000 
0.000000 -0.000000 0.000000 
0.000000 0.000000 0.000000 

-0.000000 0.000000 0.000000 
0.000000 -0.000000 0.000000 
0.000000 0.000000 0.000000 

-0.000000 0.000000 0.000000 
0.000000 -0.000000 0.000000 
0.000000 0.000000 0.000000 

-0.000000 0.000000 0.000000 
0.000000 -0.000000 0.000000 
0.000000 0.000000 0.000000 

-0.000000 -0.000000 0.000000 
0.000000 -0.000000 0.000000 
0.000000 0.000000 0.000000 

-0.000000 0.000000 0.000000 
0.000000 -0.000000 0.000000 
0.000000 0.000000 0.000000 

-0.000000 0.000000 0.000000 
0.000000 -0.000000 0.000000 
0.000000 0.000000 0.000000 

-0.000000 0.000000 0.000000 
0.000000 -0.000000 0.000000 
0.000000 0.000000 0.000000 

-0.000000 0.000000 0.000000 
0.000000 -0.000000 0.000000 
0.000000 0.000000 0.000000 

-0.000000 0.000000 0.000000 
0.000000 -0.000000 0.000000 
0.000000 0.000000 0.000000 

-0.000000 0.000000 0.000000 
0.000000 -0.000000 0.000000 
0.000000 0.000000 0.000000 

-0.000000 0.000000 0.000000 
0.000000 -0.000000 0.000000 
0.000000 0.000000 0.000000 

-0.000000 0.000000 0.000000 
0.000000 -0.000000 0.000000 
0.000000 0.000000 0.000000 

-0.000000 0.000000 0.000000 
0.000000 -0.000000 0.000000 
0.000000 0.000000 0.000000 

-0.000000 0.000000 0.000000 
0.000000 -0.000000 0.000000 
0.000000 0.000000 0.000000 

-0.000000 0.000000 0.000000 
0.000000 -0.000000 0.000000 
0.000000 0.000000 0.000000 

-0.000000 0.000000 0.000000 
0.000000 -0.000000 0.000000 
0.000000 0.000000 0.000000 

-0.000000 -0.000000 0.000000 
0.000000 -0.000000 0.000000 
0.000000 0.000000 0.000000 

-0.000000 0.000000 0.000000 
0.000000 -0.000000 0.000000 
0.000000 0.000000 0.000000 

-0.000000 0.000000 0.000000 
0.000000 -0.000000 0.000000 
0.000000 0.000000 0.000000 

-0.000000 -0.000000 0.000000 
0.000000 -0.000000 0.000000 
0.000000 0.000000 0.000000 

-0.000000 -0.000000 0.000000 
0.000000 -0.000000 0.000000 
0.000000 0.000000 0.000000 

-0.000000 -0.000000 0.000000 
0.000000 -0.000000 0.000000 
0.000000 0.000000 0.000000 

0.000000 0.000000 0.000000 
0.000000 -0.000000 0.000000 
0.000000 0.000000 0.000000 

0.000000 0.000000 0.000000 
0.000000 0.000000 0.000000 
0.000000 0.000000 0.000000 

0.000000 0.000000 0.000000 
0.000000 0.000000 0.000000 
0.000000 0.000000 0.000000 

0.000000 0.000000 0.000000 
0.000000 0.000000 0.000000 
0.000000 0.000000 0.000000 

0.000000 0.000000 0.000000 
0.000000 0.000000 0.000000 
0.000000 0.000000 0.000000 

0.000000 0.000000 0.000000 
0.000000 0.000000 0.000000 
0.000000 0.000000 0.000000 

-0.000000 -0.000000 0.000000 
0.000000 -0.000000 0.000000 
0.000000 0.000000 0.000000 

-0.000000 -0.000000 0.000000 
0.000000 -0.000000 0.000000 
0.000000 0.000000 0.000000 

-0.000000 -0.000000 0.000000 
0.000000 -0.000000 0.000000 
0.000000 0.000000 0.000000 

-0.000000 -0.000000 0.000000 
0.000000 -0.000000 0.000000 
0.000000 0.000000 0.000000 

-0.000000 -0.000000 0.000000 
0.000000 -0.000000 0.000000 
0.000000 0.000000 0.000000 

0.000000 -0.000000 0.000000 
0.000000 0.000000 0.000000 
0.000000 0.000000 0.000000 

-0.000000 -0.000000 0.000000 
0.000000 -0.000000 0.000000 
0.000000 0.000000 0.000000 

0.000000 0.000000 0.000000 
0.000000 0.000000 0.000000 
0.000000 0.000000 0.000000 

-0.000000 -0.000000 0.000000 
0.000000 -0.000000 0.000000 
0.000000 0.000000 0.000000 

0.000000 -0.000000 0.000000 
0.000000 0.000000 0.000000 
0.000000 0.000000 0.000000 

-0.000000 -0.000000 0.000000 
0.000000 -0.000000 0.000000 
0.000000 0.000000 0.000000 

0.000000 0.000000 0.000000 
0.000000 0.000000 0.000000 
0.000000 0.000000 0.000000 

-0.000000 -0.000000 0.000000 
0.000000 -0.000000 0.000000 
0.000000 0.000000 0.000000 

-0.000000 0.000000 0.000000 
0.000000 -0.000000 0.000000 
0.000000 0.000000 0.000000 

-0.000000 0.000000 0.000000 
0.000000 -0.000000 0.000000 
0.000000 0.000000 0.000000 

-0.000000 0.000000 0.000000 
0.000000 -0.000000 0.000000 
0.000000 0.000000 0.000000 

-0.000000 0.000000 0.000000 
0.000000 -0.000000 0.000000 
0.000000 0.000000 0.000000 

0.000000 -0.000000 0.000000 
0.000000 0.000000 0.000000 
0.000000 0.000000 0.000000 

0.000000 0.000000 0.000000 
0.000000 0.000000 0.000000 
0.000000 0.000000 0.000000 

0.000000 0.000000 0.000000 
0.000000 0.000000 0.000000 
0.000000 0.000000 0.000000 

0.000000 -0.000000 0.000000 
0.000000 0.000000 0.000000 
0.000000 0.000000 0.000000 

0.000000 -0.000000 0.000000 
0.000000 0.000000 0.000000 
0.000000 0.000000 0.000000 

-0.000000 -0.000000 0.000000 
0.000000 -0.000000 0.000000 
0.000000 0.000000 0.000000 

0.000000 0.000000 0.000000 
0.000000 0.000000 0.000000 
0.000000 0.000000 0.000000 

-0.000000 0.000000 0.000000 
0.000000 -0.000000 0.000000 
0.000000 0.000000 0.000000 

-0.000000 -0.000000 0.000000 
0.000000 -0.000000 0.000000 
0.000000 0.000000 0.000000 

-0.000000 0.000000 0.000000 
0.000000 -0.000000 0.000000 
0.000000 0.000000 0.000000 

-0.000000 0.000000 0.000000 
0.000000 -0.000000 0.000000 
0.000000 0.000000 0.000000 

-0.000000 0.000000 0.000000 
0.000000 -0.000000 0.000000 
0.000000 0.000000 0.000000 

-0.000000 0.000000 0.000000 
0.000000 -0.000000 0.000000 
0.000000 0.000000 0.000000 

-0.000000 -0.000000 0.000000 
0.000000 -0.000000 0.000000 
0.000000 0.000000 0.000000 

-0.000000 -0.000000 0.000000 
0.000000 -0.000000 0.000000 
0.000000 0.000000 0.000000 

-0.000000 0.000000 0.000000 
0.000000 -0.000000 0.000000 
0.000000 0.000000 0.000000 

-0.000000 0.000000 0.000000 
0.000000 -0.000000 0.000000 
0.000000 0.000000 0.000000 

0.000000 0.000000 0.000000 
0.000000 0.000000 0.000000 
0.000000 0.000000 0.000000 

0.000000 0.000000 0.000000 
0.000000 0.000000 0.000000 
0.000000 0.000000 0.000000 

0.000000 0.000000 0.000000 
0.000000 0.000000 0.000000 
0.000000 0.000000 0.000000 

0.000000 0.000000 0.000000 
0.000000 0.000000 0.000000 
0.000000 0.000000 0.000000 

0.000000 0.000000 0.000000 
0.000000 0.000000 0.000000 
0.000000 0.000000 0.000000 

0.000000 0.000000 0.000000 
0.000000 0.000000 0.000000 
0.000000 0.000000 0.000000 

0.000000 0.000000 0.000000 
0.000000 0.000000 0.000000 
0.000000 0.000000 0.000000 

0.000000 -0.000000 0.000000 
0.000000 0.000000 0.000000 
0.000000 0.000000 0.000000 

-0.000000 -0.000000 0.000000 
0.000000 -0.000000 0.000000 
0.000000 0.000000 0.000000 

-0.000000 -0.000000 0.000000 
0.000000 -0.000000 0.000000 
0.000000 0.000000 0.000000 

0.000000 0.000000 0.000000 
0.000000 0.000000 0.000000 
0.000000 0.000000 0.000000 

0.000000 0.000000 0.000000 
0.000000 0.000000 0.000000 
0.000000 0.000000 0.000000 

0.000000 0.000000 0.000000 
0.000000 0.000000 0.000000 
0.000000 0.000000 0.000000 

0.000000 -0.000000 0.000000 
0.000000 0.000000 0.000000 
0.000000 0.000000 0.000000 

-0.000000 -0.000000 0.000000 
0.000000 -0.000000 0.000000 
0.000000 0.000000 0.000000 

-0.000000 -0.000000 0.000000 
0.000000 -0.000000 0.000000 
0.000000 0.000000 0.000000 

-0.000000 -0.000000 0.000000 
0.000000 -0.000000 0.000000 
0.000000 0.000000 0.000000 

-0.000000 -0.000000 0.000000 
0.000000 -0.000000 0.000000 
0.000000 0.000000 0.000000 

-0.000000 0.000000 0.000000 
0.000000 -0.000000 0.000000 
0.000000 0.000000 0.000000 

-0.000000 0.000000 0.000000 
0.000000 -0.000000 0.000000 
0.000000 0.000000 0.000000 

-0.000000 0.000000 0.000000 
0.000000 -0.000000 0.000000 
0.000000 0.000000 0.000000 

-0.000000 -0.000000 0.000000 
0.000000 -0.000000 0.000000 
0.000000 0.000000 0.000000 

-0.000000 -0.000000 0.000000 
0.000000 -0.000000 0.000000 
0.000000 0.000000 0.000000 

0.000000 0.000000 0.000000 
0.000000 0.000000 0.000000 
0.000000 0.000000 0.000000 

-0.000000 0.000000 0.000000 
0.000000 -0.000000 0.000000 
0.000000 0.000000 0.000000 

-0.000000 0.000000 0.000000 
0.000000 -0.000000 0.000000 
0.000000 0.000000 0.000000 

-0.000000 0.000000 0.000000 
0.000000 -0.000000 0.000000 
0.000000 0.000000 0.000000 

0.000000 0.000000 0.000000 
0.000000 0.000000 0.000000 
0.000000 0.000000 0.000000 

0.000000 0.000000 0.000000 
0.000000 0.000000 0.000000 
0.000000 0.000000 0.000000 

0.000000 -0.000000 0.000000 
0.000000 0.000000 0.000000 
0.000000 0.000000 0.000000 

0.000000 -0.000000 0.000000 
0.000000 0.000000 0.000000 
0.000000 0.000000 0.000000 

0.000000 0.000000 0.000000 
0.000000 0.000000 0.000000 
0.000000 0.000000 0.000000 

-0.000000 0.000000 0.000000 
0.000000 -0.000000 0.000000 
0.000000 0.000000 0.000000 

0.000000 0.000000 0.000000 
0.000000 0.000000 0.000000 
0.000000 0.000000 0.000000 

0.000000 0.000000 0.000000 
0.000000 0.000000 0.000000 
0.000000 0.000000 0.000000 

0.000000 0.000000 0.000000 
0.000000 0.000000 0.000000 
0.000000 0.000000 0.000000 

-0.000000 0.000000 0.000000 
0.000000 -0.000000 0.000000 
0.000000 0.000000 0.000000 

-0.000000 0.000000 0.000000 
0.000000 -0.000000 0.000000 
0.000000 0.000000 0.000000 

-0.000000 -0.000000 0.000000 
0.000000 -0.000000 0.000000 
0.000000 0.000000 0.000000 

-0.000000 0.000000 0.000000 
0.000000 -0.000000 0.000000 
0.000000 0.000000 0.000000 

-0.000000 -0.000000 0.000000 
0.000000 -0.000000 0.000000 
0.000000 0.000000 0.000000 

0.000000 0.000000 0.000000 
0.000000 0.000000 0.000000 
0.000000 0.000000 0.000000 

-0.000000 0.000000 0.000000 
0.000000 -0.000000 0.000000 
0.000000 0.000000 0.000000 

0.000000 0.000000 0.000000 
0.000000 0.000000 0.000000 
0.000000 0.000000 0.000000 

0.000000 0.000000 0.000000 
0.000000 0.000000 0.000000 
0.000000 0.000000 0.000000 

-0.000000 0.000000 0.000000 
0.000000 -0.000000 0.000000 
0.000000 0.000000 0.000000 

-0.000000 -0.000000 0.000000 
0.000000 -0.000000 0.000000 
0.000000 0.000000 0.000000 

-0.000000 0.000000 0.000000 
0.000000 -0.000000 0.000000 
0.000000 0.000000 0.000000 

-0.000000 -0.000000 0.000000 
0.000000 -0.000000 0.000000 
0.000000 0.000000 0.000000 

-0.000000 0.000000 0.000000 
0.000000 -0.000000 0.000000 
0.000000 0.000000 0.000000 

0.000000 -0.000000 0.000000 
0.000000 0.000000 0.000000 
0.000000 0.000000 0.000000 

-0.000000 -0.000000 0.000000 
0.000000 -0.000000 0.000000 
0.000000 0.000000 0.000000 

-0.000000 0.000000 0.000000 
0.000000 -0.000000 0.000000 
0.000000 0.000000 0.000000 

-0.000000 -0.000000 0.000000 
0.000000 -0.000000 0.000000 
0.000000 0.000000 0.000000 

-0.000000 -0.000000 0.000000 
0.000000 -0.000000 0.000000 
0.000000 0.000000 0.000000 

-0.000000 -0.000000 0.000000 
0.000000 -0.000000 0.000000 
0.000000 0.000000 0.000000 

-0.000000 -0.000000 0.000000 
0.000000 -0.000000 0.000000 
0.000000 0.000000 0.000000 

-0.000000 -0.000000 0.000000 
0.000000 -0.000000 0.000000 
0.000000 0.000000 0.000000 

-0.000000 -0.000000 0.000000 
0.000000 -0.000000 0.000000 
0.000000 0.000000 0.000000 

-0.000000 -0.000000 0.000000 
0.000000 -0.000000 0.000000 
0.000000 0.000000 0.000000 

-0.000000 -0.000000 0.000000 
0.000000 -0.000000 0.000000 
0.000000 0.000000 0.000000 

-0.000000 -0.000000 0.000000 
0.000000 -0.000000 0.000000 
0.000000 0.000000 0.000000 

0.000000 -0.000000 0.000000 
0.000000 0.000000 0.000000 
0.000000 0.000000 0.000000 

0.000000 0.000000 0.000000 
0.000000 0.000000 0.000000 
0.000000 0.000000 0.000000 

-0.000000 0.000000 0.000000 
0.000000 -0.000000 0.000000 
0.000000 0.000000 0.000000 

-0.000000 0.000000 0.000000 
0.000000 -0.000000 0.000000 
0.000000 0.000000 0.000000 

-0.000000 0.000000 0.000000 
0.000000 -0.000000 0.000000 
0.000000 0.000000 0.000000 

-0.000000 0.000000 0.000000 
0.000000 -0.000000 0.000000 
0.000000 0.000000 0.000000 

-0.000000 0.000000 0.000000 
0.000000 -0.000000 0.000000 
0.000000 0.000000 0.000000 

-0.000000 -0.000000 0.000000 
0.000000 -0.000000 0.000000 
0.000000 0.000000 0.000000 

0.000000 -0.000000 0.000000 
0.000000 0.000000 0.000000 
0.000000 0.000000 0.000000 

0.000000 0.000000 0.000000 
0.000000 0.000000 0.000000 
0.000000 0.000000 0.000000 

0.000000 -0.000000 0.000000 
0.000000 0.000000 0.000000 
0.000000 0.000000 0.000000 

0.000000 -0.000000 0.000000 
0.000000 0.000000 0.000000 
0.000000 0.000000 0.000000 

-0.000000 0.000000 0.000000 
0.000000 -0.000000 0.000000 
0.000000 0.000000 0.000000 

-0.000000 -0.000000 0.000000 
0.000000 -0.000000 0.000000 
0.000000 0.000000 0.000000 

-0.000000 0.000000 0.000000 
0.000000 -0.000000 0.000000 
0.000000 0.000000 0.000000 

-0.000000 0.000000 0.000000 
0.000000 -0.000000 0.000000 
0.000000 0.000000 0.000000 

-0.000000 -0.000000 0.000000 
0.000000 -0.000000 0.000000 
0.000000 0.000000 0.000000 

-0.000000 -0.000000 0.000000 
0.000000 -0.000000 0.000000 
0.000000 0.000000 0.000000 

0.000000 -0.000000 0.000000 
0.000000 -0.000000 0.000000 
0.000000 0.000000 0.000000 

0.000000 -0.000000 0.000000 
0.000000 0.000000 0.000000 
0.000000 0.000000 0.000000 

0.000000 -0.000000 0.000000 
0.000000 0.000000 0.000000 
0.000000 0.000000 0.000000 

0.000000 0.000000 0.000000 
0.000000 0.000000 0.000000 
0.000000 0.000000 0.000000 

-0.000000 0.000000 0.000000 
0.000000 -0.000000 0.000000 
0.000000 0.000000 0.000000 

-0.000000 0.000000 0.000000 
0.000000 -0.000000 0.000000 
0.000000 0.000000 0.000000 

-0.000000 0.000000 0.000000 
0.000000 -0.000000 0.000000 
0.000000 0.000000 0.000000 

0.000000 0.000000 0.000000 
0.000000 0.000000 0.000000 
0.000000 0.000000 0.000000 

0.000000 -0.000000 0.000000 
0.000000 0.000000 0.000000 
0.000000 0.000000 0.000000 

0.000000 -0.000000 0.000000 
0.000000 0.000000 0.000000 
0.000000 0.000000 0.000000 

0.000000 -0.000000 0.000000 
0.000000 0.000000 0.000000 
0.000000 0.000000 0.000000 

-0.000000 -0.000000 0.000000 
0.000000 -0.000000 0.000000 
0.000000 0.000000 0.000000 

-0.000000 0.000000 0.000000 
0.000000 -0.000000 0.000000 
0.000000 0.000000 0.000000 

-0.000000 -0.000000 0.000000 
0.000000 -0.000000 0.000000 
0.000000 0.000000 0.000000 

-0.000000 -0.000000 0.000000 
0.000000 -0.000000 0.000000 
0.000000 0.000000 0.000000 

-0.000000 0.000000 0.000000 
0.000000 -0.000000 0.000000 
0.000000 0.000000 0.000000 

-0.000000 -0.000000 0.000000 
0.000000 -0.000000 0.000000 
0.000000 0.000000 0.000000 

-0.000000 -0.000000 0.000000 
0.000000 -0.000000 0.000000 
0.000000 0.000000 0.000000 

-0.000000 0.000000 0.000000 
0.000000 -0.000000 0.000000 
0.000000 0.000000 0.000000 

0.000000 -0.000000 0.000000 
0.000000 0.000000 0.000000 
0.000000 0.000000 0.000000 

-0.000000 -0.000000 0.000000 
0.000000 0.000000 0.000000 
0.000000 0.000000 0.000000 

0.000000 -0.000000 0.000000 
0.000000 0.000000 0.000000 
0.000000 0.000000 0.000000 

-0.000000 0.000000 0.000000 
0.000000 -0.000000 0.000000 
0.000000 0.000000 0.000000 

-0.000000 0.000000 0.000000 
0.000000 -0.000000 0.000000 
0.000000 0.000000 0.000000 

0.000000 0.000000 0.000000 
0.000000 0.000000 0.000000 
0.000000 0.000000 0.000000 

-0.000000 0.000000 0.000000 
0.000000 -0.000000 0.000000 
0.000000 0.000000 0.000000 

-0.000000 0.000000 0.000000 
0.000000 -0.000000 0.000000 
0.000000 0.000000 0.000000 

-0.000000 0.000000 0.000000 
0.000000 -0.000000 0.000000 
0.000000 0.000000 0.000000 

0.000000 0.000000 0.000000 
0.000000 0.000000 0.000000 
0.000000 0.000000 0.000000 

-0.000000 0.000000 0.000000 
0.000000 -0.000000 0.000000 
0.000000 0.000000 0.000000 

-0.000000 0.000000 0.000000 
0.000000 -0.000000 0.000000 
0.000000 0.000000 0.000000 

-0.000000 0.000000 0.000000 
0.000000 -0.000000 0.000000 
0.000000 0.000000 0.000000 

-0.000000 0.000000 0.000000 
0.000000 -0.000000 0.000000 
0.000000 0.000000 0.000000 

-0.000000 0.000000 0.000000 
0.000000 -0.000000 0.000000 
0.000000 0.000000 0.000000 

0.000000 -0.000000 0.000000 
0.000000 0.000000 0.000000 
0.000000 0.000000 0.000000 

0.000000 -0.000000 0.000000 
0.000000 0.000000 0.000000 
0.000000 0.000000 0.000000 

-0.000000 0.000000 0.000000 
0.000000 -0.000000 0.000000 
0.000000 0.000000 0.000000 

-0.000000 0.000000 0.000000 
0.000000 -0.000000 0.000000 
0.000000 0.000000 0.000000 

0.000000 0.000000 0.000000 
0.000000 -0.000000 0.000000 
0.000000 0.000000 0.000000 

-0.000000 0.000000 0.000000 
0.000000 -0.000000 0.000000 
0.000000 0.000000 0.000000 

0.000000 -0.000000 0.000000 
0.000000 0.000000 0.000000 
0.000000 0.000000 0.000000 

0.000000 0.000000 0.000000 
0.000000 0.000000 0.000000 
0.000000 0.000000 0.000000 

-0.000000 -0.000000 0.000000 
0.000000 -0.000000 0.000000 
0.000000 0.000000 0.000000 

0.000000 -0.000000 0.000000 
0.000000 0.000000 0.000000 
0.000000 0.000000 0.000000 

0.000000 -0.000000 0.000000 
0.000000 0.000000 0.000000 
0.000000 0.000000 0.000000 

-0.000000 -0.000000 0.000000 
0.000000 -0.000000 0.000000 
0.000000 0.000000 0.000000 

0.000000 -0.000000 0.000000 
0.000000 -0.000000 0.000000 
0.000000 0.000000 0.000000 

-0.000000 0.000000 0.000000 
0.000000 -0.000000 0.000000 
0.000000 0.000000 0.000000 

-0.000000 0.000000 0.000000 
0.000000 -0.000000 0.000000 
0.000000 0.000000 0.000000 

0.000000 0.000000 0.000000 
0.000000 0.000000 0.000000 
0.000000 0.000000 0.000000 

0.000000 0.000000 0.000000 
0.000000 0.000000 0.000000 
0.000000 0.000000 0.000000 

0.000000 0.000000 0.000000 
0.000000 0.000000 0.000000 
0.000000 0.000000 0.000000 

0.000000 -0.000000 0.000000 
0.000000 0.000000 0.000000 
0.000000 0.000000 0.000000 

0.000000 0.000000 0.000000 
0.000000 0.000000 0.000000 
0.000000 0.000000 0.000000 

0.000000 0.000000 0.000000 
0.000000 0.000000 0.000000 
0.000000 0.000000 0.000000 

0.000000 0.000000 0.000000 
0.000000 0.000000 0.000000 
0.000000 0.000000 0.000000 

0.000000 0.000000 0.000000 
0.000000 0.000000 0.000000 
0.000000 0.000000 0.000000 

0.000000 0.000000 0.000000 
0.000000 0.000000 0.000000 
0.000000 0.000000 0.000000 

-0.000000 -0.000000 0.000000 
0.000000 -0.000000 0.000000 
0.000000 0.000000 0.000000 

-0.000000 0.000000 0.000000 
0.000000 -0.000000 0.000000 
0.000000 0.000000 0.000000 

-0.000000 0.000000 0.000000 
0.000000 -0.000000 0.000000 
0.000000 0.000000 0.000000 

-0.000000 -0.000000 0.000000 
0.000000 -0.000000 0.000000 
0.000000 0.000000 0.000000 

0.000000 -0.000000 0.000000 
0.000000 0.000000 0.000000 
0.000000 0.000000 0.000000 

0.000000 -0.000000 0.000000 
0.000000 0.000000 0.000000 
0.000000 0.000000 0.000000 

0.000000 0.000000 0.000000 
0.000000 0.000000 0.000000 
0.000000 0.000000 0.000000 

0.000000 0.000000 0.000000 
0.000000 0.000000 0.000000 
0.000000 0.000000 0.000000 

0.000000 0.000000 0.000000 
0.000000 0.000000 0.000000 
0.000000 0.000000 0.000000 

0.000000 0.000000 0.000000 
0.000000 0.000000 0.000000 
0.000000 0.000000 0.000000 

0.000000 0.000000 0.000000 
0.000000 0.000000 0.000000 
0.000000 0.000000 0.000000 

0.000000 0.000000 0.000000 
0.000000 -0.000000 0.000000 
0.000000 0.000000 0.000000 

0.000000 0.000000 0.000000 
0.000000 0.000000 0.000000 
0.000000 0.000000 0.000000 

0.000000 0.000000 0.000000 
0.000000 0.000000 0.000000 
0.000000 0.000000 0.000000 

0.000000 0.000000 0.000000 
0.000000 -0.000000 0.000000 
0.000000 0.000000 0.000000 

0.000000 -0.000000 0.000000 
0.000000 0.000000 0.000000 
0.000000 0.000000 0.000000 

0.000000 -0.000000 0.000000 
0.000000 0.000000 0.000000 
0.000000 0.000000 0.000000 

0.000000 -0.000000 0.000000 
0.000000 0.000000 0.000000 
0.000000 0.000000 0.000000 

0.000000 -0.000000 0.000000 
0.000000 0.000000 0.000000 
0.000000 0.000000 0.000000 

-0.000000 -0.000000 0.000000 
0.000000 -0.000000 0.000000 
0.000000 0.000000 0.000000 

0.000000 -0.000000 0.000000 
0.000000 0.000000 0.000000 
0.000000 0.000000 0.000000 

-0.000000 -0.000000 0.000000 
0.000000 -0.000000 0.000000 
0.000000 0.000000 0.000000 

-0.000000 -0.000000 0.000000 
0.000000 -0.000000 0.000000 
0.000000 0.000000 0.000000 

-0.000000 -0.000000 0.000000 
0.000000 -0.000000 0.000000 
0.000000 0.000000 0.000000 

-0.000000 -0.000000 0.000000 
0.000000 -0.000000 0.000000 
0.000000 0.000000 0.000000 

0.000000 0.000000 0.000000 
0.000000 -0.000000 0.000000 
0.000000 0.000000 0.000000 

-0.000000 0.000000 0.000000 
0.000000 -0.000000 0.000000 
0.000000 0.000000 0.000000 

0.000000 0.000000 0.000000 
0.000000 -0.000000 0.000000 
0.000000 0.000000 0.000000 

0.000000 0.000000 0.000000 
0.000000 0.000000 0.000000 
0.000000 0.000000 0.000000 

-0.000000 0.000000 0.000000 
0.000000 -0.000000 0.000000 
0.000000 0.000000 0.000000 

-0.000000 -0.000000 0.000000 
0.000000 -0.000000 0.000000 
0.000000 0.000000 0.000000 

-0.000000 0.000000 0.000000 
0.000000 -0.000000 0.000000 
0.000000 0.000000 0.000000 

-0.000000 0.000000 0.000000 
0.000000 -0.000000 0.000000 
0.000000 0.000000 0.000000 

-0.000000 0.000000 0.000000 
0.000000 -0.000000 0.000000 
0.000000 0.000000 0.000000 

-0.000000 0.000000 0.000000 
0.000000 -0.000000 0.000000 
0.000000 0.000000 0.000000 

0.000000 -0.000000 0.000000 
0.000000 0.000000 0.000000 
0.000000 0.000000 0.000000 

-0.000000 0.000000 0.000000 
0.000000 -0.000000 0.000000 
0.000000 0.000000 0.000000 

-0.000000 0.000000 0.000000 
0.000000 -0.000000 0.000000 
0.000000 0.000000 0.000000 

-0.000000 -0.000000 0.000000 
0.000000 -0.000000 0.000000 
0.000000 0.000000 0.000000 

0.000000 -0.000000 0.000000 
0.000000 0.000000 0.000000 
0.000000 0.000000 0.000000 

-0.000000 0.000000 0.000000 
0.000000 -0.000000 0.000000 
0.000000 0.000000 0.000000 

0.000000 -0.000000 0.000000 
0.000000 0.000000 0.000000 
0.000000 0.000000 0.000000 

0.000000 0.000000 0.000000 
0.000000 0.000000 0.000000 
0.000000 0.000000 0.000000 

0.000000 -0.000000 0.000000 
0.000000 0.000000 0.000000 
0.000000 0.000000 0.000000 

0.000000 0.000000 0.000000 
0.000000 0.000000 0.000000 
0.000000 0.000000 0.000000 

-0.000000 -0.000000 0.000000 
0.000000 -0.000000 0.000000 
0.000000 0.000000 0.000000 

-0.000000 0.000000 0.000000 
0.000000 -0.000000 0.000000 
0.000000 0.000000 0.000000 

0.000000 0.000000 0.000000 
0.000000 -0.000000 0.000000 
0.000000 0.000000 0.000000 

-0.000000 -0.000000 0.000000 
0.000000 0.000000 0.000000 
0.000000 0.000000 0.000000 

-0.000000 -0.000000 0.000000 
0.000000 -0.000000 0.000000 
0.000000 0.000000 0.000000 

-0.000000 -0.000000 0.000000 
0.000000 -0.000000 0.000000 
0.000000 0.000000 0.000000 

-0.000000 -0.000000 0.000000 
0.000000 -0.000000 0.000000 
0.000000 0.000000 0.000000 

-0.000000 -0.000000 0.000000 
0.000000 -0.000000 0.000000 
0.000000 0.000000 0.000000 

0.000000 0.000000 0.000000 
0.000000 -0.000000 0.000000 
0.000000 0.000000 0.000000 

0.000000 0.000000 0.000000 
0.000000 0.000000 0.000000 
0.000000 0.000000 0.000000 

0.000000 -0.000000 0.000000 
0.000000 0.000000 0.000000 
0.000000 0.000000 0.000000 

0.000000 -0.000000 0.000000 
0.000000 0.000000 0.000000 
0.000000 0.000000 0.000000 

-0.000000 0.000000 0.000000 
0.000000 -0.000000 0.000000 
0.000000 0.000000 0.000000 

-0.000000 0.000000 0.000000 
0.000000 -0.000000 0.000000 
0.000000 0.000000 0.000000 

-0.000000 0.000000 0.000000 
0.000000 -0.000000 0.000000 
0.000000 0.000000 0.000000 

-0.000000 -0.000000 0.000000 
0.000000 -0.000000 0.000000 
0.000000 0.000000 0.000000 

-0.000000 -0.000000 0.000000 
0.000000 -0.000000 0.000000 
0.000000 0.000000 0.000000 

-0.000000 0.000000 0.000000 
0.000000 -0.000000 0.000000 
0.000000 0.000000 0.000000 

-0.000000 -0.000000 0.000000 
0.000000 -0.000000 0.000000 
0.000000 0.000000 0.000000 

0.000000 -0.000000 0.000000 
0.000000 0.000000 0.000000 
0.000000 0.000000 0.000000 

-0.000000 0.000000 0.000000 
0.000000 -0.000000 0.000000 
0.000000 0.000000 0.000000 

0.000000 0.000000 0.000000 
0.000000 0.000000 0.000000 
0.000000 0.000000 0.000000 

0.000000 0.000000 0.000000 
0.000000 0.000000 0.000000 
0.000000 0.000000 0.000000 

0.000000 0.000000 0.000000 
0.000000 0.000000 0.000000 
0.000000 0.000000 0.000000 

-0.000000 -0.000000 0.000000 
0.000000 -0.000000 0.000000 
0.000000 0.000000 0.000000 

-0.000000 0.000000 0.000000 
0.000000 -0.000000 0.000000 
0.000000 0.000000 0.000000 

-0.000000 0.000000 0.000000 
0.000000 -0.000000 0.000000 
0.000000 0.000000 0.000000 

-0.000000 0.000000 0.000000 
0.000000 -0.000000 0.000000 
0.000000 0.000000 0.000000 

0.000000 0.000000 0.000000 
0.000000 0.000000 0.000000 
0.000000 0.000000 0.000000 

-0.000000 0.000000 0.000000 
0.000000 -0.000000 0.000000 
0.000000 0.000000 0.000000 

-0.000000 0.000000 0.000000 
0.000000 -0.000000 0.000000 
0.000000 0.000000 0.000000 

-0.000000 0.000000 0.000000 
0.000000 -0.000000 0.000000 
0.000000 0.000000 0.000000 

-0.000000 0.000000 0.000000 
0.000000 -0.000000 0.000000 
0.000000 0.000000 0.000000 

-0.000000 -0.000000 0.000000 
0.000000 -0.000000 0.000000 
0.000000 0.000000 0.000000 

-0.000000 0.000000 0.000000 
0.000000 -0.000000 0.000000 
0.000000 0.000000 0.000000 

0.000000 0.000000 0.000000 
0.000000 0.000000 0.000000 
0.000000 0.000000 0.000000 

0.000000 -0.000000 0.000000 
0.000000 0.000000 0.000000 
0.000000 0.000000 0.000000 

0.000000 -0.000000 0.000000 
0.000000 0.000000 0.000000 
0.000000 0.000000 0.000000 

0.000000 -0.000000 0.000000 
0.000000 0.000000 0.000000 
0.000000 0.000000 0.000000 

0.000000 0.000000 0.000000 
0.000000 0.000000 0.000000 
0.000000 0.000000 0.000000 

-0.000000 -0.000000 0.000000 
0.000000 -0.000000 0.000000 
0.000000 0.000000 0.000000 

-0.000000 0.000000 0.000000 
0.000000 0.000000 0.000000 
0.000000 0.000000 0.000000 

0.000000 -0.000000 0.000000 
0.000000 0.000000 0.000000 
0.000000 0.000000 0.000000 

0.000000 0.000000 0.000000 
0.000000 0.000000 0.000000 
0.000000 0.000000 0.000000 

-0.000000 -0.000000 0.000000 
0.000000 -0.000000 0.000000 
0.000000 0.000000 0.000000 

0.000000 -0.000000 0.000000 
0.000000 0.000000 0.000000 
0.000000 0.000000 0.000000 

0.000000 0.000000 0.000000 
0.000000 0.000000 0.000000 
0.000000 0.000000 0.000000 

0.000000 0.000000 0.000000 
0.000000 0.000000 0.000000 
0.000000 0.000000 0.000000 

0.000000 0.000000 0.000000 
0.000000 0.000000 0.000000 
0.000000 0.000000 0.000000 

0.000000 0.000000 0.000000 
0.000000 0.000000 0.000000 
0.000000 0.000000 0.000000 

-0.000000 0.000000 0.000000 
0.000000 -0.000000 0.000000 
0.000000 0.000000 0.000000 

0.000000 0.000000 0.000000 
0.000000 0.000000 0.000000 
0.000000 0.000000 0.000000 

0.000000 0.000000 0.000000 
0.000000 0.000000 0.000000 
0.000000 0.000000 0.000000 

0.000000 0.000000 0.000000 
0.000000 0.000000 0.000000 
0.000000 0.000000 0.000000 

-0.000000 0.000000 0.000000 
0.000000 -0.000000 0.000000 
0.000000 0.000000 0.000000 

0.000000 -0.000000 0.000000 
0.000000 0.000000 0.000000 
0.000000 0.000000 0.000000 

-0.000000 -0.000000 0.000000 
0.000000 -0.000000 0.000000 
0.000000 0.000000 0.000000 

-0.000000 -0.000000 0.000000 
0.000000 -0.000000 0.000000 
0.000000 0.000000 0.000000 

-0.000000 0.000000 0.000000 
0.000000 -0.000000 0.000000 
0.000000 0.000000 0.000000 

0.000000 -0.000000 0.000000 
0.000000 0.000000 0.000000 
0.000000 0.000000 0.000000 

-0.000000 -0.000000 0.000000 
0.000000 -0.000000 0.000000 
0.000000 0.000000 0.000000 

0.000000 0.000000 0.000000 
0.000000 0.000000 0.000000 
0.000000 0.000000 0.000000 

0.000000 0.000000 0.000000 
0.000000 0.000000 0.000000 
0.000000 0.000000 0.000000 

0.000000 0.000000 0.000000 
0.000000 0.000000 0.000000 
0.000000 0.000000 0.000000 

0.000000 0.000000 0.000000 
0.000000 0.000000 0.000000 
0.000000 0.000000 0.000000 

0.000000 0.000000 0.000000 
0.000000 0.000000 0.000000 
0.000000 0.000000 0.000000 

0.000000 -0.000000 0.000000 
0.000000 0.000000 0.000000 
0.000000 0.000000 0.000000 

0.000000 -0.000000 0.000000 
0.000000 0.000000 0.000000 
0.000000 0.000000 0.000000 

0.000000 0.000000 0.000000 
0.000000 0.000000 0.000000 
0.000000 0.000000 0.000000 

0.000000 0.000000 0.000000 
0.000000 0.000000 0.000000 
0.000000 0.000000 0.000000 

0.000000 0.000000 0.000000 
0.000000 0.000000 0.000000 
0.000000 0.000000 0.000000 

0.000000 0.000000 0.000000 
0.000000 0.000000 0.000000 
0.000000 0.000000 0.000000 

-0.000000 -0.000000 0.000000 
0.000000 -0.000000 0.000000 
0.000000 0.000000 0.000000 

-0.000000 -0.000000 0.000000 
0.000000 -0.000000 0.000000 
0.000000 0.000000 0.000000 

-0.000000 -0.000000 0.000000 
0.000000 -0.000000 0.000000 
0.000000 0.000000 0.000000 

0.000000 -0.000000 0.000000 
0.000000 0.000000 0.000000 
0.000000 0.000000 0.000000 

-0.000000 -0.000000 0.000000 
0.000000 0.000000 0.000000 
0.000000 0.000000 0.000000 

0.000000 -0.000000 0.000000 
0.000000 0.000000 0.000000 
0.000000 0.000000 0.000000 

-0.000000 -0.000000 0.000000 
0.000000 -0.000000 0.000000 
0.000000 0.000000 0.000000 

-0.000000 -0.000000 0.000000 
0.000000 -0.000000 0.000000 
0.000000 0.000000 0.000000 

-0.000000 0.000000 0.000000 
0.000000 -0.000000 0.000000 
0.000000 0.000000 0.000000 

-0.000000 -0.000000 0.000000 
0.000000 -0.000000 0.000000 
0.000000 0.000000 0.000000 

-0.000000 0.000000 0.000000 
0.000000 -0.000000 0.000000 
0.000000 0.000000 0.000000 

0.000000 0.000000 0.000000 
0.000000 0.000000 0.000000 
0.000000 0.000000 0.000000 

-0.000000 0.000000 0.000000 
0.000000 -0.000000 0.000000 
0.000000 0.000000 0.000000 

0.000000 0.000000 0.000000 
0.000000 0.000000 0.000000 
0.000000 0.000000 0.000000 

-0.000000 -0.000000 0.000000 
0.000000 -0.000000 0.000000 
0.000000 0.000000 0.000000 

0.000000 -0.000000 0.000000 
0.000000 0.000000 0.000000 
0.000000 0.000000 0.000000 

-0.000000 -0.000000 0.000000 
0.000000 0.000000 0.000000 
0.000000 0.000000 0.000000 

0.000000 -0.000000 0.000000 
0.000000 0.000000 0.000000 
0.000000 0.000000 0.000000 

0.000000 0.000000 0.000000 
0.000000 0.000000 0.000000 
0.000000 0.000000 0.000000 

-0.000000 0.000000 0.000000 
0.000000 -0.000000 0.000000 
0.000000 0.000000 0.000000 

-0.000000 0.000000 0.000000 
0.000000 -0.000000 0.000000 
0.000000 0.000000 0.000000 

0.000000 0.000000 0.000000 
0.000000 0.000000 0.000000 
0.000000 0.000000 0.000000 

-0.000000 0.000000 0.000000 
0.000000 -0.000000 0.000000 
0.000000 0.000000 0.000000 

0.000000 0.000000 0.000000 
0.000000 0.000000 0.000000 
0.000000 0.000000 0.000000 

-0.000000 0.000000 0.000000 
0.000000 -0.000000 0.000000 
0.000000 0.000000 0.000000 

0.000000 -0.000000 0.000000 
0.000000 0.000000 0.000000 
0.000000 0.000000 0.000000 

0.000000 -0.000000 0.000000 
0.000000 0.000000 0.000000 
0.000000 0.000000 0.000000 

0.000000 0.000000 0.000000 
0.000000 0.000000 0.000000 
0.000000 0.000000 0.000000 

0.000000 0.000000 0.000000 
0.000000 0.000000 0.000000 
0.000000 0.000000 0.000000 

0.000000 0.000000 0.000000 
0.000000 0.000000 0.000000 
0.000000 0.000000 0.000000 

0.000000 0.000000 0.000000 
0.000000 0.000000 0.000000 
0.000000 0.000000 0.000000 

0.000000 0.000000 0.000000 
0.000000 0.000000 0.000000 
0.000000 0.000000 0.000000 

0.000000 0.000000 0.000000 
0.000000 0.000000 0.000000 
0.000000 0.000000 0.000000 

0.000000 0.000000 0.000000 
0.000000 0.000000 0.000000 
0.000000 0.000000 0.000000 

0.000000 0.000000 0.000000 
0.000000 0.000000 0.000000 
0.000000 0.000000 0.000000 

0.000000 0.000000 0.000000 
0.000000 0.000000 0.000000 
0.000000 0.000000 0.000000 

-0.000000 -0.000000 0.000000 
0.000000 -0.000000 0.000000 
0.000000 0.000000 0.000000 

-0.000000 -0.000000 0.000000 
0.000000 -0.000000 0.000000 
0.000000 0.000000 0.000000 

-0.000000 -0.000000 0.000000 
0.000000 -0.000000 0.000000 
0.000000 0.000000 0.000000 

0.000000 -0.000000 0.000000 
0.000000 0.000000 0.000000 
0.000000 0.000000 0.000000 

-0.000000 -0.000000 0.000000 
0.000000 -0.000000 0.000000 
0.000000 0.000000 0.000000 

-0.000000 -0.000000 0.000000 
0.000000 -0.000000 0.000000 
0.000000 0.000000 0.000000 

-0.000000 -0.000000 0.000000 
0.000000 -0.000000 0.000000 
0.000000 0.000000 0.000000 

-0.000000 0.000000 0.000000 
0.000000 -0.000000 0.000000 
0.000000 0.000000 0.000000 

0.000000 0.000000 0.000000 
0.000000 0.000000 0.000000 
0.000000 0.000000 0.000000 

0.000000 -0.000000 0.000000 
0.000000 0.000000 0.000000 
0.000000 0.000000 0.000000 

0.000000 0.000000 0.000000 
0.000000 0.000000 0.000000 
0.000000 0.000000 0.000000 

0.000000 0.000000 0.000000 
0.000000 0.000000 0.000000 
0.000000 0.000000 0.000000 

0.000000 0.000000 0.000000 
0.000000 0.000000 0.000000 
0.000000 0.000000 0.000000 

0.000000 0.000000 0.000000 
0.000000 0.000000 0.000000 
0.000000 0.000000 0.000000 

0.000000 0.000000 0.000000 
0.000000 0.000000 0.000000 
0.000000 0.000000 0.000000 

0.000000 -0.000000 0.000000 
0.000000 0.000000 0.000000 
0.000000 0.000000 0.000000 

-0.000000 0.000000 0.000000 
0.000000 -0.000000 0.000000 
0.000000 0.000000 0.000000 

0.000000 0.000000 0.000000 
0.000000 0.000000 0.000000 
0.000000 0.000000 0.000000 

-0.000000 -0.000000 0.000000 
0.000000 -0.000000 0.000000 
0.000000 0.000000 0.000000 

-0.000000 -0.000000 0.000000 
0.000000 -0.000000 0.000000 
0.000000 0.000000 0.000000 

-0.000000 -0.000000 0.000000 
0.000000 -0.000000 0.000000 
0.000000 0.000000 0.000000 

-0.000000 -0.000000 0.000000 
0.000000 -0.000000 0.000000 
0.000000 0.000000 0.000000 

-0.000000 0.000000 0.000000 
0.000000 -0.000000 0.000000 
0.000000 0.000000 0.000000 

-0.000000 0.000000 0.000000 
0.000000 -0.000000 0.000000 
0.000000 0.000000 0.000000 

0.000000 0.000000 0.000000 
0.000000 0.000000 0.000000 
0.000000 0.000000 0.000000 

0.000000 0.000000 0.000000 
0.000000 0.000000 0.000000 
0.000000 0.000000 0.000000 

-0.000000 0.000000 0.000000 
0.000000 -0.000000 0.000000 
0.000000 0.000000 0.000000 

0.000000 0.000000 0.000000 
0.000000 -0.000000 0.000000 
0.000000 0.000000 0.000000 

-0.000000 0.000000 0.000000 
0.000000 -0.000000 0.000000 
0.000000 0.000000 0.000000 

0.000000 0.000000 0.000000 
0.000000 0.000000 0.000000 
0.000000 0.000000 0.000000 

-0.000000 0.000000 0.000000 
0.000000 -0.000000 0.000000 
0.000000 0.000000 0.000000 

-0.000000 0.000000 0.000000 
0.000000 -0.000000 0.000000 
0.000000 0.000000 0.000000 

0.000000 -0.000000 0.000000 
0.000000 0.000000 0.000000 
0.000000 0.000000 0.000000 

0.000000 -0.000000 0.000000 
0.000000 0.000000 0.000000 
0.000000 0.000000 0.000000 

-0.000000 0.000000 0.000000 
0.000000 -0.000000 0.000000 
0.000000 0.000000 0.000000 

0.000000 -0.000000 0.000000 
0.000000 0.000000 0.000000 
0.000000 0.000000 0.000000 

0.000000 -0.000000 0.000000 
0.000000 0.000000 0.000000 
0.000000 0.000000 0.000000 

0.000000 0.000000 0.000000 
0.000000 0.000000 0.000000 
0.000000 0.000000 0.000000 

0.000000 0.000000 0.000000 
0.000000 0.000000 0.000000 
0.000000 0.000000 0.000000 

0.000000 0.000000 0.000000 
0.000000 0.000000 0.000000 
0.000000 0.000000 0.000000 

0.000000 0.000000 0.000000 
0.000000 0.000000 0.000000 
0.000000 0.000000 0.000000 

0.000000 0.000000 0.000000 
0.000000 0.000000 0.000000 
0.000000 0.000000 0.000000 

0.000000 0.000000 0.000000 
0.000000 0.000000 0.000000 
0.000000 0.000000 0.000000 

-0.000000 -0.000000 0.000000 
0.000000 -0.000000 0.000000 
0.000000 0.000000 0.000000 

0.000000 0.000000 0.000000 
0.000000 0.000000 0.000000 
0.000000 0.000000 0.000000 

-0.000000 0.000000 0.000000 
0.000000 -0.000000 0.000000 
0.000000 0.000000 0.000000 

-0.000000 0.000000 0.000000 
0.000000 -0.000000 0.000000 
0.000000 0.000000 0.000000 

0.000000 0.000000 0.000000 
0.000000 0.000000 0.000000 
0.000000 0.000000 0.000000 

0.000000 -0.000000 0.000000 
0.000000 0.000000 0.000000 
0.000000 0.000000 0.000000 

0.000000 0.000000 0.000000 
0.000000 0.000000 0.000000 
0.000000 0.000000 0.000000 

0.000000 0.000000 0.000000 
0.000000 0.000000 0.000000 
0.000000 0.000000 0.000000 

0.000000 -0.000000 0.000000 
0.000000 0.000000 0.000000 
0.000000 0.000000 0.000000 

-0.000000 -0.000000 0.000000 
0.000000 -0.000000 0.000000 
0.000000 0.000000 0.000000 

-0.000000 -0.000000 0.000000 
0.000000 -0.000000 0.000000 
0.000000 0.000000 0.000000 

-0.000000 -0.000000 0.000000 
0.000000 -0.000000 0.000000 
0.000000 0.000000 0.000000 

0.000000 0.000000 0.000000 
0.000000 0.000000 0.000000 
0.000000 0.000000 0.000000 

-0.000000 -0.000000 0.000000 
0.000000 -0.000000 0.000000 
0.000000 0.000000 0.000000 

-0.000000 -0.000000 0.000000 
0.000000 -0.000000 0.000000 
0.000000 0.000000 0.000000 

0.000000 0.000000 0.000000 
0.000000 0.000000 0.000000 
0.000000 0.000000 0.000000 

-0.000000 0.000000 0.000000 
0.000000 -0.000000 0.000000 
0.000000 0.000000 0.000000 

0.000000 0.000000 0.000000 
0.000000 -0.000000 0.000000 
0.000000 0.000000 0.000000 

-0.000000 -0.000000 0.000000 
0.000000 -0.000000 0.000000 
0.000000 0.000000 0.000000 

-0.000000 -0.000000 0.000000 
0.000000 -0.000000 0.000000 
0.000000 0.000000 0.000000 

-0.000000 0.000000 0.000000 
0.000000 -0.000000 0.000000 
0.000000 0.000000 0.000000 

-0.000000 0.000000 0.000000 
0.000000 -0.000000 0.000000 
0.000000 0.000000 0.000000 

-0.000000 0.000000 0.000000 
0.000000 -0.000000 0.000000 
0.000000 0.000000 0.000000 

0.000000 -0.000000 0.000000 
0.000000 0.000000 0.000000 
0.000000 0.000000 0.000000 

-0.000000 0.000000 0.000000 
0.000000 -0.000000 0.000000 
0.000000 0.000000 0.000000 

-0.000000 0.000000 0.000000 
0.000000 -0.000000 0.000000 
0.000000 0.000000 0.000000 

-0.000000 0.000000 0.000000 
0.000000 -0.000000 0.000000 
0.000000 0.000000 0.000000 

-0.000000 0.000000 0.000000 
0.000000 -0.000000 0.000000 
0.000000 0.000000 0.000000 

-0.000000 0.000000 0.000000 
0.000000 -0.000000 0.000000 
0.000000 0.000000 0.000000 

-0.000000 0.000000 0.000000 
0.000000 -0.000000 0.000000 
0.000000 0.000000 0.000000 

-0.000000 0.000000 0.000000 
0.000000 -0.000000 0.000000 
0.000000 0.000000 0.000000 

-0.000000 0.000000 0.000000 
0.000000 -0.000000 0.000000 
0.000000 0.000000 0.000000 

-0.000000 0.000000 0.000000 
0.000000 -0.000000 0.000000 
0.000000 0.000000 0.000000 

-0.000000 0.000000 0.000000 
0.000000 -0.000000 0.000000 
0.000000 0.000000 0.000000 

0.000000 0.000000 0.000000 
0.000000 0.000000 0.000000 
0.000000 0.000000 0.000000 

0.000000 0.000000 0.000000 
0.000000 0.000000 0.000000 
0.000000 0.000000 0.000000 

0.000000 0.000000 0.000000 
0.000000 0.000000 0.000000 
0.000000 0.000000 0.000000 

0.000000 0.000000 0.000000 
0.000000 0.000000 0.000000 
0.000000 0.000000 0.000000 

0.000000 0.000000 0.000000 
0.000000 0.000000 0.000000 
0.000000 0.000000 0.000000 

0.000000 -0.000000 0.000000 
0.000000 0.000000 0.000000 
0.000000 0.000000 0.000000 

-0.000000 -0.000000 0.000000 
0.000000 -0.000000 0.000000 
0.000000 0.000000 0.000000 

-0.000000 0.000000 0.000000 
0.000000 -0.000000 0.000000 
0.000000 0.000000 0.000000 

-0.000000 -0.000000 0.000000 
0.000000 -0.000000 0.000000 
0.000000 0.000000 0.000000 

0.000000 -0.000000 0.000000 
0.000000 0.000000 0.000000 
0.000000 0.000000 0.000000 

0.000000 -0.000000 0.000000 
0.000000 0.000000 0.000000 
0.000000 0.000000 0.000000 

-0.000000 -0.000000 0.000000 
0.000000 -0.000000 0.000000 
0.000000 0.000000 0.000000 

0.000000 -0.000000 0.000000 
0.000000 0.000000 0.000000 
0.000000 0.000000 0.000000 

0.000000 0.000000 0.000000 
0.000000 0.000000 0.000000 
0.000000 0.000000 0.000000 

-0.000000 0.000000 0.000000 
0.000000 -0.000000 0.000000 
0.000000 0.000000 0.000000 

-0.000000 0.000000 0.000000 
0.000000 -0.000000 0.000000 
0.000000 0.000000 0.000000 

-0.000000 -0.000000 0.000000 
0.000000 -0.000000 0.000000 
0.000000 0.000000 0.000000 

-0.000000 -0.000000 0.000000 
0.000000 -0.000000 0.000000 
0.000000 0.000000 0.000000 

0.000000 -0.000000 0.000000 
0.000000 0.000000 0.000000 
0.000000 0.000000 0.000000 

-0.000000 0.000000 0.000000 
0.000000 -0.000000 0.000000 
0.000000 0.000000 0.000000 

0.000000 -0.000000 0.000000 
0.000000 0.000000 0.000000 
0.000000 0.000000 0.000000 

0.000000 -0.000000 0.000000 
0.000000 0.000000 0.000000 
0.000000 0.000000 0.000000 

0.000000 -0.000000 0.000000 
0.000000 0.000000 0.000000 
0.000000 0.000000 0.000000 

-0.000000 -0.000000 0.000000 
0.000000 -0.000000 0.000000 
0.000000 0.000000 0.000000 

0.000000 0.000000 0.000000 
0.000000 0.000000 0.000000 
0.000000 0.000000 0.000000 

0.000000 0.000000 0.000000 
0.000000 0.000000 0.000000 
0.000000 0.000000 0.000000 

0.000000 0.000000 0.000000 
0.000000 0.000000 0.000000 
0.000000 0.000000 0.000000 

0.000000 0.000000 0.000000 
0.000000 0.000000 0.000000 
0.000000 0.000000 0.000000 

0.000000 0.000000 0.000000 
0.000000 0.000000 0.000000 
0.000000 0.000000 0.000000 

0.000000 0.000000 0.000000 
0.000000 0.000000 0.000000 
0.000000 0.000000 0.000000 

-0.000000 0.000000 0.000000 
0.000000 -0.000000 0.000000 
0.000000 0.000000 0.000000 

0.000000 -0.000000 0.000000 
0.000000 0.000000 0.000000 
0.000000 0.000000 0.000000 

0.000000 -0.000000 0.000000 
0.000000 0.000000 0.000000 
0.000000 0.000000 0.000000 

0.000000 0.000000 0.000000 
0.000000 0.000000 0.000000 
0.000000 0.000000 0.000000 

-0.000000 0.000000 0.000000 
0.000000 -0.000000 0.000000 
0.000000 0.000000 0.000000 

0.000000 0.000000 0.000000 
0.000000 0.000000 0.000000 
0.000000 0.000000 0.000000 

-0.000000 0.000000 0.000000 
0.000000 -0.000000 0.000000 
0.000000 0.000000 0.000000 

-0.000000 0.000000 0.000000 
0.000000 -0.000000 0.000000 
0.000000 0.000000 0.000000 

-0.000000 0.000000 0.000000 
0.000000 -0.000000 0.000000 
0.000000 0.000000 0.000000 

0.000000 0.000000 0.000000 
0.000000 0.000000 0.000000 
0.000000 0.000000 0.000000 

-0.000000 -0.000000 0.000000 
0.000000 -0.000000 0.000000 
0.000000 0.000000 0.000000 

-0.000000 0.000000 0.000000 
0.000000 -0.000000 0.000000 
0.000000 0.000000 0.000000 

-0.000000 0.000000 0.000000 
0.000000 -0.000000 0.000000 
0.000000 0.000000 0.000000 

-0.000000 0.000000 0.000000 
0.000000 -0.000000 0.000000 
0.000000 0.000000 0.000000 

-0.000000 -0.000000 0.000000 
0.000000 -0.000000 0.000000 
0.000000 0.000000 0.000000 

0.000000 -0.000000 0.000000 
0.000000 0.000000 0.000000 
0.000000 0.000000 0.000000 

0.000000 -0.000000 0.000000 
0.000000 0.000000 0.000000 
0.000000 0.000000 0.000000 

-0.000000 0.000000 0.000000 
0.000000 -0.000000 0.000000 
0.000000 0.000000 0.000000 

-0.000000 0.000000 0.000000 
0.000000 -0.000000 0.000000 
0.000000 0.000000 0.000000 

-0.000000 -0.000000 0.000000 
0.000000 -0.000000 0.000000 
0.000000 0.000000 0.000000 

-0.000000 0.000000 0.000000 
0.000000 -0.000000 0.000000 
0.000000 0.000000 0.000000 

-0.000000 0.000000 0.000000 
0.000000 -0.000000 0.000000 
0.000000 0.000000 0.000000 

-0.000000 0.000000 0.000000 
0.000000 -0.000000 0.000000 
0.000000 0.000000 0.000000 

0.000000 0.000000 0.000000 
0.000000 0.000000 0.000000 
0.000000 0.000000 0.000000 

-0.000000 0.000000 0.000000 
0.000000 -0.000000 0.000000 
0.000000 0.000000 0.000000 

0.000000 0.000000 0.000000 
0.000000 0.000000 0.000000 
0.000000 0.000000 0.000000 

0.000000 0.000000 0.000000 
0.000000 0.000000 0.000000 
0.000000 0.000000 0.000000 

-0.000000 0.000000 0.000000 
0.000000 -0.000000 0.000000 
0.000000 0.000000 0.000000 

0.000000 0.000000 0.000000 
0.000000 0.000000 0.000000 
0.000000 0.000000 0.000000 

-0.000000 0.000000 0.000000 
0.000000 -0.000000 0.000000 
0.000000 0.000000 0.000000 

0.000000 0.000000 0.000000 
0.000000 0.000000 0.000000 
0.000000 0.000000 0.000000 

0.000000 -0.000000 0.000000 
0.000000 0.000000 0.000000 
0.000000 0.000000 0.000000 

0.000000 0.000000 0.000000 
0.000000 0.000000 0.000000 
0.000000 0.000000 0.000000 

0.000000 0.000000 0.000000 
0.000000 0.000000 0.000000 
0.000000 0.000000 0.000000 

0.000000 -0.000000 0.000000 
0.000000 0.000000 0.000000 
0.000000 0.000000 0.000000 

-0.000000 0.000000 0.000000 
0.000000 -0.000000 0.000000 
0.000000 0.000000 0.000000 

0.000000 0.000000 0.000000 
0.000000 0.000000 0.000000 
0.000000 0.000000 0.000000 

-0.000000 0.000000 0.000000 
0.000000 -0.000000 0.000000 
0.000000 0.000000 0.000000 

-0.000000 -0.000000 0.000000 
0.000000 -0.000000 0.000000 
0.000000 0.000000 0.000000 

0.000000 0.000000 0.000000 
0.000000 0.000000 0.000000 
0.000000 0.000000 0.000000 

-0.000000 0.000000 0.000000 
0.000000 -0.000000 0.000000 
0.000000 0.000000 0.000000 

0.000000 -0.000000 0.000000 
0.000000 0.000000 0.000000 
0.000000 0.000000 0.000000 

0.000000 -0.000000 0.000000 
0.000000 0.000000 0.000000 
0.000000 0.000000 0.000000 

0.000000 0.000000 0.000000 
0.000000 0.000000 0.000000 
0.000000 0.000000 0.000000 

0.000000 0.000000 0.000000 
0.000000 0.000000 0.000000 
0.000000 0.000000 0.000000 

-0.000000 0.000000 0.000000 
0.000000 -0.000000 0.000000 
0.000000 0.000000 0.000000 

0.000000 -0.000000 0.000000 
0.000000 0.000000 0.000000 
0.000000 0.000000 0.000000 

-0.000000 0.000000 0.000000 
0.000000 -0.000000 0.000000 
0.000000 0.000000 0.000000 

-0.000000 -0.000000 0.000000 
0.000000 -0.000000 0.000000 
0.000000 0.000000 0.000000 

-0.000000 0.000000 0.000000 
0.000000 0.000000 0.000000 
0.000000 0.000000 0.000000 

0.000000 0.000000 0.000000 
0.000000 0.000000 0.000000 
0.000000 0.000000 0.000000 

0.000000 0.000000 0.000000 
0.000000 0.000000 0.000000 
0.000000 0.000000 0.000000 

-0.000000 0.000000 0.000000 
0.000000 -0.000000 0.000000 
0.000000 0.000000 0.000000 

0.000000 -0.000000 0.000000 
0.000000 0.000000 0.000000 
0.000000 0.000000 0.000000 

0.000000 0.000000 0.000000 
0.000000 0.000000 0.000000 
0.000000 0.000000 0.000000 

0.000000 0.000000 0.000000 
0.000000 0.000000 0.000000 
0.000000 0.000000 0.000000 

0.000000 0.000000 0.000000 
0.000000 0.000000 0.000000 
0.000000 0.000000 0.000000 

0.000000 0.000000 0.000000 
0.000000 -0.000000 0.000000 
0.000000 0.000000 0.000000 

-0.000000 0.000000 0.000000 
0.000000 -0.000000 0.000000 
0.000000 0.000000 0.000000 

0.000000 -0.000000 0.000000 
0.000000 0.000000 0.000000 
0.000000 0.000000 0.000000 

-0.000000 0.000000 0.000000 
0.000000 -0.000000 0.000000 
0.000000 0.000000 0.000000 

-0.000000 0.000000 0.000000 
0.000000 -0.000000 0.000000 
0.000000 0.000000 0.000000 

0.000000 -0.000000 0.000000 
0.000000 0.000000 0.000000 
0.000000 0.000000 0.000000 

-0.000000 0.000000 0.000000 
0.000000 -0.000000 0.000000 
0.000000 0.000000 0.000000 

-0.000000 0.000000 0.000000 
0.000000 -0.000000 0.000000 
0.000000 0.000000 0.000000 

-0.000000 0.000000 0.000000 
0.000000 -0.000000 0.000000 
0.000000 0.000000 0.000000 

-0.000000 -0.000000 0.000000 
0.000000 -0.000000 0.000000 
0.000000 0.000000 0.000000 

-0.000000 0.000000 0.000000 
0.000000 -0.000000 0.000000 
0.000000 0.000000 0.000000 

-0.000000 0.000000 0.000000 
0.000000 -0.000000 0.000000 
0.000000 0.000000 0.000000 

-0.000000 0.000000 0.000000 
0.000000 -0.000000 0.000000 
0.000000 0.000000 0.000000 

-0.000000 -0.000000 0.000000 
0.000000 -0.000000 0.000000 
0.000000 0.000000 0.000000 

0.000000 0.000000 0.000000 
0.000000 0.000000 0.000000 
0.000000 0.000000 0.000000 

0.000000 0.000000 0.000000 
0.000000 0.000000 0.000000 
0.000000 0.000000 0.000000 

-0.000000 -0.000000 0.000000 
0.000000 -0.000000 0.000000 
0.000000 0.000000 0.000000 

0.000000 0.000000 0.000000 
0.000000 0.000000 0.000000 
0.000000 0.000000 0.000000 

-0.000000 -0.000000 0.000000 
0.000000 -0.000000 0.000000 
0.000000 0.000000 0.000000 

0.000000 0.000000 0.000000 
0.000000 0.000000 0.000000 
0.000000 0.000000 0.000000 

0.000000 0.000000 0.000000 
0.000000 0.000000 0.000000 
0.000000 0.000000 0.000000 

-0.000000 -0.000000 0.000000 
0.000000 -0.000000 0.000000 
0.000000 0.000000 0.000000 

0.000000 0.000000 0.000000 
0.000000 0.000000 0.000000 
0.000000 0.000000 0.000000 

0.000000 -0.000000 0.000000 
0.000000 0.000000 0.000000 
0.000000 0.000000 0.000000 

0.000000 0.000000 0.000000 
0.000000 0.000000 0.000000 
0.000000 0.000000 0.000000 

-0.000000 0.000000 0.000000 
0.000000 -0.000000 0.000000 
0.000000 0.000000 0.000000 

0.000000 -0.000000 0.000000 
0.000000 0.000000 0.000000 
0.000000 0.000000 0.000000 

0.000000 -0.000000 0.000000 
0.000000 0.000000 0.000000 
0.000000 0.000000 0.000000 

-0.000000 -0.000000 0.000000 
0.000000 -0.000000 0.000000 
0.000000 0.000000 0.000000 

-0.000000 -0.000000 0.000000 
0.000000 -0.000000 0.000000 
0.000000 0.000000 0.000000 

-0.000000 -0.000000 0.000000 
0.000000 -0.000000 0.000000 
0.000000 0.000000 0.000000 

0.000000 -0.000000 0.000000 
0.000000 0.000000 0.000000 
0.000000 0.000000 0.000000 

0.000000 -0.000000 0.000000 
0.000000 0.000000 0.000000 
0.000000 0.000000 0.000000 

0.000000 -0.000000 0.000000 
0.000000 0.000000 0.000000 
0.000000 0.000000 0.000000 

0.000000 -0.000000 0.000000 
0.000000 0.000000 0.000000 
0.000000 0.000000 0.000000 

0.000000 -0.000000 0.000000 
0.000000 0.000000 0.000000 
0.000000 0.000000 0.000000 

-0.000000 -0.000000 0.000000 
0.000000 -0.000000 0.000000 
0.000000 0.000000 0.000000 

-0.000000 0.000000 0.000000 
0.000000 -0.000000 0.000000 
0.000000 0.000000 0.000000 

0.000000 -0.000000 0.000000 
0.000000 0.000000 0.000000 
0.000000 0.000000 0.000000 

0.000000 0.000000 0.000000 
0.000000 0.000000 0.000000 
0.000000 0.000000 0.000000 

-0.000000 0.000000 0.000000 
0.000000 -0.000000 0.000000 
0.000000 0.000000 0.000000 

-0.000000 0.000000 0.000000 
0.000000 -0.000000 0.000000 
0.000000 0.000000 0.000000 

0.000000 0.000000 0.000000 
0.000000 0.000000 0.000000 
0.000000 0.000000 0.000000 

0.000000 0.000000 0.000000 
0.000000 0.000000 0.000000 
0.000000 0.000000 0.000000 

0.000000 -0.000000 0.000000 
0.000000 0.000000 0.000000 
0.000000 0.000000 0.000000 

0.000000 0.000000 0.000000 
0.000000 0.000000 0.000000 
0.000000 0.000000 0.000000 

-0.000000 0.000000 0.000000 
0.000000 -0.000000 0.000000 
0.000000 0.000000 0.000000 

0.000000 0.000000 0.000000 
0.000000 0.000000 0.000000 
0.000000 0.000000 0.000000 

-0.000000 0.000000 0.000000 
0.000000 -0.000000 0.000000 
0.000000 0.000000 0.000000 

0.000000 0.000000 0.000000 
0.000000 0.000000 0.000000 
0.000000 0.000000 0.000000 

0.000000 0.000000 0.000000 
0.000000 0.000000 0.000000 
0.000000 0.000000 0.000000 

-0.000000 0.000000 0.000000 
0.000000 -0.000000 0.000000 
0.000000 0.000000 0.000000 

-0.000000 0.000000 0.000000 
0.000000 -0.000000 0.000000 
0.000000 0.000000 0.000000 

-0.000000 0.000000 0.000000 
0.000000 -0.000000 0.000000 
0.000000 0.000000 0.000000 

-0.000000 0.000000 0.000000 
0.000000 -0.000000 0.000000 
0.000000 0.000000 0.000000 

0.000000 0.000000 0.000000 
0.000000 0.000000 0.000000 
0.000000 0.000000 0.000000 

0.000000 0.000000 0.000000 
0.000000 0.000000 0.000000 
0.000000 0.000000 0.000000 

0.000000 0.000000 0.000000 
0.000000 0.000000 0.000000 
0.000000 0.000000 0.000000 

-0.000000 -0.000000 0.000000 
0.000000 0.000000 0.000000 
0.000000 0.000000 0.000000 

0.000000 0.000000 0.000000 
0.000000 0.000000 0.000000 
0.000000 0.000000 0.000000 

0.000000 -0.000000 0.000000 
0.000000 0.000000 0.000000 
0.000000 0.000000 0.000000 

-0.000000 0.000000 0.000000 
0.000000 -0.000000 0.000000 
0.000000 0.000000 0.000000 

0.000000 -0.000000 0.000000 
0.000000 0.000000 0.000000 
0.000000 0.000000 0.000000 

-0.000000 0.000000 0.000000 
0.000000 -0.000000 0.000000 
0.000000 0.000000 0.000000 

0.000000 -0.000000 0.000000 
0.000000 0.000000 0.000000 
0.000000 0.000000 0.000000 

0.000000 -0.000000 0.000000 
0.000000 0.000000 0.000000 
0.000000 0.000000 0.000000 

-0.000000 -0.000000 0.000000 
0.000000 -0.000000 0.000000 
0.000000 0.000000 0.000000 

0.000000 0.000000 0.000000 
0.000000 0.000000 0.000000 
0.000000 0.000000 0.000000 

0.000000 -0.000000 0.000000 
0.000000 0.000000 0.000000 
0.000000 0.000000 0.000000 

-0.000000 0.000000 0.000000 
0.000000 -0.000000 0.000000 
0.000000 0.000000 0.000000 

-0.000000 0.000000 0.000000 
0.000000 -0.000000 0.000000 
0.000000 0.000000 0.000000 

0.000000 0.000000 0.000000 
0.000000 0.000000 0.000000 
0.000000 0.000000 0.000000 

0.000000 -0.000000 0.000000 
0.000000 0.000000 0.000000 
0.000000 0.000000 0.000000 

0.000000 0.000000 0.000000 
0.000000 0.000000 0.000000 
0.000000 0.000000 0.000000 

0.000000 0.000000 0.000000 
0.000000 0.000000 0.000000 
0.000000 0.000000 0.000000 

0.000000 0.000000 0.000000 
0.000000 0.000000 0.000000 
0.000000 0.000000 0.000000 

-0.000000 0.000000 0.000000 
0.000000 -0.000000 0.000000 
0.000000 0.000000 0.000000 

-0.000000 0.000000 0.000000 
0.000000 -0.000000 0.000000 
0.000000 0.000000 0.000000 

-0.000000 0.000000 0.000000 
0.000000 0.000000 0.000000 
0.000000 0.000000 0.000000 

0.000000 0.000000 0.000000 
0.000000 0.000000 0.000000 
0.000000 0.000000 0.000000 

0.000000 -0.000000 0.000000 
0.000000 0.000000 0.000000 
0.000000 0.000000 0.000000 

0.000000 0.000000 0.000000 
0.000000 0.000000 0.000000 
0.000000 0.000000 0.000000 

-0.000000 0.000000 0.000000 
0.000000 -0.000000 0.000000 
0.000000 0.000000 0.000000 

0.000000 -0.000000 0.000000 
0.000000 0.000000 0.000000 
0.000000 0.000000 0.000000 

0.000000 0.000000 0.000000 
0.000000 0.000000 0.000000 
0.000000 0.000000 0.000000 

0.000000 -0.000000 0.000000 
0.000000 0.000000 0.000000 
0.000000 0.000000 0.000000 

-0.000000 -0.000000 0.000000 
0.000000 -0.000000 0.000000 
0.000000 0.000000 0.000000 

0.000000 0.000000 0.000000 
0.000000 0.000000 0.000000 
0.000000 0.000000 0.000000 

-0.000000 0.000000 0.000000 
0.000000 -0.000000 0.000000 
0.000000 0.000000 0.000000 

0.000000 0.000000 0.000000 
0.000000 0.000000 0.000000 
0.000000 0.000000 0.000000 

0.000000 -0.000000 0.000000 
0.000000 0.000000 0.000000 
0.000000 0.000000 0.000000 

0.000000 -0.000000 0.000000 
0.000000 0.000000 0.000000 
0.000000 0.000000 0.000000 

-0.000000 0.000000 0.000000 
0.000000 -0.000000 0.000000 
0.000000 0.000000 0.000000 

0.000000 -0.000000 0.000000 
0.000000 0.000000 0.000000 
0.000000 0.000000 0.000000 

-0.000000 -0.000000 0.000000 
0.000000 -0.000000 0.000000 
0.000000 0.000000 0.000000 

0.000000 0.000000 0.000000 
0.000000 0.000000 0.000000 
0.000000 0.000000 0.000000 

0.000000 0.000000 0.000000 
0.000000 0.000000 0.000000 
0.000000 0.000000 0.000000 

0.000000 0.000000 0.000000 
0.000000 0.000000 0.000000 
0.000000 0.000000 0.000000 

0.000000 -0.000000 0.000000 
0.000000 0.000000 0.000000 
0.000000 0.000000 0.000000 

0.000000 0.000000 0.000000 
0.000000 -0.000000 0.000000 
0.000000 0.000000 0.000000 

-0.000000 0.000000 0.000000 
0.000000 -0.000000 0.000000 
0.000000 0.000000 0.000000 

-0.000000 -0.000000 0.000000 
0.000000 0.000000 0.000000 
0.000000 0.000000 0.000000 

0.000000 -0.000000 0.000000 
0.000000 0.000000 0.000000 
0.000000 0.000000 0.000000 

-0.000000 -0.000000 0.000000 
0.000000 -0.000000 0.000000 
0.000000 0.000000 0.000000 

0.000000 -0.000000 0.000000 
0.000000 0.000000 0.000000 
0.000000 0.000000 0.000000 

0.000000 0.000000 0.000000 
0.000000 0.000000 0.000000 
0.000000 0.000000 0.000000 

0.000000 0.000000 0.000000 
0.000000 0.000000 0.000000 
0.000000 0.000000 0.000000 

-0.000000 -0.000000 0.000000 
0.000000 -0.000000 0.000000 
0.000000 0.000000 0.000000 

0.000000 0.000000 0.000000 
0.000000 0.000000 0.000000 
0.000000 0.000000 0.000000 

-0.000000 -0.000000 0.000000 
0.000000 -0.000000 0.000000 
0.000000 0.000000 0.000000 

TENSORS STRAIN float 
-0.000000 0.000000 0.000000 
0.000000 0.000000 0.000000 
0.000000 0.000000 0.000000 

-0.000000 -0.000000 0.000000 
0.000000 -0.000000 0.000000 
0.000000 0.000000 0.000000 

0.000000 -0.000000 0.000000 
0.000000 -0.000000 0.000000 
0.000000 0.000000 0.000000 

0.000000 -0.000000 0.000000 
0.000000 -0.000000 0.000000 
0.000000 0.000000 0.000000 

0.000000 -0.000000 0.000000 
0.000000 -0.000000 0.000000 
0.000000 0.000000 0.000000 

0.000000 -0.000000 0.000000 
0.000000 -0.000000 0.000000 
0.000000 0.000000 0.000000 

0.000000 -0.000000 0.000000 
0.000000 -0.000000 0.000000 
0.000000 0.000000 0.000000 

0.000000 -0.000000 0.000000 
0.000000 -0.000000 0.000000 
0.000000 0.000000 0.000000 

0.000000 0.000000 0.000000 
0.000000 -0.000000 0.000000 
0.000000 0.000000 0.000000 

0.000000 0.000000 0.000000 
0.000000 -0.000000 0.000000 
0.000000 0.000000 0.000000 

0.000000 -0.000000 0.000000 
0.000000 -0.000000 0.000000 
0.000000 0.000000 0.000000 

-0.000000 -0.000000 0.000000 
0.000000 -0.000000 0.000000 
0.000000 0.000000 0.000000 

-0.000000 -0.000000 0.000000 
0.000000 -0.000000 0.000000 
0.000000 0.000000 0.000000 

-0.000000 0.000000 0.000000 
0.000000 0.000000 0.000000 
0.000000 0.000000 0.000000 

-0.000000 0.000000 0.000000 
0.000000 0.000000 0.000000 
0.000000 0.000000 0.000000 

0.000000 -0.000000 0.000000 
0.000000 0.000000 0.000000 
0.000000 0.000000 0.000000 

0.000000 -0.000000 0.000000 
0.000000 -0.000000 0.000000 
0.000000 0.000000 0.000000 

0.000000 -0.000000 0.000000 
0.000000 -0.000000 0.000000 
0.000000 0.000000 0.000000 

-0.000000 -0.000000 0.000000 
0.000000 -0.000000 0.000000 
0.000000 0.000000 0.000000 

-0.000000 -0.000000 0.000000 
0.000000 -0.000000 0.000000 
0.000000 0.000000 0.000000 

-0.000000 0.000000 0.000000 
0.000000 0.000000 0.000000 
0.000000 0.000000 0.000000 

-0.000000 -0.000000 0.000000 
0.000000 0.000000 0.000000 
0.000000 0.000000 0.000000 

-0.000000 -0.000000 0.000000 
0.000000 0.000000 0.000000 
0.000000 0.000000 0.000000 

0.000000 -0.000000 0.000000 
0.000000 -0.000000 0.000000 
0.000000 0.000000 0.000000 

0.000000 -0.000000 0.000000 
0.000000 -0.000000 0.000000 
0.000000 0.000000 0.000000 

0.000000 -0.000000 0.000000 
0.000000 -0.000000 0.000000 
0.000000 0.000000 0.000000 

0.000000 -0.000000 0.000000 
0.000000 -0.000000 0.000000 
0.000000 0.000000 0.000000 

0.000000 -0.000000 0.000000 
0.000000 0.000000 0.000000 
0.000000 0.000000 0.000000 

0.000000 -0.000000 0.000000 
0.000000 0.000000 0.000000 
0.000000 0.000000 0.000000 

0.000000 -0.000000 0.000000 
0.000000 -0.000000 0.000000 
0.000000 0.000000 0.000000 

0.000000 -0.000000 0.000000 
0.000000 0.000000 0.000000 
0.000000 0.000000 0.000000 

0.000000 0.000000 0.000000 
0.000000 -0.000000 0.000000 
0.000000 0.000000 0.000000 

0.000000 0.000000 0.000000 
0.000000 0.000000 0.000000 
0.000000 0.000000 0.000000 

0.000000 0.000000 0.000000 
0.000000 0.000000 0.000000 
0.000000 0.000000 0.000000 

-0.000000 0.000000 0.000000 
0.000000 0.000000 0.000000 
0.000000 0.000000 0.000000 

-0.000000 0.000000 0.000000 
0.000000 0.000000 0.000000 
0.000000 0.000000 0.000000 

-0.000000 0.000000 0.000000 
0.000000 -0.000000 0.000000 
0.000000 0.000000 0.000000 

-0.000000 0.000000 0.000000 
0.000000 -0.000000 0.000000 
0.000000 0.000000 0.000000 

-0.000000 0.000000 0.000000 
0.000000 -0.000000 0.000000 
0.000000 0.000000 0.000000 

-0.000000 0.000000 0.000000 
0.000000 -0.000000 0.000000 
0.000000 0.000000 0.000000 

-0.000000 0.000000 0.000000 
0.000000 -0.000000 0.000000 
0.000000 0.000000 0.000000 

-0.000000 -0.000000 0.000000 
0.000000 0.000000 0.000000 
0.000000 0.000000 0.000000 

0.000000 -0.000000 0.000000 
0.000000 0.000000 0.000000 
0.000000 0.000000 0.000000 

-0.000000 0.000000 0.000000 
0.000000 0.000000 0.000000 
0.000000 0.000000 0.000000 

-0.000000 0.000000 0.000000 
0.000000 -0.000000 0.000000 
0.000000 0.000000 0.000000 

-0.000000 0.000000 0.000000 
0.000000 -0.000000 0.000000 
0.000000 0.000000 0.000000 

-0.000000 0.000000 0.000000 
0.000000 -0.000000 0.000000 
0.000000 0.000000 0.000000 

-0.000000 0.000000 0.000000 
0.000000 -0.000000 0.000000 
0.000000 0.000000 0.000000 

0.000000 0.000000 0.000000 
0.000000 -0.000000 0.000000 
0.000000 0.000000 0.000000 

0.000000 0.000000 0.000000 
0.000000 -0.000000 0.000000 
0.000000 0.000000 0.000000 

0.000000 0.000000 0.000000 
0.000000 -0.000000 0.000000 
0.000000 0.000000 0.000000 

0.000000 -0.000000 0.000000 
0.000000 -0.000000 0.000000 
0.000000 0.000000 0.000000 

0.000000 -0.000000 0.000000 
0.000000 -0.000000 0.000000 
0.000000 0.000000 0.000000 

0.000000 -0.000000 0.000000 
0.000000 -0.000000 0.000000 
0.000000 0.000000 0.000000 

0.000000 -0.000000 0.000000 
0.000000 -0.000000 0.000000 
0.000000 0.000000 0.000000 

0.000000 -0.000000 0.000000 
0.000000 -0.000000 0.000000 
0.000000 0.000000 0.000000 

0.000000 -0.000000 0.000000 
0.000000 0.000000 0.000000 
0.000000 0.000000 0.000000 

0.000000 0.000000 0.000000 
0.000000 0.000000 0.000000 
0.000000 0.000000 0.000000 

0.000000 0.000000 0.000000 
0.000000 0.000000 0.000000 
0.000000 0.000000 0.000000 

0.000000 0.000000 0.000000 
0.000000 0.000000 0.000000 
0.000000 0.000000 0.000000 

0.000000 0.000000 0.000000 
0.000000 -0.000000 0.000000 
0.000000 0.000000 0.000000 

0.000000 0.000000 0.000000 
0.000000 -0.000000 0.000000 
0.000000 0.000000 0.000000 

0.000000 0.000000 0.000000 
0.000000 -0.000000 0.000000 
0.000000 0.000000 0.000000 

0.000000 -0.000000 0.000000 
0.000000 -0.000000 0.000000 
0.000000 0.000000 0.000000 

-0.000000 -0.000000 0.000000 
0.000000 -0.000000 0.000000 
0.000000 0.000000 0.000000 

-0.000000 -0.000000 0.000000 
0.000000 -0.000000 0.000000 
0.000000 0.000000 0.000000 

-0.000000 -0.000000 0.000000 
0.000000 -0.000000 0.000000 
0.000000 0.000000 0.000000 

-0.000000 -0.000000 0.000000 
0.000000 0.000000 0.000000 
0.000000 0.000000 0.000000 

-0.000000 -0.000000 0.000000 
0.000000 -0.000000 0.000000 
0.000000 0.000000 0.000000 

-0.000000 -0.000000 0.000000 
0.000000 -0.000000 0.000000 
0.000000 0.000000 0.000000 

0.000000 -0.000000 0.000000 
0.000000 -0.000000 0.000000 
0.000000 0.000000 0.000000 

0.000000 -0.000000 0.000000 
0.000000 -0.000000 0.000000 
0.000000 0.000000 0.000000 

0.000000 -0.000000 0.000000 
0.000000 -0.000000 0.000000 
0.000000 0.000000 0.000000 

0.000000 -0.000000 0.000000 
0.000000 -0.000000 0.000000 
0.000000 0.000000 0.000000 

0.000000 -0.000000 0.000000 
0.000000 -0.000000 0.000000 
0.000000 0.000000 0.000000 

0.000000 0.000000 0.000000 
0.000000 -0.000000 0.000000 
0.000000 0.000000 0.000000 

0.000000 0.000000 0.000000 
0.000000 -0.000000 0.000000 
0.000000 0.000000 0.000000 

0.000000 0.000000 0.000000 
0.000000 -0.000000 0.000000 
0.000000 0.000000 0.000000 

0.000000 0.000000 0.000000 
0.000000 0.000000 0.000000 
0.000000 0.000000 0.000000 

0.000000 0.000000 0.000000 
0.000000 -0.000000 0.000000 
0.000000 0.000000 0.000000 

0.000000 0.000000 0.000000 
0.000000 0.000000 0.000000 
0.000000 0.000000 0.000000 

0.000000 0.000000 0.000000 
0.000000 0.000000 0.000000 
0.000000 0.000000 0.000000 

0.000000 0.000000 0.000000 
0.000000 -0.000000 0.000000 
0.000000 0.000000 0.000000 

0.000000 0.000000 0.000000 
0.000000 0.000000 0.000000 
0.000000 0.000000 0.000000 

0.000000 -0.000000 0.000000 
0.000000 0.000000 0.000000 
0.000000 0.000000 0.000000 

0.000000 -0.000000 0.000000 
0.000000 0.000000 0.000000 
0.000000 0.000000 0.000000 

0.000000 0.000000 0.000000 
0.000000 0.000000 0.000000 
0.000000 0.000000 0.000000 

0.000000 -0.000000 0.000000 
0.000000 -0.000000 0.000000 
0.000000 0.000000 0.000000 

0.000000 -0.000000 0.000000 
0.000000 -0.000000 0.000000 
0.000000 0.000000 0.000000 

0.000000 -0.000000 0.000000 
0.000000 -0.000000 0.000000 
0.000000 0.000000 0.000000 

0.000000 -0.000000 0.000000 
0.000000 -0.000000 0.000000 
0.000000 0.000000 0.000000 

0.000000 -0.000000 0.000000 
0.000000 -0.000000 0.000000 
0.000000 0.000000 0.000000 

0.000000 -0.000000 0.000000 
0.000000 -0.000000 0.000000 
0.000000 0.000000 0.000000 

0.000000 -0.000000 0.000000 
0.000000 -0.000000 0.000000 
0.000000 0.000000 0.000000 

0.000000 -0.000000 0.000000 
0.000000 0.000000 0.000000 
0.000000 0.000000 0.000000 

0.000000 0.000000 0.000000 
0.000000 0.000000 0.000000 
0.000000 0.000000 0.000000 

0.000000 -0.000000 0.000000 
0.000000 0.000000 0.000000 
0.000000 0.000000 0.000000 

0.000000 -0.000000 0.000000 
0.000000 0.000000 0.000000 
0.000000 0.000000 0.000000 

-0.000000 -0.000000 0.000000 
0.000000 0.000000 0.000000 
0.000000 0.000000 0.000000 

-0.000000 -0.000000 0.000000 
0.000000 0.000000 0.000000 
0.000000 0.000000 0.000000 

-0.000000 -0.000000 0.000000 
0.000000 0.000000 0.000000 
0.000000 0.000000 0.000000 

-0.000000 0.000000 0.000000 
0.000000 0.000000 0.000000 
0.000000 0.000000 0.000000 

-0.000000 -0.000000 0.000000 
0.000000 -0.000000 0.000000 
0.000000 0.000000 0.000000 

-0.000000 -0.000000 0.000000 
0.000000 0.000000 0.000000 
0.000000 0.000000 0.000000 

-0.000000 -0.000000 0.000000 
0.000000 -0.000000 0.000000 
0.000000 0.000000 0.000000 

-0.000000 -0.000000 0.000000 
0.000000 -0.000000 0.000000 
0.000000 0.000000 0.000000 

-0.000000 0.000000 0.000000 
0.000000 -0.000000 0.000000 
0.000000 0.000000 0.000000 

-0.000000 -0.000000 0.000000 
0.000000 -0.000000 0.000000 
0.000000 0.000000 0.000000 

-0.000000 0.000000 0.000000 
0.000000 -0.000000 0.000000 
0.000000 0.000000 0.000000 

-0.000000 0.000000 0.000000 
0.000000 0.000000 0.000000 
0.000000 0.000000 0.000000 

-0.000000 0.000000 0.000000 
0.000000 0.000000 0.000000 
0.000000 0.000000 0.000000 

-0.000000 0.000000 0.000000 
0.000000 0.000000 0.000000 
0.000000 0.000000 0.000000 

-0.000000 0.000000 0.000000 
0.000000 0.000000 0.000000 
0.000000 0.000000 0.000000 

-0.000000 0.000000 0.000000 
0.000000 0.000000 0.000000 
0.000000 0.000000 0.000000 

0.000000 0.000000 0.000000 
0.000000 0.000000 0.000000 
0.000000 0.000000 0.000000 

0.000000 -0.000000 0.000000 
0.000000 -0.000000 0.000000 
0.000000 0.000000 0.000000 

0.000000 -0.000000 0.000000 
0.000000 -0.000000 0.000000 
0.000000 0.000000 0.000000 

-0.000000 0.000000 0.000000 
0.000000 -0.000000 0.000000 
0.000000 0.000000 0.000000 

-0.000000 0.000000 0.000000 
0.000000 -0.000000 0.000000 
0.000000 0.000000 0.000000 

0.000000 -0.000000 0.000000 
0.000000 -0.000000 0.000000 
0.000000 0.000000 0.000000 

0.000000 -0.000000 0.000000 
0.000000 -0.000000 0.000000 
0.000000 0.000000 0.000000 

0.000000 -0.000000 0.000000 
0.000000 -0.000000 0.000000 
0.000000 0.000000 0.000000 

-0.000000 0.000000 0.000000 
0.000000 -0.000000 0.000000 
0.000000 0.000000 0.000000 

-0.000000 0.000000 0.000000 
0.000000 -0.000000 0.000000 
0.000000 0.000000 0.000000 

-0.000000 0.000000 0.000000 
0.000000 -0.000000 0.000000 
0.000000 0.000000 0.000000 

-0.000000 0.000000 0.000000 
0.000000 -0.000000 0.000000 
0.000000 0.000000 0.000000 

-0.000000 0.000000 0.000000 
0.000000 0.000000 0.000000 
0.000000 0.000000 0.000000 

-0.000000 0.000000 0.000000 
0.000000 -0.000000 0.000000 
0.000000 0.000000 0.000000 

-0.000000 0.000000 0.000000 
0.000000 -0.000000 0.000000 
0.000000 0.000000 0.000000 

0.000000 0.000000 0.000000 
0.000000 -0.000000 0.000000 
0.000000 0.000000 0.000000 

0.000000 0.000000 0.000000 
0.000000 -0.000000 0.000000 
0.000000 0.000000 0.000000 

0.000000 0.000000 0.000000 
0.000000 -0.000000 0.000000 
0.000000 0.000000 0.000000 

0.000000 0.000000 0.000000 
0.000000 0.000000 0.000000 
0.000000 0.000000 0.000000 

-0.000000 0.000000 0.000000 
0.000000 0.000000 0.000000 
0.000000 0.000000 0.000000 

0.000000 -0.000000 0.000000 
0.000000 0.000000 0.000000 
0.000000 0.000000 0.000000 

0.000000 0.000000 0.000000 
0.000000 0.000000 0.000000 
0.000000 0.000000 0.000000 

0.000000 0.000000 0.000000 
0.000000 -0.000000 0.000000 
0.000000 0.000000 0.000000 

0.000000 0.000000 0.000000 
0.000000 -0.000000 0.000000 
0.000000 0.000000 0.000000 

0.000000 0.000000 0.000000 
0.000000 -0.000000 0.000000 
0.000000 0.000000 0.000000 

0.000000 0.000000 0.000000 
0.000000 -0.000000 0.000000 
0.000000 0.000000 0.000000 

-0.000000 -0.000000 0.000000 
0.000000 0.000000 0.000000 
0.000000 0.000000 0.000000 

-0.000000 -0.000000 0.000000 
0.000000 0.000000 0.000000 
0.000000 0.000000 0.000000 

-0.000000 -0.000000 0.000000 
0.000000 0.000000 0.000000 
0.000000 0.000000 0.000000 

-0.000000 -0.000000 0.000000 
0.000000 -0.000000 0.000000 
0.000000 0.000000 0.000000 

-0.000000 -0.000000 0.000000 
0.000000 0.000000 0.000000 
0.000000 0.000000 0.000000 

0.000000 0.000000 0.000000 
0.000000 0.000000 0.000000 
0.000000 0.000000 0.000000 

0.000000 -0.000000 0.000000 
0.000000 0.000000 0.000000 
0.000000 0.000000 0.000000 

0.000000 -0.000000 0.000000 
0.000000 0.000000 0.000000 
0.000000 0.000000 0.000000 

0.000000 -0.000000 0.000000 
0.000000 -0.000000 0.000000 
0.000000 0.000000 0.000000 

-0.000000 -0.000000 0.000000 
0.000000 -0.000000 0.000000 
0.000000 0.000000 0.000000 

-0.000000 -0.000000 0.000000 
0.000000 -0.000000 0.000000 
0.000000 0.000000 0.000000 

-0.000000 0.000000 0.000000 
0.000000 -0.000000 0.000000 
0.000000 0.000000 0.000000 

-0.000000 0.000000 0.000000 
0.000000 -0.000000 0.000000 
0.000000 0.000000 0.000000 

-0.000000 0.000000 0.000000 
0.000000 -0.000000 0.000000 
0.000000 0.000000 0.000000 

-0.000000 0.000000 0.000000 
0.000000 -0.000000 0.000000 
0.000000 0.000000 0.000000 

-0.000000 0.000000 0.000000 
0.000000 -0.000000 0.000000 
0.000000 0.000000 0.000000 

-0.000000 -0.000000 0.000000 
0.000000 -0.000000 0.000000 
0.000000 0.000000 0.000000 

-0.000000 -0.000000 0.000000 
0.000000 -0.000000 0.000000 
0.000000 0.000000 0.000000 

-0.000000 -0.000000 0.000000 
0.000000 -0.000000 0.000000 
0.000000 0.000000 0.000000 

-0.000000 -0.000000 0.000000 
0.000000 -0.000000 0.000000 
0.000000 0.000000 0.000000 

-0.000000 0.000000 0.000000 
0.000000 -0.000000 0.000000 
0.000000 0.000000 0.000000 

-0.000000 -0.000000 0.000000 
0.000000 -0.000000 0.000000 
0.000000 0.000000 0.000000 

-0.000000 0.000000 0.000000 
0.000000 0.000000 0.000000 
0.000000 0.000000 0.000000 

-0.000000 0.000000 0.000000 
0.000000 -0.000000 0.000000 
0.000000 0.000000 0.000000 

0.000000 0.000000 0.000000 
0.000000 0.000000 0.000000 
0.000000 0.000000 0.000000 

-0.000000 -0.000000 0.000000 
0.000000 0.000000 0.000000 
0.000000 0.000000 0.000000 

-0.000000 -0.000000 0.000000 
0.000000 0.000000 0.000000 
0.000000 0.000000 0.000000 

-0.000000 0.000000 0.000000 
0.000000 0.000000 0.000000 
0.000000 0.000000 0.000000 

-0.000000 0.000000 0.000000 
0.000000 0.000000 0.000000 
0.000000 0.000000 0.000000 

-0.000000 0.000000 0.000000 
0.000000 0.000000 0.000000 
0.000000 0.000000 0.000000 

-0.000000 0.000000 0.000000 
0.000000 0.000000 0.000000 
0.000000 0.000000 0.000000 

-0.000000 -0.000000 0.000000 
0.000000 0.000000 0.000000 
0.000000 0.000000 0.000000 

0.000000 0.000000 0.000000 
0.000000 0.000000 0.000000 
0.000000 0.000000 0.000000 

0.000000 0.000000 0.000000 
0.000000 0.000000 0.000000 
0.000000 0.000000 0.000000 

-0.000000 -0.000000 0.000000 
0.000000 0.000000 0.000000 
0.000000 0.000000 0.000000 

-0.000000 0.000000 0.000000 
0.000000 0.000000 0.000000 
0.000000 0.000000 0.000000 

-0.000000 0.000000 0.000000 
0.000000 0.000000 0.000000 
0.000000 0.000000 0.000000 

-0.000000 0.000000 0.000000 
0.000000 0.000000 0.000000 
0.000000 0.000000 0.000000 

-0.000000 0.000000 0.000000 
0.000000 0.000000 0.000000 
0.000000 0.000000 0.000000 

0.000000 0.000000 0.000000 
0.000000 -0.000000 0.000000 
0.000000 0.000000 0.000000 

0.000000 0.000000 0.000000 
0.000000 0.000000 0.000000 
0.000000 0.000000 0.000000 

0.000000 0.000000 0.000000 
0.000000 0.000000 0.000000 
0.000000 0.000000 0.000000 

0.000000 0.000000 0.000000 
0.000000 0.000000 0.000000 
0.000000 0.000000 0.000000 

0.000000 0.000000 0.000000 
0.000000 0.000000 0.000000 
0.000000 0.000000 0.000000 

0.000000 -0.000000 0.000000 
0.000000 0.000000 0.000000 
0.000000 0.000000 0.000000 

0.000000 -0.000000 0.000000 
0.000000 0.000000 0.000000 
0.000000 0.000000 0.000000 

0.000000 -0.000000 0.000000 
0.000000 0.000000 0.000000 
0.000000 0.000000 0.000000 

0.000000 -0.000000 0.000000 
0.000000 0.000000 0.000000 
0.000000 0.000000 0.000000 

0.000000 -0.000000 0.000000 
0.000000 0.000000 0.000000 
0.000000 0.000000 0.000000 

0.000000 0.000000 0.000000 
0.000000 -0.000000 0.000000 
0.000000 0.000000 0.000000 

0.000000 -0.000000 0.000000 
0.000000 -0.000000 0.000000 
0.000000 0.000000 0.000000 

-0.000000 -0.000000 0.000000 
0.000000 -0.000000 0.000000 
0.000000 0.000000 0.000000 

-0.000000 -0.000000 0.000000 
0.000000 0.000000 0.000000 
0.000000 0.000000 0.000000 

-0.000000 -0.000000 0.000000 
0.000000 0.000000 0.000000 
0.000000 0.000000 0.000000 

-0.000000 -0.000000 0.000000 
0.000000 -0.000000 0.000000 
0.000000 0.000000 0.000000 

-0.000000 0.000000 0.000000 
0.000000 -0.000000 0.000000 
0.000000 0.000000 0.000000 

-0.000000 -0.000000 0.000000 
0.000000 -0.000000 0.000000 
0.000000 0.000000 0.000000 

-0.000000 -0.000000 0.000000 
0.000000 0.000000 0.000000 
0.000000 0.000000 0.000000 

-0.000000 -0.000000 0.000000 
0.000000 0.000000 0.000000 
0.000000 0.000000 0.000000 

-0.000000 -0.000000 0.000000 
0.000000 -0.000000 0.000000 
0.000000 0.000000 0.000000 

-0.000000 -0.000000 0.000000 
0.000000 0.000000 0.000000 
0.000000 0.000000 0.000000 

0.000000 0.000000 0.000000 
0.000000 0.000000 0.000000 
0.000000 0.000000 0.000000 

0.000000 0.000000 0.000000 
0.000000 0.000000 0.000000 
0.000000 0.000000 0.000000 

0.000000 0.000000 0.000000 
0.000000 0.000000 0.000000 
0.000000 0.000000 0.000000 

-0.000000 -0.000000 0.000000 
0.000000 0.000000 0.000000 
0.000000 0.000000 0.000000 

-0.000000 -0.000000 0.000000 
0.000000 0.000000 0.000000 
0.000000 0.000000 0.000000 

-0.000000 -0.000000 0.000000 
0.000000 0.000000 0.000000 
0.000000 0.000000 0.000000 

-0.000000 -0.000000 0.000000 
0.000000 0.000000 0.000000 
0.000000 0.000000 0.000000 

-0.000000 -0.000000 0.000000 
0.000000 0.000000 0.000000 
0.000000 0.000000 0.000000 

-0.000000 -0.000000 0.000000 
0.000000 -0.000000 0.000000 
0.000000 0.000000 0.000000 

-0.000000 -0.000000 0.000000 
0.000000 -0.000000 0.000000 
0.000000 0.000000 0.000000 

-0.000000 -0.000000 0.000000 
0.000000 0.000000 0.000000 
0.000000 0.000000 0.000000 

-0.000000 -0.000000 0.000000 
0.000000 0.000000 0.000000 
0.000000 0.000000 0.000000 

-0.000000 0.000000 0.000000 
0.000000 0.000000 0.000000 
0.000000 0.000000 0.000000 

-0.000000 -0.000000 0.000000 
0.000000 0.000000 0.000000 
0.000000 0.000000 0.000000 

-0.000000 -0.000000 0.000000 
0.000000 0.000000 0.000000 
0.000000 0.000000 0.000000 

-0.000000 0.000000 0.000000 
0.000000 0.000000 0.000000 
0.000000 0.000000 0.000000 

-0.000000 -0.000000 0.000000 
0.000000 0.000000 0.000000 
0.000000 0.000000 0.000000 

-0.000000 -0.000000 0.000000 
0.000000 -0.000000 0.000000 
0.000000 0.000000 0.000000 

-0.000000 0.000000 0.000000 
0.000000 -0.000000 0.000000 
0.000000 0.000000 0.000000 

-0.000000 -0.000000 0.000000 
0.000000 -0.000000 0.000000 
0.000000 0.000000 0.000000 

0.000000 0.000000 0.000000 
0.000000 -0.000000 0.000000 
0.000000 0.000000 0.000000 

0.000000 0.000000 0.000000 
0.000000 -0.000000 0.000000 
0.000000 0.000000 0.000000 

0.000000 -0.000000 0.000000 
0.000000 -0.000000 0.000000 
0.000000 0.000000 0.000000 

0.000000 -0.000000 0.000000 
0.000000 -0.000000 0.000000 
0.000000 0.000000 0.000000 

0.000000 -0.000000 0.000000 
0.000000 -0.000000 0.000000 
0.000000 0.000000 0.000000 

0.000000 -0.000000 0.000000 
0.000000 -0.000000 0.000000 
0.000000 0.000000 0.000000 

0.000000 -0.000000 0.000000 
0.000000 -0.000000 0.000000 
0.000000 0.000000 0.000000 

0.000000 -0.000000 0.000000 
0.000000 -0.000000 0.000000 
0.000000 0.000000 0.000000 

-0.000000 -0.000000 0.000000 
0.000000 0.000000 0.000000 
0.000000 0.000000 0.000000 

-0.000000 -0.000000 0.000000 
0.000000 -0.000000 0.000000 
0.000000 0.000000 0.000000 

-0.000000 -0.000000 0.000000 
0.000000 -0.000000 0.000000 
0.000000 0.000000 0.000000 

-0.000000 -0.000000 0.000000 
0.000000 -0.000000 0.000000 
0.000000 0.000000 0.000000 

-0.000000 -0.000000 0.000000 
0.000000 -0.000000 0.000000 
0.000000 0.000000 0.000000 

-0.000000 -0.000000 0.000000 
0.000000 -0.000000 0.000000 
0.000000 0.000000 0.000000 

0.000000 0.000000 0.000000 
0.000000 -0.000000 0.000000 
0.000000 0.000000 0.000000 

0.000000 0.000000 0.000000 
0.000000 0.000000 0.000000 
0.000000 0.000000 0.000000 

-0.000000 -0.000000 0.000000 
0.000000 0.000000 0.000000 
0.000000 0.000000 0.000000 

-0.000000 -0.000000 0.000000 
0.000000 0.000000 0.000000 
0.000000 0.000000 0.000000 

-0.000000 0.000000 0.000000 
0.000000 0.000000 0.000000 
0.000000 0.000000 0.000000 

-0.000000 -0.000000 0.000000 
0.000000 -0.000000 0.000000 
0.000000 0.000000 0.000000 

-0.000000 -0.000000 0.000000 
0.000000 -0.000000 0.000000 
0.000000 0.000000 0.000000 

-0.000000 -0.000000 0.000000 
0.000000 -0.000000 0.000000 
0.000000 0.000000 0.000000 

-0.000000 -0.000000 0.000000 
0.000000 -0.000000 0.000000 
0.000000 0.000000 0.000000 

0.000000 0.000000 0.000000 
0.000000 -0.000000 0.000000 
0.000000 0.000000 0.000000 

0.000000 0.000000 0.000000 
0.000000 0.000000 0.000000 
0.000000 0.000000 0.000000 

0.000000 0.000000 0.000000 
0.000000 -0.000000 0.000000 
0.000000 0.000000 0.000000 

0.000000 0.000000 0.000000 
0.000000 -0.000000 0.000000 
0.000000 0.000000 0.000000 

-0.000000 0.000000 0.000000 
0.000000 -0.000000 0.000000 
0.000000 0.000000 0.000000 

-0.000000 -0.000000 0.000000 
0.000000 -0.000000 0.000000 
0.000000 0.000000 0.000000 

-0.000000 0.000000 0.000000 
0.000000 -0.000000 0.000000 
0.000000 0.000000 0.000000 

-0.000000 0.000000 0.000000 
0.000000 -0.000000 0.000000 
0.000000 0.000000 0.000000 

-0.000000 0.000000 0.000000 
0.000000 -0.000000 0.000000 
0.000000 0.000000 0.000000 

-0.000000 0.000000 0.000000 
0.000000 -0.000000 0.000000 
0.000000 0.000000 0.000000 

-0.000000 -0.000000 0.000000 
0.000000 -0.000000 0.000000 
0.000000 0.000000 0.000000 

-0.000000 -0.000000 0.000000 
0.000000 -0.000000 0.000000 
0.000000 0.000000 0.000000 

-0.000000 -0.000000 0.000000 
0.000000 -0.000000 0.000000 
0.000000 0.000000 0.000000 

-0.000000 -0.000000 0.000000 
0.000000 -0.000000 0.000000 
0.000000 0.000000 0.000000 

0.000000 -0.000000 0.000000 
0.000000 -0.000000 0.000000 
0.000000 0.000000 0.000000 

0.000000 0.000000 0.000000 
0.000000 -0.000000 0.000000 
0.000000 0.000000 0.000000 

0.000000 -0.000000 0.000000 
0.000000 -0.000000 0.000000 
0.000000 0.000000 0.000000 

0.000000 0.000000 0.000000 
0.000000 0.000000 0.000000 
0.000000 0.000000 0.000000 

0.000000 0.000000 0.000000 
0.000000 0.000000 0.000000 
0.000000 0.000000 0.000000 

0.000000 0.000000 0.000000 
0.000000 0.000000 0.000000 
0.000000 0.000000 0.000000 

0.000000 0.000000 0.000000 
0.000000 -0.000000 0.000000 
0.000000 0.000000 0.000000 

0.000000 0.000000 0.000000 
0.000000 -0.000000 0.000000 
0.000000 0.000000 0.000000 

0.000000 0.000000 0.000000 
0.000000 -0.000000 0.000000 
0.000000 0.000000 0.000000 

0.000000 0.000000 0.000000 
0.000000 -0.000000 0.000000 
0.000000 0.000000 0.000000 

0.000000 0.000000 0.000000 
0.000000 -0.000000 0.000000 
0.000000 0.000000 0.000000 

0.000000 -0.000000 0.000000 
0.000000 0.000000 0.000000 
0.000000 0.000000 0.000000 

0.000000 0.000000 0.000000 
0.000000 -0.000000 0.000000 
0.000000 0.000000 0.000000 

0.000000 0.000000 0.000000 
0.000000 -0.000000 0.000000 
0.000000 0.000000 0.000000 

0.000000 0.000000 0.000000 
0.000000 -0.000000 0.000000 
0.000000 0.000000 0.000000 

0.000000 0.000000 0.000000 
0.000000 -0.000000 0.000000 
0.000000 0.000000 0.000000 

0.000000 0.000000 0.000000 
0.000000 -0.000000 0.000000 
0.000000 0.000000 0.000000 

-0.000000 -0.000000 0.000000 
0.000000 -0.000000 0.000000 
0.000000 0.000000 0.000000 

0.000000 0.000000 0.000000 
0.000000 -0.000000 0.000000 
0.000000 0.000000 0.000000 

-0.000000 0.000000 0.000000 
0.000000 -0.000000 0.000000 
0.000000 0.000000 0.000000 

0.000000 0.000000 0.000000 
0.000000 -0.000000 0.000000 
0.000000 0.000000 0.000000 

0.000000 0.000000 0.000000 
0.000000 -0.000000 0.000000 
0.000000 0.000000 0.000000 

-0.000000 0.000000 0.000000 
0.000000 -0.000000 0.000000 
0.000000 0.000000 0.000000 

-0.000000 0.000000 0.000000 
0.000000 -0.000000 0.000000 
0.000000 0.000000 0.000000 

0.000000 0.000000 0.000000 
0.000000 -0.000000 0.000000 
0.000000 0.000000 0.000000 

-0.000000 0.000000 0.000000 
0.000000 -0.000000 0.000000 
0.000000 0.000000 0.000000 

0.000000 0.000000 0.000000 
0.000000 -0.000000 0.000000 
0.000000 0.000000 0.000000 

0.000000 0.000000 0.000000 
0.000000 -0.000000 0.000000 
0.000000 0.000000 0.000000 

0.000000 0.000000 0.000000 
0.000000 -0.000000 0.000000 
0.000000 0.000000 0.000000 

-0.000000 0.000000 0.000000 
0.000000 -0.000000 0.000000 
0.000000 0.000000 0.000000 

-0.000000 -0.000000 0.000000 
0.000000 -0.000000 0.000000 
0.000000 0.000000 0.000000 

0.000000 0.000000 0.000000 
0.000000 -0.000000 0.000000 
0.000000 0.000000 0.000000 

0.000000 0.000000 0.000000 
0.000000 -0.000000 0.000000 
0.000000 0.000000 0.000000 

-0.000000 -0.000000 0.000000 
0.000000 -0.000000 0.000000 
0.000000 0.000000 0.000000 

-0.000000 -0.000000 0.000000 
0.000000 -0.000000 0.000000 
0.000000 0.000000 0.000000 

-0.000000 -0.000000 0.000000 
0.000000 -0.000000 0.000000 
0.000000 0.000000 0.000000 

0.000000 0.000000 0.000000 
0.000000 -0.000000 0.000000 
0.000000 0.000000 0.000000 

0.000000 0.000000 0.000000 
0.000000 0.000000 0.000000 
0.000000 0.000000 0.000000 

0.000000 0.000000 0.000000 
0.000000 0.000000 0.000000 
0.000000 0.000000 0.000000 

0.000000 0.000000 0.000000 
0.000000 0.000000 0.000000 
0.000000 0.000000 0.000000 

0.000000 0.000000 0.000000 
0.000000 0.000000 0.000000 
0.000000 0.000000 0.000000 

0.000000 0.000000 0.000000 
0.000000 -0.000000 0.000000 
0.000000 0.000000 0.000000 

0.000000 -0.000000 0.000000 
0.000000 -0.000000 0.000000 
0.000000 0.000000 0.000000 

-0.000000 -0.000000 0.000000 
0.000000 -0.000000 0.000000 
0.000000 0.000000 0.000000 

-0.000000 -0.000000 0.000000 
0.000000 -0.000000 0.000000 
0.000000 0.000000 0.000000 

-0.000000 -0.000000 0.000000 
0.000000 -0.000000 0.000000 
0.000000 0.000000 0.000000 

-0.000000 -0.000000 0.000000 
0.000000 -0.000000 0.000000 
0.000000 0.000000 0.000000 

0.000000 -0.000000 0.000000 
0.000000 -0.000000 0.000000 
0.000000 0.000000 0.000000 

-0.000000 -0.000000 0.000000 
0.000000 -0.000000 0.000000 
0.000000 0.000000 0.000000 

0.000000 0.000000 0.000000 
0.000000 0.000000 0.000000 
0.000000 0.000000 0.000000 

0.000000 -0.000000 0.000000 
0.000000 -0.000000 0.000000 
0.000000 0.000000 0.000000 

0.000000 -0.000000 0.000000 
0.000000 -0.000000 0.000000 
0.000000 0.000000 0.000000 

-0.000000 -0.000000 0.000000 
0.000000 -0.000000 0.000000 
0.000000 0.000000 0.000000 

0.000000 0.000000 0.000000 
0.000000 0.000000 0.000000 
0.000000 0.000000 0.000000 

-0.000000 -0.000000 0.000000 
0.000000 -0.000000 0.000000 
0.000000 0.000000 0.000000 

-0.000000 0.000000 0.000000 
0.000000 -0.000000 0.000000 
0.000000 0.000000 0.000000 

-0.000000 0.000000 0.000000 
0.000000 -0.000000 0.000000 
0.000000 0.000000 0.000000 

-0.000000 0.000000 0.000000 
0.000000 -0.000000 0.000000 
0.000000 0.000000 0.000000 

-0.000000 0.000000 0.000000 
0.000000 -0.000000 0.000000 
0.000000 0.000000 0.000000 

-0.000000 -0.000000 0.000000 
0.000000 0.000000 0.000000 
0.000000 0.000000 0.000000 

0.000000 0.000000 0.000000 
0.000000 0.000000 0.000000 
0.000000 0.000000 0.000000 

0.000000 0.000000 0.000000 
0.000000 0.000000 0.000000 
0.000000 0.000000 0.000000 

0.000000 -0.000000 0.000000 
0.000000 0.000000 0.000000 
0.000000 0.000000 0.000000 

-0.000000 -0.000000 0.000000 
0.000000 0.000000 0.000000 
0.000000 0.000000 0.000000 

-0.000000 -0.000000 0.000000 
0.000000 -0.000000 0.000000 
0.000000 0.000000 0.000000 

-0.000000 0.000000 0.000000 
0.000000 0.000000 0.000000 
0.000000 0.000000 0.000000 

-0.000000 0.000000 0.000000 
0.000000 0.000000 0.000000 
0.000000 0.000000 0.000000 

-0.000000 -0.000000 0.000000 
0.000000 0.000000 0.000000 
0.000000 0.000000 0.000000 

-0.000000 0.000000 0.000000 
0.000000 0.000000 0.000000 
0.000000 0.000000 0.000000 

-0.000000 0.000000 0.000000 
0.000000 -0.000000 0.000000 
0.000000 0.000000 0.000000 

-0.000000 0.000000 0.000000 
0.000000 -0.000000 0.000000 
0.000000 0.000000 0.000000 

0.000000 0.000000 0.000000 
0.000000 -0.000000 0.000000 
0.000000 0.000000 0.000000 

0.000000 -0.000000 0.000000 
0.000000 -0.000000 0.000000 
0.000000 0.000000 0.000000 

0.000000 -0.000000 0.000000 
0.000000 -0.000000 0.000000 
0.000000 0.000000 0.000000 

0.000000 0.000000 0.000000 
0.000000 -0.000000 0.000000 
0.000000 0.000000 0.000000 

0.000000 0.000000 0.000000 
0.000000 -0.000000 0.000000 
0.000000 0.000000 0.000000 

0.000000 0.000000 0.000000 
0.000000 0.000000 0.000000 
0.000000 0.000000 0.000000 

0.000000 0.000000 0.000000 
0.000000 0.000000 0.000000 
0.000000 0.000000 0.000000 

0.000000 0.000000 0.000000 
0.000000 0.000000 0.000000 
0.000000 0.000000 0.000000 

0.000000 0.000000 0.000000 
0.000000 0.000000 0.000000 
0.000000 0.000000 0.000000 

0.000000 0.000000 0.000000 
0.000000 0.000000 0.000000 
0.000000 0.000000 0.000000 

0.000000 0.000000 0.000000 
0.000000 0.000000 0.000000 
0.000000 0.000000 0.000000 

-0.000000 0.000000 0.000000 
0.000000 0.000000 0.000000 
0.000000 0.000000 0.000000 

-0.000000 -0.000000 0.000000 
0.000000 0.000000 0.000000 
0.000000 0.000000 0.000000 

-0.000000 -0.000000 0.000000 
0.000000 -0.000000 0.000000 
0.000000 0.000000 0.000000 

-0.000000 -0.000000 0.000000 
0.000000 -0.000000 0.000000 
0.000000 0.000000 0.000000 

0.000000 0.000000 0.000000 
0.000000 0.000000 0.000000 
0.000000 0.000000 0.000000 

-0.000000 0.000000 0.000000 
0.000000 0.000000 0.000000 
0.000000 0.000000 0.000000 

-0.000000 0.000000 0.000000 
0.000000 0.000000 0.000000 
0.000000 0.000000 0.000000 

-0.000000 -0.000000 0.000000 
0.000000 0.000000 0.000000 
0.000000 0.000000 0.000000 

0.000000 -0.000000 0.000000 
0.000000 -0.000000 0.000000 
0.000000 0.000000 0.000000 

-0.000000 -0.000000 0.000000 
0.000000 -0.000000 0.000000 
0.000000 0.000000 0.000000 

-0.000000 -0.000000 0.000000 
0.000000 -0.000000 0.000000 
0.000000 0.000000 0.000000 

-0.000000 -0.000000 0.000000 
0.000000 -0.000000 0.000000 
0.000000 0.000000 0.000000 

-0.000000 0.000000 0.000000 
0.000000 0.000000 0.000000 
0.000000 0.000000 0.000000 

-0.000000 0.000000 0.000000 
0.000000 -0.000000 0.000000 
0.000000 0.000000 0.000000 

-0.000000 0.000000 0.000000 
0.000000 0.000000 0.000000 
0.000000 0.000000 0.000000 

0.000000 -0.000000 0.000000 
0.000000 -0.000000 0.000000 
0.000000 0.000000 0.000000 

0.000000 -0.000000 0.000000 
0.000000 -0.000000 0.000000 
0.000000 0.000000 0.000000 

-0.000000 0.000000 0.000000 
0.000000 0.000000 0.000000 
0.000000 0.000000 0.000000 

-0.000000 0.000000 0.000000 
0.000000 -0.000000 0.000000 
0.000000 0.000000 0.000000 

0.000000 0.000000 0.000000 
0.000000 -0.000000 0.000000 
0.000000 0.000000 0.000000 

0.000000 0.000000 0.000000 
0.000000 -0.000000 0.000000 
0.000000 0.000000 0.000000 

-0.000000 0.000000 0.000000 
0.000000 0.000000 0.000000 
0.000000 0.000000 0.000000 

-0.000000 0.000000 0.000000 
0.000000 0.000000 0.000000 
0.000000 0.000000 0.000000 

0.000000 -0.000000 0.000000 
0.000000 -0.000000 0.000000 
0.000000 0.000000 0.000000 

0.000000 -0.000000 0.000000 
0.000000 0.000000 0.000000 
0.000000 0.000000 0.000000 

0.000000 0.000000 0.000000 
0.000000 0.000000 0.000000 
0.000000 0.000000 0.000000 

0.000000 0.000000 0.000000 
0.000000 -0.000000 0.000000 
0.000000 0.000000 0.000000 

0.000000 0.000000 0.000000 
0.000000 0.000000 0.000000 
0.000000 0.000000 0.000000 

-0.000000 0.000000 0.000000 
0.000000 0.000000 0.000000 
0.000000 0.000000 0.000000 

-0.000000 0.000000 0.000000 
0.000000 0.000000 0.000000 
0.000000 0.000000 0.000000 

-0.000000 0.000000 0.000000 
0.000000 0.000000 0.000000 
0.000000 0.000000 0.000000 

0.000000 0.000000 0.000000 
0.000000 -0.000000 0.000000 
0.000000 0.000000 0.000000 

0.000000 -0.000000 0.000000 
0.000000 -0.000000 0.000000 
0.000000 0.000000 0.000000 

0.000000 0.000000 0.000000 
0.000000 -0.000000 0.000000 
0.000000 0.000000 0.000000 

0.000000 -0.000000 0.000000 
0.000000 -0.000000 0.000000 
0.000000 0.000000 0.000000 

-0.000000 0.000000 0.000000 
0.000000 0.000000 0.000000 
0.000000 0.000000 0.000000 

-0.000000 0.000000 0.000000 
0.000000 0.000000 0.000000 
0.000000 0.000000 0.000000 

-0.000000 0.000000 0.000000 
0.000000 0.000000 0.000000 
0.000000 0.000000 0.000000 

-0.000000 0.000000 0.000000 
0.000000 0.000000 0.000000 
0.000000 0.000000 0.000000 

0.000000 0.000000 0.000000 
0.000000 -0.000000 0.000000 
0.000000 0.000000 0.000000 

0.000000 -0.000000 0.000000 
0.000000 -0.000000 0.000000 
0.000000 0.000000 0.000000 

0.000000 0.000000 0.000000 
0.000000 -0.000000 0.000000 
0.000000 0.000000 0.000000 

0.000000 -0.000000 0.000000 
0.000000 -0.000000 0.000000 
0.000000 0.000000 0.000000 

0.000000 0.000000 0.000000 
0.000000 -0.000000 0.000000 
0.000000 0.000000 0.000000 

0.000000 -0.000000 0.000000 
0.000000 0.000000 0.000000 
0.000000 0.000000 0.000000 

0.000000 -0.000000 0.000000 
0.000000 -0.000000 0.000000 
0.000000 0.000000 0.000000 

0.000000 0.000000 0.000000 
0.000000 -0.000000 0.000000 
0.000000 0.000000 0.000000 

-0.000000 -0.000000 0.000000 
0.000000 -0.000000 0.000000 
0.000000 0.000000 0.000000 

0.000000 -0.000000 0.000000 
0.000000 -0.000000 0.000000 
0.000000 0.000000 0.000000 

-0.000000 -0.000000 0.000000 
0.000000 -0.000000 0.000000 
0.000000 0.000000 0.000000 

-0.000000 -0.000000 0.000000 
0.000000 -0.000000 0.000000 
0.000000 0.000000 0.000000 

-0.000000 -0.000000 0.000000 
0.000000 -0.000000 0.000000 
0.000000 0.000000 0.000000 

-0.000000 -0.000000 0.000000 
0.000000 -0.000000 0.000000 
0.000000 0.000000 0.000000 

0.000000 -0.000000 0.000000 
0.000000 -0.000000 0.000000 
0.000000 0.000000 0.000000 

0.000000 -0.000000 0.000000 
0.000000 -0.000000 0.000000 
0.000000 0.000000 0.000000 

0.000000 -0.000000 0.000000 
0.000000 -0.000000 0.000000 
0.000000 0.000000 0.000000 

0.000000 -0.000000 0.000000 
0.000000 -0.000000 0.000000 
0.000000 0.000000 0.000000 

0.000000 0.000000 0.000000 
0.000000 -0.000000 0.000000 
0.000000 0.000000 0.000000 

0.000000 0.000000 0.000000 
0.000000 -0.000000 0.000000 
0.000000 0.000000 0.000000 

0.000000 0.000000 0.000000 
0.000000 -0.000000 0.000000 
0.000000 0.000000 0.000000 

-0.000000 0.000000 0.000000 
0.000000 -0.000000 0.000000 
0.000000 0.000000 0.000000 

0.000000 0.000000 0.000000 
0.000000 -0.000000 0.000000 
0.000000 0.000000 0.000000 

0.000000 0.000000 0.000000 
0.000000 -0.000000 0.000000 
0.000000 0.000000 0.000000 

-0.000000 -0.000000 0.000000 
0.000000 0.000000 0.000000 
0.000000 0.000000 0.000000 

-0.000000 -0.000000 0.000000 
0.000000 0.000000 0.000000 
0.000000 0.000000 0.000000 

-0.000000 0.000000 0.000000 
0.000000 0.000000 0.000000 
0.000000 0.000000 0.000000 

-0.000000 -0.000000 0.000000 
0.000000 0.000000 0.000000 
0.000000 0.000000 0.000000 

-0.000000 -0.000000 0.000000 
0.000000 0.000000 0.000000 
0.000000 0.000000 0.000000 

-0.000000 0.000000 0.000000 
0.000000 -0.000000 0.000000 
0.000000 0.000000 0.000000 

-0.000000 -0.000000 0.000000 
0.000000 -0.000000 0.000000 
0.000000 0.000000 0.000000 

0.000000 0.000000 0.000000 
0.000000 -0.000000 0.000000 
0.000000 0.000000 0.000000 

0.000000 0.000000 0.000000 
0.000000 -0.000000 0.000000 
0.000000 0.000000 0.000000 

0.000000 -0.000000 0.000000 
0.000000 -0.000000 0.000000 
0.000000 0.000000 0.000000 

0.000000 -0.000000 0.000000 
0.000000 -0.000000 0.000000 
0.000000 0.000000 0.000000 

0.000000 -0.000000 0.000000 
0.000000 -0.000000 0.000000 
0.000000 0.000000 0.000000 

0.000000 -0.000000 0.000000 
0.000000 0.000000 0.000000 
0.000000 0.000000 0.000000 

0.000000 -0.000000 0.000000 
0.000000 -0.000000 0.000000 
0.000000 0.000000 0.000000 

0.000000 0.000000 0.000000 
0.000000 -0.000000 0.000000 
0.000000 0.000000 0.000000 

-0.000000 0.000000 0.000000 
0.000000 -0.000000 0.000000 
0.000000 0.000000 0.000000 

-0.000000 0.000000 0.000000 
0.000000 -0.000000 0.000000 
0.000000 0.000000 0.000000 

0.000000 0.000000 0.000000 
0.000000 -0.000000 0.000000 
0.000000 0.000000 0.000000 

0.000000 0.000000 0.000000 
0.000000 -0.000000 0.000000 
0.000000 0.000000 0.000000 

0.000000 -0.000000 0.000000 
0.000000 0.000000 0.000000 
0.000000 0.000000 0.000000 

0.000000 -0.000000 0.000000 
0.000000 0.000000 0.000000 
0.000000 0.000000 0.000000 

0.000000 -0.000000 0.000000 
0.000000 -0.000000 0.000000 
0.000000 0.000000 0.000000 

0.000000 -0.000000 0.000000 
0.000000 -0.000000 0.000000 
0.000000 0.000000 0.000000 

0.000000 0.000000 0.000000 
0.000000 -0.000000 0.000000 
0.000000 0.000000 0.000000 

-0.000000 -0.000000 0.000000 
0.000000 -0.000000 0.000000 
0.000000 0.000000 0.000000 

-0.000000 -0.000000 0.000000 
0.000000 -0.000000 0.000000 
0.000000 0.000000 0.000000 

-0.000000 0.000000 0.000000 
0.000000 0.000000 0.000000 
0.000000 0.000000 0.000000 

-0.000000 -0.000000 0.000000 
0.000000 0.000000 0.000000 
0.000000 0.000000 0.000000 

-0.000000 -0.000000 0.000000 
0.000000 -0.000000 0.000000 
0.000000 0.000000 0.000000 

-0.000000 0.000000 0.000000 
0.000000 0.000000 0.000000 
0.000000 0.000000 0.000000 

-0.000000 -0.000000 0.000000 
0.000000 0.000000 0.000000 
0.000000 0.000000 0.000000 

-0.000000 -0.000000 0.000000 
0.000000 0.000000 0.000000 
0.000000 0.000000 0.000000 

0.000000 -0.000000 0.000000 
0.000000 -0.000000 0.000000 
0.000000 0.000000 0.000000 

-0.000000 0.000000 0.000000 
0.000000 -0.000000 0.000000 
0.000000 0.000000 0.000000 

0.000000 0.000000 0.000000 
0.000000 -0.000000 0.000000 
0.000000 0.000000 0.000000 

0.000000 0.000000 0.000000 
0.000000 0.000000 0.000000 
0.000000 0.000000 0.000000 

0.000000 0.000000 0.000000 
0.000000 -0.000000 0.000000 
0.000000 0.000000 0.000000 

0.000000 0.000000 0.000000 
0.000000 -0.000000 0.000000 
0.000000 0.000000 0.000000 

0.000000 0.000000 0.000000 
0.000000 -0.000000 0.000000 
0.000000 0.000000 0.000000 

0.000000 0.000000 0.000000 
0.000000 -0.000000 0.000000 
0.000000 0.000000 0.000000 

0.000000 0.000000 0.000000 
0.000000 -0.000000 0.000000 
0.000000 0.000000 0.000000 

0.000000 0.000000 0.000000 
0.000000 -0.000000 0.000000 
0.000000 0.000000 0.000000 

-0.000000 0.000000 0.000000 
0.000000 -0.000000 0.000000 
0.000000 0.000000 0.000000 

-0.000000 0.000000 0.000000 
0.000000 -0.000000 0.000000 
0.000000 0.000000 0.000000 

-0.000000 0.000000 0.000000 
0.000000 -0.000000 0.000000 
0.000000 0.000000 0.000000 

0.000000 -0.000000 0.000000 
0.000000 0.000000 0.000000 
0.000000 0.000000 0.000000 

0.000000 -0.000000 0.000000 
0.000000 0.000000 0.000000 
0.000000 0.000000 0.000000 

0.000000 0.000000 0.000000 
0.000000 -0.000000 0.000000 
0.000000 0.000000 0.000000 

0.000000 0.000000 0.000000 
0.000000 -0.000000 0.000000 
0.000000 0.000000 0.000000 

0.000000 0.000000 0.000000 
0.000000 -0.000000 0.000000 
0.000000 0.000000 0.000000 

0.000000 0.000000 0.000000 
0.000000 -0.000000 0.000000 
0.000000 0.000000 0.000000 

-0.000000 -0.000000 0.000000 
0.000000 0.000000 0.000000 
0.000000 0.000000 0.000000 

-0.000000 0.000000 0.000000 
0.000000 0.000000 0.000000 
0.000000 0.000000 0.000000 

0.000000 -0.000000 0.000000 
0.000000 -0.000000 0.000000 
0.000000 0.000000 0.000000 

0.000000 -0.000000 0.000000 
0.000000 -0.000000 0.000000 
0.000000 0.000000 0.000000 

0.000000 -0.000000 0.000000 
0.000000 -0.000000 0.000000 
0.000000 0.000000 0.000000 

0.000000 -0.000000 0.000000 
0.000000 -0.000000 0.000000 
0.000000 0.000000 0.000000 

0.000000 -0.000000 0.000000 
0.000000 -0.000000 0.000000 
0.000000 0.000000 0.000000 

0.000000 0.000000 0.000000 
0.000000 -0.000000 0.000000 
0.000000 0.000000 0.000000 

0.000000 0.000000 0.000000 
0.000000 -0.000000 0.000000 
0.000000 0.000000 0.000000 

0.000000 0.000000 0.000000 
0.000000 0.000000 0.000000 
0.000000 0.000000 0.000000 

0.000000 0.000000 0.000000 
0.000000 0.000000 0.000000 
0.000000 0.000000 0.000000 

0.000000 0.000000 0.000000 
0.000000 0.000000 0.000000 
0.000000 0.000000 0.000000 

0.000000 -0.000000 0.000000 
0.000000 0.000000 0.000000 
0.000000 0.000000 0.000000 

0.000000 0.000000 0.000000 
0.000000 0.000000 0.000000 
0.000000 0.000000 0.000000 

0.000000 0.000000 0.000000 
0.000000 0.000000 0.000000 
0.000000 0.000000 0.000000 

0.000000 0.000000 0.000000 
0.000000 0.000000 0.000000 
0.000000 0.000000 0.000000 

0.000000 0.000000 0.000000 
0.000000 0.000000 0.000000 
0.000000 0.000000 0.000000 

0.000000 0.000000 0.000000 
0.000000 -0.000000 0.000000 
0.000000 0.000000 0.000000 

0.000000 -0.000000 0.000000 
0.000000 -0.000000 0.000000 
0.000000 0.000000 0.000000 

0.000000 0.000000 0.000000 
0.000000 -0.000000 0.000000 
0.000000 0.000000 0.000000 

0.000000 0.000000 0.000000 
0.000000 -0.000000 0.000000 
0.000000 0.000000 0.000000 

0.000000 -0.000000 0.000000 
0.000000 -0.000000 0.000000 
0.000000 0.000000 0.000000 

0.000000 -0.000000 0.000000 
0.000000 0.000000 0.000000 
0.000000 0.000000 0.000000 

0.000000 -0.000000 0.000000 
0.000000 0.000000 0.000000 
0.000000 0.000000 0.000000 

0.000000 0.000000 0.000000 
0.000000 0.000000 0.000000 
0.000000 0.000000 0.000000 

0.000000 0.000000 0.000000 
0.000000 0.000000 0.000000 
0.000000 0.000000 0.000000 

0.000000 0.000000 0.000000 
0.000000 0.000000 0.000000 
0.000000 0.000000 0.000000 

0.000000 0.000000 0.000000 
0.000000 0.000000 0.000000 
0.000000 0.000000 0.000000 

0.000000 0.000000 0.000000 
0.000000 -0.000000 0.000000 
0.000000 0.000000 0.000000 

0.000000 0.000000 0.000000 
0.000000 -0.000000 0.000000 
0.000000 0.000000 0.000000 

0.000000 0.000000 0.000000 
0.000000 -0.000000 0.000000 
0.000000 0.000000 0.000000 

0.000000 0.000000 0.000000 
0.000000 0.000000 0.000000 
0.000000 0.000000 0.000000 

0.000000 0.000000 0.000000 
0.000000 -0.000000 0.000000 
0.000000 0.000000 0.000000 

0.000000 -0.000000 0.000000 
0.000000 -0.000000 0.000000 
0.000000 0.000000 0.000000 

0.000000 -0.000000 0.000000 
0.000000 0.000000 0.000000 
0.000000 0.000000 0.000000 

-0.000000 -0.000000 0.000000 
0.000000 0.000000 0.000000 
0.000000 0.000000 0.000000 

-0.000000 -0.000000 0.000000 
0.000000 0.000000 0.000000 
0.000000 0.000000 0.000000 

-0.000000 -0.000000 0.000000 
0.000000 -0.000000 0.000000 
0.000000 0.000000 0.000000 

-0.000000 -0.000000 0.000000 
0.000000 0.000000 0.000000 
0.000000 0.000000 0.000000 

-0.000000 -0.000000 0.000000 
0.000000 -0.000000 0.000000 
0.000000 0.000000 0.000000 

-0.000000 -0.000000 0.000000 
0.000000 -0.000000 0.000000 
0.000000 0.000000 0.000000 

-0.000000 -0.000000 0.000000 
0.000000 -0.000000 0.000000 
0.000000 0.000000 0.000000 

-0.000000 -0.000000 0.000000 
0.000000 -0.000000 0.000000 
0.000000 0.000000 0.000000 

0.000000 0.000000 0.000000 
0.000000 -0.000000 0.000000 
0.000000 0.000000 0.000000 

0.000000 0.000000 0.000000 
0.000000 -0.000000 0.000000 
0.000000 0.000000 0.000000 

0.000000 0.000000 0.000000 
0.000000 -0.000000 0.000000 
0.000000 0.000000 0.000000 

0.000000 0.000000 0.000000 
0.000000 0.000000 0.000000 
0.000000 0.000000 0.000000 

0.000000 0.000000 0.000000 
0.000000 -0.000000 0.000000 
0.000000 0.000000 0.000000 

0.000000 -0.000000 0.000000 
0.000000 -0.000000 0.000000 
0.000000 0.000000 0.000000 

0.000000 0.000000 0.000000 
0.000000 -0.000000 0.000000 
0.000000 0.000000 0.000000 

0.000000 0.000000 0.000000 
0.000000 -0.000000 0.000000 
0.000000 0.000000 0.000000 

0.000000 0.000000 0.000000 
0.000000 -0.000000 0.000000 
0.000000 0.000000 0.000000 

0.000000 0.000000 0.000000 
0.000000 -0.000000 0.000000 
0.000000 0.000000 0.000000 

0.000000 -0.000000 0.000000 
0.000000 0.000000 0.000000 
0.000000 0.000000 0.000000 

0.000000 0.000000 0.000000 
0.000000 -0.000000 0.000000 
0.000000 0.000000 0.000000 

0.000000 0.000000 0.000000 
0.000000 -0.000000 0.000000 
0.000000 0.000000 0.000000 

0.000000 -0.000000 0.000000 
0.000000 -0.000000 0.000000 
0.000000 0.000000 0.000000 

0.000000 -0.000000 0.000000 
0.000000 0.000000 0.000000 
0.000000 0.000000 0.000000 

0.000000 0.000000 0.000000 
0.000000 -0.000000 0.000000 
0.000000 0.000000 0.000000 

0.000000 -0.000000 0.000000 
0.000000 0.000000 0.000000 
0.000000 0.000000 0.000000 

0.000000 0.000000 0.000000 
0.000000 0.000000 0.000000 
0.000000 0.000000 0.000000 

0.000000 -0.000000 0.000000 
0.000000 -0.000000 0.000000 
0.000000 0.000000 0.000000 

0.000000 0.000000 0.000000 
0.000000 -0.000000 0.000000 
0.000000 0.000000 0.000000 

0.000000 -0.000000 0.000000 
0.000000 -0.000000 0.000000 
0.000000 0.000000 0.000000 

0.000000 0.000000 0.000000 
0.000000 -0.000000 0.000000 
0.000000 0.000000 0.000000 

0.000000 0.000000 0.000000 
0.000000 -0.000000 0.000000 
0.000000 0.000000 0.000000 

-0.000000 -0.000000 0.000000 
0.000000 0.000000 0.000000 
0.000000 0.000000 0.000000 

-0.000000 -0.000000 0.000000 
0.000000 0.000000 0.000000 
0.000000 0.000000 0.000000 

-0.000000 -0.000000 0.000000 
0.000000 -0.000000 0.000000 
0.000000 0.000000 0.000000 

-0.000000 -0.000000 0.000000 
0.000000 -0.000000 0.000000 
0.000000 0.000000 0.000000 

-0.000000 -0.000000 0.000000 
0.000000 -0.000000 0.000000 
0.000000 0.000000 0.000000 

0.000000 0.000000 0.000000 
0.000000 -0.000000 0.000000 
0.000000 0.000000 0.000000 

0.000000 0.000000 0.000000 
0.000000 0.000000 0.000000 
0.000000 0.000000 0.000000 

-0.000000 -0.000000 0.000000 
0.000000 0.000000 0.000000 
0.000000 0.000000 0.000000 

-0.000000 -0.000000 0.000000 
0.000000 0.000000 0.000000 
0.000000 0.000000 0.000000 

-0.000000 0.000000 0.000000 
0.000000 -0.000000 0.000000 
0.000000 0.000000 0.000000 

-0.000000 0.000000 0.000000 
0.000000 -0.000000 0.000000 
0.000000 0.000000 0.000000 

-0.000000 0.000000 0.000000 
0.000000 -0.000000 0.000000 
0.000000 0.000000 0.000000 

-0.000000 -0.000000 0.000000 
0.000000 -0.000000 0.000000 
0.000000 0.000000 0.000000 

-0.000000 -0.000000 0.000000 
0.000000 -0.000000 0.000000 
0.000000 0.000000 0.000000 

-0.000000 0.000000 0.000000 
0.000000 -0.000000 0.000000 
0.000000 0.000000 0.000000 

-0.000000 -0.000000 0.000000 
0.000000 0.000000 0.000000 
0.000000 0.000000 0.000000 

-0.000000 -0.000000 0.000000 
0.000000 0.000000 0.000000 
0.000000 0.000000 0.000000 

-0.000000 0.000000 0.000000 
0.000000 -0.000000 0.000000 
0.000000 0.000000 0.000000 

0.000000 0.000000 0.000000 
0.000000 0.000000 0.000000 
0.000000 0.000000 0.000000 

-0.000000 0.000000 0.000000 
0.000000 0.000000 0.000000 
0.000000 0.000000 0.000000 

-0.000000 0.000000 0.000000 
0.000000 0.000000 0.000000 
0.000000 0.000000 0.000000 

0.000000 -0.000000 0.000000 
0.000000 -0.000000 0.000000 
0.000000 0.000000 0.000000 

0.000000 0.000000 0.000000 
0.000000 -0.000000 0.000000 
0.000000 0.000000 0.000000 

0.000000 0.000000 0.000000 
0.000000 -0.000000 0.000000 
0.000000 0.000000 0.000000 

0.000000 0.000000 0.000000 
0.000000 -0.000000 0.000000 
0.000000 0.000000 0.000000 

0.000000 0.000000 0.000000 
0.000000 0.000000 0.000000 
0.000000 0.000000 0.000000 

0.000000 0.000000 0.000000 
0.000000 -0.000000 0.000000 
0.000000 0.000000 0.000000 

0.000000 0.000000 0.000000 
0.000000 -0.000000 0.000000 
0.000000 0.000000 0.000000 

-0.000000 0.000000 0.000000 
0.000000 -0.000000 0.000000 
0.000000 0.000000 0.000000 

0.000000 0.000000 0.000000 
0.000000 -0.000000 0.000000 
0.000000 0.000000 0.000000 

0.000000 -0.000000 0.000000 
0.000000 -0.000000 0.000000 
0.000000 0.000000 0.000000 

0.000000 0.000000 0.000000 
0.000000 -0.000000 0.000000 
0.000000 0.000000 0.000000 

0.000000 0.000000 0.000000 
0.000000 0.000000 0.000000 
0.000000 0.000000 0.000000 

0.000000 -0.000000 0.000000 
0.000000 0.000000 0.000000 
0.000000 0.000000 0.000000 

0.000000 -0.000000 0.000000 
0.000000 0.000000 0.000000 
0.000000 0.000000 0.000000 

-0.000000 -0.000000 0.000000 
0.000000 0.000000 0.000000 
0.000000 0.000000 0.000000 

-0.000000 0.000000 0.000000 
0.000000 0.000000 0.000000 
0.000000 0.000000 0.000000 

-0.000000 -0.000000 0.000000 
0.000000 -0.000000 0.000000 
0.000000 0.000000 0.000000 

-0.000000 0.000000 0.000000 
0.000000 0.000000 0.000000 
0.000000 0.000000 0.000000 

-0.000000 -0.000000 0.000000 
0.000000 0.000000 0.000000 
0.000000 0.000000 0.000000 

-0.000000 0.000000 0.000000 
0.000000 0.000000 0.000000 
0.000000 0.000000 0.000000 

-0.000000 -0.000000 0.000000 
0.000000 -0.000000 0.000000 
0.000000 0.000000 0.000000 

-0.000000 -0.000000 0.000000 
0.000000 0.000000 0.000000 
0.000000 0.000000 0.000000 

0.000000 0.000000 0.000000 
0.000000 0.000000 0.000000 
0.000000 0.000000 0.000000 

-0.000000 0.000000 0.000000 
0.000000 0.000000 0.000000 
0.000000 0.000000 0.000000 

-0.000000 0.000000 0.000000 
0.000000 0.000000 0.000000 
0.000000 0.000000 0.000000 

-0.000000 0.000000 0.000000 
0.000000 0.000000 0.000000 
0.000000 0.000000 0.000000 

-0.000000 0.000000 0.000000 
0.000000 -0.000000 0.000000 
0.000000 0.000000 0.000000 

-0.000000 0.000000 0.000000 
0.000000 0.000000 0.000000 
0.000000 0.000000 0.000000 

-0.000000 0.000000 0.000000 
0.000000 0.000000 0.000000 
0.000000 0.000000 0.000000 

-0.000000 0.000000 0.000000 
0.000000 0.000000 0.000000 
0.000000 0.000000 0.000000 

-0.000000 0.000000 0.000000 
0.000000 0.000000 0.000000 
0.000000 0.000000 0.000000 

0.000000 -0.000000 0.000000 
0.000000 0.000000 0.000000 
0.000000 0.000000 0.000000 

0.000000 -0.000000 0.000000 
0.000000 -0.000000 0.000000 
0.000000 0.000000 0.000000 

0.000000 -0.000000 0.000000 
0.000000 -0.000000 0.000000 
0.000000 0.000000 0.000000 

0.000000 0.000000 0.000000 
0.000000 -0.000000 0.000000 
0.000000 0.000000 0.000000 

0.000000 -0.000000 0.000000 
0.000000 -0.000000 0.000000 
0.000000 0.000000 0.000000 

0.000000 -0.000000 0.000000 
0.000000 -0.000000 0.000000 
0.000000 0.000000 0.000000 

0.000000 0.000000 0.000000 
0.000000 0.000000 0.000000 
0.000000 0.000000 0.000000 

0.000000 0.000000 0.000000 
0.000000 0.000000 0.000000 
0.000000 0.000000 0.000000 

0.000000 0.000000 0.000000 
0.000000 0.000000 0.000000 
0.000000 0.000000 0.000000 

-0.000000 0.000000 0.000000 
0.000000 0.000000 0.000000 
0.000000 0.000000 0.000000 

-0.000000 0.000000 0.000000 
0.000000 0.000000 0.000000 
0.000000 0.000000 0.000000 

-0.000000 -0.000000 0.000000 
0.000000 0.000000 0.000000 
0.000000 0.000000 0.000000 

-0.000000 -0.000000 0.000000 
0.000000 0.000000 0.000000 
0.000000 0.000000 0.000000 

-0.000000 0.000000 0.000000 
0.000000 0.000000 0.000000 
0.000000 0.000000 0.000000 

-0.000000 0.000000 0.000000 
0.000000 0.000000 0.000000 
0.000000 0.000000 0.000000 

0.000000 0.000000 0.000000 
0.000000 0.000000 0.000000 
0.000000 0.000000 0.000000 

0.000000 0.000000 0.000000 
0.000000 -0.000000 0.000000 
0.000000 0.000000 0.000000 

-0.000000 -0.000000 0.000000 
0.000000 -0.000000 0.000000 
0.000000 0.000000 0.000000 

-0.000000 -0.000000 0.000000 
0.000000 -0.000000 0.000000 
0.000000 0.000000 0.000000 

-0.000000 -0.000000 0.000000 
0.000000 0.000000 0.000000 
0.000000 0.000000 0.000000 

-0.000000 -0.000000 0.000000 
0.000000 0.000000 0.000000 
0.000000 0.000000 0.000000 

-0.000000 -0.000000 0.000000 
0.000000 0.000000 0.000000 
0.000000 0.000000 0.000000 

-0.000000 -0.000000 0.000000 
0.000000 0.000000 0.000000 
0.000000 0.000000 0.000000 

-0.000000 -0.000000 0.000000 
0.000000 0.000000 0.000000 
0.000000 0.000000 0.000000 

-0.000000 -0.000000 0.000000 
0.000000 0.000000 0.000000 
0.000000 0.000000 0.000000 

-0.000000 0.000000 0.000000 
0.000000 -0.000000 0.000000 
0.000000 0.000000 0.000000 

-0.000000 -0.000000 0.000000 
0.000000 -0.000000 0.000000 
0.000000 0.000000 0.000000 

-0.000000 0.000000 0.000000 
0.000000 0.000000 0.000000 
0.000000 0.000000 0.000000 

-0.000000 0.000000 0.000000 
0.000000 0.000000 0.000000 
0.000000 0.000000 0.000000 

-0.000000 0.000000 0.000000 
0.000000 -0.000000 0.000000 
0.000000 0.000000 0.000000 

-0.000000 0.000000 0.000000 
0.000000 0.000000 0.000000 
0.000000 0.000000 0.000000 

-0.000000 -0.000000 0.000000 
0.000000 0.000000 0.000000 
0.000000 0.000000 0.000000 

-0.000000 -0.000000 0.000000 
0.000000 0.000000 0.000000 
0.000000 0.000000 0.000000 

-0.000000 -0.000000 0.000000 
0.000000 0.000000 0.000000 
0.000000 0.000000 0.000000 

-0.000000 -0.000000 0.000000 
0.000000 0.000000 0.000000 
0.000000 0.000000 0.000000 

-0.000000 0.000000 0.000000 
0.000000 0.000000 0.000000 
0.000000 0.000000 0.000000 

-0.000000 0.000000 0.000000 
0.000000 -0.000000 0.000000 
0.000000 0.000000 0.000000 

-0.000000 0.000000 0.000000 
0.000000 -0.000000 0.000000 
0.000000 0.000000 0.000000 

-0.000000 0.000000 0.000000 
0.000000 0.000000 0.000000 
0.000000 0.000000 0.000000 

-0.000000 0.000000 0.000000 
0.000000 -0.000000 0.000000 
0.000000 0.000000 0.000000 

-0.000000 0.000000 0.000000 
0.000000 0.000000 0.000000 
0.000000 0.000000 0.000000 

0.000000 0.000000 0.000000 
0.000000 -0.000000 0.000000 
0.000000 0.000000 0.000000 

0.000000 -0.000000 0.000000 
0.000000 0.000000 0.000000 
0.000000 0.000000 0.000000 

0.000000 -0.000000 0.000000 
0.000000 0.000000 0.000000 
0.000000 0.000000 0.000000 

0.000000 0.000000 0.000000 
0.000000 -0.000000 0.000000 
0.000000 0.000000 0.000000 

-0.000000 0.000000 0.000000 
0.000000 0.000000 0.000000 
0.000000 0.000000 0.000000 

-0.000000 0.000000 0.000000 
0.000000 0.000000 0.000000 
0.000000 0.000000 0.000000 

-0.000000 0.000000 0.000000 
0.000000 0.000000 0.000000 
0.000000 0.000000 0.000000 

-0.000000 0.000000 0.000000 
0.000000 0.000000 0.000000 
0.000000 0.000000 0.000000 

0.000000 0.000000 0.000000 
0.000000 0.000000 0.000000 
0.000000 0.000000 0.000000 

0.000000 0.000000 0.000000 
0.000000 0.000000 0.000000 
0.000000 0.000000 0.000000 

0.000000 0.000000 0.000000 
0.000000 0.000000 0.000000 
0.000000 0.000000 0.000000 

0.000000 0.000000 0.000000 
0.000000 0.000000 0.000000 
0.000000 0.000000 0.000000 

0.000000 -0.000000 0.000000 
0.000000 -0.000000 0.000000 
0.000000 0.000000 0.000000 

-0.000000 -0.000000 0.000000 
0.000000 -0.000000 0.000000 
0.000000 0.000000 0.000000 

-0.000000 -0.000000 0.000000 
0.000000 -0.000000 0.000000 
0.000000 0.000000 0.000000 

0.000000 -0.000000 0.000000 
0.000000 -0.000000 0.000000 
0.000000 0.000000 0.000000 

-0.000000 -0.000000 0.000000 
0.000000 0.000000 0.000000 
0.000000 0.000000 0.000000 

-0.000000 -0.000000 0.000000 
0.000000 -0.000000 0.000000 
0.000000 0.000000 0.000000 

-0.000000 -0.000000 0.000000 
0.000000 -0.000000 0.000000 
0.000000 0.000000 0.000000 

-0.000000 0.000000 0.000000 
0.000000 0.000000 0.000000 
0.000000 0.000000 0.000000 

-0.000000 0.000000 0.000000 
0.000000 0.000000 0.000000 
0.000000 0.000000 0.000000 

-0.000000 -0.000000 0.000000 
0.000000 0.000000 0.000000 
0.000000 0.000000 0.000000 

-0.000000 0.000000 0.000000 
0.000000 0.000000 0.000000 
0.000000 0.000000 0.000000 

-0.000000 0.000000 0.000000 
0.000000 0.000000 0.000000 
0.000000 0.000000 0.000000 

0.000000 0.000000 0.000000 
0.000000 0.000000 0.000000 
0.000000 0.000000 0.000000 

0.000000 0.000000 0.000000 
0.000000 0.000000 0.000000 
0.000000 0.000000 0.000000 

0.000000 0.000000 0.000000 
0.000000 0.000000 0.000000 
0.000000 0.000000 0.000000 

0.000000 -0.000000 0.000000 
0.000000 0.000000 0.000000 
0.000000 0.000000 0.000000 

0.000000 0.000000 0.000000 
0.000000 -0.000000 0.000000 
0.000000 0.000000 0.000000 

0.000000 0.000000 0.000000 
0.000000 -0.000000 0.000000 
0.000000 0.000000 0.000000 

0.000000 -0.000000 0.000000 
0.000000 -0.000000 0.000000 
0.000000 0.000000 0.000000 

0.000000 -0.000000 0.000000 
0.000000 -0.000000 0.000000 
0.000000 0.000000 0.000000 

-0.000000 -0.000000 0.000000 
0.000000 -0.000000 0.000000 
0.000000 0.000000 0.000000 

-0.000000 -0.000000 0.000000 
0.000000 -0.000000 0.000000 
0.000000 0.000000 0.000000 

0.000000 0.000000 0.000000 
0.000000 -0.000000 0.000000 
0.000000 0.000000 0.000000 

0.000000 0.000000 0.000000 
0.000000 -0.000000 0.000000 
0.000000 0.000000 0.000000 

-0.000000 0.000000 0.000000 
0.000000 0.000000 0.000000 
0.000000 0.000000 0.000000 

0.000000 0.000000 0.000000 
0.000000 -0.000000 0.000000 
0.000000 0.000000 0.000000 

0.000000 0.000000 0.000000 
0.000000 -0.000000 0.000000 
0.000000 0.000000 0.000000 

0.000000 0.000000 0.000000 
0.000000 -0.000000 0.000000 
0.000000 0.000000 0.000000 

0.000000 0.000000 0.000000 
0.000000 -0.000000 0.000000 
0.000000 0.000000 0.000000 

0.000000 0.000000 0.000000 
0.000000 -0.000000 0.000000 
0.000000 0.000000 0.000000 

0.000000 0.000000 0.000000 
0.000000 -0.000000 0.000000 
0.000000 0.000000 0.000000 

0.000000 0.000000 0.000000 
0.000000 -0.000000 0.000000 
0.000000 0.000000 0.000000 

-0.000000 -0.000000 0.000000 
0.000000 0.000000 0.000000 
0.000000 0.000000 0.000000 

-0.000000 -0.000000 0.000000 
0.000000 0.000000 0.000000 
0.000000 0.000000 0.000000 

-0.000000 0.000000 0.000000 
0.000000 0.000000 0.000000 
0.000000 0.000000 0.000000 

-0.000000 -0.000000 0.000000 
0.000000 0.000000 0.000000 
0.000000 0.000000 0.000000 

-0.000000 -0.000000 0.000000 
0.000000 0.000000 0.000000 
0.000000 0.000000 0.000000 

-0.000000 0.000000 0.000000 
0.000000 0.000000 0.000000 
0.000000 0.000000 0.000000 

-0.000000 0.000000 0.000000 
0.000000 0.000000 0.000000 
0.000000 0.000000 0.000000 

-0.000000 0.000000 0.000000 
0.000000 0.000000 0.000000 
0.000000 0.000000 0.000000 

0.000000 0.000000 0.000000 
0.000000 0.000000 0.000000 
0.000000 0.000000 0.000000 

0.000000 0.000000 0.000000 
0.000000 0.000000 0.000000 
0.000000 0.000000 0.000000 

-0.000000 0.000000 0.000000 
0.000000 0.000000 0.000000 
0.000000 0.000000 0.000000 

-0.000000 -0.000000 0.000000 
0.000000 -0.000000 0.000000 
0.000000 0.000000 0.000000 

-0.000000 0.000000 0.000000 
0.000000 0.000000 0.000000 
0.000000 0.000000 0.000000 

0.000000 0.000000 0.000000 
0.000000 -0.000000 0.000000 
0.000000 0.000000 0.000000 

0.000000 0.000000 0.000000 
0.000000 -0.000000 0.000000 
0.000000 0.000000 0.000000 

0.000000 0.000000 0.000000 
0.000000 0.000000 0.000000 
0.000000 0.000000 0.000000 

-0.000000 -0.000000 0.000000 
0.000000 0.000000 0.000000 
0.000000 0.000000 0.000000 

0.000000 0.000000 0.000000 
0.000000 0.000000 0.000000 
0.000000 0.000000 0.000000 

-0.000000 0.000000 0.000000 
0.000000 0.000000 0.000000 
0.000000 0.000000 0.000000 

-0.000000 -0.000000 0.000000 
0.000000 0.000000 0.000000 
0.000000 0.000000 0.000000 

-0.000000 -0.000000 0.000000 
0.000000 -0.000000 0.000000 
0.000000 0.000000 0.000000 

-0.000000 -0.000000 0.000000 
0.000000 -0.000000 0.000000 
0.000000 0.000000 0.000000 

-0.000000 -0.000000 0.000000 
0.000000 -0.000000 0.000000 
0.000000 0.000000 0.000000 

0.000000 0.000000 0.000000 
0.000000 -0.000000 0.000000 
0.000000 0.000000 0.000000 

-0.000000 -0.000000 0.000000 
0.000000 -0.000000 0.000000 
0.000000 0.000000 0.000000 

-0.000000 -0.000000 0.000000 
0.000000 -0.000000 0.000000 
0.000000 0.000000 0.000000 

-0.000000 0.000000 0.000000 
0.000000 0.000000 0.000000 
0.000000 0.000000 0.000000 

-0.000000 0.000000 0.000000 
0.000000 -0.000000 0.000000 
0.000000 0.000000 0.000000 

0.000000 0.000000 0.000000 
0.000000 -0.000000 0.000000 
0.000000 0.000000 0.000000 

0.000000 -0.000000 0.000000 
0.000000 -0.000000 0.000000 
0.000000 0.000000 0.000000 

0.000000 -0.000000 0.000000 
0.000000 -0.000000 0.000000 
0.000000 0.000000 0.000000 

0.000000 0.000000 0.000000 
0.000000 -0.000000 0.000000 
0.000000 0.000000 0.000000 

0.000000 0.000000 0.000000 
0.000000 -0.000000 0.000000 
0.000000 0.000000 0.000000 

0.000000 0.000000 0.000000 
0.000000 -0.000000 0.000000 
0.000000 0.000000 0.000000 

0.000000 -0.000000 0.000000 
0.000000 -0.000000 0.000000 
0.000000 0.000000 0.000000 

-0.000000 0.000000 0.000000 
0.000000 -0.000000 0.000000 
0.000000 0.000000 0.000000 

-0.000000 0.000000 0.000000 
0.000000 0.000000 0.000000 
0.000000 0.000000 0.000000 

-0.000000 0.000000 0.000000 
0.000000 -0.000000 0.000000 
0.000000 0.000000 0.000000 

-0.000000 0.000000 0.000000 
0.000000 -0.000000 0.000000 
0.000000 0.000000 0.000000 

-0.000000 0.000000 0.000000 
0.000000 -0.000000 0.000000 
0.000000 0.000000 0.000000 

-0.000000 0.000000 0.000000 
0.000000 -0.000000 0.000000 
0.000000 0.000000 0.000000 

-0.000000 0.000000 0.000000 
0.000000 -0.000000 0.000000 
0.000000 0.000000 0.000000 

-0.000000 0.000000 0.000000 
0.000000 -0.000000 0.000000 
0.000000 0.000000 0.000000 

-0.000000 0.000000 0.000000 
0.000000 -0.000000 0.000000 
0.000000 0.000000 0.000000 

0.000000 0.000000 0.000000 
0.000000 -0.000000 0.000000 
0.000000 0.000000 0.000000 

0.000000 0.000000 0.000000 
0.000000 0.000000 0.000000 
0.000000 0.000000 0.000000 

0.000000 0.000000 0.000000 
0.000000 0.000000 0.000000 
0.000000 0.000000 0.000000 

0.000000 0.000000 0.000000 
0.000000 0.000000 0.000000 
0.000000 0.000000 0.000000 

0.000000 0.000000 0.000000 
0.000000 0.000000 0.000000 
0.000000 0.000000 0.000000 

-0.000000 0.000000 0.000000 
0.000000 0.000000 0.000000 
0.000000 0.000000 0.000000 

-0.000000 -0.000000 0.000000 
0.000000 0.000000 0.000000 
0.000000 0.000000 0.000000 

-0.000000 -0.000000 0.000000 
0.000000 -0.000000 0.000000 
0.000000 0.000000 0.000000 

-0.000000 0.000000 0.000000 
0.000000 -0.000000 0.000000 
0.000000 0.000000 0.000000 

0.000000 -0.000000 0.000000 
0.000000 -0.000000 0.000000 
0.000000 0.000000 0.000000 

0.000000 -0.000000 0.000000 
0.000000 0.000000 0.000000 
0.000000 0.000000 0.000000 

0.000000 -0.000000 0.000000 
0.000000 0.000000 0.000000 
0.000000 0.000000 0.000000 

-0.000000 -0.000000 0.000000 
0.000000 0.000000 0.000000 
0.000000 0.000000 0.000000 

-0.000000 -0.000000 0.000000 
0.000000 0.000000 0.000000 
0.000000 0.000000 0.000000 

0.000000 0.000000 0.000000 
0.000000 -0.000000 0.000000 
0.000000 0.000000 0.000000 

0.000000 0.000000 0.000000 
0.000000 -0.000000 0.000000 
0.000000 0.000000 0.000000 

0.000000 0.000000 0.000000 
0.000000 -0.000000 0.000000 
0.000000 0.000000 0.000000 

-0.000000 -0.000000 0.000000 
0.000000 -0.000000 0.000000 
0.000000 0.000000 0.000000 

-0.000000 -0.000000 0.000000 
0.000000 -0.000000 0.000000 
0.000000 0.000000 0.000000 

-0.000000 -0.000000 0.000000 
0.000000 0.000000 0.000000 
0.000000 0.000000 0.000000 

0.000000 0.000000 0.000000 
0.000000 -0.000000 0.000000 
0.000000 0.000000 0.000000 

-0.000000 -0.000000 0.000000 
0.000000 0.000000 0.000000 
0.000000 0.000000 0.000000 

-0.000000 -0.000000 0.000000 
0.000000 0.000000 0.000000 
0.000000 0.000000 0.000000 

-0.000000 -0.000000 0.000000 
0.000000 0.000000 0.000000 
0.000000 0.000000 0.000000 

-0.000000 -0.000000 0.000000 
0.000000 -0.000000 0.000000 
0.000000 0.000000 0.000000 

0.000000 0.000000 0.000000 
0.000000 -0.000000 0.000000 
0.000000 0.000000 0.000000 

0.000000 0.000000 0.000000 
0.000000 -0.000000 0.000000 
0.000000 0.000000 0.000000 

-0.000000 0.000000 0.000000 
0.000000 0.000000 0.000000 
0.000000 0.000000 0.000000 

0.000000 0.000000 0.000000 
0.000000 0.000000 0.000000 
0.000000 0.000000 0.000000 

0.000000 0.000000 0.000000 
0.000000 0.000000 0.000000 
0.000000 0.000000 0.000000 

0.000000 0.000000 0.000000 
0.000000 0.000000 0.000000 
0.000000 0.000000 0.000000 

-0.000000 0.000000 0.000000 
0.000000 0.000000 0.000000 
0.000000 0.000000 0.000000 

0.000000 -0.000000 0.000000 
0.000000 -0.000000 0.000000 
0.000000 0.000000 0.000000 

0.000000 -0.000000 0.000000 
0.000000 -0.000000 0.000000 
0.000000 0.000000 0.000000 

0.000000 0.000000 0.000000 
0.000000 -0.000000 0.000000 
0.000000 0.000000 0.000000 

0.000000 0.000000 0.000000 
0.000000 -0.000000 0.000000 
0.000000 0.000000 0.000000 

0.000000 0.000000 0.000000 
0.000000 -0.000000 0.000000 
0.000000 0.000000 0.000000 

-0.000000 0.000000 0.000000 
0.000000 0.000000 0.000000 
0.000000 0.000000 0.000000 

-0.000000 0.000000 0.000000 
0.000000 -0.000000 0.000000 
0.000000 0.000000 0.000000 

0.000000 0.000000 0.000000 
0.000000 -0.000000 0.000000 
0.000000 0.000000 0.000000 

0.000000 0.000000 0.000000 
0.000000 -0.000000 0.000000 
0.000000 0.000000 0.000000 

0.000000 -0.000000 0.000000 
0.000000 -0.000000 0.000000 
0.000000 0.000000 0.000000 

0.000000 0.000000 0.000000 
0.000000 -0.000000 0.000000 
0.000000 0.000000 0.000000 

0.000000 0.000000 0.000000 
0.000000 -0.000000 0.000000 
0.000000 0.000000 0.000000 

-0.000000 0.000000 0.000000 
0.000000 -0.000000 0.000000 
0.000000 0.000000 0.000000 

-0.000000 -0.000000 0.000000 
0.000000 -0.000000 0.000000 
0.000000 0.000000 0.000000 

0.000000 -0.000000 0.000000 
0.000000 0.000000 0.000000 
0.000000 0.000000 0.000000 

0.000000 -0.000000 0.000000 
0.000000 -0.000000 0.000000 
0.000000 0.000000 0.000000 

-0.000000 0.000000 0.000000 
0.000000 -0.000000 0.000000 
0.000000 0.000000 0.000000 

-0.000000 0.000000 0.000000 
0.000000 -0.000000 0.000000 
0.000000 0.000000 0.000000 

0.000000 -0.000000 0.000000 
0.000000 -0.000000 0.000000 
0.000000 0.000000 0.000000 

-0.000000 0.000000 0.000000 
0.000000 -0.000000 0.000000 
0.000000 0.000000 0.000000 

-0.000000 0.000000 0.000000 
0.000000 -0.000000 0.000000 
0.000000 0.000000 0.000000 

-0.000000 0.000000 0.000000 
0.000000 -0.000000 0.000000 
0.000000 0.000000 0.000000 

-0.000000 0.000000 0.000000 
0.000000 0.000000 0.000000 
0.000000 0.000000 0.000000 

0.000000 0.000000 0.000000 
0.000000 -0.000000 0.000000 
0.000000 0.000000 0.000000 

0.000000 0.000000 0.000000 
0.000000 -0.000000 0.000000 
0.000000 0.000000 0.000000 

0.000000 0.000000 0.000000 
0.000000 0.000000 0.000000 
0.000000 0.000000 0.000000 

-0.000000 0.000000 0.000000 
0.000000 -0.000000 0.000000 
0.000000 0.000000 0.000000 

-0.000000 0.000000 0.000000 
0.000000 0.000000 0.000000 
0.000000 0.000000 0.000000 

-0.000000 0.000000 0.000000 
0.000000 -0.000000 0.000000 
0.000000 0.000000 0.000000 

-0.000000 0.000000 0.000000 
0.000000 0.000000 0.000000 
0.000000 0.000000 0.000000 

0.000000 -0.000000 0.000000 
0.000000 -0.000000 0.000000 
0.000000 0.000000 0.000000 

-0.000000 0.000000 0.000000 
0.000000 0.000000 0.000000 
0.000000 0.000000 0.000000 

0.000000 0.000000 0.000000 
0.000000 0.000000 0.000000 
0.000000 0.000000 0.000000 

-0.000000 -0.000000 0.000000 
0.000000 0.000000 0.000000 
0.000000 0.000000 0.000000 

-0.000000 0.000000 0.000000 
0.000000 -0.000000 0.000000 
0.000000 0.000000 0.000000 

0.000000 0.000000 0.000000 
0.000000 -0.000000 0.000000 
0.000000 0.000000 0.000000 

-0.000000 0.000000 0.000000 
0.000000 -0.000000 0.000000 
0.000000 0.000000 0.000000 

-0.000000 -0.000000 0.000000 
0.000000 -0.000000 0.000000 
0.000000 0.000000 0.000000 

-0.000000 0.000000 0.000000 
0.000000 0.000000 0.000000 
0.000000 0.000000 0.000000 

-0.000000 0.000000 0.000000 
0.000000 -0.000000 0.000000 
0.000000 0.000000 0.000000 

-0.000000 -0.000000 0.000000 
0.000000 0.000000 0.000000 
0.000000 0.000000 0.000000 

0.000000 -0.000000 0.000000 
0.000000 0.000000 0.000000 
0.000000 0.000000 0.000000 

0.000000 0.000000 0.000000 
0.000000 0.000000 0.000000 
0.000000 0.000000 0.000000 

0.000000 0.000000 0.000000 
0.000000 0.000000 0.000000 
0.000000 0.000000 0.000000 

0.000000 0.000000 0.000000 
0.000000 -0.000000 0.000000 
0.000000 0.000000 0.000000 

-0.000000 -0.000000 0.000000 
0.000000 0.000000 0.000000 
0.000000 0.000000 0.000000 

-0.000000 0.000000 0.000000 
0.000000 -0.000000 0.000000 
0.000000 0.000000 0.000000 

-0.000000 -0.000000 0.000000 
0.000000 0.000000 0.000000 
0.000000 0.000000 0.000000 

-0.000000 0.000000 0.000000 
0.000000 0.000000 0.000000 
0.000000 0.000000 0.000000 

-0.000000 0.000000 0.000000 
0.000000 0.000000 0.000000 
0.000000 0.000000 0.000000 

-0.000000 0.000000 0.000000 
0.000000 0.000000 0.000000 
0.000000 0.000000 0.000000 

-0.000000 0.000000 0.000000 
0.000000 -0.000000 0.000000 
0.000000 0.000000 0.000000 

-0.000000 -0.000000 0.000000 
0.000000 0.000000 0.000000 
0.000000 0.000000 0.000000 

0.000000 0.000000 0.000000 
0.000000 0.000000 0.000000 
0.000000 0.000000 0.000000 

-0.000000 0.000000 0.000000 
0.000000 0.000000 0.000000 
0.000000 0.000000 0.000000 

0.000000 0.000000 0.000000 
0.000000 -0.000000 0.000000 
0.000000 0.000000 0.000000 

0.000000 0.000000 0.000000 
0.000000 -0.000000 0.000000 
0.000000 0.000000 0.000000 

0.000000 0.000000 0.000000 
0.000000 -0.000000 0.000000 
0.000000 0.000000 0.000000 

0.000000 -0.000000 0.000000 
0.000000 -0.000000 0.000000 
0.000000 0.000000 0.000000 

0.000000 0.000000 0.000000 
0.000000 -0.000000 0.000000 
0.000000 0.000000 0.000000 

0.000000 0.000000 0.000000 
0.000000 -0.000000 0.000000 
0.000000 0.000000 0.000000 

0.000000 -0.000000 0.000000 
0.000000 -0.000000 0.000000 
0.000000 0.000000 0.000000 

0.000000 0.000000 0.000000 
0.000000 -0.000000 0.000000 
0.000000 0.000000 0.000000 

0.000000 0.000000 0.000000 
0.000000 -0.000000 0.000000 
0.000000 0.000000 0.000000 

0.000000 0.000000 0.000000 
0.000000 -0.000000 0.000000 
0.000000 0.000000 0.000000 

0.000000 -0.000000 0.000000 
0.000000 -0.000000 0.000000 
0.000000 0.000000 0.000000 

0.000000 0.000000 0.000000 
0.000000 -0.000000 0.000000 
0.000000 0.000000 0.000000 

0.000000 0.000000 0.000000 
0.000000 -0.000000 0.000000 
0.000000 0.000000 0.000000 

0.000000 0.000000 0.000000 
0.000000 -0.000000 0.000000 
0.000000 0.000000 0.000000 

-0.000000 -0.000000 0.000000 
0.000000 -0.000000 0.000000 
0.000000 0.000000 0.000000 

0.000000 0.000000 0.000000 
0.000000 0.000000 0.000000 
0.000000 0.000000 0.000000 

-0.000000 0.000000 0.000000 
0.000000 0.000000 0.000000 
0.000000 0.000000 0.000000 

0.000000 -0.000000 0.000000 
0.000000 -0.000000 0.000000 
0.000000 0.000000 0.000000 

-0.000000 0.000000 0.000000 
0.000000 0.000000 0.000000 
0.000000 0.000000 0.000000 

-0.000000 -0.000000 0.000000 
0.000000 -0.000000 0.000000 
0.000000 0.000000 0.000000 

0.000000 0.000000 0.000000 
0.000000 0.000000 0.000000 
0.000000 0.000000 0.000000 

-0.000000 0.000000 0.000000 
0.000000 0.000000 0.000000 
0.000000 0.000000 0.000000 

-0.000000 -0.000000 0.000000 
0.000000 -0.000000 0.000000 
0.000000 0.000000 0.000000 

0.000000 0.000000 0.000000 
0.000000 -0.000000 0.000000 
0.000000 0.000000 0.000000 

0.000000 -0.000000 0.000000 
0.000000 -0.000000 0.000000 
0.000000 0.000000 0.000000 

-0.000000 0.000000 0.000000 
0.000000 0.000000 0.000000 
0.000000 0.000000 0.000000 

0.000000 0.000000 0.000000 
0.000000 -0.000000 0.000000 
0.000000 0.000000 0.000000 

-0.000000 -0.000000 0.000000 
0.000000 0.000000 0.000000 
0.000000 0.000000 0.000000 

0.000000 -0.000000 0.000000 
0.000000 0.000000 0.000000 
0.000000 0.000000 0.000000 

0.000000 -0.000000 0.000000 
0.000000 -0.000000 0.000000 
0.000000 0.000000 0.000000 

-0.000000 -0.000000 0.000000 
0.000000 -0.000000 0.000000 
0.000000 0.000000 0.000000 

-0.000000 -0.000000 0.000000 
0.000000 0.000000 0.000000 
0.000000 0.000000 0.000000 

-0.000000 -0.000000 0.000000 
0.000000 0.000000 0.000000 
0.000000 0.000000 0.000000 

-0.000000 -0.000000 0.000000 
0.000000 0.000000 0.000000 
0.000000 0.000000 0.000000 

-0.000000 -0.000000 0.000000 
0.000000 0.000000 0.000000 
0.000000 0.000000 0.000000 

-0.000000 -0.000000 0.000000 
0.000000 0.000000 0.000000 
0.000000 0.000000 0.000000 

-0.000000 -0.000000 0.000000 
0.000000 0.000000 0.000000 
0.000000 0.000000 0.000000 

-0.000000 -0.000000 0.000000 
0.000000 -0.000000 0.000000 
0.000000 0.000000 0.000000 

-0.000000 0.000000 0.000000 
0.000000 -0.000000 0.000000 
0.000000 0.000000 0.000000 

-0.000000 -0.000000 0.000000 
0.000000 0.000000 0.000000 
0.000000 0.000000 0.000000 

0.000000 0.000000 0.000000 
0.000000 -0.000000 0.000000 
0.000000 0.000000 0.000000 

-0.000000 0.000000 0.000000 
0.000000 -0.000000 0.000000 
0.000000 0.000000 0.000000 

0.000000 0.000000 0.000000 
0.000000 -0.000000 0.000000 
0.000000 0.000000 0.000000 

0.000000 0.000000 0.000000 
0.000000 0.000000 0.000000 
0.000000 0.000000 0.000000 

0.000000 0.000000 0.000000 
0.000000 -0.000000 0.000000 
0.000000 0.000000 0.000000 

-0.000000 -0.000000 0.000000 
0.000000 0.000000 0.000000 
0.000000 0.000000 0.000000 

-0.000000 0.000000 0.000000 
0.000000 0.000000 0.000000 
0.000000 0.000000 0.000000 

-0.000000 0.000000 0.000000 
0.000000 0.000000 0.000000 
0.000000 0.000000 0.000000 

0.000000 0.000000 0.000000 
0.000000 0.000000 0.000000 
0.000000 0.000000 0.000000 

-0.000000 0.000000 0.000000 
0.000000 -0.000000 0.000000 
0.000000 0.000000 0.000000 

-0.000000 0.000000 0.000000 
0.000000 0.000000 0.000000 
0.000000 0.000000 0.000000 

-0.000000 0.000000 0.000000 
0.000000 0.000000 0.000000 
0.000000 0.000000 0.000000 

-0.000000 0.000000 0.000000 
0.000000 -0.000000 0.000000 
0.000000 0.000000 0.000000 

-0.000000 0.000000 0.000000 
0.000000 -0.000000 0.000000 
0.000000 0.000000 0.000000 

-0.000000 0.000000 0.000000 
0.000000 -0.000000 0.000000 
0.000000 0.000000 0.000000 

-0.000000 0.000000 0.000000 
0.000000 -0.000000 0.000000 
0.000000 0.000000 0.000000 

-0.000000 0.000000 0.000000 
0.000000 0.000000 0.000000 
0.000000 0.000000 0.000000 

0.000000 0.000000 0.000000 
0.000000 0.000000 0.000000 
0.000000 0.000000 0.000000 

-0.000000 0.000000 0.000000 
0.000000 0.000000 0.000000 
0.000000 0.000000 0.000000 

-0.000000 -0.000000 0.000000 
0.000000 0.000000 0.000000 
0.000000 0.000000 0.000000 

0.000000 0.000000 0.000000 
0.000000 0.000000 0.000000 
0.000000 0.000000 0.000000 

0.000000 -0.000000 0.000000 
0.000000 0.000000 0.000000 
0.000000 0.000000 0.000000 

-0.000000 0.000000 0.000000 
0.000000 -0.000000 0.000000 
0.000000 0.000000 0.000000 

-0.000000 -0.000000 0.000000 
0.000000 0.000000 0.000000 
0.000000 0.000000 0.000000 

0.000000 0.000000 0.000000 
0.000000 -0.000000 0.000000 
0.000000 0.000000 0.000000 

-0.000000 -0.000000 0.000000 
0.000000 0.000000 0.000000 
0.000000 0.000000 0.000000 

0.000000 -0.000000 0.000000 
0.000000 0.000000 0.000000 
0.000000 0.000000 0.000000 

-0.000000 -0.000000 0.000000 
0.000000 0.000000 0.000000 
0.000000 0.000000 0.000000 

-0.000000 0.000000 0.000000 
0.000000 0.000000 0.000000 
0.000000 0.000000 0.000000 

-0.000000 -0.000000 0.000000 
0.000000 0.000000 0.000000 
0.000000 0.000000 0.000000 

-0.000000 0.000000 0.000000 
0.000000 0.000000 0.000000 
0.000000 0.000000 0.000000 

-0.000000 0.000000 0.000000 
0.000000 -0.000000 0.000000 
0.000000 0.000000 0.000000 

0.000000 0.000000 0.000000 
0.000000 0.000000 0.000000 
0.000000 0.000000 0.000000 

0.000000 -0.000000 0.000000 
0.000000 0.000000 0.000000 
0.000000 0.000000 0.000000 

-0.000000 0.000000 0.000000 
0.000000 0.000000 0.000000 
0.000000 0.000000 0.000000 

-0.000000 0.000000 0.000000 
0.000000 0.000000 0.000000 
0.000000 0.000000 0.000000 

-0.000000 0.000000 0.000000 
0.000000 0.000000 0.000000 
0.000000 0.000000 0.000000 

-0.000000 0.000000 0.000000 
0.000000 0.000000 0.000000 
0.000000 0.000000 0.000000 

-0.000000 0.000000 0.000000 
0.000000 -0.000000 0.000000 
0.000000 0.000000 0.000000 

-0.000000 0.000000 0.000000 
0.000000 0.000000 0.000000 
0.000000 0.000000 0.000000 

0.000000 0.000000 0.000000 
0.000000 0.000000 0.000000 
0.000000 0.000000 0.000000 

0.000000 -0.000000 0.000000 
0.000000 -0.000000 0.000000 
0.000000 0.000000 0.000000 

0.000000 0.000000 0.000000 
0.000000 -0.000000 0.000000 
0.000000 0.000000 0.000000 

0.000000 0.000000 0.000000 
0.000000 -0.000000 0.000000 
0.000000 0.000000 0.000000 

0.000000 -0.000000 0.000000 
0.000000 -0.000000 0.000000 
0.000000 0.000000 0.000000 

0.000000 0.000000 0.000000 
0.000000 -0.000000 0.000000 
0.000000 0.000000 0.000000 

-0.000000 -0.000000 0.000000 
0.000000 0.000000 0.000000 
0.000000 0.000000 0.000000 

0.000000 -0.000000 0.000000 
0.000000 -0.000000 0.000000 
0.000000 0.000000 0.000000 

0.000000 0.000000 0.000000 
0.000000 -0.000000 0.000000 
0.000000 0.000000 0.000000 

-0.000000 0.000000 0.000000 
0.000000 -0.000000 0.000000 
0.000000 0.000000 0.000000 

-0.000000 0.000000 0.000000 
0.000000 0.000000 0.000000 
0.000000 0.000000 0.000000 

-0.000000 -0.000000 0.000000 
0.000000 0.000000 0.000000 
0.000000 0.000000 0.000000 

0.000000 -0.000000 0.000000 
0.000000 -0.000000 0.000000 
0.000000 0.000000 0.000000 

0.000000 0.000000 0.000000 
0.000000 -0.000000 0.000000 
0.000000 0.000000 0.000000 

0.000000 -0.000000 0.000000 
0.000000 0.000000 0.000000 
0.000000 0.000000 0.000000 

0.000000 -0.000000 0.000000 
0.000000 -0.000000 0.000000 
0.000000 0.000000 0.000000 

0.000000 0.000000 0.000000 
0.000000 0.000000 0.000000 
0.000000 0.000000 0.000000 

0.000000 0.000000 0.000000 
0.000000 -0.000000 0.000000 
0.000000 0.000000 0.000000 

0.000000 0.000000 0.000000 
0.000000 0.000000 0.000000 
0.000000 0.000000 0.000000 

-0.000000 -0.000000 0.000000 
0.000000 0.000000 0.000000 
0.000000 0.000000 0.000000 

0.000000 0.000000 0.000000 
0.000000 -0.000000 0.000000 
0.000000 0.000000 0.000000 

-0.000000 0.000000 0.000000 
0.000000 -0.000000 0.000000 
0.000000 0.000000 0.000000 

-0.000000 -0.000000 0.000000 
0.000000 0.000000 0.000000 
0.000000 0.000000 0.000000 

0.000000 -0.000000 0.000000 
0.000000 -0.000000 0.000000 
0.000000 0.000000 0.000000 

0.000000 -0.000000 0.000000 
0.000000 -0.000000 0.000000 
0.000000 0.000000 0.000000 

0.000000 -0.000000 0.000000 
0.000000 0.000000 0.000000 
0.000000 0.000000 0.000000 

0.000000 0.000000 0.000000 
0.000000 0.000000 0.000000 
0.000000 0.000000 0.000000 

0.000000 0.000000 0.000000 
0.000000 0.000000 0.000000 
0.000000 0.000000 0.000000 

0.000000 -0.000000 0.000000 
0.000000 -0.000000 0.000000 
0.000000 0.000000 0.000000 

0.000000 0.000000 0.000000 
0.000000 0.000000 0.000000 
0.000000 0.000000 0.000000 

0.000000 -0.000000 0.000000 
0.000000 -0.000000 0.000000 
0.000000 0.000000 0.000000 

