# vtk DataFile Version 3.0 
vtk output 
ASCII 
DATASET UNSTRUCTURED_GRID 
POINTS 899 float 
-3.648847 2.216734 0.000000 
-3.619410 2.176182 0.000000 
-3.578536 2.140587 0.000000 
-3.540028 2.104936 0.000000 
-3.511690 2.072741 0.000000 
-3.481362 2.042882 0.000000 
-3.451569 2.002209 0.000000 
0.772356 2.119247 0.000000 
0.774615 2.093126 0.000000 
0.769962 2.064372 0.000000 
-3.399514 1.971933 0.000000 
0.413960 -0.672909 0.000000 
0.455573 -0.668606 0.000000 
-1.762619 -0.572805 0.000000 
-1.783389 -0.537408 0.000000 
-1.714437 -0.508619 0.000000 
0.732567 2.113572 0.000000 
0.698438 2.099736 0.000000 
0.491831 -0.654404 0.000000 
0.519501 -0.623999 0.000000 
0.530556 -0.583552 0.000000 
0.532354 -0.537748 0.000000 
0.531774 -0.487241 0.000000 
-3.460923 1.910200 0.000000 
0.663989 2.077790 0.000000 
0.631675 2.050395 0.000000 
0.601833 2.026339 0.000000 
0.569607 2.003082 0.000000 
0.534059 1.981004 0.000000 
0.492599 1.959864 0.000000 
0.444403 1.941200 0.000000 
0.762807 2.023398 0.000000 
-1.708694 -0.474237 0.000000 
-1.726386 -0.433973 0.000000 
-1.761257 -0.409952 0.000000 
-1.812853 -0.402104 0.000000 
-0.690422 -0.654439 0.000000 
-0.624256 -0.672367 0.000000 
-0.561079 -0.680549 0.000000 
-0.500739 -0.682004 0.000000 
-0.445387 -0.682066 0.000000 
0.532260 -0.428157 0.000000 
0.536647 -0.358824 0.000000 
-1.881389 -0.389603 0.000000 
-0.389303 -0.679792 0.000000 
-0.340338 -0.664507 0.000000 
-0.344339 -0.610372 0.000000 
-0.358558 -0.557832 0.000000 
-0.381750 -0.516921 0.000000 
-0.406193 -0.482746 0.000000 
-0.417316 -0.451248 0.000000 
-0.428320 -0.416991 0.000000 
-0.436973 -0.372727 0.000000 
-0.444212 -0.317184 0.000000 
-0.452662 -0.258326 0.000000 
-0.468602 -0.201427 0.000000 
0.553166 -0.294109 0.000000 
0.573193 -0.236438 0.000000 
0.574450 -0.184698 0.000000 
0.561087 -0.134378 0.000000 
0.550432 -0.079055 0.000000 
0.748903 1.970080 0.000000 
0.730940 1.913588 0.000000 
0.715868 1.867428 0.000000 
0.699446 1.831301 0.000000 
0.684888 1.790311 0.000000 
0.675900 1.744107 0.000000 
0.669871 1.694547 0.000000 
0.664455 1.646690 0.000000 
0.668163 1.600270 0.000000 
0.672091 1.550437 0.000000 
0.674558 1.502413 0.000000 
0.673045 1.452334 0.000000 
0.386491 1.931519 0.000000 
0.664855 1.393595 0.000000 
0.652298 1.335517 0.000000 
0.638456 1.281868 0.000000 
0.623121 1.232357 0.000000 
0.616008 1.189330 0.000000 
0.600787 1.154388 0.000000 
0.571289 1.124939 0.000000 
0.539016 1.093778 0.000000 
0.513857 1.064879 0.000000 
0.493343 1.038644 0.000000 
0.469109 1.020831 0.000000 
0.444920 1.004387 0.000000 
0.415324 0.983421 0.000000 
0.383540 0.958669 0.000000 
0.356179 0.929336 0.000000 
0.343879 0.890437 0.000000 
0.337476 0.844916 0.000000 
0.332404 0.799630 0.000000 
0.328512 0.759940 0.000000 
0.319594 0.723860 0.000000 
0.304149 0.690450 0.000000 
0.290502 0.650059 0.000000 
0.275896 0.602196 0.000000 
0.261905 0.560227 0.000000 
0.250150 0.526632 0.000000 
0.250896 0.488827 0.000000 
0.259587 0.446224 0.000000 
0.284617 0.403451 0.000000 
0.315237 0.373789 0.000000 
0.340022 0.354353 0.000000 
0.354380 0.328504 0.000000 
0.368685 0.301361 0.000000 
0.385568 0.274965 0.000000 
0.415372 0.250168 0.000000 
0.447119 0.218455 0.000000 
0.477633 0.190539 0.000000 
0.503078 0.162602 0.000000 
0.518876 0.124548 0.000000 
0.527127 0.088580 0.000000 
0.534187 0.044034 0.000000 
0.543185 -0.016746 0.000000 
0.322519 1.920464 0.000000 
0.263849 1.907347 0.000000 
0.208223 1.901927 0.000000 
0.150441 1.898098 0.000000 
-0.687392 -0.581372 0.000000 
-3.327058 1.945701 0.000000 
-3.276080 1.899280 0.000000 
-3.224941 1.865693 0.000000 
-3.181728 1.836534 0.000000 
-3.135074 1.799605 0.000000 
-3.078123 1.775311 0.000000 
-1.944260 -0.344725 0.000000 
0.083204 1.903255 0.000000 
0.005786 1.897902 0.000000 
-0.071812 1.907140 0.000000 
-0.135705 1.936682 0.000000 
-0.182391 1.978287 0.000000 
-1.999041 -0.273756 0.000000 
-1.843230 -0.548265 0.000000 
-0.491126 -0.137467 0.000000 
-0.512312 -0.064224 0.000000 
-0.526535 -0.001391 0.000000 
-0.527935 0.060731 0.000000 
-0.524207 0.127900 0.000000 
-0.505864 0.185032 0.000000 
-0.468875 0.234244 0.000000 
-0.410369 0.263489 0.000000 
-0.354013 0.284606 0.000000 
-0.301050 0.294552 0.000000 
-0.255730 0.295324 0.000000 
-0.695595 -0.503077 0.000000 
-0.726457 -0.426195 0.000000 
-0.747352 -0.356740 0.000000 
-3.396487 1.888566 0.000000 
-3.344056 1.809178 0.000000 
-3.294256 1.765777 0.000000 
-3.248246 1.727453 0.000000 
-3.196818 1.688099 0.000000 
-3.159669 1.636789 0.000000 
-3.113281 1.590084 0.000000 
-3.056061 1.570521 0.000000 
-2.996684 1.547896 0.000000 
-2.933161 1.518280 0.000000 
-2.879064 1.482137 0.000000 
-2.813006 1.457352 0.000000 
-2.751664 1.434302 0.000000 
-2.686782 1.404979 0.000000 
-1.922020 -0.545458 0.000000 
-1.999705 -0.546957 0.000000 
-2.060018 -0.525353 0.000000 
-2.032615 -0.190366 0.000000 
-2.048550 -0.104644 0.000000 
-2.029059 -0.038751 0.000000 
-2.105228 -0.468295 0.000000 
-2.154373 -0.400701 0.000000 
-2.203584 -0.346077 0.000000 
-2.237020 -0.284641 0.000000 
-2.250593 -0.219349 0.000000 
-2.270119 -0.147565 0.000000 
-2.297898 -0.077254 0.000000 
-2.327118 -0.015675 0.000000 
-2.346747 0.038295 0.000000 
-2.362840 0.091405 0.000000 
-2.374561 0.142450 0.000000 
-2.373128 0.194425 0.000000 
-2.334174 0.261015 0.000000 
-2.331842 0.301634 0.000000 
-2.284565 0.310392 0.000000 
-0.236368 2.027823 0.000000 
-0.299146 2.071649 0.000000 
-0.346614 2.091574 0.000000 
-0.382877 2.055071 0.000000 
-0.412447 2.026022 0.000000 
-0.433989 1.985734 0.000000 
-0.446472 1.942768 0.000000 
-0.451628 1.903449 0.000000 
-0.451047 1.864987 0.000000 
-0.449242 1.828984 0.000000 
-0.453345 1.797094 0.000000 
-0.460251 1.769401 0.000000 
-0.470304 1.740616 0.000000 
-0.475290 1.711125 0.000000 
-0.478341 1.681340 0.000000 
-0.479442 1.644604 0.000000 
-2.609147 1.391189 0.000000 
-2.517189 1.385691 0.000000 
-2.434013 1.386028 0.000000 
-2.352624 1.375996 0.000000 
-2.274410 1.356625 0.000000 
-2.204499 1.321977 0.000000 
-2.180326 1.253094 0.000000 
-2.178559 1.164558 0.000000 
-2.168273 1.074529 0.000000 
-2.159086 0.976465 0.000000 
-2.144575 0.887306 0.000000 
-2.163040 0.812089 0.000000 
-2.183612 0.737997 0.000000 
-2.172907 0.673440 0.000000 
-2.161614 0.610684 0.000000 
-2.169833 0.550572 0.000000 
-2.188987 0.488819 0.000000 
-2.218663 0.437574 0.000000 
-2.229021 0.381700 0.000000 
-2.997130 1.758515 0.000000 
-3.021908 1.660377 0.000000 
-2.902046 1.727007 0.000000 
-0.770600 -0.274146 0.000000 
-0.790096 -0.182487 0.000000 
-0.811857 -0.101780 0.000000 
-0.835807 -0.023216 0.000000 
-0.859157 0.046912 0.000000 
-0.881226 0.106964 0.000000 
-0.903169 0.166314 0.000000 
-0.928196 0.230358 0.000000 
-2.785442 1.694454 0.000000 
-2.944278 1.633712 0.000000 
-2.855014 1.596566 0.000000 
-2.796189 1.536486 0.000000 
-2.651235 1.679708 0.000000 
-2.517962 1.669361 0.000000 
-2.394240 1.660198 0.000000 
-2.275192 1.652202 0.000000 
-2.180847 1.627641 0.000000 
-2.099904 1.601161 0.000000 
-2.018420 1.569921 0.000000 
-1.945469 1.574219 0.000000 
-1.885190 1.607559 0.000000 
-1.829736 1.628127 0.000000 
-1.760875 1.653359 0.000000 
-1.680504 1.681783 0.000000 
-1.617798 1.700100 0.000000 
-1.570169 1.714624 0.000000 
-1.527149 1.728814 0.000000 
-1.482581 1.740943 0.000000 
-1.433927 1.747483 0.000000 
-1.386311 1.755398 0.000000 
-1.337319 1.764129 0.000000 
-1.286363 1.771208 0.000000 
-1.235962 1.771926 0.000000 
-1.188452 1.776739 0.000000 
-1.140860 1.786190 0.000000 
-1.091558 1.785499 0.000000 
-1.038962 1.774480 0.000000 
-0.982519 1.755482 0.000000 
-0.922315 1.738740 0.000000 
-0.869867 1.728415 0.000000 
-0.827747 1.721926 0.000000 
-0.785371 1.717014 0.000000 
-0.748025 1.707277 0.000000 
-0.712781 1.697010 0.000000 
-0.681690 1.683078 0.000000 
-0.657198 1.671944 0.000000 
-0.633895 1.665280 0.000000 
-0.612002 1.660825 0.000000 
-0.594184 1.653612 0.000000 
-0.577381 1.644162 0.000000 
-0.560109 1.628879 0.000000 
-0.540091 1.596424 0.000000 
-1.243914 -0.042421 0.000000 
-1.232782 -0.028704 0.000000 
-1.257376 -0.056775 0.000000 
-1.224378 -0.010005 0.000000 
-1.271472 -0.076120 0.000000 
-1.215702 0.011992 0.000000 
-1.204660 0.038049 0.000000 
-1.290143 -0.103862 0.000000 
-1.314447 -0.148902 0.000000 
-1.190204 0.068355 0.000000 
-1.318041 -0.202256 0.000000 
-1.171655 0.102511 0.000000 
-1.149359 0.138826 0.000000 
-1.123094 0.177074 0.000000 
-1.284246 -0.252236 0.000000 
-1.239750 -0.302962 0.000000 
-1.083297 0.221066 0.000000 
-1.028190 0.252737 0.000000 
-1.181630 -0.345319 0.000000 
-1.112789 -0.376746 0.000000 
-1.040643 -0.388916 0.000000 
-0.978118 -0.392003 0.000000 
-0.927392 -0.405029 0.000000 
-0.889718 -0.444163 0.000000 
-0.873564 -0.500714 0.000000 
-0.920771 -0.532907 0.000000 
-0.935346 -0.465639 0.000000 
-0.991249 -0.542483 0.000000 
-1.088918 -0.539755 0.000000 
-1.067426 -0.460103 0.000000 
-1.189474 -0.532192 0.000000 
-1.147229 -0.447436 0.000000 
-1.266509 -0.508902 0.000000 
-1.219913 -0.421259 0.000000 
-1.335307 -0.473075 0.000000 
-1.284456 -0.383260 0.000000 
-1.402357 -0.429171 0.000000 
-1.341444 -0.335459 0.000000 
-1.466758 -0.376496 0.000000 
-1.539152 -0.315697 0.000000 
-1.393011 -0.277528 0.000000 
-1.612839 -0.245425 0.000000 
-1.665320 -0.187847 0.000000 
-1.691220 -0.123020 0.000000 
-1.704696 -0.037527 0.000000 
-1.850073 0.129343 0.000000 
-1.911042 0.073518 0.000000 
-1.969645 0.016681 0.000000 
-1.726970 0.068884 0.000000 
-0.222881 0.276714 0.000000 
-0.195707 0.249131 0.000000 
-0.164205 0.212183 0.000000 
-0.127520 0.179485 0.000000 
-0.095686 0.149994 0.000000 
-0.059027 0.121516 0.000000 
-0.018954 0.091532 0.000000 
0.030296 0.060262 0.000000 
0.086536 0.039736 0.000000 
0.141893 0.021004 0.000000 
0.202102 -0.008275 0.000000 
0.263408 -0.048192 0.000000 
0.311661 -0.098179 0.000000 
0.333954 -0.157802 0.000000 
0.338621 -0.218252 0.000000 
0.341530 -0.272190 0.000000 
0.353165 -0.322379 0.000000 
0.365710 -0.380802 0.000000 
0.363543 -0.450330 0.000000 
0.357353 -0.512445 0.000000 
0.351188 -0.563188 0.000000 
0.363842 -0.610216 0.000000 
-1.737069 -0.476867 0.000000 
-0.199590 0.329331 0.000000 
-0.156305 0.299415 0.000000 
-0.462327 1.565371 0.000000 
0.741313 2.087945 0.000000 
0.482415 -0.620986 0.000000 
0.446104 -0.628882 0.000000 
0.403556 -0.634537 0.000000 
-0.104001 0.271350 0.000000 
-0.514998 1.497425 0.000000 
-0.059937 0.236945 0.000000 
0.738519 2.062680 0.000000 
0.714572 2.074981 0.000000 
-0.249752 0.356155 0.000000 
-0.036232 0.193147 0.000000 
0.000772 0.165315 0.000000 
0.035161 0.139670 0.000000 
-1.776537 -0.476308 0.000000 
-1.836238 -0.472124 0.000000 
-0.309416 0.370255 0.000000 
-0.378944 0.367990 0.000000 
-2.292732 0.247579 0.000000 
-2.315166 0.197588 0.000000 
-2.314418 0.150031 0.000000 
-2.293418 0.103644 0.000000 
-2.279687 0.053765 0.000000 
-2.253462 0.006500 0.000000 
0.075120 0.111927 0.000000 
0.131113 0.099320 0.000000 
-0.977004 0.301303 0.000000 
-0.860050 0.291137 0.000000 
-1.912142 -0.464067 0.000000 
-1.989966 -0.472848 0.000000 
-2.023752 -0.405306 0.000000 
-2.082175 -0.334045 0.000000 
0.723889 2.031167 0.000000 
0.691466 2.050010 0.000000 
0.665980 2.017363 0.000000 
0.704783 1.990095 0.000000 
0.637970 1.979305 0.000000 
0.681732 1.942887 0.000000 
0.670916 1.896711 0.000000 
0.602858 1.947637 0.000000 
0.659584 1.856288 0.000000 
0.560783 1.921266 0.000000 
0.636111 1.820213 0.000000 
0.607495 1.770422 0.000000 
0.595324 1.706942 0.000000 
0.604052 1.642269 0.000000 
0.514160 1.891863 0.000000 
0.453857 1.864418 0.000000 
0.392525 1.862440 0.000000 
0.334098 1.860911 0.000000 
0.278675 1.842157 0.000000 
0.217273 1.824082 0.000000 
0.149449 1.806727 0.000000 
0.614128 1.589993 0.000000 
0.621313 1.542414 0.000000 
0.624262 1.497534 0.000000 
-2.197766 -0.046689 0.000000 
-2.158682 -0.121612 0.000000 
-2.124695 0.012642 0.000000 
-2.150589 -0.287739 0.000000 
-2.141926 -0.210193 0.000000 
-0.393439 -0.626753 0.000000 
-0.412631 -0.582710 0.000000 
-0.436983 -0.542106 0.000000 
-0.445953 -0.498687 0.000000 
-0.458251 -0.465861 0.000000 
-0.479726 -0.431094 0.000000 
-0.496934 -0.382364 0.000000 
-0.509002 -0.327280 0.000000 
-0.517157 -0.272949 0.000000 
-0.545309 -0.221674 0.000000 
-0.442273 -0.624147 0.000000 
-0.496002 -0.614630 0.000000 
-0.557668 -0.616737 0.000000 
-0.618975 -0.601257 0.000000 
-0.334659 2.029762 0.000000 
-0.367985 2.000044 0.000000 
-0.385153 1.963619 0.000000 
-0.396797 1.929751 0.000000 
-0.406285 1.894229 0.000000 
-0.402558 1.855096 0.000000 
-0.406645 1.816653 0.000000 
-0.418378 1.784238 0.000000 
-0.428059 1.755113 0.000000 
-0.435849 1.725565 0.000000 
-0.442335 1.695531 0.000000 
-0.445406 1.662465 0.000000 
-0.444483 1.616749 0.000000 
0.619822 1.451802 0.000000 
-1.077870 0.348367 0.000000 
-1.149036 0.306408 0.000000 
-1.174735 0.231566 0.000000 
-1.192231 0.179842 0.000000 
-1.210811 0.138066 0.000000 
-1.228352 0.098726 0.000000 
-1.238869 0.060746 0.000000 
-1.244643 0.029249 0.000000 
-1.248534 0.004348 0.000000 
-1.252336 -0.014940 0.000000 
-1.262323 -0.028192 0.000000 
-1.280319 -0.039108 0.000000 
-0.451814 0.345330 0.000000 
-0.526928 0.301809 0.000000 
0.194935 0.082327 0.000000 
0.069048 1.792627 0.000000 
-0.574175 0.231124 0.000000 
-0.593607 0.150021 0.000000 
-1.764101 0.189706 0.000000 
-2.210991 0.308563 0.000000 
-0.825996 0.205861 0.000000 
-0.799223 0.134780 0.000000 
-0.760911 0.068347 0.000000 
0.605964 1.400850 0.000000 
0.587834 1.343490 0.000000 
0.576354 1.283642 0.000000 
0.574971 1.228633 0.000000 
0.580375 1.185608 0.000000 
0.545179 1.163224 0.000000 
0.509957 1.130962 0.000000 
0.484198 1.094560 0.000000 
0.468721 1.063405 0.000000 
0.449386 1.044874 0.000000 
0.422962 1.032209 0.000000 
0.391379 1.013058 0.000000 
0.357154 0.988994 0.000000 
0.323730 0.960622 0.000000 
-0.582151 -0.160806 0.000000 
0.265957 0.055897 0.000000 
0.333763 0.009768 0.000000 
0.378371 -0.057248 0.000000 
0.400918 -0.131643 0.000000 
0.401084 -0.194631 0.000000 
0.404345 -0.248732 0.000000 
0.432648 -0.299814 0.000000 
0.450030 -0.364255 0.000000 
0.529803 -0.211102 0.000000 
0.491947 -0.259239 0.000000 
0.453243 -0.209356 0.000000 
0.449550 -0.438579 0.000000 
0.498420 -0.165229 0.000000 
0.474171 -0.105287 0.000000 
0.457863 -0.030714 0.000000 
0.462195 -0.497234 0.000000 
0.478704 -0.543569 0.000000 
0.483460 -0.584535 0.000000 
0.412910 -0.522875 0.000000 
0.398390 -0.561588 0.000000 
0.404290 -0.595876 0.000000 
0.442452 -0.591318 0.000000 
0.436659 -0.556153 0.000000 
-0.727378 -0.005786 0.000000 
-0.616071 0.076232 0.000000 
-0.623548 0.001951 0.000000 
-0.605779 -0.079056 0.000000 
-0.706340 -0.091505 0.000000 
-0.681483 -0.177766 0.000000 
-0.032304 1.787066 0.000000 
-0.128010 1.823216 0.000000 
-0.195732 1.890339 0.000000 
-0.243911 1.944254 0.000000 
-0.287859 1.991657 0.000000 
-0.335518 1.963961 0.000000 
-0.667608 -0.263147 0.000000 
-0.584906 -0.269915 0.000000 
-0.658169 -0.343156 0.000000 
-0.578442 -0.335286 0.000000 
-0.639050 -0.414598 0.000000 
-0.607982 -0.490115 0.000000 
-0.562541 -0.397985 0.000000 
-0.536184 -0.459008 0.000000 
-0.495978 -0.496970 0.000000 
-0.500680 -0.549364 0.000000 
-0.573051 -0.553817 0.000000 
-2.690892 1.560360 0.000000 
-2.684799 1.474348 0.000000 
-2.602920 1.473086 0.000000 
-2.574381 1.558079 0.000000 
-2.518122 1.492953 0.000000 
-2.424460 1.516851 0.000000 
-2.320006 1.507920 0.000000 
-2.229986 1.484302 0.000000 
-2.146342 1.443062 0.000000 
-1.455055 -0.218547 0.000000 
-1.387692 -0.138223 0.000000 
-1.339496 -0.084895 0.000000 
-1.304977 -0.056335 0.000000 
-1.531301 -0.153054 0.000000 
-1.604385 -0.108941 0.000000 
-1.592423 -0.008261 0.000000 
-1.608296 0.115702 0.000000 
-1.827918 0.314148 0.000000 
0.477873 0.082951 0.000000 
0.477147 0.117850 0.000000 
0.465631 0.152090 0.000000 
-0.587742 1.596299 0.000000 
-0.593403 1.620403 0.000000 
-0.604579 1.633058 0.000000 
-0.619289 1.638745 0.000000 
-0.639577 1.636571 0.000000 
-0.665912 1.638187 0.000000 
-0.697937 1.645174 0.000000 
-0.595692 1.542811 0.000000 
-0.726123 1.659986 0.000000 
-0.757398 1.670556 0.000000 
-0.794522 1.667981 0.000000 
-0.841416 1.665403 0.000000 
-0.894922 1.666764 0.000000 
-0.956071 1.675180 0.000000 
-1.020951 1.694101 0.000000 
-1.077937 1.721736 0.000000 
-1.120258 1.750464 0.000000 
-1.171769 1.726204 0.000000 
0.332207 0.279595 0.000000 
0.333662 0.237859 0.000000 
0.321472 0.308211 0.000000 
0.302407 0.335024 0.000000 
0.214022 0.349686 0.000000 
0.194081 0.410711 0.000000 
0.186716 0.466223 0.000000 
0.189303 0.518995 0.000000 
0.360023 0.198178 0.000000 
0.405131 0.173045 0.000000 
0.201671 0.568241 0.000000 
0.218038 0.618502 0.000000 
0.236652 0.667436 0.000000 
0.256885 0.709370 0.000000 
0.278373 0.737864 0.000000 
0.284019 0.771262 0.000000 
0.276718 0.818009 0.000000 
0.278735 0.874822 0.000000 
0.296322 0.925090 0.000000 
-1.507867 1.677961 0.000000 
-1.548116 1.653319 0.000000 
-1.598023 1.625940 0.000000 
-1.467251 1.692735 0.000000 
-1.422160 1.700019 0.000000 
-1.373311 1.706735 0.000000 
-1.322903 1.714511 0.000000 
-1.275577 1.723757 0.000000 
-1.225048 1.722358 0.000000 
-1.662214 1.602270 0.000000 
-1.732600 1.582330 0.000000 
-1.794687 1.567955 0.000000 
-1.841773 1.538768 0.000000 
-2.078405 0.606040 0.000000 
-2.079214 0.684630 0.000000 
-2.097651 0.528440 0.000000 
-2.129318 0.456702 0.000000 
-2.096743 0.765192 0.000000 
-2.169699 0.401358 0.000000 
-1.991686 0.328358 0.000000 
-1.642187 0.253914 0.000000 
-1.989898 0.161133 0.000000 
-2.064526 0.089321 0.000000 
-1.914688 0.234668 0.000000 
-2.037969 1.017744 0.000000 
-2.021377 0.902059 0.000000 
-2.055796 1.146906 0.000000 
-2.102728 1.249559 0.000000 
-2.047875 1.391861 0.000000 
0.428030 0.138592 0.000000 
0.375625 0.117356 0.000000 
0.313454 0.130457 0.000000 
0.290352 0.276492 0.000000 
0.238487 0.987409 0.000000 
0.440631 0.100485 0.000000 
0.396678 0.060708 0.000000 
0.460488 0.034787 0.000000 
0.523747 1.210899 0.000000 
-2.262588 0.174154 0.000000 
-2.220468 0.230181 0.000000 
-2.218579 0.120643 0.000000 
-2.146376 0.172493 0.000000 
-2.206503 0.055572 0.000000 
0.473879 1.172287 0.000000 
0.446488 1.119956 0.000000 
0.440978 1.075937 0.000000 
0.409581 1.068082 0.000000 
0.629179 1.896977 0.000000 
0.593839 1.864504 0.000000 
0.550362 1.820300 0.000000 
0.483841 1.779877 0.000000 
0.202470 0.921045 0.000000 
0.241245 0.773269 0.000000 
0.205152 0.748469 0.000000 
0.175878 0.700328 0.000000 
0.153326 0.641822 0.000000 
0.132079 0.581372 0.000000 
0.113278 0.516916 0.000000 
0.106000 0.448593 0.000000 
0.109640 0.379396 0.000000 
0.121648 0.308718 0.000000 
0.032483 0.219104 0.000000 
0.246820 0.301783 0.000000 
0.099619 0.167470 0.000000 
0.373127 1.053200 0.000000 
-0.307911 1.916339 0.000000 
-0.360136 1.897870 0.000000 
-0.343252 1.843525 0.000000 
-0.270247 1.851669 0.000000 
0.168337 0.163988 0.000000 
0.242346 0.153651 0.000000 
0.270369 0.222687 0.000000 
0.505525 1.278661 0.000000 
-0.689828 0.105916 0.000000 
-0.729540 0.163320 0.000000 
-0.746154 0.237792 0.000000 
-0.657668 0.254356 0.000000 
-0.661195 0.170070 0.000000 
-0.924642 0.407032 0.000000 
-1.137284 1.670395 0.000000 
-1.072920 1.625801 0.000000 
-1.248127 1.682692 0.000000 
-1.304069 1.666370 0.000000 
-1.360197 1.658710 0.000000 
-1.411221 1.654570 0.000000 
-1.453165 1.651341 0.000000 
-1.486003 1.633879 0.000000 
-1.510814 1.590409 0.000000 
-1.558800 1.545740 0.000000 
-0.995058 1.599048 0.000000 
-0.919611 1.588572 0.000000 
-0.852227 1.595504 0.000000 
-0.796966 1.612023 0.000000 
-0.752732 1.631191 0.000000 
-1.635591 1.518408 0.000000 
-1.992480 0.793109 0.000000 
-1.965104 0.683330 0.000000 
-1.974377 0.579997 0.000000 
-2.014368 0.486375 0.000000 
-2.065453 0.403189 0.000000 
-2.071492 0.250122 0.000000 
-2.131272 0.333659 0.000000 
-1.712039 1.505085 0.000000 
-1.781280 1.505035 0.000000 
-1.884796 1.474978 0.000000 
0.516332 1.694641 0.000000 
0.538779 1.623513 0.000000 
0.517174 1.353046 0.000000 
0.552532 1.414982 0.000000 
0.576896 1.456909 0.000000 
0.583356 1.493935 0.000000 
0.576083 1.530940 0.000000 
0.562288 1.573300 0.000000 
-0.776910 0.334406 0.000000 
-1.451771 -0.078742 0.000000 
-1.374596 -0.040959 0.000000 
-1.326837 -0.025499 0.000000 
-1.272657 -0.010301 0.000000 
-1.295259 -0.016070 0.000000 
-1.274719 0.011234 0.000000 
-1.277356 0.038337 0.000000 
-1.282752 0.073420 0.000000 
-1.279912 0.121196 0.000000 
-1.259061 0.164992 0.000000 
-1.246354 0.206485 0.000000 
-1.247511 0.261454 0.000000 
-1.260959 0.350085 0.000000 
-1.083075 0.520358 0.000000 
-1.474179 0.015769 0.000000 
-1.468523 0.141427 0.000000 
-1.714576 0.409181 0.000000 
-1.917838 0.415806 0.000000 
-1.479337 0.291279 0.000000 
-1.929043 1.347675 0.000000 
-1.933932 1.185334 0.000000 
-1.916094 1.045644 0.000000 
-1.891356 0.926360 0.000000 
-0.640008 1.602106 0.000000 
-0.671120 1.595083 0.000000 
-0.705575 1.601502 0.000000 
-0.401264 1.465384 0.000000 
-0.460851 1.309260 0.000000 
-0.397949 1.578855 0.000000 
-0.609239 1.596585 0.000000 
-0.410298 1.642988 0.000000 
-0.408964 1.677804 0.000000 
-0.399540 1.706923 0.000000 
-0.395782 1.739791 0.000000 
0.285100 1.021650 0.000000 
0.331625 1.038956 0.000000 
-0.121818 0.357516 0.000000 
0.021900 0.280169 0.000000 
0.115588 0.233932 0.000000 
0.198863 0.235885 0.000000 
-0.064867 0.336691 0.000000 
0.364707 1.804843 0.000000 
0.303732 1.773764 0.000000 
0.240047 1.743056 0.000000 
0.172732 1.704761 0.000000 
0.087651 1.664427 0.000000 
-0.030041 1.639681 0.000000 
-0.215594 1.763132 0.000000 
-0.230359 0.439614 0.000000 
-0.307828 0.473778 0.000000 
-0.401252 0.484649 0.000000 
-0.492206 0.456404 0.000000 
-0.743012 1.587960 0.000000 
-0.382985 1.766655 0.000000 
-0.353471 1.795398 0.000000 
-1.315709 0.200712 0.000000 
-1.343314 0.282631 0.000000 
-0.721193 1.546447 0.000000 
-0.632022 1.557376 0.000000 
-0.618292 1.616098 0.000000 
-1.300529 0.009424 0.000000 
-1.311319 0.035668 0.000000 
-0.675320 1.533913 0.000000 
-1.449691 1.610617 0.000000 
-0.167828 0.398369 0.000000 
-0.066773 0.414412 0.000000 
0.014030 0.351613 0.000000 
-1.331624 0.010803 0.000000 
-1.380062 0.024707 0.000000 
-1.340869 0.069412 0.000000 
-1.353905 0.139619 0.000000 
0.406993 1.116347 0.000000 
-1.403597 1.609104 0.000000 
0.364934 1.106298 0.000000 
-1.348692 1.609824 0.000000 
0.247855 1.119304 0.000000 
0.315701 1.115910 0.000000 
0.207111 0.840836 0.000000 
0.143206 0.819960 0.000000 
-1.453768 1.558342 0.000000 
-0.790281 1.546319 0.000000 
-1.284745 1.613495 0.000000 
-1.791133 1.425967 0.000000 
-1.698001 1.410175 0.000000 
-1.602996 1.415367 0.000000 
-1.509140 1.446235 0.000000 
-1.850904 0.806400 0.000000 
0.171486 1.090553 0.000000 
0.103791 0.748720 0.000000 
0.081732 0.675007 0.000000 
0.012465 0.438145 0.000000 
0.056973 0.604074 0.000000 
-0.859037 1.502888 0.000000 
-0.947148 1.486936 0.000000 
-1.042292 1.509585 0.000000 
-1.207800 1.632526 0.000000 
0.405236 1.741305 0.000000 
0.432576 1.650303 0.000000 
0.470249 1.582557 0.000000 
0.516988 1.546114 0.000000 
0.538064 1.512615 0.000000 
0.548893 1.478700 0.000000 
0.511168 1.448600 0.000000 
0.447440 1.402064 0.000000 
0.336576 1.708437 0.000000 
0.352905 1.629158 0.000000 
0.280111 1.670178 0.000000 
0.425405 1.501272 0.000000 
0.495333 1.499455 0.000000 
0.435871 1.236040 0.000000 
-0.582540 0.402079 0.000000 
-1.810838 0.661186 0.000000 
-1.837718 0.523366 0.000000 
0.231389 1.603237 0.000000 
-0.169223 1.621132 0.000000 
-0.358516 1.732152 0.000000 
-0.831990 0.458486 0.000000 
-0.676614 0.362168 0.000000 
-0.304985 1.740765 0.000000 
0.154076 1.513192 0.000000 
0.032165 1.447310 0.000000 
-1.118654 1.552123 0.000000 
-1.306357 0.530354 0.000000 
-1.538817 0.479319 0.000000 
-1.801087 1.310571 0.000000 
-1.802902 1.176037 0.000000 
-1.804665 1.056687 0.000000 
-1.777440 0.953041 0.000000 
-0.986798 0.750021 0.000000 
-0.372825 1.643602 0.000000 
-0.323929 1.565846 0.000000 
-0.283612 1.634842 0.000000 
-0.355311 1.681550 0.000000 
-0.277653 1.392987 0.000000 
-0.126264 1.401763 0.000000 
-0.312271 1.146128 0.000000 
-0.289946 0.606258 0.000000 
-0.193810 0.540850 0.000000 
-0.423907 0.649793 0.000000 
-0.114792 0.478620 0.000000 
-0.535770 0.604374 0.000000 
-1.422411 1.481297 0.000000 
-1.396637 1.563391 0.000000 
0.101283 1.019313 0.000000 
0.384708 1.169946 0.000000 
-0.765487 1.475244 0.000000 
0.024488 0.524659 0.000000 
-1.685710 1.288977 0.000000 
-0.851171 1.377515 0.000000 
-0.603497 1.426291 0.000000 
-0.978154 1.345348 0.000000 
-0.699634 1.428786 0.000000 
-1.566560 1.283010 0.000000 
0.324386 1.216454 0.000000 
0.225177 1.261662 0.000000 
0.103404 1.257508 0.000000 
0.264525 1.404153 0.000000 
0.375524 1.324424 0.000000 
-0.722859 0.487756 0.000000 
-0.804099 0.620616 0.000000 
-0.630108 0.532168 0.000000 
-1.342192 1.561070 0.000000 
-1.445045 1.315931 0.000000 
0.042573 0.918219 0.000000 
-1.197152 1.563417 0.000000 
-1.275712 1.552606 0.000000 
0.009788 0.804605 0.000000 
0.007428 0.710710 0.000000 
-1.624661 0.679113 0.000000 
-1.706493 0.845242 0.000000 
-0.014319 0.639166 0.000000 
-0.059935 0.563567 0.000000 
-0.139952 0.644203 0.000000 
-0.233328 0.766367 0.000000 
-0.073092 0.711287 0.000000 
-0.121108 0.841143 0.000000 
-0.119730 1.035722 0.000000 
-0.398430 0.889146 0.000000 
-0.026441 1.187471 0.000000 
-1.679294 1.151122 0.000000 
-1.698733 1.029385 0.000000 
-1.219031 0.935722 0.000000 
-0.854674 1.021516 0.000000 
-0.658235 0.696227 0.000000 
-0.623629 0.938423 0.000000 
-0.765556 1.263082 0.000000 
-0.596319 1.220389 0.000000 
-1.360217 1.515454 0.000000 
-1.334110 1.391291 0.000000 
-1.529501 1.111173 0.000000 
-1.363780 1.147110 0.000000 
-1.571029 0.949848 0.000000 
-1.188333 1.483142 0.000000 
-1.056334 1.152985 0.000000 
-1.217896 1.282244 0.000000 
-1.279678 1.477330 0.000000 
-0.993027 -0.464673 0.000000 
-3.091970 1.676861 0.000000 
-1.410358 0.778578 0.000000 
-1.115382 1.405567 0.000000 
0.330018 1.527986 0.000000 
-0.391446 2.087754 0.000000 
-1.734831 -0.533822 0.000000 
-2.357079 0.280624 0.000000 
-3.441445 1.864194 0.000000 
-2.367134 0.243399 0.000000 
-3.393690 1.838214 0.000000 
CELLS 899 1798 
1 0 
1 1 
1 2 
1 3 
1 4 
1 5 
1 6 
1 7 
1 8 
1 9 
1 10 
1 11 
1 12 
1 13 
1 14 
1 15 
1 16 
1 17 
1 18 
1 19 
1 20 
1 21 
1 22 
1 23 
1 24 
1 25 
1 26 
1 27 
1 28 
1 29 
1 30 
1 31 
1 32 
1 33 
1 34 
1 35 
1 36 
1 37 
1 38 
1 39 
1 40 
1 41 
1 42 
1 43 
1 44 
1 45 
1 46 
1 47 
1 48 
1 49 
1 50 
1 51 
1 52 
1 53 
1 54 
1 55 
1 56 
1 57 
1 58 
1 59 
1 60 
1 61 
1 62 
1 63 
1 64 
1 65 
1 66 
1 67 
1 68 
1 69 
1 70 
1 71 
1 72 
1 73 
1 74 
1 75 
1 76 
1 77 
1 78 
1 79 
1 80 
1 81 
1 82 
1 83 
1 84 
1 85 
1 86 
1 87 
1 88 
1 89 
1 90 
1 91 
1 92 
1 93 
1 94 
1 95 
1 96 
1 97 
1 98 
1 99 
1 100 
1 101 
1 102 
1 103 
1 104 
1 105 
1 106 
1 107 
1 108 
1 109 
1 110 
1 111 
1 112 
1 113 
1 114 
1 115 
1 116 
1 117 
1 118 
1 119 
1 120 
1 121 
1 122 
1 123 
1 124 
1 125 
1 126 
1 127 
1 128 
1 129 
1 130 
1 131 
1 132 
1 133 
1 134 
1 135 
1 136 
1 137 
1 138 
1 139 
1 140 
1 141 
1 142 
1 143 
1 144 
1 145 
1 146 
1 147 
1 148 
1 149 
1 150 
1 151 
1 152 
1 153 
1 154 
1 155 
1 156 
1 157 
1 158 
1 159 
1 160 
1 161 
1 162 
1 163 
1 164 
1 165 
1 166 
1 167 
1 168 
1 169 
1 170 
1 171 
1 172 
1 173 
1 174 
1 175 
1 176 
1 177 
1 178 
1 179 
1 180 
1 181 
1 182 
1 183 
1 184 
1 185 
1 186 
1 187 
1 188 
1 189 
1 190 
1 191 
1 192 
1 193 
1 194 
1 195 
1 196 
1 197 
1 198 
1 199 
1 200 
1 201 
1 202 
1 203 
1 204 
1 205 
1 206 
1 207 
1 208 
1 209 
1 210 
1 211 
1 212 
1 213 
1 214 
1 215 
1 216 
1 217 
1 218 
1 219 
1 220 
1 221 
1 222 
1 223 
1 224 
1 225 
1 226 
1 227 
1 228 
1 229 
1 230 
1 231 
1 232 
1 233 
1 234 
1 235 
1 236 
1 237 
1 238 
1 239 
1 240 
1 241 
1 242 
1 243 
1 244 
1 245 
1 246 
1 247 
1 248 
1 249 
1 250 
1 251 
1 252 
1 253 
1 254 
1 255 
1 256 
1 257 
1 258 
1 259 
1 260 
1 261 
1 262 
1 263 
1 264 
1 265 
1 266 
1 267 
1 268 
1 269 
1 270 
1 271 
1 272 
1 273 
1 274 
1 275 
1 276 
1 277 
1 278 
1 279 
1 280 
1 281 
1 282 
1 283 
1 284 
1 285 
1 286 
1 287 
1 288 
1 289 
1 290 
1 291 
1 292 
1 293 
1 294 
1 295 
1 296 
1 297 
1 298 
1 299 
1 300 
1 301 
1 302 
1 303 
1 304 
1 305 
1 306 
1 307 
1 308 
1 309 
1 310 
1 311 
1 312 
1 313 
1 314 
1 315 
1 316 
1 317 
1 318 
1 319 
1 320 
1 321 
1 322 
1 323 
1 324 
1 325 
1 326 
1 327 
1 328 
1 329 
1 330 
1 331 
1 332 
1 333 
1 334 
1 335 
1 336 
1 337 
1 338 
1 339 
1 340 
1 341 
1 342 
1 343 
1 344 
1 345 
1 346 
1 347 
1 348 
1 349 
1 350 
1 351 
1 352 
1 353 
1 354 
1 355 
1 356 
1 357 
1 358 
1 359 
1 360 
1 361 
1 362 
1 363 
1 364 
1 365 
1 366 
1 367 
1 368 
1 369 
1 370 
1 371 
1 372 
1 373 
1 374 
1 375 
1 376 
1 377 
1 378 
1 379 
1 380 
1 381 
1 382 
1 383 
1 384 
1 385 
1 386 
1 387 
1 388 
1 389 
1 390 
1 391 
1 392 
1 393 
1 394 
1 395 
1 396 
1 397 
1 398 
1 399 
1 400 
1 401 
1 402 
1 403 
1 404 
1 405 
1 406 
1 407 
1 408 
1 409 
1 410 
1 411 
1 412 
1 413 
1 414 
1 415 
1 416 
1 417 
1 418 
1 419 
1 420 
1 421 
1 422 
1 423 
1 424 
1 425 
1 426 
1 427 
1 428 
1 429 
1 430 
1 431 
1 432 
1 433 
1 434 
1 435 
1 436 
1 437 
1 438 
1 439 
1 440 
1 441 
1 442 
1 443 
1 444 
1 445 
1 446 
1 447 
1 448 
1 449 
1 450 
1 451 
1 452 
1 453 
1 454 
1 455 
1 456 
1 457 
1 458 
1 459 
1 460 
1 461 
1 462 
1 463 
1 464 
1 465 
1 466 
1 467 
1 468 
1 469 
1 470 
1 471 
1 472 
1 473 
1 474 
1 475 
1 476 
1 477 
1 478 
1 479 
1 480 
1 481 
1 482 
1 483 
1 484 
1 485 
1 486 
1 487 
1 488 
1 489 
1 490 
1 491 
1 492 
1 493 
1 494 
1 495 
1 496 
1 497 
1 498 
1 499 
1 500 
1 501 
1 502 
1 503 
1 504 
1 505 
1 506 
1 507 
1 508 
1 509 
1 510 
1 511 
1 512 
1 513 
1 514 
1 515 
1 516 
1 517 
1 518 
1 519 
1 520 
1 521 
1 522 
1 523 
1 524 
1 525 
1 526 
1 527 
1 528 
1 529 
1 530 
1 531 
1 532 
1 533 
1 534 
1 535 
1 536 
1 537 
1 538 
1 539 
1 540 
1 541 
1 542 
1 543 
1 544 
1 545 
1 546 
1 547 
1 548 
1 549 
1 550 
1 551 
1 552 
1 553 
1 554 
1 555 
1 556 
1 557 
1 558 
1 559 
1 560 
1 561 
1 562 
1 563 
1 564 
1 565 
1 566 
1 567 
1 568 
1 569 
1 570 
1 571 
1 572 
1 573 
1 574 
1 575 
1 576 
1 577 
1 578 
1 579 
1 580 
1 581 
1 582 
1 583 
1 584 
1 585 
1 586 
1 587 
1 588 
1 589 
1 590 
1 591 
1 592 
1 593 
1 594 
1 595 
1 596 
1 597 
1 598 
1 599 
1 600 
1 601 
1 602 
1 603 
1 604 
1 605 
1 606 
1 607 
1 608 
1 609 
1 610 
1 611 
1 612 
1 613 
1 614 
1 615 
1 616 
1 617 
1 618 
1 619 
1 620 
1 621 
1 622 
1 623 
1 624 
1 625 
1 626 
1 627 
1 628 
1 629 
1 630 
1 631 
1 632 
1 633 
1 634 
1 635 
1 636 
1 637 
1 638 
1 639 
1 640 
1 641 
1 642 
1 643 
1 644 
1 645 
1 646 
1 647 
1 648 
1 649 
1 650 
1 651 
1 652 
1 653 
1 654 
1 655 
1 656 
1 657 
1 658 
1 659 
1 660 
1 661 
1 662 
1 663 
1 664 
1 665 
1 666 
1 667 
1 668 
1 669 
1 670 
1 671 
1 672 
1 673 
1 674 
1 675 
1 676 
1 677 
1 678 
1 679 
1 680 
1 681 
1 682 
1 683 
1 684 
1 685 
1 686 
1 687 
1 688 
1 689 
1 690 
1 691 
1 692 
1 693 
1 694 
1 695 
1 696 
1 697 
1 698 
1 699 
1 700 
1 701 
1 702 
1 703 
1 704 
1 705 
1 706 
1 707 
1 708 
1 709 
1 710 
1 711 
1 712 
1 713 
1 714 
1 715 
1 716 
1 717 
1 718 
1 719 
1 720 
1 721 
1 722 
1 723 
1 724 
1 725 
1 726 
1 727 
1 728 
1 729 
1 730 
1 731 
1 732 
1 733 
1 734 
1 735 
1 736 
1 737 
1 738 
1 739 
1 740 
1 741 
1 742 
1 743 
1 744 
1 745 
1 746 
1 747 
1 748 
1 749 
1 750 
1 751 
1 752 
1 753 
1 754 
1 755 
1 756 
1 757 
1 758 
1 759 
1 760 
1 761 
1 762 
1 763 
1 764 
1 765 
1 766 
1 767 
1 768 
1 769 
1 770 
1 771 
1 772 
1 773 
1 774 
1 775 
1 776 
1 777 
1 778 
1 779 
1 780 
1 781 
1 782 
1 783 
1 784 
1 785 
1 786 
1 787 
1 788 
1 789 
1 790 
1 791 
1 792 
1 793 
1 794 
1 795 
1 796 
1 797 
1 798 
1 799 
1 800 
1 801 
1 802 
1 803 
1 804 
1 805 
1 806 
1 807 
1 808 
1 809 
1 810 
1 811 
1 812 
1 813 
1 814 
1 815 
1 816 
1 817 
1 818 
1 819 
1 820 
1 821 
1 822 
1 823 
1 824 
1 825 
1 826 
1 827 
1 828 
1 829 
1 830 
1 831 
1 832 
1 833 
1 834 
1 835 
1 836 
1 837 
1 838 
1 839 
1 840 
1 841 
1 842 
1 843 
1 844 
1 845 
1 846 
1 847 
1 848 
1 849 
1 850 
1 851 
1 852 
1 853 
1 854 
1 855 
1 856 
1 857 
1 858 
1 859 
1 860 
1 861 
1 862 
1 863 
1 864 
1 865 
1 866 
1 867 
1 868 
1 869 
1 870 
1 871 
1 872 
1 873 
1 874 
1 875 
1 876 
1 877 
1 878 
1 879 
1 880 
1 881 
1 882 
1 883 
1 884 
1 885 
1 886 
1 887 
1 888 
1 889 
1 890 
1 891 
1 892 
1 893 
1 894 
1 895 
1 896 
1 897 
1 898 
CELL_TYPES 899 
1 
1 
1 
1 
1 
1 
1 
1 
1 
1 
1 
1 
1 
1 
1 
1 
1 
1 
1 
1 
1 
1 
1 
1 
1 
1 
1 
1 
1 
1 
1 
1 
1 
1 
1 
1 
1 
1 
1 
1 
1 
1 
1 
1 
1 
1 
1 
1 
1 
1 
1 
1 
1 
1 
1 
1 
1 
1 
1 
1 
1 
1 
1 
1 
1 
1 
1 
1 
1 
1 
1 
1 
1 
1 
1 
1 
1 
1 
1 
1 
1 
1 
1 
1 
1 
1 
1 
1 
1 
1 
1 
1 
1 
1 
1 
1 
1 
1 
1 
1 
1 
1 
1 
1 
1 
1 
1 
1 
1 
1 
1 
1 
1 
1 
1 
1 
1 
1 
1 
1 
1 
1 
1 
1 
1 
1 
1 
1 
1 
1 
1 
1 
1 
1 
1 
1 
1 
1 
1 
1 
1 
1 
1 
1 
1 
1 
1 
1 
1 
1 
1 
1 
1 
1 
1 
1 
1 
1 
1 
1 
1 
1 
1 
1 
1 
1 
1 
1 
1 
1 
1 
1 
1 
1 
1 
1 
1 
1 
1 
1 
1 
1 
1 
1 
1 
1 
1 
1 
1 
1 
1 
1 
1 
1 
1 
1 
1 
1 
1 
1 
1 
1 
1 
1 
1 
1 
1 
1 
1 
1 
1 
1 
1 
1 
1 
1 
1 
1 
1 
1 
1 
1 
1 
1 
1 
1 
1 
1 
1 
1 
1 
1 
1 
1 
1 
1 
1 
1 
1 
1 
1 
1 
1 
1 
1 
1 
1 
1 
1 
1 
1 
1 
1 
1 
1 
1 
1 
1 
1 
1 
1 
1 
1 
1 
1 
1 
1 
1 
1 
1 
1 
1 
1 
1 
1 
1 
1 
1 
1 
1 
1 
1 
1 
1 
1 
1 
1 
1 
1 
1 
1 
1 
1 
1 
1 
1 
1 
1 
1 
1 
1 
1 
1 
1 
1 
1 
1 
1 
1 
1 
1 
1 
1 
1 
1 
1 
1 
1 
1 
1 
1 
1 
1 
1 
1 
1 
1 
1 
1 
1 
1 
1 
1 
1 
1 
1 
1 
1 
1 
1 
1 
1 
1 
1 
1 
1 
1 
1 
1 
1 
1 
1 
1 
1 
1 
1 
1 
1 
1 
1 
1 
1 
1 
1 
1 
1 
1 
1 
1 
1 
1 
1 
1 
1 
1 
1 
1 
1 
1 
1 
1 
1 
1 
1 
1 
1 
1 
1 
1 
1 
1 
1 
1 
1 
1 
1 
1 
1 
1 
1 
1 
1 
1 
1 
1 
1 
1 
1 
1 
1 
1 
1 
1 
1 
1 
1 
1 
1 
1 
1 
1 
1 
1 
1 
1 
1 
1 
1 
1 
1 
1 
1 
1 
1 
1 
1 
1 
1 
1 
1 
1 
1 
1 
1 
1 
1 
1 
1 
1 
1 
1 
1 
1 
1 
1 
1 
1 
1 
1 
1 
1 
1 
1 
1 
1 
1 
1 
1 
1 
1 
1 
1 
1 
1 
1 
1 
1 
1 
1 
1 
1 
1 
1 
1 
1 
1 
1 
1 
1 
1 
1 
1 
1 
1 
1 
1 
1 
1 
1 
1 
1 
1 
1 
1 
1 
1 
1 
1 
1 
1 
1 
1 
1 
1 
1 
1 
1 
1 
1 
1 
1 
1 
1 
1 
1 
1 
1 
1 
1 
1 
1 
1 
1 
1 
1 
1 
1 
1 
1 
1 
1 
1 
1 
1 
1 
1 
1 
1 
1 
1 
1 
1 
1 
1 
1 
1 
1 
1 
1 
1 
1 
1 
1 
1 
1 
1 
1 
1 
1 
1 
1 
1 
1 
1 
1 
1 
1 
1 
1 
1 
1 
1 
1 
1 
1 
1 
1 
1 
1 
1 
1 
1 
1 
1 
1 
1 
1 
1 
1 
1 
1 
1 
1 
1 
1 
1 
1 
1 
1 
1 
1 
1 
1 
1 
1 
1 
1 
1 
1 
1 
1 
1 
1 
1 
1 
1 
1 
1 
1 
1 
1 
1 
1 
1 
1 
1 
1 
1 
1 
1 
1 
1 
1 
1 
1 
1 
1 
1 
1 
1 
1 
1 
1 
1 
1 
1 
1 
1 
1 
1 
1 
1 
1 
1 
1 
1 
1 
1 
1 
1 
1 
1 
1 
1 
1 
1 
1 
1 
1 
1 
1 
1 
1 
1 
1 
1 
1 
1 
1 
1 
1 
1 
1 
1 
1 
1 
1 
1 
1 
1 
1 
1 
1 
1 
1 
1 
1 
1 
1 
1 
1 
1 
1 
1 
1 
1 
1 
1 
1 
1 
1 
1 
1 
1 
1 
1 
1 
1 
1 
1 
1 
1 
1 
1 
1 
1 
1 
1 
1 
1 
1 
1 
1 
1 
1 
1 
1 
1 
1 
1 
1 
1 
1 
1 
1 
1 
1 
1 
1 
1 
1 
1 
1 
1 
1 
1 
1 
1 
1 
1 
1 
1 
1 
1 
1 
1 
1 
1 
1 
1 
1 
1 
1 
1 
1 
1 
1 
1 
1 
1 
1 
1 
1 
1 
1 
1 
1 
1 
1 
1 
1 
1 
1 
1 
1 
1 
1 
1 
1 
1 
1 
1 
1 
1 
1 
1 
1 
1 
1 
1 
1 
1 
1 
1 
1 
1 
1 
1 
1 
1 
1 
1 
1 
1 
1 
1 
1 
1 
1 
1 
1 
1 
1 
1 
1 
1 
1 
1 
1 
1 
1 
1 
1 
1 
1 
1 
1 
1 
1 
1 
1 
1 
1 
1 
1 
1 
1 
1 
1 
1 
1 
1 
1 
1 
1 
1 
1 
1 
1 
1 
1 
1 
1 
1 
1 
1 
1 
1 
1 
1 
1 
1 
1 
1 
1 
1 
1 
1 
1 
POINT_DATA 899 
VECTORS X_GC float 
-3.648847 2.216734 0.000000 
-3.619410 2.176182 0.000000 
-3.578536 2.140587 0.000000 
-3.540028 2.104936 0.000000 
-3.511690 2.072741 0.000000 
-3.481362 2.042882 0.000000 
-3.451569 2.002209 0.000000 
0.772356 2.119247 0.000000 
0.774615 2.093126 0.000000 
0.769962 2.064372 0.000000 
-3.399514 1.971933 0.000000 
0.413960 -0.672909 0.000000 
0.455573 -0.668606 0.000000 
-1.762619 -0.572805 0.000000 
-1.783389 -0.537408 0.000000 
-1.714437 -0.508619 0.000000 
0.732567 2.113572 0.000000 
0.698438 2.099736 0.000000 
0.491831 -0.654404 0.000000 
0.519501 -0.623999 0.000000 
0.530556 -0.583552 0.000000 
0.532354 -0.537748 0.000000 
0.531774 -0.487241 0.000000 
-3.460923 1.910200 0.000000 
0.663989 2.077790 0.000000 
0.631675 2.050395 0.000000 
0.601833 2.026339 0.000000 
0.569607 2.003082 0.000000 
0.534059 1.981004 0.000000 
0.492599 1.959864 0.000000 
0.444403 1.941200 0.000000 
0.762807 2.023398 0.000000 
-1.708694 -0.474237 0.000000 
-1.726386 -0.433973 0.000000 
-1.761257 -0.409952 0.000000 
-1.812853 -0.402104 0.000000 
-0.690422 -0.654439 0.000000 
-0.624256 -0.672367 0.000000 
-0.561079 -0.680549 0.000000 
-0.500739 -0.682004 0.000000 
-0.445387 -0.682066 0.000000 
0.532260 -0.428157 0.000000 
0.536647 -0.358824 0.000000 
-1.881389 -0.389603 0.000000 
-0.389303 -0.679792 0.000000 
-0.340338 -0.664507 0.000000 
-0.344339 -0.610372 0.000000 
-0.358558 -0.557832 0.000000 
-0.381750 -0.516921 0.000000 
-0.406193 -0.482746 0.000000 
-0.417316 -0.451248 0.000000 
-0.428320 -0.416991 0.000000 
-0.436973 -0.372727 0.000000 
-0.444212 -0.317184 0.000000 
-0.452662 -0.258326 0.000000 
-0.468602 -0.201427 0.000000 
0.553166 -0.294109 0.000000 
0.573193 -0.236438 0.000000 
0.574450 -0.184698 0.000000 
0.561087 -0.134378 0.000000 
0.550432 -0.079055 0.000000 
0.748903 1.970080 0.000000 
0.730940 1.913588 0.000000 
0.715868 1.867428 0.000000 
0.699446 1.831301 0.000000 
0.684888 1.790311 0.000000 
0.675900 1.744107 0.000000 
0.669871 1.694547 0.000000 
0.664455 1.646690 0.000000 
0.668163 1.600270 0.000000 
0.672091 1.550437 0.000000 
0.674558 1.502413 0.000000 
0.673045 1.452334 0.000000 
0.386491 1.931519 0.000000 
0.664855 1.393595 0.000000 
0.652298 1.335517 0.000000 
0.638456 1.281868 0.000000 
0.623121 1.232357 0.000000 
0.616008 1.189330 0.000000 
0.600787 1.154388 0.000000 
0.571289 1.124939 0.000000 
0.539016 1.093778 0.000000 
0.513857 1.064879 0.000000 
0.493343 1.038644 0.000000 
0.469109 1.020831 0.000000 
0.444920 1.004387 0.000000 
0.415324 0.983421 0.000000 
0.383540 0.958669 0.000000 
0.356179 0.929336 0.000000 
0.343879 0.890437 0.000000 
0.337476 0.844916 0.000000 
0.332404 0.799630 0.000000 
0.328512 0.759940 0.000000 
0.319594 0.723860 0.000000 
0.304149 0.690450 0.000000 
0.290502 0.650059 0.000000 
0.275896 0.602196 0.000000 
0.261905 0.560227 0.000000 
0.250150 0.526632 0.000000 
0.250896 0.488827 0.000000 
0.259587 0.446224 0.000000 
0.284617 0.403451 0.000000 
0.315237 0.373789 0.000000 
0.340022 0.354353 0.000000 
0.354380 0.328504 0.000000 
0.368685 0.301361 0.000000 
0.385568 0.274965 0.000000 
0.415372 0.250168 0.000000 
0.447119 0.218455 0.000000 
0.477633 0.190539 0.000000 
0.503078 0.162602 0.000000 
0.518876 0.124548 0.000000 
0.527127 0.088580 0.000000 
0.534187 0.044034 0.000000 
0.543185 -0.016746 0.000000 
0.322519 1.920464 0.000000 
0.263849 1.907347 0.000000 
0.208223 1.901927 0.000000 
0.150441 1.898098 0.000000 
-0.687392 -0.581372 0.000000 
-3.327058 1.945701 0.000000 
-3.276080 1.899280 0.000000 
-3.224941 1.865693 0.000000 
-3.181728 1.836534 0.000000 
-3.135074 1.799605 0.000000 
-3.078123 1.775311 0.000000 
-1.944260 -0.344725 0.000000 
0.083204 1.903255 0.000000 
0.005786 1.897902 0.000000 
-0.071812 1.907140 0.000000 
-0.135705 1.936682 0.000000 
-0.182391 1.978287 0.000000 
-1.999041 -0.273756 0.000000 
-1.843230 -0.548265 0.000000 
-0.491126 -0.137467 0.000000 
-0.512312 -0.064224 0.000000 
-0.526535 -0.001391 0.000000 
-0.527935 0.060731 0.000000 
-0.524207 0.127900 0.000000 
-0.505864 0.185032 0.000000 
-0.468875 0.234244 0.000000 
-0.410369 0.263489 0.000000 
-0.354013 0.284606 0.000000 
-0.301050 0.294552 0.000000 
-0.255730 0.295324 0.000000 
-0.695595 -0.503077 0.000000 
-0.726457 -0.426195 0.000000 
-0.747352 -0.356740 0.000000 
-3.396487 1.888566 0.000000 
-3.344056 1.809178 0.000000 
-3.294256 1.765777 0.000000 
-3.248246 1.727453 0.000000 
-3.196818 1.688099 0.000000 
-3.159669 1.636789 0.000000 
-3.113281 1.590084 0.000000 
-3.056061 1.570521 0.000000 
-2.996684 1.547896 0.000000 
-2.933161 1.518280 0.000000 
-2.879064 1.482137 0.000000 
-2.813006 1.457352 0.000000 
-2.751664 1.434302 0.000000 
-2.686782 1.404979 0.000000 
-1.922020 -0.545458 0.000000 
-1.999705 -0.546957 0.000000 
-2.060018 -0.525353 0.000000 
-2.032615 -0.190366 0.000000 
-2.048550 -0.104644 0.000000 
-2.029059 -0.038751 0.000000 
-2.105228 -0.468295 0.000000 
-2.154373 -0.400701 0.000000 
-2.203584 -0.346077 0.000000 
-2.237020 -0.284641 0.000000 
-2.250593 -0.219349 0.000000 
-2.270119 -0.147565 0.000000 
-2.297898 -0.077254 0.000000 
-2.327118 -0.015675 0.000000 
-2.346747 0.038295 0.000000 
-2.362840 0.091405 0.000000 
-2.374561 0.142450 0.000000 
-2.373128 0.194425 0.000000 
-2.334174 0.261015 0.000000 
-2.331842 0.301634 0.000000 
-2.284565 0.310392 0.000000 
-0.236368 2.027823 0.000000 
-0.299146 2.071649 0.000000 
-0.346614 2.091574 0.000000 
-0.382877 2.055071 0.000000 
-0.412447 2.026022 0.000000 
-0.433989 1.985734 0.000000 
-0.446472 1.942768 0.000000 
-0.451628 1.903449 0.000000 
-0.451047 1.864987 0.000000 
-0.449242 1.828984 0.000000 
-0.453345 1.797094 0.000000 
-0.460251 1.769401 0.000000 
-0.470304 1.740616 0.000000 
-0.475290 1.711125 0.000000 
-0.478341 1.681340 0.000000 
-0.479442 1.644604 0.000000 
-2.609147 1.391189 0.000000 
-2.517189 1.385691 0.000000 
-2.434013 1.386028 0.000000 
-2.352624 1.375996 0.000000 
-2.274410 1.356625 0.000000 
-2.204499 1.321977 0.000000 
-2.180326 1.253094 0.000000 
-2.178559 1.164558 0.000000 
-2.168273 1.074529 0.000000 
-2.159086 0.976465 0.000000 
-2.144575 0.887306 0.000000 
-2.163040 0.812089 0.000000 
-2.183612 0.737997 0.000000 
-2.172907 0.673440 0.000000 
-2.161614 0.610684 0.000000 
-2.169833 0.550572 0.000000 
-2.188987 0.488819 0.000000 
-2.218663 0.437574 0.000000 
-2.229021 0.381700 0.000000 
-2.997130 1.758515 0.000000 
-3.021908 1.660377 0.000000 
-2.902046 1.727007 0.000000 
-0.770600 -0.274146 0.000000 
-0.790096 -0.182487 0.000000 
-0.811857 -0.101780 0.000000 
-0.835807 -0.023216 0.000000 
-0.859157 0.046912 0.000000 
-0.881226 0.106964 0.000000 
-0.903169 0.166314 0.000000 
-0.928196 0.230358 0.000000 
-2.785442 1.694454 0.000000 
-2.944278 1.633712 0.000000 
-2.855014 1.596566 0.000000 
-2.796189 1.536486 0.000000 
-2.651235 1.679708 0.000000 
-2.517962 1.669361 0.000000 
-2.394240 1.660198 0.000000 
-2.275192 1.652202 0.000000 
-2.180847 1.627641 0.000000 
-2.099904 1.601161 0.000000 
-2.018420 1.569921 0.000000 
-1.945469 1.574219 0.000000 
-1.885190 1.607559 0.000000 
-1.829736 1.628127 0.000000 
-1.760875 1.653359 0.000000 
-1.680504 1.681783 0.000000 
-1.617798 1.700100 0.000000 
-1.570169 1.714624 0.000000 
-1.527149 1.728814 0.000000 
-1.482581 1.740943 0.000000 
-1.433927 1.747483 0.000000 
-1.386311 1.755398 0.000000 
-1.337319 1.764129 0.000000 
-1.286363 1.771208 0.000000 
-1.235962 1.771926 0.000000 
-1.188452 1.776739 0.000000 
-1.140860 1.786190 0.000000 
-1.091558 1.785499 0.000000 
-1.038962 1.774480 0.000000 
-0.982519 1.755482 0.000000 
-0.922315 1.738740 0.000000 
-0.869867 1.728415 0.000000 
-0.827747 1.721926 0.000000 
-0.785371 1.717014 0.000000 
-0.748025 1.707277 0.000000 
-0.712781 1.697010 0.000000 
-0.681690 1.683078 0.000000 
-0.657198 1.671944 0.000000 
-0.633895 1.665280 0.000000 
-0.612002 1.660825 0.000000 
-0.594184 1.653612 0.000000 
-0.577381 1.644162 0.000000 
-0.560109 1.628879 0.000000 
-0.540091 1.596424 0.000000 
-1.243914 -0.042421 0.000000 
-1.232782 -0.028704 0.000000 
-1.257376 -0.056775 0.000000 
-1.224378 -0.010005 0.000000 
-1.271472 -0.076120 0.000000 
-1.215702 0.011992 0.000000 
-1.204660 0.038049 0.000000 
-1.290143 -0.103862 0.000000 
-1.314447 -0.148902 0.000000 
-1.190204 0.068355 0.000000 
-1.318041 -0.202256 0.000000 
-1.171655 0.102511 0.000000 
-1.149359 0.138826 0.000000 
-1.123094 0.177074 0.000000 
-1.284246 -0.252236 0.000000 
-1.239750 -0.302962 0.000000 
-1.083297 0.221066 0.000000 
-1.028190 0.252737 0.000000 
-1.181630 -0.345319 0.000000 
-1.112789 -0.376746 0.000000 
-1.040643 -0.388916 0.000000 
-0.978118 -0.392003 0.000000 
-0.927392 -0.405029 0.000000 
-0.889718 -0.444163 0.000000 
-0.873564 -0.500714 0.000000 
-0.920771 -0.532907 0.000000 
-0.935346 -0.465639 0.000000 
-0.991249 -0.542483 0.000000 
-1.088918 -0.539755 0.000000 
-1.067426 -0.460103 0.000000 
-1.189474 -0.532192 0.000000 
-1.147229 -0.447436 0.000000 
-1.266509 -0.508902 0.000000 
-1.219913 -0.421259 0.000000 
-1.335307 -0.473075 0.000000 
-1.284456 -0.383260 0.000000 
-1.402357 -0.429171 0.000000 
-1.341444 -0.335459 0.000000 
-1.466758 -0.376496 0.000000 
-1.539152 -0.315697 0.000000 
-1.393011 -0.277528 0.000000 
-1.612839 -0.245425 0.000000 
-1.665320 -0.187847 0.000000 
-1.691220 -0.123020 0.000000 
-1.704696 -0.037527 0.000000 
-1.850073 0.129343 0.000000 
-1.911042 0.073518 0.000000 
-1.969645 0.016681 0.000000 
-1.726970 0.068884 0.000000 
-0.222881 0.276714 0.000000 
-0.195707 0.249131 0.000000 
-0.164205 0.212183 0.000000 
-0.127520 0.179485 0.000000 
-0.095686 0.149994 0.000000 
-0.059027 0.121516 0.000000 
-0.018954 0.091532 0.000000 
0.030296 0.060262 0.000000 
0.086536 0.039736 0.000000 
0.141893 0.021004 0.000000 
0.202102 -0.008275 0.000000 
0.263408 -0.048192 0.000000 
0.311661 -0.098179 0.000000 
0.333954 -0.157802 0.000000 
0.338621 -0.218252 0.000000 
0.341530 -0.272190 0.000000 
0.353165 -0.322379 0.000000 
0.365710 -0.380802 0.000000 
0.363543 -0.450330 0.000000 
0.357353 -0.512445 0.000000 
0.351188 -0.563188 0.000000 
0.363842 -0.610216 0.000000 
-1.737069 -0.476867 0.000000 
-0.199590 0.329331 0.000000 
-0.156305 0.299415 0.000000 
-0.462327 1.565371 0.000000 
0.741313 2.087945 0.000000 
0.482415 -0.620986 0.000000 
0.446104 -0.628882 0.000000 
0.403556 -0.634537 0.000000 
-0.104001 0.271350 0.000000 
-0.514998 1.497425 0.000000 
-0.059937 0.236945 0.000000 
0.738519 2.062680 0.000000 
0.714572 2.074981 0.000000 
-0.249752 0.356155 0.000000 
-0.036232 0.193147 0.000000 
0.000772 0.165315 0.000000 
0.035161 0.139670 0.000000 
-1.776537 -0.476308 0.000000 
-1.836238 -0.472124 0.000000 
-0.309416 0.370255 0.000000 
-0.378944 0.367990 0.000000 
-2.292732 0.247579 0.000000 
-2.315166 0.197588 0.000000 
-2.314418 0.150031 0.000000 
-2.293418 0.103644 0.000000 
-2.279687 0.053765 0.000000 
-2.253462 0.006500 0.000000 
0.075120 0.111927 0.000000 
0.131113 0.099320 0.000000 
-0.977004 0.301303 0.000000 
-0.860050 0.291137 0.000000 
-1.912142 -0.464067 0.000000 
-1.989966 -0.472848 0.000000 
-2.023752 -0.405306 0.000000 
-2.082175 -0.334045 0.000000 
0.723889 2.031167 0.000000 
0.691466 2.050010 0.000000 
0.665980 2.017363 0.000000 
0.704783 1.990095 0.000000 
0.637970 1.979305 0.000000 
0.681732 1.942887 0.000000 
0.670916 1.896711 0.000000 
0.602858 1.947637 0.000000 
0.659584 1.856288 0.000000 
0.560783 1.921266 0.000000 
0.636111 1.820213 0.000000 
0.607495 1.770422 0.000000 
0.595324 1.706942 0.000000 
0.604052 1.642269 0.000000 
0.514160 1.891863 0.000000 
0.453857 1.864418 0.000000 
0.392525 1.862440 0.000000 
0.334098 1.860911 0.000000 
0.278675 1.842157 0.000000 
0.217273 1.824082 0.000000 
0.149449 1.806727 0.000000 
0.614128 1.589993 0.000000 
0.621313 1.542414 0.000000 
0.624262 1.497534 0.000000 
-2.197766 -0.046689 0.000000 
-2.158682 -0.121612 0.000000 
-2.124695 0.012642 0.000000 
-2.150589 -0.287739 0.000000 
-2.141926 -0.210193 0.000000 
-0.393439 -0.626753 0.000000 
-0.412631 -0.582710 0.000000 
-0.436983 -0.542106 0.000000 
-0.445953 -0.498687 0.000000 
-0.458251 -0.465861 0.000000 
-0.479726 -0.431094 0.000000 
-0.496934 -0.382364 0.000000 
-0.509002 -0.327280 0.000000 
-0.517157 -0.272949 0.000000 
-0.545309 -0.221674 0.000000 
-0.442273 -0.624147 0.000000 
-0.496002 -0.614630 0.000000 
-0.557668 -0.616737 0.000000 
-0.618975 -0.601257 0.000000 
-0.334659 2.029762 0.000000 
-0.367985 2.000044 0.000000 
-0.385153 1.963619 0.000000 
-0.396797 1.929751 0.000000 
-0.406285 1.894229 0.000000 
-0.402558 1.855096 0.000000 
-0.406645 1.816653 0.000000 
-0.418378 1.784238 0.000000 
-0.428059 1.755113 0.000000 
-0.435849 1.725565 0.000000 
-0.442335 1.695531 0.000000 
-0.445406 1.662465 0.000000 
-0.444483 1.616749 0.000000 
0.619822 1.451802 0.000000 
-1.077870 0.348367 0.000000 
-1.149036 0.306408 0.000000 
-1.174735 0.231566 0.000000 
-1.192231 0.179842 0.000000 
-1.210811 0.138066 0.000000 
-1.228352 0.098726 0.000000 
-1.238869 0.060746 0.000000 
-1.244643 0.029249 0.000000 
-1.248534 0.004348 0.000000 
-1.252336 -0.014940 0.000000 
-1.262323 -0.028192 0.000000 
-1.280319 -0.039108 0.000000 
-0.451814 0.345330 0.000000 
-0.526928 0.301809 0.000000 
0.194935 0.082327 0.000000 
0.069048 1.792627 0.000000 
-0.574175 0.231124 0.000000 
-0.593607 0.150021 0.000000 
-1.764101 0.189706 0.000000 
-2.210991 0.308563 0.000000 
-0.825996 0.205861 0.000000 
-0.799223 0.134780 0.000000 
-0.760911 0.068347 0.000000 
0.605964 1.400850 0.000000 
0.587834 1.343490 0.000000 
0.576354 1.283642 0.000000 
0.574971 1.228633 0.000000 
0.580375 1.185608 0.000000 
0.545179 1.163224 0.000000 
0.509957 1.130962 0.000000 
0.484198 1.094560 0.000000 
0.468721 1.063405 0.000000 
0.449386 1.044874 0.000000 
0.422962 1.032209 0.000000 
0.391379 1.013058 0.000000 
0.357154 0.988994 0.000000 
0.323730 0.960622 0.000000 
-0.582151 -0.160806 0.000000 
0.265957 0.055897 0.000000 
0.333763 0.009768 0.000000 
0.378371 -0.057248 0.000000 
0.400918 -0.131643 0.000000 
0.401084 -0.194631 0.000000 
0.404345 -0.248732 0.000000 
0.432648 -0.299814 0.000000 
0.450030 -0.364255 0.000000 
0.529803 -0.211102 0.000000 
0.491947 -0.259239 0.000000 
0.453243 -0.209356 0.000000 
0.449550 -0.438579 0.000000 
0.498420 -0.165229 0.000000 
0.474171 -0.105287 0.000000 
0.457863 -0.030714 0.000000 
0.462195 -0.497234 0.000000 
0.478704 -0.543569 0.000000 
0.483460 -0.584535 0.000000 
0.412910 -0.522875 0.000000 
0.398390 -0.561588 0.000000 
0.404290 -0.595876 0.000000 
0.442452 -0.591318 0.000000 
0.436659 -0.556153 0.000000 
-0.727378 -0.005786 0.000000 
-0.616071 0.076232 0.000000 
-0.623548 0.001951 0.000000 
-0.605779 -0.079056 0.000000 
-0.706340 -0.091505 0.000000 
-0.681483 -0.177766 0.000000 
-0.032304 1.787066 0.000000 
-0.128010 1.823216 0.000000 
-0.195732 1.890339 0.000000 
-0.243911 1.944254 0.000000 
-0.287859 1.991657 0.000000 
-0.335518 1.963961 0.000000 
-0.667608 -0.263147 0.000000 
-0.584906 -0.269915 0.000000 
-0.658169 -0.343156 0.000000 
-0.578442 -0.335286 0.000000 
-0.639050 -0.414598 0.000000 
-0.607982 -0.490115 0.000000 
-0.562541 -0.397985 0.000000 
-0.536184 -0.459008 0.000000 
-0.495978 -0.496970 0.000000 
-0.500680 -0.549364 0.000000 
-0.573051 -0.553817 0.000000 
-2.690892 1.560360 0.000000 
-2.684799 1.474348 0.000000 
-2.602920 1.473086 0.000000 
-2.574381 1.558079 0.000000 
-2.518122 1.492953 0.000000 
-2.424460 1.516851 0.000000 
-2.320006 1.507920 0.000000 
-2.229986 1.484302 0.000000 
-2.146342 1.443062 0.000000 
-1.455055 -0.218547 0.000000 
-1.387692 -0.138223 0.000000 
-1.339496 -0.084895 0.000000 
-1.304977 -0.056335 0.000000 
-1.531301 -0.153054 0.000000 
-1.604385 -0.108941 0.000000 
-1.592423 -0.008261 0.000000 
-1.608296 0.115702 0.000000 
-1.827918 0.314148 0.000000 
0.477873 0.082951 0.000000 
0.477147 0.117850 0.000000 
0.465631 0.152090 0.000000 
-0.587742 1.596299 0.000000 
-0.593403 1.620403 0.000000 
-0.604579 1.633058 0.000000 
-0.619289 1.638745 0.000000 
-0.639577 1.636571 0.000000 
-0.665912 1.638187 0.000000 
-0.697937 1.645174 0.000000 
-0.595692 1.542811 0.000000 
-0.726123 1.659986 0.000000 
-0.757398 1.670556 0.000000 
-0.794522 1.667981 0.000000 
-0.841416 1.665403 0.000000 
-0.894922 1.666764 0.000000 
-0.956071 1.675180 0.000000 
-1.020951 1.694101 0.000000 
-1.077937 1.721736 0.000000 
-1.120258 1.750464 0.000000 
-1.171769 1.726204 0.000000 
0.332207 0.279595 0.000000 
0.333662 0.237859 0.000000 
0.321472 0.308211 0.000000 
0.302407 0.335024 0.000000 
0.214022 0.349686 0.000000 
0.194081 0.410711 0.000000 
0.186716 0.466223 0.000000 
0.189303 0.518995 0.000000 
0.360023 0.198178 0.000000 
0.405131 0.173045 0.000000 
0.201671 0.568241 0.000000 
0.218038 0.618502 0.000000 
0.236652 0.667436 0.000000 
0.256885 0.709370 0.000000 
0.278373 0.737864 0.000000 
0.284019 0.771262 0.000000 
0.276718 0.818009 0.000000 
0.278735 0.874822 0.000000 
0.296322 0.925090 0.000000 
-1.507867 1.677961 0.000000 
-1.548116 1.653319 0.000000 
-1.598023 1.625940 0.000000 
-1.467251 1.692735 0.000000 
-1.422160 1.700019 0.000000 
-1.373311 1.706735 0.000000 
-1.322903 1.714511 0.000000 
-1.275577 1.723757 0.000000 
-1.225048 1.722358 0.000000 
-1.662214 1.602270 0.000000 
-1.732600 1.582330 0.000000 
-1.794687 1.567955 0.000000 
-1.841773 1.538768 0.000000 
-2.078405 0.606040 0.000000 
-2.079214 0.684630 0.000000 
-2.097651 0.528440 0.000000 
-2.129318 0.456702 0.000000 
-2.096743 0.765192 0.000000 
-2.169699 0.401358 0.000000 
-1.991686 0.328358 0.000000 
-1.642187 0.253914 0.000000 
-1.989898 0.161133 0.000000 
-2.064526 0.089321 0.000000 
-1.914688 0.234668 0.000000 
-2.037969 1.017744 0.000000 
-2.021377 0.902059 0.000000 
-2.055796 1.146906 0.000000 
-2.102728 1.249559 0.000000 
-2.047875 1.391861 0.000000 
0.428030 0.138592 0.000000 
0.375625 0.117356 0.000000 
0.313454 0.130457 0.000000 
0.290352 0.276492 0.000000 
0.238487 0.987409 0.000000 
0.440631 0.100485 0.000000 
0.396678 0.060708 0.000000 
0.460488 0.034787 0.000000 
0.523747 1.210899 0.000000 
-2.262588 0.174154 0.000000 
-2.220468 0.230181 0.000000 
-2.218579 0.120643 0.000000 
-2.146376 0.172493 0.000000 
-2.206503 0.055572 0.000000 
0.473879 1.172287 0.000000 
0.446488 1.119956 0.000000 
0.440978 1.075937 0.000000 
0.409581 1.068082 0.000000 
0.629179 1.896977 0.000000 
0.593839 1.864504 0.000000 
0.550362 1.820300 0.000000 
0.483841 1.779877 0.000000 
0.202470 0.921045 0.000000 
0.241245 0.773269 0.000000 
0.205152 0.748469 0.000000 
0.175878 0.700328 0.000000 
0.153326 0.641822 0.000000 
0.132079 0.581372 0.000000 
0.113278 0.516916 0.000000 
0.106000 0.448593 0.000000 
0.109640 0.379396 0.000000 
0.121648 0.308718 0.000000 
0.032483 0.219104 0.000000 
0.246820 0.301783 0.000000 
0.099619 0.167470 0.000000 
0.373127 1.053200 0.000000 
-0.307911 1.916339 0.000000 
-0.360136 1.897870 0.000000 
-0.343252 1.843525 0.000000 
-0.270247 1.851669 0.000000 
0.168337 0.163988 0.000000 
0.242346 0.153651 0.000000 
0.270369 0.222687 0.000000 
0.505525 1.278661 0.000000 
-0.689828 0.105916 0.000000 
-0.729540 0.163320 0.000000 
-0.746154 0.237792 0.000000 
-0.657668 0.254356 0.000000 
-0.661195 0.170070 0.000000 
-0.924642 0.407032 0.000000 
-1.137284 1.670395 0.000000 
-1.072920 1.625801 0.000000 
-1.248127 1.682692 0.000000 
-1.304069 1.666370 0.000000 
-1.360197 1.658710 0.000000 
-1.411221 1.654570 0.000000 
-1.453165 1.651341 0.000000 
-1.486003 1.633879 0.000000 
-1.510814 1.590409 0.000000 
-1.558800 1.545740 0.000000 
-0.995058 1.599048 0.000000 
-0.919611 1.588572 0.000000 
-0.852227 1.595504 0.000000 
-0.796966 1.612023 0.000000 
-0.752732 1.631191 0.000000 
-1.635591 1.518408 0.000000 
-1.992480 0.793109 0.000000 
-1.965104 0.683330 0.000000 
-1.974377 0.579997 0.000000 
-2.014368 0.486375 0.000000 
-2.065453 0.403189 0.000000 
-2.071492 0.250122 0.000000 
-2.131272 0.333659 0.000000 
-1.712039 1.505085 0.000000 
-1.781280 1.505035 0.000000 
-1.884796 1.474978 0.000000 
0.516332 1.694641 0.000000 
0.538779 1.623513 0.000000 
0.517174 1.353046 0.000000 
0.552532 1.414982 0.000000 
0.576896 1.456909 0.000000 
0.583356 1.493935 0.000000 
0.576083 1.530940 0.000000 
0.562288 1.573300 0.000000 
-0.776910 0.334406 0.000000 
-1.451771 -0.078742 0.000000 
-1.374596 -0.040959 0.000000 
-1.326837 -0.025499 0.000000 
-1.272657 -0.010301 0.000000 
-1.295259 -0.016070 0.000000 
-1.274719 0.011234 0.000000 
-1.277356 0.038337 0.000000 
-1.282752 0.073420 0.000000 
-1.279912 0.121196 0.000000 
-1.259061 0.164992 0.000000 
-1.246354 0.206485 0.000000 
-1.247511 0.261454 0.000000 
-1.260959 0.350085 0.000000 
-1.083075 0.520358 0.000000 
-1.474179 0.015769 0.000000 
-1.468523 0.141427 0.000000 
-1.714576 0.409181 0.000000 
-1.917838 0.415806 0.000000 
-1.479337 0.291279 0.000000 
-1.929043 1.347675 0.000000 
-1.933932 1.185334 0.000000 
-1.916094 1.045644 0.000000 
-1.891356 0.926360 0.000000 
-0.640008 1.602106 0.000000 
-0.671120 1.595083 0.000000 
-0.705575 1.601502 0.000000 
-0.401264 1.465384 0.000000 
-0.460851 1.309260 0.000000 
-0.397949 1.578855 0.000000 
-0.609239 1.596585 0.000000 
-0.410298 1.642988 0.000000 
-0.408964 1.677804 0.000000 
-0.399540 1.706923 0.000000 
-0.395782 1.739791 0.000000 
0.285100 1.021650 0.000000 
0.331625 1.038956 0.000000 
-0.121818 0.357516 0.000000 
0.021900 0.280169 0.000000 
0.115588 0.233932 0.000000 
0.198863 0.235885 0.000000 
-0.064867 0.336691 0.000000 
0.364707 1.804843 0.000000 
0.303732 1.773764 0.000000 
0.240047 1.743056 0.000000 
0.172732 1.704761 0.000000 
0.087651 1.664427 0.000000 
-0.030041 1.639681 0.000000 
-0.215594 1.763132 0.000000 
-0.230359 0.439614 0.000000 
-0.307828 0.473778 0.000000 
-0.401252 0.484649 0.000000 
-0.492206 0.456404 0.000000 
-0.743012 1.587960 0.000000 
-0.382985 1.766655 0.000000 
-0.353471 1.795398 0.000000 
-1.315709 0.200712 0.000000 
-1.343314 0.282631 0.000000 
-0.721193 1.546447 0.000000 
-0.632022 1.557376 0.000000 
-0.618292 1.616098 0.000000 
-1.300529 0.009424 0.000000 
-1.311319 0.035668 0.000000 
-0.675320 1.533913 0.000000 
-1.449691 1.610617 0.000000 
-0.167828 0.398369 0.000000 
-0.066773 0.414412 0.000000 
0.014030 0.351613 0.000000 
-1.331624 0.010803 0.000000 
-1.380062 0.024707 0.000000 
-1.340869 0.069412 0.000000 
-1.353905 0.139619 0.000000 
0.406993 1.116347 0.000000 
-1.403597 1.609104 0.000000 
0.364934 1.106298 0.000000 
-1.348692 1.609824 0.000000 
0.247855 1.119304 0.000000 
0.315701 1.115910 0.000000 
0.207111 0.840836 0.000000 
0.143206 0.819960 0.000000 
-1.453768 1.558342 0.000000 
-0.790281 1.546319 0.000000 
-1.284745 1.613495 0.000000 
-1.791133 1.425967 0.000000 
-1.698001 1.410175 0.000000 
-1.602996 1.415367 0.000000 
-1.509140 1.446235 0.000000 
-1.850904 0.806400 0.000000 
0.171486 1.090553 0.000000 
0.103791 0.748720 0.000000 
0.081732 0.675007 0.000000 
0.012465 0.438145 0.000000 
0.056973 0.604074 0.000000 
-0.859037 1.502888 0.000000 
-0.947148 1.486936 0.000000 
-1.042292 1.509585 0.000000 
-1.207800 1.632526 0.000000 
0.405236 1.741305 0.000000 
0.432576 1.650303 0.000000 
0.470249 1.582557 0.000000 
0.516988 1.546114 0.000000 
0.538064 1.512615 0.000000 
0.548893 1.478700 0.000000 
0.511168 1.448600 0.000000 
0.447440 1.402064 0.000000 
0.336576 1.708437 0.000000 
0.352905 1.629158 0.000000 
0.280111 1.670178 0.000000 
0.425405 1.501272 0.000000 
0.495333 1.499455 0.000000 
0.435871 1.236040 0.000000 
-0.582540 0.402079 0.000000 
-1.810838 0.661186 0.000000 
-1.837718 0.523366 0.000000 
0.231389 1.603237 0.000000 
-0.169223 1.621132 0.000000 
-0.358516 1.732152 0.000000 
-0.831990 0.458486 0.000000 
-0.676614 0.362168 0.000000 
-0.304985 1.740765 0.000000 
0.154076 1.513192 0.000000 
0.032165 1.447310 0.000000 
-1.118654 1.552123 0.000000 
-1.306357 0.530354 0.000000 
-1.538817 0.479319 0.000000 
-1.801087 1.310571 0.000000 
-1.802902 1.176037 0.000000 
-1.804665 1.056687 0.000000 
-1.777440 0.953041 0.000000 
-0.986798 0.750021 0.000000 
-0.372825 1.643602 0.000000 
-0.323929 1.565846 0.000000 
-0.283612 1.634842 0.000000 
-0.355311 1.681550 0.000000 
-0.277653 1.392987 0.000000 
-0.126264 1.401763 0.000000 
-0.312271 1.146128 0.000000 
-0.289946 0.606258 0.000000 
-0.193810 0.540850 0.000000 
-0.423907 0.649793 0.000000 
-0.114792 0.478620 0.000000 
-0.535770 0.604374 0.000000 
-1.422411 1.481297 0.000000 
-1.396637 1.563391 0.000000 
0.101283 1.019313 0.000000 
0.384708 1.169946 0.000000 
-0.765487 1.475244 0.000000 
0.024488 0.524659 0.000000 
-1.685710 1.288977 0.000000 
-0.851171 1.377515 0.000000 
-0.603497 1.426291 0.000000 
-0.978154 1.345348 0.000000 
-0.699634 1.428786 0.000000 
-1.566560 1.283010 0.000000 
0.324386 1.216454 0.000000 
0.225177 1.261662 0.000000 
0.103404 1.257508 0.000000 
0.264525 1.404153 0.000000 
0.375524 1.324424 0.000000 
-0.722859 0.487756 0.000000 
-0.804099 0.620616 0.000000 
-0.630108 0.532168 0.000000 
-1.342192 1.561070 0.000000 
-1.445045 1.315931 0.000000 
0.042573 0.918219 0.000000 
-1.197152 1.563417 0.000000 
-1.275712 1.552606 0.000000 
0.009788 0.804605 0.000000 
0.007428 0.710710 0.000000 
-1.624661 0.679113 0.000000 
-1.706493 0.845242 0.000000 
-0.014319 0.639166 0.000000 
-0.059935 0.563567 0.000000 
-0.139952 0.644203 0.000000 
-0.233328 0.766367 0.000000 
-0.073092 0.711287 0.000000 
-0.121108 0.841143 0.000000 
-0.119730 1.035722 0.000000 
-0.398430 0.889146 0.000000 
-0.026441 1.187471 0.000000 
-1.679294 1.151122 0.000000 
-1.698733 1.029385 0.000000 
-1.219031 0.935722 0.000000 
-0.854674 1.021516 0.000000 
-0.658235 0.696227 0.000000 
-0.623629 0.938423 0.000000 
-0.765556 1.263082 0.000000 
-0.596319 1.220389 0.000000 
-1.360217 1.515454 0.000000 
-1.334110 1.391291 0.000000 
-1.529501 1.111173 0.000000 
-1.363780 1.147110 0.000000 
-1.571029 0.949848 0.000000 
-1.188333 1.483142 0.000000 
-1.056334 1.152985 0.000000 
-1.217896 1.282244 0.000000 
-1.279678 1.477330 0.000000 
-0.993027 -0.464673 0.000000 
-3.091970 1.676861 0.000000 
-1.410358 0.778578 0.000000 
-1.115382 1.405567 0.000000 
0.330018 1.527986 0.000000 
-0.391446 2.087754 0.000000 
-1.734831 -0.533822 0.000000 
-2.357079 0.280624 0.000000 
-3.441445 1.864194 0.000000 
-2.367134 0.243399 0.000000 
-3.393690 1.838214 0.000000 
VECTORS X_EC float 
0.395265 0.190775 0.000000 
0.075117 -0.044719 0.000000 
-0.205892 -0.371710 0.000000 
-0.487347 -0.679779 0.000000 
-0.741522 -0.906480 0.000000 
-0.977244 0.850898 0.000000 
0.701649 0.612553 0.000000 
-0.374362 0.821151 0.000000 
-0.580581 0.803080 0.000000 
-0.807588 0.840303 0.000000 
0.462628 0.196113 0.000000 
-0.417703 -0.311677 0.000000 
-0.383735 -0.644586 0.000000 
0.372594 -0.899046 0.000000 
0.652039 -0.732884 0.000000 
0.879323 0.715497 0.000000 
-0.419168 -0.860540 0.000000 
-0.528400 -0.587501 0.000000 
-0.271608 -0.934650 0.000000 
-0.031568 0.843993 0.000000 
0.287748 0.755555 0.000000 
0.649359 0.741169 0.000000 
-0.951903 0.745806 0.000000 
-0.024736 0.687385 0.000000 
-0.701660 -0.311912 0.000000 
-0.917934 -0.053400 0.000000 
0.892153 0.185337 0.000000 
0.708541 0.443146 0.000000 
0.534245 0.727529 0.000000 
0.367351 -0.940788 0.000000 
0.219996 -0.555224 0.000000 
0.868931 0.897547 0.000000 
-0.849237 0.669552 0.000000 
-0.531366 0.811087 0.000000 
-0.341729 -0.909944 0.000000 
-0.279768 -0.497178 0.000000 
-0.271889 0.523373 0.000000 
-0.413424 -0.005950 0.000000 
-0.478016 -0.511366 0.000000 
-0.489507 -0.994087 0.000000 
-0.489998 0.563100 0.000000 
-0.485453 0.741923 0.000000 
0.061915 0.706823 0.000000 
-0.181078 0.051112 0.000000 
-0.472043 0.114425 0.000000 
-0.351369 -0.277295 0.000000 
0.076013 -0.245290 0.000000 
0.490800 -0.131537 0.000000 
0.813785 0.053998 0.000000 
-0.916415 0.249544 0.000000 
-0.667748 0.338528 0.000000 
-0.397298 0.426562 0.000000 
-0.047842 0.495783 0.000000 
0.390654 0.553696 0.000000 
0.855324 0.621293 0.000000 
-0.695473 0.748819 0.000000 
0.572822 0.574669 0.000000 
-0.971880 0.414456 0.000000 
-0.563403 0.404400 0.000000 
-0.166141 0.511302 0.000000 
0.270620 0.596541 0.000000 
0.448000 -0.991227 0.000000 
0.002008 -0.847519 0.000000 
-0.362407 -0.726941 0.000000 
-0.647628 -0.595571 0.000000 
-0.971230 -0.479104 0.000000 
0.663999 -0.407199 0.000000 
0.272737 -0.358965 0.000000 
-0.105081 -0.315643 0.000000 
-0.471550 -0.345300 0.000000 
-0.864973 -0.376727 0.000000 
0.755894 -0.396467 0.000000 
0.360531 -0.384358 0.000000 
0.143574 -0.091925 0.000000 
-0.103197 -0.318836 0.000000 
-0.561705 -0.218386 0.000000 
-0.985256 -0.107648 0.000000 
0.623874 0.015035 0.000000 
0.284186 0.071940 0.000000 
0.008326 0.193703 0.000000 
-0.224165 0.429691 0.000000 
-0.470175 0.687876 0.000000 
-0.698325 0.889142 0.000000 
-0.905445 -0.946745 0.000000 
0.953930 -0.752872 0.000000 
0.824106 -0.559356 0.000000 
0.658586 -0.322596 0.000000 
0.463173 -0.068323 0.000000 
0.231603 0.150566 0.000000 
-0.075500 0.248970 0.000000 
-0.434872 0.300189 0.000000 
-0.792395 0.340765 0.000000 
0.894263 0.371902 0.000000 
0.609424 0.443251 0.000000 
0.345654 0.566808 0.000000 
0.026779 0.675986 0.000000 
-0.351083 0.792836 0.000000 
-0.682418 0.904763 0.000000 
-0.947642 0.998799 0.000000 
0.753897 0.992834 0.000000 
0.417555 0.923303 0.000000 
0.079873 0.723065 0.000000 
-0.154296 0.478104 0.000000 
-0.307742 0.279823 0.000000 
-0.511813 0.164962 0.000000 
-0.726098 0.050524 0.000000 
-0.934488 -0.084544 0.000000 
0.869746 -0.322978 0.000000 
0.619384 -0.576955 0.000000 
0.398991 -0.821065 0.000000 
0.178439 0.975373 0.000000 
-0.121988 0.848993 0.000000 
-0.405950 0.782983 0.000000 
-0.757624 0.726504 0.000000 
0.762533 0.654519 0.000000 
0.056291 0.419846 0.000000 
-0.047263 0.889211 0.000000 
-0.090050 -0.665787 0.000000 
-0.120276 -0.203528 0.000000 
0.304958 0.499133 0.000000 
0.255535 -0.383536 0.000000 
-0.110950 -0.791357 0.000000 
-0.376109 0.799525 0.000000 
-0.606307 0.453821 0.000000 
-0.897859 0.080591 0.000000 
0.910354 -0.375016 0.000000 
0.173223 0.554079 0.000000 
-0.079569 0.334372 0.000000 
-0.121829 0.953709 0.000000 
-0.048895 -0.425505 0.000000 
0.184328 0.085638 0.000000 
0.512793 0.459129 0.000000 
0.733502 0.992327 0.000000 
0.566327 -0.254161 0.000000 
-0.190526 0.929011 0.000000 
0.387707 -0.901508 0.000000 
0.883754 -0.787720 0.000000 
-0.625811 -0.776521 0.000000 
-0.095523 -0.806344 0.000000 
0.355518 -0.953090 0.000000 
0.744033 0.751000 0.000000 
0.974915 0.282948 0.000000 
-0.858370 -0.167894 0.000000 
-0.779854 -0.591602 0.000000 
-0.773754 -0.954160 0.000000 
0.923079 0.564764 0.000000 
-0.469961 0.811653 0.000000 
0.078371 0.978814 0.000000 
-0.195533 0.171896 0.000000 
-0.822280 -0.247549 0.000000 
0.835082 -0.645955 0.000000 
0.532521 0.985970 0.000000 
0.221835 0.574544 0.000000 
-0.183245 0.277355 0.000000 
-0.551965 -0.093754 0.000000 
-0.706413 -0.551511 0.000000 
-0.885030 0.973471 0.000000 
0.881158 0.465286 0.000000 
0.595820 0.032514 0.000000 
0.400146 -0.495949 0.000000 
0.218170 -0.986687 0.000000 
-0.013326 0.494257 0.000000 
0.588486 0.376156 0.000000 
0.576653 0.997643 0.000000 
0.747210 -0.519857 0.000000 
-0.608154 -0.739080 0.000000 
0.068600 -0.611602 0.000000 
0.588808 -0.767526 0.000000 
-0.802330 -0.158179 0.000000 
-0.268688 0.234981 0.000000 
0.162552 0.628676 0.000000 
0.647568 0.896157 0.000000 
-0.836964 -0.995252 0.000000 
-0.270248 -0.839049 0.000000 
0.284834 -0.616812 0.000000 
0.770991 -0.383053 0.000000 
-0.802930 -0.226024 0.000000 
-0.383646 -0.097282 0.000000 
0.019338 -0.003515 0.000000 
0.429671 -0.014978 0.000000 
0.955384 -0.326605 0.000000 
-0.723946 -0.345264 0.000000 
-0.654799 -0.723480 0.000000 
0.903862 0.890942 0.000000 
-0.750138 -0.606828 0.000000 
-0.592833 -0.227086 0.000000 
-0.881016 0.063016 0.000000 
0.889646 0.299572 0.000000 
0.571584 0.471913 0.000000 
0.232377 0.571774 0.000000 
-0.078031 0.613022 0.000000 
-0.381681 0.608374 0.000000 
-0.665919 0.593932 0.000000 
-0.917679 0.626760 0.000000 
0.863690 0.682006 0.000000 
0.636438 0.762432 0.000000 
0.403622 0.802318 0.000000 
0.168474 0.826728 0.000000 
-0.121548 0.835535 0.000000 
-0.122189 -0.126824 0.000000 
-0.165598 -0.862487 0.000000 
-0.162939 0.472105 0.000000 
-0.242136 -0.179007 0.000000 
-0.395066 -0.804721 0.000000 
-0.668606 0.635993 0.000000 
0.787582 0.442610 0.000000 
0.088613 0.428469 0.000000 
-0.622142 0.346180 0.000000 
0.603668 0.272687 0.000000 
-0.100217 0.156598 0.000000 
-0.694036 0.304321 0.000000 
0.721029 0.468894 0.000000 
0.211365 0.383259 0.000000 
-0.284070 0.292910 0.000000 
-0.758638 0.358667 0.000000 
0.753836 0.511892 0.000000 
0.349265 0.749304 0.000000 
-0.091839 0.832171 0.000000 
0.777747 0.977041 0.000000 
0.002974 -0.824737 0.000000 
0.529005 0.216372 0.000000 
0.730425 -0.835196 0.000000 
-0.545952 -0.679229 0.000000 
0.091214 -0.505142 0.000000 
0.711456 -0.313544 0.000000 
-0.734903 -0.126741 0.000000 
-0.260813 0.049810 0.000000 
0.207745 0.225349 0.000000 
0.713356 0.425567 0.000000 
0.272006 -0.716460 0.000000 
-0.207535 0.554221 0.000000 
-0.500791 -0.159889 0.000000 
-0.975108 -0.630485 0.000000 
0.155590 0.209878 0.000000 
0.073902 -0.856302 0.000000 
0.001564 0.153919 0.000000 
-0.061566 -0.798465 0.000000 
-0.255469 0.446773 0.000000 
-0.464518 -0.200768 0.000000 
-0.711148 -0.852640 0.000000 
-0.677219 0.563751 0.000000 
-0.414010 0.081519 0.000000 
-0.251626 -0.362111 0.000000 
-0.052430 -0.912997 0.000000 
0.171973 0.444033 0.000000 
0.316580 -0.057615 0.000000 
0.431241 -0.438650 0.000000 
0.543267 -0.782810 0.000000 
0.639022 0.860649 0.000000 
0.690658 0.471412 0.000000 
0.753143 0.090491 0.000000 
0.822068 -0.301446 0.000000 
0.877959 -0.709095 0.000000 
0.883625 0.887692 0.000000 
0.921622 0.507619 0.000000 
0.996236 0.126882 0.000000 
0.990782 -0.267535 0.000000 
0.903792 -0.688304 0.000000 
0.753808 0.860151 0.000000 
0.621634 0.378519 0.000000 
0.540122 -0.041065 0.000000 
0.488888 -0.378026 0.000000 
0.450111 -0.717031 0.000000 
0.373239 0.984197 0.000000 
0.292183 0.702250 0.000000 
0.182195 0.453520 0.000000 
0.094293 0.257584 0.000000 
0.041688 0.071164 0.000000 
0.006515 -0.103988 0.000000 
-0.050429 -0.246531 0.000000 
-0.125035 -0.380948 0.000000 
-0.245693 -0.519125 0.000000 
-0.501912 -0.679273 0.000000 
0.559833 0.951310 0.000000 
0.668124 0.862256 0.000000 
0.446513 -0.940994 0.000000 
0.815752 0.795026 0.000000 
0.293786 -0.828220 0.000000 
0.989412 0.725615 0.000000 
-0.804878 0.637279 0.000000 
0.074772 -0.678858 0.000000 
-0.280806 -0.484423 0.000000 
-0.565617 0.521634 0.000000 
-0.702024 -0.455670 0.000000 
-0.295963 0.373237 0.000000 
-0.009270 0.194872 0.000000 
0.292691 -0.015246 0.000000 
0.903400 -0.726036 0.000000 
0.502930 0.918002 0.000000 
0.639991 -0.333626 0.000000 
0.890028 -0.774479 0.000000 
0.168536 0.453039 0.000000 
-0.079574 -0.097690 0.000000 
-0.175655 -0.674853 0.000000 
-0.200024 0.824948 0.000000 
-0.302859 0.419132 0.000000 
-0.611814 0.117741 0.000000 
0.941735 -0.011490 0.000000 
0.687572 0.366172 0.000000 
-0.781360 0.482772 0.000000 
0.611975 0.929994 0.000000 
0.633512 -0.288653 0.000000 
-0.737657 -0.460592 0.000000 
0.693222 0.515789 0.000000 
-0.637654 0.177834 0.000000 
0.877090 -0.867928 0.000000 
-0.430989 0.759308 0.000000 
-0.840066 -0.317541 0.000000 
-0.130997 -0.724353 0.000000 
-0.493457 0.218857 0.000000 
0.246376 -0.268451 0.000000 
-0.077599 0.734062 0.000000 
0.402394 -0.686787 0.000000 
0.703726 0.144084 0.000000 
0.957169 -0.097292 0.000000 
-0.588266 0.322564 0.000000 
-0.076477 0.529758 0.000000 
0.598473 0.637565 0.000000 
-0.084138 -0.199418 0.000000 
-0.524860 0.288334 0.000000 
-0.973572 0.757158 0.000000 
-0.561442 0.815760 0.000000 
-0.920680 0.783045 0.000000 
0.861558 0.565653 0.000000 
0.569869 0.313636 0.000000 
0.311727 0.020160 0.000000 
0.078900 -0.234513 0.000000 
-0.145928 -0.527783 0.000000 
-0.382640 -0.848365 0.000000 
-0.629513 0.757632 0.000000 
-0.791560 0.307708 0.000000 
-0.939440 -0.135144 0.000000 
0.829404 -0.616819 0.000000 
0.514271 0.892735 0.000000 
0.119638 0.506710 0.000000 
-0.351067 0.328371 0.000000 
-0.828305 0.291035 0.000000 
0.745865 0.267759 0.000000 
0.349639 0.174680 0.000000 
-0.111594 0.074321 0.000000 
-0.660504 0.091660 0.000000 
0.849117 0.141180 0.000000 
0.448520 0.190499 0.000000 
0.077244 0.089265 0.000000 
-0.870001 0.896548 0.000000 
-0.505281 0.596718 0.000000 
-0.741460 0.250439 0.000000 
-0.747072 0.698615 0.000000 
-0.621484 -0.930506 0.000000 
-0.007788 -0.859322 0.000000 
-0.070125 -0.568834 0.000000 
-0.114764 -0.228445 0.000000 
-0.963026 -0.167992 0.000000 
0.716516 -0.880017 0.000000 
0.765357 -0.520504 0.000000 
-0.820945 -0.908153 0.000000 
-0.723838 -0.716574 0.000000 
-0.293517 0.998019 0.000000 
0.419582 -0.710146 0.000000 
0.199853 0.993821 0.000000 
-0.002605 0.718710 0.000000 
-0.865591 -0.787706 0.000000 
-0.832555 -0.310098 0.000000 
-0.182200 -0.524675 0.000000 
-0.200075 0.031556 0.000000 
0.849305 -0.658146 0.000000 
0.454639 -0.478669 0.000000 
0.079190 -0.484658 0.000000 
-0.287017 -0.652658 0.000000 
-0.680799 -0.762507 0.000000 
0.946051 -0.972302 0.000000 
-0.221626 0.399042 0.000000 
-0.321162 -0.048901 0.000000 
-0.726556 0.816031 0.000000 
-0.806809 -0.119600 0.000000 
-0.768951 0.297138 0.000000 
-0.838270 0.919727 0.000000 
-0.305044 -0.809986 0.000000 
0.257542 -0.342601 0.000000 
0.930268 -0.791114 0.000000 
-0.920973 -0.531725 0.000000 
0.821290 -0.327840 0.000000 
0.606014 -0.638264 0.000000 
0.520832 -0.103763 0.000000 
0.233316 -0.453853 0.000000 
-0.131225 -0.367331 0.000000 
0.270820 0.177133 0.000000 
-0.450361 -0.276675 0.000000 
0.062630 0.513733 0.000000 
-0.735160 -0.088885 0.000000 
0.871754 0.140040 0.000000 
0.370593 0.237410 0.000000 
-0.139985 0.167585 0.000000 
-0.169502 0.886722 0.000000 
-0.386174 -0.630857 0.000000 
-0.401793 -0.140198 0.000000 
-0.413860 0.327219 0.000000 
-0.561915 0.770601 0.000000 
-0.704615 -0.738188 0.000000 
-0.841633 -0.195592 0.000000 
-0.552688 0.086978 0.000000 
-0.928314 0.029495 0.000000 
0.717372 0.005906 0.000000 
0.526142 0.582126 0.000000 
-0.065361 0.269454 0.000000 
0.994538 -0.002440 0.000000 
0.623115 0.204709 0.000000 
-0.764682 0.135410 0.000000 
-0.053314 0.147513 0.000000 
0.294396 0.301045 0.000000 
0.614950 0.495866 0.000000 
0.957736 0.567621 0.000000 
-0.783112 0.666009 0.000000 
-0.508640 0.837805 0.000000 
-0.123924 0.975475 0.000000 
0.310948 -0.927988 0.000000 
0.739874 -0.862746 0.000000 
-0.855322 -0.637530 0.000000 
-0.032743 0.538185 0.000000 
0.042393 0.968014 0.000000 
0.025761 -0.538653 0.000000 
0.147973 -0.048203 0.000000 
0.919171 -0.322732 0.000000 
0.684560 -0.056120 0.000000 
0.396988 0.081222 0.000000 
0.129616 0.174375 0.000000 
-0.150823 0.250283 0.000000 
-0.459769 0.220460 0.000000 
-0.763269 0.253160 0.000000 
0.980828 0.347021 0.000000 
0.750891 0.424476 0.000000 
0.517622 0.486795 0.000000 
0.280504 0.538679 0.000000 
0.019464 0.563245 0.000000 
-0.341454 0.555866 0.000000 
0.356329 0.041427 0.000000 
-0.354999 -0.377036 0.000000 
-0.686252 0.192288 0.000000 
0.722886 0.397877 0.000000 
0.314544 0.537849 0.000000 
-0.015272 0.686489 0.000000 
-0.325848 0.826815 0.000000 
-0.625690 0.910948 0.000000 
-0.874352 0.957142 0.000000 
0.929060 0.988270 0.000000 
0.776788 -0.981311 0.000000 
0.672171 -0.901417 0.000000 
0.585992 -0.757449 0.000000 
-0.378972 0.614515 0.000000 
-0.722564 -0.784575 0.000000 
-0.455311 -0.559480 0.000000 
-0.952946 0.447615 0.000000 
0.719402 -0.406601 0.000000 
0.079116 -0.251146 0.000000 
0.392417 -0.887195 0.000000 
-0.669243 0.687928 0.000000 
0.519951 -0.392032 0.000000 
-0.041211 -0.606217 0.000000 
-0.565684 -0.912708 0.000000 
-0.045920 0.152292 0.000000 
-0.498763 0.297326 0.000000 
-0.971250 0.389168 0.000000 
0.594472 0.400234 0.000000 
0.254804 0.357002 0.000000 
0.078088 0.638564 0.000000 
-0.176616 0.920348 0.000000 
-0.464004 -0.873584 0.000000 
-0.709958 -0.749765 0.000000 
-0.856257 -0.595087 0.000000 
-0.956246 -0.383697 0.000000 
0.892562 -0.131036 0.000000 
0.702587 0.142766 0.000000 
0.478594 0.410160 0.000000 
-0.374787 -0.342789 0.000000 
-0.663967 0.872341 0.000000 
0.971853 0.329893 0.000000 
0.442782 -0.026967 0.000000 
-0.144547 -0.207346 0.000000 
-0.641826 -0.208672 0.000000 
0.931061 -0.234757 0.000000 
0.527782 -0.461182 0.000000 
0.019037 -0.600239 0.000000 
-0.771858 0.761578 0.000000 
0.848110 -0.935578 0.000000 
-0.758073 -0.625942 0.000000 
-0.567732 -0.596399 0.000000 
-0.409699 -0.987358 0.000000 
0.063522 -0.793371 0.000000 
0.652258 -0.662901 0.000000 
0.969209 -0.697560 0.000000 
0.603399 -0.829633 0.000000 
0.279983 -0.867681 0.000000 
0.766775 -0.303281 0.000000 
0.461144 -0.187123 0.000000 
0.190453 -0.234320 0.000000 
0.226439 -0.539614 0.000000 
0.504053 -0.493272 0.000000 
0.849055 0.819025 0.000000 
-0.503433 -0.071434 0.000000 
0.910141 -0.011617 0.000000 
0.270607 -0.153771 0.000000 
0.172332 0.650722 0.000000 
-0.508681 0.451860 0.000000 
-0.996847 -0.741571 0.000000 
-0.711455 0.024076 0.000000 
-0.181530 0.565857 0.000000 
0.244107 0.951284 0.000000 
0.618344 -0.697126 0.000000 
0.399695 -0.315859 0.000000 
0.817259 0.340868 0.000000 
0.763828 -0.320749 0.000000 
0.185612 0.265354 0.000000 
0.247745 -0.372466 0.000000 
-0.378408 0.112402 0.000000 
-0.974595 -0.136144 0.000000 
-0.247249 -0.499670 0.000000 
-0.729013 -0.710528 0.000000 
0.971290 0.967820 0.000000 
0.557650 -0.994563 0.000000 
0.522495 -0.415593 0.000000 
-0.786629 0.527140 0.000000 
0.534324 0.478396 0.000000 
0.524361 -0.176642 0.000000 
-0.804641 -0.404948 0.000000 
0.681207 -0.855021 0.000000 
0.869875 0.395677 0.000000 
0.799366 -0.439953 0.000000 
0.612910 0.839884 0.000000 
0.287330 0.170738 0.000000 
-0.830633 0.640441 0.000000 
-0.196498 0.101540 0.000000 
0.224514 -0.284033 0.000000 
0.449987 -0.560180 0.000000 
-0.313583 -0.749591 0.000000 
0.034675 -0.164921 0.000000 
0.829521 -0.260616 0.000000 
-0.191825 -0.133635 0.000000 
-0.625149 -0.376658 0.000000 
-0.450386 -0.822983 0.000000 
-0.174871 -0.817172 0.000000 
0.095445 -0.725050 0.000000 
-0.502903 -0.298067 0.000000 
-0.312611 -0.252778 0.000000 
-0.212696 -0.163364 0.000000 
-0.167806 -0.045684 0.000000 
-0.184964 0.116620 0.000000 
-0.172205 0.327300 0.000000 
-0.117046 0.583497 0.000000 
-0.925179 -0.234465 0.000000 
-0.000113 0.808982 0.000000 
0.083338 -0.940815 0.000000 
0.063007 -0.643826 0.000000 
0.042656 -0.268675 0.000000 
0.053398 0.159379 0.000000 
0.119838 0.648571 0.000000 
0.269218 -0.832390 0.000000 
0.487387 -0.376500 0.000000 
0.714189 -0.037936 0.000000 
0.522660 0.374150 0.000000 
-0.897937 0.342342 0.000000 
0.772573 0.330702 0.000000 
-0.672017 0.428221 0.000000 
-0.460337 0.580747 0.000000 
-0.344585 -0.712173 0.000000 
0.137188 -0.552650 0.000000 
0.575448 -0.493725 0.000000 
0.992070 -0.514423 0.000000 
0.459298 0.119819 0.000000 
0.260878 -0.241047 0.000000 
-0.619148 -0.613369 0.000000 
-0.222350 -0.744300 0.000000 
0.163969 -0.893214 0.000000 
0.495025 0.944917 0.000000 
0.719979 0.773015 0.000000 
0.983647 0.727849 0.000000 
-0.647295 0.786259 0.000000 
-0.198771 0.770117 0.000000 
0.198077 0.629424 0.000000 
0.141799 -0.937062 0.000000 
-0.052745 -0.615076 0.000000 
-0.268898 -0.215812 0.000000 
0.258435 0.738009 0.000000 
0.315936 0.377276 0.000000 
0.368959 -0.013514 0.000000 
0.430354 -0.416776 0.000000 
0.503347 -0.795383 0.000000 
0.492299 0.800383 0.000000 
-0.455762 0.297710 0.000000 
-0.613180 0.860799 0.000000 
-0.726670 -0.642503 0.000000 
-0.957096 -0.265814 0.000000 
-0.320733 -0.372760 0.000000 
0.299709 -0.366288 0.000000 
-0.933365 -0.218793 0.000000 
0.500275 0.034547 0.000000 
0.935726 -0.226059 0.000000 
0.063353 0.357594 0.000000 
-0.512964 0.933490 0.000000 
0.899320 0.137498 0.000000 
0.166840 0.919181 0.000000 
-0.400101 -0.483795 0.000000 
0.747376 0.317508 0.000000 
0.929559 -0.696244 0.000000 
0.016259 -0.828987 0.000000 
-0.050743 -0.553633 0.000000 
0.759676 -0.178179 0.000000 
-0.116884 -0.617002 0.000000 
-0.011115 -0.424238 0.000000 
-0.178767 -0.005004 0.000000 
-0.075339 0.492368 0.000000 
-0.922433 0.677180 0.000000 
0.690073 -0.907893 0.000000 
-0.311963 -0.525047 0.000000 
-0.625992 -0.173422 0.000000 
-0.830628 -0.683907 0.000000 
0.454469 0.810024 0.000000 
0.269636 -0.899296 0.000000 
0.711957 0.763742 0.000000 
-0.152820 0.748635 0.000000 
0.256523 0.171005 0.000000 
-0.666533 0.652020 0.000000 
0.149636 -0.791029 0.000000 
-0.263506 -0.571902 0.000000 
-0.611024 -0.527821 0.000000 
-0.673038 -0.276648 0.000000 
-0.129127 -0.033429 0.000000 
-0.385495 0.249290 0.000000 
-0.734474 0.597101 0.000000 
0.946400 -0.870727 0.000000 
0.166146 -0.619756 0.000000 
0.999495 -0.929964 0.000000 
0.803701 -0.641212 0.000000 
0.423643 -0.407027 0.000000 
-0.038248 -0.226607 0.000000 
-0.515484 -0.056634 0.000000 
0.975653 0.093777 0.000000 
0.436260 0.151997 0.000000 
-0.110028 0.122881 0.000000 
-0.668012 0.026812 0.000000 
0.624506 0.740136 0.000000 
-0.722768 -0.974563 0.000000 
0.216865 0.203046 0.000000 
-0.790529 0.014985 0.000000 
0.023733 -0.536714 0.000000 
-0.122078 -0.118910 0.000000 
-0.551121 -0.253985 0.000000 
-0.486825 -0.838027 0.000000 
0.189378 -0.346695 0.000000 
0.107768 -0.938766 0.000000 
0.652793 0.837050 0.000000 
0.989426 0.955803 0.000000 
-0.269086 0.518622 0.000000 
0.184103 0.836318 0.000000 
0.772043 0.969231 0.000000 
0.902813 0.261342 0.000000 
0.237392 0.289561 0.000000 
0.108148 0.397133 0.000000 
0.082068 0.098273 0.000000 
-0.269990 -0.416638 0.000000 
0.179150 0.985014 0.000000 
0.050290 -0.567445 0.000000 
-0.010185 -0.118420 0.000000 
-0.042867 0.289767 0.000000 
-0.068364 0.625316 0.000000 
-0.206222 0.888027 0.000000 
-0.549399 -0.913491 0.000000 
-0.902049 -0.529600 0.000000 
-0.481198 0.960463 0.000000 
-0.563905 0.356891 0.000000 
-0.509178 -0.182182 0.000000 
-0.378768 -0.624271 0.000000 
-0.227438 -0.978142 0.000000 
0.882165 0.084729 0.000000 
-0.843876 0.939842 0.000000 
0.289444 0.720830 0.000000 
-0.526340 0.795017 0.000000 
0.734540 -0.885057 0.000000 
0.077808 -0.476377 0.000000 
0.869384 -0.428060 0.000000 
-0.471116 0.050173 0.000000 
0.776983 0.696314 0.000000 
0.776592 -0.749758 0.000000 
0.539301 0.078366 0.000000 
0.273480 0.869340 0.000000 
-0.288059 0.689765 0.000000 
-0.423321 0.862610 0.000000 
0.065650 0.579745 0.000000 
0.396649 0.384830 0.000000 
0.688961 0.333156 0.000000 
0.981102 0.391338 0.000000 
-0.684476 0.501695 0.000000 
-0.465219 -0.784719 0.000000 
0.273093 0.614164 0.000000 
0.571377 -0.003233 0.000000 
0.693433 -0.385303 0.000000 
0.813414 -0.818742 0.000000 
0.767869 -0.637925 0.000000 
0.983429 -0.802248 0.000000 
-0.802602 -0.781148 0.000000 
-0.525632 -0.737986 0.000000 
-0.148455 -0.760704 0.000000 
0.197303 -0.927515 0.000000 
0.524880 0.970836 0.000000 
0.958850 0.980091 0.000000 
-0.341430 -0.912331 0.000000 
-0.997172 -0.335404 0.000000 
-0.980768 0.793433 0.000000 
0.011262 0.748186 0.000000 
0.125116 0.716607 0.000000 
0.177416 0.342700 0.000000 
-0.805690 0.834699 0.000000 
-0.465720 0.432347 0.000000 
0.252634 0.471457 0.000000 
-0.850182 0.328753 0.000000 
0.208105 0.130846 0.000000 
-0.457055 0.120064 0.000000 
-0.512503 0.368961 0.000000 
-0.461828 0.644600 0.000000 
0.463560 0.210109 0.000000 
-0.768998 0.686805 0.000000 
-0.640617 0.183589 0.000000 
-0.500647 -0.126088 0.000000 
-0.134304 0.282381 0.000000 
0.140558 0.271711 0.000000 
0.370449 0.196319 0.000000 
0.629926 0.166257 0.000000 
0.960396 0.719201 0.000000 
-0.902982 0.346997 0.000000 
-0.282769 -0.025457 0.000000 
-0.893400 0.824800 0.000000 
0.741570 0.075295 0.000000 
0.756991 -0.590900 0.000000 
-0.447176 -0.481067 0.000000 
-0.856502 0.082343 0.000000 
0.898135 0.570144 0.000000 
0.655702 -0.920374 0.000000 
0.353374 -0.381858 0.000000 
0.034950 0.298788 0.000000 
-0.160414 -0.759672 0.000000 
0.814200 0.724754 0.000000 
0.365372 0.842875 0.000000 
0.635088 -0.537376 0.000000 
0.720915 0.210014 0.000000 
0.497924 0.937650 0.000000 
-0.568737 0.944097 0.000000 
0.842010 0.063880 0.000000 
-0.931068 -0.172232 0.000000 
0.479302 -0.474328 0.000000 
-0.873966 -0.253488 0.000000 
-0.896469 0.769545 0.000000 
-0.810192 0.056179 0.000000 
-0.346591 -0.053661 0.000000 
0.969135 -0.595769 0.000000 
-0.823671 -0.509445 0.000000 
-0.995423 0.402558 0.000000 
-0.389863 0.597530 0.000000 
0.039753 0.342623 0.000000 
0.166409 -0.465815 0.000000 
-0.329367 0.887762 0.000000 
0.980027 -0.347012 0.000000 
-0.910205 0.040495 0.000000 
-0.557277 -0.273046 0.000000 
-0.003007 -0.168757 0.000000 
-0.292000 -0.255947 0.000000 
-0.401809 0.228777 0.000000 
-0.371330 0.080526 0.000000 
-0.396123 -0.210466 0.000000 
-0.268652 -0.982840 0.000000 
-0.295450 0.474389 0.000000 
-0.467081 -0.656890 0.000000 
-0.631894 -0.145648 0.000000 
-0.802566 0.630142 0.000000 
-0.897480 -0.677752 0.000000 
-0.367143 -0.722039 0.000000 
0.152374 -0.670935 0.000000 
0.027699 0.584008 0.000000 
0.068683 -0.176034 0.000000 
0.312382 -0.926878 0.000000 
-0.738944 -0.192766 0.000000 
-0.495636 -0.371885 0.000000 
0.805683 0.169669 0.000000 
0.223736 0.346148 0.000000 
0.353779 0.900279 0.000000 
-0.336259 0.544215 0.000000 
0.759640 -0.127702 0.000000 
0.633705 0.577184 0.000000 
0.812510 -0.661662 0.000000 
-0.216903 0.662399 0.000000 
0.641881 -0.241884 0.000000 
-0.076557 -0.460610 0.000000 
-0.611391 -0.761996 0.000000 
-0.899097 0.864097 0.000000 
0.836433 0.695492 0.000000 
0.568683 0.608854 0.000000 
0.331050 0.910652 0.000000 
-0.036338 -0.579521 0.000000 
0.382394 0.307394 0.000000 
-0.243490 0.176756 0.000000 
0.080355 0.759115 0.000000 
0.746885 -0.403237 0.000000 
0.732542 -0.962664 0.000000 
0.652949 -0.486967 0.000000 
0.069045 -0.339684 0.000000 
0.114629 -0.513296 0.000000 
-0.973429 -0.298253 0.000000 
-0.448126 -0.851110 0.000000 
-0.306854 0.353787 0.000000 
0.569621 -0.131876 0.000000 
0.514367 -0.344083 0.000000 
-0.246042 0.412916 0.000000 
0.637615 -0.560120 0.000000 
0.840986 -0.232606 0.000000 
0.320869 0.742677 0.000000 
-0.851660 -0.050772 0.000000 
-0.918255 -0.549146 0.000000 
0.678837 -0.689463 0.000000 
-0.758647 -0.591300 0.000000 
0.179236 -0.576781 0.000000 
-0.762999 -0.562679 0.000000 
0.418748 -0.780478 0.000000 
0.815955 0.894385 0.000000 
-0.129456 -0.017402 0.000000 
-0.743318 -0.408568 0.000000 
-0.198617 -0.731106 0.000000 
0.170135 -0.157512 0.000000 
-0.107999 -0.778774 0.000000 
-0.038710 0.010115 0.000000 
-0.056887 -0.501829 0.000000 
-0.319018 -0.680433 0.000000 
-0.835392 0.550477 0.000000 
0.024681 0.391254 0.000000 
0.673316 -0.081667 0.000000 
-0.333893 -0.713840 0.000000 
0.589188 0.379288 0.000000 
-0.762704 0.173094 0.000000 
0.941942 0.189738 0.000000 
0.131151 -0.077662 0.000000 
0.541399 -0.876107 0.000000 
-0.963215 0.804095 0.000000 
-0.929127 0.485676 0.000000 
-0.230146 -0.190630 0.000000 
0.154925 -0.172023 0.000000 
-0.484092 0.825230 0.000000 
0.174624 0.597074 0.000000 
-0.976233 -0.467517 0.000000 
0.498325 0.404913 0.000000 
0.855227 -0.801415 0.000000 
0.822431 0.172768 0.000000 
-0.019845 0.883803 0.000000 
-0.649284 -0.004196 0.000000 
0.745443 0.782874 0.000000 
-0.205660 -0.567206 0.000000 
-0.903934 0.040867 0.000000 
-0.781030 -0.262463 0.000000 
-0.716336 0.560361 0.000000 
0.143834 0.659412 0.000000 
-0.762494 0.577216 0.000000 
-0.847844 -0.794300 0.000000 
-0.753114 0.921697 0.000000 
0.505608 0.940580 0.000000 
0.256155 -0.002712 0.000000 
-0.432303 0.651944 0.000000 
-0.059216 -0.885449 0.000000 
-0.656051 -0.520523 0.000000 
-0.019453 0.119613 0.000000 
0.945006 0.866626 0.000000 
0.510160 -0.415262 0.000000 
-0.464660 -0.031133 0.000000 
-0.928513 -0.042158 0.000000 
-0.085687 0.187444 0.000000 
0.269508 -0.788472 0.000000 
-0.017458 0.434348 0.000000 
-0.978538 0.589867 0.000000 
0.282013 0.752248 0.000000 
0.959333 -0.162612 0.000000 
0.391270 0.265881 0.000000 
0.303338 -0.010965 0.000000 
0.866433 -0.875549 0.000000 
0.529389 -0.229445 0.000000 
0.858844 -0.118263 0.000000 
-0.121384 -0.327123 0.000000 
-0.332846 -0.763988 0.000000 
-0.049133 -0.089763 0.000000 
0.393533 -0.431767 0.000000 
0.603753 0.506663 0.000000 
-0.002751 -0.549332 0.000000 
-0.982282 0.743169 0.000000 
0.557869 -0.762577 0.000000 
-0.773738 0.944214 0.000000 
0.133109 -0.264238 0.000000 
-0.958592 0.282864 0.000000 
-0.008680 -0.076942 0.000000 
0.957786 0.359853 0.000000 
-0.622992 0.131570 0.000000 
0.680355 0.878646 0.000000 
-0.889814 -0.143370 0.000000 
-0.387944 0.531557 0.000000 
0.816311 -0.062927 0.000000 
-0.593049 0.149516 0.000000 
CELL_DATA 899 
SCALARS MASS float 
LOOKUP_TABLE default 
0.814997 
1.448845 
1.668565 
1.794886 
1.361438 
1.831342 
2.259706 
0.213135 
0.196588 
0.207496 
1.880851 
0.439777 
0.331778 
0.364951 
0.612627 
0.274411 
0.260395 
0.217654 
0.296934 
0.266990 
0.466240 
0.509384 
0.733216 
0.739170 
0.387188 
0.345944 
0.452966 
0.494740 
0.551308 
0.648448 
0.752806 
0.417235 
0.218595 
0.289879 
0.722922 
0.804537 
1.021505 
0.937232 
0.841016 
0.803048 
0.619897 
1.038794 
1.293895 
1.301335 
0.691005 
0.431975 
0.647573 
0.616545 
0.576670 
0.266309 
0.297534 
0.391690 
0.604646 
0.774259 
0.831676 
0.939146 
1.129789 
0.520851 
0.464605 
0.716459 
0.889315 
0.593583 
0.614640 
0.457422 
0.372306 
0.488949 
0.641320 
0.747045 
0.490174 
0.551661 
0.523343 
0.508441 
0.614565 
0.859709 
0.765910 
0.720157 
0.682478 
0.421921 
0.268961 
0.262942 
0.426045 
0.393658 
0.278380 
0.261718 
0.162198 
0.234839 
0.278449 
0.287969 
0.244414 
0.403757 
0.550341 
0.463860 
0.338742 
0.350225 
0.337056 
0.525733 
0.562823 
0.419041 
0.314522 
0.509290 
0.523048 
0.877653 
0.349228 
0.225451 
0.235059 
0.249781 
0.366201 
0.644537 
0.620783 
0.339837 
0.287648 
0.382936 
0.362625 
0.799998 
1.122418 
0.799088 
0.680669 
0.866894 
1.003571 
1.354661 
1.853857 
1.742882 
1.214309 
1.426031 
1.636237 
1.719299 
1.801144 
1.602051 
1.452273 
1.275395 
0.790935 
0.890716 
2.050838 
1.154370 
1.385193 
1.297838 
0.991117 
1.158409 
0.767421 
0.829112 
0.895971 
1.063583 
0.809199 
0.656638 
0.354820 
1.452535 
1.387436 
1.274147 
0.537119 
1.620892 
1.463026 
1.596472 
1.756097 
1.271080 
1.065987 
1.156825 
1.276513 
1.414763 
1.006273 
1.096772 
1.062030 
0.892650 
1.284017 
0.980927 
1.000067 
2.321434 
1.747538 
1.536946 
1.712190 
1.447662 
1.007350 
0.975424 
1.487738 
1.639549 
1.486177 
0.979182 
0.805630 
0.813336 
0.641130 
0.711156 
0.207836 
0.269013 
0.855473 
1.045568 
0.791718 
0.342691 
0.453304 
0.426256 
0.570926 
0.416459 
0.375884 
0.354688 
0.264371 
0.216171 
0.182793 
0.252956 
0.179739 
0.222894 
0.247373 
1.613875 
1.875775 
2.035370 
2.127471 
1.947260 
1.753562 
1.040721 
1.279022 
2.278945 
2.333206 
2.040851 
1.424418 
1.098725 
1.255601 
0.836194 
0.905620 
0.781446 
0.664302 
0.776641 
2.067730 
1.483350 
2.145495 
2.073271 
1.781968 
1.685305 
1.731154 
1.299699 
1.074228 
1.103773 
1.132785 
3.482831 
1.755828 
2.272319 
1.700356 
3.950527 
3.859171 
4.115531 
3.468933 
2.708902 
2.764259 
2.968101 
1.994670 
1.150141 
0.864719 
1.360273 
1.259775 
0.807082 
0.599653 
0.479233 
0.529928 
0.462560 
0.503857 
0.524851 
0.560322 
0.460734 
0.506103 
0.374542 
0.350464 
0.749792 
0.811574 
0.783632 
0.544062 
0.438563 
0.445491 
0.244570 
0.308771 
0.220812 
0.160103 
0.126686 
0.100795 
0.090745 
0.138791 
0.256352 
0.827395 
0.086830 
0.099690 
0.123853 
0.122249 
0.207192 
0.163120 
0.239219 
0.388240 
0.778706 
0.322964 
1.048544 
0.414071 
0.474721 
0.656925 
1.198437 
1.126206 
1.144058 
1.116759 
1.171714 
1.045737 
0.926556 
0.873202 
0.589826 
0.563407 
0.678725 
0.923637 
0.558139 
1.464933 
1.743086 
1.227811 
1.812559 
1.349474 
1.574665 
1.398369 
1.722017 
1.454376 
1.874986 
1.585674 
2.084762 
2.671368 
1.933273 
2.296072 
1.169028 
1.156625 
2.228174 
2.060782 
1.818668 
1.896772 
2.747172 
0.356480 
0.460413 
0.890515 
0.731993 
0.649918 
0.694495 
0.769888 
0.887832 
0.786104 
0.885935 
1.154372 
1.160047 
0.850850 
0.772332 
0.725769 
0.677854 
0.922960 
0.985818 
1.362571 
0.788450 
0.532504 
0.494248 
0.214341 
0.695641 
0.716454 
0.927986 
0.140593 
0.232810 
0.297508 
0.349532 
1.033550 
2.961022 
1.053017 
0.145387 
0.144061 
0.809607 
0.589993 
0.615340 
0.626094 
0.689657 
0.994540 
1.160792 
1.457671 
0.764565 
0.547649 
0.479604 
0.768153 
0.631003 
0.751347 
0.606687 
0.855802 
1.587568 
1.962281 
1.395860 
1.144432 
1.877399 
1.893745 
0.307074 
0.297075 
0.412702 
0.466584 
0.608375 
0.625241 
0.418250 
0.646555 
0.337519 
0.675916 
0.579132 
0.988219 
1.131267 
0.718056 
0.879108 
1.199383 
0.793040 
0.661365 
0.868802 
1.074436 
1.419386 
0.547188 
0.455355 
0.411414 
1.820604 
2.103034 
2.247161 
1.270531 
2.033362 
0.460225 
0.498661 
0.656889 
0.297227 
0.292840 
0.534216 
0.692218 
0.754218 
0.660662 
0.881838 
0.523952 
0.881889 
0.697812 
0.857701 
0.566564 
0.361654 
0.403990 
0.352687 
0.306233 
0.418854 
0.354892 
0.241996 
0.210380 
0.233870 
0.214722 
0.243485 
0.362589 
0.465080 
2.404070 
1.947644 
0.946490 
0.551552 
0.469478 
0.425042 
0.292762 
0.184844 
0.118944 
0.071142 
0.069311 
0.140690 
1.644604 
1.893235 
1.094464 
2.101951 
1.617670 
1.159842 
3.355291 
1.447872 
1.426745 
1.222373 
1.548358 
0.643619 
0.812967 
0.750840 
0.476016 
0.273108 
0.427659 
0.469155 
0.325123 
0.178433 
0.143716 
0.248584 
0.314263 
0.411721 
0.481902 
1.690053 
1.476918 
1.750955 
1.388709 
1.153712 
0.686586 
0.616590 
1.108327 
1.329332 
0.511210 
0.928724 
0.687317 
1.249044 
0.884423 
1.205268 
1.358704 
0.759682 
0.446899 
0.348083 
0.411368 
0.262857 
0.264051 
0.288463 
0.259541 
1.978994 
1.433550 
1.716658 
1.612371 
1.823596 
1.988735 
2.807794 
2.419984 
1.251635 
0.924962 
0.718513 
0.481721 
1.781845 
0.894209 
1.301109 
0.938003 
1.269811 
1.581854 
0.925531 
0.921482 
0.498159 
0.933556 
1.013253 
2.739234 
1.145164 
1.227291 
1.904434 
1.736902 
3.063486 
2.776380 
2.646664 
3.200246 
2.496591 
1.436311 
0.582963 
0.268172 
2.462910 
1.560589 
2.856408 
3.513568 
3.593902 
0.313806 
0.255175 
0.284552 
0.169076 
0.087198 
0.062303 
0.069477 
0.146007 
0.222206 
0.310248 
0.758933 
0.249616 
0.227668 
0.427883 
0.591969 
0.790973 
0.979806 
1.022167 
0.782199 
0.388473 
0.703038 
0.244376 
0.616469 
0.216482 
0.314505 
1.391385 
0.951653 
0.796124 
0.689270 
0.892729 
0.523362 
0.654291 
0.686632 
0.607247 
0.450163 
0.252199 
0.297680 
0.621092 
0.825379 
0.636461 
0.457189 
0.663078 
1.013095 
0.416230 
0.453041 
0.503777 
0.509642 
0.417663 
0.478631 
1.205103 
1.079333 
0.670462 
0.804833 
1.408696 
1.576894 
1.369391 
1.055885 
1.473299 
0.762761 
2.615622 
4.566645 
2.476428 
2.644593 
2.724505 
3.060286 
3.131817 
3.546054 
2.473962 
5.027535 
0.382103 
0.663605 
1.403935 
0.387474 
1.270149 
0.338234 
1.065505 
0.881563 
0.663855 
0.618089 
1.364242 
1.257690 
2.466677 
0.974088 
0.844131 
0.492159 
0.192867 
0.305660 
0.440228 
0.670215 
1.177208 
1.848496 
1.692244 
0.408748 
0.799495 
0.921837 
0.950751 
0.955365 
1.131829 
1.204590 
1.319271 
1.583603 
0.815568 
0.976245 
0.757035 
0.378270 
0.892601 
0.456735 
0.772070 
1.410773 
0.999250 
1.273725 
0.914644 
1.254854 
1.025297 
0.850160 
1.507333 
1.841585 
0.899843 
3.992341 
1.351294 
1.521600 
0.555017 
0.589491 
0.537133 
0.428380 
0.284792 
0.327998 
0.851282 
1.588842 
1.454404 
1.288405 
0.949336 
0.599172 
0.327841 
1.499221 
3.123945 
2.747463 
2.536700 
2.100494 
1.740348 
2.701089 
1.748755 
1.250020 
0.781477 
2.169762 
1.574870 
0.921296 
1.196363 
0.600461 
0.283891 
0.246672 
0.359092 
0.522446 
2.217231 
1.931660 
0.725891 
0.286414 
0.075896 
0.146061 
0.126060 
0.195473 
0.393830 
0.699257 
0.496011 
0.498903 
1.132455 
2.956735 
10.748612 
2.871802 
4.109697 
6.144787 
3.072817 
6.278416 
5.009994 
4.284342 
3.102812 
3.001759 
0.205204 
0.352257 
0.338488 
2.649178 
6.640870 
0.907021 
0.113230 
0.269347 
0.219010 
0.295027 
0.198745 
0.904479 
0.620715 
0.738414 
1.354952 
1.464627 
1.239278 
0.967340 
0.881495 
1.028853 
1.265897 
1.813090 
3.056601 
4.921530 
2.946529 
1.506820 
2.030213 
2.709747 
2.592820 
0.433253 
0.236396 
0.621654 
0.843519 
2.215793 
0.504732 
0.417480 
0.081054 
0.139552 
0.190309 
0.792540 
0.347080 
1.171400 
1.183571 
1.583892 
0.241547 
0.951997 
0.634522 
1.687218 
0.434750 
0.455607 
0.468496 
0.593095 
1.769477 
1.026473 
1.135123 
1.797339 
0.839631 
0.924470 
0.845703 
1.808078 
1.990630 
2.331248 
2.656456 
3.846695 
2.656881 
1.466393 
1.220445 
1.697253 
1.217922 
1.607812 
2.306175 
2.119227 
1.344304 
1.608658 
1.750037 
1.220253 
0.411747 
0.285856 
0.263192 
0.643053 
2.046456 
0.977348 
1.352223 
1.049209 
1.939998 
0.491120 
1.675469 
2.874237 
5.346095 
4.954993 
2.321985 
5.378686 
0.323862 
3.161959 
2.749729 
1.165122 
4.639949 
6.903549 
1.388530 
13.130022 
10.399030 
3.176275 
3.281581 
2.130918 
2.202166 
18.677771 
0.393556 
1.882276 
2.128266 
0.573620 
7.101032 
8.996294 
13.909047 
3.497158 
2.349395 
5.829165 
1.989320 
3.556176 
1.849605 
0.467352 
3.873245 
0.849130 
1.446858 
1.777539 
3.009091 
3.431483 
3.236575 
5.184580 
2.636125 
3.658244 
1.858148 
3.842623 
5.484070 
4.842566 
3.248038 
2.871939 
6.080934 
2.967966 
0.510912 
4.233476 
4.334059 
1.175840 
0.988338 
2.421584 
1.183952 
9.306750 
4.726810 
1.141527 
2.158936 
2.739469 
6.032449 
1.581485 
4.493860 
9.539122 
14.209354 
7.199147 
3.501693 
2.506154 
17.244339 
16.271074 
6.174211 
16.507673 
7.044861 
8.528390 
0.721090 
3.682418 
6.244847 
8.654681 
6.615292 
1.636205 
11.522723 
6.939662 
1.665240 
0.989746 
1.140976 
14.709179 
3.872443 
3.269091 
0.344281 
0.338818 
0.155842 
0.445990 
0.366565 
0.562578 
SCALARS MASS float 
LOOKUP_TABLE default 
0.814997 
1.448845 
1.668565 
1.794886 
1.361438 
1.831342 
2.259706 
0.213135 
0.196588 
0.207496 
1.880851 
0.439777 
0.331778 
0.364951 
0.612627 
0.274411 
0.260395 
0.217654 
0.296934 
0.266990 
0.466240 
0.509384 
0.733216 
0.739170 
0.387188 
0.345944 
0.452966 
0.494740 
0.551308 
0.648448 
0.752806 
0.417235 
0.218595 
0.289879 
0.722922 
0.804537 
1.021505 
0.937232 
0.841016 
0.803048 
0.619897 
1.038794 
1.293895 
1.301335 
0.691005 
0.431975 
0.647573 
0.616545 
0.576670 
0.266309 
0.297534 
0.391690 
0.604646 
0.774259 
0.831676 
0.939146 
1.129789 
0.520851 
0.464605 
0.716459 
0.889315 
0.593583 
0.614640 
0.457422 
0.372306 
0.488949 
0.641320 
0.747045 
0.490174 
0.551661 
0.523343 
0.508441 
0.614565 
0.859709 
0.765910 
0.720157 
0.682478 
0.421921 
0.268961 
0.262942 
0.426045 
0.393658 
0.278380 
0.261718 
0.162198 
0.234839 
0.278449 
0.287969 
0.244414 
0.403757 
0.550341 
0.463860 
0.338742 
0.350225 
0.337056 
0.525733 
0.562823 
0.419041 
0.314522 
0.509290 
0.523048 
0.877653 
0.349228 
0.225451 
0.235059 
0.249781 
0.366201 
0.644537 
0.620783 
0.339837 
0.287648 
0.382936 
0.362625 
0.799998 
1.122418 
0.799088 
0.680669 
0.866894 
1.003571 
1.354661 
1.853857 
1.742882 
1.214309 
1.426031 
1.636237 
1.719299 
1.801144 
1.602051 
1.452273 
1.275395 
0.790935 
0.890716 
2.050838 
1.154370 
1.385193 
1.297838 
0.991117 
1.158409 
0.767421 
0.829112 
0.895971 
1.063583 
0.809199 
0.656638 
0.354820 
1.452535 
1.387436 
1.274147 
0.537119 
1.620892 
1.463026 
1.596472 
1.756097 
1.271080 
1.065987 
1.156825 
1.276513 
1.414763 
1.006273 
1.096772 
1.062030 
0.892650 
1.284017 
0.980927 
1.000067 
2.321434 
1.747538 
1.536946 
1.712190 
1.447662 
1.007350 
0.975424 
1.487738 
1.639549 
1.486177 
0.979182 
0.805630 
0.813336 
0.641130 
0.711156 
0.207836 
0.269013 
0.855473 
1.045568 
0.791718 
0.342691 
0.453304 
0.426256 
0.570926 
0.416459 
0.375884 
0.354688 
0.264371 
0.216171 
0.182793 
0.252956 
0.179739 
0.222894 
0.247373 
1.613875 
1.875775 
2.035370 
2.127471 
1.947260 
1.753562 
1.040721 
1.279022 
2.278945 
2.333206 
2.040851 
1.424418 
1.098725 
1.255601 
0.836194 
0.905620 
0.781446 
0.664302 
0.776641 
2.067730 
1.483350 
2.145495 
2.073271 
1.781968 
1.685305 
1.731154 
1.299699 
1.074228 
1.103773 
1.132785 
3.482831 
1.755828 
2.272319 
1.700356 
3.950527 
3.859171 
4.115531 
3.468933 
2.708902 
2.764259 
2.968101 
1.994670 
1.150141 
0.864719 
1.360273 
1.259775 
0.807082 
0.599653 
0.479233 
0.529928 
0.462560 
0.503857 
0.524851 
0.560322 
0.460734 
0.506103 
0.374542 
0.350464 
0.749792 
0.811574 
0.783632 
0.544062 
0.438563 
0.445491 
0.244570 
0.308771 
0.220812 
0.160103 
0.126686 
0.100795 
0.090745 
0.138791 
0.256352 
0.827395 
0.086830 
0.099690 
0.123853 
0.122249 
0.207192 
0.163120 
0.239219 
0.388240 
0.778706 
0.322964 
1.048544 
0.414071 
0.474721 
0.656925 
1.198437 
1.126206 
1.144058 
1.116759 
1.171714 
1.045737 
0.926556 
0.873202 
0.589826 
0.563407 
0.678725 
0.923637 
0.558139 
1.464933 
1.743086 
1.227811 
1.812559 
1.349474 
1.574665 
1.398369 
1.722017 
1.454376 
1.874986 
1.585674 
2.084762 
2.671368 
1.933273 
2.296072 
1.169028 
1.156625 
2.228174 
2.060782 
1.818668 
1.896772 
2.747172 
0.356480 
0.460413 
0.890515 
0.731993 
0.649918 
0.694495 
0.769888 
0.887832 
0.786104 
0.885935 
1.154372 
1.160047 
0.850850 
0.772332 
0.725769 
0.677854 
0.922960 
0.985818 
1.362571 
0.788450 
0.532504 
0.494248 
0.214341 
0.695641 
0.716454 
0.927986 
0.140593 
0.232810 
0.297508 
0.349532 
1.033550 
2.961022 
1.053017 
0.145387 
0.144061 
0.809607 
0.589993 
0.615340 
0.626094 
0.689657 
0.994540 
1.160792 
1.457671 
0.764565 
0.547649 
0.479604 
0.768153 
0.631003 
0.751347 
0.606687 
0.855802 
1.587568 
1.962281 
1.395860 
1.144432 
1.877399 
1.893745 
0.307074 
0.297075 
0.412702 
0.466584 
0.608375 
0.625241 
0.418250 
0.646555 
0.337519 
0.675916 
0.579132 
0.988219 
1.131267 
0.718056 
0.879108 
1.199383 
0.793040 
0.661365 
0.868802 
1.074436 
1.419386 
0.547188 
0.455355 
0.411414 
1.820604 
2.103034 
2.247161 
1.270531 
2.033362 
0.460225 
0.498661 
0.656889 
0.297227 
0.292840 
0.534216 
0.692218 
0.754218 
0.660662 
0.881838 
0.523952 
0.881889 
0.697812 
0.857701 
0.566564 
0.361654 
0.403990 
0.352687 
0.306233 
0.418854 
0.354892 
0.241996 
0.210380 
0.233870 
0.214722 
0.243485 
0.362589 
0.465080 
2.404070 
1.947644 
0.946490 
0.551552 
0.469478 
0.425042 
0.292762 
0.184844 
0.118944 
0.071142 
0.069311 
0.140690 
1.644604 
1.893235 
1.094464 
2.101951 
1.617670 
1.159842 
3.355291 
1.447872 
1.426745 
1.222373 
1.548358 
0.643619 
0.812967 
0.750840 
0.476016 
0.273108 
0.427659 
0.469155 
0.325123 
0.178433 
0.143716 
0.248584 
0.314263 
0.411721 
0.481902 
1.690053 
1.476918 
1.750955 
1.388709 
1.153712 
0.686586 
0.616590 
1.108327 
1.329332 
0.511210 
0.928724 
0.687317 
1.249044 
0.884423 
1.205268 
1.358704 
0.759682 
0.446899 
0.348083 
0.411368 
0.262857 
0.264051 
0.288463 
0.259541 
1.978994 
1.433550 
1.716658 
1.612371 
1.823596 
1.988735 
2.807794 
2.419984 
1.251635 
0.924962 
0.718513 
0.481721 
1.781845 
0.894209 
1.301109 
0.938003 
1.269811 
1.581854 
0.925531 
0.921482 
0.498159 
0.933556 
1.013253 
2.739234 
1.145164 
1.227291 
1.904434 
1.736902 
3.063486 
2.776380 
2.646664 
3.200246 
2.496591 
1.436311 
0.582963 
0.268172 
2.462910 
1.560589 
2.856408 
3.513568 
3.593902 
0.313806 
0.255175 
0.284552 
0.169076 
0.087198 
0.062303 
0.069477 
0.146007 
0.222206 
0.310248 
0.758933 
0.249616 
0.227668 
0.427883 
0.591969 
0.790973 
0.979806 
1.022167 
0.782199 
0.388473 
0.703038 
0.244376 
0.616469 
0.216482 
0.314505 
1.391385 
0.951653 
0.796124 
0.689270 
0.892729 
0.523362 
0.654291 
0.686632 
0.607247 
0.450163 
0.252199 
0.297680 
0.621092 
0.825379 
0.636461 
0.457189 
0.663078 
1.013095 
0.416230 
0.453041 
0.503777 
0.509642 
0.417663 
0.478631 
1.205103 
1.079333 
0.670462 
0.804833 
1.408696 
1.576894 
1.369391 
1.055885 
1.473299 
0.762761 
2.615622 
4.566645 
2.476428 
2.644593 
2.724505 
3.060286 
3.131817 
3.546054 
2.473962 
5.027535 
0.382103 
0.663605 
1.403935 
0.387474 
1.270149 
0.338234 
1.065505 
0.881563 
0.663855 
0.618089 
1.364242 
1.257690 
2.466677 
0.974088 
0.844131 
0.492159 
0.192867 
0.305660 
0.440228 
0.670215 
1.177208 
1.848496 
1.692244 
0.408748 
0.799495 
0.921837 
0.950751 
0.955365 
1.131829 
1.204590 
1.319271 
1.583603 
0.815568 
0.976245 
0.757035 
0.378270 
0.892601 
0.456735 
0.772070 
1.410773 
0.999250 
1.273725 
0.914644 
1.254854 
1.025297 
0.850160 
1.507333 
1.841585 
0.899843 
3.992341 
1.351294 
1.521600 
0.555017 
0.589491 
0.537133 
0.428380 
0.284792 
0.327998 
0.851282 
1.588842 
1.454404 
1.288405 
0.949336 
0.599172 
0.327841 
1.499221 
3.123945 
2.747463 
2.536700 
2.100494 
1.740348 
2.701089 
1.748755 
1.250020 
0.781477 
2.169762 
1.574870 
0.921296 
1.196363 
0.600461 
0.283891 
0.246672 
0.359092 
0.522446 
2.217231 
1.931660 
0.725891 
0.286414 
0.075896 
0.146061 
0.126060 
0.195473 
0.393830 
0.699257 
0.496011 
0.498903 
1.132455 
2.956735 
10.748612 
2.871802 
4.109697 
6.144787 
3.072817 
6.278416 
5.009994 
4.284342 
3.102812 
3.001759 
0.205204 
0.352257 
0.338488 
2.649178 
6.640870 
0.907021 
0.113230 
0.269347 
0.219010 
0.295027 
0.198745 
0.904479 
0.620715 
0.738414 
1.354952 
1.464627 
1.239278 
0.967340 
0.881495 
1.028853 
1.265897 
1.813090 
3.056601 
4.921530 
2.946529 
1.506820 
2.030213 
2.709747 
2.592820 
0.433253 
0.236396 
0.621654 
0.843519 
2.215793 
0.504732 
0.417480 
0.081054 
0.139552 
0.190309 
0.792540 
0.347080 
1.171400 
1.183571 
1.583892 
0.241547 
0.951997 
0.634522 
1.687218 
0.434750 
0.455607 
0.468496 
0.593095 
1.769477 
1.026473 
1.135123 
1.797339 
0.839631 
0.924470 
0.845703 
1.808078 
1.990630 
2.331248 
2.656456 
3.846695 
2.656881 
1.466393 
1.220445 
1.697253 
1.217922 
1.607812 
2.306175 
2.119227 
1.344304 
1.608658 
1.750037 
1.220253 
0.411747 
0.285856 
0.263192 
0.643053 
2.046456 
0.977348 
1.352223 
1.049209 
1.939998 
0.491120 
1.675469 
2.874237 
5.346095 
4.954993 
2.321985 
5.378686 
0.323862 
3.161959 
2.749729 
1.165122 
4.639949 
6.903549 
1.388530 
13.130022 
10.399030 
3.176275 
3.281581 
2.130918 
2.202166 
18.677771 
0.393556 
1.882276 
2.128266 
0.573620 
7.101032 
8.996294 
13.909047 
3.497158 
2.349395 
5.829165 
1.989320 
3.556176 
1.849605 
0.467352 
3.873245 
0.849130 
1.446858 
1.777539 
3.009091 
3.431483 
3.236575 
5.184580 
2.636125 
3.658244 
1.858148 
3.842623 
5.484070 
4.842566 
3.248038 
2.871939 
6.080934 
2.967966 
0.510912 
4.233476 
4.334059 
1.175840 
0.988338 
2.421584 
1.183952 
9.306750 
4.726810 
1.141527 
2.158936 
2.739469 
6.032449 
1.581485 
4.493860 
9.539122 
14.209354 
7.199147 
3.501693 
2.506154 
17.244339 
16.271074 
6.174211 
16.507673 
7.044861 
8.528390 
0.721090 
3.682418 
6.244847 
8.654681 
6.615292 
1.636205 
11.522723 
6.939662 
1.665240 
0.989746 
1.140976 
14.709179 
3.872443 
3.269091 
0.344281 
0.338818 
0.155842 
0.445990 
0.366565 
0.562578 
SCALARS DENSITY float 
LOOKUP_TABLE default 
200.000000 
200.000000 
200.000000 
200.000000 
200.000000 
200.000000 
200.000000 
200.000000 
200.000000 
200.000000 
200.000000 
200.000000 
200.000000 
200.000000 
200.000000 
200.000000 
200.000000 
200.000000 
200.000000 
200.000000 
200.000000 
200.000000 
200.000000 
200.000000 
200.000000 
200.000000 
200.000000 
200.000000 
200.000000 
200.000000 
200.000000 
200.000000 
200.000000 
200.000000 
200.000000 
200.000000 
200.000000 
200.000000 
200.000000 
200.000000 
200.000000 
200.000000 
200.000000 
200.000000 
200.000000 
200.000000 
200.000000 
200.000000 
200.000000 
200.000000 
200.000000 
200.000000 
200.000000 
200.000000 
200.000000 
200.000000 
200.000000 
200.000000 
200.000000 
200.000000 
200.000000 
200.000000 
200.000000 
200.000000 
200.000000 
200.000000 
200.000000 
200.000000 
200.000000 
200.000000 
200.000000 
200.000000 
200.000000 
200.000000 
200.000000 
200.000000 
200.000000 
200.000000 
200.000000 
200.000000 
200.000000 
200.000000 
200.000000 
200.000000 
200.000000 
200.000000 
200.000000 
200.000000 
200.000000 
200.000000 
200.000000 
200.000000 
200.000000 
200.000000 
200.000000 
200.000000 
200.000000 
200.000000 
200.000000 
200.000000 
200.000000 
200.000000 
200.000000 
200.000000 
200.000000 
200.000000 
200.000000 
200.000000 
200.000000 
200.000000 
200.000000 
200.000000 
200.000000 
200.000000 
200.000000 
200.000000 
200.000000 
200.000000 
200.000000 
200.000000 
200.000000 
200.000000 
200.000000 
200.000000 
200.000000 
200.000000 
200.000000 
200.000000 
200.000000 
200.000000 
200.000000 
200.000000 
200.000000 
200.000000 
200.000000 
200.000000 
200.000000 
200.000000 
200.000000 
200.000000 
200.000000 
200.000000 
200.000000 
200.000000 
200.000000 
200.000000 
200.000000 
200.000000 
200.000000 
200.000000 
200.000000 
200.000000 
200.000000 
200.000000 
200.000000 
200.000000 
200.000000 
200.000000 
200.000000 
200.000000 
200.000000 
200.000000 
200.000000 
200.000000 
200.000000 
200.000000 
200.000000 
200.000000 
200.000000 
200.000000 
200.000000 
200.000000 
200.000000 
200.000000 
200.000000 
200.000000 
200.000000 
200.000000 
200.000000 
200.000000 
200.000000 
200.000000 
200.000000 
200.000000 
200.000000 
200.000000 
200.000000 
200.000000 
200.000000 
200.000000 
200.000000 
200.000000 
200.000000 
200.000000 
200.000000 
200.000000 
200.000000 
200.000000 
200.000000 
200.000000 
200.000000 
200.000000 
200.000000 
200.000000 
200.000000 
200.000000 
200.000000 
200.000000 
200.000000 
200.000000 
200.000000 
200.000000 
200.000000 
200.000000 
200.000000 
200.000000 
200.000000 
200.000000 
200.000000 
200.000000 
200.000000 
200.000000 
200.000000 
200.000000 
200.000000 
200.000000 
200.000000 
200.000000 
200.000000 
200.000000 
200.000000 
200.000000 
200.000000 
200.000000 
200.000000 
200.000000 
200.000000 
200.000000 
200.000000 
200.000000 
200.000000 
200.000000 
200.000000 
200.000000 
200.000000 
200.000000 
200.000000 
200.000000 
200.000000 
200.000000 
200.000000 
200.000000 
200.000000 
200.000000 
200.000000 
200.000000 
200.000000 
200.000000 
200.000000 
200.000000 
200.000000 
200.000000 
200.000000 
200.000000 
200.000000 
200.000000 
200.000000 
200.000000 
200.000000 
200.000000 
200.000000 
200.000000 
200.000000 
200.000000 
200.000000 
200.000000 
200.000000 
200.000000 
200.000000 
200.000000 
200.000000 
200.000000 
200.000000 
200.000000 
200.000000 
200.000000 
200.000000 
200.000000 
200.000000 
200.000000 
200.000000 
200.000000 
200.000000 
200.000000 
200.000000 
200.000000 
200.000000 
200.000000 
200.000000 
200.000000 
200.000000 
200.000000 
200.000000 
200.000000 
200.000000 
200.000000 
200.000000 
200.000000 
200.000000 
200.000000 
200.000000 
200.000000 
200.000000 
200.000000 
200.000000 
200.000000 
200.000000 
200.000000 
200.000000 
200.000000 
200.000000 
200.000000 
200.000000 
200.000000 
200.000000 
200.000000 
200.000000 
200.000000 
200.000000 
200.000000 
200.000000 
200.000000 
200.000000 
200.000000 
200.000000 
200.000000 
200.000000 
200.000000 
200.000000 
200.000000 
200.000000 
200.000000 
200.000000 
200.000000 
200.000000 
200.000000 
200.000000 
200.000000 
200.000000 
200.000000 
200.000000 
200.000000 
200.000000 
200.000000 
200.000000 
200.000000 
200.000000 
200.000000 
200.000000 
200.000000 
200.000000 
200.000000 
200.000000 
200.000000 
200.000000 
200.000000 
200.000000 
200.000000 
200.000000 
200.000000 
200.000000 
200.000000 
200.000000 
200.000000 
200.000000 
200.000000 
200.000000 
200.000000 
200.000000 
200.000000 
200.000000 
200.000000 
200.000000 
200.000000 
200.000000 
200.000000 
200.000000 
200.000000 
200.000000 
200.000000 
200.000000 
200.000000 
200.000000 
200.000000 
200.000000 
200.000000 
200.000000 
200.000000 
200.000000 
200.000000 
200.000000 
200.000000 
200.000000 
200.000000 
200.000000 
200.000000 
200.000000 
200.000000 
200.000000 
200.000000 
200.000000 
200.000000 
200.000000 
200.000000 
200.000000 
200.000000 
200.000000 
200.000000 
200.000000 
200.000000 
200.000000 
200.000000 
200.000000 
200.000000 
200.000000 
200.000000 
200.000000 
200.000000 
200.000000 
200.000000 
200.000000 
200.000000 
200.000000 
200.000000 
200.000000 
200.000000 
200.000000 
200.000000 
200.000000 
200.000000 
200.000000 
200.000000 
200.000000 
200.000000 
200.000000 
200.000000 
200.000000 
200.000000 
200.000000 
200.000000 
200.000000 
200.000000 
200.000000 
200.000000 
200.000000 
200.000000 
200.000000 
200.000000 
200.000000 
200.000000 
200.000000 
200.000000 
200.000000 
200.000000 
200.000000 
200.000000 
200.000000 
200.000000 
200.000000 
200.000000 
200.000000 
200.000000 
200.000000 
200.000000 
200.000000 
200.000000 
200.000000 
200.000000 
200.000000 
200.000000 
200.000000 
200.000000 
200.000000 
200.000000 
200.000000 
200.000000 
200.000000 
200.000000 
200.000000 
200.000000 
200.000000 
200.000000 
200.000000 
200.000000 
200.000000 
200.000000 
200.000000 
200.000000 
200.000000 
200.000000 
200.000000 
200.000000 
200.000000 
200.000000 
200.000000 
200.000000 
200.000000 
200.000000 
200.000000 
200.000000 
200.000000 
200.000000 
200.000000 
200.000000 
200.000000 
200.000000 
200.000000 
200.000000 
200.000000 
200.000000 
200.000000 
200.000000 
200.000000 
200.000000 
200.000000 
200.000000 
200.000000 
200.000000 
200.000000 
200.000000 
200.000000 
200.000000 
200.000000 
200.000000 
200.000000 
200.000000 
200.000000 
200.000000 
200.000000 
200.000000 
200.000000 
200.000000 
200.000000 
200.000000 
200.000000 
200.000000 
200.000000 
200.000000 
200.000000 
200.000000 
200.000000 
200.000000 
200.000000 
200.000000 
200.000000 
200.000000 
200.000000 
200.000000 
200.000000 
200.000000 
200.000000 
200.000000 
200.000000 
200.000000 
200.000000 
200.000000 
200.000000 
200.000000 
200.000000 
200.000000 
200.000000 
200.000000 
200.000000 
200.000000 
200.000000 
200.000000 
200.000000 
200.000000 
200.000000 
200.000000 
200.000000 
200.000000 
200.000000 
200.000000 
200.000000 
200.000000 
200.000000 
200.000000 
200.000000 
200.000000 
200.000000 
200.000000 
200.000000 
200.000000 
200.000000 
200.000000 
200.000000 
200.000000 
200.000000 
200.000000 
200.000000 
200.000000 
200.000000 
200.000000 
200.000000 
200.000000 
200.000000 
200.000000 
200.000000 
200.000000 
200.000000 
200.000000 
200.000000 
200.000000 
200.000000 
200.000000 
200.000000 
200.000000 
200.000000 
200.000000 
200.000000 
200.000000 
200.000000 
200.000000 
200.000000 
200.000000 
200.000000 
200.000000 
200.000000 
200.000000 
200.000000 
200.000000 
200.000000 
200.000000 
200.000000 
200.000000 
200.000000 
200.000000 
200.000000 
200.000000 
200.000000 
200.000000 
200.000000 
200.000000 
200.000000 
200.000000 
200.000000 
200.000000 
200.000000 
200.000000 
200.000000 
200.000000 
200.000000 
200.000000 
200.000000 
200.000000 
200.000000 
200.000000 
200.000000 
200.000000 
200.000000 
200.000000 
200.000000 
200.000000 
200.000000 
200.000000 
200.000000 
200.000000 
200.000000 
200.000000 
200.000000 
200.000000 
200.000000 
200.000000 
200.000000 
200.000000 
200.000000 
200.000000 
200.000000 
200.000000 
200.000000 
200.000000 
200.000000 
200.000000 
200.000000 
200.000000 
200.000000 
200.000000 
200.000000 
200.000000 
200.000000 
200.000000 
200.000000 
200.000000 
200.000000 
200.000000 
200.000000 
200.000000 
200.000000 
200.000000 
200.000000 
200.000000 
200.000000 
200.000000 
200.000000 
200.000000 
200.000000 
200.000000 
200.000000 
200.000000 
200.000000 
200.000000 
200.000000 
200.000000 
200.000000 
200.000000 
200.000000 
200.000000 
200.000000 
200.000000 
200.000000 
200.000000 
200.000000 
200.000000 
200.000000 
200.000000 
200.000000 
200.000000 
200.000000 
200.000000 
200.000000 
200.000000 
200.000000 
200.000000 
200.000000 
200.000000 
200.000000 
200.000000 
200.000000 
200.000000 
200.000000 
200.000000 
200.000000 
200.000000 
200.000000 
200.000000 
200.000000 
200.000000 
200.000000 
200.000000 
200.000000 
200.000000 
200.000000 
200.000000 
200.000000 
200.000000 
200.000000 
200.000000 
200.000000 
200.000000 
200.000000 
200.000000 
200.000000 
200.000000 
200.000000 
200.000000 
200.000000 
200.000000 
200.000000 
200.000000 
200.000000 
200.000000 
200.000000 
200.000000 
200.000000 
200.000000 
200.000000 
200.000000 
200.000000 
200.000000 
200.000000 
200.000000 
200.000000 
200.000000 
200.000000 
200.000000 
200.000000 
200.000000 
200.000000 
200.000000 
200.000000 
200.000000 
200.000000 
200.000000 
200.000000 
200.000000 
200.000000 
200.000000 
200.000000 
200.000000 
200.000000 
200.000000 
200.000000 
200.000000 
200.000000 
200.000000 
200.000000 
200.000000 
200.000000 
200.000000 
200.000000 
200.000000 
200.000000 
200.000000 
200.000000 
200.000000 
200.000000 
200.000000 
200.000000 
200.000000 
200.000000 
200.000000 
200.000000 
200.000000 
200.000000 
200.000000 
200.000000 
200.000000 
200.000000 
200.000000 
200.000000 
200.000000 
200.000000 
200.000000 
200.000000 
200.000000 
200.000000 
200.000000 
200.000000 
200.000000 
200.000000 
200.000000 
200.000000 
200.000000 
200.000000 
200.000000 
200.000000 
200.000000 
200.000000 
200.000000 
200.000000 
200.000000 
200.000000 
200.000000 
200.000000 
200.000000 
200.000000 
200.000000 
200.000000 
200.000000 
200.000000 
200.000000 
200.000000 
200.000000 
200.000000 
200.000000 
200.000000 
200.000000 
200.000000 
200.000000 
200.000000 
200.000000 
200.000000 
200.000000 
200.000000 
200.000000 
200.000000 
200.000000 
200.000000 
200.000000 
200.000000 
200.000000 
200.000000 
200.000000 
200.000000 
200.000000 
200.000000 
200.000000 
200.000000 
200.000000 
200.000000 
200.000000 
200.000000 
200.000000 
200.000000 
200.000000 
200.000000 
200.000000 
200.000000 
SCALARS ELEM_i float 
LOOKUP_TABLE default 
241 
241 
241 
241 
241 
242 
222 
259 
259 
259 
222 
37 
37 
28 
28 
29 
258 
258 
37 
38 
38 
38 
58 
222 
258 
258 
238 
238 
238 
237 
237 
239 
49 
49 
48 
48 
33 
33 
33 
33 
34 
58 
58 
48 
34 
34 
34 
34 
34 
54 
54 
54 
54 
54 
54 
74 
58 
78 
78 
78 
78 
238 
238 
238 
238 
238 
218 
218 
218 
218 
218 
198 
198 
237 
198 
198 
198 
178 
178 
178 
178 
178 
178 
177 
157 
157 
157 
157 
157 
157 
157 
157 
137 
137 
137 
137 
137 
137 
137 
117 
117 
117 
117 
117 
117 
117 
117 
97 
97 
97 
98 
98 
98 
98 
78 
237 
237 
236 
236 
33 
222 
222 
223 
223 
223 
203 
48 
236 
236 
235 
235 
235 
48 
28 
74 
73 
73 
93 
93 
93 
94 
94 
114 
114 
114 
33 
53 
53 
222 
222 
202 
203 
203 
203 
203 
203 
204 
184 
184 
184 
184 
185 
28 
28 
27 
67 
67 
67 
47 
47 
47 
47 
66 
66 
66 
66 
86 
86 
86 
86 
86 
106 
106 
235 
254 
254 
254 
234 
234 
234 
234 
234 
234 
234 
214 
214 
214 
214 
214 
185 
185 
186 
186 
186 
187 
167 
167 
167 
147 
147 
147 
127 
127 
127 
127 
107 
107 
107 
204 
203 
204 
52 
72 
72 
72 
92 
92 
92 
92 
204 
204 
204 
204 
205 
205 
206 
206 
207 
207 
207 
208 
208 
208 
208 
209 
209 
209 
209 
210 
210 
210 
210 
210 
211 
211 
211 
211 
211 
212 
212 
212 
212 
212 
213 
213 
213 
213 
213 
213 
213 
213 
213 
213 
71 
71 
70 
71 
70 
71 
91 
70 
70 
91 
70 
91 
91 
91 
50 
51 
91 
91 
51 
51 
51 
52 
52 
52 
32 
32 
52 
32 
31 
51 
31 
51 
30 
51 
50 
50 
50 
50 
50 
49 
50 
49 
69 
69 
69 
88 
88 
88 
89 
115 
95 
95 
95 
95 
95 
95 
96 
96 
96 
76 
77 
77 
77 
77 
57 
57 
57 
57 
37 
37 
37 
49 
115 
115 
214 
258 
37 
37 
37 
115 
193 
95 
258 
258 
115 
95 
96 
96 
48 
48 
114 
114 
86 
86 
86 
86 
86 
66 
96 
96 
112 
112 
48 
48 
47 
47 
238 
258 
238 
238 
238 
238 
238 
238 
238 
238 
238 
218 
218 
218 
238 
237 
237 
237 
237 
236 
236 
218 
218 
198 
67 
67 
67 
47 
67 
34 
34 
34 
34 
54 
54 
54 
53 
53 
73 
34 
34 
33 
33 
234 
234 
234 
234 
234 
234 
234 
214 
214 
214 
214 
214 
214 
198 
111 
111 
91 
91 
91 
91 
91 
91 
71 
70 
70 
70 
114 
113 
96 
236 
93 
93 
88 
107 
92 
92 
92 
198 
198 
198 
178 
178 
178 
178 
177 
177 
177 
177 
157 
157 
157 
73 
97 
77 
77 
77 
77 
57 
57 
57 
78 
57 
77 
57 
77 
77 
77 
37 
37 
37 
37 
37 
37 
37 
37 
73 
93 
73 
73 
73 
73 
235 
235 
235 
235 
234 
234 
53 
53 
53 
53 
53 
53 
53 
53 
34 
33 
33 
205 
185 
185 
205 
185 
186 
186 
187 
187 
70 
70 
70 
70 
69 
69 
69 
89 
108 
97 
97 
97 
213 
213 
213 
213 
213 
213 
213 
213 
213 
212 
212 
212 
212 
212 
211 
211 
211 
211 
117 
97 
117 
117 
116 
116 
116 
116 
97 
97 
136 
136 
136 
137 
137 
137 
157 
157 
157 
209 
209 
209 
210 
210 
210 
210 
210 
211 
209 
209 
208 
208 
127 
127 
127 
107 
127 
107 
108 
89 
88 
87 
88 
147 
147 
167 
167 
187 
97 
97 
97 
117 
156 
97 
97 
97 
178 
86 
87 
87 
87 
87 
177 
177 
177 
177 
238 
238 
238 
217 
156 
136 
136 
136 
136 
136 
116 
116 
116 
116 
96 
116 
96 
177 
234 
234 
234 
234 
96 
96 
97 
178 
93 
93 
93 
93 
93 
112 
211 
211 
211 
210 
210 
210 
210 
210 
209 
209 
212 
212 
212 
212 
212 
189 
148 
128 
128 
107 
107 
87 
107 
189 
188 
188 
218 
218 
198 
198 
198 
198 
198 
218 
112 
70 
70 
70 
70 
70 
70 
90 
90 
90 
90 
91 
91 
110 
131 
90 
90 
109 
108 
110 
188 
168 
168 
148 
213 
213 
213 
194 
194 
214 
213 
214 
214 
214 
214 
157 
177 
115 
116 
96 
96 
115 
237 
217 
216 
216 
216 
215 
215 
115 
114 
114 
114 
213 
214 
234 
90 
110 
213 
213 
213 
70 
90 
213 
210 
115 
115 
116 
70 
90 
90 
90 
177 
210 
177 
210 
176 
177 
156 
156 
210 
212 
210 
188 
189 
189 
189 
148 
176 
136 
136 
116 
136 
192 
192 
191 
211 
217 
217 
217 
218 
198 
198 
198 
197 
217 
217 
217 
197 
197 
177 
113 
128 
128 
216 
215 
214 
112 
113 
214 
196 
196 
211 
130 
109 
188 
168 
168 
148 
132 
214 
214 
214 
214 
194 
195 
174 
134 
135 
134 
115 
133 
190 
210 
156 
177 
192 
136 
189 
192 
193 
192 
193 
189 
177 
176 
176 
197 
197 
113 
132 
133 
210 
190 
156 
211 
210 
156 
136 
129 
149 
135 
135 
135 
135 
135 
155 
175 
154 
175 
169 
169 
151 
152 
133 
153 
172 
173 
190 
190 
169 
170 
149 
191 
171 
191 
190 
52 
203 
150 
191 
197 
254 
29 
106 
222 
86 
222 
VECTORS VELOCITY float 
-0.000000 -1.530360 0.000000 
-0.000000 -1.530360 0.000000 
0.000000 -1.530360 0.000000 
0.000000 -1.530360 0.000000 
0.000000 -1.530360 0.000000 
-0.000000 -1.530360 0.000000 
-0.000000 -1.530360 0.000000 
-0.000000 -1.530360 0.000000 
-0.000000 -1.530360 0.000000 
-0.000000 -1.530360 0.000000 
-0.000000 -1.530360 0.000000 
0.000000 -1.530360 0.000000 
0.000000 -1.530360 0.000000 
0.000000 -1.530360 0.000000 
0.000000 -1.530360 0.000000 
0.000000 -1.530360 0.000000 
-0.000000 -1.530360 0.000000 
-0.000000 -1.530360 0.000000 
0.000000 -1.530360 0.000000 
-0.000000 -1.530360 0.000000 
-0.000000 -1.530360 0.000000 
-0.000000 -1.530360 0.000000 
-0.000000 -1.530360 0.000000 
0.000000 -1.530360 0.000000 
-0.000000 -1.530360 0.000000 
-0.000000 -1.530360 0.000000 
-0.000000 -1.530360 0.000000 
-0.000000 -1.530360 0.000000 
-0.000000 -1.530360 0.000000 
-0.000000 -1.530360 0.000000 
-0.000000 -1.530360 0.000000 
-0.000000 -1.530360 0.000000 
0.000000 -1.530360 0.000000 
0.000000 -1.530360 0.000000 
0.000000 -1.530360 0.000000 
0.000000 -1.530360 0.000000 
-0.000000 -1.530360 0.000000 
-0.000000 -1.530360 0.000000 
-0.000000 -1.530360 0.000000 
-0.000000 -1.530360 0.000000 
-0.000000 -1.530360 0.000000 
-0.000000 -1.530360 0.000000 
-0.000000 -1.530360 0.000000 
0.000000 -1.530360 0.000000 
-0.000000 -1.530360 0.000000 
-0.000000 -1.530360 0.000000 
-0.000000 -1.530360 0.000000 
-0.000000 -1.530360 0.000000 
-0.000000 -1.530360 0.000000 
-0.000000 -1.530360 0.000000 
-0.000000 -1.530360 0.000000 
-0.000000 -1.530360 0.000000 
-0.000000 -1.530360 0.000000 
-0.000000 -1.530360 0.000000 
-0.000000 -1.530360 0.000000 
-0.000000 -1.530360 0.000000 
0.000000 -1.530360 0.000000 
0.000000 -1.530360 0.000000 
0.000000 -1.530360 0.000000 
0.000000 -1.530360 0.000000 
-0.000000 -1.530360 0.000000 
-0.000000 -1.530360 0.000000 
-0.000000 -1.530360 0.000000 
-0.000000 -1.530360 0.000000 
-0.000000 -1.530360 0.000000 
-0.000000 -1.530360 0.000000 
-0.000000 -1.530360 0.000000 
0.000000 -1.530360 0.000000 
0.000000 -1.530360 0.000000 
0.000000 -1.530360 0.000000 
0.000000 -1.530360 0.000000 
0.000000 -1.530360 0.000000 
0.000000 -1.530360 0.000000 
0.000000 -1.530360 0.000000 
0.000000 -1.530360 0.000000 
-0.000000 -1.530360 0.000000 
-0.000000 -1.530360 0.000000 
-0.000000 -1.530360 0.000000 
-0.000000 -1.530360 0.000000 
-0.000000 -1.530360 0.000000 
-0.000000 -1.530360 0.000000 
-0.000000 -1.530360 0.000000 
-0.000000 -1.530360 0.000000 
0.000000 -1.530360 0.000000 
0.000000 -1.530360 0.000000 
0.000000 -1.530360 0.000000 
0.000000 -1.530360 0.000000 
0.000000 -1.530360 0.000000 
0.000000 -1.530360 0.000000 
0.000000 -1.530360 0.000000 
-0.000000 -1.530360 0.000000 
-0.000000 -1.530360 0.000000 
-0.000000 -1.530360 0.000000 
-0.000000 -1.530360 0.000000 
-0.000000 -1.530360 0.000000 
0.000000 -1.530360 0.000000 
0.000000 -1.530360 0.000000 
0.000000 -1.530360 0.000000 
0.000000 -1.530360 0.000000 
0.000000 -1.530360 0.000000 
0.000000 -1.530360 0.000000 
-0.000000 -1.530360 0.000000 
-0.000000 -1.530360 0.000000 
-0.000000 -1.530360 0.000000 
-0.000000 -1.530360 0.000000 
-0.000000 -1.530360 0.000000 
-0.000000 -1.530360 0.000000 
0.000000 -1.530360 0.000000 
0.000000 -1.530360 0.000000 
0.000000 -1.530360 0.000000 
0.000000 -1.530360 0.000000 
-0.000000 -1.530360 0.000000 
-0.000000 -1.530360 0.000000 
-0.000000 -1.530360 0.000000 
-0.000000 -1.530360 0.000000 
0.000000 -1.530360 0.000000 
-0.000000 -1.530360 0.000000 
-0.000000 -1.530360 0.000000 
-0.000000 -1.530360 0.000000 
-0.000000 -1.530360 0.000000 
0.000000 -1.530360 0.000000 
-0.000000 -1.530360 0.000000 
-0.000000 -1.530360 0.000000 
-0.000000 -1.530360 0.000000 
0.000000 -1.530360 0.000000 
0.000000 -1.530360 0.000000 
-0.000000 -1.530360 0.000000 
-0.000000 -1.530360 0.000000 
-0.000000 -1.530360 0.000000 
-0.000000 -1.530360 0.000000 
0.000000 -1.530360 0.000000 
0.000000 -1.530360 0.000000 
-0.000000 -1.530360 0.000000 
0.000000 -1.530360 0.000000 
-0.000000 -1.530360 0.000000 
-0.000000 -1.530360 0.000000 
0.000000 -1.530360 0.000000 
0.000000 -1.530360 0.000000 
0.000000 -1.530360 0.000000 
0.000000 -1.530360 0.000000 
0.000000 -1.530360 0.000000 
0.000000 -1.530360 0.000000 
0.000000 -1.530360 0.000000 
0.000000 -1.530360 0.000000 
0.000000 -1.530360 0.000000 
-0.000000 -1.530360 0.000000 
0.000000 -1.530360 0.000000 
0.000000 -1.530360 0.000000 
0.000000 -1.530360 0.000000 
0.000000 -1.530360 0.000000 
-0.000000 -1.530360 0.000000 
-0.000000 -1.530360 0.000000 
-0.000000 -1.530360 0.000000 
-0.000000 -1.530360 0.000000 
-0.000000 -1.530360 0.000000 
0.000000 -1.530360 0.000000 
0.000000 -1.530360 0.000000 
0.000000 -1.530360 0.000000 
0.000000 -1.530360 0.000000 
0.000000 -1.530360 0.000000 
0.000000 -1.530360 0.000000 
-0.000000 -1.530360 0.000000 
-0.000000 -1.530360 0.000000 
-0.000000 -1.530360 0.000000 
-0.000000 -1.530360 0.000000 
0.000000 -1.530360 0.000000 
0.000000 -1.530360 0.000000 
0.000000 -1.530360 0.000000 
0.000000 -1.530360 0.000000 
0.000000 -1.530360 0.000000 
0.000000 -1.530360 0.000000 
0.000000 -1.530360 0.000000 
0.000000 -1.530360 0.000000 
-0.000000 -1.530360 0.000000 
-0.000000 -1.530360 0.000000 
-0.000000 -1.530360 0.000000 
-0.000000 -1.530360 0.000000 
0.000000 -1.530360 0.000000 
0.000000 -1.530360 0.000000 
0.000000 -1.530360 0.000000 
0.000000 -1.530360 0.000000 
0.000000 -1.530360 0.000000 
0.000000 -1.530360 0.000000 
0.000000 -1.530360 0.000000 
0.000000 -1.530360 0.000000 
-0.000000 -1.530360 0.000000 
-0.000000 -1.530360 0.000000 
-0.000000 -1.530360 0.000000 
-0.000000 -1.530360 0.000000 
-0.000000 -1.530360 0.000000 
-0.000000 -1.530360 0.000000 
-0.000000 -1.530360 0.000000 
0.000000 -1.530360 0.000000 
0.000000 -1.530360 0.000000 
0.000000 -1.530360 0.000000 
0.000000 -1.530360 0.000000 
0.000000 -1.530360 0.000000 
0.000000 -1.530360 0.000000 
0.000000 -1.530360 0.000000 
-0.000000 -1.530360 0.000000 
-0.000000 -1.530360 0.000000 
-0.000000 -1.530360 0.000000 
-0.000000 -1.530360 0.000000 
-0.000000 -1.530360 0.000000 
-0.000000 -1.530360 0.000000 
-0.000000 -1.530360 0.000000 
-0.000000 -1.530360 0.000000 
0.000000 -1.530360 0.000000 
0.000000 -1.530360 0.000000 
0.000000 -1.530360 0.000000 
0.000000 -1.530360 0.000000 
-0.000000 -1.530360 0.000000 
-0.000000 -1.530360 0.000000 
-0.000000 -1.530360 0.000000 
-0.000000 -1.530360 0.000000 
-0.000000 -1.530360 0.000000 
-0.000000 -1.530360 0.000000 
-0.000000 -1.530360 0.000000 
0.000000 -1.530360 0.000000 
0.000000 -1.530360 0.000000 
0.000000 -1.530360 0.000000 
0.000000 -1.530360 0.000000 
0.000000 -1.530360 0.000000 
0.000000 -1.530360 0.000000 
-0.000000 -1.530360 0.000000 
-0.000000 -1.530360 0.000000 
-0.000000 -1.530360 0.000000 
-0.000000 -1.530360 0.000000 
-0.000000 -1.530360 0.000000 
0.000000 -1.530360 0.000000 
0.000000 -1.530360 0.000000 
0.000000 -1.530360 0.000000 
0.000000 -1.530360 0.000000 
0.000000 -1.530360 0.000000 
0.000000 -1.530360 0.000000 
0.000000 -1.530360 0.000000 
0.000000 -1.530360 0.000000 
-0.000000 -1.530360 0.000000 
-0.000000 -1.530360 0.000000 
-0.000000 -1.530360 0.000000 
-0.000000 -1.530360 0.000000 
0.000000 -1.530360 0.000000 
0.000000 -1.530360 0.000000 
0.000000 -1.530360 0.000000 
0.000000 -1.530360 0.000000 
0.000000 -1.530360 0.000000 
0.000000 -1.530360 0.000000 
-0.000000 -1.530360 0.000000 
-0.000000 -1.530360 0.000000 
-0.000000 -1.530360 0.000000 
0.000000 -1.530360 0.000000 
0.000000 -1.530360 0.000000 
0.000000 -1.530360 0.000000 
0.000000 -1.530360 0.000000 
0.000000 -1.530360 0.000000 
-0.000000 -1.530360 0.000000 
-0.000000 -1.530360 0.000000 
-0.000000 -1.530360 0.000000 
-0.000000 -1.530360 0.000000 
-0.000000 -1.530360 0.000000 
-0.000000 -1.530360 0.000000 
0.000000 -1.530360 0.000000 
0.000000 -1.530360 0.000000 
0.000000 -1.530360 0.000000 
0.000000 -1.530360 0.000000 
0.000000 -1.530360 0.000000 
0.000000 -1.530360 0.000000 
0.000000 -1.530360 0.000000 
0.000000 -1.530360 0.000000 
0.000000 -1.530360 0.000000 
0.000000 -1.530360 0.000000 
0.000000 -1.530360 0.000000 
0.000000 -1.530360 0.000000 
0.000000 -1.530360 0.000000 
0.000000 -1.530360 0.000000 
0.000000 -1.530360 0.000000 
0.000000 -1.530360 0.000000 
0.000000 -1.530360 0.000000 
0.000000 -1.530360 0.000000 
0.000000 -1.530360 0.000000 
0.000000 -1.530360 0.000000 
0.000000 -1.530360 0.000000 
0.000000 -1.530360 0.000000 
-0.000000 -1.530360 0.000000 
-0.000000 -1.530360 0.000000 
-0.000000 -1.530360 0.000000 
-0.000000 -1.530360 0.000000 
-0.000000 -1.530360 0.000000 
-0.000000 -1.530360 0.000000 
0.000000 -1.530360 0.000000 
0.000000 -1.530360 0.000000 
-0.000000 -1.530360 0.000000 
-0.000000 -1.530360 0.000000 
-0.000000 -1.530360 0.000000 
-0.000000 -1.530360 0.000000 
-0.000000 -1.530360 0.000000 
-0.000000 -1.530360 0.000000 
-0.000000 -1.530360 0.000000 
-0.000000 -1.530360 0.000000 
-0.000000 -1.530360 0.000000 
-0.000000 -1.530360 0.000000 
0.000000 -1.530360 0.000000 
-0.000000 -1.530360 0.000000 
0.000000 -1.530360 0.000000 
0.000000 -1.530360 0.000000 
0.000000 -1.530360 0.000000 
0.000000 -1.530360 0.000000 
0.000000 -1.530360 0.000000 
0.000000 -1.530360 0.000000 
-0.000000 -1.530360 0.000000 
-0.000000 -1.530360 0.000000 
-0.000000 -1.530360 0.000000 
0.000000 -1.530360 0.000000 
0.000000 -1.530360 0.000000 
0.000000 -1.530360 0.000000 
0.000000 -1.530360 0.000000 
0.000000 -1.530360 0.000000 
0.000000 -1.530360 0.000000 
0.000000 -1.530360 0.000000 
0.000000 -1.530360 0.000000 
0.000000 -1.530360 0.000000 
0.000000 -1.530360 0.000000 
0.000000 -1.530360 0.000000 
0.000000 -1.530360 0.000000 
0.000000 -1.530360 0.000000 
0.000000 -1.530360 0.000000 
0.000000 -1.530360 0.000000 
0.000000 -1.530360 0.000000 
0.000000 -1.530360 0.000000 
0.000000 -1.530360 0.000000 
-0.000000 -1.530360 0.000000 
0.000000 -1.530360 0.000000 
-0.000000 -1.530360 0.000000 
0.000000 -1.530360 0.000000 
0.000000 -1.530360 0.000000 
0.000000 -1.530360 0.000000 
0.000000 -1.530360 0.000000 
0.000000 -1.530360 0.000000 
0.000000 -1.530360 0.000000 
0.000000 -1.530360 0.000000 
0.000000 -1.530360 0.000000 
0.000000 -1.530360 0.000000 
0.000000 -1.530360 0.000000 
0.000000 -1.530360 0.000000 
0.000000 -1.530360 0.000000 
0.000000 -1.530360 0.000000 
0.000000 -1.530360 0.000000 
0.000000 -1.530360 0.000000 
-0.000000 -1.530360 0.000000 
0.000000 -1.530360 0.000000 
0.000000 -1.530360 0.000000 
0.000000 -1.530360 0.000000 
0.000000 -1.530360 0.000000 
0.000000 -1.530360 0.000000 
0.000000 -1.530360 0.000000 
-0.000000 -1.530360 0.000000 
-0.000000 -1.530360 0.000000 
0.000000 -1.530360 0.000000 
0.000000 -1.530360 0.000000 
0.000000 -1.530360 0.000000 
-0.000000 -1.530360 0.000000 
0.000000 -1.530360 0.000000 
0.000000 -1.530360 0.000000 
0.000000 -1.530360 0.000000 
0.000000 -1.530360 0.000000 
0.000000 -1.530360 0.000000 
0.000000 -1.530360 0.000000 
0.000000 -1.530360 0.000000 
0.000000 -1.530360 0.000000 
0.000000 -1.530360 0.000000 
0.000000 -1.530360 0.000000 
-0.000000 -1.530360 0.000000 
-0.000000 -1.530360 0.000000 
0.000000 -1.530360 0.000000 
-0.000000 -1.530360 0.000000 
-0.000000 -1.530360 0.000000 
-0.000000 -1.530360 0.000000 
-0.000000 -1.530360 0.000000 
0.000000 -1.530360 0.000000 
-0.000000 -1.530360 0.000000 
-0.000000 -1.530360 0.000000 
-0.000000 -1.530360 0.000000 
-0.000000 -1.530360 0.000000 
-0.000000 -1.530360 0.000000 
-0.000000 -1.530360 0.000000 
-0.000000 -1.530360 0.000000 
-0.000000 -1.530360 0.000000 
-0.000000 -1.530360 0.000000 
-0.000000 -1.530360 0.000000 
-0.000000 -1.530360 0.000000 
-0.000000 -1.530360 0.000000 
0.000000 -1.530360 0.000000 
0.000000 -1.530360 0.000000 
0.000000 -1.530360 0.000000 
0.000000 -1.530360 0.000000 
0.000000 -1.530360 0.000000 
-0.000000 -1.530360 0.000000 
-0.000000 -1.530360 0.000000 
-0.000000 -1.530360 0.000000 
-0.000000 -1.530360 0.000000 
0.000000 -1.530360 0.000000 
0.000000 -1.530360 0.000000 
0.000000 -1.530360 0.000000 
0.000000 -1.530360 0.000000 
0.000000 -1.530360 0.000000 
0.000000 -1.530360 0.000000 
0.000000 -1.530360 0.000000 
0.000000 -1.530360 0.000000 
-0.000000 -1.530360 0.000000 
-0.000000 -1.530360 0.000000 
-0.000000 -1.530360 0.000000 
-0.000000 -1.530360 0.000000 
-0.000000 -1.530360 0.000000 
-0.000000 -1.530360 0.000000 
-0.000000 -1.530360 0.000000 
-0.000000 -1.530360 0.000000 
-0.000000 -1.530360 0.000000 
-0.000000 -1.530360 0.000000 
-0.000000 -1.530360 0.000000 
-0.000000 -1.530360 0.000000 
-0.000000 -1.530360 0.000000 
-0.000000 -1.530360 0.000000 
-0.000000 -1.530360 0.000000 
-0.000000 -1.530360 0.000000 
-0.000000 -1.530360 0.000000 
-0.000000 -1.530360 0.000000 
-0.000000 -1.530360 0.000000 
-0.000000 -1.530360 0.000000 
0.000000 -1.530360 0.000000 
0.000000 -1.530360 0.000000 
0.000000 -1.530360 0.000000 
0.000000 -1.530360 0.000000 
0.000000 -1.530360 0.000000 
0.000000 -1.530360 0.000000 
0.000000 -1.530360 0.000000 
0.000000 -1.530360 0.000000 
0.000000 -1.530360 0.000000 
0.000000 -1.530360 0.000000 
0.000000 -1.530360 0.000000 
0.000000 -1.530360 0.000000 
0.000000 -1.530360 0.000000 
0.000000 -1.530360 0.000000 
0.000000 -1.530360 0.000000 
0.000000 -1.530360 0.000000 
0.000000 -1.530360 0.000000 
0.000000 -1.530360 0.000000 
0.000000 -1.530360 0.000000 
0.000000 -1.530360 0.000000 
0.000000 -1.530360 0.000000 
-0.000000 -1.530360 0.000000 
-0.000000 -1.530360 0.000000 
-0.000000 -1.530360 0.000000 
0.000000 -1.530360 0.000000 
0.000000 -1.530360 0.000000 
-0.000000 -1.530360 0.000000 
-0.000000 -1.530360 0.000000 
-0.000000 -1.530360 0.000000 
-0.000000 -1.530360 0.000000 
0.000000 -1.530360 0.000000 
0.000000 -1.530360 0.000000 
-0.000000 -1.530360 0.000000 
-0.000000 -1.530360 0.000000 
-0.000000 -1.530360 0.000000 
-0.000000 -1.530360 0.000000 
-0.000000 -1.530360 0.000000 
-0.000000 -1.530360 0.000000 
0.000000 -1.530360 0.000000 
0.000000 -1.530360 0.000000 
0.000000 -1.530360 0.000000 
0.000000 -1.530360 0.000000 
0.000000 -1.530360 0.000000 
0.000000 -1.530360 0.000000 
0.000000 -1.530360 0.000000 
0.000000 -1.530360 0.000000 
-0.000000 -1.530360 0.000000 
-0.000000 -1.530360 0.000000 
-0.000000 -1.530360 0.000000 
-0.000000 -1.530360 0.000000 
-0.000000 -1.530360 0.000000 
-0.000000 -1.530360 0.000000 
-0.000000 -1.530360 0.000000 
0.000000 -1.530360 0.000000 
-0.000000 -1.530360 0.000000 
-0.000000 -1.530360 0.000000 
-0.000000 -1.530360 0.000000 
0.000000 -1.530360 0.000000 
-0.000000 -1.530360 0.000000 
-0.000000 -1.530360 0.000000 
-0.000000 -1.530360 0.000000 
0.000000 -1.530360 0.000000 
0.000000 -1.530360 0.000000 
0.000000 -1.530360 0.000000 
0.000000 -1.530360 0.000000 
0.000000 -1.530360 0.000000 
0.000000 -1.530360 0.000000 
0.000000 -1.530360 0.000000 
0.000000 -1.530360 0.000000 
0.000000 -1.530360 0.000000 
0.000000 -1.530360 0.000000 
0.000000 -1.530360 0.000000 
0.000000 -1.530360 0.000000 
0.000000 -1.530360 0.000000 
0.000000 -1.530360 0.000000 
-0.000000 -1.530360 0.000000 
-0.000000 -1.530360 0.000000 
0.000000 -1.530360 0.000000 
0.000000 -1.530360 0.000000 
0.000000 -1.530360 0.000000 
-0.000000 -1.530360 0.000000 
0.000000 -1.530360 0.000000 
-0.000000 -1.530360 0.000000 
0.000000 -1.530360 0.000000 
-0.000000 -1.530360 0.000000 
0.000000 -1.530360 0.000000 
-0.000000 -1.530360 0.000000 
-0.000000 -1.530360 0.000000 
-0.000000 -1.530360 0.000000 
-0.000000 -1.530360 0.000000 
-0.000000 -1.530360 0.000000 
-0.000000 -1.530360 0.000000 
0.000000 -1.530360 0.000000 
0.000000 -1.530360 0.000000 
0.000000 -1.530360 0.000000 
0.000000 -1.530360 0.000000 
0.000000 -1.530360 0.000000 
0.000000 -1.530360 0.000000 
-0.000000 -1.530360 0.000000 
-0.000000 -1.530360 0.000000 
-0.000000 -1.530360 0.000000 
0.000000 -1.530360 0.000000 
0.000000 -1.530360 0.000000 
0.000000 -1.530360 0.000000 
0.000000 -1.530360 0.000000 
0.000000 -1.530360 0.000000 
0.000000 -1.530360 0.000000 
0.000000 -1.530360 0.000000 
0.000000 -1.530360 0.000000 
-0.000000 -1.530360 0.000000 
-0.000000 -1.530360 0.000000 
-0.000000 -1.530360 0.000000 
-0.000000 -1.530360 0.000000 
0.000000 -1.530360 0.000000 
0.000000 -1.530360 0.000000 
0.000000 -1.530360 0.000000 
0.000000 -1.530360 0.000000 
0.000000 -1.530360 0.000000 
0.000000 -1.530360 0.000000 
0.000000 -1.530360 0.000000 
0.000000 -1.530360 0.000000 
0.000000 -1.530360 0.000000 
0.000000 -1.530360 0.000000 
0.000000 -1.530360 0.000000 
0.000000 -1.530360 0.000000 
-0.000000 -1.530360 0.000000 
-0.000000 -1.530360 0.000000 
-0.000000 -1.530360 0.000000 
-0.000000 -1.530360 0.000000 
-0.000000 -1.530360 0.000000 
0.000000 -1.530360 0.000000 
-0.000000 -1.530360 0.000000 
-0.000000 -1.530360 0.000000 
-0.000000 -1.530360 0.000000 
-0.000000 -1.530360 0.000000 
-0.000000 -1.530360 0.000000 
-0.000000 -1.530360 0.000000 
0.000000 -1.530360 0.000000 
0.000000 -1.530360 0.000000 
-0.000000 -1.530360 0.000000 
-0.000000 -1.530360 0.000000 
0.000000 -1.530360 0.000000 
0.000000 -1.530360 0.000000 
0.000000 -1.530360 0.000000 
0.000000 -1.530360 0.000000 
-0.000000 -1.530360 0.000000 
-0.000000 -1.530360 0.000000 
-0.000000 -1.530360 0.000000 
0.000000 -1.530360 0.000000 
0.000000 -1.530360 0.000000 
0.000000 -1.530360 0.000000 
0.000000 -1.530360 0.000000 
0.000000 -1.530360 0.000000 
-0.000000 -1.530360 0.000000 
0.000000 -1.530360 0.000000 
0.000000 -1.530360 0.000000 
0.000000 -1.530360 0.000000 
0.000000 -1.530360 0.000000 
0.000000 -1.530360 0.000000 
0.000000 -1.530360 0.000000 
0.000000 -1.530360 0.000000 
0.000000 -1.530360 0.000000 
-0.000000 -1.530360 0.000000 
0.000000 -1.530360 0.000000 
0.000000 -1.530360 0.000000 
0.000000 -1.530360 0.000000 
0.000000 -1.530360 0.000000 
-0.000000 -1.530360 0.000000 
0.000000 -1.530360 0.000000 
0.000000 -1.530360 0.000000 
-0.000000 -1.530360 0.000000 
0.000000 -1.530360 0.000000 
0.000000 -1.530360 0.000000 
0.000000 -1.530360 0.000000 
-0.000000 -1.530360 0.000000 
-0.000000 -1.530360 0.000000 
-0.000000 -1.530360 0.000000 
-0.000000 -1.530360 0.000000 
-0.000000 -1.530360 0.000000 
-0.000000 -1.530360 0.000000 
-0.000000 -1.530360 0.000000 
-0.000000 -1.530360 0.000000 
-0.000000 -1.530360 0.000000 
0.000000 -1.530360 0.000000 
-0.000000 -1.530360 0.000000 
-0.000000 -1.530360 0.000000 
-0.000000 -1.530360 0.000000 
-0.000000 -1.530360 0.000000 
0.000000 -1.530360 0.000000 
-0.000000 -1.530360 0.000000 
0.000000 -1.530360 0.000000 
0.000000 -1.530360 0.000000 
0.000000 -1.530360 0.000000 
-0.000000 -1.530360 0.000000 
0.000000 -1.530360 0.000000 
0.000000 -1.530360 0.000000 
0.000000 -1.530360 0.000000 
-0.000000 -1.530360 0.000000 
-0.000000 -1.530360 0.000000 
0.000000 -1.530360 0.000000 
0.000000 -1.530360 0.000000 
0.000000 -1.530360 0.000000 
-0.000000 -1.530360 0.000000 
-0.000000 -1.530360 0.000000 
-0.000000 -1.530360 0.000000 
-0.000000 -1.530360 0.000000 
-0.000000 -1.530360 0.000000 
-0.000000 -1.530360 0.000000 
-0.000000 -1.530360 0.000000 
-0.000000 -1.530360 0.000000 
-0.000000 -1.530360 0.000000 
-0.000000 -1.530360 0.000000 
-0.000000 -1.530360 0.000000 
-0.000000 -1.530360 0.000000 
0.000000 -1.530360 0.000000 
0.000000 -1.530360 0.000000 
-0.000000 -1.530360 0.000000 
0.000000 -1.530360 0.000000 
0.000000 -1.530360 0.000000 
-0.000000 -1.530360 0.000000 
-0.000000 -1.530360 0.000000 
-0.000000 -1.530360 0.000000 
-0.000000 -1.530360 0.000000 
0.000000 -1.530360 0.000000 
-0.000000 -1.530360 0.000000 
-0.000000 -1.530360 0.000000 
-0.000000 -1.530360 0.000000 
0.000000 -1.530360 0.000000 
-0.000000 -1.530360 0.000000 
-0.000000 -1.530360 0.000000 
-0.000000 -1.530360 0.000000 
0.000000 -1.530360 0.000000 
0.000000 -1.530360 0.000000 
0.000000 -1.530360 0.000000 
0.000000 -1.530360 0.000000 
0.000000 -1.530360 0.000000 
0.000000 -1.530360 0.000000 
0.000000 -1.530360 0.000000 
0.000000 -1.530360 0.000000 
-0.000000 -1.530360 0.000000 
-0.000000 -1.530360 0.000000 
0.000000 -1.530360 0.000000 
0.000000 -1.530360 0.000000 
0.000000 -1.530360 0.000000 
0.000000 -1.530360 0.000000 
-0.000000 -1.530360 0.000000 
0.000000 -1.530360 0.000000 
0.000000 -1.530360 0.000000 
0.000000 -1.530360 0.000000 
0.000000 -1.530360 0.000000 
0.000000 -1.530360 0.000000 
0.000000 -1.530360 0.000000 
0.000000 -1.530360 0.000000 
-0.000000 -1.530360 0.000000 
-0.000000 -1.530360 0.000000 
0.000000 -1.530360 0.000000 
0.000000 -1.530360 0.000000 
-0.000000 -1.530360 0.000000 
-0.000000 -1.530360 0.000000 
0.000000 -1.530360 0.000000 
0.000000 -1.530360 0.000000 
0.000000 -1.530360 0.000000 
0.000000 -1.530360 0.000000 
-0.000000 -1.530360 0.000000 
0.000000 -1.530360 0.000000 
0.000000 -1.530360 0.000000 
0.000000 -1.530360 0.000000 
0.000000 -1.530360 0.000000 
0.000000 -1.530360 0.000000 
0.000000 -1.530360 0.000000 
0.000000 -1.530360 0.000000 
0.000000 -1.530360 0.000000 
0.000000 -1.530360 0.000000 
0.000000 -1.530360 0.000000 
0.000000 -1.530360 0.000000 
0.000000 -1.530360 0.000000 
0.000000 -1.530360 0.000000 
-0.000000 -1.530360 0.000000 
-0.000000 -1.530360 0.000000 
0.000000 -1.530360 0.000000 
-0.000000 -1.530360 0.000000 
0.000000 -1.530360 0.000000 
0.000000 -1.530360 0.000000 
-0.000000 -1.530360 0.000000 
-0.000000 -1.530360 0.000000 
-0.000000 -1.530360 0.000000 
-0.000000 -1.530360 0.000000 
0.000000 -1.530360 0.000000 
0.000000 -1.530360 0.000000 
0.000000 -1.530360 0.000000 
-0.000000 -1.530360 0.000000 
0.000000 -1.530360 0.000000 
-0.000000 -1.530360 0.000000 
0.000000 -1.530360 0.000000 
0.000000 -1.530360 0.000000 
0.000000 -1.530360 0.000000 
0.000000 -1.530360 0.000000 
0.000000 -1.530360 0.000000 
0.000000 -1.530360 0.000000 
0.000000 -1.530360 0.000000 
0.000000 -1.530360 0.000000 
-0.000000 -1.530360 0.000000 
-0.000000 -1.530360 0.000000 
-0.000000 -1.530360 0.000000 
-0.000000 -1.530360 0.000000 
-0.000000 -1.530360 0.000000 
-0.000000 -1.530360 0.000000 
-0.000000 -1.530360 0.000000 
-0.000000 -1.530360 0.000000 
-0.000000 -1.530360 0.000000 
0.000000 -1.530360 0.000000 
-0.000000 -1.530360 0.000000 
0.000000 -1.530360 0.000000 
0.000000 -1.530360 0.000000 
-0.000000 -1.530360 0.000000 
-0.000000 -1.530360 0.000000 
0.000000 -1.530360 0.000000 
0.000000 -1.530360 0.000000 
0.000000 -1.530360 0.000000 
0.000000 -1.530360 0.000000 
0.000000 -1.530360 0.000000 
0.000000 -1.530360 0.000000 
0.000000 -1.530360 0.000000 
0.000000 -1.530360 0.000000 
0.000000 -1.530360 0.000000 
0.000000 -1.530360 0.000000 
0.000000 -1.530360 0.000000 
0.000000 -1.530360 0.000000 
0.000000 -1.530360 0.000000 
-0.000000 -1.530360 0.000000 
-0.000000 -1.530360 0.000000 
0.000000 -1.530360 0.000000 
0.000000 -1.530360 0.000000 
0.000000 -1.530360 0.000000 
0.000000 -1.530360 0.000000 
0.000000 -1.530360 0.000000 
0.000000 -1.530360 0.000000 
0.000000 -1.530360 0.000000 
0.000000 -1.530360 0.000000 
0.000000 -1.530360 0.000000 
0.000000 -1.530360 0.000000 
-0.000000 -1.530360 0.000000 
-0.000000 -1.530360 0.000000 
0.000000 -1.530360 0.000000 
0.000000 -1.530360 0.000000 
0.000000 -1.530360 0.000000 
0.000000 -1.530360 0.000000 
0.000000 -1.530360 0.000000 
0.000000 -1.530360 0.000000 
0.000000 -1.530360 0.000000 
-0.000000 -1.530360 0.000000 
-0.000000 -1.530360 0.000000 
-0.000000 -1.530360 0.000000 
-0.000000 -1.530360 0.000000 
-0.000000 -1.530360 0.000000 
-0.000000 -1.530360 0.000000 
0.000000 -1.530360 0.000000 
0.000000 -1.530360 0.000000 
-0.000000 -1.530360 0.000000 
0.000000 -1.530360 0.000000 
-0.000000 -1.530360 0.000000 
-0.000000 -1.530360 0.000000 
-0.000000 -1.530360 0.000000 
-0.000000 -1.530360 0.000000 
0.000000 -1.530360 0.000000 
0.000000 -1.530360 0.000000 
-0.000000 -1.530360 0.000000 
-0.000000 -1.530360 0.000000 
-0.000000 -1.530360 0.000000 
-0.000000 -1.530360 0.000000 
-0.000000 -1.530360 0.000000 
-0.000000 -1.530360 0.000000 
-0.000000 -1.530360 0.000000 
-0.000000 -1.530360 0.000000 
-0.000000 -1.530360 0.000000 
-0.000000 -1.530360 0.000000 
-0.000000 -1.530360 0.000000 
-0.000000 -1.530360 0.000000 
-0.000000 -1.530360 0.000000 
0.000000 -1.530360 0.000000 
0.000000 -1.530360 0.000000 
-0.000000 -1.530360 0.000000 
0.000000 -1.530360 0.000000 
-0.000000 -1.530360 0.000000 
0.000000 -1.530360 0.000000 
-0.000000 -1.530360 0.000000 
-0.000000 -1.530360 0.000000 
-0.000000 -1.530360 0.000000 
0.000000 -1.530360 0.000000 
0.000000 -1.530360 0.000000 
0.000000 -1.530360 0.000000 
-0.000000 -1.530360 0.000000 
0.000000 -1.530360 0.000000 
-0.000000 -1.530360 0.000000 
-0.000000 -1.530360 0.000000 
-0.000000 -1.530360 0.000000 
-0.000000 -1.530360 0.000000 
-0.000000 -1.530360 0.000000 
0.000000 -1.530360 0.000000 
0.000000 -1.530360 0.000000 
-0.000000 -1.530360 0.000000 
-0.000000 -1.530360 0.000000 
-0.000000 -1.530360 0.000000 
-0.000000 -1.530360 0.000000 
-0.000000 -1.530360 0.000000 
0.000000 -1.530360 0.000000 
0.000000 -1.530360 0.000000 
-0.000000 -1.530360 0.000000 
0.000000 -1.530360 0.000000 
0.000000 -1.530360 0.000000 
-0.000000 -1.530360 0.000000 
0.000000 -1.530360 0.000000 
0.000000 -1.530360 0.000000 
0.000000 -1.530360 0.000000 
0.000000 -1.530360 0.000000 
0.000000 -1.530360 0.000000 
-0.000000 -1.530360 0.000000 
-0.000000 -1.530360 0.000000 
-0.000000 -1.530360 0.000000 
0.000000 -1.530360 0.000000 
-0.000000 -1.530360 0.000000 
-0.000000 -1.530360 0.000000 
0.000000 -1.530360 0.000000 
0.000000 -1.530360 0.000000 
0.000000 -1.530360 0.000000 
-0.000000 -1.530360 0.000000 
-0.000000 -1.530360 0.000000 
-0.000000 -1.530360 0.000000 
-0.000000 -1.530360 0.000000 
-0.000000 -1.530360 0.000000 
-0.000000 -1.530360 0.000000 
-0.000000 -1.530360 0.000000 
0.000000 -1.530360 0.000000 
-0.000000 -1.530360 0.000000 
-0.000000 -1.530360 0.000000 
-0.000000 -1.530360 0.000000 
-0.000000 -1.530360 0.000000 
-0.000000 -1.530360 0.000000 
-0.000000 -1.530360 0.000000 
-0.000000 -1.530360 0.000000 
-0.000000 -1.530360 0.000000 
-0.000000 -1.530360 0.000000 
0.000000 -1.530360 0.000000 
0.000000 -1.530360 0.000000 
-0.000000 -1.530360 0.000000 
-0.000000 -1.530360 0.000000 
0.000000 -1.530360 0.000000 
0.000000 -1.530360 0.000000 
-0.000000 -1.530360 0.000000 
-0.000000 -1.530360 0.000000 
0.000000 -1.530360 0.000000 
-0.000000 -1.530360 0.000000 
-0.000000 -1.530360 0.000000 
-0.000000 -1.530360 0.000000 
-0.000000 -1.530360 0.000000 
-0.000000 -1.530360 0.000000 
-0.000000 -1.530360 0.000000 
0.000000 -1.530360 0.000000 
-0.000000 -1.530360 0.000000 
-0.000000 -1.530360 0.000000 
-0.000000 -1.530360 0.000000 
0.000000 -1.530360 0.000000 
0.000000 -1.530360 0.000000 
-0.000000 -1.530360 0.000000 
-0.000000 -1.530360 0.000000 
-0.000000 -1.530360 0.000000 
0.000000 -1.530360 0.000000 
0.000000 -1.530360 0.000000 
0.000000 -1.530360 0.000000 
0.000000 -1.530360 0.000000 
0.000000 -1.530360 0.000000 
TENSORS STRESS float 
0.000000 0.000000 0.000000 
0.000000 0.000000 0.000000 
0.000000 0.000000 0.000000 

-0.000000 0.000000 0.000000 
0.000000 -0.000000 0.000000 
0.000000 0.000000 0.000000 

-0.000000 -0.000000 0.000000 
0.000000 -0.000000 0.000000 
0.000000 0.000000 0.000000 

0.000000 0.000000 0.000000 
0.000000 -0.000000 0.000000 
0.000000 0.000000 0.000000 

0.000000 0.000000 0.000000 
0.000000 0.000000 0.000000 
0.000000 0.000000 0.000000 

-0.000000 -0.000000 0.000000 
0.000000 -0.000000 0.000000 
0.000000 0.000000 0.000000 

-0.000000 -0.000000 0.000000 
0.000000 -0.000000 0.000000 
0.000000 0.000000 0.000000 

-0.000000 0.000000 0.000000 
0.000000 -0.000000 0.000000 
0.000000 0.000000 0.000000 

-0.000000 0.000000 0.000000 
0.000000 -0.000000 0.000000 
0.000000 0.000000 0.000000 

-0.000000 0.000000 0.000000 
0.000000 -0.000000 0.000000 
0.000000 0.000000 0.000000 

-0.000000 0.000000 0.000000 
0.000000 -0.000000 0.000000 
0.000000 0.000000 0.000000 

-0.000000 0.000000 0.000000 
0.000000 -0.000000 0.000000 
0.000000 0.000000 0.000000 

-0.000000 0.000000 0.000000 
0.000000 -0.000000 0.000000 
0.000000 0.000000 0.000000 

-0.000000 -0.000000 0.000000 
0.000000 -0.000000 0.000000 
0.000000 0.000000 0.000000 

0.000000 -0.000000 0.000000 
0.000000 0.000000 0.000000 
0.000000 0.000000 0.000000 

-0.000000 -0.000000 0.000000 
0.000000 -0.000000 0.000000 
0.000000 0.000000 0.000000 

-0.000000 -0.000000 0.000000 
0.000000 -0.000000 0.000000 
0.000000 0.000000 0.000000 

-0.000000 0.000000 0.000000 
0.000000 -0.000000 0.000000 
0.000000 0.000000 0.000000 

-0.000000 0.000000 0.000000 
0.000000 -0.000000 0.000000 
0.000000 0.000000 0.000000 

-0.000000 -0.000000 0.000000 
0.000000 -0.000000 0.000000 
0.000000 0.000000 0.000000 

-0.000000 -0.000000 0.000000 
0.000000 -0.000000 0.000000 
0.000000 0.000000 0.000000 

-0.000000 -0.000000 0.000000 
0.000000 -0.000000 0.000000 
0.000000 0.000000 0.000000 

0.000000 -0.000000 0.000000 
0.000000 0.000000 0.000000 
0.000000 0.000000 0.000000 

0.000000 0.000000 0.000000 
0.000000 0.000000 0.000000 
0.000000 0.000000 0.000000 

0.000000 0.000000 0.000000 
0.000000 0.000000 0.000000 
0.000000 0.000000 0.000000 

0.000000 0.000000 0.000000 
0.000000 0.000000 0.000000 
0.000000 0.000000 0.000000 

0.000000 0.000000 0.000000 
0.000000 0.000000 0.000000 
0.000000 0.000000 0.000000 

0.000000 0.000000 0.000000 
0.000000 0.000000 0.000000 
0.000000 0.000000 0.000000 

0.000000 0.000000 0.000000 
0.000000 0.000000 0.000000 
0.000000 0.000000 0.000000 

-0.000000 0.000000 0.000000 
0.000000 -0.000000 0.000000 
0.000000 0.000000 0.000000 

0.000000 0.000000 0.000000 
0.000000 0.000000 0.000000 
0.000000 0.000000 0.000000 

0.000000 0.000000 0.000000 
0.000000 0.000000 0.000000 
0.000000 0.000000 0.000000 

-0.000000 0.000000 0.000000 
0.000000 -0.000000 0.000000 
0.000000 0.000000 0.000000 

-0.000000 0.000000 0.000000 
0.000000 -0.000000 0.000000 
0.000000 0.000000 0.000000 

-0.000000 -0.000000 0.000000 
0.000000 -0.000000 0.000000 
0.000000 0.000000 0.000000 

-0.000000 -0.000000 0.000000 
0.000000 -0.000000 0.000000 
0.000000 0.000000 0.000000 

-0.000000 0.000000 0.000000 
0.000000 -0.000000 0.000000 
0.000000 0.000000 0.000000 

0.000000 0.000000 0.000000 
0.000000 0.000000 0.000000 
0.000000 0.000000 0.000000 

0.000000 -0.000000 0.000000 
0.000000 0.000000 0.000000 
0.000000 0.000000 0.000000 

0.000000 -0.000000 0.000000 
0.000000 0.000000 0.000000 
0.000000 0.000000 0.000000 

0.000000 0.000000 0.000000 
0.000000 0.000000 0.000000 
0.000000 0.000000 0.000000 

0.000000 -0.000000 0.000000 
0.000000 0.000000 0.000000 
0.000000 0.000000 0.000000 

0.000000 -0.000000 0.000000 
0.000000 0.000000 0.000000 
0.000000 0.000000 0.000000 

-0.000000 -0.000000 0.000000 
0.000000 -0.000000 0.000000 
0.000000 0.000000 0.000000 

-0.000000 0.000000 0.000000 
0.000000 -0.000000 0.000000 
0.000000 0.000000 0.000000 

-0.000000 0.000000 0.000000 
0.000000 -0.000000 0.000000 
0.000000 0.000000 0.000000 

-0.000000 0.000000 0.000000 
0.000000 -0.000000 0.000000 
0.000000 0.000000 0.000000 

-0.000000 0.000000 0.000000 
0.000000 -0.000000 0.000000 
0.000000 0.000000 0.000000 

0.000000 -0.000000 0.000000 
0.000000 0.000000 0.000000 
0.000000 0.000000 0.000000 

-0.000000 -0.000000 0.000000 
0.000000 -0.000000 0.000000 
0.000000 0.000000 0.000000 

-0.000000 0.000000 0.000000 
0.000000 -0.000000 0.000000 
0.000000 0.000000 0.000000 

-0.000000 -0.000000 0.000000 
0.000000 -0.000000 0.000000 
0.000000 0.000000 0.000000 

0.000000 0.000000 0.000000 
0.000000 0.000000 0.000000 
0.000000 0.000000 0.000000 

-0.000000 0.000000 0.000000 
0.000000 -0.000000 0.000000 
0.000000 0.000000 0.000000 

-0.000000 0.000000 0.000000 
0.000000 -0.000000 0.000000 
0.000000 0.000000 0.000000 

0.000000 0.000000 0.000000 
0.000000 0.000000 0.000000 
0.000000 0.000000 0.000000 

-0.000000 -0.000000 0.000000 
0.000000 -0.000000 0.000000 
0.000000 0.000000 0.000000 

0.000000 -0.000000 0.000000 
0.000000 0.000000 0.000000 
0.000000 0.000000 0.000000 

-0.000000 -0.000000 0.000000 
0.000000 -0.000000 0.000000 
0.000000 0.000000 0.000000 

-0.000000 -0.000000 0.000000 
0.000000 -0.000000 0.000000 
0.000000 0.000000 0.000000 

-0.000000 -0.000000 0.000000 
0.000000 -0.000000 0.000000 
0.000000 0.000000 0.000000 

0.000000 0.000000 0.000000 
0.000000 0.000000 0.000000 
0.000000 0.000000 0.000000 

0.000000 0.000000 0.000000 
0.000000 0.000000 0.000000 
0.000000 0.000000 0.000000 

0.000000 0.000000 0.000000 
0.000000 0.000000 0.000000 
0.000000 0.000000 0.000000 

0.000000 0.000000 0.000000 
0.000000 0.000000 0.000000 
0.000000 0.000000 0.000000 

-0.000000 0.000000 0.000000 
0.000000 -0.000000 0.000000 
0.000000 0.000000 0.000000 

0.000000 -0.000000 0.000000 
0.000000 0.000000 0.000000 
0.000000 0.000000 0.000000 

0.000000 -0.000000 0.000000 
0.000000 0.000000 0.000000 
0.000000 0.000000 0.000000 

-0.000000 -0.000000 0.000000 
0.000000 -0.000000 0.000000 
0.000000 0.000000 0.000000 

-0.000000 -0.000000 0.000000 
0.000000 -0.000000 0.000000 
0.000000 0.000000 0.000000 

-0.000000 -0.000000 0.000000 
0.000000 -0.000000 0.000000 
0.000000 0.000000 0.000000 

-0.000000 -0.000000 0.000000 
0.000000 -0.000000 0.000000 
0.000000 0.000000 0.000000 

0.000000 -0.000000 0.000000 
0.000000 0.000000 0.000000 
0.000000 0.000000 0.000000 

0.000000 0.000000 0.000000 
0.000000 0.000000 0.000000 
0.000000 0.000000 0.000000 

-0.000000 -0.000000 0.000000 
0.000000 -0.000000 0.000000 
0.000000 0.000000 0.000000 

-0.000000 0.000000 0.000000 
0.000000 -0.000000 0.000000 
0.000000 0.000000 0.000000 

-0.000000 0.000000 0.000000 
0.000000 -0.000000 0.000000 
0.000000 0.000000 0.000000 

0.000000 -0.000000 0.000000 
0.000000 0.000000 0.000000 
0.000000 0.000000 0.000000 

0.000000 -0.000000 0.000000 
0.000000 0.000000 0.000000 
0.000000 0.000000 0.000000 

0.000000 -0.000000 0.000000 
0.000000 0.000000 0.000000 
0.000000 0.000000 0.000000 

0.000000 -0.000000 0.000000 
0.000000 0.000000 0.000000 
0.000000 0.000000 0.000000 

0.000000 -0.000000 0.000000 
0.000000 0.000000 0.000000 
0.000000 0.000000 0.000000 

0.000000 -0.000000 0.000000 
0.000000 0.000000 0.000000 
0.000000 0.000000 0.000000 

-0.000000 -0.000000 0.000000 
0.000000 -0.000000 0.000000 
0.000000 0.000000 0.000000 

0.000000 -0.000000 0.000000 
0.000000 0.000000 0.000000 
0.000000 0.000000 0.000000 

-0.000000 -0.000000 0.000000 
0.000000 -0.000000 0.000000 
0.000000 0.000000 0.000000 

-0.000000 -0.000000 0.000000 
0.000000 -0.000000 0.000000 
0.000000 0.000000 0.000000 

-0.000000 -0.000000 0.000000 
0.000000 -0.000000 0.000000 
0.000000 0.000000 0.000000 

-0.000000 -0.000000 0.000000 
0.000000 -0.000000 0.000000 
0.000000 0.000000 0.000000 

-0.000000 -0.000000 0.000000 
0.000000 -0.000000 0.000000 
0.000000 0.000000 0.000000 

-0.000000 -0.000000 0.000000 
0.000000 -0.000000 0.000000 
0.000000 0.000000 0.000000 

-0.000000 -0.000000 0.000000 
0.000000 -0.000000 0.000000 
0.000000 0.000000 0.000000 

0.000000 -0.000000 0.000000 
0.000000 0.000000 0.000000 
0.000000 0.000000 0.000000 

0.000000 -0.000000 0.000000 
0.000000 0.000000 0.000000 
0.000000 0.000000 0.000000 

0.000000 -0.000000 0.000000 
0.000000 0.000000 0.000000 
0.000000 0.000000 0.000000 

-0.000000 -0.000000 0.000000 
0.000000 0.000000 0.000000 
0.000000 0.000000 0.000000 

0.000000 -0.000000 0.000000 
0.000000 0.000000 0.000000 
0.000000 0.000000 0.000000 

0.000000 -0.000000 0.000000 
0.000000 0.000000 0.000000 
0.000000 0.000000 0.000000 

0.000000 0.000000 0.000000 
0.000000 0.000000 0.000000 
0.000000 0.000000 0.000000 

-0.000000 0.000000 0.000000 
0.000000 -0.000000 0.000000 
0.000000 0.000000 0.000000 

0.000000 0.000000 0.000000 
0.000000 0.000000 0.000000 
0.000000 0.000000 0.000000 

0.000000 0.000000 0.000000 
0.000000 -0.000000 0.000000 
0.000000 0.000000 0.000000 

-0.000000 0.000000 0.000000 
0.000000 -0.000000 0.000000 
0.000000 0.000000 0.000000 

0.000000 0.000000 0.000000 
0.000000 0.000000 0.000000 
0.000000 0.000000 0.000000 

0.000000 0.000000 0.000000 
0.000000 0.000000 0.000000 
0.000000 0.000000 0.000000 

0.000000 0.000000 0.000000 
0.000000 -0.000000 0.000000 
0.000000 0.000000 0.000000 

0.000000 0.000000 0.000000 
0.000000 0.000000 0.000000 
0.000000 0.000000 0.000000 

0.000000 0.000000 0.000000 
0.000000 0.000000 0.000000 
0.000000 0.000000 0.000000 

0.000000 0.000000 0.000000 
0.000000 0.000000 0.000000 
0.000000 0.000000 0.000000 

0.000000 0.000000 0.000000 
0.000000 0.000000 0.000000 
0.000000 0.000000 0.000000 

-0.000000 -0.000000 0.000000 
0.000000 -0.000000 0.000000 
0.000000 0.000000 0.000000 

-0.000000 -0.000000 0.000000 
0.000000 -0.000000 0.000000 
0.000000 0.000000 0.000000 

-0.000000 0.000000 0.000000 
0.000000 -0.000000 0.000000 
0.000000 0.000000 0.000000 

-0.000000 0.000000 0.000000 
0.000000 -0.000000 0.000000 
0.000000 0.000000 0.000000 

-0.000000 -0.000000 0.000000 
0.000000 -0.000000 0.000000 
0.000000 0.000000 0.000000 

0.000000 0.000000 0.000000 
0.000000 0.000000 0.000000 
0.000000 0.000000 0.000000 

0.000000 0.000000 0.000000 
0.000000 0.000000 0.000000 
0.000000 0.000000 0.000000 

-0.000000 0.000000 0.000000 
0.000000 -0.000000 0.000000 
0.000000 0.000000 0.000000 

0.000000 0.000000 0.000000 
0.000000 0.000000 0.000000 
0.000000 0.000000 0.000000 

0.000000 0.000000 0.000000 
0.000000 0.000000 0.000000 
0.000000 0.000000 0.000000 

-0.000000 0.000000 0.000000 
0.000000 -0.000000 0.000000 
0.000000 0.000000 0.000000 

-0.000000 -0.000000 0.000000 
0.000000 -0.000000 0.000000 
0.000000 0.000000 0.000000 

-0.000000 0.000000 0.000000 
0.000000 -0.000000 0.000000 
0.000000 0.000000 0.000000 

-0.000000 0.000000 0.000000 
0.000000 -0.000000 0.000000 
0.000000 0.000000 0.000000 

-0.000000 0.000000 0.000000 
0.000000 -0.000000 0.000000 
0.000000 0.000000 0.000000 

0.000000 0.000000 0.000000 
0.000000 0.000000 0.000000 
0.000000 0.000000 0.000000 

-0.000000 -0.000000 0.000000 
0.000000 -0.000000 0.000000 
0.000000 0.000000 0.000000 

-0.000000 0.000000 0.000000 
0.000000 -0.000000 0.000000 
0.000000 0.000000 0.000000 

-0.000000 0.000000 0.000000 
0.000000 -0.000000 0.000000 
0.000000 0.000000 0.000000 

0.000000 -0.000000 0.000000 
0.000000 0.000000 0.000000 
0.000000 0.000000 0.000000 

0.000000 -0.000000 0.000000 
0.000000 0.000000 0.000000 
0.000000 0.000000 0.000000 

0.000000 -0.000000 0.000000 
0.000000 0.000000 0.000000 
0.000000 0.000000 0.000000 

-0.000000 -0.000000 0.000000 
0.000000 -0.000000 0.000000 
0.000000 0.000000 0.000000 

-0.000000 -0.000000 0.000000 
0.000000 -0.000000 0.000000 
0.000000 0.000000 0.000000 

0.000000 0.000000 0.000000 
0.000000 0.000000 0.000000 
0.000000 0.000000 0.000000 

0.000000 0.000000 0.000000 
0.000000 0.000000 0.000000 
0.000000 0.000000 0.000000 

0.000000 0.000000 0.000000 
0.000000 0.000000 0.000000 
0.000000 0.000000 0.000000 

-0.000000 0.000000 0.000000 
0.000000 -0.000000 0.000000 
0.000000 0.000000 0.000000 

0.000000 0.000000 0.000000 
0.000000 0.000000 0.000000 
0.000000 0.000000 0.000000 

0.000000 0.000000 0.000000 
0.000000 0.000000 0.000000 
0.000000 0.000000 0.000000 

-0.000000 0.000000 0.000000 
0.000000 -0.000000 0.000000 
0.000000 0.000000 0.000000 

-0.000000 0.000000 0.000000 
0.000000 -0.000000 0.000000 
0.000000 0.000000 0.000000 

-0.000000 0.000000 0.000000 
0.000000 0.000000 0.000000 
0.000000 0.000000 0.000000 

-0.000000 0.000000 0.000000 
0.000000 -0.000000 0.000000 
0.000000 0.000000 0.000000 

-0.000000 0.000000 0.000000 
0.000000 -0.000000 0.000000 
0.000000 0.000000 0.000000 

0.000000 -0.000000 0.000000 
0.000000 0.000000 0.000000 
0.000000 0.000000 0.000000 

0.000000 -0.000000 0.000000 
0.000000 0.000000 0.000000 
0.000000 0.000000 0.000000 

0.000000 -0.000000 0.000000 
0.000000 0.000000 0.000000 
0.000000 0.000000 0.000000 

0.000000 0.000000 0.000000 
0.000000 0.000000 0.000000 
0.000000 0.000000 0.000000 

0.000000 0.000000 0.000000 
0.000000 -0.000000 0.000000 
0.000000 0.000000 0.000000 

-0.000000 0.000000 0.000000 
0.000000 -0.000000 0.000000 
0.000000 0.000000 0.000000 

-0.000000 0.000000 0.000000 
0.000000 -0.000000 0.000000 
0.000000 0.000000 0.000000 

-0.000000 0.000000 0.000000 
0.000000 -0.000000 0.000000 
0.000000 0.000000 0.000000 

-0.000000 -0.000000 0.000000 
0.000000 -0.000000 0.000000 
0.000000 0.000000 0.000000 

-0.000000 0.000000 0.000000 
0.000000 -0.000000 0.000000 
0.000000 0.000000 0.000000 

-0.000000 0.000000 0.000000 
0.000000 -0.000000 0.000000 
0.000000 0.000000 0.000000 

0.000000 0.000000 0.000000 
0.000000 0.000000 0.000000 
0.000000 0.000000 0.000000 

0.000000 0.000000 0.000000 
0.000000 0.000000 0.000000 
0.000000 0.000000 0.000000 

0.000000 0.000000 0.000000 
0.000000 0.000000 0.000000 
0.000000 0.000000 0.000000 

0.000000 0.000000 0.000000 
0.000000 0.000000 0.000000 
0.000000 0.000000 0.000000 

0.000000 0.000000 0.000000 
0.000000 0.000000 0.000000 
0.000000 0.000000 0.000000 

-0.000000 -0.000000 0.000000 
0.000000 -0.000000 0.000000 
0.000000 0.000000 0.000000 

-0.000000 -0.000000 0.000000 
0.000000 -0.000000 0.000000 
0.000000 0.000000 0.000000 

-0.000000 -0.000000 0.000000 
0.000000 -0.000000 0.000000 
0.000000 0.000000 0.000000 

-0.000000 0.000000 0.000000 
0.000000 -0.000000 0.000000 
0.000000 0.000000 0.000000 

0.000000 0.000000 0.000000 
0.000000 0.000000 0.000000 
0.000000 0.000000 0.000000 

0.000000 0.000000 0.000000 
0.000000 0.000000 0.000000 
0.000000 0.000000 0.000000 

-0.000000 0.000000 0.000000 
0.000000 -0.000000 0.000000 
0.000000 0.000000 0.000000 

0.000000 0.000000 0.000000 
0.000000 0.000000 0.000000 
0.000000 0.000000 0.000000 

0.000000 0.000000 0.000000 
0.000000 0.000000 0.000000 
0.000000 0.000000 0.000000 

0.000000 0.000000 0.000000 
0.000000 0.000000 0.000000 
0.000000 0.000000 0.000000 

-0.000000 -0.000000 0.000000 
0.000000 -0.000000 0.000000 
0.000000 0.000000 0.000000 

-0.000000 0.000000 0.000000 
0.000000 -0.000000 0.000000 
0.000000 0.000000 0.000000 

-0.000000 0.000000 0.000000 
0.000000 -0.000000 0.000000 
0.000000 0.000000 0.000000 

-0.000000 0.000000 0.000000 
0.000000 -0.000000 0.000000 
0.000000 0.000000 0.000000 

-0.000000 0.000000 0.000000 
0.000000 -0.000000 0.000000 
0.000000 0.000000 0.000000 

0.000000 -0.000000 0.000000 
0.000000 0.000000 0.000000 
0.000000 0.000000 0.000000 

0.000000 0.000000 0.000000 
0.000000 0.000000 0.000000 
0.000000 0.000000 0.000000 

0.000000 -0.000000 0.000000 
0.000000 0.000000 0.000000 
0.000000 0.000000 0.000000 

-0.000000 0.000000 0.000000 
0.000000 -0.000000 0.000000 
0.000000 0.000000 0.000000 

-0.000000 0.000000 0.000000 
0.000000 -0.000000 0.000000 
0.000000 0.000000 0.000000 

-0.000000 0.000000 0.000000 
0.000000 -0.000000 0.000000 
0.000000 0.000000 0.000000 

-0.000000 0.000000 0.000000 
0.000000 -0.000000 0.000000 
0.000000 0.000000 0.000000 

0.000000 -0.000000 0.000000 
0.000000 0.000000 0.000000 
0.000000 0.000000 0.000000 

0.000000 -0.000000 0.000000 
0.000000 0.000000 0.000000 
0.000000 0.000000 0.000000 

0.000000 -0.000000 0.000000 
0.000000 0.000000 0.000000 
0.000000 0.000000 0.000000 

0.000000 -0.000000 0.000000 
0.000000 0.000000 0.000000 
0.000000 0.000000 0.000000 

-0.000000 -0.000000 0.000000 
0.000000 -0.000000 0.000000 
0.000000 0.000000 0.000000 

0.000000 -0.000000 0.000000 
0.000000 0.000000 0.000000 
0.000000 0.000000 0.000000 

-0.000000 0.000000 0.000000 
0.000000 -0.000000 0.000000 
0.000000 0.000000 0.000000 

-0.000000 0.000000 0.000000 
0.000000 -0.000000 0.000000 
0.000000 0.000000 0.000000 

0.000000 -0.000000 0.000000 
0.000000 0.000000 0.000000 
0.000000 0.000000 0.000000 

0.000000 0.000000 0.000000 
0.000000 0.000000 0.000000 
0.000000 0.000000 0.000000 

0.000000 0.000000 0.000000 
0.000000 0.000000 0.000000 
0.000000 0.000000 0.000000 

-0.000000 0.000000 0.000000 
0.000000 -0.000000 0.000000 
0.000000 0.000000 0.000000 

-0.000000 0.000000 0.000000 
0.000000 -0.000000 0.000000 
0.000000 0.000000 0.000000 

-0.000000 0.000000 0.000000 
0.000000 -0.000000 0.000000 
0.000000 0.000000 0.000000 

-0.000000 0.000000 0.000000 
0.000000 -0.000000 0.000000 
0.000000 0.000000 0.000000 

-0.000000 0.000000 0.000000 
0.000000 -0.000000 0.000000 
0.000000 0.000000 0.000000 

-0.000000 -0.000000 0.000000 
0.000000 -0.000000 0.000000 
0.000000 0.000000 0.000000 

-0.000000 -0.000000 0.000000 
0.000000 -0.000000 0.000000 
0.000000 0.000000 0.000000 

0.000000 -0.000000 0.000000 
0.000000 0.000000 0.000000 
0.000000 0.000000 0.000000 

0.000000 -0.000000 0.000000 
0.000000 0.000000 0.000000 
0.000000 0.000000 0.000000 

0.000000 -0.000000 0.000000 
0.000000 0.000000 0.000000 
0.000000 0.000000 0.000000 

0.000000 0.000000 0.000000 
0.000000 0.000000 0.000000 
0.000000 0.000000 0.000000 

0.000000 0.000000 0.000000 
0.000000 0.000000 0.000000 
0.000000 0.000000 0.000000 

0.000000 0.000000 0.000000 
0.000000 0.000000 0.000000 
0.000000 0.000000 0.000000 

0.000000 0.000000 0.000000 
0.000000 0.000000 0.000000 
0.000000 0.000000 0.000000 

-0.000000 0.000000 0.000000 
0.000000 -0.000000 0.000000 
0.000000 0.000000 0.000000 

-0.000000 -0.000000 0.000000 
0.000000 -0.000000 0.000000 
0.000000 0.000000 0.000000 

-0.000000 0.000000 0.000000 
0.000000 -0.000000 0.000000 
0.000000 0.000000 0.000000 

0.000000 -0.000000 0.000000 
0.000000 0.000000 0.000000 
0.000000 0.000000 0.000000 

0.000000 0.000000 0.000000 
0.000000 0.000000 0.000000 
0.000000 0.000000 0.000000 

-0.000000 0.000000 0.000000 
0.000000 -0.000000 0.000000 
0.000000 0.000000 0.000000 

-0.000000 0.000000 0.000000 
0.000000 -0.000000 0.000000 
0.000000 0.000000 0.000000 

-0.000000 0.000000 0.000000 
0.000000 -0.000000 0.000000 
0.000000 0.000000 0.000000 

-0.000000 0.000000 0.000000 
0.000000 -0.000000 0.000000 
0.000000 0.000000 0.000000 

-0.000000 0.000000 0.000000 
0.000000 -0.000000 0.000000 
0.000000 0.000000 0.000000 

0.000000 -0.000000 0.000000 
0.000000 0.000000 0.000000 
0.000000 0.000000 0.000000 

-0.000000 0.000000 0.000000 
0.000000 -0.000000 0.000000 
0.000000 0.000000 0.000000 

0.000000 0.000000 0.000000 
0.000000 0.000000 0.000000 
0.000000 0.000000 0.000000 

-0.000000 -0.000000 0.000000 
0.000000 -0.000000 0.000000 
0.000000 0.000000 0.000000 

0.000000 0.000000 0.000000 
0.000000 0.000000 0.000000 
0.000000 0.000000 0.000000 

0.000000 -0.000000 0.000000 
0.000000 0.000000 0.000000 
0.000000 0.000000 0.000000 

-0.000000 -0.000000 0.000000 
0.000000 -0.000000 0.000000 
0.000000 0.000000 0.000000 

-0.000000 0.000000 0.000000 
0.000000 -0.000000 0.000000 
0.000000 0.000000 0.000000 

-0.000000 0.000000 0.000000 
0.000000 -0.000000 0.000000 
0.000000 0.000000 0.000000 

-0.000000 0.000000 0.000000 
0.000000 -0.000000 0.000000 
0.000000 0.000000 0.000000 

0.000000 0.000000 0.000000 
0.000000 0.000000 0.000000 
0.000000 0.000000 0.000000 

0.000000 0.000000 0.000000 
0.000000 0.000000 0.000000 
0.000000 0.000000 0.000000 

0.000000 0.000000 0.000000 
0.000000 0.000000 0.000000 
0.000000 0.000000 0.000000 

0.000000 0.000000 0.000000 
0.000000 0.000000 0.000000 
0.000000 0.000000 0.000000 

-0.000000 0.000000 0.000000 
0.000000 -0.000000 0.000000 
0.000000 0.000000 0.000000 

-0.000000 -0.000000 0.000000 
0.000000 -0.000000 0.000000 
0.000000 0.000000 0.000000 

0.000000 -0.000000 0.000000 
0.000000 0.000000 0.000000 
0.000000 0.000000 0.000000 

-0.000000 -0.000000 0.000000 
0.000000 0.000000 0.000000 
0.000000 0.000000 0.000000 

0.000000 -0.000000 0.000000 
0.000000 0.000000 0.000000 
0.000000 0.000000 0.000000 

-0.000000 -0.000000 0.000000 
0.000000 -0.000000 0.000000 
0.000000 0.000000 0.000000 

0.000000 -0.000000 0.000000 
0.000000 0.000000 0.000000 
0.000000 0.000000 0.000000 

0.000000 0.000000 0.000000 
0.000000 0.000000 0.000000 
0.000000 0.000000 0.000000 

0.000000 0.000000 0.000000 
0.000000 0.000000 0.000000 
0.000000 0.000000 0.000000 

-0.000000 0.000000 0.000000 
0.000000 -0.000000 0.000000 
0.000000 0.000000 0.000000 

-0.000000 0.000000 0.000000 
0.000000 -0.000000 0.000000 
0.000000 0.000000 0.000000 

-0.000000 0.000000 0.000000 
0.000000 -0.000000 0.000000 
0.000000 0.000000 0.000000 

0.000000 -0.000000 0.000000 
0.000000 0.000000 0.000000 
0.000000 0.000000 0.000000 

0.000000 -0.000000 0.000000 
0.000000 0.000000 0.000000 
0.000000 0.000000 0.000000 

0.000000 -0.000000 0.000000 
0.000000 0.000000 0.000000 
0.000000 0.000000 0.000000 

-0.000000 -0.000000 0.000000 
0.000000 -0.000000 0.000000 
0.000000 0.000000 0.000000 

0.000000 -0.000000 0.000000 
0.000000 0.000000 0.000000 
0.000000 0.000000 0.000000 

0.000000 -0.000000 0.000000 
0.000000 0.000000 0.000000 
0.000000 0.000000 0.000000 

0.000000 -0.000000 0.000000 
0.000000 0.000000 0.000000 
0.000000 0.000000 0.000000 

-0.000000 -0.000000 0.000000 
0.000000 -0.000000 0.000000 
0.000000 0.000000 0.000000 

-0.000000 -0.000000 0.000000 
0.000000 -0.000000 0.000000 
0.000000 0.000000 0.000000 

-0.000000 0.000000 0.000000 
0.000000 -0.000000 0.000000 
0.000000 0.000000 0.000000 

0.000000 0.000000 0.000000 
0.000000 0.000000 0.000000 
0.000000 0.000000 0.000000 

0.000000 0.000000 0.000000 
0.000000 0.000000 0.000000 
0.000000 0.000000 0.000000 

0.000000 0.000000 0.000000 
0.000000 0.000000 0.000000 
0.000000 0.000000 0.000000 

0.000000 0.000000 0.000000 
0.000000 0.000000 0.000000 
0.000000 0.000000 0.000000 

-0.000000 -0.000000 0.000000 
0.000000 0.000000 0.000000 
0.000000 0.000000 0.000000 

0.000000 -0.000000 0.000000 
0.000000 0.000000 0.000000 
0.000000 0.000000 0.000000 

-0.000000 -0.000000 0.000000 
0.000000 -0.000000 0.000000 
0.000000 0.000000 0.000000 

0.000000 -0.000000 0.000000 
0.000000 0.000000 0.000000 
0.000000 0.000000 0.000000 

0.000000 -0.000000 0.000000 
0.000000 0.000000 0.000000 
0.000000 0.000000 0.000000 

0.000000 -0.000000 0.000000 
0.000000 0.000000 0.000000 
0.000000 0.000000 0.000000 

0.000000 -0.000000 0.000000 
0.000000 0.000000 0.000000 
0.000000 0.000000 0.000000 

0.000000 -0.000000 0.000000 
0.000000 0.000000 0.000000 
0.000000 0.000000 0.000000 

0.000000 -0.000000 0.000000 
0.000000 0.000000 0.000000 
0.000000 0.000000 0.000000 

0.000000 -0.000000 0.000000 
0.000000 0.000000 0.000000 
0.000000 0.000000 0.000000 

0.000000 -0.000000 0.000000 
0.000000 0.000000 0.000000 
0.000000 0.000000 0.000000 

-0.000000 -0.000000 0.000000 
0.000000 0.000000 0.000000 
0.000000 0.000000 0.000000 

-0.000000 -0.000000 0.000000 
0.000000 -0.000000 0.000000 
0.000000 0.000000 0.000000 

-0.000000 -0.000000 0.000000 
0.000000 -0.000000 0.000000 
0.000000 0.000000 0.000000 

-0.000000 -0.000000 0.000000 
0.000000 -0.000000 0.000000 
0.000000 0.000000 0.000000 

-0.000000 0.000000 0.000000 
0.000000 -0.000000 0.000000 
0.000000 0.000000 0.000000 

-0.000000 0.000000 0.000000 
0.000000 -0.000000 0.000000 
0.000000 0.000000 0.000000 

-0.000000 -0.000000 0.000000 
0.000000 -0.000000 0.000000 
0.000000 0.000000 0.000000 

-0.000000 0.000000 0.000000 
0.000000 -0.000000 0.000000 
0.000000 0.000000 0.000000 

-0.000000 0.000000 0.000000 
0.000000 -0.000000 0.000000 
0.000000 0.000000 0.000000 

0.000000 0.000000 0.000000 
0.000000 0.000000 0.000000 
0.000000 0.000000 0.000000 

0.000000 0.000000 0.000000 
0.000000 0.000000 0.000000 
0.000000 0.000000 0.000000 

-0.000000 -0.000000 0.000000 
0.000000 -0.000000 0.000000 
0.000000 0.000000 0.000000 

-0.000000 -0.000000 0.000000 
0.000000 -0.000000 0.000000 
0.000000 0.000000 0.000000 

0.000000 0.000000 0.000000 
0.000000 0.000000 0.000000 
0.000000 0.000000 0.000000 

-0.000000 -0.000000 0.000000 
0.000000 -0.000000 0.000000 
0.000000 0.000000 0.000000 

0.000000 0.000000 0.000000 
0.000000 0.000000 0.000000 
0.000000 0.000000 0.000000 

-0.000000 0.000000 0.000000 
0.000000 0.000000 0.000000 
0.000000 0.000000 0.000000 

0.000000 0.000000 0.000000 
0.000000 0.000000 0.000000 
0.000000 0.000000 0.000000 

0.000000 -0.000000 0.000000 
0.000000 0.000000 0.000000 
0.000000 0.000000 0.000000 

0.000000 0.000000 0.000000 
0.000000 0.000000 0.000000 
0.000000 0.000000 0.000000 

-0.000000 -0.000000 0.000000 
0.000000 -0.000000 0.000000 
0.000000 0.000000 0.000000 

0.000000 -0.000000 0.000000 
0.000000 0.000000 0.000000 
0.000000 0.000000 0.000000 

-0.000000 -0.000000 0.000000 
0.000000 -0.000000 0.000000 
0.000000 0.000000 0.000000 

-0.000000 -0.000000 0.000000 
0.000000 -0.000000 0.000000 
0.000000 0.000000 0.000000 

-0.000000 0.000000 0.000000 
0.000000 -0.000000 0.000000 
0.000000 0.000000 0.000000 

-0.000000 -0.000000 0.000000 
0.000000 -0.000000 0.000000 
0.000000 0.000000 0.000000 

-0.000000 -0.000000 0.000000 
0.000000 -0.000000 0.000000 
0.000000 0.000000 0.000000 

-0.000000 -0.000000 0.000000 
0.000000 -0.000000 0.000000 
0.000000 0.000000 0.000000 

0.000000 -0.000000 0.000000 
0.000000 0.000000 0.000000 
0.000000 0.000000 0.000000 

0.000000 0.000000 0.000000 
0.000000 0.000000 0.000000 
0.000000 0.000000 0.000000 

-0.000000 0.000000 0.000000 
0.000000 -0.000000 0.000000 
0.000000 0.000000 0.000000 

0.000000 -0.000000 0.000000 
0.000000 0.000000 0.000000 
0.000000 0.000000 0.000000 

-0.000000 0.000000 0.000000 
0.000000 0.000000 0.000000 
0.000000 0.000000 0.000000 

-0.000000 -0.000000 0.000000 
0.000000 -0.000000 0.000000 
0.000000 0.000000 0.000000 

0.000000 0.000000 0.000000 
0.000000 0.000000 0.000000 
0.000000 0.000000 0.000000 

-0.000000 0.000000 0.000000 
0.000000 -0.000000 0.000000 
0.000000 0.000000 0.000000 

0.000000 -0.000000 0.000000 
0.000000 -0.000000 0.000000 
0.000000 0.000000 0.000000 

0.000000 -0.000000 0.000000 
0.000000 0.000000 0.000000 
0.000000 0.000000 0.000000 

0.000000 -0.000000 0.000000 
0.000000 0.000000 0.000000 
0.000000 0.000000 0.000000 

0.000000 -0.000000 0.000000 
0.000000 0.000000 0.000000 
0.000000 0.000000 0.000000 

0.000000 -0.000000 0.000000 
0.000000 0.000000 0.000000 
0.000000 0.000000 0.000000 

0.000000 -0.000000 0.000000 
0.000000 0.000000 0.000000 
0.000000 0.000000 0.000000 

0.000000 -0.000000 0.000000 
0.000000 0.000000 0.000000 
0.000000 0.000000 0.000000 

0.000000 0.000000 0.000000 
0.000000 0.000000 0.000000 
0.000000 0.000000 0.000000 

0.000000 -0.000000 0.000000 
0.000000 0.000000 0.000000 
0.000000 0.000000 0.000000 

0.000000 0.000000 0.000000 
0.000000 0.000000 0.000000 
0.000000 0.000000 0.000000 

-0.000000 0.000000 0.000000 
0.000000 -0.000000 0.000000 
0.000000 0.000000 0.000000 

-0.000000 0.000000 0.000000 
0.000000 -0.000000 0.000000 
0.000000 0.000000 0.000000 

-0.000000 -0.000000 0.000000 
0.000000 -0.000000 0.000000 
0.000000 0.000000 0.000000 

-0.000000 0.000000 0.000000 
0.000000 -0.000000 0.000000 
0.000000 0.000000 0.000000 

-0.000000 -0.000000 0.000000 
0.000000 -0.000000 0.000000 
0.000000 0.000000 0.000000 

-0.000000 0.000000 0.000000 
0.000000 -0.000000 0.000000 
0.000000 0.000000 0.000000 

-0.000000 -0.000000 0.000000 
0.000000 -0.000000 0.000000 
0.000000 0.000000 0.000000 

0.000000 -0.000000 0.000000 
0.000000 0.000000 0.000000 
0.000000 0.000000 0.000000 

-0.000000 -0.000000 0.000000 
0.000000 -0.000000 0.000000 
0.000000 0.000000 0.000000 

-0.000000 -0.000000 0.000000 
0.000000 -0.000000 0.000000 
0.000000 0.000000 0.000000 

-0.000000 -0.000000 0.000000 
0.000000 -0.000000 0.000000 
0.000000 0.000000 0.000000 

-0.000000 -0.000000 0.000000 
0.000000 -0.000000 0.000000 
0.000000 0.000000 0.000000 

-0.000000 -0.000000 0.000000 
0.000000 -0.000000 0.000000 
0.000000 0.000000 0.000000 

-0.000000 -0.000000 0.000000 
0.000000 -0.000000 0.000000 
0.000000 0.000000 0.000000 

0.000000 0.000000 0.000000 
0.000000 -0.000000 0.000000 
0.000000 0.000000 0.000000 

0.000000 0.000000 0.000000 
0.000000 0.000000 0.000000 
0.000000 0.000000 0.000000 

0.000000 0.000000 0.000000 
0.000000 0.000000 0.000000 
0.000000 0.000000 0.000000 

-0.000000 0.000000 0.000000 
0.000000 -0.000000 0.000000 
0.000000 0.000000 0.000000 

-0.000000 -0.000000 0.000000 
0.000000 -0.000000 0.000000 
0.000000 0.000000 0.000000 

0.000000 -0.000000 0.000000 
0.000000 0.000000 0.000000 
0.000000 0.000000 0.000000 

0.000000 -0.000000 0.000000 
0.000000 0.000000 0.000000 
0.000000 0.000000 0.000000 

0.000000 0.000000 0.000000 
0.000000 0.000000 0.000000 
0.000000 0.000000 0.000000 

0.000000 0.000000 0.000000 
0.000000 0.000000 0.000000 
0.000000 0.000000 0.000000 

0.000000 0.000000 0.000000 
0.000000 0.000000 0.000000 
0.000000 0.000000 0.000000 

0.000000 0.000000 0.000000 
0.000000 0.000000 0.000000 
0.000000 0.000000 0.000000 

0.000000 0.000000 0.000000 
0.000000 0.000000 0.000000 
0.000000 0.000000 0.000000 

-0.000000 0.000000 0.000000 
0.000000 -0.000000 0.000000 
0.000000 0.000000 0.000000 

-0.000000 0.000000 0.000000 
0.000000 -0.000000 0.000000 
0.000000 0.000000 0.000000 

-0.000000 0.000000 0.000000 
0.000000 -0.000000 0.000000 
0.000000 0.000000 0.000000 

-0.000000 0.000000 0.000000 
0.000000 -0.000000 0.000000 
0.000000 0.000000 0.000000 

0.000000 -0.000000 0.000000 
0.000000 0.000000 0.000000 
0.000000 0.000000 0.000000 

0.000000 -0.000000 0.000000 
0.000000 0.000000 0.000000 
0.000000 0.000000 0.000000 

-0.000000 0.000000 0.000000 
0.000000 -0.000000 0.000000 
0.000000 0.000000 0.000000 

-0.000000 0.000000 0.000000 
0.000000 -0.000000 0.000000 
0.000000 0.000000 0.000000 

-0.000000 0.000000 0.000000 
0.000000 -0.000000 0.000000 
0.000000 0.000000 0.000000 

-0.000000 0.000000 0.000000 
0.000000 -0.000000 0.000000 
0.000000 0.000000 0.000000 

-0.000000 0.000000 0.000000 
0.000000 -0.000000 0.000000 
0.000000 0.000000 0.000000 

0.000000 0.000000 0.000000 
0.000000 0.000000 0.000000 
0.000000 0.000000 0.000000 

0.000000 -0.000000 0.000000 
0.000000 0.000000 0.000000 
0.000000 0.000000 0.000000 

-0.000000 -0.000000 0.000000 
0.000000 -0.000000 0.000000 
0.000000 0.000000 0.000000 

0.000000 0.000000 0.000000 
0.000000 0.000000 0.000000 
0.000000 0.000000 0.000000 

-0.000000 0.000000 0.000000 
0.000000 -0.000000 0.000000 
0.000000 0.000000 0.000000 

0.000000 -0.000000 0.000000 
0.000000 0.000000 0.000000 
0.000000 0.000000 0.000000 

-0.000000 -0.000000 0.000000 
0.000000 -0.000000 0.000000 
0.000000 0.000000 0.000000 

0.000000 0.000000 0.000000 
0.000000 0.000000 0.000000 
0.000000 0.000000 0.000000 

0.000000 0.000000 0.000000 
0.000000 0.000000 0.000000 
0.000000 0.000000 0.000000 

-0.000000 -0.000000 0.000000 
0.000000 -0.000000 0.000000 
0.000000 0.000000 0.000000 

-0.000000 -0.000000 0.000000 
0.000000 -0.000000 0.000000 
0.000000 0.000000 0.000000 

0.000000 0.000000 0.000000 
0.000000 0.000000 0.000000 
0.000000 0.000000 0.000000 

0.000000 0.000000 0.000000 
0.000000 0.000000 0.000000 
0.000000 0.000000 0.000000 

0.000000 0.000000 0.000000 
0.000000 0.000000 0.000000 
0.000000 0.000000 0.000000 

-0.000000 0.000000 0.000000 
0.000000 -0.000000 0.000000 
0.000000 0.000000 0.000000 

0.000000 -0.000000 0.000000 
0.000000 0.000000 0.000000 
0.000000 0.000000 0.000000 

0.000000 -0.000000 0.000000 
0.000000 0.000000 0.000000 
0.000000 0.000000 0.000000 

0.000000 0.000000 0.000000 
0.000000 0.000000 0.000000 
0.000000 0.000000 0.000000 

0.000000 -0.000000 0.000000 
0.000000 0.000000 0.000000 
0.000000 0.000000 0.000000 

0.000000 0.000000 0.000000 
0.000000 0.000000 0.000000 
0.000000 0.000000 0.000000 

0.000000 0.000000 0.000000 
0.000000 0.000000 0.000000 
0.000000 0.000000 0.000000 

0.000000 0.000000 0.000000 
0.000000 0.000000 0.000000 
0.000000 0.000000 0.000000 

-0.000000 0.000000 0.000000 
0.000000 -0.000000 0.000000 
0.000000 0.000000 0.000000 

-0.000000 -0.000000 0.000000 
0.000000 -0.000000 0.000000 
0.000000 0.000000 0.000000 

-0.000000 -0.000000 0.000000 
0.000000 -0.000000 0.000000 
0.000000 0.000000 0.000000 

0.000000 0.000000 0.000000 
0.000000 0.000000 0.000000 
0.000000 0.000000 0.000000 

0.000000 0.000000 0.000000 
0.000000 0.000000 0.000000 
0.000000 0.000000 0.000000 

0.000000 0.000000 0.000000 
0.000000 0.000000 0.000000 
0.000000 0.000000 0.000000 

0.000000 0.000000 0.000000 
0.000000 0.000000 0.000000 
0.000000 0.000000 0.000000 

0.000000 0.000000 0.000000 
0.000000 0.000000 0.000000 
0.000000 0.000000 0.000000 

0.000000 0.000000 0.000000 
0.000000 0.000000 0.000000 
0.000000 0.000000 0.000000 

0.000000 0.000000 0.000000 
0.000000 0.000000 0.000000 
0.000000 0.000000 0.000000 

0.000000 0.000000 0.000000 
0.000000 0.000000 0.000000 
0.000000 0.000000 0.000000 

0.000000 0.000000 0.000000 
0.000000 0.000000 0.000000 
0.000000 0.000000 0.000000 

-0.000000 0.000000 0.000000 
0.000000 -0.000000 0.000000 
0.000000 0.000000 0.000000 

0.000000 0.000000 0.000000 
0.000000 0.000000 0.000000 
0.000000 0.000000 0.000000 

0.000000 0.000000 0.000000 
0.000000 -0.000000 0.000000 
0.000000 0.000000 0.000000 

-0.000000 -0.000000 0.000000 
0.000000 -0.000000 0.000000 
0.000000 0.000000 0.000000 

-0.000000 -0.000000 0.000000 
0.000000 -0.000000 0.000000 
0.000000 0.000000 0.000000 

-0.000000 -0.000000 0.000000 
0.000000 -0.000000 0.000000 
0.000000 0.000000 0.000000 

-0.000000 -0.000000 0.000000 
0.000000 -0.000000 0.000000 
0.000000 0.000000 0.000000 

-0.000000 0.000000 0.000000 
0.000000 -0.000000 0.000000 
0.000000 0.000000 0.000000 

-0.000000 0.000000 0.000000 
0.000000 -0.000000 0.000000 
0.000000 0.000000 0.000000 

0.000000 0.000000 0.000000 
0.000000 0.000000 0.000000 
0.000000 0.000000 0.000000 

0.000000 0.000000 0.000000 
0.000000 0.000000 0.000000 
0.000000 0.000000 0.000000 

0.000000 0.000000 0.000000 
0.000000 0.000000 0.000000 
0.000000 0.000000 0.000000 

0.000000 0.000000 0.000000 
0.000000 0.000000 0.000000 
0.000000 0.000000 0.000000 

-0.000000 0.000000 0.000000 
0.000000 0.000000 0.000000 
0.000000 0.000000 0.000000 

-0.000000 -0.000000 0.000000 
0.000000 -0.000000 0.000000 
0.000000 0.000000 0.000000 

-0.000000 -0.000000 0.000000 
0.000000 -0.000000 0.000000 
0.000000 0.000000 0.000000 

-0.000000 0.000000 0.000000 
0.000000 -0.000000 0.000000 
0.000000 0.000000 0.000000 

-0.000000 0.000000 0.000000 
0.000000 -0.000000 0.000000 
0.000000 0.000000 0.000000 

-0.000000 0.000000 0.000000 
0.000000 -0.000000 0.000000 
0.000000 0.000000 0.000000 

0.000000 -0.000000 0.000000 
0.000000 0.000000 0.000000 
0.000000 0.000000 0.000000 

0.000000 -0.000000 0.000000 
0.000000 0.000000 0.000000 
0.000000 0.000000 0.000000 

0.000000 0.000000 0.000000 
0.000000 -0.000000 0.000000 
0.000000 0.000000 0.000000 

-0.000000 0.000000 0.000000 
0.000000 0.000000 0.000000 
0.000000 0.000000 0.000000 

0.000000 0.000000 0.000000 
0.000000 0.000000 0.000000 
0.000000 0.000000 0.000000 

0.000000 0.000000 0.000000 
0.000000 0.000000 0.000000 
0.000000 0.000000 0.000000 

-0.000000 -0.000000 0.000000 
0.000000 -0.000000 0.000000 
0.000000 0.000000 0.000000 

-0.000000 -0.000000 0.000000 
0.000000 -0.000000 0.000000 
0.000000 0.000000 0.000000 

-0.000000 -0.000000 0.000000 
0.000000 -0.000000 0.000000 
0.000000 0.000000 0.000000 

-0.000000 0.000000 0.000000 
0.000000 -0.000000 0.000000 
0.000000 0.000000 0.000000 

0.000000 -0.000000 0.000000 
0.000000 0.000000 0.000000 
0.000000 0.000000 0.000000 

0.000000 -0.000000 0.000000 
0.000000 0.000000 0.000000 
0.000000 0.000000 0.000000 

0.000000 0.000000 0.000000 
0.000000 0.000000 0.000000 
0.000000 0.000000 0.000000 

0.000000 0.000000 0.000000 
0.000000 0.000000 0.000000 
0.000000 0.000000 0.000000 

0.000000 0.000000 0.000000 
0.000000 0.000000 0.000000 
0.000000 0.000000 0.000000 

0.000000 0.000000 0.000000 
0.000000 0.000000 0.000000 
0.000000 0.000000 0.000000 

0.000000 0.000000 0.000000 
0.000000 0.000000 0.000000 
0.000000 0.000000 0.000000 

0.000000 -0.000000 0.000000 
0.000000 0.000000 0.000000 
0.000000 0.000000 0.000000 

-0.000000 -0.000000 0.000000 
0.000000 -0.000000 0.000000 
0.000000 0.000000 0.000000 

0.000000 -0.000000 0.000000 
0.000000 0.000000 0.000000 
0.000000 0.000000 0.000000 

-0.000000 -0.000000 0.000000 
0.000000 -0.000000 0.000000 
0.000000 0.000000 0.000000 

-0.000000 0.000000 0.000000 
0.000000 -0.000000 0.000000 
0.000000 0.000000 0.000000 

0.000000 -0.000000 0.000000 
0.000000 0.000000 0.000000 
0.000000 0.000000 0.000000 

-0.000000 -0.000000 0.000000 
0.000000 -0.000000 0.000000 
0.000000 0.000000 0.000000 

0.000000 0.000000 0.000000 
0.000000 0.000000 0.000000 
0.000000 0.000000 0.000000 

0.000000 0.000000 0.000000 
0.000000 0.000000 0.000000 
0.000000 0.000000 0.000000 

-0.000000 0.000000 0.000000 
0.000000 -0.000000 0.000000 
0.000000 0.000000 0.000000 

-0.000000 0.000000 0.000000 
0.000000 -0.000000 0.000000 
0.000000 0.000000 0.000000 

-0.000000 0.000000 0.000000 
0.000000 -0.000000 0.000000 
0.000000 0.000000 0.000000 

-0.000000 0.000000 0.000000 
0.000000 -0.000000 0.000000 
0.000000 0.000000 0.000000 

0.000000 -0.000000 0.000000 
0.000000 0.000000 0.000000 
0.000000 0.000000 0.000000 

-0.000000 -0.000000 0.000000 
0.000000 -0.000000 0.000000 
0.000000 0.000000 0.000000 

-0.000000 -0.000000 0.000000 
0.000000 -0.000000 0.000000 
0.000000 0.000000 0.000000 

0.000000 0.000000 0.000000 
0.000000 0.000000 0.000000 
0.000000 0.000000 0.000000 

0.000000 -0.000000 0.000000 
0.000000 0.000000 0.000000 
0.000000 0.000000 0.000000 

0.000000 -0.000000 0.000000 
0.000000 0.000000 0.000000 
0.000000 0.000000 0.000000 

0.000000 0.000000 0.000000 
0.000000 0.000000 0.000000 
0.000000 0.000000 0.000000 

0.000000 0.000000 0.000000 
0.000000 0.000000 0.000000 
0.000000 0.000000 0.000000 

0.000000 0.000000 0.000000 
0.000000 0.000000 0.000000 
0.000000 0.000000 0.000000 

-0.000000 0.000000 0.000000 
0.000000 -0.000000 0.000000 
0.000000 0.000000 0.000000 

-0.000000 0.000000 0.000000 
0.000000 -0.000000 0.000000 
0.000000 0.000000 0.000000 

-0.000000 -0.000000 0.000000 
0.000000 -0.000000 0.000000 
0.000000 0.000000 0.000000 

-0.000000 -0.000000 0.000000 
0.000000 -0.000000 0.000000 
0.000000 0.000000 0.000000 

0.000000 0.000000 0.000000 
0.000000 0.000000 0.000000 
0.000000 0.000000 0.000000 

0.000000 -0.000000 0.000000 
0.000000 0.000000 0.000000 
0.000000 0.000000 0.000000 

0.000000 0.000000 0.000000 
0.000000 0.000000 0.000000 
0.000000 0.000000 0.000000 

-0.000000 0.000000 0.000000 
0.000000 -0.000000 0.000000 
0.000000 0.000000 0.000000 

0.000000 0.000000 0.000000 
0.000000 0.000000 0.000000 
0.000000 0.000000 0.000000 

0.000000 0.000000 0.000000 
0.000000 0.000000 0.000000 
0.000000 0.000000 0.000000 

-0.000000 0.000000 0.000000 
0.000000 -0.000000 0.000000 
0.000000 0.000000 0.000000 

-0.000000 0.000000 0.000000 
0.000000 -0.000000 0.000000 
0.000000 0.000000 0.000000 

-0.000000 0.000000 0.000000 
0.000000 -0.000000 0.000000 
0.000000 0.000000 0.000000 

0.000000 0.000000 0.000000 
0.000000 0.000000 0.000000 
0.000000 0.000000 0.000000 

0.000000 0.000000 0.000000 
0.000000 0.000000 0.000000 
0.000000 0.000000 0.000000 

-0.000000 -0.000000 0.000000 
0.000000 -0.000000 0.000000 
0.000000 0.000000 0.000000 

0.000000 0.000000 0.000000 
0.000000 0.000000 0.000000 
0.000000 0.000000 0.000000 

0.000000 0.000000 0.000000 
0.000000 0.000000 0.000000 
0.000000 0.000000 0.000000 

-0.000000 -0.000000 0.000000 
0.000000 -0.000000 0.000000 
0.000000 0.000000 0.000000 

0.000000 -0.000000 0.000000 
0.000000 0.000000 0.000000 
0.000000 0.000000 0.000000 

0.000000 -0.000000 0.000000 
0.000000 0.000000 0.000000 
0.000000 0.000000 0.000000 

-0.000000 -0.000000 0.000000 
0.000000 -0.000000 0.000000 
0.000000 0.000000 0.000000 

-0.000000 -0.000000 0.000000 
0.000000 -0.000000 0.000000 
0.000000 0.000000 0.000000 

-0.000000 -0.000000 0.000000 
0.000000 -0.000000 0.000000 
0.000000 0.000000 0.000000 

-0.000000 -0.000000 0.000000 
0.000000 -0.000000 0.000000 
0.000000 0.000000 0.000000 

-0.000000 -0.000000 0.000000 
0.000000 -0.000000 0.000000 
0.000000 0.000000 0.000000 

-0.000000 -0.000000 0.000000 
0.000000 -0.000000 0.000000 
0.000000 0.000000 0.000000 

-0.000000 -0.000000 0.000000 
0.000000 -0.000000 0.000000 
0.000000 0.000000 0.000000 

-0.000000 -0.000000 0.000000 
0.000000 -0.000000 0.000000 
0.000000 0.000000 0.000000 

0.000000 0.000000 0.000000 
0.000000 0.000000 0.000000 
0.000000 0.000000 0.000000 

-0.000000 0.000000 0.000000 
0.000000 -0.000000 0.000000 
0.000000 0.000000 0.000000 

-0.000000 -0.000000 0.000000 
0.000000 -0.000000 0.000000 
0.000000 0.000000 0.000000 

0.000000 -0.000000 0.000000 
0.000000 0.000000 0.000000 
0.000000 0.000000 0.000000 

-0.000000 -0.000000 0.000000 
0.000000 -0.000000 0.000000 
0.000000 0.000000 0.000000 

0.000000 -0.000000 0.000000 
0.000000 0.000000 0.000000 
0.000000 0.000000 0.000000 

0.000000 0.000000 0.000000 
0.000000 0.000000 0.000000 
0.000000 0.000000 0.000000 

0.000000 0.000000 0.000000 
0.000000 0.000000 0.000000 
0.000000 0.000000 0.000000 

0.000000 0.000000 0.000000 
0.000000 0.000000 0.000000 
0.000000 0.000000 0.000000 

-0.000000 -0.000000 0.000000 
0.000000 -0.000000 0.000000 
0.000000 0.000000 0.000000 

-0.000000 -0.000000 0.000000 
0.000000 -0.000000 0.000000 
0.000000 0.000000 0.000000 

-0.000000 -0.000000 0.000000 
0.000000 -0.000000 0.000000 
0.000000 0.000000 0.000000 

0.000000 0.000000 0.000000 
0.000000 0.000000 0.000000 
0.000000 0.000000 0.000000 

-0.000000 -0.000000 0.000000 
0.000000 -0.000000 0.000000 
0.000000 0.000000 0.000000 

-0.000000 -0.000000 0.000000 
0.000000 -0.000000 0.000000 
0.000000 0.000000 0.000000 

-0.000000 -0.000000 0.000000 
0.000000 -0.000000 0.000000 
0.000000 0.000000 0.000000 

-0.000000 0.000000 0.000000 
0.000000 -0.000000 0.000000 
0.000000 0.000000 0.000000 

-0.000000 -0.000000 0.000000 
0.000000 -0.000000 0.000000 
0.000000 0.000000 0.000000 

-0.000000 0.000000 0.000000 
0.000000 -0.000000 0.000000 
0.000000 0.000000 0.000000 

-0.000000 0.000000 0.000000 
0.000000 -0.000000 0.000000 
0.000000 0.000000 0.000000 

-0.000000 0.000000 0.000000 
0.000000 -0.000000 0.000000 
0.000000 0.000000 0.000000 

-0.000000 0.000000 0.000000 
0.000000 -0.000000 0.000000 
0.000000 0.000000 0.000000 

-0.000000 0.000000 0.000000 
0.000000 -0.000000 0.000000 
0.000000 0.000000 0.000000 

-0.000000 0.000000 0.000000 
0.000000 -0.000000 0.000000 
0.000000 0.000000 0.000000 

0.000000 -0.000000 0.000000 
0.000000 0.000000 0.000000 
0.000000 0.000000 0.000000 

0.000000 -0.000000 0.000000 
0.000000 -0.000000 0.000000 
0.000000 0.000000 0.000000 

0.000000 0.000000 0.000000 
0.000000 0.000000 0.000000 
0.000000 0.000000 0.000000 

0.000000 -0.000000 0.000000 
0.000000 0.000000 0.000000 
0.000000 0.000000 0.000000 

0.000000 0.000000 0.000000 
0.000000 0.000000 0.000000 
0.000000 0.000000 0.000000 

0.000000 -0.000000 0.000000 
0.000000 0.000000 0.000000 
0.000000 0.000000 0.000000 

-0.000000 -0.000000 0.000000 
0.000000 -0.000000 0.000000 
0.000000 0.000000 0.000000 

-0.000000 -0.000000 0.000000 
0.000000 -0.000000 0.000000 
0.000000 0.000000 0.000000 

-0.000000 -0.000000 0.000000 
0.000000 -0.000000 0.000000 
0.000000 0.000000 0.000000 

-0.000000 -0.000000 0.000000 
0.000000 -0.000000 0.000000 
0.000000 0.000000 0.000000 

-0.000000 -0.000000 0.000000 
0.000000 -0.000000 0.000000 
0.000000 0.000000 0.000000 

-0.000000 -0.000000 0.000000 
0.000000 -0.000000 0.000000 
0.000000 0.000000 0.000000 

0.000000 0.000000 0.000000 
0.000000 0.000000 0.000000 
0.000000 0.000000 0.000000 

-0.000000 -0.000000 0.000000 
0.000000 -0.000000 0.000000 
0.000000 0.000000 0.000000 

0.000000 -0.000000 0.000000 
0.000000 0.000000 0.000000 
0.000000 0.000000 0.000000 

-0.000000 -0.000000 0.000000 
0.000000 -0.000000 0.000000 
0.000000 0.000000 0.000000 

-0.000000 -0.000000 0.000000 
0.000000 -0.000000 0.000000 
0.000000 0.000000 0.000000 

-0.000000 -0.000000 0.000000 
0.000000 -0.000000 0.000000 
0.000000 0.000000 0.000000 

-0.000000 -0.000000 0.000000 
0.000000 -0.000000 0.000000 
0.000000 0.000000 0.000000 

-0.000000 0.000000 0.000000 
0.000000 -0.000000 0.000000 
0.000000 0.000000 0.000000 

-0.000000 -0.000000 0.000000 
0.000000 -0.000000 0.000000 
0.000000 0.000000 0.000000 

0.000000 0.000000 0.000000 
0.000000 0.000000 0.000000 
0.000000 0.000000 0.000000 

0.000000 0.000000 0.000000 
0.000000 0.000000 0.000000 
0.000000 0.000000 0.000000 

-0.000000 -0.000000 0.000000 
0.000000 -0.000000 0.000000 
0.000000 0.000000 0.000000 

0.000000 -0.000000 0.000000 
0.000000 0.000000 0.000000 
0.000000 0.000000 0.000000 

-0.000000 -0.000000 0.000000 
0.000000 -0.000000 0.000000 
0.000000 0.000000 0.000000 

-0.000000 -0.000000 0.000000 
0.000000 -0.000000 0.000000 
0.000000 0.000000 0.000000 

-0.000000 -0.000000 0.000000 
0.000000 -0.000000 0.000000 
0.000000 0.000000 0.000000 

0.000000 -0.000000 0.000000 
0.000000 0.000000 0.000000 
0.000000 0.000000 0.000000 

0.000000 -0.000000 0.000000 
0.000000 0.000000 0.000000 
0.000000 0.000000 0.000000 

-0.000000 0.000000 0.000000 
0.000000 0.000000 0.000000 
0.000000 0.000000 0.000000 

-0.000000 0.000000 0.000000 
0.000000 -0.000000 0.000000 
0.000000 0.000000 0.000000 

-0.000000 -0.000000 0.000000 
0.000000 -0.000000 0.000000 
0.000000 0.000000 0.000000 

-0.000000 -0.000000 0.000000 
0.000000 -0.000000 0.000000 
0.000000 0.000000 0.000000 

-0.000000 -0.000000 0.000000 
0.000000 -0.000000 0.000000 
0.000000 0.000000 0.000000 

-0.000000 -0.000000 0.000000 
0.000000 -0.000000 0.000000 
0.000000 0.000000 0.000000 

-0.000000 0.000000 0.000000 
0.000000 -0.000000 0.000000 
0.000000 0.000000 0.000000 

-0.000000 0.000000 0.000000 
0.000000 -0.000000 0.000000 
0.000000 0.000000 0.000000 

-0.000000 0.000000 0.000000 
0.000000 -0.000000 0.000000 
0.000000 0.000000 0.000000 

-0.000000 -0.000000 0.000000 
0.000000 -0.000000 0.000000 
0.000000 0.000000 0.000000 

0.000000 0.000000 0.000000 
0.000000 0.000000 0.000000 
0.000000 0.000000 0.000000 

0.000000 0.000000 0.000000 
0.000000 0.000000 0.000000 
0.000000 0.000000 0.000000 

0.000000 0.000000 0.000000 
0.000000 0.000000 0.000000 
0.000000 0.000000 0.000000 

0.000000 0.000000 0.000000 
0.000000 0.000000 0.000000 
0.000000 0.000000 0.000000 

-0.000000 -0.000000 0.000000 
0.000000 -0.000000 0.000000 
0.000000 0.000000 0.000000 

-0.000000 -0.000000 0.000000 
0.000000 -0.000000 0.000000 
0.000000 0.000000 0.000000 

-0.000000 -0.000000 0.000000 
0.000000 -0.000000 0.000000 
0.000000 0.000000 0.000000 

-0.000000 -0.000000 0.000000 
0.000000 -0.000000 0.000000 
0.000000 0.000000 0.000000 

0.000000 -0.000000 0.000000 
0.000000 0.000000 0.000000 
0.000000 0.000000 0.000000 

0.000000 -0.000000 0.000000 
0.000000 0.000000 0.000000 
0.000000 0.000000 0.000000 

0.000000 -0.000000 0.000000 
0.000000 0.000000 0.000000 
0.000000 0.000000 0.000000 

-0.000000 -0.000000 0.000000 
0.000000 -0.000000 0.000000 
0.000000 0.000000 0.000000 

0.000000 -0.000000 0.000000 
0.000000 0.000000 0.000000 
0.000000 0.000000 0.000000 

0.000000 -0.000000 0.000000 
0.000000 0.000000 0.000000 
0.000000 0.000000 0.000000 

0.000000 -0.000000 0.000000 
0.000000 0.000000 0.000000 
0.000000 0.000000 0.000000 

0.000000 -0.000000 0.000000 
0.000000 0.000000 0.000000 
0.000000 0.000000 0.000000 

-0.000000 -0.000000 0.000000 
0.000000 0.000000 0.000000 
0.000000 0.000000 0.000000 

-0.000000 -0.000000 0.000000 
0.000000 -0.000000 0.000000 
0.000000 0.000000 0.000000 

-0.000000 0.000000 0.000000 
0.000000 -0.000000 0.000000 
0.000000 0.000000 0.000000 

-0.000000 0.000000 0.000000 
0.000000 -0.000000 0.000000 
0.000000 0.000000 0.000000 

0.000000 0.000000 0.000000 
0.000000 0.000000 0.000000 
0.000000 0.000000 0.000000 

-0.000000 0.000000 0.000000 
0.000000 -0.000000 0.000000 
0.000000 0.000000 0.000000 

0.000000 0.000000 0.000000 
0.000000 0.000000 0.000000 
0.000000 0.000000 0.000000 

0.000000 0.000000 0.000000 
0.000000 0.000000 0.000000 
0.000000 0.000000 0.000000 

-0.000000 0.000000 0.000000 
0.000000 -0.000000 0.000000 
0.000000 0.000000 0.000000 

0.000000 0.000000 0.000000 
0.000000 0.000000 0.000000 
0.000000 0.000000 0.000000 

0.000000 0.000000 0.000000 
0.000000 0.000000 0.000000 
0.000000 0.000000 0.000000 

0.000000 0.000000 0.000000 
0.000000 0.000000 0.000000 
0.000000 0.000000 0.000000 

0.000000 0.000000 0.000000 
0.000000 0.000000 0.000000 
0.000000 0.000000 0.000000 

0.000000 0.000000 0.000000 
0.000000 0.000000 0.000000 
0.000000 0.000000 0.000000 

0.000000 0.000000 0.000000 
0.000000 0.000000 0.000000 
0.000000 0.000000 0.000000 

0.000000 0.000000 0.000000 
0.000000 0.000000 0.000000 
0.000000 0.000000 0.000000 

0.000000 0.000000 0.000000 
0.000000 0.000000 0.000000 
0.000000 0.000000 0.000000 

0.000000 0.000000 0.000000 
0.000000 0.000000 0.000000 
0.000000 0.000000 0.000000 

0.000000 0.000000 0.000000 
0.000000 0.000000 0.000000 
0.000000 0.000000 0.000000 

-0.000000 -0.000000 0.000000 
0.000000 -0.000000 0.000000 
0.000000 0.000000 0.000000 

-0.000000 -0.000000 0.000000 
0.000000 -0.000000 0.000000 
0.000000 0.000000 0.000000 

-0.000000 -0.000000 0.000000 
0.000000 -0.000000 0.000000 
0.000000 0.000000 0.000000 

-0.000000 -0.000000 0.000000 
0.000000 -0.000000 0.000000 
0.000000 0.000000 0.000000 

-0.000000 -0.000000 0.000000 
0.000000 -0.000000 0.000000 
0.000000 0.000000 0.000000 

-0.000000 -0.000000 0.000000 
0.000000 -0.000000 0.000000 
0.000000 0.000000 0.000000 

0.000000 -0.000000 0.000000 
0.000000 0.000000 0.000000 
0.000000 0.000000 0.000000 

0.000000 -0.000000 0.000000 
0.000000 0.000000 0.000000 
0.000000 0.000000 0.000000 

0.000000 -0.000000 0.000000 
0.000000 0.000000 0.000000 
0.000000 0.000000 0.000000 

0.000000 0.000000 0.000000 
0.000000 0.000000 0.000000 
0.000000 0.000000 0.000000 

0.000000 0.000000 0.000000 
0.000000 0.000000 0.000000 
0.000000 0.000000 0.000000 

0.000000 0.000000 0.000000 
0.000000 0.000000 0.000000 
0.000000 0.000000 0.000000 

0.000000 -0.000000 0.000000 
0.000000 0.000000 0.000000 
0.000000 0.000000 0.000000 

-0.000000 0.000000 0.000000 
0.000000 -0.000000 0.000000 
0.000000 0.000000 0.000000 

-0.000000 0.000000 0.000000 
0.000000 -0.000000 0.000000 
0.000000 0.000000 0.000000 

0.000000 -0.000000 0.000000 
0.000000 0.000000 0.000000 
0.000000 0.000000 0.000000 

0.000000 -0.000000 0.000000 
0.000000 0.000000 0.000000 
0.000000 0.000000 0.000000 

-0.000000 0.000000 0.000000 
0.000000 -0.000000 0.000000 
0.000000 0.000000 0.000000 

0.000000 0.000000 0.000000 
0.000000 0.000000 0.000000 
0.000000 0.000000 0.000000 

-0.000000 0.000000 0.000000 
0.000000 -0.000000 0.000000 
0.000000 0.000000 0.000000 

0.000000 0.000000 0.000000 
0.000000 0.000000 0.000000 
0.000000 0.000000 0.000000 

-0.000000 0.000000 0.000000 
0.000000 -0.000000 0.000000 
0.000000 0.000000 0.000000 

-0.000000 0.000000 0.000000 
0.000000 -0.000000 0.000000 
0.000000 0.000000 0.000000 

0.000000 0.000000 0.000000 
0.000000 0.000000 0.000000 
0.000000 0.000000 0.000000 

-0.000000 0.000000 0.000000 
0.000000 -0.000000 0.000000 
0.000000 0.000000 0.000000 

0.000000 0.000000 0.000000 
0.000000 0.000000 0.000000 
0.000000 0.000000 0.000000 

-0.000000 -0.000000 0.000000 
0.000000 -0.000000 0.000000 
0.000000 0.000000 0.000000 

-0.000000 0.000000 0.000000 
0.000000 0.000000 0.000000 
0.000000 0.000000 0.000000 

0.000000 -0.000000 0.000000 
0.000000 0.000000 0.000000 
0.000000 0.000000 0.000000 

-0.000000 0.000000 0.000000 
0.000000 -0.000000 0.000000 
0.000000 0.000000 0.000000 

0.000000 0.000000 0.000000 
0.000000 0.000000 0.000000 
0.000000 0.000000 0.000000 

0.000000 0.000000 0.000000 
0.000000 0.000000 0.000000 
0.000000 0.000000 0.000000 

0.000000 0.000000 0.000000 
0.000000 0.000000 0.000000 
0.000000 0.000000 0.000000 

0.000000 0.000000 0.000000 
0.000000 0.000000 0.000000 
0.000000 0.000000 0.000000 

-0.000000 -0.000000 0.000000 
0.000000 -0.000000 0.000000 
0.000000 0.000000 0.000000 

0.000000 0.000000 0.000000 
0.000000 0.000000 0.000000 
0.000000 0.000000 0.000000 

0.000000 0.000000 0.000000 
0.000000 0.000000 0.000000 
0.000000 0.000000 0.000000 

0.000000 0.000000 0.000000 
0.000000 0.000000 0.000000 
0.000000 0.000000 0.000000 

0.000000 0.000000 0.000000 
0.000000 0.000000 0.000000 
0.000000 0.000000 0.000000 

-0.000000 0.000000 0.000000 
0.000000 -0.000000 0.000000 
0.000000 0.000000 0.000000 

0.000000 0.000000 0.000000 
0.000000 0.000000 0.000000 
0.000000 0.000000 0.000000 

0.000000 0.000000 0.000000 
0.000000 0.000000 0.000000 
0.000000 0.000000 0.000000 

0.000000 0.000000 0.000000 
0.000000 0.000000 0.000000 
0.000000 0.000000 0.000000 

0.000000 -0.000000 0.000000 
0.000000 0.000000 0.000000 
0.000000 0.000000 0.000000 

0.000000 0.000000 0.000000 
0.000000 0.000000 0.000000 
0.000000 0.000000 0.000000 

-0.000000 -0.000000 0.000000 
0.000000 -0.000000 0.000000 
0.000000 0.000000 0.000000 

0.000000 0.000000 0.000000 
0.000000 0.000000 0.000000 
0.000000 0.000000 0.000000 

0.000000 0.000000 0.000000 
0.000000 0.000000 0.000000 
0.000000 0.000000 0.000000 

0.000000 0.000000 0.000000 
0.000000 0.000000 0.000000 
0.000000 0.000000 0.000000 

-0.000000 0.000000 0.000000 
0.000000 -0.000000 0.000000 
0.000000 0.000000 0.000000 

-0.000000 -0.000000 0.000000 
0.000000 -0.000000 0.000000 
0.000000 0.000000 0.000000 

-0.000000 -0.000000 0.000000 
0.000000 -0.000000 0.000000 
0.000000 0.000000 0.000000 

-0.000000 -0.000000 0.000000 
0.000000 -0.000000 0.000000 
0.000000 0.000000 0.000000 

0.000000 0.000000 0.000000 
0.000000 -0.000000 0.000000 
0.000000 0.000000 0.000000 

-0.000000 -0.000000 0.000000 
0.000000 -0.000000 0.000000 
0.000000 0.000000 0.000000 

-0.000000 0.000000 0.000000 
0.000000 -0.000000 0.000000 
0.000000 0.000000 0.000000 

0.000000 0.000000 0.000000 
0.000000 0.000000 0.000000 
0.000000 0.000000 0.000000 

0.000000 0.000000 0.000000 
0.000000 0.000000 0.000000 
0.000000 0.000000 0.000000 

0.000000 0.000000 0.000000 
0.000000 0.000000 0.000000 
0.000000 0.000000 0.000000 

0.000000 0.000000 0.000000 
0.000000 0.000000 0.000000 
0.000000 0.000000 0.000000 

0.000000 0.000000 0.000000 
0.000000 0.000000 0.000000 
0.000000 0.000000 0.000000 

0.000000 0.000000 0.000000 
0.000000 0.000000 0.000000 
0.000000 0.000000 0.000000 

0.000000 0.000000 0.000000 
0.000000 0.000000 0.000000 
0.000000 0.000000 0.000000 

-0.000000 0.000000 0.000000 
0.000000 -0.000000 0.000000 
0.000000 0.000000 0.000000 

0.000000 0.000000 0.000000 
0.000000 0.000000 0.000000 
0.000000 0.000000 0.000000 

0.000000 0.000000 0.000000 
0.000000 0.000000 0.000000 
0.000000 0.000000 0.000000 

0.000000 0.000000 0.000000 
0.000000 0.000000 0.000000 
0.000000 0.000000 0.000000 

0.000000 0.000000 0.000000 
0.000000 0.000000 0.000000 
0.000000 0.000000 0.000000 

0.000000 0.000000 0.000000 
0.000000 0.000000 0.000000 
0.000000 0.000000 0.000000 

-0.000000 0.000000 0.000000 
0.000000 -0.000000 0.000000 
0.000000 0.000000 0.000000 

-0.000000 0.000000 0.000000 
0.000000 -0.000000 0.000000 
0.000000 0.000000 0.000000 

-0.000000 -0.000000 0.000000 
0.000000 -0.000000 0.000000 
0.000000 0.000000 0.000000 

-0.000000 -0.000000 0.000000 
0.000000 -0.000000 0.000000 
0.000000 0.000000 0.000000 

-0.000000 -0.000000 0.000000 
0.000000 -0.000000 0.000000 
0.000000 0.000000 0.000000 

-0.000000 -0.000000 0.000000 
0.000000 -0.000000 0.000000 
0.000000 0.000000 0.000000 

0.000000 0.000000 0.000000 
0.000000 0.000000 0.000000 
0.000000 0.000000 0.000000 

0.000000 0.000000 0.000000 
0.000000 0.000000 0.000000 
0.000000 0.000000 0.000000 

-0.000000 0.000000 0.000000 
0.000000 -0.000000 0.000000 
0.000000 0.000000 0.000000 

0.000000 0.000000 0.000000 
0.000000 0.000000 0.000000 
0.000000 0.000000 0.000000 

0.000000 0.000000 0.000000 
0.000000 0.000000 0.000000 
0.000000 0.000000 0.000000 

0.000000 0.000000 0.000000 
0.000000 0.000000 0.000000 
0.000000 0.000000 0.000000 

-0.000000 -0.000000 0.000000 
0.000000 -0.000000 0.000000 
0.000000 0.000000 0.000000 

0.000000 -0.000000 0.000000 
0.000000 0.000000 0.000000 
0.000000 0.000000 0.000000 

0.000000 -0.000000 0.000000 
0.000000 0.000000 0.000000 
0.000000 0.000000 0.000000 

0.000000 -0.000000 0.000000 
0.000000 0.000000 0.000000 
0.000000 0.000000 0.000000 

-0.000000 0.000000 0.000000 
0.000000 -0.000000 0.000000 
0.000000 0.000000 0.000000 

-0.000000 0.000000 0.000000 
0.000000 -0.000000 0.000000 
0.000000 0.000000 0.000000 

-0.000000 0.000000 0.000000 
0.000000 -0.000000 0.000000 
0.000000 0.000000 0.000000 

-0.000000 0.000000 0.000000 
0.000000 -0.000000 0.000000 
0.000000 0.000000 0.000000 

0.000000 0.000000 0.000000 
0.000000 -0.000000 0.000000 
0.000000 0.000000 0.000000 

0.000000 0.000000 0.000000 
0.000000 0.000000 0.000000 
0.000000 0.000000 0.000000 

0.000000 0.000000 0.000000 
0.000000 0.000000 0.000000 
0.000000 0.000000 0.000000 

0.000000 0.000000 0.000000 
0.000000 0.000000 0.000000 
0.000000 0.000000 0.000000 

0.000000 -0.000000 0.000000 
0.000000 0.000000 0.000000 
0.000000 0.000000 0.000000 

0.000000 0.000000 0.000000 
0.000000 0.000000 0.000000 
0.000000 0.000000 0.000000 

-0.000000 -0.000000 0.000000 
0.000000 -0.000000 0.000000 
0.000000 0.000000 0.000000 

0.000000 -0.000000 0.000000 
0.000000 0.000000 0.000000 
0.000000 0.000000 0.000000 

0.000000 -0.000000 0.000000 
0.000000 0.000000 0.000000 
0.000000 0.000000 0.000000 

0.000000 -0.000000 0.000000 
0.000000 0.000000 0.000000 
0.000000 0.000000 0.000000 

0.000000 -0.000000 0.000000 
0.000000 0.000000 0.000000 
0.000000 0.000000 0.000000 

-0.000000 -0.000000 0.000000 
0.000000 -0.000000 0.000000 
0.000000 0.000000 0.000000 

-0.000000 -0.000000 0.000000 
0.000000 -0.000000 0.000000 
0.000000 0.000000 0.000000 

0.000000 0.000000 0.000000 
0.000000 0.000000 0.000000 
0.000000 0.000000 0.000000 

0.000000 0.000000 0.000000 
0.000000 0.000000 0.000000 
0.000000 0.000000 0.000000 

0.000000 0.000000 0.000000 
0.000000 0.000000 0.000000 
0.000000 0.000000 0.000000 

-0.000000 0.000000 0.000000 
0.000000 -0.000000 0.000000 
0.000000 0.000000 0.000000 

0.000000 0.000000 0.000000 
0.000000 0.000000 0.000000 
0.000000 0.000000 0.000000 

-0.000000 0.000000 0.000000 
0.000000 -0.000000 0.000000 
0.000000 0.000000 0.000000 

0.000000 -0.000000 0.000000 
0.000000 0.000000 0.000000 
0.000000 0.000000 0.000000 

-0.000000 0.000000 0.000000 
0.000000 -0.000000 0.000000 
0.000000 0.000000 0.000000 

-0.000000 0.000000 0.000000 
0.000000 -0.000000 0.000000 
0.000000 0.000000 0.000000 

0.000000 -0.000000 0.000000 
0.000000 0.000000 0.000000 
0.000000 0.000000 0.000000 

-0.000000 -0.000000 0.000000 
0.000000 -0.000000 0.000000 
0.000000 0.000000 0.000000 

0.000000 0.000000 0.000000 
0.000000 0.000000 0.000000 
0.000000 0.000000 0.000000 

-0.000000 0.000000 0.000000 
0.000000 0.000000 0.000000 
0.000000 0.000000 0.000000 

-0.000000 -0.000000 0.000000 
0.000000 -0.000000 0.000000 
0.000000 0.000000 0.000000 

-0.000000 -0.000000 0.000000 
0.000000 -0.000000 0.000000 
0.000000 0.000000 0.000000 

-0.000000 -0.000000 0.000000 
0.000000 -0.000000 0.000000 
0.000000 0.000000 0.000000 

-0.000000 -0.000000 0.000000 
0.000000 -0.000000 0.000000 
0.000000 0.000000 0.000000 

-0.000000 0.000000 0.000000 
0.000000 -0.000000 0.000000 
0.000000 0.000000 0.000000 

-0.000000 -0.000000 0.000000 
0.000000 -0.000000 0.000000 
0.000000 0.000000 0.000000 

-0.000000 -0.000000 0.000000 
0.000000 -0.000000 0.000000 
0.000000 0.000000 0.000000 

-0.000000 -0.000000 0.000000 
0.000000 -0.000000 0.000000 
0.000000 0.000000 0.000000 

-0.000000 0.000000 0.000000 
0.000000 -0.000000 0.000000 
0.000000 0.000000 0.000000 

-0.000000 0.000000 0.000000 
0.000000 -0.000000 0.000000 
0.000000 0.000000 0.000000 

0.000000 -0.000000 0.000000 
0.000000 0.000000 0.000000 
0.000000 0.000000 0.000000 

0.000000 -0.000000 0.000000 
0.000000 0.000000 0.000000 
0.000000 0.000000 0.000000 

0.000000 0.000000 0.000000 
0.000000 0.000000 0.000000 
0.000000 0.000000 0.000000 

0.000000 0.000000 0.000000 
0.000000 0.000000 0.000000 
0.000000 0.000000 0.000000 

0.000000 0.000000 0.000000 
0.000000 0.000000 0.000000 
0.000000 0.000000 0.000000 

0.000000 -0.000000 0.000000 
0.000000 0.000000 0.000000 
0.000000 0.000000 0.000000 

-0.000000 -0.000000 0.000000 
0.000000 -0.000000 0.000000 
0.000000 0.000000 0.000000 

-0.000000 0.000000 0.000000 
0.000000 -0.000000 0.000000 
0.000000 0.000000 0.000000 

-0.000000 -0.000000 0.000000 
0.000000 -0.000000 0.000000 
0.000000 0.000000 0.000000 

0.000000 -0.000000 0.000000 
0.000000 0.000000 0.000000 
0.000000 0.000000 0.000000 

-0.000000 0.000000 0.000000 
0.000000 -0.000000 0.000000 
0.000000 0.000000 0.000000 

0.000000 0.000000 0.000000 
0.000000 0.000000 0.000000 
0.000000 0.000000 0.000000 

0.000000 0.000000 0.000000 
0.000000 0.000000 0.000000 
0.000000 0.000000 0.000000 

0.000000 0.000000 0.000000 
0.000000 0.000000 0.000000 
0.000000 0.000000 0.000000 

-0.000000 0.000000 0.000000 
0.000000 -0.000000 0.000000 
0.000000 0.000000 0.000000 

0.000000 -0.000000 0.000000 
0.000000 0.000000 0.000000 
0.000000 0.000000 0.000000 

0.000000 -0.000000 0.000000 
0.000000 0.000000 0.000000 
0.000000 0.000000 0.000000 

-0.000000 -0.000000 0.000000 
0.000000 -0.000000 0.000000 
0.000000 0.000000 0.000000 

0.000000 -0.000000 0.000000 
0.000000 0.000000 0.000000 
0.000000 0.000000 0.000000 

-0.000000 -0.000000 0.000000 
0.000000 0.000000 0.000000 
0.000000 0.000000 0.000000 

0.000000 -0.000000 0.000000 
0.000000 0.000000 0.000000 
0.000000 0.000000 0.000000 

-0.000000 0.000000 0.000000 
0.000000 -0.000000 0.000000 
0.000000 0.000000 0.000000 

0.000000 0.000000 0.000000 
0.000000 0.000000 0.000000 
0.000000 0.000000 0.000000 

-0.000000 0.000000 0.000000 
0.000000 -0.000000 0.000000 
0.000000 0.000000 0.000000 

-0.000000 -0.000000 0.000000 
0.000000 -0.000000 0.000000 
0.000000 0.000000 0.000000 

-0.000000 0.000000 0.000000 
0.000000 -0.000000 0.000000 
0.000000 0.000000 0.000000 

-0.000000 0.000000 0.000000 
0.000000 -0.000000 0.000000 
0.000000 0.000000 0.000000 

-0.000000 0.000000 0.000000 
0.000000 -0.000000 0.000000 
0.000000 0.000000 0.000000 

-0.000000 0.000000 0.000000 
0.000000 -0.000000 0.000000 
0.000000 0.000000 0.000000 

-0.000000 -0.000000 0.000000 
0.000000 -0.000000 0.000000 
0.000000 0.000000 0.000000 

-0.000000 0.000000 0.000000 
0.000000 -0.000000 0.000000 
0.000000 0.000000 0.000000 

0.000000 -0.000000 0.000000 
0.000000 0.000000 0.000000 
0.000000 0.000000 0.000000 

0.000000 0.000000 0.000000 
0.000000 0.000000 0.000000 
0.000000 0.000000 0.000000 

0.000000 0.000000 0.000000 
0.000000 0.000000 0.000000 
0.000000 0.000000 0.000000 

-0.000000 0.000000 0.000000 
0.000000 -0.000000 0.000000 
0.000000 0.000000 0.000000 

0.000000 -0.000000 0.000000 
0.000000 0.000000 0.000000 
0.000000 0.000000 0.000000 

0.000000 -0.000000 0.000000 
0.000000 0.000000 0.000000 
0.000000 0.000000 0.000000 

0.000000 0.000000 0.000000 
0.000000 0.000000 0.000000 
0.000000 0.000000 0.000000 

-0.000000 0.000000 0.000000 
0.000000 -0.000000 0.000000 
0.000000 0.000000 0.000000 

0.000000 0.000000 0.000000 
0.000000 0.000000 0.000000 
0.000000 0.000000 0.000000 

-0.000000 0.000000 0.000000 
0.000000 -0.000000 0.000000 
0.000000 0.000000 0.000000 

-0.000000 0.000000 0.000000 
0.000000 -0.000000 0.000000 
0.000000 0.000000 0.000000 

-0.000000 -0.000000 0.000000 
0.000000 -0.000000 0.000000 
0.000000 0.000000 0.000000 

0.000000 -0.000000 0.000000 
0.000000 0.000000 0.000000 
0.000000 0.000000 0.000000 

0.000000 0.000000 0.000000 
0.000000 0.000000 0.000000 
0.000000 0.000000 0.000000 

-0.000000 0.000000 0.000000 
0.000000 -0.000000 0.000000 
0.000000 0.000000 0.000000 

0.000000 0.000000 0.000000 
0.000000 0.000000 0.000000 
0.000000 0.000000 0.000000 

0.000000 -0.000000 0.000000 
0.000000 0.000000 0.000000 
0.000000 0.000000 0.000000 

0.000000 0.000000 0.000000 
0.000000 0.000000 0.000000 
0.000000 0.000000 0.000000 

0.000000 -0.000000 0.000000 
0.000000 0.000000 0.000000 
0.000000 0.000000 0.000000 

0.000000 0.000000 0.000000 
0.000000 0.000000 0.000000 
0.000000 0.000000 0.000000 

-0.000000 -0.000000 0.000000 
0.000000 -0.000000 0.000000 
0.000000 0.000000 0.000000 

-0.000000 -0.000000 0.000000 
0.000000 -0.000000 0.000000 
0.000000 0.000000 0.000000 

-0.000000 -0.000000 0.000000 
0.000000 -0.000000 0.000000 
0.000000 0.000000 0.000000 

-0.000000 -0.000000 0.000000 
0.000000 -0.000000 0.000000 
0.000000 0.000000 0.000000 

0.000000 -0.000000 0.000000 
0.000000 0.000000 0.000000 
0.000000 0.000000 0.000000 

0.000000 -0.000000 0.000000 
0.000000 0.000000 0.000000 
0.000000 0.000000 0.000000 

-0.000000 -0.000000 0.000000 
0.000000 -0.000000 0.000000 
0.000000 0.000000 0.000000 

0.000000 0.000000 0.000000 
0.000000 0.000000 0.000000 
0.000000 0.000000 0.000000 

0.000000 -0.000000 0.000000 
0.000000 0.000000 0.000000 
0.000000 0.000000 0.000000 

0.000000 -0.000000 0.000000 
0.000000 0.000000 0.000000 
0.000000 0.000000 0.000000 

0.000000 0.000000 0.000000 
0.000000 0.000000 0.000000 
0.000000 0.000000 0.000000 

0.000000 -0.000000 0.000000 
0.000000 0.000000 0.000000 
0.000000 0.000000 0.000000 

0.000000 0.000000 0.000000 
0.000000 0.000000 0.000000 
0.000000 0.000000 0.000000 

0.000000 0.000000 0.000000 
0.000000 0.000000 0.000000 
0.000000 0.000000 0.000000 

0.000000 0.000000 0.000000 
0.000000 0.000000 0.000000 
0.000000 0.000000 0.000000 

-0.000000 -0.000000 0.000000 
0.000000 -0.000000 0.000000 
0.000000 0.000000 0.000000 

0.000000 0.000000 0.000000 
0.000000 0.000000 0.000000 
0.000000 0.000000 0.000000 

-0.000000 0.000000 0.000000 
0.000000 -0.000000 0.000000 
0.000000 0.000000 0.000000 

0.000000 0.000000 0.000000 
0.000000 -0.000000 0.000000 
0.000000 0.000000 0.000000 

-0.000000 -0.000000 0.000000 
0.000000 -0.000000 0.000000 
0.000000 0.000000 0.000000 

-0.000000 -0.000000 0.000000 
0.000000 -0.000000 0.000000 
0.000000 0.000000 0.000000 

-0.000000 0.000000 0.000000 
0.000000 -0.000000 0.000000 
0.000000 0.000000 0.000000 

-0.000000 0.000000 0.000000 
0.000000 -0.000000 0.000000 
0.000000 0.000000 0.000000 

0.000000 0.000000 0.000000 
0.000000 0.000000 0.000000 
0.000000 0.000000 0.000000 

0.000000 -0.000000 0.000000 
0.000000 0.000000 0.000000 
0.000000 0.000000 0.000000 

-0.000000 0.000000 0.000000 
0.000000 -0.000000 0.000000 
0.000000 0.000000 0.000000 

0.000000 0.000000 0.000000 
0.000000 0.000000 0.000000 
0.000000 0.000000 0.000000 

0.000000 -0.000000 0.000000 
0.000000 0.000000 0.000000 
0.000000 0.000000 0.000000 

-0.000000 -0.000000 0.000000 
0.000000 -0.000000 0.000000 
0.000000 0.000000 0.000000 

-0.000000 -0.000000 0.000000 
0.000000 -0.000000 0.000000 
0.000000 0.000000 0.000000 

-0.000000 0.000000 0.000000 
0.000000 -0.000000 0.000000 
0.000000 0.000000 0.000000 

-0.000000 0.000000 0.000000 
0.000000 -0.000000 0.000000 
0.000000 0.000000 0.000000 

0.000000 0.000000 0.000000 
0.000000 0.000000 0.000000 
0.000000 0.000000 0.000000 

0.000000 0.000000 0.000000 
0.000000 0.000000 0.000000 
0.000000 0.000000 0.000000 

0.000000 0.000000 0.000000 
0.000000 0.000000 0.000000 
0.000000 0.000000 0.000000 

0.000000 0.000000 0.000000 
0.000000 0.000000 0.000000 
0.000000 0.000000 0.000000 

0.000000 -0.000000 0.000000 
0.000000 0.000000 0.000000 
0.000000 0.000000 0.000000 

0.000000 -0.000000 0.000000 
0.000000 0.000000 0.000000 
0.000000 0.000000 0.000000 

0.000000 0.000000 0.000000 
0.000000 0.000000 0.000000 
0.000000 0.000000 0.000000 

-0.000000 0.000000 0.000000 
0.000000 -0.000000 0.000000 
0.000000 0.000000 0.000000 

0.000000 0.000000 0.000000 
0.000000 0.000000 0.000000 
0.000000 0.000000 0.000000 

0.000000 0.000000 0.000000 
0.000000 0.000000 0.000000 
0.000000 0.000000 0.000000 

0.000000 0.000000 0.000000 
0.000000 0.000000 0.000000 
0.000000 0.000000 0.000000 

-0.000000 -0.000000 0.000000 
0.000000 -0.000000 0.000000 
0.000000 0.000000 0.000000 

0.000000 -0.000000 0.000000 
0.000000 0.000000 0.000000 
0.000000 0.000000 0.000000 

-0.000000 -0.000000 0.000000 
0.000000 -0.000000 0.000000 
0.000000 0.000000 0.000000 

0.000000 -0.000000 0.000000 
0.000000 0.000000 0.000000 
0.000000 0.000000 0.000000 

0.000000 0.000000 0.000000 
0.000000 0.000000 0.000000 
0.000000 0.000000 0.000000 

0.000000 0.000000 0.000000 
0.000000 0.000000 0.000000 
0.000000 0.000000 0.000000 

0.000000 0.000000 0.000000 
0.000000 0.000000 0.000000 
0.000000 0.000000 0.000000 

0.000000 0.000000 0.000000 
0.000000 0.000000 0.000000 
0.000000 0.000000 0.000000 

0.000000 0.000000 0.000000 
0.000000 0.000000 0.000000 
0.000000 0.000000 0.000000 

-0.000000 0.000000 0.000000 
0.000000 -0.000000 0.000000 
0.000000 0.000000 0.000000 

-0.000000 0.000000 0.000000 
0.000000 -0.000000 0.000000 
0.000000 0.000000 0.000000 

0.000000 -0.000000 0.000000 
0.000000 0.000000 0.000000 
0.000000 0.000000 0.000000 

-0.000000 0.000000 0.000000 
0.000000 -0.000000 0.000000 
0.000000 0.000000 0.000000 

0.000000 0.000000 0.000000 
0.000000 0.000000 0.000000 
0.000000 0.000000 0.000000 

0.000000 -0.000000 0.000000 
0.000000 0.000000 0.000000 
0.000000 0.000000 0.000000 

0.000000 0.000000 0.000000 
0.000000 0.000000 0.000000 
0.000000 0.000000 0.000000 

-0.000000 0.000000 0.000000 
0.000000 -0.000000 0.000000 
0.000000 0.000000 0.000000 

0.000000 -0.000000 0.000000 
0.000000 0.000000 0.000000 
0.000000 0.000000 0.000000 

-0.000000 0.000000 0.000000 
0.000000 -0.000000 0.000000 
0.000000 0.000000 0.000000 

0.000000 0.000000 0.000000 
0.000000 0.000000 0.000000 
0.000000 0.000000 0.000000 

0.000000 -0.000000 0.000000 
0.000000 0.000000 0.000000 
0.000000 0.000000 0.000000 

0.000000 -0.000000 0.000000 
0.000000 0.000000 0.000000 
0.000000 0.000000 0.000000 

-0.000000 0.000000 0.000000 
0.000000 -0.000000 0.000000 
0.000000 0.000000 0.000000 

-0.000000 0.000000 0.000000 
0.000000 -0.000000 0.000000 
0.000000 0.000000 0.000000 

0.000000 0.000000 0.000000 
0.000000 0.000000 0.000000 
0.000000 0.000000 0.000000 

0.000000 -0.000000 0.000000 
0.000000 0.000000 0.000000 
0.000000 0.000000 0.000000 

0.000000 -0.000000 0.000000 
0.000000 0.000000 0.000000 
0.000000 0.000000 0.000000 

0.000000 -0.000000 0.000000 
0.000000 0.000000 0.000000 
0.000000 0.000000 0.000000 

-0.000000 -0.000000 0.000000 
0.000000 -0.000000 0.000000 
0.000000 0.000000 0.000000 

-0.000000 -0.000000 0.000000 
0.000000 -0.000000 0.000000 
0.000000 0.000000 0.000000 

-0.000000 0.000000 0.000000 
0.000000 -0.000000 0.000000 
0.000000 0.000000 0.000000 

-0.000000 0.000000 0.000000 
0.000000 -0.000000 0.000000 
0.000000 0.000000 0.000000 

-0.000000 0.000000 0.000000 
0.000000 -0.000000 0.000000 
0.000000 0.000000 0.000000 

-0.000000 0.000000 0.000000 
0.000000 -0.000000 0.000000 
0.000000 0.000000 0.000000 

-0.000000 0.000000 0.000000 
0.000000 -0.000000 0.000000 
0.000000 0.000000 0.000000 

-0.000000 -0.000000 0.000000 
0.000000 -0.000000 0.000000 
0.000000 0.000000 0.000000 

0.000000 0.000000 0.000000 
0.000000 0.000000 0.000000 
0.000000 0.000000 0.000000 

-0.000000 0.000000 0.000000 
0.000000 -0.000000 0.000000 
0.000000 0.000000 0.000000 

-0.000000 -0.000000 0.000000 
0.000000 -0.000000 0.000000 
0.000000 0.000000 0.000000 

0.000000 0.000000 0.000000 
0.000000 0.000000 0.000000 
0.000000 0.000000 0.000000 

0.000000 -0.000000 0.000000 
0.000000 0.000000 0.000000 
0.000000 0.000000 0.000000 

0.000000 0.000000 0.000000 
0.000000 0.000000 0.000000 
0.000000 0.000000 0.000000 

0.000000 0.000000 0.000000 
0.000000 0.000000 0.000000 
0.000000 0.000000 0.000000 

0.000000 0.000000 0.000000 
0.000000 0.000000 0.000000 
0.000000 0.000000 0.000000 

0.000000 0.000000 0.000000 
0.000000 0.000000 0.000000 
0.000000 0.000000 0.000000 

-0.000000 0.000000 0.000000 
0.000000 -0.000000 0.000000 
0.000000 0.000000 0.000000 

-0.000000 -0.000000 0.000000 
0.000000 -0.000000 0.000000 
0.000000 0.000000 0.000000 

0.000000 0.000000 0.000000 
0.000000 -0.000000 0.000000 
0.000000 0.000000 0.000000 

-0.000000 -0.000000 0.000000 
0.000000 -0.000000 0.000000 
0.000000 0.000000 0.000000 

-0.000000 -0.000000 0.000000 
0.000000 -0.000000 0.000000 
0.000000 0.000000 0.000000 

-0.000000 0.000000 0.000000 
0.000000 -0.000000 0.000000 
0.000000 0.000000 0.000000 

-0.000000 -0.000000 0.000000 
0.000000 -0.000000 0.000000 
0.000000 0.000000 0.000000 

-0.000000 0.000000 0.000000 
0.000000 -0.000000 0.000000 
0.000000 0.000000 0.000000 

-0.000000 0.000000 0.000000 
0.000000 -0.000000 0.000000 
0.000000 0.000000 0.000000 

-0.000000 0.000000 0.000000 
0.000000 -0.000000 0.000000 
0.000000 0.000000 0.000000 

-0.000000 0.000000 0.000000 
0.000000 -0.000000 0.000000 
0.000000 0.000000 0.000000 

0.000000 0.000000 0.000000 
0.000000 0.000000 0.000000 
0.000000 0.000000 0.000000 

0.000000 0.000000 0.000000 
0.000000 0.000000 0.000000 
0.000000 0.000000 0.000000 

0.000000 0.000000 0.000000 
0.000000 0.000000 0.000000 
0.000000 0.000000 0.000000 

-0.000000 0.000000 0.000000 
0.000000 -0.000000 0.000000 
0.000000 0.000000 0.000000 

0.000000 -0.000000 0.000000 
0.000000 0.000000 0.000000 
0.000000 0.000000 0.000000 

0.000000 0.000000 0.000000 
0.000000 0.000000 0.000000 
0.000000 0.000000 0.000000 

0.000000 0.000000 0.000000 
0.000000 -0.000000 0.000000 
0.000000 0.000000 0.000000 

0.000000 0.000000 0.000000 
0.000000 0.000000 0.000000 
0.000000 0.000000 0.000000 

-0.000000 0.000000 0.000000 
0.000000 -0.000000 0.000000 
0.000000 0.000000 0.000000 

-0.000000 0.000000 0.000000 
0.000000 -0.000000 0.000000 
0.000000 0.000000 0.000000 

-0.000000 0.000000 0.000000 
0.000000 -0.000000 0.000000 
0.000000 0.000000 0.000000 

-0.000000 0.000000 0.000000 
0.000000 -0.000000 0.000000 
0.000000 0.000000 0.000000 

-0.000000 0.000000 0.000000 
0.000000 -0.000000 0.000000 
0.000000 0.000000 0.000000 

0.000000 0.000000 0.000000 
0.000000 0.000000 0.000000 
0.000000 0.000000 0.000000 

-0.000000 0.000000 0.000000 
0.000000 -0.000000 0.000000 
0.000000 0.000000 0.000000 

-0.000000 -0.000000 0.000000 
0.000000 -0.000000 0.000000 
0.000000 0.000000 0.000000 

-0.000000 -0.000000 0.000000 
0.000000 -0.000000 0.000000 
0.000000 0.000000 0.000000 

-0.000000 -0.000000 0.000000 
0.000000 -0.000000 0.000000 
0.000000 0.000000 0.000000 

-0.000000 -0.000000 0.000000 
0.000000 -0.000000 0.000000 
0.000000 0.000000 0.000000 

-0.000000 -0.000000 0.000000 
0.000000 -0.000000 0.000000 
0.000000 0.000000 0.000000 

-0.000000 -0.000000 0.000000 
0.000000 -0.000000 0.000000 
0.000000 0.000000 0.000000 

0.000000 -0.000000 0.000000 
0.000000 0.000000 0.000000 
0.000000 0.000000 0.000000 

0.000000 -0.000000 0.000000 
0.000000 0.000000 0.000000 
0.000000 0.000000 0.000000 

0.000000 -0.000000 0.000000 
0.000000 0.000000 0.000000 
0.000000 0.000000 0.000000 

-0.000000 0.000000 0.000000 
0.000000 -0.000000 0.000000 
0.000000 0.000000 0.000000 

0.000000 0.000000 0.000000 
0.000000 0.000000 0.000000 
0.000000 0.000000 0.000000 

0.000000 -0.000000 0.000000 
0.000000 0.000000 0.000000 
0.000000 0.000000 0.000000 

-0.000000 -0.000000 0.000000 
0.000000 0.000000 0.000000 
0.000000 0.000000 0.000000 

0.000000 0.000000 0.000000 
0.000000 0.000000 0.000000 
0.000000 0.000000 0.000000 

0.000000 0.000000 0.000000 
0.000000 0.000000 0.000000 
0.000000 0.000000 0.000000 

-0.000000 0.000000 0.000000 
0.000000 0.000000 0.000000 
0.000000 0.000000 0.000000 

-0.000000 0.000000 0.000000 
0.000000 -0.000000 0.000000 
0.000000 0.000000 0.000000 

0.000000 0.000000 0.000000 
0.000000 0.000000 0.000000 
0.000000 0.000000 0.000000 

0.000000 0.000000 0.000000 
0.000000 0.000000 0.000000 
0.000000 0.000000 0.000000 

-0.000000 0.000000 0.000000 
0.000000 -0.000000 0.000000 
0.000000 0.000000 0.000000 

-0.000000 0.000000 0.000000 
0.000000 -0.000000 0.000000 
0.000000 0.000000 0.000000 

-0.000000 0.000000 0.000000 
0.000000 -0.000000 0.000000 
0.000000 0.000000 0.000000 

0.000000 0.000000 0.000000 
0.000000 0.000000 0.000000 
0.000000 0.000000 0.000000 

-0.000000 -0.000000 0.000000 
0.000000 -0.000000 0.000000 
0.000000 0.000000 0.000000 

0.000000 -0.000000 0.000000 
0.000000 0.000000 0.000000 
0.000000 0.000000 0.000000 

0.000000 0.000000 0.000000 
0.000000 0.000000 0.000000 
0.000000 0.000000 0.000000 

-0.000000 -0.000000 0.000000 
0.000000 -0.000000 0.000000 
0.000000 0.000000 0.000000 

-0.000000 0.000000 0.000000 
0.000000 -0.000000 0.000000 
0.000000 0.000000 0.000000 

0.000000 0.000000 0.000000 
0.000000 0.000000 0.000000 
0.000000 0.000000 0.000000 

0.000000 -0.000000 0.000000 
0.000000 0.000000 0.000000 
0.000000 0.000000 0.000000 

0.000000 0.000000 0.000000 
0.000000 0.000000 0.000000 
0.000000 0.000000 0.000000 

0.000000 -0.000000 0.000000 
0.000000 0.000000 0.000000 
0.000000 0.000000 0.000000 

0.000000 0.000000 0.000000 
0.000000 0.000000 0.000000 
0.000000 0.000000 0.000000 

-0.000000 0.000000 0.000000 
0.000000 -0.000000 0.000000 
0.000000 0.000000 0.000000 

0.000000 0.000000 0.000000 
0.000000 0.000000 0.000000 
0.000000 0.000000 0.000000 

0.000000 0.000000 0.000000 
0.000000 0.000000 0.000000 
0.000000 0.000000 0.000000 

-0.000000 0.000000 0.000000 
0.000000 -0.000000 0.000000 
0.000000 0.000000 0.000000 

TENSORS STRAIN float 
0.000000 0.000000 0.000000 
0.000000 -0.000000 0.000000 
0.000000 0.000000 0.000000 

0.000000 0.000000 0.000000 
0.000000 -0.000000 0.000000 
0.000000 0.000000 0.000000 

0.000000 -0.000000 0.000000 
0.000000 -0.000000 0.000000 
0.000000 0.000000 0.000000 

0.000000 0.000000 0.000000 
0.000000 -0.000000 0.000000 
0.000000 0.000000 0.000000 

0.000000 0.000000 0.000000 
0.000000 -0.000000 0.000000 
0.000000 0.000000 0.000000 

0.000000 -0.000000 0.000000 
0.000000 -0.000000 0.000000 
0.000000 0.000000 0.000000 

0.000000 -0.000000 0.000000 
0.000000 -0.000000 0.000000 
0.000000 0.000000 0.000000 

-0.000000 0.000000 0.000000 
0.000000 -0.000000 0.000000 
0.000000 0.000000 0.000000 

-0.000000 0.000000 0.000000 
0.000000 -0.000000 0.000000 
0.000000 0.000000 0.000000 

-0.000000 0.000000 0.000000 
0.000000 -0.000000 0.000000 
0.000000 0.000000 0.000000 

0.000000 0.000000 0.000000 
0.000000 -0.000000 0.000000 
0.000000 0.000000 0.000000 

-0.000000 0.000000 0.000000 
0.000000 -0.000000 0.000000 
0.000000 0.000000 0.000000 

-0.000000 0.000000 0.000000 
0.000000 -0.000000 0.000000 
0.000000 0.000000 0.000000 

-0.000000 -0.000000 0.000000 
0.000000 0.000000 0.000000 
0.000000 0.000000 0.000000 

-0.000000 -0.000000 0.000000 
0.000000 0.000000 0.000000 
0.000000 0.000000 0.000000 

-0.000000 -0.000000 0.000000 
0.000000 0.000000 0.000000 
0.000000 0.000000 0.000000 

0.000000 -0.000000 0.000000 
0.000000 -0.000000 0.000000 
0.000000 0.000000 0.000000 

0.000000 0.000000 0.000000 
0.000000 -0.000000 0.000000 
0.000000 0.000000 0.000000 

-0.000000 0.000000 0.000000 
0.000000 -0.000000 0.000000 
0.000000 0.000000 0.000000 

-0.000000 -0.000000 0.000000 
0.000000 -0.000000 0.000000 
0.000000 0.000000 0.000000 

-0.000000 -0.000000 0.000000 
0.000000 -0.000000 0.000000 
0.000000 0.000000 0.000000 

-0.000000 -0.000000 0.000000 
0.000000 -0.000000 0.000000 
0.000000 0.000000 0.000000 

-0.000000 -0.000000 0.000000 
0.000000 0.000000 0.000000 
0.000000 0.000000 0.000000 

0.000000 0.000000 0.000000 
0.000000 0.000000 0.000000 
0.000000 0.000000 0.000000 

0.000000 0.000000 0.000000 
0.000000 -0.000000 0.000000 
0.000000 0.000000 0.000000 

0.000000 0.000000 0.000000 
0.000000 -0.000000 0.000000 
0.000000 0.000000 0.000000 

0.000000 0.000000 0.000000 
0.000000 -0.000000 0.000000 
0.000000 0.000000 0.000000 

0.000000 0.000000 0.000000 
0.000000 -0.000000 0.000000 
0.000000 0.000000 0.000000 

0.000000 0.000000 0.000000 
0.000000 -0.000000 0.000000 
0.000000 0.000000 0.000000 

0.000000 0.000000 0.000000 
0.000000 -0.000000 0.000000 
0.000000 0.000000 0.000000 

0.000000 0.000000 0.000000 
0.000000 0.000000 0.000000 
0.000000 0.000000 0.000000 

-0.000000 0.000000 0.000000 
0.000000 0.000000 0.000000 
0.000000 0.000000 0.000000 

-0.000000 0.000000 0.000000 
0.000000 0.000000 0.000000 
0.000000 0.000000 0.000000 

-0.000000 0.000000 0.000000 
0.000000 0.000000 0.000000 
0.000000 0.000000 0.000000 

-0.000000 -0.000000 0.000000 
0.000000 0.000000 0.000000 
0.000000 0.000000 0.000000 

-0.000000 -0.000000 0.000000 
0.000000 0.000000 0.000000 
0.000000 0.000000 0.000000 

-0.000000 0.000000 0.000000 
0.000000 0.000000 0.000000 
0.000000 0.000000 0.000000 

-0.000000 0.000000 0.000000 
0.000000 0.000000 0.000000 
0.000000 0.000000 0.000000 

-0.000000 -0.000000 0.000000 
0.000000 0.000000 0.000000 
0.000000 0.000000 0.000000 

-0.000000 -0.000000 0.000000 
0.000000 0.000000 0.000000 
0.000000 0.000000 0.000000 

-0.000000 0.000000 0.000000 
0.000000 0.000000 0.000000 
0.000000 0.000000 0.000000 

-0.000000 -0.000000 0.000000 
0.000000 0.000000 0.000000 
0.000000 0.000000 0.000000 

-0.000000 -0.000000 0.000000 
0.000000 0.000000 0.000000 
0.000000 0.000000 0.000000 

-0.000000 -0.000000 0.000000 
0.000000 -0.000000 0.000000 
0.000000 0.000000 0.000000 

-0.000000 0.000000 0.000000 
0.000000 0.000000 0.000000 
0.000000 0.000000 0.000000 

-0.000000 0.000000 0.000000 
0.000000 0.000000 0.000000 
0.000000 0.000000 0.000000 

-0.000000 0.000000 0.000000 
0.000000 0.000000 0.000000 
0.000000 0.000000 0.000000 

-0.000000 0.000000 0.000000 
0.000000 -0.000000 0.000000 
0.000000 0.000000 0.000000 

-0.000000 -0.000000 0.000000 
0.000000 0.000000 0.000000 
0.000000 0.000000 0.000000 

-0.000000 -0.000000 0.000000 
0.000000 0.000000 0.000000 
0.000000 0.000000 0.000000 

-0.000000 0.000000 0.000000 
0.000000 0.000000 0.000000 
0.000000 0.000000 0.000000 

-0.000000 -0.000000 0.000000 
0.000000 0.000000 0.000000 
0.000000 0.000000 0.000000 

0.000000 0.000000 0.000000 
0.000000 -0.000000 0.000000 
0.000000 0.000000 0.000000 

0.000000 0.000000 0.000000 
0.000000 -0.000000 0.000000 
0.000000 0.000000 0.000000 

0.000000 0.000000 0.000000 
0.000000 -0.000000 0.000000 
0.000000 0.000000 0.000000 

0.000000 0.000000 0.000000 
0.000000 0.000000 0.000000 
0.000000 0.000000 0.000000 

-0.000000 -0.000000 0.000000 
0.000000 0.000000 0.000000 
0.000000 0.000000 0.000000 

-0.000000 -0.000000 0.000000 
0.000000 0.000000 0.000000 
0.000000 0.000000 0.000000 

-0.000000 -0.000000 0.000000 
0.000000 -0.000000 0.000000 
0.000000 0.000000 0.000000 

-0.000000 -0.000000 0.000000 
0.000000 0.000000 0.000000 
0.000000 0.000000 0.000000 

-0.000000 -0.000000 0.000000 
0.000000 -0.000000 0.000000 
0.000000 0.000000 0.000000 

0.000000 0.000000 0.000000 
0.000000 0.000000 0.000000 
0.000000 0.000000 0.000000 

0.000000 0.000000 0.000000 
0.000000 -0.000000 0.000000 
0.000000 0.000000 0.000000 

0.000000 0.000000 0.000000 
0.000000 -0.000000 0.000000 
0.000000 0.000000 0.000000 

0.000000 0.000000 0.000000 
0.000000 0.000000 0.000000 
0.000000 0.000000 0.000000 

-0.000000 0.000000 0.000000 
0.000000 -0.000000 0.000000 
0.000000 0.000000 0.000000 

-0.000000 -0.000000 0.000000 
0.000000 0.000000 0.000000 
0.000000 0.000000 0.000000 

-0.000000 -0.000000 0.000000 
0.000000 0.000000 0.000000 
0.000000 0.000000 0.000000 

-0.000000 -0.000000 0.000000 
0.000000 0.000000 0.000000 
0.000000 0.000000 0.000000 

-0.000000 -0.000000 0.000000 
0.000000 0.000000 0.000000 
0.000000 0.000000 0.000000 

-0.000000 -0.000000 0.000000 
0.000000 0.000000 0.000000 
0.000000 0.000000 0.000000 

-0.000000 -0.000000 0.000000 
0.000000 -0.000000 0.000000 
0.000000 0.000000 0.000000 

-0.000000 -0.000000 0.000000 
0.000000 0.000000 0.000000 
0.000000 0.000000 0.000000 

0.000000 0.000000 0.000000 
0.000000 0.000000 0.000000 
0.000000 0.000000 0.000000 

-0.000000 -0.000000 0.000000 
0.000000 0.000000 0.000000 
0.000000 0.000000 0.000000 

-0.000000 0.000000 0.000000 
0.000000 -0.000000 0.000000 
0.000000 0.000000 0.000000 

-0.000000 0.000000 0.000000 
0.000000 0.000000 0.000000 
0.000000 0.000000 0.000000 

-0.000000 -0.000000 0.000000 
0.000000 0.000000 0.000000 
0.000000 0.000000 0.000000 

-0.000000 -0.000000 0.000000 
0.000000 0.000000 0.000000 
0.000000 0.000000 0.000000 

-0.000000 -0.000000 0.000000 
0.000000 0.000000 0.000000 
0.000000 0.000000 0.000000 

0.000000 -0.000000 0.000000 
0.000000 0.000000 0.000000 
0.000000 0.000000 0.000000 

0.000000 -0.000000 0.000000 
0.000000 0.000000 0.000000 
0.000000 0.000000 0.000000 

0.000000 -0.000000 0.000000 
0.000000 -0.000000 0.000000 
0.000000 0.000000 0.000000 

-0.000000 -0.000000 0.000000 
0.000000 0.000000 0.000000 
0.000000 0.000000 0.000000 

-0.000000 -0.000000 0.000000 
0.000000 0.000000 0.000000 
0.000000 0.000000 0.000000 

-0.000000 -0.000000 0.000000 
0.000000 -0.000000 0.000000 
0.000000 0.000000 0.000000 

-0.000000 -0.000000 0.000000 
0.000000 -0.000000 0.000000 
0.000000 0.000000 0.000000 

-0.000000 -0.000000 0.000000 
0.000000 -0.000000 0.000000 
0.000000 0.000000 0.000000 

-0.000000 -0.000000 0.000000 
0.000000 -0.000000 0.000000 
0.000000 0.000000 0.000000 

-0.000000 -0.000000 0.000000 
0.000000 -0.000000 0.000000 
0.000000 0.000000 0.000000 

0.000000 -0.000000 0.000000 
0.000000 -0.000000 0.000000 
0.000000 0.000000 0.000000 

0.000000 -0.000000 0.000000 
0.000000 -0.000000 0.000000 
0.000000 0.000000 0.000000 

0.000000 -0.000000 0.000000 
0.000000 0.000000 0.000000 
0.000000 0.000000 0.000000 

0.000000 -0.000000 0.000000 
0.000000 0.000000 0.000000 
0.000000 0.000000 0.000000 

-0.000000 -0.000000 0.000000 
0.000000 0.000000 0.000000 
0.000000 0.000000 0.000000 

-0.000000 -0.000000 0.000000 
0.000000 0.000000 0.000000 
0.000000 0.000000 0.000000 

-0.000000 -0.000000 0.000000 
0.000000 0.000000 0.000000 
0.000000 0.000000 0.000000 

-0.000000 -0.000000 0.000000 
0.000000 0.000000 0.000000 
0.000000 0.000000 0.000000 

-0.000000 0.000000 0.000000 
0.000000 0.000000 0.000000 
0.000000 0.000000 0.000000 

-0.000000 0.000000 0.000000 
0.000000 -0.000000 0.000000 
0.000000 0.000000 0.000000 

0.000000 0.000000 0.000000 
0.000000 -0.000000 0.000000 
0.000000 0.000000 0.000000 

0.000000 0.000000 0.000000 
0.000000 -0.000000 0.000000 
0.000000 0.000000 0.000000 

0.000000 0.000000 0.000000 
0.000000 -0.000000 0.000000 
0.000000 0.000000 0.000000 

0.000000 0.000000 0.000000 
0.000000 0.000000 0.000000 
0.000000 0.000000 0.000000 

0.000000 0.000000 0.000000 
0.000000 -0.000000 0.000000 
0.000000 0.000000 0.000000 

0.000000 0.000000 0.000000 
0.000000 -0.000000 0.000000 
0.000000 0.000000 0.000000 

0.000000 0.000000 0.000000 
0.000000 -0.000000 0.000000 
0.000000 0.000000 0.000000 

0.000000 0.000000 0.000000 
0.000000 -0.000000 0.000000 
0.000000 0.000000 0.000000 

0.000000 0.000000 0.000000 
0.000000 0.000000 0.000000 
0.000000 0.000000 0.000000 

0.000000 0.000000 0.000000 
0.000000 0.000000 0.000000 
0.000000 0.000000 0.000000 

-0.000000 -0.000000 0.000000 
0.000000 0.000000 0.000000 
0.000000 0.000000 0.000000 

-0.000000 -0.000000 0.000000 
0.000000 0.000000 0.000000 
0.000000 0.000000 0.000000 

-0.000000 0.000000 0.000000 
0.000000 0.000000 0.000000 
0.000000 0.000000 0.000000 

-0.000000 0.000000 0.000000 
0.000000 0.000000 0.000000 
0.000000 0.000000 0.000000 

-0.000000 -0.000000 0.000000 
0.000000 0.000000 0.000000 
0.000000 0.000000 0.000000 

0.000000 0.000000 0.000000 
0.000000 -0.000000 0.000000 
0.000000 0.000000 0.000000 

0.000000 0.000000 0.000000 
0.000000 0.000000 0.000000 
0.000000 0.000000 0.000000 

-0.000000 0.000000 0.000000 
0.000000 0.000000 0.000000 
0.000000 0.000000 0.000000 

-0.000000 0.000000 0.000000 
0.000000 0.000000 0.000000 
0.000000 0.000000 0.000000 

-0.000000 0.000000 0.000000 
0.000000 0.000000 0.000000 
0.000000 0.000000 0.000000 

0.000000 0.000000 0.000000 
0.000000 -0.000000 0.000000 
0.000000 0.000000 0.000000 

0.000000 -0.000000 0.000000 
0.000000 -0.000000 0.000000 
0.000000 0.000000 0.000000 

-0.000000 0.000000 0.000000 
0.000000 -0.000000 0.000000 
0.000000 0.000000 0.000000 

-0.000000 0.000000 0.000000 
0.000000 -0.000000 0.000000 
0.000000 0.000000 0.000000 

-0.000000 0.000000 0.000000 
0.000000 -0.000000 0.000000 
0.000000 0.000000 0.000000 

0.000000 0.000000 0.000000 
0.000000 0.000000 0.000000 
0.000000 0.000000 0.000000 

-0.000000 -0.000000 0.000000 
0.000000 -0.000000 0.000000 
0.000000 0.000000 0.000000 

-0.000000 0.000000 0.000000 
0.000000 -0.000000 0.000000 
0.000000 0.000000 0.000000 

-0.000000 0.000000 0.000000 
0.000000 -0.000000 0.000000 
0.000000 0.000000 0.000000 

0.000000 -0.000000 0.000000 
0.000000 0.000000 0.000000 
0.000000 0.000000 0.000000 

0.000000 -0.000000 0.000000 
0.000000 0.000000 0.000000 
0.000000 0.000000 0.000000 

0.000000 -0.000000 0.000000 
0.000000 0.000000 0.000000 
0.000000 0.000000 0.000000 

-0.000000 -0.000000 0.000000 
0.000000 0.000000 0.000000 
0.000000 0.000000 0.000000 

-0.000000 -0.000000 0.000000 
0.000000 0.000000 0.000000 
0.000000 0.000000 0.000000 

0.000000 0.000000 0.000000 
0.000000 0.000000 0.000000 
0.000000 0.000000 0.000000 

-0.000000 0.000000 0.000000 
0.000000 0.000000 0.000000 
0.000000 0.000000 0.000000 

-0.000000 0.000000 0.000000 
0.000000 0.000000 0.000000 
0.000000 0.000000 0.000000 

0.000000 0.000000 0.000000 
0.000000 -0.000000 0.000000 
0.000000 0.000000 0.000000 

0.000000 0.000000 0.000000 
0.000000 -0.000000 0.000000 
0.000000 0.000000 0.000000 

0.000000 0.000000 0.000000 
0.000000 -0.000000 0.000000 
0.000000 0.000000 0.000000 

-0.000000 0.000000 0.000000 
0.000000 0.000000 0.000000 
0.000000 0.000000 0.000000 

-0.000000 0.000000 0.000000 
0.000000 0.000000 0.000000 
0.000000 0.000000 0.000000 

-0.000000 0.000000 0.000000 
0.000000 0.000000 0.000000 
0.000000 0.000000 0.000000 

-0.000000 0.000000 0.000000 
0.000000 0.000000 0.000000 
0.000000 0.000000 0.000000 

-0.000000 0.000000 0.000000 
0.000000 0.000000 0.000000 
0.000000 0.000000 0.000000 

-0.000000 -0.000000 0.000000 
0.000000 0.000000 0.000000 
0.000000 0.000000 0.000000 

-0.000000 -0.000000 0.000000 
0.000000 0.000000 0.000000 
0.000000 0.000000 0.000000 

0.000000 -0.000000 0.000000 
0.000000 0.000000 0.000000 
0.000000 0.000000 0.000000 

0.000000 0.000000 0.000000 
0.000000 -0.000000 0.000000 
0.000000 0.000000 0.000000 

0.000000 0.000000 0.000000 
0.000000 -0.000000 0.000000 
0.000000 0.000000 0.000000 

0.000000 0.000000 0.000000 
0.000000 -0.000000 0.000000 
0.000000 0.000000 0.000000 

0.000000 0.000000 0.000000 
0.000000 -0.000000 0.000000 
0.000000 0.000000 0.000000 

0.000000 0.000000 0.000000 
0.000000 -0.000000 0.000000 
0.000000 0.000000 0.000000 

0.000000 -0.000000 0.000000 
0.000000 -0.000000 0.000000 
0.000000 0.000000 0.000000 

-0.000000 0.000000 0.000000 
0.000000 -0.000000 0.000000 
0.000000 0.000000 0.000000 

-0.000000 0.000000 0.000000 
0.000000 -0.000000 0.000000 
0.000000 0.000000 0.000000 

0.000000 0.000000 0.000000 
0.000000 -0.000000 0.000000 
0.000000 0.000000 0.000000 

0.000000 0.000000 0.000000 
0.000000 0.000000 0.000000 
0.000000 0.000000 0.000000 

0.000000 0.000000 0.000000 
0.000000 0.000000 0.000000 
0.000000 0.000000 0.000000 

0.000000 0.000000 0.000000 
0.000000 0.000000 0.000000 
0.000000 0.000000 0.000000 

0.000000 0.000000 0.000000 
0.000000 0.000000 0.000000 
0.000000 0.000000 0.000000 

-0.000000 -0.000000 0.000000 
0.000000 0.000000 0.000000 
0.000000 0.000000 0.000000 

-0.000000 -0.000000 0.000000 
0.000000 -0.000000 0.000000 
0.000000 0.000000 0.000000 

-0.000000 -0.000000 0.000000 
0.000000 0.000000 0.000000 
0.000000 0.000000 0.000000 

0.000000 0.000000 0.000000 
0.000000 -0.000000 0.000000 
0.000000 0.000000 0.000000 

0.000000 0.000000 0.000000 
0.000000 -0.000000 0.000000 
0.000000 0.000000 0.000000 

-0.000000 0.000000 0.000000 
0.000000 0.000000 0.000000 
0.000000 0.000000 0.000000 

-0.000000 0.000000 0.000000 
0.000000 -0.000000 0.000000 
0.000000 0.000000 0.000000 

0.000000 0.000000 0.000000 
0.000000 -0.000000 0.000000 
0.000000 0.000000 0.000000 

0.000000 0.000000 0.000000 
0.000000 0.000000 0.000000 
0.000000 0.000000 0.000000 

0.000000 0.000000 0.000000 
0.000000 0.000000 0.000000 
0.000000 0.000000 0.000000 

0.000000 -0.000000 0.000000 
0.000000 -0.000000 0.000000 
0.000000 0.000000 0.000000 

-0.000000 0.000000 0.000000 
0.000000 -0.000000 0.000000 
0.000000 0.000000 0.000000 

-0.000000 0.000000 0.000000 
0.000000 -0.000000 0.000000 
0.000000 0.000000 0.000000 

-0.000000 0.000000 0.000000 
0.000000 0.000000 0.000000 
0.000000 0.000000 0.000000 

-0.000000 0.000000 0.000000 
0.000000 0.000000 0.000000 
0.000000 0.000000 0.000000 

-0.000000 -0.000000 0.000000 
0.000000 0.000000 0.000000 
0.000000 0.000000 0.000000 

-0.000000 0.000000 0.000000 
0.000000 0.000000 0.000000 
0.000000 0.000000 0.000000 

-0.000000 -0.000000 0.000000 
0.000000 0.000000 0.000000 
0.000000 0.000000 0.000000 

-0.000000 0.000000 0.000000 
0.000000 -0.000000 0.000000 
0.000000 0.000000 0.000000 

-0.000000 0.000000 0.000000 
0.000000 -0.000000 0.000000 
0.000000 0.000000 0.000000 

-0.000000 0.000000 0.000000 
0.000000 -0.000000 0.000000 
0.000000 0.000000 0.000000 

-0.000000 0.000000 0.000000 
0.000000 -0.000000 0.000000 
0.000000 0.000000 0.000000 

0.000000 -0.000000 0.000000 
0.000000 0.000000 0.000000 
0.000000 0.000000 0.000000 

-0.000000 -0.000000 0.000000 
0.000000 0.000000 0.000000 
0.000000 0.000000 0.000000 

-0.000000 -0.000000 0.000000 
0.000000 0.000000 0.000000 
0.000000 0.000000 0.000000 

-0.000000 -0.000000 0.000000 
0.000000 0.000000 0.000000 
0.000000 0.000000 0.000000 

-0.000000 -0.000000 0.000000 
0.000000 -0.000000 0.000000 
0.000000 0.000000 0.000000 

-0.000000 -0.000000 0.000000 
0.000000 0.000000 0.000000 
0.000000 0.000000 0.000000 

-0.000000 0.000000 0.000000 
0.000000 -0.000000 0.000000 
0.000000 0.000000 0.000000 

-0.000000 0.000000 0.000000 
0.000000 0.000000 0.000000 
0.000000 0.000000 0.000000 

-0.000000 -0.000000 0.000000 
0.000000 0.000000 0.000000 
0.000000 0.000000 0.000000 

-0.000000 0.000000 0.000000 
0.000000 0.000000 0.000000 
0.000000 0.000000 0.000000 

-0.000000 0.000000 0.000000 
0.000000 0.000000 0.000000 
0.000000 0.000000 0.000000 

-0.000000 0.000000 0.000000 
0.000000 0.000000 0.000000 
0.000000 0.000000 0.000000 

-0.000000 0.000000 0.000000 
0.000000 -0.000000 0.000000 
0.000000 0.000000 0.000000 

-0.000000 0.000000 0.000000 
0.000000 -0.000000 0.000000 
0.000000 0.000000 0.000000 

-0.000000 0.000000 0.000000 
0.000000 0.000000 0.000000 
0.000000 0.000000 0.000000 

-0.000000 0.000000 0.000000 
0.000000 -0.000000 0.000000 
0.000000 0.000000 0.000000 

-0.000000 -0.000000 0.000000 
0.000000 0.000000 0.000000 
0.000000 0.000000 0.000000 

-0.000000 -0.000000 0.000000 
0.000000 0.000000 0.000000 
0.000000 0.000000 0.000000 

-0.000000 -0.000000 0.000000 
0.000000 0.000000 0.000000 
0.000000 0.000000 0.000000 

-0.000000 -0.000000 0.000000 
0.000000 0.000000 0.000000 
0.000000 0.000000 0.000000 

-0.000000 -0.000000 0.000000 
0.000000 0.000000 0.000000 
0.000000 0.000000 0.000000 

-0.000000 0.000000 0.000000 
0.000000 0.000000 0.000000 
0.000000 0.000000 0.000000 

0.000000 0.000000 0.000000 
0.000000 0.000000 0.000000 
0.000000 0.000000 0.000000 

0.000000 0.000000 0.000000 
0.000000 0.000000 0.000000 
0.000000 0.000000 0.000000 

0.000000 0.000000 0.000000 
0.000000 0.000000 0.000000 
0.000000 0.000000 0.000000 

-0.000000 0.000000 0.000000 
0.000000 -0.000000 0.000000 
0.000000 0.000000 0.000000 

0.000000 -0.000000 0.000000 
0.000000 -0.000000 0.000000 
0.000000 0.000000 0.000000 

0.000000 0.000000 0.000000 
0.000000 -0.000000 0.000000 
0.000000 0.000000 0.000000 

0.000000 -0.000000 0.000000 
0.000000 0.000000 0.000000 
0.000000 0.000000 0.000000 

-0.000000 0.000000 0.000000 
0.000000 0.000000 0.000000 
0.000000 0.000000 0.000000 

-0.000000 0.000000 0.000000 
0.000000 0.000000 0.000000 
0.000000 0.000000 0.000000 

-0.000000 0.000000 0.000000 
0.000000 0.000000 0.000000 
0.000000 0.000000 0.000000 

-0.000000 0.000000 0.000000 
0.000000 -0.000000 0.000000 
0.000000 0.000000 0.000000 

-0.000000 0.000000 0.000000 
0.000000 -0.000000 0.000000 
0.000000 0.000000 0.000000 

-0.000000 0.000000 0.000000 
0.000000 -0.000000 0.000000 
0.000000 0.000000 0.000000 

0.000000 -0.000000 0.000000 
0.000000 0.000000 0.000000 
0.000000 0.000000 0.000000 

0.000000 0.000000 0.000000 
0.000000 -0.000000 0.000000 
0.000000 0.000000 0.000000 

0.000000 0.000000 0.000000 
0.000000 -0.000000 0.000000 
0.000000 0.000000 0.000000 

-0.000000 -0.000000 0.000000 
0.000000 0.000000 0.000000 
0.000000 0.000000 0.000000 

-0.000000 0.000000 0.000000 
0.000000 0.000000 0.000000 
0.000000 0.000000 0.000000 

-0.000000 -0.000000 0.000000 
0.000000 0.000000 0.000000 
0.000000 0.000000 0.000000 

0.000000 -0.000000 0.000000 
0.000000 -0.000000 0.000000 
0.000000 0.000000 0.000000 

0.000000 0.000000 0.000000 
0.000000 -0.000000 0.000000 
0.000000 0.000000 0.000000 

0.000000 0.000000 0.000000 
0.000000 -0.000000 0.000000 
0.000000 0.000000 0.000000 

0.000000 0.000000 0.000000 
0.000000 -0.000000 0.000000 
0.000000 0.000000 0.000000 

0.000000 0.000000 0.000000 
0.000000 0.000000 0.000000 
0.000000 0.000000 0.000000 

0.000000 0.000000 0.000000 
0.000000 -0.000000 0.000000 
0.000000 0.000000 0.000000 

0.000000 0.000000 0.000000 
0.000000 -0.000000 0.000000 
0.000000 0.000000 0.000000 

0.000000 0.000000 0.000000 
0.000000 -0.000000 0.000000 
0.000000 0.000000 0.000000 

0.000000 0.000000 0.000000 
0.000000 -0.000000 0.000000 
0.000000 0.000000 0.000000 

0.000000 -0.000000 0.000000 
0.000000 -0.000000 0.000000 
0.000000 0.000000 0.000000 

-0.000000 -0.000000 0.000000 
0.000000 0.000000 0.000000 
0.000000 0.000000 0.000000 

-0.000000 -0.000000 0.000000 
0.000000 0.000000 0.000000 
0.000000 0.000000 0.000000 

-0.000000 -0.000000 0.000000 
0.000000 0.000000 0.000000 
0.000000 0.000000 0.000000 

-0.000000 -0.000000 0.000000 
0.000000 0.000000 0.000000 
0.000000 0.000000 0.000000 

-0.000000 -0.000000 0.000000 
0.000000 0.000000 0.000000 
0.000000 0.000000 0.000000 

-0.000000 0.000000 0.000000 
0.000000 0.000000 0.000000 
0.000000 0.000000 0.000000 

-0.000000 0.000000 0.000000 
0.000000 0.000000 0.000000 
0.000000 0.000000 0.000000 

-0.000000 0.000000 0.000000 
0.000000 0.000000 0.000000 
0.000000 0.000000 0.000000 

-0.000000 0.000000 0.000000 
0.000000 0.000000 0.000000 
0.000000 0.000000 0.000000 

-0.000000 0.000000 0.000000 
0.000000 0.000000 0.000000 
0.000000 0.000000 0.000000 

0.000000 -0.000000 0.000000 
0.000000 -0.000000 0.000000 
0.000000 0.000000 0.000000 

0.000000 -0.000000 0.000000 
0.000000 0.000000 0.000000 
0.000000 0.000000 0.000000 

0.000000 -0.000000 0.000000 
0.000000 -0.000000 0.000000 
0.000000 0.000000 0.000000 

0.000000 -0.000000 0.000000 
0.000000 -0.000000 0.000000 
0.000000 0.000000 0.000000 

0.000000 -0.000000 0.000000 
0.000000 0.000000 0.000000 
0.000000 0.000000 0.000000 

0.000000 -0.000000 0.000000 
0.000000 0.000000 0.000000 
0.000000 0.000000 0.000000 

0.000000 -0.000000 0.000000 
0.000000 -0.000000 0.000000 
0.000000 0.000000 0.000000 

0.000000 -0.000000 0.000000 
0.000000 -0.000000 0.000000 
0.000000 0.000000 0.000000 

0.000000 -0.000000 0.000000 
0.000000 -0.000000 0.000000 
0.000000 0.000000 0.000000 

-0.000000 0.000000 0.000000 
0.000000 -0.000000 0.000000 
0.000000 0.000000 0.000000 

-0.000000 0.000000 0.000000 
0.000000 0.000000 0.000000 
0.000000 0.000000 0.000000 

-0.000000 0.000000 0.000000 
0.000000 0.000000 0.000000 
0.000000 0.000000 0.000000 

-0.000000 0.000000 0.000000 
0.000000 0.000000 0.000000 
0.000000 0.000000 0.000000 

-0.000000 0.000000 0.000000 
0.000000 0.000000 0.000000 
0.000000 0.000000 0.000000 

-0.000000 -0.000000 0.000000 
0.000000 0.000000 0.000000 
0.000000 0.000000 0.000000 

-0.000000 -0.000000 0.000000 
0.000000 0.000000 0.000000 
0.000000 0.000000 0.000000 

-0.000000 -0.000000 0.000000 
0.000000 -0.000000 0.000000 
0.000000 0.000000 0.000000 

-0.000000 -0.000000 0.000000 
0.000000 0.000000 0.000000 
0.000000 0.000000 0.000000 

-0.000000 -0.000000 0.000000 
0.000000 0.000000 0.000000 
0.000000 0.000000 0.000000 

0.000000 -0.000000 0.000000 
0.000000 0.000000 0.000000 
0.000000 0.000000 0.000000 

0.000000 -0.000000 0.000000 
0.000000 0.000000 0.000000 
0.000000 0.000000 0.000000 

-0.000000 -0.000000 0.000000 
0.000000 0.000000 0.000000 
0.000000 0.000000 0.000000 

-0.000000 -0.000000 0.000000 
0.000000 0.000000 0.000000 
0.000000 0.000000 0.000000 

-0.000000 -0.000000 0.000000 
0.000000 0.000000 0.000000 
0.000000 0.000000 0.000000 

-0.000000 -0.000000 0.000000 
0.000000 0.000000 0.000000 
0.000000 0.000000 0.000000 

-0.000000 -0.000000 0.000000 
0.000000 0.000000 0.000000 
0.000000 0.000000 0.000000 

-0.000000 -0.000000 0.000000 
0.000000 -0.000000 0.000000 
0.000000 0.000000 0.000000 

-0.000000 -0.000000 0.000000 
0.000000 -0.000000 0.000000 
0.000000 0.000000 0.000000 

-0.000000 -0.000000 0.000000 
0.000000 -0.000000 0.000000 
0.000000 0.000000 0.000000 

-0.000000 0.000000 0.000000 
0.000000 -0.000000 0.000000 
0.000000 0.000000 0.000000 

-0.000000 0.000000 0.000000 
0.000000 -0.000000 0.000000 
0.000000 0.000000 0.000000 

-0.000000 -0.000000 0.000000 
0.000000 -0.000000 0.000000 
0.000000 0.000000 0.000000 

-0.000000 0.000000 0.000000 
0.000000 -0.000000 0.000000 
0.000000 0.000000 0.000000 

-0.000000 0.000000 0.000000 
0.000000 -0.000000 0.000000 
0.000000 0.000000 0.000000 

-0.000000 0.000000 0.000000 
0.000000 0.000000 0.000000 
0.000000 0.000000 0.000000 

-0.000000 0.000000 0.000000 
0.000000 0.000000 0.000000 
0.000000 0.000000 0.000000 

-0.000000 -0.000000 0.000000 
0.000000 -0.000000 0.000000 
0.000000 0.000000 0.000000 

-0.000000 -0.000000 0.000000 
0.000000 -0.000000 0.000000 
0.000000 0.000000 0.000000 

-0.000000 0.000000 0.000000 
0.000000 0.000000 0.000000 
0.000000 0.000000 0.000000 

-0.000000 -0.000000 0.000000 
0.000000 -0.000000 0.000000 
0.000000 0.000000 0.000000 

-0.000000 0.000000 0.000000 
0.000000 0.000000 0.000000 
0.000000 0.000000 0.000000 

-0.000000 0.000000 0.000000 
0.000000 0.000000 0.000000 
0.000000 0.000000 0.000000 

-0.000000 0.000000 0.000000 
0.000000 0.000000 0.000000 
0.000000 0.000000 0.000000 

-0.000000 -0.000000 0.000000 
0.000000 0.000000 0.000000 
0.000000 0.000000 0.000000 

0.000000 0.000000 0.000000 
0.000000 0.000000 0.000000 
0.000000 0.000000 0.000000 

-0.000000 -0.000000 0.000000 
0.000000 0.000000 0.000000 
0.000000 0.000000 0.000000 

-0.000000 -0.000000 0.000000 
0.000000 0.000000 0.000000 
0.000000 0.000000 0.000000 

-0.000000 -0.000000 0.000000 
0.000000 -0.000000 0.000000 
0.000000 0.000000 0.000000 

-0.000000 -0.000000 0.000000 
0.000000 0.000000 0.000000 
0.000000 0.000000 0.000000 

-0.000000 0.000000 0.000000 
0.000000 -0.000000 0.000000 
0.000000 0.000000 0.000000 

-0.000000 -0.000000 0.000000 
0.000000 -0.000000 0.000000 
0.000000 0.000000 0.000000 

-0.000000 -0.000000 0.000000 
0.000000 -0.000000 0.000000 
0.000000 0.000000 0.000000 

0.000000 -0.000000 0.000000 
0.000000 -0.000000 0.000000 
0.000000 0.000000 0.000000 

0.000000 -0.000000 0.000000 
0.000000 0.000000 0.000000 
0.000000 0.000000 0.000000 

0.000000 0.000000 0.000000 
0.000000 0.000000 0.000000 
0.000000 0.000000 0.000000 

0.000000 0.000000 0.000000 
0.000000 -0.000000 0.000000 
0.000000 0.000000 0.000000 

0.000000 -0.000000 0.000000 
0.000000 0.000000 0.000000 
0.000000 0.000000 0.000000 

-0.000000 0.000000 0.000000 
0.000000 0.000000 0.000000 
0.000000 0.000000 0.000000 

-0.000000 -0.000000 0.000000 
0.000000 -0.000000 0.000000 
0.000000 0.000000 0.000000 

-0.000000 0.000000 0.000000 
0.000000 0.000000 0.000000 
0.000000 0.000000 0.000000 

-0.000000 0.000000 0.000000 
0.000000 0.000000 0.000000 
0.000000 0.000000 0.000000 

0.000000 -0.000000 0.000000 
0.000000 -0.000000 0.000000 
0.000000 0.000000 0.000000 

-0.000000 -0.000000 0.000000 
0.000000 0.000000 0.000000 
0.000000 0.000000 0.000000 

0.000000 -0.000000 0.000000 
0.000000 0.000000 0.000000 
0.000000 0.000000 0.000000 

-0.000000 -0.000000 0.000000 
0.000000 0.000000 0.000000 
0.000000 0.000000 0.000000 

0.000000 -0.000000 0.000000 
0.000000 0.000000 0.000000 
0.000000 0.000000 0.000000 

-0.000000 -0.000000 0.000000 
0.000000 0.000000 0.000000 
0.000000 0.000000 0.000000 

-0.000000 -0.000000 0.000000 
0.000000 0.000000 0.000000 
0.000000 0.000000 0.000000 

-0.000000 0.000000 0.000000 
0.000000 0.000000 0.000000 
0.000000 0.000000 0.000000 

-0.000000 -0.000000 0.000000 
0.000000 0.000000 0.000000 
0.000000 0.000000 0.000000 

-0.000000 0.000000 0.000000 
0.000000 0.000000 0.000000 
0.000000 0.000000 0.000000 

-0.000000 0.000000 0.000000 
0.000000 0.000000 0.000000 
0.000000 0.000000 0.000000 

-0.000000 0.000000 0.000000 
0.000000 0.000000 0.000000 
0.000000 0.000000 0.000000 

-0.000000 -0.000000 0.000000 
0.000000 0.000000 0.000000 
0.000000 0.000000 0.000000 

-0.000000 0.000000 0.000000 
0.000000 0.000000 0.000000 
0.000000 0.000000 0.000000 

-0.000000 -0.000000 0.000000 
0.000000 -0.000000 0.000000 
0.000000 0.000000 0.000000 

-0.000000 0.000000 0.000000 
0.000000 0.000000 0.000000 
0.000000 0.000000 0.000000 

-0.000000 -0.000000 0.000000 
0.000000 -0.000000 0.000000 
0.000000 0.000000 0.000000 

-0.000000 -0.000000 0.000000 
0.000000 0.000000 0.000000 
0.000000 0.000000 0.000000 

-0.000000 -0.000000 0.000000 
0.000000 -0.000000 0.000000 
0.000000 0.000000 0.000000 

-0.000000 -0.000000 0.000000 
0.000000 -0.000000 0.000000 
0.000000 0.000000 0.000000 

-0.000000 -0.000000 0.000000 
0.000000 -0.000000 0.000000 
0.000000 0.000000 0.000000 

-0.000000 -0.000000 0.000000 
0.000000 -0.000000 0.000000 
0.000000 0.000000 0.000000 

-0.000000 -0.000000 0.000000 
0.000000 -0.000000 0.000000 
0.000000 0.000000 0.000000 

-0.000000 -0.000000 0.000000 
0.000000 -0.000000 0.000000 
0.000000 0.000000 0.000000 

0.000000 0.000000 0.000000 
0.000000 -0.000000 0.000000 
0.000000 0.000000 0.000000 

0.000000 0.000000 0.000000 
0.000000 -0.000000 0.000000 
0.000000 0.000000 0.000000 

0.000000 0.000000 0.000000 
0.000000 -0.000000 0.000000 
0.000000 0.000000 0.000000 

0.000000 0.000000 0.000000 
0.000000 -0.000000 0.000000 
0.000000 0.000000 0.000000 

-0.000000 -0.000000 0.000000 
0.000000 -0.000000 0.000000 
0.000000 0.000000 0.000000 

-0.000000 -0.000000 0.000000 
0.000000 0.000000 0.000000 
0.000000 0.000000 0.000000 

-0.000000 -0.000000 0.000000 
0.000000 0.000000 0.000000 
0.000000 0.000000 0.000000 

-0.000000 0.000000 0.000000 
0.000000 0.000000 0.000000 
0.000000 0.000000 0.000000 

-0.000000 0.000000 0.000000 
0.000000 0.000000 0.000000 
0.000000 0.000000 0.000000 

-0.000000 0.000000 0.000000 
0.000000 0.000000 0.000000 
0.000000 0.000000 0.000000 

-0.000000 0.000000 0.000000 
0.000000 0.000000 0.000000 
0.000000 0.000000 0.000000 

-0.000000 0.000000 0.000000 
0.000000 0.000000 0.000000 
0.000000 0.000000 0.000000 

-0.000000 0.000000 0.000000 
0.000000 -0.000000 0.000000 
0.000000 0.000000 0.000000 

-0.000000 0.000000 0.000000 
0.000000 -0.000000 0.000000 
0.000000 0.000000 0.000000 

-0.000000 0.000000 0.000000 
0.000000 -0.000000 0.000000 
0.000000 0.000000 0.000000 

-0.000000 0.000000 0.000000 
0.000000 0.000000 0.000000 
0.000000 0.000000 0.000000 

-0.000000 -0.000000 0.000000 
0.000000 0.000000 0.000000 
0.000000 0.000000 0.000000 

-0.000000 -0.000000 0.000000 
0.000000 0.000000 0.000000 
0.000000 0.000000 0.000000 

-0.000000 0.000000 0.000000 
0.000000 -0.000000 0.000000 
0.000000 0.000000 0.000000 

0.000000 0.000000 0.000000 
0.000000 -0.000000 0.000000 
0.000000 0.000000 0.000000 

-0.000000 0.000000 0.000000 
0.000000 -0.000000 0.000000 
0.000000 0.000000 0.000000 

-0.000000 0.000000 0.000000 
0.000000 -0.000000 0.000000 
0.000000 0.000000 0.000000 

-0.000000 0.000000 0.000000 
0.000000 -0.000000 0.000000 
0.000000 0.000000 0.000000 

-0.000000 0.000000 0.000000 
0.000000 0.000000 0.000000 
0.000000 0.000000 0.000000 

-0.000000 -0.000000 0.000000 
0.000000 0.000000 0.000000 
0.000000 0.000000 0.000000 

-0.000000 -0.000000 0.000000 
0.000000 -0.000000 0.000000 
0.000000 0.000000 0.000000 

0.000000 0.000000 0.000000 
0.000000 -0.000000 0.000000 
0.000000 0.000000 0.000000 

0.000000 0.000000 0.000000 
0.000000 -0.000000 0.000000 
0.000000 0.000000 0.000000 

0.000000 -0.000000 0.000000 
0.000000 0.000000 0.000000 
0.000000 0.000000 0.000000 

-0.000000 -0.000000 0.000000 
0.000000 -0.000000 0.000000 
0.000000 0.000000 0.000000 

0.000000 0.000000 0.000000 
0.000000 -0.000000 0.000000 
0.000000 0.000000 0.000000 

0.000000 0.000000 0.000000 
0.000000 -0.000000 0.000000 
0.000000 0.000000 0.000000 

-0.000000 -0.000000 0.000000 
0.000000 0.000000 0.000000 
0.000000 0.000000 0.000000 

-0.000000 -0.000000 0.000000 
0.000000 -0.000000 0.000000 
0.000000 0.000000 0.000000 

-0.000000 0.000000 0.000000 
0.000000 0.000000 0.000000 
0.000000 0.000000 0.000000 

-0.000000 0.000000 0.000000 
0.000000 0.000000 0.000000 
0.000000 0.000000 0.000000 

-0.000000 0.000000 0.000000 
0.000000 0.000000 0.000000 
0.000000 0.000000 0.000000 

-0.000000 0.000000 0.000000 
0.000000 -0.000000 0.000000 
0.000000 0.000000 0.000000 

-0.000000 -0.000000 0.000000 
0.000000 0.000000 0.000000 
0.000000 0.000000 0.000000 

-0.000000 -0.000000 0.000000 
0.000000 0.000000 0.000000 
0.000000 0.000000 0.000000 

-0.000000 0.000000 0.000000 
0.000000 0.000000 0.000000 
0.000000 0.000000 0.000000 

-0.000000 -0.000000 0.000000 
0.000000 0.000000 0.000000 
0.000000 0.000000 0.000000 

0.000000 0.000000 0.000000 
0.000000 -0.000000 0.000000 
0.000000 0.000000 0.000000 

0.000000 0.000000 0.000000 
0.000000 -0.000000 0.000000 
0.000000 0.000000 0.000000 

0.000000 0.000000 0.000000 
0.000000 0.000000 0.000000 
0.000000 0.000000 0.000000 

0.000000 0.000000 0.000000 
0.000000 -0.000000 0.000000 
0.000000 0.000000 0.000000 

-0.000000 -0.000000 0.000000 
0.000000 -0.000000 0.000000 
0.000000 0.000000 0.000000 

-0.000000 -0.000000 0.000000 
0.000000 -0.000000 0.000000 
0.000000 0.000000 0.000000 

0.000000 0.000000 0.000000 
0.000000 -0.000000 0.000000 
0.000000 0.000000 0.000000 

0.000000 0.000000 0.000000 
0.000000 0.000000 0.000000 
0.000000 0.000000 0.000000 

0.000000 0.000000 0.000000 
0.000000 0.000000 0.000000 
0.000000 0.000000 0.000000 

0.000000 0.000000 0.000000 
0.000000 -0.000000 0.000000 
0.000000 0.000000 0.000000 

0.000000 0.000000 0.000000 
0.000000 0.000000 0.000000 
0.000000 0.000000 0.000000 

0.000000 0.000000 0.000000 
0.000000 0.000000 0.000000 
0.000000 0.000000 0.000000 

0.000000 0.000000 0.000000 
0.000000 -0.000000 0.000000 
0.000000 0.000000 0.000000 

0.000000 0.000000 0.000000 
0.000000 0.000000 0.000000 
0.000000 0.000000 0.000000 

0.000000 0.000000 0.000000 
0.000000 -0.000000 0.000000 
0.000000 0.000000 0.000000 

0.000000 0.000000 0.000000 
0.000000 -0.000000 0.000000 
0.000000 0.000000 0.000000 

0.000000 0.000000 0.000000 
0.000000 -0.000000 0.000000 
0.000000 0.000000 0.000000 

0.000000 0.000000 0.000000 
0.000000 -0.000000 0.000000 
0.000000 0.000000 0.000000 

0.000000 -0.000000 0.000000 
0.000000 -0.000000 0.000000 
0.000000 0.000000 0.000000 

-0.000000 -0.000000 0.000000 
0.000000 -0.000000 0.000000 
0.000000 0.000000 0.000000 

-0.000000 -0.000000 0.000000 
0.000000 0.000000 0.000000 
0.000000 0.000000 0.000000 

-0.000000 -0.000000 0.000000 
0.000000 0.000000 0.000000 
0.000000 0.000000 0.000000 

0.000000 0.000000 0.000000 
0.000000 -0.000000 0.000000 
0.000000 0.000000 0.000000 

0.000000 0.000000 0.000000 
0.000000 -0.000000 0.000000 
0.000000 0.000000 0.000000 

0.000000 0.000000 0.000000 
0.000000 -0.000000 0.000000 
0.000000 0.000000 0.000000 

0.000000 0.000000 0.000000 
0.000000 0.000000 0.000000 
0.000000 0.000000 0.000000 

0.000000 0.000000 0.000000 
0.000000 0.000000 0.000000 
0.000000 0.000000 0.000000 

-0.000000 0.000000 0.000000 
0.000000 0.000000 0.000000 
0.000000 0.000000 0.000000 

-0.000000 0.000000 0.000000 
0.000000 0.000000 0.000000 
0.000000 0.000000 0.000000 

-0.000000 -0.000000 0.000000 
0.000000 0.000000 0.000000 
0.000000 0.000000 0.000000 

-0.000000 -0.000000 0.000000 
0.000000 0.000000 0.000000 
0.000000 0.000000 0.000000 

-0.000000 0.000000 0.000000 
0.000000 -0.000000 0.000000 
0.000000 0.000000 0.000000 

-0.000000 0.000000 0.000000 
0.000000 -0.000000 0.000000 
0.000000 0.000000 0.000000 

0.000000 0.000000 0.000000 
0.000000 -0.000000 0.000000 
0.000000 0.000000 0.000000 

-0.000000 -0.000000 0.000000 
0.000000 0.000000 0.000000 
0.000000 0.000000 0.000000 

0.000000 -0.000000 0.000000 
0.000000 0.000000 0.000000 
0.000000 0.000000 0.000000 

0.000000 0.000000 0.000000 
0.000000 -0.000000 0.000000 
0.000000 0.000000 0.000000 

-0.000000 0.000000 0.000000 
0.000000 0.000000 0.000000 
0.000000 0.000000 0.000000 

-0.000000 0.000000 0.000000 
0.000000 0.000000 0.000000 
0.000000 0.000000 0.000000 

-0.000000 0.000000 0.000000 
0.000000 0.000000 0.000000 
0.000000 0.000000 0.000000 

-0.000000 -0.000000 0.000000 
0.000000 0.000000 0.000000 
0.000000 0.000000 0.000000 

-0.000000 -0.000000 0.000000 
0.000000 -0.000000 0.000000 
0.000000 0.000000 0.000000 

-0.000000 -0.000000 0.000000 
0.000000 -0.000000 0.000000 
0.000000 0.000000 0.000000 

-0.000000 0.000000 0.000000 
0.000000 -0.000000 0.000000 
0.000000 0.000000 0.000000 

0.000000 -0.000000 0.000000 
0.000000 0.000000 0.000000 
0.000000 0.000000 0.000000 

0.000000 -0.000000 0.000000 
0.000000 -0.000000 0.000000 
0.000000 0.000000 0.000000 

0.000000 0.000000 0.000000 
0.000000 0.000000 0.000000 
0.000000 0.000000 0.000000 

-0.000000 0.000000 0.000000 
0.000000 0.000000 0.000000 
0.000000 0.000000 0.000000 

-0.000000 0.000000 0.000000 
0.000000 0.000000 0.000000 
0.000000 0.000000 0.000000 

-0.000000 0.000000 0.000000 
0.000000 0.000000 0.000000 
0.000000 0.000000 0.000000 

-0.000000 0.000000 0.000000 
0.000000 0.000000 0.000000 
0.000000 0.000000 0.000000 

-0.000000 -0.000000 0.000000 
0.000000 0.000000 0.000000 
0.000000 0.000000 0.000000 

-0.000000 -0.000000 0.000000 
0.000000 -0.000000 0.000000 
0.000000 0.000000 0.000000 

-0.000000 -0.000000 0.000000 
0.000000 0.000000 0.000000 
0.000000 0.000000 0.000000 

-0.000000 -0.000000 0.000000 
0.000000 0.000000 0.000000 
0.000000 0.000000 0.000000 

-0.000000 0.000000 0.000000 
0.000000 0.000000 0.000000 
0.000000 0.000000 0.000000 

-0.000000 -0.000000 0.000000 
0.000000 0.000000 0.000000 
0.000000 0.000000 0.000000 

-0.000000 -0.000000 0.000000 
0.000000 0.000000 0.000000 
0.000000 0.000000 0.000000 

-0.000000 0.000000 0.000000 
0.000000 0.000000 0.000000 
0.000000 0.000000 0.000000 

-0.000000 0.000000 0.000000 
0.000000 0.000000 0.000000 
0.000000 0.000000 0.000000 

-0.000000 0.000000 0.000000 
0.000000 -0.000000 0.000000 
0.000000 0.000000 0.000000 

-0.000000 0.000000 0.000000 
0.000000 -0.000000 0.000000 
0.000000 0.000000 0.000000 

-0.000000 0.000000 0.000000 
0.000000 0.000000 0.000000 
0.000000 0.000000 0.000000 

-0.000000 0.000000 0.000000 
0.000000 -0.000000 0.000000 
0.000000 0.000000 0.000000 

-0.000000 -0.000000 0.000000 
0.000000 0.000000 0.000000 
0.000000 0.000000 0.000000 

-0.000000 -0.000000 0.000000 
0.000000 -0.000000 0.000000 
0.000000 0.000000 0.000000 

-0.000000 -0.000000 0.000000 
0.000000 0.000000 0.000000 
0.000000 0.000000 0.000000 

-0.000000 0.000000 0.000000 
0.000000 0.000000 0.000000 
0.000000 0.000000 0.000000 

-0.000000 -0.000000 0.000000 
0.000000 0.000000 0.000000 
0.000000 0.000000 0.000000 

-0.000000 -0.000000 0.000000 
0.000000 0.000000 0.000000 
0.000000 0.000000 0.000000 

-0.000000 0.000000 0.000000 
0.000000 0.000000 0.000000 
0.000000 0.000000 0.000000 

-0.000000 0.000000 0.000000 
0.000000 0.000000 0.000000 
0.000000 0.000000 0.000000 

-0.000000 0.000000 0.000000 
0.000000 0.000000 0.000000 
0.000000 0.000000 0.000000 

-0.000000 0.000000 0.000000 
0.000000 -0.000000 0.000000 
0.000000 0.000000 0.000000 

-0.000000 0.000000 0.000000 
0.000000 -0.000000 0.000000 
0.000000 0.000000 0.000000 

-0.000000 -0.000000 0.000000 
0.000000 -0.000000 0.000000 
0.000000 0.000000 0.000000 

-0.000000 -0.000000 0.000000 
0.000000 -0.000000 0.000000 
0.000000 0.000000 0.000000 

-0.000000 0.000000 0.000000 
0.000000 0.000000 0.000000 
0.000000 0.000000 0.000000 

0.000000 -0.000000 0.000000 
0.000000 0.000000 0.000000 
0.000000 0.000000 0.000000 

0.000000 0.000000 0.000000 
0.000000 -0.000000 0.000000 
0.000000 0.000000 0.000000 

-0.000000 0.000000 0.000000 
0.000000 0.000000 0.000000 
0.000000 0.000000 0.000000 

0.000000 0.000000 0.000000 
0.000000 -0.000000 0.000000 
0.000000 0.000000 0.000000 

0.000000 0.000000 0.000000 
0.000000 -0.000000 0.000000 
0.000000 0.000000 0.000000 

-0.000000 0.000000 0.000000 
0.000000 -0.000000 0.000000 
0.000000 0.000000 0.000000 

-0.000000 0.000000 0.000000 
0.000000 -0.000000 0.000000 
0.000000 0.000000 0.000000 

0.000000 0.000000 0.000000 
0.000000 -0.000000 0.000000 
0.000000 0.000000 0.000000 

0.000000 0.000000 0.000000 
0.000000 -0.000000 0.000000 
0.000000 0.000000 0.000000 

0.000000 0.000000 0.000000 
0.000000 -0.000000 0.000000 
0.000000 0.000000 0.000000 

-0.000000 -0.000000 0.000000 
0.000000 0.000000 0.000000 
0.000000 0.000000 0.000000 

-0.000000 0.000000 0.000000 
0.000000 0.000000 0.000000 
0.000000 0.000000 0.000000 

-0.000000 0.000000 0.000000 
0.000000 0.000000 0.000000 
0.000000 0.000000 0.000000 

-0.000000 -0.000000 0.000000 
0.000000 -0.000000 0.000000 
0.000000 0.000000 0.000000 

-0.000000 -0.000000 0.000000 
0.000000 0.000000 0.000000 
0.000000 0.000000 0.000000 

-0.000000 -0.000000 0.000000 
0.000000 0.000000 0.000000 
0.000000 0.000000 0.000000 

0.000000 -0.000000 0.000000 
0.000000 -0.000000 0.000000 
0.000000 0.000000 0.000000 

-0.000000 -0.000000 0.000000 
0.000000 -0.000000 0.000000 
0.000000 0.000000 0.000000 

-0.000000 -0.000000 0.000000 
0.000000 0.000000 0.000000 
0.000000 0.000000 0.000000 

-0.000000 -0.000000 0.000000 
0.000000 -0.000000 0.000000 
0.000000 0.000000 0.000000 

-0.000000 -0.000000 0.000000 
0.000000 -0.000000 0.000000 
0.000000 0.000000 0.000000 

-0.000000 -0.000000 0.000000 
0.000000 -0.000000 0.000000 
0.000000 0.000000 0.000000 

-0.000000 -0.000000 0.000000 
0.000000 0.000000 0.000000 
0.000000 0.000000 0.000000 

-0.000000 -0.000000 0.000000 
0.000000 -0.000000 0.000000 
0.000000 0.000000 0.000000 

0.000000 0.000000 0.000000 
0.000000 0.000000 0.000000 
0.000000 0.000000 0.000000 

0.000000 0.000000 0.000000 
0.000000 -0.000000 0.000000 
0.000000 0.000000 0.000000 

-0.000000 -0.000000 0.000000 
0.000000 -0.000000 0.000000 
0.000000 0.000000 0.000000 

-0.000000 -0.000000 0.000000 
0.000000 0.000000 0.000000 
0.000000 0.000000 0.000000 

-0.000000 -0.000000 0.000000 
0.000000 0.000000 0.000000 
0.000000 0.000000 0.000000 

-0.000000 -0.000000 0.000000 
0.000000 0.000000 0.000000 
0.000000 0.000000 0.000000 

-0.000000 0.000000 0.000000 
0.000000 0.000000 0.000000 
0.000000 0.000000 0.000000 

-0.000000 0.000000 0.000000 
0.000000 0.000000 0.000000 
0.000000 0.000000 0.000000 

-0.000000 0.000000 0.000000 
0.000000 0.000000 0.000000 
0.000000 0.000000 0.000000 

-0.000000 -0.000000 0.000000 
0.000000 -0.000000 0.000000 
0.000000 0.000000 0.000000 

-0.000000 -0.000000 0.000000 
0.000000 0.000000 0.000000 
0.000000 0.000000 0.000000 

-0.000000 -0.000000 0.000000 
0.000000 -0.000000 0.000000 
0.000000 0.000000 0.000000 

-0.000000 0.000000 0.000000 
0.000000 0.000000 0.000000 
0.000000 0.000000 0.000000 

-0.000000 -0.000000 0.000000 
0.000000 -0.000000 0.000000 
0.000000 0.000000 0.000000 

-0.000000 -0.000000 0.000000 
0.000000 -0.000000 0.000000 
0.000000 0.000000 0.000000 

-0.000000 -0.000000 0.000000 
0.000000 -0.000000 0.000000 
0.000000 0.000000 0.000000 

-0.000000 0.000000 0.000000 
0.000000 -0.000000 0.000000 
0.000000 0.000000 0.000000 

-0.000000 -0.000000 0.000000 
0.000000 -0.000000 0.000000 
0.000000 0.000000 0.000000 

-0.000000 0.000000 0.000000 
0.000000 -0.000000 0.000000 
0.000000 0.000000 0.000000 

-0.000000 0.000000 0.000000 
0.000000 -0.000000 0.000000 
0.000000 0.000000 0.000000 

-0.000000 0.000000 0.000000 
0.000000 -0.000000 0.000000 
0.000000 0.000000 0.000000 

-0.000000 0.000000 0.000000 
0.000000 -0.000000 0.000000 
0.000000 0.000000 0.000000 

-0.000000 0.000000 0.000000 
0.000000 -0.000000 0.000000 
0.000000 0.000000 0.000000 

-0.000000 0.000000 0.000000 
0.000000 -0.000000 0.000000 
0.000000 0.000000 0.000000 

-0.000000 -0.000000 0.000000 
0.000000 0.000000 0.000000 
0.000000 0.000000 0.000000 

0.000000 -0.000000 0.000000 
0.000000 -0.000000 0.000000 
0.000000 0.000000 0.000000 

-0.000000 0.000000 0.000000 
0.000000 0.000000 0.000000 
0.000000 0.000000 0.000000 

-0.000000 -0.000000 0.000000 
0.000000 0.000000 0.000000 
0.000000 0.000000 0.000000 

-0.000000 0.000000 0.000000 
0.000000 0.000000 0.000000 
0.000000 0.000000 0.000000 

0.000000 -0.000000 0.000000 
0.000000 0.000000 0.000000 
0.000000 0.000000 0.000000 

-0.000000 -0.000000 0.000000 
0.000000 -0.000000 0.000000 
0.000000 0.000000 0.000000 

-0.000000 -0.000000 0.000000 
0.000000 -0.000000 0.000000 
0.000000 0.000000 0.000000 

0.000000 -0.000000 0.000000 
0.000000 -0.000000 0.000000 
0.000000 0.000000 0.000000 

0.000000 -0.000000 0.000000 
0.000000 -0.000000 0.000000 
0.000000 0.000000 0.000000 

-0.000000 -0.000000 0.000000 
0.000000 -0.000000 0.000000 
0.000000 0.000000 0.000000 

-0.000000 -0.000000 0.000000 
0.000000 -0.000000 0.000000 
0.000000 0.000000 0.000000 

0.000000 0.000000 0.000000 
0.000000 0.000000 0.000000 
0.000000 0.000000 0.000000 

0.000000 -0.000000 0.000000 
0.000000 -0.000000 0.000000 
0.000000 0.000000 0.000000 

0.000000 -0.000000 0.000000 
0.000000 0.000000 0.000000 
0.000000 0.000000 0.000000 

0.000000 -0.000000 0.000000 
0.000000 -0.000000 0.000000 
0.000000 0.000000 0.000000 

-0.000000 -0.000000 0.000000 
0.000000 -0.000000 0.000000 
0.000000 0.000000 0.000000 

-0.000000 -0.000000 0.000000 
0.000000 -0.000000 0.000000 
0.000000 0.000000 0.000000 

-0.000000 -0.000000 0.000000 
0.000000 -0.000000 0.000000 
0.000000 0.000000 0.000000 

-0.000000 0.000000 0.000000 
0.000000 -0.000000 0.000000 
0.000000 0.000000 0.000000 

-0.000000 -0.000000 0.000000 
0.000000 -0.000000 0.000000 
0.000000 0.000000 0.000000 

-0.000000 0.000000 0.000000 
0.000000 0.000000 0.000000 
0.000000 0.000000 0.000000 

-0.000000 0.000000 0.000000 
0.000000 0.000000 0.000000 
0.000000 0.000000 0.000000 

-0.000000 -0.000000 0.000000 
0.000000 -0.000000 0.000000 
0.000000 0.000000 0.000000 

-0.000000 -0.000000 0.000000 
0.000000 0.000000 0.000000 
0.000000 0.000000 0.000000 

-0.000000 -0.000000 0.000000 
0.000000 0.000000 0.000000 
0.000000 0.000000 0.000000 

-0.000000 -0.000000 0.000000 
0.000000 0.000000 0.000000 
0.000000 0.000000 0.000000 

-0.000000 -0.000000 0.000000 
0.000000 0.000000 0.000000 
0.000000 0.000000 0.000000 

0.000000 -0.000000 0.000000 
0.000000 0.000000 0.000000 
0.000000 0.000000 0.000000 

0.000000 -0.000000 0.000000 
0.000000 0.000000 0.000000 
0.000000 0.000000 0.000000 

-0.000000 0.000000 0.000000 
0.000000 0.000000 0.000000 
0.000000 0.000000 0.000000 

-0.000000 0.000000 0.000000 
0.000000 0.000000 0.000000 
0.000000 0.000000 0.000000 

-0.000000 -0.000000 0.000000 
0.000000 -0.000000 0.000000 
0.000000 0.000000 0.000000 

-0.000000 -0.000000 0.000000 
0.000000 -0.000000 0.000000 
0.000000 0.000000 0.000000 

-0.000000 -0.000000 0.000000 
0.000000 -0.000000 0.000000 
0.000000 0.000000 0.000000 

-0.000000 -0.000000 0.000000 
0.000000 -0.000000 0.000000 
0.000000 0.000000 0.000000 

-0.000000 0.000000 0.000000 
0.000000 -0.000000 0.000000 
0.000000 0.000000 0.000000 

-0.000000 0.000000 0.000000 
0.000000 -0.000000 0.000000 
0.000000 0.000000 0.000000 

-0.000000 0.000000 0.000000 
0.000000 0.000000 0.000000 
0.000000 0.000000 0.000000 

-0.000000 -0.000000 0.000000 
0.000000 0.000000 0.000000 
0.000000 0.000000 0.000000 

-0.000000 0.000000 0.000000 
0.000000 0.000000 0.000000 
0.000000 0.000000 0.000000 

0.000000 0.000000 0.000000 
0.000000 0.000000 0.000000 
0.000000 0.000000 0.000000 

0.000000 0.000000 0.000000 
0.000000 0.000000 0.000000 
0.000000 0.000000 0.000000 

0.000000 0.000000 0.000000 
0.000000 0.000000 0.000000 
0.000000 0.000000 0.000000 

-0.000000 -0.000000 0.000000 
0.000000 0.000000 0.000000 
0.000000 0.000000 0.000000 

-0.000000 -0.000000 0.000000 
0.000000 0.000000 0.000000 
0.000000 0.000000 0.000000 

-0.000000 -0.000000 0.000000 
0.000000 0.000000 0.000000 
0.000000 0.000000 0.000000 

-0.000000 -0.000000 0.000000 
0.000000 0.000000 0.000000 
0.000000 0.000000 0.000000 

-0.000000 -0.000000 0.000000 
0.000000 0.000000 0.000000 
0.000000 0.000000 0.000000 

-0.000000 -0.000000 0.000000 
0.000000 0.000000 0.000000 
0.000000 0.000000 0.000000 

-0.000000 -0.000000 0.000000 
0.000000 0.000000 0.000000 
0.000000 0.000000 0.000000 

-0.000000 -0.000000 0.000000 
0.000000 0.000000 0.000000 
0.000000 0.000000 0.000000 

-0.000000 -0.000000 0.000000 
0.000000 0.000000 0.000000 
0.000000 0.000000 0.000000 

-0.000000 -0.000000 0.000000 
0.000000 0.000000 0.000000 
0.000000 0.000000 0.000000 

-0.000000 -0.000000 0.000000 
0.000000 0.000000 0.000000 
0.000000 0.000000 0.000000 

-0.000000 -0.000000 0.000000 
0.000000 0.000000 0.000000 
0.000000 0.000000 0.000000 

-0.000000 -0.000000 0.000000 
0.000000 0.000000 0.000000 
0.000000 0.000000 0.000000 

-0.000000 -0.000000 0.000000 
0.000000 -0.000000 0.000000 
0.000000 0.000000 0.000000 

-0.000000 0.000000 0.000000 
0.000000 -0.000000 0.000000 
0.000000 0.000000 0.000000 

-0.000000 0.000000 0.000000 
0.000000 -0.000000 0.000000 
0.000000 0.000000 0.000000 

-0.000000 0.000000 0.000000 
0.000000 0.000000 0.000000 
0.000000 0.000000 0.000000 

-0.000000 0.000000 0.000000 
0.000000 -0.000000 0.000000 
0.000000 0.000000 0.000000 

0.000000 0.000000 0.000000 
0.000000 -0.000000 0.000000 
0.000000 0.000000 0.000000 

0.000000 0.000000 0.000000 
0.000000 0.000000 0.000000 
0.000000 0.000000 0.000000 

0.000000 0.000000 0.000000 
0.000000 -0.000000 0.000000 
0.000000 0.000000 0.000000 

0.000000 0.000000 0.000000 
0.000000 -0.000000 0.000000 
0.000000 0.000000 0.000000 

0.000000 0.000000 0.000000 
0.000000 0.000000 0.000000 
0.000000 0.000000 0.000000 

0.000000 0.000000 0.000000 
0.000000 0.000000 0.000000 
0.000000 0.000000 0.000000 

0.000000 0.000000 0.000000 
0.000000 0.000000 0.000000 
0.000000 0.000000 0.000000 

0.000000 0.000000 0.000000 
0.000000 0.000000 0.000000 
0.000000 0.000000 0.000000 

0.000000 0.000000 0.000000 
0.000000 -0.000000 0.000000 
0.000000 0.000000 0.000000 

0.000000 0.000000 0.000000 
0.000000 0.000000 0.000000 
0.000000 0.000000 0.000000 

0.000000 0.000000 0.000000 
0.000000 0.000000 0.000000 
0.000000 0.000000 0.000000 

0.000000 0.000000 0.000000 
0.000000 0.000000 0.000000 
0.000000 0.000000 0.000000 

0.000000 0.000000 0.000000 
0.000000 -0.000000 0.000000 
0.000000 0.000000 0.000000 

-0.000000 -0.000000 0.000000 
0.000000 -0.000000 0.000000 
0.000000 0.000000 0.000000 

0.000000 -0.000000 0.000000 
0.000000 -0.000000 0.000000 
0.000000 0.000000 0.000000 

0.000000 -0.000000 0.000000 
0.000000 -0.000000 0.000000 
0.000000 0.000000 0.000000 

0.000000 -0.000000 0.000000 
0.000000 -0.000000 0.000000 
0.000000 0.000000 0.000000 

-0.000000 -0.000000 0.000000 
0.000000 -0.000000 0.000000 
0.000000 0.000000 0.000000 

-0.000000 -0.000000 0.000000 
0.000000 -0.000000 0.000000 
0.000000 0.000000 0.000000 

0.000000 -0.000000 0.000000 
0.000000 0.000000 0.000000 
0.000000 0.000000 0.000000 

0.000000 -0.000000 0.000000 
0.000000 0.000000 0.000000 
0.000000 0.000000 0.000000 

0.000000 -0.000000 0.000000 
0.000000 0.000000 0.000000 
0.000000 0.000000 0.000000 

0.000000 0.000000 0.000000 
0.000000 0.000000 0.000000 
0.000000 0.000000 0.000000 

0.000000 0.000000 0.000000 
0.000000 -0.000000 0.000000 
0.000000 0.000000 0.000000 

0.000000 0.000000 0.000000 
0.000000 -0.000000 0.000000 
0.000000 0.000000 0.000000 

0.000000 -0.000000 0.000000 
0.000000 0.000000 0.000000 
0.000000 0.000000 0.000000 

0.000000 0.000000 0.000000 
0.000000 -0.000000 0.000000 
0.000000 0.000000 0.000000 

-0.000000 0.000000 0.000000 
0.000000 -0.000000 0.000000 
0.000000 0.000000 0.000000 

0.000000 -0.000000 0.000000 
0.000000 0.000000 0.000000 
0.000000 0.000000 0.000000 

0.000000 -0.000000 0.000000 
0.000000 0.000000 0.000000 
0.000000 0.000000 0.000000 

-0.000000 0.000000 0.000000 
0.000000 0.000000 0.000000 
0.000000 0.000000 0.000000 

-0.000000 0.000000 0.000000 
0.000000 0.000000 0.000000 
0.000000 0.000000 0.000000 

-0.000000 0.000000 0.000000 
0.000000 0.000000 0.000000 
0.000000 0.000000 0.000000 

-0.000000 0.000000 0.000000 
0.000000 0.000000 0.000000 
0.000000 0.000000 0.000000 

-0.000000 0.000000 0.000000 
0.000000 0.000000 0.000000 
0.000000 0.000000 0.000000 

-0.000000 0.000000 0.000000 
0.000000 0.000000 0.000000 
0.000000 0.000000 0.000000 

0.000000 0.000000 0.000000 
0.000000 0.000000 0.000000 
0.000000 0.000000 0.000000 

-0.000000 0.000000 0.000000 
0.000000 -0.000000 0.000000 
0.000000 0.000000 0.000000 

-0.000000 0.000000 0.000000 
0.000000 0.000000 0.000000 
0.000000 0.000000 0.000000 

0.000000 -0.000000 0.000000 
0.000000 -0.000000 0.000000 
0.000000 0.000000 0.000000 

-0.000000 0.000000 0.000000 
0.000000 0.000000 0.000000 
0.000000 0.000000 0.000000 

-0.000000 -0.000000 0.000000 
0.000000 0.000000 0.000000 
0.000000 0.000000 0.000000 

-0.000000 0.000000 0.000000 
0.000000 -0.000000 0.000000 
0.000000 0.000000 0.000000 

-0.000000 0.000000 0.000000 
0.000000 0.000000 0.000000 
0.000000 0.000000 0.000000 

0.000000 0.000000 0.000000 
0.000000 0.000000 0.000000 
0.000000 0.000000 0.000000 

0.000000 0.000000 0.000000 
0.000000 0.000000 0.000000 
0.000000 0.000000 0.000000 

0.000000 0.000000 0.000000 
0.000000 0.000000 0.000000 
0.000000 0.000000 0.000000 

-0.000000 -0.000000 0.000000 
0.000000 -0.000000 0.000000 
0.000000 0.000000 0.000000 

0.000000 0.000000 0.000000 
0.000000 0.000000 0.000000 
0.000000 0.000000 0.000000 

0.000000 0.000000 0.000000 
0.000000 0.000000 0.000000 
0.000000 0.000000 0.000000 

0.000000 0.000000 0.000000 
0.000000 -0.000000 0.000000 
0.000000 0.000000 0.000000 

0.000000 0.000000 0.000000 
0.000000 0.000000 0.000000 
0.000000 0.000000 0.000000 

-0.000000 0.000000 0.000000 
0.000000 -0.000000 0.000000 
0.000000 0.000000 0.000000 

0.000000 0.000000 0.000000 
0.000000 0.000000 0.000000 
0.000000 0.000000 0.000000 

0.000000 0.000000 0.000000 
0.000000 0.000000 0.000000 
0.000000 0.000000 0.000000 

-0.000000 0.000000 0.000000 
0.000000 0.000000 0.000000 
0.000000 0.000000 0.000000 

-0.000000 -0.000000 0.000000 
0.000000 0.000000 0.000000 
0.000000 0.000000 0.000000 

-0.000000 0.000000 0.000000 
0.000000 0.000000 0.000000 
0.000000 0.000000 0.000000 

0.000000 -0.000000 0.000000 
0.000000 -0.000000 0.000000 
0.000000 0.000000 0.000000 

-0.000000 0.000000 0.000000 
0.000000 0.000000 0.000000 
0.000000 0.000000 0.000000 

-0.000000 0.000000 0.000000 
0.000000 0.000000 0.000000 
0.000000 0.000000 0.000000 

-0.000000 0.000000 0.000000 
0.000000 0.000000 0.000000 
0.000000 0.000000 0.000000 

-0.000000 0.000000 0.000000 
0.000000 -0.000000 0.000000 
0.000000 0.000000 0.000000 

-0.000000 -0.000000 0.000000 
0.000000 -0.000000 0.000000 
0.000000 0.000000 0.000000 

-0.000000 -0.000000 0.000000 
0.000000 -0.000000 0.000000 
0.000000 0.000000 0.000000 

-0.000000 -0.000000 0.000000 
0.000000 -0.000000 0.000000 
0.000000 0.000000 0.000000 

0.000000 0.000000 0.000000 
0.000000 -0.000000 0.000000 
0.000000 0.000000 0.000000 

0.000000 -0.000000 0.000000 
0.000000 -0.000000 0.000000 
0.000000 0.000000 0.000000 

0.000000 0.000000 0.000000 
0.000000 -0.000000 0.000000 
0.000000 0.000000 0.000000 

0.000000 0.000000 0.000000 
0.000000 0.000000 0.000000 
0.000000 0.000000 0.000000 

0.000000 0.000000 0.000000 
0.000000 0.000000 0.000000 
0.000000 0.000000 0.000000 

0.000000 0.000000 0.000000 
0.000000 -0.000000 0.000000 
0.000000 0.000000 0.000000 

0.000000 0.000000 0.000000 
0.000000 0.000000 0.000000 
0.000000 0.000000 0.000000 

0.000000 0.000000 0.000000 
0.000000 -0.000000 0.000000 
0.000000 0.000000 0.000000 

0.000000 0.000000 0.000000 
0.000000 0.000000 0.000000 
0.000000 0.000000 0.000000 

0.000000 0.000000 0.000000 
0.000000 0.000000 0.000000 
0.000000 0.000000 0.000000 

0.000000 0.000000 0.000000 
0.000000 -0.000000 0.000000 
0.000000 0.000000 0.000000 

0.000000 0.000000 0.000000 
0.000000 0.000000 0.000000 
0.000000 0.000000 0.000000 

0.000000 0.000000 0.000000 
0.000000 0.000000 0.000000 
0.000000 0.000000 0.000000 

0.000000 0.000000 0.000000 
0.000000 0.000000 0.000000 
0.000000 0.000000 0.000000 

0.000000 0.000000 0.000000 
0.000000 0.000000 0.000000 
0.000000 0.000000 0.000000 

0.000000 0.000000 0.000000 
0.000000 0.000000 0.000000 
0.000000 0.000000 0.000000 

0.000000 0.000000 0.000000 
0.000000 -0.000000 0.000000 
0.000000 0.000000 0.000000 

-0.000000 0.000000 0.000000 
0.000000 -0.000000 0.000000 
0.000000 0.000000 0.000000 

-0.000000 -0.000000 0.000000 
0.000000 -0.000000 0.000000 
0.000000 0.000000 0.000000 

-0.000000 -0.000000 0.000000 
0.000000 0.000000 0.000000 
0.000000 0.000000 0.000000 

-0.000000 -0.000000 0.000000 
0.000000 -0.000000 0.000000 
0.000000 0.000000 0.000000 

-0.000000 -0.000000 0.000000 
0.000000 -0.000000 0.000000 
0.000000 0.000000 0.000000 

0.000000 0.000000 0.000000 
0.000000 -0.000000 0.000000 
0.000000 0.000000 0.000000 

0.000000 0.000000 0.000000 
0.000000 -0.000000 0.000000 
0.000000 0.000000 0.000000 

0.000000 0.000000 0.000000 
0.000000 -0.000000 0.000000 
0.000000 0.000000 0.000000 

-0.000000 0.000000 0.000000 
0.000000 0.000000 0.000000 
0.000000 0.000000 0.000000 

0.000000 0.000000 0.000000 
0.000000 -0.000000 0.000000 
0.000000 0.000000 0.000000 

0.000000 0.000000 0.000000 
0.000000 -0.000000 0.000000 
0.000000 0.000000 0.000000 

0.000000 -0.000000 0.000000 
0.000000 -0.000000 0.000000 
0.000000 0.000000 0.000000 

0.000000 -0.000000 0.000000 
0.000000 -0.000000 0.000000 
0.000000 0.000000 0.000000 

0.000000 -0.000000 0.000000 
0.000000 -0.000000 0.000000 
0.000000 0.000000 0.000000 

0.000000 -0.000000 0.000000 
0.000000 -0.000000 0.000000 
0.000000 0.000000 0.000000 

-0.000000 0.000000 0.000000 
0.000000 -0.000000 0.000000 
0.000000 0.000000 0.000000 

-0.000000 0.000000 0.000000 
0.000000 -0.000000 0.000000 
0.000000 0.000000 0.000000 

-0.000000 0.000000 0.000000 
0.000000 -0.000000 0.000000 
0.000000 0.000000 0.000000 

0.000000 0.000000 0.000000 
0.000000 -0.000000 0.000000 
0.000000 0.000000 0.000000 

0.000000 0.000000 0.000000 
0.000000 -0.000000 0.000000 
0.000000 0.000000 0.000000 

0.000000 0.000000 0.000000 
0.000000 -0.000000 0.000000 
0.000000 0.000000 0.000000 

0.000000 0.000000 0.000000 
0.000000 0.000000 0.000000 
0.000000 0.000000 0.000000 

0.000000 0.000000 0.000000 
0.000000 0.000000 0.000000 
0.000000 0.000000 0.000000 

0.000000 -0.000000 0.000000 
0.000000 0.000000 0.000000 
0.000000 0.000000 0.000000 

0.000000 0.000000 0.000000 
0.000000 0.000000 0.000000 
0.000000 0.000000 0.000000 

-0.000000 -0.000000 0.000000 
0.000000 -0.000000 0.000000 
0.000000 0.000000 0.000000 

0.000000 -0.000000 0.000000 
0.000000 0.000000 0.000000 
0.000000 0.000000 0.000000 

-0.000000 -0.000000 0.000000 
0.000000 0.000000 0.000000 
0.000000 0.000000 0.000000 

-0.000000 -0.000000 0.000000 
0.000000 0.000000 0.000000 
0.000000 0.000000 0.000000 

-0.000000 -0.000000 0.000000 
0.000000 0.000000 0.000000 
0.000000 0.000000 0.000000 

-0.000000 -0.000000 0.000000 
0.000000 -0.000000 0.000000 
0.000000 0.000000 0.000000 

-0.000000 -0.000000 0.000000 
0.000000 0.000000 0.000000 
0.000000 0.000000 0.000000 

-0.000000 0.000000 0.000000 
0.000000 0.000000 0.000000 
0.000000 0.000000 0.000000 

0.000000 0.000000 0.000000 
0.000000 0.000000 0.000000 
0.000000 0.000000 0.000000 

-0.000000 0.000000 0.000000 
0.000000 0.000000 0.000000 
0.000000 0.000000 0.000000 

-0.000000 0.000000 0.000000 
0.000000 0.000000 0.000000 
0.000000 0.000000 0.000000 

0.000000 0.000000 0.000000 
0.000000 0.000000 0.000000 
0.000000 0.000000 0.000000 

-0.000000 0.000000 0.000000 
0.000000 -0.000000 0.000000 
0.000000 0.000000 0.000000 

-0.000000 -0.000000 0.000000 
0.000000 0.000000 0.000000 
0.000000 0.000000 0.000000 

-0.000000 0.000000 0.000000 
0.000000 0.000000 0.000000 
0.000000 0.000000 0.000000 

-0.000000 0.000000 0.000000 
0.000000 -0.000000 0.000000 
0.000000 0.000000 0.000000 

-0.000000 -0.000000 0.000000 
0.000000 0.000000 0.000000 
0.000000 0.000000 0.000000 

-0.000000 -0.000000 0.000000 
0.000000 0.000000 0.000000 
0.000000 0.000000 0.000000 

-0.000000 0.000000 0.000000 
0.000000 0.000000 0.000000 
0.000000 0.000000 0.000000 

-0.000000 0.000000 0.000000 
0.000000 0.000000 0.000000 
0.000000 0.000000 0.000000 

-0.000000 -0.000000 0.000000 
0.000000 0.000000 0.000000 
0.000000 0.000000 0.000000 

-0.000000 -0.000000 0.000000 
0.000000 0.000000 0.000000 
0.000000 0.000000 0.000000 

-0.000000 -0.000000 0.000000 
0.000000 0.000000 0.000000 
0.000000 0.000000 0.000000 

-0.000000 -0.000000 0.000000 
0.000000 -0.000000 0.000000 
0.000000 0.000000 0.000000 

0.000000 0.000000 0.000000 
0.000000 -0.000000 0.000000 
0.000000 0.000000 0.000000 

-0.000000 -0.000000 0.000000 
0.000000 -0.000000 0.000000 
0.000000 0.000000 0.000000 

-0.000000 -0.000000 0.000000 
0.000000 -0.000000 0.000000 
0.000000 0.000000 0.000000 

-0.000000 -0.000000 0.000000 
0.000000 -0.000000 0.000000 
0.000000 0.000000 0.000000 

-0.000000 0.000000 0.000000 
0.000000 -0.000000 0.000000 
0.000000 0.000000 0.000000 

-0.000000 0.000000 0.000000 
0.000000 -0.000000 0.000000 
0.000000 0.000000 0.000000 

-0.000000 -0.000000 0.000000 
0.000000 0.000000 0.000000 
0.000000 0.000000 0.000000 

-0.000000 -0.000000 0.000000 
0.000000 0.000000 0.000000 
0.000000 0.000000 0.000000 

-0.000000 0.000000 0.000000 
0.000000 0.000000 0.000000 
0.000000 0.000000 0.000000 

-0.000000 0.000000 0.000000 
0.000000 0.000000 0.000000 
0.000000 0.000000 0.000000 

-0.000000 0.000000 0.000000 
0.000000 0.000000 0.000000 
0.000000 0.000000 0.000000 

-0.000000 -0.000000 0.000000 
0.000000 0.000000 0.000000 
0.000000 0.000000 0.000000 

-0.000000 -0.000000 0.000000 
0.000000 0.000000 0.000000 
0.000000 0.000000 0.000000 

-0.000000 0.000000 0.000000 
0.000000 0.000000 0.000000 
0.000000 0.000000 0.000000 

-0.000000 -0.000000 0.000000 
0.000000 0.000000 0.000000 
0.000000 0.000000 0.000000 

-0.000000 -0.000000 0.000000 
0.000000 0.000000 0.000000 
0.000000 0.000000 0.000000 

-0.000000 0.000000 0.000000 
0.000000 0.000000 0.000000 
0.000000 0.000000 0.000000 

0.000000 0.000000 0.000000 
0.000000 0.000000 0.000000 
0.000000 0.000000 0.000000 

-0.000000 0.000000 0.000000 
0.000000 0.000000 0.000000 
0.000000 0.000000 0.000000 

-0.000000 0.000000 0.000000 
0.000000 0.000000 0.000000 
0.000000 0.000000 0.000000 

-0.000000 0.000000 0.000000 
0.000000 -0.000000 0.000000 
0.000000 0.000000 0.000000 

0.000000 -0.000000 0.000000 
0.000000 0.000000 0.000000 
0.000000 0.000000 0.000000 

0.000000 -0.000000 0.000000 
0.000000 0.000000 0.000000 
0.000000 0.000000 0.000000 

-0.000000 -0.000000 0.000000 
0.000000 -0.000000 0.000000 
0.000000 0.000000 0.000000 

-0.000000 -0.000000 0.000000 
0.000000 0.000000 0.000000 
0.000000 0.000000 0.000000 

-0.000000 -0.000000 0.000000 
0.000000 0.000000 0.000000 
0.000000 0.000000 0.000000 

-0.000000 -0.000000 0.000000 
0.000000 0.000000 0.000000 
0.000000 0.000000 0.000000 

-0.000000 0.000000 0.000000 
0.000000 -0.000000 0.000000 
0.000000 0.000000 0.000000 

0.000000 0.000000 0.000000 
0.000000 0.000000 0.000000 
0.000000 0.000000 0.000000 

-0.000000 0.000000 0.000000 
0.000000 0.000000 0.000000 
0.000000 0.000000 0.000000 

-0.000000 -0.000000 0.000000 
0.000000 0.000000 0.000000 
0.000000 0.000000 0.000000 

-0.000000 0.000000 0.000000 
0.000000 -0.000000 0.000000 
0.000000 0.000000 0.000000 

-0.000000 0.000000 0.000000 
0.000000 0.000000 0.000000 
0.000000 0.000000 0.000000 

-0.000000 0.000000 0.000000 
0.000000 0.000000 0.000000 
0.000000 0.000000 0.000000 

-0.000000 0.000000 0.000000 
0.000000 0.000000 0.000000 
0.000000 0.000000 0.000000 

-0.000000 -0.000000 0.000000 
0.000000 -0.000000 0.000000 
0.000000 0.000000 0.000000 

-0.000000 0.000000 0.000000 
0.000000 -0.000000 0.000000 
0.000000 0.000000 0.000000 

0.000000 -0.000000 0.000000 
0.000000 0.000000 0.000000 
0.000000 0.000000 0.000000 

0.000000 0.000000 0.000000 
0.000000 0.000000 0.000000 
0.000000 0.000000 0.000000 

0.000000 0.000000 0.000000 
0.000000 -0.000000 0.000000 
0.000000 0.000000 0.000000 

0.000000 0.000000 0.000000 
0.000000 -0.000000 0.000000 
0.000000 0.000000 0.000000 

-0.000000 -0.000000 0.000000 
0.000000 0.000000 0.000000 
0.000000 0.000000 0.000000 

0.000000 -0.000000 0.000000 
0.000000 0.000000 0.000000 
0.000000 0.000000 0.000000 

0.000000 0.000000 0.000000 
0.000000 0.000000 0.000000 
0.000000 0.000000 0.000000 

-0.000000 0.000000 0.000000 
0.000000 -0.000000 0.000000 
0.000000 0.000000 0.000000 

-0.000000 0.000000 0.000000 
0.000000 0.000000 0.000000 
0.000000 0.000000 0.000000 

0.000000 0.000000 0.000000 
0.000000 -0.000000 0.000000 
0.000000 0.000000 0.000000 

0.000000 0.000000 0.000000 
0.000000 -0.000000 0.000000 
0.000000 0.000000 0.000000 

-0.000000 -0.000000 0.000000 
0.000000 -0.000000 0.000000 
0.000000 0.000000 0.000000 

0.000000 -0.000000 0.000000 
0.000000 0.000000 0.000000 
0.000000 0.000000 0.000000 

-0.000000 0.000000 0.000000 
0.000000 0.000000 0.000000 
0.000000 0.000000 0.000000 

-0.000000 0.000000 0.000000 
0.000000 -0.000000 0.000000 
0.000000 0.000000 0.000000 

-0.000000 0.000000 0.000000 
0.000000 0.000000 0.000000 
0.000000 0.000000 0.000000 

-0.000000 -0.000000 0.000000 
0.000000 0.000000 0.000000 
0.000000 0.000000 0.000000 

-0.000000 0.000000 0.000000 
0.000000 0.000000 0.000000 
0.000000 0.000000 0.000000 

-0.000000 -0.000000 0.000000 
0.000000 0.000000 0.000000 
0.000000 0.000000 0.000000 

-0.000000 0.000000 0.000000 
0.000000 0.000000 0.000000 
0.000000 0.000000 0.000000 

-0.000000 -0.000000 0.000000 
0.000000 0.000000 0.000000 
0.000000 0.000000 0.000000 

-0.000000 -0.000000 0.000000 
0.000000 0.000000 0.000000 
0.000000 0.000000 0.000000 

-0.000000 -0.000000 0.000000 
0.000000 0.000000 0.000000 
0.000000 0.000000 0.000000 

-0.000000 -0.000000 0.000000 
0.000000 0.000000 0.000000 
0.000000 0.000000 0.000000 

-0.000000 -0.000000 0.000000 
0.000000 0.000000 0.000000 
0.000000 0.000000 0.000000 

-0.000000 -0.000000 0.000000 
0.000000 0.000000 0.000000 
0.000000 0.000000 0.000000 

-0.000000 -0.000000 0.000000 
0.000000 0.000000 0.000000 
0.000000 0.000000 0.000000 

0.000000 0.000000 0.000000 
0.000000 0.000000 0.000000 
0.000000 0.000000 0.000000 

0.000000 -0.000000 0.000000 
0.000000 0.000000 0.000000 
0.000000 0.000000 0.000000 

0.000000 -0.000000 0.000000 
0.000000 0.000000 0.000000 
0.000000 0.000000 0.000000 

0.000000 0.000000 0.000000 
0.000000 0.000000 0.000000 
0.000000 0.000000 0.000000 

-0.000000 -0.000000 0.000000 
0.000000 0.000000 0.000000 
0.000000 0.000000 0.000000 

-0.000000 0.000000 0.000000 
0.000000 0.000000 0.000000 
0.000000 0.000000 0.000000 

-0.000000 0.000000 0.000000 
0.000000 0.000000 0.000000 
0.000000 0.000000 0.000000 

-0.000000 0.000000 0.000000 
0.000000 0.000000 0.000000 
0.000000 0.000000 0.000000 

-0.000000 -0.000000 0.000000 
0.000000 -0.000000 0.000000 
0.000000 0.000000 0.000000 

0.000000 0.000000 0.000000 
0.000000 -0.000000 0.000000 
0.000000 0.000000 0.000000 

-0.000000 0.000000 0.000000 
0.000000 -0.000000 0.000000 
0.000000 0.000000 0.000000 

0.000000 0.000000 0.000000 
0.000000 -0.000000 0.000000 
0.000000 0.000000 0.000000 

0.000000 -0.000000 0.000000 
0.000000 -0.000000 0.000000 
0.000000 0.000000 0.000000 

-0.000000 -0.000000 0.000000 
0.000000 -0.000000 0.000000 
0.000000 0.000000 0.000000 

0.000000 0.000000 0.000000 
0.000000 -0.000000 0.000000 
0.000000 0.000000 0.000000 

0.000000 0.000000 0.000000 
0.000000 -0.000000 0.000000 
0.000000 0.000000 0.000000 

0.000000 0.000000 0.000000 
0.000000 -0.000000 0.000000 
0.000000 0.000000 0.000000 

0.000000 -0.000000 0.000000 
0.000000 0.000000 0.000000 
0.000000 0.000000 0.000000 

0.000000 0.000000 0.000000 
0.000000 -0.000000 0.000000 
0.000000 0.000000 0.000000 

-0.000000 0.000000 0.000000 
0.000000 0.000000 0.000000 
0.000000 0.000000 0.000000 

-0.000000 -0.000000 0.000000 
0.000000 0.000000 0.000000 
0.000000 0.000000 0.000000 

-0.000000 -0.000000 0.000000 
0.000000 0.000000 0.000000 
0.000000 0.000000 0.000000 

-0.000000 -0.000000 0.000000 
0.000000 -0.000000 0.000000 
0.000000 0.000000 0.000000 

-0.000000 0.000000 0.000000 
0.000000 -0.000000 0.000000 
0.000000 0.000000 0.000000 

0.000000 0.000000 0.000000 
0.000000 -0.000000 0.000000 
0.000000 0.000000 0.000000 

0.000000 0.000000 0.000000 
0.000000 0.000000 0.000000 
0.000000 0.000000 0.000000 

0.000000 0.000000 0.000000 
0.000000 -0.000000 0.000000 
0.000000 0.000000 0.000000 

0.000000 0.000000 0.000000 
0.000000 0.000000 0.000000 
0.000000 0.000000 0.000000 

0.000000 0.000000 0.000000 
0.000000 0.000000 0.000000 
0.000000 0.000000 0.000000 

0.000000 -0.000000 0.000000 
0.000000 0.000000 0.000000 
0.000000 0.000000 0.000000 

0.000000 -0.000000 0.000000 
0.000000 0.000000 0.000000 
0.000000 0.000000 0.000000 

-0.000000 0.000000 0.000000 
0.000000 0.000000 0.000000 
0.000000 0.000000 0.000000 

-0.000000 0.000000 0.000000 
0.000000 -0.000000 0.000000 
0.000000 0.000000 0.000000 

0.000000 0.000000 0.000000 
0.000000 -0.000000 0.000000 
0.000000 0.000000 0.000000 

0.000000 0.000000 0.000000 
0.000000 0.000000 0.000000 
0.000000 0.000000 0.000000 

0.000000 0.000000 0.000000 
0.000000 0.000000 0.000000 
0.000000 0.000000 0.000000 

-0.000000 -0.000000 0.000000 
0.000000 0.000000 0.000000 
0.000000 0.000000 0.000000 

-0.000000 -0.000000 0.000000 
0.000000 0.000000 0.000000 
0.000000 0.000000 0.000000 

-0.000000 -0.000000 0.000000 
0.000000 0.000000 0.000000 
0.000000 0.000000 0.000000 

-0.000000 -0.000000 0.000000 
0.000000 0.000000 0.000000 
0.000000 0.000000 0.000000 

-0.000000 0.000000 0.000000 
0.000000 0.000000 0.000000 
0.000000 0.000000 0.000000 

0.000000 0.000000 0.000000 
0.000000 0.000000 0.000000 
0.000000 0.000000 0.000000 

0.000000 0.000000 0.000000 
0.000000 0.000000 0.000000 
0.000000 0.000000 0.000000 

0.000000 0.000000 0.000000 
0.000000 0.000000 0.000000 
0.000000 0.000000 0.000000 

0.000000 0.000000 0.000000 
0.000000 0.000000 0.000000 
0.000000 0.000000 0.000000 

0.000000 0.000000 0.000000 
0.000000 -0.000000 0.000000 
0.000000 0.000000 0.000000 

-0.000000 0.000000 0.000000 
0.000000 -0.000000 0.000000 
0.000000 0.000000 0.000000 

0.000000 -0.000000 0.000000 
0.000000 0.000000 0.000000 
0.000000 0.000000 0.000000 

-0.000000 0.000000 0.000000 
0.000000 -0.000000 0.000000 
0.000000 0.000000 0.000000 

0.000000 0.000000 0.000000 
0.000000 -0.000000 0.000000 
0.000000 0.000000 0.000000 

0.000000 -0.000000 0.000000 
0.000000 -0.000000 0.000000 
0.000000 0.000000 0.000000 

0.000000 0.000000 0.000000 
0.000000 0.000000 0.000000 
0.000000 0.000000 0.000000 

-0.000000 0.000000 0.000000 
0.000000 0.000000 0.000000 
0.000000 0.000000 0.000000 

0.000000 -0.000000 0.000000 
0.000000 0.000000 0.000000 
0.000000 0.000000 0.000000 

0.000000 0.000000 0.000000 
0.000000 -0.000000 0.000000 
0.000000 0.000000 0.000000 

-0.000000 0.000000 0.000000 
0.000000 0.000000 0.000000 
0.000000 0.000000 0.000000 

0.000000 -0.000000 0.000000 
0.000000 0.000000 0.000000 
0.000000 0.000000 0.000000 

0.000000 -0.000000 0.000000 
0.000000 0.000000 0.000000 
0.000000 0.000000 0.000000 

-0.000000 0.000000 0.000000 
0.000000 -0.000000 0.000000 
0.000000 0.000000 0.000000 

-0.000000 0.000000 0.000000 
0.000000 0.000000 0.000000 
0.000000 0.000000 0.000000 

0.000000 0.000000 0.000000 
0.000000 0.000000 0.000000 
0.000000 0.000000 0.000000 

0.000000 -0.000000 0.000000 
0.000000 0.000000 0.000000 
0.000000 0.000000 0.000000 

0.000000 -0.000000 0.000000 
0.000000 0.000000 0.000000 
0.000000 0.000000 0.000000 

0.000000 -0.000000 0.000000 
0.000000 0.000000 0.000000 
0.000000 0.000000 0.000000 

-0.000000 -0.000000 0.000000 
0.000000 -0.000000 0.000000 
0.000000 0.000000 0.000000 

0.000000 -0.000000 0.000000 
0.000000 -0.000000 0.000000 
0.000000 0.000000 0.000000 

-0.000000 0.000000 0.000000 
0.000000 -0.000000 0.000000 
0.000000 0.000000 0.000000 

-0.000000 0.000000 0.000000 
0.000000 0.000000 0.000000 
0.000000 0.000000 0.000000 

-0.000000 0.000000 0.000000 
0.000000 0.000000 0.000000 
0.000000 0.000000 0.000000 

-0.000000 0.000000 0.000000 
0.000000 -0.000000 0.000000 
0.000000 0.000000 0.000000 

-0.000000 0.000000 0.000000 
0.000000 -0.000000 0.000000 
0.000000 0.000000 0.000000 

0.000000 -0.000000 0.000000 
0.000000 -0.000000 0.000000 
0.000000 0.000000 0.000000 

0.000000 0.000000 0.000000 
0.000000 -0.000000 0.000000 
0.000000 0.000000 0.000000 

-0.000000 0.000000 0.000000 
0.000000 -0.000000 0.000000 
0.000000 0.000000 0.000000 

0.000000 -0.000000 0.000000 
0.000000 -0.000000 0.000000 
0.000000 0.000000 0.000000 

-0.000000 0.000000 0.000000 
0.000000 0.000000 0.000000 
0.000000 0.000000 0.000000 

0.000000 -0.000000 0.000000 
0.000000 0.000000 0.000000 
0.000000 0.000000 0.000000 

0.000000 0.000000 0.000000 
0.000000 0.000000 0.000000 
0.000000 0.000000 0.000000 

0.000000 0.000000 0.000000 
0.000000 -0.000000 0.000000 
0.000000 0.000000 0.000000 

0.000000 0.000000 0.000000 
0.000000 -0.000000 0.000000 
0.000000 0.000000 0.000000 

-0.000000 0.000000 0.000000 
0.000000 0.000000 0.000000 
0.000000 0.000000 0.000000 

-0.000000 0.000000 0.000000 
0.000000 -0.000000 0.000000 
0.000000 0.000000 0.000000 

-0.000000 -0.000000 0.000000 
0.000000 -0.000000 0.000000 
0.000000 0.000000 0.000000 

0.000000 0.000000 0.000000 
0.000000 -0.000000 0.000000 
0.000000 0.000000 0.000000 

-0.000000 -0.000000 0.000000 
0.000000 0.000000 0.000000 
0.000000 0.000000 0.000000 

-0.000000 -0.000000 0.000000 
0.000000 0.000000 0.000000 
0.000000 0.000000 0.000000 

-0.000000 0.000000 0.000000 
0.000000 0.000000 0.000000 
0.000000 0.000000 0.000000 

-0.000000 -0.000000 0.000000 
0.000000 0.000000 0.000000 
0.000000 0.000000 0.000000 

-0.000000 0.000000 0.000000 
0.000000 0.000000 0.000000 
0.000000 0.000000 0.000000 

-0.000000 0.000000 0.000000 
0.000000 0.000000 0.000000 
0.000000 0.000000 0.000000 

-0.000000 0.000000 0.000000 
0.000000 -0.000000 0.000000 
0.000000 0.000000 0.000000 

0.000000 0.000000 0.000000 
0.000000 -0.000000 0.000000 
0.000000 0.000000 0.000000 

0.000000 0.000000 0.000000 
0.000000 0.000000 0.000000 
0.000000 0.000000 0.000000 

-0.000000 0.000000 0.000000 
0.000000 0.000000 0.000000 
0.000000 0.000000 0.000000 

-0.000000 0.000000 0.000000 
0.000000 0.000000 0.000000 
0.000000 0.000000 0.000000 

-0.000000 0.000000 0.000000 
0.000000 -0.000000 0.000000 
0.000000 0.000000 0.000000 

0.000000 -0.000000 0.000000 
0.000000 0.000000 0.000000 
0.000000 0.000000 0.000000 

-0.000000 0.000000 0.000000 
0.000000 0.000000 0.000000 
0.000000 0.000000 0.000000 

0.000000 0.000000 0.000000 
0.000000 -0.000000 0.000000 
0.000000 0.000000 0.000000 

0.000000 0.000000 0.000000 
0.000000 -0.000000 0.000000 
0.000000 0.000000 0.000000 

0.000000 0.000000 0.000000 
0.000000 -0.000000 0.000000 
0.000000 0.000000 0.000000 

-0.000000 0.000000 0.000000 
0.000000 -0.000000 0.000000 
0.000000 0.000000 0.000000 

0.000000 0.000000 0.000000 
0.000000 -0.000000 0.000000 
0.000000 0.000000 0.000000 

0.000000 0.000000 0.000000 
0.000000 -0.000000 0.000000 
0.000000 0.000000 0.000000 

0.000000 0.000000 0.000000 
0.000000 -0.000000 0.000000 
0.000000 0.000000 0.000000 

0.000000 0.000000 0.000000 
0.000000 0.000000 0.000000 
0.000000 0.000000 0.000000 

0.000000 0.000000 0.000000 
0.000000 -0.000000 0.000000 
0.000000 0.000000 0.000000 

0.000000 -0.000000 0.000000 
0.000000 -0.000000 0.000000 
0.000000 0.000000 0.000000 

0.000000 -0.000000 0.000000 
0.000000 -0.000000 0.000000 
0.000000 0.000000 0.000000 

0.000000 -0.000000 0.000000 
0.000000 -0.000000 0.000000 
0.000000 0.000000 0.000000 

-0.000000 -0.000000 0.000000 
0.000000 -0.000000 0.000000 
0.000000 0.000000 0.000000 

0.000000 -0.000000 0.000000 
0.000000 -0.000000 0.000000 
0.000000 0.000000 0.000000 

-0.000000 -0.000000 0.000000 
0.000000 -0.000000 0.000000 
0.000000 0.000000 0.000000 

0.000000 -0.000000 0.000000 
0.000000 0.000000 0.000000 
0.000000 0.000000 0.000000 

0.000000 -0.000000 0.000000 
0.000000 -0.000000 0.000000 
0.000000 0.000000 0.000000 

-0.000000 -0.000000 0.000000 
0.000000 0.000000 0.000000 
0.000000 0.000000 0.000000 

-0.000000 0.000000 0.000000 
0.000000 0.000000 0.000000 
0.000000 0.000000 0.000000 

0.000000 0.000000 0.000000 
0.000000 0.000000 0.000000 
0.000000 0.000000 0.000000 

-0.000000 -0.000000 0.000000 
0.000000 0.000000 0.000000 
0.000000 0.000000 0.000000 

-0.000000 -0.000000 0.000000 
0.000000 0.000000 0.000000 
0.000000 0.000000 0.000000 

0.000000 0.000000 0.000000 
0.000000 -0.000000 0.000000 
0.000000 0.000000 0.000000 

0.000000 0.000000 0.000000 
0.000000 -0.000000 0.000000 
0.000000 0.000000 0.000000 

-0.000000 0.000000 0.000000 
0.000000 0.000000 0.000000 
0.000000 0.000000 0.000000 

0.000000 0.000000 0.000000 
0.000000 -0.000000 0.000000 
0.000000 0.000000 0.000000 

0.000000 0.000000 0.000000 
0.000000 0.000000 0.000000 
0.000000 0.000000 0.000000 

0.000000 0.000000 0.000000 
0.000000 -0.000000 0.000000 
0.000000 0.000000 0.000000 

-0.000000 0.000000 0.000000 
0.000000 -0.000000 0.000000 
0.000000 0.000000 0.000000 

-0.000000 0.000000 0.000000 
0.000000 -0.000000 0.000000 
0.000000 0.000000 0.000000 

0.000000 0.000000 0.000000 
0.000000 -0.000000 0.000000 
0.000000 0.000000 0.000000 

-0.000000 0.000000 0.000000 
0.000000 0.000000 0.000000 
0.000000 0.000000 0.000000 

-0.000000 -0.000000 0.000000 
0.000000 -0.000000 0.000000 
0.000000 0.000000 0.000000 

0.000000 -0.000000 0.000000 
0.000000 -0.000000 0.000000 
0.000000 0.000000 0.000000 

0.000000 0.000000 0.000000 
0.000000 -0.000000 0.000000 
0.000000 0.000000 0.000000 

0.000000 -0.000000 0.000000 
0.000000 -0.000000 0.000000 
0.000000 0.000000 0.000000 

0.000000 0.000000 0.000000 
0.000000 -0.000000 0.000000 
0.000000 0.000000 0.000000 

-0.000000 0.000000 0.000000 
0.000000 0.000000 0.000000 
0.000000 0.000000 0.000000 

0.000000 -0.000000 0.000000 
0.000000 0.000000 0.000000 
0.000000 0.000000 0.000000 

0.000000 0.000000 0.000000 
0.000000 0.000000 0.000000 
0.000000 0.000000 0.000000 

-0.000000 -0.000000 0.000000 
0.000000 0.000000 0.000000 
0.000000 0.000000 0.000000 

-0.000000 0.000000 0.000000 
0.000000 0.000000 0.000000 
0.000000 0.000000 0.000000 

-0.000000 0.000000 0.000000 
0.000000 -0.000000 0.000000 
0.000000 0.000000 0.000000 

0.000000 0.000000 0.000000 
0.000000 0.000000 0.000000 
0.000000 0.000000 0.000000 

-0.000000 0.000000 0.000000 
0.000000 0.000000 0.000000 
0.000000 0.000000 0.000000 

0.000000 0.000000 0.000000 
0.000000 -0.000000 0.000000 
0.000000 0.000000 0.000000 

