# vtk DataFile Version 3.0 
vtk output 
ASCII 
DATASET UNSTRUCTURED_GRID 
POINTS 899 float 
-3.648847 2.218264 0.000000 
-3.619410 2.177712 0.000000 
-3.578536 2.142117 0.000000 
-3.540028 2.106466 0.000000 
-3.511690 2.074271 0.000000 
-3.481362 2.044413 0.000000 
-3.451569 2.003739 0.000000 
0.772356 2.120778 0.000000 
0.774615 2.094657 0.000000 
0.769962 2.065903 0.000000 
-3.399514 1.973463 0.000000 
0.413960 -0.671379 0.000000 
0.455573 -0.667076 0.000000 
-1.762619 -0.571274 0.000000 
-1.783389 -0.535878 0.000000 
-1.714437 -0.507089 0.000000 
0.732567 2.115102 0.000000 
0.698438 2.101266 0.000000 
0.491831 -0.652873 0.000000 
0.519501 -0.622468 0.000000 
0.530556 -0.582022 0.000000 
0.532354 -0.536217 0.000000 
0.531774 -0.485711 0.000000 
-3.460923 1.911731 0.000000 
0.663989 2.079320 0.000000 
0.631675 2.051925 0.000000 
0.601833 2.027870 0.000000 
0.569607 2.004612 0.000000 
0.534059 1.982535 0.000000 
0.492599 1.961395 0.000000 
0.444403 1.942730 0.000000 
0.762807 2.024928 0.000000 
-1.708694 -0.472706 0.000000 
-1.726386 -0.432443 0.000000 
-1.761257 -0.408422 0.000000 
-1.812853 -0.400574 0.000000 
-0.690422 -0.652909 0.000000 
-0.624256 -0.670837 0.000000 
-0.561079 -0.679018 0.000000 
-0.500739 -0.680474 0.000000 
-0.445387 -0.680536 0.000000 
0.532260 -0.426627 0.000000 
0.536647 -0.357294 0.000000 
-1.881389 -0.388073 0.000000 
-0.389303 -0.678262 0.000000 
-0.340338 -0.662976 0.000000 
-0.344339 -0.608841 0.000000 
-0.358558 -0.556302 0.000000 
-0.381750 -0.515390 0.000000 
-0.406193 -0.481216 0.000000 
-0.417316 -0.449718 0.000000 
-0.428320 -0.415461 0.000000 
-0.436973 -0.371196 0.000000 
-0.444212 -0.315653 0.000000 
-0.452662 -0.256795 0.000000 
-0.468602 -0.199896 0.000000 
0.553166 -0.292579 0.000000 
0.573193 -0.234908 0.000000 
0.574450 -0.183167 0.000000 
0.561087 -0.132847 0.000000 
0.550432 -0.077524 0.000000 
0.748903 1.971610 0.000000 
0.730940 1.915118 0.000000 
0.715868 1.868959 0.000000 
0.699446 1.832831 0.000000 
0.684888 1.791841 0.000000 
0.675900 1.745637 0.000000 
0.669871 1.696077 0.000000 
0.664455 1.648220 0.000000 
0.668163 1.601801 0.000000 
0.672091 1.551967 0.000000 
0.674558 1.503944 0.000000 
0.673045 1.453864 0.000000 
0.386491 1.933050 0.000000 
0.664855 1.395125 0.000000 
0.652298 1.337048 0.000000 
0.638456 1.283398 0.000000 
0.623121 1.233888 0.000000 
0.616008 1.190861 0.000000 
0.600787 1.155918 0.000000 
0.571289 1.126470 0.000000 
0.539016 1.095308 0.000000 
0.513857 1.066409 0.000000 
0.493343 1.040174 0.000000 
0.469109 1.022361 0.000000 
0.444920 1.005917 0.000000 
0.415324 0.984951 0.000000 
0.383540 0.960199 0.000000 
0.356179 0.930867 0.000000 
0.343879 0.891967 0.000000 
0.337476 0.846447 0.000000 
0.332404 0.801160 0.000000 
0.328512 0.761470 0.000000 
0.319594 0.725391 0.000000 
0.304149 0.691980 0.000000 
0.290502 0.651589 0.000000 
0.275896 0.603727 0.000000 
0.261905 0.561757 0.000000 
0.250150 0.528162 0.000000 
0.250896 0.490357 0.000000 
0.259587 0.447754 0.000000 
0.284617 0.404981 0.000000 
0.315237 0.375320 0.000000 
0.340022 0.355883 0.000000 
0.354380 0.330034 0.000000 
0.368685 0.302891 0.000000 
0.385568 0.276495 0.000000 
0.415372 0.251698 0.000000 
0.447119 0.219986 0.000000 
0.477633 0.192069 0.000000 
0.503078 0.164133 0.000000 
0.518876 0.126078 0.000000 
0.527127 0.090110 0.000000 
0.534187 0.045565 0.000000 
0.543185 -0.015215 0.000000 
0.322519 1.921994 0.000000 
0.263849 1.908877 0.000000 
0.208223 1.903457 0.000000 
0.150441 1.899629 0.000000 
-0.687392 -0.579842 0.000000 
-3.327058 1.947231 0.000000 
-3.276080 1.900810 0.000000 
-3.224941 1.867223 0.000000 
-3.181728 1.838065 0.000000 
-3.135074 1.801135 0.000000 
-3.078123 1.776842 0.000000 
-1.944260 -0.343195 0.000000 
0.083204 1.904785 0.000000 
0.005786 1.899432 0.000000 
-0.071812 1.908670 0.000000 
-0.135705 1.938212 0.000000 
-0.182391 1.979818 0.000000 
-1.999041 -0.272226 0.000000 
-1.843230 -0.546735 0.000000 
-0.491126 -0.135936 0.000000 
-0.512312 -0.062693 0.000000 
-0.526535 0.000139 0.000000 
-0.527935 0.062261 0.000000 
-0.524207 0.129431 0.000000 
-0.505864 0.186563 0.000000 
-0.468875 0.235775 0.000000 
-0.410369 0.265020 0.000000 
-0.354013 0.286137 0.000000 
-0.301050 0.296082 0.000000 
-0.255730 0.296855 0.000000 
-0.695595 -0.501546 0.000000 
-0.726457 -0.424665 0.000000 
-0.747352 -0.355209 0.000000 
-3.396487 1.890096 0.000000 
-3.344056 1.810708 0.000000 
-3.294256 1.767307 0.000000 
-3.248246 1.728983 0.000000 
-3.196818 1.689630 0.000000 
-3.159669 1.638319 0.000000 
-3.113281 1.591615 0.000000 
-3.056061 1.572051 0.000000 
-2.996684 1.549427 0.000000 
-2.933161 1.519810 0.000000 
-2.879064 1.483668 0.000000 
-2.813006 1.458882 0.000000 
-2.751664 1.435832 0.000000 
-2.686782 1.406509 0.000000 
-1.922020 -0.543928 0.000000 
-1.999705 -0.545427 0.000000 
-2.060018 -0.523823 0.000000 
-2.032615 -0.188836 0.000000 
-2.048550 -0.103114 0.000000 
-2.029059 -0.037221 0.000000 
-2.105228 -0.466765 0.000000 
-2.154373 -0.399170 0.000000 
-2.203584 -0.344546 0.000000 
-2.237020 -0.283111 0.000000 
-2.250593 -0.217818 0.000000 
-2.270119 -0.146034 0.000000 
-2.297898 -0.075724 0.000000 
-2.327118 -0.014144 0.000000 
-2.346747 0.039826 0.000000 
-2.362840 0.092935 0.000000 
-2.374561 0.143980 0.000000 
-2.373128 0.195955 0.000000 
-2.334174 0.262546 0.000000 
-2.331842 0.303164 0.000000 
-2.284565 0.311922 0.000000 
-0.236368 2.029353 0.000000 
-0.299146 2.073180 0.000000 
-0.346614 2.093105 0.000000 
-0.382877 2.056602 0.000000 
-0.412447 2.027552 0.000000 
-0.433989 1.987264 0.000000 
-0.446472 1.944298 0.000000 
-0.451628 1.904980 0.000000 
-0.451047 1.866517 0.000000 
-0.449242 1.830514 0.000000 
-0.453345 1.798624 0.000000 
-0.460251 1.770931 0.000000 
-0.470304 1.742146 0.000000 
-0.475290 1.712656 0.000000 
-0.478341 1.682870 0.000000 
-0.479442 1.646134 0.000000 
-2.609147 1.392720 0.000000 
-2.517189 1.387221 0.000000 
-2.434013 1.387558 0.000000 
-2.352624 1.377526 0.000000 
-2.274410 1.358155 0.000000 
-2.204499 1.323507 0.000000 
-2.180326 1.254624 0.000000 
-2.178559 1.166088 0.000000 
-2.168273 1.076059 0.000000 
-2.159086 0.977995 0.000000 
-2.144575 0.888836 0.000000 
-2.163040 0.813619 0.000000 
-2.183612 0.739527 0.000000 
-2.172907 0.674970 0.000000 
-2.161614 0.612215 0.000000 
-2.169833 0.552103 0.000000 
-2.188987 0.490350 0.000000 
-2.218663 0.439104 0.000000 
-2.229021 0.383231 0.000000 
-2.997130 1.760045 0.000000 
-3.021908 1.661907 0.000000 
-2.902046 1.728538 0.000000 
-0.770600 -0.272616 0.000000 
-0.790096 -0.180957 0.000000 
-0.811857 -0.100249 0.000000 
-0.835807 -0.021685 0.000000 
-0.859157 0.048443 0.000000 
-0.881226 0.108494 0.000000 
-0.903169 0.167845 0.000000 
-0.928196 0.231889 0.000000 
-2.785442 1.695984 0.000000 
-2.944278 1.635243 0.000000 
-2.855014 1.598097 0.000000 
-2.796189 1.538017 0.000000 
-2.651235 1.681238 0.000000 
-2.517962 1.670891 0.000000 
-2.394240 1.661728 0.000000 
-2.275192 1.653732 0.000000 
-2.180847 1.629171 0.000000 
-2.099904 1.602691 0.000000 
-2.018420 1.571452 0.000000 
-1.945469 1.575749 0.000000 
-1.885190 1.609089 0.000000 
-1.829736 1.629658 0.000000 
-1.760875 1.654889 0.000000 
-1.680504 1.683314 0.000000 
-1.617798 1.701631 0.000000 
-1.570169 1.716154 0.000000 
-1.527149 1.730344 0.000000 
-1.482581 1.742473 0.000000 
-1.433927 1.749014 0.000000 
-1.386311 1.756929 0.000000 
-1.337319 1.765659 0.000000 
-1.286363 1.772739 0.000000 
-1.235962 1.773456 0.000000 
-1.188452 1.778269 0.000000 
-1.140860 1.787720 0.000000 
-1.091558 1.787029 0.000000 
-1.038962 1.776011 0.000000 
-0.982519 1.757013 0.000000 
-0.922315 1.740271 0.000000 
-0.869867 1.729946 0.000000 
-0.827747 1.723456 0.000000 
-0.785371 1.718544 0.000000 
-0.748025 1.708807 0.000000 
-0.712781 1.698540 0.000000 
-0.681690 1.684608 0.000000 
-0.657198 1.673474 0.000000 
-0.633895 1.666811 0.000000 
-0.612002 1.662356 0.000000 
-0.594184 1.655143 0.000000 
-0.577381 1.645693 0.000000 
-0.560109 1.630409 0.000000 
-0.540091 1.597955 0.000000 
-1.243914 -0.040891 0.000000 
-1.232782 -0.027174 0.000000 
-1.257376 -0.055245 0.000000 
-1.224378 -0.008474 0.000000 
-1.271472 -0.074590 0.000000 
-1.215702 0.013523 0.000000 
-1.204660 0.039579 0.000000 
-1.290143 -0.102332 0.000000 
-1.314447 -0.147372 0.000000 
-1.190204 0.069886 0.000000 
-1.318041 -0.200726 0.000000 
-1.171655 0.104042 0.000000 
-1.149359 0.140356 0.000000 
-1.123094 0.178605 0.000000 
-1.284246 -0.250706 0.000000 
-1.239750 -0.301432 0.000000 
-1.083297 0.222596 0.000000 
-1.028190 0.254267 0.000000 
-1.181630 -0.343788 0.000000 
-1.112789 -0.375216 0.000000 
-1.040643 -0.387386 0.000000 
-0.978118 -0.390473 0.000000 
-0.927392 -0.403498 0.000000 
-0.889718 -0.442633 0.000000 
-0.873564 -0.499183 0.000000 
-0.920771 -0.531377 0.000000 
-0.935346 -0.464109 0.000000 
-0.991249 -0.540953 0.000000 
-1.088918 -0.538225 0.000000 
-1.067426 -0.458573 0.000000 
-1.189474 -0.530661 0.000000 
-1.147229 -0.445906 0.000000 
-1.266509 -0.507372 0.000000 
-1.219913 -0.419728 0.000000 
-1.335307 -0.471545 0.000000 
-1.284456 -0.381729 0.000000 
-1.402357 -0.427641 0.000000 
-1.341444 -0.333929 0.000000 
-1.466758 -0.374966 0.000000 
-1.539152 -0.314166 0.000000 
-1.393011 -0.275998 0.000000 
-1.612839 -0.243895 0.000000 
-1.665320 -0.186317 0.000000 
-1.691220 -0.121490 0.000000 
-1.704696 -0.035996 0.000000 
-1.850073 0.130873 0.000000 
-1.911042 0.075048 0.000000 
-1.969645 0.018211 0.000000 
-1.726970 0.070414 0.000000 
-0.222881 0.278244 0.000000 
-0.195707 0.250661 0.000000 
-0.164205 0.213714 0.000000 
-0.127520 0.181016 0.000000 
-0.095686 0.151524 0.000000 
-0.059027 0.123046 0.000000 
-0.018954 0.093063 0.000000 
0.030296 0.061792 0.000000 
0.086536 0.041266 0.000000 
0.141893 0.022535 0.000000 
0.202102 -0.006745 0.000000 
0.263408 -0.046662 0.000000 
0.311661 -0.096649 0.000000 
0.333954 -0.156271 0.000000 
0.338621 -0.216722 0.000000 
0.341530 -0.270660 0.000000 
0.353165 -0.320849 0.000000 
0.365710 -0.379272 0.000000 
0.363543 -0.448800 0.000000 
0.357353 -0.510915 0.000000 
0.351188 -0.561657 0.000000 
0.363842 -0.608685 0.000000 
-1.737069 -0.475336 0.000000 
-0.199590 0.330861 0.000000 
-0.156305 0.300945 0.000000 
-0.462327 1.566901 0.000000 
0.741313 2.089476 0.000000 
0.482415 -0.619456 0.000000 
0.446104 -0.627352 0.000000 
0.403556 -0.633006 0.000000 
-0.104001 0.272880 0.000000 
-0.514998 1.498956 0.000000 
-0.059937 0.238476 0.000000 
0.738519 2.064211 0.000000 
0.714572 2.076511 0.000000 
-0.249752 0.357685 0.000000 
-0.036232 0.194677 0.000000 
0.000772 0.166845 0.000000 
0.035161 0.141200 0.000000 
-1.776537 -0.474778 0.000000 
-1.836238 -0.470593 0.000000 
-0.309416 0.371785 0.000000 
-0.378944 0.369521 0.000000 
-2.292732 0.249109 0.000000 
-2.315166 0.199118 0.000000 
-2.314418 0.151561 0.000000 
-2.293418 0.105175 0.000000 
-2.279687 0.055296 0.000000 
-2.253462 0.008030 0.000000 
0.075120 0.113458 0.000000 
0.131113 0.100850 0.000000 
-0.977004 0.302833 0.000000 
-0.860050 0.292668 0.000000 
-1.912142 -0.462537 0.000000 
-1.989966 -0.471317 0.000000 
-2.023752 -0.403775 0.000000 
-2.082175 -0.332514 0.000000 
0.723889 2.032698 0.000000 
0.691466 2.051540 0.000000 
0.665980 2.018894 0.000000 
0.704783 1.991625 0.000000 
0.637970 1.980836 0.000000 
0.681732 1.944417 0.000000 
0.670916 1.898242 0.000000 
0.602858 1.949168 0.000000 
0.659584 1.857818 0.000000 
0.560783 1.922797 0.000000 
0.636111 1.821743 0.000000 
0.607495 1.771953 0.000000 
0.595324 1.708472 0.000000 
0.604052 1.643799 0.000000 
0.514160 1.893393 0.000000 
0.453857 1.865948 0.000000 
0.392525 1.863970 0.000000 
0.334098 1.862441 0.000000 
0.278675 1.843688 0.000000 
0.217273 1.825612 0.000000 
0.149449 1.808257 0.000000 
0.614128 1.591523 0.000000 
0.621313 1.543944 0.000000 
0.624262 1.499064 0.000000 
-2.197766 -0.045158 0.000000 
-2.158682 -0.120082 0.000000 
-2.124695 0.014172 0.000000 
-2.150589 -0.286208 0.000000 
-2.141926 -0.208663 0.000000 
-0.393439 -0.625223 0.000000 
-0.412631 -0.581179 0.000000 
-0.436983 -0.540576 0.000000 
-0.445953 -0.497156 0.000000 
-0.458251 -0.464331 0.000000 
-0.479726 -0.429564 0.000000 
-0.496934 -0.380833 0.000000 
-0.509002 -0.325750 0.000000 
-0.517157 -0.271419 0.000000 
-0.545309 -0.220144 0.000000 
-0.442273 -0.622617 0.000000 
-0.496002 -0.613100 0.000000 
-0.557668 -0.615207 0.000000 
-0.618975 -0.599726 0.000000 
-0.334659 2.031292 0.000000 
-0.367985 2.001575 0.000000 
-0.385153 1.965149 0.000000 
-0.396797 1.931282 0.000000 
-0.406285 1.895759 0.000000 
-0.402558 1.856626 0.000000 
-0.406645 1.818183 0.000000 
-0.418378 1.785769 0.000000 
-0.428059 1.756643 0.000000 
-0.435849 1.727096 0.000000 
-0.442335 1.697061 0.000000 
-0.445406 1.663996 0.000000 
-0.444483 1.618279 0.000000 
0.619822 1.453332 0.000000 
-1.077870 0.349897 0.000000 
-1.149036 0.307938 0.000000 
-1.174735 0.233096 0.000000 
-1.192231 0.181373 0.000000 
-1.210811 0.139596 0.000000 
-1.228352 0.100256 0.000000 
-1.238869 0.062276 0.000000 
-1.244643 0.030779 0.000000 
-1.248534 0.005878 0.000000 
-1.252336 -0.013410 0.000000 
-1.262323 -0.026661 0.000000 
-1.280319 -0.037577 0.000000 
-0.451814 0.346861 0.000000 
-0.526928 0.303339 0.000000 
0.194935 0.083858 0.000000 
0.069048 1.794157 0.000000 
-0.574175 0.232655 0.000000 
-0.593607 0.151552 0.000000 
-1.764101 0.191236 0.000000 
-2.210991 0.310093 0.000000 
-0.825996 0.207391 0.000000 
-0.799223 0.136310 0.000000 
-0.760911 0.069877 0.000000 
0.605964 1.402380 0.000000 
0.587834 1.345020 0.000000 
0.576354 1.285172 0.000000 
0.574971 1.230163 0.000000 
0.580375 1.187139 0.000000 
0.545179 1.164755 0.000000 
0.509957 1.132492 0.000000 
0.484198 1.096090 0.000000 
0.468721 1.064936 0.000000 
0.449386 1.046404 0.000000 
0.422962 1.033739 0.000000 
0.391379 1.014588 0.000000 
0.357154 0.990525 0.000000 
0.323730 0.962152 0.000000 
-0.582151 -0.159276 0.000000 
0.265957 0.057428 0.000000 
0.333763 0.011298 0.000000 
0.378371 -0.055717 0.000000 
0.400918 -0.130112 0.000000 
0.401084 -0.193101 0.000000 
0.404345 -0.247202 0.000000 
0.432648 -0.298284 0.000000 
0.450030 -0.362725 0.000000 
0.529803 -0.209572 0.000000 
0.491947 -0.257709 0.000000 
0.453243 -0.207826 0.000000 
0.449550 -0.437049 0.000000 
0.498420 -0.163698 0.000000 
0.474171 -0.103757 0.000000 
0.457863 -0.029184 0.000000 
0.462195 -0.495703 0.000000 
0.478704 -0.542039 0.000000 
0.483460 -0.583005 0.000000 
0.412910 -0.521345 0.000000 
0.398390 -0.560058 0.000000 
0.404290 -0.594346 0.000000 
0.442452 -0.589787 0.000000 
0.436659 -0.554623 0.000000 
-0.727378 -0.004256 0.000000 
-0.616071 0.077762 0.000000 
-0.623548 0.003482 0.000000 
-0.605779 -0.077526 0.000000 
-0.706340 -0.089974 0.000000 
-0.681483 -0.176236 0.000000 
-0.032304 1.788596 0.000000 
-0.128010 1.824746 0.000000 
-0.195732 1.891870 0.000000 
-0.243911 1.945784 0.000000 
-0.287859 1.993187 0.000000 
-0.335518 1.965492 0.000000 
-0.667608 -0.261617 0.000000 
-0.584906 -0.268385 0.000000 
-0.658169 -0.341626 0.000000 
-0.578442 -0.333755 0.000000 
-0.639050 -0.413068 0.000000 
-0.607982 -0.488585 0.000000 
-0.562541 -0.396455 0.000000 
-0.536184 -0.457478 0.000000 
-0.495978 -0.495440 0.000000 
-0.500680 -0.547834 0.000000 
-0.573051 -0.552287 0.000000 
-2.690892 1.561891 0.000000 
-2.684799 1.475878 0.000000 
-2.602920 1.474616 0.000000 
-2.574381 1.559609 0.000000 
-2.518122 1.494483 0.000000 
-2.424460 1.518381 0.000000 
-2.320006 1.509450 0.000000 
-2.229986 1.485832 0.000000 
-2.146342 1.444592 0.000000 
-1.455055 -0.217016 0.000000 
-1.387692 -0.136693 0.000000 
-1.339496 -0.083365 0.000000 
-1.304977 -0.054805 0.000000 
-1.531301 -0.151523 0.000000 
-1.604385 -0.107411 0.000000 
-1.592423 -0.006730 0.000000 
-1.608296 0.117233 0.000000 
-1.827918 0.315678 0.000000 
0.477873 0.084481 0.000000 
0.477147 0.119380 0.000000 
0.465631 0.153620 0.000000 
-0.587742 1.597829 0.000000 
-0.593403 1.621933 0.000000 
-0.604579 1.634589 0.000000 
-0.619289 1.640275 0.000000 
-0.639577 1.638102 0.000000 
-0.665912 1.639718 0.000000 
-0.697937 1.646704 0.000000 
-0.595692 1.544341 0.000000 
-0.726123 1.661516 0.000000 
-0.757398 1.672087 0.000000 
-0.794522 1.669511 0.000000 
-0.841416 1.666933 0.000000 
-0.894922 1.668294 0.000000 
-0.956071 1.676710 0.000000 
-1.020951 1.695631 0.000000 
-1.077937 1.723266 0.000000 
-1.120258 1.751994 0.000000 
-1.171769 1.727734 0.000000 
0.332207 0.281125 0.000000 
0.333662 0.239390 0.000000 
0.321472 0.309742 0.000000 
0.302407 0.336554 0.000000 
0.214022 0.351216 0.000000 
0.194081 0.412241 0.000000 
0.186716 0.467754 0.000000 
0.189303 0.520526 0.000000 
0.360023 0.199708 0.000000 
0.405131 0.174575 0.000000 
0.201671 0.569772 0.000000 
0.218038 0.620033 0.000000 
0.236652 0.668966 0.000000 
0.256885 0.710900 0.000000 
0.278373 0.739394 0.000000 
0.284019 0.772792 0.000000 
0.276718 0.819540 0.000000 
0.278735 0.876353 0.000000 
0.296322 0.926620 0.000000 
-1.507867 1.679492 0.000000 
-1.548116 1.654849 0.000000 
-1.598023 1.627470 0.000000 
-1.467251 1.694265 0.000000 
-1.422160 1.701549 0.000000 
-1.373311 1.708265 0.000000 
-1.322903 1.716042 0.000000 
-1.275577 1.725288 0.000000 
-1.225048 1.723888 0.000000 
-1.662214 1.603801 0.000000 
-1.732600 1.583861 0.000000 
-1.794687 1.569485 0.000000 
-1.841773 1.540298 0.000000 
-2.078405 0.607571 0.000000 
-2.079214 0.686160 0.000000 
-2.097651 0.529971 0.000000 
-2.129318 0.458232 0.000000 
-2.096743 0.766722 0.000000 
-2.169699 0.402888 0.000000 
-1.991686 0.329888 0.000000 
-1.642187 0.255444 0.000000 
-1.989898 0.162663 0.000000 
-2.064526 0.090851 0.000000 
-1.914688 0.236198 0.000000 
-2.037969 1.019275 0.000000 
-2.021377 0.903590 0.000000 
-2.055796 1.148436 0.000000 
-2.102728 1.251089 0.000000 
-2.047875 1.393392 0.000000 
0.428030 0.140122 0.000000 
0.375625 0.118887 0.000000 
0.313454 0.131987 0.000000 
0.290352 0.278022 0.000000 
0.238487 0.988940 0.000000 
0.440631 0.102015 0.000000 
0.396678 0.062238 0.000000 
0.460488 0.036317 0.000000 
0.523747 1.212430 0.000000 
-2.262588 0.175684 0.000000 
-2.220468 0.231712 0.000000 
-2.218579 0.122173 0.000000 
-2.146376 0.174023 0.000000 
-2.206503 0.057103 0.000000 
0.473879 1.173818 0.000000 
0.446488 1.121486 0.000000 
0.440978 1.077467 0.000000 
0.409581 1.069612 0.000000 
0.629179 1.898508 0.000000 
0.593839 1.866034 0.000000 
0.550362 1.821830 0.000000 
0.483841 1.781408 0.000000 
0.202470 0.922575 0.000000 
0.241245 0.774800 0.000000 
0.205152 0.749999 0.000000 
0.175878 0.701859 0.000000 
0.153326 0.643352 0.000000 
0.132079 0.582902 0.000000 
0.113278 0.518446 0.000000 
0.106000 0.450123 0.000000 
0.109640 0.380927 0.000000 
0.121648 0.310249 0.000000 
0.032483 0.220635 0.000000 
0.246820 0.303313 0.000000 
0.099619 0.169000 0.000000 
0.373127 1.054730 0.000000 
-0.307911 1.917870 0.000000 
-0.360136 1.899400 0.000000 
-0.343252 1.845055 0.000000 
-0.270247 1.853199 0.000000 
0.168337 0.165518 0.000000 
0.242346 0.155181 0.000000 
0.270369 0.224218 0.000000 
0.505525 1.280191 0.000000 
-0.689828 0.107446 0.000000 
-0.729540 0.164850 0.000000 
-0.746154 0.239322 0.000000 
-0.657668 0.255887 0.000000 
-0.661195 0.171600 0.000000 
-0.924642 0.408562 0.000000 
-1.137284 1.671926 0.000000 
-1.072920 1.627332 0.000000 
-1.248127 1.684223 0.000000 
-1.304069 1.667900 0.000000 
-1.360197 1.660240 0.000000 
-1.411221 1.656101 0.000000 
-1.453165 1.652871 0.000000 
-1.486003 1.635409 0.000000 
-1.510814 1.591940 0.000000 
-1.558800 1.547271 0.000000 
-0.995058 1.600579 0.000000 
-0.919611 1.590102 0.000000 
-0.852227 1.597034 0.000000 
-0.796966 1.613553 0.000000 
-0.752732 1.632722 0.000000 
-1.635591 1.519938 0.000000 
-1.992480 0.794639 0.000000 
-1.965104 0.684860 0.000000 
-1.974377 0.581527 0.000000 
-2.014368 0.487905 0.000000 
-2.065453 0.404719 0.000000 
-2.071492 0.251652 0.000000 
-2.131272 0.335189 0.000000 
-1.712039 1.506615 0.000000 
-1.781280 1.506565 0.000000 
-1.884796 1.476508 0.000000 
0.516332 1.696171 0.000000 
0.538779 1.625043 0.000000 
0.517174 1.354576 0.000000 
0.552532 1.416513 0.000000 
0.576896 1.458439 0.000000 
0.583356 1.495465 0.000000 
0.576083 1.532470 0.000000 
0.562288 1.574830 0.000000 
-0.776910 0.335936 0.000000 
-1.451771 -0.077211 0.000000 
-1.374596 -0.039429 0.000000 
-1.326837 -0.023968 0.000000 
-1.272657 -0.008771 0.000000 
-1.295259 -0.014540 0.000000 
-1.274719 0.012765 0.000000 
-1.277356 0.039867 0.000000 
-1.282752 0.074950 0.000000 
-1.279912 0.122726 0.000000 
-1.259061 0.166522 0.000000 
-1.246354 0.208015 0.000000 
-1.247511 0.262985 0.000000 
-1.260959 0.351616 0.000000 
-1.083075 0.521889 0.000000 
-1.474179 0.017300 0.000000 
-1.468523 0.142957 0.000000 
-1.714576 0.410712 0.000000 
-1.917838 0.417336 0.000000 
-1.479337 0.292810 0.000000 
-1.929043 1.349206 0.000000 
-1.933932 1.186864 0.000000 
-1.916094 1.047174 0.000000 
-1.891356 0.927890 0.000000 
-0.640008 1.603637 0.000000 
-0.671120 1.596613 0.000000 
-0.705575 1.603032 0.000000 
-0.401264 1.466915 0.000000 
-0.460851 1.310791 0.000000 
-0.397949 1.580386 0.000000 
-0.609239 1.598115 0.000000 
-0.410298 1.644519 0.000000 
-0.408964 1.679334 0.000000 
-0.399540 1.708454 0.000000 
-0.395782 1.741321 0.000000 
0.285100 1.023181 0.000000 
0.331625 1.040486 0.000000 
-0.121818 0.359046 0.000000 
0.021900 0.281700 0.000000 
0.115588 0.235463 0.000000 
0.198863 0.237416 0.000000 
-0.064867 0.338221 0.000000 
0.364707 1.806373 0.000000 
0.303732 1.775294 0.000000 
0.240047 1.744586 0.000000 
0.172732 1.706291 0.000000 
0.087651 1.665957 0.000000 
-0.030041 1.641211 0.000000 
-0.215594 1.764662 0.000000 
-0.230359 0.441144 0.000000 
-0.307828 0.475308 0.000000 
-0.401252 0.486180 0.000000 
-0.492206 0.457934 0.000000 
-0.743012 1.589490 0.000000 
-0.382985 1.768185 0.000000 
-0.353471 1.796928 0.000000 
-1.315709 0.202242 0.000000 
-1.343314 0.284161 0.000000 
-0.721193 1.547978 0.000000 
-0.632022 1.558906 0.000000 
-0.618292 1.617629 0.000000 
-1.300529 0.010954 0.000000 
-1.311319 0.037199 0.000000 
-0.675320 1.535443 0.000000 
-1.449691 1.612148 0.000000 
-0.167828 0.399899 0.000000 
-0.066773 0.415942 0.000000 
0.014030 0.353144 0.000000 
-1.331624 0.012334 0.000000 
-1.380062 0.026238 0.000000 
-1.340869 0.070942 0.000000 
-1.353905 0.141149 0.000000 
0.406993 1.117877 0.000000 
-1.403597 1.610635 0.000000 
0.364934 1.107829 0.000000 
-1.348692 1.611355 0.000000 
0.247855 1.120834 0.000000 
0.315701 1.117440 0.000000 
0.207111 0.842367 0.000000 
0.143206 0.821490 0.000000 
-1.453768 1.559872 0.000000 
-0.790281 1.547850 0.000000 
-1.284745 1.615026 0.000000 
-1.791133 1.427498 0.000000 
-1.698001 1.411706 0.000000 
-1.602996 1.416897 0.000000 
-1.509140 1.447765 0.000000 
-1.850904 0.807931 0.000000 
0.171486 1.092083 0.000000 
0.103791 0.750250 0.000000 
0.081732 0.676537 0.000000 
0.012465 0.439676 0.000000 
0.056973 0.605604 0.000000 
-0.859037 1.504418 0.000000 
-0.947148 1.488466 0.000000 
-1.042292 1.511115 0.000000 
-1.207800 1.634056 0.000000 
0.405236 1.742835 0.000000 
0.432576 1.651833 0.000000 
0.470249 1.584087 0.000000 
0.516988 1.547645 0.000000 
0.538064 1.514145 0.000000 
0.548893 1.480230 0.000000 
0.511168 1.450130 0.000000 
0.447440 1.403594 0.000000 
0.336576 1.709967 0.000000 
0.352905 1.630688 0.000000 
0.280111 1.671709 0.000000 
0.425405 1.502803 0.000000 
0.495333 1.500986 0.000000 
0.435871 1.237571 0.000000 
-0.582540 0.403609 0.000000 
-1.810838 0.662717 0.000000 
-1.837718 0.524896 0.000000 
0.231389 1.604768 0.000000 
-0.169223 1.622662 0.000000 
-0.358516 1.733682 0.000000 
-0.831990 0.460017 0.000000 
-0.676614 0.363698 0.000000 
-0.304985 1.742295 0.000000 
0.154076 1.514722 0.000000 
0.032165 1.448840 0.000000 
-1.118654 1.553653 0.000000 
-1.306357 0.531885 0.000000 
-1.538817 0.480850 0.000000 
-1.801087 1.312102 0.000000 
-1.802902 1.177567 0.000000 
-1.804665 1.058217 0.000000 
-1.777440 0.954572 0.000000 
-0.986798 0.751551 0.000000 
-0.372825 1.645133 0.000000 
-0.323929 1.567377 0.000000 
-0.283612 1.636372 0.000000 
-0.355311 1.683081 0.000000 
-0.277653 1.394517 0.000000 
-0.126264 1.403294 0.000000 
-0.312271 1.147658 0.000000 
-0.289946 0.607788 0.000000 
-0.193810 0.542381 0.000000 
-0.423907 0.651323 0.000000 
-0.114792 0.480150 0.000000 
-0.535770 0.605904 0.000000 
-1.422411 1.482827 0.000000 
-1.396637 1.564921 0.000000 
0.101283 1.020843 0.000000 
0.384708 1.171476 0.000000 
-0.765487 1.476774 0.000000 
0.024488 0.526190 0.000000 
-1.685710 1.290508 0.000000 
-0.851171 1.379045 0.000000 
-0.603497 1.427821 0.000000 
-0.978154 1.346879 0.000000 
-0.699634 1.430316 0.000000 
-1.566560 1.284541 0.000000 
0.324386 1.217985 0.000000 
0.225177 1.263193 0.000000 
0.103404 1.259038 0.000000 
0.264525 1.405683 0.000000 
0.375524 1.325954 0.000000 
-0.722859 0.489286 0.000000 
-0.804099 0.622147 0.000000 
-0.630108 0.533699 0.000000 
-1.342192 1.562600 0.000000 
-1.445045 1.317461 0.000000 
0.042573 0.919749 0.000000 
-1.197152 1.564948 0.000000 
-1.275712 1.554137 0.000000 
0.009788 0.806136 0.000000 
0.007428 0.712241 0.000000 
-1.624661 0.680643 0.000000 
-1.706493 0.846772 0.000000 
-0.014319 0.640696 0.000000 
-0.059935 0.565097 0.000000 
-0.139952 0.645733 0.000000 
-0.233328 0.767898 0.000000 
-0.073092 0.712817 0.000000 
-0.121108 0.842673 0.000000 
-0.119730 1.037252 0.000000 
-0.398430 0.890677 0.000000 
-0.026441 1.189001 0.000000 
-1.679294 1.152652 0.000000 
-1.698733 1.030916 0.000000 
-1.219031 0.937252 0.000000 
-0.854674 1.023046 0.000000 
-0.658235 0.697758 0.000000 
-0.623629 0.939953 0.000000 
-0.765556 1.264612 0.000000 
-0.596319 1.221920 0.000000 
-1.360217 1.516984 0.000000 
-1.334110 1.392822 0.000000 
-1.529501 1.112703 0.000000 
-1.363780 1.148640 0.000000 
-1.571029 0.951378 0.000000 
-1.188333 1.484672 0.000000 
-1.056334 1.154515 0.000000 
-1.217896 1.283775 0.000000 
-1.279678 1.478860 0.000000 
-0.993027 -0.463143 0.000000 
-3.091970 1.678391 0.000000 
-1.410358 0.780109 0.000000 
-1.115382 1.407098 0.000000 
0.330018 1.529517 0.000000 
-0.391446 2.089285 0.000000 
-1.734831 -0.532291 0.000000 
-2.357079 0.282154 0.000000 
-3.441445 1.865724 0.000000 
-2.367134 0.244930 0.000000 
-3.393690 1.839744 0.000000 
CELLS 899 1798 
1 0 
1 1 
1 2 
1 3 
1 4 
1 5 
1 6 
1 7 
1 8 
1 9 
1 10 
1 11 
1 12 
1 13 
1 14 
1 15 
1 16 
1 17 
1 18 
1 19 
1 20 
1 21 
1 22 
1 23 
1 24 
1 25 
1 26 
1 27 
1 28 
1 29 
1 30 
1 31 
1 32 
1 33 
1 34 
1 35 
1 36 
1 37 
1 38 
1 39 
1 40 
1 41 
1 42 
1 43 
1 44 
1 45 
1 46 
1 47 
1 48 
1 49 
1 50 
1 51 
1 52 
1 53 
1 54 
1 55 
1 56 
1 57 
1 58 
1 59 
1 60 
1 61 
1 62 
1 63 
1 64 
1 65 
1 66 
1 67 
1 68 
1 69 
1 70 
1 71 
1 72 
1 73 
1 74 
1 75 
1 76 
1 77 
1 78 
1 79 
1 80 
1 81 
1 82 
1 83 
1 84 
1 85 
1 86 
1 87 
1 88 
1 89 
1 90 
1 91 
1 92 
1 93 
1 94 
1 95 
1 96 
1 97 
1 98 
1 99 
1 100 
1 101 
1 102 
1 103 
1 104 
1 105 
1 106 
1 107 
1 108 
1 109 
1 110 
1 111 
1 112 
1 113 
1 114 
1 115 
1 116 
1 117 
1 118 
1 119 
1 120 
1 121 
1 122 
1 123 
1 124 
1 125 
1 126 
1 127 
1 128 
1 129 
1 130 
1 131 
1 132 
1 133 
1 134 
1 135 
1 136 
1 137 
1 138 
1 139 
1 140 
1 141 
1 142 
1 143 
1 144 
1 145 
1 146 
1 147 
1 148 
1 149 
1 150 
1 151 
1 152 
1 153 
1 154 
1 155 
1 156 
1 157 
1 158 
1 159 
1 160 
1 161 
1 162 
1 163 
1 164 
1 165 
1 166 
1 167 
1 168 
1 169 
1 170 
1 171 
1 172 
1 173 
1 174 
1 175 
1 176 
1 177 
1 178 
1 179 
1 180 
1 181 
1 182 
1 183 
1 184 
1 185 
1 186 
1 187 
1 188 
1 189 
1 190 
1 191 
1 192 
1 193 
1 194 
1 195 
1 196 
1 197 
1 198 
1 199 
1 200 
1 201 
1 202 
1 203 
1 204 
1 205 
1 206 
1 207 
1 208 
1 209 
1 210 
1 211 
1 212 
1 213 
1 214 
1 215 
1 216 
1 217 
1 218 
1 219 
1 220 
1 221 
1 222 
1 223 
1 224 
1 225 
1 226 
1 227 
1 228 
1 229 
1 230 
1 231 
1 232 
1 233 
1 234 
1 235 
1 236 
1 237 
1 238 
1 239 
1 240 
1 241 
1 242 
1 243 
1 244 
1 245 
1 246 
1 247 
1 248 
1 249 
1 250 
1 251 
1 252 
1 253 
1 254 
1 255 
1 256 
1 257 
1 258 
1 259 
1 260 
1 261 
1 262 
1 263 
1 264 
1 265 
1 266 
1 267 
1 268 
1 269 
1 270 
1 271 
1 272 
1 273 
1 274 
1 275 
1 276 
1 277 
1 278 
1 279 
1 280 
1 281 
1 282 
1 283 
1 284 
1 285 
1 286 
1 287 
1 288 
1 289 
1 290 
1 291 
1 292 
1 293 
1 294 
1 295 
1 296 
1 297 
1 298 
1 299 
1 300 
1 301 
1 302 
1 303 
1 304 
1 305 
1 306 
1 307 
1 308 
1 309 
1 310 
1 311 
1 312 
1 313 
1 314 
1 315 
1 316 
1 317 
1 318 
1 319 
1 320 
1 321 
1 322 
1 323 
1 324 
1 325 
1 326 
1 327 
1 328 
1 329 
1 330 
1 331 
1 332 
1 333 
1 334 
1 335 
1 336 
1 337 
1 338 
1 339 
1 340 
1 341 
1 342 
1 343 
1 344 
1 345 
1 346 
1 347 
1 348 
1 349 
1 350 
1 351 
1 352 
1 353 
1 354 
1 355 
1 356 
1 357 
1 358 
1 359 
1 360 
1 361 
1 362 
1 363 
1 364 
1 365 
1 366 
1 367 
1 368 
1 369 
1 370 
1 371 
1 372 
1 373 
1 374 
1 375 
1 376 
1 377 
1 378 
1 379 
1 380 
1 381 
1 382 
1 383 
1 384 
1 385 
1 386 
1 387 
1 388 
1 389 
1 390 
1 391 
1 392 
1 393 
1 394 
1 395 
1 396 
1 397 
1 398 
1 399 
1 400 
1 401 
1 402 
1 403 
1 404 
1 405 
1 406 
1 407 
1 408 
1 409 
1 410 
1 411 
1 412 
1 413 
1 414 
1 415 
1 416 
1 417 
1 418 
1 419 
1 420 
1 421 
1 422 
1 423 
1 424 
1 425 
1 426 
1 427 
1 428 
1 429 
1 430 
1 431 
1 432 
1 433 
1 434 
1 435 
1 436 
1 437 
1 438 
1 439 
1 440 
1 441 
1 442 
1 443 
1 444 
1 445 
1 446 
1 447 
1 448 
1 449 
1 450 
1 451 
1 452 
1 453 
1 454 
1 455 
1 456 
1 457 
1 458 
1 459 
1 460 
1 461 
1 462 
1 463 
1 464 
1 465 
1 466 
1 467 
1 468 
1 469 
1 470 
1 471 
1 472 
1 473 
1 474 
1 475 
1 476 
1 477 
1 478 
1 479 
1 480 
1 481 
1 482 
1 483 
1 484 
1 485 
1 486 
1 487 
1 488 
1 489 
1 490 
1 491 
1 492 
1 493 
1 494 
1 495 
1 496 
1 497 
1 498 
1 499 
1 500 
1 501 
1 502 
1 503 
1 504 
1 505 
1 506 
1 507 
1 508 
1 509 
1 510 
1 511 
1 512 
1 513 
1 514 
1 515 
1 516 
1 517 
1 518 
1 519 
1 520 
1 521 
1 522 
1 523 
1 524 
1 525 
1 526 
1 527 
1 528 
1 529 
1 530 
1 531 
1 532 
1 533 
1 534 
1 535 
1 536 
1 537 
1 538 
1 539 
1 540 
1 541 
1 542 
1 543 
1 544 
1 545 
1 546 
1 547 
1 548 
1 549 
1 550 
1 551 
1 552 
1 553 
1 554 
1 555 
1 556 
1 557 
1 558 
1 559 
1 560 
1 561 
1 562 
1 563 
1 564 
1 565 
1 566 
1 567 
1 568 
1 569 
1 570 
1 571 
1 572 
1 573 
1 574 
1 575 
1 576 
1 577 
1 578 
1 579 
1 580 
1 581 
1 582 
1 583 
1 584 
1 585 
1 586 
1 587 
1 588 
1 589 
1 590 
1 591 
1 592 
1 593 
1 594 
1 595 
1 596 
1 597 
1 598 
1 599 
1 600 
1 601 
1 602 
1 603 
1 604 
1 605 
1 606 
1 607 
1 608 
1 609 
1 610 
1 611 
1 612 
1 613 
1 614 
1 615 
1 616 
1 617 
1 618 
1 619 
1 620 
1 621 
1 622 
1 623 
1 624 
1 625 
1 626 
1 627 
1 628 
1 629 
1 630 
1 631 
1 632 
1 633 
1 634 
1 635 
1 636 
1 637 
1 638 
1 639 
1 640 
1 641 
1 642 
1 643 
1 644 
1 645 
1 646 
1 647 
1 648 
1 649 
1 650 
1 651 
1 652 
1 653 
1 654 
1 655 
1 656 
1 657 
1 658 
1 659 
1 660 
1 661 
1 662 
1 663 
1 664 
1 665 
1 666 
1 667 
1 668 
1 669 
1 670 
1 671 
1 672 
1 673 
1 674 
1 675 
1 676 
1 677 
1 678 
1 679 
1 680 
1 681 
1 682 
1 683 
1 684 
1 685 
1 686 
1 687 
1 688 
1 689 
1 690 
1 691 
1 692 
1 693 
1 694 
1 695 
1 696 
1 697 
1 698 
1 699 
1 700 
1 701 
1 702 
1 703 
1 704 
1 705 
1 706 
1 707 
1 708 
1 709 
1 710 
1 711 
1 712 
1 713 
1 714 
1 715 
1 716 
1 717 
1 718 
1 719 
1 720 
1 721 
1 722 
1 723 
1 724 
1 725 
1 726 
1 727 
1 728 
1 729 
1 730 
1 731 
1 732 
1 733 
1 734 
1 735 
1 736 
1 737 
1 738 
1 739 
1 740 
1 741 
1 742 
1 743 
1 744 
1 745 
1 746 
1 747 
1 748 
1 749 
1 750 
1 751 
1 752 
1 753 
1 754 
1 755 
1 756 
1 757 
1 758 
1 759 
1 760 
1 761 
1 762 
1 763 
1 764 
1 765 
1 766 
1 767 
1 768 
1 769 
1 770 
1 771 
1 772 
1 773 
1 774 
1 775 
1 776 
1 777 
1 778 
1 779 
1 780 
1 781 
1 782 
1 783 
1 784 
1 785 
1 786 
1 787 
1 788 
1 789 
1 790 
1 791 
1 792 
1 793 
1 794 
1 795 
1 796 
1 797 
1 798 
1 799 
1 800 
1 801 
1 802 
1 803 
1 804 
1 805 
1 806 
1 807 
1 808 
1 809 
1 810 
1 811 
1 812 
1 813 
1 814 
1 815 
1 816 
1 817 
1 818 
1 819 
1 820 
1 821 
1 822 
1 823 
1 824 
1 825 
1 826 
1 827 
1 828 
1 829 
1 830 
1 831 
1 832 
1 833 
1 834 
1 835 
1 836 
1 837 
1 838 
1 839 
1 840 
1 841 
1 842 
1 843 
1 844 
1 845 
1 846 
1 847 
1 848 
1 849 
1 850 
1 851 
1 852 
1 853 
1 854 
1 855 
1 856 
1 857 
1 858 
1 859 
1 860 
1 861 
1 862 
1 863 
1 864 
1 865 
1 866 
1 867 
1 868 
1 869 
1 870 
1 871 
1 872 
1 873 
1 874 
1 875 
1 876 
1 877 
1 878 
1 879 
1 880 
1 881 
1 882 
1 883 
1 884 
1 885 
1 886 
1 887 
1 888 
1 889 
1 890 
1 891 
1 892 
1 893 
1 894 
1 895 
1 896 
1 897 
1 898 
CELL_TYPES 899 
1 
1 
1 
1 
1 
1 
1 
1 
1 
1 
1 
1 
1 
1 
1 
1 
1 
1 
1 
1 
1 
1 
1 
1 
1 
1 
1 
1 
1 
1 
1 
1 
1 
1 
1 
1 
1 
1 
1 
1 
1 
1 
1 
1 
1 
1 
1 
1 
1 
1 
1 
1 
1 
1 
1 
1 
1 
1 
1 
1 
1 
1 
1 
1 
1 
1 
1 
1 
1 
1 
1 
1 
1 
1 
1 
1 
1 
1 
1 
1 
1 
1 
1 
1 
1 
1 
1 
1 
1 
1 
1 
1 
1 
1 
1 
1 
1 
1 
1 
1 
1 
1 
1 
1 
1 
1 
1 
1 
1 
1 
1 
1 
1 
1 
1 
1 
1 
1 
1 
1 
1 
1 
1 
1 
1 
1 
1 
1 
1 
1 
1 
1 
1 
1 
1 
1 
1 
1 
1 
1 
1 
1 
1 
1 
1 
1 
1 
1 
1 
1 
1 
1 
1 
1 
1 
1 
1 
1 
1 
1 
1 
1 
1 
1 
1 
1 
1 
1 
1 
1 
1 
1 
1 
1 
1 
1 
1 
1 
1 
1 
1 
1 
1 
1 
1 
1 
1 
1 
1 
1 
1 
1 
1 
1 
1 
1 
1 
1 
1 
1 
1 
1 
1 
1 
1 
1 
1 
1 
1 
1 
1 
1 
1 
1 
1 
1 
1 
1 
1 
1 
1 
1 
1 
1 
1 
1 
1 
1 
1 
1 
1 
1 
1 
1 
1 
1 
1 
1 
1 
1 
1 
1 
1 
1 
1 
1 
1 
1 
1 
1 
1 
1 
1 
1 
1 
1 
1 
1 
1 
1 
1 
1 
1 
1 
1 
1 
1 
1 
1 
1 
1 
1 
1 
1 
1 
1 
1 
1 
1 
1 
1 
1 
1 
1 
1 
1 
1 
1 
1 
1 
1 
1 
1 
1 
1 
1 
1 
1 
1 
1 
1 
1 
1 
1 
1 
1 
1 
1 
1 
1 
1 
1 
1 
1 
1 
1 
1 
1 
1 
1 
1 
1 
1 
1 
1 
1 
1 
1 
1 
1 
1 
1 
1 
1 
1 
1 
1 
1 
1 
1 
1 
1 
1 
1 
1 
1 
1 
1 
1 
1 
1 
1 
1 
1 
1 
1 
1 
1 
1 
1 
1 
1 
1 
1 
1 
1 
1 
1 
1 
1 
1 
1 
1 
1 
1 
1 
1 
1 
1 
1 
1 
1 
1 
1 
1 
1 
1 
1 
1 
1 
1 
1 
1 
1 
1 
1 
1 
1 
1 
1 
1 
1 
1 
1 
1 
1 
1 
1 
1 
1 
1 
1 
1 
1 
1 
1 
1 
1 
1 
1 
1 
1 
1 
1 
1 
1 
1 
1 
1 
1 
1 
1 
1 
1 
1 
1 
1 
1 
1 
1 
1 
1 
1 
1 
1 
1 
1 
1 
1 
1 
1 
1 
1 
1 
1 
1 
1 
1 
1 
1 
1 
1 
1 
1 
1 
1 
1 
1 
1 
1 
1 
1 
1 
1 
1 
1 
1 
1 
1 
1 
1 
1 
1 
1 
1 
1 
1 
1 
1 
1 
1 
1 
1 
1 
1 
1 
1 
1 
1 
1 
1 
1 
1 
1 
1 
1 
1 
1 
1 
1 
1 
1 
1 
1 
1 
1 
1 
1 
1 
1 
1 
1 
1 
1 
1 
1 
1 
1 
1 
1 
1 
1 
1 
1 
1 
1 
1 
1 
1 
1 
1 
1 
1 
1 
1 
1 
1 
1 
1 
1 
1 
1 
1 
1 
1 
1 
1 
1 
1 
1 
1 
1 
1 
1 
1 
1 
1 
1 
1 
1 
1 
1 
1 
1 
1 
1 
1 
1 
1 
1 
1 
1 
1 
1 
1 
1 
1 
1 
1 
1 
1 
1 
1 
1 
1 
1 
1 
1 
1 
1 
1 
1 
1 
1 
1 
1 
1 
1 
1 
1 
1 
1 
1 
1 
1 
1 
1 
1 
1 
1 
1 
1 
1 
1 
1 
1 
1 
1 
1 
1 
1 
1 
1 
1 
1 
1 
1 
1 
1 
1 
1 
1 
1 
1 
1 
1 
1 
1 
1 
1 
1 
1 
1 
1 
1 
1 
1 
1 
1 
1 
1 
1 
1 
1 
1 
1 
1 
1 
1 
1 
1 
1 
1 
1 
1 
1 
1 
1 
1 
1 
1 
1 
1 
1 
1 
1 
1 
1 
1 
1 
1 
1 
1 
1 
1 
1 
1 
1 
1 
1 
1 
1 
1 
1 
1 
1 
1 
1 
1 
1 
1 
1 
1 
1 
1 
1 
1 
1 
1 
1 
1 
1 
1 
1 
1 
1 
1 
1 
1 
1 
1 
1 
1 
1 
1 
1 
1 
1 
1 
1 
1 
1 
1 
1 
1 
1 
1 
1 
1 
1 
1 
1 
1 
1 
1 
1 
1 
1 
1 
1 
1 
1 
1 
1 
1 
1 
1 
1 
1 
1 
1 
1 
1 
1 
1 
1 
1 
1 
1 
1 
1 
1 
1 
1 
1 
1 
1 
1 
1 
1 
1 
1 
1 
1 
1 
1 
1 
1 
1 
1 
1 
1 
1 
1 
1 
1 
1 
1 
1 
1 
1 
1 
1 
1 
1 
1 
1 
1 
1 
1 
1 
1 
1 
1 
1 
1 
1 
1 
1 
1 
1 
1 
1 
1 
1 
1 
1 
1 
1 
1 
1 
1 
1 
1 
1 
1 
1 
1 
1 
1 
1 
1 
1 
1 
1 
1 
1 
1 
1 
1 
1 
1 
1 
1 
1 
1 
1 
1 
1 
1 
1 
1 
1 
1 
1 
1 
1 
1 
1 
1 
1 
1 
1 
1 
1 
1 
1 
1 
1 
1 
1 
1 
1 
1 
1 
1 
1 
1 
1 
POINT_DATA 899 
VECTORS X_GC float 
-3.648847 2.218264 0.000000 
-3.619410 2.177712 0.000000 
-3.578536 2.142117 0.000000 
-3.540028 2.106466 0.000000 
-3.511690 2.074271 0.000000 
-3.481362 2.044413 0.000000 
-3.451569 2.003739 0.000000 
0.772356 2.120778 0.000000 
0.774615 2.094657 0.000000 
0.769962 2.065903 0.000000 
-3.399514 1.973463 0.000000 
0.413960 -0.671379 0.000000 
0.455573 -0.667076 0.000000 
-1.762619 -0.571274 0.000000 
-1.783389 -0.535878 0.000000 
-1.714437 -0.507089 0.000000 
0.732567 2.115102 0.000000 
0.698438 2.101266 0.000000 
0.491831 -0.652873 0.000000 
0.519501 -0.622468 0.000000 
0.530556 -0.582022 0.000000 
0.532354 -0.536217 0.000000 
0.531774 -0.485711 0.000000 
-3.460923 1.911731 0.000000 
0.663989 2.079320 0.000000 
0.631675 2.051925 0.000000 
0.601833 2.027870 0.000000 
0.569607 2.004612 0.000000 
0.534059 1.982535 0.000000 
0.492599 1.961395 0.000000 
0.444403 1.942730 0.000000 
0.762807 2.024928 0.000000 
-1.708694 -0.472706 0.000000 
-1.726386 -0.432443 0.000000 
-1.761257 -0.408422 0.000000 
-1.812853 -0.400574 0.000000 
-0.690422 -0.652909 0.000000 
-0.624256 -0.670837 0.000000 
-0.561079 -0.679018 0.000000 
-0.500739 -0.680474 0.000000 
-0.445387 -0.680536 0.000000 
0.532260 -0.426627 0.000000 
0.536647 -0.357294 0.000000 
-1.881389 -0.388073 0.000000 
-0.389303 -0.678262 0.000000 
-0.340338 -0.662976 0.000000 
-0.344339 -0.608841 0.000000 
-0.358558 -0.556302 0.000000 
-0.381750 -0.515390 0.000000 
-0.406193 -0.481216 0.000000 
-0.417316 -0.449718 0.000000 
-0.428320 -0.415461 0.000000 
-0.436973 -0.371196 0.000000 
-0.444212 -0.315653 0.000000 
-0.452662 -0.256795 0.000000 
-0.468602 -0.199896 0.000000 
0.553166 -0.292579 0.000000 
0.573193 -0.234908 0.000000 
0.574450 -0.183167 0.000000 
0.561087 -0.132847 0.000000 
0.550432 -0.077524 0.000000 
0.748903 1.971610 0.000000 
0.730940 1.915118 0.000000 
0.715868 1.868959 0.000000 
0.699446 1.832831 0.000000 
0.684888 1.791841 0.000000 
0.675900 1.745637 0.000000 
0.669871 1.696077 0.000000 
0.664455 1.648220 0.000000 
0.668163 1.601801 0.000000 
0.672091 1.551967 0.000000 
0.674558 1.503944 0.000000 
0.673045 1.453864 0.000000 
0.386491 1.933050 0.000000 
0.664855 1.395125 0.000000 
0.652298 1.337048 0.000000 
0.638456 1.283398 0.000000 
0.623121 1.233888 0.000000 
0.616008 1.190861 0.000000 
0.600787 1.155918 0.000000 
0.571289 1.126470 0.000000 
0.539016 1.095308 0.000000 
0.513857 1.066409 0.000000 
0.493343 1.040174 0.000000 
0.469109 1.022361 0.000000 
0.444920 1.005917 0.000000 
0.415324 0.984951 0.000000 
0.383540 0.960199 0.000000 
0.356179 0.930867 0.000000 
0.343879 0.891967 0.000000 
0.337476 0.846447 0.000000 
0.332404 0.801160 0.000000 
0.328512 0.761470 0.000000 
0.319594 0.725391 0.000000 
0.304149 0.691980 0.000000 
0.290502 0.651589 0.000000 
0.275896 0.603727 0.000000 
0.261905 0.561757 0.000000 
0.250150 0.528162 0.000000 
0.250896 0.490357 0.000000 
0.259587 0.447754 0.000000 
0.284617 0.404981 0.000000 
0.315237 0.375320 0.000000 
0.340022 0.355883 0.000000 
0.354380 0.330034 0.000000 
0.368685 0.302891 0.000000 
0.385568 0.276495 0.000000 
0.415372 0.251698 0.000000 
0.447119 0.219986 0.000000 
0.477633 0.192069 0.000000 
0.503078 0.164133 0.000000 
0.518876 0.126078 0.000000 
0.527127 0.090110 0.000000 
0.534187 0.045565 0.000000 
0.543185 -0.015215 0.000000 
0.322519 1.921994 0.000000 
0.263849 1.908877 0.000000 
0.208223 1.903457 0.000000 
0.150441 1.899629 0.000000 
-0.687392 -0.579842 0.000000 
-3.327058 1.947231 0.000000 
-3.276080 1.900810 0.000000 
-3.224941 1.867223 0.000000 
-3.181728 1.838065 0.000000 
-3.135074 1.801135 0.000000 
-3.078123 1.776842 0.000000 
-1.944260 -0.343195 0.000000 
0.083204 1.904785 0.000000 
0.005786 1.899432 0.000000 
-0.071812 1.908670 0.000000 
-0.135705 1.938212 0.000000 
-0.182391 1.979818 0.000000 
-1.999041 -0.272226 0.000000 
-1.843230 -0.546735 0.000000 
-0.491126 -0.135936 0.000000 
-0.512312 -0.062693 0.000000 
-0.526535 0.000139 0.000000 
-0.527935 0.062261 0.000000 
-0.524207 0.129431 0.000000 
-0.505864 0.186563 0.000000 
-0.468875 0.235775 0.000000 
-0.410369 0.265020 0.000000 
-0.354013 0.286137 0.000000 
-0.301050 0.296082 0.000000 
-0.255730 0.296855 0.000000 
-0.695595 -0.501546 0.000000 
-0.726457 -0.424665 0.000000 
-0.747352 -0.355209 0.000000 
-3.396487 1.890096 0.000000 
-3.344056 1.810708 0.000000 
-3.294256 1.767307 0.000000 
-3.248246 1.728983 0.000000 
-3.196818 1.689630 0.000000 
-3.159669 1.638319 0.000000 
-3.113281 1.591615 0.000000 
-3.056061 1.572051 0.000000 
-2.996684 1.549427 0.000000 
-2.933161 1.519810 0.000000 
-2.879064 1.483668 0.000000 
-2.813006 1.458882 0.000000 
-2.751664 1.435832 0.000000 
-2.686782 1.406509 0.000000 
-1.922020 -0.543928 0.000000 
-1.999705 -0.545427 0.000000 
-2.060018 -0.523823 0.000000 
-2.032615 -0.188836 0.000000 
-2.048550 -0.103114 0.000000 
-2.029059 -0.037221 0.000000 
-2.105228 -0.466765 0.000000 
-2.154373 -0.399170 0.000000 
-2.203584 -0.344546 0.000000 
-2.237020 -0.283111 0.000000 
-2.250593 -0.217818 0.000000 
-2.270119 -0.146034 0.000000 
-2.297898 -0.075724 0.000000 
-2.327118 -0.014144 0.000000 
-2.346747 0.039826 0.000000 
-2.362840 0.092935 0.000000 
-2.374561 0.143980 0.000000 
-2.373128 0.195955 0.000000 
-2.334174 0.262546 0.000000 
-2.331842 0.303164 0.000000 
-2.284565 0.311922 0.000000 
-0.236368 2.029353 0.000000 
-0.299146 2.073180 0.000000 
-0.346614 2.093105 0.000000 
-0.382877 2.056602 0.000000 
-0.412447 2.027552 0.000000 
-0.433989 1.987264 0.000000 
-0.446472 1.944298 0.000000 
-0.451628 1.904980 0.000000 
-0.451047 1.866517 0.000000 
-0.449242 1.830514 0.000000 
-0.453345 1.798624 0.000000 
-0.460251 1.770931 0.000000 
-0.470304 1.742146 0.000000 
-0.475290 1.712656 0.000000 
-0.478341 1.682870 0.000000 
-0.479442 1.646134 0.000000 
-2.609147 1.392720 0.000000 
-2.517189 1.387221 0.000000 
-2.434013 1.387558 0.000000 
-2.352624 1.377526 0.000000 
-2.274410 1.358155 0.000000 
-2.204499 1.323507 0.000000 
-2.180326 1.254624 0.000000 
-2.178559 1.166088 0.000000 
-2.168273 1.076059 0.000000 
-2.159086 0.977995 0.000000 
-2.144575 0.888836 0.000000 
-2.163040 0.813619 0.000000 
-2.183612 0.739527 0.000000 
-2.172907 0.674970 0.000000 
-2.161614 0.612215 0.000000 
-2.169833 0.552103 0.000000 
-2.188987 0.490350 0.000000 
-2.218663 0.439104 0.000000 
-2.229021 0.383231 0.000000 
-2.997130 1.760045 0.000000 
-3.021908 1.661907 0.000000 
-2.902046 1.728538 0.000000 
-0.770600 -0.272616 0.000000 
-0.790096 -0.180957 0.000000 
-0.811857 -0.100249 0.000000 
-0.835807 -0.021685 0.000000 
-0.859157 0.048443 0.000000 
-0.881226 0.108494 0.000000 
-0.903169 0.167845 0.000000 
-0.928196 0.231889 0.000000 
-2.785442 1.695984 0.000000 
-2.944278 1.635243 0.000000 
-2.855014 1.598097 0.000000 
-2.796189 1.538017 0.000000 
-2.651235 1.681238 0.000000 
-2.517962 1.670891 0.000000 
-2.394240 1.661728 0.000000 
-2.275192 1.653732 0.000000 
-2.180847 1.629171 0.000000 
-2.099904 1.602691 0.000000 
-2.018420 1.571452 0.000000 
-1.945469 1.575749 0.000000 
-1.885190 1.609089 0.000000 
-1.829736 1.629658 0.000000 
-1.760875 1.654889 0.000000 
-1.680504 1.683314 0.000000 
-1.617798 1.701631 0.000000 
-1.570169 1.716154 0.000000 
-1.527149 1.730344 0.000000 
-1.482581 1.742473 0.000000 
-1.433927 1.749014 0.000000 
-1.386311 1.756929 0.000000 
-1.337319 1.765659 0.000000 
-1.286363 1.772739 0.000000 
-1.235962 1.773456 0.000000 
-1.188452 1.778269 0.000000 
-1.140860 1.787720 0.000000 
-1.091558 1.787029 0.000000 
-1.038962 1.776011 0.000000 
-0.982519 1.757013 0.000000 
-0.922315 1.740271 0.000000 
-0.869867 1.729946 0.000000 
-0.827747 1.723456 0.000000 
-0.785371 1.718544 0.000000 
-0.748025 1.708807 0.000000 
-0.712781 1.698540 0.000000 
-0.681690 1.684608 0.000000 
-0.657198 1.673474 0.000000 
-0.633895 1.666811 0.000000 
-0.612002 1.662356 0.000000 
-0.594184 1.655143 0.000000 
-0.577381 1.645693 0.000000 
-0.560109 1.630409 0.000000 
-0.540091 1.597955 0.000000 
-1.243914 -0.040891 0.000000 
-1.232782 -0.027174 0.000000 
-1.257376 -0.055245 0.000000 
-1.224378 -0.008474 0.000000 
-1.271472 -0.074590 0.000000 
-1.215702 0.013523 0.000000 
-1.204660 0.039579 0.000000 
-1.290143 -0.102332 0.000000 
-1.314447 -0.147372 0.000000 
-1.190204 0.069886 0.000000 
-1.318041 -0.200726 0.000000 
-1.171655 0.104042 0.000000 
-1.149359 0.140356 0.000000 
-1.123094 0.178605 0.000000 
-1.284246 -0.250706 0.000000 
-1.239750 -0.301432 0.000000 
-1.083297 0.222596 0.000000 
-1.028190 0.254267 0.000000 
-1.181630 -0.343788 0.000000 
-1.112789 -0.375216 0.000000 
-1.040643 -0.387386 0.000000 
-0.978118 -0.390473 0.000000 
-0.927392 -0.403498 0.000000 
-0.889718 -0.442633 0.000000 
-0.873564 -0.499183 0.000000 
-0.920771 -0.531377 0.000000 
-0.935346 -0.464109 0.000000 
-0.991249 -0.540953 0.000000 
-1.088918 -0.538225 0.000000 
-1.067426 -0.458573 0.000000 
-1.189474 -0.530661 0.000000 
-1.147229 -0.445906 0.000000 
-1.266509 -0.507372 0.000000 
-1.219913 -0.419728 0.000000 
-1.335307 -0.471545 0.000000 
-1.284456 -0.381729 0.000000 
-1.402357 -0.427641 0.000000 
-1.341444 -0.333929 0.000000 
-1.466758 -0.374966 0.000000 
-1.539152 -0.314166 0.000000 
-1.393011 -0.275998 0.000000 
-1.612839 -0.243895 0.000000 
-1.665320 -0.186317 0.000000 
-1.691220 -0.121490 0.000000 
-1.704696 -0.035996 0.000000 
-1.850073 0.130873 0.000000 
-1.911042 0.075048 0.000000 
-1.969645 0.018211 0.000000 
-1.726970 0.070414 0.000000 
-0.222881 0.278244 0.000000 
-0.195707 0.250661 0.000000 
-0.164205 0.213714 0.000000 
-0.127520 0.181016 0.000000 
-0.095686 0.151524 0.000000 
-0.059027 0.123046 0.000000 
-0.018954 0.093063 0.000000 
0.030296 0.061792 0.000000 
0.086536 0.041266 0.000000 
0.141893 0.022535 0.000000 
0.202102 -0.006745 0.000000 
0.263408 -0.046662 0.000000 
0.311661 -0.096649 0.000000 
0.333954 -0.156271 0.000000 
0.338621 -0.216722 0.000000 
0.341530 -0.270660 0.000000 
0.353165 -0.320849 0.000000 
0.365710 -0.379272 0.000000 
0.363543 -0.448800 0.000000 
0.357353 -0.510915 0.000000 
0.351188 -0.561657 0.000000 
0.363842 -0.608685 0.000000 
-1.737069 -0.475336 0.000000 
-0.199590 0.330861 0.000000 
-0.156305 0.300945 0.000000 
-0.462327 1.566901 0.000000 
0.741313 2.089476 0.000000 
0.482415 -0.619456 0.000000 
0.446104 -0.627352 0.000000 
0.403556 -0.633006 0.000000 
-0.104001 0.272880 0.000000 
-0.514998 1.498956 0.000000 
-0.059937 0.238476 0.000000 
0.738519 2.064211 0.000000 
0.714572 2.076511 0.000000 
-0.249752 0.357685 0.000000 
-0.036232 0.194677 0.000000 
0.000772 0.166845 0.000000 
0.035161 0.141200 0.000000 
-1.776537 -0.474778 0.000000 
-1.836238 -0.470593 0.000000 
-0.309416 0.371785 0.000000 
-0.378944 0.369521 0.000000 
-2.292732 0.249109 0.000000 
-2.315166 0.199118 0.000000 
-2.314418 0.151561 0.000000 
-2.293418 0.105175 0.000000 
-2.279687 0.055296 0.000000 
-2.253462 0.008030 0.000000 
0.075120 0.113458 0.000000 
0.131113 0.100850 0.000000 
-0.977004 0.302833 0.000000 
-0.860050 0.292668 0.000000 
-1.912142 -0.462537 0.000000 
-1.989966 -0.471317 0.000000 
-2.023752 -0.403775 0.000000 
-2.082175 -0.332514 0.000000 
0.723889 2.032698 0.000000 
0.691466 2.051540 0.000000 
0.665980 2.018894 0.000000 
0.704783 1.991625 0.000000 
0.637970 1.980836 0.000000 
0.681732 1.944417 0.000000 
0.670916 1.898242 0.000000 
0.602858 1.949168 0.000000 
0.659584 1.857818 0.000000 
0.560783 1.922797 0.000000 
0.636111 1.821743 0.000000 
0.607495 1.771953 0.000000 
0.595324 1.708472 0.000000 
0.604052 1.643799 0.000000 
0.514160 1.893393 0.000000 
0.453857 1.865948 0.000000 
0.392525 1.863970 0.000000 
0.334098 1.862441 0.000000 
0.278675 1.843688 0.000000 
0.217273 1.825612 0.000000 
0.149449 1.808257 0.000000 
0.614128 1.591523 0.000000 
0.621313 1.543944 0.000000 
0.624262 1.499064 0.000000 
-2.197766 -0.045158 0.000000 
-2.158682 -0.120082 0.000000 
-2.124695 0.014172 0.000000 
-2.150589 -0.286208 0.000000 
-2.141926 -0.208663 0.000000 
-0.393439 -0.625223 0.000000 
-0.412631 -0.581179 0.000000 
-0.436983 -0.540576 0.000000 
-0.445953 -0.497156 0.000000 
-0.458251 -0.464331 0.000000 
-0.479726 -0.429564 0.000000 
-0.496934 -0.380833 0.000000 
-0.509002 -0.325750 0.000000 
-0.517157 -0.271419 0.000000 
-0.545309 -0.220144 0.000000 
-0.442273 -0.622617 0.000000 
-0.496002 -0.613100 0.000000 
-0.557668 -0.615207 0.000000 
-0.618975 -0.599726 0.000000 
-0.334659 2.031292 0.000000 
-0.367985 2.001575 0.000000 
-0.385153 1.965149 0.000000 
-0.396797 1.931282 0.000000 
-0.406285 1.895759 0.000000 
-0.402558 1.856626 0.000000 
-0.406645 1.818183 0.000000 
-0.418378 1.785769 0.000000 
-0.428059 1.756643 0.000000 
-0.435849 1.727096 0.000000 
-0.442335 1.697061 0.000000 
-0.445406 1.663996 0.000000 
-0.444483 1.618279 0.000000 
0.619822 1.453332 0.000000 
-1.077870 0.349897 0.000000 
-1.149036 0.307938 0.000000 
-1.174735 0.233096 0.000000 
-1.192231 0.181373 0.000000 
-1.210811 0.139596 0.000000 
-1.228352 0.100256 0.000000 
-1.238869 0.062276 0.000000 
-1.244643 0.030779 0.000000 
-1.248534 0.005878 0.000000 
-1.252336 -0.013410 0.000000 
-1.262323 -0.026661 0.000000 
-1.280319 -0.037577 0.000000 
-0.451814 0.346861 0.000000 
-0.526928 0.303339 0.000000 
0.194935 0.083858 0.000000 
0.069048 1.794157 0.000000 
-0.574175 0.232655 0.000000 
-0.593607 0.151552 0.000000 
-1.764101 0.191236 0.000000 
-2.210991 0.310093 0.000000 
-0.825996 0.207391 0.000000 
-0.799223 0.136310 0.000000 
-0.760911 0.069877 0.000000 
0.605964 1.402380 0.000000 
0.587834 1.345020 0.000000 
0.576354 1.285172 0.000000 
0.574971 1.230163 0.000000 
0.580375 1.187139 0.000000 
0.545179 1.164755 0.000000 
0.509957 1.132492 0.000000 
0.484198 1.096090 0.000000 
0.468721 1.064936 0.000000 
0.449386 1.046404 0.000000 
0.422962 1.033739 0.000000 
0.391379 1.014588 0.000000 
0.357154 0.990525 0.000000 
0.323730 0.962152 0.000000 
-0.582151 -0.159276 0.000000 
0.265957 0.057428 0.000000 
0.333763 0.011298 0.000000 
0.378371 -0.055717 0.000000 
0.400918 -0.130112 0.000000 
0.401084 -0.193101 0.000000 
0.404345 -0.247202 0.000000 
0.432648 -0.298284 0.000000 
0.450030 -0.362725 0.000000 
0.529803 -0.209572 0.000000 
0.491947 -0.257709 0.000000 
0.453243 -0.207826 0.000000 
0.449550 -0.437049 0.000000 
0.498420 -0.163698 0.000000 
0.474171 -0.103757 0.000000 
0.457863 -0.029184 0.000000 
0.462195 -0.495703 0.000000 
0.478704 -0.542039 0.000000 
0.483460 -0.583005 0.000000 
0.412910 -0.521345 0.000000 
0.398390 -0.560058 0.000000 
0.404290 -0.594346 0.000000 
0.442452 -0.589787 0.000000 
0.436659 -0.554623 0.000000 
-0.727378 -0.004256 0.000000 
-0.616071 0.077762 0.000000 
-0.623548 0.003482 0.000000 
-0.605779 -0.077526 0.000000 
-0.706340 -0.089974 0.000000 
-0.681483 -0.176236 0.000000 
-0.032304 1.788596 0.000000 
-0.128010 1.824746 0.000000 
-0.195732 1.891870 0.000000 
-0.243911 1.945784 0.000000 
-0.287859 1.993187 0.000000 
-0.335518 1.965492 0.000000 
-0.667608 -0.261617 0.000000 
-0.584906 -0.268385 0.000000 
-0.658169 -0.341626 0.000000 
-0.578442 -0.333755 0.000000 
-0.639050 -0.413068 0.000000 
-0.607982 -0.488585 0.000000 
-0.562541 -0.396455 0.000000 
-0.536184 -0.457478 0.000000 
-0.495978 -0.495440 0.000000 
-0.500680 -0.547834 0.000000 
-0.573051 -0.552287 0.000000 
-2.690892 1.561891 0.000000 
-2.684799 1.475878 0.000000 
-2.602920 1.474616 0.000000 
-2.574381 1.559609 0.000000 
-2.518122 1.494483 0.000000 
-2.424460 1.518381 0.000000 
-2.320006 1.509450 0.000000 
-2.229986 1.485832 0.000000 
-2.146342 1.444592 0.000000 
-1.455055 -0.217016 0.000000 
-1.387692 -0.136693 0.000000 
-1.339496 -0.083365 0.000000 
-1.304977 -0.054805 0.000000 
-1.531301 -0.151523 0.000000 
-1.604385 -0.107411 0.000000 
-1.592423 -0.006730 0.000000 
-1.608296 0.117233 0.000000 
-1.827918 0.315678 0.000000 
0.477873 0.084481 0.000000 
0.477147 0.119380 0.000000 
0.465631 0.153620 0.000000 
-0.587742 1.597829 0.000000 
-0.593403 1.621933 0.000000 
-0.604579 1.634589 0.000000 
-0.619289 1.640275 0.000000 
-0.639577 1.638102 0.000000 
-0.665912 1.639718 0.000000 
-0.697937 1.646704 0.000000 
-0.595692 1.544341 0.000000 
-0.726123 1.661516 0.000000 
-0.757398 1.672087 0.000000 
-0.794522 1.669511 0.000000 
-0.841416 1.666933 0.000000 
-0.894922 1.668294 0.000000 
-0.956071 1.676710 0.000000 
-1.020951 1.695631 0.000000 
-1.077937 1.723266 0.000000 
-1.120258 1.751994 0.000000 
-1.171769 1.727734 0.000000 
0.332207 0.281125 0.000000 
0.333662 0.239390 0.000000 
0.321472 0.309742 0.000000 
0.302407 0.336554 0.000000 
0.214022 0.351216 0.000000 
0.194081 0.412241 0.000000 
0.186716 0.467754 0.000000 
0.189303 0.520526 0.000000 
0.360023 0.199708 0.000000 
0.405131 0.174575 0.000000 
0.201671 0.569772 0.000000 
0.218038 0.620033 0.000000 
0.236652 0.668966 0.000000 
0.256885 0.710900 0.000000 
0.278373 0.739394 0.000000 
0.284019 0.772792 0.000000 
0.276718 0.819540 0.000000 
0.278735 0.876353 0.000000 
0.296322 0.926620 0.000000 
-1.507867 1.679492 0.000000 
-1.548116 1.654849 0.000000 
-1.598023 1.627470 0.000000 
-1.467251 1.694265 0.000000 
-1.422160 1.701549 0.000000 
-1.373311 1.708265 0.000000 
-1.322903 1.716042 0.000000 
-1.275577 1.725288 0.000000 
-1.225048 1.723888 0.000000 
-1.662214 1.603801 0.000000 
-1.732600 1.583861 0.000000 
-1.794687 1.569485 0.000000 
-1.841773 1.540298 0.000000 
-2.078405 0.607571 0.000000 
-2.079214 0.686160 0.000000 
-2.097651 0.529971 0.000000 
-2.129318 0.458232 0.000000 
-2.096743 0.766722 0.000000 
-2.169699 0.402888 0.000000 
-1.991686 0.329888 0.000000 
-1.642187 0.255444 0.000000 
-1.989898 0.162663 0.000000 
-2.064526 0.090851 0.000000 
-1.914688 0.236198 0.000000 
-2.037969 1.019275 0.000000 
-2.021377 0.903590 0.000000 
-2.055796 1.148436 0.000000 
-2.102728 1.251089 0.000000 
-2.047875 1.393392 0.000000 
0.428030 0.140122 0.000000 
0.375625 0.118887 0.000000 
0.313454 0.131987 0.000000 
0.290352 0.278022 0.000000 
0.238487 0.988940 0.000000 
0.440631 0.102015 0.000000 
0.396678 0.062238 0.000000 
0.460488 0.036317 0.000000 
0.523747 1.212430 0.000000 
-2.262588 0.175684 0.000000 
-2.220468 0.231712 0.000000 
-2.218579 0.122173 0.000000 
-2.146376 0.174023 0.000000 
-2.206503 0.057103 0.000000 
0.473879 1.173818 0.000000 
0.446488 1.121486 0.000000 
0.440978 1.077467 0.000000 
0.409581 1.069612 0.000000 
0.629179 1.898508 0.000000 
0.593839 1.866034 0.000000 
0.550362 1.821830 0.000000 
0.483841 1.781408 0.000000 
0.202470 0.922575 0.000000 
0.241245 0.774800 0.000000 
0.205152 0.749999 0.000000 
0.175878 0.701859 0.000000 
0.153326 0.643352 0.000000 
0.132079 0.582902 0.000000 
0.113278 0.518446 0.000000 
0.106000 0.450123 0.000000 
0.109640 0.380927 0.000000 
0.121648 0.310249 0.000000 
0.032483 0.220635 0.000000 
0.246820 0.303313 0.000000 
0.099619 0.169000 0.000000 
0.373127 1.054730 0.000000 
-0.307911 1.917870 0.000000 
-0.360136 1.899400 0.000000 
-0.343252 1.845055 0.000000 
-0.270247 1.853199 0.000000 
0.168337 0.165518 0.000000 
0.242346 0.155181 0.000000 
0.270369 0.224218 0.000000 
0.505525 1.280191 0.000000 
-0.689828 0.107446 0.000000 
-0.729540 0.164850 0.000000 
-0.746154 0.239322 0.000000 
-0.657668 0.255887 0.000000 
-0.661195 0.171600 0.000000 
-0.924642 0.408562 0.000000 
-1.137284 1.671926 0.000000 
-1.072920 1.627332 0.000000 
-1.248127 1.684223 0.000000 
-1.304069 1.667900 0.000000 
-1.360197 1.660240 0.000000 
-1.411221 1.656101 0.000000 
-1.453165 1.652871 0.000000 
-1.486003 1.635409 0.000000 
-1.510814 1.591940 0.000000 
-1.558800 1.547271 0.000000 
-0.995058 1.600579 0.000000 
-0.919611 1.590102 0.000000 
-0.852227 1.597034 0.000000 
-0.796966 1.613553 0.000000 
-0.752732 1.632722 0.000000 
-1.635591 1.519938 0.000000 
-1.992480 0.794639 0.000000 
-1.965104 0.684860 0.000000 
-1.974377 0.581527 0.000000 
-2.014368 0.487905 0.000000 
-2.065453 0.404719 0.000000 
-2.071492 0.251652 0.000000 
-2.131272 0.335189 0.000000 
-1.712039 1.506615 0.000000 
-1.781280 1.506565 0.000000 
-1.884796 1.476508 0.000000 
0.516332 1.696171 0.000000 
0.538779 1.625043 0.000000 
0.517174 1.354576 0.000000 
0.552532 1.416513 0.000000 
0.576896 1.458439 0.000000 
0.583356 1.495465 0.000000 
0.576083 1.532470 0.000000 
0.562288 1.574830 0.000000 
-0.776910 0.335936 0.000000 
-1.451771 -0.077211 0.000000 
-1.374596 -0.039429 0.000000 
-1.326837 -0.023968 0.000000 
-1.272657 -0.008771 0.000000 
-1.295259 -0.014540 0.000000 
-1.274719 0.012765 0.000000 
-1.277356 0.039867 0.000000 
-1.282752 0.074950 0.000000 
-1.279912 0.122726 0.000000 
-1.259061 0.166522 0.000000 
-1.246354 0.208015 0.000000 
-1.247511 0.262985 0.000000 
-1.260959 0.351616 0.000000 
-1.083075 0.521889 0.000000 
-1.474179 0.017300 0.000000 
-1.468523 0.142957 0.000000 
-1.714576 0.410712 0.000000 
-1.917838 0.417336 0.000000 
-1.479337 0.292810 0.000000 
-1.929043 1.349206 0.000000 
-1.933932 1.186864 0.000000 
-1.916094 1.047174 0.000000 
-1.891356 0.927890 0.000000 
-0.640008 1.603637 0.000000 
-0.671120 1.596613 0.000000 
-0.705575 1.603032 0.000000 
-0.401264 1.466915 0.000000 
-0.460851 1.310791 0.000000 
-0.397949 1.580386 0.000000 
-0.609239 1.598115 0.000000 
-0.410298 1.644519 0.000000 
-0.408964 1.679334 0.000000 
-0.399540 1.708454 0.000000 
-0.395782 1.741321 0.000000 
0.285100 1.023181 0.000000 
0.331625 1.040486 0.000000 
-0.121818 0.359046 0.000000 
0.021900 0.281700 0.000000 
0.115588 0.235463 0.000000 
0.198863 0.237416 0.000000 
-0.064867 0.338221 0.000000 
0.364707 1.806373 0.000000 
0.303732 1.775294 0.000000 
0.240047 1.744586 0.000000 
0.172732 1.706291 0.000000 
0.087651 1.665957 0.000000 
-0.030041 1.641211 0.000000 
-0.215594 1.764662 0.000000 
-0.230359 0.441144 0.000000 
-0.307828 0.475308 0.000000 
-0.401252 0.486180 0.000000 
-0.492206 0.457934 0.000000 
-0.743012 1.589490 0.000000 
-0.382985 1.768185 0.000000 
-0.353471 1.796928 0.000000 
-1.315709 0.202242 0.000000 
-1.343314 0.284161 0.000000 
-0.721193 1.547978 0.000000 
-0.632022 1.558906 0.000000 
-0.618292 1.617629 0.000000 
-1.300529 0.010954 0.000000 
-1.311319 0.037199 0.000000 
-0.675320 1.535443 0.000000 
-1.449691 1.612148 0.000000 
-0.167828 0.399899 0.000000 
-0.066773 0.415942 0.000000 
0.014030 0.353144 0.000000 
-1.331624 0.012334 0.000000 
-1.380062 0.026238 0.000000 
-1.340869 0.070942 0.000000 
-1.353905 0.141149 0.000000 
0.406993 1.117877 0.000000 
-1.403597 1.610635 0.000000 
0.364934 1.107829 0.000000 
-1.348692 1.611355 0.000000 
0.247855 1.120834 0.000000 
0.315701 1.117440 0.000000 
0.207111 0.842367 0.000000 
0.143206 0.821490 0.000000 
-1.453768 1.559872 0.000000 
-0.790281 1.547850 0.000000 
-1.284745 1.615026 0.000000 
-1.791133 1.427498 0.000000 
-1.698001 1.411706 0.000000 
-1.602996 1.416897 0.000000 
-1.509140 1.447765 0.000000 
-1.850904 0.807931 0.000000 
0.171486 1.092083 0.000000 
0.103791 0.750250 0.000000 
0.081732 0.676537 0.000000 
0.012465 0.439676 0.000000 
0.056973 0.605604 0.000000 
-0.859037 1.504418 0.000000 
-0.947148 1.488466 0.000000 
-1.042292 1.511115 0.000000 
-1.207800 1.634056 0.000000 
0.405236 1.742835 0.000000 
0.432576 1.651833 0.000000 
0.470249 1.584087 0.000000 
0.516988 1.547645 0.000000 
0.538064 1.514145 0.000000 
0.548893 1.480230 0.000000 
0.511168 1.450130 0.000000 
0.447440 1.403594 0.000000 
0.336576 1.709967 0.000000 
0.352905 1.630688 0.000000 
0.280111 1.671709 0.000000 
0.425405 1.502803 0.000000 
0.495333 1.500986 0.000000 
0.435871 1.237571 0.000000 
-0.582540 0.403609 0.000000 
-1.810838 0.662717 0.000000 
-1.837718 0.524896 0.000000 
0.231389 1.604768 0.000000 
-0.169223 1.622662 0.000000 
-0.358516 1.733682 0.000000 
-0.831990 0.460017 0.000000 
-0.676614 0.363698 0.000000 
-0.304985 1.742295 0.000000 
0.154076 1.514722 0.000000 
0.032165 1.448840 0.000000 
-1.118654 1.553653 0.000000 
-1.306357 0.531885 0.000000 
-1.538817 0.480850 0.000000 
-1.801087 1.312102 0.000000 
-1.802902 1.177567 0.000000 
-1.804665 1.058217 0.000000 
-1.777440 0.954572 0.000000 
-0.986798 0.751551 0.000000 
-0.372825 1.645133 0.000000 
-0.323929 1.567377 0.000000 
-0.283612 1.636372 0.000000 
-0.355311 1.683081 0.000000 
-0.277653 1.394517 0.000000 
-0.126264 1.403294 0.000000 
-0.312271 1.147658 0.000000 
-0.289946 0.607788 0.000000 
-0.193810 0.542381 0.000000 
-0.423907 0.651323 0.000000 
-0.114792 0.480150 0.000000 
-0.535770 0.605904 0.000000 
-1.422411 1.482827 0.000000 
-1.396637 1.564921 0.000000 
0.101283 1.020843 0.000000 
0.384708 1.171476 0.000000 
-0.765487 1.476774 0.000000 
0.024488 0.526190 0.000000 
-1.685710 1.290508 0.000000 
-0.851171 1.379045 0.000000 
-0.603497 1.427821 0.000000 
-0.978154 1.346879 0.000000 
-0.699634 1.430316 0.000000 
-1.566560 1.284541 0.000000 
0.324386 1.217985 0.000000 
0.225177 1.263193 0.000000 
0.103404 1.259038 0.000000 
0.264525 1.405683 0.000000 
0.375524 1.325954 0.000000 
-0.722859 0.489286 0.000000 
-0.804099 0.622147 0.000000 
-0.630108 0.533699 0.000000 
-1.342192 1.562600 0.000000 
-1.445045 1.317461 0.000000 
0.042573 0.919749 0.000000 
-1.197152 1.564948 0.000000 
-1.275712 1.554137 0.000000 
0.009788 0.806136 0.000000 
0.007428 0.712241 0.000000 
-1.624661 0.680643 0.000000 
-1.706493 0.846772 0.000000 
-0.014319 0.640696 0.000000 
-0.059935 0.565097 0.000000 
-0.139952 0.645733 0.000000 
-0.233328 0.767898 0.000000 
-0.073092 0.712817 0.000000 
-0.121108 0.842673 0.000000 
-0.119730 1.037252 0.000000 
-0.398430 0.890677 0.000000 
-0.026441 1.189001 0.000000 
-1.679294 1.152652 0.000000 
-1.698733 1.030916 0.000000 
-1.219031 0.937252 0.000000 
-0.854674 1.023046 0.000000 
-0.658235 0.697758 0.000000 
-0.623629 0.939953 0.000000 
-0.765556 1.264612 0.000000 
-0.596319 1.221920 0.000000 
-1.360217 1.516984 0.000000 
-1.334110 1.392822 0.000000 
-1.529501 1.112703 0.000000 
-1.363780 1.148640 0.000000 
-1.571029 0.951378 0.000000 
-1.188333 1.484672 0.000000 
-1.056334 1.154515 0.000000 
-1.217896 1.283775 0.000000 
-1.279678 1.478860 0.000000 
-0.993027 -0.463143 0.000000 
-3.091970 1.678391 0.000000 
-1.410358 0.780109 0.000000 
-1.115382 1.407098 0.000000 
0.330018 1.529517 0.000000 
-0.391446 2.089285 0.000000 
-1.734831 -0.532291 0.000000 
-2.357079 0.282154 0.000000 
-3.441445 1.865724 0.000000 
-2.367134 0.244930 0.000000 
-3.393690 1.839744 0.000000 
VECTORS X_EC float 
0.407347 0.190775 0.000000 
0.087199 -0.044719 0.000000 
-0.193811 -0.371710 0.000000 
-0.475265 -0.679779 0.000000 
-0.729440 -0.906480 0.000000 
-0.965162 0.850898 0.000000 
0.713731 0.612553 0.000000 
-0.362280 0.821151 0.000000 
-0.568499 0.803080 0.000000 
-0.795506 0.840303 0.000000 
0.474710 0.196113 0.000000 
-0.405622 -0.311677 0.000000 
-0.371653 -0.644586 0.000000 
0.384676 -0.899046 0.000000 
0.664121 -0.732884 0.000000 
0.891405 0.715497 0.000000 
-0.407086 -0.860540 0.000000 
-0.516319 -0.587501 0.000000 
-0.259527 -0.934650 0.000000 
-0.019486 0.843993 0.000000 
0.299829 0.755555 0.000000 
0.661441 0.741169 0.000000 
-0.939821 0.745806 0.000000 
-0.012654 0.687385 0.000000 
-0.689579 -0.311912 0.000000 
-0.905852 -0.053400 0.000000 
0.904235 0.185337 0.000000 
0.720623 0.443146 0.000000 
0.546327 0.727529 0.000000 
0.379433 -0.940788 0.000000 
0.232078 -0.555224 0.000000 
0.881013 0.897547 0.000000 
-0.837156 0.669552 0.000000 
-0.519284 0.811087 0.000000 
-0.329647 -0.909944 0.000000 
-0.267687 -0.497178 0.000000 
-0.259807 0.523373 0.000000 
-0.401342 -0.005950 0.000000 
-0.465935 -0.511366 0.000000 
-0.477425 -0.994087 0.000000 
-0.477916 0.563100 0.000000 
-0.473371 0.741923 0.000000 
0.073997 0.706823 0.000000 
-0.168997 0.051112 0.000000 
-0.459961 0.114425 0.000000 
-0.339287 -0.277295 0.000000 
0.088095 -0.245290 0.000000 
0.502881 -0.131537 0.000000 
0.825866 0.053998 0.000000 
-0.904333 0.249544 0.000000 
-0.655666 0.338528 0.000000 
-0.385217 0.426562 0.000000 
-0.035760 0.495783 0.000000 
0.402736 0.553696 0.000000 
0.867406 0.621293 0.000000 
-0.683391 0.748819 0.000000 
0.584904 0.574669 0.000000 
-0.959798 0.414456 0.000000 
-0.551321 0.404400 0.000000 
-0.154059 0.511302 0.000000 
0.282702 0.596541 0.000000 
0.460082 -0.991227 0.000000 
0.014089 -0.847519 0.000000 
-0.350325 -0.726941 0.000000 
-0.635546 -0.595571 0.000000 
-0.959148 -0.479104 0.000000 
0.676081 -0.407199 0.000000 
0.284819 -0.358965 0.000000 
-0.093000 -0.315643 0.000000 
-0.459468 -0.345300 0.000000 
-0.852891 -0.376727 0.000000 
0.767976 -0.396467 0.000000 
0.372613 -0.384358 0.000000 
0.155655 -0.091925 0.000000 
-0.091115 -0.318836 0.000000 
-0.549623 -0.218386 0.000000 
-0.973175 -0.107648 0.000000 
0.635956 0.015035 0.000000 
0.296268 0.071940 0.000000 
0.020408 0.193703 0.000000 
-0.212083 0.429691 0.000000 
-0.458093 0.687876 0.000000 
-0.686243 0.889142 0.000000 
-0.893363 -0.946745 0.000000 
0.966012 -0.752872 0.000000 
0.836187 -0.559356 0.000000 
0.670668 -0.322596 0.000000 
0.475255 -0.068323 0.000000 
0.243685 0.150566 0.000000 
-0.063418 0.248970 0.000000 
-0.422790 0.300189 0.000000 
-0.780314 0.340765 0.000000 
0.906345 0.371902 0.000000 
0.621506 0.443251 0.000000 
0.357736 0.566808 0.000000 
0.038861 0.675986 0.000000 
-0.339001 0.792836 0.000000 
-0.670336 0.904763 0.000000 
-0.935561 0.998799 0.000000 
0.765979 0.992834 0.000000 
0.429637 0.923303 0.000000 
0.091955 0.723065 0.000000 
-0.142214 0.478104 0.000000 
-0.295660 0.279823 0.000000 
-0.499731 0.164962 0.000000 
-0.714016 0.050524 0.000000 
-0.922407 -0.084544 0.000000 
0.881828 -0.322978 0.000000 
0.631466 -0.576955 0.000000 
0.411072 -0.821065 0.000000 
0.190521 0.975373 0.000000 
-0.109907 0.848993 0.000000 
-0.393868 0.782983 0.000000 
-0.745543 0.726504 0.000000 
0.774615 0.654519 0.000000 
0.068373 0.419846 0.000000 
-0.035181 0.889211 0.000000 
-0.077968 -0.665787 0.000000 
-0.108194 -0.203528 0.000000 
0.317040 0.499133 0.000000 
0.267616 -0.383536 0.000000 
-0.098868 -0.791357 0.000000 
-0.364027 0.799525 0.000000 
-0.594225 0.453821 0.000000 
-0.885777 0.080591 0.000000 
0.922435 -0.375016 0.000000 
0.185305 0.554079 0.000000 
-0.067488 0.334372 0.000000 
-0.109747 0.953709 0.000000 
-0.036813 -0.425505 0.000000 
0.196410 0.085638 0.000000 
0.524875 0.459129 0.000000 
0.745583 0.992327 0.000000 
0.578409 -0.254161 0.000000 
-0.178444 0.929011 0.000000 
0.399789 -0.901508 0.000000 
0.895835 -0.787720 0.000000 
-0.613729 -0.776521 0.000000 
-0.083441 -0.806344 0.000000 
0.367600 -0.953090 0.000000 
0.756115 0.751000 0.000000 
0.986997 0.282948 0.000000 
-0.846289 -0.167894 0.000000 
-0.767772 -0.591602 0.000000 
-0.761672 -0.954160 0.000000 
0.935161 0.564764 0.000000 
-0.457879 0.811653 0.000000 
0.090453 0.978814 0.000000 
-0.183452 0.171896 0.000000 
-0.810198 -0.247549 0.000000 
0.847164 -0.645955 0.000000 
0.544603 0.985970 0.000000 
0.233917 0.574544 0.000000 
-0.171163 0.277355 0.000000 
-0.539884 -0.093754 0.000000 
-0.694331 -0.551511 0.000000 
-0.872948 0.973471 0.000000 
0.893240 0.465286 0.000000 
0.607901 0.032514 0.000000 
0.412228 -0.495949 0.000000 
0.230252 -0.986687 0.000000 
-0.001245 0.494257 0.000000 
0.600568 0.376156 0.000000 
0.588735 0.997643 0.000000 
0.759291 -0.519857 0.000000 
-0.596072 -0.739080 0.000000 
0.080682 -0.611602 0.000000 
0.600890 -0.767526 0.000000 
-0.790248 -0.158179 0.000000 
-0.256607 0.234981 0.000000 
0.174634 0.628676 0.000000 
0.659650 0.896157 0.000000 
-0.824882 -0.995252 0.000000 
-0.258166 -0.839049 0.000000 
0.296916 -0.616812 0.000000 
0.783072 -0.383053 0.000000 
-0.790849 -0.226024 0.000000 
-0.371564 -0.097282 0.000000 
0.031420 -0.003515 0.000000 
0.441753 -0.014978 0.000000 
0.967466 -0.326605 0.000000 
-0.711864 -0.345264 0.000000 
-0.642717 -0.723480 0.000000 
0.915944 0.890942 0.000000 
-0.738056 -0.606828 0.000000 
-0.580751 -0.227086 0.000000 
-0.868934 0.063016 0.000000 
0.901727 0.299572 0.000000 
0.583665 0.471913 0.000000 
0.244459 0.571774 0.000000 
-0.065949 0.613022 0.000000 
-0.369599 0.608374 0.000000 
-0.653837 0.593932 0.000000 
-0.905597 0.626760 0.000000 
0.875772 0.682006 0.000000 
0.648520 0.762432 0.000000 
0.415704 0.802318 0.000000 
0.180556 0.826728 0.000000 
-0.109466 0.835535 0.000000 
-0.110107 -0.126824 0.000000 
-0.153516 -0.862487 0.000000 
-0.150858 0.472105 0.000000 
-0.230055 -0.179007 0.000000 
-0.382984 -0.804721 0.000000 
-0.656524 0.635993 0.000000 
0.799664 0.442610 0.000000 
0.100695 0.428469 0.000000 
-0.610060 0.346180 0.000000 
0.615750 0.272687 0.000000 
-0.088135 0.156598 0.000000 
-0.681954 0.304321 0.000000 
0.733111 0.468894 0.000000 
0.223446 0.383259 0.000000 
-0.271988 0.292910 0.000000 
-0.746557 0.358667 0.000000 
0.765917 0.511892 0.000000 
0.361347 0.749304 0.000000 
-0.079757 0.832171 0.000000 
0.789829 0.977041 0.000000 
0.015056 -0.824737 0.000000 
0.541087 0.216372 0.000000 
0.742507 -0.835196 0.000000 
-0.533871 -0.679229 0.000000 
0.103296 -0.505142 0.000000 
0.723538 -0.313544 0.000000 
-0.722821 -0.126741 0.000000 
-0.248731 0.049810 0.000000 
0.219827 0.225349 0.000000 
0.725438 0.425567 0.000000 
0.284088 -0.716460 0.000000 
-0.195454 0.554221 0.000000 
-0.488710 -0.159889 0.000000 
-0.963026 -0.630485 0.000000 
0.167671 0.209878 0.000000 
0.085984 -0.856302 0.000000 
0.013646 0.153919 0.000000 
-0.049484 -0.798465 0.000000 
-0.243388 0.446773 0.000000 
-0.452436 -0.200768 0.000000 
-0.699066 -0.852640 0.000000 
-0.665137 0.563751 0.000000 
-0.401929 0.081519 0.000000 
-0.239544 -0.362111 0.000000 
-0.040348 -0.912997 0.000000 
0.184055 0.444033 0.000000 
0.328662 -0.057615 0.000000 
0.443323 -0.438650 0.000000 
0.555349 -0.782810 0.000000 
0.651104 0.860649 0.000000 
0.702740 0.471412 0.000000 
0.765225 0.090491 0.000000 
0.834149 -0.301446 0.000000 
0.890041 -0.709095 0.000000 
0.895707 0.887692 0.000000 
0.933704 0.507619 0.000000 
-0.991682 0.126882 0.000000 
-0.997136 -0.267535 0.000000 
0.915874 -0.688304 0.000000 
0.765890 0.860151 0.000000 
0.633715 0.378519 0.000000 
0.552204 -0.041065 0.000000 
0.500970 -0.378026 0.000000 
0.462193 -0.717031 0.000000 
0.385321 0.984197 0.000000 
0.304265 0.702250 0.000000 
0.194277 0.453520 0.000000 
0.106375 0.257584 0.000000 
0.053770 0.071164 0.000000 
0.018597 -0.103988 0.000000 
-0.038347 -0.246531 0.000000 
-0.112954 -0.380948 0.000000 
-0.233611 -0.519125 0.000000 
-0.489831 -0.679273 0.000000 
0.571915 0.951310 0.000000 
0.680206 0.862256 0.000000 
0.458595 -0.940994 0.000000 
0.827834 0.795026 0.000000 
0.305868 -0.828220 0.000000 
-0.998506 0.725615 0.000000 
-0.792796 0.637279 0.000000 
0.086854 -0.678858 0.000000 
-0.268724 -0.484423 0.000000 
-0.553535 0.521634 0.000000 
-0.689942 -0.455670 0.000000 
-0.283882 0.373237 0.000000 
0.002812 0.194872 0.000000 
0.304773 -0.015246 0.000000 
0.915482 -0.726036 0.000000 
0.515012 0.918002 0.000000 
0.652073 -0.333626 0.000000 
0.902110 -0.774479 0.000000 
0.180618 0.453039 0.000000 
-0.067493 -0.097690 0.000000 
-0.163573 -0.674853 0.000000 
-0.187943 0.824948 0.000000 
-0.290777 0.419132 0.000000 
-0.599733 0.117741 0.000000 
0.953817 -0.011490 0.000000 
0.699654 0.366172 0.000000 
-0.769278 0.482772 0.000000 
0.624056 0.929994 0.000000 
0.645594 -0.288653 0.000000 
-0.725575 -0.460592 0.000000 
0.705304 0.515789 0.000000 
-0.625572 0.177834 0.000000 
0.889172 -0.867928 0.000000 
-0.418908 0.759308 0.000000 
-0.827984 -0.317541 0.000000 
-0.118915 -0.724353 0.000000 
-0.481375 0.218857 0.000000 
0.258458 -0.268451 0.000000 
-0.065517 0.734062 0.000000 
0.414476 -0.686787 0.000000 
0.715807 0.144084 0.000000 
0.969251 -0.097292 0.000000 
-0.576184 0.322564 0.000000 
-0.064395 0.529758 0.000000 
0.610555 0.637565 0.000000 
-0.072056 -0.199418 0.000000 
-0.512779 0.288334 0.000000 
-0.961490 0.757158 0.000000 
-0.549360 0.815760 0.000000 
-0.908598 0.783045 0.000000 
0.873640 0.565653 0.000000 
0.581950 0.313636 0.000000 
0.323809 0.020160 0.000000 
0.090981 -0.234513 0.000000 
-0.133846 -0.527783 0.000000 
-0.370558 -0.848365 0.000000 
-0.617431 0.757632 0.000000 
-0.779478 0.307708 0.000000 
-0.927358 -0.135144 0.000000 
0.841486 -0.616819 0.000000 
0.526353 0.892735 0.000000 
0.131720 0.506710 0.000000 
-0.338985 0.328371 0.000000 
-0.816223 0.291035 0.000000 
0.757947 0.267759 0.000000 
0.361720 0.174680 0.000000 
-0.099512 0.074321 0.000000 
-0.648422 0.091660 0.000000 
0.861199 0.141180 0.000000 
0.460601 0.190499 0.000000 
0.089326 0.089265 0.000000 
-0.857919 0.896548 0.000000 
-0.493199 0.596718 0.000000 
-0.729378 0.250439 0.000000 
-0.734990 0.698615 0.000000 
-0.609402 -0.930506 0.000000 
0.004294 -0.859322 0.000000 
-0.058043 -0.568834 0.000000 
-0.102682 -0.228445 0.000000 
-0.950944 -0.167992 0.000000 
0.728598 -0.880017 0.000000 
0.777439 -0.520504 0.000000 
-0.808863 -0.908153 0.000000 
-0.711756 -0.716574 0.000000 
-0.281435 0.998019 0.000000 
0.431663 -0.710146 0.000000 
0.211935 0.993821 0.000000 
0.009477 0.718710 0.000000 
-0.853510 -0.787706 0.000000 
-0.820473 -0.310098 0.000000 
-0.170118 -0.524675 0.000000 
-0.187993 0.031556 0.000000 
0.861387 -0.658146 0.000000 
0.466721 -0.478669 0.000000 
0.091272 -0.484658 0.000000 
-0.274935 -0.652658 0.000000 
-0.668717 -0.762507 0.000000 
0.958133 -0.972302 0.000000 
-0.209544 0.399042 0.000000 
-0.309080 -0.048901 0.000000 
-0.714474 0.816031 0.000000 
-0.794728 -0.119600 0.000000 
-0.756869 0.297138 0.000000 
-0.826188 0.919727 0.000000 
-0.292962 -0.809986 0.000000 
0.269624 -0.342601 0.000000 
0.942349 -0.791114 0.000000 
-0.908891 -0.531725 0.000000 
0.833372 -0.327840 0.000000 
0.618096 -0.638264 0.000000 
0.532914 -0.103763 0.000000 
0.245398 -0.453853 0.000000 
-0.119143 -0.367331 0.000000 
0.282902 0.177133 0.000000 
-0.438279 -0.276675 0.000000 
0.074711 0.513733 0.000000 
-0.723078 -0.088885 0.000000 
0.883836 0.140040 0.000000 
0.382675 0.237410 0.000000 
-0.127904 0.167585 0.000000 
-0.157420 0.886722 0.000000 
-0.374092 -0.630857 0.000000 
-0.389711 -0.140198 0.000000 
-0.401778 0.327219 0.000000 
-0.549833 0.770601 0.000000 
-0.692533 -0.738188 0.000000 
-0.829551 -0.195592 0.000000 
-0.540606 0.086978 0.000000 
-0.916232 0.029495 0.000000 
0.729453 0.005906 0.000000 
0.538223 0.582126 0.000000 
-0.053279 0.269454 0.000000 
-0.993380 -0.002440 0.000000 
0.635197 0.204709 0.000000 
-0.752600 0.135410 0.000000 
-0.041232 0.147513 0.000000 
0.306478 0.301045 0.000000 
0.627032 0.495866 0.000000 
0.969817 0.567621 0.000000 
-0.771030 0.666009 0.000000 
-0.496558 0.837805 0.000000 
-0.111842 0.975475 0.000000 
0.323029 -0.927988 0.000000 
0.751955 -0.862746 0.000000 
-0.843240 -0.637530 0.000000 
-0.020661 0.538185 0.000000 
0.054475 0.968014 0.000000 
0.037843 -0.538653 0.000000 
0.160055 -0.048203 0.000000 
0.931253 -0.322732 0.000000 
0.696642 -0.056120 0.000000 
0.409070 0.081222 0.000000 
0.141698 0.174375 0.000000 
-0.138741 0.250283 0.000000 
-0.447687 0.220460 0.000000 
-0.751187 0.253160 0.000000 
0.992910 0.347021 0.000000 
0.762973 0.424476 0.000000 
0.529703 0.486795 0.000000 
0.292586 0.538679 0.000000 
0.031546 0.563245 0.000000 
-0.329372 0.555866 0.000000 
0.368411 0.041427 0.000000 
-0.342917 -0.377036 0.000000 
-0.674170 0.192288 0.000000 
0.734968 0.397877 0.000000 
0.326626 0.537849 0.000000 
-0.003190 0.686489 0.000000 
-0.313766 0.826815 0.000000 
-0.613609 0.910948 0.000000 
-0.862271 0.957142 0.000000 
0.941142 0.988270 0.000000 
0.788870 -0.981311 0.000000 
0.684253 -0.901417 0.000000 
0.598074 -0.757449 0.000000 
-0.366890 0.614515 0.000000 
-0.710483 -0.784575 0.000000 
-0.443229 -0.559480 0.000000 
-0.940864 0.447615 0.000000 
0.731484 -0.406601 0.000000 
0.091198 -0.251146 0.000000 
0.404498 -0.887195 0.000000 
-0.657161 0.687928 0.000000 
0.532033 -0.392032 0.000000 
-0.029129 -0.606217 0.000000 
-0.553602 -0.912708 0.000000 
-0.033838 0.152292 0.000000 
-0.486682 0.297326 0.000000 
-0.959169 0.389168 0.000000 
0.606553 0.400234 0.000000 
0.266886 0.357002 0.000000 
0.090170 0.638564 0.000000 
-0.164534 0.920348 0.000000 
-0.451922 -0.873584 0.000000 
-0.697876 -0.749765 0.000000 
-0.844176 -0.595087 0.000000 
-0.944164 -0.383697 0.000000 
0.904644 -0.131036 0.000000 
0.714669 0.142766 0.000000 
0.490676 0.410160 0.000000 
-0.362705 -0.342789 0.000000 
-0.651886 0.872341 0.000000 
0.983935 0.329893 0.000000 
0.454864 -0.026967 0.000000 
-0.132465 -0.207346 0.000000 
-0.629745 -0.208672 0.000000 
0.943143 -0.234757 0.000000 
0.539864 -0.461182 0.000000 
0.031119 -0.600239 0.000000 
-0.759776 0.761578 0.000000 
0.860192 -0.935578 0.000000 
-0.745991 -0.625942 0.000000 
-0.555651 -0.596399 0.000000 
-0.397618 -0.987358 0.000000 
0.075603 -0.793371 0.000000 
0.664340 -0.662901 0.000000 
0.981290 -0.697560 0.000000 
0.615481 -0.829633 0.000000 
0.292065 -0.867681 0.000000 
0.778857 -0.303281 0.000000 
0.473225 -0.187123 0.000000 
0.202534 -0.234320 0.000000 
0.238521 -0.539614 0.000000 
0.516135 -0.493272 0.000000 
0.861137 0.819025 0.000000 
-0.491351 -0.071434 0.000000 
0.922222 -0.011617 0.000000 
0.282689 -0.153771 0.000000 
0.184414 0.650722 0.000000 
-0.496600 0.451860 0.000000 
-0.984765 -0.741571 0.000000 
-0.699373 0.024076 0.000000 
-0.169448 0.565857 0.000000 
0.256188 0.951284 0.000000 
0.630426 -0.697126 0.000000 
0.411777 -0.315859 0.000000 
0.829341 0.340868 0.000000 
0.775910 -0.320749 0.000000 
0.197693 0.265354 0.000000 
0.259827 -0.372466 0.000000 
-0.366327 0.112402 0.000000 
-0.962513 -0.136144 0.000000 
-0.235168 -0.499670 0.000000 
-0.716931 -0.710528 0.000000 
0.983372 0.967820 0.000000 
0.569732 -0.994563 0.000000 
0.534576 -0.415593 0.000000 
-0.774547 0.527140 0.000000 
0.546406 0.478396 0.000000 
0.536443 -0.176642 0.000000 
-0.792559 -0.404948 0.000000 
0.693289 -0.855021 0.000000 
0.881957 0.395677 0.000000 
0.811448 -0.439953 0.000000 
0.624991 0.839884 0.000000 
0.299412 0.170738 0.000000 
-0.818551 0.640441 0.000000 
-0.184416 0.101540 0.000000 
0.236596 -0.284033 0.000000 
0.462069 -0.560180 0.000000 
-0.301501 -0.749591 0.000000 
0.046756 -0.164921 0.000000 
0.841603 -0.260616 0.000000 
-0.179743 -0.133635 0.000000 
-0.613067 -0.376658 0.000000 
-0.438305 -0.822983 0.000000 
-0.162790 -0.817172 0.000000 
0.107527 -0.725050 0.000000 
-0.490821 -0.298067 0.000000 
-0.300529 -0.252778 0.000000 
-0.200614 -0.163364 0.000000 
-0.155724 -0.045684 0.000000 
-0.172882 0.116620 0.000000 
-0.160123 0.327300 0.000000 
-0.104965 0.583497 0.000000 
-0.913097 -0.234465 0.000000 
0.011969 0.808982 0.000000 
0.095420 -0.940815 0.000000 
0.075088 -0.643826 0.000000 
0.054738 -0.268675 0.000000 
0.065480 0.159379 0.000000 
0.131920 0.648571 0.000000 
0.281299 -0.832390 0.000000 
0.499469 -0.376500 0.000000 
0.726270 -0.037936 0.000000 
0.534741 0.374150 0.000000 
-0.885856 0.342342 0.000000 
0.784655 0.330702 0.000000 
-0.659935 0.428221 0.000000 
-0.448256 0.580747 0.000000 
-0.332503 -0.712173 0.000000 
0.149270 -0.552650 0.000000 
0.587530 -0.493725 0.000000 
-0.995849 -0.514423 0.000000 
0.471380 0.119819 0.000000 
0.272959 -0.241047 0.000000 
-0.607066 -0.613369 0.000000 
-0.210269 -0.744300 0.000000 
0.176051 -0.893214 0.000000 
0.507107 0.944917 0.000000 
0.732061 0.773015 0.000000 
0.995729 0.727849 0.000000 
-0.635214 0.786259 0.000000 
-0.186690 0.770117 0.000000 
0.210159 0.629424 0.000000 
0.153881 -0.937062 0.000000 
-0.040663 -0.615076 0.000000 
-0.256816 -0.215812 0.000000 
0.270517 0.738009 0.000000 
0.328018 0.377276 0.000000 
0.381041 -0.013514 0.000000 
0.442435 -0.416776 0.000000 
0.515429 -0.795383 0.000000 
0.504381 0.800383 0.000000 
-0.443680 0.297710 0.000000 
-0.601098 0.860799 0.000000 
-0.714589 -0.642503 0.000000 
-0.945014 -0.265814 0.000000 
-0.308651 -0.372760 0.000000 
0.311791 -0.366288 0.000000 
-0.921283 -0.218793 0.000000 
0.512357 0.034547 0.000000 
0.947808 -0.226059 0.000000 
0.075435 0.357594 0.000000 
-0.500882 0.933490 0.000000 
0.911402 0.137498 0.000000 
0.178922 0.919181 0.000000 
-0.388019 -0.483795 0.000000 
0.759458 0.317508 0.000000 
0.941641 -0.696244 0.000000 
0.028341 -0.828987 0.000000 
-0.038661 -0.553633 0.000000 
0.771758 -0.178179 0.000000 
-0.104802 -0.617002 0.000000 
0.000967 -0.424238 0.000000 
-0.166685 -0.005004 0.000000 
-0.063257 0.492368 0.000000 
-0.910351 0.677180 0.000000 
0.702154 -0.907893 0.000000 
-0.299881 -0.525047 0.000000 
-0.613910 -0.173422 0.000000 
-0.818546 -0.683907 0.000000 
0.466551 0.810024 0.000000 
0.281718 -0.899296 0.000000 
0.724039 0.763742 0.000000 
-0.140738 0.748635 0.000000 
0.268604 0.171005 0.000000 
-0.654452 0.652020 0.000000 
0.161718 -0.791029 0.000000 
-0.251425 -0.571902 0.000000 
-0.598942 -0.527821 0.000000 
-0.660956 -0.276648 0.000000 
-0.117046 -0.033429 0.000000 
-0.373413 0.249290 0.000000 
-0.722392 0.597101 0.000000 
0.958481 -0.870727 0.000000 
0.178227 -0.619756 0.000000 
-0.988423 -0.929964 0.000000 
0.815783 -0.641212 0.000000 
0.435725 -0.407027 0.000000 
-0.026166 -0.226607 0.000000 
-0.503402 -0.056634 0.000000 
0.987735 0.093777 0.000000 
0.448342 0.151997 0.000000 
-0.097946 0.122881 0.000000 
-0.655931 0.026812 0.000000 
0.636588 0.740136 0.000000 
-0.710686 -0.974563 0.000000 
0.228947 0.203046 0.000000 
-0.778447 0.014985 0.000000 
0.035814 -0.536714 0.000000 
-0.109996 -0.118910 0.000000 
-0.539040 -0.253985 0.000000 
-0.474744 -0.838027 0.000000 
0.201460 -0.346695 0.000000 
0.119850 -0.938766 0.000000 
0.664875 0.837050 0.000000 
-0.998492 0.955803 0.000000 
-0.257004 0.518622 0.000000 
0.196185 0.836318 0.000000 
0.784125 0.969231 0.000000 
0.914895 0.261342 0.000000 
0.249474 0.289561 0.000000 
0.120229 0.397133 0.000000 
0.094150 0.098273 0.000000 
-0.257908 -0.416638 0.000000 
0.191232 0.985014 0.000000 
0.062372 -0.567445 0.000000 
0.001896 -0.118420 0.000000 
-0.030785 0.289767 0.000000 
-0.056282 0.625316 0.000000 
-0.194140 0.888027 0.000000 
-0.537317 -0.913491 0.000000 
-0.889967 -0.529600 0.000000 
-0.469117 0.960463 0.000000 
-0.551823 0.356891 0.000000 
-0.497096 -0.182182 0.000000 
-0.366686 -0.624271 0.000000 
-0.215356 -0.978142 0.000000 
0.894247 0.084729 0.000000 
-0.831794 0.939842 0.000000 
0.301526 0.720830 0.000000 
-0.514259 0.795017 0.000000 
0.746622 -0.885057 0.000000 
0.089890 -0.476377 0.000000 
0.881466 -0.428060 0.000000 
-0.459034 0.050173 0.000000 
0.789065 0.696314 0.000000 
0.788673 -0.749758 0.000000 
0.551383 0.078366 0.000000 
0.285562 0.869340 0.000000 
-0.275977 0.689765 0.000000 
-0.411239 0.862610 0.000000 
0.077731 0.579745 0.000000 
0.408731 0.384830 0.000000 
0.701043 0.333156 0.000000 
0.993183 0.391338 0.000000 
-0.672394 0.501695 0.000000 
-0.453137 -0.784719 0.000000 
0.285175 0.614164 0.000000 
0.583459 -0.003233 0.000000 
0.705514 -0.385303 0.000000 
0.825496 -0.818742 0.000000 
0.779950 -0.637925 0.000000 
0.995511 -0.802248 0.000000 
-0.790520 -0.781148 0.000000 
-0.513550 -0.737986 0.000000 
-0.136373 -0.760704 0.000000 
0.209385 -0.927515 0.000000 
0.536962 0.970836 0.000000 
0.970932 0.980091 0.000000 
-0.329349 -0.912331 0.000000 
-0.985091 -0.335404 0.000000 
-0.968686 0.793433 0.000000 
0.023344 0.748186 0.000000 
0.137198 0.716607 0.000000 
0.189498 0.342700 0.000000 
-0.793608 0.834699 0.000000 
-0.453639 0.432347 0.000000 
0.264716 0.471457 0.000000 
-0.838100 0.328753 0.000000 
0.220186 0.130846 0.000000 
-0.444973 0.120064 0.000000 
-0.500421 0.368961 0.000000 
-0.449746 0.644600 0.000000 
0.475642 0.210109 0.000000 
-0.756917 0.686805 0.000000 
-0.628535 0.183589 0.000000 
-0.488565 -0.126088 0.000000 
-0.122222 0.282381 0.000000 
0.152640 0.271711 0.000000 
0.382530 0.196319 0.000000 
0.642008 0.166257 0.000000 
0.972478 0.719201 0.000000 
-0.890901 0.346997 0.000000 
-0.270688 -0.025457 0.000000 
-0.881318 0.824800 0.000000 
0.753652 0.075295 0.000000 
0.769072 -0.590900 0.000000 
-0.435094 -0.481067 0.000000 
-0.844420 0.082343 0.000000 
0.910216 0.570144 0.000000 
0.667783 -0.920374 0.000000 
0.365455 -0.381858 0.000000 
0.047032 0.298788 0.000000 
-0.148332 -0.759672 0.000000 
0.826281 0.724754 0.000000 
0.377453 0.842875 0.000000 
0.647170 -0.537376 0.000000 
0.732996 0.210014 0.000000 
0.510006 0.937650 0.000000 
-0.556655 0.944097 0.000000 
0.854092 0.063880 0.000000 
-0.918986 -0.172232 0.000000 
0.491384 -0.474328 0.000000 
-0.861884 -0.253488 0.000000 
-0.884387 0.769545 0.000000 
-0.798110 0.056179 0.000000 
-0.334509 -0.053661 0.000000 
0.981217 -0.595769 0.000000 
-0.811589 -0.509445 0.000000 
-0.983341 0.402558 0.000000 
-0.377781 0.597530 0.000000 
0.051835 0.342623 0.000000 
0.178490 -0.465815 0.000000 
-0.317286 0.887762 0.000000 
0.992109 -0.347012 0.000000 
-0.898123 0.040495 0.000000 
-0.545195 -0.273046 0.000000 
0.009075 -0.168757 0.000000 
-0.279918 -0.255947 0.000000 
-0.389727 0.228777 0.000000 
-0.359248 0.080526 0.000000 
-0.384041 -0.210466 0.000000 
-0.256570 -0.982840 0.000000 
-0.283368 0.474389 0.000000 
-0.454999 -0.656890 0.000000 
-0.619812 -0.145648 0.000000 
-0.790485 0.630142 0.000000 
-0.885398 -0.677752 0.000000 
-0.355061 -0.722039 0.000000 
0.164456 -0.670935 0.000000 
0.039781 0.584008 0.000000 
0.080765 -0.176034 0.000000 
0.324464 -0.926878 0.000000 
-0.726862 -0.192766 0.000000 
-0.483554 -0.371885 0.000000 
0.817765 0.169669 0.000000 
0.235818 0.346148 0.000000 
0.365861 0.900279 0.000000 
-0.324178 0.544215 0.000000 
0.771722 -0.127702 0.000000 
0.645787 0.577184 0.000000 
0.824592 -0.661662 0.000000 
-0.204821 0.662399 0.000000 
0.653962 -0.241884 0.000000 
-0.064475 -0.460610 0.000000 
-0.599309 -0.761996 0.000000 
-0.887015 0.864097 0.000000 
0.848515 0.695492 0.000000 
0.580765 0.608854 0.000000 
0.343132 0.910652 0.000000 
-0.024256 -0.579521 0.000000 
0.394476 0.307394 0.000000 
-0.231408 0.176756 0.000000 
0.092437 0.759115 0.000000 
0.758967 -0.403237 0.000000 
0.744624 -0.962664 0.000000 
0.665030 -0.486967 0.000000 
0.081127 -0.339684 0.000000 
0.126711 -0.513296 0.000000 
-0.961347 -0.298253 0.000000 
-0.436044 -0.851110 0.000000 
-0.294773 0.353787 0.000000 
0.581703 -0.131876 0.000000 
0.526448 -0.344083 0.000000 
-0.233961 0.412916 0.000000 
0.649697 -0.560120 0.000000 
0.853068 -0.232606 0.000000 
0.332951 0.742677 0.000000 
-0.839579 -0.050772 0.000000 
-0.906174 -0.549146 0.000000 
0.690919 -0.689463 0.000000 
-0.746566 -0.591300 0.000000 
0.191318 -0.576781 0.000000 
-0.750917 -0.562679 0.000000 
0.430830 -0.780478 0.000000 
0.828036 0.894385 0.000000 
-0.117375 -0.017402 0.000000 
-0.731236 -0.408568 0.000000 
-0.186535 -0.731106 0.000000 
0.182217 -0.157512 0.000000 
-0.095917 -0.778774 0.000000 
-0.026628 0.010115 0.000000 
-0.044805 -0.501829 0.000000 
-0.306937 -0.680433 0.000000 
-0.823310 0.550477 0.000000 
0.036762 0.391254 0.000000 
0.685398 -0.081667 0.000000 
-0.321811 -0.713840 0.000000 
0.601270 0.379288 0.000000 
-0.750622 0.173094 0.000000 
0.954024 0.189738 0.000000 
0.143233 -0.077662 0.000000 
0.553481 -0.876107 0.000000 
-0.951133 0.804095 0.000000 
-0.917045 0.485676 0.000000 
-0.218064 -0.190630 0.000000 
0.167007 -0.172023 0.000000 
-0.472010 0.825230 0.000000 
0.186706 0.597074 0.000000 
-0.964152 -0.467517 0.000000 
0.510407 0.404913 0.000000 
0.867309 -0.801415 0.000000 
0.834512 0.172768 0.000000 
-0.007763 0.883803 0.000000 
-0.637203 -0.004196 0.000000 
0.757525 0.782874 0.000000 
-0.193578 -0.567206 0.000000 
-0.891852 0.040867 0.000000 
-0.768948 -0.262463 0.000000 
-0.704255 0.560361 0.000000 
0.155916 0.659412 0.000000 
-0.750413 0.577216 0.000000 
-0.835762 -0.794300 0.000000 
-0.741033 0.921697 0.000000 
0.517690 0.940580 0.000000 
0.268237 -0.002712 0.000000 
-0.420221 0.651944 0.000000 
-0.047134 -0.885449 0.000000 
-0.643969 -0.520523 0.000000 
-0.007371 0.119613 0.000000 
0.957088 0.866626 0.000000 
0.522242 -0.415262 0.000000 
-0.452579 -0.031133 0.000000 
-0.916431 -0.042158 0.000000 
-0.073605 0.187444 0.000000 
0.281589 -0.788472 0.000000 
-0.005376 0.434348 0.000000 
-0.966456 0.589867 0.000000 
0.294095 0.752248 0.000000 
0.971415 -0.162612 0.000000 
0.403351 0.265881 0.000000 
0.315419 -0.010965 0.000000 
0.878515 -0.875549 0.000000 
0.541471 -0.229445 0.000000 
0.870926 -0.118263 0.000000 
-0.109302 -0.327123 0.000000 
-0.320764 -0.763988 0.000000 
-0.037051 -0.089763 0.000000 
0.405615 -0.431767 0.000000 
0.615835 0.506663 0.000000 
0.009331 -0.549332 0.000000 
-0.970200 0.743169 0.000000 
0.569951 -0.762577 0.000000 
-0.761656 0.944214 0.000000 
0.145191 -0.264238 0.000000 
-0.946510 0.282864 0.000000 
0.003401 -0.076942 0.000000 
0.969868 0.359853 0.000000 
-0.610910 0.131570 0.000000 
0.692436 0.878646 0.000000 
-0.877732 -0.143370 0.000000 
-0.375862 0.531557 0.000000 
0.828393 -0.062927 0.000000 
-0.580967 0.149516 0.000000 
CELL_DATA 899 
SCALARS MASS float 
LOOKUP_TABLE default 
0.814997 
1.448845 
1.668565 
1.794886 
1.361438 
1.831342 
2.259706 
0.213135 
0.196588 
0.207496 
1.880851 
0.439777 
0.331778 
0.364951 
0.612627 
0.274411 
0.260395 
0.217654 
0.296934 
0.266990 
0.466240 
0.509384 
0.733216 
0.739170 
0.387188 
0.345944 
0.452966 
0.494740 
0.551308 
0.648448 
0.752806 
0.417235 
0.218595 
0.289879 
0.722922 
0.804537 
1.021505 
0.937232 
0.841016 
0.803048 
0.619897 
1.038794 
1.293895 
1.301335 
0.691005 
0.431975 
0.647573 
0.616545 
0.576670 
0.266309 
0.297534 
0.391690 
0.604646 
0.774259 
0.831676 
0.939146 
1.129789 
0.520851 
0.464605 
0.716459 
0.889315 
0.593583 
0.614640 
0.457422 
0.372306 
0.488949 
0.641320 
0.747045 
0.490174 
0.551661 
0.523343 
0.508441 
0.614565 
0.859709 
0.765910 
0.720157 
0.682478 
0.421921 
0.268961 
0.262942 
0.426045 
0.393658 
0.278380 
0.261718 
0.162198 
0.234839 
0.278449 
0.287969 
0.244414 
0.403757 
0.550341 
0.463860 
0.338742 
0.350225 
0.337056 
0.525733 
0.562823 
0.419041 
0.314522 
0.509290 
0.523048 
0.877653 
0.349228 
0.225451 
0.235059 
0.249781 
0.366201 
0.644537 
0.620783 
0.339837 
0.287648 
0.382936 
0.362625 
0.799998 
1.122418 
0.799088 
0.680669 
0.866894 
1.003571 
1.354661 
1.853857 
1.742882 
1.214309 
1.426031 
1.636237 
1.719299 
1.801144 
1.602051 
1.452273 
1.275395 
0.790935 
0.890716 
2.050838 
1.154370 
1.385193 
1.297838 
0.991117 
1.158409 
0.767421 
0.829112 
0.895971 
1.063583 
0.809199 
0.656638 
0.354820 
1.452535 
1.387436 
1.274147 
0.537119 
1.620892 
1.463026 
1.596472 
1.756097 
1.271080 
1.065987 
1.156825 
1.276513 
1.414763 
1.006273 
1.096772 
1.062030 
0.892650 
1.284017 
0.980927 
1.000067 
2.321434 
1.747538 
1.536946 
1.712190 
1.447662 
1.007350 
0.975424 
1.487738 
1.639549 
1.486177 
0.979182 
0.805630 
0.813336 
0.641130 
0.711156 
0.207836 
0.269013 
0.855473 
1.045568 
0.791718 
0.342691 
0.453304 
0.426256 
0.570926 
0.416459 
0.375884 
0.354688 
0.264371 
0.216171 
0.182793 
0.252956 
0.179739 
0.222894 
0.247373 
1.613875 
1.875775 
2.035370 
2.127471 
1.947260 
1.753562 
1.040721 
1.279022 
2.278945 
2.333206 
2.040851 
1.424418 
1.098725 
1.255601 
0.836194 
0.905620 
0.781446 
0.664302 
0.776641 
2.067730 
1.483350 
2.145495 
2.073271 
1.781968 
1.685305 
1.731154 
1.299699 
1.074228 
1.103773 
1.132785 
3.482831 
1.755828 
2.272319 
1.700356 
3.950527 
3.859171 
4.115531 
3.468933 
2.708902 
2.764259 
2.968101 
1.994670 
1.150141 
0.864719 
1.360273 
1.259775 
0.807082 
0.599653 
0.479233 
0.529928 
0.462560 
0.503857 
0.524851 
0.560322 
0.460734 
0.506103 
0.374542 
0.350464 
0.749792 
0.811574 
0.783632 
0.544062 
0.438563 
0.445491 
0.244570 
0.308771 
0.220812 
0.160103 
0.126686 
0.100795 
0.090745 
0.138791 
0.256352 
0.827395 
0.086830 
0.099690 
0.123853 
0.122249 
0.207192 
0.163120 
0.239219 
0.388240 
0.778706 
0.322964 
1.048544 
0.414071 
0.474721 
0.656925 
1.198437 
1.126206 
1.144058 
1.116759 
1.171714 
1.045737 
0.926556 
0.873202 
0.589826 
0.563407 
0.678725 
0.923637 
0.558139 
1.464933 
1.743086 
1.227811 
1.812559 
1.349474 
1.574665 
1.398369 
1.722017 
1.454376 
1.874986 
1.585674 
2.084762 
2.671368 
1.933273 
2.296072 
1.169028 
1.156625 
2.228174 
2.060782 
1.818668 
1.896772 
2.747172 
0.356480 
0.460413 
0.890515 
0.731993 
0.649918 
0.694495 
0.769888 
0.887832 
0.786104 
0.885935 
1.154372 
1.160047 
0.850850 
0.772332 
0.725769 
0.677854 
0.922960 
0.985818 
1.362571 
0.788450 
0.532504 
0.494248 
0.214341 
0.695641 
0.716454 
0.927986 
0.140593 
0.232810 
0.297508 
0.349532 
1.033550 
2.961022 
1.053017 
0.145387 
0.144061 
0.809607 
0.589993 
0.615340 
0.626094 
0.689657 
0.994540 
1.160792 
1.457671 
0.764565 
0.547649 
0.479604 
0.768153 
0.631003 
0.751347 
0.606687 
0.855802 
1.587568 
1.962281 
1.395860 
1.144432 
1.877399 
1.893745 
0.307074 
0.297075 
0.412702 
0.466584 
0.608375 
0.625241 
0.418250 
0.646555 
0.337519 
0.675916 
0.579132 
0.988219 
1.131267 
0.718056 
0.879108 
1.199383 
0.793040 
0.661365 
0.868802 
1.074436 
1.419386 
0.547188 
0.455355 
0.411414 
1.820604 
2.103034 
2.247161 
1.270531 
2.033362 
0.460225 
0.498661 
0.656889 
0.297227 
0.292840 
0.534216 
0.692218 
0.754218 
0.660662 
0.881838 
0.523952 
0.881889 
0.697812 
0.857701 
0.566564 
0.361654 
0.403990 
0.352687 
0.306233 
0.418854 
0.354892 
0.241996 
0.210380 
0.233870 
0.214722 
0.243485 
0.362589 
0.465080 
2.404070 
1.947644 
0.946490 
0.551552 
0.469478 
0.425042 
0.292762 
0.184844 
0.118944 
0.071142 
0.069311 
0.140690 
1.644604 
1.893235 
1.094464 
2.101951 
1.617670 
1.159842 
3.355291 
1.447872 
1.426745 
1.222373 
1.548358 
0.643619 
0.812967 
0.750840 
0.476016 
0.273108 
0.427659 
0.469155 
0.325123 
0.178433 
0.143716 
0.248584 
0.314263 
0.411721 
0.481902 
1.690053 
1.476918 
1.750955 
1.388709 
1.153712 
0.686586 
0.616590 
1.108327 
1.329332 
0.511210 
0.928724 
0.687317 
1.249044 
0.884423 
1.205268 
1.358704 
0.759682 
0.446899 
0.348083 
0.411368 
0.262857 
0.264051 
0.288463 
0.259541 
1.978994 
1.433550 
1.716658 
1.612371 
1.823596 
1.988735 
2.807794 
2.419984 
1.251635 
0.924962 
0.718513 
0.481721 
1.781845 
0.894209 
1.301109 
0.938003 
1.269811 
1.581854 
0.925531 
0.921482 
0.498159 
0.933556 
1.013253 
2.739234 
1.145164 
1.227291 
1.904434 
1.736902 
3.063486 
2.776380 
2.646664 
3.200246 
2.496591 
1.436311 
0.582963 
0.268172 
2.462910 
1.560589 
2.856408 
3.513568 
3.593902 
0.313806 
0.255175 
0.284552 
0.169076 
0.087198 
0.062303 
0.069477 
0.146007 
0.222206 
0.310248 
0.758933 
0.249616 
0.227668 
0.427883 
0.591969 
0.790973 
0.979806 
1.022167 
0.782199 
0.388473 
0.703038 
0.244376 
0.616469 
0.216482 
0.314505 
1.391385 
0.951653 
0.796124 
0.689270 
0.892729 
0.523362 
0.654291 
0.686632 
0.607247 
0.450163 
0.252199 
0.297680 
0.621092 
0.825379 
0.636461 
0.457189 
0.663078 
1.013095 
0.416230 
0.453041 
0.503777 
0.509642 
0.417663 
0.478631 
1.205103 
1.079333 
0.670462 
0.804833 
1.408696 
1.576894 
1.369391 
1.055885 
1.473299 
0.762761 
2.615622 
4.566645 
2.476428 
2.644593 
2.724505 
3.060286 
3.131817 
3.546054 
2.473962 
5.027535 
0.382103 
0.663605 
1.403935 
0.387474 
1.270149 
0.338234 
1.065505 
0.881563 
0.663855 
0.618089 
1.364242 
1.257690 
2.466677 
0.974088 
0.844131 
0.492159 
0.192867 
0.305660 
0.440228 
0.670215 
1.177208 
1.848496 
1.692244 
0.408748 
0.799495 
0.921837 
0.950751 
0.955365 
1.131829 
1.204590 
1.319271 
1.583603 
0.815568 
0.976245 
0.757035 
0.378270 
0.892601 
0.456735 
0.772070 
1.410773 
0.999250 
1.273725 
0.914644 
1.254854 
1.025297 
0.850160 
1.507333 
1.841585 
0.899843 
3.992341 
1.351294 
1.521600 
0.555017 
0.589491 
0.537133 
0.428380 
0.284792 
0.327998 
0.851282 
1.588842 
1.454404 
1.288405 
0.949336 
0.599172 
0.327841 
1.499221 
3.123945 
2.747463 
2.536700 
2.100494 
1.740348 
2.701089 
1.748755 
1.250020 
0.781477 
2.169762 
1.574870 
0.921296 
1.196363 
0.600461 
0.283891 
0.246672 
0.359092 
0.522446 
2.217231 
1.931660 
0.725891 
0.286414 
0.075896 
0.146061 
0.126060 
0.195473 
0.393830 
0.699257 
0.496011 
0.498903 
1.132455 
2.956735 
10.748612 
2.871802 
4.109697 
6.144787 
3.072817 
6.278416 
5.009994 
4.284342 
3.102812 
3.001759 
0.205204 
0.352257 
0.338488 
2.649178 
6.640870 
0.907021 
0.113230 
0.269347 
0.219010 
0.295027 
0.198745 
0.904479 
0.620715 
0.738414 
1.354952 
1.464627 
1.239278 
0.967340 
0.881495 
1.028853 
1.265897 
1.813090 
3.056601 
4.921530 
2.946529 
1.506820 
2.030213 
2.709747 
2.592820 
0.433253 
0.236396 
0.621654 
0.843519 
2.215793 
0.504732 
0.417480 
0.081054 
0.139552 
0.190309 
0.792540 
0.347080 
1.171400 
1.183571 
1.583892 
0.241547 
0.951997 
0.634522 
1.687218 
0.434750 
0.455607 
0.468496 
0.593095 
1.769477 
1.026473 
1.135123 
1.797339 
0.839631 
0.924470 
0.845703 
1.808078 
1.990630 
2.331248 
2.656456 
3.846695 
2.656881 
1.466393 
1.220445 
1.697253 
1.217922 
1.607812 
2.306175 
2.119227 
1.344304 
1.608658 
1.750037 
1.220253 
0.411747 
0.285856 
0.263192 
0.643053 
2.046456 
0.977348 
1.352223 
1.049209 
1.939998 
0.491120 
1.675469 
2.874237 
5.346095 
4.954993 
2.321985 
5.378686 
0.323862 
3.161959 
2.749729 
1.165122 
4.639949 
6.903549 
1.388530 
13.130022 
10.399030 
3.176275 
3.281581 
2.130918 
2.202166 
18.677771 
0.393556 
1.882276 
2.128266 
0.573620 
7.101032 
8.996294 
13.909047 
3.497158 
2.349395 
5.829165 
1.989320 
3.556176 
1.849605 
0.467352 
3.873245 
0.849130 
1.446858 
1.777539 
3.009091 
3.431483 
3.236575 
5.184580 
2.636125 
3.658244 
1.858148 
3.842623 
5.484070 
4.842566 
3.248038 
2.871939 
6.080934 
2.967966 
0.510912 
4.233476 
4.334059 
1.175840 
0.988338 
2.421584 
1.183952 
9.306750 
4.726810 
1.141527 
2.158936 
2.739469 
6.032449 
1.581485 
4.493860 
9.539122 
14.209354 
7.199147 
3.501693 
2.506154 
17.244339 
16.271074 
6.174211 
16.507673 
7.044861 
8.528390 
0.721090 
3.682418 
6.244847 
8.654681 
6.615292 
1.636205 
11.522723 
6.939662 
1.665240 
0.989746 
1.140976 
14.709179 
3.872443 
3.269091 
0.344281 
0.338818 
0.155842 
0.445990 
0.366565 
0.562578 
SCALARS MASS float 
LOOKUP_TABLE default 
0.814997 
1.448845 
1.668565 
1.794886 
1.361438 
1.831342 
2.259706 
0.213135 
0.196588 
0.207496 
1.880851 
0.439777 
0.331778 
0.364951 
0.612627 
0.274411 
0.260395 
0.217654 
0.296934 
0.266990 
0.466240 
0.509384 
0.733216 
0.739170 
0.387188 
0.345944 
0.452966 
0.494740 
0.551308 
0.648448 
0.752806 
0.417235 
0.218595 
0.289879 
0.722922 
0.804537 
1.021505 
0.937232 
0.841016 
0.803048 
0.619897 
1.038794 
1.293895 
1.301335 
0.691005 
0.431975 
0.647573 
0.616545 
0.576670 
0.266309 
0.297534 
0.391690 
0.604646 
0.774259 
0.831676 
0.939146 
1.129789 
0.520851 
0.464605 
0.716459 
0.889315 
0.593583 
0.614640 
0.457422 
0.372306 
0.488949 
0.641320 
0.747045 
0.490174 
0.551661 
0.523343 
0.508441 
0.614565 
0.859709 
0.765910 
0.720157 
0.682478 
0.421921 
0.268961 
0.262942 
0.426045 
0.393658 
0.278380 
0.261718 
0.162198 
0.234839 
0.278449 
0.287969 
0.244414 
0.403757 
0.550341 
0.463860 
0.338742 
0.350225 
0.337056 
0.525733 
0.562823 
0.419041 
0.314522 
0.509290 
0.523048 
0.877653 
0.349228 
0.225451 
0.235059 
0.249781 
0.366201 
0.644537 
0.620783 
0.339837 
0.287648 
0.382936 
0.362625 
0.799998 
1.122418 
0.799088 
0.680669 
0.866894 
1.003571 
1.354661 
1.853857 
1.742882 
1.214309 
1.426031 
1.636237 
1.719299 
1.801144 
1.602051 
1.452273 
1.275395 
0.790935 
0.890716 
2.050838 
1.154370 
1.385193 
1.297838 
0.991117 
1.158409 
0.767421 
0.829112 
0.895971 
1.063583 
0.809199 
0.656638 
0.354820 
1.452535 
1.387436 
1.274147 
0.537119 
1.620892 
1.463026 
1.596472 
1.756097 
1.271080 
1.065987 
1.156825 
1.276513 
1.414763 
1.006273 
1.096772 
1.062030 
0.892650 
1.284017 
0.980927 
1.000067 
2.321434 
1.747538 
1.536946 
1.712190 
1.447662 
1.007350 
0.975424 
1.487738 
1.639549 
1.486177 
0.979182 
0.805630 
0.813336 
0.641130 
0.711156 
0.207836 
0.269013 
0.855473 
1.045568 
0.791718 
0.342691 
0.453304 
0.426256 
0.570926 
0.416459 
0.375884 
0.354688 
0.264371 
0.216171 
0.182793 
0.252956 
0.179739 
0.222894 
0.247373 
1.613875 
1.875775 
2.035370 
2.127471 
1.947260 
1.753562 
1.040721 
1.279022 
2.278945 
2.333206 
2.040851 
1.424418 
1.098725 
1.255601 
0.836194 
0.905620 
0.781446 
0.664302 
0.776641 
2.067730 
1.483350 
2.145495 
2.073271 
1.781968 
1.685305 
1.731154 
1.299699 
1.074228 
1.103773 
1.132785 
3.482831 
1.755828 
2.272319 
1.700356 
3.950527 
3.859171 
4.115531 
3.468933 
2.708902 
2.764259 
2.968101 
1.994670 
1.150141 
0.864719 
1.360273 
1.259775 
0.807082 
0.599653 
0.479233 
0.529928 
0.462560 
0.503857 
0.524851 
0.560322 
0.460734 
0.506103 
0.374542 
0.350464 
0.749792 
0.811574 
0.783632 
0.544062 
0.438563 
0.445491 
0.244570 
0.308771 
0.220812 
0.160103 
0.126686 
0.100795 
0.090745 
0.138791 
0.256352 
0.827395 
0.086830 
0.099690 
0.123853 
0.122249 
0.207192 
0.163120 
0.239219 
0.388240 
0.778706 
0.322964 
1.048544 
0.414071 
0.474721 
0.656925 
1.198437 
1.126206 
1.144058 
1.116759 
1.171714 
1.045737 
0.926556 
0.873202 
0.589826 
0.563407 
0.678725 
0.923637 
0.558139 
1.464933 
1.743086 
1.227811 
1.812559 
1.349474 
1.574665 
1.398369 
1.722017 
1.454376 
1.874986 
1.585674 
2.084762 
2.671368 
1.933273 
2.296072 
1.169028 
1.156625 
2.228174 
2.060782 
1.818668 
1.896772 
2.747172 
0.356480 
0.460413 
0.890515 
0.731993 
0.649918 
0.694495 
0.769888 
0.887832 
0.786104 
0.885935 
1.154372 
1.160047 
0.850850 
0.772332 
0.725769 
0.677854 
0.922960 
0.985818 
1.362571 
0.788450 
0.532504 
0.494248 
0.214341 
0.695641 
0.716454 
0.927986 
0.140593 
0.232810 
0.297508 
0.349532 
1.033550 
2.961022 
1.053017 
0.145387 
0.144061 
0.809607 
0.589993 
0.615340 
0.626094 
0.689657 
0.994540 
1.160792 
1.457671 
0.764565 
0.547649 
0.479604 
0.768153 
0.631003 
0.751347 
0.606687 
0.855802 
1.587568 
1.962281 
1.395860 
1.144432 
1.877399 
1.893745 
0.307074 
0.297075 
0.412702 
0.466584 
0.608375 
0.625241 
0.418250 
0.646555 
0.337519 
0.675916 
0.579132 
0.988219 
1.131267 
0.718056 
0.879108 
1.199383 
0.793040 
0.661365 
0.868802 
1.074436 
1.419386 
0.547188 
0.455355 
0.411414 
1.820604 
2.103034 
2.247161 
1.270531 
2.033362 
0.460225 
0.498661 
0.656889 
0.297227 
0.292840 
0.534216 
0.692218 
0.754218 
0.660662 
0.881838 
0.523952 
0.881889 
0.697812 
0.857701 
0.566564 
0.361654 
0.403990 
0.352687 
0.306233 
0.418854 
0.354892 
0.241996 
0.210380 
0.233870 
0.214722 
0.243485 
0.362589 
0.465080 
2.404070 
1.947644 
0.946490 
0.551552 
0.469478 
0.425042 
0.292762 
0.184844 
0.118944 
0.071142 
0.069311 
0.140690 
1.644604 
1.893235 
1.094464 
2.101951 
1.617670 
1.159842 
3.355291 
1.447872 
1.426745 
1.222373 
1.548358 
0.643619 
0.812967 
0.750840 
0.476016 
0.273108 
0.427659 
0.469155 
0.325123 
0.178433 
0.143716 
0.248584 
0.314263 
0.411721 
0.481902 
1.690053 
1.476918 
1.750955 
1.388709 
1.153712 
0.686586 
0.616590 
1.108327 
1.329332 
0.511210 
0.928724 
0.687317 
1.249044 
0.884423 
1.205268 
1.358704 
0.759682 
0.446899 
0.348083 
0.411368 
0.262857 
0.264051 
0.288463 
0.259541 
1.978994 
1.433550 
1.716658 
1.612371 
1.823596 
1.988735 
2.807794 
2.419984 
1.251635 
0.924962 
0.718513 
0.481721 
1.781845 
0.894209 
1.301109 
0.938003 
1.269811 
1.581854 
0.925531 
0.921482 
0.498159 
0.933556 
1.013253 
2.739234 
1.145164 
1.227291 
1.904434 
1.736902 
3.063486 
2.776380 
2.646664 
3.200246 
2.496591 
1.436311 
0.582963 
0.268172 
2.462910 
1.560589 
2.856408 
3.513568 
3.593902 
0.313806 
0.255175 
0.284552 
0.169076 
0.087198 
0.062303 
0.069477 
0.146007 
0.222206 
0.310248 
0.758933 
0.249616 
0.227668 
0.427883 
0.591969 
0.790973 
0.979806 
1.022167 
0.782199 
0.388473 
0.703038 
0.244376 
0.616469 
0.216482 
0.314505 
1.391385 
0.951653 
0.796124 
0.689270 
0.892729 
0.523362 
0.654291 
0.686632 
0.607247 
0.450163 
0.252199 
0.297680 
0.621092 
0.825379 
0.636461 
0.457189 
0.663078 
1.013095 
0.416230 
0.453041 
0.503777 
0.509642 
0.417663 
0.478631 
1.205103 
1.079333 
0.670462 
0.804833 
1.408696 
1.576894 
1.369391 
1.055885 
1.473299 
0.762761 
2.615622 
4.566645 
2.476428 
2.644593 
2.724505 
3.060286 
3.131817 
3.546054 
2.473962 
5.027535 
0.382103 
0.663605 
1.403935 
0.387474 
1.270149 
0.338234 
1.065505 
0.881563 
0.663855 
0.618089 
1.364242 
1.257690 
2.466677 
0.974088 
0.844131 
0.492159 
0.192867 
0.305660 
0.440228 
0.670215 
1.177208 
1.848496 
1.692244 
0.408748 
0.799495 
0.921837 
0.950751 
0.955365 
1.131829 
1.204590 
1.319271 
1.583603 
0.815568 
0.976245 
0.757035 
0.378270 
0.892601 
0.456735 
0.772070 
1.410773 
0.999250 
1.273725 
0.914644 
1.254854 
1.025297 
0.850160 
1.507333 
1.841585 
0.899843 
3.992341 
1.351294 
1.521600 
0.555017 
0.589491 
0.537133 
0.428380 
0.284792 
0.327998 
0.851282 
1.588842 
1.454404 
1.288405 
0.949336 
0.599172 
0.327841 
1.499221 
3.123945 
2.747463 
2.536700 
2.100494 
1.740348 
2.701089 
1.748755 
1.250020 
0.781477 
2.169762 
1.574870 
0.921296 
1.196363 
0.600461 
0.283891 
0.246672 
0.359092 
0.522446 
2.217231 
1.931660 
0.725891 
0.286414 
0.075896 
0.146061 
0.126060 
0.195473 
0.393830 
0.699257 
0.496011 
0.498903 
1.132455 
2.956735 
10.748612 
2.871802 
4.109697 
6.144787 
3.072817 
6.278416 
5.009994 
4.284342 
3.102812 
3.001759 
0.205204 
0.352257 
0.338488 
2.649178 
6.640870 
0.907021 
0.113230 
0.269347 
0.219010 
0.295027 
0.198745 
0.904479 
0.620715 
0.738414 
1.354952 
1.464627 
1.239278 
0.967340 
0.881495 
1.028853 
1.265897 
1.813090 
3.056601 
4.921530 
2.946529 
1.506820 
2.030213 
2.709747 
2.592820 
0.433253 
0.236396 
0.621654 
0.843519 
2.215793 
0.504732 
0.417480 
0.081054 
0.139552 
0.190309 
0.792540 
0.347080 
1.171400 
1.183571 
1.583892 
0.241547 
0.951997 
0.634522 
1.687218 
0.434750 
0.455607 
0.468496 
0.593095 
1.769477 
1.026473 
1.135123 
1.797339 
0.839631 
0.924470 
0.845703 
1.808078 
1.990630 
2.331248 
2.656456 
3.846695 
2.656881 
1.466393 
1.220445 
1.697253 
1.217922 
1.607812 
2.306175 
2.119227 
1.344304 
1.608658 
1.750037 
1.220253 
0.411747 
0.285856 
0.263192 
0.643053 
2.046456 
0.977348 
1.352223 
1.049209 
1.939998 
0.491120 
1.675469 
2.874237 
5.346095 
4.954993 
2.321985 
5.378686 
0.323862 
3.161959 
2.749729 
1.165122 
4.639949 
6.903549 
1.388530 
13.130022 
10.399030 
3.176275 
3.281581 
2.130918 
2.202166 
18.677771 
0.393556 
1.882276 
2.128266 
0.573620 
7.101032 
8.996294 
13.909047 
3.497158 
2.349395 
5.829165 
1.989320 
3.556176 
1.849605 
0.467352 
3.873245 
0.849130 
1.446858 
1.777539 
3.009091 
3.431483 
3.236575 
5.184580 
2.636125 
3.658244 
1.858148 
3.842623 
5.484070 
4.842566 
3.248038 
2.871939 
6.080934 
2.967966 
0.510912 
4.233476 
4.334059 
1.175840 
0.988338 
2.421584 
1.183952 
9.306750 
4.726810 
1.141527 
2.158936 
2.739469 
6.032449 
1.581485 
4.493860 
9.539122 
14.209354 
7.199147 
3.501693 
2.506154 
17.244339 
16.271074 
6.174211 
16.507673 
7.044861 
8.528390 
0.721090 
3.682418 
6.244847 
8.654681 
6.615292 
1.636205 
11.522723 
6.939662 
1.665240 
0.989746 
1.140976 
14.709179 
3.872443 
3.269091 
0.344281 
0.338818 
0.155842 
0.445990 
0.366565 
0.562578 
SCALARS DENSITY float 
LOOKUP_TABLE default 
200.000000 
200.000000 
200.000000 
200.000000 
200.000000 
200.000000 
200.000000 
200.000000 
200.000000 
200.000000 
200.000000 
200.000000 
200.000000 
200.000000 
200.000000 
200.000000 
200.000000 
200.000000 
200.000000 
200.000000 
200.000000 
200.000000 
200.000000 
200.000000 
200.000000 
200.000000 
200.000000 
200.000000 
200.000000 
200.000000 
200.000000 
200.000000 
200.000000 
200.000000 
200.000000 
200.000000 
200.000000 
200.000000 
200.000000 
200.000000 
200.000000 
200.000000 
200.000000 
200.000000 
200.000000 
200.000000 
200.000000 
200.000000 
200.000000 
200.000000 
200.000000 
200.000000 
200.000000 
200.000000 
200.000000 
200.000000 
200.000000 
200.000000 
200.000000 
200.000000 
200.000000 
200.000000 
200.000000 
200.000000 
200.000000 
200.000000 
200.000000 
200.000000 
200.000000 
200.000000 
200.000000 
200.000000 
200.000000 
200.000000 
200.000000 
200.000000 
200.000000 
200.000000 
200.000000 
200.000000 
200.000000 
200.000000 
200.000000 
200.000000 
200.000000 
200.000000 
200.000000 
200.000000 
200.000000 
200.000000 
200.000000 
200.000000 
200.000000 
200.000000 
200.000000 
200.000000 
200.000000 
200.000000 
200.000000 
200.000000 
200.000000 
200.000000 
200.000000 
200.000000 
200.000000 
200.000000 
200.000000 
200.000000 
200.000000 
200.000000 
200.000000 
200.000000 
200.000000 
200.000000 
200.000000 
200.000000 
200.000000 
200.000000 
200.000000 
200.000000 
200.000000 
200.000000 
200.000000 
200.000000 
200.000000 
200.000000 
200.000000 
200.000000 
200.000000 
200.000000 
200.000000 
200.000000 
200.000000 
200.000000 
200.000000 
200.000000 
200.000000 
200.000000 
200.000000 
200.000000 
200.000000 
200.000000 
200.000000 
200.000000 
200.000000 
200.000000 
200.000000 
200.000000 
200.000000 
200.000000 
200.000000 
200.000000 
200.000000 
200.000000 
200.000000 
200.000000 
200.000000 
200.000000 
200.000000 
200.000000 
200.000000 
200.000000 
200.000000 
200.000000 
200.000000 
200.000000 
200.000000 
200.000000 
200.000000 
200.000000 
200.000000 
200.000000 
200.000000 
200.000000 
200.000000 
200.000000 
200.000000 
200.000000 
200.000000 
200.000000 
200.000000 
200.000000 
200.000000 
200.000000 
200.000000 
200.000000 
200.000000 
200.000000 
200.000000 
200.000000 
200.000000 
200.000000 
200.000000 
200.000000 
200.000000 
200.000000 
200.000000 
200.000000 
200.000000 
200.000000 
200.000000 
200.000000 
200.000000 
200.000000 
200.000000 
200.000000 
200.000000 
200.000000 
200.000000 
200.000000 
200.000000 
200.000000 
200.000000 
200.000000 
200.000000 
200.000000 
200.000000 
200.000000 
200.000000 
200.000000 
200.000000 
200.000000 
200.000000 
200.000000 
200.000000 
200.000000 
200.000000 
200.000000 
200.000000 
200.000000 
200.000000 
200.000000 
200.000000 
200.000000 
200.000000 
200.000000 
200.000000 
200.000000 
200.000000 
200.000000 
200.000000 
200.000000 
200.000000 
200.000000 
200.000000 
200.000000 
200.000000 
200.000000 
200.000000 
200.000000 
200.000000 
200.000000 
200.000000 
200.000000 
200.000000 
200.000000 
200.000000 
200.000000 
200.000000 
200.000000 
200.000000 
200.000000 
200.000000 
200.000000 
200.000000 
200.000000 
200.000000 
200.000000 
200.000000 
200.000000 
200.000000 
200.000000 
200.000000 
200.000000 
200.000000 
200.000000 
200.000000 
200.000000 
200.000000 
200.000000 
200.000000 
200.000000 
200.000000 
200.000000 
200.000000 
200.000000 
200.000000 
200.000000 
200.000000 
200.000000 
200.000000 
200.000000 
200.000000 
200.000000 
200.000000 
200.000000 
200.000000 
200.000000 
200.000000 
200.000000 
200.000000 
200.000000 
200.000000 
200.000000 
200.000000 
200.000000 
200.000000 
200.000000 
200.000000 
200.000000 
200.000000 
200.000000 
200.000000 
200.000000 
200.000000 
200.000000 
200.000000 
200.000000 
200.000000 
200.000000 
200.000000 
200.000000 
200.000000 
200.000000 
200.000000 
200.000000 
200.000000 
200.000000 
200.000000 
200.000000 
200.000000 
200.000000 
200.000000 
200.000000 
200.000000 
200.000000 
200.000000 
200.000000 
200.000000 
200.000000 
200.000000 
200.000000 
200.000000 
200.000000 
200.000000 
200.000000 
200.000000 
200.000000 
200.000000 
200.000000 
200.000000 
200.000000 
200.000000 
200.000000 
200.000000 
200.000000 
200.000000 
200.000000 
200.000000 
200.000000 
200.000000 
200.000000 
200.000000 
200.000000 
200.000000 
200.000000 
200.000000 
200.000000 
200.000000 
200.000000 
200.000000 
200.000000 
200.000000 
200.000000 
200.000000 
200.000000 
200.000000 
200.000000 
200.000000 
200.000000 
200.000000 
200.000000 
200.000000 
200.000000 
200.000000 
200.000000 
200.000000 
200.000000 
200.000000 
200.000000 
200.000000 
200.000000 
200.000000 
200.000000 
200.000000 
200.000000 
200.000000 
200.000000 
200.000000 
200.000000 
200.000000 
200.000000 
200.000000 
200.000000 
200.000000 
200.000000 
200.000000 
200.000000 
200.000000 
200.000000 
200.000000 
200.000000 
200.000000 
200.000000 
200.000000 
200.000000 
200.000000 
200.000000 
200.000000 
200.000000 
200.000000 
200.000000 
200.000000 
200.000000 
200.000000 
200.000000 
200.000000 
200.000000 
200.000000 
200.000000 
200.000000 
200.000000 
200.000000 
200.000000 
200.000000 
200.000000 
200.000000 
200.000000 
200.000000 
200.000000 
200.000000 
200.000000 
200.000000 
200.000000 
200.000000 
200.000000 
200.000000 
200.000000 
200.000000 
200.000000 
200.000000 
200.000000 
200.000000 
200.000000 
200.000000 
200.000000 
200.000000 
200.000000 
200.000000 
200.000000 
200.000000 
200.000000 
200.000000 
200.000000 
200.000000 
200.000000 
200.000000 
200.000000 
200.000000 
200.000000 
200.000000 
200.000000 
200.000000 
200.000000 
200.000000 
200.000000 
200.000000 
200.000000 
200.000000 
200.000000 
200.000000 
200.000000 
200.000000 
200.000000 
200.000000 
200.000000 
200.000000 
200.000000 
200.000000 
200.000000 
200.000000 
200.000000 
200.000000 
200.000000 
200.000000 
200.000000 
200.000000 
200.000000 
200.000000 
200.000000 
200.000000 
200.000000 
200.000000 
200.000000 
200.000000 
200.000000 
200.000000 
200.000000 
200.000000 
200.000000 
200.000000 
200.000000 
200.000000 
200.000000 
200.000000 
200.000000 
200.000000 
200.000000 
200.000000 
200.000000 
200.000000 
200.000000 
200.000000 
200.000000 
200.000000 
200.000000 
200.000000 
200.000000 
200.000000 
200.000000 
200.000000 
200.000000 
200.000000 
200.000000 
200.000000 
200.000000 
200.000000 
200.000000 
200.000000 
200.000000 
200.000000 
200.000000 
200.000000 
200.000000 
200.000000 
200.000000 
200.000000 
200.000000 
200.000000 
200.000000 
200.000000 
200.000000 
200.000000 
200.000000 
200.000000 
200.000000 
200.000000 
200.000000 
200.000000 
200.000000 
200.000000 
200.000000 
200.000000 
200.000000 
200.000000 
200.000000 
200.000000 
200.000000 
200.000000 
200.000000 
200.000000 
200.000000 
200.000000 
200.000000 
200.000000 
200.000000 
200.000000 
200.000000 
200.000000 
200.000000 
200.000000 
200.000000 
200.000000 
200.000000 
200.000000 
200.000000 
200.000000 
200.000000 
200.000000 
200.000000 
200.000000 
200.000000 
200.000000 
200.000000 
200.000000 
200.000000 
200.000000 
200.000000 
200.000000 
200.000000 
200.000000 
200.000000 
200.000000 
200.000000 
200.000000 
200.000000 
200.000000 
200.000000 
200.000000 
200.000000 
200.000000 
200.000000 
200.000000 
200.000000 
200.000000 
200.000000 
200.000000 
200.000000 
200.000000 
200.000000 
200.000000 
200.000000 
200.000000 
200.000000 
200.000000 
200.000000 
200.000000 
200.000000 
200.000000 
200.000000 
200.000000 
200.000000 
200.000000 
200.000000 
200.000000 
200.000000 
200.000000 
200.000000 
200.000000 
200.000000 
200.000000 
200.000000 
200.000000 
200.000000 
200.000000 
200.000000 
200.000000 
200.000000 
200.000000 
200.000000 
200.000000 
200.000000 
200.000000 
200.000000 
200.000000 
200.000000 
200.000000 
200.000000 
200.000000 
200.000000 
200.000000 
200.000000 
200.000000 
200.000000 
200.000000 
200.000000 
200.000000 
200.000000 
200.000000 
200.000000 
200.000000 
200.000000 
200.000000 
200.000000 
200.000000 
200.000000 
200.000000 
200.000000 
200.000000 
200.000000 
200.000000 
200.000000 
200.000000 
200.000000 
200.000000 
200.000000 
200.000000 
200.000000 
200.000000 
200.000000 
200.000000 
200.000000 
200.000000 
200.000000 
200.000000 
200.000000 
200.000000 
200.000000 
200.000000 
200.000000 
200.000000 
200.000000 
200.000000 
200.000000 
200.000000 
200.000000 
200.000000 
200.000000 
200.000000 
200.000000 
200.000000 
200.000000 
200.000000 
200.000000 
200.000000 
200.000000 
200.000000 
200.000000 
200.000000 
200.000000 
200.000000 
200.000000 
200.000000 
200.000000 
200.000000 
200.000000 
200.000000 
200.000000 
200.000000 
200.000000 
200.000000 
200.000000 
200.000000 
200.000000 
200.000000 
200.000000 
200.000000 
200.000000 
200.000000 
200.000000 
200.000000 
200.000000 
200.000000 
200.000000 
200.000000 
200.000000 
200.000000 
200.000000 
200.000000 
200.000000 
200.000000 
200.000000 
200.000000 
200.000000 
200.000000 
200.000000 
200.000000 
200.000000 
200.000000 
200.000000 
200.000000 
200.000000 
200.000000 
200.000000 
200.000000 
200.000000 
200.000000 
200.000000 
200.000000 
200.000000 
200.000000 
200.000000 
200.000000 
200.000000 
200.000000 
200.000000 
200.000000 
200.000000 
200.000000 
200.000000 
200.000000 
200.000000 
200.000000 
200.000000 
200.000000 
200.000000 
200.000000 
200.000000 
200.000000 
200.000000 
200.000000 
200.000000 
200.000000 
200.000000 
200.000000 
200.000000 
200.000000 
200.000000 
200.000000 
200.000000 
200.000000 
200.000000 
200.000000 
200.000000 
200.000000 
200.000000 
200.000000 
200.000000 
200.000000 
200.000000 
200.000000 
200.000000 
200.000000 
200.000000 
200.000000 
200.000000 
200.000000 
200.000000 
200.000000 
200.000000 
200.000000 
200.000000 
200.000000 
200.000000 
200.000000 
200.000000 
200.000000 
200.000000 
200.000000 
200.000000 
200.000000 
200.000000 
200.000000 
200.000000 
200.000000 
200.000000 
200.000000 
200.000000 
200.000000 
200.000000 
200.000000 
200.000000 
200.000000 
200.000000 
200.000000 
200.000000 
200.000000 
200.000000 
200.000000 
200.000000 
200.000000 
200.000000 
200.000000 
200.000000 
200.000000 
200.000000 
200.000000 
200.000000 
200.000000 
200.000000 
200.000000 
200.000000 
200.000000 
200.000000 
200.000000 
200.000000 
200.000000 
200.000000 
200.000000 
200.000000 
200.000000 
200.000000 
200.000000 
200.000000 
200.000000 
200.000000 
200.000000 
200.000000 
200.000000 
200.000000 
200.000000 
200.000000 
200.000000 
200.000000 
200.000000 
200.000000 
200.000000 
200.000000 
200.000000 
200.000000 
200.000000 
200.000000 
200.000000 
200.000000 
200.000000 
200.000000 
200.000000 
200.000000 
200.000000 
SCALARS ELEM_i float 
LOOKUP_TABLE default 
241 
241 
241 
241 
241 
242 
222 
259 
259 
259 
222 
37 
37 
28 
28 
29 
258 
258 
37 
38 
38 
38 
58 
222 
258 
258 
238 
238 
238 
237 
237 
239 
49 
49 
48 
48 
33 
33 
33 
33 
34 
58 
58 
48 
34 
34 
34 
34 
34 
54 
54 
54 
54 
54 
54 
74 
58 
78 
78 
78 
78 
238 
238 
238 
238 
238 
218 
218 
218 
218 
218 
198 
198 
237 
198 
198 
198 
178 
178 
178 
178 
178 
178 
177 
157 
157 
157 
157 
157 
157 
157 
157 
137 
137 
137 
137 
137 
137 
137 
117 
117 
117 
117 
117 
117 
117 
117 
97 
97 
97 
98 
98 
98 
98 
78 
237 
237 
236 
236 
33 
222 
222 
223 
223 
223 
203 
48 
236 
236 
235 
235 
235 
48 
28 
74 
73 
73 
93 
93 
93 
94 
94 
114 
114 
114 
33 
53 
53 
222 
222 
202 
203 
203 
203 
203 
203 
204 
184 
184 
184 
184 
185 
28 
28 
27 
67 
67 
67 
47 
47 
47 
47 
66 
66 
66 
66 
86 
86 
86 
86 
86 
106 
106 
235 
254 
254 
254 
234 
234 
234 
234 
234 
234 
234 
214 
214 
214 
214 
214 
185 
185 
186 
186 
186 
187 
167 
167 
167 
147 
147 
147 
127 
127 
127 
127 
107 
107 
107 
204 
203 
204 
52 
72 
72 
72 
92 
92 
92 
92 
204 
204 
204 
204 
205 
205 
206 
206 
207 
207 
207 
208 
208 
208 
208 
209 
209 
209 
209 
210 
210 
210 
210 
210 
211 
211 
231 
231 
211 
212 
212 
212 
212 
212 
213 
213 
213 
213 
213 
213 
213 
213 
213 
213 
71 
71 
70 
71 
70 
91 
91 
70 
70 
91 
70 
91 
91 
91 
50 
51 
91 
91 
51 
51 
51 
52 
52 
52 
32 
32 
52 
32 
31 
51 
31 
51 
30 
51 
50 
50 
50 
50 
50 
49 
50 
49 
69 
69 
69 
88 
88 
88 
89 
115 
95 
95 
95 
95 
95 
95 
96 
96 
96 
76 
77 
77 
77 
77 
57 
57 
57 
57 
37 
37 
37 
49 
115 
115 
214 
258 
37 
37 
37 
115 
193 
95 
258 
258 
115 
95 
96 
96 
48 
48 
114 
114 
86 
86 
86 
86 
86 
66 
96 
96 
112 
112 
48 
48 
47 
47 
238 
258 
238 
238 
238 
238 
238 
238 
238 
238 
238 
218 
218 
218 
238 
237 
237 
237 
237 
236 
236 
218 
218 
198 
67 
67 
87 
47 
67 
34 
34 
34 
34 
54 
54 
54 
53 
53 
73 
34 
34 
33 
33 
234 
234 
234 
234 
234 
234 
234 
214 
214 
214 
214 
214 
214 
198 
111 
111 
91 
91 
91 
91 
91 
91 
71 
70 
70 
70 
114 
113 
96 
236 
93 
93 
88 
107 
92 
92 
92 
198 
198 
198 
178 
178 
178 
178 
177 
177 
177 
177 
157 
157 
157 
73 
97 
77 
77 
77 
77 
57 
57 
57 
78 
57 
77 
57 
77 
77 
77 
37 
37 
37 
37 
37 
37 
37 
37 
73 
93 
73 
73 
73 
73 
235 
235 
235 
235 
234 
234 
53 
53 
53 
53 
53 
53 
53 
53 
34 
33 
33 
205 
185 
185 
205 
185 
186 
186 
187 
187 
70 
70 
70 
70 
69 
69 
69 
89 
108 
97 
97 
97 
213 
213 
213 
213 
213 
213 
213 
213 
213 
212 
212 
212 
212 
212 
211 
211 
211 
211 
117 
97 
117 
117 
116 
116 
116 
136 
97 
97 
136 
136 
136 
137 
137 
137 
157 
157 
157 
209 
209 
209 
210 
210 
210 
210 
210 
211 
209 
209 
208 
208 
127 
127 
127 
107 
127 
107 
108 
89 
88 
87 
88 
147 
147 
167 
167 
187 
97 
97 
97 
117 
156 
97 
97 
97 
178 
86 
87 
87 
87 
87 
177 
177 
177 
177 
238 
238 
238 
217 
156 
156 
136 
136 
136 
136 
116 
116 
116 
116 
96 
116 
96 
177 
234 
234 
234 
234 
96 
96 
97 
198 
93 
93 
93 
93 
93 
112 
211 
211 
211 
210 
210 
210 
210 
210 
209 
209 
212 
212 
212 
212 
212 
189 
148 
128 
128 
107 
107 
87 
107 
189 
188 
188 
218 
218 
198 
198 
198 
198 
198 
218 
112 
70 
70 
70 
70 
70 
70 
90 
90 
90 
90 
91 
91 
110 
131 
90 
90 
109 
108 
110 
188 
168 
168 
148 
213 
213 
213 
194 
194 
214 
213 
214 
214 
214 
214 
157 
177 
115 
116 
96 
96 
115 
237 
217 
216 
216 
216 
215 
215 
115 
114 
114 
114 
213 
214 
234 
90 
110 
213 
213 
213 
70 
90 
213 
210 
115 
115 
116 
70 
90 
90 
90 
177 
210 
177 
210 
176 
177 
156 
156 
210 
212 
210 
188 
189 
189 
189 
148 
176 
136 
136 
116 
136 
192 
192 
191 
211 
217 
217 
217 
218 
198 
198 
198 
197 
217 
217 
217 
197 
197 
177 
113 
128 
128 
216 
215 
214 
112 
113 
214 
196 
196 
211 
130 
109 
188 
168 
168 
148 
132 
214 
214 
214 
214 
194 
195 
174 
134 
135 
134 
115 
133 
190 
210 
156 
177 
192 
136 
189 
192 
193 
192 
193 
189 
177 
176 
176 
197 
197 
113 
132 
133 
210 
190 
156 
211 
210 
156 
136 
129 
149 
135 
135 
135 
135 
135 
155 
175 
154 
175 
169 
169 
151 
152 
133 
153 
172 
173 
190 
190 
169 
170 
149 
191 
171 
191 
190 
52 
203 
150 
191 
197 
254 
29 
106 
222 
86 
222 
VECTORS VELOCITY float 
-0.000000 -1.520550 0.000000 
0.000000 -1.520550 0.000000 
0.000000 -1.520550 0.000000 
0.000000 -1.520550 0.000000 
0.000000 -1.520550 0.000000 
-0.000000 -1.520550 0.000000 
-0.000000 -1.520550 0.000000 
-0.000000 -1.520550 0.000000 
-0.000000 -1.520550 0.000000 
-0.000000 -1.520550 0.000000 
-0.000000 -1.520550 0.000000 
0.000000 -1.520550 0.000000 
0.000000 -1.520550 0.000000 
0.000000 -1.520550 0.000000 
0.000000 -1.520550 0.000000 
0.000000 -1.520550 0.000000 
-0.000000 -1.520550 0.000000 
-0.000000 -1.520550 0.000000 
0.000000 -1.520550 0.000000 
-0.000000 -1.520550 0.000000 
-0.000000 -1.520550 0.000000 
-0.000000 -1.520550 0.000000 
-0.000000 -1.520550 0.000000 
0.000000 -1.520550 0.000000 
0.000000 -1.520550 0.000000 
-0.000000 -1.520550 0.000000 
-0.000000 -1.520550 0.000000 
-0.000000 -1.520550 0.000000 
-0.000000 -1.520550 0.000000 
-0.000000 -1.520550 0.000000 
-0.000000 -1.520550 0.000000 
-0.000000 -1.520550 0.000000 
0.000000 -1.520550 0.000000 
0.000000 -1.520550 0.000000 
0.000000 -1.520550 0.000000 
0.000000 -1.520550 0.000000 
-0.000000 -1.520550 0.000000 
-0.000000 -1.520550 0.000000 
-0.000000 -1.520550 0.000000 
-0.000000 -1.520550 0.000000 
-0.000000 -1.520550 0.000000 
-0.000000 -1.520550 0.000000 
-0.000000 -1.520550 0.000000 
0.000000 -1.520550 0.000000 
-0.000000 -1.520550 0.000000 
-0.000000 -1.520550 0.000000 
-0.000000 -1.520550 0.000000 
-0.000000 -1.520550 0.000000 
-0.000000 -1.520550 0.000000 
-0.000000 -1.520550 0.000000 
-0.000000 -1.520550 0.000000 
-0.000000 -1.520550 0.000000 
-0.000000 -1.520550 0.000000 
-0.000000 -1.520550 0.000000 
-0.000000 -1.520550 0.000000 
-0.000000 -1.520550 0.000000 
0.000000 -1.520550 0.000000 
0.000000 -1.520550 0.000000 
0.000000 -1.520550 0.000000 
0.000000 -1.520550 0.000000 
-0.000000 -1.520550 0.000000 
-0.000000 -1.520550 0.000000 
-0.000000 -1.520550 0.000000 
-0.000000 -1.520550 0.000000 
-0.000000 -1.520550 0.000000 
-0.000000 -1.520550 0.000000 
-0.000000 -1.520550 0.000000 
0.000000 -1.520550 0.000000 
0.000000 -1.520550 0.000000 
0.000000 -1.520550 0.000000 
0.000000 -1.520550 0.000000 
0.000000 -1.520550 0.000000 
0.000000 -1.520550 0.000000 
-0.000000 -1.520550 0.000000 
0.000000 -1.520550 0.000000 
-0.000000 -1.520550 0.000000 
-0.000000 -1.520550 0.000000 
-0.000000 -1.520550 0.000000 
-0.000000 -1.520550 0.000000 
-0.000000 -1.520550 0.000000 
-0.000000 -1.520550 0.000000 
-0.000000 -1.520550 0.000000 
-0.000000 -1.520550 0.000000 
0.000000 -1.520550 0.000000 
0.000000 -1.520550 0.000000 
0.000000 -1.520550 0.000000 
0.000000 -1.520550 0.000000 
0.000000 -1.520550 0.000000 
0.000000 -1.520550 0.000000 
0.000000 -1.520550 0.000000 
-0.000000 -1.520550 0.000000 
-0.000000 -1.520550 0.000000 
-0.000000 -1.520550 0.000000 
-0.000000 -1.520550 0.000000 
0.000000 -1.520550 0.000000 
0.000000 -1.520550 0.000000 
0.000000 -1.520550 0.000000 
0.000000 -1.520550 0.000000 
0.000000 -1.520550 0.000000 
0.000000 -1.520550 0.000000 
0.000000 -1.520550 0.000000 
-0.000000 -1.520550 0.000000 
-0.000000 -1.520550 0.000000 
-0.000000 -1.520550 0.000000 
-0.000000 -1.520550 0.000000 
-0.000000 -1.520550 0.000000 
-0.000000 -1.520550 0.000000 
0.000000 -1.520550 0.000000 
0.000000 -1.520550 0.000000 
0.000000 -1.520550 0.000000 
0.000000 -1.520550 0.000000 
-0.000000 -1.520550 0.000000 
-0.000000 -1.520550 0.000000 
-0.000000 -1.520550 0.000000 
-0.000000 -1.520550 0.000000 
-0.000000 -1.520550 0.000000 
-0.000000 -1.520550 0.000000 
-0.000000 -1.520550 0.000000 
-0.000000 -1.520550 0.000000 
-0.000000 -1.520550 0.000000 
0.000000 -1.520550 0.000000 
-0.000000 -1.520550 0.000000 
-0.000000 -1.520550 0.000000 
-0.000000 -1.520550 0.000000 
-0.000000 -1.520550 0.000000 
0.000000 -1.520550 0.000000 
-0.000000 -1.520550 0.000000 
-0.000000 -1.520550 0.000000 
-0.000000 -1.520550 0.000000 
-0.000000 -1.520550 0.000000 
0.000000 -1.520550 0.000000 
0.000000 -1.520550 0.000000 
-0.000000 -1.520550 0.000000 
0.000000 -1.520550 0.000000 
-0.000000 -1.520550 0.000000 
0.000000 -1.520550 0.000000 
0.000000 -1.520550 0.000000 
0.000000 -1.520550 0.000000 
0.000000 -1.520550 0.000000 
0.000000 -1.520550 0.000000 
0.000000 -1.520550 0.000000 
0.000000 -1.520550 0.000000 
0.000000 -1.520550 0.000000 
0.000000 -1.520550 0.000000 
0.000000 -1.520550 0.000000 
-0.000000 -1.520550 0.000000 
0.000000 -1.520550 0.000000 
0.000000 -1.520550 0.000000 
0.000000 -1.520550 0.000000 
0.000000 -1.520550 0.000000 
-0.000000 -1.520550 0.000000 
-0.000000 -1.520550 0.000000 
-0.000000 -1.520550 0.000000 
-0.000000 -1.520550 0.000000 
-0.000000 -1.520550 0.000000 
-0.000000 -1.520550 0.000000 
0.000000 -1.520550 0.000000 
0.000000 -1.520550 0.000000 
0.000000 -1.520550 0.000000 
0.000000 -1.520550 0.000000 
0.000000 -1.520550 0.000000 
0.000000 -1.520550 0.000000 
-0.000000 -1.520550 0.000000 
-0.000000 -1.520550 0.000000 
0.000000 -1.520550 0.000000 
0.000000 -1.520550 0.000000 
0.000000 -1.520550 0.000000 
0.000000 -1.520550 0.000000 
0.000000 -1.520550 0.000000 
0.000000 -1.520550 0.000000 
0.000000 -1.520550 0.000000 
0.000000 -1.520550 0.000000 
0.000000 -1.520550 0.000000 
-0.000000 -1.520550 0.000000 
-0.000000 -1.520550 0.000000 
-0.000000 -1.520550 0.000000 
-0.000000 -1.520550 0.000000 
0.000000 -1.520550 0.000000 
0.000000 -1.520550 0.000000 
0.000000 -1.520550 0.000000 
0.000000 -1.520550 0.000000 
0.000000 -1.520550 0.000000 
0.000000 -1.520550 0.000000 
0.000000 -1.520550 0.000000 
-0.000000 -1.520550 0.000000 
-0.000000 -1.520550 0.000000 
-0.000000 -1.520550 0.000000 
-0.000000 -1.520550 0.000000 
-0.000000 -1.520550 0.000000 
-0.000000 -1.520550 0.000000 
-0.000000 -1.520550 0.000000 
-0.000000 -1.520550 0.000000 
0.000000 -1.520550 0.000000 
0.000000 -1.520550 0.000000 
0.000000 -1.520550 0.000000 
0.000000 -1.520550 0.000000 
0.000000 -1.520550 0.000000 
0.000000 -1.520550 0.000000 
0.000000 -1.520550 0.000000 
-0.000000 -1.520550 0.000000 
-0.000000 -1.520550 0.000000 
-0.000000 -1.520550 0.000000 
-0.000000 -1.520550 0.000000 
-0.000000 -1.520550 0.000000 
-0.000000 -1.520550 0.000000 
-0.000000 -1.520550 0.000000 
-0.000000 -1.520550 0.000000 
0.000000 -1.520550 0.000000 
0.000000 -1.520550 0.000000 
0.000000 -1.520550 0.000000 
0.000000 -1.520550 0.000000 
-0.000000 -1.520550 0.000000 
-0.000000 -1.520550 0.000000 
-0.000000 -1.520550 0.000000 
-0.000000 -1.520550 0.000000 
-0.000000 -1.520550 0.000000 
-0.000000 -1.520550 0.000000 
-0.000000 -1.520550 0.000000 
0.000000 -1.520550 0.000000 
0.000000 -1.520550 0.000000 
0.000000 -1.520550 0.000000 
0.000000 -1.520550 0.000000 
0.000000 -1.520550 0.000000 
-0.000000 -1.520550 0.000000 
-0.000000 -1.520550 0.000000 
-0.000000 -1.520550 0.000000 
-0.000000 -1.520550 0.000000 
-0.000000 -1.520550 0.000000 
-0.000000 -1.520550 0.000000 
0.000000 -1.520550 0.000000 
0.000000 -1.520550 0.000000 
0.000000 -1.520550 0.000000 
0.000000 -1.520550 0.000000 
0.000000 -1.520550 0.000000 
0.000000 -1.520550 0.000000 
0.000000 -1.520550 0.000000 
0.000000 -1.520550 0.000000 
0.000000 -1.520550 0.000000 
0.000000 -1.520550 0.000000 
0.000000 -1.520550 0.000000 
0.000000 -1.520550 0.000000 
0.000000 -1.520550 0.000000 
-0.000000 -1.520550 0.000000 
-0.000000 -1.520550 0.000000 
-0.000000 -1.520550 0.000000 
0.000000 -1.520550 0.000000 
-0.000000 -1.520550 0.000000 
-0.000000 -1.520550 0.000000 
-0.000000 -1.520550 0.000000 
-0.000000 -1.520550 0.000000 
0.000000 -1.520550 0.000000 
0.000000 -1.520550 0.000000 
0.000000 -1.520550 0.000000 
0.000000 -1.520550 0.000000 
0.000000 -1.520550 0.000000 
-0.000000 -1.520550 0.000000 
-0.000000 -1.520550 0.000000 
-0.000000 -1.520550 0.000000 
-0.000000 -1.520550 0.000000 
-0.000000 -1.520550 0.000000 
-0.000000 -1.520550 0.000000 
0.000000 -1.520550 0.000000 
0.000000 -1.520550 0.000000 
0.000000 -1.520550 0.000000 
0.000000 -1.520550 0.000000 
0.000000 -1.520550 0.000000 
0.000000 -1.520550 0.000000 
0.000000 -1.520550 0.000000 
0.000000 -1.520550 0.000000 
0.000000 -1.520550 0.000000 
0.000000 -1.520550 0.000000 
0.000000 -1.520550 0.000000 
0.000000 -1.520550 0.000000 
0.000000 -1.520550 0.000000 
0.000000 -1.520550 0.000000 
0.000000 -1.520550 0.000000 
0.000000 -1.520550 0.000000 
0.000000 -1.520550 0.000000 
0.000000 -1.520550 0.000000 
0.000000 -1.520550 0.000000 
0.000000 -1.520550 0.000000 
0.000000 -1.520550 0.000000 
0.000000 -1.520550 0.000000 
-0.000000 -1.520550 0.000000 
0.000000 -1.520550 0.000000 
-0.000000 -1.520550 0.000000 
-0.000000 -1.520550 0.000000 
-0.000000 -1.520550 0.000000 
-0.000000 -1.520550 0.000000 
0.000000 -1.520550 0.000000 
0.000000 -1.520550 0.000000 
-0.000000 -1.520550 0.000000 
-0.000000 -1.520550 0.000000 
-0.000000 -1.520550 0.000000 
-0.000000 -1.520550 0.000000 
-0.000000 -1.520550 0.000000 
-0.000000 -1.520550 0.000000 
-0.000000 -1.520550 0.000000 
-0.000000 -1.520550 0.000000 
-0.000000 -1.520550 0.000000 
-0.000000 -1.520550 0.000000 
0.000000 -1.520550 0.000000 
-0.000000 -1.520550 0.000000 
0.000000 -1.520550 0.000000 
0.000000 -1.520550 0.000000 
0.000000 -1.520550 0.000000 
0.000000 -1.520550 0.000000 
0.000000 -1.520550 0.000000 
0.000000 -1.520550 0.000000 
-0.000000 -1.520550 0.000000 
-0.000000 -1.520550 0.000000 
-0.000000 -1.520550 0.000000 
0.000000 -1.520550 0.000000 
0.000000 -1.520550 0.000000 
0.000000 -1.520550 0.000000 
0.000000 -1.520550 0.000000 
0.000000 -1.520550 0.000000 
0.000000 -1.520550 0.000000 
0.000000 -1.520550 0.000000 
0.000000 -1.520550 0.000000 
0.000000 -1.520550 0.000000 
0.000000 -1.520550 0.000000 
0.000000 -1.520550 0.000000 
0.000000 -1.520550 0.000000 
0.000000 -1.520550 0.000000 
0.000000 -1.520550 0.000000 
0.000000 -1.520550 0.000000 
0.000000 -1.520550 0.000000 
0.000000 -1.520550 0.000000 
-0.000000 -1.520550 0.000000 
-0.000000 -1.520550 0.000000 
-0.000000 -1.520550 0.000000 
-0.000000 -1.520550 0.000000 
0.000000 -1.520550 0.000000 
0.000000 -1.520550 0.000000 
0.000000 -1.520550 0.000000 
0.000000 -1.520550 0.000000 
0.000000 -1.520550 0.000000 
0.000000 -1.520550 0.000000 
0.000000 -1.520550 0.000000 
0.000000 -1.520550 0.000000 
0.000000 -1.520550 0.000000 
0.000000 -1.520550 0.000000 
0.000000 -1.520550 0.000000 
0.000000 -1.520550 0.000000 
0.000000 -1.520550 0.000000 
0.000000 -1.520550 0.000000 
0.000000 -1.520550 0.000000 
-0.000000 -1.520550 0.000000 
0.000000 -1.520550 0.000000 
0.000000 -1.520550 0.000000 
0.000000 -1.520550 0.000000 
0.000000 -1.520550 0.000000 
0.000000 -1.520550 0.000000 
0.000000 -1.520550 0.000000 
-0.000000 -1.520550 0.000000 
-0.000000 -1.520550 0.000000 
0.000000 -1.520550 0.000000 
0.000000 -1.520550 0.000000 
-0.000000 -1.520550 0.000000 
-0.000000 -1.520550 0.000000 
0.000000 -1.520550 0.000000 
0.000000 -1.520550 0.000000 
0.000000 -1.520550 0.000000 
0.000000 -1.520550 0.000000 
0.000000 -1.520550 0.000000 
0.000000 -1.520550 0.000000 
0.000000 -1.520550 0.000000 
0.000000 -1.520550 0.000000 
0.000000 -1.520550 0.000000 
0.000000 -1.520550 0.000000 
-0.000000 -1.520550 0.000000 
-0.000000 -1.520550 0.000000 
0.000000 -1.520550 0.000000 
-0.000000 -1.520550 0.000000 
0.000000 -1.520550 0.000000 
-0.000000 -1.520550 0.000000 
-0.000000 -1.520550 0.000000 
0.000000 -1.520550 0.000000 
-0.000000 -1.520550 0.000000 
-0.000000 -1.520550 0.000000 
-0.000000 -1.520550 0.000000 
-0.000000 -1.520550 0.000000 
-0.000000 -1.520550 0.000000 
-0.000000 -1.520550 0.000000 
-0.000000 -1.520550 0.000000 
-0.000000 -1.520550 0.000000 
-0.000000 -1.520550 0.000000 
-0.000000 -1.520550 0.000000 
-0.000000 -1.520550 0.000000 
-0.000000 -1.520550 0.000000 
0.000000 -1.520550 0.000000 
0.000000 -1.520550 0.000000 
0.000000 -1.520550 0.000000 
0.000000 -1.520550 0.000000 
-0.000000 -1.520550 0.000000 
-0.000000 -1.520550 0.000000 
-0.000000 -1.520550 0.000000 
-0.000000 -1.520550 0.000000 
-0.000000 -1.520550 0.000000 
0.000000 -1.520550 0.000000 
0.000000 -1.520550 0.000000 
0.000000 -1.520550 0.000000 
0.000000 -1.520550 0.000000 
0.000000 -1.520550 0.000000 
0.000000 -1.520550 0.000000 
0.000000 -1.520550 0.000000 
0.000000 -1.520550 0.000000 
-0.000000 -1.520550 0.000000 
-0.000000 -1.520550 0.000000 
-0.000000 -1.520550 0.000000 
-0.000000 -1.520550 0.000000 
-0.000000 -1.520550 0.000000 
-0.000000 -1.520550 0.000000 
-0.000000 -1.520550 0.000000 
-0.000000 -1.520550 0.000000 
-0.000000 -1.520550 0.000000 
-0.000000 -1.520550 0.000000 
-0.000000 -1.520550 0.000000 
-0.000000 -1.520550 0.000000 
-0.000000 -1.520550 0.000000 
-0.000000 -1.520550 0.000000 
-0.000000 -1.520550 0.000000 
-0.000000 -1.520550 0.000000 
-0.000000 -1.520550 0.000000 
-0.000000 -1.520550 0.000000 
-0.000000 -1.520550 0.000000 
-0.000000 -1.520550 0.000000 
0.000000 -1.520550 0.000000 
0.000000 -1.520550 0.000000 
0.000000 -1.520550 0.000000 
0.000000 -1.520550 0.000000 
0.000000 -1.520550 0.000000 
0.000000 -1.520550 0.000000 
0.000000 -1.520550 0.000000 
0.000000 -1.520550 0.000000 
0.000000 -1.520550 0.000000 
0.000000 -1.520550 0.000000 
0.000000 -1.520550 0.000000 
0.000000 -1.520550 0.000000 
0.000000 -1.520550 0.000000 
0.000000 -1.520550 0.000000 
0.000000 -1.520550 0.000000 
0.000000 -1.520550 0.000000 
0.000000 -1.520550 0.000000 
0.000000 -1.520550 0.000000 
0.000000 -1.520550 0.000000 
0.000000 -1.520550 0.000000 
0.000000 -1.520550 0.000000 
0.000000 -1.520550 0.000000 
-0.000000 -1.520550 0.000000 
-0.000000 -1.520550 0.000000 
0.000000 -1.520550 0.000000 
0.000000 -1.520550 0.000000 
-0.000000 -1.520550 0.000000 
-0.000000 -1.520550 0.000000 
-0.000000 -1.520550 0.000000 
-0.000000 -1.520550 0.000000 
0.000000 -1.520550 0.000000 
0.000000 -1.520550 0.000000 
-0.000000 -1.520550 0.000000 
-0.000000 -1.520550 0.000000 
-0.000000 -1.520550 0.000000 
-0.000000 -1.520550 0.000000 
-0.000000 -1.520550 0.000000 
-0.000000 -1.520550 0.000000 
-0.000000 -1.520550 0.000000 
0.000000 -1.520550 0.000000 
0.000000 -1.520550 0.000000 
0.000000 -1.520550 0.000000 
0.000000 -1.520550 0.000000 
0.000000 -1.520550 0.000000 
0.000000 -1.520550 0.000000 
0.000000 -1.520550 0.000000 
-0.000000 -1.520550 0.000000 
-0.000000 -1.520550 0.000000 
-0.000000 -1.520550 0.000000 
-0.000000 -1.520550 0.000000 
-0.000000 -1.520550 0.000000 
-0.000000 -1.520550 0.000000 
-0.000000 -1.520550 0.000000 
0.000000 -1.520550 0.000000 
-0.000000 -1.520550 0.000000 
-0.000000 -1.520550 0.000000 
-0.000000 -1.520550 0.000000 
0.000000 -1.520550 0.000000 
-0.000000 -1.520550 0.000000 
-0.000000 -1.520550 0.000000 
-0.000000 -1.520550 0.000000 
0.000000 -1.520550 0.000000 
0.000000 -1.520550 0.000000 
0.000000 -1.520550 0.000000 
0.000000 -1.520550 0.000000 
0.000000 -1.520550 0.000000 
0.000000 -1.520550 0.000000 
0.000000 -1.520550 0.000000 
0.000000 -1.520550 0.000000 
0.000000 -1.520550 0.000000 
0.000000 -1.520550 0.000000 
0.000000 -1.520550 0.000000 
0.000000 -1.520550 0.000000 
0.000000 -1.520550 0.000000 
0.000000 -1.520550 0.000000 
-0.000000 -1.520550 0.000000 
-0.000000 -1.520550 0.000000 
0.000000 -1.520550 0.000000 
0.000000 -1.520550 0.000000 
0.000000 -1.520550 0.000000 
-0.000000 -1.520550 0.000000 
0.000000 -1.520550 0.000000 
-0.000000 -1.520550 0.000000 
0.000000 -1.520550 0.000000 
-0.000000 -1.520550 0.000000 
0.000000 -1.520550 0.000000 
-0.000000 -1.520550 0.000000 
-0.000000 -1.520550 0.000000 
-0.000000 -1.520550 0.000000 
-0.000000 -1.520550 0.000000 
-0.000000 -1.520550 0.000000 
-0.000000 -1.520550 0.000000 
0.000000 -1.520550 0.000000 
0.000000 -1.520550 0.000000 
0.000000 -1.520550 0.000000 
0.000000 -1.520550 0.000000 
0.000000 -1.520550 0.000000 
0.000000 -1.520550 0.000000 
-0.000000 -1.520550 0.000000 
-0.000000 -1.520550 0.000000 
-0.000000 -1.520550 0.000000 
0.000000 -1.520550 0.000000 
0.000000 -1.520550 0.000000 
0.000000 -1.520550 0.000000 
0.000000 -1.520550 0.000000 
0.000000 -1.520550 0.000000 
0.000000 -1.520550 0.000000 
0.000000 -1.520550 0.000000 
-0.000000 -1.520550 0.000000 
-0.000000 -1.520550 0.000000 
-0.000000 -1.520550 0.000000 
0.000000 -1.520550 0.000000 
0.000000 -1.520550 0.000000 
0.000000 -1.520550 0.000000 
0.000000 -1.520550 0.000000 
0.000000 -1.520550 0.000000 
0.000000 -1.520550 0.000000 
0.000000 -1.520550 0.000000 
0.000000 -1.520550 0.000000 
0.000000 -1.520550 0.000000 
0.000000 -1.520550 0.000000 
0.000000 -1.520550 0.000000 
0.000000 -1.520550 0.000000 
0.000000 -1.520550 0.000000 
0.000000 -1.520550 0.000000 
-0.000000 -1.520550 0.000000 
-0.000000 -1.520550 0.000000 
-0.000000 -1.520550 0.000000 
-0.000000 -1.520550 0.000000 
-0.000000 -1.520550 0.000000 
0.000000 -1.520550 0.000000 
-0.000000 -1.520550 0.000000 
-0.000000 -1.520550 0.000000 
-0.000000 -1.520550 0.000000 
-0.000000 -1.520550 0.000000 
-0.000000 -1.520550 0.000000 
-0.000000 -1.520550 0.000000 
0.000000 -1.520550 0.000000 
0.000000 -1.520550 0.000000 
-0.000000 -1.520550 0.000000 
-0.000000 -1.520550 0.000000 
0.000000 -1.520550 0.000000 
0.000000 -1.520550 0.000000 
0.000000 -1.520550 0.000000 
0.000000 -1.520550 0.000000 
0.000000 -1.520550 0.000000 
-0.000000 -1.520550 0.000000 
0.000000 -1.520550 0.000000 
0.000000 -1.520550 0.000000 
0.000000 -1.520550 0.000000 
-0.000000 -1.520550 0.000000 
0.000000 -1.520550 0.000000 
0.000000 -1.520550 0.000000 
0.000000 -1.520550 0.000000 
0.000000 -1.520550 0.000000 
0.000000 -1.520550 0.000000 
0.000000 -1.520550 0.000000 
0.000000 -1.520550 0.000000 
0.000000 -1.520550 0.000000 
-0.000000 -1.520550 0.000000 
-0.000000 -1.520550 0.000000 
-0.000000 -1.520550 0.000000 
-0.000000 -1.520550 0.000000 
0.000000 -1.520550 0.000000 
0.000000 -1.520550 0.000000 
0.000000 -1.520550 0.000000 
0.000000 -1.520550 0.000000 
-0.000000 -1.520550 0.000000 
0.000000 -1.520550 0.000000 
0.000000 -1.520550 0.000000 
-0.000000 -1.520550 0.000000 
0.000000 -1.520550 0.000000 
0.000000 -1.520550 0.000000 
0.000000 -1.520550 0.000000 
-0.000000 -1.520550 0.000000 
-0.000000 -1.520550 0.000000 
-0.000000 -1.520550 0.000000 
-0.000000 -1.520550 0.000000 
-0.000000 -1.520550 0.000000 
-0.000000 -1.520550 0.000000 
-0.000000 -1.520550 0.000000 
-0.000000 -1.520550 0.000000 
-0.000000 -1.520550 0.000000 
0.000000 -1.520550 0.000000 
-0.000000 -1.520550 0.000000 
-0.000000 -1.520550 0.000000 
-0.000000 -1.520550 0.000000 
-0.000000 -1.520550 0.000000 
-0.000000 -1.520550 0.000000 
-0.000000 -1.520550 0.000000 
0.000000 -1.520550 0.000000 
0.000000 -1.520550 0.000000 
0.000000 -1.520550 0.000000 
-0.000000 -1.520550 0.000000 
-0.000000 -1.520550 0.000000 
0.000000 -1.520550 0.000000 
0.000000 -1.520550 0.000000 
-0.000000 -1.520550 0.000000 
-0.000000 -1.520550 0.000000 
0.000000 -1.520550 0.000000 
0.000000 -1.520550 0.000000 
0.000000 -1.520550 0.000000 
-0.000000 -1.520550 0.000000 
-0.000000 -1.520550 0.000000 
-0.000000 -1.520550 0.000000 
-0.000000 -1.520550 0.000000 
-0.000000 -1.520550 0.000000 
-0.000000 -1.520550 0.000000 
-0.000000 -1.520550 0.000000 
-0.000000 -1.520550 0.000000 
-0.000000 -1.520550 0.000000 
-0.000000 -1.520550 0.000000 
-0.000000 -1.520550 0.000000 
-0.000000 -1.520550 0.000000 
0.000000 -1.520550 0.000000 
0.000000 -1.520550 0.000000 
-0.000000 -1.520550 0.000000 
0.000000 -1.520550 0.000000 
0.000000 -1.520550 0.000000 
-0.000000 -1.520550 0.000000 
-0.000000 -1.520550 0.000000 
-0.000000 -1.520550 0.000000 
-0.000000 -1.520550 0.000000 
0.000000 -1.520550 0.000000 
-0.000000 -1.520550 0.000000 
-0.000000 -1.520550 0.000000 
-0.000000 -1.520550 0.000000 
-0.000000 -1.520550 0.000000 
-0.000000 -1.520550 0.000000 
-0.000000 -1.520550 0.000000 
-0.000000 -1.520550 0.000000 
0.000000 -1.520550 0.000000 
0.000000 -1.520550 0.000000 
0.000000 -1.520550 0.000000 
0.000000 -1.520550 0.000000 
0.000000 -1.520550 0.000000 
0.000000 -1.520550 0.000000 
0.000000 -1.520550 0.000000 
0.000000 -1.520550 0.000000 
-0.000000 -1.520550 0.000000 
-0.000000 -1.520550 0.000000 
0.000000 -1.520550 0.000000 
0.000000 -1.520550 0.000000 
0.000000 -1.520550 0.000000 
0.000000 -1.520550 0.000000 
-0.000000 -1.520550 0.000000 
0.000000 -1.520550 0.000000 
0.000000 -1.520550 0.000000 
0.000000 -1.520550 0.000000 
0.000000 -1.520550 0.000000 
0.000000 -1.520550 0.000000 
0.000000 -1.520550 0.000000 
-0.000000 -1.520550 0.000000 
-0.000000 -1.520550 0.000000 
-0.000000 -1.520550 0.000000 
0.000000 -1.520550 0.000000 
0.000000 -1.520550 0.000000 
-0.000000 -1.520550 0.000000 
-0.000000 -1.520550 0.000000 
0.000000 -1.520550 0.000000 
0.000000 -1.520550 0.000000 
0.000000 -1.520550 0.000000 
0.000000 -1.520550 0.000000 
-0.000000 -1.520550 0.000000 
-0.000000 -1.520550 0.000000 
0.000000 -1.520550 0.000000 
0.000000 -1.520550 0.000000 
0.000000 -1.520550 0.000000 
0.000000 -1.520550 0.000000 
0.000000 -1.520550 0.000000 
0.000000 -1.520550 0.000000 
0.000000 -1.520550 0.000000 
0.000000 -1.520550 0.000000 
0.000000 -1.520550 0.000000 
0.000000 -1.520550 0.000000 
0.000000 -1.520550 0.000000 
0.000000 -1.520550 0.000000 
-0.000000 -1.520550 0.000000 
-0.000000 -1.520550 0.000000 
0.000000 -1.520550 0.000000 
-0.000000 -1.520550 0.000000 
0.000000 -1.520550 0.000000 
0.000000 -1.520550 0.000000 
-0.000000 -1.520550 0.000000 
-0.000000 -1.520550 0.000000 
-0.000000 -1.520550 0.000000 
-0.000000 -1.520550 0.000000 
0.000000 -1.520550 0.000000 
0.000000 -1.520550 0.000000 
0.000000 -1.520550 0.000000 
-0.000000 -1.520550 0.000000 
0.000000 -1.520550 0.000000 
-0.000000 -1.520550 0.000000 
0.000000 -1.520550 0.000000 
0.000000 -1.520550 0.000000 
0.000000 -1.520550 0.000000 
0.000000 -1.520550 0.000000 
0.000000 -1.520550 0.000000 
0.000000 -1.520550 0.000000 
0.000000 -1.520550 0.000000 
-0.000000 -1.520550 0.000000 
-0.000000 -1.520550 0.000000 
-0.000000 -1.520550 0.000000 
-0.000000 -1.520550 0.000000 
-0.000000 -1.520550 0.000000 
-0.000000 -1.520550 0.000000 
-0.000000 -1.520550 0.000000 
-0.000000 -1.520550 0.000000 
-0.000000 -1.520550 0.000000 
-0.000000 -1.520550 0.000000 
-0.000000 -1.520550 0.000000 
-0.000000 -1.520550 0.000000 
0.000000 -1.520550 0.000000 
0.000000 -1.520550 0.000000 
-0.000000 -1.520550 0.000000 
-0.000000 -1.520550 0.000000 
0.000000 -1.520550 0.000000 
0.000000 -1.520550 0.000000 
0.000000 -1.520550 0.000000 
0.000000 -1.520550 0.000000 
0.000000 -1.520550 0.000000 
0.000000 -1.520550 0.000000 
0.000000 -1.520550 0.000000 
0.000000 -1.520550 0.000000 
0.000000 -1.520550 0.000000 
0.000000 -1.520550 0.000000 
0.000000 -1.520550 0.000000 
0.000000 -1.520550 0.000000 
0.000000 -1.520550 0.000000 
-0.000000 -1.520550 0.000000 
-0.000000 -1.520550 0.000000 
0.000000 -1.520550 0.000000 
0.000000 -1.520550 0.000000 
0.000000 -1.520550 0.000000 
0.000000 -1.520550 0.000000 
0.000000 -1.520550 0.000000 
0.000000 -1.520550 0.000000 
0.000000 -1.520550 0.000000 
0.000000 -1.520550 0.000000 
0.000000 -1.520550 0.000000 
0.000000 -1.520550 0.000000 
0.000000 -1.520550 0.000000 
-0.000000 -1.520550 0.000000 
0.000000 -1.520550 0.000000 
0.000000 -1.520550 0.000000 
0.000000 -1.520550 0.000000 
0.000000 -1.520550 0.000000 
0.000000 -1.520550 0.000000 
0.000000 -1.520550 0.000000 
0.000000 -1.520550 0.000000 
-0.000000 -1.520550 0.000000 
0.000000 -1.520550 0.000000 
-0.000000 -1.520550 0.000000 
-0.000000 -1.520550 0.000000 
-0.000000 -1.520550 0.000000 
-0.000000 -1.520550 0.000000 
0.000000 -1.520550 0.000000 
-0.000000 -1.520550 0.000000 
-0.000000 -1.520550 0.000000 
0.000000 -1.520550 0.000000 
-0.000000 -1.520550 0.000000 
-0.000000 -1.520550 0.000000 
-0.000000 -1.520550 0.000000 
-0.000000 -1.520550 0.000000 
0.000000 -1.520550 0.000000 
0.000000 -1.520550 0.000000 
-0.000000 -1.520550 0.000000 
-0.000000 -1.520550 0.000000 
-0.000000 -1.520550 0.000000 
-0.000000 -1.520550 0.000000 
-0.000000 -1.520550 0.000000 
-0.000000 -1.520550 0.000000 
-0.000000 -1.520550 0.000000 
-0.000000 -1.520550 0.000000 
-0.000000 -1.520550 0.000000 
-0.000000 -1.520550 0.000000 
-0.000000 -1.520550 0.000000 
-0.000000 -1.520550 0.000000 
-0.000000 -1.520550 0.000000 
0.000000 -1.520550 0.000000 
0.000000 -1.520550 0.000000 
-0.000000 -1.520550 0.000000 
0.000000 -1.520550 0.000000 
-0.000000 -1.520550 0.000000 
0.000000 -1.520550 0.000000 
-0.000000 -1.520550 0.000000 
-0.000000 -1.520550 0.000000 
-0.000000 -1.520550 0.000000 
0.000000 -1.520550 0.000000 
0.000000 -1.520550 0.000000 
0.000000 -1.520550 0.000000 
-0.000000 -1.520550 0.000000 
0.000000 -1.520550 0.000000 
-0.000000 -1.520550 0.000000 
-0.000000 -1.520550 0.000000 
-0.000000 -1.520550 0.000000 
0.000000 -1.520550 0.000000 
-0.000000 -1.520550 0.000000 
0.000000 -1.520550 0.000000 
0.000000 -1.520550 0.000000 
-0.000000 -1.520550 0.000000 
-0.000000 -1.520550 0.000000 
-0.000000 -1.520550 0.000000 
-0.000000 -1.520550 0.000000 
-0.000000 -1.520550 0.000000 
0.000000 -1.520550 0.000000 
0.000000 -1.520550 0.000000 
-0.000000 -1.520550 0.000000 
-0.000000 -1.520550 0.000000 
0.000000 -1.520550 0.000000 
-0.000000 -1.520550 0.000000 
0.000000 -1.520550 0.000000 
0.000000 -1.520550 0.000000 
0.000000 -1.520550 0.000000 
0.000000 -1.520550 0.000000 
0.000000 -1.520550 0.000000 
-0.000000 -1.520550 0.000000 
-0.000000 -1.520550 0.000000 
0.000000 -1.520550 0.000000 
0.000000 -1.520550 0.000000 
-0.000000 -1.520550 0.000000 
-0.000000 -1.520550 0.000000 
0.000000 -1.520550 0.000000 
0.000000 -1.520550 0.000000 
0.000000 -1.520550 0.000000 
0.000000 -1.520550 0.000000 
-0.000000 -1.520550 0.000000 
-0.000000 -1.520550 0.000000 
-0.000000 -1.520550 0.000000 
-0.000000 -1.520550 0.000000 
-0.000000 -1.520550 0.000000 
-0.000000 -1.520550 0.000000 
0.000000 -1.520550 0.000000 
-0.000000 -1.520550 0.000000 
-0.000000 -1.520550 0.000000 
-0.000000 -1.520550 0.000000 
-0.000000 -1.520550 0.000000 
0.000000 -1.520550 0.000000 
-0.000000 -1.520550 0.000000 
-0.000000 -1.520550 0.000000 
-0.000000 -1.520550 0.000000 
0.000000 -1.520550 0.000000 
0.000000 -1.520550 0.000000 
0.000000 -1.520550 0.000000 
0.000000 -1.520550 0.000000 
-0.000000 -1.520550 0.000000 
0.000000 -1.520550 0.000000 
0.000000 -1.520550 0.000000 
-0.000000 -1.520550 0.000000 
-0.000000 -1.520550 0.000000 
0.000000 -1.520550 0.000000 
0.000000 -1.520550 0.000000 
-0.000000 -1.520550 0.000000 
-0.000000 -1.520550 0.000000 
-0.000000 -1.520550 0.000000 
-0.000000 -1.520550 0.000000 
-0.000000 -1.520550 0.000000 
0.000000 -1.520550 0.000000 
-0.000000 -1.520550 0.000000 
-0.000000 -1.520550 0.000000 
-0.000000 -1.520550 0.000000 
0.000000 -1.520550 0.000000 
0.000000 -1.520550 0.000000 
-0.000000 -1.520550 0.000000 
-0.000000 -1.520550 0.000000 
-0.000000 -1.520550 0.000000 
0.000000 -1.520550 0.000000 
0.000000 -1.520550 0.000000 
0.000000 -1.520550 0.000000 
0.000000 -1.520550 0.000000 
0.000000 -1.520550 0.000000 
TENSORS STRESS float 
0.000000 0.000000 0.000000 
0.000000 0.000000 0.000000 
0.000000 0.000000 0.000000 

-0.000000 0.000000 0.000000 
0.000000 -0.000000 0.000000 
0.000000 0.000000 0.000000 

-0.000000 -0.000000 0.000000 
0.000000 -0.000000 0.000000 
0.000000 0.000000 0.000000 

0.000000 0.000000 0.000000 
0.000000 0.000000 0.000000 
0.000000 0.000000 0.000000 

0.000000 -0.000000 0.000000 
0.000000 0.000000 0.000000 
0.000000 0.000000 0.000000 

-0.000000 -0.000000 0.000000 
0.000000 -0.000000 0.000000 
0.000000 0.000000 0.000000 

-0.000000 -0.000000 0.000000 
0.000000 -0.000000 0.000000 
0.000000 0.000000 0.000000 

-0.000000 0.000000 0.000000 
0.000000 -0.000000 0.000000 
0.000000 0.000000 0.000000 

-0.000000 0.000000 0.000000 
0.000000 -0.000000 0.000000 
0.000000 0.000000 0.000000 

-0.000000 0.000000 0.000000 
0.000000 -0.000000 0.000000 
0.000000 0.000000 0.000000 

-0.000000 0.000000 0.000000 
0.000000 -0.000000 0.000000 
0.000000 0.000000 0.000000 

-0.000000 0.000000 0.000000 
0.000000 -0.000000 0.000000 
0.000000 0.000000 0.000000 

-0.000000 0.000000 0.000000 
0.000000 -0.000000 0.000000 
0.000000 0.000000 0.000000 

-0.000000 -0.000000 0.000000 
0.000000 -0.000000 0.000000 
0.000000 0.000000 0.000000 

0.000000 -0.000000 0.000000 
0.000000 0.000000 0.000000 
0.000000 0.000000 0.000000 

-0.000000 -0.000000 0.000000 
0.000000 -0.000000 0.000000 
0.000000 0.000000 0.000000 

0.000000 -0.000000 0.000000 
0.000000 0.000000 0.000000 
0.000000 0.000000 0.000000 

0.000000 0.000000 0.000000 
0.000000 -0.000000 0.000000 
0.000000 0.000000 0.000000 

-0.000000 0.000000 0.000000 
0.000000 -0.000000 0.000000 
0.000000 0.000000 0.000000 

-0.000000 -0.000000 0.000000 
0.000000 -0.000000 0.000000 
0.000000 0.000000 0.000000 

-0.000000 -0.000000 0.000000 
0.000000 -0.000000 0.000000 
0.000000 0.000000 0.000000 

-0.000000 -0.000000 0.000000 
0.000000 -0.000000 0.000000 
0.000000 0.000000 0.000000 

0.000000 -0.000000 0.000000 
0.000000 0.000000 0.000000 
0.000000 0.000000 0.000000 

0.000000 0.000000 0.000000 
0.000000 0.000000 0.000000 
0.000000 0.000000 0.000000 

0.000000 0.000000 0.000000 
0.000000 0.000000 0.000000 
0.000000 0.000000 0.000000 

0.000000 0.000000 0.000000 
0.000000 0.000000 0.000000 
0.000000 0.000000 0.000000 

0.000000 0.000000 0.000000 
0.000000 0.000000 0.000000 
0.000000 0.000000 0.000000 

0.000000 0.000000 0.000000 
0.000000 0.000000 0.000000 
0.000000 0.000000 0.000000 

0.000000 0.000000 0.000000 
0.000000 0.000000 0.000000 
0.000000 0.000000 0.000000 

-0.000000 0.000000 0.000000 
0.000000 -0.000000 0.000000 
0.000000 0.000000 0.000000 

0.000000 0.000000 0.000000 
0.000000 0.000000 0.000000 
0.000000 0.000000 0.000000 

0.000000 0.000000 0.000000 
0.000000 0.000000 0.000000 
0.000000 0.000000 0.000000 

-0.000000 0.000000 0.000000 
0.000000 -0.000000 0.000000 
0.000000 0.000000 0.000000 

-0.000000 0.000000 0.000000 
0.000000 -0.000000 0.000000 
0.000000 0.000000 0.000000 

-0.000000 -0.000000 0.000000 
0.000000 -0.000000 0.000000 
0.000000 0.000000 0.000000 

-0.000000 -0.000000 0.000000 
0.000000 -0.000000 0.000000 
0.000000 0.000000 0.000000 

-0.000000 0.000000 0.000000 
0.000000 -0.000000 0.000000 
0.000000 0.000000 0.000000 

0.000000 0.000000 0.000000 
0.000000 0.000000 0.000000 
0.000000 0.000000 0.000000 

0.000000 -0.000000 0.000000 
0.000000 0.000000 0.000000 
0.000000 0.000000 0.000000 

0.000000 -0.000000 0.000000 
0.000000 0.000000 0.000000 
0.000000 0.000000 0.000000 

0.000000 0.000000 0.000000 
0.000000 0.000000 0.000000 
0.000000 0.000000 0.000000 

0.000000 -0.000000 0.000000 
0.000000 0.000000 0.000000 
0.000000 0.000000 0.000000 

0.000000 -0.000000 0.000000 
0.000000 0.000000 0.000000 
0.000000 0.000000 0.000000 

-0.000000 -0.000000 0.000000 
0.000000 -0.000000 0.000000 
0.000000 0.000000 0.000000 

-0.000000 0.000000 0.000000 
0.000000 -0.000000 0.000000 
0.000000 0.000000 0.000000 

-0.000000 0.000000 0.000000 
0.000000 -0.000000 0.000000 
0.000000 0.000000 0.000000 

-0.000000 0.000000 0.000000 
0.000000 -0.000000 0.000000 
0.000000 0.000000 0.000000 

-0.000000 0.000000 0.000000 
0.000000 -0.000000 0.000000 
0.000000 0.000000 0.000000 

0.000000 -0.000000 0.000000 
0.000000 0.000000 0.000000 
0.000000 0.000000 0.000000 

-0.000000 -0.000000 0.000000 
0.000000 -0.000000 0.000000 
0.000000 0.000000 0.000000 

-0.000000 0.000000 0.000000 
0.000000 -0.000000 0.000000 
0.000000 0.000000 0.000000 

-0.000000 0.000000 0.000000 
0.000000 -0.000000 0.000000 
0.000000 0.000000 0.000000 

0.000000 0.000000 0.000000 
0.000000 0.000000 0.000000 
0.000000 0.000000 0.000000 

-0.000000 0.000000 0.000000 
0.000000 -0.000000 0.000000 
0.000000 0.000000 0.000000 

-0.000000 0.000000 0.000000 
0.000000 -0.000000 0.000000 
0.000000 0.000000 0.000000 

0.000000 0.000000 0.000000 
0.000000 0.000000 0.000000 
0.000000 0.000000 0.000000 

-0.000000 -0.000000 0.000000 
0.000000 -0.000000 0.000000 
0.000000 0.000000 0.000000 

0.000000 -0.000000 0.000000 
0.000000 0.000000 0.000000 
0.000000 0.000000 0.000000 

-0.000000 -0.000000 0.000000 
0.000000 -0.000000 0.000000 
0.000000 0.000000 0.000000 

-0.000000 -0.000000 0.000000 
0.000000 -0.000000 0.000000 
0.000000 0.000000 0.000000 

-0.000000 -0.000000 0.000000 
0.000000 -0.000000 0.000000 
0.000000 0.000000 0.000000 

0.000000 0.000000 0.000000 
0.000000 0.000000 0.000000 
0.000000 0.000000 0.000000 

0.000000 0.000000 0.000000 
0.000000 0.000000 0.000000 
0.000000 0.000000 0.000000 

0.000000 0.000000 0.000000 
0.000000 0.000000 0.000000 
0.000000 0.000000 0.000000 

0.000000 0.000000 0.000000 
0.000000 0.000000 0.000000 
0.000000 0.000000 0.000000 

-0.000000 0.000000 0.000000 
0.000000 -0.000000 0.000000 
0.000000 0.000000 0.000000 

0.000000 0.000000 0.000000 
0.000000 0.000000 0.000000 
0.000000 0.000000 0.000000 

0.000000 -0.000000 0.000000 
0.000000 0.000000 0.000000 
0.000000 0.000000 0.000000 

-0.000000 -0.000000 0.000000 
0.000000 -0.000000 0.000000 
0.000000 0.000000 0.000000 

-0.000000 -0.000000 0.000000 
0.000000 -0.000000 0.000000 
0.000000 0.000000 0.000000 

-0.000000 -0.000000 0.000000 
0.000000 -0.000000 0.000000 
0.000000 0.000000 0.000000 

-0.000000 -0.000000 0.000000 
0.000000 -0.000000 0.000000 
0.000000 0.000000 0.000000 

-0.000000 -0.000000 0.000000 
0.000000 -0.000000 0.000000 
0.000000 0.000000 0.000000 

0.000000 0.000000 0.000000 
0.000000 0.000000 0.000000 
0.000000 0.000000 0.000000 

-0.000000 -0.000000 0.000000 
0.000000 -0.000000 0.000000 
0.000000 0.000000 0.000000 

-0.000000 0.000000 0.000000 
0.000000 -0.000000 0.000000 
0.000000 0.000000 0.000000 

-0.000000 0.000000 0.000000 
0.000000 -0.000000 0.000000 
0.000000 0.000000 0.000000 

0.000000 -0.000000 0.000000 
0.000000 0.000000 0.000000 
0.000000 0.000000 0.000000 

0.000000 -0.000000 0.000000 
0.000000 0.000000 0.000000 
0.000000 0.000000 0.000000 

0.000000 -0.000000 0.000000 
0.000000 0.000000 0.000000 
0.000000 0.000000 0.000000 

0.000000 -0.000000 0.000000 
0.000000 0.000000 0.000000 
0.000000 0.000000 0.000000 

0.000000 -0.000000 0.000000 
0.000000 0.000000 0.000000 
0.000000 0.000000 0.000000 

0.000000 -0.000000 0.000000 
0.000000 0.000000 0.000000 
0.000000 0.000000 0.000000 

-0.000000 -0.000000 0.000000 
0.000000 -0.000000 0.000000 
0.000000 0.000000 0.000000 

0.000000 -0.000000 0.000000 
0.000000 0.000000 0.000000 
0.000000 0.000000 0.000000 

-0.000000 -0.000000 0.000000 
0.000000 -0.000000 0.000000 
0.000000 0.000000 0.000000 

-0.000000 -0.000000 0.000000 
0.000000 -0.000000 0.000000 
0.000000 0.000000 0.000000 

-0.000000 -0.000000 0.000000 
0.000000 -0.000000 0.000000 
0.000000 0.000000 0.000000 

-0.000000 -0.000000 0.000000 
0.000000 -0.000000 0.000000 
0.000000 0.000000 0.000000 

-0.000000 -0.000000 0.000000 
0.000000 -0.000000 0.000000 
0.000000 0.000000 0.000000 

-0.000000 -0.000000 0.000000 
0.000000 -0.000000 0.000000 
0.000000 0.000000 0.000000 

-0.000000 -0.000000 0.000000 
0.000000 -0.000000 0.000000 
0.000000 0.000000 0.000000 

0.000000 -0.000000 0.000000 
0.000000 0.000000 0.000000 
0.000000 0.000000 0.000000 

0.000000 -0.000000 0.000000 
0.000000 0.000000 0.000000 
0.000000 0.000000 0.000000 

0.000000 -0.000000 0.000000 
0.000000 0.000000 0.000000 
0.000000 0.000000 0.000000 

-0.000000 -0.000000 0.000000 
0.000000 -0.000000 0.000000 
0.000000 0.000000 0.000000 

0.000000 -0.000000 0.000000 
0.000000 0.000000 0.000000 
0.000000 0.000000 0.000000 

0.000000 -0.000000 0.000000 
0.000000 0.000000 0.000000 
0.000000 0.000000 0.000000 

0.000000 0.000000 0.000000 
0.000000 0.000000 0.000000 
0.000000 0.000000 0.000000 

-0.000000 0.000000 0.000000 
0.000000 -0.000000 0.000000 
0.000000 0.000000 0.000000 

0.000000 0.000000 0.000000 
0.000000 0.000000 0.000000 
0.000000 0.000000 0.000000 

0.000000 0.000000 0.000000 
0.000000 -0.000000 0.000000 
0.000000 0.000000 0.000000 

-0.000000 0.000000 0.000000 
0.000000 -0.000000 0.000000 
0.000000 0.000000 0.000000 

0.000000 0.000000 0.000000 
0.000000 0.000000 0.000000 
0.000000 0.000000 0.000000 

0.000000 0.000000 0.000000 
0.000000 -0.000000 0.000000 
0.000000 0.000000 0.000000 

-0.000000 0.000000 0.000000 
0.000000 -0.000000 0.000000 
0.000000 0.000000 0.000000 

0.000000 0.000000 0.000000 
0.000000 0.000000 0.000000 
0.000000 0.000000 0.000000 

0.000000 0.000000 0.000000 
0.000000 0.000000 0.000000 
0.000000 0.000000 0.000000 

0.000000 0.000000 0.000000 
0.000000 0.000000 0.000000 
0.000000 0.000000 0.000000 

0.000000 0.000000 0.000000 
0.000000 0.000000 0.000000 
0.000000 0.000000 0.000000 

-0.000000 -0.000000 0.000000 
0.000000 -0.000000 0.000000 
0.000000 0.000000 0.000000 

-0.000000 -0.000000 0.000000 
0.000000 -0.000000 0.000000 
0.000000 0.000000 0.000000 

-0.000000 -0.000000 0.000000 
0.000000 -0.000000 0.000000 
0.000000 0.000000 0.000000 

-0.000000 0.000000 0.000000 
0.000000 -0.000000 0.000000 
0.000000 0.000000 0.000000 

-0.000000 -0.000000 0.000000 
0.000000 -0.000000 0.000000 
0.000000 0.000000 0.000000 

0.000000 0.000000 0.000000 
0.000000 0.000000 0.000000 
0.000000 0.000000 0.000000 

0.000000 0.000000 0.000000 
0.000000 0.000000 0.000000 
0.000000 0.000000 0.000000 

-0.000000 0.000000 0.000000 
0.000000 -0.000000 0.000000 
0.000000 0.000000 0.000000 

0.000000 0.000000 0.000000 
0.000000 0.000000 0.000000 
0.000000 0.000000 0.000000 

0.000000 0.000000 0.000000 
0.000000 0.000000 0.000000 
0.000000 0.000000 0.000000 

-0.000000 0.000000 0.000000 
0.000000 -0.000000 0.000000 
0.000000 0.000000 0.000000 

-0.000000 -0.000000 0.000000 
0.000000 -0.000000 0.000000 
0.000000 0.000000 0.000000 

-0.000000 0.000000 0.000000 
0.000000 -0.000000 0.000000 
0.000000 0.000000 0.000000 

-0.000000 0.000000 0.000000 
0.000000 -0.000000 0.000000 
0.000000 0.000000 0.000000 

-0.000000 0.000000 0.000000 
0.000000 -0.000000 0.000000 
0.000000 0.000000 0.000000 

-0.000000 0.000000 0.000000 
0.000000 -0.000000 0.000000 
0.000000 0.000000 0.000000 

-0.000000 -0.000000 0.000000 
0.000000 -0.000000 0.000000 
0.000000 0.000000 0.000000 

-0.000000 0.000000 0.000000 
0.000000 -0.000000 0.000000 
0.000000 0.000000 0.000000 

-0.000000 0.000000 0.000000 
0.000000 -0.000000 0.000000 
0.000000 0.000000 0.000000 

0.000000 -0.000000 0.000000 
0.000000 0.000000 0.000000 
0.000000 0.000000 0.000000 

0.000000 -0.000000 0.000000 
0.000000 0.000000 0.000000 
0.000000 0.000000 0.000000 

0.000000 -0.000000 0.000000 
0.000000 0.000000 0.000000 
0.000000 0.000000 0.000000 

-0.000000 -0.000000 0.000000 
0.000000 -0.000000 0.000000 
0.000000 0.000000 0.000000 

-0.000000 -0.000000 0.000000 
0.000000 -0.000000 0.000000 
0.000000 0.000000 0.000000 

0.000000 0.000000 0.000000 
0.000000 0.000000 0.000000 
0.000000 0.000000 0.000000 

0.000000 -0.000000 0.000000 
0.000000 0.000000 0.000000 
0.000000 0.000000 0.000000 

0.000000 0.000000 0.000000 
0.000000 0.000000 0.000000 
0.000000 0.000000 0.000000 

-0.000000 0.000000 0.000000 
0.000000 -0.000000 0.000000 
0.000000 0.000000 0.000000 

0.000000 0.000000 0.000000 
0.000000 -0.000000 0.000000 
0.000000 0.000000 0.000000 

0.000000 0.000000 0.000000 
0.000000 0.000000 0.000000 
0.000000 0.000000 0.000000 

-0.000000 0.000000 0.000000 
0.000000 -0.000000 0.000000 
0.000000 0.000000 0.000000 

-0.000000 0.000000 0.000000 
0.000000 -0.000000 0.000000 
0.000000 0.000000 0.000000 

-0.000000 0.000000 0.000000 
0.000000 -0.000000 0.000000 
0.000000 0.000000 0.000000 

-0.000000 0.000000 0.000000 
0.000000 -0.000000 0.000000 
0.000000 0.000000 0.000000 

-0.000000 0.000000 0.000000 
0.000000 -0.000000 0.000000 
0.000000 0.000000 0.000000 

0.000000 -0.000000 0.000000 
0.000000 0.000000 0.000000 
0.000000 0.000000 0.000000 

0.000000 -0.000000 0.000000 
0.000000 0.000000 0.000000 
0.000000 0.000000 0.000000 

0.000000 -0.000000 0.000000 
0.000000 0.000000 0.000000 
0.000000 0.000000 0.000000 

0.000000 0.000000 0.000000 
0.000000 0.000000 0.000000 
0.000000 0.000000 0.000000 

0.000000 0.000000 0.000000 
0.000000 -0.000000 0.000000 
0.000000 0.000000 0.000000 

-0.000000 0.000000 0.000000 
0.000000 -0.000000 0.000000 
0.000000 0.000000 0.000000 

-0.000000 0.000000 0.000000 
0.000000 -0.000000 0.000000 
0.000000 0.000000 0.000000 

-0.000000 0.000000 0.000000 
0.000000 -0.000000 0.000000 
0.000000 0.000000 0.000000 

-0.000000 -0.000000 0.000000 
0.000000 -0.000000 0.000000 
0.000000 0.000000 0.000000 

-0.000000 0.000000 0.000000 
0.000000 -0.000000 0.000000 
0.000000 0.000000 0.000000 

-0.000000 0.000000 0.000000 
0.000000 -0.000000 0.000000 
0.000000 0.000000 0.000000 

0.000000 0.000000 0.000000 
0.000000 0.000000 0.000000 
0.000000 0.000000 0.000000 

0.000000 0.000000 0.000000 
0.000000 0.000000 0.000000 
0.000000 0.000000 0.000000 

0.000000 0.000000 0.000000 
0.000000 0.000000 0.000000 
0.000000 0.000000 0.000000 

0.000000 0.000000 0.000000 
0.000000 0.000000 0.000000 
0.000000 0.000000 0.000000 

0.000000 0.000000 0.000000 
0.000000 0.000000 0.000000 
0.000000 0.000000 0.000000 

-0.000000 -0.000000 0.000000 
0.000000 -0.000000 0.000000 
0.000000 0.000000 0.000000 

-0.000000 -0.000000 0.000000 
0.000000 -0.000000 0.000000 
0.000000 0.000000 0.000000 

-0.000000 -0.000000 0.000000 
0.000000 -0.000000 0.000000 
0.000000 0.000000 0.000000 

-0.000000 0.000000 0.000000 
0.000000 -0.000000 0.000000 
0.000000 0.000000 0.000000 

-0.000000 0.000000 0.000000 
0.000000 -0.000000 0.000000 
0.000000 0.000000 0.000000 

-0.000000 0.000000 0.000000 
0.000000 -0.000000 0.000000 
0.000000 0.000000 0.000000 

-0.000000 0.000000 0.000000 
0.000000 -0.000000 0.000000 
0.000000 0.000000 0.000000 

0.000000 0.000000 0.000000 
0.000000 0.000000 0.000000 
0.000000 0.000000 0.000000 

0.000000 0.000000 0.000000 
0.000000 0.000000 0.000000 
0.000000 0.000000 0.000000 

0.000000 0.000000 0.000000 
0.000000 0.000000 0.000000 
0.000000 0.000000 0.000000 

-0.000000 -0.000000 0.000000 
0.000000 -0.000000 0.000000 
0.000000 0.000000 0.000000 

-0.000000 0.000000 0.000000 
0.000000 -0.000000 0.000000 
0.000000 0.000000 0.000000 

-0.000000 0.000000 0.000000 
0.000000 -0.000000 0.000000 
0.000000 0.000000 0.000000 

-0.000000 0.000000 0.000000 
0.000000 -0.000000 0.000000 
0.000000 0.000000 0.000000 

-0.000000 0.000000 0.000000 
0.000000 -0.000000 0.000000 
0.000000 0.000000 0.000000 

0.000000 -0.000000 0.000000 
0.000000 0.000000 0.000000 
0.000000 0.000000 0.000000 

0.000000 0.000000 0.000000 
0.000000 0.000000 0.000000 
0.000000 0.000000 0.000000 

0.000000 -0.000000 0.000000 
0.000000 0.000000 0.000000 
0.000000 0.000000 0.000000 

-0.000000 0.000000 0.000000 
0.000000 -0.000000 0.000000 
0.000000 0.000000 0.000000 

-0.000000 0.000000 0.000000 
0.000000 -0.000000 0.000000 
0.000000 0.000000 0.000000 

-0.000000 0.000000 0.000000 
0.000000 -0.000000 0.000000 
0.000000 0.000000 0.000000 

-0.000000 0.000000 0.000000 
0.000000 -0.000000 0.000000 
0.000000 0.000000 0.000000 

0.000000 -0.000000 0.000000 
0.000000 0.000000 0.000000 
0.000000 0.000000 0.000000 

0.000000 -0.000000 0.000000 
0.000000 0.000000 0.000000 
0.000000 0.000000 0.000000 

0.000000 -0.000000 0.000000 
0.000000 0.000000 0.000000 
0.000000 0.000000 0.000000 

0.000000 -0.000000 0.000000 
0.000000 0.000000 0.000000 
0.000000 0.000000 0.000000 

-0.000000 -0.000000 0.000000 
0.000000 -0.000000 0.000000 
0.000000 0.000000 0.000000 

-0.000000 -0.000000 0.000000 
0.000000 0.000000 0.000000 
0.000000 0.000000 0.000000 

-0.000000 0.000000 0.000000 
0.000000 -0.000000 0.000000 
0.000000 0.000000 0.000000 

-0.000000 0.000000 0.000000 
0.000000 -0.000000 0.000000 
0.000000 0.000000 0.000000 

0.000000 -0.000000 0.000000 
0.000000 0.000000 0.000000 
0.000000 0.000000 0.000000 

0.000000 0.000000 0.000000 
0.000000 0.000000 0.000000 
0.000000 0.000000 0.000000 

0.000000 0.000000 0.000000 
0.000000 0.000000 0.000000 
0.000000 0.000000 0.000000 

-0.000000 0.000000 0.000000 
0.000000 0.000000 0.000000 
0.000000 0.000000 0.000000 

-0.000000 0.000000 0.000000 
0.000000 -0.000000 0.000000 
0.000000 0.000000 0.000000 

-0.000000 0.000000 0.000000 
0.000000 -0.000000 0.000000 
0.000000 0.000000 0.000000 

0.000000 0.000000 0.000000 
0.000000 0.000000 0.000000 
0.000000 0.000000 0.000000 

-0.000000 0.000000 0.000000 
0.000000 -0.000000 0.000000 
0.000000 0.000000 0.000000 

-0.000000 -0.000000 0.000000 
0.000000 -0.000000 0.000000 
0.000000 0.000000 0.000000 

-0.000000 -0.000000 0.000000 
0.000000 -0.000000 0.000000 
0.000000 0.000000 0.000000 

0.000000 -0.000000 0.000000 
0.000000 0.000000 0.000000 
0.000000 0.000000 0.000000 

0.000000 -0.000000 0.000000 
0.000000 0.000000 0.000000 
0.000000 0.000000 0.000000 

0.000000 -0.000000 0.000000 
0.000000 0.000000 0.000000 
0.000000 0.000000 0.000000 

0.000000 0.000000 0.000000 
0.000000 0.000000 0.000000 
0.000000 0.000000 0.000000 

0.000000 0.000000 0.000000 
0.000000 0.000000 0.000000 
0.000000 0.000000 0.000000 

0.000000 0.000000 0.000000 
0.000000 0.000000 0.000000 
0.000000 0.000000 0.000000 

0.000000 0.000000 0.000000 
0.000000 0.000000 0.000000 
0.000000 0.000000 0.000000 

-0.000000 0.000000 0.000000 
0.000000 -0.000000 0.000000 
0.000000 0.000000 0.000000 

-0.000000 0.000000 0.000000 
0.000000 -0.000000 0.000000 
0.000000 0.000000 0.000000 

0.000000 0.000000 0.000000 
0.000000 0.000000 0.000000 
0.000000 0.000000 0.000000 

0.000000 -0.000000 0.000000 
0.000000 0.000000 0.000000 
0.000000 0.000000 0.000000 

0.000000 0.000000 0.000000 
0.000000 0.000000 0.000000 
0.000000 0.000000 0.000000 

-0.000000 0.000000 0.000000 
0.000000 -0.000000 0.000000 
0.000000 0.000000 0.000000 

-0.000000 0.000000 0.000000 
0.000000 -0.000000 0.000000 
0.000000 0.000000 0.000000 

-0.000000 0.000000 0.000000 
0.000000 -0.000000 0.000000 
0.000000 0.000000 0.000000 

-0.000000 0.000000 0.000000 
0.000000 -0.000000 0.000000 
0.000000 0.000000 0.000000 

-0.000000 0.000000 0.000000 
0.000000 -0.000000 0.000000 
0.000000 0.000000 0.000000 

0.000000 -0.000000 0.000000 
0.000000 0.000000 0.000000 
0.000000 0.000000 0.000000 

-0.000000 0.000000 0.000000 
0.000000 -0.000000 0.000000 
0.000000 0.000000 0.000000 

0.000000 0.000000 0.000000 
0.000000 0.000000 0.000000 
0.000000 0.000000 0.000000 

-0.000000 -0.000000 0.000000 
0.000000 -0.000000 0.000000 
0.000000 0.000000 0.000000 

0.000000 0.000000 0.000000 
0.000000 0.000000 0.000000 
0.000000 0.000000 0.000000 

0.000000 -0.000000 0.000000 
0.000000 0.000000 0.000000 
0.000000 0.000000 0.000000 

-0.000000 -0.000000 0.000000 
0.000000 -0.000000 0.000000 
0.000000 0.000000 0.000000 

-0.000000 0.000000 0.000000 
0.000000 -0.000000 0.000000 
0.000000 0.000000 0.000000 

-0.000000 0.000000 0.000000 
0.000000 -0.000000 0.000000 
0.000000 0.000000 0.000000 

-0.000000 0.000000 0.000000 
0.000000 -0.000000 0.000000 
0.000000 0.000000 0.000000 

0.000000 0.000000 0.000000 
0.000000 0.000000 0.000000 
0.000000 0.000000 0.000000 

0.000000 0.000000 0.000000 
0.000000 0.000000 0.000000 
0.000000 0.000000 0.000000 

0.000000 0.000000 0.000000 
0.000000 0.000000 0.000000 
0.000000 0.000000 0.000000 

0.000000 0.000000 0.000000 
0.000000 0.000000 0.000000 
0.000000 0.000000 0.000000 

-0.000000 0.000000 0.000000 
0.000000 -0.000000 0.000000 
0.000000 0.000000 0.000000 

-0.000000 -0.000000 0.000000 
0.000000 -0.000000 0.000000 
0.000000 0.000000 0.000000 

0.000000 -0.000000 0.000000 
0.000000 0.000000 0.000000 
0.000000 0.000000 0.000000 

-0.000000 -0.000000 0.000000 
0.000000 0.000000 0.000000 
0.000000 0.000000 0.000000 

-0.000000 -0.000000 0.000000 
0.000000 0.000000 0.000000 
0.000000 0.000000 0.000000 

-0.000000 -0.000000 0.000000 
0.000000 -0.000000 0.000000 
0.000000 0.000000 0.000000 

0.000000 -0.000000 0.000000 
0.000000 0.000000 0.000000 
0.000000 0.000000 0.000000 

0.000000 -0.000000 0.000000 
0.000000 0.000000 0.000000 
0.000000 0.000000 0.000000 

0.000000 0.000000 0.000000 
0.000000 0.000000 0.000000 
0.000000 0.000000 0.000000 

-0.000000 0.000000 0.000000 
0.000000 -0.000000 0.000000 
0.000000 0.000000 0.000000 

-0.000000 0.000000 0.000000 
0.000000 -0.000000 0.000000 
0.000000 0.000000 0.000000 

-0.000000 -0.000000 0.000000 
0.000000 -0.000000 0.000000 
0.000000 0.000000 0.000000 

0.000000 -0.000000 0.000000 
0.000000 0.000000 0.000000 
0.000000 0.000000 0.000000 

0.000000 -0.000000 0.000000 
0.000000 0.000000 0.000000 
0.000000 0.000000 0.000000 

0.000000 -0.000000 0.000000 
0.000000 0.000000 0.000000 
0.000000 0.000000 0.000000 

-0.000000 -0.000000 0.000000 
0.000000 -0.000000 0.000000 
0.000000 0.000000 0.000000 

0.000000 -0.000000 0.000000 
0.000000 0.000000 0.000000 
0.000000 0.000000 0.000000 

0.000000 -0.000000 0.000000 
0.000000 0.000000 0.000000 
0.000000 0.000000 0.000000 

0.000000 -0.000000 0.000000 
0.000000 0.000000 0.000000 
0.000000 0.000000 0.000000 

-0.000000 -0.000000 0.000000 
0.000000 -0.000000 0.000000 
0.000000 0.000000 0.000000 

-0.000000 -0.000000 0.000000 
0.000000 -0.000000 0.000000 
0.000000 0.000000 0.000000 

-0.000000 0.000000 0.000000 
0.000000 -0.000000 0.000000 
0.000000 0.000000 0.000000 

0.000000 0.000000 0.000000 
0.000000 0.000000 0.000000 
0.000000 0.000000 0.000000 

0.000000 0.000000 0.000000 
0.000000 0.000000 0.000000 
0.000000 0.000000 0.000000 

0.000000 0.000000 0.000000 
0.000000 0.000000 0.000000 
0.000000 0.000000 0.000000 

0.000000 0.000000 0.000000 
0.000000 0.000000 0.000000 
0.000000 0.000000 0.000000 

-0.000000 -0.000000 0.000000 
0.000000 -0.000000 0.000000 
0.000000 0.000000 0.000000 

0.000000 -0.000000 0.000000 
0.000000 0.000000 0.000000 
0.000000 0.000000 0.000000 

-0.000000 -0.000000 0.000000 
0.000000 -0.000000 0.000000 
0.000000 0.000000 0.000000 

0.000000 -0.000000 0.000000 
0.000000 0.000000 0.000000 
0.000000 0.000000 0.000000 

0.000000 -0.000000 0.000000 
0.000000 0.000000 0.000000 
0.000000 0.000000 0.000000 

0.000000 -0.000000 0.000000 
0.000000 0.000000 0.000000 
0.000000 0.000000 0.000000 

0.000000 -0.000000 0.000000 
0.000000 0.000000 0.000000 
0.000000 0.000000 0.000000 

0.000000 -0.000000 0.000000 
0.000000 0.000000 0.000000 
0.000000 0.000000 0.000000 

0.000000 -0.000000 0.000000 
0.000000 0.000000 0.000000 
0.000000 0.000000 0.000000 

0.000000 -0.000000 0.000000 
0.000000 0.000000 0.000000 
0.000000 0.000000 0.000000 

0.000000 -0.000000 0.000000 
0.000000 0.000000 0.000000 
0.000000 0.000000 0.000000 

0.000000 -0.000000 0.000000 
0.000000 0.000000 0.000000 
0.000000 0.000000 0.000000 

-0.000000 -0.000000 0.000000 
0.000000 -0.000000 0.000000 
0.000000 0.000000 0.000000 

-0.000000 -0.000000 0.000000 
0.000000 -0.000000 0.000000 
0.000000 0.000000 0.000000 

-0.000000 -0.000000 0.000000 
0.000000 -0.000000 0.000000 
0.000000 0.000000 0.000000 

-0.000000 0.000000 0.000000 
0.000000 -0.000000 0.000000 
0.000000 0.000000 0.000000 

-0.000000 0.000000 0.000000 
0.000000 -0.000000 0.000000 
0.000000 0.000000 0.000000 

-0.000000 -0.000000 0.000000 
0.000000 -0.000000 0.000000 
0.000000 0.000000 0.000000 

-0.000000 0.000000 0.000000 
0.000000 -0.000000 0.000000 
0.000000 0.000000 0.000000 

-0.000000 -0.000000 0.000000 
0.000000 -0.000000 0.000000 
0.000000 0.000000 0.000000 

0.000000 0.000000 0.000000 
0.000000 0.000000 0.000000 
0.000000 0.000000 0.000000 

0.000000 0.000000 0.000000 
0.000000 0.000000 0.000000 
0.000000 0.000000 0.000000 

-0.000000 -0.000000 0.000000 
0.000000 -0.000000 0.000000 
0.000000 0.000000 0.000000 

-0.000000 -0.000000 0.000000 
0.000000 -0.000000 0.000000 
0.000000 0.000000 0.000000 

0.000000 0.000000 0.000000 
0.000000 0.000000 0.000000 
0.000000 0.000000 0.000000 

-0.000000 -0.000000 0.000000 
0.000000 -0.000000 0.000000 
0.000000 0.000000 0.000000 

0.000000 0.000000 0.000000 
0.000000 0.000000 0.000000 
0.000000 0.000000 0.000000 

0.000000 0.000000 0.000000 
0.000000 0.000000 0.000000 
0.000000 0.000000 0.000000 

0.000000 -0.000000 0.000000 
0.000000 0.000000 0.000000 
0.000000 0.000000 0.000000 

0.000000 -0.000000 0.000000 
0.000000 0.000000 0.000000 
0.000000 0.000000 0.000000 

0.000000 0.000000 0.000000 
0.000000 0.000000 0.000000 
0.000000 0.000000 0.000000 

-0.000000 -0.000000 0.000000 
0.000000 -0.000000 0.000000 
0.000000 0.000000 0.000000 

0.000000 -0.000000 0.000000 
0.000000 0.000000 0.000000 
0.000000 0.000000 0.000000 

0.000000 -0.000000 0.000000 
0.000000 0.000000 0.000000 
0.000000 0.000000 0.000000 

0.000000 -0.000000 0.000000 
0.000000 0.000000 0.000000 
0.000000 0.000000 0.000000 

-0.000000 0.000000 0.000000 
0.000000 -0.000000 0.000000 
0.000000 0.000000 0.000000 

-0.000000 -0.000000 0.000000 
0.000000 -0.000000 0.000000 
0.000000 0.000000 0.000000 

-0.000000 -0.000000 0.000000 
0.000000 -0.000000 0.000000 
0.000000 0.000000 0.000000 

-0.000000 -0.000000 0.000000 
0.000000 -0.000000 0.000000 
0.000000 0.000000 0.000000 

0.000000 -0.000000 0.000000 
0.000000 0.000000 0.000000 
0.000000 0.000000 0.000000 

0.000000 0.000000 0.000000 
0.000000 0.000000 0.000000 
0.000000 0.000000 0.000000 

0.000000 0.000000 0.000000 
0.000000 0.000000 0.000000 
0.000000 0.000000 0.000000 

0.000000 -0.000000 0.000000 
0.000000 0.000000 0.000000 
0.000000 0.000000 0.000000 

0.000000 0.000000 0.000000 
0.000000 0.000000 0.000000 
0.000000 0.000000 0.000000 

-0.000000 -0.000000 0.000000 
0.000000 -0.000000 0.000000 
0.000000 0.000000 0.000000 

0.000000 0.000000 0.000000 
0.000000 0.000000 0.000000 
0.000000 0.000000 0.000000 

0.000000 0.000000 0.000000 
0.000000 0.000000 0.000000 
0.000000 0.000000 0.000000 

0.000000 -0.000000 0.000000 
0.000000 0.000000 0.000000 
0.000000 0.000000 0.000000 

0.000000 -0.000000 0.000000 
0.000000 0.000000 0.000000 
0.000000 0.000000 0.000000 

0.000000 -0.000000 0.000000 
0.000000 0.000000 0.000000 
0.000000 0.000000 0.000000 

0.000000 -0.000000 0.000000 
0.000000 0.000000 0.000000 
0.000000 0.000000 0.000000 

0.000000 -0.000000 0.000000 
0.000000 0.000000 0.000000 
0.000000 0.000000 0.000000 

0.000000 -0.000000 0.000000 
0.000000 0.000000 0.000000 
0.000000 0.000000 0.000000 

0.000000 -0.000000 0.000000 
0.000000 0.000000 0.000000 
0.000000 0.000000 0.000000 

0.000000 0.000000 0.000000 
0.000000 0.000000 0.000000 
0.000000 0.000000 0.000000 

0.000000 -0.000000 0.000000 
0.000000 0.000000 0.000000 
0.000000 0.000000 0.000000 

0.000000 0.000000 0.000000 
0.000000 0.000000 0.000000 
0.000000 0.000000 0.000000 

-0.000000 0.000000 0.000000 
0.000000 -0.000000 0.000000 
0.000000 0.000000 0.000000 

-0.000000 0.000000 0.000000 
0.000000 -0.000000 0.000000 
0.000000 0.000000 0.000000 

-0.000000 -0.000000 0.000000 
0.000000 -0.000000 0.000000 
0.000000 0.000000 0.000000 

0.000000 0.000000 0.000000 
0.000000 0.000000 0.000000 
0.000000 0.000000 0.000000 

-0.000000 -0.000000 0.000000 
0.000000 -0.000000 0.000000 
0.000000 0.000000 0.000000 

0.000000 0.000000 0.000000 
0.000000 0.000000 0.000000 
0.000000 0.000000 0.000000 

-0.000000 -0.000000 0.000000 
0.000000 -0.000000 0.000000 
0.000000 0.000000 0.000000 

0.000000 -0.000000 0.000000 
0.000000 0.000000 0.000000 
0.000000 0.000000 0.000000 

-0.000000 -0.000000 0.000000 
0.000000 -0.000000 0.000000 
0.000000 0.000000 0.000000 

-0.000000 -0.000000 0.000000 
0.000000 -0.000000 0.000000 
0.000000 0.000000 0.000000 

-0.000000 -0.000000 0.000000 
0.000000 -0.000000 0.000000 
0.000000 0.000000 0.000000 

-0.000000 -0.000000 0.000000 
0.000000 -0.000000 0.000000 
0.000000 0.000000 0.000000 

-0.000000 -0.000000 0.000000 
0.000000 -0.000000 0.000000 
0.000000 0.000000 0.000000 

-0.000000 0.000000 0.000000 
0.000000 -0.000000 0.000000 
0.000000 0.000000 0.000000 

0.000000 0.000000 0.000000 
0.000000 0.000000 0.000000 
0.000000 0.000000 0.000000 

0.000000 0.000000 0.000000 
0.000000 0.000000 0.000000 
0.000000 0.000000 0.000000 

0.000000 0.000000 0.000000 
0.000000 0.000000 0.000000 
0.000000 0.000000 0.000000 

-0.000000 0.000000 0.000000 
0.000000 -0.000000 0.000000 
0.000000 0.000000 0.000000 

-0.000000 -0.000000 0.000000 
0.000000 -0.000000 0.000000 
0.000000 0.000000 0.000000 

0.000000 -0.000000 0.000000 
0.000000 0.000000 0.000000 
0.000000 0.000000 0.000000 

0.000000 -0.000000 0.000000 
0.000000 0.000000 0.000000 
0.000000 0.000000 0.000000 

0.000000 0.000000 0.000000 
0.000000 0.000000 0.000000 
0.000000 0.000000 0.000000 

0.000000 0.000000 0.000000 
0.000000 0.000000 0.000000 
0.000000 0.000000 0.000000 

0.000000 0.000000 0.000000 
0.000000 0.000000 0.000000 
0.000000 0.000000 0.000000 

0.000000 0.000000 0.000000 
0.000000 0.000000 0.000000 
0.000000 0.000000 0.000000 

0.000000 0.000000 0.000000 
0.000000 0.000000 0.000000 
0.000000 0.000000 0.000000 

-0.000000 0.000000 0.000000 
0.000000 -0.000000 0.000000 
0.000000 0.000000 0.000000 

-0.000000 0.000000 0.000000 
0.000000 -0.000000 0.000000 
0.000000 0.000000 0.000000 

-0.000000 0.000000 0.000000 
0.000000 -0.000000 0.000000 
0.000000 0.000000 0.000000 

-0.000000 -0.000000 0.000000 
0.000000 -0.000000 0.000000 
0.000000 0.000000 0.000000 

0.000000 -0.000000 0.000000 
0.000000 0.000000 0.000000 
0.000000 0.000000 0.000000 

0.000000 -0.000000 0.000000 
0.000000 0.000000 0.000000 
0.000000 0.000000 0.000000 

-0.000000 0.000000 0.000000 
0.000000 -0.000000 0.000000 
0.000000 0.000000 0.000000 

-0.000000 0.000000 0.000000 
0.000000 -0.000000 0.000000 
0.000000 0.000000 0.000000 

-0.000000 0.000000 0.000000 
0.000000 -0.000000 0.000000 
0.000000 0.000000 0.000000 

-0.000000 0.000000 0.000000 
0.000000 -0.000000 0.000000 
0.000000 0.000000 0.000000 

-0.000000 0.000000 0.000000 
0.000000 -0.000000 0.000000 
0.000000 0.000000 0.000000 

0.000000 0.000000 0.000000 
0.000000 0.000000 0.000000 
0.000000 0.000000 0.000000 

-0.000000 -0.000000 0.000000 
0.000000 0.000000 0.000000 
0.000000 0.000000 0.000000 

-0.000000 0.000000 0.000000 
0.000000 -0.000000 0.000000 
0.000000 0.000000 0.000000 

0.000000 0.000000 0.000000 
0.000000 0.000000 0.000000 
0.000000 0.000000 0.000000 

0.000000 0.000000 0.000000 
0.000000 0.000000 0.000000 
0.000000 0.000000 0.000000 

0.000000 -0.000000 0.000000 
0.000000 0.000000 0.000000 
0.000000 0.000000 0.000000 

-0.000000 -0.000000 0.000000 
0.000000 -0.000000 0.000000 
0.000000 0.000000 0.000000 

0.000000 0.000000 0.000000 
0.000000 0.000000 0.000000 
0.000000 0.000000 0.000000 

0.000000 0.000000 0.000000 
0.000000 0.000000 0.000000 
0.000000 0.000000 0.000000 

-0.000000 -0.000000 0.000000 
0.000000 -0.000000 0.000000 
0.000000 0.000000 0.000000 

-0.000000 -0.000000 0.000000 
0.000000 -0.000000 0.000000 
0.000000 0.000000 0.000000 

0.000000 0.000000 0.000000 
0.000000 0.000000 0.000000 
0.000000 0.000000 0.000000 

0.000000 0.000000 0.000000 
0.000000 0.000000 0.000000 
0.000000 0.000000 0.000000 

0.000000 0.000000 0.000000 
0.000000 0.000000 0.000000 
0.000000 0.000000 0.000000 

-0.000000 0.000000 0.000000 
0.000000 -0.000000 0.000000 
0.000000 0.000000 0.000000 

0.000000 -0.000000 0.000000 
0.000000 0.000000 0.000000 
0.000000 0.000000 0.000000 

0.000000 -0.000000 0.000000 
0.000000 0.000000 0.000000 
0.000000 0.000000 0.000000 

0.000000 -0.000000 0.000000 
0.000000 0.000000 0.000000 
0.000000 0.000000 0.000000 

-0.000000 -0.000000 0.000000 
0.000000 0.000000 0.000000 
0.000000 0.000000 0.000000 

0.000000 0.000000 0.000000 
0.000000 0.000000 0.000000 
0.000000 0.000000 0.000000 

0.000000 0.000000 0.000000 
0.000000 0.000000 0.000000 
0.000000 0.000000 0.000000 

0.000000 0.000000 0.000000 
0.000000 0.000000 0.000000 
0.000000 0.000000 0.000000 

-0.000000 0.000000 0.000000 
0.000000 -0.000000 0.000000 
0.000000 0.000000 0.000000 

-0.000000 -0.000000 0.000000 
0.000000 -0.000000 0.000000 
0.000000 0.000000 0.000000 

-0.000000 -0.000000 0.000000 
0.000000 -0.000000 0.000000 
0.000000 0.000000 0.000000 

0.000000 0.000000 0.000000 
0.000000 0.000000 0.000000 
0.000000 0.000000 0.000000 

0.000000 0.000000 0.000000 
0.000000 0.000000 0.000000 
0.000000 0.000000 0.000000 

0.000000 0.000000 0.000000 
0.000000 0.000000 0.000000 
0.000000 0.000000 0.000000 

0.000000 0.000000 0.000000 
0.000000 0.000000 0.000000 
0.000000 0.000000 0.000000 

0.000000 0.000000 0.000000 
0.000000 0.000000 0.000000 
0.000000 0.000000 0.000000 

0.000000 0.000000 0.000000 
0.000000 0.000000 0.000000 
0.000000 0.000000 0.000000 

0.000000 0.000000 0.000000 
0.000000 0.000000 0.000000 
0.000000 0.000000 0.000000 

0.000000 0.000000 0.000000 
0.000000 0.000000 0.000000 
0.000000 0.000000 0.000000 

0.000000 0.000000 0.000000 
0.000000 0.000000 0.000000 
0.000000 0.000000 0.000000 

-0.000000 0.000000 0.000000 
0.000000 -0.000000 0.000000 
0.000000 0.000000 0.000000 

0.000000 0.000000 0.000000 
0.000000 0.000000 0.000000 
0.000000 0.000000 0.000000 

0.000000 0.000000 0.000000 
0.000000 0.000000 0.000000 
0.000000 0.000000 0.000000 

-0.000000 -0.000000 0.000000 
0.000000 -0.000000 0.000000 
0.000000 0.000000 0.000000 

-0.000000 -0.000000 0.000000 
0.000000 -0.000000 0.000000 
0.000000 0.000000 0.000000 

-0.000000 -0.000000 0.000000 
0.000000 -0.000000 0.000000 
0.000000 0.000000 0.000000 

-0.000000 -0.000000 0.000000 
0.000000 -0.000000 0.000000 
0.000000 0.000000 0.000000 

-0.000000 0.000000 0.000000 
0.000000 -0.000000 0.000000 
0.000000 0.000000 0.000000 

-0.000000 0.000000 0.000000 
0.000000 -0.000000 0.000000 
0.000000 0.000000 0.000000 

0.000000 0.000000 0.000000 
0.000000 0.000000 0.000000 
0.000000 0.000000 0.000000 

0.000000 0.000000 0.000000 
0.000000 0.000000 0.000000 
0.000000 0.000000 0.000000 

0.000000 0.000000 0.000000 
0.000000 0.000000 0.000000 
0.000000 0.000000 0.000000 

0.000000 0.000000 0.000000 
0.000000 0.000000 0.000000 
0.000000 0.000000 0.000000 

0.000000 0.000000 0.000000 
0.000000 0.000000 0.000000 
0.000000 0.000000 0.000000 

-0.000000 -0.000000 0.000000 
0.000000 -0.000000 0.000000 
0.000000 0.000000 0.000000 

-0.000000 -0.000000 0.000000 
0.000000 -0.000000 0.000000 
0.000000 0.000000 0.000000 

-0.000000 0.000000 0.000000 
0.000000 -0.000000 0.000000 
0.000000 0.000000 0.000000 

-0.000000 0.000000 0.000000 
0.000000 -0.000000 0.000000 
0.000000 0.000000 0.000000 

-0.000000 0.000000 0.000000 
0.000000 -0.000000 0.000000 
0.000000 0.000000 0.000000 

0.000000 -0.000000 0.000000 
0.000000 0.000000 0.000000 
0.000000 0.000000 0.000000 

0.000000 -0.000000 0.000000 
0.000000 0.000000 0.000000 
0.000000 0.000000 0.000000 

0.000000 0.000000 0.000000 
0.000000 -0.000000 0.000000 
0.000000 0.000000 0.000000 

-0.000000 0.000000 0.000000 
0.000000 0.000000 0.000000 
0.000000 0.000000 0.000000 

0.000000 0.000000 0.000000 
0.000000 0.000000 0.000000 
0.000000 0.000000 0.000000 

0.000000 0.000000 0.000000 
0.000000 0.000000 0.000000 
0.000000 0.000000 0.000000 

-0.000000 -0.000000 0.000000 
0.000000 -0.000000 0.000000 
0.000000 0.000000 0.000000 

-0.000000 -0.000000 0.000000 
0.000000 -0.000000 0.000000 
0.000000 0.000000 0.000000 

-0.000000 -0.000000 0.000000 
0.000000 -0.000000 0.000000 
0.000000 0.000000 0.000000 

-0.000000 0.000000 0.000000 
0.000000 -0.000000 0.000000 
0.000000 0.000000 0.000000 

0.000000 -0.000000 0.000000 
0.000000 0.000000 0.000000 
0.000000 0.000000 0.000000 

0.000000 -0.000000 0.000000 
0.000000 0.000000 0.000000 
0.000000 0.000000 0.000000 

0.000000 -0.000000 0.000000 
0.000000 0.000000 0.000000 
0.000000 0.000000 0.000000 

-0.000000 0.000000 0.000000 
0.000000 0.000000 0.000000 
0.000000 0.000000 0.000000 

0.000000 0.000000 0.000000 
0.000000 0.000000 0.000000 
0.000000 0.000000 0.000000 

0.000000 0.000000 0.000000 
0.000000 0.000000 0.000000 
0.000000 0.000000 0.000000 

0.000000 0.000000 0.000000 
0.000000 0.000000 0.000000 
0.000000 0.000000 0.000000 

-0.000000 -0.000000 0.000000 
0.000000 -0.000000 0.000000 
0.000000 0.000000 0.000000 

-0.000000 -0.000000 0.000000 
0.000000 -0.000000 0.000000 
0.000000 0.000000 0.000000 

0.000000 -0.000000 0.000000 
0.000000 0.000000 0.000000 
0.000000 0.000000 0.000000 

-0.000000 -0.000000 0.000000 
0.000000 -0.000000 0.000000 
0.000000 0.000000 0.000000 

-0.000000 0.000000 0.000000 
0.000000 -0.000000 0.000000 
0.000000 0.000000 0.000000 

0.000000 -0.000000 0.000000 
0.000000 0.000000 0.000000 
0.000000 0.000000 0.000000 

-0.000000 -0.000000 0.000000 
0.000000 0.000000 0.000000 
0.000000 0.000000 0.000000 

0.000000 0.000000 0.000000 
0.000000 0.000000 0.000000 
0.000000 0.000000 0.000000 

0.000000 0.000000 0.000000 
0.000000 0.000000 0.000000 
0.000000 0.000000 0.000000 

-0.000000 0.000000 0.000000 
0.000000 -0.000000 0.000000 
0.000000 0.000000 0.000000 

-0.000000 0.000000 0.000000 
0.000000 -0.000000 0.000000 
0.000000 0.000000 0.000000 

-0.000000 0.000000 0.000000 
0.000000 0.000000 0.000000 
0.000000 0.000000 0.000000 

-0.000000 0.000000 0.000000 
0.000000 -0.000000 0.000000 
0.000000 0.000000 0.000000 

-0.000000 -0.000000 0.000000 
0.000000 0.000000 0.000000 
0.000000 0.000000 0.000000 

-0.000000 -0.000000 0.000000 
0.000000 -0.000000 0.000000 
0.000000 0.000000 0.000000 

-0.000000 -0.000000 0.000000 
0.000000 -0.000000 0.000000 
0.000000 0.000000 0.000000 

0.000000 0.000000 0.000000 
0.000000 0.000000 0.000000 
0.000000 0.000000 0.000000 

0.000000 -0.000000 0.000000 
0.000000 0.000000 0.000000 
0.000000 0.000000 0.000000 

0.000000 -0.000000 0.000000 
0.000000 0.000000 0.000000 
0.000000 0.000000 0.000000 

0.000000 -0.000000 0.000000 
0.000000 0.000000 0.000000 
0.000000 0.000000 0.000000 

0.000000 0.000000 0.000000 
0.000000 0.000000 0.000000 
0.000000 0.000000 0.000000 

0.000000 0.000000 0.000000 
0.000000 0.000000 0.000000 
0.000000 0.000000 0.000000 

-0.000000 0.000000 0.000000 
0.000000 -0.000000 0.000000 
0.000000 0.000000 0.000000 

-0.000000 0.000000 0.000000 
0.000000 -0.000000 0.000000 
0.000000 0.000000 0.000000 

-0.000000 -0.000000 0.000000 
0.000000 -0.000000 0.000000 
0.000000 0.000000 0.000000 

-0.000000 -0.000000 0.000000 
0.000000 -0.000000 0.000000 
0.000000 0.000000 0.000000 

0.000000 0.000000 0.000000 
0.000000 0.000000 0.000000 
0.000000 0.000000 0.000000 

0.000000 -0.000000 0.000000 
0.000000 0.000000 0.000000 
0.000000 0.000000 0.000000 

0.000000 0.000000 0.000000 
0.000000 0.000000 0.000000 
0.000000 0.000000 0.000000 

0.000000 0.000000 0.000000 
0.000000 0.000000 0.000000 
0.000000 0.000000 0.000000 

0.000000 0.000000 0.000000 
0.000000 0.000000 0.000000 
0.000000 0.000000 0.000000 

0.000000 0.000000 0.000000 
0.000000 0.000000 0.000000 
0.000000 0.000000 0.000000 

-0.000000 0.000000 0.000000 
0.000000 -0.000000 0.000000 
0.000000 0.000000 0.000000 

-0.000000 0.000000 0.000000 
0.000000 -0.000000 0.000000 
0.000000 0.000000 0.000000 

-0.000000 0.000000 0.000000 
0.000000 -0.000000 0.000000 
0.000000 0.000000 0.000000 

0.000000 0.000000 0.000000 
0.000000 0.000000 0.000000 
0.000000 0.000000 0.000000 

0.000000 0.000000 0.000000 
0.000000 0.000000 0.000000 
0.000000 0.000000 0.000000 

-0.000000 -0.000000 0.000000 
0.000000 -0.000000 0.000000 
0.000000 0.000000 0.000000 

0.000000 0.000000 0.000000 
0.000000 0.000000 0.000000 
0.000000 0.000000 0.000000 

0.000000 0.000000 0.000000 
0.000000 0.000000 0.000000 
0.000000 0.000000 0.000000 

-0.000000 -0.000000 0.000000 
0.000000 -0.000000 0.000000 
0.000000 0.000000 0.000000 

0.000000 -0.000000 0.000000 
0.000000 0.000000 0.000000 
0.000000 0.000000 0.000000 

0.000000 -0.000000 0.000000 
0.000000 0.000000 0.000000 
0.000000 0.000000 0.000000 

0.000000 -0.000000 0.000000 
0.000000 0.000000 0.000000 
0.000000 0.000000 0.000000 

-0.000000 -0.000000 0.000000 
0.000000 -0.000000 0.000000 
0.000000 0.000000 0.000000 

-0.000000 -0.000000 0.000000 
0.000000 -0.000000 0.000000 
0.000000 0.000000 0.000000 

-0.000000 -0.000000 0.000000 
0.000000 -0.000000 0.000000 
0.000000 0.000000 0.000000 

-0.000000 -0.000000 0.000000 
0.000000 -0.000000 0.000000 
0.000000 0.000000 0.000000 

-0.000000 -0.000000 0.000000 
0.000000 -0.000000 0.000000 
0.000000 0.000000 0.000000 

-0.000000 -0.000000 0.000000 
0.000000 -0.000000 0.000000 
0.000000 0.000000 0.000000 

-0.000000 -0.000000 0.000000 
0.000000 -0.000000 0.000000 
0.000000 0.000000 0.000000 

0.000000 0.000000 0.000000 
0.000000 0.000000 0.000000 
0.000000 0.000000 0.000000 

-0.000000 0.000000 0.000000 
0.000000 -0.000000 0.000000 
0.000000 0.000000 0.000000 

-0.000000 -0.000000 0.000000 
0.000000 -0.000000 0.000000 
0.000000 0.000000 0.000000 

0.000000 -0.000000 0.000000 
0.000000 0.000000 0.000000 
0.000000 0.000000 0.000000 

0.000000 -0.000000 0.000000 
0.000000 0.000000 0.000000 
0.000000 0.000000 0.000000 

0.000000 -0.000000 0.000000 
0.000000 0.000000 0.000000 
0.000000 0.000000 0.000000 

0.000000 0.000000 0.000000 
0.000000 0.000000 0.000000 
0.000000 0.000000 0.000000 

0.000000 0.000000 0.000000 
0.000000 0.000000 0.000000 
0.000000 0.000000 0.000000 

0.000000 0.000000 0.000000 
0.000000 0.000000 0.000000 
0.000000 0.000000 0.000000 

-0.000000 -0.000000 0.000000 
0.000000 -0.000000 0.000000 
0.000000 0.000000 0.000000 

-0.000000 -0.000000 0.000000 
0.000000 -0.000000 0.000000 
0.000000 0.000000 0.000000 

-0.000000 -0.000000 0.000000 
0.000000 -0.000000 0.000000 
0.000000 0.000000 0.000000 

0.000000 0.000000 0.000000 
0.000000 0.000000 0.000000 
0.000000 0.000000 0.000000 

-0.000000 -0.000000 0.000000 
0.000000 -0.000000 0.000000 
0.000000 0.000000 0.000000 

-0.000000 -0.000000 0.000000 
0.000000 -0.000000 0.000000 
0.000000 0.000000 0.000000 

-0.000000 -0.000000 0.000000 
0.000000 -0.000000 0.000000 
0.000000 0.000000 0.000000 

-0.000000 0.000000 0.000000 
0.000000 -0.000000 0.000000 
0.000000 0.000000 0.000000 

-0.000000 0.000000 0.000000 
0.000000 -0.000000 0.000000 
0.000000 0.000000 0.000000 

-0.000000 0.000000 0.000000 
0.000000 -0.000000 0.000000 
0.000000 0.000000 0.000000 

-0.000000 0.000000 0.000000 
0.000000 -0.000000 0.000000 
0.000000 0.000000 0.000000 

-0.000000 0.000000 0.000000 
0.000000 -0.000000 0.000000 
0.000000 0.000000 0.000000 

-0.000000 0.000000 0.000000 
0.000000 -0.000000 0.000000 
0.000000 0.000000 0.000000 

-0.000000 0.000000 0.000000 
0.000000 -0.000000 0.000000 
0.000000 0.000000 0.000000 

-0.000000 0.000000 0.000000 
0.000000 -0.000000 0.000000 
0.000000 0.000000 0.000000 

0.000000 -0.000000 0.000000 
0.000000 0.000000 0.000000 
0.000000 0.000000 0.000000 

-0.000000 -0.000000 0.000000 
0.000000 -0.000000 0.000000 
0.000000 0.000000 0.000000 

0.000000 0.000000 0.000000 
0.000000 0.000000 0.000000 
0.000000 0.000000 0.000000 

0.000000 -0.000000 0.000000 
0.000000 0.000000 0.000000 
0.000000 0.000000 0.000000 

0.000000 0.000000 0.000000 
0.000000 0.000000 0.000000 
0.000000 0.000000 0.000000 

0.000000 -0.000000 0.000000 
0.000000 0.000000 0.000000 
0.000000 0.000000 0.000000 

-0.000000 -0.000000 0.000000 
0.000000 -0.000000 0.000000 
0.000000 0.000000 0.000000 

-0.000000 -0.000000 0.000000 
0.000000 -0.000000 0.000000 
0.000000 0.000000 0.000000 

-0.000000 -0.000000 0.000000 
0.000000 -0.000000 0.000000 
0.000000 0.000000 0.000000 

-0.000000 -0.000000 0.000000 
0.000000 -0.000000 0.000000 
0.000000 0.000000 0.000000 

-0.000000 -0.000000 0.000000 
0.000000 -0.000000 0.000000 
0.000000 0.000000 0.000000 

-0.000000 -0.000000 0.000000 
0.000000 -0.000000 0.000000 
0.000000 0.000000 0.000000 

0.000000 -0.000000 0.000000 
0.000000 0.000000 0.000000 
0.000000 0.000000 0.000000 

-0.000000 -0.000000 0.000000 
0.000000 -0.000000 0.000000 
0.000000 0.000000 0.000000 

0.000000 -0.000000 0.000000 
0.000000 0.000000 0.000000 
0.000000 0.000000 0.000000 

-0.000000 -0.000000 0.000000 
0.000000 -0.000000 0.000000 
0.000000 0.000000 0.000000 

0.000000 -0.000000 0.000000 
0.000000 0.000000 0.000000 
0.000000 0.000000 0.000000 

-0.000000 -0.000000 0.000000 
0.000000 -0.000000 0.000000 
0.000000 0.000000 0.000000 

-0.000000 -0.000000 0.000000 
0.000000 -0.000000 0.000000 
0.000000 0.000000 0.000000 

-0.000000 -0.000000 0.000000 
0.000000 -0.000000 0.000000 
0.000000 0.000000 0.000000 

-0.000000 -0.000000 0.000000 
0.000000 -0.000000 0.000000 
0.000000 0.000000 0.000000 

0.000000 0.000000 0.000000 
0.000000 0.000000 0.000000 
0.000000 0.000000 0.000000 

0.000000 0.000000 0.000000 
0.000000 0.000000 0.000000 
0.000000 0.000000 0.000000 

-0.000000 -0.000000 0.000000 
0.000000 -0.000000 0.000000 
0.000000 0.000000 0.000000 

0.000000 -0.000000 0.000000 
0.000000 0.000000 0.000000 
0.000000 0.000000 0.000000 

-0.000000 -0.000000 0.000000 
0.000000 -0.000000 0.000000 
0.000000 0.000000 0.000000 

-0.000000 -0.000000 0.000000 
0.000000 -0.000000 0.000000 
0.000000 0.000000 0.000000 

-0.000000 -0.000000 0.000000 
0.000000 -0.000000 0.000000 
0.000000 0.000000 0.000000 

0.000000 -0.000000 0.000000 
0.000000 0.000000 0.000000 
0.000000 0.000000 0.000000 

0.000000 -0.000000 0.000000 
0.000000 0.000000 0.000000 
0.000000 0.000000 0.000000 

-0.000000 0.000000 0.000000 
0.000000 0.000000 0.000000 
0.000000 0.000000 0.000000 

-0.000000 0.000000 0.000000 
0.000000 -0.000000 0.000000 
0.000000 0.000000 0.000000 

-0.000000 -0.000000 0.000000 
0.000000 -0.000000 0.000000 
0.000000 0.000000 0.000000 

-0.000000 -0.000000 0.000000 
0.000000 -0.000000 0.000000 
0.000000 0.000000 0.000000 

-0.000000 -0.000000 0.000000 
0.000000 -0.000000 0.000000 
0.000000 0.000000 0.000000 

-0.000000 -0.000000 0.000000 
0.000000 -0.000000 0.000000 
0.000000 0.000000 0.000000 

-0.000000 0.000000 0.000000 
0.000000 -0.000000 0.000000 
0.000000 0.000000 0.000000 

-0.000000 0.000000 0.000000 
0.000000 -0.000000 0.000000 
0.000000 0.000000 0.000000 

-0.000000 0.000000 0.000000 
0.000000 -0.000000 0.000000 
0.000000 0.000000 0.000000 

-0.000000 -0.000000 0.000000 
0.000000 -0.000000 0.000000 
0.000000 0.000000 0.000000 

0.000000 0.000000 0.000000 
0.000000 0.000000 0.000000 
0.000000 0.000000 0.000000 

0.000000 0.000000 0.000000 
0.000000 0.000000 0.000000 
0.000000 0.000000 0.000000 

0.000000 0.000000 0.000000 
0.000000 0.000000 0.000000 
0.000000 0.000000 0.000000 

0.000000 0.000000 0.000000 
0.000000 0.000000 0.000000 
0.000000 0.000000 0.000000 

-0.000000 -0.000000 0.000000 
0.000000 -0.000000 0.000000 
0.000000 0.000000 0.000000 

-0.000000 -0.000000 0.000000 
0.000000 -0.000000 0.000000 
0.000000 0.000000 0.000000 

-0.000000 -0.000000 0.000000 
0.000000 -0.000000 0.000000 
0.000000 0.000000 0.000000 

0.000000 -0.000000 0.000000 
0.000000 0.000000 0.000000 
0.000000 0.000000 0.000000 

0.000000 -0.000000 0.000000 
0.000000 0.000000 0.000000 
0.000000 0.000000 0.000000 

0.000000 -0.000000 0.000000 
0.000000 0.000000 0.000000 
0.000000 0.000000 0.000000 

0.000000 -0.000000 0.000000 
0.000000 0.000000 0.000000 
0.000000 0.000000 0.000000 

-0.000000 -0.000000 0.000000 
0.000000 -0.000000 0.000000 
0.000000 0.000000 0.000000 

0.000000 -0.000000 0.000000 
0.000000 0.000000 0.000000 
0.000000 0.000000 0.000000 

0.000000 -0.000000 0.000000 
0.000000 0.000000 0.000000 
0.000000 0.000000 0.000000 

0.000000 -0.000000 0.000000 
0.000000 0.000000 0.000000 
0.000000 0.000000 0.000000 

0.000000 -0.000000 0.000000 
0.000000 0.000000 0.000000 
0.000000 0.000000 0.000000 

-0.000000 -0.000000 0.000000 
0.000000 -0.000000 0.000000 
0.000000 0.000000 0.000000 

-0.000000 -0.000000 0.000000 
0.000000 -0.000000 0.000000 
0.000000 0.000000 0.000000 

-0.000000 0.000000 0.000000 
0.000000 -0.000000 0.000000 
0.000000 0.000000 0.000000 

-0.000000 0.000000 0.000000 
0.000000 -0.000000 0.000000 
0.000000 0.000000 0.000000 

0.000000 0.000000 0.000000 
0.000000 0.000000 0.000000 
0.000000 0.000000 0.000000 

-0.000000 0.000000 0.000000 
0.000000 -0.000000 0.000000 
0.000000 0.000000 0.000000 

0.000000 0.000000 0.000000 
0.000000 0.000000 0.000000 
0.000000 0.000000 0.000000 

0.000000 0.000000 0.000000 
0.000000 0.000000 0.000000 
0.000000 0.000000 0.000000 

-0.000000 0.000000 0.000000 
0.000000 -0.000000 0.000000 
0.000000 0.000000 0.000000 

0.000000 0.000000 0.000000 
0.000000 0.000000 0.000000 
0.000000 0.000000 0.000000 

0.000000 0.000000 0.000000 
0.000000 0.000000 0.000000 
0.000000 0.000000 0.000000 

0.000000 0.000000 0.000000 
0.000000 0.000000 0.000000 
0.000000 0.000000 0.000000 

0.000000 0.000000 0.000000 
0.000000 0.000000 0.000000 
0.000000 0.000000 0.000000 

0.000000 0.000000 0.000000 
0.000000 0.000000 0.000000 
0.000000 0.000000 0.000000 

0.000000 0.000000 0.000000 
0.000000 0.000000 0.000000 
0.000000 0.000000 0.000000 

0.000000 0.000000 0.000000 
0.000000 0.000000 0.000000 
0.000000 0.000000 0.000000 

0.000000 0.000000 0.000000 
0.000000 0.000000 0.000000 
0.000000 0.000000 0.000000 

0.000000 0.000000 0.000000 
0.000000 0.000000 0.000000 
0.000000 0.000000 0.000000 

0.000000 0.000000 0.000000 
0.000000 0.000000 0.000000 
0.000000 0.000000 0.000000 

-0.000000 -0.000000 0.000000 
0.000000 -0.000000 0.000000 
0.000000 0.000000 0.000000 

-0.000000 -0.000000 0.000000 
0.000000 -0.000000 0.000000 
0.000000 0.000000 0.000000 

-0.000000 -0.000000 0.000000 
0.000000 -0.000000 0.000000 
0.000000 0.000000 0.000000 

-0.000000 -0.000000 0.000000 
0.000000 -0.000000 0.000000 
0.000000 0.000000 0.000000 

-0.000000 -0.000000 0.000000 
0.000000 -0.000000 0.000000 
0.000000 0.000000 0.000000 

-0.000000 -0.000000 0.000000 
0.000000 -0.000000 0.000000 
0.000000 0.000000 0.000000 

0.000000 0.000000 0.000000 
0.000000 0.000000 0.000000 
0.000000 0.000000 0.000000 

0.000000 0.000000 0.000000 
0.000000 0.000000 0.000000 
0.000000 0.000000 0.000000 

0.000000 -0.000000 0.000000 
0.000000 0.000000 0.000000 
0.000000 0.000000 0.000000 

0.000000 0.000000 0.000000 
0.000000 0.000000 0.000000 
0.000000 0.000000 0.000000 

0.000000 0.000000 0.000000 
0.000000 0.000000 0.000000 
0.000000 0.000000 0.000000 

0.000000 0.000000 0.000000 
0.000000 0.000000 0.000000 
0.000000 0.000000 0.000000 

0.000000 -0.000000 0.000000 
0.000000 0.000000 0.000000 
0.000000 0.000000 0.000000 

-0.000000 0.000000 0.000000 
0.000000 -0.000000 0.000000 
0.000000 0.000000 0.000000 

-0.000000 0.000000 0.000000 
0.000000 -0.000000 0.000000 
0.000000 0.000000 0.000000 

0.000000 -0.000000 0.000000 
0.000000 0.000000 0.000000 
0.000000 0.000000 0.000000 

0.000000 -0.000000 0.000000 
0.000000 0.000000 0.000000 
0.000000 0.000000 0.000000 

-0.000000 0.000000 0.000000 
0.000000 -0.000000 0.000000 
0.000000 0.000000 0.000000 

0.000000 0.000000 0.000000 
0.000000 0.000000 0.000000 
0.000000 0.000000 0.000000 

-0.000000 0.000000 0.000000 
0.000000 -0.000000 0.000000 
0.000000 0.000000 0.000000 

0.000000 0.000000 0.000000 
0.000000 0.000000 0.000000 
0.000000 0.000000 0.000000 

-0.000000 0.000000 0.000000 
0.000000 -0.000000 0.000000 
0.000000 0.000000 0.000000 

-0.000000 0.000000 0.000000 
0.000000 -0.000000 0.000000 
0.000000 0.000000 0.000000 

0.000000 0.000000 0.000000 
0.000000 0.000000 0.000000 
0.000000 0.000000 0.000000 

-0.000000 0.000000 0.000000 
0.000000 -0.000000 0.000000 
0.000000 0.000000 0.000000 

0.000000 0.000000 0.000000 
0.000000 0.000000 0.000000 
0.000000 0.000000 0.000000 

-0.000000 -0.000000 0.000000 
0.000000 -0.000000 0.000000 
0.000000 0.000000 0.000000 

0.000000 0.000000 0.000000 
0.000000 0.000000 0.000000 
0.000000 0.000000 0.000000 

0.000000 -0.000000 0.000000 
0.000000 0.000000 0.000000 
0.000000 0.000000 0.000000 

-0.000000 0.000000 0.000000 
0.000000 -0.000000 0.000000 
0.000000 0.000000 0.000000 

0.000000 0.000000 0.000000 
0.000000 0.000000 0.000000 
0.000000 0.000000 0.000000 

0.000000 0.000000 0.000000 
0.000000 0.000000 0.000000 
0.000000 0.000000 0.000000 

0.000000 0.000000 0.000000 
0.000000 0.000000 0.000000 
0.000000 0.000000 0.000000 

0.000000 0.000000 0.000000 
0.000000 0.000000 0.000000 
0.000000 0.000000 0.000000 

-0.000000 -0.000000 0.000000 
0.000000 -0.000000 0.000000 
0.000000 0.000000 0.000000 

0.000000 0.000000 0.000000 
0.000000 0.000000 0.000000 
0.000000 0.000000 0.000000 

0.000000 0.000000 0.000000 
0.000000 0.000000 0.000000 
0.000000 0.000000 0.000000 

-0.000000 0.000000 0.000000 
0.000000 -0.000000 0.000000 
0.000000 0.000000 0.000000 

0.000000 0.000000 0.000000 
0.000000 0.000000 0.000000 
0.000000 0.000000 0.000000 

-0.000000 0.000000 0.000000 
0.000000 -0.000000 0.000000 
0.000000 0.000000 0.000000 

0.000000 0.000000 0.000000 
0.000000 0.000000 0.000000 
0.000000 0.000000 0.000000 

0.000000 0.000000 0.000000 
0.000000 0.000000 0.000000 
0.000000 0.000000 0.000000 

0.000000 0.000000 0.000000 
0.000000 0.000000 0.000000 
0.000000 0.000000 0.000000 

0.000000 -0.000000 0.000000 
0.000000 0.000000 0.000000 
0.000000 0.000000 0.000000 

0.000000 0.000000 0.000000 
0.000000 0.000000 0.000000 
0.000000 0.000000 0.000000 

-0.000000 -0.000000 0.000000 
0.000000 -0.000000 0.000000 
0.000000 0.000000 0.000000 

0.000000 0.000000 0.000000 
0.000000 0.000000 0.000000 
0.000000 0.000000 0.000000 

0.000000 0.000000 0.000000 
0.000000 0.000000 0.000000 
0.000000 0.000000 0.000000 

0.000000 0.000000 0.000000 
0.000000 0.000000 0.000000 
0.000000 0.000000 0.000000 

-0.000000 -0.000000 0.000000 
0.000000 -0.000000 0.000000 
0.000000 0.000000 0.000000 

-0.000000 -0.000000 0.000000 
0.000000 -0.000000 0.000000 
0.000000 0.000000 0.000000 

-0.000000 -0.000000 0.000000 
0.000000 -0.000000 0.000000 
0.000000 0.000000 0.000000 

-0.000000 -0.000000 0.000000 
0.000000 -0.000000 0.000000 
0.000000 0.000000 0.000000 

0.000000 0.000000 0.000000 
0.000000 -0.000000 0.000000 
0.000000 0.000000 0.000000 

-0.000000 -0.000000 0.000000 
0.000000 -0.000000 0.000000 
0.000000 0.000000 0.000000 

-0.000000 0.000000 0.000000 
0.000000 -0.000000 0.000000 
0.000000 0.000000 0.000000 

0.000000 0.000000 0.000000 
0.000000 0.000000 0.000000 
0.000000 0.000000 0.000000 

0.000000 0.000000 0.000000 
0.000000 0.000000 0.000000 
0.000000 0.000000 0.000000 

0.000000 0.000000 0.000000 
0.000000 0.000000 0.000000 
0.000000 0.000000 0.000000 

0.000000 -0.000000 0.000000 
0.000000 0.000000 0.000000 
0.000000 0.000000 0.000000 

0.000000 0.000000 0.000000 
0.000000 0.000000 0.000000 
0.000000 0.000000 0.000000 

0.000000 0.000000 0.000000 
0.000000 0.000000 0.000000 
0.000000 0.000000 0.000000 

0.000000 0.000000 0.000000 
0.000000 0.000000 0.000000 
0.000000 0.000000 0.000000 

-0.000000 0.000000 0.000000 
0.000000 -0.000000 0.000000 
0.000000 0.000000 0.000000 

0.000000 0.000000 0.000000 
0.000000 0.000000 0.000000 
0.000000 0.000000 0.000000 

0.000000 0.000000 0.000000 
0.000000 0.000000 0.000000 
0.000000 0.000000 0.000000 

0.000000 0.000000 0.000000 
0.000000 0.000000 0.000000 
0.000000 0.000000 0.000000 

0.000000 0.000000 0.000000 
0.000000 0.000000 0.000000 
0.000000 0.000000 0.000000 

0.000000 0.000000 0.000000 
0.000000 0.000000 0.000000 
0.000000 0.000000 0.000000 

-0.000000 0.000000 0.000000 
0.000000 -0.000000 0.000000 
0.000000 0.000000 0.000000 

-0.000000 0.000000 0.000000 
0.000000 -0.000000 0.000000 
0.000000 0.000000 0.000000 

-0.000000 -0.000000 0.000000 
0.000000 -0.000000 0.000000 
0.000000 0.000000 0.000000 

-0.000000 -0.000000 0.000000 
0.000000 -0.000000 0.000000 
0.000000 0.000000 0.000000 

-0.000000 -0.000000 0.000000 
0.000000 -0.000000 0.000000 
0.000000 0.000000 0.000000 

-0.000000 -0.000000 0.000000 
0.000000 -0.000000 0.000000 
0.000000 0.000000 0.000000 

0.000000 0.000000 0.000000 
0.000000 0.000000 0.000000 
0.000000 0.000000 0.000000 

0.000000 0.000000 0.000000 
0.000000 0.000000 0.000000 
0.000000 0.000000 0.000000 

-0.000000 0.000000 0.000000 
0.000000 -0.000000 0.000000 
0.000000 0.000000 0.000000 

0.000000 0.000000 0.000000 
0.000000 0.000000 0.000000 
0.000000 0.000000 0.000000 

0.000000 0.000000 0.000000 
0.000000 0.000000 0.000000 
0.000000 0.000000 0.000000 

0.000000 0.000000 0.000000 
0.000000 0.000000 0.000000 
0.000000 0.000000 0.000000 

-0.000000 -0.000000 0.000000 
0.000000 -0.000000 0.000000 
0.000000 0.000000 0.000000 

0.000000 -0.000000 0.000000 
0.000000 0.000000 0.000000 
0.000000 0.000000 0.000000 

0.000000 -0.000000 0.000000 
0.000000 -0.000000 0.000000 
0.000000 0.000000 0.000000 

0.000000 -0.000000 0.000000 
0.000000 0.000000 0.000000 
0.000000 0.000000 0.000000 

-0.000000 0.000000 0.000000 
0.000000 -0.000000 0.000000 
0.000000 0.000000 0.000000 

-0.000000 0.000000 0.000000 
0.000000 -0.000000 0.000000 
0.000000 0.000000 0.000000 

-0.000000 0.000000 0.000000 
0.000000 -0.000000 0.000000 
0.000000 0.000000 0.000000 

-0.000000 -0.000000 0.000000 
0.000000 -0.000000 0.000000 
0.000000 0.000000 0.000000 

0.000000 0.000000 0.000000 
0.000000 0.000000 0.000000 
0.000000 0.000000 0.000000 

0.000000 0.000000 0.000000 
0.000000 0.000000 0.000000 
0.000000 0.000000 0.000000 

0.000000 0.000000 0.000000 
0.000000 0.000000 0.000000 
0.000000 0.000000 0.000000 

0.000000 0.000000 0.000000 
0.000000 0.000000 0.000000 
0.000000 0.000000 0.000000 

0.000000 -0.000000 0.000000 
0.000000 0.000000 0.000000 
0.000000 0.000000 0.000000 

0.000000 0.000000 0.000000 
0.000000 0.000000 0.000000 
0.000000 0.000000 0.000000 

-0.000000 -0.000000 0.000000 
0.000000 -0.000000 0.000000 
0.000000 0.000000 0.000000 

-0.000000 -0.000000 0.000000 
0.000000 -0.000000 0.000000 
0.000000 0.000000 0.000000 

0.000000 -0.000000 0.000000 
0.000000 0.000000 0.000000 
0.000000 0.000000 0.000000 

0.000000 -0.000000 0.000000 
0.000000 0.000000 0.000000 
0.000000 0.000000 0.000000 

0.000000 -0.000000 0.000000 
0.000000 0.000000 0.000000 
0.000000 0.000000 0.000000 

-0.000000 -0.000000 0.000000 
0.000000 -0.000000 0.000000 
0.000000 0.000000 0.000000 

-0.000000 -0.000000 0.000000 
0.000000 -0.000000 0.000000 
0.000000 0.000000 0.000000 

0.000000 0.000000 0.000000 
0.000000 0.000000 0.000000 
0.000000 0.000000 0.000000 

0.000000 0.000000 0.000000 
0.000000 0.000000 0.000000 
0.000000 0.000000 0.000000 

0.000000 0.000000 0.000000 
0.000000 0.000000 0.000000 
0.000000 0.000000 0.000000 

-0.000000 0.000000 0.000000 
0.000000 -0.000000 0.000000 
0.000000 0.000000 0.000000 

0.000000 0.000000 0.000000 
0.000000 0.000000 0.000000 
0.000000 0.000000 0.000000 

-0.000000 0.000000 0.000000 
0.000000 -0.000000 0.000000 
0.000000 0.000000 0.000000 

0.000000 -0.000000 0.000000 
0.000000 0.000000 0.000000 
0.000000 0.000000 0.000000 

-0.000000 0.000000 0.000000 
0.000000 -0.000000 0.000000 
0.000000 0.000000 0.000000 

-0.000000 0.000000 0.000000 
0.000000 -0.000000 0.000000 
0.000000 0.000000 0.000000 

0.000000 -0.000000 0.000000 
0.000000 0.000000 0.000000 
0.000000 0.000000 0.000000 

-0.000000 -0.000000 0.000000 
0.000000 -0.000000 0.000000 
0.000000 0.000000 0.000000 

0.000000 0.000000 0.000000 
0.000000 0.000000 0.000000 
0.000000 0.000000 0.000000 

-0.000000 -0.000000 0.000000 
0.000000 0.000000 0.000000 
0.000000 0.000000 0.000000 

-0.000000 -0.000000 0.000000 
0.000000 -0.000000 0.000000 
0.000000 0.000000 0.000000 

-0.000000 -0.000000 0.000000 
0.000000 -0.000000 0.000000 
0.000000 0.000000 0.000000 

-0.000000 -0.000000 0.000000 
0.000000 -0.000000 0.000000 
0.000000 0.000000 0.000000 

-0.000000 -0.000000 0.000000 
0.000000 -0.000000 0.000000 
0.000000 0.000000 0.000000 

-0.000000 0.000000 0.000000 
0.000000 -0.000000 0.000000 
0.000000 0.000000 0.000000 

-0.000000 -0.000000 0.000000 
0.000000 -0.000000 0.000000 
0.000000 0.000000 0.000000 

-0.000000 -0.000000 0.000000 
0.000000 -0.000000 0.000000 
0.000000 0.000000 0.000000 

-0.000000 -0.000000 0.000000 
0.000000 -0.000000 0.000000 
0.000000 0.000000 0.000000 

-0.000000 0.000000 0.000000 
0.000000 -0.000000 0.000000 
0.000000 0.000000 0.000000 

-0.000000 -0.000000 0.000000 
0.000000 -0.000000 0.000000 
0.000000 0.000000 0.000000 

0.000000 -0.000000 0.000000 
0.000000 0.000000 0.000000 
0.000000 0.000000 0.000000 

0.000000 -0.000000 0.000000 
0.000000 0.000000 0.000000 
0.000000 0.000000 0.000000 

0.000000 -0.000000 0.000000 
0.000000 0.000000 0.000000 
0.000000 0.000000 0.000000 

0.000000 -0.000000 0.000000 
0.000000 0.000000 0.000000 
0.000000 0.000000 0.000000 

0.000000 0.000000 0.000000 
0.000000 0.000000 0.000000 
0.000000 0.000000 0.000000 

0.000000 -0.000000 0.000000 
0.000000 0.000000 0.000000 
0.000000 0.000000 0.000000 

-0.000000 -0.000000 0.000000 
0.000000 -0.000000 0.000000 
0.000000 0.000000 0.000000 

-0.000000 0.000000 0.000000 
0.000000 -0.000000 0.000000 
0.000000 0.000000 0.000000 

-0.000000 0.000000 0.000000 
0.000000 -0.000000 0.000000 
0.000000 0.000000 0.000000 

-0.000000 -0.000000 0.000000 
0.000000 -0.000000 0.000000 
0.000000 0.000000 0.000000 

-0.000000 0.000000 0.000000 
0.000000 -0.000000 0.000000 
0.000000 0.000000 0.000000 

0.000000 0.000000 0.000000 
0.000000 0.000000 0.000000 
0.000000 0.000000 0.000000 

0.000000 0.000000 0.000000 
0.000000 0.000000 0.000000 
0.000000 0.000000 0.000000 

-0.000000 0.000000 0.000000 
0.000000 0.000000 0.000000 
0.000000 0.000000 0.000000 

-0.000000 0.000000 0.000000 
0.000000 -0.000000 0.000000 
0.000000 0.000000 0.000000 

0.000000 -0.000000 0.000000 
0.000000 0.000000 0.000000 
0.000000 0.000000 0.000000 

0.000000 -0.000000 0.000000 
0.000000 0.000000 0.000000 
0.000000 0.000000 0.000000 

-0.000000 -0.000000 0.000000 
0.000000 -0.000000 0.000000 
0.000000 0.000000 0.000000 

0.000000 -0.000000 0.000000 
0.000000 0.000000 0.000000 
0.000000 0.000000 0.000000 

0.000000 -0.000000 0.000000 
0.000000 0.000000 0.000000 
0.000000 0.000000 0.000000 

0.000000 -0.000000 0.000000 
0.000000 0.000000 0.000000 
0.000000 0.000000 0.000000 

-0.000000 0.000000 0.000000 
0.000000 -0.000000 0.000000 
0.000000 0.000000 0.000000 

0.000000 0.000000 0.000000 
0.000000 0.000000 0.000000 
0.000000 0.000000 0.000000 

-0.000000 0.000000 0.000000 
0.000000 -0.000000 0.000000 
0.000000 0.000000 0.000000 

-0.000000 -0.000000 0.000000 
0.000000 -0.000000 0.000000 
0.000000 0.000000 0.000000 

-0.000000 0.000000 0.000000 
0.000000 -0.000000 0.000000 
0.000000 0.000000 0.000000 

-0.000000 0.000000 0.000000 
0.000000 -0.000000 0.000000 
0.000000 0.000000 0.000000 

-0.000000 0.000000 0.000000 
0.000000 0.000000 0.000000 
0.000000 0.000000 0.000000 

0.000000 0.000000 0.000000 
0.000000 0.000000 0.000000 
0.000000 0.000000 0.000000 

-0.000000 -0.000000 0.000000 
0.000000 -0.000000 0.000000 
0.000000 0.000000 0.000000 

-0.000000 -0.000000 0.000000 
0.000000 -0.000000 0.000000 
0.000000 0.000000 0.000000 

0.000000 -0.000000 0.000000 
0.000000 0.000000 0.000000 
0.000000 0.000000 0.000000 

0.000000 0.000000 0.000000 
0.000000 0.000000 0.000000 
0.000000 0.000000 0.000000 

0.000000 0.000000 0.000000 
0.000000 0.000000 0.000000 
0.000000 0.000000 0.000000 

-0.000000 0.000000 0.000000 
0.000000 -0.000000 0.000000 
0.000000 0.000000 0.000000 

0.000000 -0.000000 0.000000 
0.000000 0.000000 0.000000 
0.000000 0.000000 0.000000 

0.000000 -0.000000 0.000000 
0.000000 0.000000 0.000000 
0.000000 0.000000 0.000000 

0.000000 0.000000 0.000000 
0.000000 0.000000 0.000000 
0.000000 0.000000 0.000000 

-0.000000 0.000000 0.000000 
0.000000 -0.000000 0.000000 
0.000000 0.000000 0.000000 

-0.000000 0.000000 0.000000 
0.000000 -0.000000 0.000000 
0.000000 0.000000 0.000000 

-0.000000 0.000000 0.000000 
0.000000 -0.000000 0.000000 
0.000000 0.000000 0.000000 

-0.000000 0.000000 0.000000 
0.000000 -0.000000 0.000000 
0.000000 0.000000 0.000000 

-0.000000 -0.000000 0.000000 
0.000000 -0.000000 0.000000 
0.000000 0.000000 0.000000 

0.000000 -0.000000 0.000000 
0.000000 0.000000 0.000000 
0.000000 0.000000 0.000000 

0.000000 0.000000 0.000000 
0.000000 0.000000 0.000000 
0.000000 0.000000 0.000000 

-0.000000 0.000000 0.000000 
0.000000 -0.000000 0.000000 
0.000000 0.000000 0.000000 

0.000000 0.000000 0.000000 
0.000000 0.000000 0.000000 
0.000000 0.000000 0.000000 

0.000000 -0.000000 0.000000 
0.000000 0.000000 0.000000 
0.000000 0.000000 0.000000 

0.000000 0.000000 0.000000 
0.000000 0.000000 0.000000 
0.000000 0.000000 0.000000 

-0.000000 -0.000000 0.000000 
0.000000 0.000000 0.000000 
0.000000 0.000000 0.000000 

0.000000 0.000000 0.000000 
0.000000 0.000000 0.000000 
0.000000 0.000000 0.000000 

-0.000000 -0.000000 0.000000 
0.000000 -0.000000 0.000000 
0.000000 0.000000 0.000000 

-0.000000 -0.000000 0.000000 
0.000000 -0.000000 0.000000 
0.000000 0.000000 0.000000 

-0.000000 -0.000000 0.000000 
0.000000 -0.000000 0.000000 
0.000000 0.000000 0.000000 

-0.000000 -0.000000 0.000000 
0.000000 -0.000000 0.000000 
0.000000 0.000000 0.000000 

0.000000 -0.000000 0.000000 
0.000000 0.000000 0.000000 
0.000000 0.000000 0.000000 

0.000000 -0.000000 0.000000 
0.000000 0.000000 0.000000 
0.000000 0.000000 0.000000 

-0.000000 -0.000000 0.000000 
0.000000 -0.000000 0.000000 
0.000000 0.000000 0.000000 

0.000000 0.000000 0.000000 
0.000000 0.000000 0.000000 
0.000000 0.000000 0.000000 

0.000000 -0.000000 0.000000 
0.000000 0.000000 0.000000 
0.000000 0.000000 0.000000 

0.000000 -0.000000 0.000000 
0.000000 0.000000 0.000000 
0.000000 0.000000 0.000000 

0.000000 0.000000 0.000000 
0.000000 0.000000 0.000000 
0.000000 0.000000 0.000000 

0.000000 -0.000000 0.000000 
0.000000 0.000000 0.000000 
0.000000 0.000000 0.000000 

0.000000 0.000000 0.000000 
0.000000 0.000000 0.000000 
0.000000 0.000000 0.000000 

0.000000 -0.000000 0.000000 
0.000000 0.000000 0.000000 
0.000000 0.000000 0.000000 

0.000000 0.000000 0.000000 
0.000000 0.000000 0.000000 
0.000000 0.000000 0.000000 

-0.000000 -0.000000 0.000000 
0.000000 -0.000000 0.000000 
0.000000 0.000000 0.000000 

0.000000 0.000000 0.000000 
0.000000 0.000000 0.000000 
0.000000 0.000000 0.000000 

-0.000000 0.000000 0.000000 
0.000000 -0.000000 0.000000 
0.000000 0.000000 0.000000 

0.000000 0.000000 0.000000 
0.000000 -0.000000 0.000000 
0.000000 0.000000 0.000000 

-0.000000 -0.000000 0.000000 
0.000000 -0.000000 0.000000 
0.000000 0.000000 0.000000 

-0.000000 -0.000000 0.000000 
0.000000 -0.000000 0.000000 
0.000000 0.000000 0.000000 

-0.000000 0.000000 0.000000 
0.000000 -0.000000 0.000000 
0.000000 0.000000 0.000000 

-0.000000 0.000000 0.000000 
0.000000 -0.000000 0.000000 
0.000000 0.000000 0.000000 

0.000000 0.000000 0.000000 
0.000000 0.000000 0.000000 
0.000000 0.000000 0.000000 

0.000000 -0.000000 0.000000 
0.000000 0.000000 0.000000 
0.000000 0.000000 0.000000 

0.000000 0.000000 0.000000 
0.000000 -0.000000 0.000000 
0.000000 0.000000 0.000000 

-0.000000 0.000000 0.000000 
0.000000 -0.000000 0.000000 
0.000000 0.000000 0.000000 

0.000000 -0.000000 0.000000 
0.000000 0.000000 0.000000 
0.000000 0.000000 0.000000 

-0.000000 0.000000 0.000000 
0.000000 -0.000000 0.000000 
0.000000 0.000000 0.000000 

-0.000000 0.000000 0.000000 
0.000000 -0.000000 0.000000 
0.000000 0.000000 0.000000 

-0.000000 -0.000000 0.000000 
0.000000 -0.000000 0.000000 
0.000000 0.000000 0.000000 

-0.000000 0.000000 0.000000 
0.000000 -0.000000 0.000000 
0.000000 0.000000 0.000000 

0.000000 0.000000 0.000000 
0.000000 0.000000 0.000000 
0.000000 0.000000 0.000000 

0.000000 0.000000 0.000000 
0.000000 0.000000 0.000000 
0.000000 0.000000 0.000000 

0.000000 0.000000 0.000000 
0.000000 0.000000 0.000000 
0.000000 0.000000 0.000000 

0.000000 0.000000 0.000000 
0.000000 0.000000 0.000000 
0.000000 0.000000 0.000000 

0.000000 -0.000000 0.000000 
0.000000 0.000000 0.000000 
0.000000 0.000000 0.000000 

0.000000 -0.000000 0.000000 
0.000000 0.000000 0.000000 
0.000000 0.000000 0.000000 

0.000000 0.000000 0.000000 
0.000000 0.000000 0.000000 
0.000000 0.000000 0.000000 

-0.000000 0.000000 0.000000 
0.000000 -0.000000 0.000000 
0.000000 0.000000 0.000000 

-0.000000 0.000000 0.000000 
0.000000 -0.000000 0.000000 
0.000000 0.000000 0.000000 

-0.000000 0.000000 0.000000 
0.000000 -0.000000 0.000000 
0.000000 0.000000 0.000000 

-0.000000 0.000000 0.000000 
0.000000 -0.000000 0.000000 
0.000000 0.000000 0.000000 

-0.000000 -0.000000 0.000000 
0.000000 -0.000000 0.000000 
0.000000 0.000000 0.000000 

0.000000 -0.000000 0.000000 
0.000000 0.000000 0.000000 
0.000000 0.000000 0.000000 

-0.000000 -0.000000 0.000000 
0.000000 -0.000000 0.000000 
0.000000 0.000000 0.000000 

0.000000 -0.000000 0.000000 
0.000000 0.000000 0.000000 
0.000000 0.000000 0.000000 

0.000000 0.000000 0.000000 
0.000000 0.000000 0.000000 
0.000000 0.000000 0.000000 

0.000000 0.000000 0.000000 
0.000000 0.000000 0.000000 
0.000000 0.000000 0.000000 

0.000000 0.000000 0.000000 
0.000000 0.000000 0.000000 
0.000000 0.000000 0.000000 

0.000000 0.000000 0.000000 
0.000000 0.000000 0.000000 
0.000000 0.000000 0.000000 

0.000000 0.000000 0.000000 
0.000000 0.000000 0.000000 
0.000000 0.000000 0.000000 

0.000000 0.000000 0.000000 
0.000000 0.000000 0.000000 
0.000000 0.000000 0.000000 

-0.000000 0.000000 0.000000 
0.000000 -0.000000 0.000000 
0.000000 0.000000 0.000000 

0.000000 -0.000000 0.000000 
0.000000 0.000000 0.000000 
0.000000 0.000000 0.000000 

0.000000 0.000000 0.000000 
0.000000 0.000000 0.000000 
0.000000 0.000000 0.000000 

0.000000 0.000000 0.000000 
0.000000 0.000000 0.000000 
0.000000 0.000000 0.000000 

0.000000 -0.000000 0.000000 
0.000000 0.000000 0.000000 
0.000000 0.000000 0.000000 

0.000000 0.000000 0.000000 
0.000000 0.000000 0.000000 
0.000000 0.000000 0.000000 

-0.000000 0.000000 0.000000 
0.000000 -0.000000 0.000000 
0.000000 0.000000 0.000000 

0.000000 -0.000000 0.000000 
0.000000 0.000000 0.000000 
0.000000 0.000000 0.000000 

-0.000000 -0.000000 0.000000 
0.000000 -0.000000 0.000000 
0.000000 0.000000 0.000000 

0.000000 0.000000 0.000000 
0.000000 0.000000 0.000000 
0.000000 0.000000 0.000000 

0.000000 -0.000000 0.000000 
0.000000 0.000000 0.000000 
0.000000 0.000000 0.000000 

0.000000 -0.000000 0.000000 
0.000000 0.000000 0.000000 
0.000000 0.000000 0.000000 

-0.000000 0.000000 0.000000 
0.000000 -0.000000 0.000000 
0.000000 0.000000 0.000000 

-0.000000 0.000000 0.000000 
0.000000 -0.000000 0.000000 
0.000000 0.000000 0.000000 

0.000000 0.000000 0.000000 
0.000000 0.000000 0.000000 
0.000000 0.000000 0.000000 

0.000000 -0.000000 0.000000 
0.000000 0.000000 0.000000 
0.000000 0.000000 0.000000 

0.000000 -0.000000 0.000000 
0.000000 0.000000 0.000000 
0.000000 0.000000 0.000000 

0.000000 -0.000000 0.000000 
0.000000 0.000000 0.000000 
0.000000 0.000000 0.000000 

-0.000000 -0.000000 0.000000 
0.000000 -0.000000 0.000000 
0.000000 0.000000 0.000000 

-0.000000 -0.000000 0.000000 
0.000000 -0.000000 0.000000 
0.000000 0.000000 0.000000 

-0.000000 0.000000 0.000000 
0.000000 -0.000000 0.000000 
0.000000 0.000000 0.000000 

-0.000000 0.000000 0.000000 
0.000000 -0.000000 0.000000 
0.000000 0.000000 0.000000 

-0.000000 0.000000 0.000000 
0.000000 -0.000000 0.000000 
0.000000 0.000000 0.000000 

-0.000000 0.000000 0.000000 
0.000000 -0.000000 0.000000 
0.000000 0.000000 0.000000 

-0.000000 0.000000 0.000000 
0.000000 -0.000000 0.000000 
0.000000 0.000000 0.000000 

-0.000000 -0.000000 0.000000 
0.000000 -0.000000 0.000000 
0.000000 0.000000 0.000000 

0.000000 0.000000 0.000000 
0.000000 0.000000 0.000000 
0.000000 0.000000 0.000000 

-0.000000 0.000000 0.000000 
0.000000 -0.000000 0.000000 
0.000000 0.000000 0.000000 

-0.000000 -0.000000 0.000000 
0.000000 -0.000000 0.000000 
0.000000 0.000000 0.000000 

0.000000 0.000000 0.000000 
0.000000 0.000000 0.000000 
0.000000 0.000000 0.000000 

0.000000 -0.000000 0.000000 
0.000000 0.000000 0.000000 
0.000000 0.000000 0.000000 

0.000000 0.000000 0.000000 
0.000000 0.000000 0.000000 
0.000000 0.000000 0.000000 

0.000000 0.000000 0.000000 
0.000000 0.000000 0.000000 
0.000000 0.000000 0.000000 

0.000000 0.000000 0.000000 
0.000000 0.000000 0.000000 
0.000000 0.000000 0.000000 

0.000000 0.000000 0.000000 
0.000000 0.000000 0.000000 
0.000000 0.000000 0.000000 

-0.000000 -0.000000 0.000000 
0.000000 -0.000000 0.000000 
0.000000 0.000000 0.000000 

-0.000000 0.000000 0.000000 
0.000000 -0.000000 0.000000 
0.000000 0.000000 0.000000 

-0.000000 0.000000 0.000000 
0.000000 -0.000000 0.000000 
0.000000 0.000000 0.000000 

-0.000000 0.000000 0.000000 
0.000000 -0.000000 0.000000 
0.000000 0.000000 0.000000 

-0.000000 -0.000000 0.000000 
0.000000 -0.000000 0.000000 
0.000000 0.000000 0.000000 

-0.000000 0.000000 0.000000 
0.000000 -0.000000 0.000000 
0.000000 0.000000 0.000000 

-0.000000 -0.000000 0.000000 
0.000000 -0.000000 0.000000 
0.000000 0.000000 0.000000 

-0.000000 0.000000 0.000000 
0.000000 -0.000000 0.000000 
0.000000 0.000000 0.000000 

-0.000000 0.000000 0.000000 
0.000000 -0.000000 0.000000 
0.000000 0.000000 0.000000 

-0.000000 0.000000 0.000000 
0.000000 -0.000000 0.000000 
0.000000 0.000000 0.000000 

0.000000 0.000000 0.000000 
0.000000 0.000000 0.000000 
0.000000 0.000000 0.000000 

0.000000 0.000000 0.000000 
0.000000 0.000000 0.000000 
0.000000 0.000000 0.000000 

0.000000 0.000000 0.000000 
0.000000 0.000000 0.000000 
0.000000 0.000000 0.000000 

0.000000 0.000000 0.000000 
0.000000 0.000000 0.000000 
0.000000 0.000000 0.000000 

-0.000000 0.000000 0.000000 
0.000000 -0.000000 0.000000 
0.000000 0.000000 0.000000 

0.000000 -0.000000 0.000000 
0.000000 0.000000 0.000000 
0.000000 0.000000 0.000000 

0.000000 0.000000 0.000000 
0.000000 0.000000 0.000000 
0.000000 0.000000 0.000000 

0.000000 0.000000 0.000000 
0.000000 0.000000 0.000000 
0.000000 0.000000 0.000000 

0.000000 0.000000 0.000000 
0.000000 0.000000 0.000000 
0.000000 0.000000 0.000000 

-0.000000 0.000000 0.000000 
0.000000 -0.000000 0.000000 
0.000000 0.000000 0.000000 

-0.000000 0.000000 0.000000 
0.000000 -0.000000 0.000000 
0.000000 0.000000 0.000000 

0.000000 0.000000 0.000000 
0.000000 -0.000000 0.000000 
0.000000 0.000000 0.000000 

-0.000000 0.000000 0.000000 
0.000000 -0.000000 0.000000 
0.000000 0.000000 0.000000 

-0.000000 0.000000 0.000000 
0.000000 -0.000000 0.000000 
0.000000 0.000000 0.000000 

0.000000 0.000000 0.000000 
0.000000 0.000000 0.000000 
0.000000 0.000000 0.000000 

-0.000000 0.000000 0.000000 
0.000000 -0.000000 0.000000 
0.000000 0.000000 0.000000 

-0.000000 -0.000000 0.000000 
0.000000 -0.000000 0.000000 
0.000000 0.000000 0.000000 

-0.000000 -0.000000 0.000000 
0.000000 -0.000000 0.000000 
0.000000 0.000000 0.000000 

-0.000000 -0.000000 0.000000 
0.000000 -0.000000 0.000000 
0.000000 0.000000 0.000000 

-0.000000 -0.000000 0.000000 
0.000000 -0.000000 0.000000 
0.000000 0.000000 0.000000 

-0.000000 -0.000000 0.000000 
0.000000 -0.000000 0.000000 
0.000000 0.000000 0.000000 

-0.000000 -0.000000 0.000000 
0.000000 -0.000000 0.000000 
0.000000 0.000000 0.000000 

0.000000 -0.000000 0.000000 
0.000000 0.000000 0.000000 
0.000000 0.000000 0.000000 

0.000000 -0.000000 0.000000 
0.000000 0.000000 0.000000 
0.000000 0.000000 0.000000 

0.000000 -0.000000 0.000000 
0.000000 0.000000 0.000000 
0.000000 0.000000 0.000000 

0.000000 0.000000 0.000000 
0.000000 0.000000 0.000000 
0.000000 0.000000 0.000000 

0.000000 0.000000 0.000000 
0.000000 0.000000 0.000000 
0.000000 0.000000 0.000000 

-0.000000 -0.000000 0.000000 
0.000000 0.000000 0.000000 
0.000000 0.000000 0.000000 

-0.000000 -0.000000 0.000000 
0.000000 0.000000 0.000000 
0.000000 0.000000 0.000000 

0.000000 0.000000 0.000000 
0.000000 0.000000 0.000000 
0.000000 0.000000 0.000000 

0.000000 0.000000 0.000000 
0.000000 0.000000 0.000000 
0.000000 0.000000 0.000000 

-0.000000 0.000000 0.000000 
0.000000 0.000000 0.000000 
0.000000 0.000000 0.000000 

-0.000000 0.000000 0.000000 
0.000000 -0.000000 0.000000 
0.000000 0.000000 0.000000 

0.000000 0.000000 0.000000 
0.000000 0.000000 0.000000 
0.000000 0.000000 0.000000 

0.000000 0.000000 0.000000 
0.000000 0.000000 0.000000 
0.000000 0.000000 0.000000 

-0.000000 0.000000 0.000000 
0.000000 -0.000000 0.000000 
0.000000 0.000000 0.000000 

-0.000000 0.000000 0.000000 
0.000000 -0.000000 0.000000 
0.000000 0.000000 0.000000 

-0.000000 0.000000 0.000000 
0.000000 -0.000000 0.000000 
0.000000 0.000000 0.000000 

0.000000 0.000000 0.000000 
0.000000 0.000000 0.000000 
0.000000 0.000000 0.000000 

-0.000000 -0.000000 0.000000 
0.000000 -0.000000 0.000000 
0.000000 0.000000 0.000000 

-0.000000 -0.000000 0.000000 
0.000000 -0.000000 0.000000 
0.000000 0.000000 0.000000 

0.000000 0.000000 0.000000 
0.000000 0.000000 0.000000 
0.000000 0.000000 0.000000 

0.000000 -0.000000 0.000000 
0.000000 0.000000 0.000000 
0.000000 0.000000 0.000000 

-0.000000 0.000000 0.000000 
0.000000 -0.000000 0.000000 
0.000000 0.000000 0.000000 

0.000000 0.000000 0.000000 
0.000000 0.000000 0.000000 
0.000000 0.000000 0.000000 

0.000000 -0.000000 0.000000 
0.000000 0.000000 0.000000 
0.000000 0.000000 0.000000 

0.000000 0.000000 0.000000 
0.000000 0.000000 0.000000 
0.000000 0.000000 0.000000 

0.000000 0.000000 0.000000 
0.000000 0.000000 0.000000 
0.000000 0.000000 0.000000 

0.000000 0.000000 0.000000 
0.000000 0.000000 0.000000 
0.000000 0.000000 0.000000 

-0.000000 0.000000 0.000000 
0.000000 -0.000000 0.000000 
0.000000 0.000000 0.000000 

0.000000 0.000000 0.000000 
0.000000 0.000000 0.000000 
0.000000 0.000000 0.000000 

0.000000 0.000000 0.000000 
0.000000 0.000000 0.000000 
0.000000 0.000000 0.000000 

-0.000000 0.000000 0.000000 
0.000000 -0.000000 0.000000 
0.000000 0.000000 0.000000 

TENSORS STRAIN float 
0.000000 0.000000 0.000000 
0.000000 -0.000000 0.000000 
0.000000 0.000000 0.000000 

0.000000 0.000000 0.000000 
0.000000 -0.000000 0.000000 
0.000000 0.000000 0.000000 

0.000000 -0.000000 0.000000 
0.000000 -0.000000 0.000000 
0.000000 0.000000 0.000000 

0.000000 0.000000 0.000000 
0.000000 -0.000000 0.000000 
0.000000 0.000000 0.000000 

0.000000 -0.000000 0.000000 
0.000000 -0.000000 0.000000 
0.000000 0.000000 0.000000 

0.000000 -0.000000 0.000000 
0.000000 -0.000000 0.000000 
0.000000 0.000000 0.000000 

0.000000 -0.000000 0.000000 
0.000000 -0.000000 0.000000 
0.000000 0.000000 0.000000 

-0.000000 0.000000 0.000000 
0.000000 -0.000000 0.000000 
0.000000 0.000000 0.000000 

-0.000000 0.000000 0.000000 
0.000000 -0.000000 0.000000 
0.000000 0.000000 0.000000 

-0.000000 0.000000 0.000000 
0.000000 -0.000000 0.000000 
0.000000 0.000000 0.000000 

0.000000 0.000000 0.000000 
0.000000 -0.000000 0.000000 
0.000000 0.000000 0.000000 

-0.000000 0.000000 0.000000 
0.000000 -0.000000 0.000000 
0.000000 0.000000 0.000000 

-0.000000 0.000000 0.000000 
0.000000 -0.000000 0.000000 
0.000000 0.000000 0.000000 

-0.000000 -0.000000 0.000000 
0.000000 0.000000 0.000000 
0.000000 0.000000 0.000000 

-0.000000 -0.000000 0.000000 
0.000000 0.000000 0.000000 
0.000000 0.000000 0.000000 

-0.000000 -0.000000 0.000000 
0.000000 0.000000 0.000000 
0.000000 0.000000 0.000000 

0.000000 -0.000000 0.000000 
0.000000 -0.000000 0.000000 
0.000000 0.000000 0.000000 

0.000000 0.000000 0.000000 
0.000000 -0.000000 0.000000 
0.000000 0.000000 0.000000 

-0.000000 0.000000 0.000000 
0.000000 -0.000000 0.000000 
0.000000 0.000000 0.000000 

-0.000000 -0.000000 0.000000 
0.000000 -0.000000 0.000000 
0.000000 0.000000 0.000000 

-0.000000 -0.000000 0.000000 
0.000000 0.000000 0.000000 
0.000000 0.000000 0.000000 

-0.000000 -0.000000 0.000000 
0.000000 -0.000000 0.000000 
0.000000 0.000000 0.000000 

-0.000000 -0.000000 0.000000 
0.000000 0.000000 0.000000 
0.000000 0.000000 0.000000 

0.000000 0.000000 0.000000 
0.000000 0.000000 0.000000 
0.000000 0.000000 0.000000 

0.000000 0.000000 0.000000 
0.000000 -0.000000 0.000000 
0.000000 0.000000 0.000000 

0.000000 0.000000 0.000000 
0.000000 -0.000000 0.000000 
0.000000 0.000000 0.000000 

0.000000 0.000000 0.000000 
0.000000 -0.000000 0.000000 
0.000000 0.000000 0.000000 

0.000000 0.000000 0.000000 
0.000000 -0.000000 0.000000 
0.000000 0.000000 0.000000 

0.000000 0.000000 0.000000 
0.000000 -0.000000 0.000000 
0.000000 0.000000 0.000000 

0.000000 0.000000 0.000000 
0.000000 -0.000000 0.000000 
0.000000 0.000000 0.000000 

0.000000 0.000000 0.000000 
0.000000 0.000000 0.000000 
0.000000 0.000000 0.000000 

-0.000000 0.000000 0.000000 
0.000000 0.000000 0.000000 
0.000000 0.000000 0.000000 

-0.000000 0.000000 0.000000 
0.000000 0.000000 0.000000 
0.000000 0.000000 0.000000 

-0.000000 0.000000 0.000000 
0.000000 0.000000 0.000000 
0.000000 0.000000 0.000000 

-0.000000 -0.000000 0.000000 
0.000000 0.000000 0.000000 
0.000000 0.000000 0.000000 

-0.000000 -0.000000 0.000000 
0.000000 0.000000 0.000000 
0.000000 0.000000 0.000000 

-0.000000 0.000000 0.000000 
0.000000 0.000000 0.000000 
0.000000 0.000000 0.000000 

-0.000000 0.000000 0.000000 
0.000000 0.000000 0.000000 
0.000000 0.000000 0.000000 

-0.000000 -0.000000 0.000000 
0.000000 0.000000 0.000000 
0.000000 0.000000 0.000000 

-0.000000 -0.000000 0.000000 
0.000000 0.000000 0.000000 
0.000000 0.000000 0.000000 

-0.000000 0.000000 0.000000 
0.000000 0.000000 0.000000 
0.000000 0.000000 0.000000 

-0.000000 -0.000000 0.000000 
0.000000 0.000000 0.000000 
0.000000 0.000000 0.000000 

-0.000000 -0.000000 0.000000 
0.000000 0.000000 0.000000 
0.000000 0.000000 0.000000 

-0.000000 -0.000000 0.000000 
0.000000 -0.000000 0.000000 
0.000000 0.000000 0.000000 

-0.000000 0.000000 0.000000 
0.000000 0.000000 0.000000 
0.000000 0.000000 0.000000 

-0.000000 0.000000 0.000000 
0.000000 0.000000 0.000000 
0.000000 0.000000 0.000000 

-0.000000 0.000000 0.000000 
0.000000 0.000000 0.000000 
0.000000 0.000000 0.000000 

-0.000000 0.000000 0.000000 
0.000000 -0.000000 0.000000 
0.000000 0.000000 0.000000 

-0.000000 -0.000000 0.000000 
0.000000 0.000000 0.000000 
0.000000 0.000000 0.000000 

-0.000000 -0.000000 0.000000 
0.000000 0.000000 0.000000 
0.000000 0.000000 0.000000 

-0.000000 0.000000 0.000000 
0.000000 0.000000 0.000000 
0.000000 0.000000 0.000000 

-0.000000 0.000000 0.000000 
0.000000 0.000000 0.000000 
0.000000 0.000000 0.000000 

0.000000 0.000000 0.000000 
0.000000 -0.000000 0.000000 
0.000000 0.000000 0.000000 

0.000000 0.000000 0.000000 
0.000000 -0.000000 0.000000 
0.000000 0.000000 0.000000 

0.000000 0.000000 0.000000 
0.000000 -0.000000 0.000000 
0.000000 0.000000 0.000000 

0.000000 0.000000 0.000000 
0.000000 0.000000 0.000000 
0.000000 0.000000 0.000000 

-0.000000 -0.000000 0.000000 
0.000000 -0.000000 0.000000 
0.000000 0.000000 0.000000 

-0.000000 -0.000000 0.000000 
0.000000 0.000000 0.000000 
0.000000 0.000000 0.000000 

-0.000000 -0.000000 0.000000 
0.000000 0.000000 0.000000 
0.000000 0.000000 0.000000 

-0.000000 -0.000000 0.000000 
0.000000 0.000000 0.000000 
0.000000 0.000000 0.000000 

-0.000000 -0.000000 0.000000 
0.000000 -0.000000 0.000000 
0.000000 0.000000 0.000000 

0.000000 0.000000 0.000000 
0.000000 -0.000000 0.000000 
0.000000 0.000000 0.000000 

0.000000 0.000000 0.000000 
0.000000 -0.000000 0.000000 
0.000000 0.000000 0.000000 

0.000000 0.000000 0.000000 
0.000000 -0.000000 0.000000 
0.000000 0.000000 0.000000 

0.000000 0.000000 0.000000 
0.000000 0.000000 0.000000 
0.000000 0.000000 0.000000 

-0.000000 0.000000 0.000000 
0.000000 -0.000000 0.000000 
0.000000 0.000000 0.000000 

-0.000000 0.000000 0.000000 
0.000000 0.000000 0.000000 
0.000000 0.000000 0.000000 

-0.000000 -0.000000 0.000000 
0.000000 0.000000 0.000000 
0.000000 0.000000 0.000000 

-0.000000 -0.000000 0.000000 
0.000000 0.000000 0.000000 
0.000000 0.000000 0.000000 

-0.000000 -0.000000 0.000000 
0.000000 0.000000 0.000000 
0.000000 0.000000 0.000000 

-0.000000 -0.000000 0.000000 
0.000000 0.000000 0.000000 
0.000000 0.000000 0.000000 

-0.000000 -0.000000 0.000000 
0.000000 -0.000000 0.000000 
0.000000 0.000000 0.000000 

-0.000000 -0.000000 0.000000 
0.000000 0.000000 0.000000 
0.000000 0.000000 0.000000 

0.000000 0.000000 0.000000 
0.000000 0.000000 0.000000 
0.000000 0.000000 0.000000 

-0.000000 -0.000000 0.000000 
0.000000 0.000000 0.000000 
0.000000 0.000000 0.000000 

-0.000000 0.000000 0.000000 
0.000000 -0.000000 0.000000 
0.000000 0.000000 0.000000 

-0.000000 0.000000 0.000000 
0.000000 0.000000 0.000000 
0.000000 0.000000 0.000000 

-0.000000 -0.000000 0.000000 
0.000000 0.000000 0.000000 
0.000000 0.000000 0.000000 

-0.000000 -0.000000 0.000000 
0.000000 0.000000 0.000000 
0.000000 0.000000 0.000000 

0.000000 -0.000000 0.000000 
0.000000 0.000000 0.000000 
0.000000 0.000000 0.000000 

0.000000 -0.000000 0.000000 
0.000000 0.000000 0.000000 
0.000000 0.000000 0.000000 

0.000000 -0.000000 0.000000 
0.000000 0.000000 0.000000 
0.000000 0.000000 0.000000 

0.000000 -0.000000 0.000000 
0.000000 0.000000 0.000000 
0.000000 0.000000 0.000000 

-0.000000 -0.000000 0.000000 
0.000000 0.000000 0.000000 
0.000000 0.000000 0.000000 

-0.000000 -0.000000 0.000000 
0.000000 0.000000 0.000000 
0.000000 0.000000 0.000000 

-0.000000 -0.000000 0.000000 
0.000000 -0.000000 0.000000 
0.000000 0.000000 0.000000 

-0.000000 -0.000000 0.000000 
0.000000 -0.000000 0.000000 
0.000000 0.000000 0.000000 

-0.000000 -0.000000 0.000000 
0.000000 -0.000000 0.000000 
0.000000 0.000000 0.000000 

-0.000000 -0.000000 0.000000 
0.000000 -0.000000 0.000000 
0.000000 0.000000 0.000000 

-0.000000 -0.000000 0.000000 
0.000000 -0.000000 0.000000 
0.000000 0.000000 0.000000 

0.000000 -0.000000 0.000000 
0.000000 -0.000000 0.000000 
0.000000 0.000000 0.000000 

0.000000 -0.000000 0.000000 
0.000000 -0.000000 0.000000 
0.000000 0.000000 0.000000 

0.000000 -0.000000 0.000000 
0.000000 0.000000 0.000000 
0.000000 0.000000 0.000000 

-0.000000 -0.000000 0.000000 
0.000000 0.000000 0.000000 
0.000000 0.000000 0.000000 

-0.000000 -0.000000 0.000000 
0.000000 0.000000 0.000000 
0.000000 0.000000 0.000000 

-0.000000 -0.000000 0.000000 
0.000000 -0.000000 0.000000 
0.000000 0.000000 0.000000 

-0.000000 -0.000000 0.000000 
0.000000 0.000000 0.000000 
0.000000 0.000000 0.000000 

-0.000000 -0.000000 0.000000 
0.000000 0.000000 0.000000 
0.000000 0.000000 0.000000 

-0.000000 0.000000 0.000000 
0.000000 0.000000 0.000000 
0.000000 0.000000 0.000000 

-0.000000 0.000000 0.000000 
0.000000 -0.000000 0.000000 
0.000000 0.000000 0.000000 

0.000000 0.000000 0.000000 
0.000000 -0.000000 0.000000 
0.000000 0.000000 0.000000 

0.000000 0.000000 0.000000 
0.000000 -0.000000 0.000000 
0.000000 0.000000 0.000000 

0.000000 0.000000 0.000000 
0.000000 -0.000000 0.000000 
0.000000 0.000000 0.000000 

0.000000 0.000000 0.000000 
0.000000 -0.000000 0.000000 
0.000000 0.000000 0.000000 

0.000000 0.000000 0.000000 
0.000000 -0.000000 0.000000 
0.000000 0.000000 0.000000 

0.000000 0.000000 0.000000 
0.000000 -0.000000 0.000000 
0.000000 0.000000 0.000000 

0.000000 0.000000 0.000000 
0.000000 -0.000000 0.000000 
0.000000 0.000000 0.000000 

0.000000 0.000000 0.000000 
0.000000 -0.000000 0.000000 
0.000000 0.000000 0.000000 

0.000000 0.000000 0.000000 
0.000000 0.000000 0.000000 
0.000000 0.000000 0.000000 

0.000000 0.000000 0.000000 
0.000000 0.000000 0.000000 
0.000000 0.000000 0.000000 

-0.000000 -0.000000 0.000000 
0.000000 0.000000 0.000000 
0.000000 0.000000 0.000000 

-0.000000 -0.000000 0.000000 
0.000000 0.000000 0.000000 
0.000000 0.000000 0.000000 

-0.000000 -0.000000 0.000000 
0.000000 0.000000 0.000000 
0.000000 0.000000 0.000000 

-0.000000 0.000000 0.000000 
0.000000 0.000000 0.000000 
0.000000 0.000000 0.000000 

-0.000000 -0.000000 0.000000 
0.000000 0.000000 0.000000 
0.000000 0.000000 0.000000 

0.000000 0.000000 0.000000 
0.000000 -0.000000 0.000000 
0.000000 0.000000 0.000000 

0.000000 0.000000 0.000000 
0.000000 0.000000 0.000000 
0.000000 0.000000 0.000000 

-0.000000 0.000000 0.000000 
0.000000 0.000000 0.000000 
0.000000 0.000000 0.000000 

-0.000000 0.000000 0.000000 
0.000000 0.000000 0.000000 
0.000000 0.000000 0.000000 

-0.000000 0.000000 0.000000 
0.000000 0.000000 0.000000 
0.000000 0.000000 0.000000 

0.000000 0.000000 0.000000 
0.000000 -0.000000 0.000000 
0.000000 0.000000 0.000000 

0.000000 -0.000000 0.000000 
0.000000 -0.000000 0.000000 
0.000000 0.000000 0.000000 

-0.000000 0.000000 0.000000 
0.000000 -0.000000 0.000000 
0.000000 0.000000 0.000000 

-0.000000 0.000000 0.000000 
0.000000 -0.000000 0.000000 
0.000000 0.000000 0.000000 

-0.000000 0.000000 0.000000 
0.000000 -0.000000 0.000000 
0.000000 0.000000 0.000000 

-0.000000 0.000000 0.000000 
0.000000 0.000000 0.000000 
0.000000 0.000000 0.000000 

-0.000000 -0.000000 0.000000 
0.000000 -0.000000 0.000000 
0.000000 0.000000 0.000000 

-0.000000 0.000000 0.000000 
0.000000 -0.000000 0.000000 
0.000000 0.000000 0.000000 

-0.000000 0.000000 0.000000 
0.000000 -0.000000 0.000000 
0.000000 0.000000 0.000000 

0.000000 -0.000000 0.000000 
0.000000 0.000000 0.000000 
0.000000 0.000000 0.000000 

0.000000 -0.000000 0.000000 
0.000000 0.000000 0.000000 
0.000000 0.000000 0.000000 

0.000000 -0.000000 0.000000 
0.000000 -0.000000 0.000000 
0.000000 0.000000 0.000000 

-0.000000 -0.000000 0.000000 
0.000000 0.000000 0.000000 
0.000000 0.000000 0.000000 

-0.000000 -0.000000 0.000000 
0.000000 0.000000 0.000000 
0.000000 0.000000 0.000000 

0.000000 0.000000 0.000000 
0.000000 0.000000 0.000000 
0.000000 0.000000 0.000000 

-0.000000 -0.000000 0.000000 
0.000000 0.000000 0.000000 
0.000000 0.000000 0.000000 

-0.000000 0.000000 0.000000 
0.000000 0.000000 0.000000 
0.000000 0.000000 0.000000 

0.000000 0.000000 0.000000 
0.000000 -0.000000 0.000000 
0.000000 0.000000 0.000000 

0.000000 0.000000 0.000000 
0.000000 -0.000000 0.000000 
0.000000 0.000000 0.000000 

0.000000 0.000000 0.000000 
0.000000 -0.000000 0.000000 
0.000000 0.000000 0.000000 

-0.000000 0.000000 0.000000 
0.000000 0.000000 0.000000 
0.000000 0.000000 0.000000 

-0.000000 0.000000 0.000000 
0.000000 0.000000 0.000000 
0.000000 0.000000 0.000000 

-0.000000 0.000000 0.000000 
0.000000 0.000000 0.000000 
0.000000 0.000000 0.000000 

-0.000000 0.000000 0.000000 
0.000000 0.000000 0.000000 
0.000000 0.000000 0.000000 

-0.000000 0.000000 0.000000 
0.000000 0.000000 0.000000 
0.000000 0.000000 0.000000 

-0.000000 -0.000000 0.000000 
0.000000 0.000000 0.000000 
0.000000 0.000000 0.000000 

0.000000 -0.000000 0.000000 
0.000000 0.000000 0.000000 
0.000000 0.000000 0.000000 

0.000000 -0.000000 0.000000 
0.000000 0.000000 0.000000 
0.000000 0.000000 0.000000 

0.000000 0.000000 0.000000 
0.000000 -0.000000 0.000000 
0.000000 0.000000 0.000000 

0.000000 0.000000 0.000000 
0.000000 -0.000000 0.000000 
0.000000 0.000000 0.000000 

0.000000 0.000000 0.000000 
0.000000 -0.000000 0.000000 
0.000000 0.000000 0.000000 

-0.000000 0.000000 0.000000 
0.000000 -0.000000 0.000000 
0.000000 0.000000 0.000000 

-0.000000 0.000000 0.000000 
0.000000 -0.000000 0.000000 
0.000000 0.000000 0.000000 

-0.000000 -0.000000 0.000000 
0.000000 -0.000000 0.000000 
0.000000 0.000000 0.000000 

-0.000000 0.000000 0.000000 
0.000000 -0.000000 0.000000 
0.000000 0.000000 0.000000 

-0.000000 0.000000 0.000000 
0.000000 -0.000000 0.000000 
0.000000 0.000000 0.000000 

0.000000 0.000000 0.000000 
0.000000 -0.000000 0.000000 
0.000000 0.000000 0.000000 

0.000000 0.000000 0.000000 
0.000000 0.000000 0.000000 
0.000000 0.000000 0.000000 

0.000000 0.000000 0.000000 
0.000000 0.000000 0.000000 
0.000000 0.000000 0.000000 

0.000000 0.000000 0.000000 
0.000000 0.000000 0.000000 
0.000000 0.000000 0.000000 

0.000000 0.000000 0.000000 
0.000000 0.000000 0.000000 
0.000000 0.000000 0.000000 

-0.000000 -0.000000 0.000000 
0.000000 0.000000 0.000000 
0.000000 0.000000 0.000000 

-0.000000 -0.000000 0.000000 
0.000000 -0.000000 0.000000 
0.000000 0.000000 0.000000 

-0.000000 -0.000000 0.000000 
0.000000 0.000000 0.000000 
0.000000 0.000000 0.000000 

0.000000 0.000000 0.000000 
0.000000 -0.000000 0.000000 
0.000000 0.000000 0.000000 

0.000000 0.000000 0.000000 
0.000000 -0.000000 0.000000 
0.000000 0.000000 0.000000 

-0.000000 0.000000 0.000000 
0.000000 -0.000000 0.000000 
0.000000 0.000000 0.000000 

-0.000000 0.000000 0.000000 
0.000000 -0.000000 0.000000 
0.000000 0.000000 0.000000 

0.000000 0.000000 0.000000 
0.000000 -0.000000 0.000000 
0.000000 0.000000 0.000000 

0.000000 0.000000 0.000000 
0.000000 0.000000 0.000000 
0.000000 0.000000 0.000000 

0.000000 0.000000 0.000000 
0.000000 0.000000 0.000000 
0.000000 0.000000 0.000000 

0.000000 -0.000000 0.000000 
0.000000 -0.000000 0.000000 
0.000000 0.000000 0.000000 

-0.000000 0.000000 0.000000 
0.000000 -0.000000 0.000000 
0.000000 0.000000 0.000000 

-0.000000 0.000000 0.000000 
0.000000 -0.000000 0.000000 
0.000000 0.000000 0.000000 

-0.000000 0.000000 0.000000 
0.000000 0.000000 0.000000 
0.000000 0.000000 0.000000 

-0.000000 0.000000 0.000000 
0.000000 0.000000 0.000000 
0.000000 0.000000 0.000000 

-0.000000 -0.000000 0.000000 
0.000000 0.000000 0.000000 
0.000000 0.000000 0.000000 

-0.000000 0.000000 0.000000 
0.000000 0.000000 0.000000 
0.000000 0.000000 0.000000 

-0.000000 -0.000000 0.000000 
0.000000 0.000000 0.000000 
0.000000 0.000000 0.000000 

-0.000000 0.000000 0.000000 
0.000000 -0.000000 0.000000 
0.000000 0.000000 0.000000 

-0.000000 0.000000 0.000000 
0.000000 -0.000000 0.000000 
0.000000 0.000000 0.000000 

0.000000 0.000000 0.000000 
0.000000 -0.000000 0.000000 
0.000000 0.000000 0.000000 

0.000000 0.000000 0.000000 
0.000000 -0.000000 0.000000 
0.000000 0.000000 0.000000 

0.000000 -0.000000 0.000000 
0.000000 0.000000 0.000000 
0.000000 0.000000 0.000000 

-0.000000 -0.000000 0.000000 
0.000000 0.000000 0.000000 
0.000000 0.000000 0.000000 

-0.000000 -0.000000 0.000000 
0.000000 0.000000 0.000000 
0.000000 0.000000 0.000000 

-0.000000 -0.000000 0.000000 
0.000000 0.000000 0.000000 
0.000000 0.000000 0.000000 

-0.000000 -0.000000 0.000000 
0.000000 -0.000000 0.000000 
0.000000 0.000000 0.000000 

-0.000000 -0.000000 0.000000 
0.000000 0.000000 0.000000 
0.000000 0.000000 0.000000 

-0.000000 0.000000 0.000000 
0.000000 -0.000000 0.000000 
0.000000 0.000000 0.000000 

-0.000000 0.000000 0.000000 
0.000000 0.000000 0.000000 
0.000000 0.000000 0.000000 

-0.000000 -0.000000 0.000000 
0.000000 0.000000 0.000000 
0.000000 0.000000 0.000000 

-0.000000 0.000000 0.000000 
0.000000 0.000000 0.000000 
0.000000 0.000000 0.000000 

-0.000000 0.000000 0.000000 
0.000000 0.000000 0.000000 
0.000000 0.000000 0.000000 

-0.000000 0.000000 0.000000 
0.000000 0.000000 0.000000 
0.000000 0.000000 0.000000 

-0.000000 0.000000 0.000000 
0.000000 -0.000000 0.000000 
0.000000 0.000000 0.000000 

-0.000000 0.000000 0.000000 
0.000000 -0.000000 0.000000 
0.000000 0.000000 0.000000 

-0.000000 0.000000 0.000000 
0.000000 0.000000 0.000000 
0.000000 0.000000 0.000000 

-0.000000 0.000000 0.000000 
0.000000 -0.000000 0.000000 
0.000000 0.000000 0.000000 

-0.000000 -0.000000 0.000000 
0.000000 0.000000 0.000000 
0.000000 0.000000 0.000000 

-0.000000 -0.000000 0.000000 
0.000000 0.000000 0.000000 
0.000000 0.000000 0.000000 

-0.000000 -0.000000 0.000000 
0.000000 0.000000 0.000000 
0.000000 0.000000 0.000000 

-0.000000 -0.000000 0.000000 
0.000000 0.000000 0.000000 
0.000000 0.000000 0.000000 

-0.000000 -0.000000 0.000000 
0.000000 0.000000 0.000000 
0.000000 0.000000 0.000000 

-0.000000 0.000000 0.000000 
0.000000 0.000000 0.000000 
0.000000 0.000000 0.000000 

0.000000 0.000000 0.000000 
0.000000 0.000000 0.000000 
0.000000 0.000000 0.000000 

0.000000 0.000000 0.000000 
0.000000 0.000000 0.000000 
0.000000 0.000000 0.000000 

0.000000 0.000000 0.000000 
0.000000 0.000000 0.000000 
0.000000 0.000000 0.000000 

-0.000000 0.000000 0.000000 
0.000000 -0.000000 0.000000 
0.000000 0.000000 0.000000 

0.000000 0.000000 0.000000 
0.000000 -0.000000 0.000000 
0.000000 0.000000 0.000000 

0.000000 0.000000 0.000000 
0.000000 -0.000000 0.000000 
0.000000 0.000000 0.000000 

0.000000 -0.000000 0.000000 
0.000000 0.000000 0.000000 
0.000000 0.000000 0.000000 

-0.000000 0.000000 0.000000 
0.000000 0.000000 0.000000 
0.000000 0.000000 0.000000 

-0.000000 0.000000 0.000000 
0.000000 0.000000 0.000000 
0.000000 0.000000 0.000000 

-0.000000 0.000000 0.000000 
0.000000 0.000000 0.000000 
0.000000 0.000000 0.000000 

-0.000000 0.000000 0.000000 
0.000000 -0.000000 0.000000 
0.000000 0.000000 0.000000 

-0.000000 0.000000 0.000000 
0.000000 -0.000000 0.000000 
0.000000 0.000000 0.000000 

-0.000000 0.000000 0.000000 
0.000000 -0.000000 0.000000 
0.000000 0.000000 0.000000 

0.000000 -0.000000 0.000000 
0.000000 0.000000 0.000000 
0.000000 0.000000 0.000000 

-0.000000 0.000000 0.000000 
0.000000 -0.000000 0.000000 
0.000000 0.000000 0.000000 

0.000000 0.000000 0.000000 
0.000000 -0.000000 0.000000 
0.000000 0.000000 0.000000 

-0.000000 -0.000000 0.000000 
0.000000 0.000000 0.000000 
0.000000 0.000000 0.000000 

-0.000000 0.000000 0.000000 
0.000000 0.000000 0.000000 
0.000000 0.000000 0.000000 

-0.000000 -0.000000 0.000000 
0.000000 0.000000 0.000000 
0.000000 0.000000 0.000000 

-0.000000 -0.000000 0.000000 
0.000000 -0.000000 0.000000 
0.000000 0.000000 0.000000 

0.000000 0.000000 0.000000 
0.000000 -0.000000 0.000000 
0.000000 0.000000 0.000000 

0.000000 0.000000 0.000000 
0.000000 -0.000000 0.000000 
0.000000 0.000000 0.000000 

0.000000 0.000000 0.000000 
0.000000 -0.000000 0.000000 
0.000000 0.000000 0.000000 

0.000000 0.000000 0.000000 
0.000000 0.000000 0.000000 
0.000000 0.000000 0.000000 

0.000000 0.000000 0.000000 
0.000000 -0.000000 0.000000 
0.000000 0.000000 0.000000 

0.000000 0.000000 0.000000 
0.000000 -0.000000 0.000000 
0.000000 0.000000 0.000000 

0.000000 0.000000 0.000000 
0.000000 -0.000000 0.000000 
0.000000 0.000000 0.000000 

0.000000 0.000000 0.000000 
0.000000 -0.000000 0.000000 
0.000000 0.000000 0.000000 

0.000000 -0.000000 0.000000 
0.000000 -0.000000 0.000000 
0.000000 0.000000 0.000000 

-0.000000 -0.000000 0.000000 
0.000000 0.000000 0.000000 
0.000000 0.000000 0.000000 

-0.000000 -0.000000 0.000000 
0.000000 0.000000 0.000000 
0.000000 0.000000 0.000000 

-0.000000 -0.000000 0.000000 
0.000000 0.000000 0.000000 
0.000000 0.000000 0.000000 

-0.000000 -0.000000 0.000000 
0.000000 0.000000 0.000000 
0.000000 0.000000 0.000000 

-0.000000 -0.000000 0.000000 
0.000000 0.000000 0.000000 
0.000000 0.000000 0.000000 

-0.000000 -0.000000 0.000000 
0.000000 0.000000 0.000000 
0.000000 0.000000 0.000000 

-0.000000 0.000000 0.000000 
0.000000 0.000000 0.000000 
0.000000 0.000000 0.000000 

-0.000000 0.000000 0.000000 
0.000000 0.000000 0.000000 
0.000000 0.000000 0.000000 

-0.000000 0.000000 0.000000 
0.000000 0.000000 0.000000 
0.000000 0.000000 0.000000 

-0.000000 -0.000000 0.000000 
0.000000 0.000000 0.000000 
0.000000 0.000000 0.000000 

0.000000 -0.000000 0.000000 
0.000000 -0.000000 0.000000 
0.000000 0.000000 0.000000 

0.000000 -0.000000 0.000000 
0.000000 0.000000 0.000000 
0.000000 0.000000 0.000000 

0.000000 -0.000000 0.000000 
0.000000 -0.000000 0.000000 
0.000000 0.000000 0.000000 

0.000000 -0.000000 0.000000 
0.000000 -0.000000 0.000000 
0.000000 0.000000 0.000000 

0.000000 -0.000000 0.000000 
0.000000 0.000000 0.000000 
0.000000 0.000000 0.000000 

0.000000 -0.000000 0.000000 
0.000000 0.000000 0.000000 
0.000000 0.000000 0.000000 

0.000000 -0.000000 0.000000 
0.000000 -0.000000 0.000000 
0.000000 0.000000 0.000000 

0.000000 -0.000000 0.000000 
0.000000 -0.000000 0.000000 
0.000000 0.000000 0.000000 

0.000000 -0.000000 0.000000 
0.000000 -0.000000 0.000000 
0.000000 0.000000 0.000000 

-0.000000 0.000000 0.000000 
0.000000 -0.000000 0.000000 
0.000000 0.000000 0.000000 

-0.000000 0.000000 0.000000 
0.000000 0.000000 0.000000 
0.000000 0.000000 0.000000 

-0.000000 0.000000 0.000000 
0.000000 0.000000 0.000000 
0.000000 0.000000 0.000000 

-0.000000 0.000000 0.000000 
0.000000 0.000000 0.000000 
0.000000 0.000000 0.000000 

-0.000000 0.000000 0.000000 
0.000000 0.000000 0.000000 
0.000000 0.000000 0.000000 

-0.000000 -0.000000 0.000000 
0.000000 0.000000 0.000000 
0.000000 0.000000 0.000000 

-0.000000 -0.000000 0.000000 
0.000000 0.000000 0.000000 
0.000000 0.000000 0.000000 

-0.000000 -0.000000 0.000000 
0.000000 -0.000000 0.000000 
0.000000 0.000000 0.000000 

-0.000000 -0.000000 0.000000 
0.000000 0.000000 0.000000 
0.000000 0.000000 0.000000 

-0.000000 -0.000000 0.000000 
0.000000 0.000000 0.000000 
0.000000 0.000000 0.000000 

0.000000 -0.000000 0.000000 
0.000000 0.000000 0.000000 
0.000000 0.000000 0.000000 

0.000000 -0.000000 0.000000 
0.000000 0.000000 0.000000 
0.000000 0.000000 0.000000 

-0.000000 -0.000000 0.000000 
0.000000 0.000000 0.000000 
0.000000 0.000000 0.000000 

-0.000000 -0.000000 0.000000 
0.000000 0.000000 0.000000 
0.000000 0.000000 0.000000 

-0.000000 -0.000000 0.000000 
0.000000 0.000000 0.000000 
0.000000 0.000000 0.000000 

-0.000000 -0.000000 0.000000 
0.000000 0.000000 0.000000 
0.000000 0.000000 0.000000 

-0.000000 -0.000000 0.000000 
0.000000 0.000000 0.000000 
0.000000 0.000000 0.000000 

-0.000000 -0.000000 0.000000 
0.000000 0.000000 0.000000 
0.000000 0.000000 0.000000 

-0.000000 -0.000000 0.000000 
0.000000 -0.000000 0.000000 
0.000000 0.000000 0.000000 

-0.000000 -0.000000 0.000000 
0.000000 -0.000000 0.000000 
0.000000 0.000000 0.000000 

-0.000000 0.000000 0.000000 
0.000000 -0.000000 0.000000 
0.000000 0.000000 0.000000 

-0.000000 0.000000 0.000000 
0.000000 -0.000000 0.000000 
0.000000 0.000000 0.000000 

-0.000000 -0.000000 0.000000 
0.000000 -0.000000 0.000000 
0.000000 0.000000 0.000000 

-0.000000 0.000000 0.000000 
0.000000 -0.000000 0.000000 
0.000000 0.000000 0.000000 

-0.000000 -0.000000 0.000000 
0.000000 -0.000000 0.000000 
0.000000 0.000000 0.000000 

-0.000000 0.000000 0.000000 
0.000000 0.000000 0.000000 
0.000000 0.000000 0.000000 

-0.000000 0.000000 0.000000 
0.000000 0.000000 0.000000 
0.000000 0.000000 0.000000 

-0.000000 -0.000000 0.000000 
0.000000 -0.000000 0.000000 
0.000000 0.000000 0.000000 

-0.000000 -0.000000 0.000000 
0.000000 -0.000000 0.000000 
0.000000 0.000000 0.000000 

-0.000000 0.000000 0.000000 
0.000000 0.000000 0.000000 
0.000000 0.000000 0.000000 

-0.000000 -0.000000 0.000000 
0.000000 -0.000000 0.000000 
0.000000 0.000000 0.000000 

-0.000000 0.000000 0.000000 
0.000000 0.000000 0.000000 
0.000000 0.000000 0.000000 

-0.000000 0.000000 0.000000 
0.000000 0.000000 0.000000 
0.000000 0.000000 0.000000 

-0.000000 -0.000000 0.000000 
0.000000 0.000000 0.000000 
0.000000 0.000000 0.000000 

-0.000000 -0.000000 0.000000 
0.000000 0.000000 0.000000 
0.000000 0.000000 0.000000 

0.000000 0.000000 0.000000 
0.000000 0.000000 0.000000 
0.000000 0.000000 0.000000 

-0.000000 -0.000000 0.000000 
0.000000 0.000000 0.000000 
0.000000 0.000000 0.000000 

-0.000000 -0.000000 0.000000 
0.000000 0.000000 0.000000 
0.000000 0.000000 0.000000 

-0.000000 -0.000000 0.000000 
0.000000 0.000000 0.000000 
0.000000 0.000000 0.000000 

-0.000000 -0.000000 0.000000 
0.000000 0.000000 0.000000 
0.000000 0.000000 0.000000 

-0.000000 0.000000 0.000000 
0.000000 -0.000000 0.000000 
0.000000 0.000000 0.000000 

-0.000000 -0.000000 0.000000 
0.000000 -0.000000 0.000000 
0.000000 0.000000 0.000000 

-0.000000 -0.000000 0.000000 
0.000000 0.000000 0.000000 
0.000000 0.000000 0.000000 

0.000000 -0.000000 0.000000 
0.000000 -0.000000 0.000000 
0.000000 0.000000 0.000000 

0.000000 -0.000000 0.000000 
0.000000 0.000000 0.000000 
0.000000 0.000000 0.000000 

0.000000 0.000000 0.000000 
0.000000 0.000000 0.000000 
0.000000 0.000000 0.000000 

0.000000 0.000000 0.000000 
0.000000 -0.000000 0.000000 
0.000000 0.000000 0.000000 

0.000000 -0.000000 0.000000 
0.000000 0.000000 0.000000 
0.000000 0.000000 0.000000 

-0.000000 0.000000 0.000000 
0.000000 0.000000 0.000000 
0.000000 0.000000 0.000000 

-0.000000 -0.000000 0.000000 
0.000000 -0.000000 0.000000 
0.000000 0.000000 0.000000 

-0.000000 0.000000 0.000000 
0.000000 0.000000 0.000000 
0.000000 0.000000 0.000000 

-0.000000 0.000000 0.000000 
0.000000 0.000000 0.000000 
0.000000 0.000000 0.000000 

0.000000 -0.000000 0.000000 
0.000000 -0.000000 0.000000 
0.000000 0.000000 0.000000 

-0.000000 -0.000000 0.000000 
0.000000 0.000000 0.000000 
0.000000 0.000000 0.000000 

0.000000 -0.000000 0.000000 
0.000000 0.000000 0.000000 
0.000000 0.000000 0.000000 

-0.000000 -0.000000 0.000000 
0.000000 0.000000 0.000000 
0.000000 0.000000 0.000000 

0.000000 -0.000000 0.000000 
0.000000 0.000000 0.000000 
0.000000 0.000000 0.000000 

-0.000000 -0.000000 0.000000 
0.000000 0.000000 0.000000 
0.000000 0.000000 0.000000 

-0.000000 -0.000000 0.000000 
0.000000 0.000000 0.000000 
0.000000 0.000000 0.000000 

-0.000000 0.000000 0.000000 
0.000000 0.000000 0.000000 
0.000000 0.000000 0.000000 

-0.000000 -0.000000 0.000000 
0.000000 0.000000 0.000000 
0.000000 0.000000 0.000000 

-0.000000 0.000000 0.000000 
0.000000 0.000000 0.000000 
0.000000 0.000000 0.000000 

-0.000000 0.000000 0.000000 
0.000000 0.000000 0.000000 
0.000000 0.000000 0.000000 

-0.000000 0.000000 0.000000 
0.000000 0.000000 0.000000 
0.000000 0.000000 0.000000 

-0.000000 -0.000000 0.000000 
0.000000 0.000000 0.000000 
0.000000 0.000000 0.000000 

-0.000000 0.000000 0.000000 
0.000000 0.000000 0.000000 
0.000000 0.000000 0.000000 

-0.000000 -0.000000 0.000000 
0.000000 0.000000 0.000000 
0.000000 0.000000 0.000000 

-0.000000 0.000000 0.000000 
0.000000 0.000000 0.000000 
0.000000 0.000000 0.000000 

-0.000000 -0.000000 0.000000 
0.000000 0.000000 0.000000 
0.000000 0.000000 0.000000 

0.000000 -0.000000 0.000000 
0.000000 0.000000 0.000000 
0.000000 0.000000 0.000000 

-0.000000 -0.000000 0.000000 
0.000000 -0.000000 0.000000 
0.000000 0.000000 0.000000 

-0.000000 -0.000000 0.000000 
0.000000 -0.000000 0.000000 
0.000000 0.000000 0.000000 

-0.000000 -0.000000 0.000000 
0.000000 -0.000000 0.000000 
0.000000 0.000000 0.000000 

-0.000000 -0.000000 0.000000 
0.000000 -0.000000 0.000000 
0.000000 0.000000 0.000000 

-0.000000 -0.000000 0.000000 
0.000000 -0.000000 0.000000 
0.000000 0.000000 0.000000 

-0.000000 0.000000 0.000000 
0.000000 0.000000 0.000000 
0.000000 0.000000 0.000000 

0.000000 0.000000 0.000000 
0.000000 -0.000000 0.000000 
0.000000 0.000000 0.000000 

0.000000 0.000000 0.000000 
0.000000 0.000000 0.000000 
0.000000 0.000000 0.000000 

0.000000 0.000000 0.000000 
0.000000 -0.000000 0.000000 
0.000000 0.000000 0.000000 

0.000000 0.000000 0.000000 
0.000000 -0.000000 0.000000 
0.000000 0.000000 0.000000 

-0.000000 -0.000000 0.000000 
0.000000 -0.000000 0.000000 
0.000000 0.000000 0.000000 

-0.000000 -0.000000 0.000000 
0.000000 0.000000 0.000000 
0.000000 0.000000 0.000000 

-0.000000 -0.000000 0.000000 
0.000000 0.000000 0.000000 
0.000000 0.000000 0.000000 

-0.000000 0.000000 0.000000 
0.000000 0.000000 0.000000 
0.000000 0.000000 0.000000 

-0.000000 0.000000 0.000000 
0.000000 0.000000 0.000000 
0.000000 0.000000 0.000000 

-0.000000 0.000000 0.000000 
0.000000 0.000000 0.000000 
0.000000 0.000000 0.000000 

-0.000000 0.000000 0.000000 
0.000000 0.000000 0.000000 
0.000000 0.000000 0.000000 

-0.000000 0.000000 0.000000 
0.000000 0.000000 0.000000 
0.000000 0.000000 0.000000 

-0.000000 0.000000 0.000000 
0.000000 -0.000000 0.000000 
0.000000 0.000000 0.000000 

-0.000000 0.000000 0.000000 
0.000000 -0.000000 0.000000 
0.000000 0.000000 0.000000 

-0.000000 0.000000 0.000000 
0.000000 -0.000000 0.000000 
0.000000 0.000000 0.000000 

-0.000000 -0.000000 0.000000 
0.000000 0.000000 0.000000 
0.000000 0.000000 0.000000 

0.000000 -0.000000 0.000000 
0.000000 0.000000 0.000000 
0.000000 0.000000 0.000000 

0.000000 -0.000000 0.000000 
0.000000 0.000000 0.000000 
0.000000 0.000000 0.000000 

-0.000000 0.000000 0.000000 
0.000000 -0.000000 0.000000 
0.000000 0.000000 0.000000 

0.000000 0.000000 0.000000 
0.000000 -0.000000 0.000000 
0.000000 0.000000 0.000000 

-0.000000 0.000000 0.000000 
0.000000 -0.000000 0.000000 
0.000000 0.000000 0.000000 

-0.000000 0.000000 0.000000 
0.000000 -0.000000 0.000000 
0.000000 0.000000 0.000000 

-0.000000 0.000000 0.000000 
0.000000 -0.000000 0.000000 
0.000000 0.000000 0.000000 

0.000000 0.000000 0.000000 
0.000000 0.000000 0.000000 
0.000000 0.000000 0.000000 

-0.000000 -0.000000 0.000000 
0.000000 0.000000 0.000000 
0.000000 0.000000 0.000000 

-0.000000 0.000000 0.000000 
0.000000 -0.000000 0.000000 
0.000000 0.000000 0.000000 

0.000000 0.000000 0.000000 
0.000000 -0.000000 0.000000 
0.000000 0.000000 0.000000 

0.000000 0.000000 0.000000 
0.000000 -0.000000 0.000000 
0.000000 0.000000 0.000000 

0.000000 -0.000000 0.000000 
0.000000 0.000000 0.000000 
0.000000 0.000000 0.000000 

-0.000000 -0.000000 0.000000 
0.000000 -0.000000 0.000000 
0.000000 0.000000 0.000000 

0.000000 0.000000 0.000000 
0.000000 0.000000 0.000000 
0.000000 0.000000 0.000000 

0.000000 0.000000 0.000000 
0.000000 -0.000000 0.000000 
0.000000 0.000000 0.000000 

-0.000000 -0.000000 0.000000 
0.000000 0.000000 0.000000 
0.000000 0.000000 0.000000 

-0.000000 -0.000000 0.000000 
0.000000 -0.000000 0.000000 
0.000000 0.000000 0.000000 

-0.000000 0.000000 0.000000 
0.000000 0.000000 0.000000 
0.000000 0.000000 0.000000 

-0.000000 0.000000 0.000000 
0.000000 0.000000 0.000000 
0.000000 0.000000 0.000000 

-0.000000 0.000000 0.000000 
0.000000 0.000000 0.000000 
0.000000 0.000000 0.000000 

-0.000000 0.000000 0.000000 
0.000000 -0.000000 0.000000 
0.000000 0.000000 0.000000 

-0.000000 -0.000000 0.000000 
0.000000 0.000000 0.000000 
0.000000 0.000000 0.000000 

-0.000000 -0.000000 0.000000 
0.000000 0.000000 0.000000 
0.000000 0.000000 0.000000 

-0.000000 -0.000000 0.000000 
0.000000 0.000000 0.000000 
0.000000 0.000000 0.000000 

-0.000000 -0.000000 0.000000 
0.000000 0.000000 0.000000 
0.000000 0.000000 0.000000 

0.000000 0.000000 0.000000 
0.000000 -0.000000 0.000000 
0.000000 0.000000 0.000000 

0.000000 0.000000 0.000000 
0.000000 -0.000000 0.000000 
0.000000 0.000000 0.000000 

0.000000 0.000000 0.000000 
0.000000 0.000000 0.000000 
0.000000 0.000000 0.000000 

0.000000 0.000000 0.000000 
0.000000 -0.000000 0.000000 
0.000000 0.000000 0.000000 

-0.000000 -0.000000 0.000000 
0.000000 -0.000000 0.000000 
0.000000 0.000000 0.000000 

-0.000000 -0.000000 0.000000 
0.000000 -0.000000 0.000000 
0.000000 0.000000 0.000000 

0.000000 0.000000 0.000000 
0.000000 -0.000000 0.000000 
0.000000 0.000000 0.000000 

0.000000 0.000000 0.000000 
0.000000 0.000000 0.000000 
0.000000 0.000000 0.000000 

0.000000 0.000000 0.000000 
0.000000 0.000000 0.000000 
0.000000 0.000000 0.000000 

0.000000 0.000000 0.000000 
0.000000 -0.000000 0.000000 
0.000000 0.000000 0.000000 

0.000000 0.000000 0.000000 
0.000000 0.000000 0.000000 
0.000000 0.000000 0.000000 

0.000000 0.000000 0.000000 
0.000000 0.000000 0.000000 
0.000000 0.000000 0.000000 

0.000000 0.000000 0.000000 
0.000000 -0.000000 0.000000 
0.000000 0.000000 0.000000 

0.000000 0.000000 0.000000 
0.000000 0.000000 0.000000 
0.000000 0.000000 0.000000 

0.000000 0.000000 0.000000 
0.000000 -0.000000 0.000000 
0.000000 0.000000 0.000000 

0.000000 0.000000 0.000000 
0.000000 -0.000000 0.000000 
0.000000 0.000000 0.000000 

0.000000 0.000000 0.000000 
0.000000 -0.000000 0.000000 
0.000000 0.000000 0.000000 

0.000000 0.000000 0.000000 
0.000000 -0.000000 0.000000 
0.000000 0.000000 0.000000 

0.000000 -0.000000 0.000000 
0.000000 -0.000000 0.000000 
0.000000 0.000000 0.000000 

-0.000000 -0.000000 0.000000 
0.000000 -0.000000 0.000000 
0.000000 0.000000 0.000000 

-0.000000 -0.000000 0.000000 
0.000000 0.000000 0.000000 
0.000000 0.000000 0.000000 

-0.000000 -0.000000 0.000000 
0.000000 0.000000 0.000000 
0.000000 0.000000 0.000000 

0.000000 0.000000 0.000000 
0.000000 -0.000000 0.000000 
0.000000 0.000000 0.000000 

0.000000 0.000000 0.000000 
0.000000 -0.000000 0.000000 
0.000000 0.000000 0.000000 

0.000000 0.000000 0.000000 
0.000000 -0.000000 0.000000 
0.000000 0.000000 0.000000 

0.000000 0.000000 0.000000 
0.000000 0.000000 0.000000 
0.000000 0.000000 0.000000 

0.000000 0.000000 0.000000 
0.000000 0.000000 0.000000 
0.000000 0.000000 0.000000 

-0.000000 0.000000 0.000000 
0.000000 0.000000 0.000000 
0.000000 0.000000 0.000000 

-0.000000 0.000000 0.000000 
0.000000 0.000000 0.000000 
0.000000 0.000000 0.000000 

-0.000000 -0.000000 0.000000 
0.000000 0.000000 0.000000 
0.000000 0.000000 0.000000 

-0.000000 -0.000000 0.000000 
0.000000 0.000000 0.000000 
0.000000 0.000000 0.000000 

-0.000000 0.000000 0.000000 
0.000000 -0.000000 0.000000 
0.000000 0.000000 0.000000 

-0.000000 0.000000 0.000000 
0.000000 -0.000000 0.000000 
0.000000 0.000000 0.000000 

0.000000 0.000000 0.000000 
0.000000 -0.000000 0.000000 
0.000000 0.000000 0.000000 

-0.000000 -0.000000 0.000000 
0.000000 0.000000 0.000000 
0.000000 0.000000 0.000000 

0.000000 -0.000000 0.000000 
0.000000 0.000000 0.000000 
0.000000 0.000000 0.000000 

0.000000 0.000000 0.000000 
0.000000 -0.000000 0.000000 
0.000000 0.000000 0.000000 

-0.000000 0.000000 0.000000 
0.000000 0.000000 0.000000 
0.000000 0.000000 0.000000 

-0.000000 0.000000 0.000000 
0.000000 0.000000 0.000000 
0.000000 0.000000 0.000000 

-0.000000 0.000000 0.000000 
0.000000 0.000000 0.000000 
0.000000 0.000000 0.000000 

-0.000000 -0.000000 0.000000 
0.000000 0.000000 0.000000 
0.000000 0.000000 0.000000 

-0.000000 -0.000000 0.000000 
0.000000 -0.000000 0.000000 
0.000000 0.000000 0.000000 

-0.000000 -0.000000 0.000000 
0.000000 -0.000000 0.000000 
0.000000 0.000000 0.000000 

0.000000 0.000000 0.000000 
0.000000 -0.000000 0.000000 
0.000000 0.000000 0.000000 

0.000000 -0.000000 0.000000 
0.000000 0.000000 0.000000 
0.000000 0.000000 0.000000 

0.000000 -0.000000 0.000000 
0.000000 -0.000000 0.000000 
0.000000 0.000000 0.000000 

0.000000 -0.000000 0.000000 
0.000000 0.000000 0.000000 
0.000000 0.000000 0.000000 

-0.000000 0.000000 0.000000 
0.000000 0.000000 0.000000 
0.000000 0.000000 0.000000 

-0.000000 0.000000 0.000000 
0.000000 0.000000 0.000000 
0.000000 0.000000 0.000000 

-0.000000 0.000000 0.000000 
0.000000 0.000000 0.000000 
0.000000 0.000000 0.000000 

-0.000000 0.000000 0.000000 
0.000000 0.000000 0.000000 
0.000000 0.000000 0.000000 

-0.000000 -0.000000 0.000000 
0.000000 0.000000 0.000000 
0.000000 0.000000 0.000000 

-0.000000 -0.000000 0.000000 
0.000000 -0.000000 0.000000 
0.000000 0.000000 0.000000 

-0.000000 -0.000000 0.000000 
0.000000 0.000000 0.000000 
0.000000 0.000000 0.000000 

-0.000000 -0.000000 0.000000 
0.000000 0.000000 0.000000 
0.000000 0.000000 0.000000 

-0.000000 0.000000 0.000000 
0.000000 0.000000 0.000000 
0.000000 0.000000 0.000000 

-0.000000 -0.000000 0.000000 
0.000000 0.000000 0.000000 
0.000000 0.000000 0.000000 

-0.000000 -0.000000 0.000000 
0.000000 0.000000 0.000000 
0.000000 0.000000 0.000000 

-0.000000 0.000000 0.000000 
0.000000 0.000000 0.000000 
0.000000 0.000000 0.000000 

-0.000000 0.000000 0.000000 
0.000000 0.000000 0.000000 
0.000000 0.000000 0.000000 

-0.000000 0.000000 0.000000 
0.000000 -0.000000 0.000000 
0.000000 0.000000 0.000000 

-0.000000 0.000000 0.000000 
0.000000 -0.000000 0.000000 
0.000000 0.000000 0.000000 

-0.000000 0.000000 0.000000 
0.000000 0.000000 0.000000 
0.000000 0.000000 0.000000 

-0.000000 0.000000 0.000000 
0.000000 -0.000000 0.000000 
0.000000 0.000000 0.000000 

-0.000000 -0.000000 0.000000 
0.000000 0.000000 0.000000 
0.000000 0.000000 0.000000 

-0.000000 -0.000000 0.000000 
0.000000 -0.000000 0.000000 
0.000000 0.000000 0.000000 

-0.000000 -0.000000 0.000000 
0.000000 0.000000 0.000000 
0.000000 0.000000 0.000000 

-0.000000 0.000000 0.000000 
0.000000 0.000000 0.000000 
0.000000 0.000000 0.000000 

-0.000000 -0.000000 0.000000 
0.000000 0.000000 0.000000 
0.000000 0.000000 0.000000 

-0.000000 -0.000000 0.000000 
0.000000 0.000000 0.000000 
0.000000 0.000000 0.000000 

-0.000000 -0.000000 0.000000 
0.000000 0.000000 0.000000 
0.000000 0.000000 0.000000 

-0.000000 0.000000 0.000000 
0.000000 0.000000 0.000000 
0.000000 0.000000 0.000000 

-0.000000 0.000000 0.000000 
0.000000 0.000000 0.000000 
0.000000 0.000000 0.000000 

-0.000000 0.000000 0.000000 
0.000000 -0.000000 0.000000 
0.000000 0.000000 0.000000 

-0.000000 0.000000 0.000000 
0.000000 -0.000000 0.000000 
0.000000 0.000000 0.000000 

-0.000000 -0.000000 0.000000 
0.000000 -0.000000 0.000000 
0.000000 0.000000 0.000000 

-0.000000 -0.000000 0.000000 
0.000000 -0.000000 0.000000 
0.000000 0.000000 0.000000 

-0.000000 0.000000 0.000000 
0.000000 0.000000 0.000000 
0.000000 0.000000 0.000000 

0.000000 -0.000000 0.000000 
0.000000 0.000000 0.000000 
0.000000 0.000000 0.000000 

0.000000 0.000000 0.000000 
0.000000 -0.000000 0.000000 
0.000000 0.000000 0.000000 

-0.000000 0.000000 0.000000 
0.000000 0.000000 0.000000 
0.000000 0.000000 0.000000 

0.000000 0.000000 0.000000 
0.000000 -0.000000 0.000000 
0.000000 0.000000 0.000000 

0.000000 0.000000 0.000000 
0.000000 -0.000000 0.000000 
0.000000 0.000000 0.000000 

-0.000000 0.000000 0.000000 
0.000000 0.000000 0.000000 
0.000000 0.000000 0.000000 

-0.000000 0.000000 0.000000 
0.000000 -0.000000 0.000000 
0.000000 0.000000 0.000000 

0.000000 0.000000 0.000000 
0.000000 -0.000000 0.000000 
0.000000 0.000000 0.000000 

0.000000 0.000000 0.000000 
0.000000 -0.000000 0.000000 
0.000000 0.000000 0.000000 

0.000000 0.000000 0.000000 
0.000000 -0.000000 0.000000 
0.000000 0.000000 0.000000 

-0.000000 -0.000000 0.000000 
0.000000 0.000000 0.000000 
0.000000 0.000000 0.000000 

-0.000000 0.000000 0.000000 
0.000000 0.000000 0.000000 
0.000000 0.000000 0.000000 

-0.000000 0.000000 0.000000 
0.000000 0.000000 0.000000 
0.000000 0.000000 0.000000 

-0.000000 -0.000000 0.000000 
0.000000 -0.000000 0.000000 
0.000000 0.000000 0.000000 

-0.000000 -0.000000 0.000000 
0.000000 0.000000 0.000000 
0.000000 0.000000 0.000000 

0.000000 -0.000000 0.000000 
0.000000 0.000000 0.000000 
0.000000 0.000000 0.000000 

0.000000 -0.000000 0.000000 
0.000000 0.000000 0.000000 
0.000000 0.000000 0.000000 

-0.000000 -0.000000 0.000000 
0.000000 0.000000 0.000000 
0.000000 0.000000 0.000000 

-0.000000 -0.000000 0.000000 
0.000000 0.000000 0.000000 
0.000000 0.000000 0.000000 

-0.000000 -0.000000 0.000000 
0.000000 -0.000000 0.000000 
0.000000 0.000000 0.000000 

-0.000000 -0.000000 0.000000 
0.000000 -0.000000 0.000000 
0.000000 0.000000 0.000000 

-0.000000 -0.000000 0.000000 
0.000000 -0.000000 0.000000 
0.000000 0.000000 0.000000 

-0.000000 -0.000000 0.000000 
0.000000 0.000000 0.000000 
0.000000 0.000000 0.000000 

-0.000000 -0.000000 0.000000 
0.000000 -0.000000 0.000000 
0.000000 0.000000 0.000000 

0.000000 0.000000 0.000000 
0.000000 0.000000 0.000000 
0.000000 0.000000 0.000000 

0.000000 0.000000 0.000000 
0.000000 -0.000000 0.000000 
0.000000 0.000000 0.000000 

-0.000000 -0.000000 0.000000 
0.000000 0.000000 0.000000 
0.000000 0.000000 0.000000 

-0.000000 -0.000000 0.000000 
0.000000 0.000000 0.000000 
0.000000 0.000000 0.000000 

-0.000000 -0.000000 0.000000 
0.000000 0.000000 0.000000 
0.000000 0.000000 0.000000 

-0.000000 -0.000000 0.000000 
0.000000 0.000000 0.000000 
0.000000 0.000000 0.000000 

-0.000000 0.000000 0.000000 
0.000000 0.000000 0.000000 
0.000000 0.000000 0.000000 

-0.000000 0.000000 0.000000 
0.000000 0.000000 0.000000 
0.000000 0.000000 0.000000 

-0.000000 0.000000 0.000000 
0.000000 0.000000 0.000000 
0.000000 0.000000 0.000000 

-0.000000 -0.000000 0.000000 
0.000000 0.000000 0.000000 
0.000000 0.000000 0.000000 

-0.000000 -0.000000 0.000000 
0.000000 -0.000000 0.000000 
0.000000 0.000000 0.000000 

-0.000000 -0.000000 0.000000 
0.000000 -0.000000 0.000000 
0.000000 0.000000 0.000000 

-0.000000 0.000000 0.000000 
0.000000 0.000000 0.000000 
0.000000 0.000000 0.000000 

-0.000000 -0.000000 0.000000 
0.000000 -0.000000 0.000000 
0.000000 0.000000 0.000000 

-0.000000 -0.000000 0.000000 
0.000000 0.000000 0.000000 
0.000000 0.000000 0.000000 

-0.000000 -0.000000 0.000000 
0.000000 -0.000000 0.000000 
0.000000 0.000000 0.000000 

-0.000000 0.000000 0.000000 
0.000000 -0.000000 0.000000 
0.000000 0.000000 0.000000 

-0.000000 0.000000 0.000000 
0.000000 0.000000 0.000000 
0.000000 0.000000 0.000000 

-0.000000 0.000000 0.000000 
0.000000 -0.000000 0.000000 
0.000000 0.000000 0.000000 

-0.000000 0.000000 0.000000 
0.000000 -0.000000 0.000000 
0.000000 0.000000 0.000000 

-0.000000 0.000000 0.000000 
0.000000 -0.000000 0.000000 
0.000000 0.000000 0.000000 

-0.000000 0.000000 0.000000 
0.000000 -0.000000 0.000000 
0.000000 0.000000 0.000000 

-0.000000 0.000000 0.000000 
0.000000 -0.000000 0.000000 
0.000000 0.000000 0.000000 

-0.000000 0.000000 0.000000 
0.000000 -0.000000 0.000000 
0.000000 0.000000 0.000000 

-0.000000 -0.000000 0.000000 
0.000000 0.000000 0.000000 
0.000000 0.000000 0.000000 

0.000000 -0.000000 0.000000 
0.000000 -0.000000 0.000000 
0.000000 0.000000 0.000000 

-0.000000 0.000000 0.000000 
0.000000 0.000000 0.000000 
0.000000 0.000000 0.000000 

-0.000000 -0.000000 0.000000 
0.000000 0.000000 0.000000 
0.000000 0.000000 0.000000 

0.000000 0.000000 0.000000 
0.000000 0.000000 0.000000 
0.000000 0.000000 0.000000 

0.000000 -0.000000 0.000000 
0.000000 0.000000 0.000000 
0.000000 0.000000 0.000000 

-0.000000 -0.000000 0.000000 
0.000000 -0.000000 0.000000 
0.000000 0.000000 0.000000 

0.000000 -0.000000 0.000000 
0.000000 -0.000000 0.000000 
0.000000 0.000000 0.000000 

0.000000 -0.000000 0.000000 
0.000000 -0.000000 0.000000 
0.000000 0.000000 0.000000 

0.000000 -0.000000 0.000000 
0.000000 -0.000000 0.000000 
0.000000 0.000000 0.000000 

-0.000000 -0.000000 0.000000 
0.000000 -0.000000 0.000000 
0.000000 0.000000 0.000000 

-0.000000 -0.000000 0.000000 
0.000000 -0.000000 0.000000 
0.000000 0.000000 0.000000 

0.000000 -0.000000 0.000000 
0.000000 0.000000 0.000000 
0.000000 0.000000 0.000000 

0.000000 -0.000000 0.000000 
0.000000 -0.000000 0.000000 
0.000000 0.000000 0.000000 

0.000000 -0.000000 0.000000 
0.000000 0.000000 0.000000 
0.000000 0.000000 0.000000 

0.000000 -0.000000 0.000000 
0.000000 -0.000000 0.000000 
0.000000 0.000000 0.000000 

0.000000 -0.000000 0.000000 
0.000000 0.000000 0.000000 
0.000000 0.000000 0.000000 

-0.000000 -0.000000 0.000000 
0.000000 -0.000000 0.000000 
0.000000 0.000000 0.000000 

0.000000 -0.000000 0.000000 
0.000000 -0.000000 0.000000 
0.000000 0.000000 0.000000 

-0.000000 -0.000000 0.000000 
0.000000 -0.000000 0.000000 
0.000000 0.000000 0.000000 

-0.000000 -0.000000 0.000000 
0.000000 -0.000000 0.000000 
0.000000 0.000000 0.000000 

-0.000000 0.000000 0.000000 
0.000000 0.000000 0.000000 
0.000000 0.000000 0.000000 

-0.000000 0.000000 0.000000 
0.000000 0.000000 0.000000 
0.000000 0.000000 0.000000 

-0.000000 -0.000000 0.000000 
0.000000 -0.000000 0.000000 
0.000000 0.000000 0.000000 

-0.000000 -0.000000 0.000000 
0.000000 0.000000 0.000000 
0.000000 0.000000 0.000000 

-0.000000 -0.000000 0.000000 
0.000000 0.000000 0.000000 
0.000000 0.000000 0.000000 

-0.000000 -0.000000 0.000000 
0.000000 0.000000 0.000000 
0.000000 0.000000 0.000000 

-0.000000 -0.000000 0.000000 
0.000000 -0.000000 0.000000 
0.000000 0.000000 0.000000 

0.000000 -0.000000 0.000000 
0.000000 0.000000 0.000000 
0.000000 0.000000 0.000000 

0.000000 -0.000000 0.000000 
0.000000 0.000000 0.000000 
0.000000 0.000000 0.000000 

-0.000000 0.000000 0.000000 
0.000000 0.000000 0.000000 
0.000000 0.000000 0.000000 

-0.000000 0.000000 0.000000 
0.000000 0.000000 0.000000 
0.000000 0.000000 0.000000 

-0.000000 -0.000000 0.000000 
0.000000 -0.000000 0.000000 
0.000000 0.000000 0.000000 

-0.000000 -0.000000 0.000000 
0.000000 -0.000000 0.000000 
0.000000 0.000000 0.000000 

-0.000000 -0.000000 0.000000 
0.000000 -0.000000 0.000000 
0.000000 0.000000 0.000000 

-0.000000 -0.000000 0.000000 
0.000000 -0.000000 0.000000 
0.000000 0.000000 0.000000 

-0.000000 0.000000 0.000000 
0.000000 -0.000000 0.000000 
0.000000 0.000000 0.000000 

-0.000000 0.000000 0.000000 
0.000000 -0.000000 0.000000 
0.000000 0.000000 0.000000 

-0.000000 0.000000 0.000000 
0.000000 0.000000 0.000000 
0.000000 0.000000 0.000000 

-0.000000 -0.000000 0.000000 
0.000000 0.000000 0.000000 
0.000000 0.000000 0.000000 

-0.000000 0.000000 0.000000 
0.000000 0.000000 0.000000 
0.000000 0.000000 0.000000 

0.000000 0.000000 0.000000 
0.000000 0.000000 0.000000 
0.000000 0.000000 0.000000 

0.000000 0.000000 0.000000 
0.000000 0.000000 0.000000 
0.000000 0.000000 0.000000 

0.000000 0.000000 0.000000 
0.000000 0.000000 0.000000 
0.000000 0.000000 0.000000 

-0.000000 -0.000000 0.000000 
0.000000 0.000000 0.000000 
0.000000 0.000000 0.000000 

-0.000000 -0.000000 0.000000 
0.000000 0.000000 0.000000 
0.000000 0.000000 0.000000 

-0.000000 -0.000000 0.000000 
0.000000 0.000000 0.000000 
0.000000 0.000000 0.000000 

-0.000000 -0.000000 0.000000 
0.000000 0.000000 0.000000 
0.000000 0.000000 0.000000 

-0.000000 -0.000000 0.000000 
0.000000 0.000000 0.000000 
0.000000 0.000000 0.000000 

-0.000000 -0.000000 0.000000 
0.000000 0.000000 0.000000 
0.000000 0.000000 0.000000 

-0.000000 -0.000000 0.000000 
0.000000 0.000000 0.000000 
0.000000 0.000000 0.000000 

-0.000000 -0.000000 0.000000 
0.000000 0.000000 0.000000 
0.000000 0.000000 0.000000 

-0.000000 -0.000000 0.000000 
0.000000 0.000000 0.000000 
0.000000 0.000000 0.000000 

-0.000000 -0.000000 0.000000 
0.000000 0.000000 0.000000 
0.000000 0.000000 0.000000 

-0.000000 -0.000000 0.000000 
0.000000 0.000000 0.000000 
0.000000 0.000000 0.000000 

-0.000000 -0.000000 0.000000 
0.000000 0.000000 0.000000 
0.000000 0.000000 0.000000 

-0.000000 -0.000000 0.000000 
0.000000 0.000000 0.000000 
0.000000 0.000000 0.000000 

-0.000000 -0.000000 0.000000 
0.000000 -0.000000 0.000000 
0.000000 0.000000 0.000000 

-0.000000 0.000000 0.000000 
0.000000 -0.000000 0.000000 
0.000000 0.000000 0.000000 

-0.000000 0.000000 0.000000 
0.000000 -0.000000 0.000000 
0.000000 0.000000 0.000000 

-0.000000 0.000000 0.000000 
0.000000 0.000000 0.000000 
0.000000 0.000000 0.000000 

-0.000000 0.000000 0.000000 
0.000000 -0.000000 0.000000 
0.000000 0.000000 0.000000 

0.000000 0.000000 0.000000 
0.000000 -0.000000 0.000000 
0.000000 0.000000 0.000000 

0.000000 0.000000 0.000000 
0.000000 0.000000 0.000000 
0.000000 0.000000 0.000000 

0.000000 0.000000 0.000000 
0.000000 -0.000000 0.000000 
0.000000 0.000000 0.000000 

0.000000 0.000000 0.000000 
0.000000 -0.000000 0.000000 
0.000000 0.000000 0.000000 

0.000000 0.000000 0.000000 
0.000000 0.000000 0.000000 
0.000000 0.000000 0.000000 

0.000000 0.000000 0.000000 
0.000000 0.000000 0.000000 
0.000000 0.000000 0.000000 

0.000000 0.000000 0.000000 
0.000000 0.000000 0.000000 
0.000000 0.000000 0.000000 

0.000000 0.000000 0.000000 
0.000000 0.000000 0.000000 
0.000000 0.000000 0.000000 

0.000000 0.000000 0.000000 
0.000000 -0.000000 0.000000 
0.000000 0.000000 0.000000 

0.000000 0.000000 0.000000 
0.000000 0.000000 0.000000 
0.000000 0.000000 0.000000 

0.000000 0.000000 0.000000 
0.000000 0.000000 0.000000 
0.000000 0.000000 0.000000 

0.000000 0.000000 0.000000 
0.000000 0.000000 0.000000 
0.000000 0.000000 0.000000 

0.000000 0.000000 0.000000 
0.000000 -0.000000 0.000000 
0.000000 0.000000 0.000000 

-0.000000 -0.000000 0.000000 
0.000000 -0.000000 0.000000 
0.000000 0.000000 0.000000 

0.000000 -0.000000 0.000000 
0.000000 -0.000000 0.000000 
0.000000 0.000000 0.000000 

0.000000 -0.000000 0.000000 
0.000000 -0.000000 0.000000 
0.000000 0.000000 0.000000 

0.000000 -0.000000 0.000000 
0.000000 -0.000000 0.000000 
0.000000 0.000000 0.000000 

-0.000000 -0.000000 0.000000 
0.000000 -0.000000 0.000000 
0.000000 0.000000 0.000000 

-0.000000 -0.000000 0.000000 
0.000000 -0.000000 0.000000 
0.000000 0.000000 0.000000 

0.000000 0.000000 0.000000 
0.000000 0.000000 0.000000 
0.000000 0.000000 0.000000 

0.000000 0.000000 0.000000 
0.000000 0.000000 0.000000 
0.000000 0.000000 0.000000 

0.000000 -0.000000 0.000000 
0.000000 0.000000 0.000000 
0.000000 0.000000 0.000000 

0.000000 0.000000 0.000000 
0.000000 0.000000 0.000000 
0.000000 0.000000 0.000000 

0.000000 0.000000 0.000000 
0.000000 -0.000000 0.000000 
0.000000 0.000000 0.000000 

0.000000 0.000000 0.000000 
0.000000 -0.000000 0.000000 
0.000000 0.000000 0.000000 

0.000000 -0.000000 0.000000 
0.000000 0.000000 0.000000 
0.000000 0.000000 0.000000 

0.000000 0.000000 0.000000 
0.000000 -0.000000 0.000000 
0.000000 0.000000 0.000000 

-0.000000 0.000000 0.000000 
0.000000 -0.000000 0.000000 
0.000000 0.000000 0.000000 

0.000000 -0.000000 0.000000 
0.000000 0.000000 0.000000 
0.000000 0.000000 0.000000 

0.000000 -0.000000 0.000000 
0.000000 0.000000 0.000000 
0.000000 0.000000 0.000000 

-0.000000 0.000000 0.000000 
0.000000 0.000000 0.000000 
0.000000 0.000000 0.000000 

-0.000000 0.000000 0.000000 
0.000000 0.000000 0.000000 
0.000000 0.000000 0.000000 

-0.000000 0.000000 0.000000 
0.000000 0.000000 0.000000 
0.000000 0.000000 0.000000 

-0.000000 0.000000 0.000000 
0.000000 0.000000 0.000000 
0.000000 0.000000 0.000000 

-0.000000 0.000000 0.000000 
0.000000 0.000000 0.000000 
0.000000 0.000000 0.000000 

-0.000000 0.000000 0.000000 
0.000000 0.000000 0.000000 
0.000000 0.000000 0.000000 

0.000000 0.000000 0.000000 
0.000000 0.000000 0.000000 
0.000000 0.000000 0.000000 

-0.000000 0.000000 0.000000 
0.000000 -0.000000 0.000000 
0.000000 0.000000 0.000000 

-0.000000 0.000000 0.000000 
0.000000 0.000000 0.000000 
0.000000 0.000000 0.000000 

0.000000 -0.000000 0.000000 
0.000000 -0.000000 0.000000 
0.000000 0.000000 0.000000 

-0.000000 0.000000 0.000000 
0.000000 0.000000 0.000000 
0.000000 0.000000 0.000000 

-0.000000 -0.000000 0.000000 
0.000000 0.000000 0.000000 
0.000000 0.000000 0.000000 

-0.000000 0.000000 0.000000 
0.000000 -0.000000 0.000000 
0.000000 0.000000 0.000000 

0.000000 0.000000 0.000000 
0.000000 0.000000 0.000000 
0.000000 0.000000 0.000000 

0.000000 0.000000 0.000000 
0.000000 0.000000 0.000000 
0.000000 0.000000 0.000000 

0.000000 0.000000 0.000000 
0.000000 0.000000 0.000000 
0.000000 0.000000 0.000000 

0.000000 0.000000 0.000000 
0.000000 -0.000000 0.000000 
0.000000 0.000000 0.000000 

-0.000000 -0.000000 0.000000 
0.000000 -0.000000 0.000000 
0.000000 0.000000 0.000000 

0.000000 0.000000 0.000000 
0.000000 0.000000 0.000000 
0.000000 0.000000 0.000000 

0.000000 0.000000 0.000000 
0.000000 0.000000 0.000000 
0.000000 0.000000 0.000000 

0.000000 0.000000 0.000000 
0.000000 -0.000000 0.000000 
0.000000 0.000000 0.000000 

0.000000 0.000000 0.000000 
0.000000 0.000000 0.000000 
0.000000 0.000000 0.000000 

-0.000000 0.000000 0.000000 
0.000000 -0.000000 0.000000 
0.000000 0.000000 0.000000 

0.000000 0.000000 0.000000 
0.000000 0.000000 0.000000 
0.000000 0.000000 0.000000 

0.000000 0.000000 0.000000 
0.000000 0.000000 0.000000 
0.000000 0.000000 0.000000 

-0.000000 0.000000 0.000000 
0.000000 0.000000 0.000000 
0.000000 0.000000 0.000000 

-0.000000 -0.000000 0.000000 
0.000000 0.000000 0.000000 
0.000000 0.000000 0.000000 

-0.000000 0.000000 0.000000 
0.000000 0.000000 0.000000 
0.000000 0.000000 0.000000 

0.000000 -0.000000 0.000000 
0.000000 -0.000000 0.000000 
0.000000 0.000000 0.000000 

-0.000000 0.000000 0.000000 
0.000000 0.000000 0.000000 
0.000000 0.000000 0.000000 

-0.000000 0.000000 0.000000 
0.000000 0.000000 0.000000 
0.000000 0.000000 0.000000 

-0.000000 0.000000 0.000000 
0.000000 0.000000 0.000000 
0.000000 0.000000 0.000000 

-0.000000 -0.000000 0.000000 
0.000000 -0.000000 0.000000 
0.000000 0.000000 0.000000 

-0.000000 -0.000000 0.000000 
0.000000 -0.000000 0.000000 
0.000000 0.000000 0.000000 

-0.000000 -0.000000 0.000000 
0.000000 0.000000 0.000000 
0.000000 0.000000 0.000000 

-0.000000 -0.000000 0.000000 
0.000000 -0.000000 0.000000 
0.000000 0.000000 0.000000 

0.000000 0.000000 0.000000 
0.000000 -0.000000 0.000000 
0.000000 0.000000 0.000000 

0.000000 -0.000000 0.000000 
0.000000 -0.000000 0.000000 
0.000000 0.000000 0.000000 

0.000000 0.000000 0.000000 
0.000000 -0.000000 0.000000 
0.000000 0.000000 0.000000 

0.000000 0.000000 0.000000 
0.000000 0.000000 0.000000 
0.000000 0.000000 0.000000 

-0.000000 0.000000 0.000000 
0.000000 0.000000 0.000000 
0.000000 0.000000 0.000000 

0.000000 0.000000 0.000000 
0.000000 -0.000000 0.000000 
0.000000 0.000000 0.000000 

0.000000 -0.000000 0.000000 
0.000000 0.000000 0.000000 
0.000000 0.000000 0.000000 

0.000000 0.000000 0.000000 
0.000000 -0.000000 0.000000 
0.000000 0.000000 0.000000 

0.000000 0.000000 0.000000 
0.000000 0.000000 0.000000 
0.000000 0.000000 0.000000 

0.000000 0.000000 0.000000 
0.000000 -0.000000 0.000000 
0.000000 0.000000 0.000000 

0.000000 0.000000 0.000000 
0.000000 -0.000000 0.000000 
0.000000 0.000000 0.000000 

0.000000 0.000000 0.000000 
0.000000 0.000000 0.000000 
0.000000 0.000000 0.000000 

0.000000 0.000000 0.000000 
0.000000 0.000000 0.000000 
0.000000 0.000000 0.000000 

0.000000 0.000000 0.000000 
0.000000 0.000000 0.000000 
0.000000 0.000000 0.000000 

0.000000 0.000000 0.000000 
0.000000 0.000000 0.000000 
0.000000 0.000000 0.000000 

0.000000 0.000000 0.000000 
0.000000 0.000000 0.000000 
0.000000 0.000000 0.000000 

0.000000 0.000000 0.000000 
0.000000 -0.000000 0.000000 
0.000000 0.000000 0.000000 

-0.000000 0.000000 0.000000 
0.000000 -0.000000 0.000000 
0.000000 0.000000 0.000000 

-0.000000 -0.000000 0.000000 
0.000000 -0.000000 0.000000 
0.000000 0.000000 0.000000 

-0.000000 -0.000000 0.000000 
0.000000 0.000000 0.000000 
0.000000 0.000000 0.000000 

-0.000000 -0.000000 0.000000 
0.000000 -0.000000 0.000000 
0.000000 0.000000 0.000000 

-0.000000 -0.000000 0.000000 
0.000000 -0.000000 0.000000 
0.000000 0.000000 0.000000 

0.000000 0.000000 0.000000 
0.000000 -0.000000 0.000000 
0.000000 0.000000 0.000000 

0.000000 0.000000 0.000000 
0.000000 -0.000000 0.000000 
0.000000 0.000000 0.000000 

0.000000 0.000000 0.000000 
0.000000 -0.000000 0.000000 
0.000000 0.000000 0.000000 

-0.000000 0.000000 0.000000 
0.000000 0.000000 0.000000 
0.000000 0.000000 0.000000 

0.000000 0.000000 0.000000 
0.000000 -0.000000 0.000000 
0.000000 0.000000 0.000000 

0.000000 0.000000 0.000000 
0.000000 -0.000000 0.000000 
0.000000 0.000000 0.000000 

0.000000 -0.000000 0.000000 
0.000000 -0.000000 0.000000 
0.000000 0.000000 0.000000 

0.000000 -0.000000 0.000000 
0.000000 -0.000000 0.000000 
0.000000 0.000000 0.000000 

0.000000 -0.000000 0.000000 
0.000000 -0.000000 0.000000 
0.000000 0.000000 0.000000 

0.000000 -0.000000 0.000000 
0.000000 -0.000000 0.000000 
0.000000 0.000000 0.000000 

-0.000000 0.000000 0.000000 
0.000000 -0.000000 0.000000 
0.000000 0.000000 0.000000 

-0.000000 0.000000 0.000000 
0.000000 -0.000000 0.000000 
0.000000 0.000000 0.000000 

-0.000000 0.000000 0.000000 
0.000000 -0.000000 0.000000 
0.000000 0.000000 0.000000 

0.000000 -0.000000 0.000000 
0.000000 -0.000000 0.000000 
0.000000 0.000000 0.000000 

0.000000 0.000000 0.000000 
0.000000 -0.000000 0.000000 
0.000000 0.000000 0.000000 

0.000000 0.000000 0.000000 
0.000000 -0.000000 0.000000 
0.000000 0.000000 0.000000 

0.000000 0.000000 0.000000 
0.000000 -0.000000 0.000000 
0.000000 0.000000 0.000000 

0.000000 0.000000 0.000000 
0.000000 0.000000 0.000000 
0.000000 0.000000 0.000000 

0.000000 -0.000000 0.000000 
0.000000 0.000000 0.000000 
0.000000 0.000000 0.000000 

0.000000 0.000000 0.000000 
0.000000 0.000000 0.000000 
0.000000 0.000000 0.000000 

-0.000000 -0.000000 0.000000 
0.000000 -0.000000 0.000000 
0.000000 0.000000 0.000000 

-0.000000 -0.000000 0.000000 
0.000000 -0.000000 0.000000 
0.000000 0.000000 0.000000 

-0.000000 -0.000000 0.000000 
0.000000 0.000000 0.000000 
0.000000 0.000000 0.000000 

-0.000000 -0.000000 0.000000 
0.000000 0.000000 0.000000 
0.000000 0.000000 0.000000 

-0.000000 -0.000000 0.000000 
0.000000 0.000000 0.000000 
0.000000 0.000000 0.000000 

-0.000000 -0.000000 0.000000 
0.000000 -0.000000 0.000000 
0.000000 0.000000 0.000000 

-0.000000 -0.000000 0.000000 
0.000000 0.000000 0.000000 
0.000000 0.000000 0.000000 

-0.000000 0.000000 0.000000 
0.000000 0.000000 0.000000 
0.000000 0.000000 0.000000 

0.000000 0.000000 0.000000 
0.000000 0.000000 0.000000 
0.000000 0.000000 0.000000 

-0.000000 0.000000 0.000000 
0.000000 0.000000 0.000000 
0.000000 0.000000 0.000000 

-0.000000 0.000000 0.000000 
0.000000 0.000000 0.000000 
0.000000 0.000000 0.000000 

0.000000 0.000000 0.000000 
0.000000 0.000000 0.000000 
0.000000 0.000000 0.000000 

-0.000000 0.000000 0.000000 
0.000000 -0.000000 0.000000 
0.000000 0.000000 0.000000 

-0.000000 -0.000000 0.000000 
0.000000 0.000000 0.000000 
0.000000 0.000000 0.000000 

-0.000000 0.000000 0.000000 
0.000000 0.000000 0.000000 
0.000000 0.000000 0.000000 

-0.000000 0.000000 0.000000 
0.000000 -0.000000 0.000000 
0.000000 0.000000 0.000000 

-0.000000 -0.000000 0.000000 
0.000000 0.000000 0.000000 
0.000000 0.000000 0.000000 

-0.000000 -0.000000 0.000000 
0.000000 0.000000 0.000000 
0.000000 0.000000 0.000000 

-0.000000 0.000000 0.000000 
0.000000 0.000000 0.000000 
0.000000 0.000000 0.000000 

-0.000000 -0.000000 0.000000 
0.000000 0.000000 0.000000 
0.000000 0.000000 0.000000 

-0.000000 -0.000000 0.000000 
0.000000 0.000000 0.000000 
0.000000 0.000000 0.000000 

-0.000000 -0.000000 0.000000 
0.000000 0.000000 0.000000 
0.000000 0.000000 0.000000 

-0.000000 -0.000000 0.000000 
0.000000 0.000000 0.000000 
0.000000 0.000000 0.000000 

-0.000000 -0.000000 0.000000 
0.000000 -0.000000 0.000000 
0.000000 0.000000 0.000000 

0.000000 0.000000 0.000000 
0.000000 -0.000000 0.000000 
0.000000 0.000000 0.000000 

-0.000000 -0.000000 0.000000 
0.000000 -0.000000 0.000000 
0.000000 0.000000 0.000000 

-0.000000 -0.000000 0.000000 
0.000000 -0.000000 0.000000 
0.000000 0.000000 0.000000 

-0.000000 -0.000000 0.000000 
0.000000 -0.000000 0.000000 
0.000000 0.000000 0.000000 

-0.000000 0.000000 0.000000 
0.000000 -0.000000 0.000000 
0.000000 0.000000 0.000000 

-0.000000 -0.000000 0.000000 
0.000000 -0.000000 0.000000 
0.000000 0.000000 0.000000 

-0.000000 -0.000000 0.000000 
0.000000 0.000000 0.000000 
0.000000 0.000000 0.000000 

-0.000000 -0.000000 0.000000 
0.000000 0.000000 0.000000 
0.000000 0.000000 0.000000 

-0.000000 -0.000000 0.000000 
0.000000 0.000000 0.000000 
0.000000 0.000000 0.000000 

-0.000000 -0.000000 0.000000 
0.000000 0.000000 0.000000 
0.000000 0.000000 0.000000 

-0.000000 0.000000 0.000000 
0.000000 0.000000 0.000000 
0.000000 0.000000 0.000000 

-0.000000 -0.000000 0.000000 
0.000000 0.000000 0.000000 
0.000000 0.000000 0.000000 

-0.000000 -0.000000 0.000000 
0.000000 0.000000 0.000000 
0.000000 0.000000 0.000000 

-0.000000 0.000000 0.000000 
0.000000 0.000000 0.000000 
0.000000 0.000000 0.000000 

-0.000000 0.000000 0.000000 
0.000000 0.000000 0.000000 
0.000000 0.000000 0.000000 

-0.000000 -0.000000 0.000000 
0.000000 0.000000 0.000000 
0.000000 0.000000 0.000000 

-0.000000 0.000000 0.000000 
0.000000 0.000000 0.000000 
0.000000 0.000000 0.000000 

0.000000 0.000000 0.000000 
0.000000 0.000000 0.000000 
0.000000 0.000000 0.000000 

0.000000 0.000000 0.000000 
0.000000 0.000000 0.000000 
0.000000 0.000000 0.000000 

-0.000000 0.000000 0.000000 
0.000000 0.000000 0.000000 
0.000000 0.000000 0.000000 

-0.000000 0.000000 0.000000 
0.000000 -0.000000 0.000000 
0.000000 0.000000 0.000000 

0.000000 -0.000000 0.000000 
0.000000 0.000000 0.000000 
0.000000 0.000000 0.000000 

-0.000000 -0.000000 0.000000 
0.000000 0.000000 0.000000 
0.000000 0.000000 0.000000 

-0.000000 -0.000000 0.000000 
0.000000 0.000000 0.000000 
0.000000 0.000000 0.000000 

-0.000000 -0.000000 0.000000 
0.000000 0.000000 0.000000 
0.000000 0.000000 0.000000 

-0.000000 -0.000000 0.000000 
0.000000 0.000000 0.000000 
0.000000 0.000000 0.000000 

-0.000000 -0.000000 0.000000 
0.000000 0.000000 0.000000 
0.000000 0.000000 0.000000 

-0.000000 0.000000 0.000000 
0.000000 -0.000000 0.000000 
0.000000 0.000000 0.000000 

0.000000 0.000000 0.000000 
0.000000 0.000000 0.000000 
0.000000 0.000000 0.000000 

-0.000000 0.000000 0.000000 
0.000000 0.000000 0.000000 
0.000000 0.000000 0.000000 

-0.000000 -0.000000 0.000000 
0.000000 0.000000 0.000000 
0.000000 0.000000 0.000000 

-0.000000 0.000000 0.000000 
0.000000 0.000000 0.000000 
0.000000 0.000000 0.000000 

-0.000000 0.000000 0.000000 
0.000000 0.000000 0.000000 
0.000000 0.000000 0.000000 

-0.000000 0.000000 0.000000 
0.000000 0.000000 0.000000 
0.000000 0.000000 0.000000 

-0.000000 0.000000 0.000000 
0.000000 0.000000 0.000000 
0.000000 0.000000 0.000000 

-0.000000 -0.000000 0.000000 
0.000000 -0.000000 0.000000 
0.000000 0.000000 0.000000 

-0.000000 -0.000000 0.000000 
0.000000 -0.000000 0.000000 
0.000000 0.000000 0.000000 

0.000000 -0.000000 0.000000 
0.000000 0.000000 0.000000 
0.000000 0.000000 0.000000 

0.000000 0.000000 0.000000 
0.000000 0.000000 0.000000 
0.000000 0.000000 0.000000 

0.000000 0.000000 0.000000 
0.000000 0.000000 0.000000 
0.000000 0.000000 0.000000 

0.000000 0.000000 0.000000 
0.000000 -0.000000 0.000000 
0.000000 0.000000 0.000000 

0.000000 -0.000000 0.000000 
0.000000 0.000000 0.000000 
0.000000 0.000000 0.000000 

0.000000 -0.000000 0.000000 
0.000000 0.000000 0.000000 
0.000000 0.000000 0.000000 

0.000000 0.000000 0.000000 
0.000000 0.000000 0.000000 
0.000000 0.000000 0.000000 

-0.000000 0.000000 0.000000 
0.000000 -0.000000 0.000000 
0.000000 0.000000 0.000000 

0.000000 0.000000 0.000000 
0.000000 -0.000000 0.000000 
0.000000 0.000000 0.000000 

0.000000 0.000000 0.000000 
0.000000 -0.000000 0.000000 
0.000000 0.000000 0.000000 

0.000000 0.000000 0.000000 
0.000000 -0.000000 0.000000 
0.000000 0.000000 0.000000 

-0.000000 -0.000000 0.000000 
0.000000 -0.000000 0.000000 
0.000000 0.000000 0.000000 

0.000000 -0.000000 0.000000 
0.000000 0.000000 0.000000 
0.000000 0.000000 0.000000 

-0.000000 0.000000 0.000000 
0.000000 0.000000 0.000000 
0.000000 0.000000 0.000000 

-0.000000 0.000000 0.000000 
0.000000 -0.000000 0.000000 
0.000000 0.000000 0.000000 

-0.000000 0.000000 0.000000 
0.000000 0.000000 0.000000 
0.000000 0.000000 0.000000 

-0.000000 -0.000000 0.000000 
0.000000 0.000000 0.000000 
0.000000 0.000000 0.000000 

-0.000000 0.000000 0.000000 
0.000000 0.000000 0.000000 
0.000000 0.000000 0.000000 

-0.000000 -0.000000 0.000000 
0.000000 0.000000 0.000000 
0.000000 0.000000 0.000000 

-0.000000 0.000000 0.000000 
0.000000 0.000000 0.000000 
0.000000 0.000000 0.000000 

-0.000000 -0.000000 0.000000 
0.000000 0.000000 0.000000 
0.000000 0.000000 0.000000 

-0.000000 -0.000000 0.000000 
0.000000 0.000000 0.000000 
0.000000 0.000000 0.000000 

-0.000000 -0.000000 0.000000 
0.000000 0.000000 0.000000 
0.000000 0.000000 0.000000 

-0.000000 -0.000000 0.000000 
0.000000 0.000000 0.000000 
0.000000 0.000000 0.000000 

-0.000000 -0.000000 0.000000 
0.000000 0.000000 0.000000 
0.000000 0.000000 0.000000 

-0.000000 -0.000000 0.000000 
0.000000 0.000000 0.000000 
0.000000 0.000000 0.000000 

-0.000000 -0.000000 0.000000 
0.000000 0.000000 0.000000 
0.000000 0.000000 0.000000 

0.000000 0.000000 0.000000 
0.000000 0.000000 0.000000 
0.000000 0.000000 0.000000 

0.000000 -0.000000 0.000000 
0.000000 0.000000 0.000000 
0.000000 0.000000 0.000000 

0.000000 -0.000000 0.000000 
0.000000 0.000000 0.000000 
0.000000 0.000000 0.000000 

0.000000 0.000000 0.000000 
0.000000 0.000000 0.000000 
0.000000 0.000000 0.000000 

-0.000000 -0.000000 0.000000 
0.000000 0.000000 0.000000 
0.000000 0.000000 0.000000 

-0.000000 0.000000 0.000000 
0.000000 0.000000 0.000000 
0.000000 0.000000 0.000000 

-0.000000 -0.000000 0.000000 
0.000000 0.000000 0.000000 
0.000000 0.000000 0.000000 

-0.000000 0.000000 0.000000 
0.000000 0.000000 0.000000 
0.000000 0.000000 0.000000 

-0.000000 -0.000000 0.000000 
0.000000 -0.000000 0.000000 
0.000000 0.000000 0.000000 

0.000000 0.000000 0.000000 
0.000000 -0.000000 0.000000 
0.000000 0.000000 0.000000 

-0.000000 0.000000 0.000000 
0.000000 -0.000000 0.000000 
0.000000 0.000000 0.000000 

0.000000 0.000000 0.000000 
0.000000 -0.000000 0.000000 
0.000000 0.000000 0.000000 

0.000000 -0.000000 0.000000 
0.000000 -0.000000 0.000000 
0.000000 0.000000 0.000000 

-0.000000 -0.000000 0.000000 
0.000000 -0.000000 0.000000 
0.000000 0.000000 0.000000 

0.000000 0.000000 0.000000 
0.000000 -0.000000 0.000000 
0.000000 0.000000 0.000000 

0.000000 0.000000 0.000000 
0.000000 -0.000000 0.000000 
0.000000 0.000000 0.000000 

0.000000 0.000000 0.000000 
0.000000 -0.000000 0.000000 
0.000000 0.000000 0.000000 

0.000000 -0.000000 0.000000 
0.000000 0.000000 0.000000 
0.000000 0.000000 0.000000 

0.000000 0.000000 0.000000 
0.000000 -0.000000 0.000000 
0.000000 0.000000 0.000000 

-0.000000 0.000000 0.000000 
0.000000 0.000000 0.000000 
0.000000 0.000000 0.000000 

-0.000000 -0.000000 0.000000 
0.000000 0.000000 0.000000 
0.000000 0.000000 0.000000 

-0.000000 0.000000 0.000000 
0.000000 0.000000 0.000000 
0.000000 0.000000 0.000000 

-0.000000 0.000000 0.000000 
0.000000 -0.000000 0.000000 
0.000000 0.000000 0.000000 

-0.000000 -0.000000 0.000000 
0.000000 -0.000000 0.000000 
0.000000 0.000000 0.000000 

-0.000000 0.000000 0.000000 
0.000000 -0.000000 0.000000 
0.000000 0.000000 0.000000 

0.000000 0.000000 0.000000 
0.000000 0.000000 0.000000 
0.000000 0.000000 0.000000 

0.000000 0.000000 0.000000 
0.000000 -0.000000 0.000000 
0.000000 0.000000 0.000000 

0.000000 0.000000 0.000000 
0.000000 0.000000 0.000000 
0.000000 0.000000 0.000000 

0.000000 0.000000 0.000000 
0.000000 -0.000000 0.000000 
0.000000 0.000000 0.000000 

0.000000 -0.000000 0.000000 
0.000000 -0.000000 0.000000 
0.000000 0.000000 0.000000 

0.000000 -0.000000 0.000000 
0.000000 0.000000 0.000000 
0.000000 0.000000 0.000000 

-0.000000 0.000000 0.000000 
0.000000 0.000000 0.000000 
0.000000 0.000000 0.000000 

-0.000000 0.000000 0.000000 
0.000000 -0.000000 0.000000 
0.000000 0.000000 0.000000 

0.000000 0.000000 0.000000 
0.000000 -0.000000 0.000000 
0.000000 0.000000 0.000000 

0.000000 0.000000 0.000000 
0.000000 -0.000000 0.000000 
0.000000 0.000000 0.000000 

0.000000 0.000000 0.000000 
0.000000 -0.000000 0.000000 
0.000000 0.000000 0.000000 

-0.000000 -0.000000 0.000000 
0.000000 0.000000 0.000000 
0.000000 0.000000 0.000000 

-0.000000 -0.000000 0.000000 
0.000000 0.000000 0.000000 
0.000000 0.000000 0.000000 

-0.000000 -0.000000 0.000000 
0.000000 0.000000 0.000000 
0.000000 0.000000 0.000000 

-0.000000 -0.000000 0.000000 
0.000000 0.000000 0.000000 
0.000000 0.000000 0.000000 

-0.000000 0.000000 0.000000 
0.000000 0.000000 0.000000 
0.000000 0.000000 0.000000 

0.000000 0.000000 0.000000 
0.000000 0.000000 0.000000 
0.000000 0.000000 0.000000 

0.000000 0.000000 0.000000 
0.000000 0.000000 0.000000 
0.000000 0.000000 0.000000 

0.000000 0.000000 0.000000 
0.000000 0.000000 0.000000 
0.000000 0.000000 0.000000 

-0.000000 0.000000 0.000000 
0.000000 0.000000 0.000000 
0.000000 0.000000 0.000000 

-0.000000 0.000000 0.000000 
0.000000 0.000000 0.000000 
0.000000 0.000000 0.000000 

-0.000000 0.000000 0.000000 
0.000000 -0.000000 0.000000 
0.000000 0.000000 0.000000 

0.000000 -0.000000 0.000000 
0.000000 0.000000 0.000000 
0.000000 0.000000 0.000000 

0.000000 0.000000 0.000000 
0.000000 0.000000 0.000000 
0.000000 0.000000 0.000000 

0.000000 0.000000 0.000000 
0.000000 -0.000000 0.000000 
0.000000 0.000000 0.000000 

0.000000 -0.000000 0.000000 
0.000000 -0.000000 0.000000 
0.000000 0.000000 0.000000 

0.000000 0.000000 0.000000 
0.000000 0.000000 0.000000 
0.000000 0.000000 0.000000 

-0.000000 0.000000 0.000000 
0.000000 0.000000 0.000000 
0.000000 0.000000 0.000000 

0.000000 -0.000000 0.000000 
0.000000 0.000000 0.000000 
0.000000 0.000000 0.000000 

0.000000 -0.000000 0.000000 
0.000000 -0.000000 0.000000 
0.000000 0.000000 0.000000 

-0.000000 0.000000 0.000000 
0.000000 0.000000 0.000000 
0.000000 0.000000 0.000000 

0.000000 -0.000000 0.000000 
0.000000 0.000000 0.000000 
0.000000 0.000000 0.000000 

0.000000 -0.000000 0.000000 
0.000000 0.000000 0.000000 
0.000000 0.000000 0.000000 

-0.000000 0.000000 0.000000 
0.000000 -0.000000 0.000000 
0.000000 0.000000 0.000000 

-0.000000 0.000000 0.000000 
0.000000 0.000000 0.000000 
0.000000 0.000000 0.000000 

0.000000 0.000000 0.000000 
0.000000 0.000000 0.000000 
0.000000 0.000000 0.000000 

0.000000 -0.000000 0.000000 
0.000000 0.000000 0.000000 
0.000000 0.000000 0.000000 

0.000000 -0.000000 0.000000 
0.000000 0.000000 0.000000 
0.000000 0.000000 0.000000 

-0.000000 -0.000000 0.000000 
0.000000 0.000000 0.000000 
0.000000 0.000000 0.000000 

-0.000000 -0.000000 0.000000 
0.000000 -0.000000 0.000000 
0.000000 0.000000 0.000000 

-0.000000 -0.000000 0.000000 
0.000000 -0.000000 0.000000 
0.000000 0.000000 0.000000 

-0.000000 0.000000 0.000000 
0.000000 -0.000000 0.000000 
0.000000 0.000000 0.000000 

-0.000000 0.000000 0.000000 
0.000000 0.000000 0.000000 
0.000000 0.000000 0.000000 

-0.000000 0.000000 0.000000 
0.000000 0.000000 0.000000 
0.000000 0.000000 0.000000 

-0.000000 0.000000 0.000000 
0.000000 0.000000 0.000000 
0.000000 0.000000 0.000000 

-0.000000 0.000000 0.000000 
0.000000 -0.000000 0.000000 
0.000000 0.000000 0.000000 

0.000000 -0.000000 0.000000 
0.000000 -0.000000 0.000000 
0.000000 0.000000 0.000000 

0.000000 0.000000 0.000000 
0.000000 -0.000000 0.000000 
0.000000 0.000000 0.000000 

-0.000000 0.000000 0.000000 
0.000000 -0.000000 0.000000 
0.000000 0.000000 0.000000 

0.000000 -0.000000 0.000000 
0.000000 -0.000000 0.000000 
0.000000 0.000000 0.000000 

-0.000000 0.000000 0.000000 
0.000000 0.000000 0.000000 
0.000000 0.000000 0.000000 

0.000000 -0.000000 0.000000 
0.000000 0.000000 0.000000 
0.000000 0.000000 0.000000 

0.000000 0.000000 0.000000 
0.000000 0.000000 0.000000 
0.000000 0.000000 0.000000 

0.000000 0.000000 0.000000 
0.000000 -0.000000 0.000000 
0.000000 0.000000 0.000000 

0.000000 0.000000 0.000000 
0.000000 -0.000000 0.000000 
0.000000 0.000000 0.000000 

-0.000000 0.000000 0.000000 
0.000000 0.000000 0.000000 
0.000000 0.000000 0.000000 

-0.000000 -0.000000 0.000000 
0.000000 -0.000000 0.000000 
0.000000 0.000000 0.000000 

-0.000000 0.000000 0.000000 
0.000000 -0.000000 0.000000 
0.000000 0.000000 0.000000 

0.000000 0.000000 0.000000 
0.000000 -0.000000 0.000000 
0.000000 0.000000 0.000000 

-0.000000 0.000000 0.000000 
0.000000 0.000000 0.000000 
0.000000 0.000000 0.000000 

-0.000000 -0.000000 0.000000 
0.000000 0.000000 0.000000 
0.000000 0.000000 0.000000 

-0.000000 0.000000 0.000000 
0.000000 0.000000 0.000000 
0.000000 0.000000 0.000000 

-0.000000 -0.000000 0.000000 
0.000000 0.000000 0.000000 
0.000000 0.000000 0.000000 

-0.000000 0.000000 0.000000 
0.000000 0.000000 0.000000 
0.000000 0.000000 0.000000 

-0.000000 0.000000 0.000000 
0.000000 0.000000 0.000000 
0.000000 0.000000 0.000000 

-0.000000 0.000000 0.000000 
0.000000 -0.000000 0.000000 
0.000000 0.000000 0.000000 

0.000000 0.000000 0.000000 
0.000000 -0.000000 0.000000 
0.000000 0.000000 0.000000 

0.000000 0.000000 0.000000 
0.000000 0.000000 0.000000 
0.000000 0.000000 0.000000 

-0.000000 0.000000 0.000000 
0.000000 0.000000 0.000000 
0.000000 0.000000 0.000000 

-0.000000 0.000000 0.000000 
0.000000 0.000000 0.000000 
0.000000 0.000000 0.000000 

0.000000 0.000000 0.000000 
0.000000 -0.000000 0.000000 
0.000000 0.000000 0.000000 

0.000000 -0.000000 0.000000 
0.000000 0.000000 0.000000 
0.000000 0.000000 0.000000 

0.000000 0.000000 0.000000 
0.000000 0.000000 0.000000 
0.000000 0.000000 0.000000 

0.000000 0.000000 0.000000 
0.000000 -0.000000 0.000000 
0.000000 0.000000 0.000000 

0.000000 0.000000 0.000000 
0.000000 -0.000000 0.000000 
0.000000 0.000000 0.000000 

-0.000000 0.000000 0.000000 
0.000000 -0.000000 0.000000 
0.000000 0.000000 0.000000 

-0.000000 0.000000 0.000000 
0.000000 -0.000000 0.000000 
0.000000 0.000000 0.000000 

0.000000 0.000000 0.000000 
0.000000 -0.000000 0.000000 
0.000000 0.000000 0.000000 

0.000000 0.000000 0.000000 
0.000000 -0.000000 0.000000 
0.000000 0.000000 0.000000 

0.000000 0.000000 0.000000 
0.000000 -0.000000 0.000000 
0.000000 0.000000 0.000000 

-0.000000 0.000000 0.000000 
0.000000 0.000000 0.000000 
0.000000 0.000000 0.000000 

0.000000 0.000000 0.000000 
0.000000 -0.000000 0.000000 
0.000000 0.000000 0.000000 

0.000000 -0.000000 0.000000 
0.000000 -0.000000 0.000000 
0.000000 0.000000 0.000000 

0.000000 -0.000000 0.000000 
0.000000 -0.000000 0.000000 
0.000000 0.000000 0.000000 

0.000000 -0.000000 0.000000 
0.000000 -0.000000 0.000000 
0.000000 0.000000 0.000000 

0.000000 -0.000000 0.000000 
0.000000 -0.000000 0.000000 
0.000000 0.000000 0.000000 

0.000000 -0.000000 0.000000 
0.000000 -0.000000 0.000000 
0.000000 0.000000 0.000000 

0.000000 -0.000000 0.000000 
0.000000 -0.000000 0.000000 
0.000000 0.000000 0.000000 

0.000000 -0.000000 0.000000 
0.000000 0.000000 0.000000 
0.000000 0.000000 0.000000 

0.000000 -0.000000 0.000000 
0.000000 -0.000000 0.000000 
0.000000 0.000000 0.000000 

-0.000000 -0.000000 0.000000 
0.000000 0.000000 0.000000 
0.000000 0.000000 0.000000 

-0.000000 0.000000 0.000000 
0.000000 0.000000 0.000000 
0.000000 0.000000 0.000000 

0.000000 0.000000 0.000000 
0.000000 0.000000 0.000000 
0.000000 0.000000 0.000000 

-0.000000 -0.000000 0.000000 
0.000000 0.000000 0.000000 
0.000000 0.000000 0.000000 

-0.000000 -0.000000 0.000000 
0.000000 0.000000 0.000000 
0.000000 0.000000 0.000000 

0.000000 0.000000 0.000000 
0.000000 -0.000000 0.000000 
0.000000 0.000000 0.000000 

0.000000 0.000000 0.000000 
0.000000 -0.000000 0.000000 
0.000000 0.000000 0.000000 

-0.000000 0.000000 0.000000 
0.000000 0.000000 0.000000 
0.000000 0.000000 0.000000 

0.000000 0.000000 0.000000 
0.000000 -0.000000 0.000000 
0.000000 0.000000 0.000000 

0.000000 0.000000 0.000000 
0.000000 0.000000 0.000000 
0.000000 0.000000 0.000000 

0.000000 0.000000 0.000000 
0.000000 -0.000000 0.000000 
0.000000 0.000000 0.000000 

0.000000 0.000000 0.000000 
0.000000 -0.000000 0.000000 
0.000000 0.000000 0.000000 

-0.000000 0.000000 0.000000 
0.000000 -0.000000 0.000000 
0.000000 0.000000 0.000000 

0.000000 0.000000 0.000000 
0.000000 -0.000000 0.000000 
0.000000 0.000000 0.000000 

-0.000000 0.000000 0.000000 
0.000000 0.000000 0.000000 
0.000000 0.000000 0.000000 

-0.000000 -0.000000 0.000000 
0.000000 -0.000000 0.000000 
0.000000 0.000000 0.000000 

0.000000 -0.000000 0.000000 
0.000000 -0.000000 0.000000 
0.000000 0.000000 0.000000 

0.000000 0.000000 0.000000 
0.000000 -0.000000 0.000000 
0.000000 0.000000 0.000000 

0.000000 -0.000000 0.000000 
0.000000 -0.000000 0.000000 
0.000000 0.000000 0.000000 

-0.000000 0.000000 0.000000 
0.000000 -0.000000 0.000000 
0.000000 0.000000 0.000000 

-0.000000 0.000000 0.000000 
0.000000 0.000000 0.000000 
0.000000 0.000000 0.000000 

-0.000000 -0.000000 0.000000 
0.000000 0.000000 0.000000 
0.000000 0.000000 0.000000 

0.000000 0.000000 0.000000 
0.000000 0.000000 0.000000 
0.000000 0.000000 0.000000 

-0.000000 0.000000 0.000000 
0.000000 0.000000 0.000000 
0.000000 0.000000 0.000000 

-0.000000 0.000000 0.000000 
0.000000 0.000000 0.000000 
0.000000 0.000000 0.000000 

0.000000 0.000000 0.000000 
0.000000 -0.000000 0.000000 
0.000000 0.000000 0.000000 

0.000000 0.000000 0.000000 
0.000000 -0.000000 0.000000 
0.000000 0.000000 0.000000 

-0.000000 0.000000 0.000000 
0.000000 0.000000 0.000000 
0.000000 0.000000 0.000000 

0.000000 0.000000 0.000000 
0.000000 -0.000000 0.000000 
0.000000 0.000000 0.000000 

