# vtk DataFile Version 3.0 
vtk output 
ASCII 
DATASET UNSTRUCTURED_GRID 
POINTS 899 float 
-3.648847 2.246811 0.000000 
-3.619410 2.206259 0.000000 
-3.578536 2.170664 0.000000 
-3.540028 2.135014 0.000000 
-3.511690 2.102818 0.000000 
-3.481362 2.072960 0.000000 
-3.451569 2.032286 0.000000 
0.772356 2.149325 0.000000 
0.774615 2.123204 0.000000 
0.769962 2.094450 0.000000 
-3.399514 2.002010 0.000000 
0.413960 -0.642832 0.000000 
0.455573 -0.638529 0.000000 
-1.762619 -0.542727 0.000000 
-1.783389 -0.507331 0.000000 
-1.714437 -0.478542 0.000000 
0.732567 2.143650 0.000000 
0.698438 2.129813 0.000000 
0.491831 -0.624326 0.000000 
0.519501 -0.593921 0.000000 
0.530556 -0.553474 0.000000 
0.532354 -0.507670 0.000000 
0.531774 -0.457164 0.000000 
-3.460923 1.940278 0.000000 
0.663989 2.107867 0.000000 
0.631675 2.080472 0.000000 
0.601833 2.056417 0.000000 
0.569607 2.033159 0.000000 
0.534059 2.011082 0.000000 
0.492599 1.989942 0.000000 
0.444403 1.971277 0.000000 
0.762807 2.053475 0.000000 
-1.708694 -0.444159 0.000000 
-1.726386 -0.403896 0.000000 
-1.761257 -0.379875 0.000000 
-1.812853 -0.372027 0.000000 
-0.690422 -0.624362 0.000000 
-0.624256 -0.642290 0.000000 
-0.561079 -0.650471 0.000000 
-0.500739 -0.651927 0.000000 
-0.445387 -0.651989 0.000000 
0.532260 -0.398080 0.000000 
0.536647 -0.328747 0.000000 
-1.881389 -0.359526 0.000000 
-0.389303 -0.649715 0.000000 
-0.340338 -0.634429 0.000000 
-0.344339 -0.580294 0.000000 
-0.358558 -0.527755 0.000000 
-0.381750 -0.486843 0.000000 
-0.406193 -0.452668 0.000000 
-0.417316 -0.421171 0.000000 
-0.428320 -0.386914 0.000000 
-0.436973 -0.342649 0.000000 
-0.444212 -0.287106 0.000000 
-0.452662 -0.228248 0.000000 
-0.468602 -0.171349 0.000000 
0.553166 -0.264032 0.000000 
0.573193 -0.206361 0.000000 
0.574450 -0.154620 0.000000 
0.561087 -0.104300 0.000000 
0.550432 -0.048977 0.000000 
0.748903 2.000158 0.000000 
0.730940 1.943665 0.000000 
0.715868 1.897506 0.000000 
0.699446 1.861378 0.000000 
0.684888 1.820388 0.000000 
0.675900 1.774184 0.000000 
0.669871 1.724624 0.000000 
0.664455 1.676767 0.000000 
0.668163 1.630348 0.000000 
0.672091 1.580514 0.000000 
0.674558 1.532491 0.000000 
0.673045 1.482411 0.000000 
0.386491 1.961597 0.000000 
0.664855 1.423673 0.000000 
0.652298 1.365595 0.000000 
0.638456 1.311945 0.000000 
0.623121 1.262435 0.000000 
0.616008 1.219408 0.000000 
0.600787 1.184465 0.000000 
0.571289 1.155017 0.000000 
0.539016 1.123855 0.000000 
0.513857 1.094956 0.000000 
0.493343 1.068721 0.000000 
0.469109 1.050909 0.000000 
0.444920 1.034464 0.000000 
0.415324 1.013498 0.000000 
0.383540 0.988746 0.000000 
0.356179 0.959414 0.000000 
0.343879 0.920514 0.000000 
0.337476 0.874994 0.000000 
0.332404 0.829707 0.000000 
0.328512 0.790018 0.000000 
0.319594 0.753938 0.000000 
0.304149 0.720527 0.000000 
0.290502 0.680136 0.000000 
0.275896 0.632274 0.000000 
0.261905 0.590305 0.000000 
0.250150 0.556709 0.000000 
0.250896 0.518904 0.000000 
0.259587 0.476301 0.000000 
0.284617 0.433528 0.000000 
0.315237 0.403867 0.000000 
0.340022 0.384430 0.000000 
0.354380 0.358581 0.000000 
0.368685 0.331438 0.000000 
0.385568 0.305042 0.000000 
0.415372 0.280245 0.000000 
0.447119 0.248533 0.000000 
0.477633 0.220616 0.000000 
0.503078 0.192680 0.000000 
0.518876 0.154626 0.000000 
0.527127 0.118657 0.000000 
0.534187 0.074112 0.000000 
0.543185 0.013332 0.000000 
0.322519 1.950541 0.000000 
0.263849 1.937424 0.000000 
0.208223 1.932005 0.000000 
0.150441 1.928176 0.000000 
-0.687392 -0.551294 0.000000 
-3.327058 1.975779 0.000000 
-3.276080 1.929357 0.000000 
-3.224941 1.895770 0.000000 
-3.181728 1.866612 0.000000 
-3.135074 1.829682 0.000000 
-3.078123 1.805389 0.000000 
-1.944260 -0.314648 0.000000 
0.083204 1.933332 0.000000 
0.005786 1.927979 0.000000 
-0.071812 1.937217 0.000000 
-0.135705 1.966759 0.000000 
-0.182391 2.008365 0.000000 
-1.999041 -0.243679 0.000000 
-1.843230 -0.518188 0.000000 
-0.491126 -0.107389 0.000000 
-0.512312 -0.034146 0.000000 
-0.526535 0.028686 0.000000 
-0.527935 0.090808 0.000000 
-0.524207 0.157978 0.000000 
-0.505864 0.215110 0.000000 
-0.468875 0.264322 0.000000 
-0.410369 0.293567 0.000000 
-0.354013 0.314684 0.000000 
-0.301050 0.324629 0.000000 
-0.255730 0.325402 0.000000 
-0.695595 -0.472999 0.000000 
-0.726457 -0.396118 0.000000 
-0.747352 -0.326662 0.000000 
-3.396487 1.918643 0.000000 
-3.344056 1.839255 0.000000 
-3.294256 1.795855 0.000000 
-3.248246 1.757530 0.000000 
-3.196818 1.718177 0.000000 
-3.159669 1.666866 0.000000 
-3.113281 1.620162 0.000000 
-3.056061 1.600599 0.000000 
-2.996684 1.577974 0.000000 
-2.933161 1.548357 0.000000 
-2.879064 1.512215 0.000000 
-2.813006 1.487429 0.000000 
-2.751664 1.464379 0.000000 
-2.686782 1.435056 0.000000 
-1.922020 -0.515381 0.000000 
-1.999705 -0.516880 0.000000 
-2.060018 -0.495276 0.000000 
-2.032615 -0.160289 0.000000 
-2.048550 -0.074567 0.000000 
-2.029059 -0.008674 0.000000 
-2.105228 -0.438218 0.000000 
-2.154373 -0.370623 0.000000 
-2.203584 -0.315999 0.000000 
-2.237020 -0.254564 0.000000 
-2.250593 -0.189271 0.000000 
-2.270119 -0.117487 0.000000 
-2.297898 -0.047177 0.000000 
-2.327118 0.014403 0.000000 
-2.346747 0.068373 0.000000 
-2.362840 0.121482 0.000000 
-2.374561 0.172527 0.000000 
-2.373128 0.224502 0.000000 
-2.334174 0.291093 0.000000 
-2.331842 0.331711 0.000000 
-2.284565 0.340470 0.000000 
-0.236368 2.057900 0.000000 
-0.299146 2.101727 0.000000 
-0.346614 2.121652 0.000000 
-0.382877 2.085149 0.000000 
-0.412447 2.056099 0.000000 
-0.433989 2.015811 0.000000 
-0.446472 1.972845 0.000000 
-0.451628 1.933527 0.000000 
-0.451047 1.895065 0.000000 
-0.449242 1.859061 0.000000 
-0.453345 1.827172 0.000000 
-0.460251 1.799478 0.000000 
-0.470304 1.770693 0.000000 
-0.475290 1.741203 0.000000 
-0.478341 1.711417 0.000000 
-0.479442 1.674681 0.000000 
-2.609147 1.421267 0.000000 
-2.517189 1.415768 0.000000 
-2.434013 1.416105 0.000000 
-2.352624 1.406074 0.000000 
-2.274410 1.386702 0.000000 
-2.204499 1.352054 0.000000 
-2.180326 1.283171 0.000000 
-2.178559 1.194635 0.000000 
-2.168273 1.104606 0.000000 
-2.159086 1.006542 0.000000 
-2.144575 0.917383 0.000000 
-2.163040 0.842166 0.000000 
-2.183612 0.768074 0.000000 
-2.172907 0.703517 0.000000 
-2.161614 0.640762 0.000000 
-2.169833 0.580650 0.000000 
-2.188987 0.518897 0.000000 
-2.218663 0.467651 0.000000 
-2.229021 0.411778 0.000000 
-2.997130 1.788592 0.000000 
-3.021908 1.690454 0.000000 
-2.902046 1.757085 0.000000 
-0.770600 -0.244069 0.000000 
-0.790096 -0.152410 0.000000 
-0.811857 -0.071702 0.000000 
-0.835807 0.006862 0.000000 
-0.859157 0.076990 0.000000 
-0.881226 0.137041 0.000000 
-0.903169 0.196392 0.000000 
-0.928196 0.260436 0.000000 
-2.785442 1.724532 0.000000 
-2.944278 1.663790 0.000000 
-2.855014 1.626644 0.000000 
-2.796189 1.566564 0.000000 
-2.651235 1.709785 0.000000 
-2.517962 1.699438 0.000000 
-2.394240 1.690276 0.000000 
-2.275192 1.682279 0.000000 
-2.180847 1.657718 0.000000 
-2.099904 1.631239 0.000000 
-2.018420 1.599999 0.000000 
-1.945469 1.604296 0.000000 
-1.885190 1.637636 0.000000 
-1.829736 1.658205 0.000000 
-1.760875 1.683436 0.000000 
-1.680504 1.711861 0.000000 
-1.617798 1.730178 0.000000 
-1.570169 1.744701 0.000000 
-1.527149 1.758891 0.000000 
-1.482581 1.771020 0.000000 
-1.433927 1.777561 0.000000 
-1.386311 1.785476 0.000000 
-1.337319 1.794206 0.000000 
-1.286363 1.801286 0.000000 
-1.235962 1.802003 0.000000 
-1.188452 1.806816 0.000000 
-1.140860 1.816267 0.000000 
-1.091558 1.815576 0.000000 
-1.038962 1.804558 0.000000 
-0.982519 1.785560 0.000000 
-0.922315 1.768818 0.000000 
-0.869867 1.758493 0.000000 
-0.827747 1.752003 0.000000 
-0.785371 1.747092 0.000000 
-0.748025 1.737354 0.000000 
-0.712781 1.727087 0.000000 
-0.681690 1.713156 0.000000 
-0.657198 1.702021 0.000000 
-0.633895 1.695358 0.000000 
-0.612002 1.690903 0.000000 
-0.594184 1.683690 0.000000 
-0.577381 1.674240 0.000000 
-0.560109 1.658956 0.000000 
-0.540091 1.626502 0.000000 
-1.243914 -0.012344 0.000000 
-1.232782 0.001373 0.000000 
-1.257376 -0.026698 0.000000 
-1.224378 0.020073 0.000000 
-1.271472 -0.046043 0.000000 
-1.215702 0.042070 0.000000 
-1.204660 0.068126 0.000000 
-1.290143 -0.073785 0.000000 
-1.314447 -0.118825 0.000000 
-1.190204 0.098433 0.000000 
-1.318041 -0.172179 0.000000 
-1.171655 0.132589 0.000000 
-1.149359 0.168903 0.000000 
-1.123094 0.207152 0.000000 
-1.284246 -0.222159 0.000000 
-1.239750 -0.272885 0.000000 
-1.083297 0.251143 0.000000 
-1.028190 0.282814 0.000000 
-1.181630 -0.315241 0.000000 
-1.112789 -0.346669 0.000000 
-1.040643 -0.358839 0.000000 
-0.978118 -0.361926 0.000000 
-0.927392 -0.374951 0.000000 
-0.889718 -0.414086 0.000000 
-0.873564 -0.470636 0.000000 
-0.920771 -0.502830 0.000000 
-0.935346 -0.435561 0.000000 
-0.991249 -0.512406 0.000000 
-1.088918 -0.509678 0.000000 
-1.067426 -0.430026 0.000000 
-1.189474 -0.502114 0.000000 
-1.147229 -0.417359 0.000000 
-1.266509 -0.478824 0.000000 
-1.219913 -0.391181 0.000000 
-1.335307 -0.442998 0.000000 
-1.284456 -0.353182 0.000000 
-1.402357 -0.399094 0.000000 
-1.341444 -0.305382 0.000000 
-1.466758 -0.346418 0.000000 
-1.539152 -0.285619 0.000000 
-1.393011 -0.247451 0.000000 
-1.612839 -0.215348 0.000000 
-1.665320 -0.157770 0.000000 
-1.691220 -0.092943 0.000000 
-1.704696 -0.007449 0.000000 
-1.850073 0.159420 0.000000 
-1.911042 0.103595 0.000000 
-1.969645 0.046758 0.000000 
-1.726970 0.098962 0.000000 
-0.222881 0.306791 0.000000 
-0.195707 0.279208 0.000000 
-0.164205 0.242261 0.000000 
-0.127520 0.209563 0.000000 
-0.095686 0.180071 0.000000 
-0.059027 0.151593 0.000000 
-0.018954 0.121610 0.000000 
0.030296 0.090339 0.000000 
0.086536 0.069813 0.000000 
0.141893 0.051082 0.000000 
0.202102 0.021802 0.000000 
0.263408 -0.018115 0.000000 
0.311661 -0.068102 0.000000 
0.333954 -0.127724 0.000000 
0.338621 -0.188175 0.000000 
0.341530 -0.242113 0.000000 
0.353165 -0.292302 0.000000 
0.365710 -0.350724 0.000000 
0.363543 -0.420253 0.000000 
0.357353 -0.482368 0.000000 
0.351188 -0.533110 0.000000 
0.363842 -0.580138 0.000000 
-1.737069 -0.446789 0.000000 
-0.199590 0.359409 0.000000 
-0.156305 0.329492 0.000000 
-0.462327 1.595448 0.000000 
0.741313 2.118023 0.000000 
0.482415 -0.590909 0.000000 
0.446104 -0.598805 0.000000 
0.403556 -0.604459 0.000000 
-0.104001 0.301428 0.000000 
-0.514998 1.527503 0.000000 
-0.059937 0.267023 0.000000 
0.738519 2.092758 0.000000 
0.714572 2.105058 0.000000 
-0.249752 0.386232 0.000000 
-0.036232 0.223224 0.000000 
0.000772 0.195392 0.000000 
0.035161 0.169748 0.000000 
-1.776537 -0.446231 0.000000 
-1.836238 -0.442046 0.000000 
-0.309416 0.400332 0.000000 
-0.378944 0.398068 0.000000 
-2.292732 0.277656 0.000000 
-2.315166 0.227665 0.000000 
-2.314418 0.180108 0.000000 
-2.293418 0.133722 0.000000 
-2.279687 0.083843 0.000000 
-2.253462 0.036577 0.000000 
0.075120 0.142005 0.000000 
0.131113 0.129397 0.000000 
-0.977004 0.331380 0.000000 
-0.860050 0.321215 0.000000 
-1.912142 -0.433990 0.000000 
-1.989966 -0.442770 0.000000 
-2.023752 -0.375228 0.000000 
-2.082175 -0.303967 0.000000 
0.723889 2.061245 0.000000 
0.691466 2.080088 0.000000 
0.665980 2.047441 0.000000 
0.704783 2.020173 0.000000 
0.637970 2.009383 0.000000 
0.681732 1.972964 0.000000 
0.670916 1.926789 0.000000 
0.602858 1.977715 0.000000 
0.659584 1.886365 0.000000 
0.560783 1.951344 0.000000 
0.636111 1.850290 0.000000 
0.607495 1.800500 0.000000 
0.595324 1.737019 0.000000 
0.604052 1.672346 0.000000 
0.514160 1.921941 0.000000 
0.453857 1.894495 0.000000 
0.392525 1.892517 0.000000 
0.334098 1.890989 0.000000 
0.278675 1.872235 0.000000 
0.217273 1.854160 0.000000 
0.149449 1.836804 0.000000 
0.614128 1.620070 0.000000 
0.621313 1.572491 0.000000 
0.624262 1.527611 0.000000 
-2.197766 -0.016611 0.000000 
-2.158682 -0.091535 0.000000 
-2.124695 0.042719 0.000000 
-2.150589 -0.257661 0.000000 
-2.141926 -0.180116 0.000000 
-0.393439 -0.596676 0.000000 
-0.412631 -0.552632 0.000000 
-0.436983 -0.512029 0.000000 
-0.445953 -0.468609 0.000000 
-0.458251 -0.435783 0.000000 
-0.479726 -0.401017 0.000000 
-0.496934 -0.352286 0.000000 
-0.509002 -0.297203 0.000000 
-0.517157 -0.242872 0.000000 
-0.545309 -0.191597 0.000000 
-0.442273 -0.594070 0.000000 
-0.496002 -0.584553 0.000000 
-0.557668 -0.586659 0.000000 
-0.618975 -0.571179 0.000000 
-0.334659 2.059839 0.000000 
-0.367985 2.030122 0.000000 
-0.385153 1.993696 0.000000 
-0.396797 1.959829 0.000000 
-0.406285 1.924307 0.000000 
-0.402558 1.885173 0.000000 
-0.406645 1.846730 0.000000 
-0.418378 1.814316 0.000000 
-0.428059 1.785190 0.000000 
-0.435849 1.755643 0.000000 
-0.442335 1.725608 0.000000 
-0.445406 1.692543 0.000000 
-0.444483 1.646827 0.000000 
0.619822 1.481879 0.000000 
-1.077870 0.378444 0.000000 
-1.149036 0.336486 0.000000 
-1.174735 0.261643 0.000000 
-1.192231 0.209920 0.000000 
-1.210811 0.168143 0.000000 
-1.228352 0.128803 0.000000 
-1.238869 0.090823 0.000000 
-1.244643 0.059326 0.000000 
-1.248534 0.034425 0.000000 
-1.252336 0.015137 0.000000 
-1.262323 0.001886 0.000000 
-1.280319 -0.009030 0.000000 
-0.451814 0.375408 0.000000 
-0.526928 0.331886 0.000000 
0.194935 0.112405 0.000000 
0.069048 1.822704 0.000000 
-0.574175 0.261202 0.000000 
-0.593607 0.180099 0.000000 
-1.764101 0.219784 0.000000 
-2.210991 0.338640 0.000000 
-0.825996 0.235938 0.000000 
-0.799223 0.164857 0.000000 
-0.760911 0.098424 0.000000 
0.605964 1.430928 0.000000 
0.587834 1.373567 0.000000 
0.576354 1.313719 0.000000 
0.574971 1.258711 0.000000 
0.580375 1.215686 0.000000 
0.545179 1.193302 0.000000 
0.509957 1.161039 0.000000 
0.484198 1.124637 0.000000 
0.468721 1.093483 0.000000 
0.449386 1.074952 0.000000 
0.422962 1.062286 0.000000 
0.391379 1.043135 0.000000 
0.357154 1.019072 0.000000 
0.323730 0.990699 0.000000 
-0.582151 -0.130729 0.000000 
0.265957 0.085975 0.000000 
0.333763 0.039846 0.000000 
0.378371 -0.027170 0.000000 
0.400918 -0.101565 0.000000 
0.401084 -0.164554 0.000000 
0.404345 -0.218655 0.000000 
0.432648 -0.269737 0.000000 
0.450030 -0.334178 0.000000 
0.529803 -0.181025 0.000000 
0.491947 -0.229162 0.000000 
0.453243 -0.179278 0.000000 
0.449550 -0.408502 0.000000 
0.498420 -0.135151 0.000000 
0.474171 -0.075210 0.000000 
0.457863 -0.000637 0.000000 
0.462195 -0.467156 0.000000 
0.478704 -0.513492 0.000000 
0.483460 -0.554458 0.000000 
0.412910 -0.492798 0.000000 
0.398390 -0.531511 0.000000 
0.404290 -0.565799 0.000000 
0.442452 -0.561240 0.000000 
0.436659 -0.526076 0.000000 
-0.727378 0.024291 0.000000 
-0.616071 0.106309 0.000000 
-0.623548 0.032029 0.000000 
-0.605779 -0.048979 0.000000 
-0.706340 -0.061427 0.000000 
-0.681483 -0.147689 0.000000 
-0.032304 1.817144 0.000000 
-0.128010 1.853293 0.000000 
-0.195732 1.920417 0.000000 
-0.243911 1.974331 0.000000 
-0.287859 2.021734 0.000000 
-0.335518 1.994039 0.000000 
-0.667608 -0.233070 0.000000 
-0.584906 -0.239838 0.000000 
-0.658169 -0.313078 0.000000 
-0.578442 -0.305208 0.000000 
-0.639050 -0.384521 0.000000 
-0.607982 -0.460038 0.000000 
-0.562541 -0.367907 0.000000 
-0.536184 -0.428931 0.000000 
-0.495978 -0.466892 0.000000 
-0.500680 -0.519287 0.000000 
-0.573051 -0.523740 0.000000 
-2.690892 1.590438 0.000000 
-2.684799 1.504425 0.000000 
-2.602920 1.503163 0.000000 
-2.574381 1.588156 0.000000 
-2.518122 1.523030 0.000000 
-2.424460 1.546928 0.000000 
-2.320006 1.537997 0.000000 
-2.229986 1.514379 0.000000 
-2.146342 1.473139 0.000000 
-1.455055 -0.188469 0.000000 
-1.387692 -0.108146 0.000000 
-1.339496 -0.054817 0.000000 
-1.304977 -0.026258 0.000000 
-1.531301 -0.122976 0.000000 
-1.604385 -0.078864 0.000000 
-1.592423 0.021817 0.000000 
-1.608296 0.145780 0.000000 
-1.827918 0.344225 0.000000 
0.477873 0.113029 0.000000 
0.477147 0.147927 0.000000 
0.465631 0.182167 0.000000 
-0.587742 1.626376 0.000000 
-0.593403 1.650480 0.000000 
-0.604579 1.663136 0.000000 
-0.619289 1.668822 0.000000 
-0.639577 1.666649 0.000000 
-0.665912 1.668265 0.000000 
-0.697937 1.675252 0.000000 
-0.595692 1.572888 0.000000 
-0.726123 1.690063 0.000000 
-0.757398 1.700634 0.000000 
-0.794522 1.698058 0.000000 
-0.841416 1.695481 0.000000 
-0.894922 1.696841 0.000000 
-0.956071 1.705257 0.000000 
-1.020951 1.724178 0.000000 
-1.077937 1.751813 0.000000 
-1.120258 1.780541 0.000000 
-1.171769 1.756281 0.000000 
0.332207 0.309672 0.000000 
0.333662 0.267937 0.000000 
0.321472 0.338289 0.000000 
0.302407 0.365101 0.000000 
0.214022 0.379763 0.000000 
0.194081 0.440788 0.000000 
0.186716 0.496301 0.000000 
0.189303 0.549073 0.000000 
0.360023 0.228255 0.000000 
0.405131 0.203122 0.000000 
0.201671 0.598319 0.000000 
0.218038 0.648580 0.000000 
0.236652 0.697514 0.000000 
0.256885 0.739447 0.000000 
0.278373 0.767941 0.000000 
0.284019 0.801339 0.000000 
0.276718 0.848087 0.000000 
0.278735 0.904900 0.000000 
0.296322 0.955167 0.000000 
-1.507867 1.708039 0.000000 
-1.548116 1.683396 0.000000 
-1.598023 1.656017 0.000000 
-1.467251 1.722813 0.000000 
-1.422160 1.730096 0.000000 
-1.373311 1.736812 0.000000 
-1.322903 1.744589 0.000000 
-1.275577 1.753835 0.000000 
-1.225048 1.752435 0.000000 
-1.662214 1.632348 0.000000 
-1.732600 1.612408 0.000000 
-1.794687 1.598033 0.000000 
-1.841773 1.568845 0.000000 
-2.078405 0.636118 0.000000 
-2.079214 0.714707 0.000000 
-2.097651 0.558518 0.000000 
-2.129318 0.486779 0.000000 
-2.096743 0.795269 0.000000 
-2.169699 0.431436 0.000000 
-1.991686 0.358435 0.000000 
-1.642187 0.283991 0.000000 
-1.989898 0.191211 0.000000 
-2.064526 0.119398 0.000000 
-1.914688 0.264745 0.000000 
-2.037969 1.047822 0.000000 
-2.021377 0.932137 0.000000 
-2.055796 1.176983 0.000000 
-2.102728 1.279636 0.000000 
-2.047875 1.421939 0.000000 
0.428030 0.168670 0.000000 
0.375625 0.147434 0.000000 
0.313454 0.160535 0.000000 
0.290352 0.306569 0.000000 
0.238487 1.017487 0.000000 
0.440631 0.130562 0.000000 
0.396678 0.090785 0.000000 
0.460488 0.064865 0.000000 
0.523747 1.240977 0.000000 
-2.262588 0.204231 0.000000 
-2.220468 0.260259 0.000000 
-2.218579 0.150720 0.000000 
-2.146376 0.202570 0.000000 
-2.206503 0.085650 0.000000 
0.473879 1.202365 0.000000 
0.446488 1.150033 0.000000 
0.440978 1.106014 0.000000 
0.409581 1.098159 0.000000 
0.629179 1.927055 0.000000 
0.593839 1.894581 0.000000 
0.550362 1.850377 0.000000 
0.483841 1.809955 0.000000 
0.202470 0.951123 0.000000 
0.241245 0.803347 0.000000 
0.205152 0.778546 0.000000 
0.175878 0.730406 0.000000 
0.153326 0.671899 0.000000 
0.132079 0.611450 0.000000 
0.113278 0.546994 0.000000 
0.106000 0.478670 0.000000 
0.109640 0.409474 0.000000 
0.121648 0.338796 0.000000 
0.032483 0.249182 0.000000 
0.246820 0.331860 0.000000 
0.099619 0.197547 0.000000 
0.373127 1.083277 0.000000 
-0.307911 1.946417 0.000000 
-0.360136 1.927948 0.000000 
-0.343252 1.873602 0.000000 
-0.270247 1.881746 0.000000 
0.168337 0.194065 0.000000 
0.242346 0.183728 0.000000 
0.270369 0.252765 0.000000 
0.505525 1.308738 0.000000 
-0.689828 0.135993 0.000000 
-0.729540 0.193397 0.000000 
-0.746154 0.267870 0.000000 
-0.657668 0.284434 0.000000 
-0.661195 0.200147 0.000000 
-0.924642 0.437109 0.000000 
-1.137284 1.700473 0.000000 
-1.072920 1.655879 0.000000 
-1.248127 1.712770 0.000000 
-1.304069 1.696448 0.000000 
-1.360197 1.688787 0.000000 
-1.411221 1.684648 0.000000 
-1.453165 1.681418 0.000000 
-1.486003 1.663956 0.000000 
-1.510814 1.620487 0.000000 
-1.558800 1.575818 0.000000 
-0.995058 1.629126 0.000000 
-0.919611 1.618650 0.000000 
-0.852227 1.625582 0.000000 
-0.796966 1.642100 0.000000 
-0.752732 1.661269 0.000000 
-1.635591 1.548485 0.000000 
-1.992480 0.823187 0.000000 
-1.965104 0.713407 0.000000 
-1.974377 0.610074 0.000000 
-2.014368 0.516453 0.000000 
-2.065453 0.433266 0.000000 
-2.071492 0.280199 0.000000 
-2.131272 0.363736 0.000000 
-1.712039 1.535162 0.000000 
-1.781280 1.535112 0.000000 
-1.884796 1.505056 0.000000 
0.516332 1.724718 0.000000 
0.538779 1.653590 0.000000 
0.517174 1.383123 0.000000 
0.552532 1.445060 0.000000 
0.576896 1.486986 0.000000 
0.583356 1.524013 0.000000 
0.576083 1.561017 0.000000 
0.562288 1.603377 0.000000 
-0.776910 0.364483 0.000000 
-1.451771 -0.048664 0.000000 
-1.374596 -0.010881 0.000000 
-1.326837 0.004579 0.000000 
-1.272657 0.019777 0.000000 
-1.295259 0.014007 0.000000 
-1.274719 0.041312 0.000000 
-1.277356 0.068415 0.000000 
-1.282752 0.103497 0.000000 
-1.279912 0.151273 0.000000 
-1.259061 0.195069 0.000000 
-1.246354 0.236562 0.000000 
-1.247511 0.291532 0.000000 
-1.260959 0.380163 0.000000 
-1.083075 0.550436 0.000000 
-1.474179 0.045847 0.000000 
-1.468523 0.171504 0.000000 
-1.714576 0.439259 0.000000 
-1.917838 0.445884 0.000000 
-1.479337 0.321357 0.000000 
-1.929043 1.377753 0.000000 
-1.933932 1.215411 0.000000 
-1.916094 1.075721 0.000000 
-1.891356 0.956437 0.000000 
-0.640008 1.632184 0.000000 
-0.671120 1.625160 0.000000 
-0.705575 1.631579 0.000000 
-0.401264 1.495462 0.000000 
-0.460851 1.339338 0.000000 
-0.397949 1.608933 0.000000 
-0.609239 1.626662 0.000000 
-0.410298 1.673066 0.000000 
-0.408964 1.707882 0.000000 
-0.399540 1.737001 0.000000 
-0.395782 1.769868 0.000000 
0.285100 1.051728 0.000000 
0.331625 1.069033 0.000000 
-0.121818 0.387593 0.000000 
0.021900 0.310247 0.000000 
0.115588 0.264010 0.000000 
0.198863 0.265963 0.000000 
-0.064867 0.366769 0.000000 
0.364707 1.834921 0.000000 
0.303732 1.803841 0.000000 
0.240047 1.773133 0.000000 
0.172732 1.734838 0.000000 
0.087651 1.694505 0.000000 
-0.030041 1.669758 0.000000 
-0.215594 1.793209 0.000000 
-0.230359 0.469691 0.000000 
-0.307828 0.503855 0.000000 
-0.401252 0.514727 0.000000 
-0.492206 0.486481 0.000000 
-0.743012 1.618037 0.000000 
-0.382985 1.796732 0.000000 
-0.353471 1.825476 0.000000 
-1.315709 0.230789 0.000000 
-1.343314 0.312708 0.000000 
-0.721193 1.576525 0.000000 
-0.632022 1.587453 0.000000 
-0.618292 1.646176 0.000000 
-1.300529 0.039501 0.000000 
-1.311319 0.065746 0.000000 
-0.675320 1.563991 0.000000 
-1.449691 1.640695 0.000000 
-0.167828 0.428446 0.000000 
-0.066773 0.444489 0.000000 
0.014030 0.381691 0.000000 
-1.331624 0.040881 0.000000 
-1.380062 0.054785 0.000000 
-1.340869 0.099489 0.000000 
-1.353905 0.169697 0.000000 
0.406993 1.146424 0.000000 
-1.403597 1.639182 0.000000 
0.364934 1.136376 0.000000 
-1.348692 1.639902 0.000000 
0.247855 1.149382 0.000000 
0.315701 1.145987 0.000000 
0.207111 0.870914 0.000000 
0.143206 0.850038 0.000000 
-1.453768 1.588419 0.000000 
-0.790281 1.576397 0.000000 
-1.284745 1.643573 0.000000 
-1.791133 1.456045 0.000000 
-1.698001 1.440253 0.000000 
-1.602996 1.445444 0.000000 
-1.509140 1.476313 0.000000 
-1.850904 0.836478 0.000000 
0.171486 1.120630 0.000000 
0.103791 0.778797 0.000000 
0.081732 0.705084 0.000000 
0.012465 0.468223 0.000000 
0.056973 0.634151 0.000000 
-0.859037 1.532965 0.000000 
-0.947148 1.517013 0.000000 
-1.042292 1.539662 0.000000 
-1.207800 1.662603 0.000000 
0.405236 1.771382 0.000000 
0.432576 1.680380 0.000000 
0.470249 1.612635 0.000000 
0.516988 1.576192 0.000000 
0.538064 1.542692 0.000000 
0.548893 1.508777 0.000000 
0.511168 1.478677 0.000000 
0.447440 1.432141 0.000000 
0.336576 1.738514 0.000000 
0.352905 1.659235 0.000000 
0.280111 1.700256 0.000000 
0.425405 1.531350 0.000000 
0.495333 1.529533 0.000000 
0.435871 1.266118 0.000000 
-0.582540 0.432156 0.000000 
-1.810838 0.691264 0.000000 
-1.837718 0.553443 0.000000 
0.231389 1.633315 0.000000 
-0.169223 1.651209 0.000000 
-0.358516 1.762229 0.000000 
-0.831990 0.488564 0.000000 
-0.676614 0.392245 0.000000 
-0.304985 1.770842 0.000000 
0.154076 1.543269 0.000000 
0.032165 1.477388 0.000000 
-1.118654 1.582200 0.000000 
-1.306357 0.560432 0.000000 
-1.538817 0.509397 0.000000 
-1.801087 1.340649 0.000000 
-1.802902 1.206114 0.000000 
-1.804665 1.086764 0.000000 
-1.777440 0.983119 0.000000 
-0.986798 0.780098 0.000000 
-0.372825 1.673680 0.000000 
-0.323929 1.595924 0.000000 
-0.283612 1.664919 0.000000 
-0.355311 1.711628 0.000000 
-0.277653 1.423064 0.000000 
-0.126264 1.431841 0.000000 
-0.312271 1.176205 0.000000 
-0.289946 0.636335 0.000000 
-0.193810 0.570928 0.000000 
-0.423907 0.679870 0.000000 
-0.114792 0.508697 0.000000 
-0.535770 0.634451 0.000000 
-1.422411 1.511375 0.000000 
-1.396637 1.593468 0.000000 
0.101283 1.049390 0.000000 
0.384708 1.200023 0.000000 
-0.765487 1.505321 0.000000 
0.024488 0.554737 0.000000 
-1.685710 1.319055 0.000000 
-0.851171 1.407592 0.000000 
-0.603497 1.456368 0.000000 
-0.978154 1.375426 0.000000 
-0.699634 1.458863 0.000000 
-1.566560 1.313088 0.000000 
0.324386 1.246532 0.000000 
0.225177 1.291740 0.000000 
0.103404 1.287585 0.000000 
0.264525 1.434230 0.000000 
0.375524 1.354501 0.000000 
-0.722859 0.517834 0.000000 
-0.804099 0.650694 0.000000 
-0.630108 0.562246 0.000000 
-1.342192 1.591147 0.000000 
-1.445045 1.346008 0.000000 
0.042573 0.948296 0.000000 
-1.197152 1.593495 0.000000 
-1.275712 1.582684 0.000000 
0.009788 0.834683 0.000000 
0.007428 0.740788 0.000000 
-1.624661 0.709190 0.000000 
-1.706493 0.875319 0.000000 
-0.014319 0.669243 0.000000 
-0.059935 0.593644 0.000000 
-0.139952 0.674280 0.000000 
-0.233328 0.796445 0.000000 
-0.073092 0.741364 0.000000 
-0.121108 0.871220 0.000000 
-0.119730 1.065799 0.000000 
-0.398430 0.919224 0.000000 
-0.026441 1.217548 0.000000 
-1.679294 1.181199 0.000000 
-1.698733 1.059463 0.000000 
-1.219031 0.965799 0.000000 
-0.854674 1.051593 0.000000 
-0.658235 0.726305 0.000000 
-0.623629 0.968500 0.000000 
-0.765556 1.293159 0.000000 
-0.596319 1.250467 0.000000 
-1.360217 1.545531 0.000000 
-1.334110 1.421369 0.000000 
-1.529501 1.141250 0.000000 
-1.363780 1.177187 0.000000 
-1.571029 0.979925 0.000000 
-1.188333 1.513220 0.000000 
-1.056334 1.183062 0.000000 
-1.217896 1.312322 0.000000 
-1.279678 1.507408 0.000000 
-0.993027 -0.434596 0.000000 
-3.091970 1.706938 0.000000 
-1.410358 0.808656 0.000000 
-1.115382 1.435645 0.000000 
0.330018 1.558064 0.000000 
-0.391446 2.117832 0.000000 
-1.734831 -0.503744 0.000000 
-2.357079 0.310701 0.000000 
-3.441445 1.894271 0.000000 
-2.367134 0.273477 0.000000 
-3.393690 1.868291 0.000000 
CELLS 899 1798 
1 0 
1 1 
1 2 
1 3 
1 4 
1 5 
1 6 
1 7 
1 8 
1 9 
1 10 
1 11 
1 12 
1 13 
1 14 
1 15 
1 16 
1 17 
1 18 
1 19 
1 20 
1 21 
1 22 
1 23 
1 24 
1 25 
1 26 
1 27 
1 28 
1 29 
1 30 
1 31 
1 32 
1 33 
1 34 
1 35 
1 36 
1 37 
1 38 
1 39 
1 40 
1 41 
1 42 
1 43 
1 44 
1 45 
1 46 
1 47 
1 48 
1 49 
1 50 
1 51 
1 52 
1 53 
1 54 
1 55 
1 56 
1 57 
1 58 
1 59 
1 60 
1 61 
1 62 
1 63 
1 64 
1 65 
1 66 
1 67 
1 68 
1 69 
1 70 
1 71 
1 72 
1 73 
1 74 
1 75 
1 76 
1 77 
1 78 
1 79 
1 80 
1 81 
1 82 
1 83 
1 84 
1 85 
1 86 
1 87 
1 88 
1 89 
1 90 
1 91 
1 92 
1 93 
1 94 
1 95 
1 96 
1 97 
1 98 
1 99 
1 100 
1 101 
1 102 
1 103 
1 104 
1 105 
1 106 
1 107 
1 108 
1 109 
1 110 
1 111 
1 112 
1 113 
1 114 
1 115 
1 116 
1 117 
1 118 
1 119 
1 120 
1 121 
1 122 
1 123 
1 124 
1 125 
1 126 
1 127 
1 128 
1 129 
1 130 
1 131 
1 132 
1 133 
1 134 
1 135 
1 136 
1 137 
1 138 
1 139 
1 140 
1 141 
1 142 
1 143 
1 144 
1 145 
1 146 
1 147 
1 148 
1 149 
1 150 
1 151 
1 152 
1 153 
1 154 
1 155 
1 156 
1 157 
1 158 
1 159 
1 160 
1 161 
1 162 
1 163 
1 164 
1 165 
1 166 
1 167 
1 168 
1 169 
1 170 
1 171 
1 172 
1 173 
1 174 
1 175 
1 176 
1 177 
1 178 
1 179 
1 180 
1 181 
1 182 
1 183 
1 184 
1 185 
1 186 
1 187 
1 188 
1 189 
1 190 
1 191 
1 192 
1 193 
1 194 
1 195 
1 196 
1 197 
1 198 
1 199 
1 200 
1 201 
1 202 
1 203 
1 204 
1 205 
1 206 
1 207 
1 208 
1 209 
1 210 
1 211 
1 212 
1 213 
1 214 
1 215 
1 216 
1 217 
1 218 
1 219 
1 220 
1 221 
1 222 
1 223 
1 224 
1 225 
1 226 
1 227 
1 228 
1 229 
1 230 
1 231 
1 232 
1 233 
1 234 
1 235 
1 236 
1 237 
1 238 
1 239 
1 240 
1 241 
1 242 
1 243 
1 244 
1 245 
1 246 
1 247 
1 248 
1 249 
1 250 
1 251 
1 252 
1 253 
1 254 
1 255 
1 256 
1 257 
1 258 
1 259 
1 260 
1 261 
1 262 
1 263 
1 264 
1 265 
1 266 
1 267 
1 268 
1 269 
1 270 
1 271 
1 272 
1 273 
1 274 
1 275 
1 276 
1 277 
1 278 
1 279 
1 280 
1 281 
1 282 
1 283 
1 284 
1 285 
1 286 
1 287 
1 288 
1 289 
1 290 
1 291 
1 292 
1 293 
1 294 
1 295 
1 296 
1 297 
1 298 
1 299 
1 300 
1 301 
1 302 
1 303 
1 304 
1 305 
1 306 
1 307 
1 308 
1 309 
1 310 
1 311 
1 312 
1 313 
1 314 
1 315 
1 316 
1 317 
1 318 
1 319 
1 320 
1 321 
1 322 
1 323 
1 324 
1 325 
1 326 
1 327 
1 328 
1 329 
1 330 
1 331 
1 332 
1 333 
1 334 
1 335 
1 336 
1 337 
1 338 
1 339 
1 340 
1 341 
1 342 
1 343 
1 344 
1 345 
1 346 
1 347 
1 348 
1 349 
1 350 
1 351 
1 352 
1 353 
1 354 
1 355 
1 356 
1 357 
1 358 
1 359 
1 360 
1 361 
1 362 
1 363 
1 364 
1 365 
1 366 
1 367 
1 368 
1 369 
1 370 
1 371 
1 372 
1 373 
1 374 
1 375 
1 376 
1 377 
1 378 
1 379 
1 380 
1 381 
1 382 
1 383 
1 384 
1 385 
1 386 
1 387 
1 388 
1 389 
1 390 
1 391 
1 392 
1 393 
1 394 
1 395 
1 396 
1 397 
1 398 
1 399 
1 400 
1 401 
1 402 
1 403 
1 404 
1 405 
1 406 
1 407 
1 408 
1 409 
1 410 
1 411 
1 412 
1 413 
1 414 
1 415 
1 416 
1 417 
1 418 
1 419 
1 420 
1 421 
1 422 
1 423 
1 424 
1 425 
1 426 
1 427 
1 428 
1 429 
1 430 
1 431 
1 432 
1 433 
1 434 
1 435 
1 436 
1 437 
1 438 
1 439 
1 440 
1 441 
1 442 
1 443 
1 444 
1 445 
1 446 
1 447 
1 448 
1 449 
1 450 
1 451 
1 452 
1 453 
1 454 
1 455 
1 456 
1 457 
1 458 
1 459 
1 460 
1 461 
1 462 
1 463 
1 464 
1 465 
1 466 
1 467 
1 468 
1 469 
1 470 
1 471 
1 472 
1 473 
1 474 
1 475 
1 476 
1 477 
1 478 
1 479 
1 480 
1 481 
1 482 
1 483 
1 484 
1 485 
1 486 
1 487 
1 488 
1 489 
1 490 
1 491 
1 492 
1 493 
1 494 
1 495 
1 496 
1 497 
1 498 
1 499 
1 500 
1 501 
1 502 
1 503 
1 504 
1 505 
1 506 
1 507 
1 508 
1 509 
1 510 
1 511 
1 512 
1 513 
1 514 
1 515 
1 516 
1 517 
1 518 
1 519 
1 520 
1 521 
1 522 
1 523 
1 524 
1 525 
1 526 
1 527 
1 528 
1 529 
1 530 
1 531 
1 532 
1 533 
1 534 
1 535 
1 536 
1 537 
1 538 
1 539 
1 540 
1 541 
1 542 
1 543 
1 544 
1 545 
1 546 
1 547 
1 548 
1 549 
1 550 
1 551 
1 552 
1 553 
1 554 
1 555 
1 556 
1 557 
1 558 
1 559 
1 560 
1 561 
1 562 
1 563 
1 564 
1 565 
1 566 
1 567 
1 568 
1 569 
1 570 
1 571 
1 572 
1 573 
1 574 
1 575 
1 576 
1 577 
1 578 
1 579 
1 580 
1 581 
1 582 
1 583 
1 584 
1 585 
1 586 
1 587 
1 588 
1 589 
1 590 
1 591 
1 592 
1 593 
1 594 
1 595 
1 596 
1 597 
1 598 
1 599 
1 600 
1 601 
1 602 
1 603 
1 604 
1 605 
1 606 
1 607 
1 608 
1 609 
1 610 
1 611 
1 612 
1 613 
1 614 
1 615 
1 616 
1 617 
1 618 
1 619 
1 620 
1 621 
1 622 
1 623 
1 624 
1 625 
1 626 
1 627 
1 628 
1 629 
1 630 
1 631 
1 632 
1 633 
1 634 
1 635 
1 636 
1 637 
1 638 
1 639 
1 640 
1 641 
1 642 
1 643 
1 644 
1 645 
1 646 
1 647 
1 648 
1 649 
1 650 
1 651 
1 652 
1 653 
1 654 
1 655 
1 656 
1 657 
1 658 
1 659 
1 660 
1 661 
1 662 
1 663 
1 664 
1 665 
1 666 
1 667 
1 668 
1 669 
1 670 
1 671 
1 672 
1 673 
1 674 
1 675 
1 676 
1 677 
1 678 
1 679 
1 680 
1 681 
1 682 
1 683 
1 684 
1 685 
1 686 
1 687 
1 688 
1 689 
1 690 
1 691 
1 692 
1 693 
1 694 
1 695 
1 696 
1 697 
1 698 
1 699 
1 700 
1 701 
1 702 
1 703 
1 704 
1 705 
1 706 
1 707 
1 708 
1 709 
1 710 
1 711 
1 712 
1 713 
1 714 
1 715 
1 716 
1 717 
1 718 
1 719 
1 720 
1 721 
1 722 
1 723 
1 724 
1 725 
1 726 
1 727 
1 728 
1 729 
1 730 
1 731 
1 732 
1 733 
1 734 
1 735 
1 736 
1 737 
1 738 
1 739 
1 740 
1 741 
1 742 
1 743 
1 744 
1 745 
1 746 
1 747 
1 748 
1 749 
1 750 
1 751 
1 752 
1 753 
1 754 
1 755 
1 756 
1 757 
1 758 
1 759 
1 760 
1 761 
1 762 
1 763 
1 764 
1 765 
1 766 
1 767 
1 768 
1 769 
1 770 
1 771 
1 772 
1 773 
1 774 
1 775 
1 776 
1 777 
1 778 
1 779 
1 780 
1 781 
1 782 
1 783 
1 784 
1 785 
1 786 
1 787 
1 788 
1 789 
1 790 
1 791 
1 792 
1 793 
1 794 
1 795 
1 796 
1 797 
1 798 
1 799 
1 800 
1 801 
1 802 
1 803 
1 804 
1 805 
1 806 
1 807 
1 808 
1 809 
1 810 
1 811 
1 812 
1 813 
1 814 
1 815 
1 816 
1 817 
1 818 
1 819 
1 820 
1 821 
1 822 
1 823 
1 824 
1 825 
1 826 
1 827 
1 828 
1 829 
1 830 
1 831 
1 832 
1 833 
1 834 
1 835 
1 836 
1 837 
1 838 
1 839 
1 840 
1 841 
1 842 
1 843 
1 844 
1 845 
1 846 
1 847 
1 848 
1 849 
1 850 
1 851 
1 852 
1 853 
1 854 
1 855 
1 856 
1 857 
1 858 
1 859 
1 860 
1 861 
1 862 
1 863 
1 864 
1 865 
1 866 
1 867 
1 868 
1 869 
1 870 
1 871 
1 872 
1 873 
1 874 
1 875 
1 876 
1 877 
1 878 
1 879 
1 880 
1 881 
1 882 
1 883 
1 884 
1 885 
1 886 
1 887 
1 888 
1 889 
1 890 
1 891 
1 892 
1 893 
1 894 
1 895 
1 896 
1 897 
1 898 
CELL_TYPES 899 
1 
1 
1 
1 
1 
1 
1 
1 
1 
1 
1 
1 
1 
1 
1 
1 
1 
1 
1 
1 
1 
1 
1 
1 
1 
1 
1 
1 
1 
1 
1 
1 
1 
1 
1 
1 
1 
1 
1 
1 
1 
1 
1 
1 
1 
1 
1 
1 
1 
1 
1 
1 
1 
1 
1 
1 
1 
1 
1 
1 
1 
1 
1 
1 
1 
1 
1 
1 
1 
1 
1 
1 
1 
1 
1 
1 
1 
1 
1 
1 
1 
1 
1 
1 
1 
1 
1 
1 
1 
1 
1 
1 
1 
1 
1 
1 
1 
1 
1 
1 
1 
1 
1 
1 
1 
1 
1 
1 
1 
1 
1 
1 
1 
1 
1 
1 
1 
1 
1 
1 
1 
1 
1 
1 
1 
1 
1 
1 
1 
1 
1 
1 
1 
1 
1 
1 
1 
1 
1 
1 
1 
1 
1 
1 
1 
1 
1 
1 
1 
1 
1 
1 
1 
1 
1 
1 
1 
1 
1 
1 
1 
1 
1 
1 
1 
1 
1 
1 
1 
1 
1 
1 
1 
1 
1 
1 
1 
1 
1 
1 
1 
1 
1 
1 
1 
1 
1 
1 
1 
1 
1 
1 
1 
1 
1 
1 
1 
1 
1 
1 
1 
1 
1 
1 
1 
1 
1 
1 
1 
1 
1 
1 
1 
1 
1 
1 
1 
1 
1 
1 
1 
1 
1 
1 
1 
1 
1 
1 
1 
1 
1 
1 
1 
1 
1 
1 
1 
1 
1 
1 
1 
1 
1 
1 
1 
1 
1 
1 
1 
1 
1 
1 
1 
1 
1 
1 
1 
1 
1 
1 
1 
1 
1 
1 
1 
1 
1 
1 
1 
1 
1 
1 
1 
1 
1 
1 
1 
1 
1 
1 
1 
1 
1 
1 
1 
1 
1 
1 
1 
1 
1 
1 
1 
1 
1 
1 
1 
1 
1 
1 
1 
1 
1 
1 
1 
1 
1 
1 
1 
1 
1 
1 
1 
1 
1 
1 
1 
1 
1 
1 
1 
1 
1 
1 
1 
1 
1 
1 
1 
1 
1 
1 
1 
1 
1 
1 
1 
1 
1 
1 
1 
1 
1 
1 
1 
1 
1 
1 
1 
1 
1 
1 
1 
1 
1 
1 
1 
1 
1 
1 
1 
1 
1 
1 
1 
1 
1 
1 
1 
1 
1 
1 
1 
1 
1 
1 
1 
1 
1 
1 
1 
1 
1 
1 
1 
1 
1 
1 
1 
1 
1 
1 
1 
1 
1 
1 
1 
1 
1 
1 
1 
1 
1 
1 
1 
1 
1 
1 
1 
1 
1 
1 
1 
1 
1 
1 
1 
1 
1 
1 
1 
1 
1 
1 
1 
1 
1 
1 
1 
1 
1 
1 
1 
1 
1 
1 
1 
1 
1 
1 
1 
1 
1 
1 
1 
1 
1 
1 
1 
1 
1 
1 
1 
1 
1 
1 
1 
1 
1 
1 
1 
1 
1 
1 
1 
1 
1 
1 
1 
1 
1 
1 
1 
1 
1 
1 
1 
1 
1 
1 
1 
1 
1 
1 
1 
1 
1 
1 
1 
1 
1 
1 
1 
1 
1 
1 
1 
1 
1 
1 
1 
1 
1 
1 
1 
1 
1 
1 
1 
1 
1 
1 
1 
1 
1 
1 
1 
1 
1 
1 
1 
1 
1 
1 
1 
1 
1 
1 
1 
1 
1 
1 
1 
1 
1 
1 
1 
1 
1 
1 
1 
1 
1 
1 
1 
1 
1 
1 
1 
1 
1 
1 
1 
1 
1 
1 
1 
1 
1 
1 
1 
1 
1 
1 
1 
1 
1 
1 
1 
1 
1 
1 
1 
1 
1 
1 
1 
1 
1 
1 
1 
1 
1 
1 
1 
1 
1 
1 
1 
1 
1 
1 
1 
1 
1 
1 
1 
1 
1 
1 
1 
1 
1 
1 
1 
1 
1 
1 
1 
1 
1 
1 
1 
1 
1 
1 
1 
1 
1 
1 
1 
1 
1 
1 
1 
1 
1 
1 
1 
1 
1 
1 
1 
1 
1 
1 
1 
1 
1 
1 
1 
1 
1 
1 
1 
1 
1 
1 
1 
1 
1 
1 
1 
1 
1 
1 
1 
1 
1 
1 
1 
1 
1 
1 
1 
1 
1 
1 
1 
1 
1 
1 
1 
1 
1 
1 
1 
1 
1 
1 
1 
1 
1 
1 
1 
1 
1 
1 
1 
1 
1 
1 
1 
1 
1 
1 
1 
1 
1 
1 
1 
1 
1 
1 
1 
1 
1 
1 
1 
1 
1 
1 
1 
1 
1 
1 
1 
1 
1 
1 
1 
1 
1 
1 
1 
1 
1 
1 
1 
1 
1 
1 
1 
1 
1 
1 
1 
1 
1 
1 
1 
1 
1 
1 
1 
1 
1 
1 
1 
1 
1 
1 
1 
1 
1 
1 
1 
1 
1 
1 
1 
1 
1 
1 
1 
1 
1 
1 
1 
1 
1 
1 
1 
1 
1 
1 
1 
1 
1 
1 
1 
1 
1 
1 
1 
1 
1 
1 
1 
1 
1 
1 
1 
1 
1 
1 
1 
1 
1 
1 
1 
1 
1 
1 
1 
1 
1 
1 
1 
1 
1 
1 
1 
1 
1 
1 
1 
1 
1 
1 
1 
1 
1 
1 
1 
1 
1 
1 
1 
1 
1 
1 
1 
1 
1 
1 
1 
1 
1 
1 
1 
1 
1 
1 
1 
1 
1 
1 
1 
1 
1 
1 
1 
1 
1 
1 
1 
1 
1 
1 
1 
1 
1 
1 
1 
1 
1 
1 
1 
1 
1 
1 
1 
1 
1 
1 
1 
1 
1 
1 
1 
1 
1 
1 
1 
1 
1 
1 
1 
1 
1 
1 
1 
1 
1 
1 
1 
1 
1 
POINT_DATA 899 
VECTORS X_GC float 
-3.648847 2.246811 0.000000 
-3.619410 2.206259 0.000000 
-3.578536 2.170664 0.000000 
-3.540028 2.135014 0.000000 
-3.511690 2.102818 0.000000 
-3.481362 2.072960 0.000000 
-3.451569 2.032286 0.000000 
0.772356 2.149325 0.000000 
0.774615 2.123204 0.000000 
0.769962 2.094450 0.000000 
-3.399514 2.002010 0.000000 
0.413960 -0.642832 0.000000 
0.455573 -0.638529 0.000000 
-1.762619 -0.542727 0.000000 
-1.783389 -0.507331 0.000000 
-1.714437 -0.478542 0.000000 
0.732567 2.143650 0.000000 
0.698438 2.129813 0.000000 
0.491831 -0.624326 0.000000 
0.519501 -0.593921 0.000000 
0.530556 -0.553474 0.000000 
0.532354 -0.507670 0.000000 
0.531774 -0.457164 0.000000 
-3.460923 1.940278 0.000000 
0.663989 2.107867 0.000000 
0.631675 2.080472 0.000000 
0.601833 2.056417 0.000000 
0.569607 2.033159 0.000000 
0.534059 2.011082 0.000000 
0.492599 1.989942 0.000000 
0.444403 1.971277 0.000000 
0.762807 2.053475 0.000000 
-1.708694 -0.444159 0.000000 
-1.726386 -0.403896 0.000000 
-1.761257 -0.379875 0.000000 
-1.812853 -0.372027 0.000000 
-0.690422 -0.624362 0.000000 
-0.624256 -0.642290 0.000000 
-0.561079 -0.650471 0.000000 
-0.500739 -0.651927 0.000000 
-0.445387 -0.651989 0.000000 
0.532260 -0.398080 0.000000 
0.536647 -0.328747 0.000000 
-1.881389 -0.359526 0.000000 
-0.389303 -0.649715 0.000000 
-0.340338 -0.634429 0.000000 
-0.344339 -0.580294 0.000000 
-0.358558 -0.527755 0.000000 
-0.381750 -0.486843 0.000000 
-0.406193 -0.452668 0.000000 
-0.417316 -0.421171 0.000000 
-0.428320 -0.386914 0.000000 
-0.436973 -0.342649 0.000000 
-0.444212 -0.287106 0.000000 
-0.452662 -0.228248 0.000000 
-0.468602 -0.171349 0.000000 
0.553166 -0.264032 0.000000 
0.573193 -0.206361 0.000000 
0.574450 -0.154620 0.000000 
0.561087 -0.104300 0.000000 
0.550432 -0.048977 0.000000 
0.748903 2.000158 0.000000 
0.730940 1.943665 0.000000 
0.715868 1.897506 0.000000 
0.699446 1.861378 0.000000 
0.684888 1.820388 0.000000 
0.675900 1.774184 0.000000 
0.669871 1.724624 0.000000 
0.664455 1.676767 0.000000 
0.668163 1.630348 0.000000 
0.672091 1.580514 0.000000 
0.674558 1.532491 0.000000 
0.673045 1.482411 0.000000 
0.386491 1.961597 0.000000 
0.664855 1.423673 0.000000 
0.652298 1.365595 0.000000 
0.638456 1.311945 0.000000 
0.623121 1.262435 0.000000 
0.616008 1.219408 0.000000 
0.600787 1.184465 0.000000 
0.571289 1.155017 0.000000 
0.539016 1.123855 0.000000 
0.513857 1.094956 0.000000 
0.493343 1.068721 0.000000 
0.469109 1.050909 0.000000 
0.444920 1.034464 0.000000 
0.415324 1.013498 0.000000 
0.383540 0.988746 0.000000 
0.356179 0.959414 0.000000 
0.343879 0.920514 0.000000 
0.337476 0.874994 0.000000 
0.332404 0.829707 0.000000 
0.328512 0.790018 0.000000 
0.319594 0.753938 0.000000 
0.304149 0.720527 0.000000 
0.290502 0.680136 0.000000 
0.275896 0.632274 0.000000 
0.261905 0.590305 0.000000 
0.250150 0.556709 0.000000 
0.250896 0.518904 0.000000 
0.259587 0.476301 0.000000 
0.284617 0.433528 0.000000 
0.315237 0.403867 0.000000 
0.340022 0.384430 0.000000 
0.354380 0.358581 0.000000 
0.368685 0.331438 0.000000 
0.385568 0.305042 0.000000 
0.415372 0.280245 0.000000 
0.447119 0.248533 0.000000 
0.477633 0.220616 0.000000 
0.503078 0.192680 0.000000 
0.518876 0.154626 0.000000 
0.527127 0.118657 0.000000 
0.534187 0.074112 0.000000 
0.543185 0.013332 0.000000 
0.322519 1.950541 0.000000 
0.263849 1.937424 0.000000 
0.208223 1.932005 0.000000 
0.150441 1.928176 0.000000 
-0.687392 -0.551294 0.000000 
-3.327058 1.975779 0.000000 
-3.276080 1.929357 0.000000 
-3.224941 1.895770 0.000000 
-3.181728 1.866612 0.000000 
-3.135074 1.829682 0.000000 
-3.078123 1.805389 0.000000 
-1.944260 -0.314648 0.000000 
0.083204 1.933332 0.000000 
0.005786 1.927979 0.000000 
-0.071812 1.937217 0.000000 
-0.135705 1.966759 0.000000 
-0.182391 2.008365 0.000000 
-1.999041 -0.243679 0.000000 
-1.843230 -0.518188 0.000000 
-0.491126 -0.107389 0.000000 
-0.512312 -0.034146 0.000000 
-0.526535 0.028686 0.000000 
-0.527935 0.090808 0.000000 
-0.524207 0.157978 0.000000 
-0.505864 0.215110 0.000000 
-0.468875 0.264322 0.000000 
-0.410369 0.293567 0.000000 
-0.354013 0.314684 0.000000 
-0.301050 0.324629 0.000000 
-0.255730 0.325402 0.000000 
-0.695595 -0.472999 0.000000 
-0.726457 -0.396118 0.000000 
-0.747352 -0.326662 0.000000 
-3.396487 1.918643 0.000000 
-3.344056 1.839255 0.000000 
-3.294256 1.795855 0.000000 
-3.248246 1.757530 0.000000 
-3.196818 1.718177 0.000000 
-3.159669 1.666866 0.000000 
-3.113281 1.620162 0.000000 
-3.056061 1.600599 0.000000 
-2.996684 1.577974 0.000000 
-2.933161 1.548357 0.000000 
-2.879064 1.512215 0.000000 
-2.813006 1.487429 0.000000 
-2.751664 1.464379 0.000000 
-2.686782 1.435056 0.000000 
-1.922020 -0.515381 0.000000 
-1.999705 -0.516880 0.000000 
-2.060018 -0.495276 0.000000 
-2.032615 -0.160289 0.000000 
-2.048550 -0.074567 0.000000 
-2.029059 -0.008674 0.000000 
-2.105228 -0.438218 0.000000 
-2.154373 -0.370623 0.000000 
-2.203584 -0.315999 0.000000 
-2.237020 -0.254564 0.000000 
-2.250593 -0.189271 0.000000 
-2.270119 -0.117487 0.000000 
-2.297898 -0.047177 0.000000 
-2.327118 0.014403 0.000000 
-2.346747 0.068373 0.000000 
-2.362840 0.121482 0.000000 
-2.374561 0.172527 0.000000 
-2.373128 0.224502 0.000000 
-2.334174 0.291093 0.000000 
-2.331842 0.331711 0.000000 
-2.284565 0.340470 0.000000 
-0.236368 2.057900 0.000000 
-0.299146 2.101727 0.000000 
-0.346614 2.121652 0.000000 
-0.382877 2.085149 0.000000 
-0.412447 2.056099 0.000000 
-0.433989 2.015811 0.000000 
-0.446472 1.972845 0.000000 
-0.451628 1.933527 0.000000 
-0.451047 1.895065 0.000000 
-0.449242 1.859061 0.000000 
-0.453345 1.827172 0.000000 
-0.460251 1.799478 0.000000 
-0.470304 1.770693 0.000000 
-0.475290 1.741203 0.000000 
-0.478341 1.711417 0.000000 
-0.479442 1.674681 0.000000 
-2.609147 1.421267 0.000000 
-2.517189 1.415768 0.000000 
-2.434013 1.416105 0.000000 
-2.352624 1.406074 0.000000 
-2.274410 1.386702 0.000000 
-2.204499 1.352054 0.000000 
-2.180326 1.283171 0.000000 
-2.178559 1.194635 0.000000 
-2.168273 1.104606 0.000000 
-2.159086 1.006542 0.000000 
-2.144575 0.917383 0.000000 
-2.163040 0.842166 0.000000 
-2.183612 0.768074 0.000000 
-2.172907 0.703517 0.000000 
-2.161614 0.640762 0.000000 
-2.169833 0.580650 0.000000 
-2.188987 0.518897 0.000000 
-2.218663 0.467651 0.000000 
-2.229021 0.411778 0.000000 
-2.997130 1.788592 0.000000 
-3.021908 1.690454 0.000000 
-2.902046 1.757085 0.000000 
-0.770600 -0.244069 0.000000 
-0.790096 -0.152410 0.000000 
-0.811857 -0.071702 0.000000 
-0.835807 0.006862 0.000000 
-0.859157 0.076990 0.000000 
-0.881226 0.137041 0.000000 
-0.903169 0.196392 0.000000 
-0.928196 0.260436 0.000000 
-2.785442 1.724532 0.000000 
-2.944278 1.663790 0.000000 
-2.855014 1.626644 0.000000 
-2.796189 1.566564 0.000000 
-2.651235 1.709785 0.000000 
-2.517962 1.699438 0.000000 
-2.394240 1.690276 0.000000 
-2.275192 1.682279 0.000000 
-2.180847 1.657718 0.000000 
-2.099904 1.631239 0.000000 
-2.018420 1.599999 0.000000 
-1.945469 1.604296 0.000000 
-1.885190 1.637636 0.000000 
-1.829736 1.658205 0.000000 
-1.760875 1.683436 0.000000 
-1.680504 1.711861 0.000000 
-1.617798 1.730178 0.000000 
-1.570169 1.744701 0.000000 
-1.527149 1.758891 0.000000 
-1.482581 1.771020 0.000000 
-1.433927 1.777561 0.000000 
-1.386311 1.785476 0.000000 
-1.337319 1.794206 0.000000 
-1.286363 1.801286 0.000000 
-1.235962 1.802003 0.000000 
-1.188452 1.806816 0.000000 
-1.140860 1.816267 0.000000 
-1.091558 1.815576 0.000000 
-1.038962 1.804558 0.000000 
-0.982519 1.785560 0.000000 
-0.922315 1.768818 0.000000 
-0.869867 1.758493 0.000000 
-0.827747 1.752003 0.000000 
-0.785371 1.747092 0.000000 
-0.748025 1.737354 0.000000 
-0.712781 1.727087 0.000000 
-0.681690 1.713156 0.000000 
-0.657198 1.702021 0.000000 
-0.633895 1.695358 0.000000 
-0.612002 1.690903 0.000000 
-0.594184 1.683690 0.000000 
-0.577381 1.674240 0.000000 
-0.560109 1.658956 0.000000 
-0.540091 1.626502 0.000000 
-1.243914 -0.012344 0.000000 
-1.232782 0.001373 0.000000 
-1.257376 -0.026698 0.000000 
-1.224378 0.020073 0.000000 
-1.271472 -0.046043 0.000000 
-1.215702 0.042070 0.000000 
-1.204660 0.068126 0.000000 
-1.290143 -0.073785 0.000000 
-1.314447 -0.118825 0.000000 
-1.190204 0.098433 0.000000 
-1.318041 -0.172179 0.000000 
-1.171655 0.132589 0.000000 
-1.149359 0.168903 0.000000 
-1.123094 0.207152 0.000000 
-1.284246 -0.222159 0.000000 
-1.239750 -0.272885 0.000000 
-1.083297 0.251143 0.000000 
-1.028190 0.282814 0.000000 
-1.181630 -0.315241 0.000000 
-1.112789 -0.346669 0.000000 
-1.040643 -0.358839 0.000000 
-0.978118 -0.361926 0.000000 
-0.927392 -0.374951 0.000000 
-0.889718 -0.414086 0.000000 
-0.873564 -0.470636 0.000000 
-0.920771 -0.502830 0.000000 
-0.935346 -0.435561 0.000000 
-0.991249 -0.512406 0.000000 
-1.088918 -0.509678 0.000000 
-1.067426 -0.430026 0.000000 
-1.189474 -0.502114 0.000000 
-1.147229 -0.417359 0.000000 
-1.266509 -0.478824 0.000000 
-1.219913 -0.391181 0.000000 
-1.335307 -0.442998 0.000000 
-1.284456 -0.353182 0.000000 
-1.402357 -0.399094 0.000000 
-1.341444 -0.305382 0.000000 
-1.466758 -0.346418 0.000000 
-1.539152 -0.285619 0.000000 
-1.393011 -0.247451 0.000000 
-1.612839 -0.215348 0.000000 
-1.665320 -0.157770 0.000000 
-1.691220 -0.092943 0.000000 
-1.704696 -0.007449 0.000000 
-1.850073 0.159420 0.000000 
-1.911042 0.103595 0.000000 
-1.969645 0.046758 0.000000 
-1.726970 0.098962 0.000000 
-0.222881 0.306791 0.000000 
-0.195707 0.279208 0.000000 
-0.164205 0.242261 0.000000 
-0.127520 0.209563 0.000000 
-0.095686 0.180071 0.000000 
-0.059027 0.151593 0.000000 
-0.018954 0.121610 0.000000 
0.030296 0.090339 0.000000 
0.086536 0.069813 0.000000 
0.141893 0.051082 0.000000 
0.202102 0.021802 0.000000 
0.263408 -0.018115 0.000000 
0.311661 -0.068102 0.000000 
0.333954 -0.127724 0.000000 
0.338621 -0.188175 0.000000 
0.341530 -0.242113 0.000000 
0.353165 -0.292302 0.000000 
0.365710 -0.350724 0.000000 
0.363543 -0.420253 0.000000 
0.357353 -0.482368 0.000000 
0.351188 -0.533110 0.000000 
0.363842 -0.580138 0.000000 
-1.737069 -0.446789 0.000000 
-0.199590 0.359409 0.000000 
-0.156305 0.329492 0.000000 
-0.462327 1.595448 0.000000 
0.741313 2.118023 0.000000 
0.482415 -0.590909 0.000000 
0.446104 -0.598805 0.000000 
0.403556 -0.604459 0.000000 
-0.104001 0.301428 0.000000 
-0.514998 1.527503 0.000000 
-0.059937 0.267023 0.000000 
0.738519 2.092758 0.000000 
0.714572 2.105058 0.000000 
-0.249752 0.386232 0.000000 
-0.036232 0.223224 0.000000 
0.000772 0.195392 0.000000 
0.035161 0.169748 0.000000 
-1.776537 -0.446231 0.000000 
-1.836238 -0.442046 0.000000 
-0.309416 0.400332 0.000000 
-0.378944 0.398068 0.000000 
-2.292732 0.277656 0.000000 
-2.315166 0.227665 0.000000 
-2.314418 0.180108 0.000000 
-2.293418 0.133722 0.000000 
-2.279687 0.083843 0.000000 
-2.253462 0.036577 0.000000 
0.075120 0.142005 0.000000 
0.131113 0.129397 0.000000 
-0.977004 0.331380 0.000000 
-0.860050 0.321215 0.000000 
-1.912142 -0.433990 0.000000 
-1.989966 -0.442770 0.000000 
-2.023752 -0.375228 0.000000 
-2.082175 -0.303967 0.000000 
0.723889 2.061245 0.000000 
0.691466 2.080088 0.000000 
0.665980 2.047441 0.000000 
0.704783 2.020173 0.000000 
0.637970 2.009383 0.000000 
0.681732 1.972964 0.000000 
0.670916 1.926789 0.000000 
0.602858 1.977715 0.000000 
0.659584 1.886365 0.000000 
0.560783 1.951344 0.000000 
0.636111 1.850290 0.000000 
0.607495 1.800500 0.000000 
0.595324 1.737019 0.000000 
0.604052 1.672346 0.000000 
0.514160 1.921941 0.000000 
0.453857 1.894495 0.000000 
0.392525 1.892517 0.000000 
0.334098 1.890989 0.000000 
0.278675 1.872235 0.000000 
0.217273 1.854160 0.000000 
0.149449 1.836804 0.000000 
0.614128 1.620070 0.000000 
0.621313 1.572491 0.000000 
0.624262 1.527611 0.000000 
-2.197766 -0.016611 0.000000 
-2.158682 -0.091535 0.000000 
-2.124695 0.042719 0.000000 
-2.150589 -0.257661 0.000000 
-2.141926 -0.180116 0.000000 
-0.393439 -0.596676 0.000000 
-0.412631 -0.552632 0.000000 
-0.436983 -0.512029 0.000000 
-0.445953 -0.468609 0.000000 
-0.458251 -0.435783 0.000000 
-0.479726 -0.401017 0.000000 
-0.496934 -0.352286 0.000000 
-0.509002 -0.297203 0.000000 
-0.517157 -0.242872 0.000000 
-0.545309 -0.191597 0.000000 
-0.442273 -0.594070 0.000000 
-0.496002 -0.584553 0.000000 
-0.557668 -0.586659 0.000000 
-0.618975 -0.571179 0.000000 
-0.334659 2.059839 0.000000 
-0.367985 2.030122 0.000000 
-0.385153 1.993696 0.000000 
-0.396797 1.959829 0.000000 
-0.406285 1.924307 0.000000 
-0.402558 1.885173 0.000000 
-0.406645 1.846730 0.000000 
-0.418378 1.814316 0.000000 
-0.428059 1.785190 0.000000 
-0.435849 1.755643 0.000000 
-0.442335 1.725608 0.000000 
-0.445406 1.692543 0.000000 
-0.444483 1.646827 0.000000 
0.619822 1.481879 0.000000 
-1.077870 0.378444 0.000000 
-1.149036 0.336486 0.000000 
-1.174735 0.261643 0.000000 
-1.192231 0.209920 0.000000 
-1.210811 0.168143 0.000000 
-1.228352 0.128803 0.000000 
-1.238869 0.090823 0.000000 
-1.244643 0.059326 0.000000 
-1.248534 0.034425 0.000000 
-1.252336 0.015137 0.000000 
-1.262323 0.001886 0.000000 
-1.280319 -0.009030 0.000000 
-0.451814 0.375408 0.000000 
-0.526928 0.331886 0.000000 
0.194935 0.112405 0.000000 
0.069048 1.822704 0.000000 
-0.574175 0.261202 0.000000 
-0.593607 0.180099 0.000000 
-1.764101 0.219784 0.000000 
-2.210991 0.338640 0.000000 
-0.825996 0.235938 0.000000 
-0.799223 0.164857 0.000000 
-0.760911 0.098424 0.000000 
0.605964 1.430928 0.000000 
0.587834 1.373567 0.000000 
0.576354 1.313719 0.000000 
0.574971 1.258711 0.000000 
0.580375 1.215686 0.000000 
0.545179 1.193302 0.000000 
0.509957 1.161039 0.000000 
0.484198 1.124637 0.000000 
0.468721 1.093483 0.000000 
0.449386 1.074952 0.000000 
0.422962 1.062286 0.000000 
0.391379 1.043135 0.000000 
0.357154 1.019072 0.000000 
0.323730 0.990699 0.000000 
-0.582151 -0.130729 0.000000 
0.265957 0.085975 0.000000 
0.333763 0.039846 0.000000 
0.378371 -0.027170 0.000000 
0.400918 -0.101565 0.000000 
0.401084 -0.164554 0.000000 
0.404345 -0.218655 0.000000 
0.432648 -0.269737 0.000000 
0.450030 -0.334178 0.000000 
0.529803 -0.181025 0.000000 
0.491947 -0.229162 0.000000 
0.453243 -0.179278 0.000000 
0.449550 -0.408502 0.000000 
0.498420 -0.135151 0.000000 
0.474171 -0.075210 0.000000 
0.457863 -0.000637 0.000000 
0.462195 -0.467156 0.000000 
0.478704 -0.513492 0.000000 
0.483460 -0.554458 0.000000 
0.412910 -0.492798 0.000000 
0.398390 -0.531511 0.000000 
0.404290 -0.565799 0.000000 
0.442452 -0.561240 0.000000 
0.436659 -0.526076 0.000000 
-0.727378 0.024291 0.000000 
-0.616071 0.106309 0.000000 
-0.623548 0.032029 0.000000 
-0.605779 -0.048979 0.000000 
-0.706340 -0.061427 0.000000 
-0.681483 -0.147689 0.000000 
-0.032304 1.817144 0.000000 
-0.128010 1.853293 0.000000 
-0.195732 1.920417 0.000000 
-0.243911 1.974331 0.000000 
-0.287859 2.021734 0.000000 
-0.335518 1.994039 0.000000 
-0.667608 -0.233070 0.000000 
-0.584906 -0.239838 0.000000 
-0.658169 -0.313078 0.000000 
-0.578442 -0.305208 0.000000 
-0.639050 -0.384521 0.000000 
-0.607982 -0.460038 0.000000 
-0.562541 -0.367907 0.000000 
-0.536184 -0.428931 0.000000 
-0.495978 -0.466892 0.000000 
-0.500680 -0.519287 0.000000 
-0.573051 -0.523740 0.000000 
-2.690892 1.590438 0.000000 
-2.684799 1.504425 0.000000 
-2.602920 1.503163 0.000000 
-2.574381 1.588156 0.000000 
-2.518122 1.523030 0.000000 
-2.424460 1.546928 0.000000 
-2.320006 1.537997 0.000000 
-2.229986 1.514379 0.000000 
-2.146342 1.473139 0.000000 
-1.455055 -0.188469 0.000000 
-1.387692 -0.108146 0.000000 
-1.339496 -0.054817 0.000000 
-1.304977 -0.026258 0.000000 
-1.531301 -0.122976 0.000000 
-1.604385 -0.078864 0.000000 
-1.592423 0.021817 0.000000 
-1.608296 0.145780 0.000000 
-1.827918 0.344225 0.000000 
0.477873 0.113029 0.000000 
0.477147 0.147927 0.000000 
0.465631 0.182167 0.000000 
-0.587742 1.626376 0.000000 
-0.593403 1.650480 0.000000 
-0.604579 1.663136 0.000000 
-0.619289 1.668822 0.000000 
-0.639577 1.666649 0.000000 
-0.665912 1.668265 0.000000 
-0.697937 1.675252 0.000000 
-0.595692 1.572888 0.000000 
-0.726123 1.690063 0.000000 
-0.757398 1.700634 0.000000 
-0.794522 1.698058 0.000000 
-0.841416 1.695481 0.000000 
-0.894922 1.696841 0.000000 
-0.956071 1.705257 0.000000 
-1.020951 1.724178 0.000000 
-1.077937 1.751813 0.000000 
-1.120258 1.780541 0.000000 
-1.171769 1.756281 0.000000 
0.332207 0.309672 0.000000 
0.333662 0.267937 0.000000 
0.321472 0.338289 0.000000 
0.302407 0.365101 0.000000 
0.214022 0.379763 0.000000 
0.194081 0.440788 0.000000 
0.186716 0.496301 0.000000 
0.189303 0.549073 0.000000 
0.360023 0.228255 0.000000 
0.405131 0.203122 0.000000 
0.201671 0.598319 0.000000 
0.218038 0.648580 0.000000 
0.236652 0.697514 0.000000 
0.256885 0.739447 0.000000 
0.278373 0.767941 0.000000 
0.284019 0.801339 0.000000 
0.276718 0.848087 0.000000 
0.278735 0.904900 0.000000 
0.296322 0.955167 0.000000 
-1.507867 1.708039 0.000000 
-1.548116 1.683396 0.000000 
-1.598023 1.656017 0.000000 
-1.467251 1.722813 0.000000 
-1.422160 1.730096 0.000000 
-1.373311 1.736812 0.000000 
-1.322903 1.744589 0.000000 
-1.275577 1.753835 0.000000 
-1.225048 1.752435 0.000000 
-1.662214 1.632348 0.000000 
-1.732600 1.612408 0.000000 
-1.794687 1.598033 0.000000 
-1.841773 1.568845 0.000000 
-2.078405 0.636118 0.000000 
-2.079214 0.714707 0.000000 
-2.097651 0.558518 0.000000 
-2.129318 0.486779 0.000000 
-2.096743 0.795269 0.000000 
-2.169699 0.431436 0.000000 
-1.991686 0.358435 0.000000 
-1.642187 0.283991 0.000000 
-1.989898 0.191211 0.000000 
-2.064526 0.119398 0.000000 
-1.914688 0.264745 0.000000 
-2.037969 1.047822 0.000000 
-2.021377 0.932137 0.000000 
-2.055796 1.176983 0.000000 
-2.102728 1.279636 0.000000 
-2.047875 1.421939 0.000000 
0.428030 0.168670 0.000000 
0.375625 0.147434 0.000000 
0.313454 0.160535 0.000000 
0.290352 0.306569 0.000000 
0.238487 1.017487 0.000000 
0.440631 0.130562 0.000000 
0.396678 0.090785 0.000000 
0.460488 0.064865 0.000000 
0.523747 1.240977 0.000000 
-2.262588 0.204231 0.000000 
-2.220468 0.260259 0.000000 
-2.218579 0.150720 0.000000 
-2.146376 0.202570 0.000000 
-2.206503 0.085650 0.000000 
0.473879 1.202365 0.000000 
0.446488 1.150033 0.000000 
0.440978 1.106014 0.000000 
0.409581 1.098159 0.000000 
0.629179 1.927055 0.000000 
0.593839 1.894581 0.000000 
0.550362 1.850377 0.000000 
0.483841 1.809955 0.000000 
0.202470 0.951123 0.000000 
0.241245 0.803347 0.000000 
0.205152 0.778546 0.000000 
0.175878 0.730406 0.000000 
0.153326 0.671899 0.000000 
0.132079 0.611450 0.000000 
0.113278 0.546994 0.000000 
0.106000 0.478670 0.000000 
0.109640 0.409474 0.000000 
0.121648 0.338796 0.000000 
0.032483 0.249182 0.000000 
0.246820 0.331860 0.000000 
0.099619 0.197547 0.000000 
0.373127 1.083277 0.000000 
-0.307911 1.946417 0.000000 
-0.360136 1.927948 0.000000 
-0.343252 1.873602 0.000000 
-0.270247 1.881746 0.000000 
0.168337 0.194065 0.000000 
0.242346 0.183728 0.000000 
0.270369 0.252765 0.000000 
0.505525 1.308738 0.000000 
-0.689828 0.135993 0.000000 
-0.729540 0.193397 0.000000 
-0.746154 0.267870 0.000000 
-0.657668 0.284434 0.000000 
-0.661195 0.200147 0.000000 
-0.924642 0.437109 0.000000 
-1.137284 1.700473 0.000000 
-1.072920 1.655879 0.000000 
-1.248127 1.712770 0.000000 
-1.304069 1.696448 0.000000 
-1.360197 1.688787 0.000000 
-1.411221 1.684648 0.000000 
-1.453165 1.681418 0.000000 
-1.486003 1.663956 0.000000 
-1.510814 1.620487 0.000000 
-1.558800 1.575818 0.000000 
-0.995058 1.629126 0.000000 
-0.919611 1.618650 0.000000 
-0.852227 1.625582 0.000000 
-0.796966 1.642100 0.000000 
-0.752732 1.661269 0.000000 
-1.635591 1.548485 0.000000 
-1.992480 0.823187 0.000000 
-1.965104 0.713407 0.000000 
-1.974377 0.610074 0.000000 
-2.014368 0.516453 0.000000 
-2.065453 0.433266 0.000000 
-2.071492 0.280199 0.000000 
-2.131272 0.363736 0.000000 
-1.712039 1.535162 0.000000 
-1.781280 1.535112 0.000000 
-1.884796 1.505056 0.000000 
0.516332 1.724718 0.000000 
0.538779 1.653590 0.000000 
0.517174 1.383123 0.000000 
0.552532 1.445060 0.000000 
0.576896 1.486986 0.000000 
0.583356 1.524013 0.000000 
0.576083 1.561017 0.000000 
0.562288 1.603377 0.000000 
-0.776910 0.364483 0.000000 
-1.451771 -0.048664 0.000000 
-1.374596 -0.010881 0.000000 
-1.326837 0.004579 0.000000 
-1.272657 0.019777 0.000000 
-1.295259 0.014007 0.000000 
-1.274719 0.041312 0.000000 
-1.277356 0.068415 0.000000 
-1.282752 0.103497 0.000000 
-1.279912 0.151273 0.000000 
-1.259061 0.195069 0.000000 
-1.246354 0.236562 0.000000 
-1.247511 0.291532 0.000000 
-1.260959 0.380163 0.000000 
-1.083075 0.550436 0.000000 
-1.474179 0.045847 0.000000 
-1.468523 0.171504 0.000000 
-1.714576 0.439259 0.000000 
-1.917838 0.445884 0.000000 
-1.479337 0.321357 0.000000 
-1.929043 1.377753 0.000000 
-1.933932 1.215411 0.000000 
-1.916094 1.075721 0.000000 
-1.891356 0.956437 0.000000 
-0.640008 1.632184 0.000000 
-0.671120 1.625160 0.000000 
-0.705575 1.631579 0.000000 
-0.401264 1.495462 0.000000 
-0.460851 1.339338 0.000000 
-0.397949 1.608933 0.000000 
-0.609239 1.626662 0.000000 
-0.410298 1.673066 0.000000 
-0.408964 1.707882 0.000000 
-0.399540 1.737001 0.000000 
-0.395782 1.769868 0.000000 
0.285100 1.051728 0.000000 
0.331625 1.069033 0.000000 
-0.121818 0.387593 0.000000 
0.021900 0.310247 0.000000 
0.115588 0.264010 0.000000 
0.198863 0.265963 0.000000 
-0.064867 0.366769 0.000000 
0.364707 1.834921 0.000000 
0.303732 1.803841 0.000000 
0.240047 1.773133 0.000000 
0.172732 1.734838 0.000000 
0.087651 1.694505 0.000000 
-0.030041 1.669758 0.000000 
-0.215594 1.793209 0.000000 
-0.230359 0.469691 0.000000 
-0.307828 0.503855 0.000000 
-0.401252 0.514727 0.000000 
-0.492206 0.486481 0.000000 
-0.743012 1.618037 0.000000 
-0.382985 1.796732 0.000000 
-0.353471 1.825476 0.000000 
-1.315709 0.230789 0.000000 
-1.343314 0.312708 0.000000 
-0.721193 1.576525 0.000000 
-0.632022 1.587453 0.000000 
-0.618292 1.646176 0.000000 
-1.300529 0.039501 0.000000 
-1.311319 0.065746 0.000000 
-0.675320 1.563991 0.000000 
-1.449691 1.640695 0.000000 
-0.167828 0.428446 0.000000 
-0.066773 0.444489 0.000000 
0.014030 0.381691 0.000000 
-1.331624 0.040881 0.000000 
-1.380062 0.054785 0.000000 
-1.340869 0.099489 0.000000 
-1.353905 0.169697 0.000000 
0.406993 1.146424 0.000000 
-1.403597 1.639182 0.000000 
0.364934 1.136376 0.000000 
-1.348692 1.639902 0.000000 
0.247855 1.149382 0.000000 
0.315701 1.145987 0.000000 
0.207111 0.870914 0.000000 
0.143206 0.850038 0.000000 
-1.453768 1.588419 0.000000 
-0.790281 1.576397 0.000000 
-1.284745 1.643573 0.000000 
-1.791133 1.456045 0.000000 
-1.698001 1.440253 0.000000 
-1.602996 1.445444 0.000000 
-1.509140 1.476313 0.000000 
-1.850904 0.836478 0.000000 
0.171486 1.120630 0.000000 
0.103791 0.778797 0.000000 
0.081732 0.705084 0.000000 
0.012465 0.468223 0.000000 
0.056973 0.634151 0.000000 
-0.859037 1.532965 0.000000 
-0.947148 1.517013 0.000000 
-1.042292 1.539662 0.000000 
-1.207800 1.662603 0.000000 
0.405236 1.771382 0.000000 
0.432576 1.680380 0.000000 
0.470249 1.612635 0.000000 
0.516988 1.576192 0.000000 
0.538064 1.542692 0.000000 
0.548893 1.508777 0.000000 
0.511168 1.478677 0.000000 
0.447440 1.432141 0.000000 
0.336576 1.738514 0.000000 
0.352905 1.659235 0.000000 
0.280111 1.700256 0.000000 
0.425405 1.531350 0.000000 
0.495333 1.529533 0.000000 
0.435871 1.266118 0.000000 
-0.582540 0.432156 0.000000 
-1.810838 0.691264 0.000000 
-1.837718 0.553443 0.000000 
0.231389 1.633315 0.000000 
-0.169223 1.651209 0.000000 
-0.358516 1.762229 0.000000 
-0.831990 0.488564 0.000000 
-0.676614 0.392245 0.000000 
-0.304985 1.770842 0.000000 
0.154076 1.543269 0.000000 
0.032165 1.477388 0.000000 
-1.118654 1.582200 0.000000 
-1.306357 0.560432 0.000000 
-1.538817 0.509397 0.000000 
-1.801087 1.340649 0.000000 
-1.802902 1.206114 0.000000 
-1.804665 1.086764 0.000000 
-1.777440 0.983119 0.000000 
-0.986798 0.780098 0.000000 
-0.372825 1.673680 0.000000 
-0.323929 1.595924 0.000000 
-0.283612 1.664919 0.000000 
-0.355311 1.711628 0.000000 
-0.277653 1.423064 0.000000 
-0.126264 1.431841 0.000000 
-0.312271 1.176205 0.000000 
-0.289946 0.636335 0.000000 
-0.193810 0.570928 0.000000 
-0.423907 0.679870 0.000000 
-0.114792 0.508697 0.000000 
-0.535770 0.634451 0.000000 
-1.422411 1.511375 0.000000 
-1.396637 1.593468 0.000000 
0.101283 1.049390 0.000000 
0.384708 1.200023 0.000000 
-0.765487 1.505321 0.000000 
0.024488 0.554737 0.000000 
-1.685710 1.319055 0.000000 
-0.851171 1.407592 0.000000 
-0.603497 1.456368 0.000000 
-0.978154 1.375426 0.000000 
-0.699634 1.458863 0.000000 
-1.566560 1.313088 0.000000 
0.324386 1.246532 0.000000 
0.225177 1.291740 0.000000 
0.103404 1.287585 0.000000 
0.264525 1.434230 0.000000 
0.375524 1.354501 0.000000 
-0.722859 0.517834 0.000000 
-0.804099 0.650694 0.000000 
-0.630108 0.562246 0.000000 
-1.342192 1.591147 0.000000 
-1.445045 1.346008 0.000000 
0.042573 0.948296 0.000000 
-1.197152 1.593495 0.000000 
-1.275712 1.582684 0.000000 
0.009788 0.834683 0.000000 
0.007428 0.740788 0.000000 
-1.624661 0.709190 0.000000 
-1.706493 0.875319 0.000000 
-0.014319 0.669243 0.000000 
-0.059935 0.593644 0.000000 
-0.139952 0.674280 0.000000 
-0.233328 0.796445 0.000000 
-0.073092 0.741364 0.000000 
-0.121108 0.871220 0.000000 
-0.119730 1.065799 0.000000 
-0.398430 0.919224 0.000000 
-0.026441 1.217548 0.000000 
-1.679294 1.181199 0.000000 
-1.698733 1.059463 0.000000 
-1.219031 0.965799 0.000000 
-0.854674 1.051593 0.000000 
-0.658235 0.726305 0.000000 
-0.623629 0.968500 0.000000 
-0.765556 1.293159 0.000000 
-0.596319 1.250467 0.000000 
-1.360217 1.545531 0.000000 
-1.334110 1.421369 0.000000 
-1.529501 1.141250 0.000000 
-1.363780 1.177187 0.000000 
-1.571029 0.979925 0.000000 
-1.188333 1.513220 0.000000 
-1.056334 1.183062 0.000000 
-1.217896 1.312322 0.000000 
-1.279678 1.507408 0.000000 
-0.993027 -0.434596 0.000000 
-3.091970 1.706938 0.000000 
-1.410358 0.808656 0.000000 
-1.115382 1.435645 0.000000 
0.330018 1.558064 0.000000 
-0.391446 2.117832 0.000000 
-1.734831 -0.503744 0.000000 
-2.357079 0.310701 0.000000 
-3.441445 1.894271 0.000000 
-2.367134 0.273477 0.000000 
-3.393690 1.868291 0.000000 
VECTORS X_EC float 
0.632718 0.190775 0.000000 
0.312571 -0.044719 0.000000 
0.031561 -0.371710 0.000000 
-0.249893 -0.679779 0.000000 
-0.504068 -0.906480 0.000000 
-0.739791 0.850898 0.000000 
0.939103 0.612553 0.000000 
-0.136908 0.821151 0.000000 
-0.343127 0.803080 0.000000 
-0.570134 0.840303 0.000000 
0.700082 0.196113 0.000000 
-0.180250 -0.311677 0.000000 
-0.146281 -0.644586 0.000000 
0.610048 -0.899046 0.000000 
0.889493 -0.732884 0.000000 
-0.883223 0.715497 0.000000 
-0.181714 -0.860540 0.000000 
-0.290947 -0.587501 0.000000 
-0.034155 -0.934650 0.000000 
0.205886 0.843993 0.000000 
0.525201 0.755555 0.000000 
0.886813 0.741169 0.000000 
-0.714449 0.745806 0.000000 
0.212718 0.687385 0.000000 
-0.464207 -0.311912 0.000000 
-0.680480 -0.053400 0.000000 
-0.870394 0.185337 0.000000 
0.945995 0.443146 0.000000 
0.771699 0.727529 0.000000 
0.604805 -0.940788 0.000000 
0.457450 -0.555224 0.000000 
-0.893615 0.897547 0.000000 
-0.611784 0.669552 0.000000 
-0.293912 0.811087 0.000000 
-0.104276 -0.909944 0.000000 
-0.042315 -0.497178 0.000000 
-0.034435 0.523373 0.000000 
-0.175971 -0.005950 0.000000 
-0.240563 -0.511366 0.000000 
-0.252053 -0.994087 0.000000 
-0.252544 0.563100 0.000000 
-0.247999 0.741923 0.000000 
0.299369 0.706823 0.000000 
0.056375 0.051112 0.000000 
-0.234589 0.114425 0.000000 
-0.113915 -0.277295 0.000000 
0.313467 -0.245290 0.000000 
0.728253 -0.131537 0.000000 
-0.948762 0.053998 0.000000 
-0.678961 0.249544 0.000000 
-0.430294 0.338528 0.000000 
-0.159845 0.426562 0.000000 
0.189612 0.495783 0.000000 
0.628107 0.553696 0.000000 
-0.907222 0.621293 0.000000 
-0.458019 0.748819 0.000000 
0.810276 0.574669 0.000000 
-0.734426 0.414456 0.000000 
-0.325949 0.404400 0.000000 
0.071313 0.511302 0.000000 
0.508074 0.596541 0.000000 
0.685454 -0.991227 0.000000 
0.239461 -0.847519 0.000000 
-0.124954 -0.726941 0.000000 
-0.410174 -0.595571 0.000000 
-0.733776 -0.479104 0.000000 
0.901452 -0.407199 0.000000 
0.510191 -0.358965 0.000000 
0.132372 -0.315643 0.000000 
-0.234096 -0.345300 0.000000 
-0.627520 -0.376727 0.000000 
0.993347 -0.396467 0.000000 
0.597985 -0.384358 0.000000 
0.381027 -0.091925 0.000000 
0.134257 -0.318836 0.000000 
-0.324251 -0.218386 0.000000 
-0.747803 -0.107648 0.000000 
0.861328 0.015035 0.000000 
0.521639 0.071940 0.000000 
0.245779 0.193703 0.000000 
0.013289 0.429691 0.000000 
-0.232721 0.687876 0.000000 
-0.460872 0.889142 0.000000 
-0.667991 -0.946745 0.000000 
-0.808617 -0.752872 0.000000 
-0.938441 -0.559356 0.000000 
0.896040 -0.322596 0.000000 
0.700627 -0.068323 0.000000 
0.469057 0.150566 0.000000 
0.161954 0.248970 0.000000 
-0.197418 0.300189 0.000000 
-0.554942 0.340765 0.000000 
-0.868283 0.371902 0.000000 
0.846878 0.443251 0.000000 
0.583108 0.566808 0.000000 
0.264233 0.675986 0.000000 
-0.113629 0.792836 0.000000 
-0.444964 0.904763 0.000000 
-0.710189 0.998799 0.000000 
0.991351 0.992834 0.000000 
0.655009 0.923303 0.000000 
0.317327 0.723065 0.000000 
0.083158 0.478104 0.000000 
-0.070288 0.279823 0.000000 
-0.274359 0.164962 0.000000 
-0.488644 0.050524 0.000000 
-0.697035 -0.084544 0.000000 
-0.892800 -0.322978 0.000000 
0.856837 -0.576955 0.000000 
0.636444 -0.821065 0.000000 
0.415893 0.975373 0.000000 
0.115465 0.848993 0.000000 
-0.168497 0.782983 0.000000 
-0.520171 0.726504 0.000000 
0.999986 0.654519 0.000000 
0.293744 0.419846 0.000000 
0.190191 0.889211 0.000000 
0.147404 -0.665787 0.000000 
0.117177 -0.203528 0.000000 
0.542412 0.499133 0.000000 
0.492988 -0.383536 0.000000 
0.126503 -0.791357 0.000000 
-0.138655 0.799525 0.000000 
-0.368853 0.453821 0.000000 
-0.660405 0.080591 0.000000 
-0.852193 -0.375016 0.000000 
0.410677 0.554079 0.000000 
0.157884 0.334372 0.000000 
0.115625 0.953709 0.000000 
0.188559 -0.425505 0.000000 
0.421782 0.085638 0.000000 
0.750247 0.459129 0.000000 
0.970955 0.992327 0.000000 
0.803781 -0.254161 0.000000 
0.046928 0.929011 0.000000 
0.625161 -0.901508 0.000000 
-0.878793 -0.787720 0.000000 
-0.388358 -0.776521 0.000000 
0.141930 -0.806344 0.000000 
0.592972 -0.953090 0.000000 
0.981487 0.751000 0.000000 
-0.787631 0.282948 0.000000 
-0.620917 -0.167894 0.000000 
-0.542400 -0.591602 0.000000 
-0.536300 -0.954160 0.000000 
-0.839467 0.564764 0.000000 
-0.232507 0.811653 0.000000 
0.315824 0.978814 0.000000 
0.041920 0.171896 0.000000 
-0.584826 -0.247549 0.000000 
-0.927464 -0.645955 0.000000 
0.769975 0.985970 0.000000 
0.459289 0.574544 0.000000 
0.054209 0.277355 0.000000 
-0.314512 -0.093754 0.000000 
-0.468959 -0.551511 0.000000 
-0.647577 0.973471 0.000000 
-0.881389 0.465286 0.000000 
0.833273 0.032514 0.000000 
0.637599 -0.495949 0.000000 
0.455624 -0.986687 0.000000 
0.224127 0.494257 0.000000 
0.825940 0.376156 0.000000 
0.814107 0.997643 0.000000 
0.984663 -0.519857 0.000000 
-0.370700 -0.739080 0.000000 
0.306054 -0.611602 0.000000 
0.826262 -0.767526 0.000000 
-0.564876 -0.158179 0.000000 
-0.031235 0.234981 0.000000 
0.400005 0.628676 0.000000 
0.885022 0.896157 0.000000 
-0.599510 -0.995252 0.000000 
-0.032794 -0.839049 0.000000 
0.522288 -0.616812 0.000000 
-0.991556 -0.383053 0.000000 
-0.565477 -0.226024 0.000000 
-0.146193 -0.097282 0.000000 
0.256792 -0.003515 0.000000 
0.667125 -0.014978 0.000000 
-0.807163 -0.326605 0.000000 
-0.486492 -0.345264 0.000000 
-0.417345 -0.723480 0.000000 
-0.858684 0.890942 0.000000 
-0.512684 -0.606828 0.000000 
-0.355380 -0.227086 0.000000 
-0.643562 0.063016 0.000000 
-0.872901 0.299572 0.000000 
0.809037 0.471913 0.000000 
0.469830 0.571774 0.000000 
0.159423 0.613022 0.000000 
-0.144228 0.608374 0.000000 
-0.428465 0.593932 0.000000 
-0.680225 0.626760 0.000000 
-0.898856 0.682006 0.000000 
0.873892 0.762432 0.000000 
0.641076 0.802318 0.000000 
0.405927 0.826728 0.000000 
0.115906 0.835535 0.000000 
0.115265 -0.126824 0.000000 
0.071856 -0.862487 0.000000 
0.074514 0.472105 0.000000 
-0.004683 -0.179007 0.000000 
-0.157612 -0.804721 0.000000 
-0.431152 0.635993 0.000000 
-0.974964 0.442610 0.000000 
0.326066 0.428469 0.000000 
-0.384689 0.346180 0.000000 
0.841122 0.272687 0.000000 
0.137237 0.156598 0.000000 
-0.456583 0.304321 0.000000 
0.958483 0.468894 0.000000 
0.448818 0.383259 0.000000 
-0.046616 0.292910 0.000000 
-0.521185 0.358667 0.000000 
0.991289 0.511892 0.000000 
0.586718 0.749304 0.000000 
0.145614 0.832171 0.000000 
-0.984800 0.977041 0.000000 
0.240428 -0.824737 0.000000 
0.766459 0.216372 0.000000 
0.967879 -0.835196 0.000000 
-0.308499 -0.679229 0.000000 
0.328668 -0.505142 0.000000 
0.948910 -0.313544 0.000000 
-0.497450 -0.126741 0.000000 
-0.023359 0.049810 0.000000 
0.445199 0.225349 0.000000 
0.950810 0.425567 0.000000 
0.509460 -0.716460 0.000000 
0.029918 0.554221 0.000000 
-0.263338 -0.159889 0.000000 
-0.737654 -0.630485 0.000000 
0.393043 0.209878 0.000000 
0.311356 -0.856302 0.000000 
0.239017 0.153919 0.000000 
0.175888 -0.798465 0.000000 
-0.018016 0.446773 0.000000 
-0.227064 -0.200768 0.000000 
-0.473694 -0.852640 0.000000 
-0.439766 0.563751 0.000000 
-0.176557 0.081519 0.000000 
-0.014172 -0.362111 0.000000 
0.185024 -0.912997 0.000000 
0.409427 0.444033 0.000000 
0.554034 -0.057615 0.000000 
0.668695 -0.438650 0.000000 
0.780721 -0.782810 0.000000 
0.876476 0.860649 0.000000 
0.928111 0.471412 0.000000 
0.990597 0.090491 0.000000 
-0.940479 -0.301446 0.000000 
-0.884587 -0.709095 0.000000 
-0.878921 0.887692 0.000000 
-0.840924 0.507619 0.000000 
-0.766310 0.126882 0.000000 
-0.771765 -0.267535 0.000000 
-0.858754 -0.688304 0.000000 
0.991262 0.860151 0.000000 
0.859087 0.378519 0.000000 
0.777576 -0.041065 0.000000 
0.726342 -0.378026 0.000000 
0.687564 -0.717031 0.000000 
0.610693 0.984197 0.000000 
0.529637 0.702250 0.000000 
0.419649 0.453520 0.000000 
0.331747 0.257584 0.000000 
0.279141 0.071164 0.000000 
0.243969 -0.103988 0.000000 
0.187024 -0.246531 0.000000 
0.112418 -0.380948 0.000000 
-0.008239 -0.519125 0.000000 
-0.264459 -0.679273 0.000000 
0.797286 0.951310 0.000000 
0.905578 0.862256 0.000000 
0.683966 -0.940994 0.000000 
-0.946794 0.795026 0.000000 
0.531239 -0.828220 0.000000 
-0.773134 0.725615 0.000000 
-0.567425 0.637279 0.000000 
0.312226 -0.678858 0.000000 
-0.043352 -0.484423 0.000000 
-0.328163 0.521634 0.000000 
-0.464570 -0.455670 0.000000 
-0.058510 0.373237 0.000000 
0.228183 0.194872 0.000000 
0.530145 -0.015246 0.000000 
-0.859147 -0.726036 0.000000 
0.740384 0.918002 0.000000 
0.877445 -0.333626 0.000000 
-0.872519 -0.774479 0.000000 
0.405990 0.453039 0.000000 
0.157879 -0.097690 0.000000 
0.061798 -0.674853 0.000000 
0.037429 0.824948 0.000000 
-0.065405 0.419132 0.000000 
-0.374361 0.117741 0.000000 
-0.820811 -0.011490 0.000000 
0.925026 0.366172 0.000000 
-0.543906 0.482772 0.000000 
0.849428 0.929994 0.000000 
0.870966 -0.288653 0.000000 
-0.500203 -0.460592 0.000000 
0.930676 0.515789 0.000000 
-0.400200 0.177834 0.000000 
-0.885456 -0.867928 0.000000 
-0.193536 0.759308 0.000000 
-0.602613 -0.317541 0.000000 
0.106457 -0.724353 0.000000 
-0.256004 0.218857 0.000000 
0.483829 -0.268451 0.000000 
0.159854 0.734062 0.000000 
0.639848 -0.686787 0.000000 
0.941179 0.144084 0.000000 
-0.805377 -0.097292 0.000000 
-0.350812 0.322564 0.000000 
0.160976 0.529758 0.000000 
0.835927 0.637565 0.000000 
0.153315 -0.199418 0.000000 
-0.287407 0.288334 0.000000 
-0.736118 0.757158 0.000000 
-0.323988 0.815760 0.000000 
-0.683226 0.783045 0.000000 
-0.900989 0.565653 0.000000 
0.807322 0.313636 0.000000 
0.549181 0.020160 0.000000 
0.316353 -0.234513 0.000000 
0.091526 -0.527783 0.000000 
-0.145187 -0.848365 0.000000 
-0.392060 0.757632 0.000000 
-0.554107 0.307708 0.000000 
-0.701986 -0.135144 0.000000 
-0.933142 -0.616819 0.000000 
0.751725 0.892735 0.000000 
0.357092 0.506710 0.000000 
-0.113613 0.328371 0.000000 
-0.590851 0.291035 0.000000 
0.983319 0.267759 0.000000 
0.587092 0.174680 0.000000 
0.125860 0.074321 0.000000 
-0.423050 0.091660 0.000000 
-0.913429 0.141180 0.000000 
0.685973 0.190499 0.000000 
0.314698 0.089265 0.000000 
-0.632547 0.896548 0.000000 
-0.267827 0.596718 0.000000 
-0.504007 0.250439 0.000000 
-0.509618 0.698615 0.000000 
-0.384030 -0.930506 0.000000 
0.229666 -0.859322 0.000000 
0.167329 -0.568834 0.000000 
0.122689 -0.228445 0.000000 
-0.725572 -0.167992 0.000000 
0.953970 -0.880017 0.000000 
-0.997189 -0.520504 0.000000 
-0.583492 -0.908153 0.000000 
-0.486384 -0.716574 0.000000 
-0.056063 0.998019 0.000000 
0.657035 -0.710146 0.000000 
0.437307 0.993821 0.000000 
0.234849 0.718710 0.000000 
-0.628138 -0.787706 0.000000 
-0.595101 -0.310098 0.000000 
0.055254 -0.524675 0.000000 
0.037378 0.031556 0.000000 
-0.913241 -0.658146 0.000000 
0.692093 -0.478669 0.000000 
0.316644 -0.484658 0.000000 
-0.049564 -0.652658 0.000000 
-0.443346 -0.762507 0.000000 
-0.816495 -0.972302 0.000000 
0.015828 0.399042 0.000000 
-0.083708 -0.048901 0.000000 
-0.489102 0.816031 0.000000 
-0.569356 -0.119600 0.000000 
-0.531497 0.297138 0.000000 
-0.600817 0.919727 0.000000 
-0.067591 -0.809986 0.000000 
0.494996 -0.342601 0.000000 
-0.832279 -0.791114 0.000000 
-0.683519 -0.531725 0.000000 
-0.941256 -0.327840 0.000000 
0.843468 -0.638264 0.000000 
0.758286 -0.103763 0.000000 
0.470770 -0.453853 0.000000 
0.106229 -0.367331 0.000000 
0.508274 0.177133 0.000000 
-0.212907 -0.276675 0.000000 
0.300083 0.513733 0.000000 
-0.497707 -0.088885 0.000000 
-0.890792 0.140040 0.000000 
0.608047 0.237410 0.000000 
0.097468 0.167585 0.000000 
0.067952 0.886722 0.000000 
-0.148721 -0.630857 0.000000 
-0.164340 -0.140198 0.000000 
-0.176406 0.327219 0.000000 
-0.324462 0.770601 0.000000 
-0.467161 -0.738188 0.000000 
-0.604179 -0.195592 0.000000 
-0.315234 0.086978 0.000000 
-0.690861 0.029495 0.000000 
0.954825 0.005906 0.000000 
0.763595 0.582126 0.000000 
0.172093 0.269454 0.000000 
-0.768008 -0.002440 0.000000 
0.860569 0.204709 0.000000 
-0.527228 0.135410 0.000000 
0.184140 0.147513 0.000000 
0.531850 0.301045 0.000000 
0.852404 0.495866 0.000000 
-0.804811 0.567621 0.000000 
-0.545658 0.666009 0.000000 
-0.271186 0.837805 0.000000 
0.113530 0.975475 0.000000 
0.548401 -0.927988 0.000000 
0.977327 -0.862746 0.000000 
-0.617868 -0.637530 0.000000 
0.204711 0.538185 0.000000 
0.279847 0.968014 0.000000 
0.263215 -0.538653 0.000000 
0.385427 -0.048203 0.000000 
-0.843375 -0.322732 0.000000 
0.922014 -0.056120 0.000000 
0.634442 0.081222 0.000000 
0.367070 0.174375 0.000000 
0.086631 0.250283 0.000000 
-0.222316 0.220460 0.000000 
-0.525815 0.253160 0.000000 
-0.781718 0.347021 0.000000 
0.988345 0.424476 0.000000 
0.755075 0.486795 0.000000 
0.517958 0.538679 0.000000 
0.256917 0.563245 0.000000 
-0.104001 0.555866 0.000000 
0.593783 0.041427 0.000000 
-0.117546 -0.377036 0.000000 
-0.448799 0.192288 0.000000 
0.960339 0.397877 0.000000 
0.551997 0.537849 0.000000 
0.222182 0.686489 0.000000 
-0.088394 0.826815 0.000000 
-0.388237 0.910948 0.000000 
-0.636899 0.957142 0.000000 
-0.833486 0.988270 0.000000 
-0.985758 -0.981311 0.000000 
0.909625 -0.901417 0.000000 
0.823445 -0.757449 0.000000 
-0.141518 0.614515 0.000000 
-0.485111 -0.784575 0.000000 
-0.217857 -0.559480 0.000000 
-0.715492 0.447615 0.000000 
0.956856 -0.406601 0.000000 
0.316570 -0.251146 0.000000 
0.629870 -0.887195 0.000000 
-0.431790 0.687928 0.000000 
0.757405 -0.392032 0.000000 
0.196243 -0.606217 0.000000 
-0.328230 -0.912708 0.000000 
0.191534 0.152292 0.000000 
-0.261310 0.297326 0.000000 
-0.733797 0.389168 0.000000 
0.831925 0.400234 0.000000 
0.492258 0.357002 0.000000 
0.315542 0.638564 0.000000 
0.060838 0.920348 0.000000 
-0.226550 -0.873584 0.000000 
-0.472504 -0.749765 0.000000 
-0.618804 -0.595087 0.000000 
-0.718792 -0.383697 0.000000 
-0.869984 -0.131036 0.000000 
0.940041 0.142766 0.000000 
0.716048 0.410160 0.000000 
-0.137334 -0.342789 0.000000 
-0.426514 0.872341 0.000000 
-0.790693 0.329893 0.000000 
0.680236 -0.026967 0.000000 
0.092907 -0.207346 0.000000 
-0.404373 -0.208672 0.000000 
-0.831485 -0.234757 0.000000 
0.765236 -0.461182 0.000000 
0.256491 -0.600239 0.000000 
-0.534405 0.761578 0.000000 
-0.914436 -0.935578 0.000000 
-0.520619 -0.625942 0.000000 
-0.330279 -0.596399 0.000000 
-0.172246 -0.987358 0.000000 
0.300975 -0.793371 0.000000 
0.889711 -0.662901 0.000000 
-0.793338 -0.697560 0.000000 
0.840853 -0.829633 0.000000 
0.517437 -0.867681 0.000000 
-0.995771 -0.303281 0.000000 
0.698597 -0.187123 0.000000 
0.427906 -0.234320 0.000000 
0.463893 -0.539614 0.000000 
0.741507 -0.493272 0.000000 
-0.913491 0.819025 0.000000 
-0.265979 -0.071434 0.000000 
-0.852406 -0.011617 0.000000 
0.508061 -0.153771 0.000000 
0.409786 0.650722 0.000000 
-0.271228 0.451860 0.000000 
-0.759393 -0.741571 0.000000 
-0.474002 0.024076 0.000000 
0.055923 0.565857 0.000000 
0.481560 0.951284 0.000000 
0.855798 -0.697126 0.000000 
0.637149 -0.315859 0.000000 
-0.945288 0.340868 0.000000 
-0.998719 -0.320749 0.000000 
0.423065 0.265354 0.000000 
0.485199 -0.372466 0.000000 
-0.140955 0.112402 0.000000 
-0.737142 -0.136144 0.000000 
-0.009796 -0.499670 0.000000 
-0.491559 -0.710528 0.000000 
-0.791256 0.967820 0.000000 
0.795104 -0.994563 0.000000 
0.759948 -0.415593 0.000000 
-0.549175 0.527140 0.000000 
0.771778 0.478396 0.000000 
0.761815 -0.176642 0.000000 
-0.567187 -0.404948 0.000000 
0.918661 -0.855021 0.000000 
-0.892671 0.395677 0.000000 
-0.963180 -0.439953 0.000000 
0.850363 0.839884 0.000000 
0.524784 0.170738 0.000000 
-0.593179 0.640441 0.000000 
0.040956 0.101540 0.000000 
0.461967 -0.284033 0.000000 
0.687440 -0.560180 0.000000 
-0.076129 -0.749591 0.000000 
0.272128 -0.164921 0.000000 
-0.933025 -0.260616 0.000000 
0.045629 -0.133635 0.000000 
-0.387695 -0.376658 0.000000 
-0.212933 -0.822983 0.000000 
0.062582 -0.817172 0.000000 
0.332899 -0.725050 0.000000 
-0.265449 -0.298067 0.000000 
-0.075157 -0.252778 0.000000 
0.024757 -0.163364 0.000000 
0.069648 -0.045684 0.000000 
0.052490 0.116620 0.000000 
0.065249 0.327300 0.000000 
0.120407 0.583497 0.000000 
-0.687726 -0.234465 0.000000 
0.237340 0.808982 0.000000 
0.320792 -0.940815 0.000000 
0.300460 -0.643826 0.000000 
0.280110 -0.268675 0.000000 
0.290852 0.159379 0.000000 
0.357292 0.648571 0.000000 
0.506671 -0.832390 0.000000 
0.724841 -0.376500 0.000000 
0.951642 -0.037936 0.000000 
0.760113 0.374150 0.000000 
-0.660484 0.342342 0.000000 
-0.989973 0.330702 0.000000 
-0.434563 0.428221 0.000000 
-0.222884 0.580747 0.000000 
-0.107131 -0.712173 0.000000 
0.374642 -0.552650 0.000000 
0.812901 -0.493725 0.000000 
-0.770477 -0.514423 0.000000 
0.696752 0.119819 0.000000 
0.498331 -0.241047 0.000000 
-0.381694 -0.613369 0.000000 
0.015103 -0.744300 0.000000 
0.401422 -0.893214 0.000000 
0.732479 0.944917 0.000000 
0.957432 0.773015 0.000000 
-0.778900 0.727849 0.000000 
-0.409842 0.786259 0.000000 
0.038682 0.770117 0.000000 
0.435531 0.629424 0.000000 
0.379253 -0.937062 0.000000 
0.184709 -0.615076 0.000000 
-0.031445 -0.215812 0.000000 
0.495888 0.738009 0.000000 
0.553390 0.377276 0.000000 
0.606413 -0.013514 0.000000 
0.667807 -0.416776 0.000000 
0.740801 -0.795383 0.000000 
0.729753 0.800383 0.000000 
-0.218308 0.297710 0.000000 
-0.375727 0.860799 0.000000 
-0.489217 -0.642503 0.000000 
-0.719643 -0.265814 0.000000 
-0.083279 -0.372760 0.000000 
0.537163 -0.366288 0.000000 
-0.695911 -0.218793 0.000000 
0.737729 0.034547 0.000000 
-0.826820 -0.226059 0.000000 
0.300807 0.357594 0.000000 
-0.275511 0.933490 0.000000 
-0.863226 0.137498 0.000000 
0.404294 0.919181 0.000000 
-0.162647 -0.483795 0.000000 
0.984830 0.317508 0.000000 
-0.832987 -0.696244 0.000000 
0.253713 -0.828987 0.000000 
0.186711 -0.553633 0.000000 
0.997130 -0.178179 0.000000 
0.120570 -0.617002 0.000000 
0.226339 -0.424238 0.000000 
0.058687 -0.005004 0.000000 
0.162115 0.492368 0.000000 
-0.684979 0.677180 0.000000 
0.927526 -0.907893 0.000000 
-0.074509 -0.525047 0.000000 
-0.388538 -0.173422 0.000000 
-0.593174 -0.683907 0.000000 
0.691922 0.810024 0.000000 
0.507090 -0.899296 0.000000 
0.949410 0.763742 0.000000 
0.084634 0.748635 0.000000 
0.493976 0.171005 0.000000 
-0.429080 0.652020 0.000000 
0.387090 -0.791029 0.000000 
-0.026053 -0.571902 0.000000 
-0.373570 -0.527821 0.000000 
-0.435585 -0.276648 0.000000 
0.108326 -0.033429 0.000000 
-0.148041 0.249290 0.000000 
-0.497020 0.597101 0.000000 
-0.816147 -0.870727 0.000000 
0.403599 -0.619756 0.000000 
-0.763051 -0.929964 0.000000 
-0.958845 -0.641212 0.000000 
0.661097 -0.407027 0.000000 
0.199206 -0.226607 0.000000 
-0.278030 -0.056634 0.000000 
-0.786893 0.093777 0.000000 
0.673714 0.151997 0.000000 
0.127425 0.122881 0.000000 
-0.430559 0.026812 0.000000 
0.861960 0.740136 0.000000 
-0.485315 -0.974563 0.000000 
0.454319 0.203046 0.000000 
-0.553075 0.014985 0.000000 
0.261186 -0.536714 0.000000 
0.115376 -0.118910 0.000000 
-0.313668 -0.253985 0.000000 
-0.249372 -0.838027 0.000000 
0.426832 -0.346695 0.000000 
0.345222 -0.938766 0.000000 
0.890247 0.837050 0.000000 
-0.773120 0.955803 0.000000 
-0.031632 0.518622 0.000000 
0.421557 0.836318 0.000000 
-0.990503 0.969231 0.000000 
-0.859733 0.261342 0.000000 
0.474845 0.289561 0.000000 
0.345601 0.397133 0.000000 
0.319522 0.098273 0.000000 
-0.032536 -0.416638 0.000000 
0.416603 0.985014 0.000000 
0.287743 -0.567445 0.000000 
0.227268 -0.118420 0.000000 
0.194586 0.289767 0.000000 
0.169089 0.625316 0.000000 
0.031232 0.888027 0.000000 
-0.311946 -0.913491 0.000000 
-0.664595 -0.529600 0.000000 
-0.243745 0.960463 0.000000 
-0.326451 0.356891 0.000000 
-0.271724 -0.182182 0.000000 
-0.141314 -0.624271 0.000000 
0.010016 -0.978142 0.000000 
-0.880382 0.084729 0.000000 
-0.606422 0.939842 0.000000 
0.526898 0.720830 0.000000 
-0.288887 0.795017 0.000000 
0.971994 -0.885057 0.000000 
0.315262 -0.476377 0.000000 
-0.893162 -0.428060 0.000000 
-0.233662 0.050173 0.000000 
-0.985563 0.696314 0.000000 
-0.985955 -0.749758 0.000000 
0.776755 0.078366 0.000000 
0.510934 0.869340 0.000000 
-0.050605 0.689765 0.000000 
-0.185867 0.862610 0.000000 
0.303103 0.579745 0.000000 
0.634103 0.384830 0.000000 
0.926415 0.333156 0.000000 
-0.781445 0.391338 0.000000 
-0.447022 0.501695 0.000000 
-0.227765 -0.784719 0.000000 
0.510546 0.614164 0.000000 
0.808831 -0.003233 0.000000 
0.930886 -0.385303 0.000000 
-0.949132 -0.818742 0.000000 
-0.994678 -0.637925 0.000000 
-0.779117 -0.802248 0.000000 
-0.565148 -0.781148 0.000000 
-0.288179 -0.737986 0.000000 
0.088999 -0.760704 0.000000 
0.434757 -0.927515 0.000000 
0.762333 0.970836 0.000000 
-0.803696 0.980091 0.000000 
-0.103977 -0.912331 0.000000 
-0.759719 -0.335404 0.000000 
-0.743314 0.793433 0.000000 
0.248716 0.748186 0.000000 
0.362570 0.716607 0.000000 
0.414870 0.342700 0.000000 
-0.568236 0.834699 0.000000 
-0.228267 0.432347 0.000000 
0.490087 0.471457 0.000000 
-0.612729 0.328753 0.000000 
0.445558 0.130846 0.000000 
-0.219601 0.120064 0.000000 
-0.275049 0.368961 0.000000 
-0.224374 0.644600 0.000000 
0.701014 0.210109 0.000000 
-0.531545 0.686805 0.000000 
-0.403163 0.183589 0.000000 
-0.263193 -0.126088 0.000000 
0.103150 0.282381 0.000000 
0.378012 0.271711 0.000000 
0.607902 0.196319 0.000000 
0.867380 0.166257 0.000000 
-0.802150 0.719201 0.000000 
-0.665529 0.346997 0.000000 
-0.045316 -0.025457 0.000000 
-0.655946 0.824800 0.000000 
0.979024 0.075295 0.000000 
0.994444 -0.590900 0.000000 
-0.209722 -0.481067 0.000000 
-0.619049 0.082343 0.000000 
-0.864412 0.570144 0.000000 
0.893155 -0.920374 0.000000 
0.590827 -0.381858 0.000000 
0.272404 0.298788 0.000000 
0.077040 -0.759672 0.000000 
-0.948347 0.724754 0.000000 
0.602825 0.842875 0.000000 
0.872542 -0.537376 0.000000 
0.958368 0.210014 0.000000 
0.735378 0.937650 0.000000 
-0.331283 0.944097 0.000000 
-0.920537 0.063880 0.000000 
-0.693614 -0.172232 0.000000 
0.716756 -0.474328 0.000000 
-0.636512 -0.253488 0.000000 
-0.659015 0.769545 0.000000 
-0.572738 0.056179 0.000000 
-0.109137 -0.053661 0.000000 
-0.793412 -0.595769 0.000000 
-0.586217 -0.509445 0.000000 
-0.757969 0.402558 0.000000 
-0.152409 0.597530 0.000000 
0.277206 0.342623 0.000000 
0.403862 -0.465815 0.000000 
-0.091914 0.887762 0.000000 
-0.782519 -0.347012 0.000000 
-0.672751 0.040495 0.000000 
-0.319824 -0.273046 0.000000 
0.234447 -0.168757 0.000000 
-0.054546 -0.255947 0.000000 
-0.164355 0.228777 0.000000 
-0.133876 0.080526 0.000000 
-0.158669 -0.210466 0.000000 
-0.031198 -0.982840 0.000000 
-0.057996 0.474389 0.000000 
-0.229627 -0.656890 0.000000 
-0.394440 -0.145648 0.000000 
-0.565113 0.630142 0.000000 
-0.660026 -0.677752 0.000000 
-0.129689 -0.722039 0.000000 
0.389827 -0.670935 0.000000 
0.265153 0.584008 0.000000 
0.306137 -0.176034 0.000000 
0.549836 -0.926878 0.000000 
-0.501490 -0.192766 0.000000 
-0.258183 -0.371885 0.000000 
-0.956863 0.169669 0.000000 
0.461190 0.346148 0.000000 
0.591232 0.900279 0.000000 
-0.098806 0.544215 0.000000 
0.997094 -0.127702 0.000000 
0.871159 0.577184 0.000000 
-0.950036 -0.661662 0.000000 
0.020551 0.662399 0.000000 
0.879334 -0.241884 0.000000 
0.160897 -0.460610 0.000000 
-0.373938 -0.761996 0.000000 
-0.661643 0.864097 0.000000 
-0.926113 0.695492 0.000000 
0.806137 0.608854 0.000000 
0.568503 0.910652 0.000000 
0.201116 -0.579521 0.000000 
0.619848 0.307394 0.000000 
-0.006036 0.176756 0.000000 
0.317809 0.759115 0.000000 
0.984339 -0.403237 0.000000 
0.969996 -0.962664 0.000000 
0.890402 -0.486967 0.000000 
0.306499 -0.339684 0.000000 
0.352083 -0.513296 0.000000 
-0.735975 -0.298253 0.000000 
-0.210672 -0.851110 0.000000 
-0.069401 0.353787 0.000000 
0.807075 -0.131876 0.000000 
0.751820 -0.344083 0.000000 
-0.008589 0.412916 0.000000 
0.875069 -0.560120 0.000000 
-0.921561 -0.232606 0.000000 
0.558323 0.742677 0.000000 
-0.614207 -0.050772 0.000000 
-0.680802 -0.549146 0.000000 
0.916291 -0.689463 0.000000 
-0.521194 -0.591300 0.000000 
0.416690 -0.576781 0.000000 
-0.525545 -0.562679 0.000000 
0.656202 -0.780478 0.000000 
-0.946592 0.894385 0.000000 
0.107997 -0.017402 0.000000 
-0.505864 -0.408568 0.000000 
0.038837 -0.731106 0.000000 
0.407589 -0.157512 0.000000 
0.129455 -0.778774 0.000000 
0.198744 0.010115 0.000000 
0.180567 -0.501829 0.000000 
-0.081565 -0.680433 0.000000 
-0.597938 0.550477 0.000000 
0.262134 0.391254 0.000000 
0.910769 -0.081667 0.000000 
-0.096439 -0.713840 0.000000 
0.826642 0.379288 0.000000 
-0.525251 0.173094 0.000000 
-0.820605 0.189738 0.000000 
0.368605 -0.077662 0.000000 
0.778853 -0.876107 0.000000 
-0.725761 0.804095 0.000000 
-0.691673 0.485676 0.000000 
0.007307 -0.190630 0.000000 
0.392379 -0.172023 0.000000 
-0.246638 0.825230 0.000000 
0.412078 0.597074 0.000000 
-0.738780 -0.467517 0.000000 
0.735778 0.404913 0.000000 
-0.907319 -0.801415 0.000000 
-0.940116 0.172768 0.000000 
0.217608 0.883803 0.000000 
-0.411831 -0.004196 0.000000 
0.982896 0.782874 0.000000 
0.031794 -0.567206 0.000000 
-0.666480 0.040867 0.000000 
-0.543577 -0.262463 0.000000 
-0.478883 0.560361 0.000000 
0.381288 0.659412 0.000000 
-0.525041 0.577216 0.000000 
-0.610390 -0.794300 0.000000 
-0.515661 0.921697 0.000000 
0.743062 0.940580 0.000000 
0.493609 -0.002712 0.000000 
-0.194849 0.651944 0.000000 
0.178237 -0.885449 0.000000 
-0.418597 -0.520523 0.000000 
0.218001 0.119613 0.000000 
-0.817541 0.866626 0.000000 
0.747614 -0.415262 0.000000 
-0.227207 -0.031133 0.000000 
-0.691059 -0.042158 0.000000 
0.151767 0.187444 0.000000 
0.506961 -0.788472 0.000000 
0.219996 0.434348 0.000000 
-0.741084 0.589867 0.000000 
0.519466 0.752248 0.000000 
-0.803213 -0.162612 0.000000 
0.628723 0.265881 0.000000 
0.540791 -0.010965 0.000000 
-0.896113 -0.875549 0.000000 
0.766843 -0.229445 0.000000 
-0.903702 -0.118263 0.000000 
0.116070 -0.327123 0.000000 
-0.095392 -0.763988 0.000000 
0.188321 -0.089763 0.000000 
0.630987 -0.431767 0.000000 
0.841207 0.506663 0.000000 
0.234702 -0.549332 0.000000 
-0.744829 0.743169 0.000000 
0.795323 -0.762577 0.000000 
-0.536284 0.944214 0.000000 
0.370563 -0.264238 0.000000 
-0.721138 0.282864 0.000000 
0.228773 -0.076942 0.000000 
-0.804760 0.359853 0.000000 
-0.385539 0.131570 0.000000 
0.917808 0.878646 0.000000 
-0.652360 -0.143370 0.000000 
-0.150490 0.531557 0.000000 
-0.946235 -0.062927 0.000000 
-0.355595 0.149516 0.000000 
CELL_DATA 899 
SCALARS MASS float 
LOOKUP_TABLE default 
0.814997 
1.448845 
1.668565 
1.794886 
1.361438 
1.831342 
2.259706 
0.213135 
0.196588 
0.207496 
1.880851 
0.439777 
0.331778 
0.364951 
0.612627 
0.274411 
0.260395 
0.217654 
0.296934 
0.266990 
0.466240 
0.509384 
0.733216 
0.739170 
0.387188 
0.345944 
0.452966 
0.494740 
0.551308 
0.648448 
0.752806 
0.417235 
0.218595 
0.289879 
0.722922 
0.804537 
1.021505 
0.937232 
0.841016 
0.803048 
0.619897 
1.038794 
1.293895 
1.301335 
0.691005 
0.431975 
0.647573 
0.616545 
0.576670 
0.266309 
0.297534 
0.391690 
0.604646 
0.774259 
0.831676 
0.939146 
1.129789 
0.520851 
0.464605 
0.716459 
0.889315 
0.593583 
0.614640 
0.457422 
0.372306 
0.488949 
0.641320 
0.747045 
0.490174 
0.551661 
0.523343 
0.508441 
0.614565 
0.859709 
0.765910 
0.720157 
0.682478 
0.421921 
0.268961 
0.262942 
0.426045 
0.393658 
0.278380 
0.261718 
0.162198 
0.234839 
0.278449 
0.287969 
0.244414 
0.403757 
0.550341 
0.463860 
0.338742 
0.350225 
0.337056 
0.525733 
0.562823 
0.419041 
0.314522 
0.509290 
0.523048 
0.877653 
0.349228 
0.225451 
0.235059 
0.249781 
0.366201 
0.644537 
0.620783 
0.339837 
0.287648 
0.382936 
0.362625 
0.799998 
1.122418 
0.799088 
0.680669 
0.866894 
1.003571 
1.354661 
1.853857 
1.742882 
1.214309 
1.426031 
1.636237 
1.719299 
1.801144 
1.602051 
1.452273 
1.275395 
0.790935 
0.890716 
2.050838 
1.154370 
1.385193 
1.297838 
0.991117 
1.158409 
0.767421 
0.829112 
0.895971 
1.063583 
0.809199 
0.656638 
0.354820 
1.452535 
1.387436 
1.274147 
0.537119 
1.620892 
1.463026 
1.596472 
1.756097 
1.271080 
1.065987 
1.156825 
1.276513 
1.414763 
1.006273 
1.096772 
1.062030 
0.892650 
1.284017 
0.980927 
1.000067 
2.321434 
1.747538 
1.536946 
1.712190 
1.447662 
1.007350 
0.975424 
1.487738 
1.639549 
1.486177 
0.979182 
0.805630 
0.813336 
0.641130 
0.711156 
0.207836 
0.269013 
0.855473 
1.045568 
0.791718 
0.342691 
0.453304 
0.426256 
0.570926 
0.416459 
0.375884 
0.354688 
0.264371 
0.216171 
0.182793 
0.252956 
0.179739 
0.222894 
0.247373 
1.613875 
1.875775 
2.035370 
2.127471 
1.947260 
1.753562 
1.040721 
1.279022 
2.278945 
2.333206 
2.040851 
1.424418 
1.098725 
1.255601 
0.836194 
0.905620 
0.781446 
0.664302 
0.776641 
2.067730 
1.483350 
2.145495 
2.073271 
1.781968 
1.685305 
1.731154 
1.299699 
1.074228 
1.103773 
1.132785 
3.482831 
1.755828 
2.272319 
1.700356 
3.950527 
3.859171 
4.115531 
3.468933 
2.708902 
2.764259 
2.968101 
1.994670 
1.150141 
0.864719 
1.360273 
1.259775 
0.807082 
0.599653 
0.479233 
0.529928 
0.462560 
0.503857 
0.524851 
0.560322 
0.460734 
0.506103 
0.374542 
0.350464 
0.749792 
0.811574 
0.783632 
0.544062 
0.438563 
0.445491 
0.244570 
0.308771 
0.220812 
0.160103 
0.126686 
0.100795 
0.090745 
0.138791 
0.256352 
0.827395 
0.086830 
0.099690 
0.123853 
0.122249 
0.207192 
0.163120 
0.239219 
0.388240 
0.778706 
0.322964 
1.048544 
0.414071 
0.474721 
0.656925 
1.198437 
1.126206 
1.144058 
1.116759 
1.171714 
1.045737 
0.926556 
0.873202 
0.589826 
0.563407 
0.678725 
0.923637 
0.558139 
1.464933 
1.743086 
1.227811 
1.812559 
1.349474 
1.574665 
1.398369 
1.722017 
1.454376 
1.874986 
1.585674 
2.084762 
2.671368 
1.933273 
2.296072 
1.169028 
1.156625 
2.228174 
2.060782 
1.818668 
1.896772 
2.747172 
0.356480 
0.460413 
0.890515 
0.731993 
0.649918 
0.694495 
0.769888 
0.887832 
0.786104 
0.885935 
1.154372 
1.160047 
0.850850 
0.772332 
0.725769 
0.677854 
0.922960 
0.985818 
1.362571 
0.788450 
0.532504 
0.494248 
0.214341 
0.695641 
0.716454 
0.927986 
0.140593 
0.232810 
0.297508 
0.349532 
1.033550 
2.961022 
1.053017 
0.145387 
0.144061 
0.809607 
0.589993 
0.615340 
0.626094 
0.689657 
0.994540 
1.160792 
1.457671 
0.764565 
0.547649 
0.479604 
0.768153 
0.631003 
0.751347 
0.606687 
0.855802 
1.587568 
1.962281 
1.395860 
1.144432 
1.877399 
1.893745 
0.307074 
0.297075 
0.412702 
0.466584 
0.608375 
0.625241 
0.418250 
0.646555 
0.337519 
0.675916 
0.579132 
0.988219 
1.131267 
0.718056 
0.879108 
1.199383 
0.793040 
0.661365 
0.868802 
1.074436 
1.419386 
0.547188 
0.455355 
0.411414 
1.820604 
2.103034 
2.247161 
1.270531 
2.033362 
0.460225 
0.498661 
0.656889 
0.297227 
0.292840 
0.534216 
0.692218 
0.754218 
0.660662 
0.881838 
0.523952 
0.881889 
0.697812 
0.857701 
0.566564 
0.361654 
0.403990 
0.352687 
0.306233 
0.418854 
0.354892 
0.241996 
0.210380 
0.233870 
0.214722 
0.243485 
0.362589 
0.465080 
2.404070 
1.947644 
0.946490 
0.551552 
0.469478 
0.425042 
0.292762 
0.184844 
0.118944 
0.071142 
0.069311 
0.140690 
1.644604 
1.893235 
1.094464 
2.101951 
1.617670 
1.159842 
3.355291 
1.447872 
1.426745 
1.222373 
1.548358 
0.643619 
0.812967 
0.750840 
0.476016 
0.273108 
0.427659 
0.469155 
0.325123 
0.178433 
0.143716 
0.248584 
0.314263 
0.411721 
0.481902 
1.690053 
1.476918 
1.750955 
1.388709 
1.153712 
0.686586 
0.616590 
1.108327 
1.329332 
0.511210 
0.928724 
0.687317 
1.249044 
0.884423 
1.205268 
1.358704 
0.759682 
0.446899 
0.348083 
0.411368 
0.262857 
0.264051 
0.288463 
0.259541 
1.978994 
1.433550 
1.716658 
1.612371 
1.823596 
1.988735 
2.807794 
2.419984 
1.251635 
0.924962 
0.718513 
0.481721 
1.781845 
0.894209 
1.301109 
0.938003 
1.269811 
1.581854 
0.925531 
0.921482 
0.498159 
0.933556 
1.013253 
2.739234 
1.145164 
1.227291 
1.904434 
1.736902 
3.063486 
2.776380 
2.646664 
3.200246 
2.496591 
1.436311 
0.582963 
0.268172 
2.462910 
1.560589 
2.856408 
3.513568 
3.593902 
0.313806 
0.255175 
0.284552 
0.169076 
0.087198 
0.062303 
0.069477 
0.146007 
0.222206 
0.310248 
0.758933 
0.249616 
0.227668 
0.427883 
0.591969 
0.790973 
0.979806 
1.022167 
0.782199 
0.388473 
0.703038 
0.244376 
0.616469 
0.216482 
0.314505 
1.391385 
0.951653 
0.796124 
0.689270 
0.892729 
0.523362 
0.654291 
0.686632 
0.607247 
0.450163 
0.252199 
0.297680 
0.621092 
0.825379 
0.636461 
0.457189 
0.663078 
1.013095 
0.416230 
0.453041 
0.503777 
0.509642 
0.417663 
0.478631 
1.205103 
1.079333 
0.670462 
0.804833 
1.408696 
1.576894 
1.369391 
1.055885 
1.473299 
0.762761 
2.615622 
4.566645 
2.476428 
2.644593 
2.724505 
3.060286 
3.131817 
3.546054 
2.473962 
5.027535 
0.382103 
0.663605 
1.403935 
0.387474 
1.270149 
0.338234 
1.065505 
0.881563 
0.663855 
0.618089 
1.364242 
1.257690 
2.466677 
0.974088 
0.844131 
0.492159 
0.192867 
0.305660 
0.440228 
0.670215 
1.177208 
1.848496 
1.692244 
0.408748 
0.799495 
0.921837 
0.950751 
0.955365 
1.131829 
1.204590 
1.319271 
1.583603 
0.815568 
0.976245 
0.757035 
0.378270 
0.892601 
0.456735 
0.772070 
1.410773 
0.999250 
1.273725 
0.914644 
1.254854 
1.025297 
0.850160 
1.507333 
1.841585 
0.899843 
3.992341 
1.351294 
1.521600 
0.555017 
0.589491 
0.537133 
0.428380 
0.284792 
0.327998 
0.851282 
1.588842 
1.454404 
1.288405 
0.949336 
0.599172 
0.327841 
1.499221 
3.123945 
2.747463 
2.536700 
2.100494 
1.740348 
2.701089 
1.748755 
1.250020 
0.781477 
2.169762 
1.574870 
0.921296 
1.196363 
0.600461 
0.283891 
0.246672 
0.359092 
0.522446 
2.217231 
1.931660 
0.725891 
0.286414 
0.075896 
0.146061 
0.126060 
0.195473 
0.393830 
0.699257 
0.496011 
0.498903 
1.132455 
2.956735 
10.748612 
2.871802 
4.109697 
6.144787 
3.072817 
6.278416 
5.009994 
4.284342 
3.102812 
3.001759 
0.205204 
0.352257 
0.338488 
2.649178 
6.640870 
0.907021 
0.113230 
0.269347 
0.219010 
0.295027 
0.198745 
0.904479 
0.620715 
0.738414 
1.354952 
1.464627 
1.239278 
0.967340 
0.881495 
1.028853 
1.265897 
1.813090 
3.056601 
4.921530 
2.946529 
1.506820 
2.030213 
2.709747 
2.592820 
0.433253 
0.236396 
0.621654 
0.843519 
2.215793 
0.504732 
0.417480 
0.081054 
0.139552 
0.190309 
0.792540 
0.347080 
1.171400 
1.183571 
1.583892 
0.241547 
0.951997 
0.634522 
1.687218 
0.434750 
0.455607 
0.468496 
0.593095 
1.769477 
1.026473 
1.135123 
1.797339 
0.839631 
0.924470 
0.845703 
1.808078 
1.990630 
2.331248 
2.656456 
3.846695 
2.656881 
1.466393 
1.220445 
1.697253 
1.217922 
1.607812 
2.306175 
2.119227 
1.344304 
1.608658 
1.750037 
1.220253 
0.411747 
0.285856 
0.263192 
0.643053 
2.046456 
0.977348 
1.352223 
1.049209 
1.939998 
0.491120 
1.675469 
2.874237 
5.346095 
4.954993 
2.321985 
5.378686 
0.323862 
3.161959 
2.749729 
1.165122 
4.639949 
6.903549 
1.388530 
13.130022 
10.399030 
3.176275 
3.281581 
2.130918 
2.202166 
18.677771 
0.393556 
1.882276 
2.128266 
0.573620 
7.101032 
8.996294 
13.909047 
3.497158 
2.349395 
5.829165 
1.989320 
3.556176 
1.849605 
0.467352 
3.873245 
0.849130 
1.446858 
1.777539 
3.009091 
3.431483 
3.236575 
5.184580 
2.636125 
3.658244 
1.858148 
3.842623 
5.484070 
4.842566 
3.248038 
2.871939 
6.080934 
2.967966 
0.510912 
4.233476 
4.334059 
1.175840 
0.988338 
2.421584 
1.183952 
9.306750 
4.726810 
1.141527 
2.158936 
2.739469 
6.032449 
1.581485 
4.493860 
9.539122 
14.209354 
7.199147 
3.501693 
2.506154 
17.244339 
16.271074 
6.174211 
16.507673 
7.044861 
8.528390 
0.721090 
3.682418 
6.244847 
8.654681 
6.615292 
1.636205 
11.522723 
6.939662 
1.665240 
0.989746 
1.140976 
14.709179 
3.872443 
3.269091 
0.344281 
0.338818 
0.155842 
0.445990 
0.366565 
0.562578 
SCALARS MASS float 
LOOKUP_TABLE default 
0.814997 
1.448845 
1.668565 
1.794886 
1.361438 
1.831342 
2.259706 
0.213135 
0.196588 
0.207496 
1.880851 
0.439777 
0.331778 
0.364951 
0.612627 
0.274411 
0.260395 
0.217654 
0.296934 
0.266990 
0.466240 
0.509384 
0.733216 
0.739170 
0.387188 
0.345944 
0.452966 
0.494740 
0.551308 
0.648448 
0.752806 
0.417235 
0.218595 
0.289879 
0.722922 
0.804537 
1.021505 
0.937232 
0.841016 
0.803048 
0.619897 
1.038794 
1.293895 
1.301335 
0.691005 
0.431975 
0.647573 
0.616545 
0.576670 
0.266309 
0.297534 
0.391690 
0.604646 
0.774259 
0.831676 
0.939146 
1.129789 
0.520851 
0.464605 
0.716459 
0.889315 
0.593583 
0.614640 
0.457422 
0.372306 
0.488949 
0.641320 
0.747045 
0.490174 
0.551661 
0.523343 
0.508441 
0.614565 
0.859709 
0.765910 
0.720157 
0.682478 
0.421921 
0.268961 
0.262942 
0.426045 
0.393658 
0.278380 
0.261718 
0.162198 
0.234839 
0.278449 
0.287969 
0.244414 
0.403757 
0.550341 
0.463860 
0.338742 
0.350225 
0.337056 
0.525733 
0.562823 
0.419041 
0.314522 
0.509290 
0.523048 
0.877653 
0.349228 
0.225451 
0.235059 
0.249781 
0.366201 
0.644537 
0.620783 
0.339837 
0.287648 
0.382936 
0.362625 
0.799998 
1.122418 
0.799088 
0.680669 
0.866894 
1.003571 
1.354661 
1.853857 
1.742882 
1.214309 
1.426031 
1.636237 
1.719299 
1.801144 
1.602051 
1.452273 
1.275395 
0.790935 
0.890716 
2.050838 
1.154370 
1.385193 
1.297838 
0.991117 
1.158409 
0.767421 
0.829112 
0.895971 
1.063583 
0.809199 
0.656638 
0.354820 
1.452535 
1.387436 
1.274147 
0.537119 
1.620892 
1.463026 
1.596472 
1.756097 
1.271080 
1.065987 
1.156825 
1.276513 
1.414763 
1.006273 
1.096772 
1.062030 
0.892650 
1.284017 
0.980927 
1.000067 
2.321434 
1.747538 
1.536946 
1.712190 
1.447662 
1.007350 
0.975424 
1.487738 
1.639549 
1.486177 
0.979182 
0.805630 
0.813336 
0.641130 
0.711156 
0.207836 
0.269013 
0.855473 
1.045568 
0.791718 
0.342691 
0.453304 
0.426256 
0.570926 
0.416459 
0.375884 
0.354688 
0.264371 
0.216171 
0.182793 
0.252956 
0.179739 
0.222894 
0.247373 
1.613875 
1.875775 
2.035370 
2.127471 
1.947260 
1.753562 
1.040721 
1.279022 
2.278945 
2.333206 
2.040851 
1.424418 
1.098725 
1.255601 
0.836194 
0.905620 
0.781446 
0.664302 
0.776641 
2.067730 
1.483350 
2.145495 
2.073271 
1.781968 
1.685305 
1.731154 
1.299699 
1.074228 
1.103773 
1.132785 
3.482831 
1.755828 
2.272319 
1.700356 
3.950527 
3.859171 
4.115531 
3.468933 
2.708902 
2.764259 
2.968101 
1.994670 
1.150141 
0.864719 
1.360273 
1.259775 
0.807082 
0.599653 
0.479233 
0.529928 
0.462560 
0.503857 
0.524851 
0.560322 
0.460734 
0.506103 
0.374542 
0.350464 
0.749792 
0.811574 
0.783632 
0.544062 
0.438563 
0.445491 
0.244570 
0.308771 
0.220812 
0.160103 
0.126686 
0.100795 
0.090745 
0.138791 
0.256352 
0.827395 
0.086830 
0.099690 
0.123853 
0.122249 
0.207192 
0.163120 
0.239219 
0.388240 
0.778706 
0.322964 
1.048544 
0.414071 
0.474721 
0.656925 
1.198437 
1.126206 
1.144058 
1.116759 
1.171714 
1.045737 
0.926556 
0.873202 
0.589826 
0.563407 
0.678725 
0.923637 
0.558139 
1.464933 
1.743086 
1.227811 
1.812559 
1.349474 
1.574665 
1.398369 
1.722017 
1.454376 
1.874986 
1.585674 
2.084762 
2.671368 
1.933273 
2.296072 
1.169028 
1.156625 
2.228174 
2.060782 
1.818668 
1.896772 
2.747172 
0.356480 
0.460413 
0.890515 
0.731993 
0.649918 
0.694495 
0.769888 
0.887832 
0.786104 
0.885935 
1.154372 
1.160047 
0.850850 
0.772332 
0.725769 
0.677854 
0.922960 
0.985818 
1.362571 
0.788450 
0.532504 
0.494248 
0.214341 
0.695641 
0.716454 
0.927986 
0.140593 
0.232810 
0.297508 
0.349532 
1.033550 
2.961022 
1.053017 
0.145387 
0.144061 
0.809607 
0.589993 
0.615340 
0.626094 
0.689657 
0.994540 
1.160792 
1.457671 
0.764565 
0.547649 
0.479604 
0.768153 
0.631003 
0.751347 
0.606687 
0.855802 
1.587568 
1.962281 
1.395860 
1.144432 
1.877399 
1.893745 
0.307074 
0.297075 
0.412702 
0.466584 
0.608375 
0.625241 
0.418250 
0.646555 
0.337519 
0.675916 
0.579132 
0.988219 
1.131267 
0.718056 
0.879108 
1.199383 
0.793040 
0.661365 
0.868802 
1.074436 
1.419386 
0.547188 
0.455355 
0.411414 
1.820604 
2.103034 
2.247161 
1.270531 
2.033362 
0.460225 
0.498661 
0.656889 
0.297227 
0.292840 
0.534216 
0.692218 
0.754218 
0.660662 
0.881838 
0.523952 
0.881889 
0.697812 
0.857701 
0.566564 
0.361654 
0.403990 
0.352687 
0.306233 
0.418854 
0.354892 
0.241996 
0.210380 
0.233870 
0.214722 
0.243485 
0.362589 
0.465080 
2.404070 
1.947644 
0.946490 
0.551552 
0.469478 
0.425042 
0.292762 
0.184844 
0.118944 
0.071142 
0.069311 
0.140690 
1.644604 
1.893235 
1.094464 
2.101951 
1.617670 
1.159842 
3.355291 
1.447872 
1.426745 
1.222373 
1.548358 
0.643619 
0.812967 
0.750840 
0.476016 
0.273108 
0.427659 
0.469155 
0.325123 
0.178433 
0.143716 
0.248584 
0.314263 
0.411721 
0.481902 
1.690053 
1.476918 
1.750955 
1.388709 
1.153712 
0.686586 
0.616590 
1.108327 
1.329332 
0.511210 
0.928724 
0.687317 
1.249044 
0.884423 
1.205268 
1.358704 
0.759682 
0.446899 
0.348083 
0.411368 
0.262857 
0.264051 
0.288463 
0.259541 
1.978994 
1.433550 
1.716658 
1.612371 
1.823596 
1.988735 
2.807794 
2.419984 
1.251635 
0.924962 
0.718513 
0.481721 
1.781845 
0.894209 
1.301109 
0.938003 
1.269811 
1.581854 
0.925531 
0.921482 
0.498159 
0.933556 
1.013253 
2.739234 
1.145164 
1.227291 
1.904434 
1.736902 
3.063486 
2.776380 
2.646664 
3.200246 
2.496591 
1.436311 
0.582963 
0.268172 
2.462910 
1.560589 
2.856408 
3.513568 
3.593902 
0.313806 
0.255175 
0.284552 
0.169076 
0.087198 
0.062303 
0.069477 
0.146007 
0.222206 
0.310248 
0.758933 
0.249616 
0.227668 
0.427883 
0.591969 
0.790973 
0.979806 
1.022167 
0.782199 
0.388473 
0.703038 
0.244376 
0.616469 
0.216482 
0.314505 
1.391385 
0.951653 
0.796124 
0.689270 
0.892729 
0.523362 
0.654291 
0.686632 
0.607247 
0.450163 
0.252199 
0.297680 
0.621092 
0.825379 
0.636461 
0.457189 
0.663078 
1.013095 
0.416230 
0.453041 
0.503777 
0.509642 
0.417663 
0.478631 
1.205103 
1.079333 
0.670462 
0.804833 
1.408696 
1.576894 
1.369391 
1.055885 
1.473299 
0.762761 
2.615622 
4.566645 
2.476428 
2.644593 
2.724505 
3.060286 
3.131817 
3.546054 
2.473962 
5.027535 
0.382103 
0.663605 
1.403935 
0.387474 
1.270149 
0.338234 
1.065505 
0.881563 
0.663855 
0.618089 
1.364242 
1.257690 
2.466677 
0.974088 
0.844131 
0.492159 
0.192867 
0.305660 
0.440228 
0.670215 
1.177208 
1.848496 
1.692244 
0.408748 
0.799495 
0.921837 
0.950751 
0.955365 
1.131829 
1.204590 
1.319271 
1.583603 
0.815568 
0.976245 
0.757035 
0.378270 
0.892601 
0.456735 
0.772070 
1.410773 
0.999250 
1.273725 
0.914644 
1.254854 
1.025297 
0.850160 
1.507333 
1.841585 
0.899843 
3.992341 
1.351294 
1.521600 
0.555017 
0.589491 
0.537133 
0.428380 
0.284792 
0.327998 
0.851282 
1.588842 
1.454404 
1.288405 
0.949336 
0.599172 
0.327841 
1.499221 
3.123945 
2.747463 
2.536700 
2.100494 
1.740348 
2.701089 
1.748755 
1.250020 
0.781477 
2.169762 
1.574870 
0.921296 
1.196363 
0.600461 
0.283891 
0.246672 
0.359092 
0.522446 
2.217231 
1.931660 
0.725891 
0.286414 
0.075896 
0.146061 
0.126060 
0.195473 
0.393830 
0.699257 
0.496011 
0.498903 
1.132455 
2.956735 
10.748612 
2.871802 
4.109697 
6.144787 
3.072817 
6.278416 
5.009994 
4.284342 
3.102812 
3.001759 
0.205204 
0.352257 
0.338488 
2.649178 
6.640870 
0.907021 
0.113230 
0.269347 
0.219010 
0.295027 
0.198745 
0.904479 
0.620715 
0.738414 
1.354952 
1.464627 
1.239278 
0.967340 
0.881495 
1.028853 
1.265897 
1.813090 
3.056601 
4.921530 
2.946529 
1.506820 
2.030213 
2.709747 
2.592820 
0.433253 
0.236396 
0.621654 
0.843519 
2.215793 
0.504732 
0.417480 
0.081054 
0.139552 
0.190309 
0.792540 
0.347080 
1.171400 
1.183571 
1.583892 
0.241547 
0.951997 
0.634522 
1.687218 
0.434750 
0.455607 
0.468496 
0.593095 
1.769477 
1.026473 
1.135123 
1.797339 
0.839631 
0.924470 
0.845703 
1.808078 
1.990630 
2.331248 
2.656456 
3.846695 
2.656881 
1.466393 
1.220445 
1.697253 
1.217922 
1.607812 
2.306175 
2.119227 
1.344304 
1.608658 
1.750037 
1.220253 
0.411747 
0.285856 
0.263192 
0.643053 
2.046456 
0.977348 
1.352223 
1.049209 
1.939998 
0.491120 
1.675469 
2.874237 
5.346095 
4.954993 
2.321985 
5.378686 
0.323862 
3.161959 
2.749729 
1.165122 
4.639949 
6.903549 
1.388530 
13.130022 
10.399030 
3.176275 
3.281581 
2.130918 
2.202166 
18.677771 
0.393556 
1.882276 
2.128266 
0.573620 
7.101032 
8.996294 
13.909047 
3.497158 
2.349395 
5.829165 
1.989320 
3.556176 
1.849605 
0.467352 
3.873245 
0.849130 
1.446858 
1.777539 
3.009091 
3.431483 
3.236575 
5.184580 
2.636125 
3.658244 
1.858148 
3.842623 
5.484070 
4.842566 
3.248038 
2.871939 
6.080934 
2.967966 
0.510912 
4.233476 
4.334059 
1.175840 
0.988338 
2.421584 
1.183952 
9.306750 
4.726810 
1.141527 
2.158936 
2.739469 
6.032449 
1.581485 
4.493860 
9.539122 
14.209354 
7.199147 
3.501693 
2.506154 
17.244339 
16.271074 
6.174211 
16.507673 
7.044861 
8.528390 
0.721090 
3.682418 
6.244847 
8.654681 
6.615292 
1.636205 
11.522723 
6.939662 
1.665240 
0.989746 
1.140976 
14.709179 
3.872443 
3.269091 
0.344281 
0.338818 
0.155842 
0.445990 
0.366565 
0.562578 
SCALARS DENSITY float 
LOOKUP_TABLE default 
200.000000 
200.000000 
200.000000 
200.000000 
200.000000 
200.000000 
200.000000 
200.000000 
200.000000 
200.000000 
200.000000 
200.000000 
200.000000 
200.000000 
200.000000 
200.000000 
200.000000 
200.000000 
200.000000 
200.000000 
200.000000 
200.000000 
200.000000 
200.000000 
200.000000 
200.000000 
200.000000 
200.000000 
200.000000 
200.000000 
200.000000 
200.000000 
200.000000 
200.000000 
200.000000 
200.000000 
200.000000 
200.000000 
200.000000 
200.000000 
200.000000 
200.000000 
200.000000 
200.000000 
200.000000 
200.000000 
200.000000 
200.000000 
200.000000 
200.000000 
200.000000 
200.000000 
200.000000 
200.000000 
200.000000 
200.000000 
200.000000 
200.000000 
200.000000 
200.000000 
200.000000 
200.000000 
200.000000 
200.000000 
200.000000 
200.000000 
200.000000 
200.000000 
200.000000 
200.000000 
200.000000 
200.000000 
200.000000 
200.000000 
200.000000 
200.000000 
200.000000 
200.000000 
200.000000 
200.000000 
200.000000 
200.000000 
200.000000 
200.000000 
200.000000 
200.000000 
200.000000 
200.000000 
200.000000 
200.000000 
200.000000 
200.000000 
200.000000 
200.000000 
200.000000 
200.000000 
200.000000 
200.000000 
200.000000 
200.000000 
200.000000 
200.000000 
200.000000 
200.000000 
200.000000 
200.000000 
200.000000 
200.000000 
200.000000 
200.000000 
200.000000 
200.000000 
200.000000 
200.000000 
200.000000 
200.000000 
200.000000 
200.000000 
200.000000 
200.000000 
200.000000 
200.000000 
200.000000 
200.000000 
200.000000 
200.000000 
200.000000 
200.000000 
200.000000 
200.000000 
200.000000 
200.000000 
200.000000 
200.000000 
200.000000 
200.000000 
200.000000 
200.000000 
200.000000 
200.000000 
200.000000 
200.000000 
200.000000 
200.000000 
200.000000 
200.000000 
200.000000 
200.000000 
200.000000 
200.000000 
200.000000 
200.000000 
200.000000 
200.000000 
200.000000 
200.000000 
200.000000 
200.000000 
200.000000 
200.000000 
200.000000 
200.000000 
200.000000 
200.000000 
200.000000 
200.000000 
200.000000 
200.000000 
200.000000 
200.000000 
200.000000 
200.000000 
200.000000 
200.000000 
200.000000 
200.000000 
200.000000 
200.000000 
200.000000 
200.000000 
200.000000 
200.000000 
200.000000 
200.000000 
200.000000 
200.000000 
200.000000 
200.000000 
200.000000 
200.000000 
200.000000 
200.000000 
200.000000 
200.000000 
200.000000 
200.000000 
200.000000 
200.000000 
200.000000 
200.000000 
200.000000 
200.000000 
200.000000 
200.000000 
200.000000 
200.000000 
200.000000 
200.000000 
200.000000 
200.000000 
200.000000 
200.000000 
200.000000 
200.000000 
200.000000 
200.000000 
200.000000 
200.000000 
200.000000 
200.000000 
200.000000 
200.000000 
200.000000 
200.000000 
200.000000 
200.000000 
200.000000 
200.000000 
200.000000 
200.000000 
200.000000 
200.000000 
200.000000 
200.000000 
200.000000 
200.000000 
200.000000 
200.000000 
200.000000 
200.000000 
200.000000 
200.000000 
200.000000 
200.000000 
200.000000 
200.000000 
200.000000 
200.000000 
200.000000 
200.000000 
200.000000 
200.000000 
200.000000 
200.000000 
200.000000 
200.000000 
200.000000 
200.000000 
200.000000 
200.000000 
200.000000 
200.000000 
200.000000 
200.000000 
200.000000 
200.000000 
200.000000 
200.000000 
200.000000 
200.000000 
200.000000 
200.000000 
200.000000 
200.000000 
200.000000 
200.000000 
200.000000 
200.000000 
200.000000 
200.000000 
200.000000 
200.000000 
200.000000 
200.000000 
200.000000 
200.000000 
200.000000 
200.000000 
200.000000 
200.000000 
200.000000 
200.000000 
200.000000 
200.000000 
200.000000 
200.000000 
200.000000 
200.000000 
200.000000 
200.000000 
200.000000 
200.000000 
200.000000 
200.000000 
200.000000 
200.000000 
200.000000 
200.000000 
200.000000 
200.000000 
200.000000 
200.000000 
200.000000 
200.000000 
200.000000 
200.000000 
200.000000 
200.000000 
200.000000 
200.000000 
200.000000 
200.000000 
200.000000 
200.000000 
200.000000 
200.000000 
200.000000 
200.000000 
200.000000 
200.000000 
200.000000 
200.000000 
200.000000 
200.000000 
200.000000 
200.000000 
200.000000 
200.000000 
200.000000 
200.000000 
200.000000 
200.000000 
200.000000 
200.000000 
200.000000 
200.000000 
200.000000 
200.000000 
200.000000 
200.000000 
200.000000 
200.000000 
200.000000 
200.000000 
200.000000 
200.000000 
200.000000 
200.000000 
200.000000 
200.000000 
200.000000 
200.000000 
200.000000 
200.000000 
200.000000 
200.000000 
200.000000 
200.000000 
200.000000 
200.000000 
200.000000 
200.000000 
200.000000 
200.000000 
200.000000 
200.000000 
200.000000 
200.000000 
200.000000 
200.000000 
200.000000 
200.000000 
200.000000 
200.000000 
200.000000 
200.000000 
200.000000 
200.000000 
200.000000 
200.000000 
200.000000 
200.000000 
200.000000 
200.000000 
200.000000 
200.000000 
200.000000 
200.000000 
200.000000 
200.000000 
200.000000 
200.000000 
200.000000 
200.000000 
200.000000 
200.000000 
200.000000 
200.000000 
200.000000 
200.000000 
200.000000 
200.000000 
200.000000 
200.000000 
200.000000 
200.000000 
200.000000 
200.000000 
200.000000 
200.000000 
200.000000 
200.000000 
200.000000 
200.000000 
200.000000 
200.000000 
200.000000 
200.000000 
200.000000 
200.000000 
200.000000 
200.000000 
200.000000 
200.000000 
200.000000 
200.000000 
200.000000 
200.000000 
200.000000 
200.000000 
200.000000 
200.000000 
200.000000 
200.000000 
200.000000 
200.000000 
200.000000 
200.000000 
200.000000 
200.000000 
200.000000 
200.000000 
200.000000 
200.000000 
200.000000 
200.000000 
200.000000 
200.000000 
200.000000 
200.000000 
200.000000 
200.000000 
200.000000 
200.000000 
200.000000 
200.000000 
200.000000 
200.000000 
200.000000 
200.000000 
200.000000 
200.000000 
200.000000 
200.000000 
200.000000 
200.000000 
200.000000 
200.000000 
200.000000 
200.000000 
200.000000 
200.000000 
200.000000 
200.000000 
200.000000 
200.000000 
200.000000 
200.000000 
200.000000 
200.000000 
200.000000 
200.000000 
200.000000 
200.000000 
200.000000 
200.000000 
200.000000 
200.000000 
200.000000 
200.000000 
200.000000 
200.000000 
200.000000 
200.000000 
200.000000 
200.000000 
200.000000 
200.000000 
200.000000 
200.000000 
200.000000 
200.000000 
200.000000 
200.000000 
200.000000 
200.000000 
200.000000 
200.000000 
200.000000 
200.000000 
200.000000 
200.000000 
200.000000 
200.000000 
200.000000 
200.000000 
200.000000 
200.000000 
200.000000 
200.000000 
200.000000 
200.000000 
200.000000 
200.000000 
200.000000 
200.000000 
200.000000 
200.000000 
200.000000 
200.000000 
200.000000 
200.000000 
200.000000 
200.000000 
200.000000 
200.000000 
200.000000 
200.000000 
200.000000 
200.000000 
200.000000 
200.000000 
200.000000 
200.000000 
200.000000 
200.000000 
200.000000 
200.000000 
200.000000 
200.000000 
200.000000 
200.000000 
200.000000 
200.000000 
200.000000 
200.000000 
200.000000 
200.000000 
200.000000 
200.000000 
200.000000 
200.000000 
200.000000 
200.000000 
200.000000 
200.000000 
200.000000 
200.000000 
200.000000 
200.000000 
200.000000 
200.000000 
200.000000 
200.000000 
200.000000 
200.000000 
200.000000 
200.000000 
200.000000 
200.000000 
200.000000 
200.000000 
200.000000 
200.000000 
200.000000 
200.000000 
200.000000 
200.000000 
200.000000 
200.000000 
200.000000 
200.000000 
200.000000 
200.000000 
200.000000 
200.000000 
200.000000 
200.000000 
200.000000 
200.000000 
200.000000 
200.000000 
200.000000 
200.000000 
200.000000 
200.000000 
200.000000 
200.000000 
200.000000 
200.000000 
200.000000 
200.000000 
200.000000 
200.000000 
200.000000 
200.000000 
200.000000 
200.000000 
200.000000 
200.000000 
200.000000 
200.000000 
200.000000 
200.000000 
200.000000 
200.000000 
200.000000 
200.000000 
200.000000 
200.000000 
200.000000 
200.000000 
200.000000 
200.000000 
200.000000 
200.000000 
200.000000 
200.000000 
200.000000 
200.000000 
200.000000 
200.000000 
200.000000 
200.000000 
200.000000 
200.000000 
200.000000 
200.000000 
200.000000 
200.000000 
200.000000 
200.000000 
200.000000 
200.000000 
200.000000 
200.000000 
200.000000 
200.000000 
200.000000 
200.000000 
200.000000 
200.000000 
200.000000 
200.000000 
200.000000 
200.000000 
200.000000 
200.000000 
200.000000 
200.000000 
200.000000 
200.000000 
200.000000 
200.000000 
200.000000 
200.000000 
200.000000 
200.000000 
200.000000 
200.000000 
200.000000 
200.000000 
200.000000 
200.000000 
200.000000 
200.000000 
200.000000 
200.000000 
200.000000 
200.000000 
200.000000 
200.000000 
200.000000 
200.000000 
200.000000 
200.000000 
200.000000 
200.000000 
200.000000 
200.000000 
200.000000 
200.000000 
200.000000 
200.000000 
200.000000 
200.000000 
200.000000 
200.000000 
200.000000 
200.000000 
200.000000 
200.000000 
200.000000 
200.000000 
200.000000 
200.000000 
200.000000 
200.000000 
200.000000 
200.000000 
200.000000 
200.000000 
200.000000 
200.000000 
200.000000 
200.000000 
200.000000 
200.000000 
200.000000 
200.000000 
200.000000 
200.000000 
200.000000 
200.000000 
200.000000 
200.000000 
200.000000 
200.000000 
200.000000 
200.000000 
200.000000 
200.000000 
200.000000 
200.000000 
200.000000 
200.000000 
200.000000 
200.000000 
200.000000 
200.000000 
200.000000 
200.000000 
200.000000 
200.000000 
200.000000 
200.000000 
200.000000 
200.000000 
200.000000 
200.000000 
200.000000 
200.000000 
200.000000 
200.000000 
200.000000 
200.000000 
200.000000 
200.000000 
200.000000 
200.000000 
200.000000 
200.000000 
200.000000 
200.000000 
200.000000 
200.000000 
200.000000 
200.000000 
200.000000 
200.000000 
200.000000 
200.000000 
200.000000 
200.000000 
200.000000 
200.000000 
200.000000 
200.000000 
200.000000 
200.000000 
200.000000 
200.000000 
200.000000 
200.000000 
200.000000 
200.000000 
200.000000 
200.000000 
200.000000 
200.000000 
200.000000 
200.000000 
200.000000 
200.000000 
200.000000 
200.000000 
200.000000 
200.000000 
200.000000 
200.000000 
200.000000 
200.000000 
200.000000 
200.000000 
200.000000 
200.000000 
200.000000 
200.000000 
200.000000 
200.000000 
200.000000 
200.000000 
200.000000 
200.000000 
200.000000 
200.000000 
200.000000 
200.000000 
200.000000 
200.000000 
200.000000 
200.000000 
200.000000 
200.000000 
200.000000 
200.000000 
200.000000 
200.000000 
200.000000 
200.000000 
200.000000 
200.000000 
200.000000 
200.000000 
200.000000 
200.000000 
200.000000 
200.000000 
200.000000 
200.000000 
200.000000 
200.000000 
200.000000 
200.000000 
200.000000 
200.000000 
200.000000 
200.000000 
200.000000 
200.000000 
200.000000 
200.000000 
200.000000 
200.000000 
200.000000 
200.000000 
200.000000 
200.000000 
200.000000 
200.000000 
200.000000 
200.000000 
200.000000 
200.000000 
200.000000 
200.000000 
200.000000 
200.000000 
200.000000 
200.000000 
200.000000 
200.000000 
200.000000 
200.000000 
200.000000 
200.000000 
200.000000 
200.000000 
200.000000 
SCALARS ELEM_i float 
LOOKUP_TABLE default 
241 
241 
241 
241 
241 
242 
222 
259 
259 
259 
222 
37 
37 
28 
28 
49 
258 
258 
37 
38 
38 
38 
58 
222 
258 
258 
258 
238 
238 
237 
237 
259 
49 
49 
48 
48 
33 
33 
33 
33 
34 
58 
58 
48 
34 
34 
34 
34 
54 
54 
54 
54 
54 
54 
74 
74 
58 
78 
78 
78 
78 
238 
238 
238 
238 
238 
218 
218 
218 
218 
218 
198 
198 
237 
198 
198 
198 
178 
178 
178 
178 
178 
178 
177 
177 
177 
157 
157 
157 
157 
157 
157 
157 
137 
137 
137 
137 
137 
137 
117 
117 
117 
117 
117 
117 
117 
117 
117 
97 
97 
98 
98 
98 
98 
78 
237 
237 
236 
236 
33 
222 
222 
223 
223 
223 
223 
48 
236 
236 
235 
235 
235 
48 
28 
74 
73 
93 
93 
93 
93 
94 
114 
114 
114 
114 
53 
53 
53 
222 
222 
222 
203 
203 
203 
203 
203 
204 
204 
184 
184 
184 
185 
28 
28 
27 
67 
67 
67 
47 
47 
47 
47 
66 
66 
66 
86 
86 
86 
86 
86 
106 
106 
106 
255 
254 
254 
254 
254 
234 
234 
234 
234 
234 
234 
234 
214 
214 
214 
214 
185 
185 
186 
186 
186 
187 
187 
167 
167 
147 
147 
147 
127 
127 
127 
127 
107 
107 
107 
224 
203 
204 
52 
72 
72 
72 
92 
92 
92 
92 
204 
204 
204 
204 
205 
205 
206 
206 
207 
207 
207 
208 
208 
208 
208 
209 
209 
209 
209 
210 
210 
210 
230 
230 
231 
231 
231 
231 
231 
212 
212 
212 
212 
212 
213 
213 
213 
213 
213 
213 
213 
213 
213 
213 
71 
71 
70 
91 
70 
91 
91 
70 
70 
91 
70 
91 
91 
91 
70 
51 
91 
111 
51 
51 
51 
52 
52 
52 
52 
32 
52 
32 
31 
51 
31 
51 
50 
51 
50 
50 
50 
50 
50 
49 
50 
69 
69 
69 
69 
88 
88 
88 
89 
115 
115 
95 
95 
95 
95 
95 
96 
96 
96 
96 
77 
77 
77 
77 
57 
57 
57 
57 
57 
37 
37 
49 
115 
115 
214 
258 
37 
37 
37 
115 
193 
115 
258 
258 
115 
95 
96 
96 
48 
48 
114 
114 
106 
86 
86 
86 
86 
86 
96 
96 
112 
112 
48 
48 
47 
47 
258 
258 
258 
238 
238 
238 
238 
238 
238 
238 
238 
238 
218 
218 
238 
237 
237 
237 
237 
236 
236 
218 
218 
198 
67 
67 
87 
47 
67 
34 
34 
34 
54 
54 
54 
54 
53 
53 
73 
34 
34 
33 
33 
254 
234 
234 
234 
234 
234 
234 
234 
214 
214 
214 
214 
214 
198 
111 
111 
91 
91 
91 
91 
91 
91 
91 
90 
70 
70 
114 
113 
96 
236 
93 
93 
88 
107 
92 
92 
92 
198 
198 
198 
178 
178 
178 
178 
177 
177 
177 
177 
177 
157 
157 
73 
97 
97 
77 
77 
77 
77 
57 
57 
78 
77 
77 
57 
77 
77 
77 
57 
37 
37 
57 
37 
37 
37 
37 
93 
93 
93 
73 
73 
73 
235 
235 
235 
235 
234 
234 
73 
73 
53 
53 
53 
53 
53 
53 
54 
33 
33 
205 
185 
185 
205 
185 
206 
206 
187 
187 
70 
70 
70 
70 
69 
69 
89 
89 
108 
97 
97 
97 
213 
213 
213 
213 
213 
213 
213 
213 
213 
212 
212 
212 
212 
212 
211 
211 
211 
211 
117 
117 
117 
117 
116 
116 
116 
136 
97 
97 
136 
136 
136 
137 
137 
157 
157 
157 
157 
209 
209 
209 
210 
210 
210 
210 
210 
211 
209 
209 
208 
208 
127 
127 
127 
107 
147 
107 
108 
109 
88 
87 
88 
167 
147 
167 
167 
187 
97 
97 
97 
117 
156 
97 
97 
97 
178 
86 
87 
87 
87 
87 
177 
177 
177 
177 
238 
238 
238 
237 
156 
156 
156 
136 
136 
136 
136 
116 
116 
116 
96 
116 
96 
177 
234 
234 
234 
234 
96 
96 
97 
198 
93 
93 
113 
113 
93 
112 
211 
211 
211 
210 
210 
210 
210 
210 
209 
209 
212 
212 
212 
212 
212 
209 
148 
128 
128 
107 
107 
107 
107 
209 
208 
188 
218 
218 
198 
198 
198 
198 
218 
218 
112 
70 
70 
70 
90 
90 
90 
90 
90 
90 
90 
91 
111 
110 
131 
90 
90 
109 
108 
110 
188 
168 
168 
148 
213 
213 
213 
194 
194 
214 
213 
214 
214 
214 
214 
177 
177 
115 
116 
96 
96 
115 
237 
237 
216 
216 
216 
215 
235 
115 
114 
114 
114 
213 
234 
234 
90 
110 
213 
213 
213 
90 
90 
213 
210 
115 
115 
116 
90 
90 
90 
90 
177 
210 
177 
210 
176 
177 
156 
156 
210 
212 
210 
188 
189 
189 
189 
148 
176 
156 
136 
116 
136 
192 
192 
211 
211 
217 
217 
217 
218 
218 
198 
198 
197 
217 
217 
217 
197 
197 
177 
113 
128 
128 
216 
215 
214 
112 
113 
214 
216 
196 
211 
130 
109 
188 
168 
168 
148 
152 
214 
214 
214 
214 
194 
195 
174 
134 
135 
134 
115 
133 
190 
210 
176 
177 
192 
136 
189 
192 
193 
192 
193 
189 
177 
196 
196 
197 
197 
113 
132 
133 
210 
190 
156 
211 
210 
156 
136 
129 
149 
135 
135 
135 
155 
135 
155 
175 
154 
175 
169 
169 
151 
172 
133 
153 
192 
173 
210 
190 
169 
170 
149 
191 
171 
191 
190 
52 
203 
150 
191 
217 
254 
29 
106 
222 
106 
222 
VECTORS VELOCITY float 
0.000000 -1.324350 0.000000 
0.000000 -1.324350 0.000000 
0.000000 -1.324350 0.000000 
0.000000 -1.324350 0.000000 
0.000000 -1.324350 0.000000 
0.000000 -1.324350 0.000000 
-0.000000 -1.324350 0.000000 
0.000000 -1.324350 0.000000 
0.000000 -1.324350 0.000000 
0.000000 -1.324350 0.000000 
-0.000000 -1.324350 0.000000 
0.000000 -1.324350 0.000000 
-0.000000 -1.324350 0.000000 
-0.000000 -1.324350 0.000000 
-0.000000 -1.324350 0.000000 
-0.000000 -1.324350 0.000000 
-0.000000 -1.324350 0.000000 
-0.000000 -1.324350 0.000000 
-0.000000 -1.324350 0.000000 
0.000000 -1.324350 0.000000 
0.000000 -1.324350 0.000000 
0.000000 -1.324350 0.000000 
0.000000 -1.324350 0.000000 
-0.000000 -1.324350 0.000000 
-0.000000 -1.324350 0.000000 
0.000000 -1.324350 0.000000 
0.000000 -1.324350 0.000000 
0.000000 -1.324350 0.000000 
0.000000 -1.324350 0.000000 
0.000000 -1.324350 0.000000 
0.000000 -1.324350 0.000000 
0.000000 -1.324350 0.000000 
-0.000000 -1.324350 0.000000 
-0.000000 -1.324350 0.000000 
-0.000000 -1.324350 0.000000 
-0.000000 -1.324350 0.000000 
0.000000 -1.324350 0.000000 
-0.000000 -1.324350 0.000000 
-0.000000 -1.324350 0.000000 
-0.000000 -1.324350 0.000000 
-0.000000 -1.324350 0.000000 
-0.000000 -1.324350 0.000000 
0.000000 -1.324350 0.000000 
-0.000000 -1.324350 0.000000 
0.000000 -1.324350 0.000000 
0.000000 -1.324350 0.000000 
0.000000 -1.324350 0.000000 
0.000000 -1.324350 0.000000 
-0.000000 -1.324350 0.000000 
0.000000 -1.324350 0.000000 
0.000000 -1.324350 0.000000 
0.000000 -1.324350 0.000000 
0.000000 -1.324350 0.000000 
0.000000 -1.324350 0.000000 
0.000000 -1.324350 0.000000 
-0.000000 -1.324350 0.000000 
-0.000000 -1.324350 0.000000 
-0.000000 -1.324350 0.000000 
-0.000000 -1.324350 0.000000 
-0.000000 -1.324350 0.000000 
-0.000000 -1.324350 0.000000 
-0.000000 -1.324350 0.000000 
-0.000000 -1.324350 0.000000 
-0.000000 -1.324350 0.000000 
0.000000 -1.324350 0.000000 
0.000000 -1.324350 0.000000 
0.000000 -1.324350 0.000000 
0.000000 -1.324350 0.000000 
0.000000 -1.324350 0.000000 
0.000000 -1.324350 0.000000 
0.000000 -1.324350 0.000000 
0.000000 -1.324350 0.000000 
0.000000 -1.324350 0.000000 
0.000000 -1.324350 0.000000 
0.000000 -1.324350 0.000000 
-0.000000 -1.324350 0.000000 
-0.000000 -1.324350 0.000000 
-0.000000 -1.324350 0.000000 
0.000000 -1.324350 0.000000 
0.000000 -1.324350 0.000000 
0.000000 -1.324350 0.000000 
0.000000 -1.324350 0.000000 
0.000000 -1.324350 0.000000 
0.000000 -1.324350 0.000000 
0.000000 -1.324350 0.000000 
0.000000 -1.324350 0.000000 
0.000000 -1.324350 0.000000 
0.000000 -1.324350 0.000000 
0.000000 -1.324350 0.000000 
0.000000 -1.324350 0.000000 
0.000000 -1.324350 0.000000 
0.000000 -1.324350 0.000000 
0.000000 -1.324350 0.000000 
0.000000 -1.324350 0.000000 
0.000000 -1.324350 0.000000 
0.000000 -1.324350 0.000000 
0.000000 -1.324350 0.000000 
-0.000000 -1.324350 0.000000 
-0.000000 -1.324350 0.000000 
-0.000000 -1.324350 0.000000 
-0.000000 -1.324350 0.000000 
-0.000000 -1.324350 0.000000 
0.000000 -1.324350 0.000000 
0.000000 -1.324350 0.000000 
0.000000 -1.324350 0.000000 
0.000000 -1.324350 0.000000 
-0.000000 -1.324350 0.000000 
-0.000000 -1.324350 0.000000 
-0.000000 -1.324350 0.000000 
-0.000000 -1.324350 0.000000 
-0.000000 -1.324350 0.000000 
0.000000 -1.324350 0.000000 
0.000000 -1.324350 0.000000 
0.000000 -1.324350 0.000000 
-0.000000 -1.324350 0.000000 
0.000000 -1.324350 0.000000 
-0.000000 -1.324350 0.000000 
-0.000000 -1.324350 0.000000 
-0.000000 -1.324350 0.000000 
0.000000 -1.324350 0.000000 
-0.000000 -1.324350 0.000000 
-0.000000 -1.324350 0.000000 
-0.000000 -1.324350 0.000000 
-0.000000 -1.324350 0.000000 
-0.000000 -1.324350 0.000000 
-0.000000 -1.324350 0.000000 
-0.000000 -1.324350 0.000000 
-0.000000 -1.324350 0.000000 
-0.000000 -1.324350 0.000000 
-0.000000 -1.324350 0.000000 
-0.000000 -1.324350 0.000000 
-0.000000 -1.324350 0.000000 
-0.000000 -1.324350 0.000000 
-0.000000 -1.324350 0.000000 
-0.000000 -1.324350 0.000000 
-0.000000 -1.324350 0.000000 
-0.000000 -1.324350 0.000000 
-0.000000 -1.324350 0.000000 
-0.000000 -1.324350 0.000000 
0.000000 -1.324350 0.000000 
0.000000 -1.324350 0.000000 
0.000000 -1.324350 0.000000 
0.000000 -1.324350 0.000000 
0.000000 -1.324350 0.000000 
0.000000 -1.324350 0.000000 
0.000000 -1.324350 0.000000 
0.000000 -1.324350 0.000000 
-0.000000 -1.324350 0.000000 
-0.000000 -1.324350 0.000000 
-0.000000 -1.324350 0.000000 
-0.000000 -1.324350 0.000000 
-0.000000 -1.324350 0.000000 
-0.000000 -1.324350 0.000000 
-0.000000 -1.324350 0.000000 
-0.000000 -1.324350 0.000000 
-0.000000 -1.324350 0.000000 
0.000000 -1.324350 0.000000 
0.000000 -1.324350 0.000000 
-0.000000 -1.324350 0.000000 
-0.000000 -1.324350 0.000000 
0.000000 -1.324350 0.000000 
0.000000 -1.324350 0.000000 
0.000000 -1.324350 0.000000 
0.000000 -1.324350 0.000000 
0.000000 -1.324350 0.000000 
-0.000000 -1.324350 0.000000 
0.000000 -1.324350 0.000000 
0.000000 -1.324350 0.000000 
0.000000 -1.324350 0.000000 
0.000000 -1.324350 0.000000 
0.000000 -1.324350 0.000000 
0.000000 -1.324350 0.000000 
0.000000 -1.324350 0.000000 
0.000000 -1.324350 0.000000 
0.000000 -1.324350 0.000000 
0.000000 -1.324350 0.000000 
0.000000 -1.324350 0.000000 
-0.000000 -1.324350 0.000000 
-0.000000 -1.324350 0.000000 
-0.000000 -1.324350 0.000000 
-0.000000 -1.324350 0.000000 
-0.000000 -1.324350 0.000000 
-0.000000 -1.324350 0.000000 
-0.000000 -1.324350 0.000000 
-0.000000 -1.324350 0.000000 
0.000000 -1.324350 0.000000 
0.000000 -1.324350 0.000000 
0.000000 -1.324350 0.000000 
0.000000 -1.324350 0.000000 
0.000000 -1.324350 0.000000 
0.000000 -1.324350 0.000000 
0.000000 -1.324350 0.000000 
-0.000000 -1.324350 0.000000 
-0.000000 -1.324350 0.000000 
-0.000000 -1.324350 0.000000 
-0.000000 -1.324350 0.000000 
-0.000000 -1.324350 0.000000 
-0.000000 -1.324350 0.000000 
-0.000000 -1.324350 0.000000 
0.000000 -1.324350 0.000000 
0.000000 -1.324350 0.000000 
0.000000 -1.324350 0.000000 
0.000000 -1.324350 0.000000 
-0.000000 -1.324350 0.000000 
-0.000000 -1.324350 0.000000 
-0.000000 -1.324350 0.000000 
-0.000000 -1.324350 0.000000 
-0.000000 -1.324350 0.000000 
0.000000 -1.324350 0.000000 
0.000000 -1.324350 0.000000 
0.000000 -1.324350 0.000000 
0.000000 -1.324350 0.000000 
0.000000 -1.324350 0.000000 
0.000000 -1.324350 0.000000 
0.000000 -1.324350 0.000000 
0.000000 -1.324350 0.000000 
0.000000 -1.324350 0.000000 
0.000000 -1.324350 0.000000 
-0.000000 -1.324350 0.000000 
0.000000 -1.324350 0.000000 
0.000000 -1.324350 0.000000 
-0.000000 -1.324350 0.000000 
0.000000 -1.324350 0.000000 
0.000000 -1.324350 0.000000 
0.000000 -1.324350 0.000000 
-0.000000 -1.324350 0.000000 
-0.000000 -1.324350 0.000000 
-0.000000 -1.324350 0.000000 
-0.000000 -1.324350 0.000000 
0.000000 -1.324350 0.000000 
0.000000 -1.324350 0.000000 
0.000000 -1.324350 0.000000 
0.000000 -1.324350 0.000000 
0.000000 -1.324350 0.000000 
0.000000 -1.324350 0.000000 
0.000000 -1.324350 0.000000 
0.000000 -1.324350 0.000000 
0.000000 -1.324350 0.000000 
0.000000 -1.324350 0.000000 
-0.000000 -1.324350 0.000000 
-0.000000 -1.324350 0.000000 
0.000000 -1.324350 0.000000 
0.000000 -1.324350 0.000000 
-0.000000 -1.324350 0.000000 
-0.000000 -1.324350 0.000000 
-0.000000 -1.324350 0.000000 
-0.000000 -1.324350 0.000000 
0.000000 -1.324350 0.000000 
0.000000 -1.324350 0.000000 
-0.000000 -1.324350 0.000000 
-0.000000 -1.324350 0.000000 
-0.000000 -1.324350 0.000000 
0.000000 -1.324350 0.000000 
0.000000 -1.324350 0.000000 
0.000000 -1.324350 0.000000 
0.000000 -1.324350 0.000000 
-0.000000 -1.324350 0.000000 
-0.000000 -1.324350 0.000000 
-0.000000 -1.324350 0.000000 
0.000000 -1.324350 0.000000 
0.000000 -1.324350 0.000000 
0.000000 -1.324350 0.000000 
-0.000000 -1.324350 0.000000 
-0.000000 -1.324350 0.000000 
-0.000000 -1.324350 0.000000 
-0.000000 -1.324350 0.000000 
-0.000000 -1.324350 0.000000 
-0.000000 -1.324350 0.000000 
-0.000000 -1.324350 0.000000 
-0.000000 -1.324350 0.000000 
-0.000000 -1.324350 0.000000 
-0.000000 -1.324350 0.000000 
-0.000000 -1.324350 0.000000 
-0.000000 -1.324350 0.000000 
-0.000000 -1.324350 0.000000 
-0.000000 -1.324350 0.000000 
-0.000000 -1.324350 0.000000 
-0.000000 -1.324350 0.000000 
-0.000000 -1.324350 0.000000 
-0.000000 -1.324350 0.000000 
0.000000 -1.324350 0.000000 
0.000000 -1.324350 0.000000 
-0.000000 -1.324350 0.000000 
0.000000 -1.324350 0.000000 
-0.000000 -1.324350 0.000000 
-0.000000 -1.324350 0.000000 
-0.000000 -1.324350 0.000000 
0.000000 -1.324350 0.000000 
0.000000 -1.324350 0.000000 
-0.000000 -1.324350 0.000000 
-0.000000 -1.324350 0.000000 
0.000000 -1.324350 0.000000 
0.000000 -1.324350 0.000000 
0.000000 -1.324350 0.000000 
0.000000 -1.324350 0.000000 
0.000000 -1.324350 0.000000 
0.000000 -1.324350 0.000000 
0.000000 -1.324350 0.000000 
-0.000000 -1.324350 0.000000 
0.000000 -1.324350 0.000000 
-0.000000 -1.324350 0.000000 
0.000000 -1.324350 0.000000 
0.000000 -1.324350 0.000000 
0.000000 -1.324350 0.000000 
0.000000 -1.324350 0.000000 
0.000000 -1.324350 0.000000 
0.000000 -1.324350 0.000000 
0.000000 -1.324350 0.000000 
0.000000 -1.324350 0.000000 
-0.000000 -1.324350 0.000000 
0.000000 -1.324350 0.000000 
-0.000000 -1.324350 0.000000 
-0.000000 -1.324350 0.000000 
0.000000 -1.324350 0.000000 
-0.000000 -1.324350 0.000000 
0.000000 -1.324350 0.000000 
0.000000 -1.324350 0.000000 
0.000000 -1.324350 0.000000 
0.000000 -1.324350 0.000000 
0.000000 -1.324350 0.000000 
0.000000 -1.324350 0.000000 
0.000000 -1.324350 0.000000 
0.000000 -1.324350 0.000000 
0.000000 -1.324350 0.000000 
0.000000 -1.324350 0.000000 
-0.000000 -1.324350 0.000000 
-0.000000 -1.324350 0.000000 
-0.000000 -1.324350 0.000000 
-0.000000 -1.324350 0.000000 
-0.000000 -1.324350 0.000000 
-0.000000 -1.324350 0.000000 
-0.000000 -1.324350 0.000000 
-0.000000 -1.324350 0.000000 
0.000000 -1.324350 0.000000 
0.000000 -1.324350 0.000000 
0.000000 -1.324350 0.000000 
0.000000 -1.324350 0.000000 
0.000000 -1.324350 0.000000 
0.000000 -1.324350 0.000000 
0.000000 -1.324350 0.000000 
0.000000 -1.324350 0.000000 
0.000000 -1.324350 0.000000 
0.000000 -1.324350 0.000000 
0.000000 -1.324350 0.000000 
-0.000000 -1.324350 0.000000 
0.000000 -1.324350 0.000000 
0.000000 -1.324350 0.000000 
-0.000000 -1.324350 0.000000 
-0.000000 -1.324350 0.000000 
-0.000000 -1.324350 0.000000 
-0.000000 -1.324350 0.000000 
0.000000 -1.324350 0.000000 
-0.000000 -1.324350 0.000000 
0.000000 -1.324350 0.000000 
-0.000000 -1.324350 0.000000 
-0.000000 -1.324350 0.000000 
-0.000000 -1.324350 0.000000 
0.000000 -1.324350 0.000000 
-0.000000 -1.324350 0.000000 
-0.000000 -1.324350 0.000000 
-0.000000 -1.324350 0.000000 
-0.000000 -1.324350 0.000000 
-0.000000 -1.324350 0.000000 
0.000000 -1.324350 0.000000 
0.000000 -1.324350 0.000000 
-0.000000 -1.324350 0.000000 
-0.000000 -1.324350 0.000000 
-0.000000 -1.324350 0.000000 
0.000000 -1.324350 0.000000 
0.000000 -1.324350 0.000000 
0.000000 -1.324350 0.000000 
-0.000000 -1.324350 0.000000 
-0.000000 -1.324350 0.000000 
-0.000000 -1.324350 0.000000 
-0.000000 -1.324350 0.000000 
0.000000 -1.324350 0.000000 
0.000000 -1.324350 0.000000 
0.000000 -1.324350 0.000000 
0.000000 -1.324350 0.000000 
-0.000000 -1.324350 0.000000 
-0.000000 -1.324350 0.000000 
-0.000000 -1.324350 0.000000 
-0.000000 -1.324350 0.000000 
0.000000 -1.324350 0.000000 
-0.000000 -1.324350 0.000000 
-0.000000 -1.324350 0.000000 
0.000000 -1.324350 0.000000 
-0.000000 -1.324350 0.000000 
0.000000 -1.324350 0.000000 
-0.000000 -1.324350 0.000000 
-0.000000 -1.324350 0.000000 
-0.000000 -1.324350 0.000000 
-0.000000 -1.324350 0.000000 
0.000000 -1.324350 0.000000 
0.000000 -1.324350 0.000000 
0.000000 -1.324350 0.000000 
-0.000000 -1.324350 0.000000 
-0.000000 -1.324350 0.000000 
-0.000000 -1.324350 0.000000 
-0.000000 -1.324350 0.000000 
0.000000 -1.324350 0.000000 
0.000000 -1.324350 0.000000 
0.000000 -1.324350 0.000000 
0.000000 -1.324350 0.000000 
0.000000 -1.324350 0.000000 
0.000000 -1.324350 0.000000 
0.000000 -1.324350 0.000000 
0.000000 -1.324350 0.000000 
-0.000000 -1.324350 0.000000 
-0.000000 -1.324350 0.000000 
-0.000000 -1.324350 0.000000 
-0.000000 -1.324350 0.000000 
-0.000000 -1.324350 0.000000 
-0.000000 -1.324350 0.000000 
-0.000000 -1.324350 0.000000 
-0.000000 -1.324350 0.000000 
-0.000000 -1.324350 0.000000 
-0.000000 -1.324350 0.000000 
-0.000000 -1.324350 0.000000 
-0.000000 -1.324350 0.000000 
-0.000000 -1.324350 0.000000 
0.000000 -1.324350 0.000000 
-0.000000 -1.324350 0.000000 
0.000000 -1.324350 0.000000 
0.000000 -1.324350 0.000000 
0.000000 -1.324350 0.000000 
0.000000 -1.324350 0.000000 
-0.000000 -1.324350 0.000000 
-0.000000 -1.324350 0.000000 
-0.000000 -1.324350 0.000000 
-0.000000 -1.324350 0.000000 
-0.000000 -1.324350 0.000000 
-0.000000 -1.324350 0.000000 
-0.000000 -1.324350 0.000000 
-0.000000 -1.324350 0.000000 
0.000000 -1.324350 0.000000 
0.000000 -1.324350 0.000000 
0.000000 -1.324350 0.000000 
0.000000 -1.324350 0.000000 
0.000000 -1.324350 0.000000 
0.000000 -1.324350 0.000000 
0.000000 -1.324350 0.000000 
0.000000 -1.324350 0.000000 
-0.000000 -1.324350 0.000000 
-0.000000 -1.324350 0.000000 
-0.000000 -1.324350 0.000000 
-0.000000 -1.324350 0.000000 
-0.000000 -1.324350 0.000000 
0.000000 -1.324350 0.000000 
0.000000 -1.324350 0.000000 
-0.000000 -1.324350 0.000000 
-0.000000 -1.324350 0.000000 
0.000000 -1.324350 0.000000 
-0.000000 -1.324350 0.000000 
0.000000 -1.324350 0.000000 
0.000000 -1.324350 0.000000 
-0.000000 -1.324350 0.000000 
-0.000000 -1.324350 0.000000 
0.000000 -1.324350 0.000000 
0.000000 -1.324350 0.000000 
-0.000000 -1.324350 0.000000 
-0.000000 -1.324350 0.000000 
-0.000000 -1.324350 0.000000 
0.000000 -1.324350 0.000000 
0.000000 -1.324350 0.000000 
0.000000 -1.324350 0.000000 
0.000000 -1.324350 0.000000 
0.000000 -1.324350 0.000000 
0.000000 -1.324350 0.000000 
0.000000 -1.324350 0.000000 
0.000000 -1.324350 0.000000 
0.000000 -1.324350 0.000000 
0.000000 -1.324350 0.000000 
-0.000000 -1.324350 0.000000 
0.000000 -1.324350 0.000000 
-0.000000 -1.324350 0.000000 
0.000000 -1.324350 0.000000 
0.000000 -1.324350 0.000000 
0.000000 -1.324350 0.000000 
0.000000 -1.324350 0.000000 
0.000000 -1.324350 0.000000 
-0.000000 -1.324350 0.000000 
-0.000000 -1.324350 0.000000 
-0.000000 -1.324350 0.000000 
0.000000 -1.324350 0.000000 
-0.000000 -1.324350 0.000000 
-0.000000 -1.324350 0.000000 
0.000000 -1.324350 0.000000 
0.000000 -1.324350 0.000000 
-0.000000 -1.324350 0.000000 
-0.000000 -1.324350 0.000000 
-0.000000 -1.324350 0.000000 
0.000000 -1.324350 0.000000 
0.000000 -1.324350 0.000000 
0.000000 -1.324350 0.000000 
-0.000000 -1.324350 0.000000 
-0.000000 -1.324350 0.000000 
0.000000 -1.324350 0.000000 
-0.000000 -1.324350 0.000000 
-0.000000 -1.324350 0.000000 
-0.000000 -1.324350 0.000000 
-0.000000 -1.324350 0.000000 
-0.000000 -1.324350 0.000000 
-0.000000 -1.324350 0.000000 
-0.000000 -1.324350 0.000000 
-0.000000 -1.324350 0.000000 
-0.000000 -1.324350 0.000000 
-0.000000 -1.324350 0.000000 
-0.000000 -1.324350 0.000000 
-0.000000 -1.324350 0.000000 
-0.000000 -1.324350 0.000000 
-0.000000 -1.324350 0.000000 
-0.000000 -1.324350 0.000000 
-0.000000 -1.324350 0.000000 
-0.000000 -1.324350 0.000000 
-0.000000 -1.324350 0.000000 
-0.000000 -1.324350 0.000000 
-0.000000 -1.324350 0.000000 
-0.000000 -1.324350 0.000000 
-0.000000 -1.324350 0.000000 
0.000000 -1.324350 0.000000 
0.000000 -1.324350 0.000000 
0.000000 -1.324350 0.000000 
0.000000 -1.324350 0.000000 
0.000000 -1.324350 0.000000 
0.000000 -1.324350 0.000000 
0.000000 -1.324350 0.000000 
0.000000 -1.324350 0.000000 
0.000000 -1.324350 0.000000 
-0.000000 -1.324350 0.000000 
0.000000 -1.324350 0.000000 
0.000000 -1.324350 0.000000 
-0.000000 -1.324350 0.000000 
0.000000 -1.324350 0.000000 
0.000000 -1.324350 0.000000 
0.000000 -1.324350 0.000000 
0.000000 -1.324350 0.000000 
0.000000 -1.324350 0.000000 
-0.000000 -1.324350 0.000000 
-0.000000 -1.324350 0.000000 
-0.000000 -1.324350 0.000000 
0.000000 -1.324350 0.000000 
-0.000000 -1.324350 0.000000 
-0.000000 -1.324350 0.000000 
-0.000000 -1.324350 0.000000 
-0.000000 -1.324350 0.000000 
0.000000 -1.324350 0.000000 
0.000000 -1.324350 0.000000 
0.000000 -1.324350 0.000000 
0.000000 -1.324350 0.000000 
0.000000 -1.324350 0.000000 
0.000000 -1.324350 0.000000 
0.000000 -1.324350 0.000000 
0.000000 -1.324350 0.000000 
0.000000 -1.324350 0.000000 
0.000000 -1.324350 0.000000 
0.000000 -1.324350 0.000000 
-0.000000 -1.324350 0.000000 
-0.000000 -1.324350 0.000000 
0.000000 -1.324350 0.000000 
0.000000 -1.324350 0.000000 
0.000000 -1.324350 0.000000 
0.000000 -1.324350 0.000000 
-0.000000 -1.324350 0.000000 
-0.000000 -1.324350 0.000000 
-0.000000 -1.324350 0.000000 
-0.000000 -1.324350 0.000000 
-0.000000 -1.324350 0.000000 
-0.000000 -1.324350 0.000000 
-0.000000 -1.324350 0.000000 
0.000000 -1.324350 0.000000 
0.000000 -1.324350 0.000000 
0.000000 -1.324350 0.000000 
0.000000 -1.324350 0.000000 
0.000000 -1.324350 0.000000 
0.000000 -1.324350 0.000000 
0.000000 -1.324350 0.000000 
0.000000 -1.324350 0.000000 
-0.000000 -1.324350 0.000000 
-0.000000 -1.324350 0.000000 
-0.000000 -1.324350 0.000000 
-0.000000 -1.324350 0.000000 
-0.000000 -1.324350 0.000000 
-0.000000 -1.324350 0.000000 
-0.000000 -1.324350 0.000000 
-0.000000 -1.324350 0.000000 
-0.000000 -1.324350 0.000000 
-0.000000 -1.324350 0.000000 
0.000000 -1.324350 0.000000 
0.000000 -1.324350 0.000000 
0.000000 -1.324350 0.000000 
0.000000 -1.324350 0.000000 
0.000000 -1.324350 0.000000 
0.000000 -1.324350 0.000000 
0.000000 -1.324350 0.000000 
0.000000 -1.324350 0.000000 
0.000000 -1.324350 0.000000 
0.000000 -1.324350 0.000000 
-0.000000 -1.324350 0.000000 
0.000000 -1.324350 0.000000 
0.000000 -1.324350 0.000000 
0.000000 -1.324350 0.000000 
0.000000 -1.324350 0.000000 
0.000000 -1.324350 0.000000 
0.000000 -1.324350 0.000000 
-0.000000 -1.324350 0.000000 
0.000000 -1.324350 0.000000 
-0.000000 -1.324350 0.000000 
-0.000000 -1.324350 0.000000 
0.000000 -1.324350 0.000000 
0.000000 -1.324350 0.000000 
0.000000 -1.324350 0.000000 
-0.000000 -1.324350 0.000000 
-0.000000 -1.324350 0.000000 
-0.000000 -1.324350 0.000000 
0.000000 -1.324350 0.000000 
-0.000000 -1.324350 0.000000 
-0.000000 -1.324350 0.000000 
0.000000 -1.324350 0.000000 
0.000000 -1.324350 0.000000 
0.000000 -1.324350 0.000000 
0.000000 -1.324350 0.000000 
0.000000 -1.324350 0.000000 
0.000000 -1.324350 0.000000 
0.000000 -1.324350 0.000000 
0.000000 -1.324350 0.000000 
0.000000 -1.324350 0.000000 
-0.000000 -1.324350 0.000000 
-0.000000 -1.324350 0.000000 
0.000000 -1.324350 0.000000 
0.000000 -1.324350 0.000000 
0.000000 -1.324350 0.000000 
0.000000 -1.324350 0.000000 
-0.000000 -1.324350 0.000000 
-0.000000 -1.324350 0.000000 
-0.000000 -1.324350 0.000000 
-0.000000 -1.324350 0.000000 
-0.000000 -1.324350 0.000000 
-0.000000 -1.324350 0.000000 
-0.000000 -1.324350 0.000000 
0.000000 -1.324350 0.000000 
-0.000000 -1.324350 0.000000 
0.000000 -1.324350 0.000000 
-0.000000 -1.324350 0.000000 
0.000000 -1.324350 0.000000 
-0.000000 -1.324350 0.000000 
-0.000000 -1.324350 0.000000 
-0.000000 -1.324350 0.000000 
0.000000 -1.324350 0.000000 
0.000000 -1.324350 0.000000 
0.000000 -1.324350 0.000000 
-0.000000 -1.324350 0.000000 
-0.000000 -1.324350 0.000000 
-0.000000 -1.324350 0.000000 
0.000000 -1.324350 0.000000 
0.000000 -1.324350 0.000000 
-0.000000 -1.324350 0.000000 
0.000000 -1.324350 0.000000 
0.000000 -1.324350 0.000000 
-0.000000 -1.324350 0.000000 
-0.000000 -1.324350 0.000000 
-0.000000 -1.324350 0.000000 
-0.000000 -1.324350 0.000000 
-0.000000 -1.324350 0.000000 
-0.000000 -1.324350 0.000000 
-0.000000 -1.324350 0.000000 
-0.000000 -1.324350 0.000000 
0.000000 -1.324350 0.000000 
0.000000 -1.324350 0.000000 
0.000000 -1.324350 0.000000 
0.000000 -1.324350 0.000000 
0.000000 -1.324350 0.000000 
0.000000 -1.324350 0.000000 
-0.000000 -1.324350 0.000000 
-0.000000 -1.324350 0.000000 
-0.000000 -1.324350 0.000000 
0.000000 -1.324350 0.000000 
0.000000 -1.324350 0.000000 
0.000000 -1.324350 0.000000 
0.000000 -1.324350 0.000000 
0.000000 -1.324350 0.000000 
0.000000 -1.324350 0.000000 
0.000000 -1.324350 0.000000 
-0.000000 -1.324350 0.000000 
-0.000000 -1.324350 0.000000 
-0.000000 -1.324350 0.000000 
0.000000 -1.324350 0.000000 
0.000000 -1.324350 0.000000 
0.000000 -1.324350 0.000000 
0.000000 -1.324350 0.000000 
-0.000000 -1.324350 0.000000 
-0.000000 -1.324350 0.000000 
0.000000 -1.324350 0.000000 
0.000000 -1.324350 0.000000 
-0.000000 -1.324350 0.000000 
-0.000000 -1.324350 0.000000 
-0.000000 -1.324350 0.000000 
-0.000000 -1.324350 0.000000 
-0.000000 -1.324350 0.000000 
0.000000 -1.324350 0.000000 
0.000000 -1.324350 0.000000 
0.000000 -1.324350 0.000000 
0.000000 -1.324350 0.000000 
0.000000 -1.324350 0.000000 
0.000000 -1.324350 0.000000 
0.000000 -1.324350 0.000000 
0.000000 -1.324350 0.000000 
-0.000000 -1.324350 0.000000 
-0.000000 -1.324350 0.000000 
-0.000000 -1.324350 0.000000 
-0.000000 -1.324350 0.000000 
0.000000 -1.324350 0.000000 
0.000000 -1.324350 0.000000 
0.000000 -1.324350 0.000000 
0.000000 -1.324350 0.000000 
0.000000 -1.324350 0.000000 
0.000000 -1.324350 0.000000 
0.000000 -1.324350 0.000000 
-0.000000 -1.324350 0.000000 
0.000000 -1.324350 0.000000 
-0.000000 -1.324350 0.000000 
0.000000 -1.324350 0.000000 
-0.000000 -1.324350 0.000000 
-0.000000 -1.324350 0.000000 
-0.000000 -1.324350 0.000000 
-0.000000 -1.324350 0.000000 
0.000000 -1.324350 0.000000 
0.000000 -1.324350 0.000000 
-0.000000 -1.324350 0.000000 
-0.000000 -1.324350 0.000000 
-0.000000 -1.324350 0.000000 
0.000000 -1.324350 0.000000 
-0.000000 -1.324350 0.000000 
-0.000000 -1.324350 0.000000 
-0.000000 -1.324350 0.000000 
0.000000 -1.324350 0.000000 
0.000000 -1.324350 0.000000 
0.000000 -1.324350 0.000000 
-0.000000 -1.324350 0.000000 
0.000000 -1.324350 0.000000 
0.000000 -1.324350 0.000000 
0.000000 -1.324350 0.000000 
-0.000000 -1.324350 0.000000 
-0.000000 -1.324350 0.000000 
0.000000 -1.324350 0.000000 
-0.000000 -1.324350 0.000000 
-0.000000 -1.324350 0.000000 
0.000000 -1.324350 0.000000 
0.000000 -1.324350 0.000000 
0.000000 -1.324350 0.000000 
0.000000 -1.324350 0.000000 
0.000000 -1.324350 0.000000 
-0.000000 -1.324350 0.000000 
-0.000000 -1.324350 0.000000 
0.000000 -1.324350 0.000000 
-0.000000 -1.324350 0.000000 
0.000000 -1.324350 0.000000 
-0.000000 -1.324350 0.000000 
-0.000000 -1.324350 0.000000 
-0.000000 -1.324350 0.000000 
0.000000 -1.324350 0.000000 
0.000000 -1.324350 0.000000 
0.000000 -1.324350 0.000000 
0.000000 -1.324350 0.000000 
-0.000000 -1.324350 0.000000 
0.000000 -1.324350 0.000000 
-0.000000 -1.324350 0.000000 
-0.000000 -1.324350 0.000000 
-0.000000 -1.324350 0.000000 
0.000000 -1.324350 0.000000 
0.000000 -1.324350 0.000000 
-0.000000 -1.324350 0.000000 
0.000000 -1.324350 0.000000 
-0.000000 -1.324350 0.000000 
0.000000 -1.324350 0.000000 
0.000000 -1.324350 0.000000 
-0.000000 -1.324350 0.000000 
-0.000000 -1.324350 0.000000 
0.000000 -1.324350 0.000000 
0.000000 -1.324350 0.000000 
-0.000000 -1.324350 0.000000 
-0.000000 -1.324350 0.000000 
-0.000000 -1.324350 0.000000 
-0.000000 -1.324350 0.000000 
0.000000 -1.324350 0.000000 
0.000000 -1.324350 0.000000 
0.000000 -1.324350 0.000000 
-0.000000 -1.324350 0.000000 
-0.000000 -1.324350 0.000000 
-0.000000 -1.324350 0.000000 
-0.000000 -1.324350 0.000000 
-0.000000 -1.324350 0.000000 
-0.000000 -1.324350 0.000000 
0.000000 -1.324350 0.000000 
-0.000000 -1.324350 0.000000 
-0.000000 -1.324350 0.000000 
-0.000000 -1.324350 0.000000 
-0.000000 -1.324350 0.000000 
0.000000 -1.324350 0.000000 
-0.000000 -1.324350 0.000000 
-0.000000 -1.324350 0.000000 
0.000000 -1.324350 0.000000 
-0.000000 -1.324350 0.000000 
0.000000 -1.324350 0.000000 
-0.000000 -1.324350 0.000000 
0.000000 -1.324350 0.000000 
-0.000000 -1.324350 0.000000 
-0.000000 -1.324350 0.000000 
-0.000000 -1.324350 0.000000 
-0.000000 -1.324350 0.000000 
-0.000000 -1.324350 0.000000 
-0.000000 -1.324350 0.000000 
-0.000000 -1.324350 0.000000 
0.000000 -1.324350 0.000000 
-0.000000 -1.324350 0.000000 
0.000000 -1.324350 0.000000 
0.000000 -1.324350 0.000000 
0.000000 -1.324350 0.000000 
0.000000 -1.324350 0.000000 
0.000000 -1.324350 0.000000 
-0.000000 -1.324350 0.000000 
-0.000000 -1.324350 0.000000 
-0.000000 -1.324350 0.000000 
-0.000000 -1.324350 0.000000 
-0.000000 -1.324350 0.000000 
-0.000000 -1.324350 0.000000 
-0.000000 -1.324350 0.000000 
-0.000000 -1.324350 0.000000 
-0.000000 -1.324350 0.000000 
0.000000 -1.324350 0.000000 
-0.000000 -1.324350 0.000000 
0.000000 -1.324350 0.000000 
-0.000000 -1.324350 0.000000 
-0.000000 -1.324350 0.000000 
-0.000000 -1.324350 0.000000 
0.000000 -1.324350 0.000000 
-0.000000 -1.324350 0.000000 
0.000000 -1.324350 0.000000 
-0.000000 -1.324350 0.000000 
-0.000000 -1.324350 0.000000 
0.000000 -1.324350 0.000000 
0.000000 -1.324350 0.000000 
0.000000 -1.324350 0.000000 
0.000000 -1.324350 0.000000 
-0.000000 -1.324350 0.000000 
-0.000000 -1.324350 0.000000 
-0.000000 -1.324350 0.000000 
-0.000000 -1.324350 0.000000 
-0.000000 -1.324350 0.000000 
-0.000000 -1.324350 0.000000 
-0.000000 -1.324350 0.000000 
0.000000 -1.324350 0.000000 
-0.000000 -1.324350 0.000000 
-0.000000 -1.324350 0.000000 
-0.000000 -1.324350 0.000000 
0.000000 -1.324350 0.000000 
-0.000000 -1.324350 0.000000 
-0.000000 -1.324350 0.000000 
-0.000000 -1.324350 0.000000 
-0.000000 -1.324350 0.000000 
0.000000 -1.324350 0.000000 
0.000000 -1.324350 0.000000 
-0.000000 -1.324350 0.000000 
-0.000000 -1.324350 0.000000 
-0.000000 -1.324350 0.000000 
-0.000000 -1.324350 0.000000 
-0.000000 -1.324350 0.000000 
-0.000000 -1.324350 0.000000 
-0.000000 -1.324350 0.000000 
-0.000000 -1.324350 0.000000 
-0.000000 -1.324350 0.000000 
-0.000000 -1.324350 0.000000 
-0.000000 -1.324350 0.000000 
0.000000 -1.324350 0.000000 
-0.000000 -1.324350 0.000000 
0.000000 -1.324350 0.000000 
0.000000 -1.324350 0.000000 
-0.000000 -1.324350 0.000000 
-0.000000 -1.324350 0.000000 
-0.000000 -1.324350 0.000000 
-0.000000 -1.324350 0.000000 
0.000000 -1.324350 0.000000 
-0.000000 -1.324350 0.000000 
0.000000 -1.324350 0.000000 
-0.000000 -1.324350 0.000000 
0.000000 -1.324350 0.000000 
-0.000000 -1.324350 0.000000 
-0.000000 -1.324350 0.000000 
0.000000 -1.324350 0.000000 
-0.000000 -1.324350 0.000000 
-0.000000 -1.324350 0.000000 
0.000000 -1.324350 0.000000 
-0.000000 -1.324350 0.000000 
0.000000 -1.324350 0.000000 
-0.000000 -1.324350 0.000000 
-0.000000 -1.324350 0.000000 
-0.000000 -1.324350 0.000000 
-0.000000 -1.324350 0.000000 
-0.000000 -1.324350 0.000000 
TENSORS STRESS float 
0.000000 0.000000 0.000000 
0.000000 0.000000 0.000000 
0.000000 0.000000 0.000000 

-0.000000 0.000000 0.000000 
0.000000 -0.000000 0.000000 
0.000000 0.000000 0.000000 

-0.000000 -0.000000 0.000000 
0.000000 -0.000000 0.000000 
0.000000 0.000000 0.000000 

0.000000 -0.000000 0.000000 
0.000000 0.000000 0.000000 
0.000000 0.000000 0.000000 

0.000000 -0.000000 0.000000 
0.000000 0.000000 0.000000 
0.000000 0.000000 0.000000 

0.000000 -0.000000 0.000000 
0.000000 0.000000 0.000000 
0.000000 0.000000 0.000000 

-0.000000 -0.000000 0.000000 
0.000000 -0.000000 0.000000 
0.000000 0.000000 0.000000 

0.000000 0.000000 0.000000 
0.000000 0.000000 0.000000 
0.000000 0.000000 0.000000 

0.000000 0.000000 0.000000 
0.000000 0.000000 0.000000 
0.000000 0.000000 0.000000 

0.000000 0.000000 0.000000 
0.000000 0.000000 0.000000 
0.000000 0.000000 0.000000 

-0.000000 -0.000000 0.000000 
0.000000 -0.000000 0.000000 
0.000000 0.000000 0.000000 

-0.000000 0.000000 0.000000 
0.000000 -0.000000 0.000000 
0.000000 0.000000 0.000000 

-0.000000 0.000000 0.000000 
0.000000 -0.000000 0.000000 
0.000000 0.000000 0.000000 

-0.000000 0.000000 0.000000 
0.000000 -0.000000 0.000000 
0.000000 0.000000 0.000000 

-0.000000 0.000000 0.000000 
0.000000 -0.000000 0.000000 
0.000000 0.000000 0.000000 

0.000000 -0.000000 0.000000 
0.000000 0.000000 0.000000 
0.000000 0.000000 0.000000 

0.000000 -0.000000 0.000000 
0.000000 0.000000 0.000000 
0.000000 0.000000 0.000000 

0.000000 -0.000000 0.000000 
0.000000 0.000000 0.000000 
0.000000 0.000000 0.000000 

-0.000000 0.000000 0.000000 
0.000000 -0.000000 0.000000 
0.000000 0.000000 0.000000 

-0.000000 -0.000000 0.000000 
0.000000 -0.000000 0.000000 
0.000000 0.000000 0.000000 

-0.000000 0.000000 0.000000 
0.000000 -0.000000 0.000000 
0.000000 0.000000 0.000000 

-0.000000 0.000000 0.000000 
0.000000 -0.000000 0.000000 
0.000000 0.000000 0.000000 

0.000000 -0.000000 0.000000 
0.000000 0.000000 0.000000 
0.000000 0.000000 0.000000 

0.000000 -0.000000 0.000000 
0.000000 0.000000 0.000000 
0.000000 0.000000 0.000000 

0.000000 -0.000000 0.000000 
0.000000 0.000000 0.000000 
0.000000 0.000000 0.000000 

0.000000 -0.000000 0.000000 
0.000000 0.000000 0.000000 
0.000000 0.000000 0.000000 

0.000000 -0.000000 0.000000 
0.000000 0.000000 0.000000 
0.000000 0.000000 0.000000 

0.000000 -0.000000 0.000000 
0.000000 0.000000 0.000000 
0.000000 0.000000 0.000000 

0.000000 -0.000000 0.000000 
0.000000 0.000000 0.000000 
0.000000 0.000000 0.000000 

0.000000 0.000000 0.000000 
0.000000 0.000000 0.000000 
0.000000 0.000000 0.000000 

0.000000 0.000000 0.000000 
0.000000 0.000000 0.000000 
0.000000 0.000000 0.000000 

0.000000 0.000000 0.000000 
0.000000 0.000000 0.000000 
0.000000 0.000000 0.000000 

0.000000 -0.000000 0.000000 
0.000000 0.000000 0.000000 
0.000000 0.000000 0.000000 

0.000000 -0.000000 0.000000 
0.000000 0.000000 0.000000 
0.000000 0.000000 0.000000 

-0.000000 0.000000 0.000000 
0.000000 -0.000000 0.000000 
0.000000 0.000000 0.000000 

-0.000000 0.000000 0.000000 
0.000000 -0.000000 0.000000 
0.000000 0.000000 0.000000 

0.000000 -0.000000 0.000000 
0.000000 0.000000 0.000000 
0.000000 0.000000 0.000000 

0.000000 -0.000000 0.000000 
0.000000 0.000000 0.000000 
0.000000 0.000000 0.000000 

0.000000 -0.000000 0.000000 
0.000000 0.000000 0.000000 
0.000000 0.000000 0.000000 

0.000000 -0.000000 0.000000 
0.000000 0.000000 0.000000 
0.000000 0.000000 0.000000 

-0.000000 -0.000000 0.000000 
0.000000 -0.000000 0.000000 
0.000000 0.000000 0.000000 

0.000000 0.000000 0.000000 
0.000000 0.000000 0.000000 
0.000000 0.000000 0.000000 

0.000000 -0.000000 0.000000 
0.000000 0.000000 0.000000 
0.000000 0.000000 0.000000 

-0.000000 0.000000 0.000000 
0.000000 -0.000000 0.000000 
0.000000 0.000000 0.000000 

-0.000000 -0.000000 0.000000 
0.000000 -0.000000 0.000000 
0.000000 0.000000 0.000000 

-0.000000 -0.000000 0.000000 
0.000000 -0.000000 0.000000 
0.000000 0.000000 0.000000 

-0.000000 -0.000000 0.000000 
0.000000 -0.000000 0.000000 
0.000000 0.000000 0.000000 

-0.000000 -0.000000 0.000000 
0.000000 -0.000000 0.000000 
0.000000 0.000000 0.000000 

0.000000 -0.000000 0.000000 
0.000000 0.000000 0.000000 
0.000000 0.000000 0.000000 

0.000000 0.000000 0.000000 
0.000000 0.000000 0.000000 
0.000000 0.000000 0.000000 

0.000000 0.000000 0.000000 
0.000000 0.000000 0.000000 
0.000000 0.000000 0.000000 

0.000000 0.000000 0.000000 
0.000000 0.000000 0.000000 
0.000000 0.000000 0.000000 

0.000000 0.000000 0.000000 
0.000000 0.000000 0.000000 
0.000000 0.000000 0.000000 

-0.000000 0.000000 0.000000 
0.000000 -0.000000 0.000000 
0.000000 0.000000 0.000000 

-0.000000 0.000000 0.000000 
0.000000 -0.000000 0.000000 
0.000000 0.000000 0.000000 

0.000000 0.000000 0.000000 
0.000000 0.000000 0.000000 
0.000000 0.000000 0.000000 

-0.000000 -0.000000 0.000000 
0.000000 -0.000000 0.000000 
0.000000 0.000000 0.000000 

-0.000000 0.000000 0.000000 
0.000000 -0.000000 0.000000 
0.000000 0.000000 0.000000 

-0.000000 0.000000 0.000000 
0.000000 -0.000000 0.000000 
0.000000 0.000000 0.000000 

0.000000 0.000000 0.000000 
0.000000 0.000000 0.000000 
0.000000 0.000000 0.000000 

-0.000000 0.000000 0.000000 
0.000000 -0.000000 0.000000 
0.000000 0.000000 0.000000 

-0.000000 -0.000000 0.000000 
0.000000 -0.000000 0.000000 
0.000000 0.000000 0.000000 

-0.000000 -0.000000 0.000000 
0.000000 -0.000000 0.000000 
0.000000 0.000000 0.000000 

-0.000000 -0.000000 0.000000 
0.000000 -0.000000 0.000000 
0.000000 0.000000 0.000000 

0.000000 -0.000000 0.000000 
0.000000 0.000000 0.000000 
0.000000 0.000000 0.000000 

0.000000 -0.000000 0.000000 
0.000000 0.000000 0.000000 
0.000000 0.000000 0.000000 

-0.000000 -0.000000 0.000000 
0.000000 -0.000000 0.000000 
0.000000 0.000000 0.000000 

-0.000000 -0.000000 0.000000 
0.000000 -0.000000 0.000000 
0.000000 0.000000 0.000000 

-0.000000 -0.000000 0.000000 
0.000000 -0.000000 0.000000 
0.000000 0.000000 0.000000 

-0.000000 -0.000000 0.000000 
0.000000 -0.000000 0.000000 
0.000000 0.000000 0.000000 

-0.000000 -0.000000 0.000000 
0.000000 -0.000000 0.000000 
0.000000 0.000000 0.000000 

-0.000000 -0.000000 0.000000 
0.000000 -0.000000 0.000000 
0.000000 0.000000 0.000000 

0.000000 -0.000000 0.000000 
0.000000 0.000000 0.000000 
0.000000 0.000000 0.000000 

0.000000 -0.000000 0.000000 
0.000000 0.000000 0.000000 
0.000000 0.000000 0.000000 

0.000000 -0.000000 0.000000 
0.000000 0.000000 0.000000 
0.000000 0.000000 0.000000 

-0.000000 0.000000 0.000000 
0.000000 -0.000000 0.000000 
0.000000 0.000000 0.000000 

0.000000 0.000000 0.000000 
0.000000 0.000000 0.000000 
0.000000 0.000000 0.000000 

-0.000000 -0.000000 0.000000 
0.000000 -0.000000 0.000000 
0.000000 0.000000 0.000000 

-0.000000 -0.000000 0.000000 
0.000000 -0.000000 0.000000 
0.000000 0.000000 0.000000 

-0.000000 -0.000000 0.000000 
0.000000 -0.000000 0.000000 
0.000000 0.000000 0.000000 

-0.000000 0.000000 0.000000 
0.000000 -0.000000 0.000000 
0.000000 0.000000 0.000000 

-0.000000 0.000000 0.000000 
0.000000 -0.000000 0.000000 
0.000000 0.000000 0.000000 

-0.000000 -0.000000 0.000000 
0.000000 -0.000000 0.000000 
0.000000 0.000000 0.000000 

0.000000 0.000000 0.000000 
0.000000 0.000000 0.000000 
0.000000 0.000000 0.000000 

-0.000000 -0.000000 0.000000 
0.000000 -0.000000 0.000000 
0.000000 0.000000 0.000000 

0.000000 0.000000 0.000000 
0.000000 0.000000 0.000000 
0.000000 0.000000 0.000000 

-0.000000 0.000000 0.000000 
0.000000 -0.000000 0.000000 
0.000000 0.000000 0.000000 

-0.000000 0.000000 0.000000 
0.000000 -0.000000 0.000000 
0.000000 0.000000 0.000000 

-0.000000 0.000000 0.000000 
0.000000 -0.000000 0.000000 
0.000000 0.000000 0.000000 

-0.000000 0.000000 0.000000 
0.000000 -0.000000 0.000000 
0.000000 0.000000 0.000000 

-0.000000 0.000000 0.000000 
0.000000 -0.000000 0.000000 
0.000000 0.000000 0.000000 

-0.000000 -0.000000 0.000000 
0.000000 -0.000000 0.000000 
0.000000 0.000000 0.000000 

-0.000000 -0.000000 0.000000 
0.000000 -0.000000 0.000000 
0.000000 0.000000 0.000000 

-0.000000 -0.000000 0.000000 
0.000000 -0.000000 0.000000 
0.000000 0.000000 0.000000 

-0.000000 -0.000000 0.000000 
0.000000 -0.000000 0.000000 
0.000000 0.000000 0.000000 

-0.000000 0.000000 0.000000 
0.000000 -0.000000 0.000000 
0.000000 0.000000 0.000000 

-0.000000 -0.000000 0.000000 
0.000000 -0.000000 0.000000 
0.000000 0.000000 0.000000 

0.000000 0.000000 0.000000 
0.000000 0.000000 0.000000 
0.000000 0.000000 0.000000 

-0.000000 0.000000 0.000000 
0.000000 -0.000000 0.000000 
0.000000 0.000000 0.000000 

0.000000 -0.000000 0.000000 
0.000000 0.000000 0.000000 
0.000000 0.000000 0.000000 

0.000000 0.000000 0.000000 
0.000000 0.000000 0.000000 
0.000000 0.000000 0.000000 

0.000000 0.000000 0.000000 
0.000000 0.000000 0.000000 
0.000000 0.000000 0.000000 

0.000000 0.000000 0.000000 
0.000000 0.000000 0.000000 
0.000000 0.000000 0.000000 

0.000000 0.000000 0.000000 
0.000000 0.000000 0.000000 
0.000000 0.000000 0.000000 

0.000000 -0.000000 0.000000 
0.000000 0.000000 0.000000 
0.000000 0.000000 0.000000 

0.000000 -0.000000 0.000000 
0.000000 0.000000 0.000000 
0.000000 0.000000 0.000000 

0.000000 0.000000 0.000000 
0.000000 0.000000 0.000000 
0.000000 0.000000 0.000000 

0.000000 -0.000000 0.000000 
0.000000 0.000000 0.000000 
0.000000 0.000000 0.000000 

0.000000 -0.000000 0.000000 
0.000000 0.000000 0.000000 
0.000000 0.000000 0.000000 

0.000000 -0.000000 0.000000 
0.000000 0.000000 0.000000 
0.000000 0.000000 0.000000 

0.000000 0.000000 0.000000 
0.000000 0.000000 0.000000 
0.000000 0.000000 0.000000 

0.000000 0.000000 0.000000 
0.000000 0.000000 0.000000 
0.000000 0.000000 0.000000 

0.000000 0.000000 0.000000 
0.000000 0.000000 0.000000 
0.000000 0.000000 0.000000 

0.000000 0.000000 0.000000 
0.000000 0.000000 0.000000 
0.000000 0.000000 0.000000 

0.000000 0.000000 0.000000 
0.000000 0.000000 0.000000 
0.000000 0.000000 0.000000 

-0.000000 -0.000000 0.000000 
0.000000 -0.000000 0.000000 
0.000000 0.000000 0.000000 

-0.000000 0.000000 0.000000 
0.000000 -0.000000 0.000000 
0.000000 0.000000 0.000000 

-0.000000 -0.000000 0.000000 
0.000000 -0.000000 0.000000 
0.000000 0.000000 0.000000 

-0.000000 -0.000000 0.000000 
0.000000 -0.000000 0.000000 
0.000000 0.000000 0.000000 

0.000000 -0.000000 0.000000 
0.000000 0.000000 0.000000 
0.000000 0.000000 0.000000 

-0.000000 -0.000000 0.000000 
0.000000 -0.000000 0.000000 
0.000000 0.000000 0.000000 

-0.000000 -0.000000 0.000000 
0.000000 -0.000000 0.000000 
0.000000 0.000000 0.000000 

-0.000000 0.000000 0.000000 
0.000000 -0.000000 0.000000 
0.000000 0.000000 0.000000 

-0.000000 0.000000 0.000000 
0.000000 -0.000000 0.000000 
0.000000 0.000000 0.000000 

-0.000000 0.000000 0.000000 
0.000000 -0.000000 0.000000 
0.000000 0.000000 0.000000 

-0.000000 0.000000 0.000000 
0.000000 -0.000000 0.000000 
0.000000 0.000000 0.000000 

-0.000000 0.000000 0.000000 
0.000000 -0.000000 0.000000 
0.000000 0.000000 0.000000 

-0.000000 -0.000000 0.000000 
0.000000 -0.000000 0.000000 
0.000000 0.000000 0.000000 

-0.000000 -0.000000 0.000000 
0.000000 -0.000000 0.000000 
0.000000 0.000000 0.000000 

-0.000000 0.000000 0.000000 
0.000000 -0.000000 0.000000 
0.000000 0.000000 0.000000 

-0.000000 0.000000 0.000000 
0.000000 -0.000000 0.000000 
0.000000 0.000000 0.000000 

-0.000000 0.000000 0.000000 
0.000000 -0.000000 0.000000 
0.000000 0.000000 0.000000 

0.000000 0.000000 0.000000 
0.000000 0.000000 0.000000 
0.000000 0.000000 0.000000 

-0.000000 -0.000000 0.000000 
0.000000 -0.000000 0.000000 
0.000000 0.000000 0.000000 

0.000000 -0.000000 0.000000 
0.000000 0.000000 0.000000 
0.000000 0.000000 0.000000 

0.000000 0.000000 0.000000 
0.000000 0.000000 0.000000 
0.000000 0.000000 0.000000 

-0.000000 0.000000 0.000000 
0.000000 -0.000000 0.000000 
0.000000 0.000000 0.000000 

-0.000000 -0.000000 0.000000 
0.000000 -0.000000 0.000000 
0.000000 0.000000 0.000000 

-0.000000 -0.000000 0.000000 
0.000000 -0.000000 0.000000 
0.000000 0.000000 0.000000 

-0.000000 -0.000000 0.000000 
0.000000 -0.000000 0.000000 
0.000000 0.000000 0.000000 

0.000000 0.000000 0.000000 
0.000000 0.000000 0.000000 
0.000000 0.000000 0.000000 

0.000000 0.000000 0.000000 
0.000000 0.000000 0.000000 
0.000000 0.000000 0.000000 

0.000000 0.000000 0.000000 
0.000000 0.000000 0.000000 
0.000000 0.000000 0.000000 

-0.000000 0.000000 0.000000 
0.000000 -0.000000 0.000000 
0.000000 0.000000 0.000000 

-0.000000 0.000000 0.000000 
0.000000 -0.000000 0.000000 
0.000000 0.000000 0.000000 

0.000000 -0.000000 0.000000 
0.000000 0.000000 0.000000 
0.000000 0.000000 0.000000 

0.000000 -0.000000 0.000000 
0.000000 0.000000 0.000000 
0.000000 0.000000 0.000000 

0.000000 0.000000 0.000000 
0.000000 0.000000 0.000000 
0.000000 0.000000 0.000000 

0.000000 -0.000000 0.000000 
0.000000 0.000000 0.000000 
0.000000 0.000000 0.000000 

0.000000 -0.000000 0.000000 
0.000000 0.000000 0.000000 
0.000000 0.000000 0.000000 

0.000000 0.000000 0.000000 
0.000000 -0.000000 0.000000 
0.000000 0.000000 0.000000 

-0.000000 0.000000 0.000000 
0.000000 -0.000000 0.000000 
0.000000 0.000000 0.000000 

-0.000000 0.000000 0.000000 
0.000000 -0.000000 0.000000 
0.000000 0.000000 0.000000 

-0.000000 0.000000 0.000000 
0.000000 -0.000000 0.000000 
0.000000 0.000000 0.000000 

-0.000000 0.000000 0.000000 
0.000000 -0.000000 0.000000 
0.000000 0.000000 0.000000 

-0.000000 0.000000 0.000000 
0.000000 -0.000000 0.000000 
0.000000 0.000000 0.000000 

-0.000000 0.000000 0.000000 
0.000000 -0.000000 0.000000 
0.000000 0.000000 0.000000 

0.000000 -0.000000 0.000000 
0.000000 -0.000000 0.000000 
0.000000 0.000000 0.000000 

0.000000 -0.000000 0.000000 
0.000000 0.000000 0.000000 
0.000000 0.000000 0.000000 

0.000000 -0.000000 0.000000 
0.000000 0.000000 0.000000 
0.000000 0.000000 0.000000 

0.000000 -0.000000 0.000000 
0.000000 0.000000 0.000000 
0.000000 0.000000 0.000000 

-0.000000 -0.000000 0.000000 
0.000000 -0.000000 0.000000 
0.000000 0.000000 0.000000 

-0.000000 0.000000 0.000000 
0.000000 -0.000000 0.000000 
0.000000 0.000000 0.000000 

0.000000 0.000000 0.000000 
0.000000 0.000000 0.000000 
0.000000 0.000000 0.000000 

-0.000000 0.000000 0.000000 
0.000000 -0.000000 0.000000 
0.000000 0.000000 0.000000 

0.000000 0.000000 0.000000 
0.000000 0.000000 0.000000 
0.000000 0.000000 0.000000 

0.000000 0.000000 0.000000 
0.000000 0.000000 0.000000 
0.000000 0.000000 0.000000 

-0.000000 0.000000 0.000000 
0.000000 -0.000000 0.000000 
0.000000 0.000000 0.000000 

-0.000000 0.000000 0.000000 
0.000000 -0.000000 0.000000 
0.000000 0.000000 0.000000 

-0.000000 0.000000 0.000000 
0.000000 -0.000000 0.000000 
0.000000 0.000000 0.000000 

0.000000 0.000000 0.000000 
0.000000 0.000000 0.000000 
0.000000 0.000000 0.000000 

-0.000000 -0.000000 0.000000 
0.000000 -0.000000 0.000000 
0.000000 0.000000 0.000000 

0.000000 -0.000000 0.000000 
0.000000 0.000000 0.000000 
0.000000 0.000000 0.000000 

-0.000000 0.000000 0.000000 
0.000000 -0.000000 0.000000 
0.000000 0.000000 0.000000 

-0.000000 -0.000000 0.000000 
0.000000 -0.000000 0.000000 
0.000000 0.000000 0.000000 

-0.000000 0.000000 0.000000 
0.000000 -0.000000 0.000000 
0.000000 0.000000 0.000000 

-0.000000 0.000000 0.000000 
0.000000 0.000000 0.000000 
0.000000 0.000000 0.000000 

0.000000 0.000000 0.000000 
0.000000 0.000000 0.000000 
0.000000 0.000000 0.000000 

0.000000 0.000000 0.000000 
0.000000 0.000000 0.000000 
0.000000 0.000000 0.000000 

-0.000000 0.000000 0.000000 
0.000000 -0.000000 0.000000 
0.000000 0.000000 0.000000 

-0.000000 0.000000 0.000000 
0.000000 -0.000000 0.000000 
0.000000 0.000000 0.000000 

-0.000000 0.000000 0.000000 
0.000000 -0.000000 0.000000 
0.000000 0.000000 0.000000 

-0.000000 0.000000 0.000000 
0.000000 -0.000000 0.000000 
0.000000 0.000000 0.000000 

-0.000000 0.000000 0.000000 
0.000000 -0.000000 0.000000 
0.000000 0.000000 0.000000 

0.000000 0.000000 0.000000 
0.000000 0.000000 0.000000 
0.000000 0.000000 0.000000 

0.000000 0.000000 0.000000 
0.000000 0.000000 0.000000 
0.000000 0.000000 0.000000 

0.000000 0.000000 0.000000 
0.000000 0.000000 0.000000 
0.000000 0.000000 0.000000 

0.000000 0.000000 0.000000 
0.000000 0.000000 0.000000 
0.000000 0.000000 0.000000 

0.000000 0.000000 0.000000 
0.000000 0.000000 0.000000 
0.000000 0.000000 0.000000 

-0.000000 0.000000 0.000000 
0.000000 -0.000000 0.000000 
0.000000 0.000000 0.000000 

0.000000 0.000000 0.000000 
0.000000 0.000000 0.000000 
0.000000 0.000000 0.000000 

0.000000 -0.000000 0.000000 
0.000000 0.000000 0.000000 
0.000000 0.000000 0.000000 

0.000000 -0.000000 0.000000 
0.000000 0.000000 0.000000 
0.000000 0.000000 0.000000 

0.000000 0.000000 0.000000 
0.000000 0.000000 0.000000 
0.000000 0.000000 0.000000 

0.000000 -0.000000 0.000000 
0.000000 0.000000 0.000000 
0.000000 0.000000 0.000000 

-0.000000 -0.000000 0.000000 
0.000000 -0.000000 0.000000 
0.000000 0.000000 0.000000 

-0.000000 -0.000000 0.000000 
0.000000 -0.000000 0.000000 
0.000000 0.000000 0.000000 

0.000000 -0.000000 0.000000 
0.000000 0.000000 0.000000 
0.000000 0.000000 0.000000 

0.000000 -0.000000 0.000000 
0.000000 0.000000 0.000000 
0.000000 0.000000 0.000000 

-0.000000 -0.000000 0.000000 
0.000000 -0.000000 0.000000 
0.000000 0.000000 0.000000 

-0.000000 -0.000000 0.000000 
0.000000 -0.000000 0.000000 
0.000000 0.000000 0.000000 

-0.000000 -0.000000 0.000000 
0.000000 -0.000000 0.000000 
0.000000 0.000000 0.000000 

0.000000 -0.000000 0.000000 
0.000000 0.000000 0.000000 
0.000000 0.000000 0.000000 

0.000000 -0.000000 0.000000 
0.000000 0.000000 0.000000 
0.000000 0.000000 0.000000 

0.000000 -0.000000 0.000000 
0.000000 0.000000 0.000000 
0.000000 0.000000 0.000000 

0.000000 -0.000000 0.000000 
0.000000 0.000000 0.000000 
0.000000 0.000000 0.000000 

0.000000 -0.000000 0.000000 
0.000000 0.000000 0.000000 
0.000000 0.000000 0.000000 

0.000000 -0.000000 0.000000 
0.000000 0.000000 0.000000 
0.000000 0.000000 0.000000 

0.000000 -0.000000 0.000000 
0.000000 0.000000 0.000000 
0.000000 0.000000 0.000000 

0.000000 -0.000000 0.000000 
0.000000 0.000000 0.000000 
0.000000 0.000000 0.000000 

0.000000 -0.000000 0.000000 
0.000000 0.000000 0.000000 
0.000000 0.000000 0.000000 

0.000000 0.000000 0.000000 
0.000000 0.000000 0.000000 
0.000000 0.000000 0.000000 

-0.000000 0.000000 0.000000 
0.000000 -0.000000 0.000000 
0.000000 0.000000 0.000000 

-0.000000 0.000000 0.000000 
0.000000 -0.000000 0.000000 
0.000000 0.000000 0.000000 

-0.000000 0.000000 0.000000 
0.000000 -0.000000 0.000000 
0.000000 0.000000 0.000000 

0.000000 0.000000 0.000000 
0.000000 0.000000 0.000000 
0.000000 0.000000 0.000000 

-0.000000 0.000000 0.000000 
0.000000 -0.000000 0.000000 
0.000000 0.000000 0.000000 

0.000000 0.000000 0.000000 
0.000000 0.000000 0.000000 
0.000000 0.000000 0.000000 

0.000000 -0.000000 0.000000 
0.000000 0.000000 0.000000 
0.000000 0.000000 0.000000 

-0.000000 0.000000 0.000000 
0.000000 -0.000000 0.000000 
0.000000 0.000000 0.000000 

0.000000 0.000000 0.000000 
0.000000 -0.000000 0.000000 
0.000000 0.000000 0.000000 

0.000000 0.000000 0.000000 
0.000000 0.000000 0.000000 
0.000000 0.000000 0.000000 

0.000000 0.000000 0.000000 
0.000000 0.000000 0.000000 
0.000000 0.000000 0.000000 

0.000000 -0.000000 0.000000 
0.000000 0.000000 0.000000 
0.000000 0.000000 0.000000 

-0.000000 -0.000000 0.000000 
0.000000 -0.000000 0.000000 
0.000000 0.000000 0.000000 

-0.000000 -0.000000 0.000000 
0.000000 -0.000000 0.000000 
0.000000 0.000000 0.000000 

-0.000000 -0.000000 0.000000 
0.000000 -0.000000 0.000000 
0.000000 0.000000 0.000000 

-0.000000 0.000000 0.000000 
0.000000 -0.000000 0.000000 
0.000000 0.000000 0.000000 

-0.000000 0.000000 0.000000 
0.000000 -0.000000 0.000000 
0.000000 0.000000 0.000000 

0.000000 0.000000 0.000000 
0.000000 0.000000 0.000000 
0.000000 0.000000 0.000000 

0.000000 -0.000000 0.000000 
0.000000 0.000000 0.000000 
0.000000 0.000000 0.000000 

0.000000 -0.000000 0.000000 
0.000000 0.000000 0.000000 
0.000000 0.000000 0.000000 

0.000000 0.000000 0.000000 
0.000000 0.000000 0.000000 
0.000000 0.000000 0.000000 

-0.000000 -0.000000 0.000000 
0.000000 -0.000000 0.000000 
0.000000 0.000000 0.000000 

-0.000000 -0.000000 0.000000 
0.000000 -0.000000 0.000000 
0.000000 0.000000 0.000000 

0.000000 -0.000000 0.000000 
0.000000 0.000000 0.000000 
0.000000 0.000000 0.000000 

0.000000 -0.000000 0.000000 
0.000000 0.000000 0.000000 
0.000000 0.000000 0.000000 

-0.000000 -0.000000 0.000000 
0.000000 -0.000000 0.000000 
0.000000 0.000000 0.000000 

-0.000000 -0.000000 0.000000 
0.000000 -0.000000 0.000000 
0.000000 0.000000 0.000000 

0.000000 -0.000000 0.000000 
0.000000 0.000000 0.000000 
0.000000 0.000000 0.000000 

-0.000000 -0.000000 0.000000 
0.000000 0.000000 0.000000 
0.000000 0.000000 0.000000 

-0.000000 -0.000000 0.000000 
0.000000 -0.000000 0.000000 
0.000000 0.000000 0.000000 

-0.000000 -0.000000 0.000000 
0.000000 -0.000000 0.000000 
0.000000 0.000000 0.000000 

-0.000000 -0.000000 0.000000 
0.000000 -0.000000 0.000000 
0.000000 0.000000 0.000000 

-0.000000 0.000000 0.000000 
0.000000 -0.000000 0.000000 
0.000000 0.000000 0.000000 

0.000000 0.000000 0.000000 
0.000000 0.000000 0.000000 
0.000000 0.000000 0.000000 

-0.000000 0.000000 0.000000 
0.000000 -0.000000 0.000000 
0.000000 0.000000 0.000000 

-0.000000 0.000000 0.000000 
0.000000 -0.000000 0.000000 
0.000000 0.000000 0.000000 

0.000000 0.000000 0.000000 
0.000000 0.000000 0.000000 
0.000000 0.000000 0.000000 

0.000000 0.000000 0.000000 
0.000000 0.000000 0.000000 
0.000000 0.000000 0.000000 

-0.000000 0.000000 0.000000 
0.000000 -0.000000 0.000000 
0.000000 0.000000 0.000000 

-0.000000 0.000000 0.000000 
0.000000 -0.000000 0.000000 
0.000000 0.000000 0.000000 

-0.000000 0.000000 0.000000 
0.000000 -0.000000 0.000000 
0.000000 0.000000 0.000000 

-0.000000 0.000000 0.000000 
0.000000 -0.000000 0.000000 
0.000000 0.000000 0.000000 

-0.000000 -0.000000 0.000000 
0.000000 -0.000000 0.000000 
0.000000 0.000000 0.000000 

-0.000000 -0.000000 0.000000 
0.000000 -0.000000 0.000000 
0.000000 0.000000 0.000000 

-0.000000 0.000000 0.000000 
0.000000 -0.000000 0.000000 
0.000000 0.000000 0.000000 

0.000000 -0.000000 0.000000 
0.000000 0.000000 0.000000 
0.000000 0.000000 0.000000 

0.000000 -0.000000 0.000000 
0.000000 0.000000 0.000000 
0.000000 0.000000 0.000000 

0.000000 0.000000 0.000000 
0.000000 0.000000 0.000000 
0.000000 0.000000 0.000000 

-0.000000 -0.000000 0.000000 
0.000000 -0.000000 0.000000 
0.000000 0.000000 0.000000 

0.000000 0.000000 0.000000 
0.000000 0.000000 0.000000 
0.000000 0.000000 0.000000 

0.000000 0.000000 0.000000 
0.000000 0.000000 0.000000 
0.000000 0.000000 0.000000 

0.000000 0.000000 0.000000 
0.000000 0.000000 0.000000 
0.000000 0.000000 0.000000 

-0.000000 -0.000000 0.000000 
0.000000 -0.000000 0.000000 
0.000000 0.000000 0.000000 

-0.000000 0.000000 0.000000 
0.000000 -0.000000 0.000000 
0.000000 0.000000 0.000000 

-0.000000 -0.000000 0.000000 
0.000000 -0.000000 0.000000 
0.000000 0.000000 0.000000 

-0.000000 -0.000000 0.000000 
0.000000 -0.000000 0.000000 
0.000000 0.000000 0.000000 

-0.000000 -0.000000 0.000000 
0.000000 -0.000000 0.000000 
0.000000 0.000000 0.000000 

-0.000000 -0.000000 0.000000 
0.000000 0.000000 0.000000 
0.000000 0.000000 0.000000 

-0.000000 -0.000000 0.000000 
0.000000 -0.000000 0.000000 
0.000000 0.000000 0.000000 

-0.000000 -0.000000 0.000000 
0.000000 -0.000000 0.000000 
0.000000 0.000000 0.000000 

-0.000000 -0.000000 0.000000 
0.000000 -0.000000 0.000000 
0.000000 0.000000 0.000000 

0.000000 0.000000 0.000000 
0.000000 0.000000 0.000000 
0.000000 0.000000 0.000000 

0.000000 0.000000 0.000000 
0.000000 0.000000 0.000000 
0.000000 0.000000 0.000000 

-0.000000 -0.000000 0.000000 
0.000000 -0.000000 0.000000 
0.000000 0.000000 0.000000 

0.000000 0.000000 0.000000 
0.000000 0.000000 0.000000 
0.000000 0.000000 0.000000 

-0.000000 0.000000 0.000000 
0.000000 -0.000000 0.000000 
0.000000 0.000000 0.000000 

0.000000 0.000000 0.000000 
0.000000 0.000000 0.000000 
0.000000 0.000000 0.000000 

0.000000 0.000000 0.000000 
0.000000 0.000000 0.000000 
0.000000 0.000000 0.000000 

-0.000000 -0.000000 0.000000 
0.000000 -0.000000 0.000000 
0.000000 0.000000 0.000000 

-0.000000 0.000000 0.000000 
0.000000 -0.000000 0.000000 
0.000000 0.000000 0.000000 

0.000000 0.000000 0.000000 
0.000000 0.000000 0.000000 
0.000000 0.000000 0.000000 

-0.000000 0.000000 0.000000 
0.000000 -0.000000 0.000000 
0.000000 0.000000 0.000000 

0.000000 0.000000 0.000000 
0.000000 0.000000 0.000000 
0.000000 0.000000 0.000000 

0.000000 0.000000 0.000000 
0.000000 0.000000 0.000000 
0.000000 0.000000 0.000000 

-0.000000 0.000000 0.000000 
0.000000 -0.000000 0.000000 
0.000000 0.000000 0.000000 

-0.000000 -0.000000 0.000000 
0.000000 -0.000000 0.000000 
0.000000 0.000000 0.000000 

0.000000 0.000000 0.000000 
0.000000 0.000000 0.000000 
0.000000 0.000000 0.000000 

-0.000000 0.000000 0.000000 
0.000000 -0.000000 0.000000 
0.000000 0.000000 0.000000 

0.000000 -0.000000 0.000000 
0.000000 0.000000 0.000000 
0.000000 0.000000 0.000000 

0.000000 -0.000000 0.000000 
0.000000 0.000000 0.000000 
0.000000 0.000000 0.000000 

-0.000000 -0.000000 0.000000 
0.000000 0.000000 0.000000 
0.000000 0.000000 0.000000 

-0.000000 -0.000000 0.000000 
0.000000 -0.000000 0.000000 
0.000000 0.000000 0.000000 

0.000000 0.000000 0.000000 
0.000000 -0.000000 0.000000 
0.000000 0.000000 0.000000 

0.000000 0.000000 0.000000 
0.000000 0.000000 0.000000 
0.000000 0.000000 0.000000 

0.000000 0.000000 0.000000 
0.000000 0.000000 0.000000 
0.000000 0.000000 0.000000 

0.000000 0.000000 0.000000 
0.000000 0.000000 0.000000 
0.000000 0.000000 0.000000 

-0.000000 0.000000 0.000000 
0.000000 -0.000000 0.000000 
0.000000 0.000000 0.000000 

0.000000 0.000000 0.000000 
0.000000 -0.000000 0.000000 
0.000000 0.000000 0.000000 

-0.000000 0.000000 0.000000 
0.000000 -0.000000 0.000000 
0.000000 0.000000 0.000000 

-0.000000 -0.000000 0.000000 
0.000000 -0.000000 0.000000 
0.000000 0.000000 0.000000 

-0.000000 -0.000000 0.000000 
0.000000 -0.000000 0.000000 
0.000000 0.000000 0.000000 

-0.000000 0.000000 0.000000 
0.000000 -0.000000 0.000000 
0.000000 0.000000 0.000000 

0.000000 -0.000000 0.000000 
0.000000 0.000000 0.000000 
0.000000 0.000000 0.000000 

0.000000 -0.000000 0.000000 
0.000000 0.000000 0.000000 
0.000000 0.000000 0.000000 

0.000000 -0.000000 0.000000 
0.000000 0.000000 0.000000 
0.000000 0.000000 0.000000 

0.000000 0.000000 0.000000 
0.000000 0.000000 0.000000 
0.000000 0.000000 0.000000 

0.000000 0.000000 0.000000 
0.000000 0.000000 0.000000 
0.000000 0.000000 0.000000 

0.000000 0.000000 0.000000 
0.000000 0.000000 0.000000 
0.000000 0.000000 0.000000 

0.000000 0.000000 0.000000 
0.000000 0.000000 0.000000 
0.000000 0.000000 0.000000 

-0.000000 0.000000 0.000000 
0.000000 -0.000000 0.000000 
0.000000 0.000000 0.000000 

0.000000 -0.000000 0.000000 
0.000000 0.000000 0.000000 
0.000000 0.000000 0.000000 

0.000000 0.000000 0.000000 
0.000000 0.000000 0.000000 
0.000000 0.000000 0.000000 

-0.000000 -0.000000 0.000000 
0.000000 -0.000000 0.000000 
0.000000 0.000000 0.000000 

-0.000000 -0.000000 0.000000 
0.000000 -0.000000 0.000000 
0.000000 0.000000 0.000000 

-0.000000 -0.000000 0.000000 
0.000000 -0.000000 0.000000 
0.000000 0.000000 0.000000 

-0.000000 -0.000000 0.000000 
0.000000 -0.000000 0.000000 
0.000000 0.000000 0.000000 

0.000000 0.000000 0.000000 
0.000000 0.000000 0.000000 
0.000000 0.000000 0.000000 

0.000000 -0.000000 0.000000 
0.000000 0.000000 0.000000 
0.000000 0.000000 0.000000 

0.000000 -0.000000 0.000000 
0.000000 0.000000 0.000000 
0.000000 0.000000 0.000000 

0.000000 -0.000000 0.000000 
0.000000 0.000000 0.000000 
0.000000 0.000000 0.000000 

-0.000000 0.000000 0.000000 
0.000000 -0.000000 0.000000 
0.000000 0.000000 0.000000 

-0.000000 0.000000 0.000000 
0.000000 -0.000000 0.000000 
0.000000 0.000000 0.000000 

-0.000000 0.000000 0.000000 
0.000000 0.000000 0.000000 
0.000000 0.000000 0.000000 

0.000000 0.000000 0.000000 
0.000000 0.000000 0.000000 
0.000000 0.000000 0.000000 

0.000000 0.000000 0.000000 
0.000000 0.000000 0.000000 
0.000000 0.000000 0.000000 

0.000000 0.000000 0.000000 
0.000000 0.000000 0.000000 
0.000000 0.000000 0.000000 

0.000000 0.000000 0.000000 
0.000000 0.000000 0.000000 
0.000000 0.000000 0.000000 

-0.000000 -0.000000 0.000000 
0.000000 -0.000000 0.000000 
0.000000 0.000000 0.000000 

0.000000 -0.000000 0.000000 
0.000000 0.000000 0.000000 
0.000000 0.000000 0.000000 

0.000000 -0.000000 0.000000 
0.000000 0.000000 0.000000 
0.000000 0.000000 0.000000 

0.000000 -0.000000 0.000000 
0.000000 0.000000 0.000000 
0.000000 0.000000 0.000000 

-0.000000 0.000000 0.000000 
0.000000 -0.000000 0.000000 
0.000000 0.000000 0.000000 

0.000000 0.000000 0.000000 
0.000000 0.000000 0.000000 
0.000000 0.000000 0.000000 

0.000000 0.000000 0.000000 
0.000000 0.000000 0.000000 
0.000000 0.000000 0.000000 

0.000000 0.000000 0.000000 
0.000000 0.000000 0.000000 
0.000000 0.000000 0.000000 

-0.000000 0.000000 0.000000 
0.000000 -0.000000 0.000000 
0.000000 0.000000 0.000000 

0.000000 0.000000 0.000000 
0.000000 0.000000 0.000000 
0.000000 0.000000 0.000000 

-0.000000 0.000000 0.000000 
0.000000 -0.000000 0.000000 
0.000000 0.000000 0.000000 

-0.000000 0.000000 0.000000 
0.000000 -0.000000 0.000000 
0.000000 0.000000 0.000000 

0.000000 0.000000 0.000000 
0.000000 0.000000 0.000000 
0.000000 0.000000 0.000000 

-0.000000 -0.000000 0.000000 
0.000000 -0.000000 0.000000 
0.000000 0.000000 0.000000 

-0.000000 0.000000 0.000000 
0.000000 -0.000000 0.000000 
0.000000 0.000000 0.000000 

0.000000 -0.000000 0.000000 
0.000000 0.000000 0.000000 
0.000000 0.000000 0.000000 

-0.000000 0.000000 0.000000 
0.000000 -0.000000 0.000000 
0.000000 0.000000 0.000000 

-0.000000 0.000000 0.000000 
0.000000 -0.000000 0.000000 
0.000000 0.000000 0.000000 

-0.000000 -0.000000 0.000000 
0.000000 -0.000000 0.000000 
0.000000 0.000000 0.000000 

0.000000 -0.000000 0.000000 
0.000000 0.000000 0.000000 
0.000000 0.000000 0.000000 

-0.000000 0.000000 0.000000 
0.000000 -0.000000 0.000000 
0.000000 0.000000 0.000000 

-0.000000 0.000000 0.000000 
0.000000 -0.000000 0.000000 
0.000000 0.000000 0.000000 

-0.000000 0.000000 0.000000 
0.000000 -0.000000 0.000000 
0.000000 0.000000 0.000000 

-0.000000 0.000000 0.000000 
0.000000 -0.000000 0.000000 
0.000000 0.000000 0.000000 

-0.000000 -0.000000 0.000000 
0.000000 -0.000000 0.000000 
0.000000 0.000000 0.000000 

-0.000000 0.000000 0.000000 
0.000000 -0.000000 0.000000 
0.000000 0.000000 0.000000 

0.000000 -0.000000 0.000000 
0.000000 0.000000 0.000000 
0.000000 0.000000 0.000000 

0.000000 -0.000000 0.000000 
0.000000 0.000000 0.000000 
0.000000 0.000000 0.000000 

-0.000000 0.000000 0.000000 
0.000000 -0.000000 0.000000 
0.000000 0.000000 0.000000 

-0.000000 -0.000000 0.000000 
0.000000 -0.000000 0.000000 
0.000000 0.000000 0.000000 

0.000000 -0.000000 0.000000 
0.000000 0.000000 0.000000 
0.000000 0.000000 0.000000 

0.000000 -0.000000 0.000000 
0.000000 0.000000 0.000000 
0.000000 0.000000 0.000000 

0.000000 0.000000 0.000000 
0.000000 0.000000 0.000000 
0.000000 0.000000 0.000000 

-0.000000 -0.000000 0.000000 
0.000000 -0.000000 0.000000 
0.000000 0.000000 0.000000 

0.000000 0.000000 0.000000 
0.000000 0.000000 0.000000 
0.000000 0.000000 0.000000 

0.000000 0.000000 0.000000 
0.000000 0.000000 0.000000 
0.000000 0.000000 0.000000 

-0.000000 0.000000 0.000000 
0.000000 -0.000000 0.000000 
0.000000 0.000000 0.000000 

-0.000000 0.000000 0.000000 
0.000000 -0.000000 0.000000 
0.000000 0.000000 0.000000 

0.000000 0.000000 0.000000 
0.000000 0.000000 0.000000 
0.000000 0.000000 0.000000 

0.000000 0.000000 0.000000 
0.000000 0.000000 0.000000 
0.000000 0.000000 0.000000 

0.000000 0.000000 0.000000 
0.000000 0.000000 0.000000 
0.000000 0.000000 0.000000 

0.000000 0.000000 0.000000 
0.000000 0.000000 0.000000 
0.000000 0.000000 0.000000 

0.000000 -0.000000 0.000000 
0.000000 0.000000 0.000000 
0.000000 0.000000 0.000000 

0.000000 -0.000000 0.000000 
0.000000 0.000000 0.000000 
0.000000 0.000000 0.000000 

0.000000 0.000000 0.000000 
0.000000 0.000000 0.000000 
0.000000 0.000000 0.000000 

0.000000 0.000000 0.000000 
0.000000 0.000000 0.000000 
0.000000 0.000000 0.000000 

-0.000000 0.000000 0.000000 
0.000000 -0.000000 0.000000 
0.000000 0.000000 0.000000 

-0.000000 0.000000 0.000000 
0.000000 -0.000000 0.000000 
0.000000 0.000000 0.000000 

-0.000000 0.000000 0.000000 
0.000000 -0.000000 0.000000 
0.000000 0.000000 0.000000 

-0.000000 0.000000 0.000000 
0.000000 -0.000000 0.000000 
0.000000 0.000000 0.000000 

-0.000000 -0.000000 0.000000 
0.000000 -0.000000 0.000000 
0.000000 0.000000 0.000000 

0.000000 -0.000000 0.000000 
0.000000 0.000000 0.000000 
0.000000 0.000000 0.000000 

0.000000 -0.000000 0.000000 
0.000000 0.000000 0.000000 
0.000000 0.000000 0.000000 

-0.000000 -0.000000 0.000000 
0.000000 -0.000000 0.000000 
0.000000 0.000000 0.000000 

-0.000000 -0.000000 0.000000 
0.000000 -0.000000 0.000000 
0.000000 0.000000 0.000000 

0.000000 -0.000000 0.000000 
0.000000 0.000000 0.000000 
0.000000 0.000000 0.000000 

-0.000000 -0.000000 0.000000 
0.000000 -0.000000 0.000000 
0.000000 0.000000 0.000000 

-0.000000 -0.000000 0.000000 
0.000000 -0.000000 0.000000 
0.000000 0.000000 0.000000 

0.000000 -0.000000 0.000000 
0.000000 -0.000000 0.000000 
0.000000 0.000000 0.000000 

-0.000000 -0.000000 0.000000 
0.000000 -0.000000 0.000000 
0.000000 0.000000 0.000000 

0.000000 -0.000000 0.000000 
0.000000 0.000000 0.000000 
0.000000 0.000000 0.000000 

0.000000 -0.000000 0.000000 
0.000000 0.000000 0.000000 
0.000000 0.000000 0.000000 

-0.000000 -0.000000 0.000000 
0.000000 -0.000000 0.000000 
0.000000 0.000000 0.000000 

-0.000000 -0.000000 0.000000 
0.000000 -0.000000 0.000000 
0.000000 0.000000 0.000000 

0.000000 -0.000000 0.000000 
0.000000 0.000000 0.000000 
0.000000 0.000000 0.000000 

0.000000 0.000000 0.000000 
0.000000 0.000000 0.000000 
0.000000 0.000000 0.000000 

0.000000 0.000000 0.000000 
0.000000 0.000000 0.000000 
0.000000 0.000000 0.000000 

0.000000 -0.000000 0.000000 
0.000000 -0.000000 0.000000 
0.000000 0.000000 0.000000 

-0.000000 0.000000 0.000000 
0.000000 -0.000000 0.000000 
0.000000 0.000000 0.000000 

-0.000000 -0.000000 0.000000 
0.000000 -0.000000 0.000000 
0.000000 0.000000 0.000000 

-0.000000 -0.000000 0.000000 
0.000000 -0.000000 0.000000 
0.000000 0.000000 0.000000 

-0.000000 -0.000000 0.000000 
0.000000 -0.000000 0.000000 
0.000000 0.000000 0.000000 

-0.000000 0.000000 0.000000 
0.000000 -0.000000 0.000000 
0.000000 0.000000 0.000000 

-0.000000 0.000000 0.000000 
0.000000 -0.000000 0.000000 
0.000000 0.000000 0.000000 

0.000000 -0.000000 0.000000 
0.000000 0.000000 0.000000 
0.000000 0.000000 0.000000 

0.000000 -0.000000 0.000000 
0.000000 0.000000 0.000000 
0.000000 0.000000 0.000000 

0.000000 0.000000 0.000000 
0.000000 0.000000 0.000000 
0.000000 0.000000 0.000000 

-0.000000 -0.000000 0.000000 
0.000000 -0.000000 0.000000 
0.000000 0.000000 0.000000 

-0.000000 -0.000000 0.000000 
0.000000 -0.000000 0.000000 
0.000000 0.000000 0.000000 

-0.000000 -0.000000 0.000000 
0.000000 -0.000000 0.000000 
0.000000 0.000000 0.000000 

-0.000000 -0.000000 0.000000 
0.000000 -0.000000 0.000000 
0.000000 0.000000 0.000000 

-0.000000 0.000000 0.000000 
0.000000 0.000000 0.000000 
0.000000 0.000000 0.000000 

-0.000000 0.000000 0.000000 
0.000000 -0.000000 0.000000 
0.000000 0.000000 0.000000 

-0.000000 0.000000 0.000000 
0.000000 -0.000000 0.000000 
0.000000 0.000000 0.000000 

-0.000000 0.000000 0.000000 
0.000000 -0.000000 0.000000 
0.000000 0.000000 0.000000 

-0.000000 0.000000 0.000000 
0.000000 -0.000000 0.000000 
0.000000 0.000000 0.000000 

0.000000 -0.000000 0.000000 
0.000000 0.000000 0.000000 
0.000000 0.000000 0.000000 

0.000000 -0.000000 0.000000 
0.000000 0.000000 0.000000 
0.000000 0.000000 0.000000 

0.000000 -0.000000 0.000000 
0.000000 0.000000 0.000000 
0.000000 0.000000 0.000000 

-0.000000 -0.000000 0.000000 
0.000000 -0.000000 0.000000 
0.000000 0.000000 0.000000 

-0.000000 -0.000000 0.000000 
0.000000 -0.000000 0.000000 
0.000000 0.000000 0.000000 

0.000000 -0.000000 0.000000 
0.000000 0.000000 0.000000 
0.000000 0.000000 0.000000 

0.000000 0.000000 0.000000 
0.000000 0.000000 0.000000 
0.000000 0.000000 0.000000 

0.000000 0.000000 0.000000 
0.000000 0.000000 0.000000 
0.000000 0.000000 0.000000 

-0.000000 0.000000 0.000000 
0.000000 -0.000000 0.000000 
0.000000 0.000000 0.000000 

0.000000 0.000000 0.000000 
0.000000 0.000000 0.000000 
0.000000 0.000000 0.000000 

-0.000000 -0.000000 0.000000 
0.000000 -0.000000 0.000000 
0.000000 0.000000 0.000000 

0.000000 0.000000 0.000000 
0.000000 0.000000 0.000000 
0.000000 0.000000 0.000000 

0.000000 -0.000000 0.000000 
0.000000 0.000000 0.000000 
0.000000 0.000000 0.000000 

-0.000000 -0.000000 0.000000 
0.000000 -0.000000 0.000000 
0.000000 0.000000 0.000000 

0.000000 0.000000 0.000000 
0.000000 0.000000 0.000000 
0.000000 0.000000 0.000000 

0.000000 -0.000000 0.000000 
0.000000 0.000000 0.000000 
0.000000 0.000000 0.000000 

-0.000000 -0.000000 0.000000 
0.000000 -0.000000 0.000000 
0.000000 0.000000 0.000000 

-0.000000 -0.000000 0.000000 
0.000000 -0.000000 0.000000 
0.000000 0.000000 0.000000 

0.000000 -0.000000 0.000000 
0.000000 0.000000 0.000000 
0.000000 0.000000 0.000000 

-0.000000 -0.000000 0.000000 
0.000000 -0.000000 0.000000 
0.000000 0.000000 0.000000 

0.000000 -0.000000 0.000000 
0.000000 0.000000 0.000000 
0.000000 0.000000 0.000000 

-0.000000 -0.000000 0.000000 
0.000000 -0.000000 0.000000 
0.000000 0.000000 0.000000 

0.000000 0.000000 0.000000 
0.000000 0.000000 0.000000 
0.000000 0.000000 0.000000 

0.000000 0.000000 0.000000 
0.000000 0.000000 0.000000 
0.000000 0.000000 0.000000 

0.000000 0.000000 0.000000 
0.000000 0.000000 0.000000 
0.000000 0.000000 0.000000 

0.000000 0.000000 0.000000 
0.000000 0.000000 0.000000 
0.000000 0.000000 0.000000 

0.000000 0.000000 0.000000 
0.000000 0.000000 0.000000 
0.000000 0.000000 0.000000 

0.000000 0.000000 0.000000 
0.000000 0.000000 0.000000 
0.000000 0.000000 0.000000 

0.000000 0.000000 0.000000 
0.000000 0.000000 0.000000 
0.000000 0.000000 0.000000 

0.000000 0.000000 0.000000 
0.000000 0.000000 0.000000 
0.000000 0.000000 0.000000 

-0.000000 0.000000 0.000000 
0.000000 -0.000000 0.000000 
0.000000 0.000000 0.000000 

-0.000000 -0.000000 0.000000 
0.000000 -0.000000 0.000000 
0.000000 0.000000 0.000000 

-0.000000 0.000000 0.000000 
0.000000 -0.000000 0.000000 
0.000000 0.000000 0.000000 

0.000000 0.000000 0.000000 
0.000000 0.000000 0.000000 
0.000000 0.000000 0.000000 

0.000000 -0.000000 0.000000 
0.000000 0.000000 0.000000 
0.000000 0.000000 0.000000 

0.000000 -0.000000 0.000000 
0.000000 0.000000 0.000000 
0.000000 0.000000 0.000000 

-0.000000 -0.000000 0.000000 
0.000000 -0.000000 0.000000 
0.000000 0.000000 0.000000 

-0.000000 -0.000000 0.000000 
0.000000 -0.000000 0.000000 
0.000000 0.000000 0.000000 

-0.000000 -0.000000 0.000000 
0.000000 -0.000000 0.000000 
0.000000 0.000000 0.000000 

-0.000000 0.000000 0.000000 
0.000000 0.000000 0.000000 
0.000000 0.000000 0.000000 

-0.000000 0.000000 0.000000 
0.000000 -0.000000 0.000000 
0.000000 0.000000 0.000000 

-0.000000 0.000000 0.000000 
0.000000 -0.000000 0.000000 
0.000000 0.000000 0.000000 

0.000000 0.000000 0.000000 
0.000000 0.000000 0.000000 
0.000000 0.000000 0.000000 

0.000000 0.000000 0.000000 
0.000000 0.000000 0.000000 
0.000000 0.000000 0.000000 

0.000000 -0.000000 0.000000 
0.000000 0.000000 0.000000 
0.000000 0.000000 0.000000 

0.000000 -0.000000 0.000000 
0.000000 0.000000 0.000000 
0.000000 0.000000 0.000000 

0.000000 0.000000 0.000000 
0.000000 0.000000 0.000000 
0.000000 0.000000 0.000000 

-0.000000 0.000000 0.000000 
0.000000 -0.000000 0.000000 
0.000000 0.000000 0.000000 

-0.000000 -0.000000 0.000000 
0.000000 -0.000000 0.000000 
0.000000 0.000000 0.000000 

-0.000000 -0.000000 0.000000 
0.000000 -0.000000 0.000000 
0.000000 0.000000 0.000000 

-0.000000 0.000000 0.000000 
0.000000 -0.000000 0.000000 
0.000000 0.000000 0.000000 

-0.000000 0.000000 0.000000 
0.000000 -0.000000 0.000000 
0.000000 0.000000 0.000000 

0.000000 0.000000 0.000000 
0.000000 0.000000 0.000000 
0.000000 0.000000 0.000000 

0.000000 0.000000 0.000000 
0.000000 0.000000 0.000000 
0.000000 0.000000 0.000000 

0.000000 0.000000 0.000000 
0.000000 0.000000 0.000000 
0.000000 0.000000 0.000000 

0.000000 0.000000 0.000000 
0.000000 0.000000 0.000000 
0.000000 0.000000 0.000000 

0.000000 0.000000 0.000000 
0.000000 0.000000 0.000000 
0.000000 0.000000 0.000000 

-0.000000 0.000000 0.000000 
0.000000 -0.000000 0.000000 
0.000000 0.000000 0.000000 

0.000000 0.000000 0.000000 
0.000000 0.000000 0.000000 
0.000000 0.000000 0.000000 

0.000000 -0.000000 0.000000 
0.000000 0.000000 0.000000 
0.000000 0.000000 0.000000 

0.000000 -0.000000 0.000000 
0.000000 0.000000 0.000000 
0.000000 0.000000 0.000000 

0.000000 0.000000 0.000000 
0.000000 0.000000 0.000000 
0.000000 0.000000 0.000000 

-0.000000 0.000000 0.000000 
0.000000 -0.000000 0.000000 
0.000000 0.000000 0.000000 

-0.000000 0.000000 0.000000 
0.000000 -0.000000 0.000000 
0.000000 0.000000 0.000000 

-0.000000 0.000000 0.000000 
0.000000 -0.000000 0.000000 
0.000000 0.000000 0.000000 

0.000000 0.000000 0.000000 
0.000000 0.000000 0.000000 
0.000000 0.000000 0.000000 

0.000000 0.000000 0.000000 
0.000000 0.000000 0.000000 
0.000000 0.000000 0.000000 

-0.000000 0.000000 0.000000 
0.000000 -0.000000 0.000000 
0.000000 0.000000 0.000000 

-0.000000 0.000000 0.000000 
0.000000 -0.000000 0.000000 
0.000000 0.000000 0.000000 

-0.000000 0.000000 0.000000 
0.000000 -0.000000 0.000000 
0.000000 0.000000 0.000000 

0.000000 0.000000 0.000000 
0.000000 0.000000 0.000000 
0.000000 0.000000 0.000000 

-0.000000 0.000000 0.000000 
0.000000 -0.000000 0.000000 
0.000000 0.000000 0.000000 

-0.000000 0.000000 0.000000 
0.000000 -0.000000 0.000000 
0.000000 0.000000 0.000000 

-0.000000 -0.000000 0.000000 
0.000000 -0.000000 0.000000 
0.000000 0.000000 0.000000 

0.000000 -0.000000 0.000000 
0.000000 0.000000 0.000000 
0.000000 0.000000 0.000000 

0.000000 -0.000000 0.000000 
0.000000 0.000000 0.000000 
0.000000 0.000000 0.000000 

-0.000000 0.000000 0.000000 
0.000000 -0.000000 0.000000 
0.000000 0.000000 0.000000 

0.000000 0.000000 0.000000 
0.000000 0.000000 0.000000 
0.000000 0.000000 0.000000 

-0.000000 -0.000000 0.000000 
0.000000 -0.000000 0.000000 
0.000000 0.000000 0.000000 

-0.000000 0.000000 0.000000 
0.000000 -0.000000 0.000000 
0.000000 0.000000 0.000000 

-0.000000 0.000000 0.000000 
0.000000 -0.000000 0.000000 
0.000000 0.000000 0.000000 

-0.000000 -0.000000 0.000000 
0.000000 -0.000000 0.000000 
0.000000 0.000000 0.000000 

0.000000 0.000000 0.000000 
0.000000 0.000000 0.000000 
0.000000 0.000000 0.000000 

-0.000000 -0.000000 0.000000 
0.000000 -0.000000 0.000000 
0.000000 0.000000 0.000000 

-0.000000 -0.000000 0.000000 
0.000000 -0.000000 0.000000 
0.000000 0.000000 0.000000 

0.000000 0.000000 0.000000 
0.000000 0.000000 0.000000 
0.000000 0.000000 0.000000 

0.000000 0.000000 0.000000 
0.000000 0.000000 0.000000 
0.000000 0.000000 0.000000 

0.000000 -0.000000 0.000000 
0.000000 0.000000 0.000000 
0.000000 0.000000 0.000000 

-0.000000 0.000000 0.000000 
0.000000 -0.000000 0.000000 
0.000000 0.000000 0.000000 

-0.000000 0.000000 0.000000 
0.000000 -0.000000 0.000000 
0.000000 0.000000 0.000000 

-0.000000 0.000000 0.000000 
0.000000 -0.000000 0.000000 
0.000000 0.000000 0.000000 

-0.000000 0.000000 0.000000 
0.000000 -0.000000 0.000000 
0.000000 0.000000 0.000000 

-0.000000 -0.000000 0.000000 
0.000000 -0.000000 0.000000 
0.000000 0.000000 0.000000 

-0.000000 0.000000 0.000000 
0.000000 -0.000000 0.000000 
0.000000 0.000000 0.000000 

0.000000 0.000000 0.000000 
0.000000 0.000000 0.000000 
0.000000 0.000000 0.000000 

0.000000 -0.000000 0.000000 
0.000000 0.000000 0.000000 
0.000000 0.000000 0.000000 

0.000000 -0.000000 0.000000 
0.000000 0.000000 0.000000 
0.000000 0.000000 0.000000 

-0.000000 -0.000000 0.000000 
0.000000 -0.000000 0.000000 
0.000000 0.000000 0.000000 

0.000000 -0.000000 0.000000 
0.000000 0.000000 0.000000 
0.000000 0.000000 0.000000 

0.000000 0.000000 0.000000 
0.000000 0.000000 0.000000 
0.000000 0.000000 0.000000 

0.000000 -0.000000 0.000000 
0.000000 0.000000 0.000000 
0.000000 0.000000 0.000000 

0.000000 0.000000 0.000000 
0.000000 0.000000 0.000000 
0.000000 0.000000 0.000000 

-0.000000 -0.000000 0.000000 
0.000000 -0.000000 0.000000 
0.000000 0.000000 0.000000 

0.000000 0.000000 0.000000 
0.000000 0.000000 0.000000 
0.000000 0.000000 0.000000 

0.000000 0.000000 0.000000 
0.000000 0.000000 0.000000 
0.000000 0.000000 0.000000 

0.000000 -0.000000 0.000000 
0.000000 0.000000 0.000000 
0.000000 0.000000 0.000000 

0.000000 -0.000000 0.000000 
0.000000 0.000000 0.000000 
0.000000 0.000000 0.000000 

-0.000000 -0.000000 0.000000 
0.000000 -0.000000 0.000000 
0.000000 0.000000 0.000000 

-0.000000 -0.000000 0.000000 
0.000000 -0.000000 0.000000 
0.000000 0.000000 0.000000 

-0.000000 -0.000000 0.000000 
0.000000 -0.000000 0.000000 
0.000000 0.000000 0.000000 

0.000000 -0.000000 0.000000 
0.000000 0.000000 0.000000 
0.000000 0.000000 0.000000 

0.000000 -0.000000 0.000000 
0.000000 0.000000 0.000000 
0.000000 0.000000 0.000000 

-0.000000 -0.000000 0.000000 
0.000000 0.000000 0.000000 
0.000000 0.000000 0.000000 

-0.000000 -0.000000 0.000000 
0.000000 -0.000000 0.000000 
0.000000 0.000000 0.000000 

-0.000000 0.000000 0.000000 
0.000000 -0.000000 0.000000 
0.000000 0.000000 0.000000 

-0.000000 0.000000 0.000000 
0.000000 -0.000000 0.000000 
0.000000 0.000000 0.000000 

-0.000000 -0.000000 0.000000 
0.000000 -0.000000 0.000000 
0.000000 0.000000 0.000000 

-0.000000 -0.000000 0.000000 
0.000000 -0.000000 0.000000 
0.000000 0.000000 0.000000 

-0.000000 -0.000000 0.000000 
0.000000 -0.000000 0.000000 
0.000000 0.000000 0.000000 

-0.000000 -0.000000 0.000000 
0.000000 -0.000000 0.000000 
0.000000 0.000000 0.000000 

0.000000 -0.000000 0.000000 
0.000000 0.000000 0.000000 
0.000000 0.000000 0.000000 

0.000000 -0.000000 0.000000 
0.000000 0.000000 0.000000 
0.000000 0.000000 0.000000 

-0.000000 0.000000 0.000000 
0.000000 -0.000000 0.000000 
0.000000 0.000000 0.000000 

0.000000 0.000000 0.000000 
0.000000 0.000000 0.000000 
0.000000 0.000000 0.000000 

0.000000 -0.000000 0.000000 
0.000000 0.000000 0.000000 
0.000000 0.000000 0.000000 

0.000000 -0.000000 0.000000 
0.000000 0.000000 0.000000 
0.000000 0.000000 0.000000 

-0.000000 -0.000000 0.000000 
0.000000 -0.000000 0.000000 
0.000000 0.000000 0.000000 

-0.000000 -0.000000 0.000000 
0.000000 -0.000000 0.000000 
0.000000 0.000000 0.000000 

-0.000000 -0.000000 0.000000 
0.000000 -0.000000 0.000000 
0.000000 0.000000 0.000000 

-0.000000 -0.000000 0.000000 
0.000000 -0.000000 0.000000 
0.000000 0.000000 0.000000 

0.000000 -0.000000 0.000000 
0.000000 0.000000 0.000000 
0.000000 0.000000 0.000000 

-0.000000 -0.000000 0.000000 
0.000000 -0.000000 0.000000 
0.000000 0.000000 0.000000 

-0.000000 -0.000000 0.000000 
0.000000 -0.000000 0.000000 
0.000000 0.000000 0.000000 

0.000000 -0.000000 0.000000 
0.000000 0.000000 0.000000 
0.000000 0.000000 0.000000 

-0.000000 -0.000000 0.000000 
0.000000 -0.000000 0.000000 
0.000000 0.000000 0.000000 

0.000000 -0.000000 0.000000 
0.000000 0.000000 0.000000 
0.000000 0.000000 0.000000 

0.000000 0.000000 0.000000 
0.000000 0.000000 0.000000 
0.000000 0.000000 0.000000 

0.000000 0.000000 0.000000 
0.000000 0.000000 0.000000 
0.000000 0.000000 0.000000 

0.000000 -0.000000 0.000000 
0.000000 0.000000 0.000000 
0.000000 0.000000 0.000000 

0.000000 -0.000000 0.000000 
0.000000 0.000000 0.000000 
0.000000 0.000000 0.000000 

0.000000 0.000000 0.000000 
0.000000 0.000000 0.000000 
0.000000 0.000000 0.000000 

0.000000 0.000000 0.000000 
0.000000 0.000000 0.000000 
0.000000 0.000000 0.000000 

0.000000 -0.000000 0.000000 
0.000000 0.000000 0.000000 
0.000000 0.000000 0.000000 

0.000000 0.000000 0.000000 
0.000000 0.000000 0.000000 
0.000000 0.000000 0.000000 

0.000000 -0.000000 0.000000 
0.000000 0.000000 0.000000 
0.000000 0.000000 0.000000 

0.000000 -0.000000 0.000000 
0.000000 0.000000 0.000000 
0.000000 0.000000 0.000000 

0.000000 -0.000000 0.000000 
0.000000 0.000000 0.000000 
0.000000 0.000000 0.000000 

0.000000 0.000000 0.000000 
0.000000 0.000000 0.000000 
0.000000 0.000000 0.000000 

0.000000 -0.000000 0.000000 
0.000000 0.000000 0.000000 
0.000000 0.000000 0.000000 

0.000000 0.000000 0.000000 
0.000000 0.000000 0.000000 
0.000000 0.000000 0.000000 

0.000000 -0.000000 0.000000 
0.000000 0.000000 0.000000 
0.000000 0.000000 0.000000 

0.000000 0.000000 0.000000 
0.000000 0.000000 0.000000 
0.000000 0.000000 0.000000 

0.000000 -0.000000 0.000000 
0.000000 0.000000 0.000000 
0.000000 0.000000 0.000000 

0.000000 -0.000000 0.000000 
0.000000 0.000000 0.000000 
0.000000 0.000000 0.000000 

0.000000 0.000000 0.000000 
0.000000 0.000000 0.000000 
0.000000 0.000000 0.000000 

0.000000 -0.000000 0.000000 
0.000000 0.000000 0.000000 
0.000000 0.000000 0.000000 

-0.000000 -0.000000 0.000000 
0.000000 -0.000000 0.000000 
0.000000 0.000000 0.000000 

-0.000000 -0.000000 0.000000 
0.000000 -0.000000 0.000000 
0.000000 0.000000 0.000000 

-0.000000 -0.000000 0.000000 
0.000000 -0.000000 0.000000 
0.000000 0.000000 0.000000 

-0.000000 -0.000000 0.000000 
0.000000 -0.000000 0.000000 
0.000000 0.000000 0.000000 

-0.000000 0.000000 0.000000 
0.000000 -0.000000 0.000000 
0.000000 0.000000 0.000000 

-0.000000 0.000000 0.000000 
0.000000 -0.000000 0.000000 
0.000000 0.000000 0.000000 

-0.000000 0.000000 0.000000 
0.000000 -0.000000 0.000000 
0.000000 0.000000 0.000000 

0.000000 0.000000 0.000000 
0.000000 0.000000 0.000000 
0.000000 0.000000 0.000000 

0.000000 0.000000 0.000000 
0.000000 0.000000 0.000000 
0.000000 0.000000 0.000000 

0.000000 0.000000 0.000000 
0.000000 0.000000 0.000000 
0.000000 0.000000 0.000000 

-0.000000 0.000000 0.000000 
0.000000 -0.000000 0.000000 
0.000000 0.000000 0.000000 

-0.000000 0.000000 0.000000 
0.000000 -0.000000 0.000000 
0.000000 0.000000 0.000000 

-0.000000 0.000000 0.000000 
0.000000 -0.000000 0.000000 
0.000000 0.000000 0.000000 

0.000000 -0.000000 0.000000 
0.000000 0.000000 0.000000 
0.000000 0.000000 0.000000 

0.000000 0.000000 0.000000 
0.000000 0.000000 0.000000 
0.000000 0.000000 0.000000 

0.000000 0.000000 0.000000 
0.000000 0.000000 0.000000 
0.000000 0.000000 0.000000 

0.000000 0.000000 0.000000 
0.000000 0.000000 0.000000 
0.000000 0.000000 0.000000 

0.000000 0.000000 0.000000 
0.000000 -0.000000 0.000000 
0.000000 0.000000 0.000000 

-0.000000 -0.000000 0.000000 
0.000000 -0.000000 0.000000 
0.000000 0.000000 0.000000 

-0.000000 -0.000000 0.000000 
0.000000 -0.000000 0.000000 
0.000000 0.000000 0.000000 

-0.000000 0.000000 0.000000 
0.000000 -0.000000 0.000000 
0.000000 0.000000 0.000000 

0.000000 0.000000 0.000000 
0.000000 0.000000 0.000000 
0.000000 0.000000 0.000000 

0.000000 0.000000 0.000000 
0.000000 0.000000 0.000000 
0.000000 0.000000 0.000000 

0.000000 0.000000 0.000000 
0.000000 0.000000 0.000000 
0.000000 0.000000 0.000000 

0.000000 -0.000000 0.000000 
0.000000 0.000000 0.000000 
0.000000 0.000000 0.000000 

-0.000000 0.000000 0.000000 
0.000000 -0.000000 0.000000 
0.000000 0.000000 0.000000 

-0.000000 0.000000 0.000000 
0.000000 -0.000000 0.000000 
0.000000 0.000000 0.000000 

-0.000000 -0.000000 0.000000 
0.000000 -0.000000 0.000000 
0.000000 0.000000 0.000000 

0.000000 -0.000000 0.000000 
0.000000 0.000000 0.000000 
0.000000 0.000000 0.000000 

0.000000 0.000000 0.000000 
0.000000 0.000000 0.000000 
0.000000 0.000000 0.000000 

-0.000000 0.000000 0.000000 
0.000000 -0.000000 0.000000 
0.000000 0.000000 0.000000 

0.000000 -0.000000 0.000000 
0.000000 0.000000 0.000000 
0.000000 0.000000 0.000000 

-0.000000 -0.000000 0.000000 
0.000000 -0.000000 0.000000 
0.000000 0.000000 0.000000 

0.000000 -0.000000 0.000000 
0.000000 0.000000 0.000000 
0.000000 0.000000 0.000000 

0.000000 -0.000000 0.000000 
0.000000 0.000000 0.000000 
0.000000 0.000000 0.000000 

-0.000000 -0.000000 0.000000 
0.000000 -0.000000 0.000000 
0.000000 0.000000 0.000000 

0.000000 -0.000000 0.000000 
0.000000 0.000000 0.000000 
0.000000 0.000000 0.000000 

0.000000 -0.000000 0.000000 
0.000000 0.000000 0.000000 
0.000000 0.000000 0.000000 

0.000000 -0.000000 0.000000 
0.000000 0.000000 0.000000 
0.000000 0.000000 0.000000 

0.000000 0.000000 0.000000 
0.000000 0.000000 0.000000 
0.000000 0.000000 0.000000 

-0.000000 -0.000000 0.000000 
0.000000 -0.000000 0.000000 
0.000000 0.000000 0.000000 

0.000000 0.000000 0.000000 
0.000000 0.000000 0.000000 
0.000000 0.000000 0.000000 

0.000000 0.000000 0.000000 
0.000000 0.000000 0.000000 
0.000000 0.000000 0.000000 

0.000000 -0.000000 0.000000 
0.000000 0.000000 0.000000 
0.000000 0.000000 0.000000 

-0.000000 -0.000000 0.000000 
0.000000 -0.000000 0.000000 
0.000000 0.000000 0.000000 

0.000000 0.000000 0.000000 
0.000000 0.000000 0.000000 
0.000000 0.000000 0.000000 

-0.000000 -0.000000 0.000000 
0.000000 -0.000000 0.000000 
0.000000 0.000000 0.000000 

0.000000 0.000000 0.000000 
0.000000 0.000000 0.000000 
0.000000 0.000000 0.000000 

0.000000 0.000000 0.000000 
0.000000 0.000000 0.000000 
0.000000 0.000000 0.000000 

0.000000 0.000000 0.000000 
0.000000 0.000000 0.000000 
0.000000 0.000000 0.000000 

-0.000000 0.000000 0.000000 
0.000000 -0.000000 0.000000 
0.000000 0.000000 0.000000 

0.000000 0.000000 0.000000 
0.000000 0.000000 0.000000 
0.000000 0.000000 0.000000 

0.000000 0.000000 0.000000 
0.000000 0.000000 0.000000 
0.000000 0.000000 0.000000 

0.000000 0.000000 0.000000 
0.000000 0.000000 0.000000 
0.000000 0.000000 0.000000 

-0.000000 -0.000000 0.000000 
0.000000 -0.000000 0.000000 
0.000000 0.000000 0.000000 

0.000000 -0.000000 0.000000 
0.000000 0.000000 0.000000 
0.000000 0.000000 0.000000 

0.000000 -0.000000 0.000000 
0.000000 0.000000 0.000000 
0.000000 0.000000 0.000000 

0.000000 -0.000000 0.000000 
0.000000 0.000000 0.000000 
0.000000 0.000000 0.000000 

-0.000000 -0.000000 0.000000 
0.000000 -0.000000 0.000000 
0.000000 0.000000 0.000000 

-0.000000 -0.000000 0.000000 
0.000000 -0.000000 0.000000 
0.000000 0.000000 0.000000 

-0.000000 -0.000000 0.000000 
0.000000 -0.000000 0.000000 
0.000000 0.000000 0.000000 

-0.000000 -0.000000 0.000000 
0.000000 -0.000000 0.000000 
0.000000 0.000000 0.000000 

0.000000 0.000000 0.000000 
0.000000 0.000000 0.000000 
0.000000 0.000000 0.000000 

0.000000 -0.000000 0.000000 
0.000000 0.000000 0.000000 
0.000000 0.000000 0.000000 

0.000000 0.000000 0.000000 
0.000000 0.000000 0.000000 
0.000000 0.000000 0.000000 

0.000000 -0.000000 0.000000 
0.000000 0.000000 0.000000 
0.000000 0.000000 0.000000 

0.000000 -0.000000 0.000000 
0.000000 0.000000 0.000000 
0.000000 0.000000 0.000000 

0.000000 -0.000000 0.000000 
0.000000 0.000000 0.000000 
0.000000 0.000000 0.000000 

0.000000 -0.000000 0.000000 
0.000000 0.000000 0.000000 
0.000000 0.000000 0.000000 

0.000000 -0.000000 0.000000 
0.000000 0.000000 0.000000 
0.000000 0.000000 0.000000 

0.000000 -0.000000 0.000000 
0.000000 0.000000 0.000000 
0.000000 0.000000 0.000000 

0.000000 0.000000 0.000000 
0.000000 0.000000 0.000000 
0.000000 0.000000 0.000000 

0.000000 -0.000000 0.000000 
0.000000 0.000000 0.000000 
0.000000 0.000000 0.000000 

0.000000 -0.000000 0.000000 
0.000000 0.000000 0.000000 
0.000000 0.000000 0.000000 

-0.000000 -0.000000 0.000000 
0.000000 -0.000000 0.000000 
0.000000 0.000000 0.000000 

0.000000 -0.000000 0.000000 
0.000000 0.000000 0.000000 
0.000000 0.000000 0.000000 

0.000000 -0.000000 0.000000 
0.000000 0.000000 0.000000 
0.000000 0.000000 0.000000 

0.000000 -0.000000 0.000000 
0.000000 0.000000 0.000000 
0.000000 0.000000 0.000000 

-0.000000 -0.000000 0.000000 
0.000000 -0.000000 0.000000 
0.000000 0.000000 0.000000 

0.000000 0.000000 0.000000 
0.000000 0.000000 0.000000 
0.000000 0.000000 0.000000 

-0.000000 -0.000000 0.000000 
0.000000 0.000000 0.000000 
0.000000 0.000000 0.000000 

0.000000 -0.000000 0.000000 
0.000000 0.000000 0.000000 
0.000000 0.000000 0.000000 

-0.000000 -0.000000 0.000000 
0.000000 -0.000000 0.000000 
0.000000 0.000000 0.000000 

-0.000000 -0.000000 0.000000 
0.000000 -0.000000 0.000000 
0.000000 0.000000 0.000000 

-0.000000 -0.000000 0.000000 
0.000000 -0.000000 0.000000 
0.000000 0.000000 0.000000 

-0.000000 0.000000 0.000000 
0.000000 -0.000000 0.000000 
0.000000 0.000000 0.000000 

0.000000 0.000000 0.000000 
0.000000 0.000000 0.000000 
0.000000 0.000000 0.000000 

0.000000 0.000000 0.000000 
0.000000 0.000000 0.000000 
0.000000 0.000000 0.000000 

0.000000 0.000000 0.000000 
0.000000 0.000000 0.000000 
0.000000 0.000000 0.000000 

0.000000 -0.000000 0.000000 
0.000000 0.000000 0.000000 
0.000000 0.000000 0.000000 

-0.000000 0.000000 0.000000 
0.000000 -0.000000 0.000000 
0.000000 0.000000 0.000000 

-0.000000 0.000000 0.000000 
0.000000 -0.000000 0.000000 
0.000000 0.000000 0.000000 

-0.000000 0.000000 0.000000 
0.000000 -0.000000 0.000000 
0.000000 0.000000 0.000000 

-0.000000 0.000000 0.000000 
0.000000 -0.000000 0.000000 
0.000000 0.000000 0.000000 

-0.000000 0.000000 0.000000 
0.000000 -0.000000 0.000000 
0.000000 0.000000 0.000000 

-0.000000 0.000000 0.000000 
0.000000 -0.000000 0.000000 
0.000000 0.000000 0.000000 

0.000000 0.000000 0.000000 
0.000000 0.000000 0.000000 
0.000000 0.000000 0.000000 

0.000000 -0.000000 0.000000 
0.000000 0.000000 0.000000 
0.000000 0.000000 0.000000 

0.000000 0.000000 0.000000 
0.000000 0.000000 0.000000 
0.000000 0.000000 0.000000 

0.000000 0.000000 0.000000 
0.000000 0.000000 0.000000 
0.000000 0.000000 0.000000 

0.000000 0.000000 0.000000 
0.000000 0.000000 0.000000 
0.000000 0.000000 0.000000 

-0.000000 0.000000 0.000000 
0.000000 -0.000000 0.000000 
0.000000 0.000000 0.000000 

-0.000000 0.000000 0.000000 
0.000000 -0.000000 0.000000 
0.000000 0.000000 0.000000 

0.000000 0.000000 0.000000 
0.000000 0.000000 0.000000 
0.000000 0.000000 0.000000 

0.000000 0.000000 0.000000 
0.000000 -0.000000 0.000000 
0.000000 0.000000 0.000000 

0.000000 0.000000 0.000000 
0.000000 0.000000 0.000000 
0.000000 0.000000 0.000000 

0.000000 0.000000 0.000000 
0.000000 0.000000 0.000000 
0.000000 0.000000 0.000000 

0.000000 0.000000 0.000000 
0.000000 0.000000 0.000000 
0.000000 0.000000 0.000000 

-0.000000 0.000000 0.000000 
0.000000 -0.000000 0.000000 
0.000000 0.000000 0.000000 

-0.000000 0.000000 0.000000 
0.000000 -0.000000 0.000000 
0.000000 0.000000 0.000000 

-0.000000 -0.000000 0.000000 
0.000000 -0.000000 0.000000 
0.000000 0.000000 0.000000 

-0.000000 -0.000000 0.000000 
0.000000 -0.000000 0.000000 
0.000000 0.000000 0.000000 

0.000000 -0.000000 0.000000 
0.000000 0.000000 0.000000 
0.000000 0.000000 0.000000 

-0.000000 -0.000000 0.000000 
0.000000 -0.000000 0.000000 
0.000000 0.000000 0.000000 

0.000000 -0.000000 0.000000 
0.000000 0.000000 0.000000 
0.000000 0.000000 0.000000 

0.000000 -0.000000 0.000000 
0.000000 0.000000 0.000000 
0.000000 0.000000 0.000000 

0.000000 -0.000000 0.000000 
0.000000 0.000000 0.000000 
0.000000 0.000000 0.000000 

0.000000 0.000000 0.000000 
0.000000 0.000000 0.000000 
0.000000 0.000000 0.000000 

-0.000000 -0.000000 0.000000 
0.000000 -0.000000 0.000000 
0.000000 0.000000 0.000000 

-0.000000 0.000000 0.000000 
0.000000 -0.000000 0.000000 
0.000000 0.000000 0.000000 

0.000000 0.000000 0.000000 
0.000000 0.000000 0.000000 
0.000000 0.000000 0.000000 

-0.000000 -0.000000 0.000000 
0.000000 -0.000000 0.000000 
0.000000 0.000000 0.000000 

0.000000 0.000000 0.000000 
0.000000 0.000000 0.000000 
0.000000 0.000000 0.000000 

-0.000000 0.000000 0.000000 
0.000000 -0.000000 0.000000 
0.000000 0.000000 0.000000 

-0.000000 0.000000 0.000000 
0.000000 -0.000000 0.000000 
0.000000 0.000000 0.000000 

0.000000 0.000000 0.000000 
0.000000 0.000000 0.000000 
0.000000 0.000000 0.000000 

-0.000000 0.000000 0.000000 
0.000000 -0.000000 0.000000 
0.000000 0.000000 0.000000 

-0.000000 0.000000 0.000000 
0.000000 -0.000000 0.000000 
0.000000 0.000000 0.000000 

0.000000 0.000000 0.000000 
0.000000 0.000000 0.000000 
0.000000 0.000000 0.000000 

0.000000 0.000000 0.000000 
0.000000 0.000000 0.000000 
0.000000 0.000000 0.000000 

-0.000000 0.000000 0.000000 
0.000000 -0.000000 0.000000 
0.000000 0.000000 0.000000 

0.000000 0.000000 0.000000 
0.000000 0.000000 0.000000 
0.000000 0.000000 0.000000 

0.000000 0.000000 0.000000 
0.000000 0.000000 0.000000 
0.000000 0.000000 0.000000 

0.000000 0.000000 0.000000 
0.000000 0.000000 0.000000 
0.000000 0.000000 0.000000 

0.000000 0.000000 0.000000 
0.000000 0.000000 0.000000 
0.000000 0.000000 0.000000 

-0.000000 0.000000 0.000000 
0.000000 -0.000000 0.000000 
0.000000 0.000000 0.000000 

0.000000 0.000000 0.000000 
0.000000 0.000000 0.000000 
0.000000 0.000000 0.000000 

-0.000000 0.000000 0.000000 
0.000000 -0.000000 0.000000 
0.000000 0.000000 0.000000 

-0.000000 0.000000 0.000000 
0.000000 -0.000000 0.000000 
0.000000 0.000000 0.000000 

0.000000 0.000000 0.000000 
0.000000 0.000000 0.000000 
0.000000 0.000000 0.000000 

-0.000000 -0.000000 0.000000 
0.000000 0.000000 0.000000 
0.000000 0.000000 0.000000 

0.000000 -0.000000 0.000000 
0.000000 0.000000 0.000000 
0.000000 0.000000 0.000000 

0.000000 0.000000 0.000000 
0.000000 0.000000 0.000000 
0.000000 0.000000 0.000000 

0.000000 0.000000 0.000000 
0.000000 0.000000 0.000000 
0.000000 0.000000 0.000000 

0.000000 -0.000000 0.000000 
0.000000 0.000000 0.000000 
0.000000 0.000000 0.000000 

-0.000000 -0.000000 0.000000 
0.000000 -0.000000 0.000000 
0.000000 0.000000 0.000000 

-0.000000 -0.000000 0.000000 
0.000000 -0.000000 0.000000 
0.000000 0.000000 0.000000 

-0.000000 -0.000000 0.000000 
0.000000 -0.000000 0.000000 
0.000000 0.000000 0.000000 

-0.000000 -0.000000 0.000000 
0.000000 -0.000000 0.000000 
0.000000 0.000000 0.000000 

-0.000000 -0.000000 0.000000 
0.000000 -0.000000 0.000000 
0.000000 0.000000 0.000000 

-0.000000 -0.000000 0.000000 
0.000000 -0.000000 0.000000 
0.000000 0.000000 0.000000 

-0.000000 -0.000000 0.000000 
0.000000 -0.000000 0.000000 
0.000000 0.000000 0.000000 

-0.000000 -0.000000 0.000000 
0.000000 -0.000000 0.000000 
0.000000 0.000000 0.000000 

0.000000 -0.000000 0.000000 
0.000000 0.000000 0.000000 
0.000000 0.000000 0.000000 

-0.000000 -0.000000 0.000000 
0.000000 0.000000 0.000000 
0.000000 0.000000 0.000000 

0.000000 0.000000 0.000000 
0.000000 0.000000 0.000000 
0.000000 0.000000 0.000000 

0.000000 0.000000 0.000000 
0.000000 0.000000 0.000000 
0.000000 0.000000 0.000000 

-0.000000 0.000000 0.000000 
0.000000 -0.000000 0.000000 
0.000000 0.000000 0.000000 

0.000000 -0.000000 0.000000 
0.000000 0.000000 0.000000 
0.000000 0.000000 0.000000 

0.000000 -0.000000 0.000000 
0.000000 0.000000 0.000000 
0.000000 0.000000 0.000000 

0.000000 -0.000000 0.000000 
0.000000 0.000000 0.000000 
0.000000 0.000000 0.000000 

-0.000000 0.000000 0.000000 
0.000000 -0.000000 0.000000 
0.000000 0.000000 0.000000 

-0.000000 -0.000000 0.000000 
0.000000 -0.000000 0.000000 
0.000000 0.000000 0.000000 

-0.000000 -0.000000 0.000000 
0.000000 -0.000000 0.000000 
0.000000 0.000000 0.000000 

0.000000 -0.000000 0.000000 
0.000000 0.000000 0.000000 
0.000000 0.000000 0.000000 

0.000000 0.000000 0.000000 
0.000000 0.000000 0.000000 
0.000000 0.000000 0.000000 

-0.000000 -0.000000 0.000000 
0.000000 -0.000000 0.000000 
0.000000 0.000000 0.000000 

0.000000 0.000000 0.000000 
0.000000 0.000000 0.000000 
0.000000 0.000000 0.000000 

0.000000 0.000000 0.000000 
0.000000 0.000000 0.000000 
0.000000 0.000000 0.000000 

-0.000000 0.000000 0.000000 
0.000000 -0.000000 0.000000 
0.000000 0.000000 0.000000 

0.000000 0.000000 0.000000 
0.000000 0.000000 0.000000 
0.000000 0.000000 0.000000 

-0.000000 0.000000 0.000000 
0.000000 -0.000000 0.000000 
0.000000 0.000000 0.000000 

0.000000 0.000000 0.000000 
0.000000 0.000000 0.000000 
0.000000 0.000000 0.000000 

-0.000000 -0.000000 0.000000 
0.000000 -0.000000 0.000000 
0.000000 0.000000 0.000000 

0.000000 -0.000000 0.000000 
0.000000 0.000000 0.000000 
0.000000 0.000000 0.000000 

0.000000 -0.000000 0.000000 
0.000000 0.000000 0.000000 
0.000000 0.000000 0.000000 

0.000000 0.000000 0.000000 
0.000000 0.000000 0.000000 
0.000000 0.000000 0.000000 

0.000000 0.000000 0.000000 
0.000000 0.000000 0.000000 
0.000000 0.000000 0.000000 

-0.000000 -0.000000 0.000000 
0.000000 -0.000000 0.000000 
0.000000 0.000000 0.000000 

0.000000 -0.000000 0.000000 
0.000000 0.000000 0.000000 
0.000000 0.000000 0.000000 

-0.000000 -0.000000 0.000000 
0.000000 -0.000000 0.000000 
0.000000 0.000000 0.000000 

-0.000000 0.000000 0.000000 
0.000000 -0.000000 0.000000 
0.000000 0.000000 0.000000 

0.000000 0.000000 0.000000 
0.000000 0.000000 0.000000 
0.000000 0.000000 0.000000 

0.000000 -0.000000 0.000000 
0.000000 0.000000 0.000000 
0.000000 0.000000 0.000000 

-0.000000 0.000000 0.000000 
0.000000 -0.000000 0.000000 
0.000000 0.000000 0.000000 

-0.000000 0.000000 0.000000 
0.000000 -0.000000 0.000000 
0.000000 0.000000 0.000000 

-0.000000 0.000000 0.000000 
0.000000 -0.000000 0.000000 
0.000000 0.000000 0.000000 

0.000000 -0.000000 0.000000 
0.000000 0.000000 0.000000 
0.000000 0.000000 0.000000 

-0.000000 0.000000 0.000000 
0.000000 0.000000 0.000000 
0.000000 0.000000 0.000000 

0.000000 0.000000 0.000000 
0.000000 0.000000 0.000000 
0.000000 0.000000 0.000000 

-0.000000 0.000000 0.000000 
0.000000 -0.000000 0.000000 
0.000000 0.000000 0.000000 

0.000000 0.000000 0.000000 
0.000000 0.000000 0.000000 
0.000000 0.000000 0.000000 

0.000000 0.000000 0.000000 
0.000000 0.000000 0.000000 
0.000000 0.000000 0.000000 

-0.000000 0.000000 0.000000 
0.000000 -0.000000 0.000000 
0.000000 0.000000 0.000000 

0.000000 0.000000 0.000000 
0.000000 0.000000 0.000000 
0.000000 0.000000 0.000000 

-0.000000 -0.000000 0.000000 
0.000000 0.000000 0.000000 
0.000000 0.000000 0.000000 

0.000000 -0.000000 0.000000 
0.000000 0.000000 0.000000 
0.000000 0.000000 0.000000 

0.000000 0.000000 0.000000 
0.000000 0.000000 0.000000 
0.000000 0.000000 0.000000 

-0.000000 -0.000000 0.000000 
0.000000 -0.000000 0.000000 
0.000000 0.000000 0.000000 

-0.000000 -0.000000 0.000000 
0.000000 -0.000000 0.000000 
0.000000 0.000000 0.000000 

-0.000000 -0.000000 0.000000 
0.000000 -0.000000 0.000000 
0.000000 0.000000 0.000000 

0.000000 0.000000 0.000000 
0.000000 0.000000 0.000000 
0.000000 0.000000 0.000000 

0.000000 0.000000 0.000000 
0.000000 0.000000 0.000000 
0.000000 0.000000 0.000000 

-0.000000 -0.000000 0.000000 
0.000000 -0.000000 0.000000 
0.000000 0.000000 0.000000 

0.000000 0.000000 0.000000 
0.000000 0.000000 0.000000 
0.000000 0.000000 0.000000 

0.000000 0.000000 0.000000 
0.000000 0.000000 0.000000 
0.000000 0.000000 0.000000 

-0.000000 0.000000 0.000000 
0.000000 -0.000000 0.000000 
0.000000 0.000000 0.000000 

0.000000 0.000000 0.000000 
0.000000 0.000000 0.000000 
0.000000 0.000000 0.000000 

0.000000 -0.000000 0.000000 
0.000000 0.000000 0.000000 
0.000000 0.000000 0.000000 

-0.000000 -0.000000 0.000000 
0.000000 -0.000000 0.000000 
0.000000 0.000000 0.000000 

-0.000000 -0.000000 0.000000 
0.000000 -0.000000 0.000000 
0.000000 0.000000 0.000000 

0.000000 -0.000000 0.000000 
0.000000 0.000000 0.000000 
0.000000 0.000000 0.000000 

0.000000 0.000000 0.000000 
0.000000 0.000000 0.000000 
0.000000 0.000000 0.000000 

0.000000 0.000000 0.000000 
0.000000 0.000000 0.000000 
0.000000 0.000000 0.000000 

0.000000 -0.000000 0.000000 
0.000000 0.000000 0.000000 
0.000000 0.000000 0.000000 

-0.000000 0.000000 0.000000 
0.000000 -0.000000 0.000000 
0.000000 0.000000 0.000000 

0.000000 0.000000 0.000000 
0.000000 0.000000 0.000000 
0.000000 0.000000 0.000000 

-0.000000 0.000000 0.000000 
0.000000 -0.000000 0.000000 
0.000000 0.000000 0.000000 

-0.000000 0.000000 0.000000 
0.000000 -0.000000 0.000000 
0.000000 0.000000 0.000000 

-0.000000 0.000000 0.000000 
0.000000 -0.000000 0.000000 
0.000000 0.000000 0.000000 

-0.000000 -0.000000 0.000000 
0.000000 -0.000000 0.000000 
0.000000 0.000000 0.000000 

-0.000000 -0.000000 0.000000 
0.000000 -0.000000 0.000000 
0.000000 0.000000 0.000000 

0.000000 0.000000 0.000000 
0.000000 0.000000 0.000000 
0.000000 0.000000 0.000000 

0.000000 -0.000000 0.000000 
0.000000 0.000000 0.000000 
0.000000 0.000000 0.000000 

0.000000 0.000000 0.000000 
0.000000 0.000000 0.000000 
0.000000 0.000000 0.000000 

0.000000 0.000000 0.000000 
0.000000 0.000000 0.000000 
0.000000 0.000000 0.000000 

0.000000 0.000000 0.000000 
0.000000 0.000000 0.000000 
0.000000 0.000000 0.000000 

0.000000 0.000000 0.000000 
0.000000 0.000000 0.000000 
0.000000 0.000000 0.000000 

-0.000000 0.000000 0.000000 
0.000000 -0.000000 0.000000 
0.000000 0.000000 0.000000 

-0.000000 0.000000 0.000000 
0.000000 -0.000000 0.000000 
0.000000 0.000000 0.000000 

0.000000 0.000000 0.000000 
0.000000 0.000000 0.000000 
0.000000 0.000000 0.000000 

0.000000 -0.000000 0.000000 
0.000000 0.000000 0.000000 
0.000000 0.000000 0.000000 

0.000000 0.000000 0.000000 
0.000000 0.000000 0.000000 
0.000000 0.000000 0.000000 

0.000000 0.000000 0.000000 
0.000000 0.000000 0.000000 
0.000000 0.000000 0.000000 

0.000000 -0.000000 0.000000 
0.000000 0.000000 0.000000 
0.000000 0.000000 0.000000 

0.000000 0.000000 0.000000 
0.000000 0.000000 0.000000 
0.000000 0.000000 0.000000 

-0.000000 -0.000000 0.000000 
0.000000 -0.000000 0.000000 
0.000000 0.000000 0.000000 

0.000000 0.000000 0.000000 
0.000000 0.000000 0.000000 
0.000000 0.000000 0.000000 

0.000000 -0.000000 0.000000 
0.000000 0.000000 0.000000 
0.000000 0.000000 0.000000 

-0.000000 -0.000000 0.000000 
0.000000 -0.000000 0.000000 
0.000000 0.000000 0.000000 

0.000000 -0.000000 0.000000 
0.000000 0.000000 0.000000 
0.000000 0.000000 0.000000 

-0.000000 0.000000 0.000000 
0.000000 -0.000000 0.000000 
0.000000 0.000000 0.000000 

-0.000000 0.000000 0.000000 
0.000000 -0.000000 0.000000 
0.000000 0.000000 0.000000 

0.000000 0.000000 0.000000 
0.000000 0.000000 0.000000 
0.000000 0.000000 0.000000 

0.000000 0.000000 0.000000 
0.000000 0.000000 0.000000 
0.000000 0.000000 0.000000 

-0.000000 -0.000000 0.000000 
0.000000 -0.000000 0.000000 
0.000000 0.000000 0.000000 

-0.000000 -0.000000 0.000000 
0.000000 -0.000000 0.000000 
0.000000 0.000000 0.000000 

-0.000000 0.000000 0.000000 
0.000000 -0.000000 0.000000 
0.000000 0.000000 0.000000 

0.000000 0.000000 0.000000 
0.000000 0.000000 0.000000 
0.000000 0.000000 0.000000 

-0.000000 -0.000000 0.000000 
0.000000 -0.000000 0.000000 
0.000000 0.000000 0.000000 

-0.000000 -0.000000 0.000000 
0.000000 -0.000000 0.000000 
0.000000 0.000000 0.000000 

-0.000000 -0.000000 0.000000 
0.000000 -0.000000 0.000000 
0.000000 0.000000 0.000000 

-0.000000 -0.000000 0.000000 
0.000000 -0.000000 0.000000 
0.000000 0.000000 0.000000 

-0.000000 -0.000000 0.000000 
0.000000 -0.000000 0.000000 
0.000000 0.000000 0.000000 

0.000000 -0.000000 0.000000 
0.000000 0.000000 0.000000 
0.000000 0.000000 0.000000 

0.000000 0.000000 0.000000 
0.000000 0.000000 0.000000 
0.000000 0.000000 0.000000 

-0.000000 -0.000000 0.000000 
0.000000 -0.000000 0.000000 
0.000000 0.000000 0.000000 

-0.000000 0.000000 0.000000 
0.000000 -0.000000 0.000000 
0.000000 0.000000 0.000000 

-0.000000 0.000000 0.000000 
0.000000 -0.000000 0.000000 
0.000000 0.000000 0.000000 

-0.000000 0.000000 0.000000 
0.000000 -0.000000 0.000000 
0.000000 0.000000 0.000000 

-0.000000 0.000000 0.000000 
0.000000 -0.000000 0.000000 
0.000000 0.000000 0.000000 

0.000000 -0.000000 0.000000 
0.000000 0.000000 0.000000 
0.000000 0.000000 0.000000 

0.000000 -0.000000 0.000000 
0.000000 0.000000 0.000000 
0.000000 0.000000 0.000000 

-0.000000 0.000000 0.000000 
0.000000 -0.000000 0.000000 
0.000000 0.000000 0.000000 

0.000000 -0.000000 0.000000 
0.000000 0.000000 0.000000 
0.000000 0.000000 0.000000 

0.000000 0.000000 0.000000 
0.000000 0.000000 0.000000 
0.000000 0.000000 0.000000 

0.000000 0.000000 0.000000 
0.000000 0.000000 0.000000 
0.000000 0.000000 0.000000 

0.000000 0.000000 0.000000 
0.000000 0.000000 0.000000 
0.000000 0.000000 0.000000 

-0.000000 0.000000 0.000000 
0.000000 -0.000000 0.000000 
0.000000 0.000000 0.000000 

-0.000000 -0.000000 0.000000 
0.000000 -0.000000 0.000000 
0.000000 0.000000 0.000000 

-0.000000 -0.000000 0.000000 
0.000000 -0.000000 0.000000 
0.000000 0.000000 0.000000 

-0.000000 -0.000000 0.000000 
0.000000 -0.000000 0.000000 
0.000000 0.000000 0.000000 

0.000000 0.000000 0.000000 
0.000000 0.000000 0.000000 
0.000000 0.000000 0.000000 

-0.000000 0.000000 0.000000 
0.000000 -0.000000 0.000000 
0.000000 0.000000 0.000000 

0.000000 0.000000 0.000000 
0.000000 0.000000 0.000000 
0.000000 0.000000 0.000000 

0.000000 0.000000 0.000000 
0.000000 -0.000000 0.000000 
0.000000 0.000000 0.000000 

0.000000 0.000000 0.000000 
0.000000 0.000000 0.000000 
0.000000 0.000000 0.000000 

-0.000000 0.000000 0.000000 
0.000000 -0.000000 0.000000 
0.000000 0.000000 0.000000 

0.000000 0.000000 0.000000 
0.000000 0.000000 0.000000 
0.000000 0.000000 0.000000 

0.000000 -0.000000 0.000000 
0.000000 0.000000 0.000000 
0.000000 0.000000 0.000000 

-0.000000 0.000000 0.000000 
0.000000 -0.000000 0.000000 
0.000000 0.000000 0.000000 

0.000000 -0.000000 0.000000 
0.000000 -0.000000 0.000000 
0.000000 0.000000 0.000000 

0.000000 -0.000000 0.000000 
0.000000 0.000000 0.000000 
0.000000 0.000000 0.000000 

-0.000000 -0.000000 0.000000 
0.000000 -0.000000 0.000000 
0.000000 0.000000 0.000000 

-0.000000 -0.000000 0.000000 
0.000000 -0.000000 0.000000 
0.000000 0.000000 0.000000 

0.000000 0.000000 0.000000 
0.000000 0.000000 0.000000 
0.000000 0.000000 0.000000 

0.000000 -0.000000 0.000000 
0.000000 0.000000 0.000000 
0.000000 0.000000 0.000000 

-0.000000 -0.000000 0.000000 
0.000000 -0.000000 0.000000 
0.000000 0.000000 0.000000 

-0.000000 0.000000 0.000000 
0.000000 -0.000000 0.000000 
0.000000 0.000000 0.000000 

0.000000 0.000000 0.000000 
0.000000 0.000000 0.000000 
0.000000 0.000000 0.000000 

0.000000 -0.000000 0.000000 
0.000000 0.000000 0.000000 
0.000000 0.000000 0.000000 

-0.000000 0.000000 0.000000 
0.000000 -0.000000 0.000000 
0.000000 0.000000 0.000000 

-0.000000 0.000000 0.000000 
0.000000 -0.000000 0.000000 
0.000000 0.000000 0.000000 

0.000000 0.000000 0.000000 
0.000000 0.000000 0.000000 
0.000000 0.000000 0.000000 

-0.000000 0.000000 0.000000 
0.000000 -0.000000 0.000000 
0.000000 0.000000 0.000000 

-0.000000 0.000000 0.000000 
0.000000 -0.000000 0.000000 
0.000000 0.000000 0.000000 

-0.000000 0.000000 0.000000 
0.000000 -0.000000 0.000000 
0.000000 0.000000 0.000000 

0.000000 0.000000 0.000000 
0.000000 0.000000 0.000000 
0.000000 0.000000 0.000000 

0.000000 -0.000000 0.000000 
0.000000 0.000000 0.000000 
0.000000 0.000000 0.000000 

-0.000000 0.000000 0.000000 
0.000000 -0.000000 0.000000 
0.000000 0.000000 0.000000 

-0.000000 -0.000000 0.000000 
0.000000 -0.000000 0.000000 
0.000000 0.000000 0.000000 

-0.000000 -0.000000 0.000000 
0.000000 -0.000000 0.000000 
0.000000 0.000000 0.000000 

-0.000000 0.000000 0.000000 
0.000000 0.000000 0.000000 
0.000000 0.000000 0.000000 

-0.000000 -0.000000 0.000000 
0.000000 -0.000000 0.000000 
0.000000 0.000000 0.000000 

0.000000 -0.000000 0.000000 
0.000000 -0.000000 0.000000 
0.000000 0.000000 0.000000 

0.000000 -0.000000 0.000000 
0.000000 0.000000 0.000000 
0.000000 0.000000 0.000000 

-0.000000 -0.000000 0.000000 
0.000000 0.000000 0.000000 
0.000000 0.000000 0.000000 

0.000000 0.000000 0.000000 
0.000000 0.000000 0.000000 
0.000000 0.000000 0.000000 

0.000000 -0.000000 0.000000 
0.000000 0.000000 0.000000 
0.000000 0.000000 0.000000 

-0.000000 0.000000 0.000000 
0.000000 -0.000000 0.000000 
0.000000 0.000000 0.000000 

0.000000 -0.000000 0.000000 
0.000000 0.000000 0.000000 
0.000000 0.000000 0.000000 

-0.000000 -0.000000 0.000000 
0.000000 -0.000000 0.000000 
0.000000 0.000000 0.000000 

-0.000000 -0.000000 0.000000 
0.000000 -0.000000 0.000000 
0.000000 0.000000 0.000000 

-0.000000 0.000000 0.000000 
0.000000 -0.000000 0.000000 
0.000000 0.000000 0.000000 

-0.000000 0.000000 0.000000 
0.000000 -0.000000 0.000000 
0.000000 0.000000 0.000000 

-0.000000 0.000000 0.000000 
0.000000 -0.000000 0.000000 
0.000000 0.000000 0.000000 

0.000000 0.000000 0.000000 
0.000000 0.000000 0.000000 
0.000000 0.000000 0.000000 

-0.000000 0.000000 0.000000 
0.000000 -0.000000 0.000000 
0.000000 0.000000 0.000000 

-0.000000 0.000000 0.000000 
0.000000 -0.000000 0.000000 
0.000000 0.000000 0.000000 

0.000000 0.000000 0.000000 
0.000000 0.000000 0.000000 
0.000000 0.000000 0.000000 

-0.000000 0.000000 0.000000 
0.000000 -0.000000 0.000000 
0.000000 0.000000 0.000000 

0.000000 0.000000 0.000000 
0.000000 0.000000 0.000000 
0.000000 0.000000 0.000000 

0.000000 0.000000 0.000000 
0.000000 0.000000 0.000000 
0.000000 0.000000 0.000000 

-0.000000 -0.000000 0.000000 
0.000000 -0.000000 0.000000 
0.000000 0.000000 0.000000 

-0.000000 0.000000 0.000000 
0.000000 -0.000000 0.000000 
0.000000 0.000000 0.000000 

0.000000 -0.000000 0.000000 
0.000000 0.000000 0.000000 
0.000000 0.000000 0.000000 

-0.000000 0.000000 0.000000 
0.000000 -0.000000 0.000000 
0.000000 0.000000 0.000000 

0.000000 -0.000000 0.000000 
0.000000 0.000000 0.000000 
0.000000 0.000000 0.000000 

TENSORS STRAIN float 
-0.000000 0.000000 0.000000 
0.000000 0.000000 0.000000 
0.000000 0.000000 0.000000 

-0.000000 0.000000 0.000000 
0.000000 -0.000000 0.000000 
0.000000 0.000000 0.000000 

0.000000 -0.000000 0.000000 
0.000000 -0.000000 0.000000 
0.000000 0.000000 0.000000 

0.000000 -0.000000 0.000000 
0.000000 -0.000000 0.000000 
0.000000 0.000000 0.000000 

0.000000 -0.000000 0.000000 
0.000000 0.000000 0.000000 
0.000000 0.000000 0.000000 

0.000000 -0.000000 0.000000 
0.000000 0.000000 0.000000 
0.000000 0.000000 0.000000 

0.000000 -0.000000 0.000000 
0.000000 -0.000000 0.000000 
0.000000 0.000000 0.000000 

0.000000 0.000000 0.000000 
0.000000 -0.000000 0.000000 
0.000000 0.000000 0.000000 

0.000000 0.000000 0.000000 
0.000000 0.000000 0.000000 
0.000000 0.000000 0.000000 

0.000000 0.000000 0.000000 
0.000000 0.000000 0.000000 
0.000000 0.000000 0.000000 

0.000000 -0.000000 0.000000 
0.000000 -0.000000 0.000000 
0.000000 0.000000 0.000000 

-0.000000 0.000000 0.000000 
0.000000 -0.000000 0.000000 
0.000000 0.000000 0.000000 

-0.000000 0.000000 0.000000 
0.000000 -0.000000 0.000000 
0.000000 0.000000 0.000000 

-0.000000 0.000000 0.000000 
0.000000 -0.000000 0.000000 
0.000000 0.000000 0.000000 

-0.000000 0.000000 0.000000 
0.000000 -0.000000 0.000000 
0.000000 0.000000 0.000000 

0.000000 -0.000000 0.000000 
0.000000 0.000000 0.000000 
0.000000 0.000000 0.000000 

0.000000 -0.000000 0.000000 
0.000000 0.000000 0.000000 
0.000000 0.000000 0.000000 

0.000000 -0.000000 0.000000 
0.000000 -0.000000 0.000000 
0.000000 0.000000 0.000000 

-0.000000 0.000000 0.000000 
0.000000 -0.000000 0.000000 
0.000000 0.000000 0.000000 

0.000000 -0.000000 0.000000 
0.000000 -0.000000 0.000000 
0.000000 0.000000 0.000000 

-0.000000 0.000000 0.000000 
0.000000 0.000000 0.000000 
0.000000 0.000000 0.000000 

-0.000000 0.000000 0.000000 
0.000000 -0.000000 0.000000 
0.000000 0.000000 0.000000 

-0.000000 -0.000000 0.000000 
0.000000 0.000000 0.000000 
0.000000 0.000000 0.000000 

0.000000 -0.000000 0.000000 
0.000000 -0.000000 0.000000 
0.000000 0.000000 0.000000 

0.000000 -0.000000 0.000000 
0.000000 0.000000 0.000000 
0.000000 0.000000 0.000000 

0.000000 -0.000000 0.000000 
0.000000 0.000000 0.000000 
0.000000 0.000000 0.000000 

0.000000 -0.000000 0.000000 
0.000000 -0.000000 0.000000 
0.000000 0.000000 0.000000 

0.000000 -0.000000 0.000000 
0.000000 0.000000 0.000000 
0.000000 0.000000 0.000000 

0.000000 -0.000000 0.000000 
0.000000 0.000000 0.000000 
0.000000 0.000000 0.000000 

0.000000 0.000000 0.000000 
0.000000 0.000000 0.000000 
0.000000 0.000000 0.000000 

0.000000 0.000000 0.000000 
0.000000 0.000000 0.000000 
0.000000 0.000000 0.000000 

0.000000 0.000000 0.000000 
0.000000 -0.000000 0.000000 
0.000000 0.000000 0.000000 

0.000000 -0.000000 0.000000 
0.000000 0.000000 0.000000 
0.000000 0.000000 0.000000 

0.000000 -0.000000 0.000000 
0.000000 0.000000 0.000000 
0.000000 0.000000 0.000000 

-0.000000 0.000000 0.000000 
0.000000 0.000000 0.000000 
0.000000 0.000000 0.000000 

-0.000000 0.000000 0.000000 
0.000000 0.000000 0.000000 
0.000000 0.000000 0.000000 

0.000000 -0.000000 0.000000 
0.000000 -0.000000 0.000000 
0.000000 0.000000 0.000000 

0.000000 -0.000000 0.000000 
0.000000 -0.000000 0.000000 
0.000000 0.000000 0.000000 

0.000000 -0.000000 0.000000 
0.000000 0.000000 0.000000 
0.000000 0.000000 0.000000 

0.000000 -0.000000 0.000000 
0.000000 0.000000 0.000000 
0.000000 0.000000 0.000000 

-0.000000 -0.000000 0.000000 
0.000000 0.000000 0.000000 
0.000000 0.000000 0.000000 

-0.000000 0.000000 0.000000 
0.000000 0.000000 0.000000 
0.000000 0.000000 0.000000 

-0.000000 -0.000000 0.000000 
0.000000 0.000000 0.000000 
0.000000 0.000000 0.000000 

-0.000000 0.000000 0.000000 
0.000000 -0.000000 0.000000 
0.000000 0.000000 0.000000 

-0.000000 -0.000000 0.000000 
0.000000 0.000000 0.000000 
0.000000 0.000000 0.000000 

-0.000000 -0.000000 0.000000 
0.000000 0.000000 0.000000 
0.000000 0.000000 0.000000 

-0.000000 -0.000000 0.000000 
0.000000 0.000000 0.000000 
0.000000 0.000000 0.000000 

-0.000000 -0.000000 0.000000 
0.000000 -0.000000 0.000000 
0.000000 0.000000 0.000000 

-0.000000 -0.000000 0.000000 
0.000000 0.000000 0.000000 
0.000000 0.000000 0.000000 

-0.000000 0.000000 0.000000 
0.000000 0.000000 0.000000 
0.000000 0.000000 0.000000 

-0.000000 0.000000 0.000000 
0.000000 0.000000 0.000000 
0.000000 0.000000 0.000000 

-0.000000 0.000000 0.000000 
0.000000 0.000000 0.000000 
0.000000 0.000000 0.000000 

0.000000 0.000000 0.000000 
0.000000 0.000000 0.000000 
0.000000 0.000000 0.000000 

0.000000 0.000000 0.000000 
0.000000 -0.000000 0.000000 
0.000000 0.000000 0.000000 

0.000000 0.000000 0.000000 
0.000000 -0.000000 0.000000 
0.000000 0.000000 0.000000 

0.000000 0.000000 0.000000 
0.000000 -0.000000 0.000000 
0.000000 0.000000 0.000000 

-0.000000 -0.000000 0.000000 
0.000000 0.000000 0.000000 
0.000000 0.000000 0.000000 

0.000000 0.000000 0.000000 
0.000000 -0.000000 0.000000 
0.000000 0.000000 0.000000 

0.000000 0.000000 0.000000 
0.000000 -0.000000 0.000000 
0.000000 0.000000 0.000000 

0.000000 0.000000 0.000000 
0.000000 -0.000000 0.000000 
0.000000 0.000000 0.000000 

0.000000 0.000000 0.000000 
0.000000 -0.000000 0.000000 
0.000000 0.000000 0.000000 

0.000000 -0.000000 0.000000 
0.000000 -0.000000 0.000000 
0.000000 0.000000 0.000000 

0.000000 -0.000000 0.000000 
0.000000 -0.000000 0.000000 
0.000000 0.000000 0.000000 

0.000000 -0.000000 0.000000 
0.000000 -0.000000 0.000000 
0.000000 0.000000 0.000000 

0.000000 -0.000000 0.000000 
0.000000 -0.000000 0.000000 
0.000000 0.000000 0.000000 

0.000000 -0.000000 0.000000 
0.000000 0.000000 0.000000 
0.000000 0.000000 0.000000 

0.000000 -0.000000 0.000000 
0.000000 -0.000000 0.000000 
0.000000 0.000000 0.000000 

0.000000 -0.000000 0.000000 
0.000000 -0.000000 0.000000 
0.000000 0.000000 0.000000 

0.000000 -0.000000 0.000000 
0.000000 -0.000000 0.000000 
0.000000 0.000000 0.000000 

0.000000 -0.000000 0.000000 
0.000000 -0.000000 0.000000 
0.000000 0.000000 0.000000 

0.000000 -0.000000 0.000000 
0.000000 -0.000000 0.000000 
0.000000 0.000000 0.000000 

0.000000 -0.000000 0.000000 
0.000000 -0.000000 0.000000 
0.000000 0.000000 0.000000 

0.000000 -0.000000 0.000000 
0.000000 0.000000 0.000000 
0.000000 0.000000 0.000000 

0.000000 -0.000000 0.000000 
0.000000 -0.000000 0.000000 
0.000000 0.000000 0.000000 

0.000000 -0.000000 0.000000 
0.000000 0.000000 0.000000 
0.000000 0.000000 0.000000 

0.000000 0.000000 0.000000 
0.000000 -0.000000 0.000000 
0.000000 0.000000 0.000000 

0.000000 0.000000 0.000000 
0.000000 0.000000 0.000000 
0.000000 0.000000 0.000000 

-0.000000 -0.000000 0.000000 
0.000000 -0.000000 0.000000 
0.000000 0.000000 0.000000 

-0.000000 -0.000000 0.000000 
0.000000 -0.000000 0.000000 
0.000000 0.000000 0.000000 

-0.000000 -0.000000 0.000000 
0.000000 -0.000000 0.000000 
0.000000 0.000000 0.000000 

-0.000000 0.000000 0.000000 
0.000000 -0.000000 0.000000 
0.000000 0.000000 0.000000 

-0.000000 0.000000 0.000000 
0.000000 -0.000000 0.000000 
0.000000 0.000000 0.000000 

-0.000000 -0.000000 0.000000 
0.000000 -0.000000 0.000000 
0.000000 0.000000 0.000000 

0.000000 0.000000 0.000000 
0.000000 -0.000000 0.000000 
0.000000 0.000000 0.000000 

0.000000 -0.000000 0.000000 
0.000000 -0.000000 0.000000 
0.000000 0.000000 0.000000 

0.000000 0.000000 0.000000 
0.000000 -0.000000 0.000000 
0.000000 0.000000 0.000000 

0.000000 0.000000 0.000000 
0.000000 -0.000000 0.000000 
0.000000 0.000000 0.000000 

0.000000 0.000000 0.000000 
0.000000 -0.000000 0.000000 
0.000000 0.000000 0.000000 

0.000000 0.000000 0.000000 
0.000000 -0.000000 0.000000 
0.000000 0.000000 0.000000 

-0.000000 0.000000 0.000000 
0.000000 -0.000000 0.000000 
0.000000 0.000000 0.000000 

-0.000000 0.000000 0.000000 
0.000000 -0.000000 0.000000 
0.000000 0.000000 0.000000 

-0.000000 -0.000000 0.000000 
0.000000 -0.000000 0.000000 
0.000000 0.000000 0.000000 

-0.000000 -0.000000 0.000000 
0.000000 -0.000000 0.000000 
0.000000 0.000000 0.000000 

-0.000000 -0.000000 0.000000 
0.000000 -0.000000 0.000000 
0.000000 0.000000 0.000000 

-0.000000 -0.000000 0.000000 
0.000000 0.000000 0.000000 
0.000000 0.000000 0.000000 

-0.000000 0.000000 0.000000 
0.000000 -0.000000 0.000000 
0.000000 0.000000 0.000000 

-0.000000 -0.000000 0.000000 
0.000000 0.000000 0.000000 
0.000000 0.000000 0.000000 

-0.000000 0.000000 0.000000 
0.000000 0.000000 0.000000 
0.000000 0.000000 0.000000 

0.000000 0.000000 0.000000 
0.000000 -0.000000 0.000000 
0.000000 0.000000 0.000000 

0.000000 -0.000000 0.000000 
0.000000 0.000000 0.000000 
0.000000 0.000000 0.000000 

0.000000 0.000000 0.000000 
0.000000 0.000000 0.000000 
0.000000 0.000000 0.000000 

0.000000 0.000000 0.000000 
0.000000 0.000000 0.000000 
0.000000 0.000000 0.000000 

0.000000 0.000000 0.000000 
0.000000 0.000000 0.000000 
0.000000 0.000000 0.000000 

0.000000 0.000000 0.000000 
0.000000 0.000000 0.000000 
0.000000 0.000000 0.000000 

0.000000 -0.000000 0.000000 
0.000000 0.000000 0.000000 
0.000000 0.000000 0.000000 

0.000000 -0.000000 0.000000 
0.000000 0.000000 0.000000 
0.000000 0.000000 0.000000 

0.000000 0.000000 0.000000 
0.000000 0.000000 0.000000 
0.000000 0.000000 0.000000 

0.000000 -0.000000 0.000000 
0.000000 0.000000 0.000000 
0.000000 0.000000 0.000000 

0.000000 -0.000000 0.000000 
0.000000 0.000000 0.000000 
0.000000 0.000000 0.000000 

0.000000 -0.000000 0.000000 
0.000000 0.000000 0.000000 
0.000000 0.000000 0.000000 

0.000000 0.000000 0.000000 
0.000000 0.000000 0.000000 
0.000000 0.000000 0.000000 

0.000000 0.000000 0.000000 
0.000000 0.000000 0.000000 
0.000000 0.000000 0.000000 

0.000000 0.000000 0.000000 
0.000000 0.000000 0.000000 
0.000000 0.000000 0.000000 

0.000000 0.000000 0.000000 
0.000000 0.000000 0.000000 
0.000000 0.000000 0.000000 

0.000000 0.000000 0.000000 
0.000000 -0.000000 0.000000 
0.000000 0.000000 0.000000 

0.000000 -0.000000 0.000000 
0.000000 -0.000000 0.000000 
0.000000 0.000000 0.000000 

0.000000 0.000000 0.000000 
0.000000 -0.000000 0.000000 
0.000000 0.000000 0.000000 

0.000000 -0.000000 0.000000 
0.000000 -0.000000 0.000000 
0.000000 0.000000 0.000000 

0.000000 -0.000000 0.000000 
0.000000 -0.000000 0.000000 
0.000000 0.000000 0.000000 

0.000000 -0.000000 0.000000 
0.000000 -0.000000 0.000000 
0.000000 0.000000 0.000000 

0.000000 -0.000000 0.000000 
0.000000 -0.000000 0.000000 
0.000000 0.000000 0.000000 

0.000000 -0.000000 0.000000 
0.000000 -0.000000 0.000000 
0.000000 0.000000 0.000000 

0.000000 0.000000 0.000000 
0.000000 -0.000000 0.000000 
0.000000 0.000000 0.000000 

0.000000 0.000000 0.000000 
0.000000 -0.000000 0.000000 
0.000000 0.000000 0.000000 

0.000000 0.000000 0.000000 
0.000000 -0.000000 0.000000 
0.000000 0.000000 0.000000 

0.000000 0.000000 0.000000 
0.000000 -0.000000 0.000000 
0.000000 0.000000 0.000000 

-0.000000 0.000000 0.000000 
0.000000 -0.000000 0.000000 
0.000000 0.000000 0.000000 

0.000000 -0.000000 0.000000 
0.000000 -0.000000 0.000000 
0.000000 0.000000 0.000000 

0.000000 -0.000000 0.000000 
0.000000 -0.000000 0.000000 
0.000000 0.000000 0.000000 

-0.000000 0.000000 0.000000 
0.000000 -0.000000 0.000000 
0.000000 0.000000 0.000000 

-0.000000 0.000000 0.000000 
0.000000 0.000000 0.000000 
0.000000 0.000000 0.000000 

-0.000000 0.000000 0.000000 
0.000000 0.000000 0.000000 
0.000000 0.000000 0.000000 

-0.000000 0.000000 0.000000 
0.000000 0.000000 0.000000 
0.000000 0.000000 0.000000 

-0.000000 -0.000000 0.000000 
0.000000 -0.000000 0.000000 
0.000000 0.000000 0.000000 

0.000000 -0.000000 0.000000 
0.000000 0.000000 0.000000 
0.000000 0.000000 0.000000 

0.000000 0.000000 0.000000 
0.000000 0.000000 0.000000 
0.000000 0.000000 0.000000 

-0.000000 0.000000 0.000000 
0.000000 -0.000000 0.000000 
0.000000 0.000000 0.000000 

-0.000000 -0.000000 0.000000 
0.000000 -0.000000 0.000000 
0.000000 0.000000 0.000000 

-0.000000 -0.000000 0.000000 
0.000000 -0.000000 0.000000 
0.000000 0.000000 0.000000 

-0.000000 -0.000000 0.000000 
0.000000 -0.000000 0.000000 
0.000000 0.000000 0.000000 

-0.000000 0.000000 0.000000 
0.000000 0.000000 0.000000 
0.000000 0.000000 0.000000 

-0.000000 0.000000 0.000000 
0.000000 0.000000 0.000000 
0.000000 0.000000 0.000000 

0.000000 0.000000 0.000000 
0.000000 0.000000 0.000000 
0.000000 0.000000 0.000000 

0.000000 0.000000 0.000000 
0.000000 -0.000000 0.000000 
0.000000 0.000000 0.000000 

0.000000 0.000000 0.000000 
0.000000 -0.000000 0.000000 
0.000000 0.000000 0.000000 

0.000000 -0.000000 0.000000 
0.000000 -0.000000 0.000000 
0.000000 0.000000 0.000000 

0.000000 -0.000000 0.000000 
0.000000 0.000000 0.000000 
0.000000 0.000000 0.000000 

0.000000 0.000000 0.000000 
0.000000 0.000000 0.000000 
0.000000 0.000000 0.000000 

0.000000 -0.000000 0.000000 
0.000000 -0.000000 0.000000 
0.000000 0.000000 0.000000 

0.000000 -0.000000 0.000000 
0.000000 -0.000000 0.000000 
0.000000 0.000000 0.000000 

0.000000 0.000000 0.000000 
0.000000 -0.000000 0.000000 
0.000000 0.000000 0.000000 

0.000000 0.000000 0.000000 
0.000000 -0.000000 0.000000 
0.000000 0.000000 0.000000 

0.000000 0.000000 0.000000 
0.000000 -0.000000 0.000000 
0.000000 0.000000 0.000000 

-0.000000 0.000000 0.000000 
0.000000 -0.000000 0.000000 
0.000000 0.000000 0.000000 

-0.000000 0.000000 0.000000 
0.000000 -0.000000 0.000000 
0.000000 0.000000 0.000000 

-0.000000 0.000000 0.000000 
0.000000 -0.000000 0.000000 
0.000000 0.000000 0.000000 

0.000000 0.000000 0.000000 
0.000000 -0.000000 0.000000 
0.000000 0.000000 0.000000 

0.000000 -0.000000 0.000000 
0.000000 -0.000000 0.000000 
0.000000 0.000000 0.000000 

0.000000 -0.000000 0.000000 
0.000000 0.000000 0.000000 
0.000000 0.000000 0.000000 

0.000000 -0.000000 0.000000 
0.000000 -0.000000 0.000000 
0.000000 0.000000 0.000000 

0.000000 -0.000000 0.000000 
0.000000 -0.000000 0.000000 
0.000000 0.000000 0.000000 

0.000000 -0.000000 0.000000 
0.000000 -0.000000 0.000000 
0.000000 0.000000 0.000000 

-0.000000 0.000000 0.000000 
0.000000 -0.000000 0.000000 
0.000000 0.000000 0.000000 

-0.000000 0.000000 0.000000 
0.000000 0.000000 0.000000 
0.000000 0.000000 0.000000 

-0.000000 0.000000 0.000000 
0.000000 -0.000000 0.000000 
0.000000 0.000000 0.000000 

-0.000000 0.000000 0.000000 
0.000000 0.000000 0.000000 
0.000000 0.000000 0.000000 

-0.000000 0.000000 0.000000 
0.000000 0.000000 0.000000 
0.000000 0.000000 0.000000 

-0.000000 0.000000 0.000000 
0.000000 0.000000 0.000000 
0.000000 0.000000 0.000000 

-0.000000 0.000000 0.000000 
0.000000 -0.000000 0.000000 
0.000000 0.000000 0.000000 

-0.000000 0.000000 0.000000 
0.000000 0.000000 0.000000 
0.000000 0.000000 0.000000 

-0.000000 0.000000 0.000000 
0.000000 0.000000 0.000000 
0.000000 0.000000 0.000000 

-0.000000 -0.000000 0.000000 
0.000000 -0.000000 0.000000 
0.000000 0.000000 0.000000 

-0.000000 -0.000000 0.000000 
0.000000 0.000000 0.000000 
0.000000 0.000000 0.000000 

-0.000000 0.000000 0.000000 
0.000000 0.000000 0.000000 
0.000000 0.000000 0.000000 

-0.000000 -0.000000 0.000000 
0.000000 0.000000 0.000000 
0.000000 0.000000 0.000000 

-0.000000 0.000000 0.000000 
0.000000 0.000000 0.000000 
0.000000 0.000000 0.000000 

-0.000000 0.000000 0.000000 
0.000000 0.000000 0.000000 
0.000000 0.000000 0.000000 

-0.000000 0.000000 0.000000 
0.000000 0.000000 0.000000 
0.000000 0.000000 0.000000 

-0.000000 0.000000 0.000000 
0.000000 0.000000 0.000000 
0.000000 0.000000 0.000000 

-0.000000 0.000000 0.000000 
0.000000 -0.000000 0.000000 
0.000000 0.000000 0.000000 

-0.000000 0.000000 0.000000 
0.000000 -0.000000 0.000000 
0.000000 0.000000 0.000000 

0.000000 0.000000 0.000000 
0.000000 -0.000000 0.000000 
0.000000 0.000000 0.000000 

0.000000 0.000000 0.000000 
0.000000 -0.000000 0.000000 
0.000000 0.000000 0.000000 

-0.000000 0.000000 0.000000 
0.000000 0.000000 0.000000 
0.000000 0.000000 0.000000 

0.000000 0.000000 0.000000 
0.000000 0.000000 0.000000 
0.000000 0.000000 0.000000 

0.000000 0.000000 0.000000 
0.000000 0.000000 0.000000 
0.000000 0.000000 0.000000 

0.000000 0.000000 0.000000 
0.000000 0.000000 0.000000 
0.000000 0.000000 0.000000 

0.000000 0.000000 0.000000 
0.000000 0.000000 0.000000 
0.000000 0.000000 0.000000 

0.000000 0.000000 0.000000 
0.000000 0.000000 0.000000 
0.000000 0.000000 0.000000 

0.000000 0.000000 0.000000 
0.000000 -0.000000 0.000000 
0.000000 0.000000 0.000000 

0.000000 0.000000 0.000000 
0.000000 0.000000 0.000000 
0.000000 0.000000 0.000000 

-0.000000 -0.000000 0.000000 
0.000000 0.000000 0.000000 
0.000000 0.000000 0.000000 

-0.000000 -0.000000 0.000000 
0.000000 0.000000 0.000000 
0.000000 0.000000 0.000000 

-0.000000 0.000000 0.000000 
0.000000 0.000000 0.000000 
0.000000 0.000000 0.000000 

-0.000000 -0.000000 0.000000 
0.000000 0.000000 0.000000 
0.000000 0.000000 0.000000 

-0.000000 -0.000000 0.000000 
0.000000 -0.000000 0.000000 
0.000000 0.000000 0.000000 

-0.000000 -0.000000 0.000000 
0.000000 0.000000 0.000000 
0.000000 0.000000 0.000000 

-0.000000 -0.000000 0.000000 
0.000000 0.000000 0.000000 
0.000000 0.000000 0.000000 

-0.000000 -0.000000 0.000000 
0.000000 0.000000 0.000000 
0.000000 0.000000 0.000000 

0.000000 -0.000000 0.000000 
0.000000 -0.000000 0.000000 
0.000000 0.000000 0.000000 

0.000000 -0.000000 0.000000 
0.000000 -0.000000 0.000000 
0.000000 0.000000 0.000000 

-0.000000 -0.000000 0.000000 
0.000000 -0.000000 0.000000 
0.000000 0.000000 0.000000 

-0.000000 -0.000000 0.000000 
0.000000 0.000000 0.000000 
0.000000 0.000000 0.000000 

-0.000000 -0.000000 0.000000 
0.000000 0.000000 0.000000 
0.000000 0.000000 0.000000 

-0.000000 -0.000000 0.000000 
0.000000 0.000000 0.000000 
0.000000 0.000000 0.000000 

-0.000000 -0.000000 0.000000 
0.000000 0.000000 0.000000 
0.000000 0.000000 0.000000 

-0.000000 -0.000000 0.000000 
0.000000 0.000000 0.000000 
0.000000 0.000000 0.000000 

-0.000000 -0.000000 0.000000 
0.000000 0.000000 0.000000 
0.000000 0.000000 0.000000 

-0.000000 -0.000000 0.000000 
0.000000 0.000000 0.000000 
0.000000 0.000000 0.000000 

-0.000000 -0.000000 0.000000 
0.000000 0.000000 0.000000 
0.000000 0.000000 0.000000 

-0.000000 -0.000000 0.000000 
0.000000 0.000000 0.000000 
0.000000 0.000000 0.000000 

-0.000000 0.000000 0.000000 
0.000000 0.000000 0.000000 
0.000000 0.000000 0.000000 

-0.000000 0.000000 0.000000 
0.000000 -0.000000 0.000000 
0.000000 0.000000 0.000000 

-0.000000 0.000000 0.000000 
0.000000 -0.000000 0.000000 
0.000000 0.000000 0.000000 

0.000000 0.000000 0.000000 
0.000000 -0.000000 0.000000 
0.000000 0.000000 0.000000 

0.000000 0.000000 0.000000 
0.000000 0.000000 0.000000 
0.000000 0.000000 0.000000 

0.000000 0.000000 0.000000 
0.000000 -0.000000 0.000000 
0.000000 0.000000 0.000000 

0.000000 0.000000 0.000000 
0.000000 -0.000000 0.000000 
0.000000 0.000000 0.000000 

0.000000 -0.000000 0.000000 
0.000000 -0.000000 0.000000 
0.000000 0.000000 0.000000 

0.000000 0.000000 0.000000 
0.000000 -0.000000 0.000000 
0.000000 0.000000 0.000000 

0.000000 0.000000 0.000000 
0.000000 -0.000000 0.000000 
0.000000 0.000000 0.000000 

0.000000 0.000000 0.000000 
0.000000 0.000000 0.000000 
0.000000 0.000000 0.000000 

0.000000 0.000000 0.000000 
0.000000 0.000000 0.000000 
0.000000 0.000000 0.000000 

0.000000 -0.000000 0.000000 
0.000000 0.000000 0.000000 
0.000000 0.000000 0.000000 

-0.000000 -0.000000 0.000000 
0.000000 -0.000000 0.000000 
0.000000 0.000000 0.000000 

0.000000 -0.000000 0.000000 
0.000000 -0.000000 0.000000 
0.000000 0.000000 0.000000 

0.000000 -0.000000 0.000000 
0.000000 -0.000000 0.000000 
0.000000 0.000000 0.000000 

0.000000 0.000000 0.000000 
0.000000 -0.000000 0.000000 
0.000000 0.000000 0.000000 

0.000000 0.000000 0.000000 
0.000000 -0.000000 0.000000 
0.000000 0.000000 0.000000 

0.000000 0.000000 0.000000 
0.000000 0.000000 0.000000 
0.000000 0.000000 0.000000 

0.000000 -0.000000 0.000000 
0.000000 -0.000000 0.000000 
0.000000 0.000000 0.000000 

0.000000 -0.000000 0.000000 
0.000000 -0.000000 0.000000 
0.000000 0.000000 0.000000 

0.000000 0.000000 0.000000 
0.000000 -0.000000 0.000000 
0.000000 0.000000 0.000000 

-0.000000 -0.000000 0.000000 
0.000000 0.000000 0.000000 
0.000000 0.000000 0.000000 

-0.000000 -0.000000 0.000000 
0.000000 -0.000000 0.000000 
0.000000 0.000000 0.000000 

0.000000 -0.000000 0.000000 
0.000000 0.000000 0.000000 
0.000000 0.000000 0.000000 

0.000000 -0.000000 0.000000 
0.000000 0.000000 0.000000 
0.000000 0.000000 0.000000 

-0.000000 -0.000000 0.000000 
0.000000 0.000000 0.000000 
0.000000 0.000000 0.000000 

-0.000000 -0.000000 0.000000 
0.000000 0.000000 0.000000 
0.000000 0.000000 0.000000 

-0.000000 -0.000000 0.000000 
0.000000 0.000000 0.000000 
0.000000 0.000000 0.000000 

-0.000000 -0.000000 0.000000 
0.000000 0.000000 0.000000 
0.000000 0.000000 0.000000 

-0.000000 -0.000000 0.000000 
0.000000 0.000000 0.000000 
0.000000 0.000000 0.000000 

-0.000000 -0.000000 0.000000 
0.000000 0.000000 0.000000 
0.000000 0.000000 0.000000 

-0.000000 -0.000000 0.000000 
0.000000 -0.000000 0.000000 
0.000000 0.000000 0.000000 

0.000000 0.000000 0.000000 
0.000000 -0.000000 0.000000 
0.000000 0.000000 0.000000 

0.000000 0.000000 0.000000 
0.000000 -0.000000 0.000000 
0.000000 0.000000 0.000000 

0.000000 0.000000 0.000000 
0.000000 -0.000000 0.000000 
0.000000 0.000000 0.000000 

0.000000 0.000000 0.000000 
0.000000 -0.000000 0.000000 
0.000000 0.000000 0.000000 

-0.000000 0.000000 0.000000 
0.000000 0.000000 0.000000 
0.000000 0.000000 0.000000 

-0.000000 0.000000 0.000000 
0.000000 0.000000 0.000000 
0.000000 0.000000 0.000000 

-0.000000 0.000000 0.000000 
0.000000 0.000000 0.000000 
0.000000 0.000000 0.000000 

-0.000000 0.000000 0.000000 
0.000000 -0.000000 0.000000 
0.000000 0.000000 0.000000 

-0.000000 0.000000 0.000000 
0.000000 -0.000000 0.000000 
0.000000 0.000000 0.000000 

0.000000 0.000000 0.000000 
0.000000 -0.000000 0.000000 
0.000000 0.000000 0.000000 

0.000000 -0.000000 0.000000 
0.000000 -0.000000 0.000000 
0.000000 0.000000 0.000000 

0.000000 -0.000000 0.000000 
0.000000 -0.000000 0.000000 
0.000000 0.000000 0.000000 

0.000000 0.000000 0.000000 
0.000000 -0.000000 0.000000 
0.000000 0.000000 0.000000 

0.000000 -0.000000 0.000000 
0.000000 -0.000000 0.000000 
0.000000 0.000000 0.000000 

0.000000 -0.000000 0.000000 
0.000000 0.000000 0.000000 
0.000000 0.000000 0.000000 

0.000000 0.000000 0.000000 
0.000000 0.000000 0.000000 
0.000000 0.000000 0.000000 

0.000000 -0.000000 0.000000 
0.000000 -0.000000 0.000000 
0.000000 0.000000 0.000000 

0.000000 0.000000 0.000000 
0.000000 0.000000 0.000000 
0.000000 0.000000 0.000000 

0.000000 0.000000 0.000000 
0.000000 0.000000 0.000000 
0.000000 0.000000 0.000000 

-0.000000 0.000000 0.000000 
0.000000 0.000000 0.000000 
0.000000 0.000000 0.000000 

-0.000000 -0.000000 0.000000 
0.000000 -0.000000 0.000000 
0.000000 0.000000 0.000000 

-0.000000 0.000000 0.000000 
0.000000 0.000000 0.000000 
0.000000 0.000000 0.000000 

-0.000000 -0.000000 0.000000 
0.000000 0.000000 0.000000 
0.000000 0.000000 0.000000 

-0.000000 -0.000000 0.000000 
0.000000 0.000000 0.000000 
0.000000 0.000000 0.000000 

-0.000000 -0.000000 0.000000 
0.000000 0.000000 0.000000 
0.000000 0.000000 0.000000 

-0.000000 -0.000000 0.000000 
0.000000 0.000000 0.000000 
0.000000 0.000000 0.000000 

-0.000000 -0.000000 0.000000 
0.000000 0.000000 0.000000 
0.000000 0.000000 0.000000 

-0.000000 -0.000000 0.000000 
0.000000 -0.000000 0.000000 
0.000000 0.000000 0.000000 

-0.000000 -0.000000 0.000000 
0.000000 0.000000 0.000000 
0.000000 0.000000 0.000000 

0.000000 0.000000 0.000000 
0.000000 0.000000 0.000000 
0.000000 0.000000 0.000000 

0.000000 0.000000 0.000000 
0.000000 -0.000000 0.000000 
0.000000 0.000000 0.000000 

-0.000000 -0.000000 0.000000 
0.000000 -0.000000 0.000000 
0.000000 0.000000 0.000000 

0.000000 0.000000 0.000000 
0.000000 -0.000000 0.000000 
0.000000 0.000000 0.000000 

-0.000000 0.000000 0.000000 
0.000000 -0.000000 0.000000 
0.000000 0.000000 0.000000 

0.000000 0.000000 0.000000 
0.000000 -0.000000 0.000000 
0.000000 0.000000 0.000000 

0.000000 0.000000 0.000000 
0.000000 -0.000000 0.000000 
0.000000 0.000000 0.000000 

-0.000000 -0.000000 0.000000 
0.000000 -0.000000 0.000000 
0.000000 0.000000 0.000000 

-0.000000 0.000000 0.000000 
0.000000 -0.000000 0.000000 
0.000000 0.000000 0.000000 

0.000000 0.000000 0.000000 
0.000000 -0.000000 0.000000 
0.000000 0.000000 0.000000 

-0.000000 0.000000 0.000000 
0.000000 0.000000 0.000000 
0.000000 0.000000 0.000000 

0.000000 0.000000 0.000000 
0.000000 -0.000000 0.000000 
0.000000 0.000000 0.000000 

0.000000 0.000000 0.000000 
0.000000 -0.000000 0.000000 
0.000000 0.000000 0.000000 

0.000000 0.000000 0.000000 
0.000000 -0.000000 0.000000 
0.000000 0.000000 0.000000 

-0.000000 -0.000000 0.000000 
0.000000 0.000000 0.000000 
0.000000 0.000000 0.000000 

-0.000000 0.000000 0.000000 
0.000000 0.000000 0.000000 
0.000000 0.000000 0.000000 

0.000000 0.000000 0.000000 
0.000000 -0.000000 0.000000 
0.000000 0.000000 0.000000 

0.000000 -0.000000 0.000000 
0.000000 0.000000 0.000000 
0.000000 0.000000 0.000000 

-0.000000 -0.000000 0.000000 
0.000000 0.000000 0.000000 
0.000000 0.000000 0.000000 

-0.000000 -0.000000 0.000000 
0.000000 0.000000 0.000000 
0.000000 0.000000 0.000000 

-0.000000 -0.000000 0.000000 
0.000000 -0.000000 0.000000 
0.000000 0.000000 0.000000 

0.000000 0.000000 0.000000 
0.000000 -0.000000 0.000000 
0.000000 0.000000 0.000000 

0.000000 0.000000 0.000000 
0.000000 -0.000000 0.000000 
0.000000 0.000000 0.000000 

0.000000 0.000000 0.000000 
0.000000 -0.000000 0.000000 
0.000000 0.000000 0.000000 

0.000000 0.000000 0.000000 
0.000000 -0.000000 0.000000 
0.000000 0.000000 0.000000 

0.000000 0.000000 0.000000 
0.000000 -0.000000 0.000000 
0.000000 0.000000 0.000000 

0.000000 0.000000 0.000000 
0.000000 -0.000000 0.000000 
0.000000 0.000000 0.000000 

0.000000 0.000000 0.000000 
0.000000 -0.000000 0.000000 
0.000000 0.000000 0.000000 

0.000000 -0.000000 0.000000 
0.000000 -0.000000 0.000000 
0.000000 0.000000 0.000000 

-0.000000 -0.000000 0.000000 
0.000000 -0.000000 0.000000 
0.000000 0.000000 0.000000 

0.000000 0.000000 0.000000 
0.000000 -0.000000 0.000000 
0.000000 0.000000 0.000000 

-0.000000 -0.000000 0.000000 
0.000000 0.000000 0.000000 
0.000000 0.000000 0.000000 

-0.000000 -0.000000 0.000000 
0.000000 0.000000 0.000000 
0.000000 0.000000 0.000000 

-0.000000 -0.000000 0.000000 
0.000000 0.000000 0.000000 
0.000000 0.000000 0.000000 

-0.000000 0.000000 0.000000 
0.000000 0.000000 0.000000 
0.000000 0.000000 0.000000 

-0.000000 0.000000 0.000000 
0.000000 0.000000 0.000000 
0.000000 0.000000 0.000000 

-0.000000 0.000000 0.000000 
0.000000 0.000000 0.000000 
0.000000 0.000000 0.000000 

-0.000000 0.000000 0.000000 
0.000000 0.000000 0.000000 
0.000000 0.000000 0.000000 

-0.000000 0.000000 0.000000 
0.000000 0.000000 0.000000 
0.000000 0.000000 0.000000 

-0.000000 -0.000000 0.000000 
0.000000 0.000000 0.000000 
0.000000 0.000000 0.000000 

-0.000000 0.000000 0.000000 
0.000000 0.000000 0.000000 
0.000000 0.000000 0.000000 

-0.000000 -0.000000 0.000000 
0.000000 -0.000000 0.000000 
0.000000 0.000000 0.000000 

-0.000000 -0.000000 0.000000 
0.000000 -0.000000 0.000000 
0.000000 0.000000 0.000000 

-0.000000 -0.000000 0.000000 
0.000000 -0.000000 0.000000 
0.000000 0.000000 0.000000 

-0.000000 -0.000000 0.000000 
0.000000 -0.000000 0.000000 
0.000000 0.000000 0.000000 

-0.000000 0.000000 0.000000 
0.000000 0.000000 0.000000 
0.000000 0.000000 0.000000 

-0.000000 -0.000000 0.000000 
0.000000 0.000000 0.000000 
0.000000 0.000000 0.000000 

-0.000000 -0.000000 0.000000 
0.000000 0.000000 0.000000 
0.000000 0.000000 0.000000 

-0.000000 -0.000000 0.000000 
0.000000 0.000000 0.000000 
0.000000 0.000000 0.000000 

-0.000000 0.000000 0.000000 
0.000000 -0.000000 0.000000 
0.000000 0.000000 0.000000 

-0.000000 0.000000 0.000000 
0.000000 0.000000 0.000000 
0.000000 0.000000 0.000000 

-0.000000 0.000000 0.000000 
0.000000 0.000000 0.000000 
0.000000 0.000000 0.000000 

-0.000000 0.000000 0.000000 
0.000000 0.000000 0.000000 
0.000000 0.000000 0.000000 

-0.000000 0.000000 0.000000 
0.000000 0.000000 0.000000 
0.000000 0.000000 0.000000 

-0.000000 0.000000 0.000000 
0.000000 0.000000 0.000000 
0.000000 0.000000 0.000000 

-0.000000 0.000000 0.000000 
0.000000 0.000000 0.000000 
0.000000 0.000000 0.000000 

-0.000000 -0.000000 0.000000 
0.000000 -0.000000 0.000000 
0.000000 0.000000 0.000000 

-0.000000 -0.000000 0.000000 
0.000000 0.000000 0.000000 
0.000000 0.000000 0.000000 

-0.000000 -0.000000 0.000000 
0.000000 0.000000 0.000000 
0.000000 0.000000 0.000000 

-0.000000 -0.000000 0.000000 
0.000000 0.000000 0.000000 
0.000000 0.000000 0.000000 

0.000000 0.000000 0.000000 
0.000000 -0.000000 0.000000 
0.000000 0.000000 0.000000 

0.000000 0.000000 0.000000 
0.000000 0.000000 0.000000 
0.000000 0.000000 0.000000 

0.000000 0.000000 0.000000 
0.000000 0.000000 0.000000 
0.000000 0.000000 0.000000 

0.000000 0.000000 0.000000 
0.000000 0.000000 0.000000 
0.000000 0.000000 0.000000 

0.000000 0.000000 0.000000 
0.000000 -0.000000 0.000000 
0.000000 0.000000 0.000000 

-0.000000 0.000000 0.000000 
0.000000 0.000000 0.000000 
0.000000 0.000000 0.000000 

-0.000000 0.000000 0.000000 
0.000000 -0.000000 0.000000 
0.000000 0.000000 0.000000 

-0.000000 0.000000 0.000000 
0.000000 -0.000000 0.000000 
0.000000 0.000000 0.000000 

-0.000000 0.000000 0.000000 
0.000000 0.000000 0.000000 
0.000000 0.000000 0.000000 

-0.000000 -0.000000 0.000000 
0.000000 -0.000000 0.000000 
0.000000 0.000000 0.000000 

-0.000000 0.000000 0.000000 
0.000000 -0.000000 0.000000 
0.000000 0.000000 0.000000 

0.000000 -0.000000 0.000000 
0.000000 -0.000000 0.000000 
0.000000 0.000000 0.000000 

-0.000000 0.000000 0.000000 
0.000000 -0.000000 0.000000 
0.000000 0.000000 0.000000 

-0.000000 0.000000 0.000000 
0.000000 -0.000000 0.000000 
0.000000 0.000000 0.000000 

-0.000000 -0.000000 0.000000 
0.000000 0.000000 0.000000 
0.000000 0.000000 0.000000 

0.000000 -0.000000 0.000000 
0.000000 -0.000000 0.000000 
0.000000 0.000000 0.000000 

-0.000000 0.000000 0.000000 
0.000000 -0.000000 0.000000 
0.000000 0.000000 0.000000 

-0.000000 0.000000 0.000000 
0.000000 -0.000000 0.000000 
0.000000 0.000000 0.000000 

-0.000000 0.000000 0.000000 
0.000000 -0.000000 0.000000 
0.000000 0.000000 0.000000 

-0.000000 0.000000 0.000000 
0.000000 -0.000000 0.000000 
0.000000 0.000000 0.000000 

-0.000000 -0.000000 0.000000 
0.000000 0.000000 0.000000 
0.000000 0.000000 0.000000 

-0.000000 0.000000 0.000000 
0.000000 -0.000000 0.000000 
0.000000 0.000000 0.000000 

0.000000 -0.000000 0.000000 
0.000000 0.000000 0.000000 
0.000000 0.000000 0.000000 

0.000000 -0.000000 0.000000 
0.000000 -0.000000 0.000000 
0.000000 0.000000 0.000000 

-0.000000 0.000000 0.000000 
0.000000 -0.000000 0.000000 
0.000000 0.000000 0.000000 

-0.000000 -0.000000 0.000000 
0.000000 -0.000000 0.000000 
0.000000 0.000000 0.000000 

0.000000 -0.000000 0.000000 
0.000000 0.000000 0.000000 
0.000000 0.000000 0.000000 

0.000000 -0.000000 0.000000 
0.000000 0.000000 0.000000 
0.000000 0.000000 0.000000 

-0.000000 0.000000 0.000000 
0.000000 0.000000 0.000000 
0.000000 0.000000 0.000000 

-0.000000 -0.000000 0.000000 
0.000000 -0.000000 0.000000 
0.000000 0.000000 0.000000 

0.000000 0.000000 0.000000 
0.000000 -0.000000 0.000000 
0.000000 0.000000 0.000000 

0.000000 0.000000 0.000000 
0.000000 0.000000 0.000000 
0.000000 0.000000 0.000000 

-0.000000 0.000000 0.000000 
0.000000 -0.000000 0.000000 
0.000000 0.000000 0.000000 

-0.000000 0.000000 0.000000 
0.000000 -0.000000 0.000000 
0.000000 0.000000 0.000000 

-0.000000 0.000000 0.000000 
0.000000 0.000000 0.000000 
0.000000 0.000000 0.000000 

-0.000000 0.000000 0.000000 
0.000000 0.000000 0.000000 
0.000000 0.000000 0.000000 

-0.000000 0.000000 0.000000 
0.000000 0.000000 0.000000 
0.000000 0.000000 0.000000 

-0.000000 0.000000 0.000000 
0.000000 0.000000 0.000000 
0.000000 0.000000 0.000000 

0.000000 -0.000000 0.000000 
0.000000 0.000000 0.000000 
0.000000 0.000000 0.000000 

0.000000 -0.000000 0.000000 
0.000000 0.000000 0.000000 
0.000000 0.000000 0.000000 

0.000000 0.000000 0.000000 
0.000000 -0.000000 0.000000 
0.000000 0.000000 0.000000 

0.000000 0.000000 0.000000 
0.000000 0.000000 0.000000 
0.000000 0.000000 0.000000 

-0.000000 0.000000 0.000000 
0.000000 -0.000000 0.000000 
0.000000 0.000000 0.000000 

-0.000000 0.000000 0.000000 
0.000000 -0.000000 0.000000 
0.000000 0.000000 0.000000 

-0.000000 0.000000 0.000000 
0.000000 -0.000000 0.000000 
0.000000 0.000000 0.000000 

-0.000000 0.000000 0.000000 
0.000000 0.000000 0.000000 
0.000000 0.000000 0.000000 

0.000000 -0.000000 0.000000 
0.000000 -0.000000 0.000000 
0.000000 0.000000 0.000000 

0.000000 -0.000000 0.000000 
0.000000 0.000000 0.000000 
0.000000 0.000000 0.000000 

0.000000 -0.000000 0.000000 
0.000000 0.000000 0.000000 
0.000000 0.000000 0.000000 

0.000000 -0.000000 0.000000 
0.000000 -0.000000 0.000000 
0.000000 0.000000 0.000000 

0.000000 -0.000000 0.000000 
0.000000 -0.000000 0.000000 
0.000000 0.000000 0.000000 

0.000000 -0.000000 0.000000 
0.000000 0.000000 0.000000 
0.000000 0.000000 0.000000 

0.000000 -0.000000 0.000000 
0.000000 -0.000000 0.000000 
0.000000 0.000000 0.000000 

0.000000 -0.000000 0.000000 
0.000000 -0.000000 0.000000 
0.000000 0.000000 0.000000 

0.000000 -0.000000 0.000000 
0.000000 -0.000000 0.000000 
0.000000 0.000000 0.000000 

0.000000 -0.000000 0.000000 
0.000000 -0.000000 0.000000 
0.000000 0.000000 0.000000 

0.000000 -0.000000 0.000000 
0.000000 0.000000 0.000000 
0.000000 0.000000 0.000000 

0.000000 -0.000000 0.000000 
0.000000 0.000000 0.000000 
0.000000 0.000000 0.000000 

0.000000 -0.000000 0.000000 
0.000000 -0.000000 0.000000 
0.000000 0.000000 0.000000 

0.000000 -0.000000 0.000000 
0.000000 -0.000000 0.000000 
0.000000 0.000000 0.000000 

0.000000 -0.000000 0.000000 
0.000000 0.000000 0.000000 
0.000000 0.000000 0.000000 

0.000000 0.000000 0.000000 
0.000000 -0.000000 0.000000 
0.000000 0.000000 0.000000 

0.000000 0.000000 0.000000 
0.000000 -0.000000 0.000000 
0.000000 0.000000 0.000000 

0.000000 -0.000000 0.000000 
0.000000 -0.000000 0.000000 
0.000000 0.000000 0.000000 

0.000000 0.000000 0.000000 
0.000000 -0.000000 0.000000 
0.000000 0.000000 0.000000 

0.000000 -0.000000 0.000000 
0.000000 -0.000000 0.000000 
0.000000 0.000000 0.000000 

0.000000 -0.000000 0.000000 
0.000000 -0.000000 0.000000 
0.000000 0.000000 0.000000 

0.000000 -0.000000 0.000000 
0.000000 -0.000000 0.000000 
0.000000 0.000000 0.000000 

0.000000 0.000000 0.000000 
0.000000 -0.000000 0.000000 
0.000000 0.000000 0.000000 

0.000000 0.000000 0.000000 
0.000000 -0.000000 0.000000 
0.000000 0.000000 0.000000 

-0.000000 -0.000000 0.000000 
0.000000 0.000000 0.000000 
0.000000 0.000000 0.000000 

-0.000000 -0.000000 0.000000 
0.000000 0.000000 0.000000 
0.000000 0.000000 0.000000 

-0.000000 0.000000 0.000000 
0.000000 0.000000 0.000000 
0.000000 0.000000 0.000000 

-0.000000 -0.000000 0.000000 
0.000000 0.000000 0.000000 
0.000000 0.000000 0.000000 

-0.000000 -0.000000 0.000000 
0.000000 0.000000 0.000000 
0.000000 0.000000 0.000000 

-0.000000 -0.000000 0.000000 
0.000000 0.000000 0.000000 
0.000000 0.000000 0.000000 

-0.000000 -0.000000 0.000000 
0.000000 0.000000 0.000000 
0.000000 0.000000 0.000000 

-0.000000 0.000000 0.000000 
0.000000 0.000000 0.000000 
0.000000 0.000000 0.000000 

-0.000000 0.000000 0.000000 
0.000000 0.000000 0.000000 
0.000000 0.000000 0.000000 

-0.000000 0.000000 0.000000 
0.000000 -0.000000 0.000000 
0.000000 0.000000 0.000000 

-0.000000 0.000000 0.000000 
0.000000 -0.000000 0.000000 
0.000000 0.000000 0.000000 

0.000000 0.000000 0.000000 
0.000000 -0.000000 0.000000 
0.000000 0.000000 0.000000 

0.000000 -0.000000 0.000000 
0.000000 0.000000 0.000000 
0.000000 0.000000 0.000000 

0.000000 -0.000000 0.000000 
0.000000 0.000000 0.000000 
0.000000 0.000000 0.000000 

0.000000 -0.000000 0.000000 
0.000000 0.000000 0.000000 
0.000000 0.000000 0.000000 

-0.000000 -0.000000 0.000000 
0.000000 0.000000 0.000000 
0.000000 0.000000 0.000000 

-0.000000 -0.000000 0.000000 
0.000000 0.000000 0.000000 
0.000000 0.000000 0.000000 

0.000000 -0.000000 0.000000 
0.000000 0.000000 0.000000 
0.000000 0.000000 0.000000 

0.000000 0.000000 0.000000 
0.000000 0.000000 0.000000 
0.000000 0.000000 0.000000 

0.000000 0.000000 0.000000 
0.000000 0.000000 0.000000 
0.000000 0.000000 0.000000 

0.000000 0.000000 0.000000 
0.000000 -0.000000 0.000000 
0.000000 0.000000 0.000000 

0.000000 0.000000 0.000000 
0.000000 0.000000 0.000000 
0.000000 0.000000 0.000000 

0.000000 -0.000000 0.000000 
0.000000 -0.000000 0.000000 
0.000000 0.000000 0.000000 

-0.000000 0.000000 0.000000 
0.000000 0.000000 0.000000 
0.000000 0.000000 0.000000 

-0.000000 -0.000000 0.000000 
0.000000 0.000000 0.000000 
0.000000 0.000000 0.000000 

-0.000000 -0.000000 0.000000 
0.000000 0.000000 0.000000 
0.000000 0.000000 0.000000 

-0.000000 0.000000 0.000000 
0.000000 0.000000 0.000000 
0.000000 0.000000 0.000000 

-0.000000 -0.000000 0.000000 
0.000000 0.000000 0.000000 
0.000000 0.000000 0.000000 

-0.000000 -0.000000 0.000000 
0.000000 -0.000000 0.000000 
0.000000 0.000000 0.000000 

-0.000000 -0.000000 0.000000 
0.000000 -0.000000 0.000000 
0.000000 0.000000 0.000000 

-0.000000 -0.000000 0.000000 
0.000000 0.000000 0.000000 
0.000000 0.000000 0.000000 

-0.000000 -0.000000 0.000000 
0.000000 0.000000 0.000000 
0.000000 0.000000 0.000000 

0.000000 -0.000000 0.000000 
0.000000 0.000000 0.000000 
0.000000 0.000000 0.000000 

-0.000000 -0.000000 0.000000 
0.000000 -0.000000 0.000000 
0.000000 0.000000 0.000000 

0.000000 0.000000 0.000000 
0.000000 0.000000 0.000000 
0.000000 0.000000 0.000000 

0.000000 0.000000 0.000000 
0.000000 -0.000000 0.000000 
0.000000 0.000000 0.000000 

0.000000 0.000000 0.000000 
0.000000 -0.000000 0.000000 
0.000000 0.000000 0.000000 

0.000000 0.000000 0.000000 
0.000000 -0.000000 0.000000 
0.000000 0.000000 0.000000 

0.000000 0.000000 0.000000 
0.000000 -0.000000 0.000000 
0.000000 0.000000 0.000000 

0.000000 0.000000 0.000000 
0.000000 0.000000 0.000000 
0.000000 0.000000 0.000000 

0.000000 0.000000 0.000000 
0.000000 0.000000 0.000000 
0.000000 0.000000 0.000000 

0.000000 0.000000 0.000000 
0.000000 0.000000 0.000000 
0.000000 0.000000 0.000000 

-0.000000 0.000000 0.000000 
0.000000 0.000000 0.000000 
0.000000 0.000000 0.000000 

-0.000000 -0.000000 0.000000 
0.000000 -0.000000 0.000000 
0.000000 0.000000 0.000000 

-0.000000 0.000000 0.000000 
0.000000 0.000000 0.000000 
0.000000 0.000000 0.000000 

0.000000 0.000000 0.000000 
0.000000 0.000000 0.000000 
0.000000 0.000000 0.000000 

-0.000000 -0.000000 0.000000 
0.000000 0.000000 0.000000 
0.000000 0.000000 0.000000 

0.000000 -0.000000 0.000000 
0.000000 0.000000 0.000000 
0.000000 0.000000 0.000000 

0.000000 -0.000000 0.000000 
0.000000 -0.000000 0.000000 
0.000000 0.000000 0.000000 

-0.000000 -0.000000 0.000000 
0.000000 0.000000 0.000000 
0.000000 0.000000 0.000000 

-0.000000 -0.000000 0.000000 
0.000000 -0.000000 0.000000 
0.000000 0.000000 0.000000 

-0.000000 0.000000 0.000000 
0.000000 0.000000 0.000000 
0.000000 0.000000 0.000000 

0.000000 0.000000 0.000000 
0.000000 -0.000000 0.000000 
0.000000 0.000000 0.000000 

0.000000 0.000000 0.000000 
0.000000 -0.000000 0.000000 
0.000000 0.000000 0.000000 

0.000000 0.000000 0.000000 
0.000000 -0.000000 0.000000 
0.000000 0.000000 0.000000 

0.000000 0.000000 0.000000 
0.000000 0.000000 0.000000 
0.000000 0.000000 0.000000 

0.000000 -0.000000 0.000000 
0.000000 0.000000 0.000000 
0.000000 0.000000 0.000000 

0.000000 -0.000000 0.000000 
0.000000 0.000000 0.000000 
0.000000 0.000000 0.000000 

0.000000 0.000000 0.000000 
0.000000 0.000000 0.000000 
0.000000 0.000000 0.000000 

-0.000000 0.000000 0.000000 
0.000000 -0.000000 0.000000 
0.000000 0.000000 0.000000 

-0.000000 -0.000000 0.000000 
0.000000 -0.000000 0.000000 
0.000000 0.000000 0.000000 

-0.000000 -0.000000 0.000000 
0.000000 -0.000000 0.000000 
0.000000 0.000000 0.000000 

-0.000000 0.000000 0.000000 
0.000000 -0.000000 0.000000 
0.000000 0.000000 0.000000 

0.000000 0.000000 0.000000 
0.000000 -0.000000 0.000000 
0.000000 0.000000 0.000000 

0.000000 0.000000 0.000000 
0.000000 -0.000000 0.000000 
0.000000 0.000000 0.000000 

0.000000 0.000000 0.000000 
0.000000 -0.000000 0.000000 
0.000000 0.000000 0.000000 

0.000000 0.000000 0.000000 
0.000000 -0.000000 0.000000 
0.000000 0.000000 0.000000 

0.000000 0.000000 0.000000 
0.000000 0.000000 0.000000 
0.000000 0.000000 0.000000 

0.000000 0.000000 0.000000 
0.000000 0.000000 0.000000 
0.000000 0.000000 0.000000 

0.000000 0.000000 0.000000 
0.000000 -0.000000 0.000000 
0.000000 0.000000 0.000000 

0.000000 0.000000 0.000000 
0.000000 0.000000 0.000000 
0.000000 0.000000 0.000000 

0.000000 -0.000000 0.000000 
0.000000 0.000000 0.000000 
0.000000 0.000000 0.000000 

0.000000 -0.000000 0.000000 
0.000000 0.000000 0.000000 
0.000000 0.000000 0.000000 

0.000000 0.000000 0.000000 
0.000000 -0.000000 0.000000 
0.000000 0.000000 0.000000 

0.000000 0.000000 0.000000 
0.000000 -0.000000 0.000000 
0.000000 0.000000 0.000000 

0.000000 0.000000 0.000000 
0.000000 -0.000000 0.000000 
0.000000 0.000000 0.000000 

0.000000 0.000000 0.000000 
0.000000 -0.000000 0.000000 
0.000000 0.000000 0.000000 

0.000000 0.000000 0.000000 
0.000000 0.000000 0.000000 
0.000000 0.000000 0.000000 

-0.000000 0.000000 0.000000 
0.000000 0.000000 0.000000 
0.000000 0.000000 0.000000 

0.000000 0.000000 0.000000 
0.000000 -0.000000 0.000000 
0.000000 0.000000 0.000000 

0.000000 0.000000 0.000000 
0.000000 -0.000000 0.000000 
0.000000 0.000000 0.000000 

0.000000 0.000000 0.000000 
0.000000 -0.000000 0.000000 
0.000000 0.000000 0.000000 

-0.000000 0.000000 0.000000 
0.000000 0.000000 0.000000 
0.000000 0.000000 0.000000 

0.000000 0.000000 0.000000 
0.000000 -0.000000 0.000000 
0.000000 0.000000 0.000000 

0.000000 0.000000 0.000000 
0.000000 -0.000000 0.000000 
0.000000 0.000000 0.000000 

0.000000 -0.000000 0.000000 
0.000000 -0.000000 0.000000 
0.000000 0.000000 0.000000 

-0.000000 -0.000000 0.000000 
0.000000 0.000000 0.000000 
0.000000 0.000000 0.000000 

-0.000000 -0.000000 0.000000 
0.000000 0.000000 0.000000 
0.000000 0.000000 0.000000 

-0.000000 0.000000 0.000000 
0.000000 -0.000000 0.000000 
0.000000 0.000000 0.000000 

-0.000000 0.000000 0.000000 
0.000000 0.000000 0.000000 
0.000000 0.000000 0.000000 

-0.000000 -0.000000 0.000000 
0.000000 -0.000000 0.000000 
0.000000 0.000000 0.000000 

-0.000000 0.000000 0.000000 
0.000000 -0.000000 0.000000 
0.000000 0.000000 0.000000 

-0.000000 0.000000 0.000000 
0.000000 -0.000000 0.000000 
0.000000 0.000000 0.000000 

-0.000000 -0.000000 0.000000 
0.000000 -0.000000 0.000000 
0.000000 0.000000 0.000000 

-0.000000 0.000000 0.000000 
0.000000 0.000000 0.000000 
0.000000 0.000000 0.000000 

-0.000000 -0.000000 0.000000 
0.000000 -0.000000 0.000000 
0.000000 0.000000 0.000000 

-0.000000 -0.000000 0.000000 
0.000000 -0.000000 0.000000 
0.000000 0.000000 0.000000 

0.000000 0.000000 0.000000 
0.000000 0.000000 0.000000 
0.000000 0.000000 0.000000 

0.000000 0.000000 0.000000 
0.000000 0.000000 0.000000 
0.000000 0.000000 0.000000 

0.000000 -0.000000 0.000000 
0.000000 0.000000 0.000000 
0.000000 0.000000 0.000000 

-0.000000 0.000000 0.000000 
0.000000 -0.000000 0.000000 
0.000000 0.000000 0.000000 

-0.000000 0.000000 0.000000 
0.000000 -0.000000 0.000000 
0.000000 0.000000 0.000000 

-0.000000 0.000000 0.000000 
0.000000 -0.000000 0.000000 
0.000000 0.000000 0.000000 

-0.000000 0.000000 0.000000 
0.000000 -0.000000 0.000000 
0.000000 0.000000 0.000000 

0.000000 -0.000000 0.000000 
0.000000 -0.000000 0.000000 
0.000000 0.000000 0.000000 

0.000000 0.000000 0.000000 
0.000000 -0.000000 0.000000 
0.000000 0.000000 0.000000 

0.000000 0.000000 0.000000 
0.000000 0.000000 0.000000 
0.000000 0.000000 0.000000 

0.000000 -0.000000 0.000000 
0.000000 0.000000 0.000000 
0.000000 0.000000 0.000000 

0.000000 -0.000000 0.000000 
0.000000 0.000000 0.000000 
0.000000 0.000000 0.000000 

0.000000 -0.000000 0.000000 
0.000000 -0.000000 0.000000 
0.000000 0.000000 0.000000 

0.000000 -0.000000 0.000000 
0.000000 0.000000 0.000000 
0.000000 0.000000 0.000000 

0.000000 0.000000 0.000000 
0.000000 -0.000000 0.000000 
0.000000 0.000000 0.000000 

0.000000 -0.000000 0.000000 
0.000000 -0.000000 0.000000 
0.000000 0.000000 0.000000 

0.000000 0.000000 0.000000 
0.000000 -0.000000 0.000000 
0.000000 0.000000 0.000000 

-0.000000 -0.000000 0.000000 
0.000000 -0.000000 0.000000 
0.000000 0.000000 0.000000 

0.000000 0.000000 0.000000 
0.000000 -0.000000 0.000000 
0.000000 0.000000 0.000000 

0.000000 0.000000 0.000000 
0.000000 -0.000000 0.000000 
0.000000 0.000000 0.000000 

-0.000000 -0.000000 0.000000 
0.000000 0.000000 0.000000 
0.000000 0.000000 0.000000 

-0.000000 -0.000000 0.000000 
0.000000 0.000000 0.000000 
0.000000 0.000000 0.000000 

-0.000000 -0.000000 0.000000 
0.000000 -0.000000 0.000000 
0.000000 0.000000 0.000000 

-0.000000 -0.000000 0.000000 
0.000000 -0.000000 0.000000 
0.000000 0.000000 0.000000 

0.000000 -0.000000 0.000000 
0.000000 -0.000000 0.000000 
0.000000 0.000000 0.000000 

0.000000 -0.000000 0.000000 
0.000000 -0.000000 0.000000 
0.000000 0.000000 0.000000 

0.000000 -0.000000 0.000000 
0.000000 -0.000000 0.000000 
0.000000 0.000000 0.000000 

-0.000000 -0.000000 0.000000 
0.000000 0.000000 0.000000 
0.000000 0.000000 0.000000 

-0.000000 -0.000000 0.000000 
0.000000 0.000000 0.000000 
0.000000 0.000000 0.000000 

-0.000000 0.000000 0.000000 
0.000000 -0.000000 0.000000 
0.000000 0.000000 0.000000 

-0.000000 0.000000 0.000000 
0.000000 -0.000000 0.000000 
0.000000 0.000000 0.000000 

-0.000000 -0.000000 0.000000 
0.000000 -0.000000 0.000000 
0.000000 0.000000 0.000000 

-0.000000 -0.000000 0.000000 
0.000000 -0.000000 0.000000 
0.000000 0.000000 0.000000 

-0.000000 -0.000000 0.000000 
0.000000 -0.000000 0.000000 
0.000000 0.000000 0.000000 

-0.000000 -0.000000 0.000000 
0.000000 0.000000 0.000000 
0.000000 0.000000 0.000000 

-0.000000 -0.000000 0.000000 
0.000000 0.000000 0.000000 
0.000000 0.000000 0.000000 

-0.000000 -0.000000 0.000000 
0.000000 0.000000 0.000000 
0.000000 0.000000 0.000000 

-0.000000 0.000000 0.000000 
0.000000 0.000000 0.000000 
0.000000 0.000000 0.000000 

0.000000 0.000000 0.000000 
0.000000 0.000000 0.000000 
0.000000 0.000000 0.000000 

0.000000 -0.000000 0.000000 
0.000000 0.000000 0.000000 
0.000000 0.000000 0.000000 

0.000000 -0.000000 0.000000 
0.000000 0.000000 0.000000 
0.000000 0.000000 0.000000 

-0.000000 -0.000000 0.000000 
0.000000 0.000000 0.000000 
0.000000 0.000000 0.000000 

-0.000000 -0.000000 0.000000 
0.000000 0.000000 0.000000 
0.000000 0.000000 0.000000 

-0.000000 -0.000000 0.000000 
0.000000 0.000000 0.000000 
0.000000 0.000000 0.000000 

-0.000000 -0.000000 0.000000 
0.000000 0.000000 0.000000 
0.000000 0.000000 0.000000 

-0.000000 -0.000000 0.000000 
0.000000 0.000000 0.000000 
0.000000 0.000000 0.000000 

-0.000000 -0.000000 0.000000 
0.000000 -0.000000 0.000000 
0.000000 0.000000 0.000000 

-0.000000 -0.000000 0.000000 
0.000000 -0.000000 0.000000 
0.000000 0.000000 0.000000 

-0.000000 -0.000000 0.000000 
0.000000 0.000000 0.000000 
0.000000 0.000000 0.000000 

-0.000000 -0.000000 0.000000 
0.000000 -0.000000 0.000000 
0.000000 0.000000 0.000000 

0.000000 -0.000000 0.000000 
0.000000 -0.000000 0.000000 
0.000000 0.000000 0.000000 

0.000000 0.000000 0.000000 
0.000000 -0.000000 0.000000 
0.000000 0.000000 0.000000 

0.000000 0.000000 0.000000 
0.000000 -0.000000 0.000000 
0.000000 0.000000 0.000000 

0.000000 -0.000000 0.000000 
0.000000 -0.000000 0.000000 
0.000000 0.000000 0.000000 

0.000000 -0.000000 0.000000 
0.000000 -0.000000 0.000000 
0.000000 0.000000 0.000000 

-0.000000 0.000000 0.000000 
0.000000 0.000000 0.000000 
0.000000 0.000000 0.000000 

0.000000 0.000000 0.000000 
0.000000 0.000000 0.000000 
0.000000 0.000000 0.000000 

0.000000 -0.000000 0.000000 
0.000000 0.000000 0.000000 
0.000000 0.000000 0.000000 

0.000000 0.000000 0.000000 
0.000000 0.000000 0.000000 
0.000000 0.000000 0.000000 

0.000000 -0.000000 0.000000 
0.000000 0.000000 0.000000 
0.000000 0.000000 0.000000 

0.000000 -0.000000 0.000000 
0.000000 0.000000 0.000000 
0.000000 0.000000 0.000000 

0.000000 -0.000000 0.000000 
0.000000 0.000000 0.000000 
0.000000 0.000000 0.000000 

0.000000 0.000000 0.000000 
0.000000 0.000000 0.000000 
0.000000 0.000000 0.000000 

0.000000 -0.000000 0.000000 
0.000000 0.000000 0.000000 
0.000000 0.000000 0.000000 

0.000000 0.000000 0.000000 
0.000000 0.000000 0.000000 
0.000000 0.000000 0.000000 

0.000000 -0.000000 0.000000 
0.000000 0.000000 0.000000 
0.000000 0.000000 0.000000 

0.000000 0.000000 0.000000 
0.000000 0.000000 0.000000 
0.000000 0.000000 0.000000 

0.000000 -0.000000 0.000000 
0.000000 0.000000 0.000000 
0.000000 0.000000 0.000000 

0.000000 -0.000000 0.000000 
0.000000 0.000000 0.000000 
0.000000 0.000000 0.000000 

0.000000 0.000000 0.000000 
0.000000 -0.000000 0.000000 
0.000000 0.000000 0.000000 

0.000000 -0.000000 0.000000 
0.000000 -0.000000 0.000000 
0.000000 0.000000 0.000000 

0.000000 -0.000000 0.000000 
0.000000 -0.000000 0.000000 
0.000000 0.000000 0.000000 

-0.000000 -0.000000 0.000000 
0.000000 -0.000000 0.000000 
0.000000 0.000000 0.000000 

-0.000000 -0.000000 0.000000 
0.000000 -0.000000 0.000000 
0.000000 0.000000 0.000000 

-0.000000 -0.000000 0.000000 
0.000000 -0.000000 0.000000 
0.000000 0.000000 0.000000 

-0.000000 0.000000 0.000000 
0.000000 -0.000000 0.000000 
0.000000 0.000000 0.000000 

-0.000000 0.000000 0.000000 
0.000000 -0.000000 0.000000 
0.000000 0.000000 0.000000 

0.000000 0.000000 0.000000 
0.000000 -0.000000 0.000000 
0.000000 0.000000 0.000000 

0.000000 0.000000 0.000000 
0.000000 0.000000 0.000000 
0.000000 0.000000 0.000000 

0.000000 0.000000 0.000000 
0.000000 -0.000000 0.000000 
0.000000 0.000000 0.000000 

0.000000 0.000000 0.000000 
0.000000 -0.000000 0.000000 
0.000000 0.000000 0.000000 

-0.000000 0.000000 0.000000 
0.000000 0.000000 0.000000 
0.000000 0.000000 0.000000 

-0.000000 0.000000 0.000000 
0.000000 -0.000000 0.000000 
0.000000 0.000000 0.000000 

-0.000000 0.000000 0.000000 
0.000000 0.000000 0.000000 
0.000000 0.000000 0.000000 

-0.000000 -0.000000 0.000000 
0.000000 0.000000 0.000000 
0.000000 0.000000 0.000000 

-0.000000 0.000000 0.000000 
0.000000 0.000000 0.000000 
0.000000 0.000000 0.000000 

0.000000 0.000000 0.000000 
0.000000 0.000000 0.000000 
0.000000 0.000000 0.000000 

0.000000 0.000000 0.000000 
0.000000 -0.000000 0.000000 
0.000000 0.000000 0.000000 

0.000000 0.000000 0.000000 
0.000000 -0.000000 0.000000 
0.000000 0.000000 0.000000 

-0.000000 -0.000000 0.000000 
0.000000 -0.000000 0.000000 
0.000000 0.000000 0.000000 

-0.000000 -0.000000 0.000000 
0.000000 0.000000 0.000000 
0.000000 0.000000 0.000000 

-0.000000 0.000000 0.000000 
0.000000 -0.000000 0.000000 
0.000000 0.000000 0.000000 

-0.000000 0.000000 0.000000 
0.000000 0.000000 0.000000 
0.000000 0.000000 0.000000 

0.000000 0.000000 0.000000 
0.000000 -0.000000 0.000000 
0.000000 0.000000 0.000000 

0.000000 0.000000 0.000000 
0.000000 0.000000 0.000000 
0.000000 0.000000 0.000000 

-0.000000 -0.000000 0.000000 
0.000000 0.000000 0.000000 
0.000000 0.000000 0.000000 

0.000000 0.000000 0.000000 
0.000000 -0.000000 0.000000 
0.000000 0.000000 0.000000 

-0.000000 0.000000 0.000000 
0.000000 0.000000 0.000000 
0.000000 0.000000 0.000000 

-0.000000 -0.000000 0.000000 
0.000000 -0.000000 0.000000 
0.000000 0.000000 0.000000 

-0.000000 -0.000000 0.000000 
0.000000 0.000000 0.000000 
0.000000 0.000000 0.000000 

-0.000000 0.000000 0.000000 
0.000000 0.000000 0.000000 
0.000000 0.000000 0.000000 

-0.000000 0.000000 0.000000 
0.000000 0.000000 0.000000 
0.000000 0.000000 0.000000 

-0.000000 -0.000000 0.000000 
0.000000 0.000000 0.000000 
0.000000 0.000000 0.000000 

-0.000000 -0.000000 0.000000 
0.000000 0.000000 0.000000 
0.000000 0.000000 0.000000 

-0.000000 -0.000000 0.000000 
0.000000 0.000000 0.000000 
0.000000 0.000000 0.000000 

-0.000000 -0.000000 0.000000 
0.000000 0.000000 0.000000 
0.000000 0.000000 0.000000 

-0.000000 -0.000000 0.000000 
0.000000 0.000000 0.000000 
0.000000 0.000000 0.000000 

0.000000 -0.000000 0.000000 
0.000000 0.000000 0.000000 
0.000000 0.000000 0.000000 

0.000000 -0.000000 0.000000 
0.000000 0.000000 0.000000 
0.000000 0.000000 0.000000 

0.000000 -0.000000 0.000000 
0.000000 0.000000 0.000000 
0.000000 0.000000 0.000000 

0.000000 0.000000 0.000000 
0.000000 0.000000 0.000000 
0.000000 0.000000 0.000000 

-0.000000 -0.000000 0.000000 
0.000000 -0.000000 0.000000 
0.000000 0.000000 0.000000 

0.000000 0.000000 0.000000 
0.000000 0.000000 0.000000 
0.000000 0.000000 0.000000 

0.000000 0.000000 0.000000 
0.000000 0.000000 0.000000 
0.000000 0.000000 0.000000 

0.000000 -0.000000 0.000000 
0.000000 0.000000 0.000000 
0.000000 0.000000 0.000000 

-0.000000 -0.000000 0.000000 
0.000000 -0.000000 0.000000 
0.000000 0.000000 0.000000 

-0.000000 0.000000 0.000000 
0.000000 0.000000 0.000000 
0.000000 0.000000 0.000000 

0.000000 -0.000000 0.000000 
0.000000 -0.000000 0.000000 
0.000000 0.000000 0.000000 

-0.000000 0.000000 0.000000 
0.000000 0.000000 0.000000 
0.000000 0.000000 0.000000 

-0.000000 0.000000 0.000000 
0.000000 0.000000 0.000000 
0.000000 0.000000 0.000000 

-0.000000 0.000000 0.000000 
0.000000 0.000000 0.000000 
0.000000 0.000000 0.000000 

0.000000 0.000000 0.000000 
0.000000 -0.000000 0.000000 
0.000000 0.000000 0.000000 

0.000000 0.000000 0.000000 
0.000000 -0.000000 0.000000 
0.000000 0.000000 0.000000 

0.000000 0.000000 0.000000 
0.000000 -0.000000 0.000000 
0.000000 0.000000 0.000000 

0.000000 0.000000 0.000000 
0.000000 -0.000000 0.000000 
0.000000 0.000000 0.000000 

0.000000 -0.000000 0.000000 
0.000000 -0.000000 0.000000 
0.000000 0.000000 0.000000 

0.000000 -0.000000 0.000000 
0.000000 -0.000000 0.000000 
0.000000 0.000000 0.000000 

0.000000 -0.000000 0.000000 
0.000000 0.000000 0.000000 
0.000000 0.000000 0.000000 

0.000000 -0.000000 0.000000 
0.000000 0.000000 0.000000 
0.000000 0.000000 0.000000 

-0.000000 -0.000000 0.000000 
0.000000 0.000000 0.000000 
0.000000 0.000000 0.000000 

0.000000 -0.000000 0.000000 
0.000000 -0.000000 0.000000 
0.000000 0.000000 0.000000 

0.000000 -0.000000 0.000000 
0.000000 -0.000000 0.000000 
0.000000 0.000000 0.000000 

0.000000 -0.000000 0.000000 
0.000000 -0.000000 0.000000 
0.000000 0.000000 0.000000 

0.000000 0.000000 0.000000 
0.000000 0.000000 0.000000 
0.000000 0.000000 0.000000 

0.000000 -0.000000 0.000000 
0.000000 -0.000000 0.000000 
0.000000 0.000000 0.000000 

0.000000 0.000000 0.000000 
0.000000 -0.000000 0.000000 
0.000000 0.000000 0.000000 

0.000000 -0.000000 0.000000 
0.000000 0.000000 0.000000 
0.000000 0.000000 0.000000 

0.000000 -0.000000 0.000000 
0.000000 0.000000 0.000000 
0.000000 0.000000 0.000000 

0.000000 -0.000000 0.000000 
0.000000 0.000000 0.000000 
0.000000 0.000000 0.000000 

0.000000 -0.000000 0.000000 
0.000000 0.000000 0.000000 
0.000000 0.000000 0.000000 

0.000000 -0.000000 0.000000 
0.000000 0.000000 0.000000 
0.000000 0.000000 0.000000 

0.000000 -0.000000 0.000000 
0.000000 -0.000000 0.000000 
0.000000 0.000000 0.000000 

0.000000 0.000000 0.000000 
0.000000 0.000000 0.000000 
0.000000 0.000000 0.000000 

0.000000 -0.000000 0.000000 
0.000000 0.000000 0.000000 
0.000000 0.000000 0.000000 

-0.000000 -0.000000 0.000000 
0.000000 0.000000 0.000000 
0.000000 0.000000 0.000000 

-0.000000 -0.000000 0.000000 
0.000000 -0.000000 0.000000 
0.000000 0.000000 0.000000 

-0.000000 -0.000000 0.000000 
0.000000 0.000000 0.000000 
0.000000 0.000000 0.000000 

0.000000 -0.000000 0.000000 
0.000000 0.000000 0.000000 
0.000000 0.000000 0.000000 

0.000000 -0.000000 0.000000 
0.000000 0.000000 0.000000 
0.000000 0.000000 0.000000 

0.000000 -0.000000 0.000000 
0.000000 -0.000000 0.000000 
0.000000 0.000000 0.000000 

0.000000 0.000000 0.000000 
0.000000 0.000000 0.000000 
0.000000 0.000000 0.000000 

-0.000000 -0.000000 0.000000 
0.000000 0.000000 0.000000 
0.000000 0.000000 0.000000 

-0.000000 -0.000000 0.000000 
0.000000 0.000000 0.000000 
0.000000 0.000000 0.000000 

-0.000000 -0.000000 0.000000 
0.000000 -0.000000 0.000000 
0.000000 0.000000 0.000000 

-0.000000 -0.000000 0.000000 
0.000000 0.000000 0.000000 
0.000000 0.000000 0.000000 

-0.000000 -0.000000 0.000000 
0.000000 -0.000000 0.000000 
0.000000 0.000000 0.000000 

-0.000000 0.000000 0.000000 
0.000000 0.000000 0.000000 
0.000000 0.000000 0.000000 

-0.000000 0.000000 0.000000 
0.000000 0.000000 0.000000 
0.000000 0.000000 0.000000 

-0.000000 0.000000 0.000000 
0.000000 0.000000 0.000000 
0.000000 0.000000 0.000000 

-0.000000 0.000000 0.000000 
0.000000 0.000000 0.000000 
0.000000 0.000000 0.000000 

-0.000000 -0.000000 0.000000 
0.000000 0.000000 0.000000 
0.000000 0.000000 0.000000 

-0.000000 0.000000 0.000000 
0.000000 0.000000 0.000000 
0.000000 0.000000 0.000000 

-0.000000 0.000000 0.000000 
0.000000 0.000000 0.000000 
0.000000 0.000000 0.000000 

-0.000000 0.000000 0.000000 
0.000000 -0.000000 0.000000 
0.000000 0.000000 0.000000 

-0.000000 0.000000 0.000000 
0.000000 -0.000000 0.000000 
0.000000 0.000000 0.000000 

0.000000 0.000000 0.000000 
0.000000 -0.000000 0.000000 
0.000000 0.000000 0.000000 

0.000000 0.000000 0.000000 
0.000000 -0.000000 0.000000 
0.000000 0.000000 0.000000 

0.000000 0.000000 0.000000 
0.000000 -0.000000 0.000000 
0.000000 0.000000 0.000000 

0.000000 -0.000000 0.000000 
0.000000 -0.000000 0.000000 
0.000000 0.000000 0.000000 

0.000000 0.000000 0.000000 
0.000000 0.000000 0.000000 
0.000000 0.000000 0.000000 

0.000000 0.000000 0.000000 
0.000000 -0.000000 0.000000 
0.000000 0.000000 0.000000 

0.000000 0.000000 0.000000 
0.000000 0.000000 0.000000 
0.000000 0.000000 0.000000 

0.000000 0.000000 0.000000 
0.000000 -0.000000 0.000000 
0.000000 0.000000 0.000000 

0.000000 0.000000 0.000000 
0.000000 -0.000000 0.000000 
0.000000 0.000000 0.000000 

-0.000000 0.000000 0.000000 
0.000000 0.000000 0.000000 
0.000000 0.000000 0.000000 

0.000000 0.000000 0.000000 
0.000000 -0.000000 0.000000 
0.000000 0.000000 0.000000 

0.000000 0.000000 0.000000 
0.000000 0.000000 0.000000 
0.000000 0.000000 0.000000 

0.000000 0.000000 0.000000 
0.000000 -0.000000 0.000000 
0.000000 0.000000 0.000000 

0.000000 0.000000 0.000000 
0.000000 -0.000000 0.000000 
0.000000 0.000000 0.000000 

0.000000 0.000000 0.000000 
0.000000 -0.000000 0.000000 
0.000000 0.000000 0.000000 

0.000000 0.000000 0.000000 
0.000000 -0.000000 0.000000 
0.000000 0.000000 0.000000 

-0.000000 -0.000000 0.000000 
0.000000 0.000000 0.000000 
0.000000 0.000000 0.000000 

-0.000000 -0.000000 0.000000 
0.000000 -0.000000 0.000000 
0.000000 0.000000 0.000000 

0.000000 -0.000000 0.000000 
0.000000 0.000000 0.000000 
0.000000 0.000000 0.000000 

0.000000 -0.000000 0.000000 
0.000000 -0.000000 0.000000 
0.000000 0.000000 0.000000 

0.000000 -0.000000 0.000000 
0.000000 0.000000 0.000000 
0.000000 0.000000 0.000000 

0.000000 -0.000000 0.000000 
0.000000 0.000000 0.000000 
0.000000 0.000000 0.000000 

0.000000 -0.000000 0.000000 
0.000000 -0.000000 0.000000 
0.000000 0.000000 0.000000 

0.000000 0.000000 0.000000 
0.000000 0.000000 0.000000 
0.000000 0.000000 0.000000 

0.000000 -0.000000 0.000000 
0.000000 -0.000000 0.000000 
0.000000 0.000000 0.000000 

0.000000 0.000000 0.000000 
0.000000 -0.000000 0.000000 
0.000000 0.000000 0.000000 

0.000000 0.000000 0.000000 
0.000000 0.000000 0.000000 
0.000000 0.000000 0.000000 

-0.000000 -0.000000 0.000000 
0.000000 0.000000 0.000000 
0.000000 0.000000 0.000000 

-0.000000 0.000000 0.000000 
0.000000 0.000000 0.000000 
0.000000 0.000000 0.000000 

-0.000000 0.000000 0.000000 
0.000000 0.000000 0.000000 
0.000000 0.000000 0.000000 

-0.000000 0.000000 0.000000 
0.000000 0.000000 0.000000 
0.000000 0.000000 0.000000 

-0.000000 0.000000 0.000000 
0.000000 0.000000 0.000000 
0.000000 0.000000 0.000000 

-0.000000 0.000000 0.000000 
0.000000 0.000000 0.000000 
0.000000 0.000000 0.000000 

-0.000000 0.000000 0.000000 
0.000000 0.000000 0.000000 
0.000000 0.000000 0.000000 

-0.000000 0.000000 0.000000 
0.000000 0.000000 0.000000 
0.000000 0.000000 0.000000 

-0.000000 0.000000 0.000000 
0.000000 0.000000 0.000000 
0.000000 0.000000 0.000000 

-0.000000 0.000000 0.000000 
0.000000 0.000000 0.000000 
0.000000 0.000000 0.000000 

0.000000 0.000000 0.000000 
0.000000 0.000000 0.000000 
0.000000 0.000000 0.000000 

0.000000 0.000000 0.000000 
0.000000 0.000000 0.000000 
0.000000 0.000000 0.000000 

0.000000 0.000000 0.000000 
0.000000 0.000000 0.000000 
0.000000 0.000000 0.000000 

-0.000000 0.000000 0.000000 
0.000000 0.000000 0.000000 
0.000000 0.000000 0.000000 

-0.000000 0.000000 0.000000 
0.000000 0.000000 0.000000 
0.000000 0.000000 0.000000 

-0.000000 0.000000 0.000000 
0.000000 0.000000 0.000000 
0.000000 0.000000 0.000000 

-0.000000 0.000000 0.000000 
0.000000 0.000000 0.000000 
0.000000 0.000000 0.000000 

-0.000000 0.000000 0.000000 
0.000000 -0.000000 0.000000 
0.000000 0.000000 0.000000 

0.000000 0.000000 0.000000 
0.000000 -0.000000 0.000000 
0.000000 0.000000 0.000000 

-0.000000 -0.000000 0.000000 
0.000000 0.000000 0.000000 
0.000000 0.000000 0.000000 

0.000000 -0.000000 0.000000 
0.000000 0.000000 0.000000 
0.000000 0.000000 0.000000 

0.000000 0.000000 0.000000 
0.000000 0.000000 0.000000 
0.000000 0.000000 0.000000 

0.000000 0.000000 0.000000 
0.000000 0.000000 0.000000 
0.000000 0.000000 0.000000 

-0.000000 -0.000000 0.000000 
0.000000 0.000000 0.000000 
0.000000 0.000000 0.000000 

-0.000000 -0.000000 0.000000 
0.000000 -0.000000 0.000000 
0.000000 0.000000 0.000000 

-0.000000 -0.000000 0.000000 
0.000000 -0.000000 0.000000 
0.000000 0.000000 0.000000 

-0.000000 -0.000000 0.000000 
0.000000 -0.000000 0.000000 
0.000000 0.000000 0.000000 

-0.000000 -0.000000 0.000000 
0.000000 -0.000000 0.000000 
0.000000 0.000000 0.000000 

-0.000000 -0.000000 0.000000 
0.000000 0.000000 0.000000 
0.000000 0.000000 0.000000 

-0.000000 -0.000000 0.000000 
0.000000 0.000000 0.000000 
0.000000 0.000000 0.000000 

-0.000000 -0.000000 0.000000 
0.000000 -0.000000 0.000000 
0.000000 0.000000 0.000000 

-0.000000 -0.000000 0.000000 
0.000000 -0.000000 0.000000 
0.000000 0.000000 0.000000 

-0.000000 -0.000000 0.000000 
0.000000 0.000000 0.000000 
0.000000 0.000000 0.000000 

-0.000000 -0.000000 0.000000 
0.000000 0.000000 0.000000 
0.000000 0.000000 0.000000 

0.000000 0.000000 0.000000 
0.000000 0.000000 0.000000 
0.000000 0.000000 0.000000 

0.000000 0.000000 0.000000 
0.000000 0.000000 0.000000 
0.000000 0.000000 0.000000 

-0.000000 0.000000 0.000000 
0.000000 -0.000000 0.000000 
0.000000 0.000000 0.000000 

0.000000 -0.000000 0.000000 
0.000000 0.000000 0.000000 
0.000000 0.000000 0.000000 

0.000000 -0.000000 0.000000 
0.000000 0.000000 0.000000 
0.000000 0.000000 0.000000 

0.000000 -0.000000 0.000000 
0.000000 0.000000 0.000000 
0.000000 0.000000 0.000000 

-0.000000 0.000000 0.000000 
0.000000 -0.000000 0.000000 
0.000000 0.000000 0.000000 

0.000000 -0.000000 0.000000 
0.000000 -0.000000 0.000000 
0.000000 0.000000 0.000000 

0.000000 -0.000000 0.000000 
0.000000 -0.000000 0.000000 
0.000000 0.000000 0.000000 

0.000000 -0.000000 0.000000 
0.000000 0.000000 0.000000 
0.000000 0.000000 0.000000 

0.000000 0.000000 0.000000 
0.000000 0.000000 0.000000 
0.000000 0.000000 0.000000 

-0.000000 -0.000000 0.000000 
0.000000 -0.000000 0.000000 
0.000000 0.000000 0.000000 

0.000000 0.000000 0.000000 
0.000000 -0.000000 0.000000 
0.000000 0.000000 0.000000 

0.000000 0.000000 0.000000 
0.000000 0.000000 0.000000 
0.000000 0.000000 0.000000 

-0.000000 0.000000 0.000000 
0.000000 -0.000000 0.000000 
0.000000 0.000000 0.000000 

0.000000 0.000000 0.000000 
0.000000 -0.000000 0.000000 
0.000000 0.000000 0.000000 

0.000000 0.000000 0.000000 
0.000000 -0.000000 0.000000 
0.000000 0.000000 0.000000 

0.000000 0.000000 0.000000 
0.000000 0.000000 0.000000 
0.000000 0.000000 0.000000 

-0.000000 -0.000000 0.000000 
0.000000 0.000000 0.000000 
0.000000 0.000000 0.000000 

-0.000000 -0.000000 0.000000 
0.000000 0.000000 0.000000 
0.000000 0.000000 0.000000 

-0.000000 -0.000000 0.000000 
0.000000 0.000000 0.000000 
0.000000 0.000000 0.000000 

-0.000000 0.000000 0.000000 
0.000000 0.000000 0.000000 
0.000000 0.000000 0.000000 

0.000000 0.000000 0.000000 
0.000000 0.000000 0.000000 
0.000000 0.000000 0.000000 

-0.000000 -0.000000 0.000000 
0.000000 -0.000000 0.000000 
0.000000 0.000000 0.000000 

-0.000000 -0.000000 0.000000 
0.000000 0.000000 0.000000 
0.000000 0.000000 0.000000 

-0.000000 -0.000000 0.000000 
0.000000 0.000000 0.000000 
0.000000 0.000000 0.000000 

-0.000000 0.000000 0.000000 
0.000000 0.000000 0.000000 
0.000000 0.000000 0.000000 

-0.000000 0.000000 0.000000 
0.000000 0.000000 0.000000 
0.000000 0.000000 0.000000 

-0.000000 -0.000000 0.000000 
0.000000 0.000000 0.000000 
0.000000 0.000000 0.000000 

-0.000000 0.000000 0.000000 
0.000000 -0.000000 0.000000 
0.000000 0.000000 0.000000 

-0.000000 0.000000 0.000000 
0.000000 -0.000000 0.000000 
0.000000 0.000000 0.000000 

-0.000000 0.000000 0.000000 
0.000000 -0.000000 0.000000 
0.000000 0.000000 0.000000 

0.000000 -0.000000 0.000000 
0.000000 0.000000 0.000000 
0.000000 0.000000 0.000000 

-0.000000 0.000000 0.000000 
0.000000 0.000000 0.000000 
0.000000 0.000000 0.000000 

-0.000000 0.000000 0.000000 
0.000000 0.000000 0.000000 
0.000000 0.000000 0.000000 

-0.000000 0.000000 0.000000 
0.000000 0.000000 0.000000 
0.000000 0.000000 0.000000 

-0.000000 0.000000 0.000000 
0.000000 0.000000 0.000000 
0.000000 0.000000 0.000000 

0.000000 0.000000 0.000000 
0.000000 -0.000000 0.000000 
0.000000 0.000000 0.000000 

-0.000000 0.000000 0.000000 
0.000000 0.000000 0.000000 
0.000000 0.000000 0.000000 

0.000000 0.000000 0.000000 
0.000000 0.000000 0.000000 
0.000000 0.000000 0.000000 

-0.000000 -0.000000 0.000000 
0.000000 0.000000 0.000000 
0.000000 0.000000 0.000000 

0.000000 -0.000000 0.000000 
0.000000 0.000000 0.000000 
0.000000 0.000000 0.000000 

0.000000 0.000000 0.000000 
0.000000 0.000000 0.000000 
0.000000 0.000000 0.000000 

-0.000000 -0.000000 0.000000 
0.000000 -0.000000 0.000000 
0.000000 0.000000 0.000000 

0.000000 -0.000000 0.000000 
0.000000 -0.000000 0.000000 
0.000000 0.000000 0.000000 

-0.000000 -0.000000 0.000000 
0.000000 -0.000000 0.000000 
0.000000 0.000000 0.000000 

0.000000 0.000000 0.000000 
0.000000 -0.000000 0.000000 
0.000000 0.000000 0.000000 

-0.000000 0.000000 0.000000 
0.000000 0.000000 0.000000 
0.000000 0.000000 0.000000 

-0.000000 -0.000000 0.000000 
0.000000 -0.000000 0.000000 
0.000000 0.000000 0.000000 

0.000000 0.000000 0.000000 
0.000000 -0.000000 0.000000 
0.000000 0.000000 0.000000 

0.000000 0.000000 0.000000 
0.000000 0.000000 0.000000 
0.000000 0.000000 0.000000 

0.000000 0.000000 0.000000 
0.000000 -0.000000 0.000000 
0.000000 0.000000 0.000000 

0.000000 0.000000 0.000000 
0.000000 0.000000 0.000000 
0.000000 0.000000 0.000000 

0.000000 -0.000000 0.000000 
0.000000 0.000000 0.000000 
0.000000 0.000000 0.000000 

0.000000 -0.000000 0.000000 
0.000000 -0.000000 0.000000 
0.000000 0.000000 0.000000 

0.000000 -0.000000 0.000000 
0.000000 -0.000000 0.000000 
0.000000 0.000000 0.000000 

0.000000 -0.000000 0.000000 
0.000000 0.000000 0.000000 
0.000000 0.000000 0.000000 

0.000000 0.000000 0.000000 
0.000000 0.000000 0.000000 
0.000000 0.000000 0.000000 

0.000000 0.000000 0.000000 
0.000000 -0.000000 0.000000 
0.000000 0.000000 0.000000 

0.000000 -0.000000 0.000000 
0.000000 -0.000000 0.000000 
0.000000 0.000000 0.000000 

-0.000000 0.000000 0.000000 
0.000000 0.000000 0.000000 
0.000000 0.000000 0.000000 

-0.000000 0.000000 0.000000 
0.000000 0.000000 0.000000 
0.000000 0.000000 0.000000 

0.000000 0.000000 0.000000 
0.000000 -0.000000 0.000000 
0.000000 0.000000 0.000000 

0.000000 0.000000 0.000000 
0.000000 -0.000000 0.000000 
0.000000 0.000000 0.000000 

0.000000 0.000000 0.000000 
0.000000 -0.000000 0.000000 
0.000000 0.000000 0.000000 

0.000000 -0.000000 0.000000 
0.000000 -0.000000 0.000000 
0.000000 0.000000 0.000000 

0.000000 -0.000000 0.000000 
0.000000 -0.000000 0.000000 
0.000000 0.000000 0.000000 

0.000000 0.000000 0.000000 
0.000000 0.000000 0.000000 
0.000000 0.000000 0.000000 

0.000000 -0.000000 0.000000 
0.000000 0.000000 0.000000 
0.000000 0.000000 0.000000 

0.000000 0.000000 0.000000 
0.000000 -0.000000 0.000000 
0.000000 0.000000 0.000000 

0.000000 0.000000 0.000000 
0.000000 0.000000 0.000000 
0.000000 0.000000 0.000000 

0.000000 0.000000 0.000000 
0.000000 0.000000 0.000000 
0.000000 0.000000 0.000000 

0.000000 0.000000 0.000000 
0.000000 0.000000 0.000000 
0.000000 0.000000 0.000000 

-0.000000 0.000000 0.000000 
0.000000 -0.000000 0.000000 
0.000000 0.000000 0.000000 

-0.000000 0.000000 0.000000 
0.000000 -0.000000 0.000000 
0.000000 0.000000 0.000000 

0.000000 0.000000 0.000000 
0.000000 -0.000000 0.000000 
0.000000 0.000000 0.000000 

0.000000 -0.000000 0.000000 
0.000000 0.000000 0.000000 
0.000000 0.000000 0.000000 

0.000000 0.000000 0.000000 
0.000000 0.000000 0.000000 
0.000000 0.000000 0.000000 

0.000000 0.000000 0.000000 
0.000000 0.000000 0.000000 
0.000000 0.000000 0.000000 

-0.000000 -0.000000 0.000000 
0.000000 0.000000 0.000000 
0.000000 0.000000 0.000000 

0.000000 0.000000 0.000000 
0.000000 -0.000000 0.000000 
0.000000 0.000000 0.000000 

-0.000000 -0.000000 0.000000 
0.000000 -0.000000 0.000000 
0.000000 0.000000 0.000000 

-0.000000 0.000000 0.000000 
0.000000 0.000000 0.000000 
0.000000 0.000000 0.000000 

-0.000000 -0.000000 0.000000 
0.000000 0.000000 0.000000 
0.000000 0.000000 0.000000 

-0.000000 -0.000000 0.000000 
0.000000 -0.000000 0.000000 
0.000000 0.000000 0.000000 

-0.000000 -0.000000 0.000000 
0.000000 0.000000 0.000000 
0.000000 0.000000 0.000000 

-0.000000 0.000000 0.000000 
0.000000 -0.000000 0.000000 
0.000000 0.000000 0.000000 

-0.000000 0.000000 0.000000 
0.000000 0.000000 0.000000 
0.000000 0.000000 0.000000 

0.000000 0.000000 0.000000 
0.000000 0.000000 0.000000 
0.000000 0.000000 0.000000 

0.000000 0.000000 0.000000 
0.000000 0.000000 0.000000 
0.000000 0.000000 0.000000 

-0.000000 -0.000000 0.000000 
0.000000 -0.000000 0.000000 
0.000000 0.000000 0.000000 

0.000000 -0.000000 0.000000 
0.000000 -0.000000 0.000000 
0.000000 0.000000 0.000000 

0.000000 0.000000 0.000000 
0.000000 -0.000000 0.000000 
0.000000 0.000000 0.000000 

0.000000 0.000000 0.000000 
0.000000 0.000000 0.000000 
0.000000 0.000000 0.000000 

-0.000000 -0.000000 0.000000 
0.000000 0.000000 0.000000 
0.000000 0.000000 0.000000 

-0.000000 -0.000000 0.000000 
0.000000 -0.000000 0.000000 
0.000000 0.000000 0.000000 

-0.000000 -0.000000 0.000000 
0.000000 -0.000000 0.000000 
0.000000 0.000000 0.000000 

-0.000000 -0.000000 0.000000 
0.000000 -0.000000 0.000000 
0.000000 0.000000 0.000000 

-0.000000 -0.000000 0.000000 
0.000000 -0.000000 0.000000 
0.000000 0.000000 0.000000 

-0.000000 -0.000000 0.000000 
0.000000 0.000000 0.000000 
0.000000 0.000000 0.000000 

0.000000 0.000000 0.000000 
0.000000 0.000000 0.000000 
0.000000 0.000000 0.000000 

0.000000 -0.000000 0.000000 
0.000000 -0.000000 0.000000 
0.000000 0.000000 0.000000 

-0.000000 0.000000 0.000000 
0.000000 0.000000 0.000000 
0.000000 0.000000 0.000000 

-0.000000 0.000000 0.000000 
0.000000 -0.000000 0.000000 
0.000000 0.000000 0.000000 

-0.000000 0.000000 0.000000 
0.000000 -0.000000 0.000000 
0.000000 0.000000 0.000000 

-0.000000 0.000000 0.000000 
0.000000 -0.000000 0.000000 
0.000000 0.000000 0.000000 

0.000000 -0.000000 0.000000 
0.000000 -0.000000 0.000000 
0.000000 0.000000 0.000000 

0.000000 -0.000000 0.000000 
0.000000 0.000000 0.000000 
0.000000 0.000000 0.000000 

-0.000000 0.000000 0.000000 
0.000000 0.000000 0.000000 
0.000000 0.000000 0.000000 

-0.000000 -0.000000 0.000000 
0.000000 0.000000 0.000000 
0.000000 0.000000 0.000000 

0.000000 0.000000 0.000000 
0.000000 0.000000 0.000000 
0.000000 0.000000 0.000000 

0.000000 0.000000 0.000000 
0.000000 0.000000 0.000000 
0.000000 0.000000 0.000000 

0.000000 0.000000 0.000000 
0.000000 -0.000000 0.000000 
0.000000 0.000000 0.000000 

-0.000000 0.000000 0.000000 
0.000000 -0.000000 0.000000 
0.000000 0.000000 0.000000 

-0.000000 -0.000000 0.000000 
0.000000 0.000000 0.000000 
0.000000 0.000000 0.000000 

0.000000 -0.000000 0.000000 
0.000000 -0.000000 0.000000 
0.000000 0.000000 0.000000 

-0.000000 -0.000000 0.000000 
0.000000 0.000000 0.000000 
0.000000 0.000000 0.000000 

0.000000 0.000000 0.000000 
0.000000 0.000000 0.000000 
0.000000 0.000000 0.000000 

-0.000000 0.000000 0.000000 
0.000000 0.000000 0.000000 
0.000000 0.000000 0.000000 

0.000000 0.000000 0.000000 
0.000000 0.000000 0.000000 
0.000000 0.000000 0.000000 

0.000000 0.000000 0.000000 
0.000000 -0.000000 0.000000 
0.000000 0.000000 0.000000 

0.000000 0.000000 0.000000 
0.000000 -0.000000 0.000000 
0.000000 0.000000 0.000000 

0.000000 0.000000 0.000000 
0.000000 -0.000000 0.000000 
0.000000 0.000000 0.000000 

0.000000 0.000000 0.000000 
0.000000 -0.000000 0.000000 
0.000000 0.000000 0.000000 

0.000000 -0.000000 0.000000 
0.000000 -0.000000 0.000000 
0.000000 0.000000 0.000000 

-0.000000 0.000000 0.000000 
0.000000 0.000000 0.000000 
0.000000 0.000000 0.000000 

0.000000 -0.000000 0.000000 
0.000000 -0.000000 0.000000 
0.000000 0.000000 0.000000 

-0.000000 -0.000000 0.000000 
0.000000 0.000000 0.000000 
0.000000 0.000000 0.000000 

-0.000000 -0.000000 0.000000 
0.000000 0.000000 0.000000 
0.000000 0.000000 0.000000 

-0.000000 -0.000000 0.000000 
0.000000 -0.000000 0.000000 
0.000000 0.000000 0.000000 

-0.000000 0.000000 0.000000 
0.000000 0.000000 0.000000 
0.000000 0.000000 0.000000 

-0.000000 -0.000000 0.000000 
0.000000 0.000000 0.000000 
0.000000 0.000000 0.000000 

0.000000 -0.000000 0.000000 
0.000000 -0.000000 0.000000 
0.000000 0.000000 0.000000 

0.000000 0.000000 0.000000 
0.000000 -0.000000 0.000000 
0.000000 0.000000 0.000000 

0.000000 0.000000 0.000000 
0.000000 0.000000 0.000000 
0.000000 0.000000 0.000000 

0.000000 -0.000000 0.000000 
0.000000 0.000000 0.000000 
0.000000 0.000000 0.000000 

0.000000 0.000000 0.000000 
0.000000 -0.000000 0.000000 
0.000000 0.000000 0.000000 

-0.000000 0.000000 0.000000 
0.000000 -0.000000 0.000000 
0.000000 0.000000 0.000000 

0.000000 0.000000 0.000000 
0.000000 0.000000 0.000000 
0.000000 0.000000 0.000000 

0.000000 0.000000 0.000000 
0.000000 -0.000000 0.000000 
0.000000 0.000000 0.000000 

0.000000 0.000000 0.000000 
0.000000 -0.000000 0.000000 
0.000000 0.000000 0.000000 

0.000000 0.000000 0.000000 
0.000000 -0.000000 0.000000 
0.000000 0.000000 0.000000 

0.000000 0.000000 0.000000 
0.000000 -0.000000 0.000000 
0.000000 0.000000 0.000000 

0.000000 -0.000000 0.000000 
0.000000 -0.000000 0.000000 
0.000000 0.000000 0.000000 

-0.000000 0.000000 0.000000 
0.000000 0.000000 0.000000 
0.000000 0.000000 0.000000 

-0.000000 -0.000000 0.000000 
0.000000 -0.000000 0.000000 
0.000000 0.000000 0.000000 

0.000000 -0.000000 0.000000 
0.000000 -0.000000 0.000000 
0.000000 0.000000 0.000000 

-0.000000 0.000000 0.000000 
0.000000 0.000000 0.000000 
0.000000 0.000000 0.000000 

-0.000000 -0.000000 0.000000 
0.000000 0.000000 0.000000 
0.000000 0.000000 0.000000 

0.000000 -0.000000 0.000000 
0.000000 -0.000000 0.000000 
0.000000 0.000000 0.000000 

0.000000 -0.000000 0.000000 
0.000000 -0.000000 0.000000 
0.000000 0.000000 0.000000 

-0.000000 -0.000000 0.000000 
0.000000 0.000000 0.000000 
0.000000 0.000000 0.000000 

0.000000 0.000000 0.000000 
0.000000 0.000000 0.000000 
0.000000 0.000000 0.000000 

-0.000000 -0.000000 0.000000 
0.000000 0.000000 0.000000 
0.000000 0.000000 0.000000 

-0.000000 0.000000 0.000000 
0.000000 -0.000000 0.000000 
0.000000 0.000000 0.000000 

-0.000000 -0.000000 0.000000 
0.000000 0.000000 0.000000 
0.000000 0.000000 0.000000 

-0.000000 -0.000000 0.000000 
0.000000 0.000000 0.000000 
0.000000 0.000000 0.000000 

0.000000 -0.000000 0.000000 
0.000000 -0.000000 0.000000 
0.000000 0.000000 0.000000 

-0.000000 0.000000 0.000000 
0.000000 0.000000 0.000000 
0.000000 0.000000 0.000000 

-0.000000 0.000000 0.000000 
0.000000 -0.000000 0.000000 
0.000000 0.000000 0.000000 

0.000000 0.000000 0.000000 
0.000000 -0.000000 0.000000 
0.000000 0.000000 0.000000 

0.000000 0.000000 0.000000 
0.000000 0.000000 0.000000 
0.000000 0.000000 0.000000 

0.000000 0.000000 0.000000 
0.000000 -0.000000 0.000000 
0.000000 0.000000 0.000000 

0.000000 0.000000 0.000000 
0.000000 -0.000000 0.000000 
0.000000 0.000000 0.000000 

-0.000000 0.000000 0.000000 
0.000000 0.000000 0.000000 
0.000000 0.000000 0.000000 

-0.000000 0.000000 0.000000 
0.000000 -0.000000 0.000000 
0.000000 0.000000 0.000000 

-0.000000 0.000000 0.000000 
0.000000 0.000000 0.000000 
0.000000 0.000000 0.000000 

0.000000 0.000000 0.000000 
0.000000 0.000000 0.000000 
0.000000 0.000000 0.000000 

0.000000 -0.000000 0.000000 
0.000000 -0.000000 0.000000 
0.000000 0.000000 0.000000 

-0.000000 0.000000 0.000000 
0.000000 -0.000000 0.000000 
0.000000 0.000000 0.000000 

0.000000 -0.000000 0.000000 
0.000000 -0.000000 0.000000 
0.000000 0.000000 0.000000 

-0.000000 0.000000 0.000000 
0.000000 -0.000000 0.000000 
0.000000 0.000000 0.000000 

0.000000 -0.000000 0.000000 
0.000000 -0.000000 0.000000 
0.000000 0.000000 0.000000 

