# vtk DataFile Version 3.0 
vtk output 
ASCII 
DATASET UNSTRUCTURED_GRID 
POINTS 175 float 
-0.026061 -1.378938 0.000000 
-0.106992 -1.310882 0.000000 
-0.054870 -1.319115 0.000000 
-0.028809 -1.273231 0.000000 
-0.186430 -1.246807 0.000000 
-0.137056 -1.249333 0.000000 
-0.114311 -1.195686 0.000000 
-0.058186 -1.211351 0.000000 
-0.029377 -1.171174 0.000000 
-0.265318 -1.183651 0.000000 
-0.217198 -1.184451 0.000000 
-0.196633 -1.127154 0.000000 
-0.143120 -1.135863 0.000000 
-0.116563 -1.088594 0.000000 
-0.058945 -1.108240 0.000000 
-0.029568 -1.070120 0.000000 
-0.344206 -1.120495 0.000000 
-0.296791 -1.120488 0.000000 
-0.278030 -1.060545 0.000000 
-0.225992 -1.066411 0.000000 
-0.201664 -1.014294 0.000000 
-0.145749 -1.027768 0.000000 
-0.117890 -0.983426 0.000000 
-0.059328 -1.006132 0.000000 
-0.029759 -0.969066 0.000000 
-0.058559 -1.419688 0.000000 
-0.162226 -1.440531 0.000000 
-0.123292 -1.404913 0.000000 
-0.142917 -1.355930 0.000000 
-0.261851 -1.462687 0.000000 
-0.229092 -1.425660 0.000000 
-0.256854 -1.374429 0.000000 
-0.209613 -1.340316 0.000000 
-0.223062 -1.292742 0.000000 
-0.360414 -1.484988 0.000000 
-0.329787 -1.447865 0.000000 
-0.361761 -1.396063 0.000000 
-0.321587 -1.359654 0.000000 
-0.341985 -1.309420 0.000000 
-0.290702 -1.276621 0.000000 
-0.302189 -1.229886 0.000000 
-0.458977 -1.507288 0.000000 
-0.429420 -1.470213 0.000000 
-0.464588 -1.418171 0.000000 
-0.427556 -1.381144 0.000000 
-0.453135 -1.329629 0.000000 
-0.407738 -1.294314 0.000000 
-0.425037 -1.244886 0.000000 
-0.370772 -1.213256 0.000000 
-0.381315 -1.167029 0.000000 
-0.046960 -1.470504 0.000000 
-0.095301 -1.564550 0.000000 
-0.098873 -1.511902 0.000000 
-0.149405 -1.496705 0.000000 
-0.140093 -1.656254 0.000000 
-0.148617 -1.607555 0.000000 
-0.205981 -1.597318 0.000000 
-0.203197 -1.539115 0.000000 
-0.248777 -1.519968 0.000000 
-0.184111 -1.747217 0.000000 
-0.194039 -1.700126 0.000000 
-0.254475 -1.692826 0.000000 
-0.257893 -1.638717 0.000000 
-0.309886 -1.623344 0.000000 
-0.303554 -1.562799 0.000000 
-0.347255 -1.542641 0.000000 
-0.228129 -1.838181 0.000000 
-0.238687 -1.791956 0.000000 
-0.301302 -1.787004 0.000000 
-0.307162 -1.734966 0.000000 
-0.363386 -1.722845 0.000000 
-0.362692 -1.665333 0.000000 
-0.412122 -1.648040 0.000000 
-0.403017 -1.585893 0.000000 
-0.445733 -1.565314 0.000000 
-0.000000 -1.493119 0.000000 
0.043388 -1.589549 0.000000 
-0.000000 -1.559517 0.000000 
-0.043388 -1.589549 0.000000 
0.087158 -1.681746 0.000000 
0.043769 -1.658047 0.000000 
-0.000000 -1.696513 0.000000 
-0.043769 -1.658047 0.000000 
-0.087158 -1.681746 0.000000 
0.130831 -1.772875 0.000000 
0.087824 -1.751277 0.000000 
0.044436 -1.793976 0.000000 
-0.000000 -1.762911 0.000000 
-0.044436 -1.793976 0.000000 
-0.087824 -1.751277 0.000000 
-0.130831 -1.772875 0.000000 
0.174505 -1.864005 0.000000 
0.131782 -1.843439 0.000000 
0.088871 -1.889306 0.000000 
0.044532 -1.861442 0.000000 
-0.000000 -1.897842 0.000000 
-0.044532 -1.861442 0.000000 
-0.088871 -1.889306 0.000000 
-0.131782 -1.843439 0.000000 
-0.174505 -1.864005 0.000000 
0.046960 -1.470504 0.000000 
0.149405 -1.496705 0.000000 
0.098873 -1.511902 0.000000 
0.095301 -1.564550 0.000000 
0.248777 -1.519968 0.000000 
0.203197 -1.539115 0.000000 
0.205981 -1.597318 0.000000 
0.148617 -1.607555 0.000000 
0.140093 -1.656254 0.000000 
0.347255 -1.542641 0.000000 
0.303554 -1.562799 0.000000 
0.309886 -1.623344 0.000000 
0.257893 -1.638717 0.000000 
0.254475 -1.692826 0.000000 
0.194039 -1.700126 0.000000 
0.184111 -1.747217 0.000000 
0.445733 -1.565314 0.000000 
0.403017 -1.585893 0.000000 
0.412122 -1.648040 0.000000 
0.362692 -1.665333 0.000000 
0.363386 -1.722845 0.000000 
0.307162 -1.734966 0.000000 
0.301302 -1.787004 0.000000 
0.238687 -1.791956 0.000000 
0.228129 -1.838181 0.000000 
0.058559 -1.419688 0.000000 
0.142917 -1.355930 0.000000 
0.123292 -1.404913 0.000000 
0.162226 -1.440531 0.000000 
0.223062 -1.292742 0.000000 
0.209613 -1.340316 0.000000 
0.256854 -1.374429 0.000000 
0.229092 -1.425660 0.000000 
0.261851 -1.462687 0.000000 
0.302189 -1.229886 0.000000 
0.290702 -1.276621 0.000000 
0.341985 -1.309420 0.000000 
0.321587 -1.359654 0.000000 
0.361761 -1.396063 0.000000 
0.329787 -1.447865 0.000000 
0.360414 -1.484988 0.000000 
0.381315 -1.167029 0.000000 
0.370772 -1.213256 0.000000 
0.425037 -1.244886 0.000000 
0.407738 -1.294314 0.000000 
0.453135 -1.329629 0.000000 
0.427556 -1.381144 0.000000 
0.464588 -1.418171 0.000000 
0.429420 -1.470213 0.000000 
0.458977 -1.507288 0.000000 
0.026061 -1.378938 0.000000 
0.028809 -1.273231 0.000000 
0.054870 -1.319115 0.000000 
0.106992 -1.310882 0.000000 
0.029377 -1.171174 0.000000 
0.058186 -1.211351 0.000000 
0.114311 -1.195686 0.000000 
0.137056 -1.249333 0.000000 
0.186430 -1.246807 0.000000 
0.029568 -1.070120 0.000000 
0.058945 -1.108240 0.000000 
0.116563 -1.088594 0.000000 
0.143120 -1.135863 0.000000 
0.196633 -1.127154 0.000000 
0.217198 -1.184451 0.000000 
0.265318 -1.183651 0.000000 
0.029759 -0.969066 0.000000 
0.059328 -1.006132 0.000000 
0.117890 -0.983426 0.000000 
0.145749 -1.027768 0.000000 
0.201664 -1.014294 0.000000 
0.225992 -1.066411 0.000000 
0.278030 -1.060545 0.000000 
0.296791 -1.120488 0.000000 
0.344206 -1.120495 0.000000 
CELLS 175 350 
1 0 
1 1 
1 2 
1 3 
1 4 
1 5 
1 6 
1 7 
1 8 
1 9 
1 10 
1 11 
1 12 
1 13 
1 14 
1 15 
1 16 
1 17 
1 18 
1 19 
1 20 
1 21 
1 22 
1 23 
1 24 
1 25 
1 26 
1 27 
1 28 
1 29 
1 30 
1 31 
1 32 
1 33 
1 34 
1 35 
1 36 
1 37 
1 38 
1 39 
1 40 
1 41 
1 42 
1 43 
1 44 
1 45 
1 46 
1 47 
1 48 
1 49 
1 50 
1 51 
1 52 
1 53 
1 54 
1 55 
1 56 
1 57 
1 58 
1 59 
1 60 
1 61 
1 62 
1 63 
1 64 
1 65 
1 66 
1 67 
1 68 
1 69 
1 70 
1 71 
1 72 
1 73 
1 74 
1 75 
1 76 
1 77 
1 78 
1 79 
1 80 
1 81 
1 82 
1 83 
1 84 
1 85 
1 86 
1 87 
1 88 
1 89 
1 90 
1 91 
1 92 
1 93 
1 94 
1 95 
1 96 
1 97 
1 98 
1 99 
1 100 
1 101 
1 102 
1 103 
1 104 
1 105 
1 106 
1 107 
1 108 
1 109 
1 110 
1 111 
1 112 
1 113 
1 114 
1 115 
1 116 
1 117 
1 118 
1 119 
1 120 
1 121 
1 122 
1 123 
1 124 
1 125 
1 126 
1 127 
1 128 
1 129 
1 130 
1 131 
1 132 
1 133 
1 134 
1 135 
1 136 
1 137 
1 138 
1 139 
1 140 
1 141 
1 142 
1 143 
1 144 
1 145 
1 146 
1 147 
1 148 
1 149 
1 150 
1 151 
1 152 
1 153 
1 154 
1 155 
1 156 
1 157 
1 158 
1 159 
1 160 
1 161 
1 162 
1 163 
1 164 
1 165 
1 166 
1 167 
1 168 
1 169 
1 170 
1 171 
1 172 
1 173 
1 174 
CELL_TYPES 175 
1 
1 
1 
1 
1 
1 
1 
1 
1 
1 
1 
1 
1 
1 
1 
1 
1 
1 
1 
1 
1 
1 
1 
1 
1 
1 
1 
1 
1 
1 
1 
1 
1 
1 
1 
1 
1 
1 
1 
1 
1 
1 
1 
1 
1 
1 
1 
1 
1 
1 
1 
1 
1 
1 
1 
1 
1 
1 
1 
1 
1 
1 
1 
1 
1 
1 
1 
1 
1 
1 
1 
1 
1 
1 
1 
1 
1 
1 
1 
1 
1 
1 
1 
1 
1 
1 
1 
1 
1 
1 
1 
1 
1 
1 
1 
1 
1 
1 
1 
1 
1 
1 
1 
1 
1 
1 
1 
1 
1 
1 
1 
1 
1 
1 
1 
1 
1 
1 
1 
1 
1 
1 
1 
1 
1 
1 
1 
1 
1 
1 
1 
1 
1 
1 
1 
1 
1 
1 
1 
1 
1 
1 
1 
1 
1 
1 
1 
1 
1 
1 
1 
1 
1 
1 
1 
1 
1 
1 
1 
1 
1 
1 
1 
1 
1 
1 
1 
1 
1 
1 
1 
1 
1 
1 
1 
POINT_DATA 175 
VECTORS X_GC float 
-0.026061 -1.378938 0.000000 
-0.106992 -1.310882 0.000000 
-0.054870 -1.319115 0.000000 
-0.028809 -1.273231 0.000000 
-0.186430 -1.246807 0.000000 
-0.137056 -1.249333 0.000000 
-0.114311 -1.195686 0.000000 
-0.058186 -1.211351 0.000000 
-0.029377 -1.171174 0.000000 
-0.265318 -1.183651 0.000000 
-0.217198 -1.184451 0.000000 
-0.196633 -1.127154 0.000000 
-0.143120 -1.135863 0.000000 
-0.116563 -1.088594 0.000000 
-0.058945 -1.108240 0.000000 
-0.029568 -1.070120 0.000000 
-0.344206 -1.120495 0.000000 
-0.296791 -1.120488 0.000000 
-0.278030 -1.060545 0.000000 
-0.225992 -1.066411 0.000000 
-0.201664 -1.014294 0.000000 
-0.145749 -1.027768 0.000000 
-0.117890 -0.983426 0.000000 
-0.059328 -1.006132 0.000000 
-0.029759 -0.969066 0.000000 
-0.058559 -1.419688 0.000000 
-0.162226 -1.440531 0.000000 
-0.123292 -1.404913 0.000000 
-0.142917 -1.355930 0.000000 
-0.261851 -1.462687 0.000000 
-0.229092 -1.425660 0.000000 
-0.256854 -1.374429 0.000000 
-0.209613 -1.340316 0.000000 
-0.223062 -1.292742 0.000000 
-0.360414 -1.484988 0.000000 
-0.329787 -1.447865 0.000000 
-0.361761 -1.396063 0.000000 
-0.321587 -1.359654 0.000000 
-0.341985 -1.309420 0.000000 
-0.290702 -1.276621 0.000000 
-0.302189 -1.229886 0.000000 
-0.458977 -1.507288 0.000000 
-0.429420 -1.470213 0.000000 
-0.464588 -1.418171 0.000000 
-0.427556 -1.381144 0.000000 
-0.453135 -1.329629 0.000000 
-0.407738 -1.294314 0.000000 
-0.425037 -1.244886 0.000000 
-0.370772 -1.213256 0.000000 
-0.381315 -1.167029 0.000000 
-0.046960 -1.470504 0.000000 
-0.095301 -1.564550 0.000000 
-0.098873 -1.511902 0.000000 
-0.149405 -1.496705 0.000000 
-0.140093 -1.656254 0.000000 
-0.148617 -1.607555 0.000000 
-0.205981 -1.597318 0.000000 
-0.203197 -1.539115 0.000000 
-0.248777 -1.519968 0.000000 
-0.184111 -1.747217 0.000000 
-0.194039 -1.700126 0.000000 
-0.254475 -1.692826 0.000000 
-0.257893 -1.638717 0.000000 
-0.309886 -1.623344 0.000000 
-0.303554 -1.562799 0.000000 
-0.347255 -1.542641 0.000000 
-0.228129 -1.838181 0.000000 
-0.238687 -1.791956 0.000000 
-0.301302 -1.787004 0.000000 
-0.307162 -1.734966 0.000000 
-0.363386 -1.722845 0.000000 
-0.362692 -1.665333 0.000000 
-0.412122 -1.648040 0.000000 
-0.403017 -1.585893 0.000000 
-0.445733 -1.565314 0.000000 
-0.000000 -1.493119 0.000000 
0.043388 -1.589549 0.000000 
-0.000000 -1.559517 0.000000 
-0.043388 -1.589549 0.000000 
0.087158 -1.681746 0.000000 
0.043769 -1.658047 0.000000 
-0.000000 -1.696513 0.000000 
-0.043769 -1.658047 0.000000 
-0.087158 -1.681746 0.000000 
0.130831 -1.772875 0.000000 
0.087824 -1.751277 0.000000 
0.044436 -1.793976 0.000000 
-0.000000 -1.762911 0.000000 
-0.044436 -1.793976 0.000000 
-0.087824 -1.751277 0.000000 
-0.130831 -1.772875 0.000000 
0.174505 -1.864005 0.000000 
0.131782 -1.843439 0.000000 
0.088871 -1.889306 0.000000 
0.044532 -1.861442 0.000000 
-0.000000 -1.897842 0.000000 
-0.044532 -1.861442 0.000000 
-0.088871 -1.889306 0.000000 
-0.131782 -1.843439 0.000000 
-0.174505 -1.864005 0.000000 
0.046960 -1.470504 0.000000 
0.149405 -1.496705 0.000000 
0.098873 -1.511902 0.000000 
0.095301 -1.564550 0.000000 
0.248777 -1.519968 0.000000 
0.203197 -1.539115 0.000000 
0.205981 -1.597318 0.000000 
0.148617 -1.607555 0.000000 
0.140093 -1.656254 0.000000 
0.347255 -1.542641 0.000000 
0.303554 -1.562799 0.000000 
0.309886 -1.623344 0.000000 
0.257893 -1.638717 0.000000 
0.254475 -1.692826 0.000000 
0.194039 -1.700126 0.000000 
0.184111 -1.747217 0.000000 
0.445733 -1.565314 0.000000 
0.403017 -1.585893 0.000000 
0.412122 -1.648040 0.000000 
0.362692 -1.665333 0.000000 
0.363386 -1.722845 0.000000 
0.307162 -1.734966 0.000000 
0.301302 -1.787004 0.000000 
0.238687 -1.791956 0.000000 
0.228129 -1.838181 0.000000 
0.058559 -1.419688 0.000000 
0.142917 -1.355930 0.000000 
0.123292 -1.404913 0.000000 
0.162226 -1.440531 0.000000 
0.223062 -1.292742 0.000000 
0.209613 -1.340316 0.000000 
0.256854 -1.374429 0.000000 
0.229092 -1.425660 0.000000 
0.261851 -1.462687 0.000000 
0.302189 -1.229886 0.000000 
0.290702 -1.276621 0.000000 
0.341985 -1.309420 0.000000 
0.321587 -1.359654 0.000000 
0.361761 -1.396063 0.000000 
0.329787 -1.447865 0.000000 
0.360414 -1.484988 0.000000 
0.381315 -1.167029 0.000000 
0.370772 -1.213256 0.000000 
0.425037 -1.244886 0.000000 
0.407738 -1.294314 0.000000 
0.453135 -1.329629 0.000000 
0.427556 -1.381144 0.000000 
0.464588 -1.418171 0.000000 
0.429420 -1.470213 0.000000 
0.458977 -1.507288 0.000000 
0.026061 -1.378938 0.000000 
0.028809 -1.273231 0.000000 
0.054870 -1.319115 0.000000 
0.106992 -1.310882 0.000000 
0.029377 -1.171174 0.000000 
0.058186 -1.211351 0.000000 
0.114311 -1.195686 0.000000 
0.137056 -1.249333 0.000000 
0.186430 -1.246807 0.000000 
0.029568 -1.070120 0.000000 
0.058945 -1.108240 0.000000 
0.116563 -1.088594 0.000000 
0.143120 -1.135863 0.000000 
0.196633 -1.127154 0.000000 
0.217198 -1.184451 0.000000 
0.265318 -1.183651 0.000000 
0.029759 -0.969066 0.000000 
0.059328 -1.006132 0.000000 
0.117890 -0.983426 0.000000 
0.145749 -1.027768 0.000000 
0.201664 -1.014294 0.000000 
0.225992 -1.066411 0.000000 
0.278030 -1.060545 0.000000 
0.296791 -1.120488 0.000000 
0.344206 -1.120495 0.000000 
VECTORS X_EC float 
0.338794 -0.884342 0.000000 
-0.609100 0.196910 0.000000 
0.713312 0.308051 0.000000 
0.374519 -0.311379 0.000000 
0.423588 -0.668110 0.000000 
-0.218274 -0.634006 0.000000 
-0.513962 0.641755 0.000000 
0.756418 0.853241 0.000000 
0.381900 0.310849 0.000000 
-0.550868 0.479287 0.000000 
0.823577 0.490083 0.000000 
0.556234 -0.283421 0.000000 
-0.139443 -0.165852 0.000000 
-0.484677 -0.803977 0.000000 
0.766286 -0.538762 0.000000 
0.384386 0.946618 0.000000 
0.474677 -0.373316 0.000000 
-0.141715 -0.373412 0.000000 
-0.385608 0.817360 0.000000 
0.937896 0.896555 0.000000 
0.621631 0.192975 0.000000 
-0.105264 0.374874 0.000000 
-0.467428 -0.223752 0.000000 
0.771260 0.082776 0.000000 
0.386873 -0.417613 0.000000 
0.761262 -0.334207 0.000000 
0.108942 -0.052831 0.000000 
-0.397202 -0.533670 0.000000 
-0.142083 0.805055 0.000000 
-0.595936 0.246280 0.000000 
0.978194 -0.253586 0.000000 
-0.660903 -0.945211 0.000000 
0.724964 0.594269 0.000000 
0.899809 -0.047980 0.000000 
0.685384 0.547332 0.000000 
0.287229 0.046174 0.000000 
0.702895 -0.653155 0.000000 
0.180633 0.855326 0.000000 
0.445811 0.177167 0.000000 
-0.220880 -0.265619 0.000000 
-0.071546 -0.896545 0.000000 
-0.033296 0.848384 0.000000 
-0.417537 0.347875 0.000000 
0.039645 -0.354688 0.000000 
-0.441768 -0.854559 0.000000 
-0.109248 0.449990 0.000000 
-0.699407 -0.026765 0.000000 
-0.474522 -0.694045 0.000000 
0.820030 0.878962 0.000000 
0.957100 0.254890 0.000000 
0.610485 0.351799 0.000000 
-0.761092 -0.378582 0.000000 
-0.714655 0.910681 0.000000 
-0.057734 0.705514 0.000000 
-0.178789 0.859422 0.000000 
-0.067979 0.201996 0.000000 
0.677748 0.063793 0.000000 
0.641556 -0.721952 0.000000 
-0.765897 -0.980431 0.000000 
0.393446 0.087432 0.000000 
0.522510 -0.548298 0.000000 
-0.691820 -0.646843 0.000000 
-0.647393 0.622675 0.000000 
0.028512 0.415148 0.000000 
-0.053800 -0.402212 0.000000 
0.514316 -0.674343 0.000000 
0.965681 -0.684559 0.000000 
-0.897068 0.691412 0.000000 
-0.083078 0.624559 0.000000 
-0.006893 -0.077966 0.000000 
0.724017 -0.241599 0.000000 
0.714996 0.981998 0.000000 
-0.642413 0.748540 0.000000 
-0.760780 -0.090440 0.000000 
-0.205471 -0.368255 0.000000 
0.000000 0.657101 0.000000 
-0.564049 -0.041087 0.000000 
0.000000 -0.446523 0.000000 
0.564049 -0.041087 0.000000 
0.866949 -0.796431 0.000000 
-0.569003 0.883638 0.000000 
0.000000 -0.597074 0.000000 
0.569003 0.883638 0.000000 
-0.866949 -0.796431 0.000000 
0.299194 0.433819 0.000000 
0.858290 0.142235 0.000000 
-0.577662 0.718681 0.000000 
0.000000 0.299303 0.000000 
0.577662 0.718681 0.000000 
-0.858290 0.142235 0.000000 
-0.299194 0.433819 0.000000 
-0.268560 -0.335931 0.000000 
0.286830 -0.613573 0.000000 
0.844677 0.005625 0.000000 
-0.578910 -0.370537 0.000000 
0.000000 0.120867 0.000000 
0.578910 -0.370537 0.000000 
-0.844677 0.005625 0.000000 
-0.286830 -0.613573 0.000000 
0.268560 -0.335931 0.000000 
-0.610485 0.351799 0.000000 
0.057734 0.705514 0.000000 
0.714655 0.910681 0.000000 
0.761092 -0.378582 0.000000 
0.765897 -0.980431 0.000000 
-0.641556 -0.721952 0.000000 
-0.677748 0.063793 0.000000 
0.067979 0.201996 0.000000 
0.178789 0.859422 0.000000 
-0.514316 -0.674343 0.000000 
0.053800 -0.402212 0.000000 
-0.028512 0.415148 0.000000 
0.647393 0.622675 0.000000 
0.691820 -0.646843 0.000000 
-0.522510 -0.548298 0.000000 
-0.393446 0.087432 0.000000 
0.205471 -0.368255 0.000000 
0.760780 -0.090440 0.000000 
0.642413 0.748540 0.000000 
-0.714996 0.981998 0.000000 
-0.724017 -0.241599 0.000000 
0.006894 -0.077966 0.000000 
0.083078 0.624559 0.000000 
0.897068 0.691412 0.000000 
-0.965681 -0.684559 0.000000 
-0.761262 -0.334207 0.000000 
0.142083 0.805055 0.000000 
0.397202 -0.533670 0.000000 
-0.108942 -0.052831 0.000000 
-0.899809 -0.047980 0.000000 
-0.724964 0.594269 0.000000 
0.660903 -0.945211 0.000000 
-0.978194 -0.253586 0.000000 
0.595936 0.246280 0.000000 
0.071546 -0.896545 0.000000 
0.220880 -0.265619 0.000000 
-0.445811 0.177167 0.000000 
-0.180633 0.855326 0.000000 
-0.702895 -0.653155 0.000000 
-0.287229 0.046174 0.000000 
-0.685384 0.547332 0.000000 
-0.957100 0.254890 0.000000 
-0.820030 0.878962 0.000000 
0.474522 -0.694044 0.000000 
0.699407 -0.026765 0.000000 
0.109248 0.449990 0.000000 
0.441768 -0.854559 0.000000 
-0.039645 -0.354688 0.000000 
0.417537 0.347875 0.000000 
0.033296 0.848384 0.000000 
-0.338794 -0.884342 0.000000 
-0.374519 -0.311379 0.000000 
-0.713312 0.308051 0.000000 
0.609100 0.196910 0.000000 
-0.381900 0.310849 0.000000 
-0.756418 0.853241 0.000000 
0.513962 0.641755 0.000000 
0.218274 -0.634006 0.000000 
-0.423588 -0.668110 0.000000 
-0.384386 0.946618 0.000000 
-0.766286 -0.538762 0.000000 
0.484677 -0.803977 0.000000 
0.139443 -0.165852 0.000000 
-0.556234 -0.283421 0.000000 
-0.823577 0.490083 0.000000 
0.550868 0.479287 0.000000 
-0.386873 -0.417613 0.000000 
-0.771260 0.082776 0.000000 
0.467428 -0.223752 0.000000 
0.105264 0.374874 0.000000 
-0.621631 0.192975 0.000000 
-0.937896 0.896555 0.000000 
0.385608 0.817360 0.000000 
0.141715 -0.373412 0.000000 
-0.474677 -0.373316 0.000000 
CELL_DATA 175 
SCALARS MASS float 
LOOKUP_TABLE default 
0.078183 
0.086427 
0.094672 
0.086427 
0.088131 
0.092111 
0.085854 
0.092111 
0.088131 
0.088705 
0.091000 
0.086983 
0.091556 
0.086983 
0.091000 
0.088705 
0.089278 
0.091574 
0.089278 
0.092722 
0.089278 
0.092722 
0.089278 
0.091574 
0.089278 
0.078183 
0.086427 
0.094672 
0.086427 
0.088131 
0.092111 
0.085854 
0.092111 
0.088131 
0.088705 
0.091000 
0.086983 
0.091556 
0.086983 
0.091000 
0.088705 
0.089278 
0.091574 
0.089278 
0.092722 
0.089278 
0.092722 
0.089278 
0.091574 
0.089278 
0.078183 
0.086427 
0.094672 
0.086427 
0.088131 
0.092111 
0.085854 
0.092111 
0.088131 
0.088705 
0.091000 
0.086983 
0.091556 
0.086983 
0.091000 
0.088705 
0.089278 
0.091574 
0.089278 
0.092722 
0.089278 
0.092722 
0.089278 
0.091574 
0.089278 
0.078183 
0.086427 
0.094672 
0.086427 
0.088131 
0.092111 
0.085854 
0.092111 
0.088131 
0.088705 
0.091000 
0.086983 
0.091556 
0.086983 
0.091000 
0.088705 
0.089278 
0.091574 
0.089278 
0.092722 
0.089278 
0.092722 
0.089278 
0.091574 
0.089278 
0.078183 
0.086427 
0.094672 
0.086427 
0.088131 
0.092111 
0.085854 
0.092111 
0.088131 
0.088705 
0.091000 
0.086983 
0.091556 
0.086983 
0.091000 
0.088705 
0.089278 
0.091574 
0.089278 
0.092722 
0.089278 
0.092722 
0.089278 
0.091574 
0.089278 
0.078183 
0.086427 
0.094672 
0.086427 
0.088131 
0.092111 
0.085854 
0.092111 
0.088131 
0.088705 
0.091000 
0.086983 
0.091556 
0.086983 
0.091000 
0.088705 
0.089278 
0.091574 
0.089278 
0.092722 
0.089278 
0.092722 
0.089278 
0.091574 
0.089278 
0.078183 
0.086427 
0.094672 
0.086427 
0.088131 
0.092111 
0.085854 
0.092111 
0.088131 
0.088705 
0.091000 
0.086983 
0.091556 
0.086983 
0.091000 
0.088705 
0.089278 
0.091574 
0.089278 
0.092722 
0.089278 
0.092722 
0.089278 
0.091574 
0.089278 
SCALARS MASS float 
LOOKUP_TABLE default 
0.078183 
0.086427 
0.094672 
0.086427 
0.088131 
0.092111 
0.085854 
0.092111 
0.088131 
0.088705 
0.091000 
0.086983 
0.091556 
0.086983 
0.091000 
0.088705 
0.089278 
0.091574 
0.089278 
0.092722 
0.089278 
0.092722 
0.089278 
0.091574 
0.089278 
0.078183 
0.086427 
0.094672 
0.086427 
0.088131 
0.092111 
0.085854 
0.092111 
0.088131 
0.088705 
0.091000 
0.086983 
0.091556 
0.086983 
0.091000 
0.088705 
0.089278 
0.091574 
0.089278 
0.092722 
0.089278 
0.092722 
0.089278 
0.091574 
0.089278 
0.078183 
0.086427 
0.094672 
0.086427 
0.088131 
0.092111 
0.085854 
0.092111 
0.088131 
0.088705 
0.091000 
0.086983 
0.091556 
0.086983 
0.091000 
0.088705 
0.089278 
0.091574 
0.089278 
0.092722 
0.089278 
0.092722 
0.089278 
0.091574 
0.089278 
0.078183 
0.086427 
0.094672 
0.086427 
0.088131 
0.092111 
0.085854 
0.092111 
0.088131 
0.088705 
0.091000 
0.086983 
0.091556 
0.086983 
0.091000 
0.088705 
0.089278 
0.091574 
0.089278 
0.092722 
0.089278 
0.092722 
0.089278 
0.091574 
0.089278 
0.078183 
0.086427 
0.094672 
0.086427 
0.088131 
0.092111 
0.085854 
0.092111 
0.088131 
0.088705 
0.091000 
0.086983 
0.091556 
0.086983 
0.091000 
0.088705 
0.089278 
0.091574 
0.089278 
0.092722 
0.089278 
0.092722 
0.089278 
0.091574 
0.089278 
0.078183 
0.086427 
0.094672 
0.086427 
0.088131 
0.092111 
0.085854 
0.092111 
0.088131 
0.088705 
0.091000 
0.086983 
0.091556 
0.086983 
0.091000 
0.088705 
0.089278 
0.091574 
0.089278 
0.092722 
0.089278 
0.092722 
0.089278 
0.091574 
0.089278 
0.078183 
0.086427 
0.094672 
0.086427 
0.088131 
0.092111 
0.085854 
0.092111 
0.088131 
0.088705 
0.091000 
0.086983 
0.091556 
0.086983 
0.091000 
0.088705 
0.089278 
0.091574 
0.089278 
0.092722 
0.089278 
0.092722 
0.089278 
0.091574 
0.089278 
SCALARS DENSITY float 
LOOKUP_TABLE default 
20.000000 
20.000000 
20.000000 
20.000000 
20.000000 
20.000000 
20.000000 
20.000000 
20.000000 
20.000000 
20.000000 
20.000000 
20.000000 
20.000000 
20.000000 
20.000000 
20.000000 
20.000000 
20.000000 
20.000000 
20.000000 
20.000000 
20.000000 
20.000000 
20.000000 
20.000000 
20.000000 
20.000000 
20.000000 
20.000000 
20.000000 
20.000000 
20.000000 
20.000000 
20.000000 
20.000000 
20.000000 
20.000000 
20.000000 
20.000000 
20.000000 
20.000000 
20.000000 
20.000000 
20.000000 
20.000000 
20.000000 
20.000000 
20.000000 
20.000000 
20.000000 
20.000000 
20.000000 
20.000000 
20.000000 
20.000000 
20.000000 
20.000000 
20.000000 
20.000000 
20.000000 
20.000000 
20.000000 
20.000000 
20.000000 
20.000000 
20.000000 
20.000000 
20.000000 
20.000000 
20.000000 
20.000000 
20.000000 
20.000000 
20.000000 
20.000000 
20.000000 
20.000000 
20.000000 
20.000000 
20.000000 
20.000000 
20.000000 
20.000000 
20.000000 
20.000000 
20.000000 
20.000000 
20.000000 
20.000000 
20.000000 
20.000000 
20.000000 
20.000000 
20.000000 
20.000000 
20.000000 
20.000000 
20.000000 
20.000000 
20.000000 
20.000000 
20.000000 
20.000000 
20.000000 
20.000000 
20.000000 
20.000000 
20.000000 
20.000000 
20.000000 
20.000000 
20.000000 
20.000000 
20.000000 
20.000000 
20.000000 
20.000000 
20.000000 
20.000000 
20.000000 
20.000000 
20.000000 
20.000000 
20.000000 
20.000000 
20.000000 
20.000000 
20.000000 
20.000000 
20.000000 
20.000000 
20.000000 
20.000000 
20.000000 
20.000000 
20.000000 
20.000000 
20.000000 
20.000000 
20.000000 
20.000000 
20.000000 
20.000000 
20.000000 
20.000000 
20.000000 
20.000000 
20.000000 
20.000000 
20.000000 
20.000000 
20.000000 
20.000000 
20.000000 
20.000000 
20.000000 
20.000000 
20.000000 
20.000000 
20.000000 
20.000000 
20.000000 
20.000000 
20.000000 
20.000000 
20.000000 
20.000000 
20.000000 
20.000000 
20.000000 
20.000000 
20.000000 
20.000000 
20.000000 
SCALARS ELEM_i float 
LOOKUP_TABLE default 
172 
200 
173 
173 
200 
200 
201 
174 
174 
228 
201 
201 
201 
201 
174 
175 
228 
228 
229 
202 
202 
202 
202 
175 
175 
172 
199 
199 
200 
226 
199 
226 
200 
200 
226 
226 
226 
227 
227 
227 
227 
253 
253 
253 
253 
254 
254 
254 
228 
228 
172 
198 
199 
199 
198 
198 
198 
198 
225 
197 
197 
224 
225 
225 
225 
225 
196 
224 
224 
224 
224 
225 
252 
252 
252 
172 
171 
171 
171 
143 
171 
170 
171 
197 
143 
143 
170 
170 
170 
197 
197 
142 
142 
142 
169 
169 
169 
196 
196 
196 
172 
145 
145 
144 
117 
144 
144 
144 
144 
117 
117 
117 
117 
116 
143 
143 
90 
90 
90 
117 
116 
116 
116 
116 
142 
172 
146 
145 
145 
146 
146 
118 
145 
118 
119 
119 
119 
119 
118 
118 
118 
120 
120 
92 
92 
92 
91 
91 
91 
91 
172 
173 
173 
146 
174 
174 
147 
146 
146 
175 
174 
147 
147 
147 
147 
120 
175 
175 
148 
148 
148 
148 
121 
120 
120 
VECTORS VELOCITY float 
0.000000 -5.302109 0.000000 
0.000000 -5.302109 0.000000 
0.000000 -5.302109 0.000000 
-0.000000 -5.302109 0.000000 
0.000000 -5.302109 0.000000 
-0.000000 -5.302109 0.000000 
0.000000 -5.302109 0.000000 
0.000000 -5.302109 0.000000 
0.000000 -5.302109 0.000000 
-0.000000 -5.302109 0.000000 
-0.000000 -5.302109 0.000000 
-0.000000 -5.302109 0.000000 
0.000000 -5.302109 0.000000 
-0.000000 -5.302109 0.000000 
0.000000 -5.302109 0.000000 
0.000000 -5.302109 0.000000 
-0.000000 -5.302109 0.000000 
-0.000000 -5.302109 0.000000 
-0.000000 -5.302109 0.000000 
0.000000 -5.302109 0.000000 
-0.000000 -5.302109 0.000000 
0.000000 -5.302109 0.000000 
0.000000 -5.302109 0.000000 
0.000000 -5.302109 0.000000 
0.000000 -5.302109 0.000000 
-0.000000 -5.302109 0.000000 
-0.000000 -5.302109 0.000000 
-0.000000 -5.302109 0.000000 
-0.000000 -5.302109 0.000000 
0.000000 -5.302109 0.000000 
0.000000 -5.302109 0.000000 
-0.000000 -5.302109 0.000000 
-0.000000 -5.302109 0.000000 
-0.000000 -5.302109 0.000000 
-0.000000 -5.302109 0.000000 
0.000000 -5.302109 0.000000 
0.000000 -5.302109 0.000000 
0.000000 -5.302109 0.000000 
-0.000000 -5.302109 0.000000 
-0.000000 -5.302109 0.000000 
-0.000000 -5.302109 0.000000 
-0.000000 -5.302109 0.000000 
-0.000000 -5.302109 0.000000 
-0.000000 -5.302109 0.000000 
0.000000 -5.302109 0.000000 
0.000000 -5.302109 0.000000 
0.000000 -5.302109 0.000000 
-0.000000 -5.302109 0.000000 
-0.000000 -5.302109 0.000000 
-0.000000 -5.302109 0.000000 
-0.000000 -5.302109 0.000000 
-0.000000 -5.302109 0.000000 
-0.000000 -5.302109 0.000000 
0.000000 -5.302109 0.000000 
-0.000000 -5.302109 0.000000 
-0.000000 -5.302109 0.000000 
-0.000000 -5.302109 0.000000 
-0.000000 -5.302109 0.000000 
0.000000 -5.302109 0.000000 
-0.000000 -5.302109 0.000000 
-0.000000 -5.302109 0.000000 
0.000000 -5.302109 0.000000 
-0.000000 -5.302109 0.000000 
-0.000000 -5.302109 0.000000 
-0.000000 -5.302109 0.000000 
-0.000000 -5.302109 0.000000 
-0.000000 -5.302109 0.000000 
-0.000000 -5.302109 0.000000 
0.000000 -5.302109 0.000000 
0.000000 -5.302109 0.000000 
0.000000 -5.302109 0.000000 
0.000000 -5.302109 0.000000 
-0.000000 -5.302109 0.000000 
-0.000000 -5.302109 0.000000 
0.000000 -5.302109 0.000000 
-0.000000 -5.302109 0.000000 
0.000000 -5.302109 0.000000 
0.000000 -5.302109 0.000000 
0.000000 -5.302109 0.000000 
0.000000 -5.302109 0.000000 
0.000000 -5.302109 0.000000 
-0.000000 -5.302109 0.000000 
-0.000000 -5.302109 0.000000 
-0.000000 -5.302109 0.000000 
-0.000000 -5.302109 0.000000 
-0.000000 -5.302109 0.000000 
-0.000000 -5.302109 0.000000 
-0.000000 -5.302109 0.000000 
-0.000000 -5.302109 0.000000 
-0.000000 -5.302109 0.000000 
-0.000000 -5.302109 0.000000 
0.000000 -5.302109 0.000000 
-0.000000 -5.302109 0.000000 
0.000000 -5.302109 0.000000 
-0.000000 -5.302109 0.000000 
0.000000 -5.302109 0.000000 
-0.000000 -5.302109 0.000000 
0.000000 -5.302109 0.000000 
-0.000000 -5.302109 0.000000 
0.000000 -5.302109 0.000000 
-0.000000 -5.302109 0.000000 
0.000000 -5.302109 0.000000 
0.000000 -5.302109 0.000000 
0.000000 -5.302109 0.000000 
0.000000 -5.302109 0.000000 
0.000000 -5.302109 0.000000 
0.000000 -5.302109 0.000000 
0.000000 -5.302109 0.000000 
0.000000 -5.302109 0.000000 
0.000000 -5.302109 0.000000 
0.000000 -5.302109 0.000000 
-0.000000 -5.302109 0.000000 
-0.000000 -5.302109 0.000000 
-0.000000 -5.302109 0.000000 
-0.000000 -5.302109 0.000000 
-0.000000 -5.302109 0.000000 
-0.000000 -5.302109 0.000000 
0.000000 -5.302109 0.000000 
-0.000000 -5.302109 0.000000 
-0.000000 -5.302109 0.000000 
-0.000000 -5.302109 0.000000 
-0.000000 -5.302109 0.000000 
0.000000 -5.302109 0.000000 
0.000000 -5.302109 0.000000 
0.000000 -5.302109 0.000000 
0.000000 -5.302109 0.000000 
0.000000 -5.302109 0.000000 
0.000000 -5.302109 0.000000 
0.000000 -5.302109 0.000000 
0.000000 -5.302109 0.000000 
0.000000 -5.302109 0.000000 
-0.000000 -5.302109 0.000000 
0.000000 -5.302109 0.000000 
0.000000 -5.302109 0.000000 
0.000000 -5.302109 0.000000 
0.000000 -5.302109 0.000000 
0.000000 -5.302109 0.000000 
-0.000000 -5.302109 0.000000 
-0.000000 -5.302109 0.000000 
-0.000000 -5.302109 0.000000 
0.000000 -5.302109 0.000000 
-0.000000 -5.302109 0.000000 
0.000000 -5.302109 0.000000 
-0.000000 -5.302109 0.000000 
-0.000000 -5.302109 0.000000 
-0.000000 -5.302109 0.000000 
-0.000000 -5.302109 0.000000 
0.000000 -5.302109 0.000000 
-0.000000 -5.302109 0.000000 
0.000000 -5.302109 0.000000 
0.000000 -5.302109 0.000000 
0.000000 -5.302109 0.000000 
0.000000 -5.302109 0.000000 
-0.000000 -5.302109 0.000000 
0.000000 -5.302109 0.000000 
0.000000 -5.302109 0.000000 
0.000000 -5.302109 0.000000 
0.000000 -5.302109 0.000000 
0.000000 -5.302109 0.000000 
0.000000 -5.302109 0.000000 
0.000000 -5.302109 0.000000 
0.000000 -5.302109 0.000000 
-0.000000 -5.302109 0.000000 
-0.000000 -5.302109 0.000000 
-0.000000 -5.302109 0.000000 
-0.000000 -5.302109 0.000000 
0.000000 -5.302109 0.000000 
0.000000 -5.302109 0.000000 
0.000000 -5.302109 0.000000 
0.000000 -5.302109 0.000000 
0.000000 -5.302109 0.000000 
0.000000 -5.302109 0.000000 
-0.000000 -5.302109 0.000000 
0.000000 -5.302109 0.000000 
0.000000 -5.302109 0.000000 
TENSORS STRESS float 
0.000000 0.000000 0.000000 
0.000000 -0.000000 0.000000 
0.000000 0.000000 0.000000 

0.000000 -0.000000 0.000000 
0.000000 0.000000 0.000000 
0.000000 0.000000 0.000000 

-0.000000 0.000000 0.000000 
0.000000 -0.000000 0.000000 
0.000000 0.000000 0.000000 

-0.000000 -0.000000 0.000000 
0.000000 -0.000000 0.000000 
0.000000 0.000000 0.000000 

-0.000000 -0.000000 0.000000 
0.000000 -0.000000 0.000000 
0.000000 0.000000 0.000000 

0.000000 -0.000000 0.000000 
0.000000 0.000000 0.000000 
0.000000 0.000000 0.000000 

-0.000000 0.000000 0.000000 
0.000000 0.000000 0.000000 
0.000000 0.000000 0.000000 

0.000000 0.000000 0.000000 
0.000000 0.000000 0.000000 
0.000000 0.000000 0.000000 

0.000000 0.000000 0.000000 
0.000000 0.000000 0.000000 
0.000000 0.000000 0.000000 

-0.000000 -0.000000 0.000000 
0.000000 -0.000000 0.000000 
0.000000 0.000000 0.000000 

-0.000000 -0.000000 0.000000 
0.000000 -0.000000 0.000000 
0.000000 0.000000 0.000000 

0.000000 0.000000 0.000000 
0.000000 0.000000 0.000000 
0.000000 0.000000 0.000000 

0.000000 0.000000 0.000000 
0.000000 0.000000 0.000000 
0.000000 0.000000 0.000000 

0.000000 -0.000000 0.000000 
0.000000 -0.000000 0.000000 
0.000000 0.000000 0.000000 

0.000000 -0.000000 0.000000 
0.000000 -0.000000 0.000000 
0.000000 0.000000 0.000000 

0.000000 0.000000 0.000000 
0.000000 -0.000000 0.000000 
0.000000 0.000000 0.000000 

-0.000000 -0.000000 0.000000 
0.000000 -0.000000 0.000000 
0.000000 0.000000 0.000000 

-0.000000 -0.000000 0.000000 
0.000000 0.000000 0.000000 
0.000000 0.000000 0.000000 

-0.000000 -0.000000 0.000000 
0.000000 0.000000 0.000000 
0.000000 0.000000 0.000000 

-0.000000 0.000000 0.000000 
0.000000 -0.000000 0.000000 
0.000000 0.000000 0.000000 

0.000000 0.000000 0.000000 
0.000000 0.000000 0.000000 
0.000000 0.000000 0.000000 

-0.000000 0.000000 0.000000 
0.000000 -0.000000 0.000000 
0.000000 0.000000 0.000000 

0.000000 -0.000000 0.000000 
0.000000 0.000000 0.000000 
0.000000 0.000000 0.000000 

-0.000000 0.000000 0.000000 
0.000000 -0.000000 0.000000 
0.000000 0.000000 0.000000 

-0.000000 0.000000 0.000000 
0.000000 -0.000000 0.000000 
0.000000 0.000000 0.000000 

0.000000 -0.000000 0.000000 
0.000000 -0.000000 0.000000 
0.000000 0.000000 0.000000 

0.000000 -0.000000 0.000000 
0.000000 0.000000 0.000000 
0.000000 0.000000 0.000000 

0.000000 0.000000 0.000000 
0.000000 0.000000 0.000000 
0.000000 0.000000 0.000000 

0.000000 -0.000000 0.000000 
0.000000 -0.000000 0.000000 
0.000000 0.000000 0.000000 

-0.000000 0.000000 0.000000 
0.000000 -0.000000 0.000000 
0.000000 0.000000 0.000000 

-0.000000 0.000000 0.000000 
0.000000 -0.000000 0.000000 
0.000000 0.000000 0.000000 

0.000000 0.000000 0.000000 
0.000000 0.000000 0.000000 
0.000000 0.000000 0.000000 

0.000000 -0.000000 0.000000 
0.000000 0.000000 0.000000 
0.000000 0.000000 0.000000 

0.000000 -0.000000 0.000000 
0.000000 0.000000 0.000000 
0.000000 0.000000 0.000000 

0.000000 0.000000 0.000000 
0.000000 0.000000 0.000000 
0.000000 0.000000 0.000000 

0.000000 0.000000 0.000000 
0.000000 0.000000 0.000000 
0.000000 0.000000 0.000000 

0.000000 -0.000000 0.000000 
0.000000 0.000000 0.000000 
0.000000 0.000000 0.000000 

0.000000 0.000000 0.000000 
0.000000 0.000000 0.000000 
0.000000 0.000000 0.000000 

0.000000 0.000000 0.000000 
0.000000 0.000000 0.000000 
0.000000 0.000000 0.000000 

-0.000000 0.000000 0.000000 
0.000000 -0.000000 0.000000 
0.000000 0.000000 0.000000 

-0.000000 -0.000000 0.000000 
0.000000 0.000000 0.000000 
0.000000 0.000000 0.000000 

-0.000000 0.000000 0.000000 
0.000000 -0.000000 0.000000 
0.000000 0.000000 0.000000 

0.000000 0.000000 0.000000 
0.000000 0.000000 0.000000 
0.000000 0.000000 0.000000 

-0.000000 -0.000000 0.000000 
0.000000 0.000000 0.000000 
0.000000 0.000000 0.000000 

-0.000000 0.000000 0.000000 
0.000000 0.000000 0.000000 
0.000000 0.000000 0.000000 

-0.000000 -0.000000 0.000000 
0.000000 -0.000000 0.000000 
0.000000 0.000000 0.000000 

0.000000 -0.000000 0.000000 
0.000000 0.000000 0.000000 
0.000000 0.000000 0.000000 

0.000000 -0.000000 0.000000 
0.000000 0.000000 0.000000 
0.000000 0.000000 0.000000 

-0.000000 -0.000000 0.000000 
0.000000 0.000000 0.000000 
0.000000 0.000000 0.000000 

-0.000000 -0.000000 0.000000 
0.000000 -0.000000 0.000000 
0.000000 0.000000 0.000000 

0.000000 0.000000 0.000000 
0.000000 0.000000 0.000000 
0.000000 0.000000 0.000000 

0.000000 0.000000 0.000000 
0.000000 -0.000000 0.000000 
0.000000 0.000000 0.000000 

-0.000000 -0.000000 0.000000 
0.000000 -0.000000 0.000000 
0.000000 0.000000 0.000000 

0.000000 0.000000 0.000000 
0.000000 0.000000 0.000000 
0.000000 0.000000 0.000000 

-0.000000 0.000000 0.000000 
0.000000 -0.000000 0.000000 
0.000000 0.000000 0.000000 

-0.000000 -0.000000 0.000000 
0.000000 -0.000000 0.000000 
0.000000 0.000000 0.000000 

-0.000000 0.000000 0.000000 
0.000000 -0.000000 0.000000 
0.000000 0.000000 0.000000 

-0.000000 0.000000 0.000000 
0.000000 -0.000000 0.000000 
0.000000 0.000000 0.000000 

-0.000000 0.000000 0.000000 
0.000000 -0.000000 0.000000 
0.000000 0.000000 0.000000 

-0.000000 -0.000000 0.000000 
0.000000 -0.000000 0.000000 
0.000000 0.000000 0.000000 

-0.000000 -0.000000 0.000000 
0.000000 0.000000 0.000000 
0.000000 0.000000 0.000000 

-0.000000 0.000000 0.000000 
0.000000 -0.000000 0.000000 
0.000000 0.000000 0.000000 

-0.000000 0.000000 0.000000 
0.000000 -0.000000 0.000000 
0.000000 0.000000 0.000000 

0.000000 0.000000 0.000000 
0.000000 0.000000 0.000000 
0.000000 0.000000 0.000000 

0.000000 -0.000000 0.000000 
0.000000 0.000000 0.000000 
0.000000 0.000000 0.000000 

0.000000 0.000000 0.000000 
0.000000 -0.000000 0.000000 
0.000000 0.000000 0.000000 

-0.000000 -0.000000 0.000000 
0.000000 0.000000 0.000000 
0.000000 0.000000 0.000000 

-0.000000 0.000000 0.000000 
0.000000 -0.000000 0.000000 
0.000000 0.000000 0.000000 

0.000000 0.000000 0.000000 
0.000000 0.000000 0.000000 
0.000000 0.000000 0.000000 

0.000000 -0.000000 0.000000 
0.000000 0.000000 0.000000 
0.000000 0.000000 0.000000 

-0.000000 -0.000000 0.000000 
0.000000 -0.000000 0.000000 
0.000000 0.000000 0.000000 

-0.000000 -0.000000 0.000000 
0.000000 -0.000000 0.000000 
0.000000 0.000000 0.000000 

0.000000 -0.000000 0.000000 
0.000000 -0.000000 0.000000 
0.000000 0.000000 0.000000 

0.000000 -0.000000 0.000000 
0.000000 -0.000000 0.000000 
0.000000 0.000000 0.000000 

0.000000 -0.000000 0.000000 
0.000000 0.000000 0.000000 
0.000000 0.000000 0.000000 

-0.000000 0.000000 0.000000 
0.000000 -0.000000 0.000000 
0.000000 0.000000 0.000000 

0.000000 -0.000000 0.000000 
0.000000 -0.000000 0.000000 
0.000000 0.000000 0.000000 

0.000000 -0.000000 0.000000 
0.000000 -0.000000 0.000000 
0.000000 0.000000 0.000000 

0.000000 -0.000000 0.000000 
0.000000 -0.000000 0.000000 
0.000000 0.000000 0.000000 

0.000000 -0.000000 0.000000 
0.000000 0.000000 0.000000 
0.000000 0.000000 0.000000 

-0.000000 -0.000000 0.000000 
0.000000 -0.000000 0.000000 
0.000000 0.000000 0.000000 

-0.000000 -0.000000 0.000000 
0.000000 -0.000000 0.000000 
0.000000 0.000000 0.000000 

-0.000000 0.000000 0.000000 
0.000000 -0.000000 0.000000 
0.000000 0.000000 0.000000 

0.000000 -0.000000 0.000000 
0.000000 0.000000 0.000000 
0.000000 0.000000 0.000000 

0.000000 0.000000 0.000000 
0.000000 -0.000000 0.000000 
0.000000 0.000000 0.000000 

0.000000 0.000000 0.000000 
0.000000 0.000000 0.000000 
0.000000 0.000000 0.000000 

-0.000000 -0.000000 0.000000 
0.000000 0.000000 0.000000 
0.000000 0.000000 0.000000 

-0.000000 -0.000000 0.000000 
0.000000 -0.000000 0.000000 
0.000000 0.000000 0.000000 

-0.000000 -0.000000 0.000000 
0.000000 0.000000 0.000000 
0.000000 0.000000 0.000000 

-0.000000 0.000000 0.000000 
0.000000 -0.000000 0.000000 
0.000000 0.000000 0.000000 

-0.000000 -0.000000 0.000000 
0.000000 0.000000 0.000000 
0.000000 0.000000 0.000000 

0.000000 -0.000000 0.000000 
0.000000 -0.000000 0.000000 
0.000000 0.000000 0.000000 

0.000000 -0.000000 0.000000 
0.000000 -0.000000 0.000000 
0.000000 0.000000 0.000000 

0.000000 -0.000000 0.000000 
0.000000 0.000000 0.000000 
0.000000 0.000000 0.000000 

-0.000000 -0.000000 0.000000 
0.000000 -0.000000 0.000000 
0.000000 0.000000 0.000000 

0.000000 -0.000000 0.000000 
0.000000 0.000000 0.000000 
0.000000 0.000000 0.000000 

-0.000000 -0.000000 0.000000 
0.000000 -0.000000 0.000000 
0.000000 0.000000 0.000000 

0.000000 -0.000000 0.000000 
0.000000 0.000000 0.000000 
0.000000 0.000000 0.000000 

-0.000000 -0.000000 0.000000 
0.000000 -0.000000 0.000000 
0.000000 0.000000 0.000000 

0.000000 0.000000 0.000000 
0.000000 0.000000 0.000000 
0.000000 0.000000 0.000000 

0.000000 -0.000000 0.000000 
0.000000 -0.000000 0.000000 
0.000000 0.000000 0.000000 

-0.000000 0.000000 0.000000 
0.000000 -0.000000 0.000000 
0.000000 0.000000 0.000000 

-0.000000 0.000000 0.000000 
0.000000 -0.000000 0.000000 
0.000000 0.000000 0.000000 

-0.000000 -0.000000 0.000000 
0.000000 -0.000000 0.000000 
0.000000 0.000000 0.000000 

-0.000000 0.000000 0.000000 
0.000000 -0.000000 0.000000 
0.000000 0.000000 0.000000 

0.000000 -0.000000 0.000000 
0.000000 -0.000000 0.000000 
0.000000 0.000000 0.000000 

0.000000 0.000000 0.000000 
0.000000 0.000000 0.000000 
0.000000 0.000000 0.000000 

-0.000000 -0.000000 0.000000 
0.000000 0.000000 0.000000 
0.000000 0.000000 0.000000 

0.000000 -0.000000 0.000000 
0.000000 0.000000 0.000000 
0.000000 0.000000 0.000000 

0.000000 -0.000000 0.000000 
0.000000 0.000000 0.000000 
0.000000 0.000000 0.000000 

0.000000 -0.000000 0.000000 
0.000000 0.000000 0.000000 
0.000000 0.000000 0.000000 

-0.000000 0.000000 0.000000 
0.000000 -0.000000 0.000000 
0.000000 0.000000 0.000000 

-0.000000 0.000000 0.000000 
0.000000 -0.000000 0.000000 
0.000000 0.000000 0.000000 

0.000000 0.000000 0.000000 
0.000000 -0.000000 0.000000 
0.000000 0.000000 0.000000 

0.000000 -0.000000 0.000000 
0.000000 0.000000 0.000000 
0.000000 0.000000 0.000000 

0.000000 -0.000000 0.000000 
0.000000 -0.000000 0.000000 
0.000000 0.000000 0.000000 

-0.000000 -0.000000 0.000000 
0.000000 -0.000000 0.000000 
0.000000 0.000000 0.000000 

-0.000000 0.000000 0.000000 
0.000000 -0.000000 0.000000 
0.000000 0.000000 0.000000 

-0.000000 -0.000000 0.000000 
0.000000 0.000000 0.000000 
0.000000 0.000000 0.000000 

-0.000000 -0.000000 0.000000 
0.000000 -0.000000 0.000000 
0.000000 0.000000 0.000000 

0.000000 0.000000 0.000000 
0.000000 0.000000 0.000000 
0.000000 0.000000 0.000000 

0.000000 0.000000 0.000000 
0.000000 0.000000 0.000000 
0.000000 0.000000 0.000000 

-0.000000 -0.000000 0.000000 
0.000000 -0.000000 0.000000 
0.000000 0.000000 0.000000 

-0.000000 -0.000000 0.000000 
0.000000 -0.000000 0.000000 
0.000000 0.000000 0.000000 

0.000000 -0.000000 0.000000 
0.000000 -0.000000 0.000000 
0.000000 0.000000 0.000000 

0.000000 -0.000000 0.000000 
0.000000 0.000000 0.000000 
0.000000 0.000000 0.000000 

-0.000000 0.000000 0.000000 
0.000000 0.000000 0.000000 
0.000000 0.000000 0.000000 

-0.000000 -0.000000 0.000000 
0.000000 0.000000 0.000000 
0.000000 0.000000 0.000000 

-0.000000 0.000000 0.000000 
0.000000 -0.000000 0.000000 
0.000000 0.000000 0.000000 

0.000000 0.000000 0.000000 
0.000000 0.000000 0.000000 
0.000000 0.000000 0.000000 

-0.000000 0.000000 0.000000 
0.000000 0.000000 0.000000 
0.000000 0.000000 0.000000 

0.000000 -0.000000 0.000000 
0.000000 -0.000000 0.000000 
0.000000 0.000000 0.000000 

-0.000000 0.000000 0.000000 
0.000000 -0.000000 0.000000 
0.000000 0.000000 0.000000 

0.000000 0.000000 0.000000 
0.000000 -0.000000 0.000000 
0.000000 0.000000 0.000000 

0.000000 -0.000000 0.000000 
0.000000 0.000000 0.000000 
0.000000 0.000000 0.000000 

0.000000 -0.000000 0.000000 
0.000000 -0.000000 0.000000 
0.000000 0.000000 0.000000 

0.000000 0.000000 0.000000 
0.000000 0.000000 0.000000 
0.000000 0.000000 0.000000 

0.000000 0.000000 0.000000 
0.000000 0.000000 0.000000 
0.000000 0.000000 0.000000 

0.000000 0.000000 0.000000 
0.000000 -0.000000 0.000000 
0.000000 0.000000 0.000000 

0.000000 -0.000000 0.000000 
0.000000 0.000000 0.000000 
0.000000 0.000000 0.000000 

-0.000000 -0.000000 0.000000 
0.000000 -0.000000 0.000000 
0.000000 0.000000 0.000000 

-0.000000 0.000000 0.000000 
0.000000 -0.000000 0.000000 
0.000000 0.000000 0.000000 

0.000000 0.000000 0.000000 
0.000000 0.000000 0.000000 
0.000000 0.000000 0.000000 

-0.000000 -0.000000 0.000000 
0.000000 -0.000000 0.000000 
0.000000 0.000000 0.000000 

-0.000000 0.000000 0.000000 
0.000000 -0.000000 0.000000 
0.000000 0.000000 0.000000 

0.000000 0.000000 0.000000 
0.000000 0.000000 0.000000 
0.000000 0.000000 0.000000 

0.000000 0.000000 0.000000 
0.000000 -0.000000 0.000000 
0.000000 0.000000 0.000000 

0.000000 0.000000 0.000000 
0.000000 0.000000 0.000000 
0.000000 0.000000 0.000000 

0.000000 -0.000000 0.000000 
0.000000 0.000000 0.000000 
0.000000 0.000000 0.000000 

0.000000 -0.000000 0.000000 
0.000000 0.000000 0.000000 
0.000000 0.000000 0.000000 

0.000000 -0.000000 0.000000 
0.000000 -0.000000 0.000000 
0.000000 0.000000 0.000000 

-0.000000 -0.000000 0.000000 
0.000000 -0.000000 0.000000 
0.000000 0.000000 0.000000 

0.000000 -0.000000 0.000000 
0.000000 -0.000000 0.000000 
0.000000 0.000000 0.000000 

-0.000000 -0.000000 0.000000 
0.000000 -0.000000 0.000000 
0.000000 0.000000 0.000000 

0.000000 0.000000 0.000000 
0.000000 0.000000 0.000000 
0.000000 0.000000 0.000000 

0.000000 0.000000 0.000000 
0.000000 0.000000 0.000000 
0.000000 0.000000 0.000000 

0.000000 0.000000 0.000000 
0.000000 0.000000 0.000000 
0.000000 0.000000 0.000000 

0.000000 0.000000 0.000000 
0.000000 0.000000 0.000000 
0.000000 0.000000 0.000000 

0.000000 0.000000 0.000000 
0.000000 0.000000 0.000000 
0.000000 0.000000 0.000000 

0.000000 0.000000 0.000000 
0.000000 -0.000000 0.000000 
0.000000 0.000000 0.000000 

0.000000 -0.000000 0.000000 
0.000000 -0.000000 0.000000 
0.000000 0.000000 0.000000 

-0.000000 -0.000000 0.000000 
0.000000 -0.000000 0.000000 
0.000000 0.000000 0.000000 

-0.000000 -0.000000 0.000000 
0.000000 -0.000000 0.000000 
0.000000 0.000000 0.000000 

0.000000 -0.000000 0.000000 
0.000000 0.000000 0.000000 
0.000000 0.000000 0.000000 

0.000000 -0.000000 0.000000 
0.000000 0.000000 0.000000 
0.000000 0.000000 0.000000 

-0.000000 -0.000000 0.000000 
0.000000 -0.000000 0.000000 
0.000000 0.000000 0.000000 

0.000000 0.000000 0.000000 
0.000000 0.000000 0.000000 
0.000000 0.000000 0.000000 

0.000000 0.000000 0.000000 
0.000000 0.000000 0.000000 
0.000000 0.000000 0.000000 

-0.000000 0.000000 0.000000 
0.000000 -0.000000 0.000000 
0.000000 0.000000 0.000000 

-0.000000 0.000000 0.000000 
0.000000 -0.000000 0.000000 
0.000000 0.000000 0.000000 

-0.000000 -0.000000 0.000000 
0.000000 0.000000 0.000000 
0.000000 0.000000 0.000000 

-0.000000 0.000000 0.000000 
0.000000 -0.000000 0.000000 
0.000000 0.000000 0.000000 

0.000000 -0.000000 0.000000 
0.000000 -0.000000 0.000000 
0.000000 0.000000 0.000000 

0.000000 -0.000000 0.000000 
0.000000 0.000000 0.000000 
0.000000 0.000000 0.000000 

-0.000000 0.000000 0.000000 
0.000000 -0.000000 0.000000 
0.000000 0.000000 0.000000 

TENSORS STRAIN float 
0.000000 0.000000 0.000000 
0.000000 -0.000000 0.000000 
0.000000 0.000000 0.000000 

0.000000 -0.000000 0.000000 
0.000000 0.000000 0.000000 
0.000000 0.000000 0.000000 

0.000000 0.000000 0.000000 
0.000000 -0.000000 0.000000 
0.000000 0.000000 0.000000 

-0.000000 -0.000000 0.000000 
0.000000 -0.000000 0.000000 
0.000000 0.000000 0.000000 

-0.000000 -0.000000 0.000000 
0.000000 -0.000000 0.000000 
0.000000 0.000000 0.000000 

-0.000000 -0.000000 0.000000 
0.000000 0.000000 0.000000 
0.000000 0.000000 0.000000 

-0.000000 0.000000 0.000000 
0.000000 0.000000 0.000000 
0.000000 0.000000 0.000000 

0.000000 0.000000 0.000000 
0.000000 -0.000000 0.000000 
0.000000 0.000000 0.000000 

0.000000 0.000000 0.000000 
0.000000 0.000000 0.000000 
0.000000 0.000000 0.000000 

-0.000000 -0.000000 0.000000 
0.000000 0.000000 0.000000 
0.000000 0.000000 0.000000 

-0.000000 -0.000000 0.000000 
0.000000 -0.000000 0.000000 
0.000000 0.000000 0.000000 

-0.000000 0.000000 0.000000 
0.000000 0.000000 0.000000 
0.000000 0.000000 0.000000 

-0.000000 0.000000 0.000000 
0.000000 0.000000 0.000000 
0.000000 0.000000 0.000000 

0.000000 -0.000000 0.000000 
0.000000 -0.000000 0.000000 
0.000000 0.000000 0.000000 

0.000000 -0.000000 0.000000 
0.000000 -0.000000 0.000000 
0.000000 0.000000 0.000000 

0.000000 0.000000 0.000000 
0.000000 -0.000000 0.000000 
0.000000 0.000000 0.000000 

-0.000000 -0.000000 0.000000 
0.000000 -0.000000 0.000000 
0.000000 0.000000 0.000000 

-0.000000 -0.000000 0.000000 
0.000000 0.000000 0.000000 
0.000000 0.000000 0.000000 

-0.000000 -0.000000 0.000000 
0.000000 0.000000 0.000000 
0.000000 0.000000 0.000000 

0.000000 0.000000 0.000000 
0.000000 -0.000000 0.000000 
0.000000 0.000000 0.000000 

0.000000 0.000000 0.000000 
0.000000 0.000000 0.000000 
0.000000 0.000000 0.000000 

0.000000 0.000000 0.000000 
0.000000 -0.000000 0.000000 
0.000000 0.000000 0.000000 

0.000000 -0.000000 0.000000 
0.000000 0.000000 0.000000 
0.000000 0.000000 0.000000 

0.000000 0.000000 0.000000 
0.000000 -0.000000 0.000000 
0.000000 0.000000 0.000000 

-0.000000 0.000000 0.000000 
0.000000 -0.000000 0.000000 
0.000000 0.000000 0.000000 

0.000000 -0.000000 0.000000 
0.000000 -0.000000 0.000000 
0.000000 0.000000 0.000000 

0.000000 -0.000000 0.000000 
0.000000 0.000000 0.000000 
0.000000 0.000000 0.000000 

-0.000000 0.000000 0.000000 
0.000000 0.000000 0.000000 
0.000000 0.000000 0.000000 

0.000000 -0.000000 0.000000 
0.000000 -0.000000 0.000000 
0.000000 0.000000 0.000000 

-0.000000 0.000000 0.000000 
0.000000 -0.000000 0.000000 
0.000000 0.000000 0.000000 

-0.000000 0.000000 0.000000 
0.000000 -0.000000 0.000000 
0.000000 0.000000 0.000000 

0.000000 0.000000 0.000000 
0.000000 0.000000 0.000000 
0.000000 0.000000 0.000000 

0.000000 -0.000000 0.000000 
0.000000 0.000000 0.000000 
0.000000 0.000000 0.000000 

0.000000 -0.000000 0.000000 
0.000000 -0.000000 0.000000 
0.000000 0.000000 0.000000 

-0.000000 0.000000 0.000000 
0.000000 0.000000 0.000000 
0.000000 0.000000 0.000000 

-0.000000 0.000000 0.000000 
0.000000 0.000000 0.000000 
0.000000 0.000000 0.000000 

0.000000 -0.000000 0.000000 
0.000000 0.000000 0.000000 
0.000000 0.000000 0.000000 

0.000000 0.000000 0.000000 
0.000000 0.000000 0.000000 
0.000000 0.000000 0.000000 

-0.000000 0.000000 0.000000 
0.000000 0.000000 0.000000 
0.000000 0.000000 0.000000 

-0.000000 0.000000 0.000000 
0.000000 -0.000000 0.000000 
0.000000 0.000000 0.000000 

-0.000000 -0.000000 0.000000 
0.000000 0.000000 0.000000 
0.000000 0.000000 0.000000 

-0.000000 0.000000 0.000000 
0.000000 -0.000000 0.000000 
0.000000 0.000000 0.000000 

-0.000000 0.000000 0.000000 
0.000000 0.000000 0.000000 
0.000000 0.000000 0.000000 

-0.000000 -0.000000 0.000000 
0.000000 0.000000 0.000000 
0.000000 0.000000 0.000000 

-0.000000 0.000000 0.000000 
0.000000 0.000000 0.000000 
0.000000 0.000000 0.000000 

-0.000000 -0.000000 0.000000 
0.000000 -0.000000 0.000000 
0.000000 0.000000 0.000000 

0.000000 -0.000000 0.000000 
0.000000 0.000000 0.000000 
0.000000 0.000000 0.000000 

0.000000 -0.000000 0.000000 
0.000000 -0.000000 0.000000 
0.000000 0.000000 0.000000 

-0.000000 -0.000000 0.000000 
0.000000 0.000000 0.000000 
0.000000 0.000000 0.000000 

-0.000000 -0.000000 0.000000 
0.000000 -0.000000 0.000000 
0.000000 0.000000 0.000000 

0.000000 0.000000 0.000000 
0.000000 0.000000 0.000000 
0.000000 0.000000 0.000000 

0.000000 0.000000 0.000000 
0.000000 -0.000000 0.000000 
0.000000 0.000000 0.000000 

0.000000 -0.000000 0.000000 
0.000000 -0.000000 0.000000 
0.000000 0.000000 0.000000 

0.000000 0.000000 0.000000 
0.000000 0.000000 0.000000 
0.000000 0.000000 0.000000 

-0.000000 0.000000 0.000000 
0.000000 -0.000000 0.000000 
0.000000 0.000000 0.000000 

0.000000 -0.000000 0.000000 
0.000000 -0.000000 0.000000 
0.000000 0.000000 0.000000 

0.000000 0.000000 0.000000 
0.000000 -0.000000 0.000000 
0.000000 0.000000 0.000000 

0.000000 0.000000 0.000000 
0.000000 -0.000000 0.000000 
0.000000 0.000000 0.000000 

0.000000 0.000000 0.000000 
0.000000 -0.000000 0.000000 
0.000000 0.000000 0.000000 

-0.000000 -0.000000 0.000000 
0.000000 -0.000000 0.000000 
0.000000 0.000000 0.000000 

-0.000000 -0.000000 0.000000 
0.000000 0.000000 0.000000 
0.000000 0.000000 0.000000 

-0.000000 0.000000 0.000000 
0.000000 -0.000000 0.000000 
0.000000 0.000000 0.000000 

-0.000000 0.000000 0.000000 
0.000000 0.000000 0.000000 
0.000000 0.000000 0.000000 

-0.000000 0.000000 0.000000 
0.000000 0.000000 0.000000 
0.000000 0.000000 0.000000 

0.000000 -0.000000 0.000000 
0.000000 0.000000 0.000000 
0.000000 0.000000 0.000000 

0.000000 0.000000 0.000000 
0.000000 -0.000000 0.000000 
0.000000 0.000000 0.000000 

-0.000000 -0.000000 0.000000 
0.000000 0.000000 0.000000 
0.000000 0.000000 0.000000 

0.000000 0.000000 0.000000 
0.000000 -0.000000 0.000000 
0.000000 0.000000 0.000000 

0.000000 0.000000 0.000000 
0.000000 0.000000 0.000000 
0.000000 0.000000 0.000000 

0.000000 -0.000000 0.000000 
0.000000 0.000000 0.000000 
0.000000 0.000000 0.000000 

0.000000 -0.000000 0.000000 
0.000000 -0.000000 0.000000 
0.000000 0.000000 0.000000 

-0.000000 -0.000000 0.000000 
0.000000 -0.000000 0.000000 
0.000000 0.000000 0.000000 

0.000000 -0.000000 0.000000 
0.000000 -0.000000 0.000000 
0.000000 0.000000 0.000000 

0.000000 -0.000000 0.000000 
0.000000 -0.000000 0.000000 
0.000000 0.000000 0.000000 

0.000000 -0.000000 0.000000 
0.000000 0.000000 0.000000 
0.000000 0.000000 0.000000 

0.000000 0.000000 0.000000 
0.000000 -0.000000 0.000000 
0.000000 0.000000 0.000000 

0.000000 -0.000000 0.000000 
0.000000 -0.000000 0.000000 
0.000000 0.000000 0.000000 

0.000000 -0.000000 0.000000 
0.000000 -0.000000 0.000000 
0.000000 0.000000 0.000000 

0.000000 -0.000000 0.000000 
0.000000 -0.000000 0.000000 
0.000000 0.000000 0.000000 

0.000000 -0.000000 0.000000 
0.000000 0.000000 0.000000 
0.000000 0.000000 0.000000 

-0.000000 -0.000000 0.000000 
0.000000 -0.000000 0.000000 
0.000000 0.000000 0.000000 

-0.000000 -0.000000 0.000000 
0.000000 -0.000000 0.000000 
0.000000 0.000000 0.000000 

-0.000000 0.000000 0.000000 
0.000000 -0.000000 0.000000 
0.000000 0.000000 0.000000 

-0.000000 -0.000000 0.000000 
0.000000 0.000000 0.000000 
0.000000 0.000000 0.000000 

0.000000 0.000000 0.000000 
0.000000 -0.000000 0.000000 
0.000000 0.000000 0.000000 

0.000000 0.000000 0.000000 
0.000000 0.000000 0.000000 
0.000000 0.000000 0.000000 

-0.000000 -0.000000 0.000000 
0.000000 0.000000 0.000000 
0.000000 0.000000 0.000000 

-0.000000 -0.000000 0.000000 
0.000000 -0.000000 0.000000 
0.000000 0.000000 0.000000 

-0.000000 -0.000000 0.000000 
0.000000 0.000000 0.000000 
0.000000 0.000000 0.000000 

-0.000000 0.000000 0.000000 
0.000000 -0.000000 0.000000 
0.000000 0.000000 0.000000 

-0.000000 -0.000000 0.000000 
0.000000 0.000000 0.000000 
0.000000 0.000000 0.000000 

0.000000 -0.000000 0.000000 
0.000000 -0.000000 0.000000 
0.000000 0.000000 0.000000 

0.000000 -0.000000 0.000000 
0.000000 -0.000000 0.000000 
0.000000 0.000000 0.000000 

0.000000 -0.000000 0.000000 
0.000000 -0.000000 0.000000 
0.000000 0.000000 0.000000 

-0.000000 -0.000000 0.000000 
0.000000 -0.000000 0.000000 
0.000000 0.000000 0.000000 

-0.000000 -0.000000 0.000000 
0.000000 0.000000 0.000000 
0.000000 0.000000 0.000000 

-0.000000 -0.000000 0.000000 
0.000000 -0.000000 0.000000 
0.000000 0.000000 0.000000 

-0.000000 -0.000000 0.000000 
0.000000 0.000000 0.000000 
0.000000 0.000000 0.000000 

-0.000000 -0.000000 0.000000 
0.000000 -0.000000 0.000000 
0.000000 0.000000 0.000000 

-0.000000 0.000000 0.000000 
0.000000 0.000000 0.000000 
0.000000 0.000000 0.000000 

0.000000 -0.000000 0.000000 
0.000000 -0.000000 0.000000 
0.000000 0.000000 0.000000 

-0.000000 0.000000 0.000000 
0.000000 -0.000000 0.000000 
0.000000 0.000000 0.000000 

-0.000000 0.000000 0.000000 
0.000000 -0.000000 0.000000 
0.000000 0.000000 0.000000 

0.000000 -0.000000 0.000000 
0.000000 -0.000000 0.000000 
0.000000 0.000000 0.000000 

0.000000 0.000000 0.000000 
0.000000 -0.000000 0.000000 
0.000000 0.000000 0.000000 

0.000000 -0.000000 0.000000 
0.000000 -0.000000 0.000000 
0.000000 0.000000 0.000000 

0.000000 0.000000 0.000000 
0.000000 0.000000 0.000000 
0.000000 0.000000 0.000000 

-0.000000 -0.000000 0.000000 
0.000000 0.000000 0.000000 
0.000000 0.000000 0.000000 

0.000000 -0.000000 0.000000 
0.000000 -0.000000 0.000000 
0.000000 0.000000 0.000000 

0.000000 -0.000000 0.000000 
0.000000 0.000000 0.000000 
0.000000 0.000000 0.000000 

0.000000 -0.000000 0.000000 
0.000000 0.000000 0.000000 
0.000000 0.000000 0.000000 

0.000000 0.000000 0.000000 
0.000000 -0.000000 0.000000 
0.000000 0.000000 0.000000 

0.000000 0.000000 0.000000 
0.000000 -0.000000 0.000000 
0.000000 0.000000 0.000000 

0.000000 0.000000 0.000000 
0.000000 -0.000000 0.000000 
0.000000 0.000000 0.000000 

0.000000 -0.000000 0.000000 
0.000000 0.000000 0.000000 
0.000000 0.000000 0.000000 

0.000000 -0.000000 0.000000 
0.000000 -0.000000 0.000000 
0.000000 0.000000 0.000000 

-0.000000 -0.000000 0.000000 
0.000000 -0.000000 0.000000 
0.000000 0.000000 0.000000 

-0.000000 0.000000 0.000000 
0.000000 0.000000 0.000000 
0.000000 0.000000 0.000000 

-0.000000 -0.000000 0.000000 
0.000000 0.000000 0.000000 
0.000000 0.000000 0.000000 

-0.000000 -0.000000 0.000000 
0.000000 -0.000000 0.000000 
0.000000 0.000000 0.000000 

0.000000 0.000000 0.000000 
0.000000 0.000000 0.000000 
0.000000 0.000000 0.000000 

0.000000 0.000000 0.000000 
0.000000 0.000000 0.000000 
0.000000 0.000000 0.000000 

-0.000000 -0.000000 0.000000 
0.000000 -0.000000 0.000000 
0.000000 0.000000 0.000000 

-0.000000 -0.000000 0.000000 
0.000000 -0.000000 0.000000 
0.000000 0.000000 0.000000 

0.000000 -0.000000 0.000000 
0.000000 -0.000000 0.000000 
0.000000 0.000000 0.000000 

0.000000 -0.000000 0.000000 
0.000000 0.000000 0.000000 
0.000000 0.000000 0.000000 

-0.000000 0.000000 0.000000 
0.000000 0.000000 0.000000 
0.000000 0.000000 0.000000 

-0.000000 -0.000000 0.000000 
0.000000 0.000000 0.000000 
0.000000 0.000000 0.000000 

-0.000000 0.000000 0.000000 
0.000000 -0.000000 0.000000 
0.000000 0.000000 0.000000 

0.000000 0.000000 0.000000 
0.000000 0.000000 0.000000 
0.000000 0.000000 0.000000 

-0.000000 0.000000 0.000000 
0.000000 0.000000 0.000000 
0.000000 0.000000 0.000000 

0.000000 -0.000000 0.000000 
0.000000 -0.000000 0.000000 
0.000000 0.000000 0.000000 

-0.000000 0.000000 0.000000 
0.000000 -0.000000 0.000000 
0.000000 0.000000 0.000000 

0.000000 0.000000 0.000000 
0.000000 -0.000000 0.000000 
0.000000 0.000000 0.000000 

-0.000000 -0.000000 0.000000 
0.000000 0.000000 0.000000 
0.000000 0.000000 0.000000 

0.000000 -0.000000 0.000000 
0.000000 -0.000000 0.000000 
0.000000 0.000000 0.000000 

0.000000 0.000000 0.000000 
0.000000 -0.000000 0.000000 
0.000000 0.000000 0.000000 

0.000000 0.000000 0.000000 
0.000000 0.000000 0.000000 
0.000000 0.000000 0.000000 

0.000000 0.000000 0.000000 
0.000000 -0.000000 0.000000 
0.000000 0.000000 0.000000 

0.000000 -0.000000 0.000000 
0.000000 0.000000 0.000000 
0.000000 0.000000 0.000000 

0.000000 -0.000000 0.000000 
0.000000 -0.000000 0.000000 
0.000000 0.000000 0.000000 

0.000000 0.000000 0.000000 
0.000000 -0.000000 0.000000 
0.000000 0.000000 0.000000 

-0.000000 0.000000 0.000000 
0.000000 0.000000 0.000000 
0.000000 0.000000 0.000000 

-0.000000 -0.000000 0.000000 
0.000000 -0.000000 0.000000 
0.000000 0.000000 0.000000 

-0.000000 0.000000 0.000000 
0.000000 -0.000000 0.000000 
0.000000 0.000000 0.000000 

0.000000 0.000000 0.000000 
0.000000 -0.000000 0.000000 
0.000000 0.000000 0.000000 

0.000000 0.000000 0.000000 
0.000000 -0.000000 0.000000 
0.000000 0.000000 0.000000 

0.000000 0.000000 0.000000 
0.000000 -0.000000 0.000000 
0.000000 0.000000 0.000000 

0.000000 -0.000000 0.000000 
0.000000 -0.000000 0.000000 
0.000000 0.000000 0.000000 

0.000000 -0.000000 0.000000 
0.000000 0.000000 0.000000 
0.000000 0.000000 0.000000 

0.000000 -0.000000 0.000000 
0.000000 -0.000000 0.000000 
0.000000 0.000000 0.000000 

-0.000000 -0.000000 0.000000 
0.000000 -0.000000 0.000000 
0.000000 0.000000 0.000000 

0.000000 -0.000000 0.000000 
0.000000 -0.000000 0.000000 
0.000000 0.000000 0.000000 

-0.000000 -0.000000 0.000000 
0.000000 -0.000000 0.000000 
0.000000 0.000000 0.000000 

0.000000 0.000000 0.000000 
0.000000 0.000000 0.000000 
0.000000 0.000000 0.000000 

0.000000 0.000000 0.000000 
0.000000 0.000000 0.000000 
0.000000 0.000000 0.000000 

0.000000 0.000000 0.000000 
0.000000 -0.000000 0.000000 
0.000000 0.000000 0.000000 

0.000000 0.000000 0.000000 
0.000000 0.000000 0.000000 
0.000000 0.000000 0.000000 

0.000000 0.000000 0.000000 
0.000000 0.000000 0.000000 
0.000000 0.000000 0.000000 

0.000000 0.000000 0.000000 
0.000000 -0.000000 0.000000 
0.000000 0.000000 0.000000 

0.000000 -0.000000 0.000000 
0.000000 -0.000000 0.000000 
0.000000 0.000000 0.000000 

-0.000000 -0.000000 0.000000 
0.000000 -0.000000 0.000000 
0.000000 0.000000 0.000000 

-0.000000 -0.000000 0.000000 
0.000000 0.000000 0.000000 
0.000000 0.000000 0.000000 

-0.000000 -0.000000 0.000000 
0.000000 0.000000 0.000000 
0.000000 0.000000 0.000000 

0.000000 -0.000000 0.000000 
0.000000 0.000000 0.000000 
0.000000 0.000000 0.000000 

0.000000 -0.000000 0.000000 
0.000000 -0.000000 0.000000 
0.000000 0.000000 0.000000 

-0.000000 0.000000 0.000000 
0.000000 0.000000 0.000000 
0.000000 0.000000 0.000000 

0.000000 0.000000 0.000000 
0.000000 0.000000 0.000000 
0.000000 0.000000 0.000000 

-0.000000 0.000000 0.000000 
0.000000 -0.000000 0.000000 
0.000000 0.000000 0.000000 

-0.000000 0.000000 0.000000 
0.000000 -0.000000 0.000000 
0.000000 0.000000 0.000000 

-0.000000 -0.000000 0.000000 
0.000000 0.000000 0.000000 
0.000000 0.000000 0.000000 

-0.000000 0.000000 0.000000 
0.000000 0.000000 0.000000 
0.000000 0.000000 0.000000 

0.000000 -0.000000 0.000000 
0.000000 -0.000000 0.000000 
0.000000 0.000000 0.000000 

-0.000000 -0.000000 0.000000 
0.000000 0.000000 0.000000 
0.000000 0.000000 0.000000 

-0.000000 0.000000 0.000000 
0.000000 -0.000000 0.000000 
0.000000 0.000000 0.000000 

