# vtk DataFile Version 3.0 
vtk output 
ASCII 
DATASET UNSTRUCTURED_GRID 
POINTS 175 float 
-0.026061 -0.990471 0.000000 
-0.106992 -0.922416 0.000000 
-0.054870 -0.930648 0.000000 
-0.028809 -0.884765 0.000000 
-0.186430 -0.858340 0.000000 
-0.137056 -0.860866 0.000000 
-0.114311 -0.807219 0.000000 
-0.058186 -0.822885 0.000000 
-0.029377 -0.782707 0.000000 
-0.265318 -0.795184 0.000000 
-0.217198 -0.795984 0.000000 
-0.196633 -0.738687 0.000000 
-0.143120 -0.747396 0.000000 
-0.116563 -0.700128 0.000000 
-0.058945 -0.719773 0.000000 
-0.029568 -0.681653 0.000000 
-0.344206 -0.732029 0.000000 
-0.296791 -0.732021 0.000000 
-0.278030 -0.672079 0.000000 
-0.225992 -0.677945 0.000000 
-0.201664 -0.625828 0.000000 
-0.145749 -0.639302 0.000000 
-0.117890 -0.594959 0.000000 
-0.059328 -0.617665 0.000000 
-0.029759 -0.580599 0.000000 
-0.058559 -1.031222 0.000000 
-0.162226 -1.052064 0.000000 
-0.123292 -1.016447 0.000000 
-0.142917 -0.967463 0.000000 
-0.261851 -1.074221 0.000000 
-0.229092 -1.037194 0.000000 
-0.256854 -0.985962 0.000000 
-0.209613 -0.951850 0.000000 
-0.223062 -0.904276 0.000000 
-0.360414 -1.096521 0.000000 
-0.329787 -1.059398 0.000000 
-0.361761 -1.007596 0.000000 
-0.321587 -0.971187 0.000000 
-0.341985 -0.920953 0.000000 
-0.290702 -0.888154 0.000000 
-0.302189 -0.841419 0.000000 
-0.458977 -1.118821 0.000000 
-0.429420 -1.081746 0.000000 
-0.464588 -1.029705 0.000000 
-0.427556 -0.992677 0.000000 
-0.453135 -0.941162 0.000000 
-0.407738 -0.905847 0.000000 
-0.425037 -0.856419 0.000000 
-0.370772 -0.824790 0.000000 
-0.381315 -0.778562 0.000000 
-0.046960 -1.082037 0.000000 
-0.095301 -1.176083 0.000000 
-0.098873 -1.123436 0.000000 
-0.149405 -1.108238 0.000000 
-0.140093 -1.267787 0.000000 
-0.148617 -1.219089 0.000000 
-0.205981 -1.208851 0.000000 
-0.203197 -1.150648 0.000000 
-0.248777 -1.131502 0.000000 
-0.184111 -1.358751 0.000000 
-0.194039 -1.311659 0.000000 
-0.254475 -1.304360 0.000000 
-0.257893 -1.250250 0.000000 
-0.309886 -1.234878 0.000000 
-0.303554 -1.174333 0.000000 
-0.347255 -1.154175 0.000000 
-0.228129 -1.449714 0.000000 
-0.238687 -1.403490 0.000000 
-0.301302 -1.398538 0.000000 
-0.307162 -1.346499 0.000000 
-0.363386 -1.334378 0.000000 
-0.362692 -1.276867 0.000000 
-0.412122 -1.259573 0.000000 
-0.403017 -1.197427 0.000000 
-0.445733 -1.176848 0.000000 
-0.000000 -1.104652 0.000000 
0.043388 -1.201083 0.000000 
-0.000000 -1.171050 0.000000 
-0.043388 -1.201083 0.000000 
0.087158 -1.293279 0.000000 
0.043769 -1.269581 0.000000 
-0.000000 -1.308046 0.000000 
-0.043769 -1.269581 0.000000 
-0.087158 -1.293279 0.000000 
0.130831 -1.384409 0.000000 
0.087824 -1.362810 0.000000 
0.044436 -1.405510 0.000000 
-0.000000 -1.374445 0.000000 
-0.044436 -1.405510 0.000000 
-0.087824 -1.362810 0.000000 
-0.130831 -1.384409 0.000000 
0.174505 -1.475539 0.000000 
0.131782 -1.454972 0.000000 
0.088871 -1.500839 0.000000 
0.044532 -1.472975 0.000000 
-0.000000 -1.509375 0.000000 
-0.044532 -1.472975 0.000000 
-0.088871 -1.500839 0.000000 
-0.131782 -1.454972 0.000000 
-0.174505 -1.475539 0.000000 
0.046960 -1.082037 0.000000 
0.149405 -1.108238 0.000000 
0.098873 -1.123436 0.000000 
0.095301 -1.176083 0.000000 
0.248777 -1.131502 0.000000 
0.203197 -1.150648 0.000000 
0.205981 -1.208851 0.000000 
0.148617 -1.219089 0.000000 
0.140093 -1.267787 0.000000 
0.347255 -1.154175 0.000000 
0.303554 -1.174333 0.000000 
0.309886 -1.234878 0.000000 
0.257893 -1.250250 0.000000 
0.254475 -1.304360 0.000000 
0.194039 -1.311659 0.000000 
0.184111 -1.358751 0.000000 
0.445733 -1.176848 0.000000 
0.403017 -1.197427 0.000000 
0.412122 -1.259573 0.000000 
0.362692 -1.276867 0.000000 
0.363386 -1.334378 0.000000 
0.307162 -1.346499 0.000000 
0.301302 -1.398538 0.000000 
0.238687 -1.403490 0.000000 
0.228129 -1.449714 0.000000 
0.058559 -1.031222 0.000000 
0.142917 -0.967463 0.000000 
0.123292 -1.016447 0.000000 
0.162226 -1.052064 0.000000 
0.223062 -0.904276 0.000000 
0.209613 -0.951850 0.000000 
0.256854 -0.985962 0.000000 
0.229092 -1.037194 0.000000 
0.261851 -1.074221 0.000000 
0.302189 -0.841419 0.000000 
0.290702 -0.888154 0.000000 
0.341985 -0.920953 0.000000 
0.321587 -0.971187 0.000000 
0.361761 -1.007596 0.000000 
0.329787 -1.059398 0.000000 
0.360414 -1.096521 0.000000 
0.381315 -0.778562 0.000000 
0.370772 -0.824790 0.000000 
0.425037 -0.856419 0.000000 
0.407738 -0.905847 0.000000 
0.453135 -0.941162 0.000000 
0.427556 -0.992677 0.000000 
0.464588 -1.029705 0.000000 
0.429420 -1.081746 0.000000 
0.458977 -1.118821 0.000000 
0.026061 -0.990471 0.000000 
0.028809 -0.884765 0.000000 
0.054870 -0.930648 0.000000 
0.106992 -0.922416 0.000000 
0.029377 -0.782707 0.000000 
0.058186 -0.822885 0.000000 
0.114311 -0.807219 0.000000 
0.137056 -0.860866 0.000000 
0.186430 -0.858340 0.000000 
0.029568 -0.681653 0.000000 
0.058945 -0.719773 0.000000 
0.116563 -0.700128 0.000000 
0.143120 -0.747396 0.000000 
0.196633 -0.738687 0.000000 
0.217198 -0.795984 0.000000 
0.265318 -0.795184 0.000000 
0.029759 -0.580599 0.000000 
0.059328 -0.617665 0.000000 
0.117890 -0.594959 0.000000 
0.145749 -0.639302 0.000000 
0.201664 -0.625828 0.000000 
0.225992 -0.677945 0.000000 
0.278030 -0.672079 0.000000 
0.296791 -0.732021 0.000000 
0.344206 -0.732029 0.000000 
CELLS 175 350 
1 0 
1 1 
1 2 
1 3 
1 4 
1 5 
1 6 
1 7 
1 8 
1 9 
1 10 
1 11 
1 12 
1 13 
1 14 
1 15 
1 16 
1 17 
1 18 
1 19 
1 20 
1 21 
1 22 
1 23 
1 24 
1 25 
1 26 
1 27 
1 28 
1 29 
1 30 
1 31 
1 32 
1 33 
1 34 
1 35 
1 36 
1 37 
1 38 
1 39 
1 40 
1 41 
1 42 
1 43 
1 44 
1 45 
1 46 
1 47 
1 48 
1 49 
1 50 
1 51 
1 52 
1 53 
1 54 
1 55 
1 56 
1 57 
1 58 
1 59 
1 60 
1 61 
1 62 
1 63 
1 64 
1 65 
1 66 
1 67 
1 68 
1 69 
1 70 
1 71 
1 72 
1 73 
1 74 
1 75 
1 76 
1 77 
1 78 
1 79 
1 80 
1 81 
1 82 
1 83 
1 84 
1 85 
1 86 
1 87 
1 88 
1 89 
1 90 
1 91 
1 92 
1 93 
1 94 
1 95 
1 96 
1 97 
1 98 
1 99 
1 100 
1 101 
1 102 
1 103 
1 104 
1 105 
1 106 
1 107 
1 108 
1 109 
1 110 
1 111 
1 112 
1 113 
1 114 
1 115 
1 116 
1 117 
1 118 
1 119 
1 120 
1 121 
1 122 
1 123 
1 124 
1 125 
1 126 
1 127 
1 128 
1 129 
1 130 
1 131 
1 132 
1 133 
1 134 
1 135 
1 136 
1 137 
1 138 
1 139 
1 140 
1 141 
1 142 
1 143 
1 144 
1 145 
1 146 
1 147 
1 148 
1 149 
1 150 
1 151 
1 152 
1 153 
1 154 
1 155 
1 156 
1 157 
1 158 
1 159 
1 160 
1 161 
1 162 
1 163 
1 164 
1 165 
1 166 
1 167 
1 168 
1 169 
1 170 
1 171 
1 172 
1 173 
1 174 
CELL_TYPES 175 
1 
1 
1 
1 
1 
1 
1 
1 
1 
1 
1 
1 
1 
1 
1 
1 
1 
1 
1 
1 
1 
1 
1 
1 
1 
1 
1 
1 
1 
1 
1 
1 
1 
1 
1 
1 
1 
1 
1 
1 
1 
1 
1 
1 
1 
1 
1 
1 
1 
1 
1 
1 
1 
1 
1 
1 
1 
1 
1 
1 
1 
1 
1 
1 
1 
1 
1 
1 
1 
1 
1 
1 
1 
1 
1 
1 
1 
1 
1 
1 
1 
1 
1 
1 
1 
1 
1 
1 
1 
1 
1 
1 
1 
1 
1 
1 
1 
1 
1 
1 
1 
1 
1 
1 
1 
1 
1 
1 
1 
1 
1 
1 
1 
1 
1 
1 
1 
1 
1 
1 
1 
1 
1 
1 
1 
1 
1 
1 
1 
1 
1 
1 
1 
1 
1 
1 
1 
1 
1 
1 
1 
1 
1 
1 
1 
1 
1 
1 
1 
1 
1 
1 
1 
1 
1 
1 
1 
1 
1 
1 
1 
1 
1 
1 
1 
1 
1 
1 
1 
1 
1 
1 
1 
1 
1 
POINT_DATA 175 
VECTORS X_GC float 
-0.026061 -0.990471 0.000000 
-0.106992 -0.922416 0.000000 
-0.054870 -0.930648 0.000000 
-0.028809 -0.884765 0.000000 
-0.186430 -0.858340 0.000000 
-0.137056 -0.860866 0.000000 
-0.114311 -0.807219 0.000000 
-0.058186 -0.822885 0.000000 
-0.029377 -0.782707 0.000000 
-0.265318 -0.795184 0.000000 
-0.217198 -0.795984 0.000000 
-0.196633 -0.738687 0.000000 
-0.143120 -0.747396 0.000000 
-0.116563 -0.700128 0.000000 
-0.058945 -0.719773 0.000000 
-0.029568 -0.681653 0.000000 
-0.344206 -0.732029 0.000000 
-0.296791 -0.732021 0.000000 
-0.278030 -0.672079 0.000000 
-0.225992 -0.677945 0.000000 
-0.201664 -0.625828 0.000000 
-0.145749 -0.639302 0.000000 
-0.117890 -0.594959 0.000000 
-0.059328 -0.617665 0.000000 
-0.029759 -0.580599 0.000000 
-0.058559 -1.031222 0.000000 
-0.162226 -1.052064 0.000000 
-0.123292 -1.016447 0.000000 
-0.142917 -0.967463 0.000000 
-0.261851 -1.074221 0.000000 
-0.229092 -1.037194 0.000000 
-0.256854 -0.985962 0.000000 
-0.209613 -0.951850 0.000000 
-0.223062 -0.904276 0.000000 
-0.360414 -1.096521 0.000000 
-0.329787 -1.059398 0.000000 
-0.361761 -1.007596 0.000000 
-0.321587 -0.971187 0.000000 
-0.341985 -0.920953 0.000000 
-0.290702 -0.888154 0.000000 
-0.302189 -0.841419 0.000000 
-0.458977 -1.118821 0.000000 
-0.429420 -1.081746 0.000000 
-0.464588 -1.029705 0.000000 
-0.427556 -0.992677 0.000000 
-0.453135 -0.941162 0.000000 
-0.407738 -0.905847 0.000000 
-0.425037 -0.856419 0.000000 
-0.370772 -0.824790 0.000000 
-0.381315 -0.778562 0.000000 
-0.046960 -1.082037 0.000000 
-0.095301 -1.176083 0.000000 
-0.098873 -1.123436 0.000000 
-0.149405 -1.108238 0.000000 
-0.140093 -1.267787 0.000000 
-0.148617 -1.219089 0.000000 
-0.205981 -1.208851 0.000000 
-0.203197 -1.150648 0.000000 
-0.248777 -1.131502 0.000000 
-0.184111 -1.358751 0.000000 
-0.194039 -1.311659 0.000000 
-0.254475 -1.304360 0.000000 
-0.257893 -1.250250 0.000000 
-0.309886 -1.234878 0.000000 
-0.303554 -1.174333 0.000000 
-0.347255 -1.154175 0.000000 
-0.228129 -1.449714 0.000000 
-0.238687 -1.403490 0.000000 
-0.301302 -1.398538 0.000000 
-0.307162 -1.346499 0.000000 
-0.363386 -1.334378 0.000000 
-0.362692 -1.276867 0.000000 
-0.412122 -1.259573 0.000000 
-0.403017 -1.197427 0.000000 
-0.445733 -1.176848 0.000000 
-0.000000 -1.104652 0.000000 
0.043388 -1.201083 0.000000 
-0.000000 -1.171050 0.000000 
-0.043388 -1.201083 0.000000 
0.087158 -1.293279 0.000000 
0.043769 -1.269581 0.000000 
-0.000000 -1.308046 0.000000 
-0.043769 -1.269581 0.000000 
-0.087158 -1.293279 0.000000 
0.130831 -1.384409 0.000000 
0.087824 -1.362810 0.000000 
0.044436 -1.405510 0.000000 
-0.000000 -1.374445 0.000000 
-0.044436 -1.405510 0.000000 
-0.087824 -1.362810 0.000000 
-0.130831 -1.384409 0.000000 
0.174505 -1.475539 0.000000 
0.131782 -1.454972 0.000000 
0.088871 -1.500839 0.000000 
0.044532 -1.472975 0.000000 
-0.000000 -1.509375 0.000000 
-0.044532 -1.472975 0.000000 
-0.088871 -1.500839 0.000000 
-0.131782 -1.454972 0.000000 
-0.174505 -1.475539 0.000000 
0.046960 -1.082037 0.000000 
0.149405 -1.108238 0.000000 
0.098873 -1.123436 0.000000 
0.095301 -1.176083 0.000000 
0.248777 -1.131502 0.000000 
0.203197 -1.150648 0.000000 
0.205981 -1.208851 0.000000 
0.148617 -1.219089 0.000000 
0.140093 -1.267787 0.000000 
0.347255 -1.154175 0.000000 
0.303554 -1.174333 0.000000 
0.309886 -1.234878 0.000000 
0.257893 -1.250250 0.000000 
0.254475 -1.304360 0.000000 
0.194039 -1.311659 0.000000 
0.184111 -1.358751 0.000000 
0.445733 -1.176848 0.000000 
0.403017 -1.197427 0.000000 
0.412122 -1.259573 0.000000 
0.362692 -1.276867 0.000000 
0.363386 -1.334378 0.000000 
0.307162 -1.346499 0.000000 
0.301302 -1.398538 0.000000 
0.238687 -1.403490 0.000000 
0.228129 -1.449714 0.000000 
0.058559 -1.031222 0.000000 
0.142917 -0.967463 0.000000 
0.123292 -1.016447 0.000000 
0.162226 -1.052064 0.000000 
0.223062 -0.904276 0.000000 
0.209613 -0.951850 0.000000 
0.256854 -0.985962 0.000000 
0.229092 -1.037194 0.000000 
0.261851 -1.074221 0.000000 
0.302189 -0.841419 0.000000 
0.290702 -0.888154 0.000000 
0.341985 -0.920953 0.000000 
0.321587 -0.971187 0.000000 
0.361761 -1.007596 0.000000 
0.329787 -1.059398 0.000000 
0.360414 -1.096521 0.000000 
0.381315 -0.778562 0.000000 
0.370772 -0.824790 0.000000 
0.425037 -0.856419 0.000000 
0.407738 -0.905847 0.000000 
0.453135 -0.941162 0.000000 
0.427556 -0.992677 0.000000 
0.464588 -1.029705 0.000000 
0.429420 -1.081746 0.000000 
0.458977 -1.118821 0.000000 
0.026061 -0.990471 0.000000 
0.028809 -0.884765 0.000000 
0.054870 -0.930648 0.000000 
0.106992 -0.922416 0.000000 
0.029377 -0.782707 0.000000 
0.058186 -0.822885 0.000000 
0.114311 -0.807219 0.000000 
0.137056 -0.860866 0.000000 
0.186430 -0.858340 0.000000 
0.029568 -0.681653 0.000000 
0.058945 -0.719773 0.000000 
0.116563 -0.700128 0.000000 
0.143120 -0.747396 0.000000 
0.196633 -0.738687 0.000000 
0.217198 -0.795984 0.000000 
0.265318 -0.795184 0.000000 
0.029759 -0.580599 0.000000 
0.059328 -0.617665 0.000000 
0.117890 -0.594959 0.000000 
0.145749 -0.639302 0.000000 
0.201664 -0.625828 0.000000 
0.225992 -0.677945 0.000000 
0.278030 -0.672079 0.000000 
0.296791 -0.732021 0.000000 
0.344206 -0.732029 0.000000 
VECTORS X_EC float 
0.338794 -0.128641 0.000000 
-0.609100 0.952611 0.000000 
0.713312 -0.936248 0.000000 
0.374519 0.444322 0.000000 
0.423588 0.087592 0.000000 
-0.218274 0.121695 0.000000 
-0.513962 -0.602544 0.000000 
0.756418 -0.391058 0.000000 
0.381900 -0.933450 0.000000 
-0.550868 -0.765012 0.000000 
0.823577 -0.754216 0.000000 
0.556234 0.472280 0.000000 
-0.139443 0.589849 0.000000 
-0.484677 -0.048276 0.000000 
0.766286 0.216939 0.000000 
0.384386 -0.297681 0.000000 
0.474677 0.382385 0.000000 
-0.141715 0.382289 0.000000 
-0.385608 -0.426939 0.000000 
0.937896 -0.347744 0.000000 
0.621631 0.948676 0.000000 
-0.105264 -0.869425 0.000000 
-0.467428 0.531949 0.000000 
0.771260 0.838477 0.000000 
0.386873 0.338088 0.000000 
0.761262 0.421494 0.000000 
0.108942 0.702870 0.000000 
-0.397202 0.222031 0.000000 
-0.142083 -0.439244 0.000000 
-0.595936 -0.998019 0.000000 
0.978194 0.502115 0.000000 
-0.660903 -0.189510 0.000000 
0.724964 -0.650030 0.000000 
0.899809 0.707721 0.000000 
0.685384 -0.696967 0.000000 
0.287229 0.801875 0.000000 
0.702895 0.102546 0.000000 
0.180633 -0.388972 0.000000 
0.445811 0.932868 0.000000 
-0.220880 0.490082 0.000000 
-0.071546 -0.140844 0.000000 
-0.033296 -0.395915 0.000000 
-0.417537 -0.896424 0.000000 
0.039645 0.401013 0.000000 
-0.441768 -0.098858 0.000000 
-0.109248 -0.794309 0.000000 
-0.699407 0.728936 0.000000 
-0.474522 0.061657 0.000000 
0.820030 -0.365337 0.000000 
0.957100 -0.989409 0.000000 
0.610485 -0.892500 0.000000 
-0.761092 0.377120 0.000000 
-0.714655 -0.333618 0.000000 
-0.057734 -0.538785 0.000000 
-0.178789 -0.384876 0.000000 
-0.067979 0.957698 0.000000 
0.677748 0.819494 0.000000 
0.641556 0.033749 0.000000 
-0.765897 -0.224730 0.000000 
0.393446 0.843133 0.000000 
0.522510 0.207403 0.000000 
-0.691820 0.108859 0.000000 
-0.647393 -0.621624 0.000000 
0.028512 -0.829151 0.000000 
-0.053800 0.353489 0.000000 
0.514316 0.081358 0.000000 
0.965681 0.071142 0.000000 
-0.897068 -0.552887 0.000000 
-0.083078 -0.619740 0.000000 
-0.006893 0.677735 0.000000 
0.724017 0.514103 0.000000 
0.714996 -0.262301 0.000000 
-0.642413 -0.495758 0.000000 
-0.760780 0.665261 0.000000 
-0.205471 0.387446 0.000000 
0.000000 -0.587198 0.000000 
-0.564049 0.714615 0.000000 
0.000000 0.309179 0.000000 
0.564049 0.714615 0.000000 
0.866949 -0.040730 0.000000 
-0.569003 -0.360661 0.000000 
0.000000 0.158627 0.000000 
0.569003 -0.360661 0.000000 
-0.866949 -0.040730 0.000000 
0.299194 -0.810480 0.000000 
0.858290 0.897936 0.000000 
-0.577662 -0.525618 0.000000 
0.000000 -0.944996 0.000000 
0.577662 -0.525618 0.000000 
-0.858290 0.897936 0.000000 
-0.299194 -0.810480 0.000000 
-0.268560 0.419770 0.000000 
0.286830 0.142128 0.000000 
0.844677 0.761327 0.000000 
-0.578910 0.385164 0.000000 
0.000000 0.876568 0.000000 
0.578910 0.385164 0.000000 
-0.844677 0.761327 0.000000 
-0.286830 0.142128 0.000000 
0.268560 0.419770 0.000000 
-0.610485 -0.892500 0.000000 
0.057734 -0.538785 0.000000 
0.714655 -0.333618 0.000000 
0.761092 0.377120 0.000000 
0.765897 -0.224730 0.000000 
-0.641556 0.033749 0.000000 
-0.677748 0.819494 0.000000 
0.067979 0.957698 0.000000 
0.178789 -0.384876 0.000000 
-0.514316 0.081358 0.000000 
0.053800 0.353489 0.000000 
-0.028512 -0.829151 0.000000 
0.647393 -0.621624 0.000000 
0.691820 0.108859 0.000000 
-0.522510 0.207403 0.000000 
-0.393446 0.843133 0.000000 
0.205471 0.387446 0.000000 
0.760780 0.665261 0.000000 
0.642413 -0.495758 0.000000 
-0.714996 -0.262301 0.000000 
-0.724017 0.514103 0.000000 
0.006894 0.677735 0.000000 
0.083078 -0.619740 0.000000 
0.897068 -0.552887 0.000000 
-0.965681 0.071142 0.000000 
-0.761262 0.421494 0.000000 
0.142083 -0.439244 0.000000 
0.397202 0.222031 0.000000 
-0.108942 0.702870 0.000000 
-0.899809 0.707721 0.000000 
-0.724964 -0.650030 0.000000 
0.660903 -0.189510 0.000000 
-0.978194 0.502115 0.000000 
0.595936 -0.998019 0.000000 
0.071546 -0.140844 0.000000 
0.220880 0.490082 0.000000 
-0.445811 0.932868 0.000000 
-0.180633 -0.388972 0.000000 
-0.702895 0.102546 0.000000 
-0.287229 0.801875 0.000000 
-0.685384 -0.696967 0.000000 
-0.957100 -0.989408 0.000000 
-0.820030 -0.365337 0.000000 
0.474522 0.061657 0.000000 
0.699407 0.728936 0.000000 
0.109248 -0.794309 0.000000 
0.441768 -0.098858 0.000000 
-0.039645 0.401013 0.000000 
0.417537 -0.896424 0.000000 
0.033296 -0.395915 0.000000 
-0.338794 -0.128641 0.000000 
-0.374519 0.444322 0.000000 
-0.713312 -0.936248 0.000000 
0.609100 0.952611 0.000000 
-0.381900 -0.933450 0.000000 
-0.756418 -0.391058 0.000000 
0.513962 -0.602544 0.000000 
0.218274 0.121695 0.000000 
-0.423588 0.087592 0.000000 
-0.384386 -0.297681 0.000000 
-0.766286 0.216939 0.000000 
0.484677 -0.048276 0.000000 
0.139443 0.589849 0.000000 
-0.556234 0.472280 0.000000 
-0.823577 -0.754216 0.000000 
0.550868 -0.765012 0.000000 
-0.386873 0.338088 0.000000 
-0.771260 0.838477 0.000000 
0.467428 0.531949 0.000000 
0.105264 -0.869425 0.000000 
-0.621631 0.948676 0.000000 
-0.937896 -0.347744 0.000000 
0.385608 -0.426939 0.000000 
0.141715 0.382289 0.000000 
-0.474677 0.382385 0.000000 
CELL_DATA 175 
SCALARS MASS float 
LOOKUP_TABLE default 
0.078183 
0.086427 
0.094672 
0.086427 
0.088131 
0.092111 
0.085854 
0.092111 
0.088131 
0.088705 
0.091000 
0.086983 
0.091556 
0.086983 
0.091000 
0.088705 
0.089278 
0.091574 
0.089278 
0.092722 
0.089278 
0.092722 
0.089278 
0.091574 
0.089278 
0.078183 
0.086427 
0.094672 
0.086427 
0.088131 
0.092111 
0.085854 
0.092111 
0.088131 
0.088705 
0.091000 
0.086983 
0.091556 
0.086983 
0.091000 
0.088705 
0.089278 
0.091574 
0.089278 
0.092722 
0.089278 
0.092722 
0.089278 
0.091574 
0.089278 
0.078183 
0.086427 
0.094672 
0.086427 
0.088131 
0.092111 
0.085854 
0.092111 
0.088131 
0.088705 
0.091000 
0.086983 
0.091556 
0.086983 
0.091000 
0.088705 
0.089278 
0.091574 
0.089278 
0.092722 
0.089278 
0.092722 
0.089278 
0.091574 
0.089278 
0.078183 
0.086427 
0.094672 
0.086427 
0.088131 
0.092111 
0.085854 
0.092111 
0.088131 
0.088705 
0.091000 
0.086983 
0.091556 
0.086983 
0.091000 
0.088705 
0.089278 
0.091574 
0.089278 
0.092722 
0.089278 
0.092722 
0.089278 
0.091574 
0.089278 
0.078183 
0.086427 
0.094672 
0.086427 
0.088131 
0.092111 
0.085854 
0.092111 
0.088131 
0.088705 
0.091000 
0.086983 
0.091556 
0.086983 
0.091000 
0.088705 
0.089278 
0.091574 
0.089278 
0.092722 
0.089278 
0.092722 
0.089278 
0.091574 
0.089278 
0.078183 
0.086427 
0.094672 
0.086427 
0.088131 
0.092111 
0.085854 
0.092111 
0.088131 
0.088705 
0.091000 
0.086983 
0.091556 
0.086983 
0.091000 
0.088705 
0.089278 
0.091574 
0.089278 
0.092722 
0.089278 
0.092722 
0.089278 
0.091574 
0.089278 
0.078183 
0.086427 
0.094672 
0.086427 
0.088131 
0.092111 
0.085854 
0.092111 
0.088131 
0.088705 
0.091000 
0.086983 
0.091556 
0.086983 
0.091000 
0.088705 
0.089278 
0.091574 
0.089278 
0.092722 
0.089278 
0.092722 
0.089278 
0.091574 
0.089278 
SCALARS MASS float 
LOOKUP_TABLE default 
0.078183 
0.086427 
0.094672 
0.086427 
0.088131 
0.092111 
0.085854 
0.092111 
0.088131 
0.088705 
0.091000 
0.086983 
0.091556 
0.086983 
0.091000 
0.088705 
0.089278 
0.091574 
0.089278 
0.092722 
0.089278 
0.092722 
0.089278 
0.091574 
0.089278 
0.078183 
0.086427 
0.094672 
0.086427 
0.088131 
0.092111 
0.085854 
0.092111 
0.088131 
0.088705 
0.091000 
0.086983 
0.091556 
0.086983 
0.091000 
0.088705 
0.089278 
0.091574 
0.089278 
0.092722 
0.089278 
0.092722 
0.089278 
0.091574 
0.089278 
0.078183 
0.086427 
0.094672 
0.086427 
0.088131 
0.092111 
0.085854 
0.092111 
0.088131 
0.088705 
0.091000 
0.086983 
0.091556 
0.086983 
0.091000 
0.088705 
0.089278 
0.091574 
0.089278 
0.092722 
0.089278 
0.092722 
0.089278 
0.091574 
0.089278 
0.078183 
0.086427 
0.094672 
0.086427 
0.088131 
0.092111 
0.085854 
0.092111 
0.088131 
0.088705 
0.091000 
0.086983 
0.091556 
0.086983 
0.091000 
0.088705 
0.089278 
0.091574 
0.089278 
0.092722 
0.089278 
0.092722 
0.089278 
0.091574 
0.089278 
0.078183 
0.086427 
0.094672 
0.086427 
0.088131 
0.092111 
0.085854 
0.092111 
0.088131 
0.088705 
0.091000 
0.086983 
0.091556 
0.086983 
0.091000 
0.088705 
0.089278 
0.091574 
0.089278 
0.092722 
0.089278 
0.092722 
0.089278 
0.091574 
0.089278 
0.078183 
0.086427 
0.094672 
0.086427 
0.088131 
0.092111 
0.085854 
0.092111 
0.088131 
0.088705 
0.091000 
0.086983 
0.091556 
0.086983 
0.091000 
0.088705 
0.089278 
0.091574 
0.089278 
0.092722 
0.089278 
0.092722 
0.089278 
0.091574 
0.089278 
0.078183 
0.086427 
0.094672 
0.086427 
0.088131 
0.092111 
0.085854 
0.092111 
0.088131 
0.088705 
0.091000 
0.086983 
0.091556 
0.086983 
0.091000 
0.088705 
0.089278 
0.091574 
0.089278 
0.092722 
0.089278 
0.092722 
0.089278 
0.091574 
0.089278 
SCALARS DENSITY float 
LOOKUP_TABLE default 
20.000000 
20.000000 
20.000000 
20.000000 
20.000000 
20.000000 
20.000000 
20.000000 
20.000000 
20.000000 
20.000000 
20.000000 
20.000000 
20.000000 
20.000000 
20.000000 
20.000000 
20.000000 
20.000000 
20.000000 
20.000000 
20.000000 
20.000000 
20.000000 
20.000000 
20.000000 
20.000000 
20.000000 
20.000000 
20.000000 
20.000000 
20.000000 
20.000000 
20.000000 
20.000000 
20.000000 
20.000000 
20.000000 
20.000000 
20.000000 
20.000000 
20.000000 
20.000000 
20.000000 
20.000000 
20.000000 
20.000000 
20.000000 
20.000000 
20.000000 
20.000000 
20.000000 
20.000000 
20.000000 
20.000000 
20.000000 
20.000000 
20.000000 
20.000000 
20.000000 
20.000000 
20.000000 
20.000000 
20.000000 
20.000000 
20.000000 
20.000000 
20.000000 
20.000000 
20.000000 
20.000000 
20.000000 
20.000000 
20.000000 
20.000000 
20.000000 
20.000000 
20.000000 
20.000000 
20.000000 
20.000000 
20.000000 
20.000000 
20.000000 
20.000000 
20.000000 
20.000000 
20.000000 
20.000000 
20.000000 
20.000000 
20.000000 
20.000000 
20.000000 
20.000000 
20.000000 
20.000000 
20.000000 
20.000000 
20.000000 
20.000000 
20.000000 
20.000000 
20.000000 
20.000000 
20.000000 
20.000000 
20.000000 
20.000000 
20.000000 
20.000000 
20.000000 
20.000000 
20.000000 
20.000000 
20.000000 
20.000000 
20.000000 
20.000000 
20.000000 
20.000000 
20.000000 
20.000000 
20.000000 
20.000000 
20.000000 
20.000000 
20.000000 
20.000000 
20.000000 
20.000000 
20.000000 
20.000000 
20.000000 
20.000000 
20.000000 
20.000000 
20.000000 
20.000000 
20.000000 
20.000000 
20.000000 
20.000000 
20.000000 
20.000000 
20.000000 
20.000000 
20.000000 
20.000000 
20.000000 
20.000000 
20.000000 
20.000000 
20.000000 
20.000000 
20.000000 
20.000000 
20.000000 
20.000000 
20.000000 
20.000000 
20.000000 
20.000000 
20.000000 
20.000000 
20.000000 
20.000000 
20.000000 
20.000000 
20.000000 
20.000000 
20.000000 
20.000000 
20.000000 
20.000000 
SCALARS ELEM_i float 
LOOKUP_TABLE default 
175 
203 
175 
176 
203 
203 
203 
176 
176 
230 
203 
204 
204 
204 
177 
177 
231 
231 
231 
204 
205 
204 
205 
178 
178 
175 
202 
202 
202 
228 
202 
229 
202 
203 
228 
229 
229 
229 
230 
230 
230 
255 
255 
256 
256 
256 
257 
257 
230 
230 
174 
201 
201 
201 
200 
201 
201 
201 
228 
200 
200 
227 
227 
227 
228 
228 
199 
226 
226 
227 
227 
227 
254 
255 
255 
174 
174 
174 
174 
146 
173 
173 
173 
200 
145 
146 
172 
172 
172 
200 
199 
145 
145 
145 
172 
172 
172 
199 
199 
199 
174 
147 
147 
147 
120 
147 
147 
147 
146 
120 
120 
119 
119 
119 
146 
146 
93 
93 
92 
119 
119 
119 
118 
118 
145 
175 
148 
148 
148 
149 
148 
121 
148 
120 
122 
122 
122 
121 
121 
121 
120 
122 
122 
95 
95 
94 
94 
94 
93 
93 
175 
176 
175 
149 
176 
176 
149 
149 
149 
177 
177 
150 
150 
150 
149 
122 
178 
178 
151 
150 
151 
150 
123 
123 
123 
VECTORS VELOCITY float 
0.000000 -4.526726 0.000000 
0.000000 -4.526726 0.000000 
0.000000 -4.526726 0.000000 
-0.000000 -4.526726 0.000000 
-0.000000 -4.526726 0.000000 
-0.000000 -4.526726 0.000000 
-0.000000 -4.526726 0.000000 
-0.000000 -4.526726 0.000000 
0.000000 -4.526726 0.000000 
-0.000000 -4.526726 0.000000 
-0.000000 -4.526726 0.000000 
0.000000 -4.526726 0.000000 
-0.000000 -4.526726 0.000000 
-0.000000 -4.526726 0.000000 
-0.000000 -4.526726 0.000000 
-0.000000 -4.526726 0.000000 
0.000000 -4.526726 0.000000 
0.000000 -4.526726 0.000000 
0.000000 -4.526726 0.000000 
-0.000000 -4.526726 0.000000 
-0.000000 -4.526726 0.000000 
-0.000000 -4.526726 0.000000 
-0.000000 -4.526726 0.000000 
0.000000 -4.526726 0.000000 
0.000000 -4.526726 0.000000 
0.000000 -4.526726 0.000000 
0.000000 -4.526726 0.000000 
0.000000 -4.526726 0.000000 
0.000000 -4.526726 0.000000 
-0.000000 -4.526726 0.000000 
-0.000000 -4.526726 0.000000 
-0.000000 -4.526726 0.000000 
-0.000000 -4.526726 0.000000 
-0.000000 -4.526726 0.000000 
-0.000000 -4.526726 0.000000 
-0.000000 -4.526726 0.000000 
-0.000000 -4.526726 0.000000 
-0.000000 -4.526726 0.000000 
-0.000000 -4.526726 0.000000 
-0.000000 -4.526726 0.000000 
0.000000 -4.526726 0.000000 
-0.000000 -4.526726 0.000000 
-0.000000 -4.526726 0.000000 
0.000000 -4.526726 0.000000 
0.000000 -4.526726 0.000000 
-0.000000 -4.526726 0.000000 
-0.000000 -4.526726 0.000000 
-0.000000 -4.526726 0.000000 
0.000000 -4.526726 0.000000 
-0.000000 -4.526726 0.000000 
0.000000 -4.526726 0.000000 
-0.000000 -4.526726 0.000000 
0.000000 -4.526726 0.000000 
0.000000 -4.526726 0.000000 
-0.000000 -4.526726 0.000000 
0.000000 -4.526726 0.000000 
0.000000 -4.526726 0.000000 
0.000000 -4.526726 0.000000 
0.000000 -4.526726 0.000000 
-0.000000 -4.526726 0.000000 
0.000000 -4.526726 0.000000 
0.000000 -4.526726 0.000000 
0.000000 -4.526726 0.000000 
0.000000 -4.526726 0.000000 
-0.000000 -4.526726 0.000000 
-0.000000 -4.526726 0.000000 
-0.000000 -4.526726 0.000000 
-0.000000 -4.526726 0.000000 
-0.000000 -4.526726 0.000000 
0.000000 -4.526726 0.000000 
0.000000 -4.526726 0.000000 
0.000000 -4.526726 0.000000 
0.000000 -4.526726 0.000000 
-0.000000 -4.526726 0.000000 
0.000000 -4.526726 0.000000 
-0.000000 -4.526726 0.000000 
0.000000 -4.526726 0.000000 
-0.000000 -4.526726 0.000000 
-0.000000 -4.526726 0.000000 
0.000000 -4.526726 0.000000 
0.000000 -4.526726 0.000000 
0.000000 -4.526726 0.000000 
-0.000000 -4.526726 0.000000 
-0.000000 -4.526726 0.000000 
-0.000000 -4.526726 0.000000 
0.000000 -4.526726 0.000000 
-0.000000 -4.526726 0.000000 
-0.000000 -4.526726 0.000000 
0.000000 -4.526726 0.000000 
-0.000000 -4.526726 0.000000 
-0.000000 -4.526726 0.000000 
-0.000000 -4.526726 0.000000 
-0.000000 -4.526726 0.000000 
-0.000000 -4.526726 0.000000 
-0.000000 -4.526726 0.000000 
-0.000000 -4.526726 0.000000 
0.000000 -4.526726 0.000000 
-0.000000 -4.526726 0.000000 
-0.000000 -4.526726 0.000000 
-0.000000 -4.526726 0.000000 
-0.000000 -4.526726 0.000000 
0.000000 -4.526726 0.000000 
-0.000000 -4.526726 0.000000 
0.000000 -4.526726 0.000000 
0.000000 -4.526726 0.000000 
0.000000 -4.526726 0.000000 
0.000000 -4.526726 0.000000 
0.000000 -4.526726 0.000000 
0.000000 -4.526726 0.000000 
-0.000000 -4.526726 0.000000 
-0.000000 -4.526726 0.000000 
-0.000000 -4.526726 0.000000 
-0.000000 -4.526726 0.000000 
-0.000000 -4.526726 0.000000 
-0.000000 -4.526726 0.000000 
0.000000 -4.526726 0.000000 
0.000000 -4.526726 0.000000 
0.000000 -4.526726 0.000000 
-0.000000 -4.526726 0.000000 
-0.000000 -4.526726 0.000000 
-0.000000 -4.526726 0.000000 
-0.000000 -4.526726 0.000000 
-0.000000 -4.526726 0.000000 
-0.000000 -4.526726 0.000000 
-0.000000 -4.526726 0.000000 
-0.000000 -4.526726 0.000000 
-0.000000 -4.526726 0.000000 
-0.000000 -4.526726 0.000000 
0.000000 -4.526726 0.000000 
0.000000 -4.526726 0.000000 
0.000000 -4.526726 0.000000 
0.000000 -4.526726 0.000000 
0.000000 -4.526726 0.000000 
0.000000 -4.526726 0.000000 
0.000000 -4.526726 0.000000 
-0.000000 -4.526726 0.000000 
-0.000000 -4.526726 0.000000 
0.000000 -4.526726 0.000000 
0.000000 -4.526726 0.000000 
0.000000 -4.526726 0.000000 
-0.000000 -4.526726 0.000000 
0.000000 -4.526726 0.000000 
-0.000000 -4.526726 0.000000 
0.000000 -4.526726 0.000000 
-0.000000 -4.526726 0.000000 
-0.000000 -4.526726 0.000000 
0.000000 -4.526726 0.000000 
0.000000 -4.526726 0.000000 
-0.000000 -4.526726 0.000000 
0.000000 -4.526726 0.000000 
0.000000 -4.526726 0.000000 
-0.000000 -4.526726 0.000000 
-0.000000 -4.526726 0.000000 
-0.000000 -4.526726 0.000000 
0.000000 -4.526726 0.000000 
0.000000 -4.526726 0.000000 
0.000000 -4.526726 0.000000 
0.000000 -4.526726 0.000000 
0.000000 -4.526726 0.000000 
-0.000000 -4.526726 0.000000 
0.000000 -4.526726 0.000000 
-0.000000 -4.526726 0.000000 
0.000000 -4.526726 0.000000 
0.000000 -4.526726 0.000000 
0.000000 -4.526726 0.000000 
0.000000 -4.526726 0.000000 
0.000000 -4.526726 0.000000 
0.000000 -4.526726 0.000000 
0.000000 -4.526726 0.000000 
0.000000 -4.526726 0.000000 
0.000000 -4.526726 0.000000 
0.000000 -4.526726 0.000000 
-0.000000 -4.526726 0.000000 
-0.000000 -4.526726 0.000000 
-0.000000 -4.526726 0.000000 
TENSORS STRESS float 
-0.000000 0.000000 0.000000 
0.000000 -0.000000 0.000000 
0.000000 0.000000 0.000000 

0.000000 -0.000000 0.000000 
0.000000 0.000000 0.000000 
0.000000 0.000000 0.000000 

-0.000000 -0.000000 0.000000 
0.000000 -0.000000 0.000000 
0.000000 0.000000 0.000000 

-0.000000 -0.000000 0.000000 
0.000000 0.000000 0.000000 
0.000000 0.000000 0.000000 

-0.000000 -0.000000 0.000000 
0.000000 0.000000 0.000000 
0.000000 0.000000 0.000000 

0.000000 -0.000000 0.000000 
0.000000 0.000000 0.000000 
0.000000 0.000000 0.000000 

0.000000 -0.000000 0.000000 
0.000000 0.000000 0.000000 
0.000000 0.000000 0.000000 

-0.000000 -0.000000 0.000000 
0.000000 -0.000000 0.000000 
0.000000 0.000000 0.000000 

-0.000000 0.000000 0.000000 
0.000000 -0.000000 0.000000 
0.000000 0.000000 0.000000 

-0.000000 0.000000 0.000000 
0.000000 0.000000 0.000000 
0.000000 0.000000 0.000000 

-0.000000 -0.000000 0.000000 
0.000000 0.000000 0.000000 
0.000000 0.000000 0.000000 

-0.000000 0.000000 0.000000 
0.000000 0.000000 0.000000 
0.000000 0.000000 0.000000 

-0.000000 0.000000 0.000000 
0.000000 0.000000 0.000000 
0.000000 0.000000 0.000000 

-0.000000 -0.000000 0.000000 
0.000000 -0.000000 0.000000 
0.000000 0.000000 0.000000 

-0.000000 -0.000000 0.000000 
0.000000 -0.000000 0.000000 
0.000000 0.000000 0.000000 

0.000000 0.000000 0.000000 
0.000000 0.000000 0.000000 
0.000000 0.000000 0.000000 

0.000000 -0.000000 0.000000 
0.000000 0.000000 0.000000 
0.000000 0.000000 0.000000 

0.000000 0.000000 0.000000 
0.000000 0.000000 0.000000 
0.000000 0.000000 0.000000 

-0.000000 -0.000000 0.000000 
0.000000 0.000000 0.000000 
0.000000 0.000000 0.000000 

-0.000000 -0.000000 0.000000 
0.000000 -0.000000 0.000000 
0.000000 0.000000 0.000000 

0.000000 0.000000 0.000000 
0.000000 0.000000 0.000000 
0.000000 0.000000 0.000000 

0.000000 -0.000000 0.000000 
0.000000 0.000000 0.000000 
0.000000 0.000000 0.000000 

-0.000000 0.000000 0.000000 
0.000000 -0.000000 0.000000 
0.000000 0.000000 0.000000 

0.000000 0.000000 0.000000 
0.000000 0.000000 0.000000 
0.000000 0.000000 0.000000 

-0.000000 -0.000000 0.000000 
0.000000 -0.000000 0.000000 
0.000000 0.000000 0.000000 

-0.000000 0.000000 0.000000 
0.000000 0.000000 0.000000 
0.000000 0.000000 0.000000 

0.000000 -0.000000 0.000000 
0.000000 0.000000 0.000000 
0.000000 0.000000 0.000000 

0.000000 0.000000 0.000000 
0.000000 0.000000 0.000000 
0.000000 0.000000 0.000000 

-0.000000 0.000000 0.000000 
0.000000 -0.000000 0.000000 
0.000000 0.000000 0.000000 

0.000000 0.000000 0.000000 
0.000000 -0.000000 0.000000 
0.000000 0.000000 0.000000 

0.000000 -0.000000 0.000000 
0.000000 -0.000000 0.000000 
0.000000 0.000000 0.000000 

-0.000000 0.000000 0.000000 
0.000000 -0.000000 0.000000 
0.000000 0.000000 0.000000 

-0.000000 -0.000000 0.000000 
0.000000 -0.000000 0.000000 
0.000000 0.000000 0.000000 

-0.000000 -0.000000 0.000000 
0.000000 -0.000000 0.000000 
0.000000 0.000000 0.000000 

-0.000000 -0.000000 0.000000 
0.000000 0.000000 0.000000 
0.000000 0.000000 0.000000 

0.000000 0.000000 0.000000 
0.000000 0.000000 0.000000 
0.000000 0.000000 0.000000 

-0.000000 0.000000 0.000000 
0.000000 -0.000000 0.000000 
0.000000 0.000000 0.000000 

-0.000000 0.000000 0.000000 
0.000000 -0.000000 0.000000 
0.000000 0.000000 0.000000 

0.000000 0.000000 0.000000 
0.000000 0.000000 0.000000 
0.000000 0.000000 0.000000 

-0.000000 0.000000 0.000000 
0.000000 -0.000000 0.000000 
0.000000 0.000000 0.000000 

-0.000000 0.000000 0.000000 
0.000000 0.000000 0.000000 
0.000000 0.000000 0.000000 

-0.000000 -0.000000 0.000000 
0.000000 0.000000 0.000000 
0.000000 0.000000 0.000000 

-0.000000 -0.000000 0.000000 
0.000000 0.000000 0.000000 
0.000000 0.000000 0.000000 

-0.000000 -0.000000 0.000000 
0.000000 -0.000000 0.000000 
0.000000 0.000000 0.000000 

-0.000000 0.000000 0.000000 
0.000000 0.000000 0.000000 
0.000000 0.000000 0.000000 

-0.000000 0.000000 0.000000 
0.000000 -0.000000 0.000000 
0.000000 0.000000 0.000000 

-0.000000 -0.000000 0.000000 
0.000000 0.000000 0.000000 
0.000000 0.000000 0.000000 

-0.000000 0.000000 0.000000 
0.000000 -0.000000 0.000000 
0.000000 0.000000 0.000000 

-0.000000 -0.000000 0.000000 
0.000000 -0.000000 0.000000 
0.000000 0.000000 0.000000 

-0.000000 -0.000000 0.000000 
0.000000 -0.000000 0.000000 
0.000000 0.000000 0.000000 

-0.000000 0.000000 0.000000 
0.000000 0.000000 0.000000 
0.000000 0.000000 0.000000 

-0.000000 0.000000 0.000000 
0.000000 -0.000000 0.000000 
0.000000 0.000000 0.000000 

0.000000 -0.000000 0.000000 
0.000000 0.000000 0.000000 
0.000000 0.000000 0.000000 

0.000000 -0.000000 0.000000 
0.000000 0.000000 0.000000 
0.000000 0.000000 0.000000 

-0.000000 -0.000000 0.000000 
0.000000 -0.000000 0.000000 
0.000000 0.000000 0.000000 

-0.000000 -0.000000 0.000000 
0.000000 -0.000000 0.000000 
0.000000 0.000000 0.000000 

0.000000 0.000000 0.000000 
0.000000 0.000000 0.000000 
0.000000 0.000000 0.000000 

-0.000000 0.000000 0.000000 
0.000000 -0.000000 0.000000 
0.000000 0.000000 0.000000 

0.000000 0.000000 0.000000 
0.000000 0.000000 0.000000 
0.000000 0.000000 0.000000 

-0.000000 -0.000000 0.000000 
0.000000 0.000000 0.000000 
0.000000 0.000000 0.000000 

-0.000000 0.000000 0.000000 
0.000000 0.000000 0.000000 
0.000000 0.000000 0.000000 

-0.000000 0.000000 0.000000 
0.000000 0.000000 0.000000 
0.000000 0.000000 0.000000 

-0.000000 0.000000 0.000000 
0.000000 -0.000000 0.000000 
0.000000 0.000000 0.000000 

-0.000000 -0.000000 0.000000 
0.000000 -0.000000 0.000000 
0.000000 0.000000 0.000000 

-0.000000 -0.000000 0.000000 
0.000000 -0.000000 0.000000 
0.000000 0.000000 0.000000 

-0.000000 -0.000000 0.000000 
0.000000 -0.000000 0.000000 
0.000000 0.000000 0.000000 

-0.000000 0.000000 0.000000 
0.000000 0.000000 0.000000 
0.000000 0.000000 0.000000 

0.000000 0.000000 0.000000 
0.000000 0.000000 0.000000 
0.000000 0.000000 0.000000 

-0.000000 0.000000 0.000000 
0.000000 -0.000000 0.000000 
0.000000 0.000000 0.000000 

0.000000 -0.000000 0.000000 
0.000000 0.000000 0.000000 
0.000000 0.000000 0.000000 

-0.000000 0.000000 0.000000 
0.000000 -0.000000 0.000000 
0.000000 0.000000 0.000000 

-0.000000 -0.000000 0.000000 
0.000000 -0.000000 0.000000 
0.000000 0.000000 0.000000 

0.000000 0.000000 0.000000 
0.000000 0.000000 0.000000 
0.000000 0.000000 0.000000 

-0.000000 0.000000 0.000000 
0.000000 -0.000000 0.000000 
0.000000 0.000000 0.000000 

-0.000000 0.000000 0.000000 
0.000000 0.000000 0.000000 
0.000000 0.000000 0.000000 

-0.000000 -0.000000 0.000000 
0.000000 -0.000000 0.000000 
0.000000 0.000000 0.000000 

0.000000 0.000000 0.000000 
0.000000 -0.000000 0.000000 
0.000000 0.000000 0.000000 

-0.000000 -0.000000 0.000000 
0.000000 -0.000000 0.000000 
0.000000 0.000000 0.000000 

0.000000 0.000000 0.000000 
0.000000 0.000000 0.000000 
0.000000 0.000000 0.000000 

-0.000000 -0.000000 0.000000 
0.000000 -0.000000 0.000000 
0.000000 0.000000 0.000000 

0.000000 0.000000 0.000000 
0.000000 0.000000 0.000000 
0.000000 0.000000 0.000000 

-0.000000 0.000000 0.000000 
0.000000 -0.000000 0.000000 
0.000000 0.000000 0.000000 

-0.000000 -0.000000 0.000000 
0.000000 -0.000000 0.000000 
0.000000 0.000000 0.000000 

-0.000000 -0.000000 0.000000 
0.000000 -0.000000 0.000000 
0.000000 0.000000 0.000000 

-0.000000 0.000000 0.000000 
0.000000 -0.000000 0.000000 
0.000000 0.000000 0.000000 

-0.000000 0.000000 0.000000 
0.000000 -0.000000 0.000000 
0.000000 0.000000 0.000000 

-0.000000 -0.000000 0.000000 
0.000000 0.000000 0.000000 
0.000000 0.000000 0.000000 

-0.000000 -0.000000 0.000000 
0.000000 -0.000000 0.000000 
0.000000 0.000000 0.000000 

-0.000000 0.000000 0.000000 
0.000000 0.000000 0.000000 
0.000000 0.000000 0.000000 

-0.000000 0.000000 0.000000 
0.000000 0.000000 0.000000 
0.000000 0.000000 0.000000 

0.000000 -0.000000 0.000000 
0.000000 0.000000 0.000000 
0.000000 0.000000 0.000000 

0.000000 0.000000 0.000000 
0.000000 0.000000 0.000000 
0.000000 0.000000 0.000000 

-0.000000 -0.000000 0.000000 
0.000000 -0.000000 0.000000 
0.000000 0.000000 0.000000 

0.000000 -0.000000 0.000000 
0.000000 0.000000 0.000000 
0.000000 0.000000 0.000000 

0.000000 0.000000 0.000000 
0.000000 0.000000 0.000000 
0.000000 0.000000 0.000000 

0.000000 -0.000000 0.000000 
0.000000 0.000000 0.000000 
0.000000 0.000000 0.000000 

0.000000 0.000000 0.000000 
0.000000 0.000000 0.000000 
0.000000 0.000000 0.000000 

-0.000000 -0.000000 0.000000 
0.000000 -0.000000 0.000000 
0.000000 0.000000 0.000000 

-0.000000 -0.000000 0.000000 
0.000000 0.000000 0.000000 
0.000000 0.000000 0.000000 

0.000000 0.000000 0.000000 
0.000000 0.000000 0.000000 
0.000000 0.000000 0.000000 

-0.000000 -0.000000 0.000000 
0.000000 -0.000000 0.000000 
0.000000 0.000000 0.000000 

-0.000000 0.000000 0.000000 
0.000000 -0.000000 0.000000 
0.000000 0.000000 0.000000 

-0.000000 0.000000 0.000000 
0.000000 -0.000000 0.000000 
0.000000 0.000000 0.000000 

-0.000000 -0.000000 0.000000 
0.000000 0.000000 0.000000 
0.000000 0.000000 0.000000 

0.000000 -0.000000 0.000000 
0.000000 -0.000000 0.000000 
0.000000 0.000000 0.000000 

-0.000000 -0.000000 0.000000 
0.000000 0.000000 0.000000 
0.000000 0.000000 0.000000 

-0.000000 -0.000000 0.000000 
0.000000 0.000000 0.000000 
0.000000 0.000000 0.000000 

-0.000000 -0.000000 0.000000 
0.000000 0.000000 0.000000 
0.000000 0.000000 0.000000 

-0.000000 -0.000000 0.000000 
0.000000 -0.000000 0.000000 
0.000000 0.000000 0.000000 

-0.000000 0.000000 0.000000 
0.000000 -0.000000 0.000000 
0.000000 0.000000 0.000000 

-0.000000 -0.000000 0.000000 
0.000000 0.000000 0.000000 
0.000000 0.000000 0.000000 

-0.000000 0.000000 0.000000 
0.000000 -0.000000 0.000000 
0.000000 0.000000 0.000000 

-0.000000 0.000000 0.000000 
0.000000 0.000000 0.000000 
0.000000 0.000000 0.000000 

-0.000000 -0.000000 0.000000 
0.000000 -0.000000 0.000000 
0.000000 0.000000 0.000000 

-0.000000 -0.000000 0.000000 
0.000000 0.000000 0.000000 
0.000000 0.000000 0.000000 

-0.000000 0.000000 0.000000 
0.000000 -0.000000 0.000000 
0.000000 0.000000 0.000000 

-0.000000 -0.000000 0.000000 
0.000000 -0.000000 0.000000 
0.000000 0.000000 0.000000 

-0.000000 0.000000 0.000000 
0.000000 -0.000000 0.000000 
0.000000 0.000000 0.000000 

-0.000000 -0.000000 0.000000 
0.000000 0.000000 0.000000 
0.000000 0.000000 0.000000 

-0.000000 -0.000000 0.000000 
0.000000 -0.000000 0.000000 
0.000000 0.000000 0.000000 

-0.000000 0.000000 0.000000 
0.000000 -0.000000 0.000000 
0.000000 0.000000 0.000000 

-0.000000 0.000000 0.000000 
0.000000 0.000000 0.000000 
0.000000 0.000000 0.000000 

-0.000000 -0.000000 0.000000 
0.000000 -0.000000 0.000000 
0.000000 0.000000 0.000000 

0.000000 -0.000000 0.000000 
0.000000 0.000000 0.000000 
0.000000 0.000000 0.000000 

-0.000000 -0.000000 0.000000 
0.000000 -0.000000 0.000000 
0.000000 0.000000 0.000000 

-0.000000 -0.000000 0.000000 
0.000000 0.000000 0.000000 
0.000000 0.000000 0.000000 

-0.000000 -0.000000 0.000000 
0.000000 0.000000 0.000000 
0.000000 0.000000 0.000000 

0.000000 0.000000 0.000000 
0.000000 0.000000 0.000000 
0.000000 0.000000 0.000000 

-0.000000 0.000000 0.000000 
0.000000 -0.000000 0.000000 
0.000000 0.000000 0.000000 

-0.000000 0.000000 0.000000 
0.000000 -0.000000 0.000000 
0.000000 0.000000 0.000000 

0.000000 0.000000 0.000000 
0.000000 0.000000 0.000000 
0.000000 0.000000 0.000000 

-0.000000 -0.000000 0.000000 
0.000000 -0.000000 0.000000 
0.000000 0.000000 0.000000 

-0.000000 0.000000 0.000000 
0.000000 -0.000000 0.000000 
0.000000 0.000000 0.000000 

0.000000 0.000000 0.000000 
0.000000 -0.000000 0.000000 
0.000000 0.000000 0.000000 

0.000000 0.000000 0.000000 
0.000000 0.000000 0.000000 
0.000000 0.000000 0.000000 

0.000000 -0.000000 0.000000 
0.000000 -0.000000 0.000000 
0.000000 0.000000 0.000000 

0.000000 -0.000000 0.000000 
0.000000 -0.000000 0.000000 
0.000000 0.000000 0.000000 

0.000000 0.000000 0.000000 
0.000000 0.000000 0.000000 
0.000000 0.000000 0.000000 

0.000000 -0.000000 0.000000 
0.000000 0.000000 0.000000 
0.000000 0.000000 0.000000 

0.000000 -0.000000 0.000000 
0.000000 -0.000000 0.000000 
0.000000 0.000000 0.000000 

0.000000 0.000000 0.000000 
0.000000 -0.000000 0.000000 
0.000000 0.000000 0.000000 

0.000000 0.000000 0.000000 
0.000000 -0.000000 0.000000 
0.000000 0.000000 0.000000 

0.000000 -0.000000 0.000000 
0.000000 0.000000 0.000000 
0.000000 0.000000 0.000000 

-0.000000 0.000000 0.000000 
0.000000 -0.000000 0.000000 
0.000000 0.000000 0.000000 

0.000000 -0.000000 0.000000 
0.000000 0.000000 0.000000 
0.000000 0.000000 0.000000 

0.000000 -0.000000 0.000000 
0.000000 -0.000000 0.000000 
0.000000 0.000000 0.000000 

0.000000 0.000000 0.000000 
0.000000 0.000000 0.000000 
0.000000 0.000000 0.000000 

-0.000000 0.000000 0.000000 
0.000000 -0.000000 0.000000 
0.000000 0.000000 0.000000 

0.000000 0.000000 0.000000 
0.000000 0.000000 0.000000 
0.000000 0.000000 0.000000 

-0.000000 0.000000 0.000000 
0.000000 -0.000000 0.000000 
0.000000 0.000000 0.000000 

-0.000000 0.000000 0.000000 
0.000000 0.000000 0.000000 
0.000000 0.000000 0.000000 

-0.000000 0.000000 0.000000 
0.000000 0.000000 0.000000 
0.000000 0.000000 0.000000 

-0.000000 0.000000 0.000000 
0.000000 0.000000 0.000000 
0.000000 0.000000 0.000000 

-0.000000 -0.000000 0.000000 
0.000000 0.000000 0.000000 
0.000000 0.000000 0.000000 

-0.000000 0.000000 0.000000 
0.000000 -0.000000 0.000000 
0.000000 0.000000 0.000000 

-0.000000 0.000000 0.000000 
0.000000 -0.000000 0.000000 
0.000000 0.000000 0.000000 

0.000000 0.000000 0.000000 
0.000000 0.000000 0.000000 
0.000000 0.000000 0.000000 

-0.000000 0.000000 0.000000 
0.000000 -0.000000 0.000000 
0.000000 0.000000 0.000000 

-0.000000 0.000000 0.000000 
0.000000 0.000000 0.000000 
0.000000 0.000000 0.000000 

0.000000 0.000000 0.000000 
0.000000 0.000000 0.000000 
0.000000 0.000000 0.000000 

0.000000 0.000000 0.000000 
0.000000 0.000000 0.000000 
0.000000 0.000000 0.000000 

0.000000 -0.000000 0.000000 
0.000000 0.000000 0.000000 
0.000000 0.000000 0.000000 

0.000000 -0.000000 0.000000 
0.000000 0.000000 0.000000 
0.000000 0.000000 0.000000 

0.000000 0.000000 0.000000 
0.000000 0.000000 0.000000 
0.000000 0.000000 0.000000 

-0.000000 -0.000000 0.000000 
0.000000 0.000000 0.000000 
0.000000 0.000000 0.000000 

0.000000 -0.000000 0.000000 
0.000000 -0.000000 0.000000 
0.000000 0.000000 0.000000 

0.000000 -0.000000 0.000000 
0.000000 0.000000 0.000000 
0.000000 0.000000 0.000000 

0.000000 -0.000000 0.000000 
0.000000 0.000000 0.000000 
0.000000 0.000000 0.000000 

0.000000 -0.000000 0.000000 
0.000000 0.000000 0.000000 
0.000000 0.000000 0.000000 

0.000000 0.000000 0.000000 
0.000000 -0.000000 0.000000 
0.000000 0.000000 0.000000 

0.000000 0.000000 0.000000 
0.000000 0.000000 0.000000 
0.000000 0.000000 0.000000 

-0.000000 -0.000000 0.000000 
0.000000 -0.000000 0.000000 
0.000000 0.000000 0.000000 

0.000000 0.000000 0.000000 
0.000000 0.000000 0.000000 
0.000000 0.000000 0.000000 

-0.000000 -0.000000 0.000000 
0.000000 -0.000000 0.000000 
0.000000 0.000000 0.000000 

-0.000000 0.000000 0.000000 
0.000000 -0.000000 0.000000 
0.000000 0.000000 0.000000 

TENSORS STRAIN float 
-0.000000 0.000000 0.000000 
0.000000 -0.000000 0.000000 
0.000000 0.000000 0.000000 

0.000000 -0.000000 0.000000 
0.000000 0.000000 0.000000 
0.000000 0.000000 0.000000 

-0.000000 -0.000000 0.000000 
0.000000 0.000000 0.000000 
0.000000 0.000000 0.000000 

-0.000000 -0.000000 0.000000 
0.000000 0.000000 0.000000 
0.000000 0.000000 0.000000 

-0.000000 -0.000000 0.000000 
0.000000 0.000000 0.000000 
0.000000 0.000000 0.000000 

-0.000000 -0.000000 0.000000 
0.000000 0.000000 0.000000 
0.000000 0.000000 0.000000 

-0.000000 -0.000000 0.000000 
0.000000 0.000000 0.000000 
0.000000 0.000000 0.000000 

-0.000000 -0.000000 0.000000 
0.000000 -0.000000 0.000000 
0.000000 0.000000 0.000000 

-0.000000 0.000000 0.000000 
0.000000 -0.000000 0.000000 
0.000000 0.000000 0.000000 

-0.000000 0.000000 0.000000 
0.000000 0.000000 0.000000 
0.000000 0.000000 0.000000 

-0.000000 -0.000000 0.000000 
0.000000 0.000000 0.000000 
0.000000 0.000000 0.000000 

-0.000000 0.000000 0.000000 
0.000000 0.000000 0.000000 
0.000000 0.000000 0.000000 

-0.000000 0.000000 0.000000 
0.000000 0.000000 0.000000 
0.000000 0.000000 0.000000 

-0.000000 -0.000000 0.000000 
0.000000 -0.000000 0.000000 
0.000000 0.000000 0.000000 

0.000000 -0.000000 0.000000 
0.000000 -0.000000 0.000000 
0.000000 0.000000 0.000000 

0.000000 0.000000 0.000000 
0.000000 0.000000 0.000000 
0.000000 0.000000 0.000000 

0.000000 -0.000000 0.000000 
0.000000 0.000000 0.000000 
0.000000 0.000000 0.000000 

0.000000 0.000000 0.000000 
0.000000 0.000000 0.000000 
0.000000 0.000000 0.000000 

-0.000000 -0.000000 0.000000 
0.000000 0.000000 0.000000 
0.000000 0.000000 0.000000 

-0.000000 -0.000000 0.000000 
0.000000 -0.000000 0.000000 
0.000000 0.000000 0.000000 

-0.000000 0.000000 0.000000 
0.000000 0.000000 0.000000 
0.000000 0.000000 0.000000 

-0.000000 -0.000000 0.000000 
0.000000 0.000000 0.000000 
0.000000 0.000000 0.000000 

0.000000 0.000000 0.000000 
0.000000 -0.000000 0.000000 
0.000000 0.000000 0.000000 

0.000000 0.000000 0.000000 
0.000000 0.000000 0.000000 
0.000000 0.000000 0.000000 

-0.000000 -0.000000 0.000000 
0.000000 -0.000000 0.000000 
0.000000 0.000000 0.000000 

-0.000000 0.000000 0.000000 
0.000000 0.000000 0.000000 
0.000000 0.000000 0.000000 

-0.000000 -0.000000 0.000000 
0.000000 0.000000 0.000000 
0.000000 0.000000 0.000000 

0.000000 0.000000 0.000000 
0.000000 0.000000 0.000000 
0.000000 0.000000 0.000000 

0.000000 0.000000 0.000000 
0.000000 -0.000000 0.000000 
0.000000 0.000000 0.000000 

0.000000 0.000000 0.000000 
0.000000 -0.000000 0.000000 
0.000000 0.000000 0.000000 

0.000000 -0.000000 0.000000 
0.000000 -0.000000 0.000000 
0.000000 0.000000 0.000000 

0.000000 0.000000 0.000000 
0.000000 -0.000000 0.000000 
0.000000 0.000000 0.000000 

0.000000 -0.000000 0.000000 
0.000000 -0.000000 0.000000 
0.000000 0.000000 0.000000 

-0.000000 -0.000000 0.000000 
0.000000 -0.000000 0.000000 
0.000000 0.000000 0.000000 

-0.000000 -0.000000 0.000000 
0.000000 0.000000 0.000000 
0.000000 0.000000 0.000000 

0.000000 0.000000 0.000000 
0.000000 -0.000000 0.000000 
0.000000 0.000000 0.000000 

0.000000 0.000000 0.000000 
0.000000 -0.000000 0.000000 
0.000000 0.000000 0.000000 

0.000000 0.000000 0.000000 
0.000000 -0.000000 0.000000 
0.000000 0.000000 0.000000 

-0.000000 0.000000 0.000000 
0.000000 0.000000 0.000000 
0.000000 0.000000 0.000000 

-0.000000 0.000000 0.000000 
0.000000 -0.000000 0.000000 
0.000000 0.000000 0.000000 

-0.000000 0.000000 0.000000 
0.000000 0.000000 0.000000 
0.000000 0.000000 0.000000 

-0.000000 -0.000000 0.000000 
0.000000 0.000000 0.000000 
0.000000 0.000000 0.000000 

-0.000000 -0.000000 0.000000 
0.000000 0.000000 0.000000 
0.000000 0.000000 0.000000 

-0.000000 -0.000000 0.000000 
0.000000 0.000000 0.000000 
0.000000 0.000000 0.000000 

-0.000000 0.000000 0.000000 
0.000000 0.000000 0.000000 
0.000000 0.000000 0.000000 

-0.000000 0.000000 0.000000 
0.000000 -0.000000 0.000000 
0.000000 0.000000 0.000000 

-0.000000 -0.000000 0.000000 
0.000000 0.000000 0.000000 
0.000000 0.000000 0.000000 

-0.000000 0.000000 0.000000 
0.000000 0.000000 0.000000 
0.000000 0.000000 0.000000 

-0.000000 -0.000000 0.000000 
0.000000 -0.000000 0.000000 
0.000000 0.000000 0.000000 

-0.000000 -0.000000 0.000000 
0.000000 -0.000000 0.000000 
0.000000 0.000000 0.000000 

-0.000000 0.000000 0.000000 
0.000000 0.000000 0.000000 
0.000000 0.000000 0.000000 

-0.000000 0.000000 0.000000 
0.000000 -0.000000 0.000000 
0.000000 0.000000 0.000000 

-0.000000 -0.000000 0.000000 
0.000000 0.000000 0.000000 
0.000000 0.000000 0.000000 

0.000000 -0.000000 0.000000 
0.000000 0.000000 0.000000 
0.000000 0.000000 0.000000 

-0.000000 -0.000000 0.000000 
0.000000 -0.000000 0.000000 
0.000000 0.000000 0.000000 

-0.000000 -0.000000 0.000000 
0.000000 -0.000000 0.000000 
0.000000 0.000000 0.000000 

-0.000000 0.000000 0.000000 
0.000000 0.000000 0.000000 
0.000000 0.000000 0.000000 

0.000000 0.000000 0.000000 
0.000000 -0.000000 0.000000 
0.000000 0.000000 0.000000 

-0.000000 0.000000 0.000000 
0.000000 0.000000 0.000000 
0.000000 0.000000 0.000000 

-0.000000 -0.000000 0.000000 
0.000000 0.000000 0.000000 
0.000000 0.000000 0.000000 

-0.000000 0.000000 0.000000 
0.000000 0.000000 0.000000 
0.000000 0.000000 0.000000 

-0.000000 0.000000 0.000000 
0.000000 0.000000 0.000000 
0.000000 0.000000 0.000000 

-0.000000 0.000000 0.000000 
0.000000 0.000000 0.000000 
0.000000 0.000000 0.000000 

-0.000000 -0.000000 0.000000 
0.000000 0.000000 0.000000 
0.000000 0.000000 0.000000 

-0.000000 -0.000000 0.000000 
0.000000 0.000000 0.000000 
0.000000 0.000000 0.000000 

-0.000000 -0.000000 0.000000 
0.000000 0.000000 0.000000 
0.000000 0.000000 0.000000 

-0.000000 0.000000 0.000000 
0.000000 0.000000 0.000000 
0.000000 0.000000 0.000000 

0.000000 0.000000 0.000000 
0.000000 0.000000 0.000000 
0.000000 0.000000 0.000000 

0.000000 0.000000 0.000000 
0.000000 -0.000000 0.000000 
0.000000 0.000000 0.000000 

-0.000000 -0.000000 0.000000 
0.000000 0.000000 0.000000 
0.000000 0.000000 0.000000 

-0.000000 0.000000 0.000000 
0.000000 -0.000000 0.000000 
0.000000 0.000000 0.000000 

-0.000000 -0.000000 0.000000 
0.000000 -0.000000 0.000000 
0.000000 0.000000 0.000000 

0.000000 0.000000 0.000000 
0.000000 -0.000000 0.000000 
0.000000 0.000000 0.000000 

-0.000000 0.000000 0.000000 
0.000000 -0.000000 0.000000 
0.000000 0.000000 0.000000 

-0.000000 0.000000 0.000000 
0.000000 0.000000 0.000000 
0.000000 0.000000 0.000000 

-0.000000 -0.000000 0.000000 
0.000000 -0.000000 0.000000 
0.000000 0.000000 0.000000 

0.000000 0.000000 0.000000 
0.000000 -0.000000 0.000000 
0.000000 0.000000 0.000000 

0.000000 -0.000000 0.000000 
0.000000 -0.000000 0.000000 
0.000000 0.000000 0.000000 

0.000000 0.000000 0.000000 
0.000000 0.000000 0.000000 
0.000000 0.000000 0.000000 

-0.000000 -0.000000 0.000000 
0.000000 0.000000 0.000000 
0.000000 0.000000 0.000000 

0.000000 0.000000 0.000000 
0.000000 0.000000 0.000000 
0.000000 0.000000 0.000000 

-0.000000 0.000000 0.000000 
0.000000 -0.000000 0.000000 
0.000000 0.000000 0.000000 

0.000000 -0.000000 0.000000 
0.000000 -0.000000 0.000000 
0.000000 0.000000 0.000000 

-0.000000 -0.000000 0.000000 
0.000000 -0.000000 0.000000 
0.000000 0.000000 0.000000 

-0.000000 0.000000 0.000000 
0.000000 -0.000000 0.000000 
0.000000 0.000000 0.000000 

0.000000 0.000000 0.000000 
0.000000 -0.000000 0.000000 
0.000000 0.000000 0.000000 

-0.000000 -0.000000 0.000000 
0.000000 0.000000 0.000000 
0.000000 0.000000 0.000000 

-0.000000 -0.000000 0.000000 
0.000000 -0.000000 0.000000 
0.000000 0.000000 0.000000 

-0.000000 0.000000 0.000000 
0.000000 0.000000 0.000000 
0.000000 0.000000 0.000000 

-0.000000 0.000000 0.000000 
0.000000 0.000000 0.000000 
0.000000 0.000000 0.000000 

-0.000000 -0.000000 0.000000 
0.000000 0.000000 0.000000 
0.000000 0.000000 0.000000 

-0.000000 0.000000 0.000000 
0.000000 0.000000 0.000000 
0.000000 0.000000 0.000000 

0.000000 -0.000000 0.000000 
0.000000 -0.000000 0.000000 
0.000000 0.000000 0.000000 

-0.000000 -0.000000 0.000000 
0.000000 0.000000 0.000000 
0.000000 0.000000 0.000000 

0.000000 0.000000 0.000000 
0.000000 0.000000 0.000000 
0.000000 0.000000 0.000000 

0.000000 -0.000000 0.000000 
0.000000 0.000000 0.000000 
0.000000 0.000000 0.000000 

0.000000 0.000000 0.000000 
0.000000 0.000000 0.000000 
0.000000 0.000000 0.000000 

0.000000 -0.000000 0.000000 
0.000000 -0.000000 0.000000 
0.000000 0.000000 0.000000 

-0.000000 -0.000000 0.000000 
0.000000 0.000000 0.000000 
0.000000 0.000000 0.000000 

-0.000000 0.000000 0.000000 
0.000000 0.000000 0.000000 
0.000000 0.000000 0.000000 

-0.000000 -0.000000 0.000000 
0.000000 0.000000 0.000000 
0.000000 0.000000 0.000000 

-0.000000 0.000000 0.000000 
0.000000 -0.000000 0.000000 
0.000000 0.000000 0.000000 

-0.000000 0.000000 0.000000 
0.000000 -0.000000 0.000000 
0.000000 0.000000 0.000000 

-0.000000 -0.000000 0.000000 
0.000000 0.000000 0.000000 
0.000000 0.000000 0.000000 

0.000000 -0.000000 0.000000 
0.000000 -0.000000 0.000000 
0.000000 0.000000 0.000000 

-0.000000 -0.000000 0.000000 
0.000000 0.000000 0.000000 
0.000000 0.000000 0.000000 

-0.000000 -0.000000 0.000000 
0.000000 0.000000 0.000000 
0.000000 0.000000 0.000000 

-0.000000 -0.000000 0.000000 
0.000000 0.000000 0.000000 
0.000000 0.000000 0.000000 

-0.000000 -0.000000 0.000000 
0.000000 -0.000000 0.000000 
0.000000 0.000000 0.000000 

-0.000000 0.000000 0.000000 
0.000000 -0.000000 0.000000 
0.000000 0.000000 0.000000 

-0.000000 -0.000000 0.000000 
0.000000 0.000000 0.000000 
0.000000 0.000000 0.000000 

-0.000000 0.000000 0.000000 
0.000000 0.000000 0.000000 
0.000000 0.000000 0.000000 

-0.000000 0.000000 0.000000 
0.000000 0.000000 0.000000 
0.000000 0.000000 0.000000 

-0.000000 -0.000000 0.000000 
0.000000 -0.000000 0.000000 
0.000000 0.000000 0.000000 

-0.000000 -0.000000 0.000000 
0.000000 0.000000 0.000000 
0.000000 0.000000 0.000000 

-0.000000 0.000000 0.000000 
0.000000 -0.000000 0.000000 
0.000000 0.000000 0.000000 

-0.000000 -0.000000 0.000000 
0.000000 -0.000000 0.000000 
0.000000 0.000000 0.000000 

-0.000000 0.000000 0.000000 
0.000000 -0.000000 0.000000 
0.000000 0.000000 0.000000 

-0.000000 -0.000000 0.000000 
0.000000 0.000000 0.000000 
0.000000 0.000000 0.000000 

-0.000000 -0.000000 0.000000 
0.000000 -0.000000 0.000000 
0.000000 0.000000 0.000000 

-0.000000 0.000000 0.000000 
0.000000 -0.000000 0.000000 
0.000000 0.000000 0.000000 

-0.000000 0.000000 0.000000 
0.000000 0.000000 0.000000 
0.000000 0.000000 0.000000 

0.000000 -0.000000 0.000000 
0.000000 -0.000000 0.000000 
0.000000 0.000000 0.000000 

0.000000 -0.000000 0.000000 
0.000000 0.000000 0.000000 
0.000000 0.000000 0.000000 

0.000000 -0.000000 0.000000 
0.000000 -0.000000 0.000000 
0.000000 0.000000 0.000000 

-0.000000 -0.000000 0.000000 
0.000000 0.000000 0.000000 
0.000000 0.000000 0.000000 

-0.000000 -0.000000 0.000000 
0.000000 0.000000 0.000000 
0.000000 0.000000 0.000000 

-0.000000 0.000000 0.000000 
0.000000 0.000000 0.000000 
0.000000 0.000000 0.000000 

-0.000000 0.000000 0.000000 
0.000000 -0.000000 0.000000 
0.000000 0.000000 0.000000 

-0.000000 0.000000 0.000000 
0.000000 -0.000000 0.000000 
0.000000 0.000000 0.000000 

-0.000000 0.000000 0.000000 
0.000000 0.000000 0.000000 
0.000000 0.000000 0.000000 

0.000000 -0.000000 0.000000 
0.000000 -0.000000 0.000000 
0.000000 0.000000 0.000000 

-0.000000 0.000000 0.000000 
0.000000 0.000000 0.000000 
0.000000 0.000000 0.000000 

0.000000 0.000000 0.000000 
0.000000 -0.000000 0.000000 
0.000000 0.000000 0.000000 

0.000000 0.000000 0.000000 
0.000000 0.000000 0.000000 
0.000000 0.000000 0.000000 

0.000000 -0.000000 0.000000 
0.000000 -0.000000 0.000000 
0.000000 0.000000 0.000000 

0.000000 -0.000000 0.000000 
0.000000 -0.000000 0.000000 
0.000000 0.000000 0.000000 

0.000000 0.000000 0.000000 
0.000000 0.000000 0.000000 
0.000000 0.000000 0.000000 

0.000000 -0.000000 0.000000 
0.000000 0.000000 0.000000 
0.000000 0.000000 0.000000 

0.000000 -0.000000 0.000000 
0.000000 -0.000000 0.000000 
0.000000 0.000000 0.000000 

0.000000 0.000000 0.000000 
0.000000 -0.000000 0.000000 
0.000000 0.000000 0.000000 

0.000000 0.000000 0.000000 
0.000000 -0.000000 0.000000 
0.000000 0.000000 0.000000 

0.000000 -0.000000 0.000000 
0.000000 0.000000 0.000000 
0.000000 0.000000 0.000000 

0.000000 0.000000 0.000000 
0.000000 -0.000000 0.000000 
0.000000 0.000000 0.000000 

0.000000 -0.000000 0.000000 
0.000000 0.000000 0.000000 
0.000000 0.000000 0.000000 

0.000000 -0.000000 0.000000 
0.000000 -0.000000 0.000000 
0.000000 0.000000 0.000000 

0.000000 0.000000 0.000000 
0.000000 0.000000 0.000000 
0.000000 0.000000 0.000000 

0.000000 0.000000 0.000000 
0.000000 -0.000000 0.000000 
0.000000 0.000000 0.000000 

0.000000 0.000000 0.000000 
0.000000 0.000000 0.000000 
0.000000 0.000000 0.000000 

-0.000000 0.000000 0.000000 
0.000000 -0.000000 0.000000 
0.000000 0.000000 0.000000 

-0.000000 0.000000 0.000000 
0.000000 0.000000 0.000000 
0.000000 0.000000 0.000000 

-0.000000 0.000000 0.000000 
0.000000 0.000000 0.000000 
0.000000 0.000000 0.000000 

-0.000000 0.000000 0.000000 
0.000000 0.000000 0.000000 
0.000000 0.000000 0.000000 

-0.000000 -0.000000 0.000000 
0.000000 0.000000 0.000000 
0.000000 0.000000 0.000000 

-0.000000 0.000000 0.000000 
0.000000 -0.000000 0.000000 
0.000000 0.000000 0.000000 

-0.000000 0.000000 0.000000 
0.000000 0.000000 0.000000 
0.000000 0.000000 0.000000 

-0.000000 0.000000 0.000000 
0.000000 0.000000 0.000000 
0.000000 0.000000 0.000000 

-0.000000 0.000000 0.000000 
0.000000 0.000000 0.000000 
0.000000 0.000000 0.000000 

-0.000000 0.000000 0.000000 
0.000000 0.000000 0.000000 
0.000000 0.000000 0.000000 

0.000000 0.000000 0.000000 
0.000000 0.000000 0.000000 
0.000000 0.000000 0.000000 

0.000000 0.000000 0.000000 
0.000000 0.000000 0.000000 
0.000000 0.000000 0.000000 

0.000000 -0.000000 0.000000 
0.000000 0.000000 0.000000 
0.000000 0.000000 0.000000 

0.000000 -0.000000 0.000000 
0.000000 -0.000000 0.000000 
0.000000 0.000000 0.000000 

0.000000 0.000000 0.000000 
0.000000 0.000000 0.000000 
0.000000 0.000000 0.000000 

-0.000000 -0.000000 0.000000 
0.000000 0.000000 0.000000 
0.000000 0.000000 0.000000 

0.000000 -0.000000 0.000000 
0.000000 -0.000000 0.000000 
0.000000 0.000000 0.000000 

-0.000000 -0.000000 0.000000 
0.000000 0.000000 0.000000 
0.000000 0.000000 0.000000 

0.000000 -0.000000 0.000000 
0.000000 0.000000 0.000000 
0.000000 0.000000 0.000000 

0.000000 -0.000000 0.000000 
0.000000 -0.000000 0.000000 
0.000000 0.000000 0.000000 

0.000000 0.000000 0.000000 
0.000000 -0.000000 0.000000 
0.000000 0.000000 0.000000 

0.000000 0.000000 0.000000 
0.000000 0.000000 0.000000 
0.000000 0.000000 0.000000 

-0.000000 -0.000000 0.000000 
0.000000 -0.000000 0.000000 
0.000000 0.000000 0.000000 

0.000000 0.000000 0.000000 
0.000000 -0.000000 0.000000 
0.000000 0.000000 0.000000 

-0.000000 -0.000000 0.000000 
0.000000 -0.000000 0.000000 
0.000000 0.000000 0.000000 

-0.000000 0.000000 0.000000 
0.000000 -0.000000 0.000000 
0.000000 0.000000 0.000000 

