# vtk DataFile Version 3.0 
vtk output 
ASCII 
DATASET UNSTRUCTURED_GRID 
POINTS 175 float 
-0.026061 -0.017035 0.000000 
-0.106992 0.051021 0.000000 
-0.054870 0.042788 0.000000 
-0.028809 0.088672 0.000000 
-0.186430 0.115096 0.000000 
-0.137056 0.112570 0.000000 
-0.114311 0.166217 0.000000 
-0.058186 0.150552 0.000000 
-0.029377 0.190729 0.000000 
-0.265318 0.178252 0.000000 
-0.217198 0.177452 0.000000 
-0.196633 0.234749 0.000000 
-0.143120 0.226040 0.000000 
-0.116563 0.273309 0.000000 
-0.058945 0.253663 0.000000 
-0.029568 0.291783 0.000000 
-0.344206 0.241408 0.000000 
-0.296791 0.241415 0.000000 
-0.278030 0.301358 0.000000 
-0.225992 0.295492 0.000000 
-0.201664 0.347609 0.000000 
-0.145749 0.334135 0.000000 
-0.117890 0.378477 0.000000 
-0.059328 0.355771 0.000000 
-0.029759 0.392837 0.000000 
-0.058559 -0.057785 0.000000 
-0.162226 -0.078628 0.000000 
-0.123292 -0.043010 0.000000 
-0.142917 0.005973 0.000000 
-0.261851 -0.100784 0.000000 
-0.229092 -0.063757 0.000000 
-0.256854 -0.012526 0.000000 
-0.209613 0.021587 0.000000 
-0.223062 0.069161 0.000000 
-0.360414 -0.123085 0.000000 
-0.329787 -0.085962 0.000000 
-0.361761 -0.034160 0.000000 
-0.321587 0.002249 0.000000 
-0.341985 0.052483 0.000000 
-0.290702 0.085282 0.000000 
-0.302189 0.132017 0.000000 
-0.458977 -0.145385 0.000000 
-0.429420 -0.108310 0.000000 
-0.464588 -0.056268 0.000000 
-0.427556 -0.019241 0.000000 
-0.453135 0.032274 0.000000 
-0.407738 0.067589 0.000000 
-0.425037 0.117017 0.000000 
-0.370772 0.148647 0.000000 
-0.381315 0.194874 0.000000 
-0.046960 -0.108601 0.000000 
-0.095301 -0.202646 0.000000 
-0.098873 -0.149999 0.000000 
-0.149405 -0.134802 0.000000 
-0.140093 -0.294350 0.000000 
-0.148617 -0.245652 0.000000 
-0.205981 -0.235415 0.000000 
-0.203197 -0.177212 0.000000 
-0.248777 -0.158065 0.000000 
-0.184111 -0.385314 0.000000 
-0.194039 -0.338223 0.000000 
-0.254475 -0.330923 0.000000 
-0.257893 -0.276814 0.000000 
-0.309886 -0.261441 0.000000 
-0.303554 -0.200896 0.000000 
-0.347255 -0.180738 0.000000 
-0.228129 -0.476278 0.000000 
-0.238687 -0.430053 0.000000 
-0.301302 -0.425101 0.000000 
-0.307162 -0.373062 0.000000 
-0.363386 -0.360941 0.000000 
-0.362692 -0.303430 0.000000 
-0.412122 -0.286137 0.000000 
-0.403017 -0.223990 0.000000 
-0.445733 -0.203411 0.000000 
-0.000000 -0.131216 0.000000 
0.043388 -0.227646 0.000000 
-0.000000 -0.197614 0.000000 
-0.043388 -0.227646 0.000000 
0.087158 -0.319843 0.000000 
0.043769 -0.296144 0.000000 
-0.000000 -0.334610 0.000000 
-0.043769 -0.296144 0.000000 
-0.087158 -0.319843 0.000000 
0.130831 -0.410972 0.000000 
0.087824 -0.389374 0.000000 
0.044436 -0.432073 0.000000 
-0.000000 -0.401008 0.000000 
-0.044436 -0.432073 0.000000 
-0.087824 -0.389374 0.000000 
-0.130831 -0.410972 0.000000 
0.174505 -0.502102 0.000000 
0.131782 -0.481536 0.000000 
0.088871 -0.527403 0.000000 
0.044532 -0.499539 0.000000 
-0.000000 -0.535939 0.000000 
-0.044532 -0.499539 0.000000 
-0.088871 -0.527403 0.000000 
-0.131782 -0.481536 0.000000 
-0.174505 -0.502102 0.000000 
0.046960 -0.108601 0.000000 
0.149405 -0.134802 0.000000 
0.098873 -0.149999 0.000000 
0.095301 -0.202646 0.000000 
0.248777 -0.158065 0.000000 
0.203197 -0.177212 0.000000 
0.205981 -0.235415 0.000000 
0.148617 -0.245652 0.000000 
0.140093 -0.294350 0.000000 
0.347255 -0.180738 0.000000 
0.303554 -0.200896 0.000000 
0.309886 -0.261441 0.000000 
0.257893 -0.276814 0.000000 
0.254475 -0.330923 0.000000 
0.194039 -0.338223 0.000000 
0.184111 -0.385314 0.000000 
0.445733 -0.203411 0.000000 
0.403017 -0.223990 0.000000 
0.412122 -0.286137 0.000000 
0.362692 -0.303430 0.000000 
0.363386 -0.360941 0.000000 
0.307162 -0.373062 0.000000 
0.301302 -0.425101 0.000000 
0.238687 -0.430053 0.000000 
0.228129 -0.476278 0.000000 
0.058559 -0.057785 0.000000 
0.142917 0.005973 0.000000 
0.123292 -0.043010 0.000000 
0.162226 -0.078628 0.000000 
0.223062 0.069161 0.000000 
0.209613 0.021587 0.000000 
0.256854 -0.012526 0.000000 
0.229092 -0.063757 0.000000 
0.261851 -0.100784 0.000000 
0.302189 0.132017 0.000000 
0.290702 0.085282 0.000000 
0.341985 0.052483 0.000000 
0.321587 0.002249 0.000000 
0.361761 -0.034160 0.000000 
0.329787 -0.085962 0.000000 
0.360414 -0.123085 0.000000 
0.381315 0.194874 0.000000 
0.370772 0.148647 0.000000 
0.425037 0.117017 0.000000 
0.407738 0.067589 0.000000 
0.453135 0.032274 0.000000 
0.427556 -0.019241 0.000000 
0.464588 -0.056268 0.000000 
0.429420 -0.108310 0.000000 
0.458977 -0.145385 0.000000 
0.026061 -0.017035 0.000000 
0.028809 0.088672 0.000000 
0.054870 0.042788 0.000000 
0.106992 0.051021 0.000000 
0.029377 0.190729 0.000000 
0.058186 0.150552 0.000000 
0.114311 0.166217 0.000000 
0.137056 0.112570 0.000000 
0.186430 0.115096 0.000000 
0.029568 0.291783 0.000000 
0.058945 0.253663 0.000000 
0.116563 0.273309 0.000000 
0.143120 0.226040 0.000000 
0.196633 0.234749 0.000000 
0.217198 0.177452 0.000000 
0.265318 0.178252 0.000000 
0.029759 0.392837 0.000000 
0.059328 0.355771 0.000000 
0.117890 0.378477 0.000000 
0.145749 0.334135 0.000000 
0.201664 0.347609 0.000000 
0.225992 0.295492 0.000000 
0.278030 0.301358 0.000000 
0.296791 0.241415 0.000000 
0.344206 0.241408 0.000000 
CELLS 175 350 
1 0 
1 1 
1 2 
1 3 
1 4 
1 5 
1 6 
1 7 
1 8 
1 9 
1 10 
1 11 
1 12 
1 13 
1 14 
1 15 
1 16 
1 17 
1 18 
1 19 
1 20 
1 21 
1 22 
1 23 
1 24 
1 25 
1 26 
1 27 
1 28 
1 29 
1 30 
1 31 
1 32 
1 33 
1 34 
1 35 
1 36 
1 37 
1 38 
1 39 
1 40 
1 41 
1 42 
1 43 
1 44 
1 45 
1 46 
1 47 
1 48 
1 49 
1 50 
1 51 
1 52 
1 53 
1 54 
1 55 
1 56 
1 57 
1 58 
1 59 
1 60 
1 61 
1 62 
1 63 
1 64 
1 65 
1 66 
1 67 
1 68 
1 69 
1 70 
1 71 
1 72 
1 73 
1 74 
1 75 
1 76 
1 77 
1 78 
1 79 
1 80 
1 81 
1 82 
1 83 
1 84 
1 85 
1 86 
1 87 
1 88 
1 89 
1 90 
1 91 
1 92 
1 93 
1 94 
1 95 
1 96 
1 97 
1 98 
1 99 
1 100 
1 101 
1 102 
1 103 
1 104 
1 105 
1 106 
1 107 
1 108 
1 109 
1 110 
1 111 
1 112 
1 113 
1 114 
1 115 
1 116 
1 117 
1 118 
1 119 
1 120 
1 121 
1 122 
1 123 
1 124 
1 125 
1 126 
1 127 
1 128 
1 129 
1 130 
1 131 
1 132 
1 133 
1 134 
1 135 
1 136 
1 137 
1 138 
1 139 
1 140 
1 141 
1 142 
1 143 
1 144 
1 145 
1 146 
1 147 
1 148 
1 149 
1 150 
1 151 
1 152 
1 153 
1 154 
1 155 
1 156 
1 157 
1 158 
1 159 
1 160 
1 161 
1 162 
1 163 
1 164 
1 165 
1 166 
1 167 
1 168 
1 169 
1 170 
1 171 
1 172 
1 173 
1 174 
CELL_TYPES 175 
1 
1 
1 
1 
1 
1 
1 
1 
1 
1 
1 
1 
1 
1 
1 
1 
1 
1 
1 
1 
1 
1 
1 
1 
1 
1 
1 
1 
1 
1 
1 
1 
1 
1 
1 
1 
1 
1 
1 
1 
1 
1 
1 
1 
1 
1 
1 
1 
1 
1 
1 
1 
1 
1 
1 
1 
1 
1 
1 
1 
1 
1 
1 
1 
1 
1 
1 
1 
1 
1 
1 
1 
1 
1 
1 
1 
1 
1 
1 
1 
1 
1 
1 
1 
1 
1 
1 
1 
1 
1 
1 
1 
1 
1 
1 
1 
1 
1 
1 
1 
1 
1 
1 
1 
1 
1 
1 
1 
1 
1 
1 
1 
1 
1 
1 
1 
1 
1 
1 
1 
1 
1 
1 
1 
1 
1 
1 
1 
1 
1 
1 
1 
1 
1 
1 
1 
1 
1 
1 
1 
1 
1 
1 
1 
1 
1 
1 
1 
1 
1 
1 
1 
1 
1 
1 
1 
1 
1 
1 
1 
1 
1 
1 
1 
1 
1 
1 
1 
1 
1 
1 
1 
1 
1 
1 
POINT_DATA 175 
VECTORS X_GC float 
-0.026061 -0.017035 0.000000 
-0.106992 0.051021 0.000000 
-0.054870 0.042788 0.000000 
-0.028809 0.088672 0.000000 
-0.186430 0.115096 0.000000 
-0.137056 0.112570 0.000000 
-0.114311 0.166217 0.000000 
-0.058186 0.150552 0.000000 
-0.029377 0.190729 0.000000 
-0.265318 0.178252 0.000000 
-0.217198 0.177452 0.000000 
-0.196633 0.234749 0.000000 
-0.143120 0.226040 0.000000 
-0.116563 0.273309 0.000000 
-0.058945 0.253663 0.000000 
-0.029568 0.291783 0.000000 
-0.344206 0.241408 0.000000 
-0.296791 0.241415 0.000000 
-0.278030 0.301358 0.000000 
-0.225992 0.295492 0.000000 
-0.201664 0.347609 0.000000 
-0.145749 0.334135 0.000000 
-0.117890 0.378477 0.000000 
-0.059328 0.355771 0.000000 
-0.029759 0.392837 0.000000 
-0.058559 -0.057785 0.000000 
-0.162226 -0.078628 0.000000 
-0.123292 -0.043010 0.000000 
-0.142917 0.005973 0.000000 
-0.261851 -0.100784 0.000000 
-0.229092 -0.063757 0.000000 
-0.256854 -0.012526 0.000000 
-0.209613 0.021587 0.000000 
-0.223062 0.069161 0.000000 
-0.360414 -0.123085 0.000000 
-0.329787 -0.085962 0.000000 
-0.361761 -0.034160 0.000000 
-0.321587 0.002249 0.000000 
-0.341985 0.052483 0.000000 
-0.290702 0.085282 0.000000 
-0.302189 0.132017 0.000000 
-0.458977 -0.145385 0.000000 
-0.429420 -0.108310 0.000000 
-0.464588 -0.056268 0.000000 
-0.427556 -0.019241 0.000000 
-0.453135 0.032274 0.000000 
-0.407738 0.067589 0.000000 
-0.425037 0.117017 0.000000 
-0.370772 0.148647 0.000000 
-0.381315 0.194874 0.000000 
-0.046960 -0.108601 0.000000 
-0.095301 -0.202646 0.000000 
-0.098873 -0.149999 0.000000 
-0.149405 -0.134802 0.000000 
-0.140093 -0.294350 0.000000 
-0.148617 -0.245652 0.000000 
-0.205981 -0.235415 0.000000 
-0.203197 -0.177212 0.000000 
-0.248777 -0.158065 0.000000 
-0.184111 -0.385314 0.000000 
-0.194039 -0.338223 0.000000 
-0.254475 -0.330923 0.000000 
-0.257893 -0.276814 0.000000 
-0.309886 -0.261441 0.000000 
-0.303554 -0.200896 0.000000 
-0.347255 -0.180738 0.000000 
-0.228129 -0.476278 0.000000 
-0.238687 -0.430053 0.000000 
-0.301302 -0.425101 0.000000 
-0.307162 -0.373062 0.000000 
-0.363386 -0.360941 0.000000 
-0.362692 -0.303430 0.000000 
-0.412122 -0.286137 0.000000 
-0.403017 -0.223990 0.000000 
-0.445733 -0.203411 0.000000 
-0.000000 -0.131216 0.000000 
0.043388 -0.227646 0.000000 
-0.000000 -0.197614 0.000000 
-0.043388 -0.227646 0.000000 
0.087158 -0.319843 0.000000 
0.043769 -0.296144 0.000000 
-0.000000 -0.334610 0.000000 
-0.043769 -0.296144 0.000000 
-0.087158 -0.319843 0.000000 
0.130831 -0.410972 0.000000 
0.087824 -0.389374 0.000000 
0.044436 -0.432073 0.000000 
-0.000000 -0.401008 0.000000 
-0.044436 -0.432073 0.000000 
-0.087824 -0.389374 0.000000 
-0.130831 -0.410972 0.000000 
0.174505 -0.502102 0.000000 
0.131782 -0.481536 0.000000 
0.088871 -0.527403 0.000000 
0.044532 -0.499539 0.000000 
-0.000000 -0.535939 0.000000 
-0.044532 -0.499539 0.000000 
-0.088871 -0.527403 0.000000 
-0.131782 -0.481536 0.000000 
-0.174505 -0.502102 0.000000 
0.046960 -0.108601 0.000000 
0.149405 -0.134802 0.000000 
0.098873 -0.149999 0.000000 
0.095301 -0.202646 0.000000 
0.248777 -0.158065 0.000000 
0.203197 -0.177212 0.000000 
0.205981 -0.235415 0.000000 
0.148617 -0.245652 0.000000 
0.140093 -0.294350 0.000000 
0.347255 -0.180738 0.000000 
0.303554 -0.200896 0.000000 
0.309886 -0.261441 0.000000 
0.257893 -0.276814 0.000000 
0.254475 -0.330923 0.000000 
0.194039 -0.338223 0.000000 
0.184111 -0.385314 0.000000 
0.445733 -0.203411 0.000000 
0.403017 -0.223990 0.000000 
0.412122 -0.286137 0.000000 
0.362692 -0.303430 0.000000 
0.363386 -0.360941 0.000000 
0.307162 -0.373062 0.000000 
0.301302 -0.425101 0.000000 
0.238687 -0.430053 0.000000 
0.228129 -0.476278 0.000000 
0.058559 -0.057785 0.000000 
0.142917 0.005973 0.000000 
0.123292 -0.043010 0.000000 
0.162226 -0.078628 0.000000 
0.223062 0.069161 0.000000 
0.209613 0.021587 0.000000 
0.256854 -0.012526 0.000000 
0.229092 -0.063757 0.000000 
0.261851 -0.100784 0.000000 
0.302189 0.132017 0.000000 
0.290702 0.085282 0.000000 
0.341985 0.052483 0.000000 
0.321587 0.002249 0.000000 
0.361761 -0.034160 0.000000 
0.329787 -0.085962 0.000000 
0.360414 -0.123085 0.000000 
0.381315 0.194874 0.000000 
0.370772 0.148647 0.000000 
0.425037 0.117017 0.000000 
0.407738 0.067589 0.000000 
0.453135 0.032274 0.000000 
0.427556 -0.019241 0.000000 
0.464588 -0.056268 0.000000 
0.429420 -0.108310 0.000000 
0.458977 -0.145385 0.000000 
0.026061 -0.017035 0.000000 
0.028809 0.088672 0.000000 
0.054870 0.042788 0.000000 
0.106992 0.051021 0.000000 
0.029377 0.190729 0.000000 
0.058186 0.150552 0.000000 
0.114311 0.166217 0.000000 
0.137056 0.112570 0.000000 
0.186430 0.115096 0.000000 
0.029568 0.291783 0.000000 
0.058945 0.253663 0.000000 
0.116563 0.273309 0.000000 
0.143120 0.226040 0.000000 
0.196633 0.234749 0.000000 
0.217198 0.177452 0.000000 
0.265318 0.178252 0.000000 
0.029759 0.392837 0.000000 
0.059328 0.355771 0.000000 
0.117890 0.378477 0.000000 
0.145749 0.334135 0.000000 
0.201664 0.347609 0.000000 
0.225992 0.295492 0.000000 
0.278030 0.301358 0.000000 
0.296791 0.241415 0.000000 
0.344206 0.241408 0.000000 
VECTORS X_EC float 
0.338794 0.729967 0.000000 
-0.609100 -0.188782 0.000000 
0.713312 -0.077641 0.000000 
0.374519 -0.697070 0.000000 
0.423588 0.946199 0.000000 
-0.218274 0.980303 0.000000 
-0.513962 0.256064 0.000000 
0.756418 0.467550 0.000000 
0.381900 -0.074842 0.000000 
-0.550868 0.093596 0.000000 
0.823577 0.104392 0.000000 
0.556234 -0.669113 0.000000 
-0.139443 -0.551544 0.000000 
-0.484677 0.810332 0.000000 
0.766286 -0.924453 0.000000 
0.384386 0.560927 0.000000 
0.474677 -0.759007 0.000000 
-0.141715 -0.759104 0.000000 
-0.385608 0.431668 0.000000 
0.937896 0.510864 0.000000 
0.621631 -0.192716 0.000000 
-0.105264 -0.010817 0.000000 
-0.467428 -0.609443 0.000000 
0.771260 -0.302915 0.000000 
0.386873 -0.803304 0.000000 
0.761262 -0.719899 0.000000 
0.108942 -0.438522 0.000000 
-0.397202 -0.919361 0.000000 
-0.142083 0.419363 0.000000 
-0.595936 -0.139411 0.000000 
0.978194 -0.639277 0.000000 
-0.660903 0.669098 0.000000 
0.724964 0.208578 0.000000 
0.899809 -0.433671 0.000000 
0.685384 0.161641 0.000000 
0.287229 -0.339518 0.000000 
0.702895 0.961154 0.000000 
0.180633 0.469635 0.000000 
0.445811 -0.208524 0.000000 
-0.220880 -0.651310 0.000000 
-0.071546 0.717764 0.000000 
-0.033296 0.462693 0.000000 
-0.417537 -0.037817 0.000000 
0.039645 -0.740379 0.000000 
-0.441768 0.759750 0.000000 
-0.109248 0.064299 0.000000 
-0.699407 -0.412457 0.000000 
-0.474522 0.920264 0.000000 
0.820030 0.493271 0.000000 
0.957100 -0.130801 0.000000 
0.610485 -0.033892 0.000000 
-0.761092 -0.764273 0.000000 
-0.714655 0.524990 0.000000 
-0.057734 0.319822 0.000000 
-0.178789 0.473731 0.000000 
-0.067979 -0.183695 0.000000 
0.677748 -0.321898 0.000000 
0.641556 0.892357 0.000000 
-0.765897 0.633878 0.000000 
0.393446 -0.298260 0.000000 
0.522510 -0.933990 0.000000 
-0.691820 0.967466 0.000000 
-0.647393 0.236984 0.000000 
0.028512 0.029457 0.000000 
-0.053800 -0.787903 0.000000 
0.514316 0.939966 0.000000 
0.965681 0.929749 0.000000 
-0.897068 0.305721 0.000000 
-0.083078 0.238868 0.000000 
-0.006893 -0.463657 0.000000 
0.724017 -0.627290 0.000000 
0.714996 0.596307 0.000000 
-0.642413 0.362849 0.000000 
-0.760780 -0.476131 0.000000 
-0.205471 -0.753947 0.000000 
0.000000 0.271409 0.000000 
-0.564049 -0.426778 0.000000 
0.000000 -0.832214 0.000000 
0.564049 -0.426778 0.000000 
0.866949 0.817877 0.000000 
-0.569003 0.497946 0.000000 
0.000000 -0.982766 0.000000 
0.569003 0.497946 0.000000 
-0.866949 0.817877 0.000000 
0.299194 0.048128 0.000000 
0.858290 -0.243456 0.000000 
-0.577662 0.332989 0.000000 
0.000000 -0.086389 0.000000 
0.577662 0.332989 0.000000 
-0.858290 -0.243456 0.000000 
-0.299194 0.048128 0.000000 
-0.268560 -0.721622 0.000000 
0.286830 -0.999264 0.000000 
0.844677 -0.380066 0.000000 
-0.578910 -0.756229 0.000000 
0.000000 -0.264825 0.000000 
0.578910 -0.756229 0.000000 
-0.844677 -0.380066 0.000000 
-0.286830 -0.999264 0.000000 
0.268560 -0.721622 0.000000 
-0.610485 -0.033892 0.000000 
0.057734 0.319822 0.000000 
0.714655 0.524990 0.000000 
0.761092 -0.764273 0.000000 
0.765897 0.633878 0.000000 
-0.641556 0.892357 0.000000 
-0.677748 -0.321898 0.000000 
0.067979 -0.183695 0.000000 
0.178789 0.473731 0.000000 
-0.514316 0.939966 0.000000 
0.053800 -0.787903 0.000000 
-0.028512 0.029457 0.000000 
0.647393 0.236984 0.000000 
0.691820 0.967466 0.000000 
-0.522510 -0.933990 0.000000 
-0.393446 -0.298260 0.000000 
0.205471 -0.753947 0.000000 
0.760780 -0.476131 0.000000 
0.642413 0.362849 0.000000 
-0.714996 0.596307 0.000000 
-0.724017 -0.627290 0.000000 
0.006894 -0.463657 0.000000 
0.083078 0.238868 0.000000 
0.897068 0.305721 0.000000 
-0.965681 0.929749 0.000000 
-0.761262 -0.719899 0.000000 
0.142083 0.419363 0.000000 
0.397202 -0.919361 0.000000 
-0.108942 -0.438522 0.000000 
-0.899809 -0.433671 0.000000 
-0.724964 0.208578 0.000000 
0.660903 0.669098 0.000000 
-0.978194 -0.639277 0.000000 
0.595936 -0.139411 0.000000 
0.071546 0.717764 0.000000 
0.220880 -0.651310 0.000000 
-0.445811 -0.208524 0.000000 
-0.180633 0.469635 0.000000 
-0.702895 0.961154 0.000000 
-0.287229 -0.339518 0.000000 
-0.685384 0.161641 0.000000 
-0.957100 -0.130801 0.000000 
-0.820030 0.493271 0.000000 
0.474522 0.920264 0.000000 
0.699407 -0.412457 0.000000 
0.109248 0.064299 0.000000 
0.441768 0.759750 0.000000 
-0.039645 -0.740379 0.000000 
0.417537 -0.037817 0.000000 
0.033296 0.462693 0.000000 
-0.338794 0.729967 0.000000 
-0.374519 -0.697070 0.000000 
-0.713312 -0.077641 0.000000 
0.609100 -0.188782 0.000000 
-0.381900 -0.074842 0.000000 
-0.756418 0.467550 0.000000 
0.513962 0.256064 0.000000 
0.218274 0.980303 0.000000 
-0.423588 0.946199 0.000000 
-0.384386 0.560927 0.000000 
-0.766286 -0.924453 0.000000 
0.484677 0.810332 0.000000 
0.139443 -0.551544 0.000000 
-0.556234 -0.669113 0.000000 
-0.823577 0.104392 0.000000 
0.550868 0.093596 0.000000 
-0.386873 -0.803304 0.000000 
-0.771260 -0.302915 0.000000 
0.467428 -0.609443 0.000000 
0.105264 -0.010817 0.000000 
-0.621631 -0.192716 0.000000 
-0.937896 0.510864 0.000000 
0.385608 0.431668 0.000000 
0.141715 -0.759104 0.000000 
-0.474677 -0.759007 0.000000 
CELL_DATA 175 
SCALARS MASS float 
LOOKUP_TABLE default 
0.078183 
0.086427 
0.094672 
0.086427 
0.088131 
0.092111 
0.085854 
0.092111 
0.088131 
0.088705 
0.091000 
0.086983 
0.091556 
0.086983 
0.091000 
0.088705 
0.089278 
0.091574 
0.089278 
0.092722 
0.089278 
0.092722 
0.089278 
0.091574 
0.089278 
0.078183 
0.086427 
0.094672 
0.086427 
0.088131 
0.092111 
0.085854 
0.092111 
0.088131 
0.088705 
0.091000 
0.086983 
0.091556 
0.086983 
0.091000 
0.088705 
0.089278 
0.091574 
0.089278 
0.092722 
0.089278 
0.092722 
0.089278 
0.091574 
0.089278 
0.078183 
0.086427 
0.094672 
0.086427 
0.088131 
0.092111 
0.085854 
0.092111 
0.088131 
0.088705 
0.091000 
0.086983 
0.091556 
0.086983 
0.091000 
0.088705 
0.089278 
0.091574 
0.089278 
0.092722 
0.089278 
0.092722 
0.089278 
0.091574 
0.089278 
0.078183 
0.086427 
0.094672 
0.086427 
0.088131 
0.092111 
0.085854 
0.092111 
0.088131 
0.088705 
0.091000 
0.086983 
0.091556 
0.086983 
0.091000 
0.088705 
0.089278 
0.091574 
0.089278 
0.092722 
0.089278 
0.092722 
0.089278 
0.091574 
0.089278 
0.078183 
0.086427 
0.094672 
0.086427 
0.088131 
0.092111 
0.085854 
0.092111 
0.088131 
0.088705 
0.091000 
0.086983 
0.091556 
0.086983 
0.091000 
0.088705 
0.089278 
0.091574 
0.089278 
0.092722 
0.089278 
0.092722 
0.089278 
0.091574 
0.089278 
0.078183 
0.086427 
0.094672 
0.086427 
0.088131 
0.092111 
0.085854 
0.092111 
0.088131 
0.088705 
0.091000 
0.086983 
0.091556 
0.086983 
0.091000 
0.088705 
0.089278 
0.091574 
0.089278 
0.092722 
0.089278 
0.092722 
0.089278 
0.091574 
0.089278 
0.078183 
0.086427 
0.094672 
0.086427 
0.088131 
0.092111 
0.085854 
0.092111 
0.088131 
0.088705 
0.091000 
0.086983 
0.091556 
0.086983 
0.091000 
0.088705 
0.089278 
0.091574 
0.089278 
0.092722 
0.089278 
0.092722 
0.089278 
0.091574 
0.089278 
SCALARS MASS float 
LOOKUP_TABLE default 
0.078183 
0.086427 
0.094672 
0.086427 
0.088131 
0.092111 
0.085854 
0.092111 
0.088131 
0.088705 
0.091000 
0.086983 
0.091556 
0.086983 
0.091000 
0.088705 
0.089278 
0.091574 
0.089278 
0.092722 
0.089278 
0.092722 
0.089278 
0.091574 
0.089278 
0.078183 
0.086427 
0.094672 
0.086427 
0.088131 
0.092111 
0.085854 
0.092111 
0.088131 
0.088705 
0.091000 
0.086983 
0.091556 
0.086983 
0.091000 
0.088705 
0.089278 
0.091574 
0.089278 
0.092722 
0.089278 
0.092722 
0.089278 
0.091574 
0.089278 
0.078183 
0.086427 
0.094672 
0.086427 
0.088131 
0.092111 
0.085854 
0.092111 
0.088131 
0.088705 
0.091000 
0.086983 
0.091556 
0.086983 
0.091000 
0.088705 
0.089278 
0.091574 
0.089278 
0.092722 
0.089278 
0.092722 
0.089278 
0.091574 
0.089278 
0.078183 
0.086427 
0.094672 
0.086427 
0.088131 
0.092111 
0.085854 
0.092111 
0.088131 
0.088705 
0.091000 
0.086983 
0.091556 
0.086983 
0.091000 
0.088705 
0.089278 
0.091574 
0.089278 
0.092722 
0.089278 
0.092722 
0.089278 
0.091574 
0.089278 
0.078183 
0.086427 
0.094672 
0.086427 
0.088131 
0.092111 
0.085854 
0.092111 
0.088131 
0.088705 
0.091000 
0.086983 
0.091556 
0.086983 
0.091000 
0.088705 
0.089278 
0.091574 
0.089278 
0.092722 
0.089278 
0.092722 
0.089278 
0.091574 
0.089278 
0.078183 
0.086427 
0.094672 
0.086427 
0.088131 
0.092111 
0.085854 
0.092111 
0.088131 
0.088705 
0.091000 
0.086983 
0.091556 
0.086983 
0.091000 
0.088705 
0.089278 
0.091574 
0.089278 
0.092722 
0.089278 
0.092722 
0.089278 
0.091574 
0.089278 
0.078183 
0.086427 
0.094672 
0.086427 
0.088131 
0.092111 
0.085854 
0.092111 
0.088131 
0.088705 
0.091000 
0.086983 
0.091556 
0.086983 
0.091000 
0.088705 
0.089278 
0.091574 
0.089278 
0.092722 
0.089278 
0.092722 
0.089278 
0.091574 
0.089278 
SCALARS DENSITY float 
LOOKUP_TABLE default 
20.000000 
20.000000 
20.000000 
20.000000 
20.000000 
20.000000 
20.000000 
20.000000 
20.000000 
20.000000 
20.000000 
20.000000 
20.000000 
20.000000 
20.000000 
20.000000 
20.000000 
20.000000 
20.000000 
20.000000 
20.000000 
20.000000 
20.000000 
20.000000 
20.000000 
20.000000 
20.000000 
20.000000 
20.000000 
20.000000 
20.000000 
20.000000 
20.000000 
20.000000 
20.000000 
20.000000 
20.000000 
20.000000 
20.000000 
20.000000 
20.000000 
20.000000 
20.000000 
20.000000 
20.000000 
20.000000 
20.000000 
20.000000 
20.000000 
20.000000 
20.000000 
20.000000 
20.000000 
20.000000 
20.000000 
20.000000 
20.000000 
20.000000 
20.000000 
20.000000 
20.000000 
20.000000 
20.000000 
20.000000 
20.000000 
20.000000 
20.000000 
20.000000 
20.000000 
20.000000 
20.000000 
20.000000 
20.000000 
20.000000 
20.000000 
20.000000 
20.000000 
20.000000 
20.000000 
20.000000 
20.000000 
20.000000 
20.000000 
20.000000 
20.000000 
20.000000 
20.000000 
20.000000 
20.000000 
20.000000 
20.000000 
20.000000 
20.000000 
20.000000 
20.000000 
20.000000 
20.000000 
20.000000 
20.000000 
20.000000 
20.000000 
20.000000 
20.000000 
20.000000 
20.000000 
20.000000 
20.000000 
20.000000 
20.000000 
20.000000 
20.000000 
20.000000 
20.000000 
20.000000 
20.000000 
20.000000 
20.000000 
20.000000 
20.000000 
20.000000 
20.000000 
20.000000 
20.000000 
20.000000 
20.000000 
20.000000 
20.000000 
20.000000 
20.000000 
20.000000 
20.000000 
20.000000 
20.000000 
20.000000 
20.000000 
20.000000 
20.000000 
20.000000 
20.000000 
20.000000 
20.000000 
20.000000 
20.000000 
20.000000 
20.000000 
20.000000 
20.000000 
20.000000 
20.000000 
20.000000 
20.000000 
20.000000 
20.000000 
20.000000 
20.000000 
20.000000 
20.000000 
20.000000 
20.000000 
20.000000 
20.000000 
20.000000 
20.000000 
20.000000 
20.000000 
20.000000 
20.000000 
20.000000 
20.000000 
20.000000 
20.000000 
20.000000 
20.000000 
20.000000 
20.000000 
SCALARS ELEM_i float 
LOOKUP_TABLE default 
182 
209 
182 
182 
210 
210 
210 
183 
183 
237 
210 
210 
210 
211 
183 
184 
237 
237 
238 
211 
211 
211 
211 
184 
184 
181 
208 
208 
209 
235 
208 
236 
209 
209 
235 
235 
236 
236 
236 
236 
237 
262 
262 
262 
263 
263 
263 
264 
237 
237 
181 
207 
208 
208 
207 
207 
207 
208 
235 
206 
206 
234 
234 
234 
234 
235 
206 
233 
233 
233 
233 
234 
261 
261 
261 
181 
180 
180 
180 
153 
180 
179 
180 
207 
152 
152 
179 
179 
179 
206 
206 
151 
151 
151 
178 
178 
178 
205 
205 
205 
181 
154 
154 
153 
127 
154 
153 
153 
153 
127 
126 
126 
126 
126 
152 
152 
99 
99 
99 
126 
125 
125 
125 
125 
152 
181 
155 
154 
154 
155 
155 
128 
154 
127 
129 
128 
128 
128 
128 
127 
127 
129 
129 
102 
101 
101 
101 
100 
100 
100 
182 
182 
182 
155 
183 
183 
156 
156 
156 
184 
183 
157 
156 
156 
156 
129 
184 
184 
157 
157 
157 
157 
130 
129 
129 
VECTORS VELOCITY float 
0.000000 -1.181124 0.000000 
0.000000 -1.181124 0.000000 
0.000000 -1.181124 0.000000 
0.000000 -1.181124 0.000000 
-0.000000 -1.181124 0.000000 
-0.000000 -1.181124 0.000000 
0.000000 -1.181124 0.000000 
0.000000 -1.181124 0.000000 
0.000000 -1.181124 0.000000 
-0.000000 -1.181124 0.000000 
-0.000000 -1.181124 0.000000 
-0.000000 -1.181124 0.000000 
0.000000 -1.181124 0.000000 
0.000000 -1.181124 0.000000 
0.000000 -1.181124 0.000000 
0.000000 -1.181124 0.000000 
-0.000000 -1.181124 0.000000 
-0.000000 -1.181124 0.000000 
0.000000 -1.181124 0.000000 
-0.000000 -1.181124 0.000000 
-0.000000 -1.181124 0.000000 
-0.000000 -1.181124 0.000000 
-0.000000 -1.181124 0.000000 
0.000000 -1.181124 0.000000 
-0.000000 -1.181124 0.000000 
0.000000 -1.181124 0.000000 
0.000000 -1.181124 0.000000 
0.000000 -1.181124 0.000000 
0.000000 -1.181124 0.000000 
0.000000 -1.181124 0.000000 
0.000000 -1.181124 0.000000 
0.000000 -1.181124 0.000000 
0.000000 -1.181124 0.000000 
-0.000000 -1.181124 0.000000 
0.000000 -1.181124 0.000000 
0.000000 -1.181124 0.000000 
-0.000000 -1.181124 0.000000 
0.000000 -1.181124 0.000000 
-0.000000 -1.181124 0.000000 
-0.000000 -1.181124 0.000000 
-0.000000 -1.181124 0.000000 
0.000000 -1.181124 0.000000 
0.000000 -1.181124 0.000000 
-0.000000 -1.181124 0.000000 
-0.000000 -1.181124 0.000000 
-0.000000 -1.181124 0.000000 
-0.000000 -1.181124 0.000000 
-0.000000 -1.181124 0.000000 
-0.000000 -1.181124 0.000000 
-0.000000 -1.181124 0.000000 
0.000000 -1.181124 0.000000 
0.000000 -1.181124 0.000000 
0.000000 -1.181124 0.000000 
0.000000 -1.181124 0.000000 
0.000000 -1.181124 0.000000 
0.000000 -1.181124 0.000000 
0.000000 -1.181124 0.000000 
0.000000 -1.181124 0.000000 
0.000000 -1.181124 0.000000 
-0.000000 -1.181124 0.000000 
-0.000000 -1.181124 0.000000 
-0.000000 -1.181124 0.000000 
-0.000000 -1.181124 0.000000 
-0.000000 -1.181124 0.000000 
-0.000000 -1.181124 0.000000 
0.000000 -1.181124 0.000000 
-0.000000 -1.181124 0.000000 
0.000000 -1.181124 0.000000 
0.000000 -1.181124 0.000000 
0.000000 -1.181124 0.000000 
0.000000 -1.181124 0.000000 
-0.000000 -1.181124 0.000000 
-0.000000 -1.181124 0.000000 
-0.000000 -1.181124 0.000000 
0.000000 -1.181124 0.000000 
0.000000 -1.181124 0.000000 
0.000000 -1.181124 0.000000 
0.000000 -1.181124 0.000000 
0.000000 -1.181124 0.000000 
0.000000 -1.181124 0.000000 
0.000000 -1.181124 0.000000 
0.000000 -1.181124 0.000000 
0.000000 -1.181124 0.000000 
0.000000 -1.181124 0.000000 
0.000000 -1.181124 0.000000 
0.000000 -1.181124 0.000000 
0.000000 -1.181124 0.000000 
0.000000 -1.181124 0.000000 
0.000000 -1.181124 0.000000 
0.000000 -1.181124 0.000000 
0.000000 -1.181124 0.000000 
0.000000 -1.181124 0.000000 
0.000000 -1.181124 0.000000 
-0.000000 -1.181124 0.000000 
0.000000 -1.181124 0.000000 
-0.000000 -1.181124 0.000000 
0.000000 -1.181124 0.000000 
0.000000 -1.181124 0.000000 
0.000000 -1.181124 0.000000 
-0.000000 -1.181124 0.000000 
0.000000 -1.181124 0.000000 
0.000000 -1.181124 0.000000 
0.000000 -1.181124 0.000000 
0.000000 -1.181124 0.000000 
-0.000000 -1.181124 0.000000 
0.000000 -1.181124 0.000000 
0.000000 -1.181124 0.000000 
0.000000 -1.181124 0.000000 
0.000000 -1.181124 0.000000 
-0.000000 -1.181124 0.000000 
-0.000000 -1.181124 0.000000 
0.000000 -1.181124 0.000000 
0.000000 -1.181124 0.000000 
0.000000 -1.181124 0.000000 
0.000000 -1.181124 0.000000 
0.000000 -1.181124 0.000000 
0.000000 -1.181124 0.000000 
-0.000000 -1.181124 0.000000 
-0.000000 -1.181124 0.000000 
0.000000 -1.181124 0.000000 
-0.000000 -1.181124 0.000000 
-0.000000 -1.181124 0.000000 
-0.000000 -1.181124 0.000000 
0.000000 -1.181124 0.000000 
0.000000 -1.181124 0.000000 
-0.000000 -1.181124 0.000000 
-0.000000 -1.181124 0.000000 
-0.000000 -1.181124 0.000000 
0.000000 -1.181124 0.000000 
0.000000 -1.181124 0.000000 
0.000000 -1.181124 0.000000 
-0.000000 -1.181124 0.000000 
0.000000 -1.181124 0.000000 
-0.000000 -1.181124 0.000000 
0.000000 -1.181124 0.000000 
0.000000 -1.181124 0.000000 
0.000000 -1.181124 0.000000 
-0.000000 -1.181124 0.000000 
-0.000000 -1.181124 0.000000 
-0.000000 -1.181124 0.000000 
-0.000000 -1.181124 0.000000 
-0.000000 -1.181124 0.000000 
-0.000000 -1.181124 0.000000 
-0.000000 -1.181124 0.000000 
0.000000 -1.181124 0.000000 
0.000000 -1.181124 0.000000 
-0.000000 -1.181124 0.000000 
-0.000000 -1.181124 0.000000 
-0.000000 -1.181124 0.000000 
-0.000000 -1.181124 0.000000 
-0.000000 -1.181124 0.000000 
0.000000 -1.181124 0.000000 
-0.000000 -1.181124 0.000000 
-0.000000 -1.181124 0.000000 
0.000000 -1.181124 0.000000 
0.000000 -1.181124 0.000000 
0.000000 -1.181124 0.000000 
0.000000 -1.181124 0.000000 
0.000000 -1.181124 0.000000 
-0.000000 -1.181124 0.000000 
-0.000000 -1.181124 0.000000 
-0.000000 -1.181124 0.000000 
0.000000 -1.181124 0.000000 
0.000000 -1.181124 0.000000 
0.000000 -1.181124 0.000000 
-0.000000 -1.181124 0.000000 
-0.000000 -1.181124 0.000000 
-0.000000 -1.181124 0.000000 
0.000000 -1.181124 0.000000 
-0.000000 -1.181124 0.000000 
-0.000000 -1.181124 0.000000 
-0.000000 -1.181124 0.000000 
-0.000000 -1.181124 0.000000 
-0.000000 -1.181124 0.000000 
-0.000000 -1.181124 0.000000 
TENSORS STRESS float 
0.000000 -0.000000 0.000000 
0.000000 0.000000 0.000000 
0.000000 0.000000 0.000000 

0.000000 0.000000 0.000000 
0.000000 0.000000 0.000000 
0.000000 0.000000 0.000000 

0.000000 0.000000 0.000000 
0.000000 0.000000 0.000000 
0.000000 0.000000 0.000000 

-0.000000 0.000000 0.000000 
0.000000 0.000000 0.000000 
0.000000 0.000000 0.000000 

0.000000 0.000000 0.000000 
0.000000 0.000000 0.000000 
0.000000 0.000000 0.000000 

0.000000 0.000000 0.000000 
0.000000 0.000000 0.000000 
0.000000 0.000000 0.000000 

0.000000 0.000000 0.000000 
0.000000 0.000000 0.000000 
0.000000 0.000000 0.000000 

-0.000000 -0.000000 0.000000 
0.000000 -0.000000 0.000000 
0.000000 0.000000 0.000000 

-0.000000 -0.000000 0.000000 
0.000000 -0.000000 0.000000 
0.000000 0.000000 0.000000 

0.000000 0.000000 0.000000 
0.000000 0.000000 0.000000 
0.000000 0.000000 0.000000 

-0.000000 0.000000 0.000000 
0.000000 -0.000000 0.000000 
0.000000 0.000000 0.000000 

-0.000000 -0.000000 0.000000 
0.000000 -0.000000 0.000000 
0.000000 0.000000 0.000000 

-0.000000 0.000000 0.000000 
0.000000 0.000000 0.000000 
0.000000 0.000000 0.000000 

-0.000000 0.000000 0.000000 
0.000000 -0.000000 0.000000 
0.000000 0.000000 0.000000 

0.000000 -0.000000 0.000000 
0.000000 0.000000 0.000000 
0.000000 0.000000 0.000000 

-0.000000 -0.000000 0.000000 
0.000000 -0.000000 0.000000 
0.000000 0.000000 0.000000 

-0.000000 -0.000000 0.000000 
0.000000 -0.000000 0.000000 
0.000000 0.000000 0.000000 

0.000000 0.000000 0.000000 
0.000000 0.000000 0.000000 
0.000000 0.000000 0.000000 

-0.000000 -0.000000 0.000000 
0.000000 0.000000 0.000000 
0.000000 0.000000 0.000000 

-0.000000 0.000000 0.000000 
0.000000 -0.000000 0.000000 
0.000000 0.000000 0.000000 

-0.000000 -0.000000 0.000000 
0.000000 0.000000 0.000000 
0.000000 0.000000 0.000000 

-0.000000 0.000000 0.000000 
0.000000 -0.000000 0.000000 
0.000000 0.000000 0.000000 

-0.000000 -0.000000 0.000000 
0.000000 -0.000000 0.000000 
0.000000 0.000000 0.000000 

-0.000000 0.000000 0.000000 
0.000000 -0.000000 0.000000 
0.000000 0.000000 0.000000 

-0.000000 0.000000 0.000000 
0.000000 -0.000000 0.000000 
0.000000 0.000000 0.000000 

-0.000000 -0.000000 0.000000 
0.000000 -0.000000 0.000000 
0.000000 0.000000 0.000000 

-0.000000 -0.000000 0.000000 
0.000000 0.000000 0.000000 
0.000000 0.000000 0.000000 

-0.000000 -0.000000 0.000000 
0.000000 0.000000 0.000000 
0.000000 0.000000 0.000000 

-0.000000 -0.000000 0.000000 
0.000000 0.000000 0.000000 
0.000000 0.000000 0.000000 

-0.000000 0.000000 0.000000 
0.000000 -0.000000 0.000000 
0.000000 0.000000 0.000000 

-0.000000 -0.000000 0.000000 
0.000000 -0.000000 0.000000 
0.000000 0.000000 0.000000 

-0.000000 -0.000000 0.000000 
0.000000 -0.000000 0.000000 
0.000000 0.000000 0.000000 

-0.000000 -0.000000 0.000000 
0.000000 -0.000000 0.000000 
0.000000 0.000000 0.000000 

-0.000000 0.000000 0.000000 
0.000000 -0.000000 0.000000 
0.000000 0.000000 0.000000 

-0.000000 0.000000 0.000000 
0.000000 0.000000 0.000000 
0.000000 0.000000 0.000000 

-0.000000 0.000000 0.000000 
0.000000 0.000000 0.000000 
0.000000 0.000000 0.000000 

-0.000000 0.000000 0.000000 
0.000000 0.000000 0.000000 
0.000000 0.000000 0.000000 

-0.000000 -0.000000 0.000000 
0.000000 -0.000000 0.000000 
0.000000 0.000000 0.000000 

-0.000000 -0.000000 0.000000 
0.000000 -0.000000 0.000000 
0.000000 0.000000 0.000000 

-0.000000 -0.000000 0.000000 
0.000000 0.000000 0.000000 
0.000000 0.000000 0.000000 

-0.000000 -0.000000 0.000000 
0.000000 -0.000000 0.000000 
0.000000 0.000000 0.000000 

-0.000000 -0.000000 0.000000 
0.000000 -0.000000 0.000000 
0.000000 0.000000 0.000000 

-0.000000 -0.000000 0.000000 
0.000000 0.000000 0.000000 
0.000000 0.000000 0.000000 

0.000000 -0.000000 0.000000 
0.000000 0.000000 0.000000 
0.000000 0.000000 0.000000 

-0.000000 -0.000000 0.000000 
0.000000 -0.000000 0.000000 
0.000000 0.000000 0.000000 

-0.000000 0.000000 0.000000 
0.000000 -0.000000 0.000000 
0.000000 0.000000 0.000000 

-0.000000 0.000000 0.000000 
0.000000 -0.000000 0.000000 
0.000000 0.000000 0.000000 

0.000000 -0.000000 0.000000 
0.000000 -0.000000 0.000000 
0.000000 0.000000 0.000000 

-0.000000 -0.000000 0.000000 
0.000000 -0.000000 0.000000 
0.000000 0.000000 0.000000 

-0.000000 -0.000000 0.000000 
0.000000 -0.000000 0.000000 
0.000000 0.000000 0.000000 

0.000000 -0.000000 0.000000 
0.000000 0.000000 0.000000 
0.000000 0.000000 0.000000 

0.000000 0.000000 0.000000 
0.000000 0.000000 0.000000 
0.000000 0.000000 0.000000 

-0.000000 -0.000000 0.000000 
0.000000 -0.000000 0.000000 
0.000000 0.000000 0.000000 

-0.000000 -0.000000 0.000000 
0.000000 -0.000000 0.000000 
0.000000 0.000000 0.000000 

0.000000 0.000000 0.000000 
0.000000 0.000000 0.000000 
0.000000 0.000000 0.000000 

-0.000000 0.000000 0.000000 
0.000000 0.000000 0.000000 
0.000000 0.000000 0.000000 

0.000000 0.000000 0.000000 
0.000000 0.000000 0.000000 
0.000000 0.000000 0.000000 

-0.000000 -0.000000 0.000000 
0.000000 -0.000000 0.000000 
0.000000 0.000000 0.000000 

0.000000 0.000000 0.000000 
0.000000 -0.000000 0.000000 
0.000000 0.000000 0.000000 

-0.000000 -0.000000 0.000000 
0.000000 -0.000000 0.000000 
0.000000 0.000000 0.000000 

-0.000000 -0.000000 0.000000 
0.000000 -0.000000 0.000000 
0.000000 0.000000 0.000000 

0.000000 0.000000 0.000000 
0.000000 0.000000 0.000000 
0.000000 0.000000 0.000000 

0.000000 0.000000 0.000000 
0.000000 0.000000 0.000000 
0.000000 0.000000 0.000000 

0.000000 0.000000 0.000000 
0.000000 0.000000 0.000000 
0.000000 0.000000 0.000000 

0.000000 0.000000 0.000000 
0.000000 0.000000 0.000000 
0.000000 0.000000 0.000000 

0.000000 0.000000 0.000000 
0.000000 0.000000 0.000000 
0.000000 0.000000 0.000000 

-0.000000 -0.000000 0.000000 
0.000000 0.000000 0.000000 
0.000000 0.000000 0.000000 

0.000000 0.000000 0.000000 
0.000000 0.000000 0.000000 
0.000000 0.000000 0.000000 

0.000000 0.000000 0.000000 
0.000000 0.000000 0.000000 
0.000000 0.000000 0.000000 

0.000000 0.000000 0.000000 
0.000000 0.000000 0.000000 
0.000000 0.000000 0.000000 

0.000000 0.000000 0.000000 
0.000000 0.000000 0.000000 
0.000000 0.000000 0.000000 

-0.000000 0.000000 0.000000 
0.000000 -0.000000 0.000000 
0.000000 0.000000 0.000000 

0.000000 0.000000 0.000000 
0.000000 0.000000 0.000000 
0.000000 0.000000 0.000000 

0.000000 -0.000000 0.000000 
0.000000 0.000000 0.000000 
0.000000 0.000000 0.000000 

0.000000 -0.000000 0.000000 
0.000000 0.000000 0.000000 
0.000000 0.000000 0.000000 

-0.000000 -0.000000 0.000000 
0.000000 -0.000000 0.000000 
0.000000 0.000000 0.000000 

0.000000 -0.000000 0.000000 
0.000000 0.000000 0.000000 
0.000000 0.000000 0.000000 

-0.000000 -0.000000 0.000000 
0.000000 0.000000 0.000000 
0.000000 0.000000 0.000000 

-0.000000 0.000000 0.000000 
0.000000 0.000000 0.000000 
0.000000 0.000000 0.000000 

-0.000000 0.000000 0.000000 
0.000000 -0.000000 0.000000 
0.000000 0.000000 0.000000 

-0.000000 0.000000 0.000000 
0.000000 -0.000000 0.000000 
0.000000 0.000000 0.000000 

0.000000 0.000000 0.000000 
0.000000 0.000000 0.000000 
0.000000 0.000000 0.000000 

0.000000 0.000000 0.000000 
0.000000 0.000000 0.000000 
0.000000 0.000000 0.000000 

0.000000 0.000000 0.000000 
0.000000 0.000000 0.000000 
0.000000 0.000000 0.000000 

-0.000000 0.000000 0.000000 
0.000000 -0.000000 0.000000 
0.000000 0.000000 0.000000 

-0.000000 0.000000 0.000000 
0.000000 -0.000000 0.000000 
0.000000 0.000000 0.000000 

-0.000000 0.000000 0.000000 
0.000000 -0.000000 0.000000 
0.000000 0.000000 0.000000 

-0.000000 0.000000 0.000000 
0.000000 -0.000000 0.000000 
0.000000 0.000000 0.000000 

-0.000000 0.000000 0.000000 
0.000000 -0.000000 0.000000 
0.000000 0.000000 0.000000 

0.000000 -0.000000 0.000000 
0.000000 0.000000 0.000000 
0.000000 0.000000 0.000000 

-0.000000 0.000000 0.000000 
0.000000 -0.000000 0.000000 
0.000000 0.000000 0.000000 

-0.000000 -0.000000 0.000000 
0.000000 -0.000000 0.000000 
0.000000 0.000000 0.000000 

-0.000000 -0.000000 0.000000 
0.000000 -0.000000 0.000000 
0.000000 0.000000 0.000000 

0.000000 0.000000 0.000000 
0.000000 0.000000 0.000000 
0.000000 0.000000 0.000000 

-0.000000 0.000000 0.000000 
0.000000 0.000000 0.000000 
0.000000 0.000000 0.000000 

-0.000000 0.000000 0.000000 
0.000000 0.000000 0.000000 
0.000000 0.000000 0.000000 

-0.000000 0.000000 0.000000 
0.000000 -0.000000 0.000000 
0.000000 0.000000 0.000000 

-0.000000 -0.000000 0.000000 
0.000000 0.000000 0.000000 
0.000000 0.000000 0.000000 

-0.000000 0.000000 0.000000 
0.000000 -0.000000 0.000000 
0.000000 0.000000 0.000000 

-0.000000 -0.000000 0.000000 
0.000000 -0.000000 0.000000 
0.000000 0.000000 0.000000 

-0.000000 -0.000000 0.000000 
0.000000 -0.000000 0.000000 
0.000000 0.000000 0.000000 

0.000000 0.000000 0.000000 
0.000000 0.000000 0.000000 
0.000000 0.000000 0.000000 

0.000000 0.000000 0.000000 
0.000000 -0.000000 0.000000 
0.000000 0.000000 0.000000 

-0.000000 0.000000 0.000000 
0.000000 -0.000000 0.000000 
0.000000 0.000000 0.000000 

0.000000 0.000000 0.000000 
0.000000 -0.000000 0.000000 
0.000000 0.000000 0.000000 

0.000000 0.000000 0.000000 
0.000000 0.000000 0.000000 
0.000000 0.000000 0.000000 

-0.000000 0.000000 0.000000 
0.000000 -0.000000 0.000000 
0.000000 0.000000 0.000000 

-0.000000 0.000000 0.000000 
0.000000 -0.000000 0.000000 
0.000000 0.000000 0.000000 

-0.000000 0.000000 0.000000 
0.000000 -0.000000 0.000000 
0.000000 0.000000 0.000000 

0.000000 0.000000 0.000000 
0.000000 0.000000 0.000000 
0.000000 0.000000 0.000000 

0.000000 0.000000 0.000000 
0.000000 -0.000000 0.000000 
0.000000 0.000000 0.000000 

0.000000 0.000000 0.000000 
0.000000 0.000000 0.000000 
0.000000 0.000000 0.000000 

-0.000000 0.000000 0.000000 
0.000000 -0.000000 0.000000 
0.000000 0.000000 0.000000 

-0.000000 -0.000000 0.000000 
0.000000 -0.000000 0.000000 
0.000000 0.000000 0.000000 

0.000000 0.000000 0.000000 
0.000000 0.000000 0.000000 
0.000000 0.000000 0.000000 

-0.000000 0.000000 0.000000 
0.000000 0.000000 0.000000 
0.000000 0.000000 0.000000 

-0.000000 0.000000 0.000000 
0.000000 0.000000 0.000000 
0.000000 0.000000 0.000000 

-0.000000 0.000000 0.000000 
0.000000 0.000000 0.000000 
0.000000 0.000000 0.000000 

-0.000000 0.000000 0.000000 
0.000000 -0.000000 0.000000 
0.000000 0.000000 0.000000 

0.000000 -0.000000 0.000000 
0.000000 0.000000 0.000000 
0.000000 0.000000 0.000000 

0.000000 -0.000000 0.000000 
0.000000 0.000000 0.000000 
0.000000 0.000000 0.000000 

0.000000 -0.000000 0.000000 
0.000000 0.000000 0.000000 
0.000000 0.000000 0.000000 

0.000000 0.000000 0.000000 
0.000000 0.000000 0.000000 
0.000000 0.000000 0.000000 

0.000000 0.000000 0.000000 
0.000000 0.000000 0.000000 
0.000000 0.000000 0.000000 

-0.000000 0.000000 0.000000 
0.000000 0.000000 0.000000 
0.000000 0.000000 0.000000 

0.000000 -0.000000 0.000000 
0.000000 0.000000 0.000000 
0.000000 0.000000 0.000000 

0.000000 -0.000000 0.000000 
0.000000 0.000000 0.000000 
0.000000 0.000000 0.000000 

0.000000 0.000000 0.000000 
0.000000 -0.000000 0.000000 
0.000000 0.000000 0.000000 

0.000000 0.000000 0.000000 
0.000000 0.000000 0.000000 
0.000000 0.000000 0.000000 

-0.000000 -0.000000 0.000000 
0.000000 -0.000000 0.000000 
0.000000 0.000000 0.000000 

0.000000 -0.000000 0.000000 
0.000000 -0.000000 0.000000 
0.000000 0.000000 0.000000 

-0.000000 0.000000 0.000000 
0.000000 -0.000000 0.000000 
0.000000 0.000000 0.000000 

0.000000 0.000000 0.000000 
0.000000 0.000000 0.000000 
0.000000 0.000000 0.000000 

0.000000 0.000000 0.000000 
0.000000 0.000000 0.000000 
0.000000 0.000000 0.000000 

0.000000 -0.000000 0.000000 
0.000000 0.000000 0.000000 
0.000000 0.000000 0.000000 

0.000000 -0.000000 0.000000 
0.000000 0.000000 0.000000 
0.000000 0.000000 0.000000 

0.000000 0.000000 0.000000 
0.000000 -0.000000 0.000000 
0.000000 0.000000 0.000000 

-0.000000 0.000000 0.000000 
0.000000 -0.000000 0.000000 
0.000000 0.000000 0.000000 

-0.000000 0.000000 0.000000 
0.000000 -0.000000 0.000000 
0.000000 0.000000 0.000000 

-0.000000 0.000000 0.000000 
0.000000 -0.000000 0.000000 
0.000000 0.000000 0.000000 

0.000000 0.000000 0.000000 
0.000000 0.000000 0.000000 
0.000000 0.000000 0.000000 

-0.000000 -0.000000 0.000000 
0.000000 -0.000000 0.000000 
0.000000 0.000000 0.000000 

0.000000 -0.000000 0.000000 
0.000000 -0.000000 0.000000 
0.000000 0.000000 0.000000 

0.000000 -0.000000 0.000000 
0.000000 0.000000 0.000000 
0.000000 0.000000 0.000000 

-0.000000 0.000000 0.000000 
0.000000 -0.000000 0.000000 
0.000000 0.000000 0.000000 

0.000000 0.000000 0.000000 
0.000000 0.000000 0.000000 
0.000000 0.000000 0.000000 

-0.000000 -0.000000 0.000000 
0.000000 -0.000000 0.000000 
0.000000 0.000000 0.000000 

0.000000 0.000000 0.000000 
0.000000 0.000000 0.000000 
0.000000 0.000000 0.000000 

0.000000 -0.000000 0.000000 
0.000000 0.000000 0.000000 
0.000000 0.000000 0.000000 

0.000000 -0.000000 0.000000 
0.000000 0.000000 0.000000 
0.000000 0.000000 0.000000 

0.000000 -0.000000 0.000000 
0.000000 0.000000 0.000000 
0.000000 0.000000 0.000000 

-0.000000 -0.000000 0.000000 
0.000000 0.000000 0.000000 
0.000000 0.000000 0.000000 

0.000000 -0.000000 0.000000 
0.000000 0.000000 0.000000 
0.000000 0.000000 0.000000 

0.000000 -0.000000 0.000000 
0.000000 0.000000 0.000000 
0.000000 0.000000 0.000000 

-0.000000 -0.000000 0.000000 
0.000000 -0.000000 0.000000 
0.000000 0.000000 0.000000 

-0.000000 -0.000000 0.000000 
0.000000 -0.000000 0.000000 
0.000000 0.000000 0.000000 

-0.000000 -0.000000 0.000000 
0.000000 -0.000000 0.000000 
0.000000 0.000000 0.000000 

-0.000000 -0.000000 0.000000 
0.000000 -0.000000 0.000000 
0.000000 0.000000 0.000000 

0.000000 -0.000000 0.000000 
0.000000 0.000000 0.000000 
0.000000 0.000000 0.000000 

-0.000000 -0.000000 0.000000 
0.000000 -0.000000 0.000000 
0.000000 0.000000 0.000000 

-0.000000 -0.000000 0.000000 
0.000000 -0.000000 0.000000 
0.000000 0.000000 0.000000 

0.000000 -0.000000 0.000000 
0.000000 0.000000 0.000000 
0.000000 0.000000 0.000000 

-0.000000 -0.000000 0.000000 
0.000000 -0.000000 0.000000 
0.000000 0.000000 0.000000 

-0.000000 0.000000 0.000000 
0.000000 0.000000 0.000000 
0.000000 0.000000 0.000000 

0.000000 -0.000000 0.000000 
0.000000 0.000000 0.000000 
0.000000 0.000000 0.000000 

0.000000 -0.000000 0.000000 
0.000000 0.000000 0.000000 
0.000000 0.000000 0.000000 

-0.000000 0.000000 0.000000 
0.000000 -0.000000 0.000000 
0.000000 0.000000 0.000000 

-0.000000 0.000000 0.000000 
0.000000 0.000000 0.000000 
0.000000 0.000000 0.000000 

-0.000000 0.000000 0.000000 
0.000000 -0.000000 0.000000 
0.000000 0.000000 0.000000 

0.000000 -0.000000 0.000000 
0.000000 0.000000 0.000000 
0.000000 0.000000 0.000000 

0.000000 0.000000 0.000000 
0.000000 0.000000 0.000000 
0.000000 0.000000 0.000000 

0.000000 0.000000 0.000000 
0.000000 0.000000 0.000000 
0.000000 0.000000 0.000000 

-0.000000 -0.000000 0.000000 
0.000000 -0.000000 0.000000 
0.000000 0.000000 0.000000 

-0.000000 -0.000000 0.000000 
0.000000 -0.000000 0.000000 
0.000000 0.000000 0.000000 

-0.000000 -0.000000 0.000000 
0.000000 -0.000000 0.000000 
0.000000 0.000000 0.000000 

TENSORS STRAIN float 
0.000000 -0.000000 0.000000 
0.000000 0.000000 0.000000 
0.000000 0.000000 0.000000 

-0.000000 0.000000 0.000000 
0.000000 0.000000 0.000000 
0.000000 0.000000 0.000000 

-0.000000 0.000000 0.000000 
0.000000 0.000000 0.000000 
0.000000 0.000000 0.000000 

-0.000000 0.000000 0.000000 
0.000000 0.000000 0.000000 
0.000000 0.000000 0.000000 

0.000000 0.000000 0.000000 
0.000000 0.000000 0.000000 
0.000000 0.000000 0.000000 

0.000000 0.000000 0.000000 
0.000000 0.000000 0.000000 
0.000000 0.000000 0.000000 

-0.000000 0.000000 0.000000 
0.000000 0.000000 0.000000 
0.000000 0.000000 0.000000 

-0.000000 -0.000000 0.000000 
0.000000 -0.000000 0.000000 
0.000000 0.000000 0.000000 

-0.000000 -0.000000 0.000000 
0.000000 -0.000000 0.000000 
0.000000 0.000000 0.000000 

-0.000000 0.000000 0.000000 
0.000000 0.000000 0.000000 
0.000000 0.000000 0.000000 

-0.000000 0.000000 0.000000 
0.000000 0.000000 0.000000 
0.000000 0.000000 0.000000 

-0.000000 -0.000000 0.000000 
0.000000 -0.000000 0.000000 
0.000000 0.000000 0.000000 

-0.000000 0.000000 0.000000 
0.000000 0.000000 0.000000 
0.000000 0.000000 0.000000 

-0.000000 0.000000 0.000000 
0.000000 0.000000 0.000000 
0.000000 0.000000 0.000000 

-0.000000 -0.000000 0.000000 
0.000000 0.000000 0.000000 
0.000000 0.000000 0.000000 

-0.000000 -0.000000 0.000000 
0.000000 -0.000000 0.000000 
0.000000 0.000000 0.000000 

0.000000 -0.000000 0.000000 
0.000000 -0.000000 0.000000 
0.000000 0.000000 0.000000 

0.000000 0.000000 0.000000 
0.000000 0.000000 0.000000 
0.000000 0.000000 0.000000 

-0.000000 -0.000000 0.000000 
0.000000 0.000000 0.000000 
0.000000 0.000000 0.000000 

-0.000000 0.000000 0.000000 
0.000000 -0.000000 0.000000 
0.000000 0.000000 0.000000 

-0.000000 -0.000000 0.000000 
0.000000 0.000000 0.000000 
0.000000 0.000000 0.000000 

-0.000000 0.000000 0.000000 
0.000000 -0.000000 0.000000 
0.000000 0.000000 0.000000 

-0.000000 -0.000000 0.000000 
0.000000 -0.000000 0.000000 
0.000000 0.000000 0.000000 

-0.000000 0.000000 0.000000 
0.000000 -0.000000 0.000000 
0.000000 0.000000 0.000000 

-0.000000 0.000000 0.000000 
0.000000 0.000000 0.000000 
0.000000 0.000000 0.000000 

0.000000 -0.000000 0.000000 
0.000000 -0.000000 0.000000 
0.000000 0.000000 0.000000 

-0.000000 -0.000000 0.000000 
0.000000 0.000000 0.000000 
0.000000 0.000000 0.000000 

-0.000000 -0.000000 0.000000 
0.000000 0.000000 0.000000 
0.000000 0.000000 0.000000 

-0.000000 -0.000000 0.000000 
0.000000 0.000000 0.000000 
0.000000 0.000000 0.000000 

-0.000000 0.000000 0.000000 
0.000000 -0.000000 0.000000 
0.000000 0.000000 0.000000 

-0.000000 -0.000000 0.000000 
0.000000 -0.000000 0.000000 
0.000000 0.000000 0.000000 

-0.000000 -0.000000 0.000000 
0.000000 -0.000000 0.000000 
0.000000 0.000000 0.000000 

-0.000000 -0.000000 0.000000 
0.000000 -0.000000 0.000000 
0.000000 0.000000 0.000000 

-0.000000 0.000000 0.000000 
0.000000 -0.000000 0.000000 
0.000000 0.000000 0.000000 

-0.000000 0.000000 0.000000 
0.000000 0.000000 0.000000 
0.000000 0.000000 0.000000 

-0.000000 0.000000 0.000000 
0.000000 0.000000 0.000000 
0.000000 0.000000 0.000000 

-0.000000 0.000000 0.000000 
0.000000 0.000000 0.000000 
0.000000 0.000000 0.000000 

-0.000000 -0.000000 0.000000 
0.000000 0.000000 0.000000 
0.000000 0.000000 0.000000 

-0.000000 -0.000000 0.000000 
0.000000 -0.000000 0.000000 
0.000000 0.000000 0.000000 

-0.000000 -0.000000 0.000000 
0.000000 0.000000 0.000000 
0.000000 0.000000 0.000000 

-0.000000 -0.000000 0.000000 
0.000000 -0.000000 0.000000 
0.000000 0.000000 0.000000 

-0.000000 -0.000000 0.000000 
0.000000 -0.000000 0.000000 
0.000000 0.000000 0.000000 

-0.000000 -0.000000 0.000000 
0.000000 0.000000 0.000000 
0.000000 0.000000 0.000000 

0.000000 -0.000000 0.000000 
0.000000 0.000000 0.000000 
0.000000 0.000000 0.000000 

0.000000 -0.000000 0.000000 
0.000000 -0.000000 0.000000 
0.000000 0.000000 0.000000 

-0.000000 0.000000 0.000000 
0.000000 -0.000000 0.000000 
0.000000 0.000000 0.000000 

-0.000000 0.000000 0.000000 
0.000000 0.000000 0.000000 
0.000000 0.000000 0.000000 

0.000000 -0.000000 0.000000 
0.000000 -0.000000 0.000000 
0.000000 0.000000 0.000000 

-0.000000 -0.000000 0.000000 
0.000000 -0.000000 0.000000 
0.000000 0.000000 0.000000 

0.000000 -0.000000 0.000000 
0.000000 -0.000000 0.000000 
0.000000 0.000000 0.000000 

0.000000 -0.000000 0.000000 
0.000000 -0.000000 0.000000 
0.000000 0.000000 0.000000 

-0.000000 0.000000 0.000000 
0.000000 0.000000 0.000000 
0.000000 0.000000 0.000000 

-0.000000 -0.000000 0.000000 
0.000000 -0.000000 0.000000 
0.000000 0.000000 0.000000 

-0.000000 -0.000000 0.000000 
0.000000 -0.000000 0.000000 
0.000000 0.000000 0.000000 

-0.000000 0.000000 0.000000 
0.000000 0.000000 0.000000 
0.000000 0.000000 0.000000 

-0.000000 0.000000 0.000000 
0.000000 0.000000 0.000000 
0.000000 0.000000 0.000000 

-0.000000 0.000000 0.000000 
0.000000 0.000000 0.000000 
0.000000 0.000000 0.000000 

-0.000000 -0.000000 0.000000 
0.000000 -0.000000 0.000000 
0.000000 0.000000 0.000000 

0.000000 0.000000 0.000000 
0.000000 -0.000000 0.000000 
0.000000 0.000000 0.000000 

-0.000000 -0.000000 0.000000 
0.000000 0.000000 0.000000 
0.000000 0.000000 0.000000 

-0.000000 -0.000000 0.000000 
0.000000 -0.000000 0.000000 
0.000000 0.000000 0.000000 

-0.000000 0.000000 0.000000 
0.000000 0.000000 0.000000 
0.000000 0.000000 0.000000 

0.000000 0.000000 0.000000 
0.000000 0.000000 0.000000 
0.000000 0.000000 0.000000 

0.000000 0.000000 0.000000 
0.000000 0.000000 0.000000 
0.000000 0.000000 0.000000 

0.000000 0.000000 0.000000 
0.000000 0.000000 0.000000 
0.000000 0.000000 0.000000 

0.000000 0.000000 0.000000 
0.000000 0.000000 0.000000 
0.000000 0.000000 0.000000 

-0.000000 -0.000000 0.000000 
0.000000 0.000000 0.000000 
0.000000 0.000000 0.000000 

0.000000 0.000000 0.000000 
0.000000 0.000000 0.000000 
0.000000 0.000000 0.000000 

0.000000 0.000000 0.000000 
0.000000 0.000000 0.000000 
0.000000 0.000000 0.000000 

0.000000 0.000000 0.000000 
0.000000 0.000000 0.000000 
0.000000 0.000000 0.000000 

0.000000 0.000000 0.000000 
0.000000 -0.000000 0.000000 
0.000000 0.000000 0.000000 

-0.000000 0.000000 0.000000 
0.000000 -0.000000 0.000000 
0.000000 0.000000 0.000000 

0.000000 0.000000 0.000000 
0.000000 0.000000 0.000000 
0.000000 0.000000 0.000000 

0.000000 -0.000000 0.000000 
0.000000 0.000000 0.000000 
0.000000 0.000000 0.000000 

-0.000000 -0.000000 0.000000 
0.000000 0.000000 0.000000 
0.000000 0.000000 0.000000 

-0.000000 -0.000000 0.000000 
0.000000 -0.000000 0.000000 
0.000000 0.000000 0.000000 

-0.000000 -0.000000 0.000000 
0.000000 0.000000 0.000000 
0.000000 0.000000 0.000000 

-0.000000 -0.000000 0.000000 
0.000000 0.000000 0.000000 
0.000000 0.000000 0.000000 

-0.000000 0.000000 0.000000 
0.000000 0.000000 0.000000 
0.000000 0.000000 0.000000 

-0.000000 0.000000 0.000000 
0.000000 -0.000000 0.000000 
0.000000 0.000000 0.000000 

-0.000000 0.000000 0.000000 
0.000000 -0.000000 0.000000 
0.000000 0.000000 0.000000 

-0.000000 0.000000 0.000000 
0.000000 0.000000 0.000000 
0.000000 0.000000 0.000000 

-0.000000 0.000000 0.000000 
0.000000 0.000000 0.000000 
0.000000 0.000000 0.000000 

-0.000000 0.000000 0.000000 
0.000000 0.000000 0.000000 
0.000000 0.000000 0.000000 

-0.000000 0.000000 0.000000 
0.000000 -0.000000 0.000000 
0.000000 0.000000 0.000000 

-0.000000 0.000000 0.000000 
0.000000 -0.000000 0.000000 
0.000000 0.000000 0.000000 

-0.000000 0.000000 0.000000 
0.000000 0.000000 0.000000 
0.000000 0.000000 0.000000 

-0.000000 0.000000 0.000000 
0.000000 -0.000000 0.000000 
0.000000 0.000000 0.000000 

-0.000000 0.000000 0.000000 
0.000000 -0.000000 0.000000 
0.000000 0.000000 0.000000 

-0.000000 -0.000000 0.000000 
0.000000 0.000000 0.000000 
0.000000 0.000000 0.000000 

-0.000000 0.000000 0.000000 
0.000000 -0.000000 0.000000 
0.000000 0.000000 0.000000 

-0.000000 -0.000000 0.000000 
0.000000 -0.000000 0.000000 
0.000000 0.000000 0.000000 

-0.000000 -0.000000 0.000000 
0.000000 0.000000 0.000000 
0.000000 0.000000 0.000000 

-0.000000 0.000000 0.000000 
0.000000 0.000000 0.000000 
0.000000 0.000000 0.000000 

-0.000000 0.000000 0.000000 
0.000000 0.000000 0.000000 
0.000000 0.000000 0.000000 

-0.000000 0.000000 0.000000 
0.000000 0.000000 0.000000 
0.000000 0.000000 0.000000 

-0.000000 0.000000 0.000000 
0.000000 0.000000 0.000000 
0.000000 0.000000 0.000000 

-0.000000 -0.000000 0.000000 
0.000000 0.000000 0.000000 
0.000000 0.000000 0.000000 

-0.000000 0.000000 0.000000 
0.000000 -0.000000 0.000000 
0.000000 0.000000 0.000000 

-0.000000 -0.000000 0.000000 
0.000000 -0.000000 0.000000 
0.000000 0.000000 0.000000 

0.000000 -0.000000 0.000000 
0.000000 -0.000000 0.000000 
0.000000 0.000000 0.000000 

0.000000 0.000000 0.000000 
0.000000 -0.000000 0.000000 
0.000000 0.000000 0.000000 

0.000000 0.000000 0.000000 
0.000000 -0.000000 0.000000 
0.000000 0.000000 0.000000 

0.000000 0.000000 0.000000 
0.000000 -0.000000 0.000000 
0.000000 0.000000 0.000000 

0.000000 0.000000 0.000000 
0.000000 -0.000000 0.000000 
0.000000 0.000000 0.000000 

0.000000 0.000000 0.000000 
0.000000 0.000000 0.000000 
0.000000 0.000000 0.000000 

0.000000 0.000000 0.000000 
0.000000 -0.000000 0.000000 
0.000000 0.000000 0.000000 

0.000000 0.000000 0.000000 
0.000000 -0.000000 0.000000 
0.000000 0.000000 0.000000 

-0.000000 0.000000 0.000000 
0.000000 -0.000000 0.000000 
0.000000 0.000000 0.000000 

0.000000 0.000000 0.000000 
0.000000 0.000000 0.000000 
0.000000 0.000000 0.000000 

0.000000 0.000000 0.000000 
0.000000 -0.000000 0.000000 
0.000000 0.000000 0.000000 

0.000000 0.000000 0.000000 
0.000000 0.000000 0.000000 
0.000000 0.000000 0.000000 

0.000000 0.000000 0.000000 
0.000000 -0.000000 0.000000 
0.000000 0.000000 0.000000 

-0.000000 -0.000000 0.000000 
0.000000 -0.000000 0.000000 
0.000000 0.000000 0.000000 

-0.000000 0.000000 0.000000 
0.000000 0.000000 0.000000 
0.000000 0.000000 0.000000 

-0.000000 0.000000 0.000000 
0.000000 0.000000 0.000000 
0.000000 0.000000 0.000000 

-0.000000 0.000000 0.000000 
0.000000 0.000000 0.000000 
0.000000 0.000000 0.000000 

-0.000000 0.000000 0.000000 
0.000000 0.000000 0.000000 
0.000000 0.000000 0.000000 

-0.000000 0.000000 0.000000 
0.000000 0.000000 0.000000 
0.000000 0.000000 0.000000 

-0.000000 -0.000000 0.000000 
0.000000 0.000000 0.000000 
0.000000 0.000000 0.000000 

0.000000 -0.000000 0.000000 
0.000000 0.000000 0.000000 
0.000000 0.000000 0.000000 

0.000000 -0.000000 0.000000 
0.000000 0.000000 0.000000 
0.000000 0.000000 0.000000 

0.000000 0.000000 0.000000 
0.000000 0.000000 0.000000 
0.000000 0.000000 0.000000 

0.000000 0.000000 0.000000 
0.000000 0.000000 0.000000 
0.000000 0.000000 0.000000 

-0.000000 0.000000 0.000000 
0.000000 0.000000 0.000000 
0.000000 0.000000 0.000000 

0.000000 -0.000000 0.000000 
0.000000 0.000000 0.000000 
0.000000 0.000000 0.000000 

0.000000 -0.000000 0.000000 
0.000000 0.000000 0.000000 
0.000000 0.000000 0.000000 

0.000000 0.000000 0.000000 
0.000000 -0.000000 0.000000 
0.000000 0.000000 0.000000 

0.000000 0.000000 0.000000 
0.000000 0.000000 0.000000 
0.000000 0.000000 0.000000 

0.000000 -0.000000 0.000000 
0.000000 -0.000000 0.000000 
0.000000 0.000000 0.000000 

0.000000 -0.000000 0.000000 
0.000000 -0.000000 0.000000 
0.000000 0.000000 0.000000 

-0.000000 0.000000 0.000000 
0.000000 -0.000000 0.000000 
0.000000 0.000000 0.000000 

0.000000 0.000000 0.000000 
0.000000 0.000000 0.000000 
0.000000 0.000000 0.000000 

-0.000000 0.000000 0.000000 
0.000000 0.000000 0.000000 
0.000000 0.000000 0.000000 

0.000000 -0.000000 0.000000 
0.000000 -0.000000 0.000000 
0.000000 0.000000 0.000000 

0.000000 -0.000000 0.000000 
0.000000 -0.000000 0.000000 
0.000000 0.000000 0.000000 

0.000000 0.000000 0.000000 
0.000000 -0.000000 0.000000 
0.000000 0.000000 0.000000 

-0.000000 0.000000 0.000000 
0.000000 -0.000000 0.000000 
0.000000 0.000000 0.000000 

-0.000000 0.000000 0.000000 
0.000000 -0.000000 0.000000 
0.000000 0.000000 0.000000 

-0.000000 0.000000 0.000000 
0.000000 -0.000000 0.000000 
0.000000 0.000000 0.000000 

0.000000 0.000000 0.000000 
0.000000 0.000000 0.000000 
0.000000 0.000000 0.000000 

0.000000 -0.000000 0.000000 
0.000000 -0.000000 0.000000 
0.000000 0.000000 0.000000 

0.000000 -0.000000 0.000000 
0.000000 -0.000000 0.000000 
0.000000 0.000000 0.000000 

0.000000 -0.000000 0.000000 
0.000000 0.000000 0.000000 
0.000000 0.000000 0.000000 

0.000000 0.000000 0.000000 
0.000000 -0.000000 0.000000 
0.000000 0.000000 0.000000 

-0.000000 0.000000 0.000000 
0.000000 0.000000 0.000000 
0.000000 0.000000 0.000000 

-0.000000 -0.000000 0.000000 
0.000000 -0.000000 0.000000 
0.000000 0.000000 0.000000 

-0.000000 0.000000 0.000000 
0.000000 0.000000 0.000000 
0.000000 0.000000 0.000000 

-0.000000 -0.000000 0.000000 
0.000000 0.000000 0.000000 
0.000000 0.000000 0.000000 

-0.000000 -0.000000 0.000000 
0.000000 0.000000 0.000000 
0.000000 0.000000 0.000000 

0.000000 -0.000000 0.000000 
0.000000 0.000000 0.000000 
0.000000 0.000000 0.000000 

-0.000000 -0.000000 0.000000 
0.000000 0.000000 0.000000 
0.000000 0.000000 0.000000 

-0.000000 -0.000000 0.000000 
0.000000 0.000000 0.000000 
0.000000 0.000000 0.000000 

0.000000 -0.000000 0.000000 
0.000000 0.000000 0.000000 
0.000000 0.000000 0.000000 

-0.000000 -0.000000 0.000000 
0.000000 -0.000000 0.000000 
0.000000 0.000000 0.000000 

-0.000000 -0.000000 0.000000 
0.000000 -0.000000 0.000000 
0.000000 0.000000 0.000000 

-0.000000 -0.000000 0.000000 
0.000000 -0.000000 0.000000 
0.000000 0.000000 0.000000 

-0.000000 -0.000000 0.000000 
0.000000 -0.000000 0.000000 
0.000000 0.000000 0.000000 

-0.000000 -0.000000 0.000000 
0.000000 0.000000 0.000000 
0.000000 0.000000 0.000000 

-0.000000 -0.000000 0.000000 
0.000000 -0.000000 0.000000 
0.000000 0.000000 0.000000 

-0.000000 -0.000000 0.000000 
0.000000 -0.000000 0.000000 
0.000000 0.000000 0.000000 

0.000000 -0.000000 0.000000 
0.000000 0.000000 0.000000 
0.000000 0.000000 0.000000 

-0.000000 -0.000000 0.000000 
0.000000 -0.000000 0.000000 
0.000000 0.000000 0.000000 

-0.000000 0.000000 0.000000 
0.000000 0.000000 0.000000 
0.000000 0.000000 0.000000 

-0.000000 -0.000000 0.000000 
0.000000 0.000000 0.000000 
0.000000 0.000000 0.000000 

0.000000 -0.000000 0.000000 
0.000000 0.000000 0.000000 
0.000000 0.000000 0.000000 

-0.000000 0.000000 0.000000 
0.000000 0.000000 0.000000 
0.000000 0.000000 0.000000 

-0.000000 0.000000 0.000000 
0.000000 0.000000 0.000000 
0.000000 0.000000 0.000000 

0.000000 0.000000 0.000000 
0.000000 -0.000000 0.000000 
0.000000 0.000000 0.000000 

0.000000 -0.000000 0.000000 
0.000000 0.000000 0.000000 
0.000000 0.000000 0.000000 

0.000000 0.000000 0.000000 
0.000000 0.000000 0.000000 
0.000000 0.000000 0.000000 

0.000000 0.000000 0.000000 
0.000000 0.000000 0.000000 
0.000000 0.000000 0.000000 

-0.000000 -0.000000 0.000000 
0.000000 -0.000000 0.000000 
0.000000 0.000000 0.000000 

-0.000000 -0.000000 0.000000 
0.000000 -0.000000 0.000000 
0.000000 0.000000 0.000000 

-0.000000 -0.000000 0.000000 
0.000000 -0.000000 0.000000 
0.000000 0.000000 0.000000 

