# vtk DataFile Version 3.0 
vtk output 
ASCII 
DATASET UNSTRUCTURED_GRID 
POINTS 175 float 
-0.026061 -0.213453 0.000000 
-0.106992 -0.145397 0.000000 
-0.054870 -0.153630 0.000000 
-0.028809 -0.107746 0.000000 
-0.186430 -0.081322 0.000000 
-0.137056 -0.083848 0.000000 
-0.114311 -0.030201 0.000000 
-0.058186 -0.045866 0.000000 
-0.029377 -0.005689 0.000000 
-0.265318 -0.018166 0.000000 
-0.217198 -0.018966 0.000000 
-0.196633 0.038331 0.000000 
-0.143120 0.029622 0.000000 
-0.116563 0.076891 0.000000 
-0.058945 0.057245 0.000000 
-0.029568 0.095365 0.000000 
-0.344206 0.044990 0.000000 
-0.296791 0.044997 0.000000 
-0.278030 0.104940 0.000000 
-0.225992 0.099073 0.000000 
-0.201664 0.151190 0.000000 
-0.145749 0.137716 0.000000 
-0.117890 0.182059 0.000000 
-0.059328 0.159353 0.000000 
-0.029759 0.196419 0.000000 
-0.058559 -0.254203 0.000000 
-0.162226 -0.275046 0.000000 
-0.123292 -0.239428 0.000000 
-0.142917 -0.190445 0.000000 
-0.261851 -0.297203 0.000000 
-0.229092 -0.260175 0.000000 
-0.256854 -0.208944 0.000000 
-0.209613 -0.174831 0.000000 
-0.223062 -0.127257 0.000000 
-0.360414 -0.319503 0.000000 
-0.329787 -0.282380 0.000000 
-0.361761 -0.230578 0.000000 
-0.321587 -0.194169 0.000000 
-0.341985 -0.143935 0.000000 
-0.290702 -0.111136 0.000000 
-0.302189 -0.064401 0.000000 
-0.458977 -0.341803 0.000000 
-0.429420 -0.304728 0.000000 
-0.464588 -0.252686 0.000000 
-0.427556 -0.215659 0.000000 
-0.453135 -0.164144 0.000000 
-0.407738 -0.128829 0.000000 
-0.425037 -0.079401 0.000000 
-0.370772 -0.047772 0.000000 
-0.381315 -0.001544 0.000000 
-0.046960 -0.305019 0.000000 
-0.095301 -0.399065 0.000000 
-0.098873 -0.346417 0.000000 
-0.149405 -0.331220 0.000000 
-0.140093 -0.490769 0.000000 
-0.148617 -0.442070 0.000000 
-0.205981 -0.431833 0.000000 
-0.203197 -0.373630 0.000000 
-0.248777 -0.354483 0.000000 
-0.184111 -0.581732 0.000000 
-0.194039 -0.534641 0.000000 
-0.254475 -0.527342 0.000000 
-0.257893 -0.473232 0.000000 
-0.309886 -0.457859 0.000000 
-0.303554 -0.397314 0.000000 
-0.347255 -0.377156 0.000000 
-0.228129 -0.672696 0.000000 
-0.238687 -0.626472 0.000000 
-0.301302 -0.621519 0.000000 
-0.307162 -0.569481 0.000000 
-0.363386 -0.557360 0.000000 
-0.362692 -0.499848 0.000000 
-0.412122 -0.482555 0.000000 
-0.403017 -0.420408 0.000000 
-0.445733 -0.399830 0.000000 
-0.000000 -0.327634 0.000000 
0.043388 -0.424064 0.000000 
-0.000000 -0.394032 0.000000 
-0.043388 -0.424064 0.000000 
0.087158 -0.516261 0.000000 
0.043769 -0.492562 0.000000 
-0.000000 -0.531028 0.000000 
-0.043769 -0.492562 0.000000 
-0.087158 -0.516261 0.000000 
0.130831 -0.607391 0.000000 
0.087824 -0.585792 0.000000 
0.044436 -0.628491 0.000000 
-0.000000 -0.597426 0.000000 
-0.044436 -0.628491 0.000000 
-0.087824 -0.585792 0.000000 
-0.130831 -0.607391 0.000000 
0.174505 -0.698520 0.000000 
0.131782 -0.677954 0.000000 
0.088871 -0.723821 0.000000 
0.044532 -0.695957 0.000000 
-0.000000 -0.732357 0.000000 
-0.044532 -0.695957 0.000000 
-0.088871 -0.723821 0.000000 
-0.131782 -0.677954 0.000000 
-0.174505 -0.698520 0.000000 
0.046960 -0.305019 0.000000 
0.149405 -0.331220 0.000000 
0.098873 -0.346417 0.000000 
0.095301 -0.399065 0.000000 
0.248777 -0.354483 0.000000 
0.203197 -0.373630 0.000000 
0.205981 -0.431833 0.000000 
0.148617 -0.442070 0.000000 
0.140093 -0.490769 0.000000 
0.347255 -0.377156 0.000000 
0.303554 -0.397314 0.000000 
0.309886 -0.457859 0.000000 
0.257893 -0.473232 0.000000 
0.254475 -0.527342 0.000000 
0.194039 -0.534641 0.000000 
0.184111 -0.581732 0.000000 
0.445733 -0.399830 0.000000 
0.403017 -0.420408 0.000000 
0.412122 -0.482555 0.000000 
0.362692 -0.499848 0.000000 
0.363386 -0.557360 0.000000 
0.307162 -0.569481 0.000000 
0.301302 -0.621519 0.000000 
0.238687 -0.626472 0.000000 
0.228129 -0.672696 0.000000 
0.058559 -0.254203 0.000000 
0.142917 -0.190445 0.000000 
0.123292 -0.239428 0.000000 
0.162226 -0.275046 0.000000 
0.223062 -0.127257 0.000000 
0.209613 -0.174831 0.000000 
0.256854 -0.208944 0.000000 
0.229092 -0.260175 0.000000 
0.261851 -0.297203 0.000000 
0.302189 -0.064401 0.000000 
0.290702 -0.111136 0.000000 
0.341985 -0.143935 0.000000 
0.321587 -0.194169 0.000000 
0.361761 -0.230578 0.000000 
0.329787 -0.282380 0.000000 
0.360414 -0.319503 0.000000 
0.381315 -0.001544 0.000000 
0.370772 -0.047772 0.000000 
0.425037 -0.079401 0.000000 
0.407738 -0.128829 0.000000 
0.453135 -0.164144 0.000000 
0.427556 -0.215659 0.000000 
0.464588 -0.252686 0.000000 
0.429420 -0.304728 0.000000 
0.458977 -0.341803 0.000000 
0.026061 -0.213453 0.000000 
0.028809 -0.107746 0.000000 
0.054870 -0.153630 0.000000 
0.106992 -0.145397 0.000000 
0.029377 -0.005689 0.000000 
0.058186 -0.045866 0.000000 
0.114311 -0.030201 0.000000 
0.137056 -0.083848 0.000000 
0.186430 -0.081322 0.000000 
0.029568 0.095365 0.000000 
0.058945 0.057245 0.000000 
0.116563 0.076891 0.000000 
0.143120 0.029622 0.000000 
0.196633 0.038331 0.000000 
0.217198 -0.018966 0.000000 
0.265318 -0.018166 0.000000 
0.029759 0.196419 0.000000 
0.059328 0.159353 0.000000 
0.117890 0.182059 0.000000 
0.145749 0.137716 0.000000 
0.201664 0.151190 0.000000 
0.225992 0.099073 0.000000 
0.278030 0.104940 0.000000 
0.296791 0.044997 0.000000 
0.344206 0.044990 0.000000 
CELLS 175 350 
1 0 
1 1 
1 2 
1 3 
1 4 
1 5 
1 6 
1 7 
1 8 
1 9 
1 10 
1 11 
1 12 
1 13 
1 14 
1 15 
1 16 
1 17 
1 18 
1 19 
1 20 
1 21 
1 22 
1 23 
1 24 
1 25 
1 26 
1 27 
1 28 
1 29 
1 30 
1 31 
1 32 
1 33 
1 34 
1 35 
1 36 
1 37 
1 38 
1 39 
1 40 
1 41 
1 42 
1 43 
1 44 
1 45 
1 46 
1 47 
1 48 
1 49 
1 50 
1 51 
1 52 
1 53 
1 54 
1 55 
1 56 
1 57 
1 58 
1 59 
1 60 
1 61 
1 62 
1 63 
1 64 
1 65 
1 66 
1 67 
1 68 
1 69 
1 70 
1 71 
1 72 
1 73 
1 74 
1 75 
1 76 
1 77 
1 78 
1 79 
1 80 
1 81 
1 82 
1 83 
1 84 
1 85 
1 86 
1 87 
1 88 
1 89 
1 90 
1 91 
1 92 
1 93 
1 94 
1 95 
1 96 
1 97 
1 98 
1 99 
1 100 
1 101 
1 102 
1 103 
1 104 
1 105 
1 106 
1 107 
1 108 
1 109 
1 110 
1 111 
1 112 
1 113 
1 114 
1 115 
1 116 
1 117 
1 118 
1 119 
1 120 
1 121 
1 122 
1 123 
1 124 
1 125 
1 126 
1 127 
1 128 
1 129 
1 130 
1 131 
1 132 
1 133 
1 134 
1 135 
1 136 
1 137 
1 138 
1 139 
1 140 
1 141 
1 142 
1 143 
1 144 
1 145 
1 146 
1 147 
1 148 
1 149 
1 150 
1 151 
1 152 
1 153 
1 154 
1 155 
1 156 
1 157 
1 158 
1 159 
1 160 
1 161 
1 162 
1 163 
1 164 
1 165 
1 166 
1 167 
1 168 
1 169 
1 170 
1 171 
1 172 
1 173 
1 174 
CELL_TYPES 175 
1 
1 
1 
1 
1 
1 
1 
1 
1 
1 
1 
1 
1 
1 
1 
1 
1 
1 
1 
1 
1 
1 
1 
1 
1 
1 
1 
1 
1 
1 
1 
1 
1 
1 
1 
1 
1 
1 
1 
1 
1 
1 
1 
1 
1 
1 
1 
1 
1 
1 
1 
1 
1 
1 
1 
1 
1 
1 
1 
1 
1 
1 
1 
1 
1 
1 
1 
1 
1 
1 
1 
1 
1 
1 
1 
1 
1 
1 
1 
1 
1 
1 
1 
1 
1 
1 
1 
1 
1 
1 
1 
1 
1 
1 
1 
1 
1 
1 
1 
1 
1 
1 
1 
1 
1 
1 
1 
1 
1 
1 
1 
1 
1 
1 
1 
1 
1 
1 
1 
1 
1 
1 
1 
1 
1 
1 
1 
1 
1 
1 
1 
1 
1 
1 
1 
1 
1 
1 
1 
1 
1 
1 
1 
1 
1 
1 
1 
1 
1 
1 
1 
1 
1 
1 
1 
1 
1 
1 
1 
1 
1 
1 
1 
1 
1 
1 
1 
1 
1 
1 
1 
1 
1 
1 
1 
POINT_DATA 175 
VECTORS X_GC float 
-0.026061 -0.213453 0.000000 
-0.106992 -0.145397 0.000000 
-0.054870 -0.153630 0.000000 
-0.028809 -0.107746 0.000000 
-0.186430 -0.081322 0.000000 
-0.137056 -0.083848 0.000000 
-0.114311 -0.030201 0.000000 
-0.058186 -0.045866 0.000000 
-0.029377 -0.005689 0.000000 
-0.265318 -0.018166 0.000000 
-0.217198 -0.018966 0.000000 
-0.196633 0.038331 0.000000 
-0.143120 0.029622 0.000000 
-0.116563 0.076891 0.000000 
-0.058945 0.057245 0.000000 
-0.029568 0.095365 0.000000 
-0.344206 0.044990 0.000000 
-0.296791 0.044997 0.000000 
-0.278030 0.104940 0.000000 
-0.225992 0.099073 0.000000 
-0.201664 0.151190 0.000000 
-0.145749 0.137716 0.000000 
-0.117890 0.182059 0.000000 
-0.059328 0.159353 0.000000 
-0.029759 0.196419 0.000000 
-0.058559 -0.254203 0.000000 
-0.162226 -0.275046 0.000000 
-0.123292 -0.239428 0.000000 
-0.142917 -0.190445 0.000000 
-0.261851 -0.297203 0.000000 
-0.229092 -0.260175 0.000000 
-0.256854 -0.208944 0.000000 
-0.209613 -0.174831 0.000000 
-0.223062 -0.127257 0.000000 
-0.360414 -0.319503 0.000000 
-0.329787 -0.282380 0.000000 
-0.361761 -0.230578 0.000000 
-0.321587 -0.194169 0.000000 
-0.341985 -0.143935 0.000000 
-0.290702 -0.111136 0.000000 
-0.302189 -0.064401 0.000000 
-0.458977 -0.341803 0.000000 
-0.429420 -0.304728 0.000000 
-0.464588 -0.252686 0.000000 
-0.427556 -0.215659 0.000000 
-0.453135 -0.164144 0.000000 
-0.407738 -0.128829 0.000000 
-0.425037 -0.079401 0.000000 
-0.370772 -0.047772 0.000000 
-0.381315 -0.001544 0.000000 
-0.046960 -0.305019 0.000000 
-0.095301 -0.399065 0.000000 
-0.098873 -0.346417 0.000000 
-0.149405 -0.331220 0.000000 
-0.140093 -0.490769 0.000000 
-0.148617 -0.442070 0.000000 
-0.205981 -0.431833 0.000000 
-0.203197 -0.373630 0.000000 
-0.248777 -0.354483 0.000000 
-0.184111 -0.581732 0.000000 
-0.194039 -0.534641 0.000000 
-0.254475 -0.527342 0.000000 
-0.257893 -0.473232 0.000000 
-0.309886 -0.457859 0.000000 
-0.303554 -0.397314 0.000000 
-0.347255 -0.377156 0.000000 
-0.228129 -0.672696 0.000000 
-0.238687 -0.626472 0.000000 
-0.301302 -0.621519 0.000000 
-0.307162 -0.569481 0.000000 
-0.363386 -0.557360 0.000000 
-0.362692 -0.499848 0.000000 
-0.412122 -0.482555 0.000000 
-0.403017 -0.420408 0.000000 
-0.445733 -0.399830 0.000000 
-0.000000 -0.327634 0.000000 
0.043388 -0.424064 0.000000 
-0.000000 -0.394032 0.000000 
-0.043388 -0.424064 0.000000 
0.087158 -0.516261 0.000000 
0.043769 -0.492562 0.000000 
-0.000000 -0.531028 0.000000 
-0.043769 -0.492562 0.000000 
-0.087158 -0.516261 0.000000 
0.130831 -0.607391 0.000000 
0.087824 -0.585792 0.000000 
0.044436 -0.628491 0.000000 
-0.000000 -0.597426 0.000000 
-0.044436 -0.628491 0.000000 
-0.087824 -0.585792 0.000000 
-0.130831 -0.607391 0.000000 
0.174505 -0.698520 0.000000 
0.131782 -0.677954 0.000000 
0.088871 -0.723821 0.000000 
0.044532 -0.695957 0.000000 
-0.000000 -0.732357 0.000000 
-0.044532 -0.695957 0.000000 
-0.088871 -0.723821 0.000000 
-0.131782 -0.677954 0.000000 
-0.174505 -0.698520 0.000000 
0.046960 -0.305019 0.000000 
0.149405 -0.331220 0.000000 
0.098873 -0.346417 0.000000 
0.095301 -0.399065 0.000000 
0.248777 -0.354483 0.000000 
0.203197 -0.373630 0.000000 
0.205981 -0.431833 0.000000 
0.148617 -0.442070 0.000000 
0.140093 -0.490769 0.000000 
0.347255 -0.377156 0.000000 
0.303554 -0.397314 0.000000 
0.309886 -0.457859 0.000000 
0.257893 -0.473232 0.000000 
0.254475 -0.527342 0.000000 
0.194039 -0.534641 0.000000 
0.184111 -0.581732 0.000000 
0.445733 -0.399830 0.000000 
0.403017 -0.420408 0.000000 
0.412122 -0.482555 0.000000 
0.362692 -0.499848 0.000000 
0.363386 -0.557360 0.000000 
0.307162 -0.569481 0.000000 
0.301302 -0.621519 0.000000 
0.238687 -0.626472 0.000000 
0.228129 -0.672696 0.000000 
0.058559 -0.254203 0.000000 
0.142917 -0.190445 0.000000 
0.123292 -0.239428 0.000000 
0.162226 -0.275046 0.000000 
0.223062 -0.127257 0.000000 
0.209613 -0.174831 0.000000 
0.256854 -0.208944 0.000000 
0.229092 -0.260175 0.000000 
0.261851 -0.297203 0.000000 
0.302189 -0.064401 0.000000 
0.290702 -0.111136 0.000000 
0.341985 -0.143935 0.000000 
0.321587 -0.194169 0.000000 
0.361761 -0.230578 0.000000 
0.329787 -0.282380 0.000000 
0.360414 -0.319503 0.000000 
0.381315 -0.001544 0.000000 
0.370772 -0.047772 0.000000 
0.425037 -0.079401 0.000000 
0.407738 -0.128829 0.000000 
0.453135 -0.164144 0.000000 
0.427556 -0.215659 0.000000 
0.464588 -0.252686 0.000000 
0.429420 -0.304728 0.000000 
0.458977 -0.341803 0.000000 
0.026061 -0.213453 0.000000 
0.028809 -0.107746 0.000000 
0.054870 -0.153630 0.000000 
0.106992 -0.145397 0.000000 
0.029377 -0.005689 0.000000 
0.058186 -0.045866 0.000000 
0.114311 -0.030201 0.000000 
0.137056 -0.083848 0.000000 
0.186430 -0.081322 0.000000 
0.029568 0.095365 0.000000 
0.058945 0.057245 0.000000 
0.116563 0.076891 0.000000 
0.143120 0.029622 0.000000 
0.196633 0.038331 0.000000 
0.217198 -0.018966 0.000000 
0.265318 -0.018166 0.000000 
0.029759 0.196419 0.000000 
0.059328 0.159353 0.000000 
0.117890 0.182059 0.000000 
0.145749 0.137716 0.000000 
0.201664 0.151190 0.000000 
0.225992 0.099073 0.000000 
0.278030 0.104940 0.000000 
0.296791 0.044997 0.000000 
0.344206 0.044990 0.000000 
VECTORS X_EC float 
0.338794 -0.618388 0.000000 
-0.609100 0.462864 0.000000 
0.713312 0.574005 0.000000 
0.374519 -0.045425 0.000000 
0.423588 -0.402155 0.000000 
-0.218274 -0.368052 0.000000 
-0.513962 0.907709 0.000000 
0.756418 -0.880805 0.000000 
0.381900 0.576803 0.000000 
-0.550868 0.745241 0.000000 
0.823577 0.756037 0.000000 
0.556234 -0.017467 0.000000 
-0.139443 0.100102 0.000000 
-0.484677 -0.538023 0.000000 
0.766286 -0.272808 0.000000 
0.384386 -0.787428 0.000000 
0.474677 -0.107362 0.000000 
-0.141715 -0.107458 0.000000 
-0.385608 -0.916686 0.000000 
0.937896 -0.837491 0.000000 
0.621631 0.458929 0.000000 
-0.105264 0.640828 0.000000 
-0.467428 0.042202 0.000000 
0.771260 0.348730 0.000000 
0.386873 -0.151659 0.000000 
0.761262 -0.068253 0.000000 
0.108942 0.213123 0.000000 
-0.397202 -0.267716 0.000000 
-0.142083 -0.928991 0.000000 
-0.595936 0.512234 0.000000 
0.978194 0.012368 0.000000 
-0.660903 -0.679257 0.000000 
0.724964 0.860223 0.000000 
0.899809 0.217974 0.000000 
0.685384 0.813286 0.000000 
0.287229 0.312128 0.000000 
0.702895 -0.387201 0.000000 
0.180633 -0.878720 0.000000 
0.445811 0.443121 0.000000 
-0.220880 0.000335 0.000000 
-0.071546 -0.630591 0.000000 
-0.033296 -0.885662 0.000000 
-0.417537 0.613829 0.000000 
0.039645 -0.088734 0.000000 
-0.441768 -0.588605 0.000000 
-0.109248 0.715944 0.000000 
-0.699407 0.239189 0.000000 
-0.474522 -0.428090 0.000000 
0.820030 -0.855084 0.000000 
0.957100 0.520844 0.000000 
0.610485 0.617753 0.000000 
-0.761092 -0.112628 0.000000 
-0.714655 -0.823365 0.000000 
-0.057734 0.971468 0.000000 
-0.178789 -0.874623 0.000000 
-0.067979 0.467950 0.000000 
0.677748 0.329747 0.000000 
0.641556 -0.455998 0.000000 
-0.765897 -0.714477 0.000000 
0.393446 0.353386 0.000000 
0.522510 -0.282344 0.000000 
-0.691820 -0.380889 0.000000 
-0.647393 0.888629 0.000000 
0.028512 0.681102 0.000000 
-0.053800 -0.136258 0.000000 
0.514316 -0.408389 0.000000 
0.965681 -0.418605 0.000000 
-0.897068 0.957366 0.000000 
-0.083078 0.890513 0.000000 
-0.006893 0.187988 0.000000 
0.724017 0.024355 0.000000 
0.714996 -0.752048 0.000000 
-0.642413 -0.985505 0.000000 
-0.760780 0.175514 0.000000 
-0.205471 -0.102301 0.000000 
0.000000 0.923055 0.000000 
-0.564049 0.224867 0.000000 
0.000000 -0.180569 0.000000 
0.564049 0.224867 0.000000 
0.866949 -0.530477 0.000000 
-0.569003 -0.850408 0.000000 
0.000000 -0.331120 0.000000 
0.569003 -0.850408 0.000000 
-0.866949 -0.530477 0.000000 
0.299194 0.699773 0.000000 
0.858290 0.408189 0.000000 
-0.577662 0.984635 0.000000 
0.000000 0.565257 0.000000 
0.577662 0.984635 0.000000 
-0.858290 0.408189 0.000000 
-0.299194 0.699773 0.000000 
-0.268560 -0.069977 0.000000 
0.286830 -0.347619 0.000000 
0.844677 0.271580 0.000000 
-0.578910 -0.104583 0.000000 
0.000000 0.386821 0.000000 
0.578910 -0.104583 0.000000 
-0.844677 0.271580 0.000000 
-0.286830 -0.347619 0.000000 
0.268560 -0.069977 0.000000 
-0.610485 0.617753 0.000000 
0.057734 0.971468 0.000000 
0.714655 -0.823365 0.000000 
0.761092 -0.112628 0.000000 
0.765897 -0.714477 0.000000 
-0.641556 -0.455998 0.000000 
-0.677748 0.329747 0.000000 
0.067979 0.467950 0.000000 
0.178789 -0.874623 0.000000 
-0.514316 -0.408389 0.000000 
0.053800 -0.136258 0.000000 
-0.028512 0.681102 0.000000 
0.647393 0.888629 0.000000 
0.691820 -0.380889 0.000000 
-0.522510 -0.282344 0.000000 
-0.393446 0.353386 0.000000 
0.205471 -0.102301 0.000000 
0.760780 0.175514 0.000000 
0.642413 -0.985505 0.000000 
-0.714996 -0.752048 0.000000 
-0.724017 0.024355 0.000000 
0.006894 0.187988 0.000000 
0.083078 0.890513 0.000000 
0.897068 0.957366 0.000000 
-0.965681 -0.418605 0.000000 
-0.761262 -0.068253 0.000000 
0.142083 -0.928991 0.000000 
0.397202 -0.267716 0.000000 
-0.108942 0.213123 0.000000 
-0.899809 0.217974 0.000000 
-0.724964 0.860223 0.000000 
0.660903 -0.679257 0.000000 
-0.978194 0.012368 0.000000 
0.595936 0.512234 0.000000 
0.071546 -0.630591 0.000000 
0.220880 0.000335 0.000000 
-0.445811 0.443121 0.000000 
-0.180633 -0.878720 0.000000 
-0.702895 -0.387201 0.000000 
-0.287229 0.312128 0.000000 
-0.685384 0.813286 0.000000 
-0.957100 0.520844 0.000000 
-0.820030 -0.855084 0.000000 
0.474522 -0.428090 0.000000 
0.699407 0.239189 0.000000 
0.109248 0.715944 0.000000 
0.441768 -0.588605 0.000000 
-0.039645 -0.088734 0.000000 
0.417537 0.613829 0.000000 
0.033296 -0.885662 0.000000 
-0.338794 -0.618388 0.000000 
-0.374519 -0.045425 0.000000 
-0.713312 0.574005 0.000000 
0.609100 0.462864 0.000000 
-0.381900 0.576803 0.000000 
-0.756418 -0.880805 0.000000 
0.513962 0.907709 0.000000 
0.218274 -0.368052 0.000000 
-0.423588 -0.402155 0.000000 
-0.384386 -0.787428 0.000000 
-0.766286 -0.272808 0.000000 
0.484677 -0.538023 0.000000 
0.139443 0.100102 0.000000 
-0.556234 -0.017467 0.000000 
-0.823577 0.756037 0.000000 
0.550868 0.745241 0.000000 
-0.386873 -0.151659 0.000000 
-0.771260 0.348730 0.000000 
0.467428 0.042202 0.000000 
0.105264 0.640828 0.000000 
-0.621631 0.458929 0.000000 
-0.937896 -0.837491 0.000000 
0.385608 -0.916686 0.000000 
0.141715 -0.107458 0.000000 
-0.474677 -0.107362 0.000000 
CELL_DATA 175 
SCALARS MASS float 
LOOKUP_TABLE default 
0.078183 
0.086427 
0.094672 
0.086427 
0.088131 
0.092111 
0.085854 
0.092111 
0.088131 
0.088705 
0.091000 
0.086983 
0.091556 
0.086983 
0.091000 
0.088705 
0.089278 
0.091574 
0.089278 
0.092722 
0.089278 
0.092722 
0.089278 
0.091574 
0.089278 
0.078183 
0.086427 
0.094672 
0.086427 
0.088131 
0.092111 
0.085854 
0.092111 
0.088131 
0.088705 
0.091000 
0.086983 
0.091556 
0.086983 
0.091000 
0.088705 
0.089278 
0.091574 
0.089278 
0.092722 
0.089278 
0.092722 
0.089278 
0.091574 
0.089278 
0.078183 
0.086427 
0.094672 
0.086427 
0.088131 
0.092111 
0.085854 
0.092111 
0.088131 
0.088705 
0.091000 
0.086983 
0.091556 
0.086983 
0.091000 
0.088705 
0.089278 
0.091574 
0.089278 
0.092722 
0.089278 
0.092722 
0.089278 
0.091574 
0.089278 
0.078183 
0.086427 
0.094672 
0.086427 
0.088131 
0.092111 
0.085854 
0.092111 
0.088131 
0.088705 
0.091000 
0.086983 
0.091556 
0.086983 
0.091000 
0.088705 
0.089278 
0.091574 
0.089278 
0.092722 
0.089278 
0.092722 
0.089278 
0.091574 
0.089278 
0.078183 
0.086427 
0.094672 
0.086427 
0.088131 
0.092111 
0.085854 
0.092111 
0.088131 
0.088705 
0.091000 
0.086983 
0.091556 
0.086983 
0.091000 
0.088705 
0.089278 
0.091574 
0.089278 
0.092722 
0.089278 
0.092722 
0.089278 
0.091574 
0.089278 
0.078183 
0.086427 
0.094672 
0.086427 
0.088131 
0.092111 
0.085854 
0.092111 
0.088131 
0.088705 
0.091000 
0.086983 
0.091556 
0.086983 
0.091000 
0.088705 
0.089278 
0.091574 
0.089278 
0.092722 
0.089278 
0.092722 
0.089278 
0.091574 
0.089278 
0.078183 
0.086427 
0.094672 
0.086427 
0.088131 
0.092111 
0.085854 
0.092111 
0.088131 
0.088705 
0.091000 
0.086983 
0.091556 
0.086983 
0.091000 
0.088705 
0.089278 
0.091574 
0.089278 
0.092722 
0.089278 
0.092722 
0.089278 
0.091574 
0.089278 
SCALARS MASS float 
LOOKUP_TABLE default 
0.078183 
0.086427 
0.094672 
0.086427 
0.088131 
0.092111 
0.085854 
0.092111 
0.088131 
0.088705 
0.091000 
0.086983 
0.091556 
0.086983 
0.091000 
0.088705 
0.089278 
0.091574 
0.089278 
0.092722 
0.089278 
0.092722 
0.089278 
0.091574 
0.089278 
0.078183 
0.086427 
0.094672 
0.086427 
0.088131 
0.092111 
0.085854 
0.092111 
0.088131 
0.088705 
0.091000 
0.086983 
0.091556 
0.086983 
0.091000 
0.088705 
0.089278 
0.091574 
0.089278 
0.092722 
0.089278 
0.092722 
0.089278 
0.091574 
0.089278 
0.078183 
0.086427 
0.094672 
0.086427 
0.088131 
0.092111 
0.085854 
0.092111 
0.088131 
0.088705 
0.091000 
0.086983 
0.091556 
0.086983 
0.091000 
0.088705 
0.089278 
0.091574 
0.089278 
0.092722 
0.089278 
0.092722 
0.089278 
0.091574 
0.089278 
0.078183 
0.086427 
0.094672 
0.086427 
0.088131 
0.092111 
0.085854 
0.092111 
0.088131 
0.088705 
0.091000 
0.086983 
0.091556 
0.086983 
0.091000 
0.088705 
0.089278 
0.091574 
0.089278 
0.092722 
0.089278 
0.092722 
0.089278 
0.091574 
0.089278 
0.078183 
0.086427 
0.094672 
0.086427 
0.088131 
0.092111 
0.085854 
0.092111 
0.088131 
0.088705 
0.091000 
0.086983 
0.091556 
0.086983 
0.091000 
0.088705 
0.089278 
0.091574 
0.089278 
0.092722 
0.089278 
0.092722 
0.089278 
0.091574 
0.089278 
0.078183 
0.086427 
0.094672 
0.086427 
0.088131 
0.092111 
0.085854 
0.092111 
0.088131 
0.088705 
0.091000 
0.086983 
0.091556 
0.086983 
0.091000 
0.088705 
0.089278 
0.091574 
0.089278 
0.092722 
0.089278 
0.092722 
0.089278 
0.091574 
0.089278 
0.078183 
0.086427 
0.094672 
0.086427 
0.088131 
0.092111 
0.085854 
0.092111 
0.088131 
0.088705 
0.091000 
0.086983 
0.091556 
0.086983 
0.091000 
0.088705 
0.089278 
0.091574 
0.089278 
0.092722 
0.089278 
0.092722 
0.089278 
0.091574 
0.089278 
SCALARS DENSITY float 
LOOKUP_TABLE default 
20.000000 
20.000000 
20.000000 
20.000000 
20.000000 
20.000000 
20.000000 
20.000000 
20.000000 
20.000000 
20.000000 
20.000000 
20.000000 
20.000000 
20.000000 
20.000000 
20.000000 
20.000000 
20.000000 
20.000000 
20.000000 
20.000000 
20.000000 
20.000000 
20.000000 
20.000000 
20.000000 
20.000000 
20.000000 
20.000000 
20.000000 
20.000000 
20.000000 
20.000000 
20.000000 
20.000000 
20.000000 
20.000000 
20.000000 
20.000000 
20.000000 
20.000000 
20.000000 
20.000000 
20.000000 
20.000000 
20.000000 
20.000000 
20.000000 
20.000000 
20.000000 
20.000000 
20.000000 
20.000000 
20.000000 
20.000000 
20.000000 
20.000000 
20.000000 
20.000000 
20.000000 
20.000000 
20.000000 
20.000000 
20.000000 
20.000000 
20.000000 
20.000000 
20.000000 
20.000000 
20.000000 
20.000000 
20.000000 
20.000000 
20.000000 
20.000000 
20.000000 
20.000000 
20.000000 
20.000000 
20.000000 
20.000000 
20.000000 
20.000000 
20.000000 
20.000000 
20.000000 
20.000000 
20.000000 
20.000000 
20.000000 
20.000000 
20.000000 
20.000000 
20.000000 
20.000000 
20.000000 
20.000000 
20.000000 
20.000000 
20.000000 
20.000000 
20.000000 
20.000000 
20.000000 
20.000000 
20.000000 
20.000000 
20.000000 
20.000000 
20.000000 
20.000000 
20.000000 
20.000000 
20.000000 
20.000000 
20.000000 
20.000000 
20.000000 
20.000000 
20.000000 
20.000000 
20.000000 
20.000000 
20.000000 
20.000000 
20.000000 
20.000000 
20.000000 
20.000000 
20.000000 
20.000000 
20.000000 
20.000000 
20.000000 
20.000000 
20.000000 
20.000000 
20.000000 
20.000000 
20.000000 
20.000000 
20.000000 
20.000000 
20.000000 
20.000000 
20.000000 
20.000000 
20.000000 
20.000000 
20.000000 
20.000000 
20.000000 
20.000000 
20.000000 
20.000000 
20.000000 
20.000000 
20.000000 
20.000000 
20.000000 
20.000000 
20.000000 
20.000000 
20.000000 
20.000000 
20.000000 
20.000000 
20.000000 
20.000000 
20.000000 
20.000000 
20.000000 
20.000000 
20.000000 
SCALARS ELEM_i float 
LOOKUP_TABLE default 
180 
208 
181 
181 
208 
208 
209 
181 
182 
236 
209 
209 
209 
209 
182 
182 
236 
236 
236 
209 
210 
210 
210 
183 
183 
180 
207 
207 
207 
234 
207 
234 
208 
208 
234 
234 
234 
234 
235 
235 
235 
260 
261 
261 
261 
262 
262 
262 
235 
236 
180 
206 
206 
207 
205 
206 
206 
206 
233 
205 
205 
232 
233 
233 
233 
233 
204 
232 
232 
232 
232 
232 
259 
260 
260 
180 
179 
179 
179 
151 
178 
178 
178 
205 
151 
151 
178 
178 
178 
205 
205 
150 
150 
150 
177 
177 
177 
204 
204 
204 
180 
153 
152 
152 
125 
152 
152 
152 
151 
125 
125 
125 
125 
124 
151 
151 
98 
98 
97 
124 
124 
124 
124 
124 
150 
180 
153 
153 
153 
154 
154 
126 
153 
126 
127 
127 
127 
126 
126 
126 
126 
128 
127 
100 
100 
100 
99 
99 
99 
98 
180 
181 
181 
154 
182 
181 
155 
154 
154 
182 
182 
155 
155 
155 
155 
128 
183 
183 
156 
156 
156 
155 
128 
128 
128 
VECTORS VELOCITY float 
0.000000 -2.290831 0.000000 
-0.000000 -2.290831 0.000000 
0.000000 -2.290831 0.000000 
0.000000 -2.290831 0.000000 
-0.000000 -2.290831 0.000000 
-0.000000 -2.290831 0.000000 
-0.000000 -2.290831 0.000000 
-0.000000 -2.290831 0.000000 
-0.000000 -2.290831 0.000000 
-0.000000 -2.290831 0.000000 
-0.000000 -2.290831 0.000000 
-0.000000 -2.290831 0.000000 
-0.000000 -2.290831 0.000000 
-0.000000 -2.290831 0.000000 
0.000000 -2.290831 0.000000 
-0.000000 -2.290831 0.000000 
-0.000000 -2.290831 0.000000 
-0.000000 -2.290831 0.000000 
0.000000 -2.290831 0.000000 
-0.000000 -2.290831 0.000000 
0.000000 -2.290831 0.000000 
-0.000000 -2.290831 0.000000 
-0.000000 -2.290831 0.000000 
-0.000000 -2.290831 0.000000 
-0.000000 -2.290831 0.000000 
0.000000 -2.290831 0.000000 
0.000000 -2.290831 0.000000 
0.000000 -2.290831 0.000000 
0.000000 -2.290831 0.000000 
0.000000 -2.290831 0.000000 
-0.000000 -2.290831 0.000000 
-0.000000 -2.290831 0.000000 
-0.000000 -2.290831 0.000000 
-0.000000 -2.290831 0.000000 
0.000000 -2.290831 0.000000 
0.000000 -2.290831 0.000000 
0.000000 -2.290831 0.000000 
-0.000000 -2.290831 0.000000 
0.000000 -2.290831 0.000000 
-0.000000 -2.290831 0.000000 
-0.000000 -2.290831 0.000000 
-0.000000 -2.290831 0.000000 
0.000000 -2.290831 0.000000 
0.000000 -2.290831 0.000000 
0.000000 -2.290831 0.000000 
0.000000 -2.290831 0.000000 
0.000000 -2.290831 0.000000 
0.000000 -2.290831 0.000000 
-0.000000 -2.290831 0.000000 
-0.000000 -2.290831 0.000000 
0.000000 -2.290831 0.000000 
0.000000 -2.290831 0.000000 
0.000000 -2.290831 0.000000 
0.000000 -2.290831 0.000000 
0.000000 -2.290831 0.000000 
0.000000 -2.290831 0.000000 
0.000000 -2.290831 0.000000 
0.000000 -2.290831 0.000000 
0.000000 -2.290831 0.000000 
0.000000 -2.290831 0.000000 
0.000000 -2.290831 0.000000 
0.000000 -2.290831 0.000000 
0.000000 -2.290831 0.000000 
0.000000 -2.290831 0.000000 
0.000000 -2.290831 0.000000 
0.000000 -2.290831 0.000000 
0.000000 -2.290831 0.000000 
0.000000 -2.290831 0.000000 
0.000000 -2.290831 0.000000 
-0.000000 -2.290831 0.000000 
-0.000000 -2.290831 0.000000 
-0.000000 -2.290831 0.000000 
-0.000000 -2.290831 0.000000 
-0.000000 -2.290831 0.000000 
-0.000000 -2.290831 0.000000 
-0.000000 -2.290831 0.000000 
-0.000000 -2.290831 0.000000 
-0.000000 -2.290831 0.000000 
0.000000 -2.290831 0.000000 
-0.000000 -2.290831 0.000000 
0.000000 -2.290831 0.000000 
0.000000 -2.290831 0.000000 
0.000000 -2.290831 0.000000 
0.000000 -2.290831 0.000000 
-0.000000 -2.290831 0.000000 
-0.000000 -2.290831 0.000000 
-0.000000 -2.290831 0.000000 
-0.000000 -2.290831 0.000000 
-0.000000 -2.290831 0.000000 
0.000000 -2.290831 0.000000 
0.000000 -2.290831 0.000000 
-0.000000 -2.290831 0.000000 
-0.000000 -2.290831 0.000000 
-0.000000 -2.290831 0.000000 
-0.000000 -2.290831 0.000000 
-0.000000 -2.290831 0.000000 
-0.000000 -2.290831 0.000000 
-0.000000 -2.290831 0.000000 
-0.000000 -2.290831 0.000000 
-0.000000 -2.290831 0.000000 
-0.000000 -2.290831 0.000000 
0.000000 -2.290831 0.000000 
-0.000000 -2.290831 0.000000 
-0.000000 -2.290831 0.000000 
0.000000 -2.290831 0.000000 
0.000000 -2.290831 0.000000 
-0.000000 -2.290831 0.000000 
-0.000000 -2.290831 0.000000 
-0.000000 -2.290831 0.000000 
0.000000 -2.290831 0.000000 
0.000000 -2.290831 0.000000 
-0.000000 -2.290831 0.000000 
-0.000000 -2.290831 0.000000 
-0.000000 -2.290831 0.000000 
-0.000000 -2.290831 0.000000 
-0.000000 -2.290831 0.000000 
0.000000 -2.290831 0.000000 
-0.000000 -2.290831 0.000000 
0.000000 -2.290831 0.000000 
-0.000000 -2.290831 0.000000 
-0.000000 -2.290831 0.000000 
-0.000000 -2.290831 0.000000 
0.000000 -2.290831 0.000000 
0.000000 -2.290831 0.000000 
-0.000000 -2.290831 0.000000 
0.000000 -2.290831 0.000000 
0.000000 -2.290831 0.000000 
0.000000 -2.290831 0.000000 
0.000000 -2.290831 0.000000 
0.000000 -2.290831 0.000000 
-0.000000 -2.290831 0.000000 
-0.000000 -2.290831 0.000000 
0.000000 -2.290831 0.000000 
0.000000 -2.290831 0.000000 
0.000000 -2.290831 0.000000 
0.000000 -2.290831 0.000000 
0.000000 -2.290831 0.000000 
-0.000000 -2.290831 0.000000 
-0.000000 -2.290831 0.000000 
-0.000000 -2.290831 0.000000 
-0.000000 -2.290831 0.000000 
0.000000 -2.290831 0.000000 
0.000000 -2.290831 0.000000 
0.000000 -2.290831 0.000000 
-0.000000 -2.290831 0.000000 
-0.000000 -2.290831 0.000000 
-0.000000 -2.290831 0.000000 
0.000000 -2.290831 0.000000 
-0.000000 -2.290831 0.000000 
-0.000000 -2.290831 0.000000 
0.000000 -2.290831 0.000000 
0.000000 -2.290831 0.000000 
0.000000 -2.290831 0.000000 
0.000000 -2.290831 0.000000 
-0.000000 -2.290831 0.000000 
-0.000000 -2.290831 0.000000 
-0.000000 -2.290831 0.000000 
0.000000 -2.290831 0.000000 
0.000000 -2.290831 0.000000 
-0.000000 -2.290831 0.000000 
-0.000000 -2.290831 0.000000 
-0.000000 -2.290831 0.000000 
-0.000000 -2.290831 0.000000 
-0.000000 -2.290831 0.000000 
-0.000000 -2.290831 0.000000 
-0.000000 -2.290831 0.000000 
0.000000 -2.290831 0.000000 
-0.000000 -2.290831 0.000000 
0.000000 -2.290831 0.000000 
0.000000 -2.290831 0.000000 
0.000000 -2.290831 0.000000 
0.000000 -2.290831 0.000000 
0.000000 -2.290831 0.000000 
-0.000000 -2.290831 0.000000 
-0.000000 -2.290831 0.000000 
TENSORS STRESS float 
0.000000 0.000000 0.000000 
0.000000 0.000000 0.000000 
0.000000 0.000000 0.000000 

0.000000 -0.000000 0.000000 
0.000000 0.000000 0.000000 
0.000000 0.000000 0.000000 

0.000000 0.000000 0.000000 
0.000000 0.000000 0.000000 
0.000000 0.000000 0.000000 

0.000000 0.000000 0.000000 
0.000000 0.000000 0.000000 
0.000000 0.000000 0.000000 

-0.000000 0.000000 0.000000 
0.000000 -0.000000 0.000000 
0.000000 0.000000 0.000000 

-0.000000 0.000000 0.000000 
0.000000 0.000000 0.000000 
0.000000 0.000000 0.000000 

-0.000000 0.000000 0.000000 
0.000000 -0.000000 0.000000 
0.000000 0.000000 0.000000 

0.000000 -0.000000 0.000000 
0.000000 0.000000 0.000000 
0.000000 0.000000 0.000000 

0.000000 -0.000000 0.000000 
0.000000 -0.000000 0.000000 
0.000000 0.000000 0.000000 

-0.000000 -0.000000 0.000000 
0.000000 0.000000 0.000000 
0.000000 0.000000 0.000000 

0.000000 -0.000000 0.000000 
0.000000 0.000000 0.000000 
0.000000 0.000000 0.000000 

0.000000 -0.000000 0.000000 
0.000000 0.000000 0.000000 
0.000000 0.000000 0.000000 

-0.000000 -0.000000 0.000000 
0.000000 -0.000000 0.000000 
0.000000 0.000000 0.000000 

0.000000 -0.000000 0.000000 
0.000000 -0.000000 0.000000 
0.000000 0.000000 0.000000 

0.000000 0.000000 0.000000 
0.000000 -0.000000 0.000000 
0.000000 0.000000 0.000000 

0.000000 0.000000 0.000000 
0.000000 -0.000000 0.000000 
0.000000 0.000000 0.000000 

-0.000000 0.000000 0.000000 
0.000000 0.000000 0.000000 
0.000000 0.000000 0.000000 

-0.000000 0.000000 0.000000 
0.000000 0.000000 0.000000 
0.000000 0.000000 0.000000 

-0.000000 0.000000 0.000000 
0.000000 0.000000 0.000000 
0.000000 0.000000 0.000000 

0.000000 0.000000 0.000000 
0.000000 0.000000 0.000000 
0.000000 0.000000 0.000000 

-0.000000 0.000000 0.000000 
0.000000 -0.000000 0.000000 
0.000000 0.000000 0.000000 

-0.000000 0.000000 0.000000 
0.000000 -0.000000 0.000000 
0.000000 0.000000 0.000000 

-0.000000 0.000000 0.000000 
0.000000 0.000000 0.000000 
0.000000 0.000000 0.000000 

-0.000000 0.000000 0.000000 
0.000000 -0.000000 0.000000 
0.000000 0.000000 0.000000 

-0.000000 0.000000 0.000000 
0.000000 0.000000 0.000000 
0.000000 0.000000 0.000000 

0.000000 0.000000 0.000000 
0.000000 -0.000000 0.000000 
0.000000 0.000000 0.000000 

0.000000 -0.000000 0.000000 
0.000000 0.000000 0.000000 
0.000000 0.000000 0.000000 

0.000000 -0.000000 0.000000 
0.000000 0.000000 0.000000 
0.000000 0.000000 0.000000 

0.000000 -0.000000 0.000000 
0.000000 0.000000 0.000000 
0.000000 0.000000 0.000000 

-0.000000 -0.000000 0.000000 
0.000000 0.000000 0.000000 
0.000000 0.000000 0.000000 

0.000000 -0.000000 0.000000 
0.000000 0.000000 0.000000 
0.000000 0.000000 0.000000 

-0.000000 -0.000000 0.000000 
0.000000 0.000000 0.000000 
0.000000 0.000000 0.000000 

0.000000 -0.000000 0.000000 
0.000000 -0.000000 0.000000 
0.000000 0.000000 0.000000 

-0.000000 -0.000000 0.000000 
0.000000 -0.000000 0.000000 
0.000000 0.000000 0.000000 

0.000000 -0.000000 0.000000 
0.000000 0.000000 0.000000 
0.000000 0.000000 0.000000 

-0.000000 -0.000000 0.000000 
0.000000 0.000000 0.000000 
0.000000 0.000000 0.000000 

-0.000000 -0.000000 0.000000 
0.000000 0.000000 0.000000 
0.000000 0.000000 0.000000 

-0.000000 0.000000 0.000000 
0.000000 0.000000 0.000000 
0.000000 0.000000 0.000000 

-0.000000 0.000000 0.000000 
0.000000 -0.000000 0.000000 
0.000000 0.000000 0.000000 

-0.000000 0.000000 0.000000 
0.000000 -0.000000 0.000000 
0.000000 0.000000 0.000000 

-0.000000 -0.000000 0.000000 
0.000000 -0.000000 0.000000 
0.000000 0.000000 0.000000 

-0.000000 -0.000000 0.000000 
0.000000 -0.000000 0.000000 
0.000000 0.000000 0.000000 

0.000000 0.000000 0.000000 
0.000000 0.000000 0.000000 
0.000000 0.000000 0.000000 

-0.000000 0.000000 0.000000 
0.000000 0.000000 0.000000 
0.000000 0.000000 0.000000 

0.000000 0.000000 0.000000 
0.000000 0.000000 0.000000 
0.000000 0.000000 0.000000 

-0.000000 -0.000000 0.000000 
0.000000 -0.000000 0.000000 
0.000000 0.000000 0.000000 

-0.000000 0.000000 0.000000 
0.000000 0.000000 0.000000 
0.000000 0.000000 0.000000 

-0.000000 0.000000 0.000000 
0.000000 0.000000 0.000000 
0.000000 0.000000 0.000000 

0.000000 0.000000 0.000000 
0.000000 0.000000 0.000000 
0.000000 0.000000 0.000000 

-0.000000 -0.000000 0.000000 
0.000000 0.000000 0.000000 
0.000000 0.000000 0.000000 

0.000000 -0.000000 0.000000 
0.000000 0.000000 0.000000 
0.000000 0.000000 0.000000 

-0.000000 -0.000000 0.000000 
0.000000 -0.000000 0.000000 
0.000000 0.000000 0.000000 

-0.000000 0.000000 0.000000 
0.000000 -0.000000 0.000000 
0.000000 0.000000 0.000000 

0.000000 -0.000000 0.000000 
0.000000 0.000000 0.000000 
0.000000 0.000000 0.000000 

-0.000000 -0.000000 0.000000 
0.000000 -0.000000 0.000000 
0.000000 0.000000 0.000000 

-0.000000 -0.000000 0.000000 
0.000000 -0.000000 0.000000 
0.000000 0.000000 0.000000 

-0.000000 -0.000000 0.000000 
0.000000 0.000000 0.000000 
0.000000 0.000000 0.000000 

-0.000000 -0.000000 0.000000 
0.000000 -0.000000 0.000000 
0.000000 0.000000 0.000000 

0.000000 0.000000 0.000000 
0.000000 0.000000 0.000000 
0.000000 0.000000 0.000000 

0.000000 0.000000 0.000000 
0.000000 0.000000 0.000000 
0.000000 0.000000 0.000000 

0.000000 -0.000000 0.000000 
0.000000 0.000000 0.000000 
0.000000 0.000000 0.000000 

0.000000 -0.000000 0.000000 
0.000000 0.000000 0.000000 
0.000000 0.000000 0.000000 

0.000000 0.000000 0.000000 
0.000000 0.000000 0.000000 
0.000000 0.000000 0.000000 

0.000000 -0.000000 0.000000 
0.000000 -0.000000 0.000000 
0.000000 0.000000 0.000000 

0.000000 -0.000000 0.000000 
0.000000 0.000000 0.000000 
0.000000 0.000000 0.000000 

0.000000 0.000000 0.000000 
0.000000 0.000000 0.000000 
0.000000 0.000000 0.000000 

0.000000 0.000000 0.000000 
0.000000 0.000000 0.000000 
0.000000 0.000000 0.000000 

-0.000000 -0.000000 0.000000 
0.000000 -0.000000 0.000000 
0.000000 0.000000 0.000000 

-0.000000 -0.000000 0.000000 
0.000000 -0.000000 0.000000 
0.000000 0.000000 0.000000 

0.000000 -0.000000 0.000000 
0.000000 -0.000000 0.000000 
0.000000 0.000000 0.000000 

-0.000000 -0.000000 0.000000 
0.000000 -0.000000 0.000000 
0.000000 0.000000 0.000000 

-0.000000 0.000000 0.000000 
0.000000 -0.000000 0.000000 
0.000000 0.000000 0.000000 

0.000000 0.000000 0.000000 
0.000000 -0.000000 0.000000 
0.000000 0.000000 0.000000 

0.000000 -0.000000 0.000000 
0.000000 -0.000000 0.000000 
0.000000 0.000000 0.000000 

0.000000 0.000000 0.000000 
0.000000 0.000000 0.000000 
0.000000 0.000000 0.000000 

0.000000 -0.000000 0.000000 
0.000000 0.000000 0.000000 
0.000000 0.000000 0.000000 

0.000000 -0.000000 0.000000 
0.000000 0.000000 0.000000 
0.000000 0.000000 0.000000 

0.000000 0.000000 0.000000 
0.000000 0.000000 0.000000 
0.000000 0.000000 0.000000 

0.000000 0.000000 0.000000 
0.000000 0.000000 0.000000 
0.000000 0.000000 0.000000 

-0.000000 -0.000000 0.000000 
0.000000 -0.000000 0.000000 
0.000000 0.000000 0.000000 

0.000000 -0.000000 0.000000 
0.000000 0.000000 0.000000 
0.000000 0.000000 0.000000 

0.000000 -0.000000 0.000000 
0.000000 -0.000000 0.000000 
0.000000 0.000000 0.000000 

0.000000 -0.000000 0.000000 
0.000000 -0.000000 0.000000 
0.000000 0.000000 0.000000 

0.000000 -0.000000 0.000000 
0.000000 0.000000 0.000000 
0.000000 0.000000 0.000000 

-0.000000 0.000000 0.000000 
0.000000 -0.000000 0.000000 
0.000000 0.000000 0.000000 

-0.000000 -0.000000 0.000000 
0.000000 0.000000 0.000000 
0.000000 0.000000 0.000000 

-0.000000 -0.000000 0.000000 
0.000000 0.000000 0.000000 
0.000000 0.000000 0.000000 

-0.000000 -0.000000 0.000000 
0.000000 -0.000000 0.000000 
0.000000 0.000000 0.000000 

-0.000000 -0.000000 0.000000 
0.000000 -0.000000 0.000000 
0.000000 0.000000 0.000000 

0.000000 0.000000 0.000000 
0.000000 0.000000 0.000000 
0.000000 0.000000 0.000000 

-0.000000 -0.000000 0.000000 
0.000000 -0.000000 0.000000 
0.000000 0.000000 0.000000 

-0.000000 0.000000 0.000000 
0.000000 -0.000000 0.000000 
0.000000 0.000000 0.000000 

-0.000000 0.000000 0.000000 
0.000000 -0.000000 0.000000 
0.000000 0.000000 0.000000 

-0.000000 0.000000 0.000000 
0.000000 -0.000000 0.000000 
0.000000 0.000000 0.000000 

-0.000000 -0.000000 0.000000 
0.000000 -0.000000 0.000000 
0.000000 0.000000 0.000000 

-0.000000 -0.000000 0.000000 
0.000000 0.000000 0.000000 
0.000000 0.000000 0.000000 

-0.000000 -0.000000 0.000000 
0.000000 -0.000000 0.000000 
0.000000 0.000000 0.000000 

-0.000000 0.000000 0.000000 
0.000000 -0.000000 0.000000 
0.000000 0.000000 0.000000 

-0.000000 0.000000 0.000000 
0.000000 -0.000000 0.000000 
0.000000 0.000000 0.000000 

-0.000000 0.000000 0.000000 
0.000000 -0.000000 0.000000 
0.000000 0.000000 0.000000 

0.000000 -0.000000 0.000000 
0.000000 0.000000 0.000000 
0.000000 0.000000 0.000000 

-0.000000 -0.000000 0.000000 
0.000000 -0.000000 0.000000 
0.000000 0.000000 0.000000 

-0.000000 -0.000000 0.000000 
0.000000 -0.000000 0.000000 
0.000000 0.000000 0.000000 

0.000000 0.000000 0.000000 
0.000000 0.000000 0.000000 
0.000000 0.000000 0.000000 

0.000000 -0.000000 0.000000 
0.000000 0.000000 0.000000 
0.000000 0.000000 0.000000 

0.000000 -0.000000 0.000000 
0.000000 0.000000 0.000000 
0.000000 0.000000 0.000000 

0.000000 -0.000000 0.000000 
0.000000 0.000000 0.000000 
0.000000 0.000000 0.000000 

0.000000 -0.000000 0.000000 
0.000000 0.000000 0.000000 
0.000000 0.000000 0.000000 

0.000000 0.000000 0.000000 
0.000000 0.000000 0.000000 
0.000000 0.000000 0.000000 

0.000000 0.000000 0.000000 
0.000000 0.000000 0.000000 
0.000000 0.000000 0.000000 

0.000000 -0.000000 0.000000 
0.000000 0.000000 0.000000 
0.000000 0.000000 0.000000 

-0.000000 0.000000 0.000000 
0.000000 0.000000 0.000000 
0.000000 0.000000 0.000000 

-0.000000 -0.000000 0.000000 
0.000000 -0.000000 0.000000 
0.000000 0.000000 0.000000 

-0.000000 0.000000 0.000000 
0.000000 -0.000000 0.000000 
0.000000 0.000000 0.000000 

0.000000 0.000000 0.000000 
0.000000 0.000000 0.000000 
0.000000 0.000000 0.000000 

-0.000000 0.000000 0.000000 
0.000000 -0.000000 0.000000 
0.000000 0.000000 0.000000 

0.000000 0.000000 0.000000 
0.000000 0.000000 0.000000 
0.000000 0.000000 0.000000 

0.000000 0.000000 0.000000 
0.000000 0.000000 0.000000 
0.000000 0.000000 0.000000 

0.000000 0.000000 0.000000 
0.000000 0.000000 0.000000 
0.000000 0.000000 0.000000 

-0.000000 -0.000000 0.000000 
0.000000 -0.000000 0.000000 
0.000000 0.000000 0.000000 

0.000000 -0.000000 0.000000 
0.000000 0.000000 0.000000 
0.000000 0.000000 0.000000 

0.000000 0.000000 0.000000 
0.000000 0.000000 0.000000 
0.000000 0.000000 0.000000 

0.000000 -0.000000 0.000000 
0.000000 0.000000 0.000000 
0.000000 0.000000 0.000000 

-0.000000 -0.000000 0.000000 
0.000000 -0.000000 0.000000 
0.000000 0.000000 0.000000 

-0.000000 0.000000 0.000000 
0.000000 0.000000 0.000000 
0.000000 0.000000 0.000000 

0.000000 -0.000000 0.000000 
0.000000 0.000000 0.000000 
0.000000 0.000000 0.000000 

0.000000 -0.000000 0.000000 
0.000000 0.000000 0.000000 
0.000000 0.000000 0.000000 

0.000000 -0.000000 0.000000 
0.000000 0.000000 0.000000 
0.000000 0.000000 0.000000 

0.000000 -0.000000 0.000000 
0.000000 0.000000 0.000000 
0.000000 0.000000 0.000000 

-0.000000 -0.000000 0.000000 
0.000000 -0.000000 0.000000 
0.000000 0.000000 0.000000 

0.000000 -0.000000 0.000000 
0.000000 -0.000000 0.000000 
0.000000 0.000000 0.000000 

0.000000 0.000000 0.000000 
0.000000 -0.000000 0.000000 
0.000000 0.000000 0.000000 

0.000000 -0.000000 0.000000 
0.000000 0.000000 0.000000 
0.000000 0.000000 0.000000 

0.000000 -0.000000 0.000000 
0.000000 0.000000 0.000000 
0.000000 0.000000 0.000000 

-0.000000 -0.000000 0.000000 
0.000000 -0.000000 0.000000 
0.000000 0.000000 0.000000 

0.000000 0.000000 0.000000 
0.000000 -0.000000 0.000000 
0.000000 0.000000 0.000000 

0.000000 -0.000000 0.000000 
0.000000 -0.000000 0.000000 
0.000000 0.000000 0.000000 

0.000000 -0.000000 0.000000 
0.000000 -0.000000 0.000000 
0.000000 0.000000 0.000000 

0.000000 0.000000 0.000000 
0.000000 0.000000 0.000000 
0.000000 0.000000 0.000000 

0.000000 -0.000000 0.000000 
0.000000 -0.000000 0.000000 
0.000000 0.000000 0.000000 

0.000000 -0.000000 0.000000 
0.000000 -0.000000 0.000000 
0.000000 0.000000 0.000000 

0.000000 0.000000 0.000000 
0.000000 0.000000 0.000000 
0.000000 0.000000 0.000000 

-0.000000 0.000000 0.000000 
0.000000 -0.000000 0.000000 
0.000000 0.000000 0.000000 

0.000000 0.000000 0.000000 
0.000000 -0.000000 0.000000 
0.000000 0.000000 0.000000 

0.000000 -0.000000 0.000000 
0.000000 0.000000 0.000000 
0.000000 0.000000 0.000000 

-0.000000 0.000000 0.000000 
0.000000 0.000000 0.000000 
0.000000 0.000000 0.000000 

-0.000000 0.000000 0.000000 
0.000000 -0.000000 0.000000 
0.000000 0.000000 0.000000 

-0.000000 -0.000000 0.000000 
0.000000 -0.000000 0.000000 
0.000000 0.000000 0.000000 

-0.000000 -0.000000 0.000000 
0.000000 -0.000000 0.000000 
0.000000 0.000000 0.000000 

-0.000000 -0.000000 0.000000 
0.000000 0.000000 0.000000 
0.000000 0.000000 0.000000 

0.000000 -0.000000 0.000000 
0.000000 0.000000 0.000000 
0.000000 0.000000 0.000000 

0.000000 0.000000 0.000000 
0.000000 -0.000000 0.000000 
0.000000 0.000000 0.000000 

0.000000 0.000000 0.000000 
0.000000 -0.000000 0.000000 
0.000000 0.000000 0.000000 

-0.000000 -0.000000 0.000000 
0.000000 -0.000000 0.000000 
0.000000 0.000000 0.000000 

0.000000 -0.000000 0.000000 
0.000000 0.000000 0.000000 
0.000000 0.000000 0.000000 

0.000000 0.000000 0.000000 
0.000000 0.000000 0.000000 
0.000000 0.000000 0.000000 

0.000000 -0.000000 0.000000 
0.000000 -0.000000 0.000000 
0.000000 0.000000 0.000000 

0.000000 -0.000000 0.000000 
0.000000 -0.000000 0.000000 
0.000000 0.000000 0.000000 

0.000000 -0.000000 0.000000 
0.000000 0.000000 0.000000 
0.000000 0.000000 0.000000 

0.000000 0.000000 0.000000 
0.000000 -0.000000 0.000000 
0.000000 0.000000 0.000000 

0.000000 0.000000 0.000000 
0.000000 0.000000 0.000000 
0.000000 0.000000 0.000000 

-0.000000 -0.000000 0.000000 
0.000000 -0.000000 0.000000 
0.000000 0.000000 0.000000 

-0.000000 -0.000000 0.000000 
0.000000 -0.000000 0.000000 
0.000000 0.000000 0.000000 

-0.000000 0.000000 0.000000 
0.000000 -0.000000 0.000000 
0.000000 0.000000 0.000000 

0.000000 -0.000000 0.000000 
0.000000 -0.000000 0.000000 
0.000000 0.000000 0.000000 

-0.000000 -0.000000 0.000000 
0.000000 -0.000000 0.000000 
0.000000 0.000000 0.000000 

-0.000000 0.000000 0.000000 
0.000000 -0.000000 0.000000 
0.000000 0.000000 0.000000 

-0.000000 0.000000 0.000000 
0.000000 -0.000000 0.000000 
0.000000 0.000000 0.000000 

-0.000000 0.000000 0.000000 
0.000000 -0.000000 0.000000 
0.000000 0.000000 0.000000 

-0.000000 0.000000 0.000000 
0.000000 -0.000000 0.000000 
0.000000 0.000000 0.000000 

-0.000000 0.000000 0.000000 
0.000000 -0.000000 0.000000 
0.000000 0.000000 0.000000 

-0.000000 -0.000000 0.000000 
0.000000 -0.000000 0.000000 
0.000000 0.000000 0.000000 

-0.000000 0.000000 0.000000 
0.000000 -0.000000 0.000000 
0.000000 0.000000 0.000000 

-0.000000 -0.000000 0.000000 
0.000000 -0.000000 0.000000 
0.000000 0.000000 0.000000 

0.000000 0.000000 0.000000 
0.000000 0.000000 0.000000 
0.000000 0.000000 0.000000 

TENSORS STRAIN float 
0.000000 0.000000 0.000000 
0.000000 0.000000 0.000000 
0.000000 0.000000 0.000000 

-0.000000 -0.000000 0.000000 
0.000000 0.000000 0.000000 
0.000000 0.000000 0.000000 

0.000000 0.000000 0.000000 
0.000000 0.000000 0.000000 
0.000000 0.000000 0.000000 

0.000000 0.000000 0.000000 
0.000000 0.000000 0.000000 
0.000000 0.000000 0.000000 

-0.000000 0.000000 0.000000 
0.000000 -0.000000 0.000000 
0.000000 0.000000 0.000000 

-0.000000 0.000000 0.000000 
0.000000 0.000000 0.000000 
0.000000 0.000000 0.000000 

-0.000000 0.000000 0.000000 
0.000000 -0.000000 0.000000 
0.000000 0.000000 0.000000 

0.000000 -0.000000 0.000000 
0.000000 0.000000 0.000000 
0.000000 0.000000 0.000000 

0.000000 -0.000000 0.000000 
0.000000 -0.000000 0.000000 
0.000000 0.000000 0.000000 

-0.000000 -0.000000 0.000000 
0.000000 0.000000 0.000000 
0.000000 0.000000 0.000000 

0.000000 -0.000000 0.000000 
0.000000 0.000000 0.000000 
0.000000 0.000000 0.000000 

0.000000 -0.000000 0.000000 
0.000000 0.000000 0.000000 
0.000000 0.000000 0.000000 

0.000000 -0.000000 0.000000 
0.000000 -0.000000 0.000000 
0.000000 0.000000 0.000000 

0.000000 -0.000000 0.000000 
0.000000 -0.000000 0.000000 
0.000000 0.000000 0.000000 

0.000000 0.000000 0.000000 
0.000000 -0.000000 0.000000 
0.000000 0.000000 0.000000 

0.000000 0.000000 0.000000 
0.000000 -0.000000 0.000000 
0.000000 0.000000 0.000000 

-0.000000 0.000000 0.000000 
0.000000 0.000000 0.000000 
0.000000 0.000000 0.000000 

-0.000000 0.000000 0.000000 
0.000000 0.000000 0.000000 
0.000000 0.000000 0.000000 

-0.000000 0.000000 0.000000 
0.000000 0.000000 0.000000 
0.000000 0.000000 0.000000 

0.000000 0.000000 0.000000 
0.000000 0.000000 0.000000 
0.000000 0.000000 0.000000 

-0.000000 0.000000 0.000000 
0.000000 -0.000000 0.000000 
0.000000 0.000000 0.000000 

-0.000000 0.000000 0.000000 
0.000000 -0.000000 0.000000 
0.000000 0.000000 0.000000 

-0.000000 0.000000 0.000000 
0.000000 0.000000 0.000000 
0.000000 0.000000 0.000000 

0.000000 0.000000 0.000000 
0.000000 -0.000000 0.000000 
0.000000 0.000000 0.000000 

-0.000000 0.000000 0.000000 
0.000000 0.000000 0.000000 
0.000000 0.000000 0.000000 

0.000000 0.000000 0.000000 
0.000000 -0.000000 0.000000 
0.000000 0.000000 0.000000 

0.000000 -0.000000 0.000000 
0.000000 0.000000 0.000000 
0.000000 0.000000 0.000000 

0.000000 -0.000000 0.000000 
0.000000 0.000000 0.000000 
0.000000 0.000000 0.000000 

0.000000 -0.000000 0.000000 
0.000000 0.000000 0.000000 
0.000000 0.000000 0.000000 

-0.000000 -0.000000 0.000000 
0.000000 0.000000 0.000000 
0.000000 0.000000 0.000000 

0.000000 -0.000000 0.000000 
0.000000 0.000000 0.000000 
0.000000 0.000000 0.000000 

-0.000000 -0.000000 0.000000 
0.000000 0.000000 0.000000 
0.000000 0.000000 0.000000 

0.000000 -0.000000 0.000000 
0.000000 -0.000000 0.000000 
0.000000 0.000000 0.000000 

-0.000000 -0.000000 0.000000 
0.000000 -0.000000 0.000000 
0.000000 0.000000 0.000000 

-0.000000 -0.000000 0.000000 
0.000000 0.000000 0.000000 
0.000000 0.000000 0.000000 

-0.000000 -0.000000 0.000000 
0.000000 0.000000 0.000000 
0.000000 0.000000 0.000000 

-0.000000 -0.000000 0.000000 
0.000000 0.000000 0.000000 
0.000000 0.000000 0.000000 

-0.000000 0.000000 0.000000 
0.000000 0.000000 0.000000 
0.000000 0.000000 0.000000 

-0.000000 0.000000 0.000000 
0.000000 -0.000000 0.000000 
0.000000 0.000000 0.000000 

-0.000000 0.000000 0.000000 
0.000000 -0.000000 0.000000 
0.000000 0.000000 0.000000 

-0.000000 -0.000000 0.000000 
0.000000 -0.000000 0.000000 
0.000000 0.000000 0.000000 

0.000000 -0.000000 0.000000 
0.000000 -0.000000 0.000000 
0.000000 0.000000 0.000000 

-0.000000 0.000000 0.000000 
0.000000 0.000000 0.000000 
0.000000 0.000000 0.000000 

-0.000000 0.000000 0.000000 
0.000000 0.000000 0.000000 
0.000000 0.000000 0.000000 

-0.000000 0.000000 0.000000 
0.000000 0.000000 0.000000 
0.000000 0.000000 0.000000 

-0.000000 -0.000000 0.000000 
0.000000 0.000000 0.000000 
0.000000 0.000000 0.000000 

-0.000000 0.000000 0.000000 
0.000000 0.000000 0.000000 
0.000000 0.000000 0.000000 

-0.000000 0.000000 0.000000 
0.000000 0.000000 0.000000 
0.000000 0.000000 0.000000 

0.000000 0.000000 0.000000 
0.000000 0.000000 0.000000 
0.000000 0.000000 0.000000 

-0.000000 -0.000000 0.000000 
0.000000 0.000000 0.000000 
0.000000 0.000000 0.000000 

0.000000 -0.000000 0.000000 
0.000000 0.000000 0.000000 
0.000000 0.000000 0.000000 

-0.000000 -0.000000 0.000000 
0.000000 -0.000000 0.000000 
0.000000 0.000000 0.000000 

-0.000000 0.000000 0.000000 
0.000000 0.000000 0.000000 
0.000000 0.000000 0.000000 

-0.000000 -0.000000 0.000000 
0.000000 0.000000 0.000000 
0.000000 0.000000 0.000000 

-0.000000 -0.000000 0.000000 
0.000000 -0.000000 0.000000 
0.000000 0.000000 0.000000 

-0.000000 -0.000000 0.000000 
0.000000 -0.000000 0.000000 
0.000000 0.000000 0.000000 

-0.000000 -0.000000 0.000000 
0.000000 0.000000 0.000000 
0.000000 0.000000 0.000000 

-0.000000 -0.000000 0.000000 
0.000000 0.000000 0.000000 
0.000000 0.000000 0.000000 

0.000000 0.000000 0.000000 
0.000000 0.000000 0.000000 
0.000000 0.000000 0.000000 

0.000000 0.000000 0.000000 
0.000000 0.000000 0.000000 
0.000000 0.000000 0.000000 

-0.000000 -0.000000 0.000000 
0.000000 0.000000 0.000000 
0.000000 0.000000 0.000000 

0.000000 -0.000000 0.000000 
0.000000 0.000000 0.000000 
0.000000 0.000000 0.000000 

0.000000 0.000000 0.000000 
0.000000 0.000000 0.000000 
0.000000 0.000000 0.000000 

0.000000 -0.000000 0.000000 
0.000000 -0.000000 0.000000 
0.000000 0.000000 0.000000 

0.000000 -0.000000 0.000000 
0.000000 0.000000 0.000000 
0.000000 0.000000 0.000000 

0.000000 0.000000 0.000000 
0.000000 0.000000 0.000000 
0.000000 0.000000 0.000000 

0.000000 0.000000 0.000000 
0.000000 0.000000 0.000000 
0.000000 0.000000 0.000000 

0.000000 -0.000000 0.000000 
0.000000 -0.000000 0.000000 
0.000000 0.000000 0.000000 

-0.000000 -0.000000 0.000000 
0.000000 -0.000000 0.000000 
0.000000 0.000000 0.000000 

0.000000 -0.000000 0.000000 
0.000000 -0.000000 0.000000 
0.000000 0.000000 0.000000 

0.000000 -0.000000 0.000000 
0.000000 -0.000000 0.000000 
0.000000 0.000000 0.000000 

0.000000 0.000000 0.000000 
0.000000 -0.000000 0.000000 
0.000000 0.000000 0.000000 

0.000000 0.000000 0.000000 
0.000000 -0.000000 0.000000 
0.000000 0.000000 0.000000 

0.000000 -0.000000 0.000000 
0.000000 -0.000000 0.000000 
0.000000 0.000000 0.000000 

0.000000 0.000000 0.000000 
0.000000 0.000000 0.000000 
0.000000 0.000000 0.000000 

0.000000 -0.000000 0.000000 
0.000000 -0.000000 0.000000 
0.000000 0.000000 0.000000 

0.000000 -0.000000 0.000000 
0.000000 0.000000 0.000000 
0.000000 0.000000 0.000000 

0.000000 0.000000 0.000000 
0.000000 0.000000 0.000000 
0.000000 0.000000 0.000000 

0.000000 0.000000 0.000000 
0.000000 0.000000 0.000000 
0.000000 0.000000 0.000000 

0.000000 -0.000000 0.000000 
0.000000 -0.000000 0.000000 
0.000000 0.000000 0.000000 

0.000000 -0.000000 0.000000 
0.000000 0.000000 0.000000 
0.000000 0.000000 0.000000 

0.000000 -0.000000 0.000000 
0.000000 -0.000000 0.000000 
0.000000 0.000000 0.000000 

0.000000 -0.000000 0.000000 
0.000000 -0.000000 0.000000 
0.000000 0.000000 0.000000 

-0.000000 -0.000000 0.000000 
0.000000 0.000000 0.000000 
0.000000 0.000000 0.000000 

-0.000000 0.000000 0.000000 
0.000000 -0.000000 0.000000 
0.000000 0.000000 0.000000 

-0.000000 -0.000000 0.000000 
0.000000 0.000000 0.000000 
0.000000 0.000000 0.000000 

-0.000000 -0.000000 0.000000 
0.000000 0.000000 0.000000 
0.000000 0.000000 0.000000 

0.000000 -0.000000 0.000000 
0.000000 -0.000000 0.000000 
0.000000 0.000000 0.000000 

-0.000000 -0.000000 0.000000 
0.000000 -0.000000 0.000000 
0.000000 0.000000 0.000000 

0.000000 0.000000 0.000000 
0.000000 0.000000 0.000000 
0.000000 0.000000 0.000000 

0.000000 -0.000000 0.000000 
0.000000 -0.000000 0.000000 
0.000000 0.000000 0.000000 

-0.000000 0.000000 0.000000 
0.000000 -0.000000 0.000000 
0.000000 0.000000 0.000000 

-0.000000 0.000000 0.000000 
0.000000 -0.000000 0.000000 
0.000000 0.000000 0.000000 

-0.000000 0.000000 0.000000 
0.000000 -0.000000 0.000000 
0.000000 0.000000 0.000000 

-0.000000 -0.000000 0.000000 
0.000000 -0.000000 0.000000 
0.000000 0.000000 0.000000 

-0.000000 -0.000000 0.000000 
0.000000 0.000000 0.000000 
0.000000 0.000000 0.000000 

-0.000000 -0.000000 0.000000 
0.000000 -0.000000 0.000000 
0.000000 0.000000 0.000000 

0.000000 0.000000 0.000000 
0.000000 -0.000000 0.000000 
0.000000 0.000000 0.000000 

0.000000 0.000000 0.000000 
0.000000 -0.000000 0.000000 
0.000000 0.000000 0.000000 

0.000000 0.000000 0.000000 
0.000000 -0.000000 0.000000 
0.000000 0.000000 0.000000 

0.000000 -0.000000 0.000000 
0.000000 0.000000 0.000000 
0.000000 0.000000 0.000000 

0.000000 -0.000000 0.000000 
0.000000 -0.000000 0.000000 
0.000000 0.000000 0.000000 

0.000000 -0.000000 0.000000 
0.000000 -0.000000 0.000000 
0.000000 0.000000 0.000000 

0.000000 0.000000 0.000000 
0.000000 0.000000 0.000000 
0.000000 0.000000 0.000000 

0.000000 -0.000000 0.000000 
0.000000 0.000000 0.000000 
0.000000 0.000000 0.000000 

0.000000 -0.000000 0.000000 
0.000000 -0.000000 0.000000 
0.000000 0.000000 0.000000 

0.000000 -0.000000 0.000000 
0.000000 0.000000 0.000000 
0.000000 0.000000 0.000000 

0.000000 -0.000000 0.000000 
0.000000 0.000000 0.000000 
0.000000 0.000000 0.000000 

0.000000 0.000000 0.000000 
0.000000 -0.000000 0.000000 
0.000000 0.000000 0.000000 

-0.000000 0.000000 0.000000 
0.000000 0.000000 0.000000 
0.000000 0.000000 0.000000 

-0.000000 -0.000000 0.000000 
0.000000 0.000000 0.000000 
0.000000 0.000000 0.000000 

-0.000000 0.000000 0.000000 
0.000000 0.000000 0.000000 
0.000000 0.000000 0.000000 

-0.000000 -0.000000 0.000000 
0.000000 0.000000 0.000000 
0.000000 0.000000 0.000000 

-0.000000 0.000000 0.000000 
0.000000 -0.000000 0.000000 
0.000000 0.000000 0.000000 

0.000000 0.000000 0.000000 
0.000000 0.000000 0.000000 
0.000000 0.000000 0.000000 

-0.000000 0.000000 0.000000 
0.000000 -0.000000 0.000000 
0.000000 0.000000 0.000000 

0.000000 0.000000 0.000000 
0.000000 0.000000 0.000000 
0.000000 0.000000 0.000000 

0.000000 0.000000 0.000000 
0.000000 0.000000 0.000000 
0.000000 0.000000 0.000000 

-0.000000 0.000000 0.000000 
0.000000 0.000000 0.000000 
0.000000 0.000000 0.000000 

-0.000000 -0.000000 0.000000 
0.000000 -0.000000 0.000000 
0.000000 0.000000 0.000000 

-0.000000 -0.000000 0.000000 
0.000000 0.000000 0.000000 
0.000000 0.000000 0.000000 

-0.000000 0.000000 0.000000 
0.000000 0.000000 0.000000 
0.000000 0.000000 0.000000 

-0.000000 -0.000000 0.000000 
0.000000 0.000000 0.000000 
0.000000 0.000000 0.000000 

-0.000000 -0.000000 0.000000 
0.000000 -0.000000 0.000000 
0.000000 0.000000 0.000000 

-0.000000 0.000000 0.000000 
0.000000 0.000000 0.000000 
0.000000 0.000000 0.000000 

0.000000 -0.000000 0.000000 
0.000000 0.000000 0.000000 
0.000000 0.000000 0.000000 

0.000000 -0.000000 0.000000 
0.000000 0.000000 0.000000 
0.000000 0.000000 0.000000 

0.000000 -0.000000 0.000000 
0.000000 0.000000 0.000000 
0.000000 0.000000 0.000000 

0.000000 -0.000000 0.000000 
0.000000 0.000000 0.000000 
0.000000 0.000000 0.000000 

0.000000 -0.000000 0.000000 
0.000000 -0.000000 0.000000 
0.000000 0.000000 0.000000 

0.000000 -0.000000 0.000000 
0.000000 -0.000000 0.000000 
0.000000 0.000000 0.000000 

0.000000 0.000000 0.000000 
0.000000 -0.000000 0.000000 
0.000000 0.000000 0.000000 

0.000000 -0.000000 0.000000 
0.000000 0.000000 0.000000 
0.000000 0.000000 0.000000 

0.000000 -0.000000 0.000000 
0.000000 0.000000 0.000000 
0.000000 0.000000 0.000000 

0.000000 -0.000000 0.000000 
0.000000 -0.000000 0.000000 
0.000000 0.000000 0.000000 

0.000000 0.000000 0.000000 
0.000000 -0.000000 0.000000 
0.000000 0.000000 0.000000 

0.000000 -0.000000 0.000000 
0.000000 -0.000000 0.000000 
0.000000 0.000000 0.000000 

0.000000 -0.000000 0.000000 
0.000000 -0.000000 0.000000 
0.000000 0.000000 0.000000 

0.000000 0.000000 0.000000 
0.000000 -0.000000 0.000000 
0.000000 0.000000 0.000000 

0.000000 -0.000000 0.000000 
0.000000 -0.000000 0.000000 
0.000000 0.000000 0.000000 

0.000000 -0.000000 0.000000 
0.000000 -0.000000 0.000000 
0.000000 0.000000 0.000000 

0.000000 0.000000 0.000000 
0.000000 0.000000 0.000000 
0.000000 0.000000 0.000000 

0.000000 0.000000 0.000000 
0.000000 -0.000000 0.000000 
0.000000 0.000000 0.000000 

0.000000 0.000000 0.000000 
0.000000 -0.000000 0.000000 
0.000000 0.000000 0.000000 

0.000000 -0.000000 0.000000 
0.000000 0.000000 0.000000 
0.000000 0.000000 0.000000 

-0.000000 0.000000 0.000000 
0.000000 0.000000 0.000000 
0.000000 0.000000 0.000000 

-0.000000 0.000000 0.000000 
0.000000 0.000000 0.000000 
0.000000 0.000000 0.000000 

-0.000000 -0.000000 0.000000 
0.000000 -0.000000 0.000000 
0.000000 0.000000 0.000000 

-0.000000 -0.000000 0.000000 
0.000000 0.000000 0.000000 
0.000000 0.000000 0.000000 

-0.000000 -0.000000 0.000000 
0.000000 0.000000 0.000000 
0.000000 0.000000 0.000000 

0.000000 -0.000000 0.000000 
0.000000 0.000000 0.000000 
0.000000 0.000000 0.000000 

0.000000 0.000000 0.000000 
0.000000 -0.000000 0.000000 
0.000000 0.000000 0.000000 

0.000000 0.000000 0.000000 
0.000000 -0.000000 0.000000 
0.000000 0.000000 0.000000 

0.000000 -0.000000 0.000000 
0.000000 -0.000000 0.000000 
0.000000 0.000000 0.000000 

0.000000 -0.000000 0.000000 
0.000000 0.000000 0.000000 
0.000000 0.000000 0.000000 

0.000000 0.000000 0.000000 
0.000000 0.000000 0.000000 
0.000000 0.000000 0.000000 

0.000000 -0.000000 0.000000 
0.000000 -0.000000 0.000000 
0.000000 0.000000 0.000000 

0.000000 -0.000000 0.000000 
0.000000 -0.000000 0.000000 
0.000000 0.000000 0.000000 

0.000000 -0.000000 0.000000 
0.000000 0.000000 0.000000 
0.000000 0.000000 0.000000 

0.000000 0.000000 0.000000 
0.000000 -0.000000 0.000000 
0.000000 0.000000 0.000000 

0.000000 0.000000 0.000000 
0.000000 0.000000 0.000000 
0.000000 0.000000 0.000000 

-0.000000 -0.000000 0.000000 
0.000000 -0.000000 0.000000 
0.000000 0.000000 0.000000 

-0.000000 -0.000000 0.000000 
0.000000 -0.000000 0.000000 
0.000000 0.000000 0.000000 

-0.000000 0.000000 0.000000 
0.000000 -0.000000 0.000000 
0.000000 0.000000 0.000000 

0.000000 -0.000000 0.000000 
0.000000 -0.000000 0.000000 
0.000000 0.000000 0.000000 

0.000000 -0.000000 0.000000 
0.000000 -0.000000 0.000000 
0.000000 0.000000 0.000000 

-0.000000 0.000000 0.000000 
0.000000 -0.000000 0.000000 
0.000000 0.000000 0.000000 

0.000000 0.000000 0.000000 
0.000000 -0.000000 0.000000 
0.000000 0.000000 0.000000 

0.000000 0.000000 0.000000 
0.000000 -0.000000 0.000000 
0.000000 0.000000 0.000000 

0.000000 0.000000 0.000000 
0.000000 -0.000000 0.000000 
0.000000 0.000000 0.000000 

0.000000 0.000000 0.000000 
0.000000 -0.000000 0.000000 
0.000000 0.000000 0.000000 

-0.000000 -0.000000 0.000000 
0.000000 -0.000000 0.000000 
0.000000 0.000000 0.000000 

-0.000000 0.000000 0.000000 
0.000000 -0.000000 0.000000 
0.000000 0.000000 0.000000 

-0.000000 -0.000000 0.000000 
0.000000 -0.000000 0.000000 
0.000000 0.000000 0.000000 

-0.000000 0.000000 0.000000 
0.000000 0.000000 0.000000 
0.000000 0.000000 0.000000 

