# vtk DataFile Version 3.0 
vtk output 
ASCII 
DATASET UNSTRUCTURED_GRID 
POINTS 175 float 
-0.026061 -1.363707 0.000000 
-0.106992 -1.295652 0.000000 
-0.054870 -1.303884 0.000000 
-0.028809 -1.258001 0.000000 
-0.186430 -1.231576 0.000000 
-0.137056 -1.234102 0.000000 
-0.114311 -1.180455 0.000000 
-0.058186 -1.196121 0.000000 
-0.029377 -1.155943 0.000000 
-0.265318 -1.168420 0.000000 
-0.217198 -1.169220 0.000000 
-0.196633 -1.111923 0.000000 
-0.143120 -1.120632 0.000000 
-0.116563 -1.073364 0.000000 
-0.058945 -1.093009 0.000000 
-0.029568 -1.054889 0.000000 
-0.344206 -1.105265 0.000000 
-0.296791 -1.105257 0.000000 
-0.278030 -1.045315 0.000000 
-0.225992 -1.051181 0.000000 
-0.201664 -0.999064 0.000000 
-0.145749 -1.012538 0.000000 
-0.117890 -0.968195 0.000000 
-0.059328 -0.990901 0.000000 
-0.029759 -0.953835 0.000000 
-0.058559 -1.404458 0.000000 
-0.162226 -1.425301 0.000000 
-0.123292 -1.389683 0.000000 
-0.142917 -1.340699 0.000000 
-0.261851 -1.447457 0.000000 
-0.229092 -1.410430 0.000000 
-0.256854 -1.359198 0.000000 
-0.209613 -1.325086 0.000000 
-0.223062 -1.277512 0.000000 
-0.360414 -1.469757 0.000000 
-0.329787 -1.432634 0.000000 
-0.361761 -1.380832 0.000000 
-0.321587 -1.344423 0.000000 
-0.341985 -1.294189 0.000000 
-0.290702 -1.261390 0.000000 
-0.302189 -1.214655 0.000000 
-0.458977 -1.492057 0.000000 
-0.429420 -1.454982 0.000000 
-0.464588 -1.402941 0.000000 
-0.427556 -1.365913 0.000000 
-0.453135 -1.314398 0.000000 
-0.407738 -1.279083 0.000000 
-0.425037 -1.229655 0.000000 
-0.370772 -1.198026 0.000000 
-0.381315 -1.151798 0.000000 
-0.046960 -1.455273 0.000000 
-0.095301 -1.549319 0.000000 
-0.098873 -1.496672 0.000000 
-0.149405 -1.481474 0.000000 
-0.140093 -1.641023 0.000000 
-0.148617 -1.592325 0.000000 
-0.205981 -1.582087 0.000000 
-0.203197 -1.523884 0.000000 
-0.248777 -1.504738 0.000000 
-0.184111 -1.731987 0.000000 
-0.194039 -1.684896 0.000000 
-0.254475 -1.677596 0.000000 
-0.257893 -1.623486 0.000000 
-0.309886 -1.608114 0.000000 
-0.303554 -1.547569 0.000000 
-0.347255 -1.527411 0.000000 
-0.228129 -1.822950 0.000000 
-0.238687 -1.776726 0.000000 
-0.301302 -1.771774 0.000000 
-0.307162 -1.719735 0.000000 
-0.363386 -1.707614 0.000000 
-0.362692 -1.650103 0.000000 
-0.412122 -1.632810 0.000000 
-0.403017 -1.570663 0.000000 
-0.445733 -1.550084 0.000000 
-0.000000 -1.477888 0.000000 
0.043388 -1.574319 0.000000 
-0.000000 -1.544286 0.000000 
-0.043388 -1.574319 0.000000 
0.087158 -1.666515 0.000000 
0.043769 -1.642817 0.000000 
-0.000000 -1.681282 0.000000 
-0.043769 -1.642817 0.000000 
-0.087158 -1.666515 0.000000 
0.130831 -1.757645 0.000000 
0.087824 -1.736046 0.000000 
0.044436 -1.778746 0.000000 
-0.000000 -1.747681 0.000000 
-0.044436 -1.778746 0.000000 
-0.087824 -1.736046 0.000000 
-0.130831 -1.757645 0.000000 
0.174505 -1.848775 0.000000 
0.131782 -1.828209 0.000000 
0.088871 -1.874075 0.000000 
0.044532 -1.846211 0.000000 
-0.000000 -1.882611 0.000000 
-0.044532 -1.846211 0.000000 
-0.088871 -1.874075 0.000000 
-0.131782 -1.828209 0.000000 
-0.174505 -1.848775 0.000000 
0.046960 -1.455273 0.000000 
0.149405 -1.481474 0.000000 
0.098873 -1.496672 0.000000 
0.095301 -1.549319 0.000000 
0.248777 -1.504738 0.000000 
0.203197 -1.523884 0.000000 
0.205981 -1.582087 0.000000 
0.148617 -1.592325 0.000000 
0.140093 -1.641023 0.000000 
0.347255 -1.527411 0.000000 
0.303554 -1.547569 0.000000 
0.309886 -1.608114 0.000000 
0.257893 -1.623486 0.000000 
0.254475 -1.677596 0.000000 
0.194039 -1.684896 0.000000 
0.184111 -1.731987 0.000000 
0.445733 -1.550084 0.000000 
0.403017 -1.570663 0.000000 
0.412122 -1.632810 0.000000 
0.362692 -1.650103 0.000000 
0.363386 -1.707614 0.000000 
0.307162 -1.719735 0.000000 
0.301302 -1.771774 0.000000 
0.238687 -1.776726 0.000000 
0.228129 -1.822950 0.000000 
0.058559 -1.404458 0.000000 
0.142917 -1.340699 0.000000 
0.123292 -1.389683 0.000000 
0.162226 -1.425301 0.000000 
0.223062 -1.277512 0.000000 
0.209613 -1.325086 0.000000 
0.256854 -1.359198 0.000000 
0.229092 -1.410430 0.000000 
0.261851 -1.447457 0.000000 
0.302189 -1.214655 0.000000 
0.290702 -1.261390 0.000000 
0.341985 -1.294189 0.000000 
0.321587 -1.344423 0.000000 
0.361761 -1.380832 0.000000 
0.329787 -1.432634 0.000000 
0.360414 -1.469757 0.000000 
0.381315 -1.151798 0.000000 
0.370772 -1.198026 0.000000 
0.425037 -1.229655 0.000000 
0.407738 -1.279083 0.000000 
0.453135 -1.314398 0.000000 
0.427556 -1.365913 0.000000 
0.464588 -1.402941 0.000000 
0.429420 -1.454982 0.000000 
0.458977 -1.492057 0.000000 
0.026061 -1.363707 0.000000 
0.028809 -1.258001 0.000000 
0.054870 -1.303884 0.000000 
0.106992 -1.295652 0.000000 
0.029377 -1.155943 0.000000 
0.058186 -1.196121 0.000000 
0.114311 -1.180455 0.000000 
0.137056 -1.234102 0.000000 
0.186430 -1.231576 0.000000 
0.029568 -1.054889 0.000000 
0.058945 -1.093009 0.000000 
0.116563 -1.073364 0.000000 
0.143120 -1.120632 0.000000 
0.196633 -1.111923 0.000000 
0.217198 -1.169220 0.000000 
0.265318 -1.168420 0.000000 
0.029759 -0.953835 0.000000 
0.059328 -0.990901 0.000000 
0.117890 -0.968195 0.000000 
0.145749 -1.012538 0.000000 
0.201664 -0.999064 0.000000 
0.225992 -1.051181 0.000000 
0.278030 -1.045315 0.000000 
0.296791 -1.105257 0.000000 
0.344206 -1.105265 0.000000 
CELLS 175 350 
1 0 
1 1 
1 2 
1 3 
1 4 
1 5 
1 6 
1 7 
1 8 
1 9 
1 10 
1 11 
1 12 
1 13 
1 14 
1 15 
1 16 
1 17 
1 18 
1 19 
1 20 
1 21 
1 22 
1 23 
1 24 
1 25 
1 26 
1 27 
1 28 
1 29 
1 30 
1 31 
1 32 
1 33 
1 34 
1 35 
1 36 
1 37 
1 38 
1 39 
1 40 
1 41 
1 42 
1 43 
1 44 
1 45 
1 46 
1 47 
1 48 
1 49 
1 50 
1 51 
1 52 
1 53 
1 54 
1 55 
1 56 
1 57 
1 58 
1 59 
1 60 
1 61 
1 62 
1 63 
1 64 
1 65 
1 66 
1 67 
1 68 
1 69 
1 70 
1 71 
1 72 
1 73 
1 74 
1 75 
1 76 
1 77 
1 78 
1 79 
1 80 
1 81 
1 82 
1 83 
1 84 
1 85 
1 86 
1 87 
1 88 
1 89 
1 90 
1 91 
1 92 
1 93 
1 94 
1 95 
1 96 
1 97 
1 98 
1 99 
1 100 
1 101 
1 102 
1 103 
1 104 
1 105 
1 106 
1 107 
1 108 
1 109 
1 110 
1 111 
1 112 
1 113 
1 114 
1 115 
1 116 
1 117 
1 118 
1 119 
1 120 
1 121 
1 122 
1 123 
1 124 
1 125 
1 126 
1 127 
1 128 
1 129 
1 130 
1 131 
1 132 
1 133 
1 134 
1 135 
1 136 
1 137 
1 138 
1 139 
1 140 
1 141 
1 142 
1 143 
1 144 
1 145 
1 146 
1 147 
1 148 
1 149 
1 150 
1 151 
1 152 
1 153 
1 154 
1 155 
1 156 
1 157 
1 158 
1 159 
1 160 
1 161 
1 162 
1 163 
1 164 
1 165 
1 166 
1 167 
1 168 
1 169 
1 170 
1 171 
1 172 
1 173 
1 174 
CELL_TYPES 175 
1 
1 
1 
1 
1 
1 
1 
1 
1 
1 
1 
1 
1 
1 
1 
1 
1 
1 
1 
1 
1 
1 
1 
1 
1 
1 
1 
1 
1 
1 
1 
1 
1 
1 
1 
1 
1 
1 
1 
1 
1 
1 
1 
1 
1 
1 
1 
1 
1 
1 
1 
1 
1 
1 
1 
1 
1 
1 
1 
1 
1 
1 
1 
1 
1 
1 
1 
1 
1 
1 
1 
1 
1 
1 
1 
1 
1 
1 
1 
1 
1 
1 
1 
1 
1 
1 
1 
1 
1 
1 
1 
1 
1 
1 
1 
1 
1 
1 
1 
1 
1 
1 
1 
1 
1 
1 
1 
1 
1 
1 
1 
1 
1 
1 
1 
1 
1 
1 
1 
1 
1 
1 
1 
1 
1 
1 
1 
1 
1 
1 
1 
1 
1 
1 
1 
1 
1 
1 
1 
1 
1 
1 
1 
1 
1 
1 
1 
1 
1 
1 
1 
1 
1 
1 
1 
1 
1 
1 
1 
1 
1 
1 
1 
1 
1 
1 
1 
1 
1 
1 
1 
1 
1 
1 
1 
POINT_DATA 175 
VECTORS X_GC float 
-0.026061 -1.363707 0.000000 
-0.106992 -1.295652 0.000000 
-0.054870 -1.303884 0.000000 
-0.028809 -1.258001 0.000000 
-0.186430 -1.231576 0.000000 
-0.137056 -1.234102 0.000000 
-0.114311 -1.180455 0.000000 
-0.058186 -1.196121 0.000000 
-0.029377 -1.155943 0.000000 
-0.265318 -1.168420 0.000000 
-0.217198 -1.169220 0.000000 
-0.196633 -1.111923 0.000000 
-0.143120 -1.120632 0.000000 
-0.116563 -1.073364 0.000000 
-0.058945 -1.093009 0.000000 
-0.029568 -1.054889 0.000000 
-0.344206 -1.105265 0.000000 
-0.296791 -1.105257 0.000000 
-0.278030 -1.045315 0.000000 
-0.225992 -1.051181 0.000000 
-0.201664 -0.999064 0.000000 
-0.145749 -1.012538 0.000000 
-0.117890 -0.968195 0.000000 
-0.059328 -0.990901 0.000000 
-0.029759 -0.953835 0.000000 
-0.058559 -1.404458 0.000000 
-0.162226 -1.425301 0.000000 
-0.123292 -1.389683 0.000000 
-0.142917 -1.340699 0.000000 
-0.261851 -1.447457 0.000000 
-0.229092 -1.410430 0.000000 
-0.256854 -1.359198 0.000000 
-0.209613 -1.325086 0.000000 
-0.223062 -1.277512 0.000000 
-0.360414 -1.469757 0.000000 
-0.329787 -1.432634 0.000000 
-0.361761 -1.380832 0.000000 
-0.321587 -1.344423 0.000000 
-0.341985 -1.294189 0.000000 
-0.290702 -1.261390 0.000000 
-0.302189 -1.214655 0.000000 
-0.458977 -1.492057 0.000000 
-0.429420 -1.454982 0.000000 
-0.464588 -1.402941 0.000000 
-0.427556 -1.365913 0.000000 
-0.453135 -1.314398 0.000000 
-0.407738 -1.279083 0.000000 
-0.425037 -1.229655 0.000000 
-0.370772 -1.198026 0.000000 
-0.381315 -1.151798 0.000000 
-0.046960 -1.455273 0.000000 
-0.095301 -1.549319 0.000000 
-0.098873 -1.496672 0.000000 
-0.149405 -1.481474 0.000000 
-0.140093 -1.641023 0.000000 
-0.148617 -1.592325 0.000000 
-0.205981 -1.582087 0.000000 
-0.203197 -1.523884 0.000000 
-0.248777 -1.504738 0.000000 
-0.184111 -1.731987 0.000000 
-0.194039 -1.684896 0.000000 
-0.254475 -1.677596 0.000000 
-0.257893 -1.623486 0.000000 
-0.309886 -1.608114 0.000000 
-0.303554 -1.547569 0.000000 
-0.347255 -1.527411 0.000000 
-0.228129 -1.822950 0.000000 
-0.238687 -1.776726 0.000000 
-0.301302 -1.771774 0.000000 
-0.307162 -1.719735 0.000000 
-0.363386 -1.707614 0.000000 
-0.362692 -1.650103 0.000000 
-0.412122 -1.632810 0.000000 
-0.403017 -1.570663 0.000000 
-0.445733 -1.550084 0.000000 
-0.000000 -1.477888 0.000000 
0.043388 -1.574319 0.000000 
-0.000000 -1.544286 0.000000 
-0.043388 -1.574319 0.000000 
0.087158 -1.666515 0.000000 
0.043769 -1.642817 0.000000 
-0.000000 -1.681282 0.000000 
-0.043769 -1.642817 0.000000 
-0.087158 -1.666515 0.000000 
0.130831 -1.757645 0.000000 
0.087824 -1.736046 0.000000 
0.044436 -1.778746 0.000000 
-0.000000 -1.747681 0.000000 
-0.044436 -1.778746 0.000000 
-0.087824 -1.736046 0.000000 
-0.130831 -1.757645 0.000000 
0.174505 -1.848775 0.000000 
0.131782 -1.828209 0.000000 
0.088871 -1.874075 0.000000 
0.044532 -1.846211 0.000000 
-0.000000 -1.882611 0.000000 
-0.044532 -1.846211 0.000000 
-0.088871 -1.874075 0.000000 
-0.131782 -1.828209 0.000000 
-0.174505 -1.848775 0.000000 
0.046960 -1.455273 0.000000 
0.149405 -1.481474 0.000000 
0.098873 -1.496672 0.000000 
0.095301 -1.549319 0.000000 
0.248777 -1.504738 0.000000 
0.203197 -1.523884 0.000000 
0.205981 -1.582087 0.000000 
0.148617 -1.592325 0.000000 
0.140093 -1.641023 0.000000 
0.347255 -1.527411 0.000000 
0.303554 -1.547569 0.000000 
0.309886 -1.608114 0.000000 
0.257893 -1.623486 0.000000 
0.254475 -1.677596 0.000000 
0.194039 -1.684896 0.000000 
0.184111 -1.731987 0.000000 
0.445733 -1.550084 0.000000 
0.403017 -1.570663 0.000000 
0.412122 -1.632810 0.000000 
0.362692 -1.650103 0.000000 
0.363386 -1.707614 0.000000 
0.307162 -1.719735 0.000000 
0.301302 -1.771774 0.000000 
0.238687 -1.776726 0.000000 
0.228129 -1.822950 0.000000 
0.058559 -1.404458 0.000000 
0.142917 -1.340699 0.000000 
0.123292 -1.389683 0.000000 
0.162226 -1.425301 0.000000 
0.223062 -1.277512 0.000000 
0.209613 -1.325086 0.000000 
0.256854 -1.359198 0.000000 
0.229092 -1.410430 0.000000 
0.261851 -1.447457 0.000000 
0.302189 -1.214655 0.000000 
0.290702 -1.261390 0.000000 
0.341985 -1.294189 0.000000 
0.321587 -1.344423 0.000000 
0.361761 -1.380832 0.000000 
0.329787 -1.432634 0.000000 
0.360414 -1.469757 0.000000 
0.381315 -1.151798 0.000000 
0.370772 -1.198026 0.000000 
0.425037 -1.229655 0.000000 
0.407738 -1.279083 0.000000 
0.453135 -1.314398 0.000000 
0.427556 -1.365913 0.000000 
0.464588 -1.402941 0.000000 
0.429420 -1.454982 0.000000 
0.458977 -1.492057 0.000000 
0.026061 -1.363707 0.000000 
0.028809 -1.258001 0.000000 
0.054870 -1.303884 0.000000 
0.106992 -1.295652 0.000000 
0.029377 -1.155943 0.000000 
0.058186 -1.196121 0.000000 
0.114311 -1.180455 0.000000 
0.137056 -1.234102 0.000000 
0.186430 -1.231576 0.000000 
0.029568 -1.054889 0.000000 
0.058945 -1.093009 0.000000 
0.116563 -1.073364 0.000000 
0.143120 -1.120632 0.000000 
0.196633 -1.111923 0.000000 
0.217198 -1.169220 0.000000 
0.265318 -1.168420 0.000000 
0.029759 -0.953835 0.000000 
0.059328 -0.990901 0.000000 
0.117890 -0.968195 0.000000 
0.145749 -1.012538 0.000000 
0.201664 -0.999064 0.000000 
0.225992 -1.051181 0.000000 
0.278030 -1.045315 0.000000 
0.296791 -1.105257 0.000000 
0.344206 -1.105265 0.000000 
VECTORS X_EC float 
0.338794 0.910046 0.000000 
-0.609100 -0.008702 0.000000 
0.713312 0.102438 0.000000 
0.374519 -0.516991 0.000000 
0.423588 -0.873722 0.000000 
-0.218274 -0.839618 0.000000 
-0.513962 0.436143 0.000000 
0.756418 0.647629 0.000000 
0.381900 0.105237 0.000000 
-0.550868 0.273675 0.000000 
0.823577 0.284471 0.000000 
0.556234 -0.489033 0.000000 
-0.139443 -0.371464 0.000000 
-0.484677 0.990411 0.000000 
0.766286 -0.744374 0.000000 
0.384386 0.741006 0.000000 
0.474677 -0.578928 0.000000 
-0.141715 -0.579024 0.000000 
-0.385608 0.611748 0.000000 
0.937896 0.690943 0.000000 
0.621631 -0.012637 0.000000 
-0.105264 0.169262 0.000000 
-0.467428 -0.429364 0.000000 
0.771260 -0.122836 0.000000 
0.386873 -0.623225 0.000000 
0.761262 -0.539819 0.000000 
0.108942 -0.258443 0.000000 
-0.397202 -0.739282 0.000000 
-0.142083 0.599443 0.000000 
-0.595936 0.040668 0.000000 
0.978194 -0.459198 0.000000 
-0.660903 0.849177 0.000000 
0.724964 0.388657 0.000000 
0.899809 -0.253592 0.000000 
0.685384 0.341720 0.000000 
0.287229 -0.159438 0.000000 
0.702895 -0.858767 0.000000 
0.180633 0.649714 0.000000 
0.445811 -0.028445 0.000000 
-0.220880 -0.471231 0.000000 
-0.071546 0.897843 0.000000 
-0.033296 0.642772 0.000000 
-0.417537 0.142263 0.000000 
0.039645 -0.560300 0.000000 
-0.441768 0.939829 0.000000 
-0.109248 0.244378 0.000000 
-0.699407 -0.232377 0.000000 
-0.474522 -0.899657 0.000000 
0.820030 0.673350 0.000000 
0.957100 0.049278 0.000000 
0.610485 0.146187 0.000000 
-0.761092 -0.584194 0.000000 
-0.714655 0.705069 0.000000 
-0.057734 0.499902 0.000000 
-0.178789 0.653810 0.000000 
-0.067979 -0.003616 0.000000 
0.677748 -0.141819 0.000000 
0.641556 -0.927564 0.000000 
-0.765897 0.813957 0.000000 
0.393446 -0.118180 0.000000 
0.522510 -0.753910 0.000000 
-0.691820 -0.852455 0.000000 
-0.647393 0.417063 0.000000 
0.028512 0.209536 0.000000 
-0.053800 -0.607824 0.000000 
0.514316 -0.879955 0.000000 
0.965681 -0.890171 0.000000 
-0.897068 0.485800 0.000000 
-0.083078 0.418947 0.000000 
-0.006893 -0.283578 0.000000 
0.724017 -0.447211 0.000000 
0.714996 0.776386 0.000000 
-0.642413 0.542928 0.000000 
-0.760780 -0.296052 0.000000 
-0.205471 -0.573867 0.000000 
0.000000 0.451489 0.000000 
-0.564049 -0.246699 0.000000 
0.000000 -0.652135 0.000000 
0.564049 -0.246699 0.000000 
0.866949 0.997957 0.000000 
-0.569003 0.678025 0.000000 
0.000000 -0.802686 0.000000 
0.569003 0.678025 0.000000 
-0.866949 0.997957 0.000000 
0.299194 0.228207 0.000000 
0.858290 -0.063377 0.000000 
-0.577662 0.513069 0.000000 
0.000000 0.093691 0.000000 
0.577662 0.513069 0.000000 
-0.858290 -0.063377 0.000000 
-0.299194 0.228207 0.000000 
-0.268560 -0.541543 0.000000 
0.286830 -0.819185 0.000000 
0.844677 -0.199987 0.000000 
-0.578910 -0.576149 0.000000 
0.000000 -0.084745 0.000000 
0.578910 -0.576149 0.000000 
-0.844677 -0.199987 0.000000 
-0.286830 -0.819185 0.000000 
0.268560 -0.541543 0.000000 
-0.610485 0.146187 0.000000 
0.057734 0.499902 0.000000 
0.714655 0.705069 0.000000 
0.761092 -0.584194 0.000000 
0.765897 0.813957 0.000000 
-0.641556 -0.927564 0.000000 
-0.677748 -0.141819 0.000000 
0.067979 -0.003616 0.000000 
0.178789 0.653810 0.000000 
-0.514316 -0.879955 0.000000 
0.053800 -0.607824 0.000000 
-0.028512 0.209536 0.000000 
0.647393 0.417063 0.000000 
0.691820 -0.852455 0.000000 
-0.522510 -0.753910 0.000000 
-0.393446 -0.118180 0.000000 
0.205471 -0.573867 0.000000 
0.760780 -0.296052 0.000000 
0.642413 0.542928 0.000000 
-0.714996 0.776386 0.000000 
-0.724017 -0.447211 0.000000 
0.006894 -0.283578 0.000000 
0.083078 0.418947 0.000000 
0.897068 0.485800 0.000000 
-0.965681 -0.890171 0.000000 
-0.761262 -0.539819 0.000000 
0.142083 0.599443 0.000000 
0.397202 -0.739282 0.000000 
-0.108942 -0.258443 0.000000 
-0.899809 -0.253592 0.000000 
-0.724964 0.388657 0.000000 
0.660903 0.849177 0.000000 
-0.978194 -0.459198 0.000000 
0.595936 0.040668 0.000000 
0.071546 0.897843 0.000000 
0.220880 -0.471231 0.000000 
-0.445811 -0.028445 0.000000 
-0.180633 0.649714 0.000000 
-0.702895 -0.858767 0.000000 
-0.287229 -0.159438 0.000000 
-0.685384 0.341720 0.000000 
-0.957100 0.049278 0.000000 
-0.820030 0.673350 0.000000 
0.474522 -0.899657 0.000000 
0.699407 -0.232377 0.000000 
0.109248 0.244378 0.000000 
0.441768 0.939829 0.000000 
-0.039645 -0.560300 0.000000 
0.417537 0.142263 0.000000 
0.033296 0.642772 0.000000 
-0.338794 0.910046 0.000000 
-0.374519 -0.516991 0.000000 
-0.713312 0.102438 0.000000 
0.609100 -0.008702 0.000000 
-0.381900 0.105237 0.000000 
-0.756418 0.647629 0.000000 
0.513962 0.436143 0.000000 
0.218274 -0.839618 0.000000 
-0.423588 -0.873722 0.000000 
-0.384386 0.741006 0.000000 
-0.766286 -0.744374 0.000000 
0.484677 0.990411 0.000000 
0.139443 -0.371464 0.000000 
-0.556234 -0.489033 0.000000 
-0.823577 0.284471 0.000000 
0.550868 0.273675 0.000000 
-0.386873 -0.623225 0.000000 
-0.771260 -0.122836 0.000000 
0.467428 -0.429364 0.000000 
0.105264 0.169262 0.000000 
-0.621631 -0.012637 0.000000 
-0.937896 0.690943 0.000000 
0.385608 0.611748 0.000000 
0.141715 -0.579024 0.000000 
-0.474677 -0.578928 0.000000 
CELL_DATA 175 
SCALARS MASS float 
LOOKUP_TABLE default 
0.078183 
0.086427 
0.094672 
0.086427 
0.088131 
0.092111 
0.085854 
0.092111 
0.088131 
0.088705 
0.091000 
0.086983 
0.091556 
0.086983 
0.091000 
0.088705 
0.089278 
0.091574 
0.089278 
0.092722 
0.089278 
0.092722 
0.089278 
0.091574 
0.089278 
0.078183 
0.086427 
0.094672 
0.086427 
0.088131 
0.092111 
0.085854 
0.092111 
0.088131 
0.088705 
0.091000 
0.086983 
0.091556 
0.086983 
0.091000 
0.088705 
0.089278 
0.091574 
0.089278 
0.092722 
0.089278 
0.092722 
0.089278 
0.091574 
0.089278 
0.078183 
0.086427 
0.094672 
0.086427 
0.088131 
0.092111 
0.085854 
0.092111 
0.088131 
0.088705 
0.091000 
0.086983 
0.091556 
0.086983 
0.091000 
0.088705 
0.089278 
0.091574 
0.089278 
0.092722 
0.089278 
0.092722 
0.089278 
0.091574 
0.089278 
0.078183 
0.086427 
0.094672 
0.086427 
0.088131 
0.092111 
0.085854 
0.092111 
0.088131 
0.088705 
0.091000 
0.086983 
0.091556 
0.086983 
0.091000 
0.088705 
0.089278 
0.091574 
0.089278 
0.092722 
0.089278 
0.092722 
0.089278 
0.091574 
0.089278 
0.078183 
0.086427 
0.094672 
0.086427 
0.088131 
0.092111 
0.085854 
0.092111 
0.088131 
0.088705 
0.091000 
0.086983 
0.091556 
0.086983 
0.091000 
0.088705 
0.089278 
0.091574 
0.089278 
0.092722 
0.089278 
0.092722 
0.089278 
0.091574 
0.089278 
0.078183 
0.086427 
0.094672 
0.086427 
0.088131 
0.092111 
0.085854 
0.092111 
0.088131 
0.088705 
0.091000 
0.086983 
0.091556 
0.086983 
0.091000 
0.088705 
0.089278 
0.091574 
0.089278 
0.092722 
0.089278 
0.092722 
0.089278 
0.091574 
0.089278 
0.078183 
0.086427 
0.094672 
0.086427 
0.088131 
0.092111 
0.085854 
0.092111 
0.088131 
0.088705 
0.091000 
0.086983 
0.091556 
0.086983 
0.091000 
0.088705 
0.089278 
0.091574 
0.089278 
0.092722 
0.089278 
0.092722 
0.089278 
0.091574 
0.089278 
SCALARS MASS float 
LOOKUP_TABLE default 
0.078183 
0.086427 
0.094672 
0.086427 
0.088131 
0.092111 
0.085854 
0.092111 
0.088131 
0.088705 
0.091000 
0.086983 
0.091556 
0.086983 
0.091000 
0.088705 
0.089278 
0.091574 
0.089278 
0.092722 
0.089278 
0.092722 
0.089278 
0.091574 
0.089278 
0.078183 
0.086427 
0.094672 
0.086427 
0.088131 
0.092111 
0.085854 
0.092111 
0.088131 
0.088705 
0.091000 
0.086983 
0.091556 
0.086983 
0.091000 
0.088705 
0.089278 
0.091574 
0.089278 
0.092722 
0.089278 
0.092722 
0.089278 
0.091574 
0.089278 
0.078183 
0.086427 
0.094672 
0.086427 
0.088131 
0.092111 
0.085854 
0.092111 
0.088131 
0.088705 
0.091000 
0.086983 
0.091556 
0.086983 
0.091000 
0.088705 
0.089278 
0.091574 
0.089278 
0.092722 
0.089278 
0.092722 
0.089278 
0.091574 
0.089278 
0.078183 
0.086427 
0.094672 
0.086427 
0.088131 
0.092111 
0.085854 
0.092111 
0.088131 
0.088705 
0.091000 
0.086983 
0.091556 
0.086983 
0.091000 
0.088705 
0.089278 
0.091574 
0.089278 
0.092722 
0.089278 
0.092722 
0.089278 
0.091574 
0.089278 
0.078183 
0.086427 
0.094672 
0.086427 
0.088131 
0.092111 
0.085854 
0.092111 
0.088131 
0.088705 
0.091000 
0.086983 
0.091556 
0.086983 
0.091000 
0.088705 
0.089278 
0.091574 
0.089278 
0.092722 
0.089278 
0.092722 
0.089278 
0.091574 
0.089278 
0.078183 
0.086427 
0.094672 
0.086427 
0.088131 
0.092111 
0.085854 
0.092111 
0.088131 
0.088705 
0.091000 
0.086983 
0.091556 
0.086983 
0.091000 
0.088705 
0.089278 
0.091574 
0.089278 
0.092722 
0.089278 
0.092722 
0.089278 
0.091574 
0.089278 
0.078183 
0.086427 
0.094672 
0.086427 
0.088131 
0.092111 
0.085854 
0.092111 
0.088131 
0.088705 
0.091000 
0.086983 
0.091556 
0.086983 
0.091000 
0.088705 
0.089278 
0.091574 
0.089278 
0.092722 
0.089278 
0.092722 
0.089278 
0.091574 
0.089278 
SCALARS DENSITY float 
LOOKUP_TABLE default 
20.000000 
20.000000 
20.000000 
20.000000 
20.000000 
20.000000 
20.000000 
20.000000 
20.000000 
20.000000 
20.000000 
20.000000 
20.000000 
20.000000 
20.000000 
20.000000 
20.000000 
20.000000 
20.000000 
20.000000 
20.000000 
20.000000 
20.000000 
20.000000 
20.000000 
20.000000 
20.000000 
20.000000 
20.000000 
20.000000 
20.000000 
20.000000 
20.000000 
20.000000 
20.000000 
20.000000 
20.000000 
20.000000 
20.000000 
20.000000 
20.000000 
20.000000 
20.000000 
20.000000 
20.000000 
20.000000 
20.000000 
20.000000 
20.000000 
20.000000 
20.000000 
20.000000 
20.000000 
20.000000 
20.000000 
20.000000 
20.000000 
20.000000 
20.000000 
20.000000 
20.000000 
20.000000 
20.000000 
20.000000 
20.000000 
20.000000 
20.000000 
20.000000 
20.000000 
20.000000 
20.000000 
20.000000 
20.000000 
20.000000 
20.000000 
20.000000 
20.000000 
20.000000 
20.000000 
20.000000 
20.000000 
20.000000 
20.000000 
20.000000 
20.000000 
20.000000 
20.000000 
20.000000 
20.000000 
20.000000 
20.000000 
20.000000 
20.000000 
20.000000 
20.000000 
20.000000 
20.000000 
20.000000 
20.000000 
20.000000 
20.000000 
20.000000 
20.000000 
20.000000 
20.000000 
20.000000 
20.000000 
20.000000 
20.000000 
20.000000 
20.000000 
20.000000 
20.000000 
20.000000 
20.000000 
20.000000 
20.000000 
20.000000 
20.000000 
20.000000 
20.000000 
20.000000 
20.000000 
20.000000 
20.000000 
20.000000 
20.000000 
20.000000 
20.000000 
20.000000 
20.000000 
20.000000 
20.000000 
20.000000 
20.000000 
20.000000 
20.000000 
20.000000 
20.000000 
20.000000 
20.000000 
20.000000 
20.000000 
20.000000 
20.000000 
20.000000 
20.000000 
20.000000 
20.000000 
20.000000 
20.000000 
20.000000 
20.000000 
20.000000 
20.000000 
20.000000 
20.000000 
20.000000 
20.000000 
20.000000 
20.000000 
20.000000 
20.000000 
20.000000 
20.000000 
20.000000 
20.000000 
20.000000 
20.000000 
20.000000 
20.000000 
20.000000 
20.000000 
20.000000 
20.000000 
SCALARS ELEM_i float 
LOOKUP_TABLE default 
173 
200 
173 
173 
200 
200 
201 
174 
174 
228 
201 
201 
201 
202 
174 
175 
228 
228 
229 
202 
202 
202 
202 
175 
175 
172 
199 
199 
200 
226 
199 
227 
200 
200 
226 
226 
226 
227 
227 
227 
228 
253 
253 
253 
254 
254 
254 
254 
228 
228 
172 
198 
199 
199 
198 
198 
198 
198 
226 
197 
197 
224 
225 
225 
225 
225 
196 
224 
224 
224 
224 
225 
252 
252 
252 
172 
171 
171 
171 
144 
171 
170 
171 
198 
143 
143 
170 
170 
170 
197 
197 
142 
142 
142 
169 
169 
169 
196 
196 
196 
172 
145 
145 
144 
118 
144 
144 
144 
144 
117 
117 
117 
117 
116 
143 
143 
90 
90 
90 
117 
116 
116 
116 
116 
142 
172 
146 
145 
145 
146 
146 
119 
145 
118 
120 
119 
119 
119 
118 
118 
118 
120 
120 
92 
92 
92 
92 
91 
91 
91 
173 
173 
173 
146 
174 
174 
147 
146 
146 
175 
174 
148 
147 
147 
147 
120 
175 
175 
148 
148 
148 
148 
121 
120 
120 
VECTORS VELOCITY float 
0.000000 -5.273856 0.000000 
0.000000 -5.273856 0.000000 
0.000000 -5.273856 0.000000 
-0.000000 -5.273856 0.000000 
-0.000000 -5.273856 0.000000 
-0.000000 -5.273856 0.000000 
-0.000000 -5.273856 0.000000 
-0.000000 -5.273856 0.000000 
-0.000000 -5.273856 0.000000 
0.000000 -5.273856 0.000000 
-0.000000 -5.273856 0.000000 
-0.000000 -5.273856 0.000000 
-0.000000 -5.273856 0.000000 
-0.000000 -5.273856 0.000000 
-0.000000 -5.273856 0.000000 
0.000000 -5.273856 0.000000 
-0.000000 -5.273856 0.000000 
-0.000000 -5.273856 0.000000 
-0.000000 -5.273856 0.000000 
0.000000 -5.273856 0.000000 
-0.000000 -5.273856 0.000000 
-0.000000 -5.273856 0.000000 
0.000000 -5.273856 0.000000 
0.000000 -5.273856 0.000000 
0.000000 -5.273856 0.000000 
-0.000000 -5.273856 0.000000 
-0.000000 -5.273856 0.000000 
0.000000 -5.273856 0.000000 
-0.000000 -5.273856 0.000000 
0.000000 -5.273856 0.000000 
0.000000 -5.273856 0.000000 
-0.000000 -5.273856 0.000000 
-0.000000 -5.273856 0.000000 
-0.000000 -5.273856 0.000000 
-0.000000 -5.273856 0.000000 
0.000000 -5.273856 0.000000 
-0.000000 -5.273856 0.000000 
0.000000 -5.273856 0.000000 
0.000000 -5.273856 0.000000 
0.000000 -5.273856 0.000000 
0.000000 -5.273856 0.000000 
-0.000000 -5.273856 0.000000 
-0.000000 -5.273856 0.000000 
-0.000000 -5.273856 0.000000 
-0.000000 -5.273856 0.000000 
0.000000 -5.273856 0.000000 
0.000000 -5.273856 0.000000 
0.000000 -5.273856 0.000000 
0.000000 -5.273856 0.000000 
0.000000 -5.273856 0.000000 
-0.000000 -5.273856 0.000000 
0.000000 -5.273856 0.000000 
-0.000000 -5.273856 0.000000 
0.000000 -5.273856 0.000000 
-0.000000 -5.273856 0.000000 
-0.000000 -5.273856 0.000000 
-0.000000 -5.273856 0.000000 
-0.000000 -5.273856 0.000000 
-0.000000 -5.273856 0.000000 
0.000000 -5.273856 0.000000 
-0.000000 -5.273856 0.000000 
0.000000 -5.273856 0.000000 
-0.000000 -5.273856 0.000000 
-0.000000 -5.273856 0.000000 
-0.000000 -5.273856 0.000000 
-0.000000 -5.273856 0.000000 
-0.000000 -5.273856 0.000000 
0.000000 -5.273856 0.000000 
-0.000000 -5.273856 0.000000 
0.000000 -5.273856 0.000000 
0.000000 -5.273856 0.000000 
0.000000 -5.273856 0.000000 
-0.000000 -5.273856 0.000000 
-0.000000 -5.273856 0.000000 
0.000000 -5.273856 0.000000 
-0.000000 -5.273856 0.000000 
-0.000000 -5.273856 0.000000 
-0.000000 -5.273856 0.000000 
0.000000 -5.273856 0.000000 
-0.000000 -5.273856 0.000000 
-0.000000 -5.273856 0.000000 
-0.000000 -5.273856 0.000000 
-0.000000 -5.273856 0.000000 
-0.000000 -5.273856 0.000000 
-0.000000 -5.273856 0.000000 
-0.000000 -5.273856 0.000000 
-0.000000 -5.273856 0.000000 
-0.000000 -5.273856 0.000000 
0.000000 -5.273856 0.000000 
0.000000 -5.273856 0.000000 
0.000000 -5.273856 0.000000 
0.000000 -5.273856 0.000000 
-0.000000 -5.273856 0.000000 
0.000000 -5.273856 0.000000 
-0.000000 -5.273856 0.000000 
0.000000 -5.273856 0.000000 
0.000000 -5.273856 0.000000 
0.000000 -5.273856 0.000000 
-0.000000 -5.273856 0.000000 
0.000000 -5.273856 0.000000 
-0.000000 -5.273856 0.000000 
-0.000000 -5.273856 0.000000 
-0.000000 -5.273856 0.000000 
-0.000000 -5.273856 0.000000 
-0.000000 -5.273856 0.000000 
-0.000000 -5.273856 0.000000 
0.000000 -5.273856 0.000000 
0.000000 -5.273856 0.000000 
-0.000000 -5.273856 0.000000 
0.000000 -5.273856 0.000000 
0.000000 -5.273856 0.000000 
0.000000 -5.273856 0.000000 
-0.000000 -5.273856 0.000000 
0.000000 -5.273856 0.000000 
0.000000 -5.273856 0.000000 
-0.000000 -5.273856 0.000000 
-0.000000 -5.273856 0.000000 
0.000000 -5.273856 0.000000 
0.000000 -5.273856 0.000000 
0.000000 -5.273856 0.000000 
0.000000 -5.273856 0.000000 
-0.000000 -5.273856 0.000000 
0.000000 -5.273856 0.000000 
0.000000 -5.273856 0.000000 
0.000000 -5.273856 0.000000 
0.000000 -5.273856 0.000000 
0.000000 -5.273856 0.000000 
0.000000 -5.273856 0.000000 
-0.000000 -5.273856 0.000000 
0.000000 -5.273856 0.000000 
0.000000 -5.273856 0.000000 
-0.000000 -5.273856 0.000000 
-0.000000 -5.273856 0.000000 
-0.000000 -5.273856 0.000000 
0.000000 -5.273856 0.000000 
0.000000 -5.273856 0.000000 
0.000000 -5.273856 0.000000 
-0.000000 -5.273856 0.000000 
-0.000000 -5.273856 0.000000 
-0.000000 -5.273856 0.000000 
0.000000 -5.273856 0.000000 
-0.000000 -5.273856 0.000000 
0.000000 -5.273856 0.000000 
-0.000000 -5.273856 0.000000 
-0.000000 -5.273856 0.000000 
0.000000 -5.273856 0.000000 
0.000000 -5.273856 0.000000 
0.000000 -5.273856 0.000000 
0.000000 -5.273856 0.000000 
0.000000 -5.273856 0.000000 
0.000000 -5.273856 0.000000 
-0.000000 -5.273856 0.000000 
0.000000 -5.273856 0.000000 
0.000000 -5.273856 0.000000 
0.000000 -5.273856 0.000000 
-0.000000 -5.273856 0.000000 
0.000000 -5.273856 0.000000 
0.000000 -5.273856 0.000000 
0.000000 -5.273856 0.000000 
0.000000 -5.273856 0.000000 
0.000000 -5.273856 0.000000 
0.000000 -5.273856 0.000000 
-0.000000 -5.273856 0.000000 
-0.000000 -5.273856 0.000000 
-0.000000 -5.273856 0.000000 
0.000000 -5.273856 0.000000 
0.000000 -5.273856 0.000000 
0.000000 -5.273856 0.000000 
-0.000000 -5.273856 0.000000 
0.000000 -5.273856 0.000000 
-0.000000 -5.273856 0.000000 
0.000000 -5.273856 0.000000 
-0.000000 -5.273856 0.000000 
0.000000 -5.273856 0.000000 
0.000000 -5.273856 0.000000 
TENSORS STRESS float 
-0.000000 0.000000 0.000000 
0.000000 -0.000000 0.000000 
0.000000 0.000000 0.000000 

0.000000 0.000000 0.000000 
0.000000 0.000000 0.000000 
0.000000 0.000000 0.000000 

-0.000000 0.000000 0.000000 
0.000000 -0.000000 0.000000 
0.000000 0.000000 0.000000 

-0.000000 -0.000000 0.000000 
0.000000 -0.000000 0.000000 
0.000000 0.000000 0.000000 

-0.000000 0.000000 0.000000 
0.000000 -0.000000 0.000000 
0.000000 0.000000 0.000000 

-0.000000 -0.000000 0.000000 
0.000000 0.000000 0.000000 
0.000000 0.000000 0.000000 

-0.000000 0.000000 0.000000 
0.000000 0.000000 0.000000 
0.000000 0.000000 0.000000 

-0.000000 0.000000 0.000000 
0.000000 -0.000000 0.000000 
0.000000 0.000000 0.000000 

0.000000 -0.000000 0.000000 
0.000000 -0.000000 0.000000 
0.000000 0.000000 0.000000 

-0.000000 0.000000 0.000000 
0.000000 0.000000 0.000000 
0.000000 0.000000 0.000000 

-0.000000 0.000000 0.000000 
0.000000 -0.000000 0.000000 
0.000000 0.000000 0.000000 

0.000000 0.000000 0.000000 
0.000000 0.000000 0.000000 
0.000000 0.000000 0.000000 

-0.000000 0.000000 0.000000 
0.000000 -0.000000 0.000000 
0.000000 0.000000 0.000000 

-0.000000 -0.000000 0.000000 
0.000000 -0.000000 0.000000 
0.000000 0.000000 0.000000 

-0.000000 -0.000000 0.000000 
0.000000 -0.000000 0.000000 
0.000000 0.000000 0.000000 

-0.000000 -0.000000 0.000000 
0.000000 -0.000000 0.000000 
0.000000 0.000000 0.000000 

-0.000000 0.000000 0.000000 
0.000000 0.000000 0.000000 
0.000000 0.000000 0.000000 

-0.000000 -0.000000 0.000000 
0.000000 0.000000 0.000000 
0.000000 0.000000 0.000000 

-0.000000 -0.000000 0.000000 
0.000000 0.000000 0.000000 
0.000000 0.000000 0.000000 

-0.000000 0.000000 0.000000 
0.000000 -0.000000 0.000000 
0.000000 0.000000 0.000000 

-0.000000 0.000000 0.000000 
0.000000 0.000000 0.000000 
0.000000 0.000000 0.000000 

-0.000000 -0.000000 0.000000 
0.000000 -0.000000 0.000000 
0.000000 0.000000 0.000000 

0.000000 -0.000000 0.000000 
0.000000 0.000000 0.000000 
0.000000 0.000000 0.000000 

-0.000000 0.000000 0.000000 
0.000000 0.000000 0.000000 
0.000000 0.000000 0.000000 

-0.000000 -0.000000 0.000000 
0.000000 -0.000000 0.000000 
0.000000 0.000000 0.000000 

0.000000 -0.000000 0.000000 
0.000000 -0.000000 0.000000 
0.000000 0.000000 0.000000 

-0.000000 0.000000 0.000000 
0.000000 -0.000000 0.000000 
0.000000 0.000000 0.000000 

0.000000 0.000000 0.000000 
0.000000 0.000000 0.000000 
0.000000 0.000000 0.000000 

-0.000000 0.000000 0.000000 
0.000000 -0.000000 0.000000 
0.000000 0.000000 0.000000 

-0.000000 0.000000 0.000000 
0.000000 -0.000000 0.000000 
0.000000 0.000000 0.000000 

-0.000000 0.000000 0.000000 
0.000000 -0.000000 0.000000 
0.000000 0.000000 0.000000 

0.000000 0.000000 0.000000 
0.000000 -0.000000 0.000000 
0.000000 0.000000 0.000000 

-0.000000 -0.000000 0.000000 
0.000000 -0.000000 0.000000 
0.000000 0.000000 0.000000 

-0.000000 -0.000000 0.000000 
0.000000 -0.000000 0.000000 
0.000000 0.000000 0.000000 

-0.000000 -0.000000 0.000000 
0.000000 -0.000000 0.000000 
0.000000 0.000000 0.000000 

0.000000 0.000000 0.000000 
0.000000 0.000000 0.000000 
0.000000 0.000000 0.000000 

0.000000 -0.000000 0.000000 
0.000000 0.000000 0.000000 
0.000000 0.000000 0.000000 

0.000000 0.000000 0.000000 
0.000000 0.000000 0.000000 
0.000000 0.000000 0.000000 

0.000000 0.000000 0.000000 
0.000000 -0.000000 0.000000 
0.000000 0.000000 0.000000 

-0.000000 0.000000 0.000000 
0.000000 -0.000000 0.000000 
0.000000 0.000000 0.000000 

0.000000 -0.000000 0.000000 
0.000000 0.000000 0.000000 
0.000000 0.000000 0.000000 

-0.000000 0.000000 0.000000 
0.000000 -0.000000 0.000000 
0.000000 0.000000 0.000000 

-0.000000 0.000000 0.000000 
0.000000 -0.000000 0.000000 
0.000000 0.000000 0.000000 

-0.000000 -0.000000 0.000000 
0.000000 0.000000 0.000000 
0.000000 0.000000 0.000000 

-0.000000 0.000000 0.000000 
0.000000 -0.000000 0.000000 
0.000000 0.000000 0.000000 

-0.000000 -0.000000 0.000000 
0.000000 -0.000000 0.000000 
0.000000 0.000000 0.000000 

-0.000000 -0.000000 0.000000 
0.000000 -0.000000 0.000000 
0.000000 0.000000 0.000000 

0.000000 0.000000 0.000000 
0.000000 -0.000000 0.000000 
0.000000 0.000000 0.000000 

0.000000 -0.000000 0.000000 
0.000000 0.000000 0.000000 
0.000000 0.000000 0.000000 

-0.000000 0.000000 0.000000 
0.000000 -0.000000 0.000000 
0.000000 0.000000 0.000000 

0.000000 0.000000 0.000000 
0.000000 0.000000 0.000000 
0.000000 0.000000 0.000000 

0.000000 0.000000 0.000000 
0.000000 0.000000 0.000000 
0.000000 0.000000 0.000000 

-0.000000 -0.000000 0.000000 
0.000000 -0.000000 0.000000 
0.000000 0.000000 0.000000 

0.000000 0.000000 0.000000 
0.000000 0.000000 0.000000 
0.000000 0.000000 0.000000 

0.000000 0.000000 0.000000 
0.000000 -0.000000 0.000000 
0.000000 0.000000 0.000000 

0.000000 -0.000000 0.000000 
0.000000 -0.000000 0.000000 
0.000000 0.000000 0.000000 

0.000000 0.000000 0.000000 
0.000000 0.000000 0.000000 
0.000000 0.000000 0.000000 

-0.000000 0.000000 0.000000 
0.000000 -0.000000 0.000000 
0.000000 0.000000 0.000000 

-0.000000 0.000000 0.000000 
0.000000 -0.000000 0.000000 
0.000000 0.000000 0.000000 

-0.000000 -0.000000 0.000000 
0.000000 -0.000000 0.000000 
0.000000 0.000000 0.000000 

0.000000 0.000000 0.000000 
0.000000 -0.000000 0.000000 
0.000000 0.000000 0.000000 

-0.000000 0.000000 0.000000 
0.000000 -0.000000 0.000000 
0.000000 0.000000 0.000000 

0.000000 0.000000 0.000000 
0.000000 0.000000 0.000000 
0.000000 0.000000 0.000000 

0.000000 0.000000 0.000000 
0.000000 0.000000 0.000000 
0.000000 0.000000 0.000000 

0.000000 -0.000000 0.000000 
0.000000 0.000000 0.000000 
0.000000 0.000000 0.000000 

-0.000000 0.000000 0.000000 
0.000000 -0.000000 0.000000 
0.000000 0.000000 0.000000 

-0.000000 -0.000000 0.000000 
0.000000 -0.000000 0.000000 
0.000000 0.000000 0.000000 

0.000000 0.000000 0.000000 
0.000000 -0.000000 0.000000 
0.000000 0.000000 0.000000 

0.000000 0.000000 0.000000 
0.000000 0.000000 0.000000 
0.000000 0.000000 0.000000 

0.000000 -0.000000 0.000000 
0.000000 0.000000 0.000000 
0.000000 0.000000 0.000000 

0.000000 -0.000000 0.000000 
0.000000 0.000000 0.000000 
0.000000 0.000000 0.000000 

-0.000000 -0.000000 0.000000 
0.000000 -0.000000 0.000000 
0.000000 0.000000 0.000000 

-0.000000 0.000000 0.000000 
0.000000 -0.000000 0.000000 
0.000000 0.000000 0.000000 

0.000000 -0.000000 0.000000 
0.000000 -0.000000 0.000000 
0.000000 0.000000 0.000000 

0.000000 0.000000 0.000000 
0.000000 0.000000 0.000000 
0.000000 0.000000 0.000000 

-0.000000 0.000000 0.000000 
0.000000 -0.000000 0.000000 
0.000000 0.000000 0.000000 

-0.000000 -0.000000 0.000000 
0.000000 -0.000000 0.000000 
0.000000 0.000000 0.000000 

-0.000000 -0.000000 0.000000 
0.000000 0.000000 0.000000 
0.000000 0.000000 0.000000 

0.000000 -0.000000 0.000000 
0.000000 0.000000 0.000000 
0.000000 0.000000 0.000000 

0.000000 -0.000000 0.000000 
0.000000 0.000000 0.000000 
0.000000 0.000000 0.000000 

-0.000000 -0.000000 0.000000 
0.000000 0.000000 0.000000 
0.000000 0.000000 0.000000 

-0.000000 -0.000000 0.000000 
0.000000 -0.000000 0.000000 
0.000000 0.000000 0.000000 

-0.000000 0.000000 0.000000 
0.000000 0.000000 0.000000 
0.000000 0.000000 0.000000 

0.000000 0.000000 0.000000 
0.000000 0.000000 0.000000 
0.000000 0.000000 0.000000 

-0.000000 -0.000000 0.000000 
0.000000 -0.000000 0.000000 
0.000000 0.000000 0.000000 

-0.000000 -0.000000 0.000000 
0.000000 -0.000000 0.000000 
0.000000 0.000000 0.000000 

-0.000000 -0.000000 0.000000 
0.000000 0.000000 0.000000 
0.000000 0.000000 0.000000 

-0.000000 -0.000000 0.000000 
0.000000 -0.000000 0.000000 
0.000000 0.000000 0.000000 

0.000000 0.000000 0.000000 
0.000000 0.000000 0.000000 
0.000000 0.000000 0.000000 

-0.000000 0.000000 0.000000 
0.000000 -0.000000 0.000000 
0.000000 0.000000 0.000000 

0.000000 -0.000000 0.000000 
0.000000 0.000000 0.000000 
0.000000 0.000000 0.000000 

-0.000000 -0.000000 0.000000 
0.000000 -0.000000 0.000000 
0.000000 0.000000 0.000000 

-0.000000 0.000000 0.000000 
0.000000 -0.000000 0.000000 
0.000000 0.000000 0.000000 

0.000000 0.000000 0.000000 
0.000000 0.000000 0.000000 
0.000000 0.000000 0.000000 

0.000000 0.000000 0.000000 
0.000000 -0.000000 0.000000 
0.000000 0.000000 0.000000 

0.000000 0.000000 0.000000 
0.000000 0.000000 0.000000 
0.000000 0.000000 0.000000 

-0.000000 0.000000 0.000000 
0.000000 -0.000000 0.000000 
0.000000 0.000000 0.000000 

0.000000 -0.000000 0.000000 
0.000000 0.000000 0.000000 
0.000000 0.000000 0.000000 

-0.000000 -0.000000 0.000000 
0.000000 -0.000000 0.000000 
0.000000 0.000000 0.000000 

-0.000000 0.000000 0.000000 
0.000000 0.000000 0.000000 
0.000000 0.000000 0.000000 

-0.000000 -0.000000 0.000000 
0.000000 -0.000000 0.000000 
0.000000 0.000000 0.000000 

-0.000000 0.000000 0.000000 
0.000000 -0.000000 0.000000 
0.000000 0.000000 0.000000 

-0.000000 0.000000 0.000000 
0.000000 -0.000000 0.000000 
0.000000 0.000000 0.000000 

0.000000 -0.000000 0.000000 
0.000000 0.000000 0.000000 
0.000000 0.000000 0.000000 

0.000000 0.000000 0.000000 
0.000000 -0.000000 0.000000 
0.000000 0.000000 0.000000 

-0.000000 -0.000000 0.000000 
0.000000 0.000000 0.000000 
0.000000 0.000000 0.000000 

0.000000 -0.000000 0.000000 
0.000000 0.000000 0.000000 
0.000000 0.000000 0.000000 

-0.000000 -0.000000 0.000000 
0.000000 0.000000 0.000000 
0.000000 0.000000 0.000000 

0.000000 -0.000000 0.000000 
0.000000 0.000000 0.000000 
0.000000 0.000000 0.000000 

0.000000 -0.000000 0.000000 
0.000000 0.000000 0.000000 
0.000000 0.000000 0.000000 

0.000000 -0.000000 0.000000 
0.000000 0.000000 0.000000 
0.000000 0.000000 0.000000 

-0.000000 0.000000 0.000000 
0.000000 -0.000000 0.000000 
0.000000 0.000000 0.000000 

0.000000 0.000000 0.000000 
0.000000 -0.000000 0.000000 
0.000000 0.000000 0.000000 

0.000000 0.000000 0.000000 
0.000000 0.000000 0.000000 
0.000000 0.000000 0.000000 

0.000000 0.000000 0.000000 
0.000000 0.000000 0.000000 
0.000000 0.000000 0.000000 

-0.000000 0.000000 0.000000 
0.000000 0.000000 0.000000 
0.000000 0.000000 0.000000 

-0.000000 -0.000000 0.000000 
0.000000 -0.000000 0.000000 
0.000000 0.000000 0.000000 

-0.000000 0.000000 0.000000 
0.000000 0.000000 0.000000 
0.000000 0.000000 0.000000 

0.000000 -0.000000 0.000000 
0.000000 0.000000 0.000000 
0.000000 0.000000 0.000000 

-0.000000 -0.000000 0.000000 
0.000000 -0.000000 0.000000 
0.000000 0.000000 0.000000 

0.000000 0.000000 0.000000 
0.000000 0.000000 0.000000 
0.000000 0.000000 0.000000 

0.000000 0.000000 0.000000 
0.000000 0.000000 0.000000 
0.000000 0.000000 0.000000 

0.000000 0.000000 0.000000 
0.000000 -0.000000 0.000000 
0.000000 0.000000 0.000000 

0.000000 -0.000000 0.000000 
0.000000 0.000000 0.000000 
0.000000 0.000000 0.000000 

-0.000000 0.000000 0.000000 
0.000000 -0.000000 0.000000 
0.000000 0.000000 0.000000 

0.000000 -0.000000 0.000000 
0.000000 0.000000 0.000000 
0.000000 0.000000 0.000000 

-0.000000 0.000000 0.000000 
0.000000 -0.000000 0.000000 
0.000000 0.000000 0.000000 

0.000000 -0.000000 0.000000 
0.000000 0.000000 0.000000 
0.000000 0.000000 0.000000 

-0.000000 0.000000 0.000000 
0.000000 -0.000000 0.000000 
0.000000 0.000000 0.000000 

0.000000 0.000000 0.000000 
0.000000 -0.000000 0.000000 
0.000000 0.000000 0.000000 

-0.000000 0.000000 0.000000 
0.000000 -0.000000 0.000000 
0.000000 0.000000 0.000000 

0.000000 -0.000000 0.000000 
0.000000 -0.000000 0.000000 
0.000000 0.000000 0.000000 

-0.000000 0.000000 0.000000 
0.000000 0.000000 0.000000 
0.000000 0.000000 0.000000 

0.000000 0.000000 0.000000 
0.000000 0.000000 0.000000 
0.000000 0.000000 0.000000 

0.000000 0.000000 0.000000 
0.000000 -0.000000 0.000000 
0.000000 0.000000 0.000000 

0.000000 -0.000000 0.000000 
0.000000 -0.000000 0.000000 
0.000000 0.000000 0.000000 

0.000000 0.000000 0.000000 
0.000000 0.000000 0.000000 
0.000000 0.000000 0.000000 

0.000000 0.000000 0.000000 
0.000000 0.000000 0.000000 
0.000000 0.000000 0.000000 

0.000000 0.000000 0.000000 
0.000000 0.000000 0.000000 
0.000000 0.000000 0.000000 

0.000000 0.000000 0.000000 
0.000000 0.000000 0.000000 
0.000000 0.000000 0.000000 

0.000000 0.000000 0.000000 
0.000000 -0.000000 0.000000 
0.000000 0.000000 0.000000 

-0.000000 0.000000 0.000000 
0.000000 -0.000000 0.000000 
0.000000 0.000000 0.000000 

0.000000 0.000000 0.000000 
0.000000 0.000000 0.000000 
0.000000 0.000000 0.000000 

0.000000 0.000000 0.000000 
0.000000 0.000000 0.000000 
0.000000 0.000000 0.000000 

0.000000 0.000000 0.000000 
0.000000 0.000000 0.000000 
0.000000 0.000000 0.000000 

0.000000 0.000000 0.000000 
0.000000 0.000000 0.000000 
0.000000 0.000000 0.000000 

-0.000000 0.000000 0.000000 
0.000000 -0.000000 0.000000 
0.000000 0.000000 0.000000 

0.000000 0.000000 0.000000 
0.000000 -0.000000 0.000000 
0.000000 0.000000 0.000000 

0.000000 0.000000 0.000000 
0.000000 0.000000 0.000000 
0.000000 0.000000 0.000000 

0.000000 0.000000 0.000000 
0.000000 0.000000 0.000000 
0.000000 0.000000 0.000000 

-0.000000 0.000000 0.000000 
0.000000 -0.000000 0.000000 
0.000000 0.000000 0.000000 

-0.000000 0.000000 0.000000 
0.000000 -0.000000 0.000000 
0.000000 0.000000 0.000000 

-0.000000 0.000000 0.000000 
0.000000 -0.000000 0.000000 
0.000000 0.000000 0.000000 

-0.000000 -0.000000 0.000000 
0.000000 -0.000000 0.000000 
0.000000 0.000000 0.000000 

0.000000 0.000000 0.000000 
0.000000 0.000000 0.000000 
0.000000 0.000000 0.000000 

0.000000 0.000000 0.000000 
0.000000 0.000000 0.000000 
0.000000 0.000000 0.000000 

0.000000 0.000000 0.000000 
0.000000 -0.000000 0.000000 
0.000000 0.000000 0.000000 

0.000000 0.000000 0.000000 
0.000000 0.000000 0.000000 
0.000000 0.000000 0.000000 

0.000000 0.000000 0.000000 
0.000000 0.000000 0.000000 
0.000000 0.000000 0.000000 

-0.000000 -0.000000 0.000000 
0.000000 -0.000000 0.000000 
0.000000 0.000000 0.000000 

-0.000000 -0.000000 0.000000 
0.000000 -0.000000 0.000000 
0.000000 0.000000 0.000000 

-0.000000 -0.000000 0.000000 
0.000000 -0.000000 0.000000 
0.000000 0.000000 0.000000 

0.000000 -0.000000 0.000000 
0.000000 -0.000000 0.000000 
0.000000 0.000000 0.000000 

0.000000 -0.000000 0.000000 
0.000000 0.000000 0.000000 
0.000000 0.000000 0.000000 

0.000000 -0.000000 0.000000 
0.000000 0.000000 0.000000 
0.000000 0.000000 0.000000 

-0.000000 0.000000 0.000000 
0.000000 -0.000000 0.000000 
0.000000 0.000000 0.000000 

0.000000 -0.000000 0.000000 
0.000000 0.000000 0.000000 
0.000000 0.000000 0.000000 

0.000000 -0.000000 0.000000 
0.000000 0.000000 0.000000 
0.000000 0.000000 0.000000 

0.000000 -0.000000 0.000000 
0.000000 0.000000 0.000000 
0.000000 0.000000 0.000000 

0.000000 -0.000000 0.000000 
0.000000 0.000000 0.000000 
0.000000 0.000000 0.000000 

0.000000 -0.000000 0.000000 
0.000000 0.000000 0.000000 
0.000000 0.000000 0.000000 

-0.000000 -0.000000 0.000000 
0.000000 -0.000000 0.000000 
0.000000 0.000000 0.000000 

0.000000 -0.000000 0.000000 
0.000000 -0.000000 0.000000 
0.000000 0.000000 0.000000 

-0.000000 0.000000 0.000000 
0.000000 -0.000000 0.000000 
0.000000 0.000000 0.000000 

-0.000000 0.000000 0.000000 
0.000000 -0.000000 0.000000 
0.000000 0.000000 0.000000 

TENSORS STRAIN float 
0.000000 0.000000 0.000000 
0.000000 -0.000000 0.000000 
0.000000 0.000000 0.000000 

0.000000 0.000000 0.000000 
0.000000 0.000000 0.000000 
0.000000 0.000000 0.000000 

-0.000000 0.000000 0.000000 
0.000000 -0.000000 0.000000 
0.000000 0.000000 0.000000 

-0.000000 -0.000000 0.000000 
0.000000 -0.000000 0.000000 
0.000000 0.000000 0.000000 

-0.000000 0.000000 0.000000 
0.000000 -0.000000 0.000000 
0.000000 0.000000 0.000000 

-0.000000 -0.000000 0.000000 
0.000000 0.000000 0.000000 
0.000000 0.000000 0.000000 

-0.000000 0.000000 0.000000 
0.000000 0.000000 0.000000 
0.000000 0.000000 0.000000 

-0.000000 0.000000 0.000000 
0.000000 -0.000000 0.000000 
0.000000 0.000000 0.000000 

0.000000 -0.000000 0.000000 
0.000000 -0.000000 0.000000 
0.000000 0.000000 0.000000 

-0.000000 0.000000 0.000000 
0.000000 0.000000 0.000000 
0.000000 0.000000 0.000000 

-0.000000 0.000000 0.000000 
0.000000 -0.000000 0.000000 
0.000000 0.000000 0.000000 

-0.000000 0.000000 0.000000 
0.000000 0.000000 0.000000 
0.000000 0.000000 0.000000 

-0.000000 0.000000 0.000000 
0.000000 0.000000 0.000000 
0.000000 0.000000 0.000000 

-0.000000 -0.000000 0.000000 
0.000000 -0.000000 0.000000 
0.000000 0.000000 0.000000 

0.000000 -0.000000 0.000000 
0.000000 -0.000000 0.000000 
0.000000 0.000000 0.000000 

-0.000000 -0.000000 0.000000 
0.000000 0.000000 0.000000 
0.000000 0.000000 0.000000 

-0.000000 0.000000 0.000000 
0.000000 0.000000 0.000000 
0.000000 0.000000 0.000000 

-0.000000 -0.000000 0.000000 
0.000000 0.000000 0.000000 
0.000000 0.000000 0.000000 

-0.000000 -0.000000 0.000000 
0.000000 0.000000 0.000000 
0.000000 0.000000 0.000000 

-0.000000 0.000000 0.000000 
0.000000 -0.000000 0.000000 
0.000000 0.000000 0.000000 

-0.000000 0.000000 0.000000 
0.000000 0.000000 0.000000 
0.000000 0.000000 0.000000 

-0.000000 -0.000000 0.000000 
0.000000 -0.000000 0.000000 
0.000000 0.000000 0.000000 

-0.000000 -0.000000 0.000000 
0.000000 0.000000 0.000000 
0.000000 0.000000 0.000000 

-0.000000 0.000000 0.000000 
0.000000 0.000000 0.000000 
0.000000 0.000000 0.000000 

-0.000000 -0.000000 0.000000 
0.000000 -0.000000 0.000000 
0.000000 0.000000 0.000000 

0.000000 -0.000000 0.000000 
0.000000 -0.000000 0.000000 
0.000000 0.000000 0.000000 

0.000000 0.000000 0.000000 
0.000000 -0.000000 0.000000 
0.000000 0.000000 0.000000 

-0.000000 0.000000 0.000000 
0.000000 0.000000 0.000000 
0.000000 0.000000 0.000000 

0.000000 0.000000 0.000000 
0.000000 -0.000000 0.000000 
0.000000 0.000000 0.000000 

-0.000000 0.000000 0.000000 
0.000000 -0.000000 0.000000 
0.000000 0.000000 0.000000 

-0.000000 0.000000 0.000000 
0.000000 -0.000000 0.000000 
0.000000 0.000000 0.000000 

0.000000 0.000000 0.000000 
0.000000 -0.000000 0.000000 
0.000000 0.000000 0.000000 

-0.000000 -0.000000 0.000000 
0.000000 -0.000000 0.000000 
0.000000 0.000000 0.000000 

0.000000 -0.000000 0.000000 
0.000000 -0.000000 0.000000 
0.000000 0.000000 0.000000 

-0.000000 -0.000000 0.000000 
0.000000 0.000000 0.000000 
0.000000 0.000000 0.000000 

-0.000000 0.000000 0.000000 
0.000000 0.000000 0.000000 
0.000000 0.000000 0.000000 

0.000000 -0.000000 0.000000 
0.000000 0.000000 0.000000 
0.000000 0.000000 0.000000 

0.000000 0.000000 0.000000 
0.000000 -0.000000 0.000000 
0.000000 0.000000 0.000000 

0.000000 0.000000 0.000000 
0.000000 -0.000000 0.000000 
0.000000 0.000000 0.000000 

0.000000 0.000000 0.000000 
0.000000 -0.000000 0.000000 
0.000000 0.000000 0.000000 

-0.000000 -0.000000 0.000000 
0.000000 0.000000 0.000000 
0.000000 0.000000 0.000000 

-0.000000 0.000000 0.000000 
0.000000 -0.000000 0.000000 
0.000000 0.000000 0.000000 

-0.000000 0.000000 0.000000 
0.000000 -0.000000 0.000000 
0.000000 0.000000 0.000000 

-0.000000 -0.000000 0.000000 
0.000000 0.000000 0.000000 
0.000000 0.000000 0.000000 

-0.000000 0.000000 0.000000 
0.000000 -0.000000 0.000000 
0.000000 0.000000 0.000000 

-0.000000 -0.000000 0.000000 
0.000000 -0.000000 0.000000 
0.000000 0.000000 0.000000 

-0.000000 -0.000000 0.000000 
0.000000 -0.000000 0.000000 
0.000000 0.000000 0.000000 

0.000000 0.000000 0.000000 
0.000000 -0.000000 0.000000 
0.000000 0.000000 0.000000 

-0.000000 -0.000000 0.000000 
0.000000 0.000000 0.000000 
0.000000 0.000000 0.000000 

-0.000000 0.000000 0.000000 
0.000000 -0.000000 0.000000 
0.000000 0.000000 0.000000 

-0.000000 0.000000 0.000000 
0.000000 0.000000 0.000000 
0.000000 0.000000 0.000000 

0.000000 0.000000 0.000000 
0.000000 0.000000 0.000000 
0.000000 0.000000 0.000000 

0.000000 -0.000000 0.000000 
0.000000 -0.000000 0.000000 
0.000000 0.000000 0.000000 

0.000000 0.000000 0.000000 
0.000000 0.000000 0.000000 
0.000000 0.000000 0.000000 

0.000000 0.000000 0.000000 
0.000000 -0.000000 0.000000 
0.000000 0.000000 0.000000 

0.000000 -0.000000 0.000000 
0.000000 -0.000000 0.000000 
0.000000 0.000000 0.000000 

0.000000 0.000000 0.000000 
0.000000 0.000000 0.000000 
0.000000 0.000000 0.000000 

0.000000 0.000000 0.000000 
0.000000 -0.000000 0.000000 
0.000000 0.000000 0.000000 

-0.000000 0.000000 0.000000 
0.000000 -0.000000 0.000000 
0.000000 0.000000 0.000000 

0.000000 -0.000000 0.000000 
0.000000 -0.000000 0.000000 
0.000000 0.000000 0.000000 

0.000000 0.000000 0.000000 
0.000000 -0.000000 0.000000 
0.000000 0.000000 0.000000 

0.000000 0.000000 0.000000 
0.000000 -0.000000 0.000000 
0.000000 0.000000 0.000000 

-0.000000 0.000000 0.000000 
0.000000 0.000000 0.000000 
0.000000 0.000000 0.000000 

-0.000000 0.000000 0.000000 
0.000000 0.000000 0.000000 
0.000000 0.000000 0.000000 

0.000000 -0.000000 0.000000 
0.000000 0.000000 0.000000 
0.000000 0.000000 0.000000 

-0.000000 0.000000 0.000000 
0.000000 -0.000000 0.000000 
0.000000 0.000000 0.000000 

-0.000000 -0.000000 0.000000 
0.000000 0.000000 0.000000 
0.000000 0.000000 0.000000 

0.000000 0.000000 0.000000 
0.000000 -0.000000 0.000000 
0.000000 0.000000 0.000000 

0.000000 0.000000 0.000000 
0.000000 0.000000 0.000000 
0.000000 0.000000 0.000000 

0.000000 -0.000000 0.000000 
0.000000 0.000000 0.000000 
0.000000 0.000000 0.000000 

0.000000 -0.000000 0.000000 
0.000000 -0.000000 0.000000 
0.000000 0.000000 0.000000 

-0.000000 -0.000000 0.000000 
0.000000 -0.000000 0.000000 
0.000000 0.000000 0.000000 

-0.000000 0.000000 0.000000 
0.000000 -0.000000 0.000000 
0.000000 0.000000 0.000000 

0.000000 -0.000000 0.000000 
0.000000 -0.000000 0.000000 
0.000000 0.000000 0.000000 

0.000000 0.000000 0.000000 
0.000000 0.000000 0.000000 
0.000000 0.000000 0.000000 

0.000000 0.000000 0.000000 
0.000000 -0.000000 0.000000 
0.000000 0.000000 0.000000 

-0.000000 -0.000000 0.000000 
0.000000 -0.000000 0.000000 
0.000000 0.000000 0.000000 

-0.000000 -0.000000 0.000000 
0.000000 0.000000 0.000000 
0.000000 0.000000 0.000000 

-0.000000 -0.000000 0.000000 
0.000000 0.000000 0.000000 
0.000000 0.000000 0.000000 

0.000000 -0.000000 0.000000 
0.000000 0.000000 0.000000 
0.000000 0.000000 0.000000 

-0.000000 -0.000000 0.000000 
0.000000 0.000000 0.000000 
0.000000 0.000000 0.000000 

-0.000000 -0.000000 0.000000 
0.000000 -0.000000 0.000000 
0.000000 0.000000 0.000000 

-0.000000 0.000000 0.000000 
0.000000 0.000000 0.000000 
0.000000 0.000000 0.000000 

0.000000 0.000000 0.000000 
0.000000 0.000000 0.000000 
0.000000 0.000000 0.000000 

-0.000000 -0.000000 0.000000 
0.000000 -0.000000 0.000000 
0.000000 0.000000 0.000000 

-0.000000 -0.000000 0.000000 
0.000000 0.000000 0.000000 
0.000000 0.000000 0.000000 

-0.000000 -0.000000 0.000000 
0.000000 0.000000 0.000000 
0.000000 0.000000 0.000000 

-0.000000 -0.000000 0.000000 
0.000000 -0.000000 0.000000 
0.000000 0.000000 0.000000 

-0.000000 0.000000 0.000000 
0.000000 0.000000 0.000000 
0.000000 0.000000 0.000000 

0.000000 0.000000 0.000000 
0.000000 -0.000000 0.000000 
0.000000 0.000000 0.000000 

-0.000000 -0.000000 0.000000 
0.000000 0.000000 0.000000 
0.000000 0.000000 0.000000 

-0.000000 -0.000000 0.000000 
0.000000 -0.000000 0.000000 
0.000000 0.000000 0.000000 

-0.000000 0.000000 0.000000 
0.000000 -0.000000 0.000000 
0.000000 0.000000 0.000000 

0.000000 0.000000 0.000000 
0.000000 0.000000 0.000000 
0.000000 0.000000 0.000000 

0.000000 0.000000 0.000000 
0.000000 -0.000000 0.000000 
0.000000 0.000000 0.000000 

0.000000 0.000000 0.000000 
0.000000 0.000000 0.000000 
0.000000 0.000000 0.000000 

0.000000 0.000000 0.000000 
0.000000 -0.000000 0.000000 
0.000000 0.000000 0.000000 

-0.000000 -0.000000 0.000000 
0.000000 0.000000 0.000000 
0.000000 0.000000 0.000000 

-0.000000 -0.000000 0.000000 
0.000000 0.000000 0.000000 
0.000000 0.000000 0.000000 

-0.000000 0.000000 0.000000 
0.000000 0.000000 0.000000 
0.000000 0.000000 0.000000 

-0.000000 -0.000000 0.000000 
0.000000 -0.000000 0.000000 
0.000000 0.000000 0.000000 

-0.000000 0.000000 0.000000 
0.000000 -0.000000 0.000000 
0.000000 0.000000 0.000000 

-0.000000 0.000000 0.000000 
0.000000 -0.000000 0.000000 
0.000000 0.000000 0.000000 

0.000000 -0.000000 0.000000 
0.000000 0.000000 0.000000 
0.000000 0.000000 0.000000 

0.000000 0.000000 0.000000 
0.000000 -0.000000 0.000000 
0.000000 0.000000 0.000000 

-0.000000 -0.000000 0.000000 
0.000000 0.000000 0.000000 
0.000000 0.000000 0.000000 

-0.000000 -0.000000 0.000000 
0.000000 0.000000 0.000000 
0.000000 0.000000 0.000000 

-0.000000 -0.000000 0.000000 
0.000000 0.000000 0.000000 
0.000000 0.000000 0.000000 

0.000000 -0.000000 0.000000 
0.000000 0.000000 0.000000 
0.000000 0.000000 0.000000 

0.000000 -0.000000 0.000000 
0.000000 0.000000 0.000000 
0.000000 0.000000 0.000000 

0.000000 -0.000000 0.000000 
0.000000 0.000000 0.000000 
0.000000 0.000000 0.000000 

0.000000 0.000000 0.000000 
0.000000 -0.000000 0.000000 
0.000000 0.000000 0.000000 

0.000000 0.000000 0.000000 
0.000000 -0.000000 0.000000 
0.000000 0.000000 0.000000 

0.000000 0.000000 0.000000 
0.000000 -0.000000 0.000000 
0.000000 0.000000 0.000000 

0.000000 0.000000 0.000000 
0.000000 0.000000 0.000000 
0.000000 0.000000 0.000000 

-0.000000 0.000000 0.000000 
0.000000 0.000000 0.000000 
0.000000 0.000000 0.000000 

-0.000000 -0.000000 0.000000 
0.000000 -0.000000 0.000000 
0.000000 0.000000 0.000000 

-0.000000 0.000000 0.000000 
0.000000 0.000000 0.000000 
0.000000 0.000000 0.000000 

-0.000000 -0.000000 0.000000 
0.000000 0.000000 0.000000 
0.000000 0.000000 0.000000 

0.000000 -0.000000 0.000000 
0.000000 -0.000000 0.000000 
0.000000 0.000000 0.000000 

0.000000 0.000000 0.000000 
0.000000 0.000000 0.000000 
0.000000 0.000000 0.000000 

0.000000 0.000000 0.000000 
0.000000 0.000000 0.000000 
0.000000 0.000000 0.000000 

0.000000 0.000000 0.000000 
0.000000 -0.000000 0.000000 
0.000000 0.000000 0.000000 

0.000000 -0.000000 0.000000 
0.000000 -0.000000 0.000000 
0.000000 0.000000 0.000000 

-0.000000 0.000000 0.000000 
0.000000 -0.000000 0.000000 
0.000000 0.000000 0.000000 

0.000000 -0.000000 0.000000 
0.000000 0.000000 0.000000 
0.000000 0.000000 0.000000 

-0.000000 0.000000 0.000000 
0.000000 -0.000000 0.000000 
0.000000 0.000000 0.000000 

-0.000000 -0.000000 0.000000 
0.000000 0.000000 0.000000 
0.000000 0.000000 0.000000 

-0.000000 0.000000 0.000000 
0.000000 -0.000000 0.000000 
0.000000 0.000000 0.000000 

0.000000 0.000000 0.000000 
0.000000 -0.000000 0.000000 
0.000000 0.000000 0.000000 

-0.000000 0.000000 0.000000 
0.000000 -0.000000 0.000000 
0.000000 0.000000 0.000000 

0.000000 -0.000000 0.000000 
0.000000 -0.000000 0.000000 
0.000000 0.000000 0.000000 

-0.000000 0.000000 0.000000 
0.000000 0.000000 0.000000 
0.000000 0.000000 0.000000 

0.000000 0.000000 0.000000 
0.000000 0.000000 0.000000 
0.000000 0.000000 0.000000 

0.000000 0.000000 0.000000 
0.000000 -0.000000 0.000000 
0.000000 0.000000 0.000000 

0.000000 -0.000000 0.000000 
0.000000 -0.000000 0.000000 
0.000000 0.000000 0.000000 

0.000000 0.000000 0.000000 
0.000000 -0.000000 0.000000 
0.000000 0.000000 0.000000 

0.000000 0.000000 0.000000 
0.000000 -0.000000 0.000000 
0.000000 0.000000 0.000000 

0.000000 0.000000 0.000000 
0.000000 0.000000 0.000000 
0.000000 0.000000 0.000000 

0.000000 0.000000 0.000000 
0.000000 0.000000 0.000000 
0.000000 0.000000 0.000000 

0.000000 0.000000 0.000000 
0.000000 -0.000000 0.000000 
0.000000 0.000000 0.000000 

-0.000000 0.000000 0.000000 
0.000000 -0.000000 0.000000 
0.000000 0.000000 0.000000 

-0.000000 0.000000 0.000000 
0.000000 0.000000 0.000000 
0.000000 0.000000 0.000000 

0.000000 0.000000 0.000000 
0.000000 -0.000000 0.000000 
0.000000 0.000000 0.000000 

0.000000 0.000000 0.000000 
0.000000 0.000000 0.000000 
0.000000 0.000000 0.000000 

0.000000 0.000000 0.000000 
0.000000 0.000000 0.000000 
0.000000 0.000000 0.000000 

0.000000 0.000000 0.000000 
0.000000 -0.000000 0.000000 
0.000000 0.000000 0.000000 

0.000000 0.000000 0.000000 
0.000000 -0.000000 0.000000 
0.000000 0.000000 0.000000 

0.000000 0.000000 0.000000 
0.000000 0.000000 0.000000 
0.000000 0.000000 0.000000 

0.000000 0.000000 0.000000 
0.000000 0.000000 0.000000 
0.000000 0.000000 0.000000 

0.000000 0.000000 0.000000 
0.000000 -0.000000 0.000000 
0.000000 0.000000 0.000000 

-0.000000 0.000000 0.000000 
0.000000 -0.000000 0.000000 
0.000000 0.000000 0.000000 

-0.000000 0.000000 0.000000 
0.000000 -0.000000 0.000000 
0.000000 0.000000 0.000000 

0.000000 -0.000000 0.000000 
0.000000 -0.000000 0.000000 
0.000000 0.000000 0.000000 

0.000000 0.000000 0.000000 
0.000000 0.000000 0.000000 
0.000000 0.000000 0.000000 

-0.000000 0.000000 0.000000 
0.000000 0.000000 0.000000 
0.000000 0.000000 0.000000 

0.000000 0.000000 0.000000 
0.000000 -0.000000 0.000000 
0.000000 0.000000 0.000000 

0.000000 0.000000 0.000000 
0.000000 0.000000 0.000000 
0.000000 0.000000 0.000000 

0.000000 0.000000 0.000000 
0.000000 0.000000 0.000000 
0.000000 0.000000 0.000000 

-0.000000 -0.000000 0.000000 
0.000000 -0.000000 0.000000 
0.000000 0.000000 0.000000 

0.000000 -0.000000 0.000000 
0.000000 -0.000000 0.000000 
0.000000 0.000000 0.000000 

0.000000 -0.000000 0.000000 
0.000000 -0.000000 0.000000 
0.000000 0.000000 0.000000 

0.000000 -0.000000 0.000000 
0.000000 -0.000000 0.000000 
0.000000 0.000000 0.000000 

0.000000 -0.000000 0.000000 
0.000000 0.000000 0.000000 
0.000000 0.000000 0.000000 

0.000000 -0.000000 0.000000 
0.000000 0.000000 0.000000 
0.000000 0.000000 0.000000 

0.000000 0.000000 0.000000 
0.000000 -0.000000 0.000000 
0.000000 0.000000 0.000000 

-0.000000 -0.000000 0.000000 
0.000000 0.000000 0.000000 
0.000000 0.000000 0.000000 

-0.000000 -0.000000 0.000000 
0.000000 0.000000 0.000000 
0.000000 0.000000 0.000000 

0.000000 -0.000000 0.000000 
0.000000 0.000000 0.000000 
0.000000 0.000000 0.000000 

0.000000 -0.000000 0.000000 
0.000000 -0.000000 0.000000 
0.000000 0.000000 0.000000 

0.000000 -0.000000 0.000000 
0.000000 0.000000 0.000000 
0.000000 0.000000 0.000000 

0.000000 -0.000000 0.000000 
0.000000 -0.000000 0.000000 
0.000000 0.000000 0.000000 

0.000000 -0.000000 0.000000 
0.000000 -0.000000 0.000000 
0.000000 0.000000 0.000000 

-0.000000 0.000000 0.000000 
0.000000 -0.000000 0.000000 
0.000000 0.000000 0.000000 

-0.000000 0.000000 0.000000 
0.000000 -0.000000 0.000000 
0.000000 0.000000 0.000000 

