# vtk DataFile Version 3.0 
vtk output 
ASCII 
DATASET UNSTRUCTURED_GRID 
POINTS 175 float 
-0.026061 -1.126460 0.000000 
-0.106992 -1.058405 0.000000 
-0.054870 -1.066637 0.000000 
-0.028809 -1.020754 0.000000 
-0.186430 -0.994329 0.000000 
-0.137056 -0.996855 0.000000 
-0.114311 -0.943208 0.000000 
-0.058186 -0.958874 0.000000 
-0.029377 -0.918696 0.000000 
-0.265318 -0.931173 0.000000 
-0.217198 -0.931973 0.000000 
-0.196633 -0.874676 0.000000 
-0.143120 -0.883385 0.000000 
-0.116563 -0.836117 0.000000 
-0.058945 -0.855762 0.000000 
-0.029568 -0.817642 0.000000 
-0.344206 -0.868018 0.000000 
-0.296791 -0.868010 0.000000 
-0.278030 -0.808068 0.000000 
-0.225992 -0.813934 0.000000 
-0.201664 -0.761817 0.000000 
-0.145749 -0.775291 0.000000 
-0.117890 -0.730948 0.000000 
-0.059328 -0.753654 0.000000 
-0.029759 -0.716588 0.000000 
-0.058559 -1.167211 0.000000 
-0.162226 -1.188053 0.000000 
-0.123292 -1.152436 0.000000 
-0.142917 -1.103452 0.000000 
-0.261851 -1.210210 0.000000 
-0.229092 -1.173183 0.000000 
-0.256854 -1.121951 0.000000 
-0.209613 -1.087839 0.000000 
-0.223062 -1.040265 0.000000 
-0.360414 -1.232510 0.000000 
-0.329787 -1.195387 0.000000 
-0.361761 -1.143585 0.000000 
-0.321587 -1.107176 0.000000 
-0.341985 -1.056942 0.000000 
-0.290702 -1.024143 0.000000 
-0.302189 -0.977408 0.000000 
-0.458977 -1.254810 0.000000 
-0.429420 -1.217735 0.000000 
-0.464588 -1.165694 0.000000 
-0.427556 -1.128666 0.000000 
-0.453135 -1.077151 0.000000 
-0.407738 -1.041836 0.000000 
-0.425037 -0.992408 0.000000 
-0.370772 -0.960779 0.000000 
-0.381315 -0.914551 0.000000 
-0.046960 -1.218026 0.000000 
-0.095301 -1.312072 0.000000 
-0.098873 -1.259425 0.000000 
-0.149405 -1.244227 0.000000 
-0.140093 -1.403776 0.000000 
-0.148617 -1.355078 0.000000 
-0.205981 -1.344840 0.000000 
-0.203197 -1.286637 0.000000 
-0.248777 -1.267491 0.000000 
-0.184111 -1.494740 0.000000 
-0.194039 -1.447648 0.000000 
-0.254475 -1.440349 0.000000 
-0.257893 -1.386239 0.000000 
-0.309886 -1.370867 0.000000 
-0.303554 -1.310322 0.000000 
-0.347255 -1.290164 0.000000 
-0.228129 -1.585703 0.000000 
-0.238687 -1.539479 0.000000 
-0.301302 -1.534527 0.000000 
-0.307162 -1.482488 0.000000 
-0.363386 -1.470367 0.000000 
-0.362692 -1.412856 0.000000 
-0.412122 -1.395562 0.000000 
-0.403017 -1.333416 0.000000 
-0.445733 -1.312837 0.000000 
-0.000000 -1.240641 0.000000 
0.043388 -1.337072 0.000000 
-0.000000 -1.307039 0.000000 
-0.043388 -1.337072 0.000000 
0.087158 -1.429268 0.000000 
0.043769 -1.405570 0.000000 
-0.000000 -1.444035 0.000000 
-0.043769 -1.405570 0.000000 
-0.087158 -1.429268 0.000000 
0.130831 -1.520398 0.000000 
0.087824 -1.498799 0.000000 
0.044436 -1.541499 0.000000 
-0.000000 -1.510434 0.000000 
-0.044436 -1.541499 0.000000 
-0.087824 -1.498799 0.000000 
-0.130831 -1.520398 0.000000 
0.174505 -1.611528 0.000000 
0.131782 -1.590961 0.000000 
0.088871 -1.636828 0.000000 
0.044532 -1.608964 0.000000 
-0.000000 -1.645364 0.000000 
-0.044532 -1.608964 0.000000 
-0.088871 -1.636828 0.000000 
-0.131782 -1.590961 0.000000 
-0.174505 -1.611528 0.000000 
0.046960 -1.218026 0.000000 
0.149405 -1.244227 0.000000 
0.098873 -1.259425 0.000000 
0.095301 -1.312072 0.000000 
0.248777 -1.267491 0.000000 
0.203197 -1.286637 0.000000 
0.205981 -1.344840 0.000000 
0.148617 -1.355078 0.000000 
0.140093 -1.403776 0.000000 
0.347255 -1.290164 0.000000 
0.303554 -1.310322 0.000000 
0.309886 -1.370867 0.000000 
0.257893 -1.386239 0.000000 
0.254475 -1.440349 0.000000 
0.194039 -1.447648 0.000000 
0.184111 -1.494740 0.000000 
0.445733 -1.312837 0.000000 
0.403017 -1.333416 0.000000 
0.412122 -1.395562 0.000000 
0.362692 -1.412856 0.000000 
0.363386 -1.470367 0.000000 
0.307162 -1.482488 0.000000 
0.301302 -1.534527 0.000000 
0.238687 -1.539479 0.000000 
0.228129 -1.585703 0.000000 
0.058559 -1.167211 0.000000 
0.142917 -1.103452 0.000000 
0.123292 -1.152436 0.000000 
0.162226 -1.188053 0.000000 
0.223062 -1.040265 0.000000 
0.209613 -1.087839 0.000000 
0.256854 -1.121951 0.000000 
0.229092 -1.173183 0.000000 
0.261851 -1.210210 0.000000 
0.302189 -0.977408 0.000000 
0.290702 -1.024143 0.000000 
0.341985 -1.056942 0.000000 
0.321587 -1.107176 0.000000 
0.361761 -1.143585 0.000000 
0.329787 -1.195387 0.000000 
0.360414 -1.232510 0.000000 
0.381315 -0.914551 0.000000 
0.370772 -0.960779 0.000000 
0.425037 -0.992408 0.000000 
0.407738 -1.041836 0.000000 
0.453135 -1.077151 0.000000 
0.427556 -1.128666 0.000000 
0.464588 -1.165694 0.000000 
0.429420 -1.217735 0.000000 
0.458977 -1.254810 0.000000 
0.026061 -1.126460 0.000000 
0.028809 -1.020754 0.000000 
0.054870 -1.066637 0.000000 
0.106992 -1.058405 0.000000 
0.029377 -0.918696 0.000000 
0.058186 -0.958874 0.000000 
0.114311 -0.943208 0.000000 
0.137056 -0.996855 0.000000 
0.186430 -0.994329 0.000000 
0.029568 -0.817642 0.000000 
0.058945 -0.855762 0.000000 
0.116563 -0.836117 0.000000 
0.143120 -0.883385 0.000000 
0.196633 -0.874676 0.000000 
0.217198 -0.931973 0.000000 
0.265318 -0.931173 0.000000 
0.029759 -0.716588 0.000000 
0.059328 -0.753654 0.000000 
0.117890 -0.730948 0.000000 
0.145749 -0.775291 0.000000 
0.201664 -0.761817 0.000000 
0.225992 -0.813934 0.000000 
0.278030 -0.808068 0.000000 
0.296791 -0.868010 0.000000 
0.344206 -0.868018 0.000000 
CELLS 175 350 
1 0 
1 1 
1 2 
1 3 
1 4 
1 5 
1 6 
1 7 
1 8 
1 9 
1 10 
1 11 
1 12 
1 13 
1 14 
1 15 
1 16 
1 17 
1 18 
1 19 
1 20 
1 21 
1 22 
1 23 
1 24 
1 25 
1 26 
1 27 
1 28 
1 29 
1 30 
1 31 
1 32 
1 33 
1 34 
1 35 
1 36 
1 37 
1 38 
1 39 
1 40 
1 41 
1 42 
1 43 
1 44 
1 45 
1 46 
1 47 
1 48 
1 49 
1 50 
1 51 
1 52 
1 53 
1 54 
1 55 
1 56 
1 57 
1 58 
1 59 
1 60 
1 61 
1 62 
1 63 
1 64 
1 65 
1 66 
1 67 
1 68 
1 69 
1 70 
1 71 
1 72 
1 73 
1 74 
1 75 
1 76 
1 77 
1 78 
1 79 
1 80 
1 81 
1 82 
1 83 
1 84 
1 85 
1 86 
1 87 
1 88 
1 89 
1 90 
1 91 
1 92 
1 93 
1 94 
1 95 
1 96 
1 97 
1 98 
1 99 
1 100 
1 101 
1 102 
1 103 
1 104 
1 105 
1 106 
1 107 
1 108 
1 109 
1 110 
1 111 
1 112 
1 113 
1 114 
1 115 
1 116 
1 117 
1 118 
1 119 
1 120 
1 121 
1 122 
1 123 
1 124 
1 125 
1 126 
1 127 
1 128 
1 129 
1 130 
1 131 
1 132 
1 133 
1 134 
1 135 
1 136 
1 137 
1 138 
1 139 
1 140 
1 141 
1 142 
1 143 
1 144 
1 145 
1 146 
1 147 
1 148 
1 149 
1 150 
1 151 
1 152 
1 153 
1 154 
1 155 
1 156 
1 157 
1 158 
1 159 
1 160 
1 161 
1 162 
1 163 
1 164 
1 165 
1 166 
1 167 
1 168 
1 169 
1 170 
1 171 
1 172 
1 173 
1 174 
CELL_TYPES 175 
1 
1 
1 
1 
1 
1 
1 
1 
1 
1 
1 
1 
1 
1 
1 
1 
1 
1 
1 
1 
1 
1 
1 
1 
1 
1 
1 
1 
1 
1 
1 
1 
1 
1 
1 
1 
1 
1 
1 
1 
1 
1 
1 
1 
1 
1 
1 
1 
1 
1 
1 
1 
1 
1 
1 
1 
1 
1 
1 
1 
1 
1 
1 
1 
1 
1 
1 
1 
1 
1 
1 
1 
1 
1 
1 
1 
1 
1 
1 
1 
1 
1 
1 
1 
1 
1 
1 
1 
1 
1 
1 
1 
1 
1 
1 
1 
1 
1 
1 
1 
1 
1 
1 
1 
1 
1 
1 
1 
1 
1 
1 
1 
1 
1 
1 
1 
1 
1 
1 
1 
1 
1 
1 
1 
1 
1 
1 
1 
1 
1 
1 
1 
1 
1 
1 
1 
1 
1 
1 
1 
1 
1 
1 
1 
1 
1 
1 
1 
1 
1 
1 
1 
1 
1 
1 
1 
1 
1 
1 
1 
1 
1 
1 
1 
1 
1 
1 
1 
1 
1 
1 
1 
1 
1 
1 
POINT_DATA 175 
VECTORS X_GC float 
-0.026061 -1.126460 0.000000 
-0.106992 -1.058405 0.000000 
-0.054870 -1.066637 0.000000 
-0.028809 -1.020754 0.000000 
-0.186430 -0.994329 0.000000 
-0.137056 -0.996855 0.000000 
-0.114311 -0.943208 0.000000 
-0.058186 -0.958874 0.000000 
-0.029377 -0.918696 0.000000 
-0.265318 -0.931173 0.000000 
-0.217198 -0.931973 0.000000 
-0.196633 -0.874676 0.000000 
-0.143120 -0.883385 0.000000 
-0.116563 -0.836117 0.000000 
-0.058945 -0.855762 0.000000 
-0.029568 -0.817642 0.000000 
-0.344206 -0.868018 0.000000 
-0.296791 -0.868010 0.000000 
-0.278030 -0.808068 0.000000 
-0.225992 -0.813934 0.000000 
-0.201664 -0.761817 0.000000 
-0.145749 -0.775291 0.000000 
-0.117890 -0.730948 0.000000 
-0.059328 -0.753654 0.000000 
-0.029759 -0.716588 0.000000 
-0.058559 -1.167211 0.000000 
-0.162226 -1.188053 0.000000 
-0.123292 -1.152436 0.000000 
-0.142917 -1.103452 0.000000 
-0.261851 -1.210210 0.000000 
-0.229092 -1.173183 0.000000 
-0.256854 -1.121951 0.000000 
-0.209613 -1.087839 0.000000 
-0.223062 -1.040265 0.000000 
-0.360414 -1.232510 0.000000 
-0.329787 -1.195387 0.000000 
-0.361761 -1.143585 0.000000 
-0.321587 -1.107176 0.000000 
-0.341985 -1.056942 0.000000 
-0.290702 -1.024143 0.000000 
-0.302189 -0.977408 0.000000 
-0.458977 -1.254810 0.000000 
-0.429420 -1.217735 0.000000 
-0.464588 -1.165694 0.000000 
-0.427556 -1.128666 0.000000 
-0.453135 -1.077151 0.000000 
-0.407738 -1.041836 0.000000 
-0.425037 -0.992408 0.000000 
-0.370772 -0.960779 0.000000 
-0.381315 -0.914551 0.000000 
-0.046960 -1.218026 0.000000 
-0.095301 -1.312072 0.000000 
-0.098873 -1.259425 0.000000 
-0.149405 -1.244227 0.000000 
-0.140093 -1.403776 0.000000 
-0.148617 -1.355078 0.000000 
-0.205981 -1.344840 0.000000 
-0.203197 -1.286637 0.000000 
-0.248777 -1.267491 0.000000 
-0.184111 -1.494740 0.000000 
-0.194039 -1.447648 0.000000 
-0.254475 -1.440349 0.000000 
-0.257893 -1.386239 0.000000 
-0.309886 -1.370867 0.000000 
-0.303554 -1.310322 0.000000 
-0.347255 -1.290164 0.000000 
-0.228129 -1.585703 0.000000 
-0.238687 -1.539479 0.000000 
-0.301302 -1.534527 0.000000 
-0.307162 -1.482488 0.000000 
-0.363386 -1.470367 0.000000 
-0.362692 -1.412856 0.000000 
-0.412122 -1.395562 0.000000 
-0.403017 -1.333416 0.000000 
-0.445733 -1.312837 0.000000 
-0.000000 -1.240641 0.000000 
0.043388 -1.337072 0.000000 
-0.000000 -1.307039 0.000000 
-0.043388 -1.337072 0.000000 
0.087158 -1.429268 0.000000 
0.043769 -1.405570 0.000000 
-0.000000 -1.444035 0.000000 
-0.043769 -1.405570 0.000000 
-0.087158 -1.429268 0.000000 
0.130831 -1.520398 0.000000 
0.087824 -1.498799 0.000000 
0.044436 -1.541499 0.000000 
-0.000000 -1.510434 0.000000 
-0.044436 -1.541499 0.000000 
-0.087824 -1.498799 0.000000 
-0.130831 -1.520398 0.000000 
0.174505 -1.611528 0.000000 
0.131782 -1.590961 0.000000 
0.088871 -1.636828 0.000000 
0.044532 -1.608964 0.000000 
-0.000000 -1.645364 0.000000 
-0.044532 -1.608964 0.000000 
-0.088871 -1.636828 0.000000 
-0.131782 -1.590961 0.000000 
-0.174505 -1.611528 0.000000 
0.046960 -1.218026 0.000000 
0.149405 -1.244227 0.000000 
0.098873 -1.259425 0.000000 
0.095301 -1.312072 0.000000 
0.248777 -1.267491 0.000000 
0.203197 -1.286637 0.000000 
0.205981 -1.344840 0.000000 
0.148617 -1.355078 0.000000 
0.140093 -1.403776 0.000000 
0.347255 -1.290164 0.000000 
0.303554 -1.310322 0.000000 
0.309886 -1.370867 0.000000 
0.257893 -1.386239 0.000000 
0.254475 -1.440349 0.000000 
0.194039 -1.447648 0.000000 
0.184111 -1.494740 0.000000 
0.445733 -1.312837 0.000000 
0.403017 -1.333416 0.000000 
0.412122 -1.395562 0.000000 
0.362692 -1.412856 0.000000 
0.363386 -1.470367 0.000000 
0.307162 -1.482488 0.000000 
0.301302 -1.534527 0.000000 
0.238687 -1.539479 0.000000 
0.228129 -1.585703 0.000000 
0.058559 -1.167211 0.000000 
0.142917 -1.103452 0.000000 
0.123292 -1.152436 0.000000 
0.162226 -1.188053 0.000000 
0.223062 -1.040265 0.000000 
0.209613 -1.087839 0.000000 
0.256854 -1.121951 0.000000 
0.229092 -1.173183 0.000000 
0.261851 -1.210210 0.000000 
0.302189 -0.977408 0.000000 
0.290702 -1.024143 0.000000 
0.341985 -1.056942 0.000000 
0.321587 -1.107176 0.000000 
0.361761 -1.143585 0.000000 
0.329787 -1.195387 0.000000 
0.360414 -1.232510 0.000000 
0.381315 -0.914551 0.000000 
0.370772 -0.960779 0.000000 
0.425037 -0.992408 0.000000 
0.407738 -1.041836 0.000000 
0.453135 -1.077151 0.000000 
0.427556 -1.128666 0.000000 
0.464588 -1.165694 0.000000 
0.429420 -1.217735 0.000000 
0.458977 -1.254810 0.000000 
0.026061 -1.126460 0.000000 
0.028809 -1.020754 0.000000 
0.054870 -1.066637 0.000000 
0.106992 -1.058405 0.000000 
0.029377 -0.918696 0.000000 
0.058186 -0.958874 0.000000 
0.114311 -0.943208 0.000000 
0.137056 -0.996855 0.000000 
0.186430 -0.994329 0.000000 
0.029568 -0.817642 0.000000 
0.058945 -0.855762 0.000000 
0.116563 -0.836117 0.000000 
0.143120 -0.883385 0.000000 
0.196633 -0.874676 0.000000 
0.217198 -0.931973 0.000000 
0.265318 -0.931173 0.000000 
0.029759 -0.716588 0.000000 
0.059328 -0.753654 0.000000 
0.117890 -0.730948 0.000000 
0.145749 -0.775291 0.000000 
0.201664 -0.761817 0.000000 
0.225992 -0.813934 0.000000 
0.278030 -0.808068 0.000000 
0.296791 -0.868010 0.000000 
0.344206 -0.868018 0.000000 
VECTORS X_EC float 
0.338794 -0.292789 0.000000 
-0.609100 0.788463 0.000000 
0.713312 0.899603 0.000000 
0.374519 0.280174 0.000000 
0.423588 -0.076557 0.000000 
-0.218274 -0.042453 0.000000 
-0.513962 -0.766692 0.000000 
0.756418 -0.555206 0.000000 
0.381900 0.902402 0.000000 
-0.550868 -0.929160 0.000000 
0.823577 -0.918364 0.000000 
0.556234 0.308132 0.000000 
-0.139443 0.425700 0.000000 
-0.484677 -0.212424 0.000000 
0.766286 0.052791 0.000000 
0.384386 -0.461829 0.000000 
0.474677 0.218237 0.000000 
-0.141715 0.218140 0.000000 
-0.385608 -0.591088 0.000000 
0.937896 -0.511892 0.000000 
0.621631 0.784528 0.000000 
-0.105264 0.966427 0.000000 
-0.467428 0.367801 0.000000 
0.771260 0.674329 0.000000 
0.386873 0.173940 0.000000 
0.761262 0.257345 0.000000 
0.108942 0.538722 0.000000 
-0.397202 0.057883 0.000000 
-0.142083 -0.603392 0.000000 
-0.595936 0.837833 0.000000 
0.978194 0.337967 0.000000 
-0.660903 -0.353658 0.000000 
0.724964 -0.814178 0.000000 
0.899809 0.543573 0.000000 
0.685384 -0.861115 0.000000 
0.287229 0.637726 0.000000 
0.702895 -0.061602 0.000000 
0.180633 -0.553121 0.000000 
0.445811 0.768720 0.000000 
-0.220880 0.325934 0.000000 
-0.071546 -0.304992 0.000000 
-0.033296 -0.560063 0.000000 
-0.417537 0.939427 0.000000 
0.039645 0.236865 0.000000 
-0.441768 -0.263006 0.000000 
-0.109248 -0.958457 0.000000 
-0.699407 0.564788 0.000000 
-0.474522 -0.102492 0.000000 
0.820030 -0.529485 0.000000 
0.957100 0.846443 0.000000 
0.610485 0.943352 0.000000 
-0.761092 0.212971 0.000000 
-0.714655 -0.497766 0.000000 
-0.057734 -0.702934 0.000000 
-0.178789 -0.549025 0.000000 
-0.067979 0.793549 0.000000 
0.677748 0.655346 0.000000 
0.641556 -0.130399 0.000000 
-0.765897 -0.388878 0.000000 
0.393446 0.678984 0.000000 
0.522510 0.043254 0.000000 
-0.691820 -0.055290 0.000000 
-0.647393 -0.785772 0.000000 
0.028512 -0.993299 0.000000 
-0.053800 0.189341 0.000000 
0.514316 -0.082790 0.000000 
0.965681 -0.093007 0.000000 
-0.897068 -0.717035 0.000000 
-0.083078 -0.783888 0.000000 
-0.006893 0.513587 0.000000 
0.724017 0.349954 0.000000 
0.714996 -0.426449 0.000000 
-0.642413 -0.659907 0.000000 
-0.760780 0.501113 0.000000 
-0.205471 0.223297 0.000000 
0.000000 -0.751347 0.000000 
-0.564049 0.550466 0.000000 
0.000000 0.145030 0.000000 
0.564049 0.550466 0.000000 
0.866949 -0.204879 0.000000 
-0.569003 -0.524810 0.000000 
0.000000 -0.005521 0.000000 
0.569003 -0.524810 0.000000 
-0.866949 -0.204879 0.000000 
0.299194 -0.974628 0.000000 
0.858290 0.733788 0.000000 
-0.577662 -0.689766 0.000000 
0.000000 0.890855 0.000000 
0.577662 -0.689766 0.000000 
-0.858290 0.733788 0.000000 
-0.299194 -0.974628 0.000000 
-0.268560 0.255622 0.000000 
0.286830 -0.022020 0.000000 
0.844677 0.597178 0.000000 
-0.578910 0.221016 0.000000 
0.000000 0.712419 0.000000 
0.578910 0.221016 0.000000 
-0.844677 0.597178 0.000000 
-0.286830 -0.022020 0.000000 
0.268560 0.255622 0.000000 
-0.610485 0.943352 0.000000 
0.057734 -0.702934 0.000000 
0.714655 -0.497766 0.000000 
0.761092 0.212971 0.000000 
0.765897 -0.388878 0.000000 
-0.641556 -0.130399 0.000000 
-0.677748 0.655346 0.000000 
0.067979 0.793549 0.000000 
0.178789 -0.549025 0.000000 
-0.514316 -0.082790 0.000000 
0.053800 0.189341 0.000000 
-0.028512 -0.993299 0.000000 
0.647393 -0.785772 0.000000 
0.691820 -0.055290 0.000000 
-0.522510 0.043255 0.000000 
-0.393446 0.678984 0.000000 
0.205471 0.223297 0.000000 
0.760780 0.501113 0.000000 
0.642413 -0.659907 0.000000 
-0.714996 -0.426449 0.000000 
-0.724017 0.349954 0.000000 
0.006894 0.513587 0.000000 
0.083078 -0.783888 0.000000 
0.897068 -0.717035 0.000000 
-0.965681 -0.093007 0.000000 
-0.761262 0.257345 0.000000 
0.142083 -0.603392 0.000000 
0.397202 0.057883 0.000000 
-0.108942 0.538722 0.000000 
-0.899809 0.543573 0.000000 
-0.724964 -0.814178 0.000000 
0.660903 -0.353658 0.000000 
-0.978194 0.337967 0.000000 
0.595936 0.837833 0.000000 
0.071546 -0.304992 0.000000 
0.220880 0.325934 0.000000 
-0.445811 0.768720 0.000000 
-0.180633 -0.553121 0.000000 
-0.702895 -0.061602 0.000000 
-0.287229 0.637726 0.000000 
-0.685384 -0.861115 0.000000 
-0.957100 0.846443 0.000000 
-0.820030 -0.529485 0.000000 
0.474522 -0.102492 0.000000 
0.699407 0.564788 0.000000 
0.109248 -0.958457 0.000000 
0.441768 -0.263006 0.000000 
-0.039645 0.236865 0.000000 
0.417537 0.939428 0.000000 
0.033296 -0.560063 0.000000 
-0.338794 -0.292789 0.000000 
-0.374519 0.280174 0.000000 
-0.713312 0.899603 0.000000 
0.609100 0.788463 0.000000 
-0.381900 0.902402 0.000000 
-0.756418 -0.555206 0.000000 
0.513962 -0.766692 0.000000 
0.218274 -0.042453 0.000000 
-0.423588 -0.076557 0.000000 
-0.384386 -0.461829 0.000000 
-0.766286 0.052791 0.000000 
0.484677 -0.212424 0.000000 
0.139443 0.425700 0.000000 
-0.556234 0.308132 0.000000 
-0.823577 -0.918364 0.000000 
0.550868 -0.929160 0.000000 
-0.386873 0.173940 0.000000 
-0.771260 0.674329 0.000000 
0.467428 0.367801 0.000000 
0.105264 0.966427 0.000000 
-0.621631 0.784528 0.000000 
-0.937896 -0.511892 0.000000 
0.385608 -0.591088 0.000000 
0.141715 0.218141 0.000000 
-0.474677 0.218237 0.000000 
CELL_DATA 175 
SCALARS MASS float 
LOOKUP_TABLE default 
0.078183 
0.086427 
0.094672 
0.086427 
0.088131 
0.092111 
0.085854 
0.092111 
0.088131 
0.088705 
0.091000 
0.086983 
0.091556 
0.086983 
0.091000 
0.088705 
0.089278 
0.091574 
0.089278 
0.092722 
0.089278 
0.092722 
0.089278 
0.091574 
0.089278 
0.078183 
0.086427 
0.094672 
0.086427 
0.088131 
0.092111 
0.085854 
0.092111 
0.088131 
0.088705 
0.091000 
0.086983 
0.091556 
0.086983 
0.091000 
0.088705 
0.089278 
0.091574 
0.089278 
0.092722 
0.089278 
0.092722 
0.089278 
0.091574 
0.089278 
0.078183 
0.086427 
0.094672 
0.086427 
0.088131 
0.092111 
0.085854 
0.092111 
0.088131 
0.088705 
0.091000 
0.086983 
0.091556 
0.086983 
0.091000 
0.088705 
0.089278 
0.091574 
0.089278 
0.092722 
0.089278 
0.092722 
0.089278 
0.091574 
0.089278 
0.078183 
0.086427 
0.094672 
0.086427 
0.088131 
0.092111 
0.085854 
0.092111 
0.088131 
0.088705 
0.091000 
0.086983 
0.091556 
0.086983 
0.091000 
0.088705 
0.089278 
0.091574 
0.089278 
0.092722 
0.089278 
0.092722 
0.089278 
0.091574 
0.089278 
0.078183 
0.086427 
0.094672 
0.086427 
0.088131 
0.092111 
0.085854 
0.092111 
0.088131 
0.088705 
0.091000 
0.086983 
0.091556 
0.086983 
0.091000 
0.088705 
0.089278 
0.091574 
0.089278 
0.092722 
0.089278 
0.092722 
0.089278 
0.091574 
0.089278 
0.078183 
0.086427 
0.094672 
0.086427 
0.088131 
0.092111 
0.085854 
0.092111 
0.088131 
0.088705 
0.091000 
0.086983 
0.091556 
0.086983 
0.091000 
0.088705 
0.089278 
0.091574 
0.089278 
0.092722 
0.089278 
0.092722 
0.089278 
0.091574 
0.089278 
0.078183 
0.086427 
0.094672 
0.086427 
0.088131 
0.092111 
0.085854 
0.092111 
0.088131 
0.088705 
0.091000 
0.086983 
0.091556 
0.086983 
0.091000 
0.088705 
0.089278 
0.091574 
0.089278 
0.092722 
0.089278 
0.092722 
0.089278 
0.091574 
0.089278 
SCALARS MASS float 
LOOKUP_TABLE default 
0.078183 
0.086427 
0.094672 
0.086427 
0.088131 
0.092111 
0.085854 
0.092111 
0.088131 
0.088705 
0.091000 
0.086983 
0.091556 
0.086983 
0.091000 
0.088705 
0.089278 
0.091574 
0.089278 
0.092722 
0.089278 
0.092722 
0.089278 
0.091574 
0.089278 
0.078183 
0.086427 
0.094672 
0.086427 
0.088131 
0.092111 
0.085854 
0.092111 
0.088131 
0.088705 
0.091000 
0.086983 
0.091556 
0.086983 
0.091000 
0.088705 
0.089278 
0.091574 
0.089278 
0.092722 
0.089278 
0.092722 
0.089278 
0.091574 
0.089278 
0.078183 
0.086427 
0.094672 
0.086427 
0.088131 
0.092111 
0.085854 
0.092111 
0.088131 
0.088705 
0.091000 
0.086983 
0.091556 
0.086983 
0.091000 
0.088705 
0.089278 
0.091574 
0.089278 
0.092722 
0.089278 
0.092722 
0.089278 
0.091574 
0.089278 
0.078183 
0.086427 
0.094672 
0.086427 
0.088131 
0.092111 
0.085854 
0.092111 
0.088131 
0.088705 
0.091000 
0.086983 
0.091556 
0.086983 
0.091000 
0.088705 
0.089278 
0.091574 
0.089278 
0.092722 
0.089278 
0.092722 
0.089278 
0.091574 
0.089278 
0.078183 
0.086427 
0.094672 
0.086427 
0.088131 
0.092111 
0.085854 
0.092111 
0.088131 
0.088705 
0.091000 
0.086983 
0.091556 
0.086983 
0.091000 
0.088705 
0.089278 
0.091574 
0.089278 
0.092722 
0.089278 
0.092722 
0.089278 
0.091574 
0.089278 
0.078183 
0.086427 
0.094672 
0.086427 
0.088131 
0.092111 
0.085854 
0.092111 
0.088131 
0.088705 
0.091000 
0.086983 
0.091556 
0.086983 
0.091000 
0.088705 
0.089278 
0.091574 
0.089278 
0.092722 
0.089278 
0.092722 
0.089278 
0.091574 
0.089278 
0.078183 
0.086427 
0.094672 
0.086427 
0.088131 
0.092111 
0.085854 
0.092111 
0.088131 
0.088705 
0.091000 
0.086983 
0.091556 
0.086983 
0.091000 
0.088705 
0.089278 
0.091574 
0.089278 
0.092722 
0.089278 
0.092722 
0.089278 
0.091574 
0.089278 
SCALARS DENSITY float 
LOOKUP_TABLE default 
20.000000 
20.000000 
20.000000 
20.000000 
20.000000 
20.000000 
20.000000 
20.000000 
20.000000 
20.000000 
20.000000 
20.000000 
20.000000 
20.000000 
20.000000 
20.000000 
20.000000 
20.000000 
20.000000 
20.000000 
20.000000 
20.000000 
20.000000 
20.000000 
20.000000 
20.000000 
20.000000 
20.000000 
20.000000 
20.000000 
20.000000 
20.000000 
20.000000 
20.000000 
20.000000 
20.000000 
20.000000 
20.000000 
20.000000 
20.000000 
20.000000 
20.000000 
20.000000 
20.000000 
20.000000 
20.000000 
20.000000 
20.000000 
20.000000 
20.000000 
20.000000 
20.000000 
20.000000 
20.000000 
20.000000 
20.000000 
20.000000 
20.000000 
20.000000 
20.000000 
20.000000 
20.000000 
20.000000 
20.000000 
20.000000 
20.000000 
20.000000 
20.000000 
20.000000 
20.000000 
20.000000 
20.000000 
20.000000 
20.000000 
20.000000 
20.000000 
20.000000 
20.000000 
20.000000 
20.000000 
20.000000 
20.000000 
20.000000 
20.000000 
20.000000 
20.000000 
20.000000 
20.000000 
20.000000 
20.000000 
20.000000 
20.000000 
20.000000 
20.000000 
20.000000 
20.000000 
20.000000 
20.000000 
20.000000 
20.000000 
20.000000 
20.000000 
20.000000 
20.000000 
20.000000 
20.000000 
20.000000 
20.000000 
20.000000 
20.000000 
20.000000 
20.000000 
20.000000 
20.000000 
20.000000 
20.000000 
20.000000 
20.000000 
20.000000 
20.000000 
20.000000 
20.000000 
20.000000 
20.000000 
20.000000 
20.000000 
20.000000 
20.000000 
20.000000 
20.000000 
20.000000 
20.000000 
20.000000 
20.000000 
20.000000 
20.000000 
20.000000 
20.000000 
20.000000 
20.000000 
20.000000 
20.000000 
20.000000 
20.000000 
20.000000 
20.000000 
20.000000 
20.000000 
20.000000 
20.000000 
20.000000 
20.000000 
20.000000 
20.000000 
20.000000 
20.000000 
20.000000 
20.000000 
20.000000 
20.000000 
20.000000 
20.000000 
20.000000 
20.000000 
20.000000 
20.000000 
20.000000 
20.000000 
20.000000 
20.000000 
20.000000 
20.000000 
20.000000 
20.000000 
20.000000 
SCALARS ELEM_i float 
LOOKUP_TABLE default 
174 
202 
175 
175 
202 
202 
202 
175 
176 
229 
202 
203 
203 
203 
176 
176 
230 
230 
230 
203 
204 
204 
204 
177 
177 
174 
201 
201 
201 
228 
201 
228 
201 
202 
227 
228 
228 
228 
229 
229 
229 
254 
255 
255 
255 
255 
256 
256 
229 
230 
174 
200 
200 
200 
199 
200 
200 
200 
227 
199 
199 
226 
226 
226 
227 
227 
198 
225 
225 
226 
226 
226 
253 
254 
254 
173 
173 
173 
173 
145 
172 
172 
172 
199 
144 
145 
171 
172 
171 
199 
198 
144 
144 
144 
171 
171 
171 
198 
198 
198 
174 
146 
146 
146 
119 
146 
146 
146 
145 
119 
119 
118 
118 
118 
145 
145 
92 
92 
91 
118 
118 
118 
117 
117 
144 
174 
147 
147 
147 
148 
147 
120 
147 
120 
121 
121 
121 
120 
120 
120 
119 
122 
121 
94 
94 
93 
93 
93 
93 
92 
174 
175 
175 
148 
176 
175 
148 
148 
148 
176 
176 
149 
149 
149 
148 
121 
177 
177 
150 
150 
150 
149 
122 
122 
122 
VECTORS VELOCITY float 
0.000000 -4.812394 0.000000 
-0.000000 -4.812394 0.000000 
-0.000000 -4.812394 0.000000 
-0.000000 -4.812394 0.000000 
-0.000000 -4.812394 0.000000 
-0.000000 -4.812394 0.000000 
0.000000 -4.812394 0.000000 
0.000000 -4.812394 0.000000 
0.000000 -4.812394 0.000000 
-0.000000 -4.812394 0.000000 
-0.000000 -4.812394 0.000000 
0.000000 -4.812394 0.000000 
0.000000 -4.812394 0.000000 
-0.000000 -4.812394 0.000000 
0.000000 -4.812394 0.000000 
-0.000000 -4.812394 0.000000 
0.000000 -4.812394 0.000000 
0.000000 -4.812394 0.000000 
-0.000000 -4.812394 0.000000 
0.000000 -4.812394 0.000000 
-0.000000 -4.812394 0.000000 
-0.000000 -4.812394 0.000000 
-0.000000 -4.812394 0.000000 
-0.000000 -4.812394 0.000000 
-0.000000 -4.812394 0.000000 
0.000000 -4.812394 0.000000 
0.000000 -4.812394 0.000000 
0.000000 -4.812394 0.000000 
0.000000 -4.812394 0.000000 
0.000000 -4.812394 0.000000 
0.000000 -4.812394 0.000000 
0.000000 -4.812394 0.000000 
0.000000 -4.812394 0.000000 
0.000000 -4.812394 0.000000 
0.000000 -4.812394 0.000000 
0.000000 -4.812394 0.000000 
-0.000000 -4.812394 0.000000 
0.000000 -4.812394 0.000000 
-0.000000 -4.812394 0.000000 
-0.000000 -4.812394 0.000000 
-0.000000 -4.812394 0.000000 
0.000000 -4.812394 0.000000 
0.000000 -4.812394 0.000000 
0.000000 -4.812394 0.000000 
-0.000000 -4.812394 0.000000 
-0.000000 -4.812394 0.000000 
-0.000000 -4.812394 0.000000 
0.000000 -4.812394 0.000000 
-0.000000 -4.812394 0.000000 
-0.000000 -4.812394 0.000000 
-0.000000 -4.812394 0.000000 
0.000000 -4.812394 0.000000 
-0.000000 -4.812394 0.000000 
0.000000 -4.812394 0.000000 
0.000000 -4.812394 0.000000 
0.000000 -4.812394 0.000000 
0.000000 -4.812394 0.000000 
0.000000 -4.812394 0.000000 
0.000000 -4.812394 0.000000 
-0.000000 -4.812394 0.000000 
0.000000 -4.812394 0.000000 
0.000000 -4.812394 0.000000 
0.000000 -4.812394 0.000000 
0.000000 -4.812394 0.000000 
0.000000 -4.812394 0.000000 
0.000000 -4.812394 0.000000 
-0.000000 -4.812394 0.000000 
0.000000 -4.812394 0.000000 
0.000000 -4.812394 0.000000 
-0.000000 -4.812394 0.000000 
-0.000000 -4.812394 0.000000 
0.000000 -4.812394 0.000000 
-0.000000 -4.812394 0.000000 
-0.000000 -4.812394 0.000000 
0.000000 -4.812394 0.000000 
-0.000000 -4.812394 0.000000 
0.000000 -4.812394 0.000000 
-0.000000 -4.812394 0.000000 
0.000000 -4.812394 0.000000 
-0.000000 -4.812394 0.000000 
0.000000 -4.812394 0.000000 
0.000000 -4.812394 0.000000 
0.000000 -4.812394 0.000000 
0.000000 -4.812394 0.000000 
-0.000000 -4.812394 0.000000 
-0.000000 -4.812394 0.000000 
-0.000000 -4.812394 0.000000 
-0.000000 -4.812394 0.000000 
-0.000000 -4.812394 0.000000 
-0.000000 -4.812394 0.000000 
-0.000000 -4.812394 0.000000 
0.000000 -4.812394 0.000000 
0.000000 -4.812394 0.000000 
0.000000 -4.812394 0.000000 
0.000000 -4.812394 0.000000 
-0.000000 -4.812394 0.000000 
0.000000 -4.812394 0.000000 
0.000000 -4.812394 0.000000 
-0.000000 -4.812394 0.000000 
-0.000000 -4.812394 0.000000 
-0.000000 -4.812394 0.000000 
-0.000000 -4.812394 0.000000 
-0.000000 -4.812394 0.000000 
-0.000000 -4.812394 0.000000 
0.000000 -4.812394 0.000000 
-0.000000 -4.812394 0.000000 
-0.000000 -4.812394 0.000000 
-0.000000 -4.812394 0.000000 
-0.000000 -4.812394 0.000000 
0.000000 -4.812394 0.000000 
0.000000 -4.812394 0.000000 
-0.000000 -4.812394 0.000000 
-0.000000 -4.812394 0.000000 
-0.000000 -4.812394 0.000000 
-0.000000 -4.812394 0.000000 
0.000000 -4.812394 0.000000 
0.000000 -4.812394 0.000000 
0.000000 -4.812394 0.000000 
-0.000000 -4.812394 0.000000 
-0.000000 -4.812394 0.000000 
-0.000000 -4.812394 0.000000 
-0.000000 -4.812394 0.000000 
-0.000000 -4.812394 0.000000 
0.000000 -4.812394 0.000000 
-0.000000 -4.812394 0.000000 
-0.000000 -4.812394 0.000000 
-0.000000 -4.812394 0.000000 
0.000000 -4.812394 0.000000 
0.000000 -4.812394 0.000000 
-0.000000 -4.812394 0.000000 
0.000000 -4.812394 0.000000 
-0.000000 -4.812394 0.000000 
0.000000 -4.812394 0.000000 
0.000000 -4.812394 0.000000 
-0.000000 -4.812394 0.000000 
-0.000000 -4.812394 0.000000 
0.000000 -4.812394 0.000000 
-0.000000 -4.812394 0.000000 
-0.000000 -4.812394 0.000000 
-0.000000 -4.812394 0.000000 
-0.000000 -4.812394 0.000000 
-0.000000 -4.812394 0.000000 
-0.000000 -4.812394 0.000000 
0.000000 -4.812394 0.000000 
0.000000 -4.812394 0.000000 
0.000000 -4.812394 0.000000 
0.000000 -4.812394 0.000000 
0.000000 -4.812394 0.000000 
-0.000000 -4.812394 0.000000 
0.000000 -4.812394 0.000000 
0.000000 -4.812394 0.000000 
-0.000000 -4.812394 0.000000 
-0.000000 -4.812394 0.000000 
-0.000000 -4.812394 0.000000 
0.000000 -4.812394 0.000000 
-0.000000 -4.812394 0.000000 
-0.000000 -4.812394 0.000000 
-0.000000 -4.812394 0.000000 
-0.000000 -4.812394 0.000000 
0.000000 -4.812394 0.000000 
0.000000 -4.812394 0.000000 
0.000000 -4.812394 0.000000 
-0.000000 -4.812394 0.000000 
0.000000 -4.812394 0.000000 
-0.000000 -4.812394 0.000000 
-0.000000 -4.812394 0.000000 
0.000000 -4.812394 0.000000 
0.000000 -4.812394 0.000000 
0.000000 -4.812394 0.000000 
0.000000 -4.812394 0.000000 
0.000000 -4.812394 0.000000 
0.000000 -4.812394 0.000000 
-0.000000 -4.812394 0.000000 
0.000000 -4.812394 0.000000 
0.000000 -4.812394 0.000000 
TENSORS STRESS float 
0.000000 -0.000000 0.000000 
0.000000 0.000000 0.000000 
0.000000 0.000000 0.000000 

-0.000000 -0.000000 0.000000 
0.000000 0.000000 0.000000 
0.000000 0.000000 0.000000 

-0.000000 -0.000000 0.000000 
0.000000 -0.000000 0.000000 
0.000000 0.000000 0.000000 

0.000000 0.000000 0.000000 
0.000000 -0.000000 0.000000 
0.000000 0.000000 0.000000 

-0.000000 -0.000000 0.000000 
0.000000 -0.000000 0.000000 
0.000000 0.000000 0.000000 

-0.000000 -0.000000 0.000000 
0.000000 0.000000 0.000000 
0.000000 0.000000 0.000000 

0.000000 0.000000 0.000000 
0.000000 0.000000 0.000000 
0.000000 0.000000 0.000000 

-0.000000 0.000000 0.000000 
0.000000 -0.000000 0.000000 
0.000000 0.000000 0.000000 

-0.000000 0.000000 0.000000 
0.000000 -0.000000 0.000000 
0.000000 0.000000 0.000000 

-0.000000 0.000000 0.000000 
0.000000 -0.000000 0.000000 
0.000000 0.000000 0.000000 

0.000000 -0.000000 0.000000 
0.000000 -0.000000 0.000000 
0.000000 0.000000 0.000000 

0.000000 0.000000 0.000000 
0.000000 0.000000 0.000000 
0.000000 0.000000 0.000000 

0.000000 -0.000000 0.000000 
0.000000 0.000000 0.000000 
0.000000 0.000000 0.000000 

-0.000000 -0.000000 0.000000 
0.000000 -0.000000 0.000000 
0.000000 0.000000 0.000000 

-0.000000 -0.000000 0.000000 
0.000000 -0.000000 0.000000 
0.000000 0.000000 0.000000 

-0.000000 0.000000 0.000000 
0.000000 -0.000000 0.000000 
0.000000 0.000000 0.000000 

0.000000 0.000000 0.000000 
0.000000 0.000000 0.000000 
0.000000 0.000000 0.000000 

0.000000 0.000000 0.000000 
0.000000 0.000000 0.000000 
0.000000 0.000000 0.000000 

-0.000000 -0.000000 0.000000 
0.000000 0.000000 0.000000 
0.000000 0.000000 0.000000 

-0.000000 0.000000 0.000000 
0.000000 -0.000000 0.000000 
0.000000 0.000000 0.000000 

-0.000000 0.000000 0.000000 
0.000000 -0.000000 0.000000 
0.000000 0.000000 0.000000 

-0.000000 -0.000000 0.000000 
0.000000 -0.000000 0.000000 
0.000000 0.000000 0.000000 

0.000000 -0.000000 0.000000 
0.000000 0.000000 0.000000 
0.000000 0.000000 0.000000 

0.000000 0.000000 0.000000 
0.000000 0.000000 0.000000 
0.000000 0.000000 0.000000 

-0.000000 0.000000 0.000000 
0.000000 -0.000000 0.000000 
0.000000 0.000000 0.000000 

0.000000 0.000000 0.000000 
0.000000 0.000000 0.000000 
0.000000 0.000000 0.000000 

-0.000000 -0.000000 0.000000 
0.000000 0.000000 0.000000 
0.000000 0.000000 0.000000 

0.000000 0.000000 0.000000 
0.000000 0.000000 0.000000 
0.000000 0.000000 0.000000 

-0.000000 0.000000 0.000000 
0.000000 -0.000000 0.000000 
0.000000 0.000000 0.000000 

-0.000000 0.000000 0.000000 
0.000000 -0.000000 0.000000 
0.000000 0.000000 0.000000 

-0.000000 -0.000000 0.000000 
0.000000 0.000000 0.000000 
0.000000 0.000000 0.000000 

-0.000000 0.000000 0.000000 
0.000000 -0.000000 0.000000 
0.000000 0.000000 0.000000 

-0.000000 -0.000000 0.000000 
0.000000 0.000000 0.000000 
0.000000 0.000000 0.000000 

-0.000000 -0.000000 0.000000 
0.000000 0.000000 0.000000 
0.000000 0.000000 0.000000 

-0.000000 -0.000000 0.000000 
0.000000 0.000000 0.000000 
0.000000 0.000000 0.000000 

-0.000000 0.000000 0.000000 
0.000000 0.000000 0.000000 
0.000000 0.000000 0.000000 

-0.000000 -0.000000 0.000000 
0.000000 0.000000 0.000000 
0.000000 0.000000 0.000000 

-0.000000 0.000000 0.000000 
0.000000 0.000000 0.000000 
0.000000 0.000000 0.000000 

0.000000 -0.000000 0.000000 
0.000000 0.000000 0.000000 
0.000000 0.000000 0.000000 

-0.000000 0.000000 0.000000 
0.000000 0.000000 0.000000 
0.000000 0.000000 0.000000 

-0.000000 -0.000000 0.000000 
0.000000 0.000000 0.000000 
0.000000 0.000000 0.000000 

-0.000000 0.000000 0.000000 
0.000000 -0.000000 0.000000 
0.000000 0.000000 0.000000 

-0.000000 0.000000 0.000000 
0.000000 0.000000 0.000000 
0.000000 0.000000 0.000000 

-0.000000 -0.000000 0.000000 
0.000000 0.000000 0.000000 
0.000000 0.000000 0.000000 

-0.000000 0.000000 0.000000 
0.000000 0.000000 0.000000 
0.000000 0.000000 0.000000 

-0.000000 -0.000000 0.000000 
0.000000 -0.000000 0.000000 
0.000000 0.000000 0.000000 

-0.000000 -0.000000 0.000000 
0.000000 -0.000000 0.000000 
0.000000 0.000000 0.000000 

-0.000000 -0.000000 0.000000 
0.000000 0.000000 0.000000 
0.000000 0.000000 0.000000 

-0.000000 -0.000000 0.000000 
0.000000 0.000000 0.000000 
0.000000 0.000000 0.000000 

-0.000000 -0.000000 0.000000 
0.000000 -0.000000 0.000000 
0.000000 0.000000 0.000000 

0.000000 -0.000000 0.000000 
0.000000 0.000000 0.000000 
0.000000 0.000000 0.000000 

-0.000000 0.000000 0.000000 
0.000000 -0.000000 0.000000 
0.000000 0.000000 0.000000 

0.000000 -0.000000 0.000000 
0.000000 0.000000 0.000000 
0.000000 0.000000 0.000000 

0.000000 0.000000 0.000000 
0.000000 0.000000 0.000000 
0.000000 0.000000 0.000000 

-0.000000 0.000000 0.000000 
0.000000 -0.000000 0.000000 
0.000000 0.000000 0.000000 

-0.000000 0.000000 0.000000 
0.000000 0.000000 0.000000 
0.000000 0.000000 0.000000 

0.000000 0.000000 0.000000 
0.000000 0.000000 0.000000 
0.000000 0.000000 0.000000 

0.000000 0.000000 0.000000 
0.000000 0.000000 0.000000 
0.000000 0.000000 0.000000 

-0.000000 0.000000 0.000000 
0.000000 0.000000 0.000000 
0.000000 0.000000 0.000000 

0.000000 0.000000 0.000000 
0.000000 0.000000 0.000000 
0.000000 0.000000 0.000000 

-0.000000 0.000000 0.000000 
0.000000 0.000000 0.000000 
0.000000 0.000000 0.000000 

-0.000000 0.000000 0.000000 
0.000000 0.000000 0.000000 
0.000000 0.000000 0.000000 

-0.000000 0.000000 0.000000 
0.000000 0.000000 0.000000 
0.000000 0.000000 0.000000 

-0.000000 -0.000000 0.000000 
0.000000 0.000000 0.000000 
0.000000 0.000000 0.000000 

-0.000000 0.000000 0.000000 
0.000000 0.000000 0.000000 
0.000000 0.000000 0.000000 

-0.000000 0.000000 0.000000 
0.000000 -0.000000 0.000000 
0.000000 0.000000 0.000000 

0.000000 -0.000000 0.000000 
0.000000 0.000000 0.000000 
0.000000 0.000000 0.000000 

-0.000000 0.000000 0.000000 
0.000000 0.000000 0.000000 
0.000000 0.000000 0.000000 

-0.000000 0.000000 0.000000 
0.000000 0.000000 0.000000 
0.000000 0.000000 0.000000 

0.000000 -0.000000 0.000000 
0.000000 0.000000 0.000000 
0.000000 0.000000 0.000000 

0.000000 -0.000000 0.000000 
0.000000 0.000000 0.000000 
0.000000 0.000000 0.000000 

-0.000000 0.000000 0.000000 
0.000000 0.000000 0.000000 
0.000000 0.000000 0.000000 

-0.000000 0.000000 0.000000 
0.000000 -0.000000 0.000000 
0.000000 0.000000 0.000000 

-0.000000 0.000000 0.000000 
0.000000 -0.000000 0.000000 
0.000000 0.000000 0.000000 

0.000000 -0.000000 0.000000 
0.000000 0.000000 0.000000 
0.000000 0.000000 0.000000 

-0.000000 -0.000000 0.000000 
0.000000 -0.000000 0.000000 
0.000000 0.000000 0.000000 

-0.000000 0.000000 0.000000 
0.000000 0.000000 0.000000 
0.000000 0.000000 0.000000 

0.000000 -0.000000 0.000000 
0.000000 0.000000 0.000000 
0.000000 0.000000 0.000000 

0.000000 0.000000 0.000000 
0.000000 0.000000 0.000000 
0.000000 0.000000 0.000000 

-0.000000 -0.000000 0.000000 
0.000000 -0.000000 0.000000 
0.000000 0.000000 0.000000 

0.000000 -0.000000 0.000000 
0.000000 0.000000 0.000000 
0.000000 0.000000 0.000000 

-0.000000 0.000000 0.000000 
0.000000 0.000000 0.000000 
0.000000 0.000000 0.000000 

0.000000 0.000000 0.000000 
0.000000 0.000000 0.000000 
0.000000 0.000000 0.000000 

0.000000 -0.000000 0.000000 
0.000000 0.000000 0.000000 
0.000000 0.000000 0.000000 

-0.000000 -0.000000 0.000000 
0.000000 0.000000 0.000000 
0.000000 0.000000 0.000000 

0.000000 -0.000000 0.000000 
0.000000 0.000000 0.000000 
0.000000 0.000000 0.000000 

0.000000 -0.000000 0.000000 
0.000000 0.000000 0.000000 
0.000000 0.000000 0.000000 

-0.000000 -0.000000 0.000000 
0.000000 -0.000000 0.000000 
0.000000 0.000000 0.000000 

0.000000 0.000000 0.000000 
0.000000 0.000000 0.000000 
0.000000 0.000000 0.000000 

0.000000 0.000000 0.000000 
0.000000 0.000000 0.000000 
0.000000 0.000000 0.000000 

0.000000 -0.000000 0.000000 
0.000000 0.000000 0.000000 
0.000000 0.000000 0.000000 

-0.000000 0.000000 0.000000 
0.000000 -0.000000 0.000000 
0.000000 0.000000 0.000000 

-0.000000 -0.000000 0.000000 
0.000000 -0.000000 0.000000 
0.000000 0.000000 0.000000 

-0.000000 0.000000 0.000000 
0.000000 -0.000000 0.000000 
0.000000 0.000000 0.000000 

0.000000 0.000000 0.000000 
0.000000 -0.000000 0.000000 
0.000000 0.000000 0.000000 

0.000000 0.000000 0.000000 
0.000000 0.000000 0.000000 
0.000000 0.000000 0.000000 

0.000000 0.000000 0.000000 
0.000000 -0.000000 0.000000 
0.000000 0.000000 0.000000 

-0.000000 0.000000 0.000000 
0.000000 -0.000000 0.000000 
0.000000 0.000000 0.000000 

0.000000 -0.000000 0.000000 
0.000000 -0.000000 0.000000 
0.000000 0.000000 0.000000 

0.000000 -0.000000 0.000000 
0.000000 0.000000 0.000000 
0.000000 0.000000 0.000000 

0.000000 -0.000000 0.000000 
0.000000 0.000000 0.000000 
0.000000 0.000000 0.000000 

-0.000000 0.000000 0.000000 
0.000000 -0.000000 0.000000 
0.000000 0.000000 0.000000 

0.000000 0.000000 0.000000 
0.000000 0.000000 0.000000 
0.000000 0.000000 0.000000 

0.000000 0.000000 0.000000 
0.000000 0.000000 0.000000 
0.000000 0.000000 0.000000 

0.000000 0.000000 0.000000 
0.000000 -0.000000 0.000000 
0.000000 0.000000 0.000000 

-0.000000 -0.000000 0.000000 
0.000000 -0.000000 0.000000 
0.000000 0.000000 0.000000 

-0.000000 0.000000 0.000000 
0.000000 -0.000000 0.000000 
0.000000 0.000000 0.000000 

-0.000000 -0.000000 0.000000 
0.000000 -0.000000 0.000000 
0.000000 0.000000 0.000000 

0.000000 -0.000000 0.000000 
0.000000 0.000000 0.000000 
0.000000 0.000000 0.000000 

-0.000000 0.000000 0.000000 
0.000000 -0.000000 0.000000 
0.000000 0.000000 0.000000 

0.000000 0.000000 0.000000 
0.000000 0.000000 0.000000 
0.000000 0.000000 0.000000 

-0.000000 -0.000000 0.000000 
0.000000 -0.000000 0.000000 
0.000000 0.000000 0.000000 

-0.000000 -0.000000 0.000000 
0.000000 -0.000000 0.000000 
0.000000 0.000000 0.000000 

0.000000 -0.000000 0.000000 
0.000000 0.000000 0.000000 
0.000000 0.000000 0.000000 

0.000000 -0.000000 0.000000 
0.000000 0.000000 0.000000 
0.000000 0.000000 0.000000 

0.000000 -0.000000 0.000000 
0.000000 0.000000 0.000000 
0.000000 0.000000 0.000000 

0.000000 -0.000000 0.000000 
0.000000 0.000000 0.000000 
0.000000 0.000000 0.000000 

0.000000 -0.000000 0.000000 
0.000000 0.000000 0.000000 
0.000000 0.000000 0.000000 

0.000000 0.000000 0.000000 
0.000000 0.000000 0.000000 
0.000000 0.000000 0.000000 

-0.000000 -0.000000 0.000000 
0.000000 -0.000000 0.000000 
0.000000 0.000000 0.000000 

-0.000000 0.000000 0.000000 
0.000000 -0.000000 0.000000 
0.000000 0.000000 0.000000 

0.000000 0.000000 0.000000 
0.000000 0.000000 0.000000 
0.000000 0.000000 0.000000 

-0.000000 0.000000 0.000000 
0.000000 -0.000000 0.000000 
0.000000 0.000000 0.000000 

-0.000000 -0.000000 0.000000 
0.000000 0.000000 0.000000 
0.000000 0.000000 0.000000 

-0.000000 -0.000000 0.000000 
0.000000 -0.000000 0.000000 
0.000000 0.000000 0.000000 

-0.000000 -0.000000 0.000000 
0.000000 -0.000000 0.000000 
0.000000 0.000000 0.000000 

-0.000000 -0.000000 0.000000 
0.000000 -0.000000 0.000000 
0.000000 0.000000 0.000000 

0.000000 -0.000000 0.000000 
0.000000 0.000000 0.000000 
0.000000 0.000000 0.000000 

-0.000000 -0.000000 0.000000 
0.000000 -0.000000 0.000000 
0.000000 0.000000 0.000000 

-0.000000 0.000000 0.000000 
0.000000 -0.000000 0.000000 
0.000000 0.000000 0.000000 

0.000000 0.000000 0.000000 
0.000000 0.000000 0.000000 
0.000000 0.000000 0.000000 

-0.000000 -0.000000 0.000000 
0.000000 -0.000000 0.000000 
0.000000 0.000000 0.000000 

0.000000 -0.000000 0.000000 
0.000000 0.000000 0.000000 
0.000000 0.000000 0.000000 

0.000000 0.000000 0.000000 
0.000000 -0.000000 0.000000 
0.000000 0.000000 0.000000 

0.000000 -0.000000 0.000000 
0.000000 0.000000 0.000000 
0.000000 0.000000 0.000000 

0.000000 -0.000000 0.000000 
0.000000 -0.000000 0.000000 
0.000000 0.000000 0.000000 

0.000000 -0.000000 0.000000 
0.000000 -0.000000 0.000000 
0.000000 0.000000 0.000000 

0.000000 0.000000 0.000000 
0.000000 0.000000 0.000000 
0.000000 0.000000 0.000000 

-0.000000 -0.000000 0.000000 
0.000000 -0.000000 0.000000 
0.000000 0.000000 0.000000 

-0.000000 -0.000000 0.000000 
0.000000 -0.000000 0.000000 
0.000000 0.000000 0.000000 

0.000000 0.000000 0.000000 
0.000000 0.000000 0.000000 
0.000000 0.000000 0.000000 

0.000000 0.000000 0.000000 
0.000000 -0.000000 0.000000 
0.000000 0.000000 0.000000 

0.000000 0.000000 0.000000 
0.000000 0.000000 0.000000 
0.000000 0.000000 0.000000 

-0.000000 0.000000 0.000000 
0.000000 0.000000 0.000000 
0.000000 0.000000 0.000000 

0.000000 -0.000000 0.000000 
0.000000 0.000000 0.000000 
0.000000 0.000000 0.000000 

0.000000 -0.000000 0.000000 
0.000000 -0.000000 0.000000 
0.000000 0.000000 0.000000 

-0.000000 -0.000000 0.000000 
0.000000 -0.000000 0.000000 
0.000000 0.000000 0.000000 

-0.000000 -0.000000 0.000000 
0.000000 -0.000000 0.000000 
0.000000 0.000000 0.000000 

-0.000000 -0.000000 0.000000 
0.000000 -0.000000 0.000000 
0.000000 0.000000 0.000000 

-0.000000 -0.000000 0.000000 
0.000000 -0.000000 0.000000 
0.000000 0.000000 0.000000 

0.000000 0.000000 0.000000 
0.000000 -0.000000 0.000000 
0.000000 0.000000 0.000000 

0.000000 0.000000 0.000000 
0.000000 0.000000 0.000000 
0.000000 0.000000 0.000000 

0.000000 0.000000 0.000000 
0.000000 0.000000 0.000000 
0.000000 0.000000 0.000000 

-0.000000 0.000000 0.000000 
0.000000 -0.000000 0.000000 
0.000000 0.000000 0.000000 

-0.000000 0.000000 0.000000 
0.000000 -0.000000 0.000000 
0.000000 0.000000 0.000000 

-0.000000 0.000000 0.000000 
0.000000 -0.000000 0.000000 
0.000000 0.000000 0.000000 

-0.000000 0.000000 0.000000 
0.000000 -0.000000 0.000000 
0.000000 0.000000 0.000000 

-0.000000 -0.000000 0.000000 
0.000000 0.000000 0.000000 
0.000000 0.000000 0.000000 

-0.000000 0.000000 0.000000 
0.000000 0.000000 0.000000 
0.000000 0.000000 0.000000 

0.000000 0.000000 0.000000 
0.000000 0.000000 0.000000 
0.000000 0.000000 0.000000 

-0.000000 0.000000 0.000000 
0.000000 -0.000000 0.000000 
0.000000 0.000000 0.000000 

-0.000000 -0.000000 0.000000 
0.000000 -0.000000 0.000000 
0.000000 0.000000 0.000000 

-0.000000 -0.000000 0.000000 
0.000000 -0.000000 0.000000 
0.000000 0.000000 0.000000 

0.000000 0.000000 0.000000 
0.000000 0.000000 0.000000 
0.000000 0.000000 0.000000 

-0.000000 -0.000000 0.000000 
0.000000 -0.000000 0.000000 
0.000000 0.000000 0.000000 

0.000000 -0.000000 0.000000 
0.000000 -0.000000 0.000000 
0.000000 0.000000 0.000000 

0.000000 0.000000 0.000000 
0.000000 0.000000 0.000000 
0.000000 0.000000 0.000000 

0.000000 -0.000000 0.000000 
0.000000 0.000000 0.000000 
0.000000 0.000000 0.000000 

0.000000 -0.000000 0.000000 
0.000000 -0.000000 0.000000 
0.000000 0.000000 0.000000 

-0.000000 -0.000000 0.000000 
0.000000 -0.000000 0.000000 
0.000000 0.000000 0.000000 

-0.000000 -0.000000 0.000000 
0.000000 -0.000000 0.000000 
0.000000 0.000000 0.000000 

-0.000000 -0.000000 0.000000 
0.000000 -0.000000 0.000000 
0.000000 0.000000 0.000000 

-0.000000 -0.000000 0.000000 
0.000000 0.000000 0.000000 
0.000000 0.000000 0.000000 

0.000000 0.000000 0.000000 
0.000000 0.000000 0.000000 
0.000000 0.000000 0.000000 

0.000000 -0.000000 0.000000 
0.000000 0.000000 0.000000 
0.000000 0.000000 0.000000 

TENSORS STRAIN float 
0.000000 -0.000000 0.000000 
0.000000 -0.000000 0.000000 
0.000000 0.000000 0.000000 

-0.000000 -0.000000 0.000000 
0.000000 0.000000 0.000000 
0.000000 0.000000 0.000000 

0.000000 -0.000000 0.000000 
0.000000 -0.000000 0.000000 
0.000000 0.000000 0.000000 

0.000000 0.000000 0.000000 
0.000000 -0.000000 0.000000 
0.000000 0.000000 0.000000 

-0.000000 -0.000000 0.000000 
0.000000 -0.000000 0.000000 
0.000000 0.000000 0.000000 

-0.000000 -0.000000 0.000000 
0.000000 0.000000 0.000000 
0.000000 0.000000 0.000000 

0.000000 0.000000 0.000000 
0.000000 0.000000 0.000000 
0.000000 0.000000 0.000000 

-0.000000 0.000000 0.000000 
0.000000 -0.000000 0.000000 
0.000000 0.000000 0.000000 

-0.000000 0.000000 0.000000 
0.000000 -0.000000 0.000000 
0.000000 0.000000 0.000000 

-0.000000 0.000000 0.000000 
0.000000 0.000000 0.000000 
0.000000 0.000000 0.000000 

0.000000 -0.000000 0.000000 
0.000000 -0.000000 0.000000 
0.000000 0.000000 0.000000 

0.000000 0.000000 0.000000 
0.000000 0.000000 0.000000 
0.000000 0.000000 0.000000 

0.000000 -0.000000 0.000000 
0.000000 0.000000 0.000000 
0.000000 0.000000 0.000000 

0.000000 -0.000000 0.000000 
0.000000 -0.000000 0.000000 
0.000000 0.000000 0.000000 

-0.000000 -0.000000 0.000000 
0.000000 -0.000000 0.000000 
0.000000 0.000000 0.000000 

-0.000000 0.000000 0.000000 
0.000000 -0.000000 0.000000 
0.000000 0.000000 0.000000 

0.000000 0.000000 0.000000 
0.000000 0.000000 0.000000 
0.000000 0.000000 0.000000 

0.000000 0.000000 0.000000 
0.000000 0.000000 0.000000 
0.000000 0.000000 0.000000 

-0.000000 -0.000000 0.000000 
0.000000 0.000000 0.000000 
0.000000 0.000000 0.000000 

0.000000 0.000000 0.000000 
0.000000 -0.000000 0.000000 
0.000000 0.000000 0.000000 

-0.000000 0.000000 0.000000 
0.000000 0.000000 0.000000 
0.000000 0.000000 0.000000 

-0.000000 -0.000000 0.000000 
0.000000 0.000000 0.000000 
0.000000 0.000000 0.000000 

0.000000 -0.000000 0.000000 
0.000000 0.000000 0.000000 
0.000000 0.000000 0.000000 

0.000000 0.000000 0.000000 
0.000000 0.000000 0.000000 
0.000000 0.000000 0.000000 

-0.000000 0.000000 0.000000 
0.000000 -0.000000 0.000000 
0.000000 0.000000 0.000000 

0.000000 0.000000 0.000000 
0.000000 0.000000 0.000000 
0.000000 0.000000 0.000000 

-0.000000 -0.000000 0.000000 
0.000000 0.000000 0.000000 
0.000000 0.000000 0.000000 

-0.000000 0.000000 0.000000 
0.000000 0.000000 0.000000 
0.000000 0.000000 0.000000 

-0.000000 0.000000 0.000000 
0.000000 -0.000000 0.000000 
0.000000 0.000000 0.000000 

-0.000000 0.000000 0.000000 
0.000000 -0.000000 0.000000 
0.000000 0.000000 0.000000 

-0.000000 -0.000000 0.000000 
0.000000 0.000000 0.000000 
0.000000 0.000000 0.000000 

-0.000000 0.000000 0.000000 
0.000000 -0.000000 0.000000 
0.000000 0.000000 0.000000 

-0.000000 -0.000000 0.000000 
0.000000 0.000000 0.000000 
0.000000 0.000000 0.000000 

-0.000000 -0.000000 0.000000 
0.000000 0.000000 0.000000 
0.000000 0.000000 0.000000 

-0.000000 -0.000000 0.000000 
0.000000 0.000000 0.000000 
0.000000 0.000000 0.000000 

-0.000000 0.000000 0.000000 
0.000000 0.000000 0.000000 
0.000000 0.000000 0.000000 

-0.000000 -0.000000 0.000000 
0.000000 0.000000 0.000000 
0.000000 0.000000 0.000000 

-0.000000 0.000000 0.000000 
0.000000 0.000000 0.000000 
0.000000 0.000000 0.000000 

-0.000000 -0.000000 0.000000 
0.000000 0.000000 0.000000 
0.000000 0.000000 0.000000 

-0.000000 0.000000 0.000000 
0.000000 0.000000 0.000000 
0.000000 0.000000 0.000000 

-0.000000 -0.000000 0.000000 
0.000000 0.000000 0.000000 
0.000000 0.000000 0.000000 

-0.000000 0.000000 0.000000 
0.000000 -0.000000 0.000000 
0.000000 0.000000 0.000000 

-0.000000 0.000000 0.000000 
0.000000 0.000000 0.000000 
0.000000 0.000000 0.000000 

-0.000000 -0.000000 0.000000 
0.000000 0.000000 0.000000 
0.000000 0.000000 0.000000 

-0.000000 0.000000 0.000000 
0.000000 0.000000 0.000000 
0.000000 0.000000 0.000000 

-0.000000 -0.000000 0.000000 
0.000000 -0.000000 0.000000 
0.000000 0.000000 0.000000 

-0.000000 -0.000000 0.000000 
0.000000 0.000000 0.000000 
0.000000 0.000000 0.000000 

-0.000000 -0.000000 0.000000 
0.000000 0.000000 0.000000 
0.000000 0.000000 0.000000 

-0.000000 -0.000000 0.000000 
0.000000 0.000000 0.000000 
0.000000 0.000000 0.000000 

-0.000000 -0.000000 0.000000 
0.000000 -0.000000 0.000000 
0.000000 0.000000 0.000000 

-0.000000 -0.000000 0.000000 
0.000000 0.000000 0.000000 
0.000000 0.000000 0.000000 

-0.000000 0.000000 0.000000 
0.000000 -0.000000 0.000000 
0.000000 0.000000 0.000000 

-0.000000 -0.000000 0.000000 
0.000000 0.000000 0.000000 
0.000000 0.000000 0.000000 

-0.000000 0.000000 0.000000 
0.000000 0.000000 0.000000 
0.000000 0.000000 0.000000 

-0.000000 0.000000 0.000000 
0.000000 -0.000000 0.000000 
0.000000 0.000000 0.000000 

-0.000000 0.000000 0.000000 
0.000000 0.000000 0.000000 
0.000000 0.000000 0.000000 

-0.000000 0.000000 0.000000 
0.000000 0.000000 0.000000 
0.000000 0.000000 0.000000 

-0.000000 0.000000 0.000000 
0.000000 0.000000 0.000000 
0.000000 0.000000 0.000000 

-0.000000 0.000000 0.000000 
0.000000 0.000000 0.000000 
0.000000 0.000000 0.000000 

0.000000 0.000000 0.000000 
0.000000 0.000000 0.000000 
0.000000 0.000000 0.000000 

-0.000000 0.000000 0.000000 
0.000000 0.000000 0.000000 
0.000000 0.000000 0.000000 

-0.000000 0.000000 0.000000 
0.000000 0.000000 0.000000 
0.000000 0.000000 0.000000 

-0.000000 0.000000 0.000000 
0.000000 0.000000 0.000000 
0.000000 0.000000 0.000000 

-0.000000 -0.000000 0.000000 
0.000000 0.000000 0.000000 
0.000000 0.000000 0.000000 

-0.000000 0.000000 0.000000 
0.000000 0.000000 0.000000 
0.000000 0.000000 0.000000 

-0.000000 0.000000 0.000000 
0.000000 0.000000 0.000000 
0.000000 0.000000 0.000000 

0.000000 -0.000000 0.000000 
0.000000 0.000000 0.000000 
0.000000 0.000000 0.000000 

-0.000000 0.000000 0.000000 
0.000000 0.000000 0.000000 
0.000000 0.000000 0.000000 

-0.000000 0.000000 0.000000 
0.000000 0.000000 0.000000 
0.000000 0.000000 0.000000 

-0.000000 -0.000000 0.000000 
0.000000 0.000000 0.000000 
0.000000 0.000000 0.000000 

-0.000000 -0.000000 0.000000 
0.000000 0.000000 0.000000 
0.000000 0.000000 0.000000 

-0.000000 0.000000 0.000000 
0.000000 0.000000 0.000000 
0.000000 0.000000 0.000000 

-0.000000 0.000000 0.000000 
0.000000 0.000000 0.000000 
0.000000 0.000000 0.000000 

-0.000000 0.000000 0.000000 
0.000000 -0.000000 0.000000 
0.000000 0.000000 0.000000 

-0.000000 -0.000000 0.000000 
0.000000 0.000000 0.000000 
0.000000 0.000000 0.000000 

-0.000000 -0.000000 0.000000 
0.000000 -0.000000 0.000000 
0.000000 0.000000 0.000000 

-0.000000 0.000000 0.000000 
0.000000 0.000000 0.000000 
0.000000 0.000000 0.000000 

-0.000000 -0.000000 0.000000 
0.000000 0.000000 0.000000 
0.000000 0.000000 0.000000 

-0.000000 0.000000 0.000000 
0.000000 0.000000 0.000000 
0.000000 0.000000 0.000000 

-0.000000 -0.000000 0.000000 
0.000000 -0.000000 0.000000 
0.000000 0.000000 0.000000 

-0.000000 -0.000000 0.000000 
0.000000 0.000000 0.000000 
0.000000 0.000000 0.000000 

-0.000000 0.000000 0.000000 
0.000000 0.000000 0.000000 
0.000000 0.000000 0.000000 

-0.000000 0.000000 0.000000 
0.000000 0.000000 0.000000 
0.000000 0.000000 0.000000 

-0.000000 -0.000000 0.000000 
0.000000 0.000000 0.000000 
0.000000 0.000000 0.000000 

-0.000000 -0.000000 0.000000 
0.000000 0.000000 0.000000 
0.000000 0.000000 0.000000 

-0.000000 -0.000000 0.000000 
0.000000 0.000000 0.000000 
0.000000 0.000000 0.000000 

0.000000 -0.000000 0.000000 
0.000000 0.000000 0.000000 
0.000000 0.000000 0.000000 

0.000000 -0.000000 0.000000 
0.000000 -0.000000 0.000000 
0.000000 0.000000 0.000000 

0.000000 0.000000 0.000000 
0.000000 0.000000 0.000000 
0.000000 0.000000 0.000000 

0.000000 0.000000 0.000000 
0.000000 0.000000 0.000000 
0.000000 0.000000 0.000000 

0.000000 -0.000000 0.000000 
0.000000 0.000000 0.000000 
0.000000 0.000000 0.000000 

-0.000000 0.000000 0.000000 
0.000000 -0.000000 0.000000 
0.000000 0.000000 0.000000 

-0.000000 -0.000000 0.000000 
0.000000 0.000000 0.000000 
0.000000 0.000000 0.000000 

-0.000000 0.000000 0.000000 
0.000000 -0.000000 0.000000 
0.000000 0.000000 0.000000 

0.000000 0.000000 0.000000 
0.000000 -0.000000 0.000000 
0.000000 0.000000 0.000000 

0.000000 0.000000 0.000000 
0.000000 0.000000 0.000000 
0.000000 0.000000 0.000000 

0.000000 0.000000 0.000000 
0.000000 -0.000000 0.000000 
0.000000 0.000000 0.000000 

0.000000 0.000000 0.000000 
0.000000 -0.000000 0.000000 
0.000000 0.000000 0.000000 

0.000000 -0.000000 0.000000 
0.000000 -0.000000 0.000000 
0.000000 0.000000 0.000000 

0.000000 -0.000000 0.000000 
0.000000 0.000000 0.000000 
0.000000 0.000000 0.000000 

-0.000000 -0.000000 0.000000 
0.000000 0.000000 0.000000 
0.000000 0.000000 0.000000 

-0.000000 0.000000 0.000000 
0.000000 -0.000000 0.000000 
0.000000 0.000000 0.000000 

-0.000000 0.000000 0.000000 
0.000000 0.000000 0.000000 
0.000000 0.000000 0.000000 

-0.000000 0.000000 0.000000 
0.000000 0.000000 0.000000 
0.000000 0.000000 0.000000 

0.000000 0.000000 0.000000 
0.000000 -0.000000 0.000000 
0.000000 0.000000 0.000000 

-0.000000 -0.000000 0.000000 
0.000000 -0.000000 0.000000 
0.000000 0.000000 0.000000 

-0.000000 0.000000 0.000000 
0.000000 -0.000000 0.000000 
0.000000 0.000000 0.000000 

-0.000000 -0.000000 0.000000 
0.000000 -0.000000 0.000000 
0.000000 0.000000 0.000000 

-0.000000 -0.000000 0.000000 
0.000000 0.000000 0.000000 
0.000000 0.000000 0.000000 

-0.000000 0.000000 0.000000 
0.000000 -0.000000 0.000000 
0.000000 0.000000 0.000000 

-0.000000 0.000000 0.000000 
0.000000 0.000000 0.000000 
0.000000 0.000000 0.000000 

-0.000000 -0.000000 0.000000 
0.000000 -0.000000 0.000000 
0.000000 0.000000 0.000000 

-0.000000 -0.000000 0.000000 
0.000000 -0.000000 0.000000 
0.000000 0.000000 0.000000 

0.000000 -0.000000 0.000000 
0.000000 0.000000 0.000000 
0.000000 0.000000 0.000000 

-0.000000 -0.000000 0.000000 
0.000000 0.000000 0.000000 
0.000000 0.000000 0.000000 

-0.000000 -0.000000 0.000000 
0.000000 0.000000 0.000000 
0.000000 0.000000 0.000000 

0.000000 -0.000000 0.000000 
0.000000 0.000000 0.000000 
0.000000 0.000000 0.000000 

0.000000 -0.000000 0.000000 
0.000000 0.000000 0.000000 
0.000000 0.000000 0.000000 

-0.000000 0.000000 0.000000 
0.000000 0.000000 0.000000 
0.000000 0.000000 0.000000 

-0.000000 -0.000000 0.000000 
0.000000 0.000000 0.000000 
0.000000 0.000000 0.000000 

0.000000 0.000000 0.000000 
0.000000 -0.000000 0.000000 
0.000000 0.000000 0.000000 

-0.000000 0.000000 0.000000 
0.000000 0.000000 0.000000 
0.000000 0.000000 0.000000 

-0.000000 0.000000 0.000000 
0.000000 -0.000000 0.000000 
0.000000 0.000000 0.000000 

-0.000000 -0.000000 0.000000 
0.000000 0.000000 0.000000 
0.000000 0.000000 0.000000 

-0.000000 -0.000000 0.000000 
0.000000 0.000000 0.000000 
0.000000 0.000000 0.000000 

0.000000 -0.000000 0.000000 
0.000000 -0.000000 0.000000 
0.000000 0.000000 0.000000 

0.000000 -0.000000 0.000000 
0.000000 -0.000000 0.000000 
0.000000 0.000000 0.000000 

0.000000 -0.000000 0.000000 
0.000000 0.000000 0.000000 
0.000000 0.000000 0.000000 

-0.000000 -0.000000 0.000000 
0.000000 -0.000000 0.000000 
0.000000 0.000000 0.000000 

0.000000 0.000000 0.000000 
0.000000 -0.000000 0.000000 
0.000000 0.000000 0.000000 

0.000000 0.000000 0.000000 
0.000000 0.000000 0.000000 
0.000000 0.000000 0.000000 

0.000000 -0.000000 0.000000 
0.000000 -0.000000 0.000000 
0.000000 0.000000 0.000000 

-0.000000 -0.000000 0.000000 
0.000000 0.000000 0.000000 
0.000000 0.000000 0.000000 

0.000000 0.000000 0.000000 
0.000000 -0.000000 0.000000 
0.000000 0.000000 0.000000 

0.000000 -0.000000 0.000000 
0.000000 0.000000 0.000000 
0.000000 0.000000 0.000000 

0.000000 -0.000000 0.000000 
0.000000 -0.000000 0.000000 
0.000000 0.000000 0.000000 

0.000000 -0.000000 0.000000 
0.000000 -0.000000 0.000000 
0.000000 0.000000 0.000000 

0.000000 0.000000 0.000000 
0.000000 0.000000 0.000000 
0.000000 0.000000 0.000000 

0.000000 -0.000000 0.000000 
0.000000 -0.000000 0.000000 
0.000000 0.000000 0.000000 

0.000000 -0.000000 0.000000 
0.000000 -0.000000 0.000000 
0.000000 0.000000 0.000000 

0.000000 0.000000 0.000000 
0.000000 0.000000 0.000000 
0.000000 0.000000 0.000000 

0.000000 0.000000 0.000000 
0.000000 -0.000000 0.000000 
0.000000 0.000000 0.000000 

0.000000 0.000000 0.000000 
0.000000 0.000000 0.000000 
0.000000 0.000000 0.000000 

-0.000000 0.000000 0.000000 
0.000000 0.000000 0.000000 
0.000000 0.000000 0.000000 

-0.000000 -0.000000 0.000000 
0.000000 0.000000 0.000000 
0.000000 0.000000 0.000000 

0.000000 -0.000000 0.000000 
0.000000 -0.000000 0.000000 
0.000000 0.000000 0.000000 

-0.000000 -0.000000 0.000000 
0.000000 -0.000000 0.000000 
0.000000 0.000000 0.000000 

-0.000000 -0.000000 0.000000 
0.000000 -0.000000 0.000000 
0.000000 0.000000 0.000000 

-0.000000 -0.000000 0.000000 
0.000000 0.000000 0.000000 
0.000000 0.000000 0.000000 

-0.000000 -0.000000 0.000000 
0.000000 0.000000 0.000000 
0.000000 0.000000 0.000000 

0.000000 0.000000 0.000000 
0.000000 -0.000000 0.000000 
0.000000 0.000000 0.000000 

0.000000 0.000000 0.000000 
0.000000 0.000000 0.000000 
0.000000 0.000000 0.000000 

0.000000 0.000000 0.000000 
0.000000 0.000000 0.000000 
0.000000 0.000000 0.000000 

0.000000 0.000000 0.000000 
0.000000 -0.000000 0.000000 
0.000000 0.000000 0.000000 

-0.000000 0.000000 0.000000 
0.000000 -0.000000 0.000000 
0.000000 0.000000 0.000000 

-0.000000 0.000000 0.000000 
0.000000 -0.000000 0.000000 
0.000000 0.000000 0.000000 

-0.000000 0.000000 0.000000 
0.000000 -0.000000 0.000000 
0.000000 0.000000 0.000000 

-0.000000 -0.000000 0.000000 
0.000000 0.000000 0.000000 
0.000000 0.000000 0.000000 

-0.000000 0.000000 0.000000 
0.000000 0.000000 0.000000 
0.000000 0.000000 0.000000 

-0.000000 0.000000 0.000000 
0.000000 0.000000 0.000000 
0.000000 0.000000 0.000000 

-0.000000 0.000000 0.000000 
0.000000 -0.000000 0.000000 
0.000000 0.000000 0.000000 

-0.000000 -0.000000 0.000000 
0.000000 -0.000000 0.000000 
0.000000 0.000000 0.000000 

-0.000000 -0.000000 0.000000 
0.000000 -0.000000 0.000000 
0.000000 0.000000 0.000000 

-0.000000 0.000000 0.000000 
0.000000 0.000000 0.000000 
0.000000 0.000000 0.000000 

-0.000000 -0.000000 0.000000 
0.000000 0.000000 0.000000 
0.000000 0.000000 0.000000 

0.000000 -0.000000 0.000000 
0.000000 -0.000000 0.000000 
0.000000 0.000000 0.000000 

-0.000000 0.000000 0.000000 
0.000000 0.000000 0.000000 
0.000000 0.000000 0.000000 

0.000000 -0.000000 0.000000 
0.000000 0.000000 0.000000 
0.000000 0.000000 0.000000 

0.000000 -0.000000 0.000000 
0.000000 -0.000000 0.000000 
0.000000 0.000000 0.000000 

0.000000 -0.000000 0.000000 
0.000000 -0.000000 0.000000 
0.000000 0.000000 0.000000 

0.000000 -0.000000 0.000000 
0.000000 -0.000000 0.000000 
0.000000 0.000000 0.000000 

-0.000000 -0.000000 0.000000 
0.000000 -0.000000 0.000000 
0.000000 0.000000 0.000000 

-0.000000 -0.000000 0.000000 
0.000000 0.000000 0.000000 
0.000000 0.000000 0.000000 

0.000000 0.000000 0.000000 
0.000000 0.000000 0.000000 
0.000000 0.000000 0.000000 

0.000000 -0.000000 0.000000 
0.000000 0.000000 0.000000 
0.000000 0.000000 0.000000 

