# vtk DataFile Version 3.0 
vtk output 
ASCII 
DATASET UNSTRUCTURED_GRID 
POINTS 175 float 
-0.026061 -0.496873 0.000000 
-0.106992 -0.428818 0.000000 
-0.054870 -0.437050 0.000000 
-0.028809 -0.391167 0.000000 
-0.186430 -0.364742 0.000000 
-0.137056 -0.367268 0.000000 
-0.114311 -0.313621 0.000000 
-0.058186 -0.329287 0.000000 
-0.029377 -0.289110 0.000000 
-0.265318 -0.301586 0.000000 
-0.217198 -0.302386 0.000000 
-0.196633 -0.245090 0.000000 
-0.143120 -0.253798 0.000000 
-0.116563 -0.206530 0.000000 
-0.058945 -0.226175 0.000000 
-0.029568 -0.188055 0.000000 
-0.344206 -0.238431 0.000000 
-0.296791 -0.238424 0.000000 
-0.278030 -0.178481 0.000000 
-0.225992 -0.184347 0.000000 
-0.201664 -0.132230 0.000000 
-0.145749 -0.145704 0.000000 
-0.117890 -0.101361 0.000000 
-0.059328 -0.124067 0.000000 
-0.029759 -0.087001 0.000000 
-0.058559 -0.537624 0.000000 
-0.162226 -0.558467 0.000000 
-0.123292 -0.522849 0.000000 
-0.142917 -0.473866 0.000000 
-0.261851 -0.580623 0.000000 
-0.229092 -0.543596 0.000000 
-0.256854 -0.492364 0.000000 
-0.209613 -0.458252 0.000000 
-0.223062 -0.410678 0.000000 
-0.360414 -0.602923 0.000000 
-0.329787 -0.565800 0.000000 
-0.361761 -0.513998 0.000000 
-0.321587 -0.477589 0.000000 
-0.341985 -0.427355 0.000000 
-0.290702 -0.394556 0.000000 
-0.302189 -0.347821 0.000000 
-0.458977 -0.625223 0.000000 
-0.429420 -0.588149 0.000000 
-0.464588 -0.536107 0.000000 
-0.427556 -0.499079 0.000000 
-0.453135 -0.447564 0.000000 
-0.407738 -0.412249 0.000000 
-0.425037 -0.362821 0.000000 
-0.370772 -0.331192 0.000000 
-0.381315 -0.284965 0.000000 
-0.046960 -0.588439 0.000000 
-0.095301 -0.682485 0.000000 
-0.098873 -0.629838 0.000000 
-0.149405 -0.614640 0.000000 
-0.140093 -0.774189 0.000000 
-0.148617 -0.725491 0.000000 
-0.205981 -0.715254 0.000000 
-0.203197 -0.657050 0.000000 
-0.248777 -0.637904 0.000000 
-0.184111 -0.865153 0.000000 
-0.194039 -0.818062 0.000000 
-0.254475 -0.810762 0.000000 
-0.257893 -0.756652 0.000000 
-0.309886 -0.741280 0.000000 
-0.303554 -0.680735 0.000000 
-0.347255 -0.660577 0.000000 
-0.228129 -0.956116 0.000000 
-0.238687 -0.909892 0.000000 
-0.301302 -0.904940 0.000000 
-0.307162 -0.852901 0.000000 
-0.363386 -0.840780 0.000000 
-0.362692 -0.783269 0.000000 
-0.412122 -0.765976 0.000000 
-0.403017 -0.703829 0.000000 
-0.445733 -0.683250 0.000000 
-0.000000 -0.611054 0.000000 
0.043388 -0.707485 0.000000 
-0.000000 -0.677452 0.000000 
-0.043388 -0.707485 0.000000 
0.087158 -0.799681 0.000000 
0.043769 -0.775983 0.000000 
-0.000000 -0.814449 0.000000 
-0.043769 -0.775983 0.000000 
-0.087158 -0.799681 0.000000 
0.130831 -0.890811 0.000000 
0.087824 -0.869212 0.000000 
0.044436 -0.911912 0.000000 
-0.000000 -0.880847 0.000000 
-0.044436 -0.911912 0.000000 
-0.087824 -0.869212 0.000000 
-0.130831 -0.890811 0.000000 
0.174505 -0.981941 0.000000 
0.131782 -0.961375 0.000000 
0.088871 -1.007241 0.000000 
0.044532 -0.979377 0.000000 
-0.000000 -1.015778 0.000000 
-0.044532 -0.979377 0.000000 
-0.088871 -1.007241 0.000000 
-0.131782 -0.961375 0.000000 
-0.174505 -0.981941 0.000000 
0.046960 -0.588439 0.000000 
0.149405 -0.614640 0.000000 
0.098873 -0.629838 0.000000 
0.095301 -0.682485 0.000000 
0.248777 -0.637904 0.000000 
0.203197 -0.657050 0.000000 
0.205981 -0.715254 0.000000 
0.148617 -0.725491 0.000000 
0.140093 -0.774189 0.000000 
0.347255 -0.660577 0.000000 
0.303554 -0.680735 0.000000 
0.309886 -0.741280 0.000000 
0.257893 -0.756652 0.000000 
0.254475 -0.810762 0.000000 
0.194039 -0.818062 0.000000 
0.184111 -0.865153 0.000000 
0.445733 -0.683250 0.000000 
0.403017 -0.703829 0.000000 
0.412122 -0.765976 0.000000 
0.362692 -0.783269 0.000000 
0.363386 -0.840780 0.000000 
0.307162 -0.852901 0.000000 
0.301302 -0.904940 0.000000 
0.238687 -0.909892 0.000000 
0.228129 -0.956116 0.000000 
0.058559 -0.537624 0.000000 
0.142917 -0.473866 0.000000 
0.123292 -0.522849 0.000000 
0.162226 -0.558467 0.000000 
0.223062 -0.410678 0.000000 
0.209613 -0.458252 0.000000 
0.256854 -0.492364 0.000000 
0.229092 -0.543596 0.000000 
0.261851 -0.580623 0.000000 
0.302189 -0.347821 0.000000 
0.290702 -0.394556 0.000000 
0.341985 -0.427355 0.000000 
0.321587 -0.477589 0.000000 
0.361761 -0.513998 0.000000 
0.329787 -0.565800 0.000000 
0.360414 -0.602923 0.000000 
0.381315 -0.284965 0.000000 
0.370772 -0.331192 0.000000 
0.425037 -0.362821 0.000000 
0.407738 -0.412249 0.000000 
0.453135 -0.447564 0.000000 
0.427556 -0.499079 0.000000 
0.464588 -0.536107 0.000000 
0.429420 -0.588149 0.000000 
0.458977 -0.625223 0.000000 
0.026061 -0.496873 0.000000 
0.028809 -0.391167 0.000000 
0.054870 -0.437050 0.000000 
0.106992 -0.428818 0.000000 
0.029377 -0.289110 0.000000 
0.058186 -0.329287 0.000000 
0.114311 -0.313621 0.000000 
0.137056 -0.367268 0.000000 
0.186430 -0.364742 0.000000 
0.029568 -0.188055 0.000000 
0.058945 -0.226175 0.000000 
0.116563 -0.206530 0.000000 
0.143120 -0.253798 0.000000 
0.196633 -0.245090 0.000000 
0.217198 -0.302386 0.000000 
0.265318 -0.301586 0.000000 
0.029759 -0.087001 0.000000 
0.059328 -0.124067 0.000000 
0.117890 -0.101361 0.000000 
0.145749 -0.145704 0.000000 
0.201664 -0.132230 0.000000 
0.225992 -0.184347 0.000000 
0.278030 -0.178481 0.000000 
0.296791 -0.238424 0.000000 
0.344206 -0.238431 0.000000 
CELLS 175 350 
1 0 
1 1 
1 2 
1 3 
1 4 
1 5 
1 6 
1 7 
1 8 
1 9 
1 10 
1 11 
1 12 
1 13 
1 14 
1 15 
1 16 
1 17 
1 18 
1 19 
1 20 
1 21 
1 22 
1 23 
1 24 
1 25 
1 26 
1 27 
1 28 
1 29 
1 30 
1 31 
1 32 
1 33 
1 34 
1 35 
1 36 
1 37 
1 38 
1 39 
1 40 
1 41 
1 42 
1 43 
1 44 
1 45 
1 46 
1 47 
1 48 
1 49 
1 50 
1 51 
1 52 
1 53 
1 54 
1 55 
1 56 
1 57 
1 58 
1 59 
1 60 
1 61 
1 62 
1 63 
1 64 
1 65 
1 66 
1 67 
1 68 
1 69 
1 70 
1 71 
1 72 
1 73 
1 74 
1 75 
1 76 
1 77 
1 78 
1 79 
1 80 
1 81 
1 82 
1 83 
1 84 
1 85 
1 86 
1 87 
1 88 
1 89 
1 90 
1 91 
1 92 
1 93 
1 94 
1 95 
1 96 
1 97 
1 98 
1 99 
1 100 
1 101 
1 102 
1 103 
1 104 
1 105 
1 106 
1 107 
1 108 
1 109 
1 110 
1 111 
1 112 
1 113 
1 114 
1 115 
1 116 
1 117 
1 118 
1 119 
1 120 
1 121 
1 122 
1 123 
1 124 
1 125 
1 126 
1 127 
1 128 
1 129 
1 130 
1 131 
1 132 
1 133 
1 134 
1 135 
1 136 
1 137 
1 138 
1 139 
1 140 
1 141 
1 142 
1 143 
1 144 
1 145 
1 146 
1 147 
1 148 
1 149 
1 150 
1 151 
1 152 
1 153 
1 154 
1 155 
1 156 
1 157 
1 158 
1 159 
1 160 
1 161 
1 162 
1 163 
1 164 
1 165 
1 166 
1 167 
1 168 
1 169 
1 170 
1 171 
1 172 
1 173 
1 174 
CELL_TYPES 175 
1 
1 
1 
1 
1 
1 
1 
1 
1 
1 
1 
1 
1 
1 
1 
1 
1 
1 
1 
1 
1 
1 
1 
1 
1 
1 
1 
1 
1 
1 
1 
1 
1 
1 
1 
1 
1 
1 
1 
1 
1 
1 
1 
1 
1 
1 
1 
1 
1 
1 
1 
1 
1 
1 
1 
1 
1 
1 
1 
1 
1 
1 
1 
1 
1 
1 
1 
1 
1 
1 
1 
1 
1 
1 
1 
1 
1 
1 
1 
1 
1 
1 
1 
1 
1 
1 
1 
1 
1 
1 
1 
1 
1 
1 
1 
1 
1 
1 
1 
1 
1 
1 
1 
1 
1 
1 
1 
1 
1 
1 
1 
1 
1 
1 
1 
1 
1 
1 
1 
1 
1 
1 
1 
1 
1 
1 
1 
1 
1 
1 
1 
1 
1 
1 
1 
1 
1 
1 
1 
1 
1 
1 
1 
1 
1 
1 
1 
1 
1 
1 
1 
1 
1 
1 
1 
1 
1 
1 
1 
1 
1 
1 
1 
1 
1 
1 
1 
1 
1 
1 
1 
1 
1 
1 
1 
POINT_DATA 175 
VECTORS X_GC float 
-0.026061 -0.496873 0.000000 
-0.106992 -0.428818 0.000000 
-0.054870 -0.437050 0.000000 
-0.028809 -0.391167 0.000000 
-0.186430 -0.364742 0.000000 
-0.137056 -0.367268 0.000000 
-0.114311 -0.313621 0.000000 
-0.058186 -0.329287 0.000000 
-0.029377 -0.289110 0.000000 
-0.265318 -0.301586 0.000000 
-0.217198 -0.302386 0.000000 
-0.196633 -0.245090 0.000000 
-0.143120 -0.253798 0.000000 
-0.116563 -0.206530 0.000000 
-0.058945 -0.226175 0.000000 
-0.029568 -0.188055 0.000000 
-0.344206 -0.238431 0.000000 
-0.296791 -0.238424 0.000000 
-0.278030 -0.178481 0.000000 
-0.225992 -0.184347 0.000000 
-0.201664 -0.132230 0.000000 
-0.145749 -0.145704 0.000000 
-0.117890 -0.101361 0.000000 
-0.059328 -0.124067 0.000000 
-0.029759 -0.087001 0.000000 
-0.058559 -0.537624 0.000000 
-0.162226 -0.558467 0.000000 
-0.123292 -0.522849 0.000000 
-0.142917 -0.473866 0.000000 
-0.261851 -0.580623 0.000000 
-0.229092 -0.543596 0.000000 
-0.256854 -0.492364 0.000000 
-0.209613 -0.458252 0.000000 
-0.223062 -0.410678 0.000000 
-0.360414 -0.602923 0.000000 
-0.329787 -0.565800 0.000000 
-0.361761 -0.513998 0.000000 
-0.321587 -0.477589 0.000000 
-0.341985 -0.427355 0.000000 
-0.290702 -0.394556 0.000000 
-0.302189 -0.347821 0.000000 
-0.458977 -0.625223 0.000000 
-0.429420 -0.588149 0.000000 
-0.464588 -0.536107 0.000000 
-0.427556 -0.499079 0.000000 
-0.453135 -0.447564 0.000000 
-0.407738 -0.412249 0.000000 
-0.425037 -0.362821 0.000000 
-0.370772 -0.331192 0.000000 
-0.381315 -0.284965 0.000000 
-0.046960 -0.588439 0.000000 
-0.095301 -0.682485 0.000000 
-0.098873 -0.629838 0.000000 
-0.149405 -0.614640 0.000000 
-0.140093 -0.774189 0.000000 
-0.148617 -0.725491 0.000000 
-0.205981 -0.715254 0.000000 
-0.203197 -0.657050 0.000000 
-0.248777 -0.637904 0.000000 
-0.184111 -0.865153 0.000000 
-0.194039 -0.818062 0.000000 
-0.254475 -0.810762 0.000000 
-0.257893 -0.756652 0.000000 
-0.309886 -0.741280 0.000000 
-0.303554 -0.680735 0.000000 
-0.347255 -0.660577 0.000000 
-0.228129 -0.956116 0.000000 
-0.238687 -0.909892 0.000000 
-0.301302 -0.904940 0.000000 
-0.307162 -0.852901 0.000000 
-0.363386 -0.840780 0.000000 
-0.362692 -0.783269 0.000000 
-0.412122 -0.765976 0.000000 
-0.403017 -0.703829 0.000000 
-0.445733 -0.683250 0.000000 
-0.000000 -0.611054 0.000000 
0.043388 -0.707485 0.000000 
-0.000000 -0.677452 0.000000 
-0.043388 -0.707485 0.000000 
0.087158 -0.799681 0.000000 
0.043769 -0.775983 0.000000 
-0.000000 -0.814449 0.000000 
-0.043769 -0.775983 0.000000 
-0.087158 -0.799681 0.000000 
0.130831 -0.890811 0.000000 
0.087824 -0.869212 0.000000 
0.044436 -0.911912 0.000000 
-0.000000 -0.880847 0.000000 
-0.044436 -0.911912 0.000000 
-0.087824 -0.869212 0.000000 
-0.130831 -0.890811 0.000000 
0.174505 -0.981941 0.000000 
0.131782 -0.961375 0.000000 
0.088871 -1.007241 0.000000 
0.044532 -0.979377 0.000000 
-0.000000 -1.015778 0.000000 
-0.044532 -0.979377 0.000000 
-0.088871 -1.007241 0.000000 
-0.131782 -0.961375 0.000000 
-0.174505 -0.981941 0.000000 
0.046960 -0.588439 0.000000 
0.149405 -0.614640 0.000000 
0.098873 -0.629838 0.000000 
0.095301 -0.682485 0.000000 
0.248777 -0.637904 0.000000 
0.203197 -0.657050 0.000000 
0.205981 -0.715254 0.000000 
0.148617 -0.725491 0.000000 
0.140093 -0.774189 0.000000 
0.347255 -0.660577 0.000000 
0.303554 -0.680735 0.000000 
0.309886 -0.741280 0.000000 
0.257893 -0.756652 0.000000 
0.254475 -0.810762 0.000000 
0.194039 -0.818062 0.000000 
0.184111 -0.865153 0.000000 
0.445733 -0.683250 0.000000 
0.403017 -0.703829 0.000000 
0.412122 -0.765976 0.000000 
0.362692 -0.783269 0.000000 
0.363386 -0.840780 0.000000 
0.307162 -0.852901 0.000000 
0.301302 -0.904940 0.000000 
0.238687 -0.909892 0.000000 
0.228129 -0.956116 0.000000 
0.058559 -0.537624 0.000000 
0.142917 -0.473866 0.000000 
0.123292 -0.522849 0.000000 
0.162226 -0.558467 0.000000 
0.223062 -0.410678 0.000000 
0.209613 -0.458252 0.000000 
0.256854 -0.492364 0.000000 
0.229092 -0.543596 0.000000 
0.261851 -0.580623 0.000000 
0.302189 -0.347821 0.000000 
0.290702 -0.394556 0.000000 
0.341985 -0.427355 0.000000 
0.321587 -0.477589 0.000000 
0.361761 -0.513998 0.000000 
0.329787 -0.565800 0.000000 
0.360414 -0.602923 0.000000 
0.381315 -0.284965 0.000000 
0.370772 -0.331192 0.000000 
0.425037 -0.362821 0.000000 
0.407738 -0.412249 0.000000 
0.453135 -0.447564 0.000000 
0.427556 -0.499079 0.000000 
0.464588 -0.536107 0.000000 
0.429420 -0.588149 0.000000 
0.458977 -0.625223 0.000000 
0.026061 -0.496873 0.000000 
0.028809 -0.391167 0.000000 
0.054870 -0.437050 0.000000 
0.106992 -0.428818 0.000000 
0.029377 -0.289110 0.000000 
0.058186 -0.329287 0.000000 
0.114311 -0.313621 0.000000 
0.137056 -0.367268 0.000000 
0.186430 -0.364742 0.000000 
0.029568 -0.188055 0.000000 
0.058945 -0.226175 0.000000 
0.116563 -0.206530 0.000000 
0.143120 -0.253798 0.000000 
0.196633 -0.245090 0.000000 
0.217198 -0.302386 0.000000 
0.265318 -0.301586 0.000000 
0.029759 -0.087001 0.000000 
0.059328 -0.124067 0.000000 
0.117890 -0.101361 0.000000 
0.145749 -0.145704 0.000000 
0.201664 -0.132230 0.000000 
0.225992 -0.184347 0.000000 
0.278030 -0.178481 0.000000 
0.296791 -0.238424 0.000000 
0.344206 -0.238431 0.000000 
VECTORS X_EC float 
0.338794 -0.792211 0.000000 
-0.609100 0.289040 0.000000 
0.713312 0.400181 0.000000 
0.374519 -0.219249 0.000000 
0.423588 -0.575979 0.000000 
-0.218274 -0.541875 0.000000 
-0.513962 0.733886 0.000000 
0.756418 0.945372 0.000000 
0.381900 0.402979 0.000000 
-0.550868 0.571418 0.000000 
0.823577 0.582213 0.000000 
0.556234 -0.191291 0.000000 
-0.139443 -0.073722 0.000000 
-0.484677 -0.711847 0.000000 
0.766286 -0.446631 0.000000 
0.384386 -0.961252 0.000000 
0.474677 -0.281185 0.000000 
-0.141715 -0.281282 0.000000 
-0.385608 0.909490 0.000000 
0.937896 0.988686 0.000000 
0.621631 0.285106 0.000000 
-0.105264 0.467005 0.000000 
-0.467428 -0.131622 0.000000 
0.771260 0.174907 0.000000 
0.386873 -0.325483 0.000000 
0.761262 -0.242077 0.000000 
0.108942 0.039300 0.000000 
-0.397202 -0.441540 0.000000 
-0.142083 0.897185 0.000000 
-0.595936 0.338410 0.000000 
0.978194 -0.161456 0.000000 
-0.660903 -0.853081 0.000000 
0.724964 0.686399 0.000000 
0.899809 0.044151 0.000000 
0.685384 0.639463 0.000000 
0.287229 0.138304 0.000000 
0.702895 -0.561024 0.000000 
0.180633 0.947457 0.000000 
0.445811 0.269297 0.000000 
-0.220880 -0.173489 0.000000 
-0.071546 -0.804414 0.000000 
-0.033296 0.940515 0.000000 
-0.417537 0.440005 0.000000 
0.039645 -0.262557 0.000000 
-0.441768 -0.762428 0.000000 
-0.109248 0.542121 0.000000 
-0.699407 0.065365 0.000000 
-0.474522 -0.601914 0.000000 
0.820030 0.971093 0.000000 
0.957100 0.347021 0.000000 
0.610485 0.443929 0.000000 
-0.761092 -0.286451 0.000000 
-0.714655 -0.997189 0.000000 
-0.057734 0.797644 0.000000 
-0.178789 0.951553 0.000000 
-0.067979 0.294127 0.000000 
0.677748 0.155923 0.000000 
0.641556 -0.629822 0.000000 
-0.765897 -0.888300 0.000000 
0.393446 0.179562 0.000000 
0.522510 -0.456168 0.000000 
-0.691820 -0.554712 0.000000 
-0.647393 0.714805 0.000000 
0.028512 0.507279 0.000000 
-0.053800 -0.310082 0.000000 
0.514316 -0.582213 0.000000 
0.965681 -0.592429 0.000000 
-0.897068 0.783542 0.000000 
-0.083078 0.716689 0.000000 
-0.006893 0.014165 0.000000 
0.724017 -0.149468 0.000000 
0.714996 -0.925872 0.000000 
-0.642413 0.840671 0.000000 
-0.760780 0.001690 0.000000 
-0.205471 -0.276125 0.000000 
0.000000 0.749231 0.000000 
-0.564049 0.051044 0.000000 
0.000000 -0.354392 0.000000 
0.564049 0.051044 0.000000 
0.866949 -0.704301 0.000000 
-0.569003 0.975768 0.000000 
0.000000 -0.504944 0.000000 
0.569003 0.975768 0.000000 
-0.866949 -0.704301 0.000000 
0.299194 0.525949 0.000000 
0.858290 0.234365 0.000000 
-0.577662 0.810811 0.000000 
0.000000 0.391433 0.000000 
0.577662 0.810811 0.000000 
-0.858290 0.234365 0.000000 
-0.299194 0.525949 0.000000 
-0.268560 -0.243801 0.000000 
0.286830 -0.521442 0.000000 
0.844677 0.097756 0.000000 
-0.578910 -0.278407 0.000000 
0.000000 0.212997 0.000000 
0.578910 -0.278407 0.000000 
-0.844677 0.097756 0.000000 
-0.286830 -0.521442 0.000000 
0.268560 -0.243801 0.000000 
-0.610485 0.443929 0.000000 
0.057734 0.797644 0.000000 
0.714655 -0.997189 0.000000 
0.761092 -0.286451 0.000000 
0.765897 -0.888300 0.000000 
-0.641556 -0.629822 0.000000 
-0.677748 0.155923 0.000000 
0.067979 0.294127 0.000000 
0.178789 0.951553 0.000000 
-0.514316 -0.582213 0.000000 
0.053800 -0.310082 0.000000 
-0.028512 0.507279 0.000000 
0.647393 0.714805 0.000000 
0.691820 -0.554712 0.000000 
-0.522510 -0.456168 0.000000 
-0.393446 0.179562 0.000000 
0.205471 -0.276125 0.000000 
0.760780 0.001690 0.000000 
0.642413 0.840671 0.000000 
-0.714996 -0.925872 0.000000 
-0.724017 -0.149468 0.000000 
0.006894 0.014165 0.000000 
0.083078 0.716689 0.000000 
0.897068 0.783542 0.000000 
-0.965681 -0.592429 0.000000 
-0.761262 -0.242077 0.000000 
0.142083 0.897185 0.000000 
0.397202 -0.441540 0.000000 
-0.108942 0.039300 0.000000 
-0.899809 0.044151 0.000000 
-0.724964 0.686399 0.000000 
0.660903 -0.853081 0.000000 
-0.978194 -0.161455 0.000000 
0.595936 0.338410 0.000000 
0.071546 -0.804414 0.000000 
0.220880 -0.173489 0.000000 
-0.445811 0.269297 0.000000 
-0.180633 0.947457 0.000000 
-0.702895 -0.561024 0.000000 
-0.287229 0.138304 0.000000 
-0.685384 0.639463 0.000000 
-0.957100 0.347021 0.000000 
-0.820030 0.971093 0.000000 
0.474522 -0.601914 0.000000 
0.699407 0.065365 0.000000 
0.109248 0.542121 0.000000 
0.441768 -0.762428 0.000000 
-0.039645 -0.262557 0.000000 
0.417537 0.440005 0.000000 
0.033296 0.940515 0.000000 
-0.338794 -0.792211 0.000000 
-0.374519 -0.219249 0.000000 
-0.713312 0.400181 0.000000 
0.609100 0.289040 0.000000 
-0.381900 0.402979 0.000000 
-0.756418 0.945372 0.000000 
0.513962 0.733886 0.000000 
0.218274 -0.541875 0.000000 
-0.423588 -0.575979 0.000000 
-0.384386 -0.961252 0.000000 
-0.766286 -0.446631 0.000000 
0.484677 -0.711847 0.000000 
0.139443 -0.073722 0.000000 
-0.556234 -0.191291 0.000000 
-0.823577 0.582213 0.000000 
0.550868 0.571418 0.000000 
-0.386873 -0.325483 0.000000 
-0.771260 0.174907 0.000000 
0.467428 -0.131622 0.000000 
0.105264 0.467005 0.000000 
-0.621631 0.285106 0.000000 
-0.937896 0.988686 0.000000 
0.385608 0.909490 0.000000 
0.141715 -0.281282 0.000000 
-0.474677 -0.281185 0.000000 
CELL_DATA 175 
SCALARS MASS float 
LOOKUP_TABLE default 
0.078183 
0.086427 
0.094672 
0.086427 
0.088131 
0.092111 
0.085854 
0.092111 
0.088131 
0.088705 
0.091000 
0.086983 
0.091556 
0.086983 
0.091000 
0.088705 
0.089278 
0.091574 
0.089278 
0.092722 
0.089278 
0.092722 
0.089278 
0.091574 
0.089278 
0.078183 
0.086427 
0.094672 
0.086427 
0.088131 
0.092111 
0.085854 
0.092111 
0.088131 
0.088705 
0.091000 
0.086983 
0.091556 
0.086983 
0.091000 
0.088705 
0.089278 
0.091574 
0.089278 
0.092722 
0.089278 
0.092722 
0.089278 
0.091574 
0.089278 
0.078183 
0.086427 
0.094672 
0.086427 
0.088131 
0.092111 
0.085854 
0.092111 
0.088131 
0.088705 
0.091000 
0.086983 
0.091556 
0.086983 
0.091000 
0.088705 
0.089278 
0.091574 
0.089278 
0.092722 
0.089278 
0.092722 
0.089278 
0.091574 
0.089278 
0.078183 
0.086427 
0.094672 
0.086427 
0.088131 
0.092111 
0.085854 
0.092111 
0.088131 
0.088705 
0.091000 
0.086983 
0.091556 
0.086983 
0.091000 
0.088705 
0.089278 
0.091574 
0.089278 
0.092722 
0.089278 
0.092722 
0.089278 
0.091574 
0.089278 
0.078183 
0.086427 
0.094672 
0.086427 
0.088131 
0.092111 
0.085854 
0.092111 
0.088131 
0.088705 
0.091000 
0.086983 
0.091556 
0.086983 
0.091000 
0.088705 
0.089278 
0.091574 
0.089278 
0.092722 
0.089278 
0.092722 
0.089278 
0.091574 
0.089278 
0.078183 
0.086427 
0.094672 
0.086427 
0.088131 
0.092111 
0.085854 
0.092111 
0.088131 
0.088705 
0.091000 
0.086983 
0.091556 
0.086983 
0.091000 
0.088705 
0.089278 
0.091574 
0.089278 
0.092722 
0.089278 
0.092722 
0.089278 
0.091574 
0.089278 
0.078183 
0.086427 
0.094672 
0.086427 
0.088131 
0.092111 
0.085854 
0.092111 
0.088131 
0.088705 
0.091000 
0.086983 
0.091556 
0.086983 
0.091000 
0.088705 
0.089278 
0.091574 
0.089278 
0.092722 
0.089278 
0.092722 
0.089278 
0.091574 
0.089278 
SCALARS MASS float 
LOOKUP_TABLE default 
0.078183 
0.086427 
0.094672 
0.086427 
0.088131 
0.092111 
0.085854 
0.092111 
0.088131 
0.088705 
0.091000 
0.086983 
0.091556 
0.086983 
0.091000 
0.088705 
0.089278 
0.091574 
0.089278 
0.092722 
0.089278 
0.092722 
0.089278 
0.091574 
0.089278 
0.078183 
0.086427 
0.094672 
0.086427 
0.088131 
0.092111 
0.085854 
0.092111 
0.088131 
0.088705 
0.091000 
0.086983 
0.091556 
0.086983 
0.091000 
0.088705 
0.089278 
0.091574 
0.089278 
0.092722 
0.089278 
0.092722 
0.089278 
0.091574 
0.089278 
0.078183 
0.086427 
0.094672 
0.086427 
0.088131 
0.092111 
0.085854 
0.092111 
0.088131 
0.088705 
0.091000 
0.086983 
0.091556 
0.086983 
0.091000 
0.088705 
0.089278 
0.091574 
0.089278 
0.092722 
0.089278 
0.092722 
0.089278 
0.091574 
0.089278 
0.078183 
0.086427 
0.094672 
0.086427 
0.088131 
0.092111 
0.085854 
0.092111 
0.088131 
0.088705 
0.091000 
0.086983 
0.091556 
0.086983 
0.091000 
0.088705 
0.089278 
0.091574 
0.089278 
0.092722 
0.089278 
0.092722 
0.089278 
0.091574 
0.089278 
0.078183 
0.086427 
0.094672 
0.086427 
0.088131 
0.092111 
0.085854 
0.092111 
0.088131 
0.088705 
0.091000 
0.086983 
0.091556 
0.086983 
0.091000 
0.088705 
0.089278 
0.091574 
0.089278 
0.092722 
0.089278 
0.092722 
0.089278 
0.091574 
0.089278 
0.078183 
0.086427 
0.094672 
0.086427 
0.088131 
0.092111 
0.085854 
0.092111 
0.088131 
0.088705 
0.091000 
0.086983 
0.091556 
0.086983 
0.091000 
0.088705 
0.089278 
0.091574 
0.089278 
0.092722 
0.089278 
0.092722 
0.089278 
0.091574 
0.089278 
0.078183 
0.086427 
0.094672 
0.086427 
0.088131 
0.092111 
0.085854 
0.092111 
0.088131 
0.088705 
0.091000 
0.086983 
0.091556 
0.086983 
0.091000 
0.088705 
0.089278 
0.091574 
0.089278 
0.092722 
0.089278 
0.092722 
0.089278 
0.091574 
0.089278 
SCALARS DENSITY float 
LOOKUP_TABLE default 
20.000000 
20.000000 
20.000000 
20.000000 
20.000000 
20.000000 
20.000000 
20.000000 
20.000000 
20.000000 
20.000000 
20.000000 
20.000000 
20.000000 
20.000000 
20.000000 
20.000000 
20.000000 
20.000000 
20.000000 
20.000000 
20.000000 
20.000000 
20.000000 
20.000000 
20.000000 
20.000000 
20.000000 
20.000000 
20.000000 
20.000000 
20.000000 
20.000000 
20.000000 
20.000000 
20.000000 
20.000000 
20.000000 
20.000000 
20.000000 
20.000000 
20.000000 
20.000000 
20.000000 
20.000000 
20.000000 
20.000000 
20.000000 
20.000000 
20.000000 
20.000000 
20.000000 
20.000000 
20.000000 
20.000000 
20.000000 
20.000000 
20.000000 
20.000000 
20.000000 
20.000000 
20.000000 
20.000000 
20.000000 
20.000000 
20.000000 
20.000000 
20.000000 
20.000000 
20.000000 
20.000000 
20.000000 
20.000000 
20.000000 
20.000000 
20.000000 
20.000000 
20.000000 
20.000000 
20.000000 
20.000000 
20.000000 
20.000000 
20.000000 
20.000000 
20.000000 
20.000000 
20.000000 
20.000000 
20.000000 
20.000000 
20.000000 
20.000000 
20.000000 
20.000000 
20.000000 
20.000000 
20.000000 
20.000000 
20.000000 
20.000000 
20.000000 
20.000000 
20.000000 
20.000000 
20.000000 
20.000000 
20.000000 
20.000000 
20.000000 
20.000000 
20.000000 
20.000000 
20.000000 
20.000000 
20.000000 
20.000000 
20.000000 
20.000000 
20.000000 
20.000000 
20.000000 
20.000000 
20.000000 
20.000000 
20.000000 
20.000000 
20.000000 
20.000000 
20.000000 
20.000000 
20.000000 
20.000000 
20.000000 
20.000000 
20.000000 
20.000000 
20.000000 
20.000000 
20.000000 
20.000000 
20.000000 
20.000000 
20.000000 
20.000000 
20.000000 
20.000000 
20.000000 
20.000000 
20.000000 
20.000000 
20.000000 
20.000000 
20.000000 
20.000000 
20.000000 
20.000000 
20.000000 
20.000000 
20.000000 
20.000000 
20.000000 
20.000000 
20.000000 
20.000000 
20.000000 
20.000000 
20.000000 
20.000000 
20.000000 
20.000000 
20.000000 
20.000000 
20.000000 
20.000000 
SCALARS ELEM_i float 
LOOKUP_TABLE default 
178 
206 
179 
179 
206 
206 
207 
180 
180 
234 
207 
207 
207 
207 
180 
180 
234 
234 
235 
208 
208 
208 
208 
181 
181 
178 
205 
205 
206 
232 
205 
232 
206 
206 
232 
232 
232 
233 
233 
233 
233 
259 
259 
259 
259 
260 
260 
260 
234 
234 
178 
204 
204 
205 
204 
204 
204 
204 
231 
203 
203 
230 
231 
231 
231 
231 
202 
230 
230 
230 
230 
230 
258 
258 
258 
178 
177 
177 
177 
149 
177 
176 
177 
203 
149 
149 
176 
176 
176 
203 
203 
148 
148 
148 
175 
175 
175 
202 
202 
202 
178 
151 
150 
150 
123 
150 
150 
150 
150 
123 
123 
123 
123 
122 
149 
149 
96 
96 
96 
122 
122 
122 
122 
122 
148 
178 
152 
151 
151 
152 
152 
124 
151 
124 
125 
125 
125 
125 
124 
124 
124 
126 
126 
98 
98 
98 
97 
97 
97 
97 
178 
179 
179 
152 
180 
180 
153 
152 
152 
180 
180 
153 
153 
153 
153 
126 
181 
181 
154 
154 
154 
154 
127 
126 
126 
VECTORS VELOCITY float 
0.000000 -3.287527 0.000000 
0.000000 -3.287527 0.000000 
0.000000 -3.287527 0.000000 
0.000000 -3.287527 0.000000 
0.000000 -3.287527 0.000000 
0.000000 -3.287527 0.000000 
0.000000 -3.287527 0.000000 
-0.000000 -3.287527 0.000000 
-0.000000 -3.287527 0.000000 
-0.000000 -3.287527 0.000000 
-0.000000 -3.287527 0.000000 
-0.000000 -3.287527 0.000000 
-0.000000 -3.287527 0.000000 
-0.000000 -3.287527 0.000000 
-0.000000 -3.287527 0.000000 
-0.000000 -3.287527 0.000000 
0.000000 -3.287527 0.000000 
0.000000 -3.287527 0.000000 
0.000000 -3.287527 0.000000 
-0.000000 -3.287527 0.000000 
0.000000 -3.287527 0.000000 
-0.000000 -3.287527 0.000000 
-0.000000 -3.287527 0.000000 
-0.000000 -3.287527 0.000000 
-0.000000 -3.287527 0.000000 
0.000000 -3.287527 0.000000 
0.000000 -3.287527 0.000000 
0.000000 -3.287527 0.000000 
0.000000 -3.287527 0.000000 
0.000000 -3.287527 0.000000 
0.000000 -3.287527 0.000000 
-0.000000 -3.287527 0.000000 
0.000000 -3.287527 0.000000 
0.000000 -3.287527 0.000000 
-0.000000 -3.287527 0.000000 
-0.000000 -3.287527 0.000000 
-0.000000 -3.287527 0.000000 
-0.000000 -3.287527 0.000000 
-0.000000 -3.287527 0.000000 
0.000000 -3.287527 0.000000 
0.000000 -3.287527 0.000000 
-0.000000 -3.287527 0.000000 
-0.000000 -3.287527 0.000000 
-0.000000 -3.287527 0.000000 
-0.000000 -3.287527 0.000000 
0.000000 -3.287527 0.000000 
-0.000000 -3.287527 0.000000 
0.000000 -3.287527 0.000000 
0.000000 -3.287527 0.000000 
0.000000 -3.287527 0.000000 
-0.000000 -3.287527 0.000000 
-0.000000 -3.287527 0.000000 
-0.000000 -3.287527 0.000000 
0.000000 -3.287527 0.000000 
-0.000000 -3.287527 0.000000 
-0.000000 -3.287527 0.000000 
-0.000000 -3.287527 0.000000 
-0.000000 -3.287527 0.000000 
0.000000 -3.287527 0.000000 
-0.000000 -3.287527 0.000000 
-0.000000 -3.287527 0.000000 
-0.000000 -3.287527 0.000000 
-0.000000 -3.287527 0.000000 
0.000000 -3.287527 0.000000 
0.000000 -3.287527 0.000000 
0.000000 -3.287527 0.000000 
0.000000 -3.287527 0.000000 
0.000000 -3.287527 0.000000 
0.000000 -3.287527 0.000000 
-0.000000 -3.287527 0.000000 
0.000000 -3.287527 0.000000 
0.000000 -3.287527 0.000000 
-0.000000 -3.287527 0.000000 
0.000000 -3.287527 0.000000 
-0.000000 -3.287527 0.000000 
0.000000 -3.287527 0.000000 
-0.000000 -3.287527 0.000000 
-0.000000 -3.287527 0.000000 
-0.000000 -3.287527 0.000000 
0.000000 -3.287527 0.000000 
0.000000 -3.287527 0.000000 
0.000000 -3.287527 0.000000 
0.000000 -3.287527 0.000000 
0.000000 -3.287527 0.000000 
0.000000 -3.287527 0.000000 
0.000000 -3.287527 0.000000 
0.000000 -3.287527 0.000000 
-0.000000 -3.287527 0.000000 
-0.000000 -3.287527 0.000000 
-0.000000 -3.287527 0.000000 
-0.000000 -3.287527 0.000000 
-0.000000 -3.287527 0.000000 
-0.000000 -3.287527 0.000000 
-0.000000 -3.287527 0.000000 
-0.000000 -3.287527 0.000000 
0.000000 -3.287527 0.000000 
-0.000000 -3.287527 0.000000 
-0.000000 -3.287527 0.000000 
-0.000000 -3.287527 0.000000 
0.000000 -3.287527 0.000000 
0.000000 -3.287527 0.000000 
-0.000000 -3.287527 0.000000 
-0.000000 -3.287527 0.000000 
-0.000000 -3.287527 0.000000 
-0.000000 -3.287527 0.000000 
-0.000000 -3.287527 0.000000 
0.000000 -3.287527 0.000000 
0.000000 -3.287527 0.000000 
0.000000 -3.287527 0.000000 
0.000000 -3.287527 0.000000 
0.000000 -3.287527 0.000000 
0.000000 -3.287527 0.000000 
0.000000 -3.287527 0.000000 
0.000000 -3.287527 0.000000 
0.000000 -3.287527 0.000000 
-0.000000 -3.287527 0.000000 
0.000000 -3.287527 0.000000 
0.000000 -3.287527 0.000000 
-0.000000 -3.287527 0.000000 
0.000000 -3.287527 0.000000 
0.000000 -3.287527 0.000000 
-0.000000 -3.287527 0.000000 
-0.000000 -3.287527 0.000000 
-0.000000 -3.287527 0.000000 
-0.000000 -3.287527 0.000000 
0.000000 -3.287527 0.000000 
0.000000 -3.287527 0.000000 
0.000000 -3.287527 0.000000 
0.000000 -3.287527 0.000000 
0.000000 -3.287527 0.000000 
-0.000000 -3.287527 0.000000 
0.000000 -3.287527 0.000000 
0.000000 -3.287527 0.000000 
0.000000 -3.287527 0.000000 
0.000000 -3.287527 0.000000 
0.000000 -3.287527 0.000000 
0.000000 -3.287527 0.000000 
0.000000 -3.287527 0.000000 
-0.000000 -3.287527 0.000000 
-0.000000 -3.287527 0.000000 
0.000000 -3.287527 0.000000 
0.000000 -3.287527 0.000000 
0.000000 -3.287527 0.000000 
-0.000000 -3.287527 0.000000 
0.000000 -3.287527 0.000000 
0.000000 -3.287527 0.000000 
0.000000 -3.287527 0.000000 
0.000000 -3.287527 0.000000 
0.000000 -3.287527 0.000000 
0.000000 -3.287527 0.000000 
0.000000 -3.287527 0.000000 
0.000000 -3.287527 0.000000 
0.000000 -3.287527 0.000000 
0.000000 -3.287527 0.000000 
-0.000000 -3.287527 0.000000 
-0.000000 -3.287527 0.000000 
-0.000000 -3.287527 0.000000 
0.000000 -3.287527 0.000000 
0.000000 -3.287527 0.000000 
0.000000 -3.287527 0.000000 
-0.000000 -3.287527 0.000000 
-0.000000 -3.287527 0.000000 
-0.000000 -3.287527 0.000000 
0.000000 -3.287527 0.000000 
0.000000 -3.287527 0.000000 
0.000000 -3.287527 0.000000 
-0.000000 -3.287527 0.000000 
-0.000000 -3.287527 0.000000 
-0.000000 -3.287527 0.000000 
-0.000000 -3.287527 0.000000 
0.000000 -3.287527 0.000000 
-0.000000 -3.287527 0.000000 
0.000000 -3.287527 0.000000 
0.000000 -3.287527 0.000000 
0.000000 -3.287527 0.000000 
TENSORS STRESS float 
0.000000 0.000000 0.000000 
0.000000 0.000000 0.000000 
0.000000 0.000000 0.000000 

0.000000 0.000000 0.000000 
0.000000 0.000000 0.000000 
0.000000 0.000000 0.000000 

-0.000000 0.000000 0.000000 
0.000000 -0.000000 0.000000 
0.000000 0.000000 0.000000 

-0.000000 0.000000 0.000000 
0.000000 -0.000000 0.000000 
0.000000 0.000000 0.000000 

0.000000 -0.000000 0.000000 
0.000000 0.000000 0.000000 
0.000000 0.000000 0.000000 

0.000000 -0.000000 0.000000 
0.000000 0.000000 0.000000 
0.000000 0.000000 0.000000 

-0.000000 0.000000 0.000000 
0.000000 -0.000000 0.000000 
0.000000 0.000000 0.000000 

0.000000 0.000000 0.000000 
0.000000 0.000000 0.000000 
0.000000 0.000000 0.000000 

-0.000000 -0.000000 0.000000 
0.000000 -0.000000 0.000000 
0.000000 0.000000 0.000000 

-0.000000 0.000000 0.000000 
0.000000 -0.000000 0.000000 
0.000000 0.000000 0.000000 

-0.000000 -0.000000 0.000000 
0.000000 -0.000000 0.000000 
0.000000 0.000000 0.000000 

0.000000 0.000000 0.000000 
0.000000 0.000000 0.000000 
0.000000 0.000000 0.000000 

0.000000 -0.000000 0.000000 
0.000000 0.000000 0.000000 
0.000000 0.000000 0.000000 

0.000000 -0.000000 0.000000 
0.000000 0.000000 0.000000 
0.000000 0.000000 0.000000 

-0.000000 0.000000 0.000000 
0.000000 -0.000000 0.000000 
0.000000 0.000000 0.000000 

-0.000000 -0.000000 0.000000 
0.000000 -0.000000 0.000000 
0.000000 0.000000 0.000000 

0.000000 0.000000 0.000000 
0.000000 0.000000 0.000000 
0.000000 0.000000 0.000000 

0.000000 0.000000 0.000000 
0.000000 0.000000 0.000000 
0.000000 0.000000 0.000000 

0.000000 -0.000000 0.000000 
0.000000 0.000000 0.000000 
0.000000 0.000000 0.000000 

0.000000 0.000000 0.000000 
0.000000 0.000000 0.000000 
0.000000 0.000000 0.000000 

-0.000000 -0.000000 0.000000 
0.000000 -0.000000 0.000000 
0.000000 0.000000 0.000000 

-0.000000 -0.000000 0.000000 
0.000000 -0.000000 0.000000 
0.000000 0.000000 0.000000 

0.000000 -0.000000 0.000000 
0.000000 0.000000 0.000000 
0.000000 0.000000 0.000000 

-0.000000 -0.000000 0.000000 
0.000000 -0.000000 0.000000 
0.000000 0.000000 0.000000 

0.000000 -0.000000 0.000000 
0.000000 0.000000 0.000000 
0.000000 0.000000 0.000000 

0.000000 0.000000 0.000000 
0.000000 0.000000 0.000000 
0.000000 0.000000 0.000000 

-0.000000 0.000000 0.000000 
0.000000 0.000000 0.000000 
0.000000 0.000000 0.000000 

-0.000000 0.000000 0.000000 
0.000000 -0.000000 0.000000 
0.000000 0.000000 0.000000 

-0.000000 0.000000 0.000000 
0.000000 -0.000000 0.000000 
0.000000 0.000000 0.000000 

-0.000000 -0.000000 0.000000 
0.000000 -0.000000 0.000000 
0.000000 0.000000 0.000000 

-0.000000 -0.000000 0.000000 
0.000000 -0.000000 0.000000 
0.000000 0.000000 0.000000 

-0.000000 -0.000000 0.000000 
0.000000 -0.000000 0.000000 
0.000000 0.000000 0.000000 

0.000000 -0.000000 0.000000 
0.000000 0.000000 0.000000 
0.000000 0.000000 0.000000 

-0.000000 -0.000000 0.000000 
0.000000 0.000000 0.000000 
0.000000 0.000000 0.000000 

-0.000000 -0.000000 0.000000 
0.000000 -0.000000 0.000000 
0.000000 0.000000 0.000000 

-0.000000 0.000000 0.000000 
0.000000 -0.000000 0.000000 
0.000000 0.000000 0.000000 

-0.000000 0.000000 0.000000 
0.000000 -0.000000 0.000000 
0.000000 0.000000 0.000000 

0.000000 0.000000 0.000000 
0.000000 0.000000 0.000000 
0.000000 0.000000 0.000000 

0.000000 0.000000 0.000000 
0.000000 0.000000 0.000000 
0.000000 0.000000 0.000000 

0.000000 0.000000 0.000000 
0.000000 0.000000 0.000000 
0.000000 0.000000 0.000000 

-0.000000 -0.000000 0.000000 
0.000000 0.000000 0.000000 
0.000000 0.000000 0.000000 

-0.000000 -0.000000 0.000000 
0.000000 -0.000000 0.000000 
0.000000 0.000000 0.000000 

0.000000 0.000000 0.000000 
0.000000 0.000000 0.000000 
0.000000 0.000000 0.000000 

0.000000 -0.000000 0.000000 
0.000000 0.000000 0.000000 
0.000000 0.000000 0.000000 

0.000000 0.000000 0.000000 
0.000000 0.000000 0.000000 
0.000000 0.000000 0.000000 

0.000000 -0.000000 0.000000 
0.000000 -0.000000 0.000000 
0.000000 0.000000 0.000000 

0.000000 0.000000 0.000000 
0.000000 -0.000000 0.000000 
0.000000 0.000000 0.000000 

0.000000 0.000000 0.000000 
0.000000 -0.000000 0.000000 
0.000000 0.000000 0.000000 

0.000000 -0.000000 0.000000 
0.000000 0.000000 0.000000 
0.000000 0.000000 0.000000 

-0.000000 -0.000000 0.000000 
0.000000 0.000000 0.000000 
0.000000 0.000000 0.000000 

0.000000 -0.000000 0.000000 
0.000000 0.000000 0.000000 
0.000000 0.000000 0.000000 

-0.000000 -0.000000 0.000000 
0.000000 -0.000000 0.000000 
0.000000 0.000000 0.000000 

-0.000000 -0.000000 0.000000 
0.000000 -0.000000 0.000000 
0.000000 0.000000 0.000000 

-0.000000 0.000000 0.000000 
0.000000 -0.000000 0.000000 
0.000000 0.000000 0.000000 

-0.000000 0.000000 0.000000 
0.000000 -0.000000 0.000000 
0.000000 0.000000 0.000000 

-0.000000 0.000000 0.000000 
0.000000 -0.000000 0.000000 
0.000000 0.000000 0.000000 

0.000000 0.000000 0.000000 
0.000000 0.000000 0.000000 
0.000000 0.000000 0.000000 

-0.000000 -0.000000 0.000000 
0.000000 0.000000 0.000000 
0.000000 0.000000 0.000000 

-0.000000 0.000000 0.000000 
0.000000 -0.000000 0.000000 
0.000000 0.000000 0.000000 

0.000000 0.000000 0.000000 
0.000000 0.000000 0.000000 
0.000000 0.000000 0.000000 

-0.000000 0.000000 0.000000 
0.000000 -0.000000 0.000000 
0.000000 0.000000 0.000000 

-0.000000 0.000000 0.000000 
0.000000 -0.000000 0.000000 
0.000000 0.000000 0.000000 

-0.000000 -0.000000 0.000000 
0.000000 -0.000000 0.000000 
0.000000 0.000000 0.000000 

-0.000000 0.000000 0.000000 
0.000000 -0.000000 0.000000 
0.000000 0.000000 0.000000 

-0.000000 0.000000 0.000000 
0.000000 0.000000 0.000000 
0.000000 0.000000 0.000000 

-0.000000 -0.000000 0.000000 
0.000000 -0.000000 0.000000 
0.000000 0.000000 0.000000 

0.000000 -0.000000 0.000000 
0.000000 0.000000 0.000000 
0.000000 0.000000 0.000000 

0.000000 -0.000000 0.000000 
0.000000 0.000000 0.000000 
0.000000 0.000000 0.000000 

-0.000000 0.000000 0.000000 
0.000000 -0.000000 0.000000 
0.000000 0.000000 0.000000 

0.000000 -0.000000 0.000000 
0.000000 -0.000000 0.000000 
0.000000 0.000000 0.000000 

-0.000000 0.000000 0.000000 
0.000000 -0.000000 0.000000 
0.000000 0.000000 0.000000 

-0.000000 -0.000000 0.000000 
0.000000 -0.000000 0.000000 
0.000000 0.000000 0.000000 

0.000000 0.000000 0.000000 
0.000000 0.000000 0.000000 
0.000000 0.000000 0.000000 

-0.000000 -0.000000 0.000000 
0.000000 -0.000000 0.000000 
0.000000 0.000000 0.000000 

0.000000 -0.000000 0.000000 
0.000000 0.000000 0.000000 
0.000000 0.000000 0.000000 

-0.000000 0.000000 0.000000 
0.000000 -0.000000 0.000000 
0.000000 0.000000 0.000000 

-0.000000 -0.000000 0.000000 
0.000000 -0.000000 0.000000 
0.000000 0.000000 0.000000 

-0.000000 -0.000000 0.000000 
0.000000 0.000000 0.000000 
0.000000 0.000000 0.000000 

-0.000000 -0.000000 0.000000 
0.000000 0.000000 0.000000 
0.000000 0.000000 0.000000 

-0.000000 -0.000000 0.000000 
0.000000 -0.000000 0.000000 
0.000000 0.000000 0.000000 

-0.000000 0.000000 0.000000 
0.000000 -0.000000 0.000000 
0.000000 0.000000 0.000000 

-0.000000 0.000000 0.000000 
0.000000 -0.000000 0.000000 
0.000000 0.000000 0.000000 

-0.000000 0.000000 0.000000 
0.000000 -0.000000 0.000000 
0.000000 0.000000 0.000000 

0.000000 0.000000 0.000000 
0.000000 0.000000 0.000000 
0.000000 0.000000 0.000000 

-0.000000 0.000000 0.000000 
0.000000 -0.000000 0.000000 
0.000000 0.000000 0.000000 

-0.000000 0.000000 0.000000 
0.000000 0.000000 0.000000 
0.000000 0.000000 0.000000 

0.000000 0.000000 0.000000 
0.000000 0.000000 0.000000 
0.000000 0.000000 0.000000 

0.000000 -0.000000 0.000000 
0.000000 0.000000 0.000000 
0.000000 0.000000 0.000000 

0.000000 0.000000 0.000000 
0.000000 0.000000 0.000000 
0.000000 0.000000 0.000000 

0.000000 0.000000 0.000000 
0.000000 0.000000 0.000000 
0.000000 0.000000 0.000000 

-0.000000 -0.000000 0.000000 
0.000000 -0.000000 0.000000 
0.000000 0.000000 0.000000 

-0.000000 -0.000000 0.000000 
0.000000 -0.000000 0.000000 
0.000000 0.000000 0.000000 

0.000000 0.000000 0.000000 
0.000000 0.000000 0.000000 
0.000000 0.000000 0.000000 

0.000000 0.000000 0.000000 
0.000000 0.000000 0.000000 
0.000000 0.000000 0.000000 

0.000000 -0.000000 0.000000 
0.000000 0.000000 0.000000 
0.000000 0.000000 0.000000 

0.000000 -0.000000 0.000000 
0.000000 0.000000 0.000000 
0.000000 0.000000 0.000000 

-0.000000 -0.000000 0.000000 
0.000000 -0.000000 0.000000 
0.000000 0.000000 0.000000 

-0.000000 -0.000000 0.000000 
0.000000 -0.000000 0.000000 
0.000000 0.000000 0.000000 

0.000000 -0.000000 0.000000 
0.000000 -0.000000 0.000000 
0.000000 0.000000 0.000000 

-0.000000 -0.000000 0.000000 
0.000000 -0.000000 0.000000 
0.000000 0.000000 0.000000 

-0.000000 0.000000 0.000000 
0.000000 0.000000 0.000000 
0.000000 0.000000 0.000000 

-0.000000 -0.000000 0.000000 
0.000000 -0.000000 0.000000 
0.000000 0.000000 0.000000 

0.000000 0.000000 0.000000 
0.000000 0.000000 0.000000 
0.000000 0.000000 0.000000 

0.000000 0.000000 0.000000 
0.000000 0.000000 0.000000 
0.000000 0.000000 0.000000 

-0.000000 -0.000000 0.000000 
0.000000 -0.000000 0.000000 
0.000000 0.000000 0.000000 

0.000000 0.000000 0.000000 
0.000000 -0.000000 0.000000 
0.000000 0.000000 0.000000 

0.000000 0.000000 0.000000 
0.000000 0.000000 0.000000 
0.000000 0.000000 0.000000 

-0.000000 -0.000000 0.000000 
0.000000 0.000000 0.000000 
0.000000 0.000000 0.000000 

-0.000000 -0.000000 0.000000 
0.000000 -0.000000 0.000000 
0.000000 0.000000 0.000000 

0.000000 0.000000 0.000000 
0.000000 0.000000 0.000000 
0.000000 0.000000 0.000000 

-0.000000 -0.000000 0.000000 
0.000000 -0.000000 0.000000 
0.000000 0.000000 0.000000 

-0.000000 0.000000 0.000000 
0.000000 -0.000000 0.000000 
0.000000 0.000000 0.000000 

0.000000 0.000000 0.000000 
0.000000 0.000000 0.000000 
0.000000 0.000000 0.000000 

-0.000000 -0.000000 0.000000 
0.000000 -0.000000 0.000000 
0.000000 0.000000 0.000000 

-0.000000 -0.000000 0.000000 
0.000000 -0.000000 0.000000 
0.000000 0.000000 0.000000 

-0.000000 -0.000000 0.000000 
0.000000 -0.000000 0.000000 
0.000000 0.000000 0.000000 

-0.000000 0.000000 0.000000 
0.000000 -0.000000 0.000000 
0.000000 0.000000 0.000000 

-0.000000 -0.000000 0.000000 
0.000000 0.000000 0.000000 
0.000000 0.000000 0.000000 

0.000000 -0.000000 0.000000 
0.000000 -0.000000 0.000000 
0.000000 0.000000 0.000000 

-0.000000 -0.000000 0.000000 
0.000000 -0.000000 0.000000 
0.000000 0.000000 0.000000 

0.000000 0.000000 0.000000 
0.000000 0.000000 0.000000 
0.000000 0.000000 0.000000 

0.000000 -0.000000 0.000000 
0.000000 0.000000 0.000000 
0.000000 0.000000 0.000000 

-0.000000 0.000000 0.000000 
0.000000 -0.000000 0.000000 
0.000000 0.000000 0.000000 

-0.000000 -0.000000 0.000000 
0.000000 -0.000000 0.000000 
0.000000 0.000000 0.000000 

0.000000 0.000000 0.000000 
0.000000 0.000000 0.000000 
0.000000 0.000000 0.000000 

-0.000000 -0.000000 0.000000 
0.000000 -0.000000 0.000000 
0.000000 0.000000 0.000000 

-0.000000 0.000000 0.000000 
0.000000 -0.000000 0.000000 
0.000000 0.000000 0.000000 

-0.000000 -0.000000 0.000000 
0.000000 0.000000 0.000000 
0.000000 0.000000 0.000000 

-0.000000 -0.000000 0.000000 
0.000000 0.000000 0.000000 
0.000000 0.000000 0.000000 

-0.000000 0.000000 0.000000 
0.000000 -0.000000 0.000000 
0.000000 0.000000 0.000000 

-0.000000 -0.000000 0.000000 
0.000000 0.000000 0.000000 
0.000000 0.000000 0.000000 

-0.000000 -0.000000 0.000000 
0.000000 -0.000000 0.000000 
0.000000 0.000000 0.000000 

-0.000000 -0.000000 0.000000 
0.000000 0.000000 0.000000 
0.000000 0.000000 0.000000 

0.000000 0.000000 0.000000 
0.000000 0.000000 0.000000 
0.000000 0.000000 0.000000 

0.000000 0.000000 0.000000 
0.000000 -0.000000 0.000000 
0.000000 0.000000 0.000000 

-0.000000 0.000000 0.000000 
0.000000 -0.000000 0.000000 
0.000000 0.000000 0.000000 

-0.000000 -0.000000 0.000000 
0.000000 -0.000000 0.000000 
0.000000 0.000000 0.000000 

-0.000000 0.000000 0.000000 
0.000000 0.000000 0.000000 
0.000000 0.000000 0.000000 

-0.000000 -0.000000 0.000000 
0.000000 -0.000000 0.000000 
0.000000 0.000000 0.000000 

-0.000000 -0.000000 0.000000 
0.000000 -0.000000 0.000000 
0.000000 0.000000 0.000000 

0.000000 -0.000000 0.000000 
0.000000 0.000000 0.000000 
0.000000 0.000000 0.000000 

0.000000 0.000000 0.000000 
0.000000 0.000000 0.000000 
0.000000 0.000000 0.000000 

0.000000 0.000000 0.000000 
0.000000 0.000000 0.000000 
0.000000 0.000000 0.000000 

-0.000000 -0.000000 0.000000 
0.000000 -0.000000 0.000000 
0.000000 0.000000 0.000000 

-0.000000 -0.000000 0.000000 
0.000000 0.000000 0.000000 
0.000000 0.000000 0.000000 

-0.000000 0.000000 0.000000 
0.000000 -0.000000 0.000000 
0.000000 0.000000 0.000000 

0.000000 0.000000 0.000000 
0.000000 0.000000 0.000000 
0.000000 0.000000 0.000000 

0.000000 -0.000000 0.000000 
0.000000 0.000000 0.000000 
0.000000 0.000000 0.000000 

-0.000000 -0.000000 0.000000 
0.000000 -0.000000 0.000000 
0.000000 0.000000 0.000000 

0.000000 -0.000000 0.000000 
0.000000 0.000000 0.000000 
0.000000 0.000000 0.000000 

0.000000 0.000000 0.000000 
0.000000 0.000000 0.000000 
0.000000 0.000000 0.000000 

0.000000 0.000000 0.000000 
0.000000 0.000000 0.000000 
0.000000 0.000000 0.000000 

0.000000 0.000000 0.000000 
0.000000 0.000000 0.000000 
0.000000 0.000000 0.000000 

-0.000000 -0.000000 0.000000 
0.000000 -0.000000 0.000000 
0.000000 0.000000 0.000000 

-0.000000 -0.000000 0.000000 
0.000000 -0.000000 0.000000 
0.000000 0.000000 0.000000 

0.000000 -0.000000 0.000000 
0.000000 0.000000 0.000000 
0.000000 0.000000 0.000000 

0.000000 0.000000 0.000000 
0.000000 0.000000 0.000000 
0.000000 0.000000 0.000000 

-0.000000 -0.000000 0.000000 
0.000000 -0.000000 0.000000 
0.000000 0.000000 0.000000 

-0.000000 0.000000 0.000000 
0.000000 0.000000 0.000000 
0.000000 0.000000 0.000000 

-0.000000 -0.000000 0.000000 
0.000000 -0.000000 0.000000 
0.000000 0.000000 0.000000 

-0.000000 -0.000000 0.000000 
0.000000 -0.000000 0.000000 
0.000000 0.000000 0.000000 

0.000000 -0.000000 0.000000 
0.000000 0.000000 0.000000 
0.000000 0.000000 0.000000 

0.000000 -0.000000 0.000000 
0.000000 0.000000 0.000000 
0.000000 0.000000 0.000000 

0.000000 0.000000 0.000000 
0.000000 0.000000 0.000000 
0.000000 0.000000 0.000000 

0.000000 -0.000000 0.000000 
0.000000 0.000000 0.000000 
0.000000 0.000000 0.000000 

0.000000 -0.000000 0.000000 
0.000000 0.000000 0.000000 
0.000000 0.000000 0.000000 

-0.000000 -0.000000 0.000000 
0.000000 -0.000000 0.000000 
0.000000 0.000000 0.000000 

-0.000000 -0.000000 0.000000 
0.000000 -0.000000 0.000000 
0.000000 0.000000 0.000000 

0.000000 -0.000000 0.000000 
0.000000 -0.000000 0.000000 
0.000000 0.000000 0.000000 

-0.000000 -0.000000 0.000000 
0.000000 -0.000000 0.000000 
0.000000 0.000000 0.000000 

0.000000 -0.000000 0.000000 
0.000000 0.000000 0.000000 
0.000000 0.000000 0.000000 

0.000000 0.000000 0.000000 
0.000000 -0.000000 0.000000 
0.000000 0.000000 0.000000 

-0.000000 0.000000 0.000000 
0.000000 -0.000000 0.000000 
0.000000 0.000000 0.000000 

-0.000000 0.000000 0.000000 
0.000000 -0.000000 0.000000 
0.000000 0.000000 0.000000 

0.000000 0.000000 0.000000 
0.000000 0.000000 0.000000 
0.000000 0.000000 0.000000 

TENSORS STRAIN float 
-0.000000 0.000000 0.000000 
0.000000 0.000000 0.000000 
0.000000 0.000000 0.000000 

-0.000000 0.000000 0.000000 
0.000000 0.000000 0.000000 
0.000000 0.000000 0.000000 

0.000000 0.000000 0.000000 
0.000000 -0.000000 0.000000 
0.000000 0.000000 0.000000 

0.000000 0.000000 0.000000 
0.000000 -0.000000 0.000000 
0.000000 0.000000 0.000000 

0.000000 -0.000000 0.000000 
0.000000 0.000000 0.000000 
0.000000 0.000000 0.000000 

-0.000000 -0.000000 0.000000 
0.000000 0.000000 0.000000 
0.000000 0.000000 0.000000 

0.000000 0.000000 0.000000 
0.000000 -0.000000 0.000000 
0.000000 0.000000 0.000000 

-0.000000 0.000000 0.000000 
0.000000 0.000000 0.000000 
0.000000 0.000000 0.000000 

-0.000000 -0.000000 0.000000 
0.000000 0.000000 0.000000 
0.000000 0.000000 0.000000 

-0.000000 0.000000 0.000000 
0.000000 -0.000000 0.000000 
0.000000 0.000000 0.000000 

0.000000 -0.000000 0.000000 
0.000000 -0.000000 0.000000 
0.000000 0.000000 0.000000 

0.000000 0.000000 0.000000 
0.000000 0.000000 0.000000 
0.000000 0.000000 0.000000 

0.000000 -0.000000 0.000000 
0.000000 0.000000 0.000000 
0.000000 0.000000 0.000000 

0.000000 -0.000000 0.000000 
0.000000 0.000000 0.000000 
0.000000 0.000000 0.000000 

-0.000000 0.000000 0.000000 
0.000000 -0.000000 0.000000 
0.000000 0.000000 0.000000 

-0.000000 -0.000000 0.000000 
0.000000 -0.000000 0.000000 
0.000000 0.000000 0.000000 

-0.000000 0.000000 0.000000 
0.000000 0.000000 0.000000 
0.000000 0.000000 0.000000 

-0.000000 0.000000 0.000000 
0.000000 0.000000 0.000000 
0.000000 0.000000 0.000000 

-0.000000 -0.000000 0.000000 
0.000000 0.000000 0.000000 
0.000000 0.000000 0.000000 

0.000000 0.000000 0.000000 
0.000000 0.000000 0.000000 
0.000000 0.000000 0.000000 

-0.000000 -0.000000 0.000000 
0.000000 -0.000000 0.000000 
0.000000 0.000000 0.000000 

-0.000000 -0.000000 0.000000 
0.000000 -0.000000 0.000000 
0.000000 0.000000 0.000000 

0.000000 -0.000000 0.000000 
0.000000 -0.000000 0.000000 
0.000000 0.000000 0.000000 

-0.000000 -0.000000 0.000000 
0.000000 -0.000000 0.000000 
0.000000 0.000000 0.000000 

-0.000000 -0.000000 0.000000 
0.000000 0.000000 0.000000 
0.000000 0.000000 0.000000 

-0.000000 0.000000 0.000000 
0.000000 0.000000 0.000000 
0.000000 0.000000 0.000000 

-0.000000 0.000000 0.000000 
0.000000 0.000000 0.000000 
0.000000 0.000000 0.000000 

0.000000 0.000000 0.000000 
0.000000 -0.000000 0.000000 
0.000000 0.000000 0.000000 

-0.000000 0.000000 0.000000 
0.000000 -0.000000 0.000000 
0.000000 0.000000 0.000000 

0.000000 -0.000000 0.000000 
0.000000 -0.000000 0.000000 
0.000000 0.000000 0.000000 

0.000000 -0.000000 0.000000 
0.000000 -0.000000 0.000000 
0.000000 0.000000 0.000000 

0.000000 -0.000000 0.000000 
0.000000 -0.000000 0.000000 
0.000000 0.000000 0.000000 

-0.000000 -0.000000 0.000000 
0.000000 0.000000 0.000000 
0.000000 0.000000 0.000000 

-0.000000 -0.000000 0.000000 
0.000000 0.000000 0.000000 
0.000000 0.000000 0.000000 

0.000000 -0.000000 0.000000 
0.000000 -0.000000 0.000000 
0.000000 0.000000 0.000000 

0.000000 0.000000 0.000000 
0.000000 -0.000000 0.000000 
0.000000 0.000000 0.000000 

0.000000 0.000000 0.000000 
0.000000 -0.000000 0.000000 
0.000000 0.000000 0.000000 

0.000000 0.000000 0.000000 
0.000000 0.000000 0.000000 
0.000000 0.000000 0.000000 

-0.000000 0.000000 0.000000 
0.000000 0.000000 0.000000 
0.000000 0.000000 0.000000 

-0.000000 0.000000 0.000000 
0.000000 0.000000 0.000000 
0.000000 0.000000 0.000000 

-0.000000 -0.000000 0.000000 
0.000000 0.000000 0.000000 
0.000000 0.000000 0.000000 

0.000000 -0.000000 0.000000 
0.000000 -0.000000 0.000000 
0.000000 0.000000 0.000000 

0.000000 0.000000 0.000000 
0.000000 -0.000000 0.000000 
0.000000 0.000000 0.000000 

0.000000 -0.000000 0.000000 
0.000000 -0.000000 0.000000 
0.000000 0.000000 0.000000 

0.000000 0.000000 0.000000 
0.000000 0.000000 0.000000 
0.000000 0.000000 0.000000 

0.000000 -0.000000 0.000000 
0.000000 -0.000000 0.000000 
0.000000 0.000000 0.000000 

0.000000 0.000000 0.000000 
0.000000 -0.000000 0.000000 
0.000000 0.000000 0.000000 

0.000000 0.000000 0.000000 
0.000000 -0.000000 0.000000 
0.000000 0.000000 0.000000 

-0.000000 -0.000000 0.000000 
0.000000 0.000000 0.000000 
0.000000 0.000000 0.000000 

-0.000000 -0.000000 0.000000 
0.000000 0.000000 0.000000 
0.000000 0.000000 0.000000 

-0.000000 -0.000000 0.000000 
0.000000 0.000000 0.000000 
0.000000 0.000000 0.000000 

-0.000000 -0.000000 0.000000 
0.000000 -0.000000 0.000000 
0.000000 0.000000 0.000000 

-0.000000 -0.000000 0.000000 
0.000000 -0.000000 0.000000 
0.000000 0.000000 0.000000 

-0.000000 0.000000 0.000000 
0.000000 -0.000000 0.000000 
0.000000 0.000000 0.000000 

0.000000 0.000000 0.000000 
0.000000 -0.000000 0.000000 
0.000000 0.000000 0.000000 

0.000000 0.000000 0.000000 
0.000000 -0.000000 0.000000 
0.000000 0.000000 0.000000 

0.000000 0.000000 0.000000 
0.000000 0.000000 0.000000 
0.000000 0.000000 0.000000 

-0.000000 -0.000000 0.000000 
0.000000 0.000000 0.000000 
0.000000 0.000000 0.000000 

-0.000000 0.000000 0.000000 
0.000000 -0.000000 0.000000 
0.000000 0.000000 0.000000 

-0.000000 0.000000 0.000000 
0.000000 0.000000 0.000000 
0.000000 0.000000 0.000000 

-0.000000 0.000000 0.000000 
0.000000 0.000000 0.000000 
0.000000 0.000000 0.000000 

-0.000000 0.000000 0.000000 
0.000000 -0.000000 0.000000 
0.000000 0.000000 0.000000 

-0.000000 -0.000000 0.000000 
0.000000 -0.000000 0.000000 
0.000000 0.000000 0.000000 

-0.000000 0.000000 0.000000 
0.000000 -0.000000 0.000000 
0.000000 0.000000 0.000000 

-0.000000 0.000000 0.000000 
0.000000 0.000000 0.000000 
0.000000 0.000000 0.000000 

-0.000000 -0.000000 0.000000 
0.000000 -0.000000 0.000000 
0.000000 0.000000 0.000000 

0.000000 -0.000000 0.000000 
0.000000 0.000000 0.000000 
0.000000 0.000000 0.000000 

0.000000 -0.000000 0.000000 
0.000000 0.000000 0.000000 
0.000000 0.000000 0.000000 

-0.000000 0.000000 0.000000 
0.000000 -0.000000 0.000000 
0.000000 0.000000 0.000000 

0.000000 -0.000000 0.000000 
0.000000 -0.000000 0.000000 
0.000000 0.000000 0.000000 

0.000000 0.000000 0.000000 
0.000000 -0.000000 0.000000 
0.000000 0.000000 0.000000 

-0.000000 -0.000000 0.000000 
0.000000 -0.000000 0.000000 
0.000000 0.000000 0.000000 

-0.000000 0.000000 0.000000 
0.000000 0.000000 0.000000 
0.000000 0.000000 0.000000 

0.000000 -0.000000 0.000000 
0.000000 -0.000000 0.000000 
0.000000 0.000000 0.000000 

-0.000000 -0.000000 0.000000 
0.000000 0.000000 0.000000 
0.000000 0.000000 0.000000 

-0.000000 0.000000 0.000000 
0.000000 0.000000 0.000000 
0.000000 0.000000 0.000000 

-0.000000 -0.000000 0.000000 
0.000000 -0.000000 0.000000 
0.000000 0.000000 0.000000 

-0.000000 -0.000000 0.000000 
0.000000 0.000000 0.000000 
0.000000 0.000000 0.000000 

-0.000000 -0.000000 0.000000 
0.000000 0.000000 0.000000 
0.000000 0.000000 0.000000 

-0.000000 -0.000000 0.000000 
0.000000 -0.000000 0.000000 
0.000000 0.000000 0.000000 

-0.000000 0.000000 0.000000 
0.000000 -0.000000 0.000000 
0.000000 0.000000 0.000000 

-0.000000 0.000000 0.000000 
0.000000 -0.000000 0.000000 
0.000000 0.000000 0.000000 

-0.000000 0.000000 0.000000 
0.000000 -0.000000 0.000000 
0.000000 0.000000 0.000000 

-0.000000 0.000000 0.000000 
0.000000 0.000000 0.000000 
0.000000 0.000000 0.000000 

-0.000000 0.000000 0.000000 
0.000000 0.000000 0.000000 
0.000000 0.000000 0.000000 

-0.000000 0.000000 0.000000 
0.000000 0.000000 0.000000 
0.000000 0.000000 0.000000 

0.000000 0.000000 0.000000 
0.000000 0.000000 0.000000 
0.000000 0.000000 0.000000 

0.000000 -0.000000 0.000000 
0.000000 0.000000 0.000000 
0.000000 0.000000 0.000000 

0.000000 0.000000 0.000000 
0.000000 0.000000 0.000000 
0.000000 0.000000 0.000000 

-0.000000 0.000000 0.000000 
0.000000 0.000000 0.000000 
0.000000 0.000000 0.000000 

0.000000 -0.000000 0.000000 
0.000000 -0.000000 0.000000 
0.000000 0.000000 0.000000 

-0.000000 -0.000000 0.000000 
0.000000 -0.000000 0.000000 
0.000000 0.000000 0.000000 

-0.000000 0.000000 0.000000 
0.000000 0.000000 0.000000 
0.000000 0.000000 0.000000 

-0.000000 0.000000 0.000000 
0.000000 0.000000 0.000000 
0.000000 0.000000 0.000000 

-0.000000 -0.000000 0.000000 
0.000000 0.000000 0.000000 
0.000000 0.000000 0.000000 

0.000000 -0.000000 0.000000 
0.000000 0.000000 0.000000 
0.000000 0.000000 0.000000 

-0.000000 -0.000000 0.000000 
0.000000 0.000000 0.000000 
0.000000 0.000000 0.000000 

0.000000 -0.000000 0.000000 
0.000000 -0.000000 0.000000 
0.000000 0.000000 0.000000 

0.000000 -0.000000 0.000000 
0.000000 -0.000000 0.000000 
0.000000 0.000000 0.000000 

0.000000 -0.000000 0.000000 
0.000000 -0.000000 0.000000 
0.000000 0.000000 0.000000 

-0.000000 0.000000 0.000000 
0.000000 0.000000 0.000000 
0.000000 0.000000 0.000000 

-0.000000 -0.000000 0.000000 
0.000000 -0.000000 0.000000 
0.000000 0.000000 0.000000 

0.000000 0.000000 0.000000 
0.000000 0.000000 0.000000 
0.000000 0.000000 0.000000 

0.000000 0.000000 0.000000 
0.000000 0.000000 0.000000 
0.000000 0.000000 0.000000 

0.000000 -0.000000 0.000000 
0.000000 -0.000000 0.000000 
0.000000 0.000000 0.000000 

0.000000 0.000000 0.000000 
0.000000 -0.000000 0.000000 
0.000000 0.000000 0.000000 

-0.000000 0.000000 0.000000 
0.000000 0.000000 0.000000 
0.000000 0.000000 0.000000 

-0.000000 -0.000000 0.000000 
0.000000 0.000000 0.000000 
0.000000 0.000000 0.000000 

-0.000000 -0.000000 0.000000 
0.000000 -0.000000 0.000000 
0.000000 0.000000 0.000000 

-0.000000 0.000000 0.000000 
0.000000 0.000000 0.000000 
0.000000 0.000000 0.000000 

-0.000000 -0.000000 0.000000 
0.000000 -0.000000 0.000000 
0.000000 0.000000 0.000000 

0.000000 0.000000 0.000000 
0.000000 -0.000000 0.000000 
0.000000 0.000000 0.000000 

0.000000 0.000000 0.000000 
0.000000 0.000000 0.000000 
0.000000 0.000000 0.000000 

0.000000 -0.000000 0.000000 
0.000000 -0.000000 0.000000 
0.000000 0.000000 0.000000 

-0.000000 -0.000000 0.000000 
0.000000 -0.000000 0.000000 
0.000000 0.000000 0.000000 

-0.000000 -0.000000 0.000000 
0.000000 -0.000000 0.000000 
0.000000 0.000000 0.000000 

-0.000000 0.000000 0.000000 
0.000000 -0.000000 0.000000 
0.000000 0.000000 0.000000 

-0.000000 -0.000000 0.000000 
0.000000 0.000000 0.000000 
0.000000 0.000000 0.000000 

0.000000 -0.000000 0.000000 
0.000000 -0.000000 0.000000 
0.000000 0.000000 0.000000 

0.000000 -0.000000 0.000000 
0.000000 -0.000000 0.000000 
0.000000 0.000000 0.000000 

0.000000 0.000000 0.000000 
0.000000 0.000000 0.000000 
0.000000 0.000000 0.000000 

0.000000 -0.000000 0.000000 
0.000000 0.000000 0.000000 
0.000000 0.000000 0.000000 

-0.000000 0.000000 0.000000 
0.000000 0.000000 0.000000 
0.000000 0.000000 0.000000 

-0.000000 -0.000000 0.000000 
0.000000 -0.000000 0.000000 
0.000000 0.000000 0.000000 

-0.000000 0.000000 0.000000 
0.000000 0.000000 0.000000 
0.000000 0.000000 0.000000 

-0.000000 -0.000000 0.000000 
0.000000 -0.000000 0.000000 
0.000000 0.000000 0.000000 

-0.000000 0.000000 0.000000 
0.000000 -0.000000 0.000000 
0.000000 0.000000 0.000000 

-0.000000 -0.000000 0.000000 
0.000000 0.000000 0.000000 
0.000000 0.000000 0.000000 

-0.000000 -0.000000 0.000000 
0.000000 0.000000 0.000000 
0.000000 0.000000 0.000000 

-0.000000 0.000000 0.000000 
0.000000 -0.000000 0.000000 
0.000000 0.000000 0.000000 

-0.000000 -0.000000 0.000000 
0.000000 0.000000 0.000000 
0.000000 0.000000 0.000000 

-0.000000 -0.000000 0.000000 
0.000000 -0.000000 0.000000 
0.000000 0.000000 0.000000 

-0.000000 -0.000000 0.000000 
0.000000 0.000000 0.000000 
0.000000 0.000000 0.000000 

0.000000 0.000000 0.000000 
0.000000 0.000000 0.000000 
0.000000 0.000000 0.000000 

0.000000 0.000000 0.000000 
0.000000 -0.000000 0.000000 
0.000000 0.000000 0.000000 

-0.000000 0.000000 0.000000 
0.000000 -0.000000 0.000000 
0.000000 0.000000 0.000000 

-0.000000 -0.000000 0.000000 
0.000000 -0.000000 0.000000 
0.000000 0.000000 0.000000 

-0.000000 0.000000 0.000000 
0.000000 0.000000 0.000000 
0.000000 0.000000 0.000000 

-0.000000 -0.000000 0.000000 
0.000000 -0.000000 0.000000 
0.000000 0.000000 0.000000 

0.000000 -0.000000 0.000000 
0.000000 -0.000000 0.000000 
0.000000 0.000000 0.000000 

0.000000 -0.000000 0.000000 
0.000000 0.000000 0.000000 
0.000000 0.000000 0.000000 

0.000000 0.000000 0.000000 
0.000000 0.000000 0.000000 
0.000000 0.000000 0.000000 

0.000000 0.000000 0.000000 
0.000000 0.000000 0.000000 
0.000000 0.000000 0.000000 

-0.000000 -0.000000 0.000000 
0.000000 -0.000000 0.000000 
0.000000 0.000000 0.000000 

-0.000000 -0.000000 0.000000 
0.000000 0.000000 0.000000 
0.000000 0.000000 0.000000 

-0.000000 0.000000 0.000000 
0.000000 -0.000000 0.000000 
0.000000 0.000000 0.000000 

-0.000000 0.000000 0.000000 
0.000000 0.000000 0.000000 
0.000000 0.000000 0.000000 

-0.000000 -0.000000 0.000000 
0.000000 0.000000 0.000000 
0.000000 0.000000 0.000000 

-0.000000 -0.000000 0.000000 
0.000000 -0.000000 0.000000 
0.000000 0.000000 0.000000 

-0.000000 -0.000000 0.000000 
0.000000 0.000000 0.000000 
0.000000 0.000000 0.000000 

-0.000000 0.000000 0.000000 
0.000000 0.000000 0.000000 
0.000000 0.000000 0.000000 

0.000000 0.000000 0.000000 
0.000000 0.000000 0.000000 
0.000000 0.000000 0.000000 

0.000000 0.000000 0.000000 
0.000000 0.000000 0.000000 
0.000000 0.000000 0.000000 

-0.000000 -0.000000 0.000000 
0.000000 -0.000000 0.000000 
0.000000 0.000000 0.000000 

-0.000000 -0.000000 0.000000 
0.000000 -0.000000 0.000000 
0.000000 0.000000 0.000000 

-0.000000 -0.000000 0.000000 
0.000000 0.000000 0.000000 
0.000000 0.000000 0.000000 

0.000000 0.000000 0.000000 
0.000000 0.000000 0.000000 
0.000000 0.000000 0.000000 

-0.000000 -0.000000 0.000000 
0.000000 -0.000000 0.000000 
0.000000 0.000000 0.000000 

-0.000000 0.000000 0.000000 
0.000000 0.000000 0.000000 
0.000000 0.000000 0.000000 

-0.000000 -0.000000 0.000000 
0.000000 -0.000000 0.000000 
0.000000 0.000000 0.000000 

-0.000000 -0.000000 0.000000 
0.000000 -0.000000 0.000000 
0.000000 0.000000 0.000000 

0.000000 -0.000000 0.000000 
0.000000 0.000000 0.000000 
0.000000 0.000000 0.000000 

0.000000 -0.000000 0.000000 
0.000000 0.000000 0.000000 
0.000000 0.000000 0.000000 

0.000000 0.000000 0.000000 
0.000000 0.000000 0.000000 
0.000000 0.000000 0.000000 

0.000000 -0.000000 0.000000 
0.000000 0.000000 0.000000 
0.000000 0.000000 0.000000 

0.000000 -0.000000 0.000000 
0.000000 0.000000 0.000000 
0.000000 0.000000 0.000000 

-0.000000 -0.000000 0.000000 
0.000000 -0.000000 0.000000 
0.000000 0.000000 0.000000 

-0.000000 -0.000000 0.000000 
0.000000 -0.000000 0.000000 
0.000000 0.000000 0.000000 

0.000000 -0.000000 0.000000 
0.000000 -0.000000 0.000000 
0.000000 0.000000 0.000000 

0.000000 -0.000000 0.000000 
0.000000 -0.000000 0.000000 
0.000000 0.000000 0.000000 

0.000000 -0.000000 0.000000 
0.000000 0.000000 0.000000 
0.000000 0.000000 0.000000 

0.000000 0.000000 0.000000 
0.000000 -0.000000 0.000000 
0.000000 0.000000 0.000000 

-0.000000 0.000000 0.000000 
0.000000 -0.000000 0.000000 
0.000000 0.000000 0.000000 

-0.000000 0.000000 0.000000 
0.000000 -0.000000 0.000000 
0.000000 0.000000 0.000000 

-0.000000 0.000000 0.000000 
0.000000 0.000000 0.000000 
0.000000 0.000000 0.000000 

