# vtk DataFile Version 3.0 
vtk output 
ASCII 
DATASET UNSTRUCTURED_GRID 
POINTS 175 float 
-0.026061 -1.477287 0.000000 
-0.106992 -1.409232 0.000000 
-0.054870 -1.417464 0.000000 
-0.028809 -1.371581 0.000000 
-0.186430 -1.345156 0.000000 
-0.137056 -1.347682 0.000000 
-0.114311 -1.294035 0.000000 
-0.058186 -1.309701 0.000000 
-0.029377 -1.269523 0.000000 
-0.265318 -1.282000 0.000000 
-0.217198 -1.282800 0.000000 
-0.196633 -1.225503 0.000000 
-0.143120 -1.234212 0.000000 
-0.116563 -1.186944 0.000000 
-0.058945 -1.206589 0.000000 
-0.029568 -1.168469 0.000000 
-0.344206 -1.218845 0.000000 
-0.296791 -1.218837 0.000000 
-0.278030 -1.158895 0.000000 
-0.225992 -1.164761 0.000000 
-0.201664 -1.112644 0.000000 
-0.145749 -1.126118 0.000000 
-0.117890 -1.081775 0.000000 
-0.059328 -1.104481 0.000000 
-0.029759 -1.067415 0.000000 
-0.058559 -1.518038 0.000000 
-0.162226 -1.538881 0.000000 
-0.123292 -1.503263 0.000000 
-0.142917 -1.454279 0.000000 
-0.261851 -1.561037 0.000000 
-0.229092 -1.524010 0.000000 
-0.256854 -1.472778 0.000000 
-0.209613 -1.438666 0.000000 
-0.223062 -1.391092 0.000000 
-0.360414 -1.583337 0.000000 
-0.329787 -1.546214 0.000000 
-0.361761 -1.494412 0.000000 
-0.321587 -1.458003 0.000000 
-0.341985 -1.407769 0.000000 
-0.290702 -1.374970 0.000000 
-0.302189 -1.328235 0.000000 
-0.458977 -1.605637 0.000000 
-0.429420 -1.568562 0.000000 
-0.464588 -1.516521 0.000000 
-0.427556 -1.479493 0.000000 
-0.453135 -1.427978 0.000000 
-0.407738 -1.392663 0.000000 
-0.425037 -1.343235 0.000000 
-0.370772 -1.311606 0.000000 
-0.381315 -1.265378 0.000000 
-0.046960 -1.568853 0.000000 
-0.095301 -1.662899 0.000000 
-0.098873 -1.610252 0.000000 
-0.149405 -1.595054 0.000000 
-0.140093 -1.754603 0.000000 
-0.148617 -1.705905 0.000000 
-0.205981 -1.695668 0.000000 
-0.203197 -1.637464 0.000000 
-0.248777 -1.618318 0.000000 
-0.184111 -1.845567 0.000000 
-0.194039 -1.798476 0.000000 
-0.254475 -1.791176 0.000000 
-0.257893 -1.737066 0.000000 
-0.309886 -1.721694 0.000000 
-0.303554 -1.661149 0.000000 
-0.347255 -1.640991 0.000000 
-0.228129 -1.936530 0.000000 
-0.238687 -1.890306 0.000000 
-0.301302 -1.885354 0.000000 
-0.307162 -1.833315 0.000000 
-0.363386 -1.821194 0.000000 
-0.362692 -1.763683 0.000000 
-0.412122 -1.746390 0.000000 
-0.403017 -1.684243 0.000000 
-0.445733 -1.663664 0.000000 
-0.000000 -1.591468 0.000000 
0.043388 -1.687899 0.000000 
-0.000000 -1.657866 0.000000 
-0.043388 -1.687899 0.000000 
0.087158 -1.780095 0.000000 
0.043769 -1.756397 0.000000 
-0.000000 -1.794863 0.000000 
-0.043769 -1.756397 0.000000 
-0.087158 -1.780095 0.000000 
0.130831 -1.871225 0.000000 
0.087824 -1.849626 0.000000 
0.044436 -1.892326 0.000000 
-0.000000 -1.861261 0.000000 
-0.044436 -1.892326 0.000000 
-0.087824 -1.849626 0.000000 
-0.130831 -1.871225 0.000000 
0.174505 -1.962355 0.000000 
0.131782 -1.941789 0.000000 
0.088871 -1.987655 0.000000 
0.044532 -1.959791 0.000000 
-0.000000 -1.996191 0.000000 
-0.044532 -1.959791 0.000000 
-0.088871 -1.987655 0.000000 
-0.131782 -1.941789 0.000000 
-0.174505 -1.962355 0.000000 
0.046960 -1.568853 0.000000 
0.149405 -1.595054 0.000000 
0.098873 -1.610252 0.000000 
0.095301 -1.662899 0.000000 
0.248777 -1.618318 0.000000 
0.203197 -1.637464 0.000000 
0.205981 -1.695668 0.000000 
0.148617 -1.705905 0.000000 
0.140093 -1.754603 0.000000 
0.347255 -1.640991 0.000000 
0.303554 -1.661149 0.000000 
0.309886 -1.721694 0.000000 
0.257893 -1.737066 0.000000 
0.254475 -1.791176 0.000000 
0.194039 -1.798476 0.000000 
0.184111 -1.845567 0.000000 
0.445733 -1.663664 0.000000 
0.403017 -1.684243 0.000000 
0.412122 -1.746390 0.000000 
0.362692 -1.763683 0.000000 
0.363386 -1.821194 0.000000 
0.307162 -1.833315 0.000000 
0.301302 -1.885354 0.000000 
0.238687 -1.890306 0.000000 
0.228129 -1.936530 0.000000 
0.058559 -1.518038 0.000000 
0.142917 -1.454279 0.000000 
0.123292 -1.503263 0.000000 
0.162226 -1.538881 0.000000 
0.223062 -1.391092 0.000000 
0.209613 -1.438666 0.000000 
0.256854 -1.472778 0.000000 
0.229092 -1.524010 0.000000 
0.261851 -1.561037 0.000000 
0.302189 -1.328235 0.000000 
0.290702 -1.374970 0.000000 
0.341985 -1.407769 0.000000 
0.321587 -1.458003 0.000000 
0.361761 -1.494412 0.000000 
0.329787 -1.546214 0.000000 
0.360414 -1.583337 0.000000 
0.381315 -1.265378 0.000000 
0.370772 -1.311606 0.000000 
0.425037 -1.343235 0.000000 
0.407738 -1.392663 0.000000 
0.453135 -1.427978 0.000000 
0.427556 -1.479493 0.000000 
0.464588 -1.516521 0.000000 
0.429420 -1.568562 0.000000 
0.458977 -1.605637 0.000000 
0.026061 -1.477287 0.000000 
0.028809 -1.371581 0.000000 
0.054870 -1.417464 0.000000 
0.106992 -1.409232 0.000000 
0.029377 -1.269523 0.000000 
0.058186 -1.309701 0.000000 
0.114311 -1.294035 0.000000 
0.137056 -1.347682 0.000000 
0.186430 -1.345156 0.000000 
0.029568 -1.168469 0.000000 
0.058945 -1.206589 0.000000 
0.116563 -1.186944 0.000000 
0.143120 -1.234212 0.000000 
0.196633 -1.225503 0.000000 
0.217198 -1.282800 0.000000 
0.265318 -1.282000 0.000000 
0.029759 -1.067415 0.000000 
0.059328 -1.104481 0.000000 
0.117890 -1.081775 0.000000 
0.145749 -1.126118 0.000000 
0.201664 -1.112644 0.000000 
0.225992 -1.164761 0.000000 
0.278030 -1.158895 0.000000 
0.296791 -1.218837 0.000000 
0.344206 -1.218845 0.000000 
CELLS 175 350 
1 0 
1 1 
1 2 
1 3 
1 4 
1 5 
1 6 
1 7 
1 8 
1 9 
1 10 
1 11 
1 12 
1 13 
1 14 
1 15 
1 16 
1 17 
1 18 
1 19 
1 20 
1 21 
1 22 
1 23 
1 24 
1 25 
1 26 
1 27 
1 28 
1 29 
1 30 
1 31 
1 32 
1 33 
1 34 
1 35 
1 36 
1 37 
1 38 
1 39 
1 40 
1 41 
1 42 
1 43 
1 44 
1 45 
1 46 
1 47 
1 48 
1 49 
1 50 
1 51 
1 52 
1 53 
1 54 
1 55 
1 56 
1 57 
1 58 
1 59 
1 60 
1 61 
1 62 
1 63 
1 64 
1 65 
1 66 
1 67 
1 68 
1 69 
1 70 
1 71 
1 72 
1 73 
1 74 
1 75 
1 76 
1 77 
1 78 
1 79 
1 80 
1 81 
1 82 
1 83 
1 84 
1 85 
1 86 
1 87 
1 88 
1 89 
1 90 
1 91 
1 92 
1 93 
1 94 
1 95 
1 96 
1 97 
1 98 
1 99 
1 100 
1 101 
1 102 
1 103 
1 104 
1 105 
1 106 
1 107 
1 108 
1 109 
1 110 
1 111 
1 112 
1 113 
1 114 
1 115 
1 116 
1 117 
1 118 
1 119 
1 120 
1 121 
1 122 
1 123 
1 124 
1 125 
1 126 
1 127 
1 128 
1 129 
1 130 
1 131 
1 132 
1 133 
1 134 
1 135 
1 136 
1 137 
1 138 
1 139 
1 140 
1 141 
1 142 
1 143 
1 144 
1 145 
1 146 
1 147 
1 148 
1 149 
1 150 
1 151 
1 152 
1 153 
1 154 
1 155 
1 156 
1 157 
1 158 
1 159 
1 160 
1 161 
1 162 
1 163 
1 164 
1 165 
1 166 
1 167 
1 168 
1 169 
1 170 
1 171 
1 172 
1 173 
1 174 
CELL_TYPES 175 
1 
1 
1 
1 
1 
1 
1 
1 
1 
1 
1 
1 
1 
1 
1 
1 
1 
1 
1 
1 
1 
1 
1 
1 
1 
1 
1 
1 
1 
1 
1 
1 
1 
1 
1 
1 
1 
1 
1 
1 
1 
1 
1 
1 
1 
1 
1 
1 
1 
1 
1 
1 
1 
1 
1 
1 
1 
1 
1 
1 
1 
1 
1 
1 
1 
1 
1 
1 
1 
1 
1 
1 
1 
1 
1 
1 
1 
1 
1 
1 
1 
1 
1 
1 
1 
1 
1 
1 
1 
1 
1 
1 
1 
1 
1 
1 
1 
1 
1 
1 
1 
1 
1 
1 
1 
1 
1 
1 
1 
1 
1 
1 
1 
1 
1 
1 
1 
1 
1 
1 
1 
1 
1 
1 
1 
1 
1 
1 
1 
1 
1 
1 
1 
1 
1 
1 
1 
1 
1 
1 
1 
1 
1 
1 
1 
1 
1 
1 
1 
1 
1 
1 
1 
1 
1 
1 
1 
1 
1 
1 
1 
1 
1 
1 
1 
1 
1 
1 
1 
1 
1 
1 
1 
1 
1 
POINT_DATA 175 
VECTORS X_GC float 
-0.026061 -1.477287 0.000000 
-0.106992 -1.409232 0.000000 
-0.054870 -1.417464 0.000000 
-0.028809 -1.371581 0.000000 
-0.186430 -1.345156 0.000000 
-0.137056 -1.347682 0.000000 
-0.114311 -1.294035 0.000000 
-0.058186 -1.309701 0.000000 
-0.029377 -1.269523 0.000000 
-0.265318 -1.282000 0.000000 
-0.217198 -1.282800 0.000000 
-0.196633 -1.225503 0.000000 
-0.143120 -1.234212 0.000000 
-0.116563 -1.186944 0.000000 
-0.058945 -1.206589 0.000000 
-0.029568 -1.168469 0.000000 
-0.344206 -1.218845 0.000000 
-0.296791 -1.218837 0.000000 
-0.278030 -1.158895 0.000000 
-0.225992 -1.164761 0.000000 
-0.201664 -1.112644 0.000000 
-0.145749 -1.126118 0.000000 
-0.117890 -1.081775 0.000000 
-0.059328 -1.104481 0.000000 
-0.029759 -1.067415 0.000000 
-0.058559 -1.518038 0.000000 
-0.162226 -1.538881 0.000000 
-0.123292 -1.503263 0.000000 
-0.142917 -1.454279 0.000000 
-0.261851 -1.561037 0.000000 
-0.229092 -1.524010 0.000000 
-0.256854 -1.472778 0.000000 
-0.209613 -1.438666 0.000000 
-0.223062 -1.391092 0.000000 
-0.360414 -1.583337 0.000000 
-0.329787 -1.546214 0.000000 
-0.361761 -1.494412 0.000000 
-0.321587 -1.458003 0.000000 
-0.341985 -1.407769 0.000000 
-0.290702 -1.374970 0.000000 
-0.302189 -1.328235 0.000000 
-0.458977 -1.605637 0.000000 
-0.429420 -1.568562 0.000000 
-0.464588 -1.516521 0.000000 
-0.427556 -1.479493 0.000000 
-0.453135 -1.427978 0.000000 
-0.407738 -1.392663 0.000000 
-0.425037 -1.343235 0.000000 
-0.370772 -1.311606 0.000000 
-0.381315 -1.265378 0.000000 
-0.046960 -1.568853 0.000000 
-0.095301 -1.662899 0.000000 
-0.098873 -1.610252 0.000000 
-0.149405 -1.595054 0.000000 
-0.140093 -1.754603 0.000000 
-0.148617 -1.705905 0.000000 
-0.205981 -1.695668 0.000000 
-0.203197 -1.637464 0.000000 
-0.248777 -1.618318 0.000000 
-0.184111 -1.845567 0.000000 
-0.194039 -1.798476 0.000000 
-0.254475 -1.791176 0.000000 
-0.257893 -1.737066 0.000000 
-0.309886 -1.721694 0.000000 
-0.303554 -1.661149 0.000000 
-0.347255 -1.640991 0.000000 
-0.228129 -1.936530 0.000000 
-0.238687 -1.890306 0.000000 
-0.301302 -1.885354 0.000000 
-0.307162 -1.833315 0.000000 
-0.363386 -1.821194 0.000000 
-0.362692 -1.763683 0.000000 
-0.412122 -1.746390 0.000000 
-0.403017 -1.684243 0.000000 
-0.445733 -1.663664 0.000000 
-0.000000 -1.591468 0.000000 
0.043388 -1.687899 0.000000 
-0.000000 -1.657866 0.000000 
-0.043388 -1.687899 0.000000 
0.087158 -1.780095 0.000000 
0.043769 -1.756397 0.000000 
-0.000000 -1.794863 0.000000 
-0.043769 -1.756397 0.000000 
-0.087158 -1.780095 0.000000 
0.130831 -1.871225 0.000000 
0.087824 -1.849626 0.000000 
0.044436 -1.892326 0.000000 
-0.000000 -1.861261 0.000000 
-0.044436 -1.892326 0.000000 
-0.087824 -1.849626 0.000000 
-0.130831 -1.871225 0.000000 
0.174505 -1.962355 0.000000 
0.131782 -1.941789 0.000000 
0.088871 -1.987655 0.000000 
0.044532 -1.959791 0.000000 
-0.000000 -1.996191 0.000000 
-0.044532 -1.959791 0.000000 
-0.088871 -1.987655 0.000000 
-0.131782 -1.941789 0.000000 
-0.174505 -1.962355 0.000000 
0.046960 -1.568853 0.000000 
0.149405 -1.595054 0.000000 
0.098873 -1.610252 0.000000 
0.095301 -1.662899 0.000000 
0.248777 -1.618318 0.000000 
0.203197 -1.637464 0.000000 
0.205981 -1.695668 0.000000 
0.148617 -1.705905 0.000000 
0.140093 -1.754603 0.000000 
0.347255 -1.640991 0.000000 
0.303554 -1.661149 0.000000 
0.309886 -1.721694 0.000000 
0.257893 -1.737066 0.000000 
0.254475 -1.791176 0.000000 
0.194039 -1.798476 0.000000 
0.184111 -1.845567 0.000000 
0.445733 -1.663664 0.000000 
0.403017 -1.684243 0.000000 
0.412122 -1.746390 0.000000 
0.362692 -1.763683 0.000000 
0.363386 -1.821194 0.000000 
0.307162 -1.833315 0.000000 
0.301302 -1.885354 0.000000 
0.238687 -1.890306 0.000000 
0.228129 -1.936530 0.000000 
0.058559 -1.518038 0.000000 
0.142917 -1.454279 0.000000 
0.123292 -1.503263 0.000000 
0.162226 -1.538881 0.000000 
0.223062 -1.391092 0.000000 
0.209613 -1.438666 0.000000 
0.256854 -1.472778 0.000000 
0.229092 -1.524010 0.000000 
0.261851 -1.561037 0.000000 
0.302189 -1.328235 0.000000 
0.290702 -1.374970 0.000000 
0.341985 -1.407769 0.000000 
0.321587 -1.458003 0.000000 
0.361761 -1.494412 0.000000 
0.329787 -1.546214 0.000000 
0.360414 -1.583337 0.000000 
0.381315 -1.265378 0.000000 
0.370772 -1.311606 0.000000 
0.425037 -1.343235 0.000000 
0.407738 -1.392663 0.000000 
0.453135 -1.427978 0.000000 
0.427556 -1.479493 0.000000 
0.464588 -1.516521 0.000000 
0.429420 -1.568562 0.000000 
0.458977 -1.605637 0.000000 
0.026061 -1.477287 0.000000 
0.028809 -1.371581 0.000000 
0.054870 -1.417464 0.000000 
0.106992 -1.409232 0.000000 
0.029377 -1.269523 0.000000 
0.058186 -1.309701 0.000000 
0.114311 -1.294035 0.000000 
0.137056 -1.347682 0.000000 
0.186430 -1.345156 0.000000 
0.029568 -1.168469 0.000000 
0.058945 -1.206589 0.000000 
0.116563 -1.186944 0.000000 
0.143120 -1.234212 0.000000 
0.196633 -1.225503 0.000000 
0.217198 -1.282800 0.000000 
0.265318 -1.282000 0.000000 
0.029759 -1.067415 0.000000 
0.059328 -1.104481 0.000000 
0.117890 -1.081775 0.000000 
0.145749 -1.126118 0.000000 
0.201664 -1.112644 0.000000 
0.225992 -1.164761 0.000000 
0.278030 -1.158895 0.000000 
0.296791 -1.218837 0.000000 
0.344206 -1.218845 0.000000 
VECTORS X_EC float 
0.338794 0.443376 0.000000 
-0.609100 -0.475372 0.000000 
0.713312 -0.364231 0.000000 
0.374519 -0.983661 0.000000 
0.423588 0.659609 0.000000 
-0.218274 0.693712 0.000000 
-0.513962 -0.030527 0.000000 
0.756418 0.180960 0.000000 
0.381900 -0.361433 0.000000 
-0.550868 -0.192994 0.000000 
0.823577 -0.182199 0.000000 
0.556234 -0.955703 0.000000 
-0.139443 -0.838134 0.000000 
-0.484677 0.523741 0.000000 
0.766286 0.788957 0.000000 
0.384386 0.274336 0.000000 
0.474677 0.954402 0.000000 
-0.141715 0.954306 0.000000 
-0.385608 0.145078 0.000000 
0.937896 0.224273 0.000000 
0.621631 -0.479307 0.000000 
-0.105264 -0.297408 0.000000 
-0.467428 -0.896034 0.000000 
0.771260 -0.589505 0.000000 
0.386873 0.910105 0.000000 
0.761262 0.993511 0.000000 
0.108942 -0.725113 0.000000 
-0.397202 0.794048 0.000000 
-0.142083 0.132773 0.000000 
-0.595936 -0.426002 0.000000 
0.978194 -0.925868 0.000000 
-0.660903 0.382507 0.000000 
0.724964 -0.078013 0.000000 
0.899809 -0.720261 0.000000 
0.685384 -0.124950 0.000000 
0.287229 -0.626108 0.000000 
0.702895 0.674563 0.000000 
0.180633 0.183045 0.000000 
0.445811 -0.495115 0.000000 
-0.220880 -0.937901 0.000000 
-0.071546 0.431174 0.000000 
-0.033296 0.176102 0.000000 
-0.417537 -0.324407 0.000000 
0.039645 0.973030 0.000000 
-0.441768 0.473159 0.000000 
-0.109248 -0.222291 0.000000 
-0.699407 -0.699047 0.000000 
-0.474522 0.633674 0.000000 
0.820030 0.206680 0.000000 
0.957100 -0.417391 0.000000 
0.610485 -0.320483 0.000000 
-0.761092 0.949137 0.000000 
-0.714655 0.238399 0.000000 
-0.057734 0.033232 0.000000 
-0.178789 0.187141 0.000000 
-0.067979 -0.470285 0.000000 
0.677748 -0.608489 0.000000 
0.641556 0.605766 0.000000 
-0.765897 0.347287 0.000000 
0.393446 -0.584850 0.000000 
0.522510 0.779420 0.000000 
-0.691820 0.680876 0.000000 
-0.647393 -0.049607 0.000000 
0.028512 -0.257134 0.000000 
-0.053800 0.925506 0.000000 
0.514316 0.653375 0.000000 
0.965681 0.643159 0.000000 
-0.897068 0.019130 0.000000 
-0.083078 -0.047723 0.000000 
-0.006893 -0.750247 0.000000 
0.724017 -0.913880 0.000000 
0.714996 0.309716 0.000000 
-0.642413 0.076259 0.000000 
-0.760780 -0.762722 0.000000 
-0.205471 0.959463 0.000000 
0.000000 -0.015181 0.000000 
-0.564049 -0.713368 0.000000 
0.000000 0.881196 0.000000 
0.564049 -0.713368 0.000000 
0.866949 0.531287 0.000000 
-0.569003 0.211356 0.000000 
0.000000 0.730644 0.000000 
0.569003 0.211356 0.000000 
-0.866949 0.531287 0.000000 
0.299194 -0.238463 0.000000 
0.858290 -0.530047 0.000000 
-0.577662 0.046399 0.000000 
0.000000 -0.372979 0.000000 
0.577662 0.046399 0.000000 
-0.858290 -0.530047 0.000000 
-0.299194 -0.238463 0.000000 
-0.268560 0.991787 0.000000 
0.286830 0.714146 0.000000 
0.844677 -0.666656 0.000000 
-0.578910 0.957181 0.000000 
0.000000 -0.551415 0.000000 
0.578910 0.957181 0.000000 
-0.844677 -0.666656 0.000000 
-0.286830 0.714146 0.000000 
0.268560 0.991787 0.000000 
-0.610485 -0.320483 0.000000 
0.057734 0.033232 0.000000 
0.714655 0.238399 0.000000 
0.761092 0.949137 0.000000 
0.765897 0.347287 0.000000 
-0.641556 0.605766 0.000000 
-0.677748 -0.608489 0.000000 
0.067979 -0.470285 0.000000 
0.178789 0.187141 0.000000 
-0.514316 0.653375 0.000000 
0.053800 0.925506 0.000000 
-0.028512 -0.257134 0.000000 
0.647393 -0.049607 0.000000 
0.691820 0.680876 0.000000 
-0.522510 0.779420 0.000000 
-0.393446 -0.584850 0.000000 
0.205471 0.959463 0.000000 
0.760780 -0.762722 0.000000 
0.642413 0.076259 0.000000 
-0.714996 0.309716 0.000000 
-0.724017 -0.913880 0.000000 
0.006894 -0.750247 0.000000 
0.083078 -0.047723 0.000000 
0.897068 0.019130 0.000000 
-0.965681 0.643159 0.000000 
-0.761262 0.993511 0.000000 
0.142083 0.132773 0.000000 
0.397202 0.794048 0.000000 
-0.108942 -0.725113 0.000000 
-0.899809 -0.720261 0.000000 
-0.724964 -0.078013 0.000000 
0.660903 0.382507 0.000000 
-0.978194 -0.925868 0.000000 
0.595936 -0.426002 0.000000 
0.071546 0.431174 0.000000 
0.220880 -0.937901 0.000000 
-0.445811 -0.495115 0.000000 
-0.180633 0.183045 0.000000 
-0.702895 0.674563 0.000000 
-0.287229 -0.626108 0.000000 
-0.685384 -0.124950 0.000000 
-0.957100 -0.417391 0.000000 
-0.820030 0.206680 0.000000 
0.474522 0.633674 0.000000 
0.699407 -0.699047 0.000000 
0.109248 -0.222291 0.000000 
0.441768 0.473159 0.000000 
-0.039645 0.973030 0.000000 
0.417537 -0.324407 0.000000 
0.033296 0.176102 0.000000 
-0.338794 0.443376 0.000000 
-0.374519 -0.983661 0.000000 
-0.713312 -0.364231 0.000000 
0.609100 -0.475372 0.000000 
-0.381900 -0.361433 0.000000 
-0.756418 0.180960 0.000000 
0.513962 -0.030527 0.000000 
0.218274 0.693712 0.000000 
-0.423588 0.659609 0.000000 
-0.384386 0.274336 0.000000 
-0.766286 0.788957 0.000000 
0.484677 0.523741 0.000000 
0.139443 -0.838134 0.000000 
-0.556234 -0.955703 0.000000 
-0.823577 -0.182199 0.000000 
0.550868 -0.192994 0.000000 
-0.386873 0.910105 0.000000 
-0.771260 -0.589505 0.000000 
0.467428 -0.896034 0.000000 
0.105264 -0.297408 0.000000 
-0.621631 -0.479307 0.000000 
-0.937896 0.224273 0.000000 
0.385608 0.145078 0.000000 
0.141715 0.954306 0.000000 
-0.474677 0.954402 0.000000 
CELL_DATA 175 
SCALARS MASS float 
LOOKUP_TABLE default 
0.078183 
0.086427 
0.094672 
0.086427 
0.088131 
0.092111 
0.085854 
0.092111 
0.088131 
0.088705 
0.091000 
0.086983 
0.091556 
0.086983 
0.091000 
0.088705 
0.089278 
0.091574 
0.089278 
0.092722 
0.089278 
0.092722 
0.089278 
0.091574 
0.089278 
0.078183 
0.086427 
0.094672 
0.086427 
0.088131 
0.092111 
0.085854 
0.092111 
0.088131 
0.088705 
0.091000 
0.086983 
0.091556 
0.086983 
0.091000 
0.088705 
0.089278 
0.091574 
0.089278 
0.092722 
0.089278 
0.092722 
0.089278 
0.091574 
0.089278 
0.078183 
0.086427 
0.094672 
0.086427 
0.088131 
0.092111 
0.085854 
0.092111 
0.088131 
0.088705 
0.091000 
0.086983 
0.091556 
0.086983 
0.091000 
0.088705 
0.089278 
0.091574 
0.089278 
0.092722 
0.089278 
0.092722 
0.089278 
0.091574 
0.089278 
0.078183 
0.086427 
0.094672 
0.086427 
0.088131 
0.092111 
0.085854 
0.092111 
0.088131 
0.088705 
0.091000 
0.086983 
0.091556 
0.086983 
0.091000 
0.088705 
0.089278 
0.091574 
0.089278 
0.092722 
0.089278 
0.092722 
0.089278 
0.091574 
0.089278 
0.078183 
0.086427 
0.094672 
0.086427 
0.088131 
0.092111 
0.085854 
0.092111 
0.088131 
0.088705 
0.091000 
0.086983 
0.091556 
0.086983 
0.091000 
0.088705 
0.089278 
0.091574 
0.089278 
0.092722 
0.089278 
0.092722 
0.089278 
0.091574 
0.089278 
0.078183 
0.086427 
0.094672 
0.086427 
0.088131 
0.092111 
0.085854 
0.092111 
0.088131 
0.088705 
0.091000 
0.086983 
0.091556 
0.086983 
0.091000 
0.088705 
0.089278 
0.091574 
0.089278 
0.092722 
0.089278 
0.092722 
0.089278 
0.091574 
0.089278 
0.078183 
0.086427 
0.094672 
0.086427 
0.088131 
0.092111 
0.085854 
0.092111 
0.088131 
0.088705 
0.091000 
0.086983 
0.091556 
0.086983 
0.091000 
0.088705 
0.089278 
0.091574 
0.089278 
0.092722 
0.089278 
0.092722 
0.089278 
0.091574 
0.089278 
SCALARS MASS float 
LOOKUP_TABLE default 
0.078183 
0.086427 
0.094672 
0.086427 
0.088131 
0.092111 
0.085854 
0.092111 
0.088131 
0.088705 
0.091000 
0.086983 
0.091556 
0.086983 
0.091000 
0.088705 
0.089278 
0.091574 
0.089278 
0.092722 
0.089278 
0.092722 
0.089278 
0.091574 
0.089278 
0.078183 
0.086427 
0.094672 
0.086427 
0.088131 
0.092111 
0.085854 
0.092111 
0.088131 
0.088705 
0.091000 
0.086983 
0.091556 
0.086983 
0.091000 
0.088705 
0.089278 
0.091574 
0.089278 
0.092722 
0.089278 
0.092722 
0.089278 
0.091574 
0.089278 
0.078183 
0.086427 
0.094672 
0.086427 
0.088131 
0.092111 
0.085854 
0.092111 
0.088131 
0.088705 
0.091000 
0.086983 
0.091556 
0.086983 
0.091000 
0.088705 
0.089278 
0.091574 
0.089278 
0.092722 
0.089278 
0.092722 
0.089278 
0.091574 
0.089278 
0.078183 
0.086427 
0.094672 
0.086427 
0.088131 
0.092111 
0.085854 
0.092111 
0.088131 
0.088705 
0.091000 
0.086983 
0.091556 
0.086983 
0.091000 
0.088705 
0.089278 
0.091574 
0.089278 
0.092722 
0.089278 
0.092722 
0.089278 
0.091574 
0.089278 
0.078183 
0.086427 
0.094672 
0.086427 
0.088131 
0.092111 
0.085854 
0.092111 
0.088131 
0.088705 
0.091000 
0.086983 
0.091556 
0.086983 
0.091000 
0.088705 
0.089278 
0.091574 
0.089278 
0.092722 
0.089278 
0.092722 
0.089278 
0.091574 
0.089278 
0.078183 
0.086427 
0.094672 
0.086427 
0.088131 
0.092111 
0.085854 
0.092111 
0.088131 
0.088705 
0.091000 
0.086983 
0.091556 
0.086983 
0.091000 
0.088705 
0.089278 
0.091574 
0.089278 
0.092722 
0.089278 
0.092722 
0.089278 
0.091574 
0.089278 
0.078183 
0.086427 
0.094672 
0.086427 
0.088131 
0.092111 
0.085854 
0.092111 
0.088131 
0.088705 
0.091000 
0.086983 
0.091556 
0.086983 
0.091000 
0.088705 
0.089278 
0.091574 
0.089278 
0.092722 
0.089278 
0.092722 
0.089278 
0.091574 
0.089278 
SCALARS DENSITY float 
LOOKUP_TABLE default 
20.000000 
20.000000 
20.000000 
20.000000 
20.000000 
20.000000 
20.000000 
20.000000 
20.000000 
20.000000 
20.000000 
20.000000 
20.000000 
20.000000 
20.000000 
20.000000 
20.000000 
20.000000 
20.000000 
20.000000 
20.000000 
20.000000 
20.000000 
20.000000 
20.000000 
20.000000 
20.000000 
20.000000 
20.000000 
20.000000 
20.000000 
20.000000 
20.000000 
20.000000 
20.000000 
20.000000 
20.000000 
20.000000 
20.000000 
20.000000 
20.000000 
20.000000 
20.000000 
20.000000 
20.000000 
20.000000 
20.000000 
20.000000 
20.000000 
20.000000 
20.000000 
20.000000 
20.000000 
20.000000 
20.000000 
20.000000 
20.000000 
20.000000 
20.000000 
20.000000 
20.000000 
20.000000 
20.000000 
20.000000 
20.000000 
20.000000 
20.000000 
20.000000 
20.000000 
20.000000 
20.000000 
20.000000 
20.000000 
20.000000 
20.000000 
20.000000 
20.000000 
20.000000 
20.000000 
20.000000 
20.000000 
20.000000 
20.000000 
20.000000 
20.000000 
20.000000 
20.000000 
20.000000 
20.000000 
20.000000 
20.000000 
20.000000 
20.000000 
20.000000 
20.000000 
20.000000 
20.000000 
20.000000 
20.000000 
20.000000 
20.000000 
20.000000 
20.000000 
20.000000 
20.000000 
20.000000 
20.000000 
20.000000 
20.000000 
20.000000 
20.000000 
20.000000 
20.000000 
20.000000 
20.000000 
20.000000 
20.000000 
20.000000 
20.000000 
20.000000 
20.000000 
20.000000 
20.000000 
20.000000 
20.000000 
20.000000 
20.000000 
20.000000 
20.000000 
20.000000 
20.000000 
20.000000 
20.000000 
20.000000 
20.000000 
20.000000 
20.000000 
20.000000 
20.000000 
20.000000 
20.000000 
20.000000 
20.000000 
20.000000 
20.000000 
20.000000 
20.000000 
20.000000 
20.000000 
20.000000 
20.000000 
20.000000 
20.000000 
20.000000 
20.000000 
20.000000 
20.000000 
20.000000 
20.000000 
20.000000 
20.000000 
20.000000 
20.000000 
20.000000 
20.000000 
20.000000 
20.000000 
20.000000 
20.000000 
20.000000 
20.000000 
20.000000 
20.000000 
20.000000 
20.000000 
SCALARS ELEM_i float 
LOOKUP_TABLE default 
172 
199 
172 
172 
200 
200 
200 
173 
173 
227 
200 
200 
200 
201 
174 
174 
228 
228 
228 
201 
201 
201 
201 
174 
175 
172 
198 
199 
199 
225 
198 
226 
199 
199 
225 
225 
226 
226 
226 
226 
227 
252 
252 
253 
253 
253 
253 
254 
227 
227 
171 
198 
198 
198 
197 
197 
197 
198 
225 
196 
197 
224 
224 
224 
225 
225 
196 
223 
223 
223 
223 
224 
251 
251 
252 
171 
170 
171 
170 
143 
170 
170 
170 
197 
142 
142 
169 
169 
169 
196 
196 
142 
142 
141 
169 
168 
169 
195 
196 
196 
171 
144 
144 
144 
117 
144 
143 
143 
143 
117 
117 
116 
116 
116 
143 
142 
90 
89 
89 
116 
115 
115 
115 
115 
142 
172 
145 
145 
144 
145 
145 
118 
144 
117 
119 
118 
118 
118 
118 
117 
117 
119 
119 
92 
91 
91 
91 
91 
90 
90 
172 
172 
172 
145 
173 
173 
146 
146 
146 
174 
174 
147 
146 
146 
146 
119 
175 
174 
147 
147 
147 
147 
120 
120 
120 
VECTORS VELOCITY float 
-0.000000 -5.481043 0.000000 
-0.000000 -5.481043 0.000000 
-0.000000 -5.481043 0.000000 
-0.000000 -5.481043 0.000000 
0.000000 -5.481043 0.000000 
-0.000000 -5.481043 0.000000 
-0.000000 -5.481043 0.000000 
-0.000000 -5.481043 0.000000 
0.000000 -5.481043 0.000000 
0.000000 -5.481043 0.000000 
0.000000 -5.481043 0.000000 
0.000000 -5.481043 0.000000 
0.000000 -5.481043 0.000000 
-0.000000 -5.481043 0.000000 
0.000000 -5.481043 0.000000 
-0.000000 -5.481043 0.000000 
0.000000 -5.481043 0.000000 
0.000000 -5.481043 0.000000 
-0.000000 -5.481043 0.000000 
-0.000000 -5.481043 0.000000 
-0.000000 -5.481043 0.000000 
-0.000000 -5.481043 0.000000 
0.000000 -5.481043 0.000000 
-0.000000 -5.481043 0.000000 
0.000000 -5.481043 0.000000 
0.000000 -5.481043 0.000000 
0.000000 -5.481043 0.000000 
-0.000000 -5.481043 0.000000 
-0.000000 -5.481043 0.000000 
-0.000000 -5.481043 0.000000 
0.000000 -5.481043 0.000000 
-0.000000 -5.481043 0.000000 
-0.000000 -5.481043 0.000000 
-0.000000 -5.481043 0.000000 
-0.000000 -5.481043 0.000000 
-0.000000 -5.481043 0.000000 
-0.000000 -5.481043 0.000000 
-0.000000 -5.481043 0.000000 
-0.000000 -5.481043 0.000000 
0.000000 -5.481043 0.000000 
0.000000 -5.481043 0.000000 
0.000000 -5.481043 0.000000 
0.000000 -5.481043 0.000000 
-0.000000 -5.481043 0.000000 
-0.000000 -5.481043 0.000000 
0.000000 -5.481043 0.000000 
0.000000 -5.481043 0.000000 
-0.000000 -5.481043 0.000000 
-0.000000 -5.481043 0.000000 
0.000000 -5.481043 0.000000 
0.000000 -5.481043 0.000000 
-0.000000 -5.481043 0.000000 
-0.000000 -5.481043 0.000000 
0.000000 -5.481043 0.000000 
-0.000000 -5.481043 0.000000 
-0.000000 -5.481043 0.000000 
-0.000000 -5.481043 0.000000 
-0.000000 -5.481043 0.000000 
-0.000000 -5.481043 0.000000 
0.000000 -5.481043 0.000000 
0.000000 -5.481043 0.000000 
0.000000 -5.481043 0.000000 
0.000000 -5.481043 0.000000 
0.000000 -5.481043 0.000000 
-0.000000 -5.481043 0.000000 
0.000000 -5.481043 0.000000 
-0.000000 -5.481043 0.000000 
0.000000 -5.481043 0.000000 
-0.000000 -5.481043 0.000000 
0.000000 -5.481043 0.000000 
-0.000000 -5.481043 0.000000 
0.000000 -5.481043 0.000000 
-0.000000 -5.481043 0.000000 
0.000000 -5.481043 0.000000 
0.000000 -5.481043 0.000000 
-0.000000 -5.481043 0.000000 
0.000000 -5.481043 0.000000 
-0.000000 -5.481043 0.000000 
-0.000000 -5.481043 0.000000 
-0.000000 -5.481043 0.000000 
-0.000000 -5.481043 0.000000 
-0.000000 -5.481043 0.000000 
-0.000000 -5.481043 0.000000 
-0.000000 -5.481043 0.000000 
0.000000 -5.481043 0.000000 
-0.000000 -5.481043 0.000000 
0.000000 -5.481043 0.000000 
-0.000000 -5.481043 0.000000 
0.000000 -5.481043 0.000000 
-0.000000 -5.481043 0.000000 
0.000000 -5.481043 0.000000 
0.000000 -5.481043 0.000000 
-0.000000 -5.481043 0.000000 
-0.000000 -5.481043 0.000000 
-0.000000 -5.481043 0.000000 
-0.000000 -5.481043 0.000000 
0.000000 -5.481043 0.000000 
0.000000 -5.481043 0.000000 
-0.000000 -5.481043 0.000000 
0.000000 -5.481043 0.000000 
-0.000000 -5.481043 0.000000 
-0.000000 -5.481043 0.000000 
-0.000000 -5.481043 0.000000 
0.000000 -5.481043 0.000000 
0.000000 -5.481043 0.000000 
0.000000 -5.481043 0.000000 
0.000000 -5.481043 0.000000 
0.000000 -5.481043 0.000000 
-0.000000 -5.481043 0.000000 
0.000000 -5.481043 0.000000 
0.000000 -5.481043 0.000000 
-0.000000 -5.481043 0.000000 
0.000000 -5.481043 0.000000 
0.000000 -5.481043 0.000000 
0.000000 -5.481043 0.000000 
0.000000 -5.481043 0.000000 
0.000000 -5.481043 0.000000 
-0.000000 -5.481043 0.000000 
-0.000000 -5.481043 0.000000 
-0.000000 -5.481043 0.000000 
0.000000 -5.481043 0.000000 
0.000000 -5.481043 0.000000 
-0.000000 -5.481043 0.000000 
0.000000 -5.481043 0.000000 
0.000000 -5.481043 0.000000 
-0.000000 -5.481043 0.000000 
0.000000 -5.481043 0.000000 
-0.000000 -5.481043 0.000000 
-0.000000 -5.481043 0.000000 
0.000000 -5.481043 0.000000 
0.000000 -5.481043 0.000000 
-0.000000 -5.481043 0.000000 
0.000000 -5.481043 0.000000 
0.000000 -5.481043 0.000000 
0.000000 -5.481043 0.000000 
0.000000 -5.481043 0.000000 
0.000000 -5.481043 0.000000 
-0.000000 -5.481043 0.000000 
-0.000000 -5.481043 0.000000 
0.000000 -5.481043 0.000000 
0.000000 -5.481043 0.000000 
-0.000000 -5.481043 0.000000 
0.000000 -5.481043 0.000000 
0.000000 -5.481043 0.000000 
0.000000 -5.481043 0.000000 
0.000000 -5.481043 0.000000 
-0.000000 -5.481043 0.000000 
-0.000000 -5.481043 0.000000 
-0.000000 -5.481043 0.000000 
0.000000 -5.481043 0.000000 
-0.000000 -5.481043 0.000000 
0.000000 -5.481043 0.000000 
0.000000 -5.481043 0.000000 
0.000000 -5.481043 0.000000 
0.000000 -5.481043 0.000000 
0.000000 -5.481043 0.000000 
0.000000 -5.481043 0.000000 
0.000000 -5.481043 0.000000 
0.000000 -5.481043 0.000000 
0.000000 -5.481043 0.000000 
0.000000 -5.481043 0.000000 
-0.000000 -5.481043 0.000000 
-0.000000 -5.481043 0.000000 
-0.000000 -5.481043 0.000000 
-0.000000 -5.481043 0.000000 
0.000000 -5.481043 0.000000 
0.000000 -5.481043 0.000000 
0.000000 -5.481043 0.000000 
-0.000000 -5.481043 0.000000 
-0.000000 -5.481043 0.000000 
0.000000 -5.481043 0.000000 
-0.000000 -5.481043 0.000000 
0.000000 -5.481043 0.000000 
-0.000000 -5.481043 0.000000 
0.000000 -5.481043 0.000000 
TENSORS STRESS float 
-0.000000 0.000000 0.000000 
0.000000 -0.000000 0.000000 
0.000000 0.000000 0.000000 

-0.000000 -0.000000 0.000000 
0.000000 0.000000 0.000000 
0.000000 0.000000 0.000000 

-0.000000 0.000000 0.000000 
0.000000 -0.000000 0.000000 
0.000000 0.000000 0.000000 

-0.000000 -0.000000 0.000000 
0.000000 -0.000000 0.000000 
0.000000 0.000000 0.000000 

-0.000000 0.000000 0.000000 
0.000000 -0.000000 0.000000 
0.000000 0.000000 0.000000 

-0.000000 -0.000000 0.000000 
0.000000 0.000000 0.000000 
0.000000 0.000000 0.000000 

-0.000000 -0.000000 0.000000 
0.000000 0.000000 0.000000 
0.000000 0.000000 0.000000 

-0.000000 0.000000 0.000000 
0.000000 -0.000000 0.000000 
0.000000 0.000000 0.000000 

-0.000000 0.000000 0.000000 
0.000000 -0.000000 0.000000 
0.000000 0.000000 0.000000 

-0.000000 -0.000000 0.000000 
0.000000 0.000000 0.000000 
0.000000 0.000000 0.000000 

-0.000000 -0.000000 0.000000 
0.000000 -0.000000 0.000000 
0.000000 0.000000 0.000000 

0.000000 0.000000 0.000000 
0.000000 0.000000 0.000000 
0.000000 0.000000 0.000000 

-0.000000 0.000000 0.000000 
0.000000 0.000000 0.000000 
0.000000 0.000000 0.000000 

-0.000000 -0.000000 0.000000 
0.000000 -0.000000 0.000000 
0.000000 0.000000 0.000000 

-0.000000 -0.000000 0.000000 
0.000000 -0.000000 0.000000 
0.000000 0.000000 0.000000 

-0.000000 0.000000 0.000000 
0.000000 -0.000000 0.000000 
0.000000 0.000000 0.000000 

-0.000000 0.000000 0.000000 
0.000000 -0.000000 0.000000 
0.000000 0.000000 0.000000 

-0.000000 0.000000 0.000000 
0.000000 0.000000 0.000000 
0.000000 0.000000 0.000000 

-0.000000 0.000000 0.000000 
0.000000 0.000000 0.000000 
0.000000 0.000000 0.000000 

-0.000000 0.000000 0.000000 
0.000000 -0.000000 0.000000 
0.000000 0.000000 0.000000 

-0.000000 0.000000 0.000000 
0.000000 0.000000 0.000000 
0.000000 0.000000 0.000000 

-0.000000 -0.000000 0.000000 
0.000000 -0.000000 0.000000 
0.000000 0.000000 0.000000 

0.000000 -0.000000 0.000000 
0.000000 0.000000 0.000000 
0.000000 0.000000 0.000000 

0.000000 0.000000 0.000000 
0.000000 0.000000 0.000000 
0.000000 0.000000 0.000000 

-0.000000 0.000000 0.000000 
0.000000 -0.000000 0.000000 
0.000000 0.000000 0.000000 

-0.000000 -0.000000 0.000000 
0.000000 -0.000000 0.000000 
0.000000 0.000000 0.000000 

0.000000 -0.000000 0.000000 
0.000000 -0.000000 0.000000 
0.000000 0.000000 0.000000 

0.000000 -0.000000 0.000000 
0.000000 0.000000 0.000000 
0.000000 0.000000 0.000000 

-0.000000 -0.000000 0.000000 
0.000000 -0.000000 0.000000 
0.000000 0.000000 0.000000 

0.000000 0.000000 0.000000 
0.000000 0.000000 0.000000 
0.000000 0.000000 0.000000 

-0.000000 -0.000000 0.000000 
0.000000 -0.000000 0.000000 
0.000000 0.000000 0.000000 

0.000000 -0.000000 0.000000 
0.000000 -0.000000 0.000000 
0.000000 0.000000 0.000000 

-0.000000 -0.000000 0.000000 
0.000000 -0.000000 0.000000 
0.000000 0.000000 0.000000 

0.000000 -0.000000 0.000000 
0.000000 0.000000 0.000000 
0.000000 0.000000 0.000000 

0.000000 0.000000 0.000000 
0.000000 0.000000 0.000000 
0.000000 0.000000 0.000000 

0.000000 0.000000 0.000000 
0.000000 -0.000000 0.000000 
0.000000 0.000000 0.000000 

0.000000 -0.000000 0.000000 
0.000000 0.000000 0.000000 
0.000000 0.000000 0.000000 

0.000000 0.000000 0.000000 
0.000000 -0.000000 0.000000 
0.000000 0.000000 0.000000 

0.000000 0.000000 0.000000 
0.000000 0.000000 0.000000 
0.000000 0.000000 0.000000 

0.000000 0.000000 0.000000 
0.000000 -0.000000 0.000000 
0.000000 0.000000 0.000000 

-0.000000 0.000000 0.000000 
0.000000 0.000000 0.000000 
0.000000 0.000000 0.000000 

-0.000000 0.000000 0.000000 
0.000000 -0.000000 0.000000 
0.000000 0.000000 0.000000 

0.000000 0.000000 0.000000 
0.000000 0.000000 0.000000 
0.000000 0.000000 0.000000 

0.000000 -0.000000 0.000000 
0.000000 0.000000 0.000000 
0.000000 0.000000 0.000000 

0.000000 0.000000 0.000000 
0.000000 0.000000 0.000000 
0.000000 0.000000 0.000000 

0.000000 0.000000 0.000000 
0.000000 0.000000 0.000000 
0.000000 0.000000 0.000000 

-0.000000 -0.000000 0.000000 
0.000000 0.000000 0.000000 
0.000000 0.000000 0.000000 

-0.000000 -0.000000 0.000000 
0.000000 -0.000000 0.000000 
0.000000 0.000000 0.000000 

-0.000000 0.000000 0.000000 
0.000000 -0.000000 0.000000 
0.000000 0.000000 0.000000 

-0.000000 -0.000000 0.000000 
0.000000 -0.000000 0.000000 
0.000000 0.000000 0.000000 

-0.000000 0.000000 0.000000 
0.000000 -0.000000 0.000000 
0.000000 0.000000 0.000000 

0.000000 0.000000 0.000000 
0.000000 0.000000 0.000000 
0.000000 0.000000 0.000000 

0.000000 -0.000000 0.000000 
0.000000 -0.000000 0.000000 
0.000000 0.000000 0.000000 

0.000000 0.000000 0.000000 
0.000000 0.000000 0.000000 
0.000000 0.000000 0.000000 

-0.000000 0.000000 0.000000 
0.000000 -0.000000 0.000000 
0.000000 0.000000 0.000000 

0.000000 0.000000 0.000000 
0.000000 -0.000000 0.000000 
0.000000 0.000000 0.000000 

0.000000 0.000000 0.000000 
0.000000 0.000000 0.000000 
0.000000 0.000000 0.000000 

0.000000 0.000000 0.000000 
0.000000 -0.000000 0.000000 
0.000000 0.000000 0.000000 

0.000000 0.000000 0.000000 
0.000000 0.000000 0.000000 
0.000000 0.000000 0.000000 

-0.000000 -0.000000 0.000000 
0.000000 -0.000000 0.000000 
0.000000 0.000000 0.000000 

-0.000000 -0.000000 0.000000 
0.000000 -0.000000 0.000000 
0.000000 0.000000 0.000000 

-0.000000 0.000000 0.000000 
0.000000 -0.000000 0.000000 
0.000000 0.000000 0.000000 

-0.000000 0.000000 0.000000 
0.000000 -0.000000 0.000000 
0.000000 0.000000 0.000000 

0.000000 -0.000000 0.000000 
0.000000 0.000000 0.000000 
0.000000 0.000000 0.000000 

0.000000 -0.000000 0.000000 
0.000000 0.000000 0.000000 
0.000000 0.000000 0.000000 

0.000000 0.000000 0.000000 
0.000000 0.000000 0.000000 
0.000000 0.000000 0.000000 

0.000000 0.000000 0.000000 
0.000000 0.000000 0.000000 
0.000000 0.000000 0.000000 

0.000000 0.000000 0.000000 
0.000000 0.000000 0.000000 
0.000000 0.000000 0.000000 

0.000000 0.000000 0.000000 
0.000000 -0.000000 0.000000 
0.000000 0.000000 0.000000 

0.000000 -0.000000 0.000000 
0.000000 0.000000 0.000000 
0.000000 0.000000 0.000000 

0.000000 -0.000000 0.000000 
0.000000 -0.000000 0.000000 
0.000000 0.000000 0.000000 

-0.000000 -0.000000 0.000000 
0.000000 -0.000000 0.000000 
0.000000 0.000000 0.000000 

-0.000000 0.000000 0.000000 
0.000000 0.000000 0.000000 
0.000000 0.000000 0.000000 

-0.000000 -0.000000 0.000000 
0.000000 -0.000000 0.000000 
0.000000 0.000000 0.000000 

-0.000000 -0.000000 0.000000 
0.000000 0.000000 0.000000 
0.000000 0.000000 0.000000 

-0.000000 0.000000 0.000000 
0.000000 -0.000000 0.000000 
0.000000 0.000000 0.000000 

0.000000 -0.000000 0.000000 
0.000000 0.000000 0.000000 
0.000000 0.000000 0.000000 

-0.000000 -0.000000 0.000000 
0.000000 -0.000000 0.000000 
0.000000 0.000000 0.000000 

0.000000 0.000000 0.000000 
0.000000 0.000000 0.000000 
0.000000 0.000000 0.000000 

0.000000 -0.000000 0.000000 
0.000000 0.000000 0.000000 
0.000000 0.000000 0.000000 

0.000000 -0.000000 0.000000 
0.000000 0.000000 0.000000 
0.000000 0.000000 0.000000 

0.000000 -0.000000 0.000000 
0.000000 0.000000 0.000000 
0.000000 0.000000 0.000000 

0.000000 0.000000 0.000000 
0.000000 0.000000 0.000000 
0.000000 0.000000 0.000000 

0.000000 0.000000 0.000000 
0.000000 0.000000 0.000000 
0.000000 0.000000 0.000000 

-0.000000 0.000000 0.000000 
0.000000 0.000000 0.000000 
0.000000 0.000000 0.000000 

-0.000000 -0.000000 0.000000 
0.000000 -0.000000 0.000000 
0.000000 0.000000 0.000000 

0.000000 0.000000 0.000000 
0.000000 0.000000 0.000000 
0.000000 0.000000 0.000000 

-0.000000 -0.000000 0.000000 
0.000000 -0.000000 0.000000 
0.000000 0.000000 0.000000 

0.000000 0.000000 0.000000 
0.000000 0.000000 0.000000 
0.000000 0.000000 0.000000 

-0.000000 0.000000 0.000000 
0.000000 -0.000000 0.000000 
0.000000 0.000000 0.000000 

0.000000 -0.000000 0.000000 
0.000000 0.000000 0.000000 
0.000000 0.000000 0.000000 

-0.000000 -0.000000 0.000000 
0.000000 0.000000 0.000000 
0.000000 0.000000 0.000000 

-0.000000 0.000000 0.000000 
0.000000 -0.000000 0.000000 
0.000000 0.000000 0.000000 

0.000000 -0.000000 0.000000 
0.000000 0.000000 0.000000 
0.000000 0.000000 0.000000 

0.000000 -0.000000 0.000000 
0.000000 -0.000000 0.000000 
0.000000 0.000000 0.000000 

0.000000 -0.000000 0.000000 
0.000000 -0.000000 0.000000 
0.000000 0.000000 0.000000 

0.000000 0.000000 0.000000 
0.000000 -0.000000 0.000000 
0.000000 0.000000 0.000000 

-0.000000 -0.000000 0.000000 
0.000000 -0.000000 0.000000 
0.000000 0.000000 0.000000 

0.000000 -0.000000 0.000000 
0.000000 0.000000 0.000000 
0.000000 0.000000 0.000000 

0.000000 0.000000 0.000000 
0.000000 0.000000 0.000000 
0.000000 0.000000 0.000000 

-0.000000 0.000000 0.000000 
0.000000 -0.000000 0.000000 
0.000000 0.000000 0.000000 

0.000000 -0.000000 0.000000 
0.000000 0.000000 0.000000 
0.000000 0.000000 0.000000 

0.000000 -0.000000 0.000000 
0.000000 0.000000 0.000000 
0.000000 0.000000 0.000000 

-0.000000 -0.000000 0.000000 
0.000000 0.000000 0.000000 
0.000000 0.000000 0.000000 

-0.000000 0.000000 0.000000 
0.000000 -0.000000 0.000000 
0.000000 0.000000 0.000000 

-0.000000 -0.000000 0.000000 
0.000000 0.000000 0.000000 
0.000000 0.000000 0.000000 

-0.000000 0.000000 0.000000 
0.000000 -0.000000 0.000000 
0.000000 0.000000 0.000000 

-0.000000 -0.000000 0.000000 
0.000000 0.000000 0.000000 
0.000000 0.000000 0.000000 

-0.000000 -0.000000 0.000000 
0.000000 0.000000 0.000000 
0.000000 0.000000 0.000000 

-0.000000 0.000000 0.000000 
0.000000 0.000000 0.000000 
0.000000 0.000000 0.000000 

-0.000000 -0.000000 0.000000 
0.000000 0.000000 0.000000 
0.000000 0.000000 0.000000 

-0.000000 -0.000000 0.000000 
0.000000 -0.000000 0.000000 
0.000000 0.000000 0.000000 

-0.000000 -0.000000 0.000000 
0.000000 -0.000000 0.000000 
0.000000 0.000000 0.000000 

0.000000 -0.000000 0.000000 
0.000000 0.000000 0.000000 
0.000000 0.000000 0.000000 

0.000000 -0.000000 0.000000 
0.000000 0.000000 0.000000 
0.000000 0.000000 0.000000 

-0.000000 -0.000000 0.000000 
0.000000 0.000000 0.000000 
0.000000 0.000000 0.000000 

-0.000000 -0.000000 0.000000 
0.000000 -0.000000 0.000000 
0.000000 0.000000 0.000000 

0.000000 0.000000 0.000000 
0.000000 0.000000 0.000000 
0.000000 0.000000 0.000000 

0.000000 0.000000 0.000000 
0.000000 0.000000 0.000000 
0.000000 0.000000 0.000000 

-0.000000 -0.000000 0.000000 
0.000000 -0.000000 0.000000 
0.000000 0.000000 0.000000 

0.000000 0.000000 0.000000 
0.000000 0.000000 0.000000 
0.000000 0.000000 0.000000 

0.000000 -0.000000 0.000000 
0.000000 0.000000 0.000000 
0.000000 0.000000 0.000000 

0.000000 -0.000000 0.000000 
0.000000 -0.000000 0.000000 
0.000000 0.000000 0.000000 

0.000000 -0.000000 0.000000 
0.000000 0.000000 0.000000 
0.000000 0.000000 0.000000 

0.000000 0.000000 0.000000 
0.000000 0.000000 0.000000 
0.000000 0.000000 0.000000 

-0.000000 0.000000 0.000000 
0.000000 0.000000 0.000000 
0.000000 0.000000 0.000000 

-0.000000 0.000000 0.000000 
0.000000 0.000000 0.000000 
0.000000 0.000000 0.000000 

0.000000 -0.000000 0.000000 
0.000000 0.000000 0.000000 
0.000000 0.000000 0.000000 

-0.000000 0.000000 0.000000 
0.000000 -0.000000 0.000000 
0.000000 0.000000 0.000000 

-0.000000 0.000000 0.000000 
0.000000 -0.000000 0.000000 
0.000000 0.000000 0.000000 

-0.000000 0.000000 0.000000 
0.000000 -0.000000 0.000000 
0.000000 0.000000 0.000000 

-0.000000 -0.000000 0.000000 
0.000000 -0.000000 0.000000 
0.000000 0.000000 0.000000 

0.000000 0.000000 0.000000 
0.000000 0.000000 0.000000 
0.000000 0.000000 0.000000 

-0.000000 0.000000 0.000000 
0.000000 0.000000 0.000000 
0.000000 0.000000 0.000000 

-0.000000 -0.000000 0.000000 
0.000000 -0.000000 0.000000 
0.000000 0.000000 0.000000 

-0.000000 -0.000000 0.000000 
0.000000 -0.000000 0.000000 
0.000000 0.000000 0.000000 

0.000000 -0.000000 0.000000 
0.000000 0.000000 0.000000 
0.000000 0.000000 0.000000 

0.000000 0.000000 0.000000 
0.000000 0.000000 0.000000 
0.000000 0.000000 0.000000 

-0.000000 -0.000000 0.000000 
0.000000 0.000000 0.000000 
0.000000 0.000000 0.000000 

0.000000 -0.000000 0.000000 
0.000000 0.000000 0.000000 
0.000000 0.000000 0.000000 

-0.000000 0.000000 0.000000 
0.000000 -0.000000 0.000000 
0.000000 0.000000 0.000000 

0.000000 -0.000000 0.000000 
0.000000 -0.000000 0.000000 
0.000000 0.000000 0.000000 

0.000000 0.000000 0.000000 
0.000000 0.000000 0.000000 
0.000000 0.000000 0.000000 

0.000000 0.000000 0.000000 
0.000000 0.000000 0.000000 
0.000000 0.000000 0.000000 

-0.000000 0.000000 0.000000 
0.000000 0.000000 0.000000 
0.000000 0.000000 0.000000 

-0.000000 -0.000000 0.000000 
0.000000 -0.000000 0.000000 
0.000000 0.000000 0.000000 

-0.000000 -0.000000 0.000000 
0.000000 0.000000 0.000000 
0.000000 0.000000 0.000000 

-0.000000 -0.000000 0.000000 
0.000000 0.000000 0.000000 
0.000000 0.000000 0.000000 

0.000000 0.000000 0.000000 
0.000000 0.000000 0.000000 
0.000000 0.000000 0.000000 

0.000000 -0.000000 0.000000 
0.000000 0.000000 0.000000 
0.000000 0.000000 0.000000 

-0.000000 0.000000 0.000000 
0.000000 -0.000000 0.000000 
0.000000 0.000000 0.000000 

-0.000000 -0.000000 0.000000 
0.000000 -0.000000 0.000000 
0.000000 0.000000 0.000000 

0.000000 -0.000000 0.000000 
0.000000 0.000000 0.000000 
0.000000 0.000000 0.000000 

-0.000000 -0.000000 0.000000 
0.000000 -0.000000 0.000000 
0.000000 0.000000 0.000000 

-0.000000 0.000000 0.000000 
0.000000 0.000000 0.000000 
0.000000 0.000000 0.000000 

-0.000000 0.000000 0.000000 
0.000000 0.000000 0.000000 
0.000000 0.000000 0.000000 

-0.000000 0.000000 0.000000 
0.000000 -0.000000 0.000000 
0.000000 0.000000 0.000000 

-0.000000 0.000000 0.000000 
0.000000 0.000000 0.000000 
0.000000 0.000000 0.000000 

0.000000 0.000000 0.000000 
0.000000 0.000000 0.000000 
0.000000 0.000000 0.000000 

0.000000 0.000000 0.000000 
0.000000 0.000000 0.000000 
0.000000 0.000000 0.000000 

0.000000 -0.000000 0.000000 
0.000000 0.000000 0.000000 
0.000000 0.000000 0.000000 

-0.000000 -0.000000 0.000000 
0.000000 -0.000000 0.000000 
0.000000 0.000000 0.000000 

0.000000 -0.000000 0.000000 
0.000000 0.000000 0.000000 
0.000000 0.000000 0.000000 

0.000000 0.000000 0.000000 
0.000000 0.000000 0.000000 
0.000000 0.000000 0.000000 

0.000000 0.000000 0.000000 
0.000000 0.000000 0.000000 
0.000000 0.000000 0.000000 

0.000000 0.000000 0.000000 
0.000000 0.000000 0.000000 
0.000000 0.000000 0.000000 

-0.000000 -0.000000 0.000000 
0.000000 -0.000000 0.000000 
0.000000 0.000000 0.000000 

0.000000 0.000000 0.000000 
0.000000 0.000000 0.000000 
0.000000 0.000000 0.000000 

-0.000000 -0.000000 0.000000 
0.000000 -0.000000 0.000000 
0.000000 0.000000 0.000000 

-0.000000 -0.000000 0.000000 
0.000000 -0.000000 0.000000 
0.000000 0.000000 0.000000 

-0.000000 -0.000000 0.000000 
0.000000 -0.000000 0.000000 
0.000000 0.000000 0.000000 

-0.000000 0.000000 0.000000 
0.000000 -0.000000 0.000000 
0.000000 0.000000 0.000000 

-0.000000 -0.000000 0.000000 
0.000000 -0.000000 0.000000 
0.000000 0.000000 0.000000 

-0.000000 0.000000 0.000000 
0.000000 0.000000 0.000000 
0.000000 0.000000 0.000000 

-0.000000 0.000000 0.000000 
0.000000 0.000000 0.000000 
0.000000 0.000000 0.000000 

TENSORS STRAIN float 
0.000000 0.000000 0.000000 
0.000000 -0.000000 0.000000 
0.000000 0.000000 0.000000 

-0.000000 -0.000000 0.000000 
0.000000 0.000000 0.000000 
0.000000 0.000000 0.000000 

0.000000 0.000000 0.000000 
0.000000 -0.000000 0.000000 
0.000000 0.000000 0.000000 

-0.000000 -0.000000 0.000000 
0.000000 -0.000000 0.000000 
0.000000 0.000000 0.000000 

-0.000000 0.000000 0.000000 
0.000000 -0.000000 0.000000 
0.000000 0.000000 0.000000 

-0.000000 -0.000000 0.000000 
0.000000 0.000000 0.000000 
0.000000 0.000000 0.000000 

-0.000000 -0.000000 0.000000 
0.000000 0.000000 0.000000 
0.000000 0.000000 0.000000 

-0.000000 0.000000 0.000000 
0.000000 -0.000000 0.000000 
0.000000 0.000000 0.000000 

-0.000000 0.000000 0.000000 
0.000000 -0.000000 0.000000 
0.000000 0.000000 0.000000 

-0.000000 -0.000000 0.000000 
0.000000 0.000000 0.000000 
0.000000 0.000000 0.000000 

-0.000000 -0.000000 0.000000 
0.000000 0.000000 0.000000 
0.000000 0.000000 0.000000 

-0.000000 0.000000 0.000000 
0.000000 0.000000 0.000000 
0.000000 0.000000 0.000000 

-0.000000 0.000000 0.000000 
0.000000 0.000000 0.000000 
0.000000 0.000000 0.000000 

-0.000000 -0.000000 0.000000 
0.000000 -0.000000 0.000000 
0.000000 0.000000 0.000000 

-0.000000 -0.000000 0.000000 
0.000000 -0.000000 0.000000 
0.000000 0.000000 0.000000 

0.000000 0.000000 0.000000 
0.000000 -0.000000 0.000000 
0.000000 0.000000 0.000000 

-0.000000 0.000000 0.000000 
0.000000 0.000000 0.000000 
0.000000 0.000000 0.000000 

-0.000000 0.000000 0.000000 
0.000000 0.000000 0.000000 
0.000000 0.000000 0.000000 

-0.000000 0.000000 0.000000 
0.000000 0.000000 0.000000 
0.000000 0.000000 0.000000 

-0.000000 0.000000 0.000000 
0.000000 -0.000000 0.000000 
0.000000 0.000000 0.000000 

-0.000000 0.000000 0.000000 
0.000000 0.000000 0.000000 
0.000000 0.000000 0.000000 

-0.000000 -0.000000 0.000000 
0.000000 -0.000000 0.000000 
0.000000 0.000000 0.000000 

-0.000000 -0.000000 0.000000 
0.000000 0.000000 0.000000 
0.000000 0.000000 0.000000 

-0.000000 0.000000 0.000000 
0.000000 0.000000 0.000000 
0.000000 0.000000 0.000000 

-0.000000 0.000000 0.000000 
0.000000 -0.000000 0.000000 
0.000000 0.000000 0.000000 

-0.000000 -0.000000 0.000000 
0.000000 -0.000000 0.000000 
0.000000 0.000000 0.000000 

0.000000 -0.000000 0.000000 
0.000000 -0.000000 0.000000 
0.000000 0.000000 0.000000 

-0.000000 -0.000000 0.000000 
0.000000 0.000000 0.000000 
0.000000 0.000000 0.000000 

0.000000 -0.000000 0.000000 
0.000000 -0.000000 0.000000 
0.000000 0.000000 0.000000 

0.000000 0.000000 0.000000 
0.000000 -0.000000 0.000000 
0.000000 0.000000 0.000000 

0.000000 -0.000000 0.000000 
0.000000 -0.000000 0.000000 
0.000000 0.000000 0.000000 

0.000000 -0.000000 0.000000 
0.000000 -0.000000 0.000000 
0.000000 0.000000 0.000000 

-0.000000 -0.000000 0.000000 
0.000000 0.000000 0.000000 
0.000000 0.000000 0.000000 

-0.000000 -0.000000 0.000000 
0.000000 0.000000 0.000000 
0.000000 0.000000 0.000000 

0.000000 0.000000 0.000000 
0.000000 0.000000 0.000000 
0.000000 0.000000 0.000000 

0.000000 0.000000 0.000000 
0.000000 -0.000000 0.000000 
0.000000 0.000000 0.000000 

0.000000 -0.000000 0.000000 
0.000000 -0.000000 0.000000 
0.000000 0.000000 0.000000 

0.000000 0.000000 0.000000 
0.000000 -0.000000 0.000000 
0.000000 0.000000 0.000000 

0.000000 0.000000 0.000000 
0.000000 -0.000000 0.000000 
0.000000 0.000000 0.000000 

0.000000 0.000000 0.000000 
0.000000 -0.000000 0.000000 
0.000000 0.000000 0.000000 

-0.000000 0.000000 0.000000 
0.000000 0.000000 0.000000 
0.000000 0.000000 0.000000 

0.000000 0.000000 0.000000 
0.000000 -0.000000 0.000000 
0.000000 0.000000 0.000000 

0.000000 0.000000 0.000000 
0.000000 0.000000 0.000000 
0.000000 0.000000 0.000000 

0.000000 -0.000000 0.000000 
0.000000 0.000000 0.000000 
0.000000 0.000000 0.000000 

0.000000 0.000000 0.000000 
0.000000 0.000000 0.000000 
0.000000 0.000000 0.000000 

0.000000 0.000000 0.000000 
0.000000 0.000000 0.000000 
0.000000 0.000000 0.000000 

-0.000000 -0.000000 0.000000 
0.000000 0.000000 0.000000 
0.000000 0.000000 0.000000 

-0.000000 -0.000000 0.000000 
0.000000 -0.000000 0.000000 
0.000000 0.000000 0.000000 

-0.000000 0.000000 0.000000 
0.000000 -0.000000 0.000000 
0.000000 0.000000 0.000000 

-0.000000 -0.000000 0.000000 
0.000000 -0.000000 0.000000 
0.000000 0.000000 0.000000 

-0.000000 0.000000 0.000000 
0.000000 -0.000000 0.000000 
0.000000 0.000000 0.000000 

0.000000 0.000000 0.000000 
0.000000 -0.000000 0.000000 
0.000000 0.000000 0.000000 

0.000000 -0.000000 0.000000 
0.000000 -0.000000 0.000000 
0.000000 0.000000 0.000000 

0.000000 0.000000 0.000000 
0.000000 -0.000000 0.000000 
0.000000 0.000000 0.000000 

-0.000000 0.000000 0.000000 
0.000000 -0.000000 0.000000 
0.000000 0.000000 0.000000 

0.000000 0.000000 0.000000 
0.000000 -0.000000 0.000000 
0.000000 0.000000 0.000000 

0.000000 0.000000 0.000000 
0.000000 0.000000 0.000000 
0.000000 0.000000 0.000000 

0.000000 0.000000 0.000000 
0.000000 -0.000000 0.000000 
0.000000 0.000000 0.000000 

0.000000 0.000000 0.000000 
0.000000 0.000000 0.000000 
0.000000 0.000000 0.000000 

-0.000000 -0.000000 0.000000 
0.000000 0.000000 0.000000 
0.000000 0.000000 0.000000 

-0.000000 -0.000000 0.000000 
0.000000 0.000000 0.000000 
0.000000 0.000000 0.000000 

0.000000 0.000000 0.000000 
0.000000 -0.000000 0.000000 
0.000000 0.000000 0.000000 

-0.000000 0.000000 0.000000 
0.000000 -0.000000 0.000000 
0.000000 0.000000 0.000000 

-0.000000 -0.000000 0.000000 
0.000000 0.000000 0.000000 
0.000000 0.000000 0.000000 

0.000000 -0.000000 0.000000 
0.000000 0.000000 0.000000 
0.000000 0.000000 0.000000 

0.000000 0.000000 0.000000 
0.000000 -0.000000 0.000000 
0.000000 0.000000 0.000000 

-0.000000 0.000000 0.000000 
0.000000 0.000000 0.000000 
0.000000 0.000000 0.000000 

0.000000 0.000000 0.000000 
0.000000 0.000000 0.000000 
0.000000 0.000000 0.000000 

0.000000 0.000000 0.000000 
0.000000 -0.000000 0.000000 
0.000000 0.000000 0.000000 

0.000000 -0.000000 0.000000 
0.000000 0.000000 0.000000 
0.000000 0.000000 0.000000 

0.000000 -0.000000 0.000000 
0.000000 -0.000000 0.000000 
0.000000 0.000000 0.000000 

-0.000000 -0.000000 0.000000 
0.000000 -0.000000 0.000000 
0.000000 0.000000 0.000000 

-0.000000 0.000000 0.000000 
0.000000 0.000000 0.000000 
0.000000 0.000000 0.000000 

-0.000000 -0.000000 0.000000 
0.000000 -0.000000 0.000000 
0.000000 0.000000 0.000000 

-0.000000 -0.000000 0.000000 
0.000000 0.000000 0.000000 
0.000000 0.000000 0.000000 

-0.000000 0.000000 0.000000 
0.000000 -0.000000 0.000000 
0.000000 0.000000 0.000000 

0.000000 -0.000000 0.000000 
0.000000 0.000000 0.000000 
0.000000 0.000000 0.000000 

-0.000000 -0.000000 0.000000 
0.000000 -0.000000 0.000000 
0.000000 0.000000 0.000000 

0.000000 0.000000 0.000000 
0.000000 0.000000 0.000000 
0.000000 0.000000 0.000000 

-0.000000 -0.000000 0.000000 
0.000000 0.000000 0.000000 
0.000000 0.000000 0.000000 

0.000000 -0.000000 0.000000 
0.000000 0.000000 0.000000 
0.000000 0.000000 0.000000 

0.000000 -0.000000 0.000000 
0.000000 0.000000 0.000000 
0.000000 0.000000 0.000000 

0.000000 0.000000 0.000000 
0.000000 0.000000 0.000000 
0.000000 0.000000 0.000000 

-0.000000 0.000000 0.000000 
0.000000 0.000000 0.000000 
0.000000 0.000000 0.000000 

-0.000000 0.000000 0.000000 
0.000000 0.000000 0.000000 
0.000000 0.000000 0.000000 

-0.000000 -0.000000 0.000000 
0.000000 0.000000 0.000000 
0.000000 0.000000 0.000000 

0.000000 0.000000 0.000000 
0.000000 0.000000 0.000000 
0.000000 0.000000 0.000000 

0.000000 -0.000000 0.000000 
0.000000 -0.000000 0.000000 
0.000000 0.000000 0.000000 

0.000000 0.000000 0.000000 
0.000000 0.000000 0.000000 
0.000000 0.000000 0.000000 

-0.000000 0.000000 0.000000 
0.000000 0.000000 0.000000 
0.000000 0.000000 0.000000 

-0.000000 -0.000000 0.000000 
0.000000 0.000000 0.000000 
0.000000 0.000000 0.000000 

-0.000000 -0.000000 0.000000 
0.000000 0.000000 0.000000 
0.000000 0.000000 0.000000 

-0.000000 0.000000 0.000000 
0.000000 -0.000000 0.000000 
0.000000 0.000000 0.000000 

0.000000 -0.000000 0.000000 
0.000000 0.000000 0.000000 
0.000000 0.000000 0.000000 

0.000000 -0.000000 0.000000 
0.000000 -0.000000 0.000000 
0.000000 0.000000 0.000000 

0.000000 -0.000000 0.000000 
0.000000 -0.000000 0.000000 
0.000000 0.000000 0.000000 

0.000000 0.000000 0.000000 
0.000000 -0.000000 0.000000 
0.000000 0.000000 0.000000 

0.000000 -0.000000 0.000000 
0.000000 -0.000000 0.000000 
0.000000 0.000000 0.000000 

0.000000 -0.000000 0.000000 
0.000000 0.000000 0.000000 
0.000000 0.000000 0.000000 

0.000000 0.000000 0.000000 
0.000000 0.000000 0.000000 
0.000000 0.000000 0.000000 

-0.000000 0.000000 0.000000 
0.000000 -0.000000 0.000000 
0.000000 0.000000 0.000000 

-0.000000 -0.000000 0.000000 
0.000000 0.000000 0.000000 
0.000000 0.000000 0.000000 

-0.000000 -0.000000 0.000000 
0.000000 0.000000 0.000000 
0.000000 0.000000 0.000000 

-0.000000 -0.000000 0.000000 
0.000000 0.000000 0.000000 
0.000000 0.000000 0.000000 

-0.000000 0.000000 0.000000 
0.000000 -0.000000 0.000000 
0.000000 0.000000 0.000000 

-0.000000 -0.000000 0.000000 
0.000000 0.000000 0.000000 
0.000000 0.000000 0.000000 

-0.000000 0.000000 0.000000 
0.000000 0.000000 0.000000 
0.000000 0.000000 0.000000 

-0.000000 -0.000000 0.000000 
0.000000 0.000000 0.000000 
0.000000 0.000000 0.000000 

-0.000000 -0.000000 0.000000 
0.000000 0.000000 0.000000 
0.000000 0.000000 0.000000 

-0.000000 0.000000 0.000000 
0.000000 0.000000 0.000000 
0.000000 0.000000 0.000000 

-0.000000 -0.000000 0.000000 
0.000000 0.000000 0.000000 
0.000000 0.000000 0.000000 

-0.000000 -0.000000 0.000000 
0.000000 -0.000000 0.000000 
0.000000 0.000000 0.000000 

-0.000000 -0.000000 0.000000 
0.000000 -0.000000 0.000000 
0.000000 0.000000 0.000000 

0.000000 -0.000000 0.000000 
0.000000 0.000000 0.000000 
0.000000 0.000000 0.000000 

-0.000000 -0.000000 0.000000 
0.000000 0.000000 0.000000 
0.000000 0.000000 0.000000 

-0.000000 -0.000000 0.000000 
0.000000 0.000000 0.000000 
0.000000 0.000000 0.000000 

-0.000000 -0.000000 0.000000 
0.000000 -0.000000 0.000000 
0.000000 0.000000 0.000000 

-0.000000 0.000000 0.000000 
0.000000 0.000000 0.000000 
0.000000 0.000000 0.000000 

-0.000000 0.000000 0.000000 
0.000000 0.000000 0.000000 
0.000000 0.000000 0.000000 

-0.000000 -0.000000 0.000000 
0.000000 -0.000000 0.000000 
0.000000 0.000000 0.000000 

0.000000 0.000000 0.000000 
0.000000 0.000000 0.000000 
0.000000 0.000000 0.000000 

0.000000 -0.000000 0.000000 
0.000000 0.000000 0.000000 
0.000000 0.000000 0.000000 

0.000000 -0.000000 0.000000 
0.000000 -0.000000 0.000000 
0.000000 0.000000 0.000000 

0.000000 -0.000000 0.000000 
0.000000 -0.000000 0.000000 
0.000000 0.000000 0.000000 

-0.000000 0.000000 0.000000 
0.000000 0.000000 0.000000 
0.000000 0.000000 0.000000 

-0.000000 0.000000 0.000000 
0.000000 0.000000 0.000000 
0.000000 0.000000 0.000000 

-0.000000 0.000000 0.000000 
0.000000 0.000000 0.000000 
0.000000 0.000000 0.000000 

-0.000000 -0.000000 0.000000 
0.000000 0.000000 0.000000 
0.000000 0.000000 0.000000 

-0.000000 0.000000 0.000000 
0.000000 -0.000000 0.000000 
0.000000 0.000000 0.000000 

-0.000000 0.000000 0.000000 
0.000000 -0.000000 0.000000 
0.000000 0.000000 0.000000 

-0.000000 0.000000 0.000000 
0.000000 0.000000 0.000000 
0.000000 0.000000 0.000000 

-0.000000 -0.000000 0.000000 
0.000000 -0.000000 0.000000 
0.000000 0.000000 0.000000 

-0.000000 0.000000 0.000000 
0.000000 0.000000 0.000000 
0.000000 0.000000 0.000000 

-0.000000 0.000000 0.000000 
0.000000 0.000000 0.000000 
0.000000 0.000000 0.000000 

-0.000000 -0.000000 0.000000 
0.000000 -0.000000 0.000000 
0.000000 0.000000 0.000000 

0.000000 -0.000000 0.000000 
0.000000 -0.000000 0.000000 
0.000000 0.000000 0.000000 

-0.000000 -0.000000 0.000000 
0.000000 0.000000 0.000000 
0.000000 0.000000 0.000000 

-0.000000 0.000000 0.000000 
0.000000 0.000000 0.000000 
0.000000 0.000000 0.000000 

-0.000000 -0.000000 0.000000 
0.000000 0.000000 0.000000 
0.000000 0.000000 0.000000 

-0.000000 -0.000000 0.000000 
0.000000 0.000000 0.000000 
0.000000 0.000000 0.000000 

-0.000000 0.000000 0.000000 
0.000000 -0.000000 0.000000 
0.000000 0.000000 0.000000 

0.000000 -0.000000 0.000000 
0.000000 -0.000000 0.000000 
0.000000 0.000000 0.000000 

0.000000 0.000000 0.000000 
0.000000 0.000000 0.000000 
0.000000 0.000000 0.000000 

0.000000 0.000000 0.000000 
0.000000 0.000000 0.000000 
0.000000 0.000000 0.000000 

-0.000000 0.000000 0.000000 
0.000000 0.000000 0.000000 
0.000000 0.000000 0.000000 

-0.000000 -0.000000 0.000000 
0.000000 0.000000 0.000000 
0.000000 0.000000 0.000000 

-0.000000 -0.000000 0.000000 
0.000000 0.000000 0.000000 
0.000000 0.000000 0.000000 

-0.000000 -0.000000 0.000000 
0.000000 0.000000 0.000000 
0.000000 0.000000 0.000000 

0.000000 0.000000 0.000000 
0.000000 0.000000 0.000000 
0.000000 0.000000 0.000000 

-0.000000 -0.000000 0.000000 
0.000000 0.000000 0.000000 
0.000000 0.000000 0.000000 

0.000000 0.000000 0.000000 
0.000000 -0.000000 0.000000 
0.000000 0.000000 0.000000 

-0.000000 -0.000000 0.000000 
0.000000 -0.000000 0.000000 
0.000000 0.000000 0.000000 

0.000000 -0.000000 0.000000 
0.000000 -0.000000 0.000000 
0.000000 0.000000 0.000000 

-0.000000 -0.000000 0.000000 
0.000000 -0.000000 0.000000 
0.000000 0.000000 0.000000 

-0.000000 0.000000 0.000000 
0.000000 0.000000 0.000000 
0.000000 0.000000 0.000000 

-0.000000 0.000000 0.000000 
0.000000 0.000000 0.000000 
0.000000 0.000000 0.000000 

-0.000000 0.000000 0.000000 
0.000000 0.000000 0.000000 
0.000000 0.000000 0.000000 

-0.000000 0.000000 0.000000 
0.000000 0.000000 0.000000 
0.000000 0.000000 0.000000 

-0.000000 0.000000 0.000000 
0.000000 0.000000 0.000000 
0.000000 0.000000 0.000000 

0.000000 0.000000 0.000000 
0.000000 0.000000 0.000000 
0.000000 0.000000 0.000000 

-0.000000 -0.000000 0.000000 
0.000000 0.000000 0.000000 
0.000000 0.000000 0.000000 

-0.000000 -0.000000 0.000000 
0.000000 0.000000 0.000000 
0.000000 0.000000 0.000000 

-0.000000 -0.000000 0.000000 
0.000000 0.000000 0.000000 
0.000000 0.000000 0.000000 

-0.000000 0.000000 0.000000 
0.000000 0.000000 0.000000 
0.000000 0.000000 0.000000 

-0.000000 0.000000 0.000000 
0.000000 0.000000 0.000000 
0.000000 0.000000 0.000000 

0.000000 0.000000 0.000000 
0.000000 0.000000 0.000000 
0.000000 0.000000 0.000000 

-0.000000 -0.000000 0.000000 
0.000000 0.000000 0.000000 
0.000000 0.000000 0.000000 

-0.000000 0.000000 0.000000 
0.000000 0.000000 0.000000 
0.000000 0.000000 0.000000 

-0.000000 -0.000000 0.000000 
0.000000 -0.000000 0.000000 
0.000000 0.000000 0.000000 

-0.000000 -0.000000 0.000000 
0.000000 -0.000000 0.000000 
0.000000 0.000000 0.000000 

-0.000000 -0.000000 0.000000 
0.000000 -0.000000 0.000000 
0.000000 0.000000 0.000000 

-0.000000 0.000000 0.000000 
0.000000 -0.000000 0.000000 
0.000000 0.000000 0.000000 

-0.000000 -0.000000 0.000000 
0.000000 -0.000000 0.000000 
0.000000 0.000000 0.000000 

-0.000000 0.000000 0.000000 
0.000000 0.000000 0.000000 
0.000000 0.000000 0.000000 

-0.000000 0.000000 0.000000 
0.000000 0.000000 0.000000 
0.000000 0.000000 0.000000 

