# vtk DataFile Version 3.0 
vtk output 
ASCII 
DATASET UNSTRUCTURED_GRID 
POINTS 175 float 
-0.026061 -0.282069 0.000000 
-0.106992 -0.214013 0.000000 
-0.054870 -0.222246 0.000000 
-0.028809 -0.176362 0.000000 
-0.186430 -0.149938 0.000000 
-0.137056 -0.152464 0.000000 
-0.114311 -0.098817 0.000000 
-0.058186 -0.114482 0.000000 
-0.029377 -0.074305 0.000000 
-0.265318 -0.086782 0.000000 
-0.217198 -0.087582 0.000000 
-0.196633 -0.030285 0.000000 
-0.143120 -0.038994 0.000000 
-0.116563 0.008275 0.000000 
-0.058945 -0.011371 0.000000 
-0.029568 0.026749 0.000000 
-0.344206 -0.023626 0.000000 
-0.296791 -0.023619 0.000000 
-0.278030 0.036324 0.000000 
-0.225992 0.030458 0.000000 
-0.201664 0.082575 0.000000 
-0.145749 0.069101 0.000000 
-0.117890 0.113443 0.000000 
-0.059328 0.090737 0.000000 
-0.029759 0.127803 0.000000 
-0.058559 -0.322819 0.000000 
-0.162226 -0.343662 0.000000 
-0.123292 -0.308044 0.000000 
-0.142917 -0.259061 0.000000 
-0.261851 -0.365818 0.000000 
-0.229092 -0.328791 0.000000 
-0.256854 -0.277560 0.000000 
-0.209613 -0.243447 0.000000 
-0.223062 -0.195873 0.000000 
-0.360414 -0.388119 0.000000 
-0.329787 -0.350996 0.000000 
-0.361761 -0.299194 0.000000 
-0.321587 -0.262785 0.000000 
-0.341985 -0.212551 0.000000 
-0.290702 -0.179752 0.000000 
-0.302189 -0.133017 0.000000 
-0.458977 -0.410419 0.000000 
-0.429420 -0.373344 0.000000 
-0.464588 -0.321302 0.000000 
-0.427556 -0.284275 0.000000 
-0.453135 -0.232760 0.000000 
-0.407738 -0.197445 0.000000 
-0.425037 -0.148017 0.000000 
-0.370772 -0.116387 0.000000 
-0.381315 -0.070160 0.000000 
-0.046960 -0.373635 0.000000 
-0.095301 -0.467681 0.000000 
-0.098873 -0.415033 0.000000 
-0.149405 -0.399836 0.000000 
-0.140093 -0.559385 0.000000 
-0.148617 -0.510686 0.000000 
-0.205981 -0.500449 0.000000 
-0.203197 -0.442246 0.000000 
-0.248777 -0.423099 0.000000 
-0.184111 -0.650348 0.000000 
-0.194039 -0.603257 0.000000 
-0.254475 -0.595957 0.000000 
-0.257893 -0.541848 0.000000 
-0.309886 -0.526475 0.000000 
-0.303554 -0.465930 0.000000 
-0.347255 -0.445772 0.000000 
-0.228129 -0.741312 0.000000 
-0.238687 -0.695087 0.000000 
-0.301302 -0.690135 0.000000 
-0.307162 -0.638097 0.000000 
-0.363386 -0.625976 0.000000 
-0.362692 -0.568464 0.000000 
-0.412122 -0.551171 0.000000 
-0.403017 -0.489024 0.000000 
-0.445733 -0.468445 0.000000 
-0.000000 -0.396250 0.000000 
0.043388 -0.492680 0.000000 
-0.000000 -0.462648 0.000000 
-0.043388 -0.492680 0.000000 
0.087158 -0.584877 0.000000 
0.043769 -0.561178 0.000000 
-0.000000 -0.599644 0.000000 
-0.043769 -0.561178 0.000000 
-0.087158 -0.584877 0.000000 
0.130831 -0.676006 0.000000 
0.087824 -0.654408 0.000000 
0.044436 -0.697107 0.000000 
-0.000000 -0.666042 0.000000 
-0.044436 -0.697107 0.000000 
-0.087824 -0.654408 0.000000 
-0.130831 -0.676006 0.000000 
0.174505 -0.767136 0.000000 
0.131782 -0.746570 0.000000 
0.088871 -0.792437 0.000000 
0.044532 -0.764573 0.000000 
-0.000000 -0.800973 0.000000 
-0.044532 -0.764573 0.000000 
-0.088871 -0.792437 0.000000 
-0.131782 -0.746570 0.000000 
-0.174505 -0.767136 0.000000 
0.046960 -0.373635 0.000000 
0.149405 -0.399836 0.000000 
0.098873 -0.415033 0.000000 
0.095301 -0.467681 0.000000 
0.248777 -0.423099 0.000000 
0.203197 -0.442246 0.000000 
0.205981 -0.500449 0.000000 
0.148617 -0.510686 0.000000 
0.140093 -0.559385 0.000000 
0.347255 -0.445772 0.000000 
0.303554 -0.465930 0.000000 
0.309886 -0.526475 0.000000 
0.257893 -0.541848 0.000000 
0.254475 -0.595957 0.000000 
0.194039 -0.603257 0.000000 
0.184111 -0.650348 0.000000 
0.445733 -0.468445 0.000000 
0.403017 -0.489024 0.000000 
0.412122 -0.551171 0.000000 
0.362692 -0.568464 0.000000 
0.363386 -0.625976 0.000000 
0.307162 -0.638097 0.000000 
0.301302 -0.690135 0.000000 
0.238687 -0.695087 0.000000 
0.228129 -0.741312 0.000000 
0.058559 -0.322819 0.000000 
0.142917 -0.259061 0.000000 
0.123292 -0.308044 0.000000 
0.162226 -0.343662 0.000000 
0.223062 -0.195873 0.000000 
0.209613 -0.243447 0.000000 
0.256854 -0.277560 0.000000 
0.229092 -0.328791 0.000000 
0.261851 -0.365818 0.000000 
0.302189 -0.133017 0.000000 
0.290702 -0.179752 0.000000 
0.341985 -0.212551 0.000000 
0.321587 -0.262785 0.000000 
0.361761 -0.299194 0.000000 
0.329787 -0.350996 0.000000 
0.360414 -0.388119 0.000000 
0.381315 -0.070160 0.000000 
0.370772 -0.116387 0.000000 
0.425037 -0.148017 0.000000 
0.407738 -0.197445 0.000000 
0.453135 -0.232760 0.000000 
0.427556 -0.284275 0.000000 
0.464588 -0.321302 0.000000 
0.429420 -0.373344 0.000000 
0.458977 -0.410419 0.000000 
0.026061 -0.282069 0.000000 
0.028809 -0.176362 0.000000 
0.054870 -0.222246 0.000000 
0.106992 -0.214013 0.000000 
0.029377 -0.074305 0.000000 
0.058186 -0.114482 0.000000 
0.114311 -0.098817 0.000000 
0.137056 -0.152464 0.000000 
0.186430 -0.149938 0.000000 
0.029568 0.026749 0.000000 
0.058945 -0.011371 0.000000 
0.116563 0.008275 0.000000 
0.143120 -0.038994 0.000000 
0.196633 -0.030285 0.000000 
0.217198 -0.087582 0.000000 
0.265318 -0.086782 0.000000 
0.029759 0.127803 0.000000 
0.059328 0.090737 0.000000 
0.117890 0.113443 0.000000 
0.145749 0.069101 0.000000 
0.201664 0.082575 0.000000 
0.225992 0.030458 0.000000 
0.278030 0.036324 0.000000 
0.296791 -0.023619 0.000000 
0.344206 -0.023626 0.000000 
CELLS 175 350 
1 0 
1 1 
1 2 
1 3 
1 4 
1 5 
1 6 
1 7 
1 8 
1 9 
1 10 
1 11 
1 12 
1 13 
1 14 
1 15 
1 16 
1 17 
1 18 
1 19 
1 20 
1 21 
1 22 
1 23 
1 24 
1 25 
1 26 
1 27 
1 28 
1 29 
1 30 
1 31 
1 32 
1 33 
1 34 
1 35 
1 36 
1 37 
1 38 
1 39 
1 40 
1 41 
1 42 
1 43 
1 44 
1 45 
1 46 
1 47 
1 48 
1 49 
1 50 
1 51 
1 52 
1 53 
1 54 
1 55 
1 56 
1 57 
1 58 
1 59 
1 60 
1 61 
1 62 
1 63 
1 64 
1 65 
1 66 
1 67 
1 68 
1 69 
1 70 
1 71 
1 72 
1 73 
1 74 
1 75 
1 76 
1 77 
1 78 
1 79 
1 80 
1 81 
1 82 
1 83 
1 84 
1 85 
1 86 
1 87 
1 88 
1 89 
1 90 
1 91 
1 92 
1 93 
1 94 
1 95 
1 96 
1 97 
1 98 
1 99 
1 100 
1 101 
1 102 
1 103 
1 104 
1 105 
1 106 
1 107 
1 108 
1 109 
1 110 
1 111 
1 112 
1 113 
1 114 
1 115 
1 116 
1 117 
1 118 
1 119 
1 120 
1 121 
1 122 
1 123 
1 124 
1 125 
1 126 
1 127 
1 128 
1 129 
1 130 
1 131 
1 132 
1 133 
1 134 
1 135 
1 136 
1 137 
1 138 
1 139 
1 140 
1 141 
1 142 
1 143 
1 144 
1 145 
1 146 
1 147 
1 148 
1 149 
1 150 
1 151 
1 152 
1 153 
1 154 
1 155 
1 156 
1 157 
1 158 
1 159 
1 160 
1 161 
1 162 
1 163 
1 164 
1 165 
1 166 
1 167 
1 168 
1 169 
1 170 
1 171 
1 172 
1 173 
1 174 
CELL_TYPES 175 
1 
1 
1 
1 
1 
1 
1 
1 
1 
1 
1 
1 
1 
1 
1 
1 
1 
1 
1 
1 
1 
1 
1 
1 
1 
1 
1 
1 
1 
1 
1 
1 
1 
1 
1 
1 
1 
1 
1 
1 
1 
1 
1 
1 
1 
1 
1 
1 
1 
1 
1 
1 
1 
1 
1 
1 
1 
1 
1 
1 
1 
1 
1 
1 
1 
1 
1 
1 
1 
1 
1 
1 
1 
1 
1 
1 
1 
1 
1 
1 
1 
1 
1 
1 
1 
1 
1 
1 
1 
1 
1 
1 
1 
1 
1 
1 
1 
1 
1 
1 
1 
1 
1 
1 
1 
1 
1 
1 
1 
1 
1 
1 
1 
1 
1 
1 
1 
1 
1 
1 
1 
1 
1 
1 
1 
1 
1 
1 
1 
1 
1 
1 
1 
1 
1 
1 
1 
1 
1 
1 
1 
1 
1 
1 
1 
1 
1 
1 
1 
1 
1 
1 
1 
1 
1 
1 
1 
1 
1 
1 
1 
1 
1 
1 
1 
1 
1 
1 
1 
1 
1 
1 
1 
1 
1 
POINT_DATA 175 
VECTORS X_GC float 
-0.026061 -0.282069 0.000000 
-0.106992 -0.214013 0.000000 
-0.054870 -0.222246 0.000000 
-0.028809 -0.176362 0.000000 
-0.186430 -0.149938 0.000000 
-0.137056 -0.152464 0.000000 
-0.114311 -0.098817 0.000000 
-0.058186 -0.114482 0.000000 
-0.029377 -0.074305 0.000000 
-0.265318 -0.086782 0.000000 
-0.217198 -0.087582 0.000000 
-0.196633 -0.030285 0.000000 
-0.143120 -0.038994 0.000000 
-0.116563 0.008275 0.000000 
-0.058945 -0.011371 0.000000 
-0.029568 0.026749 0.000000 
-0.344206 -0.023626 0.000000 
-0.296791 -0.023619 0.000000 
-0.278030 0.036324 0.000000 
-0.225992 0.030458 0.000000 
-0.201664 0.082575 0.000000 
-0.145749 0.069101 0.000000 
-0.117890 0.113443 0.000000 
-0.059328 0.090737 0.000000 
-0.029759 0.127803 0.000000 
-0.058559 -0.322819 0.000000 
-0.162226 -0.343662 0.000000 
-0.123292 -0.308044 0.000000 
-0.142917 -0.259061 0.000000 
-0.261851 -0.365818 0.000000 
-0.229092 -0.328791 0.000000 
-0.256854 -0.277560 0.000000 
-0.209613 -0.243447 0.000000 
-0.223062 -0.195873 0.000000 
-0.360414 -0.388119 0.000000 
-0.329787 -0.350996 0.000000 
-0.361761 -0.299194 0.000000 
-0.321587 -0.262785 0.000000 
-0.341985 -0.212551 0.000000 
-0.290702 -0.179752 0.000000 
-0.302189 -0.133017 0.000000 
-0.458977 -0.410419 0.000000 
-0.429420 -0.373344 0.000000 
-0.464588 -0.321302 0.000000 
-0.427556 -0.284275 0.000000 
-0.453135 -0.232760 0.000000 
-0.407738 -0.197445 0.000000 
-0.425037 -0.148017 0.000000 
-0.370772 -0.116387 0.000000 
-0.381315 -0.070160 0.000000 
-0.046960 -0.373635 0.000000 
-0.095301 -0.467681 0.000000 
-0.098873 -0.415033 0.000000 
-0.149405 -0.399836 0.000000 
-0.140093 -0.559385 0.000000 
-0.148617 -0.510686 0.000000 
-0.205981 -0.500449 0.000000 
-0.203197 -0.442246 0.000000 
-0.248777 -0.423099 0.000000 
-0.184111 -0.650348 0.000000 
-0.194039 -0.603257 0.000000 
-0.254475 -0.595957 0.000000 
-0.257893 -0.541848 0.000000 
-0.309886 -0.526475 0.000000 
-0.303554 -0.465930 0.000000 
-0.347255 -0.445772 0.000000 
-0.228129 -0.741312 0.000000 
-0.238687 -0.695087 0.000000 
-0.301302 -0.690135 0.000000 
-0.307162 -0.638097 0.000000 
-0.363386 -0.625976 0.000000 
-0.362692 -0.568464 0.000000 
-0.412122 -0.551171 0.000000 
-0.403017 -0.489024 0.000000 
-0.445733 -0.468445 0.000000 
-0.000000 -0.396250 0.000000 
0.043388 -0.492680 0.000000 
-0.000000 -0.462648 0.000000 
-0.043388 -0.492680 0.000000 
0.087158 -0.584877 0.000000 
0.043769 -0.561178 0.000000 
-0.000000 -0.599644 0.000000 
-0.043769 -0.561178 0.000000 
-0.087158 -0.584877 0.000000 
0.130831 -0.676006 0.000000 
0.087824 -0.654408 0.000000 
0.044436 -0.697107 0.000000 
-0.000000 -0.666042 0.000000 
-0.044436 -0.697107 0.000000 
-0.087824 -0.654408 0.000000 
-0.130831 -0.676006 0.000000 
0.174505 -0.767136 0.000000 
0.131782 -0.746570 0.000000 
0.088871 -0.792437 0.000000 
0.044532 -0.764573 0.000000 
-0.000000 -0.800973 0.000000 
-0.044532 -0.764573 0.000000 
-0.088871 -0.792437 0.000000 
-0.131782 -0.746570 0.000000 
-0.174505 -0.767136 0.000000 
0.046960 -0.373635 0.000000 
0.149405 -0.399836 0.000000 
0.098873 -0.415033 0.000000 
0.095301 -0.467681 0.000000 
0.248777 -0.423099 0.000000 
0.203197 -0.442246 0.000000 
0.205981 -0.500449 0.000000 
0.148617 -0.510686 0.000000 
0.140093 -0.559385 0.000000 
0.347255 -0.445772 0.000000 
0.303554 -0.465930 0.000000 
0.309886 -0.526475 0.000000 
0.257893 -0.541848 0.000000 
0.254475 -0.595957 0.000000 
0.194039 -0.603257 0.000000 
0.184111 -0.650348 0.000000 
0.445733 -0.468445 0.000000 
0.403017 -0.489024 0.000000 
0.412122 -0.551171 0.000000 
0.362692 -0.568464 0.000000 
0.363386 -0.625976 0.000000 
0.307162 -0.638097 0.000000 
0.301302 -0.690135 0.000000 
0.238687 -0.695087 0.000000 
0.228129 -0.741312 0.000000 
0.058559 -0.322819 0.000000 
0.142917 -0.259061 0.000000 
0.123292 -0.308044 0.000000 
0.162226 -0.343662 0.000000 
0.223062 -0.195873 0.000000 
0.209613 -0.243447 0.000000 
0.256854 -0.277560 0.000000 
0.229092 -0.328791 0.000000 
0.261851 -0.365818 0.000000 
0.302189 -0.133017 0.000000 
0.290702 -0.179752 0.000000 
0.341985 -0.212551 0.000000 
0.321587 -0.262785 0.000000 
0.361761 -0.299194 0.000000 
0.329787 -0.350996 0.000000 
0.360414 -0.388119 0.000000 
0.381315 -0.070160 0.000000 
0.370772 -0.116387 0.000000 
0.425037 -0.148017 0.000000 
0.407738 -0.197445 0.000000 
0.453135 -0.232760 0.000000 
0.427556 -0.284275 0.000000 
0.464588 -0.321302 0.000000 
0.429420 -0.373344 0.000000 
0.458977 -0.410419 0.000000 
0.026061 -0.282069 0.000000 
0.028809 -0.176362 0.000000 
0.054870 -0.222246 0.000000 
0.106992 -0.214013 0.000000 
0.029377 -0.074305 0.000000 
0.058186 -0.114482 0.000000 
0.114311 -0.098817 0.000000 
0.137056 -0.152464 0.000000 
0.186430 -0.149938 0.000000 
0.029568 0.026749 0.000000 
0.058945 -0.011371 0.000000 
0.116563 0.008275 0.000000 
0.143120 -0.038994 0.000000 
0.196633 -0.030285 0.000000 
0.217198 -0.087582 0.000000 
0.265318 -0.086782 0.000000 
0.029759 0.127803 0.000000 
0.059328 0.090737 0.000000 
0.117890 0.113443 0.000000 
0.145749 0.069101 0.000000 
0.201664 0.082575 0.000000 
0.225992 0.030458 0.000000 
0.278030 0.036324 0.000000 
0.296791 -0.023619 0.000000 
0.344206 -0.023626 0.000000 
VECTORS X_EC float 
0.338794 0.307927 0.000000 
-0.609100 -0.610822 0.000000 
0.713312 -0.499681 0.000000 
0.374519 0.880889 0.000000 
0.423588 0.524159 0.000000 
-0.218274 0.558262 0.000000 
-0.513962 -0.165976 0.000000 
0.756418 0.045510 0.000000 
0.381900 -0.496883 0.000000 
-0.550868 -0.328444 0.000000 
0.823577 -0.317649 0.000000 
0.556234 0.908847 0.000000 
-0.139443 -0.973584 0.000000 
-0.484677 0.388291 0.000000 
0.766286 0.653507 0.000000 
0.384386 0.138886 0.000000 
0.474677 0.818953 0.000000 
-0.141715 0.818856 0.000000 
-0.385608 0.009628 0.000000 
0.937896 0.088823 0.000000 
0.621631 -0.614757 0.000000 
-0.105264 -0.432857 0.000000 
-0.467428 0.968516 0.000000 
0.771260 -0.724955 0.000000 
0.386873 0.774655 0.000000 
0.761262 0.858061 0.000000 
0.108942 -0.860562 0.000000 
-0.397202 0.658598 0.000000 
-0.142083 -0.002677 0.000000 
-0.595936 -0.561452 0.000000 
0.978194 0.938682 0.000000 
-0.660903 0.247057 0.000000 
0.724964 -0.213463 0.000000 
0.899809 -0.855711 0.000000 
0.685384 -0.260399 0.000000 
0.287229 -0.761558 0.000000 
0.702895 0.539114 0.000000 
0.180633 0.047595 0.000000 
0.445811 -0.630565 0.000000 
-0.220880 0.926649 0.000000 
-0.071546 0.295724 0.000000 
-0.033296 0.040653 0.000000 
-0.417537 -0.459857 0.000000 
0.039645 0.837581 0.000000 
-0.441768 0.337709 0.000000 
-0.109248 -0.357741 0.000000 
-0.699407 -0.834497 0.000000 
-0.474522 0.498224 0.000000 
0.820030 0.071231 0.000000 
0.957100 -0.552841 0.000000 
0.610485 -0.455933 0.000000 
-0.761092 0.813687 0.000000 
-0.714655 0.102949 0.000000 
-0.057734 -0.102218 0.000000 
-0.178789 0.051691 0.000000 
-0.067979 -0.605735 0.000000 
0.677748 -0.743939 0.000000 
0.641556 0.470316 0.000000 
-0.765897 0.211838 0.000000 
0.393446 -0.720300 0.000000 
0.522510 0.643970 0.000000 
-0.691820 0.545426 0.000000 
-0.647393 -0.185057 0.000000 
0.028512 -0.392583 0.000000 
-0.053800 0.790056 0.000000 
0.514316 0.517925 0.000000 
0.965681 0.507709 0.000000 
-0.897068 -0.116320 0.000000 
-0.083078 -0.183173 0.000000 
-0.006893 -0.885697 0.000000 
0.724017 0.950670 0.000000 
0.714996 0.174266 0.000000 
-0.642413 -0.059191 0.000000 
-0.760780 -0.898172 0.000000 
-0.205471 0.824013 0.000000 
0.000000 -0.150631 0.000000 
-0.564049 -0.848818 0.000000 
0.000000 0.745746 0.000000 
0.564049 -0.848818 0.000000 
0.866949 0.395837 0.000000 
-0.569003 0.075906 0.000000 
0.000000 0.595194 0.000000 
0.569003 0.075906 0.000000 
-0.866949 0.395837 0.000000 
0.299194 -0.373913 0.000000 
0.858290 -0.665497 0.000000 
-0.577662 -0.089051 0.000000 
0.000000 -0.508429 0.000000 
0.577662 -0.089051 0.000000 
-0.858290 -0.665497 0.000000 
-0.299194 -0.373913 0.000000 
-0.268560 0.856337 0.000000 
0.286830 0.578696 0.000000 
0.844677 -0.802106 0.000000 
-0.578910 0.821731 0.000000 
0.000000 -0.686865 0.000000 
0.578910 0.821731 0.000000 
-0.844677 -0.802106 0.000000 
-0.286830 0.578696 0.000000 
0.268560 0.856337 0.000000 
-0.610485 -0.455933 0.000000 
0.057734 -0.102218 0.000000 
0.714655 0.102949 0.000000 
0.761092 0.813687 0.000000 
0.765897 0.211838 0.000000 
-0.641556 0.470316 0.000000 
-0.677748 -0.743939 0.000000 
0.067979 -0.605735 0.000000 
0.178789 0.051691 0.000000 
-0.514316 0.517925 0.000000 
0.053800 0.790056 0.000000 
-0.028512 -0.392583 0.000000 
0.647393 -0.185057 0.000000 
0.691820 0.545426 0.000000 
-0.522510 0.643970 0.000000 
-0.393446 -0.720300 0.000000 
0.205471 0.824013 0.000000 
0.760780 -0.898172 0.000000 
0.642413 -0.059191 0.000000 
-0.714996 0.174266 0.000000 
-0.724017 0.950670 0.000000 
0.006894 -0.885697 0.000000 
0.083078 -0.183173 0.000000 
0.897068 -0.116320 0.000000 
-0.965681 0.507709 0.000000 
-0.761262 0.858061 0.000000 
0.142083 -0.002677 0.000000 
0.397202 0.658598 0.000000 
-0.108942 -0.860562 0.000000 
-0.899809 -0.855711 0.000000 
-0.724964 -0.213463 0.000000 
0.660903 0.247057 0.000000 
-0.978194 0.938682 0.000000 
0.595936 -0.561452 0.000000 
0.071546 0.295724 0.000000 
0.220880 0.926649 0.000000 
-0.445811 -0.630565 0.000000 
-0.180633 0.047595 0.000000 
-0.702895 0.539114 0.000000 
-0.287229 -0.761558 0.000000 
-0.685384 -0.260399 0.000000 
-0.957100 -0.552841 0.000000 
-0.820030 0.071231 0.000000 
0.474522 0.498224 0.000000 
0.699407 -0.834497 0.000000 
0.109248 -0.357741 0.000000 
0.441768 0.337709 0.000000 
-0.039645 0.837581 0.000000 
0.417537 -0.459857 0.000000 
0.033296 0.040653 0.000000 
-0.338794 0.307927 0.000000 
-0.374519 0.880889 0.000000 
-0.713312 -0.499681 0.000000 
0.609100 -0.610822 0.000000 
-0.381900 -0.496883 0.000000 
-0.756418 0.045510 0.000000 
0.513962 -0.165976 0.000000 
0.218274 0.558262 0.000000 
-0.423588 0.524159 0.000000 
-0.384386 0.138886 0.000000 
-0.766286 0.653507 0.000000 
0.484677 0.388291 0.000000 
0.139443 -0.973584 0.000000 
-0.556234 0.908847 0.000000 
-0.823577 -0.317649 0.000000 
0.550868 -0.328444 0.000000 
-0.386873 0.774655 0.000000 
-0.771260 -0.724955 0.000000 
0.467428 0.968516 0.000000 
0.105264 -0.432857 0.000000 
-0.621631 -0.614757 0.000000 
-0.937896 0.088824 0.000000 
0.385608 0.009628 0.000000 
0.141715 0.818856 0.000000 
-0.474677 0.818953 0.000000 
CELL_DATA 175 
SCALARS MASS float 
LOOKUP_TABLE default 
0.078183 
0.086427 
0.094672 
0.086427 
0.088131 
0.092111 
0.085854 
0.092111 
0.088131 
0.088705 
0.091000 
0.086983 
0.091556 
0.086983 
0.091000 
0.088705 
0.089278 
0.091574 
0.089278 
0.092722 
0.089278 
0.092722 
0.089278 
0.091574 
0.089278 
0.078183 
0.086427 
0.094672 
0.086427 
0.088131 
0.092111 
0.085854 
0.092111 
0.088131 
0.088705 
0.091000 
0.086983 
0.091556 
0.086983 
0.091000 
0.088705 
0.089278 
0.091574 
0.089278 
0.092722 
0.089278 
0.092722 
0.089278 
0.091574 
0.089278 
0.078183 
0.086427 
0.094672 
0.086427 
0.088131 
0.092111 
0.085854 
0.092111 
0.088131 
0.088705 
0.091000 
0.086983 
0.091556 
0.086983 
0.091000 
0.088705 
0.089278 
0.091574 
0.089278 
0.092722 
0.089278 
0.092722 
0.089278 
0.091574 
0.089278 
0.078183 
0.086427 
0.094672 
0.086427 
0.088131 
0.092111 
0.085854 
0.092111 
0.088131 
0.088705 
0.091000 
0.086983 
0.091556 
0.086983 
0.091000 
0.088705 
0.089278 
0.091574 
0.089278 
0.092722 
0.089278 
0.092722 
0.089278 
0.091574 
0.089278 
0.078183 
0.086427 
0.094672 
0.086427 
0.088131 
0.092111 
0.085854 
0.092111 
0.088131 
0.088705 
0.091000 
0.086983 
0.091556 
0.086983 
0.091000 
0.088705 
0.089278 
0.091574 
0.089278 
0.092722 
0.089278 
0.092722 
0.089278 
0.091574 
0.089278 
0.078183 
0.086427 
0.094672 
0.086427 
0.088131 
0.092111 
0.085854 
0.092111 
0.088131 
0.088705 
0.091000 
0.086983 
0.091556 
0.086983 
0.091000 
0.088705 
0.089278 
0.091574 
0.089278 
0.092722 
0.089278 
0.092722 
0.089278 
0.091574 
0.089278 
0.078183 
0.086427 
0.094672 
0.086427 
0.088131 
0.092111 
0.085854 
0.092111 
0.088131 
0.088705 
0.091000 
0.086983 
0.091556 
0.086983 
0.091000 
0.088705 
0.089278 
0.091574 
0.089278 
0.092722 
0.089278 
0.092722 
0.089278 
0.091574 
0.089278 
SCALARS MASS float 
LOOKUP_TABLE default 
0.078183 
0.086427 
0.094672 
0.086427 
0.088131 
0.092111 
0.085854 
0.092111 
0.088131 
0.088705 
0.091000 
0.086983 
0.091556 
0.086983 
0.091000 
0.088705 
0.089278 
0.091574 
0.089278 
0.092722 
0.089278 
0.092722 
0.089278 
0.091574 
0.089278 
0.078183 
0.086427 
0.094672 
0.086427 
0.088131 
0.092111 
0.085854 
0.092111 
0.088131 
0.088705 
0.091000 
0.086983 
0.091556 
0.086983 
0.091000 
0.088705 
0.089278 
0.091574 
0.089278 
0.092722 
0.089278 
0.092722 
0.089278 
0.091574 
0.089278 
0.078183 
0.086427 
0.094672 
0.086427 
0.088131 
0.092111 
0.085854 
0.092111 
0.088131 
0.088705 
0.091000 
0.086983 
0.091556 
0.086983 
0.091000 
0.088705 
0.089278 
0.091574 
0.089278 
0.092722 
0.089278 
0.092722 
0.089278 
0.091574 
0.089278 
0.078183 
0.086427 
0.094672 
0.086427 
0.088131 
0.092111 
0.085854 
0.092111 
0.088131 
0.088705 
0.091000 
0.086983 
0.091556 
0.086983 
0.091000 
0.088705 
0.089278 
0.091574 
0.089278 
0.092722 
0.089278 
0.092722 
0.089278 
0.091574 
0.089278 
0.078183 
0.086427 
0.094672 
0.086427 
0.088131 
0.092111 
0.085854 
0.092111 
0.088131 
0.088705 
0.091000 
0.086983 
0.091556 
0.086983 
0.091000 
0.088705 
0.089278 
0.091574 
0.089278 
0.092722 
0.089278 
0.092722 
0.089278 
0.091574 
0.089278 
0.078183 
0.086427 
0.094672 
0.086427 
0.088131 
0.092111 
0.085854 
0.092111 
0.088131 
0.088705 
0.091000 
0.086983 
0.091556 
0.086983 
0.091000 
0.088705 
0.089278 
0.091574 
0.089278 
0.092722 
0.089278 
0.092722 
0.089278 
0.091574 
0.089278 
0.078183 
0.086427 
0.094672 
0.086427 
0.088131 
0.092111 
0.085854 
0.092111 
0.088131 
0.088705 
0.091000 
0.086983 
0.091556 
0.086983 
0.091000 
0.088705 
0.089278 
0.091574 
0.089278 
0.092722 
0.089278 
0.092722 
0.089278 
0.091574 
0.089278 
SCALARS DENSITY float 
LOOKUP_TABLE default 
20.000000 
20.000000 
20.000000 
20.000000 
20.000000 
20.000000 
20.000000 
20.000000 
20.000000 
20.000000 
20.000000 
20.000000 
20.000000 
20.000000 
20.000000 
20.000000 
20.000000 
20.000000 
20.000000 
20.000000 
20.000000 
20.000000 
20.000000 
20.000000 
20.000000 
20.000000 
20.000000 
20.000000 
20.000000 
20.000000 
20.000000 
20.000000 
20.000000 
20.000000 
20.000000 
20.000000 
20.000000 
20.000000 
20.000000 
20.000000 
20.000000 
20.000000 
20.000000 
20.000000 
20.000000 
20.000000 
20.000000 
20.000000 
20.000000 
20.000000 
20.000000 
20.000000 
20.000000 
20.000000 
20.000000 
20.000000 
20.000000 
20.000000 
20.000000 
20.000000 
20.000000 
20.000000 
20.000000 
20.000000 
20.000000 
20.000000 
20.000000 
20.000000 
20.000000 
20.000000 
20.000000 
20.000000 
20.000000 
20.000000 
20.000000 
20.000000 
20.000000 
20.000000 
20.000000 
20.000000 
20.000000 
20.000000 
20.000000 
20.000000 
20.000000 
20.000000 
20.000000 
20.000000 
20.000000 
20.000000 
20.000000 
20.000000 
20.000000 
20.000000 
20.000000 
20.000000 
20.000000 
20.000000 
20.000000 
20.000000 
20.000000 
20.000000 
20.000000 
20.000000 
20.000000 
20.000000 
20.000000 
20.000000 
20.000000 
20.000000 
20.000000 
20.000000 
20.000000 
20.000000 
20.000000 
20.000000 
20.000000 
20.000000 
20.000000 
20.000000 
20.000000 
20.000000 
20.000000 
20.000000 
20.000000 
20.000000 
20.000000 
20.000000 
20.000000 
20.000000 
20.000000 
20.000000 
20.000000 
20.000000 
20.000000 
20.000000 
20.000000 
20.000000 
20.000000 
20.000000 
20.000000 
20.000000 
20.000000 
20.000000 
20.000000 
20.000000 
20.000000 
20.000000 
20.000000 
20.000000 
20.000000 
20.000000 
20.000000 
20.000000 
20.000000 
20.000000 
20.000000 
20.000000 
20.000000 
20.000000 
20.000000 
20.000000 
20.000000 
20.000000 
20.000000 
20.000000 
20.000000 
20.000000 
20.000000 
20.000000 
20.000000 
20.000000 
20.000000 
20.000000 
20.000000 
SCALARS ELEM_i float 
LOOKUP_TABLE default 
180 
207 
180 
181 
208 
208 
208 
181 
181 
235 
208 
209 
208 
209 
182 
182 
236 
236 
236 
209 
209 
209 
210 
182 
183 
180 
206 
207 
207 
233 
207 
234 
207 
207 
233 
233 
234 
234 
234 
235 
235 
260 
260 
261 
261 
261 
261 
262 
235 
235 
179 
206 
206 
206 
205 
205 
205 
206 
233 
204 
205 
232 
232 
232 
233 
233 
204 
231 
231 
231 
232 
232 
259 
259 
260 
179 
178 
179 
178 
151 
178 
178 
178 
205 
150 
150 
177 
177 
177 
204 
204 
150 
150 
149 
177 
176 
177 
203 
204 
204 
179 
152 
152 
152 
125 
152 
151 
151 
151 
125 
125 
124 
124 
124 
151 
150 
98 
97 
97 
124 
124 
123 
123 
123 
150 
180 
153 
153 
152 
153 
153 
126 
153 
125 
127 
127 
126 
126 
126 
125 
125 
127 
127 
100 
99 
99 
99 
99 
98 
98 
180 
181 
180 
153 
181 
181 
154 
154 
154 
182 
182 
155 
154 
155 
154 
127 
183 
182 
156 
155 
155 
155 
128 
128 
128 
VECTORS VELOCITY float 
0.000000 -2.567866 0.000000 
-0.000000 -2.567866 0.000000 
0.000000 -2.567866 0.000000 
-0.000000 -2.567866 0.000000 
-0.000000 -2.567866 0.000000 
-0.000000 -2.567866 0.000000 
-0.000000 -2.567866 0.000000 
-0.000000 -2.567866 0.000000 
-0.000000 -2.567866 0.000000 
-0.000000 -2.567866 0.000000 
-0.000000 -2.567866 0.000000 
-0.000000 -2.567866 0.000000 
-0.000000 -2.567866 0.000000 
0.000000 -2.567866 0.000000 
0.000000 -2.567866 0.000000 
0.000000 -2.567866 0.000000 
0.000000 -2.567866 0.000000 
-0.000000 -2.567866 0.000000 
0.000000 -2.567866 0.000000 
0.000000 -2.567866 0.000000 
0.000000 -2.567866 0.000000 
0.000000 -2.567866 0.000000 
0.000000 -2.567866 0.000000 
0.000000 -2.567866 0.000000 
0.000000 -2.567866 0.000000 
0.000000 -2.567866 0.000000 
0.000000 -2.567866 0.000000 
0.000000 -2.567866 0.000000 
0.000000 -2.567866 0.000000 
0.000000 -2.567866 0.000000 
0.000000 -2.567866 0.000000 
-0.000000 -2.567866 0.000000 
-0.000000 -2.567866 0.000000 
-0.000000 -2.567866 0.000000 
-0.000000 -2.567866 0.000000 
-0.000000 -2.567866 0.000000 
-0.000000 -2.567866 0.000000 
-0.000000 -2.567866 0.000000 
0.000000 -2.567866 0.000000 
0.000000 -2.567866 0.000000 
0.000000 -2.567866 0.000000 
0.000000 -2.567866 0.000000 
-0.000000 -2.567866 0.000000 
-0.000000 -2.567866 0.000000 
-0.000000 -2.567866 0.000000 
-0.000000 -2.567866 0.000000 
0.000000 -2.567866 0.000000 
-0.000000 -2.567866 0.000000 
0.000000 -2.567866 0.000000 
0.000000 -2.567866 0.000000 
-0.000000 -2.567866 0.000000 
-0.000000 -2.567866 0.000000 
-0.000000 -2.567866 0.000000 
-0.000000 -2.567866 0.000000 
-0.000000 -2.567866 0.000000 
-0.000000 -2.567866 0.000000 
0.000000 -2.567866 0.000000 
0.000000 -2.567866 0.000000 
0.000000 -2.567866 0.000000 
0.000000 -2.567866 0.000000 
0.000000 -2.567866 0.000000 
0.000000 -2.567866 0.000000 
0.000000 -2.567866 0.000000 
-0.000000 -2.567866 0.000000 
0.000000 -2.567866 0.000000 
-0.000000 -2.567866 0.000000 
-0.000000 -2.567866 0.000000 
-0.000000 -2.567866 0.000000 
-0.000000 -2.567866 0.000000 
-0.000000 -2.567866 0.000000 
-0.000000 -2.567866 0.000000 
-0.000000 -2.567866 0.000000 
-0.000000 -2.567866 0.000000 
0.000000 -2.567866 0.000000 
0.000000 -2.567866 0.000000 
-0.000000 -2.567866 0.000000 
0.000000 -2.567866 0.000000 
-0.000000 -2.567866 0.000000 
-0.000000 -2.567866 0.000000 
-0.000000 -2.567866 0.000000 
-0.000000 -2.567866 0.000000 
-0.000000 -2.567866 0.000000 
-0.000000 -2.567866 0.000000 
-0.000000 -2.567866 0.000000 
-0.000000 -2.567866 0.000000 
-0.000000 -2.567866 0.000000 
-0.000000 -2.567866 0.000000 
-0.000000 -2.567866 0.000000 
0.000000 -2.567866 0.000000 
-0.000000 -2.567866 0.000000 
0.000000 -2.567866 0.000000 
-0.000000 -2.567866 0.000000 
-0.000000 -2.567866 0.000000 
-0.000000 -2.567866 0.000000 
0.000000 -2.567866 0.000000 
0.000000 -2.567866 0.000000 
0.000000 -2.567866 0.000000 
0.000000 -2.567866 0.000000 
0.000000 -2.567866 0.000000 
-0.000000 -2.567866 0.000000 
0.000000 -2.567866 0.000000 
0.000000 -2.567866 0.000000 
0.000000 -2.567866 0.000000 
0.000000 -2.567866 0.000000 
0.000000 -2.567866 0.000000 
0.000000 -2.567866 0.000000 
0.000000 -2.567866 0.000000 
0.000000 -2.567866 0.000000 
-0.000000 -2.567866 0.000000 
0.000000 -2.567866 0.000000 
0.000000 -2.567866 0.000000 
0.000000 -2.567866 0.000000 
-0.000000 -2.567866 0.000000 
-0.000000 -2.567866 0.000000 
-0.000000 -2.567866 0.000000 
-0.000000 -2.567866 0.000000 
0.000000 -2.567866 0.000000 
0.000000 -2.567866 0.000000 
-0.000000 -2.567866 0.000000 
-0.000000 -2.567866 0.000000 
-0.000000 -2.567866 0.000000 
-0.000000 -2.567866 0.000000 
0.000000 -2.567866 0.000000 
-0.000000 -2.567866 0.000000 
-0.000000 -2.567866 0.000000 
0.000000 -2.567866 0.000000 
-0.000000 -2.567866 0.000000 
0.000000 -2.567866 0.000000 
0.000000 -2.567866 0.000000 
0.000000 -2.567866 0.000000 
-0.000000 -2.567866 0.000000 
-0.000000 -2.567866 0.000000 
-0.000000 -2.567866 0.000000 
0.000000 -2.567866 0.000000 
0.000000 -2.567866 0.000000 
0.000000 -2.567866 0.000000 
0.000000 -2.567866 0.000000 
-0.000000 -2.567866 0.000000 
-0.000000 -2.567866 0.000000 
-0.000000 -2.567866 0.000000 
-0.000000 -2.567866 0.000000 
0.000000 -2.567866 0.000000 
0.000000 -2.567866 0.000000 
0.000000 -2.567866 0.000000 
0.000000 -2.567866 0.000000 
-0.000000 -2.567866 0.000000 
0.000000 -2.567866 0.000000 
0.000000 -2.567866 0.000000 
-0.000000 -2.567866 0.000000 
-0.000000 -2.567866 0.000000 
0.000000 -2.567866 0.000000 
-0.000000 -2.567866 0.000000 
-0.000000 -2.567866 0.000000 
-0.000000 -2.567866 0.000000 
-0.000000 -2.567866 0.000000 
-0.000000 -2.567866 0.000000 
0.000000 -2.567866 0.000000 
0.000000 -2.567866 0.000000 
0.000000 -2.567866 0.000000 
0.000000 -2.567866 0.000000 
0.000000 -2.567866 0.000000 
0.000000 -2.567866 0.000000 
0.000000 -2.567866 0.000000 
-0.000000 -2.567866 0.000000 
0.000000 -2.567866 0.000000 
0.000000 -2.567866 0.000000 
-0.000000 -2.567866 0.000000 
0.000000 -2.567866 0.000000 
-0.000000 -2.567866 0.000000 
-0.000000 -2.567866 0.000000 
-0.000000 -2.567866 0.000000 
-0.000000 -2.567866 0.000000 
0.000000 -2.567866 0.000000 
0.000000 -2.567866 0.000000 
0.000000 -2.567866 0.000000 
TENSORS STRESS float 
0.000000 -0.000000 0.000000 
0.000000 0.000000 0.000000 
0.000000 0.000000 0.000000 

0.000000 0.000000 0.000000 
0.000000 0.000000 0.000000 
0.000000 0.000000 0.000000 

0.000000 0.000000 0.000000 
0.000000 0.000000 0.000000 
0.000000 0.000000 0.000000 

-0.000000 0.000000 0.000000 
0.000000 -0.000000 0.000000 
0.000000 0.000000 0.000000 

-0.000000 0.000000 0.000000 
0.000000 -0.000000 0.000000 
0.000000 0.000000 0.000000 

-0.000000 0.000000 0.000000 
0.000000 -0.000000 0.000000 
0.000000 0.000000 0.000000 

-0.000000 0.000000 0.000000 
0.000000 -0.000000 0.000000 
0.000000 0.000000 0.000000 

-0.000000 -0.000000 0.000000 
0.000000 -0.000000 0.000000 
0.000000 0.000000 0.000000 

-0.000000 -0.000000 0.000000 
0.000000 -0.000000 0.000000 
0.000000 0.000000 0.000000 

-0.000000 -0.000000 0.000000 
0.000000 -0.000000 0.000000 
0.000000 0.000000 0.000000 

-0.000000 -0.000000 0.000000 
0.000000 -0.000000 0.000000 
0.000000 0.000000 0.000000 

0.000000 0.000000 0.000000 
0.000000 -0.000000 0.000000 
0.000000 0.000000 0.000000 

0.000000 0.000000 0.000000 
0.000000 -0.000000 0.000000 
0.000000 0.000000 0.000000 

0.000000 0.000000 0.000000 
0.000000 0.000000 0.000000 
0.000000 0.000000 0.000000 

0.000000 0.000000 0.000000 
0.000000 0.000000 0.000000 
0.000000 0.000000 0.000000 

0.000000 -0.000000 0.000000 
0.000000 -0.000000 0.000000 
0.000000 0.000000 0.000000 

0.000000 -0.000000 0.000000 
0.000000 0.000000 0.000000 
0.000000 0.000000 0.000000 

0.000000 -0.000000 0.000000 
0.000000 -0.000000 0.000000 
0.000000 0.000000 0.000000 

-0.000000 -0.000000 0.000000 
0.000000 -0.000000 0.000000 
0.000000 0.000000 0.000000 

0.000000 0.000000 0.000000 
0.000000 0.000000 0.000000 
0.000000 0.000000 0.000000 

-0.000000 0.000000 0.000000 
0.000000 -0.000000 0.000000 
0.000000 0.000000 0.000000 

0.000000 -0.000000 0.000000 
0.000000 -0.000000 0.000000 
0.000000 0.000000 0.000000 

-0.000000 0.000000 0.000000 
0.000000 -0.000000 0.000000 
0.000000 0.000000 0.000000 

-0.000000 0.000000 0.000000 
0.000000 -0.000000 0.000000 
0.000000 0.000000 0.000000 

0.000000 -0.000000 0.000000 
0.000000 0.000000 0.000000 
0.000000 0.000000 0.000000 

0.000000 0.000000 0.000000 
0.000000 0.000000 0.000000 
0.000000 0.000000 0.000000 

-0.000000 0.000000 0.000000 
0.000000 0.000000 0.000000 
0.000000 0.000000 0.000000 

-0.000000 -0.000000 0.000000 
0.000000 -0.000000 0.000000 
0.000000 0.000000 0.000000 

-0.000000 0.000000 0.000000 
0.000000 -0.000000 0.000000 
0.000000 0.000000 0.000000 

-0.000000 0.000000 0.000000 
0.000000 -0.000000 0.000000 
0.000000 0.000000 0.000000 

-0.000000 -0.000000 0.000000 
0.000000 -0.000000 0.000000 
0.000000 0.000000 0.000000 

-0.000000 -0.000000 0.000000 
0.000000 -0.000000 0.000000 
0.000000 0.000000 0.000000 

-0.000000 -0.000000 0.000000 
0.000000 -0.000000 0.000000 
0.000000 0.000000 0.000000 

-0.000000 0.000000 0.000000 
0.000000 0.000000 0.000000 
0.000000 0.000000 0.000000 

-0.000000 -0.000000 0.000000 
0.000000 -0.000000 0.000000 
0.000000 0.000000 0.000000 

-0.000000 0.000000 0.000000 
0.000000 -0.000000 0.000000 
0.000000 0.000000 0.000000 

-0.000000 -0.000000 0.000000 
0.000000 -0.000000 0.000000 
0.000000 0.000000 0.000000 

-0.000000 0.000000 0.000000 
0.000000 -0.000000 0.000000 
0.000000 0.000000 0.000000 

-0.000000 -0.000000 0.000000 
0.000000 -0.000000 0.000000 
0.000000 0.000000 0.000000 

-0.000000 -0.000000 0.000000 
0.000000 -0.000000 0.000000 
0.000000 0.000000 0.000000 

-0.000000 -0.000000 0.000000 
0.000000 0.000000 0.000000 
0.000000 0.000000 0.000000 

0.000000 0.000000 0.000000 
0.000000 -0.000000 0.000000 
0.000000 0.000000 0.000000 

-0.000000 0.000000 0.000000 
0.000000 -0.000000 0.000000 
0.000000 0.000000 0.000000 

-0.000000 0.000000 0.000000 
0.000000 -0.000000 0.000000 
0.000000 0.000000 0.000000 

0.000000 0.000000 0.000000 
0.000000 0.000000 0.000000 
0.000000 0.000000 0.000000 

-0.000000 0.000000 0.000000 
0.000000 -0.000000 0.000000 
0.000000 0.000000 0.000000 

-0.000000 0.000000 0.000000 
0.000000 -0.000000 0.000000 
0.000000 0.000000 0.000000 

-0.000000 -0.000000 0.000000 
0.000000 0.000000 0.000000 
0.000000 0.000000 0.000000 

0.000000 -0.000000 0.000000 
0.000000 0.000000 0.000000 
0.000000 0.000000 0.000000 

-0.000000 -0.000000 0.000000 
0.000000 -0.000000 0.000000 
0.000000 0.000000 0.000000 

0.000000 -0.000000 0.000000 
0.000000 0.000000 0.000000 
0.000000 0.000000 0.000000 

0.000000 -0.000000 0.000000 
0.000000 0.000000 0.000000 
0.000000 0.000000 0.000000 

-0.000000 0.000000 0.000000 
0.000000 0.000000 0.000000 
0.000000 0.000000 0.000000 

-0.000000 0.000000 0.000000 
0.000000 0.000000 0.000000 
0.000000 0.000000 0.000000 

-0.000000 -0.000000 0.000000 
0.000000 -0.000000 0.000000 
0.000000 0.000000 0.000000 

-0.000000 0.000000 0.000000 
0.000000 -0.000000 0.000000 
0.000000 0.000000 0.000000 

0.000000 -0.000000 0.000000 
0.000000 0.000000 0.000000 
0.000000 0.000000 0.000000 

-0.000000 -0.000000 0.000000 
0.000000 0.000000 0.000000 
0.000000 0.000000 0.000000 

-0.000000 0.000000 0.000000 
0.000000 0.000000 0.000000 
0.000000 0.000000 0.000000 

0.000000 -0.000000 0.000000 
0.000000 0.000000 0.000000 
0.000000 0.000000 0.000000 

0.000000 -0.000000 0.000000 
0.000000 -0.000000 0.000000 
0.000000 0.000000 0.000000 

-0.000000 -0.000000 0.000000 
0.000000 -0.000000 0.000000 
0.000000 0.000000 0.000000 

-0.000000 -0.000000 0.000000 
0.000000 -0.000000 0.000000 
0.000000 0.000000 0.000000 

-0.000000 0.000000 0.000000 
0.000000 -0.000000 0.000000 
0.000000 0.000000 0.000000 

-0.000000 -0.000000 0.000000 
0.000000 -0.000000 0.000000 
0.000000 0.000000 0.000000 

0.000000 -0.000000 0.000000 
0.000000 0.000000 0.000000 
0.000000 0.000000 0.000000 

-0.000000 -0.000000 0.000000 
0.000000 0.000000 0.000000 
0.000000 0.000000 0.000000 

-0.000000 0.000000 0.000000 
0.000000 -0.000000 0.000000 
0.000000 0.000000 0.000000 

-0.000000 0.000000 0.000000 
0.000000 0.000000 0.000000 
0.000000 0.000000 0.000000 

-0.000000 -0.000000 0.000000 
0.000000 -0.000000 0.000000 
0.000000 0.000000 0.000000 

-0.000000 -0.000000 0.000000 
0.000000 -0.000000 0.000000 
0.000000 0.000000 0.000000 

-0.000000 0.000000 0.000000 
0.000000 -0.000000 0.000000 
0.000000 0.000000 0.000000 

-0.000000 -0.000000 0.000000 
0.000000 0.000000 0.000000 
0.000000 0.000000 0.000000 

0.000000 0.000000 0.000000 
0.000000 -0.000000 0.000000 
0.000000 0.000000 0.000000 

0.000000 0.000000 0.000000 
0.000000 0.000000 0.000000 
0.000000 0.000000 0.000000 

0.000000 -0.000000 0.000000 
0.000000 -0.000000 0.000000 
0.000000 0.000000 0.000000 

0.000000 0.000000 0.000000 
0.000000 0.000000 0.000000 
0.000000 0.000000 0.000000 

0.000000 0.000000 0.000000 
0.000000 0.000000 0.000000 
0.000000 0.000000 0.000000 

0.000000 0.000000 0.000000 
0.000000 0.000000 0.000000 
0.000000 0.000000 0.000000 

-0.000000 -0.000000 0.000000 
0.000000 -0.000000 0.000000 
0.000000 0.000000 0.000000 

0.000000 0.000000 0.000000 
0.000000 0.000000 0.000000 
0.000000 0.000000 0.000000 

-0.000000 0.000000 0.000000 
0.000000 -0.000000 0.000000 
0.000000 0.000000 0.000000 

-0.000000 0.000000 0.000000 
0.000000 -0.000000 0.000000 
0.000000 0.000000 0.000000 

0.000000 -0.000000 0.000000 
0.000000 0.000000 0.000000 
0.000000 0.000000 0.000000 

-0.000000 0.000000 0.000000 
0.000000 0.000000 0.000000 
0.000000 0.000000 0.000000 

-0.000000 -0.000000 0.000000 
0.000000 -0.000000 0.000000 
0.000000 0.000000 0.000000 

0.000000 -0.000000 0.000000 
0.000000 -0.000000 0.000000 
0.000000 0.000000 0.000000 

-0.000000 -0.000000 0.000000 
0.000000 -0.000000 0.000000 
0.000000 0.000000 0.000000 

0.000000 -0.000000 0.000000 
0.000000 0.000000 0.000000 
0.000000 0.000000 0.000000 

0.000000 0.000000 0.000000 
0.000000 0.000000 0.000000 
0.000000 0.000000 0.000000 

-0.000000 0.000000 0.000000 
0.000000 -0.000000 0.000000 
0.000000 0.000000 0.000000 

-0.000000 0.000000 0.000000 
0.000000 -0.000000 0.000000 
0.000000 0.000000 0.000000 

-0.000000 0.000000 0.000000 
0.000000 -0.000000 0.000000 
0.000000 0.000000 0.000000 

0.000000 0.000000 0.000000 
0.000000 0.000000 0.000000 
0.000000 0.000000 0.000000 

0.000000 -0.000000 0.000000 
0.000000 -0.000000 0.000000 
0.000000 0.000000 0.000000 

-0.000000 -0.000000 0.000000 
0.000000 -0.000000 0.000000 
0.000000 0.000000 0.000000 

0.000000 0.000000 0.000000 
0.000000 0.000000 0.000000 
0.000000 0.000000 0.000000 

-0.000000 -0.000000 0.000000 
0.000000 -0.000000 0.000000 
0.000000 0.000000 0.000000 

-0.000000 -0.000000 0.000000 
0.000000 0.000000 0.000000 
0.000000 0.000000 0.000000 

-0.000000 0.000000 0.000000 
0.000000 -0.000000 0.000000 
0.000000 0.000000 0.000000 

0.000000 0.000000 0.000000 
0.000000 -0.000000 0.000000 
0.000000 0.000000 0.000000 

-0.000000 -0.000000 0.000000 
0.000000 -0.000000 0.000000 
0.000000 0.000000 0.000000 

-0.000000 -0.000000 0.000000 
0.000000 -0.000000 0.000000 
0.000000 0.000000 0.000000 

0.000000 0.000000 0.000000 
0.000000 0.000000 0.000000 
0.000000 0.000000 0.000000 

-0.000000 -0.000000 0.000000 
0.000000 -0.000000 0.000000 
0.000000 0.000000 0.000000 

-0.000000 0.000000 0.000000 
0.000000 -0.000000 0.000000 
0.000000 0.000000 0.000000 

-0.000000 0.000000 0.000000 
0.000000 0.000000 0.000000 
0.000000 0.000000 0.000000 

-0.000000 -0.000000 0.000000 
0.000000 0.000000 0.000000 
0.000000 0.000000 0.000000 

0.000000 0.000000 0.000000 
0.000000 0.000000 0.000000 
0.000000 0.000000 0.000000 

-0.000000 0.000000 0.000000 
0.000000 -0.000000 0.000000 
0.000000 0.000000 0.000000 

-0.000000 0.000000 0.000000 
0.000000 -0.000000 0.000000 
0.000000 0.000000 0.000000 

0.000000 0.000000 0.000000 
0.000000 0.000000 0.000000 
0.000000 0.000000 0.000000 

0.000000 0.000000 0.000000 
0.000000 0.000000 0.000000 
0.000000 0.000000 0.000000 

-0.000000 0.000000 0.000000 
0.000000 -0.000000 0.000000 
0.000000 0.000000 0.000000 

0.000000 0.000000 0.000000 
0.000000 0.000000 0.000000 
0.000000 0.000000 0.000000 

-0.000000 -0.000000 0.000000 
0.000000 -0.000000 0.000000 
0.000000 0.000000 0.000000 

-0.000000 -0.000000 0.000000 
0.000000 0.000000 0.000000 
0.000000 0.000000 0.000000 

-0.000000 -0.000000 0.000000 
0.000000 0.000000 0.000000 
0.000000 0.000000 0.000000 

0.000000 -0.000000 0.000000 
0.000000 0.000000 0.000000 
0.000000 0.000000 0.000000 

-0.000000 0.000000 0.000000 
0.000000 -0.000000 0.000000 
0.000000 0.000000 0.000000 

0.000000 0.000000 0.000000 
0.000000 0.000000 0.000000 
0.000000 0.000000 0.000000 

0.000000 -0.000000 0.000000 
0.000000 0.000000 0.000000 
0.000000 0.000000 0.000000 

0.000000 -0.000000 0.000000 
0.000000 -0.000000 0.000000 
0.000000 0.000000 0.000000 

0.000000 0.000000 0.000000 
0.000000 -0.000000 0.000000 
0.000000 0.000000 0.000000 

-0.000000 0.000000 0.000000 
0.000000 -0.000000 0.000000 
0.000000 0.000000 0.000000 

0.000000 -0.000000 0.000000 
0.000000 0.000000 0.000000 
0.000000 0.000000 0.000000 

-0.000000 -0.000000 0.000000 
0.000000 -0.000000 0.000000 
0.000000 0.000000 0.000000 

-0.000000 -0.000000 0.000000 
0.000000 0.000000 0.000000 
0.000000 0.000000 0.000000 

0.000000 -0.000000 0.000000 
0.000000 0.000000 0.000000 
0.000000 0.000000 0.000000 

-0.000000 -0.000000 0.000000 
0.000000 -0.000000 0.000000 
0.000000 0.000000 0.000000 

-0.000000 -0.000000 0.000000 
0.000000 0.000000 0.000000 
0.000000 0.000000 0.000000 

-0.000000 -0.000000 0.000000 
0.000000 -0.000000 0.000000 
0.000000 0.000000 0.000000 

0.000000 -0.000000 0.000000 
0.000000 0.000000 0.000000 
0.000000 0.000000 0.000000 

0.000000 0.000000 0.000000 
0.000000 0.000000 0.000000 
0.000000 0.000000 0.000000 

-0.000000 -0.000000 0.000000 
0.000000 -0.000000 0.000000 
0.000000 0.000000 0.000000 

0.000000 -0.000000 0.000000 
0.000000 -0.000000 0.000000 
0.000000 0.000000 0.000000 

0.000000 -0.000000 0.000000 
0.000000 -0.000000 0.000000 
0.000000 0.000000 0.000000 

0.000000 -0.000000 0.000000 
0.000000 -0.000000 0.000000 
0.000000 0.000000 0.000000 

0.000000 0.000000 0.000000 
0.000000 -0.000000 0.000000 
0.000000 0.000000 0.000000 

-0.000000 -0.000000 0.000000 
0.000000 -0.000000 0.000000 
0.000000 0.000000 0.000000 

-0.000000 -0.000000 0.000000 
0.000000 0.000000 0.000000 
0.000000 0.000000 0.000000 

-0.000000 -0.000000 0.000000 
0.000000 -0.000000 0.000000 
0.000000 0.000000 0.000000 

-0.000000 -0.000000 0.000000 
0.000000 -0.000000 0.000000 
0.000000 0.000000 0.000000 

-0.000000 0.000000 0.000000 
0.000000 -0.000000 0.000000 
0.000000 0.000000 0.000000 

-0.000000 0.000000 0.000000 
0.000000 0.000000 0.000000 
0.000000 0.000000 0.000000 

-0.000000 -0.000000 0.000000 
0.000000 -0.000000 0.000000 
0.000000 0.000000 0.000000 

-0.000000 0.000000 0.000000 
0.000000 -0.000000 0.000000 
0.000000 0.000000 0.000000 

-0.000000 0.000000 0.000000 
0.000000 -0.000000 0.000000 
0.000000 0.000000 0.000000 

-0.000000 0.000000 0.000000 
0.000000 -0.000000 0.000000 
0.000000 0.000000 0.000000 

0.000000 -0.000000 0.000000 
0.000000 0.000000 0.000000 
0.000000 0.000000 0.000000 

0.000000 -0.000000 0.000000 
0.000000 0.000000 0.000000 
0.000000 0.000000 0.000000 

-0.000000 -0.000000 0.000000 
0.000000 -0.000000 0.000000 
0.000000 0.000000 0.000000 

0.000000 -0.000000 0.000000 
0.000000 0.000000 0.000000 
0.000000 0.000000 0.000000 

-0.000000 0.000000 0.000000 
0.000000 -0.000000 0.000000 
0.000000 0.000000 0.000000 

0.000000 -0.000000 0.000000 
0.000000 0.000000 0.000000 
0.000000 0.000000 0.000000 

0.000000 0.000000 0.000000 
0.000000 0.000000 0.000000 
0.000000 0.000000 0.000000 

0.000000 0.000000 0.000000 
0.000000 -0.000000 0.000000 
0.000000 0.000000 0.000000 

-0.000000 0.000000 0.000000 
0.000000 -0.000000 0.000000 
0.000000 0.000000 0.000000 

0.000000 0.000000 0.000000 
0.000000 -0.000000 0.000000 
0.000000 0.000000 0.000000 

0.000000 0.000000 0.000000 
0.000000 -0.000000 0.000000 
0.000000 0.000000 0.000000 

0.000000 0.000000 0.000000 
0.000000 0.000000 0.000000 
0.000000 0.000000 0.000000 

-0.000000 -0.000000 0.000000 
0.000000 -0.000000 0.000000 
0.000000 0.000000 0.000000 

0.000000 -0.000000 0.000000 
0.000000 0.000000 0.000000 
0.000000 0.000000 0.000000 

-0.000000 -0.000000 0.000000 
0.000000 -0.000000 0.000000 
0.000000 0.000000 0.000000 

-0.000000 0.000000 0.000000 
0.000000 -0.000000 0.000000 
0.000000 0.000000 0.000000 

-0.000000 -0.000000 0.000000 
0.000000 -0.000000 0.000000 
0.000000 0.000000 0.000000 

-0.000000 -0.000000 0.000000 
0.000000 -0.000000 0.000000 
0.000000 0.000000 0.000000 

0.000000 0.000000 0.000000 
0.000000 0.000000 0.000000 
0.000000 0.000000 0.000000 

-0.000000 0.000000 0.000000 
0.000000 -0.000000 0.000000 
0.000000 0.000000 0.000000 

-0.000000 -0.000000 0.000000 
0.000000 -0.000000 0.000000 
0.000000 0.000000 0.000000 

-0.000000 -0.000000 0.000000 
0.000000 0.000000 0.000000 
0.000000 0.000000 0.000000 

-0.000000 -0.000000 0.000000 
0.000000 0.000000 0.000000 
0.000000 0.000000 0.000000 

0.000000 0.000000 0.000000 
0.000000 -0.000000 0.000000 
0.000000 0.000000 0.000000 

-0.000000 -0.000000 0.000000 
0.000000 -0.000000 0.000000 
0.000000 0.000000 0.000000 

0.000000 -0.000000 0.000000 
0.000000 0.000000 0.000000 
0.000000 0.000000 0.000000 

TENSORS STRAIN float 
0.000000 -0.000000 0.000000 
0.000000 -0.000000 0.000000 
0.000000 0.000000 0.000000 

-0.000000 0.000000 0.000000 
0.000000 0.000000 0.000000 
0.000000 0.000000 0.000000 

0.000000 0.000000 0.000000 
0.000000 0.000000 0.000000 
0.000000 0.000000 0.000000 

-0.000000 0.000000 0.000000 
0.000000 -0.000000 0.000000 
0.000000 0.000000 0.000000 

0.000000 0.000000 0.000000 
0.000000 -0.000000 0.000000 
0.000000 0.000000 0.000000 

0.000000 0.000000 0.000000 
0.000000 -0.000000 0.000000 
0.000000 0.000000 0.000000 

0.000000 0.000000 0.000000 
0.000000 -0.000000 0.000000 
0.000000 0.000000 0.000000 

-0.000000 -0.000000 0.000000 
0.000000 -0.000000 0.000000 
0.000000 0.000000 0.000000 

0.000000 -0.000000 0.000000 
0.000000 -0.000000 0.000000 
0.000000 0.000000 0.000000 

-0.000000 -0.000000 0.000000 
0.000000 -0.000000 0.000000 
0.000000 0.000000 0.000000 

0.000000 -0.000000 0.000000 
0.000000 -0.000000 0.000000 
0.000000 0.000000 0.000000 

0.000000 0.000000 0.000000 
0.000000 -0.000000 0.000000 
0.000000 0.000000 0.000000 

0.000000 0.000000 0.000000 
0.000000 -0.000000 0.000000 
0.000000 0.000000 0.000000 

0.000000 0.000000 0.000000 
0.000000 0.000000 0.000000 
0.000000 0.000000 0.000000 

0.000000 0.000000 0.000000 
0.000000 0.000000 0.000000 
0.000000 0.000000 0.000000 

0.000000 -0.000000 0.000000 
0.000000 -0.000000 0.000000 
0.000000 0.000000 0.000000 

0.000000 -0.000000 0.000000 
0.000000 0.000000 0.000000 
0.000000 0.000000 0.000000 

0.000000 -0.000000 0.000000 
0.000000 -0.000000 0.000000 
0.000000 0.000000 0.000000 

-0.000000 -0.000000 0.000000 
0.000000 -0.000000 0.000000 
0.000000 0.000000 0.000000 

0.000000 0.000000 0.000000 
0.000000 0.000000 0.000000 
0.000000 0.000000 0.000000 

0.000000 0.000000 0.000000 
0.000000 -0.000000 0.000000 
0.000000 0.000000 0.000000 

0.000000 -0.000000 0.000000 
0.000000 -0.000000 0.000000 
0.000000 0.000000 0.000000 

-0.000000 0.000000 0.000000 
0.000000 -0.000000 0.000000 
0.000000 0.000000 0.000000 

0.000000 0.000000 0.000000 
0.000000 -0.000000 0.000000 
0.000000 0.000000 0.000000 

0.000000 -0.000000 0.000000 
0.000000 0.000000 0.000000 
0.000000 0.000000 0.000000 

0.000000 0.000000 0.000000 
0.000000 -0.000000 0.000000 
0.000000 0.000000 0.000000 

-0.000000 0.000000 0.000000 
0.000000 0.000000 0.000000 
0.000000 0.000000 0.000000 

-0.000000 -0.000000 0.000000 
0.000000 0.000000 0.000000 
0.000000 0.000000 0.000000 

-0.000000 0.000000 0.000000 
0.000000 -0.000000 0.000000 
0.000000 0.000000 0.000000 

0.000000 0.000000 0.000000 
0.000000 -0.000000 0.000000 
0.000000 0.000000 0.000000 

-0.000000 -0.000000 0.000000 
0.000000 -0.000000 0.000000 
0.000000 0.000000 0.000000 

-0.000000 -0.000000 0.000000 
0.000000 -0.000000 0.000000 
0.000000 0.000000 0.000000 

-0.000000 -0.000000 0.000000 
0.000000 -0.000000 0.000000 
0.000000 0.000000 0.000000 

-0.000000 0.000000 0.000000 
0.000000 0.000000 0.000000 
0.000000 0.000000 0.000000 

-0.000000 -0.000000 0.000000 
0.000000 -0.000000 0.000000 
0.000000 0.000000 0.000000 

0.000000 0.000000 0.000000 
0.000000 -0.000000 0.000000 
0.000000 0.000000 0.000000 

-0.000000 -0.000000 0.000000 
0.000000 -0.000000 0.000000 
0.000000 0.000000 0.000000 

-0.000000 0.000000 0.000000 
0.000000 -0.000000 0.000000 
0.000000 0.000000 0.000000 

-0.000000 -0.000000 0.000000 
0.000000 0.000000 0.000000 
0.000000 0.000000 0.000000 

-0.000000 -0.000000 0.000000 
0.000000 0.000000 0.000000 
0.000000 0.000000 0.000000 

-0.000000 -0.000000 0.000000 
0.000000 0.000000 0.000000 
0.000000 0.000000 0.000000 

0.000000 0.000000 0.000000 
0.000000 -0.000000 0.000000 
0.000000 0.000000 0.000000 

0.000000 0.000000 0.000000 
0.000000 -0.000000 0.000000 
0.000000 0.000000 0.000000 

-0.000000 0.000000 0.000000 
0.000000 -0.000000 0.000000 
0.000000 0.000000 0.000000 

-0.000000 0.000000 0.000000 
0.000000 0.000000 0.000000 
0.000000 0.000000 0.000000 

-0.000000 0.000000 0.000000 
0.000000 -0.000000 0.000000 
0.000000 0.000000 0.000000 

-0.000000 0.000000 0.000000 
0.000000 0.000000 0.000000 
0.000000 0.000000 0.000000 

-0.000000 -0.000000 0.000000 
0.000000 0.000000 0.000000 
0.000000 0.000000 0.000000 

-0.000000 -0.000000 0.000000 
0.000000 0.000000 0.000000 
0.000000 0.000000 0.000000 

0.000000 -0.000000 0.000000 
0.000000 -0.000000 0.000000 
0.000000 0.000000 0.000000 

0.000000 -0.000000 0.000000 
0.000000 0.000000 0.000000 
0.000000 0.000000 0.000000 

-0.000000 -0.000000 0.000000 
0.000000 0.000000 0.000000 
0.000000 0.000000 0.000000 

-0.000000 0.000000 0.000000 
0.000000 0.000000 0.000000 
0.000000 0.000000 0.000000 

-0.000000 0.000000 0.000000 
0.000000 0.000000 0.000000 
0.000000 0.000000 0.000000 

0.000000 -0.000000 0.000000 
0.000000 -0.000000 0.000000 
0.000000 0.000000 0.000000 

0.000000 0.000000 0.000000 
0.000000 -0.000000 0.000000 
0.000000 0.000000 0.000000 

0.000000 -0.000000 0.000000 
0.000000 0.000000 0.000000 
0.000000 0.000000 0.000000 

-0.000000 -0.000000 0.000000 
0.000000 0.000000 0.000000 
0.000000 0.000000 0.000000 

-0.000000 0.000000 0.000000 
0.000000 0.000000 0.000000 
0.000000 0.000000 0.000000 

-0.000000 -0.000000 0.000000 
0.000000 0.000000 0.000000 
0.000000 0.000000 0.000000 

0.000000 -0.000000 0.000000 
0.000000 -0.000000 0.000000 
0.000000 0.000000 0.000000 

-0.000000 -0.000000 0.000000 
0.000000 -0.000000 0.000000 
0.000000 0.000000 0.000000 

-0.000000 -0.000000 0.000000 
0.000000 -0.000000 0.000000 
0.000000 0.000000 0.000000 

-0.000000 0.000000 0.000000 
0.000000 -0.000000 0.000000 
0.000000 0.000000 0.000000 

-0.000000 -0.000000 0.000000 
0.000000 0.000000 0.000000 
0.000000 0.000000 0.000000 

-0.000000 -0.000000 0.000000 
0.000000 0.000000 0.000000 
0.000000 0.000000 0.000000 

-0.000000 -0.000000 0.000000 
0.000000 0.000000 0.000000 
0.000000 0.000000 0.000000 

-0.000000 0.000000 0.000000 
0.000000 -0.000000 0.000000 
0.000000 0.000000 0.000000 

-0.000000 0.000000 0.000000 
0.000000 0.000000 0.000000 
0.000000 0.000000 0.000000 

-0.000000 -0.000000 0.000000 
0.000000 -0.000000 0.000000 
0.000000 0.000000 0.000000 

-0.000000 -0.000000 0.000000 
0.000000 -0.000000 0.000000 
0.000000 0.000000 0.000000 

-0.000000 0.000000 0.000000 
0.000000 -0.000000 0.000000 
0.000000 0.000000 0.000000 

-0.000000 -0.000000 0.000000 
0.000000 0.000000 0.000000 
0.000000 0.000000 0.000000 

0.000000 0.000000 0.000000 
0.000000 -0.000000 0.000000 
0.000000 0.000000 0.000000 

0.000000 0.000000 0.000000 
0.000000 0.000000 0.000000 
0.000000 0.000000 0.000000 

0.000000 -0.000000 0.000000 
0.000000 -0.000000 0.000000 
0.000000 0.000000 0.000000 

0.000000 0.000000 0.000000 
0.000000 0.000000 0.000000 
0.000000 0.000000 0.000000 

0.000000 0.000000 0.000000 
0.000000 0.000000 0.000000 
0.000000 0.000000 0.000000 

0.000000 0.000000 0.000000 
0.000000 0.000000 0.000000 
0.000000 0.000000 0.000000 

-0.000000 -0.000000 0.000000 
0.000000 -0.000000 0.000000 
0.000000 0.000000 0.000000 

-0.000000 0.000000 0.000000 
0.000000 0.000000 0.000000 
0.000000 0.000000 0.000000 

-0.000000 0.000000 0.000000 
0.000000 -0.000000 0.000000 
0.000000 0.000000 0.000000 

-0.000000 0.000000 0.000000 
0.000000 -0.000000 0.000000 
0.000000 0.000000 0.000000 

0.000000 -0.000000 0.000000 
0.000000 0.000000 0.000000 
0.000000 0.000000 0.000000 

-0.000000 0.000000 0.000000 
0.000000 0.000000 0.000000 
0.000000 0.000000 0.000000 

-0.000000 -0.000000 0.000000 
0.000000 -0.000000 0.000000 
0.000000 0.000000 0.000000 

0.000000 -0.000000 0.000000 
0.000000 -0.000000 0.000000 
0.000000 0.000000 0.000000 

0.000000 -0.000000 0.000000 
0.000000 -0.000000 0.000000 
0.000000 0.000000 0.000000 

0.000000 -0.000000 0.000000 
0.000000 0.000000 0.000000 
0.000000 0.000000 0.000000 

-0.000000 0.000000 0.000000 
0.000000 0.000000 0.000000 
0.000000 0.000000 0.000000 

-0.000000 0.000000 0.000000 
0.000000 -0.000000 0.000000 
0.000000 0.000000 0.000000 

-0.000000 0.000000 0.000000 
0.000000 -0.000000 0.000000 
0.000000 0.000000 0.000000 

-0.000000 0.000000 0.000000 
0.000000 -0.000000 0.000000 
0.000000 0.000000 0.000000 

0.000000 0.000000 0.000000 
0.000000 0.000000 0.000000 
0.000000 0.000000 0.000000 

0.000000 -0.000000 0.000000 
0.000000 -0.000000 0.000000 
0.000000 0.000000 0.000000 

0.000000 -0.000000 0.000000 
0.000000 -0.000000 0.000000 
0.000000 0.000000 0.000000 

0.000000 0.000000 0.000000 
0.000000 0.000000 0.000000 
0.000000 0.000000 0.000000 

-0.000000 -0.000000 0.000000 
0.000000 -0.000000 0.000000 
0.000000 0.000000 0.000000 

-0.000000 -0.000000 0.000000 
0.000000 0.000000 0.000000 
0.000000 0.000000 0.000000 

-0.000000 0.000000 0.000000 
0.000000 -0.000000 0.000000 
0.000000 0.000000 0.000000 

0.000000 0.000000 0.000000 
0.000000 -0.000000 0.000000 
0.000000 0.000000 0.000000 

0.000000 -0.000000 0.000000 
0.000000 -0.000000 0.000000 
0.000000 0.000000 0.000000 

-0.000000 -0.000000 0.000000 
0.000000 -0.000000 0.000000 
0.000000 0.000000 0.000000 

-0.000000 0.000000 0.000000 
0.000000 0.000000 0.000000 
0.000000 0.000000 0.000000 

-0.000000 -0.000000 0.000000 
0.000000 -0.000000 0.000000 
0.000000 0.000000 0.000000 

0.000000 0.000000 0.000000 
0.000000 -0.000000 0.000000 
0.000000 0.000000 0.000000 

-0.000000 0.000000 0.000000 
0.000000 0.000000 0.000000 
0.000000 0.000000 0.000000 

-0.000000 -0.000000 0.000000 
0.000000 0.000000 0.000000 
0.000000 0.000000 0.000000 

-0.000000 0.000000 0.000000 
0.000000 0.000000 0.000000 
0.000000 0.000000 0.000000 

-0.000000 0.000000 0.000000 
0.000000 -0.000000 0.000000 
0.000000 0.000000 0.000000 

-0.000000 0.000000 0.000000 
0.000000 0.000000 0.000000 
0.000000 0.000000 0.000000 

0.000000 0.000000 0.000000 
0.000000 0.000000 0.000000 
0.000000 0.000000 0.000000 

0.000000 0.000000 0.000000 
0.000000 -0.000000 0.000000 
0.000000 0.000000 0.000000 

0.000000 0.000000 0.000000 
0.000000 -0.000000 0.000000 
0.000000 0.000000 0.000000 

-0.000000 0.000000 0.000000 
0.000000 0.000000 0.000000 
0.000000 0.000000 0.000000 

-0.000000 -0.000000 0.000000 
0.000000 -0.000000 0.000000 
0.000000 0.000000 0.000000 

-0.000000 -0.000000 0.000000 
0.000000 0.000000 0.000000 
0.000000 0.000000 0.000000 

-0.000000 -0.000000 0.000000 
0.000000 0.000000 0.000000 
0.000000 0.000000 0.000000 

0.000000 -0.000000 0.000000 
0.000000 -0.000000 0.000000 
0.000000 0.000000 0.000000 

0.000000 0.000000 0.000000 
0.000000 -0.000000 0.000000 
0.000000 0.000000 0.000000 

0.000000 0.000000 0.000000 
0.000000 0.000000 0.000000 
0.000000 0.000000 0.000000 

0.000000 -0.000000 0.000000 
0.000000 0.000000 0.000000 
0.000000 0.000000 0.000000 

0.000000 -0.000000 0.000000 
0.000000 -0.000000 0.000000 
0.000000 0.000000 0.000000 

0.000000 0.000000 0.000000 
0.000000 -0.000000 0.000000 
0.000000 0.000000 0.000000 

-0.000000 0.000000 0.000000 
0.000000 0.000000 0.000000 
0.000000 0.000000 0.000000 

0.000000 -0.000000 0.000000 
0.000000 0.000000 0.000000 
0.000000 0.000000 0.000000 

-0.000000 -0.000000 0.000000 
0.000000 -0.000000 0.000000 
0.000000 0.000000 0.000000 

-0.000000 -0.000000 0.000000 
0.000000 0.000000 0.000000 
0.000000 0.000000 0.000000 

-0.000000 -0.000000 0.000000 
0.000000 0.000000 0.000000 
0.000000 0.000000 0.000000 

-0.000000 -0.000000 0.000000 
0.000000 -0.000000 0.000000 
0.000000 0.000000 0.000000 

-0.000000 -0.000000 0.000000 
0.000000 0.000000 0.000000 
0.000000 0.000000 0.000000 

0.000000 -0.000000 0.000000 
0.000000 -0.000000 0.000000 
0.000000 0.000000 0.000000 

-0.000000 -0.000000 0.000000 
0.000000 0.000000 0.000000 
0.000000 0.000000 0.000000 

-0.000000 0.000000 0.000000 
0.000000 0.000000 0.000000 
0.000000 0.000000 0.000000 

0.000000 -0.000000 0.000000 
0.000000 -0.000000 0.000000 
0.000000 0.000000 0.000000 

0.000000 -0.000000 0.000000 
0.000000 -0.000000 0.000000 
0.000000 0.000000 0.000000 

0.000000 -0.000000 0.000000 
0.000000 -0.000000 0.000000 
0.000000 0.000000 0.000000 

0.000000 -0.000000 0.000000 
0.000000 -0.000000 0.000000 
0.000000 0.000000 0.000000 

0.000000 0.000000 0.000000 
0.000000 -0.000000 0.000000 
0.000000 0.000000 0.000000 

-0.000000 -0.000000 0.000000 
0.000000 -0.000000 0.000000 
0.000000 0.000000 0.000000 

-0.000000 -0.000000 0.000000 
0.000000 0.000000 0.000000 
0.000000 0.000000 0.000000 

-0.000000 -0.000000 0.000000 
0.000000 -0.000000 0.000000 
0.000000 0.000000 0.000000 

0.000000 -0.000000 0.000000 
0.000000 -0.000000 0.000000 
0.000000 0.000000 0.000000 

0.000000 0.000000 0.000000 
0.000000 -0.000000 0.000000 
0.000000 0.000000 0.000000 

-0.000000 0.000000 0.000000 
0.000000 0.000000 0.000000 
0.000000 0.000000 0.000000 

-0.000000 -0.000000 0.000000 
0.000000 0.000000 0.000000 
0.000000 0.000000 0.000000 

-0.000000 0.000000 0.000000 
0.000000 0.000000 0.000000 
0.000000 0.000000 0.000000 

-0.000000 0.000000 0.000000 
0.000000 -0.000000 0.000000 
0.000000 0.000000 0.000000 

-0.000000 0.000000 0.000000 
0.000000 -0.000000 0.000000 
0.000000 0.000000 0.000000 

-0.000000 -0.000000 0.000000 
0.000000 0.000000 0.000000 
0.000000 0.000000 0.000000 

0.000000 -0.000000 0.000000 
0.000000 0.000000 0.000000 
0.000000 0.000000 0.000000 

-0.000000 -0.000000 0.000000 
0.000000 -0.000000 0.000000 
0.000000 0.000000 0.000000 

0.000000 -0.000000 0.000000 
0.000000 0.000000 0.000000 
0.000000 0.000000 0.000000 

-0.000000 0.000000 0.000000 
0.000000 -0.000000 0.000000 
0.000000 0.000000 0.000000 

0.000000 -0.000000 0.000000 
0.000000 -0.000000 0.000000 
0.000000 0.000000 0.000000 

-0.000000 0.000000 0.000000 
0.000000 0.000000 0.000000 
0.000000 0.000000 0.000000 

0.000000 0.000000 0.000000 
0.000000 -0.000000 0.000000 
0.000000 0.000000 0.000000 

0.000000 0.000000 0.000000 
0.000000 -0.000000 0.000000 
0.000000 0.000000 0.000000 

0.000000 0.000000 0.000000 
0.000000 -0.000000 0.000000 
0.000000 0.000000 0.000000 

0.000000 0.000000 0.000000 
0.000000 -0.000000 0.000000 
0.000000 0.000000 0.000000 

0.000000 0.000000 0.000000 
0.000000 -0.000000 0.000000 
0.000000 0.000000 0.000000 

-0.000000 -0.000000 0.000000 
0.000000 -0.000000 0.000000 
0.000000 0.000000 0.000000 

0.000000 -0.000000 0.000000 
0.000000 0.000000 0.000000 
0.000000 0.000000 0.000000 

0.000000 -0.000000 0.000000 
0.000000 -0.000000 0.000000 
0.000000 0.000000 0.000000 

0.000000 0.000000 0.000000 
0.000000 -0.000000 0.000000 
0.000000 0.000000 0.000000 

-0.000000 -0.000000 0.000000 
0.000000 -0.000000 0.000000 
0.000000 0.000000 0.000000 

0.000000 -0.000000 0.000000 
0.000000 -0.000000 0.000000 
0.000000 0.000000 0.000000 

0.000000 0.000000 0.000000 
0.000000 0.000000 0.000000 
0.000000 0.000000 0.000000 

-0.000000 0.000000 0.000000 
0.000000 -0.000000 0.000000 
0.000000 0.000000 0.000000 

-0.000000 -0.000000 0.000000 
0.000000 -0.000000 0.000000 
0.000000 0.000000 0.000000 

-0.000000 -0.000000 0.000000 
0.000000 0.000000 0.000000 
0.000000 0.000000 0.000000 

-0.000000 -0.000000 0.000000 
0.000000 0.000000 0.000000 
0.000000 0.000000 0.000000 

0.000000 0.000000 0.000000 
0.000000 -0.000000 0.000000 
0.000000 0.000000 0.000000 

-0.000000 -0.000000 0.000000 
0.000000 -0.000000 0.000000 
0.000000 0.000000 0.000000 

-0.000000 -0.000000 0.000000 
0.000000 0.000000 0.000000 
0.000000 0.000000 0.000000 

