# vtk DataFile Version 3.0 
vtk output 
ASCII 
DATASET UNSTRUCTURED_GRID 
POINTS 175 float 
-0.026061 -2.128588 0.000000 
-0.106992 -2.060532 0.000000 
-0.054870 -2.068765 0.000000 
-0.028809 -2.022881 0.000000 
-0.186430 -1.996457 0.000000 
-0.137056 -1.998983 0.000000 
-0.114311 -1.945336 0.000000 
-0.058186 -1.961001 0.000000 
-0.029377 -1.920824 0.000000 
-0.265318 -1.933301 0.000000 
-0.217198 -1.934101 0.000000 
-0.196633 -1.876804 0.000000 
-0.143120 -1.885513 0.000000 
-0.116563 -1.838244 0.000000 
-0.058945 -1.857890 0.000000 
-0.029568 -1.819770 0.000000 
-0.344206 -1.870145 0.000000 
-0.296791 -1.870138 0.000000 
-0.278030 -1.810195 0.000000 
-0.225992 -1.816062 0.000000 
-0.201664 -1.763945 0.000000 
-0.145749 -1.777419 0.000000 
-0.117890 -1.733076 0.000000 
-0.059328 -1.755782 0.000000 
-0.029759 -1.718716 0.000000 
-0.058559 -2.169338 0.000000 
-0.162226 -2.190181 0.000000 
-0.123292 -2.154563 0.000000 
-0.142917 -2.105580 0.000000 
-0.261851 -2.212337 0.000000 
-0.229092 -2.175310 0.000000 
-0.256854 -2.124079 0.000000 
-0.209613 -2.089966 0.000000 
-0.223062 -2.042392 0.000000 
-0.360414 -2.234638 0.000000 
-0.329787 -2.197515 0.000000 
-0.361761 -2.145713 0.000000 
-0.321587 -2.109304 0.000000 
-0.341985 -2.059070 0.000000 
-0.290702 -2.026271 0.000000 
-0.302189 -1.979536 0.000000 
-0.458977 -2.256938 0.000000 
-0.429420 -2.219863 0.000000 
-0.464588 -2.167821 0.000000 
-0.427556 -2.130794 0.000000 
-0.453135 -2.079279 0.000000 
-0.407738 -2.043964 0.000000 
-0.425037 -1.994536 0.000000 
-0.370772 -1.962907 0.000000 
-0.381315 -1.916679 0.000000 
-0.046960 -2.220154 0.000000 
-0.095301 -2.314200 0.000000 
-0.098873 -2.261552 0.000000 
-0.149405 -2.246355 0.000000 
-0.140093 -2.405904 0.000000 
-0.148617 -2.357205 0.000000 
-0.205981 -2.346968 0.000000 
-0.203197 -2.288765 0.000000 
-0.248777 -2.269618 0.000000 
-0.184111 -2.496867 0.000000 
-0.194039 -2.449776 0.000000 
-0.254475 -2.442477 0.000000 
-0.257893 -2.388367 0.000000 
-0.309886 -2.372994 0.000000 
-0.303554 -2.312449 0.000000 
-0.347255 -2.292291 0.000000 
-0.228129 -2.587831 0.000000 
-0.238687 -2.541606 0.000000 
-0.301302 -2.536654 0.000000 
-0.307162 -2.484616 0.000000 
-0.363386 -2.472495 0.000000 
-0.362692 -2.414983 0.000000 
-0.412122 -2.397690 0.000000 
-0.403017 -2.335543 0.000000 
-0.445733 -2.314964 0.000000 
-0.000000 -2.242769 0.000000 
0.043388 -2.339199 0.000000 
-0.000000 -2.309167 0.000000 
-0.043388 -2.339199 0.000000 
0.087158 -2.431396 0.000000 
0.043769 -2.407697 0.000000 
-0.000000 -2.446163 0.000000 
-0.043769 -2.407697 0.000000 
-0.087158 -2.431396 0.000000 
0.130831 -2.522526 0.000000 
0.087824 -2.500927 0.000000 
0.044436 -2.543626 0.000000 
-0.000000 -2.512561 0.000000 
-0.044436 -2.543626 0.000000 
-0.087824 -2.500927 0.000000 
-0.130831 -2.522526 0.000000 
0.174505 -2.613655 0.000000 
0.131782 -2.593089 0.000000 
0.088871 -2.638956 0.000000 
0.044532 -2.611092 0.000000 
-0.000000 -2.647492 0.000000 
-0.044532 -2.611092 0.000000 
-0.088871 -2.638956 0.000000 
-0.131782 -2.593089 0.000000 
-0.174505 -2.613655 0.000000 
0.046960 -2.220154 0.000000 
0.149405 -2.246355 0.000000 
0.098873 -2.261552 0.000000 
0.095301 -2.314200 0.000000 
0.248777 -2.269618 0.000000 
0.203197 -2.288765 0.000000 
0.205981 -2.346968 0.000000 
0.148617 -2.357205 0.000000 
0.140093 -2.405904 0.000000 
0.347255 -2.292291 0.000000 
0.303554 -2.312449 0.000000 
0.309886 -2.372994 0.000000 
0.257893 -2.388367 0.000000 
0.254475 -2.442477 0.000000 
0.194039 -2.449776 0.000000 
0.184111 -2.496867 0.000000 
0.445733 -2.314964 0.000000 
0.403017 -2.335543 0.000000 
0.412122 -2.397690 0.000000 
0.362692 -2.414983 0.000000 
0.363386 -2.472495 0.000000 
0.307162 -2.484616 0.000000 
0.301302 -2.536654 0.000000 
0.238687 -2.541606 0.000000 
0.228129 -2.587831 0.000000 
0.058559 -2.169338 0.000000 
0.142917 -2.105580 0.000000 
0.123292 -2.154563 0.000000 
0.162226 -2.190181 0.000000 
0.223062 -2.042392 0.000000 
0.209613 -2.089966 0.000000 
0.256854 -2.124079 0.000000 
0.229092 -2.175310 0.000000 
0.261851 -2.212337 0.000000 
0.302189 -1.979536 0.000000 
0.290702 -2.026271 0.000000 
0.341985 -2.059070 0.000000 
0.321587 -2.109304 0.000000 
0.361761 -2.145713 0.000000 
0.329787 -2.197515 0.000000 
0.360414 -2.234638 0.000000 
0.381315 -1.916679 0.000000 
0.370772 -1.962907 0.000000 
0.425037 -1.994536 0.000000 
0.407738 -2.043964 0.000000 
0.453135 -2.079279 0.000000 
0.427556 -2.130794 0.000000 
0.464588 -2.167821 0.000000 
0.429420 -2.219863 0.000000 
0.458977 -2.256938 0.000000 
0.026061 -2.128588 0.000000 
0.028809 -2.022881 0.000000 
0.054870 -2.068765 0.000000 
0.106992 -2.060532 0.000000 
0.029377 -1.920824 0.000000 
0.058186 -1.961001 0.000000 
0.114311 -1.945336 0.000000 
0.137056 -1.998983 0.000000 
0.186430 -1.996457 0.000000 
0.029568 -1.819770 0.000000 
0.058945 -1.857890 0.000000 
0.116563 -1.838244 0.000000 
0.143120 -1.885513 0.000000 
0.196633 -1.876804 0.000000 
0.217198 -1.934101 0.000000 
0.265318 -1.933301 0.000000 
0.029759 -1.718716 0.000000 
0.059328 -1.755782 0.000000 
0.117890 -1.733076 0.000000 
0.145749 -1.777419 0.000000 
0.201664 -1.763945 0.000000 
0.225992 -1.816062 0.000000 
0.278030 -1.810195 0.000000 
0.296791 -1.870138 0.000000 
0.344206 -1.870145 0.000000 
CELLS 175 350 
1 0 
1 1 
1 2 
1 3 
1 4 
1 5 
1 6 
1 7 
1 8 
1 9 
1 10 
1 11 
1 12 
1 13 
1 14 
1 15 
1 16 
1 17 
1 18 
1 19 
1 20 
1 21 
1 22 
1 23 
1 24 
1 25 
1 26 
1 27 
1 28 
1 29 
1 30 
1 31 
1 32 
1 33 
1 34 
1 35 
1 36 
1 37 
1 38 
1 39 
1 40 
1 41 
1 42 
1 43 
1 44 
1 45 
1 46 
1 47 
1 48 
1 49 
1 50 
1 51 
1 52 
1 53 
1 54 
1 55 
1 56 
1 57 
1 58 
1 59 
1 60 
1 61 
1 62 
1 63 
1 64 
1 65 
1 66 
1 67 
1 68 
1 69 
1 70 
1 71 
1 72 
1 73 
1 74 
1 75 
1 76 
1 77 
1 78 
1 79 
1 80 
1 81 
1 82 
1 83 
1 84 
1 85 
1 86 
1 87 
1 88 
1 89 
1 90 
1 91 
1 92 
1 93 
1 94 
1 95 
1 96 
1 97 
1 98 
1 99 
1 100 
1 101 
1 102 
1 103 
1 104 
1 105 
1 106 
1 107 
1 108 
1 109 
1 110 
1 111 
1 112 
1 113 
1 114 
1 115 
1 116 
1 117 
1 118 
1 119 
1 120 
1 121 
1 122 
1 123 
1 124 
1 125 
1 126 
1 127 
1 128 
1 129 
1 130 
1 131 
1 132 
1 133 
1 134 
1 135 
1 136 
1 137 
1 138 
1 139 
1 140 
1 141 
1 142 
1 143 
1 144 
1 145 
1 146 
1 147 
1 148 
1 149 
1 150 
1 151 
1 152 
1 153 
1 154 
1 155 
1 156 
1 157 
1 158 
1 159 
1 160 
1 161 
1 162 
1 163 
1 164 
1 165 
1 166 
1 167 
1 168 
1 169 
1 170 
1 171 
1 172 
1 173 
1 174 
CELL_TYPES 175 
1 
1 
1 
1 
1 
1 
1 
1 
1 
1 
1 
1 
1 
1 
1 
1 
1 
1 
1 
1 
1 
1 
1 
1 
1 
1 
1 
1 
1 
1 
1 
1 
1 
1 
1 
1 
1 
1 
1 
1 
1 
1 
1 
1 
1 
1 
1 
1 
1 
1 
1 
1 
1 
1 
1 
1 
1 
1 
1 
1 
1 
1 
1 
1 
1 
1 
1 
1 
1 
1 
1 
1 
1 
1 
1 
1 
1 
1 
1 
1 
1 
1 
1 
1 
1 
1 
1 
1 
1 
1 
1 
1 
1 
1 
1 
1 
1 
1 
1 
1 
1 
1 
1 
1 
1 
1 
1 
1 
1 
1 
1 
1 
1 
1 
1 
1 
1 
1 
1 
1 
1 
1 
1 
1 
1 
1 
1 
1 
1 
1 
1 
1 
1 
1 
1 
1 
1 
1 
1 
1 
1 
1 
1 
1 
1 
1 
1 
1 
1 
1 
1 
1 
1 
1 
1 
1 
1 
1 
1 
1 
1 
1 
1 
1 
1 
1 
1 
1 
1 
1 
1 
1 
1 
1 
1 
POINT_DATA 175 
VECTORS X_GC float 
-0.026061 -2.128588 0.000000 
-0.106992 -2.060532 0.000000 
-0.054870 -2.068765 0.000000 
-0.028809 -2.022881 0.000000 
-0.186430 -1.996457 0.000000 
-0.137056 -1.998983 0.000000 
-0.114311 -1.945336 0.000000 
-0.058186 -1.961001 0.000000 
-0.029377 -1.920824 0.000000 
-0.265318 -1.933301 0.000000 
-0.217198 -1.934101 0.000000 
-0.196633 -1.876804 0.000000 
-0.143120 -1.885513 0.000000 
-0.116563 -1.838244 0.000000 
-0.058945 -1.857890 0.000000 
-0.029568 -1.819770 0.000000 
-0.344206 -1.870145 0.000000 
-0.296791 -1.870138 0.000000 
-0.278030 -1.810195 0.000000 
-0.225992 -1.816062 0.000000 
-0.201664 -1.763945 0.000000 
-0.145749 -1.777419 0.000000 
-0.117890 -1.733076 0.000000 
-0.059328 -1.755782 0.000000 
-0.029759 -1.718716 0.000000 
-0.058559 -2.169338 0.000000 
-0.162226 -2.190181 0.000000 
-0.123292 -2.154563 0.000000 
-0.142917 -2.105580 0.000000 
-0.261851 -2.212337 0.000000 
-0.229092 -2.175310 0.000000 
-0.256854 -2.124079 0.000000 
-0.209613 -2.089966 0.000000 
-0.223062 -2.042392 0.000000 
-0.360414 -2.234638 0.000000 
-0.329787 -2.197515 0.000000 
-0.361761 -2.145713 0.000000 
-0.321587 -2.109304 0.000000 
-0.341985 -2.059070 0.000000 
-0.290702 -2.026271 0.000000 
-0.302189 -1.979536 0.000000 
-0.458977 -2.256938 0.000000 
-0.429420 -2.219863 0.000000 
-0.464588 -2.167821 0.000000 
-0.427556 -2.130794 0.000000 
-0.453135 -2.079279 0.000000 
-0.407738 -2.043964 0.000000 
-0.425037 -1.994536 0.000000 
-0.370772 -1.962907 0.000000 
-0.381315 -1.916679 0.000000 
-0.046960 -2.220154 0.000000 
-0.095301 -2.314200 0.000000 
-0.098873 -2.261552 0.000000 
-0.149405 -2.246355 0.000000 
-0.140093 -2.405904 0.000000 
-0.148617 -2.357205 0.000000 
-0.205981 -2.346968 0.000000 
-0.203197 -2.288765 0.000000 
-0.248777 -2.269618 0.000000 
-0.184111 -2.496867 0.000000 
-0.194039 -2.449776 0.000000 
-0.254475 -2.442477 0.000000 
-0.257893 -2.388367 0.000000 
-0.309886 -2.372994 0.000000 
-0.303554 -2.312449 0.000000 
-0.347255 -2.292291 0.000000 
-0.228129 -2.587831 0.000000 
-0.238687 -2.541606 0.000000 
-0.301302 -2.536654 0.000000 
-0.307162 -2.484616 0.000000 
-0.363386 -2.472495 0.000000 
-0.362692 -2.414983 0.000000 
-0.412122 -2.397690 0.000000 
-0.403017 -2.335543 0.000000 
-0.445733 -2.314964 0.000000 
-0.000000 -2.242769 0.000000 
0.043388 -2.339199 0.000000 
-0.000000 -2.309167 0.000000 
-0.043388 -2.339199 0.000000 
0.087158 -2.431396 0.000000 
0.043769 -2.407697 0.000000 
-0.000000 -2.446163 0.000000 
-0.043769 -2.407697 0.000000 
-0.087158 -2.431396 0.000000 
0.130831 -2.522526 0.000000 
0.087824 -2.500927 0.000000 
0.044436 -2.543626 0.000000 
-0.000000 -2.512561 0.000000 
-0.044436 -2.543626 0.000000 
-0.087824 -2.500927 0.000000 
-0.130831 -2.522526 0.000000 
0.174505 -2.613655 0.000000 
0.131782 -2.593089 0.000000 
0.088871 -2.638956 0.000000 
0.044532 -2.611092 0.000000 
-0.000000 -2.647492 0.000000 
-0.044532 -2.611092 0.000000 
-0.088871 -2.638956 0.000000 
-0.131782 -2.593089 0.000000 
-0.174505 -2.613655 0.000000 
0.046960 -2.220154 0.000000 
0.149405 -2.246355 0.000000 
0.098873 -2.261552 0.000000 
0.095301 -2.314200 0.000000 
0.248777 -2.269618 0.000000 
0.203197 -2.288765 0.000000 
0.205981 -2.346968 0.000000 
0.148617 -2.357205 0.000000 
0.140093 -2.405904 0.000000 
0.347255 -2.292291 0.000000 
0.303554 -2.312449 0.000000 
0.309886 -2.372994 0.000000 
0.257893 -2.388367 0.000000 
0.254475 -2.442477 0.000000 
0.194039 -2.449776 0.000000 
0.184111 -2.496867 0.000000 
0.445733 -2.314964 0.000000 
0.403017 -2.335543 0.000000 
0.412122 -2.397690 0.000000 
0.362692 -2.414983 0.000000 
0.363386 -2.472495 0.000000 
0.307162 -2.484616 0.000000 
0.301302 -2.536654 0.000000 
0.238687 -2.541606 0.000000 
0.228129 -2.587831 0.000000 
0.058559 -2.169338 0.000000 
0.142917 -2.105580 0.000000 
0.123292 -2.154563 0.000000 
0.162226 -2.190181 0.000000 
0.223062 -2.042392 0.000000 
0.209613 -2.089966 0.000000 
0.256854 -2.124079 0.000000 
0.229092 -2.175310 0.000000 
0.261851 -2.212337 0.000000 
0.302189 -1.979536 0.000000 
0.290702 -2.026271 0.000000 
0.341985 -2.059070 0.000000 
0.321587 -2.109304 0.000000 
0.361761 -2.145713 0.000000 
0.329787 -2.197515 0.000000 
0.360414 -2.234638 0.000000 
0.381315 -1.916679 0.000000 
0.370772 -1.962907 0.000000 
0.425037 -1.994536 0.000000 
0.407738 -2.043964 0.000000 
0.453135 -2.079279 0.000000 
0.427556 -2.130794 0.000000 
0.464588 -2.167821 0.000000 
0.429420 -2.219863 0.000000 
0.458977 -2.256938 0.000000 
0.026061 -2.128588 0.000000 
0.028809 -2.022881 0.000000 
0.054870 -2.068765 0.000000 
0.106992 -2.060532 0.000000 
0.029377 -1.920824 0.000000 
0.058186 -1.961001 0.000000 
0.114311 -1.945336 0.000000 
0.137056 -1.998983 0.000000 
0.186430 -1.996457 0.000000 
0.029568 -1.819770 0.000000 
0.058945 -1.857890 0.000000 
0.116563 -1.838244 0.000000 
0.143120 -1.885513 0.000000 
0.196633 -1.876804 0.000000 
0.217198 -1.934101 0.000000 
0.265318 -1.933301 0.000000 
0.029759 -1.718716 0.000000 
0.059328 -1.755782 0.000000 
0.117890 -1.733076 0.000000 
0.145749 -1.777419 0.000000 
0.201664 -1.763945 0.000000 
0.225992 -1.816062 0.000000 
0.278030 -1.810195 0.000000 
0.296791 -1.870138 0.000000 
0.344206 -1.870145 0.000000 
VECTORS X_EC float 
0.338794 -0.764066 0.000000 
-0.609100 0.317186 0.000000 
0.713312 0.428326 0.000000 
0.374519 -0.191103 0.000000 
0.423588 -0.547834 0.000000 
-0.218274 -0.513730 0.000000 
-0.513962 0.762031 0.000000 
0.756418 0.973517 0.000000 
0.381900 0.431125 0.000000 
-0.550868 0.599563 0.000000 
0.823577 0.610359 0.000000 
0.556234 -0.163145 0.000000 
-0.139443 -0.045577 0.000000 
-0.484677 -0.683701 0.000000 
0.766286 -0.418486 0.000000 
0.384386 -0.933106 0.000000 
0.474677 -0.253040 0.000000 
-0.141715 -0.253136 0.000000 
-0.385608 0.937635 0.000000 
0.937896 -0.983169 0.000000 
0.621631 0.313251 0.000000 
-0.105264 0.495150 0.000000 
-0.467428 -0.103476 0.000000 
0.771260 0.203052 0.000000 
0.386873 -0.297337 0.000000 
0.761262 -0.213932 0.000000 
0.108942 0.067445 0.000000 
-0.397202 -0.413394 0.000000 
-0.142083 0.925331 0.000000 
-0.595936 0.366556 0.000000 
0.978194 -0.133310 0.000000 
-0.660903 -0.824935 0.000000 
0.724964 0.714545 0.000000 
0.899809 0.072296 0.000000 
0.685384 0.667608 0.000000 
0.287229 0.166449 0.000000 
0.702895 -0.532879 0.000000 
0.180633 0.975602 0.000000 
0.445811 0.297443 0.000000 
-0.220880 -0.145343 0.000000 
-0.071546 -0.776269 0.000000 
-0.033296 0.968660 0.000000 
-0.417537 0.468150 0.000000 
0.039645 -0.234412 0.000000 
-0.441768 -0.734283 0.000000 
-0.109248 0.570266 0.000000 
-0.699407 0.093511 0.000000 
-0.474522 -0.573769 0.000000 
0.820030 0.999238 0.000000 
0.957100 0.375166 0.000000 
0.610485 0.472075 0.000000 
-0.761092 -0.258306 0.000000 
-0.714655 -0.969043 0.000000 
-0.057734 0.825789 0.000000 
-0.178789 0.979698 0.000000 
-0.067979 0.322272 0.000000 
0.677748 0.184069 0.000000 
0.641556 -0.601676 0.000000 
-0.765897 -0.860155 0.000000 
0.393446 0.207707 0.000000 
0.522510 -0.428023 0.000000 
-0.691820 -0.526567 0.000000 
-0.647393 0.742951 0.000000 
0.028512 0.535424 0.000000 
-0.053800 -0.281936 0.000000 
0.514316 -0.554067 0.000000 
0.965681 -0.564283 0.000000 
-0.897068 0.811688 0.000000 
-0.083078 0.744835 0.000000 
-0.006893 0.042310 0.000000 
0.724017 -0.121323 0.000000 
0.714996 -0.897726 0.000000 
-0.642413 0.868816 0.000000 
-0.760780 0.029836 0.000000 
-0.205471 -0.247980 0.000000 
0.000000 0.777376 0.000000 
-0.564049 0.079189 0.000000 
0.000000 -0.326247 0.000000 
0.564049 0.079189 0.000000 
0.866949 -0.676156 0.000000 
-0.569003 -0.996087 0.000000 
0.000000 -0.476798 0.000000 
0.569003 -0.996087 0.000000 
-0.866949 -0.676156 0.000000 
0.299194 0.554095 0.000000 
0.858290 0.262511 0.000000 
-0.577662 0.838957 0.000000 
0.000000 0.419578 0.000000 
0.577662 0.838957 0.000000 
-0.858290 0.262511 0.000000 
-0.299194 0.554095 0.000000 
-0.268560 -0.215655 0.000000 
0.286830 -0.493297 0.000000 
0.844677 0.125901 0.000000 
-0.578910 -0.250261 0.000000 
0.000000 0.241142 0.000000 
0.578910 -0.250261 0.000000 
-0.844677 0.125901 0.000000 
-0.286830 -0.493297 0.000000 
0.268560 -0.215655 0.000000 
-0.610485 0.472075 0.000000 
0.057734 0.825789 0.000000 
0.714655 -0.969043 0.000000 
0.761092 -0.258306 0.000000 
0.765897 -0.860155 0.000000 
-0.641556 -0.601676 0.000000 
-0.677748 0.184069 0.000000 
0.067979 0.322272 0.000000 
0.178789 0.979698 0.000000 
-0.514316 -0.554067 0.000000 
0.053800 -0.281936 0.000000 
-0.028512 0.535424 0.000000 
0.647393 0.742951 0.000000 
0.691820 -0.526567 0.000000 
-0.522510 -0.428022 0.000000 
-0.393446 0.207707 0.000000 
0.205471 -0.247980 0.000000 
0.760780 0.029836 0.000000 
0.642413 0.868816 0.000000 
-0.714996 -0.897726 0.000000 
-0.724017 -0.121323 0.000000 
0.006894 0.042310 0.000000 
0.083078 0.744835 0.000000 
0.897068 0.811688 0.000000 
-0.965681 -0.564283 0.000000 
-0.761262 -0.213932 0.000000 
0.142083 0.925331 0.000000 
0.397202 -0.413394 0.000000 
-0.108942 0.067445 0.000000 
-0.899809 0.072296 0.000000 
-0.724964 0.714545 0.000000 
0.660903 -0.824935 0.000000 
-0.978194 -0.133310 0.000000 
0.595936 0.366556 0.000000 
0.071546 -0.776269 0.000000 
0.220880 -0.145343 0.000000 
-0.445811 0.297443 0.000000 
-0.180633 0.975602 0.000000 
-0.702895 -0.532879 0.000000 
-0.287229 0.166449 0.000000 
-0.685384 0.667608 0.000000 
-0.957100 0.375166 0.000000 
-0.820030 0.999238 0.000000 
0.474522 -0.573769 0.000000 
0.699407 0.093511 0.000000 
0.109248 0.570266 0.000000 
0.441768 -0.734283 0.000000 
-0.039645 -0.234412 0.000000 
0.417537 0.468151 0.000000 
0.033296 0.968660 0.000000 
-0.338794 -0.764066 0.000000 
-0.374519 -0.191103 0.000000 
-0.713312 0.428326 0.000000 
0.609100 0.317186 0.000000 
-0.381900 0.431125 0.000000 
-0.756418 0.973517 0.000000 
0.513962 0.762031 0.000000 
0.218274 -0.513730 0.000000 
-0.423588 -0.547834 0.000000 
-0.384386 -0.933106 0.000000 
-0.766286 -0.418486 0.000000 
0.484677 -0.683701 0.000000 
0.139443 -0.045577 0.000000 
-0.556234 -0.163145 0.000000 
-0.823577 0.610359 0.000000 
0.550868 0.599563 0.000000 
-0.386873 -0.297337 0.000000 
-0.771260 0.203052 0.000000 
0.467428 -0.103476 0.000000 
0.105264 0.495150 0.000000 
-0.621631 0.313251 0.000000 
-0.937896 -0.983169 0.000000 
0.385608 0.937635 0.000000 
0.141715 -0.253136 0.000000 
-0.474677 -0.253040 0.000000 
CELL_DATA 175 
SCALARS MASS float 
LOOKUP_TABLE default 
0.078183 
0.086427 
0.094672 
0.086427 
0.088131 
0.092111 
0.085854 
0.092111 
0.088131 
0.088705 
0.091000 
0.086983 
0.091556 
0.086983 
0.091000 
0.088705 
0.089278 
0.091574 
0.089278 
0.092722 
0.089278 
0.092722 
0.089278 
0.091574 
0.089278 
0.078183 
0.086427 
0.094672 
0.086427 
0.088131 
0.092111 
0.085854 
0.092111 
0.088131 
0.088705 
0.091000 
0.086983 
0.091556 
0.086983 
0.091000 
0.088705 
0.089278 
0.091574 
0.089278 
0.092722 
0.089278 
0.092722 
0.089278 
0.091574 
0.089278 
0.078183 
0.086427 
0.094672 
0.086427 
0.088131 
0.092111 
0.085854 
0.092111 
0.088131 
0.088705 
0.091000 
0.086983 
0.091556 
0.086983 
0.091000 
0.088705 
0.089278 
0.091574 
0.089278 
0.092722 
0.089278 
0.092722 
0.089278 
0.091574 
0.089278 
0.078183 
0.086427 
0.094672 
0.086427 
0.088131 
0.092111 
0.085854 
0.092111 
0.088131 
0.088705 
0.091000 
0.086983 
0.091556 
0.086983 
0.091000 
0.088705 
0.089278 
0.091574 
0.089278 
0.092722 
0.089278 
0.092722 
0.089278 
0.091574 
0.089278 
0.078183 
0.086427 
0.094672 
0.086427 
0.088131 
0.092111 
0.085854 
0.092111 
0.088131 
0.088705 
0.091000 
0.086983 
0.091556 
0.086983 
0.091000 
0.088705 
0.089278 
0.091574 
0.089278 
0.092722 
0.089278 
0.092722 
0.089278 
0.091574 
0.089278 
0.078183 
0.086427 
0.094672 
0.086427 
0.088131 
0.092111 
0.085854 
0.092111 
0.088131 
0.088705 
0.091000 
0.086983 
0.091556 
0.086983 
0.091000 
0.088705 
0.089278 
0.091574 
0.089278 
0.092722 
0.089278 
0.092722 
0.089278 
0.091574 
0.089278 
0.078183 
0.086427 
0.094672 
0.086427 
0.088131 
0.092111 
0.085854 
0.092111 
0.088131 
0.088705 
0.091000 
0.086983 
0.091556 
0.086983 
0.091000 
0.088705 
0.089278 
0.091574 
0.089278 
0.092722 
0.089278 
0.092722 
0.089278 
0.091574 
0.089278 
SCALARS MASS float 
LOOKUP_TABLE default 
0.078183 
0.086427 
0.094672 
0.086427 
0.088131 
0.092111 
0.085854 
0.092111 
0.088131 
0.088705 
0.091000 
0.086983 
0.091556 
0.086983 
0.091000 
0.088705 
0.089278 
0.091574 
0.089278 
0.092722 
0.089278 
0.092722 
0.089278 
0.091574 
0.089278 
0.078183 
0.086427 
0.094672 
0.086427 
0.088131 
0.092111 
0.085854 
0.092111 
0.088131 
0.088705 
0.091000 
0.086983 
0.091556 
0.086983 
0.091000 
0.088705 
0.089278 
0.091574 
0.089278 
0.092722 
0.089278 
0.092722 
0.089278 
0.091574 
0.089278 
0.078183 
0.086427 
0.094672 
0.086427 
0.088131 
0.092111 
0.085854 
0.092111 
0.088131 
0.088705 
0.091000 
0.086983 
0.091556 
0.086983 
0.091000 
0.088705 
0.089278 
0.091574 
0.089278 
0.092722 
0.089278 
0.092722 
0.089278 
0.091574 
0.089278 
0.078183 
0.086427 
0.094672 
0.086427 
0.088131 
0.092111 
0.085854 
0.092111 
0.088131 
0.088705 
0.091000 
0.086983 
0.091556 
0.086983 
0.091000 
0.088705 
0.089278 
0.091574 
0.089278 
0.092722 
0.089278 
0.092722 
0.089278 
0.091574 
0.089278 
0.078183 
0.086427 
0.094672 
0.086427 
0.088131 
0.092111 
0.085854 
0.092111 
0.088131 
0.088705 
0.091000 
0.086983 
0.091556 
0.086983 
0.091000 
0.088705 
0.089278 
0.091574 
0.089278 
0.092722 
0.089278 
0.092722 
0.089278 
0.091574 
0.089278 
0.078183 
0.086427 
0.094672 
0.086427 
0.088131 
0.092111 
0.085854 
0.092111 
0.088131 
0.088705 
0.091000 
0.086983 
0.091556 
0.086983 
0.091000 
0.088705 
0.089278 
0.091574 
0.089278 
0.092722 
0.089278 
0.092722 
0.089278 
0.091574 
0.089278 
0.078183 
0.086427 
0.094672 
0.086427 
0.088131 
0.092111 
0.085854 
0.092111 
0.088131 
0.088705 
0.091000 
0.086983 
0.091556 
0.086983 
0.091000 
0.088705 
0.089278 
0.091574 
0.089278 
0.092722 
0.089278 
0.092722 
0.089278 
0.091574 
0.089278 
SCALARS DENSITY float 
LOOKUP_TABLE default 
20.000000 
20.000000 
20.000000 
20.000000 
20.000000 
20.000000 
20.000000 
20.000000 
20.000000 
20.000000 
20.000000 
20.000000 
20.000000 
20.000000 
20.000000 
20.000000 
20.000000 
20.000000 
20.000000 
20.000000 
20.000000 
20.000000 
20.000000 
20.000000 
20.000000 
20.000000 
20.000000 
20.000000 
20.000000 
20.000000 
20.000000 
20.000000 
20.000000 
20.000000 
20.000000 
20.000000 
20.000000 
20.000000 
20.000000 
20.000000 
20.000000 
20.000000 
20.000000 
20.000000 
20.000000 
20.000000 
20.000000 
20.000000 
20.000000 
20.000000 
20.000000 
20.000000 
20.000000 
20.000000 
20.000000 
20.000000 
20.000000 
20.000000 
20.000000 
20.000000 
20.000000 
20.000000 
20.000000 
20.000000 
20.000000 
20.000000 
20.000000 
20.000000 
20.000000 
20.000000 
20.000000 
20.000000 
20.000000 
20.000000 
20.000000 
20.000000 
20.000000 
20.000000 
20.000000 
20.000000 
20.000000 
20.000000 
20.000000 
20.000000 
20.000000 
20.000000 
20.000000 
20.000000 
20.000000 
20.000000 
20.000000 
20.000000 
20.000000 
20.000000 
20.000000 
20.000000 
20.000000 
20.000000 
20.000000 
20.000000 
20.000000 
20.000000 
20.000000 
20.000000 
20.000000 
20.000000 
20.000000 
20.000000 
20.000000 
20.000000 
20.000000 
20.000000 
20.000000 
20.000000 
20.000000 
20.000000 
20.000000 
20.000000 
20.000000 
20.000000 
20.000000 
20.000000 
20.000000 
20.000000 
20.000000 
20.000000 
20.000000 
20.000000 
20.000000 
20.000000 
20.000000 
20.000000 
20.000000 
20.000000 
20.000000 
20.000000 
20.000000 
20.000000 
20.000000 
20.000000 
20.000000 
20.000000 
20.000000 
20.000000 
20.000000 
20.000000 
20.000000 
20.000000 
20.000000 
20.000000 
20.000000 
20.000000 
20.000000 
20.000000 
20.000000 
20.000000 
20.000000 
20.000000 
20.000000 
20.000000 
20.000000 
20.000000 
20.000000 
20.000000 
20.000000 
20.000000 
20.000000 
20.000000 
20.000000 
20.000000 
20.000000 
20.000000 
20.000000 
20.000000 
20.000000 
SCALARS ELEM_i float 
LOOKUP_TABLE default 
167 
195 
168 
168 
195 
195 
196 
169 
169 
223 
196 
196 
196 
196 
169 
169 
223 
223 
224 
196 
197 
197 
197 
170 
170 
167 
194 
194 
195 
221 
194 
221 
195 
195 
221 
221 
221 
222 
222 
222 
222 
248 
248 
248 
248 
249 
249 
249 
223 
223 
167 
193 
193 
194 
193 
193 
193 
193 
220 
192 
192 
219 
220 
220 
220 
220 
191 
219 
219 
219 
219 
219 
247 
247 
247 
167 
166 
166 
166 
138 
165 
165 
165 
192 
138 
138 
165 
165 
165 
192 
192 
137 
137 
137 
164 
164 
164 
191 
191 
191 
167 
140 
139 
139 
112 
139 
139 
139 
139 
112 
112 
112 
112 
111 
138 
138 
85 
85 
85 
111 
111 
111 
111 
111 
137 
167 
141 
140 
140 
141 
141 
113 
140 
113 
114 
114 
114 
114 
113 
113 
113 
115 
115 
87 
87 
87 
86 
86 
86 
86 
167 
168 
168 
141 
169 
169 
142 
141 
141 
169 
169 
142 
142 
142 
142 
115 
170 
170 
143 
143 
143 
142 
116 
115 
115 
VECTORS VELOCITY float 
0.000000 -6.543662 0.000000 
0.000000 -6.543662 0.000000 
0.000000 -6.543662 0.000000 
-0.000000 -6.543662 0.000000 
0.000000 -6.543662 0.000000 
0.000000 -6.543662 0.000000 
-0.000000 -6.543662 0.000000 
-0.000000 -6.543662 0.000000 
-0.000000 -6.543662 0.000000 
0.000000 -6.543662 0.000000 
-0.000000 -6.543662 0.000000 
-0.000000 -6.543662 0.000000 
-0.000000 -6.543662 0.000000 
-0.000000 -6.543662 0.000000 
0.000000 -6.543662 0.000000 
0.000000 -6.543662 0.000000 
0.000000 -6.543662 0.000000 
-0.000000 -6.543662 0.000000 
0.000000 -6.543662 0.000000 
0.000000 -6.543662 0.000000 
-0.000000 -6.543662 0.000000 
0.000000 -6.543662 0.000000 
0.000000 -6.543662 0.000000 
-0.000000 -6.543662 0.000000 
0.000000 -6.543662 0.000000 
0.000000 -6.543662 0.000000 
0.000000 -6.543662 0.000000 
0.000000 -6.543662 0.000000 
0.000000 -6.543662 0.000000 
-0.000000 -6.543662 0.000000 
-0.000000 -6.543662 0.000000 
-0.000000 -6.543662 0.000000 
0.000000 -6.543662 0.000000 
0.000000 -6.543662 0.000000 
-0.000000 -6.543662 0.000000 
-0.000000 -6.543662 0.000000 
0.000000 -6.543662 0.000000 
0.000000 -6.543662 0.000000 
0.000000 -6.543662 0.000000 
0.000000 -6.543662 0.000000 
0.000000 -6.543662 0.000000 
-0.000000 -6.543662 0.000000 
-0.000000 -6.543662 0.000000 
-0.000000 -6.543662 0.000000 
0.000000 -6.543662 0.000000 
0.000000 -6.543662 0.000000 
0.000000 -6.543662 0.000000 
0.000000 -6.543662 0.000000 
0.000000 -6.543662 0.000000 
0.000000 -6.543662 0.000000 
0.000000 -6.543662 0.000000 
-0.000000 -6.543662 0.000000 
0.000000 -6.543662 0.000000 
0.000000 -6.543662 0.000000 
0.000000 -6.543662 0.000000 
-0.000000 -6.543662 0.000000 
-0.000000 -6.543662 0.000000 
-0.000000 -6.543662 0.000000 
-0.000000 -6.543662 0.000000 
0.000000 -6.543662 0.000000 
-0.000000 -6.543662 0.000000 
-0.000000 -6.543662 0.000000 
-0.000000 -6.543662 0.000000 
-0.000000 -6.543662 0.000000 
0.000000 -6.543662 0.000000 
0.000000 -6.543662 0.000000 
-0.000000 -6.543662 0.000000 
-0.000000 -6.543662 0.000000 
-0.000000 -6.543662 0.000000 
-0.000000 -6.543662 0.000000 
-0.000000 -6.543662 0.000000 
-0.000000 -6.543662 0.000000 
-0.000000 -6.543662 0.000000 
0.000000 -6.543662 0.000000 
0.000000 -6.543662 0.000000 
0.000000 -6.543662 0.000000 
0.000000 -6.543662 0.000000 
-0.000000 -6.543662 0.000000 
0.000000 -6.543662 0.000000 
0.000000 -6.543662 0.000000 
-0.000000 -6.543662 0.000000 
0.000000 -6.543662 0.000000 
0.000000 -6.543662 0.000000 
0.000000 -6.543662 0.000000 
0.000000 -6.543662 0.000000 
0.000000 -6.543662 0.000000 
0.000000 -6.543662 0.000000 
0.000000 -6.543662 0.000000 
-0.000000 -6.543662 0.000000 
0.000000 -6.543662 0.000000 
-0.000000 -6.543662 0.000000 
-0.000000 -6.543662 0.000000 
-0.000000 -6.543662 0.000000 
-0.000000 -6.543662 0.000000 
0.000000 -6.543662 0.000000 
-0.000000 -6.543662 0.000000 
0.000000 -6.543662 0.000000 
-0.000000 -6.543662 0.000000 
-0.000000 -6.543662 0.000000 
-0.000000 -6.543662 0.000000 
-0.000000 -6.543662 0.000000 
-0.000000 -6.543662 0.000000 
0.000000 -6.543662 0.000000 
0.000000 -6.543662 0.000000 
-0.000000 -6.543662 0.000000 
0.000000 -6.543662 0.000000 
0.000000 -6.543662 0.000000 
0.000000 -6.543662 0.000000 
-0.000000 -6.543662 0.000000 
0.000000 -6.543662 0.000000 
0.000000 -6.543662 0.000000 
0.000000 -6.543662 0.000000 
0.000000 -6.543662 0.000000 
-0.000000 -6.543662 0.000000 
-0.000000 -6.543662 0.000000 
0.000000 -6.543662 0.000000 
-0.000000 -6.543662 0.000000 
0.000000 -6.543662 0.000000 
-0.000000 -6.543662 0.000000 
0.000000 -6.543662 0.000000 
0.000000 -6.543662 0.000000 
0.000000 -6.543662 0.000000 
-0.000000 -6.543662 0.000000 
0.000000 -6.543662 0.000000 
-0.000000 -6.543662 0.000000 
-0.000000 -6.543662 0.000000 
-0.000000 -6.543662 0.000000 
-0.000000 -6.543662 0.000000 
-0.000000 -6.543662 0.000000 
-0.000000 -6.543662 0.000000 
-0.000000 -6.543662 0.000000 
-0.000000 -6.543662 0.000000 
-0.000000 -6.543662 0.000000 
-0.000000 -6.543662 0.000000 
0.000000 -6.543662 0.000000 
0.000000 -6.543662 0.000000 
0.000000 -6.543662 0.000000 
0.000000 -6.543662 0.000000 
0.000000 -6.543662 0.000000 
-0.000000 -6.543662 0.000000 
-0.000000 -6.543662 0.000000 
-0.000000 -6.543662 0.000000 
0.000000 -6.543662 0.000000 
0.000000 -6.543662 0.000000 
0.000000 -6.543662 0.000000 
-0.000000 -6.543662 0.000000 
-0.000000 -6.543662 0.000000 
-0.000000 -6.543662 0.000000 
0.000000 -6.543662 0.000000 
0.000000 -6.543662 0.000000 
-0.000000 -6.543662 0.000000 
-0.000000 -6.543662 0.000000 
-0.000000 -6.543662 0.000000 
-0.000000 -6.543662 0.000000 
0.000000 -6.543662 0.000000 
-0.000000 -6.543662 0.000000 
-0.000000 -6.543662 0.000000 
-0.000000 -6.543662 0.000000 
0.000000 -6.543662 0.000000 
0.000000 -6.543662 0.000000 
0.000000 -6.543662 0.000000 
0.000000 -6.543662 0.000000 
-0.000000 -6.543662 0.000000 
-0.000000 -6.543662 0.000000 
-0.000000 -6.543662 0.000000 
0.000000 -6.543662 0.000000 
0.000000 -6.543662 0.000000 
0.000000 -6.543662 0.000000 
-0.000000 -6.543662 0.000000 
-0.000000 -6.543662 0.000000 
-0.000000 -6.543662 0.000000 
-0.000000 -6.543662 0.000000 
0.000000 -6.543662 0.000000 
-0.000000 -6.543662 0.000000 
-0.000000 -6.543662 0.000000 
TENSORS STRESS float 
-0.000000 0.000000 0.000000 
0.000000 -0.000000 0.000000 
0.000000 0.000000 0.000000 

0.000000 -0.000000 0.000000 
0.000000 0.000000 0.000000 
0.000000 0.000000 0.000000 

0.000000 0.000000 0.000000 
0.000000 -0.000000 0.000000 
0.000000 0.000000 0.000000 

0.000000 -0.000000 0.000000 
0.000000 -0.000000 0.000000 
0.000000 0.000000 0.000000 

0.000000 0.000000 0.000000 
0.000000 0.000000 0.000000 
0.000000 0.000000 0.000000 

0.000000 -0.000000 0.000000 
0.000000 0.000000 0.000000 
0.000000 0.000000 0.000000 

0.000000 -0.000000 0.000000 
0.000000 0.000000 0.000000 
0.000000 0.000000 0.000000 

-0.000000 -0.000000 0.000000 
0.000000 -0.000000 0.000000 
0.000000 0.000000 0.000000 

-0.000000 -0.000000 0.000000 
0.000000 -0.000000 0.000000 
0.000000 0.000000 0.000000 

0.000000 -0.000000 0.000000 
0.000000 0.000000 0.000000 
0.000000 0.000000 0.000000 

-0.000000 -0.000000 0.000000 
0.000000 -0.000000 0.000000 
0.000000 0.000000 0.000000 

-0.000000 0.000000 0.000000 
0.000000 0.000000 0.000000 
0.000000 0.000000 0.000000 

-0.000000 -0.000000 0.000000 
0.000000 0.000000 0.000000 
0.000000 0.000000 0.000000 

-0.000000 0.000000 0.000000 
0.000000 -0.000000 0.000000 
0.000000 0.000000 0.000000 

0.000000 -0.000000 0.000000 
0.000000 0.000000 0.000000 
0.000000 0.000000 0.000000 

-0.000000 0.000000 0.000000 
0.000000 -0.000000 0.000000 
0.000000 0.000000 0.000000 

-0.000000 0.000000 0.000000 
0.000000 -0.000000 0.000000 
0.000000 0.000000 0.000000 

-0.000000 0.000000 0.000000 
0.000000 -0.000000 0.000000 
0.000000 0.000000 0.000000 

0.000000 -0.000000 0.000000 
0.000000 0.000000 0.000000 
0.000000 0.000000 0.000000 

-0.000000 0.000000 0.000000 
0.000000 -0.000000 0.000000 
0.000000 0.000000 0.000000 

-0.000000 -0.000000 0.000000 
0.000000 0.000000 0.000000 
0.000000 0.000000 0.000000 

-0.000000 -0.000000 0.000000 
0.000000 -0.000000 0.000000 
0.000000 0.000000 0.000000 

-0.000000 -0.000000 0.000000 
0.000000 -0.000000 0.000000 
0.000000 0.000000 0.000000 

-0.000000 -0.000000 0.000000 
0.000000 -0.000000 0.000000 
0.000000 0.000000 0.000000 

-0.000000 -0.000000 0.000000 
0.000000 0.000000 0.000000 
0.000000 0.000000 0.000000 

0.000000 0.000000 0.000000 
0.000000 0.000000 0.000000 
0.000000 0.000000 0.000000 

0.000000 -0.000000 0.000000 
0.000000 -0.000000 0.000000 
0.000000 0.000000 0.000000 

0.000000 -0.000000 0.000000 
0.000000 -0.000000 0.000000 
0.000000 0.000000 0.000000 

0.000000 -0.000000 0.000000 
0.000000 0.000000 0.000000 
0.000000 0.000000 0.000000 

-0.000000 0.000000 0.000000 
0.000000 0.000000 0.000000 
0.000000 0.000000 0.000000 

0.000000 -0.000000 0.000000 
0.000000 -0.000000 0.000000 
0.000000 0.000000 0.000000 

-0.000000 -0.000000 0.000000 
0.000000 -0.000000 0.000000 
0.000000 0.000000 0.000000 

0.000000 0.000000 0.000000 
0.000000 0.000000 0.000000 
0.000000 0.000000 0.000000 

0.000000 -0.000000 0.000000 
0.000000 0.000000 0.000000 
0.000000 0.000000 0.000000 

-0.000000 -0.000000 0.000000 
0.000000 -0.000000 0.000000 
0.000000 0.000000 0.000000 

-0.000000 -0.000000 0.000000 
0.000000 -0.000000 0.000000 
0.000000 0.000000 0.000000 

0.000000 0.000000 0.000000 
0.000000 0.000000 0.000000 
0.000000 0.000000 0.000000 

0.000000 0.000000 0.000000 
0.000000 0.000000 0.000000 
0.000000 0.000000 0.000000 

-0.000000 -0.000000 0.000000 
0.000000 -0.000000 0.000000 
0.000000 0.000000 0.000000 

0.000000 -0.000000 0.000000 
0.000000 0.000000 0.000000 
0.000000 0.000000 0.000000 

0.000000 -0.000000 0.000000 
0.000000 0.000000 0.000000 
0.000000 0.000000 0.000000 

0.000000 -0.000000 0.000000 
0.000000 0.000000 0.000000 
0.000000 0.000000 0.000000 

0.000000 -0.000000 0.000000 
0.000000 0.000000 0.000000 
0.000000 0.000000 0.000000 

-0.000000 -0.000000 0.000000 
0.000000 -0.000000 0.000000 
0.000000 0.000000 0.000000 

-0.000000 0.000000 0.000000 
0.000000 -0.000000 0.000000 
0.000000 0.000000 0.000000 

-0.000000 -0.000000 0.000000 
0.000000 -0.000000 0.000000 
0.000000 0.000000 0.000000 

0.000000 -0.000000 0.000000 
0.000000 0.000000 0.000000 
0.000000 0.000000 0.000000 

-0.000000 -0.000000 0.000000 
0.000000 -0.000000 0.000000 
0.000000 0.000000 0.000000 

-0.000000 0.000000 0.000000 
0.000000 -0.000000 0.000000 
0.000000 0.000000 0.000000 

-0.000000 -0.000000 0.000000 
0.000000 -0.000000 0.000000 
0.000000 0.000000 0.000000 

-0.000000 -0.000000 0.000000 
0.000000 -0.000000 0.000000 
0.000000 0.000000 0.000000 

0.000000 -0.000000 0.000000 
0.000000 0.000000 0.000000 
0.000000 0.000000 0.000000 

-0.000000 -0.000000 0.000000 
0.000000 -0.000000 0.000000 
0.000000 0.000000 0.000000 

-0.000000 0.000000 0.000000 
0.000000 -0.000000 0.000000 
0.000000 0.000000 0.000000 

-0.000000 0.000000 0.000000 
0.000000 -0.000000 0.000000 
0.000000 0.000000 0.000000 

-0.000000 -0.000000 0.000000 
0.000000 -0.000000 0.000000 
0.000000 0.000000 0.000000 

-0.000000 0.000000 0.000000 
0.000000 -0.000000 0.000000 
0.000000 0.000000 0.000000 

0.000000 0.000000 0.000000 
0.000000 0.000000 0.000000 
0.000000 0.000000 0.000000 

0.000000 -0.000000 0.000000 
0.000000 0.000000 0.000000 
0.000000 0.000000 0.000000 

-0.000000 -0.000000 0.000000 
0.000000 -0.000000 0.000000 
0.000000 0.000000 0.000000 

-0.000000 -0.000000 0.000000 
0.000000 0.000000 0.000000 
0.000000 0.000000 0.000000 

-0.000000 -0.000000 0.000000 
0.000000 -0.000000 0.000000 
0.000000 0.000000 0.000000 

-0.000000 -0.000000 0.000000 
0.000000 0.000000 0.000000 
0.000000 0.000000 0.000000 

-0.000000 -0.000000 0.000000 
0.000000 -0.000000 0.000000 
0.000000 0.000000 0.000000 

-0.000000 -0.000000 0.000000 
0.000000 -0.000000 0.000000 
0.000000 0.000000 0.000000 

-0.000000 0.000000 0.000000 
0.000000 -0.000000 0.000000 
0.000000 0.000000 0.000000 

-0.000000 0.000000 0.000000 
0.000000 -0.000000 0.000000 
0.000000 0.000000 0.000000 

0.000000 -0.000000 0.000000 
0.000000 0.000000 0.000000 
0.000000 0.000000 0.000000 

0.000000 0.000000 0.000000 
0.000000 -0.000000 0.000000 
0.000000 0.000000 0.000000 

0.000000 0.000000 0.000000 
0.000000 0.000000 0.000000 
0.000000 0.000000 0.000000 

-0.000000 0.000000 0.000000 
0.000000 -0.000000 0.000000 
0.000000 0.000000 0.000000 

-0.000000 -0.000000 0.000000 
0.000000 -0.000000 0.000000 
0.000000 0.000000 0.000000 

-0.000000 -0.000000 0.000000 
0.000000 -0.000000 0.000000 
0.000000 0.000000 0.000000 

0.000000 0.000000 0.000000 
0.000000 0.000000 0.000000 
0.000000 0.000000 0.000000 

0.000000 0.000000 0.000000 
0.000000 0.000000 0.000000 
0.000000 0.000000 0.000000 

-0.000000 0.000000 0.000000 
0.000000 -0.000000 0.000000 
0.000000 0.000000 0.000000 

-0.000000 0.000000 0.000000 
0.000000 0.000000 0.000000 
0.000000 0.000000 0.000000 

-0.000000 -0.000000 0.000000 
0.000000 -0.000000 0.000000 
0.000000 0.000000 0.000000 

0.000000 -0.000000 0.000000 
0.000000 0.000000 0.000000 
0.000000 0.000000 0.000000 

-0.000000 0.000000 0.000000 
0.000000 -0.000000 0.000000 
0.000000 0.000000 0.000000 

0.000000 0.000000 0.000000 
0.000000 -0.000000 0.000000 
0.000000 0.000000 0.000000 

-0.000000 0.000000 0.000000 
0.000000 0.000000 0.000000 
0.000000 0.000000 0.000000 

0.000000 0.000000 0.000000 
0.000000 0.000000 0.000000 
0.000000 0.000000 0.000000 

-0.000000 -0.000000 0.000000 
0.000000 0.000000 0.000000 
0.000000 0.000000 0.000000 

-0.000000 0.000000 0.000000 
0.000000 -0.000000 0.000000 
0.000000 0.000000 0.000000 

-0.000000 0.000000 0.000000 
0.000000 -0.000000 0.000000 
0.000000 0.000000 0.000000 

0.000000 -0.000000 0.000000 
0.000000 0.000000 0.000000 
0.000000 0.000000 0.000000 

-0.000000 0.000000 0.000000 
0.000000 -0.000000 0.000000 
0.000000 0.000000 0.000000 

0.000000 -0.000000 0.000000 
0.000000 0.000000 0.000000 
0.000000 0.000000 0.000000 

-0.000000 0.000000 0.000000 
0.000000 -0.000000 0.000000 
0.000000 0.000000 0.000000 

-0.000000 -0.000000 0.000000 
0.000000 -0.000000 0.000000 
0.000000 0.000000 0.000000 

-0.000000 -0.000000 0.000000 
0.000000 -0.000000 0.000000 
0.000000 0.000000 0.000000 

0.000000 -0.000000 0.000000 
0.000000 0.000000 0.000000 
0.000000 0.000000 0.000000 

-0.000000 0.000000 0.000000 
0.000000 -0.000000 0.000000 
0.000000 0.000000 0.000000 

0.000000 -0.000000 0.000000 
0.000000 0.000000 0.000000 
0.000000 0.000000 0.000000 

-0.000000 -0.000000 0.000000 
0.000000 -0.000000 0.000000 
0.000000 0.000000 0.000000 

-0.000000 -0.000000 0.000000 
0.000000 -0.000000 0.000000 
0.000000 0.000000 0.000000 

-0.000000 -0.000000 0.000000 
0.000000 -0.000000 0.000000 
0.000000 0.000000 0.000000 

-0.000000 -0.000000 0.000000 
0.000000 -0.000000 0.000000 
0.000000 0.000000 0.000000 

0.000000 0.000000 0.000000 
0.000000 0.000000 0.000000 
0.000000 0.000000 0.000000 

-0.000000 0.000000 0.000000 
0.000000 -0.000000 0.000000 
0.000000 0.000000 0.000000 

0.000000 0.000000 0.000000 
0.000000 -0.000000 0.000000 
0.000000 0.000000 0.000000 

0.000000 0.000000 0.000000 
0.000000 0.000000 0.000000 
0.000000 0.000000 0.000000 

0.000000 -0.000000 0.000000 
0.000000 -0.000000 0.000000 
0.000000 0.000000 0.000000 

-0.000000 0.000000 0.000000 
0.000000 -0.000000 0.000000 
0.000000 0.000000 0.000000 

0.000000 -0.000000 0.000000 
0.000000 0.000000 0.000000 
0.000000 0.000000 0.000000 

-0.000000 0.000000 0.000000 
0.000000 -0.000000 0.000000 
0.000000 0.000000 0.000000 

-0.000000 -0.000000 0.000000 
0.000000 -0.000000 0.000000 
0.000000 0.000000 0.000000 

-0.000000 -0.000000 0.000000 
0.000000 0.000000 0.000000 
0.000000 0.000000 0.000000 

-0.000000 -0.000000 0.000000 
0.000000 -0.000000 0.000000 
0.000000 0.000000 0.000000 

-0.000000 -0.000000 0.000000 
0.000000 0.000000 0.000000 
0.000000 0.000000 0.000000 

-0.000000 0.000000 0.000000 
0.000000 -0.000000 0.000000 
0.000000 0.000000 0.000000 

-0.000000 0.000000 0.000000 
0.000000 -0.000000 0.000000 
0.000000 0.000000 0.000000 

-0.000000 0.000000 0.000000 
0.000000 -0.000000 0.000000 
0.000000 0.000000 0.000000 

-0.000000 -0.000000 0.000000 
0.000000 -0.000000 0.000000 
0.000000 0.000000 0.000000 

-0.000000 -0.000000 0.000000 
0.000000 0.000000 0.000000 
0.000000 0.000000 0.000000 

-0.000000 -0.000000 0.000000 
0.000000 -0.000000 0.000000 
0.000000 0.000000 0.000000 

-0.000000 0.000000 0.000000 
0.000000 -0.000000 0.000000 
0.000000 0.000000 0.000000 

0.000000 0.000000 0.000000 
0.000000 -0.000000 0.000000 
0.000000 0.000000 0.000000 

-0.000000 -0.000000 0.000000 
0.000000 -0.000000 0.000000 
0.000000 0.000000 0.000000 

-0.000000 0.000000 0.000000 
0.000000 -0.000000 0.000000 
0.000000 0.000000 0.000000 

0.000000 0.000000 0.000000 
0.000000 0.000000 0.000000 
0.000000 0.000000 0.000000 

-0.000000 -0.000000 0.000000 
0.000000 -0.000000 0.000000 
0.000000 0.000000 0.000000 

-0.000000 -0.000000 0.000000 
0.000000 -0.000000 0.000000 
0.000000 0.000000 0.000000 

-0.000000 -0.000000 0.000000 
0.000000 -0.000000 0.000000 
0.000000 0.000000 0.000000 

-0.000000 -0.000000 0.000000 
0.000000 -0.000000 0.000000 
0.000000 0.000000 0.000000 

0.000000 0.000000 0.000000 
0.000000 0.000000 0.000000 
0.000000 0.000000 0.000000 

0.000000 0.000000 0.000000 
0.000000 -0.000000 0.000000 
0.000000 0.000000 0.000000 

0.000000 -0.000000 0.000000 
0.000000 -0.000000 0.000000 
0.000000 0.000000 0.000000 

-0.000000 -0.000000 0.000000 
0.000000 -0.000000 0.000000 
0.000000 0.000000 0.000000 

0.000000 0.000000 0.000000 
0.000000 0.000000 0.000000 
0.000000 0.000000 0.000000 

-0.000000 -0.000000 0.000000 
0.000000 -0.000000 0.000000 
0.000000 0.000000 0.000000 

-0.000000 -0.000000 0.000000 
0.000000 -0.000000 0.000000 
0.000000 0.000000 0.000000 

0.000000 0.000000 0.000000 
0.000000 -0.000000 0.000000 
0.000000 0.000000 0.000000 

0.000000 0.000000 0.000000 
0.000000 0.000000 0.000000 
0.000000 0.000000 0.000000 

-0.000000 -0.000000 0.000000 
0.000000 -0.000000 0.000000 
0.000000 0.000000 0.000000 

-0.000000 0.000000 0.000000 
0.000000 -0.000000 0.000000 
0.000000 0.000000 0.000000 

-0.000000 0.000000 0.000000 
0.000000 -0.000000 0.000000 
0.000000 0.000000 0.000000 

-0.000000 0.000000 0.000000 
0.000000 -0.000000 0.000000 
0.000000 0.000000 0.000000 

0.000000 -0.000000 0.000000 
0.000000 0.000000 0.000000 
0.000000 0.000000 0.000000 

-0.000000 0.000000 0.000000 
0.000000 -0.000000 0.000000 
0.000000 0.000000 0.000000 

0.000000 -0.000000 0.000000 
0.000000 0.000000 0.000000 
0.000000 0.000000 0.000000 

0.000000 0.000000 0.000000 
0.000000 0.000000 0.000000 
0.000000 0.000000 0.000000 

-0.000000 -0.000000 0.000000 
0.000000 -0.000000 0.000000 
0.000000 0.000000 0.000000 

0.000000 0.000000 0.000000 
0.000000 -0.000000 0.000000 
0.000000 0.000000 0.000000 

0.000000 -0.000000 0.000000 
0.000000 0.000000 0.000000 
0.000000 0.000000 0.000000 

0.000000 0.000000 0.000000 
0.000000 -0.000000 0.000000 
0.000000 0.000000 0.000000 

0.000000 -0.000000 0.000000 
0.000000 0.000000 0.000000 
0.000000 0.000000 0.000000 

-0.000000 0.000000 0.000000 
0.000000 -0.000000 0.000000 
0.000000 0.000000 0.000000 

0.000000 0.000000 0.000000 
0.000000 0.000000 0.000000 
0.000000 0.000000 0.000000 

0.000000 0.000000 0.000000 
0.000000 -0.000000 0.000000 
0.000000 0.000000 0.000000 

0.000000 -0.000000 0.000000 
0.000000 0.000000 0.000000 
0.000000 0.000000 0.000000 

0.000000 -0.000000 0.000000 
0.000000 0.000000 0.000000 
0.000000 0.000000 0.000000 

0.000000 -0.000000 0.000000 
0.000000 -0.000000 0.000000 
0.000000 0.000000 0.000000 

-0.000000 0.000000 0.000000 
0.000000 -0.000000 0.000000 
0.000000 0.000000 0.000000 

-0.000000 -0.000000 0.000000 
0.000000 -0.000000 0.000000 
0.000000 0.000000 0.000000 

0.000000 -0.000000 0.000000 
0.000000 0.000000 0.000000 
0.000000 0.000000 0.000000 

-0.000000 -0.000000 0.000000 
0.000000 -0.000000 0.000000 
0.000000 0.000000 0.000000 

0.000000 -0.000000 0.000000 
0.000000 -0.000000 0.000000 
0.000000 0.000000 0.000000 

-0.000000 -0.000000 0.000000 
0.000000 -0.000000 0.000000 
0.000000 0.000000 0.000000 

0.000000 -0.000000 0.000000 
0.000000 0.000000 0.000000 
0.000000 0.000000 0.000000 

0.000000 0.000000 0.000000 
0.000000 0.000000 0.000000 
0.000000 0.000000 0.000000 

-0.000000 0.000000 0.000000 
0.000000 -0.000000 0.000000 
0.000000 0.000000 0.000000 

0.000000 0.000000 0.000000 
0.000000 0.000000 0.000000 
0.000000 0.000000 0.000000 

0.000000 -0.000000 0.000000 
0.000000 0.000000 0.000000 
0.000000 0.000000 0.000000 

0.000000 -0.000000 0.000000 
0.000000 -0.000000 0.000000 
0.000000 0.000000 0.000000 

-0.000000 0.000000 0.000000 
0.000000 0.000000 0.000000 
0.000000 0.000000 0.000000 

-0.000000 -0.000000 0.000000 
0.000000 -0.000000 0.000000 
0.000000 0.000000 0.000000 

-0.000000 0.000000 0.000000 
0.000000 -0.000000 0.000000 
0.000000 0.000000 0.000000 

-0.000000 0.000000 0.000000 
0.000000 -0.000000 0.000000 
0.000000 0.000000 0.000000 

-0.000000 -0.000000 0.000000 
0.000000 -0.000000 0.000000 
0.000000 0.000000 0.000000 

0.000000 0.000000 0.000000 
0.000000 0.000000 0.000000 
0.000000 0.000000 0.000000 

0.000000 0.000000 0.000000 
0.000000 0.000000 0.000000 
0.000000 0.000000 0.000000 

0.000000 -0.000000 0.000000 
0.000000 -0.000000 0.000000 
0.000000 0.000000 0.000000 

-0.000000 -0.000000 0.000000 
0.000000 -0.000000 0.000000 
0.000000 0.000000 0.000000 

TENSORS STRAIN float 
0.000000 0.000000 0.000000 
0.000000 -0.000000 0.000000 
0.000000 0.000000 0.000000 

0.000000 -0.000000 0.000000 
0.000000 0.000000 0.000000 
0.000000 0.000000 0.000000 

0.000000 0.000000 0.000000 
0.000000 -0.000000 0.000000 
0.000000 0.000000 0.000000 

0.000000 -0.000000 0.000000 
0.000000 -0.000000 0.000000 
0.000000 0.000000 0.000000 

0.000000 0.000000 0.000000 
0.000000 0.000000 0.000000 
0.000000 0.000000 0.000000 

0.000000 -0.000000 0.000000 
0.000000 0.000000 0.000000 
0.000000 0.000000 0.000000 

-0.000000 -0.000000 0.000000 
0.000000 0.000000 0.000000 
0.000000 0.000000 0.000000 

-0.000000 -0.000000 0.000000 
0.000000 -0.000000 0.000000 
0.000000 0.000000 0.000000 

-0.000000 -0.000000 0.000000 
0.000000 -0.000000 0.000000 
0.000000 0.000000 0.000000 

-0.000000 -0.000000 0.000000 
0.000000 0.000000 0.000000 
0.000000 0.000000 0.000000 

-0.000000 -0.000000 0.000000 
0.000000 -0.000000 0.000000 
0.000000 0.000000 0.000000 

-0.000000 0.000000 0.000000 
0.000000 0.000000 0.000000 
0.000000 0.000000 0.000000 

-0.000000 -0.000000 0.000000 
0.000000 0.000000 0.000000 
0.000000 0.000000 0.000000 

-0.000000 0.000000 0.000000 
0.000000 0.000000 0.000000 
0.000000 0.000000 0.000000 

0.000000 -0.000000 0.000000 
0.000000 0.000000 0.000000 
0.000000 0.000000 0.000000 

-0.000000 0.000000 0.000000 
0.000000 -0.000000 0.000000 
0.000000 0.000000 0.000000 

-0.000000 0.000000 0.000000 
0.000000 -0.000000 0.000000 
0.000000 0.000000 0.000000 

-0.000000 0.000000 0.000000 
0.000000 -0.000000 0.000000 
0.000000 0.000000 0.000000 

-0.000000 -0.000000 0.000000 
0.000000 0.000000 0.000000 
0.000000 0.000000 0.000000 

-0.000000 0.000000 0.000000 
0.000000 -0.000000 0.000000 
0.000000 0.000000 0.000000 

-0.000000 -0.000000 0.000000 
0.000000 0.000000 0.000000 
0.000000 0.000000 0.000000 

-0.000000 -0.000000 0.000000 
0.000000 -0.000000 0.000000 
0.000000 0.000000 0.000000 

-0.000000 -0.000000 0.000000 
0.000000 -0.000000 0.000000 
0.000000 0.000000 0.000000 

-0.000000 -0.000000 0.000000 
0.000000 -0.000000 0.000000 
0.000000 0.000000 0.000000 

-0.000000 -0.000000 0.000000 
0.000000 0.000000 0.000000 
0.000000 0.000000 0.000000 

-0.000000 0.000000 0.000000 
0.000000 0.000000 0.000000 
0.000000 0.000000 0.000000 

0.000000 -0.000000 0.000000 
0.000000 -0.000000 0.000000 
0.000000 0.000000 0.000000 

0.000000 -0.000000 0.000000 
0.000000 -0.000000 0.000000 
0.000000 0.000000 0.000000 

0.000000 -0.000000 0.000000 
0.000000 0.000000 0.000000 
0.000000 0.000000 0.000000 

-0.000000 0.000000 0.000000 
0.000000 0.000000 0.000000 
0.000000 0.000000 0.000000 

0.000000 -0.000000 0.000000 
0.000000 -0.000000 0.000000 
0.000000 0.000000 0.000000 

-0.000000 -0.000000 0.000000 
0.000000 -0.000000 0.000000 
0.000000 0.000000 0.000000 

0.000000 0.000000 0.000000 
0.000000 0.000000 0.000000 
0.000000 0.000000 0.000000 

0.000000 -0.000000 0.000000 
0.000000 0.000000 0.000000 
0.000000 0.000000 0.000000 

-0.000000 -0.000000 0.000000 
0.000000 -0.000000 0.000000 
0.000000 0.000000 0.000000 

-0.000000 -0.000000 0.000000 
0.000000 0.000000 0.000000 
0.000000 0.000000 0.000000 

-0.000000 0.000000 0.000000 
0.000000 0.000000 0.000000 
0.000000 0.000000 0.000000 

-0.000000 0.000000 0.000000 
0.000000 0.000000 0.000000 
0.000000 0.000000 0.000000 

-0.000000 -0.000000 0.000000 
0.000000 -0.000000 0.000000 
0.000000 0.000000 0.000000 

-0.000000 -0.000000 0.000000 
0.000000 0.000000 0.000000 
0.000000 0.000000 0.000000 

0.000000 -0.000000 0.000000 
0.000000 0.000000 0.000000 
0.000000 0.000000 0.000000 

0.000000 -0.000000 0.000000 
0.000000 0.000000 0.000000 
0.000000 0.000000 0.000000 

0.000000 -0.000000 0.000000 
0.000000 0.000000 0.000000 
0.000000 0.000000 0.000000 

-0.000000 -0.000000 0.000000 
0.000000 -0.000000 0.000000 
0.000000 0.000000 0.000000 

0.000000 0.000000 0.000000 
0.000000 -0.000000 0.000000 
0.000000 0.000000 0.000000 

-0.000000 -0.000000 0.000000 
0.000000 -0.000000 0.000000 
0.000000 0.000000 0.000000 

-0.000000 -0.000000 0.000000 
0.000000 0.000000 0.000000 
0.000000 0.000000 0.000000 

0.000000 -0.000000 0.000000 
0.000000 -0.000000 0.000000 
0.000000 0.000000 0.000000 

0.000000 0.000000 0.000000 
0.000000 -0.000000 0.000000 
0.000000 0.000000 0.000000 

-0.000000 -0.000000 0.000000 
0.000000 -0.000000 0.000000 
0.000000 0.000000 0.000000 

0.000000 -0.000000 0.000000 
0.000000 -0.000000 0.000000 
0.000000 0.000000 0.000000 

-0.000000 -0.000000 0.000000 
0.000000 0.000000 0.000000 
0.000000 0.000000 0.000000 

-0.000000 -0.000000 0.000000 
0.000000 -0.000000 0.000000 
0.000000 0.000000 0.000000 

0.000000 0.000000 0.000000 
0.000000 -0.000000 0.000000 
0.000000 0.000000 0.000000 

-0.000000 0.000000 0.000000 
0.000000 -0.000000 0.000000 
0.000000 0.000000 0.000000 

-0.000000 -0.000000 0.000000 
0.000000 -0.000000 0.000000 
0.000000 0.000000 0.000000 

-0.000000 0.000000 0.000000 
0.000000 -0.000000 0.000000 
0.000000 0.000000 0.000000 

-0.000000 0.000000 0.000000 
0.000000 0.000000 0.000000 
0.000000 0.000000 0.000000 

-0.000000 -0.000000 0.000000 
0.000000 0.000000 0.000000 
0.000000 0.000000 0.000000 

-0.000000 -0.000000 0.000000 
0.000000 -0.000000 0.000000 
0.000000 0.000000 0.000000 

-0.000000 -0.000000 0.000000 
0.000000 0.000000 0.000000 
0.000000 0.000000 0.000000 

-0.000000 -0.000000 0.000000 
0.000000 0.000000 0.000000 
0.000000 0.000000 0.000000 

-0.000000 -0.000000 0.000000 
0.000000 0.000000 0.000000 
0.000000 0.000000 0.000000 

-0.000000 -0.000000 0.000000 
0.000000 -0.000000 0.000000 
0.000000 0.000000 0.000000 

0.000000 -0.000000 0.000000 
0.000000 -0.000000 0.000000 
0.000000 0.000000 0.000000 

-0.000000 0.000000 0.000000 
0.000000 -0.000000 0.000000 
0.000000 0.000000 0.000000 

-0.000000 0.000000 0.000000 
0.000000 -0.000000 0.000000 
0.000000 0.000000 0.000000 

0.000000 -0.000000 0.000000 
0.000000 0.000000 0.000000 
0.000000 0.000000 0.000000 

0.000000 0.000000 0.000000 
0.000000 -0.000000 0.000000 
0.000000 0.000000 0.000000 

0.000000 0.000000 0.000000 
0.000000 0.000000 0.000000 
0.000000 0.000000 0.000000 

-0.000000 0.000000 0.000000 
0.000000 -0.000000 0.000000 
0.000000 0.000000 0.000000 

-0.000000 -0.000000 0.000000 
0.000000 -0.000000 0.000000 
0.000000 0.000000 0.000000 

-0.000000 -0.000000 0.000000 
0.000000 -0.000000 0.000000 
0.000000 0.000000 0.000000 

0.000000 0.000000 0.000000 
0.000000 0.000000 0.000000 
0.000000 0.000000 0.000000 

0.000000 0.000000 0.000000 
0.000000 0.000000 0.000000 
0.000000 0.000000 0.000000 

-0.000000 0.000000 0.000000 
0.000000 -0.000000 0.000000 
0.000000 0.000000 0.000000 

-0.000000 0.000000 0.000000 
0.000000 0.000000 0.000000 
0.000000 0.000000 0.000000 

0.000000 -0.000000 0.000000 
0.000000 -0.000000 0.000000 
0.000000 0.000000 0.000000 

-0.000000 -0.000000 0.000000 
0.000000 0.000000 0.000000 
0.000000 0.000000 0.000000 

-0.000000 0.000000 0.000000 
0.000000 0.000000 0.000000 
0.000000 0.000000 0.000000 

0.000000 0.000000 0.000000 
0.000000 -0.000000 0.000000 
0.000000 0.000000 0.000000 

-0.000000 0.000000 0.000000 
0.000000 0.000000 0.000000 
0.000000 0.000000 0.000000 

0.000000 0.000000 0.000000 
0.000000 0.000000 0.000000 
0.000000 0.000000 0.000000 

-0.000000 -0.000000 0.000000 
0.000000 0.000000 0.000000 
0.000000 0.000000 0.000000 

-0.000000 0.000000 0.000000 
0.000000 -0.000000 0.000000 
0.000000 0.000000 0.000000 

-0.000000 0.000000 0.000000 
0.000000 -0.000000 0.000000 
0.000000 0.000000 0.000000 

0.000000 -0.000000 0.000000 
0.000000 0.000000 0.000000 
0.000000 0.000000 0.000000 

0.000000 0.000000 0.000000 
0.000000 -0.000000 0.000000 
0.000000 0.000000 0.000000 

0.000000 -0.000000 0.000000 
0.000000 0.000000 0.000000 
0.000000 0.000000 0.000000 

-0.000000 0.000000 0.000000 
0.000000 -0.000000 0.000000 
0.000000 0.000000 0.000000 

-0.000000 -0.000000 0.000000 
0.000000 -0.000000 0.000000 
0.000000 0.000000 0.000000 

-0.000000 -0.000000 0.000000 
0.000000 -0.000000 0.000000 
0.000000 0.000000 0.000000 

-0.000000 -0.000000 0.000000 
0.000000 0.000000 0.000000 
0.000000 0.000000 0.000000 

0.000000 0.000000 0.000000 
0.000000 -0.000000 0.000000 
0.000000 0.000000 0.000000 

-0.000000 -0.000000 0.000000 
0.000000 0.000000 0.000000 
0.000000 0.000000 0.000000 

-0.000000 -0.000000 0.000000 
0.000000 -0.000000 0.000000 
0.000000 0.000000 0.000000 

-0.000000 -0.000000 0.000000 
0.000000 -0.000000 0.000000 
0.000000 0.000000 0.000000 

0.000000 -0.000000 0.000000 
0.000000 -0.000000 0.000000 
0.000000 0.000000 0.000000 

-0.000000 -0.000000 0.000000 
0.000000 -0.000000 0.000000 
0.000000 0.000000 0.000000 

0.000000 0.000000 0.000000 
0.000000 0.000000 0.000000 
0.000000 0.000000 0.000000 

0.000000 0.000000 0.000000 
0.000000 -0.000000 0.000000 
0.000000 0.000000 0.000000 

0.000000 0.000000 0.000000 
0.000000 -0.000000 0.000000 
0.000000 0.000000 0.000000 

0.000000 0.000000 0.000000 
0.000000 0.000000 0.000000 
0.000000 0.000000 0.000000 

0.000000 -0.000000 0.000000 
0.000000 -0.000000 0.000000 
0.000000 0.000000 0.000000 

0.000000 0.000000 0.000000 
0.000000 -0.000000 0.000000 
0.000000 0.000000 0.000000 

0.000000 -0.000000 0.000000 
0.000000 0.000000 0.000000 
0.000000 0.000000 0.000000 

-0.000000 0.000000 0.000000 
0.000000 -0.000000 0.000000 
0.000000 0.000000 0.000000 

-0.000000 -0.000000 0.000000 
0.000000 -0.000000 0.000000 
0.000000 0.000000 0.000000 

-0.000000 -0.000000 0.000000 
0.000000 0.000000 0.000000 
0.000000 0.000000 0.000000 

-0.000000 -0.000000 0.000000 
0.000000 -0.000000 0.000000 
0.000000 0.000000 0.000000 

-0.000000 -0.000000 0.000000 
0.000000 0.000000 0.000000 
0.000000 0.000000 0.000000 

-0.000000 0.000000 0.000000 
0.000000 -0.000000 0.000000 
0.000000 0.000000 0.000000 

-0.000000 0.000000 0.000000 
0.000000 0.000000 0.000000 
0.000000 0.000000 0.000000 

0.000000 0.000000 0.000000 
0.000000 -0.000000 0.000000 
0.000000 0.000000 0.000000 

-0.000000 -0.000000 0.000000 
0.000000 -0.000000 0.000000 
0.000000 0.000000 0.000000 

-0.000000 -0.000000 0.000000 
0.000000 0.000000 0.000000 
0.000000 0.000000 0.000000 

-0.000000 -0.000000 0.000000 
0.000000 0.000000 0.000000 
0.000000 0.000000 0.000000 

-0.000000 0.000000 0.000000 
0.000000 -0.000000 0.000000 
0.000000 0.000000 0.000000 

0.000000 0.000000 0.000000 
0.000000 -0.000000 0.000000 
0.000000 0.000000 0.000000 

-0.000000 -0.000000 0.000000 
0.000000 -0.000000 0.000000 
0.000000 0.000000 0.000000 

-0.000000 0.000000 0.000000 
0.000000 -0.000000 0.000000 
0.000000 0.000000 0.000000 

-0.000000 0.000000 0.000000 
0.000000 0.000000 0.000000 
0.000000 0.000000 0.000000 

-0.000000 -0.000000 0.000000 
0.000000 -0.000000 0.000000 
0.000000 0.000000 0.000000 

-0.000000 -0.000000 0.000000 
0.000000 -0.000000 0.000000 
0.000000 0.000000 0.000000 

-0.000000 -0.000000 0.000000 
0.000000 -0.000000 0.000000 
0.000000 0.000000 0.000000 

-0.000000 -0.000000 0.000000 
0.000000 -0.000000 0.000000 
0.000000 0.000000 0.000000 

0.000000 0.000000 0.000000 
0.000000 0.000000 0.000000 
0.000000 0.000000 0.000000 

0.000000 0.000000 0.000000 
0.000000 -0.000000 0.000000 
0.000000 0.000000 0.000000 

0.000000 -0.000000 0.000000 
0.000000 -0.000000 0.000000 
0.000000 0.000000 0.000000 

0.000000 -0.000000 0.000000 
0.000000 -0.000000 0.000000 
0.000000 0.000000 0.000000 

0.000000 0.000000 0.000000 
0.000000 0.000000 0.000000 
0.000000 0.000000 0.000000 

-0.000000 -0.000000 0.000000 
0.000000 -0.000000 0.000000 
0.000000 0.000000 0.000000 

0.000000 -0.000000 0.000000 
0.000000 -0.000000 0.000000 
0.000000 0.000000 0.000000 

0.000000 0.000000 0.000000 
0.000000 -0.000000 0.000000 
0.000000 0.000000 0.000000 

0.000000 0.000000 0.000000 
0.000000 -0.000000 0.000000 
0.000000 0.000000 0.000000 

0.000000 -0.000000 0.000000 
0.000000 -0.000000 0.000000 
0.000000 0.000000 0.000000 

-0.000000 0.000000 0.000000 
0.000000 -0.000000 0.000000 
0.000000 0.000000 0.000000 

-0.000000 0.000000 0.000000 
0.000000 0.000000 0.000000 
0.000000 0.000000 0.000000 

-0.000000 0.000000 0.000000 
0.000000 0.000000 0.000000 
0.000000 0.000000 0.000000 

0.000000 -0.000000 0.000000 
0.000000 0.000000 0.000000 
0.000000 0.000000 0.000000 

0.000000 0.000000 0.000000 
0.000000 -0.000000 0.000000 
0.000000 0.000000 0.000000 

0.000000 -0.000000 0.000000 
0.000000 0.000000 0.000000 
0.000000 0.000000 0.000000 

0.000000 0.000000 0.000000 
0.000000 -0.000000 0.000000 
0.000000 0.000000 0.000000 

-0.000000 -0.000000 0.000000 
0.000000 -0.000000 0.000000 
0.000000 0.000000 0.000000 

0.000000 0.000000 0.000000 
0.000000 -0.000000 0.000000 
0.000000 0.000000 0.000000 

0.000000 -0.000000 0.000000 
0.000000 0.000000 0.000000 
0.000000 0.000000 0.000000 

0.000000 0.000000 0.000000 
0.000000 -0.000000 0.000000 
0.000000 0.000000 0.000000 

0.000000 -0.000000 0.000000 
0.000000 0.000000 0.000000 
0.000000 0.000000 0.000000 

-0.000000 0.000000 0.000000 
0.000000 -0.000000 0.000000 
0.000000 0.000000 0.000000 

-0.000000 0.000000 0.000000 
0.000000 0.000000 0.000000 
0.000000 0.000000 0.000000 

0.000000 0.000000 0.000000 
0.000000 -0.000000 0.000000 
0.000000 0.000000 0.000000 

0.000000 -0.000000 0.000000 
0.000000 0.000000 0.000000 
0.000000 0.000000 0.000000 

0.000000 -0.000000 0.000000 
0.000000 -0.000000 0.000000 
0.000000 0.000000 0.000000 

0.000000 -0.000000 0.000000 
0.000000 -0.000000 0.000000 
0.000000 0.000000 0.000000 

-0.000000 0.000000 0.000000 
0.000000 -0.000000 0.000000 
0.000000 0.000000 0.000000 

-0.000000 -0.000000 0.000000 
0.000000 -0.000000 0.000000 
0.000000 0.000000 0.000000 

0.000000 -0.000000 0.000000 
0.000000 0.000000 0.000000 
0.000000 0.000000 0.000000 

0.000000 -0.000000 0.000000 
0.000000 -0.000000 0.000000 
0.000000 0.000000 0.000000 

0.000000 -0.000000 0.000000 
0.000000 -0.000000 0.000000 
0.000000 0.000000 0.000000 

-0.000000 -0.000000 0.000000 
0.000000 -0.000000 0.000000 
0.000000 0.000000 0.000000 

0.000000 -0.000000 0.000000 
0.000000 0.000000 0.000000 
0.000000 0.000000 0.000000 

-0.000000 0.000000 0.000000 
0.000000 0.000000 0.000000 
0.000000 0.000000 0.000000 

0.000000 0.000000 0.000000 
0.000000 -0.000000 0.000000 
0.000000 0.000000 0.000000 

0.000000 0.000000 0.000000 
0.000000 0.000000 0.000000 
0.000000 0.000000 0.000000 

0.000000 -0.000000 0.000000 
0.000000 0.000000 0.000000 
0.000000 0.000000 0.000000 

0.000000 -0.000000 0.000000 
0.000000 -0.000000 0.000000 
0.000000 0.000000 0.000000 

-0.000000 0.000000 0.000000 
0.000000 0.000000 0.000000 
0.000000 0.000000 0.000000 

-0.000000 -0.000000 0.000000 
0.000000 0.000000 0.000000 
0.000000 0.000000 0.000000 

-0.000000 0.000000 0.000000 
0.000000 -0.000000 0.000000 
0.000000 0.000000 0.000000 

0.000000 0.000000 0.000000 
0.000000 -0.000000 0.000000 
0.000000 0.000000 0.000000 

0.000000 -0.000000 0.000000 
0.000000 -0.000000 0.000000 
0.000000 0.000000 0.000000 

-0.000000 0.000000 0.000000 
0.000000 0.000000 0.000000 
0.000000 0.000000 0.000000 

0.000000 0.000000 0.000000 
0.000000 0.000000 0.000000 
0.000000 0.000000 0.000000 

0.000000 -0.000000 0.000000 
0.000000 -0.000000 0.000000 
0.000000 0.000000 0.000000 

0.000000 -0.000000 0.000000 
0.000000 -0.000000 0.000000 
0.000000 0.000000 0.000000 

