# vtk DataFile Version 3.0 
vtk output 
ASCII 
DATASET UNSTRUCTURED_GRID 
POINTS 175 float 
-0.026061 -0.706852 0.000000 
-0.106992 -0.638797 0.000000 
-0.054870 -0.647030 0.000000 
-0.028809 -0.601146 0.000000 
-0.186430 -0.574722 0.000000 
-0.137056 -0.577248 0.000000 
-0.114311 -0.523600 0.000000 
-0.058186 -0.539266 0.000000 
-0.029377 -0.499089 0.000000 
-0.265318 -0.511566 0.000000 
-0.217198 -0.512365 0.000000 
-0.196633 -0.455069 0.000000 
-0.143120 -0.463778 0.000000 
-0.116563 -0.416509 0.000000 
-0.058945 -0.436155 0.000000 
-0.029568 -0.398035 0.000000 
-0.344206 -0.448410 0.000000 
-0.296791 -0.448403 0.000000 
-0.278030 -0.388460 0.000000 
-0.225992 -0.394326 0.000000 
-0.201664 -0.342209 0.000000 
-0.145749 -0.355683 0.000000 
-0.117890 -0.311341 0.000000 
-0.059328 -0.334046 0.000000 
-0.029759 -0.296981 0.000000 
-0.058559 -0.747603 0.000000 
-0.162226 -0.768446 0.000000 
-0.123292 -0.732828 0.000000 
-0.142917 -0.683845 0.000000 
-0.261851 -0.790602 0.000000 
-0.229092 -0.753575 0.000000 
-0.256854 -0.702344 0.000000 
-0.209613 -0.668231 0.000000 
-0.223062 -0.620657 0.000000 
-0.360414 -0.812902 0.000000 
-0.329787 -0.775780 0.000000 
-0.361761 -0.723977 0.000000 
-0.321587 -0.687569 0.000000 
-0.341985 -0.637335 0.000000 
-0.290702 -0.604536 0.000000 
-0.302189 -0.557800 0.000000 
-0.458977 -0.835203 0.000000 
-0.429420 -0.798128 0.000000 
-0.464588 -0.746086 0.000000 
-0.427556 -0.709059 0.000000 
-0.453135 -0.657544 0.000000 
-0.407738 -0.622229 0.000000 
-0.425037 -0.572800 0.000000 
-0.370772 -0.541171 0.000000 
-0.381315 -0.494944 0.000000 
-0.046960 -0.798418 0.000000 
-0.095301 -0.892464 0.000000 
-0.098873 -0.839817 0.000000 
-0.149405 -0.824620 0.000000 
-0.140093 -0.984168 0.000000 
-0.148617 -0.935470 0.000000 
-0.205981 -0.925233 0.000000 
-0.203197 -0.867030 0.000000 
-0.248777 -0.847883 0.000000 
-0.184111 -1.075132 0.000000 
-0.194039 -1.028041 0.000000 
-0.254475 -1.020741 0.000000 
-0.257893 -0.966632 0.000000 
-0.309886 -0.951259 0.000000 
-0.303554 -0.890714 0.000000 
-0.347255 -0.870556 0.000000 
-0.228129 -1.166096 0.000000 
-0.238687 -1.119871 0.000000 
-0.301302 -1.114919 0.000000 
-0.307162 -1.062880 0.000000 
-0.363386 -1.050759 0.000000 
-0.362692 -0.993248 0.000000 
-0.412122 -0.975955 0.000000 
-0.403017 -0.913808 0.000000 
-0.445733 -0.893229 0.000000 
-0.000000 -0.821033 0.000000 
0.043388 -0.917464 0.000000 
-0.000000 -0.887432 0.000000 
-0.043388 -0.917464 0.000000 
0.087158 -1.009661 0.000000 
0.043769 -0.985962 0.000000 
-0.000000 -1.024428 0.000000 
-0.043769 -0.985962 0.000000 
-0.087158 -1.009661 0.000000 
0.130831 -1.100790 0.000000 
0.087824 -1.079192 0.000000 
0.044436 -1.121891 0.000000 
-0.000000 -1.090826 0.000000 
-0.044436 -1.121891 0.000000 
-0.087824 -1.079192 0.000000 
-0.130831 -1.100790 0.000000 
0.174505 -1.191920 0.000000 
0.131782 -1.171354 0.000000 
0.088871 -1.217220 0.000000 
0.044532 -1.189357 0.000000 
-0.000000 -1.225757 0.000000 
-0.044532 -1.189357 0.000000 
-0.088871 -1.217220 0.000000 
-0.131782 -1.171354 0.000000 
-0.174505 -1.191920 0.000000 
0.046960 -0.798418 0.000000 
0.149405 -0.824620 0.000000 
0.098873 -0.839817 0.000000 
0.095301 -0.892464 0.000000 
0.248777 -0.847883 0.000000 
0.203197 -0.867030 0.000000 
0.205981 -0.925233 0.000000 
0.148617 -0.935470 0.000000 
0.140093 -0.984168 0.000000 
0.347255 -0.870556 0.000000 
0.303554 -0.890714 0.000000 
0.309886 -0.951259 0.000000 
0.257893 -0.966632 0.000000 
0.254475 -1.020741 0.000000 
0.194039 -1.028041 0.000000 
0.184111 -1.075132 0.000000 
0.445733 -0.893229 0.000000 
0.403017 -0.913808 0.000000 
0.412122 -0.975955 0.000000 
0.362692 -0.993248 0.000000 
0.363386 -1.050759 0.000000 
0.307162 -1.062880 0.000000 
0.301302 -1.114919 0.000000 
0.238687 -1.119871 0.000000 
0.228129 -1.166096 0.000000 
0.058559 -0.747603 0.000000 
0.142917 -0.683845 0.000000 
0.123292 -0.732828 0.000000 
0.162226 -0.768446 0.000000 
0.223062 -0.620657 0.000000 
0.209613 -0.668231 0.000000 
0.256854 -0.702344 0.000000 
0.229092 -0.753575 0.000000 
0.261851 -0.790602 0.000000 
0.302189 -0.557800 0.000000 
0.290702 -0.604536 0.000000 
0.341985 -0.637335 0.000000 
0.321587 -0.687569 0.000000 
0.361761 -0.723977 0.000000 
0.329787 -0.775780 0.000000 
0.360414 -0.812902 0.000000 
0.381315 -0.494944 0.000000 
0.370772 -0.541171 0.000000 
0.425037 -0.572800 0.000000 
0.407738 -0.622229 0.000000 
0.453135 -0.657544 0.000000 
0.427556 -0.709059 0.000000 
0.464588 -0.746086 0.000000 
0.429420 -0.798128 0.000000 
0.458977 -0.835203 0.000000 
0.026061 -0.706852 0.000000 
0.028809 -0.601146 0.000000 
0.054870 -0.647030 0.000000 
0.106992 -0.638797 0.000000 
0.029377 -0.499089 0.000000 
0.058186 -0.539266 0.000000 
0.114311 -0.523600 0.000000 
0.137056 -0.577248 0.000000 
0.186430 -0.574722 0.000000 
0.029568 -0.398035 0.000000 
0.058945 -0.436155 0.000000 
0.116563 -0.416509 0.000000 
0.143120 -0.463778 0.000000 
0.196633 -0.455069 0.000000 
0.217198 -0.512365 0.000000 
0.265318 -0.511566 0.000000 
0.029759 -0.296981 0.000000 
0.059328 -0.334046 0.000000 
0.117890 -0.311341 0.000000 
0.145749 -0.355683 0.000000 
0.201664 -0.342209 0.000000 
0.225992 -0.394326 0.000000 
0.278030 -0.388460 0.000000 
0.296791 -0.448403 0.000000 
0.344206 -0.448410 0.000000 
CELLS 175 350 
1 0 
1 1 
1 2 
1 3 
1 4 
1 5 
1 6 
1 7 
1 8 
1 9 
1 10 
1 11 
1 12 
1 13 
1 14 
1 15 
1 16 
1 17 
1 18 
1 19 
1 20 
1 21 
1 22 
1 23 
1 24 
1 25 
1 26 
1 27 
1 28 
1 29 
1 30 
1 31 
1 32 
1 33 
1 34 
1 35 
1 36 
1 37 
1 38 
1 39 
1 40 
1 41 
1 42 
1 43 
1 44 
1 45 
1 46 
1 47 
1 48 
1 49 
1 50 
1 51 
1 52 
1 53 
1 54 
1 55 
1 56 
1 57 
1 58 
1 59 
1 60 
1 61 
1 62 
1 63 
1 64 
1 65 
1 66 
1 67 
1 68 
1 69 
1 70 
1 71 
1 72 
1 73 
1 74 
1 75 
1 76 
1 77 
1 78 
1 79 
1 80 
1 81 
1 82 
1 83 
1 84 
1 85 
1 86 
1 87 
1 88 
1 89 
1 90 
1 91 
1 92 
1 93 
1 94 
1 95 
1 96 
1 97 
1 98 
1 99 
1 100 
1 101 
1 102 
1 103 
1 104 
1 105 
1 106 
1 107 
1 108 
1 109 
1 110 
1 111 
1 112 
1 113 
1 114 
1 115 
1 116 
1 117 
1 118 
1 119 
1 120 
1 121 
1 122 
1 123 
1 124 
1 125 
1 126 
1 127 
1 128 
1 129 
1 130 
1 131 
1 132 
1 133 
1 134 
1 135 
1 136 
1 137 
1 138 
1 139 
1 140 
1 141 
1 142 
1 143 
1 144 
1 145 
1 146 
1 147 
1 148 
1 149 
1 150 
1 151 
1 152 
1 153 
1 154 
1 155 
1 156 
1 157 
1 158 
1 159 
1 160 
1 161 
1 162 
1 163 
1 164 
1 165 
1 166 
1 167 
1 168 
1 169 
1 170 
1 171 
1 172 
1 173 
1 174 
CELL_TYPES 175 
1 
1 
1 
1 
1 
1 
1 
1 
1 
1 
1 
1 
1 
1 
1 
1 
1 
1 
1 
1 
1 
1 
1 
1 
1 
1 
1 
1 
1 
1 
1 
1 
1 
1 
1 
1 
1 
1 
1 
1 
1 
1 
1 
1 
1 
1 
1 
1 
1 
1 
1 
1 
1 
1 
1 
1 
1 
1 
1 
1 
1 
1 
1 
1 
1 
1 
1 
1 
1 
1 
1 
1 
1 
1 
1 
1 
1 
1 
1 
1 
1 
1 
1 
1 
1 
1 
1 
1 
1 
1 
1 
1 
1 
1 
1 
1 
1 
1 
1 
1 
1 
1 
1 
1 
1 
1 
1 
1 
1 
1 
1 
1 
1 
1 
1 
1 
1 
1 
1 
1 
1 
1 
1 
1 
1 
1 
1 
1 
1 
1 
1 
1 
1 
1 
1 
1 
1 
1 
1 
1 
1 
1 
1 
1 
1 
1 
1 
1 
1 
1 
1 
1 
1 
1 
1 
1 
1 
1 
1 
1 
1 
1 
1 
1 
1 
1 
1 
1 
1 
1 
1 
1 
1 
1 
1 
POINT_DATA 175 
VECTORS X_GC float 
-0.026061 -0.706852 0.000000 
-0.106992 -0.638797 0.000000 
-0.054870 -0.647030 0.000000 
-0.028809 -0.601146 0.000000 
-0.186430 -0.574722 0.000000 
-0.137056 -0.577248 0.000000 
-0.114311 -0.523600 0.000000 
-0.058186 -0.539266 0.000000 
-0.029377 -0.499089 0.000000 
-0.265318 -0.511566 0.000000 
-0.217198 -0.512365 0.000000 
-0.196633 -0.455069 0.000000 
-0.143120 -0.463778 0.000000 
-0.116563 -0.416509 0.000000 
-0.058945 -0.436155 0.000000 
-0.029568 -0.398035 0.000000 
-0.344206 -0.448410 0.000000 
-0.296791 -0.448403 0.000000 
-0.278030 -0.388460 0.000000 
-0.225992 -0.394326 0.000000 
-0.201664 -0.342209 0.000000 
-0.145749 -0.355683 0.000000 
-0.117890 -0.311341 0.000000 
-0.059328 -0.334046 0.000000 
-0.029759 -0.296981 0.000000 
-0.058559 -0.747603 0.000000 
-0.162226 -0.768446 0.000000 
-0.123292 -0.732828 0.000000 
-0.142917 -0.683845 0.000000 
-0.261851 -0.790602 0.000000 
-0.229092 -0.753575 0.000000 
-0.256854 -0.702344 0.000000 
-0.209613 -0.668231 0.000000 
-0.223062 -0.620657 0.000000 
-0.360414 -0.812902 0.000000 
-0.329787 -0.775780 0.000000 
-0.361761 -0.723977 0.000000 
-0.321587 -0.687569 0.000000 
-0.341985 -0.637335 0.000000 
-0.290702 -0.604536 0.000000 
-0.302189 -0.557800 0.000000 
-0.458977 -0.835203 0.000000 
-0.429420 -0.798128 0.000000 
-0.464588 -0.746086 0.000000 
-0.427556 -0.709059 0.000000 
-0.453135 -0.657544 0.000000 
-0.407738 -0.622229 0.000000 
-0.425037 -0.572800 0.000000 
-0.370772 -0.541171 0.000000 
-0.381315 -0.494944 0.000000 
-0.046960 -0.798418 0.000000 
-0.095301 -0.892464 0.000000 
-0.098873 -0.839817 0.000000 
-0.149405 -0.824620 0.000000 
-0.140093 -0.984168 0.000000 
-0.148617 -0.935470 0.000000 
-0.205981 -0.925233 0.000000 
-0.203197 -0.867030 0.000000 
-0.248777 -0.847883 0.000000 
-0.184111 -1.075132 0.000000 
-0.194039 -1.028041 0.000000 
-0.254475 -1.020741 0.000000 
-0.257893 -0.966632 0.000000 
-0.309886 -0.951259 0.000000 
-0.303554 -0.890714 0.000000 
-0.347255 -0.870556 0.000000 
-0.228129 -1.166096 0.000000 
-0.238687 -1.119871 0.000000 
-0.301302 -1.114919 0.000000 
-0.307162 -1.062880 0.000000 
-0.363386 -1.050759 0.000000 
-0.362692 -0.993248 0.000000 
-0.412122 -0.975955 0.000000 
-0.403017 -0.913808 0.000000 
-0.445733 -0.893229 0.000000 
-0.000000 -0.821033 0.000000 
0.043388 -0.917464 0.000000 
-0.000000 -0.887432 0.000000 
-0.043388 -0.917464 0.000000 
0.087158 -1.009661 0.000000 
0.043769 -0.985962 0.000000 
-0.000000 -1.024428 0.000000 
-0.043769 -0.985962 0.000000 
-0.087158 -1.009661 0.000000 
0.130831 -1.100790 0.000000 
0.087824 -1.079192 0.000000 
0.044436 -1.121891 0.000000 
-0.000000 -1.090826 0.000000 
-0.044436 -1.121891 0.000000 
-0.087824 -1.079192 0.000000 
-0.130831 -1.100790 0.000000 
0.174505 -1.191920 0.000000 
0.131782 -1.171354 0.000000 
0.088871 -1.217220 0.000000 
0.044532 -1.189357 0.000000 
-0.000000 -1.225757 0.000000 
-0.044532 -1.189357 0.000000 
-0.088871 -1.217220 0.000000 
-0.131782 -1.171354 0.000000 
-0.174505 -1.191920 0.000000 
0.046960 -0.798418 0.000000 
0.149405 -0.824620 0.000000 
0.098873 -0.839817 0.000000 
0.095301 -0.892464 0.000000 
0.248777 -0.847883 0.000000 
0.203197 -0.867030 0.000000 
0.205981 -0.925233 0.000000 
0.148617 -0.935470 0.000000 
0.140093 -0.984168 0.000000 
0.347255 -0.870556 0.000000 
0.303554 -0.890714 0.000000 
0.309886 -0.951259 0.000000 
0.257893 -0.966632 0.000000 
0.254475 -1.020741 0.000000 
0.194039 -1.028041 0.000000 
0.184111 -1.075132 0.000000 
0.445733 -0.893229 0.000000 
0.403017 -0.913808 0.000000 
0.412122 -0.975955 0.000000 
0.362692 -0.993248 0.000000 
0.363386 -1.050759 0.000000 
0.307162 -1.062880 0.000000 
0.301302 -1.114919 0.000000 
0.238687 -1.119871 0.000000 
0.228129 -1.166096 0.000000 
0.058559 -0.747603 0.000000 
0.142917 -0.683845 0.000000 
0.123292 -0.732828 0.000000 
0.162226 -0.768446 0.000000 
0.223062 -0.620657 0.000000 
0.209613 -0.668231 0.000000 
0.256854 -0.702344 0.000000 
0.229092 -0.753575 0.000000 
0.261851 -0.790602 0.000000 
0.302189 -0.557800 0.000000 
0.290702 -0.604536 0.000000 
0.341985 -0.637335 0.000000 
0.321587 -0.687569 0.000000 
0.361761 -0.723977 0.000000 
0.329787 -0.775780 0.000000 
0.360414 -0.812902 0.000000 
0.381315 -0.494944 0.000000 
0.370772 -0.541171 0.000000 
0.425037 -0.572800 0.000000 
0.407738 -0.622229 0.000000 
0.453135 -0.657544 0.000000 
0.427556 -0.709059 0.000000 
0.464588 -0.746086 0.000000 
0.429420 -0.798128 0.000000 
0.458977 -0.835203 0.000000 
0.026061 -0.706852 0.000000 
0.028809 -0.601146 0.000000 
0.054870 -0.647030 0.000000 
0.106992 -0.638797 0.000000 
0.029377 -0.499089 0.000000 
0.058186 -0.539266 0.000000 
0.114311 -0.523600 0.000000 
0.137056 -0.577248 0.000000 
0.186430 -0.574722 0.000000 
0.029568 -0.398035 0.000000 
0.058945 -0.436155 0.000000 
0.116563 -0.416509 0.000000 
0.143120 -0.463778 0.000000 
0.196633 -0.455069 0.000000 
0.217198 -0.512365 0.000000 
0.265318 -0.511566 0.000000 
0.029759 -0.296981 0.000000 
0.059328 -0.334046 0.000000 
0.117890 -0.311341 0.000000 
0.145749 -0.355683 0.000000 
0.201664 -0.342209 0.000000 
0.225992 -0.394326 0.000000 
0.278030 -0.388460 0.000000 
0.296791 -0.448403 0.000000 
0.344206 -0.448410 0.000000 
VECTORS X_EC float 
0.338794 0.042509 0.000000 
-0.609100 -0.876240 0.000000 
0.713312 -0.765099 0.000000 
0.374519 0.615472 0.000000 
0.423588 0.258741 0.000000 
-0.218274 0.292845 0.000000 
-0.513962 -0.431394 0.000000 
0.756418 -0.219908 0.000000 
0.381900 -0.762301 0.000000 
-0.550868 -0.593862 0.000000 
0.823577 -0.583067 0.000000 
0.556234 0.643429 0.000000 
-0.139443 0.760998 0.000000 
-0.484677 0.122874 0.000000 
0.766286 0.388089 0.000000 
0.384386 -0.126531 0.000000 
0.474677 0.553535 0.000000 
-0.141715 0.553438 0.000000 
-0.385608 -0.255790 0.000000 
0.937896 -0.176594 0.000000 
0.621631 -0.880174 0.000000 
-0.105264 -0.698275 0.000000 
-0.467428 0.703098 0.000000 
0.771260 -0.990373 0.000000 
0.386873 0.509238 0.000000 
0.761262 0.592643 0.000000 
0.108942 0.874020 0.000000 
-0.397202 0.393181 0.000000 
-0.142083 -0.268095 0.000000 
-0.595936 -0.826870 0.000000 
0.978194 0.673265 0.000000 
-0.660903 -0.018360 0.000000 
0.724964 -0.478880 0.000000 
0.899809 0.878871 0.000000 
0.685384 -0.525817 0.000000 
0.287229 0.973024 0.000000 
0.702895 0.273696 0.000000 
0.180633 -0.217823 0.000000 
0.445811 -0.895983 0.000000 
-0.220880 0.661231 0.000000 
-0.071546 0.030306 0.000000 
-0.033296 -0.224765 0.000000 
-0.417537 -0.725275 0.000000 
0.039645 0.572163 0.000000 
-0.441768 0.072292 0.000000 
-0.109248 -0.623159 0.000000 
-0.699407 0.900085 0.000000 
-0.474522 0.232806 0.000000 
0.820030 -0.194187 0.000000 
0.957100 -0.818259 0.000000 
0.610485 -0.721350 0.000000 
-0.761092 0.548269 0.000000 
-0.714655 -0.162469 0.000000 
-0.057734 -0.367636 0.000000 
-0.178789 -0.213727 0.000000 
-0.067979 -0.871153 0.000000 
0.677748 0.990644 0.000000 
0.641556 0.204898 0.000000 
-0.765897 -0.053580 0.000000 
0.393446 -0.985718 0.000000 
0.522510 0.378552 0.000000 
-0.691820 0.280008 0.000000 
-0.647393 -0.450475 0.000000 
0.028512 -0.658001 0.000000 
-0.053800 0.524638 0.000000 
0.514316 0.252508 0.000000 
0.965681 0.242291 0.000000 
-0.897068 -0.381737 0.000000 
-0.083078 -0.448590 0.000000 
-0.006893 0.848885 0.000000 
0.724017 0.685252 0.000000 
0.714996 -0.091152 0.000000 
-0.642413 -0.324609 0.000000 
-0.760780 0.836411 0.000000 
-0.205471 0.558595 0.000000 
0.000000 -0.416049 0.000000 
-0.564049 0.885764 0.000000 
0.000000 0.480328 0.000000 
0.564049 0.885764 0.000000 
0.866949 0.130419 0.000000 
-0.569003 -0.189512 0.000000 
0.000000 0.329776 0.000000 
0.569003 -0.189512 0.000000 
-0.866949 0.130419 0.000000 
0.299194 -0.639331 0.000000 
0.858290 -0.930914 0.000000 
-0.577662 -0.354469 0.000000 
0.000000 -0.773847 0.000000 
0.577662 -0.354469 0.000000 
-0.858290 -0.930914 0.000000 
-0.299194 -0.639331 0.000000 
-0.268560 0.590920 0.000000 
0.286830 0.313278 0.000000 
0.844677 0.932476 0.000000 
-0.578910 0.556313 0.000000 
0.000000 -0.952283 0.000000 
0.578910 0.556313 0.000000 
-0.844677 0.932476 0.000000 
-0.286830 0.313278 0.000000 
0.268560 0.590920 0.000000 
-0.610485 -0.721350 0.000000 
0.057734 -0.367636 0.000000 
0.714655 -0.162469 0.000000 
0.761092 0.548269 0.000000 
0.765897 -0.053580 0.000000 
-0.641556 0.204898 0.000000 
-0.677748 0.990644 0.000000 
0.067979 -0.871153 0.000000 
0.178789 -0.213727 0.000000 
-0.514316 0.252508 0.000000 
0.053800 0.524638 0.000000 
-0.028512 -0.658001 0.000000 
0.647393 -0.450475 0.000000 
0.691820 0.280008 0.000000 
-0.522510 0.378552 0.000000 
-0.393446 -0.985718 0.000000 
0.205471 0.558595 0.000000 
0.760780 0.836411 0.000000 
0.642413 -0.324609 0.000000 
-0.714996 -0.091152 0.000000 
-0.724017 0.685252 0.000000 
0.006894 0.848885 0.000000 
0.083078 -0.448590 0.000000 
0.897068 -0.381737 0.000000 
-0.965681 0.242291 0.000000 
-0.761262 0.592643 0.000000 
0.142083 -0.268095 0.000000 
0.397202 0.393181 0.000000 
-0.108942 0.874020 0.000000 
-0.899809 0.878871 0.000000 
-0.724964 -0.478880 0.000000 
0.660903 -0.018360 0.000000 
-0.978194 0.673265 0.000000 
0.595936 -0.826870 0.000000 
0.071546 0.030306 0.000000 
0.220880 0.661231 0.000000 
-0.445811 -0.895983 0.000000 
-0.180633 -0.217823 0.000000 
-0.702895 0.273696 0.000000 
-0.287229 0.973024 0.000000 
-0.685384 -0.525817 0.000000 
-0.957100 -0.818259 0.000000 
-0.820030 -0.194187 0.000000 
0.474522 0.232806 0.000000 
0.699407 0.900085 0.000000 
0.109248 -0.623159 0.000000 
0.441768 0.072292 0.000000 
-0.039645 0.572163 0.000000 
0.417537 -0.725275 0.000000 
0.033296 -0.224765 0.000000 
-0.338794 0.042509 0.000000 
-0.374519 0.615472 0.000000 
-0.713312 -0.765099 0.000000 
0.609100 -0.876240 0.000000 
-0.381900 -0.762301 0.000000 
-0.756418 -0.219908 0.000000 
0.513962 -0.431394 0.000000 
0.218274 0.292845 0.000000 
-0.423588 0.258741 0.000000 
-0.384386 -0.126531 0.000000 
-0.766286 0.388089 0.000000 
0.484677 0.122874 0.000000 
0.139443 0.760998 0.000000 
-0.556234 0.643429 0.000000 
-0.823577 -0.583067 0.000000 
0.550868 -0.593862 0.000000 
-0.386873 0.509238 0.000000 
-0.771260 -0.990373 0.000000 
0.467428 0.703098 0.000000 
0.105264 -0.698275 0.000000 
-0.621631 -0.880174 0.000000 
-0.937896 -0.176594 0.000000 
0.385608 -0.255790 0.000000 
0.141715 0.553438 0.000000 
-0.474677 0.553535 0.000000 
CELL_DATA 175 
SCALARS MASS float 
LOOKUP_TABLE default 
0.078183 
0.086427 
0.094672 
0.086427 
0.088131 
0.092111 
0.085854 
0.092111 
0.088131 
0.088705 
0.091000 
0.086983 
0.091556 
0.086983 
0.091000 
0.088705 
0.089278 
0.091574 
0.089278 
0.092722 
0.089278 
0.092722 
0.089278 
0.091574 
0.089278 
0.078183 
0.086427 
0.094672 
0.086427 
0.088131 
0.092111 
0.085854 
0.092111 
0.088131 
0.088705 
0.091000 
0.086983 
0.091556 
0.086983 
0.091000 
0.088705 
0.089278 
0.091574 
0.089278 
0.092722 
0.089278 
0.092722 
0.089278 
0.091574 
0.089278 
0.078183 
0.086427 
0.094672 
0.086427 
0.088131 
0.092111 
0.085854 
0.092111 
0.088131 
0.088705 
0.091000 
0.086983 
0.091556 
0.086983 
0.091000 
0.088705 
0.089278 
0.091574 
0.089278 
0.092722 
0.089278 
0.092722 
0.089278 
0.091574 
0.089278 
0.078183 
0.086427 
0.094672 
0.086427 
0.088131 
0.092111 
0.085854 
0.092111 
0.088131 
0.088705 
0.091000 
0.086983 
0.091556 
0.086983 
0.091000 
0.088705 
0.089278 
0.091574 
0.089278 
0.092722 
0.089278 
0.092722 
0.089278 
0.091574 
0.089278 
0.078183 
0.086427 
0.094672 
0.086427 
0.088131 
0.092111 
0.085854 
0.092111 
0.088131 
0.088705 
0.091000 
0.086983 
0.091556 
0.086983 
0.091000 
0.088705 
0.089278 
0.091574 
0.089278 
0.092722 
0.089278 
0.092722 
0.089278 
0.091574 
0.089278 
0.078183 
0.086427 
0.094672 
0.086427 
0.088131 
0.092111 
0.085854 
0.092111 
0.088131 
0.088705 
0.091000 
0.086983 
0.091556 
0.086983 
0.091000 
0.088705 
0.089278 
0.091574 
0.089278 
0.092722 
0.089278 
0.092722 
0.089278 
0.091574 
0.089278 
0.078183 
0.086427 
0.094672 
0.086427 
0.088131 
0.092111 
0.085854 
0.092111 
0.088131 
0.088705 
0.091000 
0.086983 
0.091556 
0.086983 
0.091000 
0.088705 
0.089278 
0.091574 
0.089278 
0.092722 
0.089278 
0.092722 
0.089278 
0.091574 
0.089278 
SCALARS MASS float 
LOOKUP_TABLE default 
0.078183 
0.086427 
0.094672 
0.086427 
0.088131 
0.092111 
0.085854 
0.092111 
0.088131 
0.088705 
0.091000 
0.086983 
0.091556 
0.086983 
0.091000 
0.088705 
0.089278 
0.091574 
0.089278 
0.092722 
0.089278 
0.092722 
0.089278 
0.091574 
0.089278 
0.078183 
0.086427 
0.094672 
0.086427 
0.088131 
0.092111 
0.085854 
0.092111 
0.088131 
0.088705 
0.091000 
0.086983 
0.091556 
0.086983 
0.091000 
0.088705 
0.089278 
0.091574 
0.089278 
0.092722 
0.089278 
0.092722 
0.089278 
0.091574 
0.089278 
0.078183 
0.086427 
0.094672 
0.086427 
0.088131 
0.092111 
0.085854 
0.092111 
0.088131 
0.088705 
0.091000 
0.086983 
0.091556 
0.086983 
0.091000 
0.088705 
0.089278 
0.091574 
0.089278 
0.092722 
0.089278 
0.092722 
0.089278 
0.091574 
0.089278 
0.078183 
0.086427 
0.094672 
0.086427 
0.088131 
0.092111 
0.085854 
0.092111 
0.088131 
0.088705 
0.091000 
0.086983 
0.091556 
0.086983 
0.091000 
0.088705 
0.089278 
0.091574 
0.089278 
0.092722 
0.089278 
0.092722 
0.089278 
0.091574 
0.089278 
0.078183 
0.086427 
0.094672 
0.086427 
0.088131 
0.092111 
0.085854 
0.092111 
0.088131 
0.088705 
0.091000 
0.086983 
0.091556 
0.086983 
0.091000 
0.088705 
0.089278 
0.091574 
0.089278 
0.092722 
0.089278 
0.092722 
0.089278 
0.091574 
0.089278 
0.078183 
0.086427 
0.094672 
0.086427 
0.088131 
0.092111 
0.085854 
0.092111 
0.088131 
0.088705 
0.091000 
0.086983 
0.091556 
0.086983 
0.091000 
0.088705 
0.089278 
0.091574 
0.089278 
0.092722 
0.089278 
0.092722 
0.089278 
0.091574 
0.089278 
0.078183 
0.086427 
0.094672 
0.086427 
0.088131 
0.092111 
0.085854 
0.092111 
0.088131 
0.088705 
0.091000 
0.086983 
0.091556 
0.086983 
0.091000 
0.088705 
0.089278 
0.091574 
0.089278 
0.092722 
0.089278 
0.092722 
0.089278 
0.091574 
0.089278 
SCALARS DENSITY float 
LOOKUP_TABLE default 
20.000000 
20.000000 
20.000000 
20.000000 
20.000000 
20.000000 
20.000000 
20.000000 
20.000000 
20.000000 
20.000000 
20.000000 
20.000000 
20.000000 
20.000000 
20.000000 
20.000000 
20.000000 
20.000000 
20.000000 
20.000000 
20.000000 
20.000000 
20.000000 
20.000000 
20.000000 
20.000000 
20.000000 
20.000000 
20.000000 
20.000000 
20.000000 
20.000000 
20.000000 
20.000000 
20.000000 
20.000000 
20.000000 
20.000000 
20.000000 
20.000000 
20.000000 
20.000000 
20.000000 
20.000000 
20.000000 
20.000000 
20.000000 
20.000000 
20.000000 
20.000000 
20.000000 
20.000000 
20.000000 
20.000000 
20.000000 
20.000000 
20.000000 
20.000000 
20.000000 
20.000000 
20.000000 
20.000000 
20.000000 
20.000000 
20.000000 
20.000000 
20.000000 
20.000000 
20.000000 
20.000000 
20.000000 
20.000000 
20.000000 
20.000000 
20.000000 
20.000000 
20.000000 
20.000000 
20.000000 
20.000000 
20.000000 
20.000000 
20.000000 
20.000000 
20.000000 
20.000000 
20.000000 
20.000000 
20.000000 
20.000000 
20.000000 
20.000000 
20.000000 
20.000000 
20.000000 
20.000000 
20.000000 
20.000000 
20.000000 
20.000000 
20.000000 
20.000000 
20.000000 
20.000000 
20.000000 
20.000000 
20.000000 
20.000000 
20.000000 
20.000000 
20.000000 
20.000000 
20.000000 
20.000000 
20.000000 
20.000000 
20.000000 
20.000000 
20.000000 
20.000000 
20.000000 
20.000000 
20.000000 
20.000000 
20.000000 
20.000000 
20.000000 
20.000000 
20.000000 
20.000000 
20.000000 
20.000000 
20.000000 
20.000000 
20.000000 
20.000000 
20.000000 
20.000000 
20.000000 
20.000000 
20.000000 
20.000000 
20.000000 
20.000000 
20.000000 
20.000000 
20.000000 
20.000000 
20.000000 
20.000000 
20.000000 
20.000000 
20.000000 
20.000000 
20.000000 
20.000000 
20.000000 
20.000000 
20.000000 
20.000000 
20.000000 
20.000000 
20.000000 
20.000000 
20.000000 
20.000000 
20.000000 
20.000000 
20.000000 
20.000000 
20.000000 
20.000000 
20.000000 
20.000000 
SCALARS ELEM_i float 
LOOKUP_TABLE default 
177 
204 
177 
178 
205 
205 
205 
178 
178 
232 
205 
206 
206 
206 
179 
179 
233 
233 
233 
206 
206 
206 
207 
179 
180 
177 
204 
204 
204 
230 
204 
231 
204 
205 
230 
231 
231 
231 
231 
232 
232 
257 
257 
258 
258 
258 
259 
259 
232 
232 
176 
203 
203 
203 
202 
202 
203 
203 
230 
201 
202 
229 
229 
229 
230 
230 
201 
228 
228 
229 
229 
229 
256 
257 
257 
176 
176 
176 
176 
148 
175 
175 
175 
202 
147 
147 
174 
174 
174 
201 
201 
147 
147 
147 
174 
173 
174 
201 
201 
201 
176 
149 
149 
149 
122 
149 
149 
148 
148 
122 
122 
121 
121 
121 
148 
147 
95 
95 
94 
121 
121 
121 
120 
120 
147 
177 
150 
150 
150 
151 
150 
123 
150 
122 
124 
124 
123 
123 
123 
123 
122 
124 
124 
97 
97 
96 
96 
96 
95 
95 
177 
178 
177 
150 
178 
178 
151 
151 
151 
179 
179 
152 
152 
152 
151 
124 
180 
179 
153 
152 
152 
152 
125 
125 
125 
VECTORS VELOCITY float 
-0.000000 -3.863570 0.000000 
0.000000 -3.863570 0.000000 
0.000000 -3.863570 0.000000 
0.000000 -3.863570 0.000000 
0.000000 -3.863570 0.000000 
0.000000 -3.863570 0.000000 
0.000000 -3.863570 0.000000 
0.000000 -3.863570 0.000000 
0.000000 -3.863570 0.000000 
0.000000 -3.863570 0.000000 
-0.000000 -3.863570 0.000000 
0.000000 -3.863570 0.000000 
-0.000000 -3.863570 0.000000 
-0.000000 -3.863570 0.000000 
-0.000000 -3.863570 0.000000 
-0.000000 -3.863570 0.000000 
-0.000000 -3.863570 0.000000 
-0.000000 -3.863570 0.000000 
-0.000000 -3.863570 0.000000 
0.000000 -3.863570 0.000000 
0.000000 -3.863570 0.000000 
-0.000000 -3.863570 0.000000 
0.000000 -3.863570 0.000000 
-0.000000 -3.863570 0.000000 
-0.000000 -3.863570 0.000000 
-0.000000 -3.863570 0.000000 
-0.000000 -3.863570 0.000000 
-0.000000 -3.863570 0.000000 
0.000000 -3.863570 0.000000 
-0.000000 -3.863570 0.000000 
0.000000 -3.863570 0.000000 
0.000000 -3.863570 0.000000 
0.000000 -3.863570 0.000000 
0.000000 -3.863570 0.000000 
-0.000000 -3.863570 0.000000 
-0.000000 -3.863570 0.000000 
0.000000 -3.863570 0.000000 
0.000000 -3.863570 0.000000 
0.000000 -3.863570 0.000000 
-0.000000 -3.863570 0.000000 
0.000000 -3.863570 0.000000 
-0.000000 -3.863570 0.000000 
-0.000000 -3.863570 0.000000 
-0.000000 -3.863570 0.000000 
-0.000000 -3.863570 0.000000 
-0.000000 -3.863570 0.000000 
0.000000 -3.863570 0.000000 
-0.000000 -3.863570 0.000000 
0.000000 -3.863570 0.000000 
0.000000 -3.863570 0.000000 
-0.000000 -3.863570 0.000000 
0.000000 -3.863570 0.000000 
0.000000 -3.863570 0.000000 
-0.000000 -3.863570 0.000000 
0.000000 -3.863570 0.000000 
0.000000 -3.863570 0.000000 
0.000000 -3.863570 0.000000 
-0.000000 -3.863570 0.000000 
-0.000000 -3.863570 0.000000 
-0.000000 -3.863570 0.000000 
0.000000 -3.863570 0.000000 
0.000000 -3.863570 0.000000 
0.000000 -3.863570 0.000000 
0.000000 -3.863570 0.000000 
-0.000000 -3.863570 0.000000 
-0.000000 -3.863570 0.000000 
0.000000 -3.863570 0.000000 
-0.000000 -3.863570 0.000000 
-0.000000 -3.863570 0.000000 
-0.000000 -3.863570 0.000000 
-0.000000 -3.863570 0.000000 
-0.000000 -3.863570 0.000000 
0.000000 -3.863570 0.000000 
-0.000000 -3.863570 0.000000 
-0.000000 -3.863570 0.000000 
0.000000 -3.863570 0.000000 
-0.000000 -3.863570 0.000000 
-0.000000 -3.863570 0.000000 
0.000000 -3.863570 0.000000 
-0.000000 -3.863570 0.000000 
-0.000000 -3.863570 0.000000 
-0.000000 -3.863570 0.000000 
-0.000000 -3.863570 0.000000 
-0.000000 -3.863570 0.000000 
0.000000 -3.863570 0.000000 
0.000000 -3.863570 0.000000 
0.000000 -3.863570 0.000000 
-0.000000 -3.863570 0.000000 
0.000000 -3.863570 0.000000 
-0.000000 -3.863570 0.000000 
-0.000000 -3.863570 0.000000 
-0.000000 -3.863570 0.000000 
0.000000 -3.863570 0.000000 
-0.000000 -3.863570 0.000000 
0.000000 -3.863570 0.000000 
0.000000 -3.863570 0.000000 
-0.000000 -3.863570 0.000000 
0.000000 -3.863570 0.000000 
-0.000000 -3.863570 0.000000 
-0.000000 -3.863570 0.000000 
-0.000000 -3.863570 0.000000 
0.000000 -3.863570 0.000000 
-0.000000 -3.863570 0.000000 
-0.000000 -3.863570 0.000000 
0.000000 -3.863570 0.000000 
0.000000 -3.863570 0.000000 
-0.000000 -3.863570 0.000000 
-0.000000 -3.863570 0.000000 
0.000000 -3.863570 0.000000 
0.000000 -3.863570 0.000000 
-0.000000 -3.863570 0.000000 
-0.000000 -3.863570 0.000000 
0.000000 -3.863570 0.000000 
0.000000 -3.863570 0.000000 
0.000000 -3.863570 0.000000 
0.000000 -3.863570 0.000000 
-0.000000 -3.863570 0.000000 
0.000000 -3.863570 0.000000 
0.000000 -3.863570 0.000000 
-0.000000 -3.863570 0.000000 
0.000000 -3.863570 0.000000 
0.000000 -3.863570 0.000000 
0.000000 -3.863570 0.000000 
-0.000000 -3.863570 0.000000 
-0.000000 -3.863570 0.000000 
-0.000000 -3.863570 0.000000 
-0.000000 -3.863570 0.000000 
0.000000 -3.863570 0.000000 
0.000000 -3.863570 0.000000 
-0.000000 -3.863570 0.000000 
-0.000000 -3.863570 0.000000 
0.000000 -3.863570 0.000000 
0.000000 -3.863570 0.000000 
0.000000 -3.863570 0.000000 
-0.000000 -3.863570 0.000000 
-0.000000 -3.863570 0.000000 
0.000000 -3.863570 0.000000 
0.000000 -3.863570 0.000000 
0.000000 -3.863570 0.000000 
0.000000 -3.863570 0.000000 
0.000000 -3.863570 0.000000 
-0.000000 -3.863570 0.000000 
0.000000 -3.863570 0.000000 
0.000000 -3.863570 0.000000 
0.000000 -3.863570 0.000000 
-0.000000 -3.863570 0.000000 
-0.000000 -3.863570 0.000000 
-0.000000 -3.863570 0.000000 
-0.000000 -3.863570 0.000000 
0.000000 -3.863570 0.000000 
-0.000000 -3.863570 0.000000 
0.000000 -3.863570 0.000000 
0.000000 -3.863570 0.000000 
-0.000000 -3.863570 0.000000 
0.000000 -3.863570 0.000000 
0.000000 -3.863570 0.000000 
0.000000 -3.863570 0.000000 
0.000000 -3.863570 0.000000 
-0.000000 -3.863570 0.000000 
0.000000 -3.863570 0.000000 
0.000000 -3.863570 0.000000 
0.000000 -3.863570 0.000000 
0.000000 -3.863570 0.000000 
0.000000 -3.863570 0.000000 
0.000000 -3.863570 0.000000 
0.000000 -3.863570 0.000000 
-0.000000 -3.863570 0.000000 
0.000000 -3.863570 0.000000 
0.000000 -3.863570 0.000000 
-0.000000 -3.863570 0.000000 
-0.000000 -3.863570 0.000000 
-0.000000 -3.863570 0.000000 
0.000000 -3.863570 0.000000 
0.000000 -3.863570 0.000000 
0.000000 -3.863570 0.000000 
TENSORS STRESS float 
0.000000 -0.000000 0.000000 
0.000000 0.000000 0.000000 
0.000000 0.000000 0.000000 

0.000000 0.000000 0.000000 
0.000000 0.000000 0.000000 
0.000000 0.000000 0.000000 

0.000000 -0.000000 0.000000 
0.000000 0.000000 0.000000 
0.000000 0.000000 0.000000 

-0.000000 0.000000 0.000000 
0.000000 -0.000000 0.000000 
0.000000 0.000000 0.000000 

0.000000 -0.000000 0.000000 
0.000000 0.000000 0.000000 
0.000000 0.000000 0.000000 

0.000000 0.000000 0.000000 
0.000000 0.000000 0.000000 
0.000000 0.000000 0.000000 

0.000000 0.000000 0.000000 
0.000000 -0.000000 0.000000 
0.000000 0.000000 0.000000 

-0.000000 -0.000000 0.000000 
0.000000 0.000000 0.000000 
0.000000 0.000000 0.000000 

-0.000000 0.000000 0.000000 
0.000000 -0.000000 0.000000 
0.000000 0.000000 0.000000 

0.000000 0.000000 0.000000 
0.000000 0.000000 0.000000 
0.000000 0.000000 0.000000 

0.000000 -0.000000 0.000000 
0.000000 -0.000000 0.000000 
0.000000 0.000000 0.000000 

-0.000000 0.000000 0.000000 
0.000000 -0.000000 0.000000 
0.000000 0.000000 0.000000 

-0.000000 -0.000000 0.000000 
0.000000 -0.000000 0.000000 
0.000000 0.000000 0.000000 

-0.000000 -0.000000 0.000000 
0.000000 0.000000 0.000000 
0.000000 0.000000 0.000000 

-0.000000 -0.000000 0.000000 
0.000000 -0.000000 0.000000 
0.000000 0.000000 0.000000 

0.000000 0.000000 0.000000 
0.000000 0.000000 0.000000 
0.000000 0.000000 0.000000 

0.000000 -0.000000 0.000000 
0.000000 0.000000 0.000000 
0.000000 0.000000 0.000000 

0.000000 0.000000 0.000000 
0.000000 -0.000000 0.000000 
0.000000 0.000000 0.000000 

-0.000000 0.000000 0.000000 
0.000000 -0.000000 0.000000 
0.000000 0.000000 0.000000 

-0.000000 0.000000 0.000000 
0.000000 -0.000000 0.000000 
0.000000 0.000000 0.000000 

-0.000000 -0.000000 0.000000 
0.000000 0.000000 0.000000 
0.000000 0.000000 0.000000 

0.000000 -0.000000 0.000000 
0.000000 0.000000 0.000000 
0.000000 0.000000 0.000000 

-0.000000 -0.000000 0.000000 
0.000000 -0.000000 0.000000 
0.000000 0.000000 0.000000 

0.000000 -0.000000 0.000000 
0.000000 0.000000 0.000000 
0.000000 0.000000 0.000000 

0.000000 0.000000 0.000000 
0.000000 0.000000 0.000000 
0.000000 0.000000 0.000000 

-0.000000 -0.000000 0.000000 
0.000000 0.000000 0.000000 
0.000000 0.000000 0.000000 

0.000000 -0.000000 0.000000 
0.000000 0.000000 0.000000 
0.000000 0.000000 0.000000 

0.000000 -0.000000 0.000000 
0.000000 0.000000 0.000000 
0.000000 0.000000 0.000000 

-0.000000 -0.000000 0.000000 
0.000000 -0.000000 0.000000 
0.000000 0.000000 0.000000 

-0.000000 0.000000 0.000000 
0.000000 -0.000000 0.000000 
0.000000 0.000000 0.000000 

0.000000 0.000000 0.000000 
0.000000 -0.000000 0.000000 
0.000000 0.000000 0.000000 

-0.000000 -0.000000 0.000000 
0.000000 -0.000000 0.000000 
0.000000 0.000000 0.000000 

0.000000 -0.000000 0.000000 
0.000000 0.000000 0.000000 
0.000000 0.000000 0.000000 

0.000000 -0.000000 0.000000 
0.000000 0.000000 0.000000 
0.000000 0.000000 0.000000 

-0.000000 -0.000000 0.000000 
0.000000 -0.000000 0.000000 
0.000000 0.000000 0.000000 

-0.000000 0.000000 0.000000 
0.000000 0.000000 0.000000 
0.000000 0.000000 0.000000 

0.000000 -0.000000 0.000000 
0.000000 -0.000000 0.000000 
0.000000 0.000000 0.000000 

0.000000 0.000000 0.000000 
0.000000 0.000000 0.000000 
0.000000 0.000000 0.000000 

0.000000 -0.000000 0.000000 
0.000000 0.000000 0.000000 
0.000000 0.000000 0.000000 

0.000000 -0.000000 0.000000 
0.000000 0.000000 0.000000 
0.000000 0.000000 0.000000 

-0.000000 -0.000000 0.000000 
0.000000 0.000000 0.000000 
0.000000 0.000000 0.000000 

0.000000 0.000000 0.000000 
0.000000 0.000000 0.000000 
0.000000 0.000000 0.000000 

0.000000 0.000000 0.000000 
0.000000 0.000000 0.000000 
0.000000 0.000000 0.000000 

-0.000000 -0.000000 0.000000 
0.000000 0.000000 0.000000 
0.000000 0.000000 0.000000 

0.000000 0.000000 0.000000 
0.000000 0.000000 0.000000 
0.000000 0.000000 0.000000 

-0.000000 0.000000 0.000000 
0.000000 -0.000000 0.000000 
0.000000 0.000000 0.000000 

-0.000000 0.000000 0.000000 
0.000000 -0.000000 0.000000 
0.000000 0.000000 0.000000 

0.000000 -0.000000 0.000000 
0.000000 0.000000 0.000000 
0.000000 0.000000 0.000000 

0.000000 -0.000000 0.000000 
0.000000 0.000000 0.000000 
0.000000 0.000000 0.000000 

0.000000 0.000000 0.000000 
0.000000 0.000000 0.000000 
0.000000 0.000000 0.000000 

-0.000000 -0.000000 0.000000 
0.000000 0.000000 0.000000 
0.000000 0.000000 0.000000 

-0.000000 -0.000000 0.000000 
0.000000 -0.000000 0.000000 
0.000000 0.000000 0.000000 

0.000000 -0.000000 0.000000 
0.000000 0.000000 0.000000 
0.000000 0.000000 0.000000 

0.000000 0.000000 0.000000 
0.000000 0.000000 0.000000 
0.000000 0.000000 0.000000 

-0.000000 0.000000 0.000000 
0.000000 -0.000000 0.000000 
0.000000 0.000000 0.000000 

-0.000000 0.000000 0.000000 
0.000000 -0.000000 0.000000 
0.000000 0.000000 0.000000 

0.000000 -0.000000 0.000000 
0.000000 0.000000 0.000000 
0.000000 0.000000 0.000000 

0.000000 -0.000000 0.000000 
0.000000 0.000000 0.000000 
0.000000 0.000000 0.000000 

-0.000000 -0.000000 0.000000 
0.000000 0.000000 0.000000 
0.000000 0.000000 0.000000 

-0.000000 0.000000 0.000000 
0.000000 0.000000 0.000000 
0.000000 0.000000 0.000000 

0.000000 0.000000 0.000000 
0.000000 0.000000 0.000000 
0.000000 0.000000 0.000000 

0.000000 0.000000 0.000000 
0.000000 0.000000 0.000000 
0.000000 0.000000 0.000000 

-0.000000 0.000000 0.000000 
0.000000 -0.000000 0.000000 
0.000000 0.000000 0.000000 

-0.000000 -0.000000 0.000000 
0.000000 -0.000000 0.000000 
0.000000 0.000000 0.000000 

-0.000000 -0.000000 0.000000 
0.000000 -0.000000 0.000000 
0.000000 0.000000 0.000000 

-0.000000 -0.000000 0.000000 
0.000000 -0.000000 0.000000 
0.000000 0.000000 0.000000 

-0.000000 0.000000 0.000000 
0.000000 -0.000000 0.000000 
0.000000 0.000000 0.000000 

0.000000 -0.000000 0.000000 
0.000000 0.000000 0.000000 
0.000000 0.000000 0.000000 

-0.000000 0.000000 0.000000 
0.000000 -0.000000 0.000000 
0.000000 0.000000 0.000000 

0.000000 0.000000 0.000000 
0.000000 0.000000 0.000000 
0.000000 0.000000 0.000000 

0.000000 0.000000 0.000000 
0.000000 0.000000 0.000000 
0.000000 0.000000 0.000000 

-0.000000 -0.000000 0.000000 
0.000000 -0.000000 0.000000 
0.000000 0.000000 0.000000 

0.000000 0.000000 0.000000 
0.000000 -0.000000 0.000000 
0.000000 0.000000 0.000000 

0.000000 0.000000 0.000000 
0.000000 -0.000000 0.000000 
0.000000 0.000000 0.000000 

0.000000 -0.000000 0.000000 
0.000000 0.000000 0.000000 
0.000000 0.000000 0.000000 

-0.000000 0.000000 0.000000 
0.000000 -0.000000 0.000000 
0.000000 0.000000 0.000000 

-0.000000 -0.000000 0.000000 
0.000000 -0.000000 0.000000 
0.000000 0.000000 0.000000 

-0.000000 -0.000000 0.000000 
0.000000 0.000000 0.000000 
0.000000 0.000000 0.000000 

-0.000000 -0.000000 0.000000 
0.000000 0.000000 0.000000 
0.000000 0.000000 0.000000 

-0.000000 -0.000000 0.000000 
0.000000 0.000000 0.000000 
0.000000 0.000000 0.000000 

0.000000 0.000000 0.000000 
0.000000 0.000000 0.000000 
0.000000 0.000000 0.000000 

0.000000 -0.000000 0.000000 
0.000000 0.000000 0.000000 
0.000000 0.000000 0.000000 

0.000000 0.000000 0.000000 
0.000000 0.000000 0.000000 
0.000000 0.000000 0.000000 

-0.000000 -0.000000 0.000000 
0.000000 -0.000000 0.000000 
0.000000 0.000000 0.000000 

-0.000000 0.000000 0.000000 
0.000000 0.000000 0.000000 
0.000000 0.000000 0.000000 

-0.000000 0.000000 0.000000 
0.000000 -0.000000 0.000000 
0.000000 0.000000 0.000000 

0.000000 -0.000000 0.000000 
0.000000 0.000000 0.000000 
0.000000 0.000000 0.000000 

-0.000000 -0.000000 0.000000 
0.000000 -0.000000 0.000000 
0.000000 0.000000 0.000000 

0.000000 0.000000 0.000000 
0.000000 0.000000 0.000000 
0.000000 0.000000 0.000000 

-0.000000 0.000000 0.000000 
0.000000 -0.000000 0.000000 
0.000000 0.000000 0.000000 

0.000000 0.000000 0.000000 
0.000000 0.000000 0.000000 
0.000000 0.000000 0.000000 

-0.000000 0.000000 0.000000 
0.000000 -0.000000 0.000000 
0.000000 0.000000 0.000000 

-0.000000 0.000000 0.000000 
0.000000 0.000000 0.000000 
0.000000 0.000000 0.000000 

-0.000000 0.000000 0.000000 
0.000000 0.000000 0.000000 
0.000000 0.000000 0.000000 

0.000000 0.000000 0.000000 
0.000000 0.000000 0.000000 
0.000000 0.000000 0.000000 

0.000000 -0.000000 0.000000 
0.000000 -0.000000 0.000000 
0.000000 0.000000 0.000000 

-0.000000 0.000000 0.000000 
0.000000 -0.000000 0.000000 
0.000000 0.000000 0.000000 

-0.000000 -0.000000 0.000000 
0.000000 -0.000000 0.000000 
0.000000 0.000000 0.000000 

-0.000000 -0.000000 0.000000 
0.000000 -0.000000 0.000000 
0.000000 0.000000 0.000000 

0.000000 0.000000 0.000000 
0.000000 -0.000000 0.000000 
0.000000 0.000000 0.000000 

-0.000000 -0.000000 0.000000 
0.000000 -0.000000 0.000000 
0.000000 0.000000 0.000000 

-0.000000 0.000000 0.000000 
0.000000 0.000000 0.000000 
0.000000 0.000000 0.000000 

-0.000000 0.000000 0.000000 
0.000000 -0.000000 0.000000 
0.000000 0.000000 0.000000 

0.000000 0.000000 0.000000 
0.000000 0.000000 0.000000 
0.000000 0.000000 0.000000 

-0.000000 -0.000000 0.000000 
0.000000 -0.000000 0.000000 
0.000000 0.000000 0.000000 

0.000000 0.000000 0.000000 
0.000000 0.000000 0.000000 
0.000000 0.000000 0.000000 

-0.000000 -0.000000 0.000000 
0.000000 -0.000000 0.000000 
0.000000 0.000000 0.000000 

-0.000000 -0.000000 0.000000 
0.000000 0.000000 0.000000 
0.000000 0.000000 0.000000 

0.000000 -0.000000 0.000000 
0.000000 0.000000 0.000000 
0.000000 0.000000 0.000000 

0.000000 -0.000000 0.000000 
0.000000 -0.000000 0.000000 
0.000000 0.000000 0.000000 

0.000000 -0.000000 0.000000 
0.000000 -0.000000 0.000000 
0.000000 0.000000 0.000000 

-0.000000 -0.000000 0.000000 
0.000000 -0.000000 0.000000 
0.000000 0.000000 0.000000 

-0.000000 -0.000000 0.000000 
0.000000 -0.000000 0.000000 
0.000000 0.000000 0.000000 

-0.000000 -0.000000 0.000000 
0.000000 -0.000000 0.000000 
0.000000 0.000000 0.000000 

0.000000 0.000000 0.000000 
0.000000 0.000000 0.000000 
0.000000 0.000000 0.000000 

0.000000 -0.000000 0.000000 
0.000000 0.000000 0.000000 
0.000000 0.000000 0.000000 

-0.000000 0.000000 0.000000 
0.000000 -0.000000 0.000000 
0.000000 0.000000 0.000000 

-0.000000 0.000000 0.000000 
0.000000 0.000000 0.000000 
0.000000 0.000000 0.000000 

-0.000000 0.000000 0.000000 
0.000000 -0.000000 0.000000 
0.000000 0.000000 0.000000 

-0.000000 -0.000000 0.000000 
0.000000 -0.000000 0.000000 
0.000000 0.000000 0.000000 

0.000000 0.000000 0.000000 
0.000000 0.000000 0.000000 
0.000000 0.000000 0.000000 

0.000000 -0.000000 0.000000 
0.000000 0.000000 0.000000 
0.000000 0.000000 0.000000 

-0.000000 0.000000 0.000000 
0.000000 -0.000000 0.000000 
0.000000 0.000000 0.000000 

0.000000 0.000000 0.000000 
0.000000 0.000000 0.000000 
0.000000 0.000000 0.000000 

0.000000 -0.000000 0.000000 
0.000000 0.000000 0.000000 
0.000000 0.000000 0.000000 

-0.000000 -0.000000 0.000000 
0.000000 -0.000000 0.000000 
0.000000 0.000000 0.000000 

-0.000000 -0.000000 0.000000 
0.000000 -0.000000 0.000000 
0.000000 0.000000 0.000000 

-0.000000 -0.000000 0.000000 
0.000000 0.000000 0.000000 
0.000000 0.000000 0.000000 

-0.000000 0.000000 0.000000 
0.000000 0.000000 0.000000 
0.000000 0.000000 0.000000 

0.000000 0.000000 0.000000 
0.000000 -0.000000 0.000000 
0.000000 0.000000 0.000000 

0.000000 0.000000 0.000000 
0.000000 0.000000 0.000000 
0.000000 0.000000 0.000000 

-0.000000 0.000000 0.000000 
0.000000 -0.000000 0.000000 
0.000000 0.000000 0.000000 

-0.000000 -0.000000 0.000000 
0.000000 0.000000 0.000000 
0.000000 0.000000 0.000000 

0.000000 0.000000 0.000000 
0.000000 -0.000000 0.000000 
0.000000 0.000000 0.000000 

-0.000000 -0.000000 0.000000 
0.000000 -0.000000 0.000000 
0.000000 0.000000 0.000000 

-0.000000 -0.000000 0.000000 
0.000000 -0.000000 0.000000 
0.000000 0.000000 0.000000 

-0.000000 -0.000000 0.000000 
0.000000 -0.000000 0.000000 
0.000000 0.000000 0.000000 

-0.000000 0.000000 0.000000 
0.000000 0.000000 0.000000 
0.000000 0.000000 0.000000 

-0.000000 -0.000000 0.000000 
0.000000 -0.000000 0.000000 
0.000000 0.000000 0.000000 

-0.000000 -0.000000 0.000000 
0.000000 -0.000000 0.000000 
0.000000 0.000000 0.000000 

0.000000 -0.000000 0.000000 
0.000000 0.000000 0.000000 
0.000000 0.000000 0.000000 

0.000000 -0.000000 0.000000 
0.000000 -0.000000 0.000000 
0.000000 0.000000 0.000000 

0.000000 0.000000 0.000000 
0.000000 0.000000 0.000000 
0.000000 0.000000 0.000000 

-0.000000 0.000000 0.000000 
0.000000 0.000000 0.000000 
0.000000 0.000000 0.000000 

0.000000 0.000000 0.000000 
0.000000 0.000000 0.000000 
0.000000 0.000000 0.000000 

0.000000 0.000000 0.000000 
0.000000 -0.000000 0.000000 
0.000000 0.000000 0.000000 

0.000000 -0.000000 0.000000 
0.000000 0.000000 0.000000 
0.000000 0.000000 0.000000 

0.000000 -0.000000 0.000000 
0.000000 0.000000 0.000000 
0.000000 0.000000 0.000000 

0.000000 -0.000000 0.000000 
0.000000 0.000000 0.000000 
0.000000 0.000000 0.000000 

-0.000000 -0.000000 0.000000 
0.000000 -0.000000 0.000000 
0.000000 0.000000 0.000000 

0.000000 -0.000000 0.000000 
0.000000 0.000000 0.000000 
0.000000 0.000000 0.000000 

0.000000 0.000000 0.000000 
0.000000 0.000000 0.000000 
0.000000 0.000000 0.000000 

0.000000 -0.000000 0.000000 
0.000000 0.000000 0.000000 
0.000000 0.000000 0.000000 

0.000000 -0.000000 0.000000 
0.000000 -0.000000 0.000000 
0.000000 0.000000 0.000000 

-0.000000 -0.000000 0.000000 
0.000000 0.000000 0.000000 
0.000000 0.000000 0.000000 

-0.000000 0.000000 0.000000 
0.000000 0.000000 0.000000 
0.000000 0.000000 0.000000 

-0.000000 0.000000 0.000000 
0.000000 -0.000000 0.000000 
0.000000 0.000000 0.000000 

0.000000 -0.000000 0.000000 
0.000000 0.000000 0.000000 
0.000000 0.000000 0.000000 

0.000000 0.000000 0.000000 
0.000000 0.000000 0.000000 
0.000000 0.000000 0.000000 

-0.000000 0.000000 0.000000 
0.000000 -0.000000 0.000000 
0.000000 0.000000 0.000000 

-0.000000 0.000000 0.000000 
0.000000 -0.000000 0.000000 
0.000000 0.000000 0.000000 

0.000000 -0.000000 0.000000 
0.000000 0.000000 0.000000 
0.000000 0.000000 0.000000 

-0.000000 -0.000000 0.000000 
0.000000 -0.000000 0.000000 
0.000000 0.000000 0.000000 

-0.000000 0.000000 0.000000 
0.000000 -0.000000 0.000000 
0.000000 0.000000 0.000000 

-0.000000 -0.000000 0.000000 
0.000000 -0.000000 0.000000 
0.000000 0.000000 0.000000 

-0.000000 -0.000000 0.000000 
0.000000 -0.000000 0.000000 
0.000000 0.000000 0.000000 

0.000000 0.000000 0.000000 
0.000000 -0.000000 0.000000 
0.000000 0.000000 0.000000 

0.000000 -0.000000 0.000000 
0.000000 0.000000 0.000000 
0.000000 0.000000 0.000000 

0.000000 0.000000 0.000000 
0.000000 0.000000 0.000000 
0.000000 0.000000 0.000000 

-0.000000 0.000000 0.000000 
0.000000 -0.000000 0.000000 
0.000000 0.000000 0.000000 

0.000000 0.000000 0.000000 
0.000000 0.000000 0.000000 
0.000000 0.000000 0.000000 

0.000000 0.000000 0.000000 
0.000000 0.000000 0.000000 
0.000000 0.000000 0.000000 

-0.000000 0.000000 0.000000 
0.000000 -0.000000 0.000000 
0.000000 0.000000 0.000000 

0.000000 -0.000000 0.000000 
0.000000 0.000000 0.000000 
0.000000 0.000000 0.000000 

0.000000 -0.000000 0.000000 
0.000000 0.000000 0.000000 
0.000000 0.000000 0.000000 

TENSORS STRAIN float 
-0.000000 -0.000000 0.000000 
0.000000 0.000000 0.000000 
0.000000 0.000000 0.000000 

0.000000 0.000000 0.000000 
0.000000 0.000000 0.000000 
0.000000 0.000000 0.000000 

0.000000 -0.000000 0.000000 
0.000000 0.000000 0.000000 
0.000000 0.000000 0.000000 

-0.000000 0.000000 0.000000 
0.000000 -0.000000 0.000000 
0.000000 0.000000 0.000000 

0.000000 -0.000000 0.000000 
0.000000 -0.000000 0.000000 
0.000000 0.000000 0.000000 

0.000000 0.000000 0.000000 
0.000000 0.000000 0.000000 
0.000000 0.000000 0.000000 

0.000000 0.000000 0.000000 
0.000000 -0.000000 0.000000 
0.000000 0.000000 0.000000 

-0.000000 -0.000000 0.000000 
0.000000 0.000000 0.000000 
0.000000 0.000000 0.000000 

-0.000000 0.000000 0.000000 
0.000000 -0.000000 0.000000 
0.000000 0.000000 0.000000 

-0.000000 0.000000 0.000000 
0.000000 0.000000 0.000000 
0.000000 0.000000 0.000000 

0.000000 -0.000000 0.000000 
0.000000 -0.000000 0.000000 
0.000000 0.000000 0.000000 

0.000000 0.000000 0.000000 
0.000000 -0.000000 0.000000 
0.000000 0.000000 0.000000 

0.000000 -0.000000 0.000000 
0.000000 -0.000000 0.000000 
0.000000 0.000000 0.000000 

-0.000000 -0.000000 0.000000 
0.000000 0.000000 0.000000 
0.000000 0.000000 0.000000 

-0.000000 -0.000000 0.000000 
0.000000 -0.000000 0.000000 
0.000000 0.000000 0.000000 

0.000000 0.000000 0.000000 
0.000000 0.000000 0.000000 
0.000000 0.000000 0.000000 

0.000000 -0.000000 0.000000 
0.000000 0.000000 0.000000 
0.000000 0.000000 0.000000 

0.000000 0.000000 0.000000 
0.000000 -0.000000 0.000000 
0.000000 0.000000 0.000000 

-0.000000 0.000000 0.000000 
0.000000 -0.000000 0.000000 
0.000000 0.000000 0.000000 

-0.000000 0.000000 0.000000 
0.000000 -0.000000 0.000000 
0.000000 0.000000 0.000000 

-0.000000 -0.000000 0.000000 
0.000000 0.000000 0.000000 
0.000000 0.000000 0.000000 

-0.000000 -0.000000 0.000000 
0.000000 0.000000 0.000000 
0.000000 0.000000 0.000000 

0.000000 -0.000000 0.000000 
0.000000 -0.000000 0.000000 
0.000000 0.000000 0.000000 

0.000000 -0.000000 0.000000 
0.000000 -0.000000 0.000000 
0.000000 0.000000 0.000000 

0.000000 0.000000 0.000000 
0.000000 -0.000000 0.000000 
0.000000 0.000000 0.000000 

-0.000000 -0.000000 0.000000 
0.000000 0.000000 0.000000 
0.000000 0.000000 0.000000 

0.000000 -0.000000 0.000000 
0.000000 0.000000 0.000000 
0.000000 0.000000 0.000000 

0.000000 -0.000000 0.000000 
0.000000 0.000000 0.000000 
0.000000 0.000000 0.000000 

0.000000 -0.000000 0.000000 
0.000000 -0.000000 0.000000 
0.000000 0.000000 0.000000 

-0.000000 0.000000 0.000000 
0.000000 -0.000000 0.000000 
0.000000 0.000000 0.000000 

0.000000 0.000000 0.000000 
0.000000 -0.000000 0.000000 
0.000000 0.000000 0.000000 

0.000000 -0.000000 0.000000 
0.000000 -0.000000 0.000000 
0.000000 0.000000 0.000000 

0.000000 -0.000000 0.000000 
0.000000 0.000000 0.000000 
0.000000 0.000000 0.000000 

0.000000 -0.000000 0.000000 
0.000000 0.000000 0.000000 
0.000000 0.000000 0.000000 

-0.000000 -0.000000 0.000000 
0.000000 -0.000000 0.000000 
0.000000 0.000000 0.000000 

-0.000000 0.000000 0.000000 
0.000000 0.000000 0.000000 
0.000000 0.000000 0.000000 

0.000000 -0.000000 0.000000 
0.000000 -0.000000 0.000000 
0.000000 0.000000 0.000000 

0.000000 0.000000 0.000000 
0.000000 -0.000000 0.000000 
0.000000 0.000000 0.000000 

0.000000 -0.000000 0.000000 
0.000000 0.000000 0.000000 
0.000000 0.000000 0.000000 

-0.000000 -0.000000 0.000000 
0.000000 0.000000 0.000000 
0.000000 0.000000 0.000000 

-0.000000 -0.000000 0.000000 
0.000000 0.000000 0.000000 
0.000000 0.000000 0.000000 

0.000000 0.000000 0.000000 
0.000000 -0.000000 0.000000 
0.000000 0.000000 0.000000 

0.000000 0.000000 0.000000 
0.000000 0.000000 0.000000 
0.000000 0.000000 0.000000 

-0.000000 -0.000000 0.000000 
0.000000 0.000000 0.000000 
0.000000 0.000000 0.000000 

-0.000000 0.000000 0.000000 
0.000000 0.000000 0.000000 
0.000000 0.000000 0.000000 

-0.000000 0.000000 0.000000 
0.000000 -0.000000 0.000000 
0.000000 0.000000 0.000000 

0.000000 0.000000 0.000000 
0.000000 -0.000000 0.000000 
0.000000 0.000000 0.000000 

0.000000 -0.000000 0.000000 
0.000000 -0.000000 0.000000 
0.000000 0.000000 0.000000 

0.000000 -0.000000 0.000000 
0.000000 0.000000 0.000000 
0.000000 0.000000 0.000000 

-0.000000 0.000000 0.000000 
0.000000 0.000000 0.000000 
0.000000 0.000000 0.000000 

-0.000000 -0.000000 0.000000 
0.000000 0.000000 0.000000 
0.000000 0.000000 0.000000 

0.000000 -0.000000 0.000000 
0.000000 -0.000000 0.000000 
0.000000 0.000000 0.000000 

0.000000 -0.000000 0.000000 
0.000000 -0.000000 0.000000 
0.000000 0.000000 0.000000 

0.000000 0.000000 0.000000 
0.000000 -0.000000 0.000000 
0.000000 0.000000 0.000000 

-0.000000 0.000000 0.000000 
0.000000 -0.000000 0.000000 
0.000000 0.000000 0.000000 

-0.000000 0.000000 0.000000 
0.000000 -0.000000 0.000000 
0.000000 0.000000 0.000000 

0.000000 -0.000000 0.000000 
0.000000 0.000000 0.000000 
0.000000 0.000000 0.000000 

0.000000 -0.000000 0.000000 
0.000000 0.000000 0.000000 
0.000000 0.000000 0.000000 

-0.000000 -0.000000 0.000000 
0.000000 0.000000 0.000000 
0.000000 0.000000 0.000000 

-0.000000 0.000000 0.000000 
0.000000 0.000000 0.000000 
0.000000 0.000000 0.000000 

-0.000000 0.000000 0.000000 
0.000000 0.000000 0.000000 
0.000000 0.000000 0.000000 

-0.000000 0.000000 0.000000 
0.000000 0.000000 0.000000 
0.000000 0.000000 0.000000 

-0.000000 0.000000 0.000000 
0.000000 -0.000000 0.000000 
0.000000 0.000000 0.000000 

-0.000000 -0.000000 0.000000 
0.000000 -0.000000 0.000000 
0.000000 0.000000 0.000000 

-0.000000 -0.000000 0.000000 
0.000000 -0.000000 0.000000 
0.000000 0.000000 0.000000 

-0.000000 -0.000000 0.000000 
0.000000 -0.000000 0.000000 
0.000000 0.000000 0.000000 

0.000000 0.000000 0.000000 
0.000000 -0.000000 0.000000 
0.000000 0.000000 0.000000 

0.000000 -0.000000 0.000000 
0.000000 0.000000 0.000000 
0.000000 0.000000 0.000000 

0.000000 0.000000 0.000000 
0.000000 -0.000000 0.000000 
0.000000 0.000000 0.000000 

0.000000 0.000000 0.000000 
0.000000 0.000000 0.000000 
0.000000 0.000000 0.000000 

0.000000 0.000000 0.000000 
0.000000 0.000000 0.000000 
0.000000 0.000000 0.000000 

-0.000000 -0.000000 0.000000 
0.000000 -0.000000 0.000000 
0.000000 0.000000 0.000000 

0.000000 0.000000 0.000000 
0.000000 -0.000000 0.000000 
0.000000 0.000000 0.000000 

0.000000 0.000000 0.000000 
0.000000 -0.000000 0.000000 
0.000000 0.000000 0.000000 

0.000000 -0.000000 0.000000 
0.000000 0.000000 0.000000 
0.000000 0.000000 0.000000 

-0.000000 0.000000 0.000000 
0.000000 0.000000 0.000000 
0.000000 0.000000 0.000000 

-0.000000 -0.000000 0.000000 
0.000000 -0.000000 0.000000 
0.000000 0.000000 0.000000 

-0.000000 -0.000000 0.000000 
0.000000 0.000000 0.000000 
0.000000 0.000000 0.000000 

-0.000000 -0.000000 0.000000 
0.000000 0.000000 0.000000 
0.000000 0.000000 0.000000 

-0.000000 -0.000000 0.000000 
0.000000 0.000000 0.000000 
0.000000 0.000000 0.000000 

0.000000 0.000000 0.000000 
0.000000 0.000000 0.000000 
0.000000 0.000000 0.000000 

0.000000 -0.000000 0.000000 
0.000000 0.000000 0.000000 
0.000000 0.000000 0.000000 

0.000000 0.000000 0.000000 
0.000000 0.000000 0.000000 
0.000000 0.000000 0.000000 

-0.000000 -0.000000 0.000000 
0.000000 -0.000000 0.000000 
0.000000 0.000000 0.000000 

-0.000000 0.000000 0.000000 
0.000000 0.000000 0.000000 
0.000000 0.000000 0.000000 

-0.000000 0.000000 0.000000 
0.000000 -0.000000 0.000000 
0.000000 0.000000 0.000000 

0.000000 -0.000000 0.000000 
0.000000 0.000000 0.000000 
0.000000 0.000000 0.000000 

0.000000 -0.000000 0.000000 
0.000000 -0.000000 0.000000 
0.000000 0.000000 0.000000 

0.000000 0.000000 0.000000 
0.000000 -0.000000 0.000000 
0.000000 0.000000 0.000000 

-0.000000 0.000000 0.000000 
0.000000 -0.000000 0.000000 
0.000000 0.000000 0.000000 

0.000000 0.000000 0.000000 
0.000000 0.000000 0.000000 
0.000000 0.000000 0.000000 

-0.000000 0.000000 0.000000 
0.000000 -0.000000 0.000000 
0.000000 0.000000 0.000000 

-0.000000 0.000000 0.000000 
0.000000 0.000000 0.000000 
0.000000 0.000000 0.000000 

-0.000000 0.000000 0.000000 
0.000000 0.000000 0.000000 
0.000000 0.000000 0.000000 

0.000000 0.000000 0.000000 
0.000000 0.000000 0.000000 
0.000000 0.000000 0.000000 

0.000000 -0.000000 0.000000 
0.000000 -0.000000 0.000000 
0.000000 0.000000 0.000000 

0.000000 0.000000 0.000000 
0.000000 -0.000000 0.000000 
0.000000 0.000000 0.000000 

0.000000 -0.000000 0.000000 
0.000000 -0.000000 0.000000 
0.000000 0.000000 0.000000 

0.000000 -0.000000 0.000000 
0.000000 -0.000000 0.000000 
0.000000 0.000000 0.000000 

0.000000 0.000000 0.000000 
0.000000 -0.000000 0.000000 
0.000000 0.000000 0.000000 

-0.000000 -0.000000 0.000000 
0.000000 -0.000000 0.000000 
0.000000 0.000000 0.000000 

-0.000000 0.000000 0.000000 
0.000000 0.000000 0.000000 
0.000000 0.000000 0.000000 

-0.000000 0.000000 0.000000 
0.000000 -0.000000 0.000000 
0.000000 0.000000 0.000000 

-0.000000 0.000000 0.000000 
0.000000 0.000000 0.000000 
0.000000 0.000000 0.000000 

0.000000 -0.000000 0.000000 
0.000000 -0.000000 0.000000 
0.000000 0.000000 0.000000 

-0.000000 0.000000 0.000000 
0.000000 0.000000 0.000000 
0.000000 0.000000 0.000000 

-0.000000 -0.000000 0.000000 
0.000000 -0.000000 0.000000 
0.000000 0.000000 0.000000 

-0.000000 -0.000000 0.000000 
0.000000 0.000000 0.000000 
0.000000 0.000000 0.000000 

-0.000000 -0.000000 0.000000 
0.000000 0.000000 0.000000 
0.000000 0.000000 0.000000 

0.000000 -0.000000 0.000000 
0.000000 -0.000000 0.000000 
0.000000 0.000000 0.000000 

0.000000 -0.000000 0.000000 
0.000000 -0.000000 0.000000 
0.000000 0.000000 0.000000 

-0.000000 -0.000000 0.000000 
0.000000 -0.000000 0.000000 
0.000000 0.000000 0.000000 

-0.000000 -0.000000 0.000000 
0.000000 -0.000000 0.000000 
0.000000 0.000000 0.000000 

-0.000000 -0.000000 0.000000 
0.000000 -0.000000 0.000000 
0.000000 0.000000 0.000000 

-0.000000 0.000000 0.000000 
0.000000 0.000000 0.000000 
0.000000 0.000000 0.000000 

-0.000000 -0.000000 0.000000 
0.000000 0.000000 0.000000 
0.000000 0.000000 0.000000 

-0.000000 0.000000 0.000000 
0.000000 -0.000000 0.000000 
0.000000 0.000000 0.000000 

-0.000000 0.000000 0.000000 
0.000000 0.000000 0.000000 
0.000000 0.000000 0.000000 

-0.000000 0.000000 0.000000 
0.000000 -0.000000 0.000000 
0.000000 0.000000 0.000000 

-0.000000 -0.000000 0.000000 
0.000000 -0.000000 0.000000 
0.000000 0.000000 0.000000 

-0.000000 0.000000 0.000000 
0.000000 0.000000 0.000000 
0.000000 0.000000 0.000000 

-0.000000 -0.000000 0.000000 
0.000000 0.000000 0.000000 
0.000000 0.000000 0.000000 

0.000000 0.000000 0.000000 
0.000000 -0.000000 0.000000 
0.000000 0.000000 0.000000 

0.000000 0.000000 0.000000 
0.000000 0.000000 0.000000 
0.000000 0.000000 0.000000 

-0.000000 -0.000000 0.000000 
0.000000 0.000000 0.000000 
0.000000 0.000000 0.000000 

-0.000000 -0.000000 0.000000 
0.000000 -0.000000 0.000000 
0.000000 0.000000 0.000000 

-0.000000 -0.000000 0.000000 
0.000000 -0.000000 0.000000 
0.000000 0.000000 0.000000 

-0.000000 -0.000000 0.000000 
0.000000 0.000000 0.000000 
0.000000 0.000000 0.000000 

-0.000000 0.000000 0.000000 
0.000000 0.000000 0.000000 
0.000000 0.000000 0.000000 

0.000000 0.000000 0.000000 
0.000000 -0.000000 0.000000 
0.000000 0.000000 0.000000 

-0.000000 0.000000 0.000000 
0.000000 0.000000 0.000000 
0.000000 0.000000 0.000000 

-0.000000 0.000000 0.000000 
0.000000 -0.000000 0.000000 
0.000000 0.000000 0.000000 

-0.000000 -0.000000 0.000000 
0.000000 0.000000 0.000000 
0.000000 0.000000 0.000000 

0.000000 0.000000 0.000000 
0.000000 -0.000000 0.000000 
0.000000 0.000000 0.000000 

0.000000 -0.000000 0.000000 
0.000000 -0.000000 0.000000 
0.000000 0.000000 0.000000 

-0.000000 -0.000000 0.000000 
0.000000 0.000000 0.000000 
0.000000 0.000000 0.000000 

-0.000000 -0.000000 0.000000 
0.000000 -0.000000 0.000000 
0.000000 0.000000 0.000000 

-0.000000 0.000000 0.000000 
0.000000 0.000000 0.000000 
0.000000 0.000000 0.000000 

-0.000000 -0.000000 0.000000 
0.000000 -0.000000 0.000000 
0.000000 0.000000 0.000000 

0.000000 -0.000000 0.000000 
0.000000 -0.000000 0.000000 
0.000000 0.000000 0.000000 

0.000000 -0.000000 0.000000 
0.000000 0.000000 0.000000 
0.000000 0.000000 0.000000 

0.000000 -0.000000 0.000000 
0.000000 -0.000000 0.000000 
0.000000 0.000000 0.000000 

0.000000 0.000000 0.000000 
0.000000 0.000000 0.000000 
0.000000 0.000000 0.000000 

-0.000000 0.000000 0.000000 
0.000000 0.000000 0.000000 
0.000000 0.000000 0.000000 

0.000000 0.000000 0.000000 
0.000000 0.000000 0.000000 
0.000000 0.000000 0.000000 

0.000000 0.000000 0.000000 
0.000000 -0.000000 0.000000 
0.000000 0.000000 0.000000 

0.000000 -0.000000 0.000000 
0.000000 -0.000000 0.000000 
0.000000 0.000000 0.000000 

0.000000 -0.000000 0.000000 
0.000000 0.000000 0.000000 
0.000000 0.000000 0.000000 

0.000000 -0.000000 0.000000 
0.000000 0.000000 0.000000 
0.000000 0.000000 0.000000 

-0.000000 -0.000000 0.000000 
0.000000 0.000000 0.000000 
0.000000 0.000000 0.000000 

-0.000000 -0.000000 0.000000 
0.000000 0.000000 0.000000 
0.000000 0.000000 0.000000 

-0.000000 0.000000 0.000000 
0.000000 0.000000 0.000000 
0.000000 0.000000 0.000000 

0.000000 -0.000000 0.000000 
0.000000 0.000000 0.000000 
0.000000 0.000000 0.000000 

0.000000 -0.000000 0.000000 
0.000000 -0.000000 0.000000 
0.000000 0.000000 0.000000 

-0.000000 -0.000000 0.000000 
0.000000 0.000000 0.000000 
0.000000 0.000000 0.000000 

-0.000000 0.000000 0.000000 
0.000000 0.000000 0.000000 
0.000000 0.000000 0.000000 

0.000000 0.000000 0.000000 
0.000000 -0.000000 0.000000 
0.000000 0.000000 0.000000 

0.000000 -0.000000 0.000000 
0.000000 0.000000 0.000000 
0.000000 0.000000 0.000000 

0.000000 0.000000 0.000000 
0.000000 0.000000 0.000000 
0.000000 0.000000 0.000000 

0.000000 0.000000 0.000000 
0.000000 -0.000000 0.000000 
0.000000 0.000000 0.000000 

-0.000000 0.000000 0.000000 
0.000000 -0.000000 0.000000 
0.000000 0.000000 0.000000 

0.000000 -0.000000 0.000000 
0.000000 0.000000 0.000000 
0.000000 0.000000 0.000000 

-0.000000 -0.000000 0.000000 
0.000000 -0.000000 0.000000 
0.000000 0.000000 0.000000 

0.000000 0.000000 0.000000 
0.000000 -0.000000 0.000000 
0.000000 0.000000 0.000000 

-0.000000 -0.000000 0.000000 
0.000000 0.000000 0.000000 
0.000000 0.000000 0.000000 

0.000000 -0.000000 0.000000 
0.000000 -0.000000 0.000000 
0.000000 0.000000 0.000000 

0.000000 0.000000 0.000000 
0.000000 -0.000000 0.000000 
0.000000 0.000000 0.000000 

0.000000 -0.000000 0.000000 
0.000000 0.000000 0.000000 
0.000000 0.000000 0.000000 

0.000000 0.000000 0.000000 
0.000000 -0.000000 0.000000 
0.000000 0.000000 0.000000 

0.000000 0.000000 0.000000 
0.000000 -0.000000 0.000000 
0.000000 0.000000 0.000000 

0.000000 0.000000 0.000000 
0.000000 0.000000 0.000000 
0.000000 0.000000 0.000000 

0.000000 0.000000 0.000000 
0.000000 0.000000 0.000000 
0.000000 0.000000 0.000000 

-0.000000 0.000000 0.000000 
0.000000 0.000000 0.000000 
0.000000 0.000000 0.000000 

0.000000 -0.000000 0.000000 
0.000000 0.000000 0.000000 
0.000000 0.000000 0.000000 

0.000000 -0.000000 0.000000 
0.000000 0.000000 0.000000 
0.000000 0.000000 0.000000 

