# vtk DataFile Version 3.0 
vtk output 
ASCII 
DATASET UNSTRUCTURED_GRID 
POINTS 175 float 
-0.026061 -0.983240 0.000000 
-0.106992 -0.915185 0.000000 
-0.054870 -0.923417 0.000000 
-0.028809 -0.877534 0.000000 
-0.186430 -0.851109 0.000000 
-0.137056 -0.853635 0.000000 
-0.114311 -0.799988 0.000000 
-0.058186 -0.815654 0.000000 
-0.029377 -0.775477 0.000000 
-0.265318 -0.787953 0.000000 
-0.217198 -0.788753 0.000000 
-0.196633 -0.731457 0.000000 
-0.143120 -0.740165 0.000000 
-0.116563 -0.692897 0.000000 
-0.058945 -0.712542 0.000000 
-0.029568 -0.674422 0.000000 
-0.344206 -0.724798 0.000000 
-0.296791 -0.724791 0.000000 
-0.278030 -0.664848 0.000000 
-0.225992 -0.670714 0.000000 
-0.201664 -0.618597 0.000000 
-0.145749 -0.632071 0.000000 
-0.117890 -0.587728 0.000000 
-0.059328 -0.610434 0.000000 
-0.029759 -0.573368 0.000000 
-0.058559 -1.023991 0.000000 
-0.162226 -1.044834 0.000000 
-0.123292 -1.009216 0.000000 
-0.142917 -0.960233 0.000000 
-0.261851 -1.066990 0.000000 
-0.229092 -1.029963 0.000000 
-0.256854 -0.978731 0.000000 
-0.209613 -0.944619 0.000000 
-0.223062 -0.897045 0.000000 
-0.360414 -1.089290 0.000000 
-0.329787 -1.052167 0.000000 
-0.361761 -1.000365 0.000000 
-0.321587 -0.963956 0.000000 
-0.341985 -0.913722 0.000000 
-0.290702 -0.880923 0.000000 
-0.302189 -0.834188 0.000000 
-0.458977 -1.111590 0.000000 
-0.429420 -1.074516 0.000000 
-0.464588 -1.022474 0.000000 
-0.427556 -0.985446 0.000000 
-0.453135 -0.933931 0.000000 
-0.407738 -0.898616 0.000000 
-0.425037 -0.849188 0.000000 
-0.370772 -0.817559 0.000000 
-0.381315 -0.771331 0.000000 
-0.046960 -1.074806 0.000000 
-0.095301 -1.168852 0.000000 
-0.098873 -1.116205 0.000000 
-0.149405 -1.101007 0.000000 
-0.140093 -1.260556 0.000000 
-0.148617 -1.211858 0.000000 
-0.205981 -1.201621 0.000000 
-0.203197 -1.143417 0.000000 
-0.248777 -1.124271 0.000000 
-0.184111 -1.351520 0.000000 
-0.194039 -1.304429 0.000000 
-0.254475 -1.297129 0.000000 
-0.257893 -1.243019 0.000000 
-0.309886 -1.227647 0.000000 
-0.303554 -1.167102 0.000000 
-0.347255 -1.146944 0.000000 
-0.228129 -1.442483 0.000000 
-0.238687 -1.396259 0.000000 
-0.301302 -1.391307 0.000000 
-0.307162 -1.339268 0.000000 
-0.363386 -1.327147 0.000000 
-0.362692 -1.269636 0.000000 
-0.412122 -1.252343 0.000000 
-0.403017 -1.190196 0.000000 
-0.445733 -1.169617 0.000000 
-0.000000 -1.097421 0.000000 
0.043388 -1.193852 0.000000 
-0.000000 -1.163819 0.000000 
-0.043388 -1.193852 0.000000 
0.087158 -1.286048 0.000000 
0.043769 -1.262350 0.000000 
-0.000000 -1.300816 0.000000 
-0.043769 -1.262350 0.000000 
-0.087158 -1.286048 0.000000 
0.130831 -1.377178 0.000000 
0.087824 -1.355579 0.000000 
0.044436 -1.398279 0.000000 
-0.000000 -1.367214 0.000000 
-0.044436 -1.398279 0.000000 
-0.087824 -1.355579 0.000000 
-0.130831 -1.377178 0.000000 
0.174505 -1.468308 0.000000 
0.131782 -1.447742 0.000000 
0.088871 -1.493608 0.000000 
0.044532 -1.465744 0.000000 
-0.000000 -1.502145 0.000000 
-0.044532 -1.465744 0.000000 
-0.088871 -1.493608 0.000000 
-0.131782 -1.447742 0.000000 
-0.174505 -1.468308 0.000000 
0.046960 -1.074806 0.000000 
0.149405 -1.101007 0.000000 
0.098873 -1.116205 0.000000 
0.095301 -1.168852 0.000000 
0.248777 -1.124271 0.000000 
0.203197 -1.143417 0.000000 
0.205981 -1.201621 0.000000 
0.148617 -1.211858 0.000000 
0.140093 -1.260556 0.000000 
0.347255 -1.146944 0.000000 
0.303554 -1.167102 0.000000 
0.309886 -1.227647 0.000000 
0.257893 -1.243019 0.000000 
0.254475 -1.297129 0.000000 
0.194039 -1.304429 0.000000 
0.184111 -1.351520 0.000000 
0.445733 -1.169617 0.000000 
0.403017 -1.190196 0.000000 
0.412122 -1.252343 0.000000 
0.362692 -1.269636 0.000000 
0.363386 -1.327147 0.000000 
0.307162 -1.339268 0.000000 
0.301302 -1.391307 0.000000 
0.238687 -1.396259 0.000000 
0.228129 -1.442483 0.000000 
0.058559 -1.023991 0.000000 
0.142917 -0.960233 0.000000 
0.123292 -1.009216 0.000000 
0.162226 -1.044834 0.000000 
0.223062 -0.897045 0.000000 
0.209613 -0.944619 0.000000 
0.256854 -0.978731 0.000000 
0.229092 -1.029963 0.000000 
0.261851 -1.066990 0.000000 
0.302189 -0.834188 0.000000 
0.290702 -0.880923 0.000000 
0.341985 -0.913722 0.000000 
0.321587 -0.963956 0.000000 
0.361761 -1.000365 0.000000 
0.329787 -1.052167 0.000000 
0.360414 -1.089290 0.000000 
0.381315 -0.771332 0.000000 
0.370772 -0.817559 0.000000 
0.425037 -0.849188 0.000000 
0.407738 -0.898616 0.000000 
0.453135 -0.933931 0.000000 
0.427556 -0.985446 0.000000 
0.464588 -1.022474 0.000000 
0.429420 -1.074516 0.000000 
0.458977 -1.111590 0.000000 
0.026061 -0.983240 0.000000 
0.028809 -0.877534 0.000000 
0.054870 -0.923417 0.000000 
0.106992 -0.915185 0.000000 
0.029377 -0.775477 0.000000 
0.058186 -0.815654 0.000000 
0.114311 -0.799988 0.000000 
0.137056 -0.853635 0.000000 
0.186430 -0.851109 0.000000 
0.029568 -0.674422 0.000000 
0.058945 -0.712542 0.000000 
0.116563 -0.692897 0.000000 
0.143120 -0.740165 0.000000 
0.196633 -0.731457 0.000000 
0.217198 -0.788753 0.000000 
0.265318 -0.787953 0.000000 
0.029759 -0.573368 0.000000 
0.059328 -0.610434 0.000000 
0.117890 -0.587728 0.000000 
0.145749 -0.632071 0.000000 
0.201664 -0.618597 0.000000 
0.225992 -0.670714 0.000000 
0.278030 -0.664848 0.000000 
0.296791 -0.724791 0.000000 
0.344206 -0.724798 0.000000 
CELLS 175 350 
1 0 
1 1 
1 2 
1 3 
1 4 
1 5 
1 6 
1 7 
1 8 
1 9 
1 10 
1 11 
1 12 
1 13 
1 14 
1 15 
1 16 
1 17 
1 18 
1 19 
1 20 
1 21 
1 22 
1 23 
1 24 
1 25 
1 26 
1 27 
1 28 
1 29 
1 30 
1 31 
1 32 
1 33 
1 34 
1 35 
1 36 
1 37 
1 38 
1 39 
1 40 
1 41 
1 42 
1 43 
1 44 
1 45 
1 46 
1 47 
1 48 
1 49 
1 50 
1 51 
1 52 
1 53 
1 54 
1 55 
1 56 
1 57 
1 58 
1 59 
1 60 
1 61 
1 62 
1 63 
1 64 
1 65 
1 66 
1 67 
1 68 
1 69 
1 70 
1 71 
1 72 
1 73 
1 74 
1 75 
1 76 
1 77 
1 78 
1 79 
1 80 
1 81 
1 82 
1 83 
1 84 
1 85 
1 86 
1 87 
1 88 
1 89 
1 90 
1 91 
1 92 
1 93 
1 94 
1 95 
1 96 
1 97 
1 98 
1 99 
1 100 
1 101 
1 102 
1 103 
1 104 
1 105 
1 106 
1 107 
1 108 
1 109 
1 110 
1 111 
1 112 
1 113 
1 114 
1 115 
1 116 
1 117 
1 118 
1 119 
1 120 
1 121 
1 122 
1 123 
1 124 
1 125 
1 126 
1 127 
1 128 
1 129 
1 130 
1 131 
1 132 
1 133 
1 134 
1 135 
1 136 
1 137 
1 138 
1 139 
1 140 
1 141 
1 142 
1 143 
1 144 
1 145 
1 146 
1 147 
1 148 
1 149 
1 150 
1 151 
1 152 
1 153 
1 154 
1 155 
1 156 
1 157 
1 158 
1 159 
1 160 
1 161 
1 162 
1 163 
1 164 
1 165 
1 166 
1 167 
1 168 
1 169 
1 170 
1 171 
1 172 
1 173 
1 174 
CELL_TYPES 175 
1 
1 
1 
1 
1 
1 
1 
1 
1 
1 
1 
1 
1 
1 
1 
1 
1 
1 
1 
1 
1 
1 
1 
1 
1 
1 
1 
1 
1 
1 
1 
1 
1 
1 
1 
1 
1 
1 
1 
1 
1 
1 
1 
1 
1 
1 
1 
1 
1 
1 
1 
1 
1 
1 
1 
1 
1 
1 
1 
1 
1 
1 
1 
1 
1 
1 
1 
1 
1 
1 
1 
1 
1 
1 
1 
1 
1 
1 
1 
1 
1 
1 
1 
1 
1 
1 
1 
1 
1 
1 
1 
1 
1 
1 
1 
1 
1 
1 
1 
1 
1 
1 
1 
1 
1 
1 
1 
1 
1 
1 
1 
1 
1 
1 
1 
1 
1 
1 
1 
1 
1 
1 
1 
1 
1 
1 
1 
1 
1 
1 
1 
1 
1 
1 
1 
1 
1 
1 
1 
1 
1 
1 
1 
1 
1 
1 
1 
1 
1 
1 
1 
1 
1 
1 
1 
1 
1 
1 
1 
1 
1 
1 
1 
1 
1 
1 
1 
1 
1 
1 
1 
1 
1 
1 
1 
POINT_DATA 175 
VECTORS X_GC float 
-0.026061 -0.983240 0.000000 
-0.106992 -0.915185 0.000000 
-0.054870 -0.923417 0.000000 
-0.028809 -0.877534 0.000000 
-0.186430 -0.851109 0.000000 
-0.137056 -0.853635 0.000000 
-0.114311 -0.799988 0.000000 
-0.058186 -0.815654 0.000000 
-0.029377 -0.775477 0.000000 
-0.265318 -0.787953 0.000000 
-0.217198 -0.788753 0.000000 
-0.196633 -0.731457 0.000000 
-0.143120 -0.740165 0.000000 
-0.116563 -0.692897 0.000000 
-0.058945 -0.712542 0.000000 
-0.029568 -0.674422 0.000000 
-0.344206 -0.724798 0.000000 
-0.296791 -0.724791 0.000000 
-0.278030 -0.664848 0.000000 
-0.225992 -0.670714 0.000000 
-0.201664 -0.618597 0.000000 
-0.145749 -0.632071 0.000000 
-0.117890 -0.587728 0.000000 
-0.059328 -0.610434 0.000000 
-0.029759 -0.573368 0.000000 
-0.058559 -1.023991 0.000000 
-0.162226 -1.044834 0.000000 
-0.123292 -1.009216 0.000000 
-0.142917 -0.960233 0.000000 
-0.261851 -1.066990 0.000000 
-0.229092 -1.029963 0.000000 
-0.256854 -0.978731 0.000000 
-0.209613 -0.944619 0.000000 
-0.223062 -0.897045 0.000000 
-0.360414 -1.089290 0.000000 
-0.329787 -1.052167 0.000000 
-0.361761 -1.000365 0.000000 
-0.321587 -0.963956 0.000000 
-0.341985 -0.913722 0.000000 
-0.290702 -0.880923 0.000000 
-0.302189 -0.834188 0.000000 
-0.458977 -1.111590 0.000000 
-0.429420 -1.074516 0.000000 
-0.464588 -1.022474 0.000000 
-0.427556 -0.985446 0.000000 
-0.453135 -0.933931 0.000000 
-0.407738 -0.898616 0.000000 
-0.425037 -0.849188 0.000000 
-0.370772 -0.817559 0.000000 
-0.381315 -0.771331 0.000000 
-0.046960 -1.074806 0.000000 
-0.095301 -1.168852 0.000000 
-0.098873 -1.116205 0.000000 
-0.149405 -1.101007 0.000000 
-0.140093 -1.260556 0.000000 
-0.148617 -1.211858 0.000000 
-0.205981 -1.201621 0.000000 
-0.203197 -1.143417 0.000000 
-0.248777 -1.124271 0.000000 
-0.184111 -1.351520 0.000000 
-0.194039 -1.304429 0.000000 
-0.254475 -1.297129 0.000000 
-0.257893 -1.243019 0.000000 
-0.309886 -1.227647 0.000000 
-0.303554 -1.167102 0.000000 
-0.347255 -1.146944 0.000000 
-0.228129 -1.442483 0.000000 
-0.238687 -1.396259 0.000000 
-0.301302 -1.391307 0.000000 
-0.307162 -1.339268 0.000000 
-0.363386 -1.327147 0.000000 
-0.362692 -1.269636 0.000000 
-0.412122 -1.252343 0.000000 
-0.403017 -1.190196 0.000000 
-0.445733 -1.169617 0.000000 
-0.000000 -1.097421 0.000000 
0.043388 -1.193852 0.000000 
-0.000000 -1.163819 0.000000 
-0.043388 -1.193852 0.000000 
0.087158 -1.286048 0.000000 
0.043769 -1.262350 0.000000 
-0.000000 -1.300816 0.000000 
-0.043769 -1.262350 0.000000 
-0.087158 -1.286048 0.000000 
0.130831 -1.377178 0.000000 
0.087824 -1.355579 0.000000 
0.044436 -1.398279 0.000000 
-0.000000 -1.367214 0.000000 
-0.044436 -1.398279 0.000000 
-0.087824 -1.355579 0.000000 
-0.130831 -1.377178 0.000000 
0.174505 -1.468308 0.000000 
0.131782 -1.447742 0.000000 
0.088871 -1.493608 0.000000 
0.044532 -1.465744 0.000000 
-0.000000 -1.502145 0.000000 
-0.044532 -1.465744 0.000000 
-0.088871 -1.493608 0.000000 
-0.131782 -1.447742 0.000000 
-0.174505 -1.468308 0.000000 
0.046960 -1.074806 0.000000 
0.149405 -1.101007 0.000000 
0.098873 -1.116205 0.000000 
0.095301 -1.168852 0.000000 
0.248777 -1.124271 0.000000 
0.203197 -1.143417 0.000000 
0.205981 -1.201621 0.000000 
0.148617 -1.211858 0.000000 
0.140093 -1.260556 0.000000 
0.347255 -1.146944 0.000000 
0.303554 -1.167102 0.000000 
0.309886 -1.227647 0.000000 
0.257893 -1.243019 0.000000 
0.254475 -1.297129 0.000000 
0.194039 -1.304429 0.000000 
0.184111 -1.351520 0.000000 
0.445733 -1.169617 0.000000 
0.403017 -1.190196 0.000000 
0.412122 -1.252343 0.000000 
0.362692 -1.269636 0.000000 
0.363386 -1.327147 0.000000 
0.307162 -1.339268 0.000000 
0.301302 -1.391307 0.000000 
0.238687 -1.396259 0.000000 
0.228129 -1.442483 0.000000 
0.058559 -1.023991 0.000000 
0.142917 -0.960233 0.000000 
0.123292 -1.009216 0.000000 
0.162226 -1.044834 0.000000 
0.223062 -0.897045 0.000000 
0.209613 -0.944619 0.000000 
0.256854 -0.978731 0.000000 
0.229092 -1.029963 0.000000 
0.261851 -1.066990 0.000000 
0.302189 -0.834188 0.000000 
0.290702 -0.880923 0.000000 
0.341985 -0.913722 0.000000 
0.321587 -0.963956 0.000000 
0.361761 -1.000365 0.000000 
0.329787 -1.052167 0.000000 
0.360414 -1.089290 0.000000 
0.381315 -0.771332 0.000000 
0.370772 -0.817559 0.000000 
0.425037 -0.849188 0.000000 
0.407738 -0.898616 0.000000 
0.453135 -0.933931 0.000000 
0.427556 -0.985446 0.000000 
0.464588 -1.022474 0.000000 
0.429420 -1.074516 0.000000 
0.458977 -1.111590 0.000000 
0.026061 -0.983240 0.000000 
0.028809 -0.877534 0.000000 
0.054870 -0.923417 0.000000 
0.106992 -0.915185 0.000000 
0.029377 -0.775477 0.000000 
0.058186 -0.815654 0.000000 
0.114311 -0.799988 0.000000 
0.137056 -0.853635 0.000000 
0.186430 -0.851109 0.000000 
0.029568 -0.674422 0.000000 
0.058945 -0.712542 0.000000 
0.116563 -0.692897 0.000000 
0.143120 -0.740165 0.000000 
0.196633 -0.731457 0.000000 
0.217198 -0.788753 0.000000 
0.265318 -0.787953 0.000000 
0.029759 -0.573368 0.000000 
0.059328 -0.610434 0.000000 
0.117890 -0.587728 0.000000 
0.145749 -0.632071 0.000000 
0.201664 -0.618597 0.000000 
0.225992 -0.670714 0.000000 
0.278030 -0.664848 0.000000 
0.296791 -0.724791 0.000000 
0.344206 -0.724798 0.000000 
VECTORS X_EC float 
0.338794 -0.226257 0.000000 
-0.609100 0.854995 0.000000 
0.713312 0.966135 0.000000 
0.374519 0.346706 0.000000 
0.423588 -0.010025 0.000000 
-0.218274 0.024079 0.000000 
-0.513962 -0.700160 0.000000 
0.756418 -0.488674 0.000000 
0.381900 0.968934 0.000000 
-0.550868 -0.862628 0.000000 
0.823577 -0.851832 0.000000 
0.556234 0.374664 0.000000 
-0.139443 0.492232 0.000000 
-0.484677 -0.145892 0.000000 
0.766286 0.119323 0.000000 
0.384386 -0.395297 0.000000 
0.474677 0.284769 0.000000 
-0.141715 0.284673 0.000000 
-0.385608 -0.524556 0.000000 
0.937896 -0.445360 0.000000 
0.621631 0.851060 0.000000 
-0.105264 -0.967041 0.000000 
-0.467428 0.434333 0.000000 
0.771260 0.740861 0.000000 
0.386873 0.240472 0.000000 
0.761262 0.323877 0.000000 
0.108942 0.605254 0.000000 
-0.397202 0.124415 0.000000 
-0.142083 -0.536860 0.000000 
-0.595936 0.904365 0.000000 
0.978194 0.404499 0.000000 
-0.660903 -0.287126 0.000000 
0.724964 -0.747646 0.000000 
0.899809 0.610105 0.000000 
0.685384 -0.794583 0.000000 
0.287229 0.704259 0.000000 
0.702895 0.004930 0.000000 
0.180633 -0.486589 0.000000 
0.445811 0.835252 0.000000 
-0.220880 0.392466 0.000000 
-0.071546 -0.238460 0.000000 
-0.033296 -0.493531 0.000000 
-0.417537 -0.994040 0.000000 
0.039645 0.303397 0.000000 
-0.441768 -0.196474 0.000000 
-0.109248 -0.891925 0.000000 
-0.699407 0.631320 0.000000 
-0.474522 -0.035960 0.000000 
0.820030 -0.462953 0.000000 
0.957100 0.912975 0.000000 
0.610485 -0.990116 0.000000 
-0.761092 0.279503 0.000000 
-0.714655 -0.431234 0.000000 
-0.057734 -0.636401 0.000000 
-0.178789 -0.482493 0.000000 
-0.067979 0.860081 0.000000 
0.677748 0.721878 0.000000 
0.641556 -0.063867 0.000000 
-0.765897 -0.322346 0.000000 
0.393446 0.745517 0.000000 
0.522510 0.109787 0.000000 
-0.691820 0.011242 0.000000 
-0.647393 -0.719240 0.000000 
0.028512 -0.926767 0.000000 
-0.053800 0.255873 0.000000 
0.514316 -0.016258 0.000000 
0.965681 -0.026474 0.000000 
-0.897068 -0.650503 0.000000 
-0.083078 -0.717356 0.000000 
-0.006893 0.580119 0.000000 
0.724017 0.416486 0.000000 
0.714996 -0.359917 0.000000 
-0.642413 -0.593375 0.000000 
-0.760780 0.567645 0.000000 
-0.205471 0.289830 0.000000 
0.000000 -0.684815 0.000000 
-0.564049 0.616998 0.000000 
0.000000 0.211562 0.000000 
0.564049 0.616998 0.000000 
0.866949 -0.138346 0.000000 
-0.569003 -0.458278 0.000000 
0.000000 0.061011 0.000000 
0.569003 -0.458278 0.000000 
-0.866949 -0.138346 0.000000 
0.299194 -0.908096 0.000000 
0.858290 0.800320 0.000000 
-0.577662 -0.623234 0.000000 
0.000000 0.957387 0.000000 
0.577662 -0.623234 0.000000 
-0.858290 0.800320 0.000000 
-0.299194 -0.908096 0.000000 
-0.268560 0.322154 0.000000 
0.286830 0.044512 0.000000 
0.844677 0.663710 0.000000 
-0.578910 0.287548 0.000000 
0.000000 0.778951 0.000000 
0.578910 0.287548 0.000000 
-0.844677 0.663710 0.000000 
-0.286830 0.044512 0.000000 
0.268560 0.322154 0.000000 
-0.610485 -0.990116 0.000000 
0.057734 -0.636401 0.000000 
0.714655 -0.431234 0.000000 
0.761092 0.279503 0.000000 
0.765897 -0.322346 0.000000 
-0.641556 -0.063867 0.000000 
-0.677748 0.721878 0.000000 
0.067979 0.860081 0.000000 
0.178789 -0.482493 0.000000 
-0.514316 -0.016258 0.000000 
0.053800 0.255873 0.000000 
-0.028512 -0.926767 0.000000 
0.647393 -0.719240 0.000000 
0.691820 0.011242 0.000000 
-0.522510 0.109787 0.000000 
-0.393446 0.745517 0.000000 
0.205471 0.289830 0.000000 
0.760780 0.567645 0.000000 
0.642413 -0.593375 0.000000 
-0.714996 -0.359917 0.000000 
-0.724017 0.416486 0.000000 
0.006894 0.580119 0.000000 
0.083078 -0.717356 0.000000 
0.897068 -0.650503 0.000000 
-0.965681 -0.026474 0.000000 
-0.761262 0.323877 0.000000 
0.142083 -0.536860 0.000000 
0.397202 0.124415 0.000000 
-0.108942 0.605254 0.000000 
-0.899809 0.610105 0.000000 
-0.724964 -0.747646 0.000000 
0.660903 -0.287126 0.000000 
-0.978194 0.404499 0.000000 
0.595936 0.904365 0.000000 
0.071546 -0.238460 0.000000 
0.220880 0.392466 0.000000 
-0.445811 0.835252 0.000000 
-0.180633 -0.486589 0.000000 
-0.702895 0.004930 0.000000 
-0.287229 0.704259 0.000000 
-0.685384 -0.794583 0.000000 
-0.957100 0.912975 0.000000 
-0.820030 -0.462953 0.000000 
0.474522 -0.035960 0.000000 
0.699407 0.631320 0.000000 
0.109248 -0.891925 0.000000 
0.441768 -0.196474 0.000000 
-0.039645 0.303397 0.000000 
0.417537 -0.994040 0.000000 
0.033296 -0.493531 0.000000 
-0.338794 -0.226257 0.000000 
-0.374519 0.346706 0.000000 
-0.713312 0.966135 0.000000 
0.609100 0.854995 0.000000 
-0.381900 0.968934 0.000000 
-0.756418 -0.488674 0.000000 
0.513962 -0.700160 0.000000 
0.218274 0.024079 0.000000 
-0.423588 -0.010025 0.000000 
-0.384386 -0.395297 0.000000 
-0.766286 0.119323 0.000000 
0.484677 -0.145892 0.000000 
0.139443 0.492232 0.000000 
-0.556234 0.374664 0.000000 
-0.823577 -0.851832 0.000000 
0.550868 -0.862628 0.000000 
-0.386873 0.240472 0.000000 
-0.771260 0.740861 0.000000 
0.467428 0.434333 0.000000 
0.105264 -0.967041 0.000000 
-0.621631 0.851060 0.000000 
-0.937896 -0.445360 0.000000 
0.385608 -0.524556 0.000000 
0.141715 0.284673 0.000000 
-0.474677 0.284769 0.000000 
CELL_DATA 175 
SCALARS MASS float 
LOOKUP_TABLE default 
0.078183 
0.086427 
0.094672 
0.086427 
0.088131 
0.092111 
0.085854 
0.092111 
0.088131 
0.088705 
0.091000 
0.086983 
0.091556 
0.086983 
0.091000 
0.088705 
0.089278 
0.091574 
0.089278 
0.092722 
0.089278 
0.092722 
0.089278 
0.091574 
0.089278 
0.078183 
0.086427 
0.094672 
0.086427 
0.088131 
0.092111 
0.085854 
0.092111 
0.088131 
0.088705 
0.091000 
0.086983 
0.091556 
0.086983 
0.091000 
0.088705 
0.089278 
0.091574 
0.089278 
0.092722 
0.089278 
0.092722 
0.089278 
0.091574 
0.089278 
0.078183 
0.086427 
0.094672 
0.086427 
0.088131 
0.092111 
0.085854 
0.092111 
0.088131 
0.088705 
0.091000 
0.086983 
0.091556 
0.086983 
0.091000 
0.088705 
0.089278 
0.091574 
0.089278 
0.092722 
0.089278 
0.092722 
0.089278 
0.091574 
0.089278 
0.078183 
0.086427 
0.094672 
0.086427 
0.088131 
0.092111 
0.085854 
0.092111 
0.088131 
0.088705 
0.091000 
0.086983 
0.091556 
0.086983 
0.091000 
0.088705 
0.089278 
0.091574 
0.089278 
0.092722 
0.089278 
0.092722 
0.089278 
0.091574 
0.089278 
0.078183 
0.086427 
0.094672 
0.086427 
0.088131 
0.092111 
0.085854 
0.092111 
0.088131 
0.088705 
0.091000 
0.086983 
0.091556 
0.086983 
0.091000 
0.088705 
0.089278 
0.091574 
0.089278 
0.092722 
0.089278 
0.092722 
0.089278 
0.091574 
0.089278 
0.078183 
0.086427 
0.094672 
0.086427 
0.088131 
0.092111 
0.085854 
0.092111 
0.088131 
0.088705 
0.091000 
0.086983 
0.091556 
0.086983 
0.091000 
0.088705 
0.089278 
0.091574 
0.089278 
0.092722 
0.089278 
0.092722 
0.089278 
0.091574 
0.089278 
0.078183 
0.086427 
0.094672 
0.086427 
0.088131 
0.092111 
0.085854 
0.092111 
0.088131 
0.088705 
0.091000 
0.086983 
0.091556 
0.086983 
0.091000 
0.088705 
0.089278 
0.091574 
0.089278 
0.092722 
0.089278 
0.092722 
0.089278 
0.091574 
0.089278 
SCALARS MASS float 
LOOKUP_TABLE default 
0.078183 
0.086427 
0.094672 
0.086427 
0.088131 
0.092111 
0.085854 
0.092111 
0.088131 
0.088705 
0.091000 
0.086983 
0.091556 
0.086983 
0.091000 
0.088705 
0.089278 
0.091574 
0.089278 
0.092722 
0.089278 
0.092722 
0.089278 
0.091574 
0.089278 
0.078183 
0.086427 
0.094672 
0.086427 
0.088131 
0.092111 
0.085854 
0.092111 
0.088131 
0.088705 
0.091000 
0.086983 
0.091556 
0.086983 
0.091000 
0.088705 
0.089278 
0.091574 
0.089278 
0.092722 
0.089278 
0.092722 
0.089278 
0.091574 
0.089278 
0.078183 
0.086427 
0.094672 
0.086427 
0.088131 
0.092111 
0.085854 
0.092111 
0.088131 
0.088705 
0.091000 
0.086983 
0.091556 
0.086983 
0.091000 
0.088705 
0.089278 
0.091574 
0.089278 
0.092722 
0.089278 
0.092722 
0.089278 
0.091574 
0.089278 
0.078183 
0.086427 
0.094672 
0.086427 
0.088131 
0.092111 
0.085854 
0.092111 
0.088131 
0.088705 
0.091000 
0.086983 
0.091556 
0.086983 
0.091000 
0.088705 
0.089278 
0.091574 
0.089278 
0.092722 
0.089278 
0.092722 
0.089278 
0.091574 
0.089278 
0.078183 
0.086427 
0.094672 
0.086427 
0.088131 
0.092111 
0.085854 
0.092111 
0.088131 
0.088705 
0.091000 
0.086983 
0.091556 
0.086983 
0.091000 
0.088705 
0.089278 
0.091574 
0.089278 
0.092722 
0.089278 
0.092722 
0.089278 
0.091574 
0.089278 
0.078183 
0.086427 
0.094672 
0.086427 
0.088131 
0.092111 
0.085854 
0.092111 
0.088131 
0.088705 
0.091000 
0.086983 
0.091556 
0.086983 
0.091000 
0.088705 
0.089278 
0.091574 
0.089278 
0.092722 
0.089278 
0.092722 
0.089278 
0.091574 
0.089278 
0.078183 
0.086427 
0.094672 
0.086427 
0.088131 
0.092111 
0.085854 
0.092111 
0.088131 
0.088705 
0.091000 
0.086983 
0.091556 
0.086983 
0.091000 
0.088705 
0.089278 
0.091574 
0.089278 
0.092722 
0.089278 
0.092722 
0.089278 
0.091574 
0.089278 
SCALARS DENSITY float 
LOOKUP_TABLE default 
20.000000 
20.000000 
20.000000 
20.000000 
20.000000 
20.000000 
20.000000 
20.000000 
20.000000 
20.000000 
20.000000 
20.000000 
20.000000 
20.000000 
20.000000 
20.000000 
20.000000 
20.000000 
20.000000 
20.000000 
20.000000 
20.000000 
20.000000 
20.000000 
20.000000 
20.000000 
20.000000 
20.000000 
20.000000 
20.000000 
20.000000 
20.000000 
20.000000 
20.000000 
20.000000 
20.000000 
20.000000 
20.000000 
20.000000 
20.000000 
20.000000 
20.000000 
20.000000 
20.000000 
20.000000 
20.000000 
20.000000 
20.000000 
20.000000 
20.000000 
20.000000 
20.000000 
20.000000 
20.000000 
20.000000 
20.000000 
20.000000 
20.000000 
20.000000 
20.000000 
20.000000 
20.000000 
20.000000 
20.000000 
20.000000 
20.000000 
20.000000 
20.000000 
20.000000 
20.000000 
20.000000 
20.000000 
20.000000 
20.000000 
20.000000 
20.000000 
20.000000 
20.000000 
20.000000 
20.000000 
20.000000 
20.000000 
20.000000 
20.000000 
20.000000 
20.000000 
20.000000 
20.000000 
20.000000 
20.000000 
20.000000 
20.000000 
20.000000 
20.000000 
20.000000 
20.000000 
20.000000 
20.000000 
20.000000 
20.000000 
20.000000 
20.000000 
20.000000 
20.000000 
20.000000 
20.000000 
20.000000 
20.000000 
20.000000 
20.000000 
20.000000 
20.000000 
20.000000 
20.000000 
20.000000 
20.000000 
20.000000 
20.000000 
20.000000 
20.000000 
20.000000 
20.000000 
20.000000 
20.000000 
20.000000 
20.000000 
20.000000 
20.000000 
20.000000 
20.000000 
20.000000 
20.000000 
20.000000 
20.000000 
20.000000 
20.000000 
20.000000 
20.000000 
20.000000 
20.000000 
20.000000 
20.000000 
20.000000 
20.000000 
20.000000 
20.000000 
20.000000 
20.000000 
20.000000 
20.000000 
20.000000 
20.000000 
20.000000 
20.000000 
20.000000 
20.000000 
20.000000 
20.000000 
20.000000 
20.000000 
20.000000 
20.000000 
20.000000 
20.000000 
20.000000 
20.000000 
20.000000 
20.000000 
20.000000 
20.000000 
20.000000 
20.000000 
20.000000 
20.000000 
20.000000 
SCALARS ELEM_i float 
LOOKUP_TABLE default 
175 
203 
176 
176 
203 
203 
203 
176 
177 
230 
203 
204 
204 
204 
177 
177 
231 
231 
231 
204 
205 
204 
205 
178 
178 
175 
202 
202 
202 
229 
202 
229 
202 
203 
228 
229 
229 
229 
230 
230 
230 
255 
255 
256 
256 
256 
257 
257 
230 
231 
174 
201 
201 
201 
200 
201 
201 
201 
228 
200 
200 
227 
227 
227 
228 
228 
199 
226 
226 
227 
227 
227 
254 
255 
255 
174 
174 
174 
174 
146 
173 
173 
173 
200 
145 
146 
172 
173 
172 
200 
199 
145 
145 
145 
172 
172 
172 
199 
199 
199 
174 
147 
147 
147 
120 
147 
147 
147 
146 
120 
120 
119 
119 
119 
146 
146 
93 
93 
92 
119 
119 
119 
118 
118 
145 
175 
148 
148 
148 
149 
148 
121 
148 
121 
122 
122 
122 
121 
121 
121 
120 
123 
122 
95 
95 
94 
94 
94 
93 
93 
175 
176 
176 
149 
177 
176 
149 
149 
149 
177 
177 
150 
150 
150 
149 
122 
178 
178 
151 
150 
151 
150 
123 
123 
123 
VECTORS VELOCITY float 
0.000000 -4.511030 0.000000 
0.000000 -4.511030 0.000000 
0.000000 -4.511030 0.000000 
0.000000 -4.511030 0.000000 
-0.000000 -4.511030 0.000000 
0.000000 -4.511030 0.000000 
-0.000000 -4.511030 0.000000 
-0.000000 -4.511030 0.000000 
0.000000 -4.511030 0.000000 
-0.000000 -4.511030 0.000000 
-0.000000 -4.511030 0.000000 
0.000000 -4.511030 0.000000 
-0.000000 -4.511030 0.000000 
-0.000000 -4.511030 0.000000 
-0.000000 -4.511030 0.000000 
-0.000000 -4.511030 0.000000 
0.000000 -4.511030 0.000000 
0.000000 -4.511030 0.000000 
0.000000 -4.511030 0.000000 
0.000000 -4.511030 0.000000 
0.000000 -4.511030 0.000000 
-0.000000 -4.511030 0.000000 
0.000000 -4.511030 0.000000 
0.000000 -4.511030 0.000000 
0.000000 -4.511030 0.000000 
0.000000 -4.511030 0.000000 
0.000000 -4.511030 0.000000 
0.000000 -4.511030 0.000000 
0.000000 -4.511030 0.000000 
-0.000000 -4.511030 0.000000 
-0.000000 -4.511030 0.000000 
-0.000000 -4.511030 0.000000 
-0.000000 -4.511030 0.000000 
-0.000000 -4.511030 0.000000 
-0.000000 -4.511030 0.000000 
-0.000000 -4.511030 0.000000 
-0.000000 -4.511030 0.000000 
-0.000000 -4.511030 0.000000 
-0.000000 -4.511030 0.000000 
-0.000000 -4.511030 0.000000 
0.000000 -4.511030 0.000000 
-0.000000 -4.511030 0.000000 
-0.000000 -4.511030 0.000000 
0.000000 -4.511030 0.000000 
0.000000 -4.511030 0.000000 
0.000000 -4.511030 0.000000 
-0.000000 -4.511030 0.000000 
0.000000 -4.511030 0.000000 
0.000000 -4.511030 0.000000 
-0.000000 -4.511030 0.000000 
0.000000 -4.511030 0.000000 
-0.000000 -4.511030 0.000000 
0.000000 -4.511030 0.000000 
0.000000 -4.511030 0.000000 
-0.000000 -4.511030 0.000000 
-0.000000 -4.511030 0.000000 
0.000000 -4.511030 0.000000 
0.000000 -4.511030 0.000000 
0.000000 -4.511030 0.000000 
-0.000000 -4.511030 0.000000 
0.000000 -4.511030 0.000000 
0.000000 -4.511030 0.000000 
0.000000 -4.511030 0.000000 
0.000000 -4.511030 0.000000 
0.000000 -4.511030 0.000000 
-0.000000 -4.511030 0.000000 
-0.000000 -4.511030 0.000000 
-0.000000 -4.511030 0.000000 
-0.000000 -4.511030 0.000000 
0.000000 -4.511030 0.000000 
0.000000 -4.511030 0.000000 
0.000000 -4.511030 0.000000 
0.000000 -4.511030 0.000000 
0.000000 -4.511030 0.000000 
0.000000 -4.511030 0.000000 
0.000000 -4.511030 0.000000 
0.000000 -4.511030 0.000000 
-0.000000 -4.511030 0.000000 
-0.000000 -4.511030 0.000000 
0.000000 -4.511030 0.000000 
0.000000 -4.511030 0.000000 
0.000000 -4.511030 0.000000 
-0.000000 -4.511030 0.000000 
-0.000000 -4.511030 0.000000 
-0.000000 -4.511030 0.000000 
-0.000000 -4.511030 0.000000 
-0.000000 -4.511030 0.000000 
-0.000000 -4.511030 0.000000 
0.000000 -4.511030 0.000000 
-0.000000 -4.511030 0.000000 
-0.000000 -4.511030 0.000000 
-0.000000 -4.511030 0.000000 
-0.000000 -4.511030 0.000000 
-0.000000 -4.511030 0.000000 
-0.000000 -4.511030 0.000000 
-0.000000 -4.511030 0.000000 
0.000000 -4.511030 0.000000 
-0.000000 -4.511030 0.000000 
-0.000000 -4.511030 0.000000 
-0.000000 -4.511030 0.000000 
-0.000000 -4.511030 0.000000 
-0.000000 -4.511030 0.000000 
-0.000000 -4.511030 0.000000 
0.000000 -4.511030 0.000000 
0.000000 -4.511030 0.000000 
0.000000 -4.511030 0.000000 
0.000000 -4.511030 0.000000 
0.000000 -4.511030 0.000000 
0.000000 -4.511030 0.000000 
-0.000000 -4.511030 0.000000 
-0.000000 -4.511030 0.000000 
-0.000000 -4.511030 0.000000 
-0.000000 -4.511030 0.000000 
-0.000000 -4.511030 0.000000 
-0.000000 -4.511030 0.000000 
-0.000000 -4.511030 0.000000 
0.000000 -4.511030 0.000000 
0.000000 -4.511030 0.000000 
-0.000000 -4.511030 0.000000 
-0.000000 -4.511030 0.000000 
-0.000000 -4.511030 0.000000 
-0.000000 -4.511030 0.000000 
-0.000000 -4.511030 0.000000 
-0.000000 -4.511030 0.000000 
-0.000000 -4.511030 0.000000 
-0.000000 -4.511030 0.000000 
-0.000000 -4.511030 0.000000 
-0.000000 -4.511030 0.000000 
-0.000000 -4.511030 0.000000 
0.000000 -4.511030 0.000000 
-0.000000 -4.511030 0.000000 
-0.000000 -4.511030 0.000000 
-0.000000 -4.511030 0.000000 
0.000000 -4.511030 0.000000 
0.000000 -4.511030 0.000000 
-0.000000 -4.511030 0.000000 
-0.000000 -4.511030 0.000000 
0.000000 -4.511030 0.000000 
0.000000 -4.511030 0.000000 
-0.000000 -4.511030 0.000000 
-0.000000 -4.511030 0.000000 
0.000000 -4.511030 0.000000 
-0.000000 -4.511030 0.000000 
0.000000 -4.511030 0.000000 
-0.000000 -4.511030 0.000000 
0.000000 -4.511030 0.000000 
0.000000 -4.511030 0.000000 
0.000000 -4.511030 0.000000 
-0.000000 -4.511030 0.000000 
0.000000 -4.511030 0.000000 
0.000000 -4.511030 0.000000 
-0.000000 -4.511030 0.000000 
-0.000000 -4.511030 0.000000 
-0.000000 -4.511030 0.000000 
0.000000 -4.511030 0.000000 
0.000000 -4.511030 0.000000 
0.000000 -4.511030 0.000000 
0.000000 -4.511030 0.000000 
0.000000 -4.511030 0.000000 
-0.000000 -4.511030 0.000000 
-0.000000 -4.511030 0.000000 
-0.000000 -4.511030 0.000000 
0.000000 -4.511030 0.000000 
0.000000 -4.511030 0.000000 
0.000000 -4.511030 0.000000 
0.000000 -4.511030 0.000000 
0.000000 -4.511030 0.000000 
0.000000 -4.511030 0.000000 
0.000000 -4.511030 0.000000 
0.000000 -4.511030 0.000000 
0.000000 -4.511030 0.000000 
0.000000 -4.511030 0.000000 
-0.000000 -4.511030 0.000000 
-0.000000 -4.511030 0.000000 
-0.000000 -4.511030 0.000000 
TENSORS STRESS float 
-0.000000 0.000000 0.000000 
0.000000 -0.000000 0.000000 
0.000000 0.000000 0.000000 

0.000000 0.000000 0.000000 
0.000000 0.000000 0.000000 
0.000000 0.000000 0.000000 

-0.000000 -0.000000 0.000000 
0.000000 0.000000 0.000000 
0.000000 0.000000 0.000000 

-0.000000 -0.000000 0.000000 
0.000000 0.000000 0.000000 
0.000000 0.000000 0.000000 

-0.000000 0.000000 0.000000 
0.000000 -0.000000 0.000000 
0.000000 0.000000 0.000000 

0.000000 0.000000 0.000000 
0.000000 0.000000 0.000000 
0.000000 0.000000 0.000000 

-0.000000 -0.000000 0.000000 
0.000000 0.000000 0.000000 
0.000000 0.000000 0.000000 

-0.000000 -0.000000 0.000000 
0.000000 -0.000000 0.000000 
0.000000 0.000000 0.000000 

-0.000000 0.000000 0.000000 
0.000000 -0.000000 0.000000 
0.000000 0.000000 0.000000 

-0.000000 0.000000 0.000000 
0.000000 0.000000 0.000000 
0.000000 0.000000 0.000000 

-0.000000 -0.000000 0.000000 
0.000000 0.000000 0.000000 
0.000000 0.000000 0.000000 

-0.000000 0.000000 0.000000 
0.000000 0.000000 0.000000 
0.000000 0.000000 0.000000 

-0.000000 0.000000 0.000000 
0.000000 0.000000 0.000000 
0.000000 0.000000 0.000000 

-0.000000 -0.000000 0.000000 
0.000000 -0.000000 0.000000 
0.000000 0.000000 0.000000 

-0.000000 0.000000 0.000000 
0.000000 -0.000000 0.000000 
0.000000 0.000000 0.000000 

-0.000000 0.000000 0.000000 
0.000000 -0.000000 0.000000 
0.000000 0.000000 0.000000 

0.000000 -0.000000 0.000000 
0.000000 -0.000000 0.000000 
0.000000 0.000000 0.000000 

0.000000 0.000000 0.000000 
0.000000 0.000000 0.000000 
0.000000 0.000000 0.000000 

0.000000 0.000000 0.000000 
0.000000 0.000000 0.000000 
0.000000 0.000000 0.000000 

-0.000000 -0.000000 0.000000 
0.000000 -0.000000 0.000000 
0.000000 0.000000 0.000000 

0.000000 0.000000 0.000000 
0.000000 0.000000 0.000000 
0.000000 0.000000 0.000000 

0.000000 -0.000000 0.000000 
0.000000 0.000000 0.000000 
0.000000 0.000000 0.000000 

-0.000000 0.000000 0.000000 
0.000000 -0.000000 0.000000 
0.000000 0.000000 0.000000 

-0.000000 -0.000000 0.000000 
0.000000 -0.000000 0.000000 
0.000000 0.000000 0.000000 

-0.000000 -0.000000 0.000000 
0.000000 -0.000000 0.000000 
0.000000 0.000000 0.000000 

-0.000000 0.000000 0.000000 
0.000000 0.000000 0.000000 
0.000000 0.000000 0.000000 

0.000000 -0.000000 0.000000 
0.000000 0.000000 0.000000 
0.000000 0.000000 0.000000 

0.000000 0.000000 0.000000 
0.000000 0.000000 0.000000 
0.000000 0.000000 0.000000 

-0.000000 0.000000 0.000000 
0.000000 -0.000000 0.000000 
0.000000 0.000000 0.000000 

-0.000000 0.000000 0.000000 
0.000000 -0.000000 0.000000 
0.000000 0.000000 0.000000 

-0.000000 -0.000000 0.000000 
0.000000 -0.000000 0.000000 
0.000000 0.000000 0.000000 

-0.000000 0.000000 0.000000 
0.000000 -0.000000 0.000000 
0.000000 0.000000 0.000000 

-0.000000 -0.000000 0.000000 
0.000000 -0.000000 0.000000 
0.000000 0.000000 0.000000 

-0.000000 -0.000000 0.000000 
0.000000 -0.000000 0.000000 
0.000000 0.000000 0.000000 

-0.000000 -0.000000 0.000000 
0.000000 -0.000000 0.000000 
0.000000 0.000000 0.000000 

-0.000000 0.000000 0.000000 
0.000000 -0.000000 0.000000 
0.000000 0.000000 0.000000 

-0.000000 0.000000 0.000000 
0.000000 -0.000000 0.000000 
0.000000 0.000000 0.000000 

-0.000000 0.000000 0.000000 
0.000000 -0.000000 0.000000 
0.000000 0.000000 0.000000 

0.000000 -0.000000 0.000000 
0.000000 0.000000 0.000000 
0.000000 0.000000 0.000000 

-0.000000 0.000000 0.000000 
0.000000 -0.000000 0.000000 
0.000000 0.000000 0.000000 

-0.000000 0.000000 0.000000 
0.000000 0.000000 0.000000 
0.000000 0.000000 0.000000 

-0.000000 -0.000000 0.000000 
0.000000 0.000000 0.000000 
0.000000 0.000000 0.000000 

0.000000 0.000000 0.000000 
0.000000 0.000000 0.000000 
0.000000 0.000000 0.000000 

-0.000000 -0.000000 0.000000 
0.000000 -0.000000 0.000000 
0.000000 0.000000 0.000000 

-0.000000 0.000000 0.000000 
0.000000 0.000000 0.000000 
0.000000 0.000000 0.000000 

-0.000000 0.000000 0.000000 
0.000000 -0.000000 0.000000 
0.000000 0.000000 0.000000 

-0.000000 -0.000000 0.000000 
0.000000 0.000000 0.000000 
0.000000 0.000000 0.000000 

-0.000000 0.000000 0.000000 
0.000000 -0.000000 0.000000 
0.000000 0.000000 0.000000 

-0.000000 -0.000000 0.000000 
0.000000 -0.000000 0.000000 
0.000000 0.000000 0.000000 

-0.000000 -0.000000 0.000000 
0.000000 -0.000000 0.000000 
0.000000 0.000000 0.000000 

0.000000 -0.000000 0.000000 
0.000000 0.000000 0.000000 
0.000000 0.000000 0.000000 

-0.000000 -0.000000 0.000000 
0.000000 -0.000000 0.000000 
0.000000 0.000000 0.000000 

0.000000 -0.000000 0.000000 
0.000000 0.000000 0.000000 
0.000000 0.000000 0.000000 

0.000000 0.000000 0.000000 
0.000000 0.000000 0.000000 
0.000000 0.000000 0.000000 

-0.000000 -0.000000 0.000000 
0.000000 -0.000000 0.000000 
0.000000 0.000000 0.000000 

-0.000000 -0.000000 0.000000 
0.000000 -0.000000 0.000000 
0.000000 0.000000 0.000000 

0.000000 0.000000 0.000000 
0.000000 0.000000 0.000000 
0.000000 0.000000 0.000000 

-0.000000 0.000000 0.000000 
0.000000 -0.000000 0.000000 
0.000000 0.000000 0.000000 

-0.000000 0.000000 0.000000 
0.000000 0.000000 0.000000 
0.000000 0.000000 0.000000 

-0.000000 -0.000000 0.000000 
0.000000 0.000000 0.000000 
0.000000 0.000000 0.000000 

-0.000000 0.000000 0.000000 
0.000000 0.000000 0.000000 
0.000000 0.000000 0.000000 

-0.000000 0.000000 0.000000 
0.000000 0.000000 0.000000 
0.000000 0.000000 0.000000 

-0.000000 0.000000 0.000000 
0.000000 -0.000000 0.000000 
0.000000 0.000000 0.000000 

-0.000000 -0.000000 0.000000 
0.000000 -0.000000 0.000000 
0.000000 0.000000 0.000000 

-0.000000 -0.000000 0.000000 
0.000000 -0.000000 0.000000 
0.000000 0.000000 0.000000 

-0.000000 -0.000000 0.000000 
0.000000 -0.000000 0.000000 
0.000000 0.000000 0.000000 

-0.000000 -0.000000 0.000000 
0.000000 -0.000000 0.000000 
0.000000 0.000000 0.000000 

0.000000 -0.000000 0.000000 
0.000000 0.000000 0.000000 
0.000000 0.000000 0.000000 

-0.000000 -0.000000 0.000000 
0.000000 -0.000000 0.000000 
0.000000 0.000000 0.000000 

0.000000 -0.000000 0.000000 
0.000000 0.000000 0.000000 
0.000000 0.000000 0.000000 

-0.000000 0.000000 0.000000 
0.000000 -0.000000 0.000000 
0.000000 0.000000 0.000000 

-0.000000 -0.000000 0.000000 
0.000000 -0.000000 0.000000 
0.000000 0.000000 0.000000 

0.000000 0.000000 0.000000 
0.000000 0.000000 0.000000 
0.000000 0.000000 0.000000 

-0.000000 0.000000 0.000000 
0.000000 -0.000000 0.000000 
0.000000 0.000000 0.000000 

-0.000000 0.000000 0.000000 
0.000000 0.000000 0.000000 
0.000000 0.000000 0.000000 

-0.000000 0.000000 0.000000 
0.000000 -0.000000 0.000000 
0.000000 0.000000 0.000000 

-0.000000 0.000000 0.000000 
0.000000 -0.000000 0.000000 
0.000000 0.000000 0.000000 

-0.000000 -0.000000 0.000000 
0.000000 -0.000000 0.000000 
0.000000 0.000000 0.000000 

0.000000 0.000000 0.000000 
0.000000 0.000000 0.000000 
0.000000 0.000000 0.000000 

-0.000000 -0.000000 0.000000 
0.000000 0.000000 0.000000 
0.000000 0.000000 0.000000 

0.000000 -0.000000 0.000000 
0.000000 0.000000 0.000000 
0.000000 0.000000 0.000000 

-0.000000 0.000000 0.000000 
0.000000 -0.000000 0.000000 
0.000000 0.000000 0.000000 

-0.000000 0.000000 0.000000 
0.000000 -0.000000 0.000000 
0.000000 0.000000 0.000000 

-0.000000 -0.000000 0.000000 
0.000000 -0.000000 0.000000 
0.000000 0.000000 0.000000 

-0.000000 0.000000 0.000000 
0.000000 -0.000000 0.000000 
0.000000 0.000000 0.000000 

0.000000 0.000000 0.000000 
0.000000 0.000000 0.000000 
0.000000 0.000000 0.000000 

-0.000000 -0.000000 0.000000 
0.000000 0.000000 0.000000 
0.000000 0.000000 0.000000 

-0.000000 -0.000000 0.000000 
0.000000 -0.000000 0.000000 
0.000000 0.000000 0.000000 

-0.000000 0.000000 0.000000 
0.000000 0.000000 0.000000 
0.000000 0.000000 0.000000 

-0.000000 -0.000000 0.000000 
0.000000 0.000000 0.000000 
0.000000 0.000000 0.000000 

0.000000 -0.000000 0.000000 
0.000000 0.000000 0.000000 
0.000000 0.000000 0.000000 

0.000000 0.000000 0.000000 
0.000000 0.000000 0.000000 
0.000000 0.000000 0.000000 

0.000000 -0.000000 0.000000 
0.000000 -0.000000 0.000000 
0.000000 0.000000 0.000000 

0.000000 -0.000000 0.000000 
0.000000 0.000000 0.000000 
0.000000 0.000000 0.000000 

0.000000 0.000000 0.000000 
0.000000 0.000000 0.000000 
0.000000 0.000000 0.000000 

0.000000 -0.000000 0.000000 
0.000000 0.000000 0.000000 
0.000000 0.000000 0.000000 

0.000000 0.000000 0.000000 
0.000000 0.000000 0.000000 
0.000000 0.000000 0.000000 

-0.000000 -0.000000 0.000000 
0.000000 -0.000000 0.000000 
0.000000 0.000000 0.000000 

-0.000000 -0.000000 0.000000 
0.000000 -0.000000 0.000000 
0.000000 0.000000 0.000000 

0.000000 0.000000 0.000000 
0.000000 0.000000 0.000000 
0.000000 0.000000 0.000000 

-0.000000 -0.000000 0.000000 
0.000000 -0.000000 0.000000 
0.000000 0.000000 0.000000 

-0.000000 0.000000 0.000000 
0.000000 -0.000000 0.000000 
0.000000 0.000000 0.000000 

-0.000000 0.000000 0.000000 
0.000000 -0.000000 0.000000 
0.000000 0.000000 0.000000 

-0.000000 -0.000000 0.000000 
0.000000 0.000000 0.000000 
0.000000 0.000000 0.000000 

0.000000 -0.000000 0.000000 
0.000000 -0.000000 0.000000 
0.000000 0.000000 0.000000 

-0.000000 -0.000000 0.000000 
0.000000 0.000000 0.000000 
0.000000 0.000000 0.000000 

-0.000000 -0.000000 0.000000 
0.000000 0.000000 0.000000 
0.000000 0.000000 0.000000 

-0.000000 -0.000000 0.000000 
0.000000 0.000000 0.000000 
0.000000 0.000000 0.000000 

-0.000000 -0.000000 0.000000 
0.000000 -0.000000 0.000000 
0.000000 0.000000 0.000000 

-0.000000 0.000000 0.000000 
0.000000 -0.000000 0.000000 
0.000000 0.000000 0.000000 

0.000000 -0.000000 0.000000 
0.000000 0.000000 0.000000 
0.000000 0.000000 0.000000 

-0.000000 0.000000 0.000000 
0.000000 0.000000 0.000000 
0.000000 0.000000 0.000000 

0.000000 0.000000 0.000000 
0.000000 0.000000 0.000000 
0.000000 0.000000 0.000000 

0.000000 -0.000000 0.000000 
0.000000 -0.000000 0.000000 
0.000000 0.000000 0.000000 

0.000000 -0.000000 0.000000 
0.000000 0.000000 0.000000 
0.000000 0.000000 0.000000 

0.000000 -0.000000 0.000000 
0.000000 -0.000000 0.000000 
0.000000 0.000000 0.000000 

-0.000000 -0.000000 0.000000 
0.000000 -0.000000 0.000000 
0.000000 0.000000 0.000000 

-0.000000 -0.000000 0.000000 
0.000000 -0.000000 0.000000 
0.000000 0.000000 0.000000 

-0.000000 -0.000000 0.000000 
0.000000 0.000000 0.000000 
0.000000 0.000000 0.000000 

-0.000000 -0.000000 0.000000 
0.000000 -0.000000 0.000000 
0.000000 0.000000 0.000000 

-0.000000 0.000000 0.000000 
0.000000 -0.000000 0.000000 
0.000000 0.000000 0.000000 

0.000000 -0.000000 0.000000 
0.000000 0.000000 0.000000 
0.000000 0.000000 0.000000 

0.000000 -0.000000 0.000000 
0.000000 -0.000000 0.000000 
0.000000 0.000000 0.000000 

0.000000 -0.000000 0.000000 
0.000000 0.000000 0.000000 
0.000000 0.000000 0.000000 

0.000000 -0.000000 0.000000 
0.000000 -0.000000 0.000000 
0.000000 0.000000 0.000000 

-0.000000 -0.000000 0.000000 
0.000000 0.000000 0.000000 
0.000000 0.000000 0.000000 

-0.000000 -0.000000 0.000000 
0.000000 -0.000000 0.000000 
0.000000 0.000000 0.000000 

0.000000 0.000000 0.000000 
0.000000 0.000000 0.000000 
0.000000 0.000000 0.000000 

-0.000000 0.000000 0.000000 
0.000000 -0.000000 0.000000 
0.000000 0.000000 0.000000 

-0.000000 0.000000 0.000000 
0.000000 -0.000000 0.000000 
0.000000 0.000000 0.000000 

-0.000000 0.000000 0.000000 
0.000000 0.000000 0.000000 
0.000000 0.000000 0.000000 

-0.000000 -0.000000 0.000000 
0.000000 -0.000000 0.000000 
0.000000 0.000000 0.000000 

-0.000000 0.000000 0.000000 
0.000000 -0.000000 0.000000 
0.000000 0.000000 0.000000 

0.000000 0.000000 0.000000 
0.000000 -0.000000 0.000000 
0.000000 0.000000 0.000000 

0.000000 -0.000000 0.000000 
0.000000 0.000000 0.000000 
0.000000 0.000000 0.000000 

0.000000 -0.000000 0.000000 
0.000000 -0.000000 0.000000 
0.000000 0.000000 0.000000 

0.000000 -0.000000 0.000000 
0.000000 -0.000000 0.000000 
0.000000 0.000000 0.000000 

0.000000 0.000000 0.000000 
0.000000 0.000000 0.000000 
0.000000 0.000000 0.000000 

0.000000 -0.000000 0.000000 
0.000000 0.000000 0.000000 
0.000000 0.000000 0.000000 

0.000000 -0.000000 0.000000 
0.000000 0.000000 0.000000 
0.000000 0.000000 0.000000 

0.000000 -0.000000 0.000000 
0.000000 -0.000000 0.000000 
0.000000 0.000000 0.000000 

0.000000 0.000000 0.000000 
0.000000 -0.000000 0.000000 
0.000000 0.000000 0.000000 

0.000000 -0.000000 0.000000 
0.000000 0.000000 0.000000 
0.000000 0.000000 0.000000 

-0.000000 0.000000 0.000000 
0.000000 -0.000000 0.000000 
0.000000 0.000000 0.000000 

0.000000 -0.000000 0.000000 
0.000000 0.000000 0.000000 
0.000000 0.000000 0.000000 

0.000000 -0.000000 0.000000 
0.000000 -0.000000 0.000000 
0.000000 0.000000 0.000000 

0.000000 0.000000 0.000000 
0.000000 0.000000 0.000000 
0.000000 0.000000 0.000000 

-0.000000 0.000000 0.000000 
0.000000 -0.000000 0.000000 
0.000000 0.000000 0.000000 

0.000000 0.000000 0.000000 
0.000000 0.000000 0.000000 
0.000000 0.000000 0.000000 

-0.000000 0.000000 0.000000 
0.000000 -0.000000 0.000000 
0.000000 0.000000 0.000000 

-0.000000 0.000000 0.000000 
0.000000 0.000000 0.000000 
0.000000 0.000000 0.000000 

0.000000 0.000000 0.000000 
0.000000 0.000000 0.000000 
0.000000 0.000000 0.000000 

0.000000 -0.000000 0.000000 
0.000000 0.000000 0.000000 
0.000000 0.000000 0.000000 

-0.000000 -0.000000 0.000000 
0.000000 0.000000 0.000000 
0.000000 0.000000 0.000000 

-0.000000 0.000000 0.000000 
0.000000 -0.000000 0.000000 
0.000000 0.000000 0.000000 

-0.000000 0.000000 0.000000 
0.000000 0.000000 0.000000 
0.000000 0.000000 0.000000 

0.000000 0.000000 0.000000 
0.000000 0.000000 0.000000 
0.000000 0.000000 0.000000 

-0.000000 -0.000000 0.000000 
0.000000 0.000000 0.000000 
0.000000 0.000000 0.000000 

-0.000000 0.000000 0.000000 
0.000000 0.000000 0.000000 
0.000000 0.000000 0.000000 

-0.000000 0.000000 0.000000 
0.000000 -0.000000 0.000000 
0.000000 0.000000 0.000000 

-0.000000 0.000000 0.000000 
0.000000 0.000000 0.000000 
0.000000 0.000000 0.000000 

-0.000000 -0.000000 0.000000 
0.000000 -0.000000 0.000000 
0.000000 0.000000 0.000000 

-0.000000 -0.000000 0.000000 
0.000000 -0.000000 0.000000 
0.000000 0.000000 0.000000 

0.000000 0.000000 0.000000 
0.000000 0.000000 0.000000 
0.000000 0.000000 0.000000 

-0.000000 -0.000000 0.000000 
0.000000 0.000000 0.000000 
0.000000 0.000000 0.000000 

0.000000 -0.000000 0.000000 
0.000000 -0.000000 0.000000 
0.000000 0.000000 0.000000 

-0.000000 -0.000000 0.000000 
0.000000 0.000000 0.000000 
0.000000 0.000000 0.000000 

-0.000000 -0.000000 0.000000 
0.000000 0.000000 0.000000 
0.000000 0.000000 0.000000 

0.000000 -0.000000 0.000000 
0.000000 -0.000000 0.000000 
0.000000 0.000000 0.000000 

-0.000000 0.000000 0.000000 
0.000000 -0.000000 0.000000 
0.000000 0.000000 0.000000 

0.000000 0.000000 0.000000 
0.000000 0.000000 0.000000 
0.000000 0.000000 0.000000 

-0.000000 -0.000000 0.000000 
0.000000 -0.000000 0.000000 
0.000000 0.000000 0.000000 

0.000000 -0.000000 0.000000 
0.000000 0.000000 0.000000 
0.000000 0.000000 0.000000 

0.000000 -0.000000 0.000000 
0.000000 -0.000000 0.000000 
0.000000 0.000000 0.000000 

0.000000 0.000000 0.000000 
0.000000 -0.000000 0.000000 
0.000000 0.000000 0.000000 

TENSORS STRAIN float 
-0.000000 0.000000 0.000000 
0.000000 -0.000000 0.000000 
0.000000 0.000000 0.000000 

-0.000000 0.000000 0.000000 
0.000000 0.000000 0.000000 
0.000000 0.000000 0.000000 

-0.000000 -0.000000 0.000000 
0.000000 0.000000 0.000000 
0.000000 0.000000 0.000000 

-0.000000 -0.000000 0.000000 
0.000000 0.000000 0.000000 
0.000000 0.000000 0.000000 

-0.000000 0.000000 0.000000 
0.000000 -0.000000 0.000000 
0.000000 0.000000 0.000000 

-0.000000 0.000000 0.000000 
0.000000 0.000000 0.000000 
0.000000 0.000000 0.000000 

-0.000000 -0.000000 0.000000 
0.000000 0.000000 0.000000 
0.000000 0.000000 0.000000 

-0.000000 -0.000000 0.000000 
0.000000 -0.000000 0.000000 
0.000000 0.000000 0.000000 

-0.000000 0.000000 0.000000 
0.000000 -0.000000 0.000000 
0.000000 0.000000 0.000000 

-0.000000 0.000000 0.000000 
0.000000 0.000000 0.000000 
0.000000 0.000000 0.000000 

-0.000000 -0.000000 0.000000 
0.000000 0.000000 0.000000 
0.000000 0.000000 0.000000 

-0.000000 0.000000 0.000000 
0.000000 0.000000 0.000000 
0.000000 0.000000 0.000000 

-0.000000 0.000000 0.000000 
0.000000 0.000000 0.000000 
0.000000 0.000000 0.000000 

-0.000000 -0.000000 0.000000 
0.000000 -0.000000 0.000000 
0.000000 0.000000 0.000000 

-0.000000 0.000000 0.000000 
0.000000 -0.000000 0.000000 
0.000000 0.000000 0.000000 

-0.000000 0.000000 0.000000 
0.000000 0.000000 0.000000 
0.000000 0.000000 0.000000 

0.000000 -0.000000 0.000000 
0.000000 -0.000000 0.000000 
0.000000 0.000000 0.000000 

0.000000 0.000000 0.000000 
0.000000 -0.000000 0.000000 
0.000000 0.000000 0.000000 

0.000000 0.000000 0.000000 
0.000000 0.000000 0.000000 
0.000000 0.000000 0.000000 

-0.000000 -0.000000 0.000000 
0.000000 -0.000000 0.000000 
0.000000 0.000000 0.000000 

-0.000000 0.000000 0.000000 
0.000000 0.000000 0.000000 
0.000000 0.000000 0.000000 

-0.000000 -0.000000 0.000000 
0.000000 0.000000 0.000000 
0.000000 0.000000 0.000000 

0.000000 0.000000 0.000000 
0.000000 -0.000000 0.000000 
0.000000 0.000000 0.000000 

-0.000000 -0.000000 0.000000 
0.000000 0.000000 0.000000 
0.000000 0.000000 0.000000 

-0.000000 -0.000000 0.000000 
0.000000 -0.000000 0.000000 
0.000000 0.000000 0.000000 

-0.000000 0.000000 0.000000 
0.000000 0.000000 0.000000 
0.000000 0.000000 0.000000 

-0.000000 -0.000000 0.000000 
0.000000 0.000000 0.000000 
0.000000 0.000000 0.000000 

-0.000000 0.000000 0.000000 
0.000000 0.000000 0.000000 
0.000000 0.000000 0.000000 

-0.000000 0.000000 0.000000 
0.000000 -0.000000 0.000000 
0.000000 0.000000 0.000000 

-0.000000 0.000000 0.000000 
0.000000 -0.000000 0.000000 
0.000000 0.000000 0.000000 

-0.000000 -0.000000 0.000000 
0.000000 -0.000000 0.000000 
0.000000 0.000000 0.000000 

-0.000000 0.000000 0.000000 
0.000000 -0.000000 0.000000 
0.000000 0.000000 0.000000 

-0.000000 -0.000000 0.000000 
0.000000 -0.000000 0.000000 
0.000000 0.000000 0.000000 

-0.000000 -0.000000 0.000000 
0.000000 -0.000000 0.000000 
0.000000 0.000000 0.000000 

-0.000000 -0.000000 0.000000 
0.000000 -0.000000 0.000000 
0.000000 0.000000 0.000000 

-0.000000 0.000000 0.000000 
0.000000 0.000000 0.000000 
0.000000 0.000000 0.000000 

0.000000 0.000000 0.000000 
0.000000 -0.000000 0.000000 
0.000000 0.000000 0.000000 

0.000000 0.000000 0.000000 
0.000000 -0.000000 0.000000 
0.000000 0.000000 0.000000 

-0.000000 -0.000000 0.000000 
0.000000 0.000000 0.000000 
0.000000 0.000000 0.000000 

-0.000000 0.000000 0.000000 
0.000000 -0.000000 0.000000 
0.000000 0.000000 0.000000 

-0.000000 0.000000 0.000000 
0.000000 0.000000 0.000000 
0.000000 0.000000 0.000000 

-0.000000 -0.000000 0.000000 
0.000000 0.000000 0.000000 
0.000000 0.000000 0.000000 

-0.000000 0.000000 0.000000 
0.000000 0.000000 0.000000 
0.000000 0.000000 0.000000 

-0.000000 -0.000000 0.000000 
0.000000 0.000000 0.000000 
0.000000 0.000000 0.000000 

-0.000000 0.000000 0.000000 
0.000000 0.000000 0.000000 
0.000000 0.000000 0.000000 

-0.000000 0.000000 0.000000 
0.000000 -0.000000 0.000000 
0.000000 0.000000 0.000000 

-0.000000 -0.000000 0.000000 
0.000000 0.000000 0.000000 
0.000000 0.000000 0.000000 

-0.000000 0.000000 0.000000 
0.000000 0.000000 0.000000 
0.000000 0.000000 0.000000 

-0.000000 -0.000000 0.000000 
0.000000 -0.000000 0.000000 
0.000000 0.000000 0.000000 

-0.000000 -0.000000 0.000000 
0.000000 -0.000000 0.000000 
0.000000 0.000000 0.000000 

-0.000000 -0.000000 0.000000 
0.000000 0.000000 0.000000 
0.000000 0.000000 0.000000 

0.000000 -0.000000 0.000000 
0.000000 -0.000000 0.000000 
0.000000 0.000000 0.000000 

-0.000000 -0.000000 0.000000 
0.000000 0.000000 0.000000 
0.000000 0.000000 0.000000 

-0.000000 0.000000 0.000000 
0.000000 0.000000 0.000000 
0.000000 0.000000 0.000000 

-0.000000 -0.000000 0.000000 
0.000000 -0.000000 0.000000 
0.000000 0.000000 0.000000 

0.000000 -0.000000 0.000000 
0.000000 -0.000000 0.000000 
0.000000 0.000000 0.000000 

0.000000 0.000000 0.000000 
0.000000 0.000000 0.000000 
0.000000 0.000000 0.000000 

0.000000 0.000000 0.000000 
0.000000 -0.000000 0.000000 
0.000000 0.000000 0.000000 

-0.000000 0.000000 0.000000 
0.000000 0.000000 0.000000 
0.000000 0.000000 0.000000 

-0.000000 -0.000000 0.000000 
0.000000 0.000000 0.000000 
0.000000 0.000000 0.000000 

-0.000000 0.000000 0.000000 
0.000000 0.000000 0.000000 
0.000000 0.000000 0.000000 

-0.000000 0.000000 0.000000 
0.000000 0.000000 0.000000 
0.000000 0.000000 0.000000 

-0.000000 0.000000 0.000000 
0.000000 0.000000 0.000000 
0.000000 0.000000 0.000000 

-0.000000 -0.000000 0.000000 
0.000000 0.000000 0.000000 
0.000000 0.000000 0.000000 

-0.000000 -0.000000 0.000000 
0.000000 -0.000000 0.000000 
0.000000 0.000000 0.000000 

-0.000000 -0.000000 0.000000 
0.000000 -0.000000 0.000000 
0.000000 0.000000 0.000000 

-0.000000 -0.000000 0.000000 
0.000000 0.000000 0.000000 
0.000000 0.000000 0.000000 

0.000000 -0.000000 0.000000 
0.000000 -0.000000 0.000000 
0.000000 0.000000 0.000000 

0.000000 -0.000000 0.000000 
0.000000 -0.000000 0.000000 
0.000000 0.000000 0.000000 

0.000000 -0.000000 0.000000 
0.000000 0.000000 0.000000 
0.000000 0.000000 0.000000 

0.000000 0.000000 0.000000 
0.000000 -0.000000 0.000000 
0.000000 0.000000 0.000000 

-0.000000 -0.000000 0.000000 
0.000000 -0.000000 0.000000 
0.000000 0.000000 0.000000 

0.000000 0.000000 0.000000 
0.000000 -0.000000 0.000000 
0.000000 0.000000 0.000000 

-0.000000 0.000000 0.000000 
0.000000 -0.000000 0.000000 
0.000000 0.000000 0.000000 

-0.000000 0.000000 0.000000 
0.000000 0.000000 0.000000 
0.000000 0.000000 0.000000 

-0.000000 0.000000 0.000000 
0.000000 -0.000000 0.000000 
0.000000 0.000000 0.000000 

0.000000 0.000000 0.000000 
0.000000 -0.000000 0.000000 
0.000000 0.000000 0.000000 

-0.000000 -0.000000 0.000000 
0.000000 -0.000000 0.000000 
0.000000 0.000000 0.000000 

0.000000 0.000000 0.000000 
0.000000 0.000000 0.000000 
0.000000 0.000000 0.000000 

-0.000000 -0.000000 0.000000 
0.000000 0.000000 0.000000 
0.000000 0.000000 0.000000 

-0.000000 -0.000000 0.000000 
0.000000 0.000000 0.000000 
0.000000 0.000000 0.000000 

-0.000000 0.000000 0.000000 
0.000000 -0.000000 0.000000 
0.000000 0.000000 0.000000 

-0.000000 0.000000 0.000000 
0.000000 -0.000000 0.000000 
0.000000 0.000000 0.000000 

-0.000000 -0.000000 0.000000 
0.000000 0.000000 0.000000 
0.000000 0.000000 0.000000 

0.000000 0.000000 0.000000 
0.000000 -0.000000 0.000000 
0.000000 0.000000 0.000000 

0.000000 0.000000 0.000000 
0.000000 -0.000000 0.000000 
0.000000 0.000000 0.000000 

-0.000000 -0.000000 0.000000 
0.000000 0.000000 0.000000 
0.000000 0.000000 0.000000 

-0.000000 -0.000000 0.000000 
0.000000 -0.000000 0.000000 
0.000000 0.000000 0.000000 

-0.000000 0.000000 0.000000 
0.000000 0.000000 0.000000 
0.000000 0.000000 0.000000 

-0.000000 -0.000000 0.000000 
0.000000 0.000000 0.000000 
0.000000 0.000000 0.000000 

-0.000000 -0.000000 0.000000 
0.000000 0.000000 0.000000 
0.000000 0.000000 0.000000 

0.000000 0.000000 0.000000 
0.000000 0.000000 0.000000 
0.000000 0.000000 0.000000 

0.000000 -0.000000 0.000000 
0.000000 -0.000000 0.000000 
0.000000 0.000000 0.000000 

0.000000 -0.000000 0.000000 
0.000000 0.000000 0.000000 
0.000000 0.000000 0.000000 

0.000000 0.000000 0.000000 
0.000000 0.000000 0.000000 
0.000000 0.000000 0.000000 

0.000000 -0.000000 0.000000 
0.000000 0.000000 0.000000 
0.000000 0.000000 0.000000 

0.000000 0.000000 0.000000 
0.000000 -0.000000 0.000000 
0.000000 0.000000 0.000000 

0.000000 -0.000000 0.000000 
0.000000 -0.000000 0.000000 
0.000000 0.000000 0.000000 

-0.000000 -0.000000 0.000000 
0.000000 0.000000 0.000000 
0.000000 0.000000 0.000000 

-0.000000 0.000000 0.000000 
0.000000 0.000000 0.000000 
0.000000 0.000000 0.000000 

-0.000000 -0.000000 0.000000 
0.000000 0.000000 0.000000 
0.000000 0.000000 0.000000 

-0.000000 0.000000 0.000000 
0.000000 -0.000000 0.000000 
0.000000 0.000000 0.000000 

-0.000000 0.000000 0.000000 
0.000000 -0.000000 0.000000 
0.000000 0.000000 0.000000 

-0.000000 -0.000000 0.000000 
0.000000 0.000000 0.000000 
0.000000 0.000000 0.000000 

0.000000 -0.000000 0.000000 
0.000000 -0.000000 0.000000 
0.000000 0.000000 0.000000 

-0.000000 -0.000000 0.000000 
0.000000 0.000000 0.000000 
0.000000 0.000000 0.000000 

-0.000000 -0.000000 0.000000 
0.000000 0.000000 0.000000 
0.000000 0.000000 0.000000 

-0.000000 -0.000000 0.000000 
0.000000 0.000000 0.000000 
0.000000 0.000000 0.000000 

-0.000000 -0.000000 0.000000 
0.000000 0.000000 0.000000 
0.000000 0.000000 0.000000 

0.000000 0.000000 0.000000 
0.000000 -0.000000 0.000000 
0.000000 0.000000 0.000000 

-0.000000 -0.000000 0.000000 
0.000000 0.000000 0.000000 
0.000000 0.000000 0.000000 

-0.000000 0.000000 0.000000 
0.000000 0.000000 0.000000 
0.000000 0.000000 0.000000 

-0.000000 0.000000 0.000000 
0.000000 0.000000 0.000000 
0.000000 0.000000 0.000000 

0.000000 -0.000000 0.000000 
0.000000 -0.000000 0.000000 
0.000000 0.000000 0.000000 

0.000000 -0.000000 0.000000 
0.000000 0.000000 0.000000 
0.000000 0.000000 0.000000 

0.000000 -0.000000 0.000000 
0.000000 -0.000000 0.000000 
0.000000 0.000000 0.000000 

-0.000000 -0.000000 0.000000 
0.000000 -0.000000 0.000000 
0.000000 0.000000 0.000000 

-0.000000 -0.000000 0.000000 
0.000000 -0.000000 0.000000 
0.000000 0.000000 0.000000 

-0.000000 -0.000000 0.000000 
0.000000 0.000000 0.000000 
0.000000 0.000000 0.000000 

-0.000000 -0.000000 0.000000 
0.000000 -0.000000 0.000000 
0.000000 0.000000 0.000000 

0.000000 0.000000 0.000000 
0.000000 -0.000000 0.000000 
0.000000 0.000000 0.000000 

0.000000 -0.000000 0.000000 
0.000000 0.000000 0.000000 
0.000000 0.000000 0.000000 

0.000000 -0.000000 0.000000 
0.000000 -0.000000 0.000000 
0.000000 0.000000 0.000000 

0.000000 -0.000000 0.000000 
0.000000 0.000000 0.000000 
0.000000 0.000000 0.000000 

0.000000 -0.000000 0.000000 
0.000000 -0.000000 0.000000 
0.000000 0.000000 0.000000 

-0.000000 -0.000000 0.000000 
0.000000 0.000000 0.000000 
0.000000 0.000000 0.000000 

-0.000000 -0.000000 0.000000 
0.000000 0.000000 0.000000 
0.000000 0.000000 0.000000 

-0.000000 0.000000 0.000000 
0.000000 0.000000 0.000000 
0.000000 0.000000 0.000000 

-0.000000 0.000000 0.000000 
0.000000 -0.000000 0.000000 
0.000000 0.000000 0.000000 

-0.000000 0.000000 0.000000 
0.000000 -0.000000 0.000000 
0.000000 0.000000 0.000000 

-0.000000 0.000000 0.000000 
0.000000 0.000000 0.000000 
0.000000 0.000000 0.000000 

0.000000 -0.000000 0.000000 
0.000000 -0.000000 0.000000 
0.000000 0.000000 0.000000 

-0.000000 0.000000 0.000000 
0.000000 0.000000 0.000000 
0.000000 0.000000 0.000000 

0.000000 0.000000 0.000000 
0.000000 -0.000000 0.000000 
0.000000 0.000000 0.000000 

0.000000 -0.000000 0.000000 
0.000000 0.000000 0.000000 
0.000000 0.000000 0.000000 

0.000000 -0.000000 0.000000 
0.000000 -0.000000 0.000000 
0.000000 0.000000 0.000000 

0.000000 -0.000000 0.000000 
0.000000 -0.000000 0.000000 
0.000000 0.000000 0.000000 

0.000000 0.000000 0.000000 
0.000000 0.000000 0.000000 
0.000000 0.000000 0.000000 

0.000000 -0.000000 0.000000 
0.000000 0.000000 0.000000 
0.000000 0.000000 0.000000 

0.000000 -0.000000 0.000000 
0.000000 -0.000000 0.000000 
0.000000 0.000000 0.000000 

0.000000 -0.000000 0.000000 
0.000000 -0.000000 0.000000 
0.000000 0.000000 0.000000 

0.000000 0.000000 0.000000 
0.000000 -0.000000 0.000000 
0.000000 0.000000 0.000000 

0.000000 -0.000000 0.000000 
0.000000 0.000000 0.000000 
0.000000 0.000000 0.000000 

-0.000000 0.000000 0.000000 
0.000000 -0.000000 0.000000 
0.000000 0.000000 0.000000 

0.000000 -0.000000 0.000000 
0.000000 -0.000000 0.000000 
0.000000 0.000000 0.000000 

0.000000 -0.000000 0.000000 
0.000000 -0.000000 0.000000 
0.000000 0.000000 0.000000 

-0.000000 0.000000 0.000000 
0.000000 0.000000 0.000000 
0.000000 0.000000 0.000000 

0.000000 0.000000 0.000000 
0.000000 -0.000000 0.000000 
0.000000 0.000000 0.000000 

0.000000 0.000000 0.000000 
0.000000 0.000000 0.000000 
0.000000 0.000000 0.000000 

-0.000000 0.000000 0.000000 
0.000000 -0.000000 0.000000 
0.000000 0.000000 0.000000 

-0.000000 0.000000 0.000000 
0.000000 0.000000 0.000000 
0.000000 0.000000 0.000000 

-0.000000 0.000000 0.000000 
0.000000 0.000000 0.000000 
0.000000 0.000000 0.000000 

-0.000000 -0.000000 0.000000 
0.000000 0.000000 0.000000 
0.000000 0.000000 0.000000 

-0.000000 -0.000000 0.000000 
0.000000 0.000000 0.000000 
0.000000 0.000000 0.000000 

-0.000000 0.000000 0.000000 
0.000000 -0.000000 0.000000 
0.000000 0.000000 0.000000 

-0.000000 0.000000 0.000000 
0.000000 0.000000 0.000000 
0.000000 0.000000 0.000000 

-0.000000 0.000000 0.000000 
0.000000 0.000000 0.000000 
0.000000 0.000000 0.000000 

-0.000000 -0.000000 0.000000 
0.000000 0.000000 0.000000 
0.000000 0.000000 0.000000 

-0.000000 0.000000 0.000000 
0.000000 0.000000 0.000000 
0.000000 0.000000 0.000000 

-0.000000 0.000000 0.000000 
0.000000 -0.000000 0.000000 
0.000000 0.000000 0.000000 

-0.000000 0.000000 0.000000 
0.000000 0.000000 0.000000 
0.000000 0.000000 0.000000 

-0.000000 -0.000000 0.000000 
0.000000 -0.000000 0.000000 
0.000000 0.000000 0.000000 

0.000000 -0.000000 0.000000 
0.000000 -0.000000 0.000000 
0.000000 0.000000 0.000000 

0.000000 0.000000 0.000000 
0.000000 0.000000 0.000000 
0.000000 0.000000 0.000000 

-0.000000 -0.000000 0.000000 
0.000000 0.000000 0.000000 
0.000000 0.000000 0.000000 

0.000000 -0.000000 0.000000 
0.000000 -0.000000 0.000000 
0.000000 0.000000 0.000000 

-0.000000 -0.000000 0.000000 
0.000000 0.000000 0.000000 
0.000000 0.000000 0.000000 

-0.000000 -0.000000 0.000000 
0.000000 0.000000 0.000000 
0.000000 0.000000 0.000000 

0.000000 -0.000000 0.000000 
0.000000 -0.000000 0.000000 
0.000000 0.000000 0.000000 

0.000000 0.000000 0.000000 
0.000000 -0.000000 0.000000 
0.000000 0.000000 0.000000 

0.000000 0.000000 0.000000 
0.000000 0.000000 0.000000 
0.000000 0.000000 0.000000 

-0.000000 -0.000000 0.000000 
0.000000 -0.000000 0.000000 
0.000000 0.000000 0.000000 

0.000000 -0.000000 0.000000 
0.000000 0.000000 0.000000 
0.000000 0.000000 0.000000 

0.000000 -0.000000 0.000000 
0.000000 -0.000000 0.000000 
0.000000 0.000000 0.000000 

0.000000 0.000000 0.000000 
0.000000 -0.000000 0.000000 
0.000000 0.000000 0.000000 

