# vtk DataFile Version 3.0 
vtk output 
ASCII 
DATASET UNSTRUCTURED_GRID 
POINTS 175 float 
-0.026061 -2.191863 0.000000 
-0.106992 -2.123807 0.000000 
-0.054870 -2.132040 0.000000 
-0.028809 -2.086156 0.000000 
-0.186430 -2.059732 0.000000 
-0.137056 -2.062258 0.000000 
-0.114311 -2.008611 0.000000 
-0.058186 -2.024276 0.000000 
-0.029377 -1.984099 0.000000 
-0.265318 -1.996576 0.000000 
-0.217198 -1.997376 0.000000 
-0.196633 -1.940079 0.000000 
-0.143120 -1.948788 0.000000 
-0.116563 -1.901519 0.000000 
-0.058945 -1.921165 0.000000 
-0.029568 -1.883045 0.000000 
-0.344206 -1.933420 0.000000 
-0.296791 -1.933413 0.000000 
-0.278030 -1.873470 0.000000 
-0.225992 -1.879337 0.000000 
-0.201664 -1.827219 0.000000 
-0.145749 -1.840693 0.000000 
-0.117890 -1.796351 0.000000 
-0.059328 -1.819057 0.000000 
-0.029759 -1.781991 0.000000 
-0.058559 -2.232613 0.000000 
-0.162226 -2.253456 0.000000 
-0.123292 -2.217838 0.000000 
-0.142917 -2.168855 0.000000 
-0.261851 -2.275612 0.000000 
-0.229092 -2.238585 0.000000 
-0.256854 -2.187354 0.000000 
-0.209613 -2.153241 0.000000 
-0.223062 -2.105667 0.000000 
-0.360414 -2.297913 0.000000 
-0.329787 -2.260790 0.000000 
-0.361761 -2.208988 0.000000 
-0.321587 -2.172579 0.000000 
-0.341985 -2.122345 0.000000 
-0.290702 -2.089546 0.000000 
-0.302189 -2.042811 0.000000 
-0.458977 -2.320213 0.000000 
-0.429420 -2.283138 0.000000 
-0.464588 -2.231096 0.000000 
-0.427556 -2.194069 0.000000 
-0.453135 -2.142554 0.000000 
-0.407738 -2.107239 0.000000 
-0.425037 -2.057811 0.000000 
-0.370772 -2.026181 0.000000 
-0.381315 -1.979954 0.000000 
-0.046960 -2.283429 0.000000 
-0.095301 -2.377475 0.000000 
-0.098873 -2.324827 0.000000 
-0.149405 -2.309630 0.000000 
-0.140093 -2.469179 0.000000 
-0.148617 -2.420480 0.000000 
-0.205981 -2.410243 0.000000 
-0.203197 -2.352040 0.000000 
-0.248777 -2.332893 0.000000 
-0.184111 -2.560142 0.000000 
-0.194039 -2.513051 0.000000 
-0.254475 -2.505752 0.000000 
-0.257893 -2.451642 0.000000 
-0.309886 -2.436269 0.000000 
-0.303554 -2.375724 0.000000 
-0.347255 -2.355566 0.000000 
-0.228129 -2.651106 0.000000 
-0.238687 -2.604881 0.000000 
-0.301302 -2.599929 0.000000 
-0.307162 -2.547891 0.000000 
-0.363386 -2.535770 0.000000 
-0.362692 -2.478258 0.000000 
-0.412122 -2.460965 0.000000 
-0.403017 -2.398818 0.000000 
-0.445733 -2.378239 0.000000 
-0.000000 -2.306044 0.000000 
0.043388 -2.402474 0.000000 
-0.000000 -2.372442 0.000000 
-0.043388 -2.402474 0.000000 
0.087158 -2.494671 0.000000 
0.043769 -2.470972 0.000000 
-0.000000 -2.509438 0.000000 
-0.043769 -2.470972 0.000000 
-0.087158 -2.494671 0.000000 
0.130831 -2.585800 0.000000 
0.087824 -2.564202 0.000000 
0.044436 -2.606901 0.000000 
-0.000000 -2.575836 0.000000 
-0.044436 -2.606901 0.000000 
-0.087824 -2.564202 0.000000 
-0.130831 -2.585800 0.000000 
0.174505 -2.676930 0.000000 
0.131782 -2.656364 0.000000 
0.088871 -2.702231 0.000000 
0.044532 -2.674367 0.000000 
-0.000000 -2.710767 0.000000 
-0.044532 -2.674367 0.000000 
-0.088871 -2.702231 0.000000 
-0.131782 -2.656364 0.000000 
-0.174505 -2.676930 0.000000 
0.046960 -2.283429 0.000000 
0.149405 -2.309630 0.000000 
0.098873 -2.324827 0.000000 
0.095301 -2.377475 0.000000 
0.248777 -2.332893 0.000000 
0.203197 -2.352040 0.000000 
0.205981 -2.410243 0.000000 
0.148617 -2.420480 0.000000 
0.140093 -2.469179 0.000000 
0.347255 -2.355566 0.000000 
0.303554 -2.375724 0.000000 
0.309886 -2.436269 0.000000 
0.257893 -2.451642 0.000000 
0.254475 -2.505752 0.000000 
0.194039 -2.513051 0.000000 
0.184111 -2.560142 0.000000 
0.445733 -2.378239 0.000000 
0.403017 -2.398818 0.000000 
0.412122 -2.460965 0.000000 
0.362692 -2.478258 0.000000 
0.363386 -2.535770 0.000000 
0.307162 -2.547891 0.000000 
0.301302 -2.599929 0.000000 
0.238687 -2.604881 0.000000 
0.228129 -2.651106 0.000000 
0.058559 -2.232613 0.000000 
0.142917 -2.168855 0.000000 
0.123292 -2.217838 0.000000 
0.162226 -2.253456 0.000000 
0.223062 -2.105667 0.000000 
0.209613 -2.153241 0.000000 
0.256854 -2.187354 0.000000 
0.229092 -2.238585 0.000000 
0.261851 -2.275612 0.000000 
0.302189 -2.042811 0.000000 
0.290702 -2.089546 0.000000 
0.341985 -2.122345 0.000000 
0.321587 -2.172579 0.000000 
0.361761 -2.208988 0.000000 
0.329787 -2.260790 0.000000 
0.360414 -2.297913 0.000000 
0.381315 -1.979954 0.000000 
0.370772 -2.026181 0.000000 
0.425037 -2.057811 0.000000 
0.407738 -2.107239 0.000000 
0.453135 -2.142554 0.000000 
0.427556 -2.194069 0.000000 
0.464588 -2.231096 0.000000 
0.429420 -2.283138 0.000000 
0.458977 -2.320213 0.000000 
0.026061 -2.191863 0.000000 
0.028809 -2.086156 0.000000 
0.054870 -2.132040 0.000000 
0.106992 -2.123807 0.000000 
0.029377 -1.984099 0.000000 
0.058186 -2.024276 0.000000 
0.114311 -2.008611 0.000000 
0.137056 -2.062258 0.000000 
0.186430 -2.059732 0.000000 
0.029568 -1.883045 0.000000 
0.058945 -1.921165 0.000000 
0.116563 -1.901519 0.000000 
0.143120 -1.948788 0.000000 
0.196633 -1.940079 0.000000 
0.217198 -1.997376 0.000000 
0.265318 -1.996576 0.000000 
0.029759 -1.781991 0.000000 
0.059328 -1.819057 0.000000 
0.117890 -1.796351 0.000000 
0.145749 -1.840693 0.000000 
0.201664 -1.827219 0.000000 
0.225992 -1.879337 0.000000 
0.278030 -1.873470 0.000000 
0.296791 -1.933413 0.000000 
0.344206 -1.933420 0.000000 
CELLS 175 350 
1 0 
1 1 
1 2 
1 3 
1 4 
1 5 
1 6 
1 7 
1 8 
1 9 
1 10 
1 11 
1 12 
1 13 
1 14 
1 15 
1 16 
1 17 
1 18 
1 19 
1 20 
1 21 
1 22 
1 23 
1 24 
1 25 
1 26 
1 27 
1 28 
1 29 
1 30 
1 31 
1 32 
1 33 
1 34 
1 35 
1 36 
1 37 
1 38 
1 39 
1 40 
1 41 
1 42 
1 43 
1 44 
1 45 
1 46 
1 47 
1 48 
1 49 
1 50 
1 51 
1 52 
1 53 
1 54 
1 55 
1 56 
1 57 
1 58 
1 59 
1 60 
1 61 
1 62 
1 63 
1 64 
1 65 
1 66 
1 67 
1 68 
1 69 
1 70 
1 71 
1 72 
1 73 
1 74 
1 75 
1 76 
1 77 
1 78 
1 79 
1 80 
1 81 
1 82 
1 83 
1 84 
1 85 
1 86 
1 87 
1 88 
1 89 
1 90 
1 91 
1 92 
1 93 
1 94 
1 95 
1 96 
1 97 
1 98 
1 99 
1 100 
1 101 
1 102 
1 103 
1 104 
1 105 
1 106 
1 107 
1 108 
1 109 
1 110 
1 111 
1 112 
1 113 
1 114 
1 115 
1 116 
1 117 
1 118 
1 119 
1 120 
1 121 
1 122 
1 123 
1 124 
1 125 
1 126 
1 127 
1 128 
1 129 
1 130 
1 131 
1 132 
1 133 
1 134 
1 135 
1 136 
1 137 
1 138 
1 139 
1 140 
1 141 
1 142 
1 143 
1 144 
1 145 
1 146 
1 147 
1 148 
1 149 
1 150 
1 151 
1 152 
1 153 
1 154 
1 155 
1 156 
1 157 
1 158 
1 159 
1 160 
1 161 
1 162 
1 163 
1 164 
1 165 
1 166 
1 167 
1 168 
1 169 
1 170 
1 171 
1 172 
1 173 
1 174 
CELL_TYPES 175 
1 
1 
1 
1 
1 
1 
1 
1 
1 
1 
1 
1 
1 
1 
1 
1 
1 
1 
1 
1 
1 
1 
1 
1 
1 
1 
1 
1 
1 
1 
1 
1 
1 
1 
1 
1 
1 
1 
1 
1 
1 
1 
1 
1 
1 
1 
1 
1 
1 
1 
1 
1 
1 
1 
1 
1 
1 
1 
1 
1 
1 
1 
1 
1 
1 
1 
1 
1 
1 
1 
1 
1 
1 
1 
1 
1 
1 
1 
1 
1 
1 
1 
1 
1 
1 
1 
1 
1 
1 
1 
1 
1 
1 
1 
1 
1 
1 
1 
1 
1 
1 
1 
1 
1 
1 
1 
1 
1 
1 
1 
1 
1 
1 
1 
1 
1 
1 
1 
1 
1 
1 
1 
1 
1 
1 
1 
1 
1 
1 
1 
1 
1 
1 
1 
1 
1 
1 
1 
1 
1 
1 
1 
1 
1 
1 
1 
1 
1 
1 
1 
1 
1 
1 
1 
1 
1 
1 
1 
1 
1 
1 
1 
1 
1 
1 
1 
1 
1 
1 
1 
1 
1 
1 
1 
1 
POINT_DATA 175 
VECTORS X_GC float 
-0.026061 -2.191863 0.000000 
-0.106992 -2.123807 0.000000 
-0.054870 -2.132040 0.000000 
-0.028809 -2.086156 0.000000 
-0.186430 -2.059732 0.000000 
-0.137056 -2.062258 0.000000 
-0.114311 -2.008611 0.000000 
-0.058186 -2.024276 0.000000 
-0.029377 -1.984099 0.000000 
-0.265318 -1.996576 0.000000 
-0.217198 -1.997376 0.000000 
-0.196633 -1.940079 0.000000 
-0.143120 -1.948788 0.000000 
-0.116563 -1.901519 0.000000 
-0.058945 -1.921165 0.000000 
-0.029568 -1.883045 0.000000 
-0.344206 -1.933420 0.000000 
-0.296791 -1.933413 0.000000 
-0.278030 -1.873470 0.000000 
-0.225992 -1.879337 0.000000 
-0.201664 -1.827219 0.000000 
-0.145749 -1.840693 0.000000 
-0.117890 -1.796351 0.000000 
-0.059328 -1.819057 0.000000 
-0.029759 -1.781991 0.000000 
-0.058559 -2.232613 0.000000 
-0.162226 -2.253456 0.000000 
-0.123292 -2.217838 0.000000 
-0.142917 -2.168855 0.000000 
-0.261851 -2.275612 0.000000 
-0.229092 -2.238585 0.000000 
-0.256854 -2.187354 0.000000 
-0.209613 -2.153241 0.000000 
-0.223062 -2.105667 0.000000 
-0.360414 -2.297913 0.000000 
-0.329787 -2.260790 0.000000 
-0.361761 -2.208988 0.000000 
-0.321587 -2.172579 0.000000 
-0.341985 -2.122345 0.000000 
-0.290702 -2.089546 0.000000 
-0.302189 -2.042811 0.000000 
-0.458977 -2.320213 0.000000 
-0.429420 -2.283138 0.000000 
-0.464588 -2.231096 0.000000 
-0.427556 -2.194069 0.000000 
-0.453135 -2.142554 0.000000 
-0.407738 -2.107239 0.000000 
-0.425037 -2.057811 0.000000 
-0.370772 -2.026181 0.000000 
-0.381315 -1.979954 0.000000 
-0.046960 -2.283429 0.000000 
-0.095301 -2.377475 0.000000 
-0.098873 -2.324827 0.000000 
-0.149405 -2.309630 0.000000 
-0.140093 -2.469179 0.000000 
-0.148617 -2.420480 0.000000 
-0.205981 -2.410243 0.000000 
-0.203197 -2.352040 0.000000 
-0.248777 -2.332893 0.000000 
-0.184111 -2.560142 0.000000 
-0.194039 -2.513051 0.000000 
-0.254475 -2.505752 0.000000 
-0.257893 -2.451642 0.000000 
-0.309886 -2.436269 0.000000 
-0.303554 -2.375724 0.000000 
-0.347255 -2.355566 0.000000 
-0.228129 -2.651106 0.000000 
-0.238687 -2.604881 0.000000 
-0.301302 -2.599929 0.000000 
-0.307162 -2.547891 0.000000 
-0.363386 -2.535770 0.000000 
-0.362692 -2.478258 0.000000 
-0.412122 -2.460965 0.000000 
-0.403017 -2.398818 0.000000 
-0.445733 -2.378239 0.000000 
-0.000000 -2.306044 0.000000 
0.043388 -2.402474 0.000000 
-0.000000 -2.372442 0.000000 
-0.043388 -2.402474 0.000000 
0.087158 -2.494671 0.000000 
0.043769 -2.470972 0.000000 
-0.000000 -2.509438 0.000000 
-0.043769 -2.470972 0.000000 
-0.087158 -2.494671 0.000000 
0.130831 -2.585800 0.000000 
0.087824 -2.564202 0.000000 
0.044436 -2.606901 0.000000 
-0.000000 -2.575836 0.000000 
-0.044436 -2.606901 0.000000 
-0.087824 -2.564202 0.000000 
-0.130831 -2.585800 0.000000 
0.174505 -2.676930 0.000000 
0.131782 -2.656364 0.000000 
0.088871 -2.702231 0.000000 
0.044532 -2.674367 0.000000 
-0.000000 -2.710767 0.000000 
-0.044532 -2.674367 0.000000 
-0.088871 -2.702231 0.000000 
-0.131782 -2.656364 0.000000 
-0.174505 -2.676930 0.000000 
0.046960 -2.283429 0.000000 
0.149405 -2.309630 0.000000 
0.098873 -2.324827 0.000000 
0.095301 -2.377475 0.000000 
0.248777 -2.332893 0.000000 
0.203197 -2.352040 0.000000 
0.205981 -2.410243 0.000000 
0.148617 -2.420480 0.000000 
0.140093 -2.469179 0.000000 
0.347255 -2.355566 0.000000 
0.303554 -2.375724 0.000000 
0.309886 -2.436269 0.000000 
0.257893 -2.451642 0.000000 
0.254475 -2.505752 0.000000 
0.194039 -2.513051 0.000000 
0.184111 -2.560142 0.000000 
0.445733 -2.378239 0.000000 
0.403017 -2.398818 0.000000 
0.412122 -2.460965 0.000000 
0.362692 -2.478258 0.000000 
0.363386 -2.535770 0.000000 
0.307162 -2.547891 0.000000 
0.301302 -2.599929 0.000000 
0.238687 -2.604881 0.000000 
0.228129 -2.651106 0.000000 
0.058559 -2.232613 0.000000 
0.142917 -2.168855 0.000000 
0.123292 -2.217838 0.000000 
0.162226 -2.253456 0.000000 
0.223062 -2.105667 0.000000 
0.209613 -2.153241 0.000000 
0.256854 -2.187354 0.000000 
0.229092 -2.238585 0.000000 
0.261851 -2.275612 0.000000 
0.302189 -2.042811 0.000000 
0.290702 -2.089546 0.000000 
0.341985 -2.122345 0.000000 
0.321587 -2.172579 0.000000 
0.361761 -2.208988 0.000000 
0.329787 -2.260790 0.000000 
0.360414 -2.297913 0.000000 
0.381315 -1.979954 0.000000 
0.370772 -2.026181 0.000000 
0.425037 -2.057811 0.000000 
0.407738 -2.107239 0.000000 
0.453135 -2.142554 0.000000 
0.427556 -2.194069 0.000000 
0.464588 -2.231096 0.000000 
0.429420 -2.283138 0.000000 
0.458977 -2.320213 0.000000 
0.026061 -2.191863 0.000000 
0.028809 -2.086156 0.000000 
0.054870 -2.132040 0.000000 
0.106992 -2.123807 0.000000 
0.029377 -1.984099 0.000000 
0.058186 -2.024276 0.000000 
0.114311 -2.008611 0.000000 
0.137056 -2.062258 0.000000 
0.186430 -2.059732 0.000000 
0.029568 -1.883045 0.000000 
0.058945 -1.921165 0.000000 
0.116563 -1.901519 0.000000 
0.143120 -1.948788 0.000000 
0.196633 -1.940079 0.000000 
0.217198 -1.997376 0.000000 
0.265318 -1.996576 0.000000 
0.029759 -1.781991 0.000000 
0.059328 -1.819057 0.000000 
0.117890 -1.796351 0.000000 
0.145749 -1.840693 0.000000 
0.201664 -1.827219 0.000000 
0.225992 -1.879337 0.000000 
0.278030 -1.873470 0.000000 
0.296791 -1.933413 0.000000 
0.344206 -1.933420 0.000000 
VECTORS X_EC float 
0.338794 0.090146 0.000000 
-0.609100 -0.828602 0.000000 
0.713312 -0.717462 0.000000 
0.374519 0.663109 0.000000 
0.423588 0.306378 0.000000 
-0.218274 0.340482 0.000000 
-0.513962 -0.383757 0.000000 
0.756418 -0.172271 0.000000 
0.381900 -0.714663 0.000000 
-0.550868 -0.546225 0.000000 
0.823577 -0.535429 0.000000 
0.556234 0.691067 0.000000 
-0.139443 0.808635 0.000000 
-0.484677 0.170511 0.000000 
0.766286 0.435726 0.000000 
0.384386 -0.078894 0.000000 
0.474677 0.601172 0.000000 
-0.141715 0.601076 0.000000 
-0.385608 -0.208152 0.000000 
0.937896 -0.128957 0.000000 
0.621631 -0.832537 0.000000 
-0.105264 -0.650638 0.000000 
-0.467428 0.750736 0.000000 
0.771260 -0.942736 0.000000 
0.386873 0.556875 0.000000 
0.761262 0.640281 0.000000 
0.108942 0.921657 0.000000 
-0.397202 0.440818 0.000000 
-0.142083 -0.220457 0.000000 
-0.595936 -0.779232 0.000000 
0.978194 0.720902 0.000000 
-0.660903 0.029277 0.000000 
0.724964 -0.431243 0.000000 
0.899809 0.926508 0.000000 
0.685384 -0.478180 0.000000 
0.287229 -0.979338 0.000000 
0.702895 0.321333 0.000000 
0.180633 -0.170186 0.000000 
0.445811 -0.848345 0.000000 
-0.220880 0.708869 0.000000 
-0.071546 0.077943 0.000000 
-0.033296 -0.177128 0.000000 
-0.417537 -0.677637 0.000000 
0.039645 0.619800 0.000000 
-0.441768 0.119929 0.000000 
-0.109248 -0.575522 0.000000 
-0.699407 0.947723 0.000000 
-0.474522 0.280443 0.000000 
0.820030 -0.146550 0.000000 
0.957100 -0.770622 0.000000 
0.610485 -0.673713 0.000000 
-0.761092 0.595906 0.000000 
-0.714655 -0.114831 0.000000 
-0.057734 -0.319998 0.000000 
-0.178789 -0.166090 0.000000 
-0.067979 -0.823516 0.000000 
0.677748 -0.961719 0.000000 
0.641556 0.252536 0.000000 
-0.765897 -0.005943 0.000000 
0.393446 -0.938080 0.000000 
0.522510 0.426190 0.000000 
-0.691820 0.327645 0.000000 
-0.647393 -0.402837 0.000000 
0.028512 -0.610364 0.000000 
-0.053800 0.572276 0.000000 
0.514316 0.300145 0.000000 
0.965681 0.289929 0.000000 
-0.897068 -0.334100 0.000000 
-0.083078 -0.400953 0.000000 
-0.006893 0.896522 0.000000 
0.724017 0.732889 0.000000 
0.714996 -0.043514 0.000000 
-0.642413 -0.276972 0.000000 
-0.760780 0.884048 0.000000 
-0.205471 0.606233 0.000000 
0.000000 -0.368412 0.000000 
-0.564049 0.933401 0.000000 
0.000000 0.527965 0.000000 
0.564049 0.933401 0.000000 
0.866949 0.178057 0.000000 
-0.569003 -0.141875 0.000000 
0.000000 0.377414 0.000000 
0.569003 -0.141875 0.000000 
-0.866949 0.178057 0.000000 
0.299194 -0.591693 0.000000 
0.858290 -0.883277 0.000000 
-0.577662 -0.306831 0.000000 
0.000000 -0.726209 0.000000 
0.577662 -0.306831 0.000000 
-0.858290 -0.883277 0.000000 
-0.299194 -0.591693 0.000000 
-0.268560 0.638557 0.000000 
0.286830 0.360915 0.000000 
0.844677 0.980113 0.000000 
-0.578910 0.603951 0.000000 
0.000000 -0.904645 0.000000 
0.578910 0.603951 0.000000 
-0.844677 0.980113 0.000000 
-0.286830 0.360915 0.000000 
0.268560 0.638557 0.000000 
-0.610485 -0.673713 0.000000 
0.057734 -0.319998 0.000000 
0.714655 -0.114831 0.000000 
0.761092 0.595906 0.000000 
0.765897 -0.005943 0.000000 
-0.641556 0.252536 0.000000 
-0.677748 -0.961719 0.000000 
0.067979 -0.823516 0.000000 
0.178789 -0.166090 0.000000 
-0.514316 0.300145 0.000000 
0.053800 0.572276 0.000000 
-0.028512 -0.610364 0.000000 
0.647393 -0.402837 0.000000 
0.691820 0.327645 0.000000 
-0.522510 0.426190 0.000000 
-0.393446 -0.938080 0.000000 
0.205471 0.606233 0.000000 
0.760780 0.884048 0.000000 
0.642413 -0.276972 0.000000 
-0.714996 -0.043514 0.000000 
-0.724017 0.732889 0.000000 
0.006894 0.896522 0.000000 
0.083078 -0.400953 0.000000 
0.897068 -0.334100 0.000000 
-0.965681 0.289929 0.000000 
-0.761262 0.640281 0.000000 
0.142083 -0.220457 0.000000 
0.397202 0.440818 0.000000 
-0.108942 0.921657 0.000000 
-0.899809 0.926508 0.000000 
-0.724964 -0.431243 0.000000 
0.660903 0.029277 0.000000 
-0.978194 0.720902 0.000000 
0.595936 -0.779232 0.000000 
0.071546 0.077943 0.000000 
0.220880 0.708869 0.000000 
-0.445811 -0.848345 0.000000 
-0.180633 -0.170186 0.000000 
-0.702895 0.321333 0.000000 
-0.287229 -0.979338 0.000000 
-0.685384 -0.478180 0.000000 
-0.957100 -0.770622 0.000000 
-0.820030 -0.146550 0.000000 
0.474522 0.280443 0.000000 
0.699407 0.947723 0.000000 
0.109248 -0.575522 0.000000 
0.441768 0.119929 0.000000 
-0.039645 0.619800 0.000000 
0.417537 -0.677637 0.000000 
0.033296 -0.177128 0.000000 
-0.338794 0.090146 0.000000 
-0.374519 0.663109 0.000000 
-0.713312 -0.717462 0.000000 
0.609100 -0.828602 0.000000 
-0.381900 -0.714663 0.000000 
-0.756418 -0.172271 0.000000 
0.513962 -0.383757 0.000000 
0.218274 0.340482 0.000000 
-0.423588 0.306378 0.000000 
-0.384386 -0.078894 0.000000 
-0.766286 0.435726 0.000000 
0.484677 0.170511 0.000000 
0.139443 0.808635 0.000000 
-0.556234 0.691067 0.000000 
-0.823577 -0.535429 0.000000 
0.550868 -0.546225 0.000000 
-0.386873 0.556875 0.000000 
-0.771260 -0.942736 0.000000 
0.467428 0.750736 0.000000 
0.105264 -0.650638 0.000000 
-0.621631 -0.832537 0.000000 
-0.937896 -0.128957 0.000000 
0.385608 -0.208152 0.000000 
0.141715 0.601076 0.000000 
-0.474677 0.601172 0.000000 
CELL_DATA 175 
SCALARS MASS float 
LOOKUP_TABLE default 
0.078183 
0.086427 
0.094672 
0.086427 
0.088131 
0.092111 
0.085854 
0.092111 
0.088131 
0.088705 
0.091000 
0.086983 
0.091556 
0.086983 
0.091000 
0.088705 
0.089278 
0.091574 
0.089278 
0.092722 
0.089278 
0.092722 
0.089278 
0.091574 
0.089278 
0.078183 
0.086427 
0.094672 
0.086427 
0.088131 
0.092111 
0.085854 
0.092111 
0.088131 
0.088705 
0.091000 
0.086983 
0.091556 
0.086983 
0.091000 
0.088705 
0.089278 
0.091574 
0.089278 
0.092722 
0.089278 
0.092722 
0.089278 
0.091574 
0.089278 
0.078183 
0.086427 
0.094672 
0.086427 
0.088131 
0.092111 
0.085854 
0.092111 
0.088131 
0.088705 
0.091000 
0.086983 
0.091556 
0.086983 
0.091000 
0.088705 
0.089278 
0.091574 
0.089278 
0.092722 
0.089278 
0.092722 
0.089278 
0.091574 
0.089278 
0.078183 
0.086427 
0.094672 
0.086427 
0.088131 
0.092111 
0.085854 
0.092111 
0.088131 
0.088705 
0.091000 
0.086983 
0.091556 
0.086983 
0.091000 
0.088705 
0.089278 
0.091574 
0.089278 
0.092722 
0.089278 
0.092722 
0.089278 
0.091574 
0.089278 
0.078183 
0.086427 
0.094672 
0.086427 
0.088131 
0.092111 
0.085854 
0.092111 
0.088131 
0.088705 
0.091000 
0.086983 
0.091556 
0.086983 
0.091000 
0.088705 
0.089278 
0.091574 
0.089278 
0.092722 
0.089278 
0.092722 
0.089278 
0.091574 
0.089278 
0.078183 
0.086427 
0.094672 
0.086427 
0.088131 
0.092111 
0.085854 
0.092111 
0.088131 
0.088705 
0.091000 
0.086983 
0.091556 
0.086983 
0.091000 
0.088705 
0.089278 
0.091574 
0.089278 
0.092722 
0.089278 
0.092722 
0.089278 
0.091574 
0.089278 
0.078183 
0.086427 
0.094672 
0.086427 
0.088131 
0.092111 
0.085854 
0.092111 
0.088131 
0.088705 
0.091000 
0.086983 
0.091556 
0.086983 
0.091000 
0.088705 
0.089278 
0.091574 
0.089278 
0.092722 
0.089278 
0.092722 
0.089278 
0.091574 
0.089278 
SCALARS MASS float 
LOOKUP_TABLE default 
0.078183 
0.086427 
0.094672 
0.086427 
0.088131 
0.092111 
0.085854 
0.092111 
0.088131 
0.088705 
0.091000 
0.086983 
0.091556 
0.086983 
0.091000 
0.088705 
0.089278 
0.091574 
0.089278 
0.092722 
0.089278 
0.092722 
0.089278 
0.091574 
0.089278 
0.078183 
0.086427 
0.094672 
0.086427 
0.088131 
0.092111 
0.085854 
0.092111 
0.088131 
0.088705 
0.091000 
0.086983 
0.091556 
0.086983 
0.091000 
0.088705 
0.089278 
0.091574 
0.089278 
0.092722 
0.089278 
0.092722 
0.089278 
0.091574 
0.089278 
0.078183 
0.086427 
0.094672 
0.086427 
0.088131 
0.092111 
0.085854 
0.092111 
0.088131 
0.088705 
0.091000 
0.086983 
0.091556 
0.086983 
0.091000 
0.088705 
0.089278 
0.091574 
0.089278 
0.092722 
0.089278 
0.092722 
0.089278 
0.091574 
0.089278 
0.078183 
0.086427 
0.094672 
0.086427 
0.088131 
0.092111 
0.085854 
0.092111 
0.088131 
0.088705 
0.091000 
0.086983 
0.091556 
0.086983 
0.091000 
0.088705 
0.089278 
0.091574 
0.089278 
0.092722 
0.089278 
0.092722 
0.089278 
0.091574 
0.089278 
0.078183 
0.086427 
0.094672 
0.086427 
0.088131 
0.092111 
0.085854 
0.092111 
0.088131 
0.088705 
0.091000 
0.086983 
0.091556 
0.086983 
0.091000 
0.088705 
0.089278 
0.091574 
0.089278 
0.092722 
0.089278 
0.092722 
0.089278 
0.091574 
0.089278 
0.078183 
0.086427 
0.094672 
0.086427 
0.088131 
0.092111 
0.085854 
0.092111 
0.088131 
0.088705 
0.091000 
0.086983 
0.091556 
0.086983 
0.091000 
0.088705 
0.089278 
0.091574 
0.089278 
0.092722 
0.089278 
0.092722 
0.089278 
0.091574 
0.089278 
0.078183 
0.086427 
0.094672 
0.086427 
0.088131 
0.092111 
0.085854 
0.092111 
0.088131 
0.088705 
0.091000 
0.086983 
0.091556 
0.086983 
0.091000 
0.088705 
0.089278 
0.091574 
0.089278 
0.092722 
0.089278 
0.092722 
0.089278 
0.091574 
0.089278 
SCALARS DENSITY float 
LOOKUP_TABLE default 
20.000000 
20.000000 
20.000000 
20.000000 
20.000000 
20.000000 
20.000000 
20.000000 
20.000000 
20.000000 
20.000000 
20.000000 
20.000000 
20.000000 
20.000000 
20.000000 
20.000000 
20.000000 
20.000000 
20.000000 
20.000000 
20.000000 
20.000000 
20.000000 
20.000000 
20.000000 
20.000000 
20.000000 
20.000000 
20.000000 
20.000000 
20.000000 
20.000000 
20.000000 
20.000000 
20.000000 
20.000000 
20.000000 
20.000000 
20.000000 
20.000000 
20.000000 
20.000000 
20.000000 
20.000000 
20.000000 
20.000000 
20.000000 
20.000000 
20.000000 
20.000000 
20.000000 
20.000000 
20.000000 
20.000000 
20.000000 
20.000000 
20.000000 
20.000000 
20.000000 
20.000000 
20.000000 
20.000000 
20.000000 
20.000000 
20.000000 
20.000000 
20.000000 
20.000000 
20.000000 
20.000000 
20.000000 
20.000000 
20.000000 
20.000000 
20.000000 
20.000000 
20.000000 
20.000000 
20.000000 
20.000000 
20.000000 
20.000000 
20.000000 
20.000000 
20.000000 
20.000000 
20.000000 
20.000000 
20.000000 
20.000000 
20.000000 
20.000000 
20.000000 
20.000000 
20.000000 
20.000000 
20.000000 
20.000000 
20.000000 
20.000000 
20.000000 
20.000000 
20.000000 
20.000000 
20.000000 
20.000000 
20.000000 
20.000000 
20.000000 
20.000000 
20.000000 
20.000000 
20.000000 
20.000000 
20.000000 
20.000000 
20.000000 
20.000000 
20.000000 
20.000000 
20.000000 
20.000000 
20.000000 
20.000000 
20.000000 
20.000000 
20.000000 
20.000000 
20.000000 
20.000000 
20.000000 
20.000000 
20.000000 
20.000000 
20.000000 
20.000000 
20.000000 
20.000000 
20.000000 
20.000000 
20.000000 
20.000000 
20.000000 
20.000000 
20.000000 
20.000000 
20.000000 
20.000000 
20.000000 
20.000000 
20.000000 
20.000000 
20.000000 
20.000000 
20.000000 
20.000000 
20.000000 
20.000000 
20.000000 
20.000000 
20.000000 
20.000000 
20.000000 
20.000000 
20.000000 
20.000000 
20.000000 
20.000000 
20.000000 
20.000000 
20.000000 
20.000000 
20.000000 
20.000000 
SCALARS ELEM_i float 
LOOKUP_TABLE default 
167 
194 
167 
168 
195 
195 
195 
168 
168 
222 
195 
196 
196 
196 
169 
169 
223 
223 
223 
196 
196 
196 
197 
169 
170 
167 
194 
194 
194 
220 
194 
221 
194 
195 
220 
220 
221 
221 
221 
222 
222 
247 
247 
248 
248 
248 
249 
249 
222 
222 
166 
193 
193 
193 
192 
192 
192 
193 
220 
191 
192 
219 
219 
219 
220 
220 
191 
218 
218 
219 
219 
219 
246 
247 
247 
166 
166 
166 
166 
138 
165 
165 
165 
192 
137 
137 
164 
164 
164 
191 
191 
137 
137 
137 
164 
163 
164 
191 
191 
191 
166 
139 
139 
139 
112 
139 
138 
138 
138 
112 
112 
111 
111 
111 
138 
137 
85 
85 
84 
111 
111 
111 
110 
110 
137 
167 
140 
140 
140 
141 
140 
113 
140 
112 
114 
114 
113 
113 
113 
112 
112 
114 
114 
87 
87 
86 
86 
86 
85 
85 
167 
168 
167 
140 
168 
168 
141 
141 
141 
169 
169 
142 
142 
142 
141 
114 
170 
169 
143 
142 
142 
142 
115 
115 
115 
VECTORS VELOCITY float 
0.000000 -6.637838 0.000000 
0.000000 -6.637838 0.000000 
0.000000 -6.637838 0.000000 
0.000000 -6.637838 0.000000 
0.000000 -6.637838 0.000000 
0.000000 -6.637838 0.000000 
0.000000 -6.637838 0.000000 
0.000000 -6.637838 0.000000 
0.000000 -6.637838 0.000000 
0.000000 -6.637838 0.000000 
0.000000 -6.637838 0.000000 
-0.000000 -6.637838 0.000000 
-0.000000 -6.637838 0.000000 
-0.000000 -6.637838 0.000000 
0.000000 -6.637838 0.000000 
0.000000 -6.637838 0.000000 
0.000000 -6.637838 0.000000 
-0.000000 -6.637838 0.000000 
0.000000 -6.637838 0.000000 
-0.000000 -6.637838 0.000000 
-0.000000 -6.637838 0.000000 
-0.000000 -6.637838 0.000000 
-0.000000 -6.637838 0.000000 
-0.000000 -6.637838 0.000000 
-0.000000 -6.637838 0.000000 
0.000000 -6.637838 0.000000 
0.000000 -6.637838 0.000000 
0.000000 -6.637838 0.000000 
-0.000000 -6.637838 0.000000 
-0.000000 -6.637838 0.000000 
-0.000000 -6.637838 0.000000 
-0.000000 -6.637838 0.000000 
-0.000000 -6.637838 0.000000 
0.000000 -6.637838 0.000000 
-0.000000 -6.637838 0.000000 
-0.000000 -6.637838 0.000000 
0.000000 -6.637838 0.000000 
0.000000 -6.637838 0.000000 
0.000000 -6.637838 0.000000 
0.000000 -6.637838 0.000000 
0.000000 -6.637838 0.000000 
0.000000 -6.637838 0.000000 
0.000000 -6.637838 0.000000 
-0.000000 -6.637838 0.000000 
-0.000000 -6.637838 0.000000 
-0.000000 -6.637838 0.000000 
-0.000000 -6.637838 0.000000 
-0.000000 -6.637838 0.000000 
-0.000000 -6.637838 0.000000 
0.000000 -6.637838 0.000000 
0.000000 -6.637838 0.000000 
-0.000000 -6.637838 0.000000 
0.000000 -6.637838 0.000000 
0.000000 -6.637838 0.000000 
0.000000 -6.637838 0.000000 
0.000000 -6.637838 0.000000 
0.000000 -6.637838 0.000000 
0.000000 -6.637838 0.000000 
0.000000 -6.637838 0.000000 
-0.000000 -6.637838 0.000000 
-0.000000 -6.637838 0.000000 
-0.000000 -6.637838 0.000000 
0.000000 -6.637838 0.000000 
0.000000 -6.637838 0.000000 
0.000000 -6.637838 0.000000 
0.000000 -6.637838 0.000000 
-0.000000 -6.637838 0.000000 
-0.000000 -6.637838 0.000000 
0.000000 -6.637838 0.000000 
0.000000 -6.637838 0.000000 
0.000000 -6.637838 0.000000 
-0.000000 -6.637838 0.000000 
-0.000000 -6.637838 0.000000 
0.000000 -6.637838 0.000000 
0.000000 -6.637838 0.000000 
0.000000 -6.637838 0.000000 
0.000000 -6.637838 0.000000 
-0.000000 -6.637838 0.000000 
0.000000 -6.637838 0.000000 
-0.000000 -6.637838 0.000000 
-0.000000 -6.637838 0.000000 
-0.000000 -6.637838 0.000000 
-0.000000 -6.637838 0.000000 
0.000000 -6.637838 0.000000 
0.000000 -6.637838 0.000000 
-0.000000 -6.637838 0.000000 
0.000000 -6.637838 0.000000 
-0.000000 -6.637838 0.000000 
-0.000000 -6.637838 0.000000 
-0.000000 -6.637838 0.000000 
-0.000000 -6.637838 0.000000 
-0.000000 -6.637838 0.000000 
-0.000000 -6.637838 0.000000 
0.000000 -6.637838 0.000000 
0.000000 -6.637838 0.000000 
0.000000 -6.637838 0.000000 
0.000000 -6.637838 0.000000 
-0.000000 -6.637838 0.000000 
-0.000000 -6.637838 0.000000 
0.000000 -6.637838 0.000000 
-0.000000 -6.637838 0.000000 
-0.000000 -6.637838 0.000000 
-0.000000 -6.637838 0.000000 
0.000000 -6.637838 0.000000 
0.000000 -6.637838 0.000000 
0.000000 -6.637838 0.000000 
0.000000 -6.637838 0.000000 
-0.000000 -6.637838 0.000000 
-0.000000 -6.637838 0.000000 
-0.000000 -6.637838 0.000000 
-0.000000 -6.637838 0.000000 
-0.000000 -6.637838 0.000000 
-0.000000 -6.637838 0.000000 
-0.000000 -6.637838 0.000000 
-0.000000 -6.637838 0.000000 
-0.000000 -6.637838 0.000000 
0.000000 -6.637838 0.000000 
-0.000000 -6.637838 0.000000 
-0.000000 -6.637838 0.000000 
-0.000000 -6.637838 0.000000 
0.000000 -6.637838 0.000000 
-0.000000 -6.637838 0.000000 
-0.000000 -6.637838 0.000000 
0.000000 -6.637838 0.000000 
-0.000000 -6.637838 0.000000 
-0.000000 -6.637838 0.000000 
-0.000000 -6.637838 0.000000 
-0.000000 -6.637838 0.000000 
-0.000000 -6.637838 0.000000 
-0.000000 -6.637838 0.000000 
-0.000000 -6.637838 0.000000 
-0.000000 -6.637838 0.000000 
0.000000 -6.637838 0.000000 
0.000000 -6.637838 0.000000 
0.000000 -6.637838 0.000000 
-0.000000 -6.637838 0.000000 
0.000000 -6.637838 0.000000 
0.000000 -6.637838 0.000000 
0.000000 -6.637838 0.000000 
-0.000000 -6.637838 0.000000 
0.000000 -6.637838 0.000000 
-0.000000 -6.637838 0.000000 
0.000000 -6.637838 0.000000 
0.000000 -6.637838 0.000000 
0.000000 -6.637838 0.000000 
0.000000 -6.637838 0.000000 
-0.000000 -6.637838 0.000000 
-0.000000 -6.637838 0.000000 
-0.000000 -6.637838 0.000000 
0.000000 -6.637838 0.000000 
-0.000000 -6.637838 0.000000 
0.000000 -6.637838 0.000000 
0.000000 -6.637838 0.000000 
-0.000000 -6.637838 0.000000 
0.000000 -6.637838 0.000000 
-0.000000 -6.637838 0.000000 
0.000000 -6.637838 0.000000 
-0.000000 -6.637838 0.000000 
0.000000 -6.637838 0.000000 
0.000000 -6.637838 0.000000 
0.000000 -6.637838 0.000000 
0.000000 -6.637838 0.000000 
0.000000 -6.637838 0.000000 
0.000000 -6.637838 0.000000 
0.000000 -6.637838 0.000000 
0.000000 -6.637838 0.000000 
0.000000 -6.637838 0.000000 
0.000000 -6.637838 0.000000 
-0.000000 -6.637838 0.000000 
-0.000000 -6.637838 0.000000 
0.000000 -6.637838 0.000000 
-0.000000 -6.637838 0.000000 
0.000000 -6.637838 0.000000 
0.000000 -6.637838 0.000000 
0.000000 -6.637838 0.000000 
TENSORS STRESS float 
-0.000000 0.000000 0.000000 
0.000000 0.000000 0.000000 
0.000000 0.000000 0.000000 

0.000000 -0.000000 0.000000 
0.000000 0.000000 0.000000 
0.000000 0.000000 0.000000 

-0.000000 0.000000 0.000000 
0.000000 -0.000000 0.000000 
0.000000 0.000000 0.000000 

0.000000 0.000000 0.000000 
0.000000 0.000000 0.000000 
0.000000 0.000000 0.000000 

0.000000 0.000000 0.000000 
0.000000 0.000000 0.000000 
0.000000 0.000000 0.000000 

0.000000 0.000000 0.000000 
0.000000 0.000000 0.000000 
0.000000 0.000000 0.000000 

0.000000 0.000000 0.000000 
0.000000 0.000000 0.000000 
0.000000 0.000000 0.000000 

0.000000 -0.000000 0.000000 
0.000000 0.000000 0.000000 
0.000000 0.000000 0.000000 

-0.000000 0.000000 0.000000 
0.000000 -0.000000 0.000000 
0.000000 0.000000 0.000000 

0.000000 -0.000000 0.000000 
0.000000 0.000000 0.000000 
0.000000 0.000000 0.000000 

0.000000 0.000000 0.000000 
0.000000 -0.000000 0.000000 
0.000000 0.000000 0.000000 

0.000000 0.000000 0.000000 
0.000000 0.000000 0.000000 
0.000000 0.000000 0.000000 

-0.000000 -0.000000 0.000000 
0.000000 -0.000000 0.000000 
0.000000 0.000000 0.000000 

-0.000000 0.000000 0.000000 
0.000000 -0.000000 0.000000 
0.000000 0.000000 0.000000 

0.000000 -0.000000 0.000000 
0.000000 0.000000 0.000000 
0.000000 0.000000 0.000000 

-0.000000 0.000000 0.000000 
0.000000 -0.000000 0.000000 
0.000000 0.000000 0.000000 

-0.000000 0.000000 0.000000 
0.000000 0.000000 0.000000 
0.000000 0.000000 0.000000 

-0.000000 0.000000 0.000000 
0.000000 0.000000 0.000000 
0.000000 0.000000 0.000000 

0.000000 -0.000000 0.000000 
0.000000 0.000000 0.000000 
0.000000 0.000000 0.000000 

-0.000000 0.000000 0.000000 
0.000000 -0.000000 0.000000 
0.000000 0.000000 0.000000 

-0.000000 -0.000000 0.000000 
0.000000 0.000000 0.000000 
0.000000 0.000000 0.000000 

-0.000000 -0.000000 0.000000 
0.000000 -0.000000 0.000000 
0.000000 0.000000 0.000000 

-0.000000 -0.000000 0.000000 
0.000000 -0.000000 0.000000 
0.000000 0.000000 0.000000 

-0.000000 0.000000 0.000000 
0.000000 -0.000000 0.000000 
0.000000 0.000000 0.000000 

-0.000000 0.000000 0.000000 
0.000000 -0.000000 0.000000 
0.000000 0.000000 0.000000 

0.000000 0.000000 0.000000 
0.000000 0.000000 0.000000 
0.000000 0.000000 0.000000 

0.000000 -0.000000 0.000000 
0.000000 0.000000 0.000000 
0.000000 0.000000 0.000000 

0.000000 -0.000000 0.000000 
0.000000 0.000000 0.000000 
0.000000 0.000000 0.000000 

0.000000 -0.000000 0.000000 
0.000000 0.000000 0.000000 
0.000000 0.000000 0.000000 

0.000000 0.000000 0.000000 
0.000000 0.000000 0.000000 
0.000000 0.000000 0.000000 

0.000000 -0.000000 0.000000 
0.000000 -0.000000 0.000000 
0.000000 0.000000 0.000000 

-0.000000 -0.000000 0.000000 
0.000000 -0.000000 0.000000 
0.000000 0.000000 0.000000 

-0.000000 0.000000 0.000000 
0.000000 -0.000000 0.000000 
0.000000 0.000000 0.000000 

0.000000 -0.000000 0.000000 
0.000000 0.000000 0.000000 
0.000000 0.000000 0.000000 

-0.000000 -0.000000 0.000000 
0.000000 -0.000000 0.000000 
0.000000 0.000000 0.000000 

-0.000000 -0.000000 0.000000 
0.000000 -0.000000 0.000000 
0.000000 0.000000 0.000000 

0.000000 0.000000 0.000000 
0.000000 0.000000 0.000000 
0.000000 0.000000 0.000000 

0.000000 0.000000 0.000000 
0.000000 0.000000 0.000000 
0.000000 0.000000 0.000000 

0.000000 -0.000000 0.000000 
0.000000 -0.000000 0.000000 
0.000000 0.000000 0.000000 

0.000000 -0.000000 0.000000 
0.000000 0.000000 0.000000 
0.000000 0.000000 0.000000 

0.000000 0.000000 0.000000 
0.000000 0.000000 0.000000 
0.000000 0.000000 0.000000 

0.000000 -0.000000 0.000000 
0.000000 0.000000 0.000000 
0.000000 0.000000 0.000000 

0.000000 -0.000000 0.000000 
0.000000 0.000000 0.000000 
0.000000 0.000000 0.000000 

-0.000000 -0.000000 0.000000 
0.000000 -0.000000 0.000000 
0.000000 0.000000 0.000000 

-0.000000 0.000000 0.000000 
0.000000 -0.000000 0.000000 
0.000000 0.000000 0.000000 

0.000000 -0.000000 0.000000 
0.000000 0.000000 0.000000 
0.000000 0.000000 0.000000 

-0.000000 -0.000000 0.000000 
0.000000 0.000000 0.000000 
0.000000 0.000000 0.000000 

-0.000000 -0.000000 0.000000 
0.000000 -0.000000 0.000000 
0.000000 0.000000 0.000000 

-0.000000 0.000000 0.000000 
0.000000 -0.000000 0.000000 
0.000000 0.000000 0.000000 

-0.000000 0.000000 0.000000 
0.000000 -0.000000 0.000000 
0.000000 0.000000 0.000000 

0.000000 0.000000 0.000000 
0.000000 0.000000 0.000000 
0.000000 0.000000 0.000000 

-0.000000 -0.000000 0.000000 
0.000000 0.000000 0.000000 
0.000000 0.000000 0.000000 

-0.000000 -0.000000 0.000000 
0.000000 -0.000000 0.000000 
0.000000 0.000000 0.000000 

-0.000000 -0.000000 0.000000 
0.000000 -0.000000 0.000000 
0.000000 0.000000 0.000000 

-0.000000 0.000000 0.000000 
0.000000 -0.000000 0.000000 
0.000000 0.000000 0.000000 

-0.000000 -0.000000 0.000000 
0.000000 -0.000000 0.000000 
0.000000 0.000000 0.000000 

-0.000000 -0.000000 0.000000 
0.000000 -0.000000 0.000000 
0.000000 0.000000 0.000000 

-0.000000 0.000000 0.000000 
0.000000 0.000000 0.000000 
0.000000 0.000000 0.000000 

0.000000 -0.000000 0.000000 
0.000000 0.000000 0.000000 
0.000000 0.000000 0.000000 

0.000000 -0.000000 0.000000 
0.000000 -0.000000 0.000000 
0.000000 0.000000 0.000000 

0.000000 -0.000000 0.000000 
0.000000 0.000000 0.000000 
0.000000 0.000000 0.000000 

-0.000000 -0.000000 0.000000 
0.000000 0.000000 0.000000 
0.000000 0.000000 0.000000 

0.000000 0.000000 0.000000 
0.000000 0.000000 0.000000 
0.000000 0.000000 0.000000 

-0.000000 -0.000000 0.000000 
0.000000 -0.000000 0.000000 
0.000000 0.000000 0.000000 

0.000000 -0.000000 0.000000 
0.000000 -0.000000 0.000000 
0.000000 0.000000 0.000000 

0.000000 0.000000 0.000000 
0.000000 -0.000000 0.000000 
0.000000 0.000000 0.000000 

-0.000000 -0.000000 0.000000 
0.000000 -0.000000 0.000000 
0.000000 0.000000 0.000000 

0.000000 -0.000000 0.000000 
0.000000 0.000000 0.000000 
0.000000 0.000000 0.000000 

-0.000000 -0.000000 0.000000 
0.000000 -0.000000 0.000000 
0.000000 0.000000 0.000000 

-0.000000 0.000000 0.000000 
0.000000 0.000000 0.000000 
0.000000 0.000000 0.000000 

-0.000000 0.000000 0.000000 
0.000000 0.000000 0.000000 
0.000000 0.000000 0.000000 

-0.000000 -0.000000 0.000000 
0.000000 -0.000000 0.000000 
0.000000 0.000000 0.000000 

0.000000 -0.000000 0.000000 
0.000000 -0.000000 0.000000 
0.000000 0.000000 0.000000 

0.000000 0.000000 0.000000 
0.000000 0.000000 0.000000 
0.000000 0.000000 0.000000 

-0.000000 0.000000 0.000000 
0.000000 0.000000 0.000000 
0.000000 0.000000 0.000000 

-0.000000 0.000000 0.000000 
0.000000 -0.000000 0.000000 
0.000000 0.000000 0.000000 

0.000000 0.000000 0.000000 
0.000000 0.000000 0.000000 
0.000000 0.000000 0.000000 

0.000000 -0.000000 0.000000 
0.000000 0.000000 0.000000 
0.000000 0.000000 0.000000 

0.000000 0.000000 0.000000 
0.000000 0.000000 0.000000 
0.000000 0.000000 0.000000 

0.000000 0.000000 0.000000 
0.000000 0.000000 0.000000 
0.000000 0.000000 0.000000 

0.000000 0.000000 0.000000 
0.000000 -0.000000 0.000000 
0.000000 0.000000 0.000000 

0.000000 0.000000 0.000000 
0.000000 -0.000000 0.000000 
0.000000 0.000000 0.000000 

0.000000 0.000000 0.000000 
0.000000 0.000000 0.000000 
0.000000 0.000000 0.000000 

0.000000 -0.000000 0.000000 
0.000000 0.000000 0.000000 
0.000000 0.000000 0.000000 

-0.000000 -0.000000 0.000000 
0.000000 -0.000000 0.000000 
0.000000 0.000000 0.000000 

-0.000000 -0.000000 0.000000 
0.000000 -0.000000 0.000000 
0.000000 0.000000 0.000000 

0.000000 0.000000 0.000000 
0.000000 0.000000 0.000000 
0.000000 0.000000 0.000000 

-0.000000 -0.000000 0.000000 
0.000000 -0.000000 0.000000 
0.000000 0.000000 0.000000 

0.000000 0.000000 0.000000 
0.000000 0.000000 0.000000 
0.000000 0.000000 0.000000 

0.000000 -0.000000 0.000000 
0.000000 -0.000000 0.000000 
0.000000 0.000000 0.000000 

0.000000 -0.000000 0.000000 
0.000000 -0.000000 0.000000 
0.000000 0.000000 0.000000 

-0.000000 0.000000 0.000000 
0.000000 -0.000000 0.000000 
0.000000 0.000000 0.000000 

0.000000 -0.000000 0.000000 
0.000000 0.000000 0.000000 
0.000000 0.000000 0.000000 

-0.000000 0.000000 0.000000 
0.000000 -0.000000 0.000000 
0.000000 0.000000 0.000000 

0.000000 0.000000 0.000000 
0.000000 0.000000 0.000000 
0.000000 0.000000 0.000000 

0.000000 0.000000 0.000000 
0.000000 -0.000000 0.000000 
0.000000 0.000000 0.000000 

0.000000 0.000000 0.000000 
0.000000 -0.000000 0.000000 
0.000000 0.000000 0.000000 

-0.000000 0.000000 0.000000 
0.000000 -0.000000 0.000000 
0.000000 0.000000 0.000000 

-0.000000 -0.000000 0.000000 
0.000000 -0.000000 0.000000 
0.000000 0.000000 0.000000 

0.000000 0.000000 0.000000 
0.000000 0.000000 0.000000 
0.000000 0.000000 0.000000 

0.000000 0.000000 0.000000 
0.000000 0.000000 0.000000 
0.000000 0.000000 0.000000 

-0.000000 0.000000 0.000000 
0.000000 0.000000 0.000000 
0.000000 0.000000 0.000000 

0.000000 0.000000 0.000000 
0.000000 0.000000 0.000000 
0.000000 0.000000 0.000000 

0.000000 0.000000 0.000000 
0.000000 0.000000 0.000000 
0.000000 0.000000 0.000000 

-0.000000 0.000000 0.000000 
0.000000 -0.000000 0.000000 
0.000000 0.000000 0.000000 

-0.000000 -0.000000 0.000000 
0.000000 0.000000 0.000000 
0.000000 0.000000 0.000000 

0.000000 0.000000 0.000000 
0.000000 0.000000 0.000000 
0.000000 0.000000 0.000000 

0.000000 -0.000000 0.000000 
0.000000 0.000000 0.000000 
0.000000 0.000000 0.000000 

0.000000 -0.000000 0.000000 
0.000000 0.000000 0.000000 
0.000000 0.000000 0.000000 

-0.000000 -0.000000 0.000000 
0.000000 -0.000000 0.000000 
0.000000 0.000000 0.000000 

-0.000000 -0.000000 0.000000 
0.000000 0.000000 0.000000 
0.000000 0.000000 0.000000 

-0.000000 -0.000000 0.000000 
0.000000 -0.000000 0.000000 
0.000000 0.000000 0.000000 

-0.000000 0.000000 0.000000 
0.000000 -0.000000 0.000000 
0.000000 0.000000 0.000000 

-0.000000 0.000000 0.000000 
0.000000 -0.000000 0.000000 
0.000000 0.000000 0.000000 

0.000000 -0.000000 0.000000 
0.000000 0.000000 0.000000 
0.000000 0.000000 0.000000 

0.000000 -0.000000 0.000000 
0.000000 0.000000 0.000000 
0.000000 0.000000 0.000000 

-0.000000 -0.000000 0.000000 
0.000000 0.000000 0.000000 
0.000000 0.000000 0.000000 

-0.000000 0.000000 0.000000 
0.000000 -0.000000 0.000000 
0.000000 0.000000 0.000000 

0.000000 0.000000 0.000000 
0.000000 0.000000 0.000000 
0.000000 0.000000 0.000000 

-0.000000 -0.000000 0.000000 
0.000000 0.000000 0.000000 
0.000000 0.000000 0.000000 

0.000000 0.000000 0.000000 
0.000000 0.000000 0.000000 
0.000000 0.000000 0.000000 

0.000000 0.000000 0.000000 
0.000000 0.000000 0.000000 
0.000000 0.000000 0.000000 

-0.000000 -0.000000 0.000000 
0.000000 0.000000 0.000000 
0.000000 0.000000 0.000000 

0.000000 0.000000 0.000000 
0.000000 0.000000 0.000000 
0.000000 0.000000 0.000000 

0.000000 -0.000000 0.000000 
0.000000 0.000000 0.000000 
0.000000 0.000000 0.000000 

-0.000000 -0.000000 0.000000 
0.000000 -0.000000 0.000000 
0.000000 0.000000 0.000000 

0.000000 0.000000 0.000000 
0.000000 0.000000 0.000000 
0.000000 0.000000 0.000000 

-0.000000 -0.000000 0.000000 
0.000000 0.000000 0.000000 
0.000000 0.000000 0.000000 

-0.000000 -0.000000 0.000000 
0.000000 0.000000 0.000000 
0.000000 0.000000 0.000000 

-0.000000 0.000000 0.000000 
0.000000 -0.000000 0.000000 
0.000000 0.000000 0.000000 

0.000000 0.000000 0.000000 
0.000000 0.000000 0.000000 
0.000000 0.000000 0.000000 

-0.000000 -0.000000 0.000000 
0.000000 0.000000 0.000000 
0.000000 0.000000 0.000000 

-0.000000 -0.000000 0.000000 
0.000000 -0.000000 0.000000 
0.000000 0.000000 0.000000 

-0.000000 0.000000 0.000000 
0.000000 -0.000000 0.000000 
0.000000 0.000000 0.000000 

0.000000 0.000000 0.000000 
0.000000 0.000000 0.000000 
0.000000 0.000000 0.000000 

0.000000 0.000000 0.000000 
0.000000 0.000000 0.000000 
0.000000 0.000000 0.000000 

0.000000 0.000000 0.000000 
0.000000 0.000000 0.000000 
0.000000 0.000000 0.000000 

-0.000000 0.000000 0.000000 
0.000000 0.000000 0.000000 
0.000000 0.000000 0.000000 

-0.000000 0.000000 0.000000 
0.000000 0.000000 0.000000 
0.000000 0.000000 0.000000 

0.000000 -0.000000 0.000000 
0.000000 0.000000 0.000000 
0.000000 0.000000 0.000000 

-0.000000 0.000000 0.000000 
0.000000 -0.000000 0.000000 
0.000000 0.000000 0.000000 

-0.000000 0.000000 0.000000 
0.000000 0.000000 0.000000 
0.000000 0.000000 0.000000 

-0.000000 0.000000 0.000000 
0.000000 0.000000 0.000000 
0.000000 0.000000 0.000000 

0.000000 -0.000000 0.000000 
0.000000 -0.000000 0.000000 
0.000000 0.000000 0.000000 

-0.000000 0.000000 0.000000 
0.000000 -0.000000 0.000000 
0.000000 0.000000 0.000000 

-0.000000 0.000000 0.000000 
0.000000 0.000000 0.000000 
0.000000 0.000000 0.000000 

-0.000000 0.000000 0.000000 
0.000000 -0.000000 0.000000 
0.000000 0.000000 0.000000 

-0.000000 -0.000000 0.000000 
0.000000 0.000000 0.000000 
0.000000 0.000000 0.000000 

-0.000000 0.000000 0.000000 
0.000000 -0.000000 0.000000 
0.000000 0.000000 0.000000 

0.000000 0.000000 0.000000 
0.000000 0.000000 0.000000 
0.000000 0.000000 0.000000 

-0.000000 0.000000 0.000000 
0.000000 0.000000 0.000000 
0.000000 0.000000 0.000000 

0.000000 0.000000 0.000000 
0.000000 0.000000 0.000000 
0.000000 0.000000 0.000000 

0.000000 0.000000 0.000000 
0.000000 0.000000 0.000000 
0.000000 0.000000 0.000000 

-0.000000 0.000000 0.000000 
0.000000 0.000000 0.000000 
0.000000 0.000000 0.000000 

-0.000000 0.000000 0.000000 
0.000000 -0.000000 0.000000 
0.000000 0.000000 0.000000 

0.000000 -0.000000 0.000000 
0.000000 0.000000 0.000000 
0.000000 0.000000 0.000000 

0.000000 -0.000000 0.000000 
0.000000 0.000000 0.000000 
0.000000 0.000000 0.000000 

-0.000000 -0.000000 0.000000 
0.000000 -0.000000 0.000000 
0.000000 0.000000 0.000000 

0.000000 0.000000 0.000000 
0.000000 0.000000 0.000000 
0.000000 0.000000 0.000000 

0.000000 -0.000000 0.000000 
0.000000 -0.000000 0.000000 
0.000000 0.000000 0.000000 

0.000000 -0.000000 0.000000 
0.000000 0.000000 0.000000 
0.000000 0.000000 0.000000 

0.000000 0.000000 0.000000 
0.000000 0.000000 0.000000 
0.000000 0.000000 0.000000 

-0.000000 0.000000 0.000000 
0.000000 -0.000000 0.000000 
0.000000 0.000000 0.000000 

0.000000 0.000000 0.000000 
0.000000 0.000000 0.000000 
0.000000 0.000000 0.000000 

0.000000 -0.000000 0.000000 
0.000000 0.000000 0.000000 
0.000000 0.000000 0.000000 

-0.000000 -0.000000 0.000000 
0.000000 -0.000000 0.000000 
0.000000 0.000000 0.000000 

-0.000000 0.000000 0.000000 
0.000000 -0.000000 0.000000 
0.000000 0.000000 0.000000 

-0.000000 -0.000000 0.000000 
0.000000 -0.000000 0.000000 
0.000000 0.000000 0.000000 

-0.000000 0.000000 0.000000 
0.000000 -0.000000 0.000000 
0.000000 0.000000 0.000000 

0.000000 0.000000 0.000000 
0.000000 0.000000 0.000000 
0.000000 0.000000 0.000000 

0.000000 0.000000 0.000000 
0.000000 0.000000 0.000000 
0.000000 0.000000 0.000000 

0.000000 0.000000 0.000000 
0.000000 0.000000 0.000000 
0.000000 0.000000 0.000000 

0.000000 0.000000 0.000000 
0.000000 0.000000 0.000000 
0.000000 0.000000 0.000000 

-0.000000 -0.000000 0.000000 
0.000000 0.000000 0.000000 
0.000000 0.000000 0.000000 

-0.000000 0.000000 0.000000 
0.000000 0.000000 0.000000 
0.000000 0.000000 0.000000 

TENSORS STRAIN float 
-0.000000 0.000000 0.000000 
0.000000 0.000000 0.000000 
0.000000 0.000000 0.000000 

0.000000 -0.000000 0.000000 
0.000000 0.000000 0.000000 
0.000000 0.000000 0.000000 

0.000000 0.000000 0.000000 
0.000000 -0.000000 0.000000 
0.000000 0.000000 0.000000 

0.000000 0.000000 0.000000 
0.000000 -0.000000 0.000000 
0.000000 0.000000 0.000000 

0.000000 0.000000 0.000000 
0.000000 0.000000 0.000000 
0.000000 0.000000 0.000000 

0.000000 0.000000 0.000000 
0.000000 0.000000 0.000000 
0.000000 0.000000 0.000000 

0.000000 0.000000 0.000000 
0.000000 0.000000 0.000000 
0.000000 0.000000 0.000000 

0.000000 -0.000000 0.000000 
0.000000 0.000000 0.000000 
0.000000 0.000000 0.000000 

-0.000000 0.000000 0.000000 
0.000000 -0.000000 0.000000 
0.000000 0.000000 0.000000 

0.000000 -0.000000 0.000000 
0.000000 0.000000 0.000000 
0.000000 0.000000 0.000000 

0.000000 0.000000 0.000000 
0.000000 -0.000000 0.000000 
0.000000 0.000000 0.000000 

-0.000000 0.000000 0.000000 
0.000000 0.000000 0.000000 
0.000000 0.000000 0.000000 

-0.000000 -0.000000 0.000000 
0.000000 -0.000000 0.000000 
0.000000 0.000000 0.000000 

-0.000000 0.000000 0.000000 
0.000000 -0.000000 0.000000 
0.000000 0.000000 0.000000 

0.000000 -0.000000 0.000000 
0.000000 -0.000000 0.000000 
0.000000 0.000000 0.000000 

0.000000 0.000000 0.000000 
0.000000 -0.000000 0.000000 
0.000000 0.000000 0.000000 

-0.000000 0.000000 0.000000 
0.000000 0.000000 0.000000 
0.000000 0.000000 0.000000 

-0.000000 0.000000 0.000000 
0.000000 0.000000 0.000000 
0.000000 0.000000 0.000000 

-0.000000 -0.000000 0.000000 
0.000000 0.000000 0.000000 
0.000000 0.000000 0.000000 

-0.000000 0.000000 0.000000 
0.000000 -0.000000 0.000000 
0.000000 0.000000 0.000000 

-0.000000 -0.000000 0.000000 
0.000000 0.000000 0.000000 
0.000000 0.000000 0.000000 

-0.000000 -0.000000 0.000000 
0.000000 -0.000000 0.000000 
0.000000 0.000000 0.000000 

-0.000000 -0.000000 0.000000 
0.000000 -0.000000 0.000000 
0.000000 0.000000 0.000000 

-0.000000 0.000000 0.000000 
0.000000 -0.000000 0.000000 
0.000000 0.000000 0.000000 

-0.000000 0.000000 0.000000 
0.000000 -0.000000 0.000000 
0.000000 0.000000 0.000000 

-0.000000 0.000000 0.000000 
0.000000 0.000000 0.000000 
0.000000 0.000000 0.000000 

0.000000 -0.000000 0.000000 
0.000000 0.000000 0.000000 
0.000000 0.000000 0.000000 

0.000000 -0.000000 0.000000 
0.000000 0.000000 0.000000 
0.000000 0.000000 0.000000 

0.000000 -0.000000 0.000000 
0.000000 0.000000 0.000000 
0.000000 0.000000 0.000000 

-0.000000 0.000000 0.000000 
0.000000 0.000000 0.000000 
0.000000 0.000000 0.000000 

0.000000 -0.000000 0.000000 
0.000000 -0.000000 0.000000 
0.000000 0.000000 0.000000 

0.000000 -0.000000 0.000000 
0.000000 -0.000000 0.000000 
0.000000 0.000000 0.000000 

0.000000 0.000000 0.000000 
0.000000 -0.000000 0.000000 
0.000000 0.000000 0.000000 

0.000000 -0.000000 0.000000 
0.000000 0.000000 0.000000 
0.000000 0.000000 0.000000 

0.000000 -0.000000 0.000000 
0.000000 -0.000000 0.000000 
0.000000 0.000000 0.000000 

0.000000 -0.000000 0.000000 
0.000000 -0.000000 0.000000 
0.000000 0.000000 0.000000 

0.000000 0.000000 0.000000 
0.000000 0.000000 0.000000 
0.000000 0.000000 0.000000 

0.000000 0.000000 0.000000 
0.000000 0.000000 0.000000 
0.000000 0.000000 0.000000 

0.000000 -0.000000 0.000000 
0.000000 -0.000000 0.000000 
0.000000 0.000000 0.000000 

0.000000 -0.000000 0.000000 
0.000000 0.000000 0.000000 
0.000000 0.000000 0.000000 

0.000000 0.000000 0.000000 
0.000000 0.000000 0.000000 
0.000000 0.000000 0.000000 

0.000000 -0.000000 0.000000 
0.000000 0.000000 0.000000 
0.000000 0.000000 0.000000 

0.000000 -0.000000 0.000000 
0.000000 0.000000 0.000000 
0.000000 0.000000 0.000000 

-0.000000 -0.000000 0.000000 
0.000000 -0.000000 0.000000 
0.000000 0.000000 0.000000 

0.000000 0.000000 0.000000 
0.000000 -0.000000 0.000000 
0.000000 0.000000 0.000000 

-0.000000 -0.000000 0.000000 
0.000000 0.000000 0.000000 
0.000000 0.000000 0.000000 

-0.000000 -0.000000 0.000000 
0.000000 0.000000 0.000000 
0.000000 0.000000 0.000000 

0.000000 -0.000000 0.000000 
0.000000 -0.000000 0.000000 
0.000000 0.000000 0.000000 

0.000000 0.000000 0.000000 
0.000000 -0.000000 0.000000 
0.000000 0.000000 0.000000 

-0.000000 0.000000 0.000000 
0.000000 -0.000000 0.000000 
0.000000 0.000000 0.000000 

0.000000 0.000000 0.000000 
0.000000 0.000000 0.000000 
0.000000 0.000000 0.000000 

-0.000000 -0.000000 0.000000 
0.000000 0.000000 0.000000 
0.000000 0.000000 0.000000 

-0.000000 -0.000000 0.000000 
0.000000 -0.000000 0.000000 
0.000000 0.000000 0.000000 

0.000000 -0.000000 0.000000 
0.000000 -0.000000 0.000000 
0.000000 0.000000 0.000000 

-0.000000 0.000000 0.000000 
0.000000 -0.000000 0.000000 
0.000000 0.000000 0.000000 

-0.000000 -0.000000 0.000000 
0.000000 -0.000000 0.000000 
0.000000 0.000000 0.000000 

-0.000000 -0.000000 0.000000 
0.000000 -0.000000 0.000000 
0.000000 0.000000 0.000000 

-0.000000 0.000000 0.000000 
0.000000 0.000000 0.000000 
0.000000 0.000000 0.000000 

0.000000 -0.000000 0.000000 
0.000000 0.000000 0.000000 
0.000000 0.000000 0.000000 

0.000000 -0.000000 0.000000 
0.000000 -0.000000 0.000000 
0.000000 0.000000 0.000000 

-0.000000 -0.000000 0.000000 
0.000000 0.000000 0.000000 
0.000000 0.000000 0.000000 

-0.000000 -0.000000 0.000000 
0.000000 0.000000 0.000000 
0.000000 0.000000 0.000000 

-0.000000 0.000000 0.000000 
0.000000 0.000000 0.000000 
0.000000 0.000000 0.000000 

0.000000 -0.000000 0.000000 
0.000000 -0.000000 0.000000 
0.000000 0.000000 0.000000 

0.000000 -0.000000 0.000000 
0.000000 -0.000000 0.000000 
0.000000 0.000000 0.000000 

0.000000 0.000000 0.000000 
0.000000 -0.000000 0.000000 
0.000000 0.000000 0.000000 

-0.000000 -0.000000 0.000000 
0.000000 -0.000000 0.000000 
0.000000 0.000000 0.000000 

0.000000 -0.000000 0.000000 
0.000000 0.000000 0.000000 
0.000000 0.000000 0.000000 

0.000000 -0.000000 0.000000 
0.000000 -0.000000 0.000000 
0.000000 0.000000 0.000000 

-0.000000 0.000000 0.000000 
0.000000 0.000000 0.000000 
0.000000 0.000000 0.000000 

-0.000000 0.000000 0.000000 
0.000000 0.000000 0.000000 
0.000000 0.000000 0.000000 

-0.000000 -0.000000 0.000000 
0.000000 0.000000 0.000000 
0.000000 0.000000 0.000000 

0.000000 -0.000000 0.000000 
0.000000 -0.000000 0.000000 
0.000000 0.000000 0.000000 

-0.000000 0.000000 0.000000 
0.000000 0.000000 0.000000 
0.000000 0.000000 0.000000 

-0.000000 0.000000 0.000000 
0.000000 0.000000 0.000000 
0.000000 0.000000 0.000000 

0.000000 0.000000 0.000000 
0.000000 -0.000000 0.000000 
0.000000 0.000000 0.000000 

0.000000 0.000000 0.000000 
0.000000 0.000000 0.000000 
0.000000 0.000000 0.000000 

0.000000 -0.000000 0.000000 
0.000000 -0.000000 0.000000 
0.000000 0.000000 0.000000 

0.000000 0.000000 0.000000 
0.000000 0.000000 0.000000 
0.000000 0.000000 0.000000 

0.000000 0.000000 0.000000 
0.000000 0.000000 0.000000 
0.000000 0.000000 0.000000 

0.000000 0.000000 0.000000 
0.000000 -0.000000 0.000000 
0.000000 0.000000 0.000000 

0.000000 0.000000 0.000000 
0.000000 -0.000000 0.000000 
0.000000 0.000000 0.000000 

0.000000 0.000000 0.000000 
0.000000 0.000000 0.000000 
0.000000 0.000000 0.000000 

-0.000000 -0.000000 0.000000 
0.000000 0.000000 0.000000 
0.000000 0.000000 0.000000 

0.000000 -0.000000 0.000000 
0.000000 -0.000000 0.000000 
0.000000 0.000000 0.000000 

0.000000 -0.000000 0.000000 
0.000000 -0.000000 0.000000 
0.000000 0.000000 0.000000 

0.000000 0.000000 0.000000 
0.000000 0.000000 0.000000 
0.000000 0.000000 0.000000 

0.000000 -0.000000 0.000000 
0.000000 -0.000000 0.000000 
0.000000 0.000000 0.000000 

0.000000 0.000000 0.000000 
0.000000 0.000000 0.000000 
0.000000 0.000000 0.000000 

0.000000 -0.000000 0.000000 
0.000000 -0.000000 0.000000 
0.000000 0.000000 0.000000 

0.000000 -0.000000 0.000000 
0.000000 -0.000000 0.000000 
0.000000 0.000000 0.000000 

-0.000000 0.000000 0.000000 
0.000000 -0.000000 0.000000 
0.000000 0.000000 0.000000 

0.000000 -0.000000 0.000000 
0.000000 0.000000 0.000000 
0.000000 0.000000 0.000000 

0.000000 0.000000 0.000000 
0.000000 -0.000000 0.000000 
0.000000 0.000000 0.000000 

0.000000 0.000000 0.000000 
0.000000 0.000000 0.000000 
0.000000 0.000000 0.000000 

0.000000 0.000000 0.000000 
0.000000 -0.000000 0.000000 
0.000000 0.000000 0.000000 

0.000000 0.000000 0.000000 
0.000000 -0.000000 0.000000 
0.000000 0.000000 0.000000 

-0.000000 0.000000 0.000000 
0.000000 -0.000000 0.000000 
0.000000 0.000000 0.000000 

-0.000000 -0.000000 0.000000 
0.000000 -0.000000 0.000000 
0.000000 0.000000 0.000000 

0.000000 0.000000 0.000000 
0.000000 0.000000 0.000000 
0.000000 0.000000 0.000000 

0.000000 0.000000 0.000000 
0.000000 0.000000 0.000000 
0.000000 0.000000 0.000000 

-0.000000 0.000000 0.000000 
0.000000 0.000000 0.000000 
0.000000 0.000000 0.000000 

-0.000000 0.000000 0.000000 
0.000000 0.000000 0.000000 
0.000000 0.000000 0.000000 

-0.000000 0.000000 0.000000 
0.000000 0.000000 0.000000 
0.000000 0.000000 0.000000 

-0.000000 0.000000 0.000000 
0.000000 -0.000000 0.000000 
0.000000 0.000000 0.000000 

-0.000000 -0.000000 0.000000 
0.000000 0.000000 0.000000 
0.000000 0.000000 0.000000 

0.000000 0.000000 0.000000 
0.000000 0.000000 0.000000 
0.000000 0.000000 0.000000 

0.000000 -0.000000 0.000000 
0.000000 0.000000 0.000000 
0.000000 0.000000 0.000000 

0.000000 -0.000000 0.000000 
0.000000 0.000000 0.000000 
0.000000 0.000000 0.000000 

-0.000000 -0.000000 0.000000 
0.000000 -0.000000 0.000000 
0.000000 0.000000 0.000000 

-0.000000 -0.000000 0.000000 
0.000000 0.000000 0.000000 
0.000000 0.000000 0.000000 

-0.000000 -0.000000 0.000000 
0.000000 -0.000000 0.000000 
0.000000 0.000000 0.000000 

-0.000000 0.000000 0.000000 
0.000000 0.000000 0.000000 
0.000000 0.000000 0.000000 

-0.000000 0.000000 0.000000 
0.000000 -0.000000 0.000000 
0.000000 0.000000 0.000000 

0.000000 -0.000000 0.000000 
0.000000 -0.000000 0.000000 
0.000000 0.000000 0.000000 

0.000000 -0.000000 0.000000 
0.000000 0.000000 0.000000 
0.000000 0.000000 0.000000 

-0.000000 -0.000000 0.000000 
0.000000 0.000000 0.000000 
0.000000 0.000000 0.000000 

-0.000000 0.000000 0.000000 
0.000000 -0.000000 0.000000 
0.000000 0.000000 0.000000 

0.000000 0.000000 0.000000 
0.000000 -0.000000 0.000000 
0.000000 0.000000 0.000000 

-0.000000 -0.000000 0.000000 
0.000000 0.000000 0.000000 
0.000000 0.000000 0.000000 

-0.000000 0.000000 0.000000 
0.000000 0.000000 0.000000 
0.000000 0.000000 0.000000 

-0.000000 0.000000 0.000000 
0.000000 0.000000 0.000000 
0.000000 0.000000 0.000000 

-0.000000 -0.000000 0.000000 
0.000000 0.000000 0.000000 
0.000000 0.000000 0.000000 

0.000000 0.000000 0.000000 
0.000000 0.000000 0.000000 
0.000000 0.000000 0.000000 

0.000000 -0.000000 0.000000 
0.000000 0.000000 0.000000 
0.000000 0.000000 0.000000 

-0.000000 -0.000000 0.000000 
0.000000 0.000000 0.000000 
0.000000 0.000000 0.000000 

-0.000000 0.000000 0.000000 
0.000000 0.000000 0.000000 
0.000000 0.000000 0.000000 

-0.000000 -0.000000 0.000000 
0.000000 0.000000 0.000000 
0.000000 0.000000 0.000000 

-0.000000 -0.000000 0.000000 
0.000000 0.000000 0.000000 
0.000000 0.000000 0.000000 

-0.000000 0.000000 0.000000 
0.000000 -0.000000 0.000000 
0.000000 0.000000 0.000000 

-0.000000 0.000000 0.000000 
0.000000 0.000000 0.000000 
0.000000 0.000000 0.000000 

-0.000000 -0.000000 0.000000 
0.000000 0.000000 0.000000 
0.000000 0.000000 0.000000 

-0.000000 -0.000000 0.000000 
0.000000 -0.000000 0.000000 
0.000000 0.000000 0.000000 

-0.000000 0.000000 0.000000 
0.000000 -0.000000 0.000000 
0.000000 0.000000 0.000000 

-0.000000 0.000000 0.000000 
0.000000 0.000000 0.000000 
0.000000 0.000000 0.000000 

0.000000 0.000000 0.000000 
0.000000 0.000000 0.000000 
0.000000 0.000000 0.000000 

0.000000 0.000000 0.000000 
0.000000 0.000000 0.000000 
0.000000 0.000000 0.000000 

-0.000000 0.000000 0.000000 
0.000000 0.000000 0.000000 
0.000000 0.000000 0.000000 

-0.000000 0.000000 0.000000 
0.000000 0.000000 0.000000 
0.000000 0.000000 0.000000 

-0.000000 -0.000000 0.000000 
0.000000 0.000000 0.000000 
0.000000 0.000000 0.000000 

0.000000 0.000000 0.000000 
0.000000 -0.000000 0.000000 
0.000000 0.000000 0.000000 

-0.000000 0.000000 0.000000 
0.000000 0.000000 0.000000 
0.000000 0.000000 0.000000 

-0.000000 0.000000 0.000000 
0.000000 0.000000 0.000000 
0.000000 0.000000 0.000000 

0.000000 -0.000000 0.000000 
0.000000 -0.000000 0.000000 
0.000000 0.000000 0.000000 

-0.000000 0.000000 0.000000 
0.000000 -0.000000 0.000000 
0.000000 0.000000 0.000000 

-0.000000 0.000000 0.000000 
0.000000 0.000000 0.000000 
0.000000 0.000000 0.000000 

-0.000000 0.000000 0.000000 
0.000000 -0.000000 0.000000 
0.000000 0.000000 0.000000 

-0.000000 -0.000000 0.000000 
0.000000 0.000000 0.000000 
0.000000 0.000000 0.000000 

-0.000000 0.000000 0.000000 
0.000000 -0.000000 0.000000 
0.000000 0.000000 0.000000 

0.000000 0.000000 0.000000 
0.000000 0.000000 0.000000 
0.000000 0.000000 0.000000 

-0.000000 0.000000 0.000000 
0.000000 0.000000 0.000000 
0.000000 0.000000 0.000000 

0.000000 0.000000 0.000000 
0.000000 0.000000 0.000000 
0.000000 0.000000 0.000000 

0.000000 0.000000 0.000000 
0.000000 0.000000 0.000000 
0.000000 0.000000 0.000000 

-0.000000 0.000000 0.000000 
0.000000 0.000000 0.000000 
0.000000 0.000000 0.000000 

-0.000000 0.000000 0.000000 
0.000000 0.000000 0.000000 
0.000000 0.000000 0.000000 

0.000000 -0.000000 0.000000 
0.000000 0.000000 0.000000 
0.000000 0.000000 0.000000 

0.000000 -0.000000 0.000000 
0.000000 0.000000 0.000000 
0.000000 0.000000 0.000000 

-0.000000 -0.000000 0.000000 
0.000000 -0.000000 0.000000 
0.000000 0.000000 0.000000 

-0.000000 0.000000 0.000000 
0.000000 0.000000 0.000000 
0.000000 0.000000 0.000000 

0.000000 -0.000000 0.000000 
0.000000 -0.000000 0.000000 
0.000000 0.000000 0.000000 

0.000000 -0.000000 0.000000 
0.000000 0.000000 0.000000 
0.000000 0.000000 0.000000 

-0.000000 0.000000 0.000000 
0.000000 0.000000 0.000000 
0.000000 0.000000 0.000000 

0.000000 0.000000 0.000000 
0.000000 -0.000000 0.000000 
0.000000 0.000000 0.000000 

0.000000 0.000000 0.000000 
0.000000 0.000000 0.000000 
0.000000 0.000000 0.000000 

-0.000000 -0.000000 0.000000 
0.000000 0.000000 0.000000 
0.000000 0.000000 0.000000 

-0.000000 -0.000000 0.000000 
0.000000 -0.000000 0.000000 
0.000000 0.000000 0.000000 

-0.000000 0.000000 0.000000 
0.000000 -0.000000 0.000000 
0.000000 0.000000 0.000000 

-0.000000 -0.000000 0.000000 
0.000000 -0.000000 0.000000 
0.000000 0.000000 0.000000 

-0.000000 0.000000 0.000000 
0.000000 -0.000000 0.000000 
0.000000 0.000000 0.000000 

0.000000 0.000000 0.000000 
0.000000 0.000000 0.000000 
0.000000 0.000000 0.000000 

0.000000 0.000000 0.000000 
0.000000 0.000000 0.000000 
0.000000 0.000000 0.000000 

-0.000000 0.000000 0.000000 
0.000000 0.000000 0.000000 
0.000000 0.000000 0.000000 

-0.000000 0.000000 0.000000 
0.000000 0.000000 0.000000 
0.000000 0.000000 0.000000 

-0.000000 -0.000000 0.000000 
0.000000 0.000000 0.000000 
0.000000 0.000000 0.000000 

-0.000000 0.000000 0.000000 
0.000000 0.000000 0.000000 
0.000000 0.000000 0.000000 

