# vtk DataFile Version 3.0 
vtk output 
ASCII 
DATASET UNSTRUCTURED_GRID 
POINTS 175 float 
-0.026061 -0.172111 0.000000 
-0.106992 -0.104056 0.000000 
-0.054870 -0.112289 0.000000 
-0.028809 -0.066405 0.000000 
-0.186430 -0.039980 0.000000 
-0.137056 -0.042507 0.000000 
-0.114311 0.011141 0.000000 
-0.058186 -0.004525 0.000000 
-0.029377 0.035652 0.000000 
-0.265318 0.023175 0.000000 
-0.217198 0.022376 0.000000 
-0.196633 0.079672 0.000000 
-0.143120 0.070963 0.000000 
-0.116563 0.118232 0.000000 
-0.058945 0.098586 0.000000 
-0.029568 0.136706 0.000000 
-0.344206 0.086331 0.000000 
-0.296791 0.086338 0.000000 
-0.278030 0.146281 0.000000 
-0.225992 0.140415 0.000000 
-0.201664 0.192532 0.000000 
-0.145749 0.179058 0.000000 
-0.117890 0.223400 0.000000 
-0.059328 0.200695 0.000000 
-0.029759 0.237761 0.000000 
-0.058559 -0.212862 0.000000 
-0.162226 -0.233705 0.000000 
-0.123292 -0.198087 0.000000 
-0.142917 -0.149104 0.000000 
-0.261851 -0.255861 0.000000 
-0.229092 -0.218834 0.000000 
-0.256854 -0.167603 0.000000 
-0.209613 -0.133490 0.000000 
-0.223062 -0.085916 0.000000 
-0.360414 -0.278161 0.000000 
-0.329787 -0.241038 0.000000 
-0.361761 -0.189236 0.000000 
-0.321587 -0.152828 0.000000 
-0.341985 -0.102593 0.000000 
-0.290702 -0.069795 0.000000 
-0.302189 -0.023059 0.000000 
-0.458977 -0.300461 0.000000 
-0.429420 -0.263387 0.000000 
-0.464588 -0.211345 0.000000 
-0.427556 -0.174318 0.000000 
-0.453135 -0.122803 0.000000 
-0.407738 -0.087487 0.000000 
-0.425037 -0.038059 0.000000 
-0.370772 -0.006430 0.000000 
-0.381315 0.039797 0.000000 
-0.046960 -0.263677 0.000000 
-0.095301 -0.357723 0.000000 
-0.098873 -0.305076 0.000000 
-0.149405 -0.289878 0.000000 
-0.140093 -0.449427 0.000000 
-0.148617 -0.400729 0.000000 
-0.205981 -0.390492 0.000000 
-0.203197 -0.332288 0.000000 
-0.248777 -0.313142 0.000000 
-0.184111 -0.540391 0.000000 
-0.194039 -0.493300 0.000000 
-0.254475 -0.486000 0.000000 
-0.257893 -0.431890 0.000000 
-0.309886 -0.416518 0.000000 
-0.303554 -0.355973 0.000000 
-0.347255 -0.335815 0.000000 
-0.228129 -0.631355 0.000000 
-0.238687 -0.585130 0.000000 
-0.301302 -0.580178 0.000000 
-0.307162 -0.528139 0.000000 
-0.363386 -0.516018 0.000000 
-0.362692 -0.458507 0.000000 
-0.412122 -0.441214 0.000000 
-0.403017 -0.379067 0.000000 
-0.445733 -0.358488 0.000000 
-0.000000 -0.286292 0.000000 
0.043388 -0.382723 0.000000 
-0.000000 -0.352691 0.000000 
-0.043388 -0.382723 0.000000 
0.087158 -0.474920 0.000000 
0.043769 -0.451221 0.000000 
-0.000000 -0.489687 0.000000 
-0.043769 -0.451221 0.000000 
-0.087158 -0.474920 0.000000 
0.130831 -0.566049 0.000000 
0.087824 -0.544450 0.000000 
0.044436 -0.587150 0.000000 
-0.000000 -0.556085 0.000000 
-0.044436 -0.587150 0.000000 
-0.087824 -0.544450 0.000000 
-0.130831 -0.566049 0.000000 
0.174505 -0.657179 0.000000 
0.131782 -0.636613 0.000000 
0.088871 -0.682479 0.000000 
0.044532 -0.654615 0.000000 
-0.000000 -0.691016 0.000000 
-0.044532 -0.654615 0.000000 
-0.088871 -0.682479 0.000000 
-0.131782 -0.636613 0.000000 
-0.174505 -0.657179 0.000000 
0.046960 -0.263677 0.000000 
0.149405 -0.289878 0.000000 
0.098873 -0.305076 0.000000 
0.095301 -0.357723 0.000000 
0.248777 -0.313142 0.000000 
0.203197 -0.332288 0.000000 
0.205981 -0.390492 0.000000 
0.148617 -0.400729 0.000000 
0.140093 -0.449427 0.000000 
0.347255 -0.335815 0.000000 
0.303554 -0.355973 0.000000 
0.309886 -0.416518 0.000000 
0.257893 -0.431890 0.000000 
0.254475 -0.486000 0.000000 
0.194039 -0.493300 0.000000 
0.184111 -0.540391 0.000000 
0.445733 -0.358488 0.000000 
0.403017 -0.379067 0.000000 
0.412122 -0.441214 0.000000 
0.362692 -0.458507 0.000000 
0.363386 -0.516018 0.000000 
0.307162 -0.528139 0.000000 
0.301302 -0.580178 0.000000 
0.238687 -0.585130 0.000000 
0.228129 -0.631355 0.000000 
0.058559 -0.212862 0.000000 
0.142917 -0.149104 0.000000 
0.123292 -0.198087 0.000000 
0.162226 -0.233705 0.000000 
0.223062 -0.085916 0.000000 
0.209613 -0.133490 0.000000 
0.256854 -0.167603 0.000000 
0.229092 -0.218834 0.000000 
0.261851 -0.255861 0.000000 
0.302189 -0.023059 0.000000 
0.290702 -0.069795 0.000000 
0.341985 -0.102593 0.000000 
0.321587 -0.152828 0.000000 
0.361761 -0.189236 0.000000 
0.329787 -0.241038 0.000000 
0.360414 -0.278161 0.000000 
0.381315 0.039797 0.000000 
0.370772 -0.006430 0.000000 
0.425037 -0.038059 0.000000 
0.407738 -0.087487 0.000000 
0.453135 -0.122803 0.000000 
0.427556 -0.174318 0.000000 
0.464588 -0.211345 0.000000 
0.429420 -0.263387 0.000000 
0.458977 -0.300461 0.000000 
0.026061 -0.172111 0.000000 
0.028809 -0.066405 0.000000 
0.054870 -0.112289 0.000000 
0.106992 -0.104056 0.000000 
0.029377 0.035652 0.000000 
0.058186 -0.004525 0.000000 
0.114311 0.011141 0.000000 
0.137056 -0.042507 0.000000 
0.186430 -0.039980 0.000000 
0.029568 0.136706 0.000000 
0.058945 0.098586 0.000000 
0.116563 0.118232 0.000000 
0.143120 0.070963 0.000000 
0.196633 0.079672 0.000000 
0.217198 0.022376 0.000000 
0.265318 0.023175 0.000000 
0.029759 0.237761 0.000000 
0.059328 0.200695 0.000000 
0.117890 0.223400 0.000000 
0.145749 0.179058 0.000000 
0.201664 0.192532 0.000000 
0.225992 0.140415 0.000000 
0.278030 0.146281 0.000000 
0.296791 0.086338 0.000000 
0.344206 0.086331 0.000000 
CELLS 175 350 
1 0 
1 1 
1 2 
1 3 
1 4 
1 5 
1 6 
1 7 
1 8 
1 9 
1 10 
1 11 
1 12 
1 13 
1 14 
1 15 
1 16 
1 17 
1 18 
1 19 
1 20 
1 21 
1 22 
1 23 
1 24 
1 25 
1 26 
1 27 
1 28 
1 29 
1 30 
1 31 
1 32 
1 33 
1 34 
1 35 
1 36 
1 37 
1 38 
1 39 
1 40 
1 41 
1 42 
1 43 
1 44 
1 45 
1 46 
1 47 
1 48 
1 49 
1 50 
1 51 
1 52 
1 53 
1 54 
1 55 
1 56 
1 57 
1 58 
1 59 
1 60 
1 61 
1 62 
1 63 
1 64 
1 65 
1 66 
1 67 
1 68 
1 69 
1 70 
1 71 
1 72 
1 73 
1 74 
1 75 
1 76 
1 77 
1 78 
1 79 
1 80 
1 81 
1 82 
1 83 
1 84 
1 85 
1 86 
1 87 
1 88 
1 89 
1 90 
1 91 
1 92 
1 93 
1 94 
1 95 
1 96 
1 97 
1 98 
1 99 
1 100 
1 101 
1 102 
1 103 
1 104 
1 105 
1 106 
1 107 
1 108 
1 109 
1 110 
1 111 
1 112 
1 113 
1 114 
1 115 
1 116 
1 117 
1 118 
1 119 
1 120 
1 121 
1 122 
1 123 
1 124 
1 125 
1 126 
1 127 
1 128 
1 129 
1 130 
1 131 
1 132 
1 133 
1 134 
1 135 
1 136 
1 137 
1 138 
1 139 
1 140 
1 141 
1 142 
1 143 
1 144 
1 145 
1 146 
1 147 
1 148 
1 149 
1 150 
1 151 
1 152 
1 153 
1 154 
1 155 
1 156 
1 157 
1 158 
1 159 
1 160 
1 161 
1 162 
1 163 
1 164 
1 165 
1 166 
1 167 
1 168 
1 169 
1 170 
1 171 
1 172 
1 173 
1 174 
CELL_TYPES 175 
1 
1 
1 
1 
1 
1 
1 
1 
1 
1 
1 
1 
1 
1 
1 
1 
1 
1 
1 
1 
1 
1 
1 
1 
1 
1 
1 
1 
1 
1 
1 
1 
1 
1 
1 
1 
1 
1 
1 
1 
1 
1 
1 
1 
1 
1 
1 
1 
1 
1 
1 
1 
1 
1 
1 
1 
1 
1 
1 
1 
1 
1 
1 
1 
1 
1 
1 
1 
1 
1 
1 
1 
1 
1 
1 
1 
1 
1 
1 
1 
1 
1 
1 
1 
1 
1 
1 
1 
1 
1 
1 
1 
1 
1 
1 
1 
1 
1 
1 
1 
1 
1 
1 
1 
1 
1 
1 
1 
1 
1 
1 
1 
1 
1 
1 
1 
1 
1 
1 
1 
1 
1 
1 
1 
1 
1 
1 
1 
1 
1 
1 
1 
1 
1 
1 
1 
1 
1 
1 
1 
1 
1 
1 
1 
1 
1 
1 
1 
1 
1 
1 
1 
1 
1 
1 
1 
1 
1 
1 
1 
1 
1 
1 
1 
1 
1 
1 
1 
1 
1 
1 
1 
1 
1 
1 
POINT_DATA 175 
VECTORS X_GC float 
-0.026061 -0.172111 0.000000 
-0.106992 -0.104056 0.000000 
-0.054870 -0.112289 0.000000 
-0.028809 -0.066405 0.000000 
-0.186430 -0.039980 0.000000 
-0.137056 -0.042507 0.000000 
-0.114311 0.011141 0.000000 
-0.058186 -0.004525 0.000000 
-0.029377 0.035652 0.000000 
-0.265318 0.023175 0.000000 
-0.217198 0.022376 0.000000 
-0.196633 0.079672 0.000000 
-0.143120 0.070963 0.000000 
-0.116563 0.118232 0.000000 
-0.058945 0.098586 0.000000 
-0.029568 0.136706 0.000000 
-0.344206 0.086331 0.000000 
-0.296791 0.086338 0.000000 
-0.278030 0.146281 0.000000 
-0.225992 0.140415 0.000000 
-0.201664 0.192532 0.000000 
-0.145749 0.179058 0.000000 
-0.117890 0.223400 0.000000 
-0.059328 0.200695 0.000000 
-0.029759 0.237761 0.000000 
-0.058559 -0.212862 0.000000 
-0.162226 -0.233705 0.000000 
-0.123292 -0.198087 0.000000 
-0.142917 -0.149104 0.000000 
-0.261851 -0.255861 0.000000 
-0.229092 -0.218834 0.000000 
-0.256854 -0.167603 0.000000 
-0.209613 -0.133490 0.000000 
-0.223062 -0.085916 0.000000 
-0.360414 -0.278161 0.000000 
-0.329787 -0.241038 0.000000 
-0.361761 -0.189236 0.000000 
-0.321587 -0.152828 0.000000 
-0.341985 -0.102593 0.000000 
-0.290702 -0.069795 0.000000 
-0.302189 -0.023059 0.000000 
-0.458977 -0.300461 0.000000 
-0.429420 -0.263387 0.000000 
-0.464588 -0.211345 0.000000 
-0.427556 -0.174318 0.000000 
-0.453135 -0.122803 0.000000 
-0.407738 -0.087487 0.000000 
-0.425037 -0.038059 0.000000 
-0.370772 -0.006430 0.000000 
-0.381315 0.039797 0.000000 
-0.046960 -0.263677 0.000000 
-0.095301 -0.357723 0.000000 
-0.098873 -0.305076 0.000000 
-0.149405 -0.289878 0.000000 
-0.140093 -0.449427 0.000000 
-0.148617 -0.400729 0.000000 
-0.205981 -0.390492 0.000000 
-0.203197 -0.332288 0.000000 
-0.248777 -0.313142 0.000000 
-0.184111 -0.540391 0.000000 
-0.194039 -0.493300 0.000000 
-0.254475 -0.486000 0.000000 
-0.257893 -0.431890 0.000000 
-0.309886 -0.416518 0.000000 
-0.303554 -0.355973 0.000000 
-0.347255 -0.335815 0.000000 
-0.228129 -0.631355 0.000000 
-0.238687 -0.585130 0.000000 
-0.301302 -0.580178 0.000000 
-0.307162 -0.528139 0.000000 
-0.363386 -0.516018 0.000000 
-0.362692 -0.458507 0.000000 
-0.412122 -0.441214 0.000000 
-0.403017 -0.379067 0.000000 
-0.445733 -0.358488 0.000000 
-0.000000 -0.286292 0.000000 
0.043388 -0.382723 0.000000 
-0.000000 -0.352691 0.000000 
-0.043388 -0.382723 0.000000 
0.087158 -0.474920 0.000000 
0.043769 -0.451221 0.000000 
-0.000000 -0.489687 0.000000 
-0.043769 -0.451221 0.000000 
-0.087158 -0.474920 0.000000 
0.130831 -0.566049 0.000000 
0.087824 -0.544450 0.000000 
0.044436 -0.587150 0.000000 
-0.000000 -0.556085 0.000000 
-0.044436 -0.587150 0.000000 
-0.087824 -0.544450 0.000000 
-0.130831 -0.566049 0.000000 
0.174505 -0.657179 0.000000 
0.131782 -0.636613 0.000000 
0.088871 -0.682479 0.000000 
0.044532 -0.654615 0.000000 
-0.000000 -0.691016 0.000000 
-0.044532 -0.654615 0.000000 
-0.088871 -0.682479 0.000000 
-0.131782 -0.636613 0.000000 
-0.174505 -0.657179 0.000000 
0.046960 -0.263677 0.000000 
0.149405 -0.289878 0.000000 
0.098873 -0.305076 0.000000 
0.095301 -0.357723 0.000000 
0.248777 -0.313142 0.000000 
0.203197 -0.332288 0.000000 
0.205981 -0.390492 0.000000 
0.148617 -0.400729 0.000000 
0.140093 -0.449427 0.000000 
0.347255 -0.335815 0.000000 
0.303554 -0.355973 0.000000 
0.309886 -0.416518 0.000000 
0.257893 -0.431890 0.000000 
0.254475 -0.486000 0.000000 
0.194039 -0.493300 0.000000 
0.184111 -0.540391 0.000000 
0.445733 -0.358488 0.000000 
0.403017 -0.379067 0.000000 
0.412122 -0.441214 0.000000 
0.362692 -0.458507 0.000000 
0.363386 -0.516018 0.000000 
0.307162 -0.528139 0.000000 
0.301302 -0.580178 0.000000 
0.238687 -0.585130 0.000000 
0.228129 -0.631355 0.000000 
0.058559 -0.212862 0.000000 
0.142917 -0.149104 0.000000 
0.123292 -0.198087 0.000000 
0.162226 -0.233705 0.000000 
0.223062 -0.085916 0.000000 
0.209613 -0.133490 0.000000 
0.256854 -0.167603 0.000000 
0.229092 -0.218834 0.000000 
0.261851 -0.255861 0.000000 
0.302189 -0.023059 0.000000 
0.290702 -0.069795 0.000000 
0.341985 -0.102593 0.000000 
0.321587 -0.152828 0.000000 
0.361761 -0.189236 0.000000 
0.329787 -0.241038 0.000000 
0.360414 -0.278161 0.000000 
0.381315 0.039797 0.000000 
0.370772 -0.006430 0.000000 
0.425037 -0.038059 0.000000 
0.407738 -0.087487 0.000000 
0.453135 -0.122803 0.000000 
0.427556 -0.174318 0.000000 
0.464588 -0.211345 0.000000 
0.429420 -0.263387 0.000000 
0.458977 -0.300461 0.000000 
0.026061 -0.172111 0.000000 
0.028809 -0.066405 0.000000 
0.054870 -0.112289 0.000000 
0.106992 -0.104056 0.000000 
0.029377 0.035652 0.000000 
0.058186 -0.004525 0.000000 
0.114311 0.011141 0.000000 
0.137056 -0.042507 0.000000 
0.186430 -0.039980 0.000000 
0.029568 0.136706 0.000000 
0.058945 0.098586 0.000000 
0.116563 0.118232 0.000000 
0.143120 0.070963 0.000000 
0.196633 0.079672 0.000000 
0.217198 0.022376 0.000000 
0.265318 0.023175 0.000000 
0.029759 0.237761 0.000000 
0.059328 0.200695 0.000000 
0.117890 0.223400 0.000000 
0.145749 0.179058 0.000000 
0.201664 0.192532 0.000000 
0.225992 0.140415 0.000000 
0.278030 0.146281 0.000000 
0.296791 0.086338 0.000000 
0.344206 0.086331 0.000000 
VECTORS X_EC float 
0.338794 0.823504 0.000000 
-0.609100 -0.095245 0.000000 
0.713312 0.015896 0.000000 
0.374519 -0.603534 0.000000 
0.423588 -0.960264 0.000000 
-0.218274 -0.926161 0.000000 
-0.513962 0.349601 0.000000 
0.756418 0.561087 0.000000 
0.381900 0.018694 0.000000 
-0.550868 0.187133 0.000000 
0.823577 0.197928 0.000000 
0.556234 -0.575576 0.000000 
-0.139443 -0.458007 0.000000 
-0.484677 0.903868 0.000000 
0.766286 -0.830916 0.000000 
0.384386 0.654463 0.000000 
0.474677 -0.665470 0.000000 
-0.141715 -0.665567 0.000000 
-0.385608 0.525205 0.000000 
0.937896 0.604400 0.000000 
0.621631 -0.099180 0.000000 
-0.105264 0.082720 0.000000 
-0.467428 -0.515907 0.000000 
0.771260 -0.209378 0.000000 
0.386873 -0.709768 0.000000 
0.761262 -0.626362 0.000000 
0.108942 -0.344985 0.000000 
-0.397202 -0.825825 0.000000 
-0.142083 0.512900 0.000000 
-0.595936 -0.045875 0.000000 
0.978194 -0.545741 0.000000 
-0.660903 0.762634 0.000000 
0.724964 0.302114 0.000000 
0.899809 -0.340134 0.000000 
0.685384 0.255177 0.000000 
0.287229 -0.245981 0.000000 
0.702895 -0.945309 0.000000 
0.180633 0.563172 0.000000 
0.445811 -0.114988 0.000000 
-0.220880 -0.557774 0.000000 
-0.071546 0.811301 0.000000 
-0.033296 0.556230 0.000000 
-0.417537 0.055720 0.000000 
0.039645 -0.646842 0.000000 
-0.441768 0.853286 0.000000 
-0.109248 0.157836 0.000000 
-0.699407 -0.318920 0.000000 
-0.474522 -0.986199 0.000000 
0.820030 0.586808 0.000000 
0.957100 -0.037264 0.000000 
0.610485 0.059644 0.000000 
-0.761092 -0.670736 0.000000 
-0.714655 0.618526 0.000000 
-0.057734 0.413359 0.000000 
-0.178789 0.567268 0.000000 
-0.067979 -0.090158 0.000000 
0.677748 -0.228362 0.000000 
0.641556 0.985893 0.000000 
-0.765897 0.727415 0.000000 
0.393446 -0.204723 0.000000 
0.522510 -0.840453 0.000000 
-0.691820 -0.938997 0.000000 
-0.647393 0.330520 0.000000 
0.028512 0.122994 0.000000 
-0.053800 -0.694367 0.000000 
0.514316 -0.966498 0.000000 
0.965681 -0.976714 0.000000 
-0.897068 0.399257 0.000000 
-0.083078 0.332404 0.000000 
-0.006893 -0.370120 0.000000 
0.724017 -0.533753 0.000000 
0.714996 0.689843 0.000000 
-0.642413 0.456386 0.000000 
-0.760780 -0.382595 0.000000 
-0.205471 -0.660410 0.000000 
0.000000 0.364946 0.000000 
-0.564049 -0.333241 0.000000 
0.000000 -0.738677 0.000000 
0.564049 -0.333241 0.000000 
0.866949 0.911414 0.000000 
-0.569003 0.591483 0.000000 
0.000000 -0.889229 0.000000 
0.569003 0.591483 0.000000 
-0.866949 0.911414 0.000000 
0.299194 0.141664 0.000000 
0.858290 -0.149920 0.000000 
-0.577662 0.426526 0.000000 
0.000000 0.007148 0.000000 
0.577662 0.426526 0.000000 
-0.858290 -0.149920 0.000000 
-0.299194 0.141664 0.000000 
-0.268560 -0.628086 0.000000 
0.286830 -0.905727 0.000000 
0.844677 -0.286529 0.000000 
-0.578910 -0.662692 0.000000 
0.000000 -0.171288 0.000000 
0.578910 -0.662692 0.000000 
-0.844677 -0.286529 0.000000 
-0.286830 -0.905727 0.000000 
0.268560 -0.628086 0.000000 
-0.610485 0.059644 0.000000 
0.057734 0.413359 0.000000 
0.714655 0.618526 0.000000 
0.761092 -0.670736 0.000000 
0.765897 0.727415 0.000000 
-0.641556 0.985893 0.000000 
-0.677748 -0.228362 0.000000 
0.067979 -0.090158 0.000000 
0.178789 0.567268 0.000000 
-0.514316 -0.966498 0.000000 
0.053800 -0.694367 0.000000 
-0.028512 0.122994 0.000000 
0.647393 0.330520 0.000000 
0.691820 -0.938997 0.000000 
-0.522510 -0.840453 0.000000 
-0.393446 -0.204723 0.000000 
0.205471 -0.660410 0.000000 
0.760780 -0.382595 0.000000 
0.642413 0.456386 0.000000 
-0.714996 0.689843 0.000000 
-0.724017 -0.533753 0.000000 
0.006894 -0.370120 0.000000 
0.083078 0.332404 0.000000 
0.897068 0.399257 0.000000 
-0.965681 -0.976714 0.000000 
-0.761262 -0.626362 0.000000 
0.142083 0.512900 0.000000 
0.397202 -0.825825 0.000000 
-0.108942 -0.344985 0.000000 
-0.899809 -0.340134 0.000000 
-0.724964 0.302114 0.000000 
0.660903 0.762634 0.000000 
-0.978194 -0.545741 0.000000 
0.595936 -0.045875 0.000000 
0.071546 0.811301 0.000000 
0.220880 -0.557774 0.000000 
-0.445811 -0.114988 0.000000 
-0.180633 0.563172 0.000000 
-0.702895 -0.945309 0.000000 
-0.287229 -0.245981 0.000000 
-0.685384 0.255177 0.000000 
-0.957100 -0.037264 0.000000 
-0.820030 0.586808 0.000000 
0.474522 -0.986199 0.000000 
0.699407 -0.318920 0.000000 
0.109248 0.157836 0.000000 
0.441768 0.853286 0.000000 
-0.039645 -0.646842 0.000000 
0.417537 0.055720 0.000000 
0.033296 0.556230 0.000000 
-0.338794 0.823504 0.000000 
-0.374519 -0.603534 0.000000 
-0.713312 0.015896 0.000000 
0.609100 -0.095245 0.000000 
-0.381900 0.018694 0.000000 
-0.756418 0.561087 0.000000 
0.513962 0.349601 0.000000 
0.218274 -0.926161 0.000000 
-0.423588 -0.960264 0.000000 
-0.384386 0.654463 0.000000 
-0.766286 -0.830916 0.000000 
0.484677 0.903868 0.000000 
0.139443 -0.458007 0.000000 
-0.556234 -0.575576 0.000000 
-0.823577 0.197928 0.000000 
0.550868 0.187133 0.000000 
-0.386873 -0.709768 0.000000 
-0.771260 -0.209378 0.000000 
0.467428 -0.515907 0.000000 
0.105264 0.082720 0.000000 
-0.621631 -0.099180 0.000000 
-0.937896 0.604400 0.000000 
0.385608 0.525205 0.000000 
0.141715 -0.665567 0.000000 
-0.474677 -0.665470 0.000000 
CELL_DATA 175 
SCALARS MASS float 
LOOKUP_TABLE default 
0.078183 
0.086427 
0.094672 
0.086427 
0.088131 
0.092111 
0.085854 
0.092111 
0.088131 
0.088705 
0.091000 
0.086983 
0.091556 
0.086983 
0.091000 
0.088705 
0.089278 
0.091574 
0.089278 
0.092722 
0.089278 
0.092722 
0.089278 
0.091574 
0.089278 
0.078183 
0.086427 
0.094672 
0.086427 
0.088131 
0.092111 
0.085854 
0.092111 
0.088131 
0.088705 
0.091000 
0.086983 
0.091556 
0.086983 
0.091000 
0.088705 
0.089278 
0.091574 
0.089278 
0.092722 
0.089278 
0.092722 
0.089278 
0.091574 
0.089278 
0.078183 
0.086427 
0.094672 
0.086427 
0.088131 
0.092111 
0.085854 
0.092111 
0.088131 
0.088705 
0.091000 
0.086983 
0.091556 
0.086983 
0.091000 
0.088705 
0.089278 
0.091574 
0.089278 
0.092722 
0.089278 
0.092722 
0.089278 
0.091574 
0.089278 
0.078183 
0.086427 
0.094672 
0.086427 
0.088131 
0.092111 
0.085854 
0.092111 
0.088131 
0.088705 
0.091000 
0.086983 
0.091556 
0.086983 
0.091000 
0.088705 
0.089278 
0.091574 
0.089278 
0.092722 
0.089278 
0.092722 
0.089278 
0.091574 
0.089278 
0.078183 
0.086427 
0.094672 
0.086427 
0.088131 
0.092111 
0.085854 
0.092111 
0.088131 
0.088705 
0.091000 
0.086983 
0.091556 
0.086983 
0.091000 
0.088705 
0.089278 
0.091574 
0.089278 
0.092722 
0.089278 
0.092722 
0.089278 
0.091574 
0.089278 
0.078183 
0.086427 
0.094672 
0.086427 
0.088131 
0.092111 
0.085854 
0.092111 
0.088131 
0.088705 
0.091000 
0.086983 
0.091556 
0.086983 
0.091000 
0.088705 
0.089278 
0.091574 
0.089278 
0.092722 
0.089278 
0.092722 
0.089278 
0.091574 
0.089278 
0.078183 
0.086427 
0.094672 
0.086427 
0.088131 
0.092111 
0.085854 
0.092111 
0.088131 
0.088705 
0.091000 
0.086983 
0.091556 
0.086983 
0.091000 
0.088705 
0.089278 
0.091574 
0.089278 
0.092722 
0.089278 
0.092722 
0.089278 
0.091574 
0.089278 
SCALARS MASS float 
LOOKUP_TABLE default 
0.078183 
0.086427 
0.094672 
0.086427 
0.088131 
0.092111 
0.085854 
0.092111 
0.088131 
0.088705 
0.091000 
0.086983 
0.091556 
0.086983 
0.091000 
0.088705 
0.089278 
0.091574 
0.089278 
0.092722 
0.089278 
0.092722 
0.089278 
0.091574 
0.089278 
0.078183 
0.086427 
0.094672 
0.086427 
0.088131 
0.092111 
0.085854 
0.092111 
0.088131 
0.088705 
0.091000 
0.086983 
0.091556 
0.086983 
0.091000 
0.088705 
0.089278 
0.091574 
0.089278 
0.092722 
0.089278 
0.092722 
0.089278 
0.091574 
0.089278 
0.078183 
0.086427 
0.094672 
0.086427 
0.088131 
0.092111 
0.085854 
0.092111 
0.088131 
0.088705 
0.091000 
0.086983 
0.091556 
0.086983 
0.091000 
0.088705 
0.089278 
0.091574 
0.089278 
0.092722 
0.089278 
0.092722 
0.089278 
0.091574 
0.089278 
0.078183 
0.086427 
0.094672 
0.086427 
0.088131 
0.092111 
0.085854 
0.092111 
0.088131 
0.088705 
0.091000 
0.086983 
0.091556 
0.086983 
0.091000 
0.088705 
0.089278 
0.091574 
0.089278 
0.092722 
0.089278 
0.092722 
0.089278 
0.091574 
0.089278 
0.078183 
0.086427 
0.094672 
0.086427 
0.088131 
0.092111 
0.085854 
0.092111 
0.088131 
0.088705 
0.091000 
0.086983 
0.091556 
0.086983 
0.091000 
0.088705 
0.089278 
0.091574 
0.089278 
0.092722 
0.089278 
0.092722 
0.089278 
0.091574 
0.089278 
0.078183 
0.086427 
0.094672 
0.086427 
0.088131 
0.092111 
0.085854 
0.092111 
0.088131 
0.088705 
0.091000 
0.086983 
0.091556 
0.086983 
0.091000 
0.088705 
0.089278 
0.091574 
0.089278 
0.092722 
0.089278 
0.092722 
0.089278 
0.091574 
0.089278 
0.078183 
0.086427 
0.094672 
0.086427 
0.088131 
0.092111 
0.085854 
0.092111 
0.088131 
0.088705 
0.091000 
0.086983 
0.091556 
0.086983 
0.091000 
0.088705 
0.089278 
0.091574 
0.089278 
0.092722 
0.089278 
0.092722 
0.089278 
0.091574 
0.089278 
SCALARS DENSITY float 
LOOKUP_TABLE default 
20.000000 
20.000000 
20.000000 
20.000000 
20.000000 
20.000000 
20.000000 
20.000000 
20.000000 
20.000000 
20.000000 
20.000000 
20.000000 
20.000000 
20.000000 
20.000000 
20.000000 
20.000000 
20.000000 
20.000000 
20.000000 
20.000000 
20.000000 
20.000000 
20.000000 
20.000000 
20.000000 
20.000000 
20.000000 
20.000000 
20.000000 
20.000000 
20.000000 
20.000000 
20.000000 
20.000000 
20.000000 
20.000000 
20.000000 
20.000000 
20.000000 
20.000000 
20.000000 
20.000000 
20.000000 
20.000000 
20.000000 
20.000000 
20.000000 
20.000000 
20.000000 
20.000000 
20.000000 
20.000000 
20.000000 
20.000000 
20.000000 
20.000000 
20.000000 
20.000000 
20.000000 
20.000000 
20.000000 
20.000000 
20.000000 
20.000000 
20.000000 
20.000000 
20.000000 
20.000000 
20.000000 
20.000000 
20.000000 
20.000000 
20.000000 
20.000000 
20.000000 
20.000000 
20.000000 
20.000000 
20.000000 
20.000000 
20.000000 
20.000000 
20.000000 
20.000000 
20.000000 
20.000000 
20.000000 
20.000000 
20.000000 
20.000000 
20.000000 
20.000000 
20.000000 
20.000000 
20.000000 
20.000000 
20.000000 
20.000000 
20.000000 
20.000000 
20.000000 
20.000000 
20.000000 
20.000000 
20.000000 
20.000000 
20.000000 
20.000000 
20.000000 
20.000000 
20.000000 
20.000000 
20.000000 
20.000000 
20.000000 
20.000000 
20.000000 
20.000000 
20.000000 
20.000000 
20.000000 
20.000000 
20.000000 
20.000000 
20.000000 
20.000000 
20.000000 
20.000000 
20.000000 
20.000000 
20.000000 
20.000000 
20.000000 
20.000000 
20.000000 
20.000000 
20.000000 
20.000000 
20.000000 
20.000000 
20.000000 
20.000000 
20.000000 
20.000000 
20.000000 
20.000000 
20.000000 
20.000000 
20.000000 
20.000000 
20.000000 
20.000000 
20.000000 
20.000000 
20.000000 
20.000000 
20.000000 
20.000000 
20.000000 
20.000000 
20.000000 
20.000000 
20.000000 
20.000000 
20.000000 
20.000000 
20.000000 
20.000000 
20.000000 
20.000000 
20.000000 
20.000000 
20.000000 
SCALARS ELEM_i float 
LOOKUP_TABLE default 
181 
208 
181 
181 
208 
208 
209 
182 
182 
236 
209 
209 
209 
210 
182 
183 
236 
236 
237 
210 
210 
210 
210 
183 
183 
180 
207 
207 
208 
234 
207 
235 
208 
208 
234 
234 
234 
235 
235 
235 
236 
261 
261 
261 
262 
262 
262 
262 
236 
236 
180 
206 
207 
207 
206 
206 
206 
207 
234 
205 
205 
232 
233 
233 
233 
233 
204 
232 
232 
232 
232 
233 
260 
260 
260 
180 
179 
179 
179 
152 
179 
178 
179 
206 
151 
151 
178 
178 
178 
205 
205 
150 
150 
150 
177 
177 
177 
204 
204 
204 
180 
153 
153 
152 
126 
153 
152 
152 
152 
125 
125 
125 
125 
124 
151 
151 
98 
98 
98 
125 
124 
124 
124 
124 
150 
180 
154 
153 
153 
154 
154 
127 
153 
126 
128 
127 
127 
127 
126 
126 
126 
128 
128 
100 
100 
100 
100 
99 
99 
99 
181 
181 
181 
154 
182 
182 
155 
154 
154 
183 
182 
156 
155 
155 
155 
128 
183 
183 
156 
156 
156 
156 
129 
128 
128 
VECTORS VELOCITY float 
-0.000000 -2.106403 0.000000 
-0.000000 -2.106403 0.000000 
-0.000000 -2.106403 0.000000 
-0.000000 -2.106403 0.000000 
0.000000 -2.106403 0.000000 
0.000000 -2.106403 0.000000 
0.000000 -2.106403 0.000000 
0.000000 -2.106403 0.000000 
-0.000000 -2.106403 0.000000 
0.000000 -2.106403 0.000000 
0.000000 -2.106403 0.000000 
0.000000 -2.106403 0.000000 
0.000000 -2.106403 0.000000 
-0.000000 -2.106403 0.000000 
-0.000000 -2.106403 0.000000 
-0.000000 -2.106403 0.000000 
0.000000 -2.106403 0.000000 
0.000000 -2.106403 0.000000 
-0.000000 -2.106403 0.000000 
-0.000000 -2.106403 0.000000 
-0.000000 -2.106403 0.000000 
-0.000000 -2.106403 0.000000 
0.000000 -2.106403 0.000000 
-0.000000 -2.106403 0.000000 
0.000000 -2.106403 0.000000 
0.000000 -2.106403 0.000000 
-0.000000 -2.106403 0.000000 
-0.000000 -2.106403 0.000000 
-0.000000 -2.106403 0.000000 
-0.000000 -2.106403 0.000000 
-0.000000 -2.106403 0.000000 
-0.000000 -2.106403 0.000000 
-0.000000 -2.106403 0.000000 
0.000000 -2.106403 0.000000 
0.000000 -2.106403 0.000000 
-0.000000 -2.106403 0.000000 
0.000000 -2.106403 0.000000 
0.000000 -2.106403 0.000000 
0.000000 -2.106403 0.000000 
0.000000 -2.106403 0.000000 
0.000000 -2.106403 0.000000 
-0.000000 -2.106403 0.000000 
0.000000 -2.106403 0.000000 
-0.000000 -2.106403 0.000000 
-0.000000 -2.106403 0.000000 
-0.000000 -2.106403 0.000000 
0.000000 -2.106403 0.000000 
0.000000 -2.106403 0.000000 
0.000000 -2.106403 0.000000 
-0.000000 -2.106403 0.000000 
0.000000 -2.106403 0.000000 
0.000000 -2.106403 0.000000 
0.000000 -2.106403 0.000000 
0.000000 -2.106403 0.000000 
-0.000000 -2.106403 0.000000 
0.000000 -2.106403 0.000000 
0.000000 -2.106403 0.000000 
0.000000 -2.106403 0.000000 
-0.000000 -2.106403 0.000000 
-0.000000 -2.106403 0.000000 
-0.000000 -2.106403 0.000000 
-0.000000 -2.106403 0.000000 
-0.000000 -2.106403 0.000000 
0.000000 -2.106403 0.000000 
0.000000 -2.106403 0.000000 
0.000000 -2.106403 0.000000 
0.000000 -2.106403 0.000000 
0.000000 -2.106403 0.000000 
-0.000000 -2.106403 0.000000 
-0.000000 -2.106403 0.000000 
-0.000000 -2.106403 0.000000 
0.000000 -2.106403 0.000000 
-0.000000 -2.106403 0.000000 
0.000000 -2.106403 0.000000 
-0.000000 -2.106403 0.000000 
0.000000 -2.106403 0.000000 
0.000000 -2.106403 0.000000 
0.000000 -2.106403 0.000000 
0.000000 -2.106403 0.000000 
0.000000 -2.106403 0.000000 
0.000000 -2.106403 0.000000 
0.000000 -2.106403 0.000000 
0.000000 -2.106403 0.000000 
0.000000 -2.106403 0.000000 
0.000000 -2.106403 0.000000 
0.000000 -2.106403 0.000000 
-0.000000 -2.106403 0.000000 
-0.000000 -2.106403 0.000000 
-0.000000 -2.106403 0.000000 
-0.000000 -2.106403 0.000000 
-0.000000 -2.106403 0.000000 
-0.000000 -2.106403 0.000000 
-0.000000 -2.106403 0.000000 
0.000000 -2.106403 0.000000 
-0.000000 -2.106403 0.000000 
0.000000 -2.106403 0.000000 
-0.000000 -2.106403 0.000000 
-0.000000 -2.106403 0.000000 
-0.000000 -2.106403 0.000000 
-0.000000 -2.106403 0.000000 
-0.000000 -2.106403 0.000000 
-0.000000 -2.106403 0.000000 
-0.000000 -2.106403 0.000000 
-0.000000 -2.106403 0.000000 
0.000000 -2.106403 0.000000 
0.000000 -2.106403 0.000000 
0.000000 -2.106403 0.000000 
0.000000 -2.106403 0.000000 
0.000000 -2.106403 0.000000 
-0.000000 -2.106403 0.000000 
-0.000000 -2.106403 0.000000 
0.000000 -2.106403 0.000000 
0.000000 -2.106403 0.000000 
0.000000 -2.106403 0.000000 
0.000000 -2.106403 0.000000 
0.000000 -2.106403 0.000000 
-0.000000 -2.106403 0.000000 
-0.000000 -2.106403 0.000000 
-0.000000 -2.106403 0.000000 
0.000000 -2.106403 0.000000 
0.000000 -2.106403 0.000000 
0.000000 -2.106403 0.000000 
-0.000000 -2.106403 0.000000 
-0.000000 -2.106403 0.000000 
-0.000000 -2.106403 0.000000 
-0.000000 -2.106403 0.000000 
-0.000000 -2.106403 0.000000 
-0.000000 -2.106403 0.000000 
-0.000000 -2.106403 0.000000 
0.000000 -2.106403 0.000000 
-0.000000 -2.106403 0.000000 
-0.000000 -2.106403 0.000000 
-0.000000 -2.106403 0.000000 
-0.000000 -2.106403 0.000000 
0.000000 -2.106403 0.000000 
0.000000 -2.106403 0.000000 
0.000000 -2.106403 0.000000 
-0.000000 -2.106403 0.000000 
-0.000000 -2.106403 0.000000 
-0.000000 -2.106403 0.000000 
-0.000000 -2.106403 0.000000 
0.000000 -2.106403 0.000000 
0.000000 -2.106403 0.000000 
0.000000 -2.106403 0.000000 
-0.000000 -2.106403 0.000000 
-0.000000 -2.106403 0.000000 
0.000000 -2.106403 0.000000 
0.000000 -2.106403 0.000000 
0.000000 -2.106403 0.000000 
0.000000 -2.106403 0.000000 
-0.000000 -2.106403 0.000000 
-0.000000 -2.106403 0.000000 
-0.000000 -2.106403 0.000000 
-0.000000 -2.106403 0.000000 
-0.000000 -2.106403 0.000000 
-0.000000 -2.106403 0.000000 
-0.000000 -2.106403 0.000000 
0.000000 -2.106403 0.000000 
0.000000 -2.106403 0.000000 
-0.000000 -2.106403 0.000000 
-0.000000 -2.106403 0.000000 
-0.000000 -2.106403 0.000000 
-0.000000 -2.106403 0.000000 
0.000000 -2.106403 0.000000 
0.000000 -2.106403 0.000000 
0.000000 -2.106403 0.000000 
0.000000 -2.106403 0.000000 
-0.000000 -2.106403 0.000000 
0.000000 -2.106403 0.000000 
0.000000 -2.106403 0.000000 
0.000000 -2.106403 0.000000 
0.000000 -2.106403 0.000000 
-0.000000 -2.106403 0.000000 
0.000000 -2.106403 0.000000 
0.000000 -2.106403 0.000000 
TENSORS STRESS float 
-0.000000 0.000000 0.000000 
0.000000 0.000000 0.000000 
0.000000 0.000000 0.000000 

-0.000000 -0.000000 0.000000 
0.000000 0.000000 0.000000 
0.000000 0.000000 0.000000 

0.000000 0.000000 0.000000 
0.000000 0.000000 0.000000 
0.000000 0.000000 0.000000 

0.000000 0.000000 0.000000 
0.000000 0.000000 0.000000 
0.000000 0.000000 0.000000 

-0.000000 -0.000000 0.000000 
0.000000 0.000000 0.000000 
0.000000 0.000000 0.000000 

-0.000000 -0.000000 0.000000 
0.000000 0.000000 0.000000 
0.000000 0.000000 0.000000 

-0.000000 0.000000 0.000000 
0.000000 0.000000 0.000000 
0.000000 0.000000 0.000000 

0.000000 0.000000 0.000000 
0.000000 0.000000 0.000000 
0.000000 0.000000 0.000000 

0.000000 -0.000000 0.000000 
0.000000 0.000000 0.000000 
0.000000 0.000000 0.000000 

0.000000 0.000000 0.000000 
0.000000 -0.000000 0.000000 
0.000000 0.000000 0.000000 

-0.000000 -0.000000 0.000000 
0.000000 -0.000000 0.000000 
0.000000 0.000000 0.000000 

0.000000 0.000000 0.000000 
0.000000 -0.000000 0.000000 
0.000000 0.000000 0.000000 

0.000000 0.000000 0.000000 
0.000000 -0.000000 0.000000 
0.000000 0.000000 0.000000 

0.000000 0.000000 0.000000 
0.000000 -0.000000 0.000000 
0.000000 0.000000 0.000000 

0.000000 0.000000 0.000000 
0.000000 0.000000 0.000000 
0.000000 0.000000 0.000000 

-0.000000 0.000000 0.000000 
0.000000 -0.000000 0.000000 
0.000000 0.000000 0.000000 

0.000000 0.000000 0.000000 
0.000000 -0.000000 0.000000 
0.000000 0.000000 0.000000 

0.000000 0.000000 0.000000 
0.000000 -0.000000 0.000000 
0.000000 0.000000 0.000000 

0.000000 0.000000 0.000000 
0.000000 0.000000 0.000000 
0.000000 0.000000 0.000000 

0.000000 0.000000 0.000000 
0.000000 0.000000 0.000000 
0.000000 0.000000 0.000000 

0.000000 0.000000 0.000000 
0.000000 -0.000000 0.000000 
0.000000 0.000000 0.000000 

0.000000 -0.000000 0.000000 
0.000000 -0.000000 0.000000 
0.000000 0.000000 0.000000 

0.000000 0.000000 0.000000 
0.000000 0.000000 0.000000 
0.000000 0.000000 0.000000 

-0.000000 0.000000 0.000000 
0.000000 -0.000000 0.000000 
0.000000 0.000000 0.000000 

0.000000 -0.000000 0.000000 
0.000000 0.000000 0.000000 
0.000000 0.000000 0.000000 

-0.000000 0.000000 0.000000 
0.000000 0.000000 0.000000 
0.000000 0.000000 0.000000 

0.000000 -0.000000 0.000000 
0.000000 0.000000 0.000000 
0.000000 0.000000 0.000000 

0.000000 -0.000000 0.000000 
0.000000 0.000000 0.000000 
0.000000 0.000000 0.000000 

-0.000000 -0.000000 0.000000 
0.000000 0.000000 0.000000 
0.000000 0.000000 0.000000 

0.000000 -0.000000 0.000000 
0.000000 -0.000000 0.000000 
0.000000 0.000000 0.000000 

0.000000 -0.000000 0.000000 
0.000000 0.000000 0.000000 
0.000000 0.000000 0.000000 

0.000000 0.000000 0.000000 
0.000000 0.000000 0.000000 
0.000000 0.000000 0.000000 

-0.000000 0.000000 0.000000 
0.000000 0.000000 0.000000 
0.000000 0.000000 0.000000 

-0.000000 -0.000000 0.000000 
0.000000 0.000000 0.000000 
0.000000 0.000000 0.000000 

0.000000 -0.000000 0.000000 
0.000000 0.000000 0.000000 
0.000000 0.000000 0.000000 

0.000000 -0.000000 0.000000 
0.000000 0.000000 0.000000 
0.000000 0.000000 0.000000 

0.000000 -0.000000 0.000000 
0.000000 0.000000 0.000000 
0.000000 0.000000 0.000000 

0.000000 0.000000 0.000000 
0.000000 -0.000000 0.000000 
0.000000 0.000000 0.000000 

0.000000 0.000000 0.000000 
0.000000 -0.000000 0.000000 
0.000000 0.000000 0.000000 

0.000000 0.000000 0.000000 
0.000000 -0.000000 0.000000 
0.000000 0.000000 0.000000 

0.000000 0.000000 0.000000 
0.000000 -0.000000 0.000000 
0.000000 0.000000 0.000000 

0.000000 0.000000 0.000000 
0.000000 0.000000 0.000000 
0.000000 0.000000 0.000000 

0.000000 -0.000000 0.000000 
0.000000 0.000000 0.000000 
0.000000 0.000000 0.000000 

0.000000 -0.000000 0.000000 
0.000000 0.000000 0.000000 
0.000000 0.000000 0.000000 

-0.000000 -0.000000 0.000000 
0.000000 -0.000000 0.000000 
0.000000 0.000000 0.000000 

-0.000000 -0.000000 0.000000 
0.000000 -0.000000 0.000000 
0.000000 0.000000 0.000000 

0.000000 -0.000000 0.000000 
0.000000 -0.000000 0.000000 
0.000000 0.000000 0.000000 

0.000000 -0.000000 0.000000 
0.000000 0.000000 0.000000 
0.000000 0.000000 0.000000 

0.000000 0.000000 0.000000 
0.000000 -0.000000 0.000000 
0.000000 0.000000 0.000000 

0.000000 -0.000000 0.000000 
0.000000 -0.000000 0.000000 
0.000000 0.000000 0.000000 

-0.000000 -0.000000 0.000000 
0.000000 0.000000 0.000000 
0.000000 0.000000 0.000000 

0.000000 0.000000 0.000000 
0.000000 0.000000 0.000000 
0.000000 0.000000 0.000000 

0.000000 -0.000000 0.000000 
0.000000 0.000000 0.000000 
0.000000 0.000000 0.000000 

0.000000 -0.000000 0.000000 
0.000000 0.000000 0.000000 
0.000000 0.000000 0.000000 

0.000000 -0.000000 0.000000 
0.000000 0.000000 0.000000 
0.000000 0.000000 0.000000 

-0.000000 -0.000000 0.000000 
0.000000 -0.000000 0.000000 
0.000000 0.000000 0.000000 

-0.000000 0.000000 0.000000 
0.000000 0.000000 0.000000 
0.000000 0.000000 0.000000 

-0.000000 -0.000000 0.000000 
0.000000 -0.000000 0.000000 
0.000000 0.000000 0.000000 

0.000000 -0.000000 0.000000 
0.000000 0.000000 0.000000 
0.000000 0.000000 0.000000 

-0.000000 -0.000000 0.000000 
0.000000 -0.000000 0.000000 
0.000000 0.000000 0.000000 

0.000000 -0.000000 0.000000 
0.000000 0.000000 0.000000 
0.000000 0.000000 0.000000 

0.000000 -0.000000 0.000000 
0.000000 0.000000 0.000000 
0.000000 0.000000 0.000000 

0.000000 0.000000 0.000000 
0.000000 -0.000000 0.000000 
0.000000 0.000000 0.000000 

0.000000 -0.000000 0.000000 
0.000000 -0.000000 0.000000 
0.000000 0.000000 0.000000 

0.000000 -0.000000 0.000000 
0.000000 0.000000 0.000000 
0.000000 0.000000 0.000000 

0.000000 -0.000000 0.000000 
0.000000 0.000000 0.000000 
0.000000 0.000000 0.000000 

0.000000 -0.000000 0.000000 
0.000000 0.000000 0.000000 
0.000000 0.000000 0.000000 

0.000000 -0.000000 0.000000 
0.000000 -0.000000 0.000000 
0.000000 0.000000 0.000000 

-0.000000 0.000000 0.000000 
0.000000 -0.000000 0.000000 
0.000000 0.000000 0.000000 

0.000000 0.000000 0.000000 
0.000000 -0.000000 0.000000 
0.000000 0.000000 0.000000 

-0.000000 0.000000 0.000000 
0.000000 -0.000000 0.000000 
0.000000 0.000000 0.000000 

-0.000000 0.000000 0.000000 
0.000000 -0.000000 0.000000 
0.000000 0.000000 0.000000 

0.000000 -0.000000 0.000000 
0.000000 -0.000000 0.000000 
0.000000 0.000000 0.000000 

0.000000 -0.000000 0.000000 
0.000000 -0.000000 0.000000 
0.000000 0.000000 0.000000 

0.000000 -0.000000 0.000000 
0.000000 -0.000000 0.000000 
0.000000 0.000000 0.000000 

-0.000000 -0.000000 0.000000 
0.000000 0.000000 0.000000 
0.000000 0.000000 0.000000 

-0.000000 -0.000000 0.000000 
0.000000 0.000000 0.000000 
0.000000 0.000000 0.000000 

-0.000000 0.000000 0.000000 
0.000000 0.000000 0.000000 
0.000000 0.000000 0.000000 

-0.000000 0.000000 0.000000 
0.000000 0.000000 0.000000 
0.000000 0.000000 0.000000 

-0.000000 0.000000 0.000000 
0.000000 -0.000000 0.000000 
0.000000 0.000000 0.000000 

0.000000 0.000000 0.000000 
0.000000 0.000000 0.000000 
0.000000 0.000000 0.000000 

-0.000000 0.000000 0.000000 
0.000000 -0.000000 0.000000 
0.000000 0.000000 0.000000 

0.000000 0.000000 0.000000 
0.000000 0.000000 0.000000 
0.000000 0.000000 0.000000 

0.000000 -0.000000 0.000000 
0.000000 0.000000 0.000000 
0.000000 0.000000 0.000000 

-0.000000 0.000000 0.000000 
0.000000 -0.000000 0.000000 
0.000000 0.000000 0.000000 

0.000000 -0.000000 0.000000 
0.000000 0.000000 0.000000 
0.000000 0.000000 0.000000 

-0.000000 0.000000 0.000000 
0.000000 0.000000 0.000000 
0.000000 0.000000 0.000000 

-0.000000 0.000000 0.000000 
0.000000 -0.000000 0.000000 
0.000000 0.000000 0.000000 

-0.000000 0.000000 0.000000 
0.000000 -0.000000 0.000000 
0.000000 0.000000 0.000000 

0.000000 0.000000 0.000000 
0.000000 0.000000 0.000000 
0.000000 0.000000 0.000000 

-0.000000 -0.000000 0.000000 
0.000000 -0.000000 0.000000 
0.000000 0.000000 0.000000 

-0.000000 -0.000000 0.000000 
0.000000 -0.000000 0.000000 
0.000000 0.000000 0.000000 

-0.000000 -0.000000 0.000000 
0.000000 -0.000000 0.000000 
0.000000 0.000000 0.000000 

-0.000000 -0.000000 0.000000 
0.000000 -0.000000 0.000000 
0.000000 0.000000 0.000000 

-0.000000 0.000000 0.000000 
0.000000 -0.000000 0.000000 
0.000000 0.000000 0.000000 

0.000000 0.000000 0.000000 
0.000000 0.000000 0.000000 
0.000000 0.000000 0.000000 

0.000000 0.000000 0.000000 
0.000000 0.000000 0.000000 
0.000000 0.000000 0.000000 

0.000000 -0.000000 0.000000 
0.000000 0.000000 0.000000 
0.000000 0.000000 0.000000 

0.000000 0.000000 0.000000 
0.000000 0.000000 0.000000 
0.000000 0.000000 0.000000 

-0.000000 0.000000 0.000000 
0.000000 -0.000000 0.000000 
0.000000 0.000000 0.000000 

-0.000000 0.000000 0.000000 
0.000000 0.000000 0.000000 
0.000000 0.000000 0.000000 

-0.000000 0.000000 0.000000 
0.000000 -0.000000 0.000000 
0.000000 0.000000 0.000000 

-0.000000 0.000000 0.000000 
0.000000 -0.000000 0.000000 
0.000000 0.000000 0.000000 

-0.000000 0.000000 0.000000 
0.000000 0.000000 0.000000 
0.000000 0.000000 0.000000 

-0.000000 0.000000 0.000000 
0.000000 -0.000000 0.000000 
0.000000 0.000000 0.000000 

-0.000000 0.000000 0.000000 
0.000000 -0.000000 0.000000 
0.000000 0.000000 0.000000 

0.000000 0.000000 0.000000 
0.000000 0.000000 0.000000 
0.000000 0.000000 0.000000 

-0.000000 0.000000 0.000000 
0.000000 -0.000000 0.000000 
0.000000 0.000000 0.000000 

0.000000 0.000000 0.000000 
0.000000 0.000000 0.000000 
0.000000 0.000000 0.000000 

0.000000 0.000000 0.000000 
0.000000 0.000000 0.000000 
0.000000 0.000000 0.000000 

0.000000 -0.000000 0.000000 
0.000000 0.000000 0.000000 
0.000000 0.000000 0.000000 

-0.000000 0.000000 0.000000 
0.000000 0.000000 0.000000 
0.000000 0.000000 0.000000 

-0.000000 -0.000000 0.000000 
0.000000 0.000000 0.000000 
0.000000 0.000000 0.000000 

-0.000000 0.000000 0.000000 
0.000000 -0.000000 0.000000 
0.000000 0.000000 0.000000 

-0.000000 0.000000 0.000000 
0.000000 0.000000 0.000000 
0.000000 0.000000 0.000000 

-0.000000 -0.000000 0.000000 
0.000000 -0.000000 0.000000 
0.000000 0.000000 0.000000 

0.000000 0.000000 0.000000 
0.000000 0.000000 0.000000 
0.000000 0.000000 0.000000 

0.000000 -0.000000 0.000000 
0.000000 0.000000 0.000000 
0.000000 0.000000 0.000000 

-0.000000 0.000000 0.000000 
0.000000 0.000000 0.000000 
0.000000 0.000000 0.000000 

-0.000000 0.000000 0.000000 
0.000000 -0.000000 0.000000 
0.000000 0.000000 0.000000 

-0.000000 -0.000000 0.000000 
0.000000 -0.000000 0.000000 
0.000000 0.000000 0.000000 

0.000000 0.000000 0.000000 
0.000000 -0.000000 0.000000 
0.000000 0.000000 0.000000 

-0.000000 0.000000 0.000000 
0.000000 0.000000 0.000000 
0.000000 0.000000 0.000000 

-0.000000 0.000000 0.000000 
0.000000 -0.000000 0.000000 
0.000000 0.000000 0.000000 

0.000000 -0.000000 0.000000 
0.000000 0.000000 0.000000 
0.000000 0.000000 0.000000 

0.000000 0.000000 0.000000 
0.000000 0.000000 0.000000 
0.000000 0.000000 0.000000 

0.000000 -0.000000 0.000000 
0.000000 0.000000 0.000000 
0.000000 0.000000 0.000000 

0.000000 -0.000000 0.000000 
0.000000 0.000000 0.000000 
0.000000 0.000000 0.000000 

0.000000 0.000000 0.000000 
0.000000 0.000000 0.000000 
0.000000 0.000000 0.000000 

-0.000000 -0.000000 0.000000 
0.000000 -0.000000 0.000000 
0.000000 0.000000 0.000000 

-0.000000 -0.000000 0.000000 
0.000000 -0.000000 0.000000 
0.000000 0.000000 0.000000 

-0.000000 -0.000000 0.000000 
0.000000 -0.000000 0.000000 
0.000000 0.000000 0.000000 

0.000000 0.000000 0.000000 
0.000000 0.000000 0.000000 
0.000000 0.000000 0.000000 

0.000000 -0.000000 0.000000 
0.000000 0.000000 0.000000 
0.000000 0.000000 0.000000 

0.000000 0.000000 0.000000 
0.000000 0.000000 0.000000 
0.000000 0.000000 0.000000 

0.000000 0.000000 0.000000 
0.000000 0.000000 0.000000 
0.000000 0.000000 0.000000 

0.000000 -0.000000 0.000000 
0.000000 -0.000000 0.000000 
0.000000 0.000000 0.000000 

0.000000 0.000000 0.000000 
0.000000 -0.000000 0.000000 
0.000000 0.000000 0.000000 

0.000000 -0.000000 0.000000 
0.000000 0.000000 0.000000 
0.000000 0.000000 0.000000 

0.000000 -0.000000 0.000000 
0.000000 -0.000000 0.000000 
0.000000 0.000000 0.000000 

0.000000 -0.000000 0.000000 
0.000000 -0.000000 0.000000 
0.000000 0.000000 0.000000 

0.000000 0.000000 0.000000 
0.000000 0.000000 0.000000 
0.000000 0.000000 0.000000 

0.000000 -0.000000 0.000000 
0.000000 -0.000000 0.000000 
0.000000 0.000000 0.000000 

-0.000000 -0.000000 0.000000 
0.000000 -0.000000 0.000000 
0.000000 0.000000 0.000000 

0.000000 -0.000000 0.000000 
0.000000 0.000000 0.000000 
0.000000 0.000000 0.000000 

-0.000000 -0.000000 0.000000 
0.000000 0.000000 0.000000 
0.000000 0.000000 0.000000 

-0.000000 -0.000000 0.000000 
0.000000 -0.000000 0.000000 
0.000000 0.000000 0.000000 

-0.000000 -0.000000 0.000000 
0.000000 -0.000000 0.000000 
0.000000 0.000000 0.000000 

-0.000000 0.000000 0.000000 
0.000000 0.000000 0.000000 
0.000000 0.000000 0.000000 

0.000000 0.000000 0.000000 
0.000000 0.000000 0.000000 
0.000000 0.000000 0.000000 

-0.000000 0.000000 0.000000 
0.000000 0.000000 0.000000 
0.000000 0.000000 0.000000 

0.000000 0.000000 0.000000 
0.000000 0.000000 0.000000 
0.000000 0.000000 0.000000 

0.000000 0.000000 0.000000 
0.000000 0.000000 0.000000 
0.000000 0.000000 0.000000 

-0.000000 -0.000000 0.000000 
0.000000 -0.000000 0.000000 
0.000000 0.000000 0.000000 

0.000000 -0.000000 0.000000 
0.000000 0.000000 0.000000 
0.000000 0.000000 0.000000 

-0.000000 0.000000 0.000000 
0.000000 -0.000000 0.000000 
0.000000 0.000000 0.000000 

0.000000 -0.000000 0.000000 
0.000000 0.000000 0.000000 
0.000000 0.000000 0.000000 

0.000000 -0.000000 0.000000 
0.000000 -0.000000 0.000000 
0.000000 0.000000 0.000000 

0.000000 -0.000000 0.000000 
0.000000 0.000000 0.000000 
0.000000 0.000000 0.000000 

-0.000000 0.000000 0.000000 
0.000000 -0.000000 0.000000 
0.000000 0.000000 0.000000 

0.000000 0.000000 0.000000 
0.000000 0.000000 0.000000 
0.000000 0.000000 0.000000 

-0.000000 0.000000 0.000000 
0.000000 -0.000000 0.000000 
0.000000 0.000000 0.000000 

0.000000 -0.000000 0.000000 
0.000000 0.000000 0.000000 
0.000000 0.000000 0.000000 

0.000000 0.000000 0.000000 
0.000000 -0.000000 0.000000 
0.000000 0.000000 0.000000 

0.000000 -0.000000 0.000000 
0.000000 0.000000 0.000000 
0.000000 0.000000 0.000000 

0.000000 -0.000000 0.000000 
0.000000 0.000000 0.000000 
0.000000 0.000000 0.000000 

-0.000000 0.000000 0.000000 
0.000000 -0.000000 0.000000 
0.000000 0.000000 0.000000 

0.000000 0.000000 0.000000 
0.000000 0.000000 0.000000 
0.000000 0.000000 0.000000 

-0.000000 0.000000 0.000000 
0.000000 -0.000000 0.000000 
0.000000 0.000000 0.000000 

-0.000000 0.000000 0.000000 
0.000000 -0.000000 0.000000 
0.000000 0.000000 0.000000 

-0.000000 -0.000000 0.000000 
0.000000 -0.000000 0.000000 
0.000000 0.000000 0.000000 

-0.000000 -0.000000 0.000000 
0.000000 -0.000000 0.000000 
0.000000 0.000000 0.000000 

-0.000000 -0.000000 0.000000 
0.000000 -0.000000 0.000000 
0.000000 0.000000 0.000000 

0.000000 -0.000000 0.000000 
0.000000 0.000000 0.000000 
0.000000 0.000000 0.000000 

0.000000 -0.000000 0.000000 
0.000000 0.000000 0.000000 
0.000000 0.000000 0.000000 

TENSORS STRAIN float 
-0.000000 0.000000 0.000000 
0.000000 0.000000 0.000000 
0.000000 0.000000 0.000000 

-0.000000 -0.000000 0.000000 
0.000000 0.000000 0.000000 
0.000000 0.000000 0.000000 

-0.000000 0.000000 0.000000 
0.000000 0.000000 0.000000 
0.000000 0.000000 0.000000 

0.000000 0.000000 0.000000 
0.000000 0.000000 0.000000 
0.000000 0.000000 0.000000 

-0.000000 -0.000000 0.000000 
0.000000 0.000000 0.000000 
0.000000 0.000000 0.000000 

-0.000000 -0.000000 0.000000 
0.000000 0.000000 0.000000 
0.000000 0.000000 0.000000 

-0.000000 0.000000 0.000000 
0.000000 0.000000 0.000000 
0.000000 0.000000 0.000000 

0.000000 0.000000 0.000000 
0.000000 0.000000 0.000000 
0.000000 0.000000 0.000000 

0.000000 -0.000000 0.000000 
0.000000 0.000000 0.000000 
0.000000 0.000000 0.000000 

0.000000 0.000000 0.000000 
0.000000 -0.000000 0.000000 
0.000000 0.000000 0.000000 

-0.000000 -0.000000 0.000000 
0.000000 -0.000000 0.000000 
0.000000 0.000000 0.000000 

0.000000 0.000000 0.000000 
0.000000 -0.000000 0.000000 
0.000000 0.000000 0.000000 

0.000000 0.000000 0.000000 
0.000000 -0.000000 0.000000 
0.000000 0.000000 0.000000 

0.000000 0.000000 0.000000 
0.000000 -0.000000 0.000000 
0.000000 0.000000 0.000000 

0.000000 0.000000 0.000000 
0.000000 0.000000 0.000000 
0.000000 0.000000 0.000000 

0.000000 0.000000 0.000000 
0.000000 -0.000000 0.000000 
0.000000 0.000000 0.000000 

0.000000 0.000000 0.000000 
0.000000 -0.000000 0.000000 
0.000000 0.000000 0.000000 

0.000000 0.000000 0.000000 
0.000000 -0.000000 0.000000 
0.000000 0.000000 0.000000 

0.000000 0.000000 0.000000 
0.000000 0.000000 0.000000 
0.000000 0.000000 0.000000 

0.000000 0.000000 0.000000 
0.000000 0.000000 0.000000 
0.000000 0.000000 0.000000 

0.000000 0.000000 0.000000 
0.000000 -0.000000 0.000000 
0.000000 0.000000 0.000000 

0.000000 -0.000000 0.000000 
0.000000 -0.000000 0.000000 
0.000000 0.000000 0.000000 

0.000000 0.000000 0.000000 
0.000000 0.000000 0.000000 
0.000000 0.000000 0.000000 

0.000000 0.000000 0.000000 
0.000000 -0.000000 0.000000 
0.000000 0.000000 0.000000 

0.000000 -0.000000 0.000000 
0.000000 0.000000 0.000000 
0.000000 0.000000 0.000000 

-0.000000 0.000000 0.000000 
0.000000 0.000000 0.000000 
0.000000 0.000000 0.000000 

0.000000 -0.000000 0.000000 
0.000000 0.000000 0.000000 
0.000000 0.000000 0.000000 

0.000000 -0.000000 0.000000 
0.000000 0.000000 0.000000 
0.000000 0.000000 0.000000 

-0.000000 -0.000000 0.000000 
0.000000 0.000000 0.000000 
0.000000 0.000000 0.000000 

0.000000 -0.000000 0.000000 
0.000000 -0.000000 0.000000 
0.000000 0.000000 0.000000 

0.000000 -0.000000 0.000000 
0.000000 0.000000 0.000000 
0.000000 0.000000 0.000000 

0.000000 0.000000 0.000000 
0.000000 -0.000000 0.000000 
0.000000 0.000000 0.000000 

-0.000000 0.000000 0.000000 
0.000000 0.000000 0.000000 
0.000000 0.000000 0.000000 

-0.000000 -0.000000 0.000000 
0.000000 0.000000 0.000000 
0.000000 0.000000 0.000000 

0.000000 -0.000000 0.000000 
0.000000 0.000000 0.000000 
0.000000 0.000000 0.000000 

0.000000 -0.000000 0.000000 
0.000000 0.000000 0.000000 
0.000000 0.000000 0.000000 

0.000000 -0.000000 0.000000 
0.000000 0.000000 0.000000 
0.000000 0.000000 0.000000 

0.000000 0.000000 0.000000 
0.000000 -0.000000 0.000000 
0.000000 0.000000 0.000000 

0.000000 0.000000 0.000000 
0.000000 -0.000000 0.000000 
0.000000 0.000000 0.000000 

0.000000 0.000000 0.000000 
0.000000 -0.000000 0.000000 
0.000000 0.000000 0.000000 

0.000000 0.000000 0.000000 
0.000000 -0.000000 0.000000 
0.000000 0.000000 0.000000 

0.000000 0.000000 0.000000 
0.000000 0.000000 0.000000 
0.000000 0.000000 0.000000 

0.000000 -0.000000 0.000000 
0.000000 0.000000 0.000000 
0.000000 0.000000 0.000000 

-0.000000 -0.000000 0.000000 
0.000000 0.000000 0.000000 
0.000000 0.000000 0.000000 

-0.000000 -0.000000 0.000000 
0.000000 -0.000000 0.000000 
0.000000 0.000000 0.000000 

0.000000 -0.000000 0.000000 
0.000000 -0.000000 0.000000 
0.000000 0.000000 0.000000 

0.000000 -0.000000 0.000000 
0.000000 -0.000000 0.000000 
0.000000 0.000000 0.000000 

-0.000000 -0.000000 0.000000 
0.000000 0.000000 0.000000 
0.000000 0.000000 0.000000 

0.000000 0.000000 0.000000 
0.000000 -0.000000 0.000000 
0.000000 0.000000 0.000000 

0.000000 -0.000000 0.000000 
0.000000 -0.000000 0.000000 
0.000000 0.000000 0.000000 

-0.000000 -0.000000 0.000000 
0.000000 0.000000 0.000000 
0.000000 0.000000 0.000000 

-0.000000 0.000000 0.000000 
0.000000 0.000000 0.000000 
0.000000 0.000000 0.000000 

0.000000 -0.000000 0.000000 
0.000000 0.000000 0.000000 
0.000000 0.000000 0.000000 

0.000000 -0.000000 0.000000 
0.000000 0.000000 0.000000 
0.000000 0.000000 0.000000 

-0.000000 -0.000000 0.000000 
0.000000 0.000000 0.000000 
0.000000 0.000000 0.000000 

-0.000000 -0.000000 0.000000 
0.000000 -0.000000 0.000000 
0.000000 0.000000 0.000000 

-0.000000 0.000000 0.000000 
0.000000 0.000000 0.000000 
0.000000 0.000000 0.000000 

0.000000 -0.000000 0.000000 
0.000000 -0.000000 0.000000 
0.000000 0.000000 0.000000 

0.000000 -0.000000 0.000000 
0.000000 0.000000 0.000000 
0.000000 0.000000 0.000000 

-0.000000 -0.000000 0.000000 
0.000000 -0.000000 0.000000 
0.000000 0.000000 0.000000 

-0.000000 -0.000000 0.000000 
0.000000 0.000000 0.000000 
0.000000 0.000000 0.000000 

0.000000 -0.000000 0.000000 
0.000000 0.000000 0.000000 
0.000000 0.000000 0.000000 

0.000000 0.000000 0.000000 
0.000000 -0.000000 0.000000 
0.000000 0.000000 0.000000 

0.000000 -0.000000 0.000000 
0.000000 -0.000000 0.000000 
0.000000 0.000000 0.000000 

0.000000 -0.000000 0.000000 
0.000000 -0.000000 0.000000 
0.000000 0.000000 0.000000 

0.000000 -0.000000 0.000000 
0.000000 0.000000 0.000000 
0.000000 0.000000 0.000000 

-0.000000 -0.000000 0.000000 
0.000000 0.000000 0.000000 
0.000000 0.000000 0.000000 

0.000000 -0.000000 0.000000 
0.000000 -0.000000 0.000000 
0.000000 0.000000 0.000000 

0.000000 0.000000 0.000000 
0.000000 -0.000000 0.000000 
0.000000 0.000000 0.000000 

0.000000 0.000000 0.000000 
0.000000 -0.000000 0.000000 
0.000000 0.000000 0.000000 

0.000000 0.000000 0.000000 
0.000000 -0.000000 0.000000 
0.000000 0.000000 0.000000 

0.000000 0.000000 0.000000 
0.000000 -0.000000 0.000000 
0.000000 0.000000 0.000000 

0.000000 -0.000000 0.000000 
0.000000 -0.000000 0.000000 
0.000000 0.000000 0.000000 

0.000000 -0.000000 0.000000 
0.000000 -0.000000 0.000000 
0.000000 0.000000 0.000000 

0.000000 -0.000000 0.000000 
0.000000 -0.000000 0.000000 
0.000000 0.000000 0.000000 

-0.000000 -0.000000 0.000000 
0.000000 0.000000 0.000000 
0.000000 0.000000 0.000000 

-0.000000 -0.000000 0.000000 
0.000000 0.000000 0.000000 
0.000000 0.000000 0.000000 

-0.000000 0.000000 0.000000 
0.000000 0.000000 0.000000 
0.000000 0.000000 0.000000 

-0.000000 0.000000 0.000000 
0.000000 0.000000 0.000000 
0.000000 0.000000 0.000000 

-0.000000 0.000000 0.000000 
0.000000 -0.000000 0.000000 
0.000000 0.000000 0.000000 

-0.000000 0.000000 0.000000 
0.000000 0.000000 0.000000 
0.000000 0.000000 0.000000 

-0.000000 0.000000 0.000000 
0.000000 -0.000000 0.000000 
0.000000 0.000000 0.000000 

-0.000000 0.000000 0.000000 
0.000000 0.000000 0.000000 
0.000000 0.000000 0.000000 

0.000000 -0.000000 0.000000 
0.000000 0.000000 0.000000 
0.000000 0.000000 0.000000 

-0.000000 0.000000 0.000000 
0.000000 -0.000000 0.000000 
0.000000 0.000000 0.000000 

-0.000000 -0.000000 0.000000 
0.000000 0.000000 0.000000 
0.000000 0.000000 0.000000 

-0.000000 0.000000 0.000000 
0.000000 0.000000 0.000000 
0.000000 0.000000 0.000000 

-0.000000 0.000000 0.000000 
0.000000 -0.000000 0.000000 
0.000000 0.000000 0.000000 

-0.000000 0.000000 0.000000 
0.000000 -0.000000 0.000000 
0.000000 0.000000 0.000000 

-0.000000 0.000000 0.000000 
0.000000 0.000000 0.000000 
0.000000 0.000000 0.000000 

-0.000000 -0.000000 0.000000 
0.000000 -0.000000 0.000000 
0.000000 0.000000 0.000000 

-0.000000 -0.000000 0.000000 
0.000000 -0.000000 0.000000 
0.000000 0.000000 0.000000 

-0.000000 -0.000000 0.000000 
0.000000 -0.000000 0.000000 
0.000000 0.000000 0.000000 

0.000000 -0.000000 0.000000 
0.000000 -0.000000 0.000000 
0.000000 0.000000 0.000000 

-0.000000 0.000000 0.000000 
0.000000 -0.000000 0.000000 
0.000000 0.000000 0.000000 

0.000000 0.000000 0.000000 
0.000000 0.000000 0.000000 
0.000000 0.000000 0.000000 

-0.000000 0.000000 0.000000 
0.000000 0.000000 0.000000 
0.000000 0.000000 0.000000 

-0.000000 -0.000000 0.000000 
0.000000 0.000000 0.000000 
0.000000 0.000000 0.000000 

-0.000000 0.000000 0.000000 
0.000000 0.000000 0.000000 
0.000000 0.000000 0.000000 

-0.000000 0.000000 0.000000 
0.000000 -0.000000 0.000000 
0.000000 0.000000 0.000000 

-0.000000 0.000000 0.000000 
0.000000 0.000000 0.000000 
0.000000 0.000000 0.000000 

-0.000000 0.000000 0.000000 
0.000000 0.000000 0.000000 
0.000000 0.000000 0.000000 

-0.000000 0.000000 0.000000 
0.000000 0.000000 0.000000 
0.000000 0.000000 0.000000 

-0.000000 0.000000 0.000000 
0.000000 0.000000 0.000000 
0.000000 0.000000 0.000000 

0.000000 0.000000 0.000000 
0.000000 -0.000000 0.000000 
0.000000 0.000000 0.000000 

-0.000000 0.000000 0.000000 
0.000000 -0.000000 0.000000 
0.000000 0.000000 0.000000 

-0.000000 0.000000 0.000000 
0.000000 0.000000 0.000000 
0.000000 0.000000 0.000000 

-0.000000 0.000000 0.000000 
0.000000 -0.000000 0.000000 
0.000000 0.000000 0.000000 

-0.000000 0.000000 0.000000 
0.000000 0.000000 0.000000 
0.000000 0.000000 0.000000 

0.000000 0.000000 0.000000 
0.000000 0.000000 0.000000 
0.000000 0.000000 0.000000 

-0.000000 -0.000000 0.000000 
0.000000 0.000000 0.000000 
0.000000 0.000000 0.000000 

-0.000000 0.000000 0.000000 
0.000000 0.000000 0.000000 
0.000000 0.000000 0.000000 

-0.000000 -0.000000 0.000000 
0.000000 0.000000 0.000000 
0.000000 0.000000 0.000000 

-0.000000 0.000000 0.000000 
0.000000 -0.000000 0.000000 
0.000000 0.000000 0.000000 

-0.000000 0.000000 0.000000 
0.000000 0.000000 0.000000 
0.000000 0.000000 0.000000 

-0.000000 -0.000000 0.000000 
0.000000 -0.000000 0.000000 
0.000000 0.000000 0.000000 

0.000000 0.000000 0.000000 
0.000000 -0.000000 0.000000 
0.000000 0.000000 0.000000 

0.000000 -0.000000 0.000000 
0.000000 0.000000 0.000000 
0.000000 0.000000 0.000000 

-0.000000 0.000000 0.000000 
0.000000 0.000000 0.000000 
0.000000 0.000000 0.000000 

-0.000000 0.000000 0.000000 
0.000000 -0.000000 0.000000 
0.000000 0.000000 0.000000 

-0.000000 -0.000000 0.000000 
0.000000 -0.000000 0.000000 
0.000000 0.000000 0.000000 

0.000000 0.000000 0.000000 
0.000000 -0.000000 0.000000 
0.000000 0.000000 0.000000 

-0.000000 0.000000 0.000000 
0.000000 0.000000 0.000000 
0.000000 0.000000 0.000000 

-0.000000 0.000000 0.000000 
0.000000 -0.000000 0.000000 
0.000000 0.000000 0.000000 

-0.000000 -0.000000 0.000000 
0.000000 0.000000 0.000000 
0.000000 0.000000 0.000000 

-0.000000 0.000000 0.000000 
0.000000 0.000000 0.000000 
0.000000 0.000000 0.000000 

-0.000000 -0.000000 0.000000 
0.000000 0.000000 0.000000 
0.000000 0.000000 0.000000 

-0.000000 -0.000000 0.000000 
0.000000 0.000000 0.000000 
0.000000 0.000000 0.000000 

-0.000000 0.000000 0.000000 
0.000000 0.000000 0.000000 
0.000000 0.000000 0.000000 

0.000000 -0.000000 0.000000 
0.000000 -0.000000 0.000000 
0.000000 0.000000 0.000000 

-0.000000 -0.000000 0.000000 
0.000000 -0.000000 0.000000 
0.000000 0.000000 0.000000 

0.000000 -0.000000 0.000000 
0.000000 -0.000000 0.000000 
0.000000 0.000000 0.000000 

-0.000000 0.000000 0.000000 
0.000000 0.000000 0.000000 
0.000000 0.000000 0.000000 

0.000000 -0.000000 0.000000 
0.000000 0.000000 0.000000 
0.000000 0.000000 0.000000 

0.000000 0.000000 0.000000 
0.000000 0.000000 0.000000 
0.000000 0.000000 0.000000 

0.000000 0.000000 0.000000 
0.000000 0.000000 0.000000 
0.000000 0.000000 0.000000 

0.000000 -0.000000 0.000000 
0.000000 -0.000000 0.000000 
0.000000 0.000000 0.000000 

0.000000 0.000000 0.000000 
0.000000 -0.000000 0.000000 
0.000000 0.000000 0.000000 

0.000000 -0.000000 0.000000 
0.000000 -0.000000 0.000000 
0.000000 0.000000 0.000000 

0.000000 -0.000000 0.000000 
0.000000 -0.000000 0.000000 
0.000000 0.000000 0.000000 

0.000000 -0.000000 0.000000 
0.000000 -0.000000 0.000000 
0.000000 0.000000 0.000000 

0.000000 0.000000 0.000000 
0.000000 0.000000 0.000000 
0.000000 0.000000 0.000000 

0.000000 -0.000000 0.000000 
0.000000 -0.000000 0.000000 
0.000000 0.000000 0.000000 

-0.000000 -0.000000 0.000000 
0.000000 -0.000000 0.000000 
0.000000 0.000000 0.000000 

-0.000000 -0.000000 0.000000 
0.000000 0.000000 0.000000 
0.000000 0.000000 0.000000 

-0.000000 -0.000000 0.000000 
0.000000 0.000000 0.000000 
0.000000 0.000000 0.000000 

-0.000000 -0.000000 0.000000 
0.000000 0.000000 0.000000 
0.000000 0.000000 0.000000 

-0.000000 -0.000000 0.000000 
0.000000 -0.000000 0.000000 
0.000000 0.000000 0.000000 

-0.000000 0.000000 0.000000 
0.000000 0.000000 0.000000 
0.000000 0.000000 0.000000 

0.000000 0.000000 0.000000 
0.000000 0.000000 0.000000 
0.000000 0.000000 0.000000 

-0.000000 0.000000 0.000000 
0.000000 0.000000 0.000000 
0.000000 0.000000 0.000000 

0.000000 0.000000 0.000000 
0.000000 -0.000000 0.000000 
0.000000 0.000000 0.000000 

-0.000000 0.000000 0.000000 
0.000000 0.000000 0.000000 
0.000000 0.000000 0.000000 

0.000000 -0.000000 0.000000 
0.000000 -0.000000 0.000000 
0.000000 0.000000 0.000000 

0.000000 -0.000000 0.000000 
0.000000 0.000000 0.000000 
0.000000 0.000000 0.000000 

0.000000 0.000000 0.000000 
0.000000 -0.000000 0.000000 
0.000000 0.000000 0.000000 

0.000000 -0.000000 0.000000 
0.000000 0.000000 0.000000 
0.000000 0.000000 0.000000 

0.000000 -0.000000 0.000000 
0.000000 -0.000000 0.000000 
0.000000 0.000000 0.000000 

0.000000 -0.000000 0.000000 
0.000000 0.000000 0.000000 
0.000000 0.000000 0.000000 

0.000000 0.000000 0.000000 
0.000000 -0.000000 0.000000 
0.000000 0.000000 0.000000 

0.000000 0.000000 0.000000 
0.000000 0.000000 0.000000 
0.000000 0.000000 0.000000 

0.000000 0.000000 0.000000 
0.000000 -0.000000 0.000000 
0.000000 0.000000 0.000000 

0.000000 -0.000000 0.000000 
0.000000 0.000000 0.000000 
0.000000 0.000000 0.000000 

0.000000 0.000000 0.000000 
0.000000 -0.000000 0.000000 
0.000000 0.000000 0.000000 

0.000000 -0.000000 0.000000 
0.000000 0.000000 0.000000 
0.000000 0.000000 0.000000 

0.000000 -0.000000 0.000000 
0.000000 0.000000 0.000000 
0.000000 0.000000 0.000000 

0.000000 0.000000 0.000000 
0.000000 -0.000000 0.000000 
0.000000 0.000000 0.000000 

0.000000 0.000000 0.000000 
0.000000 0.000000 0.000000 
0.000000 0.000000 0.000000 

0.000000 0.000000 0.000000 
0.000000 -0.000000 0.000000 
0.000000 0.000000 0.000000 

-0.000000 0.000000 0.000000 
0.000000 -0.000000 0.000000 
0.000000 0.000000 0.000000 

-0.000000 -0.000000 0.000000 
0.000000 -0.000000 0.000000 
0.000000 0.000000 0.000000 

-0.000000 -0.000000 0.000000 
0.000000 -0.000000 0.000000 
0.000000 0.000000 0.000000 

-0.000000 -0.000000 0.000000 
0.000000 -0.000000 0.000000 
0.000000 0.000000 0.000000 

0.000000 -0.000000 0.000000 
0.000000 0.000000 0.000000 
0.000000 0.000000 0.000000 

0.000000 -0.000000 0.000000 
0.000000 0.000000 0.000000 
0.000000 0.000000 0.000000 

