# vtk DataFile Version 3.0 
vtk output 
ASCII 
DATASET UNSTRUCTURED_GRID 
POINTS 175 float 
-0.026061 -0.646285 0.000000 
-0.106992 -0.578229 0.000000 
-0.054870 -0.586462 0.000000 
-0.028809 -0.540578 0.000000 
-0.186430 -0.514154 0.000000 
-0.137056 -0.516680 0.000000 
-0.114311 -0.463033 0.000000 
-0.058186 -0.478698 0.000000 
-0.029377 -0.438521 0.000000 
-0.265318 -0.450998 0.000000 
-0.217198 -0.451798 0.000000 
-0.196633 -0.394501 0.000000 
-0.143120 -0.403210 0.000000 
-0.116563 -0.355941 0.000000 
-0.058945 -0.375587 0.000000 
-0.029568 -0.337467 0.000000 
-0.344206 -0.387842 0.000000 
-0.296791 -0.387835 0.000000 
-0.278030 -0.327892 0.000000 
-0.225992 -0.333759 0.000000 
-0.201664 -0.281642 0.000000 
-0.145749 -0.295116 0.000000 
-0.117890 -0.250773 0.000000 
-0.059328 -0.273479 0.000000 
-0.029759 -0.236413 0.000000 
-0.058559 -0.687035 0.000000 
-0.162226 -0.707878 0.000000 
-0.123292 -0.672260 0.000000 
-0.142917 -0.623277 0.000000 
-0.261851 -0.730035 0.000000 
-0.229092 -0.693007 0.000000 
-0.256854 -0.641776 0.000000 
-0.209613 -0.607663 0.000000 
-0.223062 -0.560089 0.000000 
-0.360414 -0.752335 0.000000 
-0.329787 -0.715212 0.000000 
-0.361761 -0.663410 0.000000 
-0.321587 -0.627001 0.000000 
-0.341985 -0.576767 0.000000 
-0.290702 -0.543968 0.000000 
-0.302189 -0.497233 0.000000 
-0.458977 -0.774635 0.000000 
-0.429420 -0.737560 0.000000 
-0.464588 -0.685518 0.000000 
-0.427556 -0.648491 0.000000 
-0.453135 -0.596976 0.000000 
-0.407738 -0.561661 0.000000 
-0.425037 -0.512233 0.000000 
-0.370772 -0.480604 0.000000 
-0.381315 -0.434376 0.000000 
-0.046960 -0.737851 0.000000 
-0.095301 -0.831897 0.000000 
-0.098873 -0.779249 0.000000 
-0.149405 -0.764052 0.000000 
-0.140093 -0.923601 0.000000 
-0.148617 -0.874902 0.000000 
-0.205981 -0.864665 0.000000 
-0.203197 -0.806462 0.000000 
-0.248777 -0.787315 0.000000 
-0.184111 -1.014564 0.000000 
-0.194039 -0.967473 0.000000 
-0.254475 -0.960174 0.000000 
-0.257893 -0.906064 0.000000 
-0.309886 -0.890691 0.000000 
-0.303554 -0.830146 0.000000 
-0.347255 -0.809988 0.000000 
-0.228129 -1.105528 0.000000 
-0.238687 -1.059304 0.000000 
-0.301302 -1.054351 0.000000 
-0.307162 -1.002313 0.000000 
-0.363386 -0.990192 0.000000 
-0.362692 -0.932680 0.000000 
-0.412122 -0.915387 0.000000 
-0.403017 -0.853240 0.000000 
-0.445733 -0.832662 0.000000 
-0.000000 -0.760466 0.000000 
0.043388 -0.856896 0.000000 
-0.000000 -0.826864 0.000000 
-0.043388 -0.856896 0.000000 
0.087158 -0.949093 0.000000 
0.043769 -0.925394 0.000000 
-0.000000 -0.963860 0.000000 
-0.043769 -0.925394 0.000000 
-0.087158 -0.949093 0.000000 
0.130831 -1.040223 0.000000 
0.087824 -1.018624 0.000000 
0.044436 -1.061323 0.000000 
-0.000000 -1.030258 0.000000 
-0.044436 -1.061323 0.000000 
-0.087824 -1.018624 0.000000 
-0.130831 -1.040223 0.000000 
0.174505 -1.131352 0.000000 
0.131782 -1.110786 0.000000 
0.088871 -1.156653 0.000000 
0.044532 -1.128789 0.000000 
-0.000000 -1.165189 0.000000 
-0.044532 -1.128789 0.000000 
-0.088871 -1.156653 0.000000 
-0.131782 -1.110786 0.000000 
-0.174505 -1.131352 0.000000 
0.046960 -0.737851 0.000000 
0.149405 -0.764052 0.000000 
0.098873 -0.779249 0.000000 
0.095301 -0.831897 0.000000 
0.248777 -0.787315 0.000000 
0.203197 -0.806462 0.000000 
0.205981 -0.864665 0.000000 
0.148617 -0.874902 0.000000 
0.140093 -0.923601 0.000000 
0.347255 -0.809988 0.000000 
0.303554 -0.830146 0.000000 
0.309886 -0.890691 0.000000 
0.257893 -0.906064 0.000000 
0.254475 -0.960174 0.000000 
0.194039 -0.967473 0.000000 
0.184111 -1.014564 0.000000 
0.445733 -0.832662 0.000000 
0.403017 -0.853240 0.000000 
0.412122 -0.915387 0.000000 
0.362692 -0.932680 0.000000 
0.363386 -0.990192 0.000000 
0.307162 -1.002313 0.000000 
0.301302 -1.054351 0.000000 
0.238687 -1.059304 0.000000 
0.228129 -1.105528 0.000000 
0.058559 -0.687035 0.000000 
0.142917 -0.623277 0.000000 
0.123292 -0.672260 0.000000 
0.162226 -0.707878 0.000000 
0.223062 -0.560089 0.000000 
0.209613 -0.607663 0.000000 
0.256854 -0.641776 0.000000 
0.229092 -0.693007 0.000000 
0.261851 -0.730035 0.000000 
0.302189 -0.497233 0.000000 
0.290702 -0.543968 0.000000 
0.341985 -0.576767 0.000000 
0.321587 -0.627001 0.000000 
0.361761 -0.663410 0.000000 
0.329787 -0.715212 0.000000 
0.360414 -0.752335 0.000000 
0.381315 -0.434376 0.000000 
0.370772 -0.480604 0.000000 
0.425037 -0.512233 0.000000 
0.407738 -0.561661 0.000000 
0.453135 -0.596976 0.000000 
0.427556 -0.648491 0.000000 
0.464588 -0.685518 0.000000 
0.429420 -0.737560 0.000000 
0.458977 -0.774635 0.000000 
0.026061 -0.646285 0.000000 
0.028809 -0.540578 0.000000 
0.054870 -0.586462 0.000000 
0.106992 -0.578229 0.000000 
0.029377 -0.438521 0.000000 
0.058186 -0.478698 0.000000 
0.114311 -0.463033 0.000000 
0.137056 -0.516680 0.000000 
0.186430 -0.514154 0.000000 
0.029568 -0.337467 0.000000 
0.058945 -0.375587 0.000000 
0.116563 -0.355941 0.000000 
0.143120 -0.403210 0.000000 
0.196633 -0.394501 0.000000 
0.217198 -0.451798 0.000000 
0.265318 -0.450998 0.000000 
0.029759 -0.236413 0.000000 
0.059328 -0.273479 0.000000 
0.117890 -0.250773 0.000000 
0.145749 -0.295116 0.000000 
0.201664 -0.281642 0.000000 
0.225992 -0.333759 0.000000 
0.278030 -0.327892 0.000000 
0.296791 -0.387835 0.000000 
0.344206 -0.387842 0.000000 
CELLS 175 350 
1 0 
1 1 
1 2 
1 3 
1 4 
1 5 
1 6 
1 7 
1 8 
1 9 
1 10 
1 11 
1 12 
1 13 
1 14 
1 15 
1 16 
1 17 
1 18 
1 19 
1 20 
1 21 
1 22 
1 23 
1 24 
1 25 
1 26 
1 27 
1 28 
1 29 
1 30 
1 31 
1 32 
1 33 
1 34 
1 35 
1 36 
1 37 
1 38 
1 39 
1 40 
1 41 
1 42 
1 43 
1 44 
1 45 
1 46 
1 47 
1 48 
1 49 
1 50 
1 51 
1 52 
1 53 
1 54 
1 55 
1 56 
1 57 
1 58 
1 59 
1 60 
1 61 
1 62 
1 63 
1 64 
1 65 
1 66 
1 67 
1 68 
1 69 
1 70 
1 71 
1 72 
1 73 
1 74 
1 75 
1 76 
1 77 
1 78 
1 79 
1 80 
1 81 
1 82 
1 83 
1 84 
1 85 
1 86 
1 87 
1 88 
1 89 
1 90 
1 91 
1 92 
1 93 
1 94 
1 95 
1 96 
1 97 
1 98 
1 99 
1 100 
1 101 
1 102 
1 103 
1 104 
1 105 
1 106 
1 107 
1 108 
1 109 
1 110 
1 111 
1 112 
1 113 
1 114 
1 115 
1 116 
1 117 
1 118 
1 119 
1 120 
1 121 
1 122 
1 123 
1 124 
1 125 
1 126 
1 127 
1 128 
1 129 
1 130 
1 131 
1 132 
1 133 
1 134 
1 135 
1 136 
1 137 
1 138 
1 139 
1 140 
1 141 
1 142 
1 143 
1 144 
1 145 
1 146 
1 147 
1 148 
1 149 
1 150 
1 151 
1 152 
1 153 
1 154 
1 155 
1 156 
1 157 
1 158 
1 159 
1 160 
1 161 
1 162 
1 163 
1 164 
1 165 
1 166 
1 167 
1 168 
1 169 
1 170 
1 171 
1 172 
1 173 
1 174 
CELL_TYPES 175 
1 
1 
1 
1 
1 
1 
1 
1 
1 
1 
1 
1 
1 
1 
1 
1 
1 
1 
1 
1 
1 
1 
1 
1 
1 
1 
1 
1 
1 
1 
1 
1 
1 
1 
1 
1 
1 
1 
1 
1 
1 
1 
1 
1 
1 
1 
1 
1 
1 
1 
1 
1 
1 
1 
1 
1 
1 
1 
1 
1 
1 
1 
1 
1 
1 
1 
1 
1 
1 
1 
1 
1 
1 
1 
1 
1 
1 
1 
1 
1 
1 
1 
1 
1 
1 
1 
1 
1 
1 
1 
1 
1 
1 
1 
1 
1 
1 
1 
1 
1 
1 
1 
1 
1 
1 
1 
1 
1 
1 
1 
1 
1 
1 
1 
1 
1 
1 
1 
1 
1 
1 
1 
1 
1 
1 
1 
1 
1 
1 
1 
1 
1 
1 
1 
1 
1 
1 
1 
1 
1 
1 
1 
1 
1 
1 
1 
1 
1 
1 
1 
1 
1 
1 
1 
1 
1 
1 
1 
1 
1 
1 
1 
1 
1 
1 
1 
1 
1 
1 
1 
1 
1 
1 
1 
1 
POINT_DATA 175 
VECTORS X_GC float 
-0.026061 -0.646285 0.000000 
-0.106992 -0.578229 0.000000 
-0.054870 -0.586462 0.000000 
-0.028809 -0.540578 0.000000 
-0.186430 -0.514154 0.000000 
-0.137056 -0.516680 0.000000 
-0.114311 -0.463033 0.000000 
-0.058186 -0.478698 0.000000 
-0.029377 -0.438521 0.000000 
-0.265318 -0.450998 0.000000 
-0.217198 -0.451798 0.000000 
-0.196633 -0.394501 0.000000 
-0.143120 -0.403210 0.000000 
-0.116563 -0.355941 0.000000 
-0.058945 -0.375587 0.000000 
-0.029568 -0.337467 0.000000 
-0.344206 -0.387842 0.000000 
-0.296791 -0.387835 0.000000 
-0.278030 -0.327892 0.000000 
-0.225992 -0.333759 0.000000 
-0.201664 -0.281642 0.000000 
-0.145749 -0.295116 0.000000 
-0.117890 -0.250773 0.000000 
-0.059328 -0.273479 0.000000 
-0.029759 -0.236413 0.000000 
-0.058559 -0.687035 0.000000 
-0.162226 -0.707878 0.000000 
-0.123292 -0.672260 0.000000 
-0.142917 -0.623277 0.000000 
-0.261851 -0.730035 0.000000 
-0.229092 -0.693007 0.000000 
-0.256854 -0.641776 0.000000 
-0.209613 -0.607663 0.000000 
-0.223062 -0.560089 0.000000 
-0.360414 -0.752335 0.000000 
-0.329787 -0.715212 0.000000 
-0.361761 -0.663410 0.000000 
-0.321587 -0.627001 0.000000 
-0.341985 -0.576767 0.000000 
-0.290702 -0.543968 0.000000 
-0.302189 -0.497233 0.000000 
-0.458977 -0.774635 0.000000 
-0.429420 -0.737560 0.000000 
-0.464588 -0.685518 0.000000 
-0.427556 -0.648491 0.000000 
-0.453135 -0.596976 0.000000 
-0.407738 -0.561661 0.000000 
-0.425037 -0.512233 0.000000 
-0.370772 -0.480604 0.000000 
-0.381315 -0.434376 0.000000 
-0.046960 -0.737851 0.000000 
-0.095301 -0.831897 0.000000 
-0.098873 -0.779249 0.000000 
-0.149405 -0.764052 0.000000 
-0.140093 -0.923601 0.000000 
-0.148617 -0.874902 0.000000 
-0.205981 -0.864665 0.000000 
-0.203197 -0.806462 0.000000 
-0.248777 -0.787315 0.000000 
-0.184111 -1.014564 0.000000 
-0.194039 -0.967473 0.000000 
-0.254475 -0.960174 0.000000 
-0.257893 -0.906064 0.000000 
-0.309886 -0.890691 0.000000 
-0.303554 -0.830146 0.000000 
-0.347255 -0.809988 0.000000 
-0.228129 -1.105528 0.000000 
-0.238687 -1.059304 0.000000 
-0.301302 -1.054351 0.000000 
-0.307162 -1.002313 0.000000 
-0.363386 -0.990192 0.000000 
-0.362692 -0.932680 0.000000 
-0.412122 -0.915387 0.000000 
-0.403017 -0.853240 0.000000 
-0.445733 -0.832662 0.000000 
-0.000000 -0.760466 0.000000 
0.043388 -0.856896 0.000000 
-0.000000 -0.826864 0.000000 
-0.043388 -0.856896 0.000000 
0.087158 -0.949093 0.000000 
0.043769 -0.925394 0.000000 
-0.000000 -0.963860 0.000000 
-0.043769 -0.925394 0.000000 
-0.087158 -0.949093 0.000000 
0.130831 -1.040223 0.000000 
0.087824 -1.018624 0.000000 
0.044436 -1.061323 0.000000 
-0.000000 -1.030258 0.000000 
-0.044436 -1.061323 0.000000 
-0.087824 -1.018624 0.000000 
-0.130831 -1.040223 0.000000 
0.174505 -1.131352 0.000000 
0.131782 -1.110786 0.000000 
0.088871 -1.156653 0.000000 
0.044532 -1.128789 0.000000 
-0.000000 -1.165189 0.000000 
-0.044532 -1.128789 0.000000 
-0.088871 -1.156653 0.000000 
-0.131782 -1.110786 0.000000 
-0.174505 -1.131352 0.000000 
0.046960 -0.737851 0.000000 
0.149405 -0.764052 0.000000 
0.098873 -0.779249 0.000000 
0.095301 -0.831897 0.000000 
0.248777 -0.787315 0.000000 
0.203197 -0.806462 0.000000 
0.205981 -0.864665 0.000000 
0.148617 -0.874902 0.000000 
0.140093 -0.923601 0.000000 
0.347255 -0.809988 0.000000 
0.303554 -0.830146 0.000000 
0.309886 -0.890691 0.000000 
0.257893 -0.906064 0.000000 
0.254475 -0.960174 0.000000 
0.194039 -0.967473 0.000000 
0.184111 -1.014564 0.000000 
0.445733 -0.832662 0.000000 
0.403017 -0.853240 0.000000 
0.412122 -0.915387 0.000000 
0.362692 -0.932680 0.000000 
0.363386 -0.990192 0.000000 
0.307162 -1.002313 0.000000 
0.301302 -1.054351 0.000000 
0.238687 -1.059304 0.000000 
0.228129 -1.105528 0.000000 
0.058559 -0.687035 0.000000 
0.142917 -0.623277 0.000000 
0.123292 -0.672260 0.000000 
0.162226 -0.707878 0.000000 
0.223062 -0.560089 0.000000 
0.209613 -0.607663 0.000000 
0.256854 -0.641776 0.000000 
0.229092 -0.693007 0.000000 
0.261851 -0.730035 0.000000 
0.302189 -0.497233 0.000000 
0.290702 -0.543968 0.000000 
0.341985 -0.576767 0.000000 
0.321587 -0.627001 0.000000 
0.361761 -0.663410 0.000000 
0.329787 -0.715212 0.000000 
0.360414 -0.752335 0.000000 
0.381315 -0.434376 0.000000 
0.370772 -0.480604 0.000000 
0.425037 -0.512233 0.000000 
0.407738 -0.561661 0.000000 
0.453135 -0.596976 0.000000 
0.427556 -0.648491 0.000000 
0.464588 -0.685518 0.000000 
0.429420 -0.737560 0.000000 
0.458977 -0.774635 0.000000 
0.026061 -0.646285 0.000000 
0.028809 -0.540578 0.000000 
0.054870 -0.586462 0.000000 
0.106992 -0.578229 0.000000 
0.029377 -0.438521 0.000000 
0.058186 -0.478698 0.000000 
0.114311 -0.463033 0.000000 
0.137056 -0.516680 0.000000 
0.186430 -0.514154 0.000000 
0.029568 -0.337467 0.000000 
0.058945 -0.375587 0.000000 
0.116563 -0.355941 0.000000 
0.143120 -0.403210 0.000000 
0.196633 -0.394501 0.000000 
0.217198 -0.451798 0.000000 
0.265318 -0.450998 0.000000 
0.029759 -0.236413 0.000000 
0.059328 -0.273479 0.000000 
0.117890 -0.250773 0.000000 
0.145749 -0.295116 0.000000 
0.201664 -0.281642 0.000000 
0.225992 -0.333759 0.000000 
0.278030 -0.327892 0.000000 
0.296791 -0.387835 0.000000 
0.344206 -0.387842 0.000000 
VECTORS X_EC float 
0.338794 -0.775156 0.000000 
-0.609100 0.306096 0.000000 
0.713312 0.417237 0.000000 
0.374519 -0.202193 0.000000 
0.423588 -0.558923 0.000000 
-0.218274 -0.524820 0.000000 
-0.513962 0.750941 0.000000 
0.756418 0.962428 0.000000 
0.381900 0.420035 0.000000 
-0.550868 0.588474 0.000000 
0.823577 0.599269 0.000000 
0.556234 -0.174235 0.000000 
-0.139443 -0.056666 0.000000 
-0.484677 -0.694791 0.000000 
0.766286 -0.429575 0.000000 
0.384386 -0.944196 0.000000 
0.474677 -0.264130 0.000000 
-0.141715 -0.264226 0.000000 
-0.385608 0.926546 0.000000 
0.937896 -0.994259 0.000000 
0.621631 0.302161 0.000000 
-0.105264 0.484060 0.000000 
-0.467428 -0.114566 0.000000 
0.771260 0.191963 0.000000 
0.386873 -0.308427 0.000000 
0.761262 -0.225021 0.000000 
0.108942 0.056356 0.000000 
-0.397202 -0.424484 0.000000 
-0.142083 0.914241 0.000000 
-0.595936 0.355466 0.000000 
0.978194 -0.144400 0.000000 
-0.660903 -0.836025 0.000000 
0.724964 0.703455 0.000000 
0.899809 0.061207 0.000000 
0.685384 0.656518 0.000000 
0.287229 0.155360 0.000000 
0.702895 -0.543969 0.000000 
0.180633 0.964513 0.000000 
0.445811 0.286353 0.000000 
-0.220880 -0.156433 0.000000 
-0.071546 -0.787358 0.000000 
-0.033296 0.957571 0.000000 
-0.417537 0.457061 0.000000 
0.039645 -0.245502 0.000000 
-0.441768 -0.745373 0.000000 
-0.109248 0.559177 0.000000 
-0.699407 0.082421 0.000000 
-0.474522 -0.584858 0.000000 
0.820030 0.988148 0.000000 
0.957100 0.364077 0.000000 
0.610485 0.460985 0.000000 
-0.761092 -0.269395 0.000000 
-0.714655 -0.980133 0.000000 
-0.057734 0.814700 0.000000 
-0.178789 0.968609 0.000000 
-0.067979 0.311183 0.000000 
0.677748 0.172979 0.000000 
0.641556 -0.612766 0.000000 
-0.765897 -0.871244 0.000000 
0.393446 0.196618 0.000000 
0.522510 -0.439112 0.000000 
-0.691820 -0.537656 0.000000 
-0.647393 0.731861 0.000000 
0.028512 0.524335 0.000000 
-0.053800 -0.293026 0.000000 
0.514316 -0.565157 0.000000 
0.965681 -0.575373 0.000000 
-0.897068 0.800598 0.000000 
-0.083078 0.733745 0.000000 
-0.006893 0.031221 0.000000 
0.724017 -0.132412 0.000000 
0.714996 -0.908816 0.000000 
-0.642413 0.857727 0.000000 
-0.760780 0.018746 0.000000 
-0.205471 -0.259069 0.000000 
0.000000 0.766287 0.000000 
-0.564049 0.068100 0.000000 
0.000000 -0.337336 0.000000 
0.564049 0.068100 0.000000 
0.866949 -0.687245 0.000000 
-0.569003 0.992824 0.000000 
0.000000 -0.487888 0.000000 
0.569003 0.992824 0.000000 
-0.866949 -0.687245 0.000000 
0.299194 0.543005 0.000000 
0.858290 0.251421 0.000000 
-0.577662 0.827867 0.000000 
0.000000 0.408489 0.000000 
0.577662 0.827867 0.000000 
-0.858290 0.251421 0.000000 
-0.299194 0.543005 0.000000 
-0.268560 -0.226745 0.000000 
0.286830 -0.504386 0.000000 
0.844677 0.114812 0.000000 
-0.578910 -0.261351 0.000000 
0.000000 0.230053 0.000000 
0.578910 -0.261351 0.000000 
-0.844677 0.114812 0.000000 
-0.286830 -0.504386 0.000000 
0.268560 -0.226745 0.000000 
-0.610485 0.460985 0.000000 
0.057734 0.814700 0.000000 
0.714655 -0.980133 0.000000 
0.761092 -0.269395 0.000000 
0.765897 -0.871244 0.000000 
-0.641556 -0.612766 0.000000 
-0.677748 0.172979 0.000000 
0.067979 0.311183 0.000000 
0.178789 0.968609 0.000000 
-0.514316 -0.565157 0.000000 
0.053800 -0.293026 0.000000 
-0.028512 0.524335 0.000000 
0.647393 0.731861 0.000000 
0.691820 -0.537656 0.000000 
-0.522510 -0.439112 0.000000 
-0.393446 0.196618 0.000000 
0.205471 -0.259069 0.000000 
0.760780 0.018746 0.000000 
0.642413 0.857727 0.000000 
-0.714996 -0.908816 0.000000 
-0.724017 -0.132412 0.000000 
0.006894 0.031221 0.000000 
0.083078 0.733745 0.000000 
0.897068 0.800598 0.000000 
-0.965681 -0.575373 0.000000 
-0.761262 -0.225021 0.000000 
0.142083 0.914241 0.000000 
0.397202 -0.424484 0.000000 
-0.108942 0.056356 0.000000 
-0.899809 0.061207 0.000000 
-0.724964 0.703455 0.000000 
0.660903 -0.836025 0.000000 
-0.978194 -0.144400 0.000000 
0.595936 0.355466 0.000000 
0.071546 -0.787358 0.000000 
0.220880 -0.156433 0.000000 
-0.445811 0.286353 0.000000 
-0.180633 0.964513 0.000000 
-0.702895 -0.543969 0.000000 
-0.287229 0.155360 0.000000 
-0.685384 0.656518 0.000000 
-0.957100 0.364077 0.000000 
-0.820030 0.988148 0.000000 
0.474522 -0.584858 0.000000 
0.699407 0.082421 0.000000 
0.109248 0.559177 0.000000 
0.441768 -0.745373 0.000000 
-0.039645 -0.245502 0.000000 
0.417537 0.457061 0.000000 
0.033296 0.957571 0.000000 
-0.338794 -0.775156 0.000000 
-0.374519 -0.202193 0.000000 
-0.713312 0.417237 0.000000 
0.609100 0.306096 0.000000 
-0.381900 0.420035 0.000000 
-0.756418 0.962428 0.000000 
0.513962 0.750941 0.000000 
0.218274 -0.524820 0.000000 
-0.423588 -0.558923 0.000000 
-0.384386 -0.944196 0.000000 
-0.766286 -0.429575 0.000000 
0.484677 -0.694791 0.000000 
0.139443 -0.056666 0.000000 
-0.556234 -0.174235 0.000000 
-0.823577 0.599269 0.000000 
0.550868 0.588474 0.000000 
-0.386873 -0.308427 0.000000 
-0.771260 0.191963 0.000000 
0.467428 -0.114566 0.000000 
0.105264 0.484060 0.000000 
-0.621631 0.302161 0.000000 
-0.937896 -0.994259 0.000000 
0.385608 0.926546 0.000000 
0.141715 -0.264226 0.000000 
-0.474677 -0.264130 0.000000 
CELL_DATA 175 
SCALARS MASS float 
LOOKUP_TABLE default 
0.078183 
0.086427 
0.094672 
0.086427 
0.088131 
0.092111 
0.085854 
0.092111 
0.088131 
0.088705 
0.091000 
0.086983 
0.091556 
0.086983 
0.091000 
0.088705 
0.089278 
0.091574 
0.089278 
0.092722 
0.089278 
0.092722 
0.089278 
0.091574 
0.089278 
0.078183 
0.086427 
0.094672 
0.086427 
0.088131 
0.092111 
0.085854 
0.092111 
0.088131 
0.088705 
0.091000 
0.086983 
0.091556 
0.086983 
0.091000 
0.088705 
0.089278 
0.091574 
0.089278 
0.092722 
0.089278 
0.092722 
0.089278 
0.091574 
0.089278 
0.078183 
0.086427 
0.094672 
0.086427 
0.088131 
0.092111 
0.085854 
0.092111 
0.088131 
0.088705 
0.091000 
0.086983 
0.091556 
0.086983 
0.091000 
0.088705 
0.089278 
0.091574 
0.089278 
0.092722 
0.089278 
0.092722 
0.089278 
0.091574 
0.089278 
0.078183 
0.086427 
0.094672 
0.086427 
0.088131 
0.092111 
0.085854 
0.092111 
0.088131 
0.088705 
0.091000 
0.086983 
0.091556 
0.086983 
0.091000 
0.088705 
0.089278 
0.091574 
0.089278 
0.092722 
0.089278 
0.092722 
0.089278 
0.091574 
0.089278 
0.078183 
0.086427 
0.094672 
0.086427 
0.088131 
0.092111 
0.085854 
0.092111 
0.088131 
0.088705 
0.091000 
0.086983 
0.091556 
0.086983 
0.091000 
0.088705 
0.089278 
0.091574 
0.089278 
0.092722 
0.089278 
0.092722 
0.089278 
0.091574 
0.089278 
0.078183 
0.086427 
0.094672 
0.086427 
0.088131 
0.092111 
0.085854 
0.092111 
0.088131 
0.088705 
0.091000 
0.086983 
0.091556 
0.086983 
0.091000 
0.088705 
0.089278 
0.091574 
0.089278 
0.092722 
0.089278 
0.092722 
0.089278 
0.091574 
0.089278 
0.078183 
0.086427 
0.094672 
0.086427 
0.088131 
0.092111 
0.085854 
0.092111 
0.088131 
0.088705 
0.091000 
0.086983 
0.091556 
0.086983 
0.091000 
0.088705 
0.089278 
0.091574 
0.089278 
0.092722 
0.089278 
0.092722 
0.089278 
0.091574 
0.089278 
SCALARS MASS float 
LOOKUP_TABLE default 
0.078183 
0.086427 
0.094672 
0.086427 
0.088131 
0.092111 
0.085854 
0.092111 
0.088131 
0.088705 
0.091000 
0.086983 
0.091556 
0.086983 
0.091000 
0.088705 
0.089278 
0.091574 
0.089278 
0.092722 
0.089278 
0.092722 
0.089278 
0.091574 
0.089278 
0.078183 
0.086427 
0.094672 
0.086427 
0.088131 
0.092111 
0.085854 
0.092111 
0.088131 
0.088705 
0.091000 
0.086983 
0.091556 
0.086983 
0.091000 
0.088705 
0.089278 
0.091574 
0.089278 
0.092722 
0.089278 
0.092722 
0.089278 
0.091574 
0.089278 
0.078183 
0.086427 
0.094672 
0.086427 
0.088131 
0.092111 
0.085854 
0.092111 
0.088131 
0.088705 
0.091000 
0.086983 
0.091556 
0.086983 
0.091000 
0.088705 
0.089278 
0.091574 
0.089278 
0.092722 
0.089278 
0.092722 
0.089278 
0.091574 
0.089278 
0.078183 
0.086427 
0.094672 
0.086427 
0.088131 
0.092111 
0.085854 
0.092111 
0.088131 
0.088705 
0.091000 
0.086983 
0.091556 
0.086983 
0.091000 
0.088705 
0.089278 
0.091574 
0.089278 
0.092722 
0.089278 
0.092722 
0.089278 
0.091574 
0.089278 
0.078183 
0.086427 
0.094672 
0.086427 
0.088131 
0.092111 
0.085854 
0.092111 
0.088131 
0.088705 
0.091000 
0.086983 
0.091556 
0.086983 
0.091000 
0.088705 
0.089278 
0.091574 
0.089278 
0.092722 
0.089278 
0.092722 
0.089278 
0.091574 
0.089278 
0.078183 
0.086427 
0.094672 
0.086427 
0.088131 
0.092111 
0.085854 
0.092111 
0.088131 
0.088705 
0.091000 
0.086983 
0.091556 
0.086983 
0.091000 
0.088705 
0.089278 
0.091574 
0.089278 
0.092722 
0.089278 
0.092722 
0.089278 
0.091574 
0.089278 
0.078183 
0.086427 
0.094672 
0.086427 
0.088131 
0.092111 
0.085854 
0.092111 
0.088131 
0.088705 
0.091000 
0.086983 
0.091556 
0.086983 
0.091000 
0.088705 
0.089278 
0.091574 
0.089278 
0.092722 
0.089278 
0.092722 
0.089278 
0.091574 
0.089278 
SCALARS DENSITY float 
LOOKUP_TABLE default 
20.000000 
20.000000 
20.000000 
20.000000 
20.000000 
20.000000 
20.000000 
20.000000 
20.000000 
20.000000 
20.000000 
20.000000 
20.000000 
20.000000 
20.000000 
20.000000 
20.000000 
20.000000 
20.000000 
20.000000 
20.000000 
20.000000 
20.000000 
20.000000 
20.000000 
20.000000 
20.000000 
20.000000 
20.000000 
20.000000 
20.000000 
20.000000 
20.000000 
20.000000 
20.000000 
20.000000 
20.000000 
20.000000 
20.000000 
20.000000 
20.000000 
20.000000 
20.000000 
20.000000 
20.000000 
20.000000 
20.000000 
20.000000 
20.000000 
20.000000 
20.000000 
20.000000 
20.000000 
20.000000 
20.000000 
20.000000 
20.000000 
20.000000 
20.000000 
20.000000 
20.000000 
20.000000 
20.000000 
20.000000 
20.000000 
20.000000 
20.000000 
20.000000 
20.000000 
20.000000 
20.000000 
20.000000 
20.000000 
20.000000 
20.000000 
20.000000 
20.000000 
20.000000 
20.000000 
20.000000 
20.000000 
20.000000 
20.000000 
20.000000 
20.000000 
20.000000 
20.000000 
20.000000 
20.000000 
20.000000 
20.000000 
20.000000 
20.000000 
20.000000 
20.000000 
20.000000 
20.000000 
20.000000 
20.000000 
20.000000 
20.000000 
20.000000 
20.000000 
20.000000 
20.000000 
20.000000 
20.000000 
20.000000 
20.000000 
20.000000 
20.000000 
20.000000 
20.000000 
20.000000 
20.000000 
20.000000 
20.000000 
20.000000 
20.000000 
20.000000 
20.000000 
20.000000 
20.000000 
20.000000 
20.000000 
20.000000 
20.000000 
20.000000 
20.000000 
20.000000 
20.000000 
20.000000 
20.000000 
20.000000 
20.000000 
20.000000 
20.000000 
20.000000 
20.000000 
20.000000 
20.000000 
20.000000 
20.000000 
20.000000 
20.000000 
20.000000 
20.000000 
20.000000 
20.000000 
20.000000 
20.000000 
20.000000 
20.000000 
20.000000 
20.000000 
20.000000 
20.000000 
20.000000 
20.000000 
20.000000 
20.000000 
20.000000 
20.000000 
20.000000 
20.000000 
20.000000 
20.000000 
20.000000 
20.000000 
20.000000 
20.000000 
20.000000 
20.000000 
20.000000 
20.000000 
SCALARS ELEM_i float 
LOOKUP_TABLE default 
177 
205 
178 
178 
205 
205 
206 
179 
179 
233 
206 
206 
206 
206 
179 
179 
233 
233 
234 
206 
207 
207 
207 
180 
180 
177 
204 
204 
205 
231 
204 
231 
205 
205 
231 
231 
231 
232 
232 
232 
232 
258 
258 
258 
258 
259 
259 
259 
233 
233 
177 
203 
203 
204 
203 
203 
203 
203 
230 
202 
202 
229 
230 
230 
230 
230 
201 
229 
229 
229 
229 
229 
257 
257 
257 
177 
176 
176 
176 
148 
176 
175 
176 
202 
148 
148 
175 
175 
175 
202 
202 
147 
147 
147 
174 
174 
174 
201 
201 
201 
177 
150 
149 
149 
122 
149 
149 
149 
149 
122 
122 
122 
122 
121 
148 
148 
95 
95 
95 
121 
121 
121 
121 
121 
147 
177 
151 
150 
150 
151 
151 
123 
150 
123 
124 
124 
124 
124 
123 
123 
123 
125 
125 
97 
97 
97 
96 
96 
96 
96 
177 
178 
178 
151 
179 
179 
152 
151 
151 
179 
179 
152 
152 
152 
152 
125 
180 
180 
153 
153 
153 
152 
126 
125 
125 
VECTORS VELOCITY float 
0.000000 -3.706610 0.000000 
0.000000 -3.706610 0.000000 
0.000000 -3.706610 0.000000 
0.000000 -3.706610 0.000000 
-0.000000 -3.706610 0.000000 
0.000000 -3.706610 0.000000 
-0.000000 -3.706610 0.000000 
0.000000 -3.706610 0.000000 
-0.000000 -3.706610 0.000000 
0.000000 -3.706610 0.000000 
-0.000000 -3.706610 0.000000 
0.000000 -3.706610 0.000000 
-0.000000 -3.706610 0.000000 
-0.000000 -3.706610 0.000000 
-0.000000 -3.706610 0.000000 
0.000000 -3.706610 0.000000 
0.000000 -3.706610 0.000000 
0.000000 -3.706610 0.000000 
0.000000 -3.706610 0.000000 
0.000000 -3.706610 0.000000 
-0.000000 -3.706610 0.000000 
0.000000 -3.706610 0.000000 
0.000000 -3.706610 0.000000 
0.000000 -3.706610 0.000000 
0.000000 -3.706610 0.000000 
-0.000000 -3.706610 0.000000 
-0.000000 -3.706610 0.000000 
-0.000000 -3.706610 0.000000 
-0.000000 -3.706610 0.000000 
-0.000000 -3.706610 0.000000 
-0.000000 -3.706610 0.000000 
-0.000000 -3.706610 0.000000 
-0.000000 -3.706610 0.000000 
-0.000000 -3.706610 0.000000 
-0.000000 -3.706610 0.000000 
0.000000 -3.706610 0.000000 
0.000000 -3.706610 0.000000 
0.000000 -3.706610 0.000000 
0.000000 -3.706610 0.000000 
-0.000000 -3.706610 0.000000 
0.000000 -3.706610 0.000000 
-0.000000 -3.706610 0.000000 
0.000000 -3.706610 0.000000 
-0.000000 -3.706610 0.000000 
0.000000 -3.706610 0.000000 
0.000000 -3.706610 0.000000 
0.000000 -3.706610 0.000000 
-0.000000 -3.706610 0.000000 
0.000000 -3.706610 0.000000 
0.000000 -3.706610 0.000000 
-0.000000 -3.706610 0.000000 
0.000000 -3.706610 0.000000 
-0.000000 -3.706610 0.000000 
-0.000000 -3.706610 0.000000 
0.000000 -3.706610 0.000000 
0.000000 -3.706610 0.000000 
-0.000000 -3.706610 0.000000 
-0.000000 -3.706610 0.000000 
-0.000000 -3.706610 0.000000 
0.000000 -3.706610 0.000000 
0.000000 -3.706610 0.000000 
0.000000 -3.706610 0.000000 
0.000000 -3.706610 0.000000 
-0.000000 -3.706610 0.000000 
-0.000000 -3.706610 0.000000 
-0.000000 -3.706610 0.000000 
0.000000 -3.706610 0.000000 
0.000000 -3.706610 0.000000 
-0.000000 -3.706610 0.000000 
0.000000 -3.706610 0.000000 
0.000000 -3.706610 0.000000 
-0.000000 -3.706610 0.000000 
0.000000 -3.706610 0.000000 
-0.000000 -3.706610 0.000000 
-0.000000 -3.706610 0.000000 
-0.000000 -3.706610 0.000000 
-0.000000 -3.706610 0.000000 
-0.000000 -3.706610 0.000000 
0.000000 -3.706610 0.000000 
-0.000000 -3.706610 0.000000 
-0.000000 -3.706610 0.000000 
0.000000 -3.706610 0.000000 
0.000000 -3.706610 0.000000 
0.000000 -3.706610 0.000000 
-0.000000 -3.706610 0.000000 
0.000000 -3.706610 0.000000 
0.000000 -3.706610 0.000000 
-0.000000 -3.706610 0.000000 
-0.000000 -3.706610 0.000000 
-0.000000 -3.706610 0.000000 
-0.000000 -3.706610 0.000000 
0.000000 -3.706610 0.000000 
0.000000 -3.706610 0.000000 
-0.000000 -3.706610 0.000000 
0.000000 -3.706610 0.000000 
0.000000 -3.706610 0.000000 
-0.000000 -3.706610 0.000000 
0.000000 -3.706610 0.000000 
-0.000000 -3.706610 0.000000 
-0.000000 -3.706610 0.000000 
-0.000000 -3.706610 0.000000 
-0.000000 -3.706610 0.000000 
-0.000000 -3.706610 0.000000 
-0.000000 -3.706610 0.000000 
-0.000000 -3.706610 0.000000 
-0.000000 -3.706610 0.000000 
-0.000000 -3.706610 0.000000 
-0.000000 -3.706610 0.000000 
-0.000000 -3.706610 0.000000 
0.000000 -3.706610 0.000000 
-0.000000 -3.706610 0.000000 
-0.000000 -3.706610 0.000000 
-0.000000 -3.706610 0.000000 
-0.000000 -3.706610 0.000000 
-0.000000 -3.706610 0.000000 
-0.000000 -3.706610 0.000000 
-0.000000 -3.706610 0.000000 
0.000000 -3.706610 0.000000 
0.000000 -3.706610 0.000000 
-0.000000 -3.706610 0.000000 
-0.000000 -3.706610 0.000000 
-0.000000 -3.706610 0.000000 
0.000000 -3.706610 0.000000 
-0.000000 -3.706610 0.000000 
0.000000 -3.706610 0.000000 
-0.000000 -3.706610 0.000000 
-0.000000 -3.706610 0.000000 
0.000000 -3.706610 0.000000 
0.000000 -3.706610 0.000000 
-0.000000 -3.706610 0.000000 
-0.000000 -3.706610 0.000000 
-0.000000 -3.706610 0.000000 
-0.000000 -3.706610 0.000000 
-0.000000 -3.706610 0.000000 
-0.000000 -3.706610 0.000000 
-0.000000 -3.706610 0.000000 
-0.000000 -3.706610 0.000000 
0.000000 -3.706610 0.000000 
0.000000 -3.706610 0.000000 
-0.000000 -3.706610 0.000000 
0.000000 -3.706610 0.000000 
0.000000 -3.706610 0.000000 
-0.000000 -3.706610 0.000000 
-0.000000 -3.706610 0.000000 
0.000000 -3.706610 0.000000 
0.000000 -3.706610 0.000000 
-0.000000 -3.706610 0.000000 
-0.000000 -3.706610 0.000000 
-0.000000 -3.706610 0.000000 
-0.000000 -3.706610 0.000000 
0.000000 -3.706610 0.000000 
0.000000 -3.706610 0.000000 
0.000000 -3.706610 0.000000 
-0.000000 -3.706610 0.000000 
-0.000000 -3.706610 0.000000 
-0.000000 -3.706610 0.000000 
-0.000000 -3.706610 0.000000 
-0.000000 -3.706610 0.000000 
-0.000000 -3.706610 0.000000 
0.000000 -3.706610 0.000000 
-0.000000 -3.706610 0.000000 
0.000000 -3.706610 0.000000 
0.000000 -3.706610 0.000000 
0.000000 -3.706610 0.000000 
0.000000 -3.706610 0.000000 
0.000000 -3.706610 0.000000 
0.000000 -3.706610 0.000000 
0.000000 -3.706610 0.000000 
0.000000 -3.706610 0.000000 
0.000000 -3.706610 0.000000 
0.000000 -3.706610 0.000000 
0.000000 -3.706610 0.000000 
0.000000 -3.706610 0.000000 
0.000000 -3.706610 0.000000 
-0.000000 -3.706610 0.000000 
TENSORS STRESS float 
0.000000 0.000000 0.000000 
0.000000 0.000000 0.000000 
0.000000 0.000000 0.000000 

-0.000000 -0.000000 0.000000 
0.000000 0.000000 0.000000 
0.000000 0.000000 0.000000 

0.000000 0.000000 0.000000 
0.000000 -0.000000 0.000000 
0.000000 0.000000 0.000000 

0.000000 0.000000 0.000000 
0.000000 -0.000000 0.000000 
0.000000 0.000000 0.000000 

-0.000000 0.000000 0.000000 
0.000000 -0.000000 0.000000 
0.000000 0.000000 0.000000 

0.000000 0.000000 0.000000 
0.000000 0.000000 0.000000 
0.000000 0.000000 0.000000 

-0.000000 0.000000 0.000000 
0.000000 -0.000000 0.000000 
0.000000 0.000000 0.000000 

-0.000000 0.000000 0.000000 
0.000000 -0.000000 0.000000 
0.000000 0.000000 0.000000 

-0.000000 0.000000 0.000000 
0.000000 -0.000000 0.000000 
0.000000 0.000000 0.000000 

-0.000000 0.000000 0.000000 
0.000000 -0.000000 0.000000 
0.000000 0.000000 0.000000 

-0.000000 -0.000000 0.000000 
0.000000 -0.000000 0.000000 
0.000000 0.000000 0.000000 

-0.000000 0.000000 0.000000 
0.000000 -0.000000 0.000000 
0.000000 0.000000 0.000000 

-0.000000 -0.000000 0.000000 
0.000000 0.000000 0.000000 
0.000000 0.000000 0.000000 

-0.000000 -0.000000 0.000000 
0.000000 0.000000 0.000000 
0.000000 0.000000 0.000000 

0.000000 0.000000 0.000000 
0.000000 0.000000 0.000000 
0.000000 0.000000 0.000000 

0.000000 0.000000 0.000000 
0.000000 0.000000 0.000000 
0.000000 0.000000 0.000000 

0.000000 -0.000000 0.000000 
0.000000 -0.000000 0.000000 
0.000000 0.000000 0.000000 

0.000000 0.000000 0.000000 
0.000000 0.000000 0.000000 
0.000000 0.000000 0.000000 

-0.000000 0.000000 0.000000 
0.000000 -0.000000 0.000000 
0.000000 0.000000 0.000000 

-0.000000 0.000000 0.000000 
0.000000 0.000000 0.000000 
0.000000 0.000000 0.000000 

-0.000000 0.000000 0.000000 
0.000000 0.000000 0.000000 
0.000000 0.000000 0.000000 

0.000000 0.000000 0.000000 
0.000000 0.000000 0.000000 
0.000000 0.000000 0.000000 

0.000000 0.000000 0.000000 
0.000000 -0.000000 0.000000 
0.000000 0.000000 0.000000 

0.000000 -0.000000 0.000000 
0.000000 0.000000 0.000000 
0.000000 0.000000 0.000000 

0.000000 0.000000 0.000000 
0.000000 0.000000 0.000000 
0.000000 0.000000 0.000000 

0.000000 0.000000 0.000000 
0.000000 0.000000 0.000000 
0.000000 0.000000 0.000000 

0.000000 0.000000 0.000000 
0.000000 0.000000 0.000000 
0.000000 0.000000 0.000000 

-0.000000 0.000000 0.000000 
0.000000 0.000000 0.000000 
0.000000 0.000000 0.000000 

-0.000000 -0.000000 0.000000 
0.000000 -0.000000 0.000000 
0.000000 0.000000 0.000000 

0.000000 0.000000 0.000000 
0.000000 0.000000 0.000000 
0.000000 0.000000 0.000000 

0.000000 0.000000 0.000000 
0.000000 0.000000 0.000000 
0.000000 0.000000 0.000000 

-0.000000 -0.000000 0.000000 
0.000000 -0.000000 0.000000 
0.000000 0.000000 0.000000 

-0.000000 -0.000000 0.000000 
0.000000 0.000000 0.000000 
0.000000 0.000000 0.000000 

-0.000000 -0.000000 0.000000 
0.000000 -0.000000 0.000000 
0.000000 0.000000 0.000000 

0.000000 -0.000000 0.000000 
0.000000 0.000000 0.000000 
0.000000 0.000000 0.000000 

0.000000 -0.000000 0.000000 
0.000000 0.000000 0.000000 
0.000000 0.000000 0.000000 

0.000000 -0.000000 0.000000 
0.000000 -0.000000 0.000000 
0.000000 0.000000 0.000000 

0.000000 0.000000 0.000000 
0.000000 0.000000 0.000000 
0.000000 0.000000 0.000000 

-0.000000 0.000000 0.000000 
0.000000 -0.000000 0.000000 
0.000000 0.000000 0.000000 

-0.000000 0.000000 0.000000 
0.000000 -0.000000 0.000000 
0.000000 0.000000 0.000000 

-0.000000 0.000000 0.000000 
0.000000 -0.000000 0.000000 
0.000000 0.000000 0.000000 

0.000000 0.000000 0.000000 
0.000000 0.000000 0.000000 
0.000000 0.000000 0.000000 

0.000000 0.000000 0.000000 
0.000000 0.000000 0.000000 
0.000000 0.000000 0.000000 

-0.000000 -0.000000 0.000000 
0.000000 0.000000 0.000000 
0.000000 0.000000 0.000000 

0.000000 0.000000 0.000000 
0.000000 0.000000 0.000000 
0.000000 0.000000 0.000000 

0.000000 0.000000 0.000000 
0.000000 0.000000 0.000000 
0.000000 0.000000 0.000000 

0.000000 0.000000 0.000000 
0.000000 -0.000000 0.000000 
0.000000 0.000000 0.000000 

-0.000000 -0.000000 0.000000 
0.000000 -0.000000 0.000000 
0.000000 0.000000 0.000000 

0.000000 -0.000000 0.000000 
0.000000 0.000000 0.000000 
0.000000 0.000000 0.000000 

-0.000000 -0.000000 0.000000 
0.000000 -0.000000 0.000000 
0.000000 0.000000 0.000000 

0.000000 -0.000000 0.000000 
0.000000 0.000000 0.000000 
0.000000 0.000000 0.000000 

-0.000000 0.000000 0.000000 
0.000000 -0.000000 0.000000 
0.000000 0.000000 0.000000 

0.000000 0.000000 0.000000 
0.000000 -0.000000 0.000000 
0.000000 0.000000 0.000000 

0.000000 0.000000 0.000000 
0.000000 0.000000 0.000000 
0.000000 0.000000 0.000000 

-0.000000 -0.000000 0.000000 
0.000000 -0.000000 0.000000 
0.000000 0.000000 0.000000 

-0.000000 0.000000 0.000000 
0.000000 -0.000000 0.000000 
0.000000 0.000000 0.000000 

0.000000 0.000000 0.000000 
0.000000 0.000000 0.000000 
0.000000 0.000000 0.000000 

0.000000 0.000000 0.000000 
0.000000 -0.000000 0.000000 
0.000000 0.000000 0.000000 

0.000000 0.000000 0.000000 
0.000000 0.000000 0.000000 
0.000000 0.000000 0.000000 

-0.000000 0.000000 0.000000 
0.000000 0.000000 0.000000 
0.000000 0.000000 0.000000 

0.000000 -0.000000 0.000000 
0.000000 0.000000 0.000000 
0.000000 0.000000 0.000000 

0.000000 -0.000000 0.000000 
0.000000 0.000000 0.000000 
0.000000 0.000000 0.000000 

-0.000000 0.000000 0.000000 
0.000000 -0.000000 0.000000 
0.000000 0.000000 0.000000 

0.000000 -0.000000 0.000000 
0.000000 -0.000000 0.000000 
0.000000 0.000000 0.000000 

0.000000 0.000000 0.000000 
0.000000 0.000000 0.000000 
0.000000 0.000000 0.000000 

0.000000 0.000000 0.000000 
0.000000 0.000000 0.000000 
0.000000 0.000000 0.000000 

0.000000 0.000000 0.000000 
0.000000 0.000000 0.000000 
0.000000 0.000000 0.000000 

-0.000000 0.000000 0.000000 
0.000000 0.000000 0.000000 
0.000000 0.000000 0.000000 

-0.000000 -0.000000 0.000000 
0.000000 0.000000 0.000000 
0.000000 0.000000 0.000000 

0.000000 -0.000000 0.000000 
0.000000 0.000000 0.000000 
0.000000 0.000000 0.000000 

0.000000 0.000000 0.000000 
0.000000 0.000000 0.000000 
0.000000 0.000000 0.000000 

-0.000000 -0.000000 0.000000 
0.000000 -0.000000 0.000000 
0.000000 0.000000 0.000000 

-0.000000 -0.000000 0.000000 
0.000000 -0.000000 0.000000 
0.000000 0.000000 0.000000 

-0.000000 0.000000 0.000000 
0.000000 -0.000000 0.000000 
0.000000 0.000000 0.000000 

0.000000 -0.000000 0.000000 
0.000000 0.000000 0.000000 
0.000000 0.000000 0.000000 

-0.000000 -0.000000 0.000000 
0.000000 -0.000000 0.000000 
0.000000 0.000000 0.000000 

-0.000000 -0.000000 0.000000 
0.000000 -0.000000 0.000000 
0.000000 0.000000 0.000000 

0.000000 -0.000000 0.000000 
0.000000 0.000000 0.000000 
0.000000 0.000000 0.000000 

0.000000 -0.000000 0.000000 
0.000000 0.000000 0.000000 
0.000000 0.000000 0.000000 

0.000000 -0.000000 0.000000 
0.000000 -0.000000 0.000000 
0.000000 0.000000 0.000000 

0.000000 0.000000 0.000000 
0.000000 0.000000 0.000000 
0.000000 0.000000 0.000000 

-0.000000 0.000000 0.000000 
0.000000 -0.000000 0.000000 
0.000000 0.000000 0.000000 

0.000000 0.000000 0.000000 
0.000000 0.000000 0.000000 
0.000000 0.000000 0.000000 

-0.000000 -0.000000 0.000000 
0.000000 -0.000000 0.000000 
0.000000 0.000000 0.000000 

0.000000 -0.000000 0.000000 
0.000000 0.000000 0.000000 
0.000000 0.000000 0.000000 

0.000000 0.000000 0.000000 
0.000000 0.000000 0.000000 
0.000000 0.000000 0.000000 

0.000000 -0.000000 0.000000 
0.000000 0.000000 0.000000 
0.000000 0.000000 0.000000 

-0.000000 -0.000000 0.000000 
0.000000 -0.000000 0.000000 
0.000000 0.000000 0.000000 

0.000000 0.000000 0.000000 
0.000000 0.000000 0.000000 
0.000000 0.000000 0.000000 

-0.000000 0.000000 0.000000 
0.000000 -0.000000 0.000000 
0.000000 0.000000 0.000000 

-0.000000 0.000000 0.000000 
0.000000 -0.000000 0.000000 
0.000000 0.000000 0.000000 

-0.000000 0.000000 0.000000 
0.000000 -0.000000 0.000000 
0.000000 0.000000 0.000000 

0.000000 -0.000000 0.000000 
0.000000 -0.000000 0.000000 
0.000000 0.000000 0.000000 

0.000000 0.000000 0.000000 
0.000000 -0.000000 0.000000 
0.000000 0.000000 0.000000 

0.000000 0.000000 0.000000 
0.000000 -0.000000 0.000000 
0.000000 0.000000 0.000000 

-0.000000 -0.000000 0.000000 
0.000000 -0.000000 0.000000 
0.000000 0.000000 0.000000 

-0.000000 0.000000 0.000000 
0.000000 -0.000000 0.000000 
0.000000 0.000000 0.000000 

-0.000000 -0.000000 0.000000 
0.000000 -0.000000 0.000000 
0.000000 0.000000 0.000000 

0.000000 -0.000000 0.000000 
0.000000 0.000000 0.000000 
0.000000 0.000000 0.000000 

0.000000 0.000000 0.000000 
0.000000 0.000000 0.000000 
0.000000 0.000000 0.000000 

0.000000 -0.000000 0.000000 
0.000000 0.000000 0.000000 
0.000000 0.000000 0.000000 

-0.000000 0.000000 0.000000 
0.000000 -0.000000 0.000000 
0.000000 0.000000 0.000000 

0.000000 0.000000 0.000000 
0.000000 0.000000 0.000000 
0.000000 0.000000 0.000000 

0.000000 0.000000 0.000000 
0.000000 0.000000 0.000000 
0.000000 0.000000 0.000000 

0.000000 -0.000000 0.000000 
0.000000 -0.000000 0.000000 
0.000000 0.000000 0.000000 

0.000000 0.000000 0.000000 
0.000000 0.000000 0.000000 
0.000000 0.000000 0.000000 

0.000000 -0.000000 0.000000 
0.000000 0.000000 0.000000 
0.000000 0.000000 0.000000 

0.000000 -0.000000 0.000000 
0.000000 0.000000 0.000000 
0.000000 0.000000 0.000000 

0.000000 -0.000000 0.000000 
0.000000 0.000000 0.000000 
0.000000 0.000000 0.000000 

0.000000 -0.000000 0.000000 
0.000000 -0.000000 0.000000 
0.000000 0.000000 0.000000 

0.000000 -0.000000 0.000000 
0.000000 0.000000 0.000000 
0.000000 0.000000 0.000000 

0.000000 0.000000 0.000000 
0.000000 0.000000 0.000000 
0.000000 0.000000 0.000000 

0.000000 -0.000000 0.000000 
0.000000 0.000000 0.000000 
0.000000 0.000000 0.000000 

-0.000000 -0.000000 0.000000 
0.000000 -0.000000 0.000000 
0.000000 0.000000 0.000000 

0.000000 0.000000 0.000000 
0.000000 0.000000 0.000000 
0.000000 0.000000 0.000000 

0.000000 -0.000000 0.000000 
0.000000 0.000000 0.000000 
0.000000 0.000000 0.000000 

-0.000000 0.000000 0.000000 
0.000000 -0.000000 0.000000 
0.000000 0.000000 0.000000 

0.000000 0.000000 0.000000 
0.000000 0.000000 0.000000 
0.000000 0.000000 0.000000 

0.000000 -0.000000 0.000000 
0.000000 0.000000 0.000000 
0.000000 0.000000 0.000000 

-0.000000 0.000000 0.000000 
0.000000 -0.000000 0.000000 
0.000000 0.000000 0.000000 

0.000000 0.000000 0.000000 
0.000000 0.000000 0.000000 
0.000000 0.000000 0.000000 

0.000000 -0.000000 0.000000 
0.000000 0.000000 0.000000 
0.000000 0.000000 0.000000 

0.000000 -0.000000 0.000000 
0.000000 0.000000 0.000000 
0.000000 0.000000 0.000000 

0.000000 0.000000 0.000000 
0.000000 0.000000 0.000000 
0.000000 0.000000 0.000000 

0.000000 0.000000 0.000000 
0.000000 0.000000 0.000000 
0.000000 0.000000 0.000000 

-0.000000 -0.000000 0.000000 
0.000000 -0.000000 0.000000 
0.000000 0.000000 0.000000 

-0.000000 -0.000000 0.000000 
0.000000 -0.000000 0.000000 
0.000000 0.000000 0.000000 

-0.000000 -0.000000 0.000000 
0.000000 -0.000000 0.000000 
0.000000 0.000000 0.000000 

-0.000000 0.000000 0.000000 
0.000000 0.000000 0.000000 
0.000000 0.000000 0.000000 

-0.000000 0.000000 0.000000 
0.000000 -0.000000 0.000000 
0.000000 0.000000 0.000000 

-0.000000 -0.000000 0.000000 
0.000000 0.000000 0.000000 
0.000000 0.000000 0.000000 

-0.000000 -0.000000 0.000000 
0.000000 -0.000000 0.000000 
0.000000 0.000000 0.000000 

-0.000000 -0.000000 0.000000 
0.000000 -0.000000 0.000000 
0.000000 0.000000 0.000000 

0.000000 0.000000 0.000000 
0.000000 -0.000000 0.000000 
0.000000 0.000000 0.000000 

0.000000 -0.000000 0.000000 
0.000000 -0.000000 0.000000 
0.000000 0.000000 0.000000 

0.000000 -0.000000 0.000000 
0.000000 -0.000000 0.000000 
0.000000 0.000000 0.000000 

0.000000 -0.000000 0.000000 
0.000000 -0.000000 0.000000 
0.000000 0.000000 0.000000 

0.000000 0.000000 0.000000 
0.000000 0.000000 0.000000 
0.000000 0.000000 0.000000 

-0.000000 -0.000000 0.000000 
0.000000 -0.000000 0.000000 
0.000000 0.000000 0.000000 

-0.000000 -0.000000 0.000000 
0.000000 -0.000000 0.000000 
0.000000 0.000000 0.000000 

0.000000 -0.000000 0.000000 
0.000000 0.000000 0.000000 
0.000000 0.000000 0.000000 

0.000000 0.000000 0.000000 
0.000000 -0.000000 0.000000 
0.000000 0.000000 0.000000 

0.000000 -0.000000 0.000000 
0.000000 0.000000 0.000000 
0.000000 0.000000 0.000000 

0.000000 0.000000 0.000000 
0.000000 0.000000 0.000000 
0.000000 0.000000 0.000000 

0.000000 0.000000 0.000000 
0.000000 0.000000 0.000000 
0.000000 0.000000 0.000000 

-0.000000 0.000000 0.000000 
0.000000 -0.000000 0.000000 
0.000000 0.000000 0.000000 

-0.000000 0.000000 0.000000 
0.000000 -0.000000 0.000000 
0.000000 0.000000 0.000000 

-0.000000 0.000000 0.000000 
0.000000 -0.000000 0.000000 
0.000000 0.000000 0.000000 

0.000000 0.000000 0.000000 
0.000000 0.000000 0.000000 
0.000000 0.000000 0.000000 

-0.000000 -0.000000 0.000000 
0.000000 -0.000000 0.000000 
0.000000 0.000000 0.000000 

0.000000 0.000000 0.000000 
0.000000 0.000000 0.000000 
0.000000 0.000000 0.000000 

0.000000 0.000000 0.000000 
0.000000 0.000000 0.000000 
0.000000 0.000000 0.000000 

0.000000 0.000000 0.000000 
0.000000 0.000000 0.000000 
0.000000 0.000000 0.000000 

0.000000 -0.000000 0.000000 
0.000000 0.000000 0.000000 
0.000000 0.000000 0.000000 

-0.000000 0.000000 0.000000 
0.000000 -0.000000 0.000000 
0.000000 0.000000 0.000000 

-0.000000 0.000000 0.000000 
0.000000 0.000000 0.000000 
0.000000 0.000000 0.000000 

-0.000000 0.000000 0.000000 
0.000000 -0.000000 0.000000 
0.000000 0.000000 0.000000 

0.000000 -0.000000 0.000000 
0.000000 0.000000 0.000000 
0.000000 0.000000 0.000000 

0.000000 0.000000 0.000000 
0.000000 0.000000 0.000000 
0.000000 0.000000 0.000000 

0.000000 0.000000 0.000000 
0.000000 -0.000000 0.000000 
0.000000 0.000000 0.000000 

-0.000000 0.000000 0.000000 
0.000000 -0.000000 0.000000 
0.000000 0.000000 0.000000 

0.000000 -0.000000 0.000000 
0.000000 0.000000 0.000000 
0.000000 0.000000 0.000000 

0.000000 -0.000000 0.000000 
0.000000 -0.000000 0.000000 
0.000000 0.000000 0.000000 

0.000000 0.000000 0.000000 
0.000000 0.000000 0.000000 
0.000000 0.000000 0.000000 

0.000000 -0.000000 0.000000 
0.000000 0.000000 0.000000 
0.000000 0.000000 0.000000 

0.000000 0.000000 0.000000 
0.000000 -0.000000 0.000000 
0.000000 0.000000 0.000000 

-0.000000 0.000000 0.000000 
0.000000 0.000000 0.000000 
0.000000 0.000000 0.000000 

0.000000 -0.000000 0.000000 
0.000000 0.000000 0.000000 
0.000000 0.000000 0.000000 

0.000000 0.000000 0.000000 
0.000000 0.000000 0.000000 
0.000000 0.000000 0.000000 

0.000000 0.000000 0.000000 
0.000000 -0.000000 0.000000 
0.000000 0.000000 0.000000 

0.000000 -0.000000 0.000000 
0.000000 0.000000 0.000000 
0.000000 0.000000 0.000000 

0.000000 0.000000 0.000000 
0.000000 0.000000 0.000000 
0.000000 0.000000 0.000000 

-0.000000 0.000000 0.000000 
0.000000 0.000000 0.000000 
0.000000 0.000000 0.000000 

0.000000 0.000000 0.000000 
0.000000 0.000000 0.000000 
0.000000 0.000000 0.000000 

0.000000 -0.000000 0.000000 
0.000000 0.000000 0.000000 
0.000000 0.000000 0.000000 

TENSORS STRAIN float 
0.000000 0.000000 0.000000 
0.000000 -0.000000 0.000000 
0.000000 0.000000 0.000000 

-0.000000 -0.000000 0.000000 
0.000000 0.000000 0.000000 
0.000000 0.000000 0.000000 

0.000000 0.000000 0.000000 
0.000000 -0.000000 0.000000 
0.000000 0.000000 0.000000 

0.000000 0.000000 0.000000 
0.000000 -0.000000 0.000000 
0.000000 0.000000 0.000000 

0.000000 0.000000 0.000000 
0.000000 -0.000000 0.000000 
0.000000 0.000000 0.000000 

-0.000000 0.000000 0.000000 
0.000000 0.000000 0.000000 
0.000000 0.000000 0.000000 

-0.000000 0.000000 0.000000 
0.000000 -0.000000 0.000000 
0.000000 0.000000 0.000000 

-0.000000 0.000000 0.000000 
0.000000 0.000000 0.000000 
0.000000 0.000000 0.000000 

-0.000000 0.000000 0.000000 
0.000000 -0.000000 0.000000 
0.000000 0.000000 0.000000 

0.000000 0.000000 0.000000 
0.000000 -0.000000 0.000000 
0.000000 0.000000 0.000000 

-0.000000 -0.000000 0.000000 
0.000000 -0.000000 0.000000 
0.000000 0.000000 0.000000 

-0.000000 0.000000 0.000000 
0.000000 -0.000000 0.000000 
0.000000 0.000000 0.000000 

-0.000000 -0.000000 0.000000 
0.000000 0.000000 0.000000 
0.000000 0.000000 0.000000 

-0.000000 -0.000000 0.000000 
0.000000 0.000000 0.000000 
0.000000 0.000000 0.000000 

-0.000000 0.000000 0.000000 
0.000000 0.000000 0.000000 
0.000000 0.000000 0.000000 

0.000000 0.000000 0.000000 
0.000000 0.000000 0.000000 
0.000000 0.000000 0.000000 

0.000000 -0.000000 0.000000 
0.000000 -0.000000 0.000000 
0.000000 0.000000 0.000000 

0.000000 0.000000 0.000000 
0.000000 -0.000000 0.000000 
0.000000 0.000000 0.000000 

0.000000 0.000000 0.000000 
0.000000 -0.000000 0.000000 
0.000000 0.000000 0.000000 

-0.000000 0.000000 0.000000 
0.000000 0.000000 0.000000 
0.000000 0.000000 0.000000 

-0.000000 0.000000 0.000000 
0.000000 0.000000 0.000000 
0.000000 0.000000 0.000000 

-0.000000 0.000000 0.000000 
0.000000 0.000000 0.000000 
0.000000 0.000000 0.000000 

0.000000 0.000000 0.000000 
0.000000 -0.000000 0.000000 
0.000000 0.000000 0.000000 

-0.000000 -0.000000 0.000000 
0.000000 0.000000 0.000000 
0.000000 0.000000 0.000000 

-0.000000 0.000000 0.000000 
0.000000 0.000000 0.000000 
0.000000 0.000000 0.000000 

0.000000 0.000000 0.000000 
0.000000 0.000000 0.000000 
0.000000 0.000000 0.000000 

-0.000000 0.000000 0.000000 
0.000000 0.000000 0.000000 
0.000000 0.000000 0.000000 

-0.000000 0.000000 0.000000 
0.000000 0.000000 0.000000 
0.000000 0.000000 0.000000 

-0.000000 -0.000000 0.000000 
0.000000 -0.000000 0.000000 
0.000000 0.000000 0.000000 

0.000000 0.000000 0.000000 
0.000000 0.000000 0.000000 
0.000000 0.000000 0.000000 

0.000000 0.000000 0.000000 
0.000000 0.000000 0.000000 
0.000000 0.000000 0.000000 

0.000000 -0.000000 0.000000 
0.000000 -0.000000 0.000000 
0.000000 0.000000 0.000000 

-0.000000 -0.000000 0.000000 
0.000000 0.000000 0.000000 
0.000000 0.000000 0.000000 

-0.000000 -0.000000 0.000000 
0.000000 -0.000000 0.000000 
0.000000 0.000000 0.000000 

0.000000 -0.000000 0.000000 
0.000000 -0.000000 0.000000 
0.000000 0.000000 0.000000 

0.000000 -0.000000 0.000000 
0.000000 0.000000 0.000000 
0.000000 0.000000 0.000000 

0.000000 -0.000000 0.000000 
0.000000 -0.000000 0.000000 
0.000000 0.000000 0.000000 

0.000000 0.000000 0.000000 
0.000000 0.000000 0.000000 
0.000000 0.000000 0.000000 

-0.000000 0.000000 0.000000 
0.000000 -0.000000 0.000000 
0.000000 0.000000 0.000000 

-0.000000 0.000000 0.000000 
0.000000 0.000000 0.000000 
0.000000 0.000000 0.000000 

-0.000000 0.000000 0.000000 
0.000000 0.000000 0.000000 
0.000000 0.000000 0.000000 

0.000000 0.000000 0.000000 
0.000000 0.000000 0.000000 
0.000000 0.000000 0.000000 

-0.000000 0.000000 0.000000 
0.000000 0.000000 0.000000 
0.000000 0.000000 0.000000 

-0.000000 -0.000000 0.000000 
0.000000 0.000000 0.000000 
0.000000 0.000000 0.000000 

0.000000 0.000000 0.000000 
0.000000 0.000000 0.000000 
0.000000 0.000000 0.000000 

0.000000 0.000000 0.000000 
0.000000 0.000000 0.000000 
0.000000 0.000000 0.000000 

0.000000 0.000000 0.000000 
0.000000 -0.000000 0.000000 
0.000000 0.000000 0.000000 

-0.000000 -0.000000 0.000000 
0.000000 0.000000 0.000000 
0.000000 0.000000 0.000000 

-0.000000 -0.000000 0.000000 
0.000000 0.000000 0.000000 
0.000000 0.000000 0.000000 

0.000000 -0.000000 0.000000 
0.000000 -0.000000 0.000000 
0.000000 0.000000 0.000000 

0.000000 -0.000000 0.000000 
0.000000 0.000000 0.000000 
0.000000 0.000000 0.000000 

0.000000 0.000000 0.000000 
0.000000 -0.000000 0.000000 
0.000000 0.000000 0.000000 

0.000000 0.000000 0.000000 
0.000000 -0.000000 0.000000 
0.000000 0.000000 0.000000 

0.000000 0.000000 0.000000 
0.000000 0.000000 0.000000 
0.000000 0.000000 0.000000 

0.000000 -0.000000 0.000000 
0.000000 -0.000000 0.000000 
0.000000 0.000000 0.000000 

0.000000 0.000000 0.000000 
0.000000 -0.000000 0.000000 
0.000000 0.000000 0.000000 

0.000000 0.000000 0.000000 
0.000000 -0.000000 0.000000 
0.000000 0.000000 0.000000 

0.000000 0.000000 0.000000 
0.000000 -0.000000 0.000000 
0.000000 0.000000 0.000000 

0.000000 0.000000 0.000000 
0.000000 -0.000000 0.000000 
0.000000 0.000000 0.000000 

-0.000000 0.000000 0.000000 
0.000000 0.000000 0.000000 
0.000000 0.000000 0.000000 

-0.000000 -0.000000 0.000000 
0.000000 0.000000 0.000000 
0.000000 0.000000 0.000000 

0.000000 -0.000000 0.000000 
0.000000 -0.000000 0.000000 
0.000000 0.000000 0.000000 

0.000000 0.000000 0.000000 
0.000000 -0.000000 0.000000 
0.000000 0.000000 0.000000 

0.000000 -0.000000 0.000000 
0.000000 -0.000000 0.000000 
0.000000 0.000000 0.000000 

0.000000 0.000000 0.000000 
0.000000 -0.000000 0.000000 
0.000000 0.000000 0.000000 

0.000000 0.000000 0.000000 
0.000000 0.000000 0.000000 
0.000000 0.000000 0.000000 

-0.000000 0.000000 0.000000 
0.000000 0.000000 0.000000 
0.000000 0.000000 0.000000 

-0.000000 0.000000 0.000000 
0.000000 0.000000 0.000000 
0.000000 0.000000 0.000000 

-0.000000 -0.000000 0.000000 
0.000000 0.000000 0.000000 
0.000000 0.000000 0.000000 

0.000000 -0.000000 0.000000 
0.000000 0.000000 0.000000 
0.000000 0.000000 0.000000 

0.000000 0.000000 0.000000 
0.000000 0.000000 0.000000 
0.000000 0.000000 0.000000 

0.000000 -0.000000 0.000000 
0.000000 -0.000000 0.000000 
0.000000 0.000000 0.000000 

0.000000 -0.000000 0.000000 
0.000000 -0.000000 0.000000 
0.000000 0.000000 0.000000 

0.000000 0.000000 0.000000 
0.000000 -0.000000 0.000000 
0.000000 0.000000 0.000000 

0.000000 -0.000000 0.000000 
0.000000 0.000000 0.000000 
0.000000 0.000000 0.000000 

0.000000 -0.000000 0.000000 
0.000000 -0.000000 0.000000 
0.000000 0.000000 0.000000 

0.000000 -0.000000 0.000000 
0.000000 -0.000000 0.000000 
0.000000 0.000000 0.000000 

0.000000 -0.000000 0.000000 
0.000000 0.000000 0.000000 
0.000000 0.000000 0.000000 

0.000000 -0.000000 0.000000 
0.000000 0.000000 0.000000 
0.000000 0.000000 0.000000 

0.000000 -0.000000 0.000000 
0.000000 -0.000000 0.000000 
0.000000 0.000000 0.000000 

0.000000 0.000000 0.000000 
0.000000 0.000000 0.000000 
0.000000 0.000000 0.000000 

0.000000 0.000000 0.000000 
0.000000 -0.000000 0.000000 
0.000000 0.000000 0.000000 

0.000000 0.000000 0.000000 
0.000000 -0.000000 0.000000 
0.000000 0.000000 0.000000 

-0.000000 -0.000000 0.000000 
0.000000 -0.000000 0.000000 
0.000000 0.000000 0.000000 

0.000000 -0.000000 0.000000 
0.000000 -0.000000 0.000000 
0.000000 0.000000 0.000000 

0.000000 0.000000 0.000000 
0.000000 -0.000000 0.000000 
0.000000 0.000000 0.000000 

0.000000 -0.000000 0.000000 
0.000000 0.000000 0.000000 
0.000000 0.000000 0.000000 

-0.000000 -0.000000 0.000000 
0.000000 -0.000000 0.000000 
0.000000 0.000000 0.000000 

0.000000 0.000000 0.000000 
0.000000 0.000000 0.000000 
0.000000 0.000000 0.000000 

-0.000000 0.000000 0.000000 
0.000000 -0.000000 0.000000 
0.000000 0.000000 0.000000 

-0.000000 0.000000 0.000000 
0.000000 -0.000000 0.000000 
0.000000 0.000000 0.000000 

0.000000 0.000000 0.000000 
0.000000 -0.000000 0.000000 
0.000000 0.000000 0.000000 

0.000000 -0.000000 0.000000 
0.000000 -0.000000 0.000000 
0.000000 0.000000 0.000000 

0.000000 0.000000 0.000000 
0.000000 -0.000000 0.000000 
0.000000 0.000000 0.000000 

0.000000 0.000000 0.000000 
0.000000 -0.000000 0.000000 
0.000000 0.000000 0.000000 

0.000000 -0.000000 0.000000 
0.000000 -0.000000 0.000000 
0.000000 0.000000 0.000000 

0.000000 0.000000 0.000000 
0.000000 -0.000000 0.000000 
0.000000 0.000000 0.000000 

-0.000000 -0.000000 0.000000 
0.000000 -0.000000 0.000000 
0.000000 0.000000 0.000000 

-0.000000 -0.000000 0.000000 
0.000000 0.000000 0.000000 
0.000000 0.000000 0.000000 

0.000000 0.000000 0.000000 
0.000000 0.000000 0.000000 
0.000000 0.000000 0.000000 

0.000000 -0.000000 0.000000 
0.000000 -0.000000 0.000000 
0.000000 0.000000 0.000000 

-0.000000 0.000000 0.000000 
0.000000 -0.000000 0.000000 
0.000000 0.000000 0.000000 

-0.000000 0.000000 0.000000 
0.000000 0.000000 0.000000 
0.000000 0.000000 0.000000 

-0.000000 0.000000 0.000000 
0.000000 0.000000 0.000000 
0.000000 0.000000 0.000000 

0.000000 -0.000000 0.000000 
0.000000 -0.000000 0.000000 
0.000000 0.000000 0.000000 

-0.000000 0.000000 0.000000 
0.000000 0.000000 0.000000 
0.000000 0.000000 0.000000 

-0.000000 -0.000000 0.000000 
0.000000 0.000000 0.000000 
0.000000 0.000000 0.000000 

-0.000000 -0.000000 0.000000 
0.000000 0.000000 0.000000 
0.000000 0.000000 0.000000 

0.000000 -0.000000 0.000000 
0.000000 0.000000 0.000000 
0.000000 0.000000 0.000000 

0.000000 -0.000000 0.000000 
0.000000 -0.000000 0.000000 
0.000000 0.000000 0.000000 

0.000000 -0.000000 0.000000 
0.000000 -0.000000 0.000000 
0.000000 0.000000 0.000000 

0.000000 0.000000 0.000000 
0.000000 0.000000 0.000000 
0.000000 0.000000 0.000000 

0.000000 -0.000000 0.000000 
0.000000 -0.000000 0.000000 
0.000000 0.000000 0.000000 

0.000000 -0.000000 0.000000 
0.000000 -0.000000 0.000000 
0.000000 0.000000 0.000000 

0.000000 0.000000 0.000000 
0.000000 0.000000 0.000000 
0.000000 0.000000 0.000000 

0.000000 -0.000000 0.000000 
0.000000 0.000000 0.000000 
0.000000 0.000000 0.000000 

0.000000 0.000000 0.000000 
0.000000 -0.000000 0.000000 
0.000000 0.000000 0.000000 

0.000000 0.000000 0.000000 
0.000000 0.000000 0.000000 
0.000000 0.000000 0.000000 

0.000000 -0.000000 0.000000 
0.000000 0.000000 0.000000 
0.000000 0.000000 0.000000 

0.000000 0.000000 0.000000 
0.000000 -0.000000 0.000000 
0.000000 0.000000 0.000000 

0.000000 0.000000 0.000000 
0.000000 0.000000 0.000000 
0.000000 0.000000 0.000000 

0.000000 -0.000000 0.000000 
0.000000 0.000000 0.000000 
0.000000 0.000000 0.000000 

0.000000 -0.000000 0.000000 
0.000000 0.000000 0.000000 
0.000000 0.000000 0.000000 

-0.000000 0.000000 0.000000 
0.000000 0.000000 0.000000 
0.000000 0.000000 0.000000 

0.000000 0.000000 0.000000 
0.000000 0.000000 0.000000 
0.000000 0.000000 0.000000 

0.000000 -0.000000 0.000000 
0.000000 -0.000000 0.000000 
0.000000 0.000000 0.000000 

-0.000000 -0.000000 0.000000 
0.000000 -0.000000 0.000000 
0.000000 0.000000 0.000000 

-0.000000 -0.000000 0.000000 
0.000000 -0.000000 0.000000 
0.000000 0.000000 0.000000 

-0.000000 0.000000 0.000000 
0.000000 0.000000 0.000000 
0.000000 0.000000 0.000000 

0.000000 0.000000 0.000000 
0.000000 -0.000000 0.000000 
0.000000 0.000000 0.000000 

-0.000000 -0.000000 0.000000 
0.000000 0.000000 0.000000 
0.000000 0.000000 0.000000 

0.000000 -0.000000 0.000000 
0.000000 -0.000000 0.000000 
0.000000 0.000000 0.000000 

-0.000000 -0.000000 0.000000 
0.000000 0.000000 0.000000 
0.000000 0.000000 0.000000 

0.000000 0.000000 0.000000 
0.000000 -0.000000 0.000000 
0.000000 0.000000 0.000000 

0.000000 -0.000000 0.000000 
0.000000 -0.000000 0.000000 
0.000000 0.000000 0.000000 

0.000000 -0.000000 0.000000 
0.000000 -0.000000 0.000000 
0.000000 0.000000 0.000000 

0.000000 -0.000000 0.000000 
0.000000 -0.000000 0.000000 
0.000000 0.000000 0.000000 

0.000000 0.000000 0.000000 
0.000000 0.000000 0.000000 
0.000000 0.000000 0.000000 

0.000000 -0.000000 0.000000 
0.000000 -0.000000 0.000000 
0.000000 0.000000 0.000000 

0.000000 -0.000000 0.000000 
0.000000 -0.000000 0.000000 
0.000000 0.000000 0.000000 

0.000000 -0.000000 0.000000 
0.000000 -0.000000 0.000000 
0.000000 0.000000 0.000000 

0.000000 0.000000 0.000000 
0.000000 -0.000000 0.000000 
0.000000 0.000000 0.000000 

0.000000 -0.000000 0.000000 
0.000000 -0.000000 0.000000 
0.000000 0.000000 0.000000 

0.000000 0.000000 0.000000 
0.000000 0.000000 0.000000 
0.000000 0.000000 0.000000 

0.000000 0.000000 0.000000 
0.000000 0.000000 0.000000 
0.000000 0.000000 0.000000 

-0.000000 0.000000 0.000000 
0.000000 -0.000000 0.000000 
0.000000 0.000000 0.000000 

-0.000000 0.000000 0.000000 
0.000000 -0.000000 0.000000 
0.000000 0.000000 0.000000 

0.000000 0.000000 0.000000 
0.000000 -0.000000 0.000000 
0.000000 0.000000 0.000000 

0.000000 0.000000 0.000000 
0.000000 0.000000 0.000000 
0.000000 0.000000 0.000000 

-0.000000 -0.000000 0.000000 
0.000000 0.000000 0.000000 
0.000000 0.000000 0.000000 

0.000000 0.000000 0.000000 
0.000000 0.000000 0.000000 
0.000000 0.000000 0.000000 

0.000000 0.000000 0.000000 
0.000000 0.000000 0.000000 
0.000000 0.000000 0.000000 

0.000000 0.000000 0.000000 
0.000000 0.000000 0.000000 
0.000000 0.000000 0.000000 

-0.000000 -0.000000 0.000000 
0.000000 0.000000 0.000000 
0.000000 0.000000 0.000000 

-0.000000 0.000000 0.000000 
0.000000 -0.000000 0.000000 
0.000000 0.000000 0.000000 

-0.000000 0.000000 0.000000 
0.000000 0.000000 0.000000 
0.000000 0.000000 0.000000 

0.000000 0.000000 0.000000 
0.000000 -0.000000 0.000000 
0.000000 0.000000 0.000000 

0.000000 -0.000000 0.000000 
0.000000 0.000000 0.000000 
0.000000 0.000000 0.000000 

0.000000 0.000000 0.000000 
0.000000 0.000000 0.000000 
0.000000 0.000000 0.000000 

0.000000 0.000000 0.000000 
0.000000 -0.000000 0.000000 
0.000000 0.000000 0.000000 

-0.000000 0.000000 0.000000 
0.000000 -0.000000 0.000000 
0.000000 0.000000 0.000000 

0.000000 -0.000000 0.000000 
0.000000 0.000000 0.000000 
0.000000 0.000000 0.000000 

0.000000 -0.000000 0.000000 
0.000000 -0.000000 0.000000 
0.000000 0.000000 0.000000 

0.000000 0.000000 0.000000 
0.000000 -0.000000 0.000000 
0.000000 0.000000 0.000000 

0.000000 -0.000000 0.000000 
0.000000 0.000000 0.000000 
0.000000 0.000000 0.000000 

0.000000 0.000000 0.000000 
0.000000 -0.000000 0.000000 
0.000000 0.000000 0.000000 

-0.000000 0.000000 0.000000 
0.000000 0.000000 0.000000 
0.000000 0.000000 0.000000 

-0.000000 -0.000000 0.000000 
0.000000 0.000000 0.000000 
0.000000 0.000000 0.000000 

0.000000 0.000000 0.000000 
0.000000 0.000000 0.000000 
0.000000 0.000000 0.000000 

0.000000 0.000000 0.000000 
0.000000 -0.000000 0.000000 
0.000000 0.000000 0.000000 

0.000000 -0.000000 0.000000 
0.000000 0.000000 0.000000 
0.000000 0.000000 0.000000 

0.000000 0.000000 0.000000 
0.000000 0.000000 0.000000 
0.000000 0.000000 0.000000 

-0.000000 0.000000 0.000000 
0.000000 0.000000 0.000000 
0.000000 0.000000 0.000000 

0.000000 0.000000 0.000000 
0.000000 0.000000 0.000000 
0.000000 0.000000 0.000000 

0.000000 -0.000000 0.000000 
0.000000 0.000000 0.000000 
0.000000 0.000000 0.000000 

