# vtk DataFile Version 3.0 
vtk output 
ASCII 
DATASET UNSTRUCTURED_GRID 
POINTS 175 float 
-0.026061 -0.235328 0.000000 
-0.106992 -0.167273 0.000000 
-0.054870 -0.175506 0.000000 
-0.028809 -0.129622 0.000000 
-0.186430 -0.103197 0.000000 
-0.137056 -0.105724 0.000000 
-0.114311 -0.052076 0.000000 
-0.058186 -0.067742 0.000000 
-0.029377 -0.027565 0.000000 
-0.265318 -0.040042 0.000000 
-0.217198 -0.040841 0.000000 
-0.196633 0.016455 0.000000 
-0.143120 0.007747 0.000000 
-0.116563 0.055015 0.000000 
-0.058945 0.035369 0.000000 
-0.029568 0.073489 0.000000 
-0.344206 0.023114 0.000000 
-0.296791 0.023121 0.000000 
-0.278030 0.083064 0.000000 
-0.225992 0.077198 0.000000 
-0.201664 0.129315 0.000000 
-0.145749 0.115841 0.000000 
-0.117890 0.160184 0.000000 
-0.059328 0.137478 0.000000 
-0.029759 0.174544 0.000000 
-0.058559 -0.276079 0.000000 
-0.162226 -0.296922 0.000000 
-0.123292 -0.261304 0.000000 
-0.142917 -0.212321 0.000000 
-0.261851 -0.319078 0.000000 
-0.229092 -0.282051 0.000000 
-0.256854 -0.230820 0.000000 
-0.209613 -0.196707 0.000000 
-0.223062 -0.149133 0.000000 
-0.360414 -0.341378 0.000000 
-0.329787 -0.304255 0.000000 
-0.361761 -0.252453 0.000000 
-0.321587 -0.216044 0.000000 
-0.341985 -0.165810 0.000000 
-0.290702 -0.133011 0.000000 
-0.302189 -0.086276 0.000000 
-0.458977 -0.363678 0.000000 
-0.429420 -0.326604 0.000000 
-0.464588 -0.274562 0.000000 
-0.427556 -0.237534 0.000000 
-0.453135 -0.186020 0.000000 
-0.407738 -0.150704 0.000000 
-0.425037 -0.101276 0.000000 
-0.370772 -0.069647 0.000000 
-0.381315 -0.023420 0.000000 
-0.046960 -0.326894 0.000000 
-0.095301 -0.420940 0.000000 
-0.098873 -0.368293 0.000000 
-0.149405 -0.353095 0.000000 
-0.140093 -0.512644 0.000000 
-0.148617 -0.463946 0.000000 
-0.205981 -0.453709 0.000000 
-0.203197 -0.395505 0.000000 
-0.248777 -0.376359 0.000000 
-0.184111 -0.603608 0.000000 
-0.194039 -0.556517 0.000000 
-0.254475 -0.549217 0.000000 
-0.257893 -0.495107 0.000000 
-0.309886 -0.479735 0.000000 
-0.303554 -0.419190 0.000000 
-0.347255 -0.399032 0.000000 
-0.228129 -0.694571 0.000000 
-0.238687 -0.648347 0.000000 
-0.301302 -0.643395 0.000000 
-0.307162 -0.591356 0.000000 
-0.363386 -0.579235 0.000000 
-0.362692 -0.521724 0.000000 
-0.412122 -0.504431 0.000000 
-0.403017 -0.442284 0.000000 
-0.445733 -0.421705 0.000000 
-0.000000 -0.349509 0.000000 
0.043388 -0.445940 0.000000 
-0.000000 -0.415908 0.000000 
-0.043388 -0.445940 0.000000 
0.087158 -0.538137 0.000000 
0.043769 -0.514438 0.000000 
-0.000000 -0.552904 0.000000 
-0.043769 -0.514438 0.000000 
-0.087158 -0.538137 0.000000 
0.130831 -0.629266 0.000000 
0.087824 -0.607667 0.000000 
0.044436 -0.650367 0.000000 
-0.000000 -0.619302 0.000000 
-0.044436 -0.650367 0.000000 
-0.087824 -0.607667 0.000000 
-0.130831 -0.629266 0.000000 
0.174505 -0.720396 0.000000 
0.131782 -0.699830 0.000000 
0.088871 -0.745696 0.000000 
0.044532 -0.717832 0.000000 
-0.000000 -0.754233 0.000000 
-0.044532 -0.717832 0.000000 
-0.088871 -0.745696 0.000000 
-0.131782 -0.699830 0.000000 
-0.174505 -0.720396 0.000000 
0.046960 -0.326894 0.000000 
0.149405 -0.353095 0.000000 
0.098873 -0.368293 0.000000 
0.095301 -0.420940 0.000000 
0.248777 -0.376359 0.000000 
0.203197 -0.395505 0.000000 
0.205981 -0.453709 0.000000 
0.148617 -0.463946 0.000000 
0.140093 -0.512644 0.000000 
0.347255 -0.399032 0.000000 
0.303554 -0.419190 0.000000 
0.309886 -0.479735 0.000000 
0.257893 -0.495107 0.000000 
0.254475 -0.549217 0.000000 
0.194039 -0.556517 0.000000 
0.184111 -0.603608 0.000000 
0.445733 -0.421705 0.000000 
0.403017 -0.442284 0.000000 
0.412122 -0.504431 0.000000 
0.362692 -0.521724 0.000000 
0.363386 -0.579235 0.000000 
0.307162 -0.591356 0.000000 
0.301302 -0.643395 0.000000 
0.238687 -0.648347 0.000000 
0.228129 -0.694571 0.000000 
0.058559 -0.276079 0.000000 
0.142917 -0.212321 0.000000 
0.123292 -0.261304 0.000000 
0.162226 -0.296922 0.000000 
0.223062 -0.149133 0.000000 
0.209613 -0.196707 0.000000 
0.256854 -0.230820 0.000000 
0.229092 -0.282051 0.000000 
0.261851 -0.319078 0.000000 
0.302189 -0.086276 0.000000 
0.290702 -0.133011 0.000000 
0.341985 -0.165810 0.000000 
0.321587 -0.216044 0.000000 
0.361761 -0.252453 0.000000 
0.329787 -0.304255 0.000000 
0.360414 -0.341378 0.000000 
0.381315 -0.023420 0.000000 
0.370772 -0.069647 0.000000 
0.425037 -0.101276 0.000000 
0.407738 -0.150704 0.000000 
0.453135 -0.186020 0.000000 
0.427556 -0.237534 0.000000 
0.464588 -0.274562 0.000000 
0.429420 -0.326604 0.000000 
0.458977 -0.363678 0.000000 
0.026061 -0.235328 0.000000 
0.028809 -0.129622 0.000000 
0.054870 -0.175506 0.000000 
0.106992 -0.167273 0.000000 
0.029377 -0.027565 0.000000 
0.058186 -0.067742 0.000000 
0.114311 -0.052076 0.000000 
0.137056 -0.105724 0.000000 
0.186430 -0.103197 0.000000 
0.029568 0.073489 0.000000 
0.058945 0.035369 0.000000 
0.116563 0.055015 0.000000 
0.143120 0.007747 0.000000 
0.196633 0.016455 0.000000 
0.217198 -0.040841 0.000000 
0.265318 -0.040042 0.000000 
0.029759 0.174544 0.000000 
0.059328 0.137478 0.000000 
0.117890 0.160184 0.000000 
0.145749 0.115841 0.000000 
0.201664 0.129315 0.000000 
0.225992 0.077198 0.000000 
0.278030 0.083064 0.000000 
0.296791 0.023121 0.000000 
0.344206 0.023114 0.000000 
CELLS 175 350 
1 0 
1 1 
1 2 
1 3 
1 4 
1 5 
1 6 
1 7 
1 8 
1 9 
1 10 
1 11 
1 12 
1 13 
1 14 
1 15 
1 16 
1 17 
1 18 
1 19 
1 20 
1 21 
1 22 
1 23 
1 24 
1 25 
1 26 
1 27 
1 28 
1 29 
1 30 
1 31 
1 32 
1 33 
1 34 
1 35 
1 36 
1 37 
1 38 
1 39 
1 40 
1 41 
1 42 
1 43 
1 44 
1 45 
1 46 
1 47 
1 48 
1 49 
1 50 
1 51 
1 52 
1 53 
1 54 
1 55 
1 56 
1 57 
1 58 
1 59 
1 60 
1 61 
1 62 
1 63 
1 64 
1 65 
1 66 
1 67 
1 68 
1 69 
1 70 
1 71 
1 72 
1 73 
1 74 
1 75 
1 76 
1 77 
1 78 
1 79 
1 80 
1 81 
1 82 
1 83 
1 84 
1 85 
1 86 
1 87 
1 88 
1 89 
1 90 
1 91 
1 92 
1 93 
1 94 
1 95 
1 96 
1 97 
1 98 
1 99 
1 100 
1 101 
1 102 
1 103 
1 104 
1 105 
1 106 
1 107 
1 108 
1 109 
1 110 
1 111 
1 112 
1 113 
1 114 
1 115 
1 116 
1 117 
1 118 
1 119 
1 120 
1 121 
1 122 
1 123 
1 124 
1 125 
1 126 
1 127 
1 128 
1 129 
1 130 
1 131 
1 132 
1 133 
1 134 
1 135 
1 136 
1 137 
1 138 
1 139 
1 140 
1 141 
1 142 
1 143 
1 144 
1 145 
1 146 
1 147 
1 148 
1 149 
1 150 
1 151 
1 152 
1 153 
1 154 
1 155 
1 156 
1 157 
1 158 
1 159 
1 160 
1 161 
1 162 
1 163 
1 164 
1 165 
1 166 
1 167 
1 168 
1 169 
1 170 
1 171 
1 172 
1 173 
1 174 
CELL_TYPES 175 
1 
1 
1 
1 
1 
1 
1 
1 
1 
1 
1 
1 
1 
1 
1 
1 
1 
1 
1 
1 
1 
1 
1 
1 
1 
1 
1 
1 
1 
1 
1 
1 
1 
1 
1 
1 
1 
1 
1 
1 
1 
1 
1 
1 
1 
1 
1 
1 
1 
1 
1 
1 
1 
1 
1 
1 
1 
1 
1 
1 
1 
1 
1 
1 
1 
1 
1 
1 
1 
1 
1 
1 
1 
1 
1 
1 
1 
1 
1 
1 
1 
1 
1 
1 
1 
1 
1 
1 
1 
1 
1 
1 
1 
1 
1 
1 
1 
1 
1 
1 
1 
1 
1 
1 
1 
1 
1 
1 
1 
1 
1 
1 
1 
1 
1 
1 
1 
1 
1 
1 
1 
1 
1 
1 
1 
1 
1 
1 
1 
1 
1 
1 
1 
1 
1 
1 
1 
1 
1 
1 
1 
1 
1 
1 
1 
1 
1 
1 
1 
1 
1 
1 
1 
1 
1 
1 
1 
1 
1 
1 
1 
1 
1 
1 
1 
1 
1 
1 
1 
1 
1 
1 
1 
1 
1 
POINT_DATA 175 
VECTORS X_GC float 
-0.026061 -0.235328 0.000000 
-0.106992 -0.167273 0.000000 
-0.054870 -0.175506 0.000000 
-0.028809 -0.129622 0.000000 
-0.186430 -0.103197 0.000000 
-0.137056 -0.105724 0.000000 
-0.114311 -0.052076 0.000000 
-0.058186 -0.067742 0.000000 
-0.029377 -0.027565 0.000000 
-0.265318 -0.040042 0.000000 
-0.217198 -0.040841 0.000000 
-0.196633 0.016455 0.000000 
-0.143120 0.007747 0.000000 
-0.116563 0.055015 0.000000 
-0.058945 0.035369 0.000000 
-0.029568 0.073489 0.000000 
-0.344206 0.023114 0.000000 
-0.296791 0.023121 0.000000 
-0.278030 0.083064 0.000000 
-0.225992 0.077198 0.000000 
-0.201664 0.129315 0.000000 
-0.145749 0.115841 0.000000 
-0.117890 0.160184 0.000000 
-0.059328 0.137478 0.000000 
-0.029759 0.174544 0.000000 
-0.058559 -0.276079 0.000000 
-0.162226 -0.296922 0.000000 
-0.123292 -0.261304 0.000000 
-0.142917 -0.212321 0.000000 
-0.261851 -0.319078 0.000000 
-0.229092 -0.282051 0.000000 
-0.256854 -0.230820 0.000000 
-0.209613 -0.196707 0.000000 
-0.223062 -0.149133 0.000000 
-0.360414 -0.341378 0.000000 
-0.329787 -0.304255 0.000000 
-0.361761 -0.252453 0.000000 
-0.321587 -0.216044 0.000000 
-0.341985 -0.165810 0.000000 
-0.290702 -0.133011 0.000000 
-0.302189 -0.086276 0.000000 
-0.458977 -0.363678 0.000000 
-0.429420 -0.326604 0.000000 
-0.464588 -0.274562 0.000000 
-0.427556 -0.237534 0.000000 
-0.453135 -0.186020 0.000000 
-0.407738 -0.150704 0.000000 
-0.425037 -0.101276 0.000000 
-0.370772 -0.069647 0.000000 
-0.381315 -0.023420 0.000000 
-0.046960 -0.326894 0.000000 
-0.095301 -0.420940 0.000000 
-0.098873 -0.368293 0.000000 
-0.149405 -0.353095 0.000000 
-0.140093 -0.512644 0.000000 
-0.148617 -0.463946 0.000000 
-0.205981 -0.453709 0.000000 
-0.203197 -0.395505 0.000000 
-0.248777 -0.376359 0.000000 
-0.184111 -0.603608 0.000000 
-0.194039 -0.556517 0.000000 
-0.254475 -0.549217 0.000000 
-0.257893 -0.495107 0.000000 
-0.309886 -0.479735 0.000000 
-0.303554 -0.419190 0.000000 
-0.347255 -0.399032 0.000000 
-0.228129 -0.694571 0.000000 
-0.238687 -0.648347 0.000000 
-0.301302 -0.643395 0.000000 
-0.307162 -0.591356 0.000000 
-0.363386 -0.579235 0.000000 
-0.362692 -0.521724 0.000000 
-0.412122 -0.504431 0.000000 
-0.403017 -0.442284 0.000000 
-0.445733 -0.421705 0.000000 
-0.000000 -0.349509 0.000000 
0.043388 -0.445940 0.000000 
-0.000000 -0.415908 0.000000 
-0.043388 -0.445940 0.000000 
0.087158 -0.538137 0.000000 
0.043769 -0.514438 0.000000 
-0.000000 -0.552904 0.000000 
-0.043769 -0.514438 0.000000 
-0.087158 -0.538137 0.000000 
0.130831 -0.629266 0.000000 
0.087824 -0.607667 0.000000 
0.044436 -0.650367 0.000000 
-0.000000 -0.619302 0.000000 
-0.044436 -0.650367 0.000000 
-0.087824 -0.607667 0.000000 
-0.130831 -0.629266 0.000000 
0.174505 -0.720396 0.000000 
0.131782 -0.699830 0.000000 
0.088871 -0.745696 0.000000 
0.044532 -0.717832 0.000000 
-0.000000 -0.754233 0.000000 
-0.044532 -0.717832 0.000000 
-0.088871 -0.745696 0.000000 
-0.131782 -0.699830 0.000000 
-0.174505 -0.720396 0.000000 
0.046960 -0.326894 0.000000 
0.149405 -0.353095 0.000000 
0.098873 -0.368293 0.000000 
0.095301 -0.420940 0.000000 
0.248777 -0.376359 0.000000 
0.203197 -0.395505 0.000000 
0.205981 -0.453709 0.000000 
0.148617 -0.463946 0.000000 
0.140093 -0.512644 0.000000 
0.347255 -0.399032 0.000000 
0.303554 -0.419190 0.000000 
0.309886 -0.479735 0.000000 
0.257893 -0.495107 0.000000 
0.254475 -0.549217 0.000000 
0.194039 -0.556517 0.000000 
0.184111 -0.603608 0.000000 
0.445733 -0.421705 0.000000 
0.403017 -0.442284 0.000000 
0.412122 -0.504431 0.000000 
0.362692 -0.521724 0.000000 
0.363386 -0.579235 0.000000 
0.307162 -0.591356 0.000000 
0.301302 -0.643395 0.000000 
0.238687 -0.648347 0.000000 
0.228129 -0.694571 0.000000 
0.058559 -0.276079 0.000000 
0.142917 -0.212321 0.000000 
0.123292 -0.261304 0.000000 
0.162226 -0.296922 0.000000 
0.223062 -0.149133 0.000000 
0.209613 -0.196707 0.000000 
0.256854 -0.230820 0.000000 
0.229092 -0.282051 0.000000 
0.261851 -0.319078 0.000000 
0.302189 -0.086276 0.000000 
0.290702 -0.133011 0.000000 
0.341985 -0.165810 0.000000 
0.321587 -0.216044 0.000000 
0.361761 -0.252453 0.000000 
0.329787 -0.304255 0.000000 
0.360414 -0.341378 0.000000 
0.381315 -0.023420 0.000000 
0.370772 -0.069647 0.000000 
0.425037 -0.101276 0.000000 
0.407738 -0.150704 0.000000 
0.453135 -0.186020 0.000000 
0.427556 -0.237534 0.000000 
0.464588 -0.274562 0.000000 
0.429420 -0.326604 0.000000 
0.458977 -0.363678 0.000000 
0.026061 -0.235328 0.000000 
0.028809 -0.129622 0.000000 
0.054870 -0.175506 0.000000 
0.106992 -0.167273 0.000000 
0.029377 -0.027565 0.000000 
0.058186 -0.067742 0.000000 
0.114311 -0.052076 0.000000 
0.137056 -0.105724 0.000000 
0.186430 -0.103197 0.000000 
0.029568 0.073489 0.000000 
0.058945 0.035369 0.000000 
0.116563 0.055015 0.000000 
0.143120 0.007747 0.000000 
0.196633 0.016455 0.000000 
0.217198 -0.040841 0.000000 
0.265318 -0.040042 0.000000 
0.029759 0.174544 0.000000 
0.059328 0.137478 0.000000 
0.117890 0.160184 0.000000 
0.145749 0.115841 0.000000 
0.201664 0.129315 0.000000 
0.225992 0.077198 0.000000 
0.278030 0.083064 0.000000 
0.296791 0.023121 0.000000 
0.344206 0.023114 0.000000 
VECTORS X_EC float 
0.338794 -0.323067 0.000000 
-0.609100 0.758184 0.000000 
0.713312 0.869325 0.000000 
0.374519 0.249895 0.000000 
0.423588 -0.106835 0.000000 
-0.218274 -0.072732 0.000000 
-0.513962 -0.796970 0.000000 
0.756418 -0.585484 0.000000 
0.381900 0.872123 0.000000 
-0.550868 -0.959438 0.000000 
0.823577 -0.948643 0.000000 
0.556234 0.277853 0.000000 
-0.139443 0.395422 0.000000 
-0.484677 -0.242703 0.000000 
0.766286 0.022513 0.000000 
0.384386 -0.492108 0.000000 
0.474677 0.187958 0.000000 
-0.141715 0.187862 0.000000 
-0.385608 -0.621366 0.000000 
0.937896 -0.542171 0.000000 
0.621631 0.754249 0.000000 
-0.105264 0.936149 0.000000 
-0.467428 0.337522 0.000000 
0.771260 0.644051 0.000000 
0.386873 0.143661 0.000000 
0.761262 0.227067 0.000000 
0.108942 0.508444 0.000000 
-0.397202 0.027604 0.000000 
-0.142083 -0.633671 0.000000 
-0.595936 0.807554 0.000000 
0.978194 0.307688 0.000000 
-0.660903 -0.383937 0.000000 
0.724964 -0.844457 0.000000 
0.899809 0.513295 0.000000 
0.685384 -0.891394 0.000000 
0.287229 0.607448 0.000000 
0.702895 -0.091881 0.000000 
0.180633 -0.583399 0.000000 
0.445811 0.738441 0.000000 
-0.220880 0.295655 0.000000 
-0.071546 -0.335270 0.000000 
-0.033296 -0.590341 0.000000 
-0.417537 0.909149 0.000000 
0.039645 0.206587 0.000000 
-0.441768 -0.293285 0.000000 
-0.109248 -0.988735 0.000000 
-0.699407 0.534509 0.000000 
-0.474522 -0.132770 0.000000 
0.820030 -0.559764 0.000000 
0.957100 0.816165 0.000000 
0.610485 0.913073 0.000000 
-0.761092 0.182693 0.000000 
-0.714655 -0.528045 0.000000 
-0.057734 -0.733212 0.000000 
-0.178789 -0.579303 0.000000 
-0.067979 0.763271 0.000000 
0.677748 0.625067 0.000000 
0.641556 -0.160678 0.000000 
-0.765897 -0.419156 0.000000 
0.393446 0.648706 0.000000 
0.522510 0.012976 0.000000 
-0.691820 -0.085568 0.000000 
-0.647393 -0.816051 0.000000 
0.028512 0.976423 0.000000 
-0.053800 0.159062 0.000000 
0.514316 -0.113069 0.000000 
0.965681 -0.123285 0.000000 
-0.897068 -0.747314 0.000000 
-0.083078 -0.814167 0.000000 
-0.006893 0.483309 0.000000 
0.724017 0.319676 0.000000 
0.714996 -0.456728 0.000000 
-0.642413 -0.690185 0.000000 
-0.760780 0.470834 0.000000 
-0.205471 0.193019 0.000000 
0.000000 -0.781625 0.000000 
-0.564049 0.520188 0.000000 
0.000000 0.114752 0.000000 
0.564049 0.520188 0.000000 
0.866949 -0.235157 0.000000 
-0.569003 -0.555088 0.000000 
0.000000 -0.035800 0.000000 
0.569003 -0.555088 0.000000 
-0.866949 -0.235157 0.000000 
0.299194 0.995093 0.000000 
0.858290 0.703509 0.000000 
-0.577662 -0.720045 0.000000 
0.000000 0.860577 0.000000 
0.577662 -0.720045 0.000000 
-0.858290 0.703509 0.000000 
-0.299194 0.995093 0.000000 
-0.268560 0.225343 0.000000 
0.286830 -0.052298 0.000000 
0.844677 0.566900 0.000000 
-0.578910 0.190737 0.000000 
0.000000 0.682141 0.000000 
0.578910 0.190737 0.000000 
-0.844677 0.566900 0.000000 
-0.286830 -0.052298 0.000000 
0.268560 0.225343 0.000000 
-0.610485 0.913073 0.000000 
0.057734 -0.733212 0.000000 
0.714655 -0.528045 0.000000 
0.761092 0.182693 0.000000 
0.765897 -0.419156 0.000000 
-0.641556 -0.160678 0.000000 
-0.677748 0.625067 0.000000 
0.067979 0.763271 0.000000 
0.178789 -0.579303 0.000000 
-0.514316 -0.113069 0.000000 
0.053800 0.159062 0.000000 
-0.028512 0.976423 0.000000 
0.647393 -0.816051 0.000000 
0.691820 -0.085568 0.000000 
-0.522510 0.012976 0.000000 
-0.393446 0.648706 0.000000 
0.205471 0.193019 0.000000 
0.760780 0.470834 0.000000 
0.642413 -0.690185 0.000000 
-0.714996 -0.456728 0.000000 
-0.724017 0.319676 0.000000 
0.006894 0.483309 0.000000 
0.083078 -0.814167 0.000000 
0.897068 -0.747314 0.000000 
-0.965681 -0.123285 0.000000 
-0.761262 0.227067 0.000000 
0.142083 -0.633671 0.000000 
0.397202 0.027604 0.000000 
-0.108942 0.508444 0.000000 
-0.899809 0.513295 0.000000 
-0.724964 -0.844457 0.000000 
0.660903 -0.383937 0.000000 
-0.978194 0.307688 0.000000 
0.595936 0.807554 0.000000 
0.071546 -0.335270 0.000000 
0.220880 0.295655 0.000000 
-0.445811 0.738441 0.000000 
-0.180633 -0.583399 0.000000 
-0.702895 -0.091881 0.000000 
-0.287229 0.607448 0.000000 
-0.685384 -0.891394 0.000000 
-0.957100 0.816165 0.000000 
-0.820030 -0.559764 0.000000 
0.474522 -0.132770 0.000000 
0.699407 0.534509 0.000000 
0.109248 -0.988735 0.000000 
0.441768 -0.293285 0.000000 
-0.039645 0.206587 0.000000 
0.417537 0.909149 0.000000 
0.033296 -0.590341 0.000000 
-0.338794 -0.323067 0.000000 
-0.374519 0.249895 0.000000 
-0.713312 0.869325 0.000000 
0.609100 0.758184 0.000000 
-0.381900 0.872123 0.000000 
-0.756418 -0.585484 0.000000 
0.513962 -0.796970 0.000000 
0.218274 -0.072732 0.000000 
-0.423588 -0.106835 0.000000 
-0.384386 -0.492108 0.000000 
-0.766286 0.022513 0.000000 
0.484677 -0.242703 0.000000 
0.139443 0.395422 0.000000 
-0.556234 0.277853 0.000000 
-0.823577 -0.948643 0.000000 
0.550868 -0.959438 0.000000 
-0.386873 0.143661 0.000000 
-0.771260 0.644051 0.000000 
0.467428 0.337522 0.000000 
0.105264 0.936149 0.000000 
-0.621631 0.754249 0.000000 
-0.937896 -0.542171 0.000000 
0.385608 -0.621366 0.000000 
0.141715 0.187862 0.000000 
-0.474677 0.187958 0.000000 
CELL_DATA 175 
SCALARS MASS float 
LOOKUP_TABLE default 
0.078183 
0.086427 
0.094672 
0.086427 
0.088131 
0.092111 
0.085854 
0.092111 
0.088131 
0.088705 
0.091000 
0.086983 
0.091556 
0.086983 
0.091000 
0.088705 
0.089278 
0.091574 
0.089278 
0.092722 
0.089278 
0.092722 
0.089278 
0.091574 
0.089278 
0.078183 
0.086427 
0.094672 
0.086427 
0.088131 
0.092111 
0.085854 
0.092111 
0.088131 
0.088705 
0.091000 
0.086983 
0.091556 
0.086983 
0.091000 
0.088705 
0.089278 
0.091574 
0.089278 
0.092722 
0.089278 
0.092722 
0.089278 
0.091574 
0.089278 
0.078183 
0.086427 
0.094672 
0.086427 
0.088131 
0.092111 
0.085854 
0.092111 
0.088131 
0.088705 
0.091000 
0.086983 
0.091556 
0.086983 
0.091000 
0.088705 
0.089278 
0.091574 
0.089278 
0.092722 
0.089278 
0.092722 
0.089278 
0.091574 
0.089278 
0.078183 
0.086427 
0.094672 
0.086427 
0.088131 
0.092111 
0.085854 
0.092111 
0.088131 
0.088705 
0.091000 
0.086983 
0.091556 
0.086983 
0.091000 
0.088705 
0.089278 
0.091574 
0.089278 
0.092722 
0.089278 
0.092722 
0.089278 
0.091574 
0.089278 
0.078183 
0.086427 
0.094672 
0.086427 
0.088131 
0.092111 
0.085854 
0.092111 
0.088131 
0.088705 
0.091000 
0.086983 
0.091556 
0.086983 
0.091000 
0.088705 
0.089278 
0.091574 
0.089278 
0.092722 
0.089278 
0.092722 
0.089278 
0.091574 
0.089278 
0.078183 
0.086427 
0.094672 
0.086427 
0.088131 
0.092111 
0.085854 
0.092111 
0.088131 
0.088705 
0.091000 
0.086983 
0.091556 
0.086983 
0.091000 
0.088705 
0.089278 
0.091574 
0.089278 
0.092722 
0.089278 
0.092722 
0.089278 
0.091574 
0.089278 
0.078183 
0.086427 
0.094672 
0.086427 
0.088131 
0.092111 
0.085854 
0.092111 
0.088131 
0.088705 
0.091000 
0.086983 
0.091556 
0.086983 
0.091000 
0.088705 
0.089278 
0.091574 
0.089278 
0.092722 
0.089278 
0.092722 
0.089278 
0.091574 
0.089278 
SCALARS MASS float 
LOOKUP_TABLE default 
0.078183 
0.086427 
0.094672 
0.086427 
0.088131 
0.092111 
0.085854 
0.092111 
0.088131 
0.088705 
0.091000 
0.086983 
0.091556 
0.086983 
0.091000 
0.088705 
0.089278 
0.091574 
0.089278 
0.092722 
0.089278 
0.092722 
0.089278 
0.091574 
0.089278 
0.078183 
0.086427 
0.094672 
0.086427 
0.088131 
0.092111 
0.085854 
0.092111 
0.088131 
0.088705 
0.091000 
0.086983 
0.091556 
0.086983 
0.091000 
0.088705 
0.089278 
0.091574 
0.089278 
0.092722 
0.089278 
0.092722 
0.089278 
0.091574 
0.089278 
0.078183 
0.086427 
0.094672 
0.086427 
0.088131 
0.092111 
0.085854 
0.092111 
0.088131 
0.088705 
0.091000 
0.086983 
0.091556 
0.086983 
0.091000 
0.088705 
0.089278 
0.091574 
0.089278 
0.092722 
0.089278 
0.092722 
0.089278 
0.091574 
0.089278 
0.078183 
0.086427 
0.094672 
0.086427 
0.088131 
0.092111 
0.085854 
0.092111 
0.088131 
0.088705 
0.091000 
0.086983 
0.091556 
0.086983 
0.091000 
0.088705 
0.089278 
0.091574 
0.089278 
0.092722 
0.089278 
0.092722 
0.089278 
0.091574 
0.089278 
0.078183 
0.086427 
0.094672 
0.086427 
0.088131 
0.092111 
0.085854 
0.092111 
0.088131 
0.088705 
0.091000 
0.086983 
0.091556 
0.086983 
0.091000 
0.088705 
0.089278 
0.091574 
0.089278 
0.092722 
0.089278 
0.092722 
0.089278 
0.091574 
0.089278 
0.078183 
0.086427 
0.094672 
0.086427 
0.088131 
0.092111 
0.085854 
0.092111 
0.088131 
0.088705 
0.091000 
0.086983 
0.091556 
0.086983 
0.091000 
0.088705 
0.089278 
0.091574 
0.089278 
0.092722 
0.089278 
0.092722 
0.089278 
0.091574 
0.089278 
0.078183 
0.086427 
0.094672 
0.086427 
0.088131 
0.092111 
0.085854 
0.092111 
0.088131 
0.088705 
0.091000 
0.086983 
0.091556 
0.086983 
0.091000 
0.088705 
0.089278 
0.091574 
0.089278 
0.092722 
0.089278 
0.092722 
0.089278 
0.091574 
0.089278 
SCALARS DENSITY float 
LOOKUP_TABLE default 
20.000000 
20.000000 
20.000000 
20.000000 
20.000000 
20.000000 
20.000000 
20.000000 
20.000000 
20.000000 
20.000000 
20.000000 
20.000000 
20.000000 
20.000000 
20.000000 
20.000000 
20.000000 
20.000000 
20.000000 
20.000000 
20.000000 
20.000000 
20.000000 
20.000000 
20.000000 
20.000000 
20.000000 
20.000000 
20.000000 
20.000000 
20.000000 
20.000000 
20.000000 
20.000000 
20.000000 
20.000000 
20.000000 
20.000000 
20.000000 
20.000000 
20.000000 
20.000000 
20.000000 
20.000000 
20.000000 
20.000000 
20.000000 
20.000000 
20.000000 
20.000000 
20.000000 
20.000000 
20.000000 
20.000000 
20.000000 
20.000000 
20.000000 
20.000000 
20.000000 
20.000000 
20.000000 
20.000000 
20.000000 
20.000000 
20.000000 
20.000000 
20.000000 
20.000000 
20.000000 
20.000000 
20.000000 
20.000000 
20.000000 
20.000000 
20.000000 
20.000000 
20.000000 
20.000000 
20.000000 
20.000000 
20.000000 
20.000000 
20.000000 
20.000000 
20.000000 
20.000000 
20.000000 
20.000000 
20.000000 
20.000000 
20.000000 
20.000000 
20.000000 
20.000000 
20.000000 
20.000000 
20.000000 
20.000000 
20.000000 
20.000000 
20.000000 
20.000000 
20.000000 
20.000000 
20.000000 
20.000000 
20.000000 
20.000000 
20.000000 
20.000000 
20.000000 
20.000000 
20.000000 
20.000000 
20.000000 
20.000000 
20.000000 
20.000000 
20.000000 
20.000000 
20.000000 
20.000000 
20.000000 
20.000000 
20.000000 
20.000000 
20.000000 
20.000000 
20.000000 
20.000000 
20.000000 
20.000000 
20.000000 
20.000000 
20.000000 
20.000000 
20.000000 
20.000000 
20.000000 
20.000000 
20.000000 
20.000000 
20.000000 
20.000000 
20.000000 
20.000000 
20.000000 
20.000000 
20.000000 
20.000000 
20.000000 
20.000000 
20.000000 
20.000000 
20.000000 
20.000000 
20.000000 
20.000000 
20.000000 
20.000000 
20.000000 
20.000000 
20.000000 
20.000000 
20.000000 
20.000000 
20.000000 
20.000000 
20.000000 
20.000000 
20.000000 
20.000000 
20.000000 
20.000000 
SCALARS ELEM_i float 
LOOKUP_TABLE default 
180 
208 
181 
181 
208 
208 
208 
181 
182 
235 
208 
209 
209 
209 
182 
182 
236 
236 
236 
209 
210 
210 
210 
183 
183 
180 
207 
207 
207 
234 
207 
234 
207 
208 
233 
234 
234 
234 
235 
235 
235 
260 
261 
261 
261 
261 
262 
262 
235 
236 
180 
206 
206 
206 
205 
206 
206 
206 
233 
205 
205 
232 
232 
233 
233 
233 
204 
231 
231 
232 
232 
232 
259 
260 
260 
179 
179 
179 
179 
151 
178 
178 
178 
205 
151 
151 
177 
178 
177 
205 
205 
150 
150 
150 
177 
177 
177 
204 
204 
204 
180 
152 
152 
152 
125 
152 
152 
152 
151 
125 
125 
125 
124 
124 
151 
151 
98 
98 
97 
124 
124 
124 
123 
123 
150 
180 
153 
153 
153 
154 
153 
126 
153 
126 
127 
127 
127 
126 
126 
126 
125 
128 
127 
100 
100 
99 
99 
99 
99 
98 
180 
181 
181 
154 
182 
181 
154 
154 
154 
182 
182 
155 
155 
155 
154 
127 
183 
183 
156 
156 
156 
155 
128 
128 
128 
VECTORS VELOCITY float 
0.000000 -2.382653 0.000000 
-0.000000 -2.382653 0.000000 
0.000000 -2.382653 0.000000 
-0.000000 -2.382653 0.000000 
-0.000000 -2.382653 0.000000 
-0.000000 -2.382653 0.000000 
-0.000000 -2.382653 0.000000 
-0.000000 -2.382653 0.000000 
-0.000000 -2.382653 0.000000 
-0.000000 -2.382653 0.000000 
-0.000000 -2.382653 0.000000 
0.000000 -2.382653 0.000000 
0.000000 -2.382653 0.000000 
0.000000 -2.382653 0.000000 
0.000000 -2.382653 0.000000 
0.000000 -2.382653 0.000000 
-0.000000 -2.382653 0.000000 
-0.000000 -2.382653 0.000000 
0.000000 -2.382653 0.000000 
0.000000 -2.382653 0.000000 
0.000000 -2.382653 0.000000 
0.000000 -2.382653 0.000000 
-0.000000 -2.382653 0.000000 
-0.000000 -2.382653 0.000000 
-0.000000 -2.382653 0.000000 
0.000000 -2.382653 0.000000 
0.000000 -2.382653 0.000000 
0.000000 -2.382653 0.000000 
-0.000000 -2.382653 0.000000 
0.000000 -2.382653 0.000000 
-0.000000 -2.382653 0.000000 
-0.000000 -2.382653 0.000000 
-0.000000 -2.382653 0.000000 
-0.000000 -2.382653 0.000000 
-0.000000 -2.382653 0.000000 
-0.000000 -2.382653 0.000000 
-0.000000 -2.382653 0.000000 
-0.000000 -2.382653 0.000000 
0.000000 -2.382653 0.000000 
-0.000000 -2.382653 0.000000 
0.000000 -2.382653 0.000000 
-0.000000 -2.382653 0.000000 
-0.000000 -2.382653 0.000000 
-0.000000 -2.382653 0.000000 
-0.000000 -2.382653 0.000000 
-0.000000 -2.382653 0.000000 
0.000000 -2.382653 0.000000 
0.000000 -2.382653 0.000000 
0.000000 -2.382653 0.000000 
0.000000 -2.382653 0.000000 
0.000000 -2.382653 0.000000 
-0.000000 -2.382653 0.000000 
0.000000 -2.382653 0.000000 
0.000000 -2.382653 0.000000 
0.000000 -2.382653 0.000000 
0.000000 -2.382653 0.000000 
0.000000 -2.382653 0.000000 
0.000000 -2.382653 0.000000 
0.000000 -2.382653 0.000000 
-0.000000 -2.382653 0.000000 
0.000000 -2.382653 0.000000 
0.000000 -2.382653 0.000000 
0.000000 -2.382653 0.000000 
-0.000000 -2.382653 0.000000 
0.000000 -2.382653 0.000000 
-0.000000 -2.382653 0.000000 
0.000000 -2.382653 0.000000 
-0.000000 -2.382653 0.000000 
0.000000 -2.382653 0.000000 
-0.000000 -2.382653 0.000000 
-0.000000 -2.382653 0.000000 
-0.000000 -2.382653 0.000000 
0.000000 -2.382653 0.000000 
-0.000000 -2.382653 0.000000 
0.000000 -2.382653 0.000000 
0.000000 -2.382653 0.000000 
-0.000000 -2.382653 0.000000 
-0.000000 -2.382653 0.000000 
-0.000000 -2.382653 0.000000 
-0.000000 -2.382653 0.000000 
-0.000000 -2.382653 0.000000 
-0.000000 -2.382653 0.000000 
-0.000000 -2.382653 0.000000 
-0.000000 -2.382653 0.000000 
-0.000000 -2.382653 0.000000 
-0.000000 -2.382653 0.000000 
-0.000000 -2.382653 0.000000 
-0.000000 -2.382653 0.000000 
-0.000000 -2.382653 0.000000 
-0.000000 -2.382653 0.000000 
-0.000000 -2.382653 0.000000 
-0.000000 -2.382653 0.000000 
-0.000000 -2.382653 0.000000 
-0.000000 -2.382653 0.000000 
-0.000000 -2.382653 0.000000 
0.000000 -2.382653 0.000000 
0.000000 -2.382653 0.000000 
0.000000 -2.382653 0.000000 
-0.000000 -2.382653 0.000000 
0.000000 -2.382653 0.000000 
0.000000 -2.382653 0.000000 
0.000000 -2.382653 0.000000 
0.000000 -2.382653 0.000000 
0.000000 -2.382653 0.000000 
0.000000 -2.382653 0.000000 
0.000000 -2.382653 0.000000 
0.000000 -2.382653 0.000000 
0.000000 -2.382653 0.000000 
0.000000 -2.382653 0.000000 
0.000000 -2.382653 0.000000 
0.000000 -2.382653 0.000000 
0.000000 -2.382653 0.000000 
0.000000 -2.382653 0.000000 
0.000000 -2.382653 0.000000 
-0.000000 -2.382653 0.000000 
-0.000000 -2.382653 0.000000 
-0.000000 -2.382653 0.000000 
-0.000000 -2.382653 0.000000 
0.000000 -2.382653 0.000000 
0.000000 -2.382653 0.000000 
-0.000000 -2.382653 0.000000 
-0.000000 -2.382653 0.000000 
-0.000000 -2.382653 0.000000 
-0.000000 -2.382653 0.000000 
-0.000000 -2.382653 0.000000 
0.000000 -2.382653 0.000000 
-0.000000 -2.382653 0.000000 
-0.000000 -2.382653 0.000000 
-0.000000 -2.382653 0.000000 
-0.000000 -2.382653 0.000000 
-0.000000 -2.382653 0.000000 
-0.000000 -2.382653 0.000000 
-0.000000 -2.382653 0.000000 
-0.000000 -2.382653 0.000000 
0.000000 -2.382653 0.000000 
0.000000 -2.382653 0.000000 
0.000000 -2.382653 0.000000 
-0.000000 -2.382653 0.000000 
-0.000000 -2.382653 0.000000 
-0.000000 -2.382653 0.000000 
-0.000000 -2.382653 0.000000 
-0.000000 -2.382653 0.000000 
0.000000 -2.382653 0.000000 
-0.000000 -2.382653 0.000000 
-0.000000 -2.382653 0.000000 
-0.000000 -2.382653 0.000000 
0.000000 -2.382653 0.000000 
0.000000 -2.382653 0.000000 
0.000000 -2.382653 0.000000 
-0.000000 -2.382653 0.000000 
0.000000 -2.382653 0.000000 
-0.000000 -2.382653 0.000000 
-0.000000 -2.382653 0.000000 
-0.000000 -2.382653 0.000000 
0.000000 -2.382653 0.000000 
0.000000 -2.382653 0.000000 
0.000000 -2.382653 0.000000 
0.000000 -2.382653 0.000000 
0.000000 -2.382653 0.000000 
0.000000 -2.382653 0.000000 
0.000000 -2.382653 0.000000 
0.000000 -2.382653 0.000000 
-0.000000 -2.382653 0.000000 
-0.000000 -2.382653 0.000000 
-0.000000 -2.382653 0.000000 
-0.000000 -2.382653 0.000000 
0.000000 -2.382653 0.000000 
-0.000000 -2.382653 0.000000 
-0.000000 -2.382653 0.000000 
-0.000000 -2.382653 0.000000 
-0.000000 -2.382653 0.000000 
-0.000000 -2.382653 0.000000 
0.000000 -2.382653 0.000000 
-0.000000 -2.382653 0.000000 
0.000000 -2.382653 0.000000 
TENSORS STRESS float 
0.000000 0.000000 0.000000 
0.000000 -0.000000 0.000000 
0.000000 0.000000 0.000000 

-0.000000 0.000000 0.000000 
0.000000 -0.000000 0.000000 
0.000000 0.000000 0.000000 

0.000000 0.000000 0.000000 
0.000000 -0.000000 0.000000 
0.000000 0.000000 0.000000 

-0.000000 0.000000 0.000000 
0.000000 -0.000000 0.000000 
0.000000 0.000000 0.000000 

-0.000000 0.000000 0.000000 
0.000000 -0.000000 0.000000 
0.000000 0.000000 0.000000 

-0.000000 0.000000 0.000000 
0.000000 -0.000000 0.000000 
0.000000 0.000000 0.000000 

-0.000000 0.000000 0.000000 
0.000000 -0.000000 0.000000 
0.000000 0.000000 0.000000 

-0.000000 0.000000 0.000000 
0.000000 -0.000000 0.000000 
0.000000 0.000000 0.000000 

-0.000000 -0.000000 0.000000 
0.000000 -0.000000 0.000000 
0.000000 0.000000 0.000000 

-0.000000 0.000000 0.000000 
0.000000 -0.000000 0.000000 
0.000000 0.000000 0.000000 

-0.000000 -0.000000 0.000000 
0.000000 -0.000000 0.000000 
0.000000 0.000000 0.000000 

-0.000000 0.000000 0.000000 
0.000000 -0.000000 0.000000 
0.000000 0.000000 0.000000 

0.000000 0.000000 0.000000 
0.000000 -0.000000 0.000000 
0.000000 0.000000 0.000000 

0.000000 0.000000 0.000000 
0.000000 0.000000 0.000000 
0.000000 0.000000 0.000000 

-0.000000 0.000000 0.000000 
0.000000 -0.000000 0.000000 
0.000000 0.000000 0.000000 

-0.000000 0.000000 0.000000 
0.000000 -0.000000 0.000000 
0.000000 0.000000 0.000000 

-0.000000 -0.000000 0.000000 
0.000000 -0.000000 0.000000 
0.000000 0.000000 0.000000 

-0.000000 0.000000 0.000000 
0.000000 -0.000000 0.000000 
0.000000 0.000000 0.000000 

-0.000000 0.000000 0.000000 
0.000000 -0.000000 0.000000 
0.000000 0.000000 0.000000 

0.000000 0.000000 0.000000 
0.000000 0.000000 0.000000 
0.000000 0.000000 0.000000 

0.000000 -0.000000 0.000000 
0.000000 0.000000 0.000000 
0.000000 0.000000 0.000000 

0.000000 -0.000000 0.000000 
0.000000 0.000000 0.000000 
0.000000 0.000000 0.000000 

0.000000 -0.000000 0.000000 
0.000000 0.000000 0.000000 
0.000000 0.000000 0.000000 

-0.000000 0.000000 0.000000 
0.000000 -0.000000 0.000000 
0.000000 0.000000 0.000000 

0.000000 -0.000000 0.000000 
0.000000 0.000000 0.000000 
0.000000 0.000000 0.000000 

0.000000 0.000000 0.000000 
0.000000 -0.000000 0.000000 
0.000000 0.000000 0.000000 

-0.000000 0.000000 0.000000 
0.000000 -0.000000 0.000000 
0.000000 0.000000 0.000000 

-0.000000 0.000000 0.000000 
0.000000 -0.000000 0.000000 
0.000000 0.000000 0.000000 

-0.000000 0.000000 0.000000 
0.000000 -0.000000 0.000000 
0.000000 0.000000 0.000000 

-0.000000 -0.000000 0.000000 
0.000000 -0.000000 0.000000 
0.000000 0.000000 0.000000 

-0.000000 0.000000 0.000000 
0.000000 -0.000000 0.000000 
0.000000 0.000000 0.000000 

0.000000 -0.000000 0.000000 
0.000000 -0.000000 0.000000 
0.000000 0.000000 0.000000 

-0.000000 0.000000 0.000000 
0.000000 -0.000000 0.000000 
0.000000 0.000000 0.000000 

-0.000000 0.000000 0.000000 
0.000000 -0.000000 0.000000 
0.000000 0.000000 0.000000 

-0.000000 -0.000000 0.000000 
0.000000 -0.000000 0.000000 
0.000000 0.000000 0.000000 

-0.000000 -0.000000 0.000000 
0.000000 -0.000000 0.000000 
0.000000 0.000000 0.000000 

-0.000000 0.000000 0.000000 
0.000000 -0.000000 0.000000 
0.000000 0.000000 0.000000 

-0.000000 0.000000 0.000000 
0.000000 -0.000000 0.000000 
0.000000 0.000000 0.000000 

0.000000 0.000000 0.000000 
0.000000 -0.000000 0.000000 
0.000000 0.000000 0.000000 

0.000000 0.000000 0.000000 
0.000000 -0.000000 0.000000 
0.000000 0.000000 0.000000 

-0.000000 0.000000 0.000000 
0.000000 -0.000000 0.000000 
0.000000 0.000000 0.000000 

-0.000000 -0.000000 0.000000 
0.000000 -0.000000 0.000000 
0.000000 0.000000 0.000000 

0.000000 -0.000000 0.000000 
0.000000 -0.000000 0.000000 
0.000000 0.000000 0.000000 

0.000000 -0.000000 0.000000 
0.000000 0.000000 0.000000 
0.000000 0.000000 0.000000 

0.000000 -0.000000 0.000000 
0.000000 0.000000 0.000000 
0.000000 0.000000 0.000000 

-0.000000 -0.000000 0.000000 
0.000000 -0.000000 0.000000 
0.000000 0.000000 0.000000 

0.000000 0.000000 0.000000 
0.000000 -0.000000 0.000000 
0.000000 0.000000 0.000000 

-0.000000 0.000000 0.000000 
0.000000 -0.000000 0.000000 
0.000000 0.000000 0.000000 

-0.000000 0.000000 0.000000 
0.000000 -0.000000 0.000000 
0.000000 0.000000 0.000000 

-0.000000 -0.000000 0.000000 
0.000000 -0.000000 0.000000 
0.000000 0.000000 0.000000 

0.000000 0.000000 0.000000 
0.000000 0.000000 0.000000 
0.000000 0.000000 0.000000 

-0.000000 -0.000000 0.000000 
0.000000 0.000000 0.000000 
0.000000 0.000000 0.000000 

-0.000000 0.000000 0.000000 
0.000000 0.000000 0.000000 
0.000000 0.000000 0.000000 

-0.000000 0.000000 0.000000 
0.000000 -0.000000 0.000000 
0.000000 0.000000 0.000000 

-0.000000 -0.000000 0.000000 
0.000000 -0.000000 0.000000 
0.000000 0.000000 0.000000 

0.000000 -0.000000 0.000000 
0.000000 -0.000000 0.000000 
0.000000 0.000000 0.000000 

-0.000000 0.000000 0.000000 
0.000000 -0.000000 0.000000 
0.000000 0.000000 0.000000 

-0.000000 0.000000 0.000000 
0.000000 -0.000000 0.000000 
0.000000 0.000000 0.000000 

0.000000 0.000000 0.000000 
0.000000 -0.000000 0.000000 
0.000000 0.000000 0.000000 

-0.000000 -0.000000 0.000000 
0.000000 -0.000000 0.000000 
0.000000 0.000000 0.000000 

-0.000000 -0.000000 0.000000 
0.000000 -0.000000 0.000000 
0.000000 0.000000 0.000000 

-0.000000 0.000000 0.000000 
0.000000 -0.000000 0.000000 
0.000000 0.000000 0.000000 

-0.000000 0.000000 0.000000 
0.000000 -0.000000 0.000000 
0.000000 0.000000 0.000000 

-0.000000 0.000000 0.000000 
0.000000 -0.000000 0.000000 
0.000000 0.000000 0.000000 

0.000000 0.000000 0.000000 
0.000000 -0.000000 0.000000 
0.000000 0.000000 0.000000 

0.000000 0.000000 0.000000 
0.000000 0.000000 0.000000 
0.000000 0.000000 0.000000 

0.000000 -0.000000 0.000000 
0.000000 0.000000 0.000000 
0.000000 0.000000 0.000000 

-0.000000 0.000000 0.000000 
0.000000 -0.000000 0.000000 
0.000000 0.000000 0.000000 

-0.000000 0.000000 0.000000 
0.000000 -0.000000 0.000000 
0.000000 0.000000 0.000000 

-0.000000 0.000000 0.000000 
0.000000 -0.000000 0.000000 
0.000000 0.000000 0.000000 

-0.000000 0.000000 0.000000 
0.000000 -0.000000 0.000000 
0.000000 0.000000 0.000000 

-0.000000 0.000000 0.000000 
0.000000 -0.000000 0.000000 
0.000000 0.000000 0.000000 

0.000000 -0.000000 0.000000 
0.000000 0.000000 0.000000 
0.000000 0.000000 0.000000 

-0.000000 -0.000000 0.000000 
0.000000 -0.000000 0.000000 
0.000000 0.000000 0.000000 

0.000000 -0.000000 0.000000 
0.000000 -0.000000 0.000000 
0.000000 0.000000 0.000000 

-0.000000 -0.000000 0.000000 
0.000000 -0.000000 0.000000 
0.000000 0.000000 0.000000 

0.000000 -0.000000 0.000000 
0.000000 0.000000 0.000000 
0.000000 0.000000 0.000000 

0.000000 -0.000000 0.000000 
0.000000 0.000000 0.000000 
0.000000 0.000000 0.000000 

-0.000000 0.000000 0.000000 
0.000000 0.000000 0.000000 
0.000000 0.000000 0.000000 

-0.000000 -0.000000 0.000000 
0.000000 -0.000000 0.000000 
0.000000 0.000000 0.000000 

-0.000000 0.000000 0.000000 
0.000000 0.000000 0.000000 
0.000000 0.000000 0.000000 

-0.000000 0.000000 0.000000 
0.000000 -0.000000 0.000000 
0.000000 0.000000 0.000000 

-0.000000 0.000000 0.000000 
0.000000 -0.000000 0.000000 
0.000000 0.000000 0.000000 

0.000000 -0.000000 0.000000 
0.000000 0.000000 0.000000 
0.000000 0.000000 0.000000 

-0.000000 0.000000 0.000000 
0.000000 -0.000000 0.000000 
0.000000 0.000000 0.000000 

0.000000 -0.000000 0.000000 
0.000000 0.000000 0.000000 
0.000000 0.000000 0.000000 

-0.000000 -0.000000 0.000000 
0.000000 -0.000000 0.000000 
0.000000 0.000000 0.000000 

-0.000000 0.000000 0.000000 
0.000000 -0.000000 0.000000 
0.000000 0.000000 0.000000 

-0.000000 -0.000000 0.000000 
0.000000 -0.000000 0.000000 
0.000000 0.000000 0.000000 

-0.000000 0.000000 0.000000 
0.000000 0.000000 0.000000 
0.000000 0.000000 0.000000 

-0.000000 -0.000000 0.000000 
0.000000 -0.000000 0.000000 
0.000000 0.000000 0.000000 

-0.000000 -0.000000 0.000000 
0.000000 -0.000000 0.000000 
0.000000 0.000000 0.000000 

-0.000000 0.000000 0.000000 
0.000000 -0.000000 0.000000 
0.000000 0.000000 0.000000 

-0.000000 -0.000000 0.000000 
0.000000 -0.000000 0.000000 
0.000000 0.000000 0.000000 

-0.000000 -0.000000 0.000000 
0.000000 -0.000000 0.000000 
0.000000 0.000000 0.000000 

0.000000 0.000000 0.000000 
0.000000 0.000000 0.000000 
0.000000 0.000000 0.000000 

-0.000000 -0.000000 0.000000 
0.000000 -0.000000 0.000000 
0.000000 0.000000 0.000000 

-0.000000 -0.000000 0.000000 
0.000000 -0.000000 0.000000 
0.000000 0.000000 0.000000 

-0.000000 -0.000000 0.000000 
0.000000 0.000000 0.000000 
0.000000 0.000000 0.000000 

-0.000000 -0.000000 0.000000 
0.000000 -0.000000 0.000000 
0.000000 0.000000 0.000000 

-0.000000 0.000000 0.000000 
0.000000 -0.000000 0.000000 
0.000000 0.000000 0.000000 

0.000000 0.000000 0.000000 
0.000000 -0.000000 0.000000 
0.000000 0.000000 0.000000 

-0.000000 -0.000000 0.000000 
0.000000 -0.000000 0.000000 
0.000000 0.000000 0.000000 

0.000000 0.000000 0.000000 
0.000000 0.000000 0.000000 
0.000000 0.000000 0.000000 

-0.000000 0.000000 0.000000 
0.000000 -0.000000 0.000000 
0.000000 0.000000 0.000000 

0.000000 0.000000 0.000000 
0.000000 -0.000000 0.000000 
0.000000 0.000000 0.000000 

0.000000 0.000000 0.000000 
0.000000 0.000000 0.000000 
0.000000 0.000000 0.000000 

-0.000000 0.000000 0.000000 
0.000000 -0.000000 0.000000 
0.000000 0.000000 0.000000 

-0.000000 -0.000000 0.000000 
0.000000 0.000000 0.000000 
0.000000 0.000000 0.000000 

-0.000000 0.000000 0.000000 
0.000000 0.000000 0.000000 
0.000000 0.000000 0.000000 

-0.000000 0.000000 0.000000 
0.000000 0.000000 0.000000 
0.000000 0.000000 0.000000 

0.000000 0.000000 0.000000 
0.000000 0.000000 0.000000 
0.000000 0.000000 0.000000 

0.000000 -0.000000 0.000000 
0.000000 0.000000 0.000000 
0.000000 0.000000 0.000000 

0.000000 -0.000000 0.000000 
0.000000 -0.000000 0.000000 
0.000000 0.000000 0.000000 

-0.000000 0.000000 0.000000 
0.000000 0.000000 0.000000 
0.000000 0.000000 0.000000 

-0.000000 -0.000000 0.000000 
0.000000 -0.000000 0.000000 
0.000000 0.000000 0.000000 

0.000000 0.000000 0.000000 
0.000000 -0.000000 0.000000 
0.000000 0.000000 0.000000 

0.000000 0.000000 0.000000 
0.000000 0.000000 0.000000 
0.000000 0.000000 0.000000 

-0.000000 0.000000 0.000000 
0.000000 -0.000000 0.000000 
0.000000 0.000000 0.000000 

-0.000000 -0.000000 0.000000 
0.000000 -0.000000 0.000000 
0.000000 0.000000 0.000000 

0.000000 -0.000000 0.000000 
0.000000 -0.000000 0.000000 
0.000000 0.000000 0.000000 

0.000000 0.000000 0.000000 
0.000000 0.000000 0.000000 
0.000000 0.000000 0.000000 

-0.000000 -0.000000 0.000000 
0.000000 -0.000000 0.000000 
0.000000 0.000000 0.000000 

-0.000000 0.000000 0.000000 
0.000000 -0.000000 0.000000 
0.000000 0.000000 0.000000 

-0.000000 -0.000000 0.000000 
0.000000 -0.000000 0.000000 
0.000000 0.000000 0.000000 

0.000000 0.000000 0.000000 
0.000000 0.000000 0.000000 
0.000000 0.000000 0.000000 

-0.000000 0.000000 0.000000 
0.000000 -0.000000 0.000000 
0.000000 0.000000 0.000000 

0.000000 0.000000 0.000000 
0.000000 0.000000 0.000000 
0.000000 0.000000 0.000000 

0.000000 0.000000 0.000000 
0.000000 0.000000 0.000000 
0.000000 0.000000 0.000000 

-0.000000 -0.000000 0.000000 
0.000000 -0.000000 0.000000 
0.000000 0.000000 0.000000 

-0.000000 -0.000000 0.000000 
0.000000 -0.000000 0.000000 
0.000000 0.000000 0.000000 

-0.000000 0.000000 0.000000 
0.000000 -0.000000 0.000000 
0.000000 0.000000 0.000000 

0.000000 0.000000 0.000000 
0.000000 0.000000 0.000000 
0.000000 0.000000 0.000000 

-0.000000 0.000000 0.000000 
0.000000 -0.000000 0.000000 
0.000000 0.000000 0.000000 

-0.000000 -0.000000 0.000000 
0.000000 -0.000000 0.000000 
0.000000 0.000000 0.000000 

0.000000 0.000000 0.000000 
0.000000 0.000000 0.000000 
0.000000 0.000000 0.000000 

-0.000000 -0.000000 0.000000 
0.000000 -0.000000 0.000000 
0.000000 0.000000 0.000000 

0.000000 0.000000 0.000000 
0.000000 -0.000000 0.000000 
0.000000 0.000000 0.000000 

0.000000 0.000000 0.000000 
0.000000 0.000000 0.000000 
0.000000 0.000000 0.000000 

-0.000000 0.000000 0.000000 
0.000000 -0.000000 0.000000 
0.000000 0.000000 0.000000 

-0.000000 0.000000 0.000000 
0.000000 0.000000 0.000000 
0.000000 0.000000 0.000000 

0.000000 0.000000 0.000000 
0.000000 -0.000000 0.000000 
0.000000 0.000000 0.000000 

-0.000000 0.000000 0.000000 
0.000000 -0.000000 0.000000 
0.000000 0.000000 0.000000 

-0.000000 -0.000000 0.000000 
0.000000 -0.000000 0.000000 
0.000000 0.000000 0.000000 

0.000000 -0.000000 0.000000 
0.000000 0.000000 0.000000 
0.000000 0.000000 0.000000 

0.000000 -0.000000 0.000000 
0.000000 0.000000 0.000000 
0.000000 0.000000 0.000000 

0.000000 0.000000 0.000000 
0.000000 0.000000 0.000000 
0.000000 0.000000 0.000000 

-0.000000 -0.000000 0.000000 
0.000000 -0.000000 0.000000 
0.000000 0.000000 0.000000 

0.000000 0.000000 0.000000 
0.000000 0.000000 0.000000 
0.000000 0.000000 0.000000 

0.000000 -0.000000 0.000000 
0.000000 -0.000000 0.000000 
0.000000 0.000000 0.000000 

0.000000 0.000000 0.000000 
0.000000 0.000000 0.000000 
0.000000 0.000000 0.000000 

-0.000000 0.000000 0.000000 
0.000000 -0.000000 0.000000 
0.000000 0.000000 0.000000 

0.000000 -0.000000 0.000000 
0.000000 0.000000 0.000000 
0.000000 0.000000 0.000000 

-0.000000 -0.000000 0.000000 
0.000000 -0.000000 0.000000 
0.000000 0.000000 0.000000 

-0.000000 -0.000000 0.000000 
0.000000 0.000000 0.000000 
0.000000 0.000000 0.000000 

0.000000 0.000000 0.000000 
0.000000 0.000000 0.000000 
0.000000 0.000000 0.000000 

0.000000 0.000000 0.000000 
0.000000 0.000000 0.000000 
0.000000 0.000000 0.000000 

-0.000000 -0.000000 0.000000 
0.000000 -0.000000 0.000000 
0.000000 0.000000 0.000000 

0.000000 -0.000000 0.000000 
0.000000 0.000000 0.000000 
0.000000 0.000000 0.000000 

-0.000000 0.000000 0.000000 
0.000000 -0.000000 0.000000 
0.000000 0.000000 0.000000 

0.000000 0.000000 0.000000 
0.000000 0.000000 0.000000 
0.000000 0.000000 0.000000 

-0.000000 -0.000000 0.000000 
0.000000 -0.000000 0.000000 
0.000000 0.000000 0.000000 

-0.000000 -0.000000 0.000000 
0.000000 -0.000000 0.000000 
0.000000 0.000000 0.000000 

-0.000000 -0.000000 0.000000 
0.000000 -0.000000 0.000000 
0.000000 0.000000 0.000000 

-0.000000 -0.000000 0.000000 
0.000000 -0.000000 0.000000 
0.000000 0.000000 0.000000 

-0.000000 -0.000000 0.000000 
0.000000 -0.000000 0.000000 
0.000000 0.000000 0.000000 

-0.000000 -0.000000 0.000000 
0.000000 -0.000000 0.000000 
0.000000 0.000000 0.000000 

0.000000 0.000000 0.000000 
0.000000 0.000000 0.000000 
0.000000 0.000000 0.000000 

-0.000000 -0.000000 0.000000 
0.000000 -0.000000 0.000000 
0.000000 0.000000 0.000000 

-0.000000 -0.000000 0.000000 
0.000000 0.000000 0.000000 
0.000000 0.000000 0.000000 

-0.000000 -0.000000 0.000000 
0.000000 -0.000000 0.000000 
0.000000 0.000000 0.000000 

-0.000000 -0.000000 0.000000 
0.000000 0.000000 0.000000 
0.000000 0.000000 0.000000 

0.000000 0.000000 0.000000 
0.000000 -0.000000 0.000000 
0.000000 0.000000 0.000000 

-0.000000 -0.000000 0.000000 
0.000000 -0.000000 0.000000 
0.000000 0.000000 0.000000 

0.000000 -0.000000 0.000000 
0.000000 0.000000 0.000000 
0.000000 0.000000 0.000000 

TENSORS STRAIN float 
0.000000 0.000000 0.000000 
0.000000 -0.000000 0.000000 
0.000000 0.000000 0.000000 

-0.000000 0.000000 0.000000 
0.000000 -0.000000 0.000000 
0.000000 0.000000 0.000000 

0.000000 0.000000 0.000000 
0.000000 -0.000000 0.000000 
0.000000 0.000000 0.000000 

0.000000 0.000000 0.000000 
0.000000 -0.000000 0.000000 
0.000000 0.000000 0.000000 

-0.000000 0.000000 0.000000 
0.000000 -0.000000 0.000000 
0.000000 0.000000 0.000000 

-0.000000 0.000000 0.000000 
0.000000 -0.000000 0.000000 
0.000000 0.000000 0.000000 

0.000000 0.000000 0.000000 
0.000000 -0.000000 0.000000 
0.000000 0.000000 0.000000 

-0.000000 0.000000 0.000000 
0.000000 -0.000000 0.000000 
0.000000 0.000000 0.000000 

-0.000000 -0.000000 0.000000 
0.000000 -0.000000 0.000000 
0.000000 0.000000 0.000000 

-0.000000 0.000000 0.000000 
0.000000 -0.000000 0.000000 
0.000000 0.000000 0.000000 

0.000000 -0.000000 0.000000 
0.000000 -0.000000 0.000000 
0.000000 0.000000 0.000000 

0.000000 0.000000 0.000000 
0.000000 -0.000000 0.000000 
0.000000 0.000000 0.000000 

0.000000 0.000000 0.000000 
0.000000 -0.000000 0.000000 
0.000000 0.000000 0.000000 

0.000000 0.000000 0.000000 
0.000000 -0.000000 0.000000 
0.000000 0.000000 0.000000 

-0.000000 0.000000 0.000000 
0.000000 -0.000000 0.000000 
0.000000 0.000000 0.000000 

-0.000000 0.000000 0.000000 
0.000000 -0.000000 0.000000 
0.000000 0.000000 0.000000 

-0.000000 -0.000000 0.000000 
0.000000 -0.000000 0.000000 
0.000000 0.000000 0.000000 

-0.000000 0.000000 0.000000 
0.000000 -0.000000 0.000000 
0.000000 0.000000 0.000000 

0.000000 0.000000 0.000000 
0.000000 -0.000000 0.000000 
0.000000 0.000000 0.000000 

0.000000 0.000000 0.000000 
0.000000 0.000000 0.000000 
0.000000 0.000000 0.000000 

0.000000 -0.000000 0.000000 
0.000000 0.000000 0.000000 
0.000000 0.000000 0.000000 

-0.000000 -0.000000 0.000000 
0.000000 0.000000 0.000000 
0.000000 0.000000 0.000000 

-0.000000 -0.000000 0.000000 
0.000000 0.000000 0.000000 
0.000000 0.000000 0.000000 

-0.000000 0.000000 0.000000 
0.000000 -0.000000 0.000000 
0.000000 0.000000 0.000000 

-0.000000 -0.000000 0.000000 
0.000000 0.000000 0.000000 
0.000000 0.000000 0.000000 

0.000000 0.000000 0.000000 
0.000000 -0.000000 0.000000 
0.000000 0.000000 0.000000 

-0.000000 0.000000 0.000000 
0.000000 0.000000 0.000000 
0.000000 0.000000 0.000000 

-0.000000 0.000000 0.000000 
0.000000 0.000000 0.000000 
0.000000 0.000000 0.000000 

-0.000000 0.000000 0.000000 
0.000000 -0.000000 0.000000 
0.000000 0.000000 0.000000 

0.000000 -0.000000 0.000000 
0.000000 -0.000000 0.000000 
0.000000 0.000000 0.000000 

-0.000000 0.000000 0.000000 
0.000000 0.000000 0.000000 
0.000000 0.000000 0.000000 

0.000000 -0.000000 0.000000 
0.000000 -0.000000 0.000000 
0.000000 0.000000 0.000000 

-0.000000 0.000000 0.000000 
0.000000 -0.000000 0.000000 
0.000000 0.000000 0.000000 

-0.000000 0.000000 0.000000 
0.000000 0.000000 0.000000 
0.000000 0.000000 0.000000 

0.000000 -0.000000 0.000000 
0.000000 -0.000000 0.000000 
0.000000 0.000000 0.000000 

0.000000 -0.000000 0.000000 
0.000000 -0.000000 0.000000 
0.000000 0.000000 0.000000 

0.000000 0.000000 0.000000 
0.000000 -0.000000 0.000000 
0.000000 0.000000 0.000000 

0.000000 0.000000 0.000000 
0.000000 -0.000000 0.000000 
0.000000 0.000000 0.000000 

0.000000 0.000000 0.000000 
0.000000 -0.000000 0.000000 
0.000000 0.000000 0.000000 

0.000000 0.000000 0.000000 
0.000000 -0.000000 0.000000 
0.000000 0.000000 0.000000 

0.000000 0.000000 0.000000 
0.000000 -0.000000 0.000000 
0.000000 0.000000 0.000000 

0.000000 -0.000000 0.000000 
0.000000 -0.000000 0.000000 
0.000000 0.000000 0.000000 

0.000000 -0.000000 0.000000 
0.000000 -0.000000 0.000000 
0.000000 0.000000 0.000000 

0.000000 -0.000000 0.000000 
0.000000 0.000000 0.000000 
0.000000 0.000000 0.000000 

0.000000 -0.000000 0.000000 
0.000000 0.000000 0.000000 
0.000000 0.000000 0.000000 

0.000000 -0.000000 0.000000 
0.000000 -0.000000 0.000000 
0.000000 0.000000 0.000000 

0.000000 0.000000 0.000000 
0.000000 -0.000000 0.000000 
0.000000 0.000000 0.000000 

-0.000000 0.000000 0.000000 
0.000000 -0.000000 0.000000 
0.000000 0.000000 0.000000 

-0.000000 0.000000 0.000000 
0.000000 -0.000000 0.000000 
0.000000 0.000000 0.000000 

-0.000000 -0.000000 0.000000 
0.000000 -0.000000 0.000000 
0.000000 0.000000 0.000000 

0.000000 0.000000 0.000000 
0.000000 0.000000 0.000000 
0.000000 0.000000 0.000000 

-0.000000 -0.000000 0.000000 
0.000000 0.000000 0.000000 
0.000000 0.000000 0.000000 

-0.000000 0.000000 0.000000 
0.000000 0.000000 0.000000 
0.000000 0.000000 0.000000 

-0.000000 0.000000 0.000000 
0.000000 0.000000 0.000000 
0.000000 0.000000 0.000000 

0.000000 -0.000000 0.000000 
0.000000 -0.000000 0.000000 
0.000000 0.000000 0.000000 

0.000000 -0.000000 0.000000 
0.000000 -0.000000 0.000000 
0.000000 0.000000 0.000000 

-0.000000 0.000000 0.000000 
0.000000 0.000000 0.000000 
0.000000 0.000000 0.000000 

-0.000000 0.000000 0.000000 
0.000000 -0.000000 0.000000 
0.000000 0.000000 0.000000 

0.000000 0.000000 0.000000 
0.000000 -0.000000 0.000000 
0.000000 0.000000 0.000000 

-0.000000 -0.000000 0.000000 
0.000000 -0.000000 0.000000 
0.000000 0.000000 0.000000 

0.000000 -0.000000 0.000000 
0.000000 -0.000000 0.000000 
0.000000 0.000000 0.000000 

0.000000 0.000000 0.000000 
0.000000 -0.000000 0.000000 
0.000000 0.000000 0.000000 

0.000000 0.000000 0.000000 
0.000000 -0.000000 0.000000 
0.000000 0.000000 0.000000 

0.000000 0.000000 0.000000 
0.000000 -0.000000 0.000000 
0.000000 0.000000 0.000000 

0.000000 0.000000 0.000000 
0.000000 -0.000000 0.000000 
0.000000 0.000000 0.000000 

0.000000 0.000000 0.000000 
0.000000 0.000000 0.000000 
0.000000 0.000000 0.000000 

-0.000000 -0.000000 0.000000 
0.000000 0.000000 0.000000 
0.000000 0.000000 0.000000 

-0.000000 0.000000 0.000000 
0.000000 -0.000000 0.000000 
0.000000 0.000000 0.000000 

-0.000000 0.000000 0.000000 
0.000000 -0.000000 0.000000 
0.000000 0.000000 0.000000 

-0.000000 0.000000 0.000000 
0.000000 -0.000000 0.000000 
0.000000 0.000000 0.000000 

-0.000000 0.000000 0.000000 
0.000000 -0.000000 0.000000 
0.000000 0.000000 0.000000 

0.000000 0.000000 0.000000 
0.000000 -0.000000 0.000000 
0.000000 0.000000 0.000000 

-0.000000 -0.000000 0.000000 
0.000000 0.000000 0.000000 
0.000000 0.000000 0.000000 

-0.000000 -0.000000 0.000000 
0.000000 -0.000000 0.000000 
0.000000 0.000000 0.000000 

0.000000 -0.000000 0.000000 
0.000000 -0.000000 0.000000 
0.000000 0.000000 0.000000 

0.000000 -0.000000 0.000000 
0.000000 -0.000000 0.000000 
0.000000 0.000000 0.000000 

-0.000000 -0.000000 0.000000 
0.000000 0.000000 0.000000 
0.000000 0.000000 0.000000 

-0.000000 -0.000000 0.000000 
0.000000 0.000000 0.000000 
0.000000 0.000000 0.000000 

-0.000000 0.000000 0.000000 
0.000000 0.000000 0.000000 
0.000000 0.000000 0.000000 

-0.000000 -0.000000 0.000000 
0.000000 -0.000000 0.000000 
0.000000 0.000000 0.000000 

-0.000000 0.000000 0.000000 
0.000000 0.000000 0.000000 
0.000000 0.000000 0.000000 

-0.000000 0.000000 0.000000 
0.000000 -0.000000 0.000000 
0.000000 0.000000 0.000000 

-0.000000 0.000000 0.000000 
0.000000 -0.000000 0.000000 
0.000000 0.000000 0.000000 

0.000000 -0.000000 0.000000 
0.000000 0.000000 0.000000 
0.000000 0.000000 0.000000 

-0.000000 0.000000 0.000000 
0.000000 -0.000000 0.000000 
0.000000 0.000000 0.000000 

-0.000000 -0.000000 0.000000 
0.000000 0.000000 0.000000 
0.000000 0.000000 0.000000 

0.000000 -0.000000 0.000000 
0.000000 -0.000000 0.000000 
0.000000 0.000000 0.000000 

0.000000 0.000000 0.000000 
0.000000 -0.000000 0.000000 
0.000000 0.000000 0.000000 

0.000000 -0.000000 0.000000 
0.000000 -0.000000 0.000000 
0.000000 0.000000 0.000000 

-0.000000 0.000000 0.000000 
0.000000 0.000000 0.000000 
0.000000 0.000000 0.000000 

-0.000000 -0.000000 0.000000 
0.000000 -0.000000 0.000000 
0.000000 0.000000 0.000000 

0.000000 -0.000000 0.000000 
0.000000 -0.000000 0.000000 
0.000000 0.000000 0.000000 

0.000000 0.000000 0.000000 
0.000000 -0.000000 0.000000 
0.000000 0.000000 0.000000 

0.000000 -0.000000 0.000000 
0.000000 -0.000000 0.000000 
0.000000 0.000000 0.000000 

-0.000000 -0.000000 0.000000 
0.000000 -0.000000 0.000000 
0.000000 0.000000 0.000000 

0.000000 0.000000 0.000000 
0.000000 0.000000 0.000000 
0.000000 0.000000 0.000000 

-0.000000 -0.000000 0.000000 
0.000000 0.000000 0.000000 
0.000000 0.000000 0.000000 

-0.000000 -0.000000 0.000000 
0.000000 -0.000000 0.000000 
0.000000 0.000000 0.000000 

-0.000000 -0.000000 0.000000 
0.000000 0.000000 0.000000 
0.000000 0.000000 0.000000 

-0.000000 -0.000000 0.000000 
0.000000 -0.000000 0.000000 
0.000000 0.000000 0.000000 

0.000000 0.000000 0.000000 
0.000000 -0.000000 0.000000 
0.000000 0.000000 0.000000 

0.000000 0.000000 0.000000 
0.000000 -0.000000 0.000000 
0.000000 0.000000 0.000000 

0.000000 -0.000000 0.000000 
0.000000 -0.000000 0.000000 
0.000000 0.000000 0.000000 

0.000000 0.000000 0.000000 
0.000000 0.000000 0.000000 
0.000000 0.000000 0.000000 

-0.000000 0.000000 0.000000 
0.000000 0.000000 0.000000 
0.000000 0.000000 0.000000 

0.000000 0.000000 0.000000 
0.000000 -0.000000 0.000000 
0.000000 0.000000 0.000000 

-0.000000 0.000000 0.000000 
0.000000 0.000000 0.000000 
0.000000 0.000000 0.000000 

-0.000000 0.000000 0.000000 
0.000000 -0.000000 0.000000 
0.000000 0.000000 0.000000 

-0.000000 -0.000000 0.000000 
0.000000 0.000000 0.000000 
0.000000 0.000000 0.000000 

-0.000000 0.000000 0.000000 
0.000000 0.000000 0.000000 
0.000000 0.000000 0.000000 

-0.000000 0.000000 0.000000 
0.000000 0.000000 0.000000 
0.000000 0.000000 0.000000 

0.000000 0.000000 0.000000 
0.000000 -0.000000 0.000000 
0.000000 0.000000 0.000000 

0.000000 -0.000000 0.000000 
0.000000 -0.000000 0.000000 
0.000000 0.000000 0.000000 

0.000000 -0.000000 0.000000 
0.000000 -0.000000 0.000000 
0.000000 0.000000 0.000000 

-0.000000 0.000000 0.000000 
0.000000 0.000000 0.000000 
0.000000 0.000000 0.000000 

-0.000000 -0.000000 0.000000 
0.000000 0.000000 0.000000 
0.000000 0.000000 0.000000 

0.000000 0.000000 0.000000 
0.000000 -0.000000 0.000000 
0.000000 0.000000 0.000000 

0.000000 0.000000 0.000000 
0.000000 0.000000 0.000000 
0.000000 0.000000 0.000000 

-0.000000 0.000000 0.000000 
0.000000 -0.000000 0.000000 
0.000000 0.000000 0.000000 

0.000000 -0.000000 0.000000 
0.000000 -0.000000 0.000000 
0.000000 0.000000 0.000000 

0.000000 -0.000000 0.000000 
0.000000 -0.000000 0.000000 
0.000000 0.000000 0.000000 

0.000000 0.000000 0.000000 
0.000000 -0.000000 0.000000 
0.000000 0.000000 0.000000 

-0.000000 -0.000000 0.000000 
0.000000 -0.000000 0.000000 
0.000000 0.000000 0.000000 

-0.000000 0.000000 0.000000 
0.000000 -0.000000 0.000000 
0.000000 0.000000 0.000000 

-0.000000 -0.000000 0.000000 
0.000000 -0.000000 0.000000 
0.000000 0.000000 0.000000 

0.000000 0.000000 0.000000 
0.000000 0.000000 0.000000 
0.000000 0.000000 0.000000 

-0.000000 0.000000 0.000000 
0.000000 -0.000000 0.000000 
0.000000 0.000000 0.000000 

0.000000 0.000000 0.000000 
0.000000 0.000000 0.000000 
0.000000 0.000000 0.000000 

0.000000 0.000000 0.000000 
0.000000 -0.000000 0.000000 
0.000000 0.000000 0.000000 

-0.000000 -0.000000 0.000000 
0.000000 -0.000000 0.000000 
0.000000 0.000000 0.000000 

-0.000000 -0.000000 0.000000 
0.000000 -0.000000 0.000000 
0.000000 0.000000 0.000000 

0.000000 0.000000 0.000000 
0.000000 -0.000000 0.000000 
0.000000 0.000000 0.000000 

0.000000 0.000000 0.000000 
0.000000 0.000000 0.000000 
0.000000 0.000000 0.000000 

-0.000000 0.000000 0.000000 
0.000000 -0.000000 0.000000 
0.000000 0.000000 0.000000 

0.000000 -0.000000 0.000000 
0.000000 -0.000000 0.000000 
0.000000 0.000000 0.000000 

-0.000000 0.000000 0.000000 
0.000000 0.000000 0.000000 
0.000000 0.000000 0.000000 

0.000000 -0.000000 0.000000 
0.000000 -0.000000 0.000000 
0.000000 0.000000 0.000000 

0.000000 0.000000 0.000000 
0.000000 -0.000000 0.000000 
0.000000 0.000000 0.000000 

0.000000 0.000000 0.000000 
0.000000 0.000000 0.000000 
0.000000 0.000000 0.000000 

-0.000000 0.000000 0.000000 
0.000000 -0.000000 0.000000 
0.000000 0.000000 0.000000 

-0.000000 0.000000 0.000000 
0.000000 0.000000 0.000000 
0.000000 0.000000 0.000000 

0.000000 0.000000 0.000000 
0.000000 -0.000000 0.000000 
0.000000 0.000000 0.000000 

0.000000 0.000000 0.000000 
0.000000 -0.000000 0.000000 
0.000000 0.000000 0.000000 

-0.000000 -0.000000 0.000000 
0.000000 0.000000 0.000000 
0.000000 0.000000 0.000000 

0.000000 -0.000000 0.000000 
0.000000 0.000000 0.000000 
0.000000 0.000000 0.000000 

0.000000 -0.000000 0.000000 
0.000000 0.000000 0.000000 
0.000000 0.000000 0.000000 

0.000000 0.000000 0.000000 
0.000000 0.000000 0.000000 
0.000000 0.000000 0.000000 

0.000000 -0.000000 0.000000 
0.000000 -0.000000 0.000000 
0.000000 0.000000 0.000000 

0.000000 0.000000 0.000000 
0.000000 0.000000 0.000000 
0.000000 0.000000 0.000000 

0.000000 -0.000000 0.000000 
0.000000 -0.000000 0.000000 
0.000000 0.000000 0.000000 

0.000000 0.000000 0.000000 
0.000000 0.000000 0.000000 
0.000000 0.000000 0.000000 

0.000000 0.000000 0.000000 
0.000000 -0.000000 0.000000 
0.000000 0.000000 0.000000 

0.000000 -0.000000 0.000000 
0.000000 0.000000 0.000000 
0.000000 0.000000 0.000000 

-0.000000 -0.000000 0.000000 
0.000000 -0.000000 0.000000 
0.000000 0.000000 0.000000 

-0.000000 -0.000000 0.000000 
0.000000 0.000000 0.000000 
0.000000 0.000000 0.000000 

-0.000000 0.000000 0.000000 
0.000000 0.000000 0.000000 
0.000000 0.000000 0.000000 

0.000000 0.000000 0.000000 
0.000000 0.000000 0.000000 
0.000000 0.000000 0.000000 

-0.000000 -0.000000 0.000000 
0.000000 -0.000000 0.000000 
0.000000 0.000000 0.000000 

-0.000000 -0.000000 0.000000 
0.000000 0.000000 0.000000 
0.000000 0.000000 0.000000 

-0.000000 0.000000 0.000000 
0.000000 -0.000000 0.000000 
0.000000 0.000000 0.000000 

-0.000000 0.000000 0.000000 
0.000000 0.000000 0.000000 
0.000000 0.000000 0.000000 

-0.000000 -0.000000 0.000000 
0.000000 -0.000000 0.000000 
0.000000 0.000000 0.000000 

-0.000000 -0.000000 0.000000 
0.000000 -0.000000 0.000000 
0.000000 0.000000 0.000000 

-0.000000 -0.000000 0.000000 
0.000000 -0.000000 0.000000 
0.000000 0.000000 0.000000 

-0.000000 -0.000000 0.000000 
0.000000 -0.000000 0.000000 
0.000000 0.000000 0.000000 

0.000000 -0.000000 0.000000 
0.000000 -0.000000 0.000000 
0.000000 0.000000 0.000000 

-0.000000 -0.000000 0.000000 
0.000000 -0.000000 0.000000 
0.000000 0.000000 0.000000 

-0.000000 0.000000 0.000000 
0.000000 0.000000 0.000000 
0.000000 0.000000 0.000000 

-0.000000 -0.000000 0.000000 
0.000000 -0.000000 0.000000 
0.000000 0.000000 0.000000 

-0.000000 -0.000000 0.000000 
0.000000 0.000000 0.000000 
0.000000 0.000000 0.000000 

-0.000000 -0.000000 0.000000 
0.000000 0.000000 0.000000 
0.000000 0.000000 0.000000 

-0.000000 -0.000000 0.000000 
0.000000 0.000000 0.000000 
0.000000 0.000000 0.000000 

0.000000 0.000000 0.000000 
0.000000 -0.000000 0.000000 
0.000000 0.000000 0.000000 

0.000000 -0.000000 0.000000 
0.000000 -0.000000 0.000000 
0.000000 0.000000 0.000000 

0.000000 -0.000000 0.000000 
0.000000 0.000000 0.000000 
0.000000 0.000000 0.000000 

