# vtk DataFile Version 3.0 
vtk output 
ASCII 
DATASET UNSTRUCTURED_GRID 
POINTS 175 float 
-0.026061 -0.093365 0.000000 
-0.106992 -0.025310 0.000000 
-0.054870 -0.033542 0.000000 
-0.028809 0.012341 0.000000 
-0.186430 0.038766 0.000000 
-0.137056 0.036240 0.000000 
-0.114311 0.089887 0.000000 
-0.058186 0.074221 0.000000 
-0.029377 0.114399 0.000000 
-0.265318 0.101922 0.000000 
-0.217198 0.101122 0.000000 
-0.196633 0.158419 0.000000 
-0.143120 0.149710 0.000000 
-0.116563 0.196978 0.000000 
-0.058945 0.177333 0.000000 
-0.029568 0.215453 0.000000 
-0.344206 0.165077 0.000000 
-0.296791 0.165085 0.000000 
-0.278030 0.225027 0.000000 
-0.225992 0.219161 0.000000 
-0.201664 0.271278 0.000000 
-0.145749 0.257804 0.000000 
-0.117890 0.302147 0.000000 
-0.059328 0.279441 0.000000 
-0.029759 0.316507 0.000000 
-0.058559 -0.134116 0.000000 
-0.162226 -0.154958 0.000000 
-0.123292 -0.119341 0.000000 
-0.142917 -0.070357 0.000000 
-0.261851 -0.177115 0.000000 
-0.229092 -0.140088 0.000000 
-0.256854 -0.088856 0.000000 
-0.209613 -0.054744 0.000000 
-0.223062 -0.007170 0.000000 
-0.360414 -0.199415 0.000000 
-0.329787 -0.162292 0.000000 
-0.361761 -0.110490 0.000000 
-0.321587 -0.074081 0.000000 
-0.341985 -0.023847 0.000000 
-0.290702 0.008952 0.000000 
-0.302189 0.055687 0.000000 
-0.458977 -0.221715 0.000000 
-0.429420 -0.184640 0.000000 
-0.464588 -0.132599 0.000000 
-0.427556 -0.095571 0.000000 
-0.453135 -0.044056 0.000000 
-0.407738 -0.008741 0.000000 
-0.425037 0.040687 0.000000 
-0.370772 0.072316 0.000000 
-0.381315 0.118544 0.000000 
-0.046960 -0.184931 0.000000 
-0.095301 -0.278977 0.000000 
-0.098873 -0.226330 0.000000 
-0.149405 -0.211132 0.000000 
-0.140093 -0.370681 0.000000 
-0.148617 -0.321983 0.000000 
-0.205981 -0.311745 0.000000 
-0.203197 -0.253542 0.000000 
-0.248777 -0.234395 0.000000 
-0.184111 -0.461645 0.000000 
-0.194039 -0.414553 0.000000 
-0.254475 -0.407254 0.000000 
-0.257893 -0.353144 0.000000 
-0.309886 -0.337772 0.000000 
-0.303554 -0.277227 0.000000 
-0.347255 -0.257069 0.000000 
-0.228129 -0.552608 0.000000 
-0.238687 -0.506384 0.000000 
-0.301302 -0.501432 0.000000 
-0.307162 -0.449393 0.000000 
-0.363386 -0.437272 0.000000 
-0.362692 -0.379761 0.000000 
-0.412122 -0.362467 0.000000 
-0.403017 -0.300321 0.000000 
-0.445733 -0.279742 0.000000 
-0.000000 -0.207546 0.000000 
0.043388 -0.303977 0.000000 
-0.000000 -0.273944 0.000000 
-0.043388 -0.303977 0.000000 
0.087158 -0.396173 0.000000 
0.043769 -0.372475 0.000000 
-0.000000 -0.410940 0.000000 
-0.043769 -0.372475 0.000000 
-0.087158 -0.396173 0.000000 
0.130831 -0.487303 0.000000 
0.087824 -0.465704 0.000000 
0.044436 -0.508404 0.000000 
-0.000000 -0.477339 0.000000 
-0.044436 -0.508404 0.000000 
-0.087824 -0.465704 0.000000 
-0.130831 -0.487303 0.000000 
0.174505 -0.578433 0.000000 
0.131782 -0.557866 0.000000 
0.088871 -0.603733 0.000000 
0.044532 -0.575869 0.000000 
-0.000000 -0.612269 0.000000 
-0.044532 -0.575869 0.000000 
-0.088871 -0.603733 0.000000 
-0.131782 -0.557866 0.000000 
-0.174505 -0.578433 0.000000 
0.046960 -0.184931 0.000000 
0.149405 -0.211132 0.000000 
0.098873 -0.226330 0.000000 
0.095301 -0.278977 0.000000 
0.248777 -0.234395 0.000000 
0.203197 -0.253542 0.000000 
0.205981 -0.311745 0.000000 
0.148617 -0.321983 0.000000 
0.140093 -0.370681 0.000000 
0.347255 -0.257069 0.000000 
0.303554 -0.277227 0.000000 
0.309886 -0.337772 0.000000 
0.257893 -0.353144 0.000000 
0.254475 -0.407254 0.000000 
0.194039 -0.414553 0.000000 
0.184111 -0.461645 0.000000 
0.445733 -0.279742 0.000000 
0.403017 -0.300321 0.000000 
0.412122 -0.362467 0.000000 
0.362692 -0.379761 0.000000 
0.363386 -0.437272 0.000000 
0.307162 -0.449393 0.000000 
0.301302 -0.501432 0.000000 
0.238687 -0.506384 0.000000 
0.228129 -0.552608 0.000000 
0.058559 -0.134116 0.000000 
0.142917 -0.070357 0.000000 
0.123292 -0.119341 0.000000 
0.162226 -0.154958 0.000000 
0.223062 -0.007170 0.000000 
0.209613 -0.054744 0.000000 
0.256854 -0.088856 0.000000 
0.229092 -0.140088 0.000000 
0.261851 -0.177115 0.000000 
0.302189 0.055687 0.000000 
0.290702 0.008952 0.000000 
0.341985 -0.023847 0.000000 
0.321587 -0.074081 0.000000 
0.361761 -0.110490 0.000000 
0.329787 -0.162292 0.000000 
0.360414 -0.199415 0.000000 
0.381315 0.118544 0.000000 
0.370772 0.072316 0.000000 
0.425037 0.040687 0.000000 
0.407738 -0.008741 0.000000 
0.453135 -0.044056 0.000000 
0.427556 -0.095571 0.000000 
0.464588 -0.132599 0.000000 
0.429420 -0.184640 0.000000 
0.458977 -0.221715 0.000000 
0.026061 -0.093365 0.000000 
0.028809 0.012341 0.000000 
0.054870 -0.033542 0.000000 
0.106992 -0.025310 0.000000 
0.029377 0.114399 0.000000 
0.058186 0.074221 0.000000 
0.114311 0.089887 0.000000 
0.137056 0.036240 0.000000 
0.186430 0.038766 0.000000 
0.029568 0.215453 0.000000 
0.058945 0.177333 0.000000 
0.116563 0.196978 0.000000 
0.143120 0.149710 0.000000 
0.196633 0.158419 0.000000 
0.217198 0.101122 0.000000 
0.265318 0.101922 0.000000 
0.029759 0.316507 0.000000 
0.059328 0.279441 0.000000 
0.117890 0.302147 0.000000 
0.145749 0.257804 0.000000 
0.201664 0.271278 0.000000 
0.225992 0.219161 0.000000 
0.278030 0.225027 0.000000 
0.296791 0.165085 0.000000 
0.344206 0.165077 0.000000 
CELLS 175 350 
1 0 
1 1 
1 2 
1 3 
1 4 
1 5 
1 6 
1 7 
1 8 
1 9 
1 10 
1 11 
1 12 
1 13 
1 14 
1 15 
1 16 
1 17 
1 18 
1 19 
1 20 
1 21 
1 22 
1 23 
1 24 
1 25 
1 26 
1 27 
1 28 
1 29 
1 30 
1 31 
1 32 
1 33 
1 34 
1 35 
1 36 
1 37 
1 38 
1 39 
1 40 
1 41 
1 42 
1 43 
1 44 
1 45 
1 46 
1 47 
1 48 
1 49 
1 50 
1 51 
1 52 
1 53 
1 54 
1 55 
1 56 
1 57 
1 58 
1 59 
1 60 
1 61 
1 62 
1 63 
1 64 
1 65 
1 66 
1 67 
1 68 
1 69 
1 70 
1 71 
1 72 
1 73 
1 74 
1 75 
1 76 
1 77 
1 78 
1 79 
1 80 
1 81 
1 82 
1 83 
1 84 
1 85 
1 86 
1 87 
1 88 
1 89 
1 90 
1 91 
1 92 
1 93 
1 94 
1 95 
1 96 
1 97 
1 98 
1 99 
1 100 
1 101 
1 102 
1 103 
1 104 
1 105 
1 106 
1 107 
1 108 
1 109 
1 110 
1 111 
1 112 
1 113 
1 114 
1 115 
1 116 
1 117 
1 118 
1 119 
1 120 
1 121 
1 122 
1 123 
1 124 
1 125 
1 126 
1 127 
1 128 
1 129 
1 130 
1 131 
1 132 
1 133 
1 134 
1 135 
1 136 
1 137 
1 138 
1 139 
1 140 
1 141 
1 142 
1 143 
1 144 
1 145 
1 146 
1 147 
1 148 
1 149 
1 150 
1 151 
1 152 
1 153 
1 154 
1 155 
1 156 
1 157 
1 158 
1 159 
1 160 
1 161 
1 162 
1 163 
1 164 
1 165 
1 166 
1 167 
1 168 
1 169 
1 170 
1 171 
1 172 
1 173 
1 174 
CELL_TYPES 175 
1 
1 
1 
1 
1 
1 
1 
1 
1 
1 
1 
1 
1 
1 
1 
1 
1 
1 
1 
1 
1 
1 
1 
1 
1 
1 
1 
1 
1 
1 
1 
1 
1 
1 
1 
1 
1 
1 
1 
1 
1 
1 
1 
1 
1 
1 
1 
1 
1 
1 
1 
1 
1 
1 
1 
1 
1 
1 
1 
1 
1 
1 
1 
1 
1 
1 
1 
1 
1 
1 
1 
1 
1 
1 
1 
1 
1 
1 
1 
1 
1 
1 
1 
1 
1 
1 
1 
1 
1 
1 
1 
1 
1 
1 
1 
1 
1 
1 
1 
1 
1 
1 
1 
1 
1 
1 
1 
1 
1 
1 
1 
1 
1 
1 
1 
1 
1 
1 
1 
1 
1 
1 
1 
1 
1 
1 
1 
1 
1 
1 
1 
1 
1 
1 
1 
1 
1 
1 
1 
1 
1 
1 
1 
1 
1 
1 
1 
1 
1 
1 
1 
1 
1 
1 
1 
1 
1 
1 
1 
1 
1 
1 
1 
1 
1 
1 
1 
1 
1 
1 
1 
1 
1 
1 
1 
POINT_DATA 175 
VECTORS X_GC float 
-0.026061 -0.093365 0.000000 
-0.106992 -0.025310 0.000000 
-0.054870 -0.033542 0.000000 
-0.028809 0.012341 0.000000 
-0.186430 0.038766 0.000000 
-0.137056 0.036240 0.000000 
-0.114311 0.089887 0.000000 
-0.058186 0.074221 0.000000 
-0.029377 0.114399 0.000000 
-0.265318 0.101922 0.000000 
-0.217198 0.101122 0.000000 
-0.196633 0.158419 0.000000 
-0.143120 0.149710 0.000000 
-0.116563 0.196978 0.000000 
-0.058945 0.177333 0.000000 
-0.029568 0.215453 0.000000 
-0.344206 0.165077 0.000000 
-0.296791 0.165085 0.000000 
-0.278030 0.225027 0.000000 
-0.225992 0.219161 0.000000 
-0.201664 0.271278 0.000000 
-0.145749 0.257804 0.000000 
-0.117890 0.302147 0.000000 
-0.059328 0.279441 0.000000 
-0.029759 0.316507 0.000000 
-0.058559 -0.134116 0.000000 
-0.162226 -0.154958 0.000000 
-0.123292 -0.119341 0.000000 
-0.142917 -0.070357 0.000000 
-0.261851 -0.177115 0.000000 
-0.229092 -0.140088 0.000000 
-0.256854 -0.088856 0.000000 
-0.209613 -0.054744 0.000000 
-0.223062 -0.007170 0.000000 
-0.360414 -0.199415 0.000000 
-0.329787 -0.162292 0.000000 
-0.361761 -0.110490 0.000000 
-0.321587 -0.074081 0.000000 
-0.341985 -0.023847 0.000000 
-0.290702 0.008952 0.000000 
-0.302189 0.055687 0.000000 
-0.458977 -0.221715 0.000000 
-0.429420 -0.184640 0.000000 
-0.464588 -0.132599 0.000000 
-0.427556 -0.095571 0.000000 
-0.453135 -0.044056 0.000000 
-0.407738 -0.008741 0.000000 
-0.425037 0.040687 0.000000 
-0.370772 0.072316 0.000000 
-0.381315 0.118544 0.000000 
-0.046960 -0.184931 0.000000 
-0.095301 -0.278977 0.000000 
-0.098873 -0.226330 0.000000 
-0.149405 -0.211132 0.000000 
-0.140093 -0.370681 0.000000 
-0.148617 -0.321983 0.000000 
-0.205981 -0.311745 0.000000 
-0.203197 -0.253542 0.000000 
-0.248777 -0.234395 0.000000 
-0.184111 -0.461645 0.000000 
-0.194039 -0.414553 0.000000 
-0.254475 -0.407254 0.000000 
-0.257893 -0.353144 0.000000 
-0.309886 -0.337772 0.000000 
-0.303554 -0.277227 0.000000 
-0.347255 -0.257069 0.000000 
-0.228129 -0.552608 0.000000 
-0.238687 -0.506384 0.000000 
-0.301302 -0.501432 0.000000 
-0.307162 -0.449393 0.000000 
-0.363386 -0.437272 0.000000 
-0.362692 -0.379761 0.000000 
-0.412122 -0.362467 0.000000 
-0.403017 -0.300321 0.000000 
-0.445733 -0.279742 0.000000 
-0.000000 -0.207546 0.000000 
0.043388 -0.303977 0.000000 
-0.000000 -0.273944 0.000000 
-0.043388 -0.303977 0.000000 
0.087158 -0.396173 0.000000 
0.043769 -0.372475 0.000000 
-0.000000 -0.410940 0.000000 
-0.043769 -0.372475 0.000000 
-0.087158 -0.396173 0.000000 
0.130831 -0.487303 0.000000 
0.087824 -0.465704 0.000000 
0.044436 -0.508404 0.000000 
-0.000000 -0.477339 0.000000 
-0.044436 -0.508404 0.000000 
-0.087824 -0.465704 0.000000 
-0.130831 -0.487303 0.000000 
0.174505 -0.578433 0.000000 
0.131782 -0.557866 0.000000 
0.088871 -0.603733 0.000000 
0.044532 -0.575869 0.000000 
-0.000000 -0.612269 0.000000 
-0.044532 -0.575869 0.000000 
-0.088871 -0.603733 0.000000 
-0.131782 -0.557866 0.000000 
-0.174505 -0.578433 0.000000 
0.046960 -0.184931 0.000000 
0.149405 -0.211132 0.000000 
0.098873 -0.226330 0.000000 
0.095301 -0.278977 0.000000 
0.248777 -0.234395 0.000000 
0.203197 -0.253542 0.000000 
0.205981 -0.311745 0.000000 
0.148617 -0.321983 0.000000 
0.140093 -0.370681 0.000000 
0.347255 -0.257069 0.000000 
0.303554 -0.277227 0.000000 
0.309886 -0.337772 0.000000 
0.257893 -0.353144 0.000000 
0.254475 -0.407254 0.000000 
0.194039 -0.414553 0.000000 
0.184111 -0.461645 0.000000 
0.445733 -0.279742 0.000000 
0.403017 -0.300321 0.000000 
0.412122 -0.362467 0.000000 
0.362692 -0.379761 0.000000 
0.363386 -0.437272 0.000000 
0.307162 -0.449393 0.000000 
0.301302 -0.501432 0.000000 
0.238687 -0.506384 0.000000 
0.228129 -0.552608 0.000000 
0.058559 -0.134116 0.000000 
0.142917 -0.070357 0.000000 
0.123292 -0.119341 0.000000 
0.162226 -0.154958 0.000000 
0.223062 -0.007170 0.000000 
0.209613 -0.054744 0.000000 
0.256854 -0.088856 0.000000 
0.229092 -0.140088 0.000000 
0.261851 -0.177115 0.000000 
0.302189 0.055687 0.000000 
0.290702 0.008952 0.000000 
0.341985 -0.023847 0.000000 
0.321587 -0.074081 0.000000 
0.361761 -0.110490 0.000000 
0.329787 -0.162292 0.000000 
0.360414 -0.199415 0.000000 
0.381315 0.118544 0.000000 
0.370772 0.072316 0.000000 
0.425037 0.040687 0.000000 
0.407738 -0.008741 0.000000 
0.453135 -0.044056 0.000000 
0.427556 -0.095571 0.000000 
0.464588 -0.132599 0.000000 
0.429420 -0.184640 0.000000 
0.458977 -0.221715 0.000000 
0.026061 -0.093365 0.000000 
0.028809 0.012341 0.000000 
0.054870 -0.033542 0.000000 
0.106992 -0.025310 0.000000 
0.029377 0.114399 0.000000 
0.058186 0.074221 0.000000 
0.114311 0.089887 0.000000 
0.137056 0.036240 0.000000 
0.186430 0.038766 0.000000 
0.029568 0.215453 0.000000 
0.058945 0.177333 0.000000 
0.116563 0.196978 0.000000 
0.143120 0.149710 0.000000 
0.196633 0.158419 0.000000 
0.217198 0.101122 0.000000 
0.265318 0.101922 0.000000 
0.029759 0.316507 0.000000 
0.059328 0.279441 0.000000 
0.117890 0.302147 0.000000 
0.145749 0.257804 0.000000 
0.201664 0.271278 0.000000 
0.225992 0.219161 0.000000 
0.278030 0.225027 0.000000 
0.296791 0.165085 0.000000 
0.344206 0.165077 0.000000 
VECTORS X_EC float 
0.338794 -0.239572 0.000000 
-0.609100 0.841680 0.000000 
0.713312 0.952820 0.000000 
0.374519 0.333391 0.000000 
0.423588 -0.023340 0.000000 
-0.218274 0.010764 0.000000 
-0.513962 -0.713475 0.000000 
0.756418 -0.501989 0.000000 
0.381900 0.955619 0.000000 
-0.550868 -0.875943 0.000000 
0.823577 -0.865147 0.000000 
0.556234 0.361349 0.000000 
-0.139443 0.478917 0.000000 
-0.484677 -0.159207 0.000000 
0.766286 0.106008 0.000000 
0.384386 -0.408612 0.000000 
0.474677 0.271454 0.000000 
-0.141715 0.271358 0.000000 
-0.385608 -0.537870 0.000000 
0.937896 -0.458675 0.000000 
0.621631 0.837745 0.000000 
-0.105264 -0.980356 0.000000 
-0.467428 0.421018 0.000000 
0.771260 0.727546 0.000000 
0.386873 0.227157 0.000000 
0.761262 0.310563 0.000000 
0.108942 0.591939 0.000000 
-0.397202 0.111100 0.000000 
-0.142083 -0.550175 0.000000 
-0.595936 0.891050 0.000000 
0.978194 0.391184 0.000000 
-0.660903 -0.300441 0.000000 
0.724964 -0.760961 0.000000 
0.899809 0.596790 0.000000 
0.685384 -0.807898 0.000000 
0.287229 0.690944 0.000000 
0.702895 -0.008385 0.000000 
0.180633 -0.499904 0.000000 
0.445811 0.821937 0.000000 
-0.220880 0.379151 0.000000 
-0.071546 -0.251775 0.000000 
-0.033296 -0.506846 0.000000 
-0.417537 0.992645 0.000000 
0.039645 0.290082 0.000000 
-0.441768 -0.209789 0.000000 
-0.109248 -0.905240 0.000000 
-0.699407 0.618005 0.000000 
-0.474522 -0.049275 0.000000 
0.820030 -0.476268 0.000000 
0.957100 0.899660 0.000000 
0.610485 0.996569 0.000000 
-0.761092 0.266188 0.000000 
-0.714655 -0.444549 0.000000 
-0.057734 -0.649716 0.000000 
-0.178789 -0.495807 0.000000 
-0.067979 0.846766 0.000000 
0.677748 0.708563 0.000000 
0.641556 -0.077182 0.000000 
-0.765897 -0.335661 0.000000 
0.393446 0.732202 0.000000 
0.522510 0.096472 0.000000 
-0.691820 -0.002073 0.000000 
-0.647393 -0.732555 0.000000 
0.028512 -0.940082 0.000000 
-0.053800 0.242558 0.000000 
0.514316 -0.029573 0.000000 
0.965681 -0.039789 0.000000 
-0.897068 -0.663818 0.000000 
-0.083078 -0.730671 0.000000 
-0.006893 0.566804 0.000000 
0.724017 0.403171 0.000000 
0.714996 -0.373232 0.000000 
-0.642413 -0.606689 0.000000 
-0.760780 0.554330 0.000000 
-0.205471 0.276515 0.000000 
0.000000 -0.698129 0.000000 
-0.564049 0.603683 0.000000 
0.000000 0.198247 0.000000 
0.564049 0.603683 0.000000 
0.866949 -0.151661 0.000000 
-0.569003 -0.471592 0.000000 
0.000000 0.047696 0.000000 
0.569003 -0.471592 0.000000 
-0.866949 -0.151661 0.000000 
0.299194 -0.921411 0.000000 
0.858290 0.787005 0.000000 
-0.577662 -0.636549 0.000000 
0.000000 0.944073 0.000000 
0.577662 -0.636549 0.000000 
-0.858290 0.787005 0.000000 
-0.299194 -0.921411 0.000000 
-0.268560 0.308839 0.000000 
0.286830 0.031197 0.000000 
0.844677 0.650395 0.000000 
-0.578910 0.274233 0.000000 
0.000000 0.765637 0.000000 
0.578910 0.274233 0.000000 
-0.844677 0.650395 0.000000 
-0.286830 0.031197 0.000000 
0.268560 0.308839 0.000000 
-0.610485 0.996569 0.000000 
0.057734 -0.649716 0.000000 
0.714655 -0.444549 0.000000 
0.761092 0.266188 0.000000 
0.765897 -0.335661 0.000000 
-0.641556 -0.077182 0.000000 
-0.677748 0.708563 0.000000 
0.067979 0.846766 0.000000 
0.178789 -0.495807 0.000000 
-0.514316 -0.029573 0.000000 
0.053800 0.242558 0.000000 
-0.028512 -0.940082 0.000000 
0.647393 -0.732555 0.000000 
0.691820 -0.002073 0.000000 
-0.522510 0.096472 0.000000 
-0.393446 0.732202 0.000000 
0.205471 0.276515 0.000000 
0.760780 0.554330 0.000000 
0.642413 -0.606689 0.000000 
-0.714996 -0.373232 0.000000 
-0.724017 0.403171 0.000000 
0.006894 0.566804 0.000000 
0.083078 -0.730671 0.000000 
0.897068 -0.663818 0.000000 
-0.965681 -0.039789 0.000000 
-0.761262 0.310563 0.000000 
0.142083 -0.550175 0.000000 
0.397202 0.111100 0.000000 
-0.108942 0.591939 0.000000 
-0.899809 0.596790 0.000000 
-0.724964 -0.760961 0.000000 
0.660903 -0.300441 0.000000 
-0.978194 0.391184 0.000000 
0.595936 0.891050 0.000000 
0.071546 -0.251775 0.000000 
0.220880 0.379151 0.000000 
-0.445811 0.821937 0.000000 
-0.180633 -0.499904 0.000000 
-0.702895 -0.008385 0.000000 
-0.287229 0.690944 0.000000 
-0.685384 -0.807898 0.000000 
-0.957100 0.899660 0.000000 
-0.820030 -0.476268 0.000000 
0.474522 -0.049275 0.000000 
0.699407 0.618005 0.000000 
0.109248 -0.905240 0.000000 
0.441768 -0.209789 0.000000 
-0.039645 0.290082 0.000000 
0.417537 0.992645 0.000000 
0.033296 -0.506846 0.000000 
-0.338794 -0.239572 0.000000 
-0.374519 0.333391 0.000000 
-0.713312 0.952820 0.000000 
0.609100 0.841680 0.000000 
-0.381900 0.955619 0.000000 
-0.756418 -0.501989 0.000000 
0.513962 -0.713475 0.000000 
0.218274 0.010764 0.000000 
-0.423588 -0.023340 0.000000 
-0.384386 -0.408612 0.000000 
-0.766286 0.106008 0.000000 
0.484677 -0.159207 0.000000 
0.139443 0.478917 0.000000 
-0.556234 0.361349 0.000000 
-0.823577 -0.865147 0.000000 
0.550868 -0.875943 0.000000 
-0.386873 0.227157 0.000000 
-0.771260 0.727546 0.000000 
0.467428 0.421018 0.000000 
0.105264 -0.980356 0.000000 
-0.621631 0.837745 0.000000 
-0.937896 -0.458675 0.000000 
0.385608 -0.537870 0.000000 
0.141715 0.271358 0.000000 
-0.474677 0.271454 0.000000 
CELL_DATA 175 
SCALARS MASS float 
LOOKUP_TABLE default 
0.078183 
0.086427 
0.094672 
0.086427 
0.088131 
0.092111 
0.085854 
0.092111 
0.088131 
0.088705 
0.091000 
0.086983 
0.091556 
0.086983 
0.091000 
0.088705 
0.089278 
0.091574 
0.089278 
0.092722 
0.089278 
0.092722 
0.089278 
0.091574 
0.089278 
0.078183 
0.086427 
0.094672 
0.086427 
0.088131 
0.092111 
0.085854 
0.092111 
0.088131 
0.088705 
0.091000 
0.086983 
0.091556 
0.086983 
0.091000 
0.088705 
0.089278 
0.091574 
0.089278 
0.092722 
0.089278 
0.092722 
0.089278 
0.091574 
0.089278 
0.078183 
0.086427 
0.094672 
0.086427 
0.088131 
0.092111 
0.085854 
0.092111 
0.088131 
0.088705 
0.091000 
0.086983 
0.091556 
0.086983 
0.091000 
0.088705 
0.089278 
0.091574 
0.089278 
0.092722 
0.089278 
0.092722 
0.089278 
0.091574 
0.089278 
0.078183 
0.086427 
0.094672 
0.086427 
0.088131 
0.092111 
0.085854 
0.092111 
0.088131 
0.088705 
0.091000 
0.086983 
0.091556 
0.086983 
0.091000 
0.088705 
0.089278 
0.091574 
0.089278 
0.092722 
0.089278 
0.092722 
0.089278 
0.091574 
0.089278 
0.078183 
0.086427 
0.094672 
0.086427 
0.088131 
0.092111 
0.085854 
0.092111 
0.088131 
0.088705 
0.091000 
0.086983 
0.091556 
0.086983 
0.091000 
0.088705 
0.089278 
0.091574 
0.089278 
0.092722 
0.089278 
0.092722 
0.089278 
0.091574 
0.089278 
0.078183 
0.086427 
0.094672 
0.086427 
0.088131 
0.092111 
0.085854 
0.092111 
0.088131 
0.088705 
0.091000 
0.086983 
0.091556 
0.086983 
0.091000 
0.088705 
0.089278 
0.091574 
0.089278 
0.092722 
0.089278 
0.092722 
0.089278 
0.091574 
0.089278 
0.078183 
0.086427 
0.094672 
0.086427 
0.088131 
0.092111 
0.085854 
0.092111 
0.088131 
0.088705 
0.091000 
0.086983 
0.091556 
0.086983 
0.091000 
0.088705 
0.089278 
0.091574 
0.089278 
0.092722 
0.089278 
0.092722 
0.089278 
0.091574 
0.089278 
SCALARS MASS float 
LOOKUP_TABLE default 
0.078183 
0.086427 
0.094672 
0.086427 
0.088131 
0.092111 
0.085854 
0.092111 
0.088131 
0.088705 
0.091000 
0.086983 
0.091556 
0.086983 
0.091000 
0.088705 
0.089278 
0.091574 
0.089278 
0.092722 
0.089278 
0.092722 
0.089278 
0.091574 
0.089278 
0.078183 
0.086427 
0.094672 
0.086427 
0.088131 
0.092111 
0.085854 
0.092111 
0.088131 
0.088705 
0.091000 
0.086983 
0.091556 
0.086983 
0.091000 
0.088705 
0.089278 
0.091574 
0.089278 
0.092722 
0.089278 
0.092722 
0.089278 
0.091574 
0.089278 
0.078183 
0.086427 
0.094672 
0.086427 
0.088131 
0.092111 
0.085854 
0.092111 
0.088131 
0.088705 
0.091000 
0.086983 
0.091556 
0.086983 
0.091000 
0.088705 
0.089278 
0.091574 
0.089278 
0.092722 
0.089278 
0.092722 
0.089278 
0.091574 
0.089278 
0.078183 
0.086427 
0.094672 
0.086427 
0.088131 
0.092111 
0.085854 
0.092111 
0.088131 
0.088705 
0.091000 
0.086983 
0.091556 
0.086983 
0.091000 
0.088705 
0.089278 
0.091574 
0.089278 
0.092722 
0.089278 
0.092722 
0.089278 
0.091574 
0.089278 
0.078183 
0.086427 
0.094672 
0.086427 
0.088131 
0.092111 
0.085854 
0.092111 
0.088131 
0.088705 
0.091000 
0.086983 
0.091556 
0.086983 
0.091000 
0.088705 
0.089278 
0.091574 
0.089278 
0.092722 
0.089278 
0.092722 
0.089278 
0.091574 
0.089278 
0.078183 
0.086427 
0.094672 
0.086427 
0.088131 
0.092111 
0.085854 
0.092111 
0.088131 
0.088705 
0.091000 
0.086983 
0.091556 
0.086983 
0.091000 
0.088705 
0.089278 
0.091574 
0.089278 
0.092722 
0.089278 
0.092722 
0.089278 
0.091574 
0.089278 
0.078183 
0.086427 
0.094672 
0.086427 
0.088131 
0.092111 
0.085854 
0.092111 
0.088131 
0.088705 
0.091000 
0.086983 
0.091556 
0.086983 
0.091000 
0.088705 
0.089278 
0.091574 
0.089278 
0.092722 
0.089278 
0.092722 
0.089278 
0.091574 
0.089278 
SCALARS DENSITY float 
LOOKUP_TABLE default 
20.000000 
20.000000 
20.000000 
20.000000 
20.000000 
20.000000 
20.000000 
20.000000 
20.000000 
20.000000 
20.000000 
20.000000 
20.000000 
20.000000 
20.000000 
20.000000 
20.000000 
20.000000 
20.000000 
20.000000 
20.000000 
20.000000 
20.000000 
20.000000 
20.000000 
20.000000 
20.000000 
20.000000 
20.000000 
20.000000 
20.000000 
20.000000 
20.000000 
20.000000 
20.000000 
20.000000 
20.000000 
20.000000 
20.000000 
20.000000 
20.000000 
20.000000 
20.000000 
20.000000 
20.000000 
20.000000 
20.000000 
20.000000 
20.000000 
20.000000 
20.000000 
20.000000 
20.000000 
20.000000 
20.000000 
20.000000 
20.000000 
20.000000 
20.000000 
20.000000 
20.000000 
20.000000 
20.000000 
20.000000 
20.000000 
20.000000 
20.000000 
20.000000 
20.000000 
20.000000 
20.000000 
20.000000 
20.000000 
20.000000 
20.000000 
20.000000 
20.000000 
20.000000 
20.000000 
20.000000 
20.000000 
20.000000 
20.000000 
20.000000 
20.000000 
20.000000 
20.000000 
20.000000 
20.000000 
20.000000 
20.000000 
20.000000 
20.000000 
20.000000 
20.000000 
20.000000 
20.000000 
20.000000 
20.000000 
20.000000 
20.000000 
20.000000 
20.000000 
20.000000 
20.000000 
20.000000 
20.000000 
20.000000 
20.000000 
20.000000 
20.000000 
20.000000 
20.000000 
20.000000 
20.000000 
20.000000 
20.000000 
20.000000 
20.000000 
20.000000 
20.000000 
20.000000 
20.000000 
20.000000 
20.000000 
20.000000 
20.000000 
20.000000 
20.000000 
20.000000 
20.000000 
20.000000 
20.000000 
20.000000 
20.000000 
20.000000 
20.000000 
20.000000 
20.000000 
20.000000 
20.000000 
20.000000 
20.000000 
20.000000 
20.000000 
20.000000 
20.000000 
20.000000 
20.000000 
20.000000 
20.000000 
20.000000 
20.000000 
20.000000 
20.000000 
20.000000 
20.000000 
20.000000 
20.000000 
20.000000 
20.000000 
20.000000 
20.000000 
20.000000 
20.000000 
20.000000 
20.000000 
20.000000 
20.000000 
20.000000 
20.000000 
20.000000 
20.000000 
20.000000 
20.000000 
SCALARS ELEM_i float 
LOOKUP_TABLE default 
181 
209 
182 
182 
209 
209 
209 
182 
183 
236 
209 
210 
210 
210 
183 
183 
237 
237 
237 
210 
211 
210 
211 
184 
184 
181 
208 
208 
208 
235 
208 
235 
208 
209 
234 
235 
235 
235 
236 
236 
236 
261 
262 
262 
262 
262 
263 
263 
236 
237 
181 
207 
207 
207 
206 
207 
207 
207 
234 
206 
206 
233 
233 
233 
234 
234 
205 
232 
232 
233 
233 
233 
260 
261 
261 
180 
180 
180 
180 
152 
179 
179 
179 
206 
151 
152 
178 
179 
178 
206 
205 
151 
151 
151 
178 
178 
178 
205 
205 
205 
181 
153 
153 
153 
126 
153 
153 
153 
152 
126 
126 
125 
125 
125 
152 
152 
99 
99 
98 
125 
125 
125 
124 
124 
151 
181 
154 
154 
154 
155 
154 
127 
154 
127 
128 
128 
128 
127 
127 
127 
126 
129 
128 
101 
101 
100 
100 
100 
100 
99 
181 
182 
182 
155 
183 
182 
155 
155 
155 
183 
183 
156 
156 
156 
155 
128 
184 
184 
157 
156 
157 
156 
129 
129 
129 
VECTORS VELOCITY float 
-0.000000 -1.700662 0.000000 
-0.000000 -1.700662 0.000000 
-0.000000 -1.700662 0.000000 
-0.000000 -1.700662 0.000000 
-0.000000 -1.700662 0.000000 
-0.000000 -1.700662 0.000000 
-0.000000 -1.700662 0.000000 
0.000000 -1.700662 0.000000 
0.000000 -1.700662 0.000000 
-0.000000 -1.700662 0.000000 
-0.000000 -1.700662 0.000000 
-0.000000 -1.700662 0.000000 
-0.000000 -1.700662 0.000000 
-0.000000 -1.700662 0.000000 
-0.000000 -1.700662 0.000000 
-0.000000 -1.700662 0.000000 
-0.000000 -1.700662 0.000000 
-0.000000 -1.700662 0.000000 
-0.000000 -1.700662 0.000000 
-0.000000 -1.700662 0.000000 
-0.000000 -1.700662 0.000000 
-0.000000 -1.700662 0.000000 
0.000000 -1.700662 0.000000 
0.000000 -1.700662 0.000000 
0.000000 -1.700662 0.000000 
-0.000000 -1.700662 0.000000 
-0.000000 -1.700662 0.000000 
-0.000000 -1.700662 0.000000 
-0.000000 -1.700662 0.000000 
-0.000000 -1.700662 0.000000 
-0.000000 -1.700662 0.000000 
-0.000000 -1.700662 0.000000 
-0.000000 -1.700662 0.000000 
-0.000000 -1.700662 0.000000 
0.000000 -1.700662 0.000000 
0.000000 -1.700662 0.000000 
0.000000 -1.700662 0.000000 
0.000000 -1.700662 0.000000 
-0.000000 -1.700662 0.000000 
-0.000000 -1.700662 0.000000 
-0.000000 -1.700662 0.000000 
0.000000 -1.700662 0.000000 
0.000000 -1.700662 0.000000 
-0.000000 -1.700662 0.000000 
0.000000 -1.700662 0.000000 
-0.000000 -1.700662 0.000000 
-0.000000 -1.700662 0.000000 
-0.000000 -1.700662 0.000000 
0.000000 -1.700662 0.000000 
0.000000 -1.700662 0.000000 
-0.000000 -1.700662 0.000000 
0.000000 -1.700662 0.000000 
0.000000 -1.700662 0.000000 
-0.000000 -1.700662 0.000000 
0.000000 -1.700662 0.000000 
0.000000 -1.700662 0.000000 
0.000000 -1.700662 0.000000 
-0.000000 -1.700662 0.000000 
-0.000000 -1.700662 0.000000 
0.000000 -1.700662 0.000000 
0.000000 -1.700662 0.000000 
0.000000 -1.700662 0.000000 
0.000000 -1.700662 0.000000 
-0.000000 -1.700662 0.000000 
-0.000000 -1.700662 0.000000 
0.000000 -1.700662 0.000000 
-0.000000 -1.700662 0.000000 
0.000000 -1.700662 0.000000 
-0.000000 -1.700662 0.000000 
0.000000 -1.700662 0.000000 
0.000000 -1.700662 0.000000 
-0.000000 -1.700662 0.000000 
-0.000000 -1.700662 0.000000 
-0.000000 -1.700662 0.000000 
0.000000 -1.700662 0.000000 
-0.000000 -1.700662 0.000000 
-0.000000 -1.700662 0.000000 
-0.000000 -1.700662 0.000000 
0.000000 -1.700662 0.000000 
-0.000000 -1.700662 0.000000 
-0.000000 -1.700662 0.000000 
-0.000000 -1.700662 0.000000 
-0.000000 -1.700662 0.000000 
-0.000000 -1.700662 0.000000 
0.000000 -1.700662 0.000000 
0.000000 -1.700662 0.000000 
0.000000 -1.700662 0.000000 
0.000000 -1.700662 0.000000 
-0.000000 -1.700662 0.000000 
-0.000000 -1.700662 0.000000 
0.000000 -1.700662 0.000000 
0.000000 -1.700662 0.000000 
0.000000 -1.700662 0.000000 
0.000000 -1.700662 0.000000 
0.000000 -1.700662 0.000000 
0.000000 -1.700662 0.000000 
0.000000 -1.700662 0.000000 
0.000000 -1.700662 0.000000 
-0.000000 -1.700662 0.000000 
-0.000000 -1.700662 0.000000 
-0.000000 -1.700662 0.000000 
-0.000000 -1.700662 0.000000 
-0.000000 -1.700662 0.000000 
-0.000000 -1.700662 0.000000 
0.000000 -1.700662 0.000000 
0.000000 -1.700662 0.000000 
0.000000 -1.700662 0.000000 
-0.000000 -1.700662 0.000000 
-0.000000 -1.700662 0.000000 
0.000000 -1.700662 0.000000 
0.000000 -1.700662 0.000000 
0.000000 -1.700662 0.000000 
0.000000 -1.700662 0.000000 
0.000000 -1.700662 0.000000 
0.000000 -1.700662 0.000000 
0.000000 -1.700662 0.000000 
0.000000 -1.700662 0.000000 
0.000000 -1.700662 0.000000 
-0.000000 -1.700662 0.000000 
-0.000000 -1.700662 0.000000 
-0.000000 -1.700662 0.000000 
-0.000000 -1.700662 0.000000 
-0.000000 -1.700662 0.000000 
-0.000000 -1.700662 0.000000 
-0.000000 -1.700662 0.000000 
-0.000000 -1.700662 0.000000 
0.000000 -1.700662 0.000000 
0.000000 -1.700662 0.000000 
0.000000 -1.700662 0.000000 
0.000000 -1.700662 0.000000 
0.000000 -1.700662 0.000000 
0.000000 -1.700662 0.000000 
0.000000 -1.700662 0.000000 
0.000000 -1.700662 0.000000 
-0.000000 -1.700662 0.000000 
0.000000 -1.700662 0.000000 
0.000000 -1.700662 0.000000 
0.000000 -1.700662 0.000000 
0.000000 -1.700662 0.000000 
0.000000 -1.700662 0.000000 
-0.000000 -1.700662 0.000000 
-0.000000 -1.700662 0.000000 
-0.000000 -1.700662 0.000000 
-0.000000 -1.700662 0.000000 
0.000000 -1.700662 0.000000 
0.000000 -1.700662 0.000000 
0.000000 -1.700662 0.000000 
-0.000000 -1.700662 0.000000 
-0.000000 -1.700662 0.000000 
0.000000 -1.700662 0.000000 
-0.000000 -1.700662 0.000000 
0.000000 -1.700662 0.000000 
-0.000000 -1.700662 0.000000 
0.000000 -1.700662 0.000000 
0.000000 -1.700662 0.000000 
0.000000 -1.700662 0.000000 
0.000000 -1.700662 0.000000 
0.000000 -1.700662 0.000000 
0.000000 -1.700662 0.000000 
0.000000 -1.700662 0.000000 
0.000000 -1.700662 0.000000 
0.000000 -1.700662 0.000000 
0.000000 -1.700662 0.000000 
0.000000 -1.700662 0.000000 
0.000000 -1.700662 0.000000 
-0.000000 -1.700662 0.000000 
-0.000000 -1.700662 0.000000 
0.000000 -1.700662 0.000000 
-0.000000 -1.700662 0.000000 
0.000000 -1.700662 0.000000 
-0.000000 -1.700662 0.000000 
0.000000 -1.700662 0.000000 
-0.000000 -1.700662 0.000000 
-0.000000 -1.700662 0.000000 
-0.000000 -1.700662 0.000000 
TENSORS STRESS float 
0.000000 0.000000 0.000000 
0.000000 0.000000 0.000000 
0.000000 0.000000 0.000000 

-0.000000 0.000000 0.000000 
0.000000 0.000000 0.000000 
0.000000 0.000000 0.000000 

-0.000000 0.000000 0.000000 
0.000000 -0.000000 0.000000 
0.000000 0.000000 0.000000 

-0.000000 0.000000 0.000000 
0.000000 -0.000000 0.000000 
0.000000 0.000000 0.000000 

0.000000 0.000000 0.000000 
0.000000 0.000000 0.000000 
0.000000 0.000000 0.000000 

0.000000 -0.000000 0.000000 
0.000000 0.000000 0.000000 
0.000000 0.000000 0.000000 

0.000000 0.000000 0.000000 
0.000000 -0.000000 0.000000 
0.000000 0.000000 0.000000 

-0.000000 0.000000 0.000000 
0.000000 -0.000000 0.000000 
0.000000 0.000000 0.000000 

-0.000000 -0.000000 0.000000 
0.000000 0.000000 0.000000 
0.000000 0.000000 0.000000 

0.000000 0.000000 0.000000 
0.000000 -0.000000 0.000000 
0.000000 0.000000 0.000000 

0.000000 -0.000000 0.000000 
0.000000 -0.000000 0.000000 
0.000000 0.000000 0.000000 

0.000000 0.000000 0.000000 
0.000000 -0.000000 0.000000 
0.000000 0.000000 0.000000 

0.000000 0.000000 0.000000 
0.000000 -0.000000 0.000000 
0.000000 0.000000 0.000000 

0.000000 0.000000 0.000000 
0.000000 0.000000 0.000000 
0.000000 0.000000 0.000000 

0.000000 -0.000000 0.000000 
0.000000 0.000000 0.000000 
0.000000 0.000000 0.000000 

0.000000 -0.000000 0.000000 
0.000000 -0.000000 0.000000 
0.000000 0.000000 0.000000 

0.000000 0.000000 0.000000 
0.000000 0.000000 0.000000 
0.000000 0.000000 0.000000 

0.000000 0.000000 0.000000 
0.000000 -0.000000 0.000000 
0.000000 0.000000 0.000000 

-0.000000 -0.000000 0.000000 
0.000000 -0.000000 0.000000 
0.000000 0.000000 0.000000 

-0.000000 0.000000 0.000000 
0.000000 -0.000000 0.000000 
0.000000 0.000000 0.000000 

0.000000 -0.000000 0.000000 
0.000000 0.000000 0.000000 
0.000000 0.000000 0.000000 

-0.000000 -0.000000 0.000000 
0.000000 0.000000 0.000000 
0.000000 0.000000 0.000000 

0.000000 -0.000000 0.000000 
0.000000 0.000000 0.000000 
0.000000 0.000000 0.000000 

0.000000 0.000000 0.000000 
0.000000 0.000000 0.000000 
0.000000 0.000000 0.000000 

0.000000 -0.000000 0.000000 
0.000000 0.000000 0.000000 
0.000000 0.000000 0.000000 

-0.000000 0.000000 0.000000 
0.000000 0.000000 0.000000 
0.000000 0.000000 0.000000 

0.000000 0.000000 0.000000 
0.000000 0.000000 0.000000 
0.000000 0.000000 0.000000 

0.000000 0.000000 0.000000 
0.000000 0.000000 0.000000 
0.000000 0.000000 0.000000 

-0.000000 -0.000000 0.000000 
0.000000 -0.000000 0.000000 
0.000000 0.000000 0.000000 

-0.000000 0.000000 0.000000 
0.000000 0.000000 0.000000 
0.000000 0.000000 0.000000 

0.000000 0.000000 0.000000 
0.000000 0.000000 0.000000 
0.000000 0.000000 0.000000 

-0.000000 0.000000 0.000000 
0.000000 -0.000000 0.000000 
0.000000 0.000000 0.000000 

-0.000000 -0.000000 0.000000 
0.000000 0.000000 0.000000 
0.000000 0.000000 0.000000 

-0.000000 -0.000000 0.000000 
0.000000 -0.000000 0.000000 
0.000000 0.000000 0.000000 

-0.000000 0.000000 0.000000 
0.000000 -0.000000 0.000000 
0.000000 0.000000 0.000000 

-0.000000 0.000000 0.000000 
0.000000 -0.000000 0.000000 
0.000000 0.000000 0.000000 

-0.000000 0.000000 0.000000 
0.000000 -0.000000 0.000000 
0.000000 0.000000 0.000000 

-0.000000 0.000000 0.000000 
0.000000 -0.000000 0.000000 
0.000000 0.000000 0.000000 

-0.000000 -0.000000 0.000000 
0.000000 -0.000000 0.000000 
0.000000 0.000000 0.000000 

0.000000 -0.000000 0.000000 
0.000000 0.000000 0.000000 
0.000000 0.000000 0.000000 

0.000000 0.000000 0.000000 
0.000000 0.000000 0.000000 
0.000000 0.000000 0.000000 

0.000000 0.000000 0.000000 
0.000000 -0.000000 0.000000 
0.000000 0.000000 0.000000 

0.000000 0.000000 0.000000 
0.000000 0.000000 0.000000 
0.000000 0.000000 0.000000 

0.000000 0.000000 0.000000 
0.000000 0.000000 0.000000 
0.000000 0.000000 0.000000 

0.000000 -0.000000 0.000000 
0.000000 0.000000 0.000000 
0.000000 0.000000 0.000000 

0.000000 -0.000000 0.000000 
0.000000 -0.000000 0.000000 
0.000000 0.000000 0.000000 

0.000000 -0.000000 0.000000 
0.000000 0.000000 0.000000 
0.000000 0.000000 0.000000 

0.000000 -0.000000 0.000000 
0.000000 -0.000000 0.000000 
0.000000 0.000000 0.000000 

0.000000 -0.000000 0.000000 
0.000000 0.000000 0.000000 
0.000000 0.000000 0.000000 

0.000000 0.000000 0.000000 
0.000000 -0.000000 0.000000 
0.000000 0.000000 0.000000 

0.000000 -0.000000 0.000000 
0.000000 0.000000 0.000000 
0.000000 0.000000 0.000000 

-0.000000 0.000000 0.000000 
0.000000 -0.000000 0.000000 
0.000000 0.000000 0.000000 

-0.000000 0.000000 0.000000 
0.000000 -0.000000 0.000000 
0.000000 0.000000 0.000000 

-0.000000 0.000000 0.000000 
0.000000 0.000000 0.000000 
0.000000 0.000000 0.000000 

-0.000000 0.000000 0.000000 
0.000000 0.000000 0.000000 
0.000000 0.000000 0.000000 

-0.000000 0.000000 0.000000 
0.000000 -0.000000 0.000000 
0.000000 0.000000 0.000000 

-0.000000 0.000000 0.000000 
0.000000 0.000000 0.000000 
0.000000 0.000000 0.000000 

-0.000000 0.000000 0.000000 
0.000000 -0.000000 0.000000 
0.000000 0.000000 0.000000 

-0.000000 0.000000 0.000000 
0.000000 0.000000 0.000000 
0.000000 0.000000 0.000000 

0.000000 0.000000 0.000000 
0.000000 0.000000 0.000000 
0.000000 0.000000 0.000000 

-0.000000 0.000000 0.000000 
0.000000 -0.000000 0.000000 
0.000000 0.000000 0.000000 

0.000000 -0.000000 0.000000 
0.000000 0.000000 0.000000 
0.000000 0.000000 0.000000 

0.000000 0.000000 0.000000 
0.000000 0.000000 0.000000 
0.000000 0.000000 0.000000 

0.000000 -0.000000 0.000000 
0.000000 -0.000000 0.000000 
0.000000 0.000000 0.000000 

0.000000 -0.000000 0.000000 
0.000000 -0.000000 0.000000 
0.000000 0.000000 0.000000 

0.000000 0.000000 0.000000 
0.000000 0.000000 0.000000 
0.000000 0.000000 0.000000 

0.000000 0.000000 0.000000 
0.000000 0.000000 0.000000 
0.000000 0.000000 0.000000 

0.000000 -0.000000 0.000000 
0.000000 0.000000 0.000000 
0.000000 0.000000 0.000000 

-0.000000 -0.000000 0.000000 
0.000000 -0.000000 0.000000 
0.000000 0.000000 0.000000 

0.000000 -0.000000 0.000000 
0.000000 0.000000 0.000000 
0.000000 0.000000 0.000000 

0.000000 -0.000000 0.000000 
0.000000 0.000000 0.000000 
0.000000 0.000000 0.000000 

0.000000 0.000000 0.000000 
0.000000 0.000000 0.000000 
0.000000 0.000000 0.000000 

0.000000 -0.000000 0.000000 
0.000000 0.000000 0.000000 
0.000000 0.000000 0.000000 

0.000000 0.000000 0.000000 
0.000000 0.000000 0.000000 
0.000000 0.000000 0.000000 

0.000000 0.000000 0.000000 
0.000000 0.000000 0.000000 
0.000000 0.000000 0.000000 

-0.000000 -0.000000 0.000000 
0.000000 0.000000 0.000000 
0.000000 0.000000 0.000000 

0.000000 -0.000000 0.000000 
0.000000 0.000000 0.000000 
0.000000 0.000000 0.000000 

0.000000 0.000000 0.000000 
0.000000 -0.000000 0.000000 
0.000000 0.000000 0.000000 

0.000000 0.000000 0.000000 
0.000000 -0.000000 0.000000 
0.000000 0.000000 0.000000 

0.000000 -0.000000 0.000000 
0.000000 -0.000000 0.000000 
0.000000 0.000000 0.000000 

0.000000 0.000000 0.000000 
0.000000 0.000000 0.000000 
0.000000 0.000000 0.000000 

0.000000 0.000000 0.000000 
0.000000 0.000000 0.000000 
0.000000 0.000000 0.000000 

0.000000 0.000000 0.000000 
0.000000 0.000000 0.000000 
0.000000 0.000000 0.000000 

0.000000 -0.000000 0.000000 
0.000000 0.000000 0.000000 
0.000000 0.000000 0.000000 

0.000000 -0.000000 0.000000 
0.000000 0.000000 0.000000 
0.000000 0.000000 0.000000 

-0.000000 -0.000000 0.000000 
0.000000 -0.000000 0.000000 
0.000000 0.000000 0.000000 

0.000000 -0.000000 0.000000 
0.000000 0.000000 0.000000 
0.000000 0.000000 0.000000 

-0.000000 0.000000 0.000000 
0.000000 -0.000000 0.000000 
0.000000 0.000000 0.000000 

-0.000000 -0.000000 0.000000 
0.000000 -0.000000 0.000000 
0.000000 0.000000 0.000000 

0.000000 -0.000000 0.000000 
0.000000 0.000000 0.000000 
0.000000 0.000000 0.000000 

-0.000000 -0.000000 0.000000 
0.000000 -0.000000 0.000000 
0.000000 0.000000 0.000000 

-0.000000 -0.000000 0.000000 
0.000000 -0.000000 0.000000 
0.000000 0.000000 0.000000 

0.000000 -0.000000 0.000000 
0.000000 0.000000 0.000000 
0.000000 0.000000 0.000000 

0.000000 -0.000000 0.000000 
0.000000 0.000000 0.000000 
0.000000 0.000000 0.000000 

0.000000 -0.000000 0.000000 
0.000000 0.000000 0.000000 
0.000000 0.000000 0.000000 

0.000000 -0.000000 0.000000 
0.000000 0.000000 0.000000 
0.000000 0.000000 0.000000 

0.000000 -0.000000 0.000000 
0.000000 0.000000 0.000000 
0.000000 0.000000 0.000000 

-0.000000 -0.000000 0.000000 
0.000000 0.000000 0.000000 
0.000000 0.000000 0.000000 

-0.000000 0.000000 0.000000 
0.000000 -0.000000 0.000000 
0.000000 0.000000 0.000000 

-0.000000 0.000000 0.000000 
0.000000 -0.000000 0.000000 
0.000000 0.000000 0.000000 

-0.000000 0.000000 0.000000 
0.000000 0.000000 0.000000 
0.000000 0.000000 0.000000 

-0.000000 0.000000 0.000000 
0.000000 -0.000000 0.000000 
0.000000 0.000000 0.000000 

-0.000000 0.000000 0.000000 
0.000000 -0.000000 0.000000 
0.000000 0.000000 0.000000 

0.000000 0.000000 0.000000 
0.000000 0.000000 0.000000 
0.000000 0.000000 0.000000 

0.000000 -0.000000 0.000000 
0.000000 -0.000000 0.000000 
0.000000 0.000000 0.000000 

0.000000 -0.000000 0.000000 
0.000000 -0.000000 0.000000 
0.000000 0.000000 0.000000 

0.000000 -0.000000 0.000000 
0.000000 0.000000 0.000000 
0.000000 0.000000 0.000000 

0.000000 -0.000000 0.000000 
0.000000 0.000000 0.000000 
0.000000 0.000000 0.000000 

0.000000 -0.000000 0.000000 
0.000000 0.000000 0.000000 
0.000000 0.000000 0.000000 

0.000000 -0.000000 0.000000 
0.000000 0.000000 0.000000 
0.000000 0.000000 0.000000 

0.000000 -0.000000 0.000000 
0.000000 -0.000000 0.000000 
0.000000 0.000000 0.000000 

0.000000 -0.000000 0.000000 
0.000000 -0.000000 0.000000 
0.000000 0.000000 0.000000 

0.000000 -0.000000 0.000000 
0.000000 0.000000 0.000000 
0.000000 0.000000 0.000000 

0.000000 0.000000 0.000000 
0.000000 -0.000000 0.000000 
0.000000 0.000000 0.000000 

0.000000 0.000000 0.000000 
0.000000 0.000000 0.000000 
0.000000 0.000000 0.000000 

0.000000 -0.000000 0.000000 
0.000000 0.000000 0.000000 
0.000000 0.000000 0.000000 

-0.000000 -0.000000 0.000000 
0.000000 0.000000 0.000000 
0.000000 0.000000 0.000000 

-0.000000 -0.000000 0.000000 
0.000000 -0.000000 0.000000 
0.000000 0.000000 0.000000 

-0.000000 -0.000000 0.000000 
0.000000 0.000000 0.000000 
0.000000 0.000000 0.000000 

-0.000000 -0.000000 0.000000 
0.000000 -0.000000 0.000000 
0.000000 0.000000 0.000000 

0.000000 -0.000000 0.000000 
0.000000 -0.000000 0.000000 
0.000000 0.000000 0.000000 

0.000000 0.000000 0.000000 
0.000000 0.000000 0.000000 
0.000000 0.000000 0.000000 

0.000000 -0.000000 0.000000 
0.000000 -0.000000 0.000000 
0.000000 0.000000 0.000000 

-0.000000 -0.000000 0.000000 
0.000000 -0.000000 0.000000 
0.000000 0.000000 0.000000 

0.000000 -0.000000 0.000000 
0.000000 0.000000 0.000000 
0.000000 0.000000 0.000000 

0.000000 -0.000000 0.000000 
0.000000 0.000000 0.000000 
0.000000 0.000000 0.000000 

0.000000 -0.000000 0.000000 
0.000000 0.000000 0.000000 
0.000000 0.000000 0.000000 

-0.000000 0.000000 0.000000 
0.000000 0.000000 0.000000 
0.000000 0.000000 0.000000 

-0.000000 0.000000 0.000000 
0.000000 0.000000 0.000000 
0.000000 0.000000 0.000000 

0.000000 0.000000 0.000000 
0.000000 0.000000 0.000000 
0.000000 0.000000 0.000000 

-0.000000 0.000000 0.000000 
0.000000 -0.000000 0.000000 
0.000000 0.000000 0.000000 

-0.000000 0.000000 0.000000 
0.000000 -0.000000 0.000000 
0.000000 0.000000 0.000000 

0.000000 0.000000 0.000000 
0.000000 0.000000 0.000000 
0.000000 0.000000 0.000000 

0.000000 -0.000000 0.000000 
0.000000 0.000000 0.000000 
0.000000 0.000000 0.000000 

0.000000 0.000000 0.000000 
0.000000 0.000000 0.000000 
0.000000 0.000000 0.000000 

0.000000 0.000000 0.000000 
0.000000 0.000000 0.000000 
0.000000 0.000000 0.000000 

-0.000000 0.000000 0.000000 
0.000000 -0.000000 0.000000 
0.000000 0.000000 0.000000 

-0.000000 0.000000 0.000000 
0.000000 0.000000 0.000000 
0.000000 0.000000 0.000000 

0.000000 -0.000000 0.000000 
0.000000 0.000000 0.000000 
0.000000 0.000000 0.000000 

0.000000 -0.000000 0.000000 
0.000000 0.000000 0.000000 
0.000000 0.000000 0.000000 

0.000000 -0.000000 0.000000 
0.000000 0.000000 0.000000 
0.000000 0.000000 0.000000 

0.000000 0.000000 0.000000 
0.000000 0.000000 0.000000 
0.000000 0.000000 0.000000 

0.000000 -0.000000 0.000000 
0.000000 -0.000000 0.000000 
0.000000 0.000000 0.000000 

0.000000 -0.000000 0.000000 
0.000000 0.000000 0.000000 
0.000000 0.000000 0.000000 

0.000000 -0.000000 0.000000 
0.000000 -0.000000 0.000000 
0.000000 0.000000 0.000000 

0.000000 -0.000000 0.000000 
0.000000 0.000000 0.000000 
0.000000 0.000000 0.000000 

0.000000 -0.000000 0.000000 
0.000000 0.000000 0.000000 
0.000000 0.000000 0.000000 

-0.000000 -0.000000 0.000000 
0.000000 -0.000000 0.000000 
0.000000 0.000000 0.000000 

0.000000 0.000000 0.000000 
0.000000 0.000000 0.000000 
0.000000 0.000000 0.000000 

0.000000 0.000000 0.000000 
0.000000 0.000000 0.000000 
0.000000 0.000000 0.000000 

-0.000000 -0.000000 0.000000 
0.000000 -0.000000 0.000000 
0.000000 0.000000 0.000000 

-0.000000 -0.000000 0.000000 
0.000000 -0.000000 0.000000 
0.000000 0.000000 0.000000 

-0.000000 -0.000000 0.000000 
0.000000 -0.000000 0.000000 
0.000000 0.000000 0.000000 

-0.000000 0.000000 0.000000 
0.000000 -0.000000 0.000000 
0.000000 0.000000 0.000000 

-0.000000 -0.000000 0.000000 
0.000000 0.000000 0.000000 
0.000000 0.000000 0.000000 

-0.000000 0.000000 0.000000 
0.000000 -0.000000 0.000000 
0.000000 0.000000 0.000000 

-0.000000 0.000000 0.000000 
0.000000 0.000000 0.000000 
0.000000 0.000000 0.000000 

-0.000000 0.000000 0.000000 
0.000000 -0.000000 0.000000 
0.000000 0.000000 0.000000 

0.000000 0.000000 0.000000 
0.000000 0.000000 0.000000 
0.000000 0.000000 0.000000 

0.000000 -0.000000 0.000000 
0.000000 0.000000 0.000000 
0.000000 0.000000 0.000000 

0.000000 -0.000000 0.000000 
0.000000 0.000000 0.000000 
0.000000 0.000000 0.000000 

-0.000000 0.000000 0.000000 
0.000000 -0.000000 0.000000 
0.000000 0.000000 0.000000 

-0.000000 0.000000 0.000000 
0.000000 -0.000000 0.000000 
0.000000 0.000000 0.000000 

-0.000000 0.000000 0.000000 
0.000000 -0.000000 0.000000 
0.000000 0.000000 0.000000 

-0.000000 0.000000 0.000000 
0.000000 0.000000 0.000000 
0.000000 0.000000 0.000000 

0.000000 -0.000000 0.000000 
0.000000 0.000000 0.000000 
0.000000 0.000000 0.000000 

0.000000 0.000000 0.000000 
0.000000 0.000000 0.000000 
0.000000 0.000000 0.000000 

0.000000 0.000000 0.000000 
0.000000 0.000000 0.000000 
0.000000 0.000000 0.000000 

0.000000 0.000000 0.000000 
0.000000 -0.000000 0.000000 
0.000000 0.000000 0.000000 

0.000000 0.000000 0.000000 
0.000000 0.000000 0.000000 
0.000000 0.000000 0.000000 

-0.000000 0.000000 0.000000 
0.000000 -0.000000 0.000000 
0.000000 0.000000 0.000000 

-0.000000 0.000000 0.000000 
0.000000 0.000000 0.000000 
0.000000 0.000000 0.000000 

0.000000 -0.000000 0.000000 
0.000000 -0.000000 0.000000 
0.000000 0.000000 0.000000 

0.000000 -0.000000 0.000000 
0.000000 -0.000000 0.000000 
0.000000 0.000000 0.000000 

0.000000 0.000000 0.000000 
0.000000 0.000000 0.000000 
0.000000 0.000000 0.000000 

TENSORS STRAIN float 
-0.000000 0.000000 0.000000 
0.000000 0.000000 0.000000 
0.000000 0.000000 0.000000 

-0.000000 0.000000 0.000000 
0.000000 0.000000 0.000000 
0.000000 0.000000 0.000000 

-0.000000 0.000000 0.000000 
0.000000 -0.000000 0.000000 
0.000000 0.000000 0.000000 

-0.000000 0.000000 0.000000 
0.000000 -0.000000 0.000000 
0.000000 0.000000 0.000000 

0.000000 0.000000 0.000000 
0.000000 0.000000 0.000000 
0.000000 0.000000 0.000000 

0.000000 -0.000000 0.000000 
0.000000 0.000000 0.000000 
0.000000 0.000000 0.000000 

0.000000 0.000000 0.000000 
0.000000 -0.000000 0.000000 
0.000000 0.000000 0.000000 

-0.000000 0.000000 0.000000 
0.000000 -0.000000 0.000000 
0.000000 0.000000 0.000000 

-0.000000 -0.000000 0.000000 
0.000000 0.000000 0.000000 
0.000000 0.000000 0.000000 

0.000000 0.000000 0.000000 
0.000000 -0.000000 0.000000 
0.000000 0.000000 0.000000 

0.000000 -0.000000 0.000000 
0.000000 -0.000000 0.000000 
0.000000 0.000000 0.000000 

0.000000 0.000000 0.000000 
0.000000 -0.000000 0.000000 
0.000000 0.000000 0.000000 

0.000000 0.000000 0.000000 
0.000000 -0.000000 0.000000 
0.000000 0.000000 0.000000 

-0.000000 0.000000 0.000000 
0.000000 0.000000 0.000000 
0.000000 0.000000 0.000000 

0.000000 -0.000000 0.000000 
0.000000 0.000000 0.000000 
0.000000 0.000000 0.000000 

0.000000 -0.000000 0.000000 
0.000000 -0.000000 0.000000 
0.000000 0.000000 0.000000 

0.000000 0.000000 0.000000 
0.000000 -0.000000 0.000000 
0.000000 0.000000 0.000000 

0.000000 0.000000 0.000000 
0.000000 -0.000000 0.000000 
0.000000 0.000000 0.000000 

-0.000000 -0.000000 0.000000 
0.000000 -0.000000 0.000000 
0.000000 0.000000 0.000000 

-0.000000 0.000000 0.000000 
0.000000 -0.000000 0.000000 
0.000000 0.000000 0.000000 

0.000000 -0.000000 0.000000 
0.000000 0.000000 0.000000 
0.000000 0.000000 0.000000 

-0.000000 -0.000000 0.000000 
0.000000 0.000000 0.000000 
0.000000 0.000000 0.000000 

0.000000 -0.000000 0.000000 
0.000000 -0.000000 0.000000 
0.000000 0.000000 0.000000 

0.000000 0.000000 0.000000 
0.000000 0.000000 0.000000 
0.000000 0.000000 0.000000 

0.000000 -0.000000 0.000000 
0.000000 0.000000 0.000000 
0.000000 0.000000 0.000000 

-0.000000 0.000000 0.000000 
0.000000 0.000000 0.000000 
0.000000 0.000000 0.000000 

-0.000000 0.000000 0.000000 
0.000000 0.000000 0.000000 
0.000000 0.000000 0.000000 

-0.000000 0.000000 0.000000 
0.000000 0.000000 0.000000 
0.000000 0.000000 0.000000 

-0.000000 -0.000000 0.000000 
0.000000 -0.000000 0.000000 
0.000000 0.000000 0.000000 

-0.000000 0.000000 0.000000 
0.000000 0.000000 0.000000 
0.000000 0.000000 0.000000 

-0.000000 0.000000 0.000000 
0.000000 0.000000 0.000000 
0.000000 0.000000 0.000000 

-0.000000 0.000000 0.000000 
0.000000 -0.000000 0.000000 
0.000000 0.000000 0.000000 

-0.000000 -0.000000 0.000000 
0.000000 0.000000 0.000000 
0.000000 0.000000 0.000000 

0.000000 -0.000000 0.000000 
0.000000 -0.000000 0.000000 
0.000000 0.000000 0.000000 

-0.000000 0.000000 0.000000 
0.000000 -0.000000 0.000000 
0.000000 0.000000 0.000000 

-0.000000 0.000000 0.000000 
0.000000 -0.000000 0.000000 
0.000000 0.000000 0.000000 

-0.000000 0.000000 0.000000 
0.000000 -0.000000 0.000000 
0.000000 0.000000 0.000000 

-0.000000 0.000000 0.000000 
0.000000 -0.000000 0.000000 
0.000000 0.000000 0.000000 

-0.000000 -0.000000 0.000000 
0.000000 -0.000000 0.000000 
0.000000 0.000000 0.000000 

-0.000000 -0.000000 0.000000 
0.000000 0.000000 0.000000 
0.000000 0.000000 0.000000 

0.000000 0.000000 0.000000 
0.000000 0.000000 0.000000 
0.000000 0.000000 0.000000 

0.000000 0.000000 0.000000 
0.000000 -0.000000 0.000000 
0.000000 0.000000 0.000000 

0.000000 0.000000 0.000000 
0.000000 -0.000000 0.000000 
0.000000 0.000000 0.000000 

0.000000 0.000000 0.000000 
0.000000 0.000000 0.000000 
0.000000 0.000000 0.000000 

0.000000 -0.000000 0.000000 
0.000000 -0.000000 0.000000 
0.000000 0.000000 0.000000 

0.000000 -0.000000 0.000000 
0.000000 -0.000000 0.000000 
0.000000 0.000000 0.000000 

0.000000 -0.000000 0.000000 
0.000000 0.000000 0.000000 
0.000000 0.000000 0.000000 

0.000000 -0.000000 0.000000 
0.000000 -0.000000 0.000000 
0.000000 0.000000 0.000000 

0.000000 -0.000000 0.000000 
0.000000 0.000000 0.000000 
0.000000 0.000000 0.000000 

0.000000 0.000000 0.000000 
0.000000 -0.000000 0.000000 
0.000000 0.000000 0.000000 

-0.000000 -0.000000 0.000000 
0.000000 0.000000 0.000000 
0.000000 0.000000 0.000000 

-0.000000 0.000000 0.000000 
0.000000 -0.000000 0.000000 
0.000000 0.000000 0.000000 

-0.000000 0.000000 0.000000 
0.000000 -0.000000 0.000000 
0.000000 0.000000 0.000000 

-0.000000 0.000000 0.000000 
0.000000 0.000000 0.000000 
0.000000 0.000000 0.000000 

-0.000000 0.000000 0.000000 
0.000000 0.000000 0.000000 
0.000000 0.000000 0.000000 

-0.000000 0.000000 0.000000 
0.000000 -0.000000 0.000000 
0.000000 0.000000 0.000000 

-0.000000 0.000000 0.000000 
0.000000 0.000000 0.000000 
0.000000 0.000000 0.000000 

-0.000000 0.000000 0.000000 
0.000000 0.000000 0.000000 
0.000000 0.000000 0.000000 

-0.000000 0.000000 0.000000 
0.000000 0.000000 0.000000 
0.000000 0.000000 0.000000 

0.000000 0.000000 0.000000 
0.000000 0.000000 0.000000 
0.000000 0.000000 0.000000 

-0.000000 0.000000 0.000000 
0.000000 -0.000000 0.000000 
0.000000 0.000000 0.000000 

0.000000 -0.000000 0.000000 
0.000000 0.000000 0.000000 
0.000000 0.000000 0.000000 

0.000000 0.000000 0.000000 
0.000000 0.000000 0.000000 
0.000000 0.000000 0.000000 

0.000000 -0.000000 0.000000 
0.000000 -0.000000 0.000000 
0.000000 0.000000 0.000000 

0.000000 -0.000000 0.000000 
0.000000 -0.000000 0.000000 
0.000000 0.000000 0.000000 

0.000000 0.000000 0.000000 
0.000000 0.000000 0.000000 
0.000000 0.000000 0.000000 

-0.000000 0.000000 0.000000 
0.000000 0.000000 0.000000 
0.000000 0.000000 0.000000 

-0.000000 -0.000000 0.000000 
0.000000 0.000000 0.000000 
0.000000 0.000000 0.000000 

-0.000000 -0.000000 0.000000 
0.000000 -0.000000 0.000000 
0.000000 0.000000 0.000000 

-0.000000 -0.000000 0.000000 
0.000000 0.000000 0.000000 
0.000000 0.000000 0.000000 

-0.000000 -0.000000 0.000000 
0.000000 0.000000 0.000000 
0.000000 0.000000 0.000000 

0.000000 0.000000 0.000000 
0.000000 0.000000 0.000000 
0.000000 0.000000 0.000000 

0.000000 -0.000000 0.000000 
0.000000 -0.000000 0.000000 
0.000000 0.000000 0.000000 

0.000000 0.000000 0.000000 
0.000000 -0.000000 0.000000 
0.000000 0.000000 0.000000 

0.000000 0.000000 0.000000 
0.000000 0.000000 0.000000 
0.000000 0.000000 0.000000 

-0.000000 -0.000000 0.000000 
0.000000 0.000000 0.000000 
0.000000 0.000000 0.000000 

0.000000 -0.000000 0.000000 
0.000000 0.000000 0.000000 
0.000000 0.000000 0.000000 

0.000000 0.000000 0.000000 
0.000000 -0.000000 0.000000 
0.000000 0.000000 0.000000 

0.000000 0.000000 0.000000 
0.000000 -0.000000 0.000000 
0.000000 0.000000 0.000000 

0.000000 -0.000000 0.000000 
0.000000 -0.000000 0.000000 
0.000000 0.000000 0.000000 

0.000000 0.000000 0.000000 
0.000000 0.000000 0.000000 
0.000000 0.000000 0.000000 

0.000000 0.000000 0.000000 
0.000000 -0.000000 0.000000 
0.000000 0.000000 0.000000 

0.000000 0.000000 0.000000 
0.000000 0.000000 0.000000 
0.000000 0.000000 0.000000 

-0.000000 -0.000000 0.000000 
0.000000 0.000000 0.000000 
0.000000 0.000000 0.000000 

0.000000 -0.000000 0.000000 
0.000000 0.000000 0.000000 
0.000000 0.000000 0.000000 

0.000000 -0.000000 0.000000 
0.000000 -0.000000 0.000000 
0.000000 0.000000 0.000000 

0.000000 -0.000000 0.000000 
0.000000 0.000000 0.000000 
0.000000 0.000000 0.000000 

0.000000 0.000000 0.000000 
0.000000 -0.000000 0.000000 
0.000000 0.000000 0.000000 

0.000000 -0.000000 0.000000 
0.000000 -0.000000 0.000000 
0.000000 0.000000 0.000000 

0.000000 -0.000000 0.000000 
0.000000 0.000000 0.000000 
0.000000 0.000000 0.000000 

0.000000 -0.000000 0.000000 
0.000000 -0.000000 0.000000 
0.000000 0.000000 0.000000 

0.000000 -0.000000 0.000000 
0.000000 -0.000000 0.000000 
0.000000 0.000000 0.000000 

0.000000 -0.000000 0.000000 
0.000000 -0.000000 0.000000 
0.000000 0.000000 0.000000 

0.000000 -0.000000 0.000000 
0.000000 0.000000 0.000000 
0.000000 0.000000 0.000000 

0.000000 -0.000000 0.000000 
0.000000 0.000000 0.000000 
0.000000 0.000000 0.000000 

0.000000 -0.000000 0.000000 
0.000000 0.000000 0.000000 
0.000000 0.000000 0.000000 

0.000000 -0.000000 0.000000 
0.000000 0.000000 0.000000 
0.000000 0.000000 0.000000 

-0.000000 -0.000000 0.000000 
0.000000 0.000000 0.000000 
0.000000 0.000000 0.000000 

-0.000000 0.000000 0.000000 
0.000000 -0.000000 0.000000 
0.000000 0.000000 0.000000 

-0.000000 0.000000 0.000000 
0.000000 -0.000000 0.000000 
0.000000 0.000000 0.000000 

-0.000000 0.000000 0.000000 
0.000000 0.000000 0.000000 
0.000000 0.000000 0.000000 

0.000000 0.000000 0.000000 
0.000000 -0.000000 0.000000 
0.000000 0.000000 0.000000 

0.000000 0.000000 0.000000 
0.000000 -0.000000 0.000000 
0.000000 0.000000 0.000000 

0.000000 0.000000 0.000000 
0.000000 -0.000000 0.000000 
0.000000 0.000000 0.000000 

0.000000 -0.000000 0.000000 
0.000000 -0.000000 0.000000 
0.000000 0.000000 0.000000 

0.000000 -0.000000 0.000000 
0.000000 -0.000000 0.000000 
0.000000 0.000000 0.000000 

0.000000 -0.000000 0.000000 
0.000000 -0.000000 0.000000 
0.000000 0.000000 0.000000 

0.000000 -0.000000 0.000000 
0.000000 -0.000000 0.000000 
0.000000 0.000000 0.000000 

0.000000 -0.000000 0.000000 
0.000000 0.000000 0.000000 
0.000000 0.000000 0.000000 

0.000000 -0.000000 0.000000 
0.000000 0.000000 0.000000 
0.000000 0.000000 0.000000 

0.000000 -0.000000 0.000000 
0.000000 -0.000000 0.000000 
0.000000 0.000000 0.000000 

0.000000 -0.000000 0.000000 
0.000000 -0.000000 0.000000 
0.000000 0.000000 0.000000 

0.000000 -0.000000 0.000000 
0.000000 -0.000000 0.000000 
0.000000 0.000000 0.000000 

0.000000 0.000000 0.000000 
0.000000 -0.000000 0.000000 
0.000000 0.000000 0.000000 

0.000000 0.000000 0.000000 
0.000000 0.000000 0.000000 
0.000000 0.000000 0.000000 

0.000000 -0.000000 0.000000 
0.000000 0.000000 0.000000 
0.000000 0.000000 0.000000 

-0.000000 -0.000000 0.000000 
0.000000 0.000000 0.000000 
0.000000 0.000000 0.000000 

-0.000000 -0.000000 0.000000 
0.000000 0.000000 0.000000 
0.000000 0.000000 0.000000 

-0.000000 -0.000000 0.000000 
0.000000 0.000000 0.000000 
0.000000 0.000000 0.000000 

0.000000 -0.000000 0.000000 
0.000000 -0.000000 0.000000 
0.000000 0.000000 0.000000 

0.000000 -0.000000 0.000000 
0.000000 -0.000000 0.000000 
0.000000 0.000000 0.000000 

0.000000 0.000000 0.000000 
0.000000 -0.000000 0.000000 
0.000000 0.000000 0.000000 

0.000000 -0.000000 0.000000 
0.000000 -0.000000 0.000000 
0.000000 0.000000 0.000000 

0.000000 -0.000000 0.000000 
0.000000 -0.000000 0.000000 
0.000000 0.000000 0.000000 

0.000000 -0.000000 0.000000 
0.000000 0.000000 0.000000 
0.000000 0.000000 0.000000 

-0.000000 -0.000000 0.000000 
0.000000 0.000000 0.000000 
0.000000 0.000000 0.000000 

-0.000000 -0.000000 0.000000 
0.000000 0.000000 0.000000 
0.000000 0.000000 0.000000 

-0.000000 0.000000 0.000000 
0.000000 0.000000 0.000000 
0.000000 0.000000 0.000000 

-0.000000 0.000000 0.000000 
0.000000 0.000000 0.000000 
0.000000 0.000000 0.000000 

-0.000000 0.000000 0.000000 
0.000000 0.000000 0.000000 
0.000000 0.000000 0.000000 

-0.000000 0.000000 0.000000 
0.000000 -0.000000 0.000000 
0.000000 0.000000 0.000000 

-0.000000 0.000000 0.000000 
0.000000 -0.000000 0.000000 
0.000000 0.000000 0.000000 

-0.000000 0.000000 0.000000 
0.000000 0.000000 0.000000 
0.000000 0.000000 0.000000 

0.000000 -0.000000 0.000000 
0.000000 0.000000 0.000000 
0.000000 0.000000 0.000000 

0.000000 0.000000 0.000000 
0.000000 0.000000 0.000000 
0.000000 0.000000 0.000000 

0.000000 0.000000 0.000000 
0.000000 0.000000 0.000000 
0.000000 0.000000 0.000000 

-0.000000 0.000000 0.000000 
0.000000 -0.000000 0.000000 
0.000000 0.000000 0.000000 

-0.000000 0.000000 0.000000 
0.000000 0.000000 0.000000 
0.000000 0.000000 0.000000 

0.000000 -0.000000 0.000000 
0.000000 0.000000 0.000000 
0.000000 0.000000 0.000000 

0.000000 -0.000000 0.000000 
0.000000 0.000000 0.000000 
0.000000 0.000000 0.000000 

0.000000 -0.000000 0.000000 
0.000000 -0.000000 0.000000 
0.000000 0.000000 0.000000 

0.000000 0.000000 0.000000 
0.000000 -0.000000 0.000000 
0.000000 0.000000 0.000000 

0.000000 -0.000000 0.000000 
0.000000 -0.000000 0.000000 
0.000000 0.000000 0.000000 

0.000000 -0.000000 0.000000 
0.000000 -0.000000 0.000000 
0.000000 0.000000 0.000000 

0.000000 -0.000000 0.000000 
0.000000 -0.000000 0.000000 
0.000000 0.000000 0.000000 

0.000000 -0.000000 0.000000 
0.000000 0.000000 0.000000 
0.000000 0.000000 0.000000 

0.000000 -0.000000 0.000000 
0.000000 0.000000 0.000000 
0.000000 0.000000 0.000000 

0.000000 -0.000000 0.000000 
0.000000 -0.000000 0.000000 
0.000000 0.000000 0.000000 

-0.000000 0.000000 0.000000 
0.000000 0.000000 0.000000 
0.000000 0.000000 0.000000 

-0.000000 0.000000 0.000000 
0.000000 0.000000 0.000000 
0.000000 0.000000 0.000000 

-0.000000 -0.000000 0.000000 
0.000000 -0.000000 0.000000 
0.000000 0.000000 0.000000 

-0.000000 -0.000000 0.000000 
0.000000 -0.000000 0.000000 
0.000000 0.000000 0.000000 

-0.000000 -0.000000 0.000000 
0.000000 -0.000000 0.000000 
0.000000 0.000000 0.000000 

-0.000000 0.000000 0.000000 
0.000000 -0.000000 0.000000 
0.000000 0.000000 0.000000 

-0.000000 -0.000000 0.000000 
0.000000 0.000000 0.000000 
0.000000 0.000000 0.000000 

-0.000000 0.000000 0.000000 
0.000000 -0.000000 0.000000 
0.000000 0.000000 0.000000 

-0.000000 0.000000 0.000000 
0.000000 0.000000 0.000000 
0.000000 0.000000 0.000000 

-0.000000 0.000000 0.000000 
0.000000 0.000000 0.000000 
0.000000 0.000000 0.000000 

-0.000000 0.000000 0.000000 
0.000000 0.000000 0.000000 
0.000000 0.000000 0.000000 

0.000000 -0.000000 0.000000 
0.000000 0.000000 0.000000 
0.000000 0.000000 0.000000 

0.000000 -0.000000 0.000000 
0.000000 0.000000 0.000000 
0.000000 0.000000 0.000000 

-0.000000 0.000000 0.000000 
0.000000 -0.000000 0.000000 
0.000000 0.000000 0.000000 

-0.000000 0.000000 0.000000 
0.000000 -0.000000 0.000000 
0.000000 0.000000 0.000000 

-0.000000 0.000000 0.000000 
0.000000 -0.000000 0.000000 
0.000000 0.000000 0.000000 

-0.000000 0.000000 0.000000 
0.000000 0.000000 0.000000 
0.000000 0.000000 0.000000 

0.000000 -0.000000 0.000000 
0.000000 -0.000000 0.000000 
0.000000 0.000000 0.000000 

0.000000 0.000000 0.000000 
0.000000 0.000000 0.000000 
0.000000 0.000000 0.000000 

0.000000 0.000000 0.000000 
0.000000 0.000000 0.000000 
0.000000 0.000000 0.000000 

0.000000 0.000000 0.000000 
0.000000 -0.000000 0.000000 
0.000000 0.000000 0.000000 

-0.000000 0.000000 0.000000 
0.000000 0.000000 0.000000 
0.000000 0.000000 0.000000 

0.000000 0.000000 0.000000 
0.000000 -0.000000 0.000000 
0.000000 0.000000 0.000000 

-0.000000 0.000000 0.000000 
0.000000 0.000000 0.000000 
0.000000 0.000000 0.000000 

0.000000 -0.000000 0.000000 
0.000000 -0.000000 0.000000 
0.000000 0.000000 0.000000 

0.000000 -0.000000 0.000000 
0.000000 -0.000000 0.000000 
0.000000 0.000000 0.000000 

0.000000 0.000000 0.000000 
0.000000 0.000000 0.000000 
0.000000 0.000000 0.000000 

