# vtk DataFile Version 3.0 
vtk output 
ASCII 
DATASET UNSTRUCTURED_GRID 
POINTS 175 float 
-0.026061 -0.861783 0.000000 
-0.106992 -0.793728 0.000000 
-0.054870 -0.801960 0.000000 
-0.028809 -0.756077 0.000000 
-0.186430 -0.729652 0.000000 
-0.137056 -0.732178 0.000000 
-0.114311 -0.678531 0.000000 
-0.058186 -0.694197 0.000000 
-0.029377 -0.654019 0.000000 
-0.265318 -0.666496 0.000000 
-0.217198 -0.667296 0.000000 
-0.196633 -0.609999 0.000000 
-0.143120 -0.618708 0.000000 
-0.116563 -0.571440 0.000000 
-0.058945 -0.591085 0.000000 
-0.029568 -0.552965 0.000000 
-0.344206 -0.603340 0.000000 
-0.296791 -0.603333 0.000000 
-0.278030 -0.543391 0.000000 
-0.225992 -0.549257 0.000000 
-0.201664 -0.497140 0.000000 
-0.145749 -0.510614 0.000000 
-0.117890 -0.466271 0.000000 
-0.059328 -0.488977 0.000000 
-0.029759 -0.451911 0.000000 
-0.058559 -0.902534 0.000000 
-0.162226 -0.923376 0.000000 
-0.123292 -0.887759 0.000000 
-0.142917 -0.838775 0.000000 
-0.261851 -0.945533 0.000000 
-0.229092 -0.908506 0.000000 
-0.256854 -0.857274 0.000000 
-0.209613 -0.823162 0.000000 
-0.223062 -0.775588 0.000000 
-0.360414 -0.967833 0.000000 
-0.329787 -0.930710 0.000000 
-0.361761 -0.878908 0.000000 
-0.321587 -0.842499 0.000000 
-0.341985 -0.792265 0.000000 
-0.290702 -0.759466 0.000000 
-0.302189 -0.712731 0.000000 
-0.458977 -0.990133 0.000000 
-0.429420 -0.953058 0.000000 
-0.464588 -0.901017 0.000000 
-0.427556 -0.863989 0.000000 
-0.453135 -0.812474 0.000000 
-0.407738 -0.777159 0.000000 
-0.425037 -0.727731 0.000000 
-0.370772 -0.696102 0.000000 
-0.381315 -0.649874 0.000000 
-0.046960 -0.953349 0.000000 
-0.095301 -1.047395 0.000000 
-0.098873 -0.994748 0.000000 
-0.149405 -0.979550 0.000000 
-0.140093 -1.139099 0.000000 
-0.148617 -1.090401 0.000000 
-0.205981 -1.080163 0.000000 
-0.203197 -1.021960 0.000000 
-0.248777 -1.002813 0.000000 
-0.184111 -1.230063 0.000000 
-0.194039 -1.182971 0.000000 
-0.254475 -1.175672 0.000000 
-0.257893 -1.121562 0.000000 
-0.309886 -1.106190 0.000000 
-0.303554 -1.045644 0.000000 
-0.347255 -1.025487 0.000000 
-0.228129 -1.321026 0.000000 
-0.238687 -1.274802 0.000000 
-0.301302 -1.269850 0.000000 
-0.307162 -1.217811 0.000000 
-0.363386 -1.205690 0.000000 
-0.362692 -1.148179 0.000000 
-0.412122 -1.130885 0.000000 
-0.403017 -1.068739 0.000000 
-0.445733 -1.048160 0.000000 
-0.000000 -0.975964 0.000000 
0.043388 -1.072395 0.000000 
-0.000000 -1.042362 0.000000 
-0.043388 -1.072395 0.000000 
0.087158 -1.164591 0.000000 
0.043769 -1.140893 0.000000 
-0.000000 -1.179358 0.000000 
-0.043769 -1.140893 0.000000 
-0.087158 -1.164591 0.000000 
0.130831 -1.255721 0.000000 
0.087824 -1.234122 0.000000 
0.044436 -1.276822 0.000000 
-0.000000 -1.245757 0.000000 
-0.044436 -1.276822 0.000000 
-0.087824 -1.234122 0.000000 
-0.130831 -1.255721 0.000000 
0.174505 -1.346850 0.000000 
0.131782 -1.326284 0.000000 
0.088871 -1.372151 0.000000 
0.044532 -1.344287 0.000000 
-0.000000 -1.380687 0.000000 
-0.044532 -1.344287 0.000000 
-0.088871 -1.372151 0.000000 
-0.131782 -1.326284 0.000000 
-0.174505 -1.346850 0.000000 
0.046960 -0.953349 0.000000 
0.149405 -0.979550 0.000000 
0.098873 -0.994748 0.000000 
0.095301 -1.047395 0.000000 
0.248777 -1.002813 0.000000 
0.203197 -1.021960 0.000000 
0.205981 -1.080163 0.000000 
0.148617 -1.090401 0.000000 
0.140093 -1.139099 0.000000 
0.347255 -1.025487 0.000000 
0.303554 -1.045644 0.000000 
0.309886 -1.106190 0.000000 
0.257893 -1.121562 0.000000 
0.254475 -1.175672 0.000000 
0.194039 -1.182971 0.000000 
0.184111 -1.230063 0.000000 
0.445733 -1.048160 0.000000 
0.403017 -1.068739 0.000000 
0.412122 -1.130885 0.000000 
0.362692 -1.148179 0.000000 
0.363386 -1.205690 0.000000 
0.307162 -1.217811 0.000000 
0.301302 -1.269850 0.000000 
0.238687 -1.274802 0.000000 
0.228129 -1.321026 0.000000 
0.058559 -0.902534 0.000000 
0.142917 -0.838775 0.000000 
0.123292 -0.887759 0.000000 
0.162226 -0.923376 0.000000 
0.223062 -0.775588 0.000000 
0.209613 -0.823162 0.000000 
0.256854 -0.857274 0.000000 
0.229092 -0.908506 0.000000 
0.261851 -0.945533 0.000000 
0.302189 -0.712731 0.000000 
0.290702 -0.759466 0.000000 
0.341985 -0.792265 0.000000 
0.321587 -0.842499 0.000000 
0.361761 -0.878908 0.000000 
0.329787 -0.930710 0.000000 
0.360414 -0.967833 0.000000 
0.381315 -0.649874 0.000000 
0.370772 -0.696102 0.000000 
0.425037 -0.727731 0.000000 
0.407738 -0.777159 0.000000 
0.453135 -0.812474 0.000000 
0.427556 -0.863989 0.000000 
0.464588 -0.901017 0.000000 
0.429420 -0.953058 0.000000 
0.458977 -0.990133 0.000000 
0.026061 -0.861783 0.000000 
0.028809 -0.756077 0.000000 
0.054870 -0.801960 0.000000 
0.106992 -0.793728 0.000000 
0.029377 -0.654019 0.000000 
0.058186 -0.694197 0.000000 
0.114311 -0.678531 0.000000 
0.137056 -0.732178 0.000000 
0.186430 -0.729652 0.000000 
0.029568 -0.552965 0.000000 
0.058945 -0.591085 0.000000 
0.116563 -0.571440 0.000000 
0.143120 -0.618708 0.000000 
0.196633 -0.609999 0.000000 
0.217198 -0.667296 0.000000 
0.265318 -0.666496 0.000000 
0.029759 -0.451911 0.000000 
0.059328 -0.488977 0.000000 
0.117890 -0.466271 0.000000 
0.145749 -0.510614 0.000000 
0.201664 -0.497140 0.000000 
0.225992 -0.549257 0.000000 
0.278030 -0.543391 0.000000 
0.296791 -0.603333 0.000000 
0.344206 -0.603340 0.000000 
CELLS 175 350 
1 0 
1 1 
1 2 
1 3 
1 4 
1 5 
1 6 
1 7 
1 8 
1 9 
1 10 
1 11 
1 12 
1 13 
1 14 
1 15 
1 16 
1 17 
1 18 
1 19 
1 20 
1 21 
1 22 
1 23 
1 24 
1 25 
1 26 
1 27 
1 28 
1 29 
1 30 
1 31 
1 32 
1 33 
1 34 
1 35 
1 36 
1 37 
1 38 
1 39 
1 40 
1 41 
1 42 
1 43 
1 44 
1 45 
1 46 
1 47 
1 48 
1 49 
1 50 
1 51 
1 52 
1 53 
1 54 
1 55 
1 56 
1 57 
1 58 
1 59 
1 60 
1 61 
1 62 
1 63 
1 64 
1 65 
1 66 
1 67 
1 68 
1 69 
1 70 
1 71 
1 72 
1 73 
1 74 
1 75 
1 76 
1 77 
1 78 
1 79 
1 80 
1 81 
1 82 
1 83 
1 84 
1 85 
1 86 
1 87 
1 88 
1 89 
1 90 
1 91 
1 92 
1 93 
1 94 
1 95 
1 96 
1 97 
1 98 
1 99 
1 100 
1 101 
1 102 
1 103 
1 104 
1 105 
1 106 
1 107 
1 108 
1 109 
1 110 
1 111 
1 112 
1 113 
1 114 
1 115 
1 116 
1 117 
1 118 
1 119 
1 120 
1 121 
1 122 
1 123 
1 124 
1 125 
1 126 
1 127 
1 128 
1 129 
1 130 
1 131 
1 132 
1 133 
1 134 
1 135 
1 136 
1 137 
1 138 
1 139 
1 140 
1 141 
1 142 
1 143 
1 144 
1 145 
1 146 
1 147 
1 148 
1 149 
1 150 
1 151 
1 152 
1 153 
1 154 
1 155 
1 156 
1 157 
1 158 
1 159 
1 160 
1 161 
1 162 
1 163 
1 164 
1 165 
1 166 
1 167 
1 168 
1 169 
1 170 
1 171 
1 172 
1 173 
1 174 
CELL_TYPES 175 
1 
1 
1 
1 
1 
1 
1 
1 
1 
1 
1 
1 
1 
1 
1 
1 
1 
1 
1 
1 
1 
1 
1 
1 
1 
1 
1 
1 
1 
1 
1 
1 
1 
1 
1 
1 
1 
1 
1 
1 
1 
1 
1 
1 
1 
1 
1 
1 
1 
1 
1 
1 
1 
1 
1 
1 
1 
1 
1 
1 
1 
1 
1 
1 
1 
1 
1 
1 
1 
1 
1 
1 
1 
1 
1 
1 
1 
1 
1 
1 
1 
1 
1 
1 
1 
1 
1 
1 
1 
1 
1 
1 
1 
1 
1 
1 
1 
1 
1 
1 
1 
1 
1 
1 
1 
1 
1 
1 
1 
1 
1 
1 
1 
1 
1 
1 
1 
1 
1 
1 
1 
1 
1 
1 
1 
1 
1 
1 
1 
1 
1 
1 
1 
1 
1 
1 
1 
1 
1 
1 
1 
1 
1 
1 
1 
1 
1 
1 
1 
1 
1 
1 
1 
1 
1 
1 
1 
1 
1 
1 
1 
1 
1 
1 
1 
1 
1 
1 
1 
1 
1 
1 
1 
1 
1 
POINT_DATA 175 
VECTORS X_GC float 
-0.026061 -0.861783 0.000000 
-0.106992 -0.793728 0.000000 
-0.054870 -0.801960 0.000000 
-0.028809 -0.756077 0.000000 
-0.186430 -0.729652 0.000000 
-0.137056 -0.732178 0.000000 
-0.114311 -0.678531 0.000000 
-0.058186 -0.694197 0.000000 
-0.029377 -0.654019 0.000000 
-0.265318 -0.666496 0.000000 
-0.217198 -0.667296 0.000000 
-0.196633 -0.609999 0.000000 
-0.143120 -0.618708 0.000000 
-0.116563 -0.571440 0.000000 
-0.058945 -0.591085 0.000000 
-0.029568 -0.552965 0.000000 
-0.344206 -0.603340 0.000000 
-0.296791 -0.603333 0.000000 
-0.278030 -0.543391 0.000000 
-0.225992 -0.549257 0.000000 
-0.201664 -0.497140 0.000000 
-0.145749 -0.510614 0.000000 
-0.117890 -0.466271 0.000000 
-0.059328 -0.488977 0.000000 
-0.029759 -0.451911 0.000000 
-0.058559 -0.902534 0.000000 
-0.162226 -0.923376 0.000000 
-0.123292 -0.887759 0.000000 
-0.142917 -0.838775 0.000000 
-0.261851 -0.945533 0.000000 
-0.229092 -0.908506 0.000000 
-0.256854 -0.857274 0.000000 
-0.209613 -0.823162 0.000000 
-0.223062 -0.775588 0.000000 
-0.360414 -0.967833 0.000000 
-0.329787 -0.930710 0.000000 
-0.361761 -0.878908 0.000000 
-0.321587 -0.842499 0.000000 
-0.341985 -0.792265 0.000000 
-0.290702 -0.759466 0.000000 
-0.302189 -0.712731 0.000000 
-0.458977 -0.990133 0.000000 
-0.429420 -0.953058 0.000000 
-0.464588 -0.901017 0.000000 
-0.427556 -0.863989 0.000000 
-0.453135 -0.812474 0.000000 
-0.407738 -0.777159 0.000000 
-0.425037 -0.727731 0.000000 
-0.370772 -0.696102 0.000000 
-0.381315 -0.649874 0.000000 
-0.046960 -0.953349 0.000000 
-0.095301 -1.047395 0.000000 
-0.098873 -0.994748 0.000000 
-0.149405 -0.979550 0.000000 
-0.140093 -1.139099 0.000000 
-0.148617 -1.090401 0.000000 
-0.205981 -1.080163 0.000000 
-0.203197 -1.021960 0.000000 
-0.248777 -1.002813 0.000000 
-0.184111 -1.230063 0.000000 
-0.194039 -1.182971 0.000000 
-0.254475 -1.175672 0.000000 
-0.257893 -1.121562 0.000000 
-0.309886 -1.106190 0.000000 
-0.303554 -1.045644 0.000000 
-0.347255 -1.025487 0.000000 
-0.228129 -1.321026 0.000000 
-0.238687 -1.274802 0.000000 
-0.301302 -1.269850 0.000000 
-0.307162 -1.217811 0.000000 
-0.363386 -1.205690 0.000000 
-0.362692 -1.148179 0.000000 
-0.412122 -1.130885 0.000000 
-0.403017 -1.068739 0.000000 
-0.445733 -1.048160 0.000000 
-0.000000 -0.975964 0.000000 
0.043388 -1.072395 0.000000 
-0.000000 -1.042362 0.000000 
-0.043388 -1.072395 0.000000 
0.087158 -1.164591 0.000000 
0.043769 -1.140893 0.000000 
-0.000000 -1.179358 0.000000 
-0.043769 -1.140893 0.000000 
-0.087158 -1.164591 0.000000 
0.130831 -1.255721 0.000000 
0.087824 -1.234122 0.000000 
0.044436 -1.276822 0.000000 
-0.000000 -1.245757 0.000000 
-0.044436 -1.276822 0.000000 
-0.087824 -1.234122 0.000000 
-0.130831 -1.255721 0.000000 
0.174505 -1.346850 0.000000 
0.131782 -1.326284 0.000000 
0.088871 -1.372151 0.000000 
0.044532 -1.344287 0.000000 
-0.000000 -1.380687 0.000000 
-0.044532 -1.344287 0.000000 
-0.088871 -1.372151 0.000000 
-0.131782 -1.326284 0.000000 
-0.174505 -1.346850 0.000000 
0.046960 -0.953349 0.000000 
0.149405 -0.979550 0.000000 
0.098873 -0.994748 0.000000 
0.095301 -1.047395 0.000000 
0.248777 -1.002813 0.000000 
0.203197 -1.021960 0.000000 
0.205981 -1.080163 0.000000 
0.148617 -1.090401 0.000000 
0.140093 -1.139099 0.000000 
0.347255 -1.025487 0.000000 
0.303554 -1.045644 0.000000 
0.309886 -1.106190 0.000000 
0.257893 -1.121562 0.000000 
0.254475 -1.175672 0.000000 
0.194039 -1.182971 0.000000 
0.184111 -1.230063 0.000000 
0.445733 -1.048160 0.000000 
0.403017 -1.068739 0.000000 
0.412122 -1.130885 0.000000 
0.362692 -1.148179 0.000000 
0.363386 -1.205690 0.000000 
0.307162 -1.217811 0.000000 
0.301302 -1.269850 0.000000 
0.238687 -1.274802 0.000000 
0.228129 -1.321026 0.000000 
0.058559 -0.902534 0.000000 
0.142917 -0.838775 0.000000 
0.123292 -0.887759 0.000000 
0.162226 -0.923376 0.000000 
0.223062 -0.775588 0.000000 
0.209613 -0.823162 0.000000 
0.256854 -0.857274 0.000000 
0.229092 -0.908506 0.000000 
0.261851 -0.945533 0.000000 
0.302189 -0.712731 0.000000 
0.290702 -0.759466 0.000000 
0.341985 -0.792265 0.000000 
0.321587 -0.842499 0.000000 
0.361761 -0.878908 0.000000 
0.329787 -0.930710 0.000000 
0.360414 -0.967833 0.000000 
0.381315 -0.649874 0.000000 
0.370772 -0.696102 0.000000 
0.425037 -0.727731 0.000000 
0.407738 -0.777159 0.000000 
0.453135 -0.812474 0.000000 
0.427556 -0.863989 0.000000 
0.464588 -0.901017 0.000000 
0.429420 -0.953058 0.000000 
0.458977 -0.990133 0.000000 
0.026061 -0.861783 0.000000 
0.028809 -0.756077 0.000000 
0.054870 -0.801960 0.000000 
0.106992 -0.793728 0.000000 
0.029377 -0.654019 0.000000 
0.058186 -0.694197 0.000000 
0.114311 -0.678531 0.000000 
0.137056 -0.732178 0.000000 
0.186430 -0.729652 0.000000 
0.029568 -0.552965 0.000000 
0.058945 -0.591085 0.000000 
0.116563 -0.571440 0.000000 
0.143120 -0.618708 0.000000 
0.196633 -0.609999 0.000000 
0.217198 -0.667296 0.000000 
0.265318 -0.666496 0.000000 
0.029759 -0.451911 0.000000 
0.059328 -0.488977 0.000000 
0.117890 -0.466271 0.000000 
0.145749 -0.510614 0.000000 
0.201664 -0.497140 0.000000 
0.225992 -0.549257 0.000000 
0.278030 -0.543391 0.000000 
0.296791 -0.603333 0.000000 
0.344206 -0.603340 0.000000 
VECTORS X_EC float 
0.338794 0.134071 0.000000 
-0.609100 -0.784678 0.000000 
0.713312 -0.673537 0.000000 
0.374519 0.707033 0.000000 
0.423588 0.350303 0.000000 
-0.218274 0.384406 0.000000 
-0.513962 -0.339832 0.000000 
0.756418 -0.128346 0.000000 
0.381900 -0.670739 0.000000 
-0.550868 -0.502300 0.000000 
0.823577 -0.491505 0.000000 
0.556234 0.734991 0.000000 
-0.139443 0.852560 0.000000 
-0.484677 0.214435 0.000000 
0.766286 0.479651 0.000000 
0.384386 -0.034970 0.000000 
0.474677 0.645096 0.000000 
-0.141715 0.645000 0.000000 
-0.385608 -0.164228 0.000000 
0.937896 -0.085033 0.000000 
0.621631 -0.788613 0.000000 
-0.105264 -0.606713 0.000000 
-0.467428 0.794660 0.000000 
0.771260 -0.898811 0.000000 
0.386873 0.600799 0.000000 
0.761262 0.684205 0.000000 
0.108942 0.965582 0.000000 
-0.397202 0.484742 0.000000 
-0.142083 -0.176533 0.000000 
-0.595936 -0.735308 0.000000 
0.978194 0.764826 0.000000 
-0.660903 0.073201 0.000000 
0.724964 -0.387319 0.000000 
0.899809 0.970433 0.000000 
0.685384 -0.434256 0.000000 
0.287229 -0.935414 0.000000 
0.702895 0.365258 0.000000 
0.180633 -0.126261 0.000000 
0.445811 -0.804421 0.000000 
-0.220880 0.752793 0.000000 
-0.071546 0.121868 0.000000 
-0.033296 -0.133203 0.000000 
-0.417537 -0.633713 0.000000 
0.039645 0.663725 0.000000 
-0.441768 0.163853 0.000000 
-0.109248 -0.531597 0.000000 
-0.699407 0.991647 0.000000 
-0.474522 0.324368 0.000000 
0.820030 -0.102625 0.000000 
0.957100 -0.726697 0.000000 
0.610485 -0.629789 0.000000 
-0.761092 0.639831 0.000000 
-0.714655 -0.070907 0.000000 
-0.057734 -0.276074 0.000000 
-0.178789 -0.122165 0.000000 
-0.067979 -0.779591 0.000000 
0.677748 -0.917795 0.000000 
0.641556 0.296460 0.000000 
-0.765897 0.037982 0.000000 
0.393446 -0.894156 0.000000 
0.522510 0.470114 0.000000 
-0.691820 0.371570 0.000000 
-0.647393 -0.358913 0.000000 
0.028512 -0.566439 0.000000 
-0.053800 0.616200 0.000000 
0.514316 0.344069 0.000000 
0.965681 0.333853 0.000000 
-0.897068 -0.290176 0.000000 
-0.083078 -0.357029 0.000000 
-0.006893 0.940447 0.000000 
0.724017 0.776814 0.000000 
0.714996 0.000410 0.000000 
-0.642413 -0.233047 0.000000 
-0.760780 0.927972 0.000000 
-0.205471 0.650157 0.000000 
0.000000 -0.324487 0.000000 
-0.564049 0.977326 0.000000 
0.000000 0.571890 0.000000 
0.564049 0.977326 0.000000 
0.866949 0.221981 0.000000 
-0.569003 -0.097950 0.000000 
0.000000 0.421338 0.000000 
0.569003 -0.097950 0.000000 
-0.866949 0.221981 0.000000 
0.299194 -0.547769 0.000000 
0.858290 -0.839353 0.000000 
-0.577662 -0.262907 0.000000 
0.000000 -0.682285 0.000000 
0.577662 -0.262907 0.000000 
-0.858290 -0.839353 0.000000 
-0.299194 -0.547769 0.000000 
-0.268560 0.682481 0.000000 
0.286830 0.404840 0.000000 
0.844677 -0.975962 0.000000 
-0.578910 0.647875 0.000000 
0.000000 -0.860721 0.000000 
0.578910 0.647875 0.000000 
-0.844677 -0.975962 0.000000 
-0.286830 0.404840 0.000000 
0.268560 0.682481 0.000000 
-0.610485 -0.629789 0.000000 
0.057734 -0.276074 0.000000 
0.714655 -0.070907 0.000000 
0.761092 0.639831 0.000000 
0.765897 0.037982 0.000000 
-0.641556 0.296460 0.000000 
-0.677748 -0.917795 0.000000 
0.067979 -0.779591 0.000000 
0.178789 -0.122165 0.000000 
-0.514316 0.344069 0.000000 
0.053800 0.616200 0.000000 
-0.028512 -0.566439 0.000000 
0.647393 -0.358913 0.000000 
0.691820 0.371570 0.000000 
-0.522510 0.470114 0.000000 
-0.393446 -0.894156 0.000000 
0.205471 0.650157 0.000000 
0.760780 0.927972 0.000000 
0.642413 -0.233047 0.000000 
-0.714996 0.000410 0.000000 
-0.724017 0.776814 0.000000 
0.006894 0.940447 0.000000 
0.083078 -0.357029 0.000000 
0.897068 -0.290176 0.000000 
-0.965681 0.333853 0.000000 
-0.761262 0.684205 0.000000 
0.142083 -0.176533 0.000000 
0.397202 0.484742 0.000000 
-0.108942 0.965582 0.000000 
-0.899809 0.970433 0.000000 
-0.724964 -0.387319 0.000000 
0.660903 0.073201 0.000000 
-0.978194 0.764826 0.000000 
0.595936 -0.735308 0.000000 
0.071546 0.121868 0.000000 
0.220880 0.752793 0.000000 
-0.445811 -0.804421 0.000000 
-0.180633 -0.126261 0.000000 
-0.702895 0.365258 0.000000 
-0.287229 -0.935414 0.000000 
-0.685384 -0.434255 0.000000 
-0.957100 -0.726697 0.000000 
-0.820030 -0.102625 0.000000 
0.474522 0.324368 0.000000 
0.699407 0.991647 0.000000 
0.109248 -0.531597 0.000000 
0.441768 0.163853 0.000000 
-0.039645 0.663725 0.000000 
0.417537 -0.633713 0.000000 
0.033296 -0.133203 0.000000 
-0.338794 0.134071 0.000000 
-0.374519 0.707033 0.000000 
-0.713312 -0.673537 0.000000 
0.609100 -0.784678 0.000000 
-0.381900 -0.670739 0.000000 
-0.756418 -0.128346 0.000000 
0.513962 -0.339832 0.000000 
0.218274 0.384406 0.000000 
-0.423588 0.350303 0.000000 
-0.384386 -0.034970 0.000000 
-0.766286 0.479651 0.000000 
0.484677 0.214435 0.000000 
0.139443 0.852560 0.000000 
-0.556234 0.734991 0.000000 
-0.823577 -0.491505 0.000000 
0.550868 -0.502300 0.000000 
-0.386873 0.600799 0.000000 
-0.771260 -0.898811 0.000000 
0.467428 0.794660 0.000000 
0.105264 -0.606713 0.000000 
-0.621631 -0.788613 0.000000 
-0.937896 -0.085033 0.000000 
0.385608 -0.164228 0.000000 
0.141715 0.645000 0.000000 
-0.474677 0.645097 0.000000 
CELL_DATA 175 
SCALARS MASS float 
LOOKUP_TABLE default 
0.078183 
0.086427 
0.094672 
0.086427 
0.088131 
0.092111 
0.085854 
0.092111 
0.088131 
0.088705 
0.091000 
0.086983 
0.091556 
0.086983 
0.091000 
0.088705 
0.089278 
0.091574 
0.089278 
0.092722 
0.089278 
0.092722 
0.089278 
0.091574 
0.089278 
0.078183 
0.086427 
0.094672 
0.086427 
0.088131 
0.092111 
0.085854 
0.092111 
0.088131 
0.088705 
0.091000 
0.086983 
0.091556 
0.086983 
0.091000 
0.088705 
0.089278 
0.091574 
0.089278 
0.092722 
0.089278 
0.092722 
0.089278 
0.091574 
0.089278 
0.078183 
0.086427 
0.094672 
0.086427 
0.088131 
0.092111 
0.085854 
0.092111 
0.088131 
0.088705 
0.091000 
0.086983 
0.091556 
0.086983 
0.091000 
0.088705 
0.089278 
0.091574 
0.089278 
0.092722 
0.089278 
0.092722 
0.089278 
0.091574 
0.089278 
0.078183 
0.086427 
0.094672 
0.086427 
0.088131 
0.092111 
0.085854 
0.092111 
0.088131 
0.088705 
0.091000 
0.086983 
0.091556 
0.086983 
0.091000 
0.088705 
0.089278 
0.091574 
0.089278 
0.092722 
0.089278 
0.092722 
0.089278 
0.091574 
0.089278 
0.078183 
0.086427 
0.094672 
0.086427 
0.088131 
0.092111 
0.085854 
0.092111 
0.088131 
0.088705 
0.091000 
0.086983 
0.091556 
0.086983 
0.091000 
0.088705 
0.089278 
0.091574 
0.089278 
0.092722 
0.089278 
0.092722 
0.089278 
0.091574 
0.089278 
0.078183 
0.086427 
0.094672 
0.086427 
0.088131 
0.092111 
0.085854 
0.092111 
0.088131 
0.088705 
0.091000 
0.086983 
0.091556 
0.086983 
0.091000 
0.088705 
0.089278 
0.091574 
0.089278 
0.092722 
0.089278 
0.092722 
0.089278 
0.091574 
0.089278 
0.078183 
0.086427 
0.094672 
0.086427 
0.088131 
0.092111 
0.085854 
0.092111 
0.088131 
0.088705 
0.091000 
0.086983 
0.091556 
0.086983 
0.091000 
0.088705 
0.089278 
0.091574 
0.089278 
0.092722 
0.089278 
0.092722 
0.089278 
0.091574 
0.089278 
SCALARS MASS float 
LOOKUP_TABLE default 
0.078183 
0.086427 
0.094672 
0.086427 
0.088131 
0.092111 
0.085854 
0.092111 
0.088131 
0.088705 
0.091000 
0.086983 
0.091556 
0.086983 
0.091000 
0.088705 
0.089278 
0.091574 
0.089278 
0.092722 
0.089278 
0.092722 
0.089278 
0.091574 
0.089278 
0.078183 
0.086427 
0.094672 
0.086427 
0.088131 
0.092111 
0.085854 
0.092111 
0.088131 
0.088705 
0.091000 
0.086983 
0.091556 
0.086983 
0.091000 
0.088705 
0.089278 
0.091574 
0.089278 
0.092722 
0.089278 
0.092722 
0.089278 
0.091574 
0.089278 
0.078183 
0.086427 
0.094672 
0.086427 
0.088131 
0.092111 
0.085854 
0.092111 
0.088131 
0.088705 
0.091000 
0.086983 
0.091556 
0.086983 
0.091000 
0.088705 
0.089278 
0.091574 
0.089278 
0.092722 
0.089278 
0.092722 
0.089278 
0.091574 
0.089278 
0.078183 
0.086427 
0.094672 
0.086427 
0.088131 
0.092111 
0.085854 
0.092111 
0.088131 
0.088705 
0.091000 
0.086983 
0.091556 
0.086983 
0.091000 
0.088705 
0.089278 
0.091574 
0.089278 
0.092722 
0.089278 
0.092722 
0.089278 
0.091574 
0.089278 
0.078183 
0.086427 
0.094672 
0.086427 
0.088131 
0.092111 
0.085854 
0.092111 
0.088131 
0.088705 
0.091000 
0.086983 
0.091556 
0.086983 
0.091000 
0.088705 
0.089278 
0.091574 
0.089278 
0.092722 
0.089278 
0.092722 
0.089278 
0.091574 
0.089278 
0.078183 
0.086427 
0.094672 
0.086427 
0.088131 
0.092111 
0.085854 
0.092111 
0.088131 
0.088705 
0.091000 
0.086983 
0.091556 
0.086983 
0.091000 
0.088705 
0.089278 
0.091574 
0.089278 
0.092722 
0.089278 
0.092722 
0.089278 
0.091574 
0.089278 
0.078183 
0.086427 
0.094672 
0.086427 
0.088131 
0.092111 
0.085854 
0.092111 
0.088131 
0.088705 
0.091000 
0.086983 
0.091556 
0.086983 
0.091000 
0.088705 
0.089278 
0.091574 
0.089278 
0.092722 
0.089278 
0.092722 
0.089278 
0.091574 
0.089278 
SCALARS DENSITY float 
LOOKUP_TABLE default 
20.000000 
20.000000 
20.000000 
20.000000 
20.000000 
20.000000 
20.000000 
20.000000 
20.000000 
20.000000 
20.000000 
20.000000 
20.000000 
20.000000 
20.000000 
20.000000 
20.000000 
20.000000 
20.000000 
20.000000 
20.000000 
20.000000 
20.000000 
20.000000 
20.000000 
20.000000 
20.000000 
20.000000 
20.000000 
20.000000 
20.000000 
20.000000 
20.000000 
20.000000 
20.000000 
20.000000 
20.000000 
20.000000 
20.000000 
20.000000 
20.000000 
20.000000 
20.000000 
20.000000 
20.000000 
20.000000 
20.000000 
20.000000 
20.000000 
20.000000 
20.000000 
20.000000 
20.000000 
20.000000 
20.000000 
20.000000 
20.000000 
20.000000 
20.000000 
20.000000 
20.000000 
20.000000 
20.000000 
20.000000 
20.000000 
20.000000 
20.000000 
20.000000 
20.000000 
20.000000 
20.000000 
20.000000 
20.000000 
20.000000 
20.000000 
20.000000 
20.000000 
20.000000 
20.000000 
20.000000 
20.000000 
20.000000 
20.000000 
20.000000 
20.000000 
20.000000 
20.000000 
20.000000 
20.000000 
20.000000 
20.000000 
20.000000 
20.000000 
20.000000 
20.000000 
20.000000 
20.000000 
20.000000 
20.000000 
20.000000 
20.000000 
20.000000 
20.000000 
20.000000 
20.000000 
20.000000 
20.000000 
20.000000 
20.000000 
20.000000 
20.000000 
20.000000 
20.000000 
20.000000 
20.000000 
20.000000 
20.000000 
20.000000 
20.000000 
20.000000 
20.000000 
20.000000 
20.000000 
20.000000 
20.000000 
20.000000 
20.000000 
20.000000 
20.000000 
20.000000 
20.000000 
20.000000 
20.000000 
20.000000 
20.000000 
20.000000 
20.000000 
20.000000 
20.000000 
20.000000 
20.000000 
20.000000 
20.000000 
20.000000 
20.000000 
20.000000 
20.000000 
20.000000 
20.000000 
20.000000 
20.000000 
20.000000 
20.000000 
20.000000 
20.000000 
20.000000 
20.000000 
20.000000 
20.000000 
20.000000 
20.000000 
20.000000 
20.000000 
20.000000 
20.000000 
20.000000 
20.000000 
20.000000 
20.000000 
20.000000 
20.000000 
20.000000 
20.000000 
20.000000 
20.000000 
SCALARS ELEM_i float 
LOOKUP_TABLE default 
176 
203 
176 
177 
204 
204 
204 
177 
177 
231 
204 
205 
205 
205 
178 
178 
232 
232 
232 
205 
205 
205 
206 
178 
179 
176 
203 
203 
203 
229 
203 
230 
203 
204 
229 
229 
230 
230 
230 
231 
231 
256 
256 
257 
257 
257 
258 
258 
231 
231 
175 
202 
202 
202 
201 
201 
201 
202 
229 
200 
201 
228 
228 
228 
229 
229 
200 
227 
227 
228 
228 
228 
255 
256 
256 
175 
175 
175 
175 
147 
174 
174 
174 
201 
146 
146 
173 
173 
173 
200 
200 
146 
146 
145 
173 
172 
173 
199 
200 
200 
175 
148 
148 
148 
121 
148 
147 
147 
147 
121 
121 
120 
120 
120 
147 
146 
94 
94 
93 
120 
120 
120 
119 
119 
146 
176 
149 
149 
149 
150 
149 
122 
149 
121 
123 
123 
122 
122 
122 
121 
121 
123 
123 
96 
96 
95 
95 
95 
94 
94 
176 
177 
176 
149 
177 
177 
150 
150 
150 
178 
178 
151 
151 
151 
150 
123 
179 
178 
152 
151 
151 
151 
124 
124 
124 
VECTORS VELOCITY float 
-0.000000 -4.238705 0.000000 
-0.000000 -4.238705 0.000000 
-0.000000 -4.238705 0.000000 
-0.000000 -4.238705 0.000000 
0.000000 -4.238705 0.000000 
0.000000 -4.238705 0.000000 
0.000000 -4.238705 0.000000 
0.000000 -4.238705 0.000000 
0.000000 -4.238705 0.000000 
-0.000000 -4.238705 0.000000 
-0.000000 -4.238705 0.000000 
-0.000000 -4.238705 0.000000 
-0.000000 -4.238705 0.000000 
-0.000000 -4.238705 0.000000 
-0.000000 -4.238705 0.000000 
-0.000000 -4.238705 0.000000 
0.000000 -4.238705 0.000000 
0.000000 -4.238705 0.000000 
0.000000 -4.238705 0.000000 
0.000000 -4.238705 0.000000 
0.000000 -4.238705 0.000000 
-0.000000 -4.238705 0.000000 
-0.000000 -4.238705 0.000000 
-0.000000 -4.238705 0.000000 
-0.000000 -4.238705 0.000000 
-0.000000 -4.238705 0.000000 
-0.000000 -4.238705 0.000000 
-0.000000 -4.238705 0.000000 
-0.000000 -4.238705 0.000000 
0.000000 -4.238705 0.000000 
0.000000 -4.238705 0.000000 
0.000000 -4.238705 0.000000 
-0.000000 -4.238705 0.000000 
-0.000000 -4.238705 0.000000 
-0.000000 -4.238705 0.000000 
0.000000 -4.238705 0.000000 
0.000000 -4.238705 0.000000 
0.000000 -4.238705 0.000000 
-0.000000 -4.238705 0.000000 
-0.000000 -4.238705 0.000000 
-0.000000 -4.238705 0.000000 
-0.000000 -4.238705 0.000000 
0.000000 -4.238705 0.000000 
0.000000 -4.238705 0.000000 
0.000000 -4.238705 0.000000 
-0.000000 -4.238705 0.000000 
-0.000000 -4.238705 0.000000 
0.000000 -4.238705 0.000000 
-0.000000 -4.238705 0.000000 
0.000000 -4.238705 0.000000 
-0.000000 -4.238705 0.000000 
-0.000000 -4.238705 0.000000 
-0.000000 -4.238705 0.000000 
-0.000000 -4.238705 0.000000 
-0.000000 -4.238705 0.000000 
-0.000000 -4.238705 0.000000 
-0.000000 -4.238705 0.000000 
-0.000000 -4.238705 0.000000 
0.000000 -4.238705 0.000000 
-0.000000 -4.238705 0.000000 
-0.000000 -4.238705 0.000000 
-0.000000 -4.238705 0.000000 
-0.000000 -4.238705 0.000000 
-0.000000 -4.238705 0.000000 
-0.000000 -4.238705 0.000000 
-0.000000 -4.238705 0.000000 
0.000000 -4.238705 0.000000 
0.000000 -4.238705 0.000000 
0.000000 -4.238705 0.000000 
-0.000000 -4.238705 0.000000 
-0.000000 -4.238705 0.000000 
0.000000 -4.238705 0.000000 
-0.000000 -4.238705 0.000000 
-0.000000 -4.238705 0.000000 
0.000000 -4.238705 0.000000 
-0.000000 -4.238705 0.000000 
-0.000000 -4.238705 0.000000 
-0.000000 -4.238705 0.000000 
-0.000000 -4.238705 0.000000 
-0.000000 -4.238705 0.000000 
-0.000000 -4.238705 0.000000 
0.000000 -4.238705 0.000000 
0.000000 -4.238705 0.000000 
0.000000 -4.238705 0.000000 
0.000000 -4.238705 0.000000 
0.000000 -4.238705 0.000000 
-0.000000 -4.238705 0.000000 
0.000000 -4.238705 0.000000 
-0.000000 -4.238705 0.000000 
0.000000 -4.238705 0.000000 
-0.000000 -4.238705 0.000000 
-0.000000 -4.238705 0.000000 
0.000000 -4.238705 0.000000 
-0.000000 -4.238705 0.000000 
-0.000000 -4.238705 0.000000 
0.000000 -4.238705 0.000000 
-0.000000 -4.238705 0.000000 
-0.000000 -4.238705 0.000000 
-0.000000 -4.238705 0.000000 
-0.000000 -4.238705 0.000000 
0.000000 -4.238705 0.000000 
0.000000 -4.238705 0.000000 
0.000000 -4.238705 0.000000 
-0.000000 -4.238705 0.000000 
0.000000 -4.238705 0.000000 
0.000000 -4.238705 0.000000 
0.000000 -4.238705 0.000000 
-0.000000 -4.238705 0.000000 
-0.000000 -4.238705 0.000000 
0.000000 -4.238705 0.000000 
0.000000 -4.238705 0.000000 
0.000000 -4.238705 0.000000 
0.000000 -4.238705 0.000000 
-0.000000 -4.238705 0.000000 
-0.000000 -4.238705 0.000000 
-0.000000 -4.238705 0.000000 
0.000000 -4.238705 0.000000 
0.000000 -4.238705 0.000000 
-0.000000 -4.238705 0.000000 
-0.000000 -4.238705 0.000000 
-0.000000 -4.238705 0.000000 
-0.000000 -4.238705 0.000000 
0.000000 -4.238705 0.000000 
0.000000 -4.238705 0.000000 
0.000000 -4.238705 0.000000 
0.000000 -4.238705 0.000000 
-0.000000 -4.238705 0.000000 
0.000000 -4.238705 0.000000 
0.000000 -4.238705 0.000000 
0.000000 -4.238705 0.000000 
0.000000 -4.238705 0.000000 
0.000000 -4.238705 0.000000 
0.000000 -4.238705 0.000000 
-0.000000 -4.238705 0.000000 
0.000000 -4.238705 0.000000 
0.000000 -4.238705 0.000000 
0.000000 -4.238705 0.000000 
0.000000 -4.238705 0.000000 
-0.000000 -4.238705 0.000000 
-0.000000 -4.238705 0.000000 
-0.000000 -4.238705 0.000000 
-0.000000 -4.238705 0.000000 
0.000000 -4.238705 0.000000 
0.000000 -4.238705 0.000000 
0.000000 -4.238705 0.000000 
0.000000 -4.238705 0.000000 
0.000000 -4.238705 0.000000 
0.000000 -4.238705 0.000000 
-0.000000 -4.238705 0.000000 
0.000000 -4.238705 0.000000 
-0.000000 -4.238705 0.000000 
-0.000000 -4.238705 0.000000 
-0.000000 -4.238705 0.000000 
-0.000000 -4.238705 0.000000 
0.000000 -4.238705 0.000000 
0.000000 -4.238705 0.000000 
0.000000 -4.238705 0.000000 
0.000000 -4.238705 0.000000 
0.000000 -4.238705 0.000000 
-0.000000 -4.238705 0.000000 
-0.000000 -4.238705 0.000000 
0.000000 -4.238705 0.000000 
0.000000 -4.238705 0.000000 
0.000000 -4.238705 0.000000 
0.000000 -4.238705 0.000000 
0.000000 -4.238705 0.000000 
-0.000000 -4.238705 0.000000 
0.000000 -4.238705 0.000000 
-0.000000 -4.238705 0.000000 
0.000000 -4.238705 0.000000 
0.000000 -4.238705 0.000000 
0.000000 -4.238705 0.000000 
0.000000 -4.238705 0.000000 
0.000000 -4.238705 0.000000 
-0.000000 -4.238705 0.000000 
TENSORS STRESS float 
-0.000000 0.000000 0.000000 
0.000000 -0.000000 0.000000 
0.000000 0.000000 0.000000 

0.000000 0.000000 0.000000 
0.000000 0.000000 0.000000 
0.000000 0.000000 0.000000 

0.000000 -0.000000 0.000000 
0.000000 0.000000 0.000000 
0.000000 0.000000 0.000000 

-0.000000 -0.000000 0.000000 
0.000000 -0.000000 0.000000 
0.000000 0.000000 0.000000 

-0.000000 0.000000 0.000000 
0.000000 -0.000000 0.000000 
0.000000 0.000000 0.000000 

0.000000 0.000000 0.000000 
0.000000 0.000000 0.000000 
0.000000 0.000000 0.000000 

-0.000000 -0.000000 0.000000 
0.000000 -0.000000 0.000000 
0.000000 0.000000 0.000000 

-0.000000 -0.000000 0.000000 
0.000000 -0.000000 0.000000 
0.000000 0.000000 0.000000 

-0.000000 0.000000 0.000000 
0.000000 -0.000000 0.000000 
0.000000 0.000000 0.000000 

0.000000 0.000000 0.000000 
0.000000 0.000000 0.000000 
0.000000 0.000000 0.000000 

-0.000000 -0.000000 0.000000 
0.000000 0.000000 0.000000 
0.000000 0.000000 0.000000 

-0.000000 -0.000000 0.000000 
0.000000 -0.000000 0.000000 
0.000000 0.000000 0.000000 

-0.000000 -0.000000 0.000000 
0.000000 0.000000 0.000000 
0.000000 0.000000 0.000000 

-0.000000 -0.000000 0.000000 
0.000000 -0.000000 0.000000 
0.000000 0.000000 0.000000 

-0.000000 -0.000000 0.000000 
0.000000 -0.000000 0.000000 
0.000000 0.000000 0.000000 

-0.000000 0.000000 0.000000 
0.000000 -0.000000 0.000000 
0.000000 0.000000 0.000000 

0.000000 -0.000000 0.000000 
0.000000 -0.000000 0.000000 
0.000000 0.000000 0.000000 

0.000000 -0.000000 0.000000 
0.000000 -0.000000 0.000000 
0.000000 0.000000 0.000000 

-0.000000 0.000000 0.000000 
0.000000 -0.000000 0.000000 
0.000000 0.000000 0.000000 

-0.000000 -0.000000 0.000000 
0.000000 -0.000000 0.000000 
0.000000 0.000000 0.000000 

0.000000 0.000000 0.000000 
0.000000 0.000000 0.000000 
0.000000 0.000000 0.000000 

0.000000 -0.000000 0.000000 
0.000000 0.000000 0.000000 
0.000000 0.000000 0.000000 

-0.000000 0.000000 0.000000 
0.000000 -0.000000 0.000000 
0.000000 0.000000 0.000000 

-0.000000 0.000000 0.000000 
0.000000 -0.000000 0.000000 
0.000000 0.000000 0.000000 

-0.000000 0.000000 0.000000 
0.000000 -0.000000 0.000000 
0.000000 0.000000 0.000000 

-0.000000 0.000000 0.000000 
0.000000 0.000000 0.000000 
0.000000 0.000000 0.000000 

0.000000 -0.000000 0.000000 
0.000000 0.000000 0.000000 
0.000000 0.000000 0.000000 

0.000000 -0.000000 0.000000 
0.000000 0.000000 0.000000 
0.000000 0.000000 0.000000 

-0.000000 -0.000000 0.000000 
0.000000 -0.000000 0.000000 
0.000000 0.000000 0.000000 

0.000000 0.000000 0.000000 
0.000000 0.000000 0.000000 
0.000000 0.000000 0.000000 

0.000000 -0.000000 0.000000 
0.000000 0.000000 0.000000 
0.000000 0.000000 0.000000 

-0.000000 0.000000 0.000000 
0.000000 -0.000000 0.000000 
0.000000 0.000000 0.000000 

0.000000 -0.000000 0.000000 
0.000000 0.000000 0.000000 
0.000000 0.000000 0.000000 

-0.000000 0.000000 0.000000 
0.000000 -0.000000 0.000000 
0.000000 0.000000 0.000000 

-0.000000 -0.000000 0.000000 
0.000000 -0.000000 0.000000 
0.000000 0.000000 0.000000 

0.000000 0.000000 0.000000 
0.000000 -0.000000 0.000000 
0.000000 0.000000 0.000000 

-0.000000 -0.000000 0.000000 
0.000000 -0.000000 0.000000 
0.000000 0.000000 0.000000 

-0.000000 0.000000 0.000000 
0.000000 -0.000000 0.000000 
0.000000 0.000000 0.000000 

0.000000 0.000000 0.000000 
0.000000 0.000000 0.000000 
0.000000 0.000000 0.000000 

0.000000 0.000000 0.000000 
0.000000 0.000000 0.000000 
0.000000 0.000000 0.000000 

0.000000 0.000000 0.000000 
0.000000 0.000000 0.000000 
0.000000 0.000000 0.000000 

0.000000 0.000000 0.000000 
0.000000 0.000000 0.000000 
0.000000 0.000000 0.000000 

0.000000 -0.000000 0.000000 
0.000000 0.000000 0.000000 
0.000000 0.000000 0.000000 

-0.000000 -0.000000 0.000000 
0.000000 -0.000000 0.000000 
0.000000 0.000000 0.000000 

-0.000000 0.000000 0.000000 
0.000000 0.000000 0.000000 
0.000000 0.000000 0.000000 

-0.000000 -0.000000 0.000000 
0.000000 0.000000 0.000000 
0.000000 0.000000 0.000000 

0.000000 -0.000000 0.000000 
0.000000 0.000000 0.000000 
0.000000 0.000000 0.000000 

0.000000 -0.000000 0.000000 
0.000000 -0.000000 0.000000 
0.000000 0.000000 0.000000 

0.000000 0.000000 0.000000 
0.000000 0.000000 0.000000 
0.000000 0.000000 0.000000 

0.000000 0.000000 0.000000 
0.000000 0.000000 0.000000 
0.000000 0.000000 0.000000 

-0.000000 0.000000 0.000000 
0.000000 0.000000 0.000000 
0.000000 0.000000 0.000000 

0.000000 0.000000 0.000000 
0.000000 0.000000 0.000000 
0.000000 0.000000 0.000000 

0.000000 0.000000 0.000000 
0.000000 0.000000 0.000000 
0.000000 0.000000 0.000000 

0.000000 0.000000 0.000000 
0.000000 0.000000 0.000000 
0.000000 0.000000 0.000000 

-0.000000 -0.000000 0.000000 
0.000000 -0.000000 0.000000 
0.000000 0.000000 0.000000 

0.000000 -0.000000 0.000000 
0.000000 -0.000000 0.000000 
0.000000 0.000000 0.000000 

0.000000 0.000000 0.000000 
0.000000 0.000000 0.000000 
0.000000 0.000000 0.000000 

0.000000 0.000000 0.000000 
0.000000 0.000000 0.000000 
0.000000 0.000000 0.000000 

-0.000000 0.000000 0.000000 
0.000000 0.000000 0.000000 
0.000000 0.000000 0.000000 

-0.000000 -0.000000 0.000000 
0.000000 0.000000 0.000000 
0.000000 0.000000 0.000000 

0.000000 -0.000000 0.000000 
0.000000 0.000000 0.000000 
0.000000 0.000000 0.000000 

-0.000000 0.000000 0.000000 
0.000000 -0.000000 0.000000 
0.000000 0.000000 0.000000 

-0.000000 0.000000 0.000000 
0.000000 -0.000000 0.000000 
0.000000 0.000000 0.000000 

-0.000000 -0.000000 0.000000 
0.000000 -0.000000 0.000000 
0.000000 0.000000 0.000000 

-0.000000 0.000000 0.000000 
0.000000 -0.000000 0.000000 
0.000000 0.000000 0.000000 

-0.000000 0.000000 0.000000 
0.000000 -0.000000 0.000000 
0.000000 0.000000 0.000000 

-0.000000 0.000000 0.000000 
0.000000 -0.000000 0.000000 
0.000000 0.000000 0.000000 

-0.000000 0.000000 0.000000 
0.000000 0.000000 0.000000 
0.000000 0.000000 0.000000 

-0.000000 -0.000000 0.000000 
0.000000 -0.000000 0.000000 
0.000000 0.000000 0.000000 

-0.000000 0.000000 0.000000 
0.000000 0.000000 0.000000 
0.000000 0.000000 0.000000 

-0.000000 0.000000 0.000000 
0.000000 -0.000000 0.000000 
0.000000 0.000000 0.000000 

-0.000000 -0.000000 0.000000 
0.000000 -0.000000 0.000000 
0.000000 0.000000 0.000000 

-0.000000 -0.000000 0.000000 
0.000000 0.000000 0.000000 
0.000000 0.000000 0.000000 

-0.000000 -0.000000 0.000000 
0.000000 -0.000000 0.000000 
0.000000 0.000000 0.000000 

-0.000000 -0.000000 0.000000 
0.000000 -0.000000 0.000000 
0.000000 0.000000 0.000000 

0.000000 -0.000000 0.000000 
0.000000 0.000000 0.000000 
0.000000 0.000000 0.000000 

-0.000000 -0.000000 0.000000 
0.000000 -0.000000 0.000000 
0.000000 0.000000 0.000000 

0.000000 -0.000000 0.000000 
0.000000 0.000000 0.000000 
0.000000 0.000000 0.000000 

0.000000 -0.000000 0.000000 
0.000000 0.000000 0.000000 
0.000000 0.000000 0.000000 

-0.000000 -0.000000 0.000000 
0.000000 -0.000000 0.000000 
0.000000 0.000000 0.000000 

0.000000 0.000000 0.000000 
0.000000 0.000000 0.000000 
0.000000 0.000000 0.000000 

0.000000 0.000000 0.000000 
0.000000 -0.000000 0.000000 
0.000000 0.000000 0.000000 

0.000000 0.000000 0.000000 
0.000000 0.000000 0.000000 
0.000000 0.000000 0.000000 

-0.000000 -0.000000 0.000000 
0.000000 -0.000000 0.000000 
0.000000 0.000000 0.000000 

-0.000000 0.000000 0.000000 
0.000000 -0.000000 0.000000 
0.000000 0.000000 0.000000 

0.000000 0.000000 0.000000 
0.000000 0.000000 0.000000 
0.000000 0.000000 0.000000 

0.000000 -0.000000 0.000000 
0.000000 0.000000 0.000000 
0.000000 0.000000 0.000000 

0.000000 -0.000000 0.000000 
0.000000 -0.000000 0.000000 
0.000000 0.000000 0.000000 

0.000000 0.000000 0.000000 
0.000000 0.000000 0.000000 
0.000000 0.000000 0.000000 

-0.000000 0.000000 0.000000 
0.000000 -0.000000 0.000000 
0.000000 0.000000 0.000000 

-0.000000 0.000000 0.000000 
0.000000 0.000000 0.000000 
0.000000 0.000000 0.000000 

0.000000 -0.000000 0.000000 
0.000000 0.000000 0.000000 
0.000000 0.000000 0.000000 

0.000000 0.000000 0.000000 
0.000000 0.000000 0.000000 
0.000000 0.000000 0.000000 

0.000000 -0.000000 0.000000 
0.000000 0.000000 0.000000 
0.000000 0.000000 0.000000 

0.000000 0.000000 0.000000 
0.000000 -0.000000 0.000000 
0.000000 0.000000 0.000000 

0.000000 0.000000 0.000000 
0.000000 0.000000 0.000000 
0.000000 0.000000 0.000000 

0.000000 0.000000 0.000000 
0.000000 0.000000 0.000000 
0.000000 0.000000 0.000000 

-0.000000 0.000000 0.000000 
0.000000 0.000000 0.000000 
0.000000 0.000000 0.000000 

-0.000000 -0.000000 0.000000 
0.000000 0.000000 0.000000 
0.000000 0.000000 0.000000 

-0.000000 0.000000 0.000000 
0.000000 0.000000 0.000000 
0.000000 0.000000 0.000000 

-0.000000 -0.000000 0.000000 
0.000000 0.000000 0.000000 
0.000000 0.000000 0.000000 

0.000000 0.000000 0.000000 
0.000000 0.000000 0.000000 
0.000000 0.000000 0.000000 

-0.000000 0.000000 0.000000 
0.000000 0.000000 0.000000 
0.000000 0.000000 0.000000 

0.000000 0.000000 0.000000 
0.000000 0.000000 0.000000 
0.000000 0.000000 0.000000 

0.000000 0.000000 0.000000 
0.000000 -0.000000 0.000000 
0.000000 0.000000 0.000000 

0.000000 0.000000 0.000000 
0.000000 0.000000 0.000000 
0.000000 0.000000 0.000000 

-0.000000 0.000000 0.000000 
0.000000 0.000000 0.000000 
0.000000 0.000000 0.000000 

-0.000000 -0.000000 0.000000 
0.000000 -0.000000 0.000000 
0.000000 0.000000 0.000000 

0.000000 -0.000000 0.000000 
0.000000 0.000000 0.000000 
0.000000 0.000000 0.000000 

-0.000000 0.000000 0.000000 
0.000000 -0.000000 0.000000 
0.000000 0.000000 0.000000 

-0.000000 0.000000 0.000000 
0.000000 -0.000000 0.000000 
0.000000 0.000000 0.000000 

0.000000 -0.000000 0.000000 
0.000000 0.000000 0.000000 
0.000000 0.000000 0.000000 

0.000000 0.000000 0.000000 
0.000000 0.000000 0.000000 
0.000000 0.000000 0.000000 

-0.000000 0.000000 0.000000 
0.000000 -0.000000 0.000000 
0.000000 0.000000 0.000000 

0.000000 0.000000 0.000000 
0.000000 0.000000 0.000000 
0.000000 0.000000 0.000000 

-0.000000 -0.000000 0.000000 
0.000000 -0.000000 0.000000 
0.000000 0.000000 0.000000 

-0.000000 0.000000 0.000000 
0.000000 -0.000000 0.000000 
0.000000 0.000000 0.000000 

-0.000000 0.000000 0.000000 
0.000000 -0.000000 0.000000 
0.000000 0.000000 0.000000 

0.000000 -0.000000 0.000000 
0.000000 0.000000 0.000000 
0.000000 0.000000 0.000000 

0.000000 0.000000 0.000000 
0.000000 0.000000 0.000000 
0.000000 0.000000 0.000000 

0.000000 0.000000 0.000000 
0.000000 -0.000000 0.000000 
0.000000 0.000000 0.000000 

0.000000 -0.000000 0.000000 
0.000000 0.000000 0.000000 
0.000000 0.000000 0.000000 

-0.000000 0.000000 0.000000 
0.000000 -0.000000 0.000000 
0.000000 0.000000 0.000000 

-0.000000 -0.000000 0.000000 
0.000000 0.000000 0.000000 
0.000000 0.000000 0.000000 

0.000000 -0.000000 0.000000 
0.000000 0.000000 0.000000 
0.000000 0.000000 0.000000 

-0.000000 0.000000 0.000000 
0.000000 -0.000000 0.000000 
0.000000 0.000000 0.000000 

-0.000000 -0.000000 0.000000 
0.000000 -0.000000 0.000000 
0.000000 0.000000 0.000000 

0.000000 -0.000000 0.000000 
0.000000 0.000000 0.000000 
0.000000 0.000000 0.000000 

0.000000 0.000000 0.000000 
0.000000 0.000000 0.000000 
0.000000 0.000000 0.000000 

-0.000000 0.000000 0.000000 
0.000000 -0.000000 0.000000 
0.000000 0.000000 0.000000 

0.000000 0.000000 0.000000 
0.000000 0.000000 0.000000 
0.000000 0.000000 0.000000 

-0.000000 -0.000000 0.000000 
0.000000 -0.000000 0.000000 
0.000000 0.000000 0.000000 

0.000000 -0.000000 0.000000 
0.000000 0.000000 0.000000 
0.000000 0.000000 0.000000 

0.000000 0.000000 0.000000 
0.000000 0.000000 0.000000 
0.000000 0.000000 0.000000 

0.000000 -0.000000 0.000000 
0.000000 -0.000000 0.000000 
0.000000 0.000000 0.000000 

-0.000000 -0.000000 0.000000 
0.000000 -0.000000 0.000000 
0.000000 0.000000 0.000000 

-0.000000 -0.000000 0.000000 
0.000000 -0.000000 0.000000 
0.000000 0.000000 0.000000 

0.000000 0.000000 0.000000 
0.000000 0.000000 0.000000 
0.000000 0.000000 0.000000 

-0.000000 -0.000000 0.000000 
0.000000 -0.000000 0.000000 
0.000000 0.000000 0.000000 

-0.000000 -0.000000 0.000000 
0.000000 -0.000000 0.000000 
0.000000 0.000000 0.000000 

0.000000 0.000000 0.000000 
0.000000 0.000000 0.000000 
0.000000 0.000000 0.000000 

0.000000 0.000000 0.000000 
0.000000 -0.000000 0.000000 
0.000000 0.000000 0.000000 

0.000000 0.000000 0.000000 
0.000000 0.000000 0.000000 
0.000000 0.000000 0.000000 

-0.000000 0.000000 0.000000 
0.000000 -0.000000 0.000000 
0.000000 0.000000 0.000000 

0.000000 0.000000 0.000000 
0.000000 0.000000 0.000000 
0.000000 0.000000 0.000000 

0.000000 0.000000 0.000000 
0.000000 0.000000 0.000000 
0.000000 0.000000 0.000000 

-0.000000 0.000000 0.000000 
0.000000 0.000000 0.000000 
0.000000 0.000000 0.000000 

0.000000 0.000000 0.000000 
0.000000 0.000000 0.000000 
0.000000 0.000000 0.000000 

0.000000 0.000000 0.000000 
0.000000 0.000000 0.000000 
0.000000 0.000000 0.000000 

-0.000000 0.000000 0.000000 
0.000000 -0.000000 0.000000 
0.000000 0.000000 0.000000 

0.000000 0.000000 0.000000 
0.000000 -0.000000 0.000000 
0.000000 0.000000 0.000000 

0.000000 0.000000 0.000000 
0.000000 0.000000 0.000000 
0.000000 0.000000 0.000000 

0.000000 -0.000000 0.000000 
0.000000 0.000000 0.000000 
0.000000 0.000000 0.000000 

-0.000000 -0.000000 0.000000 
0.000000 -0.000000 0.000000 
0.000000 0.000000 0.000000 

0.000000 0.000000 0.000000 
0.000000 0.000000 0.000000 
0.000000 0.000000 0.000000 

0.000000 0.000000 0.000000 
0.000000 0.000000 0.000000 
0.000000 0.000000 0.000000 

-0.000000 0.000000 0.000000 
0.000000 -0.000000 0.000000 
0.000000 0.000000 0.000000 

-0.000000 0.000000 0.000000 
0.000000 -0.000000 0.000000 
0.000000 0.000000 0.000000 

0.000000 0.000000 0.000000 
0.000000 0.000000 0.000000 
0.000000 0.000000 0.000000 

-0.000000 0.000000 0.000000 
0.000000 -0.000000 0.000000 
0.000000 0.000000 0.000000 

0.000000 -0.000000 0.000000 
0.000000 0.000000 0.000000 
0.000000 0.000000 0.000000 

0.000000 -0.000000 0.000000 
0.000000 -0.000000 0.000000 
0.000000 0.000000 0.000000 

-0.000000 -0.000000 0.000000 
0.000000 -0.000000 0.000000 
0.000000 0.000000 0.000000 

0.000000 -0.000000 0.000000 
0.000000 -0.000000 0.000000 
0.000000 0.000000 0.000000 

-0.000000 -0.000000 0.000000 
0.000000 -0.000000 0.000000 
0.000000 0.000000 0.000000 

-0.000000 -0.000000 0.000000 
0.000000 -0.000000 0.000000 
0.000000 0.000000 0.000000 

-0.000000 -0.000000 0.000000 
0.000000 0.000000 0.000000 
0.000000 0.000000 0.000000 

-0.000000 -0.000000 0.000000 
0.000000 0.000000 0.000000 
0.000000 0.000000 0.000000 

-0.000000 0.000000 0.000000 
0.000000 -0.000000 0.000000 
0.000000 0.000000 0.000000 

-0.000000 0.000000 0.000000 
0.000000 -0.000000 0.000000 
0.000000 0.000000 0.000000 

0.000000 0.000000 0.000000 
0.000000 -0.000000 0.000000 
0.000000 0.000000 0.000000 

0.000000 0.000000 0.000000 
0.000000 0.000000 0.000000 
0.000000 0.000000 0.000000 

0.000000 0.000000 0.000000 
0.000000 -0.000000 0.000000 
0.000000 0.000000 0.000000 

-0.000000 -0.000000 0.000000 
0.000000 -0.000000 0.000000 
0.000000 0.000000 0.000000 

-0.000000 -0.000000 0.000000 
0.000000 -0.000000 0.000000 
0.000000 0.000000 0.000000 

TENSORS STRAIN float 
0.000000 0.000000 0.000000 
0.000000 -0.000000 0.000000 
0.000000 0.000000 0.000000 

0.000000 0.000000 0.000000 
0.000000 0.000000 0.000000 
0.000000 0.000000 0.000000 

0.000000 -0.000000 0.000000 
0.000000 0.000000 0.000000 
0.000000 0.000000 0.000000 

0.000000 -0.000000 0.000000 
0.000000 -0.000000 0.000000 
0.000000 0.000000 0.000000 

0.000000 0.000000 0.000000 
0.000000 -0.000000 0.000000 
0.000000 0.000000 0.000000 

-0.000000 0.000000 0.000000 
0.000000 0.000000 0.000000 
0.000000 0.000000 0.000000 

-0.000000 -0.000000 0.000000 
0.000000 -0.000000 0.000000 
0.000000 0.000000 0.000000 

-0.000000 -0.000000 0.000000 
0.000000 -0.000000 0.000000 
0.000000 0.000000 0.000000 

0.000000 0.000000 0.000000 
0.000000 -0.000000 0.000000 
0.000000 0.000000 0.000000 

0.000000 0.000000 0.000000 
0.000000 0.000000 0.000000 
0.000000 0.000000 0.000000 

-0.000000 -0.000000 0.000000 
0.000000 0.000000 0.000000 
0.000000 0.000000 0.000000 

-0.000000 -0.000000 0.000000 
0.000000 -0.000000 0.000000 
0.000000 0.000000 0.000000 

-0.000000 -0.000000 0.000000 
0.000000 0.000000 0.000000 
0.000000 0.000000 0.000000 

0.000000 -0.000000 0.000000 
0.000000 -0.000000 0.000000 
0.000000 0.000000 0.000000 

0.000000 -0.000000 0.000000 
0.000000 -0.000000 0.000000 
0.000000 0.000000 0.000000 

0.000000 0.000000 0.000000 
0.000000 -0.000000 0.000000 
0.000000 0.000000 0.000000 

0.000000 -0.000000 0.000000 
0.000000 -0.000000 0.000000 
0.000000 0.000000 0.000000 

0.000000 -0.000000 0.000000 
0.000000 -0.000000 0.000000 
0.000000 0.000000 0.000000 

-0.000000 0.000000 0.000000 
0.000000 -0.000000 0.000000 
0.000000 0.000000 0.000000 

0.000000 -0.000000 0.000000 
0.000000 -0.000000 0.000000 
0.000000 0.000000 0.000000 

0.000000 0.000000 0.000000 
0.000000 0.000000 0.000000 
0.000000 0.000000 0.000000 

0.000000 -0.000000 0.000000 
0.000000 0.000000 0.000000 
0.000000 0.000000 0.000000 

0.000000 0.000000 0.000000 
0.000000 -0.000000 0.000000 
0.000000 0.000000 0.000000 

-0.000000 0.000000 0.000000 
0.000000 -0.000000 0.000000 
0.000000 0.000000 0.000000 

-0.000000 0.000000 0.000000 
0.000000 0.000000 0.000000 
0.000000 0.000000 0.000000 

-0.000000 0.000000 0.000000 
0.000000 0.000000 0.000000 
0.000000 0.000000 0.000000 

0.000000 -0.000000 0.000000 
0.000000 0.000000 0.000000 
0.000000 0.000000 0.000000 

0.000000 -0.000000 0.000000 
0.000000 0.000000 0.000000 
0.000000 0.000000 0.000000 

0.000000 -0.000000 0.000000 
0.000000 -0.000000 0.000000 
0.000000 0.000000 0.000000 

0.000000 0.000000 0.000000 
0.000000 0.000000 0.000000 
0.000000 0.000000 0.000000 

0.000000 -0.000000 0.000000 
0.000000 0.000000 0.000000 
0.000000 0.000000 0.000000 

0.000000 0.000000 0.000000 
0.000000 -0.000000 0.000000 
0.000000 0.000000 0.000000 

0.000000 -0.000000 0.000000 
0.000000 0.000000 0.000000 
0.000000 0.000000 0.000000 

0.000000 0.000000 0.000000 
0.000000 -0.000000 0.000000 
0.000000 0.000000 0.000000 

-0.000000 -0.000000 0.000000 
0.000000 -0.000000 0.000000 
0.000000 0.000000 0.000000 

0.000000 0.000000 0.000000 
0.000000 -0.000000 0.000000 
0.000000 0.000000 0.000000 

0.000000 -0.000000 0.000000 
0.000000 -0.000000 0.000000 
0.000000 0.000000 0.000000 

0.000000 0.000000 0.000000 
0.000000 -0.000000 0.000000 
0.000000 0.000000 0.000000 

-0.000000 0.000000 0.000000 
0.000000 0.000000 0.000000 
0.000000 0.000000 0.000000 

0.000000 0.000000 0.000000 
0.000000 0.000000 0.000000 
0.000000 0.000000 0.000000 

0.000000 0.000000 0.000000 
0.000000 0.000000 0.000000 
0.000000 0.000000 0.000000 

0.000000 0.000000 0.000000 
0.000000 0.000000 0.000000 
0.000000 0.000000 0.000000 

0.000000 -0.000000 0.000000 
0.000000 -0.000000 0.000000 
0.000000 0.000000 0.000000 

-0.000000 -0.000000 0.000000 
0.000000 -0.000000 0.000000 
0.000000 0.000000 0.000000 

-0.000000 0.000000 0.000000 
0.000000 0.000000 0.000000 
0.000000 0.000000 0.000000 

-0.000000 -0.000000 0.000000 
0.000000 0.000000 0.000000 
0.000000 0.000000 0.000000 

0.000000 -0.000000 0.000000 
0.000000 0.000000 0.000000 
0.000000 0.000000 0.000000 

0.000000 -0.000000 0.000000 
0.000000 -0.000000 0.000000 
0.000000 0.000000 0.000000 

0.000000 0.000000 0.000000 
0.000000 0.000000 0.000000 
0.000000 0.000000 0.000000 

0.000000 0.000000 0.000000 
0.000000 0.000000 0.000000 
0.000000 0.000000 0.000000 

-0.000000 0.000000 0.000000 
0.000000 0.000000 0.000000 
0.000000 0.000000 0.000000 

0.000000 0.000000 0.000000 
0.000000 -0.000000 0.000000 
0.000000 0.000000 0.000000 

0.000000 0.000000 0.000000 
0.000000 0.000000 0.000000 
0.000000 0.000000 0.000000 

0.000000 0.000000 0.000000 
0.000000 0.000000 0.000000 
0.000000 0.000000 0.000000 

0.000000 -0.000000 0.000000 
0.000000 -0.000000 0.000000 
0.000000 0.000000 0.000000 

0.000000 -0.000000 0.000000 
0.000000 -0.000000 0.000000 
0.000000 0.000000 0.000000 

0.000000 0.000000 0.000000 
0.000000 0.000000 0.000000 
0.000000 0.000000 0.000000 

0.000000 0.000000 0.000000 
0.000000 0.000000 0.000000 
0.000000 0.000000 0.000000 

-0.000000 0.000000 0.000000 
0.000000 0.000000 0.000000 
0.000000 0.000000 0.000000 

-0.000000 -0.000000 0.000000 
0.000000 0.000000 0.000000 
0.000000 0.000000 0.000000 

-0.000000 -0.000000 0.000000 
0.000000 0.000000 0.000000 
0.000000 0.000000 0.000000 

-0.000000 0.000000 0.000000 
0.000000 0.000000 0.000000 
0.000000 0.000000 0.000000 

-0.000000 0.000000 0.000000 
0.000000 -0.000000 0.000000 
0.000000 0.000000 0.000000 

-0.000000 -0.000000 0.000000 
0.000000 0.000000 0.000000 
0.000000 0.000000 0.000000 

-0.000000 0.000000 0.000000 
0.000000 -0.000000 0.000000 
0.000000 0.000000 0.000000 

-0.000000 0.000000 0.000000 
0.000000 -0.000000 0.000000 
0.000000 0.000000 0.000000 

-0.000000 0.000000 0.000000 
0.000000 -0.000000 0.000000 
0.000000 0.000000 0.000000 

-0.000000 0.000000 0.000000 
0.000000 0.000000 0.000000 
0.000000 0.000000 0.000000 

-0.000000 -0.000000 0.000000 
0.000000 -0.000000 0.000000 
0.000000 0.000000 0.000000 

-0.000000 0.000000 0.000000 
0.000000 0.000000 0.000000 
0.000000 0.000000 0.000000 

-0.000000 0.000000 0.000000 
0.000000 0.000000 0.000000 
0.000000 0.000000 0.000000 

-0.000000 -0.000000 0.000000 
0.000000 -0.000000 0.000000 
0.000000 0.000000 0.000000 

-0.000000 -0.000000 0.000000 
0.000000 0.000000 0.000000 
0.000000 0.000000 0.000000 

-0.000000 -0.000000 0.000000 
0.000000 -0.000000 0.000000 
0.000000 0.000000 0.000000 

-0.000000 -0.000000 0.000000 
0.000000 0.000000 0.000000 
0.000000 0.000000 0.000000 

-0.000000 -0.000000 0.000000 
0.000000 0.000000 0.000000 
0.000000 0.000000 0.000000 

-0.000000 -0.000000 0.000000 
0.000000 -0.000000 0.000000 
0.000000 0.000000 0.000000 

0.000000 -0.000000 0.000000 
0.000000 0.000000 0.000000 
0.000000 0.000000 0.000000 

-0.000000 -0.000000 0.000000 
0.000000 0.000000 0.000000 
0.000000 0.000000 0.000000 

-0.000000 -0.000000 0.000000 
0.000000 -0.000000 0.000000 
0.000000 0.000000 0.000000 

0.000000 0.000000 0.000000 
0.000000 0.000000 0.000000 
0.000000 0.000000 0.000000 

0.000000 0.000000 0.000000 
0.000000 -0.000000 0.000000 
0.000000 0.000000 0.000000 

0.000000 0.000000 0.000000 
0.000000 0.000000 0.000000 
0.000000 0.000000 0.000000 

0.000000 -0.000000 0.000000 
0.000000 -0.000000 0.000000 
0.000000 0.000000 0.000000 

-0.000000 0.000000 0.000000 
0.000000 -0.000000 0.000000 
0.000000 0.000000 0.000000 

-0.000000 0.000000 0.000000 
0.000000 0.000000 0.000000 
0.000000 0.000000 0.000000 

0.000000 -0.000000 0.000000 
0.000000 0.000000 0.000000 
0.000000 0.000000 0.000000 

0.000000 -0.000000 0.000000 
0.000000 -0.000000 0.000000 
0.000000 0.000000 0.000000 

0.000000 0.000000 0.000000 
0.000000 -0.000000 0.000000 
0.000000 0.000000 0.000000 

-0.000000 0.000000 0.000000 
0.000000 -0.000000 0.000000 
0.000000 0.000000 0.000000 

-0.000000 0.000000 0.000000 
0.000000 0.000000 0.000000 
0.000000 0.000000 0.000000 

0.000000 -0.000000 0.000000 
0.000000 0.000000 0.000000 
0.000000 0.000000 0.000000 

0.000000 0.000000 0.000000 
0.000000 0.000000 0.000000 
0.000000 0.000000 0.000000 

0.000000 -0.000000 0.000000 
0.000000 -0.000000 0.000000 
0.000000 0.000000 0.000000 

0.000000 0.000000 0.000000 
0.000000 -0.000000 0.000000 
0.000000 0.000000 0.000000 

0.000000 0.000000 0.000000 
0.000000 0.000000 0.000000 
0.000000 0.000000 0.000000 

0.000000 0.000000 0.000000 
0.000000 -0.000000 0.000000 
0.000000 0.000000 0.000000 

-0.000000 0.000000 0.000000 
0.000000 0.000000 0.000000 
0.000000 0.000000 0.000000 

-0.000000 -0.000000 0.000000 
0.000000 0.000000 0.000000 
0.000000 0.000000 0.000000 

-0.000000 0.000000 0.000000 
0.000000 0.000000 0.000000 
0.000000 0.000000 0.000000 

-0.000000 -0.000000 0.000000 
0.000000 0.000000 0.000000 
0.000000 0.000000 0.000000 

0.000000 0.000000 0.000000 
0.000000 0.000000 0.000000 
0.000000 0.000000 0.000000 

-0.000000 0.000000 0.000000 
0.000000 0.000000 0.000000 
0.000000 0.000000 0.000000 

-0.000000 0.000000 0.000000 
0.000000 0.000000 0.000000 
0.000000 0.000000 0.000000 

0.000000 0.000000 0.000000 
0.000000 -0.000000 0.000000 
0.000000 0.000000 0.000000 

-0.000000 0.000000 0.000000 
0.000000 0.000000 0.000000 
0.000000 0.000000 0.000000 

-0.000000 0.000000 0.000000 
0.000000 0.000000 0.000000 
0.000000 0.000000 0.000000 

-0.000000 -0.000000 0.000000 
0.000000 -0.000000 0.000000 
0.000000 0.000000 0.000000 

-0.000000 -0.000000 0.000000 
0.000000 0.000000 0.000000 
0.000000 0.000000 0.000000 

0.000000 0.000000 0.000000 
0.000000 -0.000000 0.000000 
0.000000 0.000000 0.000000 

0.000000 0.000000 0.000000 
0.000000 -0.000000 0.000000 
0.000000 0.000000 0.000000 

0.000000 -0.000000 0.000000 
0.000000 -0.000000 0.000000 
0.000000 0.000000 0.000000 

0.000000 0.000000 0.000000 
0.000000 0.000000 0.000000 
0.000000 0.000000 0.000000 

0.000000 0.000000 0.000000 
0.000000 -0.000000 0.000000 
0.000000 0.000000 0.000000 

-0.000000 0.000000 0.000000 
0.000000 0.000000 0.000000 
0.000000 0.000000 0.000000 

-0.000000 -0.000000 0.000000 
0.000000 -0.000000 0.000000 
0.000000 0.000000 0.000000 

-0.000000 0.000000 0.000000 
0.000000 -0.000000 0.000000 
0.000000 0.000000 0.000000 

-0.000000 0.000000 0.000000 
0.000000 -0.000000 0.000000 
0.000000 0.000000 0.000000 

0.000000 -0.000000 0.000000 
0.000000 0.000000 0.000000 
0.000000 0.000000 0.000000 

-0.000000 0.000000 0.000000 
0.000000 0.000000 0.000000 
0.000000 0.000000 0.000000 

0.000000 0.000000 0.000000 
0.000000 -0.000000 0.000000 
0.000000 0.000000 0.000000 

-0.000000 -0.000000 0.000000 
0.000000 0.000000 0.000000 
0.000000 0.000000 0.000000 

-0.000000 0.000000 0.000000 
0.000000 -0.000000 0.000000 
0.000000 0.000000 0.000000 

-0.000000 -0.000000 0.000000 
0.000000 0.000000 0.000000 
0.000000 0.000000 0.000000 

0.000000 -0.000000 0.000000 
0.000000 0.000000 0.000000 
0.000000 0.000000 0.000000 

-0.000000 0.000000 0.000000 
0.000000 -0.000000 0.000000 
0.000000 0.000000 0.000000 

-0.000000 -0.000000 0.000000 
0.000000 -0.000000 0.000000 
0.000000 0.000000 0.000000 

0.000000 -0.000000 0.000000 
0.000000 0.000000 0.000000 
0.000000 0.000000 0.000000 

0.000000 0.000000 0.000000 
0.000000 0.000000 0.000000 
0.000000 0.000000 0.000000 

0.000000 0.000000 0.000000 
0.000000 -0.000000 0.000000 
0.000000 0.000000 0.000000 

0.000000 0.000000 0.000000 
0.000000 0.000000 0.000000 
0.000000 0.000000 0.000000 

-0.000000 -0.000000 0.000000 
0.000000 -0.000000 0.000000 
0.000000 0.000000 0.000000 

-0.000000 -0.000000 0.000000 
0.000000 0.000000 0.000000 
0.000000 0.000000 0.000000 

0.000000 0.000000 0.000000 
0.000000 0.000000 0.000000 
0.000000 0.000000 0.000000 

0.000000 -0.000000 0.000000 
0.000000 -0.000000 0.000000 
0.000000 0.000000 0.000000 

0.000000 -0.000000 0.000000 
0.000000 -0.000000 0.000000 
0.000000 0.000000 0.000000 

0.000000 -0.000000 0.000000 
0.000000 -0.000000 0.000000 
0.000000 0.000000 0.000000 

-0.000000 0.000000 0.000000 
0.000000 0.000000 0.000000 
0.000000 0.000000 0.000000 

-0.000000 -0.000000 0.000000 
0.000000 -0.000000 0.000000 
0.000000 0.000000 0.000000 

0.000000 -0.000000 0.000000 
0.000000 -0.000000 0.000000 
0.000000 0.000000 0.000000 

0.000000 0.000000 0.000000 
0.000000 -0.000000 0.000000 
0.000000 0.000000 0.000000 

0.000000 0.000000 0.000000 
0.000000 -0.000000 0.000000 
0.000000 0.000000 0.000000 

0.000000 0.000000 0.000000 
0.000000 0.000000 0.000000 
0.000000 0.000000 0.000000 

-0.000000 0.000000 0.000000 
0.000000 -0.000000 0.000000 
0.000000 0.000000 0.000000 

0.000000 0.000000 0.000000 
0.000000 0.000000 0.000000 
0.000000 0.000000 0.000000 

-0.000000 0.000000 0.000000 
0.000000 0.000000 0.000000 
0.000000 0.000000 0.000000 

-0.000000 0.000000 0.000000 
0.000000 0.000000 0.000000 
0.000000 0.000000 0.000000 

-0.000000 0.000000 0.000000 
0.000000 0.000000 0.000000 
0.000000 0.000000 0.000000 

-0.000000 0.000000 0.000000 
0.000000 0.000000 0.000000 
0.000000 0.000000 0.000000 

-0.000000 0.000000 0.000000 
0.000000 -0.000000 0.000000 
0.000000 0.000000 0.000000 

0.000000 0.000000 0.000000 
0.000000 -0.000000 0.000000 
0.000000 0.000000 0.000000 

0.000000 0.000000 0.000000 
0.000000 0.000000 0.000000 
0.000000 0.000000 0.000000 

0.000000 -0.000000 0.000000 
0.000000 0.000000 0.000000 
0.000000 0.000000 0.000000 

-0.000000 -0.000000 0.000000 
0.000000 -0.000000 0.000000 
0.000000 0.000000 0.000000 

0.000000 0.000000 0.000000 
0.000000 0.000000 0.000000 
0.000000 0.000000 0.000000 

-0.000000 0.000000 0.000000 
0.000000 0.000000 0.000000 
0.000000 0.000000 0.000000 

-0.000000 0.000000 0.000000 
0.000000 -0.000000 0.000000 
0.000000 0.000000 0.000000 

-0.000000 0.000000 0.000000 
0.000000 0.000000 0.000000 
0.000000 0.000000 0.000000 

-0.000000 0.000000 0.000000 
0.000000 0.000000 0.000000 
0.000000 0.000000 0.000000 

0.000000 0.000000 0.000000 
0.000000 -0.000000 0.000000 
0.000000 0.000000 0.000000 

0.000000 -0.000000 0.000000 
0.000000 0.000000 0.000000 
0.000000 0.000000 0.000000 

0.000000 -0.000000 0.000000 
0.000000 -0.000000 0.000000 
0.000000 0.000000 0.000000 

0.000000 -0.000000 0.000000 
0.000000 -0.000000 0.000000 
0.000000 0.000000 0.000000 

0.000000 -0.000000 0.000000 
0.000000 -0.000000 0.000000 
0.000000 0.000000 0.000000 

-0.000000 -0.000000 0.000000 
0.000000 -0.000000 0.000000 
0.000000 0.000000 0.000000 

0.000000 -0.000000 0.000000 
0.000000 -0.000000 0.000000 
0.000000 0.000000 0.000000 

-0.000000 -0.000000 0.000000 
0.000000 0.000000 0.000000 
0.000000 0.000000 0.000000 

-0.000000 -0.000000 0.000000 
0.000000 0.000000 0.000000 
0.000000 0.000000 0.000000 

0.000000 0.000000 0.000000 
0.000000 -0.000000 0.000000 
0.000000 0.000000 0.000000 

0.000000 0.000000 0.000000 
0.000000 -0.000000 0.000000 
0.000000 0.000000 0.000000 

0.000000 0.000000 0.000000 
0.000000 -0.000000 0.000000 
0.000000 0.000000 0.000000 

0.000000 0.000000 0.000000 
0.000000 0.000000 0.000000 
0.000000 0.000000 0.000000 

0.000000 0.000000 0.000000 
0.000000 -0.000000 0.000000 
0.000000 0.000000 0.000000 

0.000000 -0.000000 0.000000 
0.000000 -0.000000 0.000000 
0.000000 0.000000 0.000000 

0.000000 -0.000000 0.000000 
0.000000 -0.000000 0.000000 
0.000000 0.000000 0.000000 

