# vtk DataFile Version 3.0 
vtk output 
ASCII 
DATASET UNSTRUCTURED_GRID 
POINTS 175 float 
-0.026061 -0.072774 0.000000 
-0.106992 -0.004718 0.000000 
-0.054870 -0.012951 0.000000 
-0.028809 0.032933 0.000000 
-0.186430 0.059357 0.000000 
-0.137056 0.056831 0.000000 
-0.114311 0.110478 0.000000 
-0.058186 0.094813 0.000000 
-0.029377 0.134990 0.000000 
-0.265318 0.122513 0.000000 
-0.217198 0.121713 0.000000 
-0.196633 0.179010 0.000000 
-0.143120 0.170301 0.000000 
-0.116563 0.217570 0.000000 
-0.058945 0.197924 0.000000 
-0.029568 0.236044 0.000000 
-0.344206 0.185669 0.000000 
-0.296791 0.185676 0.000000 
-0.278030 0.245619 0.000000 
-0.225992 0.239753 0.000000 
-0.201664 0.291870 0.000000 
-0.145749 0.278396 0.000000 
-0.117890 0.322738 0.000000 
-0.059328 0.300032 0.000000 
-0.029759 0.337098 0.000000 
-0.058559 -0.113524 0.000000 
-0.162226 -0.134367 0.000000 
-0.123292 -0.098749 0.000000 
-0.142917 -0.049766 0.000000 
-0.261851 -0.156523 0.000000 
-0.229092 -0.119496 0.000000 
-0.256854 -0.068265 0.000000 
-0.209613 -0.034152 0.000000 
-0.223062 0.013422 0.000000 
-0.360414 -0.178824 0.000000 
-0.329787 -0.141701 0.000000 
-0.361761 -0.089899 0.000000 
-0.321587 -0.053490 0.000000 
-0.341985 -0.003256 0.000000 
-0.290702 0.029543 0.000000 
-0.302189 0.076278 0.000000 
-0.458977 -0.201124 0.000000 
-0.429420 -0.164049 0.000000 
-0.464588 -0.112007 0.000000 
-0.427556 -0.074980 0.000000 
-0.453135 -0.023465 0.000000 
-0.407738 0.011850 0.000000 
-0.425037 0.061278 0.000000 
-0.370772 0.092908 0.000000 
-0.381315 0.139135 0.000000 
-0.046960 -0.164340 0.000000 
-0.095301 -0.258385 0.000000 
-0.098873 -0.205738 0.000000 
-0.149405 -0.190541 0.000000 
-0.140093 -0.350089 0.000000 
-0.148617 -0.301391 0.000000 
-0.205981 -0.291154 0.000000 
-0.203197 -0.232951 0.000000 
-0.248777 -0.213804 0.000000 
-0.184111 -0.441053 0.000000 
-0.194039 -0.393962 0.000000 
-0.254475 -0.386662 0.000000 
-0.257893 -0.332553 0.000000 
-0.309886 -0.317180 0.000000 
-0.303554 -0.256635 0.000000 
-0.347255 -0.236477 0.000000 
-0.228129 -0.532017 0.000000 
-0.238687 -0.485792 0.000000 
-0.301302 -0.480840 0.000000 
-0.307162 -0.428801 0.000000 
-0.363386 -0.416680 0.000000 
-0.362692 -0.359169 0.000000 
-0.412122 -0.341876 0.000000 
-0.403017 -0.279729 0.000000 
-0.445733 -0.259150 0.000000 
-0.000000 -0.186955 0.000000 
0.043388 -0.283385 0.000000 
-0.000000 -0.253353 0.000000 
-0.043388 -0.283385 0.000000 
0.087158 -0.375582 0.000000 
0.043769 -0.351883 0.000000 
-0.000000 -0.390349 0.000000 
-0.043769 -0.351883 0.000000 
-0.087158 -0.375582 0.000000 
0.130831 -0.466711 0.000000 
0.087824 -0.445113 0.000000 
0.044436 -0.487812 0.000000 
-0.000000 -0.456747 0.000000 
-0.044436 -0.487812 0.000000 
-0.087824 -0.445113 0.000000 
-0.130831 -0.466711 0.000000 
0.174505 -0.557841 0.000000 
0.131782 -0.537275 0.000000 
0.088871 -0.583142 0.000000 
0.044532 -0.555278 0.000000 
-0.000000 -0.591678 0.000000 
-0.044532 -0.555278 0.000000 
-0.088871 -0.583142 0.000000 
-0.131782 -0.537275 0.000000 
-0.174505 -0.557841 0.000000 
0.046960 -0.164340 0.000000 
0.149405 -0.190541 0.000000 
0.098873 -0.205738 0.000000 
0.095301 -0.258385 0.000000 
0.248777 -0.213804 0.000000 
0.203197 -0.232951 0.000000 
0.205981 -0.291154 0.000000 
0.148617 -0.301391 0.000000 
0.140093 -0.350089 0.000000 
0.347255 -0.236477 0.000000 
0.303554 -0.256635 0.000000 
0.309886 -0.317180 0.000000 
0.257893 -0.332553 0.000000 
0.254475 -0.386662 0.000000 
0.194039 -0.393962 0.000000 
0.184111 -0.441053 0.000000 
0.445733 -0.259150 0.000000 
0.403017 -0.279729 0.000000 
0.412122 -0.341876 0.000000 
0.362692 -0.359169 0.000000 
0.363386 -0.416680 0.000000 
0.307162 -0.428801 0.000000 
0.301302 -0.480840 0.000000 
0.238687 -0.485792 0.000000 
0.228129 -0.532017 0.000000 
0.058559 -0.113524 0.000000 
0.142917 -0.049766 0.000000 
0.123292 -0.098749 0.000000 
0.162226 -0.134367 0.000000 
0.223062 0.013422 0.000000 
0.209613 -0.034152 0.000000 
0.256854 -0.068265 0.000000 
0.229092 -0.119496 0.000000 
0.261851 -0.156523 0.000000 
0.302189 0.076278 0.000000 
0.290702 0.029543 0.000000 
0.341985 -0.003256 0.000000 
0.321587 -0.053490 0.000000 
0.361761 -0.089899 0.000000 
0.329787 -0.141701 0.000000 
0.360414 -0.178824 0.000000 
0.381315 0.139135 0.000000 
0.370772 0.092908 0.000000 
0.425037 0.061278 0.000000 
0.407738 0.011850 0.000000 
0.453135 -0.023465 0.000000 
0.427556 -0.074980 0.000000 
0.464588 -0.112007 0.000000 
0.429420 -0.164049 0.000000 
0.458977 -0.201124 0.000000 
0.026061 -0.072774 0.000000 
0.028809 0.032933 0.000000 
0.054870 -0.012951 0.000000 
0.106992 -0.004718 0.000000 
0.029377 0.134990 0.000000 
0.058186 0.094813 0.000000 
0.114311 0.110478 0.000000 
0.137056 0.056831 0.000000 
0.186430 0.059357 0.000000 
0.029568 0.236044 0.000000 
0.058945 0.197924 0.000000 
0.116563 0.217570 0.000000 
0.143120 0.170301 0.000000 
0.196633 0.179010 0.000000 
0.217198 0.121713 0.000000 
0.265318 0.122513 0.000000 
0.029759 0.337098 0.000000 
0.059328 0.300032 0.000000 
0.117890 0.322738 0.000000 
0.145749 0.278396 0.000000 
0.201664 0.291870 0.000000 
0.225992 0.239753 0.000000 
0.278030 0.245619 0.000000 
0.296791 0.185676 0.000000 
0.344206 0.185669 0.000000 
CELLS 175 350 
1 0 
1 1 
1 2 
1 3 
1 4 
1 5 
1 6 
1 7 
1 8 
1 9 
1 10 
1 11 
1 12 
1 13 
1 14 
1 15 
1 16 
1 17 
1 18 
1 19 
1 20 
1 21 
1 22 
1 23 
1 24 
1 25 
1 26 
1 27 
1 28 
1 29 
1 30 
1 31 
1 32 
1 33 
1 34 
1 35 
1 36 
1 37 
1 38 
1 39 
1 40 
1 41 
1 42 
1 43 
1 44 
1 45 
1 46 
1 47 
1 48 
1 49 
1 50 
1 51 
1 52 
1 53 
1 54 
1 55 
1 56 
1 57 
1 58 
1 59 
1 60 
1 61 
1 62 
1 63 
1 64 
1 65 
1 66 
1 67 
1 68 
1 69 
1 70 
1 71 
1 72 
1 73 
1 74 
1 75 
1 76 
1 77 
1 78 
1 79 
1 80 
1 81 
1 82 
1 83 
1 84 
1 85 
1 86 
1 87 
1 88 
1 89 
1 90 
1 91 
1 92 
1 93 
1 94 
1 95 
1 96 
1 97 
1 98 
1 99 
1 100 
1 101 
1 102 
1 103 
1 104 
1 105 
1 106 
1 107 
1 108 
1 109 
1 110 
1 111 
1 112 
1 113 
1 114 
1 115 
1 116 
1 117 
1 118 
1 119 
1 120 
1 121 
1 122 
1 123 
1 124 
1 125 
1 126 
1 127 
1 128 
1 129 
1 130 
1 131 
1 132 
1 133 
1 134 
1 135 
1 136 
1 137 
1 138 
1 139 
1 140 
1 141 
1 142 
1 143 
1 144 
1 145 
1 146 
1 147 
1 148 
1 149 
1 150 
1 151 
1 152 
1 153 
1 154 
1 155 
1 156 
1 157 
1 158 
1 159 
1 160 
1 161 
1 162 
1 163 
1 164 
1 165 
1 166 
1 167 
1 168 
1 169 
1 170 
1 171 
1 172 
1 173 
1 174 
CELL_TYPES 175 
1 
1 
1 
1 
1 
1 
1 
1 
1 
1 
1 
1 
1 
1 
1 
1 
1 
1 
1 
1 
1 
1 
1 
1 
1 
1 
1 
1 
1 
1 
1 
1 
1 
1 
1 
1 
1 
1 
1 
1 
1 
1 
1 
1 
1 
1 
1 
1 
1 
1 
1 
1 
1 
1 
1 
1 
1 
1 
1 
1 
1 
1 
1 
1 
1 
1 
1 
1 
1 
1 
1 
1 
1 
1 
1 
1 
1 
1 
1 
1 
1 
1 
1 
1 
1 
1 
1 
1 
1 
1 
1 
1 
1 
1 
1 
1 
1 
1 
1 
1 
1 
1 
1 
1 
1 
1 
1 
1 
1 
1 
1 
1 
1 
1 
1 
1 
1 
1 
1 
1 
1 
1 
1 
1 
1 
1 
1 
1 
1 
1 
1 
1 
1 
1 
1 
1 
1 
1 
1 
1 
1 
1 
1 
1 
1 
1 
1 
1 
1 
1 
1 
1 
1 
1 
1 
1 
1 
1 
1 
1 
1 
1 
1 
1 
1 
1 
1 
1 
1 
1 
1 
1 
1 
1 
1 
POINT_DATA 175 
VECTORS X_GC float 
-0.026061 -0.072774 0.000000 
-0.106992 -0.004718 0.000000 
-0.054870 -0.012951 0.000000 
-0.028809 0.032933 0.000000 
-0.186430 0.059357 0.000000 
-0.137056 0.056831 0.000000 
-0.114311 0.110478 0.000000 
-0.058186 0.094813 0.000000 
-0.029377 0.134990 0.000000 
-0.265318 0.122513 0.000000 
-0.217198 0.121713 0.000000 
-0.196633 0.179010 0.000000 
-0.143120 0.170301 0.000000 
-0.116563 0.217570 0.000000 
-0.058945 0.197924 0.000000 
-0.029568 0.236044 0.000000 
-0.344206 0.185669 0.000000 
-0.296791 0.185676 0.000000 
-0.278030 0.245619 0.000000 
-0.225992 0.239753 0.000000 
-0.201664 0.291870 0.000000 
-0.145749 0.278396 0.000000 
-0.117890 0.322738 0.000000 
-0.059328 0.300032 0.000000 
-0.029759 0.337098 0.000000 
-0.058559 -0.113524 0.000000 
-0.162226 -0.134367 0.000000 
-0.123292 -0.098749 0.000000 
-0.142917 -0.049766 0.000000 
-0.261851 -0.156523 0.000000 
-0.229092 -0.119496 0.000000 
-0.256854 -0.068265 0.000000 
-0.209613 -0.034152 0.000000 
-0.223062 0.013422 0.000000 
-0.360414 -0.178824 0.000000 
-0.329787 -0.141701 0.000000 
-0.361761 -0.089899 0.000000 
-0.321587 -0.053490 0.000000 
-0.341985 -0.003256 0.000000 
-0.290702 0.029543 0.000000 
-0.302189 0.076278 0.000000 
-0.458977 -0.201124 0.000000 
-0.429420 -0.164049 0.000000 
-0.464588 -0.112007 0.000000 
-0.427556 -0.074980 0.000000 
-0.453135 -0.023465 0.000000 
-0.407738 0.011850 0.000000 
-0.425037 0.061278 0.000000 
-0.370772 0.092908 0.000000 
-0.381315 0.139135 0.000000 
-0.046960 -0.164340 0.000000 
-0.095301 -0.258385 0.000000 
-0.098873 -0.205738 0.000000 
-0.149405 -0.190541 0.000000 
-0.140093 -0.350089 0.000000 
-0.148617 -0.301391 0.000000 
-0.205981 -0.291154 0.000000 
-0.203197 -0.232951 0.000000 
-0.248777 -0.213804 0.000000 
-0.184111 -0.441053 0.000000 
-0.194039 -0.393962 0.000000 
-0.254475 -0.386662 0.000000 
-0.257893 -0.332553 0.000000 
-0.309886 -0.317180 0.000000 
-0.303554 -0.256635 0.000000 
-0.347255 -0.236477 0.000000 
-0.228129 -0.532017 0.000000 
-0.238687 -0.485792 0.000000 
-0.301302 -0.480840 0.000000 
-0.307162 -0.428801 0.000000 
-0.363386 -0.416680 0.000000 
-0.362692 -0.359169 0.000000 
-0.412122 -0.341876 0.000000 
-0.403017 -0.279729 0.000000 
-0.445733 -0.259150 0.000000 
-0.000000 -0.186955 0.000000 
0.043388 -0.283385 0.000000 
-0.000000 -0.253353 0.000000 
-0.043388 -0.283385 0.000000 
0.087158 -0.375582 0.000000 
0.043769 -0.351883 0.000000 
-0.000000 -0.390349 0.000000 
-0.043769 -0.351883 0.000000 
-0.087158 -0.375582 0.000000 
0.130831 -0.466711 0.000000 
0.087824 -0.445113 0.000000 
0.044436 -0.487812 0.000000 
-0.000000 -0.456747 0.000000 
-0.044436 -0.487812 0.000000 
-0.087824 -0.445113 0.000000 
-0.130831 -0.466711 0.000000 
0.174505 -0.557841 0.000000 
0.131782 -0.537275 0.000000 
0.088871 -0.583142 0.000000 
0.044532 -0.555278 0.000000 
-0.000000 -0.591678 0.000000 
-0.044532 -0.555278 0.000000 
-0.088871 -0.583142 0.000000 
-0.131782 -0.537275 0.000000 
-0.174505 -0.557841 0.000000 
0.046960 -0.164340 0.000000 
0.149405 -0.190541 0.000000 
0.098873 -0.205738 0.000000 
0.095301 -0.258385 0.000000 
0.248777 -0.213804 0.000000 
0.203197 -0.232951 0.000000 
0.205981 -0.291154 0.000000 
0.148617 -0.301391 0.000000 
0.140093 -0.350089 0.000000 
0.347255 -0.236477 0.000000 
0.303554 -0.256635 0.000000 
0.309886 -0.317180 0.000000 
0.257893 -0.332553 0.000000 
0.254475 -0.386662 0.000000 
0.194039 -0.393962 0.000000 
0.184111 -0.441053 0.000000 
0.445733 -0.259150 0.000000 
0.403017 -0.279729 0.000000 
0.412122 -0.341876 0.000000 
0.362692 -0.359169 0.000000 
0.363386 -0.416680 0.000000 
0.307162 -0.428801 0.000000 
0.301302 -0.480840 0.000000 
0.238687 -0.485792 0.000000 
0.228129 -0.532017 0.000000 
0.058559 -0.113524 0.000000 
0.142917 -0.049766 0.000000 
0.123292 -0.098749 0.000000 
0.162226 -0.134367 0.000000 
0.223062 0.013422 0.000000 
0.209613 -0.034152 0.000000 
0.256854 -0.068265 0.000000 
0.229092 -0.119496 0.000000 
0.261851 -0.156523 0.000000 
0.302189 0.076278 0.000000 
0.290702 0.029543 0.000000 
0.341985 -0.003256 0.000000 
0.321587 -0.053490 0.000000 
0.361761 -0.089899 0.000000 
0.329787 -0.141701 0.000000 
0.360414 -0.178824 0.000000 
0.381315 0.139135 0.000000 
0.370772 0.092908 0.000000 
0.425037 0.061278 0.000000 
0.407738 0.011850 0.000000 
0.453135 -0.023465 0.000000 
0.427556 -0.074980 0.000000 
0.464588 -0.112007 0.000000 
0.429420 -0.164049 0.000000 
0.458977 -0.201124 0.000000 
0.026061 -0.072774 0.000000 
0.028809 0.032933 0.000000 
0.054870 -0.012951 0.000000 
0.106992 -0.004718 0.000000 
0.029377 0.134990 0.000000 
0.058186 0.094813 0.000000 
0.114311 0.110478 0.000000 
0.137056 0.056831 0.000000 
0.186430 0.059357 0.000000 
0.029568 0.236044 0.000000 
0.058945 0.197924 0.000000 
0.116563 0.217570 0.000000 
0.143120 0.170301 0.000000 
0.196633 0.179010 0.000000 
0.217198 0.121713 0.000000 
0.265318 0.122513 0.000000 
0.029759 0.337098 0.000000 
0.059328 0.300032 0.000000 
0.117890 0.322738 0.000000 
0.145749 0.278396 0.000000 
0.201664 0.291870 0.000000 
0.225992 0.239753 0.000000 
0.278030 0.245619 0.000000 
0.296791 0.185676 0.000000 
0.344206 0.185669 0.000000 
VECTORS X_EC float 
0.338794 -0.517557 0.000000 
-0.609100 0.563695 0.000000 
0.713312 0.674836 0.000000 
0.374519 0.055406 0.000000 
0.423588 -0.301324 0.000000 
-0.218274 -0.267221 0.000000 
-0.513962 -0.991460 0.000000 
0.756418 -0.779973 0.000000 
0.381900 0.677634 0.000000 
-0.550868 0.846073 0.000000 
0.823577 0.856868 0.000000 
0.556234 0.083364 0.000000 
-0.139443 0.200933 0.000000 
-0.484677 -0.437192 0.000000 
0.766286 -0.171976 0.000000 
0.384386 -0.686597 0.000000 
0.474677 -0.006531 0.000000 
-0.141715 -0.006627 0.000000 
-0.385608 -0.815855 0.000000 
0.937896 -0.736660 0.000000 
0.621631 0.559760 0.000000 
-0.105264 0.741659 0.000000 
-0.467428 0.143033 0.000000 
0.771260 0.449562 0.000000 
0.386873 -0.050828 0.000000 
0.761262 0.032578 0.000000 
0.108942 0.313955 0.000000 
-0.397202 -0.166885 0.000000 
-0.142083 -0.828160 0.000000 
-0.595936 0.613065 0.000000 
0.978194 0.113199 0.000000 
-0.660903 -0.578426 0.000000 
0.724964 0.961054 0.000000 
0.899809 0.318806 0.000000 
0.685384 0.914117 0.000000 
0.287229 0.412959 0.000000 
0.702895 -0.286370 0.000000 
0.180633 -0.777888 0.000000 
0.445811 0.543952 0.000000 
-0.220880 0.101166 0.000000 
-0.071546 -0.529759 0.000000 
-0.033296 -0.784830 0.000000 
-0.417537 0.714660 0.000000 
0.039645 0.012097 0.000000 
-0.441768 -0.487774 0.000000 
-0.109248 0.816776 0.000000 
-0.699407 0.340020 0.000000 
-0.474522 -0.327259 0.000000 
0.820030 -0.754253 0.000000 
0.957100 0.621676 0.000000 
0.610485 0.718584 0.000000 
-0.761092 -0.011796 0.000000 
-0.714655 -0.722534 0.000000 
-0.057734 -0.927701 0.000000 
-0.178789 -0.773792 0.000000 
-0.067979 0.568782 0.000000 
0.677748 0.430578 0.000000 
0.641556 -0.355167 0.000000 
-0.765897 -0.613645 0.000000 
0.393446 0.454217 0.000000 
0.522510 -0.181513 0.000000 
-0.691820 -0.280057 0.000000 
-0.647393 0.989460 0.000000 
0.028512 0.781934 0.000000 
-0.053800 -0.035427 0.000000 
0.514316 -0.307558 0.000000 
0.965681 -0.317774 0.000000 
-0.897068 -0.941803 0.000000 
-0.083078 0.991344 0.000000 
-0.006893 0.288820 0.000000 
0.724017 0.125187 0.000000 
0.714996 -0.651217 0.000000 
-0.642413 -0.884674 0.000000 
-0.760780 0.276345 0.000000 
-0.205471 -0.001470 0.000000 
0.000000 -0.976114 0.000000 
-0.564049 0.325699 0.000000 
0.000000 -0.079737 0.000000 
0.564049 0.325699 0.000000 
0.866949 -0.429646 0.000000 
-0.569003 -0.749577 0.000000 
0.000000 -0.230289 0.000000 
0.569003 -0.749577 0.000000 
-0.866949 -0.429646 0.000000 
0.299194 0.800604 0.000000 
0.858290 0.509020 0.000000 
-0.577662 -0.914534 0.000000 
0.000000 0.666088 0.000000 
0.577662 -0.914534 0.000000 
-0.858290 0.509020 0.000000 
-0.299194 0.800604 0.000000 
-0.268560 0.030854 0.000000 
0.286830 -0.246787 0.000000 
0.844677 0.372411 0.000000 
-0.578910 -0.003752 0.000000 
0.000000 0.487652 0.000000 
0.578910 -0.003752 0.000000 
-0.844677 0.372411 0.000000 
-0.286830 -0.246787 0.000000 
0.268560 0.030854 0.000000 
-0.610485 0.718584 0.000000 
0.057734 -0.927701 0.000000 
0.714655 -0.722534 0.000000 
0.761092 -0.011796 0.000000 
0.765897 -0.613645 0.000000 
-0.641556 -0.355167 0.000000 
-0.677748 0.430578 0.000000 
0.067979 0.568782 0.000000 
0.178789 -0.773792 0.000000 
-0.514316 -0.307558 0.000000 
0.053800 -0.035427 0.000000 
-0.028512 0.781934 0.000000 
0.647393 0.989460 0.000000 
0.691820 -0.280057 0.000000 
-0.522510 -0.181513 0.000000 
-0.393446 0.454217 0.000000 
0.205471 -0.001470 0.000000 
0.760780 0.276345 0.000000 
0.642413 -0.884674 0.000000 
-0.714996 -0.651217 0.000000 
-0.724017 0.125187 0.000000 
0.006894 0.288820 0.000000 
0.083078 0.991344 0.000000 
0.897068 -0.941803 0.000000 
-0.965681 -0.317774 0.000000 
-0.761262 0.032578 0.000000 
0.142083 -0.828160 0.000000 
0.397202 -0.166885 0.000000 
-0.108942 0.313955 0.000000 
-0.899809 0.318806 0.000000 
-0.724964 0.961054 0.000000 
0.660903 -0.578426 0.000000 
-0.978194 0.113199 0.000000 
0.595936 0.613065 0.000000 
0.071546 -0.529759 0.000000 
0.220880 0.101166 0.000000 
-0.445811 0.543952 0.000000 
-0.180633 -0.777888 0.000000 
-0.702895 -0.286370 0.000000 
-0.287229 0.412959 0.000000 
-0.685384 0.914117 0.000000 
-0.957100 0.621676 0.000000 
-0.820030 -0.754253 0.000000 
0.474522 -0.327259 0.000000 
0.699407 0.340020 0.000000 
0.109248 0.816776 0.000000 
0.441768 -0.487774 0.000000 
-0.039645 0.012097 0.000000 
0.417537 0.714660 0.000000 
0.033296 -0.784830 0.000000 
-0.338794 -0.517557 0.000000 
-0.374519 0.055406 0.000000 
-0.713312 0.674836 0.000000 
0.609100 0.563695 0.000000 
-0.381900 0.677634 0.000000 
-0.756418 -0.779973 0.000000 
0.513962 -0.991460 0.000000 
0.218274 -0.267221 0.000000 
-0.423588 -0.301324 0.000000 
-0.384386 -0.686597 0.000000 
-0.766286 -0.171976 0.000000 
0.484677 -0.437192 0.000000 
0.139443 0.200933 0.000000 
-0.556234 0.083364 0.000000 
-0.823577 0.856868 0.000000 
0.550868 0.846073 0.000000 
-0.386873 -0.050828 0.000000 
-0.771260 0.449562 0.000000 
0.467428 0.143033 0.000000 
0.105264 0.741659 0.000000 
-0.621631 0.559760 0.000000 
-0.937896 -0.736660 0.000000 
0.385608 -0.815855 0.000000 
0.141715 -0.006627 0.000000 
-0.474677 -0.006531 0.000000 
CELL_DATA 175 
SCALARS MASS float 
LOOKUP_TABLE default 
0.078183 
0.086427 
0.094672 
0.086427 
0.088131 
0.092111 
0.085854 
0.092111 
0.088131 
0.088705 
0.091000 
0.086983 
0.091556 
0.086983 
0.091000 
0.088705 
0.089278 
0.091574 
0.089278 
0.092722 
0.089278 
0.092722 
0.089278 
0.091574 
0.089278 
0.078183 
0.086427 
0.094672 
0.086427 
0.088131 
0.092111 
0.085854 
0.092111 
0.088131 
0.088705 
0.091000 
0.086983 
0.091556 
0.086983 
0.091000 
0.088705 
0.089278 
0.091574 
0.089278 
0.092722 
0.089278 
0.092722 
0.089278 
0.091574 
0.089278 
0.078183 
0.086427 
0.094672 
0.086427 
0.088131 
0.092111 
0.085854 
0.092111 
0.088131 
0.088705 
0.091000 
0.086983 
0.091556 
0.086983 
0.091000 
0.088705 
0.089278 
0.091574 
0.089278 
0.092722 
0.089278 
0.092722 
0.089278 
0.091574 
0.089278 
0.078183 
0.086427 
0.094672 
0.086427 
0.088131 
0.092111 
0.085854 
0.092111 
0.088131 
0.088705 
0.091000 
0.086983 
0.091556 
0.086983 
0.091000 
0.088705 
0.089278 
0.091574 
0.089278 
0.092722 
0.089278 
0.092722 
0.089278 
0.091574 
0.089278 
0.078183 
0.086427 
0.094672 
0.086427 
0.088131 
0.092111 
0.085854 
0.092111 
0.088131 
0.088705 
0.091000 
0.086983 
0.091556 
0.086983 
0.091000 
0.088705 
0.089278 
0.091574 
0.089278 
0.092722 
0.089278 
0.092722 
0.089278 
0.091574 
0.089278 
0.078183 
0.086427 
0.094672 
0.086427 
0.088131 
0.092111 
0.085854 
0.092111 
0.088131 
0.088705 
0.091000 
0.086983 
0.091556 
0.086983 
0.091000 
0.088705 
0.089278 
0.091574 
0.089278 
0.092722 
0.089278 
0.092722 
0.089278 
0.091574 
0.089278 
0.078183 
0.086427 
0.094672 
0.086427 
0.088131 
0.092111 
0.085854 
0.092111 
0.088131 
0.088705 
0.091000 
0.086983 
0.091556 
0.086983 
0.091000 
0.088705 
0.089278 
0.091574 
0.089278 
0.092722 
0.089278 
0.092722 
0.089278 
0.091574 
0.089278 
SCALARS MASS float 
LOOKUP_TABLE default 
0.078183 
0.086427 
0.094672 
0.086427 
0.088131 
0.092111 
0.085854 
0.092111 
0.088131 
0.088705 
0.091000 
0.086983 
0.091556 
0.086983 
0.091000 
0.088705 
0.089278 
0.091574 
0.089278 
0.092722 
0.089278 
0.092722 
0.089278 
0.091574 
0.089278 
0.078183 
0.086427 
0.094672 
0.086427 
0.088131 
0.092111 
0.085854 
0.092111 
0.088131 
0.088705 
0.091000 
0.086983 
0.091556 
0.086983 
0.091000 
0.088705 
0.089278 
0.091574 
0.089278 
0.092722 
0.089278 
0.092722 
0.089278 
0.091574 
0.089278 
0.078183 
0.086427 
0.094672 
0.086427 
0.088131 
0.092111 
0.085854 
0.092111 
0.088131 
0.088705 
0.091000 
0.086983 
0.091556 
0.086983 
0.091000 
0.088705 
0.089278 
0.091574 
0.089278 
0.092722 
0.089278 
0.092722 
0.089278 
0.091574 
0.089278 
0.078183 
0.086427 
0.094672 
0.086427 
0.088131 
0.092111 
0.085854 
0.092111 
0.088131 
0.088705 
0.091000 
0.086983 
0.091556 
0.086983 
0.091000 
0.088705 
0.089278 
0.091574 
0.089278 
0.092722 
0.089278 
0.092722 
0.089278 
0.091574 
0.089278 
0.078183 
0.086427 
0.094672 
0.086427 
0.088131 
0.092111 
0.085854 
0.092111 
0.088131 
0.088705 
0.091000 
0.086983 
0.091556 
0.086983 
0.091000 
0.088705 
0.089278 
0.091574 
0.089278 
0.092722 
0.089278 
0.092722 
0.089278 
0.091574 
0.089278 
0.078183 
0.086427 
0.094672 
0.086427 
0.088131 
0.092111 
0.085854 
0.092111 
0.088131 
0.088705 
0.091000 
0.086983 
0.091556 
0.086983 
0.091000 
0.088705 
0.089278 
0.091574 
0.089278 
0.092722 
0.089278 
0.092722 
0.089278 
0.091574 
0.089278 
0.078183 
0.086427 
0.094672 
0.086427 
0.088131 
0.092111 
0.085854 
0.092111 
0.088131 
0.088705 
0.091000 
0.086983 
0.091556 
0.086983 
0.091000 
0.088705 
0.089278 
0.091574 
0.089278 
0.092722 
0.089278 
0.092722 
0.089278 
0.091574 
0.089278 
SCALARS DENSITY float 
LOOKUP_TABLE default 
20.000000 
20.000000 
20.000000 
20.000000 
20.000000 
20.000000 
20.000000 
20.000000 
20.000000 
20.000000 
20.000000 
20.000000 
20.000000 
20.000000 
20.000000 
20.000000 
20.000000 
20.000000 
20.000000 
20.000000 
20.000000 
20.000000 
20.000000 
20.000000 
20.000000 
20.000000 
20.000000 
20.000000 
20.000000 
20.000000 
20.000000 
20.000000 
20.000000 
20.000000 
20.000000 
20.000000 
20.000000 
20.000000 
20.000000 
20.000000 
20.000000 
20.000000 
20.000000 
20.000000 
20.000000 
20.000000 
20.000000 
20.000000 
20.000000 
20.000000 
20.000000 
20.000000 
20.000000 
20.000000 
20.000000 
20.000000 
20.000000 
20.000000 
20.000000 
20.000000 
20.000000 
20.000000 
20.000000 
20.000000 
20.000000 
20.000000 
20.000000 
20.000000 
20.000000 
20.000000 
20.000000 
20.000000 
20.000000 
20.000000 
20.000000 
20.000000 
20.000000 
20.000000 
20.000000 
20.000000 
20.000000 
20.000000 
20.000000 
20.000000 
20.000000 
20.000000 
20.000000 
20.000000 
20.000000 
20.000000 
20.000000 
20.000000 
20.000000 
20.000000 
20.000000 
20.000000 
20.000000 
20.000000 
20.000000 
20.000000 
20.000000 
20.000000 
20.000000 
20.000000 
20.000000 
20.000000 
20.000000 
20.000000 
20.000000 
20.000000 
20.000000 
20.000000 
20.000000 
20.000000 
20.000000 
20.000000 
20.000000 
20.000000 
20.000000 
20.000000 
20.000000 
20.000000 
20.000000 
20.000000 
20.000000 
20.000000 
20.000000 
20.000000 
20.000000 
20.000000 
20.000000 
20.000000 
20.000000 
20.000000 
20.000000 
20.000000 
20.000000 
20.000000 
20.000000 
20.000000 
20.000000 
20.000000 
20.000000 
20.000000 
20.000000 
20.000000 
20.000000 
20.000000 
20.000000 
20.000000 
20.000000 
20.000000 
20.000000 
20.000000 
20.000000 
20.000000 
20.000000 
20.000000 
20.000000 
20.000000 
20.000000 
20.000000 
20.000000 
20.000000 
20.000000 
20.000000 
20.000000 
20.000000 
20.000000 
20.000000 
20.000000 
20.000000 
20.000000 
20.000000 
20.000000 
SCALARS ELEM_i float 
LOOKUP_TABLE default 
181 
209 
182 
182 
209 
209 
209 
182 
183 
237 
210 
210 
210 
210 
183 
183 
237 
237 
237 
210 
211 
211 
211 
184 
184 
181 
208 
208 
208 
235 
208 
235 
209 
209 
235 
235 
235 
235 
236 
236 
236 
261 
262 
262 
262 
263 
263 
263 
236 
237 
181 
207 
207 
207 
206 
207 
207 
207 
234 
206 
206 
233 
234 
234 
234 
234 
205 
232 
233 
233 
233 
233 
260 
261 
261 
180 
180 
180 
180 
152 
179 
179 
179 
206 
152 
152 
178 
179 
178 
206 
206 
151 
151 
151 
178 
178 
178 
205 
205 
205 
181 
153 
153 
153 
126 
153 
153 
153 
152 
126 
126 
126 
126 
125 
152 
152 
99 
99 
98 
125 
125 
125 
125 
124 
151 
181 
154 
154 
154 
155 
155 
127 
154 
127 
128 
128 
128 
127 
127 
127 
127 
129 
128 
101 
101 
101 
100 
100 
100 
99 
181 
182 
182 
155 
183 
182 
155 
155 
155 
183 
183 
156 
156 
156 
156 
129 
184 
184 
157 
157 
157 
156 
129 
129 
129 
VECTORS VELOCITY float 
0.000000 -1.577448 0.000000 
0.000000 -1.577448 0.000000 
0.000000 -1.577448 0.000000 
0.000000 -1.577448 0.000000 
0.000000 -1.577448 0.000000 
0.000000 -1.577448 0.000000 
0.000000 -1.577448 0.000000 
0.000000 -1.577448 0.000000 
-0.000000 -1.577448 0.000000 
0.000000 -1.577448 0.000000 
0.000000 -1.577448 0.000000 
-0.000000 -1.577448 0.000000 
-0.000000 -1.577448 0.000000 
-0.000000 -1.577448 0.000000 
-0.000000 -1.577448 0.000000 
-0.000000 -1.577448 0.000000 
0.000000 -1.577448 0.000000 
0.000000 -1.577448 0.000000 
-0.000000 -1.577448 0.000000 
-0.000000 -1.577448 0.000000 
-0.000000 -1.577448 0.000000 
-0.000000 -1.577448 0.000000 
-0.000000 -1.577448 0.000000 
0.000000 -1.577448 0.000000 
0.000000 -1.577448 0.000000 
0.000000 -1.577448 0.000000 
0.000000 -1.577448 0.000000 
0.000000 -1.577448 0.000000 
0.000000 -1.577448 0.000000 
0.000000 -1.577448 0.000000 
0.000000 -1.577448 0.000000 
-0.000000 -1.577448 0.000000 
0.000000 -1.577448 0.000000 
-0.000000 -1.577448 0.000000 
-0.000000 -1.577448 0.000000 
-0.000000 -1.577448 0.000000 
-0.000000 -1.577448 0.000000 
-0.000000 -1.577448 0.000000 
-0.000000 -1.577448 0.000000 
-0.000000 -1.577448 0.000000 
-0.000000 -1.577448 0.000000 
0.000000 -1.577448 0.000000 
0.000000 -1.577448 0.000000 
0.000000 -1.577448 0.000000 
-0.000000 -1.577448 0.000000 
0.000000 -1.577448 0.000000 
0.000000 -1.577448 0.000000 
0.000000 -1.577448 0.000000 
0.000000 -1.577448 0.000000 
0.000000 -1.577448 0.000000 
0.000000 -1.577448 0.000000 
0.000000 -1.577448 0.000000 
0.000000 -1.577448 0.000000 
0.000000 -1.577448 0.000000 
0.000000 -1.577448 0.000000 
0.000000 -1.577448 0.000000 
0.000000 -1.577448 0.000000 
0.000000 -1.577448 0.000000 
0.000000 -1.577448 0.000000 
0.000000 -1.577448 0.000000 
0.000000 -1.577448 0.000000 
0.000000 -1.577448 0.000000 
0.000000 -1.577448 0.000000 
-0.000000 -1.577448 0.000000 
-0.000000 -1.577448 0.000000 
-0.000000 -1.577448 0.000000 
0.000000 -1.577448 0.000000 
0.000000 -1.577448 0.000000 
0.000000 -1.577448 0.000000 
0.000000 -1.577448 0.000000 
-0.000000 -1.577448 0.000000 
-0.000000 -1.577448 0.000000 
-0.000000 -1.577448 0.000000 
-0.000000 -1.577448 0.000000 
0.000000 -1.577448 0.000000 
-0.000000 -1.577448 0.000000 
-0.000000 -1.577448 0.000000 
-0.000000 -1.577448 0.000000 
-0.000000 -1.577448 0.000000 
-0.000000 -1.577448 0.000000 
-0.000000 -1.577448 0.000000 
0.000000 -1.577448 0.000000 
-0.000000 -1.577448 0.000000 
0.000000 -1.577448 0.000000 
0.000000 -1.577448 0.000000 
0.000000 -1.577448 0.000000 
0.000000 -1.577448 0.000000 
0.000000 -1.577448 0.000000 
0.000000 -1.577448 0.000000 
0.000000 -1.577448 0.000000 
0.000000 -1.577448 0.000000 
0.000000 -1.577448 0.000000 
0.000000 -1.577448 0.000000 
0.000000 -1.577448 0.000000 
0.000000 -1.577448 0.000000 
-0.000000 -1.577448 0.000000 
-0.000000 -1.577448 0.000000 
0.000000 -1.577448 0.000000 
0.000000 -1.577448 0.000000 
0.000000 -1.577448 0.000000 
-0.000000 -1.577448 0.000000 
-0.000000 -1.577448 0.000000 
-0.000000 -1.577448 0.000000 
-0.000000 -1.577448 0.000000 
-0.000000 -1.577448 0.000000 
-0.000000 -1.577448 0.000000 
-0.000000 -1.577448 0.000000 
-0.000000 -1.577448 0.000000 
-0.000000 -1.577448 0.000000 
-0.000000 -1.577448 0.000000 
-0.000000 -1.577448 0.000000 
-0.000000 -1.577448 0.000000 
-0.000000 -1.577448 0.000000 
-0.000000 -1.577448 0.000000 
-0.000000 -1.577448 0.000000 
0.000000 -1.577448 0.000000 
0.000000 -1.577448 0.000000 
-0.000000 -1.577448 0.000000 
0.000000 -1.577448 0.000000 
-0.000000 -1.577448 0.000000 
0.000000 -1.577448 0.000000 
0.000000 -1.577448 0.000000 
0.000000 -1.577448 0.000000 
0.000000 -1.577448 0.000000 
0.000000 -1.577448 0.000000 
-0.000000 -1.577448 0.000000 
-0.000000 -1.577448 0.000000 
-0.000000 -1.577448 0.000000 
-0.000000 -1.577448 0.000000 
-0.000000 -1.577448 0.000000 
-0.000000 -1.577448 0.000000 
-0.000000 -1.577448 0.000000 
-0.000000 -1.577448 0.000000 
-0.000000 -1.577448 0.000000 
-0.000000 -1.577448 0.000000 
-0.000000 -1.577448 0.000000 
-0.000000 -1.577448 0.000000 
-0.000000 -1.577448 0.000000 
-0.000000 -1.577448 0.000000 
-0.000000 -1.577448 0.000000 
-0.000000 -1.577448 0.000000 
0.000000 -1.577448 0.000000 
-0.000000 -1.577448 0.000000 
0.000000 -1.577448 0.000000 
0.000000 -1.577448 0.000000 
0.000000 -1.577448 0.000000 
-0.000000 -1.577448 0.000000 
-0.000000 -1.577448 0.000000 
-0.000000 -1.577448 0.000000 
0.000000 -1.577448 0.000000 
0.000000 -1.577448 0.000000 
0.000000 -1.577448 0.000000 
0.000000 -1.577448 0.000000 
-0.000000 -1.577448 0.000000 
-0.000000 -1.577448 0.000000 
-0.000000 -1.577448 0.000000 
-0.000000 -1.577448 0.000000 
-0.000000 -1.577448 0.000000 
-0.000000 -1.577448 0.000000 
-0.000000 -1.577448 0.000000 
-0.000000 -1.577448 0.000000 
0.000000 -1.577448 0.000000 
-0.000000 -1.577448 0.000000 
0.000000 -1.577448 0.000000 
-0.000000 -1.577448 0.000000 
-0.000000 -1.577448 0.000000 
0.000000 -1.577448 0.000000 
0.000000 -1.577448 0.000000 
0.000000 -1.577448 0.000000 
0.000000 -1.577448 0.000000 
0.000000 -1.577448 0.000000 
0.000000 -1.577448 0.000000 
-0.000000 -1.577448 0.000000 
0.000000 -1.577448 0.000000 
0.000000 -1.577448 0.000000 
TENSORS STRESS float 
0.000000 -0.000000 0.000000 
0.000000 0.000000 0.000000 
0.000000 0.000000 0.000000 

-0.000000 0.000000 0.000000 
0.000000 0.000000 0.000000 
0.000000 0.000000 0.000000 

-0.000000 -0.000000 0.000000 
0.000000 -0.000000 0.000000 
0.000000 0.000000 0.000000 

-0.000000 -0.000000 0.000000 
0.000000 -0.000000 0.000000 
0.000000 0.000000 0.000000 

-0.000000 0.000000 0.000000 
0.000000 -0.000000 0.000000 
0.000000 0.000000 0.000000 

-0.000000 0.000000 0.000000 
0.000000 -0.000000 0.000000 
0.000000 0.000000 0.000000 

-0.000000 0.000000 0.000000 
0.000000 -0.000000 0.000000 
0.000000 0.000000 0.000000 

-0.000000 -0.000000 0.000000 
0.000000 -0.000000 0.000000 
0.000000 0.000000 0.000000 

-0.000000 -0.000000 0.000000 
0.000000 -0.000000 0.000000 
0.000000 0.000000 0.000000 

0.000000 0.000000 0.000000 
0.000000 -0.000000 0.000000 
0.000000 0.000000 0.000000 

-0.000000 0.000000 0.000000 
0.000000 -0.000000 0.000000 
0.000000 0.000000 0.000000 

-0.000000 -0.000000 0.000000 
0.000000 -0.000000 0.000000 
0.000000 0.000000 0.000000 

-0.000000 0.000000 0.000000 
0.000000 -0.000000 0.000000 
0.000000 0.000000 0.000000 

-0.000000 0.000000 0.000000 
0.000000 -0.000000 0.000000 
0.000000 0.000000 0.000000 

-0.000000 0.000000 0.000000 
0.000000 -0.000000 0.000000 
0.000000 0.000000 0.000000 

-0.000000 0.000000 0.000000 
0.000000 -0.000000 0.000000 
0.000000 0.000000 0.000000 

0.000000 0.000000 0.000000 
0.000000 -0.000000 0.000000 
0.000000 0.000000 0.000000 

0.000000 0.000000 0.000000 
0.000000 -0.000000 0.000000 
0.000000 0.000000 0.000000 

-0.000000 -0.000000 0.000000 
0.000000 -0.000000 0.000000 
0.000000 0.000000 0.000000 

0.000000 -0.000000 0.000000 
0.000000 0.000000 0.000000 
0.000000 0.000000 0.000000 

-0.000000 0.000000 0.000000 
0.000000 -0.000000 0.000000 
0.000000 0.000000 0.000000 

-0.000000 0.000000 0.000000 
0.000000 -0.000000 0.000000 
0.000000 0.000000 0.000000 

-0.000000 0.000000 0.000000 
0.000000 -0.000000 0.000000 
0.000000 0.000000 0.000000 

0.000000 0.000000 0.000000 
0.000000 0.000000 0.000000 
0.000000 0.000000 0.000000 

0.000000 -0.000000 0.000000 
0.000000 0.000000 0.000000 
0.000000 0.000000 0.000000 

0.000000 -0.000000 0.000000 
0.000000 0.000000 0.000000 
0.000000 0.000000 0.000000 

0.000000 0.000000 0.000000 
0.000000 0.000000 0.000000 
0.000000 0.000000 0.000000 

0.000000 0.000000 0.000000 
0.000000 0.000000 0.000000 
0.000000 0.000000 0.000000 

-0.000000 -0.000000 0.000000 
0.000000 -0.000000 0.000000 
0.000000 0.000000 0.000000 

0.000000 0.000000 0.000000 
0.000000 0.000000 0.000000 
0.000000 0.000000 0.000000 

0.000000 0.000000 0.000000 
0.000000 0.000000 0.000000 
0.000000 0.000000 0.000000 

0.000000 -0.000000 0.000000 
0.000000 0.000000 0.000000 
0.000000 0.000000 0.000000 

-0.000000 -0.000000 0.000000 
0.000000 -0.000000 0.000000 
0.000000 0.000000 0.000000 

-0.000000 0.000000 0.000000 
0.000000 -0.000000 0.000000 
0.000000 0.000000 0.000000 

-0.000000 0.000000 0.000000 
0.000000 -0.000000 0.000000 
0.000000 0.000000 0.000000 

0.000000 0.000000 0.000000 
0.000000 0.000000 0.000000 
0.000000 0.000000 0.000000 

0.000000 -0.000000 0.000000 
0.000000 0.000000 0.000000 
0.000000 0.000000 0.000000 

0.000000 -0.000000 0.000000 
0.000000 -0.000000 0.000000 
0.000000 0.000000 0.000000 

0.000000 -0.000000 0.000000 
0.000000 -0.000000 0.000000 
0.000000 0.000000 0.000000 

0.000000 -0.000000 0.000000 
0.000000 0.000000 0.000000 
0.000000 0.000000 0.000000 

0.000000 0.000000 0.000000 
0.000000 -0.000000 0.000000 
0.000000 0.000000 0.000000 

-0.000000 0.000000 0.000000 
0.000000 -0.000000 0.000000 
0.000000 0.000000 0.000000 

0.000000 -0.000000 0.000000 
0.000000 0.000000 0.000000 
0.000000 0.000000 0.000000 

0.000000 -0.000000 0.000000 
0.000000 0.000000 0.000000 
0.000000 0.000000 0.000000 

0.000000 -0.000000 0.000000 
0.000000 0.000000 0.000000 
0.000000 0.000000 0.000000 

0.000000 0.000000 0.000000 
0.000000 -0.000000 0.000000 
0.000000 0.000000 0.000000 

0.000000 0.000000 0.000000 
0.000000 -0.000000 0.000000 
0.000000 0.000000 0.000000 

0.000000 -0.000000 0.000000 
0.000000 0.000000 0.000000 
0.000000 0.000000 0.000000 

0.000000 0.000000 0.000000 
0.000000 -0.000000 0.000000 
0.000000 0.000000 0.000000 

-0.000000 -0.000000 0.000000 
0.000000 -0.000000 0.000000 
0.000000 0.000000 0.000000 

0.000000 -0.000000 0.000000 
0.000000 0.000000 0.000000 
0.000000 0.000000 0.000000 

0.000000 0.000000 0.000000 
0.000000 0.000000 0.000000 
0.000000 0.000000 0.000000 

0.000000 0.000000 0.000000 
0.000000 -0.000000 0.000000 
0.000000 0.000000 0.000000 

0.000000 0.000000 0.000000 
0.000000 0.000000 0.000000 
0.000000 0.000000 0.000000 

0.000000 0.000000 0.000000 
0.000000 0.000000 0.000000 
0.000000 0.000000 0.000000 

-0.000000 0.000000 0.000000 
0.000000 -0.000000 0.000000 
0.000000 0.000000 0.000000 

0.000000 0.000000 0.000000 
0.000000 0.000000 0.000000 
0.000000 0.000000 0.000000 

0.000000 0.000000 0.000000 
0.000000 -0.000000 0.000000 
0.000000 0.000000 0.000000 

-0.000000 0.000000 0.000000 
0.000000 -0.000000 0.000000 
0.000000 0.000000 0.000000 

-0.000000 -0.000000 0.000000 
0.000000 -0.000000 0.000000 
0.000000 0.000000 0.000000 

-0.000000 -0.000000 0.000000 
0.000000 -0.000000 0.000000 
0.000000 0.000000 0.000000 

-0.000000 -0.000000 0.000000 
0.000000 -0.000000 0.000000 
0.000000 0.000000 0.000000 

-0.000000 -0.000000 0.000000 
0.000000 -0.000000 0.000000 
0.000000 0.000000 0.000000 

-0.000000 -0.000000 0.000000 
0.000000 -0.000000 0.000000 
0.000000 0.000000 0.000000 

-0.000000 -0.000000 0.000000 
0.000000 -0.000000 0.000000 
0.000000 0.000000 0.000000 

-0.000000 -0.000000 0.000000 
0.000000 -0.000000 0.000000 
0.000000 0.000000 0.000000 

0.000000 0.000000 0.000000 
0.000000 0.000000 0.000000 
0.000000 0.000000 0.000000 

-0.000000 0.000000 0.000000 
0.000000 -0.000000 0.000000 
0.000000 0.000000 0.000000 

-0.000000 0.000000 0.000000 
0.000000 0.000000 0.000000 
0.000000 0.000000 0.000000 

-0.000000 -0.000000 0.000000 
0.000000 0.000000 0.000000 
0.000000 0.000000 0.000000 

0.000000 -0.000000 0.000000 
0.000000 0.000000 0.000000 
0.000000 0.000000 0.000000 

-0.000000 0.000000 0.000000 
0.000000 0.000000 0.000000 
0.000000 0.000000 0.000000 

0.000000 -0.000000 0.000000 
0.000000 0.000000 0.000000 
0.000000 0.000000 0.000000 

0.000000 0.000000 0.000000 
0.000000 0.000000 0.000000 
0.000000 0.000000 0.000000 

0.000000 0.000000 0.000000 
0.000000 0.000000 0.000000 
0.000000 0.000000 0.000000 

0.000000 -0.000000 0.000000 
0.000000 0.000000 0.000000 
0.000000 0.000000 0.000000 

0.000000 -0.000000 0.000000 
0.000000 0.000000 0.000000 
0.000000 0.000000 0.000000 

-0.000000 -0.000000 0.000000 
0.000000 0.000000 0.000000 
0.000000 0.000000 0.000000 

-0.000000 0.000000 0.000000 
0.000000 -0.000000 0.000000 
0.000000 0.000000 0.000000 

0.000000 -0.000000 0.000000 
0.000000 0.000000 0.000000 
0.000000 0.000000 0.000000 

0.000000 -0.000000 0.000000 
0.000000 0.000000 0.000000 
0.000000 0.000000 0.000000 

0.000000 -0.000000 0.000000 
0.000000 0.000000 0.000000 
0.000000 0.000000 0.000000 

0.000000 -0.000000 0.000000 
0.000000 0.000000 0.000000 
0.000000 0.000000 0.000000 

0.000000 -0.000000 0.000000 
0.000000 0.000000 0.000000 
0.000000 0.000000 0.000000 

0.000000 0.000000 0.000000 
0.000000 0.000000 0.000000 
0.000000 0.000000 0.000000 

0.000000 0.000000 0.000000 
0.000000 0.000000 0.000000 
0.000000 0.000000 0.000000 

-0.000000 -0.000000 0.000000 
0.000000 -0.000000 0.000000 
0.000000 0.000000 0.000000 

-0.000000 -0.000000 0.000000 
0.000000 0.000000 0.000000 
0.000000 0.000000 0.000000 

-0.000000 -0.000000 0.000000 
0.000000 -0.000000 0.000000 
0.000000 0.000000 0.000000 

-0.000000 0.000000 0.000000 
0.000000 0.000000 0.000000 
0.000000 0.000000 0.000000 

-0.000000 -0.000000 0.000000 
0.000000 -0.000000 0.000000 
0.000000 0.000000 0.000000 

-0.000000 0.000000 0.000000 
0.000000 -0.000000 0.000000 
0.000000 0.000000 0.000000 

-0.000000 0.000000 0.000000 
0.000000 -0.000000 0.000000 
0.000000 0.000000 0.000000 

-0.000000 -0.000000 0.000000 
0.000000 -0.000000 0.000000 
0.000000 0.000000 0.000000 

-0.000000 0.000000 0.000000 
0.000000 -0.000000 0.000000 
0.000000 0.000000 0.000000 

-0.000000 0.000000 0.000000 
0.000000 -0.000000 0.000000 
0.000000 0.000000 0.000000 

-0.000000 0.000000 0.000000 
0.000000 0.000000 0.000000 
0.000000 0.000000 0.000000 

0.000000 -0.000000 0.000000 
0.000000 0.000000 0.000000 
0.000000 0.000000 0.000000 

-0.000000 0.000000 0.000000 
0.000000 -0.000000 0.000000 
0.000000 0.000000 0.000000 

-0.000000 0.000000 0.000000 
0.000000 -0.000000 0.000000 
0.000000 0.000000 0.000000 

0.000000 -0.000000 0.000000 
0.000000 0.000000 0.000000 
0.000000 0.000000 0.000000 

-0.000000 -0.000000 0.000000 
0.000000 -0.000000 0.000000 
0.000000 0.000000 0.000000 

-0.000000 -0.000000 0.000000 
0.000000 -0.000000 0.000000 
0.000000 0.000000 0.000000 

0.000000 0.000000 0.000000 
0.000000 0.000000 0.000000 
0.000000 0.000000 0.000000 

0.000000 -0.000000 0.000000 
0.000000 0.000000 0.000000 
0.000000 0.000000 0.000000 

-0.000000 -0.000000 0.000000 
0.000000 -0.000000 0.000000 
0.000000 0.000000 0.000000 

0.000000 -0.000000 0.000000 
0.000000 0.000000 0.000000 
0.000000 0.000000 0.000000 

0.000000 -0.000000 0.000000 
0.000000 0.000000 0.000000 
0.000000 0.000000 0.000000 

0.000000 -0.000000 0.000000 
0.000000 0.000000 0.000000 
0.000000 0.000000 0.000000 

0.000000 -0.000000 0.000000 
0.000000 0.000000 0.000000 
0.000000 0.000000 0.000000 

-0.000000 -0.000000 0.000000 
0.000000 -0.000000 0.000000 
0.000000 0.000000 0.000000 

0.000000 -0.000000 0.000000 
0.000000 0.000000 0.000000 
0.000000 0.000000 0.000000 

0.000000 -0.000000 0.000000 
0.000000 0.000000 0.000000 
0.000000 0.000000 0.000000 

-0.000000 -0.000000 0.000000 
0.000000 -0.000000 0.000000 
0.000000 0.000000 0.000000 

0.000000 0.000000 0.000000 
0.000000 0.000000 0.000000 
0.000000 0.000000 0.000000 

0.000000 0.000000 0.000000 
0.000000 0.000000 0.000000 
0.000000 0.000000 0.000000 

0.000000 -0.000000 0.000000 
0.000000 -0.000000 0.000000 
0.000000 0.000000 0.000000 

0.000000 -0.000000 0.000000 
0.000000 0.000000 0.000000 
0.000000 0.000000 0.000000 

0.000000 0.000000 0.000000 
0.000000 -0.000000 0.000000 
0.000000 0.000000 0.000000 

-0.000000 0.000000 0.000000 
0.000000 -0.000000 0.000000 
0.000000 0.000000 0.000000 

0.000000 -0.000000 0.000000 
0.000000 0.000000 0.000000 
0.000000 0.000000 0.000000 

-0.000000 -0.000000 0.000000 
0.000000 0.000000 0.000000 
0.000000 0.000000 0.000000 

-0.000000 -0.000000 0.000000 
0.000000 0.000000 0.000000 
0.000000 0.000000 0.000000 

-0.000000 0.000000 0.000000 
0.000000 -0.000000 0.000000 
0.000000 0.000000 0.000000 

0.000000 0.000000 0.000000 
0.000000 0.000000 0.000000 
0.000000 0.000000 0.000000 

0.000000 -0.000000 0.000000 
0.000000 0.000000 0.000000 
0.000000 0.000000 0.000000 

0.000000 -0.000000 0.000000 
0.000000 0.000000 0.000000 
0.000000 0.000000 0.000000 

-0.000000 -0.000000 0.000000 
0.000000 0.000000 0.000000 
0.000000 0.000000 0.000000 

-0.000000 -0.000000 0.000000 
0.000000 -0.000000 0.000000 
0.000000 0.000000 0.000000 

0.000000 -0.000000 0.000000 
0.000000 0.000000 0.000000 
0.000000 0.000000 0.000000 

0.000000 -0.000000 0.000000 
0.000000 0.000000 0.000000 
0.000000 0.000000 0.000000 

0.000000 -0.000000 0.000000 
0.000000 -0.000000 0.000000 
0.000000 0.000000 0.000000 

-0.000000 -0.000000 0.000000 
0.000000 0.000000 0.000000 
0.000000 0.000000 0.000000 

0.000000 -0.000000 0.000000 
0.000000 0.000000 0.000000 
0.000000 0.000000 0.000000 

0.000000 0.000000 0.000000 
0.000000 0.000000 0.000000 
0.000000 0.000000 0.000000 

0.000000 -0.000000 0.000000 
0.000000 0.000000 0.000000 
0.000000 0.000000 0.000000 

0.000000 0.000000 0.000000 
0.000000 0.000000 0.000000 
0.000000 0.000000 0.000000 

0.000000 0.000000 0.000000 
0.000000 -0.000000 0.000000 
0.000000 0.000000 0.000000 

0.000000 0.000000 0.000000 
0.000000 0.000000 0.000000 
0.000000 0.000000 0.000000 

0.000000 -0.000000 0.000000 
0.000000 0.000000 0.000000 
0.000000 0.000000 0.000000 

0.000000 -0.000000 0.000000 
0.000000 0.000000 0.000000 
0.000000 0.000000 0.000000 

0.000000 -0.000000 0.000000 
0.000000 0.000000 0.000000 
0.000000 0.000000 0.000000 

0.000000 -0.000000 0.000000 
0.000000 0.000000 0.000000 
0.000000 0.000000 0.000000 

0.000000 -0.000000 0.000000 
0.000000 0.000000 0.000000 
0.000000 0.000000 0.000000 

-0.000000 0.000000 0.000000 
0.000000 0.000000 0.000000 
0.000000 0.000000 0.000000 

-0.000000 0.000000 0.000000 
0.000000 -0.000000 0.000000 
0.000000 0.000000 0.000000 

0.000000 0.000000 0.000000 
0.000000 0.000000 0.000000 
0.000000 0.000000 0.000000 

0.000000 0.000000 0.000000 
0.000000 0.000000 0.000000 
0.000000 0.000000 0.000000 

0.000000 -0.000000 0.000000 
0.000000 0.000000 0.000000 
0.000000 0.000000 0.000000 

-0.000000 -0.000000 0.000000 
0.000000 -0.000000 0.000000 
0.000000 0.000000 0.000000 

-0.000000 -0.000000 0.000000 
0.000000 -0.000000 0.000000 
0.000000 0.000000 0.000000 

-0.000000 -0.000000 0.000000 
0.000000 -0.000000 0.000000 
0.000000 0.000000 0.000000 

-0.000000 -0.000000 0.000000 
0.000000 -0.000000 0.000000 
0.000000 0.000000 0.000000 

0.000000 -0.000000 0.000000 
0.000000 -0.000000 0.000000 
0.000000 0.000000 0.000000 

-0.000000 -0.000000 0.000000 
0.000000 -0.000000 0.000000 
0.000000 0.000000 0.000000 

-0.000000 -0.000000 0.000000 
0.000000 -0.000000 0.000000 
0.000000 0.000000 0.000000 

0.000000 0.000000 0.000000 
0.000000 0.000000 0.000000 
0.000000 0.000000 0.000000 

-0.000000 0.000000 0.000000 
0.000000 -0.000000 0.000000 
0.000000 0.000000 0.000000 

0.000000 0.000000 0.000000 
0.000000 0.000000 0.000000 
0.000000 0.000000 0.000000 

-0.000000 0.000000 0.000000 
0.000000 -0.000000 0.000000 
0.000000 0.000000 0.000000 

0.000000 0.000000 0.000000 
0.000000 0.000000 0.000000 
0.000000 0.000000 0.000000 

-0.000000 -0.000000 0.000000 
0.000000 -0.000000 0.000000 
0.000000 0.000000 0.000000 

-0.000000 -0.000000 0.000000 
0.000000 -0.000000 0.000000 
0.000000 0.000000 0.000000 

-0.000000 -0.000000 0.000000 
0.000000 -0.000000 0.000000 
0.000000 0.000000 0.000000 

-0.000000 -0.000000 0.000000 
0.000000 -0.000000 0.000000 
0.000000 0.000000 0.000000 

-0.000000 -0.000000 0.000000 
0.000000 -0.000000 0.000000 
0.000000 0.000000 0.000000 

-0.000000 -0.000000 0.000000 
0.000000 -0.000000 0.000000 
0.000000 0.000000 0.000000 

-0.000000 -0.000000 0.000000 
0.000000 -0.000000 0.000000 
0.000000 0.000000 0.000000 

-0.000000 0.000000 0.000000 
0.000000 -0.000000 0.000000 
0.000000 0.000000 0.000000 

-0.000000 -0.000000 0.000000 
0.000000 0.000000 0.000000 
0.000000 0.000000 0.000000 

0.000000 0.000000 0.000000 
0.000000 0.000000 0.000000 
0.000000 0.000000 0.000000 

-0.000000 -0.000000 0.000000 
0.000000 0.000000 0.000000 
0.000000 0.000000 0.000000 

-0.000000 -0.000000 0.000000 
0.000000 -0.000000 0.000000 
0.000000 0.000000 0.000000 

-0.000000 0.000000 0.000000 
0.000000 0.000000 0.000000 
0.000000 0.000000 0.000000 

-0.000000 0.000000 0.000000 
0.000000 0.000000 0.000000 
0.000000 0.000000 0.000000 

TENSORS STRAIN float 
-0.000000 -0.000000 0.000000 
0.000000 0.000000 0.000000 
0.000000 0.000000 0.000000 

-0.000000 0.000000 0.000000 
0.000000 0.000000 0.000000 
0.000000 0.000000 0.000000 

-0.000000 -0.000000 0.000000 
0.000000 -0.000000 0.000000 
0.000000 0.000000 0.000000 

-0.000000 -0.000000 0.000000 
0.000000 -0.000000 0.000000 
0.000000 0.000000 0.000000 

-0.000000 0.000000 0.000000 
0.000000 0.000000 0.000000 
0.000000 0.000000 0.000000 

-0.000000 0.000000 0.000000 
0.000000 0.000000 0.000000 
0.000000 0.000000 0.000000 

-0.000000 0.000000 0.000000 
0.000000 -0.000000 0.000000 
0.000000 0.000000 0.000000 

-0.000000 -0.000000 0.000000 
0.000000 -0.000000 0.000000 
0.000000 0.000000 0.000000 

-0.000000 -0.000000 0.000000 
0.000000 -0.000000 0.000000 
0.000000 0.000000 0.000000 

0.000000 0.000000 0.000000 
0.000000 -0.000000 0.000000 
0.000000 0.000000 0.000000 

-0.000000 0.000000 0.000000 
0.000000 -0.000000 0.000000 
0.000000 0.000000 0.000000 

-0.000000 -0.000000 0.000000 
0.000000 -0.000000 0.000000 
0.000000 0.000000 0.000000 

-0.000000 0.000000 0.000000 
0.000000 -0.000000 0.000000 
0.000000 0.000000 0.000000 

-0.000000 0.000000 0.000000 
0.000000 -0.000000 0.000000 
0.000000 0.000000 0.000000 

0.000000 0.000000 0.000000 
0.000000 -0.000000 0.000000 
0.000000 0.000000 0.000000 

0.000000 0.000000 0.000000 
0.000000 -0.000000 0.000000 
0.000000 0.000000 0.000000 

0.000000 0.000000 0.000000 
0.000000 -0.000000 0.000000 
0.000000 0.000000 0.000000 

0.000000 0.000000 0.000000 
0.000000 -0.000000 0.000000 
0.000000 0.000000 0.000000 

0.000000 -0.000000 0.000000 
0.000000 -0.000000 0.000000 
0.000000 0.000000 0.000000 

0.000000 -0.000000 0.000000 
0.000000 0.000000 0.000000 
0.000000 0.000000 0.000000 

0.000000 0.000000 0.000000 
0.000000 -0.000000 0.000000 
0.000000 0.000000 0.000000 

0.000000 0.000000 0.000000 
0.000000 -0.000000 0.000000 
0.000000 0.000000 0.000000 

-0.000000 0.000000 0.000000 
0.000000 0.000000 0.000000 
0.000000 0.000000 0.000000 

-0.000000 0.000000 0.000000 
0.000000 0.000000 0.000000 
0.000000 0.000000 0.000000 

-0.000000 -0.000000 0.000000 
0.000000 0.000000 0.000000 
0.000000 0.000000 0.000000 

-0.000000 -0.000000 0.000000 
0.000000 0.000000 0.000000 
0.000000 0.000000 0.000000 

-0.000000 0.000000 0.000000 
0.000000 0.000000 0.000000 
0.000000 0.000000 0.000000 

-0.000000 0.000000 0.000000 
0.000000 0.000000 0.000000 
0.000000 0.000000 0.000000 

-0.000000 -0.000000 0.000000 
0.000000 0.000000 0.000000 
0.000000 0.000000 0.000000 

-0.000000 0.000000 0.000000 
0.000000 0.000000 0.000000 
0.000000 0.000000 0.000000 

-0.000000 0.000000 0.000000 
0.000000 0.000000 0.000000 
0.000000 0.000000 0.000000 

0.000000 -0.000000 0.000000 
0.000000 0.000000 0.000000 
0.000000 0.000000 0.000000 

-0.000000 -0.000000 0.000000 
0.000000 -0.000000 0.000000 
0.000000 0.000000 0.000000 

-0.000000 0.000000 0.000000 
0.000000 -0.000000 0.000000 
0.000000 0.000000 0.000000 

-0.000000 0.000000 0.000000 
0.000000 -0.000000 0.000000 
0.000000 0.000000 0.000000 

0.000000 0.000000 0.000000 
0.000000 0.000000 0.000000 
0.000000 0.000000 0.000000 

0.000000 -0.000000 0.000000 
0.000000 0.000000 0.000000 
0.000000 0.000000 0.000000 

0.000000 -0.000000 0.000000 
0.000000 -0.000000 0.000000 
0.000000 0.000000 0.000000 

0.000000 -0.000000 0.000000 
0.000000 -0.000000 0.000000 
0.000000 0.000000 0.000000 

0.000000 -0.000000 0.000000 
0.000000 0.000000 0.000000 
0.000000 0.000000 0.000000 

0.000000 0.000000 0.000000 
0.000000 -0.000000 0.000000 
0.000000 0.000000 0.000000 

0.000000 0.000000 0.000000 
0.000000 -0.000000 0.000000 
0.000000 0.000000 0.000000 

0.000000 -0.000000 0.000000 
0.000000 0.000000 0.000000 
0.000000 0.000000 0.000000 

0.000000 -0.000000 0.000000 
0.000000 0.000000 0.000000 
0.000000 0.000000 0.000000 

0.000000 -0.000000 0.000000 
0.000000 0.000000 0.000000 
0.000000 0.000000 0.000000 

0.000000 0.000000 0.000000 
0.000000 -0.000000 0.000000 
0.000000 0.000000 0.000000 

0.000000 0.000000 0.000000 
0.000000 -0.000000 0.000000 
0.000000 0.000000 0.000000 

0.000000 -0.000000 0.000000 
0.000000 -0.000000 0.000000 
0.000000 0.000000 0.000000 

0.000000 0.000000 0.000000 
0.000000 -0.000000 0.000000 
0.000000 0.000000 0.000000 

0.000000 -0.000000 0.000000 
0.000000 -0.000000 0.000000 
0.000000 0.000000 0.000000 

-0.000000 -0.000000 0.000000 
0.000000 0.000000 0.000000 
0.000000 0.000000 0.000000 

0.000000 0.000000 0.000000 
0.000000 -0.000000 0.000000 
0.000000 0.000000 0.000000 

0.000000 0.000000 0.000000 
0.000000 -0.000000 0.000000 
0.000000 0.000000 0.000000 

0.000000 0.000000 0.000000 
0.000000 -0.000000 0.000000 
0.000000 0.000000 0.000000 

0.000000 0.000000 0.000000 
0.000000 0.000000 0.000000 
0.000000 0.000000 0.000000 

0.000000 0.000000 0.000000 
0.000000 -0.000000 0.000000 
0.000000 0.000000 0.000000 

0.000000 0.000000 0.000000 
0.000000 0.000000 0.000000 
0.000000 0.000000 0.000000 

0.000000 0.000000 0.000000 
0.000000 -0.000000 0.000000 
0.000000 0.000000 0.000000 

-0.000000 0.000000 0.000000 
0.000000 -0.000000 0.000000 
0.000000 0.000000 0.000000 

-0.000000 -0.000000 0.000000 
0.000000 0.000000 0.000000 
0.000000 0.000000 0.000000 

-0.000000 -0.000000 0.000000 
0.000000 -0.000000 0.000000 
0.000000 0.000000 0.000000 

-0.000000 -0.000000 0.000000 
0.000000 -0.000000 0.000000 
0.000000 0.000000 0.000000 

-0.000000 -0.000000 0.000000 
0.000000 -0.000000 0.000000 
0.000000 0.000000 0.000000 

-0.000000 -0.000000 0.000000 
0.000000 -0.000000 0.000000 
0.000000 0.000000 0.000000 

-0.000000 -0.000000 0.000000 
0.000000 -0.000000 0.000000 
0.000000 0.000000 0.000000 

-0.000000 -0.000000 0.000000 
0.000000 0.000000 0.000000 
0.000000 0.000000 0.000000 

-0.000000 0.000000 0.000000 
0.000000 0.000000 0.000000 
0.000000 0.000000 0.000000 

-0.000000 0.000000 0.000000 
0.000000 -0.000000 0.000000 
0.000000 0.000000 0.000000 

-0.000000 0.000000 0.000000 
0.000000 0.000000 0.000000 
0.000000 0.000000 0.000000 

-0.000000 -0.000000 0.000000 
0.000000 0.000000 0.000000 
0.000000 0.000000 0.000000 

-0.000000 -0.000000 0.000000 
0.000000 0.000000 0.000000 
0.000000 0.000000 0.000000 

-0.000000 0.000000 0.000000 
0.000000 0.000000 0.000000 
0.000000 0.000000 0.000000 

0.000000 -0.000000 0.000000 
0.000000 0.000000 0.000000 
0.000000 0.000000 0.000000 

0.000000 0.000000 0.000000 
0.000000 -0.000000 0.000000 
0.000000 0.000000 0.000000 

0.000000 0.000000 0.000000 
0.000000 0.000000 0.000000 
0.000000 0.000000 0.000000 

-0.000000 -0.000000 0.000000 
0.000000 0.000000 0.000000 
0.000000 0.000000 0.000000 

-0.000000 -0.000000 0.000000 
0.000000 0.000000 0.000000 
0.000000 0.000000 0.000000 

-0.000000 -0.000000 0.000000 
0.000000 0.000000 0.000000 
0.000000 0.000000 0.000000 

-0.000000 0.000000 0.000000 
0.000000 -0.000000 0.000000 
0.000000 0.000000 0.000000 

0.000000 -0.000000 0.000000 
0.000000 0.000000 0.000000 
0.000000 0.000000 0.000000 

-0.000000 -0.000000 0.000000 
0.000000 0.000000 0.000000 
0.000000 0.000000 0.000000 

-0.000000 -0.000000 0.000000 
0.000000 0.000000 0.000000 
0.000000 0.000000 0.000000 

-0.000000 -0.000000 0.000000 
0.000000 0.000000 0.000000 
0.000000 0.000000 0.000000 

0.000000 -0.000000 0.000000 
0.000000 0.000000 0.000000 
0.000000 0.000000 0.000000 

0.000000 0.000000 0.000000 
0.000000 0.000000 0.000000 
0.000000 0.000000 0.000000 

0.000000 0.000000 0.000000 
0.000000 0.000000 0.000000 
0.000000 0.000000 0.000000 

-0.000000 -0.000000 0.000000 
0.000000 -0.000000 0.000000 
0.000000 0.000000 0.000000 

-0.000000 -0.000000 0.000000 
0.000000 0.000000 0.000000 
0.000000 0.000000 0.000000 

-0.000000 -0.000000 0.000000 
0.000000 -0.000000 0.000000 
0.000000 0.000000 0.000000 

-0.000000 0.000000 0.000000 
0.000000 0.000000 0.000000 
0.000000 0.000000 0.000000 

-0.000000 -0.000000 0.000000 
0.000000 -0.000000 0.000000 
0.000000 0.000000 0.000000 

-0.000000 0.000000 0.000000 
0.000000 -0.000000 0.000000 
0.000000 0.000000 0.000000 

-0.000000 0.000000 0.000000 
0.000000 -0.000000 0.000000 
0.000000 0.000000 0.000000 

-0.000000 -0.000000 0.000000 
0.000000 -0.000000 0.000000 
0.000000 0.000000 0.000000 

-0.000000 0.000000 0.000000 
0.000000 -0.000000 0.000000 
0.000000 0.000000 0.000000 

-0.000000 0.000000 0.000000 
0.000000 0.000000 0.000000 
0.000000 0.000000 0.000000 

-0.000000 0.000000 0.000000 
0.000000 0.000000 0.000000 
0.000000 0.000000 0.000000 

0.000000 -0.000000 0.000000 
0.000000 0.000000 0.000000 
0.000000 0.000000 0.000000 

-0.000000 0.000000 0.000000 
0.000000 -0.000000 0.000000 
0.000000 0.000000 0.000000 

-0.000000 0.000000 0.000000 
0.000000 -0.000000 0.000000 
0.000000 0.000000 0.000000 

-0.000000 -0.000000 0.000000 
0.000000 0.000000 0.000000 
0.000000 0.000000 0.000000 

-0.000000 -0.000000 0.000000 
0.000000 -0.000000 0.000000 
0.000000 0.000000 0.000000 

-0.000000 -0.000000 0.000000 
0.000000 -0.000000 0.000000 
0.000000 0.000000 0.000000 

0.000000 0.000000 0.000000 
0.000000 0.000000 0.000000 
0.000000 0.000000 0.000000 

-0.000000 -0.000000 0.000000 
0.000000 0.000000 0.000000 
0.000000 0.000000 0.000000 

-0.000000 -0.000000 0.000000 
0.000000 -0.000000 0.000000 
0.000000 0.000000 0.000000 

0.000000 -0.000000 0.000000 
0.000000 0.000000 0.000000 
0.000000 0.000000 0.000000 

0.000000 -0.000000 0.000000 
0.000000 0.000000 0.000000 
0.000000 0.000000 0.000000 

0.000000 -0.000000 0.000000 
0.000000 0.000000 0.000000 
0.000000 0.000000 0.000000 

-0.000000 -0.000000 0.000000 
0.000000 0.000000 0.000000 
0.000000 0.000000 0.000000 

-0.000000 -0.000000 0.000000 
0.000000 0.000000 0.000000 
0.000000 0.000000 0.000000 

-0.000000 -0.000000 0.000000 
0.000000 0.000000 0.000000 
0.000000 0.000000 0.000000 

-0.000000 -0.000000 0.000000 
0.000000 0.000000 0.000000 
0.000000 0.000000 0.000000 

-0.000000 -0.000000 0.000000 
0.000000 -0.000000 0.000000 
0.000000 0.000000 0.000000 

0.000000 0.000000 0.000000 
0.000000 0.000000 0.000000 
0.000000 0.000000 0.000000 

0.000000 0.000000 0.000000 
0.000000 0.000000 0.000000 
0.000000 0.000000 0.000000 

0.000000 -0.000000 0.000000 
0.000000 -0.000000 0.000000 
0.000000 0.000000 0.000000 

0.000000 -0.000000 0.000000 
0.000000 0.000000 0.000000 
0.000000 0.000000 0.000000 

0.000000 0.000000 0.000000 
0.000000 -0.000000 0.000000 
0.000000 0.000000 0.000000 

-0.000000 0.000000 0.000000 
0.000000 -0.000000 0.000000 
0.000000 0.000000 0.000000 

-0.000000 -0.000000 0.000000 
0.000000 0.000000 0.000000 
0.000000 0.000000 0.000000 

-0.000000 -0.000000 0.000000 
0.000000 0.000000 0.000000 
0.000000 0.000000 0.000000 

-0.000000 -0.000000 0.000000 
0.000000 0.000000 0.000000 
0.000000 0.000000 0.000000 

-0.000000 0.000000 0.000000 
0.000000 -0.000000 0.000000 
0.000000 0.000000 0.000000 

-0.000000 0.000000 0.000000 
0.000000 0.000000 0.000000 
0.000000 0.000000 0.000000 

-0.000000 -0.000000 0.000000 
0.000000 0.000000 0.000000 
0.000000 0.000000 0.000000 

0.000000 -0.000000 0.000000 
0.000000 0.000000 0.000000 
0.000000 0.000000 0.000000 

-0.000000 -0.000000 0.000000 
0.000000 0.000000 0.000000 
0.000000 0.000000 0.000000 

-0.000000 -0.000000 0.000000 
0.000000 0.000000 0.000000 
0.000000 0.000000 0.000000 

0.000000 -0.000000 0.000000 
0.000000 -0.000000 0.000000 
0.000000 0.000000 0.000000 

0.000000 -0.000000 0.000000 
0.000000 -0.000000 0.000000 
0.000000 0.000000 0.000000 

0.000000 -0.000000 0.000000 
0.000000 -0.000000 0.000000 
0.000000 0.000000 0.000000 

-0.000000 -0.000000 0.000000 
0.000000 0.000000 0.000000 
0.000000 0.000000 0.000000 

0.000000 -0.000000 0.000000 
0.000000 0.000000 0.000000 
0.000000 0.000000 0.000000 

0.000000 0.000000 0.000000 
0.000000 0.000000 0.000000 
0.000000 0.000000 0.000000 

0.000000 -0.000000 0.000000 
0.000000 0.000000 0.000000 
0.000000 0.000000 0.000000 

0.000000 0.000000 0.000000 
0.000000 0.000000 0.000000 
0.000000 0.000000 0.000000 

0.000000 0.000000 0.000000 
0.000000 -0.000000 0.000000 
0.000000 0.000000 0.000000 

0.000000 0.000000 0.000000 
0.000000 -0.000000 0.000000 
0.000000 0.000000 0.000000 

0.000000 -0.000000 0.000000 
0.000000 0.000000 0.000000 
0.000000 0.000000 0.000000 

-0.000000 -0.000000 0.000000 
0.000000 0.000000 0.000000 
0.000000 0.000000 0.000000 

-0.000000 -0.000000 0.000000 
0.000000 0.000000 0.000000 
0.000000 0.000000 0.000000 

0.000000 -0.000000 0.000000 
0.000000 0.000000 0.000000 
0.000000 0.000000 0.000000 

0.000000 -0.000000 0.000000 
0.000000 -0.000000 0.000000 
0.000000 0.000000 0.000000 

-0.000000 0.000000 0.000000 
0.000000 0.000000 0.000000 
0.000000 0.000000 0.000000 

-0.000000 0.000000 0.000000 
0.000000 0.000000 0.000000 
0.000000 0.000000 0.000000 

-0.000000 0.000000 0.000000 
0.000000 0.000000 0.000000 
0.000000 0.000000 0.000000 

-0.000000 0.000000 0.000000 
0.000000 0.000000 0.000000 
0.000000 0.000000 0.000000 

-0.000000 -0.000000 0.000000 
0.000000 0.000000 0.000000 
0.000000 0.000000 0.000000 

0.000000 -0.000000 0.000000 
0.000000 -0.000000 0.000000 
0.000000 0.000000 0.000000 

-0.000000 -0.000000 0.000000 
0.000000 0.000000 0.000000 
0.000000 0.000000 0.000000 

-0.000000 -0.000000 0.000000 
0.000000 -0.000000 0.000000 
0.000000 0.000000 0.000000 

-0.000000 -0.000000 0.000000 
0.000000 -0.000000 0.000000 
0.000000 0.000000 0.000000 

0.000000 -0.000000 0.000000 
0.000000 -0.000000 0.000000 
0.000000 0.000000 0.000000 

-0.000000 -0.000000 0.000000 
0.000000 -0.000000 0.000000 
0.000000 0.000000 0.000000 

-0.000000 -0.000000 0.000000 
0.000000 -0.000000 0.000000 
0.000000 0.000000 0.000000 

0.000000 0.000000 0.000000 
0.000000 -0.000000 0.000000 
0.000000 0.000000 0.000000 

0.000000 0.000000 0.000000 
0.000000 -0.000000 0.000000 
0.000000 0.000000 0.000000 

0.000000 0.000000 0.000000 
0.000000 0.000000 0.000000 
0.000000 0.000000 0.000000 

0.000000 0.000000 0.000000 
0.000000 -0.000000 0.000000 
0.000000 0.000000 0.000000 

0.000000 0.000000 0.000000 
0.000000 0.000000 0.000000 
0.000000 0.000000 0.000000 

-0.000000 -0.000000 0.000000 
0.000000 -0.000000 0.000000 
0.000000 0.000000 0.000000 

-0.000000 -0.000000 0.000000 
0.000000 -0.000000 0.000000 
0.000000 0.000000 0.000000 

-0.000000 -0.000000 0.000000 
0.000000 -0.000000 0.000000 
0.000000 0.000000 0.000000 

0.000000 -0.000000 0.000000 
0.000000 -0.000000 0.000000 
0.000000 0.000000 0.000000 

-0.000000 -0.000000 0.000000 
0.000000 -0.000000 0.000000 
0.000000 0.000000 0.000000 

-0.000000 -0.000000 0.000000 
0.000000 0.000000 0.000000 
0.000000 0.000000 0.000000 

-0.000000 -0.000000 0.000000 
0.000000 -0.000000 0.000000 
0.000000 0.000000 0.000000 

-0.000000 0.000000 0.000000 
0.000000 -0.000000 0.000000 
0.000000 0.000000 0.000000 

-0.000000 -0.000000 0.000000 
0.000000 0.000000 0.000000 
0.000000 0.000000 0.000000 

-0.000000 0.000000 0.000000 
0.000000 0.000000 0.000000 
0.000000 0.000000 0.000000 

-0.000000 -0.000000 0.000000 
0.000000 0.000000 0.000000 
0.000000 0.000000 0.000000 

-0.000000 -0.000000 0.000000 
0.000000 0.000000 0.000000 
0.000000 0.000000 0.000000 

-0.000000 0.000000 0.000000 
0.000000 0.000000 0.000000 
0.000000 0.000000 0.000000 

-0.000000 0.000000 0.000000 
0.000000 0.000000 0.000000 
0.000000 0.000000 0.000000 

