# vtk DataFile Version 3.0 
vtk output 
ASCII 
DATASET UNSTRUCTURED_GRID 
POINTS 175 float 
-0.026061 -2.325496 0.000000 
-0.106992 -2.257440 0.000000 
-0.054870 -2.265673 0.000000 
-0.028809 -2.219789 0.000000 
-0.186430 -2.193365 0.000000 
-0.137056 -2.195891 0.000000 
-0.114311 -2.142244 0.000000 
-0.058186 -2.157909 0.000000 
-0.029377 -2.117732 0.000000 
-0.265318 -2.130209 0.000000 
-0.217198 -2.131009 0.000000 
-0.196633 -2.073712 0.000000 
-0.143120 -2.082421 0.000000 
-0.116563 -2.035153 0.000000 
-0.058945 -2.054798 0.000000 
-0.029568 -2.016678 0.000000 
-0.344206 -2.067053 0.000000 
-0.296791 -2.067046 0.000000 
-0.278030 -2.007103 0.000000 
-0.225992 -2.012970 0.000000 
-0.201664 -1.960853 0.000000 
-0.145749 -1.974327 0.000000 
-0.117890 -1.929984 0.000000 
-0.059328 -1.952690 0.000000 
-0.029759 -1.915624 0.000000 
-0.058559 -2.366247 0.000000 
-0.162226 -2.387089 0.000000 
-0.123292 -2.351472 0.000000 
-0.142917 -2.302488 0.000000 
-0.261851 -2.409246 0.000000 
-0.229092 -2.372219 0.000000 
-0.256854 -2.320987 0.000000 
-0.209613 -2.286874 0.000000 
-0.223062 -2.239301 0.000000 
-0.360414 -2.431546 0.000000 
-0.329787 -2.394423 0.000000 
-0.361761 -2.342621 0.000000 
-0.321587 -2.306212 0.000000 
-0.341985 -2.255978 0.000000 
-0.290702 -2.223179 0.000000 
-0.302189 -2.176444 0.000000 
-0.458977 -2.453846 0.000000 
-0.429420 -2.416771 0.000000 
-0.464588 -2.364730 0.000000 
-0.427556 -2.327702 0.000000 
-0.453135 -2.276187 0.000000 
-0.407738 -2.240872 0.000000 
-0.425037 -2.191444 0.000000 
-0.370772 -2.159815 0.000000 
-0.381315 -2.113587 0.000000 
-0.046960 -2.417062 0.000000 
-0.095301 -2.511108 0.000000 
-0.098873 -2.458461 0.000000 
-0.149405 -2.443263 0.000000 
-0.140093 -2.602812 0.000000 
-0.148617 -2.554114 0.000000 
-0.205981 -2.543876 0.000000 
-0.203197 -2.485673 0.000000 
-0.248777 -2.466526 0.000000 
-0.184111 -2.693775 0.000000 
-0.194039 -2.646684 0.000000 
-0.254475 -2.639385 0.000000 
-0.257893 -2.585275 0.000000 
-0.309886 -2.569903 0.000000 
-0.303554 -2.509357 0.000000 
-0.347255 -2.489200 0.000000 
-0.228129 -2.784739 0.000000 
-0.238687 -2.738515 0.000000 
-0.301302 -2.733563 0.000000 
-0.307162 -2.681524 0.000000 
-0.363386 -2.669403 0.000000 
-0.362692 -2.611891 0.000000 
-0.412122 -2.594598 0.000000 
-0.403017 -2.532452 0.000000 
-0.445733 -2.511873 0.000000 
-0.000000 -2.439677 0.000000 
0.043388 -2.536107 0.000000 
-0.000000 -2.506075 0.000000 
-0.043388 -2.536107 0.000000 
0.087158 -2.628304 0.000000 
0.043769 -2.604605 0.000000 
-0.000000 -2.643071 0.000000 
-0.043769 -2.604605 0.000000 
-0.087158 -2.628304 0.000000 
0.130831 -2.719434 0.000000 
0.087824 -2.697835 0.000000 
0.044436 -2.740535 0.000000 
-0.000000 -2.709470 0.000000 
-0.044436 -2.740535 0.000000 
-0.087824 -2.697835 0.000000 
-0.130831 -2.719434 0.000000 
0.174505 -2.810563 0.000000 
0.131782 -2.789997 0.000000 
0.088871 -2.835864 0.000000 
0.044532 -2.808000 0.000000 
-0.000000 -2.844400 0.000000 
-0.044532 -2.808000 0.000000 
-0.088871 -2.835864 0.000000 
-0.131782 -2.789997 0.000000 
-0.174505 -2.810563 0.000000 
0.046960 -2.417062 0.000000 
0.149405 -2.443263 0.000000 
0.098873 -2.458461 0.000000 
0.095301 -2.511108 0.000000 
0.248777 -2.466526 0.000000 
0.203197 -2.485673 0.000000 
0.205981 -2.543876 0.000000 
0.148617 -2.554114 0.000000 
0.140093 -2.602812 0.000000 
0.347255 -2.489200 0.000000 
0.303554 -2.509357 0.000000 
0.309886 -2.569903 0.000000 
0.257893 -2.585275 0.000000 
0.254475 -2.639385 0.000000 
0.194039 -2.646684 0.000000 
0.184111 -2.693775 0.000000 
0.445733 -2.511873 0.000000 
0.403017 -2.532452 0.000000 
0.412122 -2.594598 0.000000 
0.362692 -2.611891 0.000000 
0.363386 -2.669403 0.000000 
0.307162 -2.681524 0.000000 
0.301302 -2.733563 0.000000 
0.238687 -2.738515 0.000000 
0.228129 -2.784739 0.000000 
0.058559 -2.366247 0.000000 
0.142917 -2.302488 0.000000 
0.123292 -2.351472 0.000000 
0.162226 -2.387089 0.000000 
0.223062 -2.239301 0.000000 
0.209613 -2.286874 0.000000 
0.256854 -2.320987 0.000000 
0.229092 -2.372219 0.000000 
0.261851 -2.409246 0.000000 
0.302189 -2.176444 0.000000 
0.290702 -2.223179 0.000000 
0.341985 -2.255978 0.000000 
0.321587 -2.306212 0.000000 
0.361761 -2.342621 0.000000 
0.329787 -2.394423 0.000000 
0.360414 -2.431546 0.000000 
0.381315 -2.113587 0.000000 
0.370772 -2.159815 0.000000 
0.425037 -2.191444 0.000000 
0.407738 -2.240872 0.000000 
0.453135 -2.276187 0.000000 
0.427556 -2.327702 0.000000 
0.464588 -2.364730 0.000000 
0.429420 -2.416771 0.000000 
0.458977 -2.453846 0.000000 
0.026061 -2.325496 0.000000 
0.028809 -2.219789 0.000000 
0.054870 -2.265673 0.000000 
0.106992 -2.257440 0.000000 
0.029377 -2.117732 0.000000 
0.058186 -2.157909 0.000000 
0.114311 -2.142244 0.000000 
0.137056 -2.195891 0.000000 
0.186430 -2.193365 0.000000 
0.029568 -2.016678 0.000000 
0.058945 -2.054798 0.000000 
0.116563 -2.035153 0.000000 
0.143120 -2.082421 0.000000 
0.196633 -2.073712 0.000000 
0.217198 -2.131009 0.000000 
0.265318 -2.130209 0.000000 
0.029759 -1.915624 0.000000 
0.059328 -1.952690 0.000000 
0.117890 -1.929984 0.000000 
0.145749 -1.974327 0.000000 
0.201664 -1.960853 0.000000 
0.225992 -2.012970 0.000000 
0.278030 -2.007103 0.000000 
0.296791 -2.067046 0.000000 
0.344206 -2.067053 0.000000 
CELLS 175 350 
1 0 
1 1 
1 2 
1 3 
1 4 
1 5 
1 6 
1 7 
1 8 
1 9 
1 10 
1 11 
1 12 
1 13 
1 14 
1 15 
1 16 
1 17 
1 18 
1 19 
1 20 
1 21 
1 22 
1 23 
1 24 
1 25 
1 26 
1 27 
1 28 
1 29 
1 30 
1 31 
1 32 
1 33 
1 34 
1 35 
1 36 
1 37 
1 38 
1 39 
1 40 
1 41 
1 42 
1 43 
1 44 
1 45 
1 46 
1 47 
1 48 
1 49 
1 50 
1 51 
1 52 
1 53 
1 54 
1 55 
1 56 
1 57 
1 58 
1 59 
1 60 
1 61 
1 62 
1 63 
1 64 
1 65 
1 66 
1 67 
1 68 
1 69 
1 70 
1 71 
1 72 
1 73 
1 74 
1 75 
1 76 
1 77 
1 78 
1 79 
1 80 
1 81 
1 82 
1 83 
1 84 
1 85 
1 86 
1 87 
1 88 
1 89 
1 90 
1 91 
1 92 
1 93 
1 94 
1 95 
1 96 
1 97 
1 98 
1 99 
1 100 
1 101 
1 102 
1 103 
1 104 
1 105 
1 106 
1 107 
1 108 
1 109 
1 110 
1 111 
1 112 
1 113 
1 114 
1 115 
1 116 
1 117 
1 118 
1 119 
1 120 
1 121 
1 122 
1 123 
1 124 
1 125 
1 126 
1 127 
1 128 
1 129 
1 130 
1 131 
1 132 
1 133 
1 134 
1 135 
1 136 
1 137 
1 138 
1 139 
1 140 
1 141 
1 142 
1 143 
1 144 
1 145 
1 146 
1 147 
1 148 
1 149 
1 150 
1 151 
1 152 
1 153 
1 154 
1 155 
1 156 
1 157 
1 158 
1 159 
1 160 
1 161 
1 162 
1 163 
1 164 
1 165 
1 166 
1 167 
1 168 
1 169 
1 170 
1 171 
1 172 
1 173 
1 174 
CELL_TYPES 175 
1 
1 
1 
1 
1 
1 
1 
1 
1 
1 
1 
1 
1 
1 
1 
1 
1 
1 
1 
1 
1 
1 
1 
1 
1 
1 
1 
1 
1 
1 
1 
1 
1 
1 
1 
1 
1 
1 
1 
1 
1 
1 
1 
1 
1 
1 
1 
1 
1 
1 
1 
1 
1 
1 
1 
1 
1 
1 
1 
1 
1 
1 
1 
1 
1 
1 
1 
1 
1 
1 
1 
1 
1 
1 
1 
1 
1 
1 
1 
1 
1 
1 
1 
1 
1 
1 
1 
1 
1 
1 
1 
1 
1 
1 
1 
1 
1 
1 
1 
1 
1 
1 
1 
1 
1 
1 
1 
1 
1 
1 
1 
1 
1 
1 
1 
1 
1 
1 
1 
1 
1 
1 
1 
1 
1 
1 
1 
1 
1 
1 
1 
1 
1 
1 
1 
1 
1 
1 
1 
1 
1 
1 
1 
1 
1 
1 
1 
1 
1 
1 
1 
1 
1 
1 
1 
1 
1 
1 
1 
1 
1 
1 
1 
1 
1 
1 
1 
1 
1 
1 
1 
1 
1 
1 
1 
POINT_DATA 175 
VECTORS X_GC float 
-0.026061 -2.325496 0.000000 
-0.106992 -2.257440 0.000000 
-0.054870 -2.265673 0.000000 
-0.028809 -2.219789 0.000000 
-0.186430 -2.193365 0.000000 
-0.137056 -2.195891 0.000000 
-0.114311 -2.142244 0.000000 
-0.058186 -2.157909 0.000000 
-0.029377 -2.117732 0.000000 
-0.265318 -2.130209 0.000000 
-0.217198 -2.131009 0.000000 
-0.196633 -2.073712 0.000000 
-0.143120 -2.082421 0.000000 
-0.116563 -2.035153 0.000000 
-0.058945 -2.054798 0.000000 
-0.029568 -2.016678 0.000000 
-0.344206 -2.067053 0.000000 
-0.296791 -2.067046 0.000000 
-0.278030 -2.007103 0.000000 
-0.225992 -2.012970 0.000000 
-0.201664 -1.960853 0.000000 
-0.145749 -1.974327 0.000000 
-0.117890 -1.929984 0.000000 
-0.059328 -1.952690 0.000000 
-0.029759 -1.915624 0.000000 
-0.058559 -2.366247 0.000000 
-0.162226 -2.387089 0.000000 
-0.123292 -2.351472 0.000000 
-0.142917 -2.302488 0.000000 
-0.261851 -2.409246 0.000000 
-0.229092 -2.372219 0.000000 
-0.256854 -2.320987 0.000000 
-0.209613 -2.286874 0.000000 
-0.223062 -2.239301 0.000000 
-0.360414 -2.431546 0.000000 
-0.329787 -2.394423 0.000000 
-0.361761 -2.342621 0.000000 
-0.321587 -2.306212 0.000000 
-0.341985 -2.255978 0.000000 
-0.290702 -2.223179 0.000000 
-0.302189 -2.176444 0.000000 
-0.458977 -2.453846 0.000000 
-0.429420 -2.416771 0.000000 
-0.464588 -2.364730 0.000000 
-0.427556 -2.327702 0.000000 
-0.453135 -2.276187 0.000000 
-0.407738 -2.240872 0.000000 
-0.425037 -2.191444 0.000000 
-0.370772 -2.159815 0.000000 
-0.381315 -2.113587 0.000000 
-0.046960 -2.417062 0.000000 
-0.095301 -2.511108 0.000000 
-0.098873 -2.458461 0.000000 
-0.149405 -2.443263 0.000000 
-0.140093 -2.602812 0.000000 
-0.148617 -2.554114 0.000000 
-0.205981 -2.543876 0.000000 
-0.203197 -2.485673 0.000000 
-0.248777 -2.466526 0.000000 
-0.184111 -2.693775 0.000000 
-0.194039 -2.646684 0.000000 
-0.254475 -2.639385 0.000000 
-0.257893 -2.585275 0.000000 
-0.309886 -2.569903 0.000000 
-0.303554 -2.509357 0.000000 
-0.347255 -2.489200 0.000000 
-0.228129 -2.784739 0.000000 
-0.238687 -2.738515 0.000000 
-0.301302 -2.733563 0.000000 
-0.307162 -2.681524 0.000000 
-0.363386 -2.669403 0.000000 
-0.362692 -2.611891 0.000000 
-0.412122 -2.594598 0.000000 
-0.403017 -2.532452 0.000000 
-0.445733 -2.511873 0.000000 
-0.000000 -2.439677 0.000000 
0.043388 -2.536107 0.000000 
-0.000000 -2.506075 0.000000 
-0.043388 -2.536107 0.000000 
0.087158 -2.628304 0.000000 
0.043769 -2.604605 0.000000 
-0.000000 -2.643071 0.000000 
-0.043769 -2.604605 0.000000 
-0.087158 -2.628304 0.000000 
0.130831 -2.719434 0.000000 
0.087824 -2.697835 0.000000 
0.044436 -2.740535 0.000000 
-0.000000 -2.709470 0.000000 
-0.044436 -2.740535 0.000000 
-0.087824 -2.697835 0.000000 
-0.130831 -2.719434 0.000000 
0.174505 -2.810563 0.000000 
0.131782 -2.789997 0.000000 
0.088871 -2.835864 0.000000 
0.044532 -2.808000 0.000000 
-0.000000 -2.844400 0.000000 
-0.044532 -2.808000 0.000000 
-0.088871 -2.835864 0.000000 
-0.131782 -2.789997 0.000000 
-0.174505 -2.810563 0.000000 
0.046960 -2.417062 0.000000 
0.149405 -2.443263 0.000000 
0.098873 -2.458461 0.000000 
0.095301 -2.511108 0.000000 
0.248777 -2.466526 0.000000 
0.203197 -2.485673 0.000000 
0.205981 -2.543876 0.000000 
0.148617 -2.554114 0.000000 
0.140093 -2.602812 0.000000 
0.347255 -2.489200 0.000000 
0.303554 -2.509357 0.000000 
0.309886 -2.569903 0.000000 
0.257893 -2.585275 0.000000 
0.254475 -2.639385 0.000000 
0.194039 -2.646684 0.000000 
0.184111 -2.693775 0.000000 
0.445733 -2.511873 0.000000 
0.403017 -2.532452 0.000000 
0.412122 -2.594598 0.000000 
0.362692 -2.611891 0.000000 
0.363386 -2.669403 0.000000 
0.307162 -2.681524 0.000000 
0.301302 -2.733563 0.000000 
0.238687 -2.738515 0.000000 
0.228129 -2.784739 0.000000 
0.058559 -2.366247 0.000000 
0.142917 -2.302488 0.000000 
0.123292 -2.351472 0.000000 
0.162226 -2.387089 0.000000 
0.223062 -2.239301 0.000000 
0.209613 -2.286874 0.000000 
0.256854 -2.320987 0.000000 
0.229092 -2.372219 0.000000 
0.261851 -2.409246 0.000000 
0.302189 -2.176444 0.000000 
0.290702 -2.223179 0.000000 
0.341985 -2.255978 0.000000 
0.321587 -2.306212 0.000000 
0.361761 -2.342621 0.000000 
0.329787 -2.394423 0.000000 
0.360414 -2.431546 0.000000 
0.381315 -2.113587 0.000000 
0.370772 -2.159815 0.000000 
0.425037 -2.191444 0.000000 
0.407738 -2.240872 0.000000 
0.453135 -2.276187 0.000000 
0.427556 -2.327702 0.000000 
0.464588 -2.364730 0.000000 
0.429420 -2.416771 0.000000 
0.458977 -2.453846 0.000000 
0.026061 -2.325496 0.000000 
0.028809 -2.219789 0.000000 
0.054870 -2.265673 0.000000 
0.106992 -2.257440 0.000000 
0.029377 -2.117732 0.000000 
0.058186 -2.157909 0.000000 
0.114311 -2.142244 0.000000 
0.137056 -2.195891 0.000000 
0.186430 -2.193365 0.000000 
0.029568 -2.016678 0.000000 
0.058945 -2.054798 0.000000 
0.116563 -2.035153 0.000000 
0.143120 -2.082421 0.000000 
0.196633 -2.073712 0.000000 
0.217198 -2.131009 0.000000 
0.265318 -2.130209 0.000000 
0.029759 -1.915624 0.000000 
0.059328 -1.952690 0.000000 
0.117890 -1.929984 0.000000 
0.145749 -1.974327 0.000000 
0.201664 -1.960853 0.000000 
0.225992 -2.012970 0.000000 
0.278030 -2.007103 0.000000 
0.296791 -2.067046 0.000000 
0.344206 -2.067053 0.000000 
VECTORS X_EC float 
0.338794 -0.105805 0.000000 
-0.609100 0.975446 0.000000 
0.713312 -0.913413 0.000000 
0.374519 0.467158 0.000000 
0.423588 0.110427 0.000000 
-0.218274 0.144531 0.000000 
-0.513962 -0.579708 0.000000 
0.756418 -0.368222 0.000000 
0.381900 -0.910615 0.000000 
-0.550868 -0.742176 0.000000 
0.823577 -0.731381 0.000000 
0.556234 0.495115 0.000000 
-0.139443 0.612684 0.000000 
-0.484677 -0.025440 0.000000 
0.766286 0.239775 0.000000 
0.384386 -0.274845 0.000000 
0.474677 0.405221 0.000000 
-0.141715 0.405124 0.000000 
-0.385608 -0.404104 0.000000 
0.937896 -0.324908 0.000000 
0.621631 0.971512 0.000000 
-0.105264 -0.846589 0.000000 
-0.467428 0.554785 0.000000 
0.771260 0.861313 0.000000 
0.386873 0.360924 0.000000 
0.761262 0.444329 0.000000 
0.108942 0.725706 0.000000 
-0.397202 0.244867 0.000000 
-0.142083 -0.416409 0.000000 
-0.595936 -0.975184 0.000000 
0.978194 0.524951 0.000000 
-0.660903 -0.166674 0.000000 
0.724964 -0.627194 0.000000 
0.899809 0.730557 0.000000 
0.685384 -0.674131 0.000000 
0.287229 0.824710 0.000000 
0.702895 0.125382 0.000000 
0.180633 -0.366137 0.000000 
0.445811 0.955703 0.000000 
-0.220880 0.512917 0.000000 
-0.071546 -0.118008 0.000000 
-0.033296 -0.373079 0.000000 
-0.417537 -0.873589 0.000000 
0.039645 0.423849 0.000000 
-0.441768 -0.076022 0.000000 
-0.109248 -0.771473 0.000000 
-0.699407 0.751771 0.000000 
-0.474522 0.084492 0.000000 
0.820030 -0.342501 0.000000 
0.957100 -0.966573 0.000000 
0.610485 -0.869664 0.000000 
-0.761092 0.399955 0.000000 
-0.714655 -0.310783 0.000000 
-0.057734 -0.515950 0.000000 
-0.178789 -0.362041 0.000000 
-0.067979 0.980533 0.000000 
0.677748 0.842330 0.000000 
0.641556 0.056584 0.000000 
-0.765897 -0.201894 0.000000 
0.393446 0.865968 0.000000 
0.522510 0.230238 0.000000 
-0.691820 0.131694 0.000000 
-0.647393 -0.598789 0.000000 
0.028512 -0.806315 0.000000 
-0.053800 0.376324 0.000000 
0.514316 0.104193 0.000000 
0.965681 0.093977 0.000000 
-0.897068 -0.530051 0.000000 
-0.083078 -0.596904 0.000000 
-0.006893 0.700571 0.000000 
0.724017 0.536938 0.000000 
0.714996 -0.239466 0.000000 
-0.642413 -0.472923 0.000000 
-0.760780 0.688097 0.000000 
-0.205471 0.410281 0.000000 
0.000000 -0.564363 0.000000 
-0.564049 0.737450 0.000000 
0.000000 0.332014 0.000000 
0.564049 0.737450 0.000000 
0.866949 -0.017895 0.000000 
-0.569003 -0.337826 0.000000 
0.000000 0.181462 0.000000 
0.569003 -0.337826 0.000000 
-0.866949 -0.017895 0.000000 
0.299194 -0.787645 0.000000 
0.858290 0.920772 0.000000 
-0.577662 -0.502783 0.000000 
0.000000 -0.922161 0.000000 
0.577662 -0.502783 0.000000 
-0.858290 0.920772 0.000000 
-0.299194 -0.787645 0.000000 
-0.268560 0.442606 0.000000 
0.286830 0.164964 0.000000 
0.844677 0.784162 0.000000 
-0.578910 0.407999 0.000000 
0.000000 0.899403 0.000000 
0.578910 0.407999 0.000000 
-0.844677 0.784162 0.000000 
-0.286830 0.164964 0.000000 
0.268560 0.442606 0.000000 
-0.610485 -0.869664 0.000000 
0.057734 -0.515950 0.000000 
0.714655 -0.310783 0.000000 
0.761092 0.399955 0.000000 
0.765897 -0.201894 0.000000 
-0.641556 0.056584 0.000000 
-0.677748 0.842330 0.000000 
0.067979 0.980533 0.000000 
0.178789 -0.362041 0.000000 
-0.514316 0.104193 0.000000 
0.053800 0.376324 0.000000 
-0.028512 -0.806315 0.000000 
0.647393 -0.598789 0.000000 
0.691820 0.131694 0.000000 
-0.522510 0.230238 0.000000 
-0.393446 0.865968 0.000000 
0.205471 0.410281 0.000000 
0.760780 0.688097 0.000000 
0.642413 -0.472923 0.000000 
-0.714996 -0.239466 0.000000 
-0.724017 0.536938 0.000000 
0.006894 0.700571 0.000000 
0.083078 -0.596904 0.000000 
0.897068 -0.530051 0.000000 
-0.965681 0.093977 0.000000 
-0.761262 0.444329 0.000000 
0.142083 -0.416409 0.000000 
0.397202 0.244867 0.000000 
-0.108942 0.725706 0.000000 
-0.899809 0.730557 0.000000 
-0.724964 -0.627194 0.000000 
0.660903 -0.166674 0.000000 
-0.978194 0.524951 0.000000 
0.595936 -0.975184 0.000000 
0.071546 -0.118008 0.000000 
0.220880 0.512917 0.000000 
-0.445811 0.955703 0.000000 
-0.180633 -0.366137 0.000000 
-0.702895 0.125382 0.000000 
-0.287229 0.824710 0.000000 
-0.685384 -0.674131 0.000000 
-0.957100 -0.966573 0.000000 
-0.820030 -0.342501 0.000000 
0.474522 0.084492 0.000000 
0.699407 0.751771 0.000000 
0.109248 -0.771473 0.000000 
0.441768 -0.076022 0.000000 
-0.039645 0.423849 0.000000 
0.417537 -0.873589 0.000000 
0.033296 -0.373079 0.000000 
-0.338794 -0.105805 0.000000 
-0.374519 0.467158 0.000000 
-0.713312 -0.913413 0.000000 
0.609100 0.975446 0.000000 
-0.381900 -0.910615 0.000000 
-0.756418 -0.368222 0.000000 
0.513962 -0.579708 0.000000 
0.218274 0.144531 0.000000 
-0.423588 0.110427 0.000000 
-0.384386 -0.274845 0.000000 
-0.766286 0.239775 0.000000 
0.484677 -0.025440 0.000000 
0.139443 0.612684 0.000000 
-0.556234 0.495115 0.000000 
-0.823577 -0.731381 0.000000 
0.550868 -0.742176 0.000000 
-0.386873 0.360924 0.000000 
-0.771260 0.861313 0.000000 
0.467428 0.554785 0.000000 
0.105264 -0.846589 0.000000 
-0.621631 0.971512 0.000000 
-0.937896 -0.324908 0.000000 
0.385608 -0.404104 0.000000 
0.141715 0.405124 0.000000 
-0.474677 0.405221 0.000000 
CELL_DATA 175 
SCALARS MASS float 
LOOKUP_TABLE default 
0.078183 
0.086427 
0.094672 
0.086427 
0.088131 
0.092111 
0.085854 
0.092111 
0.088131 
0.088705 
0.091000 
0.086983 
0.091556 
0.086983 
0.091000 
0.088705 
0.089278 
0.091574 
0.089278 
0.092722 
0.089278 
0.092722 
0.089278 
0.091574 
0.089278 
0.078183 
0.086427 
0.094672 
0.086427 
0.088131 
0.092111 
0.085854 
0.092111 
0.088131 
0.088705 
0.091000 
0.086983 
0.091556 
0.086983 
0.091000 
0.088705 
0.089278 
0.091574 
0.089278 
0.092722 
0.089278 
0.092722 
0.089278 
0.091574 
0.089278 
0.078183 
0.086427 
0.094672 
0.086427 
0.088131 
0.092111 
0.085854 
0.092111 
0.088131 
0.088705 
0.091000 
0.086983 
0.091556 
0.086983 
0.091000 
0.088705 
0.089278 
0.091574 
0.089278 
0.092722 
0.089278 
0.092722 
0.089278 
0.091574 
0.089278 
0.078183 
0.086427 
0.094672 
0.086427 
0.088131 
0.092111 
0.085854 
0.092111 
0.088131 
0.088705 
0.091000 
0.086983 
0.091556 
0.086983 
0.091000 
0.088705 
0.089278 
0.091574 
0.089278 
0.092722 
0.089278 
0.092722 
0.089278 
0.091574 
0.089278 
0.078183 
0.086427 
0.094672 
0.086427 
0.088131 
0.092111 
0.085854 
0.092111 
0.088131 
0.088705 
0.091000 
0.086983 
0.091556 
0.086983 
0.091000 
0.088705 
0.089278 
0.091574 
0.089278 
0.092722 
0.089278 
0.092722 
0.089278 
0.091574 
0.089278 
0.078183 
0.086427 
0.094672 
0.086427 
0.088131 
0.092111 
0.085854 
0.092111 
0.088131 
0.088705 
0.091000 
0.086983 
0.091556 
0.086983 
0.091000 
0.088705 
0.089278 
0.091574 
0.089278 
0.092722 
0.089278 
0.092722 
0.089278 
0.091574 
0.089278 
0.078183 
0.086427 
0.094672 
0.086427 
0.088131 
0.092111 
0.085854 
0.092111 
0.088131 
0.088705 
0.091000 
0.086983 
0.091556 
0.086983 
0.091000 
0.088705 
0.089278 
0.091574 
0.089278 
0.092722 
0.089278 
0.092722 
0.089278 
0.091574 
0.089278 
SCALARS MASS float 
LOOKUP_TABLE default 
0.078183 
0.086427 
0.094672 
0.086427 
0.088131 
0.092111 
0.085854 
0.092111 
0.088131 
0.088705 
0.091000 
0.086983 
0.091556 
0.086983 
0.091000 
0.088705 
0.089278 
0.091574 
0.089278 
0.092722 
0.089278 
0.092722 
0.089278 
0.091574 
0.089278 
0.078183 
0.086427 
0.094672 
0.086427 
0.088131 
0.092111 
0.085854 
0.092111 
0.088131 
0.088705 
0.091000 
0.086983 
0.091556 
0.086983 
0.091000 
0.088705 
0.089278 
0.091574 
0.089278 
0.092722 
0.089278 
0.092722 
0.089278 
0.091574 
0.089278 
0.078183 
0.086427 
0.094672 
0.086427 
0.088131 
0.092111 
0.085854 
0.092111 
0.088131 
0.088705 
0.091000 
0.086983 
0.091556 
0.086983 
0.091000 
0.088705 
0.089278 
0.091574 
0.089278 
0.092722 
0.089278 
0.092722 
0.089278 
0.091574 
0.089278 
0.078183 
0.086427 
0.094672 
0.086427 
0.088131 
0.092111 
0.085854 
0.092111 
0.088131 
0.088705 
0.091000 
0.086983 
0.091556 
0.086983 
0.091000 
0.088705 
0.089278 
0.091574 
0.089278 
0.092722 
0.089278 
0.092722 
0.089278 
0.091574 
0.089278 
0.078183 
0.086427 
0.094672 
0.086427 
0.088131 
0.092111 
0.085854 
0.092111 
0.088131 
0.088705 
0.091000 
0.086983 
0.091556 
0.086983 
0.091000 
0.088705 
0.089278 
0.091574 
0.089278 
0.092722 
0.089278 
0.092722 
0.089278 
0.091574 
0.089278 
0.078183 
0.086427 
0.094672 
0.086427 
0.088131 
0.092111 
0.085854 
0.092111 
0.088131 
0.088705 
0.091000 
0.086983 
0.091556 
0.086983 
0.091000 
0.088705 
0.089278 
0.091574 
0.089278 
0.092722 
0.089278 
0.092722 
0.089278 
0.091574 
0.089278 
0.078183 
0.086427 
0.094672 
0.086427 
0.088131 
0.092111 
0.085854 
0.092111 
0.088131 
0.088705 
0.091000 
0.086983 
0.091556 
0.086983 
0.091000 
0.088705 
0.089278 
0.091574 
0.089278 
0.092722 
0.089278 
0.092722 
0.089278 
0.091574 
0.089278 
SCALARS DENSITY float 
LOOKUP_TABLE default 
20.000000 
20.000000 
20.000000 
20.000000 
20.000000 
20.000000 
20.000000 
20.000000 
20.000000 
20.000000 
20.000000 
20.000000 
20.000000 
20.000000 
20.000000 
20.000000 
20.000000 
20.000000 
20.000000 
20.000000 
20.000000 
20.000000 
20.000000 
20.000000 
20.000000 
20.000000 
20.000000 
20.000000 
20.000000 
20.000000 
20.000000 
20.000000 
20.000000 
20.000000 
20.000000 
20.000000 
20.000000 
20.000000 
20.000000 
20.000000 
20.000000 
20.000000 
20.000000 
20.000000 
20.000000 
20.000000 
20.000000 
20.000000 
20.000000 
20.000000 
20.000000 
20.000000 
20.000000 
20.000000 
20.000000 
20.000000 
20.000000 
20.000000 
20.000000 
20.000000 
20.000000 
20.000000 
20.000000 
20.000000 
20.000000 
20.000000 
20.000000 
20.000000 
20.000000 
20.000000 
20.000000 
20.000000 
20.000000 
20.000000 
20.000000 
20.000000 
20.000000 
20.000000 
20.000000 
20.000000 
20.000000 
20.000000 
20.000000 
20.000000 
20.000000 
20.000000 
20.000000 
20.000000 
20.000000 
20.000000 
20.000000 
20.000000 
20.000000 
20.000000 
20.000000 
20.000000 
20.000000 
20.000000 
20.000000 
20.000000 
20.000000 
20.000000 
20.000000 
20.000000 
20.000000 
20.000000 
20.000000 
20.000000 
20.000000 
20.000000 
20.000000 
20.000000 
20.000000 
20.000000 
20.000000 
20.000000 
20.000000 
20.000000 
20.000000 
20.000000 
20.000000 
20.000000 
20.000000 
20.000000 
20.000000 
20.000000 
20.000000 
20.000000 
20.000000 
20.000000 
20.000000 
20.000000 
20.000000 
20.000000 
20.000000 
20.000000 
20.000000 
20.000000 
20.000000 
20.000000 
20.000000 
20.000000 
20.000000 
20.000000 
20.000000 
20.000000 
20.000000 
20.000000 
20.000000 
20.000000 
20.000000 
20.000000 
20.000000 
20.000000 
20.000000 
20.000000 
20.000000 
20.000000 
20.000000 
20.000000 
20.000000 
20.000000 
20.000000 
20.000000 
20.000000 
20.000000 
20.000000 
20.000000 
20.000000 
20.000000 
20.000000 
20.000000 
20.000000 
20.000000 
20.000000 
SCALARS ELEM_i float 
LOOKUP_TABLE default 
166 
194 
166 
167 
194 
194 
194 
167 
167 
221 
194 
195 
195 
195 
168 
168 
222 
222 
222 
195 
196 
195 
196 
169 
169 
166 
193 
193 
193 
219 
193 
220 
193 
194 
219 
220 
220 
220 
221 
221 
221 
246 
246 
247 
247 
247 
248 
248 
221 
221 
165 
192 
192 
192 
191 
192 
192 
192 
219 
191 
191 
218 
218 
218 
219 
219 
190 
217 
217 
218 
218 
218 
245 
246 
246 
165 
165 
165 
165 
137 
164 
164 
164 
191 
136 
137 
163 
163 
163 
191 
190 
136 
136 
136 
163 
163 
163 
190 
190 
190 
165 
138 
138 
138 
111 
138 
138 
138 
137 
111 
111 
110 
110 
110 
137 
137 
84 
84 
83 
110 
110 
110 
109 
109 
136 
166 
139 
139 
139 
140 
139 
112 
139 
111 
113 
113 
113 
112 
112 
112 
111 
113 
113 
86 
86 
85 
85 
85 
84 
84 
166 
167 
166 
140 
167 
167 
140 
140 
140 
168 
168 
141 
141 
141 
140 
113 
169 
169 
142 
141 
142 
141 
114 
114 
114 
VECTORS VELOCITY float 
0.000000 -6.832469 0.000000 
0.000000 -6.832469 0.000000 
0.000000 -6.832469 0.000000 
0.000000 -6.832469 0.000000 
0.000000 -6.832469 0.000000 
0.000000 -6.832469 0.000000 
0.000000 -6.832469 0.000000 
0.000000 -6.832469 0.000000 
0.000000 -6.832469 0.000000 
0.000000 -6.832469 0.000000 
0.000000 -6.832469 0.000000 
-0.000000 -6.832469 0.000000 
-0.000000 -6.832469 0.000000 
-0.000000 -6.832469 0.000000 
0.000000 -6.832469 0.000000 
0.000000 -6.832469 0.000000 
0.000000 -6.832469 0.000000 
0.000000 -6.832469 0.000000 
0.000000 -6.832469 0.000000 
-0.000000 -6.832469 0.000000 
-0.000000 -6.832469 0.000000 
-0.000000 -6.832469 0.000000 
0.000000 -6.832469 0.000000 
-0.000000 -6.832469 0.000000 
-0.000000 -6.832469 0.000000 
0.000000 -6.832469 0.000000 
0.000000 -6.832469 0.000000 
0.000000 -6.832469 0.000000 
0.000000 -6.832469 0.000000 
0.000000 -6.832469 0.000000 
0.000000 -6.832469 0.000000 
-0.000000 -6.832469 0.000000 
0.000000 -6.832469 0.000000 
-0.000000 -6.832469 0.000000 
-0.000000 -6.832469 0.000000 
-0.000000 -6.832469 0.000000 
-0.000000 -6.832469 0.000000 
-0.000000 -6.832469 0.000000 
-0.000000 -6.832469 0.000000 
-0.000000 -6.832469 0.000000 
0.000000 -6.832469 0.000000 
-0.000000 -6.832469 0.000000 
-0.000000 -6.832469 0.000000 
0.000000 -6.832469 0.000000 
-0.000000 -6.832469 0.000000 
0.000000 -6.832469 0.000000 
0.000000 -6.832469 0.000000 
0.000000 -6.832469 0.000000 
0.000000 -6.832469 0.000000 
0.000000 -6.832469 0.000000 
-0.000000 -6.832469 0.000000 
-0.000000 -6.832469 0.000000 
-0.000000 -6.832469 0.000000 
-0.000000 -6.832469 0.000000 
0.000000 -6.832469 0.000000 
-0.000000 -6.832469 0.000000 
-0.000000 -6.832469 0.000000 
-0.000000 -6.832469 0.000000 
-0.000000 -6.832469 0.000000 
-0.000000 -6.832469 0.000000 
-0.000000 -6.832469 0.000000 
-0.000000 -6.832469 0.000000 
-0.000000 -6.832469 0.000000 
0.000000 -6.832469 0.000000 
0.000000 -6.832469 0.000000 
0.000000 -6.832469 0.000000 
-0.000000 -6.832469 0.000000 
-0.000000 -6.832469 0.000000 
-0.000000 -6.832469 0.000000 
0.000000 -6.832469 0.000000 
-0.000000 -6.832469 0.000000 
0.000000 -6.832469 0.000000 
0.000000 -6.832469 0.000000 
0.000000 -6.832469 0.000000 
-0.000000 -6.832469 0.000000 
0.000000 -6.832469 0.000000 
0.000000 -6.832469 0.000000 
-0.000000 -6.832469 0.000000 
0.000000 -6.832469 0.000000 
0.000000 -6.832469 0.000000 
-0.000000 -6.832469 0.000000 
0.000000 -6.832469 0.000000 
0.000000 -6.832469 0.000000 
0.000000 -6.832469 0.000000 
0.000000 -6.832469 0.000000 
0.000000 -6.832469 0.000000 
0.000000 -6.832469 0.000000 
-0.000000 -6.832469 0.000000 
0.000000 -6.832469 0.000000 
-0.000000 -6.832469 0.000000 
-0.000000 -6.832469 0.000000 
0.000000 -6.832469 0.000000 
-0.000000 -6.832469 0.000000 
0.000000 -6.832469 0.000000 
-0.000000 -6.832469 0.000000 
0.000000 -6.832469 0.000000 
0.000000 -6.832469 0.000000 
-0.000000 -6.832469 0.000000 
-0.000000 -6.832469 0.000000 
-0.000000 -6.832469 0.000000 
0.000000 -6.832469 0.000000 
-0.000000 -6.832469 0.000000 
0.000000 -6.832469 0.000000 
0.000000 -6.832469 0.000000 
-0.000000 -6.832469 0.000000 
-0.000000 -6.832469 0.000000 
0.000000 -6.832469 0.000000 
-0.000000 -6.832469 0.000000 
-0.000000 -6.832469 0.000000 
-0.000000 -6.832469 0.000000 
-0.000000 -6.832469 0.000000 
-0.000000 -6.832469 0.000000 
0.000000 -6.832469 0.000000 
-0.000000 -6.832469 0.000000 
-0.000000 -6.832469 0.000000 
-0.000000 -6.832469 0.000000 
-0.000000 -6.832469 0.000000 
-0.000000 -6.832469 0.000000 
0.000000 -6.832469 0.000000 
-0.000000 -6.832469 0.000000 
0.000000 -6.832469 0.000000 
-0.000000 -6.832469 0.000000 
-0.000000 -6.832469 0.000000 
0.000000 -6.832469 0.000000 
0.000000 -6.832469 0.000000 
-0.000000 -6.832469 0.000000 
0.000000 -6.832469 0.000000 
-0.000000 -6.832469 0.000000 
-0.000000 -6.832469 0.000000 
-0.000000 -6.832469 0.000000 
0.000000 -6.832469 0.000000 
0.000000 -6.832469 0.000000 
0.000000 -6.832469 0.000000 
-0.000000 -6.832469 0.000000 
0.000000 -6.832469 0.000000 
-0.000000 -6.832469 0.000000 
-0.000000 -6.832469 0.000000 
0.000000 -6.832469 0.000000 
-0.000000 -6.832469 0.000000 
-0.000000 -6.832469 0.000000 
0.000000 -6.832469 0.000000 
-0.000000 -6.832469 0.000000 
0.000000 -6.832469 0.000000 
0.000000 -6.832469 0.000000 
-0.000000 -6.832469 0.000000 
0.000000 -6.832469 0.000000 
0.000000 -6.832469 0.000000 
0.000000 -6.832469 0.000000 
-0.000000 -6.832469 0.000000 
-0.000000 -6.832469 0.000000 
-0.000000 -6.832469 0.000000 
0.000000 -6.832469 0.000000 
-0.000000 -6.832469 0.000000 
-0.000000 -6.832469 0.000000 
0.000000 -6.832469 0.000000 
0.000000 -6.832469 0.000000 
0.000000 -6.832469 0.000000 
-0.000000 -6.832469 0.000000 
0.000000 -6.832469 0.000000 
0.000000 -6.832469 0.000000 
0.000000 -6.832469 0.000000 
0.000000 -6.832469 0.000000 
0.000000 -6.832469 0.000000 
-0.000000 -6.832469 0.000000 
0.000000 -6.832469 0.000000 
0.000000 -6.832469 0.000000 
-0.000000 -6.832469 0.000000 
0.000000 -6.832469 0.000000 
-0.000000 -6.832469 0.000000 
-0.000000 -6.832469 0.000000 
0.000000 -6.832469 0.000000 
0.000000 -6.832469 0.000000 
-0.000000 -6.832469 0.000000 
-0.000000 -6.832469 0.000000 
-0.000000 -6.832469 0.000000 
TENSORS STRESS float 
-0.000000 0.000000 0.000000 
0.000000 0.000000 0.000000 
0.000000 0.000000 0.000000 

0.000000 -0.000000 0.000000 
0.000000 0.000000 0.000000 
0.000000 0.000000 0.000000 

-0.000000 0.000000 0.000000 
0.000000 -0.000000 0.000000 
0.000000 0.000000 0.000000 

0.000000 -0.000000 0.000000 
0.000000 -0.000000 0.000000 
0.000000 0.000000 0.000000 

-0.000000 0.000000 0.000000 
0.000000 -0.000000 0.000000 
0.000000 0.000000 0.000000 

0.000000 -0.000000 0.000000 
0.000000 0.000000 0.000000 
0.000000 0.000000 0.000000 

-0.000000 0.000000 0.000000 
0.000000 0.000000 0.000000 
0.000000 0.000000 0.000000 

0.000000 -0.000000 0.000000 
0.000000 0.000000 0.000000 
0.000000 0.000000 0.000000 

-0.000000 0.000000 0.000000 
0.000000 -0.000000 0.000000 
0.000000 0.000000 0.000000 

0.000000 -0.000000 0.000000 
0.000000 0.000000 0.000000 
0.000000 0.000000 0.000000 

-0.000000 0.000000 0.000000 
0.000000 -0.000000 0.000000 
0.000000 0.000000 0.000000 

-0.000000 0.000000 0.000000 
0.000000 0.000000 0.000000 
0.000000 0.000000 0.000000 

-0.000000 0.000000 0.000000 
0.000000 -0.000000 0.000000 
0.000000 0.000000 0.000000 

-0.000000 0.000000 0.000000 
0.000000 0.000000 0.000000 
0.000000 0.000000 0.000000 

0.000000 -0.000000 0.000000 
0.000000 0.000000 0.000000 
0.000000 0.000000 0.000000 

0.000000 0.000000 0.000000 
0.000000 -0.000000 0.000000 
0.000000 0.000000 0.000000 

-0.000000 -0.000000 0.000000 
0.000000 -0.000000 0.000000 
0.000000 0.000000 0.000000 

0.000000 -0.000000 0.000000 
0.000000 -0.000000 0.000000 
0.000000 0.000000 0.000000 

-0.000000 -0.000000 0.000000 
0.000000 0.000000 0.000000 
0.000000 0.000000 0.000000 

-0.000000 0.000000 0.000000 
0.000000 -0.000000 0.000000 
0.000000 0.000000 0.000000 

-0.000000 0.000000 0.000000 
0.000000 0.000000 0.000000 
0.000000 0.000000 0.000000 

-0.000000 0.000000 0.000000 
0.000000 -0.000000 0.000000 
0.000000 0.000000 0.000000 

-0.000000 0.000000 0.000000 
0.000000 -0.000000 0.000000 
0.000000 0.000000 0.000000 

-0.000000 0.000000 0.000000 
0.000000 -0.000000 0.000000 
0.000000 0.000000 0.000000 

-0.000000 0.000000 0.000000 
0.000000 -0.000000 0.000000 
0.000000 0.000000 0.000000 

0.000000 -0.000000 0.000000 
0.000000 0.000000 0.000000 
0.000000 0.000000 0.000000 

0.000000 -0.000000 0.000000 
0.000000 0.000000 0.000000 
0.000000 0.000000 0.000000 

-0.000000 -0.000000 0.000000 
0.000000 -0.000000 0.000000 
0.000000 0.000000 0.000000 

0.000000 0.000000 0.000000 
0.000000 0.000000 0.000000 
0.000000 0.000000 0.000000 

-0.000000 -0.000000 0.000000 
0.000000 0.000000 0.000000 
0.000000 0.000000 0.000000 

0.000000 0.000000 0.000000 
0.000000 -0.000000 0.000000 
0.000000 0.000000 0.000000 

-0.000000 -0.000000 0.000000 
0.000000 -0.000000 0.000000 
0.000000 0.000000 0.000000 

-0.000000 -0.000000 0.000000 
0.000000 -0.000000 0.000000 
0.000000 0.000000 0.000000 

0.000000 -0.000000 0.000000 
0.000000 0.000000 0.000000 
0.000000 0.000000 0.000000 

-0.000000 0.000000 0.000000 
0.000000 0.000000 0.000000 
0.000000 0.000000 0.000000 

-0.000000 -0.000000 0.000000 
0.000000 -0.000000 0.000000 
0.000000 0.000000 0.000000 

-0.000000 0.000000 0.000000 
0.000000 -0.000000 0.000000 
0.000000 0.000000 0.000000 

0.000000 0.000000 0.000000 
0.000000 0.000000 0.000000 
0.000000 0.000000 0.000000 

0.000000 0.000000 0.000000 
0.000000 0.000000 0.000000 
0.000000 0.000000 0.000000 

0.000000 0.000000 0.000000 
0.000000 -0.000000 0.000000 
0.000000 0.000000 0.000000 

0.000000 0.000000 0.000000 
0.000000 0.000000 0.000000 
0.000000 0.000000 0.000000 

0.000000 -0.000000 0.000000 
0.000000 -0.000000 0.000000 
0.000000 0.000000 0.000000 

0.000000 0.000000 0.000000 
0.000000 0.000000 0.000000 
0.000000 0.000000 0.000000 

0.000000 -0.000000 0.000000 
0.000000 -0.000000 0.000000 
0.000000 0.000000 0.000000 

-0.000000 -0.000000 0.000000 
0.000000 -0.000000 0.000000 
0.000000 0.000000 0.000000 

0.000000 -0.000000 0.000000 
0.000000 0.000000 0.000000 
0.000000 0.000000 0.000000 

-0.000000 0.000000 0.000000 
0.000000 0.000000 0.000000 
0.000000 0.000000 0.000000 

0.000000 -0.000000 0.000000 
0.000000 0.000000 0.000000 
0.000000 0.000000 0.000000 

-0.000000 0.000000 0.000000 
0.000000 -0.000000 0.000000 
0.000000 0.000000 0.000000 

0.000000 -0.000000 0.000000 
0.000000 -0.000000 0.000000 
0.000000 0.000000 0.000000 

0.000000 -0.000000 0.000000 
0.000000 0.000000 0.000000 
0.000000 0.000000 0.000000 

0.000000 -0.000000 0.000000 
0.000000 0.000000 0.000000 
0.000000 0.000000 0.000000 

-0.000000 0.000000 0.000000 
0.000000 -0.000000 0.000000 
0.000000 0.000000 0.000000 

0.000000 0.000000 0.000000 
0.000000 0.000000 0.000000 
0.000000 0.000000 0.000000 

-0.000000 0.000000 0.000000 
0.000000 -0.000000 0.000000 
0.000000 0.000000 0.000000 

-0.000000 0.000000 0.000000 
0.000000 -0.000000 0.000000 
0.000000 0.000000 0.000000 

-0.000000 0.000000 0.000000 
0.000000 -0.000000 0.000000 
0.000000 0.000000 0.000000 

-0.000000 0.000000 0.000000 
0.000000 0.000000 0.000000 
0.000000 0.000000 0.000000 

0.000000 -0.000000 0.000000 
0.000000 0.000000 0.000000 
0.000000 0.000000 0.000000 

-0.000000 -0.000000 0.000000 
0.000000 -0.000000 0.000000 
0.000000 0.000000 0.000000 

0.000000 -0.000000 0.000000 
0.000000 0.000000 0.000000 
0.000000 0.000000 0.000000 

0.000000 -0.000000 0.000000 
0.000000 0.000000 0.000000 
0.000000 0.000000 0.000000 

-0.000000 0.000000 0.000000 
0.000000 0.000000 0.000000 
0.000000 0.000000 0.000000 

-0.000000 -0.000000 0.000000 
0.000000 -0.000000 0.000000 
0.000000 0.000000 0.000000 

0.000000 -0.000000 0.000000 
0.000000 -0.000000 0.000000 
0.000000 0.000000 0.000000 

0.000000 0.000000 0.000000 
0.000000 0.000000 0.000000 
0.000000 0.000000 0.000000 

-0.000000 0.000000 0.000000 
0.000000 -0.000000 0.000000 
0.000000 0.000000 0.000000 

-0.000000 0.000000 0.000000 
0.000000 0.000000 0.000000 
0.000000 0.000000 0.000000 

0.000000 -0.000000 0.000000 
0.000000 0.000000 0.000000 
0.000000 0.000000 0.000000 

0.000000 -0.000000 0.000000 
0.000000 0.000000 0.000000 
0.000000 0.000000 0.000000 

-0.000000 -0.000000 0.000000 
0.000000 -0.000000 0.000000 
0.000000 0.000000 0.000000 

-0.000000 0.000000 0.000000 
0.000000 0.000000 0.000000 
0.000000 0.000000 0.000000 

0.000000 -0.000000 0.000000 
0.000000 -0.000000 0.000000 
0.000000 0.000000 0.000000 

-0.000000 0.000000 0.000000 
0.000000 0.000000 0.000000 
0.000000 0.000000 0.000000 

-0.000000 -0.000000 0.000000 
0.000000 -0.000000 0.000000 
0.000000 0.000000 0.000000 

-0.000000 0.000000 0.000000 
0.000000 -0.000000 0.000000 
0.000000 0.000000 0.000000 

0.000000 0.000000 0.000000 
0.000000 0.000000 0.000000 
0.000000 0.000000 0.000000 

-0.000000 -0.000000 0.000000 
0.000000 -0.000000 0.000000 
0.000000 0.000000 0.000000 

0.000000 0.000000 0.000000 
0.000000 0.000000 0.000000 
0.000000 0.000000 0.000000 

0.000000 0.000000 0.000000 
0.000000 0.000000 0.000000 
0.000000 0.000000 0.000000 

0.000000 -0.000000 0.000000 
0.000000 -0.000000 0.000000 
0.000000 0.000000 0.000000 

0.000000 -0.000000 0.000000 
0.000000 0.000000 0.000000 
0.000000 0.000000 0.000000 

0.000000 -0.000000 0.000000 
0.000000 0.000000 0.000000 
0.000000 0.000000 0.000000 

-0.000000 -0.000000 0.000000 
0.000000 0.000000 0.000000 
0.000000 0.000000 0.000000 

0.000000 0.000000 0.000000 
0.000000 0.000000 0.000000 
0.000000 0.000000 0.000000 

0.000000 0.000000 0.000000 
0.000000 0.000000 0.000000 
0.000000 0.000000 0.000000 

0.000000 -0.000000 0.000000 
0.000000 0.000000 0.000000 
0.000000 0.000000 0.000000 

-0.000000 -0.000000 0.000000 
0.000000 -0.000000 0.000000 
0.000000 0.000000 0.000000 

0.000000 -0.000000 0.000000 
0.000000 0.000000 0.000000 
0.000000 0.000000 0.000000 

0.000000 -0.000000 0.000000 
0.000000 0.000000 0.000000 
0.000000 0.000000 0.000000 

-0.000000 -0.000000 0.000000 
0.000000 -0.000000 0.000000 
0.000000 0.000000 0.000000 

0.000000 0.000000 0.000000 
0.000000 0.000000 0.000000 
0.000000 0.000000 0.000000 

0.000000 0.000000 0.000000 
0.000000 -0.000000 0.000000 
0.000000 0.000000 0.000000 

-0.000000 -0.000000 0.000000 
0.000000 -0.000000 0.000000 
0.000000 0.000000 0.000000 

-0.000000 -0.000000 0.000000 
0.000000 -0.000000 0.000000 
0.000000 0.000000 0.000000 

-0.000000 -0.000000 0.000000 
0.000000 -0.000000 0.000000 
0.000000 0.000000 0.000000 

0.000000 0.000000 0.000000 
0.000000 0.000000 0.000000 
0.000000 0.000000 0.000000 

-0.000000 0.000000 0.000000 
0.000000 -0.000000 0.000000 
0.000000 0.000000 0.000000 

-0.000000 -0.000000 0.000000 
0.000000 -0.000000 0.000000 
0.000000 0.000000 0.000000 

0.000000 0.000000 0.000000 
0.000000 0.000000 0.000000 
0.000000 0.000000 0.000000 

-0.000000 -0.000000 0.000000 
0.000000 -0.000000 0.000000 
0.000000 0.000000 0.000000 

0.000000 0.000000 0.000000 
0.000000 0.000000 0.000000 
0.000000 0.000000 0.000000 

0.000000 0.000000 0.000000 
0.000000 0.000000 0.000000 
0.000000 0.000000 0.000000 

0.000000 -0.000000 0.000000 
0.000000 0.000000 0.000000 
0.000000 0.000000 0.000000 

0.000000 -0.000000 0.000000 
0.000000 -0.000000 0.000000 
0.000000 0.000000 0.000000 

0.000000 -0.000000 0.000000 
0.000000 0.000000 0.000000 
0.000000 0.000000 0.000000 

0.000000 0.000000 0.000000 
0.000000 0.000000 0.000000 
0.000000 0.000000 0.000000 

0.000000 -0.000000 0.000000 
0.000000 0.000000 0.000000 
0.000000 0.000000 0.000000 

-0.000000 -0.000000 0.000000 
0.000000 -0.000000 0.000000 
0.000000 0.000000 0.000000 

0.000000 -0.000000 0.000000 
0.000000 -0.000000 0.000000 
0.000000 0.000000 0.000000 

0.000000 0.000000 0.000000 
0.000000 0.000000 0.000000 
0.000000 0.000000 0.000000 

0.000000 -0.000000 0.000000 
0.000000 0.000000 0.000000 
0.000000 0.000000 0.000000 

0.000000 0.000000 0.000000 
0.000000 -0.000000 0.000000 
0.000000 0.000000 0.000000 

0.000000 0.000000 0.000000 
0.000000 -0.000000 0.000000 
0.000000 0.000000 0.000000 

-0.000000 -0.000000 0.000000 
0.000000 -0.000000 0.000000 
0.000000 0.000000 0.000000 

0.000000 0.000000 0.000000 
0.000000 0.000000 0.000000 
0.000000 0.000000 0.000000 

-0.000000 -0.000000 0.000000 
0.000000 0.000000 0.000000 
0.000000 0.000000 0.000000 

-0.000000 -0.000000 0.000000 
0.000000 -0.000000 0.000000 
0.000000 0.000000 0.000000 

-0.000000 -0.000000 0.000000 
0.000000 0.000000 0.000000 
0.000000 0.000000 0.000000 

0.000000 0.000000 0.000000 
0.000000 0.000000 0.000000 
0.000000 0.000000 0.000000 

0.000000 0.000000 0.000000 
0.000000 -0.000000 0.000000 
0.000000 0.000000 0.000000 

0.000000 -0.000000 0.000000 
0.000000 -0.000000 0.000000 
0.000000 0.000000 0.000000 

-0.000000 0.000000 0.000000 
0.000000 -0.000000 0.000000 
0.000000 0.000000 0.000000 

-0.000000 -0.000000 0.000000 
0.000000 0.000000 0.000000 
0.000000 0.000000 0.000000 

0.000000 0.000000 0.000000 
0.000000 0.000000 0.000000 
0.000000 0.000000 0.000000 

0.000000 -0.000000 0.000000 
0.000000 0.000000 0.000000 
0.000000 0.000000 0.000000 

0.000000 0.000000 0.000000 
0.000000 -0.000000 0.000000 
0.000000 0.000000 0.000000 

0.000000 0.000000 0.000000 
0.000000 0.000000 0.000000 
0.000000 0.000000 0.000000 

0.000000 -0.000000 0.000000 
0.000000 0.000000 0.000000 
0.000000 0.000000 0.000000 

-0.000000 -0.000000 0.000000 
0.000000 -0.000000 0.000000 
0.000000 0.000000 0.000000 

0.000000 0.000000 0.000000 
0.000000 0.000000 0.000000 
0.000000 0.000000 0.000000 

-0.000000 -0.000000 0.000000 
0.000000 -0.000000 0.000000 
0.000000 0.000000 0.000000 

-0.000000 0.000000 0.000000 
0.000000 -0.000000 0.000000 
0.000000 0.000000 0.000000 

0.000000 0.000000 0.000000 
0.000000 -0.000000 0.000000 
0.000000 0.000000 0.000000 

0.000000 0.000000 0.000000 
0.000000 0.000000 0.000000 
0.000000 0.000000 0.000000 

0.000000 0.000000 0.000000 
0.000000 0.000000 0.000000 
0.000000 0.000000 0.000000 

0.000000 -0.000000 0.000000 
0.000000 0.000000 0.000000 
0.000000 0.000000 0.000000 

-0.000000 0.000000 0.000000 
0.000000 -0.000000 0.000000 
0.000000 0.000000 0.000000 

0.000000 -0.000000 0.000000 
0.000000 -0.000000 0.000000 
0.000000 0.000000 0.000000 

0.000000 -0.000000 0.000000 
0.000000 0.000000 0.000000 
0.000000 0.000000 0.000000 

-0.000000 0.000000 0.000000 
0.000000 -0.000000 0.000000 
0.000000 0.000000 0.000000 

0.000000 0.000000 0.000000 
0.000000 0.000000 0.000000 
0.000000 0.000000 0.000000 

0.000000 0.000000 0.000000 
0.000000 0.000000 0.000000 
0.000000 0.000000 0.000000 

0.000000 -0.000000 0.000000 
0.000000 0.000000 0.000000 
0.000000 0.000000 0.000000 

0.000000 -0.000000 0.000000 
0.000000 0.000000 0.000000 
0.000000 0.000000 0.000000 

0.000000 0.000000 0.000000 
0.000000 0.000000 0.000000 
0.000000 0.000000 0.000000 

0.000000 -0.000000 0.000000 
0.000000 -0.000000 0.000000 
0.000000 0.000000 0.000000 

0.000000 -0.000000 0.000000 
0.000000 0.000000 0.000000 
0.000000 0.000000 0.000000 

-0.000000 0.000000 0.000000 
0.000000 -0.000000 0.000000 
0.000000 0.000000 0.000000 

0.000000 0.000000 0.000000 
0.000000 0.000000 0.000000 
0.000000 0.000000 0.000000 

0.000000 -0.000000 0.000000 
0.000000 0.000000 0.000000 
0.000000 0.000000 0.000000 

0.000000 -0.000000 0.000000 
0.000000 0.000000 0.000000 
0.000000 0.000000 0.000000 

-0.000000 0.000000 0.000000 
0.000000 -0.000000 0.000000 
0.000000 0.000000 0.000000 

-0.000000 0.000000 0.000000 
0.000000 -0.000000 0.000000 
0.000000 0.000000 0.000000 

0.000000 0.000000 0.000000 
0.000000 -0.000000 0.000000 
0.000000 0.000000 0.000000 

0.000000 -0.000000 0.000000 
0.000000 -0.000000 0.000000 
0.000000 0.000000 0.000000 

0.000000 0.000000 0.000000 
0.000000 0.000000 0.000000 
0.000000 0.000000 0.000000 

-0.000000 -0.000000 0.000000 
0.000000 -0.000000 0.000000 
0.000000 0.000000 0.000000 

0.000000 0.000000 0.000000 
0.000000 0.000000 0.000000 
0.000000 0.000000 0.000000 

0.000000 -0.000000 0.000000 
0.000000 0.000000 0.000000 
0.000000 0.000000 0.000000 

0.000000 -0.000000 0.000000 
0.000000 0.000000 0.000000 
0.000000 0.000000 0.000000 

-0.000000 0.000000 0.000000 
0.000000 0.000000 0.000000 
0.000000 0.000000 0.000000 

0.000000 0.000000 0.000000 
0.000000 -0.000000 0.000000 
0.000000 0.000000 0.000000 

0.000000 -0.000000 0.000000 
0.000000 0.000000 0.000000 
0.000000 0.000000 0.000000 

0.000000 -0.000000 0.000000 
0.000000 0.000000 0.000000 
0.000000 0.000000 0.000000 

-0.000000 -0.000000 0.000000 
0.000000 -0.000000 0.000000 
0.000000 0.000000 0.000000 

-0.000000 0.000000 0.000000 
0.000000 -0.000000 0.000000 
0.000000 0.000000 0.000000 

-0.000000 -0.000000 0.000000 
0.000000 -0.000000 0.000000 
0.000000 0.000000 0.000000 

-0.000000 -0.000000 0.000000 
0.000000 -0.000000 0.000000 
0.000000 0.000000 0.000000 

0.000000 0.000000 0.000000 
0.000000 0.000000 0.000000 
0.000000 0.000000 0.000000 

0.000000 -0.000000 0.000000 
0.000000 0.000000 0.000000 
0.000000 0.000000 0.000000 

-0.000000 0.000000 0.000000 
0.000000 0.000000 0.000000 
0.000000 0.000000 0.000000 

0.000000 0.000000 0.000000 
0.000000 0.000000 0.000000 
0.000000 0.000000 0.000000 

-0.000000 -0.000000 0.000000 
0.000000 -0.000000 0.000000 
0.000000 0.000000 0.000000 

-0.000000 0.000000 0.000000 
0.000000 0.000000 0.000000 
0.000000 0.000000 0.000000 

TENSORS STRAIN float 
-0.000000 0.000000 0.000000 
0.000000 0.000000 0.000000 
0.000000 0.000000 0.000000 

0.000000 -0.000000 0.000000 
0.000000 0.000000 0.000000 
0.000000 0.000000 0.000000 

0.000000 0.000000 0.000000 
0.000000 -0.000000 0.000000 
0.000000 0.000000 0.000000 

0.000000 -0.000000 0.000000 
0.000000 -0.000000 0.000000 
0.000000 0.000000 0.000000 

0.000000 0.000000 0.000000 
0.000000 -0.000000 0.000000 
0.000000 0.000000 0.000000 

0.000000 -0.000000 0.000000 
0.000000 0.000000 0.000000 
0.000000 0.000000 0.000000 

-0.000000 0.000000 0.000000 
0.000000 0.000000 0.000000 
0.000000 0.000000 0.000000 

0.000000 -0.000000 0.000000 
0.000000 0.000000 0.000000 
0.000000 0.000000 0.000000 

0.000000 0.000000 0.000000 
0.000000 -0.000000 0.000000 
0.000000 0.000000 0.000000 

0.000000 -0.000000 0.000000 
0.000000 0.000000 0.000000 
0.000000 0.000000 0.000000 

-0.000000 0.000000 0.000000 
0.000000 -0.000000 0.000000 
0.000000 0.000000 0.000000 

-0.000000 0.000000 0.000000 
0.000000 0.000000 0.000000 
0.000000 0.000000 0.000000 

-0.000000 0.000000 0.000000 
0.000000 -0.000000 0.000000 
0.000000 0.000000 0.000000 

-0.000000 0.000000 0.000000 
0.000000 0.000000 0.000000 
0.000000 0.000000 0.000000 

0.000000 -0.000000 0.000000 
0.000000 0.000000 0.000000 
0.000000 0.000000 0.000000 

0.000000 0.000000 0.000000 
0.000000 -0.000000 0.000000 
0.000000 0.000000 0.000000 

0.000000 -0.000000 0.000000 
0.000000 -0.000000 0.000000 
0.000000 0.000000 0.000000 

0.000000 -0.000000 0.000000 
0.000000 -0.000000 0.000000 
0.000000 0.000000 0.000000 

-0.000000 -0.000000 0.000000 
0.000000 0.000000 0.000000 
0.000000 0.000000 0.000000 

0.000000 0.000000 0.000000 
0.000000 -0.000000 0.000000 
0.000000 0.000000 0.000000 

-0.000000 0.000000 0.000000 
0.000000 0.000000 0.000000 
0.000000 0.000000 0.000000 

-0.000000 0.000000 0.000000 
0.000000 -0.000000 0.000000 
0.000000 0.000000 0.000000 

-0.000000 0.000000 0.000000 
0.000000 -0.000000 0.000000 
0.000000 0.000000 0.000000 

-0.000000 0.000000 0.000000 
0.000000 -0.000000 0.000000 
0.000000 0.000000 0.000000 

-0.000000 0.000000 0.000000 
0.000000 -0.000000 0.000000 
0.000000 0.000000 0.000000 

0.000000 -0.000000 0.000000 
0.000000 0.000000 0.000000 
0.000000 0.000000 0.000000 

0.000000 -0.000000 0.000000 
0.000000 0.000000 0.000000 
0.000000 0.000000 0.000000 

0.000000 -0.000000 0.000000 
0.000000 -0.000000 0.000000 
0.000000 0.000000 0.000000 

0.000000 0.000000 0.000000 
0.000000 -0.000000 0.000000 
0.000000 0.000000 0.000000 

-0.000000 -0.000000 0.000000 
0.000000 0.000000 0.000000 
0.000000 0.000000 0.000000 

0.000000 0.000000 0.000000 
0.000000 -0.000000 0.000000 
0.000000 0.000000 0.000000 

-0.000000 -0.000000 0.000000 
0.000000 -0.000000 0.000000 
0.000000 0.000000 0.000000 

0.000000 -0.000000 0.000000 
0.000000 -0.000000 0.000000 
0.000000 0.000000 0.000000 

0.000000 -0.000000 0.000000 
0.000000 0.000000 0.000000 
0.000000 0.000000 0.000000 

-0.000000 0.000000 0.000000 
0.000000 0.000000 0.000000 
0.000000 0.000000 0.000000 

-0.000000 -0.000000 0.000000 
0.000000 -0.000000 0.000000 
0.000000 0.000000 0.000000 

-0.000000 0.000000 0.000000 
0.000000 -0.000000 0.000000 
0.000000 0.000000 0.000000 

0.000000 0.000000 0.000000 
0.000000 0.000000 0.000000 
0.000000 0.000000 0.000000 

0.000000 0.000000 0.000000 
0.000000 -0.000000 0.000000 
0.000000 0.000000 0.000000 

0.000000 0.000000 0.000000 
0.000000 -0.000000 0.000000 
0.000000 0.000000 0.000000 

0.000000 0.000000 0.000000 
0.000000 0.000000 0.000000 
0.000000 0.000000 0.000000 

0.000000 -0.000000 0.000000 
0.000000 -0.000000 0.000000 
0.000000 0.000000 0.000000 

0.000000 0.000000 0.000000 
0.000000 0.000000 0.000000 
0.000000 0.000000 0.000000 

0.000000 -0.000000 0.000000 
0.000000 -0.000000 0.000000 
0.000000 0.000000 0.000000 

0.000000 -0.000000 0.000000 
0.000000 -0.000000 0.000000 
0.000000 0.000000 0.000000 

0.000000 -0.000000 0.000000 
0.000000 0.000000 0.000000 
0.000000 0.000000 0.000000 

-0.000000 0.000000 0.000000 
0.000000 0.000000 0.000000 
0.000000 0.000000 0.000000 

-0.000000 -0.000000 0.000000 
0.000000 0.000000 0.000000 
0.000000 0.000000 0.000000 

0.000000 0.000000 0.000000 
0.000000 -0.000000 0.000000 
0.000000 0.000000 0.000000 

0.000000 -0.000000 0.000000 
0.000000 -0.000000 0.000000 
0.000000 0.000000 0.000000 

-0.000000 -0.000000 0.000000 
0.000000 0.000000 0.000000 
0.000000 0.000000 0.000000 

-0.000000 -0.000000 0.000000 
0.000000 0.000000 0.000000 
0.000000 0.000000 0.000000 

-0.000000 0.000000 0.000000 
0.000000 -0.000000 0.000000 
0.000000 0.000000 0.000000 

0.000000 0.000000 0.000000 
0.000000 0.000000 0.000000 
0.000000 0.000000 0.000000 

-0.000000 0.000000 0.000000 
0.000000 -0.000000 0.000000 
0.000000 0.000000 0.000000 

-0.000000 0.000000 0.000000 
0.000000 -0.000000 0.000000 
0.000000 0.000000 0.000000 

-0.000000 0.000000 0.000000 
0.000000 -0.000000 0.000000 
0.000000 0.000000 0.000000 

-0.000000 0.000000 0.000000 
0.000000 0.000000 0.000000 
0.000000 0.000000 0.000000 

0.000000 -0.000000 0.000000 
0.000000 0.000000 0.000000 
0.000000 0.000000 0.000000 

-0.000000 -0.000000 0.000000 
0.000000 -0.000000 0.000000 
0.000000 0.000000 0.000000 

-0.000000 -0.000000 0.000000 
0.000000 0.000000 0.000000 
0.000000 0.000000 0.000000 

-0.000000 -0.000000 0.000000 
0.000000 0.000000 0.000000 
0.000000 0.000000 0.000000 

-0.000000 0.000000 0.000000 
0.000000 0.000000 0.000000 
0.000000 0.000000 0.000000 

-0.000000 -0.000000 0.000000 
0.000000 -0.000000 0.000000 
0.000000 0.000000 0.000000 

0.000000 -0.000000 0.000000 
0.000000 -0.000000 0.000000 
0.000000 0.000000 0.000000 

0.000000 0.000000 0.000000 
0.000000 0.000000 0.000000 
0.000000 0.000000 0.000000 

-0.000000 0.000000 0.000000 
0.000000 -0.000000 0.000000 
0.000000 0.000000 0.000000 

-0.000000 0.000000 0.000000 
0.000000 0.000000 0.000000 
0.000000 0.000000 0.000000 

-0.000000 -0.000000 0.000000 
0.000000 0.000000 0.000000 
0.000000 0.000000 0.000000 

0.000000 -0.000000 0.000000 
0.000000 0.000000 0.000000 
0.000000 0.000000 0.000000 

0.000000 -0.000000 0.000000 
0.000000 -0.000000 0.000000 
0.000000 0.000000 0.000000 

-0.000000 0.000000 0.000000 
0.000000 0.000000 0.000000 
0.000000 0.000000 0.000000 

0.000000 -0.000000 0.000000 
0.000000 -0.000000 0.000000 
0.000000 0.000000 0.000000 

-0.000000 0.000000 0.000000 
0.000000 0.000000 0.000000 
0.000000 0.000000 0.000000 

-0.000000 -0.000000 0.000000 
0.000000 0.000000 0.000000 
0.000000 0.000000 0.000000 

-0.000000 0.000000 0.000000 
0.000000 -0.000000 0.000000 
0.000000 0.000000 0.000000 

0.000000 0.000000 0.000000 
0.000000 0.000000 0.000000 
0.000000 0.000000 0.000000 

0.000000 -0.000000 0.000000 
0.000000 -0.000000 0.000000 
0.000000 0.000000 0.000000 

0.000000 0.000000 0.000000 
0.000000 0.000000 0.000000 
0.000000 0.000000 0.000000 

-0.000000 0.000000 0.000000 
0.000000 0.000000 0.000000 
0.000000 0.000000 0.000000 

0.000000 -0.000000 0.000000 
0.000000 -0.000000 0.000000 
0.000000 0.000000 0.000000 

0.000000 -0.000000 0.000000 
0.000000 0.000000 0.000000 
0.000000 0.000000 0.000000 

0.000000 -0.000000 0.000000 
0.000000 -0.000000 0.000000 
0.000000 0.000000 0.000000 

-0.000000 -0.000000 0.000000 
0.000000 0.000000 0.000000 
0.000000 0.000000 0.000000 

0.000000 0.000000 0.000000 
0.000000 -0.000000 0.000000 
0.000000 0.000000 0.000000 

0.000000 0.000000 0.000000 
0.000000 0.000000 0.000000 
0.000000 0.000000 0.000000 

0.000000 -0.000000 0.000000 
0.000000 0.000000 0.000000 
0.000000 0.000000 0.000000 

0.000000 -0.000000 0.000000 
0.000000 -0.000000 0.000000 
0.000000 0.000000 0.000000 

0.000000 -0.000000 0.000000 
0.000000 0.000000 0.000000 
0.000000 0.000000 0.000000 

-0.000000 -0.000000 0.000000 
0.000000 0.000000 0.000000 
0.000000 0.000000 0.000000 

-0.000000 -0.000000 0.000000 
0.000000 -0.000000 0.000000 
0.000000 0.000000 0.000000 

-0.000000 0.000000 0.000000 
0.000000 0.000000 0.000000 
0.000000 0.000000 0.000000 

0.000000 0.000000 0.000000 
0.000000 -0.000000 0.000000 
0.000000 0.000000 0.000000 

-0.000000 -0.000000 0.000000 
0.000000 -0.000000 0.000000 
0.000000 0.000000 0.000000 

-0.000000 -0.000000 0.000000 
0.000000 -0.000000 0.000000 
0.000000 0.000000 0.000000 

0.000000 -0.000000 0.000000 
0.000000 -0.000000 0.000000 
0.000000 0.000000 0.000000 

-0.000000 0.000000 0.000000 
0.000000 0.000000 0.000000 
0.000000 0.000000 0.000000 

-0.000000 0.000000 0.000000 
0.000000 -0.000000 0.000000 
0.000000 0.000000 0.000000 

-0.000000 -0.000000 0.000000 
0.000000 -0.000000 0.000000 
0.000000 0.000000 0.000000 

-0.000000 0.000000 0.000000 
0.000000 0.000000 0.000000 
0.000000 0.000000 0.000000 

-0.000000 -0.000000 0.000000 
0.000000 -0.000000 0.000000 
0.000000 0.000000 0.000000 

0.000000 0.000000 0.000000 
0.000000 0.000000 0.000000 
0.000000 0.000000 0.000000 

0.000000 0.000000 0.000000 
0.000000 0.000000 0.000000 
0.000000 0.000000 0.000000 

0.000000 -0.000000 0.000000 
0.000000 -0.000000 0.000000 
0.000000 0.000000 0.000000 

0.000000 -0.000000 0.000000 
0.000000 -0.000000 0.000000 
0.000000 0.000000 0.000000 

0.000000 -0.000000 0.000000 
0.000000 0.000000 0.000000 
0.000000 0.000000 0.000000 

0.000000 0.000000 0.000000 
0.000000 -0.000000 0.000000 
0.000000 0.000000 0.000000 

0.000000 -0.000000 0.000000 
0.000000 0.000000 0.000000 
0.000000 0.000000 0.000000 

-0.000000 -0.000000 0.000000 
0.000000 -0.000000 0.000000 
0.000000 0.000000 0.000000 

0.000000 -0.000000 0.000000 
0.000000 -0.000000 0.000000 
0.000000 0.000000 0.000000 

0.000000 0.000000 0.000000 
0.000000 0.000000 0.000000 
0.000000 0.000000 0.000000 

0.000000 -0.000000 0.000000 
0.000000 0.000000 0.000000 
0.000000 0.000000 0.000000 

0.000000 0.000000 0.000000 
0.000000 -0.000000 0.000000 
0.000000 0.000000 0.000000 

0.000000 0.000000 0.000000 
0.000000 -0.000000 0.000000 
0.000000 0.000000 0.000000 

-0.000000 -0.000000 0.000000 
0.000000 0.000000 0.000000 
0.000000 0.000000 0.000000 

0.000000 0.000000 0.000000 
0.000000 0.000000 0.000000 
0.000000 0.000000 0.000000 

-0.000000 -0.000000 0.000000 
0.000000 0.000000 0.000000 
0.000000 0.000000 0.000000 

-0.000000 -0.000000 0.000000 
0.000000 0.000000 0.000000 
0.000000 0.000000 0.000000 

-0.000000 -0.000000 0.000000 
0.000000 0.000000 0.000000 
0.000000 0.000000 0.000000 

0.000000 0.000000 0.000000 
0.000000 0.000000 0.000000 
0.000000 0.000000 0.000000 

0.000000 0.000000 0.000000 
0.000000 -0.000000 0.000000 
0.000000 0.000000 0.000000 

0.000000 -0.000000 0.000000 
0.000000 -0.000000 0.000000 
0.000000 0.000000 0.000000 

-0.000000 0.000000 0.000000 
0.000000 -0.000000 0.000000 
0.000000 0.000000 0.000000 

-0.000000 -0.000000 0.000000 
0.000000 0.000000 0.000000 
0.000000 0.000000 0.000000 

0.000000 0.000000 0.000000 
0.000000 0.000000 0.000000 
0.000000 0.000000 0.000000 

0.000000 -0.000000 0.000000 
0.000000 0.000000 0.000000 
0.000000 0.000000 0.000000 

0.000000 0.000000 0.000000 
0.000000 -0.000000 0.000000 
0.000000 0.000000 0.000000 

0.000000 0.000000 0.000000 
0.000000 -0.000000 0.000000 
0.000000 0.000000 0.000000 

0.000000 -0.000000 0.000000 
0.000000 -0.000000 0.000000 
0.000000 0.000000 0.000000 

0.000000 -0.000000 0.000000 
0.000000 -0.000000 0.000000 
0.000000 0.000000 0.000000 

0.000000 0.000000 0.000000 
0.000000 -0.000000 0.000000 
0.000000 0.000000 0.000000 

-0.000000 -0.000000 0.000000 
0.000000 -0.000000 0.000000 
0.000000 0.000000 0.000000 

0.000000 0.000000 0.000000 
0.000000 -0.000000 0.000000 
0.000000 0.000000 0.000000 

0.000000 0.000000 0.000000 
0.000000 -0.000000 0.000000 
0.000000 0.000000 0.000000 

0.000000 0.000000 0.000000 
0.000000 0.000000 0.000000 
0.000000 0.000000 0.000000 

0.000000 0.000000 0.000000 
0.000000 0.000000 0.000000 
0.000000 0.000000 0.000000 

0.000000 -0.000000 0.000000 
0.000000 0.000000 0.000000 
0.000000 0.000000 0.000000 

-0.000000 0.000000 0.000000 
0.000000 0.000000 0.000000 
0.000000 0.000000 0.000000 

0.000000 -0.000000 0.000000 
0.000000 -0.000000 0.000000 
0.000000 0.000000 0.000000 

0.000000 -0.000000 0.000000 
0.000000 0.000000 0.000000 
0.000000 0.000000 0.000000 

0.000000 0.000000 0.000000 
0.000000 -0.000000 0.000000 
0.000000 0.000000 0.000000 

-0.000000 0.000000 0.000000 
0.000000 0.000000 0.000000 
0.000000 0.000000 0.000000 

0.000000 0.000000 0.000000 
0.000000 0.000000 0.000000 
0.000000 0.000000 0.000000 

0.000000 -0.000000 0.000000 
0.000000 0.000000 0.000000 
0.000000 0.000000 0.000000 

-0.000000 -0.000000 0.000000 
0.000000 0.000000 0.000000 
0.000000 0.000000 0.000000 

-0.000000 0.000000 0.000000 
0.000000 0.000000 0.000000 
0.000000 0.000000 0.000000 

0.000000 -0.000000 0.000000 
0.000000 -0.000000 0.000000 
0.000000 0.000000 0.000000 

0.000000 -0.000000 0.000000 
0.000000 0.000000 0.000000 
0.000000 0.000000 0.000000 

-0.000000 0.000000 0.000000 
0.000000 -0.000000 0.000000 
0.000000 0.000000 0.000000 

0.000000 0.000000 0.000000 
0.000000 0.000000 0.000000 
0.000000 0.000000 0.000000 

-0.000000 -0.000000 0.000000 
0.000000 0.000000 0.000000 
0.000000 0.000000 0.000000 

0.000000 -0.000000 0.000000 
0.000000 -0.000000 0.000000 
0.000000 0.000000 0.000000 

0.000000 0.000000 0.000000 
0.000000 -0.000000 0.000000 
0.000000 0.000000 0.000000 

0.000000 0.000000 0.000000 
0.000000 -0.000000 0.000000 
0.000000 0.000000 0.000000 

0.000000 0.000000 0.000000 
0.000000 -0.000000 0.000000 
0.000000 0.000000 0.000000 

0.000000 -0.000000 0.000000 
0.000000 -0.000000 0.000000 
0.000000 0.000000 0.000000 

0.000000 0.000000 0.000000 
0.000000 0.000000 0.000000 
0.000000 0.000000 0.000000 

0.000000 -0.000000 0.000000 
0.000000 -0.000000 0.000000 
0.000000 0.000000 0.000000 

0.000000 0.000000 0.000000 
0.000000 0.000000 0.000000 
0.000000 0.000000 0.000000 

0.000000 -0.000000 0.000000 
0.000000 0.000000 0.000000 
0.000000 0.000000 0.000000 

0.000000 -0.000000 0.000000 
0.000000 0.000000 0.000000 
0.000000 0.000000 0.000000 

-0.000000 0.000000 0.000000 
0.000000 0.000000 0.000000 
0.000000 0.000000 0.000000 

0.000000 0.000000 0.000000 
0.000000 -0.000000 0.000000 
0.000000 0.000000 0.000000 

0.000000 -0.000000 0.000000 
0.000000 -0.000000 0.000000 
0.000000 0.000000 0.000000 

0.000000 -0.000000 0.000000 
0.000000 0.000000 0.000000 
0.000000 0.000000 0.000000 

0.000000 -0.000000 0.000000 
0.000000 -0.000000 0.000000 
0.000000 0.000000 0.000000 

-0.000000 0.000000 0.000000 
0.000000 0.000000 0.000000 
0.000000 0.000000 0.000000 

-0.000000 -0.000000 0.000000 
0.000000 -0.000000 0.000000 
0.000000 0.000000 0.000000 

-0.000000 -0.000000 0.000000 
0.000000 -0.000000 0.000000 
0.000000 0.000000 0.000000 

0.000000 0.000000 0.000000 
0.000000 0.000000 0.000000 
0.000000 0.000000 0.000000 

0.000000 -0.000000 0.000000 
0.000000 0.000000 0.000000 
0.000000 0.000000 0.000000 

-0.000000 0.000000 0.000000 
0.000000 0.000000 0.000000 
0.000000 0.000000 0.000000 

0.000000 0.000000 0.000000 
0.000000 -0.000000 0.000000 
0.000000 0.000000 0.000000 

-0.000000 -0.000000 0.000000 
0.000000 -0.000000 0.000000 
0.000000 0.000000 0.000000 

-0.000000 0.000000 0.000000 
0.000000 0.000000 0.000000 
0.000000 0.000000 0.000000 

