# vtk DataFile Version 3.0 
vtk output 
ASCII 
DATASET UNSTRUCTURED_GRID 
POINTS 175 float 
-0.026061 -2.289013 0.000000 
-0.106992 -2.220957 0.000000 
-0.054870 -2.229190 0.000000 
-0.028809 -2.183306 0.000000 
-0.186430 -2.156882 0.000000 
-0.137056 -2.159408 0.000000 
-0.114311 -2.105761 0.000000 
-0.058186 -2.121426 0.000000 
-0.029377 -2.081249 0.000000 
-0.265318 -2.093726 0.000000 
-0.217198 -2.094526 0.000000 
-0.196633 -2.037229 0.000000 
-0.143120 -2.045938 0.000000 
-0.116563 -1.998669 0.000000 
-0.058945 -2.018315 0.000000 
-0.029568 -1.980195 0.000000 
-0.344206 -2.030570 0.000000 
-0.296791 -2.030563 0.000000 
-0.278030 -1.970620 0.000000 
-0.225992 -1.976487 0.000000 
-0.201664 -1.924369 0.000000 
-0.145749 -1.937844 0.000000 
-0.117890 -1.893501 0.000000 
-0.059328 -1.916207 0.000000 
-0.029759 -1.879141 0.000000 
-0.058559 -2.329763 0.000000 
-0.162226 -2.350606 0.000000 
-0.123292 -2.314988 0.000000 
-0.142917 -2.266005 0.000000 
-0.261851 -2.372762 0.000000 
-0.229092 -2.335735 0.000000 
-0.256854 -2.284504 0.000000 
-0.209613 -2.250391 0.000000 
-0.223062 -2.202817 0.000000 
-0.360414 -2.395063 0.000000 
-0.329787 -2.357940 0.000000 
-0.361761 -2.306138 0.000000 
-0.321587 -2.269729 0.000000 
-0.341985 -2.219495 0.000000 
-0.290702 -2.186696 0.000000 
-0.302189 -2.139961 0.000000 
-0.458977 -2.417363 0.000000 
-0.429420 -2.380288 0.000000 
-0.464588 -2.328246 0.000000 
-0.427556 -2.291219 0.000000 
-0.453135 -2.239704 0.000000 
-0.407738 -2.204389 0.000000 
-0.425037 -2.154961 0.000000 
-0.370772 -2.123331 0.000000 
-0.381315 -2.077104 0.000000 
-0.046960 -2.380579 0.000000 
-0.095301 -2.474625 0.000000 
-0.098873 -2.421977 0.000000 
-0.149405 -2.406780 0.000000 
-0.140093 -2.566329 0.000000 
-0.148617 -2.517630 0.000000 
-0.205981 -2.507393 0.000000 
-0.203197 -2.449190 0.000000 
-0.248777 -2.430043 0.000000 
-0.184111 -2.657292 0.000000 
-0.194039 -2.610201 0.000000 
-0.254475 -2.602902 0.000000 
-0.257893 -2.548792 0.000000 
-0.309886 -2.533419 0.000000 
-0.303554 -2.472874 0.000000 
-0.347255 -2.452716 0.000000 
-0.228129 -2.748256 0.000000 
-0.238687 -2.702031 0.000000 
-0.301302 -2.697079 0.000000 
-0.307162 -2.645041 0.000000 
-0.363386 -2.632920 0.000000 
-0.362692 -2.575408 0.000000 
-0.412122 -2.558115 0.000000 
-0.403017 -2.495968 0.000000 
-0.445733 -2.475389 0.000000 
-0.000000 -2.403194 0.000000 
0.043388 -2.499624 0.000000 
-0.000000 -2.469592 0.000000 
-0.043388 -2.499624 0.000000 
0.087158 -2.591821 0.000000 
0.043769 -2.568122 0.000000 
-0.000000 -2.606588 0.000000 
-0.043769 -2.568122 0.000000 
-0.087158 -2.591821 0.000000 
0.130831 -2.682951 0.000000 
0.087824 -2.661352 0.000000 
0.044436 -2.704051 0.000000 
-0.000000 -2.672986 0.000000 
-0.044436 -2.704051 0.000000 
-0.087824 -2.661352 0.000000 
-0.130831 -2.682951 0.000000 
0.174505 -2.774080 0.000000 
0.131782 -2.753514 0.000000 
0.088871 -2.799381 0.000000 
0.044532 -2.771517 0.000000 
-0.000000 -2.807917 0.000000 
-0.044532 -2.771517 0.000000 
-0.088871 -2.799381 0.000000 
-0.131782 -2.753514 0.000000 
-0.174505 -2.774080 0.000000 
0.046960 -2.380579 0.000000 
0.149405 -2.406780 0.000000 
0.098873 -2.421977 0.000000 
0.095301 -2.474625 0.000000 
0.248777 -2.430043 0.000000 
0.203197 -2.449190 0.000000 
0.205981 -2.507393 0.000000 
0.148617 -2.517630 0.000000 
0.140093 -2.566329 0.000000 
0.347255 -2.452716 0.000000 
0.303554 -2.472874 0.000000 
0.309886 -2.533419 0.000000 
0.257893 -2.548792 0.000000 
0.254475 -2.602902 0.000000 
0.194039 -2.610201 0.000000 
0.184111 -2.657292 0.000000 
0.445733 -2.475389 0.000000 
0.403017 -2.495968 0.000000 
0.412122 -2.558115 0.000000 
0.362692 -2.575408 0.000000 
0.363386 -2.632920 0.000000 
0.307162 -2.645041 0.000000 
0.301302 -2.697079 0.000000 
0.238687 -2.702031 0.000000 
0.228129 -2.748256 0.000000 
0.058559 -2.329763 0.000000 
0.142917 -2.266005 0.000000 
0.123292 -2.314988 0.000000 
0.162226 -2.350606 0.000000 
0.223062 -2.202817 0.000000 
0.209613 -2.250391 0.000000 
0.256854 -2.284504 0.000000 
0.229092 -2.335735 0.000000 
0.261851 -2.372762 0.000000 
0.302189 -2.139961 0.000000 
0.290702 -2.186696 0.000000 
0.341985 -2.219495 0.000000 
0.321587 -2.269729 0.000000 
0.361761 -2.306138 0.000000 
0.329787 -2.357940 0.000000 
0.360414 -2.395063 0.000000 
0.381315 -2.077104 0.000000 
0.370772 -2.123331 0.000000 
0.425037 -2.154961 0.000000 
0.407738 -2.204389 0.000000 
0.453135 -2.239704 0.000000 
0.427556 -2.291219 0.000000 
0.464588 -2.328246 0.000000 
0.429420 -2.380288 0.000000 
0.458977 -2.417363 0.000000 
0.026061 -2.289013 0.000000 
0.028809 -2.183306 0.000000 
0.054870 -2.229190 0.000000 
0.106992 -2.220957 0.000000 
0.029377 -2.081249 0.000000 
0.058186 -2.121426 0.000000 
0.114311 -2.105761 0.000000 
0.137056 -2.159408 0.000000 
0.186430 -2.156882 0.000000 
0.029568 -1.980195 0.000000 
0.058945 -2.018315 0.000000 
0.116563 -1.998669 0.000000 
0.143120 -2.045938 0.000000 
0.196633 -2.037229 0.000000 
0.217198 -2.094526 0.000000 
0.265318 -2.093726 0.000000 
0.029759 -1.879141 0.000000 
0.059328 -1.916207 0.000000 
0.117890 -1.893501 0.000000 
0.145749 -1.937844 0.000000 
0.201664 -1.924369 0.000000 
0.225992 -1.976487 0.000000 
0.278030 -1.970620 0.000000 
0.296791 -2.030563 0.000000 
0.344206 -2.030570 0.000000 
CELLS 175 350 
1 0 
1 1 
1 2 
1 3 
1 4 
1 5 
1 6 
1 7 
1 8 
1 9 
1 10 
1 11 
1 12 
1 13 
1 14 
1 15 
1 16 
1 17 
1 18 
1 19 
1 20 
1 21 
1 22 
1 23 
1 24 
1 25 
1 26 
1 27 
1 28 
1 29 
1 30 
1 31 
1 32 
1 33 
1 34 
1 35 
1 36 
1 37 
1 38 
1 39 
1 40 
1 41 
1 42 
1 43 
1 44 
1 45 
1 46 
1 47 
1 48 
1 49 
1 50 
1 51 
1 52 
1 53 
1 54 
1 55 
1 56 
1 57 
1 58 
1 59 
1 60 
1 61 
1 62 
1 63 
1 64 
1 65 
1 66 
1 67 
1 68 
1 69 
1 70 
1 71 
1 72 
1 73 
1 74 
1 75 
1 76 
1 77 
1 78 
1 79 
1 80 
1 81 
1 82 
1 83 
1 84 
1 85 
1 86 
1 87 
1 88 
1 89 
1 90 
1 91 
1 92 
1 93 
1 94 
1 95 
1 96 
1 97 
1 98 
1 99 
1 100 
1 101 
1 102 
1 103 
1 104 
1 105 
1 106 
1 107 
1 108 
1 109 
1 110 
1 111 
1 112 
1 113 
1 114 
1 115 
1 116 
1 117 
1 118 
1 119 
1 120 
1 121 
1 122 
1 123 
1 124 
1 125 
1 126 
1 127 
1 128 
1 129 
1 130 
1 131 
1 132 
1 133 
1 134 
1 135 
1 136 
1 137 
1 138 
1 139 
1 140 
1 141 
1 142 
1 143 
1 144 
1 145 
1 146 
1 147 
1 148 
1 149 
1 150 
1 151 
1 152 
1 153 
1 154 
1 155 
1 156 
1 157 
1 158 
1 159 
1 160 
1 161 
1 162 
1 163 
1 164 
1 165 
1 166 
1 167 
1 168 
1 169 
1 170 
1 171 
1 172 
1 173 
1 174 
CELL_TYPES 175 
1 
1 
1 
1 
1 
1 
1 
1 
1 
1 
1 
1 
1 
1 
1 
1 
1 
1 
1 
1 
1 
1 
1 
1 
1 
1 
1 
1 
1 
1 
1 
1 
1 
1 
1 
1 
1 
1 
1 
1 
1 
1 
1 
1 
1 
1 
1 
1 
1 
1 
1 
1 
1 
1 
1 
1 
1 
1 
1 
1 
1 
1 
1 
1 
1 
1 
1 
1 
1 
1 
1 
1 
1 
1 
1 
1 
1 
1 
1 
1 
1 
1 
1 
1 
1 
1 
1 
1 
1 
1 
1 
1 
1 
1 
1 
1 
1 
1 
1 
1 
1 
1 
1 
1 
1 
1 
1 
1 
1 
1 
1 
1 
1 
1 
1 
1 
1 
1 
1 
1 
1 
1 
1 
1 
1 
1 
1 
1 
1 
1 
1 
1 
1 
1 
1 
1 
1 
1 
1 
1 
1 
1 
1 
1 
1 
1 
1 
1 
1 
1 
1 
1 
1 
1 
1 
1 
1 
1 
1 
1 
1 
1 
1 
1 
1 
1 
1 
1 
1 
1 
1 
1 
1 
1 
1 
POINT_DATA 175 
VECTORS X_GC float 
-0.026061 -2.289013 0.000000 
-0.106992 -2.220957 0.000000 
-0.054870 -2.229190 0.000000 
-0.028809 -2.183306 0.000000 
-0.186430 -2.156882 0.000000 
-0.137056 -2.159408 0.000000 
-0.114311 -2.105761 0.000000 
-0.058186 -2.121426 0.000000 
-0.029377 -2.081249 0.000000 
-0.265318 -2.093726 0.000000 
-0.217198 -2.094526 0.000000 
-0.196633 -2.037229 0.000000 
-0.143120 -2.045938 0.000000 
-0.116563 -1.998669 0.000000 
-0.058945 -2.018315 0.000000 
-0.029568 -1.980195 0.000000 
-0.344206 -2.030570 0.000000 
-0.296791 -2.030563 0.000000 
-0.278030 -1.970620 0.000000 
-0.225992 -1.976487 0.000000 
-0.201664 -1.924369 0.000000 
-0.145749 -1.937844 0.000000 
-0.117890 -1.893501 0.000000 
-0.059328 -1.916207 0.000000 
-0.029759 -1.879141 0.000000 
-0.058559 -2.329763 0.000000 
-0.162226 -2.350606 0.000000 
-0.123292 -2.314988 0.000000 
-0.142917 -2.266005 0.000000 
-0.261851 -2.372762 0.000000 
-0.229092 -2.335735 0.000000 
-0.256854 -2.284504 0.000000 
-0.209613 -2.250391 0.000000 
-0.223062 -2.202817 0.000000 
-0.360414 -2.395063 0.000000 
-0.329787 -2.357940 0.000000 
-0.361761 -2.306138 0.000000 
-0.321587 -2.269729 0.000000 
-0.341985 -2.219495 0.000000 
-0.290702 -2.186696 0.000000 
-0.302189 -2.139961 0.000000 
-0.458977 -2.417363 0.000000 
-0.429420 -2.380288 0.000000 
-0.464588 -2.328246 0.000000 
-0.427556 -2.291219 0.000000 
-0.453135 -2.239704 0.000000 
-0.407738 -2.204389 0.000000 
-0.425037 -2.154961 0.000000 
-0.370772 -2.123331 0.000000 
-0.381315 -2.077104 0.000000 
-0.046960 -2.380579 0.000000 
-0.095301 -2.474625 0.000000 
-0.098873 -2.421977 0.000000 
-0.149405 -2.406780 0.000000 
-0.140093 -2.566329 0.000000 
-0.148617 -2.517630 0.000000 
-0.205981 -2.507393 0.000000 
-0.203197 -2.449190 0.000000 
-0.248777 -2.430043 0.000000 
-0.184111 -2.657292 0.000000 
-0.194039 -2.610201 0.000000 
-0.254475 -2.602902 0.000000 
-0.257893 -2.548792 0.000000 
-0.309886 -2.533419 0.000000 
-0.303554 -2.472874 0.000000 
-0.347255 -2.452716 0.000000 
-0.228129 -2.748256 0.000000 
-0.238687 -2.702031 0.000000 
-0.301302 -2.697079 0.000000 
-0.307162 -2.645041 0.000000 
-0.363386 -2.632920 0.000000 
-0.362692 -2.575408 0.000000 
-0.412122 -2.558115 0.000000 
-0.403017 -2.495968 0.000000 
-0.445733 -2.475389 0.000000 
-0.000000 -2.403194 0.000000 
0.043388 -2.499624 0.000000 
-0.000000 -2.469592 0.000000 
-0.043388 -2.499624 0.000000 
0.087158 -2.591821 0.000000 
0.043769 -2.568122 0.000000 
-0.000000 -2.606588 0.000000 
-0.043769 -2.568122 0.000000 
-0.087158 -2.591821 0.000000 
0.130831 -2.682951 0.000000 
0.087824 -2.661352 0.000000 
0.044436 -2.704051 0.000000 
-0.000000 -2.672986 0.000000 
-0.044436 -2.704051 0.000000 
-0.087824 -2.661352 0.000000 
-0.130831 -2.682951 0.000000 
0.174505 -2.774080 0.000000 
0.131782 -2.753514 0.000000 
0.088871 -2.799381 0.000000 
0.044532 -2.771517 0.000000 
-0.000000 -2.807917 0.000000 
-0.044532 -2.771517 0.000000 
-0.088871 -2.799381 0.000000 
-0.131782 -2.753514 0.000000 
-0.174505 -2.774080 0.000000 
0.046960 -2.380579 0.000000 
0.149405 -2.406780 0.000000 
0.098873 -2.421977 0.000000 
0.095301 -2.474625 0.000000 
0.248777 -2.430043 0.000000 
0.203197 -2.449190 0.000000 
0.205981 -2.507393 0.000000 
0.148617 -2.517630 0.000000 
0.140093 -2.566329 0.000000 
0.347255 -2.452716 0.000000 
0.303554 -2.472874 0.000000 
0.309886 -2.533419 0.000000 
0.257893 -2.548792 0.000000 
0.254475 -2.602902 0.000000 
0.194039 -2.610201 0.000000 
0.184111 -2.657292 0.000000 
0.445733 -2.475389 0.000000 
0.403017 -2.495968 0.000000 
0.412122 -2.558115 0.000000 
0.362692 -2.575408 0.000000 
0.363386 -2.632920 0.000000 
0.307162 -2.645041 0.000000 
0.301302 -2.697079 0.000000 
0.238687 -2.702031 0.000000 
0.228129 -2.748256 0.000000 
0.058559 -2.329763 0.000000 
0.142917 -2.266005 0.000000 
0.123292 -2.314988 0.000000 
0.162226 -2.350606 0.000000 
0.223062 -2.202817 0.000000 
0.209613 -2.250391 0.000000 
0.256854 -2.284504 0.000000 
0.229092 -2.335735 0.000000 
0.261851 -2.372762 0.000000 
0.302189 -2.139961 0.000000 
0.290702 -2.186696 0.000000 
0.341985 -2.219495 0.000000 
0.321587 -2.269729 0.000000 
0.361761 -2.306138 0.000000 
0.329787 -2.357940 0.000000 
0.360414 -2.395063 0.000000 
0.381315 -2.077104 0.000000 
0.370772 -2.123331 0.000000 
0.425037 -2.154961 0.000000 
0.407738 -2.204389 0.000000 
0.453135 -2.239704 0.000000 
0.427556 -2.291219 0.000000 
0.464588 -2.328246 0.000000 
0.429420 -2.380288 0.000000 
0.458977 -2.417363 0.000000 
0.026061 -2.289013 0.000000 
0.028809 -2.183306 0.000000 
0.054870 -2.229190 0.000000 
0.106992 -2.220957 0.000000 
0.029377 -2.081249 0.000000 
0.058186 -2.121426 0.000000 
0.114311 -2.105761 0.000000 
0.137056 -2.159408 0.000000 
0.186430 -2.156882 0.000000 
0.029568 -1.980195 0.000000 
0.058945 -2.018315 0.000000 
0.116563 -1.998669 0.000000 
0.143120 -2.045938 0.000000 
0.196633 -2.037229 0.000000 
0.217198 -2.094526 0.000000 
0.265318 -2.093726 0.000000 
0.029759 -1.879141 0.000000 
0.059328 -1.916207 0.000000 
0.117890 -1.893501 0.000000 
0.145749 -1.937844 0.000000 
0.201664 -1.924369 0.000000 
0.225992 -1.976487 0.000000 
0.278030 -1.970620 0.000000 
0.296791 -2.030563 0.000000 
0.344206 -2.030570 0.000000 
VECTORS X_EC float 
0.338794 -0.598329 0.000000 
-0.609100 0.482923 0.000000 
0.713312 0.594064 0.000000 
0.374519 -0.025366 0.000000 
0.423588 -0.382096 0.000000 
-0.218274 -0.347993 0.000000 
-0.513962 0.927768 0.000000 
0.756418 -0.860746 0.000000 
0.381900 0.596862 0.000000 
-0.550868 0.765300 0.000000 
0.823577 0.776096 0.000000 
0.556234 0.002592 0.000000 
-0.139443 0.120161 0.000000 
-0.484677 -0.517964 0.000000 
0.766286 -0.252749 0.000000 
0.384386 -0.767369 0.000000 
0.474677 -0.087303 0.000000 
-0.141715 -0.087399 0.000000 
-0.385608 -0.896627 0.000000 
0.937896 -0.817432 0.000000 
0.621631 0.478988 0.000000 
-0.105264 0.660887 0.000000 
-0.467428 0.062261 0.000000 
0.771260 0.368790 0.000000 
0.386873 -0.131600 0.000000 
0.761262 -0.048194 0.000000 
0.108942 0.233182 0.000000 
-0.397202 -0.247657 0.000000 
-0.142083 -0.908932 0.000000 
-0.595936 0.532293 0.000000 
0.978194 0.032427 0.000000 
-0.660903 -0.659198 0.000000 
0.724964 0.880282 0.000000 
0.899809 0.238033 0.000000 
0.685384 0.833345 0.000000 
0.287229 0.332187 0.000000 
0.702895 -0.367142 0.000000 
0.180633 -0.858660 0.000000 
0.445811 0.463180 0.000000 
-0.220880 0.020394 0.000000 
-0.071546 -0.610531 0.000000 
-0.033296 -0.865603 0.000000 
-0.417537 0.633888 0.000000 
0.039645 -0.068675 0.000000 
-0.441768 -0.568546 0.000000 
-0.109248 0.736003 0.000000 
-0.699407 0.259248 0.000000 
-0.474522 -0.408031 0.000000 
0.820030 -0.835025 0.000000 
0.957100 0.540904 0.000000 
0.610485 0.637812 0.000000 
-0.761092 -0.092569 0.000000 
-0.714655 -0.803306 0.000000 
-0.057734 0.991527 0.000000 
-0.178789 -0.854564 0.000000 
-0.067979 0.488010 0.000000 
0.677748 0.349806 0.000000 
0.641556 -0.435939 0.000000 
-0.765897 -0.694418 0.000000 
0.393446 0.373445 0.000000 
0.522510 -0.262285 0.000000 
-0.691820 -0.360829 0.000000 
-0.647393 0.908688 0.000000 
0.028512 0.701161 0.000000 
-0.053800 -0.116199 0.000000 
0.514316 -0.388330 0.000000 
0.965681 -0.398546 0.000000 
-0.897068 0.977425 0.000000 
-0.083078 0.910572 0.000000 
-0.006893 0.208047 0.000000 
0.724017 0.044415 0.000000 
0.714996 -0.731989 0.000000 
-0.642413 -0.965446 0.000000 
-0.760780 0.195573 0.000000 
-0.205471 -0.082242 0.000000 
0.000000 0.943114 0.000000 
-0.564049 0.244927 0.000000 
0.000000 -0.160509 0.000000 
0.564049 0.244927 0.000000 
0.866949 -0.510418 0.000000 
-0.569003 -0.830349 0.000000 
0.000000 -0.311061 0.000000 
0.569003 -0.830349 0.000000 
-0.866949 -0.510418 0.000000 
0.299194 0.719832 0.000000 
0.858290 0.428248 0.000000 
-0.577662 -0.995306 0.000000 
0.000000 0.585316 0.000000 
0.577662 -0.995306 0.000000 
-0.858290 0.428248 0.000000 
-0.299194 0.719832 0.000000 
-0.268560 -0.049918 0.000000 
0.286830 -0.327560 0.000000 
0.844677 0.291639 0.000000 
-0.578910 -0.084524 0.000000 
0.000000 0.406880 0.000000 
0.578910 -0.084524 0.000000 
-0.844677 0.291639 0.000000 
-0.286830 -0.327560 0.000000 
0.268560 -0.049918 0.000000 
-0.610485 0.637812 0.000000 
0.057734 0.991527 0.000000 
0.714655 -0.803306 0.000000 
0.761092 -0.092569 0.000000 
0.765897 -0.694418 0.000000 
-0.641556 -0.435939 0.000000 
-0.677748 0.349806 0.000000 
0.067979 0.488010 0.000000 
0.178789 -0.854564 0.000000 
-0.514316 -0.388330 0.000000 
0.053800 -0.116199 0.000000 
-0.028512 0.701161 0.000000 
0.647393 0.908688 0.000000 
0.691820 -0.360829 0.000000 
-0.522510 -0.262285 0.000000 
-0.393446 0.373445 0.000000 
0.205471 -0.082242 0.000000 
0.760780 0.195573 0.000000 
0.642413 -0.965446 0.000000 
-0.714996 -0.731989 0.000000 
-0.724017 0.044415 0.000000 
0.006894 0.208047 0.000000 
0.083078 0.910572 0.000000 
0.897068 0.977425 0.000000 
-0.965681 -0.398546 0.000000 
-0.761262 -0.048194 0.000000 
0.142083 -0.908932 0.000000 
0.397202 -0.247657 0.000000 
-0.108942 0.233182 0.000000 
-0.899809 0.238033 0.000000 
-0.724964 0.880282 0.000000 
0.660903 -0.659198 0.000000 
-0.978194 0.032427 0.000000 
0.595936 0.532293 0.000000 
0.071546 -0.610531 0.000000 
0.220880 0.020394 0.000000 
-0.445811 0.463180 0.000000 
-0.180633 -0.858660 0.000000 
-0.702895 -0.367142 0.000000 
-0.287229 0.332187 0.000000 
-0.685384 0.833345 0.000000 
-0.957100 0.540904 0.000000 
-0.820030 -0.835025 0.000000 
0.474522 -0.408031 0.000000 
0.699407 0.259248 0.000000 
0.109248 0.736003 0.000000 
0.441768 -0.568546 0.000000 
-0.039645 -0.068675 0.000000 
0.417537 0.633888 0.000000 
0.033296 -0.865603 0.000000 
-0.338794 -0.598329 0.000000 
-0.374519 -0.025366 0.000000 
-0.713312 0.594064 0.000000 
0.609100 0.482923 0.000000 
-0.381900 0.596862 0.000000 
-0.756418 -0.860746 0.000000 
0.513962 0.927768 0.000000 
0.218274 -0.347993 0.000000 
-0.423588 -0.382096 0.000000 
-0.384386 -0.767369 0.000000 
-0.766286 -0.252749 0.000000 
0.484677 -0.517964 0.000000 
0.139443 0.120161 0.000000 
-0.556234 0.002592 0.000000 
-0.823577 0.776096 0.000000 
0.550868 0.765300 0.000000 
-0.386873 -0.131600 0.000000 
-0.771260 0.368790 0.000000 
0.467428 0.062261 0.000000 
0.105264 0.660887 0.000000 
-0.621631 0.478988 0.000000 
-0.937896 -0.817432 0.000000 
0.385608 -0.896627 0.000000 
0.141715 -0.087399 0.000000 
-0.474677 -0.087303 0.000000 
CELL_DATA 175 
SCALARS MASS float 
LOOKUP_TABLE default 
0.078183 
0.086427 
0.094672 
0.086427 
0.088131 
0.092111 
0.085854 
0.092111 
0.088131 
0.088705 
0.091000 
0.086983 
0.091556 
0.086983 
0.091000 
0.088705 
0.089278 
0.091574 
0.089278 
0.092722 
0.089278 
0.092722 
0.089278 
0.091574 
0.089278 
0.078183 
0.086427 
0.094672 
0.086427 
0.088131 
0.092111 
0.085854 
0.092111 
0.088131 
0.088705 
0.091000 
0.086983 
0.091556 
0.086983 
0.091000 
0.088705 
0.089278 
0.091574 
0.089278 
0.092722 
0.089278 
0.092722 
0.089278 
0.091574 
0.089278 
0.078183 
0.086427 
0.094672 
0.086427 
0.088131 
0.092111 
0.085854 
0.092111 
0.088131 
0.088705 
0.091000 
0.086983 
0.091556 
0.086983 
0.091000 
0.088705 
0.089278 
0.091574 
0.089278 
0.092722 
0.089278 
0.092722 
0.089278 
0.091574 
0.089278 
0.078183 
0.086427 
0.094672 
0.086427 
0.088131 
0.092111 
0.085854 
0.092111 
0.088131 
0.088705 
0.091000 
0.086983 
0.091556 
0.086983 
0.091000 
0.088705 
0.089278 
0.091574 
0.089278 
0.092722 
0.089278 
0.092722 
0.089278 
0.091574 
0.089278 
0.078183 
0.086427 
0.094672 
0.086427 
0.088131 
0.092111 
0.085854 
0.092111 
0.088131 
0.088705 
0.091000 
0.086983 
0.091556 
0.086983 
0.091000 
0.088705 
0.089278 
0.091574 
0.089278 
0.092722 
0.089278 
0.092722 
0.089278 
0.091574 
0.089278 
0.078183 
0.086427 
0.094672 
0.086427 
0.088131 
0.092111 
0.085854 
0.092111 
0.088131 
0.088705 
0.091000 
0.086983 
0.091556 
0.086983 
0.091000 
0.088705 
0.089278 
0.091574 
0.089278 
0.092722 
0.089278 
0.092722 
0.089278 
0.091574 
0.089278 
0.078183 
0.086427 
0.094672 
0.086427 
0.088131 
0.092111 
0.085854 
0.092111 
0.088131 
0.088705 
0.091000 
0.086983 
0.091556 
0.086983 
0.091000 
0.088705 
0.089278 
0.091574 
0.089278 
0.092722 
0.089278 
0.092722 
0.089278 
0.091574 
0.089278 
SCALARS MASS float 
LOOKUP_TABLE default 
0.078183 
0.086427 
0.094672 
0.086427 
0.088131 
0.092111 
0.085854 
0.092111 
0.088131 
0.088705 
0.091000 
0.086983 
0.091556 
0.086983 
0.091000 
0.088705 
0.089278 
0.091574 
0.089278 
0.092722 
0.089278 
0.092722 
0.089278 
0.091574 
0.089278 
0.078183 
0.086427 
0.094672 
0.086427 
0.088131 
0.092111 
0.085854 
0.092111 
0.088131 
0.088705 
0.091000 
0.086983 
0.091556 
0.086983 
0.091000 
0.088705 
0.089278 
0.091574 
0.089278 
0.092722 
0.089278 
0.092722 
0.089278 
0.091574 
0.089278 
0.078183 
0.086427 
0.094672 
0.086427 
0.088131 
0.092111 
0.085854 
0.092111 
0.088131 
0.088705 
0.091000 
0.086983 
0.091556 
0.086983 
0.091000 
0.088705 
0.089278 
0.091574 
0.089278 
0.092722 
0.089278 
0.092722 
0.089278 
0.091574 
0.089278 
0.078183 
0.086427 
0.094672 
0.086427 
0.088131 
0.092111 
0.085854 
0.092111 
0.088131 
0.088705 
0.091000 
0.086983 
0.091556 
0.086983 
0.091000 
0.088705 
0.089278 
0.091574 
0.089278 
0.092722 
0.089278 
0.092722 
0.089278 
0.091574 
0.089278 
0.078183 
0.086427 
0.094672 
0.086427 
0.088131 
0.092111 
0.085854 
0.092111 
0.088131 
0.088705 
0.091000 
0.086983 
0.091556 
0.086983 
0.091000 
0.088705 
0.089278 
0.091574 
0.089278 
0.092722 
0.089278 
0.092722 
0.089278 
0.091574 
0.089278 
0.078183 
0.086427 
0.094672 
0.086427 
0.088131 
0.092111 
0.085854 
0.092111 
0.088131 
0.088705 
0.091000 
0.086983 
0.091556 
0.086983 
0.091000 
0.088705 
0.089278 
0.091574 
0.089278 
0.092722 
0.089278 
0.092722 
0.089278 
0.091574 
0.089278 
0.078183 
0.086427 
0.094672 
0.086427 
0.088131 
0.092111 
0.085854 
0.092111 
0.088131 
0.088705 
0.091000 
0.086983 
0.091556 
0.086983 
0.091000 
0.088705 
0.089278 
0.091574 
0.089278 
0.092722 
0.089278 
0.092722 
0.089278 
0.091574 
0.089278 
SCALARS DENSITY float 
LOOKUP_TABLE default 
20.000000 
20.000000 
20.000000 
20.000000 
20.000000 
20.000000 
20.000000 
20.000000 
20.000000 
20.000000 
20.000000 
20.000000 
20.000000 
20.000000 
20.000000 
20.000000 
20.000000 
20.000000 
20.000000 
20.000000 
20.000000 
20.000000 
20.000000 
20.000000 
20.000000 
20.000000 
20.000000 
20.000000 
20.000000 
20.000000 
20.000000 
20.000000 
20.000000 
20.000000 
20.000000 
20.000000 
20.000000 
20.000000 
20.000000 
20.000000 
20.000000 
20.000000 
20.000000 
20.000000 
20.000000 
20.000000 
20.000000 
20.000000 
20.000000 
20.000000 
20.000000 
20.000000 
20.000000 
20.000000 
20.000000 
20.000000 
20.000000 
20.000000 
20.000000 
20.000000 
20.000000 
20.000000 
20.000000 
20.000000 
20.000000 
20.000000 
20.000000 
20.000000 
20.000000 
20.000000 
20.000000 
20.000000 
20.000000 
20.000000 
20.000000 
20.000000 
20.000000 
20.000000 
20.000000 
20.000000 
20.000000 
20.000000 
20.000000 
20.000000 
20.000000 
20.000000 
20.000000 
20.000000 
20.000000 
20.000000 
20.000000 
20.000000 
20.000000 
20.000000 
20.000000 
20.000000 
20.000000 
20.000000 
20.000000 
20.000000 
20.000000 
20.000000 
20.000000 
20.000000 
20.000000 
20.000000 
20.000000 
20.000000 
20.000000 
20.000000 
20.000000 
20.000000 
20.000000 
20.000000 
20.000000 
20.000000 
20.000000 
20.000000 
20.000000 
20.000000 
20.000000 
20.000000 
20.000000 
20.000000 
20.000000 
20.000000 
20.000000 
20.000000 
20.000000 
20.000000 
20.000000 
20.000000 
20.000000 
20.000000 
20.000000 
20.000000 
20.000000 
20.000000 
20.000000 
20.000000 
20.000000 
20.000000 
20.000000 
20.000000 
20.000000 
20.000000 
20.000000 
20.000000 
20.000000 
20.000000 
20.000000 
20.000000 
20.000000 
20.000000 
20.000000 
20.000000 
20.000000 
20.000000 
20.000000 
20.000000 
20.000000 
20.000000 
20.000000 
20.000000 
20.000000 
20.000000 
20.000000 
20.000000 
20.000000 
20.000000 
20.000000 
20.000000 
20.000000 
20.000000 
20.000000 
SCALARS ELEM_i float 
LOOKUP_TABLE default 
166 
194 
167 
167 
194 
194 
195 
167 
168 
222 
195 
195 
195 
195 
168 
168 
222 
222 
222 
195 
196 
196 
196 
169 
169 
166 
193 
193 
193 
220 
193 
220 
194 
194 
220 
220 
220 
220 
221 
221 
221 
246 
247 
247 
247 
248 
248 
248 
221 
222 
166 
192 
192 
193 
191 
192 
192 
192 
219 
191 
191 
218 
219 
219 
219 
219 
190 
218 
218 
218 
218 
218 
245 
246 
246 
166 
165 
165 
165 
137 
164 
164 
164 
191 
137 
137 
163 
164 
163 
191 
191 
136 
136 
136 
163 
163 
163 
190 
190 
190 
166 
139 
138 
138 
111 
138 
138 
138 
137 
111 
111 
111 
111 
110 
137 
137 
84 
84 
83 
110 
110 
110 
110 
110 
136 
166 
139 
139 
139 
140 
140 
112 
139 
112 
113 
113 
113 
112 
112 
112 
112 
114 
113 
86 
86 
86 
85 
85 
85 
84 
166 
167 
167 
140 
168 
167 
141 
140 
140 
168 
168 
141 
141 
141 
141 
114 
169 
169 
142 
142 
142 
141 
114 
114 
114 
VECTORS VELOCITY float 
-0.000000 -6.779887 0.000000 
-0.000000 -6.779887 0.000000 
-0.000000 -6.779887 0.000000 
-0.000000 -6.779887 0.000000 
0.000000 -6.779887 0.000000 
0.000000 -6.779887 0.000000 
0.000000 -6.779887 0.000000 
-0.000000 -6.779887 0.000000 
-0.000000 -6.779887 0.000000 
0.000000 -6.779887 0.000000 
0.000000 -6.779887 0.000000 
0.000000 -6.779887 0.000000 
0.000000 -6.779887 0.000000 
-0.000000 -6.779887 0.000000 
0.000000 -6.779887 0.000000 
0.000000 -6.779887 0.000000 
-0.000000 -6.779887 0.000000 
-0.000000 -6.779887 0.000000 
-0.000000 -6.779887 0.000000 
0.000000 -6.779887 0.000000 
0.000000 -6.779887 0.000000 
0.000000 -6.779887 0.000000 
0.000000 -6.779887 0.000000 
-0.000000 -6.779887 0.000000 
0.000000 -6.779887 0.000000 
0.000000 -6.779887 0.000000 
0.000000 -6.779887 0.000000 
0.000000 -6.779887 0.000000 
-0.000000 -6.779887 0.000000 
0.000000 -6.779887 0.000000 
0.000000 -6.779887 0.000000 
-0.000000 -6.779887 0.000000 
-0.000000 -6.779887 0.000000 
-0.000000 -6.779887 0.000000 
-0.000000 -6.779887 0.000000 
-0.000000 -6.779887 0.000000 
-0.000000 -6.779887 0.000000 
-0.000000 -6.779887 0.000000 
-0.000000 -6.779887 0.000000 
-0.000000 -6.779887 0.000000 
0.000000 -6.779887 0.000000 
-0.000000 -6.779887 0.000000 
0.000000 -6.779887 0.000000 
0.000000 -6.779887 0.000000 
-0.000000 -6.779887 0.000000 
-0.000000 -6.779887 0.000000 
-0.000000 -6.779887 0.000000 
0.000000 -6.779887 0.000000 
0.000000 -6.779887 0.000000 
0.000000 -6.779887 0.000000 
-0.000000 -6.779887 0.000000 
-0.000000 -6.779887 0.000000 
-0.000000 -6.779887 0.000000 
-0.000000 -6.779887 0.000000 
-0.000000 -6.779887 0.000000 
-0.000000 -6.779887 0.000000 
-0.000000 -6.779887 0.000000 
-0.000000 -6.779887 0.000000 
-0.000000 -6.779887 0.000000 
0.000000 -6.779887 0.000000 
0.000000 -6.779887 0.000000 
0.000000 -6.779887 0.000000 
-0.000000 -6.779887 0.000000 
-0.000000 -6.779887 0.000000 
-0.000000 -6.779887 0.000000 
0.000000 -6.779887 0.000000 
0.000000 -6.779887 0.000000 
0.000000 -6.779887 0.000000 
0.000000 -6.779887 0.000000 
0.000000 -6.779887 0.000000 
-0.000000 -6.779887 0.000000 
-0.000000 -6.779887 0.000000 
-0.000000 -6.779887 0.000000 
0.000000 -6.779887 0.000000 
0.000000 -6.779887 0.000000 
0.000000 -6.779887 0.000000 
-0.000000 -6.779887 0.000000 
-0.000000 -6.779887 0.000000 
-0.000000 -6.779887 0.000000 
0.000000 -6.779887 0.000000 
-0.000000 -6.779887 0.000000 
0.000000 -6.779887 0.000000 
-0.000000 -6.779887 0.000000 
-0.000000 -6.779887 0.000000 
0.000000 -6.779887 0.000000 
0.000000 -6.779887 0.000000 
0.000000 -6.779887 0.000000 
-0.000000 -6.779887 0.000000 
0.000000 -6.779887 0.000000 
-0.000000 -6.779887 0.000000 
0.000000 -6.779887 0.000000 
-0.000000 -6.779887 0.000000 
-0.000000 -6.779887 0.000000 
-0.000000 -6.779887 0.000000 
-0.000000 -6.779887 0.000000 
-0.000000 -6.779887 0.000000 
-0.000000 -6.779887 0.000000 
-0.000000 -6.779887 0.000000 
0.000000 -6.779887 0.000000 
-0.000000 -6.779887 0.000000 
-0.000000 -6.779887 0.000000 
-0.000000 -6.779887 0.000000 
0.000000 -6.779887 0.000000 
-0.000000 -6.779887 0.000000 
-0.000000 -6.779887 0.000000 
-0.000000 -6.779887 0.000000 
0.000000 -6.779887 0.000000 
-0.000000 -6.779887 0.000000 
-0.000000 -6.779887 0.000000 
0.000000 -6.779887 0.000000 
0.000000 -6.779887 0.000000 
0.000000 -6.779887 0.000000 
0.000000 -6.779887 0.000000 
0.000000 -6.779887 0.000000 
0.000000 -6.779887 0.000000 
0.000000 -6.779887 0.000000 
0.000000 -6.779887 0.000000 
0.000000 -6.779887 0.000000 
0.000000 -6.779887 0.000000 
0.000000 -6.779887 0.000000 
0.000000 -6.779887 0.000000 
0.000000 -6.779887 0.000000 
-0.000000 -6.779887 0.000000 
0.000000 -6.779887 0.000000 
-0.000000 -6.779887 0.000000 
-0.000000 -6.779887 0.000000 
0.000000 -6.779887 0.000000 
-0.000000 -6.779887 0.000000 
-0.000000 -6.779887 0.000000 
-0.000000 -6.779887 0.000000 
0.000000 -6.779887 0.000000 
0.000000 -6.779887 0.000000 
0.000000 -6.779887 0.000000 
0.000000 -6.779887 0.000000 
0.000000 -6.779887 0.000000 
-0.000000 -6.779887 0.000000 
-0.000000 -6.779887 0.000000 
0.000000 -6.779887 0.000000 
0.000000 -6.779887 0.000000 
0.000000 -6.779887 0.000000 
0.000000 -6.779887 0.000000 
0.000000 -6.779887 0.000000 
0.000000 -6.779887 0.000000 
-0.000000 -6.779887 0.000000 
-0.000000 -6.779887 0.000000 
-0.000000 -6.779887 0.000000 
0.000000 -6.779887 0.000000 
0.000000 -6.779887 0.000000 
0.000000 -6.779887 0.000000 
-0.000000 -6.779887 0.000000 
-0.000000 -6.779887 0.000000 
0.000000 -6.779887 0.000000 
0.000000 -6.779887 0.000000 
0.000000 -6.779887 0.000000 
-0.000000 -6.779887 0.000000 
0.000000 -6.779887 0.000000 
-0.000000 -6.779887 0.000000 
-0.000000 -6.779887 0.000000 
-0.000000 -6.779887 0.000000 
-0.000000 -6.779887 0.000000 
0.000000 -6.779887 0.000000 
-0.000000 -6.779887 0.000000 
-0.000000 -6.779887 0.000000 
-0.000000 -6.779887 0.000000 
-0.000000 -6.779887 0.000000 
0.000000 -6.779887 0.000000 
-0.000000 -6.779887 0.000000 
0.000000 -6.779887 0.000000 
-0.000000 -6.779887 0.000000 
-0.000000 -6.779887 0.000000 
0.000000 -6.779887 0.000000 
0.000000 -6.779887 0.000000 
-0.000000 -6.779887 0.000000 
-0.000000 -6.779887 0.000000 
0.000000 -6.779887 0.000000 
TENSORS STRESS float 
0.000000 -0.000000 0.000000 
0.000000 0.000000 0.000000 
0.000000 0.000000 0.000000 

0.000000 -0.000000 0.000000 
0.000000 0.000000 0.000000 
0.000000 0.000000 0.000000 

0.000000 0.000000 0.000000 
0.000000 -0.000000 0.000000 
0.000000 0.000000 0.000000 

0.000000 0.000000 0.000000 
0.000000 -0.000000 0.000000 
0.000000 0.000000 0.000000 

0.000000 -0.000000 0.000000 
0.000000 -0.000000 0.000000 
0.000000 0.000000 0.000000 

0.000000 -0.000000 0.000000 
0.000000 0.000000 0.000000 
0.000000 0.000000 0.000000 

0.000000 0.000000 0.000000 
0.000000 0.000000 0.000000 
0.000000 0.000000 0.000000 

0.000000 0.000000 0.000000 
0.000000 -0.000000 0.000000 
0.000000 0.000000 0.000000 

-0.000000 0.000000 0.000000 
0.000000 -0.000000 0.000000 
0.000000 0.000000 0.000000 

0.000000 -0.000000 0.000000 
0.000000 0.000000 0.000000 
0.000000 0.000000 0.000000 

0.000000 0.000000 0.000000 
0.000000 -0.000000 0.000000 
0.000000 0.000000 0.000000 

0.000000 0.000000 0.000000 
0.000000 0.000000 0.000000 
0.000000 0.000000 0.000000 

0.000000 -0.000000 0.000000 
0.000000 0.000000 0.000000 
0.000000 0.000000 0.000000 

0.000000 -0.000000 0.000000 
0.000000 0.000000 0.000000 
0.000000 0.000000 0.000000 

0.000000 -0.000000 0.000000 
0.000000 0.000000 0.000000 
0.000000 0.000000 0.000000 

0.000000 -0.000000 0.000000 
0.000000 -0.000000 0.000000 
0.000000 0.000000 0.000000 

0.000000 0.000000 0.000000 
0.000000 -0.000000 0.000000 
0.000000 0.000000 0.000000 

0.000000 -0.000000 0.000000 
0.000000 -0.000000 0.000000 
0.000000 0.000000 0.000000 

0.000000 0.000000 0.000000 
0.000000 0.000000 0.000000 
0.000000 0.000000 0.000000 

0.000000 0.000000 0.000000 
0.000000 -0.000000 0.000000 
0.000000 0.000000 0.000000 

0.000000 -0.000000 0.000000 
0.000000 0.000000 0.000000 
0.000000 0.000000 0.000000 

-0.000000 -0.000000 0.000000 
0.000000 -0.000000 0.000000 
0.000000 0.000000 0.000000 

0.000000 -0.000000 0.000000 
0.000000 0.000000 0.000000 
0.000000 0.000000 0.000000 

0.000000 -0.000000 0.000000 
0.000000 0.000000 0.000000 
0.000000 0.000000 0.000000 

0.000000 -0.000000 0.000000 
0.000000 0.000000 0.000000 
0.000000 0.000000 0.000000 

0.000000 -0.000000 0.000000 
0.000000 0.000000 0.000000 
0.000000 0.000000 0.000000 

0.000000 -0.000000 0.000000 
0.000000 0.000000 0.000000 
0.000000 0.000000 0.000000 

-0.000000 -0.000000 0.000000 
0.000000 -0.000000 0.000000 
0.000000 0.000000 0.000000 

-0.000000 -0.000000 0.000000 
0.000000 0.000000 0.000000 
0.000000 0.000000 0.000000 

-0.000000 0.000000 0.000000 
0.000000 0.000000 0.000000 
0.000000 0.000000 0.000000 

0.000000 0.000000 0.000000 
0.000000 0.000000 0.000000 
0.000000 0.000000 0.000000 

-0.000000 -0.000000 0.000000 
0.000000 -0.000000 0.000000 
0.000000 0.000000 0.000000 

-0.000000 -0.000000 0.000000 
0.000000 -0.000000 0.000000 
0.000000 0.000000 0.000000 

0.000000 -0.000000 0.000000 
0.000000 0.000000 0.000000 
0.000000 0.000000 0.000000 

-0.000000 0.000000 0.000000 
0.000000 0.000000 0.000000 
0.000000 0.000000 0.000000 

-0.000000 0.000000 0.000000 
0.000000 0.000000 0.000000 
0.000000 0.000000 0.000000 

-0.000000 0.000000 0.000000 
0.000000 0.000000 0.000000 
0.000000 0.000000 0.000000 

0.000000 0.000000 0.000000 
0.000000 0.000000 0.000000 
0.000000 0.000000 0.000000 

0.000000 -0.000000 0.000000 
0.000000 -0.000000 0.000000 
0.000000 0.000000 0.000000 

0.000000 -0.000000 0.000000 
0.000000 -0.000000 0.000000 
0.000000 0.000000 0.000000 

0.000000 0.000000 0.000000 
0.000000 0.000000 0.000000 
0.000000 0.000000 0.000000 

-0.000000 -0.000000 0.000000 
0.000000 -0.000000 0.000000 
0.000000 0.000000 0.000000 

0.000000 -0.000000 0.000000 
0.000000 0.000000 0.000000 
0.000000 0.000000 0.000000 

0.000000 0.000000 0.000000 
0.000000 -0.000000 0.000000 
0.000000 0.000000 0.000000 

0.000000 0.000000 0.000000 
0.000000 -0.000000 0.000000 
0.000000 0.000000 0.000000 

0.000000 0.000000 0.000000 
0.000000 0.000000 0.000000 
0.000000 0.000000 0.000000 

-0.000000 0.000000 0.000000 
0.000000 -0.000000 0.000000 
0.000000 0.000000 0.000000 

0.000000 -0.000000 0.000000 
0.000000 0.000000 0.000000 
0.000000 0.000000 0.000000 

-0.000000 0.000000 0.000000 
0.000000 -0.000000 0.000000 
0.000000 0.000000 0.000000 

0.000000 -0.000000 0.000000 
0.000000 -0.000000 0.000000 
0.000000 0.000000 0.000000 

0.000000 -0.000000 0.000000 
0.000000 0.000000 0.000000 
0.000000 0.000000 0.000000 

0.000000 -0.000000 0.000000 
0.000000 0.000000 0.000000 
0.000000 0.000000 0.000000 

0.000000 -0.000000 0.000000 
0.000000 -0.000000 0.000000 
0.000000 0.000000 0.000000 

0.000000 -0.000000 0.000000 
0.000000 0.000000 0.000000 
0.000000 0.000000 0.000000 

-0.000000 0.000000 0.000000 
0.000000 -0.000000 0.000000 
0.000000 0.000000 0.000000 

-0.000000 0.000000 0.000000 
0.000000 -0.000000 0.000000 
0.000000 0.000000 0.000000 

-0.000000 0.000000 0.000000 
0.000000 -0.000000 0.000000 
0.000000 0.000000 0.000000 

0.000000 0.000000 0.000000 
0.000000 0.000000 0.000000 
0.000000 0.000000 0.000000 

0.000000 -0.000000 0.000000 
0.000000 0.000000 0.000000 
0.000000 0.000000 0.000000 

0.000000 0.000000 0.000000 
0.000000 -0.000000 0.000000 
0.000000 0.000000 0.000000 

0.000000 0.000000 0.000000 
0.000000 0.000000 0.000000 
0.000000 0.000000 0.000000 

0.000000 0.000000 0.000000 
0.000000 0.000000 0.000000 
0.000000 0.000000 0.000000 

0.000000 0.000000 0.000000 
0.000000 0.000000 0.000000 
0.000000 0.000000 0.000000 

0.000000 -0.000000 0.000000 
0.000000 -0.000000 0.000000 
0.000000 0.000000 0.000000 

0.000000 -0.000000 0.000000 
0.000000 -0.000000 0.000000 
0.000000 0.000000 0.000000 

0.000000 0.000000 0.000000 
0.000000 0.000000 0.000000 
0.000000 0.000000 0.000000 

-0.000000 -0.000000 0.000000 
0.000000 -0.000000 0.000000 
0.000000 0.000000 0.000000 

-0.000000 -0.000000 0.000000 
0.000000 -0.000000 0.000000 
0.000000 0.000000 0.000000 

-0.000000 -0.000000 0.000000 
0.000000 -0.000000 0.000000 
0.000000 0.000000 0.000000 

0.000000 0.000000 0.000000 
0.000000 0.000000 0.000000 
0.000000 0.000000 0.000000 

-0.000000 0.000000 0.000000 
0.000000 -0.000000 0.000000 
0.000000 0.000000 0.000000 

0.000000 0.000000 0.000000 
0.000000 0.000000 0.000000 
0.000000 0.000000 0.000000 

0.000000 -0.000000 0.000000 
0.000000 0.000000 0.000000 
0.000000 0.000000 0.000000 

-0.000000 -0.000000 0.000000 
0.000000 0.000000 0.000000 
0.000000 0.000000 0.000000 

-0.000000 -0.000000 0.000000 
0.000000 -0.000000 0.000000 
0.000000 0.000000 0.000000 

-0.000000 0.000000 0.000000 
0.000000 -0.000000 0.000000 
0.000000 0.000000 0.000000 

-0.000000 0.000000 0.000000 
0.000000 0.000000 0.000000 
0.000000 0.000000 0.000000 

-0.000000 -0.000000 0.000000 
0.000000 -0.000000 0.000000 
0.000000 0.000000 0.000000 

-0.000000 0.000000 0.000000 
0.000000 0.000000 0.000000 
0.000000 0.000000 0.000000 

-0.000000 0.000000 0.000000 
0.000000 0.000000 0.000000 
0.000000 0.000000 0.000000 

-0.000000 0.000000 0.000000 
0.000000 -0.000000 0.000000 
0.000000 0.000000 0.000000 

-0.000000 0.000000 0.000000 
0.000000 -0.000000 0.000000 
0.000000 0.000000 0.000000 

-0.000000 0.000000 0.000000 
0.000000 -0.000000 0.000000 
0.000000 0.000000 0.000000 

0.000000 0.000000 0.000000 
0.000000 0.000000 0.000000 
0.000000 0.000000 0.000000 

-0.000000 -0.000000 0.000000 
0.000000 -0.000000 0.000000 
0.000000 0.000000 0.000000 

-0.000000 -0.000000 0.000000 
0.000000 0.000000 0.000000 
0.000000 0.000000 0.000000 

-0.000000 0.000000 0.000000 
0.000000 0.000000 0.000000 
0.000000 0.000000 0.000000 

-0.000000 -0.000000 0.000000 
0.000000 -0.000000 0.000000 
0.000000 0.000000 0.000000 

0.000000 0.000000 0.000000 
0.000000 0.000000 0.000000 
0.000000 0.000000 0.000000 

0.000000 0.000000 0.000000 
0.000000 0.000000 0.000000 
0.000000 0.000000 0.000000 

0.000000 0.000000 0.000000 
0.000000 -0.000000 0.000000 
0.000000 0.000000 0.000000 

-0.000000 -0.000000 0.000000 
0.000000 -0.000000 0.000000 
0.000000 0.000000 0.000000 

-0.000000 -0.000000 0.000000 
0.000000 -0.000000 0.000000 
0.000000 0.000000 0.000000 

-0.000000 -0.000000 0.000000 
0.000000 -0.000000 0.000000 
0.000000 0.000000 0.000000 

-0.000000 0.000000 0.000000 
0.000000 0.000000 0.000000 
0.000000 0.000000 0.000000 

-0.000000 0.000000 0.000000 
0.000000 -0.000000 0.000000 
0.000000 0.000000 0.000000 

-0.000000 0.000000 0.000000 
0.000000 0.000000 0.000000 
0.000000 0.000000 0.000000 

-0.000000 -0.000000 0.000000 
0.000000 0.000000 0.000000 
0.000000 0.000000 0.000000 

-0.000000 -0.000000 0.000000 
0.000000 0.000000 0.000000 
0.000000 0.000000 0.000000 

0.000000 -0.000000 0.000000 
0.000000 0.000000 0.000000 
0.000000 0.000000 0.000000 

-0.000000 0.000000 0.000000 
0.000000 -0.000000 0.000000 
0.000000 0.000000 0.000000 

0.000000 0.000000 0.000000 
0.000000 0.000000 0.000000 
0.000000 0.000000 0.000000 

0.000000 0.000000 0.000000 
0.000000 0.000000 0.000000 
0.000000 0.000000 0.000000 

0.000000 -0.000000 0.000000 
0.000000 -0.000000 0.000000 
0.000000 0.000000 0.000000 

-0.000000 0.000000 0.000000 
0.000000 -0.000000 0.000000 
0.000000 0.000000 0.000000 

0.000000 -0.000000 0.000000 
0.000000 0.000000 0.000000 
0.000000 0.000000 0.000000 

-0.000000 0.000000 0.000000 
0.000000 -0.000000 0.000000 
0.000000 0.000000 0.000000 

-0.000000 -0.000000 0.000000 
0.000000 -0.000000 0.000000 
0.000000 0.000000 0.000000 

-0.000000 -0.000000 0.000000 
0.000000 -0.000000 0.000000 
0.000000 0.000000 0.000000 

-0.000000 -0.000000 0.000000 
0.000000 -0.000000 0.000000 
0.000000 0.000000 0.000000 

0.000000 0.000000 0.000000 
0.000000 0.000000 0.000000 
0.000000 0.000000 0.000000 

-0.000000 -0.000000 0.000000 
0.000000 -0.000000 0.000000 
0.000000 0.000000 0.000000 

-0.000000 0.000000 0.000000 
0.000000 -0.000000 0.000000 
0.000000 0.000000 0.000000 

0.000000 0.000000 0.000000 
0.000000 0.000000 0.000000 
0.000000 0.000000 0.000000 

-0.000000 -0.000000 0.000000 
0.000000 0.000000 0.000000 
0.000000 0.000000 0.000000 

0.000000 -0.000000 0.000000 
0.000000 0.000000 0.000000 
0.000000 0.000000 0.000000 

0.000000 -0.000000 0.000000 
0.000000 0.000000 0.000000 
0.000000 0.000000 0.000000 

-0.000000 0.000000 0.000000 
0.000000 0.000000 0.000000 
0.000000 0.000000 0.000000 

-0.000000 0.000000 0.000000 
0.000000 0.000000 0.000000 
0.000000 0.000000 0.000000 

0.000000 -0.000000 0.000000 
0.000000 0.000000 0.000000 
0.000000 0.000000 0.000000 

0.000000 0.000000 0.000000 
0.000000 -0.000000 0.000000 
0.000000 0.000000 0.000000 

0.000000 -0.000000 0.000000 
0.000000 0.000000 0.000000 
0.000000 0.000000 0.000000 

-0.000000 -0.000000 0.000000 
0.000000 -0.000000 0.000000 
0.000000 0.000000 0.000000 

0.000000 -0.000000 0.000000 
0.000000 0.000000 0.000000 
0.000000 0.000000 0.000000 

0.000000 -0.000000 0.000000 
0.000000 0.000000 0.000000 
0.000000 0.000000 0.000000 

0.000000 -0.000000 0.000000 
0.000000 0.000000 0.000000 
0.000000 0.000000 0.000000 

0.000000 -0.000000 0.000000 
0.000000 -0.000000 0.000000 
0.000000 0.000000 0.000000 

0.000000 -0.000000 0.000000 
0.000000 0.000000 0.000000 
0.000000 0.000000 0.000000 

0.000000 -0.000000 0.000000 
0.000000 0.000000 0.000000 
0.000000 0.000000 0.000000 

-0.000000 -0.000000 0.000000 
0.000000 -0.000000 0.000000 
0.000000 0.000000 0.000000 

0.000000 -0.000000 0.000000 
0.000000 0.000000 0.000000 
0.000000 0.000000 0.000000 

0.000000 -0.000000 0.000000 
0.000000 -0.000000 0.000000 
0.000000 0.000000 0.000000 

-0.000000 -0.000000 0.000000 
0.000000 -0.000000 0.000000 
0.000000 0.000000 0.000000 

-0.000000 0.000000 0.000000 
0.000000 -0.000000 0.000000 
0.000000 0.000000 0.000000 

0.000000 0.000000 0.000000 
0.000000 0.000000 0.000000 
0.000000 0.000000 0.000000 

0.000000 0.000000 0.000000 
0.000000 -0.000000 0.000000 
0.000000 0.000000 0.000000 

0.000000 0.000000 0.000000 
0.000000 -0.000000 0.000000 
0.000000 0.000000 0.000000 

0.000000 0.000000 0.000000 
0.000000 0.000000 0.000000 
0.000000 0.000000 0.000000 

0.000000 0.000000 0.000000 
0.000000 -0.000000 0.000000 
0.000000 0.000000 0.000000 

0.000000 -0.000000 0.000000 
0.000000 0.000000 0.000000 
0.000000 0.000000 0.000000 

-0.000000 0.000000 0.000000 
0.000000 -0.000000 0.000000 
0.000000 0.000000 0.000000 

-0.000000 -0.000000 0.000000 
0.000000 -0.000000 0.000000 
0.000000 0.000000 0.000000 

-0.000000 0.000000 0.000000 
0.000000 -0.000000 0.000000 
0.000000 0.000000 0.000000 

-0.000000 0.000000 0.000000 
0.000000 -0.000000 0.000000 
0.000000 0.000000 0.000000 

-0.000000 -0.000000 0.000000 
0.000000 -0.000000 0.000000 
0.000000 0.000000 0.000000 

-0.000000 0.000000 0.000000 
0.000000 -0.000000 0.000000 
0.000000 0.000000 0.000000 

-0.000000 -0.000000 0.000000 
0.000000 -0.000000 0.000000 
0.000000 0.000000 0.000000 

0.000000 -0.000000 0.000000 
0.000000 0.000000 0.000000 
0.000000 0.000000 0.000000 

-0.000000 -0.000000 0.000000 
0.000000 -0.000000 0.000000 
0.000000 0.000000 0.000000 

0.000000 0.000000 0.000000 
0.000000 0.000000 0.000000 
0.000000 0.000000 0.000000 

0.000000 -0.000000 0.000000 
0.000000 0.000000 0.000000 
0.000000 0.000000 0.000000 

0.000000 0.000000 0.000000 
0.000000 -0.000000 0.000000 
0.000000 0.000000 0.000000 

0.000000 0.000000 0.000000 
0.000000 -0.000000 0.000000 
0.000000 0.000000 0.000000 

-0.000000 -0.000000 0.000000 
0.000000 -0.000000 0.000000 
0.000000 0.000000 0.000000 

-0.000000 0.000000 0.000000 
0.000000 -0.000000 0.000000 
0.000000 0.000000 0.000000 

0.000000 -0.000000 0.000000 
0.000000 -0.000000 0.000000 
0.000000 0.000000 0.000000 

0.000000 0.000000 0.000000 
0.000000 0.000000 0.000000 
0.000000 0.000000 0.000000 

-0.000000 -0.000000 0.000000 
0.000000 -0.000000 0.000000 
0.000000 0.000000 0.000000 

0.000000 0.000000 0.000000 
0.000000 0.000000 0.000000 
0.000000 0.000000 0.000000 

0.000000 -0.000000 0.000000 
0.000000 0.000000 0.000000 
0.000000 0.000000 0.000000 

0.000000 -0.000000 0.000000 
0.000000 0.000000 0.000000 
0.000000 0.000000 0.000000 

-0.000000 0.000000 0.000000 
0.000000 -0.000000 0.000000 
0.000000 0.000000 0.000000 

-0.000000 0.000000 0.000000 
0.000000 -0.000000 0.000000 
0.000000 0.000000 0.000000 

-0.000000 -0.000000 0.000000 
0.000000 -0.000000 0.000000 
0.000000 0.000000 0.000000 

0.000000 -0.000000 0.000000 
0.000000 0.000000 0.000000 
0.000000 0.000000 0.000000 

-0.000000 -0.000000 0.000000 
0.000000 -0.000000 0.000000 
0.000000 0.000000 0.000000 

0.000000 0.000000 0.000000 
0.000000 0.000000 0.000000 
0.000000 0.000000 0.000000 

0.000000 -0.000000 0.000000 
0.000000 -0.000000 0.000000 
0.000000 0.000000 0.000000 

-0.000000 0.000000 0.000000 
0.000000 -0.000000 0.000000 
0.000000 0.000000 0.000000 

0.000000 0.000000 0.000000 
0.000000 0.000000 0.000000 
0.000000 0.000000 0.000000 

0.000000 0.000000 0.000000 
0.000000 0.000000 0.000000 
0.000000 0.000000 0.000000 

-0.000000 0.000000 0.000000 
0.000000 -0.000000 0.000000 
0.000000 0.000000 0.000000 

0.000000 0.000000 0.000000 
0.000000 -0.000000 0.000000 
0.000000 0.000000 0.000000 

-0.000000 -0.000000 0.000000 
0.000000 -0.000000 0.000000 
0.000000 0.000000 0.000000 

-0.000000 -0.000000 0.000000 
0.000000 -0.000000 0.000000 
0.000000 0.000000 0.000000 

TENSORS STRAIN float 
0.000000 -0.000000 0.000000 
0.000000 0.000000 0.000000 
0.000000 0.000000 0.000000 

-0.000000 -0.000000 0.000000 
0.000000 0.000000 0.000000 
0.000000 0.000000 0.000000 

0.000000 0.000000 0.000000 
0.000000 -0.000000 0.000000 
0.000000 0.000000 0.000000 

0.000000 0.000000 0.000000 
0.000000 -0.000000 0.000000 
0.000000 0.000000 0.000000 

0.000000 -0.000000 0.000000 
0.000000 -0.000000 0.000000 
0.000000 0.000000 0.000000 

0.000000 -0.000000 0.000000 
0.000000 0.000000 0.000000 
0.000000 0.000000 0.000000 

0.000000 0.000000 0.000000 
0.000000 0.000000 0.000000 
0.000000 0.000000 0.000000 

0.000000 0.000000 0.000000 
0.000000 -0.000000 0.000000 
0.000000 0.000000 0.000000 

0.000000 0.000000 0.000000 
0.000000 -0.000000 0.000000 
0.000000 0.000000 0.000000 

0.000000 -0.000000 0.000000 
0.000000 -0.000000 0.000000 
0.000000 0.000000 0.000000 

0.000000 0.000000 0.000000 
0.000000 -0.000000 0.000000 
0.000000 0.000000 0.000000 

0.000000 0.000000 0.000000 
0.000000 0.000000 0.000000 
0.000000 0.000000 0.000000 

0.000000 -0.000000 0.000000 
0.000000 0.000000 0.000000 
0.000000 0.000000 0.000000 

0.000000 -0.000000 0.000000 
0.000000 0.000000 0.000000 
0.000000 0.000000 0.000000 

0.000000 -0.000000 0.000000 
0.000000 0.000000 0.000000 
0.000000 0.000000 0.000000 

0.000000 -0.000000 0.000000 
0.000000 -0.000000 0.000000 
0.000000 0.000000 0.000000 

0.000000 0.000000 0.000000 
0.000000 -0.000000 0.000000 
0.000000 0.000000 0.000000 

0.000000 -0.000000 0.000000 
0.000000 -0.000000 0.000000 
0.000000 0.000000 0.000000 

-0.000000 0.000000 0.000000 
0.000000 0.000000 0.000000 
0.000000 0.000000 0.000000 

0.000000 0.000000 0.000000 
0.000000 -0.000000 0.000000 
0.000000 0.000000 0.000000 

0.000000 -0.000000 0.000000 
0.000000 0.000000 0.000000 
0.000000 0.000000 0.000000 

0.000000 -0.000000 0.000000 
0.000000 -0.000000 0.000000 
0.000000 0.000000 0.000000 

0.000000 -0.000000 0.000000 
0.000000 0.000000 0.000000 
0.000000 0.000000 0.000000 

0.000000 -0.000000 0.000000 
0.000000 0.000000 0.000000 
0.000000 0.000000 0.000000 

0.000000 -0.000000 0.000000 
0.000000 0.000000 0.000000 
0.000000 0.000000 0.000000 

0.000000 -0.000000 0.000000 
0.000000 0.000000 0.000000 
0.000000 0.000000 0.000000 

0.000000 -0.000000 0.000000 
0.000000 0.000000 0.000000 
0.000000 0.000000 0.000000 

0.000000 -0.000000 0.000000 
0.000000 -0.000000 0.000000 
0.000000 0.000000 0.000000 

-0.000000 -0.000000 0.000000 
0.000000 0.000000 0.000000 
0.000000 0.000000 0.000000 

-0.000000 0.000000 0.000000 
0.000000 0.000000 0.000000 
0.000000 0.000000 0.000000 

0.000000 0.000000 0.000000 
0.000000 0.000000 0.000000 
0.000000 0.000000 0.000000 

-0.000000 -0.000000 0.000000 
0.000000 0.000000 0.000000 
0.000000 0.000000 0.000000 

-0.000000 -0.000000 0.000000 
0.000000 0.000000 0.000000 
0.000000 0.000000 0.000000 

-0.000000 -0.000000 0.000000 
0.000000 0.000000 0.000000 
0.000000 0.000000 0.000000 

-0.000000 0.000000 0.000000 
0.000000 0.000000 0.000000 
0.000000 0.000000 0.000000 

-0.000000 0.000000 0.000000 
0.000000 0.000000 0.000000 
0.000000 0.000000 0.000000 

-0.000000 0.000000 0.000000 
0.000000 0.000000 0.000000 
0.000000 0.000000 0.000000 

-0.000000 0.000000 0.000000 
0.000000 0.000000 0.000000 
0.000000 0.000000 0.000000 

0.000000 -0.000000 0.000000 
0.000000 -0.000000 0.000000 
0.000000 0.000000 0.000000 

0.000000 -0.000000 0.000000 
0.000000 -0.000000 0.000000 
0.000000 0.000000 0.000000 

0.000000 0.000000 0.000000 
0.000000 0.000000 0.000000 
0.000000 0.000000 0.000000 

0.000000 -0.000000 0.000000 
0.000000 -0.000000 0.000000 
0.000000 0.000000 0.000000 

0.000000 -0.000000 0.000000 
0.000000 0.000000 0.000000 
0.000000 0.000000 0.000000 

0.000000 0.000000 0.000000 
0.000000 -0.000000 0.000000 
0.000000 0.000000 0.000000 

0.000000 0.000000 0.000000 
0.000000 -0.000000 0.000000 
0.000000 0.000000 0.000000 

0.000000 0.000000 0.000000 
0.000000 0.000000 0.000000 
0.000000 0.000000 0.000000 

-0.000000 0.000000 0.000000 
0.000000 0.000000 0.000000 
0.000000 0.000000 0.000000 

-0.000000 -0.000000 0.000000 
0.000000 0.000000 0.000000 
0.000000 0.000000 0.000000 

0.000000 0.000000 0.000000 
0.000000 -0.000000 0.000000 
0.000000 0.000000 0.000000 

0.000000 -0.000000 0.000000 
0.000000 -0.000000 0.000000 
0.000000 0.000000 0.000000 

-0.000000 -0.000000 0.000000 
0.000000 0.000000 0.000000 
0.000000 0.000000 0.000000 

0.000000 -0.000000 0.000000 
0.000000 0.000000 0.000000 
0.000000 0.000000 0.000000 

0.000000 -0.000000 0.000000 
0.000000 -0.000000 0.000000 
0.000000 0.000000 0.000000 

0.000000 -0.000000 0.000000 
0.000000 0.000000 0.000000 
0.000000 0.000000 0.000000 

0.000000 0.000000 0.000000 
0.000000 -0.000000 0.000000 
0.000000 0.000000 0.000000 

-0.000000 0.000000 0.000000 
0.000000 -0.000000 0.000000 
0.000000 0.000000 0.000000 

-0.000000 0.000000 0.000000 
0.000000 -0.000000 0.000000 
0.000000 0.000000 0.000000 

0.000000 0.000000 0.000000 
0.000000 -0.000000 0.000000 
0.000000 0.000000 0.000000 

0.000000 -0.000000 0.000000 
0.000000 0.000000 0.000000 
0.000000 0.000000 0.000000 

0.000000 0.000000 0.000000 
0.000000 -0.000000 0.000000 
0.000000 0.000000 0.000000 

0.000000 0.000000 0.000000 
0.000000 0.000000 0.000000 
0.000000 0.000000 0.000000 

0.000000 0.000000 0.000000 
0.000000 0.000000 0.000000 
0.000000 0.000000 0.000000 

0.000000 0.000000 0.000000 
0.000000 0.000000 0.000000 
0.000000 0.000000 0.000000 

0.000000 -0.000000 0.000000 
0.000000 -0.000000 0.000000 
0.000000 0.000000 0.000000 

0.000000 -0.000000 0.000000 
0.000000 -0.000000 0.000000 
0.000000 0.000000 0.000000 

0.000000 0.000000 0.000000 
0.000000 0.000000 0.000000 
0.000000 0.000000 0.000000 

-0.000000 -0.000000 0.000000 
0.000000 -0.000000 0.000000 
0.000000 0.000000 0.000000 

-0.000000 -0.000000 0.000000 
0.000000 -0.000000 0.000000 
0.000000 0.000000 0.000000 

-0.000000 -0.000000 0.000000 
0.000000 -0.000000 0.000000 
0.000000 0.000000 0.000000 

0.000000 0.000000 0.000000 
0.000000 0.000000 0.000000 
0.000000 0.000000 0.000000 

0.000000 0.000000 0.000000 
0.000000 -0.000000 0.000000 
0.000000 0.000000 0.000000 

0.000000 0.000000 0.000000 
0.000000 0.000000 0.000000 
0.000000 0.000000 0.000000 

0.000000 -0.000000 0.000000 
0.000000 -0.000000 0.000000 
0.000000 0.000000 0.000000 

-0.000000 -0.000000 0.000000 
0.000000 0.000000 0.000000 
0.000000 0.000000 0.000000 

-0.000000 -0.000000 0.000000 
0.000000 0.000000 0.000000 
0.000000 0.000000 0.000000 

-0.000000 0.000000 0.000000 
0.000000 -0.000000 0.000000 
0.000000 0.000000 0.000000 

-0.000000 0.000000 0.000000 
0.000000 0.000000 0.000000 
0.000000 0.000000 0.000000 

-0.000000 -0.000000 0.000000 
0.000000 -0.000000 0.000000 
0.000000 0.000000 0.000000 

-0.000000 0.000000 0.000000 
0.000000 0.000000 0.000000 
0.000000 0.000000 0.000000 

-0.000000 0.000000 0.000000 
0.000000 0.000000 0.000000 
0.000000 0.000000 0.000000 

0.000000 0.000000 0.000000 
0.000000 -0.000000 0.000000 
0.000000 0.000000 0.000000 

-0.000000 0.000000 0.000000 
0.000000 0.000000 0.000000 
0.000000 0.000000 0.000000 

0.000000 0.000000 0.000000 
0.000000 -0.000000 0.000000 
0.000000 0.000000 0.000000 

0.000000 0.000000 0.000000 
0.000000 -0.000000 0.000000 
0.000000 0.000000 0.000000 

-0.000000 -0.000000 0.000000 
0.000000 -0.000000 0.000000 
0.000000 0.000000 0.000000 

-0.000000 -0.000000 0.000000 
0.000000 0.000000 0.000000 
0.000000 0.000000 0.000000 

-0.000000 0.000000 0.000000 
0.000000 0.000000 0.000000 
0.000000 0.000000 0.000000 

-0.000000 -0.000000 0.000000 
0.000000 -0.000000 0.000000 
0.000000 0.000000 0.000000 

-0.000000 0.000000 0.000000 
0.000000 0.000000 0.000000 
0.000000 0.000000 0.000000 

0.000000 0.000000 0.000000 
0.000000 0.000000 0.000000 
0.000000 0.000000 0.000000 

0.000000 0.000000 0.000000 
0.000000 -0.000000 0.000000 
0.000000 0.000000 0.000000 

-0.000000 -0.000000 0.000000 
0.000000 0.000000 0.000000 
0.000000 0.000000 0.000000 

0.000000 -0.000000 0.000000 
0.000000 -0.000000 0.000000 
0.000000 0.000000 0.000000 

-0.000000 -0.000000 0.000000 
0.000000 -0.000000 0.000000 
0.000000 0.000000 0.000000 

-0.000000 0.000000 0.000000 
0.000000 0.000000 0.000000 
0.000000 0.000000 0.000000 

-0.000000 0.000000 0.000000 
0.000000 -0.000000 0.000000 
0.000000 0.000000 0.000000 

-0.000000 0.000000 0.000000 
0.000000 0.000000 0.000000 
0.000000 0.000000 0.000000 

-0.000000 -0.000000 0.000000 
0.000000 0.000000 0.000000 
0.000000 0.000000 0.000000 

-0.000000 -0.000000 0.000000 
0.000000 0.000000 0.000000 
0.000000 0.000000 0.000000 

-0.000000 -0.000000 0.000000 
0.000000 0.000000 0.000000 
0.000000 0.000000 0.000000 

-0.000000 0.000000 0.000000 
0.000000 -0.000000 0.000000 
0.000000 0.000000 0.000000 

0.000000 0.000000 0.000000 
0.000000 0.000000 0.000000 
0.000000 0.000000 0.000000 

0.000000 0.000000 0.000000 
0.000000 0.000000 0.000000 
0.000000 0.000000 0.000000 

0.000000 -0.000000 0.000000 
0.000000 -0.000000 0.000000 
0.000000 0.000000 0.000000 

0.000000 0.000000 0.000000 
0.000000 -0.000000 0.000000 
0.000000 0.000000 0.000000 

0.000000 -0.000000 0.000000 
0.000000 0.000000 0.000000 
0.000000 0.000000 0.000000 

-0.000000 0.000000 0.000000 
0.000000 -0.000000 0.000000 
0.000000 0.000000 0.000000 

-0.000000 -0.000000 0.000000 
0.000000 -0.000000 0.000000 
0.000000 0.000000 0.000000 

-0.000000 -0.000000 0.000000 
0.000000 -0.000000 0.000000 
0.000000 0.000000 0.000000 

-0.000000 -0.000000 0.000000 
0.000000 -0.000000 0.000000 
0.000000 0.000000 0.000000 

-0.000000 0.000000 0.000000 
0.000000 0.000000 0.000000 
0.000000 0.000000 0.000000 

-0.000000 -0.000000 0.000000 
0.000000 -0.000000 0.000000 
0.000000 0.000000 0.000000 

-0.000000 0.000000 0.000000 
0.000000 0.000000 0.000000 
0.000000 0.000000 0.000000 

0.000000 0.000000 0.000000 
0.000000 0.000000 0.000000 
0.000000 0.000000 0.000000 

-0.000000 -0.000000 0.000000 
0.000000 0.000000 0.000000 
0.000000 0.000000 0.000000 

-0.000000 -0.000000 0.000000 
0.000000 0.000000 0.000000 
0.000000 0.000000 0.000000 

-0.000000 -0.000000 0.000000 
0.000000 0.000000 0.000000 
0.000000 0.000000 0.000000 

-0.000000 0.000000 0.000000 
0.000000 0.000000 0.000000 
0.000000 0.000000 0.000000 

-0.000000 0.000000 0.000000 
0.000000 0.000000 0.000000 
0.000000 0.000000 0.000000 

0.000000 -0.000000 0.000000 
0.000000 0.000000 0.000000 
0.000000 0.000000 0.000000 

0.000000 0.000000 0.000000 
0.000000 -0.000000 0.000000 
0.000000 0.000000 0.000000 

0.000000 -0.000000 0.000000 
0.000000 0.000000 0.000000 
0.000000 0.000000 0.000000 

-0.000000 -0.000000 0.000000 
0.000000 -0.000000 0.000000 
0.000000 0.000000 0.000000 

-0.000000 -0.000000 0.000000 
0.000000 0.000000 0.000000 
0.000000 0.000000 0.000000 

0.000000 -0.000000 0.000000 
0.000000 0.000000 0.000000 
0.000000 0.000000 0.000000 

0.000000 -0.000000 0.000000 
0.000000 0.000000 0.000000 
0.000000 0.000000 0.000000 

0.000000 -0.000000 0.000000 
0.000000 -0.000000 0.000000 
0.000000 0.000000 0.000000 

0.000000 -0.000000 0.000000 
0.000000 -0.000000 0.000000 
0.000000 0.000000 0.000000 

0.000000 -0.000000 0.000000 
0.000000 0.000000 0.000000 
0.000000 0.000000 0.000000 

-0.000000 -0.000000 0.000000 
0.000000 -0.000000 0.000000 
0.000000 0.000000 0.000000 

0.000000 -0.000000 0.000000 
0.000000 0.000000 0.000000 
0.000000 0.000000 0.000000 

0.000000 -0.000000 0.000000 
0.000000 -0.000000 0.000000 
0.000000 0.000000 0.000000 

0.000000 -0.000000 0.000000 
0.000000 -0.000000 0.000000 
0.000000 0.000000 0.000000 

0.000000 0.000000 0.000000 
0.000000 -0.000000 0.000000 
0.000000 0.000000 0.000000 

0.000000 0.000000 0.000000 
0.000000 0.000000 0.000000 
0.000000 0.000000 0.000000 

0.000000 0.000000 0.000000 
0.000000 -0.000000 0.000000 
0.000000 0.000000 0.000000 

0.000000 0.000000 0.000000 
0.000000 -0.000000 0.000000 
0.000000 0.000000 0.000000 

0.000000 0.000000 0.000000 
0.000000 0.000000 0.000000 
0.000000 0.000000 0.000000 

0.000000 0.000000 0.000000 
0.000000 -0.000000 0.000000 
0.000000 0.000000 0.000000 

0.000000 -0.000000 0.000000 
0.000000 0.000000 0.000000 
0.000000 0.000000 0.000000 

0.000000 0.000000 0.000000 
0.000000 -0.000000 0.000000 
0.000000 0.000000 0.000000 

0.000000 -0.000000 0.000000 
0.000000 -0.000000 0.000000 
0.000000 0.000000 0.000000 

0.000000 0.000000 0.000000 
0.000000 -0.000000 0.000000 
0.000000 0.000000 0.000000 

0.000000 0.000000 0.000000 
0.000000 -0.000000 0.000000 
0.000000 0.000000 0.000000 

-0.000000 -0.000000 0.000000 
0.000000 -0.000000 0.000000 
0.000000 0.000000 0.000000 

-0.000000 0.000000 0.000000 
0.000000 -0.000000 0.000000 
0.000000 0.000000 0.000000 

-0.000000 -0.000000 0.000000 
0.000000 -0.000000 0.000000 
0.000000 0.000000 0.000000 

-0.000000 -0.000000 0.000000 
0.000000 0.000000 0.000000 
0.000000 0.000000 0.000000 

0.000000 -0.000000 0.000000 
0.000000 -0.000000 0.000000 
0.000000 0.000000 0.000000 

0.000000 0.000000 0.000000 
0.000000 0.000000 0.000000 
0.000000 0.000000 0.000000 

0.000000 -0.000000 0.000000 
0.000000 0.000000 0.000000 
0.000000 0.000000 0.000000 

0.000000 0.000000 0.000000 
0.000000 -0.000000 0.000000 
0.000000 0.000000 0.000000 

0.000000 0.000000 0.000000 
0.000000 -0.000000 0.000000 
0.000000 0.000000 0.000000 

-0.000000 -0.000000 0.000000 
0.000000 -0.000000 0.000000 
0.000000 0.000000 0.000000 

0.000000 0.000000 0.000000 
0.000000 -0.000000 0.000000 
0.000000 0.000000 0.000000 

0.000000 -0.000000 0.000000 
0.000000 -0.000000 0.000000 
0.000000 0.000000 0.000000 

0.000000 0.000000 0.000000 
0.000000 0.000000 0.000000 
0.000000 0.000000 0.000000 

-0.000000 -0.000000 0.000000 
0.000000 -0.000000 0.000000 
0.000000 0.000000 0.000000 

-0.000000 0.000000 0.000000 
0.000000 0.000000 0.000000 
0.000000 0.000000 0.000000 

0.000000 -0.000000 0.000000 
0.000000 0.000000 0.000000 
0.000000 0.000000 0.000000 

0.000000 -0.000000 0.000000 
0.000000 0.000000 0.000000 
0.000000 0.000000 0.000000 

-0.000000 0.000000 0.000000 
0.000000 0.000000 0.000000 
0.000000 0.000000 0.000000 

0.000000 0.000000 0.000000 
0.000000 -0.000000 0.000000 
0.000000 0.000000 0.000000 

0.000000 -0.000000 0.000000 
0.000000 -0.000000 0.000000 
0.000000 0.000000 0.000000 

0.000000 -0.000000 0.000000 
0.000000 0.000000 0.000000 
0.000000 0.000000 0.000000 

0.000000 -0.000000 0.000000 
0.000000 -0.000000 0.000000 
0.000000 0.000000 0.000000 

0.000000 0.000000 0.000000 
0.000000 0.000000 0.000000 
0.000000 0.000000 0.000000 

0.000000 -0.000000 0.000000 
0.000000 -0.000000 0.000000 
0.000000 0.000000 0.000000 

-0.000000 0.000000 0.000000 
0.000000 -0.000000 0.000000 
0.000000 0.000000 0.000000 

0.000000 0.000000 0.000000 
0.000000 0.000000 0.000000 
0.000000 0.000000 0.000000 

0.000000 0.000000 0.000000 
0.000000 0.000000 0.000000 
0.000000 0.000000 0.000000 

-0.000000 0.000000 0.000000 
0.000000 0.000000 0.000000 
0.000000 0.000000 0.000000 

0.000000 0.000000 0.000000 
0.000000 -0.000000 0.000000 
0.000000 0.000000 0.000000 

-0.000000 -0.000000 0.000000 
0.000000 -0.000000 0.000000 
0.000000 0.000000 0.000000 

-0.000000 -0.000000 0.000000 
0.000000 -0.000000 0.000000 
0.000000 0.000000 0.000000 

