# vtk DataFile Version 3.0 
vtk output 
ASCII 
DATASET UNSTRUCTURED_GRID 
POINTS 175 float 
-0.026061 0.014633 0.000000 
-0.106992 0.082688 0.000000 
-0.054870 0.074455 0.000000 
-0.028809 0.120339 0.000000 
-0.186430 0.146764 0.000000 
-0.137056 0.144237 0.000000 
-0.114311 0.197885 0.000000 
-0.058186 0.182219 0.000000 
-0.029377 0.222396 0.000000 
-0.265318 0.209919 0.000000 
-0.217198 0.209120 0.000000 
-0.196633 0.266416 0.000000 
-0.143120 0.257708 0.000000 
-0.116563 0.304976 0.000000 
-0.058945 0.285330 0.000000 
-0.029568 0.323450 0.000000 
-0.344206 0.273075 0.000000 
-0.296791 0.273082 0.000000 
-0.278030 0.333025 0.000000 
-0.225992 0.327159 0.000000 
-0.201664 0.379276 0.000000 
-0.145749 0.365802 0.000000 
-0.117890 0.410145 0.000000 
-0.059328 0.387439 0.000000 
-0.029759 0.424505 0.000000 
-0.058559 -0.026118 0.000000 
-0.162226 -0.046961 0.000000 
-0.123292 -0.011343 0.000000 
-0.142917 0.037640 0.000000 
-0.261851 -0.069117 0.000000 
-0.229092 -0.032090 0.000000 
-0.256854 0.019141 0.000000 
-0.209613 0.053254 0.000000 
-0.223062 0.100828 0.000000 
-0.360414 -0.091417 0.000000 
-0.329787 -0.054294 0.000000 
-0.361761 -0.002492 0.000000 
-0.321587 0.033916 0.000000 
-0.341985 0.084151 0.000000 
-0.290702 0.116950 0.000000 
-0.302189 0.163685 0.000000 
-0.458977 -0.113717 0.000000 
-0.429420 -0.076643 0.000000 
-0.464588 -0.024601 0.000000 
-0.427556 0.012427 0.000000 
-0.453135 0.063941 0.000000 
-0.407738 0.099257 0.000000 
-0.425037 0.148685 0.000000 
-0.370772 0.180314 0.000000 
-0.381315 0.226541 0.000000 
-0.046960 -0.076933 0.000000 
-0.095301 -0.170979 0.000000 
-0.098873 -0.118332 0.000000 
-0.149405 -0.103134 0.000000 
-0.140093 -0.262683 0.000000 
-0.148617 -0.213985 0.000000 
-0.205981 -0.203748 0.000000 
-0.203197 -0.145544 0.000000 
-0.248777 -0.126398 0.000000 
-0.184111 -0.353647 0.000000 
-0.194039 -0.306556 0.000000 
-0.254475 -0.299256 0.000000 
-0.257893 -0.245146 0.000000 
-0.309886 -0.229774 0.000000 
-0.303554 -0.169229 0.000000 
-0.347255 -0.149071 0.000000 
-0.228129 -0.444610 0.000000 
-0.238687 -0.398386 0.000000 
-0.301302 -0.393434 0.000000 
-0.307162 -0.341395 0.000000 
-0.363386 -0.329274 0.000000 
-0.362692 -0.271763 0.000000 
-0.412122 -0.254470 0.000000 
-0.403017 -0.192323 0.000000 
-0.445733 -0.171744 0.000000 
-0.000000 -0.099548 0.000000 
0.043388 -0.195979 0.000000 
-0.000000 -0.165947 0.000000 
-0.043388 -0.195979 0.000000 
0.087158 -0.288176 0.000000 
0.043769 -0.264477 0.000000 
-0.000000 -0.302943 0.000000 
-0.043769 -0.264477 0.000000 
-0.087158 -0.288176 0.000000 
0.130831 -0.379305 0.000000 
0.087824 -0.357706 0.000000 
0.044436 -0.400406 0.000000 
-0.000000 -0.369341 0.000000 
-0.044436 -0.400406 0.000000 
-0.087824 -0.357706 0.000000 
-0.130831 -0.379305 0.000000 
0.174505 -0.470435 0.000000 
0.131782 -0.449869 0.000000 
0.088871 -0.495735 0.000000 
0.044532 -0.467871 0.000000 
-0.000000 -0.504272 0.000000 
-0.044532 -0.467871 0.000000 
-0.088871 -0.495735 0.000000 
-0.131782 -0.449869 0.000000 
-0.174505 -0.470435 0.000000 
0.046960 -0.076933 0.000000 
0.149405 -0.103134 0.000000 
0.098873 -0.118332 0.000000 
0.095301 -0.170979 0.000000 
0.248777 -0.126398 0.000000 
0.203197 -0.145544 0.000000 
0.205981 -0.203748 0.000000 
0.148617 -0.213985 0.000000 
0.140093 -0.262683 0.000000 
0.347255 -0.149071 0.000000 
0.303554 -0.169229 0.000000 
0.309886 -0.229774 0.000000 
0.257893 -0.245146 0.000000 
0.254475 -0.299256 0.000000 
0.194039 -0.306556 0.000000 
0.184111 -0.353647 0.000000 
0.445733 -0.171744 0.000000 
0.403017 -0.192323 0.000000 
0.412122 -0.254470 0.000000 
0.362692 -0.271763 0.000000 
0.363386 -0.329274 0.000000 
0.307162 -0.341395 0.000000 
0.301302 -0.393434 0.000000 
0.238687 -0.398386 0.000000 
0.228129 -0.444610 0.000000 
0.058559 -0.026118 0.000000 
0.142917 0.037640 0.000000 
0.123292 -0.011343 0.000000 
0.162226 -0.046961 0.000000 
0.223062 0.100828 0.000000 
0.209613 0.053254 0.000000 
0.256854 0.019141 0.000000 
0.229092 -0.032090 0.000000 
0.261851 -0.069117 0.000000 
0.302189 0.163685 0.000000 
0.290702 0.116950 0.000000 
0.341985 0.084151 0.000000 
0.321587 0.033916 0.000000 
0.361761 -0.002492 0.000000 
0.329787 -0.054294 0.000000 
0.360414 -0.091417 0.000000 
0.381315 0.226541 0.000000 
0.370772 0.180314 0.000000 
0.425037 0.148685 0.000000 
0.407738 0.099257 0.000000 
0.453135 0.063941 0.000000 
0.427556 0.012427 0.000000 
0.464588 -0.024601 0.000000 
0.429420 -0.076643 0.000000 
0.458977 -0.113717 0.000000 
0.026061 0.014633 0.000000 
0.028809 0.120339 0.000000 
0.054870 0.074455 0.000000 
0.106992 0.082688 0.000000 
0.029377 0.222396 0.000000 
0.058186 0.182219 0.000000 
0.114311 0.197885 0.000000 
0.137056 0.144237 0.000000 
0.186430 0.146764 0.000000 
0.029568 0.323450 0.000000 
0.058945 0.285330 0.000000 
0.116563 0.304976 0.000000 
0.143120 0.257708 0.000000 
0.196633 0.266416 0.000000 
0.217198 0.209120 0.000000 
0.265318 0.209919 0.000000 
0.029759 0.424505 0.000000 
0.059328 0.387439 0.000000 
0.117890 0.410145 0.000000 
0.145749 0.365802 0.000000 
0.201664 0.379276 0.000000 
0.225992 0.327159 0.000000 
0.278030 0.333025 0.000000 
0.296791 0.273082 0.000000 
0.344206 0.273075 0.000000 
CELLS 175 350 
1 0 
1 1 
1 2 
1 3 
1 4 
1 5 
1 6 
1 7 
1 8 
1 9 
1 10 
1 11 
1 12 
1 13 
1 14 
1 15 
1 16 
1 17 
1 18 
1 19 
1 20 
1 21 
1 22 
1 23 
1 24 
1 25 
1 26 
1 27 
1 28 
1 29 
1 30 
1 31 
1 32 
1 33 
1 34 
1 35 
1 36 
1 37 
1 38 
1 39 
1 40 
1 41 
1 42 
1 43 
1 44 
1 45 
1 46 
1 47 
1 48 
1 49 
1 50 
1 51 
1 52 
1 53 
1 54 
1 55 
1 56 
1 57 
1 58 
1 59 
1 60 
1 61 
1 62 
1 63 
1 64 
1 65 
1 66 
1 67 
1 68 
1 69 
1 70 
1 71 
1 72 
1 73 
1 74 
1 75 
1 76 
1 77 
1 78 
1 79 
1 80 
1 81 
1 82 
1 83 
1 84 
1 85 
1 86 
1 87 
1 88 
1 89 
1 90 
1 91 
1 92 
1 93 
1 94 
1 95 
1 96 
1 97 
1 98 
1 99 
1 100 
1 101 
1 102 
1 103 
1 104 
1 105 
1 106 
1 107 
1 108 
1 109 
1 110 
1 111 
1 112 
1 113 
1 114 
1 115 
1 116 
1 117 
1 118 
1 119 
1 120 
1 121 
1 122 
1 123 
1 124 
1 125 
1 126 
1 127 
1 128 
1 129 
1 130 
1 131 
1 132 
1 133 
1 134 
1 135 
1 136 
1 137 
1 138 
1 139 
1 140 
1 141 
1 142 
1 143 
1 144 
1 145 
1 146 
1 147 
1 148 
1 149 
1 150 
1 151 
1 152 
1 153 
1 154 
1 155 
1 156 
1 157 
1 158 
1 159 
1 160 
1 161 
1 162 
1 163 
1 164 
1 165 
1 166 
1 167 
1 168 
1 169 
1 170 
1 171 
1 172 
1 173 
1 174 
CELL_TYPES 175 
1 
1 
1 
1 
1 
1 
1 
1 
1 
1 
1 
1 
1 
1 
1 
1 
1 
1 
1 
1 
1 
1 
1 
1 
1 
1 
1 
1 
1 
1 
1 
1 
1 
1 
1 
1 
1 
1 
1 
1 
1 
1 
1 
1 
1 
1 
1 
1 
1 
1 
1 
1 
1 
1 
1 
1 
1 
1 
1 
1 
1 
1 
1 
1 
1 
1 
1 
1 
1 
1 
1 
1 
1 
1 
1 
1 
1 
1 
1 
1 
1 
1 
1 
1 
1 
1 
1 
1 
1 
1 
1 
1 
1 
1 
1 
1 
1 
1 
1 
1 
1 
1 
1 
1 
1 
1 
1 
1 
1 
1 
1 
1 
1 
1 
1 
1 
1 
1 
1 
1 
1 
1 
1 
1 
1 
1 
1 
1 
1 
1 
1 
1 
1 
1 
1 
1 
1 
1 
1 
1 
1 
1 
1 
1 
1 
1 
1 
1 
1 
1 
1 
1 
1 
1 
1 
1 
1 
1 
1 
1 
1 
1 
1 
1 
1 
1 
1 
1 
1 
1 
1 
1 
1 
1 
1 
POINT_DATA 175 
VECTORS X_GC float 
-0.026061 0.014633 0.000000 
-0.106992 0.082688 0.000000 
-0.054870 0.074455 0.000000 
-0.028809 0.120339 0.000000 
-0.186430 0.146764 0.000000 
-0.137056 0.144237 0.000000 
-0.114311 0.197885 0.000000 
-0.058186 0.182219 0.000000 
-0.029377 0.222396 0.000000 
-0.265318 0.209919 0.000000 
-0.217198 0.209120 0.000000 
-0.196633 0.266416 0.000000 
-0.143120 0.257708 0.000000 
-0.116563 0.304976 0.000000 
-0.058945 0.285330 0.000000 
-0.029568 0.323450 0.000000 
-0.344206 0.273075 0.000000 
-0.296791 0.273082 0.000000 
-0.278030 0.333025 0.000000 
-0.225992 0.327159 0.000000 
-0.201664 0.379276 0.000000 
-0.145749 0.365802 0.000000 
-0.117890 0.410145 0.000000 
-0.059328 0.387439 0.000000 
-0.029759 0.424505 0.000000 
-0.058559 -0.026118 0.000000 
-0.162226 -0.046961 0.000000 
-0.123292 -0.011343 0.000000 
-0.142917 0.037640 0.000000 
-0.261851 -0.069117 0.000000 
-0.229092 -0.032090 0.000000 
-0.256854 0.019141 0.000000 
-0.209613 0.053254 0.000000 
-0.223062 0.100828 0.000000 
-0.360414 -0.091417 0.000000 
-0.329787 -0.054294 0.000000 
-0.361761 -0.002492 0.000000 
-0.321587 0.033916 0.000000 
-0.341985 0.084151 0.000000 
-0.290702 0.116950 0.000000 
-0.302189 0.163685 0.000000 
-0.458977 -0.113717 0.000000 
-0.429420 -0.076643 0.000000 
-0.464588 -0.024601 0.000000 
-0.427556 0.012427 0.000000 
-0.453135 0.063941 0.000000 
-0.407738 0.099257 0.000000 
-0.425037 0.148685 0.000000 
-0.370772 0.180314 0.000000 
-0.381315 0.226541 0.000000 
-0.046960 -0.076933 0.000000 
-0.095301 -0.170979 0.000000 
-0.098873 -0.118332 0.000000 
-0.149405 -0.103134 0.000000 
-0.140093 -0.262683 0.000000 
-0.148617 -0.213985 0.000000 
-0.205981 -0.203748 0.000000 
-0.203197 -0.145544 0.000000 
-0.248777 -0.126398 0.000000 
-0.184111 -0.353647 0.000000 
-0.194039 -0.306556 0.000000 
-0.254475 -0.299256 0.000000 
-0.257893 -0.245146 0.000000 
-0.309886 -0.229774 0.000000 
-0.303554 -0.169229 0.000000 
-0.347255 -0.149071 0.000000 
-0.228129 -0.444610 0.000000 
-0.238687 -0.398386 0.000000 
-0.301302 -0.393434 0.000000 
-0.307162 -0.341395 0.000000 
-0.363386 -0.329274 0.000000 
-0.362692 -0.271763 0.000000 
-0.412122 -0.254470 0.000000 
-0.403017 -0.192323 0.000000 
-0.445733 -0.171744 0.000000 
-0.000000 -0.099548 0.000000 
0.043388 -0.195979 0.000000 
-0.000000 -0.165947 0.000000 
-0.043388 -0.195979 0.000000 
0.087158 -0.288176 0.000000 
0.043769 -0.264477 0.000000 
-0.000000 -0.302943 0.000000 
-0.043769 -0.264477 0.000000 
-0.087158 -0.288176 0.000000 
0.130831 -0.379305 0.000000 
0.087824 -0.357706 0.000000 
0.044436 -0.400406 0.000000 
-0.000000 -0.369341 0.000000 
-0.044436 -0.400406 0.000000 
-0.087824 -0.357706 0.000000 
-0.130831 -0.379305 0.000000 
0.174505 -0.470435 0.000000 
0.131782 -0.449869 0.000000 
0.088871 -0.495735 0.000000 
0.044532 -0.467871 0.000000 
-0.000000 -0.504272 0.000000 
-0.044532 -0.467871 0.000000 
-0.088871 -0.495735 0.000000 
-0.131782 -0.449869 0.000000 
-0.174505 -0.470435 0.000000 
0.046960 -0.076933 0.000000 
0.149405 -0.103134 0.000000 
0.098873 -0.118332 0.000000 
0.095301 -0.170979 0.000000 
0.248777 -0.126398 0.000000 
0.203197 -0.145544 0.000000 
0.205981 -0.203748 0.000000 
0.148617 -0.213985 0.000000 
0.140093 -0.262683 0.000000 
0.347255 -0.149071 0.000000 
0.303554 -0.169229 0.000000 
0.309886 -0.229774 0.000000 
0.257893 -0.245146 0.000000 
0.254475 -0.299256 0.000000 
0.194039 -0.306556 0.000000 
0.184111 -0.353647 0.000000 
0.445733 -0.171744 0.000000 
0.403017 -0.192323 0.000000 
0.412122 -0.254470 0.000000 
0.362692 -0.271763 0.000000 
0.363386 -0.329274 0.000000 
0.307162 -0.341395 0.000000 
0.301302 -0.393434 0.000000 
0.238687 -0.398386 0.000000 
0.228129 -0.444610 0.000000 
0.058559 -0.026118 0.000000 
0.142917 0.037640 0.000000 
0.123292 -0.011343 0.000000 
0.162226 -0.046961 0.000000 
0.223062 0.100828 0.000000 
0.209613 0.053254 0.000000 
0.256854 0.019141 0.000000 
0.229092 -0.032090 0.000000 
0.261851 -0.069117 0.000000 
0.302189 0.163685 0.000000 
0.290702 0.116950 0.000000 
0.341985 0.084151 0.000000 
0.321587 0.033916 0.000000 
0.361761 -0.002492 0.000000 
0.329787 -0.054294 0.000000 
0.360414 -0.091417 0.000000 
0.381315 0.226541 0.000000 
0.370772 0.180314 0.000000 
0.425037 0.148685 0.000000 
0.407738 0.099257 0.000000 
0.453135 0.063941 0.000000 
0.427556 0.012427 0.000000 
0.464588 -0.024601 0.000000 
0.429420 -0.076643 0.000000 
0.458977 -0.113717 0.000000 
0.026061 0.014633 0.000000 
0.028809 0.120339 0.000000 
0.054870 0.074455 0.000000 
0.106992 0.082688 0.000000 
0.029377 0.222396 0.000000 
0.058186 0.182219 0.000000 
0.114311 0.197885 0.000000 
0.137056 0.144237 0.000000 
0.186430 0.146764 0.000000 
0.029568 0.323450 0.000000 
0.058945 0.285330 0.000000 
0.116563 0.304976 0.000000 
0.143120 0.257708 0.000000 
0.196633 0.266416 0.000000 
0.217198 0.209120 0.000000 
0.265318 0.209919 0.000000 
0.029759 0.424505 0.000000 
0.059328 0.387439 0.000000 
0.117890 0.410145 0.000000 
0.145749 0.365802 0.000000 
0.201664 0.379276 0.000000 
0.225992 0.327159 0.000000 
0.278030 0.333025 0.000000 
0.296791 0.273082 0.000000 
0.344206 0.273075 0.000000 
VECTORS X_EC float 
0.338794 0.302459 0.000000 
-0.609100 -0.616289 0.000000 
0.713312 -0.505149 0.000000 
0.374519 0.875422 0.000000 
0.423588 0.518691 0.000000 
-0.218274 0.552795 0.000000 
-0.513962 -0.171444 0.000000 
0.756418 0.040042 0.000000 
0.381900 -0.502350 0.000000 
-0.550868 -0.333912 0.000000 
0.823577 -0.323116 0.000000 
0.556234 0.903380 0.000000 
-0.139443 -0.979052 0.000000 
-0.484677 0.382824 0.000000 
0.766286 0.648039 0.000000 
0.384386 0.133419 0.000000 
0.474677 0.813485 0.000000 
-0.141715 0.813389 0.000000 
-0.385608 0.004160 0.000000 
0.937896 0.083356 0.000000 
0.621631 -0.620224 0.000000 
-0.105264 -0.438325 0.000000 
-0.467428 0.963049 0.000000 
0.771260 -0.730423 0.000000 
0.386873 0.769188 0.000000 
0.761262 0.852593 0.000000 
0.108942 -0.866030 0.000000 
-0.397202 0.653131 0.000000 
-0.142083 -0.008144 0.000000 
-0.595936 -0.566919 0.000000 
0.978194 0.933215 0.000000 
-0.660903 0.241590 0.000000 
0.724964 -0.218930 0.000000 
0.899809 -0.861179 0.000000 
0.685384 -0.265867 0.000000 
0.287229 -0.767025 0.000000 
0.702895 0.533646 0.000000 
0.180633 0.042127 0.000000 
0.445811 -0.636032 0.000000 
-0.220880 0.921182 0.000000 
-0.071546 0.290256 0.000000 
-0.033296 0.035185 0.000000 
-0.417537 -0.465324 0.000000 
0.039645 0.832113 0.000000 
-0.441768 0.332242 0.000000 
-0.109248 -0.363209 0.000000 
-0.699407 -0.839964 0.000000 
-0.474522 0.492756 0.000000 
0.820030 0.065763 0.000000 
0.957100 -0.558309 0.000000 
0.610485 -0.461400 0.000000 
-0.761092 0.808219 0.000000 
-0.714655 0.097482 0.000000 
-0.057734 -0.107685 0.000000 
-0.178789 0.046223 0.000000 
-0.067979 -0.611203 0.000000 
0.677748 -0.749406 0.000000 
0.641556 0.464849 0.000000 
-0.765897 0.206370 0.000000 
0.393446 -0.725767 0.000000 
0.522510 0.638503 0.000000 
-0.691820 0.539958 0.000000 
-0.647393 -0.190524 0.000000 
0.028512 -0.398051 0.000000 
-0.053800 0.784589 0.000000 
0.514316 0.512458 0.000000 
0.965681 0.502242 0.000000 
-0.897068 -0.121787 0.000000 
-0.083078 -0.188640 0.000000 
-0.006893 -0.891165 0.000000 
0.724017 0.945202 0.000000 
0.714996 0.168799 0.000000 
-0.642413 -0.064659 0.000000 
-0.760780 -0.903639 0.000000 
-0.205471 0.818546 0.000000 
0.000000 -0.156099 0.000000 
-0.564049 -0.854286 0.000000 
0.000000 0.740278 0.000000 
0.564049 -0.854286 0.000000 
0.866949 0.390370 0.000000 
-0.569003 0.070438 0.000000 
0.000000 0.589727 0.000000 
0.569003 0.070438 0.000000 
-0.866949 0.390370 0.000000 
0.299194 -0.379380 0.000000 
0.858290 -0.670964 0.000000 
-0.577662 -0.094518 0.000000 
0.000000 -0.513896 0.000000 
0.577662 -0.094518 0.000000 
-0.858290 -0.670964 0.000000 
-0.299194 -0.379380 0.000000 
-0.268560 0.850870 0.000000 
0.286830 0.573228 0.000000 
0.844677 -0.807574 0.000000 
-0.578910 0.816264 0.000000 
0.000000 -0.692332 0.000000 
0.578910 0.816264 0.000000 
-0.844677 -0.807574 0.000000 
-0.286830 0.573228 0.000000 
0.268560 0.850870 0.000000 
-0.610485 -0.461400 0.000000 
0.057734 -0.107685 0.000000 
0.714655 0.097482 0.000000 
0.761092 0.808219 0.000000 
0.765897 0.206370 0.000000 
-0.641556 0.464849 0.000000 
-0.677748 -0.749406 0.000000 
0.067979 -0.611203 0.000000 
0.178789 0.046223 0.000000 
-0.514316 0.512458 0.000000 
0.053800 0.784589 0.000000 
-0.028512 -0.398051 0.000000 
0.647393 -0.190524 0.000000 
0.691820 0.539958 0.000000 
-0.522510 0.638503 0.000000 
-0.393446 -0.725767 0.000000 
0.205471 0.818546 0.000000 
0.760780 -0.903639 0.000000 
0.642413 -0.064659 0.000000 
-0.714996 0.168799 0.000000 
-0.724017 0.945202 0.000000 
0.006894 -0.891165 0.000000 
0.083078 -0.188640 0.000000 
0.897068 -0.121787 0.000000 
-0.965681 0.502242 0.000000 
-0.761262 0.852593 0.000000 
0.142083 -0.008144 0.000000 
0.397202 0.653131 0.000000 
-0.108942 -0.866030 0.000000 
-0.899809 -0.861179 0.000000 
-0.724964 -0.218930 0.000000 
0.660903 0.241590 0.000000 
-0.978194 0.933215 0.000000 
0.595936 -0.566919 0.000000 
0.071546 0.290256 0.000000 
0.220880 0.921182 0.000000 
-0.445811 -0.636032 0.000000 
-0.180633 0.042127 0.000000 
-0.702895 0.533646 0.000000 
-0.287229 -0.767025 0.000000 
-0.685384 -0.265867 0.000000 
-0.957100 -0.558309 0.000000 
-0.820030 0.065763 0.000000 
0.474522 0.492756 0.000000 
0.699407 -0.839964 0.000000 
0.109248 -0.363209 0.000000 
0.441768 0.332242 0.000000 
-0.039645 0.832113 0.000000 
0.417537 -0.465324 0.000000 
0.033296 0.035185 0.000000 
-0.338794 0.302459 0.000000 
-0.374519 0.875422 0.000000 
-0.713312 -0.505149 0.000000 
0.609100 -0.616289 0.000000 
-0.381900 -0.502350 0.000000 
-0.756418 0.040042 0.000000 
0.513962 -0.171444 0.000000 
0.218274 0.552795 0.000000 
-0.423588 0.518691 0.000000 
-0.384386 0.133419 0.000000 
-0.766286 0.648039 0.000000 
0.484677 0.382824 0.000000 
0.139443 -0.979052 0.000000 
-0.556234 0.903380 0.000000 
-0.823577 -0.323116 0.000000 
0.550868 -0.333912 0.000000 
-0.386873 0.769188 0.000000 
-0.771260 -0.730423 0.000000 
0.467428 0.963049 0.000000 
0.105264 -0.438325 0.000000 
-0.621631 -0.620224 0.000000 
-0.937896 0.083356 0.000000 
0.385608 0.004160 0.000000 
0.141715 0.813389 0.000000 
-0.474677 0.813485 0.000000 
CELL_DATA 175 
SCALARS MASS float 
LOOKUP_TABLE default 
0.078183 
0.086427 
0.094672 
0.086427 
0.088131 
0.092111 
0.085854 
0.092111 
0.088131 
0.088705 
0.091000 
0.086983 
0.091556 
0.086983 
0.091000 
0.088705 
0.089278 
0.091574 
0.089278 
0.092722 
0.089278 
0.092722 
0.089278 
0.091574 
0.089278 
0.078183 
0.086427 
0.094672 
0.086427 
0.088131 
0.092111 
0.085854 
0.092111 
0.088131 
0.088705 
0.091000 
0.086983 
0.091556 
0.086983 
0.091000 
0.088705 
0.089278 
0.091574 
0.089278 
0.092722 
0.089278 
0.092722 
0.089278 
0.091574 
0.089278 
0.078183 
0.086427 
0.094672 
0.086427 
0.088131 
0.092111 
0.085854 
0.092111 
0.088131 
0.088705 
0.091000 
0.086983 
0.091556 
0.086983 
0.091000 
0.088705 
0.089278 
0.091574 
0.089278 
0.092722 
0.089278 
0.092722 
0.089278 
0.091574 
0.089278 
0.078183 
0.086427 
0.094672 
0.086427 
0.088131 
0.092111 
0.085854 
0.092111 
0.088131 
0.088705 
0.091000 
0.086983 
0.091556 
0.086983 
0.091000 
0.088705 
0.089278 
0.091574 
0.089278 
0.092722 
0.089278 
0.092722 
0.089278 
0.091574 
0.089278 
0.078183 
0.086427 
0.094672 
0.086427 
0.088131 
0.092111 
0.085854 
0.092111 
0.088131 
0.088705 
0.091000 
0.086983 
0.091556 
0.086983 
0.091000 
0.088705 
0.089278 
0.091574 
0.089278 
0.092722 
0.089278 
0.092722 
0.089278 
0.091574 
0.089278 
0.078183 
0.086427 
0.094672 
0.086427 
0.088131 
0.092111 
0.085854 
0.092111 
0.088131 
0.088705 
0.091000 
0.086983 
0.091556 
0.086983 
0.091000 
0.088705 
0.089278 
0.091574 
0.089278 
0.092722 
0.089278 
0.092722 
0.089278 
0.091574 
0.089278 
0.078183 
0.086427 
0.094672 
0.086427 
0.088131 
0.092111 
0.085854 
0.092111 
0.088131 
0.088705 
0.091000 
0.086983 
0.091556 
0.086983 
0.091000 
0.088705 
0.089278 
0.091574 
0.089278 
0.092722 
0.089278 
0.092722 
0.089278 
0.091574 
0.089278 
SCALARS MASS float 
LOOKUP_TABLE default 
0.078183 
0.086427 
0.094672 
0.086427 
0.088131 
0.092111 
0.085854 
0.092111 
0.088131 
0.088705 
0.091000 
0.086983 
0.091556 
0.086983 
0.091000 
0.088705 
0.089278 
0.091574 
0.089278 
0.092722 
0.089278 
0.092722 
0.089278 
0.091574 
0.089278 
0.078183 
0.086427 
0.094672 
0.086427 
0.088131 
0.092111 
0.085854 
0.092111 
0.088131 
0.088705 
0.091000 
0.086983 
0.091556 
0.086983 
0.091000 
0.088705 
0.089278 
0.091574 
0.089278 
0.092722 
0.089278 
0.092722 
0.089278 
0.091574 
0.089278 
0.078183 
0.086427 
0.094672 
0.086427 
0.088131 
0.092111 
0.085854 
0.092111 
0.088131 
0.088705 
0.091000 
0.086983 
0.091556 
0.086983 
0.091000 
0.088705 
0.089278 
0.091574 
0.089278 
0.092722 
0.089278 
0.092722 
0.089278 
0.091574 
0.089278 
0.078183 
0.086427 
0.094672 
0.086427 
0.088131 
0.092111 
0.085854 
0.092111 
0.088131 
0.088705 
0.091000 
0.086983 
0.091556 
0.086983 
0.091000 
0.088705 
0.089278 
0.091574 
0.089278 
0.092722 
0.089278 
0.092722 
0.089278 
0.091574 
0.089278 
0.078183 
0.086427 
0.094672 
0.086427 
0.088131 
0.092111 
0.085854 
0.092111 
0.088131 
0.088705 
0.091000 
0.086983 
0.091556 
0.086983 
0.091000 
0.088705 
0.089278 
0.091574 
0.089278 
0.092722 
0.089278 
0.092722 
0.089278 
0.091574 
0.089278 
0.078183 
0.086427 
0.094672 
0.086427 
0.088131 
0.092111 
0.085854 
0.092111 
0.088131 
0.088705 
0.091000 
0.086983 
0.091556 
0.086983 
0.091000 
0.088705 
0.089278 
0.091574 
0.089278 
0.092722 
0.089278 
0.092722 
0.089278 
0.091574 
0.089278 
0.078183 
0.086427 
0.094672 
0.086427 
0.088131 
0.092111 
0.085854 
0.092111 
0.088131 
0.088705 
0.091000 
0.086983 
0.091556 
0.086983 
0.091000 
0.088705 
0.089278 
0.091574 
0.089278 
0.092722 
0.089278 
0.092722 
0.089278 
0.091574 
0.089278 
SCALARS DENSITY float 
LOOKUP_TABLE default 
20.000000 
20.000000 
20.000000 
20.000000 
20.000000 
20.000000 
20.000000 
20.000000 
20.000000 
20.000000 
20.000000 
20.000000 
20.000000 
20.000000 
20.000000 
20.000000 
20.000000 
20.000000 
20.000000 
20.000000 
20.000000 
20.000000 
20.000000 
20.000000 
20.000000 
20.000000 
20.000000 
20.000000 
20.000000 
20.000000 
20.000000 
20.000000 
20.000000 
20.000000 
20.000000 
20.000000 
20.000000 
20.000000 
20.000000 
20.000000 
20.000000 
20.000000 
20.000000 
20.000000 
20.000000 
20.000000 
20.000000 
20.000000 
20.000000 
20.000000 
20.000000 
20.000000 
20.000000 
20.000000 
20.000000 
20.000000 
20.000000 
20.000000 
20.000000 
20.000000 
20.000000 
20.000000 
20.000000 
20.000000 
20.000000 
20.000000 
20.000000 
20.000000 
20.000000 
20.000000 
20.000000 
20.000000 
20.000000 
20.000000 
20.000000 
20.000000 
20.000000 
20.000000 
20.000000 
20.000000 
20.000000 
20.000000 
20.000000 
20.000000 
20.000000 
20.000000 
20.000000 
20.000000 
20.000000 
20.000000 
20.000000 
20.000000 
20.000000 
20.000000 
20.000000 
20.000000 
20.000000 
20.000000 
20.000000 
20.000000 
20.000000 
20.000000 
20.000000 
20.000000 
20.000000 
20.000000 
20.000000 
20.000000 
20.000000 
20.000000 
20.000000 
20.000000 
20.000000 
20.000000 
20.000000 
20.000000 
20.000000 
20.000000 
20.000000 
20.000000 
20.000000 
20.000000 
20.000000 
20.000000 
20.000000 
20.000000 
20.000000 
20.000000 
20.000000 
20.000000 
20.000000 
20.000000 
20.000000 
20.000000 
20.000000 
20.000000 
20.000000 
20.000000 
20.000000 
20.000000 
20.000000 
20.000000 
20.000000 
20.000000 
20.000000 
20.000000 
20.000000 
20.000000 
20.000000 
20.000000 
20.000000 
20.000000 
20.000000 
20.000000 
20.000000 
20.000000 
20.000000 
20.000000 
20.000000 
20.000000 
20.000000 
20.000000 
20.000000 
20.000000 
20.000000 
20.000000 
20.000000 
20.000000 
20.000000 
20.000000 
20.000000 
20.000000 
20.000000 
20.000000 
20.000000 
SCALARS ELEM_i float 
LOOKUP_TABLE default 
182 
209 
182 
183 
210 
210 
210 
183 
183 
237 
210 
211 
210 
211 
184 
184 
238 
238 
238 
211 
211 
211 
212 
184 
185 
182 
208 
209 
209 
235 
209 
236 
209 
209 
235 
235 
236 
236 
236 
237 
237 
262 
262 
263 
263 
263 
263 
264 
237 
237 
181 
208 
208 
208 
207 
207 
207 
208 
235 
206 
207 
234 
234 
234 
235 
235 
206 
233 
233 
233 
234 
234 
261 
261 
262 
181 
180 
181 
180 
153 
180 
180 
180 
207 
152 
152 
179 
179 
179 
206 
206 
152 
152 
151 
179 
178 
179 
205 
206 
206 
181 
154 
154 
154 
127 
154 
153 
153 
153 
127 
127 
126 
126 
126 
153 
152 
100 
99 
99 
126 
126 
125 
125 
125 
152 
182 
155 
155 
154 
155 
155 
128 
155 
127 
129 
129 
128 
128 
128 
127 
127 
129 
129 
102 
101 
101 
101 
101 
100 
100 
182 
183 
182 
155 
183 
183 
156 
156 
156 
184 
184 
157 
156 
157 
156 
129 
185 
184 
158 
157 
157 
157 
130 
130 
130 
VECTORS VELOCITY float 
-0.000000 -0.879761 0.000000 
-0.000000 -0.879761 0.000000 
-0.000000 -0.879761 0.000000 
-0.000000 -0.879761 0.000000 
-0.000000 -0.879761 0.000000 
-0.000000 -0.879761 0.000000 
-0.000000 -0.879761 0.000000 
-0.000000 -0.879761 0.000000 
-0.000000 -0.879761 0.000000 
0.000000 -0.879761 0.000000 
0.000000 -0.879761 0.000000 
0.000000 -0.879761 0.000000 
-0.000000 -0.879761 0.000000 
-0.000000 -0.879761 0.000000 
-0.000000 -0.879761 0.000000 
-0.000000 -0.879761 0.000000 
0.000000 -0.879761 0.000000 
0.000000 -0.879761 0.000000 
-0.000000 -0.879761 0.000000 
-0.000000 -0.879761 0.000000 
-0.000000 -0.879761 0.000000 
0.000000 -0.879761 0.000000 
-0.000000 -0.879761 0.000000 
0.000000 -0.879761 0.000000 
0.000000 -0.879761 0.000000 
0.000000 -0.879761 0.000000 
0.000000 -0.879761 0.000000 
0.000000 -0.879761 0.000000 
0.000000 -0.879761 0.000000 
0.000000 -0.879761 0.000000 
0.000000 -0.879761 0.000000 
0.000000 -0.879761 0.000000 
0.000000 -0.879761 0.000000 
0.000000 -0.879761 0.000000 
-0.000000 -0.879761 0.000000 
-0.000000 -0.879761 0.000000 
-0.000000 -0.879761 0.000000 
-0.000000 -0.879761 0.000000 
0.000000 -0.879761 0.000000 
0.000000 -0.879761 0.000000 
0.000000 -0.879761 0.000000 
-0.000000 -0.879761 0.000000 
-0.000000 -0.879761 0.000000 
-0.000000 -0.879761 0.000000 
-0.000000 -0.879761 0.000000 
0.000000 -0.879761 0.000000 
0.000000 -0.879761 0.000000 
-0.000000 -0.879761 0.000000 
0.000000 -0.879761 0.000000 
0.000000 -0.879761 0.000000 
0.000000 -0.879761 0.000000 
-0.000000 -0.879761 0.000000 
0.000000 -0.879761 0.000000 
0.000000 -0.879761 0.000000 
0.000000 -0.879761 0.000000 
-0.000000 -0.879761 0.000000 
0.000000 -0.879761 0.000000 
0.000000 -0.879761 0.000000 
0.000000 -0.879761 0.000000 
0.000000 -0.879761 0.000000 
0.000000 -0.879761 0.000000 
0.000000 -0.879761 0.000000 
0.000000 -0.879761 0.000000 
0.000000 -0.879761 0.000000 
0.000000 -0.879761 0.000000 
0.000000 -0.879761 0.000000 
-0.000000 -0.879761 0.000000 
-0.000000 -0.879761 0.000000 
-0.000000 -0.879761 0.000000 
-0.000000 -0.879761 0.000000 
-0.000000 -0.879761 0.000000 
0.000000 -0.879761 0.000000 
-0.000000 -0.879761 0.000000 
0.000000 -0.879761 0.000000 
-0.000000 -0.879761 0.000000 
0.000000 -0.879761 0.000000 
0.000000 -0.879761 0.000000 
-0.000000 -0.879761 0.000000 
-0.000000 -0.879761 0.000000 
-0.000000 -0.879761 0.000000 
-0.000000 -0.879761 0.000000 
0.000000 -0.879761 0.000000 
-0.000000 -0.879761 0.000000 
0.000000 -0.879761 0.000000 
-0.000000 -0.879761 0.000000 
-0.000000 -0.879761 0.000000 
0.000000 -0.879761 0.000000 
0.000000 -0.879761 0.000000 
0.000000 -0.879761 0.000000 
0.000000 -0.879761 0.000000 
0.000000 -0.879761 0.000000 
0.000000 -0.879761 0.000000 
0.000000 -0.879761 0.000000 
0.000000 -0.879761 0.000000 
0.000000 -0.879761 0.000000 
-0.000000 -0.879761 0.000000 
0.000000 -0.879761 0.000000 
-0.000000 -0.879761 0.000000 
-0.000000 -0.879761 0.000000 
-0.000000 -0.879761 0.000000 
-0.000000 -0.879761 0.000000 
-0.000000 -0.879761 0.000000 
-0.000000 -0.879761 0.000000 
0.000000 -0.879761 0.000000 
-0.000000 -0.879761 0.000000 
-0.000000 -0.879761 0.000000 
-0.000000 -0.879761 0.000000 
-0.000000 -0.879761 0.000000 
-0.000000 -0.879761 0.000000 
-0.000000 -0.879761 0.000000 
-0.000000 -0.879761 0.000000 
0.000000 -0.879761 0.000000 
-0.000000 -0.879761 0.000000 
-0.000000 -0.879761 0.000000 
-0.000000 -0.879761 0.000000 
-0.000000 -0.879761 0.000000 
0.000000 -0.879761 0.000000 
0.000000 -0.879761 0.000000 
-0.000000 -0.879761 0.000000 
0.000000 -0.879761 0.000000 
0.000000 -0.879761 0.000000 
0.000000 -0.879761 0.000000 
-0.000000 -0.879761 0.000000 
-0.000000 -0.879761 0.000000 
0.000000 -0.879761 0.000000 
-0.000000 -0.879761 0.000000 
0.000000 -0.879761 0.000000 
-0.000000 -0.879761 0.000000 
-0.000000 -0.879761 0.000000 
0.000000 -0.879761 0.000000 
0.000000 -0.879761 0.000000 
0.000000 -0.879761 0.000000 
0.000000 -0.879761 0.000000 
-0.000000 -0.879761 0.000000 
0.000000 -0.879761 0.000000 
0.000000 -0.879761 0.000000 
0.000000 -0.879761 0.000000 
0.000000 -0.879761 0.000000 
-0.000000 -0.879761 0.000000 
-0.000000 -0.879761 0.000000 
-0.000000 -0.879761 0.000000 
0.000000 -0.879761 0.000000 
0.000000 -0.879761 0.000000 
-0.000000 -0.879761 0.000000 
0.000000 -0.879761 0.000000 
0.000000 -0.879761 0.000000 
-0.000000 -0.879761 0.000000 
0.000000 -0.879761 0.000000 
-0.000000 -0.879761 0.000000 
0.000000 -0.879761 0.000000 
-0.000000 -0.879761 0.000000 
-0.000000 -0.879761 0.000000 
-0.000000 -0.879761 0.000000 
0.000000 -0.879761 0.000000 
-0.000000 -0.879761 0.000000 
-0.000000 -0.879761 0.000000 
0.000000 -0.879761 0.000000 
0.000000 -0.879761 0.000000 
0.000000 -0.879761 0.000000 
-0.000000 -0.879761 0.000000 
-0.000000 -0.879761 0.000000 
-0.000000 -0.879761 0.000000 
-0.000000 -0.879761 0.000000 
-0.000000 -0.879761 0.000000 
0.000000 -0.879761 0.000000 
0.000000 -0.879761 0.000000 
0.000000 -0.879761 0.000000 
-0.000000 -0.879761 0.000000 
0.000000 -0.879761 0.000000 
-0.000000 -0.879761 0.000000 
-0.000000 -0.879761 0.000000 
-0.000000 -0.879761 0.000000 
-0.000000 -0.879761 0.000000 
-0.000000 -0.879761 0.000000 
-0.000000 -0.879761 0.000000 
TENSORS STRESS float 
0.000000 -0.000000 0.000000 
0.000000 0.000000 0.000000 
0.000000 0.000000 0.000000 

-0.000000 0.000000 0.000000 
0.000000 0.000000 0.000000 
0.000000 0.000000 0.000000 

-0.000000 -0.000000 0.000000 
0.000000 0.000000 0.000000 
0.000000 0.000000 0.000000 

-0.000000 -0.000000 0.000000 
0.000000 -0.000000 0.000000 
0.000000 0.000000 0.000000 

-0.000000 -0.000000 0.000000 
0.000000 -0.000000 0.000000 
0.000000 0.000000 0.000000 

-0.000000 -0.000000 0.000000 
0.000000 -0.000000 0.000000 
0.000000 0.000000 0.000000 

-0.000000 0.000000 0.000000 
0.000000 -0.000000 0.000000 
0.000000 0.000000 0.000000 

-0.000000 -0.000000 0.000000 
0.000000 -0.000000 0.000000 
0.000000 0.000000 0.000000 

0.000000 0.000000 0.000000 
0.000000 -0.000000 0.000000 
0.000000 0.000000 0.000000 

0.000000 -0.000000 0.000000 
0.000000 0.000000 0.000000 
0.000000 0.000000 0.000000 

-0.000000 0.000000 0.000000 
0.000000 -0.000000 0.000000 
0.000000 0.000000 0.000000 

-0.000000 0.000000 0.000000 
0.000000 0.000000 0.000000 
0.000000 0.000000 0.000000 

-0.000000 0.000000 0.000000 
0.000000 -0.000000 0.000000 
0.000000 0.000000 0.000000 

0.000000 0.000000 0.000000 
0.000000 0.000000 0.000000 
0.000000 0.000000 0.000000 

0.000000 0.000000 0.000000 
0.000000 0.000000 0.000000 
0.000000 0.000000 0.000000 

-0.000000 0.000000 0.000000 
0.000000 -0.000000 0.000000 
0.000000 0.000000 0.000000 

-0.000000 0.000000 0.000000 
0.000000 -0.000000 0.000000 
0.000000 0.000000 0.000000 

0.000000 0.000000 0.000000 
0.000000 0.000000 0.000000 
0.000000 0.000000 0.000000 

-0.000000 0.000000 0.000000 
0.000000 0.000000 0.000000 
0.000000 0.000000 0.000000 

0.000000 0.000000 0.000000 
0.000000 -0.000000 0.000000 
0.000000 0.000000 0.000000 

0.000000 -0.000000 0.000000 
0.000000 0.000000 0.000000 
0.000000 0.000000 0.000000 

0.000000 0.000000 0.000000 
0.000000 0.000000 0.000000 
0.000000 0.000000 0.000000 

-0.000000 -0.000000 0.000000 
0.000000 -0.000000 0.000000 
0.000000 0.000000 0.000000 

-0.000000 0.000000 0.000000 
0.000000 0.000000 0.000000 
0.000000 0.000000 0.000000 

-0.000000 -0.000000 0.000000 
0.000000 -0.000000 0.000000 
0.000000 0.000000 0.000000 

0.000000 -0.000000 0.000000 
0.000000 0.000000 0.000000 
0.000000 0.000000 0.000000 

0.000000 0.000000 0.000000 
0.000000 0.000000 0.000000 
0.000000 0.000000 0.000000 

0.000000 0.000000 0.000000 
0.000000 0.000000 0.000000 
0.000000 0.000000 0.000000 

0.000000 0.000000 0.000000 
0.000000 0.000000 0.000000 
0.000000 0.000000 0.000000 

0.000000 -0.000000 0.000000 
0.000000 -0.000000 0.000000 
0.000000 0.000000 0.000000 

0.000000 0.000000 0.000000 
0.000000 0.000000 0.000000 
0.000000 0.000000 0.000000 

0.000000 0.000000 0.000000 
0.000000 0.000000 0.000000 
0.000000 0.000000 0.000000 

0.000000 0.000000 0.000000 
0.000000 0.000000 0.000000 
0.000000 0.000000 0.000000 

-0.000000 0.000000 0.000000 
0.000000 -0.000000 0.000000 
0.000000 0.000000 0.000000 

0.000000 -0.000000 0.000000 
0.000000 0.000000 0.000000 
0.000000 0.000000 0.000000 

0.000000 -0.000000 0.000000 
0.000000 0.000000 0.000000 
0.000000 0.000000 0.000000 

0.000000 0.000000 0.000000 
0.000000 -0.000000 0.000000 
0.000000 0.000000 0.000000 

0.000000 0.000000 0.000000 
0.000000 -0.000000 0.000000 
0.000000 0.000000 0.000000 

-0.000000 0.000000 0.000000 
0.000000 -0.000000 0.000000 
0.000000 0.000000 0.000000 

-0.000000 -0.000000 0.000000 
0.000000 -0.000000 0.000000 
0.000000 0.000000 0.000000 

-0.000000 -0.000000 0.000000 
0.000000 -0.000000 0.000000 
0.000000 0.000000 0.000000 

0.000000 -0.000000 0.000000 
0.000000 0.000000 0.000000 
0.000000 0.000000 0.000000 

0.000000 -0.000000 0.000000 
0.000000 0.000000 0.000000 
0.000000 0.000000 0.000000 

0.000000 -0.000000 0.000000 
0.000000 -0.000000 0.000000 
0.000000 0.000000 0.000000 

0.000000 -0.000000 0.000000 
0.000000 -0.000000 0.000000 
0.000000 0.000000 0.000000 

0.000000 -0.000000 0.000000 
0.000000 -0.000000 0.000000 
0.000000 0.000000 0.000000 

0.000000 -0.000000 0.000000 
0.000000 0.000000 0.000000 
0.000000 0.000000 0.000000 

-0.000000 0.000000 0.000000 
0.000000 -0.000000 0.000000 
0.000000 0.000000 0.000000 

-0.000000 -0.000000 0.000000 
0.000000 -0.000000 0.000000 
0.000000 0.000000 0.000000 

-0.000000 -0.000000 0.000000 
0.000000 -0.000000 0.000000 
0.000000 0.000000 0.000000 

0.000000 -0.000000 0.000000 
0.000000 0.000000 0.000000 
0.000000 0.000000 0.000000 

-0.000000 0.000000 0.000000 
0.000000 0.000000 0.000000 
0.000000 0.000000 0.000000 

-0.000000 0.000000 0.000000 
0.000000 0.000000 0.000000 
0.000000 0.000000 0.000000 

-0.000000 0.000000 0.000000 
0.000000 0.000000 0.000000 
0.000000 0.000000 0.000000 

0.000000 0.000000 0.000000 
0.000000 0.000000 0.000000 
0.000000 0.000000 0.000000 

-0.000000 0.000000 0.000000 
0.000000 -0.000000 0.000000 
0.000000 0.000000 0.000000 

-0.000000 0.000000 0.000000 
0.000000 -0.000000 0.000000 
0.000000 0.000000 0.000000 

-0.000000 0.000000 0.000000 
0.000000 -0.000000 0.000000 
0.000000 0.000000 0.000000 

0.000000 -0.000000 0.000000 
0.000000 -0.000000 0.000000 
0.000000 0.000000 0.000000 

0.000000 0.000000 0.000000 
0.000000 -0.000000 0.000000 
0.000000 0.000000 0.000000 

0.000000 0.000000 0.000000 
0.000000 0.000000 0.000000 
0.000000 0.000000 0.000000 

-0.000000 0.000000 0.000000 
0.000000 0.000000 0.000000 
0.000000 0.000000 0.000000 

-0.000000 0.000000 0.000000 
0.000000 -0.000000 0.000000 
0.000000 0.000000 0.000000 

-0.000000 0.000000 0.000000 
0.000000 -0.000000 0.000000 
0.000000 0.000000 0.000000 

0.000000 0.000000 0.000000 
0.000000 0.000000 0.000000 
0.000000 0.000000 0.000000 

0.000000 -0.000000 0.000000 
0.000000 0.000000 0.000000 
0.000000 0.000000 0.000000 

0.000000 -0.000000 0.000000 
0.000000 -0.000000 0.000000 
0.000000 0.000000 0.000000 

0.000000 0.000000 0.000000 
0.000000 -0.000000 0.000000 
0.000000 0.000000 0.000000 

0.000000 0.000000 0.000000 
0.000000 -0.000000 0.000000 
0.000000 0.000000 0.000000 

-0.000000 0.000000 0.000000 
0.000000 -0.000000 0.000000 
0.000000 0.000000 0.000000 

-0.000000 0.000000 0.000000 
0.000000 -0.000000 0.000000 
0.000000 0.000000 0.000000 

-0.000000 0.000000 0.000000 
0.000000 -0.000000 0.000000 
0.000000 0.000000 0.000000 

0.000000 0.000000 0.000000 
0.000000 -0.000000 0.000000 
0.000000 0.000000 0.000000 

-0.000000 -0.000000 0.000000 
0.000000 0.000000 0.000000 
0.000000 0.000000 0.000000 

0.000000 -0.000000 0.000000 
0.000000 0.000000 0.000000 
0.000000 0.000000 0.000000 

0.000000 -0.000000 0.000000 
0.000000 0.000000 0.000000 
0.000000 0.000000 0.000000 

0.000000 0.000000 0.000000 
0.000000 0.000000 0.000000 
0.000000 0.000000 0.000000 

0.000000 0.000000 0.000000 
0.000000 0.000000 0.000000 
0.000000 0.000000 0.000000 

0.000000 0.000000 0.000000 
0.000000 -0.000000 0.000000 
0.000000 0.000000 0.000000 

0.000000 0.000000 0.000000 
0.000000 0.000000 0.000000 
0.000000 0.000000 0.000000 

0.000000 0.000000 0.000000 
0.000000 0.000000 0.000000 
0.000000 0.000000 0.000000 

-0.000000 0.000000 0.000000 
0.000000 0.000000 0.000000 
0.000000 0.000000 0.000000 

0.000000 0.000000 0.000000 
0.000000 0.000000 0.000000 
0.000000 0.000000 0.000000 

0.000000 0.000000 0.000000 
0.000000 0.000000 0.000000 
0.000000 0.000000 0.000000 

0.000000 0.000000 0.000000 
0.000000 0.000000 0.000000 
0.000000 0.000000 0.000000 

0.000000 -0.000000 0.000000 
0.000000 0.000000 0.000000 
0.000000 0.000000 0.000000 

0.000000 -0.000000 0.000000 
0.000000 0.000000 0.000000 
0.000000 0.000000 0.000000 

-0.000000 -0.000000 0.000000 
0.000000 0.000000 0.000000 
0.000000 0.000000 0.000000 

-0.000000 -0.000000 0.000000 
0.000000 -0.000000 0.000000 
0.000000 0.000000 0.000000 

0.000000 0.000000 0.000000 
0.000000 0.000000 0.000000 
0.000000 0.000000 0.000000 

-0.000000 0.000000 0.000000 
0.000000 -0.000000 0.000000 
0.000000 0.000000 0.000000 

0.000000 -0.000000 0.000000 
0.000000 0.000000 0.000000 
0.000000 0.000000 0.000000 

0.000000 0.000000 0.000000 
0.000000 0.000000 0.000000 
0.000000 0.000000 0.000000 

0.000000 0.000000 0.000000 
0.000000 0.000000 0.000000 
0.000000 0.000000 0.000000 

0.000000 -0.000000 0.000000 
0.000000 0.000000 0.000000 
0.000000 0.000000 0.000000 

0.000000 -0.000000 0.000000 
0.000000 -0.000000 0.000000 
0.000000 0.000000 0.000000 

0.000000 -0.000000 0.000000 
0.000000 -0.000000 0.000000 
0.000000 0.000000 0.000000 

0.000000 -0.000000 0.000000 
0.000000 -0.000000 0.000000 
0.000000 0.000000 0.000000 

0.000000 0.000000 0.000000 
0.000000 -0.000000 0.000000 
0.000000 0.000000 0.000000 

0.000000 -0.000000 0.000000 
0.000000 0.000000 0.000000 
0.000000 0.000000 0.000000 

0.000000 -0.000000 0.000000 
0.000000 0.000000 0.000000 
0.000000 0.000000 0.000000 

-0.000000 -0.000000 0.000000 
0.000000 -0.000000 0.000000 
0.000000 0.000000 0.000000 

-0.000000 -0.000000 0.000000 
0.000000 -0.000000 0.000000 
0.000000 0.000000 0.000000 

-0.000000 -0.000000 0.000000 
0.000000 0.000000 0.000000 
0.000000 0.000000 0.000000 

0.000000 0.000000 0.000000 
0.000000 0.000000 0.000000 
0.000000 0.000000 0.000000 

-0.000000 -0.000000 0.000000 
0.000000 0.000000 0.000000 
0.000000 0.000000 0.000000 

-0.000000 0.000000 0.000000 
0.000000 0.000000 0.000000 
0.000000 0.000000 0.000000 

-0.000000 0.000000 0.000000 
0.000000 0.000000 0.000000 
0.000000 0.000000 0.000000 

0.000000 0.000000 0.000000 
0.000000 0.000000 0.000000 
0.000000 0.000000 0.000000 

0.000000 0.000000 0.000000 
0.000000 0.000000 0.000000 
0.000000 0.000000 0.000000 

0.000000 0.000000 0.000000 
0.000000 0.000000 0.000000 
0.000000 0.000000 0.000000 

-0.000000 0.000000 0.000000 
0.000000 -0.000000 0.000000 
0.000000 0.000000 0.000000 

0.000000 0.000000 0.000000 
0.000000 -0.000000 0.000000 
0.000000 0.000000 0.000000 

-0.000000 0.000000 0.000000 
0.000000 -0.000000 0.000000 
0.000000 0.000000 0.000000 

0.000000 0.000000 0.000000 
0.000000 0.000000 0.000000 
0.000000 0.000000 0.000000 

0.000000 0.000000 0.000000 
0.000000 0.000000 0.000000 
0.000000 0.000000 0.000000 

0.000000 0.000000 0.000000 
0.000000 0.000000 0.000000 
0.000000 0.000000 0.000000 

-0.000000 -0.000000 0.000000 
0.000000 -0.000000 0.000000 
0.000000 0.000000 0.000000 

-0.000000 -0.000000 0.000000 
0.000000 -0.000000 0.000000 
0.000000 0.000000 0.000000 

0.000000 0.000000 0.000000 
0.000000 -0.000000 0.000000 
0.000000 0.000000 0.000000 

0.000000 0.000000 0.000000 
0.000000 -0.000000 0.000000 
0.000000 0.000000 0.000000 

0.000000 0.000000 0.000000 
0.000000 0.000000 0.000000 
0.000000 0.000000 0.000000 

0.000000 0.000000 0.000000 
0.000000 0.000000 0.000000 
0.000000 0.000000 0.000000 

0.000000 -0.000000 0.000000 
0.000000 0.000000 0.000000 
0.000000 0.000000 0.000000 

0.000000 0.000000 0.000000 
0.000000 0.000000 0.000000 
0.000000 0.000000 0.000000 

0.000000 -0.000000 0.000000 
0.000000 0.000000 0.000000 
0.000000 0.000000 0.000000 

-0.000000 0.000000 0.000000 
0.000000 0.000000 0.000000 
0.000000 0.000000 0.000000 

-0.000000 0.000000 0.000000 
0.000000 0.000000 0.000000 
0.000000 0.000000 0.000000 

-0.000000 0.000000 0.000000 
0.000000 -0.000000 0.000000 
0.000000 0.000000 0.000000 

0.000000 0.000000 0.000000 
0.000000 0.000000 0.000000 
0.000000 0.000000 0.000000 

-0.000000 0.000000 0.000000 
0.000000 0.000000 0.000000 
0.000000 0.000000 0.000000 

-0.000000 -0.000000 0.000000 
0.000000 -0.000000 0.000000 
0.000000 0.000000 0.000000 

-0.000000 0.000000 0.000000 
0.000000 0.000000 0.000000 
0.000000 0.000000 0.000000 

0.000000 0.000000 0.000000 
0.000000 0.000000 0.000000 
0.000000 0.000000 0.000000 

-0.000000 -0.000000 0.000000 
0.000000 -0.000000 0.000000 
0.000000 0.000000 0.000000 

-0.000000 -0.000000 0.000000 
0.000000 -0.000000 0.000000 
0.000000 0.000000 0.000000 

0.000000 -0.000000 0.000000 
0.000000 0.000000 0.000000 
0.000000 0.000000 0.000000 

0.000000 -0.000000 0.000000 
0.000000 0.000000 0.000000 
0.000000 0.000000 0.000000 

0.000000 -0.000000 0.000000 
0.000000 0.000000 0.000000 
0.000000 0.000000 0.000000 

0.000000 0.000000 0.000000 
0.000000 -0.000000 0.000000 
0.000000 0.000000 0.000000 

0.000000 0.000000 0.000000 
0.000000 0.000000 0.000000 
0.000000 0.000000 0.000000 

-0.000000 0.000000 0.000000 
0.000000 -0.000000 0.000000 
0.000000 0.000000 0.000000 

-0.000000 -0.000000 0.000000 
0.000000 -0.000000 0.000000 
0.000000 0.000000 0.000000 

0.000000 0.000000 0.000000 
0.000000 -0.000000 0.000000 
0.000000 0.000000 0.000000 

-0.000000 0.000000 0.000000 
0.000000 -0.000000 0.000000 
0.000000 0.000000 0.000000 

0.000000 0.000000 0.000000 
0.000000 0.000000 0.000000 
0.000000 0.000000 0.000000 

-0.000000 0.000000 0.000000 
0.000000 -0.000000 0.000000 
0.000000 0.000000 0.000000 

0.000000 0.000000 0.000000 
0.000000 0.000000 0.000000 
0.000000 0.000000 0.000000 

0.000000 0.000000 0.000000 
0.000000 0.000000 0.000000 
0.000000 0.000000 0.000000 

0.000000 0.000000 0.000000 
0.000000 0.000000 0.000000 
0.000000 0.000000 0.000000 

0.000000 -0.000000 0.000000 
0.000000 0.000000 0.000000 
0.000000 0.000000 0.000000 

-0.000000 -0.000000 0.000000 
0.000000 0.000000 0.000000 
0.000000 0.000000 0.000000 

-0.000000 -0.000000 0.000000 
0.000000 0.000000 0.000000 
0.000000 0.000000 0.000000 

-0.000000 0.000000 0.000000 
0.000000 0.000000 0.000000 
0.000000 0.000000 0.000000 

0.000000 -0.000000 0.000000 
0.000000 0.000000 0.000000 
0.000000 0.000000 0.000000 

0.000000 -0.000000 0.000000 
0.000000 0.000000 0.000000 
0.000000 0.000000 0.000000 

0.000000 0.000000 0.000000 
0.000000 0.000000 0.000000 
0.000000 0.000000 0.000000 

0.000000 0.000000 0.000000 
0.000000 0.000000 0.000000 
0.000000 0.000000 0.000000 

-0.000000 0.000000 0.000000 
0.000000 -0.000000 0.000000 
0.000000 0.000000 0.000000 

-0.000000 -0.000000 0.000000 
0.000000 -0.000000 0.000000 
0.000000 0.000000 0.000000 

0.000000 -0.000000 0.000000 
0.000000 -0.000000 0.000000 
0.000000 0.000000 0.000000 

0.000000 -0.000000 0.000000 
0.000000 -0.000000 0.000000 
0.000000 0.000000 0.000000 

-0.000000 -0.000000 0.000000 
0.000000 -0.000000 0.000000 
0.000000 0.000000 0.000000 

-0.000000 0.000000 0.000000 
0.000000 0.000000 0.000000 
0.000000 0.000000 0.000000 

-0.000000 0.000000 0.000000 
0.000000 -0.000000 0.000000 
0.000000 0.000000 0.000000 

-0.000000 -0.000000 0.000000 
0.000000 -0.000000 0.000000 
0.000000 0.000000 0.000000 

0.000000 0.000000 0.000000 
0.000000 0.000000 0.000000 
0.000000 0.000000 0.000000 

-0.000000 0.000000 0.000000 
0.000000 0.000000 0.000000 
0.000000 0.000000 0.000000 

0.000000 -0.000000 0.000000 
0.000000 -0.000000 0.000000 
0.000000 0.000000 0.000000 

0.000000 -0.000000 0.000000 
0.000000 0.000000 0.000000 
0.000000 0.000000 0.000000 

0.000000 0.000000 0.000000 
0.000000 -0.000000 0.000000 
0.000000 0.000000 0.000000 

0.000000 0.000000 0.000000 
0.000000 0.000000 0.000000 
0.000000 0.000000 0.000000 

0.000000 0.000000 0.000000 
0.000000 0.000000 0.000000 
0.000000 0.000000 0.000000 

0.000000 0.000000 0.000000 
0.000000 0.000000 0.000000 
0.000000 0.000000 0.000000 

0.000000 0.000000 0.000000 
0.000000 0.000000 0.000000 
0.000000 0.000000 0.000000 

TENSORS STRAIN float 
-0.000000 -0.000000 0.000000 
0.000000 0.000000 0.000000 
0.000000 0.000000 0.000000 

-0.000000 0.000000 0.000000 
0.000000 0.000000 0.000000 
0.000000 0.000000 0.000000 

-0.000000 -0.000000 0.000000 
0.000000 0.000000 0.000000 
0.000000 0.000000 0.000000 

-0.000000 -0.000000 0.000000 
0.000000 -0.000000 0.000000 
0.000000 0.000000 0.000000 

-0.000000 -0.000000 0.000000 
0.000000 -0.000000 0.000000 
0.000000 0.000000 0.000000 

-0.000000 -0.000000 0.000000 
0.000000 0.000000 0.000000 
0.000000 0.000000 0.000000 

-0.000000 0.000000 0.000000 
0.000000 -0.000000 0.000000 
0.000000 0.000000 0.000000 

0.000000 -0.000000 0.000000 
0.000000 -0.000000 0.000000 
0.000000 0.000000 0.000000 

0.000000 0.000000 0.000000 
0.000000 -0.000000 0.000000 
0.000000 0.000000 0.000000 

0.000000 -0.000000 0.000000 
0.000000 -0.000000 0.000000 
0.000000 0.000000 0.000000 

-0.000000 0.000000 0.000000 
0.000000 -0.000000 0.000000 
0.000000 0.000000 0.000000 

-0.000000 0.000000 0.000000 
0.000000 0.000000 0.000000 
0.000000 0.000000 0.000000 

-0.000000 0.000000 0.000000 
0.000000 -0.000000 0.000000 
0.000000 0.000000 0.000000 

0.000000 0.000000 0.000000 
0.000000 0.000000 0.000000 
0.000000 0.000000 0.000000 

0.000000 0.000000 0.000000 
0.000000 0.000000 0.000000 
0.000000 0.000000 0.000000 

-0.000000 0.000000 0.000000 
0.000000 -0.000000 0.000000 
0.000000 0.000000 0.000000 

0.000000 0.000000 0.000000 
0.000000 -0.000000 0.000000 
0.000000 0.000000 0.000000 

0.000000 0.000000 0.000000 
0.000000 0.000000 0.000000 
0.000000 0.000000 0.000000 

-0.000000 0.000000 0.000000 
0.000000 0.000000 0.000000 
0.000000 0.000000 0.000000 

0.000000 0.000000 0.000000 
0.000000 -0.000000 0.000000 
0.000000 0.000000 0.000000 

0.000000 -0.000000 0.000000 
0.000000 0.000000 0.000000 
0.000000 0.000000 0.000000 

0.000000 0.000000 0.000000 
0.000000 -0.000000 0.000000 
0.000000 0.000000 0.000000 

-0.000000 -0.000000 0.000000 
0.000000 -0.000000 0.000000 
0.000000 0.000000 0.000000 

-0.000000 0.000000 0.000000 
0.000000 0.000000 0.000000 
0.000000 0.000000 0.000000 

-0.000000 -0.000000 0.000000 
0.000000 -0.000000 0.000000 
0.000000 0.000000 0.000000 

-0.000000 -0.000000 0.000000 
0.000000 0.000000 0.000000 
0.000000 0.000000 0.000000 

-0.000000 0.000000 0.000000 
0.000000 0.000000 0.000000 
0.000000 0.000000 0.000000 

-0.000000 0.000000 0.000000 
0.000000 0.000000 0.000000 
0.000000 0.000000 0.000000 

-0.000000 0.000000 0.000000 
0.000000 0.000000 0.000000 
0.000000 0.000000 0.000000 

0.000000 -0.000000 0.000000 
0.000000 -0.000000 0.000000 
0.000000 0.000000 0.000000 

-0.000000 0.000000 0.000000 
0.000000 0.000000 0.000000 
0.000000 0.000000 0.000000 

0.000000 0.000000 0.000000 
0.000000 0.000000 0.000000 
0.000000 0.000000 0.000000 

-0.000000 0.000000 0.000000 
0.000000 0.000000 0.000000 
0.000000 0.000000 0.000000 

-0.000000 0.000000 0.000000 
0.000000 -0.000000 0.000000 
0.000000 0.000000 0.000000 

0.000000 -0.000000 0.000000 
0.000000 0.000000 0.000000 
0.000000 0.000000 0.000000 

0.000000 -0.000000 0.000000 
0.000000 0.000000 0.000000 
0.000000 0.000000 0.000000 

0.000000 0.000000 0.000000 
0.000000 -0.000000 0.000000 
0.000000 0.000000 0.000000 

0.000000 0.000000 0.000000 
0.000000 -0.000000 0.000000 
0.000000 0.000000 0.000000 

0.000000 0.000000 0.000000 
0.000000 -0.000000 0.000000 
0.000000 0.000000 0.000000 

-0.000000 -0.000000 0.000000 
0.000000 -0.000000 0.000000 
0.000000 0.000000 0.000000 

0.000000 -0.000000 0.000000 
0.000000 -0.000000 0.000000 
0.000000 0.000000 0.000000 

0.000000 -0.000000 0.000000 
0.000000 0.000000 0.000000 
0.000000 0.000000 0.000000 

0.000000 -0.000000 0.000000 
0.000000 0.000000 0.000000 
0.000000 0.000000 0.000000 

0.000000 -0.000000 0.000000 
0.000000 -0.000000 0.000000 
0.000000 0.000000 0.000000 

0.000000 -0.000000 0.000000 
0.000000 -0.000000 0.000000 
0.000000 0.000000 0.000000 

0.000000 -0.000000 0.000000 
0.000000 -0.000000 0.000000 
0.000000 0.000000 0.000000 

0.000000 -0.000000 0.000000 
0.000000 -0.000000 0.000000 
0.000000 0.000000 0.000000 

-0.000000 0.000000 0.000000 
0.000000 -0.000000 0.000000 
0.000000 0.000000 0.000000 

0.000000 -0.000000 0.000000 
0.000000 -0.000000 0.000000 
0.000000 0.000000 0.000000 

0.000000 -0.000000 0.000000 
0.000000 -0.000000 0.000000 
0.000000 0.000000 0.000000 

0.000000 -0.000000 0.000000 
0.000000 0.000000 0.000000 
0.000000 0.000000 0.000000 

-0.000000 0.000000 0.000000 
0.000000 0.000000 0.000000 
0.000000 0.000000 0.000000 

-0.000000 0.000000 0.000000 
0.000000 0.000000 0.000000 
0.000000 0.000000 0.000000 

-0.000000 0.000000 0.000000 
0.000000 0.000000 0.000000 
0.000000 0.000000 0.000000 

0.000000 0.000000 0.000000 
0.000000 -0.000000 0.000000 
0.000000 0.000000 0.000000 

-0.000000 0.000000 0.000000 
0.000000 -0.000000 0.000000 
0.000000 0.000000 0.000000 

-0.000000 0.000000 0.000000 
0.000000 -0.000000 0.000000 
0.000000 0.000000 0.000000 

-0.000000 0.000000 0.000000 
0.000000 -0.000000 0.000000 
0.000000 0.000000 0.000000 

0.000000 -0.000000 0.000000 
0.000000 -0.000000 0.000000 
0.000000 0.000000 0.000000 

0.000000 0.000000 0.000000 
0.000000 -0.000000 0.000000 
0.000000 0.000000 0.000000 

0.000000 0.000000 0.000000 
0.000000 0.000000 0.000000 
0.000000 0.000000 0.000000 

-0.000000 0.000000 0.000000 
0.000000 0.000000 0.000000 
0.000000 0.000000 0.000000 

-0.000000 0.000000 0.000000 
0.000000 -0.000000 0.000000 
0.000000 0.000000 0.000000 

-0.000000 0.000000 0.000000 
0.000000 -0.000000 0.000000 
0.000000 0.000000 0.000000 

0.000000 0.000000 0.000000 
0.000000 0.000000 0.000000 
0.000000 0.000000 0.000000 

0.000000 -0.000000 0.000000 
0.000000 0.000000 0.000000 
0.000000 0.000000 0.000000 

0.000000 -0.000000 0.000000 
0.000000 -0.000000 0.000000 
0.000000 0.000000 0.000000 

0.000000 0.000000 0.000000 
0.000000 -0.000000 0.000000 
0.000000 0.000000 0.000000 

0.000000 0.000000 0.000000 
0.000000 -0.000000 0.000000 
0.000000 0.000000 0.000000 

-0.000000 0.000000 0.000000 
0.000000 -0.000000 0.000000 
0.000000 0.000000 0.000000 

-0.000000 0.000000 0.000000 
0.000000 -0.000000 0.000000 
0.000000 0.000000 0.000000 

-0.000000 0.000000 0.000000 
0.000000 -0.000000 0.000000 
0.000000 0.000000 0.000000 

0.000000 0.000000 0.000000 
0.000000 -0.000000 0.000000 
0.000000 0.000000 0.000000 

-0.000000 -0.000000 0.000000 
0.000000 0.000000 0.000000 
0.000000 0.000000 0.000000 

-0.000000 -0.000000 0.000000 
0.000000 0.000000 0.000000 
0.000000 0.000000 0.000000 

0.000000 -0.000000 0.000000 
0.000000 0.000000 0.000000 
0.000000 0.000000 0.000000 

0.000000 0.000000 0.000000 
0.000000 0.000000 0.000000 
0.000000 0.000000 0.000000 

0.000000 0.000000 0.000000 
0.000000 0.000000 0.000000 
0.000000 0.000000 0.000000 

0.000000 0.000000 0.000000 
0.000000 -0.000000 0.000000 
0.000000 0.000000 0.000000 

0.000000 0.000000 0.000000 
0.000000 0.000000 0.000000 
0.000000 0.000000 0.000000 

0.000000 0.000000 0.000000 
0.000000 0.000000 0.000000 
0.000000 0.000000 0.000000 

-0.000000 0.000000 0.000000 
0.000000 0.000000 0.000000 
0.000000 0.000000 0.000000 

0.000000 0.000000 0.000000 
0.000000 0.000000 0.000000 
0.000000 0.000000 0.000000 

0.000000 0.000000 0.000000 
0.000000 0.000000 0.000000 
0.000000 0.000000 0.000000 

0.000000 0.000000 0.000000 
0.000000 0.000000 0.000000 
0.000000 0.000000 0.000000 

0.000000 -0.000000 0.000000 
0.000000 0.000000 0.000000 
0.000000 0.000000 0.000000 

-0.000000 -0.000000 0.000000 
0.000000 0.000000 0.000000 
0.000000 0.000000 0.000000 

-0.000000 -0.000000 0.000000 
0.000000 0.000000 0.000000 
0.000000 0.000000 0.000000 

-0.000000 -0.000000 0.000000 
0.000000 -0.000000 0.000000 
0.000000 0.000000 0.000000 

0.000000 0.000000 0.000000 
0.000000 0.000000 0.000000 
0.000000 0.000000 0.000000 

0.000000 0.000000 0.000000 
0.000000 -0.000000 0.000000 
0.000000 0.000000 0.000000 

-0.000000 -0.000000 0.000000 
0.000000 0.000000 0.000000 
0.000000 0.000000 0.000000 

0.000000 0.000000 0.000000 
0.000000 0.000000 0.000000 
0.000000 0.000000 0.000000 

-0.000000 0.000000 0.000000 
0.000000 0.000000 0.000000 
0.000000 0.000000 0.000000 

0.000000 -0.000000 0.000000 
0.000000 0.000000 0.000000 
0.000000 0.000000 0.000000 

0.000000 -0.000000 0.000000 
0.000000 -0.000000 0.000000 
0.000000 0.000000 0.000000 

0.000000 -0.000000 0.000000 
0.000000 -0.000000 0.000000 
0.000000 0.000000 0.000000 

0.000000 -0.000000 0.000000 
0.000000 -0.000000 0.000000 
0.000000 0.000000 0.000000 

0.000000 0.000000 0.000000 
0.000000 -0.000000 0.000000 
0.000000 0.000000 0.000000 

0.000000 -0.000000 0.000000 
0.000000 -0.000000 0.000000 
0.000000 0.000000 0.000000 

0.000000 -0.000000 0.000000 
0.000000 0.000000 0.000000 
0.000000 0.000000 0.000000 

-0.000000 -0.000000 0.000000 
0.000000 0.000000 0.000000 
0.000000 0.000000 0.000000 

-0.000000 -0.000000 0.000000 
0.000000 -0.000000 0.000000 
0.000000 0.000000 0.000000 

-0.000000 -0.000000 0.000000 
0.000000 0.000000 0.000000 
0.000000 0.000000 0.000000 

0.000000 0.000000 0.000000 
0.000000 0.000000 0.000000 
0.000000 0.000000 0.000000 

-0.000000 -0.000000 0.000000 
0.000000 0.000000 0.000000 
0.000000 0.000000 0.000000 

-0.000000 0.000000 0.000000 
0.000000 0.000000 0.000000 
0.000000 0.000000 0.000000 

-0.000000 0.000000 0.000000 
0.000000 0.000000 0.000000 
0.000000 0.000000 0.000000 

-0.000000 0.000000 0.000000 
0.000000 0.000000 0.000000 
0.000000 0.000000 0.000000 

0.000000 0.000000 0.000000 
0.000000 0.000000 0.000000 
0.000000 0.000000 0.000000 

0.000000 0.000000 0.000000 
0.000000 0.000000 0.000000 
0.000000 0.000000 0.000000 

0.000000 0.000000 0.000000 
0.000000 -0.000000 0.000000 
0.000000 0.000000 0.000000 

0.000000 0.000000 0.000000 
0.000000 -0.000000 0.000000 
0.000000 0.000000 0.000000 

0.000000 0.000000 0.000000 
0.000000 -0.000000 0.000000 
0.000000 0.000000 0.000000 

0.000000 0.000000 0.000000 
0.000000 0.000000 0.000000 
0.000000 0.000000 0.000000 

0.000000 0.000000 0.000000 
0.000000 0.000000 0.000000 
0.000000 0.000000 0.000000 

-0.000000 0.000000 0.000000 
0.000000 0.000000 0.000000 
0.000000 0.000000 0.000000 

-0.000000 -0.000000 0.000000 
0.000000 -0.000000 0.000000 
0.000000 0.000000 0.000000 

-0.000000 -0.000000 0.000000 
0.000000 -0.000000 0.000000 
0.000000 0.000000 0.000000 

0.000000 0.000000 0.000000 
0.000000 -0.000000 0.000000 
0.000000 0.000000 0.000000 

0.000000 0.000000 0.000000 
0.000000 -0.000000 0.000000 
0.000000 0.000000 0.000000 

0.000000 0.000000 0.000000 
0.000000 0.000000 0.000000 
0.000000 0.000000 0.000000 

0.000000 0.000000 0.000000 
0.000000 0.000000 0.000000 
0.000000 0.000000 0.000000 

0.000000 -0.000000 0.000000 
0.000000 0.000000 0.000000 
0.000000 0.000000 0.000000 

0.000000 0.000000 0.000000 
0.000000 0.000000 0.000000 
0.000000 0.000000 0.000000 

-0.000000 -0.000000 0.000000 
0.000000 0.000000 0.000000 
0.000000 0.000000 0.000000 

-0.000000 0.000000 0.000000 
0.000000 0.000000 0.000000 
0.000000 0.000000 0.000000 

-0.000000 0.000000 0.000000 
0.000000 0.000000 0.000000 
0.000000 0.000000 0.000000 

-0.000000 0.000000 0.000000 
0.000000 0.000000 0.000000 
0.000000 0.000000 0.000000 

-0.000000 0.000000 0.000000 
0.000000 0.000000 0.000000 
0.000000 0.000000 0.000000 

-0.000000 0.000000 0.000000 
0.000000 0.000000 0.000000 
0.000000 0.000000 0.000000 

0.000000 -0.000000 0.000000 
0.000000 -0.000000 0.000000 
0.000000 0.000000 0.000000 

-0.000000 0.000000 0.000000 
0.000000 0.000000 0.000000 
0.000000 0.000000 0.000000 

0.000000 0.000000 0.000000 
0.000000 -0.000000 0.000000 
0.000000 0.000000 0.000000 

-0.000000 -0.000000 0.000000 
0.000000 -0.000000 0.000000 
0.000000 0.000000 0.000000 

-0.000000 -0.000000 0.000000 
0.000000 -0.000000 0.000000 
0.000000 0.000000 0.000000 

-0.000000 -0.000000 0.000000 
0.000000 0.000000 0.000000 
0.000000 0.000000 0.000000 

0.000000 -0.000000 0.000000 
0.000000 0.000000 0.000000 
0.000000 0.000000 0.000000 

0.000000 -0.000000 0.000000 
0.000000 0.000000 0.000000 
0.000000 0.000000 0.000000 

0.000000 0.000000 0.000000 
0.000000 -0.000000 0.000000 
0.000000 0.000000 0.000000 

0.000000 0.000000 0.000000 
0.000000 0.000000 0.000000 
0.000000 0.000000 0.000000 

0.000000 0.000000 0.000000 
0.000000 -0.000000 0.000000 
0.000000 0.000000 0.000000 

-0.000000 -0.000000 0.000000 
0.000000 -0.000000 0.000000 
0.000000 0.000000 0.000000 

0.000000 0.000000 0.000000 
0.000000 -0.000000 0.000000 
0.000000 0.000000 0.000000 

-0.000000 0.000000 0.000000 
0.000000 -0.000000 0.000000 
0.000000 0.000000 0.000000 

-0.000000 0.000000 0.000000 
0.000000 0.000000 0.000000 
0.000000 0.000000 0.000000 

-0.000000 0.000000 0.000000 
0.000000 -0.000000 0.000000 
0.000000 0.000000 0.000000 

-0.000000 0.000000 0.000000 
0.000000 0.000000 0.000000 
0.000000 0.000000 0.000000 

0.000000 0.000000 0.000000 
0.000000 0.000000 0.000000 
0.000000 0.000000 0.000000 

-0.000000 0.000000 0.000000 
0.000000 0.000000 0.000000 
0.000000 0.000000 0.000000 

-0.000000 -0.000000 0.000000 
0.000000 0.000000 0.000000 
0.000000 0.000000 0.000000 

-0.000000 -0.000000 0.000000 
0.000000 0.000000 0.000000 
0.000000 0.000000 0.000000 

-0.000000 -0.000000 0.000000 
0.000000 0.000000 0.000000 
0.000000 0.000000 0.000000 

-0.000000 0.000000 0.000000 
0.000000 0.000000 0.000000 
0.000000 0.000000 0.000000 

0.000000 -0.000000 0.000000 
0.000000 0.000000 0.000000 
0.000000 0.000000 0.000000 

0.000000 -0.000000 0.000000 
0.000000 0.000000 0.000000 
0.000000 0.000000 0.000000 

-0.000000 0.000000 0.000000 
0.000000 0.000000 0.000000 
0.000000 0.000000 0.000000 

-0.000000 0.000000 0.000000 
0.000000 0.000000 0.000000 
0.000000 0.000000 0.000000 

-0.000000 0.000000 0.000000 
0.000000 0.000000 0.000000 
0.000000 0.000000 0.000000 

-0.000000 -0.000000 0.000000 
0.000000 -0.000000 0.000000 
0.000000 0.000000 0.000000 

0.000000 -0.000000 0.000000 
0.000000 -0.000000 0.000000 
0.000000 0.000000 0.000000 

0.000000 -0.000000 0.000000 
0.000000 -0.000000 0.000000 
0.000000 0.000000 0.000000 

-0.000000 -0.000000 0.000000 
0.000000 -0.000000 0.000000 
0.000000 0.000000 0.000000 

-0.000000 0.000000 0.000000 
0.000000 0.000000 0.000000 
0.000000 0.000000 0.000000 

-0.000000 0.000000 0.000000 
0.000000 -0.000000 0.000000 
0.000000 0.000000 0.000000 

-0.000000 -0.000000 0.000000 
0.000000 -0.000000 0.000000 
0.000000 0.000000 0.000000 

-0.000000 0.000000 0.000000 
0.000000 0.000000 0.000000 
0.000000 0.000000 0.000000 

-0.000000 0.000000 0.000000 
0.000000 0.000000 0.000000 
0.000000 0.000000 0.000000 

0.000000 -0.000000 0.000000 
0.000000 -0.000000 0.000000 
0.000000 0.000000 0.000000 

0.000000 -0.000000 0.000000 
0.000000 -0.000000 0.000000 
0.000000 0.000000 0.000000 

0.000000 0.000000 0.000000 
0.000000 -0.000000 0.000000 
0.000000 0.000000 0.000000 

0.000000 0.000000 0.000000 
0.000000 -0.000000 0.000000 
0.000000 0.000000 0.000000 

0.000000 0.000000 0.000000 
0.000000 -0.000000 0.000000 
0.000000 0.000000 0.000000 

0.000000 0.000000 0.000000 
0.000000 0.000000 0.000000 
0.000000 0.000000 0.000000 

0.000000 0.000000 0.000000 
0.000000 0.000000 0.000000 
0.000000 0.000000 0.000000 

