# vtk DataFile Version 3.0 
vtk output 
ASCII 
DATASET UNSTRUCTURED_GRID 
POINTS 175 float 
-0.026061 -0.818889 0.000000 
-0.106992 -0.750834 0.000000 
-0.054870 -0.759066 0.000000 
-0.028809 -0.713183 0.000000 
-0.186430 -0.686758 0.000000 
-0.137056 -0.689284 0.000000 
-0.114311 -0.635637 0.000000 
-0.058186 -0.651303 0.000000 
-0.029377 -0.611125 0.000000 
-0.265318 -0.623602 0.000000 
-0.217198 -0.624402 0.000000 
-0.196633 -0.567105 0.000000 
-0.143120 -0.575814 0.000000 
-0.116563 -0.528546 0.000000 
-0.058945 -0.548191 0.000000 
-0.029568 -0.510071 0.000000 
-0.344206 -0.560446 0.000000 
-0.296791 -0.560439 0.000000 
-0.278030 -0.500496 0.000000 
-0.225992 -0.506363 0.000000 
-0.201664 -0.454246 0.000000 
-0.145749 -0.467720 0.000000 
-0.117890 -0.423377 0.000000 
-0.059328 -0.446083 0.000000 
-0.029759 -0.409017 0.000000 
-0.058559 -0.859640 0.000000 
-0.162226 -0.880482 0.000000 
-0.123292 -0.844865 0.000000 
-0.142917 -0.795881 0.000000 
-0.261851 -0.902639 0.000000 
-0.229092 -0.865612 0.000000 
-0.256854 -0.814380 0.000000 
-0.209613 -0.780268 0.000000 
-0.223062 -0.732694 0.000000 
-0.360414 -0.924939 0.000000 
-0.329787 -0.887816 0.000000 
-0.361761 -0.836014 0.000000 
-0.321587 -0.799605 0.000000 
-0.341985 -0.749371 0.000000 
-0.290702 -0.716572 0.000000 
-0.302189 -0.669837 0.000000 
-0.458977 -0.947239 0.000000 
-0.429420 -0.910164 0.000000 
-0.464588 -0.858123 0.000000 
-0.427556 -0.821095 0.000000 
-0.453135 -0.769580 0.000000 
-0.407738 -0.734265 0.000000 
-0.425037 -0.684837 0.000000 
-0.370772 -0.653208 0.000000 
-0.381315 -0.606980 0.000000 
-0.046960 -0.910455 0.000000 
-0.095301 -1.004501 0.000000 
-0.098873 -0.951854 0.000000 
-0.149405 -0.936656 0.000000 
-0.140093 -1.096205 0.000000 
-0.148617 -1.047507 0.000000 
-0.205981 -1.037269 0.000000 
-0.203197 -0.979066 0.000000 
-0.248777 -0.959919 0.000000 
-0.184111 -1.187168 0.000000 
-0.194039 -1.140077 0.000000 
-0.254475 -1.132778 0.000000 
-0.257893 -1.078668 0.000000 
-0.309886 -1.063296 0.000000 
-0.303554 -1.002750 0.000000 
-0.347255 -0.982593 0.000000 
-0.228129 -1.278132 0.000000 
-0.238687 -1.231908 0.000000 
-0.301302 -1.226956 0.000000 
-0.307162 -1.174917 0.000000 
-0.363386 -1.162796 0.000000 
-0.362692 -1.105285 0.000000 
-0.412122 -1.087991 0.000000 
-0.403017 -1.025845 0.000000 
-0.445733 -1.005266 0.000000 
-0.000000 -0.933070 0.000000 
0.043388 -1.029500 0.000000 
-0.000000 -0.999468 0.000000 
-0.043388 -1.029500 0.000000 
0.087158 -1.121697 0.000000 
0.043769 -1.097999 0.000000 
-0.000000 -1.136464 0.000000 
-0.043769 -1.097999 0.000000 
-0.087158 -1.121697 0.000000 
0.130831 -1.212827 0.000000 
0.087824 -1.191228 0.000000 
0.044436 -1.233928 0.000000 
-0.000000 -1.202863 0.000000 
-0.044436 -1.233928 0.000000 
-0.087824 -1.191228 0.000000 
-0.130831 -1.212827 0.000000 
0.174505 -1.303956 0.000000 
0.131782 -1.283390 0.000000 
0.088871 -1.329257 0.000000 
0.044532 -1.301393 0.000000 
-0.000000 -1.337793 0.000000 
-0.044532 -1.301393 0.000000 
-0.088871 -1.329257 0.000000 
-0.131782 -1.283390 0.000000 
-0.174505 -1.303956 0.000000 
0.046960 -0.910455 0.000000 
0.149405 -0.936656 0.000000 
0.098873 -0.951854 0.000000 
0.095301 -1.004501 0.000000 
0.248777 -0.959919 0.000000 
0.203197 -0.979066 0.000000 
0.205981 -1.037269 0.000000 
0.148617 -1.047507 0.000000 
0.140093 -1.096205 0.000000 
0.347255 -0.982593 0.000000 
0.303554 -1.002750 0.000000 
0.309886 -1.063296 0.000000 
0.257893 -1.078668 0.000000 
0.254475 -1.132778 0.000000 
0.194039 -1.140077 0.000000 
0.184111 -1.187168 0.000000 
0.445733 -1.005266 0.000000 
0.403017 -1.025845 0.000000 
0.412122 -1.087991 0.000000 
0.362692 -1.105285 0.000000 
0.363386 -1.162796 0.000000 
0.307162 -1.174917 0.000000 
0.301302 -1.226956 0.000000 
0.238687 -1.231908 0.000000 
0.228129 -1.278132 0.000000 
0.058559 -0.859640 0.000000 
0.142917 -0.795881 0.000000 
0.123292 -0.844865 0.000000 
0.162226 -0.880482 0.000000 
0.223062 -0.732694 0.000000 
0.209613 -0.780268 0.000000 
0.256854 -0.814380 0.000000 
0.229092 -0.865612 0.000000 
0.261851 -0.902639 0.000000 
0.302189 -0.669837 0.000000 
0.290702 -0.716572 0.000000 
0.341985 -0.749371 0.000000 
0.321587 -0.799605 0.000000 
0.361761 -0.836014 0.000000 
0.329787 -0.887816 0.000000 
0.360414 -0.924939 0.000000 
0.381315 -0.606980 0.000000 
0.370772 -0.653208 0.000000 
0.425037 -0.684837 0.000000 
0.407738 -0.734265 0.000000 
0.453135 -0.769580 0.000000 
0.427556 -0.821095 0.000000 
0.464588 -0.858123 0.000000 
0.429420 -0.910164 0.000000 
0.458977 -0.947239 0.000000 
0.026061 -0.818889 0.000000 
0.028809 -0.713183 0.000000 
0.054870 -0.759066 0.000000 
0.106992 -0.750834 0.000000 
0.029377 -0.611125 0.000000 
0.058186 -0.651303 0.000000 
0.114311 -0.635637 0.000000 
0.137056 -0.689284 0.000000 
0.186430 -0.686758 0.000000 
0.029568 -0.510071 0.000000 
0.058945 -0.548191 0.000000 
0.116563 -0.528546 0.000000 
0.143120 -0.575814 0.000000 
0.196633 -0.567105 0.000000 
0.217198 -0.624402 0.000000 
0.265318 -0.623602 0.000000 
0.029759 -0.409017 0.000000 
0.059328 -0.446083 0.000000 
0.117890 -0.423377 0.000000 
0.145749 -0.467720 0.000000 
0.201664 -0.454246 0.000000 
0.225992 -0.506363 0.000000 
0.278030 -0.500496 0.000000 
0.296791 -0.560439 0.000000 
0.344206 -0.560446 0.000000 
CELLS 175 350 
1 0 
1 1 
1 2 
1 3 
1 4 
1 5 
1 6 
1 7 
1 8 
1 9 
1 10 
1 11 
1 12 
1 13 
1 14 
1 15 
1 16 
1 17 
1 18 
1 19 
1 20 
1 21 
1 22 
1 23 
1 24 
1 25 
1 26 
1 27 
1 28 
1 29 
1 30 
1 31 
1 32 
1 33 
1 34 
1 35 
1 36 
1 37 
1 38 
1 39 
1 40 
1 41 
1 42 
1 43 
1 44 
1 45 
1 46 
1 47 
1 48 
1 49 
1 50 
1 51 
1 52 
1 53 
1 54 
1 55 
1 56 
1 57 
1 58 
1 59 
1 60 
1 61 
1 62 
1 63 
1 64 
1 65 
1 66 
1 67 
1 68 
1 69 
1 70 
1 71 
1 72 
1 73 
1 74 
1 75 
1 76 
1 77 
1 78 
1 79 
1 80 
1 81 
1 82 
1 83 
1 84 
1 85 
1 86 
1 87 
1 88 
1 89 
1 90 
1 91 
1 92 
1 93 
1 94 
1 95 
1 96 
1 97 
1 98 
1 99 
1 100 
1 101 
1 102 
1 103 
1 104 
1 105 
1 106 
1 107 
1 108 
1 109 
1 110 
1 111 
1 112 
1 113 
1 114 
1 115 
1 116 
1 117 
1 118 
1 119 
1 120 
1 121 
1 122 
1 123 
1 124 
1 125 
1 126 
1 127 
1 128 
1 129 
1 130 
1 131 
1 132 
1 133 
1 134 
1 135 
1 136 
1 137 
1 138 
1 139 
1 140 
1 141 
1 142 
1 143 
1 144 
1 145 
1 146 
1 147 
1 148 
1 149 
1 150 
1 151 
1 152 
1 153 
1 154 
1 155 
1 156 
1 157 
1 158 
1 159 
1 160 
1 161 
1 162 
1 163 
1 164 
1 165 
1 166 
1 167 
1 168 
1 169 
1 170 
1 171 
1 172 
1 173 
1 174 
CELL_TYPES 175 
1 
1 
1 
1 
1 
1 
1 
1 
1 
1 
1 
1 
1 
1 
1 
1 
1 
1 
1 
1 
1 
1 
1 
1 
1 
1 
1 
1 
1 
1 
1 
1 
1 
1 
1 
1 
1 
1 
1 
1 
1 
1 
1 
1 
1 
1 
1 
1 
1 
1 
1 
1 
1 
1 
1 
1 
1 
1 
1 
1 
1 
1 
1 
1 
1 
1 
1 
1 
1 
1 
1 
1 
1 
1 
1 
1 
1 
1 
1 
1 
1 
1 
1 
1 
1 
1 
1 
1 
1 
1 
1 
1 
1 
1 
1 
1 
1 
1 
1 
1 
1 
1 
1 
1 
1 
1 
1 
1 
1 
1 
1 
1 
1 
1 
1 
1 
1 
1 
1 
1 
1 
1 
1 
1 
1 
1 
1 
1 
1 
1 
1 
1 
1 
1 
1 
1 
1 
1 
1 
1 
1 
1 
1 
1 
1 
1 
1 
1 
1 
1 
1 
1 
1 
1 
1 
1 
1 
1 
1 
1 
1 
1 
1 
1 
1 
1 
1 
1 
1 
1 
1 
1 
1 
1 
1 
POINT_DATA 175 
VECTORS X_GC float 
-0.026061 -0.818889 0.000000 
-0.106992 -0.750834 0.000000 
-0.054870 -0.759066 0.000000 
-0.028809 -0.713183 0.000000 
-0.186430 -0.686758 0.000000 
-0.137056 -0.689284 0.000000 
-0.114311 -0.635637 0.000000 
-0.058186 -0.651303 0.000000 
-0.029377 -0.611125 0.000000 
-0.265318 -0.623602 0.000000 
-0.217198 -0.624402 0.000000 
-0.196633 -0.567105 0.000000 
-0.143120 -0.575814 0.000000 
-0.116563 -0.528546 0.000000 
-0.058945 -0.548191 0.000000 
-0.029568 -0.510071 0.000000 
-0.344206 -0.560446 0.000000 
-0.296791 -0.560439 0.000000 
-0.278030 -0.500496 0.000000 
-0.225992 -0.506363 0.000000 
-0.201664 -0.454246 0.000000 
-0.145749 -0.467720 0.000000 
-0.117890 -0.423377 0.000000 
-0.059328 -0.446083 0.000000 
-0.029759 -0.409017 0.000000 
-0.058559 -0.859640 0.000000 
-0.162226 -0.880482 0.000000 
-0.123292 -0.844865 0.000000 
-0.142917 -0.795881 0.000000 
-0.261851 -0.902639 0.000000 
-0.229092 -0.865612 0.000000 
-0.256854 -0.814380 0.000000 
-0.209613 -0.780268 0.000000 
-0.223062 -0.732694 0.000000 
-0.360414 -0.924939 0.000000 
-0.329787 -0.887816 0.000000 
-0.361761 -0.836014 0.000000 
-0.321587 -0.799605 0.000000 
-0.341985 -0.749371 0.000000 
-0.290702 -0.716572 0.000000 
-0.302189 -0.669837 0.000000 
-0.458977 -0.947239 0.000000 
-0.429420 -0.910164 0.000000 
-0.464588 -0.858123 0.000000 
-0.427556 -0.821095 0.000000 
-0.453135 -0.769580 0.000000 
-0.407738 -0.734265 0.000000 
-0.425037 -0.684837 0.000000 
-0.370772 -0.653208 0.000000 
-0.381315 -0.606980 0.000000 
-0.046960 -0.910455 0.000000 
-0.095301 -1.004501 0.000000 
-0.098873 -0.951854 0.000000 
-0.149405 -0.936656 0.000000 
-0.140093 -1.096205 0.000000 
-0.148617 -1.047507 0.000000 
-0.205981 -1.037269 0.000000 
-0.203197 -0.979066 0.000000 
-0.248777 -0.959919 0.000000 
-0.184111 -1.187168 0.000000 
-0.194039 -1.140077 0.000000 
-0.254475 -1.132778 0.000000 
-0.257893 -1.078668 0.000000 
-0.309886 -1.063296 0.000000 
-0.303554 -1.002750 0.000000 
-0.347255 -0.982593 0.000000 
-0.228129 -1.278132 0.000000 
-0.238687 -1.231908 0.000000 
-0.301302 -1.226956 0.000000 
-0.307162 -1.174917 0.000000 
-0.363386 -1.162796 0.000000 
-0.362692 -1.105285 0.000000 
-0.412122 -1.087991 0.000000 
-0.403017 -1.025845 0.000000 
-0.445733 -1.005266 0.000000 
-0.000000 -0.933070 0.000000 
0.043388 -1.029500 0.000000 
-0.000000 -0.999468 0.000000 
-0.043388 -1.029500 0.000000 
0.087158 -1.121697 0.000000 
0.043769 -1.097999 0.000000 
-0.000000 -1.136464 0.000000 
-0.043769 -1.097999 0.000000 
-0.087158 -1.121697 0.000000 
0.130831 -1.212827 0.000000 
0.087824 -1.191228 0.000000 
0.044436 -1.233928 0.000000 
-0.000000 -1.202863 0.000000 
-0.044436 -1.233928 0.000000 
-0.087824 -1.191228 0.000000 
-0.130831 -1.212827 0.000000 
0.174505 -1.303956 0.000000 
0.131782 -1.283390 0.000000 
0.088871 -1.329257 0.000000 
0.044532 -1.301393 0.000000 
-0.000000 -1.337793 0.000000 
-0.044532 -1.301393 0.000000 
-0.088871 -1.329257 0.000000 
-0.131782 -1.283390 0.000000 
-0.174505 -1.303956 0.000000 
0.046960 -0.910455 0.000000 
0.149405 -0.936656 0.000000 
0.098873 -0.951854 0.000000 
0.095301 -1.004501 0.000000 
0.248777 -0.959919 0.000000 
0.203197 -0.979066 0.000000 
0.205981 -1.037269 0.000000 
0.148617 -1.047507 0.000000 
0.140093 -1.096205 0.000000 
0.347255 -0.982593 0.000000 
0.303554 -1.002750 0.000000 
0.309886 -1.063296 0.000000 
0.257893 -1.078668 0.000000 
0.254475 -1.132778 0.000000 
0.194039 -1.140077 0.000000 
0.184111 -1.187168 0.000000 
0.445733 -1.005266 0.000000 
0.403017 -1.025845 0.000000 
0.412122 -1.087991 0.000000 
0.362692 -1.105285 0.000000 
0.363386 -1.162796 0.000000 
0.307162 -1.174917 0.000000 
0.301302 -1.226956 0.000000 
0.238687 -1.231908 0.000000 
0.228129 -1.278132 0.000000 
0.058559 -0.859640 0.000000 
0.142917 -0.795881 0.000000 
0.123292 -0.844865 0.000000 
0.162226 -0.880482 0.000000 
0.223062 -0.732694 0.000000 
0.209613 -0.780268 0.000000 
0.256854 -0.814380 0.000000 
0.229092 -0.865612 0.000000 
0.261851 -0.902639 0.000000 
0.302189 -0.669837 0.000000 
0.290702 -0.716572 0.000000 
0.341985 -0.749371 0.000000 
0.321587 -0.799605 0.000000 
0.361761 -0.836014 0.000000 
0.329787 -0.887816 0.000000 
0.360414 -0.924939 0.000000 
0.381315 -0.606980 0.000000 
0.370772 -0.653208 0.000000 
0.425037 -0.684837 0.000000 
0.407738 -0.734265 0.000000 
0.453135 -0.769580 0.000000 
0.427556 -0.821095 0.000000 
0.464588 -0.858123 0.000000 
0.429420 -0.910164 0.000000 
0.458977 -0.947239 0.000000 
0.026061 -0.818889 0.000000 
0.028809 -0.713183 0.000000 
0.054870 -0.759066 0.000000 
0.106992 -0.750834 0.000000 
0.029377 -0.611125 0.000000 
0.058186 -0.651303 0.000000 
0.114311 -0.635637 0.000000 
0.137056 -0.689284 0.000000 
0.186430 -0.686758 0.000000 
0.029568 -0.510071 0.000000 
0.058945 -0.548191 0.000000 
0.116563 -0.528546 0.000000 
0.143120 -0.575814 0.000000 
0.196633 -0.567105 0.000000 
0.217198 -0.624402 0.000000 
0.265318 -0.623602 0.000000 
0.029759 -0.409017 0.000000 
0.059328 -0.446083 0.000000 
0.117890 -0.423377 0.000000 
0.145749 -0.467720 0.000000 
0.201664 -0.454246 0.000000 
0.225992 -0.506363 0.000000 
0.278030 -0.500496 0.000000 
0.296791 -0.560439 0.000000 
0.344206 -0.560446 0.000000 
VECTORS X_EC float 
0.338794 -0.444999 0.000000 
-0.609100 0.636253 0.000000 
0.713312 0.747394 0.000000 
0.374519 0.127964 0.000000 
0.423588 -0.228767 0.000000 
-0.218274 -0.194663 0.000000 
-0.513962 -0.918902 0.000000 
0.756418 -0.707416 0.000000 
0.381900 0.750192 0.000000 
-0.550868 0.918630 0.000000 
0.823577 0.929426 0.000000 
0.556234 0.155922 0.000000 
-0.139443 0.273491 0.000000 
-0.484677 -0.364634 0.000000 
0.766286 -0.099419 0.000000 
0.384386 -0.614039 0.000000 
0.474677 0.066027 0.000000 
-0.141715 0.065931 0.000000 
-0.385608 -0.743297 0.000000 
0.937896 -0.664102 0.000000 
0.621631 0.632318 0.000000 
-0.105264 0.814217 0.000000 
-0.467428 0.215591 0.000000 
0.771260 0.522119 0.000000 
0.386873 0.021730 0.000000 
0.761262 0.105136 0.000000 
0.108942 0.386512 0.000000 
-0.397202 -0.094327 0.000000 
-0.142083 -0.755602 0.000000 
-0.595936 0.685623 0.000000 
0.978194 0.185757 0.000000 
-0.660903 -0.505868 0.000000 
0.724964 -0.966388 0.000000 
0.899809 0.391363 0.000000 
0.685384 0.986675 0.000000 
0.287229 0.485517 0.000000 
0.702895 -0.213812 0.000000 
0.180633 -0.705331 0.000000 
0.445811 0.616510 0.000000 
-0.220880 0.173724 0.000000 
-0.071546 -0.457202 0.000000 
-0.033296 -0.712273 0.000000 
-0.417537 0.787218 0.000000 
0.039645 0.084655 0.000000 
-0.441768 -0.415216 0.000000 
-0.109248 0.889333 0.000000 
-0.699407 0.412578 0.000000 
-0.474522 -0.254701 0.000000 
0.820030 -0.681695 0.000000 
0.957100 0.694233 0.000000 
0.610485 0.791142 0.000000 
-0.761092 0.060761 0.000000 
-0.714655 -0.649976 0.000000 
-0.057734 -0.855143 0.000000 
-0.178789 -0.701234 0.000000 
-0.067979 0.641340 0.000000 
0.677748 0.503136 0.000000 
0.641556 -0.282609 0.000000 
-0.765897 -0.541088 0.000000 
0.393446 0.526775 0.000000 
0.522510 -0.108955 0.000000 
-0.691820 -0.207500 0.000000 
-0.647393 -0.937982 0.000000 
0.028512 0.854491 0.000000 
-0.053800 0.037131 0.000000 
0.514316 -0.235000 0.000000 
0.965681 -0.245216 0.000000 
-0.897068 -0.869245 0.000000 
-0.083078 -0.936098 0.000000 
-0.006893 0.361377 0.000000 
0.724017 0.197744 0.000000 
0.714996 -0.578659 0.000000 
-0.642413 -0.812116 0.000000 
-0.760780 0.348903 0.000000 
-0.205471 0.071088 0.000000 
0.000000 -0.903556 0.000000 
-0.564049 0.398256 0.000000 
0.000000 -0.007180 0.000000 
0.564049 0.398256 0.000000 
0.866949 -0.357088 0.000000 
-0.569003 -0.677019 0.000000 
0.000000 -0.157731 0.000000 
0.569003 -0.677019 0.000000 
-0.866949 -0.357088 0.000000 
0.299194 0.873162 0.000000 
0.858290 0.581578 0.000000 
-0.577662 -0.841976 0.000000 
0.000000 0.738646 0.000000 
0.577662 -0.841976 0.000000 
-0.858290 0.581578 0.000000 
-0.299194 0.873162 0.000000 
-0.268560 0.103412 0.000000 
0.286830 -0.174230 0.000000 
0.844677 0.444969 0.000000 
-0.578910 0.068806 0.000000 
0.000000 0.560210 0.000000 
0.578910 0.068806 0.000000 
-0.844677 0.444969 0.000000 
-0.286830 -0.174230 0.000000 
0.268560 0.103412 0.000000 
-0.610485 0.791142 0.000000 
0.057734 -0.855143 0.000000 
0.714655 -0.649976 0.000000 
0.761092 0.060761 0.000000 
0.765897 -0.541088 0.000000 
-0.641556 -0.282609 0.000000 
-0.677748 0.503136 0.000000 
0.067979 0.641340 0.000000 
0.178789 -0.701234 0.000000 
-0.514316 -0.235000 0.000000 
0.053800 0.037131 0.000000 
-0.028512 0.854491 0.000000 
0.647393 -0.937982 0.000000 
0.691820 -0.207500 0.000000 
-0.522510 -0.108955 0.000000 
-0.393446 0.526775 0.000000 
0.205471 0.071088 0.000000 
0.760780 0.348903 0.000000 
0.642413 -0.812116 0.000000 
-0.714996 -0.578659 0.000000 
-0.724017 0.197744 0.000000 
0.006894 0.361377 0.000000 
0.083078 -0.936098 0.000000 
0.897068 -0.869245 0.000000 
-0.965681 -0.245216 0.000000 
-0.761262 0.105136 0.000000 
0.142083 -0.755602 0.000000 
0.397202 -0.094327 0.000000 
-0.108942 0.386512 0.000000 
-0.899809 0.391363 0.000000 
-0.724964 -0.966388 0.000000 
0.660903 -0.505868 0.000000 
-0.978194 0.185757 0.000000 
0.595936 0.685623 0.000000 
0.071546 -0.457202 0.000000 
0.220880 0.173724 0.000000 
-0.445811 0.616510 0.000000 
-0.180633 -0.705331 0.000000 
-0.702895 -0.213812 0.000000 
-0.287229 0.485517 0.000000 
-0.685384 0.986675 0.000000 
-0.957100 0.694233 0.000000 
-0.820030 -0.681695 0.000000 
0.474522 -0.254701 0.000000 
0.699407 0.412578 0.000000 
0.109248 0.889333 0.000000 
0.441768 -0.415216 0.000000 
-0.039645 0.084655 0.000000 
0.417537 0.787218 0.000000 
0.033296 -0.712273 0.000000 
-0.338794 -0.444999 0.000000 
-0.374519 0.127964 0.000000 
-0.713312 0.747394 0.000000 
0.609100 0.636253 0.000000 
-0.381900 0.750192 0.000000 
-0.756418 -0.707416 0.000000 
0.513962 -0.918902 0.000000 
0.218274 -0.194663 0.000000 
-0.423588 -0.228767 0.000000 
-0.384386 -0.614039 0.000000 
-0.766286 -0.099419 0.000000 
0.484677 -0.364634 0.000000 
0.139443 0.273491 0.000000 
-0.556234 0.155922 0.000000 
-0.823577 0.929426 0.000000 
0.550868 0.918630 0.000000 
-0.386873 0.021730 0.000000 
-0.771260 0.522119 0.000000 
0.467428 0.215591 0.000000 
0.105264 0.814217 0.000000 
-0.621631 0.632318 0.000000 
-0.937896 -0.664102 0.000000 
0.385608 -0.743297 0.000000 
0.141715 0.065931 0.000000 
-0.474677 0.066027 0.000000 
CELL_DATA 175 
SCALARS MASS float 
LOOKUP_TABLE default 
0.078183 
0.086427 
0.094672 
0.086427 
0.088131 
0.092111 
0.085854 
0.092111 
0.088131 
0.088705 
0.091000 
0.086983 
0.091556 
0.086983 
0.091000 
0.088705 
0.089278 
0.091574 
0.089278 
0.092722 
0.089278 
0.092722 
0.089278 
0.091574 
0.089278 
0.078183 
0.086427 
0.094672 
0.086427 
0.088131 
0.092111 
0.085854 
0.092111 
0.088131 
0.088705 
0.091000 
0.086983 
0.091556 
0.086983 
0.091000 
0.088705 
0.089278 
0.091574 
0.089278 
0.092722 
0.089278 
0.092722 
0.089278 
0.091574 
0.089278 
0.078183 
0.086427 
0.094672 
0.086427 
0.088131 
0.092111 
0.085854 
0.092111 
0.088131 
0.088705 
0.091000 
0.086983 
0.091556 
0.086983 
0.091000 
0.088705 
0.089278 
0.091574 
0.089278 
0.092722 
0.089278 
0.092722 
0.089278 
0.091574 
0.089278 
0.078183 
0.086427 
0.094672 
0.086427 
0.088131 
0.092111 
0.085854 
0.092111 
0.088131 
0.088705 
0.091000 
0.086983 
0.091556 
0.086983 
0.091000 
0.088705 
0.089278 
0.091574 
0.089278 
0.092722 
0.089278 
0.092722 
0.089278 
0.091574 
0.089278 
0.078183 
0.086427 
0.094672 
0.086427 
0.088131 
0.092111 
0.085854 
0.092111 
0.088131 
0.088705 
0.091000 
0.086983 
0.091556 
0.086983 
0.091000 
0.088705 
0.089278 
0.091574 
0.089278 
0.092722 
0.089278 
0.092722 
0.089278 
0.091574 
0.089278 
0.078183 
0.086427 
0.094672 
0.086427 
0.088131 
0.092111 
0.085854 
0.092111 
0.088131 
0.088705 
0.091000 
0.086983 
0.091556 
0.086983 
0.091000 
0.088705 
0.089278 
0.091574 
0.089278 
0.092722 
0.089278 
0.092722 
0.089278 
0.091574 
0.089278 
0.078183 
0.086427 
0.094672 
0.086427 
0.088131 
0.092111 
0.085854 
0.092111 
0.088131 
0.088705 
0.091000 
0.086983 
0.091556 
0.086983 
0.091000 
0.088705 
0.089278 
0.091574 
0.089278 
0.092722 
0.089278 
0.092722 
0.089278 
0.091574 
0.089278 
SCALARS MASS float 
LOOKUP_TABLE default 
0.078183 
0.086427 
0.094672 
0.086427 
0.088131 
0.092111 
0.085854 
0.092111 
0.088131 
0.088705 
0.091000 
0.086983 
0.091556 
0.086983 
0.091000 
0.088705 
0.089278 
0.091574 
0.089278 
0.092722 
0.089278 
0.092722 
0.089278 
0.091574 
0.089278 
0.078183 
0.086427 
0.094672 
0.086427 
0.088131 
0.092111 
0.085854 
0.092111 
0.088131 
0.088705 
0.091000 
0.086983 
0.091556 
0.086983 
0.091000 
0.088705 
0.089278 
0.091574 
0.089278 
0.092722 
0.089278 
0.092722 
0.089278 
0.091574 
0.089278 
0.078183 
0.086427 
0.094672 
0.086427 
0.088131 
0.092111 
0.085854 
0.092111 
0.088131 
0.088705 
0.091000 
0.086983 
0.091556 
0.086983 
0.091000 
0.088705 
0.089278 
0.091574 
0.089278 
0.092722 
0.089278 
0.092722 
0.089278 
0.091574 
0.089278 
0.078183 
0.086427 
0.094672 
0.086427 
0.088131 
0.092111 
0.085854 
0.092111 
0.088131 
0.088705 
0.091000 
0.086983 
0.091556 
0.086983 
0.091000 
0.088705 
0.089278 
0.091574 
0.089278 
0.092722 
0.089278 
0.092722 
0.089278 
0.091574 
0.089278 
0.078183 
0.086427 
0.094672 
0.086427 
0.088131 
0.092111 
0.085854 
0.092111 
0.088131 
0.088705 
0.091000 
0.086983 
0.091556 
0.086983 
0.091000 
0.088705 
0.089278 
0.091574 
0.089278 
0.092722 
0.089278 
0.092722 
0.089278 
0.091574 
0.089278 
0.078183 
0.086427 
0.094672 
0.086427 
0.088131 
0.092111 
0.085854 
0.092111 
0.088131 
0.088705 
0.091000 
0.086983 
0.091556 
0.086983 
0.091000 
0.088705 
0.089278 
0.091574 
0.089278 
0.092722 
0.089278 
0.092722 
0.089278 
0.091574 
0.089278 
0.078183 
0.086427 
0.094672 
0.086427 
0.088131 
0.092111 
0.085854 
0.092111 
0.088131 
0.088705 
0.091000 
0.086983 
0.091556 
0.086983 
0.091000 
0.088705 
0.089278 
0.091574 
0.089278 
0.092722 
0.089278 
0.092722 
0.089278 
0.091574 
0.089278 
SCALARS DENSITY float 
LOOKUP_TABLE default 
20.000000 
20.000000 
20.000000 
20.000000 
20.000000 
20.000000 
20.000000 
20.000000 
20.000000 
20.000000 
20.000000 
20.000000 
20.000000 
20.000000 
20.000000 
20.000000 
20.000000 
20.000000 
20.000000 
20.000000 
20.000000 
20.000000 
20.000000 
20.000000 
20.000000 
20.000000 
20.000000 
20.000000 
20.000000 
20.000000 
20.000000 
20.000000 
20.000000 
20.000000 
20.000000 
20.000000 
20.000000 
20.000000 
20.000000 
20.000000 
20.000000 
20.000000 
20.000000 
20.000000 
20.000000 
20.000000 
20.000000 
20.000000 
20.000000 
20.000000 
20.000000 
20.000000 
20.000000 
20.000000 
20.000000 
20.000000 
20.000000 
20.000000 
20.000000 
20.000000 
20.000000 
20.000000 
20.000000 
20.000000 
20.000000 
20.000000 
20.000000 
20.000000 
20.000000 
20.000000 
20.000000 
20.000000 
20.000000 
20.000000 
20.000000 
20.000000 
20.000000 
20.000000 
20.000000 
20.000000 
20.000000 
20.000000 
20.000000 
20.000000 
20.000000 
20.000000 
20.000000 
20.000000 
20.000000 
20.000000 
20.000000 
20.000000 
20.000000 
20.000000 
20.000000 
20.000000 
20.000000 
20.000000 
20.000000 
20.000000 
20.000000 
20.000000 
20.000000 
20.000000 
20.000000 
20.000000 
20.000000 
20.000000 
20.000000 
20.000000 
20.000000 
20.000000 
20.000000 
20.000000 
20.000000 
20.000000 
20.000000 
20.000000 
20.000000 
20.000000 
20.000000 
20.000000 
20.000000 
20.000000 
20.000000 
20.000000 
20.000000 
20.000000 
20.000000 
20.000000 
20.000000 
20.000000 
20.000000 
20.000000 
20.000000 
20.000000 
20.000000 
20.000000 
20.000000 
20.000000 
20.000000 
20.000000 
20.000000 
20.000000 
20.000000 
20.000000 
20.000000 
20.000000 
20.000000 
20.000000 
20.000000 
20.000000 
20.000000 
20.000000 
20.000000 
20.000000 
20.000000 
20.000000 
20.000000 
20.000000 
20.000000 
20.000000 
20.000000 
20.000000 
20.000000 
20.000000 
20.000000 
20.000000 
20.000000 
20.000000 
20.000000 
20.000000 
20.000000 
20.000000 
20.000000 
SCALARS ELEM_i float 
LOOKUP_TABLE default 
176 
204 
177 
177 
204 
204 
204 
177 
178 
232 
205 
205 
205 
205 
178 
178 
232 
232 
232 
205 
206 
206 
206 
179 
179 
176 
203 
203 
203 
230 
203 
230 
203 
204 
230 
230 
230 
230 
231 
231 
231 
256 
257 
257 
257 
258 
258 
258 
231 
232 
176 
202 
202 
202 
201 
202 
202 
202 
229 
201 
201 
228 
228 
229 
229 
229 
200 
227 
227 
228 
228 
228 
255 
256 
256 
175 
175 
175 
175 
147 
174 
174 
174 
201 
147 
147 
173 
174 
173 
201 
201 
146 
146 
146 
173 
173 
173 
200 
200 
200 
176 
148 
148 
148 
121 
148 
148 
148 
147 
121 
121 
121 
120 
120 
147 
147 
94 
94 
93 
120 
120 
120 
119 
119 
146 
176 
149 
149 
149 
150 
149 
122 
149 
122 
123 
123 
123 
122 
122 
122 
122 
124 
123 
96 
96 
96 
95 
95 
95 
94 
176 
177 
177 
150 
178 
177 
150 
150 
150 
178 
178 
151 
151 
151 
151 
124 
179 
179 
152 
152 
152 
151 
124 
124 
124 
VECTORS VELOCITY float 
0.000000 -4.138250 0.000000 
0.000000 -4.138250 0.000000 
0.000000 -4.138250 0.000000 
0.000000 -4.138250 0.000000 
0.000000 -4.138250 0.000000 
0.000000 -4.138250 0.000000 
0.000000 -4.138250 0.000000 
-0.000000 -4.138250 0.000000 
-0.000000 -4.138250 0.000000 
0.000000 -4.138250 0.000000 
0.000000 -4.138250 0.000000 
0.000000 -4.138250 0.000000 
0.000000 -4.138250 0.000000 
-0.000000 -4.138250 0.000000 
-0.000000 -4.138250 0.000000 
-0.000000 -4.138250 0.000000 
0.000000 -4.138250 0.000000 
0.000000 -4.138250 0.000000 
0.000000 -4.138250 0.000000 
0.000000 -4.138250 0.000000 
0.000000 -4.138250 0.000000 
-0.000000 -4.138250 0.000000 
0.000000 -4.138250 0.000000 
0.000000 -4.138250 0.000000 
0.000000 -4.138250 0.000000 
0.000000 -4.138250 0.000000 
0.000000 -4.138250 0.000000 
0.000000 -4.138250 0.000000 
0.000000 -4.138250 0.000000 
0.000000 -4.138250 0.000000 
0.000000 -4.138250 0.000000 
0.000000 -4.138250 0.000000 
-0.000000 -4.138250 0.000000 
0.000000 -4.138250 0.000000 
-0.000000 -4.138250 0.000000 
0.000000 -4.138250 0.000000 
0.000000 -4.138250 0.000000 
0.000000 -4.138250 0.000000 
0.000000 -4.138250 0.000000 
0.000000 -4.138250 0.000000 
0.000000 -4.138250 0.000000 
-0.000000 -4.138250 0.000000 
-0.000000 -4.138250 0.000000 
-0.000000 -4.138250 0.000000 
0.000000 -4.138250 0.000000 
-0.000000 -4.138250 0.000000 
0.000000 -4.138250 0.000000 
0.000000 -4.138250 0.000000 
0.000000 -4.138250 0.000000 
0.000000 -4.138250 0.000000 
-0.000000 -4.138250 0.000000 
-0.000000 -4.138250 0.000000 
-0.000000 -4.138250 0.000000 
0.000000 -4.138250 0.000000 
-0.000000 -4.138250 0.000000 
0.000000 -4.138250 0.000000 
0.000000 -4.138250 0.000000 
0.000000 -4.138250 0.000000 
0.000000 -4.138250 0.000000 
-0.000000 -4.138250 0.000000 
-0.000000 -4.138250 0.000000 
-0.000000 -4.138250 0.000000 
0.000000 -4.138250 0.000000 
0.000000 -4.138250 0.000000 
0.000000 -4.138250 0.000000 
-0.000000 -4.138250 0.000000 
0.000000 -4.138250 0.000000 
0.000000 -4.138250 0.000000 
0.000000 -4.138250 0.000000 
-0.000000 -4.138250 0.000000 
-0.000000 -4.138250 0.000000 
-0.000000 -4.138250 0.000000 
-0.000000 -4.138250 0.000000 
-0.000000 -4.138250 0.000000 
-0.000000 -4.138250 0.000000 
-0.000000 -4.138250 0.000000 
0.000000 -4.138250 0.000000 
-0.000000 -4.138250 0.000000 
-0.000000 -4.138250 0.000000 
-0.000000 -4.138250 0.000000 
0.000000 -4.138250 0.000000 
0.000000 -4.138250 0.000000 
0.000000 -4.138250 0.000000 
0.000000 -4.138250 0.000000 
-0.000000 -4.138250 0.000000 
-0.000000 -4.138250 0.000000 
-0.000000 -4.138250 0.000000 
-0.000000 -4.138250 0.000000 
-0.000000 -4.138250 0.000000 
-0.000000 -4.138250 0.000000 
-0.000000 -4.138250 0.000000 
-0.000000 -4.138250 0.000000 
-0.000000 -4.138250 0.000000 
-0.000000 -4.138250 0.000000 
-0.000000 -4.138250 0.000000 
0.000000 -4.138250 0.000000 
0.000000 -4.138250 0.000000 
0.000000 -4.138250 0.000000 
-0.000000 -4.138250 0.000000 
-0.000000 -4.138250 0.000000 
-0.000000 -4.138250 0.000000 
-0.000000 -4.138250 0.000000 
-0.000000 -4.138250 0.000000 
-0.000000 -4.138250 0.000000 
-0.000000 -4.138250 0.000000 
-0.000000 -4.138250 0.000000 
0.000000 -4.138250 0.000000 
0.000000 -4.138250 0.000000 
0.000000 -4.138250 0.000000 
0.000000 -4.138250 0.000000 
-0.000000 -4.138250 0.000000 
-0.000000 -4.138250 0.000000 
0.000000 -4.138250 0.000000 
-0.000000 -4.138250 0.000000 
-0.000000 -4.138250 0.000000 
-0.000000 -4.138250 0.000000 
-0.000000 -4.138250 0.000000 
-0.000000 -4.138250 0.000000 
0.000000 -4.138250 0.000000 
-0.000000 -4.138250 0.000000 
-0.000000 -4.138250 0.000000 
-0.000000 -4.138250 0.000000 
-0.000000 -4.138250 0.000000 
-0.000000 -4.138250 0.000000 
-0.000000 -4.138250 0.000000 
-0.000000 -4.138250 0.000000 
-0.000000 -4.138250 0.000000 
-0.000000 -4.138250 0.000000 
-0.000000 -4.138250 0.000000 
-0.000000 -4.138250 0.000000 
-0.000000 -4.138250 0.000000 
-0.000000 -4.138250 0.000000 
-0.000000 -4.138250 0.000000 
-0.000000 -4.138250 0.000000 
-0.000000 -4.138250 0.000000 
-0.000000 -4.138250 0.000000 
-0.000000 -4.138250 0.000000 
0.000000 -4.138250 0.000000 
0.000000 -4.138250 0.000000 
0.000000 -4.138250 0.000000 
0.000000 -4.138250 0.000000 
-0.000000 -4.138250 0.000000 
-0.000000 -4.138250 0.000000 
-0.000000 -4.138250 0.000000 
-0.000000 -4.138250 0.000000 
-0.000000 -4.138250 0.000000 
0.000000 -4.138250 0.000000 
0.000000 -4.138250 0.000000 
0.000000 -4.138250 0.000000 
-0.000000 -4.138250 0.000000 
-0.000000 -4.138250 0.000000 
0.000000 -4.138250 0.000000 
0.000000 -4.138250 0.000000 
-0.000000 -4.138250 0.000000 
-0.000000 -4.138250 0.000000 
0.000000 -4.138250 0.000000 
0.000000 -4.138250 0.000000 
0.000000 -4.138250 0.000000 
0.000000 -4.138250 0.000000 
-0.000000 -4.138250 0.000000 
-0.000000 -4.138250 0.000000 
-0.000000 -4.138250 0.000000 
-0.000000 -4.138250 0.000000 
0.000000 -4.138250 0.000000 
0.000000 -4.138250 0.000000 
0.000000 -4.138250 0.000000 
0.000000 -4.138250 0.000000 
0.000000 -4.138250 0.000000 
0.000000 -4.138250 0.000000 
-0.000000 -4.138250 0.000000 
-0.000000 -4.138250 0.000000 
0.000000 -4.138250 0.000000 
-0.000000 -4.138250 0.000000 
0.000000 -4.138250 0.000000 
-0.000000 -4.138250 0.000000 
TENSORS STRESS float 
-0.000000 0.000000 0.000000 
0.000000 -0.000000 0.000000 
0.000000 0.000000 0.000000 

0.000000 0.000000 0.000000 
0.000000 0.000000 0.000000 
0.000000 0.000000 0.000000 

-0.000000 0.000000 0.000000 
0.000000 -0.000000 0.000000 
0.000000 0.000000 0.000000 

-0.000000 0.000000 0.000000 
0.000000 -0.000000 0.000000 
0.000000 0.000000 0.000000 

-0.000000 0.000000 0.000000 
0.000000 0.000000 0.000000 
0.000000 0.000000 0.000000 

0.000000 0.000000 0.000000 
0.000000 0.000000 0.000000 
0.000000 0.000000 0.000000 

-0.000000 -0.000000 0.000000 
0.000000 -0.000000 0.000000 
0.000000 0.000000 0.000000 

-0.000000 -0.000000 0.000000 
0.000000 -0.000000 0.000000 
0.000000 0.000000 0.000000 

-0.000000 -0.000000 0.000000 
0.000000 -0.000000 0.000000 
0.000000 0.000000 0.000000 

-0.000000 0.000000 0.000000 
0.000000 0.000000 0.000000 
0.000000 0.000000 0.000000 

0.000000 -0.000000 0.000000 
0.000000 0.000000 0.000000 
0.000000 0.000000 0.000000 

-0.000000 0.000000 0.000000 
0.000000 -0.000000 0.000000 
0.000000 0.000000 0.000000 

-0.000000 -0.000000 0.000000 
0.000000 0.000000 0.000000 
0.000000 0.000000 0.000000 

-0.000000 -0.000000 0.000000 
0.000000 -0.000000 0.000000 
0.000000 0.000000 0.000000 

-0.000000 -0.000000 0.000000 
0.000000 -0.000000 0.000000 
0.000000 0.000000 0.000000 

-0.000000 0.000000 0.000000 
0.000000 0.000000 0.000000 
0.000000 0.000000 0.000000 

0.000000 -0.000000 0.000000 
0.000000 0.000000 0.000000 
0.000000 0.000000 0.000000 

0.000000 -0.000000 0.000000 
0.000000 0.000000 0.000000 
0.000000 0.000000 0.000000 

0.000000 0.000000 0.000000 
0.000000 0.000000 0.000000 
0.000000 0.000000 0.000000 

-0.000000 0.000000 0.000000 
0.000000 -0.000000 0.000000 
0.000000 0.000000 0.000000 

-0.000000 -0.000000 0.000000 
0.000000 0.000000 0.000000 
0.000000 0.000000 0.000000 

-0.000000 -0.000000 0.000000 
0.000000 0.000000 0.000000 
0.000000 0.000000 0.000000 

-0.000000 -0.000000 0.000000 
0.000000 -0.000000 0.000000 
0.000000 0.000000 0.000000 

-0.000000 -0.000000 0.000000 
0.000000 -0.000000 0.000000 
0.000000 0.000000 0.000000 

-0.000000 -0.000000 0.000000 
0.000000 -0.000000 0.000000 
0.000000 0.000000 0.000000 

-0.000000 0.000000 0.000000 
0.000000 0.000000 0.000000 
0.000000 0.000000 0.000000 

0.000000 0.000000 0.000000 
0.000000 0.000000 0.000000 
0.000000 0.000000 0.000000 

0.000000 -0.000000 0.000000 
0.000000 0.000000 0.000000 
0.000000 0.000000 0.000000 

-0.000000 0.000000 0.000000 
0.000000 -0.000000 0.000000 
0.000000 0.000000 0.000000 

-0.000000 0.000000 0.000000 
0.000000 -0.000000 0.000000 
0.000000 0.000000 0.000000 

0.000000 -0.000000 0.000000 
0.000000 0.000000 0.000000 
0.000000 0.000000 0.000000 

-0.000000 0.000000 0.000000 
0.000000 -0.000000 0.000000 
0.000000 0.000000 0.000000 

-0.000000 -0.000000 0.000000 
0.000000 -0.000000 0.000000 
0.000000 0.000000 0.000000 

-0.000000 -0.000000 0.000000 
0.000000 -0.000000 0.000000 
0.000000 0.000000 0.000000 

-0.000000 -0.000000 0.000000 
0.000000 -0.000000 0.000000 
0.000000 0.000000 0.000000 

-0.000000 -0.000000 0.000000 
0.000000 0.000000 0.000000 
0.000000 0.000000 0.000000 

-0.000000 -0.000000 0.000000 
0.000000 -0.000000 0.000000 
0.000000 0.000000 0.000000 

0.000000 0.000000 0.000000 
0.000000 0.000000 0.000000 
0.000000 0.000000 0.000000 

0.000000 0.000000 0.000000 
0.000000 0.000000 0.000000 
0.000000 0.000000 0.000000 

0.000000 -0.000000 0.000000 
0.000000 -0.000000 0.000000 
0.000000 0.000000 0.000000 

-0.000000 -0.000000 0.000000 
0.000000 0.000000 0.000000 
0.000000 0.000000 0.000000 

0.000000 0.000000 0.000000 
0.000000 0.000000 0.000000 
0.000000 0.000000 0.000000 

-0.000000 -0.000000 0.000000 
0.000000 -0.000000 0.000000 
0.000000 0.000000 0.000000 

-0.000000 -0.000000 0.000000 
0.000000 -0.000000 0.000000 
0.000000 0.000000 0.000000 

-0.000000 0.000000 0.000000 
0.000000 0.000000 0.000000 
0.000000 0.000000 0.000000 

0.000000 0.000000 0.000000 
0.000000 0.000000 0.000000 
0.000000 0.000000 0.000000 

0.000000 0.000000 0.000000 
0.000000 -0.000000 0.000000 
0.000000 0.000000 0.000000 

0.000000 0.000000 0.000000 
0.000000 -0.000000 0.000000 
0.000000 0.000000 0.000000 

-0.000000 -0.000000 0.000000 
0.000000 -0.000000 0.000000 
0.000000 0.000000 0.000000 

-0.000000 0.000000 0.000000 
0.000000 -0.000000 0.000000 
0.000000 0.000000 0.000000 

0.000000 -0.000000 0.000000 
0.000000 0.000000 0.000000 
0.000000 0.000000 0.000000 

-0.000000 0.000000 0.000000 
0.000000 -0.000000 0.000000 
0.000000 0.000000 0.000000 

0.000000 -0.000000 0.000000 
0.000000 0.000000 0.000000 
0.000000 0.000000 0.000000 

0.000000 0.000000 0.000000 
0.000000 0.000000 0.000000 
0.000000 0.000000 0.000000 

-0.000000 0.000000 0.000000 
0.000000 -0.000000 0.000000 
0.000000 0.000000 0.000000 

-0.000000 0.000000 0.000000 
0.000000 0.000000 0.000000 
0.000000 0.000000 0.000000 

0.000000 0.000000 0.000000 
0.000000 0.000000 0.000000 
0.000000 0.000000 0.000000 

0.000000 0.000000 0.000000 
0.000000 0.000000 0.000000 
0.000000 0.000000 0.000000 

-0.000000 -0.000000 0.000000 
0.000000 0.000000 0.000000 
0.000000 0.000000 0.000000 

-0.000000 0.000000 0.000000 
0.000000 0.000000 0.000000 
0.000000 0.000000 0.000000 

0.000000 0.000000 0.000000 
0.000000 0.000000 0.000000 
0.000000 0.000000 0.000000 

-0.000000 0.000000 0.000000 
0.000000 -0.000000 0.000000 
0.000000 0.000000 0.000000 

-0.000000 0.000000 0.000000 
0.000000 -0.000000 0.000000 
0.000000 0.000000 0.000000 

-0.000000 -0.000000 0.000000 
0.000000 0.000000 0.000000 
0.000000 0.000000 0.000000 

-0.000000 0.000000 0.000000 
0.000000 -0.000000 0.000000 
0.000000 0.000000 0.000000 

-0.000000 0.000000 0.000000 
0.000000 -0.000000 0.000000 
0.000000 0.000000 0.000000 

-0.000000 0.000000 0.000000 
0.000000 -0.000000 0.000000 
0.000000 0.000000 0.000000 

-0.000000 -0.000000 0.000000 
0.000000 -0.000000 0.000000 
0.000000 0.000000 0.000000 

-0.000000 -0.000000 0.000000 
0.000000 -0.000000 0.000000 
0.000000 0.000000 0.000000 

-0.000000 -0.000000 0.000000 
0.000000 0.000000 0.000000 
0.000000 0.000000 0.000000 

-0.000000 -0.000000 0.000000 
0.000000 -0.000000 0.000000 
0.000000 0.000000 0.000000 

-0.000000 -0.000000 0.000000 
0.000000 -0.000000 0.000000 
0.000000 0.000000 0.000000 

0.000000 -0.000000 0.000000 
0.000000 0.000000 0.000000 
0.000000 0.000000 0.000000 

-0.000000 -0.000000 0.000000 
0.000000 -0.000000 0.000000 
0.000000 0.000000 0.000000 

-0.000000 -0.000000 0.000000 
0.000000 -0.000000 0.000000 
0.000000 0.000000 0.000000 

0.000000 -0.000000 0.000000 
0.000000 0.000000 0.000000 
0.000000 0.000000 0.000000 

0.000000 0.000000 0.000000 
0.000000 -0.000000 0.000000 
0.000000 0.000000 0.000000 

0.000000 -0.000000 0.000000 
0.000000 0.000000 0.000000 
0.000000 0.000000 0.000000 

0.000000 -0.000000 0.000000 
0.000000 0.000000 0.000000 
0.000000 0.000000 0.000000 

-0.000000 -0.000000 0.000000 
0.000000 -0.000000 0.000000 
0.000000 0.000000 0.000000 

0.000000 0.000000 0.000000 
0.000000 -0.000000 0.000000 
0.000000 0.000000 0.000000 

-0.000000 0.000000 0.000000 
0.000000 -0.000000 0.000000 
0.000000 0.000000 0.000000 

0.000000 0.000000 0.000000 
0.000000 -0.000000 0.000000 
0.000000 0.000000 0.000000 

-0.000000 -0.000000 0.000000 
0.000000 -0.000000 0.000000 
0.000000 0.000000 0.000000 

-0.000000 -0.000000 0.000000 
0.000000 -0.000000 0.000000 
0.000000 0.000000 0.000000 

0.000000 -0.000000 0.000000 
0.000000 -0.000000 0.000000 
0.000000 0.000000 0.000000 

0.000000 -0.000000 0.000000 
0.000000 0.000000 0.000000 
0.000000 0.000000 0.000000 

-0.000000 -0.000000 0.000000 
0.000000 -0.000000 0.000000 
0.000000 0.000000 0.000000 

-0.000000 0.000000 0.000000 
0.000000 -0.000000 0.000000 
0.000000 0.000000 0.000000 

-0.000000 0.000000 0.000000 
0.000000 -0.000000 0.000000 
0.000000 0.000000 0.000000 

-0.000000 -0.000000 0.000000 
0.000000 -0.000000 0.000000 
0.000000 0.000000 0.000000 

-0.000000 -0.000000 0.000000 
0.000000 0.000000 0.000000 
0.000000 0.000000 0.000000 

0.000000 0.000000 0.000000 
0.000000 0.000000 0.000000 
0.000000 0.000000 0.000000 

0.000000 0.000000 0.000000 
0.000000 0.000000 0.000000 
0.000000 0.000000 0.000000 

0.000000 0.000000 0.000000 
0.000000 -0.000000 0.000000 
0.000000 0.000000 0.000000 

0.000000 0.000000 0.000000 
0.000000 0.000000 0.000000 
0.000000 0.000000 0.000000 

0.000000 0.000000 0.000000 
0.000000 -0.000000 0.000000 
0.000000 0.000000 0.000000 

-0.000000 0.000000 0.000000 
0.000000 0.000000 0.000000 
0.000000 0.000000 0.000000 

-0.000000 -0.000000 0.000000 
0.000000 -0.000000 0.000000 
0.000000 0.000000 0.000000 

-0.000000 0.000000 0.000000 
0.000000 -0.000000 0.000000 
0.000000 0.000000 0.000000 

-0.000000 -0.000000 0.000000 
0.000000 -0.000000 0.000000 
0.000000 0.000000 0.000000 

-0.000000 0.000000 0.000000 
0.000000 -0.000000 0.000000 
0.000000 0.000000 0.000000 

-0.000000 0.000000 0.000000 
0.000000 -0.000000 0.000000 
0.000000 0.000000 0.000000 

0.000000 -0.000000 0.000000 
0.000000 0.000000 0.000000 
0.000000 0.000000 0.000000 

-0.000000 -0.000000 0.000000 
0.000000 -0.000000 0.000000 
0.000000 0.000000 0.000000 

0.000000 -0.000000 0.000000 
0.000000 0.000000 0.000000 
0.000000 0.000000 0.000000 

-0.000000 -0.000000 0.000000 
0.000000 0.000000 0.000000 
0.000000 0.000000 0.000000 

0.000000 -0.000000 0.000000 
0.000000 0.000000 0.000000 
0.000000 0.000000 0.000000 

0.000000 -0.000000 0.000000 
0.000000 0.000000 0.000000 
0.000000 0.000000 0.000000 

-0.000000 -0.000000 0.000000 
0.000000 -0.000000 0.000000 
0.000000 0.000000 0.000000 

-0.000000 -0.000000 0.000000 
0.000000 -0.000000 0.000000 
0.000000 0.000000 0.000000 

-0.000000 -0.000000 0.000000 
0.000000 0.000000 0.000000 
0.000000 0.000000 0.000000 

-0.000000 0.000000 0.000000 
0.000000 0.000000 0.000000 
0.000000 0.000000 0.000000 

-0.000000 0.000000 0.000000 
0.000000 -0.000000 0.000000 
0.000000 0.000000 0.000000 

0.000000 -0.000000 0.000000 
0.000000 0.000000 0.000000 
0.000000 0.000000 0.000000 

-0.000000 -0.000000 0.000000 
0.000000 -0.000000 0.000000 
0.000000 0.000000 0.000000 

-0.000000 -0.000000 0.000000 
0.000000 -0.000000 0.000000 
0.000000 0.000000 0.000000 

0.000000 0.000000 0.000000 
0.000000 0.000000 0.000000 
0.000000 0.000000 0.000000 

0.000000 0.000000 0.000000 
0.000000 0.000000 0.000000 
0.000000 0.000000 0.000000 

0.000000 0.000000 0.000000 
0.000000 0.000000 0.000000 
0.000000 0.000000 0.000000 

0.000000 0.000000 0.000000 
0.000000 0.000000 0.000000 
0.000000 0.000000 0.000000 

0.000000 -0.000000 0.000000 
0.000000 0.000000 0.000000 
0.000000 0.000000 0.000000 

-0.000000 -0.000000 0.000000 
0.000000 -0.000000 0.000000 
0.000000 0.000000 0.000000 

-0.000000 -0.000000 0.000000 
0.000000 -0.000000 0.000000 
0.000000 0.000000 0.000000 

0.000000 -0.000000 0.000000 
0.000000 0.000000 0.000000 
0.000000 0.000000 0.000000 

-0.000000 -0.000000 0.000000 
0.000000 -0.000000 0.000000 
0.000000 0.000000 0.000000 

-0.000000 -0.000000 0.000000 
0.000000 -0.000000 0.000000 
0.000000 0.000000 0.000000 

0.000000 -0.000000 0.000000 
0.000000 0.000000 0.000000 
0.000000 0.000000 0.000000 

-0.000000 -0.000000 0.000000 
0.000000 0.000000 0.000000 
0.000000 0.000000 0.000000 

-0.000000 0.000000 0.000000 
0.000000 -0.000000 0.000000 
0.000000 0.000000 0.000000 

0.000000 -0.000000 0.000000 
0.000000 0.000000 0.000000 
0.000000 0.000000 0.000000 

-0.000000 -0.000000 0.000000 
0.000000 -0.000000 0.000000 
0.000000 0.000000 0.000000 

-0.000000 -0.000000 0.000000 
0.000000 0.000000 0.000000 
0.000000 0.000000 0.000000 

-0.000000 0.000000 0.000000 
0.000000 -0.000000 0.000000 
0.000000 0.000000 0.000000 

0.000000 -0.000000 0.000000 
0.000000 0.000000 0.000000 
0.000000 0.000000 0.000000 

0.000000 -0.000000 0.000000 
0.000000 -0.000000 0.000000 
0.000000 0.000000 0.000000 

0.000000 -0.000000 0.000000 
0.000000 -0.000000 0.000000 
0.000000 0.000000 0.000000 

0.000000 0.000000 0.000000 
0.000000 0.000000 0.000000 
0.000000 0.000000 0.000000 

-0.000000 -0.000000 0.000000 
0.000000 -0.000000 0.000000 
0.000000 0.000000 0.000000 

-0.000000 -0.000000 0.000000 
0.000000 -0.000000 0.000000 
0.000000 0.000000 0.000000 

-0.000000 0.000000 0.000000 
0.000000 0.000000 0.000000 
0.000000 0.000000 0.000000 

-0.000000 -0.000000 0.000000 
0.000000 -0.000000 0.000000 
0.000000 0.000000 0.000000 

0.000000 -0.000000 0.000000 
0.000000 0.000000 0.000000 
0.000000 0.000000 0.000000 

-0.000000 -0.000000 0.000000 
0.000000 -0.000000 0.000000 
0.000000 0.000000 0.000000 

0.000000 -0.000000 0.000000 
0.000000 0.000000 0.000000 
0.000000 0.000000 0.000000 

-0.000000 0.000000 0.000000 
0.000000 -0.000000 0.000000 
0.000000 0.000000 0.000000 

-0.000000 -0.000000 0.000000 
0.000000 -0.000000 0.000000 
0.000000 0.000000 0.000000 

-0.000000 -0.000000 0.000000 
0.000000 -0.000000 0.000000 
0.000000 0.000000 0.000000 

0.000000 -0.000000 0.000000 
0.000000 0.000000 0.000000 
0.000000 0.000000 0.000000 

0.000000 -0.000000 0.000000 
0.000000 -0.000000 0.000000 
0.000000 0.000000 0.000000 

-0.000000 0.000000 0.000000 
0.000000 0.000000 0.000000 
0.000000 0.000000 0.000000 

-0.000000 0.000000 0.000000 
0.000000 0.000000 0.000000 
0.000000 0.000000 0.000000 

-0.000000 0.000000 0.000000 
0.000000 0.000000 0.000000 
0.000000 0.000000 0.000000 

-0.000000 -0.000000 0.000000 
0.000000 -0.000000 0.000000 
0.000000 0.000000 0.000000 

-0.000000 -0.000000 0.000000 
0.000000 0.000000 0.000000 
0.000000 0.000000 0.000000 

-0.000000 0.000000 0.000000 
0.000000 -0.000000 0.000000 
0.000000 0.000000 0.000000 

-0.000000 0.000000 0.000000 
0.000000 -0.000000 0.000000 
0.000000 0.000000 0.000000 

-0.000000 -0.000000 0.000000 
0.000000 -0.000000 0.000000 
0.000000 0.000000 0.000000 

0.000000 0.000000 0.000000 
0.000000 0.000000 0.000000 
0.000000 0.000000 0.000000 

-0.000000 0.000000 0.000000 
0.000000 0.000000 0.000000 
0.000000 0.000000 0.000000 

0.000000 0.000000 0.000000 
0.000000 0.000000 0.000000 
0.000000 0.000000 0.000000 

0.000000 -0.000000 0.000000 
0.000000 0.000000 0.000000 
0.000000 0.000000 0.000000 

-0.000000 -0.000000 0.000000 
0.000000 -0.000000 0.000000 
0.000000 0.000000 0.000000 

0.000000 -0.000000 0.000000 
0.000000 0.000000 0.000000 
0.000000 0.000000 0.000000 

-0.000000 -0.000000 0.000000 
0.000000 0.000000 0.000000 
0.000000 0.000000 0.000000 

-0.000000 -0.000000 0.000000 
0.000000 -0.000000 0.000000 
0.000000 0.000000 0.000000 

-0.000000 -0.000000 0.000000 
0.000000 0.000000 0.000000 
0.000000 0.000000 0.000000 

-0.000000 -0.000000 0.000000 
0.000000 -0.000000 0.000000 
0.000000 0.000000 0.000000 

-0.000000 0.000000 0.000000 
0.000000 -0.000000 0.000000 
0.000000 0.000000 0.000000 

-0.000000 0.000000 0.000000 
0.000000 -0.000000 0.000000 
0.000000 0.000000 0.000000 

-0.000000 -0.000000 0.000000 
0.000000 -0.000000 0.000000 
0.000000 0.000000 0.000000 

0.000000 -0.000000 0.000000 
0.000000 0.000000 0.000000 
0.000000 0.000000 0.000000 

0.000000 0.000000 0.000000 
0.000000 0.000000 0.000000 
0.000000 0.000000 0.000000 

-0.000000 -0.000000 0.000000 
0.000000 -0.000000 0.000000 
0.000000 0.000000 0.000000 

-0.000000 0.000000 0.000000 
0.000000 -0.000000 0.000000 
0.000000 0.000000 0.000000 

TENSORS STRAIN float 
-0.000000 0.000000 0.000000 
0.000000 -0.000000 0.000000 
0.000000 0.000000 0.000000 

-0.000000 0.000000 0.000000 
0.000000 0.000000 0.000000 
0.000000 0.000000 0.000000 

-0.000000 0.000000 0.000000 
0.000000 0.000000 0.000000 
0.000000 0.000000 0.000000 

-0.000000 0.000000 0.000000 
0.000000 -0.000000 0.000000 
0.000000 0.000000 0.000000 

-0.000000 0.000000 0.000000 
0.000000 0.000000 0.000000 
0.000000 0.000000 0.000000 

-0.000000 0.000000 0.000000 
0.000000 0.000000 0.000000 
0.000000 0.000000 0.000000 

-0.000000 -0.000000 0.000000 
0.000000 -0.000000 0.000000 
0.000000 0.000000 0.000000 

-0.000000 -0.000000 0.000000 
0.000000 -0.000000 0.000000 
0.000000 0.000000 0.000000 

-0.000000 -0.000000 0.000000 
0.000000 -0.000000 0.000000 
0.000000 0.000000 0.000000 

-0.000000 0.000000 0.000000 
0.000000 0.000000 0.000000 
0.000000 0.000000 0.000000 

-0.000000 -0.000000 0.000000 
0.000000 0.000000 0.000000 
0.000000 0.000000 0.000000 

-0.000000 0.000000 0.000000 
0.000000 0.000000 0.000000 
0.000000 0.000000 0.000000 

-0.000000 -0.000000 0.000000 
0.000000 0.000000 0.000000 
0.000000 0.000000 0.000000 

-0.000000 -0.000000 0.000000 
0.000000 -0.000000 0.000000 
0.000000 0.000000 0.000000 

-0.000000 -0.000000 0.000000 
0.000000 -0.000000 0.000000 
0.000000 0.000000 0.000000 

-0.000000 0.000000 0.000000 
0.000000 0.000000 0.000000 
0.000000 0.000000 0.000000 

0.000000 -0.000000 0.000000 
0.000000 0.000000 0.000000 
0.000000 0.000000 0.000000 

0.000000 -0.000000 0.000000 
0.000000 0.000000 0.000000 
0.000000 0.000000 0.000000 

0.000000 0.000000 0.000000 
0.000000 -0.000000 0.000000 
0.000000 0.000000 0.000000 

-0.000000 0.000000 0.000000 
0.000000 -0.000000 0.000000 
0.000000 0.000000 0.000000 

-0.000000 -0.000000 0.000000 
0.000000 0.000000 0.000000 
0.000000 0.000000 0.000000 

-0.000000 -0.000000 0.000000 
0.000000 0.000000 0.000000 
0.000000 0.000000 0.000000 

-0.000000 -0.000000 0.000000 
0.000000 -0.000000 0.000000 
0.000000 0.000000 0.000000 

-0.000000 -0.000000 0.000000 
0.000000 -0.000000 0.000000 
0.000000 0.000000 0.000000 

-0.000000 -0.000000 0.000000 
0.000000 0.000000 0.000000 
0.000000 0.000000 0.000000 

-0.000000 0.000000 0.000000 
0.000000 0.000000 0.000000 
0.000000 0.000000 0.000000 

0.000000 0.000000 0.000000 
0.000000 0.000000 0.000000 
0.000000 0.000000 0.000000 

0.000000 -0.000000 0.000000 
0.000000 0.000000 0.000000 
0.000000 0.000000 0.000000 

0.000000 0.000000 0.000000 
0.000000 -0.000000 0.000000 
0.000000 0.000000 0.000000 

-0.000000 0.000000 0.000000 
0.000000 0.000000 0.000000 
0.000000 0.000000 0.000000 

0.000000 -0.000000 0.000000 
0.000000 0.000000 0.000000 
0.000000 0.000000 0.000000 

-0.000000 0.000000 0.000000 
0.000000 -0.000000 0.000000 
0.000000 0.000000 0.000000 

0.000000 -0.000000 0.000000 
0.000000 -0.000000 0.000000 
0.000000 0.000000 0.000000 

-0.000000 -0.000000 0.000000 
0.000000 -0.000000 0.000000 
0.000000 0.000000 0.000000 

-0.000000 -0.000000 0.000000 
0.000000 -0.000000 0.000000 
0.000000 0.000000 0.000000 

-0.000000 -0.000000 0.000000 
0.000000 0.000000 0.000000 
0.000000 0.000000 0.000000 

-0.000000 -0.000000 0.000000 
0.000000 0.000000 0.000000 
0.000000 0.000000 0.000000 

0.000000 0.000000 0.000000 
0.000000 -0.000000 0.000000 
0.000000 0.000000 0.000000 

0.000000 0.000000 0.000000 
0.000000 0.000000 0.000000 
0.000000 0.000000 0.000000 

0.000000 -0.000000 0.000000 
0.000000 -0.000000 0.000000 
0.000000 0.000000 0.000000 

-0.000000 -0.000000 0.000000 
0.000000 0.000000 0.000000 
0.000000 0.000000 0.000000 

0.000000 0.000000 0.000000 
0.000000 -0.000000 0.000000 
0.000000 0.000000 0.000000 

-0.000000 -0.000000 0.000000 
0.000000 -0.000000 0.000000 
0.000000 0.000000 0.000000 

-0.000000 -0.000000 0.000000 
0.000000 -0.000000 0.000000 
0.000000 0.000000 0.000000 

-0.000000 0.000000 0.000000 
0.000000 0.000000 0.000000 
0.000000 0.000000 0.000000 

-0.000000 0.000000 0.000000 
0.000000 0.000000 0.000000 
0.000000 0.000000 0.000000 

0.000000 0.000000 0.000000 
0.000000 -0.000000 0.000000 
0.000000 0.000000 0.000000 

0.000000 0.000000 0.000000 
0.000000 -0.000000 0.000000 
0.000000 0.000000 0.000000 

-0.000000 -0.000000 0.000000 
0.000000 -0.000000 0.000000 
0.000000 0.000000 0.000000 

-0.000000 0.000000 0.000000 
0.000000 -0.000000 0.000000 
0.000000 0.000000 0.000000 

0.000000 -0.000000 0.000000 
0.000000 0.000000 0.000000 
0.000000 0.000000 0.000000 

-0.000000 0.000000 0.000000 
0.000000 -0.000000 0.000000 
0.000000 0.000000 0.000000 

-0.000000 -0.000000 0.000000 
0.000000 0.000000 0.000000 
0.000000 0.000000 0.000000 

0.000000 0.000000 0.000000 
0.000000 0.000000 0.000000 
0.000000 0.000000 0.000000 

-0.000000 0.000000 0.000000 
0.000000 -0.000000 0.000000 
0.000000 0.000000 0.000000 

-0.000000 0.000000 0.000000 
0.000000 0.000000 0.000000 
0.000000 0.000000 0.000000 

-0.000000 0.000000 0.000000 
0.000000 0.000000 0.000000 
0.000000 0.000000 0.000000 

-0.000000 0.000000 0.000000 
0.000000 0.000000 0.000000 
0.000000 0.000000 0.000000 

-0.000000 -0.000000 0.000000 
0.000000 0.000000 0.000000 
0.000000 0.000000 0.000000 

-0.000000 0.000000 0.000000 
0.000000 0.000000 0.000000 
0.000000 0.000000 0.000000 

-0.000000 0.000000 0.000000 
0.000000 0.000000 0.000000 
0.000000 0.000000 0.000000 

-0.000000 0.000000 0.000000 
0.000000 0.000000 0.000000 
0.000000 0.000000 0.000000 

-0.000000 0.000000 0.000000 
0.000000 -0.000000 0.000000 
0.000000 0.000000 0.000000 

-0.000000 -0.000000 0.000000 
0.000000 0.000000 0.000000 
0.000000 0.000000 0.000000 

-0.000000 0.000000 0.000000 
0.000000 0.000000 0.000000 
0.000000 0.000000 0.000000 

-0.000000 0.000000 0.000000 
0.000000 0.000000 0.000000 
0.000000 0.000000 0.000000 

-0.000000 0.000000 0.000000 
0.000000 -0.000000 0.000000 
0.000000 0.000000 0.000000 

0.000000 -0.000000 0.000000 
0.000000 -0.000000 0.000000 
0.000000 0.000000 0.000000 

0.000000 -0.000000 0.000000 
0.000000 -0.000000 0.000000 
0.000000 0.000000 0.000000 

-0.000000 -0.000000 0.000000 
0.000000 0.000000 0.000000 
0.000000 0.000000 0.000000 

-0.000000 -0.000000 0.000000 
0.000000 -0.000000 0.000000 
0.000000 0.000000 0.000000 

-0.000000 -0.000000 0.000000 
0.000000 -0.000000 0.000000 
0.000000 0.000000 0.000000 

-0.000000 -0.000000 0.000000 
0.000000 0.000000 0.000000 
0.000000 0.000000 0.000000 

-0.000000 -0.000000 0.000000 
0.000000 -0.000000 0.000000 
0.000000 0.000000 0.000000 

-0.000000 -0.000000 0.000000 
0.000000 -0.000000 0.000000 
0.000000 0.000000 0.000000 

0.000000 -0.000000 0.000000 
0.000000 0.000000 0.000000 
0.000000 0.000000 0.000000 

0.000000 0.000000 0.000000 
0.000000 -0.000000 0.000000 
0.000000 0.000000 0.000000 

0.000000 -0.000000 0.000000 
0.000000 0.000000 0.000000 
0.000000 0.000000 0.000000 

0.000000 -0.000000 0.000000 
0.000000 0.000000 0.000000 
0.000000 0.000000 0.000000 

0.000000 -0.000000 0.000000 
0.000000 -0.000000 0.000000 
0.000000 0.000000 0.000000 

0.000000 0.000000 0.000000 
0.000000 -0.000000 0.000000 
0.000000 0.000000 0.000000 

-0.000000 0.000000 0.000000 
0.000000 -0.000000 0.000000 
0.000000 0.000000 0.000000 

0.000000 0.000000 0.000000 
0.000000 -0.000000 0.000000 
0.000000 0.000000 0.000000 

-0.000000 -0.000000 0.000000 
0.000000 -0.000000 0.000000 
0.000000 0.000000 0.000000 

-0.000000 -0.000000 0.000000 
0.000000 -0.000000 0.000000 
0.000000 0.000000 0.000000 

0.000000 -0.000000 0.000000 
0.000000 -0.000000 0.000000 
0.000000 0.000000 0.000000 

-0.000000 -0.000000 0.000000 
0.000000 0.000000 0.000000 
0.000000 0.000000 0.000000 

-0.000000 -0.000000 0.000000 
0.000000 -0.000000 0.000000 
0.000000 0.000000 0.000000 

-0.000000 0.000000 0.000000 
0.000000 -0.000000 0.000000 
0.000000 0.000000 0.000000 

-0.000000 0.000000 0.000000 
0.000000 -0.000000 0.000000 
0.000000 0.000000 0.000000 

0.000000 -0.000000 0.000000 
0.000000 -0.000000 0.000000 
0.000000 0.000000 0.000000 

-0.000000 -0.000000 0.000000 
0.000000 0.000000 0.000000 
0.000000 0.000000 0.000000 

0.000000 0.000000 0.000000 
0.000000 0.000000 0.000000 
0.000000 0.000000 0.000000 

-0.000000 0.000000 0.000000 
0.000000 0.000000 0.000000 
0.000000 0.000000 0.000000 

0.000000 0.000000 0.000000 
0.000000 -0.000000 0.000000 
0.000000 0.000000 0.000000 

0.000000 0.000000 0.000000 
0.000000 0.000000 0.000000 
0.000000 0.000000 0.000000 

0.000000 0.000000 0.000000 
0.000000 -0.000000 0.000000 
0.000000 0.000000 0.000000 

-0.000000 0.000000 0.000000 
0.000000 0.000000 0.000000 
0.000000 0.000000 0.000000 

-0.000000 -0.000000 0.000000 
0.000000 -0.000000 0.000000 
0.000000 0.000000 0.000000 

-0.000000 0.000000 0.000000 
0.000000 -0.000000 0.000000 
0.000000 0.000000 0.000000 

0.000000 -0.000000 0.000000 
0.000000 -0.000000 0.000000 
0.000000 0.000000 0.000000 

-0.000000 0.000000 0.000000 
0.000000 0.000000 0.000000 
0.000000 0.000000 0.000000 

-0.000000 0.000000 0.000000 
0.000000 -0.000000 0.000000 
0.000000 0.000000 0.000000 

-0.000000 -0.000000 0.000000 
0.000000 0.000000 0.000000 
0.000000 0.000000 0.000000 

-0.000000 -0.000000 0.000000 
0.000000 -0.000000 0.000000 
0.000000 0.000000 0.000000 

-0.000000 -0.000000 0.000000 
0.000000 0.000000 0.000000 
0.000000 0.000000 0.000000 

-0.000000 -0.000000 0.000000 
0.000000 0.000000 0.000000 
0.000000 0.000000 0.000000 

-0.000000 -0.000000 0.000000 
0.000000 0.000000 0.000000 
0.000000 0.000000 0.000000 

0.000000 -0.000000 0.000000 
0.000000 0.000000 0.000000 
0.000000 0.000000 0.000000 

-0.000000 -0.000000 0.000000 
0.000000 -0.000000 0.000000 
0.000000 0.000000 0.000000 

-0.000000 -0.000000 0.000000 
0.000000 -0.000000 0.000000 
0.000000 0.000000 0.000000 

-0.000000 -0.000000 0.000000 
0.000000 0.000000 0.000000 
0.000000 0.000000 0.000000 

-0.000000 0.000000 0.000000 
0.000000 0.000000 0.000000 
0.000000 0.000000 0.000000 

-0.000000 0.000000 0.000000 
0.000000 -0.000000 0.000000 
0.000000 0.000000 0.000000 

0.000000 -0.000000 0.000000 
0.000000 0.000000 0.000000 
0.000000 0.000000 0.000000 

0.000000 -0.000000 0.000000 
0.000000 -0.000000 0.000000 
0.000000 0.000000 0.000000 

0.000000 -0.000000 0.000000 
0.000000 -0.000000 0.000000 
0.000000 0.000000 0.000000 

0.000000 0.000000 0.000000 
0.000000 -0.000000 0.000000 
0.000000 0.000000 0.000000 

0.000000 0.000000 0.000000 
0.000000 0.000000 0.000000 
0.000000 0.000000 0.000000 

-0.000000 0.000000 0.000000 
0.000000 0.000000 0.000000 
0.000000 0.000000 0.000000 

0.000000 0.000000 0.000000 
0.000000 0.000000 0.000000 
0.000000 0.000000 0.000000 

0.000000 -0.000000 0.000000 
0.000000 0.000000 0.000000 
0.000000 0.000000 0.000000 

0.000000 -0.000000 0.000000 
0.000000 -0.000000 0.000000 
0.000000 0.000000 0.000000 

0.000000 -0.000000 0.000000 
0.000000 -0.000000 0.000000 
0.000000 0.000000 0.000000 

0.000000 -0.000000 0.000000 
0.000000 0.000000 0.000000 
0.000000 0.000000 0.000000 

-0.000000 -0.000000 0.000000 
0.000000 -0.000000 0.000000 
0.000000 0.000000 0.000000 

-0.000000 -0.000000 0.000000 
0.000000 -0.000000 0.000000 
0.000000 0.000000 0.000000 

-0.000000 -0.000000 0.000000 
0.000000 0.000000 0.000000 
0.000000 0.000000 0.000000 

-0.000000 -0.000000 0.000000 
0.000000 0.000000 0.000000 
0.000000 0.000000 0.000000 

-0.000000 0.000000 0.000000 
0.000000 -0.000000 0.000000 
0.000000 0.000000 0.000000 

-0.000000 -0.000000 0.000000 
0.000000 0.000000 0.000000 
0.000000 0.000000 0.000000 

-0.000000 -0.000000 0.000000 
0.000000 -0.000000 0.000000 
0.000000 0.000000 0.000000 

-0.000000 -0.000000 0.000000 
0.000000 0.000000 0.000000 
0.000000 0.000000 0.000000 

-0.000000 0.000000 0.000000 
0.000000 -0.000000 0.000000 
0.000000 0.000000 0.000000 

0.000000 -0.000000 0.000000 
0.000000 -0.000000 0.000000 
0.000000 0.000000 0.000000 

0.000000 -0.000000 0.000000 
0.000000 -0.000000 0.000000 
0.000000 0.000000 0.000000 

0.000000 -0.000000 0.000000 
0.000000 -0.000000 0.000000 
0.000000 0.000000 0.000000 

0.000000 0.000000 0.000000 
0.000000 0.000000 0.000000 
0.000000 0.000000 0.000000 

-0.000000 -0.000000 0.000000 
0.000000 -0.000000 0.000000 
0.000000 0.000000 0.000000 

-0.000000 -0.000000 0.000000 
0.000000 -0.000000 0.000000 
0.000000 0.000000 0.000000 

-0.000000 0.000000 0.000000 
0.000000 0.000000 0.000000 
0.000000 0.000000 0.000000 

0.000000 -0.000000 0.000000 
0.000000 -0.000000 0.000000 
0.000000 0.000000 0.000000 

0.000000 -0.000000 0.000000 
0.000000 0.000000 0.000000 
0.000000 0.000000 0.000000 

-0.000000 -0.000000 0.000000 
0.000000 -0.000000 0.000000 
0.000000 0.000000 0.000000 

0.000000 -0.000000 0.000000 
0.000000 0.000000 0.000000 
0.000000 0.000000 0.000000 

-0.000000 0.000000 0.000000 
0.000000 -0.000000 0.000000 
0.000000 0.000000 0.000000 

-0.000000 -0.000000 0.000000 
0.000000 0.000000 0.000000 
0.000000 0.000000 0.000000 

-0.000000 -0.000000 0.000000 
0.000000 -0.000000 0.000000 
0.000000 0.000000 0.000000 

0.000000 -0.000000 0.000000 
0.000000 0.000000 0.000000 
0.000000 0.000000 0.000000 

0.000000 -0.000000 0.000000 
0.000000 -0.000000 0.000000 
0.000000 0.000000 0.000000 

-0.000000 0.000000 0.000000 
0.000000 0.000000 0.000000 
0.000000 0.000000 0.000000 

-0.000000 0.000000 0.000000 
0.000000 0.000000 0.000000 
0.000000 0.000000 0.000000 

-0.000000 0.000000 0.000000 
0.000000 0.000000 0.000000 
0.000000 0.000000 0.000000 

-0.000000 -0.000000 0.000000 
0.000000 -0.000000 0.000000 
0.000000 0.000000 0.000000 

-0.000000 -0.000000 0.000000 
0.000000 0.000000 0.000000 
0.000000 0.000000 0.000000 

-0.000000 0.000000 0.000000 
0.000000 0.000000 0.000000 
0.000000 0.000000 0.000000 

-0.000000 0.000000 0.000000 
0.000000 -0.000000 0.000000 
0.000000 0.000000 0.000000 

-0.000000 -0.000000 0.000000 
0.000000 0.000000 0.000000 
0.000000 0.000000 0.000000 

-0.000000 0.000000 0.000000 
0.000000 0.000000 0.000000 
0.000000 0.000000 0.000000 

-0.000000 0.000000 0.000000 
0.000000 0.000000 0.000000 
0.000000 0.000000 0.000000 

-0.000000 0.000000 0.000000 
0.000000 0.000000 0.000000 
0.000000 0.000000 0.000000 

-0.000000 -0.000000 0.000000 
0.000000 0.000000 0.000000 
0.000000 0.000000 0.000000 

-0.000000 -0.000000 0.000000 
0.000000 -0.000000 0.000000 
0.000000 0.000000 0.000000 

-0.000000 -0.000000 0.000000 
0.000000 0.000000 0.000000 
0.000000 0.000000 0.000000 

-0.000000 -0.000000 0.000000 
0.000000 0.000000 0.000000 
0.000000 0.000000 0.000000 

0.000000 -0.000000 0.000000 
0.000000 -0.000000 0.000000 
0.000000 0.000000 0.000000 

-0.000000 -0.000000 0.000000 
0.000000 0.000000 0.000000 
0.000000 0.000000 0.000000 

-0.000000 -0.000000 0.000000 
0.000000 -0.000000 0.000000 
0.000000 0.000000 0.000000 

0.000000 0.000000 0.000000 
0.000000 -0.000000 0.000000 
0.000000 0.000000 0.000000 

-0.000000 0.000000 0.000000 
0.000000 -0.000000 0.000000 
0.000000 0.000000 0.000000 

-0.000000 -0.000000 0.000000 
0.000000 -0.000000 0.000000 
0.000000 0.000000 0.000000 

-0.000000 -0.000000 0.000000 
0.000000 0.000000 0.000000 
0.000000 0.000000 0.000000 

0.000000 0.000000 0.000000 
0.000000 -0.000000 0.000000 
0.000000 0.000000 0.000000 

0.000000 -0.000000 0.000000 
0.000000 -0.000000 0.000000 
0.000000 0.000000 0.000000 

0.000000 0.000000 0.000000 
0.000000 -0.000000 0.000000 
0.000000 0.000000 0.000000 

