# vtk DataFile Version 3.0 
vtk output 
ASCII 
DATASET UNSTRUCTURED_GRID 
POINTS 175 float 
-0.026061 -0.756477 0.000000 
-0.106992 -0.688421 0.000000 
-0.054870 -0.696654 0.000000 
-0.028809 -0.650770 0.000000 
-0.186430 -0.624346 0.000000 
-0.137056 -0.626872 0.000000 
-0.114311 -0.573225 0.000000 
-0.058186 -0.588890 0.000000 
-0.029377 -0.548713 0.000000 
-0.265318 -0.561190 0.000000 
-0.217198 -0.561990 0.000000 
-0.196633 -0.504693 0.000000 
-0.143120 -0.513402 0.000000 
-0.116563 -0.466133 0.000000 
-0.058945 -0.485779 0.000000 
-0.029568 -0.447659 0.000000 
-0.344206 -0.498034 0.000000 
-0.296791 -0.498027 0.000000 
-0.278030 -0.438084 0.000000 
-0.225992 -0.443951 0.000000 
-0.201664 -0.391833 0.000000 
-0.145749 -0.405307 0.000000 
-0.117890 -0.360965 0.000000 
-0.059328 -0.383671 0.000000 
-0.029759 -0.346605 0.000000 
-0.058559 -0.797227 0.000000 
-0.162226 -0.818070 0.000000 
-0.123292 -0.782452 0.000000 
-0.142917 -0.733469 0.000000 
-0.261851 -0.840226 0.000000 
-0.229092 -0.803199 0.000000 
-0.256854 -0.751968 0.000000 
-0.209613 -0.717855 0.000000 
-0.223062 -0.670281 0.000000 
-0.360414 -0.862527 0.000000 
-0.329787 -0.825404 0.000000 
-0.361761 -0.773602 0.000000 
-0.321587 -0.737193 0.000000 
-0.341985 -0.686959 0.000000 
-0.290702 -0.654160 0.000000 
-0.302189 -0.607425 0.000000 
-0.458977 -0.884827 0.000000 
-0.429420 -0.847752 0.000000 
-0.464588 -0.795710 0.000000 
-0.427556 -0.758683 0.000000 
-0.453135 -0.707168 0.000000 
-0.407738 -0.671853 0.000000 
-0.425037 -0.622425 0.000000 
-0.370772 -0.590795 0.000000 
-0.381315 -0.544568 0.000000 
-0.046960 -0.848043 0.000000 
-0.095301 -0.942089 0.000000 
-0.098873 -0.889441 0.000000 
-0.149405 -0.874244 0.000000 
-0.140093 -1.033793 0.000000 
-0.148617 -0.985094 0.000000 
-0.205981 -0.974857 0.000000 
-0.203197 -0.916654 0.000000 
-0.248777 -0.897507 0.000000 
-0.184111 -1.124756 0.000000 
-0.194039 -1.077665 0.000000 
-0.254475 -1.070365 0.000000 
-0.257893 -1.016256 0.000000 
-0.309886 -1.000883 0.000000 
-0.303554 -0.940338 0.000000 
-0.347255 -0.920180 0.000000 
-0.228129 -1.215720 0.000000 
-0.238687 -1.169495 0.000000 
-0.301302 -1.164543 0.000000 
-0.307162 -1.112505 0.000000 
-0.363386 -1.100384 0.000000 
-0.362692 -1.042872 0.000000 
-0.412122 -1.025579 0.000000 
-0.403017 -0.963432 0.000000 
-0.445733 -0.942853 0.000000 
-0.000000 -0.870658 0.000000 
0.043388 -0.967088 0.000000 
-0.000000 -0.937056 0.000000 
-0.043388 -0.967088 0.000000 
0.087158 -1.059285 0.000000 
0.043769 -1.035586 0.000000 
-0.000000 -1.074052 0.000000 
-0.043769 -1.035586 0.000000 
-0.087158 -1.059285 0.000000 
0.130831 -1.150414 0.000000 
0.087824 -1.128816 0.000000 
0.044436 -1.171515 0.000000 
-0.000000 -1.140450 0.000000 
-0.044436 -1.171515 0.000000 
-0.087824 -1.128816 0.000000 
-0.130831 -1.150414 0.000000 
0.174505 -1.241544 0.000000 
0.131782 -1.220978 0.000000 
0.088871 -1.266845 0.000000 
0.044532 -1.238981 0.000000 
-0.000000 -1.275381 0.000000 
-0.044532 -1.238981 0.000000 
-0.088871 -1.266845 0.000000 
-0.131782 -1.220978 0.000000 
-0.174505 -1.241544 0.000000 
0.046960 -0.848043 0.000000 
0.149405 -0.874244 0.000000 
0.098873 -0.889441 0.000000 
0.095301 -0.942089 0.000000 
0.248777 -0.897507 0.000000 
0.203197 -0.916654 0.000000 
0.205981 -0.974857 0.000000 
0.148617 -0.985094 0.000000 
0.140093 -1.033793 0.000000 
0.347255 -0.920180 0.000000 
0.303554 -0.940338 0.000000 
0.309886 -1.000883 0.000000 
0.257893 -1.016256 0.000000 
0.254475 -1.070365 0.000000 
0.194039 -1.077665 0.000000 
0.184111 -1.124756 0.000000 
0.445733 -0.942853 0.000000 
0.403017 -0.963432 0.000000 
0.412122 -1.025579 0.000000 
0.362692 -1.042872 0.000000 
0.363386 -1.100384 0.000000 
0.307162 -1.112505 0.000000 
0.301302 -1.164543 0.000000 
0.238687 -1.169495 0.000000 
0.228129 -1.215720 0.000000 
0.058559 -0.797227 0.000000 
0.142917 -0.733469 0.000000 
0.123292 -0.782452 0.000000 
0.162226 -0.818070 0.000000 
0.223062 -0.670281 0.000000 
0.209613 -0.717855 0.000000 
0.256854 -0.751968 0.000000 
0.229092 -0.803199 0.000000 
0.261851 -0.840226 0.000000 
0.302189 -0.607425 0.000000 
0.290702 -0.654160 0.000000 
0.341985 -0.686959 0.000000 
0.321587 -0.737193 0.000000 
0.361761 -0.773602 0.000000 
0.329787 -0.825404 0.000000 
0.360414 -0.862527 0.000000 
0.381315 -0.544568 0.000000 
0.370772 -0.590795 0.000000 
0.425037 -0.622425 0.000000 
0.407738 -0.671853 0.000000 
0.453135 -0.707168 0.000000 
0.427556 -0.758683 0.000000 
0.464588 -0.795710 0.000000 
0.429420 -0.847752 0.000000 
0.458977 -0.884827 0.000000 
0.026061 -0.756477 0.000000 
0.028809 -0.650770 0.000000 
0.054870 -0.696654 0.000000 
0.106992 -0.688421 0.000000 
0.029377 -0.548713 0.000000 
0.058186 -0.588890 0.000000 
0.114311 -0.573225 0.000000 
0.137056 -0.626872 0.000000 
0.186430 -0.624346 0.000000 
0.029568 -0.447659 0.000000 
0.058945 -0.485779 0.000000 
0.116563 -0.466133 0.000000 
0.143120 -0.513402 0.000000 
0.196633 -0.504693 0.000000 
0.217198 -0.561990 0.000000 
0.265318 -0.561190 0.000000 
0.029759 -0.346605 0.000000 
0.059328 -0.383671 0.000000 
0.117890 -0.360965 0.000000 
0.145749 -0.405307 0.000000 
0.201664 -0.391833 0.000000 
0.225992 -0.443951 0.000000 
0.278030 -0.438084 0.000000 
0.296791 -0.498027 0.000000 
0.344206 -0.498034 0.000000 
CELLS 175 350 
1 0 
1 1 
1 2 
1 3 
1 4 
1 5 
1 6 
1 7 
1 8 
1 9 
1 10 
1 11 
1 12 
1 13 
1 14 
1 15 
1 16 
1 17 
1 18 
1 19 
1 20 
1 21 
1 22 
1 23 
1 24 
1 25 
1 26 
1 27 
1 28 
1 29 
1 30 
1 31 
1 32 
1 33 
1 34 
1 35 
1 36 
1 37 
1 38 
1 39 
1 40 
1 41 
1 42 
1 43 
1 44 
1 45 
1 46 
1 47 
1 48 
1 49 
1 50 
1 51 
1 52 
1 53 
1 54 
1 55 
1 56 
1 57 
1 58 
1 59 
1 60 
1 61 
1 62 
1 63 
1 64 
1 65 
1 66 
1 67 
1 68 
1 69 
1 70 
1 71 
1 72 
1 73 
1 74 
1 75 
1 76 
1 77 
1 78 
1 79 
1 80 
1 81 
1 82 
1 83 
1 84 
1 85 
1 86 
1 87 
1 88 
1 89 
1 90 
1 91 
1 92 
1 93 
1 94 
1 95 
1 96 
1 97 
1 98 
1 99 
1 100 
1 101 
1 102 
1 103 
1 104 
1 105 
1 106 
1 107 
1 108 
1 109 
1 110 
1 111 
1 112 
1 113 
1 114 
1 115 
1 116 
1 117 
1 118 
1 119 
1 120 
1 121 
1 122 
1 123 
1 124 
1 125 
1 126 
1 127 
1 128 
1 129 
1 130 
1 131 
1 132 
1 133 
1 134 
1 135 
1 136 
1 137 
1 138 
1 139 
1 140 
1 141 
1 142 
1 143 
1 144 
1 145 
1 146 
1 147 
1 148 
1 149 
1 150 
1 151 
1 152 
1 153 
1 154 
1 155 
1 156 
1 157 
1 158 
1 159 
1 160 
1 161 
1 162 
1 163 
1 164 
1 165 
1 166 
1 167 
1 168 
1 169 
1 170 
1 171 
1 172 
1 173 
1 174 
CELL_TYPES 175 
1 
1 
1 
1 
1 
1 
1 
1 
1 
1 
1 
1 
1 
1 
1 
1 
1 
1 
1 
1 
1 
1 
1 
1 
1 
1 
1 
1 
1 
1 
1 
1 
1 
1 
1 
1 
1 
1 
1 
1 
1 
1 
1 
1 
1 
1 
1 
1 
1 
1 
1 
1 
1 
1 
1 
1 
1 
1 
1 
1 
1 
1 
1 
1 
1 
1 
1 
1 
1 
1 
1 
1 
1 
1 
1 
1 
1 
1 
1 
1 
1 
1 
1 
1 
1 
1 
1 
1 
1 
1 
1 
1 
1 
1 
1 
1 
1 
1 
1 
1 
1 
1 
1 
1 
1 
1 
1 
1 
1 
1 
1 
1 
1 
1 
1 
1 
1 
1 
1 
1 
1 
1 
1 
1 
1 
1 
1 
1 
1 
1 
1 
1 
1 
1 
1 
1 
1 
1 
1 
1 
1 
1 
1 
1 
1 
1 
1 
1 
1 
1 
1 
1 
1 
1 
1 
1 
1 
1 
1 
1 
1 
1 
1 
1 
1 
1 
1 
1 
1 
1 
1 
1 
1 
1 
1 
POINT_DATA 175 
VECTORS X_GC float 
-0.026061 -0.756477 0.000000 
-0.106992 -0.688421 0.000000 
-0.054870 -0.696654 0.000000 
-0.028809 -0.650770 0.000000 
-0.186430 -0.624346 0.000000 
-0.137056 -0.626872 0.000000 
-0.114311 -0.573225 0.000000 
-0.058186 -0.588890 0.000000 
-0.029377 -0.548713 0.000000 
-0.265318 -0.561190 0.000000 
-0.217198 -0.561990 0.000000 
-0.196633 -0.504693 0.000000 
-0.143120 -0.513402 0.000000 
-0.116563 -0.466133 0.000000 
-0.058945 -0.485779 0.000000 
-0.029568 -0.447659 0.000000 
-0.344206 -0.498034 0.000000 
-0.296791 -0.498027 0.000000 
-0.278030 -0.438084 0.000000 
-0.225992 -0.443951 0.000000 
-0.201664 -0.391833 0.000000 
-0.145749 -0.405307 0.000000 
-0.117890 -0.360965 0.000000 
-0.059328 -0.383671 0.000000 
-0.029759 -0.346605 0.000000 
-0.058559 -0.797227 0.000000 
-0.162226 -0.818070 0.000000 
-0.123292 -0.782452 0.000000 
-0.142917 -0.733469 0.000000 
-0.261851 -0.840226 0.000000 
-0.229092 -0.803199 0.000000 
-0.256854 -0.751968 0.000000 
-0.209613 -0.717855 0.000000 
-0.223062 -0.670281 0.000000 
-0.360414 -0.862527 0.000000 
-0.329787 -0.825404 0.000000 
-0.361761 -0.773602 0.000000 
-0.321587 -0.737193 0.000000 
-0.341985 -0.686959 0.000000 
-0.290702 -0.654160 0.000000 
-0.302189 -0.607425 0.000000 
-0.458977 -0.884827 0.000000 
-0.429420 -0.847752 0.000000 
-0.464588 -0.795710 0.000000 
-0.427556 -0.758683 0.000000 
-0.453135 -0.707168 0.000000 
-0.407738 -0.671853 0.000000 
-0.425037 -0.622425 0.000000 
-0.370772 -0.590795 0.000000 
-0.381315 -0.544568 0.000000 
-0.046960 -0.848043 0.000000 
-0.095301 -0.942089 0.000000 
-0.098873 -0.889441 0.000000 
-0.149405 -0.874244 0.000000 
-0.140093 -1.033793 0.000000 
-0.148617 -0.985094 0.000000 
-0.205981 -0.974857 0.000000 
-0.203197 -0.916654 0.000000 
-0.248777 -0.897507 0.000000 
-0.184111 -1.124756 0.000000 
-0.194039 -1.077665 0.000000 
-0.254475 -1.070365 0.000000 
-0.257893 -1.016256 0.000000 
-0.309886 -1.000883 0.000000 
-0.303554 -0.940338 0.000000 
-0.347255 -0.920180 0.000000 
-0.228129 -1.215720 0.000000 
-0.238687 -1.169495 0.000000 
-0.301302 -1.164543 0.000000 
-0.307162 -1.112505 0.000000 
-0.363386 -1.100384 0.000000 
-0.362692 -1.042872 0.000000 
-0.412122 -1.025579 0.000000 
-0.403017 -0.963432 0.000000 
-0.445733 -0.942853 0.000000 
-0.000000 -0.870658 0.000000 
0.043388 -0.967088 0.000000 
-0.000000 -0.937056 0.000000 
-0.043388 -0.967088 0.000000 
0.087158 -1.059285 0.000000 
0.043769 -1.035586 0.000000 
-0.000000 -1.074052 0.000000 
-0.043769 -1.035586 0.000000 
-0.087158 -1.059285 0.000000 
0.130831 -1.150414 0.000000 
0.087824 -1.128816 0.000000 
0.044436 -1.171515 0.000000 
-0.000000 -1.140450 0.000000 
-0.044436 -1.171515 0.000000 
-0.087824 -1.128816 0.000000 
-0.130831 -1.150414 0.000000 
0.174505 -1.241544 0.000000 
0.131782 -1.220978 0.000000 
0.088871 -1.266845 0.000000 
0.044532 -1.238981 0.000000 
-0.000000 -1.275381 0.000000 
-0.044532 -1.238981 0.000000 
-0.088871 -1.266845 0.000000 
-0.131782 -1.220978 0.000000 
-0.174505 -1.241544 0.000000 
0.046960 -0.848043 0.000000 
0.149405 -0.874244 0.000000 
0.098873 -0.889441 0.000000 
0.095301 -0.942089 0.000000 
0.248777 -0.897507 0.000000 
0.203197 -0.916654 0.000000 
0.205981 -0.974857 0.000000 
0.148617 -0.985094 0.000000 
0.140093 -1.033793 0.000000 
0.347255 -0.920180 0.000000 
0.303554 -0.940338 0.000000 
0.309886 -1.000883 0.000000 
0.257893 -1.016256 0.000000 
0.254475 -1.070365 0.000000 
0.194039 -1.077665 0.000000 
0.184111 -1.124756 0.000000 
0.445733 -0.942853 0.000000 
0.403017 -0.963432 0.000000 
0.412122 -1.025579 0.000000 
0.362692 -1.042872 0.000000 
0.363386 -1.100384 0.000000 
0.307162 -1.112505 0.000000 
0.301302 -1.164543 0.000000 
0.238687 -1.169495 0.000000 
0.228129 -1.215720 0.000000 
0.058559 -0.797227 0.000000 
0.142917 -0.733469 0.000000 
0.123292 -0.782452 0.000000 
0.162226 -0.818070 0.000000 
0.223062 -0.670281 0.000000 
0.209613 -0.717855 0.000000 
0.256854 -0.751968 0.000000 
0.229092 -0.803199 0.000000 
0.261851 -0.840226 0.000000 
0.302189 -0.607425 0.000000 
0.290702 -0.654160 0.000000 
0.341985 -0.686959 0.000000 
0.321587 -0.737193 0.000000 
0.361761 -0.773602 0.000000 
0.329787 -0.825404 0.000000 
0.360414 -0.862527 0.000000 
0.381315 -0.544568 0.000000 
0.370772 -0.590795 0.000000 
0.425037 -0.622425 0.000000 
0.407738 -0.671853 0.000000 
0.453135 -0.707168 0.000000 
0.427556 -0.758683 0.000000 
0.464588 -0.795710 0.000000 
0.429420 -0.847752 0.000000 
0.458977 -0.884827 0.000000 
0.026061 -0.756477 0.000000 
0.028809 -0.650770 0.000000 
0.054870 -0.696654 0.000000 
0.106992 -0.688421 0.000000 
0.029377 -0.548713 0.000000 
0.058186 -0.588890 0.000000 
0.114311 -0.573225 0.000000 
0.137056 -0.626872 0.000000 
0.186430 -0.624346 0.000000 
0.029568 -0.447659 0.000000 
0.058945 -0.485779 0.000000 
0.116563 -0.466133 0.000000 
0.143120 -0.513402 0.000000 
0.196633 -0.504693 0.000000 
0.217198 -0.561990 0.000000 
0.265318 -0.561190 0.000000 
0.029759 -0.346605 0.000000 
0.059328 -0.383671 0.000000 
0.117890 -0.360965 0.000000 
0.145749 -0.405307 0.000000 
0.201664 -0.391833 0.000000 
0.225992 -0.443951 0.000000 
0.278030 -0.438084 0.000000 
0.296791 -0.498027 0.000000 
0.344206 -0.498034 0.000000 
VECTORS X_EC float 
0.338794 0.712435 0.000000 
-0.609100 -0.206314 0.000000 
0.713312 -0.095173 0.000000 
0.374519 -0.714602 0.000000 
0.423588 0.928667 0.000000 
-0.218274 0.962771 0.000000 
-0.513962 0.238532 0.000000 
0.756418 0.450018 0.000000 
0.381900 -0.092374 0.000000 
-0.550868 0.076064 0.000000 
0.823577 0.086860 0.000000 
0.556234 -0.686644 0.000000 
-0.139443 -0.569076 0.000000 
-0.484677 0.792800 0.000000 
0.766286 -0.941985 0.000000 
0.384386 0.543395 0.000000 
0.474677 -0.776539 0.000000 
-0.141715 -0.776636 0.000000 
-0.385608 0.414136 0.000000 
0.937896 0.493332 0.000000 
0.621631 -0.210248 0.000000 
-0.105264 -0.028349 0.000000 
-0.467428 -0.626975 0.000000 
0.771260 -0.320447 0.000000 
0.386873 -0.820836 0.000000 
0.761262 -0.737431 0.000000 
0.108942 -0.456054 0.000000 
-0.397202 -0.936893 0.000000 
-0.142083 0.401831 0.000000 
-0.595936 -0.156943 0.000000 
0.978194 -0.656809 0.000000 
-0.660903 0.651566 0.000000 
0.724964 0.191046 0.000000 
0.899809 -0.451203 0.000000 
0.685384 0.144109 0.000000 
0.287229 -0.357050 0.000000 
0.702895 0.943622 0.000000 
0.180633 0.452103 0.000000 
0.445811 -0.226056 0.000000 
-0.220880 -0.668842 0.000000 
-0.071546 0.700232 0.000000 
-0.033296 0.445161 0.000000 
-0.417537 -0.055349 0.000000 
0.039645 -0.757911 0.000000 
-0.441768 0.742218 0.000000 
-0.109248 0.046767 0.000000 
-0.699407 -0.429989 0.000000 
-0.474522 0.902732 0.000000 
0.820030 0.475739 0.000000 
0.957100 -0.148333 0.000000 
0.610485 -0.051424 0.000000 
-0.761092 -0.781805 0.000000 
-0.714655 0.507458 0.000000 
-0.057734 0.302290 0.000000 
-0.178789 0.456199 0.000000 
-0.067979 -0.201227 0.000000 
0.677748 -0.339430 0.000000 
0.641556 0.874825 0.000000 
-0.765897 0.616346 0.000000 
0.393446 -0.315792 0.000000 
0.522510 -0.951522 0.000000 
-0.691820 0.949934 0.000000 
-0.647393 0.219452 0.000000 
0.028512 0.011925 0.000000 
-0.053800 -0.805435 0.000000 
0.514316 0.922434 0.000000 
0.965681 0.912217 0.000000 
-0.897068 0.288189 0.000000 
-0.083078 0.221336 0.000000 
-0.006893 -0.481189 0.000000 
0.724017 -0.644822 0.000000 
0.714996 0.578775 0.000000 
-0.642413 0.345317 0.000000 
-0.760780 -0.493663 0.000000 
-0.205471 -0.771479 0.000000 
0.000000 0.253877 0.000000 
-0.564049 -0.444310 0.000000 
0.000000 -0.849746 0.000000 
0.564049 -0.444310 0.000000 
0.866949 0.800345 0.000000 
-0.569003 0.480414 0.000000 
0.000000 0.999703 0.000000 
0.569003 0.480414 0.000000 
-0.866949 0.800345 0.000000 
0.299194 0.030596 0.000000 
0.858290 -0.260988 0.000000 
-0.577662 0.315458 0.000000 
0.000000 -0.103921 0.000000 
0.577662 0.315458 0.000000 
-0.858290 -0.260988 0.000000 
-0.299194 0.030596 0.000000 
-0.268560 -0.739154 0.000000 
0.286830 0.983204 0.000000 
0.844677 -0.397598 0.000000 
-0.578910 -0.773760 0.000000 
0.000000 -0.282357 0.000000 
0.578910 -0.773760 0.000000 
-0.844677 -0.397598 0.000000 
-0.286830 0.983204 0.000000 
0.268560 -0.739154 0.000000 
-0.610485 -0.051424 0.000000 
0.057734 0.302290 0.000000 
0.714655 0.507458 0.000000 
0.761092 -0.781805 0.000000 
0.765897 0.616346 0.000000 
-0.641556 0.874825 0.000000 
-0.677748 -0.339430 0.000000 
0.067979 -0.201227 0.000000 
0.178789 0.456199 0.000000 
-0.514316 0.922434 0.000000 
0.053800 -0.805435 0.000000 
-0.028512 0.011925 0.000000 
0.647393 0.219452 0.000000 
0.691820 0.949934 0.000000 
-0.522510 -0.951521 0.000000 
-0.393446 -0.315792 0.000000 
0.205471 -0.771479 0.000000 
0.760780 -0.493663 0.000000 
0.642413 0.345317 0.000000 
-0.714996 0.578775 0.000000 
-0.724017 -0.644822 0.000000 
0.006894 -0.481189 0.000000 
0.083078 0.221336 0.000000 
0.897068 0.288189 0.000000 
-0.965681 0.912217 0.000000 
-0.761262 -0.737431 0.000000 
0.142083 0.401831 0.000000 
0.397202 -0.936893 0.000000 
-0.108942 -0.456054 0.000000 
-0.899809 -0.451203 0.000000 
-0.724964 0.191046 0.000000 
0.660903 0.651566 0.000000 
-0.978194 -0.656809 0.000000 
0.595936 -0.156943 0.000000 
0.071546 0.700232 0.000000 
0.220880 -0.668842 0.000000 
-0.445811 -0.226056 0.000000 
-0.180633 0.452103 0.000000 
-0.702895 0.943622 0.000000 
-0.287229 -0.357050 0.000000 
-0.685384 0.144109 0.000000 
-0.957100 -0.148333 0.000000 
-0.820030 0.475739 0.000000 
0.474522 0.902732 0.000000 
0.699407 -0.429989 0.000000 
0.109248 0.046767 0.000000 
0.441768 0.742218 0.000000 
-0.039645 -0.757911 0.000000 
0.417537 -0.055349 0.000000 
0.033296 0.445161 0.000000 
-0.338794 0.712435 0.000000 
-0.374519 -0.714602 0.000000 
-0.713312 -0.095173 0.000000 
0.609100 -0.206314 0.000000 
-0.381900 -0.092374 0.000000 
-0.756418 0.450018 0.000000 
0.513962 0.238532 0.000000 
0.218274 0.962771 0.000000 
-0.423588 0.928667 0.000000 
-0.384386 0.543395 0.000000 
-0.766286 -0.941985 0.000000 
0.484677 0.792800 0.000000 
0.139443 -0.569076 0.000000 
-0.556234 -0.686644 0.000000 
-0.823577 0.086860 0.000000 
0.550868 0.076064 0.000000 
-0.386873 -0.820836 0.000000 
-0.771260 -0.320447 0.000000 
0.467428 -0.626975 0.000000 
0.105264 -0.028349 0.000000 
-0.621631 -0.210248 0.000000 
-0.937896 0.493332 0.000000 
0.385608 0.414136 0.000000 
0.141715 -0.776636 0.000000 
-0.474677 -0.776539 0.000000 
CELL_DATA 175 
SCALARS MASS float 
LOOKUP_TABLE default 
0.078183 
0.086427 
0.094672 
0.086427 
0.088131 
0.092111 
0.085854 
0.092111 
0.088131 
0.088705 
0.091000 
0.086983 
0.091556 
0.086983 
0.091000 
0.088705 
0.089278 
0.091574 
0.089278 
0.092722 
0.089278 
0.092722 
0.089278 
0.091574 
0.089278 
0.078183 
0.086427 
0.094672 
0.086427 
0.088131 
0.092111 
0.085854 
0.092111 
0.088131 
0.088705 
0.091000 
0.086983 
0.091556 
0.086983 
0.091000 
0.088705 
0.089278 
0.091574 
0.089278 
0.092722 
0.089278 
0.092722 
0.089278 
0.091574 
0.089278 
0.078183 
0.086427 
0.094672 
0.086427 
0.088131 
0.092111 
0.085854 
0.092111 
0.088131 
0.088705 
0.091000 
0.086983 
0.091556 
0.086983 
0.091000 
0.088705 
0.089278 
0.091574 
0.089278 
0.092722 
0.089278 
0.092722 
0.089278 
0.091574 
0.089278 
0.078183 
0.086427 
0.094672 
0.086427 
0.088131 
0.092111 
0.085854 
0.092111 
0.088131 
0.088705 
0.091000 
0.086983 
0.091556 
0.086983 
0.091000 
0.088705 
0.089278 
0.091574 
0.089278 
0.092722 
0.089278 
0.092722 
0.089278 
0.091574 
0.089278 
0.078183 
0.086427 
0.094672 
0.086427 
0.088131 
0.092111 
0.085854 
0.092111 
0.088131 
0.088705 
0.091000 
0.086983 
0.091556 
0.086983 
0.091000 
0.088705 
0.089278 
0.091574 
0.089278 
0.092722 
0.089278 
0.092722 
0.089278 
0.091574 
0.089278 
0.078183 
0.086427 
0.094672 
0.086427 
0.088131 
0.092111 
0.085854 
0.092111 
0.088131 
0.088705 
0.091000 
0.086983 
0.091556 
0.086983 
0.091000 
0.088705 
0.089278 
0.091574 
0.089278 
0.092722 
0.089278 
0.092722 
0.089278 
0.091574 
0.089278 
0.078183 
0.086427 
0.094672 
0.086427 
0.088131 
0.092111 
0.085854 
0.092111 
0.088131 
0.088705 
0.091000 
0.086983 
0.091556 
0.086983 
0.091000 
0.088705 
0.089278 
0.091574 
0.089278 
0.092722 
0.089278 
0.092722 
0.089278 
0.091574 
0.089278 
SCALARS MASS float 
LOOKUP_TABLE default 
0.078183 
0.086427 
0.094672 
0.086427 
0.088131 
0.092111 
0.085854 
0.092111 
0.088131 
0.088705 
0.091000 
0.086983 
0.091556 
0.086983 
0.091000 
0.088705 
0.089278 
0.091574 
0.089278 
0.092722 
0.089278 
0.092722 
0.089278 
0.091574 
0.089278 
0.078183 
0.086427 
0.094672 
0.086427 
0.088131 
0.092111 
0.085854 
0.092111 
0.088131 
0.088705 
0.091000 
0.086983 
0.091556 
0.086983 
0.091000 
0.088705 
0.089278 
0.091574 
0.089278 
0.092722 
0.089278 
0.092722 
0.089278 
0.091574 
0.089278 
0.078183 
0.086427 
0.094672 
0.086427 
0.088131 
0.092111 
0.085854 
0.092111 
0.088131 
0.088705 
0.091000 
0.086983 
0.091556 
0.086983 
0.091000 
0.088705 
0.089278 
0.091574 
0.089278 
0.092722 
0.089278 
0.092722 
0.089278 
0.091574 
0.089278 
0.078183 
0.086427 
0.094672 
0.086427 
0.088131 
0.092111 
0.085854 
0.092111 
0.088131 
0.088705 
0.091000 
0.086983 
0.091556 
0.086983 
0.091000 
0.088705 
0.089278 
0.091574 
0.089278 
0.092722 
0.089278 
0.092722 
0.089278 
0.091574 
0.089278 
0.078183 
0.086427 
0.094672 
0.086427 
0.088131 
0.092111 
0.085854 
0.092111 
0.088131 
0.088705 
0.091000 
0.086983 
0.091556 
0.086983 
0.091000 
0.088705 
0.089278 
0.091574 
0.089278 
0.092722 
0.089278 
0.092722 
0.089278 
0.091574 
0.089278 
0.078183 
0.086427 
0.094672 
0.086427 
0.088131 
0.092111 
0.085854 
0.092111 
0.088131 
0.088705 
0.091000 
0.086983 
0.091556 
0.086983 
0.091000 
0.088705 
0.089278 
0.091574 
0.089278 
0.092722 
0.089278 
0.092722 
0.089278 
0.091574 
0.089278 
0.078183 
0.086427 
0.094672 
0.086427 
0.088131 
0.092111 
0.085854 
0.092111 
0.088131 
0.088705 
0.091000 
0.086983 
0.091556 
0.086983 
0.091000 
0.088705 
0.089278 
0.091574 
0.089278 
0.092722 
0.089278 
0.092722 
0.089278 
0.091574 
0.089278 
SCALARS DENSITY float 
LOOKUP_TABLE default 
20.000000 
20.000000 
20.000000 
20.000000 
20.000000 
20.000000 
20.000000 
20.000000 
20.000000 
20.000000 
20.000000 
20.000000 
20.000000 
20.000000 
20.000000 
20.000000 
20.000000 
20.000000 
20.000000 
20.000000 
20.000000 
20.000000 
20.000000 
20.000000 
20.000000 
20.000000 
20.000000 
20.000000 
20.000000 
20.000000 
20.000000 
20.000000 
20.000000 
20.000000 
20.000000 
20.000000 
20.000000 
20.000000 
20.000000 
20.000000 
20.000000 
20.000000 
20.000000 
20.000000 
20.000000 
20.000000 
20.000000 
20.000000 
20.000000 
20.000000 
20.000000 
20.000000 
20.000000 
20.000000 
20.000000 
20.000000 
20.000000 
20.000000 
20.000000 
20.000000 
20.000000 
20.000000 
20.000000 
20.000000 
20.000000 
20.000000 
20.000000 
20.000000 
20.000000 
20.000000 
20.000000 
20.000000 
20.000000 
20.000000 
20.000000 
20.000000 
20.000000 
20.000000 
20.000000 
20.000000 
20.000000 
20.000000 
20.000000 
20.000000 
20.000000 
20.000000 
20.000000 
20.000000 
20.000000 
20.000000 
20.000000 
20.000000 
20.000000 
20.000000 
20.000000 
20.000000 
20.000000 
20.000000 
20.000000 
20.000000 
20.000000 
20.000000 
20.000000 
20.000000 
20.000000 
20.000000 
20.000000 
20.000000 
20.000000 
20.000000 
20.000000 
20.000000 
20.000000 
20.000000 
20.000000 
20.000000 
20.000000 
20.000000 
20.000000 
20.000000 
20.000000 
20.000000 
20.000000 
20.000000 
20.000000 
20.000000 
20.000000 
20.000000 
20.000000 
20.000000 
20.000000 
20.000000 
20.000000 
20.000000 
20.000000 
20.000000 
20.000000 
20.000000 
20.000000 
20.000000 
20.000000 
20.000000 
20.000000 
20.000000 
20.000000 
20.000000 
20.000000 
20.000000 
20.000000 
20.000000 
20.000000 
20.000000 
20.000000 
20.000000 
20.000000 
20.000000 
20.000000 
20.000000 
20.000000 
20.000000 
20.000000 
20.000000 
20.000000 
20.000000 
20.000000 
20.000000 
20.000000 
20.000000 
20.000000 
20.000000 
20.000000 
20.000000 
20.000000 
20.000000 
20.000000 
SCALARS ELEM_i float 
LOOKUP_TABLE default 
177 
204 
177 
177 
205 
205 
205 
178 
178 
232 
205 
205 
205 
206 
178 
179 
232 
232 
233 
206 
206 
206 
206 
179 
179 
176 
203 
203 
204 
230 
203 
231 
204 
204 
230 
230 
231 
231 
231 
231 
232 
257 
257 
257 
258 
258 
258 
259 
232 
232 
176 
202 
203 
203 
202 
202 
202 
203 
230 
201 
201 
229 
229 
229 
229 
230 
201 
228 
228 
228 
228 
229 
256 
256 
256 
176 
175 
175 
175 
148 
175 
175 
175 
202 
147 
147 
174 
174 
174 
201 
201 
146 
147 
146 
173 
173 
173 
200 
201 
200 
176 
149 
149 
148 
122 
149 
148 
148 
148 
122 
121 
121 
121 
121 
147 
147 
94 
94 
94 
121 
120 
120 
120 
120 
147 
176 
150 
149 
149 
150 
150 
123 
149 
122 
124 
123 
123 
123 
123 
122 
122 
124 
124 
97 
96 
96 
96 
95 
95 
95 
177 
177 
177 
150 
178 
178 
151 
151 
151 
179 
178 
152 
151 
151 
151 
124 
179 
179 
152 
152 
152 
152 
125 
124 
124 
VECTORS VELOCITY float 
-0.000000 -3.987569 0.000000 
-0.000000 -3.987569 0.000000 
-0.000000 -3.987569 0.000000 
-0.000000 -3.987569 0.000000 
0.000000 -3.987569 0.000000 
0.000000 -3.987569 0.000000 
-0.000000 -3.987569 0.000000 
-0.000000 -3.987569 0.000000 
-0.000000 -3.987569 0.000000 
0.000000 -3.987569 0.000000 
0.000000 -3.987569 0.000000 
-0.000000 -3.987569 0.000000 
-0.000000 -3.987569 0.000000 
-0.000000 -3.987569 0.000000 
-0.000000 -3.987569 0.000000 
0.000000 -3.987569 0.000000 
0.000000 -3.987569 0.000000 
-0.000000 -3.987569 0.000000 
0.000000 -3.987569 0.000000 
-0.000000 -3.987569 0.000000 
0.000000 -3.987569 0.000000 
0.000000 -3.987569 0.000000 
0.000000 -3.987569 0.000000 
0.000000 -3.987569 0.000000 
-0.000000 -3.987569 0.000000 
0.000000 -3.987569 0.000000 
-0.000000 -3.987569 0.000000 
-0.000000 -3.987569 0.000000 
-0.000000 -3.987569 0.000000 
-0.000000 -3.987569 0.000000 
-0.000000 -3.987569 0.000000 
-0.000000 -3.987569 0.000000 
-0.000000 -3.987569 0.000000 
0.000000 -3.987569 0.000000 
0.000000 -3.987569 0.000000 
-0.000000 -3.987569 0.000000 
-0.000000 -3.987569 0.000000 
-0.000000 -3.987569 0.000000 
-0.000000 -3.987569 0.000000 
-0.000000 -3.987569 0.000000 
0.000000 -3.987569 0.000000 
-0.000000 -3.987569 0.000000 
-0.000000 -3.987569 0.000000 
-0.000000 -3.987569 0.000000 
-0.000000 -3.987569 0.000000 
-0.000000 -3.987569 0.000000 
-0.000000 -3.987569 0.000000 
0.000000 -3.987569 0.000000 
0.000000 -3.987569 0.000000 
0.000000 -3.987569 0.000000 
0.000000 -3.987569 0.000000 
-0.000000 -3.987569 0.000000 
0.000000 -3.987569 0.000000 
-0.000000 -3.987569 0.000000 
0.000000 -3.987569 0.000000 
0.000000 -3.987569 0.000000 
0.000000 -3.987569 0.000000 
-0.000000 -3.987569 0.000000 
-0.000000 -3.987569 0.000000 
-0.000000 -3.987569 0.000000 
0.000000 -3.987569 0.000000 
-0.000000 -3.987569 0.000000 
0.000000 -3.987569 0.000000 
0.000000 -3.987569 0.000000 
0.000000 -3.987569 0.000000 
0.000000 -3.987569 0.000000 
0.000000 -3.987569 0.000000 
-0.000000 -3.987569 0.000000 
0.000000 -3.987569 0.000000 
-0.000000 -3.987569 0.000000 
-0.000000 -3.987569 0.000000 
0.000000 -3.987569 0.000000 
-0.000000 -3.987569 0.000000 
-0.000000 -3.987569 0.000000 
-0.000000 -3.987569 0.000000 
0.000000 -3.987569 0.000000 
-0.000000 -3.987569 0.000000 
-0.000000 -3.987569 0.000000 
-0.000000 -3.987569 0.000000 
0.000000 -3.987569 0.000000 
0.000000 -3.987569 0.000000 
0.000000 -3.987569 0.000000 
-0.000000 -3.987569 0.000000 
0.000000 -3.987569 0.000000 
-0.000000 -3.987569 0.000000 
-0.000000 -3.987569 0.000000 
-0.000000 -3.987569 0.000000 
-0.000000 -3.987569 0.000000 
0.000000 -3.987569 0.000000 
0.000000 -3.987569 0.000000 
-0.000000 -3.987569 0.000000 
0.000000 -3.987569 0.000000 
0.000000 -3.987569 0.000000 
0.000000 -3.987569 0.000000 
-0.000000 -3.987569 0.000000 
0.000000 -3.987569 0.000000 
-0.000000 -3.987569 0.000000 
0.000000 -3.987569 0.000000 
-0.000000 -3.987569 0.000000 
-0.000000 -3.987569 0.000000 
-0.000000 -3.987569 0.000000 
-0.000000 -3.987569 0.000000 
-0.000000 -3.987569 0.000000 
-0.000000 -3.987569 0.000000 
-0.000000 -3.987569 0.000000 
-0.000000 -3.987569 0.000000 
-0.000000 -3.987569 0.000000 
-0.000000 -3.987569 0.000000 
0.000000 -3.987569 0.000000 
0.000000 -3.987569 0.000000 
0.000000 -3.987569 0.000000 
-0.000000 -3.987569 0.000000 
-0.000000 -3.987569 0.000000 
-0.000000 -3.987569 0.000000 
-0.000000 -3.987569 0.000000 
-0.000000 -3.987569 0.000000 
-0.000000 -3.987569 0.000000 
-0.000000 -3.987569 0.000000 
-0.000000 -3.987569 0.000000 
-0.000000 -3.987569 0.000000 
0.000000 -3.987569 0.000000 
0.000000 -3.987569 0.000000 
0.000000 -3.987569 0.000000 
0.000000 -3.987569 0.000000 
0.000000 -3.987569 0.000000 
-0.000000 -3.987569 0.000000 
-0.000000 -3.987569 0.000000 
-0.000000 -3.987569 0.000000 
-0.000000 -3.987569 0.000000 
0.000000 -3.987569 0.000000 
0.000000 -3.987569 0.000000 
0.000000 -3.987569 0.000000 
-0.000000 -3.987569 0.000000 
-0.000000 -3.987569 0.000000 
0.000000 -3.987569 0.000000 
0.000000 -3.987569 0.000000 
-0.000000 -3.987569 0.000000 
-0.000000 -3.987569 0.000000 
-0.000000 -3.987569 0.000000 
-0.000000 -3.987569 0.000000 
0.000000 -3.987569 0.000000 
0.000000 -3.987569 0.000000 
0.000000 -3.987569 0.000000 
0.000000 -3.987569 0.000000 
-0.000000 -3.987569 0.000000 
0.000000 -3.987569 0.000000 
-0.000000 -3.987569 0.000000 
0.000000 -3.987569 0.000000 
0.000000 -3.987569 0.000000 
0.000000 -3.987569 0.000000 
-0.000000 -3.987569 0.000000 
-0.000000 -3.987569 0.000000 
-0.000000 -3.987569 0.000000 
-0.000000 -3.987569 0.000000 
0.000000 -3.987569 0.000000 
0.000000 -3.987569 0.000000 
0.000000 -3.987569 0.000000 
0.000000 -3.987569 0.000000 
0.000000 -3.987569 0.000000 
0.000000 -3.987569 0.000000 
0.000000 -3.987569 0.000000 
0.000000 -3.987569 0.000000 
0.000000 -3.987569 0.000000 
-0.000000 -3.987569 0.000000 
0.000000 -3.987569 0.000000 
0.000000 -3.987569 0.000000 
-0.000000 -3.987569 0.000000 
0.000000 -3.987569 0.000000 
0.000000 -3.987569 0.000000 
0.000000 -3.987569 0.000000 
-0.000000 -3.987569 0.000000 
-0.000000 -3.987569 0.000000 
0.000000 -3.987569 0.000000 
0.000000 -3.987569 0.000000 
0.000000 -3.987569 0.000000 
TENSORS STRESS float 
0.000000 -0.000000 0.000000 
0.000000 0.000000 0.000000 
0.000000 0.000000 0.000000 

-0.000000 0.000000 0.000000 
0.000000 0.000000 0.000000 
0.000000 0.000000 0.000000 

0.000000 -0.000000 0.000000 
0.000000 -0.000000 0.000000 
0.000000 0.000000 0.000000 

-0.000000 0.000000 0.000000 
0.000000 -0.000000 0.000000 
0.000000 0.000000 0.000000 

0.000000 -0.000000 0.000000 
0.000000 0.000000 0.000000 
0.000000 0.000000 0.000000 

0.000000 -0.000000 0.000000 
0.000000 0.000000 0.000000 
0.000000 0.000000 0.000000 

-0.000000 -0.000000 0.000000 
0.000000 -0.000000 0.000000 
0.000000 0.000000 0.000000 

0.000000 -0.000000 0.000000 
0.000000 0.000000 0.000000 
0.000000 0.000000 0.000000 

-0.000000 0.000000 0.000000 
0.000000 -0.000000 0.000000 
0.000000 0.000000 0.000000 

-0.000000 0.000000 0.000000 
0.000000 0.000000 0.000000 
0.000000 0.000000 0.000000 

-0.000000 -0.000000 0.000000 
0.000000 0.000000 0.000000 
0.000000 0.000000 0.000000 

-0.000000 0.000000 0.000000 
0.000000 -0.000000 0.000000 
0.000000 0.000000 0.000000 

-0.000000 -0.000000 0.000000 
0.000000 0.000000 0.000000 
0.000000 0.000000 0.000000 

-0.000000 -0.000000 0.000000 
0.000000 -0.000000 0.000000 
0.000000 0.000000 0.000000 

-0.000000 -0.000000 0.000000 
0.000000 -0.000000 0.000000 
0.000000 0.000000 0.000000 

0.000000 0.000000 0.000000 
0.000000 0.000000 0.000000 
0.000000 0.000000 0.000000 

0.000000 -0.000000 0.000000 
0.000000 0.000000 0.000000 
0.000000 0.000000 0.000000 

-0.000000 -0.000000 0.000000 
0.000000 -0.000000 0.000000 
0.000000 0.000000 0.000000 

-0.000000 -0.000000 0.000000 
0.000000 -0.000000 0.000000 
0.000000 0.000000 0.000000 

-0.000000 -0.000000 0.000000 
0.000000 -0.000000 0.000000 
0.000000 0.000000 0.000000 

0.000000 -0.000000 0.000000 
0.000000 0.000000 0.000000 
0.000000 0.000000 0.000000 

0.000000 -0.000000 0.000000 
0.000000 0.000000 0.000000 
0.000000 0.000000 0.000000 

-0.000000 -0.000000 0.000000 
0.000000 -0.000000 0.000000 
0.000000 0.000000 0.000000 

-0.000000 -0.000000 0.000000 
0.000000 -0.000000 0.000000 
0.000000 0.000000 0.000000 

0.000000 -0.000000 0.000000 
0.000000 0.000000 0.000000 
0.000000 0.000000 0.000000 

-0.000000 0.000000 0.000000 
0.000000 0.000000 0.000000 
0.000000 0.000000 0.000000 

0.000000 0.000000 0.000000 
0.000000 0.000000 0.000000 
0.000000 0.000000 0.000000 

0.000000 -0.000000 0.000000 
0.000000 0.000000 0.000000 
0.000000 0.000000 0.000000 

-0.000000 -0.000000 0.000000 
0.000000 -0.000000 0.000000 
0.000000 0.000000 0.000000 

-0.000000 0.000000 0.000000 
0.000000 -0.000000 0.000000 
0.000000 0.000000 0.000000 

0.000000 -0.000000 0.000000 
0.000000 -0.000000 0.000000 
0.000000 0.000000 0.000000 

-0.000000 -0.000000 0.000000 
0.000000 -0.000000 0.000000 
0.000000 0.000000 0.000000 

0.000000 -0.000000 0.000000 
0.000000 0.000000 0.000000 
0.000000 0.000000 0.000000 

-0.000000 -0.000000 0.000000 
0.000000 0.000000 0.000000 
0.000000 0.000000 0.000000 

-0.000000 0.000000 0.000000 
0.000000 -0.000000 0.000000 
0.000000 0.000000 0.000000 

-0.000000 0.000000 0.000000 
0.000000 0.000000 0.000000 
0.000000 0.000000 0.000000 

0.000000 -0.000000 0.000000 
0.000000 0.000000 0.000000 
0.000000 0.000000 0.000000 

0.000000 0.000000 0.000000 
0.000000 0.000000 0.000000 
0.000000 0.000000 0.000000 

0.000000 -0.000000 0.000000 
0.000000 0.000000 0.000000 
0.000000 0.000000 0.000000 

-0.000000 -0.000000 0.000000 
0.000000 0.000000 0.000000 
0.000000 0.000000 0.000000 

-0.000000 -0.000000 0.000000 
0.000000 0.000000 0.000000 
0.000000 0.000000 0.000000 

0.000000 0.000000 0.000000 
0.000000 0.000000 0.000000 
0.000000 0.000000 0.000000 

0.000000 0.000000 0.000000 
0.000000 0.000000 0.000000 
0.000000 0.000000 0.000000 

0.000000 -0.000000 0.000000 
0.000000 0.000000 0.000000 
0.000000 0.000000 0.000000 

0.000000 0.000000 0.000000 
0.000000 0.000000 0.000000 
0.000000 0.000000 0.000000 

0.000000 -0.000000 0.000000 
0.000000 0.000000 0.000000 
0.000000 0.000000 0.000000 

-0.000000 -0.000000 0.000000 
0.000000 -0.000000 0.000000 
0.000000 0.000000 0.000000 

0.000000 -0.000000 0.000000 
0.000000 -0.000000 0.000000 
0.000000 0.000000 0.000000 

-0.000000 -0.000000 0.000000 
0.000000 -0.000000 0.000000 
0.000000 0.000000 0.000000 

-0.000000 0.000000 0.000000 
0.000000 -0.000000 0.000000 
0.000000 0.000000 0.000000 

-0.000000 0.000000 0.000000 
0.000000 0.000000 0.000000 
0.000000 0.000000 0.000000 

-0.000000 -0.000000 0.000000 
0.000000 -0.000000 0.000000 
0.000000 0.000000 0.000000 

-0.000000 0.000000 0.000000 
0.000000 -0.000000 0.000000 
0.000000 0.000000 0.000000 

0.000000 0.000000 0.000000 
0.000000 -0.000000 0.000000 
0.000000 0.000000 0.000000 

-0.000000 0.000000 0.000000 
0.000000 -0.000000 0.000000 
0.000000 0.000000 0.000000 

-0.000000 0.000000 0.000000 
0.000000 -0.000000 0.000000 
0.000000 0.000000 0.000000 

0.000000 0.000000 0.000000 
0.000000 0.000000 0.000000 
0.000000 0.000000 0.000000 

0.000000 0.000000 0.000000 
0.000000 0.000000 0.000000 
0.000000 0.000000 0.000000 

0.000000 0.000000 0.000000 
0.000000 0.000000 0.000000 
0.000000 0.000000 0.000000 

0.000000 0.000000 0.000000 
0.000000 0.000000 0.000000 
0.000000 0.000000 0.000000 

0.000000 0.000000 0.000000 
0.000000 0.000000 0.000000 
0.000000 0.000000 0.000000 

0.000000 0.000000 0.000000 
0.000000 0.000000 0.000000 
0.000000 0.000000 0.000000 

-0.000000 0.000000 0.000000 
0.000000 -0.000000 0.000000 
0.000000 0.000000 0.000000 

0.000000 0.000000 0.000000 
0.000000 0.000000 0.000000 
0.000000 0.000000 0.000000 

0.000000 0.000000 0.000000 
0.000000 -0.000000 0.000000 
0.000000 0.000000 0.000000 

-0.000000 0.000000 0.000000 
0.000000 -0.000000 0.000000 
0.000000 0.000000 0.000000 

-0.000000 -0.000000 0.000000 
0.000000 -0.000000 0.000000 
0.000000 0.000000 0.000000 

0.000000 -0.000000 0.000000 
0.000000 -0.000000 0.000000 
0.000000 0.000000 0.000000 

-0.000000 0.000000 0.000000 
0.000000 -0.000000 0.000000 
0.000000 0.000000 0.000000 

0.000000 -0.000000 0.000000 
0.000000 0.000000 0.000000 
0.000000 0.000000 0.000000 

0.000000 -0.000000 0.000000 
0.000000 0.000000 0.000000 
0.000000 0.000000 0.000000 

0.000000 0.000000 0.000000 
0.000000 0.000000 0.000000 
0.000000 0.000000 0.000000 

0.000000 0.000000 0.000000 
0.000000 0.000000 0.000000 
0.000000 0.000000 0.000000 

-0.000000 0.000000 0.000000 
0.000000 -0.000000 0.000000 
0.000000 0.000000 0.000000 

-0.000000 0.000000 0.000000 
0.000000 0.000000 0.000000 
0.000000 0.000000 0.000000 

-0.000000 0.000000 0.000000 
0.000000 -0.000000 0.000000 
0.000000 0.000000 0.000000 

-0.000000 -0.000000 0.000000 
0.000000 -0.000000 0.000000 
0.000000 0.000000 0.000000 

0.000000 -0.000000 0.000000 
0.000000 -0.000000 0.000000 
0.000000 0.000000 0.000000 

0.000000 -0.000000 0.000000 
0.000000 0.000000 0.000000 
0.000000 0.000000 0.000000 

0.000000 0.000000 0.000000 
0.000000 -0.000000 0.000000 
0.000000 0.000000 0.000000 

0.000000 0.000000 0.000000 
0.000000 0.000000 0.000000 
0.000000 0.000000 0.000000 

-0.000000 0.000000 0.000000 
0.000000 -0.000000 0.000000 
0.000000 0.000000 0.000000 

0.000000 0.000000 0.000000 
0.000000 -0.000000 0.000000 
0.000000 0.000000 0.000000 

-0.000000 -0.000000 0.000000 
0.000000 -0.000000 0.000000 
0.000000 0.000000 0.000000 

-0.000000 0.000000 0.000000 
0.000000 -0.000000 0.000000 
0.000000 0.000000 0.000000 

0.000000 0.000000 0.000000 
0.000000 -0.000000 0.000000 
0.000000 0.000000 0.000000 

-0.000000 -0.000000 0.000000 
0.000000 -0.000000 0.000000 
0.000000 0.000000 0.000000 

-0.000000 -0.000000 0.000000 
0.000000 -0.000000 0.000000 
0.000000 0.000000 0.000000 

-0.000000 0.000000 0.000000 
0.000000 -0.000000 0.000000 
0.000000 0.000000 0.000000 

-0.000000 0.000000 0.000000 
0.000000 -0.000000 0.000000 
0.000000 0.000000 0.000000 

0.000000 0.000000 0.000000 
0.000000 0.000000 0.000000 
0.000000 0.000000 0.000000 

-0.000000 0.000000 0.000000 
0.000000 -0.000000 0.000000 
0.000000 0.000000 0.000000 

-0.000000 0.000000 0.000000 
0.000000 -0.000000 0.000000 
0.000000 0.000000 0.000000 

-0.000000 0.000000 0.000000 
0.000000 0.000000 0.000000 
0.000000 0.000000 0.000000 

-0.000000 -0.000000 0.000000 
0.000000 -0.000000 0.000000 
0.000000 0.000000 0.000000 

-0.000000 -0.000000 0.000000 
0.000000 0.000000 0.000000 
0.000000 0.000000 0.000000 

-0.000000 -0.000000 0.000000 
0.000000 -0.000000 0.000000 
0.000000 0.000000 0.000000 

-0.000000 0.000000 0.000000 
0.000000 -0.000000 0.000000 
0.000000 0.000000 0.000000 

-0.000000 -0.000000 0.000000 
0.000000 -0.000000 0.000000 
0.000000 0.000000 0.000000 

-0.000000 -0.000000 0.000000 
0.000000 0.000000 0.000000 
0.000000 0.000000 0.000000 

-0.000000 -0.000000 0.000000 
0.000000 -0.000000 0.000000 
0.000000 0.000000 0.000000 

0.000000 0.000000 0.000000 
0.000000 -0.000000 0.000000 
0.000000 0.000000 0.000000 

-0.000000 0.000000 0.000000 
0.000000 -0.000000 0.000000 
0.000000 0.000000 0.000000 

0.000000 0.000000 0.000000 
0.000000 0.000000 0.000000 
0.000000 0.000000 0.000000 

-0.000000 -0.000000 0.000000 
0.000000 -0.000000 0.000000 
0.000000 0.000000 0.000000 

0.000000 0.000000 0.000000 
0.000000 0.000000 0.000000 
0.000000 0.000000 0.000000 

-0.000000 0.000000 0.000000 
0.000000 -0.000000 0.000000 
0.000000 0.000000 0.000000 

-0.000000 0.000000 0.000000 
0.000000 0.000000 0.000000 
0.000000 0.000000 0.000000 

0.000000 0.000000 0.000000 
0.000000 0.000000 0.000000 
0.000000 0.000000 0.000000 

-0.000000 0.000000 0.000000 
0.000000 -0.000000 0.000000 
0.000000 0.000000 0.000000 

-0.000000 -0.000000 0.000000 
0.000000 -0.000000 0.000000 
0.000000 0.000000 0.000000 

-0.000000 -0.000000 0.000000 
0.000000 0.000000 0.000000 
0.000000 0.000000 0.000000 

-0.000000 -0.000000 0.000000 
0.000000 -0.000000 0.000000 
0.000000 0.000000 0.000000 

-0.000000 -0.000000 0.000000 
0.000000 -0.000000 0.000000 
0.000000 0.000000 0.000000 

0.000000 0.000000 0.000000 
0.000000 0.000000 0.000000 
0.000000 0.000000 0.000000 

0.000000 -0.000000 0.000000 
0.000000 -0.000000 0.000000 
0.000000 0.000000 0.000000 

-0.000000 -0.000000 0.000000 
0.000000 -0.000000 0.000000 
0.000000 0.000000 0.000000 

0.000000 0.000000 0.000000 
0.000000 0.000000 0.000000 
0.000000 0.000000 0.000000 

0.000000 -0.000000 0.000000 
0.000000 -0.000000 0.000000 
0.000000 0.000000 0.000000 

-0.000000 -0.000000 0.000000 
0.000000 -0.000000 0.000000 
0.000000 0.000000 0.000000 

-0.000000 0.000000 0.000000 
0.000000 -0.000000 0.000000 
0.000000 0.000000 0.000000 

0.000000 -0.000000 0.000000 
0.000000 0.000000 0.000000 
0.000000 0.000000 0.000000 

-0.000000 -0.000000 0.000000 
0.000000 -0.000000 0.000000 
0.000000 0.000000 0.000000 

-0.000000 -0.000000 0.000000 
0.000000 -0.000000 0.000000 
0.000000 0.000000 0.000000 

-0.000000 0.000000 0.000000 
0.000000 -0.000000 0.000000 
0.000000 0.000000 0.000000 

-0.000000 0.000000 0.000000 
0.000000 -0.000000 0.000000 
0.000000 0.000000 0.000000 

-0.000000 -0.000000 0.000000 
0.000000 -0.000000 0.000000 
0.000000 0.000000 0.000000 

-0.000000 0.000000 0.000000 
0.000000 0.000000 0.000000 
0.000000 0.000000 0.000000 

0.000000 0.000000 0.000000 
0.000000 0.000000 0.000000 
0.000000 0.000000 0.000000 

-0.000000 0.000000 0.000000 
0.000000 -0.000000 0.000000 
0.000000 0.000000 0.000000 

0.000000 0.000000 0.000000 
0.000000 0.000000 0.000000 
0.000000 0.000000 0.000000 

-0.000000 -0.000000 0.000000 
0.000000 -0.000000 0.000000 
0.000000 0.000000 0.000000 

-0.000000 -0.000000 0.000000 
0.000000 0.000000 0.000000 
0.000000 0.000000 0.000000 

0.000000 0.000000 0.000000 
0.000000 -0.000000 0.000000 
0.000000 0.000000 0.000000 

0.000000 0.000000 0.000000 
0.000000 0.000000 0.000000 
0.000000 0.000000 0.000000 

-0.000000 0.000000 0.000000 
0.000000 -0.000000 0.000000 
0.000000 0.000000 0.000000 

-0.000000 -0.000000 0.000000 
0.000000 -0.000000 0.000000 
0.000000 0.000000 0.000000 

0.000000 0.000000 0.000000 
0.000000 0.000000 0.000000 
0.000000 0.000000 0.000000 

-0.000000 -0.000000 0.000000 
0.000000 -0.000000 0.000000 
0.000000 0.000000 0.000000 

-0.000000 -0.000000 0.000000 
0.000000 -0.000000 0.000000 
0.000000 0.000000 0.000000 

0.000000 -0.000000 0.000000 
0.000000 0.000000 0.000000 
0.000000 0.000000 0.000000 

-0.000000 -0.000000 0.000000 
0.000000 -0.000000 0.000000 
0.000000 0.000000 0.000000 

0.000000 0.000000 0.000000 
0.000000 0.000000 0.000000 
0.000000 0.000000 0.000000 

-0.000000 -0.000000 0.000000 
0.000000 -0.000000 0.000000 
0.000000 0.000000 0.000000 

0.000000 -0.000000 0.000000 
0.000000 0.000000 0.000000 
0.000000 0.000000 0.000000 

-0.000000 0.000000 0.000000 
0.000000 -0.000000 0.000000 
0.000000 0.000000 0.000000 

-0.000000 -0.000000 0.000000 
0.000000 -0.000000 0.000000 
0.000000 0.000000 0.000000 

-0.000000 0.000000 0.000000 
0.000000 0.000000 0.000000 
0.000000 0.000000 0.000000 

0.000000 -0.000000 0.000000 
0.000000 0.000000 0.000000 
0.000000 0.000000 0.000000 

-0.000000 -0.000000 0.000000 
0.000000 0.000000 0.000000 
0.000000 0.000000 0.000000 

0.000000 0.000000 0.000000 
0.000000 0.000000 0.000000 
0.000000 0.000000 0.000000 

0.000000 0.000000 0.000000 
0.000000 0.000000 0.000000 
0.000000 0.000000 0.000000 

0.000000 0.000000 0.000000 
0.000000 0.000000 0.000000 
0.000000 0.000000 0.000000 

-0.000000 -0.000000 0.000000 
0.000000 -0.000000 0.000000 
0.000000 0.000000 0.000000 

0.000000 -0.000000 0.000000 
0.000000 0.000000 0.000000 
0.000000 0.000000 0.000000 

-0.000000 0.000000 0.000000 
0.000000 -0.000000 0.000000 
0.000000 0.000000 0.000000 

-0.000000 0.000000 0.000000 
0.000000 -0.000000 0.000000 
0.000000 0.000000 0.000000 

0.000000 -0.000000 0.000000 
0.000000 0.000000 0.000000 
0.000000 0.000000 0.000000 

0.000000 0.000000 0.000000 
0.000000 0.000000 0.000000 
0.000000 0.000000 0.000000 

0.000000 0.000000 0.000000 
0.000000 -0.000000 0.000000 
0.000000 0.000000 0.000000 

0.000000 -0.000000 0.000000 
0.000000 0.000000 0.000000 
0.000000 0.000000 0.000000 

0.000000 0.000000 0.000000 
0.000000 0.000000 0.000000 
0.000000 0.000000 0.000000 

0.000000 -0.000000 0.000000 
0.000000 -0.000000 0.000000 
0.000000 0.000000 0.000000 

0.000000 0.000000 0.000000 
0.000000 0.000000 0.000000 
0.000000 0.000000 0.000000 

0.000000 -0.000000 0.000000 
0.000000 0.000000 0.000000 
0.000000 0.000000 0.000000 

0.000000 -0.000000 0.000000 
0.000000 0.000000 0.000000 
0.000000 0.000000 0.000000 

0.000000 -0.000000 0.000000 
0.000000 0.000000 0.000000 
0.000000 0.000000 0.000000 

0.000000 -0.000000 0.000000 
0.000000 0.000000 0.000000 
0.000000 0.000000 0.000000 

-0.000000 0.000000 0.000000 
0.000000 -0.000000 0.000000 
0.000000 0.000000 0.000000 

-0.000000 0.000000 0.000000 
0.000000 -0.000000 0.000000 
0.000000 0.000000 0.000000 

-0.000000 0.000000 0.000000 
0.000000 0.000000 0.000000 
0.000000 0.000000 0.000000 

0.000000 0.000000 0.000000 
0.000000 0.000000 0.000000 
0.000000 0.000000 0.000000 

0.000000 -0.000000 0.000000 
0.000000 0.000000 0.000000 
0.000000 0.000000 0.000000 

0.000000 -0.000000 0.000000 
0.000000 0.000000 0.000000 
0.000000 0.000000 0.000000 

0.000000 0.000000 0.000000 
0.000000 -0.000000 0.000000 
0.000000 0.000000 0.000000 

TENSORS STRAIN float 
0.000000 -0.000000 0.000000 
0.000000 0.000000 0.000000 
0.000000 0.000000 0.000000 

-0.000000 0.000000 0.000000 
0.000000 0.000000 0.000000 
0.000000 0.000000 0.000000 

0.000000 -0.000000 0.000000 
0.000000 -0.000000 0.000000 
0.000000 0.000000 0.000000 

0.000000 0.000000 0.000000 
0.000000 -0.000000 0.000000 
0.000000 0.000000 0.000000 

-0.000000 -0.000000 0.000000 
0.000000 0.000000 0.000000 
0.000000 0.000000 0.000000 

-0.000000 -0.000000 0.000000 
0.000000 0.000000 0.000000 
0.000000 0.000000 0.000000 

-0.000000 -0.000000 0.000000 
0.000000 -0.000000 0.000000 
0.000000 0.000000 0.000000 

-0.000000 -0.000000 0.000000 
0.000000 0.000000 0.000000 
0.000000 0.000000 0.000000 

-0.000000 0.000000 0.000000 
0.000000 -0.000000 0.000000 
0.000000 0.000000 0.000000 

-0.000000 0.000000 0.000000 
0.000000 0.000000 0.000000 
0.000000 0.000000 0.000000 

-0.000000 -0.000000 0.000000 
0.000000 0.000000 0.000000 
0.000000 0.000000 0.000000 

-0.000000 0.000000 0.000000 
0.000000 -0.000000 0.000000 
0.000000 0.000000 0.000000 

-0.000000 -0.000000 0.000000 
0.000000 0.000000 0.000000 
0.000000 0.000000 0.000000 

-0.000000 -0.000000 0.000000 
0.000000 0.000000 0.000000 
0.000000 0.000000 0.000000 

0.000000 -0.000000 0.000000 
0.000000 -0.000000 0.000000 
0.000000 0.000000 0.000000 

0.000000 0.000000 0.000000 
0.000000 0.000000 0.000000 
0.000000 0.000000 0.000000 

-0.000000 -0.000000 0.000000 
0.000000 0.000000 0.000000 
0.000000 0.000000 0.000000 

-0.000000 -0.000000 0.000000 
0.000000 -0.000000 0.000000 
0.000000 0.000000 0.000000 

-0.000000 -0.000000 0.000000 
0.000000 0.000000 0.000000 
0.000000 0.000000 0.000000 

-0.000000 -0.000000 0.000000 
0.000000 -0.000000 0.000000 
0.000000 0.000000 0.000000 

-0.000000 -0.000000 0.000000 
0.000000 0.000000 0.000000 
0.000000 0.000000 0.000000 

-0.000000 -0.000000 0.000000 
0.000000 0.000000 0.000000 
0.000000 0.000000 0.000000 

0.000000 -0.000000 0.000000 
0.000000 -0.000000 0.000000 
0.000000 0.000000 0.000000 

-0.000000 -0.000000 0.000000 
0.000000 -0.000000 0.000000 
0.000000 0.000000 0.000000 

-0.000000 -0.000000 0.000000 
0.000000 0.000000 0.000000 
0.000000 0.000000 0.000000 

-0.000000 0.000000 0.000000 
0.000000 0.000000 0.000000 
0.000000 0.000000 0.000000 

0.000000 0.000000 0.000000 
0.000000 0.000000 0.000000 
0.000000 0.000000 0.000000 

0.000000 -0.000000 0.000000 
0.000000 0.000000 0.000000 
0.000000 0.000000 0.000000 

0.000000 -0.000000 0.000000 
0.000000 -0.000000 0.000000 
0.000000 0.000000 0.000000 

-0.000000 0.000000 0.000000 
0.000000 -0.000000 0.000000 
0.000000 0.000000 0.000000 

0.000000 -0.000000 0.000000 
0.000000 -0.000000 0.000000 
0.000000 0.000000 0.000000 

-0.000000 -0.000000 0.000000 
0.000000 -0.000000 0.000000 
0.000000 0.000000 0.000000 

-0.000000 -0.000000 0.000000 
0.000000 0.000000 0.000000 
0.000000 0.000000 0.000000 

-0.000000 -0.000000 0.000000 
0.000000 0.000000 0.000000 
0.000000 0.000000 0.000000 

-0.000000 0.000000 0.000000 
0.000000 -0.000000 0.000000 
0.000000 0.000000 0.000000 

-0.000000 0.000000 0.000000 
0.000000 0.000000 0.000000 
0.000000 0.000000 0.000000 

-0.000000 -0.000000 0.000000 
0.000000 0.000000 0.000000 
0.000000 0.000000 0.000000 

-0.000000 0.000000 0.000000 
0.000000 0.000000 0.000000 
0.000000 0.000000 0.000000 

-0.000000 -0.000000 0.000000 
0.000000 0.000000 0.000000 
0.000000 0.000000 0.000000 

-0.000000 -0.000000 0.000000 
0.000000 0.000000 0.000000 
0.000000 0.000000 0.000000 

-0.000000 -0.000000 0.000000 
0.000000 0.000000 0.000000 
0.000000 0.000000 0.000000 

0.000000 0.000000 0.000000 
0.000000 0.000000 0.000000 
0.000000 0.000000 0.000000 

0.000000 0.000000 0.000000 
0.000000 0.000000 0.000000 
0.000000 0.000000 0.000000 

0.000000 -0.000000 0.000000 
0.000000 0.000000 0.000000 
0.000000 0.000000 0.000000 

0.000000 0.000000 0.000000 
0.000000 0.000000 0.000000 
0.000000 0.000000 0.000000 

0.000000 -0.000000 0.000000 
0.000000 0.000000 0.000000 
0.000000 0.000000 0.000000 

0.000000 -0.000000 0.000000 
0.000000 -0.000000 0.000000 
0.000000 0.000000 0.000000 

0.000000 -0.000000 0.000000 
0.000000 -0.000000 0.000000 
0.000000 0.000000 0.000000 

-0.000000 -0.000000 0.000000 
0.000000 -0.000000 0.000000 
0.000000 0.000000 0.000000 

-0.000000 0.000000 0.000000 
0.000000 -0.000000 0.000000 
0.000000 0.000000 0.000000 

-0.000000 0.000000 0.000000 
0.000000 0.000000 0.000000 
0.000000 0.000000 0.000000 

0.000000 -0.000000 0.000000 
0.000000 -0.000000 0.000000 
0.000000 0.000000 0.000000 

0.000000 0.000000 0.000000 
0.000000 -0.000000 0.000000 
0.000000 0.000000 0.000000 

0.000000 0.000000 0.000000 
0.000000 -0.000000 0.000000 
0.000000 0.000000 0.000000 

0.000000 0.000000 0.000000 
0.000000 -0.000000 0.000000 
0.000000 0.000000 0.000000 

0.000000 0.000000 0.000000 
0.000000 -0.000000 0.000000 
0.000000 0.000000 0.000000 

0.000000 0.000000 0.000000 
0.000000 0.000000 0.000000 
0.000000 0.000000 0.000000 

0.000000 0.000000 0.000000 
0.000000 -0.000000 0.000000 
0.000000 0.000000 0.000000 

0.000000 0.000000 0.000000 
0.000000 0.000000 0.000000 
0.000000 0.000000 0.000000 

0.000000 0.000000 0.000000 
0.000000 0.000000 0.000000 
0.000000 0.000000 0.000000 

0.000000 0.000000 0.000000 
0.000000 0.000000 0.000000 
0.000000 0.000000 0.000000 

0.000000 0.000000 0.000000 
0.000000 0.000000 0.000000 
0.000000 0.000000 0.000000 

0.000000 0.000000 0.000000 
0.000000 -0.000000 0.000000 
0.000000 0.000000 0.000000 

0.000000 0.000000 0.000000 
0.000000 0.000000 0.000000 
0.000000 0.000000 0.000000 

0.000000 0.000000 0.000000 
0.000000 -0.000000 0.000000 
0.000000 0.000000 0.000000 

0.000000 0.000000 0.000000 
0.000000 -0.000000 0.000000 
0.000000 0.000000 0.000000 

-0.000000 -0.000000 0.000000 
0.000000 -0.000000 0.000000 
0.000000 0.000000 0.000000 

0.000000 -0.000000 0.000000 
0.000000 -0.000000 0.000000 
0.000000 0.000000 0.000000 

-0.000000 0.000000 0.000000 
0.000000 -0.000000 0.000000 
0.000000 0.000000 0.000000 

0.000000 -0.000000 0.000000 
0.000000 0.000000 0.000000 
0.000000 0.000000 0.000000 

0.000000 -0.000000 0.000000 
0.000000 -0.000000 0.000000 
0.000000 0.000000 0.000000 

0.000000 0.000000 0.000000 
0.000000 0.000000 0.000000 
0.000000 0.000000 0.000000 

-0.000000 0.000000 0.000000 
0.000000 0.000000 0.000000 
0.000000 0.000000 0.000000 

-0.000000 0.000000 0.000000 
0.000000 0.000000 0.000000 
0.000000 0.000000 0.000000 

-0.000000 0.000000 0.000000 
0.000000 0.000000 0.000000 
0.000000 0.000000 0.000000 

0.000000 0.000000 0.000000 
0.000000 -0.000000 0.000000 
0.000000 0.000000 0.000000 

0.000000 -0.000000 0.000000 
0.000000 -0.000000 0.000000 
0.000000 0.000000 0.000000 

0.000000 -0.000000 0.000000 
0.000000 -0.000000 0.000000 
0.000000 0.000000 0.000000 

0.000000 -0.000000 0.000000 
0.000000 -0.000000 0.000000 
0.000000 0.000000 0.000000 

0.000000 0.000000 0.000000 
0.000000 -0.000000 0.000000 
0.000000 0.000000 0.000000 

0.000000 0.000000 0.000000 
0.000000 0.000000 0.000000 
0.000000 0.000000 0.000000 

-0.000000 0.000000 0.000000 
0.000000 -0.000000 0.000000 
0.000000 0.000000 0.000000 

0.000000 0.000000 0.000000 
0.000000 -0.000000 0.000000 
0.000000 0.000000 0.000000 

0.000000 -0.000000 0.000000 
0.000000 -0.000000 0.000000 
0.000000 0.000000 0.000000 

-0.000000 0.000000 0.000000 
0.000000 -0.000000 0.000000 
0.000000 0.000000 0.000000 

0.000000 0.000000 0.000000 
0.000000 -0.000000 0.000000 
0.000000 0.000000 0.000000 

-0.000000 -0.000000 0.000000 
0.000000 0.000000 0.000000 
0.000000 0.000000 0.000000 

-0.000000 -0.000000 0.000000 
0.000000 -0.000000 0.000000 
0.000000 0.000000 0.000000 

-0.000000 0.000000 0.000000 
0.000000 -0.000000 0.000000 
0.000000 0.000000 0.000000 

0.000000 0.000000 0.000000 
0.000000 -0.000000 0.000000 
0.000000 0.000000 0.000000 

0.000000 0.000000 0.000000 
0.000000 0.000000 0.000000 
0.000000 0.000000 0.000000 

-0.000000 0.000000 0.000000 
0.000000 -0.000000 0.000000 
0.000000 0.000000 0.000000 

-0.000000 0.000000 0.000000 
0.000000 -0.000000 0.000000 
0.000000 0.000000 0.000000 

-0.000000 0.000000 0.000000 
0.000000 0.000000 0.000000 
0.000000 0.000000 0.000000 

-0.000000 -0.000000 0.000000 
0.000000 -0.000000 0.000000 
0.000000 0.000000 0.000000 

-0.000000 -0.000000 0.000000 
0.000000 0.000000 0.000000 
0.000000 0.000000 0.000000 

-0.000000 -0.000000 0.000000 
0.000000 -0.000000 0.000000 
0.000000 0.000000 0.000000 

-0.000000 0.000000 0.000000 
0.000000 -0.000000 0.000000 
0.000000 0.000000 0.000000 

-0.000000 -0.000000 0.000000 
0.000000 -0.000000 0.000000 
0.000000 0.000000 0.000000 

-0.000000 -0.000000 0.000000 
0.000000 0.000000 0.000000 
0.000000 0.000000 0.000000 

-0.000000 -0.000000 0.000000 
0.000000 -0.000000 0.000000 
0.000000 0.000000 0.000000 

0.000000 0.000000 0.000000 
0.000000 -0.000000 0.000000 
0.000000 0.000000 0.000000 

0.000000 0.000000 0.000000 
0.000000 -0.000000 0.000000 
0.000000 0.000000 0.000000 

-0.000000 0.000000 0.000000 
0.000000 0.000000 0.000000 
0.000000 0.000000 0.000000 

0.000000 -0.000000 0.000000 
0.000000 -0.000000 0.000000 
0.000000 0.000000 0.000000 

-0.000000 0.000000 0.000000 
0.000000 0.000000 0.000000 
0.000000 0.000000 0.000000 

-0.000000 0.000000 0.000000 
0.000000 -0.000000 0.000000 
0.000000 0.000000 0.000000 

-0.000000 0.000000 0.000000 
0.000000 0.000000 0.000000 
0.000000 0.000000 0.000000 

0.000000 0.000000 0.000000 
0.000000 0.000000 0.000000 
0.000000 0.000000 0.000000 

-0.000000 0.000000 0.000000 
0.000000 -0.000000 0.000000 
0.000000 0.000000 0.000000 

-0.000000 -0.000000 0.000000 
0.000000 -0.000000 0.000000 
0.000000 0.000000 0.000000 

-0.000000 -0.000000 0.000000 
0.000000 0.000000 0.000000 
0.000000 0.000000 0.000000 

-0.000000 -0.000000 0.000000 
0.000000 -0.000000 0.000000 
0.000000 0.000000 0.000000 

0.000000 -0.000000 0.000000 
0.000000 -0.000000 0.000000 
0.000000 0.000000 0.000000 

0.000000 0.000000 0.000000 
0.000000 0.000000 0.000000 
0.000000 0.000000 0.000000 

0.000000 -0.000000 0.000000 
0.000000 -0.000000 0.000000 
0.000000 0.000000 0.000000 

-0.000000 -0.000000 0.000000 
0.000000 -0.000000 0.000000 
0.000000 0.000000 0.000000 

0.000000 0.000000 0.000000 
0.000000 0.000000 0.000000 
0.000000 0.000000 0.000000 

0.000000 -0.000000 0.000000 
0.000000 -0.000000 0.000000 
0.000000 0.000000 0.000000 

-0.000000 -0.000000 0.000000 
0.000000 -0.000000 0.000000 
0.000000 0.000000 0.000000 

0.000000 0.000000 0.000000 
0.000000 -0.000000 0.000000 
0.000000 0.000000 0.000000 

0.000000 -0.000000 0.000000 
0.000000 0.000000 0.000000 
0.000000 0.000000 0.000000 

0.000000 -0.000000 0.000000 
0.000000 -0.000000 0.000000 
0.000000 0.000000 0.000000 

0.000000 -0.000000 0.000000 
0.000000 -0.000000 0.000000 
0.000000 0.000000 0.000000 

-0.000000 0.000000 0.000000 
0.000000 -0.000000 0.000000 
0.000000 0.000000 0.000000 

-0.000000 0.000000 0.000000 
0.000000 -0.000000 0.000000 
0.000000 0.000000 0.000000 

-0.000000 -0.000000 0.000000 
0.000000 -0.000000 0.000000 
0.000000 0.000000 0.000000 

-0.000000 0.000000 0.000000 
0.000000 0.000000 0.000000 
0.000000 0.000000 0.000000 

-0.000000 0.000000 0.000000 
0.000000 0.000000 0.000000 
0.000000 0.000000 0.000000 

0.000000 0.000000 0.000000 
0.000000 -0.000000 0.000000 
0.000000 0.000000 0.000000 

0.000000 0.000000 0.000000 
0.000000 0.000000 0.000000 
0.000000 0.000000 0.000000 

-0.000000 -0.000000 0.000000 
0.000000 -0.000000 0.000000 
0.000000 0.000000 0.000000 

-0.000000 -0.000000 0.000000 
0.000000 0.000000 0.000000 
0.000000 0.000000 0.000000 

0.000000 0.000000 0.000000 
0.000000 -0.000000 0.000000 
0.000000 0.000000 0.000000 

0.000000 0.000000 0.000000 
0.000000 0.000000 0.000000 
0.000000 0.000000 0.000000 

-0.000000 0.000000 0.000000 
0.000000 -0.000000 0.000000 
0.000000 0.000000 0.000000 

0.000000 -0.000000 0.000000 
0.000000 -0.000000 0.000000 
0.000000 0.000000 0.000000 

-0.000000 0.000000 0.000000 
0.000000 0.000000 0.000000 
0.000000 0.000000 0.000000 

0.000000 -0.000000 0.000000 
0.000000 -0.000000 0.000000 
0.000000 0.000000 0.000000 

0.000000 -0.000000 0.000000 
0.000000 -0.000000 0.000000 
0.000000 0.000000 0.000000 

0.000000 -0.000000 0.000000 
0.000000 0.000000 0.000000 
0.000000 0.000000 0.000000 

0.000000 -0.000000 0.000000 
0.000000 -0.000000 0.000000 
0.000000 0.000000 0.000000 

0.000000 0.000000 0.000000 
0.000000 0.000000 0.000000 
0.000000 0.000000 0.000000 

-0.000000 -0.000000 0.000000 
0.000000 0.000000 0.000000 
0.000000 0.000000 0.000000 

-0.000000 -0.000000 0.000000 
0.000000 0.000000 0.000000 
0.000000 0.000000 0.000000 

-0.000000 0.000000 0.000000 
0.000000 -0.000000 0.000000 
0.000000 0.000000 0.000000 

-0.000000 -0.000000 0.000000 
0.000000 -0.000000 0.000000 
0.000000 0.000000 0.000000 

-0.000000 0.000000 0.000000 
0.000000 0.000000 0.000000 
0.000000 0.000000 0.000000 

-0.000000 -0.000000 0.000000 
0.000000 0.000000 0.000000 
0.000000 0.000000 0.000000 

-0.000000 -0.000000 0.000000 
0.000000 0.000000 0.000000 
0.000000 0.000000 0.000000 

0.000000 0.000000 0.000000 
0.000000 0.000000 0.000000 
0.000000 0.000000 0.000000 

0.000000 0.000000 0.000000 
0.000000 0.000000 0.000000 
0.000000 0.000000 0.000000 

0.000000 0.000000 0.000000 
0.000000 0.000000 0.000000 
0.000000 0.000000 0.000000 

0.000000 -0.000000 0.000000 
0.000000 -0.000000 0.000000 
0.000000 0.000000 0.000000 

-0.000000 -0.000000 0.000000 
0.000000 0.000000 0.000000 
0.000000 0.000000 0.000000 

-0.000000 0.000000 0.000000 
0.000000 -0.000000 0.000000 
0.000000 0.000000 0.000000 

0.000000 0.000000 0.000000 
0.000000 -0.000000 0.000000 
0.000000 0.000000 0.000000 

0.000000 -0.000000 0.000000 
0.000000 -0.000000 0.000000 
0.000000 0.000000 0.000000 

0.000000 0.000000 0.000000 
0.000000 0.000000 0.000000 
0.000000 0.000000 0.000000 

0.000000 0.000000 0.000000 
0.000000 -0.000000 0.000000 
0.000000 0.000000 0.000000 

0.000000 -0.000000 0.000000 
0.000000 0.000000 0.000000 
0.000000 0.000000 0.000000 

-0.000000 0.000000 0.000000 
0.000000 0.000000 0.000000 
0.000000 0.000000 0.000000 

0.000000 -0.000000 0.000000 
0.000000 -0.000000 0.000000 
0.000000 0.000000 0.000000 

0.000000 0.000000 0.000000 
0.000000 0.000000 0.000000 
0.000000 0.000000 0.000000 

0.000000 -0.000000 0.000000 
0.000000 0.000000 0.000000 
0.000000 0.000000 0.000000 

0.000000 -0.000000 0.000000 
0.000000 0.000000 0.000000 
0.000000 0.000000 0.000000 

-0.000000 -0.000000 0.000000 
0.000000 0.000000 0.000000 
0.000000 0.000000 0.000000 

-0.000000 -0.000000 0.000000 
0.000000 0.000000 0.000000 
0.000000 0.000000 0.000000 

-0.000000 0.000000 0.000000 
0.000000 -0.000000 0.000000 
0.000000 0.000000 0.000000 

-0.000000 0.000000 0.000000 
0.000000 -0.000000 0.000000 
0.000000 0.000000 0.000000 

-0.000000 0.000000 0.000000 
0.000000 0.000000 0.000000 
0.000000 0.000000 0.000000 

-0.000000 0.000000 0.000000 
0.000000 0.000000 0.000000 
0.000000 0.000000 0.000000 

0.000000 -0.000000 0.000000 
0.000000 0.000000 0.000000 
0.000000 0.000000 0.000000 

0.000000 -0.000000 0.000000 
0.000000 0.000000 0.000000 
0.000000 0.000000 0.000000 

0.000000 0.000000 0.000000 
0.000000 -0.000000 0.000000 
0.000000 0.000000 0.000000 

