# vtk DataFile Version 3.0 
vtk output 
ASCII 
DATASET UNSTRUCTURED_GRID 
POINTS 175 float 
-0.026061 0.053933 0.000000 
-0.106992 0.121988 0.000000 
-0.054870 0.113755 0.000000 
-0.028809 0.159639 0.000000 
-0.186430 0.186064 0.000000 
-0.137056 0.183537 0.000000 
-0.114311 0.237185 0.000000 
-0.058186 0.221519 0.000000 
-0.029377 0.261696 0.000000 
-0.265318 0.249219 0.000000 
-0.217198 0.248420 0.000000 
-0.196633 0.305716 0.000000 
-0.143120 0.297007 0.000000 
-0.116563 0.344276 0.000000 
-0.058945 0.324630 0.000000 
-0.029568 0.362750 0.000000 
-0.344206 0.312375 0.000000 
-0.296791 0.312382 0.000000 
-0.278030 0.372325 0.000000 
-0.225992 0.366459 0.000000 
-0.201664 0.418576 0.000000 
-0.145749 0.405102 0.000000 
-0.117890 0.449444 0.000000 
-0.059328 0.426739 0.000000 
-0.029759 0.463805 0.000000 
-0.058559 0.013182 0.000000 
-0.162226 -0.007661 0.000000 
-0.123292 0.027957 0.000000 
-0.142917 0.076940 0.000000 
-0.261851 -0.029817 0.000000 
-0.229092 0.007210 0.000000 
-0.256854 0.058441 0.000000 
-0.209613 0.092554 0.000000 
-0.223062 0.140128 0.000000 
-0.360414 -0.052117 0.000000 
-0.329787 -0.014994 0.000000 
-0.361761 0.036808 0.000000 
-0.321587 0.073216 0.000000 
-0.341985 0.123450 0.000000 
-0.290702 0.156249 0.000000 
-0.302189 0.202985 0.000000 
-0.458977 -0.074417 0.000000 
-0.429420 -0.037343 0.000000 
-0.464588 0.014699 0.000000 
-0.427556 0.051726 0.000000 
-0.453135 0.103241 0.000000 
-0.407738 0.138557 0.000000 
-0.425037 0.187985 0.000000 
-0.370772 0.219614 0.000000 
-0.381315 0.265841 0.000000 
-0.046960 -0.037633 0.000000 
-0.095301 -0.131679 0.000000 
-0.098873 -0.079032 0.000000 
-0.149405 -0.063834 0.000000 
-0.140093 -0.223383 0.000000 
-0.148617 -0.174685 0.000000 
-0.205981 -0.164448 0.000000 
-0.203197 -0.106244 0.000000 
-0.248777 -0.087098 0.000000 
-0.184111 -0.314347 0.000000 
-0.194039 -0.267256 0.000000 
-0.254475 -0.259956 0.000000 
-0.257893 -0.205846 0.000000 
-0.309886 -0.190474 0.000000 
-0.303554 -0.129929 0.000000 
-0.347255 -0.109771 0.000000 
-0.228129 -0.405311 0.000000 
-0.238687 -0.359086 0.000000 
-0.301302 -0.354134 0.000000 
-0.307162 -0.302095 0.000000 
-0.363386 -0.289974 0.000000 
-0.362692 -0.232463 0.000000 
-0.412122 -0.215170 0.000000 
-0.403017 -0.153023 0.000000 
-0.445733 -0.132444 0.000000 
-0.000000 -0.060248 0.000000 
0.043388 -0.156679 0.000000 
-0.000000 -0.126647 0.000000 
-0.043388 -0.156679 0.000000 
0.087158 -0.248876 0.000000 
0.043769 -0.225177 0.000000 
-0.000000 -0.263643 0.000000 
-0.043769 -0.225177 0.000000 
-0.087158 -0.248876 0.000000 
0.130831 -0.340005 0.000000 
0.087824 -0.318406 0.000000 
0.044436 -0.361106 0.000000 
-0.000000 -0.330041 0.000000 
-0.044436 -0.361106 0.000000 
-0.087824 -0.318406 0.000000 
-0.130831 -0.340005 0.000000 
0.174505 -0.431135 0.000000 
0.131782 -0.410569 0.000000 
0.088871 -0.456435 0.000000 
0.044532 -0.428571 0.000000 
-0.000000 -0.464972 0.000000 
-0.044532 -0.428571 0.000000 
-0.088871 -0.456435 0.000000 
-0.131782 -0.410569 0.000000 
-0.174505 -0.431135 0.000000 
0.046960 -0.037633 0.000000 
0.149405 -0.063834 0.000000 
0.098873 -0.079032 0.000000 
0.095301 -0.131679 0.000000 
0.248777 -0.087098 0.000000 
0.203197 -0.106244 0.000000 
0.205981 -0.164448 0.000000 
0.148617 -0.174685 0.000000 
0.140093 -0.223383 0.000000 
0.347255 -0.109771 0.000000 
0.303554 -0.129929 0.000000 
0.309886 -0.190474 0.000000 
0.257893 -0.205846 0.000000 
0.254475 -0.259956 0.000000 
0.194039 -0.267256 0.000000 
0.184111 -0.314347 0.000000 
0.445733 -0.132444 0.000000 
0.403017 -0.153023 0.000000 
0.412122 -0.215170 0.000000 
0.362692 -0.232463 0.000000 
0.363386 -0.289974 0.000000 
0.307162 -0.302095 0.000000 
0.301302 -0.354134 0.000000 
0.238687 -0.359086 0.000000 
0.228129 -0.405311 0.000000 
0.058559 0.013182 0.000000 
0.142917 0.076940 0.000000 
0.123292 0.027957 0.000000 
0.162226 -0.007661 0.000000 
0.223062 0.140128 0.000000 
0.209613 0.092554 0.000000 
0.256854 0.058441 0.000000 
0.229092 0.007210 0.000000 
0.261851 -0.029817 0.000000 
0.302189 0.202985 0.000000 
0.290702 0.156249 0.000000 
0.341985 0.123450 0.000000 
0.321587 0.073216 0.000000 
0.361761 0.036808 0.000000 
0.329787 -0.014994 0.000000 
0.360414 -0.052117 0.000000 
0.381315 0.265841 0.000000 
0.370772 0.219614 0.000000 
0.425037 0.187985 0.000000 
0.407738 0.138557 0.000000 
0.453135 0.103241 0.000000 
0.427556 0.051726 0.000000 
0.464588 0.014699 0.000000 
0.429420 -0.037343 0.000000 
0.458977 -0.074417 0.000000 
0.026061 0.053933 0.000000 
0.028809 0.159639 0.000000 
0.054870 0.113755 0.000000 
0.106992 0.121988 0.000000 
0.029377 0.261696 0.000000 
0.058186 0.221519 0.000000 
0.114311 0.237185 0.000000 
0.137056 0.183537 0.000000 
0.186430 0.186064 0.000000 
0.029568 0.362750 0.000000 
0.058945 0.324630 0.000000 
0.116563 0.344276 0.000000 
0.143120 0.297007 0.000000 
0.196633 0.305716 0.000000 
0.217198 0.248420 0.000000 
0.265318 0.249219 0.000000 
0.029759 0.463805 0.000000 
0.059328 0.426739 0.000000 
0.117890 0.449444 0.000000 
0.145749 0.405102 0.000000 
0.201664 0.418576 0.000000 
0.225992 0.366459 0.000000 
0.278030 0.372325 0.000000 
0.296791 0.312382 0.000000 
0.344206 0.312375 0.000000 
CELLS 175 350 
1 0 
1 1 
1 2 
1 3 
1 4 
1 5 
1 6 
1 7 
1 8 
1 9 
1 10 
1 11 
1 12 
1 13 
1 14 
1 15 
1 16 
1 17 
1 18 
1 19 
1 20 
1 21 
1 22 
1 23 
1 24 
1 25 
1 26 
1 27 
1 28 
1 29 
1 30 
1 31 
1 32 
1 33 
1 34 
1 35 
1 36 
1 37 
1 38 
1 39 
1 40 
1 41 
1 42 
1 43 
1 44 
1 45 
1 46 
1 47 
1 48 
1 49 
1 50 
1 51 
1 52 
1 53 
1 54 
1 55 
1 56 
1 57 
1 58 
1 59 
1 60 
1 61 
1 62 
1 63 
1 64 
1 65 
1 66 
1 67 
1 68 
1 69 
1 70 
1 71 
1 72 
1 73 
1 74 
1 75 
1 76 
1 77 
1 78 
1 79 
1 80 
1 81 
1 82 
1 83 
1 84 
1 85 
1 86 
1 87 
1 88 
1 89 
1 90 
1 91 
1 92 
1 93 
1 94 
1 95 
1 96 
1 97 
1 98 
1 99 
1 100 
1 101 
1 102 
1 103 
1 104 
1 105 
1 106 
1 107 
1 108 
1 109 
1 110 
1 111 
1 112 
1 113 
1 114 
1 115 
1 116 
1 117 
1 118 
1 119 
1 120 
1 121 
1 122 
1 123 
1 124 
1 125 
1 126 
1 127 
1 128 
1 129 
1 130 
1 131 
1 132 
1 133 
1 134 
1 135 
1 136 
1 137 
1 138 
1 139 
1 140 
1 141 
1 142 
1 143 
1 144 
1 145 
1 146 
1 147 
1 148 
1 149 
1 150 
1 151 
1 152 
1 153 
1 154 
1 155 
1 156 
1 157 
1 158 
1 159 
1 160 
1 161 
1 162 
1 163 
1 164 
1 165 
1 166 
1 167 
1 168 
1 169 
1 170 
1 171 
1 172 
1 173 
1 174 
CELL_TYPES 175 
1 
1 
1 
1 
1 
1 
1 
1 
1 
1 
1 
1 
1 
1 
1 
1 
1 
1 
1 
1 
1 
1 
1 
1 
1 
1 
1 
1 
1 
1 
1 
1 
1 
1 
1 
1 
1 
1 
1 
1 
1 
1 
1 
1 
1 
1 
1 
1 
1 
1 
1 
1 
1 
1 
1 
1 
1 
1 
1 
1 
1 
1 
1 
1 
1 
1 
1 
1 
1 
1 
1 
1 
1 
1 
1 
1 
1 
1 
1 
1 
1 
1 
1 
1 
1 
1 
1 
1 
1 
1 
1 
1 
1 
1 
1 
1 
1 
1 
1 
1 
1 
1 
1 
1 
1 
1 
1 
1 
1 
1 
1 
1 
1 
1 
1 
1 
1 
1 
1 
1 
1 
1 
1 
1 
1 
1 
1 
1 
1 
1 
1 
1 
1 
1 
1 
1 
1 
1 
1 
1 
1 
1 
1 
1 
1 
1 
1 
1 
1 
1 
1 
1 
1 
1 
1 
1 
1 
1 
1 
1 
1 
1 
1 
1 
1 
1 
1 
1 
1 
1 
1 
1 
1 
1 
1 
POINT_DATA 175 
VECTORS X_GC float 
-0.026061 0.053933 0.000000 
-0.106992 0.121988 0.000000 
-0.054870 0.113755 0.000000 
-0.028809 0.159639 0.000000 
-0.186430 0.186064 0.000000 
-0.137056 0.183537 0.000000 
-0.114311 0.237185 0.000000 
-0.058186 0.221519 0.000000 
-0.029377 0.261696 0.000000 
-0.265318 0.249219 0.000000 
-0.217198 0.248420 0.000000 
-0.196633 0.305716 0.000000 
-0.143120 0.297007 0.000000 
-0.116563 0.344276 0.000000 
-0.058945 0.324630 0.000000 
-0.029568 0.362750 0.000000 
-0.344206 0.312375 0.000000 
-0.296791 0.312382 0.000000 
-0.278030 0.372325 0.000000 
-0.225992 0.366459 0.000000 
-0.201664 0.418576 0.000000 
-0.145749 0.405102 0.000000 
-0.117890 0.449444 0.000000 
-0.059328 0.426739 0.000000 
-0.029759 0.463805 0.000000 
-0.058559 0.013182 0.000000 
-0.162226 -0.007661 0.000000 
-0.123292 0.027957 0.000000 
-0.142917 0.076940 0.000000 
-0.261851 -0.029817 0.000000 
-0.229092 0.007210 0.000000 
-0.256854 0.058441 0.000000 
-0.209613 0.092554 0.000000 
-0.223062 0.140128 0.000000 
-0.360414 -0.052117 0.000000 
-0.329787 -0.014994 0.000000 
-0.361761 0.036808 0.000000 
-0.321587 0.073216 0.000000 
-0.341985 0.123450 0.000000 
-0.290702 0.156249 0.000000 
-0.302189 0.202985 0.000000 
-0.458977 -0.074417 0.000000 
-0.429420 -0.037343 0.000000 
-0.464588 0.014699 0.000000 
-0.427556 0.051726 0.000000 
-0.453135 0.103241 0.000000 
-0.407738 0.138557 0.000000 
-0.425037 0.187985 0.000000 
-0.370772 0.219614 0.000000 
-0.381315 0.265841 0.000000 
-0.046960 -0.037633 0.000000 
-0.095301 -0.131679 0.000000 
-0.098873 -0.079032 0.000000 
-0.149405 -0.063834 0.000000 
-0.140093 -0.223383 0.000000 
-0.148617 -0.174685 0.000000 
-0.205981 -0.164448 0.000000 
-0.203197 -0.106244 0.000000 
-0.248777 -0.087098 0.000000 
-0.184111 -0.314347 0.000000 
-0.194039 -0.267256 0.000000 
-0.254475 -0.259956 0.000000 
-0.257893 -0.205846 0.000000 
-0.309886 -0.190474 0.000000 
-0.303554 -0.129929 0.000000 
-0.347255 -0.109771 0.000000 
-0.228129 -0.405311 0.000000 
-0.238687 -0.359086 0.000000 
-0.301302 -0.354134 0.000000 
-0.307162 -0.302095 0.000000 
-0.363386 -0.289974 0.000000 
-0.362692 -0.232463 0.000000 
-0.412122 -0.215170 0.000000 
-0.403017 -0.153023 0.000000 
-0.445733 -0.132444 0.000000 
-0.000000 -0.060248 0.000000 
0.043388 -0.156679 0.000000 
-0.000000 -0.126647 0.000000 
-0.043388 -0.156679 0.000000 
0.087158 -0.248876 0.000000 
0.043769 -0.225177 0.000000 
-0.000000 -0.263643 0.000000 
-0.043769 -0.225177 0.000000 
-0.087158 -0.248876 0.000000 
0.130831 -0.340005 0.000000 
0.087824 -0.318406 0.000000 
0.044436 -0.361106 0.000000 
-0.000000 -0.330041 0.000000 
-0.044436 -0.361106 0.000000 
-0.087824 -0.318406 0.000000 
-0.130831 -0.340005 0.000000 
0.174505 -0.431135 0.000000 
0.131782 -0.410569 0.000000 
0.088871 -0.456435 0.000000 
0.044532 -0.428571 0.000000 
-0.000000 -0.464972 0.000000 
-0.044532 -0.428571 0.000000 
-0.088871 -0.456435 0.000000 
-0.131782 -0.410569 0.000000 
-0.174505 -0.431135 0.000000 
0.046960 -0.037633 0.000000 
0.149405 -0.063834 0.000000 
0.098873 -0.079032 0.000000 
0.095301 -0.131679 0.000000 
0.248777 -0.087098 0.000000 
0.203197 -0.106244 0.000000 
0.205981 -0.164448 0.000000 
0.148617 -0.174685 0.000000 
0.140093 -0.223383 0.000000 
0.347255 -0.109771 0.000000 
0.303554 -0.129929 0.000000 
0.309886 -0.190474 0.000000 
0.257893 -0.205846 0.000000 
0.254475 -0.259956 0.000000 
0.194039 -0.267256 0.000000 
0.184111 -0.314347 0.000000 
0.445733 -0.132444 0.000000 
0.403017 -0.153023 0.000000 
0.412122 -0.215170 0.000000 
0.362692 -0.232463 0.000000 
0.363386 -0.289974 0.000000 
0.307162 -0.302095 0.000000 
0.301302 -0.354134 0.000000 
0.238687 -0.359086 0.000000 
0.228129 -0.405311 0.000000 
0.058559 0.013182 0.000000 
0.142917 0.076940 0.000000 
0.123292 0.027957 0.000000 
0.162226 -0.007661 0.000000 
0.223062 0.140128 0.000000 
0.209613 0.092554 0.000000 
0.256854 0.058441 0.000000 
0.229092 0.007210 0.000000 
0.261851 -0.029817 0.000000 
0.302189 0.202985 0.000000 
0.290702 0.156249 0.000000 
0.341985 0.123450 0.000000 
0.321587 0.073216 0.000000 
0.361761 0.036808 0.000000 
0.329787 -0.014994 0.000000 
0.360414 -0.052117 0.000000 
0.381315 0.265841 0.000000 
0.370772 0.219614 0.000000 
0.425037 0.187985 0.000000 
0.407738 0.138557 0.000000 
0.453135 0.103241 0.000000 
0.427556 0.051726 0.000000 
0.464588 0.014699 0.000000 
0.429420 -0.037343 0.000000 
0.458977 -0.074417 0.000000 
0.026061 0.053933 0.000000 
0.028809 0.159639 0.000000 
0.054870 0.113755 0.000000 
0.106992 0.121988 0.000000 
0.029377 0.261696 0.000000 
0.058186 0.221519 0.000000 
0.114311 0.237185 0.000000 
0.137056 0.183537 0.000000 
0.186430 0.186064 0.000000 
0.029568 0.362750 0.000000 
0.058945 0.324630 0.000000 
0.116563 0.344276 0.000000 
0.143120 0.297007 0.000000 
0.196633 0.305716 0.000000 
0.217198 0.248420 0.000000 
0.265318 0.249219 0.000000 
0.029759 0.463805 0.000000 
0.059328 0.426739 0.000000 
0.117890 0.449444 0.000000 
0.145749 0.405102 0.000000 
0.201664 0.418576 0.000000 
0.225992 0.366459 0.000000 
0.278030 0.372325 0.000000 
0.296791 0.312382 0.000000 
0.344206 0.312375 0.000000 
VECTORS X_EC float 
0.338794 -0.228090 0.000000 
-0.609100 0.853161 0.000000 
0.713312 0.964302 0.000000 
0.374519 0.344872 0.000000 
0.423588 -0.011858 0.000000 
-0.218274 0.022245 0.000000 
-0.513962 -0.701993 0.000000 
0.756418 -0.490507 0.000000 
0.381900 0.967100 0.000000 
-0.550868 -0.864461 0.000000 
0.823577 -0.853666 0.000000 
0.556234 0.372830 0.000000 
-0.139443 0.490399 0.000000 
-0.484677 -0.147726 0.000000 
0.766286 0.117490 0.000000 
0.384386 -0.397131 0.000000 
0.474677 0.282936 0.000000 
-0.141715 0.282839 0.000000 
-0.385608 -0.526389 0.000000 
0.937896 -0.447193 0.000000 
0.621631 0.849226 0.000000 
-0.105264 -0.968874 0.000000 
-0.467428 0.432499 0.000000 
0.771260 0.739028 0.000000 
0.386873 0.238638 0.000000 
0.761262 0.322044 0.000000 
0.108942 0.603421 0.000000 
-0.397202 0.122581 0.000000 
-0.142083 -0.538694 0.000000 
-0.595936 0.902531 0.000000 
0.978194 0.402665 0.000000 
-0.660903 -0.288960 0.000000 
0.724964 -0.749480 0.000000 
0.899809 0.608272 0.000000 
0.685384 -0.796416 0.000000 
0.287229 0.702425 0.000000 
0.702895 0.003097 0.000000 
0.180633 -0.488422 0.000000 
0.445811 0.833418 0.000000 
-0.220880 0.390632 0.000000 
-0.071546 -0.240293 0.000000 
-0.033296 -0.495364 0.000000 
-0.417537 -0.995874 0.000000 
0.039645 0.301564 0.000000 
-0.441768 -0.198308 0.000000 
-0.109248 -0.893758 0.000000 
-0.699407 0.629486 0.000000 
-0.474522 -0.037793 0.000000 
0.820030 -0.464786 0.000000 
0.957100 0.911142 0.000000 
0.610485 -0.991950 0.000000 
-0.761092 0.277670 0.000000 
-0.714655 -0.433068 0.000000 
-0.057734 -0.638235 0.000000 
-0.178789 -0.484326 0.000000 
-0.067979 0.858248 0.000000 
0.677748 0.720044 0.000000 
0.641556 -0.065701 0.000000 
-0.765897 -0.324179 0.000000 
0.393446 0.743683 0.000000 
0.522510 0.107953 0.000000 
-0.691820 0.009409 0.000000 
-0.647393 -0.721074 0.000000 
0.028512 -0.928600 0.000000 
-0.053800 0.254039 0.000000 
0.514316 -0.018092 0.000000 
0.965681 -0.028308 0.000000 
-0.897068 -0.652337 0.000000 
-0.083078 -0.719190 0.000000 
-0.006893 0.578286 0.000000 
0.724017 0.414653 0.000000 
0.714996 -0.361751 0.000000 
-0.642413 -0.595208 0.000000 
-0.760780 0.565811 0.000000 
-0.205471 0.287996 0.000000 
0.000000 -0.686648 0.000000 
-0.564049 0.615165 0.000000 
0.000000 0.209729 0.000000 
0.564049 0.615165 0.000000 
0.866949 -0.140180 0.000000 
-0.569003 -0.460111 0.000000 
0.000000 0.059177 0.000000 
0.569003 -0.460111 0.000000 
-0.866949 -0.140180 0.000000 
0.299194 -0.909930 0.000000 
0.858290 0.798486 0.000000 
-0.577662 -0.625068 0.000000 
0.000000 0.955554 0.000000 
0.577662 -0.625068 0.000000 
-0.858290 0.798486 0.000000 
-0.299194 -0.909930 0.000000 
-0.268560 0.320320 0.000000 
0.286830 0.042679 0.000000 
0.844677 0.661877 0.000000 
-0.578910 0.285714 0.000000 
0.000000 0.777118 0.000000 
0.578910 0.285714 0.000000 
-0.844677 0.661877 0.000000 
-0.286830 0.042679 0.000000 
0.268560 0.320320 0.000000 
-0.610485 -0.991950 0.000000 
0.057734 -0.638235 0.000000 
0.714655 -0.433068 0.000000 
0.761092 0.277670 0.000000 
0.765897 -0.324179 0.000000 
-0.641556 -0.065701 0.000000 
-0.677748 0.720044 0.000000 
0.067979 0.858248 0.000000 
0.178789 -0.484326 0.000000 
-0.514316 -0.018092 0.000000 
0.053800 0.254039 0.000000 
-0.028512 -0.928600 0.000000 
0.647393 -0.721074 0.000000 
0.691820 0.009409 0.000000 
-0.522510 0.107953 0.000000 
-0.393446 0.743683 0.000000 
0.205471 0.287996 0.000000 
0.760780 0.565811 0.000000 
0.642413 -0.595208 0.000000 
-0.714996 -0.361751 0.000000 
-0.724017 0.414653 0.000000 
0.006894 0.578286 0.000000 
0.083078 -0.719190 0.000000 
0.897068 -0.652337 0.000000 
-0.965681 -0.028308 0.000000 
-0.761262 0.322044 0.000000 
0.142083 -0.538694 0.000000 
0.397202 0.122581 0.000000 
-0.108942 0.603421 0.000000 
-0.899809 0.608272 0.000000 
-0.724964 -0.749480 0.000000 
0.660903 -0.288960 0.000000 
-0.978194 0.402665 0.000000 
0.595936 0.902531 0.000000 
0.071546 -0.240293 0.000000 
0.220880 0.390632 0.000000 
-0.445811 0.833418 0.000000 
-0.180633 -0.488422 0.000000 
-0.702895 0.003097 0.000000 
-0.287229 0.702425 0.000000 
-0.685384 -0.796416 0.000000 
-0.957100 0.911142 0.000000 
-0.820030 -0.464786 0.000000 
0.474522 -0.037793 0.000000 
0.699407 0.629486 0.000000 
0.109248 -0.893758 0.000000 
0.441768 -0.198307 0.000000 
-0.039645 0.301564 0.000000 
0.417537 -0.995874 0.000000 
0.033296 -0.495364 0.000000 
-0.338794 -0.228090 0.000000 
-0.374519 0.344872 0.000000 
-0.713312 0.964302 0.000000 
0.609100 0.853161 0.000000 
-0.381900 0.967100 0.000000 
-0.756418 -0.490507 0.000000 
0.513962 -0.701993 0.000000 
0.218274 0.022245 0.000000 
-0.423588 -0.011858 0.000000 
-0.384386 -0.397131 0.000000 
-0.766286 0.117490 0.000000 
0.484677 -0.147726 0.000000 
0.139443 0.490399 0.000000 
-0.556234 0.372830 0.000000 
-0.823577 -0.853666 0.000000 
0.550868 -0.864461 0.000000 
-0.386873 0.238638 0.000000 
-0.771260 0.739028 0.000000 
0.467428 0.432499 0.000000 
0.105264 -0.968874 0.000000 
-0.621631 0.849226 0.000000 
-0.937896 -0.447193 0.000000 
0.385608 -0.526389 0.000000 
0.141715 0.282839 0.000000 
-0.474677 0.282936 0.000000 
CELL_DATA 175 
SCALARS MASS float 
LOOKUP_TABLE default 
0.078183 
0.086427 
0.094672 
0.086427 
0.088131 
0.092111 
0.085854 
0.092111 
0.088131 
0.088705 
0.091000 
0.086983 
0.091556 
0.086983 
0.091000 
0.088705 
0.089278 
0.091574 
0.089278 
0.092722 
0.089278 
0.092722 
0.089278 
0.091574 
0.089278 
0.078183 
0.086427 
0.094672 
0.086427 
0.088131 
0.092111 
0.085854 
0.092111 
0.088131 
0.088705 
0.091000 
0.086983 
0.091556 
0.086983 
0.091000 
0.088705 
0.089278 
0.091574 
0.089278 
0.092722 
0.089278 
0.092722 
0.089278 
0.091574 
0.089278 
0.078183 
0.086427 
0.094672 
0.086427 
0.088131 
0.092111 
0.085854 
0.092111 
0.088131 
0.088705 
0.091000 
0.086983 
0.091556 
0.086983 
0.091000 
0.088705 
0.089278 
0.091574 
0.089278 
0.092722 
0.089278 
0.092722 
0.089278 
0.091574 
0.089278 
0.078183 
0.086427 
0.094672 
0.086427 
0.088131 
0.092111 
0.085854 
0.092111 
0.088131 
0.088705 
0.091000 
0.086983 
0.091556 
0.086983 
0.091000 
0.088705 
0.089278 
0.091574 
0.089278 
0.092722 
0.089278 
0.092722 
0.089278 
0.091574 
0.089278 
0.078183 
0.086427 
0.094672 
0.086427 
0.088131 
0.092111 
0.085854 
0.092111 
0.088131 
0.088705 
0.091000 
0.086983 
0.091556 
0.086983 
0.091000 
0.088705 
0.089278 
0.091574 
0.089278 
0.092722 
0.089278 
0.092722 
0.089278 
0.091574 
0.089278 
0.078183 
0.086427 
0.094672 
0.086427 
0.088131 
0.092111 
0.085854 
0.092111 
0.088131 
0.088705 
0.091000 
0.086983 
0.091556 
0.086983 
0.091000 
0.088705 
0.089278 
0.091574 
0.089278 
0.092722 
0.089278 
0.092722 
0.089278 
0.091574 
0.089278 
0.078183 
0.086427 
0.094672 
0.086427 
0.088131 
0.092111 
0.085854 
0.092111 
0.088131 
0.088705 
0.091000 
0.086983 
0.091556 
0.086983 
0.091000 
0.088705 
0.089278 
0.091574 
0.089278 
0.092722 
0.089278 
0.092722 
0.089278 
0.091574 
0.089278 
SCALARS MASS float 
LOOKUP_TABLE default 
0.078183 
0.086427 
0.094672 
0.086427 
0.088131 
0.092111 
0.085854 
0.092111 
0.088131 
0.088705 
0.091000 
0.086983 
0.091556 
0.086983 
0.091000 
0.088705 
0.089278 
0.091574 
0.089278 
0.092722 
0.089278 
0.092722 
0.089278 
0.091574 
0.089278 
0.078183 
0.086427 
0.094672 
0.086427 
0.088131 
0.092111 
0.085854 
0.092111 
0.088131 
0.088705 
0.091000 
0.086983 
0.091556 
0.086983 
0.091000 
0.088705 
0.089278 
0.091574 
0.089278 
0.092722 
0.089278 
0.092722 
0.089278 
0.091574 
0.089278 
0.078183 
0.086427 
0.094672 
0.086427 
0.088131 
0.092111 
0.085854 
0.092111 
0.088131 
0.088705 
0.091000 
0.086983 
0.091556 
0.086983 
0.091000 
0.088705 
0.089278 
0.091574 
0.089278 
0.092722 
0.089278 
0.092722 
0.089278 
0.091574 
0.089278 
0.078183 
0.086427 
0.094672 
0.086427 
0.088131 
0.092111 
0.085854 
0.092111 
0.088131 
0.088705 
0.091000 
0.086983 
0.091556 
0.086983 
0.091000 
0.088705 
0.089278 
0.091574 
0.089278 
0.092722 
0.089278 
0.092722 
0.089278 
0.091574 
0.089278 
0.078183 
0.086427 
0.094672 
0.086427 
0.088131 
0.092111 
0.085854 
0.092111 
0.088131 
0.088705 
0.091000 
0.086983 
0.091556 
0.086983 
0.091000 
0.088705 
0.089278 
0.091574 
0.089278 
0.092722 
0.089278 
0.092722 
0.089278 
0.091574 
0.089278 
0.078183 
0.086427 
0.094672 
0.086427 
0.088131 
0.092111 
0.085854 
0.092111 
0.088131 
0.088705 
0.091000 
0.086983 
0.091556 
0.086983 
0.091000 
0.088705 
0.089278 
0.091574 
0.089278 
0.092722 
0.089278 
0.092722 
0.089278 
0.091574 
0.089278 
0.078183 
0.086427 
0.094672 
0.086427 
0.088131 
0.092111 
0.085854 
0.092111 
0.088131 
0.088705 
0.091000 
0.086983 
0.091556 
0.086983 
0.091000 
0.088705 
0.089278 
0.091574 
0.089278 
0.092722 
0.089278 
0.092722 
0.089278 
0.091574 
0.089278 
SCALARS DENSITY float 
LOOKUP_TABLE default 
20.000000 
20.000000 
20.000000 
20.000000 
20.000000 
20.000000 
20.000000 
20.000000 
20.000000 
20.000000 
20.000000 
20.000000 
20.000000 
20.000000 
20.000000 
20.000000 
20.000000 
20.000000 
20.000000 
20.000000 
20.000000 
20.000000 
20.000000 
20.000000 
20.000000 
20.000000 
20.000000 
20.000000 
20.000000 
20.000000 
20.000000 
20.000000 
20.000000 
20.000000 
20.000000 
20.000000 
20.000000 
20.000000 
20.000000 
20.000000 
20.000000 
20.000000 
20.000000 
20.000000 
20.000000 
20.000000 
20.000000 
20.000000 
20.000000 
20.000000 
20.000000 
20.000000 
20.000000 
20.000000 
20.000000 
20.000000 
20.000000 
20.000000 
20.000000 
20.000000 
20.000000 
20.000000 
20.000000 
20.000000 
20.000000 
20.000000 
20.000000 
20.000000 
20.000000 
20.000000 
20.000000 
20.000000 
20.000000 
20.000000 
20.000000 
20.000000 
20.000000 
20.000000 
20.000000 
20.000000 
20.000000 
20.000000 
20.000000 
20.000000 
20.000000 
20.000000 
20.000000 
20.000000 
20.000000 
20.000000 
20.000000 
20.000000 
20.000000 
20.000000 
20.000000 
20.000000 
20.000000 
20.000000 
20.000000 
20.000000 
20.000000 
20.000000 
20.000000 
20.000000 
20.000000 
20.000000 
20.000000 
20.000000 
20.000000 
20.000000 
20.000000 
20.000000 
20.000000 
20.000000 
20.000000 
20.000000 
20.000000 
20.000000 
20.000000 
20.000000 
20.000000 
20.000000 
20.000000 
20.000000 
20.000000 
20.000000 
20.000000 
20.000000 
20.000000 
20.000000 
20.000000 
20.000000 
20.000000 
20.000000 
20.000000 
20.000000 
20.000000 
20.000000 
20.000000 
20.000000 
20.000000 
20.000000 
20.000000 
20.000000 
20.000000 
20.000000 
20.000000 
20.000000 
20.000000 
20.000000 
20.000000 
20.000000 
20.000000 
20.000000 
20.000000 
20.000000 
20.000000 
20.000000 
20.000000 
20.000000 
20.000000 
20.000000 
20.000000 
20.000000 
20.000000 
20.000000 
20.000000 
20.000000 
20.000000 
20.000000 
20.000000 
20.000000 
20.000000 
20.000000 
20.000000 
SCALARS ELEM_i float 
LOOKUP_TABLE default 
182 
210 
183 
183 
210 
210 
210 
183 
184 
237 
210 
211 
211 
211 
184 
184 
238 
238 
238 
211 
212 
211 
212 
185 
185 
182 
209 
209 
209 
236 
209 
236 
209 
210 
235 
236 
236 
236 
237 
237 
237 
262 
262 
263 
263 
263 
264 
264 
237 
238 
181 
208 
208 
208 
207 
208 
208 
208 
235 
207 
207 
234 
234 
234 
235 
235 
206 
233 
233 
234 
234 
234 
261 
262 
262 
181 
181 
181 
181 
153 
180 
180 
180 
207 
152 
153 
179 
180 
179 
207 
206 
152 
152 
152 
179 
179 
179 
206 
206 
206 
181 
154 
154 
154 
127 
154 
154 
154 
153 
127 
127 
126 
126 
126 
153 
153 
100 
100 
99 
126 
126 
126 
125 
125 
152 
182 
155 
155 
155 
156 
155 
128 
155 
128 
129 
129 
129 
128 
128 
128 
127 
130 
129 
102 
102 
101 
101 
101 
100 
100 
182 
183 
183 
156 
184 
183 
156 
156 
156 
184 
184 
157 
157 
157 
156 
129 
185 
185 
158 
157 
158 
157 
130 
130 
130 
VECTORS VELOCITY float 
0.000000 -0.059645 0.000000 
0.000000 -0.059645 0.000000 
0.000000 -0.059645 0.000000 
0.000000 -0.059645 0.000000 
0.000000 -0.059645 0.000000 
0.000000 -0.059645 0.000000 
-0.000000 -0.059645 0.000000 
-0.000000 -0.059645 0.000000 
-0.000000 -0.059645 0.000000 
0.000000 -0.059645 0.000000 
0.000000 -0.059645 0.000000 
0.000000 -0.059645 0.000000 
-0.000000 -0.059645 0.000000 
-0.000000 -0.059645 0.000000 
-0.000000 -0.059645 0.000000 
-0.000000 -0.059645 0.000000 
0.000000 -0.059645 0.000000 
0.000000 -0.059645 0.000000 
-0.000000 -0.059645 0.000000 
0.000000 -0.059645 0.000000 
0.000000 -0.059645 0.000000 
-0.000000 -0.059645 0.000000 
0.000000 -0.059645 0.000000 
-0.000000 -0.059645 0.000000 
0.000000 -0.059645 0.000000 
0.000000 -0.059645 0.000000 
-0.000000 -0.059645 0.000000 
0.000000 -0.059645 0.000000 
0.000000 -0.059645 0.000000 
-0.000000 -0.059645 0.000000 
-0.000000 -0.059645 0.000000 
-0.000000 -0.059645 0.000000 
0.000000 -0.059645 0.000000 
0.000000 -0.059645 0.000000 
-0.000000 -0.059645 0.000000 
-0.000000 -0.059645 0.000000 
-0.000000 -0.059645 0.000000 
-0.000000 -0.059645 0.000000 
-0.000000 -0.059645 0.000000 
0.000000 -0.059645 0.000000 
0.000000 -0.059645 0.000000 
0.000000 -0.059645 0.000000 
-0.000000 -0.059645 0.000000 
-0.000000 -0.059645 0.000000 
-0.000000 -0.059645 0.000000 
-0.000000 -0.059645 0.000000 
-0.000000 -0.059645 0.000000 
-0.000000 -0.059645 0.000000 
0.000000 -0.059645 0.000000 
0.000000 -0.059645 0.000000 
0.000000 -0.059645 0.000000 
-0.000000 -0.059645 0.000000 
-0.000000 -0.059645 0.000000 
-0.000000 -0.059645 0.000000 
0.000000 -0.059645 0.000000 
-0.000000 -0.059645 0.000000 
-0.000000 -0.059645 0.000000 
-0.000000 -0.059645 0.000000 
-0.000000 -0.059645 0.000000 
0.000000 -0.059645 0.000000 
0.000000 -0.059645 0.000000 
0.000000 -0.059645 0.000000 
-0.000000 -0.059645 0.000000 
-0.000000 -0.059645 0.000000 
-0.000000 -0.059645 0.000000 
-0.000000 -0.059645 0.000000 
-0.000000 -0.059645 0.000000 
0.000000 -0.059645 0.000000 
-0.000000 -0.059645 0.000000 
-0.000000 -0.059645 0.000000 
-0.000000 -0.059645 0.000000 
-0.000000 -0.059645 0.000000 
-0.000000 -0.059645 0.000000 
-0.000000 -0.059645 0.000000 
0.000000 -0.059645 0.000000 
0.000000 -0.059645 0.000000 
0.000000 -0.059645 0.000000 
0.000000 -0.059645 0.000000 
-0.000000 -0.059645 0.000000 
0.000000 -0.059645 0.000000 
0.000000 -0.059645 0.000000 
0.000000 -0.059645 0.000000 
0.000000 -0.059645 0.000000 
0.000000 -0.059645 0.000000 
-0.000000 -0.059645 0.000000 
-0.000000 -0.059645 0.000000 
-0.000000 -0.059645 0.000000 
0.000000 -0.059645 0.000000 
0.000000 -0.059645 0.000000 
0.000000 -0.059645 0.000000 
0.000000 -0.059645 0.000000 
-0.000000 -0.059645 0.000000 
-0.000000 -0.059645 0.000000 
-0.000000 -0.059645 0.000000 
-0.000000 -0.059645 0.000000 
-0.000000 -0.059645 0.000000 
-0.000000 -0.059645 0.000000 
-0.000000 -0.059645 0.000000 
0.000000 -0.059645 0.000000 
-0.000000 -0.059645 0.000000 
0.000000 -0.059645 0.000000 
0.000000 -0.059645 0.000000 
0.000000 -0.059645 0.000000 
0.000000 -0.059645 0.000000 
0.000000 -0.059645 0.000000 
0.000000 -0.059645 0.000000 
-0.000000 -0.059645 0.000000 
-0.000000 -0.059645 0.000000 
-0.000000 -0.059645 0.000000 
-0.000000 -0.059645 0.000000 
-0.000000 -0.059645 0.000000 
-0.000000 -0.059645 0.000000 
-0.000000 -0.059645 0.000000 
-0.000000 -0.059645 0.000000 
-0.000000 -0.059645 0.000000 
-0.000000 -0.059645 0.000000 
0.000000 -0.059645 0.000000 
-0.000000 -0.059645 0.000000 
0.000000 -0.059645 0.000000 
0.000000 -0.059645 0.000000 
0.000000 -0.059645 0.000000 
0.000000 -0.059645 0.000000 
0.000000 -0.059645 0.000000 
-0.000000 -0.059645 0.000000 
0.000000 -0.059645 0.000000 
0.000000 -0.059645 0.000000 
0.000000 -0.059645 0.000000 
0.000000 -0.059645 0.000000 
0.000000 -0.059645 0.000000 
0.000000 -0.059645 0.000000 
0.000000 -0.059645 0.000000 
0.000000 -0.059645 0.000000 
0.000000 -0.059645 0.000000 
0.000000 -0.059645 0.000000 
-0.000000 -0.059645 0.000000 
-0.000000 -0.059645 0.000000 
-0.000000 -0.059645 0.000000 
-0.000000 -0.059645 0.000000 
-0.000000 -0.059645 0.000000 
-0.000000 -0.059645 0.000000 
-0.000000 -0.059645 0.000000 
-0.000000 -0.059645 0.000000 
-0.000000 -0.059645 0.000000 
-0.000000 -0.059645 0.000000 
-0.000000 -0.059645 0.000000 
-0.000000 -0.059645 0.000000 
-0.000000 -0.059645 0.000000 
-0.000000 -0.059645 0.000000 
-0.000000 -0.059645 0.000000 
-0.000000 -0.059645 0.000000 
0.000000 -0.059645 0.000000 
0.000000 -0.059645 0.000000 
0.000000 -0.059645 0.000000 
0.000000 -0.059645 0.000000 
-0.000000 -0.059645 0.000000 
0.000000 -0.059645 0.000000 
-0.000000 -0.059645 0.000000 
0.000000 -0.059645 0.000000 
0.000000 -0.059645 0.000000 
-0.000000 -0.059645 0.000000 
-0.000000 -0.059645 0.000000 
-0.000000 -0.059645 0.000000 
-0.000000 -0.059645 0.000000 
-0.000000 -0.059645 0.000000 
-0.000000 -0.059645 0.000000 
-0.000000 -0.059645 0.000000 
-0.000000 -0.059645 0.000000 
-0.000000 -0.059645 0.000000 
-0.000000 -0.059645 0.000000 
-0.000000 -0.059645 0.000000 
-0.000000 -0.059645 0.000000 
-0.000000 -0.059645 0.000000 
0.000000 -0.059645 0.000000 
0.000000 -0.059645 0.000000 
0.000000 -0.059645 0.000000 
TENSORS STRESS float 
-0.000000 -0.000000 0.000000 
0.000000 -0.000000 0.000000 
0.000000 0.000000 0.000000 

0.000000 0.000000 0.000000 
0.000000 0.000000 0.000000 
0.000000 0.000000 0.000000 

-0.000000 0.000000 0.000000 
0.000000 -0.000000 0.000000 
0.000000 0.000000 0.000000 

-0.000000 0.000000 0.000000 
0.000000 -0.000000 0.000000 
0.000000 0.000000 0.000000 

-0.000000 0.000000 0.000000 
0.000000 -0.000000 0.000000 
0.000000 0.000000 0.000000 

-0.000000 0.000000 0.000000 
0.000000 0.000000 0.000000 
0.000000 0.000000 0.000000 

-0.000000 0.000000 0.000000 
0.000000 -0.000000 0.000000 
0.000000 0.000000 0.000000 

-0.000000 0.000000 0.000000 
0.000000 -0.000000 0.000000 
0.000000 0.000000 0.000000 

-0.000000 0.000000 0.000000 
0.000000 -0.000000 0.000000 
0.000000 0.000000 0.000000 

-0.000000 0.000000 0.000000 
0.000000 -0.000000 0.000000 
0.000000 0.000000 0.000000 

-0.000000 0.000000 0.000000 
0.000000 -0.000000 0.000000 
0.000000 0.000000 0.000000 

0.000000 -0.000000 0.000000 
0.000000 0.000000 0.000000 
0.000000 0.000000 0.000000 

-0.000000 -0.000000 0.000000 
0.000000 0.000000 0.000000 
0.000000 0.000000 0.000000 

0.000000 -0.000000 0.000000 
0.000000 0.000000 0.000000 
0.000000 0.000000 0.000000 

0.000000 0.000000 0.000000 
0.000000 0.000000 0.000000 
0.000000 0.000000 0.000000 

-0.000000 -0.000000 0.000000 
0.000000 0.000000 0.000000 
0.000000 0.000000 0.000000 

-0.000000 0.000000 0.000000 
0.000000 -0.000000 0.000000 
0.000000 0.000000 0.000000 

0.000000 0.000000 0.000000 
0.000000 0.000000 0.000000 
0.000000 0.000000 0.000000 

0.000000 0.000000 0.000000 
0.000000 0.000000 0.000000 
0.000000 0.000000 0.000000 

0.000000 -0.000000 0.000000 
0.000000 0.000000 0.000000 
0.000000 0.000000 0.000000 

-0.000000 -0.000000 0.000000 
0.000000 -0.000000 0.000000 
0.000000 0.000000 0.000000 

0.000000 -0.000000 0.000000 
0.000000 0.000000 0.000000 
0.000000 0.000000 0.000000 

-0.000000 -0.000000 0.000000 
0.000000 0.000000 0.000000 
0.000000 0.000000 0.000000 

0.000000 -0.000000 0.000000 
0.000000 0.000000 0.000000 
0.000000 0.000000 0.000000 

0.000000 -0.000000 0.000000 
0.000000 0.000000 0.000000 
0.000000 0.000000 0.000000 

-0.000000 -0.000000 0.000000 
0.000000 -0.000000 0.000000 
0.000000 0.000000 0.000000 

-0.000000 0.000000 0.000000 
0.000000 -0.000000 0.000000 
0.000000 0.000000 0.000000 

-0.000000 0.000000 0.000000 
0.000000 -0.000000 0.000000 
0.000000 0.000000 0.000000 

-0.000000 0.000000 0.000000 
0.000000 -0.000000 0.000000 
0.000000 0.000000 0.000000 

-0.000000 -0.000000 0.000000 
0.000000 -0.000000 0.000000 
0.000000 0.000000 0.000000 

-0.000000 0.000000 0.000000 
0.000000 -0.000000 0.000000 
0.000000 0.000000 0.000000 

-0.000000 -0.000000 0.000000 
0.000000 -0.000000 0.000000 
0.000000 0.000000 0.000000 

-0.000000 0.000000 0.000000 
0.000000 -0.000000 0.000000 
0.000000 0.000000 0.000000 

0.000000 0.000000 0.000000 
0.000000 -0.000000 0.000000 
0.000000 0.000000 0.000000 

0.000000 -0.000000 0.000000 
0.000000 0.000000 0.000000 
0.000000 0.000000 0.000000 

-0.000000 -0.000000 0.000000 
0.000000 -0.000000 0.000000 
0.000000 0.000000 0.000000 

-0.000000 -0.000000 0.000000 
0.000000 -0.000000 0.000000 
0.000000 0.000000 0.000000 

-0.000000 -0.000000 0.000000 
0.000000 -0.000000 0.000000 
0.000000 0.000000 0.000000 

-0.000000 -0.000000 0.000000 
0.000000 -0.000000 0.000000 
0.000000 0.000000 0.000000 

-0.000000 -0.000000 0.000000 
0.000000 -0.000000 0.000000 
0.000000 0.000000 0.000000 

-0.000000 0.000000 0.000000 
0.000000 -0.000000 0.000000 
0.000000 0.000000 0.000000 

-0.000000 -0.000000 0.000000 
0.000000 0.000000 0.000000 
0.000000 0.000000 0.000000 

-0.000000 -0.000000 0.000000 
0.000000 0.000000 0.000000 
0.000000 0.000000 0.000000 

-0.000000 -0.000000 0.000000 
0.000000 -0.000000 0.000000 
0.000000 0.000000 0.000000 

-0.000000 -0.000000 0.000000 
0.000000 -0.000000 0.000000 
0.000000 0.000000 0.000000 

-0.000000 0.000000 0.000000 
0.000000 -0.000000 0.000000 
0.000000 0.000000 0.000000 

-0.000000 -0.000000 0.000000 
0.000000 -0.000000 0.000000 
0.000000 0.000000 0.000000 

-0.000000 -0.000000 0.000000 
0.000000 -0.000000 0.000000 
0.000000 0.000000 0.000000 

-0.000000 0.000000 0.000000 
0.000000 -0.000000 0.000000 
0.000000 0.000000 0.000000 

-0.000000 0.000000 0.000000 
0.000000 -0.000000 0.000000 
0.000000 0.000000 0.000000 

0.000000 -0.000000 0.000000 
0.000000 0.000000 0.000000 
0.000000 0.000000 0.000000 

0.000000 0.000000 0.000000 
0.000000 0.000000 0.000000 
0.000000 0.000000 0.000000 

0.000000 0.000000 0.000000 
0.000000 0.000000 0.000000 
0.000000 0.000000 0.000000 

0.000000 0.000000 0.000000 
0.000000 0.000000 0.000000 
0.000000 0.000000 0.000000 

-0.000000 0.000000 0.000000 
0.000000 -0.000000 0.000000 
0.000000 0.000000 0.000000 

0.000000 0.000000 0.000000 
0.000000 0.000000 0.000000 
0.000000 0.000000 0.000000 

0.000000 0.000000 0.000000 
0.000000 0.000000 0.000000 
0.000000 0.000000 0.000000 

0.000000 0.000000 0.000000 
0.000000 0.000000 0.000000 
0.000000 0.000000 0.000000 

0.000000 -0.000000 0.000000 
0.000000 0.000000 0.000000 
0.000000 0.000000 0.000000 

-0.000000 0.000000 0.000000 
0.000000 -0.000000 0.000000 
0.000000 0.000000 0.000000 

0.000000 0.000000 0.000000 
0.000000 0.000000 0.000000 
0.000000 0.000000 0.000000 

0.000000 -0.000000 0.000000 
0.000000 0.000000 0.000000 
0.000000 0.000000 0.000000 

0.000000 -0.000000 0.000000 
0.000000 0.000000 0.000000 
0.000000 0.000000 0.000000 

0.000000 -0.000000 0.000000 
0.000000 0.000000 0.000000 
0.000000 0.000000 0.000000 

0.000000 -0.000000 0.000000 
0.000000 0.000000 0.000000 
0.000000 0.000000 0.000000 

0.000000 -0.000000 0.000000 
0.000000 0.000000 0.000000 
0.000000 0.000000 0.000000 

-0.000000 -0.000000 0.000000 
0.000000 -0.000000 0.000000 
0.000000 0.000000 0.000000 

-0.000000 -0.000000 0.000000 
0.000000 -0.000000 0.000000 
0.000000 0.000000 0.000000 

-0.000000 -0.000000 0.000000 
0.000000 -0.000000 0.000000 
0.000000 0.000000 0.000000 

0.000000 -0.000000 0.000000 
0.000000 -0.000000 0.000000 
0.000000 0.000000 0.000000 

0.000000 -0.000000 0.000000 
0.000000 -0.000000 0.000000 
0.000000 0.000000 0.000000 

0.000000 -0.000000 0.000000 
0.000000 -0.000000 0.000000 
0.000000 0.000000 0.000000 

-0.000000 -0.000000 0.000000 
0.000000 -0.000000 0.000000 
0.000000 0.000000 0.000000 

-0.000000 -0.000000 0.000000 
0.000000 0.000000 0.000000 
0.000000 0.000000 0.000000 

-0.000000 -0.000000 0.000000 
0.000000 0.000000 0.000000 
0.000000 0.000000 0.000000 

0.000000 -0.000000 0.000000 
0.000000 0.000000 0.000000 
0.000000 0.000000 0.000000 

0.000000 0.000000 0.000000 
0.000000 0.000000 0.000000 
0.000000 0.000000 0.000000 

0.000000 0.000000 0.000000 
0.000000 0.000000 0.000000 
0.000000 0.000000 0.000000 

0.000000 0.000000 0.000000 
0.000000 0.000000 0.000000 
0.000000 0.000000 0.000000 

0.000000 -0.000000 0.000000 
0.000000 0.000000 0.000000 
0.000000 0.000000 0.000000 

0.000000 -0.000000 0.000000 
0.000000 0.000000 0.000000 
0.000000 0.000000 0.000000 

-0.000000 -0.000000 0.000000 
0.000000 -0.000000 0.000000 
0.000000 0.000000 0.000000 

-0.000000 -0.000000 0.000000 
0.000000 -0.000000 0.000000 
0.000000 0.000000 0.000000 

-0.000000 0.000000 0.000000 
0.000000 -0.000000 0.000000 
0.000000 0.000000 0.000000 

0.000000 -0.000000 0.000000 
0.000000 0.000000 0.000000 
0.000000 0.000000 0.000000 

0.000000 -0.000000 0.000000 
0.000000 0.000000 0.000000 
0.000000 0.000000 0.000000 

0.000000 -0.000000 0.000000 
0.000000 0.000000 0.000000 
0.000000 0.000000 0.000000 

-0.000000 -0.000000 0.000000 
0.000000 -0.000000 0.000000 
0.000000 0.000000 0.000000 

0.000000 -0.000000 0.000000 
0.000000 0.000000 0.000000 
0.000000 0.000000 0.000000 

-0.000000 0.000000 0.000000 
0.000000 -0.000000 0.000000 
0.000000 0.000000 0.000000 

0.000000 0.000000 0.000000 
0.000000 0.000000 0.000000 
0.000000 0.000000 0.000000 

0.000000 -0.000000 0.000000 
0.000000 -0.000000 0.000000 
0.000000 0.000000 0.000000 

0.000000 -0.000000 0.000000 
0.000000 0.000000 0.000000 
0.000000 0.000000 0.000000 

0.000000 -0.000000 0.000000 
0.000000 0.000000 0.000000 
0.000000 0.000000 0.000000 

0.000000 -0.000000 0.000000 
0.000000 0.000000 0.000000 
0.000000 0.000000 0.000000 

0.000000 -0.000000 0.000000 
0.000000 0.000000 0.000000 
0.000000 0.000000 0.000000 

0.000000 -0.000000 0.000000 
0.000000 0.000000 0.000000 
0.000000 0.000000 0.000000 

0.000000 -0.000000 0.000000 
0.000000 0.000000 0.000000 
0.000000 0.000000 0.000000 

0.000000 -0.000000 0.000000 
0.000000 0.000000 0.000000 
0.000000 0.000000 0.000000 

-0.000000 -0.000000 0.000000 
0.000000 -0.000000 0.000000 
0.000000 0.000000 0.000000 

0.000000 -0.000000 0.000000 
0.000000 0.000000 0.000000 
0.000000 0.000000 0.000000 

-0.000000 -0.000000 0.000000 
0.000000 0.000000 0.000000 
0.000000 0.000000 0.000000 

-0.000000 -0.000000 0.000000 
0.000000 -0.000000 0.000000 
0.000000 0.000000 0.000000 

-0.000000 -0.000000 0.000000 
0.000000 0.000000 0.000000 
0.000000 0.000000 0.000000 

0.000000 -0.000000 0.000000 
0.000000 0.000000 0.000000 
0.000000 0.000000 0.000000 

-0.000000 -0.000000 0.000000 
0.000000 0.000000 0.000000 
0.000000 0.000000 0.000000 

0.000000 -0.000000 0.000000 
0.000000 0.000000 0.000000 
0.000000 0.000000 0.000000 

-0.000000 -0.000000 0.000000 
0.000000 0.000000 0.000000 
0.000000 0.000000 0.000000 

0.000000 -0.000000 0.000000 
0.000000 0.000000 0.000000 
0.000000 0.000000 0.000000 

-0.000000 -0.000000 0.000000 
0.000000 -0.000000 0.000000 
0.000000 0.000000 0.000000 

0.000000 -0.000000 0.000000 
0.000000 0.000000 0.000000 
0.000000 0.000000 0.000000 

0.000000 -0.000000 0.000000 
0.000000 0.000000 0.000000 
0.000000 0.000000 0.000000 

0.000000 -0.000000 0.000000 
0.000000 0.000000 0.000000 
0.000000 0.000000 0.000000 

0.000000 0.000000 0.000000 
0.000000 0.000000 0.000000 
0.000000 0.000000 0.000000 

0.000000 -0.000000 0.000000 
0.000000 0.000000 0.000000 
0.000000 0.000000 0.000000 

0.000000 -0.000000 0.000000 
0.000000 0.000000 0.000000 
0.000000 0.000000 0.000000 

0.000000 0.000000 0.000000 
0.000000 0.000000 0.000000 
0.000000 0.000000 0.000000 

0.000000 0.000000 0.000000 
0.000000 0.000000 0.000000 
0.000000 0.000000 0.000000 

-0.000000 0.000000 0.000000 
0.000000 -0.000000 0.000000 
0.000000 0.000000 0.000000 

0.000000 -0.000000 0.000000 
0.000000 0.000000 0.000000 
0.000000 0.000000 0.000000 

0.000000 0.000000 0.000000 
0.000000 0.000000 0.000000 
0.000000 0.000000 0.000000 

0.000000 0.000000 0.000000 
0.000000 0.000000 0.000000 
0.000000 0.000000 0.000000 

-0.000000 0.000000 0.000000 
0.000000 -0.000000 0.000000 
0.000000 0.000000 0.000000 

0.000000 0.000000 0.000000 
0.000000 -0.000000 0.000000 
0.000000 0.000000 0.000000 

0.000000 -0.000000 0.000000 
0.000000 -0.000000 0.000000 
0.000000 0.000000 0.000000 

-0.000000 -0.000000 0.000000 
0.000000 -0.000000 0.000000 
0.000000 0.000000 0.000000 

-0.000000 -0.000000 0.000000 
0.000000 -0.000000 0.000000 
0.000000 0.000000 0.000000 

-0.000000 -0.000000 0.000000 
0.000000 -0.000000 0.000000 
0.000000 0.000000 0.000000 

-0.000000 -0.000000 0.000000 
0.000000 -0.000000 0.000000 
0.000000 0.000000 0.000000 

0.000000 -0.000000 0.000000 
0.000000 0.000000 0.000000 
0.000000 0.000000 0.000000 

-0.000000 -0.000000 0.000000 
0.000000 -0.000000 0.000000 
0.000000 0.000000 0.000000 

-0.000000 0.000000 0.000000 
0.000000 -0.000000 0.000000 
0.000000 0.000000 0.000000 

-0.000000 -0.000000 0.000000 
0.000000 -0.000000 0.000000 
0.000000 0.000000 0.000000 

-0.000000 -0.000000 0.000000 
0.000000 -0.000000 0.000000 
0.000000 0.000000 0.000000 

0.000000 -0.000000 0.000000 
0.000000 0.000000 0.000000 
0.000000 0.000000 0.000000 

0.000000 -0.000000 0.000000 
0.000000 0.000000 0.000000 
0.000000 0.000000 0.000000 

-0.000000 0.000000 0.000000 
0.000000 -0.000000 0.000000 
0.000000 0.000000 0.000000 

-0.000000 0.000000 0.000000 
0.000000 -0.000000 0.000000 
0.000000 0.000000 0.000000 

0.000000 0.000000 0.000000 
0.000000 0.000000 0.000000 
0.000000 0.000000 0.000000 

-0.000000 -0.000000 0.000000 
0.000000 0.000000 0.000000 
0.000000 0.000000 0.000000 

0.000000 -0.000000 0.000000 
0.000000 0.000000 0.000000 
0.000000 0.000000 0.000000 

0.000000 -0.000000 0.000000 
0.000000 0.000000 0.000000 
0.000000 0.000000 0.000000 

-0.000000 -0.000000 0.000000 
0.000000 -0.000000 0.000000 
0.000000 0.000000 0.000000 

-0.000000 0.000000 0.000000 
0.000000 -0.000000 0.000000 
0.000000 0.000000 0.000000 

-0.000000 0.000000 0.000000 
0.000000 -0.000000 0.000000 
0.000000 0.000000 0.000000 

0.000000 0.000000 0.000000 
0.000000 0.000000 0.000000 
0.000000 0.000000 0.000000 

-0.000000 0.000000 0.000000 
0.000000 -0.000000 0.000000 
0.000000 0.000000 0.000000 

0.000000 0.000000 0.000000 
0.000000 0.000000 0.000000 
0.000000 0.000000 0.000000 

0.000000 0.000000 0.000000 
0.000000 0.000000 0.000000 
0.000000 0.000000 0.000000 

0.000000 0.000000 0.000000 
0.000000 0.000000 0.000000 
0.000000 0.000000 0.000000 

-0.000000 -0.000000 0.000000 
0.000000 -0.000000 0.000000 
0.000000 0.000000 0.000000 

-0.000000 0.000000 0.000000 
0.000000 -0.000000 0.000000 
0.000000 0.000000 0.000000 

-0.000000 0.000000 0.000000 
0.000000 0.000000 0.000000 
0.000000 0.000000 0.000000 

-0.000000 -0.000000 0.000000 
0.000000 0.000000 0.000000 
0.000000 0.000000 0.000000 

-0.000000 0.000000 0.000000 
0.000000 -0.000000 0.000000 
0.000000 0.000000 0.000000 

-0.000000 0.000000 0.000000 
0.000000 -0.000000 0.000000 
0.000000 0.000000 0.000000 

0.000000 0.000000 0.000000 
0.000000 0.000000 0.000000 
0.000000 0.000000 0.000000 

0.000000 0.000000 0.000000 
0.000000 0.000000 0.000000 
0.000000 0.000000 0.000000 

0.000000 0.000000 0.000000 
0.000000 0.000000 0.000000 
0.000000 0.000000 0.000000 

-0.000000 -0.000000 0.000000 
0.000000 -0.000000 0.000000 
0.000000 0.000000 0.000000 

-0.000000 0.000000 0.000000 
0.000000 -0.000000 0.000000 
0.000000 0.000000 0.000000 

-0.000000 0.000000 0.000000 
0.000000 -0.000000 0.000000 
0.000000 0.000000 0.000000 

-0.000000 0.000000 0.000000 
0.000000 -0.000000 0.000000 
0.000000 0.000000 0.000000 

-0.000000 0.000000 0.000000 
0.000000 -0.000000 0.000000 
0.000000 0.000000 0.000000 

0.000000 0.000000 0.000000 
0.000000 0.000000 0.000000 
0.000000 0.000000 0.000000 

0.000000 -0.000000 0.000000 
0.000000 0.000000 0.000000 
0.000000 0.000000 0.000000 

0.000000 -0.000000 0.000000 
0.000000 0.000000 0.000000 
0.000000 0.000000 0.000000 

0.000000 -0.000000 0.000000 
0.000000 0.000000 0.000000 
0.000000 0.000000 0.000000 

0.000000 0.000000 0.000000 
0.000000 0.000000 0.000000 
0.000000 0.000000 0.000000 

-0.000000 0.000000 0.000000 
0.000000 -0.000000 0.000000 
0.000000 0.000000 0.000000 

0.000000 0.000000 0.000000 
0.000000 0.000000 0.000000 
0.000000 0.000000 0.000000 

-0.000000 0.000000 0.000000 
0.000000 -0.000000 0.000000 
0.000000 0.000000 0.000000 

0.000000 -0.000000 0.000000 
0.000000 0.000000 0.000000 
0.000000 0.000000 0.000000 

0.000000 -0.000000 0.000000 
0.000000 0.000000 0.000000 
0.000000 0.000000 0.000000 

0.000000 -0.000000 0.000000 
0.000000 0.000000 0.000000 
0.000000 0.000000 0.000000 

TENSORS STRAIN float 
0.000000 -0.000000 0.000000 
0.000000 -0.000000 0.000000 
0.000000 0.000000 0.000000 

0.000000 0.000000 0.000000 
0.000000 -0.000000 0.000000 
0.000000 0.000000 0.000000 

-0.000000 0.000000 0.000000 
0.000000 -0.000000 0.000000 
0.000000 0.000000 0.000000 

-0.000000 0.000000 0.000000 
0.000000 -0.000000 0.000000 
0.000000 0.000000 0.000000 

-0.000000 0.000000 0.000000 
0.000000 -0.000000 0.000000 
0.000000 0.000000 0.000000 

-0.000000 0.000000 0.000000 
0.000000 0.000000 0.000000 
0.000000 0.000000 0.000000 

-0.000000 0.000000 0.000000 
0.000000 -0.000000 0.000000 
0.000000 0.000000 0.000000 

-0.000000 0.000000 0.000000 
0.000000 -0.000000 0.000000 
0.000000 0.000000 0.000000 

-0.000000 0.000000 0.000000 
0.000000 -0.000000 0.000000 
0.000000 0.000000 0.000000 

0.000000 0.000000 0.000000 
0.000000 -0.000000 0.000000 
0.000000 0.000000 0.000000 

-0.000000 0.000000 0.000000 
0.000000 -0.000000 0.000000 
0.000000 0.000000 0.000000 

-0.000000 -0.000000 0.000000 
0.000000 0.000000 0.000000 
0.000000 0.000000 0.000000 

-0.000000 -0.000000 0.000000 
0.000000 0.000000 0.000000 
0.000000 0.000000 0.000000 

-0.000000 -0.000000 0.000000 
0.000000 0.000000 0.000000 
0.000000 0.000000 0.000000 

-0.000000 0.000000 0.000000 
0.000000 0.000000 0.000000 
0.000000 0.000000 0.000000 

-0.000000 -0.000000 0.000000 
0.000000 0.000000 0.000000 
0.000000 0.000000 0.000000 

-0.000000 0.000000 0.000000 
0.000000 -0.000000 0.000000 
0.000000 0.000000 0.000000 

-0.000000 0.000000 0.000000 
0.000000 0.000000 0.000000 
0.000000 0.000000 0.000000 

-0.000000 0.000000 0.000000 
0.000000 0.000000 0.000000 
0.000000 0.000000 0.000000 

-0.000000 -0.000000 0.000000 
0.000000 0.000000 0.000000 
0.000000 0.000000 0.000000 

-0.000000 -0.000000 0.000000 
0.000000 -0.000000 0.000000 
0.000000 0.000000 0.000000 

-0.000000 -0.000000 0.000000 
0.000000 0.000000 0.000000 
0.000000 0.000000 0.000000 

-0.000000 -0.000000 0.000000 
0.000000 0.000000 0.000000 
0.000000 0.000000 0.000000 

-0.000000 -0.000000 0.000000 
0.000000 0.000000 0.000000 
0.000000 0.000000 0.000000 

-0.000000 -0.000000 0.000000 
0.000000 0.000000 0.000000 
0.000000 0.000000 0.000000 

0.000000 -0.000000 0.000000 
0.000000 -0.000000 0.000000 
0.000000 0.000000 0.000000 

0.000000 0.000000 0.000000 
0.000000 -0.000000 0.000000 
0.000000 0.000000 0.000000 

0.000000 0.000000 0.000000 
0.000000 -0.000000 0.000000 
0.000000 0.000000 0.000000 

0.000000 0.000000 0.000000 
0.000000 -0.000000 0.000000 
0.000000 0.000000 0.000000 

0.000000 -0.000000 0.000000 
0.000000 -0.000000 0.000000 
0.000000 0.000000 0.000000 

0.000000 0.000000 0.000000 
0.000000 -0.000000 0.000000 
0.000000 0.000000 0.000000 

0.000000 -0.000000 0.000000 
0.000000 -0.000000 0.000000 
0.000000 0.000000 0.000000 

0.000000 0.000000 0.000000 
0.000000 -0.000000 0.000000 
0.000000 0.000000 0.000000 

0.000000 0.000000 0.000000 
0.000000 -0.000000 0.000000 
0.000000 0.000000 0.000000 

0.000000 -0.000000 0.000000 
0.000000 0.000000 0.000000 
0.000000 0.000000 0.000000 

0.000000 -0.000000 0.000000 
0.000000 -0.000000 0.000000 
0.000000 0.000000 0.000000 

0.000000 -0.000000 0.000000 
0.000000 -0.000000 0.000000 
0.000000 0.000000 0.000000 

0.000000 -0.000000 0.000000 
0.000000 -0.000000 0.000000 
0.000000 0.000000 0.000000 

0.000000 -0.000000 0.000000 
0.000000 -0.000000 0.000000 
0.000000 0.000000 0.000000 

0.000000 -0.000000 0.000000 
0.000000 -0.000000 0.000000 
0.000000 0.000000 0.000000 

0.000000 0.000000 0.000000 
0.000000 -0.000000 0.000000 
0.000000 0.000000 0.000000 

-0.000000 -0.000000 0.000000 
0.000000 0.000000 0.000000 
0.000000 0.000000 0.000000 

-0.000000 -0.000000 0.000000 
0.000000 0.000000 0.000000 
0.000000 0.000000 0.000000 

-0.000000 -0.000000 0.000000 
0.000000 -0.000000 0.000000 
0.000000 0.000000 0.000000 

-0.000000 -0.000000 0.000000 
0.000000 -0.000000 0.000000 
0.000000 0.000000 0.000000 

0.000000 0.000000 0.000000 
0.000000 -0.000000 0.000000 
0.000000 0.000000 0.000000 

0.000000 -0.000000 0.000000 
0.000000 -0.000000 0.000000 
0.000000 0.000000 0.000000 

0.000000 -0.000000 0.000000 
0.000000 -0.000000 0.000000 
0.000000 0.000000 0.000000 

0.000000 0.000000 0.000000 
0.000000 -0.000000 0.000000 
0.000000 0.000000 0.000000 

-0.000000 0.000000 0.000000 
0.000000 -0.000000 0.000000 
0.000000 0.000000 0.000000 

0.000000 -0.000000 0.000000 
0.000000 0.000000 0.000000 
0.000000 0.000000 0.000000 

0.000000 0.000000 0.000000 
0.000000 0.000000 0.000000 
0.000000 0.000000 0.000000 

0.000000 0.000000 0.000000 
0.000000 0.000000 0.000000 
0.000000 0.000000 0.000000 

0.000000 0.000000 0.000000 
0.000000 0.000000 0.000000 
0.000000 0.000000 0.000000 

0.000000 0.000000 0.000000 
0.000000 -0.000000 0.000000 
0.000000 0.000000 0.000000 

0.000000 0.000000 0.000000 
0.000000 0.000000 0.000000 
0.000000 0.000000 0.000000 

0.000000 0.000000 0.000000 
0.000000 0.000000 0.000000 
0.000000 0.000000 0.000000 

0.000000 0.000000 0.000000 
0.000000 0.000000 0.000000 
0.000000 0.000000 0.000000 

0.000000 -0.000000 0.000000 
0.000000 0.000000 0.000000 
0.000000 0.000000 0.000000 

-0.000000 0.000000 0.000000 
0.000000 -0.000000 0.000000 
0.000000 0.000000 0.000000 

0.000000 0.000000 0.000000 
0.000000 0.000000 0.000000 
0.000000 0.000000 0.000000 

0.000000 -0.000000 0.000000 
0.000000 0.000000 0.000000 
0.000000 0.000000 0.000000 

0.000000 -0.000000 0.000000 
0.000000 0.000000 0.000000 
0.000000 0.000000 0.000000 

0.000000 -0.000000 0.000000 
0.000000 0.000000 0.000000 
0.000000 0.000000 0.000000 

0.000000 -0.000000 0.000000 
0.000000 0.000000 0.000000 
0.000000 0.000000 0.000000 

0.000000 -0.000000 0.000000 
0.000000 0.000000 0.000000 
0.000000 0.000000 0.000000 

-0.000000 -0.000000 0.000000 
0.000000 -0.000000 0.000000 
0.000000 0.000000 0.000000 

0.000000 -0.000000 0.000000 
0.000000 -0.000000 0.000000 
0.000000 0.000000 0.000000 

0.000000 -0.000000 0.000000 
0.000000 -0.000000 0.000000 
0.000000 0.000000 0.000000 

0.000000 -0.000000 0.000000 
0.000000 -0.000000 0.000000 
0.000000 0.000000 0.000000 

0.000000 -0.000000 0.000000 
0.000000 -0.000000 0.000000 
0.000000 0.000000 0.000000 

0.000000 -0.000000 0.000000 
0.000000 -0.000000 0.000000 
0.000000 0.000000 0.000000 

-0.000000 -0.000000 0.000000 
0.000000 -0.000000 0.000000 
0.000000 0.000000 0.000000 

-0.000000 -0.000000 0.000000 
0.000000 0.000000 0.000000 
0.000000 0.000000 0.000000 

-0.000000 -0.000000 0.000000 
0.000000 0.000000 0.000000 
0.000000 0.000000 0.000000 

0.000000 -0.000000 0.000000 
0.000000 0.000000 0.000000 
0.000000 0.000000 0.000000 

0.000000 0.000000 0.000000 
0.000000 0.000000 0.000000 
0.000000 0.000000 0.000000 

0.000000 0.000000 0.000000 
0.000000 0.000000 0.000000 
0.000000 0.000000 0.000000 

0.000000 0.000000 0.000000 
0.000000 0.000000 0.000000 
0.000000 0.000000 0.000000 

0.000000 -0.000000 0.000000 
0.000000 0.000000 0.000000 
0.000000 0.000000 0.000000 

-0.000000 -0.000000 0.000000 
0.000000 0.000000 0.000000 
0.000000 0.000000 0.000000 

-0.000000 -0.000000 0.000000 
0.000000 0.000000 0.000000 
0.000000 0.000000 0.000000 

-0.000000 -0.000000 0.000000 
0.000000 -0.000000 0.000000 
0.000000 0.000000 0.000000 

0.000000 0.000000 0.000000 
0.000000 -0.000000 0.000000 
0.000000 0.000000 0.000000 

0.000000 -0.000000 0.000000 
0.000000 -0.000000 0.000000 
0.000000 0.000000 0.000000 

0.000000 -0.000000 0.000000 
0.000000 0.000000 0.000000 
0.000000 0.000000 0.000000 

-0.000000 -0.000000 0.000000 
0.000000 0.000000 0.000000 
0.000000 0.000000 0.000000 

-0.000000 -0.000000 0.000000 
0.000000 -0.000000 0.000000 
0.000000 0.000000 0.000000 

-0.000000 -0.000000 0.000000 
0.000000 0.000000 0.000000 
0.000000 0.000000 0.000000 

-0.000000 0.000000 0.000000 
0.000000 -0.000000 0.000000 
0.000000 0.000000 0.000000 

-0.000000 0.000000 0.000000 
0.000000 0.000000 0.000000 
0.000000 0.000000 0.000000 

0.000000 -0.000000 0.000000 
0.000000 -0.000000 0.000000 
0.000000 0.000000 0.000000 

0.000000 -0.000000 0.000000 
0.000000 0.000000 0.000000 
0.000000 0.000000 0.000000 

0.000000 -0.000000 0.000000 
0.000000 0.000000 0.000000 
0.000000 0.000000 0.000000 

-0.000000 -0.000000 0.000000 
0.000000 0.000000 0.000000 
0.000000 0.000000 0.000000 

-0.000000 -0.000000 0.000000 
0.000000 0.000000 0.000000 
0.000000 0.000000 0.000000 

-0.000000 -0.000000 0.000000 
0.000000 0.000000 0.000000 
0.000000 0.000000 0.000000 

-0.000000 -0.000000 0.000000 
0.000000 0.000000 0.000000 
0.000000 0.000000 0.000000 

-0.000000 -0.000000 0.000000 
0.000000 0.000000 0.000000 
0.000000 0.000000 0.000000 

-0.000000 -0.000000 0.000000 
0.000000 -0.000000 0.000000 
0.000000 0.000000 0.000000 

0.000000 -0.000000 0.000000 
0.000000 0.000000 0.000000 
0.000000 0.000000 0.000000 

-0.000000 -0.000000 0.000000 
0.000000 0.000000 0.000000 
0.000000 0.000000 0.000000 

-0.000000 -0.000000 0.000000 
0.000000 -0.000000 0.000000 
0.000000 0.000000 0.000000 

-0.000000 -0.000000 0.000000 
0.000000 0.000000 0.000000 
0.000000 0.000000 0.000000 

-0.000000 -0.000000 0.000000 
0.000000 0.000000 0.000000 
0.000000 0.000000 0.000000 

-0.000000 -0.000000 0.000000 
0.000000 0.000000 0.000000 
0.000000 0.000000 0.000000 

-0.000000 -0.000000 0.000000 
0.000000 0.000000 0.000000 
0.000000 0.000000 0.000000 

-0.000000 -0.000000 0.000000 
0.000000 0.000000 0.000000 
0.000000 0.000000 0.000000 

-0.000000 -0.000000 0.000000 
0.000000 0.000000 0.000000 
0.000000 0.000000 0.000000 

-0.000000 -0.000000 0.000000 
0.000000 -0.000000 0.000000 
0.000000 0.000000 0.000000 

0.000000 -0.000000 0.000000 
0.000000 0.000000 0.000000 
0.000000 0.000000 0.000000 

0.000000 -0.000000 0.000000 
0.000000 0.000000 0.000000 
0.000000 0.000000 0.000000 

0.000000 -0.000000 0.000000 
0.000000 0.000000 0.000000 
0.000000 0.000000 0.000000 

0.000000 0.000000 0.000000 
0.000000 0.000000 0.000000 
0.000000 0.000000 0.000000 

0.000000 -0.000000 0.000000 
0.000000 0.000000 0.000000 
0.000000 0.000000 0.000000 

0.000000 -0.000000 0.000000 
0.000000 0.000000 0.000000 
0.000000 0.000000 0.000000 

0.000000 0.000000 0.000000 
0.000000 0.000000 0.000000 
0.000000 0.000000 0.000000 

0.000000 0.000000 0.000000 
0.000000 0.000000 0.000000 
0.000000 0.000000 0.000000 

0.000000 0.000000 0.000000 
0.000000 -0.000000 0.000000 
0.000000 0.000000 0.000000 

0.000000 -0.000000 0.000000 
0.000000 0.000000 0.000000 
0.000000 0.000000 0.000000 

0.000000 0.000000 0.000000 
0.000000 0.000000 0.000000 
0.000000 0.000000 0.000000 

0.000000 0.000000 0.000000 
0.000000 0.000000 0.000000 
0.000000 0.000000 0.000000 

0.000000 0.000000 0.000000 
0.000000 -0.000000 0.000000 
0.000000 0.000000 0.000000 

0.000000 0.000000 0.000000 
0.000000 -0.000000 0.000000 
0.000000 0.000000 0.000000 

0.000000 -0.000000 0.000000 
0.000000 -0.000000 0.000000 
0.000000 0.000000 0.000000 

0.000000 -0.000000 0.000000 
0.000000 -0.000000 0.000000 
0.000000 0.000000 0.000000 

-0.000000 -0.000000 0.000000 
0.000000 -0.000000 0.000000 
0.000000 0.000000 0.000000 

-0.000000 -0.000000 0.000000 
0.000000 -0.000000 0.000000 
0.000000 0.000000 0.000000 

-0.000000 -0.000000 0.000000 
0.000000 -0.000000 0.000000 
0.000000 0.000000 0.000000 

-0.000000 -0.000000 0.000000 
0.000000 0.000000 0.000000 
0.000000 0.000000 0.000000 

-0.000000 -0.000000 0.000000 
0.000000 -0.000000 0.000000 
0.000000 0.000000 0.000000 

-0.000000 0.000000 0.000000 
0.000000 -0.000000 0.000000 
0.000000 0.000000 0.000000 

-0.000000 -0.000000 0.000000 
0.000000 -0.000000 0.000000 
0.000000 0.000000 0.000000 

-0.000000 -0.000000 0.000000 
0.000000 -0.000000 0.000000 
0.000000 0.000000 0.000000 

0.000000 -0.000000 0.000000 
0.000000 0.000000 0.000000 
0.000000 0.000000 0.000000 

-0.000000 -0.000000 0.000000 
0.000000 0.000000 0.000000 
0.000000 0.000000 0.000000 

-0.000000 0.000000 0.000000 
0.000000 -0.000000 0.000000 
0.000000 0.000000 0.000000 

-0.000000 0.000000 0.000000 
0.000000 -0.000000 0.000000 
0.000000 0.000000 0.000000 

-0.000000 0.000000 0.000000 
0.000000 0.000000 0.000000 
0.000000 0.000000 0.000000 

-0.000000 -0.000000 0.000000 
0.000000 0.000000 0.000000 
0.000000 0.000000 0.000000 

-0.000000 -0.000000 0.000000 
0.000000 0.000000 0.000000 
0.000000 0.000000 0.000000 

0.000000 -0.000000 0.000000 
0.000000 0.000000 0.000000 
0.000000 0.000000 0.000000 

0.000000 -0.000000 0.000000 
0.000000 -0.000000 0.000000 
0.000000 0.000000 0.000000 

0.000000 0.000000 0.000000 
0.000000 -0.000000 0.000000 
0.000000 0.000000 0.000000 

0.000000 0.000000 0.000000 
0.000000 -0.000000 0.000000 
0.000000 0.000000 0.000000 

0.000000 0.000000 0.000000 
0.000000 0.000000 0.000000 
0.000000 0.000000 0.000000 

0.000000 0.000000 0.000000 
0.000000 -0.000000 0.000000 
0.000000 0.000000 0.000000 

0.000000 0.000000 0.000000 
0.000000 0.000000 0.000000 
0.000000 0.000000 0.000000 

0.000000 0.000000 0.000000 
0.000000 0.000000 0.000000 
0.000000 0.000000 0.000000 

0.000000 0.000000 0.000000 
0.000000 0.000000 0.000000 
0.000000 0.000000 0.000000 

0.000000 -0.000000 0.000000 
0.000000 -0.000000 0.000000 
0.000000 0.000000 0.000000 

-0.000000 0.000000 0.000000 
0.000000 -0.000000 0.000000 
0.000000 0.000000 0.000000 

-0.000000 0.000000 0.000000 
0.000000 0.000000 0.000000 
0.000000 0.000000 0.000000 

-0.000000 -0.000000 0.000000 
0.000000 0.000000 0.000000 
0.000000 0.000000 0.000000 

-0.000000 0.000000 0.000000 
0.000000 -0.000000 0.000000 
0.000000 0.000000 0.000000 

-0.000000 0.000000 0.000000 
0.000000 -0.000000 0.000000 
0.000000 0.000000 0.000000 

0.000000 0.000000 0.000000 
0.000000 0.000000 0.000000 
0.000000 0.000000 0.000000 

-0.000000 0.000000 0.000000 
0.000000 0.000000 0.000000 
0.000000 0.000000 0.000000 

-0.000000 0.000000 0.000000 
0.000000 0.000000 0.000000 
0.000000 0.000000 0.000000 

-0.000000 -0.000000 0.000000 
0.000000 -0.000000 0.000000 
0.000000 0.000000 0.000000 

-0.000000 0.000000 0.000000 
0.000000 -0.000000 0.000000 
0.000000 0.000000 0.000000 

0.000000 0.000000 0.000000 
0.000000 -0.000000 0.000000 
0.000000 0.000000 0.000000 

0.000000 0.000000 0.000000 
0.000000 -0.000000 0.000000 
0.000000 0.000000 0.000000 

0.000000 0.000000 0.000000 
0.000000 -0.000000 0.000000 
0.000000 0.000000 0.000000 

0.000000 0.000000 0.000000 
0.000000 0.000000 0.000000 
0.000000 0.000000 0.000000 

0.000000 -0.000000 0.000000 
0.000000 0.000000 0.000000 
0.000000 0.000000 0.000000 

-0.000000 -0.000000 0.000000 
0.000000 0.000000 0.000000 
0.000000 0.000000 0.000000 

-0.000000 -0.000000 0.000000 
0.000000 0.000000 0.000000 
0.000000 0.000000 0.000000 

-0.000000 0.000000 0.000000 
0.000000 0.000000 0.000000 
0.000000 0.000000 0.000000 

0.000000 0.000000 0.000000 
0.000000 -0.000000 0.000000 
0.000000 0.000000 0.000000 

0.000000 0.000000 0.000000 
0.000000 0.000000 0.000000 
0.000000 0.000000 0.000000 

0.000000 0.000000 0.000000 
0.000000 -0.000000 0.000000 
0.000000 0.000000 0.000000 

0.000000 -0.000000 0.000000 
0.000000 0.000000 0.000000 
0.000000 0.000000 0.000000 

0.000000 -0.000000 0.000000 
0.000000 0.000000 0.000000 
0.000000 0.000000 0.000000 

0.000000 -0.000000 0.000000 
0.000000 0.000000 0.000000 
0.000000 0.000000 0.000000 

