# vtk DataFile Version 3.0 
vtk output 
ASCII 
DATASET UNSTRUCTURED_GRID 
POINTS 175 float 
-0.026061 -0.125573 0.000000 
-0.106992 -0.057518 0.000000 
-0.054870 -0.065750 0.000000 
-0.028809 -0.019867 0.000000 
-0.186430 0.006558 0.000000 
-0.137056 0.004032 0.000000 
-0.114311 0.057679 0.000000 
-0.058186 0.042013 0.000000 
-0.029377 0.082190 0.000000 
-0.265318 0.069713 0.000000 
-0.217198 0.068914 0.000000 
-0.196633 0.126210 0.000000 
-0.143120 0.117502 0.000000 
-0.116563 0.164770 0.000000 
-0.058945 0.145125 0.000000 
-0.029568 0.183245 0.000000 
-0.344206 0.132869 0.000000 
-0.296791 0.132876 0.000000 
-0.278030 0.192819 0.000000 
-0.225992 0.186953 0.000000 
-0.201664 0.239070 0.000000 
-0.145749 0.225596 0.000000 
-0.117890 0.269939 0.000000 
-0.059328 0.247233 0.000000 
-0.029759 0.284299 0.000000 
-0.058559 -0.166324 0.000000 
-0.162226 -0.187167 0.000000 
-0.123292 -0.151549 0.000000 
-0.142917 -0.102566 0.000000 
-0.261851 -0.209323 0.000000 
-0.229092 -0.172296 0.000000 
-0.256854 -0.121064 0.000000 
-0.209613 -0.086952 0.000000 
-0.223062 -0.039378 0.000000 
-0.360414 -0.231623 0.000000 
-0.329787 -0.194500 0.000000 
-0.361761 -0.142698 0.000000 
-0.321587 -0.106289 0.000000 
-0.341985 -0.056055 0.000000 
-0.290702 -0.023256 0.000000 
-0.302189 0.023479 0.000000 
-0.458977 -0.253923 0.000000 
-0.429420 -0.216849 0.000000 
-0.464588 -0.164807 0.000000 
-0.427556 -0.127779 0.000000 
-0.453135 -0.076265 0.000000 
-0.407738 -0.040949 0.000000 
-0.425037 0.008479 0.000000 
-0.370772 0.040108 0.000000 
-0.381315 0.086335 0.000000 
-0.046960 -0.217139 0.000000 
-0.095301 -0.311185 0.000000 
-0.098873 -0.258538 0.000000 
-0.149405 -0.243340 0.000000 
-0.140093 -0.402889 0.000000 
-0.148617 -0.354191 0.000000 
-0.205981 -0.343954 0.000000 
-0.203197 -0.285750 0.000000 
-0.248777 -0.266604 0.000000 
-0.184111 -0.493853 0.000000 
-0.194039 -0.446762 0.000000 
-0.254475 -0.439462 0.000000 
-0.257893 -0.385352 0.000000 
-0.309886 -0.369980 0.000000 
-0.303554 -0.309435 0.000000 
-0.347255 -0.289277 0.000000 
-0.228129 -0.584816 0.000000 
-0.238687 -0.538592 0.000000 
-0.301302 -0.533640 0.000000 
-0.307162 -0.481601 0.000000 
-0.363386 -0.469480 0.000000 
-0.362692 -0.411969 0.000000 
-0.412122 -0.394676 0.000000 
-0.403017 -0.332529 0.000000 
-0.445733 -0.311950 0.000000 
-0.000000 -0.239754 0.000000 
0.043388 -0.336185 0.000000 
-0.000000 -0.306152 0.000000 
-0.043388 -0.336185 0.000000 
0.087158 -0.428381 0.000000 
0.043769 -0.404683 0.000000 
-0.000000 -0.443149 0.000000 
-0.043769 -0.404683 0.000000 
-0.087158 -0.428381 0.000000 
0.130831 -0.519511 0.000000 
0.087824 -0.497912 0.000000 
0.044436 -0.540612 0.000000 
-0.000000 -0.509547 0.000000 
-0.044436 -0.540612 0.000000 
-0.087824 -0.497912 0.000000 
-0.130831 -0.519511 0.000000 
0.174505 -0.610641 0.000000 
0.131782 -0.590075 0.000000 
0.088871 -0.635941 0.000000 
0.044532 -0.608077 0.000000 
-0.000000 -0.644478 0.000000 
-0.044532 -0.608077 0.000000 
-0.088871 -0.635941 0.000000 
-0.131782 -0.590075 0.000000 
-0.174505 -0.610641 0.000000 
0.046960 -0.217139 0.000000 
0.149405 -0.243340 0.000000 
0.098873 -0.258538 0.000000 
0.095301 -0.311185 0.000000 
0.248777 -0.266604 0.000000 
0.203197 -0.285750 0.000000 
0.205981 -0.343954 0.000000 
0.148617 -0.354191 0.000000 
0.140093 -0.402889 0.000000 
0.347255 -0.289277 0.000000 
0.303554 -0.309435 0.000000 
0.309886 -0.369980 0.000000 
0.257893 -0.385352 0.000000 
0.254475 -0.439462 0.000000 
0.194039 -0.446762 0.000000 
0.184111 -0.493853 0.000000 
0.445733 -0.311950 0.000000 
0.403017 -0.332529 0.000000 
0.412122 -0.394676 0.000000 
0.362692 -0.411969 0.000000 
0.363386 -0.469480 0.000000 
0.307162 -0.481601 0.000000 
0.301302 -0.533640 0.000000 
0.238687 -0.538592 0.000000 
0.228129 -0.584816 0.000000 
0.058559 -0.166324 0.000000 
0.142917 -0.102566 0.000000 
0.123292 -0.151549 0.000000 
0.162226 -0.187167 0.000000 
0.223062 -0.039378 0.000000 
0.209613 -0.086952 0.000000 
0.256854 -0.121064 0.000000 
0.229092 -0.172296 0.000000 
0.261851 -0.209323 0.000000 
0.302189 0.023479 0.000000 
0.290702 -0.023256 0.000000 
0.341985 -0.056055 0.000000 
0.321587 -0.106289 0.000000 
0.361761 -0.142698 0.000000 
0.329787 -0.194500 0.000000 
0.360414 -0.231623 0.000000 
0.381315 0.086335 0.000000 
0.370772 0.040108 0.000000 
0.425037 0.008479 0.000000 
0.407738 -0.040949 0.000000 
0.453135 -0.076265 0.000000 
0.427556 -0.127779 0.000000 
0.464588 -0.164807 0.000000 
0.429420 -0.216849 0.000000 
0.458977 -0.253923 0.000000 
0.026061 -0.125573 0.000000 
0.028809 -0.019867 0.000000 
0.054870 -0.065750 0.000000 
0.106992 -0.057518 0.000000 
0.029377 0.082190 0.000000 
0.058186 0.042013 0.000000 
0.114311 0.057679 0.000000 
0.137056 0.004032 0.000000 
0.186430 0.006558 0.000000 
0.029568 0.183245 0.000000 
0.058945 0.145125 0.000000 
0.116563 0.164770 0.000000 
0.143120 0.117502 0.000000 
0.196633 0.126210 0.000000 
0.217198 0.068914 0.000000 
0.265318 0.069713 0.000000 
0.029759 0.284299 0.000000 
0.059328 0.247233 0.000000 
0.117890 0.269939 0.000000 
0.145749 0.225596 0.000000 
0.201664 0.239070 0.000000 
0.225992 0.186953 0.000000 
0.278030 0.192819 0.000000 
0.296791 0.132876 0.000000 
0.344206 0.132869 0.000000 
CELLS 175 350 
1 0 
1 1 
1 2 
1 3 
1 4 
1 5 
1 6 
1 7 
1 8 
1 9 
1 10 
1 11 
1 12 
1 13 
1 14 
1 15 
1 16 
1 17 
1 18 
1 19 
1 20 
1 21 
1 22 
1 23 
1 24 
1 25 
1 26 
1 27 
1 28 
1 29 
1 30 
1 31 
1 32 
1 33 
1 34 
1 35 
1 36 
1 37 
1 38 
1 39 
1 40 
1 41 
1 42 
1 43 
1 44 
1 45 
1 46 
1 47 
1 48 
1 49 
1 50 
1 51 
1 52 
1 53 
1 54 
1 55 
1 56 
1 57 
1 58 
1 59 
1 60 
1 61 
1 62 
1 63 
1 64 
1 65 
1 66 
1 67 
1 68 
1 69 
1 70 
1 71 
1 72 
1 73 
1 74 
1 75 
1 76 
1 77 
1 78 
1 79 
1 80 
1 81 
1 82 
1 83 
1 84 
1 85 
1 86 
1 87 
1 88 
1 89 
1 90 
1 91 
1 92 
1 93 
1 94 
1 95 
1 96 
1 97 
1 98 
1 99 
1 100 
1 101 
1 102 
1 103 
1 104 
1 105 
1 106 
1 107 
1 108 
1 109 
1 110 
1 111 
1 112 
1 113 
1 114 
1 115 
1 116 
1 117 
1 118 
1 119 
1 120 
1 121 
1 122 
1 123 
1 124 
1 125 
1 126 
1 127 
1 128 
1 129 
1 130 
1 131 
1 132 
1 133 
1 134 
1 135 
1 136 
1 137 
1 138 
1 139 
1 140 
1 141 
1 142 
1 143 
1 144 
1 145 
1 146 
1 147 
1 148 
1 149 
1 150 
1 151 
1 152 
1 153 
1 154 
1 155 
1 156 
1 157 
1 158 
1 159 
1 160 
1 161 
1 162 
1 163 
1 164 
1 165 
1 166 
1 167 
1 168 
1 169 
1 170 
1 171 
1 172 
1 173 
1 174 
CELL_TYPES 175 
1 
1 
1 
1 
1 
1 
1 
1 
1 
1 
1 
1 
1 
1 
1 
1 
1 
1 
1 
1 
1 
1 
1 
1 
1 
1 
1 
1 
1 
1 
1 
1 
1 
1 
1 
1 
1 
1 
1 
1 
1 
1 
1 
1 
1 
1 
1 
1 
1 
1 
1 
1 
1 
1 
1 
1 
1 
1 
1 
1 
1 
1 
1 
1 
1 
1 
1 
1 
1 
1 
1 
1 
1 
1 
1 
1 
1 
1 
1 
1 
1 
1 
1 
1 
1 
1 
1 
1 
1 
1 
1 
1 
1 
1 
1 
1 
1 
1 
1 
1 
1 
1 
1 
1 
1 
1 
1 
1 
1 
1 
1 
1 
1 
1 
1 
1 
1 
1 
1 
1 
1 
1 
1 
1 
1 
1 
1 
1 
1 
1 
1 
1 
1 
1 
1 
1 
1 
1 
1 
1 
1 
1 
1 
1 
1 
1 
1 
1 
1 
1 
1 
1 
1 
1 
1 
1 
1 
1 
1 
1 
1 
1 
1 
1 
1 
1 
1 
1 
1 
1 
1 
1 
1 
1 
1 
POINT_DATA 175 
VECTORS X_GC float 
-0.026061 -0.125573 0.000000 
-0.106992 -0.057518 0.000000 
-0.054870 -0.065750 0.000000 
-0.028809 -0.019867 0.000000 
-0.186430 0.006558 0.000000 
-0.137056 0.004032 0.000000 
-0.114311 0.057679 0.000000 
-0.058186 0.042013 0.000000 
-0.029377 0.082190 0.000000 
-0.265318 0.069713 0.000000 
-0.217198 0.068914 0.000000 
-0.196633 0.126210 0.000000 
-0.143120 0.117502 0.000000 
-0.116563 0.164770 0.000000 
-0.058945 0.145125 0.000000 
-0.029568 0.183245 0.000000 
-0.344206 0.132869 0.000000 
-0.296791 0.132876 0.000000 
-0.278030 0.192819 0.000000 
-0.225992 0.186953 0.000000 
-0.201664 0.239070 0.000000 
-0.145749 0.225596 0.000000 
-0.117890 0.269939 0.000000 
-0.059328 0.247233 0.000000 
-0.029759 0.284299 0.000000 
-0.058559 -0.166324 0.000000 
-0.162226 -0.187167 0.000000 
-0.123292 -0.151549 0.000000 
-0.142917 -0.102566 0.000000 
-0.261851 -0.209323 0.000000 
-0.229092 -0.172296 0.000000 
-0.256854 -0.121064 0.000000 
-0.209613 -0.086952 0.000000 
-0.223062 -0.039378 0.000000 
-0.360414 -0.231623 0.000000 
-0.329787 -0.194500 0.000000 
-0.361761 -0.142698 0.000000 
-0.321587 -0.106289 0.000000 
-0.341985 -0.056055 0.000000 
-0.290702 -0.023256 0.000000 
-0.302189 0.023479 0.000000 
-0.458977 -0.253923 0.000000 
-0.429420 -0.216849 0.000000 
-0.464588 -0.164807 0.000000 
-0.427556 -0.127779 0.000000 
-0.453135 -0.076265 0.000000 
-0.407738 -0.040949 0.000000 
-0.425037 0.008479 0.000000 
-0.370772 0.040108 0.000000 
-0.381315 0.086335 0.000000 
-0.046960 -0.217139 0.000000 
-0.095301 -0.311185 0.000000 
-0.098873 -0.258538 0.000000 
-0.149405 -0.243340 0.000000 
-0.140093 -0.402889 0.000000 
-0.148617 -0.354191 0.000000 
-0.205981 -0.343954 0.000000 
-0.203197 -0.285750 0.000000 
-0.248777 -0.266604 0.000000 
-0.184111 -0.493853 0.000000 
-0.194039 -0.446762 0.000000 
-0.254475 -0.439462 0.000000 
-0.257893 -0.385352 0.000000 
-0.309886 -0.369980 0.000000 
-0.303554 -0.309435 0.000000 
-0.347255 -0.289277 0.000000 
-0.228129 -0.584816 0.000000 
-0.238687 -0.538592 0.000000 
-0.301302 -0.533640 0.000000 
-0.307162 -0.481601 0.000000 
-0.363386 -0.469480 0.000000 
-0.362692 -0.411969 0.000000 
-0.412122 -0.394676 0.000000 
-0.403017 -0.332529 0.000000 
-0.445733 -0.311950 0.000000 
-0.000000 -0.239754 0.000000 
0.043388 -0.336185 0.000000 
-0.000000 -0.306152 0.000000 
-0.043388 -0.336185 0.000000 
0.087158 -0.428381 0.000000 
0.043769 -0.404683 0.000000 
-0.000000 -0.443149 0.000000 
-0.043769 -0.404683 0.000000 
-0.087158 -0.428381 0.000000 
0.130831 -0.519511 0.000000 
0.087824 -0.497912 0.000000 
0.044436 -0.540612 0.000000 
-0.000000 -0.509547 0.000000 
-0.044436 -0.540612 0.000000 
-0.087824 -0.497912 0.000000 
-0.130831 -0.519511 0.000000 
0.174505 -0.610641 0.000000 
0.131782 -0.590075 0.000000 
0.088871 -0.635941 0.000000 
0.044532 -0.608077 0.000000 
-0.000000 -0.644478 0.000000 
-0.044532 -0.608077 0.000000 
-0.088871 -0.635941 0.000000 
-0.131782 -0.590075 0.000000 
-0.174505 -0.610641 0.000000 
0.046960 -0.217139 0.000000 
0.149405 -0.243340 0.000000 
0.098873 -0.258538 0.000000 
0.095301 -0.311185 0.000000 
0.248777 -0.266604 0.000000 
0.203197 -0.285750 0.000000 
0.205981 -0.343954 0.000000 
0.148617 -0.354191 0.000000 
0.140093 -0.402889 0.000000 
0.347255 -0.289277 0.000000 
0.303554 -0.309435 0.000000 
0.309886 -0.369980 0.000000 
0.257893 -0.385352 0.000000 
0.254475 -0.439462 0.000000 
0.194039 -0.446762 0.000000 
0.184111 -0.493853 0.000000 
0.445733 -0.311950 0.000000 
0.403017 -0.332529 0.000000 
0.412122 -0.394676 0.000000 
0.362692 -0.411969 0.000000 
0.363386 -0.469480 0.000000 
0.307162 -0.481601 0.000000 
0.301302 -0.533640 0.000000 
0.238687 -0.538592 0.000000 
0.228129 -0.584816 0.000000 
0.058559 -0.166324 0.000000 
0.142917 -0.102566 0.000000 
0.123292 -0.151549 0.000000 
0.162226 -0.187167 0.000000 
0.223062 -0.039378 0.000000 
0.209613 -0.086952 0.000000 
0.256854 -0.121064 0.000000 
0.229092 -0.172296 0.000000 
0.261851 -0.209323 0.000000 
0.302189 0.023479 0.000000 
0.290702 -0.023256 0.000000 
0.341985 -0.056055 0.000000 
0.321587 -0.106289 0.000000 
0.361761 -0.142698 0.000000 
0.329787 -0.194500 0.000000 
0.360414 -0.231623 0.000000 
0.381315 0.086335 0.000000 
0.370772 0.040108 0.000000 
0.425037 0.008479 0.000000 
0.407738 -0.040949 0.000000 
0.453135 -0.076265 0.000000 
0.427556 -0.127779 0.000000 
0.464588 -0.164807 0.000000 
0.429420 -0.216849 0.000000 
0.458977 -0.253923 0.000000 
0.026061 -0.125573 0.000000 
0.028809 -0.019867 0.000000 
0.054870 -0.065750 0.000000 
0.106992 -0.057518 0.000000 
0.029377 0.082190 0.000000 
0.058186 0.042013 0.000000 
0.114311 0.057679 0.000000 
0.137056 0.004032 0.000000 
0.186430 0.006558 0.000000 
0.029568 0.183245 0.000000 
0.058945 0.145125 0.000000 
0.116563 0.164770 0.000000 
0.143120 0.117502 0.000000 
0.196633 0.126210 0.000000 
0.217198 0.068914 0.000000 
0.265318 0.069713 0.000000 
0.029759 0.284299 0.000000 
0.059328 0.247233 0.000000 
0.117890 0.269939 0.000000 
0.145749 0.225596 0.000000 
0.201664 0.239070 0.000000 
0.225992 0.186953 0.000000 
0.278030 0.192819 0.000000 
0.296791 0.132876 0.000000 
0.344206 0.132869 0.000000 
VECTORS X_EC float 
0.338794 0.195239 0.000000 
-0.609100 -0.723510 0.000000 
0.713312 -0.612369 0.000000 
0.374519 0.768201 0.000000 
0.423588 0.411471 0.000000 
-0.218274 0.445575 0.000000 
-0.513962 -0.278664 0.000000 
0.756418 -0.067178 0.000000 
0.381900 -0.609571 0.000000 
-0.550868 -0.441132 0.000000 
0.823577 -0.430337 0.000000 
0.556234 0.796159 0.000000 
-0.139443 0.913728 0.000000 
-0.484677 0.275604 0.000000 
0.766286 0.540819 0.000000 
0.384386 0.026198 0.000000 
0.474677 0.706265 0.000000 
-0.141715 0.706168 0.000000 
-0.385608 -0.103060 0.000000 
0.937896 -0.023864 0.000000 
0.621631 -0.727444 0.000000 
-0.105264 -0.545545 0.000000 
-0.467428 0.855828 0.000000 
0.771260 -0.837643 0.000000 
0.386873 0.661968 0.000000 
0.761262 0.745373 0.000000 
0.108942 -0.973250 0.000000 
-0.397202 0.545911 0.000000 
-0.142083 -0.115365 0.000000 
-0.595936 -0.674140 0.000000 
0.978194 0.825995 0.000000 
-0.660903 0.134370 0.000000 
0.724964 -0.326150 0.000000 
0.899809 -0.968399 0.000000 
0.685384 -0.373087 0.000000 
0.287229 -0.874246 0.000000 
0.702895 0.426426 0.000000 
0.180633 -0.065093 0.000000 
0.445811 -0.743253 0.000000 
-0.220880 0.813961 0.000000 
-0.071546 0.183036 0.000000 
-0.033296 -0.072035 0.000000 
-0.417537 -0.572545 0.000000 
0.039645 0.724893 0.000000 
-0.441768 0.225022 0.000000 
-0.109248 -0.470429 0.000000 
-0.699407 -0.947185 0.000000 
-0.474522 0.385536 0.000000 
0.820030 -0.041457 0.000000 
0.957100 -0.665529 0.000000 
0.610485 -0.568620 0.000000 
-0.761092 0.700999 0.000000 
-0.714655 -0.009739 0.000000 
-0.057734 -0.214906 0.000000 
-0.178789 -0.060997 0.000000 
-0.067979 -0.718423 0.000000 
0.677748 -0.856626 0.000000 
0.641556 0.357628 0.000000 
-0.765897 0.099150 0.000000 
0.393446 -0.832988 0.000000 
0.522510 0.531282 0.000000 
-0.691820 0.432738 0.000000 
-0.647393 -0.297745 0.000000 
0.028512 -0.505271 0.000000 
-0.053800 0.677368 0.000000 
0.514316 0.405238 0.000000 
0.965681 0.395021 0.000000 
-0.897068 -0.229008 0.000000 
-0.083078 -0.295861 0.000000 
-0.006893 -0.998385 0.000000 
0.724017 0.837982 0.000000 
0.714996 0.061578 0.000000 
-0.642413 -0.171879 0.000000 
-0.760780 0.989141 0.000000 
-0.205471 0.711325 0.000000 
0.000000 -0.263319 0.000000 
-0.564049 -0.961506 0.000000 
0.000000 0.633058 0.000000 
0.564049 -0.961506 0.000000 
0.866949 0.283149 0.000000 
-0.569003 -0.036782 0.000000 
0.000000 0.482506 0.000000 
0.569003 -0.036782 0.000000 
-0.866949 0.283149 0.000000 
0.299194 -0.486601 0.000000 
0.858290 -0.778184 0.000000 
-0.577662 -0.201739 0.000000 
0.000000 -0.621117 0.000000 
0.577662 -0.201739 0.000000 
-0.858290 -0.778184 0.000000 
-0.299194 -0.486601 0.000000 
-0.268560 0.743649 0.000000 
0.286830 0.466008 0.000000 
0.844677 -0.914794 0.000000 
-0.578910 0.709043 0.000000 
0.000000 -0.799553 0.000000 
0.578910 0.709043 0.000000 
-0.844677 -0.914794 0.000000 
-0.286830 0.466008 0.000000 
0.268560 0.743649 0.000000 
-0.610485 -0.568620 0.000000 
0.057734 -0.214906 0.000000 
0.714655 -0.009739 0.000000 
0.761092 0.700999 0.000000 
0.765897 0.099150 0.000000 
-0.641556 0.357628 0.000000 
-0.677748 -0.856626 0.000000 
0.067979 -0.718423 0.000000 
0.178789 -0.060997 0.000000 
-0.514316 0.405238 0.000000 
0.053800 0.677368 0.000000 
-0.028512 -0.505271 0.000000 
0.647393 -0.297745 0.000000 
0.691820 0.432738 0.000000 
-0.522510 0.531282 0.000000 
-0.393446 -0.832988 0.000000 
0.205471 0.711325 0.000000 
0.760780 0.989141 0.000000 
0.642413 -0.171879 0.000000 
-0.714996 0.061578 0.000000 
-0.724017 0.837982 0.000000 
0.006894 -0.998385 0.000000 
0.083078 -0.295861 0.000000 
0.897068 -0.229008 0.000000 
-0.965681 0.395021 0.000000 
-0.761262 0.745373 0.000000 
0.142083 -0.115365 0.000000 
0.397202 0.545911 0.000000 
-0.108942 -0.973250 0.000000 
-0.899809 -0.968399 0.000000 
-0.724964 -0.326150 0.000000 
0.660903 0.134370 0.000000 
-0.978194 0.825995 0.000000 
0.595936 -0.674140 0.000000 
0.071546 0.183036 0.000000 
0.220880 0.813961 0.000000 
-0.445811 -0.743253 0.000000 
-0.180633 -0.065093 0.000000 
-0.702895 0.426426 0.000000 
-0.287229 -0.874246 0.000000 
-0.685384 -0.373087 0.000000 
-0.957100 -0.665529 0.000000 
-0.820030 -0.041457 0.000000 
0.474522 0.385536 0.000000 
0.699407 -0.947185 0.000000 
0.109248 -0.470429 0.000000 
0.441768 0.225022 0.000000 
-0.039645 0.724893 0.000000 
0.417537 -0.572545 0.000000 
0.033296 -0.072035 0.000000 
-0.338794 0.195239 0.000000 
-0.374519 0.768201 0.000000 
-0.713312 -0.612369 0.000000 
0.609100 -0.723510 0.000000 
-0.381900 -0.609571 0.000000 
-0.756418 -0.067178 0.000000 
0.513962 -0.278664 0.000000 
0.218274 0.445575 0.000000 
-0.423588 0.411471 0.000000 
-0.384386 0.026198 0.000000 
-0.766286 0.540819 0.000000 
0.484677 0.275604 0.000000 
0.139443 0.913728 0.000000 
-0.556234 0.796159 0.000000 
-0.823577 -0.430337 0.000000 
0.550868 -0.441132 0.000000 
-0.386873 0.661968 0.000000 
-0.771260 -0.837643 0.000000 
0.467428 0.855828 0.000000 
0.105264 -0.545545 0.000000 
-0.621631 -0.727444 0.000000 
-0.937896 -0.023864 0.000000 
0.385608 -0.103060 0.000000 
0.141715 0.706168 0.000000 
-0.474677 0.706265 0.000000 
CELL_DATA 175 
SCALARS MASS float 
LOOKUP_TABLE default 
0.078183 
0.086427 
0.094672 
0.086427 
0.088131 
0.092111 
0.085854 
0.092111 
0.088131 
0.088705 
0.091000 
0.086983 
0.091556 
0.086983 
0.091000 
0.088705 
0.089278 
0.091574 
0.089278 
0.092722 
0.089278 
0.092722 
0.089278 
0.091574 
0.089278 
0.078183 
0.086427 
0.094672 
0.086427 
0.088131 
0.092111 
0.085854 
0.092111 
0.088131 
0.088705 
0.091000 
0.086983 
0.091556 
0.086983 
0.091000 
0.088705 
0.089278 
0.091574 
0.089278 
0.092722 
0.089278 
0.092722 
0.089278 
0.091574 
0.089278 
0.078183 
0.086427 
0.094672 
0.086427 
0.088131 
0.092111 
0.085854 
0.092111 
0.088131 
0.088705 
0.091000 
0.086983 
0.091556 
0.086983 
0.091000 
0.088705 
0.089278 
0.091574 
0.089278 
0.092722 
0.089278 
0.092722 
0.089278 
0.091574 
0.089278 
0.078183 
0.086427 
0.094672 
0.086427 
0.088131 
0.092111 
0.085854 
0.092111 
0.088131 
0.088705 
0.091000 
0.086983 
0.091556 
0.086983 
0.091000 
0.088705 
0.089278 
0.091574 
0.089278 
0.092722 
0.089278 
0.092722 
0.089278 
0.091574 
0.089278 
0.078183 
0.086427 
0.094672 
0.086427 
0.088131 
0.092111 
0.085854 
0.092111 
0.088131 
0.088705 
0.091000 
0.086983 
0.091556 
0.086983 
0.091000 
0.088705 
0.089278 
0.091574 
0.089278 
0.092722 
0.089278 
0.092722 
0.089278 
0.091574 
0.089278 
0.078183 
0.086427 
0.094672 
0.086427 
0.088131 
0.092111 
0.085854 
0.092111 
0.088131 
0.088705 
0.091000 
0.086983 
0.091556 
0.086983 
0.091000 
0.088705 
0.089278 
0.091574 
0.089278 
0.092722 
0.089278 
0.092722 
0.089278 
0.091574 
0.089278 
0.078183 
0.086427 
0.094672 
0.086427 
0.088131 
0.092111 
0.085854 
0.092111 
0.088131 
0.088705 
0.091000 
0.086983 
0.091556 
0.086983 
0.091000 
0.088705 
0.089278 
0.091574 
0.089278 
0.092722 
0.089278 
0.092722 
0.089278 
0.091574 
0.089278 
SCALARS MASS float 
LOOKUP_TABLE default 
0.078183 
0.086427 
0.094672 
0.086427 
0.088131 
0.092111 
0.085854 
0.092111 
0.088131 
0.088705 
0.091000 
0.086983 
0.091556 
0.086983 
0.091000 
0.088705 
0.089278 
0.091574 
0.089278 
0.092722 
0.089278 
0.092722 
0.089278 
0.091574 
0.089278 
0.078183 
0.086427 
0.094672 
0.086427 
0.088131 
0.092111 
0.085854 
0.092111 
0.088131 
0.088705 
0.091000 
0.086983 
0.091556 
0.086983 
0.091000 
0.088705 
0.089278 
0.091574 
0.089278 
0.092722 
0.089278 
0.092722 
0.089278 
0.091574 
0.089278 
0.078183 
0.086427 
0.094672 
0.086427 
0.088131 
0.092111 
0.085854 
0.092111 
0.088131 
0.088705 
0.091000 
0.086983 
0.091556 
0.086983 
0.091000 
0.088705 
0.089278 
0.091574 
0.089278 
0.092722 
0.089278 
0.092722 
0.089278 
0.091574 
0.089278 
0.078183 
0.086427 
0.094672 
0.086427 
0.088131 
0.092111 
0.085854 
0.092111 
0.088131 
0.088705 
0.091000 
0.086983 
0.091556 
0.086983 
0.091000 
0.088705 
0.089278 
0.091574 
0.089278 
0.092722 
0.089278 
0.092722 
0.089278 
0.091574 
0.089278 
0.078183 
0.086427 
0.094672 
0.086427 
0.088131 
0.092111 
0.085854 
0.092111 
0.088131 
0.088705 
0.091000 
0.086983 
0.091556 
0.086983 
0.091000 
0.088705 
0.089278 
0.091574 
0.089278 
0.092722 
0.089278 
0.092722 
0.089278 
0.091574 
0.089278 
0.078183 
0.086427 
0.094672 
0.086427 
0.088131 
0.092111 
0.085854 
0.092111 
0.088131 
0.088705 
0.091000 
0.086983 
0.091556 
0.086983 
0.091000 
0.088705 
0.089278 
0.091574 
0.089278 
0.092722 
0.089278 
0.092722 
0.089278 
0.091574 
0.089278 
0.078183 
0.086427 
0.094672 
0.086427 
0.088131 
0.092111 
0.085854 
0.092111 
0.088131 
0.088705 
0.091000 
0.086983 
0.091556 
0.086983 
0.091000 
0.088705 
0.089278 
0.091574 
0.089278 
0.092722 
0.089278 
0.092722 
0.089278 
0.091574 
0.089278 
SCALARS DENSITY float 
LOOKUP_TABLE default 
20.000000 
20.000000 
20.000000 
20.000000 
20.000000 
20.000000 
20.000000 
20.000000 
20.000000 
20.000000 
20.000000 
20.000000 
20.000000 
20.000000 
20.000000 
20.000000 
20.000000 
20.000000 
20.000000 
20.000000 
20.000000 
20.000000 
20.000000 
20.000000 
20.000000 
20.000000 
20.000000 
20.000000 
20.000000 
20.000000 
20.000000 
20.000000 
20.000000 
20.000000 
20.000000 
20.000000 
20.000000 
20.000000 
20.000000 
20.000000 
20.000000 
20.000000 
20.000000 
20.000000 
20.000000 
20.000000 
20.000000 
20.000000 
20.000000 
20.000000 
20.000000 
20.000000 
20.000000 
20.000000 
20.000000 
20.000000 
20.000000 
20.000000 
20.000000 
20.000000 
20.000000 
20.000000 
20.000000 
20.000000 
20.000000 
20.000000 
20.000000 
20.000000 
20.000000 
20.000000 
20.000000 
20.000000 
20.000000 
20.000000 
20.000000 
20.000000 
20.000000 
20.000000 
20.000000 
20.000000 
20.000000 
20.000000 
20.000000 
20.000000 
20.000000 
20.000000 
20.000000 
20.000000 
20.000000 
20.000000 
20.000000 
20.000000 
20.000000 
20.000000 
20.000000 
20.000000 
20.000000 
20.000000 
20.000000 
20.000000 
20.000000 
20.000000 
20.000000 
20.000000 
20.000000 
20.000000 
20.000000 
20.000000 
20.000000 
20.000000 
20.000000 
20.000000 
20.000000 
20.000000 
20.000000 
20.000000 
20.000000 
20.000000 
20.000000 
20.000000 
20.000000 
20.000000 
20.000000 
20.000000 
20.000000 
20.000000 
20.000000 
20.000000 
20.000000 
20.000000 
20.000000 
20.000000 
20.000000 
20.000000 
20.000000 
20.000000 
20.000000 
20.000000 
20.000000 
20.000000 
20.000000 
20.000000 
20.000000 
20.000000 
20.000000 
20.000000 
20.000000 
20.000000 
20.000000 
20.000000 
20.000000 
20.000000 
20.000000 
20.000000 
20.000000 
20.000000 
20.000000 
20.000000 
20.000000 
20.000000 
20.000000 
20.000000 
20.000000 
20.000000 
20.000000 
20.000000 
20.000000 
20.000000 
20.000000 
20.000000 
20.000000 
20.000000 
20.000000 
20.000000 
20.000000 
SCALARS ELEM_i float 
LOOKUP_TABLE default 
181 
208 
181 
182 
209 
209 
209 
182 
182 
236 
209 
210 
210 
210 
183 
183 
237 
237 
237 
210 
210 
210 
211 
183 
184 
181 
207 
208 
208 
234 
208 
235 
208 
208 
234 
234 
235 
235 
235 
236 
236 
261 
261 
262 
262 
262 
262 
263 
236 
236 
180 
207 
207 
207 
206 
206 
206 
207 
234 
205 
206 
233 
233 
233 
234 
234 
205 
232 
232 
232 
233 
233 
260 
261 
261 
180 
179 
180 
179 
152 
179 
179 
179 
206 
151 
151 
178 
178 
178 
205 
205 
151 
151 
150 
178 
177 
178 
204 
205 
205 
180 
153 
153 
153 
126 
153 
152 
152 
152 
126 
126 
125 
125 
125 
152 
151 
99 
99 
98 
125 
125 
124 
124 
124 
151 
181 
154 
154 
153 
154 
154 
127 
154 
126 
128 
128 
127 
127 
127 
126 
126 
128 
128 
101 
100 
100 
100 
100 
99 
99 
181 
182 
181 
154 
182 
182 
155 
155 
155 
183 
183 
156 
156 
156 
155 
128 
184 
183 
157 
156 
156 
156 
129 
129 
129 
VECTORS VELOCITY float 
-0.000000 -1.877242 0.000000 
-0.000000 -1.877242 0.000000 
-0.000000 -1.877242 0.000000 
-0.000000 -1.877242 0.000000 
0.000000 -1.877242 0.000000 
0.000000 -1.877242 0.000000 
0.000000 -1.877242 0.000000 
0.000000 -1.877242 0.000000 
0.000000 -1.877242 0.000000 
0.000000 -1.877242 0.000000 
0.000000 -1.877242 0.000000 
-0.000000 -1.877242 0.000000 
-0.000000 -1.877242 0.000000 
-0.000000 -1.877242 0.000000 
-0.000000 -1.877242 0.000000 
-0.000000 -1.877242 0.000000 
0.000000 -1.877242 0.000000 
0.000000 -1.877242 0.000000 
-0.000000 -1.877242 0.000000 
-0.000000 -1.877242 0.000000 
-0.000000 -1.877242 0.000000 
-0.000000 -1.877242 0.000000 
0.000000 -1.877242 0.000000 
-0.000000 -1.877242 0.000000 
-0.000000 -1.877242 0.000000 
0.000000 -1.877242 0.000000 
-0.000000 -1.877242 0.000000 
-0.000000 -1.877242 0.000000 
0.000000 -1.877242 0.000000 
-0.000000 -1.877242 0.000000 
-0.000000 -1.877242 0.000000 
0.000000 -1.877242 0.000000 
0.000000 -1.877242 0.000000 
0.000000 -1.877242 0.000000 
-0.000000 -1.877242 0.000000 
-0.000000 -1.877242 0.000000 
-0.000000 -1.877242 0.000000 
0.000000 -1.877242 0.000000 
0.000000 -1.877242 0.000000 
0.000000 -1.877242 0.000000 
0.000000 -1.877242 0.000000 
0.000000 -1.877242 0.000000 
0.000000 -1.877242 0.000000 
0.000000 -1.877242 0.000000 
-0.000000 -1.877242 0.000000 
-0.000000 -1.877242 0.000000 
-0.000000 -1.877242 0.000000 
0.000000 -1.877242 0.000000 
-0.000000 -1.877242 0.000000 
-0.000000 -1.877242 0.000000 
0.000000 -1.877242 0.000000 
-0.000000 -1.877242 0.000000 
0.000000 -1.877242 0.000000 
-0.000000 -1.877242 0.000000 
-0.000000 -1.877242 0.000000 
0.000000 -1.877242 0.000000 
0.000000 -1.877242 0.000000 
0.000000 -1.877242 0.000000 
-0.000000 -1.877242 0.000000 
-0.000000 -1.877242 0.000000 
0.000000 -1.877242 0.000000 
0.000000 -1.877242 0.000000 
0.000000 -1.877242 0.000000 
0.000000 -1.877242 0.000000 
0.000000 -1.877242 0.000000 
-0.000000 -1.877242 0.000000 
-0.000000 -1.877242 0.000000 
-0.000000 -1.877242 0.000000 
0.000000 -1.877242 0.000000 
-0.000000 -1.877242 0.000000 
-0.000000 -1.877242 0.000000 
-0.000000 -1.877242 0.000000 
0.000000 -1.877242 0.000000 
-0.000000 -1.877242 0.000000 
-0.000000 -1.877242 0.000000 
-0.000000 -1.877242 0.000000 
-0.000000 -1.877242 0.000000 
-0.000000 -1.877242 0.000000 
-0.000000 -1.877242 0.000000 
0.000000 -1.877242 0.000000 
0.000000 -1.877242 0.000000 
-0.000000 -1.877242 0.000000 
-0.000000 -1.877242 0.000000 
-0.000000 -1.877242 0.000000 
0.000000 -1.877242 0.000000 
0.000000 -1.877242 0.000000 
0.000000 -1.877242 0.000000 
0.000000 -1.877242 0.000000 
-0.000000 -1.877242 0.000000 
-0.000000 -1.877242 0.000000 
-0.000000 -1.877242 0.000000 
0.000000 -1.877242 0.000000 
0.000000 -1.877242 0.000000 
0.000000 -1.877242 0.000000 
-0.000000 -1.877242 0.000000 
0.000000 -1.877242 0.000000 
-0.000000 -1.877242 0.000000 
-0.000000 -1.877242 0.000000 
-0.000000 -1.877242 0.000000 
-0.000000 -1.877242 0.000000 
-0.000000 -1.877242 0.000000 
-0.000000 -1.877242 0.000000 
-0.000000 -1.877242 0.000000 
-0.000000 -1.877242 0.000000 
-0.000000 -1.877242 0.000000 
-0.000000 -1.877242 0.000000 
0.000000 -1.877242 0.000000 
0.000000 -1.877242 0.000000 
0.000000 -1.877242 0.000000 
0.000000 -1.877242 0.000000 
0.000000 -1.877242 0.000000 
0.000000 -1.877242 0.000000 
0.000000 -1.877242 0.000000 
-0.000000 -1.877242 0.000000 
-0.000000 -1.877242 0.000000 
-0.000000 -1.877242 0.000000 
0.000000 -1.877242 0.000000 
0.000000 -1.877242 0.000000 
0.000000 -1.877242 0.000000 
0.000000 -1.877242 0.000000 
0.000000 -1.877242 0.000000 
0.000000 -1.877242 0.000000 
-0.000000 -1.877242 0.000000 
-0.000000 -1.877242 0.000000 
0.000000 -1.877242 0.000000 
-0.000000 -1.877242 0.000000 
-0.000000 -1.877242 0.000000 
-0.000000 -1.877242 0.000000 
-0.000000 -1.877242 0.000000 
0.000000 -1.877242 0.000000 
0.000000 -1.877242 0.000000 
-0.000000 -1.877242 0.000000 
-0.000000 -1.877242 0.000000 
-0.000000 -1.877242 0.000000 
-0.000000 -1.877242 0.000000 
0.000000 -1.877242 0.000000 
0.000000 -1.877242 0.000000 
0.000000 -1.877242 0.000000 
0.000000 -1.877242 0.000000 
-0.000000 -1.877242 0.000000 
0.000000 -1.877242 0.000000 
0.000000 -1.877242 0.000000 
-0.000000 -1.877242 0.000000 
-0.000000 -1.877242 0.000000 
0.000000 -1.877242 0.000000 
0.000000 -1.877242 0.000000 
0.000000 -1.877242 0.000000 
0.000000 -1.877242 0.000000 
0.000000 -1.877242 0.000000 
0.000000 -1.877242 0.000000 
-0.000000 -1.877242 0.000000 
-0.000000 -1.877242 0.000000 
-0.000000 -1.877242 0.000000 
-0.000000 -1.877242 0.000000 
0.000000 -1.877242 0.000000 
0.000000 -1.877242 0.000000 
0.000000 -1.877242 0.000000 
-0.000000 -1.877242 0.000000 
-0.000000 -1.877242 0.000000 
0.000000 -1.877242 0.000000 
0.000000 -1.877242 0.000000 
0.000000 -1.877242 0.000000 
0.000000 -1.877242 0.000000 
-0.000000 -1.877242 0.000000 
-0.000000 -1.877242 0.000000 
-0.000000 -1.877242 0.000000 
-0.000000 -1.877242 0.000000 
0.000000 -1.877242 0.000000 
0.000000 -1.877242 0.000000 
0.000000 -1.877242 0.000000 
-0.000000 -1.877242 0.000000 
0.000000 -1.877242 0.000000 
-0.000000 -1.877242 0.000000 
-0.000000 -1.877242 0.000000 
0.000000 -1.877242 0.000000 
TENSORS STRESS float 
0.000000 0.000000 0.000000 
0.000000 0.000000 0.000000 
0.000000 0.000000 0.000000 

0.000000 0.000000 0.000000 
0.000000 0.000000 0.000000 
0.000000 0.000000 0.000000 

0.000000 0.000000 0.000000 
0.000000 0.000000 0.000000 
0.000000 0.000000 0.000000 

-0.000000 -0.000000 0.000000 
0.000000 0.000000 0.000000 
0.000000 0.000000 0.000000 

0.000000 -0.000000 0.000000 
0.000000 0.000000 0.000000 
0.000000 0.000000 0.000000 

0.000000 -0.000000 0.000000 
0.000000 0.000000 0.000000 
0.000000 0.000000 0.000000 

-0.000000 0.000000 0.000000 
0.000000 -0.000000 0.000000 
0.000000 0.000000 0.000000 

-0.000000 -0.000000 0.000000 
0.000000 -0.000000 0.000000 
0.000000 0.000000 0.000000 

-0.000000 -0.000000 0.000000 
0.000000 -0.000000 0.000000 
0.000000 0.000000 0.000000 

0.000000 0.000000 0.000000 
0.000000 -0.000000 0.000000 
0.000000 0.000000 0.000000 

-0.000000 -0.000000 0.000000 
0.000000 -0.000000 0.000000 
0.000000 0.000000 0.000000 

0.000000 -0.000000 0.000000 
0.000000 0.000000 0.000000 
0.000000 0.000000 0.000000 

-0.000000 -0.000000 0.000000 
0.000000 -0.000000 0.000000 
0.000000 0.000000 0.000000 

0.000000 -0.000000 0.000000 
0.000000 0.000000 0.000000 
0.000000 0.000000 0.000000 

0.000000 -0.000000 0.000000 
0.000000 -0.000000 0.000000 
0.000000 0.000000 0.000000 

-0.000000 -0.000000 0.000000 
0.000000 -0.000000 0.000000 
0.000000 0.000000 0.000000 

0.000000 -0.000000 0.000000 
0.000000 0.000000 0.000000 
0.000000 0.000000 0.000000 

0.000000 0.000000 0.000000 
0.000000 0.000000 0.000000 
0.000000 0.000000 0.000000 

0.000000 -0.000000 0.000000 
0.000000 0.000000 0.000000 
0.000000 0.000000 0.000000 

0.000000 -0.000000 0.000000 
0.000000 0.000000 0.000000 
0.000000 0.000000 0.000000 

-0.000000 -0.000000 0.000000 
0.000000 -0.000000 0.000000 
0.000000 0.000000 0.000000 

0.000000 -0.000000 0.000000 
0.000000 0.000000 0.000000 
0.000000 0.000000 0.000000 

0.000000 -0.000000 0.000000 
0.000000 0.000000 0.000000 
0.000000 0.000000 0.000000 

-0.000000 -0.000000 0.000000 
0.000000 -0.000000 0.000000 
0.000000 0.000000 0.000000 

-0.000000 0.000000 0.000000 
0.000000 0.000000 0.000000 
0.000000 0.000000 0.000000 

-0.000000 0.000000 0.000000 
0.000000 0.000000 0.000000 
0.000000 0.000000 0.000000 

0.000000 0.000000 0.000000 
0.000000 0.000000 0.000000 
0.000000 0.000000 0.000000 

0.000000 0.000000 0.000000 
0.000000 0.000000 0.000000 
0.000000 0.000000 0.000000 

-0.000000 0.000000 0.000000 
0.000000 -0.000000 0.000000 
0.000000 0.000000 0.000000 

0.000000 0.000000 0.000000 
0.000000 -0.000000 0.000000 
0.000000 0.000000 0.000000 

0.000000 0.000000 0.000000 
0.000000 0.000000 0.000000 
0.000000 0.000000 0.000000 

0.000000 -0.000000 0.000000 
0.000000 0.000000 0.000000 
0.000000 0.000000 0.000000 

-0.000000 0.000000 0.000000 
0.000000 0.000000 0.000000 
0.000000 0.000000 0.000000 

-0.000000 -0.000000 0.000000 
0.000000 0.000000 0.000000 
0.000000 0.000000 0.000000 

0.000000 -0.000000 0.000000 
0.000000 -0.000000 0.000000 
0.000000 0.000000 0.000000 

0.000000 -0.000000 0.000000 
0.000000 -0.000000 0.000000 
0.000000 0.000000 0.000000 

0.000000 -0.000000 0.000000 
0.000000 0.000000 0.000000 
0.000000 0.000000 0.000000 

0.000000 -0.000000 0.000000 
0.000000 -0.000000 0.000000 
0.000000 0.000000 0.000000 

0.000000 -0.000000 0.000000 
0.000000 -0.000000 0.000000 
0.000000 0.000000 0.000000 

0.000000 -0.000000 0.000000 
0.000000 0.000000 0.000000 
0.000000 0.000000 0.000000 

0.000000 0.000000 0.000000 
0.000000 0.000000 0.000000 
0.000000 0.000000 0.000000 

-0.000000 -0.000000 0.000000 
0.000000 -0.000000 0.000000 
0.000000 0.000000 0.000000 

0.000000 -0.000000 0.000000 
0.000000 -0.000000 0.000000 
0.000000 0.000000 0.000000 

0.000000 -0.000000 0.000000 
0.000000 0.000000 0.000000 
0.000000 0.000000 0.000000 

0.000000 -0.000000 0.000000 
0.000000 0.000000 0.000000 
0.000000 0.000000 0.000000 

-0.000000 -0.000000 0.000000 
0.000000 -0.000000 0.000000 
0.000000 0.000000 0.000000 

-0.000000 -0.000000 0.000000 
0.000000 0.000000 0.000000 
0.000000 0.000000 0.000000 

0.000000 -0.000000 0.000000 
0.000000 0.000000 0.000000 
0.000000 0.000000 0.000000 

0.000000 0.000000 0.000000 
0.000000 -0.000000 0.000000 
0.000000 0.000000 0.000000 

0.000000 -0.000000 0.000000 
0.000000 -0.000000 0.000000 
0.000000 0.000000 0.000000 

-0.000000 -0.000000 0.000000 
0.000000 0.000000 0.000000 
0.000000 0.000000 0.000000 

-0.000000 0.000000 0.000000 
0.000000 -0.000000 0.000000 
0.000000 0.000000 0.000000 

-0.000000 0.000000 0.000000 
0.000000 -0.000000 0.000000 
0.000000 0.000000 0.000000 

-0.000000 0.000000 0.000000 
0.000000 -0.000000 0.000000 
0.000000 0.000000 0.000000 

0.000000 0.000000 0.000000 
0.000000 0.000000 0.000000 
0.000000 0.000000 0.000000 

-0.000000 -0.000000 0.000000 
0.000000 -0.000000 0.000000 
0.000000 0.000000 0.000000 

-0.000000 0.000000 0.000000 
0.000000 0.000000 0.000000 
0.000000 0.000000 0.000000 

-0.000000 0.000000 0.000000 
0.000000 0.000000 0.000000 
0.000000 0.000000 0.000000 

0.000000 -0.000000 0.000000 
0.000000 0.000000 0.000000 
0.000000 0.000000 0.000000 

0.000000 -0.000000 0.000000 
0.000000 0.000000 0.000000 
0.000000 0.000000 0.000000 

0.000000 0.000000 0.000000 
0.000000 0.000000 0.000000 
0.000000 0.000000 0.000000 

0.000000 0.000000 0.000000 
0.000000 0.000000 0.000000 
0.000000 0.000000 0.000000 

0.000000 0.000000 0.000000 
0.000000 0.000000 0.000000 
0.000000 0.000000 0.000000 

0.000000 -0.000000 0.000000 
0.000000 -0.000000 0.000000 
0.000000 0.000000 0.000000 

0.000000 -0.000000 0.000000 
0.000000 0.000000 0.000000 
0.000000 0.000000 0.000000 

0.000000 -0.000000 0.000000 
0.000000 0.000000 0.000000 
0.000000 0.000000 0.000000 

0.000000 -0.000000 0.000000 
0.000000 0.000000 0.000000 
0.000000 0.000000 0.000000 

0.000000 -0.000000 0.000000 
0.000000 -0.000000 0.000000 
0.000000 0.000000 0.000000 

0.000000 0.000000 0.000000 
0.000000 0.000000 0.000000 
0.000000 0.000000 0.000000 

0.000000 -0.000000 0.000000 
0.000000 0.000000 0.000000 
0.000000 0.000000 0.000000 

0.000000 -0.000000 0.000000 
0.000000 0.000000 0.000000 
0.000000 0.000000 0.000000 

0.000000 0.000000 0.000000 
0.000000 0.000000 0.000000 
0.000000 0.000000 0.000000 

0.000000 0.000000 0.000000 
0.000000 0.000000 0.000000 
0.000000 0.000000 0.000000 

0.000000 -0.000000 0.000000 
0.000000 0.000000 0.000000 
0.000000 0.000000 0.000000 

0.000000 -0.000000 0.000000 
0.000000 0.000000 0.000000 
0.000000 0.000000 0.000000 

-0.000000 -0.000000 0.000000 
0.000000 -0.000000 0.000000 
0.000000 0.000000 0.000000 

0.000000 -0.000000 0.000000 
0.000000 0.000000 0.000000 
0.000000 0.000000 0.000000 

-0.000000 0.000000 0.000000 
0.000000 -0.000000 0.000000 
0.000000 0.000000 0.000000 

0.000000 0.000000 0.000000 
0.000000 0.000000 0.000000 
0.000000 0.000000 0.000000 

-0.000000 -0.000000 0.000000 
0.000000 -0.000000 0.000000 
0.000000 0.000000 0.000000 

0.000000 0.000000 0.000000 
0.000000 0.000000 0.000000 
0.000000 0.000000 0.000000 

0.000000 -0.000000 0.000000 
0.000000 0.000000 0.000000 
0.000000 0.000000 0.000000 

0.000000 0.000000 0.000000 
0.000000 0.000000 0.000000 
0.000000 0.000000 0.000000 

0.000000 -0.000000 0.000000 
0.000000 0.000000 0.000000 
0.000000 0.000000 0.000000 

0.000000 0.000000 0.000000 
0.000000 0.000000 0.000000 
0.000000 0.000000 0.000000 

0.000000 -0.000000 0.000000 
0.000000 0.000000 0.000000 
0.000000 0.000000 0.000000 

-0.000000 0.000000 0.000000 
0.000000 0.000000 0.000000 
0.000000 0.000000 0.000000 

-0.000000 0.000000 0.000000 
0.000000 -0.000000 0.000000 
0.000000 0.000000 0.000000 

-0.000000 -0.000000 0.000000 
0.000000 -0.000000 0.000000 
0.000000 0.000000 0.000000 

0.000000 0.000000 0.000000 
0.000000 0.000000 0.000000 
0.000000 0.000000 0.000000 

0.000000 -0.000000 0.000000 
0.000000 -0.000000 0.000000 
0.000000 0.000000 0.000000 

-0.000000 0.000000 0.000000 
0.000000 -0.000000 0.000000 
0.000000 0.000000 0.000000 

0.000000 0.000000 0.000000 
0.000000 0.000000 0.000000 
0.000000 0.000000 0.000000 

-0.000000 0.000000 0.000000 
0.000000 -0.000000 0.000000 
0.000000 0.000000 0.000000 

-0.000000 0.000000 0.000000 
0.000000 0.000000 0.000000 
0.000000 0.000000 0.000000 

-0.000000 0.000000 0.000000 
0.000000 -0.000000 0.000000 
0.000000 0.000000 0.000000 

-0.000000 -0.000000 0.000000 
0.000000 -0.000000 0.000000 
0.000000 0.000000 0.000000 

-0.000000 -0.000000 0.000000 
0.000000 -0.000000 0.000000 
0.000000 0.000000 0.000000 

-0.000000 0.000000 0.000000 
0.000000 -0.000000 0.000000 
0.000000 0.000000 0.000000 

-0.000000 -0.000000 0.000000 
0.000000 -0.000000 0.000000 
0.000000 0.000000 0.000000 

-0.000000 -0.000000 0.000000 
0.000000 -0.000000 0.000000 
0.000000 0.000000 0.000000 

-0.000000 0.000000 0.000000 
0.000000 -0.000000 0.000000 
0.000000 0.000000 0.000000 

-0.000000 -0.000000 0.000000 
0.000000 -0.000000 0.000000 
0.000000 0.000000 0.000000 

-0.000000 -0.000000 0.000000 
0.000000 -0.000000 0.000000 
0.000000 0.000000 0.000000 

0.000000 0.000000 0.000000 
0.000000 -0.000000 0.000000 
0.000000 0.000000 0.000000 

-0.000000 0.000000 0.000000 
0.000000 -0.000000 0.000000 
0.000000 0.000000 0.000000 

0.000000 0.000000 0.000000 
0.000000 0.000000 0.000000 
0.000000 0.000000 0.000000 

-0.000000 -0.000000 0.000000 
0.000000 -0.000000 0.000000 
0.000000 0.000000 0.000000 

0.000000 -0.000000 0.000000 
0.000000 0.000000 0.000000 
0.000000 0.000000 0.000000 

0.000000 -0.000000 0.000000 
0.000000 0.000000 0.000000 
0.000000 0.000000 0.000000 

0.000000 -0.000000 0.000000 
0.000000 0.000000 0.000000 
0.000000 0.000000 0.000000 

0.000000 -0.000000 0.000000 
0.000000 -0.000000 0.000000 
0.000000 0.000000 0.000000 

0.000000 -0.000000 0.000000 
0.000000 0.000000 0.000000 
0.000000 0.000000 0.000000 

0.000000 0.000000 0.000000 
0.000000 -0.000000 0.000000 
0.000000 0.000000 0.000000 

-0.000000 0.000000 0.000000 
0.000000 0.000000 0.000000 
0.000000 0.000000 0.000000 

-0.000000 -0.000000 0.000000 
0.000000 -0.000000 0.000000 
0.000000 0.000000 0.000000 

0.000000 -0.000000 0.000000 
0.000000 0.000000 0.000000 
0.000000 0.000000 0.000000 

0.000000 0.000000 0.000000 
0.000000 0.000000 0.000000 
0.000000 0.000000 0.000000 

-0.000000 -0.000000 0.000000 
0.000000 0.000000 0.000000 
0.000000 0.000000 0.000000 

-0.000000 -0.000000 0.000000 
0.000000 -0.000000 0.000000 
0.000000 0.000000 0.000000 

0.000000 -0.000000 0.000000 
0.000000 0.000000 0.000000 
0.000000 0.000000 0.000000 

0.000000 0.000000 0.000000 
0.000000 0.000000 0.000000 
0.000000 0.000000 0.000000 

0.000000 -0.000000 0.000000 
0.000000 0.000000 0.000000 
0.000000 0.000000 0.000000 

0.000000 -0.000000 0.000000 
0.000000 -0.000000 0.000000 
0.000000 0.000000 0.000000 

0.000000 0.000000 0.000000 
0.000000 0.000000 0.000000 
0.000000 0.000000 0.000000 

0.000000 0.000000 0.000000 
0.000000 0.000000 0.000000 
0.000000 0.000000 0.000000 

-0.000000 -0.000000 0.000000 
0.000000 0.000000 0.000000 
0.000000 0.000000 0.000000 

-0.000000 0.000000 0.000000 
0.000000 0.000000 0.000000 
0.000000 0.000000 0.000000 

0.000000 0.000000 0.000000 
0.000000 0.000000 0.000000 
0.000000 0.000000 0.000000 

-0.000000 0.000000 0.000000 
0.000000 -0.000000 0.000000 
0.000000 0.000000 0.000000 

-0.000000 0.000000 0.000000 
0.000000 -0.000000 0.000000 
0.000000 0.000000 0.000000 

0.000000 0.000000 0.000000 
0.000000 -0.000000 0.000000 
0.000000 0.000000 0.000000 

0.000000 0.000000 0.000000 
0.000000 0.000000 0.000000 
0.000000 0.000000 0.000000 

0.000000 0.000000 0.000000 
0.000000 0.000000 0.000000 
0.000000 0.000000 0.000000 

0.000000 -0.000000 0.000000 
0.000000 0.000000 0.000000 
0.000000 0.000000 0.000000 

0.000000 -0.000000 0.000000 
0.000000 0.000000 0.000000 
0.000000 0.000000 0.000000 

0.000000 0.000000 0.000000 
0.000000 -0.000000 0.000000 
0.000000 0.000000 0.000000 

0.000000 0.000000 0.000000 
0.000000 -0.000000 0.000000 
0.000000 0.000000 0.000000 

0.000000 0.000000 0.000000 
0.000000 -0.000000 0.000000 
0.000000 0.000000 0.000000 

0.000000 -0.000000 0.000000 
0.000000 -0.000000 0.000000 
0.000000 0.000000 0.000000 

0.000000 -0.000000 0.000000 
0.000000 0.000000 0.000000 
0.000000 0.000000 0.000000 

0.000000 0.000000 0.000000 
0.000000 0.000000 0.000000 
0.000000 0.000000 0.000000 

0.000000 -0.000000 0.000000 
0.000000 0.000000 0.000000 
0.000000 0.000000 0.000000 

-0.000000 -0.000000 0.000000 
0.000000 0.000000 0.000000 
0.000000 0.000000 0.000000 

0.000000 -0.000000 0.000000 
0.000000 0.000000 0.000000 
0.000000 0.000000 0.000000 

0.000000 0.000000 0.000000 
0.000000 0.000000 0.000000 
0.000000 0.000000 0.000000 

0.000000 -0.000000 0.000000 
0.000000 0.000000 0.000000 
0.000000 0.000000 0.000000 

0.000000 -0.000000 0.000000 
0.000000 0.000000 0.000000 
0.000000 0.000000 0.000000 

0.000000 -0.000000 0.000000 
0.000000 0.000000 0.000000 
0.000000 0.000000 0.000000 

0.000000 -0.000000 0.000000 
0.000000 0.000000 0.000000 
0.000000 0.000000 0.000000 

-0.000000 0.000000 0.000000 
0.000000 0.000000 0.000000 
0.000000 0.000000 0.000000 

-0.000000 -0.000000 0.000000 
0.000000 -0.000000 0.000000 
0.000000 0.000000 0.000000 

-0.000000 0.000000 0.000000 
0.000000 0.000000 0.000000 
0.000000 0.000000 0.000000 

-0.000000 0.000000 0.000000 
0.000000 -0.000000 0.000000 
0.000000 0.000000 0.000000 

0.000000 -0.000000 0.000000 
0.000000 0.000000 0.000000 
0.000000 0.000000 0.000000 

-0.000000 0.000000 0.000000 
0.000000 -0.000000 0.000000 
0.000000 0.000000 0.000000 

-0.000000 -0.000000 0.000000 
0.000000 0.000000 0.000000 
0.000000 0.000000 0.000000 

-0.000000 0.000000 0.000000 
0.000000 0.000000 0.000000 
0.000000 0.000000 0.000000 

-0.000000 0.000000 0.000000 
0.000000 -0.000000 0.000000 
0.000000 0.000000 0.000000 

0.000000 -0.000000 0.000000 
0.000000 -0.000000 0.000000 
0.000000 0.000000 0.000000 

0.000000 -0.000000 0.000000 
0.000000 0.000000 0.000000 
0.000000 0.000000 0.000000 

-0.000000 -0.000000 0.000000 
0.000000 -0.000000 0.000000 
0.000000 0.000000 0.000000 

-0.000000 -0.000000 0.000000 
0.000000 -0.000000 0.000000 
0.000000 0.000000 0.000000 

-0.000000 -0.000000 0.000000 
0.000000 -0.000000 0.000000 
0.000000 0.000000 0.000000 

-0.000000 0.000000 0.000000 
0.000000 -0.000000 0.000000 
0.000000 0.000000 0.000000 

-0.000000 0.000000 0.000000 
0.000000 -0.000000 0.000000 
0.000000 0.000000 0.000000 

-0.000000 0.000000 0.000000 
0.000000 -0.000000 0.000000 
0.000000 0.000000 0.000000 

0.000000 -0.000000 0.000000 
0.000000 0.000000 0.000000 
0.000000 0.000000 0.000000 

0.000000 0.000000 0.000000 
0.000000 -0.000000 0.000000 
0.000000 0.000000 0.000000 

0.000000 -0.000000 0.000000 
0.000000 0.000000 0.000000 
0.000000 0.000000 0.000000 

0.000000 -0.000000 0.000000 
0.000000 0.000000 0.000000 
0.000000 0.000000 0.000000 

0.000000 -0.000000 0.000000 
0.000000 0.000000 0.000000 
0.000000 0.000000 0.000000 

-0.000000 -0.000000 0.000000 
0.000000 0.000000 0.000000 
0.000000 0.000000 0.000000 

-0.000000 0.000000 0.000000 
0.000000 -0.000000 0.000000 
0.000000 0.000000 0.000000 

-0.000000 0.000000 0.000000 
0.000000 -0.000000 0.000000 
0.000000 0.000000 0.000000 

TENSORS STRAIN float 
-0.000000 0.000000 0.000000 
0.000000 0.000000 0.000000 
0.000000 0.000000 0.000000 

-0.000000 0.000000 0.000000 
0.000000 0.000000 0.000000 
0.000000 0.000000 0.000000 

-0.000000 0.000000 0.000000 
0.000000 0.000000 0.000000 
0.000000 0.000000 0.000000 

-0.000000 -0.000000 0.000000 
0.000000 0.000000 0.000000 
0.000000 0.000000 0.000000 

-0.000000 -0.000000 0.000000 
0.000000 0.000000 0.000000 
0.000000 0.000000 0.000000 

-0.000000 -0.000000 0.000000 
0.000000 0.000000 0.000000 
0.000000 0.000000 0.000000 

0.000000 0.000000 0.000000 
0.000000 -0.000000 0.000000 
0.000000 0.000000 0.000000 

-0.000000 -0.000000 0.000000 
0.000000 -0.000000 0.000000 
0.000000 0.000000 0.000000 

-0.000000 -0.000000 0.000000 
0.000000 -0.000000 0.000000 
0.000000 0.000000 0.000000 

0.000000 0.000000 0.000000 
0.000000 -0.000000 0.000000 
0.000000 0.000000 0.000000 

0.000000 -0.000000 0.000000 
0.000000 -0.000000 0.000000 
0.000000 0.000000 0.000000 

-0.000000 -0.000000 0.000000 
0.000000 0.000000 0.000000 
0.000000 0.000000 0.000000 

0.000000 -0.000000 0.000000 
0.000000 -0.000000 0.000000 
0.000000 0.000000 0.000000 

-0.000000 -0.000000 0.000000 
0.000000 0.000000 0.000000 
0.000000 0.000000 0.000000 

0.000000 -0.000000 0.000000 
0.000000 -0.000000 0.000000 
0.000000 0.000000 0.000000 

0.000000 -0.000000 0.000000 
0.000000 -0.000000 0.000000 
0.000000 0.000000 0.000000 

0.000000 -0.000000 0.000000 
0.000000 0.000000 0.000000 
0.000000 0.000000 0.000000 

0.000000 0.000000 0.000000 
0.000000 0.000000 0.000000 
0.000000 0.000000 0.000000 

0.000000 -0.000000 0.000000 
0.000000 0.000000 0.000000 
0.000000 0.000000 0.000000 

-0.000000 -0.000000 0.000000 
0.000000 0.000000 0.000000 
0.000000 0.000000 0.000000 

-0.000000 -0.000000 0.000000 
0.000000 -0.000000 0.000000 
0.000000 0.000000 0.000000 

-0.000000 -0.000000 0.000000 
0.000000 0.000000 0.000000 
0.000000 0.000000 0.000000 

-0.000000 -0.000000 0.000000 
0.000000 0.000000 0.000000 
0.000000 0.000000 0.000000 

0.000000 -0.000000 0.000000 
0.000000 -0.000000 0.000000 
0.000000 0.000000 0.000000 

-0.000000 0.000000 0.000000 
0.000000 0.000000 0.000000 
0.000000 0.000000 0.000000 

-0.000000 0.000000 0.000000 
0.000000 0.000000 0.000000 
0.000000 0.000000 0.000000 

-0.000000 0.000000 0.000000 
0.000000 0.000000 0.000000 
0.000000 0.000000 0.000000 

-0.000000 0.000000 0.000000 
0.000000 0.000000 0.000000 
0.000000 0.000000 0.000000 

-0.000000 0.000000 0.000000 
0.000000 0.000000 0.000000 
0.000000 0.000000 0.000000 

0.000000 0.000000 0.000000 
0.000000 -0.000000 0.000000 
0.000000 0.000000 0.000000 

-0.000000 0.000000 0.000000 
0.000000 0.000000 0.000000 
0.000000 0.000000 0.000000 

0.000000 -0.000000 0.000000 
0.000000 0.000000 0.000000 
0.000000 0.000000 0.000000 

-0.000000 0.000000 0.000000 
0.000000 0.000000 0.000000 
0.000000 0.000000 0.000000 

-0.000000 -0.000000 0.000000 
0.000000 0.000000 0.000000 
0.000000 0.000000 0.000000 

0.000000 -0.000000 0.000000 
0.000000 -0.000000 0.000000 
0.000000 0.000000 0.000000 

0.000000 -0.000000 0.000000 
0.000000 -0.000000 0.000000 
0.000000 0.000000 0.000000 

0.000000 -0.000000 0.000000 
0.000000 0.000000 0.000000 
0.000000 0.000000 0.000000 

0.000000 -0.000000 0.000000 
0.000000 -0.000000 0.000000 
0.000000 0.000000 0.000000 

0.000000 -0.000000 0.000000 
0.000000 -0.000000 0.000000 
0.000000 0.000000 0.000000 

0.000000 -0.000000 0.000000 
0.000000 0.000000 0.000000 
0.000000 0.000000 0.000000 

0.000000 0.000000 0.000000 
0.000000 -0.000000 0.000000 
0.000000 0.000000 0.000000 

0.000000 -0.000000 0.000000 
0.000000 -0.000000 0.000000 
0.000000 0.000000 0.000000 

0.000000 -0.000000 0.000000 
0.000000 -0.000000 0.000000 
0.000000 0.000000 0.000000 

0.000000 -0.000000 0.000000 
0.000000 0.000000 0.000000 
0.000000 0.000000 0.000000 

0.000000 -0.000000 0.000000 
0.000000 0.000000 0.000000 
0.000000 0.000000 0.000000 

0.000000 -0.000000 0.000000 
0.000000 -0.000000 0.000000 
0.000000 0.000000 0.000000 

-0.000000 -0.000000 0.000000 
0.000000 0.000000 0.000000 
0.000000 0.000000 0.000000 

0.000000 -0.000000 0.000000 
0.000000 0.000000 0.000000 
0.000000 0.000000 0.000000 

0.000000 0.000000 0.000000 
0.000000 -0.000000 0.000000 
0.000000 0.000000 0.000000 

0.000000 -0.000000 0.000000 
0.000000 -0.000000 0.000000 
0.000000 0.000000 0.000000 

-0.000000 -0.000000 0.000000 
0.000000 0.000000 0.000000 
0.000000 0.000000 0.000000 

-0.000000 0.000000 0.000000 
0.000000 -0.000000 0.000000 
0.000000 0.000000 0.000000 

-0.000000 0.000000 0.000000 
0.000000 -0.000000 0.000000 
0.000000 0.000000 0.000000 

-0.000000 0.000000 0.000000 
0.000000 0.000000 0.000000 
0.000000 0.000000 0.000000 

0.000000 0.000000 0.000000 
0.000000 0.000000 0.000000 
0.000000 0.000000 0.000000 

-0.000000 -0.000000 0.000000 
0.000000 -0.000000 0.000000 
0.000000 0.000000 0.000000 

-0.000000 0.000000 0.000000 
0.000000 0.000000 0.000000 
0.000000 0.000000 0.000000 

-0.000000 0.000000 0.000000 
0.000000 0.000000 0.000000 
0.000000 0.000000 0.000000 

0.000000 -0.000000 0.000000 
0.000000 0.000000 0.000000 
0.000000 0.000000 0.000000 

0.000000 -0.000000 0.000000 
0.000000 -0.000000 0.000000 
0.000000 0.000000 0.000000 

0.000000 0.000000 0.000000 
0.000000 -0.000000 0.000000 
0.000000 0.000000 0.000000 

0.000000 0.000000 0.000000 
0.000000 0.000000 0.000000 
0.000000 0.000000 0.000000 

0.000000 0.000000 0.000000 
0.000000 0.000000 0.000000 
0.000000 0.000000 0.000000 

0.000000 -0.000000 0.000000 
0.000000 -0.000000 0.000000 
0.000000 0.000000 0.000000 

0.000000 -0.000000 0.000000 
0.000000 -0.000000 0.000000 
0.000000 0.000000 0.000000 

0.000000 -0.000000 0.000000 
0.000000 0.000000 0.000000 
0.000000 0.000000 0.000000 

-0.000000 -0.000000 0.000000 
0.000000 0.000000 0.000000 
0.000000 0.000000 0.000000 

0.000000 -0.000000 0.000000 
0.000000 -0.000000 0.000000 
0.000000 0.000000 0.000000 

0.000000 0.000000 0.000000 
0.000000 0.000000 0.000000 
0.000000 0.000000 0.000000 

0.000000 -0.000000 0.000000 
0.000000 0.000000 0.000000 
0.000000 0.000000 0.000000 

0.000000 -0.000000 0.000000 
0.000000 0.000000 0.000000 
0.000000 0.000000 0.000000 

0.000000 0.000000 0.000000 
0.000000 -0.000000 0.000000 
0.000000 0.000000 0.000000 

0.000000 0.000000 0.000000 
0.000000 0.000000 0.000000 
0.000000 0.000000 0.000000 

0.000000 -0.000000 0.000000 
0.000000 0.000000 0.000000 
0.000000 0.000000 0.000000 

0.000000 -0.000000 0.000000 
0.000000 0.000000 0.000000 
0.000000 0.000000 0.000000 

-0.000000 -0.000000 0.000000 
0.000000 -0.000000 0.000000 
0.000000 0.000000 0.000000 

0.000000 -0.000000 0.000000 
0.000000 0.000000 0.000000 
0.000000 0.000000 0.000000 

0.000000 0.000000 0.000000 
0.000000 -0.000000 0.000000 
0.000000 0.000000 0.000000 

0.000000 0.000000 0.000000 
0.000000 0.000000 0.000000 
0.000000 0.000000 0.000000 

-0.000000 -0.000000 0.000000 
0.000000 -0.000000 0.000000 
0.000000 0.000000 0.000000 

0.000000 0.000000 0.000000 
0.000000 0.000000 0.000000 
0.000000 0.000000 0.000000 

0.000000 -0.000000 0.000000 
0.000000 0.000000 0.000000 
0.000000 0.000000 0.000000 

0.000000 0.000000 0.000000 
0.000000 0.000000 0.000000 
0.000000 0.000000 0.000000 

0.000000 -0.000000 0.000000 
0.000000 0.000000 0.000000 
0.000000 0.000000 0.000000 

-0.000000 0.000000 0.000000 
0.000000 0.000000 0.000000 
0.000000 0.000000 0.000000 

-0.000000 -0.000000 0.000000 
0.000000 0.000000 0.000000 
0.000000 0.000000 0.000000 

-0.000000 0.000000 0.000000 
0.000000 0.000000 0.000000 
0.000000 0.000000 0.000000 

-0.000000 0.000000 0.000000 
0.000000 -0.000000 0.000000 
0.000000 0.000000 0.000000 

-0.000000 -0.000000 0.000000 
0.000000 -0.000000 0.000000 
0.000000 0.000000 0.000000 

0.000000 0.000000 0.000000 
0.000000 0.000000 0.000000 
0.000000 0.000000 0.000000 

0.000000 -0.000000 0.000000 
0.000000 -0.000000 0.000000 
0.000000 0.000000 0.000000 

0.000000 0.000000 0.000000 
0.000000 -0.000000 0.000000 
0.000000 0.000000 0.000000 

0.000000 0.000000 0.000000 
0.000000 0.000000 0.000000 
0.000000 0.000000 0.000000 

0.000000 0.000000 0.000000 
0.000000 -0.000000 0.000000 
0.000000 0.000000 0.000000 

-0.000000 0.000000 0.000000 
0.000000 0.000000 0.000000 
0.000000 0.000000 0.000000 

-0.000000 0.000000 0.000000 
0.000000 -0.000000 0.000000 
0.000000 0.000000 0.000000 

-0.000000 -0.000000 0.000000 
0.000000 0.000000 0.000000 
0.000000 0.000000 0.000000 

-0.000000 -0.000000 0.000000 
0.000000 -0.000000 0.000000 
0.000000 0.000000 0.000000 

-0.000000 0.000000 0.000000 
0.000000 -0.000000 0.000000 
0.000000 0.000000 0.000000 

-0.000000 -0.000000 0.000000 
0.000000 -0.000000 0.000000 
0.000000 0.000000 0.000000 

-0.000000 -0.000000 0.000000 
0.000000 -0.000000 0.000000 
0.000000 0.000000 0.000000 

0.000000 0.000000 0.000000 
0.000000 -0.000000 0.000000 
0.000000 0.000000 0.000000 

0.000000 -0.000000 0.000000 
0.000000 -0.000000 0.000000 
0.000000 0.000000 0.000000 

-0.000000 -0.000000 0.000000 
0.000000 -0.000000 0.000000 
0.000000 0.000000 0.000000 

0.000000 0.000000 0.000000 
0.000000 -0.000000 0.000000 
0.000000 0.000000 0.000000 

0.000000 0.000000 0.000000 
0.000000 -0.000000 0.000000 
0.000000 0.000000 0.000000 

-0.000000 0.000000 0.000000 
0.000000 0.000000 0.000000 
0.000000 0.000000 0.000000 

-0.000000 -0.000000 0.000000 
0.000000 -0.000000 0.000000 
0.000000 0.000000 0.000000 

-0.000000 -0.000000 0.000000 
0.000000 0.000000 0.000000 
0.000000 0.000000 0.000000 

0.000000 -0.000000 0.000000 
0.000000 0.000000 0.000000 
0.000000 0.000000 0.000000 

0.000000 -0.000000 0.000000 
0.000000 0.000000 0.000000 
0.000000 0.000000 0.000000 

0.000000 -0.000000 0.000000 
0.000000 -0.000000 0.000000 
0.000000 0.000000 0.000000 

0.000000 -0.000000 0.000000 
0.000000 -0.000000 0.000000 
0.000000 0.000000 0.000000 

0.000000 0.000000 0.000000 
0.000000 -0.000000 0.000000 
0.000000 0.000000 0.000000 

-0.000000 0.000000 0.000000 
0.000000 0.000000 0.000000 
0.000000 0.000000 0.000000 

-0.000000 -0.000000 0.000000 
0.000000 -0.000000 0.000000 
0.000000 0.000000 0.000000 

0.000000 -0.000000 0.000000 
0.000000 0.000000 0.000000 
0.000000 0.000000 0.000000 

0.000000 0.000000 0.000000 
0.000000 0.000000 0.000000 
0.000000 0.000000 0.000000 

-0.000000 -0.000000 0.000000 
0.000000 0.000000 0.000000 
0.000000 0.000000 0.000000 

0.000000 -0.000000 0.000000 
0.000000 -0.000000 0.000000 
0.000000 0.000000 0.000000 

0.000000 -0.000000 0.000000 
0.000000 -0.000000 0.000000 
0.000000 0.000000 0.000000 

0.000000 0.000000 0.000000 
0.000000 -0.000000 0.000000 
0.000000 0.000000 0.000000 

0.000000 -0.000000 0.000000 
0.000000 0.000000 0.000000 
0.000000 0.000000 0.000000 

0.000000 -0.000000 0.000000 
0.000000 -0.000000 0.000000 
0.000000 0.000000 0.000000 

0.000000 0.000000 0.000000 
0.000000 0.000000 0.000000 
0.000000 0.000000 0.000000 

-0.000000 0.000000 0.000000 
0.000000 0.000000 0.000000 
0.000000 0.000000 0.000000 

-0.000000 -0.000000 0.000000 
0.000000 0.000000 0.000000 
0.000000 0.000000 0.000000 

-0.000000 0.000000 0.000000 
0.000000 0.000000 0.000000 
0.000000 0.000000 0.000000 

-0.000000 0.000000 0.000000 
0.000000 0.000000 0.000000 
0.000000 0.000000 0.000000 

-0.000000 0.000000 0.000000 
0.000000 -0.000000 0.000000 
0.000000 0.000000 0.000000 

-0.000000 0.000000 0.000000 
0.000000 0.000000 0.000000 
0.000000 0.000000 0.000000 

0.000000 0.000000 0.000000 
0.000000 -0.000000 0.000000 
0.000000 0.000000 0.000000 

-0.000000 0.000000 0.000000 
0.000000 0.000000 0.000000 
0.000000 0.000000 0.000000 

0.000000 0.000000 0.000000 
0.000000 0.000000 0.000000 
0.000000 0.000000 0.000000 

0.000000 -0.000000 0.000000 
0.000000 -0.000000 0.000000 
0.000000 0.000000 0.000000 

0.000000 -0.000000 0.000000 
0.000000 -0.000000 0.000000 
0.000000 0.000000 0.000000 

0.000000 0.000000 0.000000 
0.000000 -0.000000 0.000000 
0.000000 0.000000 0.000000 

0.000000 0.000000 0.000000 
0.000000 -0.000000 0.000000 
0.000000 0.000000 0.000000 

0.000000 0.000000 0.000000 
0.000000 -0.000000 0.000000 
0.000000 0.000000 0.000000 

0.000000 -0.000000 0.000000 
0.000000 -0.000000 0.000000 
0.000000 0.000000 0.000000 

0.000000 -0.000000 0.000000 
0.000000 0.000000 0.000000 
0.000000 0.000000 0.000000 

0.000000 0.000000 0.000000 
0.000000 0.000000 0.000000 
0.000000 0.000000 0.000000 

0.000000 -0.000000 0.000000 
0.000000 0.000000 0.000000 
0.000000 0.000000 0.000000 

-0.000000 -0.000000 0.000000 
0.000000 0.000000 0.000000 
0.000000 0.000000 0.000000 

0.000000 -0.000000 0.000000 
0.000000 0.000000 0.000000 
0.000000 0.000000 0.000000 

0.000000 0.000000 0.000000 
0.000000 0.000000 0.000000 
0.000000 0.000000 0.000000 

0.000000 -0.000000 0.000000 
0.000000 0.000000 0.000000 
0.000000 0.000000 0.000000 

0.000000 -0.000000 0.000000 
0.000000 -0.000000 0.000000 
0.000000 0.000000 0.000000 

0.000000 -0.000000 0.000000 
0.000000 0.000000 0.000000 
0.000000 0.000000 0.000000 

0.000000 -0.000000 0.000000 
0.000000 0.000000 0.000000 
0.000000 0.000000 0.000000 

-0.000000 0.000000 0.000000 
0.000000 0.000000 0.000000 
0.000000 0.000000 0.000000 

-0.000000 -0.000000 0.000000 
0.000000 -0.000000 0.000000 
0.000000 0.000000 0.000000 

-0.000000 0.000000 0.000000 
0.000000 0.000000 0.000000 
0.000000 0.000000 0.000000 

-0.000000 0.000000 0.000000 
0.000000 -0.000000 0.000000 
0.000000 0.000000 0.000000 

-0.000000 -0.000000 0.000000 
0.000000 0.000000 0.000000 
0.000000 0.000000 0.000000 

-0.000000 0.000000 0.000000 
0.000000 -0.000000 0.000000 
0.000000 0.000000 0.000000 

-0.000000 -0.000000 0.000000 
0.000000 0.000000 0.000000 
0.000000 0.000000 0.000000 

-0.000000 0.000000 0.000000 
0.000000 0.000000 0.000000 
0.000000 0.000000 0.000000 

-0.000000 0.000000 0.000000 
0.000000 -0.000000 0.000000 
0.000000 0.000000 0.000000 

0.000000 -0.000000 0.000000 
0.000000 -0.000000 0.000000 
0.000000 0.000000 0.000000 

0.000000 -0.000000 0.000000 
0.000000 0.000000 0.000000 
0.000000 0.000000 0.000000 

-0.000000 -0.000000 0.000000 
0.000000 -0.000000 0.000000 
0.000000 0.000000 0.000000 

-0.000000 -0.000000 0.000000 
0.000000 -0.000000 0.000000 
0.000000 0.000000 0.000000 

-0.000000 -0.000000 0.000000 
0.000000 0.000000 0.000000 
0.000000 0.000000 0.000000 

-0.000000 0.000000 0.000000 
0.000000 -0.000000 0.000000 
0.000000 0.000000 0.000000 

0.000000 0.000000 0.000000 
0.000000 -0.000000 0.000000 
0.000000 0.000000 0.000000 

-0.000000 0.000000 0.000000 
0.000000 -0.000000 0.000000 
0.000000 0.000000 0.000000 

0.000000 -0.000000 0.000000 
0.000000 0.000000 0.000000 
0.000000 0.000000 0.000000 

0.000000 0.000000 0.000000 
0.000000 -0.000000 0.000000 
0.000000 0.000000 0.000000 

-0.000000 -0.000000 0.000000 
0.000000 0.000000 0.000000 
0.000000 0.000000 0.000000 

0.000000 -0.000000 0.000000 
0.000000 0.000000 0.000000 
0.000000 0.000000 0.000000 

-0.000000 -0.000000 0.000000 
0.000000 0.000000 0.000000 
0.000000 0.000000 0.000000 

-0.000000 -0.000000 0.000000 
0.000000 0.000000 0.000000 
0.000000 0.000000 0.000000 

-0.000000 0.000000 0.000000 
0.000000 -0.000000 0.000000 
0.000000 0.000000 0.000000 

-0.000000 0.000000 0.000000 
0.000000 -0.000000 0.000000 
0.000000 0.000000 0.000000 

