# vtk DataFile Version 3.0 
vtk output 
ASCII 
DATASET UNSTRUCTURED_GRID 
POINTS 175 float 
-0.026061 -0.621887 0.000000 
-0.106992 -0.553831 0.000000 
-0.054870 -0.562064 0.000000 
-0.028809 -0.516180 0.000000 
-0.186430 -0.489756 0.000000 
-0.137056 -0.492282 0.000000 
-0.114311 -0.438634 0.000000 
-0.058186 -0.454300 0.000000 
-0.029377 -0.414123 0.000000 
-0.265318 -0.426600 0.000000 
-0.217198 -0.427399 0.000000 
-0.196633 -0.370103 0.000000 
-0.143120 -0.378812 0.000000 
-0.116563 -0.331543 0.000000 
-0.058945 -0.351189 0.000000 
-0.029568 -0.313069 0.000000 
-0.344206 -0.363444 0.000000 
-0.296791 -0.363437 0.000000 
-0.278030 -0.303494 0.000000 
-0.225992 -0.309360 0.000000 
-0.201664 -0.257243 0.000000 
-0.145749 -0.270717 0.000000 
-0.117890 -0.226375 0.000000 
-0.059328 -0.249080 0.000000 
-0.029759 -0.212015 0.000000 
-0.058559 -0.662637 0.000000 
-0.162226 -0.683480 0.000000 
-0.123292 -0.647862 0.000000 
-0.142917 -0.598879 0.000000 
-0.261851 -0.705636 0.000000 
-0.229092 -0.668609 0.000000 
-0.256854 -0.617378 0.000000 
-0.209613 -0.583265 0.000000 
-0.223062 -0.535691 0.000000 
-0.360414 -0.727936 0.000000 
-0.329787 -0.690814 0.000000 
-0.361761 -0.639011 0.000000 
-0.321587 -0.602603 0.000000 
-0.341985 -0.552369 0.000000 
-0.290702 -0.519570 0.000000 
-0.302189 -0.472834 0.000000 
-0.458977 -0.750237 0.000000 
-0.429420 -0.713162 0.000000 
-0.464588 -0.661120 0.000000 
-0.427556 -0.624093 0.000000 
-0.453135 -0.572578 0.000000 
-0.407738 -0.537263 0.000000 
-0.425037 -0.487834 0.000000 
-0.370772 -0.456205 0.000000 
-0.381315 -0.409978 0.000000 
-0.046960 -0.713453 0.000000 
-0.095301 -0.807498 0.000000 
-0.098873 -0.754851 0.000000 
-0.149405 -0.739654 0.000000 
-0.140093 -0.899202 0.000000 
-0.148617 -0.850504 0.000000 
-0.205981 -0.840267 0.000000 
-0.203197 -0.782064 0.000000 
-0.248777 -0.762917 0.000000 
-0.184111 -0.990166 0.000000 
-0.194039 -0.943075 0.000000 
-0.254475 -0.935775 0.000000 
-0.257893 -0.881666 0.000000 
-0.309886 -0.866293 0.000000 
-0.303554 -0.805748 0.000000 
-0.347255 -0.785590 0.000000 
-0.228129 -1.081130 0.000000 
-0.238687 -1.034905 0.000000 
-0.301302 -1.029953 0.000000 
-0.307162 -0.977914 0.000000 
-0.363386 -0.965793 0.000000 
-0.362692 -0.908282 0.000000 
-0.412122 -0.890989 0.000000 
-0.403017 -0.828842 0.000000 
-0.445733 -0.808263 0.000000 
-0.000000 -0.736067 0.000000 
0.043388 -0.832498 0.000000 
-0.000000 -0.802466 0.000000 
-0.043388 -0.832498 0.000000 
0.087158 -0.924695 0.000000 
0.043769 -0.900996 0.000000 
-0.000000 -0.939462 0.000000 
-0.043769 -0.900996 0.000000 
-0.087158 -0.924695 0.000000 
0.130831 -1.015824 0.000000 
0.087824 -0.994226 0.000000 
0.044436 -1.036925 0.000000 
-0.000000 -1.005860 0.000000 
-0.044436 -1.036925 0.000000 
-0.087824 -0.994226 0.000000 
-0.130831 -1.015824 0.000000 
0.174505 -1.106954 0.000000 
0.131782 -1.086388 0.000000 
0.088871 -1.132254 0.000000 
0.044532 -1.104391 0.000000 
-0.000000 -1.140791 0.000000 
-0.044532 -1.104391 0.000000 
-0.088871 -1.132254 0.000000 
-0.131782 -1.086388 0.000000 
-0.174505 -1.106954 0.000000 
0.046960 -0.713453 0.000000 
0.149405 -0.739654 0.000000 
0.098873 -0.754851 0.000000 
0.095301 -0.807498 0.000000 
0.248777 -0.762917 0.000000 
0.203197 -0.782064 0.000000 
0.205981 -0.840267 0.000000 
0.148617 -0.850504 0.000000 
0.140093 -0.899202 0.000000 
0.347255 -0.785590 0.000000 
0.303554 -0.805748 0.000000 
0.309886 -0.866293 0.000000 
0.257893 -0.881666 0.000000 
0.254475 -0.935775 0.000000 
0.194039 -0.943075 0.000000 
0.184111 -0.990166 0.000000 
0.445733 -0.808263 0.000000 
0.403017 -0.828842 0.000000 
0.412122 -0.890989 0.000000 
0.362692 -0.908282 0.000000 
0.363386 -0.965793 0.000000 
0.307162 -0.977914 0.000000 
0.301302 -1.029953 0.000000 
0.238687 -1.034905 0.000000 
0.228129 -1.081130 0.000000 
0.058559 -0.662637 0.000000 
0.142917 -0.598879 0.000000 
0.123292 -0.647862 0.000000 
0.162226 -0.683480 0.000000 
0.223062 -0.535691 0.000000 
0.209613 -0.583265 0.000000 
0.256854 -0.617378 0.000000 
0.229092 -0.668609 0.000000 
0.261851 -0.705636 0.000000 
0.302189 -0.472834 0.000000 
0.290702 -0.519570 0.000000 
0.341985 -0.552369 0.000000 
0.321587 -0.602603 0.000000 
0.361761 -0.639011 0.000000 
0.329787 -0.690814 0.000000 
0.360414 -0.727936 0.000000 
0.381315 -0.409978 0.000000 
0.370772 -0.456205 0.000000 
0.425037 -0.487834 0.000000 
0.407738 -0.537263 0.000000 
0.453135 -0.572578 0.000000 
0.427556 -0.624093 0.000000 
0.464588 -0.661120 0.000000 
0.429420 -0.713162 0.000000 
0.458977 -0.750237 0.000000 
0.026061 -0.621887 0.000000 
0.028809 -0.516180 0.000000 
0.054870 -0.562064 0.000000 
0.106992 -0.553831 0.000000 
0.029377 -0.414123 0.000000 
0.058186 -0.454300 0.000000 
0.114311 -0.438634 0.000000 
0.137056 -0.492282 0.000000 
0.186430 -0.489756 0.000000 
0.029568 -0.313069 0.000000 
0.058945 -0.351189 0.000000 
0.116563 -0.331543 0.000000 
0.143120 -0.378812 0.000000 
0.196633 -0.370103 0.000000 
0.217198 -0.427399 0.000000 
0.265318 -0.426600 0.000000 
0.029759 -0.212015 0.000000 
0.059328 -0.249080 0.000000 
0.117890 -0.226375 0.000000 
0.145749 -0.270717 0.000000 
0.201664 -0.257243 0.000000 
0.225992 -0.309360 0.000000 
0.278030 -0.303494 0.000000 
0.296791 -0.363437 0.000000 
0.344206 -0.363444 0.000000 
CELLS 175 350 
1 0 
1 1 
1 2 
1 3 
1 4 
1 5 
1 6 
1 7 
1 8 
1 9 
1 10 
1 11 
1 12 
1 13 
1 14 
1 15 
1 16 
1 17 
1 18 
1 19 
1 20 
1 21 
1 22 
1 23 
1 24 
1 25 
1 26 
1 27 
1 28 
1 29 
1 30 
1 31 
1 32 
1 33 
1 34 
1 35 
1 36 
1 37 
1 38 
1 39 
1 40 
1 41 
1 42 
1 43 
1 44 
1 45 
1 46 
1 47 
1 48 
1 49 
1 50 
1 51 
1 52 
1 53 
1 54 
1 55 
1 56 
1 57 
1 58 
1 59 
1 60 
1 61 
1 62 
1 63 
1 64 
1 65 
1 66 
1 67 
1 68 
1 69 
1 70 
1 71 
1 72 
1 73 
1 74 
1 75 
1 76 
1 77 
1 78 
1 79 
1 80 
1 81 
1 82 
1 83 
1 84 
1 85 
1 86 
1 87 
1 88 
1 89 
1 90 
1 91 
1 92 
1 93 
1 94 
1 95 
1 96 
1 97 
1 98 
1 99 
1 100 
1 101 
1 102 
1 103 
1 104 
1 105 
1 106 
1 107 
1 108 
1 109 
1 110 
1 111 
1 112 
1 113 
1 114 
1 115 
1 116 
1 117 
1 118 
1 119 
1 120 
1 121 
1 122 
1 123 
1 124 
1 125 
1 126 
1 127 
1 128 
1 129 
1 130 
1 131 
1 132 
1 133 
1 134 
1 135 
1 136 
1 137 
1 138 
1 139 
1 140 
1 141 
1 142 
1 143 
1 144 
1 145 
1 146 
1 147 
1 148 
1 149 
1 150 
1 151 
1 152 
1 153 
1 154 
1 155 
1 156 
1 157 
1 158 
1 159 
1 160 
1 161 
1 162 
1 163 
1 164 
1 165 
1 166 
1 167 
1 168 
1 169 
1 170 
1 171 
1 172 
1 173 
1 174 
CELL_TYPES 175 
1 
1 
1 
1 
1 
1 
1 
1 
1 
1 
1 
1 
1 
1 
1 
1 
1 
1 
1 
1 
1 
1 
1 
1 
1 
1 
1 
1 
1 
1 
1 
1 
1 
1 
1 
1 
1 
1 
1 
1 
1 
1 
1 
1 
1 
1 
1 
1 
1 
1 
1 
1 
1 
1 
1 
1 
1 
1 
1 
1 
1 
1 
1 
1 
1 
1 
1 
1 
1 
1 
1 
1 
1 
1 
1 
1 
1 
1 
1 
1 
1 
1 
1 
1 
1 
1 
1 
1 
1 
1 
1 
1 
1 
1 
1 
1 
1 
1 
1 
1 
1 
1 
1 
1 
1 
1 
1 
1 
1 
1 
1 
1 
1 
1 
1 
1 
1 
1 
1 
1 
1 
1 
1 
1 
1 
1 
1 
1 
1 
1 
1 
1 
1 
1 
1 
1 
1 
1 
1 
1 
1 
1 
1 
1 
1 
1 
1 
1 
1 
1 
1 
1 
1 
1 
1 
1 
1 
1 
1 
1 
1 
1 
1 
1 
1 
1 
1 
1 
1 
1 
1 
1 
1 
1 
1 
POINT_DATA 175 
VECTORS X_GC float 
-0.026061 -0.621887 0.000000 
-0.106992 -0.553831 0.000000 
-0.054870 -0.562064 0.000000 
-0.028809 -0.516180 0.000000 
-0.186430 -0.489756 0.000000 
-0.137056 -0.492282 0.000000 
-0.114311 -0.438634 0.000000 
-0.058186 -0.454300 0.000000 
-0.029377 -0.414123 0.000000 
-0.265318 -0.426600 0.000000 
-0.217198 -0.427399 0.000000 
-0.196633 -0.370103 0.000000 
-0.143120 -0.378812 0.000000 
-0.116563 -0.331543 0.000000 
-0.058945 -0.351189 0.000000 
-0.029568 -0.313069 0.000000 
-0.344206 -0.363444 0.000000 
-0.296791 -0.363437 0.000000 
-0.278030 -0.303494 0.000000 
-0.225992 -0.309360 0.000000 
-0.201664 -0.257243 0.000000 
-0.145749 -0.270717 0.000000 
-0.117890 -0.226375 0.000000 
-0.059328 -0.249080 0.000000 
-0.029759 -0.212015 0.000000 
-0.058559 -0.662637 0.000000 
-0.162226 -0.683480 0.000000 
-0.123292 -0.647862 0.000000 
-0.142917 -0.598879 0.000000 
-0.261851 -0.705636 0.000000 
-0.229092 -0.668609 0.000000 
-0.256854 -0.617378 0.000000 
-0.209613 -0.583265 0.000000 
-0.223062 -0.535691 0.000000 
-0.360414 -0.727936 0.000000 
-0.329787 -0.690814 0.000000 
-0.361761 -0.639011 0.000000 
-0.321587 -0.602603 0.000000 
-0.341985 -0.552369 0.000000 
-0.290702 -0.519570 0.000000 
-0.302189 -0.472834 0.000000 
-0.458977 -0.750237 0.000000 
-0.429420 -0.713162 0.000000 
-0.464588 -0.661120 0.000000 
-0.427556 -0.624093 0.000000 
-0.453135 -0.572578 0.000000 
-0.407738 -0.537263 0.000000 
-0.425037 -0.487834 0.000000 
-0.370772 -0.456205 0.000000 
-0.381315 -0.409978 0.000000 
-0.046960 -0.713453 0.000000 
-0.095301 -0.807498 0.000000 
-0.098873 -0.754851 0.000000 
-0.149405 -0.739654 0.000000 
-0.140093 -0.899202 0.000000 
-0.148617 -0.850504 0.000000 
-0.205981 -0.840267 0.000000 
-0.203197 -0.782064 0.000000 
-0.248777 -0.762917 0.000000 
-0.184111 -0.990166 0.000000 
-0.194039 -0.943075 0.000000 
-0.254475 -0.935775 0.000000 
-0.257893 -0.881666 0.000000 
-0.309886 -0.866293 0.000000 
-0.303554 -0.805748 0.000000 
-0.347255 -0.785590 0.000000 
-0.228129 -1.081130 0.000000 
-0.238687 -1.034905 0.000000 
-0.301302 -1.029953 0.000000 
-0.307162 -0.977914 0.000000 
-0.363386 -0.965793 0.000000 
-0.362692 -0.908282 0.000000 
-0.412122 -0.890989 0.000000 
-0.403017 -0.828842 0.000000 
-0.445733 -0.808263 0.000000 
-0.000000 -0.736067 0.000000 
0.043388 -0.832498 0.000000 
-0.000000 -0.802466 0.000000 
-0.043388 -0.832498 0.000000 
0.087158 -0.924695 0.000000 
0.043769 -0.900996 0.000000 
-0.000000 -0.939462 0.000000 
-0.043769 -0.900996 0.000000 
-0.087158 -0.924695 0.000000 
0.130831 -1.015824 0.000000 
0.087824 -0.994226 0.000000 
0.044436 -1.036925 0.000000 
-0.000000 -1.005860 0.000000 
-0.044436 -1.036925 0.000000 
-0.087824 -0.994226 0.000000 
-0.130831 -1.015824 0.000000 
0.174505 -1.106954 0.000000 
0.131782 -1.086388 0.000000 
0.088871 -1.132254 0.000000 
0.044532 -1.104391 0.000000 
-0.000000 -1.140791 0.000000 
-0.044532 -1.104391 0.000000 
-0.088871 -1.132254 0.000000 
-0.131782 -1.086388 0.000000 
-0.174505 -1.106954 0.000000 
0.046960 -0.713453 0.000000 
0.149405 -0.739654 0.000000 
0.098873 -0.754851 0.000000 
0.095301 -0.807498 0.000000 
0.248777 -0.762917 0.000000 
0.203197 -0.782064 0.000000 
0.205981 -0.840267 0.000000 
0.148617 -0.850504 0.000000 
0.140093 -0.899202 0.000000 
0.347255 -0.785590 0.000000 
0.303554 -0.805748 0.000000 
0.309886 -0.866293 0.000000 
0.257893 -0.881666 0.000000 
0.254475 -0.935775 0.000000 
0.194039 -0.943075 0.000000 
0.184111 -0.990166 0.000000 
0.445733 -0.808263 0.000000 
0.403017 -0.828842 0.000000 
0.412122 -0.890989 0.000000 
0.362692 -0.908282 0.000000 
0.363386 -0.965793 0.000000 
0.307162 -0.977914 0.000000 
0.301302 -1.029953 0.000000 
0.238687 -1.034905 0.000000 
0.228129 -1.081130 0.000000 
0.058559 -0.662637 0.000000 
0.142917 -0.598879 0.000000 
0.123292 -0.647862 0.000000 
0.162226 -0.683480 0.000000 
0.223062 -0.535691 0.000000 
0.209613 -0.583265 0.000000 
0.256854 -0.617378 0.000000 
0.229092 -0.668609 0.000000 
0.261851 -0.705636 0.000000 
0.302189 -0.472834 0.000000 
0.290702 -0.519570 0.000000 
0.341985 -0.552369 0.000000 
0.321587 -0.602603 0.000000 
0.361761 -0.639011 0.000000 
0.329787 -0.690814 0.000000 
0.360414 -0.727936 0.000000 
0.381315 -0.409978 0.000000 
0.370772 -0.456205 0.000000 
0.425037 -0.487834 0.000000 
0.407738 -0.537263 0.000000 
0.453135 -0.572578 0.000000 
0.427556 -0.624093 0.000000 
0.464588 -0.661120 0.000000 
0.429420 -0.713162 0.000000 
0.458977 -0.750237 0.000000 
0.026061 -0.621887 0.000000 
0.028809 -0.516180 0.000000 
0.054870 -0.562064 0.000000 
0.106992 -0.553831 0.000000 
0.029377 -0.414123 0.000000 
0.058186 -0.454300 0.000000 
0.114311 -0.438634 0.000000 
0.137056 -0.492282 0.000000 
0.186430 -0.489756 0.000000 
0.029568 -0.313069 0.000000 
0.058945 -0.351189 0.000000 
0.116563 -0.331543 0.000000 
0.143120 -0.378812 0.000000 
0.196633 -0.370103 0.000000 
0.217198 -0.427399 0.000000 
0.265318 -0.426600 0.000000 
0.029759 -0.212015 0.000000 
0.059328 -0.249080 0.000000 
0.117890 -0.226375 0.000000 
0.145749 -0.270717 0.000000 
0.201664 -0.257243 0.000000 
0.225992 -0.309360 0.000000 
0.278030 -0.303494 0.000000 
0.296791 -0.363437 0.000000 
0.344206 -0.363444 0.000000 
VECTORS X_EC float 
0.338794 0.895468 0.000000 
-0.609100 -0.023280 0.000000 
0.713312 0.087861 0.000000 
0.374519 -0.531569 0.000000 
0.423588 -0.888299 0.000000 
-0.218274 -0.854196 0.000000 
-0.513962 0.421565 0.000000 
0.756418 0.633051 0.000000 
0.381900 0.090659 0.000000 
-0.550868 0.259097 0.000000 
0.823577 0.269893 0.000000 
0.556234 -0.503611 0.000000 
-0.139443 -0.386042 0.000000 
-0.484677 0.975833 0.000000 
0.766286 -0.758952 0.000000 
0.384386 0.726428 0.000000 
0.474677 -0.593506 0.000000 
-0.141715 -0.593602 0.000000 
-0.385608 0.597170 0.000000 
0.937896 0.676365 0.000000 
0.621631 -0.027215 0.000000 
-0.105264 0.154684 0.000000 
-0.467428 -0.443942 0.000000 
0.771260 -0.137414 0.000000 
0.386873 -0.637803 0.000000 
0.761262 -0.554397 0.000000 
0.108942 -0.273021 0.000000 
-0.397202 -0.753860 0.000000 
-0.142083 0.584865 0.000000 
-0.595936 0.026090 0.000000 
0.978194 -0.473776 0.000000 
-0.660903 0.834599 0.000000 
0.724964 0.374079 0.000000 
0.899809 -0.268170 0.000000 
0.685384 0.327142 0.000000 
0.287229 -0.174016 0.000000 
0.702895 -0.873345 0.000000 
0.180633 0.635136 0.000000 
0.445811 -0.043023 0.000000 
-0.220880 -0.485809 0.000000 
-0.071546 0.883265 0.000000 
-0.033296 0.628194 0.000000 
-0.417537 0.127685 0.000000 
0.039645 -0.574878 0.000000 
-0.441768 0.925251 0.000000 
-0.109248 0.229800 0.000000 
-0.699407 -0.246955 0.000000 
-0.474522 -0.914234 0.000000 
0.820030 0.658772 0.000000 
0.957100 0.034700 0.000000 
0.610485 0.131609 0.000000 
-0.761092 -0.598772 0.000000 
-0.714655 0.690491 0.000000 
-0.057734 0.485324 0.000000 
-0.178789 0.639233 0.000000 
-0.067979 -0.018194 0.000000 
0.677748 -0.156397 0.000000 
0.641556 -0.942142 0.000000 
-0.765897 0.799379 0.000000 
0.393446 -0.132758 0.000000 
0.522510 -0.768488 0.000000 
-0.691820 -0.867033 0.000000 
-0.647393 0.402485 0.000000 
0.028512 0.194958 0.000000 
-0.053800 -0.622402 0.000000 
0.514316 -0.894533 0.000000 
0.965681 -0.904749 0.000000 
-0.897068 0.471222 0.000000 
-0.083078 0.404369 0.000000 
-0.006893 -0.298156 0.000000 
0.724017 -0.461789 0.000000 
0.714996 0.761808 0.000000 
-0.642413 0.528351 0.000000 
-0.760780 -0.310630 0.000000 
-0.205471 -0.588445 0.000000 
0.000000 0.436911 0.000000 
-0.564049 -0.261277 0.000000 
0.000000 -0.666713 0.000000 
0.564049 -0.261277 0.000000 
0.866949 0.983379 0.000000 
-0.569003 0.663448 0.000000 
0.000000 -0.817264 0.000000 
0.569003 0.663448 0.000000 
-0.866949 0.983379 0.000000 
0.299194 0.213629 0.000000 
0.858290 -0.077955 0.000000 
-0.577662 0.498491 0.000000 
0.000000 0.079113 0.000000 
0.577662 0.498491 0.000000 
-0.858290 -0.077955 0.000000 
-0.299194 0.213629 0.000000 
-0.268560 -0.556121 0.000000 
0.286830 -0.833763 0.000000 
0.844677 -0.214564 0.000000 
-0.578910 -0.590727 0.000000 
0.000000 -0.099323 0.000000 
0.578910 -0.590727 0.000000 
-0.844677 -0.214564 0.000000 
-0.286830 -0.833763 0.000000 
0.268560 -0.556121 0.000000 
-0.610485 0.131609 0.000000 
0.057734 0.485324 0.000000 
0.714655 0.690491 0.000000 
0.761092 -0.598772 0.000000 
0.765897 0.799379 0.000000 
-0.641556 -0.942142 0.000000 
-0.677748 -0.156397 0.000000 
0.067979 -0.018194 0.000000 
0.178789 0.639233 0.000000 
-0.514316 -0.894533 0.000000 
0.053800 -0.622402 0.000000 
-0.028512 0.194958 0.000000 
0.647393 0.402485 0.000000 
0.691820 -0.867033 0.000000 
-0.522510 -0.768488 0.000000 
-0.393446 -0.132758 0.000000 
0.205471 -0.588445 0.000000 
0.760780 -0.310630 0.000000 
0.642413 0.528351 0.000000 
-0.714996 0.761808 0.000000 
-0.724017 -0.461789 0.000000 
0.006894 -0.298156 0.000000 
0.083078 0.404369 0.000000 
0.897068 0.471222 0.000000 
-0.965681 -0.904749 0.000000 
-0.761262 -0.554397 0.000000 
0.142083 0.584865 0.000000 
0.397202 -0.753860 0.000000 
-0.108942 -0.273021 0.000000 
-0.899809 -0.268170 0.000000 
-0.724964 0.374079 0.000000 
0.660903 0.834599 0.000000 
-0.978194 -0.473776 0.000000 
0.595936 0.026090 0.000000 
0.071546 0.883265 0.000000 
0.220880 -0.485809 0.000000 
-0.445811 -0.043023 0.000000 
-0.180633 0.635136 0.000000 
-0.702895 -0.873345 0.000000 
-0.287229 -0.174016 0.000000 
-0.685384 0.327142 0.000000 
-0.957100 0.034700 0.000000 
-0.820030 0.658772 0.000000 
0.474522 -0.914234 0.000000 
0.699407 -0.246955 0.000000 
0.109248 0.229800 0.000000 
0.441768 0.925251 0.000000 
-0.039645 -0.574878 0.000000 
0.417537 0.127685 0.000000 
0.033296 0.628194 0.000000 
-0.338794 0.895468 0.000000 
-0.374519 -0.531569 0.000000 
-0.713312 0.087861 0.000000 
0.609100 -0.023280 0.000000 
-0.381900 0.090659 0.000000 
-0.756418 0.633051 0.000000 
0.513962 0.421565 0.000000 
0.218274 -0.854196 0.000000 
-0.423588 -0.888299 0.000000 
-0.384386 0.726428 0.000000 
-0.766286 -0.758952 0.000000 
0.484677 0.975833 0.000000 
0.139443 -0.386042 0.000000 
-0.556234 -0.503611 0.000000 
-0.823577 0.269893 0.000000 
0.550868 0.259097 0.000000 
-0.386873 -0.637803 0.000000 
-0.771260 -0.137414 0.000000 
0.467428 -0.443942 0.000000 
0.105264 0.154684 0.000000 
-0.621631 -0.027215 0.000000 
-0.937896 0.676365 0.000000 
0.385608 0.597170 0.000000 
0.141715 -0.593602 0.000000 
-0.474677 -0.593506 0.000000 
CELL_DATA 175 
SCALARS MASS float 
LOOKUP_TABLE default 
0.078183 
0.086427 
0.094672 
0.086427 
0.088131 
0.092111 
0.085854 
0.092111 
0.088131 
0.088705 
0.091000 
0.086983 
0.091556 
0.086983 
0.091000 
0.088705 
0.089278 
0.091574 
0.089278 
0.092722 
0.089278 
0.092722 
0.089278 
0.091574 
0.089278 
0.078183 
0.086427 
0.094672 
0.086427 
0.088131 
0.092111 
0.085854 
0.092111 
0.088131 
0.088705 
0.091000 
0.086983 
0.091556 
0.086983 
0.091000 
0.088705 
0.089278 
0.091574 
0.089278 
0.092722 
0.089278 
0.092722 
0.089278 
0.091574 
0.089278 
0.078183 
0.086427 
0.094672 
0.086427 
0.088131 
0.092111 
0.085854 
0.092111 
0.088131 
0.088705 
0.091000 
0.086983 
0.091556 
0.086983 
0.091000 
0.088705 
0.089278 
0.091574 
0.089278 
0.092722 
0.089278 
0.092722 
0.089278 
0.091574 
0.089278 
0.078183 
0.086427 
0.094672 
0.086427 
0.088131 
0.092111 
0.085854 
0.092111 
0.088131 
0.088705 
0.091000 
0.086983 
0.091556 
0.086983 
0.091000 
0.088705 
0.089278 
0.091574 
0.089278 
0.092722 
0.089278 
0.092722 
0.089278 
0.091574 
0.089278 
0.078183 
0.086427 
0.094672 
0.086427 
0.088131 
0.092111 
0.085854 
0.092111 
0.088131 
0.088705 
0.091000 
0.086983 
0.091556 
0.086983 
0.091000 
0.088705 
0.089278 
0.091574 
0.089278 
0.092722 
0.089278 
0.092722 
0.089278 
0.091574 
0.089278 
0.078183 
0.086427 
0.094672 
0.086427 
0.088131 
0.092111 
0.085854 
0.092111 
0.088131 
0.088705 
0.091000 
0.086983 
0.091556 
0.086983 
0.091000 
0.088705 
0.089278 
0.091574 
0.089278 
0.092722 
0.089278 
0.092722 
0.089278 
0.091574 
0.089278 
0.078183 
0.086427 
0.094672 
0.086427 
0.088131 
0.092111 
0.085854 
0.092111 
0.088131 
0.088705 
0.091000 
0.086983 
0.091556 
0.086983 
0.091000 
0.088705 
0.089278 
0.091574 
0.089278 
0.092722 
0.089278 
0.092722 
0.089278 
0.091574 
0.089278 
SCALARS MASS float 
LOOKUP_TABLE default 
0.078183 
0.086427 
0.094672 
0.086427 
0.088131 
0.092111 
0.085854 
0.092111 
0.088131 
0.088705 
0.091000 
0.086983 
0.091556 
0.086983 
0.091000 
0.088705 
0.089278 
0.091574 
0.089278 
0.092722 
0.089278 
0.092722 
0.089278 
0.091574 
0.089278 
0.078183 
0.086427 
0.094672 
0.086427 
0.088131 
0.092111 
0.085854 
0.092111 
0.088131 
0.088705 
0.091000 
0.086983 
0.091556 
0.086983 
0.091000 
0.088705 
0.089278 
0.091574 
0.089278 
0.092722 
0.089278 
0.092722 
0.089278 
0.091574 
0.089278 
0.078183 
0.086427 
0.094672 
0.086427 
0.088131 
0.092111 
0.085854 
0.092111 
0.088131 
0.088705 
0.091000 
0.086983 
0.091556 
0.086983 
0.091000 
0.088705 
0.089278 
0.091574 
0.089278 
0.092722 
0.089278 
0.092722 
0.089278 
0.091574 
0.089278 
0.078183 
0.086427 
0.094672 
0.086427 
0.088131 
0.092111 
0.085854 
0.092111 
0.088131 
0.088705 
0.091000 
0.086983 
0.091556 
0.086983 
0.091000 
0.088705 
0.089278 
0.091574 
0.089278 
0.092722 
0.089278 
0.092722 
0.089278 
0.091574 
0.089278 
0.078183 
0.086427 
0.094672 
0.086427 
0.088131 
0.092111 
0.085854 
0.092111 
0.088131 
0.088705 
0.091000 
0.086983 
0.091556 
0.086983 
0.091000 
0.088705 
0.089278 
0.091574 
0.089278 
0.092722 
0.089278 
0.092722 
0.089278 
0.091574 
0.089278 
0.078183 
0.086427 
0.094672 
0.086427 
0.088131 
0.092111 
0.085854 
0.092111 
0.088131 
0.088705 
0.091000 
0.086983 
0.091556 
0.086983 
0.091000 
0.088705 
0.089278 
0.091574 
0.089278 
0.092722 
0.089278 
0.092722 
0.089278 
0.091574 
0.089278 
0.078183 
0.086427 
0.094672 
0.086427 
0.088131 
0.092111 
0.085854 
0.092111 
0.088131 
0.088705 
0.091000 
0.086983 
0.091556 
0.086983 
0.091000 
0.088705 
0.089278 
0.091574 
0.089278 
0.092722 
0.089278 
0.092722 
0.089278 
0.091574 
0.089278 
SCALARS DENSITY float 
LOOKUP_TABLE default 
20.000000 
20.000000 
20.000000 
20.000000 
20.000000 
20.000000 
20.000000 
20.000000 
20.000000 
20.000000 
20.000000 
20.000000 
20.000000 
20.000000 
20.000000 
20.000000 
20.000000 
20.000000 
20.000000 
20.000000 
20.000000 
20.000000 
20.000000 
20.000000 
20.000000 
20.000000 
20.000000 
20.000000 
20.000000 
20.000000 
20.000000 
20.000000 
20.000000 
20.000000 
20.000000 
20.000000 
20.000000 
20.000000 
20.000000 
20.000000 
20.000000 
20.000000 
20.000000 
20.000000 
20.000000 
20.000000 
20.000000 
20.000000 
20.000000 
20.000000 
20.000000 
20.000000 
20.000000 
20.000000 
20.000000 
20.000000 
20.000000 
20.000000 
20.000000 
20.000000 
20.000000 
20.000000 
20.000000 
20.000000 
20.000000 
20.000000 
20.000000 
20.000000 
20.000000 
20.000000 
20.000000 
20.000000 
20.000000 
20.000000 
20.000000 
20.000000 
20.000000 
20.000000 
20.000000 
20.000000 
20.000000 
20.000000 
20.000000 
20.000000 
20.000000 
20.000000 
20.000000 
20.000000 
20.000000 
20.000000 
20.000000 
20.000000 
20.000000 
20.000000 
20.000000 
20.000000 
20.000000 
20.000000 
20.000000 
20.000000 
20.000000 
20.000000 
20.000000 
20.000000 
20.000000 
20.000000 
20.000000 
20.000000 
20.000000 
20.000000 
20.000000 
20.000000 
20.000000 
20.000000 
20.000000 
20.000000 
20.000000 
20.000000 
20.000000 
20.000000 
20.000000 
20.000000 
20.000000 
20.000000 
20.000000 
20.000000 
20.000000 
20.000000 
20.000000 
20.000000 
20.000000 
20.000000 
20.000000 
20.000000 
20.000000 
20.000000 
20.000000 
20.000000 
20.000000 
20.000000 
20.000000 
20.000000 
20.000000 
20.000000 
20.000000 
20.000000 
20.000000 
20.000000 
20.000000 
20.000000 
20.000000 
20.000000 
20.000000 
20.000000 
20.000000 
20.000000 
20.000000 
20.000000 
20.000000 
20.000000 
20.000000 
20.000000 
20.000000 
20.000000 
20.000000 
20.000000 
20.000000 
20.000000 
20.000000 
20.000000 
20.000000 
20.000000 
20.000000 
20.000000 
20.000000 
SCALARS ELEM_i float 
LOOKUP_TABLE default 
178 
205 
178 
178 
205 
205 
206 
179 
179 
233 
206 
206 
206 
207 
179 
180 
233 
233 
234 
207 
207 
207 
207 
180 
180 
177 
204 
204 
205 
231 
204 
232 
205 
205 
231 
231 
231 
232 
232 
232 
233 
258 
258 
258 
259 
259 
259 
259 
233 
233 
177 
203 
204 
204 
203 
203 
203 
203 
231 
202 
202 
229 
230 
230 
230 
230 
201 
229 
229 
229 
229 
230 
257 
257 
257 
177 
176 
176 
176 
149 
176 
175 
176 
203 
148 
148 
175 
175 
175 
202 
202 
147 
147 
147 
174 
174 
174 
201 
201 
201 
177 
150 
150 
149 
123 
149 
149 
149 
149 
122 
122 
122 
122 
121 
148 
148 
95 
95 
95 
122 
121 
121 
121 
121 
147 
177 
151 
150 
150 
151 
151 
124 
150 
123 
125 
124 
124 
124 
123 
123 
123 
125 
125 
97 
97 
97 
97 
96 
96 
96 
178 
178 
178 
151 
179 
179 
152 
151 
151 
180 
179 
153 
152 
152 
152 
125 
180 
180 
153 
153 
153 
153 
126 
125 
125 
VECTORS VELOCITY float 
-0.000000 -3.641472 0.000000 
0.000000 -3.641472 0.000000 
0.000000 -3.641472 0.000000 
0.000000 -3.641472 0.000000 
0.000000 -3.641472 0.000000 
0.000000 -3.641472 0.000000 
0.000000 -3.641472 0.000000 
0.000000 -3.641472 0.000000 
0.000000 -3.641472 0.000000 
0.000000 -3.641472 0.000000 
0.000000 -3.641472 0.000000 
0.000000 -3.641472 0.000000 
0.000000 -3.641472 0.000000 
-0.000000 -3.641472 0.000000 
0.000000 -3.641472 0.000000 
0.000000 -3.641472 0.000000 
-0.000000 -3.641472 0.000000 
-0.000000 -3.641472 0.000000 
0.000000 -3.641472 0.000000 
0.000000 -3.641472 0.000000 
-0.000000 -3.641472 0.000000 
0.000000 -3.641472 0.000000 
0.000000 -3.641472 0.000000 
0.000000 -3.641472 0.000000 
-0.000000 -3.641472 0.000000 
-0.000000 -3.641472 0.000000 
0.000000 -3.641472 0.000000 
-0.000000 -3.641472 0.000000 
-0.000000 -3.641472 0.000000 
0.000000 -3.641472 0.000000 
0.000000 -3.641472 0.000000 
0.000000 -3.641472 0.000000 
-0.000000 -3.641472 0.000000 
-0.000000 -3.641472 0.000000 
-0.000000 -3.641472 0.000000 
-0.000000 -3.641472 0.000000 
-0.000000 -3.641472 0.000000 
-0.000000 -3.641472 0.000000 
-0.000000 -3.641472 0.000000 
-0.000000 -3.641472 0.000000 
-0.000000 -3.641472 0.000000 
0.000000 -3.641472 0.000000 
0.000000 -3.641472 0.000000 
-0.000000 -3.641472 0.000000 
-0.000000 -3.641472 0.000000 
0.000000 -3.641472 0.000000 
-0.000000 -3.641472 0.000000 
-0.000000 -3.641472 0.000000 
-0.000000 -3.641472 0.000000 
-0.000000 -3.641472 0.000000 
-0.000000 -3.641472 0.000000 
0.000000 -3.641472 0.000000 
0.000000 -3.641472 0.000000 
0.000000 -3.641472 0.000000 
-0.000000 -3.641472 0.000000 
-0.000000 -3.641472 0.000000 
-0.000000 -3.641472 0.000000 
-0.000000 -3.641472 0.000000 
-0.000000 -3.641472 0.000000 
-0.000000 -3.641472 0.000000 
-0.000000 -3.641472 0.000000 
-0.000000 -3.641472 0.000000 
-0.000000 -3.641472 0.000000 
-0.000000 -3.641472 0.000000 
-0.000000 -3.641472 0.000000 
-0.000000 -3.641472 0.000000 
0.000000 -3.641472 0.000000 
-0.000000 -3.641472 0.000000 
-0.000000 -3.641472 0.000000 
-0.000000 -3.641472 0.000000 
0.000000 -3.641472 0.000000 
-0.000000 -3.641472 0.000000 
0.000000 -3.641472 0.000000 
-0.000000 -3.641472 0.000000 
0.000000 -3.641472 0.000000 
0.000000 -3.641472 0.000000 
0.000000 -3.641472 0.000000 
0.000000 -3.641472 0.000000 
0.000000 -3.641472 0.000000 
0.000000 -3.641472 0.000000 
0.000000 -3.641472 0.000000 
0.000000 -3.641472 0.000000 
0.000000 -3.641472 0.000000 
-0.000000 -3.641472 0.000000 
-0.000000 -3.641472 0.000000 
0.000000 -3.641472 0.000000 
-0.000000 -3.641472 0.000000 
-0.000000 -3.641472 0.000000 
-0.000000 -3.641472 0.000000 
-0.000000 -3.641472 0.000000 
-0.000000 -3.641472 0.000000 
-0.000000 -3.641472 0.000000 
0.000000 -3.641472 0.000000 
-0.000000 -3.641472 0.000000 
0.000000 -3.641472 0.000000 
0.000000 -3.641472 0.000000 
-0.000000 -3.641472 0.000000 
0.000000 -3.641472 0.000000 
-0.000000 -3.641472 0.000000 
0.000000 -3.641472 0.000000 
-0.000000 -3.641472 0.000000 
-0.000000 -3.641472 0.000000 
-0.000000 -3.641472 0.000000 
-0.000000 -3.641472 0.000000 
-0.000000 -3.641472 0.000000 
-0.000000 -3.641472 0.000000 
0.000000 -3.641472 0.000000 
0.000000 -3.641472 0.000000 
0.000000 -3.641472 0.000000 
-0.000000 -3.641472 0.000000 
-0.000000 -3.641472 0.000000 
-0.000000 -3.641472 0.000000 
0.000000 -3.641472 0.000000 
0.000000 -3.641472 0.000000 
0.000000 -3.641472 0.000000 
-0.000000 -3.641472 0.000000 
-0.000000 -3.641472 0.000000 
0.000000 -3.641472 0.000000 
0.000000 -3.641472 0.000000 
-0.000000 -3.641472 0.000000 
-0.000000 -3.641472 0.000000 
-0.000000 -3.641472 0.000000 
0.000000 -3.641472 0.000000 
-0.000000 -3.641472 0.000000 
0.000000 -3.641472 0.000000 
-0.000000 -3.641472 0.000000 
0.000000 -3.641472 0.000000 
-0.000000 -3.641472 0.000000 
-0.000000 -3.641472 0.000000 
0.000000 -3.641472 0.000000 
-0.000000 -3.641472 0.000000 
-0.000000 -3.641472 0.000000 
-0.000000 -3.641472 0.000000 
-0.000000 -3.641472 0.000000 
0.000000 -3.641472 0.000000 
0.000000 -3.641472 0.000000 
0.000000 -3.641472 0.000000 
0.000000 -3.641472 0.000000 
0.000000 -3.641472 0.000000 
-0.000000 -3.641472 0.000000 
-0.000000 -3.641472 0.000000 
0.000000 -3.641472 0.000000 
0.000000 -3.641472 0.000000 
0.000000 -3.641472 0.000000 
0.000000 -3.641472 0.000000 
0.000000 -3.641472 0.000000 
-0.000000 -3.641472 0.000000 
-0.000000 -3.641472 0.000000 
-0.000000 -3.641472 0.000000 
0.000000 -3.641472 0.000000 
-0.000000 -3.641472 0.000000 
0.000000 -3.641472 0.000000 
0.000000 -3.641472 0.000000 
0.000000 -3.641472 0.000000 
-0.000000 -3.641472 0.000000 
0.000000 -3.641472 0.000000 
0.000000 -3.641472 0.000000 
0.000000 -3.641472 0.000000 
0.000000 -3.641472 0.000000 
0.000000 -3.641472 0.000000 
-0.000000 -3.641472 0.000000 
-0.000000 -3.641472 0.000000 
-0.000000 -3.641472 0.000000 
0.000000 -3.641472 0.000000 
0.000000 -3.641472 0.000000 
0.000000 -3.641472 0.000000 
-0.000000 -3.641472 0.000000 
0.000000 -3.641472 0.000000 
0.000000 -3.641472 0.000000 
-0.000000 -3.641472 0.000000 
-0.000000 -3.641472 0.000000 
-0.000000 -3.641472 0.000000 
0.000000 -3.641472 0.000000 
0.000000 -3.641472 0.000000 
-0.000000 -3.641472 0.000000 
TENSORS STRESS float 
-0.000000 -0.000000 0.000000 
0.000000 -0.000000 0.000000 
0.000000 0.000000 0.000000 

0.000000 -0.000000 0.000000 
0.000000 0.000000 0.000000 
0.000000 0.000000 0.000000 

-0.000000 -0.000000 0.000000 
0.000000 -0.000000 0.000000 
0.000000 0.000000 0.000000 

-0.000000 -0.000000 0.000000 
0.000000 -0.000000 0.000000 
0.000000 0.000000 0.000000 

-0.000000 -0.000000 0.000000 
0.000000 -0.000000 0.000000 
0.000000 0.000000 0.000000 

0.000000 -0.000000 0.000000 
0.000000 0.000000 0.000000 
0.000000 0.000000 0.000000 

-0.000000 0.000000 0.000000 
0.000000 -0.000000 0.000000 
0.000000 0.000000 0.000000 

-0.000000 -0.000000 0.000000 
0.000000 -0.000000 0.000000 
0.000000 0.000000 0.000000 

-0.000000 -0.000000 0.000000 
0.000000 -0.000000 0.000000 
0.000000 0.000000 0.000000 

-0.000000 0.000000 0.000000 
0.000000 -0.000000 0.000000 
0.000000 0.000000 0.000000 

-0.000000 -0.000000 0.000000 
0.000000 -0.000000 0.000000 
0.000000 0.000000 0.000000 

-0.000000 0.000000 0.000000 
0.000000 -0.000000 0.000000 
0.000000 0.000000 0.000000 

0.000000 -0.000000 0.000000 
0.000000 0.000000 0.000000 
0.000000 0.000000 0.000000 

0.000000 -0.000000 0.000000 
0.000000 0.000000 0.000000 
0.000000 0.000000 0.000000 

0.000000 -0.000000 0.000000 
0.000000 -0.000000 0.000000 
0.000000 0.000000 0.000000 

0.000000 -0.000000 0.000000 
0.000000 0.000000 0.000000 
0.000000 0.000000 0.000000 

-0.000000 -0.000000 0.000000 
0.000000 -0.000000 0.000000 
0.000000 0.000000 0.000000 

-0.000000 -0.000000 0.000000 
0.000000 -0.000000 0.000000 
0.000000 0.000000 0.000000 

-0.000000 -0.000000 0.000000 
0.000000 -0.000000 0.000000 
0.000000 0.000000 0.000000 

0.000000 -0.000000 0.000000 
0.000000 -0.000000 0.000000 
0.000000 0.000000 0.000000 

0.000000 -0.000000 0.000000 
0.000000 -0.000000 0.000000 
0.000000 0.000000 0.000000 

0.000000 -0.000000 0.000000 
0.000000 0.000000 0.000000 
0.000000 0.000000 0.000000 

0.000000 -0.000000 0.000000 
0.000000 -0.000000 0.000000 
0.000000 0.000000 0.000000 

0.000000 -0.000000 0.000000 
0.000000 -0.000000 0.000000 
0.000000 0.000000 0.000000 

-0.000000 0.000000 0.000000 
0.000000 -0.000000 0.000000 
0.000000 0.000000 0.000000 

0.000000 0.000000 0.000000 
0.000000 0.000000 0.000000 
0.000000 0.000000 0.000000 

0.000000 0.000000 0.000000 
0.000000 0.000000 0.000000 
0.000000 0.000000 0.000000 

0.000000 0.000000 0.000000 
0.000000 0.000000 0.000000 
0.000000 0.000000 0.000000 

-0.000000 -0.000000 0.000000 
0.000000 -0.000000 0.000000 
0.000000 0.000000 0.000000 

-0.000000 0.000000 0.000000 
0.000000 0.000000 0.000000 
0.000000 0.000000 0.000000 

0.000000 0.000000 0.000000 
0.000000 -0.000000 0.000000 
0.000000 0.000000 0.000000 

-0.000000 -0.000000 0.000000 
0.000000 -0.000000 0.000000 
0.000000 0.000000 0.000000 

-0.000000 -0.000000 0.000000 
0.000000 -0.000000 0.000000 
0.000000 0.000000 0.000000 

-0.000000 -0.000000 0.000000 
0.000000 -0.000000 0.000000 
0.000000 0.000000 0.000000 

-0.000000 -0.000000 0.000000 
0.000000 -0.000000 0.000000 
0.000000 0.000000 0.000000 

-0.000000 -0.000000 0.000000 
0.000000 -0.000000 0.000000 
0.000000 0.000000 0.000000 

-0.000000 -0.000000 0.000000 
0.000000 -0.000000 0.000000 
0.000000 0.000000 0.000000 

0.000000 0.000000 0.000000 
0.000000 0.000000 0.000000 
0.000000 0.000000 0.000000 

-0.000000 -0.000000 0.000000 
0.000000 -0.000000 0.000000 
0.000000 0.000000 0.000000 

-0.000000 0.000000 0.000000 
0.000000 -0.000000 0.000000 
0.000000 0.000000 0.000000 

-0.000000 -0.000000 0.000000 
0.000000 0.000000 0.000000 
0.000000 0.000000 0.000000 

0.000000 0.000000 0.000000 
0.000000 -0.000000 0.000000 
0.000000 0.000000 0.000000 

-0.000000 0.000000 0.000000 
0.000000 0.000000 0.000000 
0.000000 0.000000 0.000000 

-0.000000 -0.000000 0.000000 
0.000000 -0.000000 0.000000 
0.000000 0.000000 0.000000 

-0.000000 0.000000 0.000000 
0.000000 -0.000000 0.000000 
0.000000 0.000000 0.000000 

0.000000 -0.000000 0.000000 
0.000000 0.000000 0.000000 
0.000000 0.000000 0.000000 

-0.000000 -0.000000 0.000000 
0.000000 -0.000000 0.000000 
0.000000 0.000000 0.000000 

-0.000000 -0.000000 0.000000 
0.000000 0.000000 0.000000 
0.000000 0.000000 0.000000 

0.000000 -0.000000 0.000000 
0.000000 0.000000 0.000000 
0.000000 0.000000 0.000000 

-0.000000 -0.000000 0.000000 
0.000000 -0.000000 0.000000 
0.000000 0.000000 0.000000 

0.000000 -0.000000 0.000000 
0.000000 0.000000 0.000000 
0.000000 0.000000 0.000000 

-0.000000 -0.000000 0.000000 
0.000000 -0.000000 0.000000 
0.000000 0.000000 0.000000 

0.000000 -0.000000 0.000000 
0.000000 0.000000 0.000000 
0.000000 0.000000 0.000000 

0.000000 -0.000000 0.000000 
0.000000 0.000000 0.000000 
0.000000 0.000000 0.000000 

-0.000000 0.000000 0.000000 
0.000000 -0.000000 0.000000 
0.000000 0.000000 0.000000 

0.000000 0.000000 0.000000 
0.000000 -0.000000 0.000000 
0.000000 0.000000 0.000000 

0.000000 0.000000 0.000000 
0.000000 0.000000 0.000000 
0.000000 0.000000 0.000000 

0.000000 -0.000000 0.000000 
0.000000 0.000000 0.000000 
0.000000 0.000000 0.000000 

-0.000000 0.000000 0.000000 
0.000000 -0.000000 0.000000 
0.000000 0.000000 0.000000 

-0.000000 0.000000 0.000000 
0.000000 -0.000000 0.000000 
0.000000 0.000000 0.000000 

0.000000 0.000000 0.000000 
0.000000 0.000000 0.000000 
0.000000 0.000000 0.000000 

-0.000000 -0.000000 0.000000 
0.000000 -0.000000 0.000000 
0.000000 0.000000 0.000000 

-0.000000 0.000000 0.000000 
0.000000 -0.000000 0.000000 
0.000000 0.000000 0.000000 

0.000000 0.000000 0.000000 
0.000000 0.000000 0.000000 
0.000000 0.000000 0.000000 

0.000000 0.000000 0.000000 
0.000000 0.000000 0.000000 
0.000000 0.000000 0.000000 

-0.000000 0.000000 0.000000 
0.000000 0.000000 0.000000 
0.000000 0.000000 0.000000 

0.000000 0.000000 0.000000 
0.000000 0.000000 0.000000 
0.000000 0.000000 0.000000 

-0.000000 0.000000 0.000000 
0.000000 -0.000000 0.000000 
0.000000 0.000000 0.000000 

-0.000000 0.000000 0.000000 
0.000000 -0.000000 0.000000 
0.000000 0.000000 0.000000 

0.000000 -0.000000 0.000000 
0.000000 -0.000000 0.000000 
0.000000 0.000000 0.000000 

0.000000 0.000000 0.000000 
0.000000 -0.000000 0.000000 
0.000000 0.000000 0.000000 

0.000000 -0.000000 0.000000 
0.000000 -0.000000 0.000000 
0.000000 0.000000 0.000000 

0.000000 -0.000000 0.000000 
0.000000 -0.000000 0.000000 
0.000000 0.000000 0.000000 

-0.000000 0.000000 0.000000 
0.000000 -0.000000 0.000000 
0.000000 0.000000 0.000000 

0.000000 0.000000 0.000000 
0.000000 0.000000 0.000000 
0.000000 0.000000 0.000000 

-0.000000 -0.000000 0.000000 
0.000000 -0.000000 0.000000 
0.000000 0.000000 0.000000 

-0.000000 -0.000000 0.000000 
0.000000 -0.000000 0.000000 
0.000000 0.000000 0.000000 

-0.000000 -0.000000 0.000000 
0.000000 -0.000000 0.000000 
0.000000 0.000000 0.000000 

0.000000 -0.000000 0.000000 
0.000000 0.000000 0.000000 
0.000000 0.000000 0.000000 

-0.000000 -0.000000 0.000000 
0.000000 -0.000000 0.000000 
0.000000 0.000000 0.000000 

-0.000000 0.000000 0.000000 
0.000000 -0.000000 0.000000 
0.000000 0.000000 0.000000 

-0.000000 0.000000 0.000000 
0.000000 -0.000000 0.000000 
0.000000 0.000000 0.000000 

-0.000000 0.000000 0.000000 
0.000000 -0.000000 0.000000 
0.000000 0.000000 0.000000 

-0.000000 0.000000 0.000000 
0.000000 -0.000000 0.000000 
0.000000 0.000000 0.000000 

-0.000000 -0.000000 0.000000 
0.000000 -0.000000 0.000000 
0.000000 0.000000 0.000000 

0.000000 0.000000 0.000000 
0.000000 -0.000000 0.000000 
0.000000 0.000000 0.000000 

0.000000 -0.000000 0.000000 
0.000000 0.000000 0.000000 
0.000000 0.000000 0.000000 

-0.000000 -0.000000 0.000000 
0.000000 0.000000 0.000000 
0.000000 0.000000 0.000000 

0.000000 0.000000 0.000000 
0.000000 0.000000 0.000000 
0.000000 0.000000 0.000000 

0.000000 0.000000 0.000000 
0.000000 0.000000 0.000000 
0.000000 0.000000 0.000000 

0.000000 0.000000 0.000000 
0.000000 -0.000000 0.000000 
0.000000 0.000000 0.000000 

-0.000000 -0.000000 0.000000 
0.000000 -0.000000 0.000000 
0.000000 0.000000 0.000000 

-0.000000 -0.000000 0.000000 
0.000000 0.000000 0.000000 
0.000000 0.000000 0.000000 

-0.000000 -0.000000 0.000000 
0.000000 0.000000 0.000000 
0.000000 0.000000 0.000000 

0.000000 0.000000 0.000000 
0.000000 0.000000 0.000000 
0.000000 0.000000 0.000000 

0.000000 0.000000 0.000000 
0.000000 -0.000000 0.000000 
0.000000 0.000000 0.000000 

0.000000 0.000000 0.000000 
0.000000 -0.000000 0.000000 
0.000000 0.000000 0.000000 

-0.000000 0.000000 0.000000 
0.000000 -0.000000 0.000000 
0.000000 0.000000 0.000000 

-0.000000 -0.000000 0.000000 
0.000000 -0.000000 0.000000 
0.000000 0.000000 0.000000 

-0.000000 0.000000 0.000000 
0.000000 -0.000000 0.000000 
0.000000 0.000000 0.000000 

-0.000000 -0.000000 0.000000 
0.000000 0.000000 0.000000 
0.000000 0.000000 0.000000 

0.000000 0.000000 0.000000 
0.000000 -0.000000 0.000000 
0.000000 0.000000 0.000000 

0.000000 -0.000000 0.000000 
0.000000 0.000000 0.000000 
0.000000 0.000000 0.000000 

0.000000 0.000000 0.000000 
0.000000 0.000000 0.000000 
0.000000 0.000000 0.000000 

-0.000000 -0.000000 0.000000 
0.000000 -0.000000 0.000000 
0.000000 0.000000 0.000000 

-0.000000 0.000000 0.000000 
0.000000 0.000000 0.000000 
0.000000 0.000000 0.000000 

-0.000000 -0.000000 0.000000 
0.000000 -0.000000 0.000000 
0.000000 0.000000 0.000000 

-0.000000 -0.000000 0.000000 
0.000000 -0.000000 0.000000 
0.000000 0.000000 0.000000 

-0.000000 -0.000000 0.000000 
0.000000 -0.000000 0.000000 
0.000000 0.000000 0.000000 

-0.000000 -0.000000 0.000000 
0.000000 -0.000000 0.000000 
0.000000 0.000000 0.000000 

0.000000 -0.000000 0.000000 
0.000000 -0.000000 0.000000 
0.000000 0.000000 0.000000 

0.000000 0.000000 0.000000 
0.000000 -0.000000 0.000000 
0.000000 0.000000 0.000000 

-0.000000 -0.000000 0.000000 
0.000000 -0.000000 0.000000 
0.000000 0.000000 0.000000 

-0.000000 -0.000000 0.000000 
0.000000 -0.000000 0.000000 
0.000000 0.000000 0.000000 

0.000000 0.000000 0.000000 
0.000000 0.000000 0.000000 
0.000000 0.000000 0.000000 

-0.000000 -0.000000 0.000000 
0.000000 -0.000000 0.000000 
0.000000 0.000000 0.000000 

0.000000 0.000000 0.000000 
0.000000 0.000000 0.000000 
0.000000 0.000000 0.000000 

0.000000 0.000000 0.000000 
0.000000 0.000000 0.000000 
0.000000 0.000000 0.000000 

-0.000000 -0.000000 0.000000 
0.000000 0.000000 0.000000 
0.000000 0.000000 0.000000 

0.000000 -0.000000 0.000000 
0.000000 0.000000 0.000000 
0.000000 0.000000 0.000000 

0.000000 0.000000 0.000000 
0.000000 0.000000 0.000000 
0.000000 0.000000 0.000000 

0.000000 -0.000000 0.000000 
0.000000 0.000000 0.000000 
0.000000 0.000000 0.000000 

0.000000 -0.000000 0.000000 
0.000000 -0.000000 0.000000 
0.000000 0.000000 0.000000 

0.000000 -0.000000 0.000000 
0.000000 0.000000 0.000000 
0.000000 0.000000 0.000000 

0.000000 0.000000 0.000000 
0.000000 0.000000 0.000000 
0.000000 0.000000 0.000000 

-0.000000 -0.000000 0.000000 
0.000000 -0.000000 0.000000 
0.000000 0.000000 0.000000 

-0.000000 0.000000 0.000000 
0.000000 -0.000000 0.000000 
0.000000 0.000000 0.000000 

0.000000 -0.000000 0.000000 
0.000000 0.000000 0.000000 
0.000000 0.000000 0.000000 

0.000000 0.000000 0.000000 
0.000000 0.000000 0.000000 
0.000000 0.000000 0.000000 

-0.000000 0.000000 0.000000 
0.000000 -0.000000 0.000000 
0.000000 0.000000 0.000000 

0.000000 -0.000000 0.000000 
0.000000 0.000000 0.000000 
0.000000 0.000000 0.000000 

-0.000000 -0.000000 0.000000 
0.000000 -0.000000 0.000000 
0.000000 0.000000 0.000000 

0.000000 -0.000000 0.000000 
0.000000 0.000000 0.000000 
0.000000 0.000000 0.000000 

-0.000000 0.000000 0.000000 
0.000000 0.000000 0.000000 
0.000000 0.000000 0.000000 

-0.000000 0.000000 0.000000 
0.000000 -0.000000 0.000000 
0.000000 0.000000 0.000000 

-0.000000 -0.000000 0.000000 
0.000000 -0.000000 0.000000 
0.000000 0.000000 0.000000 

-0.000000 -0.000000 0.000000 
0.000000 -0.000000 0.000000 
0.000000 0.000000 0.000000 

-0.000000 0.000000 0.000000 
0.000000 0.000000 0.000000 
0.000000 0.000000 0.000000 

-0.000000 0.000000 0.000000 
0.000000 -0.000000 0.000000 
0.000000 0.000000 0.000000 

-0.000000 0.000000 0.000000 
0.000000 -0.000000 0.000000 
0.000000 0.000000 0.000000 

0.000000 -0.000000 0.000000 
0.000000 0.000000 0.000000 
0.000000 0.000000 0.000000 

-0.000000 0.000000 0.000000 
0.000000 -0.000000 0.000000 
0.000000 0.000000 0.000000 

0.000000 0.000000 0.000000 
0.000000 -0.000000 0.000000 
0.000000 0.000000 0.000000 

-0.000000 -0.000000 0.000000 
0.000000 0.000000 0.000000 
0.000000 0.000000 0.000000 

-0.000000 -0.000000 0.000000 
0.000000 0.000000 0.000000 
0.000000 0.000000 0.000000 

-0.000000 -0.000000 0.000000 
0.000000 -0.000000 0.000000 
0.000000 0.000000 0.000000 

0.000000 -0.000000 0.000000 
0.000000 0.000000 0.000000 
0.000000 0.000000 0.000000 

0.000000 0.000000 0.000000 
0.000000 0.000000 0.000000 
0.000000 0.000000 0.000000 

0.000000 0.000000 0.000000 
0.000000 0.000000 0.000000 
0.000000 0.000000 0.000000 

0.000000 0.000000 0.000000 
0.000000 0.000000 0.000000 
0.000000 0.000000 0.000000 

-0.000000 -0.000000 0.000000 
0.000000 0.000000 0.000000 
0.000000 0.000000 0.000000 

0.000000 0.000000 0.000000 
0.000000 0.000000 0.000000 
0.000000 0.000000 0.000000 

0.000000 -0.000000 0.000000 
0.000000 0.000000 0.000000 
0.000000 0.000000 0.000000 

0.000000 0.000000 0.000000 
0.000000 0.000000 0.000000 
0.000000 0.000000 0.000000 

-0.000000 -0.000000 0.000000 
0.000000 -0.000000 0.000000 
0.000000 0.000000 0.000000 

0.000000 -0.000000 0.000000 
0.000000 0.000000 0.000000 
0.000000 0.000000 0.000000 

-0.000000 0.000000 0.000000 
0.000000 -0.000000 0.000000 
0.000000 0.000000 0.000000 

-0.000000 0.000000 0.000000 
0.000000 -0.000000 0.000000 
0.000000 0.000000 0.000000 

-0.000000 0.000000 0.000000 
0.000000 -0.000000 0.000000 
0.000000 0.000000 0.000000 

-0.000000 -0.000000 0.000000 
0.000000 -0.000000 0.000000 
0.000000 0.000000 0.000000 

0.000000 0.000000 0.000000 
0.000000 0.000000 0.000000 
0.000000 0.000000 0.000000 

-0.000000 0.000000 0.000000 
0.000000 0.000000 0.000000 
0.000000 0.000000 0.000000 

-0.000000 -0.000000 0.000000 
0.000000 -0.000000 0.000000 
0.000000 0.000000 0.000000 

-0.000000 0.000000 0.000000 
0.000000 0.000000 0.000000 
0.000000 0.000000 0.000000 

0.000000 -0.000000 0.000000 
0.000000 0.000000 0.000000 
0.000000 0.000000 0.000000 

0.000000 -0.000000 0.000000 
0.000000 0.000000 0.000000 
0.000000 0.000000 0.000000 

0.000000 0.000000 0.000000 
0.000000 -0.000000 0.000000 
0.000000 0.000000 0.000000 

0.000000 -0.000000 0.000000 
0.000000 0.000000 0.000000 
0.000000 0.000000 0.000000 

-0.000000 0.000000 0.000000 
0.000000 0.000000 0.000000 
0.000000 0.000000 0.000000 

-0.000000 0.000000 0.000000 
0.000000 -0.000000 0.000000 
0.000000 0.000000 0.000000 

-0.000000 -0.000000 0.000000 
0.000000 -0.000000 0.000000 
0.000000 0.000000 0.000000 

-0.000000 0.000000 0.000000 
0.000000 -0.000000 0.000000 
0.000000 0.000000 0.000000 

-0.000000 0.000000 0.000000 
0.000000 -0.000000 0.000000 
0.000000 0.000000 0.000000 

0.000000 -0.000000 0.000000 
0.000000 0.000000 0.000000 
0.000000 0.000000 0.000000 

0.000000 -0.000000 0.000000 
0.000000 0.000000 0.000000 
0.000000 0.000000 0.000000 

TENSORS STRAIN float 
-0.000000 -0.000000 0.000000 
0.000000 -0.000000 0.000000 
0.000000 0.000000 0.000000 

-0.000000 -0.000000 0.000000 
0.000000 0.000000 0.000000 
0.000000 0.000000 0.000000 

-0.000000 -0.000000 0.000000 
0.000000 -0.000000 0.000000 
0.000000 0.000000 0.000000 

-0.000000 -0.000000 0.000000 
0.000000 -0.000000 0.000000 
0.000000 0.000000 0.000000 

0.000000 -0.000000 0.000000 
0.000000 -0.000000 0.000000 
0.000000 0.000000 0.000000 

0.000000 -0.000000 0.000000 
0.000000 0.000000 0.000000 
0.000000 0.000000 0.000000 

-0.000000 0.000000 0.000000 
0.000000 -0.000000 0.000000 
0.000000 0.000000 0.000000 

-0.000000 -0.000000 0.000000 
0.000000 -0.000000 0.000000 
0.000000 0.000000 0.000000 

-0.000000 -0.000000 0.000000 
0.000000 -0.000000 0.000000 
0.000000 0.000000 0.000000 

-0.000000 0.000000 0.000000 
0.000000 -0.000000 0.000000 
0.000000 0.000000 0.000000 

-0.000000 -0.000000 0.000000 
0.000000 -0.000000 0.000000 
0.000000 0.000000 0.000000 

-0.000000 0.000000 0.000000 
0.000000 -0.000000 0.000000 
0.000000 0.000000 0.000000 

-0.000000 -0.000000 0.000000 
0.000000 0.000000 0.000000 
0.000000 0.000000 0.000000 

0.000000 -0.000000 0.000000 
0.000000 0.000000 0.000000 
0.000000 0.000000 0.000000 

0.000000 -0.000000 0.000000 
0.000000 -0.000000 0.000000 
0.000000 0.000000 0.000000 

0.000000 -0.000000 0.000000 
0.000000 0.000000 0.000000 
0.000000 0.000000 0.000000 

-0.000000 -0.000000 0.000000 
0.000000 -0.000000 0.000000 
0.000000 0.000000 0.000000 

-0.000000 -0.000000 0.000000 
0.000000 -0.000000 0.000000 
0.000000 0.000000 0.000000 

-0.000000 -0.000000 0.000000 
0.000000 -0.000000 0.000000 
0.000000 0.000000 0.000000 

0.000000 -0.000000 0.000000 
0.000000 -0.000000 0.000000 
0.000000 0.000000 0.000000 

0.000000 -0.000000 0.000000 
0.000000 -0.000000 0.000000 
0.000000 0.000000 0.000000 

0.000000 -0.000000 0.000000 
0.000000 0.000000 0.000000 
0.000000 0.000000 0.000000 

0.000000 -0.000000 0.000000 
0.000000 -0.000000 0.000000 
0.000000 0.000000 0.000000 

0.000000 -0.000000 0.000000 
0.000000 -0.000000 0.000000 
0.000000 0.000000 0.000000 

0.000000 0.000000 0.000000 
0.000000 -0.000000 0.000000 
0.000000 0.000000 0.000000 

-0.000000 0.000000 0.000000 
0.000000 0.000000 0.000000 
0.000000 0.000000 0.000000 

0.000000 0.000000 0.000000 
0.000000 0.000000 0.000000 
0.000000 0.000000 0.000000 

0.000000 0.000000 0.000000 
0.000000 0.000000 0.000000 
0.000000 0.000000 0.000000 

0.000000 -0.000000 0.000000 
0.000000 -0.000000 0.000000 
0.000000 0.000000 0.000000 

-0.000000 0.000000 0.000000 
0.000000 0.000000 0.000000 
0.000000 0.000000 0.000000 

0.000000 0.000000 0.000000 
0.000000 -0.000000 0.000000 
0.000000 0.000000 0.000000 

0.000000 -0.000000 0.000000 
0.000000 -0.000000 0.000000 
0.000000 0.000000 0.000000 

-0.000000 -0.000000 0.000000 
0.000000 0.000000 0.000000 
0.000000 0.000000 0.000000 

-0.000000 -0.000000 0.000000 
0.000000 -0.000000 0.000000 
0.000000 0.000000 0.000000 

-0.000000 -0.000000 0.000000 
0.000000 -0.000000 0.000000 
0.000000 0.000000 0.000000 

-0.000000 -0.000000 0.000000 
0.000000 -0.000000 0.000000 
0.000000 0.000000 0.000000 

0.000000 -0.000000 0.000000 
0.000000 -0.000000 0.000000 
0.000000 0.000000 0.000000 

0.000000 0.000000 0.000000 
0.000000 0.000000 0.000000 
0.000000 0.000000 0.000000 

-0.000000 -0.000000 0.000000 
0.000000 -0.000000 0.000000 
0.000000 0.000000 0.000000 

-0.000000 0.000000 0.000000 
0.000000 -0.000000 0.000000 
0.000000 0.000000 0.000000 

-0.000000 -0.000000 0.000000 
0.000000 0.000000 0.000000 
0.000000 0.000000 0.000000 

0.000000 0.000000 0.000000 
0.000000 -0.000000 0.000000 
0.000000 0.000000 0.000000 

-0.000000 0.000000 0.000000 
0.000000 0.000000 0.000000 
0.000000 0.000000 0.000000 

-0.000000 -0.000000 0.000000 
0.000000 -0.000000 0.000000 
0.000000 0.000000 0.000000 

-0.000000 0.000000 0.000000 
0.000000 -0.000000 0.000000 
0.000000 0.000000 0.000000 

0.000000 -0.000000 0.000000 
0.000000 0.000000 0.000000 
0.000000 0.000000 0.000000 

0.000000 -0.000000 0.000000 
0.000000 -0.000000 0.000000 
0.000000 0.000000 0.000000 

-0.000000 -0.000000 0.000000 
0.000000 0.000000 0.000000 
0.000000 0.000000 0.000000 

-0.000000 -0.000000 0.000000 
0.000000 0.000000 0.000000 
0.000000 0.000000 0.000000 

-0.000000 -0.000000 0.000000 
0.000000 -0.000000 0.000000 
0.000000 0.000000 0.000000 

-0.000000 -0.000000 0.000000 
0.000000 0.000000 0.000000 
0.000000 0.000000 0.000000 

0.000000 -0.000000 0.000000 
0.000000 -0.000000 0.000000 
0.000000 0.000000 0.000000 

0.000000 -0.000000 0.000000 
0.000000 -0.000000 0.000000 
0.000000 0.000000 0.000000 

0.000000 -0.000000 0.000000 
0.000000 0.000000 0.000000 
0.000000 0.000000 0.000000 

0.000000 0.000000 0.000000 
0.000000 -0.000000 0.000000 
0.000000 0.000000 0.000000 

0.000000 0.000000 0.000000 
0.000000 -0.000000 0.000000 
0.000000 0.000000 0.000000 

0.000000 0.000000 0.000000 
0.000000 0.000000 0.000000 
0.000000 0.000000 0.000000 

0.000000 -0.000000 0.000000 
0.000000 0.000000 0.000000 
0.000000 0.000000 0.000000 

-0.000000 0.000000 0.000000 
0.000000 -0.000000 0.000000 
0.000000 0.000000 0.000000 

0.000000 0.000000 0.000000 
0.000000 -0.000000 0.000000 
0.000000 0.000000 0.000000 

0.000000 0.000000 0.000000 
0.000000 0.000000 0.000000 
0.000000 0.000000 0.000000 

0.000000 -0.000000 0.000000 
0.000000 -0.000000 0.000000 
0.000000 0.000000 0.000000 

0.000000 0.000000 0.000000 
0.000000 -0.000000 0.000000 
0.000000 0.000000 0.000000 

0.000000 0.000000 0.000000 
0.000000 0.000000 0.000000 
0.000000 0.000000 0.000000 

-0.000000 0.000000 0.000000 
0.000000 0.000000 0.000000 
0.000000 0.000000 0.000000 

-0.000000 0.000000 0.000000 
0.000000 0.000000 0.000000 
0.000000 0.000000 0.000000 

-0.000000 0.000000 0.000000 
0.000000 0.000000 0.000000 
0.000000 0.000000 0.000000 

-0.000000 0.000000 0.000000 
0.000000 -0.000000 0.000000 
0.000000 0.000000 0.000000 

-0.000000 0.000000 0.000000 
0.000000 -0.000000 0.000000 
0.000000 0.000000 0.000000 

0.000000 -0.000000 0.000000 
0.000000 -0.000000 0.000000 
0.000000 0.000000 0.000000 

0.000000 0.000000 0.000000 
0.000000 -0.000000 0.000000 
0.000000 0.000000 0.000000 

0.000000 -0.000000 0.000000 
0.000000 -0.000000 0.000000 
0.000000 0.000000 0.000000 

0.000000 -0.000000 0.000000 
0.000000 -0.000000 0.000000 
0.000000 0.000000 0.000000 

0.000000 0.000000 0.000000 
0.000000 -0.000000 0.000000 
0.000000 0.000000 0.000000 

0.000000 0.000000 0.000000 
0.000000 0.000000 0.000000 
0.000000 0.000000 0.000000 

-0.000000 -0.000000 0.000000 
0.000000 -0.000000 0.000000 
0.000000 0.000000 0.000000 

0.000000 -0.000000 0.000000 
0.000000 -0.000000 0.000000 
0.000000 0.000000 0.000000 

0.000000 -0.000000 0.000000 
0.000000 -0.000000 0.000000 
0.000000 0.000000 0.000000 

0.000000 -0.000000 0.000000 
0.000000 0.000000 0.000000 
0.000000 0.000000 0.000000 

-0.000000 -0.000000 0.000000 
0.000000 -0.000000 0.000000 
0.000000 0.000000 0.000000 

0.000000 0.000000 0.000000 
0.000000 -0.000000 0.000000 
0.000000 0.000000 0.000000 

-0.000000 0.000000 0.000000 
0.000000 -0.000000 0.000000 
0.000000 0.000000 0.000000 

0.000000 0.000000 0.000000 
0.000000 -0.000000 0.000000 
0.000000 0.000000 0.000000 

0.000000 0.000000 0.000000 
0.000000 -0.000000 0.000000 
0.000000 0.000000 0.000000 

-0.000000 -0.000000 0.000000 
0.000000 -0.000000 0.000000 
0.000000 0.000000 0.000000 

0.000000 0.000000 0.000000 
0.000000 -0.000000 0.000000 
0.000000 0.000000 0.000000 

-0.000000 -0.000000 0.000000 
0.000000 0.000000 0.000000 
0.000000 0.000000 0.000000 

-0.000000 -0.000000 0.000000 
0.000000 0.000000 0.000000 
0.000000 0.000000 0.000000 

-0.000000 0.000000 0.000000 
0.000000 0.000000 0.000000 
0.000000 0.000000 0.000000 

0.000000 0.000000 0.000000 
0.000000 0.000000 0.000000 
0.000000 0.000000 0.000000 

0.000000 0.000000 0.000000 
0.000000 -0.000000 0.000000 
0.000000 0.000000 0.000000 

-0.000000 -0.000000 0.000000 
0.000000 -0.000000 0.000000 
0.000000 0.000000 0.000000 

-0.000000 -0.000000 0.000000 
0.000000 0.000000 0.000000 
0.000000 0.000000 0.000000 

-0.000000 -0.000000 0.000000 
0.000000 0.000000 0.000000 
0.000000 0.000000 0.000000 

0.000000 0.000000 0.000000 
0.000000 0.000000 0.000000 
0.000000 0.000000 0.000000 

0.000000 0.000000 0.000000 
0.000000 -0.000000 0.000000 
0.000000 0.000000 0.000000 

0.000000 0.000000 0.000000 
0.000000 -0.000000 0.000000 
0.000000 0.000000 0.000000 

-0.000000 0.000000 0.000000 
0.000000 -0.000000 0.000000 
0.000000 0.000000 0.000000 

-0.000000 -0.000000 0.000000 
0.000000 -0.000000 0.000000 
0.000000 0.000000 0.000000 

-0.000000 0.000000 0.000000 
0.000000 -0.000000 0.000000 
0.000000 0.000000 0.000000 

-0.000000 -0.000000 0.000000 
0.000000 0.000000 0.000000 
0.000000 0.000000 0.000000 

0.000000 0.000000 0.000000 
0.000000 -0.000000 0.000000 
0.000000 0.000000 0.000000 

-0.000000 -0.000000 0.000000 
0.000000 0.000000 0.000000 
0.000000 0.000000 0.000000 

-0.000000 0.000000 0.000000 
0.000000 0.000000 0.000000 
0.000000 0.000000 0.000000 

0.000000 -0.000000 0.000000 
0.000000 -0.000000 0.000000 
0.000000 0.000000 0.000000 

-0.000000 0.000000 0.000000 
0.000000 0.000000 0.000000 
0.000000 0.000000 0.000000 

-0.000000 -0.000000 0.000000 
0.000000 -0.000000 0.000000 
0.000000 0.000000 0.000000 

-0.000000 -0.000000 0.000000 
0.000000 -0.000000 0.000000 
0.000000 0.000000 0.000000 

-0.000000 -0.000000 0.000000 
0.000000 -0.000000 0.000000 
0.000000 0.000000 0.000000 

0.000000 -0.000000 0.000000 
0.000000 -0.000000 0.000000 
0.000000 0.000000 0.000000 

0.000000 -0.000000 0.000000 
0.000000 -0.000000 0.000000 
0.000000 0.000000 0.000000 

0.000000 0.000000 0.000000 
0.000000 -0.000000 0.000000 
0.000000 0.000000 0.000000 

0.000000 -0.000000 0.000000 
0.000000 -0.000000 0.000000 
0.000000 0.000000 0.000000 

0.000000 -0.000000 0.000000 
0.000000 -0.000000 0.000000 
0.000000 0.000000 0.000000 

-0.000000 0.000000 0.000000 
0.000000 0.000000 0.000000 
0.000000 0.000000 0.000000 

0.000000 -0.000000 0.000000 
0.000000 -0.000000 0.000000 
0.000000 0.000000 0.000000 

-0.000000 0.000000 0.000000 
0.000000 0.000000 0.000000 
0.000000 0.000000 0.000000 

-0.000000 0.000000 0.000000 
0.000000 0.000000 0.000000 
0.000000 0.000000 0.000000 

-0.000000 -0.000000 0.000000 
0.000000 0.000000 0.000000 
0.000000 0.000000 0.000000 

0.000000 -0.000000 0.000000 
0.000000 0.000000 0.000000 
0.000000 0.000000 0.000000 

0.000000 0.000000 0.000000 
0.000000 0.000000 0.000000 
0.000000 0.000000 0.000000 

0.000000 -0.000000 0.000000 
0.000000 0.000000 0.000000 
0.000000 0.000000 0.000000 

0.000000 -0.000000 0.000000 
0.000000 -0.000000 0.000000 
0.000000 0.000000 0.000000 

0.000000 -0.000000 0.000000 
0.000000 0.000000 0.000000 
0.000000 0.000000 0.000000 

-0.000000 0.000000 0.000000 
0.000000 0.000000 0.000000 
0.000000 0.000000 0.000000 

-0.000000 -0.000000 0.000000 
0.000000 -0.000000 0.000000 
0.000000 0.000000 0.000000 

0.000000 0.000000 0.000000 
0.000000 -0.000000 0.000000 
0.000000 0.000000 0.000000 

0.000000 -0.000000 0.000000 
0.000000 0.000000 0.000000 
0.000000 0.000000 0.000000 

0.000000 0.000000 0.000000 
0.000000 0.000000 0.000000 
0.000000 0.000000 0.000000 

0.000000 0.000000 0.000000 
0.000000 -0.000000 0.000000 
0.000000 0.000000 0.000000 

0.000000 -0.000000 0.000000 
0.000000 0.000000 0.000000 
0.000000 0.000000 0.000000 

-0.000000 -0.000000 0.000000 
0.000000 0.000000 0.000000 
0.000000 0.000000 0.000000 

-0.000000 -0.000000 0.000000 
0.000000 0.000000 0.000000 
0.000000 0.000000 0.000000 

-0.000000 0.000000 0.000000 
0.000000 0.000000 0.000000 
0.000000 0.000000 0.000000 

-0.000000 0.000000 0.000000 
0.000000 -0.000000 0.000000 
0.000000 0.000000 0.000000 

-0.000000 -0.000000 0.000000 
0.000000 -0.000000 0.000000 
0.000000 0.000000 0.000000 

0.000000 -0.000000 0.000000 
0.000000 -0.000000 0.000000 
0.000000 0.000000 0.000000 

-0.000000 0.000000 0.000000 
0.000000 0.000000 0.000000 
0.000000 0.000000 0.000000 

-0.000000 0.000000 0.000000 
0.000000 -0.000000 0.000000 
0.000000 0.000000 0.000000 

-0.000000 0.000000 0.000000 
0.000000 0.000000 0.000000 
0.000000 0.000000 0.000000 

-0.000000 -0.000000 0.000000 
0.000000 0.000000 0.000000 
0.000000 0.000000 0.000000 

0.000000 0.000000 0.000000 
0.000000 -0.000000 0.000000 
0.000000 0.000000 0.000000 

0.000000 0.000000 0.000000 
0.000000 -0.000000 0.000000 
0.000000 0.000000 0.000000 

-0.000000 -0.000000 0.000000 
0.000000 0.000000 0.000000 
0.000000 0.000000 0.000000 

-0.000000 -0.000000 0.000000 
0.000000 0.000000 0.000000 
0.000000 0.000000 0.000000 

-0.000000 -0.000000 0.000000 
0.000000 -0.000000 0.000000 
0.000000 0.000000 0.000000 

0.000000 -0.000000 0.000000 
0.000000 0.000000 0.000000 
0.000000 0.000000 0.000000 

0.000000 0.000000 0.000000 
0.000000 -0.000000 0.000000 
0.000000 0.000000 0.000000 

0.000000 0.000000 0.000000 
0.000000 0.000000 0.000000 
0.000000 0.000000 0.000000 

0.000000 0.000000 0.000000 
0.000000 0.000000 0.000000 
0.000000 0.000000 0.000000 

-0.000000 -0.000000 0.000000 
0.000000 0.000000 0.000000 
0.000000 0.000000 0.000000 

-0.000000 0.000000 0.000000 
0.000000 0.000000 0.000000 
0.000000 0.000000 0.000000 

-0.000000 -0.000000 0.000000 
0.000000 0.000000 0.000000 
0.000000 0.000000 0.000000 

0.000000 0.000000 0.000000 
0.000000 -0.000000 0.000000 
0.000000 0.000000 0.000000 

-0.000000 -0.000000 0.000000 
0.000000 -0.000000 0.000000 
0.000000 0.000000 0.000000 

-0.000000 -0.000000 0.000000 
0.000000 0.000000 0.000000 
0.000000 0.000000 0.000000 

-0.000000 0.000000 0.000000 
0.000000 -0.000000 0.000000 
0.000000 0.000000 0.000000 

0.000000 0.000000 0.000000 
0.000000 -0.000000 0.000000 
0.000000 0.000000 0.000000 

0.000000 0.000000 0.000000 
0.000000 -0.000000 0.000000 
0.000000 0.000000 0.000000 

0.000000 -0.000000 0.000000 
0.000000 -0.000000 0.000000 
0.000000 0.000000 0.000000 

0.000000 0.000000 0.000000 
0.000000 0.000000 0.000000 
0.000000 0.000000 0.000000 

-0.000000 0.000000 0.000000 
0.000000 0.000000 0.000000 
0.000000 0.000000 0.000000 

-0.000000 -0.000000 0.000000 
0.000000 0.000000 0.000000 
0.000000 0.000000 0.000000 

-0.000000 0.000000 0.000000 
0.000000 0.000000 0.000000 
0.000000 0.000000 0.000000 

-0.000000 -0.000000 0.000000 
0.000000 0.000000 0.000000 
0.000000 0.000000 0.000000 

0.000000 -0.000000 0.000000 
0.000000 0.000000 0.000000 
0.000000 0.000000 0.000000 

0.000000 0.000000 0.000000 
0.000000 -0.000000 0.000000 
0.000000 0.000000 0.000000 

0.000000 -0.000000 0.000000 
0.000000 0.000000 0.000000 
0.000000 0.000000 0.000000 

-0.000000 0.000000 0.000000 
0.000000 0.000000 0.000000 
0.000000 0.000000 0.000000 

-0.000000 0.000000 0.000000 
0.000000 -0.000000 0.000000 
0.000000 0.000000 0.000000 

-0.000000 -0.000000 0.000000 
0.000000 -0.000000 0.000000 
0.000000 0.000000 0.000000 

-0.000000 0.000000 0.000000 
0.000000 -0.000000 0.000000 
0.000000 0.000000 0.000000 

-0.000000 0.000000 0.000000 
0.000000 -0.000000 0.000000 
0.000000 0.000000 0.000000 

0.000000 -0.000000 0.000000 
0.000000 0.000000 0.000000 
0.000000 0.000000 0.000000 

0.000000 -0.000000 0.000000 
0.000000 0.000000 0.000000 
0.000000 0.000000 0.000000 

