# vtk DataFile Version 3.0 
vtk output 
ASCII 
DATASET UNSTRUCTURED_GRID 
POINTS 175 float 
-0.026061 0.021871 0.000000 
-0.106992 0.089926 0.000000 
-0.054870 0.081694 0.000000 
-0.028809 0.127577 0.000000 
-0.186430 0.154002 0.000000 
-0.137056 0.151476 0.000000 
-0.114311 0.205123 0.000000 
-0.058186 0.189457 0.000000 
-0.029377 0.229635 0.000000 
-0.265318 0.217158 0.000000 
-0.217198 0.216358 0.000000 
-0.196633 0.273655 0.000000 
-0.143120 0.264946 0.000000 
-0.116563 0.312214 0.000000 
-0.058945 0.292569 0.000000 
-0.029568 0.330689 0.000000 
-0.344206 0.280314 0.000000 
-0.296791 0.280321 0.000000 
-0.278030 0.340264 0.000000 
-0.225992 0.334397 0.000000 
-0.201664 0.386514 0.000000 
-0.145749 0.373040 0.000000 
-0.117890 0.417383 0.000000 
-0.059328 0.394677 0.000000 
-0.029759 0.431743 0.000000 
-0.058559 -0.018880 0.000000 
-0.162226 -0.039722 0.000000 
-0.123292 -0.004105 0.000000 
-0.142917 0.044879 0.000000 
-0.261851 -0.061879 0.000000 
-0.229092 -0.024852 0.000000 
-0.256854 0.026380 0.000000 
-0.209613 0.060492 0.000000 
-0.223062 0.108066 0.000000 
-0.360414 -0.084179 0.000000 
-0.329787 -0.047056 0.000000 
-0.361761 0.004746 0.000000 
-0.321587 0.041155 0.000000 
-0.341985 0.091389 0.000000 
-0.290702 0.124188 0.000000 
-0.302189 0.170923 0.000000 
-0.458977 -0.106479 0.000000 
-0.429420 -0.069404 0.000000 
-0.464588 -0.017363 0.000000 
-0.427556 0.019665 0.000000 
-0.453135 0.071180 0.000000 
-0.407738 0.106495 0.000000 
-0.425037 0.155923 0.000000 
-0.370772 0.187552 0.000000 
-0.381315 0.233780 0.000000 
-0.046960 -0.069695 0.000000 
-0.095301 -0.163741 0.000000 
-0.098873 -0.111094 0.000000 
-0.149405 -0.095896 0.000000 
-0.140093 -0.255445 0.000000 
-0.148617 -0.206747 0.000000 
-0.205981 -0.196509 0.000000 
-0.203197 -0.138306 0.000000 
-0.248777 -0.119159 0.000000 
-0.184111 -0.346408 0.000000 
-0.194039 -0.299317 0.000000 
-0.254475 -0.292018 0.000000 
-0.257893 -0.237908 0.000000 
-0.309886 -0.222536 0.000000 
-0.303554 -0.161990 0.000000 
-0.347255 -0.141833 0.000000 
-0.228129 -0.437372 0.000000 
-0.238687 -0.391148 0.000000 
-0.301302 -0.386196 0.000000 
-0.307162 -0.334157 0.000000 
-0.363386 -0.322036 0.000000 
-0.362692 -0.264525 0.000000 
-0.412122 -0.247231 0.000000 
-0.403017 -0.185085 0.000000 
-0.445733 -0.164506 0.000000 
-0.000000 -0.092310 0.000000 
0.043388 -0.188740 0.000000 
-0.000000 -0.158708 0.000000 
-0.043388 -0.188740 0.000000 
0.087158 -0.280937 0.000000 
0.043769 -0.257239 0.000000 
-0.000000 -0.295704 0.000000 
-0.043769 -0.257239 0.000000 
-0.087158 -0.280937 0.000000 
0.130831 -0.372067 0.000000 
0.087824 -0.350468 0.000000 
0.044436 -0.393168 0.000000 
-0.000000 -0.362103 0.000000 
-0.044436 -0.393168 0.000000 
-0.087824 -0.350468 0.000000 
-0.130831 -0.372067 0.000000 
0.174505 -0.463196 0.000000 
0.131782 -0.442630 0.000000 
0.088871 -0.488497 0.000000 
0.044532 -0.460633 0.000000 
-0.000000 -0.497033 0.000000 
-0.044532 -0.460633 0.000000 
-0.088871 -0.488497 0.000000 
-0.131782 -0.442630 0.000000 
-0.174505 -0.463196 0.000000 
0.046960 -0.069695 0.000000 
0.149405 -0.095896 0.000000 
0.098873 -0.111094 0.000000 
0.095301 -0.163741 0.000000 
0.248777 -0.119159 0.000000 
0.203197 -0.138306 0.000000 
0.205981 -0.196509 0.000000 
0.148617 -0.206747 0.000000 
0.140093 -0.255445 0.000000 
0.347255 -0.141833 0.000000 
0.303554 -0.161990 0.000000 
0.309886 -0.222536 0.000000 
0.257893 -0.237908 0.000000 
0.254475 -0.292018 0.000000 
0.194039 -0.299317 0.000000 
0.184111 -0.346408 0.000000 
0.445733 -0.164506 0.000000 
0.403017 -0.185085 0.000000 
0.412122 -0.247231 0.000000 
0.362692 -0.264525 0.000000 
0.363386 -0.322036 0.000000 
0.307162 -0.334157 0.000000 
0.301302 -0.386196 0.000000 
0.238687 -0.391148 0.000000 
0.228129 -0.437372 0.000000 
0.058559 -0.018880 0.000000 
0.142917 0.044879 0.000000 
0.123292 -0.004105 0.000000 
0.162226 -0.039722 0.000000 
0.223062 0.108066 0.000000 
0.209613 0.060492 0.000000 
0.256854 0.026380 0.000000 
0.229092 -0.024852 0.000000 
0.261851 -0.061879 0.000000 
0.302189 0.170923 0.000000 
0.290702 0.124188 0.000000 
0.341985 0.091389 0.000000 
0.321587 0.041155 0.000000 
0.361761 0.004746 0.000000 
0.329787 -0.047056 0.000000 
0.360414 -0.084179 0.000000 
0.381315 0.233780 0.000000 
0.370772 0.187552 0.000000 
0.425037 0.155923 0.000000 
0.407738 0.106495 0.000000 
0.453135 0.071180 0.000000 
0.427556 0.019665 0.000000 
0.464588 -0.017363 0.000000 
0.429420 -0.069404 0.000000 
0.458977 -0.106479 0.000000 
0.026061 0.021871 0.000000 
0.028809 0.127577 0.000000 
0.054870 0.081694 0.000000 
0.106992 0.089926 0.000000 
0.029377 0.229635 0.000000 
0.058186 0.189457 0.000000 
0.114311 0.205123 0.000000 
0.137056 0.151476 0.000000 
0.186430 0.154002 0.000000 
0.029568 0.330689 0.000000 
0.058945 0.292569 0.000000 
0.116563 0.312214 0.000000 
0.143120 0.264946 0.000000 
0.196633 0.273655 0.000000 
0.217198 0.216358 0.000000 
0.265318 0.217158 0.000000 
0.029759 0.431743 0.000000 
0.059328 0.394677 0.000000 
0.117890 0.417383 0.000000 
0.145749 0.373040 0.000000 
0.201664 0.386514 0.000000 
0.225992 0.334397 0.000000 
0.278030 0.340264 0.000000 
0.296791 0.280321 0.000000 
0.344206 0.280314 0.000000 
CELLS 175 350 
1 0 
1 1 
1 2 
1 3 
1 4 
1 5 
1 6 
1 7 
1 8 
1 9 
1 10 
1 11 
1 12 
1 13 
1 14 
1 15 
1 16 
1 17 
1 18 
1 19 
1 20 
1 21 
1 22 
1 23 
1 24 
1 25 
1 26 
1 27 
1 28 
1 29 
1 30 
1 31 
1 32 
1 33 
1 34 
1 35 
1 36 
1 37 
1 38 
1 39 
1 40 
1 41 
1 42 
1 43 
1 44 
1 45 
1 46 
1 47 
1 48 
1 49 
1 50 
1 51 
1 52 
1 53 
1 54 
1 55 
1 56 
1 57 
1 58 
1 59 
1 60 
1 61 
1 62 
1 63 
1 64 
1 65 
1 66 
1 67 
1 68 
1 69 
1 70 
1 71 
1 72 
1 73 
1 74 
1 75 
1 76 
1 77 
1 78 
1 79 
1 80 
1 81 
1 82 
1 83 
1 84 
1 85 
1 86 
1 87 
1 88 
1 89 
1 90 
1 91 
1 92 
1 93 
1 94 
1 95 
1 96 
1 97 
1 98 
1 99 
1 100 
1 101 
1 102 
1 103 
1 104 
1 105 
1 106 
1 107 
1 108 
1 109 
1 110 
1 111 
1 112 
1 113 
1 114 
1 115 
1 116 
1 117 
1 118 
1 119 
1 120 
1 121 
1 122 
1 123 
1 124 
1 125 
1 126 
1 127 
1 128 
1 129 
1 130 
1 131 
1 132 
1 133 
1 134 
1 135 
1 136 
1 137 
1 138 
1 139 
1 140 
1 141 
1 142 
1 143 
1 144 
1 145 
1 146 
1 147 
1 148 
1 149 
1 150 
1 151 
1 152 
1 153 
1 154 
1 155 
1 156 
1 157 
1 158 
1 159 
1 160 
1 161 
1 162 
1 163 
1 164 
1 165 
1 166 
1 167 
1 168 
1 169 
1 170 
1 171 
1 172 
1 173 
1 174 
CELL_TYPES 175 
1 
1 
1 
1 
1 
1 
1 
1 
1 
1 
1 
1 
1 
1 
1 
1 
1 
1 
1 
1 
1 
1 
1 
1 
1 
1 
1 
1 
1 
1 
1 
1 
1 
1 
1 
1 
1 
1 
1 
1 
1 
1 
1 
1 
1 
1 
1 
1 
1 
1 
1 
1 
1 
1 
1 
1 
1 
1 
1 
1 
1 
1 
1 
1 
1 
1 
1 
1 
1 
1 
1 
1 
1 
1 
1 
1 
1 
1 
1 
1 
1 
1 
1 
1 
1 
1 
1 
1 
1 
1 
1 
1 
1 
1 
1 
1 
1 
1 
1 
1 
1 
1 
1 
1 
1 
1 
1 
1 
1 
1 
1 
1 
1 
1 
1 
1 
1 
1 
1 
1 
1 
1 
1 
1 
1 
1 
1 
1 
1 
1 
1 
1 
1 
1 
1 
1 
1 
1 
1 
1 
1 
1 
1 
1 
1 
1 
1 
1 
1 
1 
1 
1 
1 
1 
1 
1 
1 
1 
1 
1 
1 
1 
1 
1 
1 
1 
1 
1 
1 
1 
1 
1 
1 
1 
1 
POINT_DATA 175 
VECTORS X_GC float 
-0.026061 0.021871 0.000000 
-0.106992 0.089926 0.000000 
-0.054870 0.081694 0.000000 
-0.028809 0.127577 0.000000 
-0.186430 0.154002 0.000000 
-0.137056 0.151476 0.000000 
-0.114311 0.205123 0.000000 
-0.058186 0.189457 0.000000 
-0.029377 0.229635 0.000000 
-0.265318 0.217158 0.000000 
-0.217198 0.216358 0.000000 
-0.196633 0.273655 0.000000 
-0.143120 0.264946 0.000000 
-0.116563 0.312214 0.000000 
-0.058945 0.292569 0.000000 
-0.029568 0.330689 0.000000 
-0.344206 0.280314 0.000000 
-0.296791 0.280321 0.000000 
-0.278030 0.340264 0.000000 
-0.225992 0.334397 0.000000 
-0.201664 0.386514 0.000000 
-0.145749 0.373040 0.000000 
-0.117890 0.417383 0.000000 
-0.059328 0.394677 0.000000 
-0.029759 0.431743 0.000000 
-0.058559 -0.018880 0.000000 
-0.162226 -0.039722 0.000000 
-0.123292 -0.004105 0.000000 
-0.142917 0.044879 0.000000 
-0.261851 -0.061879 0.000000 
-0.229092 -0.024852 0.000000 
-0.256854 0.026380 0.000000 
-0.209613 0.060492 0.000000 
-0.223062 0.108066 0.000000 
-0.360414 -0.084179 0.000000 
-0.329787 -0.047056 0.000000 
-0.361761 0.004746 0.000000 
-0.321587 0.041155 0.000000 
-0.341985 0.091389 0.000000 
-0.290702 0.124188 0.000000 
-0.302189 0.170923 0.000000 
-0.458977 -0.106479 0.000000 
-0.429420 -0.069404 0.000000 
-0.464588 -0.017363 0.000000 
-0.427556 0.019665 0.000000 
-0.453135 0.071180 0.000000 
-0.407738 0.106495 0.000000 
-0.425037 0.155923 0.000000 
-0.370772 0.187552 0.000000 
-0.381315 0.233780 0.000000 
-0.046960 -0.069695 0.000000 
-0.095301 -0.163741 0.000000 
-0.098873 -0.111094 0.000000 
-0.149405 -0.095896 0.000000 
-0.140093 -0.255445 0.000000 
-0.148617 -0.206747 0.000000 
-0.205981 -0.196509 0.000000 
-0.203197 -0.138306 0.000000 
-0.248777 -0.119159 0.000000 
-0.184111 -0.346408 0.000000 
-0.194039 -0.299317 0.000000 
-0.254475 -0.292018 0.000000 
-0.257893 -0.237908 0.000000 
-0.309886 -0.222536 0.000000 
-0.303554 -0.161990 0.000000 
-0.347255 -0.141833 0.000000 
-0.228129 -0.437372 0.000000 
-0.238687 -0.391148 0.000000 
-0.301302 -0.386196 0.000000 
-0.307162 -0.334157 0.000000 
-0.363386 -0.322036 0.000000 
-0.362692 -0.264525 0.000000 
-0.412122 -0.247231 0.000000 
-0.403017 -0.185085 0.000000 
-0.445733 -0.164506 0.000000 
-0.000000 -0.092310 0.000000 
0.043388 -0.188740 0.000000 
-0.000000 -0.158708 0.000000 
-0.043388 -0.188740 0.000000 
0.087158 -0.280937 0.000000 
0.043769 -0.257239 0.000000 
-0.000000 -0.295704 0.000000 
-0.043769 -0.257239 0.000000 
-0.087158 -0.280937 0.000000 
0.130831 -0.372067 0.000000 
0.087824 -0.350468 0.000000 
0.044436 -0.393168 0.000000 
-0.000000 -0.362103 0.000000 
-0.044436 -0.393168 0.000000 
-0.087824 -0.350468 0.000000 
-0.130831 -0.372067 0.000000 
0.174505 -0.463196 0.000000 
0.131782 -0.442630 0.000000 
0.088871 -0.488497 0.000000 
0.044532 -0.460633 0.000000 
-0.000000 -0.497033 0.000000 
-0.044532 -0.460633 0.000000 
-0.088871 -0.488497 0.000000 
-0.131782 -0.442630 0.000000 
-0.174505 -0.463196 0.000000 
0.046960 -0.069695 0.000000 
0.149405 -0.095896 0.000000 
0.098873 -0.111094 0.000000 
0.095301 -0.163741 0.000000 
0.248777 -0.119159 0.000000 
0.203197 -0.138306 0.000000 
0.205981 -0.196509 0.000000 
0.148617 -0.206747 0.000000 
0.140093 -0.255445 0.000000 
0.347255 -0.141833 0.000000 
0.303554 -0.161990 0.000000 
0.309886 -0.222536 0.000000 
0.257893 -0.237908 0.000000 
0.254475 -0.292018 0.000000 
0.194039 -0.299317 0.000000 
0.184111 -0.346408 0.000000 
0.445733 -0.164506 0.000000 
0.403017 -0.185085 0.000000 
0.412122 -0.247231 0.000000 
0.362692 -0.264525 0.000000 
0.363386 -0.322036 0.000000 
0.307162 -0.334157 0.000000 
0.301302 -0.386196 0.000000 
0.238687 -0.391148 0.000000 
0.228129 -0.437372 0.000000 
0.058559 -0.018880 0.000000 
0.142917 0.044879 0.000000 
0.123292 -0.004105 0.000000 
0.162226 -0.039722 0.000000 
0.223062 0.108066 0.000000 
0.209613 0.060492 0.000000 
0.256854 0.026380 0.000000 
0.229092 -0.024852 0.000000 
0.261851 -0.061879 0.000000 
0.302189 0.170923 0.000000 
0.290702 0.124188 0.000000 
0.341985 0.091389 0.000000 
0.321587 0.041155 0.000000 
0.361761 0.004746 0.000000 
0.329787 -0.047056 0.000000 
0.360414 -0.084179 0.000000 
0.381315 0.233780 0.000000 
0.370772 0.187552 0.000000 
0.425037 0.155923 0.000000 
0.407738 0.106495 0.000000 
0.453135 0.071180 0.000000 
0.427556 0.019665 0.000000 
0.464588 -0.017363 0.000000 
0.429420 -0.069404 0.000000 
0.458977 -0.106479 0.000000 
0.026061 0.021871 0.000000 
0.028809 0.127577 0.000000 
0.054870 0.081694 0.000000 
0.106992 0.089926 0.000000 
0.029377 0.229635 0.000000 
0.058186 0.189457 0.000000 
0.114311 0.205123 0.000000 
0.137056 0.151476 0.000000 
0.186430 0.154002 0.000000 
0.029568 0.330689 0.000000 
0.058945 0.292569 0.000000 
0.116563 0.312214 0.000000 
0.143120 0.264946 0.000000 
0.196633 0.273655 0.000000 
0.217198 0.216358 0.000000 
0.265318 0.217158 0.000000 
0.029759 0.431743 0.000000 
0.059328 0.394677 0.000000 
0.117890 0.417383 0.000000 
0.145749 0.373040 0.000000 
0.201664 0.386514 0.000000 
0.225992 0.334397 0.000000 
0.278030 0.340264 0.000000 
0.296791 0.280321 0.000000 
0.344206 0.280314 0.000000 
VECTORS X_EC float 
0.338794 0.204741 0.000000 
-0.609100 -0.714007 0.000000 
0.713312 -0.602867 0.000000 
0.374519 0.777704 0.000000 
0.423588 0.420973 0.000000 
-0.218274 0.455077 0.000000 
-0.513962 -0.269162 0.000000 
0.756418 -0.057676 0.000000 
0.381900 -0.600068 0.000000 
-0.550868 -0.431630 0.000000 
0.823577 -0.420834 0.000000 
0.556234 0.805662 0.000000 
-0.139443 0.923230 0.000000 
-0.484677 0.285106 0.000000 
0.766286 0.550321 0.000000 
0.384386 0.035701 0.000000 
0.474677 0.715767 0.000000 
-0.141715 0.715671 0.000000 
-0.385608 -0.093558 0.000000 
0.937896 -0.014362 0.000000 
0.621631 -0.717942 0.000000 
-0.105264 -0.536043 0.000000 
-0.467428 0.865331 0.000000 
0.771260 -0.828141 0.000000 
0.386873 0.671470 0.000000 
0.761262 0.754876 0.000000 
0.108942 -0.963748 0.000000 
-0.397202 0.555413 0.000000 
-0.142083 -0.105862 0.000000 
-0.595936 -0.664637 0.000000 
0.978194 0.835497 0.000000 
-0.660903 0.143872 0.000000 
0.724964 -0.316648 0.000000 
0.899809 -0.958897 0.000000 
0.685384 -0.363585 0.000000 
0.287229 -0.864743 0.000000 
0.702895 0.435928 0.000000 
0.180633 -0.055591 0.000000 
0.445811 -0.733750 0.000000 
-0.220880 0.823464 0.000000 
-0.071546 0.192538 0.000000 
-0.033296 -0.062533 0.000000 
-0.417537 -0.563042 0.000000 
0.039645 0.734395 0.000000 
-0.441768 0.234524 0.000000 
-0.109248 -0.460927 0.000000 
-0.699407 -0.937682 0.000000 
-0.474522 0.395038 0.000000 
0.820030 -0.031955 0.000000 
0.957100 -0.656027 0.000000 
0.610485 -0.559118 0.000000 
-0.761092 0.710501 0.000000 
-0.714655 -0.000236 0.000000 
-0.057734 -0.205403 0.000000 
-0.178789 -0.051494 0.000000 
-0.067979 -0.708921 0.000000 
0.677748 -0.847124 0.000000 
0.641556 0.367131 0.000000 
-0.765897 0.108652 0.000000 
0.393446 -0.823485 0.000000 
0.522510 0.540785 0.000000 
-0.691820 0.442240 0.000000 
-0.647393 -0.288242 0.000000 
0.028512 -0.495769 0.000000 
-0.053800 0.686871 0.000000 
0.514316 0.414740 0.000000 
0.965681 0.404524 0.000000 
-0.897068 -0.219505 0.000000 
-0.083078 -0.286358 0.000000 
-0.006893 -0.988883 0.000000 
0.724017 0.847484 0.000000 
0.714996 0.071081 0.000000 
-0.642413 -0.162377 0.000000 
-0.760780 0.998643 0.000000 
-0.205471 0.720828 0.000000 
0.000000 -0.253817 0.000000 
-0.564049 -0.952004 0.000000 
0.000000 0.642560 0.000000 
0.564049 -0.952004 0.000000 
0.866949 0.292652 0.000000 
-0.569003 -0.027279 0.000000 
0.000000 0.492009 0.000000 
0.569003 -0.027279 0.000000 
-0.866949 0.292652 0.000000 
0.299194 -0.477098 0.000000 
0.858290 -0.768682 0.000000 
-0.577662 -0.192236 0.000000 
0.000000 -0.611614 0.000000 
0.577662 -0.192236 0.000000 
-0.858290 -0.768682 0.000000 
-0.299194 -0.477098 0.000000 
-0.268560 0.753152 0.000000 
0.286830 0.475510 0.000000 
0.844677 -0.905292 0.000000 
-0.578910 0.718546 0.000000 
0.000000 -0.790050 0.000000 
0.578910 0.718546 0.000000 
-0.844677 -0.905292 0.000000 
-0.286830 0.475510 0.000000 
0.268560 0.753152 0.000000 
-0.610485 -0.559118 0.000000 
0.057734 -0.205403 0.000000 
0.714655 -0.000236 0.000000 
0.761092 0.710501 0.000000 
0.765897 0.108652 0.000000 
-0.641556 0.367131 0.000000 
-0.677748 -0.847124 0.000000 
0.067979 -0.708921 0.000000 
0.178789 -0.051494 0.000000 
-0.514316 0.414740 0.000000 
0.053800 0.686871 0.000000 
-0.028512 -0.495769 0.000000 
0.647393 -0.288242 0.000000 
0.691820 0.442240 0.000000 
-0.522510 0.540785 0.000000 
-0.393446 -0.823485 0.000000 
0.205471 0.720828 0.000000 
0.760780 0.998643 0.000000 
0.642413 -0.162377 0.000000 
-0.714996 0.071081 0.000000 
-0.724017 0.847484 0.000000 
0.006894 -0.988883 0.000000 
0.083078 -0.286358 0.000000 
0.897068 -0.219505 0.000000 
-0.965681 0.404524 0.000000 
-0.761262 0.754876 0.000000 
0.142083 -0.105862 0.000000 
0.397202 0.555413 0.000000 
-0.108942 -0.963748 0.000000 
-0.899809 -0.958897 0.000000 
-0.724964 -0.316648 0.000000 
0.660903 0.143872 0.000000 
-0.978194 0.835497 0.000000 
0.595936 -0.664637 0.000000 
0.071546 0.192538 0.000000 
0.220880 0.823464 0.000000 
-0.445811 -0.733750 0.000000 
-0.180633 -0.055591 0.000000 
-0.702895 0.435928 0.000000 
-0.287229 -0.864743 0.000000 
-0.685384 -0.363585 0.000000 
-0.957100 -0.656027 0.000000 
-0.820030 -0.031955 0.000000 
0.474522 0.395038 0.000000 
0.699407 -0.937682 0.000000 
0.109248 -0.460927 0.000000 
0.441768 0.234524 0.000000 
-0.039645 0.734395 0.000000 
0.417537 -0.563042 0.000000 
0.033296 -0.062533 0.000000 
-0.338794 0.204741 0.000000 
-0.374519 0.777704 0.000000 
-0.713312 -0.602867 0.000000 
0.609100 -0.714007 0.000000 
-0.381900 -0.600068 0.000000 
-0.756418 -0.057676 0.000000 
0.513962 -0.269162 0.000000 
0.218274 0.455077 0.000000 
-0.423588 0.420973 0.000000 
-0.384386 0.035701 0.000000 
-0.766286 0.550321 0.000000 
0.484677 0.285106 0.000000 
0.139443 0.923230 0.000000 
-0.556234 0.805662 0.000000 
-0.823577 -0.420834 0.000000 
0.550868 -0.431630 0.000000 
-0.386873 0.671470 0.000000 
-0.771260 -0.828141 0.000000 
0.467428 0.865331 0.000000 
0.105264 -0.536043 0.000000 
-0.621631 -0.717942 0.000000 
-0.937896 -0.014362 0.000000 
0.385608 -0.093558 0.000000 
0.141715 0.715671 0.000000 
-0.474677 0.715767 0.000000 
CELL_DATA 175 
SCALARS MASS float 
LOOKUP_TABLE default 
0.078183 
0.086427 
0.094672 
0.086427 
0.088131 
0.092111 
0.085854 
0.092111 
0.088131 
0.088705 
0.091000 
0.086983 
0.091556 
0.086983 
0.091000 
0.088705 
0.089278 
0.091574 
0.089278 
0.092722 
0.089278 
0.092722 
0.089278 
0.091574 
0.089278 
0.078183 
0.086427 
0.094672 
0.086427 
0.088131 
0.092111 
0.085854 
0.092111 
0.088131 
0.088705 
0.091000 
0.086983 
0.091556 
0.086983 
0.091000 
0.088705 
0.089278 
0.091574 
0.089278 
0.092722 
0.089278 
0.092722 
0.089278 
0.091574 
0.089278 
0.078183 
0.086427 
0.094672 
0.086427 
0.088131 
0.092111 
0.085854 
0.092111 
0.088131 
0.088705 
0.091000 
0.086983 
0.091556 
0.086983 
0.091000 
0.088705 
0.089278 
0.091574 
0.089278 
0.092722 
0.089278 
0.092722 
0.089278 
0.091574 
0.089278 
0.078183 
0.086427 
0.094672 
0.086427 
0.088131 
0.092111 
0.085854 
0.092111 
0.088131 
0.088705 
0.091000 
0.086983 
0.091556 
0.086983 
0.091000 
0.088705 
0.089278 
0.091574 
0.089278 
0.092722 
0.089278 
0.092722 
0.089278 
0.091574 
0.089278 
0.078183 
0.086427 
0.094672 
0.086427 
0.088131 
0.092111 
0.085854 
0.092111 
0.088131 
0.088705 
0.091000 
0.086983 
0.091556 
0.086983 
0.091000 
0.088705 
0.089278 
0.091574 
0.089278 
0.092722 
0.089278 
0.092722 
0.089278 
0.091574 
0.089278 
0.078183 
0.086427 
0.094672 
0.086427 
0.088131 
0.092111 
0.085854 
0.092111 
0.088131 
0.088705 
0.091000 
0.086983 
0.091556 
0.086983 
0.091000 
0.088705 
0.089278 
0.091574 
0.089278 
0.092722 
0.089278 
0.092722 
0.089278 
0.091574 
0.089278 
0.078183 
0.086427 
0.094672 
0.086427 
0.088131 
0.092111 
0.085854 
0.092111 
0.088131 
0.088705 
0.091000 
0.086983 
0.091556 
0.086983 
0.091000 
0.088705 
0.089278 
0.091574 
0.089278 
0.092722 
0.089278 
0.092722 
0.089278 
0.091574 
0.089278 
SCALARS MASS float 
LOOKUP_TABLE default 
0.078183 
0.086427 
0.094672 
0.086427 
0.088131 
0.092111 
0.085854 
0.092111 
0.088131 
0.088705 
0.091000 
0.086983 
0.091556 
0.086983 
0.091000 
0.088705 
0.089278 
0.091574 
0.089278 
0.092722 
0.089278 
0.092722 
0.089278 
0.091574 
0.089278 
0.078183 
0.086427 
0.094672 
0.086427 
0.088131 
0.092111 
0.085854 
0.092111 
0.088131 
0.088705 
0.091000 
0.086983 
0.091556 
0.086983 
0.091000 
0.088705 
0.089278 
0.091574 
0.089278 
0.092722 
0.089278 
0.092722 
0.089278 
0.091574 
0.089278 
0.078183 
0.086427 
0.094672 
0.086427 
0.088131 
0.092111 
0.085854 
0.092111 
0.088131 
0.088705 
0.091000 
0.086983 
0.091556 
0.086983 
0.091000 
0.088705 
0.089278 
0.091574 
0.089278 
0.092722 
0.089278 
0.092722 
0.089278 
0.091574 
0.089278 
0.078183 
0.086427 
0.094672 
0.086427 
0.088131 
0.092111 
0.085854 
0.092111 
0.088131 
0.088705 
0.091000 
0.086983 
0.091556 
0.086983 
0.091000 
0.088705 
0.089278 
0.091574 
0.089278 
0.092722 
0.089278 
0.092722 
0.089278 
0.091574 
0.089278 
0.078183 
0.086427 
0.094672 
0.086427 
0.088131 
0.092111 
0.085854 
0.092111 
0.088131 
0.088705 
0.091000 
0.086983 
0.091556 
0.086983 
0.091000 
0.088705 
0.089278 
0.091574 
0.089278 
0.092722 
0.089278 
0.092722 
0.089278 
0.091574 
0.089278 
0.078183 
0.086427 
0.094672 
0.086427 
0.088131 
0.092111 
0.085854 
0.092111 
0.088131 
0.088705 
0.091000 
0.086983 
0.091556 
0.086983 
0.091000 
0.088705 
0.089278 
0.091574 
0.089278 
0.092722 
0.089278 
0.092722 
0.089278 
0.091574 
0.089278 
0.078183 
0.086427 
0.094672 
0.086427 
0.088131 
0.092111 
0.085854 
0.092111 
0.088131 
0.088705 
0.091000 
0.086983 
0.091556 
0.086983 
0.091000 
0.088705 
0.089278 
0.091574 
0.089278 
0.092722 
0.089278 
0.092722 
0.089278 
0.091574 
0.089278 
SCALARS DENSITY float 
LOOKUP_TABLE default 
20.000000 
20.000000 
20.000000 
20.000000 
20.000000 
20.000000 
20.000000 
20.000000 
20.000000 
20.000000 
20.000000 
20.000000 
20.000000 
20.000000 
20.000000 
20.000000 
20.000000 
20.000000 
20.000000 
20.000000 
20.000000 
20.000000 
20.000000 
20.000000 
20.000000 
20.000000 
20.000000 
20.000000 
20.000000 
20.000000 
20.000000 
20.000000 
20.000000 
20.000000 
20.000000 
20.000000 
20.000000 
20.000000 
20.000000 
20.000000 
20.000000 
20.000000 
20.000000 
20.000000 
20.000000 
20.000000 
20.000000 
20.000000 
20.000000 
20.000000 
20.000000 
20.000000 
20.000000 
20.000000 
20.000000 
20.000000 
20.000000 
20.000000 
20.000000 
20.000000 
20.000000 
20.000000 
20.000000 
20.000000 
20.000000 
20.000000 
20.000000 
20.000000 
20.000000 
20.000000 
20.000000 
20.000000 
20.000000 
20.000000 
20.000000 
20.000000 
20.000000 
20.000000 
20.000000 
20.000000 
20.000000 
20.000000 
20.000000 
20.000000 
20.000000 
20.000000 
20.000000 
20.000000 
20.000000 
20.000000 
20.000000 
20.000000 
20.000000 
20.000000 
20.000000 
20.000000 
20.000000 
20.000000 
20.000000 
20.000000 
20.000000 
20.000000 
20.000000 
20.000000 
20.000000 
20.000000 
20.000000 
20.000000 
20.000000 
20.000000 
20.000000 
20.000000 
20.000000 
20.000000 
20.000000 
20.000000 
20.000000 
20.000000 
20.000000 
20.000000 
20.000000 
20.000000 
20.000000 
20.000000 
20.000000 
20.000000 
20.000000 
20.000000 
20.000000 
20.000000 
20.000000 
20.000000 
20.000000 
20.000000 
20.000000 
20.000000 
20.000000 
20.000000 
20.000000 
20.000000 
20.000000 
20.000000 
20.000000 
20.000000 
20.000000 
20.000000 
20.000000 
20.000000 
20.000000 
20.000000 
20.000000 
20.000000 
20.000000 
20.000000 
20.000000 
20.000000 
20.000000 
20.000000 
20.000000 
20.000000 
20.000000 
20.000000 
20.000000 
20.000000 
20.000000 
20.000000 
20.000000 
20.000000 
20.000000 
20.000000 
20.000000 
20.000000 
20.000000 
20.000000 
20.000000 
SCALARS ELEM_i float 
LOOKUP_TABLE default 
182 
209 
182 
183 
210 
210 
210 
183 
183 
237 
210 
211 
211 
211 
184 
184 
238 
238 
238 
211 
211 
211 
212 
184 
185 
182 
208 
209 
209 
235 
209 
236 
209 
209 
235 
235 
236 
236 
236 
237 
237 
262 
262 
263 
263 
263 
263 
264 
237 
237 
181 
208 
208 
208 
207 
207 
207 
208 
235 
206 
207 
234 
234 
234 
235 
235 
206 
233 
233 
233 
234 
234 
261 
262 
262 
181 
180 
181 
180 
153 
180 
180 
180 
207 
152 
152 
179 
179 
179 
206 
206 
152 
152 
151 
179 
178 
179 
205 
206 
206 
181 
154 
154 
154 
127 
154 
153 
153 
153 
127 
127 
126 
126 
126 
153 
152 
100 
100 
99 
126 
126 
125 
125 
125 
152 
182 
155 
155 
154 
155 
155 
128 
155 
127 
129 
129 
128 
128 
128 
127 
127 
129 
129 
102 
101 
101 
101 
101 
100 
100 
182 
183 
182 
155 
183 
183 
156 
156 
156 
184 
184 
157 
157 
157 
156 
129 
185 
184 
158 
157 
157 
157 
130 
130 
130 
VECTORS VELOCITY float 
-0.000000 -0.795002 0.000000 
0.000000 -0.795002 0.000000 
0.000000 -0.795002 0.000000 
0.000000 -0.795002 0.000000 
0.000000 -0.795002 0.000000 
0.000000 -0.795002 0.000000 
0.000000 -0.795002 0.000000 
0.000000 -0.795002 0.000000 
0.000000 -0.795002 0.000000 
-0.000000 -0.795002 0.000000 
-0.000000 -0.795002 0.000000 
-0.000000 -0.795002 0.000000 
-0.000000 -0.795002 0.000000 
0.000000 -0.795002 0.000000 
0.000000 -0.795002 0.000000 
0.000000 -0.795002 0.000000 
0.000000 -0.795002 0.000000 
0.000000 -0.795002 0.000000 
0.000000 -0.795002 0.000000 
-0.000000 -0.795002 0.000000 
-0.000000 -0.795002 0.000000 
-0.000000 -0.795002 0.000000 
-0.000000 -0.795002 0.000000 
0.000000 -0.795002 0.000000 
-0.000000 -0.795002 0.000000 
-0.000000 -0.795002 0.000000 
-0.000000 -0.795002 0.000000 
-0.000000 -0.795002 0.000000 
0.000000 -0.795002 0.000000 
0.000000 -0.795002 0.000000 
0.000000 -0.795002 0.000000 
0.000000 -0.795002 0.000000 
-0.000000 -0.795002 0.000000 
-0.000000 -0.795002 0.000000 
0.000000 -0.795002 0.000000 
0.000000 -0.795002 0.000000 
0.000000 -0.795002 0.000000 
0.000000 -0.795002 0.000000 
0.000000 -0.795002 0.000000 
0.000000 -0.795002 0.000000 
0.000000 -0.795002 0.000000 
0.000000 -0.795002 0.000000 
0.000000 -0.795002 0.000000 
0.000000 -0.795002 0.000000 
0.000000 -0.795002 0.000000 
-0.000000 -0.795002 0.000000 
0.000000 -0.795002 0.000000 
-0.000000 -0.795002 0.000000 
0.000000 -0.795002 0.000000 
-0.000000 -0.795002 0.000000 
-0.000000 -0.795002 0.000000 
0.000000 -0.795002 0.000000 
-0.000000 -0.795002 0.000000 
-0.000000 -0.795002 0.000000 
0.000000 -0.795002 0.000000 
0.000000 -0.795002 0.000000 
0.000000 -0.795002 0.000000 
0.000000 -0.795002 0.000000 
0.000000 -0.795002 0.000000 
0.000000 -0.795002 0.000000 
0.000000 -0.795002 0.000000 
0.000000 -0.795002 0.000000 
0.000000 -0.795002 0.000000 
-0.000000 -0.795002 0.000000 
-0.000000 -0.795002 0.000000 
-0.000000 -0.795002 0.000000 
0.000000 -0.795002 0.000000 
0.000000 -0.795002 0.000000 
-0.000000 -0.795002 0.000000 
0.000000 -0.795002 0.000000 
0.000000 -0.795002 0.000000 
-0.000000 -0.795002 0.000000 
-0.000000 -0.795002 0.000000 
-0.000000 -0.795002 0.000000 
-0.000000 -0.795002 0.000000 
-0.000000 -0.795002 0.000000 
-0.000000 -0.795002 0.000000 
-0.000000 -0.795002 0.000000 
-0.000000 -0.795002 0.000000 
-0.000000 -0.795002 0.000000 
-0.000000 -0.795002 0.000000 
0.000000 -0.795002 0.000000 
0.000000 -0.795002 0.000000 
0.000000 -0.795002 0.000000 
0.000000 -0.795002 0.000000 
0.000000 -0.795002 0.000000 
0.000000 -0.795002 0.000000 
0.000000 -0.795002 0.000000 
0.000000 -0.795002 0.000000 
0.000000 -0.795002 0.000000 
0.000000 -0.795002 0.000000 
-0.000000 -0.795002 0.000000 
0.000000 -0.795002 0.000000 
-0.000000 -0.795002 0.000000 
0.000000 -0.795002 0.000000 
0.000000 -0.795002 0.000000 
-0.000000 -0.795002 0.000000 
0.000000 -0.795002 0.000000 
-0.000000 -0.795002 0.000000 
0.000000 -0.795002 0.000000 
-0.000000 -0.795002 0.000000 
-0.000000 -0.795002 0.000000 
-0.000000 -0.795002 0.000000 
-0.000000 -0.795002 0.000000 
0.000000 -0.795002 0.000000 
0.000000 -0.795002 0.000000 
0.000000 -0.795002 0.000000 
-0.000000 -0.795002 0.000000 
-0.000000 -0.795002 0.000000 
-0.000000 -0.795002 0.000000 
0.000000 -0.795002 0.000000 
-0.000000 -0.795002 0.000000 
0.000000 -0.795002 0.000000 
0.000000 -0.795002 0.000000 
0.000000 -0.795002 0.000000 
0.000000 -0.795002 0.000000 
0.000000 -0.795002 0.000000 
-0.000000 -0.795002 0.000000 
0.000000 -0.795002 0.000000 
-0.000000 -0.795002 0.000000 
-0.000000 -0.795002 0.000000 
0.000000 -0.795002 0.000000 
-0.000000 -0.795002 0.000000 
-0.000000 -0.795002 0.000000 
-0.000000 -0.795002 0.000000 
-0.000000 -0.795002 0.000000 
-0.000000 -0.795002 0.000000 
-0.000000 -0.795002 0.000000 
0.000000 -0.795002 0.000000 
0.000000 -0.795002 0.000000 
0.000000 -0.795002 0.000000 
0.000000 -0.795002 0.000000 
0.000000 -0.795002 0.000000 
0.000000 -0.795002 0.000000 
-0.000000 -0.795002 0.000000 
-0.000000 -0.795002 0.000000 
-0.000000 -0.795002 0.000000 
-0.000000 -0.795002 0.000000 
0.000000 -0.795002 0.000000 
0.000000 -0.795002 0.000000 
0.000000 -0.795002 0.000000 
-0.000000 -0.795002 0.000000 
-0.000000 -0.795002 0.000000 
0.000000 -0.795002 0.000000 
-0.000000 -0.795002 0.000000 
-0.000000 -0.795002 0.000000 
-0.000000 -0.795002 0.000000 
-0.000000 -0.795002 0.000000 
-0.000000 -0.795002 0.000000 
-0.000000 -0.795002 0.000000 
-0.000000 -0.795002 0.000000 
-0.000000 -0.795002 0.000000 
-0.000000 -0.795002 0.000000 
-0.000000 -0.795002 0.000000 
0.000000 -0.795002 0.000000 
-0.000000 -0.795002 0.000000 
0.000000 -0.795002 0.000000 
-0.000000 -0.795002 0.000000 
0.000000 -0.795002 0.000000 
0.000000 -0.795002 0.000000 
0.000000 -0.795002 0.000000 
0.000000 -0.795002 0.000000 
0.000000 -0.795002 0.000000 
0.000000 -0.795002 0.000000 
0.000000 -0.795002 0.000000 
0.000000 -0.795002 0.000000 
0.000000 -0.795002 0.000000 
-0.000000 -0.795002 0.000000 
0.000000 -0.795002 0.000000 
-0.000000 -0.795002 0.000000 
-0.000000 -0.795002 0.000000 
0.000000 -0.795002 0.000000 
-0.000000 -0.795002 0.000000 
0.000000 -0.795002 0.000000 
-0.000000 -0.795002 0.000000 
TENSORS STRESS float 
0.000000 -0.000000 0.000000 
0.000000 0.000000 0.000000 
0.000000 0.000000 0.000000 

-0.000000 0.000000 0.000000 
0.000000 -0.000000 0.000000 
0.000000 0.000000 0.000000 

0.000000 -0.000000 0.000000 
0.000000 0.000000 0.000000 
0.000000 0.000000 0.000000 

0.000000 0.000000 0.000000 
0.000000 -0.000000 0.000000 
0.000000 0.000000 0.000000 

-0.000000 0.000000 0.000000 
0.000000 -0.000000 0.000000 
0.000000 0.000000 0.000000 

-0.000000 0.000000 0.000000 
0.000000 0.000000 0.000000 
0.000000 0.000000 0.000000 

-0.000000 0.000000 0.000000 
0.000000 -0.000000 0.000000 
0.000000 0.000000 0.000000 

-0.000000 0.000000 0.000000 
0.000000 -0.000000 0.000000 
0.000000 0.000000 0.000000 

-0.000000 0.000000 0.000000 
0.000000 -0.000000 0.000000 
0.000000 0.000000 0.000000 

0.000000 0.000000 0.000000 
0.000000 0.000000 0.000000 
0.000000 0.000000 0.000000 

-0.000000 0.000000 0.000000 
0.000000 -0.000000 0.000000 
0.000000 0.000000 0.000000 

-0.000000 0.000000 0.000000 
0.000000 -0.000000 0.000000 
0.000000 0.000000 0.000000 

-0.000000 0.000000 0.000000 
0.000000 0.000000 0.000000 
0.000000 0.000000 0.000000 

0.000000 0.000000 0.000000 
0.000000 0.000000 0.000000 
0.000000 0.000000 0.000000 

-0.000000 0.000000 0.000000 
0.000000 0.000000 0.000000 
0.000000 0.000000 0.000000 

-0.000000 0.000000 0.000000 
0.000000 0.000000 0.000000 
0.000000 0.000000 0.000000 

-0.000000 -0.000000 0.000000 
0.000000 -0.000000 0.000000 
0.000000 0.000000 0.000000 

0.000000 -0.000000 0.000000 
0.000000 0.000000 0.000000 
0.000000 0.000000 0.000000 

0.000000 -0.000000 0.000000 
0.000000 0.000000 0.000000 
0.000000 0.000000 0.000000 

-0.000000 0.000000 0.000000 
0.000000 -0.000000 0.000000 
0.000000 0.000000 0.000000 

0.000000 -0.000000 0.000000 
0.000000 0.000000 0.000000 
0.000000 0.000000 0.000000 

-0.000000 0.000000 0.000000 
0.000000 -0.000000 0.000000 
0.000000 0.000000 0.000000 

-0.000000 0.000000 0.000000 
0.000000 -0.000000 0.000000 
0.000000 0.000000 0.000000 

-0.000000 0.000000 0.000000 
0.000000 0.000000 0.000000 
0.000000 0.000000 0.000000 

-0.000000 0.000000 0.000000 
0.000000 -0.000000 0.000000 
0.000000 0.000000 0.000000 

0.000000 -0.000000 0.000000 
0.000000 -0.000000 0.000000 
0.000000 0.000000 0.000000 

0.000000 -0.000000 0.000000 
0.000000 0.000000 0.000000 
0.000000 0.000000 0.000000 

-0.000000 0.000000 0.000000 
0.000000 0.000000 0.000000 
0.000000 0.000000 0.000000 

-0.000000 -0.000000 0.000000 
0.000000 -0.000000 0.000000 
0.000000 0.000000 0.000000 

0.000000 0.000000 0.000000 
0.000000 0.000000 0.000000 
0.000000 0.000000 0.000000 

-0.000000 -0.000000 0.000000 
0.000000 0.000000 0.000000 
0.000000 0.000000 0.000000 

0.000000 0.000000 0.000000 
0.000000 0.000000 0.000000 
0.000000 0.000000 0.000000 

-0.000000 -0.000000 0.000000 
0.000000 0.000000 0.000000 
0.000000 0.000000 0.000000 

-0.000000 -0.000000 0.000000 
0.000000 -0.000000 0.000000 
0.000000 0.000000 0.000000 

0.000000 -0.000000 0.000000 
0.000000 0.000000 0.000000 
0.000000 0.000000 0.000000 

0.000000 -0.000000 0.000000 
0.000000 0.000000 0.000000 
0.000000 0.000000 0.000000 

0.000000 0.000000 0.000000 
0.000000 0.000000 0.000000 
0.000000 0.000000 0.000000 

0.000000 0.000000 0.000000 
0.000000 -0.000000 0.000000 
0.000000 0.000000 0.000000 

-0.000000 0.000000 0.000000 
0.000000 -0.000000 0.000000 
0.000000 0.000000 0.000000 

-0.000000 0.000000 0.000000 
0.000000 0.000000 0.000000 
0.000000 0.000000 0.000000 

-0.000000 0.000000 0.000000 
0.000000 0.000000 0.000000 
0.000000 0.000000 0.000000 

-0.000000 -0.000000 0.000000 
0.000000 0.000000 0.000000 
0.000000 0.000000 0.000000 

0.000000 0.000000 0.000000 
0.000000 0.000000 0.000000 
0.000000 0.000000 0.000000 

-0.000000 0.000000 0.000000 
0.000000 0.000000 0.000000 
0.000000 0.000000 0.000000 

-0.000000 0.000000 0.000000 
0.000000 -0.000000 0.000000 
0.000000 0.000000 0.000000 

0.000000 0.000000 0.000000 
0.000000 -0.000000 0.000000 
0.000000 0.000000 0.000000 

0.000000 0.000000 0.000000 
0.000000 0.000000 0.000000 
0.000000 0.000000 0.000000 

-0.000000 0.000000 0.000000 
0.000000 -0.000000 0.000000 
0.000000 0.000000 0.000000 

0.000000 0.000000 0.000000 
0.000000 0.000000 0.000000 
0.000000 0.000000 0.000000 

0.000000 -0.000000 0.000000 
0.000000 0.000000 0.000000 
0.000000 0.000000 0.000000 

0.000000 -0.000000 0.000000 
0.000000 0.000000 0.000000 
0.000000 0.000000 0.000000 

-0.000000 0.000000 0.000000 
0.000000 0.000000 0.000000 
0.000000 0.000000 0.000000 

-0.000000 0.000000 0.000000 
0.000000 0.000000 0.000000 
0.000000 0.000000 0.000000 

0.000000 0.000000 0.000000 
0.000000 0.000000 0.000000 
0.000000 0.000000 0.000000 

-0.000000 0.000000 0.000000 
0.000000 -0.000000 0.000000 
0.000000 0.000000 0.000000 

-0.000000 0.000000 0.000000 
0.000000 -0.000000 0.000000 
0.000000 0.000000 0.000000 

-0.000000 0.000000 0.000000 
0.000000 -0.000000 0.000000 
0.000000 0.000000 0.000000 

-0.000000 0.000000 0.000000 
0.000000 0.000000 0.000000 
0.000000 0.000000 0.000000 

0.000000 0.000000 0.000000 
0.000000 0.000000 0.000000 
0.000000 0.000000 0.000000 

-0.000000 -0.000000 0.000000 
0.000000 -0.000000 0.000000 
0.000000 0.000000 0.000000 

-0.000000 0.000000 0.000000 
0.000000 -0.000000 0.000000 
0.000000 0.000000 0.000000 

-0.000000 -0.000000 0.000000 
0.000000 0.000000 0.000000 
0.000000 0.000000 0.000000 

-0.000000 -0.000000 0.000000 
0.000000 -0.000000 0.000000 
0.000000 0.000000 0.000000 

-0.000000 -0.000000 0.000000 
0.000000 -0.000000 0.000000 
0.000000 0.000000 0.000000 

0.000000 -0.000000 0.000000 
0.000000 0.000000 0.000000 
0.000000 0.000000 0.000000 

0.000000 -0.000000 0.000000 
0.000000 0.000000 0.000000 
0.000000 0.000000 0.000000 

0.000000 0.000000 0.000000 
0.000000 0.000000 0.000000 
0.000000 0.000000 0.000000 

0.000000 0.000000 0.000000 
0.000000 0.000000 0.000000 
0.000000 0.000000 0.000000 

0.000000 0.000000 0.000000 
0.000000 -0.000000 0.000000 
0.000000 0.000000 0.000000 

-0.000000 0.000000 0.000000 
0.000000 -0.000000 0.000000 
0.000000 0.000000 0.000000 

-0.000000 0.000000 0.000000 
0.000000 0.000000 0.000000 
0.000000 0.000000 0.000000 

-0.000000 -0.000000 0.000000 
0.000000 -0.000000 0.000000 
0.000000 0.000000 0.000000 

-0.000000 -0.000000 0.000000 
0.000000 -0.000000 0.000000 
0.000000 0.000000 0.000000 

-0.000000 -0.000000 0.000000 
0.000000 0.000000 0.000000 
0.000000 0.000000 0.000000 

-0.000000 -0.000000 0.000000 
0.000000 0.000000 0.000000 
0.000000 0.000000 0.000000 

0.000000 0.000000 0.000000 
0.000000 -0.000000 0.000000 
0.000000 0.000000 0.000000 

0.000000 -0.000000 0.000000 
0.000000 0.000000 0.000000 
0.000000 0.000000 0.000000 

-0.000000 0.000000 0.000000 
0.000000 0.000000 0.000000 
0.000000 0.000000 0.000000 

-0.000000 0.000000 0.000000 
0.000000 -0.000000 0.000000 
0.000000 0.000000 0.000000 

0.000000 -0.000000 0.000000 
0.000000 0.000000 0.000000 
0.000000 0.000000 0.000000 

0.000000 -0.000000 0.000000 
0.000000 0.000000 0.000000 
0.000000 0.000000 0.000000 

0.000000 -0.000000 0.000000 
0.000000 0.000000 0.000000 
0.000000 0.000000 0.000000 

0.000000 0.000000 0.000000 
0.000000 0.000000 0.000000 
0.000000 0.000000 0.000000 

-0.000000 0.000000 0.000000 
0.000000 -0.000000 0.000000 
0.000000 0.000000 0.000000 

-0.000000 0.000000 0.000000 
0.000000 -0.000000 0.000000 
0.000000 0.000000 0.000000 

-0.000000 -0.000000 0.000000 
0.000000 -0.000000 0.000000 
0.000000 0.000000 0.000000 

0.000000 -0.000000 0.000000 
0.000000 -0.000000 0.000000 
0.000000 0.000000 0.000000 

0.000000 -0.000000 0.000000 
0.000000 -0.000000 0.000000 
0.000000 0.000000 0.000000 

0.000000 -0.000000 0.000000 
0.000000 0.000000 0.000000 
0.000000 0.000000 0.000000 

-0.000000 -0.000000 0.000000 
0.000000 0.000000 0.000000 
0.000000 0.000000 0.000000 

-0.000000 -0.000000 0.000000 
0.000000 -0.000000 0.000000 
0.000000 0.000000 0.000000 

-0.000000 -0.000000 0.000000 
0.000000 -0.000000 0.000000 
0.000000 0.000000 0.000000 

0.000000 -0.000000 0.000000 
0.000000 0.000000 0.000000 
0.000000 0.000000 0.000000 

-0.000000 -0.000000 0.000000 
0.000000 -0.000000 0.000000 
0.000000 0.000000 0.000000 

-0.000000 0.000000 0.000000 
0.000000 -0.000000 0.000000 
0.000000 0.000000 0.000000 

-0.000000 -0.000000 0.000000 
0.000000 -0.000000 0.000000 
0.000000 0.000000 0.000000 

-0.000000 0.000000 0.000000 
0.000000 -0.000000 0.000000 
0.000000 0.000000 0.000000 

0.000000 -0.000000 0.000000 
0.000000 0.000000 0.000000 
0.000000 0.000000 0.000000 

0.000000 -0.000000 0.000000 
0.000000 0.000000 0.000000 
0.000000 0.000000 0.000000 

0.000000 -0.000000 0.000000 
0.000000 0.000000 0.000000 
0.000000 0.000000 0.000000 

0.000000 0.000000 0.000000 
0.000000 -0.000000 0.000000 
0.000000 0.000000 0.000000 

0.000000 0.000000 0.000000 
0.000000 -0.000000 0.000000 
0.000000 0.000000 0.000000 

0.000000 0.000000 0.000000 
0.000000 -0.000000 0.000000 
0.000000 0.000000 0.000000 

0.000000 0.000000 0.000000 
0.000000 0.000000 0.000000 
0.000000 0.000000 0.000000 

-0.000000 -0.000000 0.000000 
0.000000 -0.000000 0.000000 
0.000000 0.000000 0.000000 

0.000000 -0.000000 0.000000 
0.000000 0.000000 0.000000 
0.000000 0.000000 0.000000 

0.000000 -0.000000 0.000000 
0.000000 0.000000 0.000000 
0.000000 0.000000 0.000000 

0.000000 -0.000000 0.000000 
0.000000 0.000000 0.000000 
0.000000 0.000000 0.000000 

0.000000 -0.000000 0.000000 
0.000000 0.000000 0.000000 
0.000000 0.000000 0.000000 

0.000000 -0.000000 0.000000 
0.000000 0.000000 0.000000 
0.000000 0.000000 0.000000 

0.000000 -0.000000 0.000000 
0.000000 0.000000 0.000000 
0.000000 0.000000 0.000000 

0.000000 -0.000000 0.000000 
0.000000 0.000000 0.000000 
0.000000 0.000000 0.000000 

0.000000 -0.000000 0.000000 
0.000000 -0.000000 0.000000 
0.000000 0.000000 0.000000 

-0.000000 -0.000000 0.000000 
0.000000 -0.000000 0.000000 
0.000000 0.000000 0.000000 

0.000000 -0.000000 0.000000 
0.000000 0.000000 0.000000 
0.000000 0.000000 0.000000 

0.000000 0.000000 0.000000 
0.000000 0.000000 0.000000 
0.000000 0.000000 0.000000 

0.000000 -0.000000 0.000000 
0.000000 0.000000 0.000000 
0.000000 0.000000 0.000000 

-0.000000 -0.000000 0.000000 
0.000000 -0.000000 0.000000 
0.000000 0.000000 0.000000 

0.000000 -0.000000 0.000000 
0.000000 0.000000 0.000000 
0.000000 0.000000 0.000000 

0.000000 -0.000000 0.000000 
0.000000 0.000000 0.000000 
0.000000 0.000000 0.000000 

0.000000 -0.000000 0.000000 
0.000000 0.000000 0.000000 
0.000000 0.000000 0.000000 

-0.000000 -0.000000 0.000000 
0.000000 -0.000000 0.000000 
0.000000 0.000000 0.000000 

-0.000000 0.000000 0.000000 
0.000000 -0.000000 0.000000 
0.000000 0.000000 0.000000 

0.000000 0.000000 0.000000 
0.000000 0.000000 0.000000 
0.000000 0.000000 0.000000 

0.000000 -0.000000 0.000000 
0.000000 0.000000 0.000000 
0.000000 0.000000 0.000000 

0.000000 -0.000000 0.000000 
0.000000 0.000000 0.000000 
0.000000 0.000000 0.000000 

0.000000 0.000000 0.000000 
0.000000 0.000000 0.000000 
0.000000 0.000000 0.000000 

0.000000 0.000000 0.000000 
0.000000 0.000000 0.000000 
0.000000 0.000000 0.000000 

-0.000000 0.000000 0.000000 
0.000000 -0.000000 0.000000 
0.000000 0.000000 0.000000 

0.000000 0.000000 0.000000 
0.000000 0.000000 0.000000 
0.000000 0.000000 0.000000 

0.000000 0.000000 0.000000 
0.000000 0.000000 0.000000 
0.000000 0.000000 0.000000 

-0.000000 0.000000 0.000000 
0.000000 -0.000000 0.000000 
0.000000 0.000000 0.000000 

0.000000 0.000000 0.000000 
0.000000 0.000000 0.000000 
0.000000 0.000000 0.000000 

-0.000000 -0.000000 0.000000 
0.000000 -0.000000 0.000000 
0.000000 0.000000 0.000000 

-0.000000 0.000000 0.000000 
0.000000 -0.000000 0.000000 
0.000000 0.000000 0.000000 

-0.000000 -0.000000 0.000000 
0.000000 -0.000000 0.000000 
0.000000 0.000000 0.000000 

0.000000 0.000000 0.000000 
0.000000 0.000000 0.000000 
0.000000 0.000000 0.000000 

0.000000 0.000000 0.000000 
0.000000 0.000000 0.000000 
0.000000 0.000000 0.000000 

0.000000 0.000000 0.000000 
0.000000 0.000000 0.000000 
0.000000 0.000000 0.000000 

-0.000000 -0.000000 0.000000 
0.000000 -0.000000 0.000000 
0.000000 0.000000 0.000000 

0.000000 -0.000000 0.000000 
0.000000 0.000000 0.000000 
0.000000 0.000000 0.000000 

-0.000000 0.000000 0.000000 
0.000000 -0.000000 0.000000 
0.000000 0.000000 0.000000 

-0.000000 0.000000 0.000000 
0.000000 -0.000000 0.000000 
0.000000 0.000000 0.000000 

0.000000 -0.000000 0.000000 
0.000000 -0.000000 0.000000 
0.000000 0.000000 0.000000 

-0.000000 0.000000 0.000000 
0.000000 -0.000000 0.000000 
0.000000 0.000000 0.000000 

0.000000 0.000000 0.000000 
0.000000 0.000000 0.000000 
0.000000 0.000000 0.000000 

-0.000000 -0.000000 0.000000 
0.000000 0.000000 0.000000 
0.000000 0.000000 0.000000 

0.000000 -0.000000 0.000000 
0.000000 0.000000 0.000000 
0.000000 0.000000 0.000000 

0.000000 -0.000000 0.000000 
0.000000 -0.000000 0.000000 
0.000000 0.000000 0.000000 

-0.000000 -0.000000 0.000000 
0.000000 -0.000000 0.000000 
0.000000 0.000000 0.000000 

0.000000 -0.000000 0.000000 
0.000000 0.000000 0.000000 
0.000000 0.000000 0.000000 

0.000000 -0.000000 0.000000 
0.000000 -0.000000 0.000000 
0.000000 0.000000 0.000000 

0.000000 -0.000000 0.000000 
0.000000 0.000000 0.000000 
0.000000 0.000000 0.000000 

0.000000 0.000000 0.000000 
0.000000 0.000000 0.000000 
0.000000 0.000000 0.000000 

-0.000000 -0.000000 0.000000 
0.000000 -0.000000 0.000000 
0.000000 0.000000 0.000000 

-0.000000 -0.000000 0.000000 
0.000000 -0.000000 0.000000 
0.000000 0.000000 0.000000 

0.000000 -0.000000 0.000000 
0.000000 -0.000000 0.000000 
0.000000 0.000000 0.000000 

0.000000 0.000000 0.000000 
0.000000 0.000000 0.000000 
0.000000 0.000000 0.000000 

0.000000 0.000000 0.000000 
0.000000 -0.000000 0.000000 
0.000000 0.000000 0.000000 

-0.000000 -0.000000 0.000000 
0.000000 -0.000000 0.000000 
0.000000 0.000000 0.000000 

-0.000000 0.000000 0.000000 
0.000000 -0.000000 0.000000 
0.000000 0.000000 0.000000 

-0.000000 0.000000 0.000000 
0.000000 -0.000000 0.000000 
0.000000 0.000000 0.000000 

0.000000 0.000000 0.000000 
0.000000 0.000000 0.000000 
0.000000 0.000000 0.000000 

0.000000 -0.000000 0.000000 
0.000000 0.000000 0.000000 
0.000000 0.000000 0.000000 

0.000000 0.000000 0.000000 
0.000000 0.000000 0.000000 
0.000000 0.000000 0.000000 

-0.000000 -0.000000 0.000000 
0.000000 -0.000000 0.000000 
0.000000 0.000000 0.000000 

-0.000000 0.000000 0.000000 
0.000000 0.000000 0.000000 
0.000000 0.000000 0.000000 

-0.000000 -0.000000 0.000000 
0.000000 0.000000 0.000000 
0.000000 0.000000 0.000000 

-0.000000 0.000000 0.000000 
0.000000 0.000000 0.000000 
0.000000 0.000000 0.000000 

-0.000000 0.000000 0.000000 
0.000000 -0.000000 0.000000 
0.000000 0.000000 0.000000 

-0.000000 0.000000 0.000000 
0.000000 -0.000000 0.000000 
0.000000 0.000000 0.000000 

-0.000000 -0.000000 0.000000 
0.000000 0.000000 0.000000 
0.000000 0.000000 0.000000 

0.000000 -0.000000 0.000000 
0.000000 -0.000000 0.000000 
0.000000 0.000000 0.000000 

-0.000000 -0.000000 0.000000 
0.000000 -0.000000 0.000000 
0.000000 0.000000 0.000000 

-0.000000 0.000000 0.000000 
0.000000 -0.000000 0.000000 
0.000000 0.000000 0.000000 

TENSORS STRAIN float 
0.000000 -0.000000 0.000000 
0.000000 0.000000 0.000000 
0.000000 0.000000 0.000000 

-0.000000 0.000000 0.000000 
0.000000 -0.000000 0.000000 
0.000000 0.000000 0.000000 

0.000000 -0.000000 0.000000 
0.000000 0.000000 0.000000 
0.000000 0.000000 0.000000 

0.000000 0.000000 0.000000 
0.000000 -0.000000 0.000000 
0.000000 0.000000 0.000000 

-0.000000 0.000000 0.000000 
0.000000 -0.000000 0.000000 
0.000000 0.000000 0.000000 

-0.000000 0.000000 0.000000 
0.000000 0.000000 0.000000 
0.000000 0.000000 0.000000 

-0.000000 0.000000 0.000000 
0.000000 -0.000000 0.000000 
0.000000 0.000000 0.000000 

-0.000000 0.000000 0.000000 
0.000000 -0.000000 0.000000 
0.000000 0.000000 0.000000 

-0.000000 0.000000 0.000000 
0.000000 -0.000000 0.000000 
0.000000 0.000000 0.000000 

-0.000000 0.000000 0.000000 
0.000000 0.000000 0.000000 
0.000000 0.000000 0.000000 

-0.000000 0.000000 0.000000 
0.000000 -0.000000 0.000000 
0.000000 0.000000 0.000000 

-0.000000 0.000000 0.000000 
0.000000 0.000000 0.000000 
0.000000 0.000000 0.000000 

-0.000000 0.000000 0.000000 
0.000000 0.000000 0.000000 
0.000000 0.000000 0.000000 

-0.000000 0.000000 0.000000 
0.000000 0.000000 0.000000 
0.000000 0.000000 0.000000 

-0.000000 0.000000 0.000000 
0.000000 0.000000 0.000000 
0.000000 0.000000 0.000000 

-0.000000 0.000000 0.000000 
0.000000 0.000000 0.000000 
0.000000 0.000000 0.000000 

0.000000 -0.000000 0.000000 
0.000000 -0.000000 0.000000 
0.000000 0.000000 0.000000 

0.000000 -0.000000 0.000000 
0.000000 0.000000 0.000000 
0.000000 0.000000 0.000000 

0.000000 -0.000000 0.000000 
0.000000 0.000000 0.000000 
0.000000 0.000000 0.000000 

-0.000000 0.000000 0.000000 
0.000000 -0.000000 0.000000 
0.000000 0.000000 0.000000 

-0.000000 -0.000000 0.000000 
0.000000 0.000000 0.000000 
0.000000 0.000000 0.000000 

-0.000000 0.000000 0.000000 
0.000000 0.000000 0.000000 
0.000000 0.000000 0.000000 

-0.000000 0.000000 0.000000 
0.000000 -0.000000 0.000000 
0.000000 0.000000 0.000000 

-0.000000 0.000000 0.000000 
0.000000 0.000000 0.000000 
0.000000 0.000000 0.000000 

-0.000000 0.000000 0.000000 
0.000000 0.000000 0.000000 
0.000000 0.000000 0.000000 

0.000000 -0.000000 0.000000 
0.000000 -0.000000 0.000000 
0.000000 0.000000 0.000000 

-0.000000 -0.000000 0.000000 
0.000000 0.000000 0.000000 
0.000000 0.000000 0.000000 

-0.000000 0.000000 0.000000 
0.000000 0.000000 0.000000 
0.000000 0.000000 0.000000 

-0.000000 -0.000000 0.000000 
0.000000 0.000000 0.000000 
0.000000 0.000000 0.000000 

0.000000 0.000000 0.000000 
0.000000 0.000000 0.000000 
0.000000 0.000000 0.000000 

-0.000000 -0.000000 0.000000 
0.000000 0.000000 0.000000 
0.000000 0.000000 0.000000 

0.000000 0.000000 0.000000 
0.000000 0.000000 0.000000 
0.000000 0.000000 0.000000 

-0.000000 -0.000000 0.000000 
0.000000 0.000000 0.000000 
0.000000 0.000000 0.000000 

-0.000000 -0.000000 0.000000 
0.000000 -0.000000 0.000000 
0.000000 0.000000 0.000000 

0.000000 -0.000000 0.000000 
0.000000 0.000000 0.000000 
0.000000 0.000000 0.000000 

0.000000 -0.000000 0.000000 
0.000000 0.000000 0.000000 
0.000000 0.000000 0.000000 

0.000000 0.000000 0.000000 
0.000000 -0.000000 0.000000 
0.000000 0.000000 0.000000 

0.000000 0.000000 0.000000 
0.000000 -0.000000 0.000000 
0.000000 0.000000 0.000000 

-0.000000 0.000000 0.000000 
0.000000 -0.000000 0.000000 
0.000000 0.000000 0.000000 

-0.000000 0.000000 0.000000 
0.000000 0.000000 0.000000 
0.000000 0.000000 0.000000 

-0.000000 0.000000 0.000000 
0.000000 0.000000 0.000000 
0.000000 0.000000 0.000000 

-0.000000 -0.000000 0.000000 
0.000000 0.000000 0.000000 
0.000000 0.000000 0.000000 

-0.000000 0.000000 0.000000 
0.000000 0.000000 0.000000 
0.000000 0.000000 0.000000 

-0.000000 0.000000 0.000000 
0.000000 0.000000 0.000000 
0.000000 0.000000 0.000000 

0.000000 0.000000 0.000000 
0.000000 -0.000000 0.000000 
0.000000 0.000000 0.000000 

0.000000 0.000000 0.000000 
0.000000 -0.000000 0.000000 
0.000000 0.000000 0.000000 

0.000000 0.000000 0.000000 
0.000000 0.000000 0.000000 
0.000000 0.000000 0.000000 

-0.000000 0.000000 0.000000 
0.000000 0.000000 0.000000 
0.000000 0.000000 0.000000 

-0.000000 0.000000 0.000000 
0.000000 0.000000 0.000000 
0.000000 0.000000 0.000000 

-0.000000 -0.000000 0.000000 
0.000000 0.000000 0.000000 
0.000000 0.000000 0.000000 

0.000000 -0.000000 0.000000 
0.000000 0.000000 0.000000 
0.000000 0.000000 0.000000 

-0.000000 0.000000 0.000000 
0.000000 0.000000 0.000000 
0.000000 0.000000 0.000000 

-0.000000 0.000000 0.000000 
0.000000 0.000000 0.000000 
0.000000 0.000000 0.000000 

-0.000000 0.000000 0.000000 
0.000000 0.000000 0.000000 
0.000000 0.000000 0.000000 

-0.000000 0.000000 0.000000 
0.000000 -0.000000 0.000000 
0.000000 0.000000 0.000000 

-0.000000 0.000000 0.000000 
0.000000 -0.000000 0.000000 
0.000000 0.000000 0.000000 

-0.000000 0.000000 0.000000 
0.000000 -0.000000 0.000000 
0.000000 0.000000 0.000000 

-0.000000 0.000000 0.000000 
0.000000 0.000000 0.000000 
0.000000 0.000000 0.000000 

0.000000 0.000000 0.000000 
0.000000 0.000000 0.000000 
0.000000 0.000000 0.000000 

-0.000000 -0.000000 0.000000 
0.000000 -0.000000 0.000000 
0.000000 0.000000 0.000000 

-0.000000 0.000000 0.000000 
0.000000 0.000000 0.000000 
0.000000 0.000000 0.000000 

-0.000000 -0.000000 0.000000 
0.000000 0.000000 0.000000 
0.000000 0.000000 0.000000 

-0.000000 -0.000000 0.000000 
0.000000 -0.000000 0.000000 
0.000000 0.000000 0.000000 

-0.000000 -0.000000 0.000000 
0.000000 0.000000 0.000000 
0.000000 0.000000 0.000000 

-0.000000 -0.000000 0.000000 
0.000000 0.000000 0.000000 
0.000000 0.000000 0.000000 

-0.000000 -0.000000 0.000000 
0.000000 0.000000 0.000000 
0.000000 0.000000 0.000000 

0.000000 0.000000 0.000000 
0.000000 0.000000 0.000000 
0.000000 0.000000 0.000000 

0.000000 0.000000 0.000000 
0.000000 0.000000 0.000000 
0.000000 0.000000 0.000000 

0.000000 0.000000 0.000000 
0.000000 -0.000000 0.000000 
0.000000 0.000000 0.000000 

-0.000000 0.000000 0.000000 
0.000000 -0.000000 0.000000 
0.000000 0.000000 0.000000 

-0.000000 0.000000 0.000000 
0.000000 0.000000 0.000000 
0.000000 0.000000 0.000000 

-0.000000 -0.000000 0.000000 
0.000000 -0.000000 0.000000 
0.000000 0.000000 0.000000 

0.000000 -0.000000 0.000000 
0.000000 -0.000000 0.000000 
0.000000 0.000000 0.000000 

-0.000000 -0.000000 0.000000 
0.000000 0.000000 0.000000 
0.000000 0.000000 0.000000 

-0.000000 -0.000000 0.000000 
0.000000 0.000000 0.000000 
0.000000 0.000000 0.000000 

0.000000 0.000000 0.000000 
0.000000 -0.000000 0.000000 
0.000000 0.000000 0.000000 

-0.000000 -0.000000 0.000000 
0.000000 0.000000 0.000000 
0.000000 0.000000 0.000000 

-0.000000 0.000000 0.000000 
0.000000 0.000000 0.000000 
0.000000 0.000000 0.000000 

-0.000000 0.000000 0.000000 
0.000000 -0.000000 0.000000 
0.000000 0.000000 0.000000 

0.000000 -0.000000 0.000000 
0.000000 -0.000000 0.000000 
0.000000 0.000000 0.000000 

0.000000 -0.000000 0.000000 
0.000000 0.000000 0.000000 
0.000000 0.000000 0.000000 

0.000000 -0.000000 0.000000 
0.000000 0.000000 0.000000 
0.000000 0.000000 0.000000 

0.000000 0.000000 0.000000 
0.000000 -0.000000 0.000000 
0.000000 0.000000 0.000000 

-0.000000 0.000000 0.000000 
0.000000 -0.000000 0.000000 
0.000000 0.000000 0.000000 

-0.000000 0.000000 0.000000 
0.000000 -0.000000 0.000000 
0.000000 0.000000 0.000000 

0.000000 -0.000000 0.000000 
0.000000 -0.000000 0.000000 
0.000000 0.000000 0.000000 

0.000000 -0.000000 0.000000 
0.000000 -0.000000 0.000000 
0.000000 0.000000 0.000000 

0.000000 -0.000000 0.000000 
0.000000 -0.000000 0.000000 
0.000000 0.000000 0.000000 

0.000000 -0.000000 0.000000 
0.000000 -0.000000 0.000000 
0.000000 0.000000 0.000000 

-0.000000 -0.000000 0.000000 
0.000000 0.000000 0.000000 
0.000000 0.000000 0.000000 

-0.000000 -0.000000 0.000000 
0.000000 -0.000000 0.000000 
0.000000 0.000000 0.000000 

-0.000000 -0.000000 0.000000 
0.000000 0.000000 0.000000 
0.000000 0.000000 0.000000 

-0.000000 -0.000000 0.000000 
0.000000 0.000000 0.000000 
0.000000 0.000000 0.000000 

-0.000000 -0.000000 0.000000 
0.000000 0.000000 0.000000 
0.000000 0.000000 0.000000 

-0.000000 0.000000 0.000000 
0.000000 -0.000000 0.000000 
0.000000 0.000000 0.000000 

-0.000000 -0.000000 0.000000 
0.000000 0.000000 0.000000 
0.000000 0.000000 0.000000 

-0.000000 0.000000 0.000000 
0.000000 -0.000000 0.000000 
0.000000 0.000000 0.000000 

0.000000 -0.000000 0.000000 
0.000000 0.000000 0.000000 
0.000000 0.000000 0.000000 

0.000000 -0.000000 0.000000 
0.000000 0.000000 0.000000 
0.000000 0.000000 0.000000 

0.000000 -0.000000 0.000000 
0.000000 0.000000 0.000000 
0.000000 0.000000 0.000000 

0.000000 0.000000 0.000000 
0.000000 -0.000000 0.000000 
0.000000 0.000000 0.000000 

0.000000 0.000000 0.000000 
0.000000 -0.000000 0.000000 
0.000000 0.000000 0.000000 

0.000000 0.000000 0.000000 
0.000000 -0.000000 0.000000 
0.000000 0.000000 0.000000 

0.000000 0.000000 0.000000 
0.000000 0.000000 0.000000 
0.000000 0.000000 0.000000 

0.000000 -0.000000 0.000000 
0.000000 -0.000000 0.000000 
0.000000 0.000000 0.000000 

0.000000 -0.000000 0.000000 
0.000000 -0.000000 0.000000 
0.000000 0.000000 0.000000 

0.000000 -0.000000 0.000000 
0.000000 0.000000 0.000000 
0.000000 0.000000 0.000000 

0.000000 -0.000000 0.000000 
0.000000 0.000000 0.000000 
0.000000 0.000000 0.000000 

0.000000 -0.000000 0.000000 
0.000000 0.000000 0.000000 
0.000000 0.000000 0.000000 

0.000000 -0.000000 0.000000 
0.000000 0.000000 0.000000 
0.000000 0.000000 0.000000 

0.000000 -0.000000 0.000000 
0.000000 0.000000 0.000000 
0.000000 0.000000 0.000000 

0.000000 -0.000000 0.000000 
0.000000 0.000000 0.000000 
0.000000 0.000000 0.000000 

0.000000 -0.000000 0.000000 
0.000000 -0.000000 0.000000 
0.000000 0.000000 0.000000 

0.000000 -0.000000 0.000000 
0.000000 -0.000000 0.000000 
0.000000 0.000000 0.000000 

0.000000 -0.000000 0.000000 
0.000000 0.000000 0.000000 
0.000000 0.000000 0.000000 

0.000000 0.000000 0.000000 
0.000000 -0.000000 0.000000 
0.000000 0.000000 0.000000 

0.000000 -0.000000 0.000000 
0.000000 0.000000 0.000000 
0.000000 0.000000 0.000000 

0.000000 -0.000000 0.000000 
0.000000 -0.000000 0.000000 
0.000000 0.000000 0.000000 

0.000000 -0.000000 0.000000 
0.000000 -0.000000 0.000000 
0.000000 0.000000 0.000000 

0.000000 -0.000000 0.000000 
0.000000 0.000000 0.000000 
0.000000 0.000000 0.000000 

0.000000 -0.000000 0.000000 
0.000000 0.000000 0.000000 
0.000000 0.000000 0.000000 

0.000000 -0.000000 0.000000 
0.000000 -0.000000 0.000000 
0.000000 0.000000 0.000000 

0.000000 0.000000 0.000000 
0.000000 -0.000000 0.000000 
0.000000 0.000000 0.000000 

0.000000 0.000000 0.000000 
0.000000 0.000000 0.000000 
0.000000 0.000000 0.000000 

-0.000000 -0.000000 0.000000 
0.000000 0.000000 0.000000 
0.000000 0.000000 0.000000 

0.000000 -0.000000 0.000000 
0.000000 0.000000 0.000000 
0.000000 0.000000 0.000000 

0.000000 0.000000 0.000000 
0.000000 0.000000 0.000000 
0.000000 0.000000 0.000000 

-0.000000 0.000000 0.000000 
0.000000 0.000000 0.000000 
0.000000 0.000000 0.000000 

-0.000000 0.000000 0.000000 
0.000000 -0.000000 0.000000 
0.000000 0.000000 0.000000 

0.000000 0.000000 0.000000 
0.000000 0.000000 0.000000 
0.000000 0.000000 0.000000 

0.000000 0.000000 0.000000 
0.000000 0.000000 0.000000 
0.000000 0.000000 0.000000 

-0.000000 0.000000 0.000000 
0.000000 -0.000000 0.000000 
0.000000 0.000000 0.000000 

-0.000000 0.000000 0.000000 
0.000000 0.000000 0.000000 
0.000000 0.000000 0.000000 

0.000000 -0.000000 0.000000 
0.000000 -0.000000 0.000000 
0.000000 0.000000 0.000000 

-0.000000 0.000000 0.000000 
0.000000 -0.000000 0.000000 
0.000000 0.000000 0.000000 

-0.000000 -0.000000 0.000000 
0.000000 -0.000000 0.000000 
0.000000 0.000000 0.000000 

-0.000000 0.000000 0.000000 
0.000000 0.000000 0.000000 
0.000000 0.000000 0.000000 

-0.000000 0.000000 0.000000 
0.000000 0.000000 0.000000 
0.000000 0.000000 0.000000 

-0.000000 0.000000 0.000000 
0.000000 0.000000 0.000000 
0.000000 0.000000 0.000000 

-0.000000 -0.000000 0.000000 
0.000000 -0.000000 0.000000 
0.000000 0.000000 0.000000 

0.000000 -0.000000 0.000000 
0.000000 0.000000 0.000000 
0.000000 0.000000 0.000000 

-0.000000 0.000000 0.000000 
0.000000 -0.000000 0.000000 
0.000000 0.000000 0.000000 

-0.000000 0.000000 0.000000 
0.000000 -0.000000 0.000000 
0.000000 0.000000 0.000000 

0.000000 -0.000000 0.000000 
0.000000 -0.000000 0.000000 
0.000000 0.000000 0.000000 

-0.000000 0.000000 0.000000 
0.000000 -0.000000 0.000000 
0.000000 0.000000 0.000000 

-0.000000 0.000000 0.000000 
0.000000 0.000000 0.000000 
0.000000 0.000000 0.000000 

-0.000000 -0.000000 0.000000 
0.000000 0.000000 0.000000 
0.000000 0.000000 0.000000 

-0.000000 -0.000000 0.000000 
0.000000 0.000000 0.000000 
0.000000 0.000000 0.000000 

0.000000 -0.000000 0.000000 
0.000000 -0.000000 0.000000 
0.000000 0.000000 0.000000 

0.000000 -0.000000 0.000000 
0.000000 -0.000000 0.000000 
0.000000 0.000000 0.000000 

0.000000 -0.000000 0.000000 
0.000000 0.000000 0.000000 
0.000000 0.000000 0.000000 

0.000000 -0.000000 0.000000 
0.000000 -0.000000 0.000000 
0.000000 0.000000 0.000000 

0.000000 -0.000000 0.000000 
0.000000 0.000000 0.000000 
0.000000 0.000000 0.000000 

0.000000 0.000000 0.000000 
0.000000 0.000000 0.000000 
0.000000 0.000000 0.000000 

-0.000000 -0.000000 0.000000 
0.000000 -0.000000 0.000000 
0.000000 0.000000 0.000000 

-0.000000 -0.000000 0.000000 
0.000000 -0.000000 0.000000 
0.000000 0.000000 0.000000 

0.000000 -0.000000 0.000000 
0.000000 -0.000000 0.000000 
0.000000 0.000000 0.000000 

0.000000 0.000000 0.000000 
0.000000 0.000000 0.000000 
0.000000 0.000000 0.000000 

0.000000 0.000000 0.000000 
0.000000 -0.000000 0.000000 
0.000000 0.000000 0.000000 

-0.000000 -0.000000 0.000000 
0.000000 0.000000 0.000000 
0.000000 0.000000 0.000000 

-0.000000 0.000000 0.000000 
0.000000 -0.000000 0.000000 
0.000000 0.000000 0.000000 

-0.000000 0.000000 0.000000 
0.000000 -0.000000 0.000000 
0.000000 0.000000 0.000000 

0.000000 0.000000 0.000000 
0.000000 0.000000 0.000000 
0.000000 0.000000 0.000000 

0.000000 -0.000000 0.000000 
0.000000 0.000000 0.000000 
0.000000 0.000000 0.000000 

0.000000 0.000000 0.000000 
0.000000 -0.000000 0.000000 
0.000000 0.000000 0.000000 

-0.000000 -0.000000 0.000000 
0.000000 -0.000000 0.000000 
0.000000 0.000000 0.000000 

-0.000000 0.000000 0.000000 
0.000000 0.000000 0.000000 
0.000000 0.000000 0.000000 

-0.000000 -0.000000 0.000000 
0.000000 0.000000 0.000000 
0.000000 0.000000 0.000000 

-0.000000 0.000000 0.000000 
0.000000 0.000000 0.000000 
0.000000 0.000000 0.000000 

-0.000000 0.000000 0.000000 
0.000000 0.000000 0.000000 
0.000000 0.000000 0.000000 

-0.000000 0.000000 0.000000 
0.000000 -0.000000 0.000000 
0.000000 0.000000 0.000000 

-0.000000 -0.000000 0.000000 
0.000000 0.000000 0.000000 
0.000000 0.000000 0.000000 

0.000000 -0.000000 0.000000 
0.000000 -0.000000 0.000000 
0.000000 0.000000 0.000000 

0.000000 -0.000000 0.000000 
0.000000 -0.000000 0.000000 
0.000000 0.000000 0.000000 

0.000000 0.000000 0.000000 
0.000000 -0.000000 0.000000 
0.000000 0.000000 0.000000 

