# vtk DataFile Version 3.0 
vtk output 
ASCII 
DATASET UNSTRUCTURED_GRID 
POINTS 175 float 
-0.026061 0.030764 0.000000 
-0.106992 0.098819 0.000000 
-0.054870 0.090586 0.000000 
-0.028809 0.136470 0.000000 
-0.186430 0.162895 0.000000 
-0.137056 0.160368 0.000000 
-0.114311 0.214016 0.000000 
-0.058186 0.198350 0.000000 
-0.029377 0.238527 0.000000 
-0.265318 0.226050 0.000000 
-0.217198 0.225251 0.000000 
-0.196633 0.282547 0.000000 
-0.143120 0.273838 0.000000 
-0.116563 0.321107 0.000000 
-0.058945 0.301461 0.000000 
-0.029568 0.339581 0.000000 
-0.344206 0.289206 0.000000 
-0.296791 0.289213 0.000000 
-0.278030 0.349156 0.000000 
-0.225992 0.343290 0.000000 
-0.201664 0.395407 0.000000 
-0.145749 0.381933 0.000000 
-0.117890 0.426276 0.000000 
-0.059328 0.403570 0.000000 
-0.029759 0.440636 0.000000 
-0.058559 -0.009987 0.000000 
-0.162226 -0.030830 0.000000 
-0.123292 0.004788 0.000000 
-0.142917 0.053771 0.000000 
-0.261851 -0.052986 0.000000 
-0.229092 -0.015959 0.000000 
-0.256854 0.035272 0.000000 
-0.209613 0.069385 0.000000 
-0.223062 0.116959 0.000000 
-0.360414 -0.075286 0.000000 
-0.329787 -0.038163 0.000000 
-0.361761 0.013639 0.000000 
-0.321587 0.050047 0.000000 
-0.341985 0.100282 0.000000 
-0.290702 0.133080 0.000000 
-0.302189 0.179816 0.000000 
-0.458977 -0.097586 0.000000 
-0.429420 -0.060512 0.000000 
-0.464588 -0.008470 0.000000 
-0.427556 0.028557 0.000000 
-0.453135 0.080072 0.000000 
-0.407738 0.115388 0.000000 
-0.425037 0.164816 0.000000 
-0.370772 0.196445 0.000000 
-0.381315 0.242672 0.000000 
-0.046960 -0.060802 0.000000 
-0.095301 -0.154848 0.000000 
-0.098873 -0.102201 0.000000 
-0.149405 -0.087003 0.000000 
-0.140093 -0.246552 0.000000 
-0.148617 -0.197854 0.000000 
-0.205981 -0.187617 0.000000 
-0.203197 -0.129413 0.000000 
-0.248777 -0.110267 0.000000 
-0.184111 -0.337516 0.000000 
-0.194039 -0.290425 0.000000 
-0.254475 -0.283125 0.000000 
-0.257893 -0.229015 0.000000 
-0.309886 -0.213643 0.000000 
-0.303554 -0.153098 0.000000 
-0.347255 -0.132940 0.000000 
-0.228129 -0.428480 0.000000 
-0.238687 -0.382255 0.000000 
-0.301302 -0.377303 0.000000 
-0.307162 -0.325264 0.000000 
-0.363386 -0.313143 0.000000 
-0.362692 -0.255632 0.000000 
-0.412122 -0.238339 0.000000 
-0.403017 -0.176192 0.000000 
-0.445733 -0.155613 0.000000 
-0.000000 -0.083417 0.000000 
0.043388 -0.179848 0.000000 
-0.000000 -0.149816 0.000000 
-0.043388 -0.179848 0.000000 
0.087158 -0.272045 0.000000 
0.043769 -0.248346 0.000000 
-0.000000 -0.286812 0.000000 
-0.043769 -0.248346 0.000000 
-0.087158 -0.272045 0.000000 
0.130831 -0.363174 0.000000 
0.087824 -0.341575 0.000000 
0.044436 -0.384275 0.000000 
-0.000000 -0.353210 0.000000 
-0.044436 -0.384275 0.000000 
-0.087824 -0.341575 0.000000 
-0.130831 -0.363174 0.000000 
0.174505 -0.454304 0.000000 
0.131782 -0.433738 0.000000 
0.088871 -0.479604 0.000000 
0.044532 -0.451740 0.000000 
-0.000000 -0.488141 0.000000 
-0.044532 -0.451740 0.000000 
-0.088871 -0.479604 0.000000 
-0.131782 -0.433738 0.000000 
-0.174505 -0.454304 0.000000 
0.046960 -0.060802 0.000000 
0.149405 -0.087003 0.000000 
0.098873 -0.102201 0.000000 
0.095301 -0.154848 0.000000 
0.248777 -0.110267 0.000000 
0.203197 -0.129413 0.000000 
0.205981 -0.187617 0.000000 
0.148617 -0.197854 0.000000 
0.140093 -0.246552 0.000000 
0.347255 -0.132940 0.000000 
0.303554 -0.153098 0.000000 
0.309886 -0.213643 0.000000 
0.257893 -0.229015 0.000000 
0.254475 -0.283125 0.000000 
0.194039 -0.290425 0.000000 
0.184111 -0.337516 0.000000 
0.445733 -0.155613 0.000000 
0.403017 -0.176192 0.000000 
0.412122 -0.238339 0.000000 
0.362692 -0.255632 0.000000 
0.363386 -0.313143 0.000000 
0.307162 -0.325264 0.000000 
0.301302 -0.377303 0.000000 
0.238687 -0.382255 0.000000 
0.228129 -0.428480 0.000000 
0.058559 -0.009987 0.000000 
0.142917 0.053771 0.000000 
0.123292 0.004788 0.000000 
0.162226 -0.030830 0.000000 
0.223062 0.116959 0.000000 
0.209613 0.069385 0.000000 
0.256854 0.035272 0.000000 
0.229092 -0.015959 0.000000 
0.261851 -0.052986 0.000000 
0.302189 0.179816 0.000000 
0.290702 0.133080 0.000000 
0.341985 0.100282 0.000000 
0.321587 0.050047 0.000000 
0.361761 0.013639 0.000000 
0.329787 -0.038163 0.000000 
0.360414 -0.075286 0.000000 
0.381315 0.242672 0.000000 
0.370772 0.196445 0.000000 
0.425037 0.164816 0.000000 
0.407738 0.115388 0.000000 
0.453135 0.080072 0.000000 
0.427556 0.028557 0.000000 
0.464588 -0.008470 0.000000 
0.429420 -0.060512 0.000000 
0.458977 -0.097586 0.000000 
0.026061 0.030764 0.000000 
0.028809 0.136470 0.000000 
0.054870 0.090586 0.000000 
0.106992 0.098819 0.000000 
0.029377 0.238527 0.000000 
0.058186 0.198350 0.000000 
0.114311 0.214016 0.000000 
0.137056 0.160368 0.000000 
0.186430 0.162895 0.000000 
0.029568 0.339581 0.000000 
0.058945 0.301461 0.000000 
0.116563 0.321107 0.000000 
0.143120 0.273838 0.000000 
0.196633 0.282547 0.000000 
0.217198 0.225251 0.000000 
0.265318 0.226050 0.000000 
0.029759 0.440636 0.000000 
0.059328 0.403570 0.000000 
0.117890 0.426276 0.000000 
0.145749 0.381933 0.000000 
0.201664 0.395407 0.000000 
0.225992 0.343290 0.000000 
0.278030 0.349156 0.000000 
0.296791 0.289213 0.000000 
0.344206 0.289206 0.000000 
CELLS 175 350 
1 0 
1 1 
1 2 
1 3 
1 4 
1 5 
1 6 
1 7 
1 8 
1 9 
1 10 
1 11 
1 12 
1 13 
1 14 
1 15 
1 16 
1 17 
1 18 
1 19 
1 20 
1 21 
1 22 
1 23 
1 24 
1 25 
1 26 
1 27 
1 28 
1 29 
1 30 
1 31 
1 32 
1 33 
1 34 
1 35 
1 36 
1 37 
1 38 
1 39 
1 40 
1 41 
1 42 
1 43 
1 44 
1 45 
1 46 
1 47 
1 48 
1 49 
1 50 
1 51 
1 52 
1 53 
1 54 
1 55 
1 56 
1 57 
1 58 
1 59 
1 60 
1 61 
1 62 
1 63 
1 64 
1 65 
1 66 
1 67 
1 68 
1 69 
1 70 
1 71 
1 72 
1 73 
1 74 
1 75 
1 76 
1 77 
1 78 
1 79 
1 80 
1 81 
1 82 
1 83 
1 84 
1 85 
1 86 
1 87 
1 88 
1 89 
1 90 
1 91 
1 92 
1 93 
1 94 
1 95 
1 96 
1 97 
1 98 
1 99 
1 100 
1 101 
1 102 
1 103 
1 104 
1 105 
1 106 
1 107 
1 108 
1 109 
1 110 
1 111 
1 112 
1 113 
1 114 
1 115 
1 116 
1 117 
1 118 
1 119 
1 120 
1 121 
1 122 
1 123 
1 124 
1 125 
1 126 
1 127 
1 128 
1 129 
1 130 
1 131 
1 132 
1 133 
1 134 
1 135 
1 136 
1 137 
1 138 
1 139 
1 140 
1 141 
1 142 
1 143 
1 144 
1 145 
1 146 
1 147 
1 148 
1 149 
1 150 
1 151 
1 152 
1 153 
1 154 
1 155 
1 156 
1 157 
1 158 
1 159 
1 160 
1 161 
1 162 
1 163 
1 164 
1 165 
1 166 
1 167 
1 168 
1 169 
1 170 
1 171 
1 172 
1 173 
1 174 
CELL_TYPES 175 
1 
1 
1 
1 
1 
1 
1 
1 
1 
1 
1 
1 
1 
1 
1 
1 
1 
1 
1 
1 
1 
1 
1 
1 
1 
1 
1 
1 
1 
1 
1 
1 
1 
1 
1 
1 
1 
1 
1 
1 
1 
1 
1 
1 
1 
1 
1 
1 
1 
1 
1 
1 
1 
1 
1 
1 
1 
1 
1 
1 
1 
1 
1 
1 
1 
1 
1 
1 
1 
1 
1 
1 
1 
1 
1 
1 
1 
1 
1 
1 
1 
1 
1 
1 
1 
1 
1 
1 
1 
1 
1 
1 
1 
1 
1 
1 
1 
1 
1 
1 
1 
1 
1 
1 
1 
1 
1 
1 
1 
1 
1 
1 
1 
1 
1 
1 
1 
1 
1 
1 
1 
1 
1 
1 
1 
1 
1 
1 
1 
1 
1 
1 
1 
1 
1 
1 
1 
1 
1 
1 
1 
1 
1 
1 
1 
1 
1 
1 
1 
1 
1 
1 
1 
1 
1 
1 
1 
1 
1 
1 
1 
1 
1 
1 
1 
1 
1 
1 
1 
1 
1 
1 
1 
1 
1 
POINT_DATA 175 
VECTORS X_GC float 
-0.026061 0.030764 0.000000 
-0.106992 0.098819 0.000000 
-0.054870 0.090586 0.000000 
-0.028809 0.136470 0.000000 
-0.186430 0.162895 0.000000 
-0.137056 0.160368 0.000000 
-0.114311 0.214016 0.000000 
-0.058186 0.198350 0.000000 
-0.029377 0.238527 0.000000 
-0.265318 0.226050 0.000000 
-0.217198 0.225251 0.000000 
-0.196633 0.282547 0.000000 
-0.143120 0.273838 0.000000 
-0.116563 0.321107 0.000000 
-0.058945 0.301461 0.000000 
-0.029568 0.339581 0.000000 
-0.344206 0.289206 0.000000 
-0.296791 0.289213 0.000000 
-0.278030 0.349156 0.000000 
-0.225992 0.343290 0.000000 
-0.201664 0.395407 0.000000 
-0.145749 0.381933 0.000000 
-0.117890 0.426276 0.000000 
-0.059328 0.403570 0.000000 
-0.029759 0.440636 0.000000 
-0.058559 -0.009987 0.000000 
-0.162226 -0.030830 0.000000 
-0.123292 0.004788 0.000000 
-0.142917 0.053771 0.000000 
-0.261851 -0.052986 0.000000 
-0.229092 -0.015959 0.000000 
-0.256854 0.035272 0.000000 
-0.209613 0.069385 0.000000 
-0.223062 0.116959 0.000000 
-0.360414 -0.075286 0.000000 
-0.329787 -0.038163 0.000000 
-0.361761 0.013639 0.000000 
-0.321587 0.050047 0.000000 
-0.341985 0.100282 0.000000 
-0.290702 0.133080 0.000000 
-0.302189 0.179816 0.000000 
-0.458977 -0.097586 0.000000 
-0.429420 -0.060512 0.000000 
-0.464588 -0.008470 0.000000 
-0.427556 0.028557 0.000000 
-0.453135 0.080072 0.000000 
-0.407738 0.115388 0.000000 
-0.425037 0.164816 0.000000 
-0.370772 0.196445 0.000000 
-0.381315 0.242672 0.000000 
-0.046960 -0.060802 0.000000 
-0.095301 -0.154848 0.000000 
-0.098873 -0.102201 0.000000 
-0.149405 -0.087003 0.000000 
-0.140093 -0.246552 0.000000 
-0.148617 -0.197854 0.000000 
-0.205981 -0.187617 0.000000 
-0.203197 -0.129413 0.000000 
-0.248777 -0.110267 0.000000 
-0.184111 -0.337516 0.000000 
-0.194039 -0.290425 0.000000 
-0.254475 -0.283125 0.000000 
-0.257893 -0.229015 0.000000 
-0.309886 -0.213643 0.000000 
-0.303554 -0.153098 0.000000 
-0.347255 -0.132940 0.000000 
-0.228129 -0.428480 0.000000 
-0.238687 -0.382255 0.000000 
-0.301302 -0.377303 0.000000 
-0.307162 -0.325264 0.000000 
-0.363386 -0.313143 0.000000 
-0.362692 -0.255632 0.000000 
-0.412122 -0.238339 0.000000 
-0.403017 -0.176192 0.000000 
-0.445733 -0.155613 0.000000 
-0.000000 -0.083417 0.000000 
0.043388 -0.179848 0.000000 
-0.000000 -0.149816 0.000000 
-0.043388 -0.179848 0.000000 
0.087158 -0.272045 0.000000 
0.043769 -0.248346 0.000000 
-0.000000 -0.286812 0.000000 
-0.043769 -0.248346 0.000000 
-0.087158 -0.272045 0.000000 
0.130831 -0.363174 0.000000 
0.087824 -0.341575 0.000000 
0.044436 -0.384275 0.000000 
-0.000000 -0.353210 0.000000 
-0.044436 -0.384275 0.000000 
-0.087824 -0.341575 0.000000 
-0.130831 -0.363174 0.000000 
0.174505 -0.454304 0.000000 
0.131782 -0.433738 0.000000 
0.088871 -0.479604 0.000000 
0.044532 -0.451740 0.000000 
-0.000000 -0.488141 0.000000 
-0.044532 -0.451740 0.000000 
-0.088871 -0.479604 0.000000 
-0.131782 -0.433738 0.000000 
-0.174505 -0.454304 0.000000 
0.046960 -0.060802 0.000000 
0.149405 -0.087003 0.000000 
0.098873 -0.102201 0.000000 
0.095301 -0.154848 0.000000 
0.248777 -0.110267 0.000000 
0.203197 -0.129413 0.000000 
0.205981 -0.187617 0.000000 
0.148617 -0.197854 0.000000 
0.140093 -0.246552 0.000000 
0.347255 -0.132940 0.000000 
0.303554 -0.153098 0.000000 
0.309886 -0.213643 0.000000 
0.257893 -0.229015 0.000000 
0.254475 -0.283125 0.000000 
0.194039 -0.290425 0.000000 
0.184111 -0.337516 0.000000 
0.445733 -0.155613 0.000000 
0.403017 -0.176192 0.000000 
0.412122 -0.238339 0.000000 
0.362692 -0.255632 0.000000 
0.363386 -0.313143 0.000000 
0.307162 -0.325264 0.000000 
0.301302 -0.377303 0.000000 
0.238687 -0.382255 0.000000 
0.228129 -0.428480 0.000000 
0.058559 -0.009987 0.000000 
0.142917 0.053771 0.000000 
0.123292 0.004788 0.000000 
0.162226 -0.030830 0.000000 
0.223062 0.116959 0.000000 
0.209613 0.069385 0.000000 
0.256854 0.035272 0.000000 
0.229092 -0.015959 0.000000 
0.261851 -0.052986 0.000000 
0.302189 0.179816 0.000000 
0.290702 0.133080 0.000000 
0.341985 0.100282 0.000000 
0.321587 0.050047 0.000000 
0.361761 0.013639 0.000000 
0.329787 -0.038163 0.000000 
0.360414 -0.075286 0.000000 
0.381315 0.242672 0.000000 
0.370772 0.196445 0.000000 
0.425037 0.164816 0.000000 
0.407738 0.115388 0.000000 
0.453135 0.080072 0.000000 
0.427556 0.028557 0.000000 
0.464588 -0.008470 0.000000 
0.429420 -0.060512 0.000000 
0.458977 -0.097586 0.000000 
0.026061 0.030764 0.000000 
0.028809 0.136470 0.000000 
0.054870 0.090586 0.000000 
0.106992 0.098819 0.000000 
0.029377 0.238527 0.000000 
0.058186 0.198350 0.000000 
0.114311 0.214016 0.000000 
0.137056 0.160368 0.000000 
0.186430 0.162895 0.000000 
0.029568 0.339581 0.000000 
0.058945 0.301461 0.000000 
0.116563 0.321107 0.000000 
0.143120 0.273838 0.000000 
0.196633 0.282547 0.000000 
0.217198 0.225251 0.000000 
0.265318 0.226050 0.000000 
0.029759 0.440636 0.000000 
0.059328 0.403570 0.000000 
0.117890 0.426276 0.000000 
0.145749 0.381933 0.000000 
0.201664 0.395407 0.000000 
0.225992 0.343290 0.000000 
0.278030 0.349156 0.000000 
0.296791 0.289213 0.000000 
0.344206 0.289206 0.000000 
VECTORS X_EC float 
0.338794 0.084691 0.000000 
-0.609100 -0.834057 0.000000 
0.713312 -0.722917 0.000000 
0.374519 0.657654 0.000000 
0.423588 0.300923 0.000000 
-0.218274 0.335027 0.000000 
-0.513962 -0.389212 0.000000 
0.756418 -0.177726 0.000000 
0.381900 -0.720118 0.000000 
-0.550868 -0.551680 0.000000 
0.823577 -0.540884 0.000000 
0.556234 0.685612 0.000000 
-0.139443 0.803180 0.000000 
-0.484677 0.165056 0.000000 
0.766286 0.430271 0.000000 
0.384386 -0.084349 0.000000 
0.474677 0.595717 0.000000 
-0.141715 0.595621 0.000000 
-0.385608 -0.213608 0.000000 
0.937896 -0.134412 0.000000 
0.621631 -0.837992 0.000000 
-0.105264 -0.656093 0.000000 
-0.467428 0.745281 0.000000 
0.771260 -0.948191 0.000000 
0.386873 0.551420 0.000000 
0.761262 0.634825 0.000000 
0.108942 0.916202 0.000000 
-0.397202 0.435363 0.000000 
-0.142083 -0.225912 0.000000 
-0.595936 -0.784687 0.000000 
0.978194 0.715447 0.000000 
-0.660903 0.023822 0.000000 
0.724964 -0.436698 0.000000 
0.899809 0.921053 0.000000 
0.685384 -0.483635 0.000000 
0.287229 -0.984794 0.000000 
0.702895 0.315878 0.000000 
0.180633 -0.175641 0.000000 
0.445811 -0.853800 0.000000 
-0.220880 0.703414 0.000000 
-0.071546 0.072488 0.000000 
-0.033296 -0.182583 0.000000 
-0.417537 -0.683092 0.000000 
0.039645 0.614345 0.000000 
-0.441768 0.114474 0.000000 
-0.109248 -0.580977 0.000000 
-0.699407 0.942268 0.000000 
-0.474522 0.274988 0.000000 
0.820030 -0.152005 0.000000 
0.957100 -0.776077 0.000000 
0.610485 -0.679168 0.000000 
-0.761092 0.590451 0.000000 
-0.714655 -0.120286 0.000000 
-0.057734 -0.325453 0.000000 
-0.178789 -0.171545 0.000000 
-0.067979 -0.828971 0.000000 
0.677748 -0.967174 0.000000 
0.641556 0.247081 0.000000 
-0.765897 -0.011398 0.000000 
0.393446 -0.943536 0.000000 
0.522510 0.420735 0.000000 
-0.691820 0.322190 0.000000 
-0.647393 -0.408292 0.000000 
0.028512 -0.615819 0.000000 
-0.053800 0.566821 0.000000 
0.514316 0.294690 0.000000 
0.965681 0.284474 0.000000 
-0.897068 -0.339555 0.000000 
-0.083078 -0.406408 0.000000 
-0.006893 0.891067 0.000000 
0.724017 0.727434 0.000000 
0.714996 -0.048969 0.000000 
-0.642413 -0.282427 0.000000 
-0.760780 0.878593 0.000000 
-0.205471 0.600778 0.000000 
0.000000 -0.373867 0.000000 
-0.564049 0.927946 0.000000 
0.000000 0.522510 0.000000 
0.564049 0.927946 0.000000 
0.866949 0.172602 0.000000 
-0.569003 -0.147330 0.000000 
0.000000 0.371959 0.000000 
0.569003 -0.147330 0.000000 
-0.866949 0.172602 0.000000 
0.299194 -0.597148 0.000000 
0.858290 -0.888732 0.000000 
-0.577662 -0.312286 0.000000 
0.000000 -0.731665 0.000000 
0.577662 -0.312286 0.000000 
-0.858290 -0.888732 0.000000 
-0.299194 -0.597148 0.000000 
-0.268560 0.633102 0.000000 
0.286830 0.355460 0.000000 
0.844677 0.974658 0.000000 
-0.578910 0.598496 0.000000 
0.000000 -0.910101 0.000000 
0.578910 0.598496 0.000000 
-0.844677 0.974658 0.000000 
-0.286830 0.355460 0.000000 
0.268560 0.633102 0.000000 
-0.610485 -0.679168 0.000000 
0.057734 -0.325453 0.000000 
0.714655 -0.120286 0.000000 
0.761092 0.590451 0.000000 
0.765897 -0.011398 0.000000 
-0.641556 0.247081 0.000000 
-0.677748 -0.967174 0.000000 
0.067979 -0.828971 0.000000 
0.178789 -0.171545 0.000000 
-0.514316 0.294690 0.000000 
0.053800 0.566821 0.000000 
-0.028512 -0.615819 0.000000 
0.647393 -0.408292 0.000000 
0.691820 0.322190 0.000000 
-0.522510 0.420735 0.000000 
-0.393446 -0.943536 0.000000 
0.205471 0.600778 0.000000 
0.760780 0.878593 0.000000 
0.642413 -0.282427 0.000000 
-0.714996 -0.048969 0.000000 
-0.724017 0.727434 0.000000 
0.006894 0.891067 0.000000 
0.083078 -0.406408 0.000000 
0.897068 -0.339555 0.000000 
-0.965681 0.284474 0.000000 
-0.761262 0.634825 0.000000 
0.142083 -0.225912 0.000000 
0.397202 0.435363 0.000000 
-0.108942 0.916202 0.000000 
-0.899809 0.921053 0.000000 
-0.724964 -0.436698 0.000000 
0.660903 0.023822 0.000000 
-0.978194 0.715447 0.000000 
0.595936 -0.784687 0.000000 
0.071546 0.072488 0.000000 
0.220880 0.703414 0.000000 
-0.445811 -0.853800 0.000000 
-0.180633 -0.175641 0.000000 
-0.702895 0.315878 0.000000 
-0.287229 -0.984794 0.000000 
-0.685384 -0.483635 0.000000 
-0.957100 -0.776077 0.000000 
-0.820030 -0.152005 0.000000 
0.474522 0.274988 0.000000 
0.699407 0.942268 0.000000 
0.109248 -0.580977 0.000000 
0.441768 0.114474 0.000000 
-0.039645 0.614345 0.000000 
0.417537 -0.683092 0.000000 
0.033296 -0.182583 0.000000 
-0.338794 0.084691 0.000000 
-0.374519 0.657654 0.000000 
-0.713312 -0.722917 0.000000 
0.609100 -0.834057 0.000000 
-0.381900 -0.720118 0.000000 
-0.756418 -0.177726 0.000000 
0.513962 -0.389212 0.000000 
0.218274 0.335027 0.000000 
-0.423588 0.300923 0.000000 
-0.384386 -0.084349 0.000000 
-0.766286 0.430271 0.000000 
0.484677 0.165056 0.000000 
0.139443 0.803180 0.000000 
-0.556234 0.685612 0.000000 
-0.823577 -0.540884 0.000000 
0.550868 -0.551680 0.000000 
-0.386873 0.551420 0.000000 
-0.771260 -0.948191 0.000000 
0.467428 0.745281 0.000000 
0.105264 -0.656093 0.000000 
-0.621631 -0.837992 0.000000 
-0.937896 -0.134412 0.000000 
0.385608 -0.213608 0.000000 
0.141715 0.595621 0.000000 
-0.474677 0.595717 0.000000 
CELL_DATA 175 
SCALARS MASS float 
LOOKUP_TABLE default 
0.078183 
0.086427 
0.094672 
0.086427 
0.088131 
0.092111 
0.085854 
0.092111 
0.088131 
0.088705 
0.091000 
0.086983 
0.091556 
0.086983 
0.091000 
0.088705 
0.089278 
0.091574 
0.089278 
0.092722 
0.089278 
0.092722 
0.089278 
0.091574 
0.089278 
0.078183 
0.086427 
0.094672 
0.086427 
0.088131 
0.092111 
0.085854 
0.092111 
0.088131 
0.088705 
0.091000 
0.086983 
0.091556 
0.086983 
0.091000 
0.088705 
0.089278 
0.091574 
0.089278 
0.092722 
0.089278 
0.092722 
0.089278 
0.091574 
0.089278 
0.078183 
0.086427 
0.094672 
0.086427 
0.088131 
0.092111 
0.085854 
0.092111 
0.088131 
0.088705 
0.091000 
0.086983 
0.091556 
0.086983 
0.091000 
0.088705 
0.089278 
0.091574 
0.089278 
0.092722 
0.089278 
0.092722 
0.089278 
0.091574 
0.089278 
0.078183 
0.086427 
0.094672 
0.086427 
0.088131 
0.092111 
0.085854 
0.092111 
0.088131 
0.088705 
0.091000 
0.086983 
0.091556 
0.086983 
0.091000 
0.088705 
0.089278 
0.091574 
0.089278 
0.092722 
0.089278 
0.092722 
0.089278 
0.091574 
0.089278 
0.078183 
0.086427 
0.094672 
0.086427 
0.088131 
0.092111 
0.085854 
0.092111 
0.088131 
0.088705 
0.091000 
0.086983 
0.091556 
0.086983 
0.091000 
0.088705 
0.089278 
0.091574 
0.089278 
0.092722 
0.089278 
0.092722 
0.089278 
0.091574 
0.089278 
0.078183 
0.086427 
0.094672 
0.086427 
0.088131 
0.092111 
0.085854 
0.092111 
0.088131 
0.088705 
0.091000 
0.086983 
0.091556 
0.086983 
0.091000 
0.088705 
0.089278 
0.091574 
0.089278 
0.092722 
0.089278 
0.092722 
0.089278 
0.091574 
0.089278 
0.078183 
0.086427 
0.094672 
0.086427 
0.088131 
0.092111 
0.085854 
0.092111 
0.088131 
0.088705 
0.091000 
0.086983 
0.091556 
0.086983 
0.091000 
0.088705 
0.089278 
0.091574 
0.089278 
0.092722 
0.089278 
0.092722 
0.089278 
0.091574 
0.089278 
SCALARS MASS float 
LOOKUP_TABLE default 
0.078183 
0.086427 
0.094672 
0.086427 
0.088131 
0.092111 
0.085854 
0.092111 
0.088131 
0.088705 
0.091000 
0.086983 
0.091556 
0.086983 
0.091000 
0.088705 
0.089278 
0.091574 
0.089278 
0.092722 
0.089278 
0.092722 
0.089278 
0.091574 
0.089278 
0.078183 
0.086427 
0.094672 
0.086427 
0.088131 
0.092111 
0.085854 
0.092111 
0.088131 
0.088705 
0.091000 
0.086983 
0.091556 
0.086983 
0.091000 
0.088705 
0.089278 
0.091574 
0.089278 
0.092722 
0.089278 
0.092722 
0.089278 
0.091574 
0.089278 
0.078183 
0.086427 
0.094672 
0.086427 
0.088131 
0.092111 
0.085854 
0.092111 
0.088131 
0.088705 
0.091000 
0.086983 
0.091556 
0.086983 
0.091000 
0.088705 
0.089278 
0.091574 
0.089278 
0.092722 
0.089278 
0.092722 
0.089278 
0.091574 
0.089278 
0.078183 
0.086427 
0.094672 
0.086427 
0.088131 
0.092111 
0.085854 
0.092111 
0.088131 
0.088705 
0.091000 
0.086983 
0.091556 
0.086983 
0.091000 
0.088705 
0.089278 
0.091574 
0.089278 
0.092722 
0.089278 
0.092722 
0.089278 
0.091574 
0.089278 
0.078183 
0.086427 
0.094672 
0.086427 
0.088131 
0.092111 
0.085854 
0.092111 
0.088131 
0.088705 
0.091000 
0.086983 
0.091556 
0.086983 
0.091000 
0.088705 
0.089278 
0.091574 
0.089278 
0.092722 
0.089278 
0.092722 
0.089278 
0.091574 
0.089278 
0.078183 
0.086427 
0.094672 
0.086427 
0.088131 
0.092111 
0.085854 
0.092111 
0.088131 
0.088705 
0.091000 
0.086983 
0.091556 
0.086983 
0.091000 
0.088705 
0.089278 
0.091574 
0.089278 
0.092722 
0.089278 
0.092722 
0.089278 
0.091574 
0.089278 
0.078183 
0.086427 
0.094672 
0.086427 
0.088131 
0.092111 
0.085854 
0.092111 
0.088131 
0.088705 
0.091000 
0.086983 
0.091556 
0.086983 
0.091000 
0.088705 
0.089278 
0.091574 
0.089278 
0.092722 
0.089278 
0.092722 
0.089278 
0.091574 
0.089278 
SCALARS DENSITY float 
LOOKUP_TABLE default 
20.000000 
20.000000 
20.000000 
20.000000 
20.000000 
20.000000 
20.000000 
20.000000 
20.000000 
20.000000 
20.000000 
20.000000 
20.000000 
20.000000 
20.000000 
20.000000 
20.000000 
20.000000 
20.000000 
20.000000 
20.000000 
20.000000 
20.000000 
20.000000 
20.000000 
20.000000 
20.000000 
20.000000 
20.000000 
20.000000 
20.000000 
20.000000 
20.000000 
20.000000 
20.000000 
20.000000 
20.000000 
20.000000 
20.000000 
20.000000 
20.000000 
20.000000 
20.000000 
20.000000 
20.000000 
20.000000 
20.000000 
20.000000 
20.000000 
20.000000 
20.000000 
20.000000 
20.000000 
20.000000 
20.000000 
20.000000 
20.000000 
20.000000 
20.000000 
20.000000 
20.000000 
20.000000 
20.000000 
20.000000 
20.000000 
20.000000 
20.000000 
20.000000 
20.000000 
20.000000 
20.000000 
20.000000 
20.000000 
20.000000 
20.000000 
20.000000 
20.000000 
20.000000 
20.000000 
20.000000 
20.000000 
20.000000 
20.000000 
20.000000 
20.000000 
20.000000 
20.000000 
20.000000 
20.000000 
20.000000 
20.000000 
20.000000 
20.000000 
20.000000 
20.000000 
20.000000 
20.000000 
20.000000 
20.000000 
20.000000 
20.000000 
20.000000 
20.000000 
20.000000 
20.000000 
20.000000 
20.000000 
20.000000 
20.000000 
20.000000 
20.000000 
20.000000 
20.000000 
20.000000 
20.000000 
20.000000 
20.000000 
20.000000 
20.000000 
20.000000 
20.000000 
20.000000 
20.000000 
20.000000 
20.000000 
20.000000 
20.000000 
20.000000 
20.000000 
20.000000 
20.000000 
20.000000 
20.000000 
20.000000 
20.000000 
20.000000 
20.000000 
20.000000 
20.000000 
20.000000 
20.000000 
20.000000 
20.000000 
20.000000 
20.000000 
20.000000 
20.000000 
20.000000 
20.000000 
20.000000 
20.000000 
20.000000 
20.000000 
20.000000 
20.000000 
20.000000 
20.000000 
20.000000 
20.000000 
20.000000 
20.000000 
20.000000 
20.000000 
20.000000 
20.000000 
20.000000 
20.000000 
20.000000 
20.000000 
20.000000 
20.000000 
20.000000 
20.000000 
20.000000 
20.000000 
SCALARS ELEM_i float 
LOOKUP_TABLE default 
182 
209 
182 
183 
210 
210 
210 
183 
183 
237 
210 
211 
211 
211 
184 
184 
238 
238 
238 
211 
211 
211 
212 
184 
185 
182 
209 
209 
209 
235 
209 
236 
209 
210 
235 
235 
236 
236 
236 
237 
237 
262 
262 
263 
263 
263 
264 
264 
237 
237 
181 
208 
208 
208 
207 
207 
207 
208 
235 
206 
207 
234 
234 
234 
235 
235 
206 
233 
233 
234 
234 
234 
261 
262 
262 
181 
181 
181 
181 
153 
180 
180 
180 
207 
152 
152 
179 
179 
179 
206 
206 
152 
152 
152 
179 
178 
179 
206 
206 
206 
181 
154 
154 
154 
127 
154 
153 
153 
153 
127 
127 
126 
126 
126 
153 
152 
100 
100 
99 
126 
126 
126 
125 
125 
152 
182 
155 
155 
155 
156 
155 
128 
155 
127 
129 
129 
128 
128 
128 
127 
127 
129 
129 
102 
102 
101 
101 
101 
100 
100 
182 
183 
182 
155 
183 
183 
156 
156 
156 
184 
184 
157 
157 
157 
156 
129 
185 
184 
158 
157 
157 
157 
130 
130 
130 
VECTORS VELOCITY float 
-0.000000 -0.676498 0.000000 
-0.000000 -0.676498 0.000000 
-0.000000 -0.676498 0.000000 
-0.000000 -0.676498 0.000000 
-0.000000 -0.676498 0.000000 
-0.000000 -0.676498 0.000000 
-0.000000 -0.676498 0.000000 
-0.000000 -0.676498 0.000000 
-0.000000 -0.676498 0.000000 
-0.000000 -0.676498 0.000000 
-0.000000 -0.676498 0.000000 
-0.000000 -0.676498 0.000000 
-0.000000 -0.676498 0.000000 
-0.000000 -0.676498 0.000000 
0.000000 -0.676498 0.000000 
0.000000 -0.676498 0.000000 
-0.000000 -0.676498 0.000000 
-0.000000 -0.676498 0.000000 
-0.000000 -0.676498 0.000000 
-0.000000 -0.676498 0.000000 
-0.000000 -0.676498 0.000000 
-0.000000 -0.676498 0.000000 
0.000000 -0.676498 0.000000 
0.000000 -0.676498 0.000000 
0.000000 -0.676498 0.000000 
0.000000 -0.676498 0.000000 
0.000000 -0.676498 0.000000 
0.000000 -0.676498 0.000000 
-0.000000 -0.676498 0.000000 
0.000000 -0.676498 0.000000 
0.000000 -0.676498 0.000000 
0.000000 -0.676498 0.000000 
0.000000 -0.676498 0.000000 
0.000000 -0.676498 0.000000 
0.000000 -0.676498 0.000000 
0.000000 -0.676498 0.000000 
-0.000000 -0.676498 0.000000 
0.000000 -0.676498 0.000000 
-0.000000 -0.676498 0.000000 
-0.000000 -0.676498 0.000000 
-0.000000 -0.676498 0.000000 
-0.000000 -0.676498 0.000000 
-0.000000 -0.676498 0.000000 
-0.000000 -0.676498 0.000000 
-0.000000 -0.676498 0.000000 
-0.000000 -0.676498 0.000000 
-0.000000 -0.676498 0.000000 
0.000000 -0.676498 0.000000 
-0.000000 -0.676498 0.000000 
-0.000000 -0.676498 0.000000 
0.000000 -0.676498 0.000000 
-0.000000 -0.676498 0.000000 
0.000000 -0.676498 0.000000 
0.000000 -0.676498 0.000000 
-0.000000 -0.676498 0.000000 
-0.000000 -0.676498 0.000000 
0.000000 -0.676498 0.000000 
0.000000 -0.676498 0.000000 
0.000000 -0.676498 0.000000 
-0.000000 -0.676498 0.000000 
-0.000000 -0.676498 0.000000 
-0.000000 -0.676498 0.000000 
0.000000 -0.676498 0.000000 
0.000000 -0.676498 0.000000 
0.000000 -0.676498 0.000000 
0.000000 -0.676498 0.000000 
-0.000000 -0.676498 0.000000 
-0.000000 -0.676498 0.000000 
0.000000 -0.676498 0.000000 
0.000000 -0.676498 0.000000 
0.000000 -0.676498 0.000000 
0.000000 -0.676498 0.000000 
0.000000 -0.676498 0.000000 
0.000000 -0.676498 0.000000 
-0.000000 -0.676498 0.000000 
-0.000000 -0.676498 0.000000 
0.000000 -0.676498 0.000000 
-0.000000 -0.676498 0.000000 
-0.000000 -0.676498 0.000000 
-0.000000 -0.676498 0.000000 
0.000000 -0.676498 0.000000 
-0.000000 -0.676498 0.000000 
-0.000000 -0.676498 0.000000 
-0.000000 -0.676498 0.000000 
-0.000000 -0.676498 0.000000 
-0.000000 -0.676498 0.000000 
0.000000 -0.676498 0.000000 
0.000000 -0.676498 0.000000 
0.000000 -0.676498 0.000000 
0.000000 -0.676498 0.000000 
-0.000000 -0.676498 0.000000 
0.000000 -0.676498 0.000000 
0.000000 -0.676498 0.000000 
0.000000 -0.676498 0.000000 
0.000000 -0.676498 0.000000 
-0.000000 -0.676498 0.000000 
0.000000 -0.676498 0.000000 
0.000000 -0.676498 0.000000 
0.000000 -0.676498 0.000000 
0.000000 -0.676498 0.000000 
-0.000000 -0.676498 0.000000 
-0.000000 -0.676498 0.000000 
-0.000000 -0.676498 0.000000 
0.000000 -0.676498 0.000000 
0.000000 -0.676498 0.000000 
0.000000 -0.676498 0.000000 
-0.000000 -0.676498 0.000000 
0.000000 -0.676498 0.000000 
-0.000000 -0.676498 0.000000 
-0.000000 -0.676498 0.000000 
-0.000000 -0.676498 0.000000 
0.000000 -0.676498 0.000000 
-0.000000 -0.676498 0.000000 
-0.000000 -0.676498 0.000000 
-0.000000 -0.676498 0.000000 
-0.000000 -0.676498 0.000000 
-0.000000 -0.676498 0.000000 
-0.000000 -0.676498 0.000000 
-0.000000 -0.676498 0.000000 
0.000000 -0.676498 0.000000 
0.000000 -0.676498 0.000000 
0.000000 -0.676498 0.000000 
-0.000000 -0.676498 0.000000 
0.000000 -0.676498 0.000000 
0.000000 -0.676498 0.000000 
-0.000000 -0.676498 0.000000 
-0.000000 -0.676498 0.000000 
-0.000000 -0.676498 0.000000 
-0.000000 -0.676498 0.000000 
0.000000 -0.676498 0.000000 
0.000000 -0.676498 0.000000 
0.000000 -0.676498 0.000000 
0.000000 -0.676498 0.000000 
0.000000 -0.676498 0.000000 
0.000000 -0.676498 0.000000 
0.000000 -0.676498 0.000000 
0.000000 -0.676498 0.000000 
-0.000000 -0.676498 0.000000 
-0.000000 -0.676498 0.000000 
-0.000000 -0.676498 0.000000 
-0.000000 -0.676498 0.000000 
-0.000000 -0.676498 0.000000 
-0.000000 -0.676498 0.000000 
0.000000 -0.676498 0.000000 
0.000000 -0.676498 0.000000 
0.000000 -0.676498 0.000000 
-0.000000 -0.676498 0.000000 
0.000000 -0.676498 0.000000 
-0.000000 -0.676498 0.000000 
-0.000000 -0.676498 0.000000 
-0.000000 -0.676498 0.000000 
-0.000000 -0.676498 0.000000 
-0.000000 -0.676498 0.000000 
-0.000000 -0.676498 0.000000 
-0.000000 -0.676498 0.000000 
-0.000000 -0.676498 0.000000 
-0.000000 -0.676498 0.000000 
-0.000000 -0.676498 0.000000 
0.000000 -0.676498 0.000000 
0.000000 -0.676498 0.000000 
-0.000000 -0.676498 0.000000 
0.000000 -0.676498 0.000000 
0.000000 -0.676498 0.000000 
0.000000 -0.676498 0.000000 
0.000000 -0.676498 0.000000 
0.000000 -0.676498 0.000000 
0.000000 -0.676498 0.000000 
0.000000 -0.676498 0.000000 
0.000000 -0.676498 0.000000 
0.000000 -0.676498 0.000000 
-0.000000 -0.676498 0.000000 
0.000000 -0.676498 0.000000 
0.000000 -0.676498 0.000000 
0.000000 -0.676498 0.000000 
0.000000 -0.676498 0.000000 
TENSORS STRESS float 
0.000000 -0.000000 0.000000 
0.000000 0.000000 0.000000 
0.000000 0.000000 0.000000 

0.000000 0.000000 0.000000 
0.000000 0.000000 0.000000 
0.000000 0.000000 0.000000 

0.000000 -0.000000 0.000000 
0.000000 0.000000 0.000000 
0.000000 0.000000 0.000000 

-0.000000 -0.000000 0.000000 
0.000000 -0.000000 0.000000 
0.000000 0.000000 0.000000 

-0.000000 0.000000 0.000000 
0.000000 -0.000000 0.000000 
0.000000 0.000000 0.000000 

0.000000 0.000000 0.000000 
0.000000 0.000000 0.000000 
0.000000 0.000000 0.000000 

0.000000 0.000000 0.000000 
0.000000 -0.000000 0.000000 
0.000000 0.000000 0.000000 

-0.000000 0.000000 0.000000 
0.000000 -0.000000 0.000000 
0.000000 0.000000 0.000000 

-0.000000 0.000000 0.000000 
0.000000 -0.000000 0.000000 
0.000000 0.000000 0.000000 

-0.000000 -0.000000 0.000000 
0.000000 -0.000000 0.000000 
0.000000 0.000000 0.000000 

0.000000 0.000000 0.000000 
0.000000 -0.000000 0.000000 
0.000000 0.000000 0.000000 

0.000000 0.000000 0.000000 
0.000000 0.000000 0.000000 
0.000000 0.000000 0.000000 

0.000000 0.000000 0.000000 
0.000000 0.000000 0.000000 
0.000000 0.000000 0.000000 

0.000000 -0.000000 0.000000 
0.000000 0.000000 0.000000 
0.000000 0.000000 0.000000 

0.000000 -0.000000 0.000000 
0.000000 0.000000 0.000000 
0.000000 0.000000 0.000000 

0.000000 -0.000000 0.000000 
0.000000 -0.000000 0.000000 
0.000000 0.000000 0.000000 

-0.000000 -0.000000 0.000000 
0.000000 -0.000000 0.000000 
0.000000 0.000000 0.000000 

0.000000 0.000000 0.000000 
0.000000 0.000000 0.000000 
0.000000 0.000000 0.000000 

0.000000 0.000000 0.000000 
0.000000 0.000000 0.000000 
0.000000 0.000000 0.000000 

-0.000000 0.000000 0.000000 
0.000000 0.000000 0.000000 
0.000000 0.000000 0.000000 

-0.000000 -0.000000 0.000000 
0.000000 0.000000 0.000000 
0.000000 0.000000 0.000000 

-0.000000 -0.000000 0.000000 
0.000000 -0.000000 0.000000 
0.000000 0.000000 0.000000 

-0.000000 -0.000000 0.000000 
0.000000 0.000000 0.000000 
0.000000 0.000000 0.000000 

0.000000 0.000000 0.000000 
0.000000 0.000000 0.000000 
0.000000 0.000000 0.000000 

-0.000000 0.000000 0.000000 
0.000000 -0.000000 0.000000 
0.000000 0.000000 0.000000 

0.000000 -0.000000 0.000000 
0.000000 0.000000 0.000000 
0.000000 0.000000 0.000000 

0.000000 0.000000 0.000000 
0.000000 0.000000 0.000000 
0.000000 0.000000 0.000000 

0.000000 0.000000 0.000000 
0.000000 0.000000 0.000000 
0.000000 0.000000 0.000000 

0.000000 0.000000 0.000000 
0.000000 0.000000 0.000000 
0.000000 0.000000 0.000000 

-0.000000 0.000000 0.000000 
0.000000 -0.000000 0.000000 
0.000000 0.000000 0.000000 

0.000000 0.000000 0.000000 
0.000000 -0.000000 0.000000 
0.000000 0.000000 0.000000 

0.000000 0.000000 0.000000 
0.000000 -0.000000 0.000000 
0.000000 0.000000 0.000000 

0.000000 0.000000 0.000000 
0.000000 -0.000000 0.000000 
0.000000 0.000000 0.000000 

-0.000000 0.000000 0.000000 
0.000000 -0.000000 0.000000 
0.000000 0.000000 0.000000 

0.000000 0.000000 0.000000 
0.000000 0.000000 0.000000 
0.000000 0.000000 0.000000 

-0.000000 -0.000000 0.000000 
0.000000 -0.000000 0.000000 
0.000000 0.000000 0.000000 

0.000000 0.000000 0.000000 
0.000000 0.000000 0.000000 
0.000000 0.000000 0.000000 

0.000000 -0.000000 0.000000 
0.000000 -0.000000 0.000000 
0.000000 0.000000 0.000000 

0.000000 0.000000 0.000000 
0.000000 -0.000000 0.000000 
0.000000 0.000000 0.000000 

0.000000 0.000000 0.000000 
0.000000 -0.000000 0.000000 
0.000000 0.000000 0.000000 

-0.000000 0.000000 0.000000 
0.000000 -0.000000 0.000000 
0.000000 0.000000 0.000000 

-0.000000 -0.000000 0.000000 
0.000000 -0.000000 0.000000 
0.000000 0.000000 0.000000 

-0.000000 0.000000 0.000000 
0.000000 -0.000000 0.000000 
0.000000 0.000000 0.000000 

0.000000 -0.000000 0.000000 
0.000000 -0.000000 0.000000 
0.000000 0.000000 0.000000 

-0.000000 -0.000000 0.000000 
0.000000 -0.000000 0.000000 
0.000000 0.000000 0.000000 

-0.000000 -0.000000 0.000000 
0.000000 -0.000000 0.000000 
0.000000 0.000000 0.000000 

0.000000 -0.000000 0.000000 
0.000000 0.000000 0.000000 
0.000000 0.000000 0.000000 

0.000000 -0.000000 0.000000 
0.000000 0.000000 0.000000 
0.000000 0.000000 0.000000 

-0.000000 0.000000 0.000000 
0.000000 -0.000000 0.000000 
0.000000 0.000000 0.000000 

-0.000000 0.000000 0.000000 
0.000000 -0.000000 0.000000 
0.000000 0.000000 0.000000 

0.000000 -0.000000 0.000000 
0.000000 0.000000 0.000000 
0.000000 0.000000 0.000000 

-0.000000 0.000000 0.000000 
0.000000 0.000000 0.000000 
0.000000 0.000000 0.000000 

0.000000 0.000000 0.000000 
0.000000 0.000000 0.000000 
0.000000 0.000000 0.000000 

0.000000 0.000000 0.000000 
0.000000 0.000000 0.000000 
0.000000 0.000000 0.000000 

-0.000000 -0.000000 0.000000 
0.000000 -0.000000 0.000000 
0.000000 0.000000 0.000000 

-0.000000 0.000000 0.000000 
0.000000 -0.000000 0.000000 
0.000000 0.000000 0.000000 

-0.000000 0.000000 0.000000 
0.000000 -0.000000 0.000000 
0.000000 0.000000 0.000000 

-0.000000 -0.000000 0.000000 
0.000000 0.000000 0.000000 
0.000000 0.000000 0.000000 

0.000000 -0.000000 0.000000 
0.000000 0.000000 0.000000 
0.000000 0.000000 0.000000 

-0.000000 -0.000000 0.000000 
0.000000 -0.000000 0.000000 
0.000000 0.000000 0.000000 

-0.000000 -0.000000 0.000000 
0.000000 -0.000000 0.000000 
0.000000 0.000000 0.000000 

0.000000 0.000000 0.000000 
0.000000 0.000000 0.000000 
0.000000 0.000000 0.000000 

0.000000 0.000000 0.000000 
0.000000 -0.000000 0.000000 
0.000000 0.000000 0.000000 

0.000000 -0.000000 0.000000 
0.000000 -0.000000 0.000000 
0.000000 0.000000 0.000000 

0.000000 -0.000000 0.000000 
0.000000 0.000000 0.000000 
0.000000 0.000000 0.000000 

0.000000 -0.000000 0.000000 
0.000000 0.000000 0.000000 
0.000000 0.000000 0.000000 

0.000000 -0.000000 0.000000 
0.000000 0.000000 0.000000 
0.000000 0.000000 0.000000 

-0.000000 0.000000 0.000000 
0.000000 -0.000000 0.000000 
0.000000 0.000000 0.000000 

-0.000000 0.000000 0.000000 
0.000000 -0.000000 0.000000 
0.000000 0.000000 0.000000 

-0.000000 0.000000 0.000000 
0.000000 -0.000000 0.000000 
0.000000 0.000000 0.000000 

0.000000 0.000000 0.000000 
0.000000 0.000000 0.000000 
0.000000 0.000000 0.000000 

0.000000 -0.000000 0.000000 
0.000000 0.000000 0.000000 
0.000000 0.000000 0.000000 

0.000000 -0.000000 0.000000 
0.000000 0.000000 0.000000 
0.000000 0.000000 0.000000 

0.000000 -0.000000 0.000000 
0.000000 -0.000000 0.000000 
0.000000 0.000000 0.000000 

-0.000000 -0.000000 0.000000 
0.000000 -0.000000 0.000000 
0.000000 0.000000 0.000000 

0.000000 -0.000000 0.000000 
0.000000 -0.000000 0.000000 
0.000000 0.000000 0.000000 

-0.000000 0.000000 0.000000 
0.000000 0.000000 0.000000 
0.000000 0.000000 0.000000 

-0.000000 0.000000 0.000000 
0.000000 0.000000 0.000000 
0.000000 0.000000 0.000000 

0.000000 0.000000 0.000000 
0.000000 0.000000 0.000000 
0.000000 0.000000 0.000000 

0.000000 -0.000000 0.000000 
0.000000 -0.000000 0.000000 
0.000000 0.000000 0.000000 

-0.000000 -0.000000 0.000000 
0.000000 -0.000000 0.000000 
0.000000 0.000000 0.000000 

0.000000 0.000000 0.000000 
0.000000 0.000000 0.000000 
0.000000 0.000000 0.000000 

0.000000 -0.000000 0.000000 
0.000000 0.000000 0.000000 
0.000000 0.000000 0.000000 

0.000000 -0.000000 0.000000 
0.000000 0.000000 0.000000 
0.000000 0.000000 0.000000 

0.000000 0.000000 0.000000 
0.000000 0.000000 0.000000 
0.000000 0.000000 0.000000 

0.000000 -0.000000 0.000000 
0.000000 0.000000 0.000000 
0.000000 0.000000 0.000000 

0.000000 -0.000000 0.000000 
0.000000 0.000000 0.000000 
0.000000 0.000000 0.000000 

0.000000 0.000000 0.000000 
0.000000 0.000000 0.000000 
0.000000 0.000000 0.000000 

0.000000 0.000000 0.000000 
0.000000 0.000000 0.000000 
0.000000 0.000000 0.000000 

0.000000 -0.000000 0.000000 
0.000000 0.000000 0.000000 
0.000000 0.000000 0.000000 

-0.000000 -0.000000 0.000000 
0.000000 -0.000000 0.000000 
0.000000 0.000000 0.000000 

-0.000000 0.000000 0.000000 
0.000000 -0.000000 0.000000 
0.000000 0.000000 0.000000 

0.000000 0.000000 0.000000 
0.000000 0.000000 0.000000 
0.000000 0.000000 0.000000 

-0.000000 0.000000 0.000000 
0.000000 0.000000 0.000000 
0.000000 0.000000 0.000000 

0.000000 -0.000000 0.000000 
0.000000 0.000000 0.000000 
0.000000 0.000000 0.000000 

-0.000000 -0.000000 0.000000 
0.000000 -0.000000 0.000000 
0.000000 0.000000 0.000000 

0.000000 -0.000000 0.000000 
0.000000 0.000000 0.000000 
0.000000 0.000000 0.000000 

0.000000 -0.000000 0.000000 
0.000000 0.000000 0.000000 
0.000000 0.000000 0.000000 

0.000000 -0.000000 0.000000 
0.000000 0.000000 0.000000 
0.000000 0.000000 0.000000 

0.000000 -0.000000 0.000000 
0.000000 0.000000 0.000000 
0.000000 0.000000 0.000000 

0.000000 -0.000000 0.000000 
0.000000 -0.000000 0.000000 
0.000000 0.000000 0.000000 

-0.000000 0.000000 0.000000 
0.000000 0.000000 0.000000 
0.000000 0.000000 0.000000 

-0.000000 0.000000 0.000000 
0.000000 -0.000000 0.000000 
0.000000 0.000000 0.000000 

0.000000 0.000000 0.000000 
0.000000 0.000000 0.000000 
0.000000 0.000000 0.000000 

0.000000 -0.000000 0.000000 
0.000000 0.000000 0.000000 
0.000000 0.000000 0.000000 

0.000000 0.000000 0.000000 
0.000000 0.000000 0.000000 
0.000000 0.000000 0.000000 

0.000000 -0.000000 0.000000 
0.000000 0.000000 0.000000 
0.000000 0.000000 0.000000 

0.000000 -0.000000 0.000000 
0.000000 0.000000 0.000000 
0.000000 0.000000 0.000000 

0.000000 -0.000000 0.000000 
0.000000 0.000000 0.000000 
0.000000 0.000000 0.000000 

0.000000 -0.000000 0.000000 
0.000000 0.000000 0.000000 
0.000000 0.000000 0.000000 

0.000000 -0.000000 0.000000 
0.000000 0.000000 0.000000 
0.000000 0.000000 0.000000 

-0.000000 -0.000000 0.000000 
0.000000 -0.000000 0.000000 
0.000000 0.000000 0.000000 

-0.000000 -0.000000 0.000000 
0.000000 -0.000000 0.000000 
0.000000 0.000000 0.000000 

-0.000000 -0.000000 0.000000 
0.000000 -0.000000 0.000000 
0.000000 0.000000 0.000000 

0.000000 -0.000000 0.000000 
0.000000 0.000000 0.000000 
0.000000 0.000000 0.000000 

0.000000 0.000000 0.000000 
0.000000 -0.000000 0.000000 
0.000000 0.000000 0.000000 

0.000000 -0.000000 0.000000 
0.000000 0.000000 0.000000 
0.000000 0.000000 0.000000 

0.000000 -0.000000 0.000000 
0.000000 0.000000 0.000000 
0.000000 0.000000 0.000000 

0.000000 0.000000 0.000000 
0.000000 -0.000000 0.000000 
0.000000 0.000000 0.000000 

-0.000000 -0.000000 0.000000 
0.000000 -0.000000 0.000000 
0.000000 0.000000 0.000000 

-0.000000 -0.000000 0.000000 
0.000000 -0.000000 0.000000 
0.000000 0.000000 0.000000 

-0.000000 -0.000000 0.000000 
0.000000 -0.000000 0.000000 
0.000000 0.000000 0.000000 

-0.000000 -0.000000 0.000000 
0.000000 -0.000000 0.000000 
0.000000 0.000000 0.000000 

-0.000000 0.000000 0.000000 
0.000000 -0.000000 0.000000 
0.000000 0.000000 0.000000 

-0.000000 0.000000 0.000000 
0.000000 -0.000000 0.000000 
0.000000 0.000000 0.000000 

0.000000 -0.000000 0.000000 
0.000000 0.000000 0.000000 
0.000000 0.000000 0.000000 

-0.000000 0.000000 0.000000 
0.000000 -0.000000 0.000000 
0.000000 0.000000 0.000000 

-0.000000 0.000000 0.000000 
0.000000 -0.000000 0.000000 
0.000000 0.000000 0.000000 

-0.000000 0.000000 0.000000 
0.000000 -0.000000 0.000000 
0.000000 0.000000 0.000000 

-0.000000 0.000000 0.000000 
0.000000 0.000000 0.000000 
0.000000 0.000000 0.000000 

-0.000000 0.000000 0.000000 
0.000000 -0.000000 0.000000 
0.000000 0.000000 0.000000 

-0.000000 -0.000000 0.000000 
0.000000 -0.000000 0.000000 
0.000000 0.000000 0.000000 

-0.000000 0.000000 0.000000 
0.000000 -0.000000 0.000000 
0.000000 0.000000 0.000000 

0.000000 -0.000000 0.000000 
0.000000 0.000000 0.000000 
0.000000 0.000000 0.000000 

0.000000 0.000000 0.000000 
0.000000 0.000000 0.000000 
0.000000 0.000000 0.000000 

0.000000 -0.000000 0.000000 
0.000000 0.000000 0.000000 
0.000000 0.000000 0.000000 

0.000000 -0.000000 0.000000 
0.000000 -0.000000 0.000000 
0.000000 0.000000 0.000000 

0.000000 -0.000000 0.000000 
0.000000 -0.000000 0.000000 
0.000000 0.000000 0.000000 

-0.000000 -0.000000 0.000000 
0.000000 -0.000000 0.000000 
0.000000 0.000000 0.000000 

-0.000000 -0.000000 0.000000 
0.000000 -0.000000 0.000000 
0.000000 0.000000 0.000000 

0.000000 -0.000000 0.000000 
0.000000 0.000000 0.000000 
0.000000 0.000000 0.000000 

0.000000 0.000000 0.000000 
0.000000 0.000000 0.000000 
0.000000 0.000000 0.000000 

0.000000 0.000000 0.000000 
0.000000 0.000000 0.000000 
0.000000 0.000000 0.000000 

0.000000 -0.000000 0.000000 
0.000000 0.000000 0.000000 
0.000000 0.000000 0.000000 

-0.000000 0.000000 0.000000 
0.000000 -0.000000 0.000000 
0.000000 0.000000 0.000000 

0.000000 -0.000000 0.000000 
0.000000 0.000000 0.000000 
0.000000 0.000000 0.000000 

0.000000 -0.000000 0.000000 
0.000000 -0.000000 0.000000 
0.000000 0.000000 0.000000 

0.000000 -0.000000 0.000000 
0.000000 0.000000 0.000000 
0.000000 0.000000 0.000000 

0.000000 -0.000000 0.000000 
0.000000 0.000000 0.000000 
0.000000 0.000000 0.000000 

0.000000 -0.000000 0.000000 
0.000000 0.000000 0.000000 
0.000000 0.000000 0.000000 

0.000000 -0.000000 0.000000 
0.000000 0.000000 0.000000 
0.000000 0.000000 0.000000 

0.000000 -0.000000 0.000000 
0.000000 -0.000000 0.000000 
0.000000 0.000000 0.000000 

0.000000 -0.000000 0.000000 
0.000000 0.000000 0.000000 
0.000000 0.000000 0.000000 

-0.000000 0.000000 0.000000 
0.000000 -0.000000 0.000000 
0.000000 0.000000 0.000000 

0.000000 0.000000 0.000000 
0.000000 0.000000 0.000000 
0.000000 0.000000 0.000000 

0.000000 -0.000000 0.000000 
0.000000 0.000000 0.000000 
0.000000 0.000000 0.000000 

0.000000 -0.000000 0.000000 
0.000000 0.000000 0.000000 
0.000000 0.000000 0.000000 

0.000000 0.000000 0.000000 
0.000000 0.000000 0.000000 
0.000000 0.000000 0.000000 

0.000000 0.000000 0.000000 
0.000000 0.000000 0.000000 
0.000000 0.000000 0.000000 

0.000000 -0.000000 0.000000 
0.000000 -0.000000 0.000000 
0.000000 0.000000 0.000000 

-0.000000 -0.000000 0.000000 
0.000000 -0.000000 0.000000 
0.000000 0.000000 0.000000 

0.000000 -0.000000 0.000000 
0.000000 -0.000000 0.000000 
0.000000 0.000000 0.000000 

0.000000 -0.000000 0.000000 
0.000000 0.000000 0.000000 
0.000000 0.000000 0.000000 

0.000000 -0.000000 0.000000 
0.000000 0.000000 0.000000 
0.000000 0.000000 0.000000 

0.000000 0.000000 0.000000 
0.000000 0.000000 0.000000 
0.000000 0.000000 0.000000 

0.000000 0.000000 0.000000 
0.000000 0.000000 0.000000 
0.000000 0.000000 0.000000 

-0.000000 -0.000000 0.000000 
0.000000 -0.000000 0.000000 
0.000000 0.000000 0.000000 

0.000000 0.000000 0.000000 
0.000000 0.000000 0.000000 
0.000000 0.000000 0.000000 

0.000000 -0.000000 0.000000 
0.000000 0.000000 0.000000 
0.000000 0.000000 0.000000 

0.000000 -0.000000 0.000000 
0.000000 0.000000 0.000000 
0.000000 0.000000 0.000000 

0.000000 0.000000 0.000000 
0.000000 -0.000000 0.000000 
0.000000 0.000000 0.000000 

0.000000 0.000000 0.000000 
0.000000 0.000000 0.000000 
0.000000 0.000000 0.000000 

0.000000 0.000000 0.000000 
0.000000 0.000000 0.000000 
0.000000 0.000000 0.000000 

0.000000 -0.000000 0.000000 
0.000000 0.000000 0.000000 
0.000000 0.000000 0.000000 

0.000000 -0.000000 0.000000 
0.000000 0.000000 0.000000 
0.000000 0.000000 0.000000 

TENSORS STRAIN float 
0.000000 -0.000000 0.000000 
0.000000 0.000000 0.000000 
0.000000 0.000000 0.000000 

0.000000 0.000000 0.000000 
0.000000 0.000000 0.000000 
0.000000 0.000000 0.000000 

0.000000 -0.000000 0.000000 
0.000000 0.000000 0.000000 
0.000000 0.000000 0.000000 

0.000000 -0.000000 0.000000 
0.000000 -0.000000 0.000000 
0.000000 0.000000 0.000000 

0.000000 0.000000 0.000000 
0.000000 -0.000000 0.000000 
0.000000 0.000000 0.000000 

0.000000 0.000000 0.000000 
0.000000 0.000000 0.000000 
0.000000 0.000000 0.000000 

0.000000 0.000000 0.000000 
0.000000 -0.000000 0.000000 
0.000000 0.000000 0.000000 

0.000000 0.000000 0.000000 
0.000000 -0.000000 0.000000 
0.000000 0.000000 0.000000 

-0.000000 0.000000 0.000000 
0.000000 -0.000000 0.000000 
0.000000 0.000000 0.000000 

-0.000000 -0.000000 0.000000 
0.000000 0.000000 0.000000 
0.000000 0.000000 0.000000 

0.000000 0.000000 0.000000 
0.000000 -0.000000 0.000000 
0.000000 0.000000 0.000000 

0.000000 0.000000 0.000000 
0.000000 0.000000 0.000000 
0.000000 0.000000 0.000000 

0.000000 0.000000 0.000000 
0.000000 0.000000 0.000000 
0.000000 0.000000 0.000000 

-0.000000 -0.000000 0.000000 
0.000000 0.000000 0.000000 
0.000000 0.000000 0.000000 

0.000000 -0.000000 0.000000 
0.000000 -0.000000 0.000000 
0.000000 0.000000 0.000000 

0.000000 -0.000000 0.000000 
0.000000 -0.000000 0.000000 
0.000000 0.000000 0.000000 

0.000000 -0.000000 0.000000 
0.000000 -0.000000 0.000000 
0.000000 0.000000 0.000000 

0.000000 0.000000 0.000000 
0.000000 0.000000 0.000000 
0.000000 0.000000 0.000000 

0.000000 0.000000 0.000000 
0.000000 0.000000 0.000000 
0.000000 0.000000 0.000000 

-0.000000 0.000000 0.000000 
0.000000 0.000000 0.000000 
0.000000 0.000000 0.000000 

-0.000000 -0.000000 0.000000 
0.000000 0.000000 0.000000 
0.000000 0.000000 0.000000 

-0.000000 -0.000000 0.000000 
0.000000 0.000000 0.000000 
0.000000 0.000000 0.000000 

-0.000000 -0.000000 0.000000 
0.000000 0.000000 0.000000 
0.000000 0.000000 0.000000 

0.000000 0.000000 0.000000 
0.000000 0.000000 0.000000 
0.000000 0.000000 0.000000 

-0.000000 0.000000 0.000000 
0.000000 -0.000000 0.000000 
0.000000 0.000000 0.000000 

0.000000 -0.000000 0.000000 
0.000000 0.000000 0.000000 
0.000000 0.000000 0.000000 

0.000000 0.000000 0.000000 
0.000000 -0.000000 0.000000 
0.000000 0.000000 0.000000 

0.000000 0.000000 0.000000 
0.000000 0.000000 0.000000 
0.000000 0.000000 0.000000 

0.000000 0.000000 0.000000 
0.000000 0.000000 0.000000 
0.000000 0.000000 0.000000 

0.000000 0.000000 0.000000 
0.000000 -0.000000 0.000000 
0.000000 0.000000 0.000000 

0.000000 0.000000 0.000000 
0.000000 -0.000000 0.000000 
0.000000 0.000000 0.000000 

0.000000 0.000000 0.000000 
0.000000 -0.000000 0.000000 
0.000000 0.000000 0.000000 

0.000000 0.000000 0.000000 
0.000000 -0.000000 0.000000 
0.000000 0.000000 0.000000 

0.000000 0.000000 0.000000 
0.000000 -0.000000 0.000000 
0.000000 0.000000 0.000000 

0.000000 0.000000 0.000000 
0.000000 0.000000 0.000000 
0.000000 0.000000 0.000000 

-0.000000 -0.000000 0.000000 
0.000000 -0.000000 0.000000 
0.000000 0.000000 0.000000 

0.000000 0.000000 0.000000 
0.000000 0.000000 0.000000 
0.000000 0.000000 0.000000 

0.000000 -0.000000 0.000000 
0.000000 -0.000000 0.000000 
0.000000 0.000000 0.000000 

0.000000 0.000000 0.000000 
0.000000 -0.000000 0.000000 
0.000000 0.000000 0.000000 

0.000000 0.000000 0.000000 
0.000000 -0.000000 0.000000 
0.000000 0.000000 0.000000 

0.000000 0.000000 0.000000 
0.000000 -0.000000 0.000000 
0.000000 0.000000 0.000000 

0.000000 -0.000000 0.000000 
0.000000 -0.000000 0.000000 
0.000000 0.000000 0.000000 

0.000000 0.000000 0.000000 
0.000000 -0.000000 0.000000 
0.000000 0.000000 0.000000 

0.000000 -0.000000 0.000000 
0.000000 -0.000000 0.000000 
0.000000 0.000000 0.000000 

0.000000 -0.000000 0.000000 
0.000000 -0.000000 0.000000 
0.000000 0.000000 0.000000 

0.000000 -0.000000 0.000000 
0.000000 -0.000000 0.000000 
0.000000 0.000000 0.000000 

0.000000 -0.000000 0.000000 
0.000000 0.000000 0.000000 
0.000000 0.000000 0.000000 

0.000000 -0.000000 0.000000 
0.000000 0.000000 0.000000 
0.000000 0.000000 0.000000 

-0.000000 0.000000 0.000000 
0.000000 -0.000000 0.000000 
0.000000 0.000000 0.000000 

-0.000000 0.000000 0.000000 
0.000000 -0.000000 0.000000 
0.000000 0.000000 0.000000 

0.000000 -0.000000 0.000000 
0.000000 0.000000 0.000000 
0.000000 0.000000 0.000000 

-0.000000 0.000000 0.000000 
0.000000 0.000000 0.000000 
0.000000 0.000000 0.000000 

-0.000000 0.000000 0.000000 
0.000000 0.000000 0.000000 
0.000000 0.000000 0.000000 

-0.000000 0.000000 0.000000 
0.000000 0.000000 0.000000 
0.000000 0.000000 0.000000 

-0.000000 -0.000000 0.000000 
0.000000 -0.000000 0.000000 
0.000000 0.000000 0.000000 

-0.000000 0.000000 0.000000 
0.000000 -0.000000 0.000000 
0.000000 0.000000 0.000000 

-0.000000 0.000000 0.000000 
0.000000 -0.000000 0.000000 
0.000000 0.000000 0.000000 

-0.000000 -0.000000 0.000000 
0.000000 0.000000 0.000000 
0.000000 0.000000 0.000000 

0.000000 -0.000000 0.000000 
0.000000 0.000000 0.000000 
0.000000 0.000000 0.000000 

0.000000 -0.000000 0.000000 
0.000000 -0.000000 0.000000 
0.000000 0.000000 0.000000 

-0.000000 -0.000000 0.000000 
0.000000 -0.000000 0.000000 
0.000000 0.000000 0.000000 

0.000000 0.000000 0.000000 
0.000000 0.000000 0.000000 
0.000000 0.000000 0.000000 

0.000000 0.000000 0.000000 
0.000000 -0.000000 0.000000 
0.000000 0.000000 0.000000 

0.000000 -0.000000 0.000000 
0.000000 -0.000000 0.000000 
0.000000 0.000000 0.000000 

0.000000 -0.000000 0.000000 
0.000000 0.000000 0.000000 
0.000000 0.000000 0.000000 

0.000000 -0.000000 0.000000 
0.000000 0.000000 0.000000 
0.000000 0.000000 0.000000 

0.000000 -0.000000 0.000000 
0.000000 -0.000000 0.000000 
0.000000 0.000000 0.000000 

-0.000000 0.000000 0.000000 
0.000000 -0.000000 0.000000 
0.000000 0.000000 0.000000 

-0.000000 0.000000 0.000000 
0.000000 -0.000000 0.000000 
0.000000 0.000000 0.000000 

0.000000 0.000000 0.000000 
0.000000 -0.000000 0.000000 
0.000000 0.000000 0.000000 

0.000000 0.000000 0.000000 
0.000000 0.000000 0.000000 
0.000000 0.000000 0.000000 

0.000000 -0.000000 0.000000 
0.000000 -0.000000 0.000000 
0.000000 0.000000 0.000000 

0.000000 -0.000000 0.000000 
0.000000 -0.000000 0.000000 
0.000000 0.000000 0.000000 

0.000000 -0.000000 0.000000 
0.000000 -0.000000 0.000000 
0.000000 0.000000 0.000000 

0.000000 -0.000000 0.000000 
0.000000 -0.000000 0.000000 
0.000000 0.000000 0.000000 

0.000000 -0.000000 0.000000 
0.000000 -0.000000 0.000000 
0.000000 0.000000 0.000000 

-0.000000 0.000000 0.000000 
0.000000 0.000000 0.000000 
0.000000 0.000000 0.000000 

-0.000000 0.000000 0.000000 
0.000000 0.000000 0.000000 
0.000000 0.000000 0.000000 

-0.000000 0.000000 0.000000 
0.000000 0.000000 0.000000 
0.000000 0.000000 0.000000 

0.000000 -0.000000 0.000000 
0.000000 -0.000000 0.000000 
0.000000 0.000000 0.000000 

-0.000000 -0.000000 0.000000 
0.000000 0.000000 0.000000 
0.000000 0.000000 0.000000 

-0.000000 0.000000 0.000000 
0.000000 0.000000 0.000000 
0.000000 0.000000 0.000000 

-0.000000 -0.000000 0.000000 
0.000000 0.000000 0.000000 
0.000000 0.000000 0.000000 

-0.000000 -0.000000 0.000000 
0.000000 0.000000 0.000000 
0.000000 0.000000 0.000000 

-0.000000 0.000000 0.000000 
0.000000 0.000000 0.000000 
0.000000 0.000000 0.000000 

0.000000 -0.000000 0.000000 
0.000000 0.000000 0.000000 
0.000000 0.000000 0.000000 

0.000000 -0.000000 0.000000 
0.000000 0.000000 0.000000 
0.000000 0.000000 0.000000 

-0.000000 0.000000 0.000000 
0.000000 0.000000 0.000000 
0.000000 0.000000 0.000000 

0.000000 0.000000 0.000000 
0.000000 0.000000 0.000000 
0.000000 0.000000 0.000000 

0.000000 -0.000000 0.000000 
0.000000 0.000000 0.000000 
0.000000 0.000000 0.000000 

0.000000 -0.000000 0.000000 
0.000000 -0.000000 0.000000 
0.000000 0.000000 0.000000 

-0.000000 0.000000 0.000000 
0.000000 0.000000 0.000000 
0.000000 0.000000 0.000000 

-0.000000 0.000000 0.000000 
0.000000 0.000000 0.000000 
0.000000 0.000000 0.000000 

-0.000000 0.000000 0.000000 
0.000000 0.000000 0.000000 
0.000000 0.000000 0.000000 

0.000000 -0.000000 0.000000 
0.000000 0.000000 0.000000 
0.000000 0.000000 0.000000 

0.000000 -0.000000 0.000000 
0.000000 -0.000000 0.000000 
0.000000 0.000000 0.000000 

0.000000 -0.000000 0.000000 
0.000000 -0.000000 0.000000 
0.000000 0.000000 0.000000 

0.000000 -0.000000 0.000000 
0.000000 -0.000000 0.000000 
0.000000 0.000000 0.000000 

0.000000 -0.000000 0.000000 
0.000000 0.000000 0.000000 
0.000000 0.000000 0.000000 

0.000000 -0.000000 0.000000 
0.000000 0.000000 0.000000 
0.000000 0.000000 0.000000 

0.000000 -0.000000 0.000000 
0.000000 -0.000000 0.000000 
0.000000 0.000000 0.000000 

-0.000000 0.000000 0.000000 
0.000000 0.000000 0.000000 
0.000000 0.000000 0.000000 

-0.000000 0.000000 0.000000 
0.000000 -0.000000 0.000000 
0.000000 0.000000 0.000000 

-0.000000 0.000000 0.000000 
0.000000 0.000000 0.000000 
0.000000 0.000000 0.000000 

-0.000000 -0.000000 0.000000 
0.000000 0.000000 0.000000 
0.000000 0.000000 0.000000 

-0.000000 0.000000 0.000000 
0.000000 0.000000 0.000000 
0.000000 0.000000 0.000000 

0.000000 -0.000000 0.000000 
0.000000 0.000000 0.000000 
0.000000 0.000000 0.000000 

0.000000 -0.000000 0.000000 
0.000000 0.000000 0.000000 
0.000000 0.000000 0.000000 

0.000000 -0.000000 0.000000 
0.000000 0.000000 0.000000 
0.000000 0.000000 0.000000 

-0.000000 -0.000000 0.000000 
0.000000 0.000000 0.000000 
0.000000 0.000000 0.000000 

0.000000 -0.000000 0.000000 
0.000000 0.000000 0.000000 
0.000000 0.000000 0.000000 

-0.000000 -0.000000 0.000000 
0.000000 -0.000000 0.000000 
0.000000 0.000000 0.000000 

-0.000000 -0.000000 0.000000 
0.000000 -0.000000 0.000000 
0.000000 0.000000 0.000000 

-0.000000 -0.000000 0.000000 
0.000000 -0.000000 0.000000 
0.000000 0.000000 0.000000 

0.000000 -0.000000 0.000000 
0.000000 0.000000 0.000000 
0.000000 0.000000 0.000000 

0.000000 0.000000 0.000000 
0.000000 -0.000000 0.000000 
0.000000 0.000000 0.000000 

0.000000 -0.000000 0.000000 
0.000000 0.000000 0.000000 
0.000000 0.000000 0.000000 

0.000000 -0.000000 0.000000 
0.000000 0.000000 0.000000 
0.000000 0.000000 0.000000 

0.000000 0.000000 0.000000 
0.000000 -0.000000 0.000000 
0.000000 0.000000 0.000000 

-0.000000 -0.000000 0.000000 
0.000000 -0.000000 0.000000 
0.000000 0.000000 0.000000 

-0.000000 -0.000000 0.000000 
0.000000 -0.000000 0.000000 
0.000000 0.000000 0.000000 

-0.000000 -0.000000 0.000000 
0.000000 -0.000000 0.000000 
0.000000 0.000000 0.000000 

-0.000000 -0.000000 0.000000 
0.000000 -0.000000 0.000000 
0.000000 0.000000 0.000000 

-0.000000 0.000000 0.000000 
0.000000 -0.000000 0.000000 
0.000000 0.000000 0.000000 

-0.000000 0.000000 0.000000 
0.000000 -0.000000 0.000000 
0.000000 0.000000 0.000000 

0.000000 -0.000000 0.000000 
0.000000 0.000000 0.000000 
0.000000 0.000000 0.000000 

-0.000000 0.000000 0.000000 
0.000000 -0.000000 0.000000 
0.000000 0.000000 0.000000 

-0.000000 0.000000 0.000000 
0.000000 0.000000 0.000000 
0.000000 0.000000 0.000000 

-0.000000 0.000000 0.000000 
0.000000 -0.000000 0.000000 
0.000000 0.000000 0.000000 

-0.000000 0.000000 0.000000 
0.000000 0.000000 0.000000 
0.000000 0.000000 0.000000 

-0.000000 0.000000 0.000000 
0.000000 -0.000000 0.000000 
0.000000 0.000000 0.000000 

0.000000 -0.000000 0.000000 
0.000000 -0.000000 0.000000 
0.000000 0.000000 0.000000 

-0.000000 0.000000 0.000000 
0.000000 -0.000000 0.000000 
0.000000 0.000000 0.000000 

-0.000000 -0.000000 0.000000 
0.000000 0.000000 0.000000 
0.000000 0.000000 0.000000 

0.000000 0.000000 0.000000 
0.000000 0.000000 0.000000 
0.000000 0.000000 0.000000 

0.000000 -0.000000 0.000000 
0.000000 0.000000 0.000000 
0.000000 0.000000 0.000000 

0.000000 -0.000000 0.000000 
0.000000 -0.000000 0.000000 
0.000000 0.000000 0.000000 

0.000000 -0.000000 0.000000 
0.000000 -0.000000 0.000000 
0.000000 0.000000 0.000000 

0.000000 -0.000000 0.000000 
0.000000 -0.000000 0.000000 
0.000000 0.000000 0.000000 

-0.000000 -0.000000 0.000000 
0.000000 -0.000000 0.000000 
0.000000 0.000000 0.000000 

-0.000000 -0.000000 0.000000 
0.000000 0.000000 0.000000 
0.000000 0.000000 0.000000 

0.000000 0.000000 0.000000 
0.000000 0.000000 0.000000 
0.000000 0.000000 0.000000 

0.000000 0.000000 0.000000 
0.000000 0.000000 0.000000 
0.000000 0.000000 0.000000 

0.000000 -0.000000 0.000000 
0.000000 0.000000 0.000000 
0.000000 0.000000 0.000000 

0.000000 0.000000 0.000000 
0.000000 -0.000000 0.000000 
0.000000 0.000000 0.000000 

0.000000 -0.000000 0.000000 
0.000000 0.000000 0.000000 
0.000000 0.000000 0.000000 

0.000000 -0.000000 0.000000 
0.000000 -0.000000 0.000000 
0.000000 0.000000 0.000000 

0.000000 -0.000000 0.000000 
0.000000 0.000000 0.000000 
0.000000 0.000000 0.000000 

0.000000 -0.000000 0.000000 
0.000000 0.000000 0.000000 
0.000000 0.000000 0.000000 

0.000000 -0.000000 0.000000 
0.000000 0.000000 0.000000 
0.000000 0.000000 0.000000 

0.000000 -0.000000 0.000000 
0.000000 0.000000 0.000000 
0.000000 0.000000 0.000000 

0.000000 -0.000000 0.000000 
0.000000 -0.000000 0.000000 
0.000000 0.000000 0.000000 

0.000000 -0.000000 0.000000 
0.000000 0.000000 0.000000 
0.000000 0.000000 0.000000 

-0.000000 0.000000 0.000000 
0.000000 -0.000000 0.000000 
0.000000 0.000000 0.000000 

-0.000000 0.000000 0.000000 
0.000000 0.000000 0.000000 
0.000000 0.000000 0.000000 

0.000000 -0.000000 0.000000 
0.000000 0.000000 0.000000 
0.000000 0.000000 0.000000 

0.000000 -0.000000 0.000000 
0.000000 0.000000 0.000000 
0.000000 0.000000 0.000000 

-0.000000 0.000000 0.000000 
0.000000 0.000000 0.000000 
0.000000 0.000000 0.000000 

-0.000000 0.000000 0.000000 
0.000000 0.000000 0.000000 
0.000000 0.000000 0.000000 

0.000000 -0.000000 0.000000 
0.000000 -0.000000 0.000000 
0.000000 0.000000 0.000000 

0.000000 -0.000000 0.000000 
0.000000 -0.000000 0.000000 
0.000000 0.000000 0.000000 

0.000000 -0.000000 0.000000 
0.000000 -0.000000 0.000000 
0.000000 0.000000 0.000000 

0.000000 -0.000000 0.000000 
0.000000 0.000000 0.000000 
0.000000 0.000000 0.000000 

0.000000 -0.000000 0.000000 
0.000000 0.000000 0.000000 
0.000000 0.000000 0.000000 

0.000000 0.000000 0.000000 
0.000000 0.000000 0.000000 
0.000000 0.000000 0.000000 

0.000000 0.000000 0.000000 
0.000000 0.000000 0.000000 
0.000000 0.000000 0.000000 

-0.000000 -0.000000 0.000000 
0.000000 -0.000000 0.000000 
0.000000 0.000000 0.000000 

0.000000 0.000000 0.000000 
0.000000 0.000000 0.000000 
0.000000 0.000000 0.000000 

0.000000 -0.000000 0.000000 
0.000000 0.000000 0.000000 
0.000000 0.000000 0.000000 

0.000000 -0.000000 0.000000 
0.000000 0.000000 0.000000 
0.000000 0.000000 0.000000 

0.000000 0.000000 0.000000 
0.000000 -0.000000 0.000000 
0.000000 0.000000 0.000000 

0.000000 0.000000 0.000000 
0.000000 0.000000 0.000000 
0.000000 0.000000 0.000000 

0.000000 0.000000 0.000000 
0.000000 0.000000 0.000000 
0.000000 0.000000 0.000000 

0.000000 -0.000000 0.000000 
0.000000 0.000000 0.000000 
0.000000 0.000000 0.000000 

0.000000 -0.000000 0.000000 
0.000000 0.000000 0.000000 
0.000000 0.000000 0.000000 

