# vtk DataFile Version 3.0 
vtk output 
ASCII 
DATASET UNSTRUCTURED_GRID 
POINTS 175 float 
-0.026061 -0.327694 0.000000 
-0.106992 -0.259638 0.000000 
-0.054870 -0.267871 0.000000 
-0.028809 -0.221987 0.000000 
-0.186430 -0.195563 0.000000 
-0.137056 -0.198089 0.000000 
-0.114311 -0.144442 0.000000 
-0.058186 -0.160107 0.000000 
-0.029377 -0.119930 0.000000 
-0.265318 -0.132407 0.000000 
-0.217198 -0.133207 0.000000 
-0.196633 -0.075910 0.000000 
-0.143120 -0.084619 0.000000 
-0.116563 -0.037350 0.000000 
-0.058945 -0.056996 0.000000 
-0.029568 -0.018876 0.000000 
-0.344206 -0.069251 0.000000 
-0.296791 -0.069244 0.000000 
-0.278030 -0.009301 0.000000 
-0.225992 -0.015168 0.000000 
-0.201664 0.036949 0.000000 
-0.145749 0.023475 0.000000 
-0.117890 0.067818 0.000000 
-0.059328 0.045112 0.000000 
-0.029759 0.082178 0.000000 
-0.058559 -0.368444 0.000000 
-0.162226 -0.389287 0.000000 
-0.123292 -0.353669 0.000000 
-0.142917 -0.304686 0.000000 
-0.261851 -0.411444 0.000000 
-0.229092 -0.374416 0.000000 
-0.256854 -0.323185 0.000000 
-0.209613 -0.289072 0.000000 
-0.223062 -0.241498 0.000000 
-0.360414 -0.433744 0.000000 
-0.329787 -0.396621 0.000000 
-0.361761 -0.344819 0.000000 
-0.321587 -0.308410 0.000000 
-0.341985 -0.258176 0.000000 
-0.290702 -0.225377 0.000000 
-0.302189 -0.178642 0.000000 
-0.458977 -0.456044 0.000000 
-0.429420 -0.418969 0.000000 
-0.464588 -0.366927 0.000000 
-0.427556 -0.329900 0.000000 
-0.453135 -0.278385 0.000000 
-0.407738 -0.243070 0.000000 
-0.425037 -0.193642 0.000000 
-0.370772 -0.162013 0.000000 
-0.381315 -0.115785 0.000000 
-0.046960 -0.419260 0.000000 
-0.095301 -0.513306 0.000000 
-0.098873 -0.460658 0.000000 
-0.149405 -0.445461 0.000000 
-0.140093 -0.605010 0.000000 
-0.148617 -0.556311 0.000000 
-0.205981 -0.546074 0.000000 
-0.203197 -0.487871 0.000000 
-0.248777 -0.468724 0.000000 
-0.184111 -0.695973 0.000000 
-0.194039 -0.648882 0.000000 
-0.254475 -0.641583 0.000000 
-0.257893 -0.587473 0.000000 
-0.309886 -0.572100 0.000000 
-0.303554 -0.511555 0.000000 
-0.347255 -0.491397 0.000000 
-0.228129 -0.786937 0.000000 
-0.238687 -0.740713 0.000000 
-0.301302 -0.735760 0.000000 
-0.307162 -0.683722 0.000000 
-0.363386 -0.671601 0.000000 
-0.362692 -0.614089 0.000000 
-0.412122 -0.596796 0.000000 
-0.403017 -0.534649 0.000000 
-0.445733 -0.514071 0.000000 
-0.000000 -0.441875 0.000000 
0.043388 -0.538305 0.000000 
-0.000000 -0.508273 0.000000 
-0.043388 -0.538305 0.000000 
0.087158 -0.630502 0.000000 
0.043769 -0.606803 0.000000 
-0.000000 -0.645269 0.000000 
-0.043769 -0.606803 0.000000 
-0.087158 -0.630502 0.000000 
0.130831 -0.721632 0.000000 
0.087824 -0.700033 0.000000 
0.044436 -0.742732 0.000000 
-0.000000 -0.711667 0.000000 
-0.044436 -0.742732 0.000000 
-0.087824 -0.700033 0.000000 
-0.130831 -0.721632 0.000000 
0.174505 -0.812761 0.000000 
0.131782 -0.792195 0.000000 
0.088871 -0.838062 0.000000 
0.044532 -0.810198 0.000000 
-0.000000 -0.846598 0.000000 
-0.044532 -0.810198 0.000000 
-0.088871 -0.838062 0.000000 
-0.131782 -0.792195 0.000000 
-0.174505 -0.812761 0.000000 
0.046960 -0.419260 0.000000 
0.149405 -0.445461 0.000000 
0.098873 -0.460658 0.000000 
0.095301 -0.513306 0.000000 
0.248777 -0.468724 0.000000 
0.203197 -0.487871 0.000000 
0.205981 -0.546074 0.000000 
0.148617 -0.556311 0.000000 
0.140093 -0.605010 0.000000 
0.347255 -0.491397 0.000000 
0.303554 -0.511555 0.000000 
0.309886 -0.572100 0.000000 
0.257893 -0.587473 0.000000 
0.254475 -0.641583 0.000000 
0.194039 -0.648882 0.000000 
0.184111 -0.695973 0.000000 
0.445733 -0.514071 0.000000 
0.403017 -0.534649 0.000000 
0.412122 -0.596796 0.000000 
0.362692 -0.614089 0.000000 
0.363386 -0.671601 0.000000 
0.307162 -0.683722 0.000000 
0.301302 -0.735760 0.000000 
0.238687 -0.740713 0.000000 
0.228129 -0.786937 0.000000 
0.058559 -0.368444 0.000000 
0.142917 -0.304686 0.000000 
0.123292 -0.353669 0.000000 
0.162226 -0.389287 0.000000 
0.223062 -0.241498 0.000000 
0.209613 -0.289072 0.000000 
0.256854 -0.323185 0.000000 
0.229092 -0.374416 0.000000 
0.261851 -0.411444 0.000000 
0.302189 -0.178642 0.000000 
0.290702 -0.225377 0.000000 
0.341985 -0.258176 0.000000 
0.321587 -0.308410 0.000000 
0.361761 -0.344819 0.000000 
0.329787 -0.396621 0.000000 
0.360414 -0.433744 0.000000 
0.381315 -0.115785 0.000000 
0.370772 -0.162013 0.000000 
0.425037 -0.193642 0.000000 
0.407738 -0.243070 0.000000 
0.453135 -0.278385 0.000000 
0.427556 -0.329900 0.000000 
0.464588 -0.366927 0.000000 
0.429420 -0.418969 0.000000 
0.458977 -0.456044 0.000000 
0.026061 -0.327694 0.000000 
0.028809 -0.221987 0.000000 
0.054870 -0.267871 0.000000 
0.106992 -0.259638 0.000000 
0.029377 -0.119930 0.000000 
0.058186 -0.160107 0.000000 
0.114311 -0.144442 0.000000 
0.137056 -0.198089 0.000000 
0.186430 -0.195563 0.000000 
0.029568 -0.018876 0.000000 
0.058945 -0.056996 0.000000 
0.116563 -0.037350 0.000000 
0.143120 -0.084619 0.000000 
0.196633 -0.075910 0.000000 
0.217198 -0.133207 0.000000 
0.265318 -0.132407 0.000000 
0.029759 0.082178 0.000000 
0.059328 0.045112 0.000000 
0.117890 0.067818 0.000000 
0.145749 0.023475 0.000000 
0.201664 0.036949 0.000000 
0.225992 -0.015168 0.000000 
0.278030 -0.009301 0.000000 
0.296791 -0.069244 0.000000 
0.344206 -0.069251 0.000000 
CELLS 175 350 
1 0 
1 1 
1 2 
1 3 
1 4 
1 5 
1 6 
1 7 
1 8 
1 9 
1 10 
1 11 
1 12 
1 13 
1 14 
1 15 
1 16 
1 17 
1 18 
1 19 
1 20 
1 21 
1 22 
1 23 
1 24 
1 25 
1 26 
1 27 
1 28 
1 29 
1 30 
1 31 
1 32 
1 33 
1 34 
1 35 
1 36 
1 37 
1 38 
1 39 
1 40 
1 41 
1 42 
1 43 
1 44 
1 45 
1 46 
1 47 
1 48 
1 49 
1 50 
1 51 
1 52 
1 53 
1 54 
1 55 
1 56 
1 57 
1 58 
1 59 
1 60 
1 61 
1 62 
1 63 
1 64 
1 65 
1 66 
1 67 
1 68 
1 69 
1 70 
1 71 
1 72 
1 73 
1 74 
1 75 
1 76 
1 77 
1 78 
1 79 
1 80 
1 81 
1 82 
1 83 
1 84 
1 85 
1 86 
1 87 
1 88 
1 89 
1 90 
1 91 
1 92 
1 93 
1 94 
1 95 
1 96 
1 97 
1 98 
1 99 
1 100 
1 101 
1 102 
1 103 
1 104 
1 105 
1 106 
1 107 
1 108 
1 109 
1 110 
1 111 
1 112 
1 113 
1 114 
1 115 
1 116 
1 117 
1 118 
1 119 
1 120 
1 121 
1 122 
1 123 
1 124 
1 125 
1 126 
1 127 
1 128 
1 129 
1 130 
1 131 
1 132 
1 133 
1 134 
1 135 
1 136 
1 137 
1 138 
1 139 
1 140 
1 141 
1 142 
1 143 
1 144 
1 145 
1 146 
1 147 
1 148 
1 149 
1 150 
1 151 
1 152 
1 153 
1 154 
1 155 
1 156 
1 157 
1 158 
1 159 
1 160 
1 161 
1 162 
1 163 
1 164 
1 165 
1 166 
1 167 
1 168 
1 169 
1 170 
1 171 
1 172 
1 173 
1 174 
CELL_TYPES 175 
1 
1 
1 
1 
1 
1 
1 
1 
1 
1 
1 
1 
1 
1 
1 
1 
1 
1 
1 
1 
1 
1 
1 
1 
1 
1 
1 
1 
1 
1 
1 
1 
1 
1 
1 
1 
1 
1 
1 
1 
1 
1 
1 
1 
1 
1 
1 
1 
1 
1 
1 
1 
1 
1 
1 
1 
1 
1 
1 
1 
1 
1 
1 
1 
1 
1 
1 
1 
1 
1 
1 
1 
1 
1 
1 
1 
1 
1 
1 
1 
1 
1 
1 
1 
1 
1 
1 
1 
1 
1 
1 
1 
1 
1 
1 
1 
1 
1 
1 
1 
1 
1 
1 
1 
1 
1 
1 
1 
1 
1 
1 
1 
1 
1 
1 
1 
1 
1 
1 
1 
1 
1 
1 
1 
1 
1 
1 
1 
1 
1 
1 
1 
1 
1 
1 
1 
1 
1 
1 
1 
1 
1 
1 
1 
1 
1 
1 
1 
1 
1 
1 
1 
1 
1 
1 
1 
1 
1 
1 
1 
1 
1 
1 
1 
1 
1 
1 
1 
1 
1 
1 
1 
1 
1 
1 
POINT_DATA 175 
VECTORS X_GC float 
-0.026061 -0.327694 0.000000 
-0.106992 -0.259638 0.000000 
-0.054870 -0.267871 0.000000 
-0.028809 -0.221987 0.000000 
-0.186430 -0.195563 0.000000 
-0.137056 -0.198089 0.000000 
-0.114311 -0.144442 0.000000 
-0.058186 -0.160107 0.000000 
-0.029377 -0.119930 0.000000 
-0.265318 -0.132407 0.000000 
-0.217198 -0.133207 0.000000 
-0.196633 -0.075910 0.000000 
-0.143120 -0.084619 0.000000 
-0.116563 -0.037350 0.000000 
-0.058945 -0.056996 0.000000 
-0.029568 -0.018876 0.000000 
-0.344206 -0.069251 0.000000 
-0.296791 -0.069244 0.000000 
-0.278030 -0.009301 0.000000 
-0.225992 -0.015168 0.000000 
-0.201664 0.036949 0.000000 
-0.145749 0.023475 0.000000 
-0.117890 0.067818 0.000000 
-0.059328 0.045112 0.000000 
-0.029759 0.082178 0.000000 
-0.058559 -0.368444 0.000000 
-0.162226 -0.389287 0.000000 
-0.123292 -0.353669 0.000000 
-0.142917 -0.304686 0.000000 
-0.261851 -0.411444 0.000000 
-0.229092 -0.374416 0.000000 
-0.256854 -0.323185 0.000000 
-0.209613 -0.289072 0.000000 
-0.223062 -0.241498 0.000000 
-0.360414 -0.433744 0.000000 
-0.329787 -0.396621 0.000000 
-0.361761 -0.344819 0.000000 
-0.321587 -0.308410 0.000000 
-0.341985 -0.258176 0.000000 
-0.290702 -0.225377 0.000000 
-0.302189 -0.178642 0.000000 
-0.458977 -0.456044 0.000000 
-0.429420 -0.418969 0.000000 
-0.464588 -0.366927 0.000000 
-0.427556 -0.329900 0.000000 
-0.453135 -0.278385 0.000000 
-0.407738 -0.243070 0.000000 
-0.425037 -0.193642 0.000000 
-0.370772 -0.162013 0.000000 
-0.381315 -0.115785 0.000000 
-0.046960 -0.419260 0.000000 
-0.095301 -0.513306 0.000000 
-0.098873 -0.460658 0.000000 
-0.149405 -0.445461 0.000000 
-0.140093 -0.605010 0.000000 
-0.148617 -0.556311 0.000000 
-0.205981 -0.546074 0.000000 
-0.203197 -0.487871 0.000000 
-0.248777 -0.468724 0.000000 
-0.184111 -0.695973 0.000000 
-0.194039 -0.648882 0.000000 
-0.254475 -0.641583 0.000000 
-0.257893 -0.587473 0.000000 
-0.309886 -0.572100 0.000000 
-0.303554 -0.511555 0.000000 
-0.347255 -0.491397 0.000000 
-0.228129 -0.786937 0.000000 
-0.238687 -0.740713 0.000000 
-0.301302 -0.735760 0.000000 
-0.307162 -0.683722 0.000000 
-0.363386 -0.671601 0.000000 
-0.362692 -0.614089 0.000000 
-0.412122 -0.596796 0.000000 
-0.403017 -0.534649 0.000000 
-0.445733 -0.514071 0.000000 
-0.000000 -0.441875 0.000000 
0.043388 -0.538305 0.000000 
-0.000000 -0.508273 0.000000 
-0.043388 -0.538305 0.000000 
0.087158 -0.630502 0.000000 
0.043769 -0.606803 0.000000 
-0.000000 -0.645269 0.000000 
-0.043769 -0.606803 0.000000 
-0.087158 -0.630502 0.000000 
0.130831 -0.721632 0.000000 
0.087824 -0.700033 0.000000 
0.044436 -0.742732 0.000000 
-0.000000 -0.711667 0.000000 
-0.044436 -0.742732 0.000000 
-0.087824 -0.700033 0.000000 
-0.130831 -0.721632 0.000000 
0.174505 -0.812761 0.000000 
0.131782 -0.792195 0.000000 
0.088871 -0.838062 0.000000 
0.044532 -0.810198 0.000000 
-0.000000 -0.846598 0.000000 
-0.044532 -0.810198 0.000000 
-0.088871 -0.838062 0.000000 
-0.131782 -0.792195 0.000000 
-0.174505 -0.812761 0.000000 
0.046960 -0.419260 0.000000 
0.149405 -0.445461 0.000000 
0.098873 -0.460658 0.000000 
0.095301 -0.513306 0.000000 
0.248777 -0.468724 0.000000 
0.203197 -0.487871 0.000000 
0.205981 -0.546074 0.000000 
0.148617 -0.556311 0.000000 
0.140093 -0.605010 0.000000 
0.347255 -0.491397 0.000000 
0.303554 -0.511555 0.000000 
0.309886 -0.572100 0.000000 
0.257893 -0.587473 0.000000 
0.254475 -0.641583 0.000000 
0.194039 -0.648882 0.000000 
0.184111 -0.695973 0.000000 
0.445733 -0.514071 0.000000 
0.403017 -0.534649 0.000000 
0.412122 -0.596796 0.000000 
0.362692 -0.614089 0.000000 
0.363386 -0.671601 0.000000 
0.307162 -0.683722 0.000000 
0.301302 -0.735760 0.000000 
0.238687 -0.740713 0.000000 
0.228129 -0.786937 0.000000 
0.058559 -0.368444 0.000000 
0.142917 -0.304686 0.000000 
0.123292 -0.353669 0.000000 
0.162226 -0.389287 0.000000 
0.223062 -0.241498 0.000000 
0.209613 -0.289072 0.000000 
0.256854 -0.323185 0.000000 
0.229092 -0.374416 0.000000 
0.261851 -0.411444 0.000000 
0.302189 -0.178642 0.000000 
0.290702 -0.225377 0.000000 
0.341985 -0.258176 0.000000 
0.321587 -0.308410 0.000000 
0.361761 -0.344819 0.000000 
0.329787 -0.396621 0.000000 
0.360414 -0.433744 0.000000 
0.381315 -0.115785 0.000000 
0.370772 -0.162013 0.000000 
0.425037 -0.193642 0.000000 
0.407738 -0.243070 0.000000 
0.453135 -0.278385 0.000000 
0.427556 -0.329900 0.000000 
0.464588 -0.366927 0.000000 
0.429420 -0.418969 0.000000 
0.458977 -0.456044 0.000000 
0.026061 -0.327694 0.000000 
0.028809 -0.221987 0.000000 
0.054870 -0.267871 0.000000 
0.106992 -0.259638 0.000000 
0.029377 -0.119930 0.000000 
0.058186 -0.160107 0.000000 
0.114311 -0.144442 0.000000 
0.137056 -0.198089 0.000000 
0.186430 -0.195563 0.000000 
0.029568 -0.018876 0.000000 
0.058945 -0.056996 0.000000 
0.116563 -0.037350 0.000000 
0.143120 -0.084619 0.000000 
0.196633 -0.075910 0.000000 
0.217198 -0.133207 0.000000 
0.265318 -0.132407 0.000000 
0.029759 0.082178 0.000000 
0.059328 0.045112 0.000000 
0.117890 0.067818 0.000000 
0.145749 0.023475 0.000000 
0.201664 0.036949 0.000000 
0.225992 -0.015168 0.000000 
0.278030 -0.009301 0.000000 
0.296791 -0.069244 0.000000 
0.344206 -0.069251 0.000000 
VECTORS X_EC float 
0.338794 0.923866 0.000000 
-0.609100 0.005117 0.000000 
0.713312 0.116258 0.000000 
0.374519 -0.503171 0.000000 
0.423588 -0.859902 0.000000 
-0.218274 -0.825798 0.000000 
-0.513962 0.449963 0.000000 
0.756418 0.661449 0.000000 
0.381900 0.119057 0.000000 
-0.550868 0.287495 0.000000 
0.823577 0.298291 0.000000 
0.556234 -0.475213 0.000000 
-0.139443 -0.357645 0.000000 
-0.484677 -0.995769 0.000000 
0.766286 -0.730554 0.000000 
0.384386 0.754826 0.000000 
0.474677 -0.565108 0.000000 
-0.141715 -0.565205 0.000000 
-0.385608 0.625567 0.000000 
0.937896 0.704763 0.000000 
0.621631 0.001183 0.000000 
-0.105264 0.183082 0.000000 
-0.467428 -0.415544 0.000000 
0.771260 -0.109016 0.000000 
0.386873 -0.609405 0.000000 
0.761262 -0.526000 0.000000 
0.108942 -0.244623 0.000000 
-0.397202 -0.725462 0.000000 
-0.142083 0.613262 0.000000 
-0.595936 0.054488 0.000000 
0.978194 -0.445378 0.000000 
-0.660903 0.862997 0.000000 
0.724964 0.402477 0.000000 
0.899809 -0.239772 0.000000 
0.685384 0.355540 0.000000 
0.287229 -0.145619 0.000000 
0.702895 -0.844947 0.000000 
0.180633 0.663534 0.000000 
0.445811 -0.014625 0.000000 
-0.220880 -0.457411 0.000000 
-0.071546 0.911663 0.000000 
-0.033296 0.656592 0.000000 
-0.417537 0.156082 0.000000 
0.039645 -0.546480 0.000000 
-0.441768 0.953649 0.000000 
-0.109248 0.258198 0.000000 
-0.699407 -0.218558 0.000000 
-0.474522 -0.885837 0.000000 
0.820030 0.687170 0.000000 
0.957100 0.063098 0.000000 
0.610485 0.160007 0.000000 
-0.761092 -0.570374 0.000000 
-0.714655 0.718889 0.000000 
-0.057734 0.513721 0.000000 
-0.178789 0.667630 0.000000 
-0.067979 0.010204 0.000000 
0.677748 -0.127999 0.000000 
0.641556 -0.913744 0.000000 
-0.765897 0.827777 0.000000 
0.393446 -0.104361 0.000000 
0.522510 -0.740091 0.000000 
-0.691820 -0.838635 0.000000 
-0.647393 0.430883 0.000000 
0.028512 0.223356 0.000000 
-0.053800 -0.594004 0.000000 
0.514316 -0.866135 0.000000 
0.965681 -0.876352 0.000000 
-0.897068 0.499620 0.000000 
-0.083078 0.432767 0.000000 
-0.006893 -0.269758 0.000000 
0.724017 -0.433391 0.000000 
0.714996 0.790206 0.000000 
-0.642413 0.556748 0.000000 
-0.760780 -0.282232 0.000000 
-0.205471 -0.560048 0.000000 
0.000000 0.465308 0.000000 
-0.564049 -0.232879 0.000000 
0.000000 -0.638315 0.000000 
0.564049 -0.232879 0.000000 
0.866949 -0.988224 0.000000 
-0.569003 0.691845 0.000000 
0.000000 -0.788867 0.000000 
0.569003 0.691845 0.000000 
-0.866949 -0.988224 0.000000 
0.299194 0.242027 0.000000 
0.858290 -0.049557 0.000000 
-0.577662 0.526888 0.000000 
0.000000 0.107510 0.000000 
0.577662 0.526888 0.000000 
-0.858290 -0.049557 0.000000 
-0.299194 0.242027 0.000000 
-0.268560 -0.527723 0.000000 
0.286830 -0.805365 0.000000 
0.844677 -0.186167 0.000000 
-0.578910 -0.562330 0.000000 
0.000000 -0.070926 0.000000 
0.578910 -0.562330 0.000000 
-0.844677 -0.186167 0.000000 
-0.286830 -0.805365 0.000000 
0.268560 -0.527723 0.000000 
-0.610485 0.160007 0.000000 
0.057734 0.513721 0.000000 
0.714655 0.718889 0.000000 
0.761092 -0.570374 0.000000 
0.765897 0.827777 0.000000 
-0.641556 -0.913744 0.000000 
-0.677748 -0.127999 0.000000 
0.067979 0.010204 0.000000 
0.178789 0.667630 0.000000 
-0.514316 -0.866135 0.000000 
0.053800 -0.594004 0.000000 
-0.028512 0.223356 0.000000 
0.647393 0.430883 0.000000 
0.691820 -0.838635 0.000000 
-0.522510 -0.740091 0.000000 
-0.393446 -0.104361 0.000000 
0.205471 -0.560048 0.000000 
0.760780 -0.282232 0.000000 
0.642413 0.556748 0.000000 
-0.714996 0.790206 0.000000 
-0.724017 -0.433391 0.000000 
0.006894 -0.269758 0.000000 
0.083078 0.432767 0.000000 
0.897068 0.499620 0.000000 
-0.965681 -0.876352 0.000000 
-0.761262 -0.526000 0.000000 
0.142083 0.613262 0.000000 
0.397202 -0.725462 0.000000 
-0.108942 -0.244623 0.000000 
-0.899809 -0.239772 0.000000 
-0.724964 0.402477 0.000000 
0.660903 0.862997 0.000000 
-0.978194 -0.445378 0.000000 
0.595936 0.054488 0.000000 
0.071546 0.911663 0.000000 
0.220880 -0.457411 0.000000 
-0.445811 -0.014625 0.000000 
-0.180633 0.663534 0.000000 
-0.702895 -0.844947 0.000000 
-0.287229 -0.145619 0.000000 
-0.685384 0.355540 0.000000 
-0.957100 0.063098 0.000000 
-0.820030 0.687170 0.000000 
0.474522 -0.885837 0.000000 
0.699407 -0.218557 0.000000 
0.109248 0.258198 0.000000 
0.441768 0.953649 0.000000 
-0.039645 -0.546480 0.000000 
0.417537 0.156082 0.000000 
0.033296 0.656592 0.000000 
-0.338794 0.923866 0.000000 
-0.374519 -0.503171 0.000000 
-0.713312 0.116258 0.000000 
0.609100 0.005117 0.000000 
-0.381900 0.119057 0.000000 
-0.756418 0.661449 0.000000 
0.513962 0.449963 0.000000 
0.218274 -0.825798 0.000000 
-0.423588 -0.859902 0.000000 
-0.384386 0.754826 0.000000 
-0.766286 -0.730554 0.000000 
0.484677 -0.995769 0.000000 
0.139443 -0.357645 0.000000 
-0.556234 -0.475213 0.000000 
-0.823577 0.298291 0.000000 
0.550868 0.287495 0.000000 
-0.386873 -0.609405 0.000000 
-0.771260 -0.109016 0.000000 
0.467428 -0.415544 0.000000 
0.105264 0.183082 0.000000 
-0.621631 0.001183 0.000000 
-0.937896 0.704763 0.000000 
0.385608 0.625567 0.000000 
0.141715 -0.565205 0.000000 
-0.474677 -0.565108 0.000000 
CELL_DATA 175 
SCALARS MASS float 
LOOKUP_TABLE default 
0.078183 
0.086427 
0.094672 
0.086427 
0.088131 
0.092111 
0.085854 
0.092111 
0.088131 
0.088705 
0.091000 
0.086983 
0.091556 
0.086983 
0.091000 
0.088705 
0.089278 
0.091574 
0.089278 
0.092722 
0.089278 
0.092722 
0.089278 
0.091574 
0.089278 
0.078183 
0.086427 
0.094672 
0.086427 
0.088131 
0.092111 
0.085854 
0.092111 
0.088131 
0.088705 
0.091000 
0.086983 
0.091556 
0.086983 
0.091000 
0.088705 
0.089278 
0.091574 
0.089278 
0.092722 
0.089278 
0.092722 
0.089278 
0.091574 
0.089278 
0.078183 
0.086427 
0.094672 
0.086427 
0.088131 
0.092111 
0.085854 
0.092111 
0.088131 
0.088705 
0.091000 
0.086983 
0.091556 
0.086983 
0.091000 
0.088705 
0.089278 
0.091574 
0.089278 
0.092722 
0.089278 
0.092722 
0.089278 
0.091574 
0.089278 
0.078183 
0.086427 
0.094672 
0.086427 
0.088131 
0.092111 
0.085854 
0.092111 
0.088131 
0.088705 
0.091000 
0.086983 
0.091556 
0.086983 
0.091000 
0.088705 
0.089278 
0.091574 
0.089278 
0.092722 
0.089278 
0.092722 
0.089278 
0.091574 
0.089278 
0.078183 
0.086427 
0.094672 
0.086427 
0.088131 
0.092111 
0.085854 
0.092111 
0.088131 
0.088705 
0.091000 
0.086983 
0.091556 
0.086983 
0.091000 
0.088705 
0.089278 
0.091574 
0.089278 
0.092722 
0.089278 
0.092722 
0.089278 
0.091574 
0.089278 
0.078183 
0.086427 
0.094672 
0.086427 
0.088131 
0.092111 
0.085854 
0.092111 
0.088131 
0.088705 
0.091000 
0.086983 
0.091556 
0.086983 
0.091000 
0.088705 
0.089278 
0.091574 
0.089278 
0.092722 
0.089278 
0.092722 
0.089278 
0.091574 
0.089278 
0.078183 
0.086427 
0.094672 
0.086427 
0.088131 
0.092111 
0.085854 
0.092111 
0.088131 
0.088705 
0.091000 
0.086983 
0.091556 
0.086983 
0.091000 
0.088705 
0.089278 
0.091574 
0.089278 
0.092722 
0.089278 
0.092722 
0.089278 
0.091574 
0.089278 
SCALARS MASS float 
LOOKUP_TABLE default 
0.078183 
0.086427 
0.094672 
0.086427 
0.088131 
0.092111 
0.085854 
0.092111 
0.088131 
0.088705 
0.091000 
0.086983 
0.091556 
0.086983 
0.091000 
0.088705 
0.089278 
0.091574 
0.089278 
0.092722 
0.089278 
0.092722 
0.089278 
0.091574 
0.089278 
0.078183 
0.086427 
0.094672 
0.086427 
0.088131 
0.092111 
0.085854 
0.092111 
0.088131 
0.088705 
0.091000 
0.086983 
0.091556 
0.086983 
0.091000 
0.088705 
0.089278 
0.091574 
0.089278 
0.092722 
0.089278 
0.092722 
0.089278 
0.091574 
0.089278 
0.078183 
0.086427 
0.094672 
0.086427 
0.088131 
0.092111 
0.085854 
0.092111 
0.088131 
0.088705 
0.091000 
0.086983 
0.091556 
0.086983 
0.091000 
0.088705 
0.089278 
0.091574 
0.089278 
0.092722 
0.089278 
0.092722 
0.089278 
0.091574 
0.089278 
0.078183 
0.086427 
0.094672 
0.086427 
0.088131 
0.092111 
0.085854 
0.092111 
0.088131 
0.088705 
0.091000 
0.086983 
0.091556 
0.086983 
0.091000 
0.088705 
0.089278 
0.091574 
0.089278 
0.092722 
0.089278 
0.092722 
0.089278 
0.091574 
0.089278 
0.078183 
0.086427 
0.094672 
0.086427 
0.088131 
0.092111 
0.085854 
0.092111 
0.088131 
0.088705 
0.091000 
0.086983 
0.091556 
0.086983 
0.091000 
0.088705 
0.089278 
0.091574 
0.089278 
0.092722 
0.089278 
0.092722 
0.089278 
0.091574 
0.089278 
0.078183 
0.086427 
0.094672 
0.086427 
0.088131 
0.092111 
0.085854 
0.092111 
0.088131 
0.088705 
0.091000 
0.086983 
0.091556 
0.086983 
0.091000 
0.088705 
0.089278 
0.091574 
0.089278 
0.092722 
0.089278 
0.092722 
0.089278 
0.091574 
0.089278 
0.078183 
0.086427 
0.094672 
0.086427 
0.088131 
0.092111 
0.085854 
0.092111 
0.088131 
0.088705 
0.091000 
0.086983 
0.091556 
0.086983 
0.091000 
0.088705 
0.089278 
0.091574 
0.089278 
0.092722 
0.089278 
0.092722 
0.089278 
0.091574 
0.089278 
SCALARS DENSITY float 
LOOKUP_TABLE default 
20.000000 
20.000000 
20.000000 
20.000000 
20.000000 
20.000000 
20.000000 
20.000000 
20.000000 
20.000000 
20.000000 
20.000000 
20.000000 
20.000000 
20.000000 
20.000000 
20.000000 
20.000000 
20.000000 
20.000000 
20.000000 
20.000000 
20.000000 
20.000000 
20.000000 
20.000000 
20.000000 
20.000000 
20.000000 
20.000000 
20.000000 
20.000000 
20.000000 
20.000000 
20.000000 
20.000000 
20.000000 
20.000000 
20.000000 
20.000000 
20.000000 
20.000000 
20.000000 
20.000000 
20.000000 
20.000000 
20.000000 
20.000000 
20.000000 
20.000000 
20.000000 
20.000000 
20.000000 
20.000000 
20.000000 
20.000000 
20.000000 
20.000000 
20.000000 
20.000000 
20.000000 
20.000000 
20.000000 
20.000000 
20.000000 
20.000000 
20.000000 
20.000000 
20.000000 
20.000000 
20.000000 
20.000000 
20.000000 
20.000000 
20.000000 
20.000000 
20.000000 
20.000000 
20.000000 
20.000000 
20.000000 
20.000000 
20.000000 
20.000000 
20.000000 
20.000000 
20.000000 
20.000000 
20.000000 
20.000000 
20.000000 
20.000000 
20.000000 
20.000000 
20.000000 
20.000000 
20.000000 
20.000000 
20.000000 
20.000000 
20.000000 
20.000000 
20.000000 
20.000000 
20.000000 
20.000000 
20.000000 
20.000000 
20.000000 
20.000000 
20.000000 
20.000000 
20.000000 
20.000000 
20.000000 
20.000000 
20.000000 
20.000000 
20.000000 
20.000000 
20.000000 
20.000000 
20.000000 
20.000000 
20.000000 
20.000000 
20.000000 
20.000000 
20.000000 
20.000000 
20.000000 
20.000000 
20.000000 
20.000000 
20.000000 
20.000000 
20.000000 
20.000000 
20.000000 
20.000000 
20.000000 
20.000000 
20.000000 
20.000000 
20.000000 
20.000000 
20.000000 
20.000000 
20.000000 
20.000000 
20.000000 
20.000000 
20.000000 
20.000000 
20.000000 
20.000000 
20.000000 
20.000000 
20.000000 
20.000000 
20.000000 
20.000000 
20.000000 
20.000000 
20.000000 
20.000000 
20.000000 
20.000000 
20.000000 
20.000000 
20.000000 
20.000000 
20.000000 
20.000000 
20.000000 
SCALARS ELEM_i float 
LOOKUP_TABLE default 
180 
207 
180 
180 
207 
207 
208 
181 
181 
235 
208 
208 
208 
208 
181 
182 
235 
235 
236 
209 
209 
209 
209 
182 
182 
179 
206 
206 
207 
233 
206 
234 
207 
207 
233 
233 
233 
234 
234 
234 
235 
260 
260 
260 
261 
261 
261 
261 
235 
235 
179 
205 
206 
206 
205 
205 
205 
205 
233 
204 
204 
231 
232 
232 
232 
232 
203 
231 
231 
231 
231 
232 
259 
259 
259 
179 
178 
178 
178 
150 
178 
177 
178 
204 
150 
150 
177 
177 
177 
204 
204 
149 
149 
149 
176 
176 
176 
203 
203 
203 
179 
152 
152 
151 
125 
151 
151 
151 
151 
124 
124 
124 
124 
123 
150 
150 
97 
97 
97 
124 
123 
123 
123 
123 
149 
179 
153 
152 
152 
153 
153 
126 
152 
125 
127 
126 
126 
126 
125 
125 
125 
127 
127 
99 
99 
99 
99 
98 
98 
98 
180 
180 
180 
153 
181 
181 
154 
153 
153 
182 
181 
154 
154 
154 
154 
127 
182 
182 
155 
155 
155 
155 
128 
127 
127 
VECTORS VELOCITY float 
-0.000000 -2.736598 0.000000 
-0.000000 -2.736598 0.000000 
-0.000000 -2.736598 0.000000 
-0.000000 -2.736598 0.000000 
0.000000 -2.736598 0.000000 
0.000000 -2.736598 0.000000 
-0.000000 -2.736598 0.000000 
-0.000000 -2.736598 0.000000 
-0.000000 -2.736598 0.000000 
-0.000000 -2.736598 0.000000 
-0.000000 -2.736598 0.000000 
-0.000000 -2.736598 0.000000 
-0.000000 -2.736598 0.000000 
-0.000000 -2.736598 0.000000 
0.000000 -2.736598 0.000000 
0.000000 -2.736598 0.000000 
-0.000000 -2.736598 0.000000 
-0.000000 -2.736598 0.000000 
0.000000 -2.736598 0.000000 
0.000000 -2.736598 0.000000 
0.000000 -2.736598 0.000000 
0.000000 -2.736598 0.000000 
-0.000000 -2.736598 0.000000 
0.000000 -2.736598 0.000000 
0.000000 -2.736598 0.000000 
-0.000000 -2.736598 0.000000 
-0.000000 -2.736598 0.000000 
-0.000000 -2.736598 0.000000 
-0.000000 -2.736598 0.000000 
-0.000000 -2.736598 0.000000 
-0.000000 -2.736598 0.000000 
0.000000 -2.736598 0.000000 
0.000000 -2.736598 0.000000 
0.000000 -2.736598 0.000000 
0.000000 -2.736598 0.000000 
0.000000 -2.736598 0.000000 
0.000000 -2.736598 0.000000 
0.000000 -2.736598 0.000000 
0.000000 -2.736598 0.000000 
0.000000 -2.736598 0.000000 
0.000000 -2.736598 0.000000 
-0.000000 -2.736598 0.000000 
-0.000000 -2.736598 0.000000 
-0.000000 -2.736598 0.000000 
0.000000 -2.736598 0.000000 
-0.000000 -2.736598 0.000000 
-0.000000 -2.736598 0.000000 
-0.000000 -2.736598 0.000000 
0.000000 -2.736598 0.000000 
0.000000 -2.736598 0.000000 
-0.000000 -2.736598 0.000000 
-0.000000 -2.736598 0.000000 
-0.000000 -2.736598 0.000000 
-0.000000 -2.736598 0.000000 
-0.000000 -2.736598 0.000000 
-0.000000 -2.736598 0.000000 
-0.000000 -2.736598 0.000000 
-0.000000 -2.736598 0.000000 
-0.000000 -2.736598 0.000000 
0.000000 -2.736598 0.000000 
0.000000 -2.736598 0.000000 
0.000000 -2.736598 0.000000 
-0.000000 -2.736598 0.000000 
-0.000000 -2.736598 0.000000 
-0.000000 -2.736598 0.000000 
-0.000000 -2.736598 0.000000 
0.000000 -2.736598 0.000000 
0.000000 -2.736598 0.000000 
-0.000000 -2.736598 0.000000 
0.000000 -2.736598 0.000000 
0.000000 -2.736598 0.000000 
0.000000 -2.736598 0.000000 
0.000000 -2.736598 0.000000 
0.000000 -2.736598 0.000000 
0.000000 -2.736598 0.000000 
-0.000000 -2.736598 0.000000 
0.000000 -2.736598 0.000000 
-0.000000 -2.736598 0.000000 
0.000000 -2.736598 0.000000 
0.000000 -2.736598 0.000000 
0.000000 -2.736598 0.000000 
0.000000 -2.736598 0.000000 
0.000000 -2.736598 0.000000 
0.000000 -2.736598 0.000000 
0.000000 -2.736598 0.000000 
0.000000 -2.736598 0.000000 
0.000000 -2.736598 0.000000 
0.000000 -2.736598 0.000000 
0.000000 -2.736598 0.000000 
-0.000000 -2.736598 0.000000 
0.000000 -2.736598 0.000000 
-0.000000 -2.736598 0.000000 
-0.000000 -2.736598 0.000000 
-0.000000 -2.736598 0.000000 
0.000000 -2.736598 0.000000 
-0.000000 -2.736598 0.000000 
0.000000 -2.736598 0.000000 
-0.000000 -2.736598 0.000000 
0.000000 -2.736598 0.000000 
-0.000000 -2.736598 0.000000 
0.000000 -2.736598 0.000000 
0.000000 -2.736598 0.000000 
0.000000 -2.736598 0.000000 
0.000000 -2.736598 0.000000 
-0.000000 -2.736598 0.000000 
-0.000000 -2.736598 0.000000 
-0.000000 -2.736598 0.000000 
-0.000000 -2.736598 0.000000 
0.000000 -2.736598 0.000000 
-0.000000 -2.736598 0.000000 
-0.000000 -2.736598 0.000000 
-0.000000 -2.736598 0.000000 
-0.000000 -2.736598 0.000000 
0.000000 -2.736598 0.000000 
0.000000 -2.736598 0.000000 
0.000000 -2.736598 0.000000 
0.000000 -2.736598 0.000000 
-0.000000 -2.736598 0.000000 
0.000000 -2.736598 0.000000 
-0.000000 -2.736598 0.000000 
0.000000 -2.736598 0.000000 
0.000000 -2.736598 0.000000 
0.000000 -2.736598 0.000000 
-0.000000 -2.736598 0.000000 
-0.000000 -2.736598 0.000000 
0.000000 -2.736598 0.000000 
0.000000 -2.736598 0.000000 
0.000000 -2.736598 0.000000 
0.000000 -2.736598 0.000000 
0.000000 -2.736598 0.000000 
0.000000 -2.736598 0.000000 
0.000000 -2.736598 0.000000 
0.000000 -2.736598 0.000000 
0.000000 -2.736598 0.000000 
0.000000 -2.736598 0.000000 
0.000000 -2.736598 0.000000 
-0.000000 -2.736598 0.000000 
-0.000000 -2.736598 0.000000 
0.000000 -2.736598 0.000000 
-0.000000 -2.736598 0.000000 
-0.000000 -2.736598 0.000000 
-0.000000 -2.736598 0.000000 
-0.000000 -2.736598 0.000000 
0.000000 -2.736598 0.000000 
-0.000000 -2.736598 0.000000 
0.000000 -2.736598 0.000000 
0.000000 -2.736598 0.000000 
0.000000 -2.736598 0.000000 
-0.000000 -2.736598 0.000000 
-0.000000 -2.736598 0.000000 
0.000000 -2.736598 0.000000 
0.000000 -2.736598 0.000000 
0.000000 -2.736598 0.000000 
0.000000 -2.736598 0.000000 
-0.000000 -2.736598 0.000000 
-0.000000 -2.736598 0.000000 
0.000000 -2.736598 0.000000 
0.000000 -2.736598 0.000000 
0.000000 -2.736598 0.000000 
-0.000000 -2.736598 0.000000 
0.000000 -2.736598 0.000000 
-0.000000 -2.736598 0.000000 
-0.000000 -2.736598 0.000000 
-0.000000 -2.736598 0.000000 
0.000000 -2.736598 0.000000 
0.000000 -2.736598 0.000000 
0.000000 -2.736598 0.000000 
0.000000 -2.736598 0.000000 
-0.000000 -2.736598 0.000000 
0.000000 -2.736598 0.000000 
0.000000 -2.736598 0.000000 
-0.000000 -2.736598 0.000000 
-0.000000 -2.736598 0.000000 
-0.000000 -2.736598 0.000000 
-0.000000 -2.736598 0.000000 
TENSORS STRESS float 
-0.000000 -0.000000 0.000000 
0.000000 0.000000 0.000000 
0.000000 0.000000 0.000000 

-0.000000 -0.000000 0.000000 
0.000000 0.000000 0.000000 
0.000000 0.000000 0.000000 

-0.000000 -0.000000 0.000000 
0.000000 0.000000 0.000000 
0.000000 0.000000 0.000000 

-0.000000 0.000000 0.000000 
0.000000 -0.000000 0.000000 
0.000000 0.000000 0.000000 

-0.000000 -0.000000 0.000000 
0.000000 -0.000000 0.000000 
0.000000 0.000000 0.000000 

-0.000000 -0.000000 0.000000 
0.000000 0.000000 0.000000 
0.000000 0.000000 0.000000 

-0.000000 -0.000000 0.000000 
0.000000 -0.000000 0.000000 
0.000000 0.000000 0.000000 

-0.000000 -0.000000 0.000000 
0.000000 -0.000000 0.000000 
0.000000 0.000000 0.000000 

-0.000000 -0.000000 0.000000 
0.000000 -0.000000 0.000000 
0.000000 0.000000 0.000000 

-0.000000 0.000000 0.000000 
0.000000 -0.000000 0.000000 
0.000000 0.000000 0.000000 

-0.000000 -0.000000 0.000000 
0.000000 -0.000000 0.000000 
0.000000 0.000000 0.000000 

-0.000000 0.000000 0.000000 
0.000000 -0.000000 0.000000 
0.000000 0.000000 0.000000 

-0.000000 -0.000000 0.000000 
0.000000 0.000000 0.000000 
0.000000 0.000000 0.000000 

0.000000 -0.000000 0.000000 
0.000000 0.000000 0.000000 
0.000000 0.000000 0.000000 

0.000000 -0.000000 0.000000 
0.000000 0.000000 0.000000 
0.000000 0.000000 0.000000 

0.000000 -0.000000 0.000000 
0.000000 0.000000 0.000000 
0.000000 0.000000 0.000000 

0.000000 -0.000000 0.000000 
0.000000 0.000000 0.000000 
0.000000 0.000000 0.000000 

0.000000 -0.000000 0.000000 
0.000000 0.000000 0.000000 
0.000000 0.000000 0.000000 

0.000000 -0.000000 0.000000 
0.000000 0.000000 0.000000 
0.000000 0.000000 0.000000 

0.000000 -0.000000 0.000000 
0.000000 0.000000 0.000000 
0.000000 0.000000 0.000000 

0.000000 -0.000000 0.000000 
0.000000 -0.000000 0.000000 
0.000000 0.000000 0.000000 

0.000000 -0.000000 0.000000 
0.000000 0.000000 0.000000 
0.000000 0.000000 0.000000 

0.000000 -0.000000 0.000000 
0.000000 0.000000 0.000000 
0.000000 0.000000 0.000000 

-0.000000 -0.000000 0.000000 
0.000000 -0.000000 0.000000 
0.000000 0.000000 0.000000 

0.000000 -0.000000 0.000000 
0.000000 0.000000 0.000000 
0.000000 0.000000 0.000000 

0.000000 0.000000 0.000000 
0.000000 0.000000 0.000000 
0.000000 0.000000 0.000000 

-0.000000 0.000000 0.000000 
0.000000 0.000000 0.000000 
0.000000 0.000000 0.000000 

-0.000000 -0.000000 0.000000 
0.000000 -0.000000 0.000000 
0.000000 0.000000 0.000000 

-0.000000 -0.000000 0.000000 
0.000000 -0.000000 0.000000 
0.000000 0.000000 0.000000 

0.000000 0.000000 0.000000 
0.000000 -0.000000 0.000000 
0.000000 0.000000 0.000000 

-0.000000 -0.000000 0.000000 
0.000000 -0.000000 0.000000 
0.000000 0.000000 0.000000 

0.000000 -0.000000 0.000000 
0.000000 0.000000 0.000000 
0.000000 0.000000 0.000000 

-0.000000 -0.000000 0.000000 
0.000000 -0.000000 0.000000 
0.000000 0.000000 0.000000 

-0.000000 0.000000 0.000000 
0.000000 0.000000 0.000000 
0.000000 0.000000 0.000000 

-0.000000 -0.000000 0.000000 
0.000000 -0.000000 0.000000 
0.000000 0.000000 0.000000 

0.000000 -0.000000 0.000000 
0.000000 -0.000000 0.000000 
0.000000 0.000000 0.000000 

0.000000 -0.000000 0.000000 
0.000000 -0.000000 0.000000 
0.000000 0.000000 0.000000 

0.000000 0.000000 0.000000 
0.000000 -0.000000 0.000000 
0.000000 0.000000 0.000000 

0.000000 -0.000000 0.000000 
0.000000 0.000000 0.000000 
0.000000 0.000000 0.000000 

0.000000 0.000000 0.000000 
0.000000 -0.000000 0.000000 
0.000000 0.000000 0.000000 

0.000000 0.000000 0.000000 
0.000000 0.000000 0.000000 
0.000000 0.000000 0.000000 

-0.000000 -0.000000 0.000000 
0.000000 -0.000000 0.000000 
0.000000 0.000000 0.000000 

-0.000000 -0.000000 0.000000 
0.000000 -0.000000 0.000000 
0.000000 0.000000 0.000000 

-0.000000 -0.000000 0.000000 
0.000000 -0.000000 0.000000 
0.000000 0.000000 0.000000 

0.000000 -0.000000 0.000000 
0.000000 0.000000 0.000000 
0.000000 0.000000 0.000000 

-0.000000 -0.000000 0.000000 
0.000000 -0.000000 0.000000 
0.000000 0.000000 0.000000 

0.000000 0.000000 0.000000 
0.000000 -0.000000 0.000000 
0.000000 0.000000 0.000000 

-0.000000 -0.000000 0.000000 
0.000000 -0.000000 0.000000 
0.000000 0.000000 0.000000 

0.000000 0.000000 0.000000 
0.000000 0.000000 0.000000 
0.000000 0.000000 0.000000 

-0.000000 -0.000000 0.000000 
0.000000 -0.000000 0.000000 
0.000000 0.000000 0.000000 

0.000000 0.000000 0.000000 
0.000000 0.000000 0.000000 
0.000000 0.000000 0.000000 

-0.000000 -0.000000 0.000000 
0.000000 -0.000000 0.000000 
0.000000 0.000000 0.000000 

-0.000000 0.000000 0.000000 
0.000000 0.000000 0.000000 
0.000000 0.000000 0.000000 

-0.000000 0.000000 0.000000 
0.000000 -0.000000 0.000000 
0.000000 0.000000 0.000000 

0.000000 0.000000 0.000000 
0.000000 -0.000000 0.000000 
0.000000 0.000000 0.000000 

-0.000000 0.000000 0.000000 
0.000000 -0.000000 0.000000 
0.000000 0.000000 0.000000 

0.000000 -0.000000 0.000000 
0.000000 0.000000 0.000000 
0.000000 0.000000 0.000000 

-0.000000 -0.000000 0.000000 
0.000000 -0.000000 0.000000 
0.000000 0.000000 0.000000 

-0.000000 0.000000 0.000000 
0.000000 -0.000000 0.000000 
0.000000 0.000000 0.000000 

0.000000 -0.000000 0.000000 
0.000000 0.000000 0.000000 
0.000000 0.000000 0.000000 

0.000000 -0.000000 0.000000 
0.000000 0.000000 0.000000 
0.000000 0.000000 0.000000 

-0.000000 -0.000000 0.000000 
0.000000 -0.000000 0.000000 
0.000000 0.000000 0.000000 

-0.000000 -0.000000 0.000000 
0.000000 0.000000 0.000000 
0.000000 0.000000 0.000000 

-0.000000 -0.000000 0.000000 
0.000000 -0.000000 0.000000 
0.000000 0.000000 0.000000 

-0.000000 -0.000000 0.000000 
0.000000 -0.000000 0.000000 
0.000000 0.000000 0.000000 

-0.000000 -0.000000 0.000000 
0.000000 -0.000000 0.000000 
0.000000 0.000000 0.000000 

-0.000000 -0.000000 0.000000 
0.000000 0.000000 0.000000 
0.000000 0.000000 0.000000 

-0.000000 -0.000000 0.000000 
0.000000 -0.000000 0.000000 
0.000000 0.000000 0.000000 

0.000000 0.000000 0.000000 
0.000000 0.000000 0.000000 
0.000000 0.000000 0.000000 

-0.000000 -0.000000 0.000000 
0.000000 -0.000000 0.000000 
0.000000 0.000000 0.000000 

0.000000 -0.000000 0.000000 
0.000000 0.000000 0.000000 
0.000000 0.000000 0.000000 

-0.000000 -0.000000 0.000000 
0.000000 -0.000000 0.000000 
0.000000 0.000000 0.000000 

0.000000 -0.000000 0.000000 
0.000000 0.000000 0.000000 
0.000000 0.000000 0.000000 

-0.000000 0.000000 0.000000 
0.000000 -0.000000 0.000000 
0.000000 0.000000 0.000000 

-0.000000 0.000000 0.000000 
0.000000 -0.000000 0.000000 
0.000000 0.000000 0.000000 

-0.000000 0.000000 0.000000 
0.000000 -0.000000 0.000000 
0.000000 0.000000 0.000000 

-0.000000 -0.000000 0.000000 
0.000000 0.000000 0.000000 
0.000000 0.000000 0.000000 

0.000000 0.000000 0.000000 
0.000000 0.000000 0.000000 
0.000000 0.000000 0.000000 

-0.000000 -0.000000 0.000000 
0.000000 0.000000 0.000000 
0.000000 0.000000 0.000000 

-0.000000 -0.000000 0.000000 
0.000000 -0.000000 0.000000 
0.000000 0.000000 0.000000 

-0.000000 -0.000000 0.000000 
0.000000 0.000000 0.000000 
0.000000 0.000000 0.000000 

-0.000000 -0.000000 0.000000 
0.000000 0.000000 0.000000 
0.000000 0.000000 0.000000 

-0.000000 -0.000000 0.000000 
0.000000 -0.000000 0.000000 
0.000000 0.000000 0.000000 

0.000000 0.000000 0.000000 
0.000000 0.000000 0.000000 
0.000000 0.000000 0.000000 

0.000000 0.000000 0.000000 
0.000000 0.000000 0.000000 
0.000000 0.000000 0.000000 

-0.000000 -0.000000 0.000000 
0.000000 -0.000000 0.000000 
0.000000 0.000000 0.000000 

0.000000 -0.000000 0.000000 
0.000000 0.000000 0.000000 
0.000000 0.000000 0.000000 

-0.000000 -0.000000 0.000000 
0.000000 -0.000000 0.000000 
0.000000 0.000000 0.000000 

0.000000 -0.000000 0.000000 
0.000000 0.000000 0.000000 
0.000000 0.000000 0.000000 

0.000000 0.000000 0.000000 
0.000000 0.000000 0.000000 
0.000000 0.000000 0.000000 

-0.000000 0.000000 0.000000 
0.000000 -0.000000 0.000000 
0.000000 0.000000 0.000000 

-0.000000 0.000000 0.000000 
0.000000 -0.000000 0.000000 
0.000000 0.000000 0.000000 

-0.000000 0.000000 0.000000 
0.000000 -0.000000 0.000000 
0.000000 0.000000 0.000000 

0.000000 -0.000000 0.000000 
0.000000 0.000000 0.000000 
0.000000 0.000000 0.000000 

-0.000000 -0.000000 0.000000 
0.000000 -0.000000 0.000000 
0.000000 0.000000 0.000000 

0.000000 0.000000 0.000000 
0.000000 -0.000000 0.000000 
0.000000 0.000000 0.000000 

0.000000 0.000000 0.000000 
0.000000 0.000000 0.000000 
0.000000 0.000000 0.000000 

-0.000000 -0.000000 0.000000 
0.000000 -0.000000 0.000000 
0.000000 0.000000 0.000000 

-0.000000 -0.000000 0.000000 
0.000000 -0.000000 0.000000 
0.000000 0.000000 0.000000 

-0.000000 -0.000000 0.000000 
0.000000 -0.000000 0.000000 
0.000000 0.000000 0.000000 

-0.000000 0.000000 0.000000 
0.000000 -0.000000 0.000000 
0.000000 0.000000 0.000000 

-0.000000 -0.000000 0.000000 
0.000000 -0.000000 0.000000 
0.000000 0.000000 0.000000 

-0.000000 -0.000000 0.000000 
0.000000 -0.000000 0.000000 
0.000000 0.000000 0.000000 

0.000000 0.000000 0.000000 
0.000000 0.000000 0.000000 
0.000000 0.000000 0.000000 

-0.000000 -0.000000 0.000000 
0.000000 -0.000000 0.000000 
0.000000 0.000000 0.000000 

0.000000 -0.000000 0.000000 
0.000000 -0.000000 0.000000 
0.000000 0.000000 0.000000 

-0.000000 0.000000 0.000000 
0.000000 -0.000000 0.000000 
0.000000 0.000000 0.000000 

-0.000000 -0.000000 0.000000 
0.000000 -0.000000 0.000000 
0.000000 0.000000 0.000000 

-0.000000 0.000000 0.000000 
0.000000 -0.000000 0.000000 
0.000000 0.000000 0.000000 

-0.000000 0.000000 0.000000 
0.000000 -0.000000 0.000000 
0.000000 0.000000 0.000000 

0.000000 0.000000 0.000000 
0.000000 -0.000000 0.000000 
0.000000 0.000000 0.000000 

0.000000 0.000000 0.000000 
0.000000 0.000000 0.000000 
0.000000 0.000000 0.000000 

0.000000 0.000000 0.000000 
0.000000 0.000000 0.000000 
0.000000 0.000000 0.000000 

0.000000 -0.000000 0.000000 
0.000000 -0.000000 0.000000 
0.000000 0.000000 0.000000 

-0.000000 -0.000000 0.000000 
0.000000 0.000000 0.000000 
0.000000 0.000000 0.000000 

0.000000 -0.000000 0.000000 
0.000000 0.000000 0.000000 
0.000000 0.000000 0.000000 

-0.000000 -0.000000 0.000000 
0.000000 -0.000000 0.000000 
0.000000 0.000000 0.000000 

-0.000000 0.000000 0.000000 
0.000000 0.000000 0.000000 
0.000000 0.000000 0.000000 

0.000000 0.000000 0.000000 
0.000000 -0.000000 0.000000 
0.000000 0.000000 0.000000 

0.000000 -0.000000 0.000000 
0.000000 0.000000 0.000000 
0.000000 0.000000 0.000000 

-0.000000 0.000000 0.000000 
0.000000 -0.000000 0.000000 
0.000000 0.000000 0.000000 

0.000000 -0.000000 0.000000 
0.000000 0.000000 0.000000 
0.000000 0.000000 0.000000 

-0.000000 -0.000000 0.000000 
0.000000 -0.000000 0.000000 
0.000000 0.000000 0.000000 

-0.000000 0.000000 0.000000 
0.000000 -0.000000 0.000000 
0.000000 0.000000 0.000000 

0.000000 0.000000 0.000000 
0.000000 0.000000 0.000000 
0.000000 0.000000 0.000000 

-0.000000 -0.000000 0.000000 
0.000000 -0.000000 0.000000 
0.000000 0.000000 0.000000 

-0.000000 -0.000000 0.000000 
0.000000 -0.000000 0.000000 
0.000000 0.000000 0.000000 

-0.000000 -0.000000 0.000000 
0.000000 -0.000000 0.000000 
0.000000 0.000000 0.000000 

-0.000000 -0.000000 0.000000 
0.000000 0.000000 0.000000 
0.000000 0.000000 0.000000 

-0.000000 -0.000000 0.000000 
0.000000 -0.000000 0.000000 
0.000000 0.000000 0.000000 

-0.000000 -0.000000 0.000000 
0.000000 -0.000000 0.000000 
0.000000 0.000000 0.000000 

-0.000000 -0.000000 0.000000 
0.000000 -0.000000 0.000000 
0.000000 0.000000 0.000000 

-0.000000 -0.000000 0.000000 
0.000000 0.000000 0.000000 
0.000000 0.000000 0.000000 

0.000000 0.000000 0.000000 
0.000000 0.000000 0.000000 
0.000000 0.000000 0.000000 

0.000000 -0.000000 0.000000 
0.000000 -0.000000 0.000000 
0.000000 0.000000 0.000000 

0.000000 -0.000000 0.000000 
0.000000 0.000000 0.000000 
0.000000 0.000000 0.000000 

0.000000 -0.000000 0.000000 
0.000000 -0.000000 0.000000 
0.000000 0.000000 0.000000 

0.000000 -0.000000 0.000000 
0.000000 -0.000000 0.000000 
0.000000 0.000000 0.000000 

-0.000000 0.000000 0.000000 
0.000000 -0.000000 0.000000 
0.000000 0.000000 0.000000 

-0.000000 -0.000000 0.000000 
0.000000 -0.000000 0.000000 
0.000000 0.000000 0.000000 

-0.000000 -0.000000 0.000000 
0.000000 -0.000000 0.000000 
0.000000 0.000000 0.000000 

-0.000000 -0.000000 0.000000 
0.000000 -0.000000 0.000000 
0.000000 0.000000 0.000000 

-0.000000 0.000000 0.000000 
0.000000 -0.000000 0.000000 
0.000000 0.000000 0.000000 

0.000000 0.000000 0.000000 
0.000000 -0.000000 0.000000 
0.000000 0.000000 0.000000 

-0.000000 -0.000000 0.000000 
0.000000 0.000000 0.000000 
0.000000 0.000000 0.000000 

-0.000000 -0.000000 0.000000 
0.000000 -0.000000 0.000000 
0.000000 0.000000 0.000000 

-0.000000 0.000000 0.000000 
0.000000 -0.000000 0.000000 
0.000000 0.000000 0.000000 

-0.000000 -0.000000 0.000000 
0.000000 -0.000000 0.000000 
0.000000 0.000000 0.000000 

0.000000 -0.000000 0.000000 
0.000000 -0.000000 0.000000 
0.000000 0.000000 0.000000 

0.000000 -0.000000 0.000000 
0.000000 -0.000000 0.000000 
0.000000 0.000000 0.000000 

-0.000000 -0.000000 0.000000 
0.000000 0.000000 0.000000 
0.000000 0.000000 0.000000 

-0.000000 0.000000 0.000000 
0.000000 0.000000 0.000000 
0.000000 0.000000 0.000000 

-0.000000 -0.000000 0.000000 
0.000000 0.000000 0.000000 
0.000000 0.000000 0.000000 

-0.000000 -0.000000 0.000000 
0.000000 -0.000000 0.000000 
0.000000 0.000000 0.000000 

-0.000000 -0.000000 0.000000 
0.000000 -0.000000 0.000000 
0.000000 0.000000 0.000000 

-0.000000 0.000000 0.000000 
0.000000 0.000000 0.000000 
0.000000 0.000000 0.000000 

0.000000 0.000000 0.000000 
0.000000 -0.000000 0.000000 
0.000000 0.000000 0.000000 

-0.000000 0.000000 0.000000 
0.000000 -0.000000 0.000000 
0.000000 0.000000 0.000000 

0.000000 0.000000 0.000000 
0.000000 0.000000 0.000000 
0.000000 0.000000 0.000000 

-0.000000 -0.000000 0.000000 
0.000000 -0.000000 0.000000 
0.000000 0.000000 0.000000 

0.000000 0.000000 0.000000 
0.000000 0.000000 0.000000 
0.000000 0.000000 0.000000 

-0.000000 -0.000000 0.000000 
0.000000 -0.000000 0.000000 
0.000000 0.000000 0.000000 

0.000000 0.000000 0.000000 
0.000000 0.000000 0.000000 
0.000000 0.000000 0.000000 

-0.000000 0.000000 0.000000 
0.000000 -0.000000 0.000000 
0.000000 0.000000 0.000000 

0.000000 0.000000 0.000000 
0.000000 0.000000 0.000000 
0.000000 0.000000 0.000000 

-0.000000 -0.000000 0.000000 
0.000000 -0.000000 0.000000 
0.000000 0.000000 0.000000 

-0.000000 -0.000000 0.000000 
0.000000 -0.000000 0.000000 
0.000000 0.000000 0.000000 

0.000000 -0.000000 0.000000 
0.000000 0.000000 0.000000 
0.000000 0.000000 0.000000 

0.000000 0.000000 0.000000 
0.000000 0.000000 0.000000 
0.000000 0.000000 0.000000 

-0.000000 -0.000000 0.000000 
0.000000 -0.000000 0.000000 
0.000000 0.000000 0.000000 

0.000000 -0.000000 0.000000 
0.000000 0.000000 0.000000 
0.000000 0.000000 0.000000 

0.000000 -0.000000 0.000000 
0.000000 -0.000000 0.000000 
0.000000 0.000000 0.000000 

-0.000000 -0.000000 0.000000 
0.000000 -0.000000 0.000000 
0.000000 0.000000 0.000000 

-0.000000 -0.000000 0.000000 
0.000000 -0.000000 0.000000 
0.000000 0.000000 0.000000 

-0.000000 -0.000000 0.000000 
0.000000 -0.000000 0.000000 
0.000000 0.000000 0.000000 

TENSORS STRAIN float 
-0.000000 -0.000000 0.000000 
0.000000 0.000000 0.000000 
0.000000 0.000000 0.000000 

-0.000000 -0.000000 0.000000 
0.000000 0.000000 0.000000 
0.000000 0.000000 0.000000 

-0.000000 -0.000000 0.000000 
0.000000 0.000000 0.000000 
0.000000 0.000000 0.000000 

-0.000000 0.000000 0.000000 
0.000000 0.000000 0.000000 
0.000000 0.000000 0.000000 

-0.000000 -0.000000 0.000000 
0.000000 0.000000 0.000000 
0.000000 0.000000 0.000000 

-0.000000 -0.000000 0.000000 
0.000000 0.000000 0.000000 
0.000000 0.000000 0.000000 

-0.000000 -0.000000 0.000000 
0.000000 -0.000000 0.000000 
0.000000 0.000000 0.000000 

-0.000000 -0.000000 0.000000 
0.000000 0.000000 0.000000 
0.000000 0.000000 0.000000 

-0.000000 -0.000000 0.000000 
0.000000 -0.000000 0.000000 
0.000000 0.000000 0.000000 

-0.000000 0.000000 0.000000 
0.000000 -0.000000 0.000000 
0.000000 0.000000 0.000000 

-0.000000 -0.000000 0.000000 
0.000000 -0.000000 0.000000 
0.000000 0.000000 0.000000 

-0.000000 0.000000 0.000000 
0.000000 -0.000000 0.000000 
0.000000 0.000000 0.000000 

-0.000000 -0.000000 0.000000 
0.000000 0.000000 0.000000 
0.000000 0.000000 0.000000 

0.000000 -0.000000 0.000000 
0.000000 0.000000 0.000000 
0.000000 0.000000 0.000000 

-0.000000 -0.000000 0.000000 
0.000000 0.000000 0.000000 
0.000000 0.000000 0.000000 

0.000000 -0.000000 0.000000 
0.000000 0.000000 0.000000 
0.000000 0.000000 0.000000 

-0.000000 -0.000000 0.000000 
0.000000 0.000000 0.000000 
0.000000 0.000000 0.000000 

-0.000000 -0.000000 0.000000 
0.000000 0.000000 0.000000 
0.000000 0.000000 0.000000 

-0.000000 -0.000000 0.000000 
0.000000 0.000000 0.000000 
0.000000 0.000000 0.000000 

0.000000 -0.000000 0.000000 
0.000000 0.000000 0.000000 
0.000000 0.000000 0.000000 

0.000000 -0.000000 0.000000 
0.000000 -0.000000 0.000000 
0.000000 0.000000 0.000000 

0.000000 -0.000000 0.000000 
0.000000 0.000000 0.000000 
0.000000 0.000000 0.000000 

-0.000000 -0.000000 0.000000 
0.000000 0.000000 0.000000 
0.000000 0.000000 0.000000 

-0.000000 -0.000000 0.000000 
0.000000 -0.000000 0.000000 
0.000000 0.000000 0.000000 

-0.000000 -0.000000 0.000000 
0.000000 0.000000 0.000000 
0.000000 0.000000 0.000000 

-0.000000 0.000000 0.000000 
0.000000 0.000000 0.000000 
0.000000 0.000000 0.000000 

-0.000000 0.000000 0.000000 
0.000000 0.000000 0.000000 
0.000000 0.000000 0.000000 

-0.000000 -0.000000 0.000000 
0.000000 -0.000000 0.000000 
0.000000 0.000000 0.000000 

-0.000000 -0.000000 0.000000 
0.000000 0.000000 0.000000 
0.000000 0.000000 0.000000 

0.000000 0.000000 0.000000 
0.000000 -0.000000 0.000000 
0.000000 0.000000 0.000000 

-0.000000 -0.000000 0.000000 
0.000000 -0.000000 0.000000 
0.000000 0.000000 0.000000 

0.000000 -0.000000 0.000000 
0.000000 -0.000000 0.000000 
0.000000 0.000000 0.000000 

-0.000000 -0.000000 0.000000 
0.000000 -0.000000 0.000000 
0.000000 0.000000 0.000000 

-0.000000 0.000000 0.000000 
0.000000 0.000000 0.000000 
0.000000 0.000000 0.000000 

0.000000 -0.000000 0.000000 
0.000000 -0.000000 0.000000 
0.000000 0.000000 0.000000 

0.000000 -0.000000 0.000000 
0.000000 -0.000000 0.000000 
0.000000 0.000000 0.000000 

0.000000 -0.000000 0.000000 
0.000000 -0.000000 0.000000 
0.000000 0.000000 0.000000 

0.000000 0.000000 0.000000 
0.000000 -0.000000 0.000000 
0.000000 0.000000 0.000000 

0.000000 -0.000000 0.000000 
0.000000 -0.000000 0.000000 
0.000000 0.000000 0.000000 

0.000000 0.000000 0.000000 
0.000000 -0.000000 0.000000 
0.000000 0.000000 0.000000 

-0.000000 0.000000 0.000000 
0.000000 0.000000 0.000000 
0.000000 0.000000 0.000000 

0.000000 -0.000000 0.000000 
0.000000 -0.000000 0.000000 
0.000000 0.000000 0.000000 

0.000000 -0.000000 0.000000 
0.000000 -0.000000 0.000000 
0.000000 0.000000 0.000000 

0.000000 -0.000000 0.000000 
0.000000 -0.000000 0.000000 
0.000000 0.000000 0.000000 

0.000000 -0.000000 0.000000 
0.000000 0.000000 0.000000 
0.000000 0.000000 0.000000 

0.000000 -0.000000 0.000000 
0.000000 -0.000000 0.000000 
0.000000 0.000000 0.000000 

0.000000 0.000000 0.000000 
0.000000 -0.000000 0.000000 
0.000000 0.000000 0.000000 

0.000000 -0.000000 0.000000 
0.000000 -0.000000 0.000000 
0.000000 0.000000 0.000000 

-0.000000 0.000000 0.000000 
0.000000 0.000000 0.000000 
0.000000 0.000000 0.000000 

-0.000000 -0.000000 0.000000 
0.000000 0.000000 0.000000 
0.000000 0.000000 0.000000 

-0.000000 0.000000 0.000000 
0.000000 0.000000 0.000000 
0.000000 0.000000 0.000000 

-0.000000 -0.000000 0.000000 
0.000000 -0.000000 0.000000 
0.000000 0.000000 0.000000 

-0.000000 0.000000 0.000000 
0.000000 0.000000 0.000000 
0.000000 0.000000 0.000000 

-0.000000 0.000000 0.000000 
0.000000 0.000000 0.000000 
0.000000 0.000000 0.000000 

0.000000 0.000000 0.000000 
0.000000 -0.000000 0.000000 
0.000000 0.000000 0.000000 

0.000000 0.000000 0.000000 
0.000000 -0.000000 0.000000 
0.000000 0.000000 0.000000 

0.000000 -0.000000 0.000000 
0.000000 0.000000 0.000000 
0.000000 0.000000 0.000000 

-0.000000 -0.000000 0.000000 
0.000000 -0.000000 0.000000 
0.000000 0.000000 0.000000 

-0.000000 0.000000 0.000000 
0.000000 -0.000000 0.000000 
0.000000 0.000000 0.000000 

-0.000000 -0.000000 0.000000 
0.000000 0.000000 0.000000 
0.000000 0.000000 0.000000 

0.000000 -0.000000 0.000000 
0.000000 0.000000 0.000000 
0.000000 0.000000 0.000000 

-0.000000 -0.000000 0.000000 
0.000000 -0.000000 0.000000 
0.000000 0.000000 0.000000 

-0.000000 -0.000000 0.000000 
0.000000 0.000000 0.000000 
0.000000 0.000000 0.000000 

-0.000000 -0.000000 0.000000 
0.000000 -0.000000 0.000000 
0.000000 0.000000 0.000000 

-0.000000 -0.000000 0.000000 
0.000000 0.000000 0.000000 
0.000000 0.000000 0.000000 

-0.000000 -0.000000 0.000000 
0.000000 -0.000000 0.000000 
0.000000 0.000000 0.000000 

-0.000000 -0.000000 0.000000 
0.000000 0.000000 0.000000 
0.000000 0.000000 0.000000 

0.000000 -0.000000 0.000000 
0.000000 -0.000000 0.000000 
0.000000 0.000000 0.000000 

-0.000000 0.000000 0.000000 
0.000000 0.000000 0.000000 
0.000000 0.000000 0.000000 

0.000000 -0.000000 0.000000 
0.000000 -0.000000 0.000000 
0.000000 0.000000 0.000000 

0.000000 -0.000000 0.000000 
0.000000 0.000000 0.000000 
0.000000 0.000000 0.000000 

-0.000000 -0.000000 0.000000 
0.000000 -0.000000 0.000000 
0.000000 0.000000 0.000000 

0.000000 -0.000000 0.000000 
0.000000 0.000000 0.000000 
0.000000 0.000000 0.000000 

0.000000 0.000000 0.000000 
0.000000 -0.000000 0.000000 
0.000000 0.000000 0.000000 

-0.000000 0.000000 0.000000 
0.000000 -0.000000 0.000000 
0.000000 0.000000 0.000000 

-0.000000 0.000000 0.000000 
0.000000 -0.000000 0.000000 
0.000000 0.000000 0.000000 

-0.000000 -0.000000 0.000000 
0.000000 0.000000 0.000000 
0.000000 0.000000 0.000000 

-0.000000 0.000000 0.000000 
0.000000 0.000000 0.000000 
0.000000 0.000000 0.000000 

-0.000000 -0.000000 0.000000 
0.000000 0.000000 0.000000 
0.000000 0.000000 0.000000 

-0.000000 -0.000000 0.000000 
0.000000 -0.000000 0.000000 
0.000000 0.000000 0.000000 

-0.000000 -0.000000 0.000000 
0.000000 0.000000 0.000000 
0.000000 0.000000 0.000000 

-0.000000 -0.000000 0.000000 
0.000000 0.000000 0.000000 
0.000000 0.000000 0.000000 

-0.000000 -0.000000 0.000000 
0.000000 -0.000000 0.000000 
0.000000 0.000000 0.000000 

0.000000 0.000000 0.000000 
0.000000 0.000000 0.000000 
0.000000 0.000000 0.000000 

0.000000 0.000000 0.000000 
0.000000 0.000000 0.000000 
0.000000 0.000000 0.000000 

0.000000 -0.000000 0.000000 
0.000000 -0.000000 0.000000 
0.000000 0.000000 0.000000 

0.000000 -0.000000 0.000000 
0.000000 0.000000 0.000000 
0.000000 0.000000 0.000000 

0.000000 -0.000000 0.000000 
0.000000 -0.000000 0.000000 
0.000000 0.000000 0.000000 

0.000000 -0.000000 0.000000 
0.000000 0.000000 0.000000 
0.000000 0.000000 0.000000 

-0.000000 0.000000 0.000000 
0.000000 0.000000 0.000000 
0.000000 0.000000 0.000000 

-0.000000 0.000000 0.000000 
0.000000 -0.000000 0.000000 
0.000000 0.000000 0.000000 

-0.000000 0.000000 0.000000 
0.000000 -0.000000 0.000000 
0.000000 0.000000 0.000000 

0.000000 0.000000 0.000000 
0.000000 -0.000000 0.000000 
0.000000 0.000000 0.000000 

-0.000000 -0.000000 0.000000 
0.000000 0.000000 0.000000 
0.000000 0.000000 0.000000 

0.000000 -0.000000 0.000000 
0.000000 -0.000000 0.000000 
0.000000 0.000000 0.000000 

0.000000 0.000000 0.000000 
0.000000 -0.000000 0.000000 
0.000000 0.000000 0.000000 

0.000000 0.000000 0.000000 
0.000000 0.000000 0.000000 
0.000000 0.000000 0.000000 

-0.000000 -0.000000 0.000000 
0.000000 -0.000000 0.000000 
0.000000 0.000000 0.000000 

-0.000000 -0.000000 0.000000 
0.000000 -0.000000 0.000000 
0.000000 0.000000 0.000000 

-0.000000 -0.000000 0.000000 
0.000000 -0.000000 0.000000 
0.000000 0.000000 0.000000 

-0.000000 0.000000 0.000000 
0.000000 -0.000000 0.000000 
0.000000 0.000000 0.000000 

-0.000000 -0.000000 0.000000 
0.000000 -0.000000 0.000000 
0.000000 0.000000 0.000000 

-0.000000 -0.000000 0.000000 
0.000000 -0.000000 0.000000 
0.000000 0.000000 0.000000 

0.000000 0.000000 0.000000 
0.000000 0.000000 0.000000 
0.000000 0.000000 0.000000 

-0.000000 -0.000000 0.000000 
0.000000 -0.000000 0.000000 
0.000000 0.000000 0.000000 

0.000000 -0.000000 0.000000 
0.000000 -0.000000 0.000000 
0.000000 0.000000 0.000000 

-0.000000 0.000000 0.000000 
0.000000 -0.000000 0.000000 
0.000000 0.000000 0.000000 

0.000000 -0.000000 0.000000 
0.000000 -0.000000 0.000000 
0.000000 0.000000 0.000000 

-0.000000 0.000000 0.000000 
0.000000 -0.000000 0.000000 
0.000000 0.000000 0.000000 

-0.000000 0.000000 0.000000 
0.000000 -0.000000 0.000000 
0.000000 0.000000 0.000000 

0.000000 0.000000 0.000000 
0.000000 -0.000000 0.000000 
0.000000 0.000000 0.000000 

0.000000 0.000000 0.000000 
0.000000 0.000000 0.000000 
0.000000 0.000000 0.000000 

0.000000 0.000000 0.000000 
0.000000 -0.000000 0.000000 
0.000000 0.000000 0.000000 

0.000000 -0.000000 0.000000 
0.000000 -0.000000 0.000000 
0.000000 0.000000 0.000000 

-0.000000 -0.000000 0.000000 
0.000000 0.000000 0.000000 
0.000000 0.000000 0.000000 

0.000000 -0.000000 0.000000 
0.000000 0.000000 0.000000 
0.000000 0.000000 0.000000 

-0.000000 -0.000000 0.000000 
0.000000 -0.000000 0.000000 
0.000000 0.000000 0.000000 

-0.000000 0.000000 0.000000 
0.000000 0.000000 0.000000 
0.000000 0.000000 0.000000 

0.000000 0.000000 0.000000 
0.000000 -0.000000 0.000000 
0.000000 0.000000 0.000000 

0.000000 -0.000000 0.000000 
0.000000 -0.000000 0.000000 
0.000000 0.000000 0.000000 

0.000000 0.000000 0.000000 
0.000000 -0.000000 0.000000 
0.000000 0.000000 0.000000 

-0.000000 -0.000000 0.000000 
0.000000 0.000000 0.000000 
0.000000 0.000000 0.000000 

-0.000000 -0.000000 0.000000 
0.000000 -0.000000 0.000000 
0.000000 0.000000 0.000000 

-0.000000 0.000000 0.000000 
0.000000 -0.000000 0.000000 
0.000000 0.000000 0.000000 

0.000000 0.000000 0.000000 
0.000000 0.000000 0.000000 
0.000000 0.000000 0.000000 

-0.000000 -0.000000 0.000000 
0.000000 -0.000000 0.000000 
0.000000 0.000000 0.000000 

-0.000000 -0.000000 0.000000 
0.000000 0.000000 0.000000 
0.000000 0.000000 0.000000 

-0.000000 -0.000000 0.000000 
0.000000 -0.000000 0.000000 
0.000000 0.000000 0.000000 

-0.000000 -0.000000 0.000000 
0.000000 0.000000 0.000000 
0.000000 0.000000 0.000000 

-0.000000 -0.000000 0.000000 
0.000000 -0.000000 0.000000 
0.000000 0.000000 0.000000 

-0.000000 -0.000000 0.000000 
0.000000 0.000000 0.000000 
0.000000 0.000000 0.000000 

0.000000 -0.000000 0.000000 
0.000000 -0.000000 0.000000 
0.000000 0.000000 0.000000 

-0.000000 -0.000000 0.000000 
0.000000 0.000000 0.000000 
0.000000 0.000000 0.000000 

-0.000000 0.000000 0.000000 
0.000000 0.000000 0.000000 
0.000000 0.000000 0.000000 

0.000000 -0.000000 0.000000 
0.000000 -0.000000 0.000000 
0.000000 0.000000 0.000000 

0.000000 -0.000000 0.000000 
0.000000 0.000000 0.000000 
0.000000 0.000000 0.000000 

0.000000 -0.000000 0.000000 
0.000000 -0.000000 0.000000 
0.000000 0.000000 0.000000 

0.000000 -0.000000 0.000000 
0.000000 -0.000000 0.000000 
0.000000 0.000000 0.000000 

0.000000 0.000000 0.000000 
0.000000 -0.000000 0.000000 
0.000000 0.000000 0.000000 

-0.000000 -0.000000 0.000000 
0.000000 -0.000000 0.000000 
0.000000 0.000000 0.000000 

-0.000000 -0.000000 0.000000 
0.000000 -0.000000 0.000000 
0.000000 0.000000 0.000000 

-0.000000 -0.000000 0.000000 
0.000000 -0.000000 0.000000 
0.000000 0.000000 0.000000 

0.000000 0.000000 0.000000 
0.000000 -0.000000 0.000000 
0.000000 0.000000 0.000000 

0.000000 0.000000 0.000000 
0.000000 -0.000000 0.000000 
0.000000 0.000000 0.000000 

-0.000000 -0.000000 0.000000 
0.000000 0.000000 0.000000 
0.000000 0.000000 0.000000 

-0.000000 -0.000000 0.000000 
0.000000 -0.000000 0.000000 
0.000000 0.000000 0.000000 

-0.000000 0.000000 0.000000 
0.000000 -0.000000 0.000000 
0.000000 0.000000 0.000000 

0.000000 -0.000000 0.000000 
0.000000 -0.000000 0.000000 
0.000000 0.000000 0.000000 

0.000000 -0.000000 0.000000 
0.000000 -0.000000 0.000000 
0.000000 0.000000 0.000000 

0.000000 -0.000000 0.000000 
0.000000 -0.000000 0.000000 
0.000000 0.000000 0.000000 

-0.000000 -0.000000 0.000000 
0.000000 0.000000 0.000000 
0.000000 0.000000 0.000000 

-0.000000 0.000000 0.000000 
0.000000 0.000000 0.000000 
0.000000 0.000000 0.000000 

-0.000000 -0.000000 0.000000 
0.000000 0.000000 0.000000 
0.000000 0.000000 0.000000 

-0.000000 -0.000000 0.000000 
0.000000 -0.000000 0.000000 
0.000000 0.000000 0.000000 

-0.000000 -0.000000 0.000000 
0.000000 0.000000 0.000000 
0.000000 0.000000 0.000000 

-0.000000 0.000000 0.000000 
0.000000 0.000000 0.000000 
0.000000 0.000000 0.000000 

0.000000 0.000000 0.000000 
0.000000 -0.000000 0.000000 
0.000000 0.000000 0.000000 

-0.000000 0.000000 0.000000 
0.000000 -0.000000 0.000000 
0.000000 0.000000 0.000000 

-0.000000 0.000000 0.000000 
0.000000 0.000000 0.000000 
0.000000 0.000000 0.000000 

0.000000 -0.000000 0.000000 
0.000000 -0.000000 0.000000 
0.000000 0.000000 0.000000 

-0.000000 0.000000 0.000000 
0.000000 0.000000 0.000000 
0.000000 0.000000 0.000000 

0.000000 -0.000000 0.000000 
0.000000 -0.000000 0.000000 
0.000000 0.000000 0.000000 

0.000000 0.000000 0.000000 
0.000000 0.000000 0.000000 
0.000000 0.000000 0.000000 

0.000000 0.000000 0.000000 
0.000000 -0.000000 0.000000 
0.000000 0.000000 0.000000 

0.000000 0.000000 0.000000 
0.000000 0.000000 0.000000 
0.000000 0.000000 0.000000 

-0.000000 -0.000000 0.000000 
0.000000 -0.000000 0.000000 
0.000000 0.000000 0.000000 

-0.000000 -0.000000 0.000000 
0.000000 -0.000000 0.000000 
0.000000 0.000000 0.000000 

-0.000000 -0.000000 0.000000 
0.000000 0.000000 0.000000 
0.000000 0.000000 0.000000 

0.000000 0.000000 0.000000 
0.000000 0.000000 0.000000 
0.000000 0.000000 0.000000 

0.000000 -0.000000 0.000000 
0.000000 -0.000000 0.000000 
0.000000 0.000000 0.000000 

-0.000000 -0.000000 0.000000 
0.000000 0.000000 0.000000 
0.000000 0.000000 0.000000 

0.000000 -0.000000 0.000000 
0.000000 -0.000000 0.000000 
0.000000 0.000000 0.000000 

-0.000000 -0.000000 0.000000 
0.000000 -0.000000 0.000000 
0.000000 0.000000 0.000000 

-0.000000 -0.000000 0.000000 
0.000000 -0.000000 0.000000 
0.000000 0.000000 0.000000 

-0.000000 -0.000000 0.000000 
0.000000 0.000000 0.000000 
0.000000 0.000000 0.000000 

