# vtk DataFile Version 3.0 
vtk output 
ASCII 
DATASET UNSTRUCTURED_GRID 
POINTS 175 float 
-0.026061 -0.430113 0.000000 
-0.106992 -0.362058 0.000000 
-0.054870 -0.370291 0.000000 
-0.028809 -0.324407 0.000000 
-0.186430 -0.297982 0.000000 
-0.137056 -0.300509 0.000000 
-0.114311 -0.246861 0.000000 
-0.058186 -0.262527 0.000000 
-0.029377 -0.222350 0.000000 
-0.265318 -0.234827 0.000000 
-0.217198 -0.235626 0.000000 
-0.196633 -0.178330 0.000000 
-0.143120 -0.187038 0.000000 
-0.116563 -0.139770 0.000000 
-0.058945 -0.159416 0.000000 
-0.029568 -0.121296 0.000000 
-0.344206 -0.171671 0.000000 
-0.296791 -0.171664 0.000000 
-0.278030 -0.111721 0.000000 
-0.225992 -0.117587 0.000000 
-0.201664 -0.065470 0.000000 
-0.145749 -0.078944 0.000000 
-0.117890 -0.034601 0.000000 
-0.059328 -0.057307 0.000000 
-0.029759 -0.020241 0.000000 
-0.058559 -0.470864 0.000000 
-0.162226 -0.491707 0.000000 
-0.123292 -0.456089 0.000000 
-0.142917 -0.407106 0.000000 
-0.261851 -0.513863 0.000000 
-0.229092 -0.476836 0.000000 
-0.256854 -0.425604 0.000000 
-0.209613 -0.391492 0.000000 
-0.223062 -0.343918 0.000000 
-0.360414 -0.536163 0.000000 
-0.329787 -0.499040 0.000000 
-0.361761 -0.447238 0.000000 
-0.321587 -0.410829 0.000000 
-0.341985 -0.360595 0.000000 
-0.290702 -0.327796 0.000000 
-0.302189 -0.281061 0.000000 
-0.458977 -0.558463 0.000000 
-0.429420 -0.521389 0.000000 
-0.464588 -0.469347 0.000000 
-0.427556 -0.432319 0.000000 
-0.453135 -0.380805 0.000000 
-0.407738 -0.345489 0.000000 
-0.425037 -0.296061 0.000000 
-0.370772 -0.264432 0.000000 
-0.381315 -0.218205 0.000000 
-0.046960 -0.521679 0.000000 
-0.095301 -0.615725 0.000000 
-0.098873 -0.563078 0.000000 
-0.149405 -0.547880 0.000000 
-0.140093 -0.707429 0.000000 
-0.148617 -0.658731 0.000000 
-0.205981 -0.648494 0.000000 
-0.203197 -0.590290 0.000000 
-0.248777 -0.571144 0.000000 
-0.184111 -0.798393 0.000000 
-0.194039 -0.751302 0.000000 
-0.254475 -0.744002 0.000000 
-0.257893 -0.689892 0.000000 
-0.309886 -0.674520 0.000000 
-0.303554 -0.613975 0.000000 
-0.347255 -0.593817 0.000000 
-0.228129 -0.889356 0.000000 
-0.238687 -0.843132 0.000000 
-0.301302 -0.838180 0.000000 
-0.307162 -0.786141 0.000000 
-0.363386 -0.774020 0.000000 
-0.362692 -0.716509 0.000000 
-0.412122 -0.699216 0.000000 
-0.403017 -0.637069 0.000000 
-0.445733 -0.616490 0.000000 
-0.000000 -0.544294 0.000000 
0.043388 -0.640725 0.000000 
-0.000000 -0.610693 0.000000 
-0.043388 -0.640725 0.000000 
0.087158 -0.732921 0.000000 
0.043769 -0.709223 0.000000 
-0.000000 -0.747689 0.000000 
-0.043769 -0.709223 0.000000 
-0.087158 -0.732921 0.000000 
0.130831 -0.824051 0.000000 
0.087824 -0.802452 0.000000 
0.044436 -0.845152 0.000000 
-0.000000 -0.814087 0.000000 
-0.044436 -0.845152 0.000000 
-0.087824 -0.802452 0.000000 
-0.130831 -0.824051 0.000000 
0.174505 -0.915181 0.000000 
0.131782 -0.894615 0.000000 
0.088871 -0.940481 0.000000 
0.044532 -0.912617 0.000000 
-0.000000 -0.949018 0.000000 
-0.044532 -0.912617 0.000000 
-0.088871 -0.940481 0.000000 
-0.131782 -0.894615 0.000000 
-0.174505 -0.915181 0.000000 
0.046960 -0.521679 0.000000 
0.149405 -0.547880 0.000000 
0.098873 -0.563078 0.000000 
0.095301 -0.615725 0.000000 
0.248777 -0.571144 0.000000 
0.203197 -0.590290 0.000000 
0.205981 -0.648494 0.000000 
0.148617 -0.658731 0.000000 
0.140093 -0.707429 0.000000 
0.347255 -0.593817 0.000000 
0.303554 -0.613975 0.000000 
0.309886 -0.674520 0.000000 
0.257893 -0.689892 0.000000 
0.254475 -0.744002 0.000000 
0.194039 -0.751302 0.000000 
0.184111 -0.798393 0.000000 
0.445733 -0.616490 0.000000 
0.403017 -0.637069 0.000000 
0.412122 -0.699216 0.000000 
0.362692 -0.716509 0.000000 
0.363386 -0.774020 0.000000 
0.307162 -0.786141 0.000000 
0.301302 -0.838180 0.000000 
0.238687 -0.843132 0.000000 
0.228129 -0.889356 0.000000 
0.058559 -0.470864 0.000000 
0.142917 -0.407106 0.000000 
0.123292 -0.456089 0.000000 
0.162226 -0.491707 0.000000 
0.223062 -0.343918 0.000000 
0.209613 -0.391492 0.000000 
0.256854 -0.425604 0.000000 
0.229092 -0.476836 0.000000 
0.261851 -0.513863 0.000000 
0.302189 -0.281061 0.000000 
0.290702 -0.327796 0.000000 
0.341985 -0.360595 0.000000 
0.321587 -0.410829 0.000000 
0.361761 -0.447238 0.000000 
0.329787 -0.499040 0.000000 
0.360414 -0.536163 0.000000 
0.381315 -0.218205 0.000000 
0.370772 -0.264432 0.000000 
0.425037 -0.296061 0.000000 
0.407738 -0.345489 0.000000 
0.453135 -0.380805 0.000000 
0.427556 -0.432319 0.000000 
0.464588 -0.469347 0.000000 
0.429420 -0.521389 0.000000 
0.458977 -0.558463 0.000000 
0.026061 -0.430113 0.000000 
0.028809 -0.324407 0.000000 
0.054870 -0.370291 0.000000 
0.106992 -0.362058 0.000000 
0.029377 -0.222350 0.000000 
0.058186 -0.262527 0.000000 
0.114311 -0.246861 0.000000 
0.137056 -0.300509 0.000000 
0.186430 -0.297982 0.000000 
0.029568 -0.121296 0.000000 
0.058945 -0.159416 0.000000 
0.116563 -0.139770 0.000000 
0.143120 -0.187038 0.000000 
0.196633 -0.178330 0.000000 
0.217198 -0.235626 0.000000 
0.265318 -0.234827 0.000000 
0.029759 -0.020241 0.000000 
0.059328 -0.057307 0.000000 
0.117890 -0.034601 0.000000 
0.145749 -0.078944 0.000000 
0.201664 -0.065470 0.000000 
0.225992 -0.117587 0.000000 
0.278030 -0.111721 0.000000 
0.296791 -0.171664 0.000000 
0.344206 -0.171671 0.000000 
CELLS 175 350 
1 0 
1 1 
1 2 
1 3 
1 4 
1 5 
1 6 
1 7 
1 8 
1 9 
1 10 
1 11 
1 12 
1 13 
1 14 
1 15 
1 16 
1 17 
1 18 
1 19 
1 20 
1 21 
1 22 
1 23 
1 24 
1 25 
1 26 
1 27 
1 28 
1 29 
1 30 
1 31 
1 32 
1 33 
1 34 
1 35 
1 36 
1 37 
1 38 
1 39 
1 40 
1 41 
1 42 
1 43 
1 44 
1 45 
1 46 
1 47 
1 48 
1 49 
1 50 
1 51 
1 52 
1 53 
1 54 
1 55 
1 56 
1 57 
1 58 
1 59 
1 60 
1 61 
1 62 
1 63 
1 64 
1 65 
1 66 
1 67 
1 68 
1 69 
1 70 
1 71 
1 72 
1 73 
1 74 
1 75 
1 76 
1 77 
1 78 
1 79 
1 80 
1 81 
1 82 
1 83 
1 84 
1 85 
1 86 
1 87 
1 88 
1 89 
1 90 
1 91 
1 92 
1 93 
1 94 
1 95 
1 96 
1 97 
1 98 
1 99 
1 100 
1 101 
1 102 
1 103 
1 104 
1 105 
1 106 
1 107 
1 108 
1 109 
1 110 
1 111 
1 112 
1 113 
1 114 
1 115 
1 116 
1 117 
1 118 
1 119 
1 120 
1 121 
1 122 
1 123 
1 124 
1 125 
1 126 
1 127 
1 128 
1 129 
1 130 
1 131 
1 132 
1 133 
1 134 
1 135 
1 136 
1 137 
1 138 
1 139 
1 140 
1 141 
1 142 
1 143 
1 144 
1 145 
1 146 
1 147 
1 148 
1 149 
1 150 
1 151 
1 152 
1 153 
1 154 
1 155 
1 156 
1 157 
1 158 
1 159 
1 160 
1 161 
1 162 
1 163 
1 164 
1 165 
1 166 
1 167 
1 168 
1 169 
1 170 
1 171 
1 172 
1 173 
1 174 
CELL_TYPES 175 
1 
1 
1 
1 
1 
1 
1 
1 
1 
1 
1 
1 
1 
1 
1 
1 
1 
1 
1 
1 
1 
1 
1 
1 
1 
1 
1 
1 
1 
1 
1 
1 
1 
1 
1 
1 
1 
1 
1 
1 
1 
1 
1 
1 
1 
1 
1 
1 
1 
1 
1 
1 
1 
1 
1 
1 
1 
1 
1 
1 
1 
1 
1 
1 
1 
1 
1 
1 
1 
1 
1 
1 
1 
1 
1 
1 
1 
1 
1 
1 
1 
1 
1 
1 
1 
1 
1 
1 
1 
1 
1 
1 
1 
1 
1 
1 
1 
1 
1 
1 
1 
1 
1 
1 
1 
1 
1 
1 
1 
1 
1 
1 
1 
1 
1 
1 
1 
1 
1 
1 
1 
1 
1 
1 
1 
1 
1 
1 
1 
1 
1 
1 
1 
1 
1 
1 
1 
1 
1 
1 
1 
1 
1 
1 
1 
1 
1 
1 
1 
1 
1 
1 
1 
1 
1 
1 
1 
1 
1 
1 
1 
1 
1 
1 
1 
1 
1 
1 
1 
1 
1 
1 
1 
1 
1 
POINT_DATA 175 
VECTORS X_GC float 
-0.026061 -0.430113 0.000000 
-0.106992 -0.362058 0.000000 
-0.054870 -0.370291 0.000000 
-0.028809 -0.324407 0.000000 
-0.186430 -0.297982 0.000000 
-0.137056 -0.300509 0.000000 
-0.114311 -0.246861 0.000000 
-0.058186 -0.262527 0.000000 
-0.029377 -0.222350 0.000000 
-0.265318 -0.234827 0.000000 
-0.217198 -0.235626 0.000000 
-0.196633 -0.178330 0.000000 
-0.143120 -0.187038 0.000000 
-0.116563 -0.139770 0.000000 
-0.058945 -0.159416 0.000000 
-0.029568 -0.121296 0.000000 
-0.344206 -0.171671 0.000000 
-0.296791 -0.171664 0.000000 
-0.278030 -0.111721 0.000000 
-0.225992 -0.117587 0.000000 
-0.201664 -0.065470 0.000000 
-0.145749 -0.078944 0.000000 
-0.117890 -0.034601 0.000000 
-0.059328 -0.057307 0.000000 
-0.029759 -0.020241 0.000000 
-0.058559 -0.470864 0.000000 
-0.162226 -0.491707 0.000000 
-0.123292 -0.456089 0.000000 
-0.142917 -0.407106 0.000000 
-0.261851 -0.513863 0.000000 
-0.229092 -0.476836 0.000000 
-0.256854 -0.425604 0.000000 
-0.209613 -0.391492 0.000000 
-0.223062 -0.343918 0.000000 
-0.360414 -0.536163 0.000000 
-0.329787 -0.499040 0.000000 
-0.361761 -0.447238 0.000000 
-0.321587 -0.410829 0.000000 
-0.341985 -0.360595 0.000000 
-0.290702 -0.327796 0.000000 
-0.302189 -0.281061 0.000000 
-0.458977 -0.558463 0.000000 
-0.429420 -0.521389 0.000000 
-0.464588 -0.469347 0.000000 
-0.427556 -0.432319 0.000000 
-0.453135 -0.380805 0.000000 
-0.407738 -0.345489 0.000000 
-0.425037 -0.296061 0.000000 
-0.370772 -0.264432 0.000000 
-0.381315 -0.218205 0.000000 
-0.046960 -0.521679 0.000000 
-0.095301 -0.615725 0.000000 
-0.098873 -0.563078 0.000000 
-0.149405 -0.547880 0.000000 
-0.140093 -0.707429 0.000000 
-0.148617 -0.658731 0.000000 
-0.205981 -0.648494 0.000000 
-0.203197 -0.590290 0.000000 
-0.248777 -0.571144 0.000000 
-0.184111 -0.798393 0.000000 
-0.194039 -0.751302 0.000000 
-0.254475 -0.744002 0.000000 
-0.257893 -0.689892 0.000000 
-0.309886 -0.674520 0.000000 
-0.303554 -0.613975 0.000000 
-0.347255 -0.593817 0.000000 
-0.228129 -0.889356 0.000000 
-0.238687 -0.843132 0.000000 
-0.301302 -0.838180 0.000000 
-0.307162 -0.786141 0.000000 
-0.363386 -0.774020 0.000000 
-0.362692 -0.716509 0.000000 
-0.412122 -0.699216 0.000000 
-0.403017 -0.637069 0.000000 
-0.445733 -0.616490 0.000000 
-0.000000 -0.544294 0.000000 
0.043388 -0.640725 0.000000 
-0.000000 -0.610693 0.000000 
-0.043388 -0.640725 0.000000 
0.087158 -0.732921 0.000000 
0.043769 -0.709223 0.000000 
-0.000000 -0.747689 0.000000 
-0.043769 -0.709223 0.000000 
-0.087158 -0.732921 0.000000 
0.130831 -0.824051 0.000000 
0.087824 -0.802452 0.000000 
0.044436 -0.845152 0.000000 
-0.000000 -0.814087 0.000000 
-0.044436 -0.845152 0.000000 
-0.087824 -0.802452 0.000000 
-0.130831 -0.824051 0.000000 
0.174505 -0.915181 0.000000 
0.131782 -0.894615 0.000000 
0.088871 -0.940481 0.000000 
0.044532 -0.912617 0.000000 
-0.000000 -0.949018 0.000000 
-0.044532 -0.912617 0.000000 
-0.088871 -0.940481 0.000000 
-0.131782 -0.894615 0.000000 
-0.174505 -0.915181 0.000000 
0.046960 -0.521679 0.000000 
0.149405 -0.547880 0.000000 
0.098873 -0.563078 0.000000 
0.095301 -0.615725 0.000000 
0.248777 -0.571144 0.000000 
0.203197 -0.590290 0.000000 
0.205981 -0.648494 0.000000 
0.148617 -0.658731 0.000000 
0.140093 -0.707429 0.000000 
0.347255 -0.593817 0.000000 
0.303554 -0.613975 0.000000 
0.309886 -0.674520 0.000000 
0.257893 -0.689892 0.000000 
0.254475 -0.744002 0.000000 
0.194039 -0.751302 0.000000 
0.184111 -0.798393 0.000000 
0.445733 -0.616490 0.000000 
0.403017 -0.637069 0.000000 
0.412122 -0.699216 0.000000 
0.362692 -0.716509 0.000000 
0.363386 -0.774020 0.000000 
0.307162 -0.786141 0.000000 
0.301302 -0.838180 0.000000 
0.238687 -0.843132 0.000000 
0.228129 -0.889356 0.000000 
0.058559 -0.470864 0.000000 
0.142917 -0.407106 0.000000 
0.123292 -0.456089 0.000000 
0.162226 -0.491707 0.000000 
0.223062 -0.343918 0.000000 
0.209613 -0.391492 0.000000 
0.256854 -0.425604 0.000000 
0.229092 -0.476836 0.000000 
0.261851 -0.513863 0.000000 
0.302189 -0.281061 0.000000 
0.290702 -0.327796 0.000000 
0.341985 -0.360595 0.000000 
0.321587 -0.410829 0.000000 
0.361761 -0.447238 0.000000 
0.329787 -0.499040 0.000000 
0.360414 -0.536163 0.000000 
0.381315 -0.218205 0.000000 
0.370772 -0.264432 0.000000 
0.425037 -0.296061 0.000000 
0.407738 -0.345489 0.000000 
0.453135 -0.380805 0.000000 
0.427556 -0.432319 0.000000 
0.464588 -0.469347 0.000000 
0.429420 -0.521389 0.000000 
0.458977 -0.558463 0.000000 
0.026061 -0.430113 0.000000 
0.028809 -0.324407 0.000000 
0.054870 -0.370291 0.000000 
0.106992 -0.362058 0.000000 
0.029377 -0.222350 0.000000 
0.058186 -0.262527 0.000000 
0.114311 -0.246861 0.000000 
0.137056 -0.300509 0.000000 
0.186430 -0.297982 0.000000 
0.029568 -0.121296 0.000000 
0.058945 -0.159416 0.000000 
0.116563 -0.139770 0.000000 
0.143120 -0.187038 0.000000 
0.196633 -0.178330 0.000000 
0.217198 -0.235626 0.000000 
0.265318 -0.234827 0.000000 
0.029759 -0.020241 0.000000 
0.059328 -0.057307 0.000000 
0.117890 -0.034601 0.000000 
0.145749 -0.078944 0.000000 
0.201664 -0.065470 0.000000 
0.225992 -0.117587 0.000000 
0.278030 -0.111721 0.000000 
0.296791 -0.171664 0.000000 
0.344206 -0.171671 0.000000 
VECTORS X_EC float 
0.338794 0.306530 0.000000 
-0.609100 -0.612219 0.000000 
0.713312 -0.501078 0.000000 
0.374519 0.879492 0.000000 
0.423588 0.522762 0.000000 
-0.218274 0.556866 0.000000 
-0.513962 -0.167373 0.000000 
0.756418 0.044113 0.000000 
0.381900 -0.498280 0.000000 
-0.550868 -0.329841 0.000000 
0.823577 -0.319046 0.000000 
0.556234 0.907450 0.000000 
-0.139443 -0.974981 0.000000 
-0.484677 0.386894 0.000000 
0.766286 0.652110 0.000000 
0.384386 0.137489 0.000000 
0.474677 0.817556 0.000000 
-0.141715 0.817459 0.000000 
-0.385608 0.008231 0.000000 
0.937896 0.087427 0.000000 
0.621631 -0.616153 0.000000 
-0.105264 -0.434254 0.000000 
-0.467428 0.967119 0.000000 
0.771260 -0.726352 0.000000 
0.386873 0.773259 0.000000 
0.761262 0.856664 0.000000 
0.108942 -0.861959 0.000000 
-0.397202 0.657201 0.000000 
-0.142083 -0.004074 0.000000 
-0.595936 -0.562849 0.000000 
0.978194 0.937286 0.000000 
-0.660903 0.245661 0.000000 
0.724964 -0.214860 0.000000 
0.899809 -0.857108 0.000000 
0.685384 -0.261796 0.000000 
0.287229 -0.762955 0.000000 
0.702895 0.537717 0.000000 
0.180633 0.046198 0.000000 
0.445811 -0.631962 0.000000 
-0.220880 0.925252 0.000000 
-0.071546 0.294327 0.000000 
-0.033296 0.039256 0.000000 
-0.417537 -0.461254 0.000000 
0.039645 0.836184 0.000000 
-0.441768 0.336313 0.000000 
-0.109248 -0.359138 0.000000 
-0.699407 -0.835894 0.000000 
-0.474522 0.496827 0.000000 
0.820030 0.069834 0.000000 
0.957100 -0.554238 0.000000 
0.610485 -0.457329 0.000000 
-0.761092 0.812290 0.000000 
-0.714655 0.101552 0.000000 
-0.057734 -0.103615 0.000000 
-0.178789 0.050294 0.000000 
-0.067979 -0.607132 0.000000 
0.677748 -0.745336 0.000000 
0.641556 0.468919 0.000000 
-0.765897 0.210441 0.000000 
0.393446 -0.721697 0.000000 
0.522510 0.642573 0.000000 
-0.691820 0.544029 0.000000 
-0.647393 -0.186454 0.000000 
0.028512 -0.393980 0.000000 
-0.053800 0.788659 0.000000 
0.514316 0.516528 0.000000 
0.965681 0.506312 0.000000 
-0.897068 -0.117717 0.000000 
-0.083078 -0.184570 0.000000 
-0.006893 -0.887094 0.000000 
0.724017 0.949273 0.000000 
0.714996 0.172869 0.000000 
-0.642413 -0.060588 0.000000 
-0.760780 -0.899568 0.000000 
-0.205471 0.822616 0.000000 
0.000000 -0.152028 0.000000 
-0.564049 -0.850215 0.000000 
0.000000 0.744349 0.000000 
0.564049 -0.850215 0.000000 
0.866949 0.394440 0.000000 
-0.569003 0.074509 0.000000 
0.000000 0.593797 0.000000 
0.569003 0.074509 0.000000 
-0.866949 0.394440 0.000000 
0.299194 -0.375310 0.000000 
0.858290 -0.666893 0.000000 
-0.577662 -0.090448 0.000000 
0.000000 -0.509826 0.000000 
0.577662 -0.090448 0.000000 
-0.858290 -0.666893 0.000000 
-0.299194 -0.375310 0.000000 
-0.268560 0.854940 0.000000 
0.286830 0.577299 0.000000 
0.844677 -0.803503 0.000000 
-0.578910 0.820334 0.000000 
0.000000 -0.688262 0.000000 
0.578910 0.820334 0.000000 
-0.844677 -0.803503 0.000000 
-0.286830 0.577299 0.000000 
0.268560 0.854940 0.000000 
-0.610485 -0.457329 0.000000 
0.057734 -0.103615 0.000000 
0.714655 0.101552 0.000000 
0.761092 0.812290 0.000000 
0.765897 0.210441 0.000000 
-0.641556 0.468919 0.000000 
-0.677748 -0.745335 0.000000 
0.067979 -0.607132 0.000000 
0.178789 0.050294 0.000000 
-0.514316 0.516528 0.000000 
0.053800 0.788659 0.000000 
-0.028512 -0.393980 0.000000 
0.647393 -0.186454 0.000000 
0.691820 0.544029 0.000000 
-0.522510 0.642573 0.000000 
-0.393446 -0.721697 0.000000 
0.205471 0.822616 0.000000 
0.760780 -0.899568 0.000000 
0.642413 -0.060588 0.000000 
-0.714996 0.172869 0.000000 
-0.724017 0.949273 0.000000 
0.006894 -0.887094 0.000000 
0.083078 -0.184570 0.000000 
0.897068 -0.117717 0.000000 
-0.965681 0.506312 0.000000 
-0.761262 0.856664 0.000000 
0.142083 -0.004074 0.000000 
0.397202 0.657201 0.000000 
-0.108942 -0.861959 0.000000 
-0.899809 -0.857108 0.000000 
-0.724964 -0.214860 0.000000 
0.660903 0.245661 0.000000 
-0.978194 0.937286 0.000000 
0.595936 -0.562849 0.000000 
0.071546 0.294327 0.000000 
0.220880 0.925252 0.000000 
-0.445811 -0.631962 0.000000 
-0.180633 0.046198 0.000000 
-0.702895 0.537717 0.000000 
-0.287229 -0.762955 0.000000 
-0.685384 -0.261796 0.000000 
-0.957100 -0.554238 0.000000 
-0.820030 0.069834 0.000000 
0.474522 0.496827 0.000000 
0.699407 -0.835894 0.000000 
0.109248 -0.359138 0.000000 
0.441768 0.336313 0.000000 
-0.039645 0.836184 0.000000 
0.417537 -0.461254 0.000000 
0.033296 0.039256 0.000000 
-0.338794 0.306530 0.000000 
-0.374519 0.879492 0.000000 
-0.713312 -0.501078 0.000000 
0.609100 -0.612219 0.000000 
-0.381900 -0.498280 0.000000 
-0.756418 0.044113 0.000000 
0.513962 -0.167373 0.000000 
0.218274 0.556866 0.000000 
-0.423588 0.522762 0.000000 
-0.384386 0.137489 0.000000 
-0.766286 0.652110 0.000000 
0.484677 0.386894 0.000000 
0.139443 -0.974981 0.000000 
-0.556234 0.907450 0.000000 
-0.823577 -0.319046 0.000000 
0.550868 -0.329841 0.000000 
-0.386873 0.773259 0.000000 
-0.771260 -0.726352 0.000000 
0.467428 0.967119 0.000000 
0.105264 -0.434254 0.000000 
-0.621631 -0.616153 0.000000 
-0.937896 0.087427 0.000000 
0.385608 0.008231 0.000000 
0.141715 0.817459 0.000000 
-0.474677 0.817556 0.000000 
CELL_DATA 175 
SCALARS MASS float 
LOOKUP_TABLE default 
0.078183 
0.086427 
0.094672 
0.086427 
0.088131 
0.092111 
0.085854 
0.092111 
0.088131 
0.088705 
0.091000 
0.086983 
0.091556 
0.086983 
0.091000 
0.088705 
0.089278 
0.091574 
0.089278 
0.092722 
0.089278 
0.092722 
0.089278 
0.091574 
0.089278 
0.078183 
0.086427 
0.094672 
0.086427 
0.088131 
0.092111 
0.085854 
0.092111 
0.088131 
0.088705 
0.091000 
0.086983 
0.091556 
0.086983 
0.091000 
0.088705 
0.089278 
0.091574 
0.089278 
0.092722 
0.089278 
0.092722 
0.089278 
0.091574 
0.089278 
0.078183 
0.086427 
0.094672 
0.086427 
0.088131 
0.092111 
0.085854 
0.092111 
0.088131 
0.088705 
0.091000 
0.086983 
0.091556 
0.086983 
0.091000 
0.088705 
0.089278 
0.091574 
0.089278 
0.092722 
0.089278 
0.092722 
0.089278 
0.091574 
0.089278 
0.078183 
0.086427 
0.094672 
0.086427 
0.088131 
0.092111 
0.085854 
0.092111 
0.088131 
0.088705 
0.091000 
0.086983 
0.091556 
0.086983 
0.091000 
0.088705 
0.089278 
0.091574 
0.089278 
0.092722 
0.089278 
0.092722 
0.089278 
0.091574 
0.089278 
0.078183 
0.086427 
0.094672 
0.086427 
0.088131 
0.092111 
0.085854 
0.092111 
0.088131 
0.088705 
0.091000 
0.086983 
0.091556 
0.086983 
0.091000 
0.088705 
0.089278 
0.091574 
0.089278 
0.092722 
0.089278 
0.092722 
0.089278 
0.091574 
0.089278 
0.078183 
0.086427 
0.094672 
0.086427 
0.088131 
0.092111 
0.085854 
0.092111 
0.088131 
0.088705 
0.091000 
0.086983 
0.091556 
0.086983 
0.091000 
0.088705 
0.089278 
0.091574 
0.089278 
0.092722 
0.089278 
0.092722 
0.089278 
0.091574 
0.089278 
0.078183 
0.086427 
0.094672 
0.086427 
0.088131 
0.092111 
0.085854 
0.092111 
0.088131 
0.088705 
0.091000 
0.086983 
0.091556 
0.086983 
0.091000 
0.088705 
0.089278 
0.091574 
0.089278 
0.092722 
0.089278 
0.092722 
0.089278 
0.091574 
0.089278 
SCALARS MASS float 
LOOKUP_TABLE default 
0.078183 
0.086427 
0.094672 
0.086427 
0.088131 
0.092111 
0.085854 
0.092111 
0.088131 
0.088705 
0.091000 
0.086983 
0.091556 
0.086983 
0.091000 
0.088705 
0.089278 
0.091574 
0.089278 
0.092722 
0.089278 
0.092722 
0.089278 
0.091574 
0.089278 
0.078183 
0.086427 
0.094672 
0.086427 
0.088131 
0.092111 
0.085854 
0.092111 
0.088131 
0.088705 
0.091000 
0.086983 
0.091556 
0.086983 
0.091000 
0.088705 
0.089278 
0.091574 
0.089278 
0.092722 
0.089278 
0.092722 
0.089278 
0.091574 
0.089278 
0.078183 
0.086427 
0.094672 
0.086427 
0.088131 
0.092111 
0.085854 
0.092111 
0.088131 
0.088705 
0.091000 
0.086983 
0.091556 
0.086983 
0.091000 
0.088705 
0.089278 
0.091574 
0.089278 
0.092722 
0.089278 
0.092722 
0.089278 
0.091574 
0.089278 
0.078183 
0.086427 
0.094672 
0.086427 
0.088131 
0.092111 
0.085854 
0.092111 
0.088131 
0.088705 
0.091000 
0.086983 
0.091556 
0.086983 
0.091000 
0.088705 
0.089278 
0.091574 
0.089278 
0.092722 
0.089278 
0.092722 
0.089278 
0.091574 
0.089278 
0.078183 
0.086427 
0.094672 
0.086427 
0.088131 
0.092111 
0.085854 
0.092111 
0.088131 
0.088705 
0.091000 
0.086983 
0.091556 
0.086983 
0.091000 
0.088705 
0.089278 
0.091574 
0.089278 
0.092722 
0.089278 
0.092722 
0.089278 
0.091574 
0.089278 
0.078183 
0.086427 
0.094672 
0.086427 
0.088131 
0.092111 
0.085854 
0.092111 
0.088131 
0.088705 
0.091000 
0.086983 
0.091556 
0.086983 
0.091000 
0.088705 
0.089278 
0.091574 
0.089278 
0.092722 
0.089278 
0.092722 
0.089278 
0.091574 
0.089278 
0.078183 
0.086427 
0.094672 
0.086427 
0.088131 
0.092111 
0.085854 
0.092111 
0.088131 
0.088705 
0.091000 
0.086983 
0.091556 
0.086983 
0.091000 
0.088705 
0.089278 
0.091574 
0.089278 
0.092722 
0.089278 
0.092722 
0.089278 
0.091574 
0.089278 
SCALARS DENSITY float 
LOOKUP_TABLE default 
20.000000 
20.000000 
20.000000 
20.000000 
20.000000 
20.000000 
20.000000 
20.000000 
20.000000 
20.000000 
20.000000 
20.000000 
20.000000 
20.000000 
20.000000 
20.000000 
20.000000 
20.000000 
20.000000 
20.000000 
20.000000 
20.000000 
20.000000 
20.000000 
20.000000 
20.000000 
20.000000 
20.000000 
20.000000 
20.000000 
20.000000 
20.000000 
20.000000 
20.000000 
20.000000 
20.000000 
20.000000 
20.000000 
20.000000 
20.000000 
20.000000 
20.000000 
20.000000 
20.000000 
20.000000 
20.000000 
20.000000 
20.000000 
20.000000 
20.000000 
20.000000 
20.000000 
20.000000 
20.000000 
20.000000 
20.000000 
20.000000 
20.000000 
20.000000 
20.000000 
20.000000 
20.000000 
20.000000 
20.000000 
20.000000 
20.000000 
20.000000 
20.000000 
20.000000 
20.000000 
20.000000 
20.000000 
20.000000 
20.000000 
20.000000 
20.000000 
20.000000 
20.000000 
20.000000 
20.000000 
20.000000 
20.000000 
20.000000 
20.000000 
20.000000 
20.000000 
20.000000 
20.000000 
20.000000 
20.000000 
20.000000 
20.000000 
20.000000 
20.000000 
20.000000 
20.000000 
20.000000 
20.000000 
20.000000 
20.000000 
20.000000 
20.000000 
20.000000 
20.000000 
20.000000 
20.000000 
20.000000 
20.000000 
20.000000 
20.000000 
20.000000 
20.000000 
20.000000 
20.000000 
20.000000 
20.000000 
20.000000 
20.000000 
20.000000 
20.000000 
20.000000 
20.000000 
20.000000 
20.000000 
20.000000 
20.000000 
20.000000 
20.000000 
20.000000 
20.000000 
20.000000 
20.000000 
20.000000 
20.000000 
20.000000 
20.000000 
20.000000 
20.000000 
20.000000 
20.000000 
20.000000 
20.000000 
20.000000 
20.000000 
20.000000 
20.000000 
20.000000 
20.000000 
20.000000 
20.000000 
20.000000 
20.000000 
20.000000 
20.000000 
20.000000 
20.000000 
20.000000 
20.000000 
20.000000 
20.000000 
20.000000 
20.000000 
20.000000 
20.000000 
20.000000 
20.000000 
20.000000 
20.000000 
20.000000 
20.000000 
20.000000 
20.000000 
20.000000 
20.000000 
20.000000 
SCALARS ELEM_i float 
LOOKUP_TABLE default 
179 
206 
179 
180 
207 
207 
207 
180 
180 
234 
207 
208 
207 
208 
181 
181 
235 
235 
235 
208 
208 
208 
209 
181 
182 
179 
205 
206 
206 
232 
206 
233 
206 
206 
232 
232 
233 
233 
233 
234 
234 
259 
259 
260 
260 
260 
260 
261 
234 
234 
178 
205 
205 
205 
204 
204 
204 
205 
232 
203 
204 
231 
231 
231 
232 
232 
203 
230 
230 
230 
231 
231 
258 
258 
259 
178 
177 
178 
177 
150 
177 
177 
177 
204 
149 
149 
176 
176 
176 
203 
203 
149 
149 
148 
176 
175 
176 
202 
203 
203 
178 
151 
151 
151 
124 
151 
150 
150 
150 
124 
124 
123 
123 
123 
150 
149 
97 
96 
96 
123 
123 
122 
122 
122 
149 
179 
152 
152 
151 
152 
152 
125 
152 
124 
126 
126 
125 
125 
125 
124 
124 
126 
126 
99 
98 
98 
98 
98 
97 
97 
179 
180 
179 
152 
180 
180 
153 
153 
153 
181 
181 
154 
153 
154 
153 
126 
182 
181 
155 
154 
154 
154 
127 
127 
127 
VECTORS VELOCITY float 
0.000000 -3.081910 0.000000 
0.000000 -3.081910 0.000000 
0.000000 -3.081910 0.000000 
0.000000 -3.081910 0.000000 
0.000000 -3.081910 0.000000 
0.000000 -3.081910 0.000000 
0.000000 -3.081910 0.000000 
0.000000 -3.081910 0.000000 
0.000000 -3.081910 0.000000 
-0.000000 -3.081910 0.000000 
-0.000000 -3.081910 0.000000 
-0.000000 -3.081910 0.000000 
0.000000 -3.081910 0.000000 
0.000000 -3.081910 0.000000 
0.000000 -3.081910 0.000000 
0.000000 -3.081910 0.000000 
-0.000000 -3.081910 0.000000 
-0.000000 -3.081910 0.000000 
0.000000 -3.081910 0.000000 
-0.000000 -3.081910 0.000000 
0.000000 -3.081910 0.000000 
0.000000 -3.081910 0.000000 
-0.000000 -3.081910 0.000000 
-0.000000 -3.081910 0.000000 
0.000000 -3.081910 0.000000 
0.000000 -3.081910 0.000000 
0.000000 -3.081910 0.000000 
-0.000000 -3.081910 0.000000 
-0.000000 -3.081910 0.000000 
0.000000 -3.081910 0.000000 
-0.000000 -3.081910 0.000000 
-0.000000 -3.081910 0.000000 
-0.000000 -3.081910 0.000000 
-0.000000 -3.081910 0.000000 
-0.000000 -3.081910 0.000000 
0.000000 -3.081910 0.000000 
0.000000 -3.081910 0.000000 
0.000000 -3.081910 0.000000 
-0.000000 -3.081910 0.000000 
-0.000000 -3.081910 0.000000 
-0.000000 -3.081910 0.000000 
-0.000000 -3.081910 0.000000 
0.000000 -3.081910 0.000000 
0.000000 -3.081910 0.000000 
0.000000 -3.081910 0.000000 
0.000000 -3.081910 0.000000 
-0.000000 -3.081910 0.000000 
-0.000000 -3.081910 0.000000 
-0.000000 -3.081910 0.000000 
-0.000000 -3.081910 0.000000 
0.000000 -3.081910 0.000000 
-0.000000 -3.081910 0.000000 
0.000000 -3.081910 0.000000 
0.000000 -3.081910 0.000000 
-0.000000 -3.081910 0.000000 
-0.000000 -3.081910 0.000000 
0.000000 -3.081910 0.000000 
0.000000 -3.081910 0.000000 
0.000000 -3.081910 0.000000 
-0.000000 -3.081910 0.000000 
-0.000000 -3.081910 0.000000 
-0.000000 -3.081910 0.000000 
-0.000000 -3.081910 0.000000 
0.000000 -3.081910 0.000000 
0.000000 -3.081910 0.000000 
-0.000000 -3.081910 0.000000 
-0.000000 -3.081910 0.000000 
-0.000000 -3.081910 0.000000 
-0.000000 -3.081910 0.000000 
-0.000000 -3.081910 0.000000 
-0.000000 -3.081910 0.000000 
0.000000 -3.081910 0.000000 
-0.000000 -3.081910 0.000000 
0.000000 -3.081910 0.000000 
-0.000000 -3.081910 0.000000 
0.000000 -3.081910 0.000000 
-0.000000 -3.081910 0.000000 
-0.000000 -3.081910 0.000000 
-0.000000 -3.081910 0.000000 
0.000000 -3.081910 0.000000 
0.000000 -3.081910 0.000000 
0.000000 -3.081910 0.000000 
-0.000000 -3.081910 0.000000 
-0.000000 -3.081910 0.000000 
0.000000 -3.081910 0.000000 
0.000000 -3.081910 0.000000 
0.000000 -3.081910 0.000000 
0.000000 -3.081910 0.000000 
0.000000 -3.081910 0.000000 
0.000000 -3.081910 0.000000 
0.000000 -3.081910 0.000000 
0.000000 -3.081910 0.000000 
0.000000 -3.081910 0.000000 
0.000000 -3.081910 0.000000 
-0.000000 -3.081910 0.000000 
0.000000 -3.081910 0.000000 
0.000000 -3.081910 0.000000 
0.000000 -3.081910 0.000000 
0.000000 -3.081910 0.000000 
-0.000000 -3.081910 0.000000 
0.000000 -3.081910 0.000000 
0.000000 -3.081910 0.000000 
0.000000 -3.081910 0.000000 
-0.000000 -3.081910 0.000000 
-0.000000 -3.081910 0.000000 
0.000000 -3.081910 0.000000 
0.000000 -3.081910 0.000000 
0.000000 -3.081910 0.000000 
0.000000 -3.081910 0.000000 
-0.000000 -3.081910 0.000000 
0.000000 -3.081910 0.000000 
-0.000000 -3.081910 0.000000 
0.000000 -3.081910 0.000000 
0.000000 -3.081910 0.000000 
-0.000000 -3.081910 0.000000 
-0.000000 -3.081910 0.000000 
-0.000000 -3.081910 0.000000 
-0.000000 -3.081910 0.000000 
-0.000000 -3.081910 0.000000 
-0.000000 -3.081910 0.000000 
0.000000 -3.081910 0.000000 
-0.000000 -3.081910 0.000000 
0.000000 -3.081910 0.000000 
-0.000000 -3.081910 0.000000 
0.000000 -3.081910 0.000000 
0.000000 -3.081910 0.000000 
0.000000 -3.081910 0.000000 
0.000000 -3.081910 0.000000 
-0.000000 -3.081910 0.000000 
0.000000 -3.081910 0.000000 
-0.000000 -3.081910 0.000000 
-0.000000 -3.081910 0.000000 
-0.000000 -3.081910 0.000000 
-0.000000 -3.081910 0.000000 
0.000000 -3.081910 0.000000 
0.000000 -3.081910 0.000000 
-0.000000 -3.081910 0.000000 
-0.000000 -3.081910 0.000000 
0.000000 -3.081910 0.000000 
-0.000000 -3.081910 0.000000 
-0.000000 -3.081910 0.000000 
0.000000 -3.081910 0.000000 
-0.000000 -3.081910 0.000000 
-0.000000 -3.081910 0.000000 
-0.000000 -3.081910 0.000000 
0.000000 -3.081910 0.000000 
0.000000 -3.081910 0.000000 
0.000000 -3.081910 0.000000 
-0.000000 -3.081910 0.000000 
-0.000000 -3.081910 0.000000 
0.000000 -3.081910 0.000000 
0.000000 -3.081910 0.000000 
0.000000 -3.081910 0.000000 
-0.000000 -3.081910 0.000000 
0.000000 -3.081910 0.000000 
0.000000 -3.081910 0.000000 
0.000000 -3.081910 0.000000 
0.000000 -3.081910 0.000000 
0.000000 -3.081910 0.000000 
0.000000 -3.081910 0.000000 
0.000000 -3.081910 0.000000 
-0.000000 -3.081910 0.000000 
-0.000000 -3.081910 0.000000 
-0.000000 -3.081910 0.000000 
-0.000000 -3.081910 0.000000 
-0.000000 -3.081910 0.000000 
-0.000000 -3.081910 0.000000 
-0.000000 -3.081910 0.000000 
-0.000000 -3.081910 0.000000 
0.000000 -3.081910 0.000000 
0.000000 -3.081910 0.000000 
-0.000000 -3.081910 0.000000 
-0.000000 -3.081910 0.000000 
-0.000000 -3.081910 0.000000 
0.000000 -3.081910 0.000000 
TENSORS STRESS float 
-0.000000 -0.000000 0.000000 
0.000000 -0.000000 0.000000 
0.000000 0.000000 0.000000 

0.000000 0.000000 0.000000 
0.000000 0.000000 0.000000 
0.000000 0.000000 0.000000 

-0.000000 0.000000 0.000000 
0.000000 -0.000000 0.000000 
0.000000 0.000000 0.000000 

-0.000000 0.000000 0.000000 
0.000000 -0.000000 0.000000 
0.000000 0.000000 0.000000 

-0.000000 0.000000 0.000000 
0.000000 -0.000000 0.000000 
0.000000 0.000000 0.000000 

0.000000 0.000000 0.000000 
0.000000 0.000000 0.000000 
0.000000 0.000000 0.000000 

-0.000000 0.000000 0.000000 
0.000000 -0.000000 0.000000 
0.000000 0.000000 0.000000 

-0.000000 0.000000 0.000000 
0.000000 -0.000000 0.000000 
0.000000 0.000000 0.000000 

-0.000000 -0.000000 0.000000 
0.000000 -0.000000 0.000000 
0.000000 0.000000 0.000000 

-0.000000 -0.000000 0.000000 
0.000000 -0.000000 0.000000 
0.000000 0.000000 0.000000 

-0.000000 -0.000000 0.000000 
0.000000 -0.000000 0.000000 
0.000000 0.000000 0.000000 

0.000000 0.000000 0.000000 
0.000000 0.000000 0.000000 
0.000000 0.000000 0.000000 

0.000000 0.000000 0.000000 
0.000000 0.000000 0.000000 
0.000000 0.000000 0.000000 

0.000000 -0.000000 0.000000 
0.000000 0.000000 0.000000 
0.000000 0.000000 0.000000 

-0.000000 -0.000000 0.000000 
0.000000 -0.000000 0.000000 
0.000000 0.000000 0.000000 

-0.000000 0.000000 0.000000 
0.000000 0.000000 0.000000 
0.000000 0.000000 0.000000 

0.000000 -0.000000 0.000000 
0.000000 0.000000 0.000000 
0.000000 0.000000 0.000000 

0.000000 -0.000000 0.000000 
0.000000 0.000000 0.000000 
0.000000 0.000000 0.000000 

0.000000 0.000000 0.000000 
0.000000 -0.000000 0.000000 
0.000000 0.000000 0.000000 

-0.000000 0.000000 0.000000 
0.000000 0.000000 0.000000 
0.000000 0.000000 0.000000 

-0.000000 0.000000 0.000000 
0.000000 -0.000000 0.000000 
0.000000 0.000000 0.000000 

-0.000000 -0.000000 0.000000 
0.000000 -0.000000 0.000000 
0.000000 0.000000 0.000000 

-0.000000 -0.000000 0.000000 
0.000000 -0.000000 0.000000 
0.000000 0.000000 0.000000 

-0.000000 0.000000 0.000000 
0.000000 -0.000000 0.000000 
0.000000 0.000000 0.000000 

-0.000000 -0.000000 0.000000 
0.000000 0.000000 0.000000 
0.000000 0.000000 0.000000 

0.000000 0.000000 0.000000 
0.000000 0.000000 0.000000 
0.000000 0.000000 0.000000 

-0.000000 0.000000 0.000000 
0.000000 -0.000000 0.000000 
0.000000 0.000000 0.000000 

-0.000000 -0.000000 0.000000 
0.000000 -0.000000 0.000000 
0.000000 0.000000 0.000000 

-0.000000 -0.000000 0.000000 
0.000000 -0.000000 0.000000 
0.000000 0.000000 0.000000 

0.000000 -0.000000 0.000000 
0.000000 -0.000000 0.000000 
0.000000 0.000000 0.000000 

-0.000000 -0.000000 0.000000 
0.000000 -0.000000 0.000000 
0.000000 0.000000 0.000000 

-0.000000 -0.000000 0.000000 
0.000000 -0.000000 0.000000 
0.000000 0.000000 0.000000 

0.000000 -0.000000 0.000000 
0.000000 0.000000 0.000000 
0.000000 0.000000 0.000000 

-0.000000 -0.000000 0.000000 
0.000000 -0.000000 0.000000 
0.000000 0.000000 0.000000 

0.000000 -0.000000 0.000000 
0.000000 -0.000000 0.000000 
0.000000 0.000000 0.000000 

0.000000 0.000000 0.000000 
0.000000 0.000000 0.000000 
0.000000 0.000000 0.000000 

-0.000000 0.000000 0.000000 
0.000000 -0.000000 0.000000 
0.000000 0.000000 0.000000 

-0.000000 0.000000 0.000000 
0.000000 -0.000000 0.000000 
0.000000 0.000000 0.000000 

-0.000000 0.000000 0.000000 
0.000000 0.000000 0.000000 
0.000000 0.000000 0.000000 

-0.000000 0.000000 0.000000 
0.000000 0.000000 0.000000 
0.000000 0.000000 0.000000 

-0.000000 -0.000000 0.000000 
0.000000 0.000000 0.000000 
0.000000 0.000000 0.000000 

0.000000 -0.000000 0.000000 
0.000000 -0.000000 0.000000 
0.000000 0.000000 0.000000 

0.000000 -0.000000 0.000000 
0.000000 0.000000 0.000000 
0.000000 0.000000 0.000000 

0.000000 0.000000 0.000000 
0.000000 0.000000 0.000000 
0.000000 0.000000 0.000000 

0.000000 0.000000 0.000000 
0.000000 0.000000 0.000000 
0.000000 0.000000 0.000000 

-0.000000 -0.000000 0.000000 
0.000000 -0.000000 0.000000 
0.000000 0.000000 0.000000 

-0.000000 -0.000000 0.000000 
0.000000 -0.000000 0.000000 
0.000000 0.000000 0.000000 

0.000000 -0.000000 0.000000 
0.000000 -0.000000 0.000000 
0.000000 0.000000 0.000000 

0.000000 -0.000000 0.000000 
0.000000 0.000000 0.000000 
0.000000 0.000000 0.000000 

-0.000000 -0.000000 0.000000 
0.000000 -0.000000 0.000000 
0.000000 0.000000 0.000000 

0.000000 -0.000000 0.000000 
0.000000 0.000000 0.000000 
0.000000 0.000000 0.000000 

-0.000000 0.000000 0.000000 
0.000000 -0.000000 0.000000 
0.000000 0.000000 0.000000 

-0.000000 0.000000 0.000000 
0.000000 -0.000000 0.000000 
0.000000 0.000000 0.000000 

-0.000000 0.000000 0.000000 
0.000000 -0.000000 0.000000 
0.000000 0.000000 0.000000 

-0.000000 0.000000 0.000000 
0.000000 -0.000000 0.000000 
0.000000 0.000000 0.000000 

-0.000000 0.000000 0.000000 
0.000000 -0.000000 0.000000 
0.000000 0.000000 0.000000 

-0.000000 0.000000 0.000000 
0.000000 -0.000000 0.000000 
0.000000 0.000000 0.000000 

-0.000000 -0.000000 0.000000 
0.000000 -0.000000 0.000000 
0.000000 0.000000 0.000000 

0.000000 0.000000 0.000000 
0.000000 0.000000 0.000000 
0.000000 0.000000 0.000000 

0.000000 0.000000 0.000000 
0.000000 0.000000 0.000000 
0.000000 0.000000 0.000000 

-0.000000 -0.000000 0.000000 
0.000000 0.000000 0.000000 
0.000000 0.000000 0.000000 

0.000000 0.000000 0.000000 
0.000000 -0.000000 0.000000 
0.000000 0.000000 0.000000 

0.000000 0.000000 0.000000 
0.000000 -0.000000 0.000000 
0.000000 0.000000 0.000000 

0.000000 0.000000 0.000000 
0.000000 -0.000000 0.000000 
0.000000 0.000000 0.000000 

0.000000 -0.000000 0.000000 
0.000000 0.000000 0.000000 
0.000000 0.000000 0.000000 

0.000000 -0.000000 0.000000 
0.000000 0.000000 0.000000 
0.000000 0.000000 0.000000 

0.000000 0.000000 0.000000 
0.000000 0.000000 0.000000 
0.000000 0.000000 0.000000 

0.000000 0.000000 0.000000 
0.000000 0.000000 0.000000 
0.000000 0.000000 0.000000 

-0.000000 0.000000 0.000000 
0.000000 -0.000000 0.000000 
0.000000 0.000000 0.000000 

0.000000 -0.000000 0.000000 
0.000000 -0.000000 0.000000 
0.000000 0.000000 0.000000 

0.000000 0.000000 0.000000 
0.000000 -0.000000 0.000000 
0.000000 0.000000 0.000000 

0.000000 0.000000 0.000000 
0.000000 -0.000000 0.000000 
0.000000 0.000000 0.000000 

0.000000 -0.000000 0.000000 
0.000000 0.000000 0.000000 
0.000000 0.000000 0.000000 

0.000000 -0.000000 0.000000 
0.000000 0.000000 0.000000 
0.000000 0.000000 0.000000 

0.000000 -0.000000 0.000000 
0.000000 0.000000 0.000000 
0.000000 0.000000 0.000000 

-0.000000 0.000000 0.000000 
0.000000 -0.000000 0.000000 
0.000000 0.000000 0.000000 

0.000000 -0.000000 0.000000 
0.000000 -0.000000 0.000000 
0.000000 0.000000 0.000000 

0.000000 0.000000 0.000000 
0.000000 0.000000 0.000000 
0.000000 0.000000 0.000000 

0.000000 -0.000000 0.000000 
0.000000 0.000000 0.000000 
0.000000 0.000000 0.000000 

-0.000000 -0.000000 0.000000 
0.000000 -0.000000 0.000000 
0.000000 0.000000 0.000000 

0.000000 0.000000 0.000000 
0.000000 -0.000000 0.000000 
0.000000 0.000000 0.000000 

0.000000 0.000000 0.000000 
0.000000 -0.000000 0.000000 
0.000000 0.000000 0.000000 

0.000000 0.000000 0.000000 
0.000000 0.000000 0.000000 
0.000000 0.000000 0.000000 

-0.000000 -0.000000 0.000000 
0.000000 -0.000000 0.000000 
0.000000 0.000000 0.000000 

0.000000 -0.000000 0.000000 
0.000000 0.000000 0.000000 
0.000000 0.000000 0.000000 

0.000000 0.000000 0.000000 
0.000000 0.000000 0.000000 
0.000000 0.000000 0.000000 

0.000000 0.000000 0.000000 
0.000000 0.000000 0.000000 
0.000000 0.000000 0.000000 

0.000000 -0.000000 0.000000 
0.000000 0.000000 0.000000 
0.000000 0.000000 0.000000 

-0.000000 0.000000 0.000000 
0.000000 0.000000 0.000000 
0.000000 0.000000 0.000000 

0.000000 0.000000 0.000000 
0.000000 0.000000 0.000000 
0.000000 0.000000 0.000000 

0.000000 -0.000000 0.000000 
0.000000 -0.000000 0.000000 
0.000000 0.000000 0.000000 

0.000000 -0.000000 0.000000 
0.000000 0.000000 0.000000 
0.000000 0.000000 0.000000 

0.000000 0.000000 0.000000 
0.000000 0.000000 0.000000 
0.000000 0.000000 0.000000 

0.000000 0.000000 0.000000 
0.000000 -0.000000 0.000000 
0.000000 0.000000 0.000000 

-0.000000 0.000000 0.000000 
0.000000 0.000000 0.000000 
0.000000 0.000000 0.000000 

-0.000000 0.000000 0.000000 
0.000000 -0.000000 0.000000 
0.000000 0.000000 0.000000 

-0.000000 0.000000 0.000000 
0.000000 0.000000 0.000000 
0.000000 0.000000 0.000000 

0.000000 -0.000000 0.000000 
0.000000 -0.000000 0.000000 
0.000000 0.000000 0.000000 

0.000000 -0.000000 0.000000 
0.000000 0.000000 0.000000 
0.000000 0.000000 0.000000 

0.000000 -0.000000 0.000000 
0.000000 0.000000 0.000000 
0.000000 0.000000 0.000000 

-0.000000 -0.000000 0.000000 
0.000000 -0.000000 0.000000 
0.000000 0.000000 0.000000 

-0.000000 -0.000000 0.000000 
0.000000 -0.000000 0.000000 
0.000000 0.000000 0.000000 

-0.000000 -0.000000 0.000000 
0.000000 -0.000000 0.000000 
0.000000 0.000000 0.000000 

-0.000000 0.000000 0.000000 
0.000000 0.000000 0.000000 
0.000000 0.000000 0.000000 

-0.000000 0.000000 0.000000 
0.000000 -0.000000 0.000000 
0.000000 0.000000 0.000000 

-0.000000 -0.000000 0.000000 
0.000000 -0.000000 0.000000 
0.000000 0.000000 0.000000 

-0.000000 -0.000000 0.000000 
0.000000 -0.000000 0.000000 
0.000000 0.000000 0.000000 

-0.000000 -0.000000 0.000000 
0.000000 -0.000000 0.000000 
0.000000 0.000000 0.000000 

-0.000000 -0.000000 0.000000 
0.000000 -0.000000 0.000000 
0.000000 0.000000 0.000000 

0.000000 0.000000 0.000000 
0.000000 0.000000 0.000000 
0.000000 0.000000 0.000000 

-0.000000 0.000000 0.000000 
0.000000 0.000000 0.000000 
0.000000 0.000000 0.000000 

-0.000000 -0.000000 0.000000 
0.000000 0.000000 0.000000 
0.000000 0.000000 0.000000 

0.000000 -0.000000 0.000000 
0.000000 0.000000 0.000000 
0.000000 0.000000 0.000000 

0.000000 -0.000000 0.000000 
0.000000 -0.000000 0.000000 
0.000000 0.000000 0.000000 

-0.000000 -0.000000 0.000000 
0.000000 0.000000 0.000000 
0.000000 0.000000 0.000000 

0.000000 -0.000000 0.000000 
0.000000 0.000000 0.000000 
0.000000 0.000000 0.000000 

0.000000 0.000000 0.000000 
0.000000 0.000000 0.000000 
0.000000 0.000000 0.000000 

0.000000 0.000000 0.000000 
0.000000 0.000000 0.000000 
0.000000 0.000000 0.000000 

0.000000 0.000000 0.000000 
0.000000 -0.000000 0.000000 
0.000000 0.000000 0.000000 

-0.000000 -0.000000 0.000000 
0.000000 -0.000000 0.000000 
0.000000 0.000000 0.000000 

0.000000 -0.000000 0.000000 
0.000000 0.000000 0.000000 
0.000000 0.000000 0.000000 

0.000000 -0.000000 0.000000 
0.000000 0.000000 0.000000 
0.000000 0.000000 0.000000 

0.000000 0.000000 0.000000 
0.000000 0.000000 0.000000 
0.000000 0.000000 0.000000 

-0.000000 -0.000000 0.000000 
0.000000 -0.000000 0.000000 
0.000000 0.000000 0.000000 

0.000000 -0.000000 0.000000 
0.000000 0.000000 0.000000 
0.000000 0.000000 0.000000 

-0.000000 -0.000000 0.000000 
0.000000 -0.000000 0.000000 
0.000000 0.000000 0.000000 

-0.000000 0.000000 0.000000 
0.000000 -0.000000 0.000000 
0.000000 0.000000 0.000000 

-0.000000 0.000000 0.000000 
0.000000 -0.000000 0.000000 
0.000000 0.000000 0.000000 

0.000000 0.000000 0.000000 
0.000000 0.000000 0.000000 
0.000000 0.000000 0.000000 

-0.000000 0.000000 0.000000 
0.000000 -0.000000 0.000000 
0.000000 0.000000 0.000000 

-0.000000 -0.000000 0.000000 
0.000000 0.000000 0.000000 
0.000000 0.000000 0.000000 

-0.000000 -0.000000 0.000000 
0.000000 -0.000000 0.000000 
0.000000 0.000000 0.000000 

0.000000 0.000000 0.000000 
0.000000 0.000000 0.000000 
0.000000 0.000000 0.000000 

0.000000 0.000000 0.000000 
0.000000 0.000000 0.000000 
0.000000 0.000000 0.000000 

0.000000 -0.000000 0.000000 
0.000000 0.000000 0.000000 
0.000000 0.000000 0.000000 

0.000000 -0.000000 0.000000 
0.000000 0.000000 0.000000 
0.000000 0.000000 0.000000 

-0.000000 -0.000000 0.000000 
0.000000 -0.000000 0.000000 
0.000000 0.000000 0.000000 

-0.000000 -0.000000 0.000000 
0.000000 -0.000000 0.000000 
0.000000 0.000000 0.000000 

-0.000000 0.000000 0.000000 
0.000000 -0.000000 0.000000 
0.000000 0.000000 0.000000 

-0.000000 0.000000 0.000000 
0.000000 -0.000000 0.000000 
0.000000 0.000000 0.000000 

0.000000 0.000000 0.000000 
0.000000 0.000000 0.000000 
0.000000 0.000000 0.000000 

0.000000 0.000000 0.000000 
0.000000 0.000000 0.000000 
0.000000 0.000000 0.000000 

0.000000 0.000000 0.000000 
0.000000 0.000000 0.000000 
0.000000 0.000000 0.000000 

-0.000000 0.000000 0.000000 
0.000000 0.000000 0.000000 
0.000000 0.000000 0.000000 

-0.000000 -0.000000 0.000000 
0.000000 0.000000 0.000000 
0.000000 0.000000 0.000000 

-0.000000 -0.000000 0.000000 
0.000000 0.000000 0.000000 
0.000000 0.000000 0.000000 

-0.000000 0.000000 0.000000 
0.000000 -0.000000 0.000000 
0.000000 0.000000 0.000000 

-0.000000 -0.000000 0.000000 
0.000000 -0.000000 0.000000 
0.000000 0.000000 0.000000 

-0.000000 -0.000000 0.000000 
0.000000 -0.000000 0.000000 
0.000000 0.000000 0.000000 

0.000000 0.000000 0.000000 
0.000000 0.000000 0.000000 
0.000000 0.000000 0.000000 

-0.000000 -0.000000 0.000000 
0.000000 0.000000 0.000000 
0.000000 0.000000 0.000000 

0.000000 0.000000 0.000000 
0.000000 0.000000 0.000000 
0.000000 0.000000 0.000000 

0.000000 0.000000 0.000000 
0.000000 0.000000 0.000000 
0.000000 0.000000 0.000000 

-0.000000 0.000000 0.000000 
0.000000 -0.000000 0.000000 
0.000000 0.000000 0.000000 

-0.000000 -0.000000 0.000000 
0.000000 0.000000 0.000000 
0.000000 0.000000 0.000000 

-0.000000 0.000000 0.000000 
0.000000 0.000000 0.000000 
0.000000 0.000000 0.000000 

0.000000 0.000000 0.000000 
0.000000 0.000000 0.000000 
0.000000 0.000000 0.000000 

-0.000000 0.000000 0.000000 
0.000000 -0.000000 0.000000 
0.000000 0.000000 0.000000 

-0.000000 0.000000 0.000000 
0.000000 -0.000000 0.000000 
0.000000 0.000000 0.000000 

-0.000000 0.000000 0.000000 
0.000000 0.000000 0.000000 
0.000000 0.000000 0.000000 

0.000000 0.000000 0.000000 
0.000000 0.000000 0.000000 
0.000000 0.000000 0.000000 

-0.000000 -0.000000 0.000000 
0.000000 -0.000000 0.000000 
0.000000 0.000000 0.000000 

-0.000000 -0.000000 0.000000 
0.000000 0.000000 0.000000 
0.000000 0.000000 0.000000 

-0.000000 -0.000000 0.000000 
0.000000 -0.000000 0.000000 
0.000000 0.000000 0.000000 

-0.000000 -0.000000 0.000000 
0.000000 0.000000 0.000000 
0.000000 0.000000 0.000000 

0.000000 -0.000000 0.000000 
0.000000 0.000000 0.000000 
0.000000 0.000000 0.000000 

-0.000000 0.000000 0.000000 
0.000000 -0.000000 0.000000 
0.000000 0.000000 0.000000 

-0.000000 0.000000 0.000000 
0.000000 0.000000 0.000000 
0.000000 0.000000 0.000000 

0.000000 -0.000000 0.000000 
0.000000 0.000000 0.000000 
0.000000 0.000000 0.000000 

-0.000000 -0.000000 0.000000 
0.000000 0.000000 0.000000 
0.000000 0.000000 0.000000 

0.000000 -0.000000 0.000000 
0.000000 0.000000 0.000000 
0.000000 0.000000 0.000000 

-0.000000 0.000000 0.000000 
0.000000 0.000000 0.000000 
0.000000 0.000000 0.000000 

-0.000000 0.000000 0.000000 
0.000000 0.000000 0.000000 
0.000000 0.000000 0.000000 

-0.000000 -0.000000 0.000000 
0.000000 -0.000000 0.000000 
0.000000 0.000000 0.000000 

0.000000 -0.000000 0.000000 
0.000000 -0.000000 0.000000 
0.000000 0.000000 0.000000 

TENSORS STRAIN float 
-0.000000 -0.000000 0.000000 
0.000000 -0.000000 0.000000 
0.000000 0.000000 0.000000 

0.000000 0.000000 0.000000 
0.000000 0.000000 0.000000 
0.000000 0.000000 0.000000 

-0.000000 0.000000 0.000000 
0.000000 -0.000000 0.000000 
0.000000 0.000000 0.000000 

-0.000000 0.000000 0.000000 
0.000000 -0.000000 0.000000 
0.000000 0.000000 0.000000 

0.000000 0.000000 0.000000 
0.000000 -0.000000 0.000000 
0.000000 0.000000 0.000000 

0.000000 0.000000 0.000000 
0.000000 0.000000 0.000000 
0.000000 0.000000 0.000000 

0.000000 0.000000 0.000000 
0.000000 -0.000000 0.000000 
0.000000 0.000000 0.000000 

-0.000000 0.000000 0.000000 
0.000000 0.000000 0.000000 
0.000000 0.000000 0.000000 

-0.000000 -0.000000 0.000000 
0.000000 0.000000 0.000000 
0.000000 0.000000 0.000000 

-0.000000 -0.000000 0.000000 
0.000000 -0.000000 0.000000 
0.000000 0.000000 0.000000 

0.000000 -0.000000 0.000000 
0.000000 -0.000000 0.000000 
0.000000 0.000000 0.000000 

-0.000000 0.000000 0.000000 
0.000000 0.000000 0.000000 
0.000000 0.000000 0.000000 

0.000000 0.000000 0.000000 
0.000000 0.000000 0.000000 
0.000000 0.000000 0.000000 

-0.000000 -0.000000 0.000000 
0.000000 0.000000 0.000000 
0.000000 0.000000 0.000000 

-0.000000 -0.000000 0.000000 
0.000000 0.000000 0.000000 
0.000000 0.000000 0.000000 

-0.000000 0.000000 0.000000 
0.000000 0.000000 0.000000 
0.000000 0.000000 0.000000 

0.000000 -0.000000 0.000000 
0.000000 0.000000 0.000000 
0.000000 0.000000 0.000000 

0.000000 -0.000000 0.000000 
0.000000 0.000000 0.000000 
0.000000 0.000000 0.000000 

0.000000 0.000000 0.000000 
0.000000 -0.000000 0.000000 
0.000000 0.000000 0.000000 

-0.000000 0.000000 0.000000 
0.000000 0.000000 0.000000 
0.000000 0.000000 0.000000 

-0.000000 0.000000 0.000000 
0.000000 -0.000000 0.000000 
0.000000 0.000000 0.000000 

-0.000000 -0.000000 0.000000 
0.000000 0.000000 0.000000 
0.000000 0.000000 0.000000 

-0.000000 -0.000000 0.000000 
0.000000 0.000000 0.000000 
0.000000 0.000000 0.000000 

-0.000000 0.000000 0.000000 
0.000000 -0.000000 0.000000 
0.000000 0.000000 0.000000 

-0.000000 -0.000000 0.000000 
0.000000 0.000000 0.000000 
0.000000 0.000000 0.000000 

-0.000000 0.000000 0.000000 
0.000000 0.000000 0.000000 
0.000000 0.000000 0.000000 

-0.000000 0.000000 0.000000 
0.000000 0.000000 0.000000 
0.000000 0.000000 0.000000 

-0.000000 -0.000000 0.000000 
0.000000 -0.000000 0.000000 
0.000000 0.000000 0.000000 

-0.000000 -0.000000 0.000000 
0.000000 -0.000000 0.000000 
0.000000 0.000000 0.000000 

0.000000 -0.000000 0.000000 
0.000000 -0.000000 0.000000 
0.000000 0.000000 0.000000 

-0.000000 -0.000000 0.000000 
0.000000 -0.000000 0.000000 
0.000000 0.000000 0.000000 

0.000000 -0.000000 0.000000 
0.000000 -0.000000 0.000000 
0.000000 0.000000 0.000000 

-0.000000 -0.000000 0.000000 
0.000000 0.000000 0.000000 
0.000000 0.000000 0.000000 

0.000000 -0.000000 0.000000 
0.000000 -0.000000 0.000000 
0.000000 0.000000 0.000000 

0.000000 -0.000000 0.000000 
0.000000 -0.000000 0.000000 
0.000000 0.000000 0.000000 

0.000000 0.000000 0.000000 
0.000000 -0.000000 0.000000 
0.000000 0.000000 0.000000 

0.000000 0.000000 0.000000 
0.000000 -0.000000 0.000000 
0.000000 0.000000 0.000000 

-0.000000 0.000000 0.000000 
0.000000 -0.000000 0.000000 
0.000000 0.000000 0.000000 

-0.000000 0.000000 0.000000 
0.000000 0.000000 0.000000 
0.000000 0.000000 0.000000 

-0.000000 0.000000 0.000000 
0.000000 0.000000 0.000000 
0.000000 0.000000 0.000000 

-0.000000 -0.000000 0.000000 
0.000000 0.000000 0.000000 
0.000000 0.000000 0.000000 

0.000000 -0.000000 0.000000 
0.000000 -0.000000 0.000000 
0.000000 0.000000 0.000000 

0.000000 -0.000000 0.000000 
0.000000 0.000000 0.000000 
0.000000 0.000000 0.000000 

0.000000 0.000000 0.000000 
0.000000 0.000000 0.000000 
0.000000 0.000000 0.000000 

-0.000000 0.000000 0.000000 
0.000000 0.000000 0.000000 
0.000000 0.000000 0.000000 

-0.000000 -0.000000 0.000000 
0.000000 -0.000000 0.000000 
0.000000 0.000000 0.000000 

-0.000000 -0.000000 0.000000 
0.000000 -0.000000 0.000000 
0.000000 0.000000 0.000000 

0.000000 -0.000000 0.000000 
0.000000 -0.000000 0.000000 
0.000000 0.000000 0.000000 

-0.000000 -0.000000 0.000000 
0.000000 0.000000 0.000000 
0.000000 0.000000 0.000000 

-0.000000 -0.000000 0.000000 
0.000000 -0.000000 0.000000 
0.000000 0.000000 0.000000 

-0.000000 -0.000000 0.000000 
0.000000 0.000000 0.000000 
0.000000 0.000000 0.000000 

-0.000000 0.000000 0.000000 
0.000000 -0.000000 0.000000 
0.000000 0.000000 0.000000 

-0.000000 0.000000 0.000000 
0.000000 -0.000000 0.000000 
0.000000 0.000000 0.000000 

-0.000000 0.000000 0.000000 
0.000000 -0.000000 0.000000 
0.000000 0.000000 0.000000 

-0.000000 0.000000 0.000000 
0.000000 -0.000000 0.000000 
0.000000 0.000000 0.000000 

-0.000000 0.000000 0.000000 
0.000000 -0.000000 0.000000 
0.000000 0.000000 0.000000 

-0.000000 0.000000 0.000000 
0.000000 -0.000000 0.000000 
0.000000 0.000000 0.000000 

-0.000000 -0.000000 0.000000 
0.000000 0.000000 0.000000 
0.000000 0.000000 0.000000 

0.000000 0.000000 0.000000 
0.000000 -0.000000 0.000000 
0.000000 0.000000 0.000000 

0.000000 0.000000 0.000000 
0.000000 0.000000 0.000000 
0.000000 0.000000 0.000000 

-0.000000 -0.000000 0.000000 
0.000000 0.000000 0.000000 
0.000000 0.000000 0.000000 

0.000000 0.000000 0.000000 
0.000000 -0.000000 0.000000 
0.000000 0.000000 0.000000 

0.000000 0.000000 0.000000 
0.000000 -0.000000 0.000000 
0.000000 0.000000 0.000000 

0.000000 0.000000 0.000000 
0.000000 -0.000000 0.000000 
0.000000 0.000000 0.000000 

0.000000 -0.000000 0.000000 
0.000000 0.000000 0.000000 
0.000000 0.000000 0.000000 

0.000000 -0.000000 0.000000 
0.000000 0.000000 0.000000 
0.000000 0.000000 0.000000 

0.000000 0.000000 0.000000 
0.000000 0.000000 0.000000 
0.000000 0.000000 0.000000 

0.000000 0.000000 0.000000 
0.000000 0.000000 0.000000 
0.000000 0.000000 0.000000 

0.000000 0.000000 0.000000 
0.000000 -0.000000 0.000000 
0.000000 0.000000 0.000000 

0.000000 -0.000000 0.000000 
0.000000 -0.000000 0.000000 
0.000000 0.000000 0.000000 

0.000000 0.000000 0.000000 
0.000000 -0.000000 0.000000 
0.000000 0.000000 0.000000 

0.000000 0.000000 0.000000 
0.000000 -0.000000 0.000000 
0.000000 0.000000 0.000000 

-0.000000 -0.000000 0.000000 
0.000000 0.000000 0.000000 
0.000000 0.000000 0.000000 

0.000000 -0.000000 0.000000 
0.000000 -0.000000 0.000000 
0.000000 0.000000 0.000000 

0.000000 -0.000000 0.000000 
0.000000 0.000000 0.000000 
0.000000 0.000000 0.000000 

0.000000 0.000000 0.000000 
0.000000 -0.000000 0.000000 
0.000000 0.000000 0.000000 

0.000000 -0.000000 0.000000 
0.000000 -0.000000 0.000000 
0.000000 0.000000 0.000000 

0.000000 0.000000 0.000000 
0.000000 0.000000 0.000000 
0.000000 0.000000 0.000000 

0.000000 -0.000000 0.000000 
0.000000 0.000000 0.000000 
0.000000 0.000000 0.000000 

-0.000000 -0.000000 0.000000 
0.000000 -0.000000 0.000000 
0.000000 0.000000 0.000000 

0.000000 0.000000 0.000000 
0.000000 -0.000000 0.000000 
0.000000 0.000000 0.000000 

0.000000 0.000000 0.000000 
0.000000 -0.000000 0.000000 
0.000000 0.000000 0.000000 

0.000000 0.000000 0.000000 
0.000000 0.000000 0.000000 
0.000000 0.000000 0.000000 

-0.000000 -0.000000 0.000000 
0.000000 0.000000 0.000000 
0.000000 0.000000 0.000000 

-0.000000 -0.000000 0.000000 
0.000000 0.000000 0.000000 
0.000000 0.000000 0.000000 

-0.000000 0.000000 0.000000 
0.000000 0.000000 0.000000 
0.000000 0.000000 0.000000 

-0.000000 0.000000 0.000000 
0.000000 0.000000 0.000000 
0.000000 0.000000 0.000000 

-0.000000 -0.000000 0.000000 
0.000000 0.000000 0.000000 
0.000000 0.000000 0.000000 

-0.000000 0.000000 0.000000 
0.000000 0.000000 0.000000 
0.000000 0.000000 0.000000 

0.000000 0.000000 0.000000 
0.000000 0.000000 0.000000 
0.000000 0.000000 0.000000 

0.000000 -0.000000 0.000000 
0.000000 -0.000000 0.000000 
0.000000 0.000000 0.000000 

0.000000 -0.000000 0.000000 
0.000000 -0.000000 0.000000 
0.000000 0.000000 0.000000 

0.000000 0.000000 0.000000 
0.000000 0.000000 0.000000 
0.000000 0.000000 0.000000 

0.000000 0.000000 0.000000 
0.000000 -0.000000 0.000000 
0.000000 0.000000 0.000000 

-0.000000 0.000000 0.000000 
0.000000 0.000000 0.000000 
0.000000 0.000000 0.000000 

-0.000000 0.000000 0.000000 
0.000000 -0.000000 0.000000 
0.000000 0.000000 0.000000 

-0.000000 0.000000 0.000000 
0.000000 0.000000 0.000000 
0.000000 0.000000 0.000000 

0.000000 -0.000000 0.000000 
0.000000 -0.000000 0.000000 
0.000000 0.000000 0.000000 

0.000000 -0.000000 0.000000 
0.000000 0.000000 0.000000 
0.000000 0.000000 0.000000 

0.000000 -0.000000 0.000000 
0.000000 -0.000000 0.000000 
0.000000 0.000000 0.000000 

-0.000000 -0.000000 0.000000 
0.000000 -0.000000 0.000000 
0.000000 0.000000 0.000000 

-0.000000 -0.000000 0.000000 
0.000000 -0.000000 0.000000 
0.000000 0.000000 0.000000 

-0.000000 -0.000000 0.000000 
0.000000 -0.000000 0.000000 
0.000000 0.000000 0.000000 

-0.000000 0.000000 0.000000 
0.000000 0.000000 0.000000 
0.000000 0.000000 0.000000 

0.000000 0.000000 0.000000 
0.000000 -0.000000 0.000000 
0.000000 0.000000 0.000000 

-0.000000 -0.000000 0.000000 
0.000000 -0.000000 0.000000 
0.000000 0.000000 0.000000 

-0.000000 -0.000000 0.000000 
0.000000 0.000000 0.000000 
0.000000 0.000000 0.000000 

-0.000000 -0.000000 0.000000 
0.000000 0.000000 0.000000 
0.000000 0.000000 0.000000 

-0.000000 -0.000000 0.000000 
0.000000 -0.000000 0.000000 
0.000000 0.000000 0.000000 

-0.000000 0.000000 0.000000 
0.000000 0.000000 0.000000 
0.000000 0.000000 0.000000 

-0.000000 0.000000 0.000000 
0.000000 0.000000 0.000000 
0.000000 0.000000 0.000000 

-0.000000 -0.000000 0.000000 
0.000000 0.000000 0.000000 
0.000000 0.000000 0.000000 

-0.000000 -0.000000 0.000000 
0.000000 0.000000 0.000000 
0.000000 0.000000 0.000000 

0.000000 -0.000000 0.000000 
0.000000 -0.000000 0.000000 
0.000000 0.000000 0.000000 

-0.000000 -0.000000 0.000000 
0.000000 0.000000 0.000000 
0.000000 0.000000 0.000000 

-0.000000 -0.000000 0.000000 
0.000000 0.000000 0.000000 
0.000000 0.000000 0.000000 

0.000000 0.000000 0.000000 
0.000000 0.000000 0.000000 
0.000000 0.000000 0.000000 

-0.000000 0.000000 0.000000 
0.000000 0.000000 0.000000 
0.000000 0.000000 0.000000 

0.000000 0.000000 0.000000 
0.000000 -0.000000 0.000000 
0.000000 0.000000 0.000000 

-0.000000 -0.000000 0.000000 
0.000000 -0.000000 0.000000 
0.000000 0.000000 0.000000 

0.000000 -0.000000 0.000000 
0.000000 -0.000000 0.000000 
0.000000 0.000000 0.000000 

0.000000 -0.000000 0.000000 
0.000000 0.000000 0.000000 
0.000000 0.000000 0.000000 

-0.000000 0.000000 0.000000 
0.000000 0.000000 0.000000 
0.000000 0.000000 0.000000 

-0.000000 -0.000000 0.000000 
0.000000 0.000000 0.000000 
0.000000 0.000000 0.000000 

0.000000 -0.000000 0.000000 
0.000000 0.000000 0.000000 
0.000000 0.000000 0.000000 

-0.000000 -0.000000 0.000000 
0.000000 -0.000000 0.000000 
0.000000 0.000000 0.000000 

-0.000000 0.000000 0.000000 
0.000000 -0.000000 0.000000 
0.000000 0.000000 0.000000 

-0.000000 0.000000 0.000000 
0.000000 -0.000000 0.000000 
0.000000 0.000000 0.000000 

-0.000000 0.000000 0.000000 
0.000000 0.000000 0.000000 
0.000000 0.000000 0.000000 

-0.000000 0.000000 0.000000 
0.000000 -0.000000 0.000000 
0.000000 0.000000 0.000000 

-0.000000 -0.000000 0.000000 
0.000000 0.000000 0.000000 
0.000000 0.000000 0.000000 

-0.000000 -0.000000 0.000000 
0.000000 -0.000000 0.000000 
0.000000 0.000000 0.000000 

-0.000000 0.000000 0.000000 
0.000000 0.000000 0.000000 
0.000000 0.000000 0.000000 

-0.000000 0.000000 0.000000 
0.000000 0.000000 0.000000 
0.000000 0.000000 0.000000 

0.000000 -0.000000 0.000000 
0.000000 0.000000 0.000000 
0.000000 0.000000 0.000000 

0.000000 -0.000000 0.000000 
0.000000 0.000000 0.000000 
0.000000 0.000000 0.000000 

0.000000 -0.000000 0.000000 
0.000000 -0.000000 0.000000 
0.000000 0.000000 0.000000 

-0.000000 -0.000000 0.000000 
0.000000 -0.000000 0.000000 
0.000000 0.000000 0.000000 

-0.000000 0.000000 0.000000 
0.000000 -0.000000 0.000000 
0.000000 0.000000 0.000000 

-0.000000 0.000000 0.000000 
0.000000 -0.000000 0.000000 
0.000000 0.000000 0.000000 

-0.000000 0.000000 0.000000 
0.000000 0.000000 0.000000 
0.000000 0.000000 0.000000 

0.000000 0.000000 0.000000 
0.000000 0.000000 0.000000 
0.000000 0.000000 0.000000 

0.000000 0.000000 0.000000 
0.000000 -0.000000 0.000000 
0.000000 0.000000 0.000000 

-0.000000 0.000000 0.000000 
0.000000 0.000000 0.000000 
0.000000 0.000000 0.000000 

-0.000000 -0.000000 0.000000 
0.000000 0.000000 0.000000 
0.000000 0.000000 0.000000 

-0.000000 -0.000000 0.000000 
0.000000 0.000000 0.000000 
0.000000 0.000000 0.000000 

-0.000000 0.000000 0.000000 
0.000000 -0.000000 0.000000 
0.000000 0.000000 0.000000 

0.000000 -0.000000 0.000000 
0.000000 -0.000000 0.000000 
0.000000 0.000000 0.000000 

0.000000 -0.000000 0.000000 
0.000000 -0.000000 0.000000 
0.000000 0.000000 0.000000 

-0.000000 0.000000 0.000000 
0.000000 0.000000 0.000000 
0.000000 0.000000 0.000000 

-0.000000 -0.000000 0.000000 
0.000000 0.000000 0.000000 
0.000000 0.000000 0.000000 

-0.000000 0.000000 0.000000 
0.000000 0.000000 0.000000 
0.000000 0.000000 0.000000 

-0.000000 0.000000 0.000000 
0.000000 0.000000 0.000000 
0.000000 0.000000 0.000000 

-0.000000 0.000000 0.000000 
0.000000 -0.000000 0.000000 
0.000000 0.000000 0.000000 

-0.000000 -0.000000 0.000000 
0.000000 0.000000 0.000000 
0.000000 0.000000 0.000000 

-0.000000 0.000000 0.000000 
0.000000 0.000000 0.000000 
0.000000 0.000000 0.000000 

-0.000000 0.000000 0.000000 
0.000000 0.000000 0.000000 
0.000000 0.000000 0.000000 

-0.000000 0.000000 0.000000 
0.000000 0.000000 0.000000 
0.000000 0.000000 0.000000 

-0.000000 0.000000 0.000000 
0.000000 0.000000 0.000000 
0.000000 0.000000 0.000000 

-0.000000 0.000000 0.000000 
0.000000 0.000000 0.000000 
0.000000 0.000000 0.000000 

-0.000000 0.000000 0.000000 
0.000000 0.000000 0.000000 
0.000000 0.000000 0.000000 

-0.000000 -0.000000 0.000000 
0.000000 0.000000 0.000000 
0.000000 0.000000 0.000000 

-0.000000 -0.000000 0.000000 
0.000000 0.000000 0.000000 
0.000000 0.000000 0.000000 

-0.000000 -0.000000 0.000000 
0.000000 -0.000000 0.000000 
0.000000 0.000000 0.000000 

-0.000000 -0.000000 0.000000 
0.000000 0.000000 0.000000 
0.000000 0.000000 0.000000 

0.000000 -0.000000 0.000000 
0.000000 -0.000000 0.000000 
0.000000 0.000000 0.000000 

-0.000000 0.000000 0.000000 
0.000000 -0.000000 0.000000 
0.000000 0.000000 0.000000 

-0.000000 0.000000 0.000000 
0.000000 0.000000 0.000000 
0.000000 0.000000 0.000000 

-0.000000 -0.000000 0.000000 
0.000000 0.000000 0.000000 
0.000000 0.000000 0.000000 

-0.000000 -0.000000 0.000000 
0.000000 0.000000 0.000000 
0.000000 0.000000 0.000000 

-0.000000 -0.000000 0.000000 
0.000000 0.000000 0.000000 
0.000000 0.000000 0.000000 

-0.000000 0.000000 0.000000 
0.000000 0.000000 0.000000 
0.000000 0.000000 0.000000 

-0.000000 0.000000 0.000000 
0.000000 0.000000 0.000000 
0.000000 0.000000 0.000000 

0.000000 -0.000000 0.000000 
0.000000 -0.000000 0.000000 
0.000000 0.000000 0.000000 

0.000000 -0.000000 0.000000 
0.000000 -0.000000 0.000000 
0.000000 0.000000 0.000000 

