# vtk DataFile Version 3.0 
vtk output 
ASCII 
DATASET UNSTRUCTURED_GRID 
POINTS 175 float 
-0.026061 -1.669326 0.000000 
-0.106992 -1.601271 0.000000 
-0.054870 -1.609503 0.000000 
-0.028809 -1.563620 0.000000 
-0.186430 -1.537195 0.000000 
-0.137056 -1.539721 0.000000 
-0.114311 -1.486074 0.000000 
-0.058186 -1.501740 0.000000 
-0.029377 -1.461562 0.000000 
-0.265318 -1.474039 0.000000 
-0.217198 -1.474839 0.000000 
-0.196633 -1.417542 0.000000 
-0.143120 -1.426251 0.000000 
-0.116563 -1.378983 0.000000 
-0.058945 -1.398628 0.000000 
-0.029568 -1.360508 0.000000 
-0.344206 -1.410884 0.000000 
-0.296791 -1.410876 0.000000 
-0.278030 -1.350934 0.000000 
-0.225992 -1.356800 0.000000 
-0.201664 -1.304683 0.000000 
-0.145749 -1.318157 0.000000 
-0.117890 -1.273814 0.000000 
-0.059328 -1.296520 0.000000 
-0.029759 -1.259454 0.000000 
-0.058559 -1.710077 0.000000 
-0.162226 -1.730920 0.000000 
-0.123292 -1.695302 0.000000 
-0.142917 -1.646318 0.000000 
-0.261851 -1.753076 0.000000 
-0.229092 -1.716049 0.000000 
-0.256854 -1.664817 0.000000 
-0.209613 -1.630705 0.000000 
-0.223062 -1.583131 0.000000 
-0.360414 -1.775376 0.000000 
-0.329787 -1.738253 0.000000 
-0.361761 -1.686451 0.000000 
-0.321587 -1.650042 0.000000 
-0.341985 -1.599808 0.000000 
-0.290702 -1.567009 0.000000 
-0.302189 -1.520274 0.000000 
-0.458977 -1.797676 0.000000 
-0.429420 -1.760601 0.000000 
-0.464588 -1.708560 0.000000 
-0.427556 -1.671532 0.000000 
-0.453135 -1.620017 0.000000 
-0.407738 -1.584702 0.000000 
-0.425037 -1.535274 0.000000 
-0.370772 -1.503645 0.000000 
-0.381315 -1.457417 0.000000 
-0.046960 -1.760892 0.000000 
-0.095301 -1.854938 0.000000 
-0.098873 -1.802291 0.000000 
-0.149405 -1.787093 0.000000 
-0.140093 -1.946642 0.000000 
-0.148617 -1.897944 0.000000 
-0.205981 -1.887706 0.000000 
-0.203197 -1.829503 0.000000 
-0.248777 -1.810357 0.000000 
-0.184111 -2.037606 0.000000 
-0.194039 -1.990515 0.000000 
-0.254475 -1.983215 0.000000 
-0.257893 -1.929105 0.000000 
-0.309886 -1.913733 0.000000 
-0.303554 -1.853188 0.000000 
-0.347255 -1.833030 0.000000 
-0.228129 -2.128569 0.000000 
-0.238687 -2.082345 0.000000 
-0.301302 -2.077393 0.000000 
-0.307162 -2.025354 0.000000 
-0.363386 -2.013233 0.000000 
-0.362692 -1.955722 0.000000 
-0.412122 -1.938429 0.000000 
-0.403017 -1.876282 0.000000 
-0.445733 -1.855703 0.000000 
-0.000000 -1.783507 0.000000 
0.043388 -1.879938 0.000000 
-0.000000 -1.849905 0.000000 
-0.043388 -1.879938 0.000000 
0.087158 -1.972134 0.000000 
0.043769 -1.948436 0.000000 
-0.000000 -1.986902 0.000000 
-0.043769 -1.948436 0.000000 
-0.087158 -1.972134 0.000000 
0.130831 -2.063264 0.000000 
0.087824 -2.041665 0.000000 
0.044436 -2.084365 0.000000 
-0.000000 -2.053300 0.000000 
-0.044436 -2.084365 0.000000 
-0.087824 -2.041665 0.000000 
-0.130831 -2.063264 0.000000 
0.174505 -2.154394 0.000000 
0.131782 -2.133828 0.000000 
0.088871 -2.179694 0.000000 
0.044532 -2.151830 0.000000 
-0.000000 -2.188230 0.000000 
-0.044532 -2.151830 0.000000 
-0.088871 -2.179694 0.000000 
-0.131782 -2.133828 0.000000 
-0.174505 -2.154394 0.000000 
0.046960 -1.760892 0.000000 
0.149405 -1.787093 0.000000 
0.098873 -1.802291 0.000000 
0.095301 -1.854938 0.000000 
0.248777 -1.810357 0.000000 
0.203197 -1.829503 0.000000 
0.205981 -1.887706 0.000000 
0.148617 -1.897944 0.000000 
0.140093 -1.946642 0.000000 
0.347255 -1.833030 0.000000 
0.303554 -1.853188 0.000000 
0.309886 -1.913733 0.000000 
0.257893 -1.929105 0.000000 
0.254475 -1.983215 0.000000 
0.194039 -1.990515 0.000000 
0.184111 -2.037606 0.000000 
0.445733 -1.855703 0.000000 
0.403017 -1.876282 0.000000 
0.412122 -1.938429 0.000000 
0.362692 -1.955722 0.000000 
0.363386 -2.013233 0.000000 
0.307162 -2.025354 0.000000 
0.301302 -2.077393 0.000000 
0.238687 -2.082345 0.000000 
0.228129 -2.128569 0.000000 
0.058559 -1.710077 0.000000 
0.142917 -1.646318 0.000000 
0.123292 -1.695302 0.000000 
0.162226 -1.730920 0.000000 
0.223062 -1.583131 0.000000 
0.209613 -1.630705 0.000000 
0.256854 -1.664817 0.000000 
0.229092 -1.716049 0.000000 
0.261851 -1.753076 0.000000 
0.302189 -1.520274 0.000000 
0.290702 -1.567009 0.000000 
0.341985 -1.599808 0.000000 
0.321587 -1.650042 0.000000 
0.361761 -1.686451 0.000000 
0.329787 -1.738253 0.000000 
0.360414 -1.775376 0.000000 
0.381315 -1.457417 0.000000 
0.370772 -1.503645 0.000000 
0.425037 -1.535274 0.000000 
0.407738 -1.584702 0.000000 
0.453135 -1.620017 0.000000 
0.427556 -1.671532 0.000000 
0.464588 -1.708560 0.000000 
0.429420 -1.760601 0.000000 
0.458977 -1.797676 0.000000 
0.026061 -1.669326 0.000000 
0.028809 -1.563620 0.000000 
0.054870 -1.609503 0.000000 
0.106992 -1.601271 0.000000 
0.029377 -1.461562 0.000000 
0.058186 -1.501740 0.000000 
0.114311 -1.486074 0.000000 
0.137056 -1.539721 0.000000 
0.186430 -1.537195 0.000000 
0.029568 -1.360508 0.000000 
0.058945 -1.398628 0.000000 
0.116563 -1.378983 0.000000 
0.143120 -1.426251 0.000000 
0.196633 -1.417542 0.000000 
0.217198 -1.474839 0.000000 
0.265318 -1.474039 0.000000 
0.029759 -1.259454 0.000000 
0.059328 -1.296520 0.000000 
0.117890 -1.273814 0.000000 
0.145749 -1.318157 0.000000 
0.201664 -1.304683 0.000000 
0.225992 -1.356800 0.000000 
0.278030 -1.350934 0.000000 
0.296791 -1.410876 0.000000 
0.344206 -1.410884 0.000000 
CELLS 175 350 
1 0 
1 1 
1 2 
1 3 
1 4 
1 5 
1 6 
1 7 
1 8 
1 9 
1 10 
1 11 
1 12 
1 13 
1 14 
1 15 
1 16 
1 17 
1 18 
1 19 
1 20 
1 21 
1 22 
1 23 
1 24 
1 25 
1 26 
1 27 
1 28 
1 29 
1 30 
1 31 
1 32 
1 33 
1 34 
1 35 
1 36 
1 37 
1 38 
1 39 
1 40 
1 41 
1 42 
1 43 
1 44 
1 45 
1 46 
1 47 
1 48 
1 49 
1 50 
1 51 
1 52 
1 53 
1 54 
1 55 
1 56 
1 57 
1 58 
1 59 
1 60 
1 61 
1 62 
1 63 
1 64 
1 65 
1 66 
1 67 
1 68 
1 69 
1 70 
1 71 
1 72 
1 73 
1 74 
1 75 
1 76 
1 77 
1 78 
1 79 
1 80 
1 81 
1 82 
1 83 
1 84 
1 85 
1 86 
1 87 
1 88 
1 89 
1 90 
1 91 
1 92 
1 93 
1 94 
1 95 
1 96 
1 97 
1 98 
1 99 
1 100 
1 101 
1 102 
1 103 
1 104 
1 105 
1 106 
1 107 
1 108 
1 109 
1 110 
1 111 
1 112 
1 113 
1 114 
1 115 
1 116 
1 117 
1 118 
1 119 
1 120 
1 121 
1 122 
1 123 
1 124 
1 125 
1 126 
1 127 
1 128 
1 129 
1 130 
1 131 
1 132 
1 133 
1 134 
1 135 
1 136 
1 137 
1 138 
1 139 
1 140 
1 141 
1 142 
1 143 
1 144 
1 145 
1 146 
1 147 
1 148 
1 149 
1 150 
1 151 
1 152 
1 153 
1 154 
1 155 
1 156 
1 157 
1 158 
1 159 
1 160 
1 161 
1 162 
1 163 
1 164 
1 165 
1 166 
1 167 
1 168 
1 169 
1 170 
1 171 
1 172 
1 173 
1 174 
CELL_TYPES 175 
1 
1 
1 
1 
1 
1 
1 
1 
1 
1 
1 
1 
1 
1 
1 
1 
1 
1 
1 
1 
1 
1 
1 
1 
1 
1 
1 
1 
1 
1 
1 
1 
1 
1 
1 
1 
1 
1 
1 
1 
1 
1 
1 
1 
1 
1 
1 
1 
1 
1 
1 
1 
1 
1 
1 
1 
1 
1 
1 
1 
1 
1 
1 
1 
1 
1 
1 
1 
1 
1 
1 
1 
1 
1 
1 
1 
1 
1 
1 
1 
1 
1 
1 
1 
1 
1 
1 
1 
1 
1 
1 
1 
1 
1 
1 
1 
1 
1 
1 
1 
1 
1 
1 
1 
1 
1 
1 
1 
1 
1 
1 
1 
1 
1 
1 
1 
1 
1 
1 
1 
1 
1 
1 
1 
1 
1 
1 
1 
1 
1 
1 
1 
1 
1 
1 
1 
1 
1 
1 
1 
1 
1 
1 
1 
1 
1 
1 
1 
1 
1 
1 
1 
1 
1 
1 
1 
1 
1 
1 
1 
1 
1 
1 
1 
1 
1 
1 
1 
1 
1 
1 
1 
1 
1 
1 
POINT_DATA 175 
VECTORS X_GC float 
-0.026061 -1.669326 0.000000 
-0.106992 -1.601271 0.000000 
-0.054870 -1.609503 0.000000 
-0.028809 -1.563620 0.000000 
-0.186430 -1.537195 0.000000 
-0.137056 -1.539721 0.000000 
-0.114311 -1.486074 0.000000 
-0.058186 -1.501740 0.000000 
-0.029377 -1.461562 0.000000 
-0.265318 -1.474039 0.000000 
-0.217198 -1.474839 0.000000 
-0.196633 -1.417542 0.000000 
-0.143120 -1.426251 0.000000 
-0.116563 -1.378983 0.000000 
-0.058945 -1.398628 0.000000 
-0.029568 -1.360508 0.000000 
-0.344206 -1.410884 0.000000 
-0.296791 -1.410876 0.000000 
-0.278030 -1.350934 0.000000 
-0.225992 -1.356800 0.000000 
-0.201664 -1.304683 0.000000 
-0.145749 -1.318157 0.000000 
-0.117890 -1.273814 0.000000 
-0.059328 -1.296520 0.000000 
-0.029759 -1.259454 0.000000 
-0.058559 -1.710077 0.000000 
-0.162226 -1.730920 0.000000 
-0.123292 -1.695302 0.000000 
-0.142917 -1.646318 0.000000 
-0.261851 -1.753076 0.000000 
-0.229092 -1.716049 0.000000 
-0.256854 -1.664817 0.000000 
-0.209613 -1.630705 0.000000 
-0.223062 -1.583131 0.000000 
-0.360414 -1.775376 0.000000 
-0.329787 -1.738253 0.000000 
-0.361761 -1.686451 0.000000 
-0.321587 -1.650042 0.000000 
-0.341985 -1.599808 0.000000 
-0.290702 -1.567009 0.000000 
-0.302189 -1.520274 0.000000 
-0.458977 -1.797676 0.000000 
-0.429420 -1.760601 0.000000 
-0.464588 -1.708560 0.000000 
-0.427556 -1.671532 0.000000 
-0.453135 -1.620017 0.000000 
-0.407738 -1.584702 0.000000 
-0.425037 -1.535274 0.000000 
-0.370772 -1.503645 0.000000 
-0.381315 -1.457417 0.000000 
-0.046960 -1.760892 0.000000 
-0.095301 -1.854938 0.000000 
-0.098873 -1.802291 0.000000 
-0.149405 -1.787093 0.000000 
-0.140093 -1.946642 0.000000 
-0.148617 -1.897944 0.000000 
-0.205981 -1.887706 0.000000 
-0.203197 -1.829503 0.000000 
-0.248777 -1.810357 0.000000 
-0.184111 -2.037606 0.000000 
-0.194039 -1.990515 0.000000 
-0.254475 -1.983215 0.000000 
-0.257893 -1.929105 0.000000 
-0.309886 -1.913733 0.000000 
-0.303554 -1.853188 0.000000 
-0.347255 -1.833030 0.000000 
-0.228129 -2.128569 0.000000 
-0.238687 -2.082345 0.000000 
-0.301302 -2.077393 0.000000 
-0.307162 -2.025354 0.000000 
-0.363386 -2.013233 0.000000 
-0.362692 -1.955722 0.000000 
-0.412122 -1.938429 0.000000 
-0.403017 -1.876282 0.000000 
-0.445733 -1.855703 0.000000 
-0.000000 -1.783507 0.000000 
0.043388 -1.879938 0.000000 
-0.000000 -1.849905 0.000000 
-0.043388 -1.879938 0.000000 
0.087158 -1.972134 0.000000 
0.043769 -1.948436 0.000000 
-0.000000 -1.986902 0.000000 
-0.043769 -1.948436 0.000000 
-0.087158 -1.972134 0.000000 
0.130831 -2.063264 0.000000 
0.087824 -2.041665 0.000000 
0.044436 -2.084365 0.000000 
-0.000000 -2.053300 0.000000 
-0.044436 -2.084365 0.000000 
-0.087824 -2.041665 0.000000 
-0.130831 -2.063264 0.000000 
0.174505 -2.154394 0.000000 
0.131782 -2.133828 0.000000 
0.088871 -2.179694 0.000000 
0.044532 -2.151830 0.000000 
-0.000000 -2.188230 0.000000 
-0.044532 -2.151830 0.000000 
-0.088871 -2.179694 0.000000 
-0.131782 -2.133828 0.000000 
-0.174505 -2.154394 0.000000 
0.046960 -1.760892 0.000000 
0.149405 -1.787093 0.000000 
0.098873 -1.802291 0.000000 
0.095301 -1.854938 0.000000 
0.248777 -1.810357 0.000000 
0.203197 -1.829503 0.000000 
0.205981 -1.887706 0.000000 
0.148617 -1.897944 0.000000 
0.140093 -1.946642 0.000000 
0.347255 -1.833030 0.000000 
0.303554 -1.853188 0.000000 
0.309886 -1.913733 0.000000 
0.257893 -1.929105 0.000000 
0.254475 -1.983215 0.000000 
0.194039 -1.990515 0.000000 
0.184111 -2.037606 0.000000 
0.445733 -1.855703 0.000000 
0.403017 -1.876282 0.000000 
0.412122 -1.938429 0.000000 
0.362692 -1.955722 0.000000 
0.363386 -2.013233 0.000000 
0.307162 -2.025354 0.000000 
0.301302 -2.077393 0.000000 
0.238687 -2.082345 0.000000 
0.228129 -2.128569 0.000000 
0.058559 -1.710077 0.000000 
0.142917 -1.646318 0.000000 
0.123292 -1.695302 0.000000 
0.162226 -1.730920 0.000000 
0.223062 -1.583131 0.000000 
0.209613 -1.630705 0.000000 
0.256854 -1.664817 0.000000 
0.229092 -1.716049 0.000000 
0.261851 -1.753076 0.000000 
0.302189 -1.520274 0.000000 
0.290702 -1.567009 0.000000 
0.341985 -1.599808 0.000000 
0.321587 -1.650042 0.000000 
0.361761 -1.686451 0.000000 
0.329787 -1.738253 0.000000 
0.360414 -1.775376 0.000000 
0.381315 -1.457417 0.000000 
0.370772 -1.503645 0.000000 
0.425037 -1.535274 0.000000 
0.407738 -1.584702 0.000000 
0.453135 -1.620017 0.000000 
0.427556 -1.671532 0.000000 
0.464588 -1.708560 0.000000 
0.429420 -1.760601 0.000000 
0.458977 -1.797676 0.000000 
0.026061 -1.669326 0.000000 
0.028809 -1.563620 0.000000 
0.054870 -1.609503 0.000000 
0.106992 -1.601271 0.000000 
0.029377 -1.461562 0.000000 
0.058186 -1.501740 0.000000 
0.114311 -1.486074 0.000000 
0.137056 -1.539721 0.000000 
0.186430 -1.537195 0.000000 
0.029568 -1.360508 0.000000 
0.058945 -1.398628 0.000000 
0.116563 -1.378983 0.000000 
0.143120 -1.426251 0.000000 
0.196633 -1.417542 0.000000 
0.217198 -1.474839 0.000000 
0.265318 -1.474039 0.000000 
0.029759 -1.259454 0.000000 
0.059328 -1.296520 0.000000 
0.117890 -1.273814 0.000000 
0.145749 -1.318157 0.000000 
0.201664 -1.304683 0.000000 
0.225992 -1.356800 0.000000 
0.278030 -1.350934 0.000000 
0.296791 -1.410876 0.000000 
0.344206 -1.410884 0.000000 
VECTORS X_EC float 
0.338794 -0.964097 0.000000 
-0.609100 0.117154 0.000000 
0.713312 0.228295 0.000000 
0.374519 -0.391134 0.000000 
0.423588 -0.747865 0.000000 
-0.218274 -0.713761 0.000000 
-0.513962 0.562000 0.000000 
0.756418 0.773486 0.000000 
0.381900 0.231094 0.000000 
-0.550868 0.399532 0.000000 
0.823577 0.410327 0.000000 
0.556234 -0.363177 0.000000 
-0.139443 -0.245608 0.000000 
-0.484677 -0.883732 0.000000 
0.766286 -0.618517 0.000000 
0.384386 0.866863 0.000000 
0.474677 -0.453071 0.000000 
-0.141715 -0.453168 0.000000 
-0.385608 0.737604 0.000000 
0.937896 0.816800 0.000000 
0.621631 0.113220 0.000000 
-0.105264 0.295119 0.000000 
-0.467428 -0.303507 0.000000 
0.771260 0.003021 0.000000 
0.386873 -0.497368 0.000000 
0.761262 -0.413963 0.000000 
0.108942 -0.132586 0.000000 
-0.397202 -0.613425 0.000000 
-0.142083 0.725299 0.000000 
-0.595936 0.166525 0.000000 
0.978194 -0.333341 0.000000 
-0.660903 0.975034 0.000000 
0.724964 0.514514 0.000000 
0.899809 -0.127735 0.000000 
0.685384 0.467577 0.000000 
0.287229 -0.033582 0.000000 
0.702895 -0.732910 0.000000 
0.180633 0.775571 0.000000 
0.445811 0.097411 0.000000 
-0.220880 -0.345375 0.000000 
-0.071546 -0.976300 0.000000 
-0.033296 0.768629 0.000000 
-0.417537 0.268119 0.000000 
0.039645 -0.434443 0.000000 
-0.441768 -0.934314 0.000000 
-0.109248 0.370235 0.000000 
-0.699407 -0.106521 0.000000 
-0.474522 -0.773800 0.000000 
0.820030 0.799207 0.000000 
0.957100 0.175135 0.000000 
0.610485 0.272044 0.000000 
-0.761092 -0.458337 0.000000 
-0.714655 0.830926 0.000000 
-0.057734 0.625758 0.000000 
-0.178789 0.779667 0.000000 
-0.067979 0.122241 0.000000 
0.677748 -0.015962 0.000000 
0.641556 -0.801708 0.000000 
-0.765897 0.939814 0.000000 
0.393446 0.007676 0.000000 
0.522510 -0.628054 0.000000 
-0.691820 -0.726598 0.000000 
-0.647393 0.542920 0.000000 
0.028512 0.335393 0.000000 
-0.053800 -0.481967 0.000000 
0.514316 -0.754098 0.000000 
0.965681 -0.764315 0.000000 
-0.897068 0.611657 0.000000 
-0.083078 0.544804 0.000000 
-0.006893 -0.157721 0.000000 
0.724017 -0.321354 0.000000 
0.714996 0.902243 0.000000 
-0.642413 0.668785 0.000000 
-0.760780 -0.170195 0.000000 
-0.205471 -0.448011 0.000000 
0.000000 0.577345 0.000000 
-0.564049 -0.120842 0.000000 
0.000000 -0.526278 0.000000 
0.564049 -0.120842 0.000000 
0.866949 -0.876187 0.000000 
-0.569003 0.803882 0.000000 
0.000000 -0.676830 0.000000 
0.569003 0.803882 0.000000 
-0.866949 -0.876187 0.000000 
0.299194 0.354063 0.000000 
0.858290 0.062480 0.000000 
-0.577662 0.638925 0.000000 
0.000000 0.219547 0.000000 
0.577662 0.638925 0.000000 
-0.858290 0.062480 0.000000 
-0.299194 0.354063 0.000000 
-0.268560 -0.415686 0.000000 
0.286830 -0.693328 0.000000 
0.844677 -0.074130 0.000000 
-0.578910 -0.450293 0.000000 
0.000000 0.041111 0.000000 
0.578910 -0.450293 0.000000 
-0.844677 -0.074130 0.000000 
-0.286830 -0.693328 0.000000 
0.268560 -0.415686 0.000000 
-0.610485 0.272044 0.000000 
0.057734 0.625758 0.000000 
0.714655 0.830926 0.000000 
0.761092 -0.458337 0.000000 
0.765897 0.939814 0.000000 
-0.641556 -0.801707 0.000000 
-0.677748 -0.015962 0.000000 
0.067979 0.122241 0.000000 
0.178789 0.779667 0.000000 
-0.514316 -0.754098 0.000000 
0.053800 -0.481967 0.000000 
-0.028512 0.335393 0.000000 
0.647393 0.542920 0.000000 
0.691820 -0.726598 0.000000 
-0.522510 -0.628054 0.000000 
-0.393446 0.007676 0.000000 
0.205471 -0.448011 0.000000 
0.760780 -0.170195 0.000000 
0.642413 0.668785 0.000000 
-0.714996 0.902243 0.000000 
-0.724017 -0.321354 0.000000 
0.006894 -0.157721 0.000000 
0.083078 0.544804 0.000000 
0.897068 0.611657 0.000000 
-0.965681 -0.764315 0.000000 
-0.761262 -0.413963 0.000000 
0.142083 0.725299 0.000000 
0.397202 -0.613425 0.000000 
-0.108942 -0.132586 0.000000 
-0.899809 -0.127735 0.000000 
-0.724964 0.514514 0.000000 
0.660903 0.975034 0.000000 
-0.978194 -0.333341 0.000000 
0.595936 0.166525 0.000000 
0.071546 -0.976300 0.000000 
0.220880 -0.345375 0.000000 
-0.445811 0.097411 0.000000 
-0.180633 0.775571 0.000000 
-0.702895 -0.732910 0.000000 
-0.287229 -0.033582 0.000000 
-0.685384 0.467577 0.000000 
-0.957100 0.175135 0.000000 
-0.820030 0.799207 0.000000 
0.474522 -0.773800 0.000000 
0.699407 -0.106521 0.000000 
0.109248 0.370235 0.000000 
0.441768 -0.934314 0.000000 
-0.039645 -0.434443 0.000000 
0.417537 0.268119 0.000000 
0.033296 0.768629 0.000000 
-0.338794 -0.964097 0.000000 
-0.374519 -0.391134 0.000000 
-0.713312 0.228295 0.000000 
0.609100 0.117154 0.000000 
-0.381900 0.231094 0.000000 
-0.756418 0.773486 0.000000 
0.513962 0.562000 0.000000 
0.218274 -0.713761 0.000000 
-0.423588 -0.747865 0.000000 
-0.384386 0.866863 0.000000 
-0.766286 -0.618517 0.000000 
0.484677 -0.883732 0.000000 
0.139443 -0.245608 0.000000 
-0.556234 -0.363177 0.000000 
-0.823577 0.410327 0.000000 
0.550868 0.399532 0.000000 
-0.386873 -0.497368 0.000000 
-0.771260 0.003021 0.000000 
0.467428 -0.303507 0.000000 
0.105264 0.295119 0.000000 
-0.621631 0.113220 0.000000 
-0.937896 0.816800 0.000000 
0.385608 0.737604 0.000000 
0.141715 -0.453168 0.000000 
-0.474677 -0.453071 0.000000 
CELL_DATA 175 
SCALARS MASS float 
LOOKUP_TABLE default 
0.078183 
0.086427 
0.094672 
0.086427 
0.088131 
0.092111 
0.085854 
0.092111 
0.088131 
0.088705 
0.091000 
0.086983 
0.091556 
0.086983 
0.091000 
0.088705 
0.089278 
0.091574 
0.089278 
0.092722 
0.089278 
0.092722 
0.089278 
0.091574 
0.089278 
0.078183 
0.086427 
0.094672 
0.086427 
0.088131 
0.092111 
0.085854 
0.092111 
0.088131 
0.088705 
0.091000 
0.086983 
0.091556 
0.086983 
0.091000 
0.088705 
0.089278 
0.091574 
0.089278 
0.092722 
0.089278 
0.092722 
0.089278 
0.091574 
0.089278 
0.078183 
0.086427 
0.094672 
0.086427 
0.088131 
0.092111 
0.085854 
0.092111 
0.088131 
0.088705 
0.091000 
0.086983 
0.091556 
0.086983 
0.091000 
0.088705 
0.089278 
0.091574 
0.089278 
0.092722 
0.089278 
0.092722 
0.089278 
0.091574 
0.089278 
0.078183 
0.086427 
0.094672 
0.086427 
0.088131 
0.092111 
0.085854 
0.092111 
0.088131 
0.088705 
0.091000 
0.086983 
0.091556 
0.086983 
0.091000 
0.088705 
0.089278 
0.091574 
0.089278 
0.092722 
0.089278 
0.092722 
0.089278 
0.091574 
0.089278 
0.078183 
0.086427 
0.094672 
0.086427 
0.088131 
0.092111 
0.085854 
0.092111 
0.088131 
0.088705 
0.091000 
0.086983 
0.091556 
0.086983 
0.091000 
0.088705 
0.089278 
0.091574 
0.089278 
0.092722 
0.089278 
0.092722 
0.089278 
0.091574 
0.089278 
0.078183 
0.086427 
0.094672 
0.086427 
0.088131 
0.092111 
0.085854 
0.092111 
0.088131 
0.088705 
0.091000 
0.086983 
0.091556 
0.086983 
0.091000 
0.088705 
0.089278 
0.091574 
0.089278 
0.092722 
0.089278 
0.092722 
0.089278 
0.091574 
0.089278 
0.078183 
0.086427 
0.094672 
0.086427 
0.088131 
0.092111 
0.085854 
0.092111 
0.088131 
0.088705 
0.091000 
0.086983 
0.091556 
0.086983 
0.091000 
0.088705 
0.089278 
0.091574 
0.089278 
0.092722 
0.089278 
0.092722 
0.089278 
0.091574 
0.089278 
SCALARS MASS float 
LOOKUP_TABLE default 
0.078183 
0.086427 
0.094672 
0.086427 
0.088131 
0.092111 
0.085854 
0.092111 
0.088131 
0.088705 
0.091000 
0.086983 
0.091556 
0.086983 
0.091000 
0.088705 
0.089278 
0.091574 
0.089278 
0.092722 
0.089278 
0.092722 
0.089278 
0.091574 
0.089278 
0.078183 
0.086427 
0.094672 
0.086427 
0.088131 
0.092111 
0.085854 
0.092111 
0.088131 
0.088705 
0.091000 
0.086983 
0.091556 
0.086983 
0.091000 
0.088705 
0.089278 
0.091574 
0.089278 
0.092722 
0.089278 
0.092722 
0.089278 
0.091574 
0.089278 
0.078183 
0.086427 
0.094672 
0.086427 
0.088131 
0.092111 
0.085854 
0.092111 
0.088131 
0.088705 
0.091000 
0.086983 
0.091556 
0.086983 
0.091000 
0.088705 
0.089278 
0.091574 
0.089278 
0.092722 
0.089278 
0.092722 
0.089278 
0.091574 
0.089278 
0.078183 
0.086427 
0.094672 
0.086427 
0.088131 
0.092111 
0.085854 
0.092111 
0.088131 
0.088705 
0.091000 
0.086983 
0.091556 
0.086983 
0.091000 
0.088705 
0.089278 
0.091574 
0.089278 
0.092722 
0.089278 
0.092722 
0.089278 
0.091574 
0.089278 
0.078183 
0.086427 
0.094672 
0.086427 
0.088131 
0.092111 
0.085854 
0.092111 
0.088131 
0.088705 
0.091000 
0.086983 
0.091556 
0.086983 
0.091000 
0.088705 
0.089278 
0.091574 
0.089278 
0.092722 
0.089278 
0.092722 
0.089278 
0.091574 
0.089278 
0.078183 
0.086427 
0.094672 
0.086427 
0.088131 
0.092111 
0.085854 
0.092111 
0.088131 
0.088705 
0.091000 
0.086983 
0.091556 
0.086983 
0.091000 
0.088705 
0.089278 
0.091574 
0.089278 
0.092722 
0.089278 
0.092722 
0.089278 
0.091574 
0.089278 
0.078183 
0.086427 
0.094672 
0.086427 
0.088131 
0.092111 
0.085854 
0.092111 
0.088131 
0.088705 
0.091000 
0.086983 
0.091556 
0.086983 
0.091000 
0.088705 
0.089278 
0.091574 
0.089278 
0.092722 
0.089278 
0.092722 
0.089278 
0.091574 
0.089278 
SCALARS DENSITY float 
LOOKUP_TABLE default 
20.000000 
20.000000 
20.000000 
20.000000 
20.000000 
20.000000 
20.000000 
20.000000 
20.000000 
20.000000 
20.000000 
20.000000 
20.000000 
20.000000 
20.000000 
20.000000 
20.000000 
20.000000 
20.000000 
20.000000 
20.000000 
20.000000 
20.000000 
20.000000 
20.000000 
20.000000 
20.000000 
20.000000 
20.000000 
20.000000 
20.000000 
20.000000 
20.000000 
20.000000 
20.000000 
20.000000 
20.000000 
20.000000 
20.000000 
20.000000 
20.000000 
20.000000 
20.000000 
20.000000 
20.000000 
20.000000 
20.000000 
20.000000 
20.000000 
20.000000 
20.000000 
20.000000 
20.000000 
20.000000 
20.000000 
20.000000 
20.000000 
20.000000 
20.000000 
20.000000 
20.000000 
20.000000 
20.000000 
20.000000 
20.000000 
20.000000 
20.000000 
20.000000 
20.000000 
20.000000 
20.000000 
20.000000 
20.000000 
20.000000 
20.000000 
20.000000 
20.000000 
20.000000 
20.000000 
20.000000 
20.000000 
20.000000 
20.000000 
20.000000 
20.000000 
20.000000 
20.000000 
20.000000 
20.000000 
20.000000 
20.000000 
20.000000 
20.000000 
20.000000 
20.000000 
20.000000 
20.000000 
20.000000 
20.000000 
20.000000 
20.000000 
20.000000 
20.000000 
20.000000 
20.000000 
20.000000 
20.000000 
20.000000 
20.000000 
20.000000 
20.000000 
20.000000 
20.000000 
20.000000 
20.000000 
20.000000 
20.000000 
20.000000 
20.000000 
20.000000 
20.000000 
20.000000 
20.000000 
20.000000 
20.000000 
20.000000 
20.000000 
20.000000 
20.000000 
20.000000 
20.000000 
20.000000 
20.000000 
20.000000 
20.000000 
20.000000 
20.000000 
20.000000 
20.000000 
20.000000 
20.000000 
20.000000 
20.000000 
20.000000 
20.000000 
20.000000 
20.000000 
20.000000 
20.000000 
20.000000 
20.000000 
20.000000 
20.000000 
20.000000 
20.000000 
20.000000 
20.000000 
20.000000 
20.000000 
20.000000 
20.000000 
20.000000 
20.000000 
20.000000 
20.000000 
20.000000 
20.000000 
20.000000 
20.000000 
20.000000 
20.000000 
20.000000 
20.000000 
20.000000 
20.000000 
SCALARS ELEM_i float 
LOOKUP_TABLE default 
170 
198 
171 
171 
198 
198 
199 
172 
172 
226 
199 
199 
199 
199 
172 
173 
226 
226 
227 
200 
200 
200 
200 
173 
173 
170 
197 
197 
198 
224 
197 
225 
198 
198 
224 
224 
224 
225 
225 
225 
225 
251 
251 
251 
251 
252 
252 
252 
226 
226 
170 
196 
197 
197 
196 
196 
196 
196 
224 
195 
195 
222 
223 
223 
223 
223 
194 
222 
222 
222 
222 
223 
250 
250 
250 
170 
169 
169 
169 
141 
169 
168 
169 
195 
141 
141 
168 
168 
168 
195 
195 
140 
140 
140 
167 
167 
167 
194 
194 
194 
170 
143 
143 
142 
116 
142 
142 
142 
142 
115 
115 
115 
115 
114 
141 
141 
88 
88 
88 
115 
114 
114 
114 
114 
140 
170 
144 
143 
143 
144 
144 
117 
143 
116 
117 
117 
117 
117 
116 
116 
116 
118 
118 
90 
90 
90 
89 
89 
89 
89 
170 
171 
171 
144 
172 
172 
145 
144 
144 
173 
172 
145 
145 
145 
145 
118 
173 
173 
146 
146 
146 
146 
119 
118 
118 
VECTORS VELOCITY float 
0.000000 -5.814583 0.000000 
0.000000 -5.814583 0.000000 
0.000000 -5.814583 0.000000 
0.000000 -5.814583 0.000000 
-0.000000 -5.814583 0.000000 
-0.000000 -5.814583 0.000000 
-0.000000 -5.814583 0.000000 
-0.000000 -5.814583 0.000000 
-0.000000 -5.814583 0.000000 
0.000000 -5.814583 0.000000 
0.000000 -5.814583 0.000000 
0.000000 -5.814583 0.000000 
0.000000 -5.814583 0.000000 
-0.000000 -5.814583 0.000000 
-0.000000 -5.814583 0.000000 
-0.000000 -5.814583 0.000000 
0.000000 -5.814583 0.000000 
0.000000 -5.814583 0.000000 
0.000000 -5.814583 0.000000 
-0.000000 -5.814583 0.000000 
0.000000 -5.814583 0.000000 
-0.000000 -5.814583 0.000000 
0.000000 -5.814583 0.000000 
-0.000000 -5.814583 0.000000 
-0.000000 -5.814583 0.000000 
-0.000000 -5.814583 0.000000 
-0.000000 -5.814583 0.000000 
0.000000 -5.814583 0.000000 
-0.000000 -5.814583 0.000000 
0.000000 -5.814583 0.000000 
0.000000 -5.814583 0.000000 
-0.000000 -5.814583 0.000000 
-0.000000 -5.814583 0.000000 
-0.000000 -5.814583 0.000000 
-0.000000 -5.814583 0.000000 
-0.000000 -5.814583 0.000000 
-0.000000 -5.814583 0.000000 
-0.000000 -5.814583 0.000000 
-0.000000 -5.814583 0.000000 
-0.000000 -5.814583 0.000000 
0.000000 -5.814583 0.000000 
0.000000 -5.814583 0.000000 
-0.000000 -5.814583 0.000000 
-0.000000 -5.814583 0.000000 
-0.000000 -5.814583 0.000000 
-0.000000 -5.814583 0.000000 
0.000000 -5.814583 0.000000 
-0.000000 -5.814583 0.000000 
0.000000 -5.814583 0.000000 
0.000000 -5.814583 0.000000 
-0.000000 -5.814583 0.000000 
-0.000000 -5.814583 0.000000 
-0.000000 -5.814583 0.000000 
-0.000000 -5.814583 0.000000 
-0.000000 -5.814583 0.000000 
-0.000000 -5.814583 0.000000 
0.000000 -5.814583 0.000000 
0.000000 -5.814583 0.000000 
0.000000 -5.814583 0.000000 
-0.000000 -5.814583 0.000000 
-0.000000 -5.814583 0.000000 
-0.000000 -5.814583 0.000000 
0.000000 -5.814583 0.000000 
-0.000000 -5.814583 0.000000 
-0.000000 -5.814583 0.000000 
-0.000000 -5.814583 0.000000 
-0.000000 -5.814583 0.000000 
-0.000000 -5.814583 0.000000 
-0.000000 -5.814583 0.000000 
0.000000 -5.814583 0.000000 
0.000000 -5.814583 0.000000 
0.000000 -5.814583 0.000000 
0.000000 -5.814583 0.000000 
-0.000000 -5.814583 0.000000 
0.000000 -5.814583 0.000000 
-0.000000 -5.814583 0.000000 
-0.000000 -5.814583 0.000000 
-0.000000 -5.814583 0.000000 
-0.000000 -5.814583 0.000000 
-0.000000 -5.814583 0.000000 
-0.000000 -5.814583 0.000000 
-0.000000 -5.814583 0.000000 
-0.000000 -5.814583 0.000000 
-0.000000 -5.814583 0.000000 
-0.000000 -5.814583 0.000000 
-0.000000 -5.814583 0.000000 
0.000000 -5.814583 0.000000 
-0.000000 -5.814583 0.000000 
0.000000 -5.814583 0.000000 
-0.000000 -5.814583 0.000000 
-0.000000 -5.814583 0.000000 
0.000000 -5.814583 0.000000 
-0.000000 -5.814583 0.000000 
0.000000 -5.814583 0.000000 
-0.000000 -5.814583 0.000000 
0.000000 -5.814583 0.000000 
0.000000 -5.814583 0.000000 
0.000000 -5.814583 0.000000 
-0.000000 -5.814583 0.000000 
-0.000000 -5.814583 0.000000 
-0.000000 -5.814583 0.000000 
-0.000000 -5.814583 0.000000 
-0.000000 -5.814583 0.000000 
-0.000000 -5.814583 0.000000 
0.000000 -5.814583 0.000000 
-0.000000 -5.814583 0.000000 
0.000000 -5.814583 0.000000 
-0.000000 -5.814583 0.000000 
-0.000000 -5.814583 0.000000 
-0.000000 -5.814583 0.000000 
-0.000000 -5.814583 0.000000 
-0.000000 -5.814583 0.000000 
-0.000000 -5.814583 0.000000 
-0.000000 -5.814583 0.000000 
-0.000000 -5.814583 0.000000 
-0.000000 -5.814583 0.000000 
0.000000 -5.814583 0.000000 
0.000000 -5.814583 0.000000 
0.000000 -5.814583 0.000000 
-0.000000 -5.814583 0.000000 
0.000000 -5.814583 0.000000 
-0.000000 -5.814583 0.000000 
0.000000 -5.814583 0.000000 
-0.000000 -5.814583 0.000000 
0.000000 -5.814583 0.000000 
-0.000000 -5.814583 0.000000 
0.000000 -5.814583 0.000000 
0.000000 -5.814583 0.000000 
0.000000 -5.814583 0.000000 
-0.000000 -5.814583 0.000000 
0.000000 -5.814583 0.000000 
0.000000 -5.814583 0.000000 
0.000000 -5.814583 0.000000 
0.000000 -5.814583 0.000000 
-0.000000 -5.814583 0.000000 
-0.000000 -5.814583 0.000000 
-0.000000 -5.814583 0.000000 
-0.000000 -5.814583 0.000000 
-0.000000 -5.814583 0.000000 
0.000000 -5.814583 0.000000 
0.000000 -5.814583 0.000000 
0.000000 -5.814583 0.000000 
0.000000 -5.814583 0.000000 
-0.000000 -5.814583 0.000000 
0.000000 -5.814583 0.000000 
0.000000 -5.814583 0.000000 
0.000000 -5.814583 0.000000 
-0.000000 -5.814583 0.000000 
0.000000 -5.814583 0.000000 
0.000000 -5.814583 0.000000 
0.000000 -5.814583 0.000000 
0.000000 -5.814583 0.000000 
0.000000 -5.814583 0.000000 
0.000000 -5.814583 0.000000 
0.000000 -5.814583 0.000000 
0.000000 -5.814583 0.000000 
0.000000 -5.814583 0.000000 
0.000000 -5.814583 0.000000 
0.000000 -5.814583 0.000000 
-0.000000 -5.814583 0.000000 
0.000000 -5.814583 0.000000 
-0.000000 -5.814583 0.000000 
-0.000000 -5.814583 0.000000 
-0.000000 -5.814583 0.000000 
0.000000 -5.814583 0.000000 
0.000000 -5.814583 0.000000 
0.000000 -5.814583 0.000000 
0.000000 -5.814583 0.000000 
-0.000000 -5.814583 0.000000 
0.000000 -5.814583 0.000000 
0.000000 -5.814583 0.000000 
0.000000 -5.814583 0.000000 
0.000000 -5.814583 0.000000 
0.000000 -5.814583 0.000000 
0.000000 -5.814583 0.000000 
TENSORS STRESS float 
-0.000000 0.000000 0.000000 
0.000000 0.000000 0.000000 
0.000000 0.000000 0.000000 

0.000000 0.000000 0.000000 
0.000000 0.000000 0.000000 
0.000000 0.000000 0.000000 

0.000000 0.000000 0.000000 
0.000000 0.000000 0.000000 
0.000000 0.000000 0.000000 

-0.000000 -0.000000 0.000000 
0.000000 -0.000000 0.000000 
0.000000 0.000000 0.000000 

-0.000000 0.000000 0.000000 
0.000000 -0.000000 0.000000 
0.000000 0.000000 0.000000 

0.000000 0.000000 0.000000 
0.000000 0.000000 0.000000 
0.000000 0.000000 0.000000 

-0.000000 0.000000 0.000000 
0.000000 -0.000000 0.000000 
0.000000 0.000000 0.000000 

0.000000 0.000000 0.000000 
0.000000 0.000000 0.000000 
0.000000 0.000000 0.000000 

-0.000000 0.000000 0.000000 
0.000000 -0.000000 0.000000 
0.000000 0.000000 0.000000 

-0.000000 -0.000000 0.000000 
0.000000 0.000000 0.000000 
0.000000 0.000000 0.000000 

-0.000000 -0.000000 0.000000 
0.000000 -0.000000 0.000000 
0.000000 0.000000 0.000000 

-0.000000 0.000000 0.000000 
0.000000 0.000000 0.000000 
0.000000 0.000000 0.000000 

-0.000000 0.000000 0.000000 
0.000000 0.000000 0.000000 
0.000000 0.000000 0.000000 

-0.000000 -0.000000 0.000000 
0.000000 -0.000000 0.000000 
0.000000 0.000000 0.000000 

-0.000000 -0.000000 0.000000 
0.000000 -0.000000 0.000000 
0.000000 0.000000 0.000000 

-0.000000 -0.000000 0.000000 
0.000000 -0.000000 0.000000 
0.000000 0.000000 0.000000 

-0.000000 0.000000 0.000000 
0.000000 -0.000000 0.000000 
0.000000 0.000000 0.000000 

-0.000000 0.000000 0.000000 
0.000000 -0.000000 0.000000 
0.000000 0.000000 0.000000 

-0.000000 -0.000000 0.000000 
0.000000 0.000000 0.000000 
0.000000 0.000000 0.000000 

0.000000 -0.000000 0.000000 
0.000000 0.000000 0.000000 
0.000000 0.000000 0.000000 

0.000000 0.000000 0.000000 
0.000000 0.000000 0.000000 
0.000000 0.000000 0.000000 

-0.000000 0.000000 0.000000 
0.000000 -0.000000 0.000000 
0.000000 0.000000 0.000000 

-0.000000 0.000000 0.000000 
0.000000 -0.000000 0.000000 
0.000000 0.000000 0.000000 

0.000000 -0.000000 0.000000 
0.000000 0.000000 0.000000 
0.000000 0.000000 0.000000 

-0.000000 -0.000000 0.000000 
0.000000 -0.000000 0.000000 
0.000000 0.000000 0.000000 

0.000000 0.000000 0.000000 
0.000000 -0.000000 0.000000 
0.000000 0.000000 0.000000 

-0.000000 -0.000000 0.000000 
0.000000 -0.000000 0.000000 
0.000000 0.000000 0.000000 

-0.000000 -0.000000 0.000000 
0.000000 -0.000000 0.000000 
0.000000 0.000000 0.000000 

-0.000000 -0.000000 0.000000 
0.000000 0.000000 0.000000 
0.000000 0.000000 0.000000 

-0.000000 0.000000 0.000000 
0.000000 -0.000000 0.000000 
0.000000 0.000000 0.000000 

-0.000000 -0.000000 0.000000 
0.000000 -0.000000 0.000000 
0.000000 0.000000 0.000000 

-0.000000 -0.000000 0.000000 
0.000000 -0.000000 0.000000 
0.000000 0.000000 0.000000 

-0.000000 -0.000000 0.000000 
0.000000 -0.000000 0.000000 
0.000000 0.000000 0.000000 

0.000000 -0.000000 0.000000 
0.000000 0.000000 0.000000 
0.000000 0.000000 0.000000 

-0.000000 0.000000 0.000000 
0.000000 -0.000000 0.000000 
0.000000 0.000000 0.000000 

-0.000000 0.000000 0.000000 
0.000000 -0.000000 0.000000 
0.000000 0.000000 0.000000 

0.000000 0.000000 0.000000 
0.000000 0.000000 0.000000 
0.000000 0.000000 0.000000 

-0.000000 0.000000 0.000000 
0.000000 -0.000000 0.000000 
0.000000 0.000000 0.000000 

-0.000000 0.000000 0.000000 
0.000000 -0.000000 0.000000 
0.000000 0.000000 0.000000 

0.000000 0.000000 0.000000 
0.000000 0.000000 0.000000 
0.000000 0.000000 0.000000 

-0.000000 0.000000 0.000000 
0.000000 0.000000 0.000000 
0.000000 0.000000 0.000000 

0.000000 0.000000 0.000000 
0.000000 0.000000 0.000000 
0.000000 0.000000 0.000000 

0.000000 -0.000000 0.000000 
0.000000 -0.000000 0.000000 
0.000000 0.000000 0.000000 

0.000000 0.000000 0.000000 
0.000000 0.000000 0.000000 
0.000000 0.000000 0.000000 

0.000000 0.000000 0.000000 
0.000000 -0.000000 0.000000 
0.000000 0.000000 0.000000 

0.000000 -0.000000 0.000000 
0.000000 0.000000 0.000000 
0.000000 0.000000 0.000000 

0.000000 -0.000000 0.000000 
0.000000 0.000000 0.000000 
0.000000 0.000000 0.000000 

0.000000 -0.000000 0.000000 
0.000000 -0.000000 0.000000 
0.000000 0.000000 0.000000 

-0.000000 0.000000 0.000000 
0.000000 0.000000 0.000000 
0.000000 0.000000 0.000000 

-0.000000 -0.000000 0.000000 
0.000000 -0.000000 0.000000 
0.000000 0.000000 0.000000 

0.000000 -0.000000 0.000000 
0.000000 0.000000 0.000000 
0.000000 0.000000 0.000000 

0.000000 -0.000000 0.000000 
0.000000 0.000000 0.000000 
0.000000 0.000000 0.000000 

-0.000000 -0.000000 0.000000 
0.000000 -0.000000 0.000000 
0.000000 0.000000 0.000000 

0.000000 0.000000 0.000000 
0.000000 -0.000000 0.000000 
0.000000 0.000000 0.000000 

-0.000000 0.000000 0.000000 
0.000000 -0.000000 0.000000 
0.000000 0.000000 0.000000 

-0.000000 -0.000000 0.000000 
0.000000 -0.000000 0.000000 
0.000000 0.000000 0.000000 

0.000000 -0.000000 0.000000 
0.000000 0.000000 0.000000 
0.000000 0.000000 0.000000 

-0.000000 0.000000 0.000000 
0.000000 -0.000000 0.000000 
0.000000 0.000000 0.000000 

-0.000000 0.000000 0.000000 
0.000000 -0.000000 0.000000 
0.000000 0.000000 0.000000 

0.000000 0.000000 0.000000 
0.000000 0.000000 0.000000 
0.000000 0.000000 0.000000 

0.000000 0.000000 0.000000 
0.000000 0.000000 0.000000 
0.000000 0.000000 0.000000 

-0.000000 0.000000 0.000000 
0.000000 0.000000 0.000000 
0.000000 0.000000 0.000000 

-0.000000 0.000000 0.000000 
0.000000 -0.000000 0.000000 
0.000000 0.000000 0.000000 

-0.000000 -0.000000 0.000000 
0.000000 0.000000 0.000000 
0.000000 0.000000 0.000000 

-0.000000 -0.000000 0.000000 
0.000000 0.000000 0.000000 
0.000000 0.000000 0.000000 

-0.000000 -0.000000 0.000000 
0.000000 -0.000000 0.000000 
0.000000 0.000000 0.000000 

0.000000 -0.000000 0.000000 
0.000000 -0.000000 0.000000 
0.000000 0.000000 0.000000 

0.000000 0.000000 0.000000 
0.000000 0.000000 0.000000 
0.000000 0.000000 0.000000 

-0.000000 0.000000 0.000000 
0.000000 -0.000000 0.000000 
0.000000 0.000000 0.000000 

0.000000 -0.000000 0.000000 
0.000000 0.000000 0.000000 
0.000000 0.000000 0.000000 

0.000000 0.000000 0.000000 
0.000000 0.000000 0.000000 
0.000000 0.000000 0.000000 

-0.000000 -0.000000 0.000000 
0.000000 -0.000000 0.000000 
0.000000 0.000000 0.000000 

-0.000000 0.000000 0.000000 
0.000000 -0.000000 0.000000 
0.000000 0.000000 0.000000 

0.000000 0.000000 0.000000 
0.000000 0.000000 0.000000 
0.000000 0.000000 0.000000 

0.000000 -0.000000 0.000000 
0.000000 0.000000 0.000000 
0.000000 0.000000 0.000000 

0.000000 -0.000000 0.000000 
0.000000 -0.000000 0.000000 
0.000000 0.000000 0.000000 

0.000000 0.000000 0.000000 
0.000000 0.000000 0.000000 
0.000000 0.000000 0.000000 

0.000000 -0.000000 0.000000 
0.000000 -0.000000 0.000000 
0.000000 0.000000 0.000000 

0.000000 0.000000 0.000000 
0.000000 0.000000 0.000000 
0.000000 0.000000 0.000000 

0.000000 -0.000000 0.000000 
0.000000 0.000000 0.000000 
0.000000 0.000000 0.000000 

0.000000 0.000000 0.000000 
0.000000 -0.000000 0.000000 
0.000000 0.000000 0.000000 

-0.000000 -0.000000 0.000000 
0.000000 0.000000 0.000000 
0.000000 0.000000 0.000000 

0.000000 0.000000 0.000000 
0.000000 -0.000000 0.000000 
0.000000 0.000000 0.000000 

0.000000 -0.000000 0.000000 
0.000000 0.000000 0.000000 
0.000000 0.000000 0.000000 

-0.000000 0.000000 0.000000 
0.000000 0.000000 0.000000 
0.000000 0.000000 0.000000 

-0.000000 0.000000 0.000000 
0.000000 -0.000000 0.000000 
0.000000 0.000000 0.000000 

0.000000 -0.000000 0.000000 
0.000000 0.000000 0.000000 
0.000000 0.000000 0.000000 

-0.000000 -0.000000 0.000000 
0.000000 -0.000000 0.000000 
0.000000 0.000000 0.000000 

-0.000000 -0.000000 0.000000 
0.000000 -0.000000 0.000000 
0.000000 0.000000 0.000000 

0.000000 0.000000 0.000000 
0.000000 0.000000 0.000000 
0.000000 0.000000 0.000000 

0.000000 0.000000 0.000000 
0.000000 0.000000 0.000000 
0.000000 0.000000 0.000000 

0.000000 -0.000000 0.000000 
0.000000 0.000000 0.000000 
0.000000 0.000000 0.000000 

-0.000000 0.000000 0.000000 
0.000000 -0.000000 0.000000 
0.000000 0.000000 0.000000 

-0.000000 0.000000 0.000000 
0.000000 -0.000000 0.000000 
0.000000 0.000000 0.000000 

-0.000000 -0.000000 0.000000 
0.000000 0.000000 0.000000 
0.000000 0.000000 0.000000 

-0.000000 0.000000 0.000000 
0.000000 -0.000000 0.000000 
0.000000 0.000000 0.000000 

0.000000 0.000000 0.000000 
0.000000 0.000000 0.000000 
0.000000 0.000000 0.000000 

-0.000000 -0.000000 0.000000 
0.000000 0.000000 0.000000 
0.000000 0.000000 0.000000 

0.000000 0.000000 0.000000 
0.000000 -0.000000 0.000000 
0.000000 0.000000 0.000000 

-0.000000 -0.000000 0.000000 
0.000000 -0.000000 0.000000 
0.000000 0.000000 0.000000 

-0.000000 -0.000000 0.000000 
0.000000 -0.000000 0.000000 
0.000000 0.000000 0.000000 

0.000000 -0.000000 0.000000 
0.000000 0.000000 0.000000 
0.000000 0.000000 0.000000 

-0.000000 -0.000000 0.000000 
0.000000 0.000000 0.000000 
0.000000 0.000000 0.000000 

-0.000000 0.000000 0.000000 
0.000000 -0.000000 0.000000 
0.000000 0.000000 0.000000 

-0.000000 0.000000 0.000000 
0.000000 -0.000000 0.000000 
0.000000 0.000000 0.000000 

-0.000000 -0.000000 0.000000 
0.000000 0.000000 0.000000 
0.000000 0.000000 0.000000 

-0.000000 0.000000 0.000000 
0.000000 0.000000 0.000000 
0.000000 0.000000 0.000000 

-0.000000 -0.000000 0.000000 
0.000000 0.000000 0.000000 
0.000000 0.000000 0.000000 

-0.000000 -0.000000 0.000000 
0.000000 -0.000000 0.000000 
0.000000 0.000000 0.000000 

-0.000000 0.000000 0.000000 
0.000000 0.000000 0.000000 
0.000000 0.000000 0.000000 

0.000000 0.000000 0.000000 
0.000000 0.000000 0.000000 
0.000000 0.000000 0.000000 

-0.000000 0.000000 0.000000 
0.000000 -0.000000 0.000000 
0.000000 0.000000 0.000000 

-0.000000 0.000000 0.000000 
0.000000 -0.000000 0.000000 
0.000000 0.000000 0.000000 

0.000000 0.000000 0.000000 
0.000000 -0.000000 0.000000 
0.000000 0.000000 0.000000 

0.000000 -0.000000 0.000000 
0.000000 0.000000 0.000000 
0.000000 0.000000 0.000000 

-0.000000 0.000000 0.000000 
0.000000 -0.000000 0.000000 
0.000000 0.000000 0.000000 

0.000000 -0.000000 0.000000 
0.000000 -0.000000 0.000000 
0.000000 0.000000 0.000000 

0.000000 0.000000 0.000000 
0.000000 -0.000000 0.000000 
0.000000 0.000000 0.000000 

-0.000000 0.000000 0.000000 
0.000000 0.000000 0.000000 
0.000000 0.000000 0.000000 

-0.000000 -0.000000 0.000000 
0.000000 -0.000000 0.000000 
0.000000 0.000000 0.000000 

0.000000 0.000000 0.000000 
0.000000 0.000000 0.000000 
0.000000 0.000000 0.000000 

0.000000 -0.000000 0.000000 
0.000000 0.000000 0.000000 
0.000000 0.000000 0.000000 

0.000000 0.000000 0.000000 
0.000000 -0.000000 0.000000 
0.000000 0.000000 0.000000 

0.000000 0.000000 0.000000 
0.000000 0.000000 0.000000 
0.000000 0.000000 0.000000 

0.000000 0.000000 0.000000 
0.000000 0.000000 0.000000 
0.000000 0.000000 0.000000 

0.000000 -0.000000 0.000000 
0.000000 0.000000 0.000000 
0.000000 0.000000 0.000000 

0.000000 0.000000 0.000000 
0.000000 0.000000 0.000000 
0.000000 0.000000 0.000000 

0.000000 -0.000000 0.000000 
0.000000 0.000000 0.000000 
0.000000 0.000000 0.000000 

0.000000 -0.000000 0.000000 
0.000000 0.000000 0.000000 
0.000000 0.000000 0.000000 

0.000000 0.000000 0.000000 
0.000000 0.000000 0.000000 
0.000000 0.000000 0.000000 

0.000000 0.000000 0.000000 
0.000000 -0.000000 0.000000 
0.000000 0.000000 0.000000 

-0.000000 -0.000000 0.000000 
0.000000 -0.000000 0.000000 
0.000000 0.000000 0.000000 

-0.000000 -0.000000 0.000000 
0.000000 -0.000000 0.000000 
0.000000 0.000000 0.000000 

-0.000000 0.000000 0.000000 
0.000000 -0.000000 0.000000 
0.000000 0.000000 0.000000 

0.000000 -0.000000 0.000000 
0.000000 -0.000000 0.000000 
0.000000 0.000000 0.000000 

0.000000 -0.000000 0.000000 
0.000000 -0.000000 0.000000 
0.000000 0.000000 0.000000 

0.000000 0.000000 0.000000 
0.000000 -0.000000 0.000000 
0.000000 0.000000 0.000000 

-0.000000 0.000000 0.000000 
0.000000 -0.000000 0.000000 
0.000000 0.000000 0.000000 

-0.000000 0.000000 0.000000 
0.000000 -0.000000 0.000000 
0.000000 0.000000 0.000000 

-0.000000 -0.000000 0.000000 
0.000000 0.000000 0.000000 
0.000000 0.000000 0.000000 

-0.000000 -0.000000 0.000000 
0.000000 -0.000000 0.000000 
0.000000 0.000000 0.000000 

0.000000 -0.000000 0.000000 
0.000000 0.000000 0.000000 
0.000000 0.000000 0.000000 

0.000000 -0.000000 0.000000 
0.000000 0.000000 0.000000 
0.000000 0.000000 0.000000 

-0.000000 0.000000 0.000000 
0.000000 0.000000 0.000000 
0.000000 0.000000 0.000000 

-0.000000 0.000000 0.000000 
0.000000 -0.000000 0.000000 
0.000000 0.000000 0.000000 

-0.000000 0.000000 0.000000 
0.000000 -0.000000 0.000000 
0.000000 0.000000 0.000000 

0.000000 0.000000 0.000000 
0.000000 -0.000000 0.000000 
0.000000 0.000000 0.000000 

-0.000000 -0.000000 0.000000 
0.000000 -0.000000 0.000000 
0.000000 0.000000 0.000000 

-0.000000 0.000000 0.000000 
0.000000 -0.000000 0.000000 
0.000000 0.000000 0.000000 

0.000000 0.000000 0.000000 
0.000000 0.000000 0.000000 
0.000000 0.000000 0.000000 

-0.000000 0.000000 0.000000 
0.000000 0.000000 0.000000 
0.000000 0.000000 0.000000 

0.000000 0.000000 0.000000 
0.000000 0.000000 0.000000 
0.000000 0.000000 0.000000 

0.000000 0.000000 0.000000 
0.000000 0.000000 0.000000 
0.000000 0.000000 0.000000 

-0.000000 -0.000000 0.000000 
0.000000 -0.000000 0.000000 
0.000000 0.000000 0.000000 

0.000000 0.000000 0.000000 
0.000000 -0.000000 0.000000 
0.000000 0.000000 0.000000 

0.000000 0.000000 0.000000 
0.000000 -0.000000 0.000000 
0.000000 0.000000 0.000000 

-0.000000 0.000000 0.000000 
0.000000 -0.000000 0.000000 
0.000000 0.000000 0.000000 

-0.000000 -0.000000 0.000000 
0.000000 0.000000 0.000000 
0.000000 0.000000 0.000000 

-0.000000 -0.000000 0.000000 
0.000000 0.000000 0.000000 
0.000000 0.000000 0.000000 

-0.000000 -0.000000 0.000000 
0.000000 -0.000000 0.000000 
0.000000 0.000000 0.000000 

-0.000000 -0.000000 0.000000 
0.000000 -0.000000 0.000000 
0.000000 0.000000 0.000000 

-0.000000 0.000000 0.000000 
0.000000 -0.000000 0.000000 
0.000000 0.000000 0.000000 

-0.000000 -0.000000 0.000000 
0.000000 -0.000000 0.000000 
0.000000 0.000000 0.000000 

-0.000000 -0.000000 0.000000 
0.000000 0.000000 0.000000 
0.000000 0.000000 0.000000 

-0.000000 0.000000 0.000000 
0.000000 0.000000 0.000000 
0.000000 0.000000 0.000000 

0.000000 -0.000000 0.000000 
0.000000 -0.000000 0.000000 
0.000000 0.000000 0.000000 

0.000000 -0.000000 0.000000 
0.000000 -0.000000 0.000000 
0.000000 0.000000 0.000000 

0.000000 0.000000 0.000000 
0.000000 0.000000 0.000000 
0.000000 0.000000 0.000000 

-0.000000 0.000000 0.000000 
0.000000 0.000000 0.000000 
0.000000 0.000000 0.000000 

-0.000000 0.000000 0.000000 
0.000000 0.000000 0.000000 
0.000000 0.000000 0.000000 

-0.000000 0.000000 0.000000 
0.000000 0.000000 0.000000 
0.000000 0.000000 0.000000 

-0.000000 0.000000 0.000000 
0.000000 -0.000000 0.000000 
0.000000 0.000000 0.000000 

-0.000000 -0.000000 0.000000 
0.000000 -0.000000 0.000000 
0.000000 0.000000 0.000000 

-0.000000 -0.000000 0.000000 
0.000000 -0.000000 0.000000 
0.000000 0.000000 0.000000 

-0.000000 0.000000 0.000000 
0.000000 -0.000000 0.000000 
0.000000 0.000000 0.000000 

TENSORS STRAIN float 
-0.000000 0.000000 0.000000 
0.000000 0.000000 0.000000 
0.000000 0.000000 0.000000 

-0.000000 0.000000 0.000000 
0.000000 0.000000 0.000000 
0.000000 0.000000 0.000000 

0.000000 0.000000 0.000000 
0.000000 0.000000 0.000000 
0.000000 0.000000 0.000000 

0.000000 -0.000000 0.000000 
0.000000 -0.000000 0.000000 
0.000000 0.000000 0.000000 

-0.000000 0.000000 0.000000 
0.000000 -0.000000 0.000000 
0.000000 0.000000 0.000000 

-0.000000 0.000000 0.000000 
0.000000 0.000000 0.000000 
0.000000 0.000000 0.000000 

-0.000000 0.000000 0.000000 
0.000000 0.000000 0.000000 
0.000000 0.000000 0.000000 

0.000000 0.000000 0.000000 
0.000000 0.000000 0.000000 
0.000000 0.000000 0.000000 

0.000000 0.000000 0.000000 
0.000000 -0.000000 0.000000 
0.000000 0.000000 0.000000 

-0.000000 -0.000000 0.000000 
0.000000 0.000000 0.000000 
0.000000 0.000000 0.000000 

-0.000000 -0.000000 0.000000 
0.000000 -0.000000 0.000000 
0.000000 0.000000 0.000000 

-0.000000 0.000000 0.000000 
0.000000 0.000000 0.000000 
0.000000 0.000000 0.000000 

-0.000000 0.000000 0.000000 
0.000000 0.000000 0.000000 
0.000000 0.000000 0.000000 

-0.000000 -0.000000 0.000000 
0.000000 -0.000000 0.000000 
0.000000 0.000000 0.000000 

-0.000000 -0.000000 0.000000 
0.000000 -0.000000 0.000000 
0.000000 0.000000 0.000000 

0.000000 -0.000000 0.000000 
0.000000 -0.000000 0.000000 
0.000000 0.000000 0.000000 

-0.000000 0.000000 0.000000 
0.000000 -0.000000 0.000000 
0.000000 0.000000 0.000000 

-0.000000 0.000000 0.000000 
0.000000 -0.000000 0.000000 
0.000000 0.000000 0.000000 

-0.000000 -0.000000 0.000000 
0.000000 0.000000 0.000000 
0.000000 0.000000 0.000000 

0.000000 -0.000000 0.000000 
0.000000 0.000000 0.000000 
0.000000 0.000000 0.000000 

0.000000 0.000000 0.000000 
0.000000 0.000000 0.000000 
0.000000 0.000000 0.000000 

0.000000 0.000000 0.000000 
0.000000 -0.000000 0.000000 
0.000000 0.000000 0.000000 

0.000000 0.000000 0.000000 
0.000000 -0.000000 0.000000 
0.000000 0.000000 0.000000 

0.000000 -0.000000 0.000000 
0.000000 0.000000 0.000000 
0.000000 0.000000 0.000000 

0.000000 -0.000000 0.000000 
0.000000 -0.000000 0.000000 
0.000000 0.000000 0.000000 

0.000000 0.000000 0.000000 
0.000000 -0.000000 0.000000 
0.000000 0.000000 0.000000 

-0.000000 -0.000000 0.000000 
0.000000 -0.000000 0.000000 
0.000000 0.000000 0.000000 

-0.000000 -0.000000 0.000000 
0.000000 0.000000 0.000000 
0.000000 0.000000 0.000000 

-0.000000 -0.000000 0.000000 
0.000000 0.000000 0.000000 
0.000000 0.000000 0.000000 

-0.000000 0.000000 0.000000 
0.000000 -0.000000 0.000000 
0.000000 0.000000 0.000000 

-0.000000 -0.000000 0.000000 
0.000000 -0.000000 0.000000 
0.000000 0.000000 0.000000 

0.000000 -0.000000 0.000000 
0.000000 -0.000000 0.000000 
0.000000 0.000000 0.000000 

-0.000000 -0.000000 0.000000 
0.000000 0.000000 0.000000 
0.000000 0.000000 0.000000 

-0.000000 -0.000000 0.000000 
0.000000 0.000000 0.000000 
0.000000 0.000000 0.000000 

-0.000000 0.000000 0.000000 
0.000000 -0.000000 0.000000 
0.000000 0.000000 0.000000 

-0.000000 0.000000 0.000000 
0.000000 -0.000000 0.000000 
0.000000 0.000000 0.000000 

0.000000 0.000000 0.000000 
0.000000 -0.000000 0.000000 
0.000000 0.000000 0.000000 

0.000000 0.000000 0.000000 
0.000000 -0.000000 0.000000 
0.000000 0.000000 0.000000 

0.000000 0.000000 0.000000 
0.000000 -0.000000 0.000000 
0.000000 0.000000 0.000000 

0.000000 0.000000 0.000000 
0.000000 -0.000000 0.000000 
0.000000 0.000000 0.000000 

-0.000000 0.000000 0.000000 
0.000000 0.000000 0.000000 
0.000000 0.000000 0.000000 

0.000000 0.000000 0.000000 
0.000000 -0.000000 0.000000 
0.000000 0.000000 0.000000 

0.000000 -0.000000 0.000000 
0.000000 -0.000000 0.000000 
0.000000 0.000000 0.000000 

0.000000 0.000000 0.000000 
0.000000 0.000000 0.000000 
0.000000 0.000000 0.000000 

0.000000 0.000000 0.000000 
0.000000 -0.000000 0.000000 
0.000000 0.000000 0.000000 

0.000000 -0.000000 0.000000 
0.000000 0.000000 0.000000 
0.000000 0.000000 0.000000 

0.000000 -0.000000 0.000000 
0.000000 0.000000 0.000000 
0.000000 0.000000 0.000000 

0.000000 -0.000000 0.000000 
0.000000 -0.000000 0.000000 
0.000000 0.000000 0.000000 

-0.000000 0.000000 0.000000 
0.000000 0.000000 0.000000 
0.000000 0.000000 0.000000 

-0.000000 -0.000000 0.000000 
0.000000 -0.000000 0.000000 
0.000000 0.000000 0.000000 

0.000000 -0.000000 0.000000 
0.000000 0.000000 0.000000 
0.000000 0.000000 0.000000 

0.000000 -0.000000 0.000000 
0.000000 0.000000 0.000000 
0.000000 0.000000 0.000000 

0.000000 -0.000000 0.000000 
0.000000 -0.000000 0.000000 
0.000000 0.000000 0.000000 

0.000000 0.000000 0.000000 
0.000000 -0.000000 0.000000 
0.000000 0.000000 0.000000 

-0.000000 0.000000 0.000000 
0.000000 -0.000000 0.000000 
0.000000 0.000000 0.000000 

0.000000 -0.000000 0.000000 
0.000000 -0.000000 0.000000 
0.000000 0.000000 0.000000 

0.000000 -0.000000 0.000000 
0.000000 0.000000 0.000000 
0.000000 0.000000 0.000000 

0.000000 0.000000 0.000000 
0.000000 -0.000000 0.000000 
0.000000 0.000000 0.000000 

-0.000000 0.000000 0.000000 
0.000000 -0.000000 0.000000 
0.000000 0.000000 0.000000 

0.000000 0.000000 0.000000 
0.000000 0.000000 0.000000 
0.000000 0.000000 0.000000 

0.000000 0.000000 0.000000 
0.000000 0.000000 0.000000 
0.000000 0.000000 0.000000 

-0.000000 0.000000 0.000000 
0.000000 0.000000 0.000000 
0.000000 0.000000 0.000000 

-0.000000 0.000000 0.000000 
0.000000 0.000000 0.000000 
0.000000 0.000000 0.000000 

-0.000000 -0.000000 0.000000 
0.000000 0.000000 0.000000 
0.000000 0.000000 0.000000 

-0.000000 -0.000000 0.000000 
0.000000 0.000000 0.000000 
0.000000 0.000000 0.000000 

-0.000000 -0.000000 0.000000 
0.000000 0.000000 0.000000 
0.000000 0.000000 0.000000 

0.000000 -0.000000 0.000000 
0.000000 -0.000000 0.000000 
0.000000 0.000000 0.000000 

-0.000000 0.000000 0.000000 
0.000000 0.000000 0.000000 
0.000000 0.000000 0.000000 

-0.000000 0.000000 0.000000 
0.000000 -0.000000 0.000000 
0.000000 0.000000 0.000000 

-0.000000 -0.000000 0.000000 
0.000000 0.000000 0.000000 
0.000000 0.000000 0.000000 

-0.000000 0.000000 0.000000 
0.000000 0.000000 0.000000 
0.000000 0.000000 0.000000 

-0.000000 -0.000000 0.000000 
0.000000 -0.000000 0.000000 
0.000000 0.000000 0.000000 

-0.000000 0.000000 0.000000 
0.000000 -0.000000 0.000000 
0.000000 0.000000 0.000000 

0.000000 0.000000 0.000000 
0.000000 0.000000 0.000000 
0.000000 0.000000 0.000000 

0.000000 -0.000000 0.000000 
0.000000 0.000000 0.000000 
0.000000 0.000000 0.000000 

0.000000 -0.000000 0.000000 
0.000000 -0.000000 0.000000 
0.000000 0.000000 0.000000 

0.000000 0.000000 0.000000 
0.000000 -0.000000 0.000000 
0.000000 0.000000 0.000000 

0.000000 -0.000000 0.000000 
0.000000 -0.000000 0.000000 
0.000000 0.000000 0.000000 

0.000000 0.000000 0.000000 
0.000000 -0.000000 0.000000 
0.000000 0.000000 0.000000 

-0.000000 -0.000000 0.000000 
0.000000 0.000000 0.000000 
0.000000 0.000000 0.000000 

0.000000 0.000000 0.000000 
0.000000 -0.000000 0.000000 
0.000000 0.000000 0.000000 

-0.000000 -0.000000 0.000000 
0.000000 0.000000 0.000000 
0.000000 0.000000 0.000000 

0.000000 0.000000 0.000000 
0.000000 -0.000000 0.000000 
0.000000 0.000000 0.000000 

-0.000000 -0.000000 0.000000 
0.000000 0.000000 0.000000 
0.000000 0.000000 0.000000 

-0.000000 0.000000 0.000000 
0.000000 0.000000 0.000000 
0.000000 0.000000 0.000000 

-0.000000 0.000000 0.000000 
0.000000 -0.000000 0.000000 
0.000000 0.000000 0.000000 

-0.000000 -0.000000 0.000000 
0.000000 0.000000 0.000000 
0.000000 0.000000 0.000000 

-0.000000 -0.000000 0.000000 
0.000000 -0.000000 0.000000 
0.000000 0.000000 0.000000 

-0.000000 -0.000000 0.000000 
0.000000 -0.000000 0.000000 
0.000000 0.000000 0.000000 

0.000000 0.000000 0.000000 
0.000000 -0.000000 0.000000 
0.000000 0.000000 0.000000 

0.000000 0.000000 0.000000 
0.000000 -0.000000 0.000000 
0.000000 0.000000 0.000000 

-0.000000 -0.000000 0.000000 
0.000000 0.000000 0.000000 
0.000000 0.000000 0.000000 

-0.000000 0.000000 0.000000 
0.000000 -0.000000 0.000000 
0.000000 0.000000 0.000000 

0.000000 0.000000 0.000000 
0.000000 -0.000000 0.000000 
0.000000 0.000000 0.000000 

-0.000000 -0.000000 0.000000 
0.000000 0.000000 0.000000 
0.000000 0.000000 0.000000 

-0.000000 0.000000 0.000000 
0.000000 -0.000000 0.000000 
0.000000 0.000000 0.000000 

-0.000000 0.000000 0.000000 
0.000000 0.000000 0.000000 
0.000000 0.000000 0.000000 

-0.000000 -0.000000 0.000000 
0.000000 0.000000 0.000000 
0.000000 0.000000 0.000000 

0.000000 0.000000 0.000000 
0.000000 -0.000000 0.000000 
0.000000 0.000000 0.000000 

0.000000 -0.000000 0.000000 
0.000000 -0.000000 0.000000 
0.000000 0.000000 0.000000 

0.000000 -0.000000 0.000000 
0.000000 -0.000000 0.000000 
0.000000 0.000000 0.000000 

-0.000000 -0.000000 0.000000 
0.000000 0.000000 0.000000 
0.000000 0.000000 0.000000 

-0.000000 -0.000000 0.000000 
0.000000 0.000000 0.000000 
0.000000 0.000000 0.000000 

-0.000000 0.000000 0.000000 
0.000000 -0.000000 0.000000 
0.000000 0.000000 0.000000 

-0.000000 0.000000 0.000000 
0.000000 -0.000000 0.000000 
0.000000 0.000000 0.000000 

-0.000000 -0.000000 0.000000 
0.000000 0.000000 0.000000 
0.000000 0.000000 0.000000 

-0.000000 0.000000 0.000000 
0.000000 0.000000 0.000000 
0.000000 0.000000 0.000000 

-0.000000 -0.000000 0.000000 
0.000000 0.000000 0.000000 
0.000000 0.000000 0.000000 

-0.000000 -0.000000 0.000000 
0.000000 -0.000000 0.000000 
0.000000 0.000000 0.000000 

-0.000000 0.000000 0.000000 
0.000000 0.000000 0.000000 
0.000000 0.000000 0.000000 

-0.000000 0.000000 0.000000 
0.000000 0.000000 0.000000 
0.000000 0.000000 0.000000 

-0.000000 0.000000 0.000000 
0.000000 -0.000000 0.000000 
0.000000 0.000000 0.000000 

-0.000000 0.000000 0.000000 
0.000000 -0.000000 0.000000 
0.000000 0.000000 0.000000 

0.000000 0.000000 0.000000 
0.000000 -0.000000 0.000000 
0.000000 0.000000 0.000000 

0.000000 -0.000000 0.000000 
0.000000 0.000000 0.000000 
0.000000 0.000000 0.000000 

-0.000000 0.000000 0.000000 
0.000000 -0.000000 0.000000 
0.000000 0.000000 0.000000 

0.000000 -0.000000 0.000000 
0.000000 -0.000000 0.000000 
0.000000 0.000000 0.000000 

0.000000 0.000000 0.000000 
0.000000 -0.000000 0.000000 
0.000000 0.000000 0.000000 

-0.000000 0.000000 0.000000 
0.000000 0.000000 0.000000 
0.000000 0.000000 0.000000 

0.000000 -0.000000 0.000000 
0.000000 -0.000000 0.000000 
0.000000 0.000000 0.000000 

0.000000 0.000000 0.000000 
0.000000 0.000000 0.000000 
0.000000 0.000000 0.000000 

0.000000 -0.000000 0.000000 
0.000000 0.000000 0.000000 
0.000000 0.000000 0.000000 

0.000000 0.000000 0.000000 
0.000000 -0.000000 0.000000 
0.000000 0.000000 0.000000 

0.000000 0.000000 0.000000 
0.000000 0.000000 0.000000 
0.000000 0.000000 0.000000 

-0.000000 0.000000 0.000000 
0.000000 0.000000 0.000000 
0.000000 0.000000 0.000000 

0.000000 -0.000000 0.000000 
0.000000 0.000000 0.000000 
0.000000 0.000000 0.000000 

0.000000 0.000000 0.000000 
0.000000 0.000000 0.000000 
0.000000 0.000000 0.000000 

0.000000 -0.000000 0.000000 
0.000000 -0.000000 0.000000 
0.000000 0.000000 0.000000 

0.000000 -0.000000 0.000000 
0.000000 0.000000 0.000000 
0.000000 0.000000 0.000000 

-0.000000 0.000000 0.000000 
0.000000 0.000000 0.000000 
0.000000 0.000000 0.000000 

0.000000 0.000000 0.000000 
0.000000 -0.000000 0.000000 
0.000000 0.000000 0.000000 

-0.000000 -0.000000 0.000000 
0.000000 -0.000000 0.000000 
0.000000 0.000000 0.000000 

0.000000 -0.000000 0.000000 
0.000000 -0.000000 0.000000 
0.000000 0.000000 0.000000 

-0.000000 0.000000 0.000000 
0.000000 -0.000000 0.000000 
0.000000 0.000000 0.000000 

0.000000 -0.000000 0.000000 
0.000000 -0.000000 0.000000 
0.000000 0.000000 0.000000 

0.000000 -0.000000 0.000000 
0.000000 -0.000000 0.000000 
0.000000 0.000000 0.000000 

0.000000 0.000000 0.000000 
0.000000 -0.000000 0.000000 
0.000000 0.000000 0.000000 

-0.000000 0.000000 0.000000 
0.000000 -0.000000 0.000000 
0.000000 0.000000 0.000000 

-0.000000 0.000000 0.000000 
0.000000 0.000000 0.000000 
0.000000 0.000000 0.000000 

-0.000000 -0.000000 0.000000 
0.000000 0.000000 0.000000 
0.000000 0.000000 0.000000 

-0.000000 -0.000000 0.000000 
0.000000 -0.000000 0.000000 
0.000000 0.000000 0.000000 

0.000000 -0.000000 0.000000 
0.000000 0.000000 0.000000 
0.000000 0.000000 0.000000 

0.000000 -0.000000 0.000000 
0.000000 0.000000 0.000000 
0.000000 0.000000 0.000000 

-0.000000 0.000000 0.000000 
0.000000 0.000000 0.000000 
0.000000 0.000000 0.000000 

-0.000000 0.000000 0.000000 
0.000000 -0.000000 0.000000 
0.000000 0.000000 0.000000 

-0.000000 0.000000 0.000000 
0.000000 0.000000 0.000000 
0.000000 0.000000 0.000000 

0.000000 0.000000 0.000000 
0.000000 -0.000000 0.000000 
0.000000 0.000000 0.000000 

-0.000000 -0.000000 0.000000 
0.000000 -0.000000 0.000000 
0.000000 0.000000 0.000000 

0.000000 0.000000 0.000000 
0.000000 -0.000000 0.000000 
0.000000 0.000000 0.000000 

-0.000000 0.000000 0.000000 
0.000000 0.000000 0.000000 
0.000000 0.000000 0.000000 

-0.000000 0.000000 0.000000 
0.000000 0.000000 0.000000 
0.000000 0.000000 0.000000 

0.000000 0.000000 0.000000 
0.000000 0.000000 0.000000 
0.000000 0.000000 0.000000 

0.000000 0.000000 0.000000 
0.000000 0.000000 0.000000 
0.000000 0.000000 0.000000 

-0.000000 -0.000000 0.000000 
0.000000 -0.000000 0.000000 
0.000000 0.000000 0.000000 

0.000000 0.000000 0.000000 
0.000000 -0.000000 0.000000 
0.000000 0.000000 0.000000 

0.000000 0.000000 0.000000 
0.000000 -0.000000 0.000000 
0.000000 0.000000 0.000000 

-0.000000 0.000000 0.000000 
0.000000 0.000000 0.000000 
0.000000 0.000000 0.000000 

-0.000000 -0.000000 0.000000 
0.000000 0.000000 0.000000 
0.000000 0.000000 0.000000 

-0.000000 -0.000000 0.000000 
0.000000 0.000000 0.000000 
0.000000 0.000000 0.000000 

0.000000 -0.000000 0.000000 
0.000000 -0.000000 0.000000 
0.000000 0.000000 0.000000 

-0.000000 -0.000000 0.000000 
0.000000 -0.000000 0.000000 
0.000000 0.000000 0.000000 

-0.000000 0.000000 0.000000 
0.000000 0.000000 0.000000 
0.000000 0.000000 0.000000 

-0.000000 -0.000000 0.000000 
0.000000 -0.000000 0.000000 
0.000000 0.000000 0.000000 

-0.000000 -0.000000 0.000000 
0.000000 0.000000 0.000000 
0.000000 0.000000 0.000000 

-0.000000 0.000000 0.000000 
0.000000 0.000000 0.000000 
0.000000 0.000000 0.000000 

0.000000 -0.000000 0.000000 
0.000000 -0.000000 0.000000 
0.000000 0.000000 0.000000 

0.000000 -0.000000 0.000000 
0.000000 -0.000000 0.000000 
0.000000 0.000000 0.000000 

0.000000 0.000000 0.000000 
0.000000 0.000000 0.000000 
0.000000 0.000000 0.000000 

-0.000000 0.000000 0.000000 
0.000000 0.000000 0.000000 
0.000000 0.000000 0.000000 

-0.000000 0.000000 0.000000 
0.000000 0.000000 0.000000 
0.000000 0.000000 0.000000 

-0.000000 0.000000 0.000000 
0.000000 0.000000 0.000000 
0.000000 0.000000 0.000000 

-0.000000 0.000000 0.000000 
0.000000 -0.000000 0.000000 
0.000000 0.000000 0.000000 

-0.000000 -0.000000 0.000000 
0.000000 -0.000000 0.000000 
0.000000 0.000000 0.000000 

0.000000 -0.000000 0.000000 
0.000000 -0.000000 0.000000 
0.000000 0.000000 0.000000 

0.000000 0.000000 0.000000 
0.000000 -0.000000 0.000000 
0.000000 0.000000 0.000000 

