# vtk DataFile Version 3.0 
vtk output 
ASCII 
DATASET UNSTRUCTURED_GRID 
POINTS 175 float 
-0.026061 -0.680501 0.000000 
-0.106992 -0.612445 0.000000 
-0.054870 -0.620678 0.000000 
-0.028809 -0.574794 0.000000 
-0.186430 -0.548370 0.000000 
-0.137056 -0.550896 0.000000 
-0.114311 -0.497249 0.000000 
-0.058186 -0.512914 0.000000 
-0.029377 -0.472737 0.000000 
-0.265318 -0.485214 0.000000 
-0.217198 -0.486014 0.000000 
-0.196633 -0.428717 0.000000 
-0.143120 -0.437426 0.000000 
-0.116563 -0.390157 0.000000 
-0.058945 -0.409803 0.000000 
-0.029568 -0.371683 0.000000 
-0.344206 -0.422058 0.000000 
-0.296791 -0.422051 0.000000 
-0.278030 -0.362108 0.000000 
-0.225992 -0.367974 0.000000 
-0.201664 -0.315857 0.000000 
-0.145749 -0.329331 0.000000 
-0.117890 -0.284989 0.000000 
-0.059328 -0.307695 0.000000 
-0.029759 -0.270629 0.000000 
-0.058559 -0.721251 0.000000 
-0.162226 -0.742094 0.000000 
-0.123292 -0.706476 0.000000 
-0.142917 -0.657493 0.000000 
-0.261851 -0.764250 0.000000 
-0.229092 -0.727223 0.000000 
-0.256854 -0.675992 0.000000 
-0.209613 -0.641879 0.000000 
-0.223062 -0.594305 0.000000 
-0.360414 -0.786551 0.000000 
-0.329787 -0.749428 0.000000 
-0.361761 -0.697626 0.000000 
-0.321587 -0.661217 0.000000 
-0.341985 -0.610983 0.000000 
-0.290702 -0.578184 0.000000 
-0.302189 -0.531449 0.000000 
-0.458977 -0.808851 0.000000 
-0.429420 -0.771776 0.000000 
-0.464588 -0.719734 0.000000 
-0.427556 -0.682707 0.000000 
-0.453135 -0.631192 0.000000 
-0.407738 -0.595877 0.000000 
-0.425037 -0.546449 0.000000 
-0.370772 -0.514819 0.000000 
-0.381315 -0.468592 0.000000 
-0.046960 -0.772067 0.000000 
-0.095301 -0.866112 0.000000 
-0.098873 -0.813465 0.000000 
-0.149405 -0.798268 0.000000 
-0.140093 -0.957816 0.000000 
-0.148617 -0.909118 0.000000 
-0.205981 -0.898881 0.000000 
-0.203197 -0.840678 0.000000 
-0.248777 -0.821531 0.000000 
-0.184111 -1.048780 0.000000 
-0.194039 -1.001689 0.000000 
-0.254475 -0.994389 0.000000 
-0.257893 -0.940280 0.000000 
-0.309886 -0.924907 0.000000 
-0.303554 -0.864362 0.000000 
-0.347255 -0.844204 0.000000 
-0.228129 -1.139744 0.000000 
-0.238687 -1.093519 0.000000 
-0.301302 -1.088567 0.000000 
-0.307162 -1.036528 0.000000 
-0.363386 -1.024408 0.000000 
-0.362692 -0.966896 0.000000 
-0.412122 -0.949603 0.000000 
-0.403017 -0.887456 0.000000 
-0.445733 -0.866877 0.000000 
-0.000000 -0.794682 0.000000 
0.043388 -0.891112 0.000000 
-0.000000 -0.861080 0.000000 
-0.043388 -0.891112 0.000000 
0.087158 -0.983309 0.000000 
0.043769 -0.959610 0.000000 
-0.000000 -0.998076 0.000000 
-0.043769 -0.959610 0.000000 
-0.087158 -0.983309 0.000000 
0.130831 -1.074438 0.000000 
0.087824 -1.052840 0.000000 
0.044436 -1.095539 0.000000 
-0.000000 -1.064474 0.000000 
-0.044436 -1.095539 0.000000 
-0.087824 -1.052840 0.000000 
-0.130831 -1.074438 0.000000 
0.174505 -1.165568 0.000000 
0.131782 -1.145002 0.000000 
0.088871 -1.190869 0.000000 
0.044532 -1.163005 0.000000 
-0.000000 -1.199405 0.000000 
-0.044532 -1.163005 0.000000 
-0.088871 -1.190869 0.000000 
-0.131782 -1.145002 0.000000 
-0.174505 -1.165568 0.000000 
0.046960 -0.772067 0.000000 
0.149405 -0.798268 0.000000 
0.098873 -0.813465 0.000000 
0.095301 -0.866112 0.000000 
0.248777 -0.821531 0.000000 
0.203197 -0.840678 0.000000 
0.205981 -0.898881 0.000000 
0.148617 -0.909118 0.000000 
0.140093 -0.957816 0.000000 
0.347255 -0.844204 0.000000 
0.303554 -0.864362 0.000000 
0.309886 -0.924907 0.000000 
0.257893 -0.940280 0.000000 
0.254475 -0.994389 0.000000 
0.194039 -1.001689 0.000000 
0.184111 -1.048780 0.000000 
0.445733 -0.866877 0.000000 
0.403017 -0.887456 0.000000 
0.412122 -0.949603 0.000000 
0.362692 -0.966896 0.000000 
0.363386 -1.024408 0.000000 
0.307162 -1.036528 0.000000 
0.301302 -1.088567 0.000000 
0.238687 -1.093519 0.000000 
0.228129 -1.139744 0.000000 
0.058559 -0.721251 0.000000 
0.142917 -0.657493 0.000000 
0.123292 -0.706476 0.000000 
0.162226 -0.742094 0.000000 
0.223062 -0.594305 0.000000 
0.209613 -0.641879 0.000000 
0.256854 -0.675992 0.000000 
0.229092 -0.727223 0.000000 
0.261851 -0.764250 0.000000 
0.302189 -0.531449 0.000000 
0.290702 -0.578184 0.000000 
0.341985 -0.610983 0.000000 
0.321587 -0.661217 0.000000 
0.361761 -0.697626 0.000000 
0.329787 -0.749428 0.000000 
0.360414 -0.786551 0.000000 
0.381315 -0.468592 0.000000 
0.370772 -0.514819 0.000000 
0.425037 -0.546449 0.000000 
0.407738 -0.595877 0.000000 
0.453135 -0.631192 0.000000 
0.427556 -0.682707 0.000000 
0.464588 -0.719734 0.000000 
0.429420 -0.771776 0.000000 
0.458977 -0.808851 0.000000 
0.026061 -0.680501 0.000000 
0.028809 -0.574794 0.000000 
0.054870 -0.620678 0.000000 
0.106992 -0.612445 0.000000 
0.029377 -0.472737 0.000000 
0.058186 -0.512914 0.000000 
0.114311 -0.497249 0.000000 
0.137056 -0.550896 0.000000 
0.186430 -0.548370 0.000000 
0.029568 -0.371683 0.000000 
0.058945 -0.409803 0.000000 
0.116563 -0.390157 0.000000 
0.143120 -0.437426 0.000000 
0.196633 -0.428717 0.000000 
0.217198 -0.486014 0.000000 
0.265318 -0.485214 0.000000 
0.029759 -0.270629 0.000000 
0.059328 -0.307695 0.000000 
0.117890 -0.284989 0.000000 
0.145749 -0.329331 0.000000 
0.201664 -0.315857 0.000000 
0.225992 -0.367974 0.000000 
0.278030 -0.362108 0.000000 
0.296791 -0.422051 0.000000 
0.344206 -0.422058 0.000000 
CELLS 175 350 
1 0 
1 1 
1 2 
1 3 
1 4 
1 5 
1 6 
1 7 
1 8 
1 9 
1 10 
1 11 
1 12 
1 13 
1 14 
1 15 
1 16 
1 17 
1 18 
1 19 
1 20 
1 21 
1 22 
1 23 
1 24 
1 25 
1 26 
1 27 
1 28 
1 29 
1 30 
1 31 
1 32 
1 33 
1 34 
1 35 
1 36 
1 37 
1 38 
1 39 
1 40 
1 41 
1 42 
1 43 
1 44 
1 45 
1 46 
1 47 
1 48 
1 49 
1 50 
1 51 
1 52 
1 53 
1 54 
1 55 
1 56 
1 57 
1 58 
1 59 
1 60 
1 61 
1 62 
1 63 
1 64 
1 65 
1 66 
1 67 
1 68 
1 69 
1 70 
1 71 
1 72 
1 73 
1 74 
1 75 
1 76 
1 77 
1 78 
1 79 
1 80 
1 81 
1 82 
1 83 
1 84 
1 85 
1 86 
1 87 
1 88 
1 89 
1 90 
1 91 
1 92 
1 93 
1 94 
1 95 
1 96 
1 97 
1 98 
1 99 
1 100 
1 101 
1 102 
1 103 
1 104 
1 105 
1 106 
1 107 
1 108 
1 109 
1 110 
1 111 
1 112 
1 113 
1 114 
1 115 
1 116 
1 117 
1 118 
1 119 
1 120 
1 121 
1 122 
1 123 
1 124 
1 125 
1 126 
1 127 
1 128 
1 129 
1 130 
1 131 
1 132 
1 133 
1 134 
1 135 
1 136 
1 137 
1 138 
1 139 
1 140 
1 141 
1 142 
1 143 
1 144 
1 145 
1 146 
1 147 
1 148 
1 149 
1 150 
1 151 
1 152 
1 153 
1 154 
1 155 
1 156 
1 157 
1 158 
1 159 
1 160 
1 161 
1 162 
1 163 
1 164 
1 165 
1 166 
1 167 
1 168 
1 169 
1 170 
1 171 
1 172 
1 173 
1 174 
CELL_TYPES 175 
1 
1 
1 
1 
1 
1 
1 
1 
1 
1 
1 
1 
1 
1 
1 
1 
1 
1 
1 
1 
1 
1 
1 
1 
1 
1 
1 
1 
1 
1 
1 
1 
1 
1 
1 
1 
1 
1 
1 
1 
1 
1 
1 
1 
1 
1 
1 
1 
1 
1 
1 
1 
1 
1 
1 
1 
1 
1 
1 
1 
1 
1 
1 
1 
1 
1 
1 
1 
1 
1 
1 
1 
1 
1 
1 
1 
1 
1 
1 
1 
1 
1 
1 
1 
1 
1 
1 
1 
1 
1 
1 
1 
1 
1 
1 
1 
1 
1 
1 
1 
1 
1 
1 
1 
1 
1 
1 
1 
1 
1 
1 
1 
1 
1 
1 
1 
1 
1 
1 
1 
1 
1 
1 
1 
1 
1 
1 
1 
1 
1 
1 
1 
1 
1 
1 
1 
1 
1 
1 
1 
1 
1 
1 
1 
1 
1 
1 
1 
1 
1 
1 
1 
1 
1 
1 
1 
1 
1 
1 
1 
1 
1 
1 
1 
1 
1 
1 
1 
1 
1 
1 
1 
1 
1 
1 
POINT_DATA 175 
VECTORS X_GC float 
-0.026061 -0.680501 0.000000 
-0.106992 -0.612445 0.000000 
-0.054870 -0.620678 0.000000 
-0.028809 -0.574794 0.000000 
-0.186430 -0.548370 0.000000 
-0.137056 -0.550896 0.000000 
-0.114311 -0.497249 0.000000 
-0.058186 -0.512914 0.000000 
-0.029377 -0.472737 0.000000 
-0.265318 -0.485214 0.000000 
-0.217198 -0.486014 0.000000 
-0.196633 -0.428717 0.000000 
-0.143120 -0.437426 0.000000 
-0.116563 -0.390157 0.000000 
-0.058945 -0.409803 0.000000 
-0.029568 -0.371683 0.000000 
-0.344206 -0.422058 0.000000 
-0.296791 -0.422051 0.000000 
-0.278030 -0.362108 0.000000 
-0.225992 -0.367974 0.000000 
-0.201664 -0.315857 0.000000 
-0.145749 -0.329331 0.000000 
-0.117890 -0.284989 0.000000 
-0.059328 -0.307695 0.000000 
-0.029759 -0.270629 0.000000 
-0.058559 -0.721251 0.000000 
-0.162226 -0.742094 0.000000 
-0.123292 -0.706476 0.000000 
-0.142917 -0.657493 0.000000 
-0.261851 -0.764250 0.000000 
-0.229092 -0.727223 0.000000 
-0.256854 -0.675992 0.000000 
-0.209613 -0.641879 0.000000 
-0.223062 -0.594305 0.000000 
-0.360414 -0.786551 0.000000 
-0.329787 -0.749428 0.000000 
-0.361761 -0.697626 0.000000 
-0.321587 -0.661217 0.000000 
-0.341985 -0.610983 0.000000 
-0.290702 -0.578184 0.000000 
-0.302189 -0.531449 0.000000 
-0.458977 -0.808851 0.000000 
-0.429420 -0.771776 0.000000 
-0.464588 -0.719734 0.000000 
-0.427556 -0.682707 0.000000 
-0.453135 -0.631192 0.000000 
-0.407738 -0.595877 0.000000 
-0.425037 -0.546449 0.000000 
-0.370772 -0.514819 0.000000 
-0.381315 -0.468592 0.000000 
-0.046960 -0.772067 0.000000 
-0.095301 -0.866112 0.000000 
-0.098873 -0.813465 0.000000 
-0.149405 -0.798268 0.000000 
-0.140093 -0.957816 0.000000 
-0.148617 -0.909118 0.000000 
-0.205981 -0.898881 0.000000 
-0.203197 -0.840678 0.000000 
-0.248777 -0.821531 0.000000 
-0.184111 -1.048780 0.000000 
-0.194039 -1.001689 0.000000 
-0.254475 -0.994389 0.000000 
-0.257893 -0.940280 0.000000 
-0.309886 -0.924907 0.000000 
-0.303554 -0.864362 0.000000 
-0.347255 -0.844204 0.000000 
-0.228129 -1.139744 0.000000 
-0.238687 -1.093519 0.000000 
-0.301302 -1.088567 0.000000 
-0.307162 -1.036528 0.000000 
-0.363386 -1.024408 0.000000 
-0.362692 -0.966896 0.000000 
-0.412122 -0.949603 0.000000 
-0.403017 -0.887456 0.000000 
-0.445733 -0.866877 0.000000 
-0.000000 -0.794682 0.000000 
0.043388 -0.891112 0.000000 
-0.000000 -0.861080 0.000000 
-0.043388 -0.891112 0.000000 
0.087158 -0.983309 0.000000 
0.043769 -0.959610 0.000000 
-0.000000 -0.998076 0.000000 
-0.043769 -0.959610 0.000000 
-0.087158 -0.983309 0.000000 
0.130831 -1.074438 0.000000 
0.087824 -1.052840 0.000000 
0.044436 -1.095539 0.000000 
-0.000000 -1.064474 0.000000 
-0.044436 -1.095539 0.000000 
-0.087824 -1.052840 0.000000 
-0.130831 -1.074438 0.000000 
0.174505 -1.165568 0.000000 
0.131782 -1.145002 0.000000 
0.088871 -1.190869 0.000000 
0.044532 -1.163005 0.000000 
-0.000000 -1.199405 0.000000 
-0.044532 -1.163005 0.000000 
-0.088871 -1.190869 0.000000 
-0.131782 -1.145002 0.000000 
-0.174505 -1.165568 0.000000 
0.046960 -0.772067 0.000000 
0.149405 -0.798268 0.000000 
0.098873 -0.813465 0.000000 
0.095301 -0.866112 0.000000 
0.248777 -0.821531 0.000000 
0.203197 -0.840678 0.000000 
0.205981 -0.898881 0.000000 
0.148617 -0.909118 0.000000 
0.140093 -0.957816 0.000000 
0.347255 -0.844204 0.000000 
0.303554 -0.864362 0.000000 
0.309886 -0.924907 0.000000 
0.257893 -0.940280 0.000000 
0.254475 -0.994389 0.000000 
0.194039 -1.001689 0.000000 
0.184111 -1.048780 0.000000 
0.445733 -0.866877 0.000000 
0.403017 -0.887456 0.000000 
0.412122 -0.949603 0.000000 
0.362692 -0.966896 0.000000 
0.363386 -1.024408 0.000000 
0.307162 -1.036528 0.000000 
0.301302 -1.088567 0.000000 
0.238687 -1.093519 0.000000 
0.228129 -1.139744 0.000000 
0.058559 -0.721251 0.000000 
0.142917 -0.657493 0.000000 
0.123292 -0.706476 0.000000 
0.162226 -0.742094 0.000000 
0.223062 -0.594305 0.000000 
0.209613 -0.641879 0.000000 
0.256854 -0.675992 0.000000 
0.229092 -0.727223 0.000000 
0.261851 -0.764250 0.000000 
0.302189 -0.531449 0.000000 
0.290702 -0.578184 0.000000 
0.341985 -0.610983 0.000000 
0.321587 -0.661217 0.000000 
0.361761 -0.697626 0.000000 
0.329787 -0.749428 0.000000 
0.360414 -0.786551 0.000000 
0.381315 -0.468592 0.000000 
0.370772 -0.514819 0.000000 
0.425037 -0.546449 0.000000 
0.407738 -0.595877 0.000000 
0.453135 -0.631192 0.000000 
0.427556 -0.682707 0.000000 
0.464588 -0.719734 0.000000 
0.429420 -0.771776 0.000000 
0.458977 -0.808851 0.000000 
0.026061 -0.680501 0.000000 
0.028809 -0.574794 0.000000 
0.054870 -0.620678 0.000000 
0.106992 -0.612445 0.000000 
0.029377 -0.472737 0.000000 
0.058186 -0.512914 0.000000 
0.114311 -0.497249 0.000000 
0.137056 -0.550896 0.000000 
0.186430 -0.548370 0.000000 
0.029568 -0.371683 0.000000 
0.058945 -0.409803 0.000000 
0.116563 -0.390157 0.000000 
0.143120 -0.437426 0.000000 
0.196633 -0.428717 0.000000 
0.217198 -0.486014 0.000000 
0.265318 -0.485214 0.000000 
0.029759 -0.270629 0.000000 
0.059328 -0.307695 0.000000 
0.117890 -0.284989 0.000000 
0.145749 -0.329331 0.000000 
0.201664 -0.315857 0.000000 
0.225992 -0.367974 0.000000 
0.278030 -0.362108 0.000000 
0.296791 -0.422051 0.000000 
0.344206 -0.422058 0.000000 
VECTORS X_EC float 
0.338794 -0.313242 0.000000 
-0.609100 0.768010 0.000000 
0.713312 0.879151 0.000000 
0.374519 0.259721 0.000000 
0.423588 -0.097009 0.000000 
-0.218274 -0.062906 0.000000 
-0.513962 -0.787145 0.000000 
0.756418 -0.575659 0.000000 
0.381900 0.881949 0.000000 
-0.550868 -0.949613 0.000000 
0.823577 -0.938817 0.000000 
0.556234 0.287679 0.000000 
-0.139443 0.405248 0.000000 
-0.484677 -0.232877 0.000000 
0.766286 0.032338 0.000000 
0.384386 -0.482282 0.000000 
0.474677 0.197784 0.000000 
-0.141715 0.197688 0.000000 
-0.385608 -0.611540 0.000000 
0.937896 -0.532345 0.000000 
0.621631 0.764075 0.000000 
-0.105264 0.945974 0.000000 
-0.467428 0.347348 0.000000 
0.771260 0.653876 0.000000 
0.386873 0.153487 0.000000 
0.761262 0.236893 0.000000 
0.108942 0.518269 0.000000 
-0.397202 0.037430 0.000000 
-0.142083 -0.623845 0.000000 
-0.595936 0.817380 0.000000 
0.978194 0.317514 0.000000 
-0.660903 -0.374111 0.000000 
0.724964 -0.834631 0.000000 
0.899809 0.523120 0.000000 
0.685384 -0.881568 0.000000 
0.287229 0.617274 0.000000 
0.702895 -0.082055 0.000000 
0.180633 -0.573574 0.000000 
0.445811 0.748267 0.000000 
-0.220880 0.305481 0.000000 
-0.071546 -0.325445 0.000000 
-0.033296 -0.580516 0.000000 
-0.417537 0.918975 0.000000 
0.039645 0.216412 0.000000 
-0.441768 -0.283459 0.000000 
-0.109248 -0.978910 0.000000 
-0.699407 0.544335 0.000000 
-0.474522 -0.122944 0.000000 
0.820030 -0.549938 0.000000 
0.957100 0.825990 0.000000 
0.610485 0.922899 0.000000 
-0.761092 0.192518 0.000000 
-0.714655 -0.518219 0.000000 
-0.057734 -0.723386 0.000000 
-0.178789 -0.569477 0.000000 
-0.067979 0.773096 0.000000 
0.677748 0.634893 0.000000 
0.641556 -0.150852 0.000000 
-0.765897 -0.409331 0.000000 
0.393446 0.658532 0.000000 
0.522510 0.022802 0.000000 
-0.691820 -0.075742 0.000000 
-0.647393 -0.806225 0.000000 
0.028512 0.986248 0.000000 
-0.053800 0.168888 0.000000 
0.514316 -0.103243 0.000000 
0.965681 -0.113459 0.000000 
-0.897068 -0.737488 0.000000 
-0.083078 -0.804341 0.000000 
-0.006893 0.493134 0.000000 
0.724017 0.329502 0.000000 
0.714996 -0.446902 0.000000 
-0.642413 -0.680359 0.000000 
-0.760780 0.480660 0.000000 
-0.205471 0.202845 0.000000 
0.000000 -0.771799 0.000000 
-0.564049 0.530013 0.000000 
0.000000 0.124577 0.000000 
0.564049 0.530013 0.000000 
0.866949 -0.225331 0.000000 
-0.569003 -0.545262 0.000000 
0.000000 -0.025974 0.000000 
0.569003 -0.545262 0.000000 
-0.866949 -0.225331 0.000000 
0.299194 -0.995081 0.000000 
0.858290 0.713335 0.000000 
-0.577662 -0.710219 0.000000 
0.000000 0.870403 0.000000 
0.577662 -0.710219 0.000000 
-0.858290 0.713335 0.000000 
-0.299194 -0.995081 0.000000 
-0.268560 0.235169 0.000000 
0.286830 -0.042473 0.000000 
0.844677 0.576726 0.000000 
-0.578910 0.200563 0.000000 
0.000000 0.691967 0.000000 
0.578910 0.200563 0.000000 
-0.844677 0.576726 0.000000 
-0.286830 -0.042473 0.000000 
0.268560 0.235169 0.000000 
-0.610485 0.922899 0.000000 
0.057734 -0.723386 0.000000 
0.714655 -0.518219 0.000000 
0.761092 0.192518 0.000000 
0.765897 -0.409331 0.000000 
-0.641556 -0.150852 0.000000 
-0.677748 0.634893 0.000000 
0.067979 0.773097 0.000000 
0.178789 -0.569477 0.000000 
-0.514316 -0.103243 0.000000 
0.053800 0.168888 0.000000 
-0.028512 0.986248 0.000000 
0.647393 -0.806225 0.000000 
0.691820 -0.075742 0.000000 
-0.522510 0.022802 0.000000 
-0.393446 0.658532 0.000000 
0.205471 0.202845 0.000000 
0.760780 0.480660 0.000000 
0.642413 -0.680359 0.000000 
-0.714996 -0.446902 0.000000 
-0.724017 0.329502 0.000000 
0.006894 0.493134 0.000000 
0.083078 -0.804341 0.000000 
0.897068 -0.737488 0.000000 
-0.965681 -0.113459 0.000000 
-0.761262 0.236893 0.000000 
0.142083 -0.623845 0.000000 
0.397202 0.037430 0.000000 
-0.108942 0.518269 0.000000 
-0.899809 0.523120 0.000000 
-0.724964 -0.834631 0.000000 
0.660903 -0.374111 0.000000 
-0.978194 0.317514 0.000000 
0.595936 0.817380 0.000000 
0.071546 -0.325445 0.000000 
0.220880 0.305481 0.000000 
-0.445811 0.748267 0.000000 
-0.180633 -0.573574 0.000000 
-0.702895 -0.082055 0.000000 
-0.287229 0.617274 0.000000 
-0.685384 -0.881568 0.000000 
-0.957100 0.825990 0.000000 
-0.820030 -0.549938 0.000000 
0.474522 -0.122944 0.000000 
0.699407 0.544335 0.000000 
0.109248 -0.978910 0.000000 
0.441768 -0.283459 0.000000 
-0.039645 0.216412 0.000000 
0.417537 0.918975 0.000000 
0.033296 -0.580516 0.000000 
-0.338794 -0.313242 0.000000 
-0.374519 0.259721 0.000000 
-0.713312 0.879151 0.000000 
0.609100 0.768010 0.000000 
-0.381900 0.881949 0.000000 
-0.756418 -0.575659 0.000000 
0.513962 -0.787145 0.000000 
0.218274 -0.062906 0.000000 
-0.423588 -0.097009 0.000000 
-0.384386 -0.482282 0.000000 
-0.766286 0.032338 0.000000 
0.484677 -0.232877 0.000000 
0.139443 0.405248 0.000000 
-0.556234 0.287679 0.000000 
-0.823577 -0.938817 0.000000 
0.550868 -0.949613 0.000000 
-0.386873 0.153487 0.000000 
-0.771260 0.653876 0.000000 
0.467428 0.347348 0.000000 
0.105264 0.945974 0.000000 
-0.621631 0.764075 0.000000 
-0.937896 -0.532345 0.000000 
0.385608 -0.611540 0.000000 
0.141715 0.197688 0.000000 
-0.474677 0.197784 0.000000 
CELL_DATA 175 
SCALARS MASS float 
LOOKUP_TABLE default 
0.078183 
0.086427 
0.094672 
0.086427 
0.088131 
0.092111 
0.085854 
0.092111 
0.088131 
0.088705 
0.091000 
0.086983 
0.091556 
0.086983 
0.091000 
0.088705 
0.089278 
0.091574 
0.089278 
0.092722 
0.089278 
0.092722 
0.089278 
0.091574 
0.089278 
0.078183 
0.086427 
0.094672 
0.086427 
0.088131 
0.092111 
0.085854 
0.092111 
0.088131 
0.088705 
0.091000 
0.086983 
0.091556 
0.086983 
0.091000 
0.088705 
0.089278 
0.091574 
0.089278 
0.092722 
0.089278 
0.092722 
0.089278 
0.091574 
0.089278 
0.078183 
0.086427 
0.094672 
0.086427 
0.088131 
0.092111 
0.085854 
0.092111 
0.088131 
0.088705 
0.091000 
0.086983 
0.091556 
0.086983 
0.091000 
0.088705 
0.089278 
0.091574 
0.089278 
0.092722 
0.089278 
0.092722 
0.089278 
0.091574 
0.089278 
0.078183 
0.086427 
0.094672 
0.086427 
0.088131 
0.092111 
0.085854 
0.092111 
0.088131 
0.088705 
0.091000 
0.086983 
0.091556 
0.086983 
0.091000 
0.088705 
0.089278 
0.091574 
0.089278 
0.092722 
0.089278 
0.092722 
0.089278 
0.091574 
0.089278 
0.078183 
0.086427 
0.094672 
0.086427 
0.088131 
0.092111 
0.085854 
0.092111 
0.088131 
0.088705 
0.091000 
0.086983 
0.091556 
0.086983 
0.091000 
0.088705 
0.089278 
0.091574 
0.089278 
0.092722 
0.089278 
0.092722 
0.089278 
0.091574 
0.089278 
0.078183 
0.086427 
0.094672 
0.086427 
0.088131 
0.092111 
0.085854 
0.092111 
0.088131 
0.088705 
0.091000 
0.086983 
0.091556 
0.086983 
0.091000 
0.088705 
0.089278 
0.091574 
0.089278 
0.092722 
0.089278 
0.092722 
0.089278 
0.091574 
0.089278 
0.078183 
0.086427 
0.094672 
0.086427 
0.088131 
0.092111 
0.085854 
0.092111 
0.088131 
0.088705 
0.091000 
0.086983 
0.091556 
0.086983 
0.091000 
0.088705 
0.089278 
0.091574 
0.089278 
0.092722 
0.089278 
0.092722 
0.089278 
0.091574 
0.089278 
SCALARS MASS float 
LOOKUP_TABLE default 
0.078183 
0.086427 
0.094672 
0.086427 
0.088131 
0.092111 
0.085854 
0.092111 
0.088131 
0.088705 
0.091000 
0.086983 
0.091556 
0.086983 
0.091000 
0.088705 
0.089278 
0.091574 
0.089278 
0.092722 
0.089278 
0.092722 
0.089278 
0.091574 
0.089278 
0.078183 
0.086427 
0.094672 
0.086427 
0.088131 
0.092111 
0.085854 
0.092111 
0.088131 
0.088705 
0.091000 
0.086983 
0.091556 
0.086983 
0.091000 
0.088705 
0.089278 
0.091574 
0.089278 
0.092722 
0.089278 
0.092722 
0.089278 
0.091574 
0.089278 
0.078183 
0.086427 
0.094672 
0.086427 
0.088131 
0.092111 
0.085854 
0.092111 
0.088131 
0.088705 
0.091000 
0.086983 
0.091556 
0.086983 
0.091000 
0.088705 
0.089278 
0.091574 
0.089278 
0.092722 
0.089278 
0.092722 
0.089278 
0.091574 
0.089278 
0.078183 
0.086427 
0.094672 
0.086427 
0.088131 
0.092111 
0.085854 
0.092111 
0.088131 
0.088705 
0.091000 
0.086983 
0.091556 
0.086983 
0.091000 
0.088705 
0.089278 
0.091574 
0.089278 
0.092722 
0.089278 
0.092722 
0.089278 
0.091574 
0.089278 
0.078183 
0.086427 
0.094672 
0.086427 
0.088131 
0.092111 
0.085854 
0.092111 
0.088131 
0.088705 
0.091000 
0.086983 
0.091556 
0.086983 
0.091000 
0.088705 
0.089278 
0.091574 
0.089278 
0.092722 
0.089278 
0.092722 
0.089278 
0.091574 
0.089278 
0.078183 
0.086427 
0.094672 
0.086427 
0.088131 
0.092111 
0.085854 
0.092111 
0.088131 
0.088705 
0.091000 
0.086983 
0.091556 
0.086983 
0.091000 
0.088705 
0.089278 
0.091574 
0.089278 
0.092722 
0.089278 
0.092722 
0.089278 
0.091574 
0.089278 
0.078183 
0.086427 
0.094672 
0.086427 
0.088131 
0.092111 
0.085854 
0.092111 
0.088131 
0.088705 
0.091000 
0.086983 
0.091556 
0.086983 
0.091000 
0.088705 
0.089278 
0.091574 
0.089278 
0.092722 
0.089278 
0.092722 
0.089278 
0.091574 
0.089278 
SCALARS DENSITY float 
LOOKUP_TABLE default 
20.000000 
20.000000 
20.000000 
20.000000 
20.000000 
20.000000 
20.000000 
20.000000 
20.000000 
20.000000 
20.000000 
20.000000 
20.000000 
20.000000 
20.000000 
20.000000 
20.000000 
20.000000 
20.000000 
20.000000 
20.000000 
20.000000 
20.000000 
20.000000 
20.000000 
20.000000 
20.000000 
20.000000 
20.000000 
20.000000 
20.000000 
20.000000 
20.000000 
20.000000 
20.000000 
20.000000 
20.000000 
20.000000 
20.000000 
20.000000 
20.000000 
20.000000 
20.000000 
20.000000 
20.000000 
20.000000 
20.000000 
20.000000 
20.000000 
20.000000 
20.000000 
20.000000 
20.000000 
20.000000 
20.000000 
20.000000 
20.000000 
20.000000 
20.000000 
20.000000 
20.000000 
20.000000 
20.000000 
20.000000 
20.000000 
20.000000 
20.000000 
20.000000 
20.000000 
20.000000 
20.000000 
20.000000 
20.000000 
20.000000 
20.000000 
20.000000 
20.000000 
20.000000 
20.000000 
20.000000 
20.000000 
20.000000 
20.000000 
20.000000 
20.000000 
20.000000 
20.000000 
20.000000 
20.000000 
20.000000 
20.000000 
20.000000 
20.000000 
20.000000 
20.000000 
20.000000 
20.000000 
20.000000 
20.000000 
20.000000 
20.000000 
20.000000 
20.000000 
20.000000 
20.000000 
20.000000 
20.000000 
20.000000 
20.000000 
20.000000 
20.000000 
20.000000 
20.000000 
20.000000 
20.000000 
20.000000 
20.000000 
20.000000 
20.000000 
20.000000 
20.000000 
20.000000 
20.000000 
20.000000 
20.000000 
20.000000 
20.000000 
20.000000 
20.000000 
20.000000 
20.000000 
20.000000 
20.000000 
20.000000 
20.000000 
20.000000 
20.000000 
20.000000 
20.000000 
20.000000 
20.000000 
20.000000 
20.000000 
20.000000 
20.000000 
20.000000 
20.000000 
20.000000 
20.000000 
20.000000 
20.000000 
20.000000 
20.000000 
20.000000 
20.000000 
20.000000 
20.000000 
20.000000 
20.000000 
20.000000 
20.000000 
20.000000 
20.000000 
20.000000 
20.000000 
20.000000 
20.000000 
20.000000 
20.000000 
20.000000 
20.000000 
20.000000 
20.000000 
20.000000 
20.000000 
SCALARS ELEM_i float 
LOOKUP_TABLE default 
177 
205 
178 
178 
205 
205 
205 
178 
179 
232 
205 
206 
206 
206 
179 
179 
233 
233 
233 
206 
207 
207 
207 
180 
180 
177 
204 
204 
204 
231 
204 
231 
204 
205 
230 
231 
231 
231 
232 
232 
232 
257 
258 
258 
258 
258 
259 
259 
232 
233 
177 
203 
203 
203 
202 
203 
203 
203 
230 
202 
202 
229 
229 
230 
230 
230 
201 
228 
228 
229 
229 
229 
256 
257 
257 
176 
176 
176 
176 
148 
175 
175 
175 
202 
147 
148 
174 
175 
174 
202 
201 
147 
147 
147 
174 
174 
174 
201 
201 
201 
177 
149 
149 
149 
122 
149 
149 
149 
148 
122 
122 
122 
121 
121 
148 
148 
95 
95 
94 
121 
121 
121 
120 
120 
147 
177 
150 
150 
150 
151 
150 
123 
150 
123 
124 
124 
124 
123 
123 
123 
122 
125 
124 
97 
97 
96 
96 
96 
96 
95 
177 
178 
178 
151 
179 
178 
151 
151 
151 
179 
179 
152 
152 
152 
151 
124 
180 
180 
153 
153 
153 
152 
125 
125 
125 
VECTORS VELOCITY float 
-0.000000 -3.796078 0.000000 
-0.000000 -3.796078 0.000000 
-0.000000 -3.796078 0.000000 
-0.000000 -3.796078 0.000000 
0.000000 -3.796078 0.000000 
-0.000000 -3.796078 0.000000 
-0.000000 -3.796078 0.000000 
-0.000000 -3.796078 0.000000 
-0.000000 -3.796078 0.000000 
-0.000000 -3.796078 0.000000 
-0.000000 -3.796078 0.000000 
-0.000000 -3.796078 0.000000 
-0.000000 -3.796078 0.000000 
-0.000000 -3.796078 0.000000 
0.000000 -3.796078 0.000000 
0.000000 -3.796078 0.000000 
0.000000 -3.796078 0.000000 
-0.000000 -3.796078 0.000000 
-0.000000 -3.796078 0.000000 
-0.000000 -3.796078 0.000000 
-0.000000 -3.796078 0.000000 
0.000000 -3.796078 0.000000 
0.000000 -3.796078 0.000000 
0.000000 -3.796078 0.000000 
-0.000000 -3.796078 0.000000 
-0.000000 -3.796078 0.000000 
0.000000 -3.796078 0.000000 
-0.000000 -3.796078 0.000000 
-0.000000 -3.796078 0.000000 
0.000000 -3.796078 0.000000 
0.000000 -3.796078 0.000000 
0.000000 -3.796078 0.000000 
0.000000 -3.796078 0.000000 
0.000000 -3.796078 0.000000 
0.000000 -3.796078 0.000000 
0.000000 -3.796078 0.000000 
0.000000 -3.796078 0.000000 
0.000000 -3.796078 0.000000 
-0.000000 -3.796078 0.000000 
-0.000000 -3.796078 0.000000 
-0.000000 -3.796078 0.000000 
0.000000 -3.796078 0.000000 
0.000000 -3.796078 0.000000 
0.000000 -3.796078 0.000000 
0.000000 -3.796078 0.000000 
0.000000 -3.796078 0.000000 
-0.000000 -3.796078 0.000000 
-0.000000 -3.796078 0.000000 
-0.000000 -3.796078 0.000000 
0.000000 -3.796078 0.000000 
0.000000 -3.796078 0.000000 
0.000000 -3.796078 0.000000 
0.000000 -3.796078 0.000000 
0.000000 -3.796078 0.000000 
-0.000000 -3.796078 0.000000 
-0.000000 -3.796078 0.000000 
-0.000000 -3.796078 0.000000 
-0.000000 -3.796078 0.000000 
0.000000 -3.796078 0.000000 
0.000000 -3.796078 0.000000 
0.000000 -3.796078 0.000000 
0.000000 -3.796078 0.000000 
0.000000 -3.796078 0.000000 
0.000000 -3.796078 0.000000 
0.000000 -3.796078 0.000000 
0.000000 -3.796078 0.000000 
0.000000 -3.796078 0.000000 
-0.000000 -3.796078 0.000000 
-0.000000 -3.796078 0.000000 
0.000000 -3.796078 0.000000 
0.000000 -3.796078 0.000000 
0.000000 -3.796078 0.000000 
0.000000 -3.796078 0.000000 
0.000000 -3.796078 0.000000 
-0.000000 -3.796078 0.000000 
0.000000 -3.796078 0.000000 
0.000000 -3.796078 0.000000 
0.000000 -3.796078 0.000000 
-0.000000 -3.796078 0.000000 
0.000000 -3.796078 0.000000 
0.000000 -3.796078 0.000000 
-0.000000 -3.796078 0.000000 
-0.000000 -3.796078 0.000000 
-0.000000 -3.796078 0.000000 
-0.000000 -3.796078 0.000000 
-0.000000 -3.796078 0.000000 
-0.000000 -3.796078 0.000000 
-0.000000 -3.796078 0.000000 
0.000000 -3.796078 0.000000 
0.000000 -3.796078 0.000000 
0.000000 -3.796078 0.000000 
0.000000 -3.796078 0.000000 
0.000000 -3.796078 0.000000 
-0.000000 -3.796078 0.000000 
0.000000 -3.796078 0.000000 
-0.000000 -3.796078 0.000000 
-0.000000 -3.796078 0.000000 
-0.000000 -3.796078 0.000000 
-0.000000 -3.796078 0.000000 
-0.000000 -3.796078 0.000000 
0.000000 -3.796078 0.000000 
-0.000000 -3.796078 0.000000 
0.000000 -3.796078 0.000000 
0.000000 -3.796078 0.000000 
-0.000000 -3.796078 0.000000 
-0.000000 -3.796078 0.000000 
-0.000000 -3.796078 0.000000 
0.000000 -3.796078 0.000000 
0.000000 -3.796078 0.000000 
0.000000 -3.796078 0.000000 
0.000000 -3.796078 0.000000 
0.000000 -3.796078 0.000000 
0.000000 -3.796078 0.000000 
0.000000 -3.796078 0.000000 
0.000000 -3.796078 0.000000 
-0.000000 -3.796078 0.000000 
-0.000000 -3.796078 0.000000 
0.000000 -3.796078 0.000000 
-0.000000 -3.796078 0.000000 
-0.000000 -3.796078 0.000000 
-0.000000 -3.796078 0.000000 
-0.000000 -3.796078 0.000000 
-0.000000 -3.796078 0.000000 
-0.000000 -3.796078 0.000000 
0.000000 -3.796078 0.000000 
0.000000 -3.796078 0.000000 
0.000000 -3.796078 0.000000 
0.000000 -3.796078 0.000000 
-0.000000 -3.796078 0.000000 
0.000000 -3.796078 0.000000 
0.000000 -3.796078 0.000000 
0.000000 -3.796078 0.000000 
-0.000000 -3.796078 0.000000 
-0.000000 -3.796078 0.000000 
-0.000000 -3.796078 0.000000 
-0.000000 -3.796078 0.000000 
-0.000000 -3.796078 0.000000 
-0.000000 -3.796078 0.000000 
-0.000000 -3.796078 0.000000 
-0.000000 -3.796078 0.000000 
0.000000 -3.796078 0.000000 
0.000000 -3.796078 0.000000 
0.000000 -3.796078 0.000000 
-0.000000 -3.796078 0.000000 
-0.000000 -3.796078 0.000000 
0.000000 -3.796078 0.000000 
-0.000000 -3.796078 0.000000 
0.000000 -3.796078 0.000000 
0.000000 -3.796078 0.000000 
0.000000 -3.796078 0.000000 
-0.000000 -3.796078 0.000000 
0.000000 -3.796078 0.000000 
0.000000 -3.796078 0.000000 
0.000000 -3.796078 0.000000 
-0.000000 -3.796078 0.000000 
0.000000 -3.796078 0.000000 
-0.000000 -3.796078 0.000000 
-0.000000 -3.796078 0.000000 
-0.000000 -3.796078 0.000000 
-0.000000 -3.796078 0.000000 
-0.000000 -3.796078 0.000000 
-0.000000 -3.796078 0.000000 
-0.000000 -3.796078 0.000000 
0.000000 -3.796078 0.000000 
-0.000000 -3.796078 0.000000 
-0.000000 -3.796078 0.000000 
-0.000000 -3.796078 0.000000 
0.000000 -3.796078 0.000000 
0.000000 -3.796078 0.000000 
-0.000000 -3.796078 0.000000 
0.000000 -3.796078 0.000000 
0.000000 -3.796078 0.000000 
-0.000000 -3.796078 0.000000 
-0.000000 -3.796078 0.000000 
-0.000000 -3.796078 0.000000 
TENSORS STRESS float 
0.000000 0.000000 0.000000 
0.000000 -0.000000 0.000000 
0.000000 0.000000 0.000000 

-0.000000 -0.000000 0.000000 
0.000000 0.000000 0.000000 
0.000000 0.000000 0.000000 

-0.000000 -0.000000 0.000000 
0.000000 -0.000000 0.000000 
0.000000 0.000000 0.000000 

0.000000 -0.000000 0.000000 
0.000000 -0.000000 0.000000 
0.000000 0.000000 0.000000 

-0.000000 -0.000000 0.000000 
0.000000 -0.000000 0.000000 
0.000000 0.000000 0.000000 

0.000000 -0.000000 0.000000 
0.000000 0.000000 0.000000 
0.000000 0.000000 0.000000 

-0.000000 0.000000 0.000000 
0.000000 -0.000000 0.000000 
0.000000 0.000000 0.000000 

0.000000 -0.000000 0.000000 
0.000000 0.000000 0.000000 
0.000000 0.000000 0.000000 

-0.000000 -0.000000 0.000000 
0.000000 -0.000000 0.000000 
0.000000 0.000000 0.000000 

-0.000000 0.000000 0.000000 
0.000000 -0.000000 0.000000 
0.000000 0.000000 0.000000 

-0.000000 -0.000000 0.000000 
0.000000 -0.000000 0.000000 
0.000000 0.000000 0.000000 

-0.000000 0.000000 0.000000 
0.000000 -0.000000 0.000000 
0.000000 0.000000 0.000000 

-0.000000 0.000000 0.000000 
0.000000 -0.000000 0.000000 
0.000000 0.000000 0.000000 

-0.000000 -0.000000 0.000000 
0.000000 0.000000 0.000000 
0.000000 0.000000 0.000000 

-0.000000 -0.000000 0.000000 
0.000000 -0.000000 0.000000 
0.000000 0.000000 0.000000 

0.000000 0.000000 0.000000 
0.000000 0.000000 0.000000 
0.000000 0.000000 0.000000 

0.000000 -0.000000 0.000000 
0.000000 0.000000 0.000000 
0.000000 0.000000 0.000000 

0.000000 -0.000000 0.000000 
0.000000 0.000000 0.000000 
0.000000 0.000000 0.000000 

-0.000000 0.000000 0.000000 
0.000000 -0.000000 0.000000 
0.000000 0.000000 0.000000 

-0.000000 -0.000000 0.000000 
0.000000 0.000000 0.000000 
0.000000 0.000000 0.000000 

0.000000 -0.000000 0.000000 
0.000000 0.000000 0.000000 
0.000000 0.000000 0.000000 

0.000000 -0.000000 0.000000 
0.000000 0.000000 0.000000 
0.000000 0.000000 0.000000 

0.000000 0.000000 0.000000 
0.000000 -0.000000 0.000000 
0.000000 0.000000 0.000000 

-0.000000 -0.000000 0.000000 
0.000000 0.000000 0.000000 
0.000000 0.000000 0.000000 

-0.000000 0.000000 0.000000 
0.000000 0.000000 0.000000 
0.000000 0.000000 0.000000 

0.000000 0.000000 0.000000 
0.000000 0.000000 0.000000 
0.000000 0.000000 0.000000 

-0.000000 0.000000 0.000000 
0.000000 0.000000 0.000000 
0.000000 0.000000 0.000000 

-0.000000 0.000000 0.000000 
0.000000 -0.000000 0.000000 
0.000000 0.000000 0.000000 

-0.000000 -0.000000 0.000000 
0.000000 -0.000000 0.000000 
0.000000 0.000000 0.000000 

0.000000 0.000000 0.000000 
0.000000 0.000000 0.000000 
0.000000 0.000000 0.000000 

-0.000000 0.000000 0.000000 
0.000000 -0.000000 0.000000 
0.000000 0.000000 0.000000 

0.000000 -0.000000 0.000000 
0.000000 -0.000000 0.000000 
0.000000 0.000000 0.000000 

-0.000000 -0.000000 0.000000 
0.000000 0.000000 0.000000 
0.000000 0.000000 0.000000 

-0.000000 -0.000000 0.000000 
0.000000 -0.000000 0.000000 
0.000000 0.000000 0.000000 

-0.000000 -0.000000 0.000000 
0.000000 -0.000000 0.000000 
0.000000 0.000000 0.000000 

0.000000 0.000000 0.000000 
0.000000 0.000000 0.000000 
0.000000 0.000000 0.000000 

0.000000 -0.000000 0.000000 
0.000000 0.000000 0.000000 
0.000000 0.000000 0.000000 

0.000000 0.000000 0.000000 
0.000000 0.000000 0.000000 
0.000000 0.000000 0.000000 

-0.000000 -0.000000 0.000000 
0.000000 -0.000000 0.000000 
0.000000 0.000000 0.000000 

0.000000 0.000000 0.000000 
0.000000 0.000000 0.000000 
0.000000 0.000000 0.000000 

-0.000000 0.000000 0.000000 
0.000000 -0.000000 0.000000 
0.000000 0.000000 0.000000 

-0.000000 0.000000 0.000000 
0.000000 0.000000 0.000000 
0.000000 0.000000 0.000000 

-0.000000 -0.000000 0.000000 
0.000000 0.000000 0.000000 
0.000000 0.000000 0.000000 

-0.000000 -0.000000 0.000000 
0.000000 -0.000000 0.000000 
0.000000 0.000000 0.000000 

-0.000000 0.000000 0.000000 
0.000000 0.000000 0.000000 
0.000000 0.000000 0.000000 

-0.000000 -0.000000 0.000000 
0.000000 -0.000000 0.000000 
0.000000 0.000000 0.000000 

-0.000000 0.000000 0.000000 
0.000000 -0.000000 0.000000 
0.000000 0.000000 0.000000 

-0.000000 0.000000 0.000000 
0.000000 -0.000000 0.000000 
0.000000 0.000000 0.000000 

0.000000 -0.000000 0.000000 
0.000000 0.000000 0.000000 
0.000000 0.000000 0.000000 

0.000000 0.000000 0.000000 
0.000000 0.000000 0.000000 
0.000000 0.000000 0.000000 

0.000000 0.000000 0.000000 
0.000000 0.000000 0.000000 
0.000000 0.000000 0.000000 

-0.000000 -0.000000 0.000000 
0.000000 -0.000000 0.000000 
0.000000 0.000000 0.000000 

-0.000000 -0.000000 0.000000 
0.000000 -0.000000 0.000000 
0.000000 0.000000 0.000000 

-0.000000 0.000000 0.000000 
0.000000 -0.000000 0.000000 
0.000000 0.000000 0.000000 

-0.000000 -0.000000 0.000000 
0.000000 -0.000000 0.000000 
0.000000 0.000000 0.000000 

-0.000000 0.000000 0.000000 
0.000000 -0.000000 0.000000 
0.000000 0.000000 0.000000 

-0.000000 0.000000 0.000000 
0.000000 0.000000 0.000000 
0.000000 0.000000 0.000000 

-0.000000 0.000000 0.000000 
0.000000 -0.000000 0.000000 
0.000000 0.000000 0.000000 

0.000000 0.000000 0.000000 
0.000000 0.000000 0.000000 
0.000000 0.000000 0.000000 

0.000000 0.000000 0.000000 
0.000000 0.000000 0.000000 
0.000000 0.000000 0.000000 

0.000000 -0.000000 0.000000 
0.000000 0.000000 0.000000 
0.000000 0.000000 0.000000 

0.000000 -0.000000 0.000000 
0.000000 0.000000 0.000000 
0.000000 0.000000 0.000000 

-0.000000 0.000000 0.000000 
0.000000 -0.000000 0.000000 
0.000000 0.000000 0.000000 

-0.000000 -0.000000 0.000000 
0.000000 -0.000000 0.000000 
0.000000 0.000000 0.000000 

-0.000000 -0.000000 0.000000 
0.000000 0.000000 0.000000 
0.000000 0.000000 0.000000 

-0.000000 -0.000000 0.000000 
0.000000 0.000000 0.000000 
0.000000 0.000000 0.000000 

-0.000000 0.000000 0.000000 
0.000000 -0.000000 0.000000 
0.000000 0.000000 0.000000 

-0.000000 -0.000000 0.000000 
0.000000 -0.000000 0.000000 
0.000000 0.000000 0.000000 

-0.000000 -0.000000 0.000000 
0.000000 -0.000000 0.000000 
0.000000 0.000000 0.000000 

0.000000 -0.000000 0.000000 
0.000000 0.000000 0.000000 
0.000000 0.000000 0.000000 

0.000000 0.000000 0.000000 
0.000000 0.000000 0.000000 
0.000000 0.000000 0.000000 

-0.000000 -0.000000 0.000000 
0.000000 -0.000000 0.000000 
0.000000 0.000000 0.000000 

-0.000000 -0.000000 0.000000 
0.000000 -0.000000 0.000000 
0.000000 0.000000 0.000000 

-0.000000 -0.000000 0.000000 
0.000000 -0.000000 0.000000 
0.000000 0.000000 0.000000 

0.000000 -0.000000 0.000000 
0.000000 0.000000 0.000000 
0.000000 0.000000 0.000000 

0.000000 0.000000 0.000000 
0.000000 0.000000 0.000000 
0.000000 0.000000 0.000000 

-0.000000 -0.000000 0.000000 
0.000000 -0.000000 0.000000 
0.000000 0.000000 0.000000 

0.000000 -0.000000 0.000000 
0.000000 0.000000 0.000000 
0.000000 0.000000 0.000000 

0.000000 -0.000000 0.000000 
0.000000 0.000000 0.000000 
0.000000 0.000000 0.000000 

-0.000000 -0.000000 0.000000 
0.000000 -0.000000 0.000000 
0.000000 0.000000 0.000000 

0.000000 0.000000 0.000000 
0.000000 0.000000 0.000000 
0.000000 0.000000 0.000000 

-0.000000 -0.000000 0.000000 
0.000000 -0.000000 0.000000 
0.000000 0.000000 0.000000 

0.000000 0.000000 0.000000 
0.000000 0.000000 0.000000 
0.000000 0.000000 0.000000 

-0.000000 -0.000000 0.000000 
0.000000 -0.000000 0.000000 
0.000000 0.000000 0.000000 

-0.000000 -0.000000 0.000000 
0.000000 0.000000 0.000000 
0.000000 0.000000 0.000000 

-0.000000 0.000000 0.000000 
0.000000 -0.000000 0.000000 
0.000000 0.000000 0.000000 

-0.000000 -0.000000 0.000000 
0.000000 -0.000000 0.000000 
0.000000 0.000000 0.000000 

-0.000000 -0.000000 0.000000 
0.000000 -0.000000 0.000000 
0.000000 0.000000 0.000000 

-0.000000 0.000000 0.000000 
0.000000 -0.000000 0.000000 
0.000000 0.000000 0.000000 

0.000000 -0.000000 0.000000 
0.000000 0.000000 0.000000 
0.000000 0.000000 0.000000 

0.000000 0.000000 0.000000 
0.000000 0.000000 0.000000 
0.000000 0.000000 0.000000 

-0.000000 -0.000000 0.000000 
0.000000 -0.000000 0.000000 
0.000000 0.000000 0.000000 

-0.000000 -0.000000 0.000000 
0.000000 -0.000000 0.000000 
0.000000 0.000000 0.000000 

-0.000000 0.000000 0.000000 
0.000000 0.000000 0.000000 
0.000000 0.000000 0.000000 

-0.000000 0.000000 0.000000 
0.000000 0.000000 0.000000 
0.000000 0.000000 0.000000 

-0.000000 -0.000000 0.000000 
0.000000 -0.000000 0.000000 
0.000000 0.000000 0.000000 

-0.000000 0.000000 0.000000 
0.000000 -0.000000 0.000000 
0.000000 0.000000 0.000000 

-0.000000 -0.000000 0.000000 
0.000000 -0.000000 0.000000 
0.000000 0.000000 0.000000 

-0.000000 -0.000000 0.000000 
0.000000 -0.000000 0.000000 
0.000000 0.000000 0.000000 

-0.000000 0.000000 0.000000 
0.000000 -0.000000 0.000000 
0.000000 0.000000 0.000000 

-0.000000 -0.000000 0.000000 
0.000000 -0.000000 0.000000 
0.000000 0.000000 0.000000 

0.000000 0.000000 0.000000 
0.000000 0.000000 0.000000 
0.000000 0.000000 0.000000 

0.000000 0.000000 0.000000 
0.000000 -0.000000 0.000000 
0.000000 0.000000 0.000000 

0.000000 0.000000 0.000000 
0.000000 0.000000 0.000000 
0.000000 0.000000 0.000000 

-0.000000 -0.000000 0.000000 
0.000000 -0.000000 0.000000 
0.000000 0.000000 0.000000 

0.000000 0.000000 0.000000 
0.000000 0.000000 0.000000 
0.000000 0.000000 0.000000 

-0.000000 -0.000000 0.000000 
0.000000 -0.000000 0.000000 
0.000000 0.000000 0.000000 

-0.000000 -0.000000 0.000000 
0.000000 -0.000000 0.000000 
0.000000 0.000000 0.000000 

0.000000 -0.000000 0.000000 
0.000000 0.000000 0.000000 
0.000000 0.000000 0.000000 

0.000000 -0.000000 0.000000 
0.000000 -0.000000 0.000000 
0.000000 0.000000 0.000000 

0.000000 -0.000000 0.000000 
0.000000 -0.000000 0.000000 
0.000000 0.000000 0.000000 

0.000000 0.000000 0.000000 
0.000000 -0.000000 0.000000 
0.000000 0.000000 0.000000 

-0.000000 0.000000 0.000000 
0.000000 -0.000000 0.000000 
0.000000 0.000000 0.000000 

-0.000000 -0.000000 0.000000 
0.000000 -0.000000 0.000000 
0.000000 0.000000 0.000000 

0.000000 0.000000 0.000000 
0.000000 0.000000 0.000000 
0.000000 0.000000 0.000000 

-0.000000 -0.000000 0.000000 
0.000000 0.000000 0.000000 
0.000000 0.000000 0.000000 

-0.000000 0.000000 0.000000 
0.000000 -0.000000 0.000000 
0.000000 0.000000 0.000000 

0.000000 0.000000 0.000000 
0.000000 0.000000 0.000000 
0.000000 0.000000 0.000000 

0.000000 -0.000000 0.000000 
0.000000 0.000000 0.000000 
0.000000 0.000000 0.000000 

-0.000000 -0.000000 0.000000 
0.000000 -0.000000 0.000000 
0.000000 0.000000 0.000000 

0.000000 0.000000 0.000000 
0.000000 0.000000 0.000000 
0.000000 0.000000 0.000000 

0.000000 -0.000000 0.000000 
0.000000 0.000000 0.000000 
0.000000 0.000000 0.000000 

-0.000000 -0.000000 0.000000 
0.000000 -0.000000 0.000000 
0.000000 0.000000 0.000000 

0.000000 -0.000000 0.000000 
0.000000 0.000000 0.000000 
0.000000 0.000000 0.000000 

-0.000000 -0.000000 0.000000 
0.000000 -0.000000 0.000000 
0.000000 0.000000 0.000000 

-0.000000 -0.000000 0.000000 
0.000000 -0.000000 0.000000 
0.000000 0.000000 0.000000 

-0.000000 -0.000000 0.000000 
0.000000 -0.000000 0.000000 
0.000000 0.000000 0.000000 

-0.000000 -0.000000 0.000000 
0.000000 -0.000000 0.000000 
0.000000 0.000000 0.000000 

-0.000000 0.000000 0.000000 
0.000000 0.000000 0.000000 
0.000000 0.000000 0.000000 

0.000000 0.000000 0.000000 
0.000000 -0.000000 0.000000 
0.000000 0.000000 0.000000 

0.000000 -0.000000 0.000000 
0.000000 0.000000 0.000000 
0.000000 0.000000 0.000000 

-0.000000 0.000000 0.000000 
0.000000 -0.000000 0.000000 
0.000000 0.000000 0.000000 

-0.000000 -0.000000 0.000000 
0.000000 -0.000000 0.000000 
0.000000 0.000000 0.000000 

-0.000000 0.000000 0.000000 
0.000000 -0.000000 0.000000 
0.000000 0.000000 0.000000 

0.000000 0.000000 0.000000 
0.000000 -0.000000 0.000000 
0.000000 0.000000 0.000000 

0.000000 0.000000 0.000000 
0.000000 0.000000 0.000000 
0.000000 0.000000 0.000000 

0.000000 0.000000 0.000000 
0.000000 -0.000000 0.000000 
0.000000 0.000000 0.000000 

0.000000 0.000000 0.000000 
0.000000 0.000000 0.000000 
0.000000 0.000000 0.000000 

-0.000000 0.000000 0.000000 
0.000000 -0.000000 0.000000 
0.000000 0.000000 0.000000 

-0.000000 0.000000 0.000000 
0.000000 -0.000000 0.000000 
0.000000 0.000000 0.000000 

0.000000 -0.000000 0.000000 
0.000000 0.000000 0.000000 
0.000000 0.000000 0.000000 

0.000000 0.000000 0.000000 
0.000000 -0.000000 0.000000 
0.000000 0.000000 0.000000 

0.000000 0.000000 0.000000 
0.000000 0.000000 0.000000 
0.000000 0.000000 0.000000 

-0.000000 -0.000000 0.000000 
0.000000 0.000000 0.000000 
0.000000 0.000000 0.000000 

0.000000 -0.000000 0.000000 
0.000000 0.000000 0.000000 
0.000000 0.000000 0.000000 

-0.000000 0.000000 0.000000 
0.000000 -0.000000 0.000000 
0.000000 0.000000 0.000000 

0.000000 -0.000000 0.000000 
0.000000 -0.000000 0.000000 
0.000000 0.000000 0.000000 

0.000000 -0.000000 0.000000 
0.000000 0.000000 0.000000 
0.000000 0.000000 0.000000 

0.000000 -0.000000 0.000000 
0.000000 0.000000 0.000000 
0.000000 0.000000 0.000000 

-0.000000 -0.000000 0.000000 
0.000000 -0.000000 0.000000 
0.000000 0.000000 0.000000 

0.000000 0.000000 0.000000 
0.000000 0.000000 0.000000 
0.000000 0.000000 0.000000 

0.000000 0.000000 0.000000 
0.000000 0.000000 0.000000 
0.000000 0.000000 0.000000 

-0.000000 0.000000 0.000000 
0.000000 -0.000000 0.000000 
0.000000 0.000000 0.000000 

-0.000000 -0.000000 0.000000 
0.000000 -0.000000 0.000000 
0.000000 0.000000 0.000000 

0.000000 -0.000000 0.000000 
0.000000 0.000000 0.000000 
0.000000 0.000000 0.000000 

-0.000000 -0.000000 0.000000 
0.000000 -0.000000 0.000000 
0.000000 0.000000 0.000000 

-0.000000 0.000000 0.000000 
0.000000 -0.000000 0.000000 
0.000000 0.000000 0.000000 

-0.000000 0.000000 0.000000 
0.000000 -0.000000 0.000000 
0.000000 0.000000 0.000000 

0.000000 0.000000 0.000000 
0.000000 0.000000 0.000000 
0.000000 0.000000 0.000000 

0.000000 0.000000 0.000000 
0.000000 0.000000 0.000000 
0.000000 0.000000 0.000000 

0.000000 -0.000000 0.000000 
0.000000 0.000000 0.000000 
0.000000 0.000000 0.000000 

0.000000 -0.000000 0.000000 
0.000000 0.000000 0.000000 
0.000000 0.000000 0.000000 

0.000000 -0.000000 0.000000 
0.000000 0.000000 0.000000 
0.000000 0.000000 0.000000 

-0.000000 0.000000 0.000000 
0.000000 -0.000000 0.000000 
0.000000 0.000000 0.000000 

0.000000 -0.000000 0.000000 
0.000000 0.000000 0.000000 
0.000000 0.000000 0.000000 

0.000000 -0.000000 0.000000 
0.000000 -0.000000 0.000000 
0.000000 0.000000 0.000000 

-0.000000 0.000000 0.000000 
0.000000 -0.000000 0.000000 
0.000000 0.000000 0.000000 

-0.000000 -0.000000 0.000000 
0.000000 -0.000000 0.000000 
0.000000 0.000000 0.000000 

-0.000000 0.000000 0.000000 
0.000000 0.000000 0.000000 
0.000000 0.000000 0.000000 

-0.000000 0.000000 0.000000 
0.000000 -0.000000 0.000000 
0.000000 0.000000 0.000000 

0.000000 -0.000000 0.000000 
0.000000 0.000000 0.000000 
0.000000 0.000000 0.000000 

0.000000 -0.000000 0.000000 
0.000000 0.000000 0.000000 
0.000000 0.000000 0.000000 

-0.000000 0.000000 0.000000 
0.000000 -0.000000 0.000000 
0.000000 0.000000 0.000000 

0.000000 0.000000 0.000000 
0.000000 -0.000000 0.000000 
0.000000 0.000000 0.000000 

0.000000 -0.000000 0.000000 
0.000000 0.000000 0.000000 
0.000000 0.000000 0.000000 

TENSORS STRAIN float 
0.000000 0.000000 0.000000 
0.000000 -0.000000 0.000000 
0.000000 0.000000 0.000000 

-0.000000 -0.000000 0.000000 
0.000000 0.000000 0.000000 
0.000000 0.000000 0.000000 

0.000000 -0.000000 0.000000 
0.000000 -0.000000 0.000000 
0.000000 0.000000 0.000000 

0.000000 -0.000000 0.000000 
0.000000 -0.000000 0.000000 
0.000000 0.000000 0.000000 

-0.000000 -0.000000 0.000000 
0.000000 -0.000000 0.000000 
0.000000 0.000000 0.000000 

-0.000000 -0.000000 0.000000 
0.000000 0.000000 0.000000 
0.000000 0.000000 0.000000 

-0.000000 0.000000 0.000000 
0.000000 -0.000000 0.000000 
0.000000 0.000000 0.000000 

0.000000 -0.000000 0.000000 
0.000000 0.000000 0.000000 
0.000000 0.000000 0.000000 

0.000000 -0.000000 0.000000 
0.000000 -0.000000 0.000000 
0.000000 0.000000 0.000000 

-0.000000 0.000000 0.000000 
0.000000 -0.000000 0.000000 
0.000000 0.000000 0.000000 

-0.000000 -0.000000 0.000000 
0.000000 -0.000000 0.000000 
0.000000 0.000000 0.000000 

-0.000000 0.000000 0.000000 
0.000000 -0.000000 0.000000 
0.000000 0.000000 0.000000 

-0.000000 0.000000 0.000000 
0.000000 -0.000000 0.000000 
0.000000 0.000000 0.000000 

-0.000000 -0.000000 0.000000 
0.000000 0.000000 0.000000 
0.000000 0.000000 0.000000 

0.000000 -0.000000 0.000000 
0.000000 -0.000000 0.000000 
0.000000 0.000000 0.000000 

-0.000000 0.000000 0.000000 
0.000000 0.000000 0.000000 
0.000000 0.000000 0.000000 

0.000000 -0.000000 0.000000 
0.000000 0.000000 0.000000 
0.000000 0.000000 0.000000 

0.000000 -0.000000 0.000000 
0.000000 0.000000 0.000000 
0.000000 0.000000 0.000000 

-0.000000 0.000000 0.000000 
0.000000 0.000000 0.000000 
0.000000 0.000000 0.000000 

-0.000000 -0.000000 0.000000 
0.000000 0.000000 0.000000 
0.000000 0.000000 0.000000 

0.000000 -0.000000 0.000000 
0.000000 0.000000 0.000000 
0.000000 0.000000 0.000000 

0.000000 -0.000000 0.000000 
0.000000 0.000000 0.000000 
0.000000 0.000000 0.000000 

0.000000 0.000000 0.000000 
0.000000 -0.000000 0.000000 
0.000000 0.000000 0.000000 

-0.000000 -0.000000 0.000000 
0.000000 0.000000 0.000000 
0.000000 0.000000 0.000000 

-0.000000 0.000000 0.000000 
0.000000 0.000000 0.000000 
0.000000 0.000000 0.000000 

0.000000 0.000000 0.000000 
0.000000 -0.000000 0.000000 
0.000000 0.000000 0.000000 

-0.000000 0.000000 0.000000 
0.000000 0.000000 0.000000 
0.000000 0.000000 0.000000 

-0.000000 0.000000 0.000000 
0.000000 0.000000 0.000000 
0.000000 0.000000 0.000000 

-0.000000 -0.000000 0.000000 
0.000000 -0.000000 0.000000 
0.000000 0.000000 0.000000 

0.000000 0.000000 0.000000 
0.000000 0.000000 0.000000 
0.000000 0.000000 0.000000 

-0.000000 0.000000 0.000000 
0.000000 0.000000 0.000000 
0.000000 0.000000 0.000000 

0.000000 -0.000000 0.000000 
0.000000 -0.000000 0.000000 
0.000000 0.000000 0.000000 

-0.000000 -0.000000 0.000000 
0.000000 0.000000 0.000000 
0.000000 0.000000 0.000000 

-0.000000 -0.000000 0.000000 
0.000000 0.000000 0.000000 
0.000000 0.000000 0.000000 

0.000000 -0.000000 0.000000 
0.000000 -0.000000 0.000000 
0.000000 0.000000 0.000000 

0.000000 0.000000 0.000000 
0.000000 0.000000 0.000000 
0.000000 0.000000 0.000000 

0.000000 -0.000000 0.000000 
0.000000 -0.000000 0.000000 
0.000000 0.000000 0.000000 

0.000000 0.000000 0.000000 
0.000000 0.000000 0.000000 
0.000000 0.000000 0.000000 

0.000000 -0.000000 0.000000 
0.000000 -0.000000 0.000000 
0.000000 0.000000 0.000000 

0.000000 0.000000 0.000000 
0.000000 0.000000 0.000000 
0.000000 0.000000 0.000000 

-0.000000 0.000000 0.000000 
0.000000 0.000000 0.000000 
0.000000 0.000000 0.000000 

-0.000000 0.000000 0.000000 
0.000000 0.000000 0.000000 
0.000000 0.000000 0.000000 

-0.000000 -0.000000 0.000000 
0.000000 0.000000 0.000000 
0.000000 0.000000 0.000000 

-0.000000 -0.000000 0.000000 
0.000000 0.000000 0.000000 
0.000000 0.000000 0.000000 

-0.000000 0.000000 0.000000 
0.000000 0.000000 0.000000 
0.000000 0.000000 0.000000 

0.000000 -0.000000 0.000000 
0.000000 -0.000000 0.000000 
0.000000 0.000000 0.000000 

0.000000 0.000000 0.000000 
0.000000 -0.000000 0.000000 
0.000000 0.000000 0.000000 

0.000000 0.000000 0.000000 
0.000000 -0.000000 0.000000 
0.000000 0.000000 0.000000 

0.000000 -0.000000 0.000000 
0.000000 0.000000 0.000000 
0.000000 0.000000 0.000000 

-0.000000 0.000000 0.000000 
0.000000 0.000000 0.000000 
0.000000 0.000000 0.000000 

-0.000000 0.000000 0.000000 
0.000000 0.000000 0.000000 
0.000000 0.000000 0.000000 

-0.000000 -0.000000 0.000000 
0.000000 -0.000000 0.000000 
0.000000 0.000000 0.000000 

-0.000000 -0.000000 0.000000 
0.000000 -0.000000 0.000000 
0.000000 0.000000 0.000000 

-0.000000 0.000000 0.000000 
0.000000 -0.000000 0.000000 
0.000000 0.000000 0.000000 

-0.000000 -0.000000 0.000000 
0.000000 -0.000000 0.000000 
0.000000 0.000000 0.000000 

-0.000000 0.000000 0.000000 
0.000000 -0.000000 0.000000 
0.000000 0.000000 0.000000 

-0.000000 0.000000 0.000000 
0.000000 0.000000 0.000000 
0.000000 0.000000 0.000000 

-0.000000 0.000000 0.000000 
0.000000 -0.000000 0.000000 
0.000000 0.000000 0.000000 

-0.000000 0.000000 0.000000 
0.000000 0.000000 0.000000 
0.000000 0.000000 0.000000 

-0.000000 0.000000 0.000000 
0.000000 0.000000 0.000000 
0.000000 0.000000 0.000000 

-0.000000 -0.000000 0.000000 
0.000000 0.000000 0.000000 
0.000000 0.000000 0.000000 

-0.000000 -0.000000 0.000000 
0.000000 0.000000 0.000000 
0.000000 0.000000 0.000000 

-0.000000 0.000000 0.000000 
0.000000 -0.000000 0.000000 
0.000000 0.000000 0.000000 

-0.000000 -0.000000 0.000000 
0.000000 -0.000000 0.000000 
0.000000 0.000000 0.000000 

-0.000000 -0.000000 0.000000 
0.000000 0.000000 0.000000 
0.000000 0.000000 0.000000 

-0.000000 -0.000000 0.000000 
0.000000 0.000000 0.000000 
0.000000 0.000000 0.000000 

0.000000 0.000000 0.000000 
0.000000 -0.000000 0.000000 
0.000000 0.000000 0.000000 

0.000000 -0.000000 0.000000 
0.000000 -0.000000 0.000000 
0.000000 0.000000 0.000000 

0.000000 -0.000000 0.000000 
0.000000 -0.000000 0.000000 
0.000000 0.000000 0.000000 

0.000000 -0.000000 0.000000 
0.000000 0.000000 0.000000 
0.000000 0.000000 0.000000 

0.000000 0.000000 0.000000 
0.000000 0.000000 0.000000 
0.000000 0.000000 0.000000 

-0.000000 -0.000000 0.000000 
0.000000 -0.000000 0.000000 
0.000000 0.000000 0.000000 

-0.000000 -0.000000 0.000000 
0.000000 -0.000000 0.000000 
0.000000 0.000000 0.000000 

-0.000000 -0.000000 0.000000 
0.000000 -0.000000 0.000000 
0.000000 0.000000 0.000000 

-0.000000 -0.000000 0.000000 
0.000000 0.000000 0.000000 
0.000000 0.000000 0.000000 

0.000000 0.000000 0.000000 
0.000000 0.000000 0.000000 
0.000000 0.000000 0.000000 

0.000000 -0.000000 0.000000 
0.000000 -0.000000 0.000000 
0.000000 0.000000 0.000000 

0.000000 -0.000000 0.000000 
0.000000 0.000000 0.000000 
0.000000 0.000000 0.000000 

0.000000 -0.000000 0.000000 
0.000000 0.000000 0.000000 
0.000000 0.000000 0.000000 

-0.000000 -0.000000 0.000000 
0.000000 -0.000000 0.000000 
0.000000 0.000000 0.000000 

-0.000000 0.000000 0.000000 
0.000000 0.000000 0.000000 
0.000000 0.000000 0.000000 

-0.000000 -0.000000 0.000000 
0.000000 -0.000000 0.000000 
0.000000 0.000000 0.000000 

-0.000000 0.000000 0.000000 
0.000000 0.000000 0.000000 
0.000000 0.000000 0.000000 

-0.000000 -0.000000 0.000000 
0.000000 -0.000000 0.000000 
0.000000 0.000000 0.000000 

-0.000000 -0.000000 0.000000 
0.000000 0.000000 0.000000 
0.000000 0.000000 0.000000 

-0.000000 0.000000 0.000000 
0.000000 0.000000 0.000000 
0.000000 0.000000 0.000000 

-0.000000 -0.000000 0.000000 
0.000000 0.000000 0.000000 
0.000000 0.000000 0.000000 

-0.000000 -0.000000 0.000000 
0.000000 0.000000 0.000000 
0.000000 0.000000 0.000000 

-0.000000 0.000000 0.000000 
0.000000 -0.000000 0.000000 
0.000000 0.000000 0.000000 

-0.000000 -0.000000 0.000000 
0.000000 0.000000 0.000000 
0.000000 0.000000 0.000000 

0.000000 0.000000 0.000000 
0.000000 0.000000 0.000000 
0.000000 0.000000 0.000000 

-0.000000 -0.000000 0.000000 
0.000000 -0.000000 0.000000 
0.000000 0.000000 0.000000 

-0.000000 -0.000000 0.000000 
0.000000 -0.000000 0.000000 
0.000000 0.000000 0.000000 

-0.000000 0.000000 0.000000 
0.000000 0.000000 0.000000 
0.000000 0.000000 0.000000 

-0.000000 0.000000 0.000000 
0.000000 0.000000 0.000000 
0.000000 0.000000 0.000000 

-0.000000 -0.000000 0.000000 
0.000000 -0.000000 0.000000 
0.000000 0.000000 0.000000 

-0.000000 0.000000 0.000000 
0.000000 -0.000000 0.000000 
0.000000 0.000000 0.000000 

-0.000000 -0.000000 0.000000 
0.000000 -0.000000 0.000000 
0.000000 0.000000 0.000000 

0.000000 -0.000000 0.000000 
0.000000 -0.000000 0.000000 
0.000000 0.000000 0.000000 

0.000000 0.000000 0.000000 
0.000000 -0.000000 0.000000 
0.000000 0.000000 0.000000 

-0.000000 -0.000000 0.000000 
0.000000 -0.000000 0.000000 
0.000000 0.000000 0.000000 

0.000000 0.000000 0.000000 
0.000000 0.000000 0.000000 
0.000000 0.000000 0.000000 

0.000000 0.000000 0.000000 
0.000000 -0.000000 0.000000 
0.000000 0.000000 0.000000 

0.000000 0.000000 0.000000 
0.000000 0.000000 0.000000 
0.000000 0.000000 0.000000 

0.000000 -0.000000 0.000000 
0.000000 -0.000000 0.000000 
0.000000 0.000000 0.000000 

0.000000 0.000000 0.000000 
0.000000 0.000000 0.000000 
0.000000 0.000000 0.000000 

-0.000000 -0.000000 0.000000 
0.000000 -0.000000 0.000000 
0.000000 0.000000 0.000000 

-0.000000 -0.000000 0.000000 
0.000000 -0.000000 0.000000 
0.000000 0.000000 0.000000 

0.000000 -0.000000 0.000000 
0.000000 0.000000 0.000000 
0.000000 0.000000 0.000000 

0.000000 -0.000000 0.000000 
0.000000 -0.000000 0.000000 
0.000000 0.000000 0.000000 

0.000000 -0.000000 0.000000 
0.000000 -0.000000 0.000000 
0.000000 0.000000 0.000000 

0.000000 0.000000 0.000000 
0.000000 -0.000000 0.000000 
0.000000 0.000000 0.000000 

0.000000 0.000000 0.000000 
0.000000 -0.000000 0.000000 
0.000000 0.000000 0.000000 

0.000000 -0.000000 0.000000 
0.000000 -0.000000 0.000000 
0.000000 0.000000 0.000000 

-0.000000 0.000000 0.000000 
0.000000 0.000000 0.000000 
0.000000 0.000000 0.000000 

-0.000000 -0.000000 0.000000 
0.000000 0.000000 0.000000 
0.000000 0.000000 0.000000 

-0.000000 0.000000 0.000000 
0.000000 -0.000000 0.000000 
0.000000 0.000000 0.000000 

-0.000000 0.000000 0.000000 
0.000000 0.000000 0.000000 
0.000000 0.000000 0.000000 

-0.000000 -0.000000 0.000000 
0.000000 0.000000 0.000000 
0.000000 0.000000 0.000000 

0.000000 -0.000000 0.000000 
0.000000 -0.000000 0.000000 
0.000000 0.000000 0.000000 

0.000000 0.000000 0.000000 
0.000000 0.000000 0.000000 
0.000000 0.000000 0.000000 

0.000000 -0.000000 0.000000 
0.000000 0.000000 0.000000 
0.000000 0.000000 0.000000 

0.000000 -0.000000 0.000000 
0.000000 -0.000000 0.000000 
0.000000 0.000000 0.000000 

0.000000 -0.000000 0.000000 
0.000000 0.000000 0.000000 
0.000000 0.000000 0.000000 

-0.000000 -0.000000 0.000000 
0.000000 0.000000 0.000000 
0.000000 0.000000 0.000000 

0.000000 -0.000000 0.000000 
0.000000 -0.000000 0.000000 
0.000000 0.000000 0.000000 

-0.000000 -0.000000 0.000000 
0.000000 -0.000000 0.000000 
0.000000 0.000000 0.000000 

-0.000000 -0.000000 0.000000 
0.000000 -0.000000 0.000000 
0.000000 0.000000 0.000000 

-0.000000 0.000000 0.000000 
0.000000 0.000000 0.000000 
0.000000 0.000000 0.000000 

0.000000 0.000000 0.000000 
0.000000 -0.000000 0.000000 
0.000000 0.000000 0.000000 

-0.000000 -0.000000 0.000000 
0.000000 0.000000 0.000000 
0.000000 0.000000 0.000000 

-0.000000 0.000000 0.000000 
0.000000 -0.000000 0.000000 
0.000000 0.000000 0.000000 

-0.000000 -0.000000 0.000000 
0.000000 -0.000000 0.000000 
0.000000 0.000000 0.000000 

0.000000 0.000000 0.000000 
0.000000 -0.000000 0.000000 
0.000000 0.000000 0.000000 

0.000000 0.000000 0.000000 
0.000000 -0.000000 0.000000 
0.000000 0.000000 0.000000 

0.000000 0.000000 0.000000 
0.000000 0.000000 0.000000 
0.000000 0.000000 0.000000 

0.000000 0.000000 0.000000 
0.000000 -0.000000 0.000000 
0.000000 0.000000 0.000000 

-0.000000 0.000000 0.000000 
0.000000 0.000000 0.000000 
0.000000 0.000000 0.000000 

-0.000000 0.000000 0.000000 
0.000000 -0.000000 0.000000 
0.000000 0.000000 0.000000 

-0.000000 0.000000 0.000000 
0.000000 -0.000000 0.000000 
0.000000 0.000000 0.000000 

0.000000 -0.000000 0.000000 
0.000000 0.000000 0.000000 
0.000000 0.000000 0.000000 

0.000000 0.000000 0.000000 
0.000000 -0.000000 0.000000 
0.000000 0.000000 0.000000 

0.000000 0.000000 0.000000 
0.000000 0.000000 0.000000 
0.000000 0.000000 0.000000 

-0.000000 -0.000000 0.000000 
0.000000 0.000000 0.000000 
0.000000 0.000000 0.000000 

0.000000 -0.000000 0.000000 
0.000000 0.000000 0.000000 
0.000000 0.000000 0.000000 

0.000000 0.000000 0.000000 
0.000000 -0.000000 0.000000 
0.000000 0.000000 0.000000 

0.000000 -0.000000 0.000000 
0.000000 -0.000000 0.000000 
0.000000 0.000000 0.000000 

0.000000 -0.000000 0.000000 
0.000000 0.000000 0.000000 
0.000000 0.000000 0.000000 

0.000000 -0.000000 0.000000 
0.000000 0.000000 0.000000 
0.000000 0.000000 0.000000 

-0.000000 -0.000000 0.000000 
0.000000 0.000000 0.000000 
0.000000 0.000000 0.000000 

0.000000 0.000000 0.000000 
0.000000 0.000000 0.000000 
0.000000 0.000000 0.000000 

0.000000 0.000000 0.000000 
0.000000 0.000000 0.000000 
0.000000 0.000000 0.000000 

0.000000 0.000000 0.000000 
0.000000 -0.000000 0.000000 
0.000000 0.000000 0.000000 

0.000000 -0.000000 0.000000 
0.000000 -0.000000 0.000000 
0.000000 0.000000 0.000000 

0.000000 -0.000000 0.000000 
0.000000 0.000000 0.000000 
0.000000 0.000000 0.000000 

0.000000 -0.000000 0.000000 
0.000000 -0.000000 0.000000 
0.000000 0.000000 0.000000 

0.000000 0.000000 0.000000 
0.000000 -0.000000 0.000000 
0.000000 0.000000 0.000000 

0.000000 0.000000 0.000000 
0.000000 -0.000000 0.000000 
0.000000 0.000000 0.000000 

0.000000 0.000000 0.000000 
0.000000 0.000000 0.000000 
0.000000 0.000000 0.000000 

-0.000000 0.000000 0.000000 
0.000000 0.000000 0.000000 
0.000000 0.000000 0.000000 

0.000000 -0.000000 0.000000 
0.000000 0.000000 0.000000 
0.000000 0.000000 0.000000 

-0.000000 -0.000000 0.000000 
0.000000 0.000000 0.000000 
0.000000 0.000000 0.000000 

-0.000000 -0.000000 0.000000 
0.000000 0.000000 0.000000 
0.000000 0.000000 0.000000 

0.000000 0.000000 0.000000 
0.000000 -0.000000 0.000000 
0.000000 0.000000 0.000000 

0.000000 -0.000000 0.000000 
0.000000 0.000000 0.000000 
0.000000 0.000000 0.000000 

0.000000 -0.000000 0.000000 
0.000000 -0.000000 0.000000 
0.000000 0.000000 0.000000 

-0.000000 0.000000 0.000000 
0.000000 -0.000000 0.000000 
0.000000 0.000000 0.000000 

-0.000000 -0.000000 0.000000 
0.000000 0.000000 0.000000 
0.000000 0.000000 0.000000 

-0.000000 0.000000 0.000000 
0.000000 0.000000 0.000000 
0.000000 0.000000 0.000000 

-0.000000 0.000000 0.000000 
0.000000 -0.000000 0.000000 
0.000000 0.000000 0.000000 

-0.000000 -0.000000 0.000000 
0.000000 0.000000 0.000000 
0.000000 0.000000 0.000000 

-0.000000 -0.000000 0.000000 
0.000000 0.000000 0.000000 
0.000000 0.000000 0.000000 

-0.000000 0.000000 0.000000 
0.000000 -0.000000 0.000000 
0.000000 0.000000 0.000000 

0.000000 0.000000 0.000000 
0.000000 -0.000000 0.000000 
0.000000 0.000000 0.000000 

0.000000 -0.000000 0.000000 
0.000000 0.000000 0.000000 
0.000000 0.000000 0.000000 

