# vtk DataFile Version 3.0 
vtk output 
ASCII 
DATASET UNSTRUCTURED_GRID 
POINTS 175 float 
-0.026061 -0.028116 0.000000 
-0.106992 0.039939 0.000000 
-0.054870 0.031706 0.000000 
-0.028809 0.077590 0.000000 
-0.186430 0.104015 0.000000 
-0.137056 0.101488 0.000000 
-0.114311 0.155136 0.000000 
-0.058186 0.139470 0.000000 
-0.029377 0.179647 0.000000 
-0.265318 0.167170 0.000000 
-0.217198 0.166371 0.000000 
-0.196633 0.223667 0.000000 
-0.143120 0.214959 0.000000 
-0.116563 0.262227 0.000000 
-0.058945 0.242581 0.000000 
-0.029568 0.280701 0.000000 
-0.344206 0.230326 0.000000 
-0.296791 0.230333 0.000000 
-0.278030 0.290276 0.000000 
-0.225992 0.284410 0.000000 
-0.201664 0.336527 0.000000 
-0.145749 0.323053 0.000000 
-0.117890 0.367396 0.000000 
-0.059328 0.344690 0.000000 
-0.029759 0.381756 0.000000 
-0.058559 -0.068867 0.000000 
-0.162226 -0.089710 0.000000 
-0.123292 -0.054092 0.000000 
-0.142917 -0.005109 0.000000 
-0.261851 -0.111866 0.000000 
-0.229092 -0.074839 0.000000 
-0.256854 -0.023608 0.000000 
-0.209613 0.010505 0.000000 
-0.223062 0.058079 0.000000 
-0.360414 -0.134166 0.000000 
-0.329787 -0.097043 0.000000 
-0.361761 -0.045241 0.000000 
-0.321587 -0.008832 0.000000 
-0.341985 0.041402 0.000000 
-0.290702 0.074201 0.000000 
-0.302189 0.120936 0.000000 
-0.458977 -0.156466 0.000000 
-0.429420 -0.119392 0.000000 
-0.464588 -0.067350 0.000000 
-0.427556 -0.030322 0.000000 
-0.453135 0.021192 0.000000 
-0.407738 0.056508 0.000000 
-0.425037 0.105936 0.000000 
-0.370772 0.137565 0.000000 
-0.381315 0.183792 0.000000 
-0.046960 -0.119682 0.000000 
-0.095301 -0.213728 0.000000 
-0.098873 -0.161081 0.000000 
-0.149405 -0.145883 0.000000 
-0.140093 -0.305432 0.000000 
-0.148617 -0.256734 0.000000 
-0.205981 -0.246497 0.000000 
-0.203197 -0.188293 0.000000 
-0.248777 -0.169147 0.000000 
-0.184111 -0.396396 0.000000 
-0.194039 -0.349305 0.000000 
-0.254475 -0.342005 0.000000 
-0.257893 -0.287895 0.000000 
-0.309886 -0.272523 0.000000 
-0.303554 -0.211978 0.000000 
-0.347255 -0.191820 0.000000 
-0.228129 -0.487359 0.000000 
-0.238687 -0.441135 0.000000 
-0.301302 -0.436183 0.000000 
-0.307162 -0.384144 0.000000 
-0.363386 -0.372023 0.000000 
-0.362692 -0.314512 0.000000 
-0.412122 -0.297219 0.000000 
-0.403017 -0.235072 0.000000 
-0.445733 -0.214493 0.000000 
-0.000000 -0.142297 0.000000 
0.043388 -0.238728 0.000000 
-0.000000 -0.208696 0.000000 
-0.043388 -0.238728 0.000000 
0.087158 -0.330925 0.000000 
0.043769 -0.307226 0.000000 
-0.000000 -0.345692 0.000000 
-0.043769 -0.307226 0.000000 
-0.087158 -0.330925 0.000000 
0.130831 -0.422054 0.000000 
0.087824 -0.400455 0.000000 
0.044436 -0.443155 0.000000 
-0.000000 -0.412090 0.000000 
-0.044436 -0.443155 0.000000 
-0.087824 -0.400455 0.000000 
-0.130831 -0.422054 0.000000 
0.174505 -0.513184 0.000000 
0.131782 -0.492618 0.000000 
0.088871 -0.538484 0.000000 
0.044532 -0.510620 0.000000 
-0.000000 -0.547021 0.000000 
-0.044532 -0.510620 0.000000 
-0.088871 -0.538484 0.000000 
-0.131782 -0.492618 0.000000 
-0.174505 -0.513184 0.000000 
0.046960 -0.119682 0.000000 
0.149405 -0.145883 0.000000 
0.098873 -0.161081 0.000000 
0.095301 -0.213728 0.000000 
0.248777 -0.169147 0.000000 
0.203197 -0.188293 0.000000 
0.205981 -0.246497 0.000000 
0.148617 -0.256734 0.000000 
0.140093 -0.305432 0.000000 
0.347255 -0.191820 0.000000 
0.303554 -0.211978 0.000000 
0.309886 -0.272523 0.000000 
0.257893 -0.287895 0.000000 
0.254475 -0.342005 0.000000 
0.194039 -0.349305 0.000000 
0.184111 -0.396396 0.000000 
0.445733 -0.214493 0.000000 
0.403017 -0.235072 0.000000 
0.412122 -0.297219 0.000000 
0.362692 -0.314512 0.000000 
0.363386 -0.372023 0.000000 
0.307162 -0.384144 0.000000 
0.301302 -0.436183 0.000000 
0.238687 -0.441135 0.000000 
0.228129 -0.487359 0.000000 
0.058559 -0.068867 0.000000 
0.142917 -0.005109 0.000000 
0.123292 -0.054092 0.000000 
0.162226 -0.089710 0.000000 
0.223062 0.058079 0.000000 
0.209613 0.010505 0.000000 
0.256854 -0.023608 0.000000 
0.229092 -0.074839 0.000000 
0.261851 -0.111866 0.000000 
0.302189 0.120936 0.000000 
0.290702 0.074201 0.000000 
0.341985 0.041402 0.000000 
0.321587 -0.008833 0.000000 
0.361761 -0.045241 0.000000 
0.329787 -0.097043 0.000000 
0.360414 -0.134166 0.000000 
0.381315 0.183792 0.000000 
0.370772 0.137565 0.000000 
0.425037 0.105936 0.000000 
0.407738 0.056508 0.000000 
0.453135 0.021192 0.000000 
0.427556 -0.030322 0.000000 
0.464588 -0.067350 0.000000 
0.429420 -0.119392 0.000000 
0.458977 -0.156466 0.000000 
0.026061 -0.028116 0.000000 
0.028809 0.077590 0.000000 
0.054870 0.031706 0.000000 
0.106992 0.039939 0.000000 
0.029377 0.179647 0.000000 
0.058186 0.139470 0.000000 
0.114311 0.155136 0.000000 
0.137056 0.101488 0.000000 
0.186430 0.104015 0.000000 
0.029568 0.280701 0.000000 
0.058945 0.242581 0.000000 
0.116563 0.262227 0.000000 
0.143120 0.214959 0.000000 
0.196633 0.223667 0.000000 
0.217198 0.166371 0.000000 
0.265318 0.167170 0.000000 
0.029759 0.381756 0.000000 
0.059328 0.344690 0.000000 
0.117890 0.367396 0.000000 
0.145749 0.323053 0.000000 
0.201664 0.336527 0.000000 
0.225992 0.284410 0.000000 
0.278030 0.290276 0.000000 
0.296791 0.230333 0.000000 
0.344206 0.230326 0.000000 
CELLS 175 350 
1 0 
1 1 
1 2 
1 3 
1 4 
1 5 
1 6 
1 7 
1 8 
1 9 
1 10 
1 11 
1 12 
1 13 
1 14 
1 15 
1 16 
1 17 
1 18 
1 19 
1 20 
1 21 
1 22 
1 23 
1 24 
1 25 
1 26 
1 27 
1 28 
1 29 
1 30 
1 31 
1 32 
1 33 
1 34 
1 35 
1 36 
1 37 
1 38 
1 39 
1 40 
1 41 
1 42 
1 43 
1 44 
1 45 
1 46 
1 47 
1 48 
1 49 
1 50 
1 51 
1 52 
1 53 
1 54 
1 55 
1 56 
1 57 
1 58 
1 59 
1 60 
1 61 
1 62 
1 63 
1 64 
1 65 
1 66 
1 67 
1 68 
1 69 
1 70 
1 71 
1 72 
1 73 
1 74 
1 75 
1 76 
1 77 
1 78 
1 79 
1 80 
1 81 
1 82 
1 83 
1 84 
1 85 
1 86 
1 87 
1 88 
1 89 
1 90 
1 91 
1 92 
1 93 
1 94 
1 95 
1 96 
1 97 
1 98 
1 99 
1 100 
1 101 
1 102 
1 103 
1 104 
1 105 
1 106 
1 107 
1 108 
1 109 
1 110 
1 111 
1 112 
1 113 
1 114 
1 115 
1 116 
1 117 
1 118 
1 119 
1 120 
1 121 
1 122 
1 123 
1 124 
1 125 
1 126 
1 127 
1 128 
1 129 
1 130 
1 131 
1 132 
1 133 
1 134 
1 135 
1 136 
1 137 
1 138 
1 139 
1 140 
1 141 
1 142 
1 143 
1 144 
1 145 
1 146 
1 147 
1 148 
1 149 
1 150 
1 151 
1 152 
1 153 
1 154 
1 155 
1 156 
1 157 
1 158 
1 159 
1 160 
1 161 
1 162 
1 163 
1 164 
1 165 
1 166 
1 167 
1 168 
1 169 
1 170 
1 171 
1 172 
1 173 
1 174 
CELL_TYPES 175 
1 
1 
1 
1 
1 
1 
1 
1 
1 
1 
1 
1 
1 
1 
1 
1 
1 
1 
1 
1 
1 
1 
1 
1 
1 
1 
1 
1 
1 
1 
1 
1 
1 
1 
1 
1 
1 
1 
1 
1 
1 
1 
1 
1 
1 
1 
1 
1 
1 
1 
1 
1 
1 
1 
1 
1 
1 
1 
1 
1 
1 
1 
1 
1 
1 
1 
1 
1 
1 
1 
1 
1 
1 
1 
1 
1 
1 
1 
1 
1 
1 
1 
1 
1 
1 
1 
1 
1 
1 
1 
1 
1 
1 
1 
1 
1 
1 
1 
1 
1 
1 
1 
1 
1 
1 
1 
1 
1 
1 
1 
1 
1 
1 
1 
1 
1 
1 
1 
1 
1 
1 
1 
1 
1 
1 
1 
1 
1 
1 
1 
1 
1 
1 
1 
1 
1 
1 
1 
1 
1 
1 
1 
1 
1 
1 
1 
1 
1 
1 
1 
1 
1 
1 
1 
1 
1 
1 
1 
1 
1 
1 
1 
1 
1 
1 
1 
1 
1 
1 
1 
1 
1 
1 
1 
1 
POINT_DATA 175 
VECTORS X_GC float 
-0.026061 -0.028116 0.000000 
-0.106992 0.039939 0.000000 
-0.054870 0.031706 0.000000 
-0.028809 0.077590 0.000000 
-0.186430 0.104015 0.000000 
-0.137056 0.101488 0.000000 
-0.114311 0.155136 0.000000 
-0.058186 0.139470 0.000000 
-0.029377 0.179647 0.000000 
-0.265318 0.167170 0.000000 
-0.217198 0.166371 0.000000 
-0.196633 0.223667 0.000000 
-0.143120 0.214959 0.000000 
-0.116563 0.262227 0.000000 
-0.058945 0.242581 0.000000 
-0.029568 0.280701 0.000000 
-0.344206 0.230326 0.000000 
-0.296791 0.230333 0.000000 
-0.278030 0.290276 0.000000 
-0.225992 0.284410 0.000000 
-0.201664 0.336527 0.000000 
-0.145749 0.323053 0.000000 
-0.117890 0.367396 0.000000 
-0.059328 0.344690 0.000000 
-0.029759 0.381756 0.000000 
-0.058559 -0.068867 0.000000 
-0.162226 -0.089710 0.000000 
-0.123292 -0.054092 0.000000 
-0.142917 -0.005109 0.000000 
-0.261851 -0.111866 0.000000 
-0.229092 -0.074839 0.000000 
-0.256854 -0.023608 0.000000 
-0.209613 0.010505 0.000000 
-0.223062 0.058079 0.000000 
-0.360414 -0.134166 0.000000 
-0.329787 -0.097043 0.000000 
-0.361761 -0.045241 0.000000 
-0.321587 -0.008832 0.000000 
-0.341985 0.041402 0.000000 
-0.290702 0.074201 0.000000 
-0.302189 0.120936 0.000000 
-0.458977 -0.156466 0.000000 
-0.429420 -0.119392 0.000000 
-0.464588 -0.067350 0.000000 
-0.427556 -0.030322 0.000000 
-0.453135 0.021192 0.000000 
-0.407738 0.056508 0.000000 
-0.425037 0.105936 0.000000 
-0.370772 0.137565 0.000000 
-0.381315 0.183792 0.000000 
-0.046960 -0.119682 0.000000 
-0.095301 -0.213728 0.000000 
-0.098873 -0.161081 0.000000 
-0.149405 -0.145883 0.000000 
-0.140093 -0.305432 0.000000 
-0.148617 -0.256734 0.000000 
-0.205981 -0.246497 0.000000 
-0.203197 -0.188293 0.000000 
-0.248777 -0.169147 0.000000 
-0.184111 -0.396396 0.000000 
-0.194039 -0.349305 0.000000 
-0.254475 -0.342005 0.000000 
-0.257893 -0.287895 0.000000 
-0.309886 -0.272523 0.000000 
-0.303554 -0.211978 0.000000 
-0.347255 -0.191820 0.000000 
-0.228129 -0.487359 0.000000 
-0.238687 -0.441135 0.000000 
-0.301302 -0.436183 0.000000 
-0.307162 -0.384144 0.000000 
-0.363386 -0.372023 0.000000 
-0.362692 -0.314512 0.000000 
-0.412122 -0.297219 0.000000 
-0.403017 -0.235072 0.000000 
-0.445733 -0.214493 0.000000 
-0.000000 -0.142297 0.000000 
0.043388 -0.238728 0.000000 
-0.000000 -0.208696 0.000000 
-0.043388 -0.238728 0.000000 
0.087158 -0.330925 0.000000 
0.043769 -0.307226 0.000000 
-0.000000 -0.345692 0.000000 
-0.043769 -0.307226 0.000000 
-0.087158 -0.330925 0.000000 
0.130831 -0.422054 0.000000 
0.087824 -0.400455 0.000000 
0.044436 -0.443155 0.000000 
-0.000000 -0.412090 0.000000 
-0.044436 -0.443155 0.000000 
-0.087824 -0.400455 0.000000 
-0.130831 -0.422054 0.000000 
0.174505 -0.513184 0.000000 
0.131782 -0.492618 0.000000 
0.088871 -0.538484 0.000000 
0.044532 -0.510620 0.000000 
-0.000000 -0.547021 0.000000 
-0.044532 -0.510620 0.000000 
-0.088871 -0.538484 0.000000 
-0.131782 -0.492618 0.000000 
-0.174505 -0.513184 0.000000 
0.046960 -0.119682 0.000000 
0.149405 -0.145883 0.000000 
0.098873 -0.161081 0.000000 
0.095301 -0.213728 0.000000 
0.248777 -0.169147 0.000000 
0.203197 -0.188293 0.000000 
0.205981 -0.246497 0.000000 
0.148617 -0.256734 0.000000 
0.140093 -0.305432 0.000000 
0.347255 -0.191820 0.000000 
0.303554 -0.211978 0.000000 
0.309886 -0.272523 0.000000 
0.257893 -0.287895 0.000000 
0.254475 -0.342005 0.000000 
0.194039 -0.349305 0.000000 
0.184111 -0.396396 0.000000 
0.445733 -0.214493 0.000000 
0.403017 -0.235072 0.000000 
0.412122 -0.297219 0.000000 
0.362692 -0.314512 0.000000 
0.363386 -0.372023 0.000000 
0.307162 -0.384144 0.000000 
0.301302 -0.436183 0.000000 
0.238687 -0.441135 0.000000 
0.228129 -0.487359 0.000000 
0.058559 -0.068867 0.000000 
0.142917 -0.005109 0.000000 
0.123292 -0.054092 0.000000 
0.162226 -0.089710 0.000000 
0.223062 0.058079 0.000000 
0.209613 0.010505 0.000000 
0.256854 -0.023608 0.000000 
0.229092 -0.074839 0.000000 
0.261851 -0.111866 0.000000 
0.302189 0.120936 0.000000 
0.290702 0.074201 0.000000 
0.341985 0.041402 0.000000 
0.321587 -0.008833 0.000000 
0.361761 -0.045241 0.000000 
0.329787 -0.097043 0.000000 
0.360414 -0.134166 0.000000 
0.381315 0.183792 0.000000 
0.370772 0.137565 0.000000 
0.425037 0.105936 0.000000 
0.407738 0.056508 0.000000 
0.453135 0.021192 0.000000 
0.427556 -0.030322 0.000000 
0.464588 -0.067350 0.000000 
0.429420 -0.119392 0.000000 
0.458977 -0.156466 0.000000 
0.026061 -0.028116 0.000000 
0.028809 0.077590 0.000000 
0.054870 0.031706 0.000000 
0.106992 0.039939 0.000000 
0.029377 0.179647 0.000000 
0.058186 0.139470 0.000000 
0.114311 0.155136 0.000000 
0.137056 0.101488 0.000000 
0.186430 0.104015 0.000000 
0.029568 0.280701 0.000000 
0.058945 0.242581 0.000000 
0.116563 0.262227 0.000000 
0.143120 0.214959 0.000000 
0.196633 0.223667 0.000000 
0.217198 0.166371 0.000000 
0.265318 0.167170 0.000000 
0.029759 0.381756 0.000000 
0.059328 0.344690 0.000000 
0.117890 0.367396 0.000000 
0.145749 0.323053 0.000000 
0.201664 0.336527 0.000000 
0.225992 0.284410 0.000000 
0.278030 0.290276 0.000000 
0.296791 0.230333 0.000000 
0.344206 0.230326 0.000000 
VECTORS X_EC float 
0.338794 0.879571 0.000000 
-0.609100 -0.039178 0.000000 
0.713312 0.071963 0.000000 
0.374519 -0.547467 0.000000 
0.423588 -0.904197 0.000000 
-0.218274 -0.870094 0.000000 
-0.513962 0.405668 0.000000 
0.756418 0.617154 0.000000 
0.381900 0.074761 0.000000 
-0.550868 0.243200 0.000000 
0.823577 0.253995 0.000000 
0.556234 -0.519509 0.000000 
-0.139443 -0.401940 0.000000 
-0.484677 0.959935 0.000000 
0.766286 -0.774849 0.000000 
0.384386 0.710530 0.000000 
0.474677 -0.609404 0.000000 
-0.141715 -0.609500 0.000000 
-0.385608 0.581272 0.000000 
0.937896 0.660467 0.000000 
0.621631 -0.043113 0.000000 
-0.105264 0.138787 0.000000 
-0.467428 -0.459840 0.000000 
0.771260 -0.153311 0.000000 
0.386873 -0.653701 0.000000 
0.761262 -0.570295 0.000000 
0.108942 -0.288918 0.000000 
-0.397202 -0.769758 0.000000 
-0.142083 0.568967 0.000000 
-0.595936 0.010192 0.000000 
0.978194 -0.489674 0.000000 
-0.660903 0.818701 0.000000 
0.724964 0.358181 0.000000 
0.899809 -0.284067 0.000000 
0.685384 0.311244 0.000000 
0.287229 -0.189914 0.000000 
0.702895 -0.889243 0.000000 
0.180633 0.619239 0.000000 
0.445811 -0.058921 0.000000 
-0.220880 -0.501707 0.000000 
-0.071546 0.867368 0.000000 
-0.033296 0.612297 0.000000 
-0.417537 0.111787 0.000000 
0.039645 -0.590775 0.000000 
-0.441768 0.909353 0.000000 
-0.109248 0.213903 0.000000 
-0.699407 -0.262853 0.000000 
-0.474522 -0.930132 0.000000 
0.820030 0.642874 0.000000 
0.957100 0.018803 0.000000 
0.610485 0.115711 0.000000 
-0.761092 -0.614669 0.000000 
-0.714655 0.674593 0.000000 
-0.057734 0.469426 0.000000 
-0.178789 0.623335 0.000000 
-0.067979 -0.034091 0.000000 
0.677748 -0.172295 0.000000 
0.641556 -0.958040 0.000000 
-0.765897 0.783482 0.000000 
0.393446 -0.148656 0.000000 
0.522510 -0.784386 0.000000 
-0.691820 -0.882930 0.000000 
-0.647393 0.386587 0.000000 
0.028512 0.179061 0.000000 
-0.053800 -0.638300 0.000000 
0.514316 -0.910431 0.000000 
0.965681 -0.920647 0.000000 
-0.897068 0.455324 0.000000 
-0.083078 0.388471 0.000000 
-0.006893 -0.314053 0.000000 
0.724017 -0.477686 0.000000 
0.714996 0.745910 0.000000 
-0.642413 0.512453 0.000000 
-0.760780 -0.326528 0.000000 
-0.205471 -0.604343 0.000000 
0.000000 0.421013 0.000000 
-0.564049 -0.277174 0.000000 
0.000000 -0.682610 0.000000 
0.564049 -0.277174 0.000000 
0.866949 0.967481 0.000000 
-0.569003 0.647550 0.000000 
0.000000 -0.833162 0.000000 
0.569003 0.647550 0.000000 
-0.866949 0.967481 0.000000 
0.299194 0.197731 0.000000 
0.858290 -0.093853 0.000000 
-0.577662 0.482593 0.000000 
0.000000 0.063215 0.000000 
0.577662 0.482593 0.000000 
-0.858290 -0.093853 0.000000 
-0.299194 0.197731 0.000000 
-0.268560 -0.572019 0.000000 
0.286830 -0.849660 0.000000 
0.844677 -0.230462 0.000000 
-0.578910 -0.606625 0.000000 
0.000000 -0.115221 0.000000 
0.578910 -0.606625 0.000000 
-0.844677 -0.230462 0.000000 
-0.286830 -0.849660 0.000000 
0.268560 -0.572019 0.000000 
-0.610485 0.115711 0.000000 
0.057734 0.469426 0.000000 
0.714655 0.674593 0.000000 
0.761092 -0.614669 0.000000 
0.765897 0.783482 0.000000 
-0.641556 -0.958040 0.000000 
-0.677748 -0.172295 0.000000 
0.067979 -0.034091 0.000000 
0.178789 0.623335 0.000000 
-0.514316 -0.910431 0.000000 
0.053800 -0.638300 0.000000 
-0.028512 0.179061 0.000000 
0.647393 0.386587 0.000000 
0.691820 -0.882930 0.000000 
-0.522510 -0.784386 0.000000 
-0.393446 -0.148656 0.000000 
0.205471 -0.604343 0.000000 
0.760780 -0.326528 0.000000 
0.642413 0.512453 0.000000 
-0.714996 0.745910 0.000000 
-0.724017 -0.477686 0.000000 
0.006894 -0.314053 0.000000 
0.083078 0.388471 0.000000 
0.897068 0.455324 0.000000 
-0.965681 -0.920647 0.000000 
-0.761262 -0.570295 0.000000 
0.142083 0.568967 0.000000 
0.397202 -0.769758 0.000000 
-0.108942 -0.288918 0.000000 
-0.899809 -0.284067 0.000000 
-0.724964 0.358181 0.000000 
0.660903 0.818701 0.000000 
-0.978194 -0.489674 0.000000 
0.595936 0.010192 0.000000 
0.071546 0.867368 0.000000 
0.220880 -0.501707 0.000000 
-0.445811 -0.058921 0.000000 
-0.180633 0.619239 0.000000 
-0.702895 -0.889243 0.000000 
-0.287229 -0.189914 0.000000 
-0.685384 0.311244 0.000000 
-0.957100 0.018803 0.000000 
-0.820030 0.642874 0.000000 
0.474522 -0.930132 0.000000 
0.699407 -0.262853 0.000000 
0.109248 0.213903 0.000000 
0.441768 0.909353 0.000000 
-0.039645 -0.590775 0.000000 
0.417537 0.111787 0.000000 
0.033296 0.612297 0.000000 
-0.338794 0.879571 0.000000 
-0.374519 -0.547467 0.000000 
-0.713312 0.071963 0.000000 
0.609100 -0.039178 0.000000 
-0.381900 0.074761 0.000000 
-0.756418 0.617154 0.000000 
0.513962 0.405668 0.000000 
0.218274 -0.870094 0.000000 
-0.423588 -0.904197 0.000000 
-0.384386 0.710530 0.000000 
-0.766286 -0.774849 0.000000 
0.484677 0.959935 0.000000 
0.139443 -0.401940 0.000000 
-0.556234 -0.519509 0.000000 
-0.823577 0.253995 0.000000 
0.550868 0.243200 0.000000 
-0.386873 -0.653701 0.000000 
-0.771260 -0.153311 0.000000 
0.467428 -0.459840 0.000000 
0.105264 0.138787 0.000000 
-0.621631 -0.043113 0.000000 
-0.937896 0.660467 0.000000 
0.385608 0.581272 0.000000 
0.141715 -0.609500 0.000000 
-0.474677 -0.609404 0.000000 
CELL_DATA 175 
SCALARS MASS float 
LOOKUP_TABLE default 
0.078183 
0.086427 
0.094672 
0.086427 
0.088131 
0.092111 
0.085854 
0.092111 
0.088131 
0.088705 
0.091000 
0.086983 
0.091556 
0.086983 
0.091000 
0.088705 
0.089278 
0.091574 
0.089278 
0.092722 
0.089278 
0.092722 
0.089278 
0.091574 
0.089278 
0.078183 
0.086427 
0.094672 
0.086427 
0.088131 
0.092111 
0.085854 
0.092111 
0.088131 
0.088705 
0.091000 
0.086983 
0.091556 
0.086983 
0.091000 
0.088705 
0.089278 
0.091574 
0.089278 
0.092722 
0.089278 
0.092722 
0.089278 
0.091574 
0.089278 
0.078183 
0.086427 
0.094672 
0.086427 
0.088131 
0.092111 
0.085854 
0.092111 
0.088131 
0.088705 
0.091000 
0.086983 
0.091556 
0.086983 
0.091000 
0.088705 
0.089278 
0.091574 
0.089278 
0.092722 
0.089278 
0.092722 
0.089278 
0.091574 
0.089278 
0.078183 
0.086427 
0.094672 
0.086427 
0.088131 
0.092111 
0.085854 
0.092111 
0.088131 
0.088705 
0.091000 
0.086983 
0.091556 
0.086983 
0.091000 
0.088705 
0.089278 
0.091574 
0.089278 
0.092722 
0.089278 
0.092722 
0.089278 
0.091574 
0.089278 
0.078183 
0.086427 
0.094672 
0.086427 
0.088131 
0.092111 
0.085854 
0.092111 
0.088131 
0.088705 
0.091000 
0.086983 
0.091556 
0.086983 
0.091000 
0.088705 
0.089278 
0.091574 
0.089278 
0.092722 
0.089278 
0.092722 
0.089278 
0.091574 
0.089278 
0.078183 
0.086427 
0.094672 
0.086427 
0.088131 
0.092111 
0.085854 
0.092111 
0.088131 
0.088705 
0.091000 
0.086983 
0.091556 
0.086983 
0.091000 
0.088705 
0.089278 
0.091574 
0.089278 
0.092722 
0.089278 
0.092722 
0.089278 
0.091574 
0.089278 
0.078183 
0.086427 
0.094672 
0.086427 
0.088131 
0.092111 
0.085854 
0.092111 
0.088131 
0.088705 
0.091000 
0.086983 
0.091556 
0.086983 
0.091000 
0.088705 
0.089278 
0.091574 
0.089278 
0.092722 
0.089278 
0.092722 
0.089278 
0.091574 
0.089278 
SCALARS MASS float 
LOOKUP_TABLE default 
0.078183 
0.086427 
0.094672 
0.086427 
0.088131 
0.092111 
0.085854 
0.092111 
0.088131 
0.088705 
0.091000 
0.086983 
0.091556 
0.086983 
0.091000 
0.088705 
0.089278 
0.091574 
0.089278 
0.092722 
0.089278 
0.092722 
0.089278 
0.091574 
0.089278 
0.078183 
0.086427 
0.094672 
0.086427 
0.088131 
0.092111 
0.085854 
0.092111 
0.088131 
0.088705 
0.091000 
0.086983 
0.091556 
0.086983 
0.091000 
0.088705 
0.089278 
0.091574 
0.089278 
0.092722 
0.089278 
0.092722 
0.089278 
0.091574 
0.089278 
0.078183 
0.086427 
0.094672 
0.086427 
0.088131 
0.092111 
0.085854 
0.092111 
0.088131 
0.088705 
0.091000 
0.086983 
0.091556 
0.086983 
0.091000 
0.088705 
0.089278 
0.091574 
0.089278 
0.092722 
0.089278 
0.092722 
0.089278 
0.091574 
0.089278 
0.078183 
0.086427 
0.094672 
0.086427 
0.088131 
0.092111 
0.085854 
0.092111 
0.088131 
0.088705 
0.091000 
0.086983 
0.091556 
0.086983 
0.091000 
0.088705 
0.089278 
0.091574 
0.089278 
0.092722 
0.089278 
0.092722 
0.089278 
0.091574 
0.089278 
0.078183 
0.086427 
0.094672 
0.086427 
0.088131 
0.092111 
0.085854 
0.092111 
0.088131 
0.088705 
0.091000 
0.086983 
0.091556 
0.086983 
0.091000 
0.088705 
0.089278 
0.091574 
0.089278 
0.092722 
0.089278 
0.092722 
0.089278 
0.091574 
0.089278 
0.078183 
0.086427 
0.094672 
0.086427 
0.088131 
0.092111 
0.085854 
0.092111 
0.088131 
0.088705 
0.091000 
0.086983 
0.091556 
0.086983 
0.091000 
0.088705 
0.089278 
0.091574 
0.089278 
0.092722 
0.089278 
0.092722 
0.089278 
0.091574 
0.089278 
0.078183 
0.086427 
0.094672 
0.086427 
0.088131 
0.092111 
0.085854 
0.092111 
0.088131 
0.088705 
0.091000 
0.086983 
0.091556 
0.086983 
0.091000 
0.088705 
0.089278 
0.091574 
0.089278 
0.092722 
0.089278 
0.092722 
0.089278 
0.091574 
0.089278 
SCALARS DENSITY float 
LOOKUP_TABLE default 
20.000000 
20.000000 
20.000000 
20.000000 
20.000000 
20.000000 
20.000000 
20.000000 
20.000000 
20.000000 
20.000000 
20.000000 
20.000000 
20.000000 
20.000000 
20.000000 
20.000000 
20.000000 
20.000000 
20.000000 
20.000000 
20.000000 
20.000000 
20.000000 
20.000000 
20.000000 
20.000000 
20.000000 
20.000000 
20.000000 
20.000000 
20.000000 
20.000000 
20.000000 
20.000000 
20.000000 
20.000000 
20.000000 
20.000000 
20.000000 
20.000000 
20.000000 
20.000000 
20.000000 
20.000000 
20.000000 
20.000000 
20.000000 
20.000000 
20.000000 
20.000000 
20.000000 
20.000000 
20.000000 
20.000000 
20.000000 
20.000000 
20.000000 
20.000000 
20.000000 
20.000000 
20.000000 
20.000000 
20.000000 
20.000000 
20.000000 
20.000000 
20.000000 
20.000000 
20.000000 
20.000000 
20.000000 
20.000000 
20.000000 
20.000000 
20.000000 
20.000000 
20.000000 
20.000000 
20.000000 
20.000000 
20.000000 
20.000000 
20.000000 
20.000000 
20.000000 
20.000000 
20.000000 
20.000000 
20.000000 
20.000000 
20.000000 
20.000000 
20.000000 
20.000000 
20.000000 
20.000000 
20.000000 
20.000000 
20.000000 
20.000000 
20.000000 
20.000000 
20.000000 
20.000000 
20.000000 
20.000000 
20.000000 
20.000000 
20.000000 
20.000000 
20.000000 
20.000000 
20.000000 
20.000000 
20.000000 
20.000000 
20.000000 
20.000000 
20.000000 
20.000000 
20.000000 
20.000000 
20.000000 
20.000000 
20.000000 
20.000000 
20.000000 
20.000000 
20.000000 
20.000000 
20.000000 
20.000000 
20.000000 
20.000000 
20.000000 
20.000000 
20.000000 
20.000000 
20.000000 
20.000000 
20.000000 
20.000000 
20.000000 
20.000000 
20.000000 
20.000000 
20.000000 
20.000000 
20.000000 
20.000000 
20.000000 
20.000000 
20.000000 
20.000000 
20.000000 
20.000000 
20.000000 
20.000000 
20.000000 
20.000000 
20.000000 
20.000000 
20.000000 
20.000000 
20.000000 
20.000000 
20.000000 
20.000000 
20.000000 
20.000000 
20.000000 
20.000000 
20.000000 
20.000000 
SCALARS ELEM_i float 
LOOKUP_TABLE default 
182 
209 
182 
182 
209 
209 
210 
183 
183 
237 
210 
210 
210 
211 
183 
184 
237 
237 
238 
211 
211 
211 
211 
184 
184 
181 
208 
208 
209 
235 
208 
236 
209 
209 
235 
235 
235 
236 
236 
236 
237 
262 
262 
262 
263 
263 
263 
263 
237 
237 
181 
207 
208 
208 
207 
207 
207 
207 
235 
206 
206 
233 
234 
234 
234 
234 
205 
233 
233 
233 
233 
234 
261 
261 
261 
181 
180 
180 
180 
153 
180 
179 
180 
207 
152 
152 
179 
179 
179 
206 
206 
151 
151 
151 
178 
178 
178 
205 
205 
205 
181 
154 
154 
153 
127 
153 
153 
153 
153 
126 
126 
126 
126 
125 
152 
152 
99 
99 
99 
126 
125 
125 
125 
125 
151 
181 
155 
154 
154 
155 
155 
128 
154 
127 
129 
128 
128 
128 
127 
127 
127 
129 
129 
101 
101 
101 
101 
100 
100 
100 
182 
182 
182 
155 
183 
183 
156 
155 
155 
184 
183 
157 
156 
156 
156 
129 
184 
184 
157 
157 
157 
157 
130 
129 
129 
VECTORS VELOCITY float 
-0.000000 -1.269806 0.000000 
-0.000000 -1.269806 0.000000 
-0.000000 -1.269806 0.000000 
0.000000 -1.269806 0.000000 
0.000000 -1.269806 0.000000 
0.000000 -1.269806 0.000000 
-0.000000 -1.269806 0.000000 
0.000000 -1.269806 0.000000 
-0.000000 -1.269806 0.000000 
-0.000000 -1.269806 0.000000 
-0.000000 -1.269806 0.000000 
-0.000000 -1.269806 0.000000 
-0.000000 -1.269806 0.000000 
-0.000000 -1.269806 0.000000 
-0.000000 -1.269806 0.000000 
-0.000000 -1.269806 0.000000 
-0.000000 -1.269806 0.000000 
-0.000000 -1.269806 0.000000 
-0.000000 -1.269806 0.000000 
-0.000000 -1.269806 0.000000 
-0.000000 -1.269806 0.000000 
-0.000000 -1.269806 0.000000 
-0.000000 -1.269806 0.000000 
-0.000000 -1.269806 0.000000 
-0.000000 -1.269806 0.000000 
-0.000000 -1.269806 0.000000 
0.000000 -1.269806 0.000000 
-0.000000 -1.269806 0.000000 
-0.000000 -1.269806 0.000000 
0.000000 -1.269806 0.000000 
0.000000 -1.269806 0.000000 
0.000000 -1.269806 0.000000 
-0.000000 -1.269806 0.000000 
-0.000000 -1.269806 0.000000 
0.000000 -1.269806 0.000000 
0.000000 -1.269806 0.000000 
0.000000 -1.269806 0.000000 
0.000000 -1.269806 0.000000 
0.000000 -1.269806 0.000000 
0.000000 -1.269806 0.000000 
0.000000 -1.269806 0.000000 
-0.000000 -1.269806 0.000000 
-0.000000 -1.269806 0.000000 
-0.000000 -1.269806 0.000000 
0.000000 -1.269806 0.000000 
0.000000 -1.269806 0.000000 
0.000000 -1.269806 0.000000 
-0.000000 -1.269806 0.000000 
-0.000000 -1.269806 0.000000 
-0.000000 -1.269806 0.000000 
0.000000 -1.269806 0.000000 
0.000000 -1.269806 0.000000 
0.000000 -1.269806 0.000000 
0.000000 -1.269806 0.000000 
0.000000 -1.269806 0.000000 
0.000000 -1.269806 0.000000 
0.000000 -1.269806 0.000000 
0.000000 -1.269806 0.000000 
0.000000 -1.269806 0.000000 
0.000000 -1.269806 0.000000 
0.000000 -1.269806 0.000000 
0.000000 -1.269806 0.000000 
0.000000 -1.269806 0.000000 
0.000000 -1.269806 0.000000 
0.000000 -1.269806 0.000000 
0.000000 -1.269806 0.000000 
0.000000 -1.269806 0.000000 
0.000000 -1.269806 0.000000 
-0.000000 -1.269806 0.000000 
-0.000000 -1.269806 0.000000 
-0.000000 -1.269806 0.000000 
0.000000 -1.269806 0.000000 
0.000000 -1.269806 0.000000 
0.000000 -1.269806 0.000000 
-0.000000 -1.269806 0.000000 
0.000000 -1.269806 0.000000 
-0.000000 -1.269806 0.000000 
0.000000 -1.269806 0.000000 
0.000000 -1.269806 0.000000 
0.000000 -1.269806 0.000000 
0.000000 -1.269806 0.000000 
0.000000 -1.269806 0.000000 
0.000000 -1.269806 0.000000 
-0.000000 -1.269806 0.000000 
-0.000000 -1.269806 0.000000 
0.000000 -1.269806 0.000000 
-0.000000 -1.269806 0.000000 
0.000000 -1.269806 0.000000 
-0.000000 -1.269806 0.000000 
0.000000 -1.269806 0.000000 
0.000000 -1.269806 0.000000 
-0.000000 -1.269806 0.000000 
-0.000000 -1.269806 0.000000 
0.000000 -1.269806 0.000000 
0.000000 -1.269806 0.000000 
-0.000000 -1.269806 0.000000 
-0.000000 -1.269806 0.000000 
-0.000000 -1.269806 0.000000 
0.000000 -1.269806 0.000000 
0.000000 -1.269806 0.000000 
-0.000000 -1.269806 0.000000 
0.000000 -1.269806 0.000000 
-0.000000 -1.269806 0.000000 
-0.000000 -1.269806 0.000000 
0.000000 -1.269806 0.000000 
0.000000 -1.269806 0.000000 
0.000000 -1.269806 0.000000 
0.000000 -1.269806 0.000000 
0.000000 -1.269806 0.000000 
-0.000000 -1.269806 0.000000 
0.000000 -1.269806 0.000000 
-0.000000 -1.269806 0.000000 
0.000000 -1.269806 0.000000 
-0.000000 -1.269806 0.000000 
0.000000 -1.269806 0.000000 
-0.000000 -1.269806 0.000000 
0.000000 -1.269806 0.000000 
0.000000 -1.269806 0.000000 
0.000000 -1.269806 0.000000 
-0.000000 -1.269806 0.000000 
0.000000 -1.269806 0.000000 
0.000000 -1.269806 0.000000 
0.000000 -1.269806 0.000000 
-0.000000 -1.269806 0.000000 
-0.000000 -1.269806 0.000000 
0.000000 -1.269806 0.000000 
0.000000 -1.269806 0.000000 
0.000000 -1.269806 0.000000 
0.000000 -1.269806 0.000000 
-0.000000 -1.269806 0.000000 
-0.000000 -1.269806 0.000000 
0.000000 -1.269806 0.000000 
0.000000 -1.269806 0.000000 
0.000000 -1.269806 0.000000 
0.000000 -1.269806 0.000000 
0.000000 -1.269806 0.000000 
0.000000 -1.269806 0.000000 
0.000000 -1.269806 0.000000 
0.000000 -1.269806 0.000000 
0.000000 -1.269806 0.000000 
0.000000 -1.269806 0.000000 
-0.000000 -1.269806 0.000000 
0.000000 -1.269806 0.000000 
0.000000 -1.269806 0.000000 
0.000000 -1.269806 0.000000 
0.000000 -1.269806 0.000000 
-0.000000 -1.269806 0.000000 
-0.000000 -1.269806 0.000000 
-0.000000 -1.269806 0.000000 
-0.000000 -1.269806 0.000000 
0.000000 -1.269806 0.000000 
0.000000 -1.269806 0.000000 
0.000000 -1.269806 0.000000 
0.000000 -1.269806 0.000000 
-0.000000 -1.269806 0.000000 
0.000000 -1.269806 0.000000 
-0.000000 -1.269806 0.000000 
-0.000000 -1.269806 0.000000 
-0.000000 -1.269806 0.000000 
-0.000000 -1.269806 0.000000 
-0.000000 -1.269806 0.000000 
-0.000000 -1.269806 0.000000 
-0.000000 -1.269806 0.000000 
-0.000000 -1.269806 0.000000 
-0.000000 -1.269806 0.000000 
-0.000000 -1.269806 0.000000 
-0.000000 -1.269806 0.000000 
-0.000000 -1.269806 0.000000 
0.000000 -1.269806 0.000000 
-0.000000 -1.269806 0.000000 
-0.000000 -1.269806 0.000000 
-0.000000 -1.269806 0.000000 
0.000000 -1.269806 0.000000 
-0.000000 -1.269806 0.000000 
-0.000000 -1.269806 0.000000 
TENSORS STRESS float 
0.000000 -0.000000 0.000000 
0.000000 0.000000 0.000000 
0.000000 0.000000 0.000000 

-0.000000 0.000000 0.000000 
0.000000 -0.000000 0.000000 
0.000000 0.000000 0.000000 

0.000000 -0.000000 0.000000 
0.000000 -0.000000 0.000000 
0.000000 0.000000 0.000000 

0.000000 -0.000000 0.000000 
0.000000 0.000000 0.000000 
0.000000 0.000000 0.000000 

-0.000000 0.000000 0.000000 
0.000000 0.000000 0.000000 
0.000000 0.000000 0.000000 

0.000000 0.000000 0.000000 
0.000000 0.000000 0.000000 
0.000000 0.000000 0.000000 

-0.000000 0.000000 0.000000 
0.000000 -0.000000 0.000000 
0.000000 0.000000 0.000000 

0.000000 0.000000 0.000000 
0.000000 -0.000000 0.000000 
0.000000 0.000000 0.000000 

0.000000 0.000000 0.000000 
0.000000 -0.000000 0.000000 
0.000000 0.000000 0.000000 

0.000000 0.000000 0.000000 
0.000000 0.000000 0.000000 
0.000000 0.000000 0.000000 

-0.000000 0.000000 0.000000 
0.000000 -0.000000 0.000000 
0.000000 0.000000 0.000000 

-0.000000 -0.000000 0.000000 
0.000000 -0.000000 0.000000 
0.000000 0.000000 0.000000 

-0.000000 0.000000 0.000000 
0.000000 -0.000000 0.000000 
0.000000 0.000000 0.000000 

0.000000 -0.000000 0.000000 
0.000000 0.000000 0.000000 
0.000000 0.000000 0.000000 

-0.000000 0.000000 0.000000 
0.000000 0.000000 0.000000 
0.000000 0.000000 0.000000 

-0.000000 0.000000 0.000000 
0.000000 -0.000000 0.000000 
0.000000 0.000000 0.000000 

0.000000 -0.000000 0.000000 
0.000000 -0.000000 0.000000 
0.000000 0.000000 0.000000 

0.000000 0.000000 0.000000 
0.000000 0.000000 0.000000 
0.000000 0.000000 0.000000 

-0.000000 0.000000 0.000000 
0.000000 -0.000000 0.000000 
0.000000 0.000000 0.000000 

-0.000000 -0.000000 0.000000 
0.000000 -0.000000 0.000000 
0.000000 0.000000 0.000000 

0.000000 -0.000000 0.000000 
0.000000 0.000000 0.000000 
0.000000 0.000000 0.000000 

0.000000 0.000000 0.000000 
0.000000 -0.000000 0.000000 
0.000000 0.000000 0.000000 

-0.000000 -0.000000 0.000000 
0.000000 -0.000000 0.000000 
0.000000 0.000000 0.000000 

-0.000000 0.000000 0.000000 
0.000000 0.000000 0.000000 
0.000000 0.000000 0.000000 

-0.000000 0.000000 0.000000 
0.000000 0.000000 0.000000 
0.000000 0.000000 0.000000 

-0.000000 -0.000000 0.000000 
0.000000 -0.000000 0.000000 
0.000000 0.000000 0.000000 

-0.000000 -0.000000 0.000000 
0.000000 -0.000000 0.000000 
0.000000 0.000000 0.000000 

0.000000 0.000000 0.000000 
0.000000 0.000000 0.000000 
0.000000 0.000000 0.000000 

-0.000000 0.000000 0.000000 
0.000000 -0.000000 0.000000 
0.000000 0.000000 0.000000 

-0.000000 0.000000 0.000000 
0.000000 -0.000000 0.000000 
0.000000 0.000000 0.000000 

-0.000000 -0.000000 0.000000 
0.000000 -0.000000 0.000000 
0.000000 0.000000 0.000000 

-0.000000 0.000000 0.000000 
0.000000 -0.000000 0.000000 
0.000000 0.000000 0.000000 

-0.000000 0.000000 0.000000 
0.000000 -0.000000 0.000000 
0.000000 0.000000 0.000000 

-0.000000 0.000000 0.000000 
0.000000 -0.000000 0.000000 
0.000000 0.000000 0.000000 

-0.000000 0.000000 0.000000 
0.000000 -0.000000 0.000000 
0.000000 0.000000 0.000000 

-0.000000 0.000000 0.000000 
0.000000 -0.000000 0.000000 
0.000000 0.000000 0.000000 

-0.000000 -0.000000 0.000000 
0.000000 -0.000000 0.000000 
0.000000 0.000000 0.000000 

-0.000000 -0.000000 0.000000 
0.000000 -0.000000 0.000000 
0.000000 0.000000 0.000000 

-0.000000 0.000000 0.000000 
0.000000 -0.000000 0.000000 
0.000000 0.000000 0.000000 

0.000000 0.000000 0.000000 
0.000000 0.000000 0.000000 
0.000000 0.000000 0.000000 

0.000000 0.000000 0.000000 
0.000000 0.000000 0.000000 
0.000000 0.000000 0.000000 

0.000000 0.000000 0.000000 
0.000000 -0.000000 0.000000 
0.000000 0.000000 0.000000 

-0.000000 0.000000 0.000000 
0.000000 -0.000000 0.000000 
0.000000 0.000000 0.000000 

0.000000 0.000000 0.000000 
0.000000 0.000000 0.000000 
0.000000 0.000000 0.000000 

-0.000000 -0.000000 0.000000 
0.000000 -0.000000 0.000000 
0.000000 0.000000 0.000000 

-0.000000 0.000000 0.000000 
0.000000 -0.000000 0.000000 
0.000000 0.000000 0.000000 

-0.000000 0.000000 0.000000 
0.000000 -0.000000 0.000000 
0.000000 0.000000 0.000000 

0.000000 0.000000 0.000000 
0.000000 -0.000000 0.000000 
0.000000 0.000000 0.000000 

0.000000 0.000000 0.000000 
0.000000 0.000000 0.000000 
0.000000 0.000000 0.000000 

0.000000 0.000000 0.000000 
0.000000 0.000000 0.000000 
0.000000 0.000000 0.000000 

-0.000000 -0.000000 0.000000 
0.000000 0.000000 0.000000 
0.000000 0.000000 0.000000 

-0.000000 -0.000000 0.000000 
0.000000 0.000000 0.000000 
0.000000 0.000000 0.000000 

-0.000000 -0.000000 0.000000 
0.000000 -0.000000 0.000000 
0.000000 0.000000 0.000000 

-0.000000 -0.000000 0.000000 
0.000000 -0.000000 0.000000 
0.000000 0.000000 0.000000 

0.000000 -0.000000 0.000000 
0.000000 0.000000 0.000000 
0.000000 0.000000 0.000000 

-0.000000 -0.000000 0.000000 
0.000000 -0.000000 0.000000 
0.000000 0.000000 0.000000 

-0.000000 -0.000000 0.000000 
0.000000 0.000000 0.000000 
0.000000 0.000000 0.000000 

-0.000000 -0.000000 0.000000 
0.000000 -0.000000 0.000000 
0.000000 0.000000 0.000000 

0.000000 -0.000000 0.000000 
0.000000 -0.000000 0.000000 
0.000000 0.000000 0.000000 

0.000000 0.000000 0.000000 
0.000000 -0.000000 0.000000 
0.000000 0.000000 0.000000 

-0.000000 0.000000 0.000000 
0.000000 -0.000000 0.000000 
0.000000 0.000000 0.000000 

0.000000 0.000000 0.000000 
0.000000 0.000000 0.000000 
0.000000 0.000000 0.000000 

0.000000 -0.000000 0.000000 
0.000000 0.000000 0.000000 
0.000000 0.000000 0.000000 

0.000000 -0.000000 0.000000 
0.000000 0.000000 0.000000 
0.000000 0.000000 0.000000 

0.000000 0.000000 0.000000 
0.000000 0.000000 0.000000 
0.000000 0.000000 0.000000 

0.000000 0.000000 0.000000 
0.000000 0.000000 0.000000 
0.000000 0.000000 0.000000 

0.000000 0.000000 0.000000 
0.000000 0.000000 0.000000 
0.000000 0.000000 0.000000 

0.000000 0.000000 0.000000 
0.000000 -0.000000 0.000000 
0.000000 0.000000 0.000000 

0.000000 0.000000 0.000000 
0.000000 -0.000000 0.000000 
0.000000 0.000000 0.000000 

0.000000 0.000000 0.000000 
0.000000 -0.000000 0.000000 
0.000000 0.000000 0.000000 

0.000000 0.000000 0.000000 
0.000000 -0.000000 0.000000 
0.000000 0.000000 0.000000 

0.000000 0.000000 0.000000 
0.000000 0.000000 0.000000 
0.000000 0.000000 0.000000 

0.000000 0.000000 0.000000 
0.000000 -0.000000 0.000000 
0.000000 0.000000 0.000000 

0.000000 0.000000 0.000000 
0.000000 0.000000 0.000000 
0.000000 0.000000 0.000000 

-0.000000 0.000000 0.000000 
0.000000 -0.000000 0.000000 
0.000000 0.000000 0.000000 

-0.000000 -0.000000 0.000000 
0.000000 -0.000000 0.000000 
0.000000 0.000000 0.000000 

0.000000 -0.000000 0.000000 
0.000000 0.000000 0.000000 
0.000000 0.000000 0.000000 

-0.000000 -0.000000 0.000000 
0.000000 0.000000 0.000000 
0.000000 0.000000 0.000000 

-0.000000 -0.000000 0.000000 
0.000000 0.000000 0.000000 
0.000000 0.000000 0.000000 

-0.000000 -0.000000 0.000000 
0.000000 -0.000000 0.000000 
0.000000 0.000000 0.000000 

-0.000000 -0.000000 0.000000 
0.000000 0.000000 0.000000 
0.000000 0.000000 0.000000 

-0.000000 -0.000000 0.000000 
0.000000 -0.000000 0.000000 
0.000000 0.000000 0.000000 

-0.000000 -0.000000 0.000000 
0.000000 0.000000 0.000000 
0.000000 0.000000 0.000000 

0.000000 -0.000000 0.000000 
0.000000 0.000000 0.000000 
0.000000 0.000000 0.000000 

0.000000 -0.000000 0.000000 
0.000000 -0.000000 0.000000 
0.000000 0.000000 0.000000 

0.000000 -0.000000 0.000000 
0.000000 0.000000 0.000000 
0.000000 0.000000 0.000000 

-0.000000 -0.000000 0.000000 
0.000000 0.000000 0.000000 
0.000000 0.000000 0.000000 

-0.000000 -0.000000 0.000000 
0.000000 -0.000000 0.000000 
0.000000 0.000000 0.000000 

-0.000000 -0.000000 0.000000 
0.000000 -0.000000 0.000000 
0.000000 0.000000 0.000000 

0.000000 -0.000000 0.000000 
0.000000 -0.000000 0.000000 
0.000000 0.000000 0.000000 

-0.000000 0.000000 0.000000 
0.000000 -0.000000 0.000000 
0.000000 0.000000 0.000000 

-0.000000 0.000000 0.000000 
0.000000 -0.000000 0.000000 
0.000000 0.000000 0.000000 

-0.000000 0.000000 0.000000 
0.000000 -0.000000 0.000000 
0.000000 0.000000 0.000000 

0.000000 0.000000 0.000000 
0.000000 0.000000 0.000000 
0.000000 0.000000 0.000000 

0.000000 -0.000000 0.000000 
0.000000 -0.000000 0.000000 
0.000000 0.000000 0.000000 

0.000000 0.000000 0.000000 
0.000000 0.000000 0.000000 
0.000000 0.000000 0.000000 

0.000000 0.000000 0.000000 
0.000000 0.000000 0.000000 
0.000000 0.000000 0.000000 

0.000000 -0.000000 0.000000 
0.000000 0.000000 0.000000 
0.000000 0.000000 0.000000 

0.000000 0.000000 0.000000 
0.000000 -0.000000 0.000000 
0.000000 0.000000 0.000000 

-0.000000 -0.000000 0.000000 
0.000000 -0.000000 0.000000 
0.000000 0.000000 0.000000 

-0.000000 -0.000000 0.000000 
0.000000 -0.000000 0.000000 
0.000000 0.000000 0.000000 

-0.000000 0.000000 0.000000 
0.000000 -0.000000 0.000000 
0.000000 0.000000 0.000000 

-0.000000 -0.000000 0.000000 
0.000000 -0.000000 0.000000 
0.000000 0.000000 0.000000 

-0.000000 -0.000000 0.000000 
0.000000 -0.000000 0.000000 
0.000000 0.000000 0.000000 

0.000000 0.000000 0.000000 
0.000000 0.000000 0.000000 
0.000000 0.000000 0.000000 

-0.000000 -0.000000 0.000000 
0.000000 -0.000000 0.000000 
0.000000 0.000000 0.000000 

-0.000000 -0.000000 0.000000 
0.000000 0.000000 0.000000 
0.000000 0.000000 0.000000 

-0.000000 -0.000000 0.000000 
0.000000 0.000000 0.000000 
0.000000 0.000000 0.000000 

-0.000000 -0.000000 0.000000 
0.000000 0.000000 0.000000 
0.000000 0.000000 0.000000 

-0.000000 -0.000000 0.000000 
0.000000 -0.000000 0.000000 
0.000000 0.000000 0.000000 

-0.000000 -0.000000 0.000000 
0.000000 -0.000000 0.000000 
0.000000 0.000000 0.000000 

0.000000 -0.000000 0.000000 
0.000000 -0.000000 0.000000 
0.000000 0.000000 0.000000 

0.000000 0.000000 0.000000 
0.000000 0.000000 0.000000 
0.000000 0.000000 0.000000 

0.000000 -0.000000 0.000000 
0.000000 -0.000000 0.000000 
0.000000 0.000000 0.000000 

-0.000000 -0.000000 0.000000 
0.000000 -0.000000 0.000000 
0.000000 0.000000 0.000000 

-0.000000 -0.000000 0.000000 
0.000000 -0.000000 0.000000 
0.000000 0.000000 0.000000 

0.000000 -0.000000 0.000000 
0.000000 -0.000000 0.000000 
0.000000 0.000000 0.000000 

0.000000 -0.000000 0.000000 
0.000000 -0.000000 0.000000 
0.000000 0.000000 0.000000 

-0.000000 -0.000000 0.000000 
0.000000 -0.000000 0.000000 
0.000000 0.000000 0.000000 

0.000000 -0.000000 0.000000 
0.000000 -0.000000 0.000000 
0.000000 0.000000 0.000000 

0.000000 0.000000 0.000000 
0.000000 0.000000 0.000000 
0.000000 0.000000 0.000000 

0.000000 0.000000 0.000000 
0.000000 0.000000 0.000000 
0.000000 0.000000 0.000000 

-0.000000 0.000000 0.000000 
0.000000 0.000000 0.000000 
0.000000 0.000000 0.000000 

-0.000000 -0.000000 0.000000 
0.000000 -0.000000 0.000000 
0.000000 0.000000 0.000000 

0.000000 -0.000000 0.000000 
0.000000 0.000000 0.000000 
0.000000 0.000000 0.000000 

0.000000 -0.000000 0.000000 
0.000000 0.000000 0.000000 
0.000000 0.000000 0.000000 

0.000000 0.000000 0.000000 
0.000000 0.000000 0.000000 
0.000000 0.000000 0.000000 

-0.000000 0.000000 0.000000 
0.000000 -0.000000 0.000000 
0.000000 0.000000 0.000000 

-0.000000 0.000000 0.000000 
0.000000 0.000000 0.000000 
0.000000 0.000000 0.000000 

0.000000 0.000000 0.000000 
0.000000 0.000000 0.000000 
0.000000 0.000000 0.000000 

0.000000 0.000000 0.000000 
0.000000 0.000000 0.000000 
0.000000 0.000000 0.000000 

-0.000000 0.000000 0.000000 
0.000000 -0.000000 0.000000 
0.000000 0.000000 0.000000 

0.000000 0.000000 0.000000 
0.000000 0.000000 0.000000 
0.000000 0.000000 0.000000 

0.000000 -0.000000 0.000000 
0.000000 0.000000 0.000000 
0.000000 0.000000 0.000000 

-0.000000 -0.000000 0.000000 
0.000000 -0.000000 0.000000 
0.000000 0.000000 0.000000 

-0.000000 0.000000 0.000000 
0.000000 0.000000 0.000000 
0.000000 0.000000 0.000000 

-0.000000 0.000000 0.000000 
0.000000 -0.000000 0.000000 
0.000000 0.000000 0.000000 

-0.000000 0.000000 0.000000 
0.000000 -0.000000 0.000000 
0.000000 0.000000 0.000000 

-0.000000 0.000000 0.000000 
0.000000 -0.000000 0.000000 
0.000000 0.000000 0.000000 

-0.000000 -0.000000 0.000000 
0.000000 0.000000 0.000000 
0.000000 0.000000 0.000000 

0.000000 -0.000000 0.000000 
0.000000 0.000000 0.000000 
0.000000 0.000000 0.000000 

-0.000000 0.000000 0.000000 
0.000000 -0.000000 0.000000 
0.000000 0.000000 0.000000 

-0.000000 0.000000 0.000000 
0.000000 -0.000000 0.000000 
0.000000 0.000000 0.000000 

-0.000000 -0.000000 0.000000 
0.000000 -0.000000 0.000000 
0.000000 0.000000 0.000000 

-0.000000 0.000000 0.000000 
0.000000 -0.000000 0.000000 
0.000000 0.000000 0.000000 

-0.000000 -0.000000 0.000000 
0.000000 -0.000000 0.000000 
0.000000 0.000000 0.000000 

-0.000000 -0.000000 0.000000 
0.000000 -0.000000 0.000000 
0.000000 0.000000 0.000000 

-0.000000 -0.000000 0.000000 
0.000000 -0.000000 0.000000 
0.000000 0.000000 0.000000 

0.000000 -0.000000 0.000000 
0.000000 0.000000 0.000000 
0.000000 0.000000 0.000000 

0.000000 -0.000000 0.000000 
0.000000 -0.000000 0.000000 
0.000000 0.000000 0.000000 

0.000000 -0.000000 0.000000 
0.000000 0.000000 0.000000 
0.000000 0.000000 0.000000 

0.000000 0.000000 0.000000 
0.000000 0.000000 0.000000 
0.000000 0.000000 0.000000 

0.000000 -0.000000 0.000000 
0.000000 0.000000 0.000000 
0.000000 0.000000 0.000000 

0.000000 0.000000 0.000000 
0.000000 0.000000 0.000000 
0.000000 0.000000 0.000000 

0.000000 0.000000 0.000000 
0.000000 0.000000 0.000000 
0.000000 0.000000 0.000000 

0.000000 -0.000000 0.000000 
0.000000 0.000000 0.000000 
0.000000 0.000000 0.000000 

0.000000 -0.000000 0.000000 
0.000000 0.000000 0.000000 
0.000000 0.000000 0.000000 

-0.000000 0.000000 0.000000 
0.000000 -0.000000 0.000000 
0.000000 0.000000 0.000000 

0.000000 0.000000 0.000000 
0.000000 0.000000 0.000000 
0.000000 0.000000 0.000000 

-0.000000 0.000000 0.000000 
0.000000 -0.000000 0.000000 
0.000000 0.000000 0.000000 

-0.000000 0.000000 0.000000 
0.000000 0.000000 0.000000 
0.000000 0.000000 0.000000 

0.000000 -0.000000 0.000000 
0.000000 -0.000000 0.000000 
0.000000 0.000000 0.000000 

-0.000000 -0.000000 0.000000 
0.000000 -0.000000 0.000000 
0.000000 0.000000 0.000000 

0.000000 -0.000000 0.000000 
0.000000 0.000000 0.000000 
0.000000 0.000000 0.000000 

0.000000 -0.000000 0.000000 
0.000000 0.000000 0.000000 
0.000000 0.000000 0.000000 

-0.000000 -0.000000 0.000000 
0.000000 -0.000000 0.000000 
0.000000 0.000000 0.000000 

-0.000000 0.000000 0.000000 
0.000000 -0.000000 0.000000 
0.000000 0.000000 0.000000 

-0.000000 0.000000 0.000000 
0.000000 -0.000000 0.000000 
0.000000 0.000000 0.000000 

-0.000000 0.000000 0.000000 
0.000000 -0.000000 0.000000 
0.000000 0.000000 0.000000 

0.000000 -0.000000 0.000000 
0.000000 0.000000 0.000000 
0.000000 0.000000 0.000000 

0.000000 -0.000000 0.000000 
0.000000 0.000000 0.000000 
0.000000 0.000000 0.000000 

0.000000 -0.000000 0.000000 
0.000000 0.000000 0.000000 
0.000000 0.000000 0.000000 

0.000000 0.000000 0.000000 
0.000000 0.000000 0.000000 
0.000000 0.000000 0.000000 

0.000000 -0.000000 0.000000 
0.000000 0.000000 0.000000 
0.000000 0.000000 0.000000 

0.000000 0.000000 0.000000 
0.000000 0.000000 0.000000 
0.000000 0.000000 0.000000 

TENSORS STRAIN float 
0.000000 -0.000000 0.000000 
0.000000 0.000000 0.000000 
0.000000 0.000000 0.000000 

-0.000000 0.000000 0.000000 
0.000000 0.000000 0.000000 
0.000000 0.000000 0.000000 

0.000000 -0.000000 0.000000 
0.000000 -0.000000 0.000000 
0.000000 0.000000 0.000000 

0.000000 -0.000000 0.000000 
0.000000 0.000000 0.000000 
0.000000 0.000000 0.000000 

-0.000000 0.000000 0.000000 
0.000000 0.000000 0.000000 
0.000000 0.000000 0.000000 

-0.000000 0.000000 0.000000 
0.000000 0.000000 0.000000 
0.000000 0.000000 0.000000 

-0.000000 0.000000 0.000000 
0.000000 -0.000000 0.000000 
0.000000 0.000000 0.000000 

0.000000 0.000000 0.000000 
0.000000 -0.000000 0.000000 
0.000000 0.000000 0.000000 

0.000000 0.000000 0.000000 
0.000000 -0.000000 0.000000 
0.000000 0.000000 0.000000 

0.000000 0.000000 0.000000 
0.000000 -0.000000 0.000000 
0.000000 0.000000 0.000000 

-0.000000 0.000000 0.000000 
0.000000 -0.000000 0.000000 
0.000000 0.000000 0.000000 

-0.000000 -0.000000 0.000000 
0.000000 -0.000000 0.000000 
0.000000 0.000000 0.000000 

-0.000000 0.000000 0.000000 
0.000000 -0.000000 0.000000 
0.000000 0.000000 0.000000 

-0.000000 -0.000000 0.000000 
0.000000 0.000000 0.000000 
0.000000 0.000000 0.000000 

-0.000000 0.000000 0.000000 
0.000000 0.000000 0.000000 
0.000000 0.000000 0.000000 

-0.000000 0.000000 0.000000 
0.000000 -0.000000 0.000000 
0.000000 0.000000 0.000000 

0.000000 -0.000000 0.000000 
0.000000 -0.000000 0.000000 
0.000000 0.000000 0.000000 

0.000000 0.000000 0.000000 
0.000000 0.000000 0.000000 
0.000000 0.000000 0.000000 

-0.000000 0.000000 0.000000 
0.000000 0.000000 0.000000 
0.000000 0.000000 0.000000 

0.000000 -0.000000 0.000000 
0.000000 -0.000000 0.000000 
0.000000 0.000000 0.000000 

0.000000 -0.000000 0.000000 
0.000000 0.000000 0.000000 
0.000000 0.000000 0.000000 

0.000000 0.000000 0.000000 
0.000000 -0.000000 0.000000 
0.000000 0.000000 0.000000 

0.000000 -0.000000 0.000000 
0.000000 -0.000000 0.000000 
0.000000 0.000000 0.000000 

-0.000000 0.000000 0.000000 
0.000000 0.000000 0.000000 
0.000000 0.000000 0.000000 

-0.000000 0.000000 0.000000 
0.000000 0.000000 0.000000 
0.000000 0.000000 0.000000 

-0.000000 -0.000000 0.000000 
0.000000 -0.000000 0.000000 
0.000000 0.000000 0.000000 

-0.000000 -0.000000 0.000000 
0.000000 0.000000 0.000000 
0.000000 0.000000 0.000000 

-0.000000 0.000000 0.000000 
0.000000 0.000000 0.000000 
0.000000 0.000000 0.000000 

-0.000000 0.000000 0.000000 
0.000000 -0.000000 0.000000 
0.000000 0.000000 0.000000 

0.000000 0.000000 0.000000 
0.000000 -0.000000 0.000000 
0.000000 0.000000 0.000000 

-0.000000 -0.000000 0.000000 
0.000000 -0.000000 0.000000 
0.000000 0.000000 0.000000 

-0.000000 0.000000 0.000000 
0.000000 -0.000000 0.000000 
0.000000 0.000000 0.000000 

-0.000000 0.000000 0.000000 
0.000000 0.000000 0.000000 
0.000000 0.000000 0.000000 

-0.000000 0.000000 0.000000 
0.000000 -0.000000 0.000000 
0.000000 0.000000 0.000000 

0.000000 0.000000 0.000000 
0.000000 -0.000000 0.000000 
0.000000 0.000000 0.000000 

0.000000 0.000000 0.000000 
0.000000 -0.000000 0.000000 
0.000000 0.000000 0.000000 

-0.000000 -0.000000 0.000000 
0.000000 -0.000000 0.000000 
0.000000 0.000000 0.000000 

-0.000000 -0.000000 0.000000 
0.000000 -0.000000 0.000000 
0.000000 0.000000 0.000000 

0.000000 0.000000 0.000000 
0.000000 -0.000000 0.000000 
0.000000 0.000000 0.000000 

0.000000 0.000000 0.000000 
0.000000 0.000000 0.000000 
0.000000 0.000000 0.000000 

0.000000 0.000000 0.000000 
0.000000 0.000000 0.000000 
0.000000 0.000000 0.000000 

0.000000 0.000000 0.000000 
0.000000 -0.000000 0.000000 
0.000000 0.000000 0.000000 

0.000000 0.000000 0.000000 
0.000000 -0.000000 0.000000 
0.000000 0.000000 0.000000 

0.000000 0.000000 0.000000 
0.000000 0.000000 0.000000 
0.000000 0.000000 0.000000 

0.000000 -0.000000 0.000000 
0.000000 -0.000000 0.000000 
0.000000 0.000000 0.000000 

-0.000000 0.000000 0.000000 
0.000000 -0.000000 0.000000 
0.000000 0.000000 0.000000 

-0.000000 0.000000 0.000000 
0.000000 -0.000000 0.000000 
0.000000 0.000000 0.000000 

0.000000 0.000000 0.000000 
0.000000 -0.000000 0.000000 
0.000000 0.000000 0.000000 

0.000000 0.000000 0.000000 
0.000000 0.000000 0.000000 
0.000000 0.000000 0.000000 

0.000000 0.000000 0.000000 
0.000000 0.000000 0.000000 
0.000000 0.000000 0.000000 

-0.000000 -0.000000 0.000000 
0.000000 0.000000 0.000000 
0.000000 0.000000 0.000000 

-0.000000 -0.000000 0.000000 
0.000000 0.000000 0.000000 
0.000000 0.000000 0.000000 

-0.000000 -0.000000 0.000000 
0.000000 -0.000000 0.000000 
0.000000 0.000000 0.000000 

-0.000000 -0.000000 0.000000 
0.000000 -0.000000 0.000000 
0.000000 0.000000 0.000000 

0.000000 -0.000000 0.000000 
0.000000 0.000000 0.000000 
0.000000 0.000000 0.000000 

-0.000000 -0.000000 0.000000 
0.000000 -0.000000 0.000000 
0.000000 0.000000 0.000000 

-0.000000 -0.000000 0.000000 
0.000000 0.000000 0.000000 
0.000000 0.000000 0.000000 

-0.000000 -0.000000 0.000000 
0.000000 0.000000 0.000000 
0.000000 0.000000 0.000000 

0.000000 -0.000000 0.000000 
0.000000 -0.000000 0.000000 
0.000000 0.000000 0.000000 

0.000000 0.000000 0.000000 
0.000000 -0.000000 0.000000 
0.000000 0.000000 0.000000 

0.000000 0.000000 0.000000 
0.000000 -0.000000 0.000000 
0.000000 0.000000 0.000000 

0.000000 0.000000 0.000000 
0.000000 -0.000000 0.000000 
0.000000 0.000000 0.000000 

0.000000 -0.000000 0.000000 
0.000000 0.000000 0.000000 
0.000000 0.000000 0.000000 

0.000000 -0.000000 0.000000 
0.000000 -0.000000 0.000000 
0.000000 0.000000 0.000000 

0.000000 0.000000 0.000000 
0.000000 -0.000000 0.000000 
0.000000 0.000000 0.000000 

0.000000 0.000000 0.000000 
0.000000 0.000000 0.000000 
0.000000 0.000000 0.000000 

0.000000 0.000000 0.000000 
0.000000 0.000000 0.000000 
0.000000 0.000000 0.000000 

0.000000 0.000000 0.000000 
0.000000 -0.000000 0.000000 
0.000000 0.000000 0.000000 

0.000000 0.000000 0.000000 
0.000000 -0.000000 0.000000 
0.000000 0.000000 0.000000 

0.000000 0.000000 0.000000 
0.000000 -0.000000 0.000000 
0.000000 0.000000 0.000000 

0.000000 0.000000 0.000000 
0.000000 -0.000000 0.000000 
0.000000 0.000000 0.000000 

0.000000 0.000000 0.000000 
0.000000 -0.000000 0.000000 
0.000000 0.000000 0.000000 

0.000000 0.000000 0.000000 
0.000000 -0.000000 0.000000 
0.000000 0.000000 0.000000 

0.000000 0.000000 0.000000 
0.000000 -0.000000 0.000000 
0.000000 0.000000 0.000000 

-0.000000 0.000000 0.000000 
0.000000 -0.000000 0.000000 
0.000000 0.000000 0.000000 

-0.000000 -0.000000 0.000000 
0.000000 -0.000000 0.000000 
0.000000 0.000000 0.000000 

-0.000000 -0.000000 0.000000 
0.000000 0.000000 0.000000 
0.000000 0.000000 0.000000 

-0.000000 -0.000000 0.000000 
0.000000 0.000000 0.000000 
0.000000 0.000000 0.000000 

-0.000000 -0.000000 0.000000 
0.000000 0.000000 0.000000 
0.000000 0.000000 0.000000 

-0.000000 -0.000000 0.000000 
0.000000 0.000000 0.000000 
0.000000 0.000000 0.000000 

-0.000000 -0.000000 0.000000 
0.000000 0.000000 0.000000 
0.000000 0.000000 0.000000 

-0.000000 -0.000000 0.000000 
0.000000 -0.000000 0.000000 
0.000000 0.000000 0.000000 

-0.000000 -0.000000 0.000000 
0.000000 0.000000 0.000000 
0.000000 0.000000 0.000000 

0.000000 -0.000000 0.000000 
0.000000 0.000000 0.000000 
0.000000 0.000000 0.000000 

0.000000 -0.000000 0.000000 
0.000000 -0.000000 0.000000 
0.000000 0.000000 0.000000 

0.000000 -0.000000 0.000000 
0.000000 -0.000000 0.000000 
0.000000 0.000000 0.000000 

-0.000000 -0.000000 0.000000 
0.000000 0.000000 0.000000 
0.000000 0.000000 0.000000 

-0.000000 -0.000000 0.000000 
0.000000 -0.000000 0.000000 
0.000000 0.000000 0.000000 

-0.000000 -0.000000 0.000000 
0.000000 -0.000000 0.000000 
0.000000 0.000000 0.000000 

0.000000 -0.000000 0.000000 
0.000000 -0.000000 0.000000 
0.000000 0.000000 0.000000 

0.000000 0.000000 0.000000 
0.000000 -0.000000 0.000000 
0.000000 0.000000 0.000000 

0.000000 0.000000 0.000000 
0.000000 -0.000000 0.000000 
0.000000 0.000000 0.000000 

0.000000 0.000000 0.000000 
0.000000 -0.000000 0.000000 
0.000000 0.000000 0.000000 

0.000000 0.000000 0.000000 
0.000000 -0.000000 0.000000 
0.000000 0.000000 0.000000 

0.000000 -0.000000 0.000000 
0.000000 -0.000000 0.000000 
0.000000 0.000000 0.000000 

0.000000 0.000000 0.000000 
0.000000 0.000000 0.000000 
0.000000 0.000000 0.000000 

0.000000 0.000000 0.000000 
0.000000 0.000000 0.000000 
0.000000 0.000000 0.000000 

0.000000 -0.000000 0.000000 
0.000000 0.000000 0.000000 
0.000000 0.000000 0.000000 

0.000000 0.000000 0.000000 
0.000000 -0.000000 0.000000 
0.000000 0.000000 0.000000 

0.000000 -0.000000 0.000000 
0.000000 -0.000000 0.000000 
0.000000 0.000000 0.000000 

-0.000000 -0.000000 0.000000 
0.000000 -0.000000 0.000000 
0.000000 0.000000 0.000000 

-0.000000 0.000000 0.000000 
0.000000 -0.000000 0.000000 
0.000000 0.000000 0.000000 

-0.000000 -0.000000 0.000000 
0.000000 -0.000000 0.000000 
0.000000 0.000000 0.000000 

-0.000000 -0.000000 0.000000 
0.000000 0.000000 0.000000 
0.000000 0.000000 0.000000 

-0.000000 0.000000 0.000000 
0.000000 0.000000 0.000000 
0.000000 0.000000 0.000000 

-0.000000 -0.000000 0.000000 
0.000000 -0.000000 0.000000 
0.000000 0.000000 0.000000 

-0.000000 -0.000000 0.000000 
0.000000 0.000000 0.000000 
0.000000 0.000000 0.000000 

-0.000000 -0.000000 0.000000 
0.000000 0.000000 0.000000 
0.000000 0.000000 0.000000 

-0.000000 -0.000000 0.000000 
0.000000 0.000000 0.000000 
0.000000 0.000000 0.000000 

0.000000 -0.000000 0.000000 
0.000000 -0.000000 0.000000 
0.000000 0.000000 0.000000 

0.000000 -0.000000 0.000000 
0.000000 -0.000000 0.000000 
0.000000 0.000000 0.000000 

0.000000 -0.000000 0.000000 
0.000000 -0.000000 0.000000 
0.000000 0.000000 0.000000 

0.000000 0.000000 0.000000 
0.000000 -0.000000 0.000000 
0.000000 0.000000 0.000000 

0.000000 -0.000000 0.000000 
0.000000 -0.000000 0.000000 
0.000000 0.000000 0.000000 

-0.000000 -0.000000 0.000000 
0.000000 0.000000 0.000000 
0.000000 0.000000 0.000000 

0.000000 -0.000000 0.000000 
0.000000 -0.000000 0.000000 
0.000000 0.000000 0.000000 

0.000000 -0.000000 0.000000 
0.000000 -0.000000 0.000000 
0.000000 0.000000 0.000000 

0.000000 -0.000000 0.000000 
0.000000 -0.000000 0.000000 
0.000000 0.000000 0.000000 

0.000000 -0.000000 0.000000 
0.000000 -0.000000 0.000000 
0.000000 0.000000 0.000000 

0.000000 -0.000000 0.000000 
0.000000 -0.000000 0.000000 
0.000000 0.000000 0.000000 

0.000000 0.000000 0.000000 
0.000000 0.000000 0.000000 
0.000000 0.000000 0.000000 

0.000000 0.000000 0.000000 
0.000000 -0.000000 0.000000 
0.000000 0.000000 0.000000 

-0.000000 0.000000 0.000000 
0.000000 0.000000 0.000000 
0.000000 0.000000 0.000000 

-0.000000 -0.000000 0.000000 
0.000000 0.000000 0.000000 
0.000000 0.000000 0.000000 

0.000000 -0.000000 0.000000 
0.000000 0.000000 0.000000 
0.000000 0.000000 0.000000 

-0.000000 -0.000000 0.000000 
0.000000 0.000000 0.000000 
0.000000 0.000000 0.000000 

-0.000000 0.000000 0.000000 
0.000000 0.000000 0.000000 
0.000000 0.000000 0.000000 

-0.000000 0.000000 0.000000 
0.000000 -0.000000 0.000000 
0.000000 0.000000 0.000000 

-0.000000 0.000000 0.000000 
0.000000 0.000000 0.000000 
0.000000 0.000000 0.000000 

0.000000 0.000000 0.000000 
0.000000 0.000000 0.000000 
0.000000 0.000000 0.000000 

-0.000000 0.000000 0.000000 
0.000000 0.000000 0.000000 
0.000000 0.000000 0.000000 

-0.000000 0.000000 0.000000 
0.000000 -0.000000 0.000000 
0.000000 0.000000 0.000000 

-0.000000 0.000000 0.000000 
0.000000 0.000000 0.000000 
0.000000 0.000000 0.000000 

-0.000000 -0.000000 0.000000 
0.000000 0.000000 0.000000 
0.000000 0.000000 0.000000 

-0.000000 -0.000000 0.000000 
0.000000 -0.000000 0.000000 
0.000000 0.000000 0.000000 

-0.000000 0.000000 0.000000 
0.000000 0.000000 0.000000 
0.000000 0.000000 0.000000 

-0.000000 0.000000 0.000000 
0.000000 0.000000 0.000000 
0.000000 0.000000 0.000000 

-0.000000 0.000000 0.000000 
0.000000 0.000000 0.000000 
0.000000 0.000000 0.000000 

-0.000000 0.000000 0.000000 
0.000000 -0.000000 0.000000 
0.000000 0.000000 0.000000 

-0.000000 -0.000000 0.000000 
0.000000 0.000000 0.000000 
0.000000 0.000000 0.000000 

-0.000000 -0.000000 0.000000 
0.000000 0.000000 0.000000 
0.000000 0.000000 0.000000 

0.000000 0.000000 0.000000 
0.000000 -0.000000 0.000000 
0.000000 0.000000 0.000000 

-0.000000 0.000000 0.000000 
0.000000 -0.000000 0.000000 
0.000000 0.000000 0.000000 

-0.000000 -0.000000 0.000000 
0.000000 -0.000000 0.000000 
0.000000 0.000000 0.000000 

-0.000000 0.000000 0.000000 
0.000000 -0.000000 0.000000 
0.000000 0.000000 0.000000 

-0.000000 -0.000000 0.000000 
0.000000 -0.000000 0.000000 
0.000000 0.000000 0.000000 

-0.000000 -0.000000 0.000000 
0.000000 -0.000000 0.000000 
0.000000 0.000000 0.000000 

-0.000000 -0.000000 0.000000 
0.000000 -0.000000 0.000000 
0.000000 0.000000 0.000000 

-0.000000 -0.000000 0.000000 
0.000000 0.000000 0.000000 
0.000000 0.000000 0.000000 

0.000000 -0.000000 0.000000 
0.000000 -0.000000 0.000000 
0.000000 0.000000 0.000000 

0.000000 -0.000000 0.000000 
0.000000 0.000000 0.000000 
0.000000 0.000000 0.000000 

0.000000 0.000000 0.000000 
0.000000 0.000000 0.000000 
0.000000 0.000000 0.000000 

0.000000 -0.000000 0.000000 
0.000000 0.000000 0.000000 
0.000000 0.000000 0.000000 

0.000000 0.000000 0.000000 
0.000000 0.000000 0.000000 
0.000000 0.000000 0.000000 

0.000000 0.000000 0.000000 
0.000000 0.000000 0.000000 
0.000000 0.000000 0.000000 

0.000000 -0.000000 0.000000 
0.000000 0.000000 0.000000 
0.000000 0.000000 0.000000 

0.000000 -0.000000 0.000000 
0.000000 0.000000 0.000000 
0.000000 0.000000 0.000000 

0.000000 0.000000 0.000000 
0.000000 -0.000000 0.000000 
0.000000 0.000000 0.000000 

0.000000 0.000000 0.000000 
0.000000 0.000000 0.000000 
0.000000 0.000000 0.000000 

-0.000000 0.000000 0.000000 
0.000000 -0.000000 0.000000 
0.000000 0.000000 0.000000 

-0.000000 0.000000 0.000000 
0.000000 0.000000 0.000000 
0.000000 0.000000 0.000000 

0.000000 -0.000000 0.000000 
0.000000 -0.000000 0.000000 
0.000000 0.000000 0.000000 

0.000000 -0.000000 0.000000 
0.000000 -0.000000 0.000000 
0.000000 0.000000 0.000000 

0.000000 -0.000000 0.000000 
0.000000 0.000000 0.000000 
0.000000 0.000000 0.000000 

0.000000 -0.000000 0.000000 
0.000000 0.000000 0.000000 
0.000000 0.000000 0.000000 

-0.000000 -0.000000 0.000000 
0.000000 -0.000000 0.000000 
0.000000 0.000000 0.000000 

-0.000000 0.000000 0.000000 
0.000000 -0.000000 0.000000 
0.000000 0.000000 0.000000 

-0.000000 0.000000 0.000000 
0.000000 -0.000000 0.000000 
0.000000 0.000000 0.000000 

0.000000 0.000000 0.000000 
0.000000 -0.000000 0.000000 
0.000000 0.000000 0.000000 

0.000000 -0.000000 0.000000 
0.000000 -0.000000 0.000000 
0.000000 0.000000 0.000000 

0.000000 -0.000000 0.000000 
0.000000 0.000000 0.000000 
0.000000 0.000000 0.000000 

0.000000 -0.000000 0.000000 
0.000000 0.000000 0.000000 
0.000000 0.000000 0.000000 

0.000000 0.000000 0.000000 
0.000000 0.000000 0.000000 
0.000000 0.000000 0.000000 

0.000000 -0.000000 0.000000 
0.000000 0.000000 0.000000 
0.000000 0.000000 0.000000 

0.000000 0.000000 0.000000 
0.000000 0.000000 0.000000 
0.000000 0.000000 0.000000 

