# vtk DataFile Version 3.0 
vtk output 
ASCII 
DATASET UNSTRUCTURED_GRID 
POINTS 175 float 
-0.026061 -1.778462 0.000000 
-0.106992 -1.710407 0.000000 
-0.054870 -1.718639 0.000000 
-0.028809 -1.672756 0.000000 
-0.186430 -1.646331 0.000000 
-0.137056 -1.648857 0.000000 
-0.114311 -1.595210 0.000000 
-0.058186 -1.610876 0.000000 
-0.029377 -1.570698 0.000000 
-0.265318 -1.583175 0.000000 
-0.217198 -1.583975 0.000000 
-0.196633 -1.526678 0.000000 
-0.143120 -1.535387 0.000000 
-0.116563 -1.488119 0.000000 
-0.058945 -1.507764 0.000000 
-0.029568 -1.469644 0.000000 
-0.344206 -1.520019 0.000000 
-0.296791 -1.520012 0.000000 
-0.278030 -1.460070 0.000000 
-0.225992 -1.465936 0.000000 
-0.201664 -1.413819 0.000000 
-0.145749 -1.427293 0.000000 
-0.117890 -1.382950 0.000000 
-0.059328 -1.405656 0.000000 
-0.029759 -1.368590 0.000000 
-0.058559 -1.819213 0.000000 
-0.162226 -1.840055 0.000000 
-0.123292 -1.804438 0.000000 
-0.142917 -1.755454 0.000000 
-0.261851 -1.862212 0.000000 
-0.229092 -1.825185 0.000000 
-0.256854 -1.773953 0.000000 
-0.209613 -1.739841 0.000000 
-0.223062 -1.692267 0.000000 
-0.360414 -1.884512 0.000000 
-0.329787 -1.847389 0.000000 
-0.361761 -1.795587 0.000000 
-0.321587 -1.759178 0.000000 
-0.341985 -1.708944 0.000000 
-0.290702 -1.676145 0.000000 
-0.302189 -1.629410 0.000000 
-0.458977 -1.906812 0.000000 
-0.429420 -1.869737 0.000000 
-0.464588 -1.817696 0.000000 
-0.427556 -1.780668 0.000000 
-0.453135 -1.729153 0.000000 
-0.407738 -1.693838 0.000000 
-0.425037 -1.644410 0.000000 
-0.370772 -1.612781 0.000000 
-0.381315 -1.566553 0.000000 
-0.046960 -1.870028 0.000000 
-0.095301 -1.964074 0.000000 
-0.098873 -1.911427 0.000000 
-0.149405 -1.896229 0.000000 
-0.140093 -2.055778 0.000000 
-0.148617 -2.007080 0.000000 
-0.205981 -1.996842 0.000000 
-0.203197 -1.938639 0.000000 
-0.248777 -1.919492 0.000000 
-0.184111 -2.146742 0.000000 
-0.194039 -2.099650 0.000000 
-0.254475 -2.092351 0.000000 
-0.257893 -2.038241 0.000000 
-0.309886 -2.022869 0.000000 
-0.303554 -1.962323 0.000000 
-0.347255 -1.942166 0.000000 
-0.228129 -2.237705 0.000000 
-0.238687 -2.191481 0.000000 
-0.301302 -2.186529 0.000000 
-0.307162 -2.134490 0.000000 
-0.363386 -2.122369 0.000000 
-0.362692 -2.064858 0.000000 
-0.412122 -2.047564 0.000000 
-0.403017 -1.985418 0.000000 
-0.445733 -1.964839 0.000000 
-0.000000 -1.892643 0.000000 
0.043388 -1.989073 0.000000 
-0.000000 -1.959041 0.000000 
-0.043388 -1.989073 0.000000 
0.087158 -2.081270 0.000000 
0.043769 -2.057572 0.000000 
-0.000000 -2.096037 0.000000 
-0.043769 -2.057572 0.000000 
-0.087158 -2.081270 0.000000 
0.130831 -2.172400 0.000000 
0.087824 -2.150801 0.000000 
0.044436 -2.193501 0.000000 
-0.000000 -2.162436 0.000000 
-0.044436 -2.193501 0.000000 
-0.087824 -2.150801 0.000000 
-0.130831 -2.172400 0.000000 
0.174505 -2.263529 0.000000 
0.131782 -2.242963 0.000000 
0.088871 -2.288830 0.000000 
0.044532 -2.260966 0.000000 
-0.000000 -2.297366 0.000000 
-0.044532 -2.260966 0.000000 
-0.088871 -2.288830 0.000000 
-0.131782 -2.242963 0.000000 
-0.174505 -2.263529 0.000000 
0.046960 -1.870028 0.000000 
0.149405 -1.896229 0.000000 
0.098873 -1.911427 0.000000 
0.095301 -1.964074 0.000000 
0.248777 -1.919492 0.000000 
0.203197 -1.938639 0.000000 
0.205981 -1.996842 0.000000 
0.148617 -2.007080 0.000000 
0.140093 -2.055778 0.000000 
0.347255 -1.942166 0.000000 
0.303554 -1.962323 0.000000 
0.309886 -2.022869 0.000000 
0.257893 -2.038241 0.000000 
0.254475 -2.092351 0.000000 
0.194039 -2.099650 0.000000 
0.184111 -2.146742 0.000000 
0.445733 -1.964839 0.000000 
0.403017 -1.985418 0.000000 
0.412122 -2.047564 0.000000 
0.362692 -2.064858 0.000000 
0.363386 -2.122369 0.000000 
0.307162 -2.134490 0.000000 
0.301302 -2.186529 0.000000 
0.238687 -2.191481 0.000000 
0.228129 -2.237705 0.000000 
0.058559 -1.819213 0.000000 
0.142917 -1.755454 0.000000 
0.123292 -1.804438 0.000000 
0.162226 -1.840055 0.000000 
0.223062 -1.692267 0.000000 
0.209613 -1.739841 0.000000 
0.256854 -1.773953 0.000000 
0.229092 -1.825185 0.000000 
0.261851 -1.862212 0.000000 
0.302189 -1.629410 0.000000 
0.290702 -1.676145 0.000000 
0.341985 -1.708944 0.000000 
0.321587 -1.759178 0.000000 
0.361761 -1.795587 0.000000 
0.329787 -1.847389 0.000000 
0.360414 -1.884512 0.000000 
0.381315 -1.566553 0.000000 
0.370772 -1.612781 0.000000 
0.425037 -1.644410 0.000000 
0.407738 -1.693838 0.000000 
0.453135 -1.729153 0.000000 
0.427556 -1.780668 0.000000 
0.464588 -1.817696 0.000000 
0.429420 -1.869737 0.000000 
0.458977 -1.906812 0.000000 
0.026061 -1.778462 0.000000 
0.028809 -1.672756 0.000000 
0.054870 -1.718639 0.000000 
0.106992 -1.710407 0.000000 
0.029377 -1.570698 0.000000 
0.058186 -1.610876 0.000000 
0.114311 -1.595210 0.000000 
0.137056 -1.648857 0.000000 
0.186430 -1.646331 0.000000 
0.029568 -1.469644 0.000000 
0.058945 -1.507764 0.000000 
0.116563 -1.488119 0.000000 
0.143120 -1.535387 0.000000 
0.196633 -1.526678 0.000000 
0.217198 -1.583975 0.000000 
0.265318 -1.583175 0.000000 
0.029759 -1.368590 0.000000 
0.059328 -1.405656 0.000000 
0.117890 -1.382950 0.000000 
0.145749 -1.427293 0.000000 
0.201664 -1.413819 0.000000 
0.225992 -1.465936 0.000000 
0.278030 -1.460070 0.000000 
0.296791 -1.520012 0.000000 
0.344206 -1.520019 0.000000 
CELLS 175 350 
1 0 
1 1 
1 2 
1 3 
1 4 
1 5 
1 6 
1 7 
1 8 
1 9 
1 10 
1 11 
1 12 
1 13 
1 14 
1 15 
1 16 
1 17 
1 18 
1 19 
1 20 
1 21 
1 22 
1 23 
1 24 
1 25 
1 26 
1 27 
1 28 
1 29 
1 30 
1 31 
1 32 
1 33 
1 34 
1 35 
1 36 
1 37 
1 38 
1 39 
1 40 
1 41 
1 42 
1 43 
1 44 
1 45 
1 46 
1 47 
1 48 
1 49 
1 50 
1 51 
1 52 
1 53 
1 54 
1 55 
1 56 
1 57 
1 58 
1 59 
1 60 
1 61 
1 62 
1 63 
1 64 
1 65 
1 66 
1 67 
1 68 
1 69 
1 70 
1 71 
1 72 
1 73 
1 74 
1 75 
1 76 
1 77 
1 78 
1 79 
1 80 
1 81 
1 82 
1 83 
1 84 
1 85 
1 86 
1 87 
1 88 
1 89 
1 90 
1 91 
1 92 
1 93 
1 94 
1 95 
1 96 
1 97 
1 98 
1 99 
1 100 
1 101 
1 102 
1 103 
1 104 
1 105 
1 106 
1 107 
1 108 
1 109 
1 110 
1 111 
1 112 
1 113 
1 114 
1 115 
1 116 
1 117 
1 118 
1 119 
1 120 
1 121 
1 122 
1 123 
1 124 
1 125 
1 126 
1 127 
1 128 
1 129 
1 130 
1 131 
1 132 
1 133 
1 134 
1 135 
1 136 
1 137 
1 138 
1 139 
1 140 
1 141 
1 142 
1 143 
1 144 
1 145 
1 146 
1 147 
1 148 
1 149 
1 150 
1 151 
1 152 
1 153 
1 154 
1 155 
1 156 
1 157 
1 158 
1 159 
1 160 
1 161 
1 162 
1 163 
1 164 
1 165 
1 166 
1 167 
1 168 
1 169 
1 170 
1 171 
1 172 
1 173 
1 174 
CELL_TYPES 175 
1 
1 
1 
1 
1 
1 
1 
1 
1 
1 
1 
1 
1 
1 
1 
1 
1 
1 
1 
1 
1 
1 
1 
1 
1 
1 
1 
1 
1 
1 
1 
1 
1 
1 
1 
1 
1 
1 
1 
1 
1 
1 
1 
1 
1 
1 
1 
1 
1 
1 
1 
1 
1 
1 
1 
1 
1 
1 
1 
1 
1 
1 
1 
1 
1 
1 
1 
1 
1 
1 
1 
1 
1 
1 
1 
1 
1 
1 
1 
1 
1 
1 
1 
1 
1 
1 
1 
1 
1 
1 
1 
1 
1 
1 
1 
1 
1 
1 
1 
1 
1 
1 
1 
1 
1 
1 
1 
1 
1 
1 
1 
1 
1 
1 
1 
1 
1 
1 
1 
1 
1 
1 
1 
1 
1 
1 
1 
1 
1 
1 
1 
1 
1 
1 
1 
1 
1 
1 
1 
1 
1 
1 
1 
1 
1 
1 
1 
1 
1 
1 
1 
1 
1 
1 
1 
1 
1 
1 
1 
1 
1 
1 
1 
1 
1 
1 
1 
1 
1 
1 
1 
1 
1 
1 
1 
POINT_DATA 175 
VECTORS X_GC float 
-0.026061 -1.778462 0.000000 
-0.106992 -1.710407 0.000000 
-0.054870 -1.718639 0.000000 
-0.028809 -1.672756 0.000000 
-0.186430 -1.646331 0.000000 
-0.137056 -1.648857 0.000000 
-0.114311 -1.595210 0.000000 
-0.058186 -1.610876 0.000000 
-0.029377 -1.570698 0.000000 
-0.265318 -1.583175 0.000000 
-0.217198 -1.583975 0.000000 
-0.196633 -1.526678 0.000000 
-0.143120 -1.535387 0.000000 
-0.116563 -1.488119 0.000000 
-0.058945 -1.507764 0.000000 
-0.029568 -1.469644 0.000000 
-0.344206 -1.520019 0.000000 
-0.296791 -1.520012 0.000000 
-0.278030 -1.460070 0.000000 
-0.225992 -1.465936 0.000000 
-0.201664 -1.413819 0.000000 
-0.145749 -1.427293 0.000000 
-0.117890 -1.382950 0.000000 
-0.059328 -1.405656 0.000000 
-0.029759 -1.368590 0.000000 
-0.058559 -1.819213 0.000000 
-0.162226 -1.840055 0.000000 
-0.123292 -1.804438 0.000000 
-0.142917 -1.755454 0.000000 
-0.261851 -1.862212 0.000000 
-0.229092 -1.825185 0.000000 
-0.256854 -1.773953 0.000000 
-0.209613 -1.739841 0.000000 
-0.223062 -1.692267 0.000000 
-0.360414 -1.884512 0.000000 
-0.329787 -1.847389 0.000000 
-0.361761 -1.795587 0.000000 
-0.321587 -1.759178 0.000000 
-0.341985 -1.708944 0.000000 
-0.290702 -1.676145 0.000000 
-0.302189 -1.629410 0.000000 
-0.458977 -1.906812 0.000000 
-0.429420 -1.869737 0.000000 
-0.464588 -1.817696 0.000000 
-0.427556 -1.780668 0.000000 
-0.453135 -1.729153 0.000000 
-0.407738 -1.693838 0.000000 
-0.425037 -1.644410 0.000000 
-0.370772 -1.612781 0.000000 
-0.381315 -1.566553 0.000000 
-0.046960 -1.870028 0.000000 
-0.095301 -1.964074 0.000000 
-0.098873 -1.911427 0.000000 
-0.149405 -1.896229 0.000000 
-0.140093 -2.055778 0.000000 
-0.148617 -2.007080 0.000000 
-0.205981 -1.996842 0.000000 
-0.203197 -1.938639 0.000000 
-0.248777 -1.919492 0.000000 
-0.184111 -2.146742 0.000000 
-0.194039 -2.099650 0.000000 
-0.254475 -2.092351 0.000000 
-0.257893 -2.038241 0.000000 
-0.309886 -2.022869 0.000000 
-0.303554 -1.962323 0.000000 
-0.347255 -1.942166 0.000000 
-0.228129 -2.237705 0.000000 
-0.238687 -2.191481 0.000000 
-0.301302 -2.186529 0.000000 
-0.307162 -2.134490 0.000000 
-0.363386 -2.122369 0.000000 
-0.362692 -2.064858 0.000000 
-0.412122 -2.047564 0.000000 
-0.403017 -1.985418 0.000000 
-0.445733 -1.964839 0.000000 
-0.000000 -1.892643 0.000000 
0.043388 -1.989073 0.000000 
-0.000000 -1.959041 0.000000 
-0.043388 -1.989073 0.000000 
0.087158 -2.081270 0.000000 
0.043769 -2.057572 0.000000 
-0.000000 -2.096037 0.000000 
-0.043769 -2.057572 0.000000 
-0.087158 -2.081270 0.000000 
0.130831 -2.172400 0.000000 
0.087824 -2.150801 0.000000 
0.044436 -2.193501 0.000000 
-0.000000 -2.162436 0.000000 
-0.044436 -2.193501 0.000000 
-0.087824 -2.150801 0.000000 
-0.130831 -2.172400 0.000000 
0.174505 -2.263529 0.000000 
0.131782 -2.242963 0.000000 
0.088871 -2.288830 0.000000 
0.044532 -2.260966 0.000000 
-0.000000 -2.297366 0.000000 
-0.044532 -2.260966 0.000000 
-0.088871 -2.288830 0.000000 
-0.131782 -2.242963 0.000000 
-0.174505 -2.263529 0.000000 
0.046960 -1.870028 0.000000 
0.149405 -1.896229 0.000000 
0.098873 -1.911427 0.000000 
0.095301 -1.964074 0.000000 
0.248777 -1.919492 0.000000 
0.203197 -1.938639 0.000000 
0.205981 -1.996842 0.000000 
0.148617 -2.007080 0.000000 
0.140093 -2.055778 0.000000 
0.347255 -1.942166 0.000000 
0.303554 -1.962323 0.000000 
0.309886 -2.022869 0.000000 
0.257893 -2.038241 0.000000 
0.254475 -2.092351 0.000000 
0.194039 -2.099650 0.000000 
0.184111 -2.146742 0.000000 
0.445733 -1.964839 0.000000 
0.403017 -1.985418 0.000000 
0.412122 -2.047564 0.000000 
0.362692 -2.064858 0.000000 
0.363386 -2.122369 0.000000 
0.307162 -2.134490 0.000000 
0.301302 -2.186529 0.000000 
0.238687 -2.191481 0.000000 
0.228129 -2.237705 0.000000 
0.058559 -1.819213 0.000000 
0.142917 -1.755454 0.000000 
0.123292 -1.804438 0.000000 
0.162226 -1.840055 0.000000 
0.223062 -1.692267 0.000000 
0.209613 -1.739841 0.000000 
0.256854 -1.773953 0.000000 
0.229092 -1.825185 0.000000 
0.261851 -1.862212 0.000000 
0.302189 -1.629410 0.000000 
0.290702 -1.676145 0.000000 
0.341985 -1.708944 0.000000 
0.321587 -1.759178 0.000000 
0.361761 -1.795587 0.000000 
0.329787 -1.847389 0.000000 
0.360414 -1.884512 0.000000 
0.381315 -1.566553 0.000000 
0.370772 -1.612781 0.000000 
0.425037 -1.644410 0.000000 
0.407738 -1.693838 0.000000 
0.453135 -1.729153 0.000000 
0.427556 -1.780668 0.000000 
0.464588 -1.817696 0.000000 
0.429420 -1.869737 0.000000 
0.458977 -1.906812 0.000000 
0.026061 -1.778462 0.000000 
0.028809 -1.672756 0.000000 
0.054870 -1.718639 0.000000 
0.106992 -1.710407 0.000000 
0.029377 -1.570698 0.000000 
0.058186 -1.610876 0.000000 
0.114311 -1.595210 0.000000 
0.137056 -1.648857 0.000000 
0.186430 -1.646331 0.000000 
0.029568 -1.469644 0.000000 
0.058945 -1.507764 0.000000 
0.116563 -1.488119 0.000000 
0.143120 -1.535387 0.000000 
0.196633 -1.526678 0.000000 
0.217198 -1.583975 0.000000 
0.265318 -1.583175 0.000000 
0.029759 -1.368590 0.000000 
0.059328 -1.405656 0.000000 
0.117890 -1.382950 0.000000 
0.145749 -1.427293 0.000000 
0.201664 -1.413819 0.000000 
0.225992 -1.465936 0.000000 
0.278030 -1.460070 0.000000 
0.296791 -1.520012 0.000000 
0.344206 -1.520019 0.000000 
VECTORS X_EC float 
0.338794 0.509237 0.000000 
-0.609100 -0.409512 0.000000 
0.713312 -0.298371 0.000000 
0.374519 -0.917800 0.000000 
0.423588 0.725469 0.000000 
-0.218274 0.759573 0.000000 
-0.513962 0.035334 0.000000 
0.756418 0.246820 0.000000 
0.381900 -0.295572 0.000000 
-0.550868 -0.127134 0.000000 
0.823577 -0.116338 0.000000 
0.556234 -0.889843 0.000000 
-0.139443 -0.772274 0.000000 
-0.484677 0.589602 0.000000 
0.766286 0.854817 0.000000 
0.384386 0.340197 0.000000 
0.474677 -0.979737 0.000000 
-0.141715 -0.979834 0.000000 
-0.385608 0.210938 0.000000 
0.937896 0.290134 0.000000 
0.621631 -0.413446 0.000000 
-0.105264 -0.231547 0.000000 
-0.467428 -0.830173 0.000000 
0.771260 -0.523645 0.000000 
0.386873 0.975966 0.000000 
0.761262 -0.940629 0.000000 
0.108942 -0.659252 0.000000 
-0.397202 0.859909 0.000000 
-0.142083 0.198633 0.000000 
-0.595936 -0.360141 0.000000 
0.978194 -0.860007 0.000000 
-0.660903 0.448368 0.000000 
0.724964 -0.012152 0.000000 
0.899809 -0.654401 0.000000 
0.685384 -0.059089 0.000000 
0.287229 -0.560248 0.000000 
0.702895 0.740424 0.000000 
0.180633 0.248905 0.000000 
0.445811 -0.429254 0.000000 
-0.220880 -0.872041 0.000000 
-0.071546 0.497034 0.000000 
-0.033296 0.241963 0.000000 
-0.417537 -0.258547 0.000000 
0.039645 -0.961109 0.000000 
-0.441768 0.539020 0.000000 
-0.109248 -0.156431 0.000000 
-0.699407 -0.633187 0.000000 
-0.474522 0.699534 0.000000 
0.820030 0.272541 0.000000 
0.957100 -0.351531 0.000000 
0.610485 -0.254622 0.000000 
-0.761092 -0.985003 0.000000 
-0.714655 0.304260 0.000000 
-0.057734 0.099092 0.000000 
-0.178789 0.253001 0.000000 
-0.067979 -0.404425 0.000000 
0.677748 -0.542628 0.000000 
0.641556 0.671627 0.000000 
-0.765897 0.413148 0.000000 
0.393446 -0.518990 0.000000 
0.522510 0.845280 0.000000 
-0.691820 0.746736 0.000000 
-0.647393 0.016254 0.000000 
0.028512 -0.191273 0.000000 
-0.053800 0.991367 0.000000 
0.514316 0.719236 0.000000 
0.965681 0.709019 0.000000 
-0.897068 0.084991 0.000000 
-0.083078 0.018138 0.000000 
-0.006893 -0.684387 0.000000 
0.724017 -0.848020 0.000000 
0.714996 0.375577 0.000000 
-0.642413 0.142119 0.000000 
-0.760780 -0.696861 0.000000 
-0.205471 -0.974677 0.000000 
0.000000 0.050679 0.000000 
-0.564049 -0.647508 0.000000 
0.000000 0.947056 0.000000 
0.564049 -0.647508 0.000000 
0.866949 0.597147 0.000000 
-0.569003 0.277216 0.000000 
0.000000 0.796504 0.000000 
0.569003 0.277216 0.000000 
-0.866949 0.597147 0.000000 
0.299194 -0.172602 0.000000 
0.858290 -0.464186 0.000000 
-0.577662 0.112259 0.000000 
0.000000 -0.307119 0.000000 
0.577662 0.112259 0.000000 
-0.858290 -0.464186 0.000000 
-0.299194 -0.172602 0.000000 
-0.268560 -0.942352 0.000000 
0.286830 0.780006 0.000000 
0.844677 -0.600796 0.000000 
-0.578910 -0.976959 0.000000 
0.000000 -0.485555 0.000000 
0.578910 -0.976959 0.000000 
-0.844677 -0.600796 0.000000 
-0.286830 0.780006 0.000000 
0.268560 -0.942352 0.000000 
-0.610485 -0.254622 0.000000 
0.057734 0.099092 0.000000 
0.714655 0.304260 0.000000 
0.761092 -0.985003 0.000000 
0.765897 0.413148 0.000000 
-0.641556 0.671627 0.000000 
-0.677748 -0.542628 0.000000 
0.067979 -0.404425 0.000000 
0.178789 0.253001 0.000000 
-0.514316 0.719236 0.000000 
0.053800 0.991367 0.000000 
-0.028512 -0.191273 0.000000 
0.647393 0.016254 0.000000 
0.691820 0.746736 0.000000 
-0.522510 0.845280 0.000000 
-0.393446 -0.518990 0.000000 
0.205471 -0.974677 0.000000 
0.760780 -0.696861 0.000000 
0.642413 0.142119 0.000000 
-0.714996 0.375577 0.000000 
-0.724017 -0.848020 0.000000 
0.006894 -0.684387 0.000000 
0.083078 0.018138 0.000000 
0.897068 0.084991 0.000000 
-0.965681 0.709019 0.000000 
-0.761262 -0.940629 0.000000 
0.142083 0.198633 0.000000 
0.397202 0.859909 0.000000 
-0.108942 -0.659252 0.000000 
-0.899809 -0.654401 0.000000 
-0.724964 -0.012152 0.000000 
0.660903 0.448368 0.000000 
-0.978194 -0.860007 0.000000 
0.595936 -0.360141 0.000000 
0.071546 0.497034 0.000000 
0.220880 -0.872041 0.000000 
-0.445811 -0.429254 0.000000 
-0.180633 0.248905 0.000000 
-0.702895 0.740424 0.000000 
-0.287229 -0.560248 0.000000 
-0.685384 -0.059089 0.000000 
-0.957100 -0.351531 0.000000 
-0.820030 0.272541 0.000000 
0.474522 0.699534 0.000000 
0.699407 -0.633187 0.000000 
0.109248 -0.156431 0.000000 
0.441768 0.539020 0.000000 
-0.039645 -0.961109 0.000000 
0.417537 -0.258547 0.000000 
0.033296 0.241963 0.000000 
-0.338794 0.509237 0.000000 
-0.374519 -0.917800 0.000000 
-0.713312 -0.298371 0.000000 
0.609100 -0.409512 0.000000 
-0.381900 -0.295572 0.000000 
-0.756418 0.246820 0.000000 
0.513962 0.035334 0.000000 
0.218274 0.759573 0.000000 
-0.423588 0.725469 0.000000 
-0.384386 0.340197 0.000000 
-0.766286 0.854817 0.000000 
0.484677 0.589602 0.000000 
0.139443 -0.772274 0.000000 
-0.556234 -0.889843 0.000000 
-0.823577 -0.116338 0.000000 
0.550868 -0.127134 0.000000 
-0.386873 0.975966 0.000000 
-0.771260 -0.523645 0.000000 
0.467428 -0.830173 0.000000 
0.105264 -0.231547 0.000000 
-0.621631 -0.413446 0.000000 
-0.937896 0.290134 0.000000 
0.385608 0.210938 0.000000 
0.141715 -0.979834 0.000000 
-0.474677 -0.979737 0.000000 
CELL_DATA 175 
SCALARS MASS float 
LOOKUP_TABLE default 
0.078183 
0.086427 
0.094672 
0.086427 
0.088131 
0.092111 
0.085854 
0.092111 
0.088131 
0.088705 
0.091000 
0.086983 
0.091556 
0.086983 
0.091000 
0.088705 
0.089278 
0.091574 
0.089278 
0.092722 
0.089278 
0.092722 
0.089278 
0.091574 
0.089278 
0.078183 
0.086427 
0.094672 
0.086427 
0.088131 
0.092111 
0.085854 
0.092111 
0.088131 
0.088705 
0.091000 
0.086983 
0.091556 
0.086983 
0.091000 
0.088705 
0.089278 
0.091574 
0.089278 
0.092722 
0.089278 
0.092722 
0.089278 
0.091574 
0.089278 
0.078183 
0.086427 
0.094672 
0.086427 
0.088131 
0.092111 
0.085854 
0.092111 
0.088131 
0.088705 
0.091000 
0.086983 
0.091556 
0.086983 
0.091000 
0.088705 
0.089278 
0.091574 
0.089278 
0.092722 
0.089278 
0.092722 
0.089278 
0.091574 
0.089278 
0.078183 
0.086427 
0.094672 
0.086427 
0.088131 
0.092111 
0.085854 
0.092111 
0.088131 
0.088705 
0.091000 
0.086983 
0.091556 
0.086983 
0.091000 
0.088705 
0.089278 
0.091574 
0.089278 
0.092722 
0.089278 
0.092722 
0.089278 
0.091574 
0.089278 
0.078183 
0.086427 
0.094672 
0.086427 
0.088131 
0.092111 
0.085854 
0.092111 
0.088131 
0.088705 
0.091000 
0.086983 
0.091556 
0.086983 
0.091000 
0.088705 
0.089278 
0.091574 
0.089278 
0.092722 
0.089278 
0.092722 
0.089278 
0.091574 
0.089278 
0.078183 
0.086427 
0.094672 
0.086427 
0.088131 
0.092111 
0.085854 
0.092111 
0.088131 
0.088705 
0.091000 
0.086983 
0.091556 
0.086983 
0.091000 
0.088705 
0.089278 
0.091574 
0.089278 
0.092722 
0.089278 
0.092722 
0.089278 
0.091574 
0.089278 
0.078183 
0.086427 
0.094672 
0.086427 
0.088131 
0.092111 
0.085854 
0.092111 
0.088131 
0.088705 
0.091000 
0.086983 
0.091556 
0.086983 
0.091000 
0.088705 
0.089278 
0.091574 
0.089278 
0.092722 
0.089278 
0.092722 
0.089278 
0.091574 
0.089278 
SCALARS MASS float 
LOOKUP_TABLE default 
0.078183 
0.086427 
0.094672 
0.086427 
0.088131 
0.092111 
0.085854 
0.092111 
0.088131 
0.088705 
0.091000 
0.086983 
0.091556 
0.086983 
0.091000 
0.088705 
0.089278 
0.091574 
0.089278 
0.092722 
0.089278 
0.092722 
0.089278 
0.091574 
0.089278 
0.078183 
0.086427 
0.094672 
0.086427 
0.088131 
0.092111 
0.085854 
0.092111 
0.088131 
0.088705 
0.091000 
0.086983 
0.091556 
0.086983 
0.091000 
0.088705 
0.089278 
0.091574 
0.089278 
0.092722 
0.089278 
0.092722 
0.089278 
0.091574 
0.089278 
0.078183 
0.086427 
0.094672 
0.086427 
0.088131 
0.092111 
0.085854 
0.092111 
0.088131 
0.088705 
0.091000 
0.086983 
0.091556 
0.086983 
0.091000 
0.088705 
0.089278 
0.091574 
0.089278 
0.092722 
0.089278 
0.092722 
0.089278 
0.091574 
0.089278 
0.078183 
0.086427 
0.094672 
0.086427 
0.088131 
0.092111 
0.085854 
0.092111 
0.088131 
0.088705 
0.091000 
0.086983 
0.091556 
0.086983 
0.091000 
0.088705 
0.089278 
0.091574 
0.089278 
0.092722 
0.089278 
0.092722 
0.089278 
0.091574 
0.089278 
0.078183 
0.086427 
0.094672 
0.086427 
0.088131 
0.092111 
0.085854 
0.092111 
0.088131 
0.088705 
0.091000 
0.086983 
0.091556 
0.086983 
0.091000 
0.088705 
0.089278 
0.091574 
0.089278 
0.092722 
0.089278 
0.092722 
0.089278 
0.091574 
0.089278 
0.078183 
0.086427 
0.094672 
0.086427 
0.088131 
0.092111 
0.085854 
0.092111 
0.088131 
0.088705 
0.091000 
0.086983 
0.091556 
0.086983 
0.091000 
0.088705 
0.089278 
0.091574 
0.089278 
0.092722 
0.089278 
0.092722 
0.089278 
0.091574 
0.089278 
0.078183 
0.086427 
0.094672 
0.086427 
0.088131 
0.092111 
0.085854 
0.092111 
0.088131 
0.088705 
0.091000 
0.086983 
0.091556 
0.086983 
0.091000 
0.088705 
0.089278 
0.091574 
0.089278 
0.092722 
0.089278 
0.092722 
0.089278 
0.091574 
0.089278 
SCALARS DENSITY float 
LOOKUP_TABLE default 
20.000000 
20.000000 
20.000000 
20.000000 
20.000000 
20.000000 
20.000000 
20.000000 
20.000000 
20.000000 
20.000000 
20.000000 
20.000000 
20.000000 
20.000000 
20.000000 
20.000000 
20.000000 
20.000000 
20.000000 
20.000000 
20.000000 
20.000000 
20.000000 
20.000000 
20.000000 
20.000000 
20.000000 
20.000000 
20.000000 
20.000000 
20.000000 
20.000000 
20.000000 
20.000000 
20.000000 
20.000000 
20.000000 
20.000000 
20.000000 
20.000000 
20.000000 
20.000000 
20.000000 
20.000000 
20.000000 
20.000000 
20.000000 
20.000000 
20.000000 
20.000000 
20.000000 
20.000000 
20.000000 
20.000000 
20.000000 
20.000000 
20.000000 
20.000000 
20.000000 
20.000000 
20.000000 
20.000000 
20.000000 
20.000000 
20.000000 
20.000000 
20.000000 
20.000000 
20.000000 
20.000000 
20.000000 
20.000000 
20.000000 
20.000000 
20.000000 
20.000000 
20.000000 
20.000000 
20.000000 
20.000000 
20.000000 
20.000000 
20.000000 
20.000000 
20.000000 
20.000000 
20.000000 
20.000000 
20.000000 
20.000000 
20.000000 
20.000000 
20.000000 
20.000000 
20.000000 
20.000000 
20.000000 
20.000000 
20.000000 
20.000000 
20.000000 
20.000000 
20.000000 
20.000000 
20.000000 
20.000000 
20.000000 
20.000000 
20.000000 
20.000000 
20.000000 
20.000000 
20.000000 
20.000000 
20.000000 
20.000000 
20.000000 
20.000000 
20.000000 
20.000000 
20.000000 
20.000000 
20.000000 
20.000000 
20.000000 
20.000000 
20.000000 
20.000000 
20.000000 
20.000000 
20.000000 
20.000000 
20.000000 
20.000000 
20.000000 
20.000000 
20.000000 
20.000000 
20.000000 
20.000000 
20.000000 
20.000000 
20.000000 
20.000000 
20.000000 
20.000000 
20.000000 
20.000000 
20.000000 
20.000000 
20.000000 
20.000000 
20.000000 
20.000000 
20.000000 
20.000000 
20.000000 
20.000000 
20.000000 
20.000000 
20.000000 
20.000000 
20.000000 
20.000000 
20.000000 
20.000000 
20.000000 
20.000000 
20.000000 
20.000000 
20.000000 
20.000000 
20.000000 
20.000000 
SCALARS ELEM_i float 
LOOKUP_TABLE default 
170 
197 
170 
170 
198 
198 
198 
171 
171 
225 
198 
198 
198 
199 
172 
172 
225 
225 
226 
199 
199 
199 
199 
172 
173 
169 
196 
197 
197 
223 
196 
224 
197 
197 
223 
223 
224 
224 
224 
224 
225 
250 
250 
250 
251 
251 
251 
252 
225 
225 
169 
195 
196 
196 
195 
195 
195 
196 
223 
194 
195 
222 
222 
222 
223 
223 
194 
221 
221 
221 
221 
222 
249 
249 
249 
169 
168 
169 
168 
141 
168 
168 
168 
195 
140 
140 
167 
167 
167 
194 
194 
139 
140 
139 
166 
166 
166 
193 
194 
193 
169 
142 
142 
141 
115 
142 
141 
141 
141 
115 
115 
114 
114 
114 
141 
140 
87 
87 
87 
114 
113 
113 
113 
113 
140 
169 
143 
143 
142 
143 
143 
116 
142 
115 
117 
116 
116 
116 
116 
115 
115 
117 
117 
90 
89 
89 
89 
88 
88 
88 
170 
170 
170 
143 
171 
171 
144 
144 
144 
172 
172 
145 
144 
144 
144 
117 
173 
172 
145 
145 
145 
145 
118 
117 
117 
VECTORS VELOCITY float 
0.000000 -5.995872 0.000000 
0.000000 -5.995872 0.000000 
0.000000 -5.995872 0.000000 
0.000000 -5.995872 0.000000 
0.000000 -5.995872 0.000000 
0.000000 -5.995872 0.000000 
-0.000000 -5.995872 0.000000 
-0.000000 -5.995872 0.000000 
-0.000000 -5.995872 0.000000 
0.000000 -5.995872 0.000000 
0.000000 -5.995872 0.000000 
0.000000 -5.995872 0.000000 
-0.000000 -5.995872 0.000000 
-0.000000 -5.995872 0.000000 
-0.000000 -5.995872 0.000000 
-0.000000 -5.995872 0.000000 
-0.000000 -5.995872 0.000000 
-0.000000 -5.995872 0.000000 
0.000000 -5.995872 0.000000 
0.000000 -5.995872 0.000000 
0.000000 -5.995872 0.000000 
0.000000 -5.995872 0.000000 
0.000000 -5.995872 0.000000 
-0.000000 -5.995872 0.000000 
-0.000000 -5.995872 0.000000 
-0.000000 -5.995872 0.000000 
-0.000000 -5.995872 0.000000 
-0.000000 -5.995872 0.000000 
0.000000 -5.995872 0.000000 
-0.000000 -5.995872 0.000000 
0.000000 -5.995872 0.000000 
0.000000 -5.995872 0.000000 
0.000000 -5.995872 0.000000 
0.000000 -5.995872 0.000000 
-0.000000 -5.995872 0.000000 
-0.000000 -5.995872 0.000000 
-0.000000 -5.995872 0.000000 
0.000000 -5.995872 0.000000 
-0.000000 -5.995872 0.000000 
0.000000 -5.995872 0.000000 
0.000000 -5.995872 0.000000 
0.000000 -5.995872 0.000000 
0.000000 -5.995872 0.000000 
0.000000 -5.995872 0.000000 
-0.000000 -5.995872 0.000000 
0.000000 -5.995872 0.000000 
0.000000 -5.995872 0.000000 
0.000000 -5.995872 0.000000 
0.000000 -5.995872 0.000000 
0.000000 -5.995872 0.000000 
-0.000000 -5.995872 0.000000 
-0.000000 -5.995872 0.000000 
0.000000 -5.995872 0.000000 
0.000000 -5.995872 0.000000 
-0.000000 -5.995872 0.000000 
-0.000000 -5.995872 0.000000 
0.000000 -5.995872 0.000000 
0.000000 -5.995872 0.000000 
-0.000000 -5.995872 0.000000 
-0.000000 -5.995872 0.000000 
-0.000000 -5.995872 0.000000 
-0.000000 -5.995872 0.000000 
0.000000 -5.995872 0.000000 
0.000000 -5.995872 0.000000 
-0.000000 -5.995872 0.000000 
-0.000000 -5.995872 0.000000 
-0.000000 -5.995872 0.000000 
-0.000000 -5.995872 0.000000 
0.000000 -5.995872 0.000000 
-0.000000 -5.995872 0.000000 
0.000000 -5.995872 0.000000 
-0.000000 -5.995872 0.000000 
0.000000 -5.995872 0.000000 
-0.000000 -5.995872 0.000000 
0.000000 -5.995872 0.000000 
0.000000 -5.995872 0.000000 
0.000000 -5.995872 0.000000 
0.000000 -5.995872 0.000000 
-0.000000 -5.995872 0.000000 
-0.000000 -5.995872 0.000000 
-0.000000 -5.995872 0.000000 
-0.000000 -5.995872 0.000000 
-0.000000 -5.995872 0.000000 
-0.000000 -5.995872 0.000000 
0.000000 -5.995872 0.000000 
0.000000 -5.995872 0.000000 
0.000000 -5.995872 0.000000 
0.000000 -5.995872 0.000000 
0.000000 -5.995872 0.000000 
0.000000 -5.995872 0.000000 
-0.000000 -5.995872 0.000000 
-0.000000 -5.995872 0.000000 
-0.000000 -5.995872 0.000000 
0.000000 -5.995872 0.000000 
-0.000000 -5.995872 0.000000 
-0.000000 -5.995872 0.000000 
0.000000 -5.995872 0.000000 
-0.000000 -5.995872 0.000000 
-0.000000 -5.995872 0.000000 
-0.000000 -5.995872 0.000000 
0.000000 -5.995872 0.000000 
-0.000000 -5.995872 0.000000 
0.000000 -5.995872 0.000000 
0.000000 -5.995872 0.000000 
-0.000000 -5.995872 0.000000 
-0.000000 -5.995872 0.000000 
0.000000 -5.995872 0.000000 
0.000000 -5.995872 0.000000 
-0.000000 -5.995872 0.000000 
-0.000000 -5.995872 0.000000 
-0.000000 -5.995872 0.000000 
-0.000000 -5.995872 0.000000 
0.000000 -5.995872 0.000000 
0.000000 -5.995872 0.000000 
0.000000 -5.995872 0.000000 
0.000000 -5.995872 0.000000 
-0.000000 -5.995872 0.000000 
-0.000000 -5.995872 0.000000 
-0.000000 -5.995872 0.000000 
0.000000 -5.995872 0.000000 
0.000000 -5.995872 0.000000 
-0.000000 -5.995872 0.000000 
0.000000 -5.995872 0.000000 
0.000000 -5.995872 0.000000 
-0.000000 -5.995872 0.000000 
-0.000000 -5.995872 0.000000 
0.000000 -5.995872 0.000000 
-0.000000 -5.995872 0.000000 
-0.000000 -5.995872 0.000000 
-0.000000 -5.995872 0.000000 
-0.000000 -5.995872 0.000000 
-0.000000 -5.995872 0.000000 
-0.000000 -5.995872 0.000000 
-0.000000 -5.995872 0.000000 
-0.000000 -5.995872 0.000000 
-0.000000 -5.995872 0.000000 
-0.000000 -5.995872 0.000000 
-0.000000 -5.995872 0.000000 
0.000000 -5.995872 0.000000 
0.000000 -5.995872 0.000000 
0.000000 -5.995872 0.000000 
-0.000000 -5.995872 0.000000 
0.000000 -5.995872 0.000000 
-0.000000 -5.995872 0.000000 
0.000000 -5.995872 0.000000 
-0.000000 -5.995872 0.000000 
-0.000000 -5.995872 0.000000 
-0.000000 -5.995872 0.000000 
0.000000 -5.995872 0.000000 
0.000000 -5.995872 0.000000 
0.000000 -5.995872 0.000000 
0.000000 -5.995872 0.000000 
0.000000 -5.995872 0.000000 
-0.000000 -5.995872 0.000000 
0.000000 -5.995872 0.000000 
0.000000 -5.995872 0.000000 
0.000000 -5.995872 0.000000 
-0.000000 -5.995872 0.000000 
-0.000000 -5.995872 0.000000 
0.000000 -5.995872 0.000000 
0.000000 -5.995872 0.000000 
0.000000 -5.995872 0.000000 
0.000000 -5.995872 0.000000 
-0.000000 -5.995872 0.000000 
0.000000 -5.995872 0.000000 
0.000000 -5.995872 0.000000 
0.000000 -5.995872 0.000000 
-0.000000 -5.995872 0.000000 
0.000000 -5.995872 0.000000 
-0.000000 -5.995872 0.000000 
0.000000 -5.995872 0.000000 
-0.000000 -5.995872 0.000000 
0.000000 -5.995872 0.000000 
-0.000000 -5.995872 0.000000 
-0.000000 -5.995872 0.000000 
TENSORS STRESS float 
-0.000000 0.000000 0.000000 
0.000000 0.000000 0.000000 
0.000000 0.000000 0.000000 

-0.000000 0.000000 0.000000 
0.000000 0.000000 0.000000 
0.000000 0.000000 0.000000 

-0.000000 0.000000 0.000000 
0.000000 -0.000000 0.000000 
0.000000 0.000000 0.000000 

-0.000000 -0.000000 0.000000 
0.000000 -0.000000 0.000000 
0.000000 0.000000 0.000000 

-0.000000 0.000000 0.000000 
0.000000 -0.000000 0.000000 
0.000000 0.000000 0.000000 

-0.000000 -0.000000 0.000000 
0.000000 0.000000 0.000000 
0.000000 0.000000 0.000000 

0.000000 0.000000 0.000000 
0.000000 0.000000 0.000000 
0.000000 0.000000 0.000000 

0.000000 -0.000000 0.000000 
0.000000 0.000000 0.000000 
0.000000 0.000000 0.000000 

-0.000000 -0.000000 0.000000 
0.000000 0.000000 0.000000 
0.000000 0.000000 0.000000 

0.000000 0.000000 0.000000 
0.000000 0.000000 0.000000 
0.000000 0.000000 0.000000 

-0.000000 0.000000 0.000000 
0.000000 -0.000000 0.000000 
0.000000 0.000000 0.000000 

-0.000000 0.000000 0.000000 
0.000000 0.000000 0.000000 
0.000000 0.000000 0.000000 

-0.000000 0.000000 0.000000 
0.000000 0.000000 0.000000 
0.000000 0.000000 0.000000 

-0.000000 0.000000 0.000000 
0.000000 -0.000000 0.000000 
0.000000 0.000000 0.000000 

-0.000000 -0.000000 0.000000 
0.000000 -0.000000 0.000000 
0.000000 0.000000 0.000000 

-0.000000 0.000000 0.000000 
0.000000 -0.000000 0.000000 
0.000000 0.000000 0.000000 

0.000000 0.000000 0.000000 
0.000000 0.000000 0.000000 
0.000000 0.000000 0.000000 

0.000000 -0.000000 0.000000 
0.000000 0.000000 0.000000 
0.000000 0.000000 0.000000 

-0.000000 -0.000000 0.000000 
0.000000 0.000000 0.000000 
0.000000 0.000000 0.000000 

0.000000 -0.000000 0.000000 
0.000000 0.000000 0.000000 
0.000000 0.000000 0.000000 

0.000000 0.000000 0.000000 
0.000000 0.000000 0.000000 
0.000000 0.000000 0.000000 

0.000000 -0.000000 0.000000 
0.000000 -0.000000 0.000000 
0.000000 0.000000 0.000000 

0.000000 0.000000 0.000000 
0.000000 -0.000000 0.000000 
0.000000 0.000000 0.000000 

-0.000000 0.000000 0.000000 
0.000000 0.000000 0.000000 
0.000000 0.000000 0.000000 

-0.000000 0.000000 0.000000 
0.000000 -0.000000 0.000000 
0.000000 0.000000 0.000000 

0.000000 -0.000000 0.000000 
0.000000 0.000000 0.000000 
0.000000 0.000000 0.000000 

0.000000 -0.000000 0.000000 
0.000000 0.000000 0.000000 
0.000000 0.000000 0.000000 

0.000000 -0.000000 0.000000 
0.000000 0.000000 0.000000 
0.000000 0.000000 0.000000 

0.000000 -0.000000 0.000000 
0.000000 0.000000 0.000000 
0.000000 0.000000 0.000000 

-0.000000 0.000000 0.000000 
0.000000 0.000000 0.000000 
0.000000 0.000000 0.000000 

-0.000000 -0.000000 0.000000 
0.000000 -0.000000 0.000000 
0.000000 0.000000 0.000000 

-0.000000 -0.000000 0.000000 
0.000000 0.000000 0.000000 
0.000000 0.000000 0.000000 

-0.000000 0.000000 0.000000 
0.000000 0.000000 0.000000 
0.000000 0.000000 0.000000 

0.000000 -0.000000 0.000000 
0.000000 0.000000 0.000000 
0.000000 0.000000 0.000000 

-0.000000 0.000000 0.000000 
0.000000 0.000000 0.000000 
0.000000 0.000000 0.000000 

-0.000000 0.000000 0.000000 
0.000000 -0.000000 0.000000 
0.000000 0.000000 0.000000 

0.000000 -0.000000 0.000000 
0.000000 0.000000 0.000000 
0.000000 0.000000 0.000000 

-0.000000 0.000000 0.000000 
0.000000 0.000000 0.000000 
0.000000 0.000000 0.000000 

-0.000000 0.000000 0.000000 
0.000000 -0.000000 0.000000 
0.000000 0.000000 0.000000 

-0.000000 0.000000 0.000000 
0.000000 -0.000000 0.000000 
0.000000 0.000000 0.000000 

0.000000 0.000000 0.000000 
0.000000 0.000000 0.000000 
0.000000 0.000000 0.000000 

-0.000000 0.000000 0.000000 
0.000000 -0.000000 0.000000 
0.000000 0.000000 0.000000 

-0.000000 -0.000000 0.000000 
0.000000 0.000000 0.000000 
0.000000 0.000000 0.000000 

-0.000000 -0.000000 0.000000 
0.000000 -0.000000 0.000000 
0.000000 0.000000 0.000000 

-0.000000 0.000000 0.000000 
0.000000 -0.000000 0.000000 
0.000000 0.000000 0.000000 

-0.000000 0.000000 0.000000 
0.000000 -0.000000 0.000000 
0.000000 0.000000 0.000000 

0.000000 -0.000000 0.000000 
0.000000 0.000000 0.000000 
0.000000 0.000000 0.000000 

-0.000000 -0.000000 0.000000 
0.000000 -0.000000 0.000000 
0.000000 0.000000 0.000000 

0.000000 -0.000000 0.000000 
0.000000 0.000000 0.000000 
0.000000 0.000000 0.000000 

0.000000 -0.000000 0.000000 
0.000000 -0.000000 0.000000 
0.000000 0.000000 0.000000 

-0.000000 0.000000 0.000000 
0.000000 0.000000 0.000000 
0.000000 0.000000 0.000000 

0.000000 -0.000000 0.000000 
0.000000 0.000000 0.000000 
0.000000 0.000000 0.000000 

-0.000000 0.000000 0.000000 
0.000000 -0.000000 0.000000 
0.000000 0.000000 0.000000 

-0.000000 0.000000 0.000000 
0.000000 0.000000 0.000000 
0.000000 0.000000 0.000000 

-0.000000 0.000000 0.000000 
0.000000 -0.000000 0.000000 
0.000000 0.000000 0.000000 

-0.000000 0.000000 0.000000 
0.000000 -0.000000 0.000000 
0.000000 0.000000 0.000000 

0.000000 0.000000 0.000000 
0.000000 0.000000 0.000000 
0.000000 0.000000 0.000000 

-0.000000 0.000000 0.000000 
0.000000 -0.000000 0.000000 
0.000000 0.000000 0.000000 

-0.000000 0.000000 0.000000 
0.000000 -0.000000 0.000000 
0.000000 0.000000 0.000000 

-0.000000 -0.000000 0.000000 
0.000000 -0.000000 0.000000 
0.000000 0.000000 0.000000 

-0.000000 0.000000 0.000000 
0.000000 0.000000 0.000000 
0.000000 0.000000 0.000000 

-0.000000 0.000000 0.000000 
0.000000 -0.000000 0.000000 
0.000000 0.000000 0.000000 

-0.000000 0.000000 0.000000 
0.000000 -0.000000 0.000000 
0.000000 0.000000 0.000000 

0.000000 -0.000000 0.000000 
0.000000 0.000000 0.000000 
0.000000 0.000000 0.000000 

0.000000 -0.000000 0.000000 
0.000000 0.000000 0.000000 
0.000000 0.000000 0.000000 

-0.000000 0.000000 0.000000 
0.000000 -0.000000 0.000000 
0.000000 0.000000 0.000000 

0.000000 -0.000000 0.000000 
0.000000 0.000000 0.000000 
0.000000 0.000000 0.000000 

0.000000 0.000000 0.000000 
0.000000 0.000000 0.000000 
0.000000 0.000000 0.000000 

-0.000000 -0.000000 0.000000 
0.000000 -0.000000 0.000000 
0.000000 0.000000 0.000000 

0.000000 -0.000000 0.000000 
0.000000 0.000000 0.000000 
0.000000 0.000000 0.000000 

0.000000 0.000000 0.000000 
0.000000 0.000000 0.000000 
0.000000 0.000000 0.000000 

-0.000000 -0.000000 0.000000 
0.000000 -0.000000 0.000000 
0.000000 0.000000 0.000000 

0.000000 -0.000000 0.000000 
0.000000 0.000000 0.000000 
0.000000 0.000000 0.000000 

-0.000000 0.000000 0.000000 
0.000000 -0.000000 0.000000 
0.000000 0.000000 0.000000 

-0.000000 0.000000 0.000000 
0.000000 -0.000000 0.000000 
0.000000 0.000000 0.000000 

-0.000000 0.000000 0.000000 
0.000000 -0.000000 0.000000 
0.000000 0.000000 0.000000 

-0.000000 0.000000 0.000000 
0.000000 -0.000000 0.000000 
0.000000 0.000000 0.000000 

-0.000000 -0.000000 0.000000 
0.000000 -0.000000 0.000000 
0.000000 0.000000 0.000000 

-0.000000 0.000000 0.000000 
0.000000 -0.000000 0.000000 
0.000000 0.000000 0.000000 

-0.000000 -0.000000 0.000000 
0.000000 -0.000000 0.000000 
0.000000 0.000000 0.000000 

-0.000000 -0.000000 0.000000 
0.000000 -0.000000 0.000000 
0.000000 0.000000 0.000000 

0.000000 -0.000000 0.000000 
0.000000 -0.000000 0.000000 
0.000000 0.000000 0.000000 

0.000000 0.000000 0.000000 
0.000000 -0.000000 0.000000 
0.000000 0.000000 0.000000 

0.000000 -0.000000 0.000000 
0.000000 0.000000 0.000000 
0.000000 0.000000 0.000000 

-0.000000 0.000000 0.000000 
0.000000 0.000000 0.000000 
0.000000 0.000000 0.000000 

-0.000000 0.000000 0.000000 
0.000000 -0.000000 0.000000 
0.000000 0.000000 0.000000 

-0.000000 0.000000 0.000000 
0.000000 0.000000 0.000000 
0.000000 0.000000 0.000000 

-0.000000 0.000000 0.000000 
0.000000 -0.000000 0.000000 
0.000000 0.000000 0.000000 

-0.000000 -0.000000 0.000000 
0.000000 -0.000000 0.000000 
0.000000 0.000000 0.000000 

-0.000000 0.000000 0.000000 
0.000000 -0.000000 0.000000 
0.000000 0.000000 0.000000 

0.000000 -0.000000 0.000000 
0.000000 0.000000 0.000000 
0.000000 0.000000 0.000000 

-0.000000 -0.000000 0.000000 
0.000000 0.000000 0.000000 
0.000000 0.000000 0.000000 

-0.000000 0.000000 0.000000 
0.000000 -0.000000 0.000000 
0.000000 0.000000 0.000000 

0.000000 0.000000 0.000000 
0.000000 0.000000 0.000000 
0.000000 0.000000 0.000000 

-0.000000 0.000000 0.000000 
0.000000 0.000000 0.000000 
0.000000 0.000000 0.000000 

0.000000 0.000000 0.000000 
0.000000 0.000000 0.000000 
0.000000 0.000000 0.000000 

-0.000000 0.000000 0.000000 
0.000000 0.000000 0.000000 
0.000000 0.000000 0.000000 

-0.000000 0.000000 0.000000 
0.000000 0.000000 0.000000 
0.000000 0.000000 0.000000 

0.000000 -0.000000 0.000000 
0.000000 -0.000000 0.000000 
0.000000 0.000000 0.000000 

-0.000000 -0.000000 0.000000 
0.000000 -0.000000 0.000000 
0.000000 0.000000 0.000000 

-0.000000 0.000000 0.000000 
0.000000 -0.000000 0.000000 
0.000000 0.000000 0.000000 

0.000000 0.000000 0.000000 
0.000000 0.000000 0.000000 
0.000000 0.000000 0.000000 

0.000000 -0.000000 0.000000 
0.000000 0.000000 0.000000 
0.000000 0.000000 0.000000 

-0.000000 0.000000 0.000000 
0.000000 -0.000000 0.000000 
0.000000 0.000000 0.000000 

-0.000000 0.000000 0.000000 
0.000000 -0.000000 0.000000 
0.000000 0.000000 0.000000 

-0.000000 -0.000000 0.000000 
0.000000 -0.000000 0.000000 
0.000000 0.000000 0.000000 

-0.000000 0.000000 0.000000 
0.000000 -0.000000 0.000000 
0.000000 0.000000 0.000000 

-0.000000 -0.000000 0.000000 
0.000000 -0.000000 0.000000 
0.000000 0.000000 0.000000 

-0.000000 -0.000000 0.000000 
0.000000 0.000000 0.000000 
0.000000 0.000000 0.000000 

-0.000000 0.000000 0.000000 
0.000000 -0.000000 0.000000 
0.000000 0.000000 0.000000 

0.000000 0.000000 0.000000 
0.000000 -0.000000 0.000000 
0.000000 0.000000 0.000000 

-0.000000 0.000000 0.000000 
0.000000 -0.000000 0.000000 
0.000000 0.000000 0.000000 

-0.000000 0.000000 0.000000 
0.000000 -0.000000 0.000000 
0.000000 0.000000 0.000000 

-0.000000 0.000000 0.000000 
0.000000 -0.000000 0.000000 
0.000000 0.000000 0.000000 

0.000000 -0.000000 0.000000 
0.000000 0.000000 0.000000 
0.000000 0.000000 0.000000 

-0.000000 0.000000 0.000000 
0.000000 -0.000000 0.000000 
0.000000 0.000000 0.000000 

-0.000000 -0.000000 0.000000 
0.000000 -0.000000 0.000000 
0.000000 0.000000 0.000000 

0.000000 0.000000 0.000000 
0.000000 0.000000 0.000000 
0.000000 0.000000 0.000000 

0.000000 0.000000 0.000000 
0.000000 0.000000 0.000000 
0.000000 0.000000 0.000000 

0.000000 -0.000000 0.000000 
0.000000 0.000000 0.000000 
0.000000 0.000000 0.000000 

-0.000000 0.000000 0.000000 
0.000000 -0.000000 0.000000 
0.000000 0.000000 0.000000 

0.000000 0.000000 0.000000 
0.000000 0.000000 0.000000 
0.000000 0.000000 0.000000 

0.000000 -0.000000 0.000000 
0.000000 0.000000 0.000000 
0.000000 0.000000 0.000000 

-0.000000 -0.000000 0.000000 
0.000000 -0.000000 0.000000 
0.000000 0.000000 0.000000 

-0.000000 0.000000 0.000000 
0.000000 -0.000000 0.000000 
0.000000 0.000000 0.000000 

-0.000000 -0.000000 0.000000 
0.000000 0.000000 0.000000 
0.000000 0.000000 0.000000 

-0.000000 -0.000000 0.000000 
0.000000 -0.000000 0.000000 
0.000000 0.000000 0.000000 

0.000000 -0.000000 0.000000 
0.000000 0.000000 0.000000 
0.000000 0.000000 0.000000 

-0.000000 -0.000000 0.000000 
0.000000 -0.000000 0.000000 
0.000000 0.000000 0.000000 

-0.000000 0.000000 0.000000 
0.000000 -0.000000 0.000000 
0.000000 0.000000 0.000000 

-0.000000 0.000000 0.000000 
0.000000 0.000000 0.000000 
0.000000 0.000000 0.000000 

-0.000000 -0.000000 0.000000 
0.000000 -0.000000 0.000000 
0.000000 0.000000 0.000000 

-0.000000 -0.000000 0.000000 
0.000000 -0.000000 0.000000 
0.000000 0.000000 0.000000 

-0.000000 0.000000 0.000000 
0.000000 -0.000000 0.000000 
0.000000 0.000000 0.000000 

-0.000000 -0.000000 0.000000 
0.000000 -0.000000 0.000000 
0.000000 0.000000 0.000000 

-0.000000 -0.000000 0.000000 
0.000000 -0.000000 0.000000 
0.000000 0.000000 0.000000 

-0.000000 0.000000 0.000000 
0.000000 -0.000000 0.000000 
0.000000 0.000000 0.000000 

0.000000 0.000000 0.000000 
0.000000 0.000000 0.000000 
0.000000 0.000000 0.000000 

-0.000000 0.000000 0.000000 
0.000000 0.000000 0.000000 
0.000000 0.000000 0.000000 

-0.000000 -0.000000 0.000000 
0.000000 -0.000000 0.000000 
0.000000 0.000000 0.000000 

0.000000 -0.000000 0.000000 
0.000000 -0.000000 0.000000 
0.000000 0.000000 0.000000 

0.000000 -0.000000 0.000000 
0.000000 0.000000 0.000000 
0.000000 0.000000 0.000000 

-0.000000 0.000000 0.000000 
0.000000 -0.000000 0.000000 
0.000000 0.000000 0.000000 

0.000000 0.000000 0.000000 
0.000000 0.000000 0.000000 
0.000000 0.000000 0.000000 

-0.000000 0.000000 0.000000 
0.000000 -0.000000 0.000000 
0.000000 0.000000 0.000000 

0.000000 -0.000000 0.000000 
0.000000 0.000000 0.000000 
0.000000 0.000000 0.000000 

0.000000 0.000000 0.000000 
0.000000 0.000000 0.000000 
0.000000 0.000000 0.000000 

0.000000 -0.000000 0.000000 
0.000000 0.000000 0.000000 
0.000000 0.000000 0.000000 

-0.000000 0.000000 0.000000 
0.000000 -0.000000 0.000000 
0.000000 0.000000 0.000000 

-0.000000 0.000000 0.000000 
0.000000 -0.000000 0.000000 
0.000000 0.000000 0.000000 

-0.000000 0.000000 0.000000 
0.000000 0.000000 0.000000 
0.000000 0.000000 0.000000 

-0.000000 0.000000 0.000000 
0.000000 -0.000000 0.000000 
0.000000 0.000000 0.000000 

0.000000 -0.000000 0.000000 
0.000000 0.000000 0.000000 
0.000000 0.000000 0.000000 

-0.000000 -0.000000 0.000000 
0.000000 -0.000000 0.000000 
0.000000 0.000000 0.000000 

-0.000000 -0.000000 0.000000 
0.000000 0.000000 0.000000 
0.000000 0.000000 0.000000 

0.000000 -0.000000 0.000000 
0.000000 0.000000 0.000000 
0.000000 0.000000 0.000000 

0.000000 -0.000000 0.000000 
0.000000 0.000000 0.000000 
0.000000 0.000000 0.000000 

-0.000000 -0.000000 0.000000 
0.000000 0.000000 0.000000 
0.000000 0.000000 0.000000 

-0.000000 -0.000000 0.000000 
0.000000 0.000000 0.000000 
0.000000 0.000000 0.000000 

-0.000000 0.000000 0.000000 
0.000000 -0.000000 0.000000 
0.000000 0.000000 0.000000 

-0.000000 -0.000000 0.000000 
0.000000 -0.000000 0.000000 
0.000000 0.000000 0.000000 

-0.000000 -0.000000 0.000000 
0.000000 0.000000 0.000000 
0.000000 0.000000 0.000000 

-0.000000 -0.000000 0.000000 
0.000000 0.000000 0.000000 
0.000000 0.000000 0.000000 

-0.000000 -0.000000 0.000000 
0.000000 0.000000 0.000000 
0.000000 0.000000 0.000000 

-0.000000 -0.000000 0.000000 
0.000000 0.000000 0.000000 
0.000000 0.000000 0.000000 

-0.000000 -0.000000 0.000000 
0.000000 -0.000000 0.000000 
0.000000 0.000000 0.000000 

-0.000000 0.000000 0.000000 
0.000000 0.000000 0.000000 
0.000000 0.000000 0.000000 

0.000000 -0.000000 0.000000 
0.000000 0.000000 0.000000 
0.000000 0.000000 0.000000 

-0.000000 0.000000 0.000000 
0.000000 0.000000 0.000000 
0.000000 0.000000 0.000000 

-0.000000 -0.000000 0.000000 
0.000000 -0.000000 0.000000 
0.000000 0.000000 0.000000 

-0.000000 -0.000000 0.000000 
0.000000 -0.000000 0.000000 
0.000000 0.000000 0.000000 

-0.000000 -0.000000 0.000000 
0.000000 -0.000000 0.000000 
0.000000 0.000000 0.000000 

-0.000000 -0.000000 0.000000 
0.000000 -0.000000 0.000000 
0.000000 0.000000 0.000000 

-0.000000 -0.000000 0.000000 
0.000000 0.000000 0.000000 
0.000000 0.000000 0.000000 

-0.000000 -0.000000 0.000000 
0.000000 0.000000 0.000000 
0.000000 0.000000 0.000000 

TENSORS STRAIN float 
-0.000000 0.000000 0.000000 
0.000000 0.000000 0.000000 
0.000000 0.000000 0.000000 

-0.000000 0.000000 0.000000 
0.000000 0.000000 0.000000 
0.000000 0.000000 0.000000 

0.000000 0.000000 0.000000 
0.000000 -0.000000 0.000000 
0.000000 0.000000 0.000000 

0.000000 -0.000000 0.000000 
0.000000 -0.000000 0.000000 
0.000000 0.000000 0.000000 

-0.000000 0.000000 0.000000 
0.000000 -0.000000 0.000000 
0.000000 0.000000 0.000000 

-0.000000 -0.000000 0.000000 
0.000000 0.000000 0.000000 
0.000000 0.000000 0.000000 

-0.000000 0.000000 0.000000 
0.000000 0.000000 0.000000 
0.000000 0.000000 0.000000 

-0.000000 -0.000000 0.000000 
0.000000 0.000000 0.000000 
0.000000 0.000000 0.000000 

-0.000000 -0.000000 0.000000 
0.000000 0.000000 0.000000 
0.000000 0.000000 0.000000 

0.000000 0.000000 0.000000 
0.000000 0.000000 0.000000 
0.000000 0.000000 0.000000 

-0.000000 0.000000 0.000000 
0.000000 -0.000000 0.000000 
0.000000 0.000000 0.000000 

-0.000000 0.000000 0.000000 
0.000000 0.000000 0.000000 
0.000000 0.000000 0.000000 

-0.000000 0.000000 0.000000 
0.000000 0.000000 0.000000 
0.000000 0.000000 0.000000 

-0.000000 0.000000 0.000000 
0.000000 -0.000000 0.000000 
0.000000 0.000000 0.000000 

-0.000000 -0.000000 0.000000 
0.000000 -0.000000 0.000000 
0.000000 0.000000 0.000000 

-0.000000 0.000000 0.000000 
0.000000 -0.000000 0.000000 
0.000000 0.000000 0.000000 

0.000000 0.000000 0.000000 
0.000000 0.000000 0.000000 
0.000000 0.000000 0.000000 

0.000000 -0.000000 0.000000 
0.000000 0.000000 0.000000 
0.000000 0.000000 0.000000 

-0.000000 -0.000000 0.000000 
0.000000 0.000000 0.000000 
0.000000 0.000000 0.000000 

0.000000 -0.000000 0.000000 
0.000000 0.000000 0.000000 
0.000000 0.000000 0.000000 

0.000000 0.000000 0.000000 
0.000000 0.000000 0.000000 
0.000000 0.000000 0.000000 

0.000000 -0.000000 0.000000 
0.000000 -0.000000 0.000000 
0.000000 0.000000 0.000000 

0.000000 0.000000 0.000000 
0.000000 -0.000000 0.000000 
0.000000 0.000000 0.000000 

-0.000000 0.000000 0.000000 
0.000000 0.000000 0.000000 
0.000000 0.000000 0.000000 

-0.000000 0.000000 0.000000 
0.000000 0.000000 0.000000 
0.000000 0.000000 0.000000 

-0.000000 -0.000000 0.000000 
0.000000 0.000000 0.000000 
0.000000 0.000000 0.000000 

-0.000000 -0.000000 0.000000 
0.000000 0.000000 0.000000 
0.000000 0.000000 0.000000 

-0.000000 -0.000000 0.000000 
0.000000 0.000000 0.000000 
0.000000 0.000000 0.000000 

-0.000000 -0.000000 0.000000 
0.000000 0.000000 0.000000 
0.000000 0.000000 0.000000 

-0.000000 0.000000 0.000000 
0.000000 0.000000 0.000000 
0.000000 0.000000 0.000000 

-0.000000 -0.000000 0.000000 
0.000000 -0.000000 0.000000 
0.000000 0.000000 0.000000 

-0.000000 -0.000000 0.000000 
0.000000 0.000000 0.000000 
0.000000 0.000000 0.000000 

-0.000000 0.000000 0.000000 
0.000000 0.000000 0.000000 
0.000000 0.000000 0.000000 

-0.000000 -0.000000 0.000000 
0.000000 0.000000 0.000000 
0.000000 0.000000 0.000000 

-0.000000 0.000000 0.000000 
0.000000 0.000000 0.000000 
0.000000 0.000000 0.000000 

-0.000000 0.000000 0.000000 
0.000000 -0.000000 0.000000 
0.000000 0.000000 0.000000 

-0.000000 -0.000000 0.000000 
0.000000 0.000000 0.000000 
0.000000 0.000000 0.000000 

-0.000000 0.000000 0.000000 
0.000000 0.000000 0.000000 
0.000000 0.000000 0.000000 

0.000000 0.000000 0.000000 
0.000000 -0.000000 0.000000 
0.000000 0.000000 0.000000 

-0.000000 0.000000 0.000000 
0.000000 -0.000000 0.000000 
0.000000 0.000000 0.000000 

0.000000 0.000000 0.000000 
0.000000 0.000000 0.000000 
0.000000 0.000000 0.000000 

-0.000000 0.000000 0.000000 
0.000000 -0.000000 0.000000 
0.000000 0.000000 0.000000 

-0.000000 -0.000000 0.000000 
0.000000 0.000000 0.000000 
0.000000 0.000000 0.000000 

-0.000000 -0.000000 0.000000 
0.000000 -0.000000 0.000000 
0.000000 0.000000 0.000000 

-0.000000 0.000000 0.000000 
0.000000 -0.000000 0.000000 
0.000000 0.000000 0.000000 

-0.000000 0.000000 0.000000 
0.000000 -0.000000 0.000000 
0.000000 0.000000 0.000000 

-0.000000 -0.000000 0.000000 
0.000000 0.000000 0.000000 
0.000000 0.000000 0.000000 

0.000000 -0.000000 0.000000 
0.000000 -0.000000 0.000000 
0.000000 0.000000 0.000000 

0.000000 -0.000000 0.000000 
0.000000 0.000000 0.000000 
0.000000 0.000000 0.000000 

0.000000 -0.000000 0.000000 
0.000000 -0.000000 0.000000 
0.000000 0.000000 0.000000 

-0.000000 0.000000 0.000000 
0.000000 0.000000 0.000000 
0.000000 0.000000 0.000000 

-0.000000 -0.000000 0.000000 
0.000000 0.000000 0.000000 
0.000000 0.000000 0.000000 

-0.000000 0.000000 0.000000 
0.000000 -0.000000 0.000000 
0.000000 0.000000 0.000000 

-0.000000 0.000000 0.000000 
0.000000 0.000000 0.000000 
0.000000 0.000000 0.000000 

-0.000000 0.000000 0.000000 
0.000000 -0.000000 0.000000 
0.000000 0.000000 0.000000 

-0.000000 0.000000 0.000000 
0.000000 -0.000000 0.000000 
0.000000 0.000000 0.000000 

-0.000000 0.000000 0.000000 
0.000000 0.000000 0.000000 
0.000000 0.000000 0.000000 

-0.000000 0.000000 0.000000 
0.000000 -0.000000 0.000000 
0.000000 0.000000 0.000000 

-0.000000 0.000000 0.000000 
0.000000 -0.000000 0.000000 
0.000000 0.000000 0.000000 

0.000000 -0.000000 0.000000 
0.000000 -0.000000 0.000000 
0.000000 0.000000 0.000000 

-0.000000 0.000000 0.000000 
0.000000 0.000000 0.000000 
0.000000 0.000000 0.000000 

0.000000 0.000000 0.000000 
0.000000 -0.000000 0.000000 
0.000000 0.000000 0.000000 

0.000000 0.000000 0.000000 
0.000000 -0.000000 0.000000 
0.000000 0.000000 0.000000 

0.000000 -0.000000 0.000000 
0.000000 -0.000000 0.000000 
0.000000 0.000000 0.000000 

-0.000000 -0.000000 0.000000 
0.000000 0.000000 0.000000 
0.000000 0.000000 0.000000 

-0.000000 0.000000 0.000000 
0.000000 -0.000000 0.000000 
0.000000 0.000000 0.000000 

0.000000 -0.000000 0.000000 
0.000000 0.000000 0.000000 
0.000000 0.000000 0.000000 

0.000000 0.000000 0.000000 
0.000000 0.000000 0.000000 
0.000000 0.000000 0.000000 

0.000000 -0.000000 0.000000 
0.000000 -0.000000 0.000000 
0.000000 0.000000 0.000000 

0.000000 -0.000000 0.000000 
0.000000 0.000000 0.000000 
0.000000 0.000000 0.000000 

0.000000 0.000000 0.000000 
0.000000 -0.000000 0.000000 
0.000000 0.000000 0.000000 

0.000000 -0.000000 0.000000 
0.000000 -0.000000 0.000000 
0.000000 0.000000 0.000000 

0.000000 -0.000000 0.000000 
0.000000 -0.000000 0.000000 
0.000000 0.000000 0.000000 

0.000000 0.000000 0.000000 
0.000000 -0.000000 0.000000 
0.000000 0.000000 0.000000 

-0.000000 0.000000 0.000000 
0.000000 0.000000 0.000000 
0.000000 0.000000 0.000000 

-0.000000 0.000000 0.000000 
0.000000 -0.000000 0.000000 
0.000000 0.000000 0.000000 

-0.000000 0.000000 0.000000 
0.000000 -0.000000 0.000000 
0.000000 0.000000 0.000000 

-0.000000 -0.000000 0.000000 
0.000000 -0.000000 0.000000 
0.000000 0.000000 0.000000 

-0.000000 0.000000 0.000000 
0.000000 -0.000000 0.000000 
0.000000 0.000000 0.000000 

-0.000000 -0.000000 0.000000 
0.000000 0.000000 0.000000 
0.000000 0.000000 0.000000 

0.000000 -0.000000 0.000000 
0.000000 -0.000000 0.000000 
0.000000 0.000000 0.000000 

0.000000 -0.000000 0.000000 
0.000000 -0.000000 0.000000 
0.000000 0.000000 0.000000 

0.000000 0.000000 0.000000 
0.000000 -0.000000 0.000000 
0.000000 0.000000 0.000000 

-0.000000 -0.000000 0.000000 
0.000000 0.000000 0.000000 
0.000000 0.000000 0.000000 

-0.000000 0.000000 0.000000 
0.000000 0.000000 0.000000 
0.000000 0.000000 0.000000 

-0.000000 0.000000 0.000000 
0.000000 -0.000000 0.000000 
0.000000 0.000000 0.000000 

-0.000000 0.000000 0.000000 
0.000000 0.000000 0.000000 
0.000000 0.000000 0.000000 

0.000000 0.000000 0.000000 
0.000000 -0.000000 0.000000 
0.000000 0.000000 0.000000 

-0.000000 -0.000000 0.000000 
0.000000 -0.000000 0.000000 
0.000000 0.000000 0.000000 

-0.000000 0.000000 0.000000 
0.000000 -0.000000 0.000000 
0.000000 0.000000 0.000000 

-0.000000 -0.000000 0.000000 
0.000000 0.000000 0.000000 
0.000000 0.000000 0.000000 

-0.000000 -0.000000 0.000000 
0.000000 0.000000 0.000000 
0.000000 0.000000 0.000000 

-0.000000 0.000000 0.000000 
0.000000 -0.000000 0.000000 
0.000000 0.000000 0.000000 

0.000000 0.000000 0.000000 
0.000000 0.000000 0.000000 
0.000000 0.000000 0.000000 

-0.000000 0.000000 0.000000 
0.000000 0.000000 0.000000 
0.000000 0.000000 0.000000 

-0.000000 0.000000 0.000000 
0.000000 0.000000 0.000000 
0.000000 0.000000 0.000000 

-0.000000 0.000000 0.000000 
0.000000 0.000000 0.000000 
0.000000 0.000000 0.000000 

-0.000000 0.000000 0.000000 
0.000000 0.000000 0.000000 
0.000000 0.000000 0.000000 

0.000000 -0.000000 0.000000 
0.000000 -0.000000 0.000000 
0.000000 0.000000 0.000000 

-0.000000 -0.000000 0.000000 
0.000000 -0.000000 0.000000 
0.000000 0.000000 0.000000 

-0.000000 0.000000 0.000000 
0.000000 -0.000000 0.000000 
0.000000 0.000000 0.000000 

0.000000 0.000000 0.000000 
0.000000 0.000000 0.000000 
0.000000 0.000000 0.000000 

0.000000 -0.000000 0.000000 
0.000000 0.000000 0.000000 
0.000000 0.000000 0.000000 

-0.000000 0.000000 0.000000 
0.000000 -0.000000 0.000000 
0.000000 0.000000 0.000000 

0.000000 0.000000 0.000000 
0.000000 -0.000000 0.000000 
0.000000 0.000000 0.000000 

-0.000000 -0.000000 0.000000 
0.000000 -0.000000 0.000000 
0.000000 0.000000 0.000000 

-0.000000 0.000000 0.000000 
0.000000 0.000000 0.000000 
0.000000 0.000000 0.000000 

-0.000000 -0.000000 0.000000 
0.000000 0.000000 0.000000 
0.000000 0.000000 0.000000 

-0.000000 -0.000000 0.000000 
0.000000 0.000000 0.000000 
0.000000 0.000000 0.000000 

0.000000 0.000000 0.000000 
0.000000 -0.000000 0.000000 
0.000000 0.000000 0.000000 

0.000000 0.000000 0.000000 
0.000000 -0.000000 0.000000 
0.000000 0.000000 0.000000 

-0.000000 0.000000 0.000000 
0.000000 -0.000000 0.000000 
0.000000 0.000000 0.000000 

-0.000000 0.000000 0.000000 
0.000000 -0.000000 0.000000 
0.000000 0.000000 0.000000 

0.000000 0.000000 0.000000 
0.000000 -0.000000 0.000000 
0.000000 0.000000 0.000000 

0.000000 -0.000000 0.000000 
0.000000 0.000000 0.000000 
0.000000 0.000000 0.000000 

-0.000000 0.000000 0.000000 
0.000000 -0.000000 0.000000 
0.000000 0.000000 0.000000 

-0.000000 -0.000000 0.000000 
0.000000 -0.000000 0.000000 
0.000000 0.000000 0.000000 

0.000000 0.000000 0.000000 
0.000000 0.000000 0.000000 
0.000000 0.000000 0.000000 

-0.000000 0.000000 0.000000 
0.000000 0.000000 0.000000 
0.000000 0.000000 0.000000 

-0.000000 -0.000000 0.000000 
0.000000 0.000000 0.000000 
0.000000 0.000000 0.000000 

-0.000000 0.000000 0.000000 
0.000000 -0.000000 0.000000 
0.000000 0.000000 0.000000 

-0.000000 0.000000 0.000000 
0.000000 0.000000 0.000000 
0.000000 0.000000 0.000000 

0.000000 -0.000000 0.000000 
0.000000 0.000000 0.000000 
0.000000 0.000000 0.000000 

0.000000 -0.000000 0.000000 
0.000000 -0.000000 0.000000 
0.000000 0.000000 0.000000 

-0.000000 0.000000 0.000000 
0.000000 -0.000000 0.000000 
0.000000 0.000000 0.000000 

-0.000000 -0.000000 0.000000 
0.000000 0.000000 0.000000 
0.000000 0.000000 0.000000 

-0.000000 -0.000000 0.000000 
0.000000 -0.000000 0.000000 
0.000000 0.000000 0.000000 

0.000000 -0.000000 0.000000 
0.000000 0.000000 0.000000 
0.000000 0.000000 0.000000 

-0.000000 -0.000000 0.000000 
0.000000 -0.000000 0.000000 
0.000000 0.000000 0.000000 

-0.000000 0.000000 0.000000 
0.000000 -0.000000 0.000000 
0.000000 0.000000 0.000000 

-0.000000 0.000000 0.000000 
0.000000 0.000000 0.000000 
0.000000 0.000000 0.000000 

-0.000000 -0.000000 0.000000 
0.000000 -0.000000 0.000000 
0.000000 0.000000 0.000000 

-0.000000 -0.000000 0.000000 
0.000000 -0.000000 0.000000 
0.000000 0.000000 0.000000 

0.000000 0.000000 0.000000 
0.000000 -0.000000 0.000000 
0.000000 0.000000 0.000000 

-0.000000 -0.000000 0.000000 
0.000000 -0.000000 0.000000 
0.000000 0.000000 0.000000 

0.000000 -0.000000 0.000000 
0.000000 -0.000000 0.000000 
0.000000 0.000000 0.000000 

0.000000 0.000000 0.000000 
0.000000 -0.000000 0.000000 
0.000000 0.000000 0.000000 

-0.000000 0.000000 0.000000 
0.000000 0.000000 0.000000 
0.000000 0.000000 0.000000 

-0.000000 0.000000 0.000000 
0.000000 0.000000 0.000000 
0.000000 0.000000 0.000000 

-0.000000 -0.000000 0.000000 
0.000000 -0.000000 0.000000 
0.000000 0.000000 0.000000 

0.000000 -0.000000 0.000000 
0.000000 -0.000000 0.000000 
0.000000 0.000000 0.000000 

-0.000000 -0.000000 0.000000 
0.000000 0.000000 0.000000 
0.000000 0.000000 0.000000 

-0.000000 0.000000 0.000000 
0.000000 -0.000000 0.000000 
0.000000 0.000000 0.000000 

0.000000 0.000000 0.000000 
0.000000 -0.000000 0.000000 
0.000000 0.000000 0.000000 

0.000000 0.000000 0.000000 
0.000000 -0.000000 0.000000 
0.000000 0.000000 0.000000 

0.000000 -0.000000 0.000000 
0.000000 0.000000 0.000000 
0.000000 0.000000 0.000000 

0.000000 0.000000 0.000000 
0.000000 0.000000 0.000000 
0.000000 0.000000 0.000000 

0.000000 -0.000000 0.000000 
0.000000 0.000000 0.000000 
0.000000 0.000000 0.000000 

0.000000 0.000000 0.000000 
0.000000 -0.000000 0.000000 
0.000000 0.000000 0.000000 

-0.000000 0.000000 0.000000 
0.000000 -0.000000 0.000000 
0.000000 0.000000 0.000000 

-0.000000 0.000000 0.000000 
0.000000 0.000000 0.000000 
0.000000 0.000000 0.000000 

0.000000 0.000000 0.000000 
0.000000 -0.000000 0.000000 
0.000000 0.000000 0.000000 

0.000000 -0.000000 0.000000 
0.000000 -0.000000 0.000000 
0.000000 0.000000 0.000000 

-0.000000 -0.000000 0.000000 
0.000000 -0.000000 0.000000 
0.000000 0.000000 0.000000 

-0.000000 -0.000000 0.000000 
0.000000 0.000000 0.000000 
0.000000 0.000000 0.000000 

-0.000000 -0.000000 0.000000 
0.000000 0.000000 0.000000 
0.000000 0.000000 0.000000 

-0.000000 -0.000000 0.000000 
0.000000 0.000000 0.000000 
0.000000 0.000000 0.000000 

-0.000000 -0.000000 0.000000 
0.000000 0.000000 0.000000 
0.000000 0.000000 0.000000 

-0.000000 -0.000000 0.000000 
0.000000 0.000000 0.000000 
0.000000 0.000000 0.000000 

-0.000000 0.000000 0.000000 
0.000000 -0.000000 0.000000 
0.000000 0.000000 0.000000 

-0.000000 -0.000000 0.000000 
0.000000 0.000000 0.000000 
0.000000 0.000000 0.000000 

-0.000000 -0.000000 0.000000 
0.000000 0.000000 0.000000 
0.000000 0.000000 0.000000 

-0.000000 -0.000000 0.000000 
0.000000 0.000000 0.000000 
0.000000 0.000000 0.000000 

-0.000000 -0.000000 0.000000 
0.000000 0.000000 0.000000 
0.000000 0.000000 0.000000 

-0.000000 -0.000000 0.000000 
0.000000 0.000000 0.000000 
0.000000 0.000000 0.000000 

-0.000000 -0.000000 0.000000 
0.000000 -0.000000 0.000000 
0.000000 0.000000 0.000000 

-0.000000 0.000000 0.000000 
0.000000 0.000000 0.000000 
0.000000 0.000000 0.000000 

-0.000000 -0.000000 0.000000 
0.000000 0.000000 0.000000 
0.000000 0.000000 0.000000 

-0.000000 0.000000 0.000000 
0.000000 0.000000 0.000000 
0.000000 0.000000 0.000000 

-0.000000 -0.000000 0.000000 
0.000000 -0.000000 0.000000 
0.000000 0.000000 0.000000 

-0.000000 -0.000000 0.000000 
0.000000 -0.000000 0.000000 
0.000000 0.000000 0.000000 

-0.000000 -0.000000 0.000000 
0.000000 -0.000000 0.000000 
0.000000 0.000000 0.000000 

-0.000000 -0.000000 0.000000 
0.000000 -0.000000 0.000000 
0.000000 0.000000 0.000000 

-0.000000 -0.000000 0.000000 
0.000000 0.000000 0.000000 
0.000000 0.000000 0.000000 

-0.000000 -0.000000 0.000000 
0.000000 0.000000 0.000000 
0.000000 0.000000 0.000000 

