# vtk DataFile Version 3.0 
vtk output 
ASCII 
DATASET UNSTRUCTURED_GRID 
POINTS 175 float 
-0.026061 -0.464485 0.000000 
-0.106992 -0.396429 0.000000 
-0.054870 -0.404662 0.000000 
-0.028809 -0.358778 0.000000 
-0.186430 -0.332354 0.000000 
-0.137056 -0.334880 0.000000 
-0.114311 -0.281232 0.000000 
-0.058186 -0.296898 0.000000 
-0.029377 -0.256721 0.000000 
-0.265318 -0.269198 0.000000 
-0.217198 -0.269997 0.000000 
-0.196633 -0.212701 0.000000 
-0.143120 -0.221410 0.000000 
-0.116563 -0.174141 0.000000 
-0.058945 -0.193787 0.000000 
-0.029568 -0.155667 0.000000 
-0.344206 -0.206042 0.000000 
-0.296791 -0.206035 0.000000 
-0.278030 -0.146092 0.000000 
-0.225992 -0.151958 0.000000 
-0.201664 -0.099841 0.000000 
-0.145749 -0.113315 0.000000 
-0.117890 -0.068973 0.000000 
-0.059328 -0.091678 0.000000 
-0.029759 -0.054613 0.000000 
-0.058559 -0.505235 0.000000 
-0.162226 -0.526078 0.000000 
-0.123292 -0.490460 0.000000 
-0.142917 -0.441477 0.000000 
-0.261851 -0.548234 0.000000 
-0.229092 -0.511207 0.000000 
-0.256854 -0.459976 0.000000 
-0.209613 -0.425863 0.000000 
-0.223062 -0.378289 0.000000 
-0.360414 -0.570534 0.000000 
-0.329787 -0.533412 0.000000 
-0.361761 -0.481609 0.000000 
-0.321587 -0.445201 0.000000 
-0.341985 -0.394967 0.000000 
-0.290702 -0.362168 0.000000 
-0.302189 -0.315432 0.000000 
-0.458977 -0.592835 0.000000 
-0.429420 -0.555760 0.000000 
-0.464588 -0.503718 0.000000 
-0.427556 -0.466691 0.000000 
-0.453135 -0.415176 0.000000 
-0.407738 -0.379861 0.000000 
-0.425037 -0.330432 0.000000 
-0.370772 -0.298803 0.000000 
-0.381315 -0.252576 0.000000 
-0.046960 -0.556051 0.000000 
-0.095301 -0.650096 0.000000 
-0.098873 -0.597449 0.000000 
-0.149405 -0.582252 0.000000 
-0.140093 -0.741800 0.000000 
-0.148617 -0.693102 0.000000 
-0.205981 -0.682865 0.000000 
-0.203197 -0.624662 0.000000 
-0.248777 -0.605515 0.000000 
-0.184111 -0.832764 0.000000 
-0.194039 -0.785673 0.000000 
-0.254475 -0.778373 0.000000 
-0.257893 -0.724264 0.000000 
-0.309886 -0.708891 0.000000 
-0.303554 -0.648346 0.000000 
-0.347255 -0.628188 0.000000 
-0.228129 -0.923728 0.000000 
-0.238687 -0.877503 0.000000 
-0.301302 -0.872551 0.000000 
-0.307162 -0.820512 0.000000 
-0.363386 -0.808391 0.000000 
-0.362692 -0.750880 0.000000 
-0.412122 -0.733587 0.000000 
-0.403017 -0.671440 0.000000 
-0.445733 -0.650861 0.000000 
-0.000000 -0.578665 0.000000 
0.043388 -0.675096 0.000000 
-0.000000 -0.645064 0.000000 
-0.043388 -0.675096 0.000000 
0.087158 -0.767293 0.000000 
0.043769 -0.743594 0.000000 
-0.000000 -0.782060 0.000000 
-0.043769 -0.743594 0.000000 
-0.087158 -0.767293 0.000000 
0.130831 -0.858422 0.000000 
0.087824 -0.836824 0.000000 
0.044436 -0.879523 0.000000 
-0.000000 -0.848458 0.000000 
-0.044436 -0.879523 0.000000 
-0.087824 -0.836824 0.000000 
-0.130831 -0.858422 0.000000 
0.174505 -0.949552 0.000000 
0.131782 -0.928986 0.000000 
0.088871 -0.974852 0.000000 
0.044532 -0.946989 0.000000 
-0.000000 -0.983389 0.000000 
-0.044532 -0.946989 0.000000 
-0.088871 -0.974852 0.000000 
-0.131782 -0.928986 0.000000 
-0.174505 -0.949552 0.000000 
0.046960 -0.556051 0.000000 
0.149405 -0.582252 0.000000 
0.098873 -0.597449 0.000000 
0.095301 -0.650096 0.000000 
0.248777 -0.605515 0.000000 
0.203197 -0.624662 0.000000 
0.205981 -0.682865 0.000000 
0.148617 -0.693102 0.000000 
0.140093 -0.741800 0.000000 
0.347255 -0.628188 0.000000 
0.303554 -0.648346 0.000000 
0.309886 -0.708891 0.000000 
0.257893 -0.724264 0.000000 
0.254475 -0.778373 0.000000 
0.194039 -0.785673 0.000000 
0.184111 -0.832764 0.000000 
0.445733 -0.650861 0.000000 
0.403017 -0.671440 0.000000 
0.412122 -0.733587 0.000000 
0.362692 -0.750880 0.000000 
0.363386 -0.808391 0.000000 
0.307162 -0.820512 0.000000 
0.301302 -0.872551 0.000000 
0.238687 -0.877503 0.000000 
0.228129 -0.923728 0.000000 
0.058559 -0.505235 0.000000 
0.142917 -0.441477 0.000000 
0.123292 -0.490460 0.000000 
0.162226 -0.526078 0.000000 
0.223062 -0.378289 0.000000 
0.209613 -0.425863 0.000000 
0.256854 -0.459976 0.000000 
0.229092 -0.511207 0.000000 
0.261851 -0.548234 0.000000 
0.302189 -0.315432 0.000000 
0.290702 -0.362168 0.000000 
0.341985 -0.394967 0.000000 
0.321587 -0.445201 0.000000 
0.361761 -0.481609 0.000000 
0.329787 -0.533412 0.000000 
0.360414 -0.570534 0.000000 
0.381315 -0.252576 0.000000 
0.370772 -0.298803 0.000000 
0.425037 -0.330432 0.000000 
0.407738 -0.379861 0.000000 
0.453135 -0.415176 0.000000 
0.427556 -0.466691 0.000000 
0.464588 -0.503718 0.000000 
0.429420 -0.555760 0.000000 
0.458977 -0.592835 0.000000 
0.026061 -0.464485 0.000000 
0.028809 -0.358778 0.000000 
0.054870 -0.404662 0.000000 
0.106992 -0.396429 0.000000 
0.029377 -0.256721 0.000000 
0.058186 -0.296898 0.000000 
0.114311 -0.281232 0.000000 
0.137056 -0.334880 0.000000 
0.186430 -0.332354 0.000000 
0.029568 -0.155667 0.000000 
0.058945 -0.193787 0.000000 
0.116563 -0.174141 0.000000 
0.143120 -0.221410 0.000000 
0.196633 -0.212701 0.000000 
0.217198 -0.269997 0.000000 
0.265318 -0.269198 0.000000 
0.029759 -0.054613 0.000000 
0.059328 -0.091678 0.000000 
0.117890 -0.068973 0.000000 
0.145749 -0.113315 0.000000 
0.201664 -0.099841 0.000000 
0.225992 -0.151958 0.000000 
0.278030 -0.146092 0.000000 
0.296791 -0.206035 0.000000 
0.344206 -0.206042 0.000000 
CELLS 175 350 
1 0 
1 1 
1 2 
1 3 
1 4 
1 5 
1 6 
1 7 
1 8 
1 9 
1 10 
1 11 
1 12 
1 13 
1 14 
1 15 
1 16 
1 17 
1 18 
1 19 
1 20 
1 21 
1 22 
1 23 
1 24 
1 25 
1 26 
1 27 
1 28 
1 29 
1 30 
1 31 
1 32 
1 33 
1 34 
1 35 
1 36 
1 37 
1 38 
1 39 
1 40 
1 41 
1 42 
1 43 
1 44 
1 45 
1 46 
1 47 
1 48 
1 49 
1 50 
1 51 
1 52 
1 53 
1 54 
1 55 
1 56 
1 57 
1 58 
1 59 
1 60 
1 61 
1 62 
1 63 
1 64 
1 65 
1 66 
1 67 
1 68 
1 69 
1 70 
1 71 
1 72 
1 73 
1 74 
1 75 
1 76 
1 77 
1 78 
1 79 
1 80 
1 81 
1 82 
1 83 
1 84 
1 85 
1 86 
1 87 
1 88 
1 89 
1 90 
1 91 
1 92 
1 93 
1 94 
1 95 
1 96 
1 97 
1 98 
1 99 
1 100 
1 101 
1 102 
1 103 
1 104 
1 105 
1 106 
1 107 
1 108 
1 109 
1 110 
1 111 
1 112 
1 113 
1 114 
1 115 
1 116 
1 117 
1 118 
1 119 
1 120 
1 121 
1 122 
1 123 
1 124 
1 125 
1 126 
1 127 
1 128 
1 129 
1 130 
1 131 
1 132 
1 133 
1 134 
1 135 
1 136 
1 137 
1 138 
1 139 
1 140 
1 141 
1 142 
1 143 
1 144 
1 145 
1 146 
1 147 
1 148 
1 149 
1 150 
1 151 
1 152 
1 153 
1 154 
1 155 
1 156 
1 157 
1 158 
1 159 
1 160 
1 161 
1 162 
1 163 
1 164 
1 165 
1 166 
1 167 
1 168 
1 169 
1 170 
1 171 
1 172 
1 173 
1 174 
CELL_TYPES 175 
1 
1 
1 
1 
1 
1 
1 
1 
1 
1 
1 
1 
1 
1 
1 
1 
1 
1 
1 
1 
1 
1 
1 
1 
1 
1 
1 
1 
1 
1 
1 
1 
1 
1 
1 
1 
1 
1 
1 
1 
1 
1 
1 
1 
1 
1 
1 
1 
1 
1 
1 
1 
1 
1 
1 
1 
1 
1 
1 
1 
1 
1 
1 
1 
1 
1 
1 
1 
1 
1 
1 
1 
1 
1 
1 
1 
1 
1 
1 
1 
1 
1 
1 
1 
1 
1 
1 
1 
1 
1 
1 
1 
1 
1 
1 
1 
1 
1 
1 
1 
1 
1 
1 
1 
1 
1 
1 
1 
1 
1 
1 
1 
1 
1 
1 
1 
1 
1 
1 
1 
1 
1 
1 
1 
1 
1 
1 
1 
1 
1 
1 
1 
1 
1 
1 
1 
1 
1 
1 
1 
1 
1 
1 
1 
1 
1 
1 
1 
1 
1 
1 
1 
1 
1 
1 
1 
1 
1 
1 
1 
1 
1 
1 
1 
1 
1 
1 
1 
1 
1 
1 
1 
1 
1 
1 
POINT_DATA 175 
VECTORS X_GC float 
-0.026061 -0.464485 0.000000 
-0.106992 -0.396429 0.000000 
-0.054870 -0.404662 0.000000 
-0.028809 -0.358778 0.000000 
-0.186430 -0.332354 0.000000 
-0.137056 -0.334880 0.000000 
-0.114311 -0.281232 0.000000 
-0.058186 -0.296898 0.000000 
-0.029377 -0.256721 0.000000 
-0.265318 -0.269198 0.000000 
-0.217198 -0.269997 0.000000 
-0.196633 -0.212701 0.000000 
-0.143120 -0.221410 0.000000 
-0.116563 -0.174141 0.000000 
-0.058945 -0.193787 0.000000 
-0.029568 -0.155667 0.000000 
-0.344206 -0.206042 0.000000 
-0.296791 -0.206035 0.000000 
-0.278030 -0.146092 0.000000 
-0.225992 -0.151958 0.000000 
-0.201664 -0.099841 0.000000 
-0.145749 -0.113315 0.000000 
-0.117890 -0.068973 0.000000 
-0.059328 -0.091678 0.000000 
-0.029759 -0.054613 0.000000 
-0.058559 -0.505235 0.000000 
-0.162226 -0.526078 0.000000 
-0.123292 -0.490460 0.000000 
-0.142917 -0.441477 0.000000 
-0.261851 -0.548234 0.000000 
-0.229092 -0.511207 0.000000 
-0.256854 -0.459976 0.000000 
-0.209613 -0.425863 0.000000 
-0.223062 -0.378289 0.000000 
-0.360414 -0.570534 0.000000 
-0.329787 -0.533412 0.000000 
-0.361761 -0.481609 0.000000 
-0.321587 -0.445201 0.000000 
-0.341985 -0.394967 0.000000 
-0.290702 -0.362168 0.000000 
-0.302189 -0.315432 0.000000 
-0.458977 -0.592835 0.000000 
-0.429420 -0.555760 0.000000 
-0.464588 -0.503718 0.000000 
-0.427556 -0.466691 0.000000 
-0.453135 -0.415176 0.000000 
-0.407738 -0.379861 0.000000 
-0.425037 -0.330432 0.000000 
-0.370772 -0.298803 0.000000 
-0.381315 -0.252576 0.000000 
-0.046960 -0.556051 0.000000 
-0.095301 -0.650096 0.000000 
-0.098873 -0.597449 0.000000 
-0.149405 -0.582252 0.000000 
-0.140093 -0.741800 0.000000 
-0.148617 -0.693102 0.000000 
-0.205981 -0.682865 0.000000 
-0.203197 -0.624662 0.000000 
-0.248777 -0.605515 0.000000 
-0.184111 -0.832764 0.000000 
-0.194039 -0.785673 0.000000 
-0.254475 -0.778373 0.000000 
-0.257893 -0.724264 0.000000 
-0.309886 -0.708891 0.000000 
-0.303554 -0.648346 0.000000 
-0.347255 -0.628188 0.000000 
-0.228129 -0.923728 0.000000 
-0.238687 -0.877503 0.000000 
-0.301302 -0.872551 0.000000 
-0.307162 -0.820512 0.000000 
-0.363386 -0.808391 0.000000 
-0.362692 -0.750880 0.000000 
-0.412122 -0.733587 0.000000 
-0.403017 -0.671440 0.000000 
-0.445733 -0.650861 0.000000 
-0.000000 -0.578665 0.000000 
0.043388 -0.675096 0.000000 
-0.000000 -0.645064 0.000000 
-0.043388 -0.675096 0.000000 
0.087158 -0.767293 0.000000 
0.043769 -0.743594 0.000000 
-0.000000 -0.782060 0.000000 
-0.043769 -0.743594 0.000000 
-0.087158 -0.767293 0.000000 
0.130831 -0.858422 0.000000 
0.087824 -0.836824 0.000000 
0.044436 -0.879523 0.000000 
-0.000000 -0.848458 0.000000 
-0.044436 -0.879523 0.000000 
-0.087824 -0.836824 0.000000 
-0.130831 -0.858422 0.000000 
0.174505 -0.949552 0.000000 
0.131782 -0.928986 0.000000 
0.088871 -0.974852 0.000000 
0.044532 -0.946989 0.000000 
-0.000000 -0.983389 0.000000 
-0.044532 -0.946989 0.000000 
-0.088871 -0.974852 0.000000 
-0.131782 -0.928986 0.000000 
-0.174505 -0.949552 0.000000 
0.046960 -0.556051 0.000000 
0.149405 -0.582252 0.000000 
0.098873 -0.597449 0.000000 
0.095301 -0.650096 0.000000 
0.248777 -0.605515 0.000000 
0.203197 -0.624662 0.000000 
0.205981 -0.682865 0.000000 
0.148617 -0.693102 0.000000 
0.140093 -0.741800 0.000000 
0.347255 -0.628188 0.000000 
0.303554 -0.648346 0.000000 
0.309886 -0.708891 0.000000 
0.257893 -0.724264 0.000000 
0.254475 -0.778373 0.000000 
0.194039 -0.785673 0.000000 
0.184111 -0.832764 0.000000 
0.445733 -0.650861 0.000000 
0.403017 -0.671440 0.000000 
0.412122 -0.733587 0.000000 
0.362692 -0.750880 0.000000 
0.363386 -0.808391 0.000000 
0.307162 -0.820512 0.000000 
0.301302 -0.872551 0.000000 
0.238687 -0.877503 0.000000 
0.228129 -0.923728 0.000000 
0.058559 -0.505235 0.000000 
0.142917 -0.441477 0.000000 
0.123292 -0.490460 0.000000 
0.162226 -0.526078 0.000000 
0.223062 -0.378289 0.000000 
0.209613 -0.425863 0.000000 
0.256854 -0.459976 0.000000 
0.229092 -0.511207 0.000000 
0.261851 -0.548234 0.000000 
0.302189 -0.315432 0.000000 
0.290702 -0.362168 0.000000 
0.341985 -0.394967 0.000000 
0.321587 -0.445201 0.000000 
0.361761 -0.481609 0.000000 
0.329787 -0.533412 0.000000 
0.360414 -0.570534 0.000000 
0.381315 -0.252576 0.000000 
0.370772 -0.298803 0.000000 
0.425037 -0.330432 0.000000 
0.407738 -0.379861 0.000000 
0.453135 -0.415176 0.000000 
0.427556 -0.466691 0.000000 
0.464588 -0.503718 0.000000 
0.429420 -0.555760 0.000000 
0.458977 -0.592835 0.000000 
0.026061 -0.464485 0.000000 
0.028809 -0.358778 0.000000 
0.054870 -0.404662 0.000000 
0.106992 -0.396429 0.000000 
0.029377 -0.256721 0.000000 
0.058186 -0.296898 0.000000 
0.114311 -0.281232 0.000000 
0.137056 -0.334880 0.000000 
0.186430 -0.332354 0.000000 
0.029568 -0.155667 0.000000 
0.058945 -0.193787 0.000000 
0.116563 -0.174141 0.000000 
0.143120 -0.221410 0.000000 
0.196633 -0.212701 0.000000 
0.217198 -0.269997 0.000000 
0.265318 -0.269198 0.000000 
0.029759 -0.054613 0.000000 
0.059328 -0.091678 0.000000 
0.117890 -0.068973 0.000000 
0.145749 -0.113315 0.000000 
0.201664 -0.099841 0.000000 
0.225992 -0.151958 0.000000 
0.278030 -0.146092 0.000000 
0.296791 -0.206035 0.000000 
0.344206 -0.206042 0.000000 
VECTORS X_EC float 
0.338794 0.770541 0.000000 
-0.609100 -0.148207 0.000000 
0.713312 -0.037066 0.000000 
0.374519 -0.656496 0.000000 
0.423588 0.986774 0.000000 
-0.218274 -0.979123 0.000000 
-0.513962 0.296638 0.000000 
0.756418 0.508124 0.000000 
0.381900 -0.034268 0.000000 
-0.550868 0.134170 0.000000 
0.823577 0.144966 0.000000 
0.556234 -0.628538 0.000000 
-0.139443 -0.510969 0.000000 
-0.484677 0.850906 0.000000 
0.766286 -0.883879 0.000000 
0.384386 0.601501 0.000000 
0.474677 -0.718433 0.000000 
-0.141715 -0.718529 0.000000 
-0.385608 0.472243 0.000000 
0.937896 0.551438 0.000000 
0.621631 -0.152142 0.000000 
-0.105264 0.029757 0.000000 
-0.467428 -0.568869 0.000000 
0.771260 -0.262341 0.000000 
0.386873 -0.762730 0.000000 
0.761262 -0.679324 0.000000 
0.108942 -0.397948 0.000000 
-0.397202 -0.878787 0.000000 
-0.142083 0.459938 0.000000 
-0.595936 -0.098837 0.000000 
0.978194 -0.598703 0.000000 
-0.660903 0.709672 0.000000 
0.724964 0.249152 0.000000 
0.899809 -0.393097 0.000000 
0.685384 0.202215 0.000000 
0.287229 -0.298943 0.000000 
0.702895 -0.998272 0.000000 
0.180633 0.510209 0.000000 
0.445811 -0.167950 0.000000 
-0.220880 -0.610736 0.000000 
-0.071546 0.758338 0.000000 
-0.033296 0.503267 0.000000 
-0.417537 0.002758 0.000000 
0.039645 -0.699805 0.000000 
-0.441768 0.800324 0.000000 
-0.109248 0.104873 0.000000 
-0.699407 -0.371882 0.000000 
-0.474522 0.960839 0.000000 
0.820030 0.533845 0.000000 
0.957100 -0.090227 0.000000 
0.610485 0.006682 0.000000 
-0.761092 -0.723699 0.000000 
-0.714655 0.565564 0.000000 
-0.057734 0.360397 0.000000 
-0.178789 0.514306 0.000000 
-0.067979 -0.143121 0.000000 
0.677748 -0.281324 0.000000 
0.641556 0.932931 0.000000 
-0.765897 0.674452 0.000000 
0.393446 -0.257685 0.000000 
0.522510 -0.893415 0.000000 
-0.691820 -0.991960 0.000000 
-0.647393 0.277558 0.000000 
0.028512 0.070031 0.000000 
-0.053800 -0.747329 0.000000 
0.514316 0.980540 0.000000 
0.965681 0.970324 0.000000 
-0.897068 0.346295 0.000000 
-0.083078 0.279442 0.000000 
-0.006893 -0.423083 0.000000 
0.724017 -0.586716 0.000000 
0.714996 0.636881 0.000000 
-0.642413 0.403424 0.000000 
-0.760780 -0.435557 0.000000 
-0.205471 -0.713372 0.000000 
0.000000 0.311984 0.000000 
-0.564049 -0.386204 0.000000 
0.000000 -0.791640 0.000000 
0.564049 -0.386204 0.000000 
0.866949 0.858452 0.000000 
-0.569003 0.538521 0.000000 
0.000000 -0.942191 0.000000 
0.569003 0.538521 0.000000 
-0.866949 0.858452 0.000000 
0.299194 0.088702 0.000000 
0.858290 -0.202882 0.000000 
-0.577662 0.373564 0.000000 
0.000000 -0.045814 0.000000 
0.577662 0.373564 0.000000 
-0.858290 -0.202882 0.000000 
-0.299194 0.088702 0.000000 
-0.268560 -0.681048 0.000000 
0.286830 -0.958690 0.000000 
0.844677 -0.339491 0.000000 
-0.578910 -0.715654 0.000000 
0.000000 -0.224250 0.000000 
0.578910 -0.715654 0.000000 
-0.844677 -0.339491 0.000000 
-0.286830 -0.958690 0.000000 
0.268560 -0.681048 0.000000 
-0.610485 0.006682 0.000000 
0.057734 0.360397 0.000000 
0.714655 0.565564 0.000000 
0.761092 -0.723699 0.000000 
0.765897 0.674452 0.000000 
-0.641556 0.932931 0.000000 
-0.677748 -0.281324 0.000000 
0.067979 -0.143121 0.000000 
0.178789 0.514306 0.000000 
-0.514316 0.980540 0.000000 
0.053800 -0.747329 0.000000 
-0.028512 0.070031 0.000000 
0.647393 0.277558 0.000000 
0.691820 -0.991960 0.000000 
-0.522510 -0.893415 0.000000 
-0.393446 -0.257685 0.000000 
0.205471 -0.713372 0.000000 
0.760780 -0.435557 0.000000 
0.642413 0.403424 0.000000 
-0.714996 0.636881 0.000000 
-0.724017 -0.586716 0.000000 
0.006894 -0.423083 0.000000 
0.083078 0.279442 0.000000 
0.897068 0.346295 0.000000 
-0.965681 0.970324 0.000000 
-0.761262 -0.679324 0.000000 
0.142083 0.459938 0.000000 
0.397202 -0.878787 0.000000 
-0.108942 -0.397948 0.000000 
-0.899809 -0.393097 0.000000 
-0.724964 0.249152 0.000000 
0.660903 0.709672 0.000000 
-0.978194 -0.598703 0.000000 
0.595936 -0.098837 0.000000 
0.071546 0.758338 0.000000 
0.220880 -0.610736 0.000000 
-0.445811 -0.167950 0.000000 
-0.180633 0.510209 0.000000 
-0.702895 -0.998272 0.000000 
-0.287229 -0.298943 0.000000 
-0.685384 0.202215 0.000000 
-0.957100 -0.090227 0.000000 
-0.820030 0.533845 0.000000 
0.474522 0.960839 0.000000 
0.699407 -0.371882 0.000000 
0.109248 0.104873 0.000000 
0.441768 0.800324 0.000000 
-0.039645 -0.699805 0.000000 
0.417537 0.002758 0.000000 
0.033296 0.503267 0.000000 
-0.338794 0.770541 0.000000 
-0.374519 -0.656496 0.000000 
-0.713312 -0.037066 0.000000 
0.609100 -0.148207 0.000000 
-0.381900 -0.034268 0.000000 
-0.756418 0.508124 0.000000 
0.513962 0.296638 0.000000 
0.218274 -0.979123 0.000000 
-0.423588 0.986774 0.000000 
-0.384386 0.601501 0.000000 
-0.766286 -0.883879 0.000000 
0.484677 0.850906 0.000000 
0.139443 -0.510969 0.000000 
-0.556234 -0.628538 0.000000 
-0.823577 0.144966 0.000000 
0.550868 0.134170 0.000000 
-0.386873 -0.762730 0.000000 
-0.771260 -0.262341 0.000000 
0.467428 -0.568869 0.000000 
0.105264 0.029757 0.000000 
-0.621631 -0.152142 0.000000 
-0.937896 0.551438 0.000000 
0.385608 0.472243 0.000000 
0.141715 -0.718529 0.000000 
-0.474677 -0.718433 0.000000 
CELL_DATA 175 
SCALARS MASS float 
LOOKUP_TABLE default 
0.078183 
0.086427 
0.094672 
0.086427 
0.088131 
0.092111 
0.085854 
0.092111 
0.088131 
0.088705 
0.091000 
0.086983 
0.091556 
0.086983 
0.091000 
0.088705 
0.089278 
0.091574 
0.089278 
0.092722 
0.089278 
0.092722 
0.089278 
0.091574 
0.089278 
0.078183 
0.086427 
0.094672 
0.086427 
0.088131 
0.092111 
0.085854 
0.092111 
0.088131 
0.088705 
0.091000 
0.086983 
0.091556 
0.086983 
0.091000 
0.088705 
0.089278 
0.091574 
0.089278 
0.092722 
0.089278 
0.092722 
0.089278 
0.091574 
0.089278 
0.078183 
0.086427 
0.094672 
0.086427 
0.088131 
0.092111 
0.085854 
0.092111 
0.088131 
0.088705 
0.091000 
0.086983 
0.091556 
0.086983 
0.091000 
0.088705 
0.089278 
0.091574 
0.089278 
0.092722 
0.089278 
0.092722 
0.089278 
0.091574 
0.089278 
0.078183 
0.086427 
0.094672 
0.086427 
0.088131 
0.092111 
0.085854 
0.092111 
0.088131 
0.088705 
0.091000 
0.086983 
0.091556 
0.086983 
0.091000 
0.088705 
0.089278 
0.091574 
0.089278 
0.092722 
0.089278 
0.092722 
0.089278 
0.091574 
0.089278 
0.078183 
0.086427 
0.094672 
0.086427 
0.088131 
0.092111 
0.085854 
0.092111 
0.088131 
0.088705 
0.091000 
0.086983 
0.091556 
0.086983 
0.091000 
0.088705 
0.089278 
0.091574 
0.089278 
0.092722 
0.089278 
0.092722 
0.089278 
0.091574 
0.089278 
0.078183 
0.086427 
0.094672 
0.086427 
0.088131 
0.092111 
0.085854 
0.092111 
0.088131 
0.088705 
0.091000 
0.086983 
0.091556 
0.086983 
0.091000 
0.088705 
0.089278 
0.091574 
0.089278 
0.092722 
0.089278 
0.092722 
0.089278 
0.091574 
0.089278 
0.078183 
0.086427 
0.094672 
0.086427 
0.088131 
0.092111 
0.085854 
0.092111 
0.088131 
0.088705 
0.091000 
0.086983 
0.091556 
0.086983 
0.091000 
0.088705 
0.089278 
0.091574 
0.089278 
0.092722 
0.089278 
0.092722 
0.089278 
0.091574 
0.089278 
SCALARS MASS float 
LOOKUP_TABLE default 
0.078183 
0.086427 
0.094672 
0.086427 
0.088131 
0.092111 
0.085854 
0.092111 
0.088131 
0.088705 
0.091000 
0.086983 
0.091556 
0.086983 
0.091000 
0.088705 
0.089278 
0.091574 
0.089278 
0.092722 
0.089278 
0.092722 
0.089278 
0.091574 
0.089278 
0.078183 
0.086427 
0.094672 
0.086427 
0.088131 
0.092111 
0.085854 
0.092111 
0.088131 
0.088705 
0.091000 
0.086983 
0.091556 
0.086983 
0.091000 
0.088705 
0.089278 
0.091574 
0.089278 
0.092722 
0.089278 
0.092722 
0.089278 
0.091574 
0.089278 
0.078183 
0.086427 
0.094672 
0.086427 
0.088131 
0.092111 
0.085854 
0.092111 
0.088131 
0.088705 
0.091000 
0.086983 
0.091556 
0.086983 
0.091000 
0.088705 
0.089278 
0.091574 
0.089278 
0.092722 
0.089278 
0.092722 
0.089278 
0.091574 
0.089278 
0.078183 
0.086427 
0.094672 
0.086427 
0.088131 
0.092111 
0.085854 
0.092111 
0.088131 
0.088705 
0.091000 
0.086983 
0.091556 
0.086983 
0.091000 
0.088705 
0.089278 
0.091574 
0.089278 
0.092722 
0.089278 
0.092722 
0.089278 
0.091574 
0.089278 
0.078183 
0.086427 
0.094672 
0.086427 
0.088131 
0.092111 
0.085854 
0.092111 
0.088131 
0.088705 
0.091000 
0.086983 
0.091556 
0.086983 
0.091000 
0.088705 
0.089278 
0.091574 
0.089278 
0.092722 
0.089278 
0.092722 
0.089278 
0.091574 
0.089278 
0.078183 
0.086427 
0.094672 
0.086427 
0.088131 
0.092111 
0.085854 
0.092111 
0.088131 
0.088705 
0.091000 
0.086983 
0.091556 
0.086983 
0.091000 
0.088705 
0.089278 
0.091574 
0.089278 
0.092722 
0.089278 
0.092722 
0.089278 
0.091574 
0.089278 
0.078183 
0.086427 
0.094672 
0.086427 
0.088131 
0.092111 
0.085854 
0.092111 
0.088131 
0.088705 
0.091000 
0.086983 
0.091556 
0.086983 
0.091000 
0.088705 
0.089278 
0.091574 
0.089278 
0.092722 
0.089278 
0.092722 
0.089278 
0.091574 
0.089278 
SCALARS DENSITY float 
LOOKUP_TABLE default 
20.000000 
20.000000 
20.000000 
20.000000 
20.000000 
20.000000 
20.000000 
20.000000 
20.000000 
20.000000 
20.000000 
20.000000 
20.000000 
20.000000 
20.000000 
20.000000 
20.000000 
20.000000 
20.000000 
20.000000 
20.000000 
20.000000 
20.000000 
20.000000 
20.000000 
20.000000 
20.000000 
20.000000 
20.000000 
20.000000 
20.000000 
20.000000 
20.000000 
20.000000 
20.000000 
20.000000 
20.000000 
20.000000 
20.000000 
20.000000 
20.000000 
20.000000 
20.000000 
20.000000 
20.000000 
20.000000 
20.000000 
20.000000 
20.000000 
20.000000 
20.000000 
20.000000 
20.000000 
20.000000 
20.000000 
20.000000 
20.000000 
20.000000 
20.000000 
20.000000 
20.000000 
20.000000 
20.000000 
20.000000 
20.000000 
20.000000 
20.000000 
20.000000 
20.000000 
20.000000 
20.000000 
20.000000 
20.000000 
20.000000 
20.000000 
20.000000 
20.000000 
20.000000 
20.000000 
20.000000 
20.000000 
20.000000 
20.000000 
20.000000 
20.000000 
20.000000 
20.000000 
20.000000 
20.000000 
20.000000 
20.000000 
20.000000 
20.000000 
20.000000 
20.000000 
20.000000 
20.000000 
20.000000 
20.000000 
20.000000 
20.000000 
20.000000 
20.000000 
20.000000 
20.000000 
20.000000 
20.000000 
20.000000 
20.000000 
20.000000 
20.000000 
20.000000 
20.000000 
20.000000 
20.000000 
20.000000 
20.000000 
20.000000 
20.000000 
20.000000 
20.000000 
20.000000 
20.000000 
20.000000 
20.000000 
20.000000 
20.000000 
20.000000 
20.000000 
20.000000 
20.000000 
20.000000 
20.000000 
20.000000 
20.000000 
20.000000 
20.000000 
20.000000 
20.000000 
20.000000 
20.000000 
20.000000 
20.000000 
20.000000 
20.000000 
20.000000 
20.000000 
20.000000 
20.000000 
20.000000 
20.000000 
20.000000 
20.000000 
20.000000 
20.000000 
20.000000 
20.000000 
20.000000 
20.000000 
20.000000 
20.000000 
20.000000 
20.000000 
20.000000 
20.000000 
20.000000 
20.000000 
20.000000 
20.000000 
20.000000 
20.000000 
20.000000 
20.000000 
20.000000 
20.000000 
SCALARS ELEM_i float 
LOOKUP_TABLE default 
179 
206 
179 
179 
207 
206 
207 
180 
180 
234 
207 
207 
207 
208 
180 
181 
234 
234 
235 
208 
208 
208 
208 
181 
181 
178 
205 
205 
206 
232 
205 
233 
206 
206 
232 
232 
232 
233 
233 
233 
234 
259 
259 
259 
260 
260 
260 
261 
234 
234 
178 
204 
205 
205 
204 
204 
204 
205 
232 
203 
203 
230 
231 
231 
231 
232 
203 
230 
230 
230 
230 
231 
258 
258 
258 
178 
177 
177 
177 
150 
177 
176 
177 
204 
149 
149 
176 
176 
176 
203 
203 
148 
148 
148 
175 
175 
175 
202 
202 
202 
178 
151 
151 
150 
124 
151 
150 
150 
150 
124 
123 
123 
123 
122 
149 
149 
96 
96 
96 
123 
122 
122 
122 
122 
149 
178 
152 
151 
151 
152 
152 
125 
151 
124 
126 
125 
125 
125 
124 
124 
124 
126 
126 
99 
98 
98 
98 
97 
97 
97 
179 
179 
179 
152 
180 
180 
153 
152 
153 
181 
180 
154 
153 
153 
153 
126 
181 
181 
154 
154 
154 
154 
127 
126 
126 
VECTORS VELOCITY float 
0.000000 -3.189427 0.000000 
0.000000 -3.189427 0.000000 
0.000000 -3.189427 0.000000 
0.000000 -3.189427 0.000000 
-0.000000 -3.189427 0.000000 
0.000000 -3.189427 0.000000 
0.000000 -3.189427 0.000000 
0.000000 -3.189427 0.000000 
-0.000000 -3.189427 0.000000 
0.000000 -3.189427 0.000000 
0.000000 -3.189427 0.000000 
0.000000 -3.189427 0.000000 
0.000000 -3.189427 0.000000 
0.000000 -3.189427 0.000000 
0.000000 -3.189427 0.000000 
0.000000 -3.189427 0.000000 
-0.000000 -3.189427 0.000000 
0.000000 -3.189427 0.000000 
-0.000000 -3.189427 0.000000 
0.000000 -3.189427 0.000000 
0.000000 -3.189427 0.000000 
-0.000000 -3.189427 0.000000 
-0.000000 -3.189427 0.000000 
-0.000000 -3.189427 0.000000 
0.000000 -3.189427 0.000000 
0.000000 -3.189427 0.000000 
0.000000 -3.189427 0.000000 
0.000000 -3.189427 0.000000 
0.000000 -3.189427 0.000000 
-0.000000 -3.189427 0.000000 
-0.000000 -3.189427 0.000000 
-0.000000 -3.189427 0.000000 
-0.000000 -3.189427 0.000000 
-0.000000 -3.189427 0.000000 
-0.000000 -3.189427 0.000000 
-0.000000 -3.189427 0.000000 
-0.000000 -3.189427 0.000000 
-0.000000 -3.189427 0.000000 
0.000000 -3.189427 0.000000 
-0.000000 -3.189427 0.000000 
0.000000 -3.189427 0.000000 
0.000000 -3.189427 0.000000 
0.000000 -3.189427 0.000000 
-0.000000 -3.189427 0.000000 
-0.000000 -3.189427 0.000000 
0.000000 -3.189427 0.000000 
0.000000 -3.189427 0.000000 
0.000000 -3.189427 0.000000 
0.000000 -3.189427 0.000000 
-0.000000 -3.189427 0.000000 
-0.000000 -3.189427 0.000000 
-0.000000 -3.189427 0.000000 
-0.000000 -3.189427 0.000000 
-0.000000 -3.189427 0.000000 
-0.000000 -3.189427 0.000000 
-0.000000 -3.189427 0.000000 
-0.000000 -3.189427 0.000000 
-0.000000 -3.189427 0.000000 
-0.000000 -3.189427 0.000000 
0.000000 -3.189427 0.000000 
0.000000 -3.189427 0.000000 
0.000000 -3.189427 0.000000 
0.000000 -3.189427 0.000000 
0.000000 -3.189427 0.000000 
-0.000000 -3.189427 0.000000 
-0.000000 -3.189427 0.000000 
-0.000000 -3.189427 0.000000 
0.000000 -3.189427 0.000000 
0.000000 -3.189427 0.000000 
0.000000 -3.189427 0.000000 
0.000000 -3.189427 0.000000 
0.000000 -3.189427 0.000000 
0.000000 -3.189427 0.000000 
0.000000 -3.189427 0.000000 
0.000000 -3.189427 0.000000 
-0.000000 -3.189427 0.000000 
-0.000000 -3.189427 0.000000 
-0.000000 -3.189427 0.000000 
-0.000000 -3.189427 0.000000 
0.000000 -3.189427 0.000000 
0.000000 -3.189427 0.000000 
-0.000000 -3.189427 0.000000 
-0.000000 -3.189427 0.000000 
-0.000000 -3.189427 0.000000 
-0.000000 -3.189427 0.000000 
0.000000 -3.189427 0.000000 
-0.000000 -3.189427 0.000000 
-0.000000 -3.189427 0.000000 
0.000000 -3.189427 0.000000 
0.000000 -3.189427 0.000000 
0.000000 -3.189427 0.000000 
-0.000000 -3.189427 0.000000 
-0.000000 -3.189427 0.000000 
-0.000000 -3.189427 0.000000 
-0.000000 -3.189427 0.000000 
0.000000 -3.189427 0.000000 
0.000000 -3.189427 0.000000 
0.000000 -3.189427 0.000000 
0.000000 -3.189427 0.000000 
0.000000 -3.189427 0.000000 
-0.000000 -3.189427 0.000000 
0.000000 -3.189427 0.000000 
0.000000 -3.189427 0.000000 
0.000000 -3.189427 0.000000 
-0.000000 -3.189427 0.000000 
-0.000000 -3.189427 0.000000 
0.000000 -3.189427 0.000000 
0.000000 -3.189427 0.000000 
0.000000 -3.189427 0.000000 
-0.000000 -3.189427 0.000000 
-0.000000 -3.189427 0.000000 
-0.000000 -3.189427 0.000000 
0.000000 -3.189427 0.000000 
0.000000 -3.189427 0.000000 
0.000000 -3.189427 0.000000 
-0.000000 -3.189427 0.000000 
0.000000 -3.189427 0.000000 
0.000000 -3.189427 0.000000 
-0.000000 -3.189427 0.000000 
-0.000000 -3.189427 0.000000 
-0.000000 -3.189427 0.000000 
-0.000000 -3.189427 0.000000 
-0.000000 -3.189427 0.000000 
-0.000000 -3.189427 0.000000 
-0.000000 -3.189427 0.000000 
-0.000000 -3.189427 0.000000 
-0.000000 -3.189427 0.000000 
-0.000000 -3.189427 0.000000 
0.000000 -3.189427 0.000000 
-0.000000 -3.189427 0.000000 
-0.000000 -3.189427 0.000000 
0.000000 -3.189427 0.000000 
0.000000 -3.189427 0.000000 
0.000000 -3.189427 0.000000 
-0.000000 -3.189427 0.000000 
-0.000000 -3.189427 0.000000 
0.000000 -3.189427 0.000000 
0.000000 -3.189427 0.000000 
0.000000 -3.189427 0.000000 
0.000000 -3.189427 0.000000 
-0.000000 -3.189427 0.000000 
-0.000000 -3.189427 0.000000 
0.000000 -3.189427 0.000000 
-0.000000 -3.189427 0.000000 
0.000000 -3.189427 0.000000 
0.000000 -3.189427 0.000000 
0.000000 -3.189427 0.000000 
-0.000000 -3.189427 0.000000 
-0.000000 -3.189427 0.000000 
-0.000000 -3.189427 0.000000 
-0.000000 -3.189427 0.000000 
0.000000 -3.189427 0.000000 
0.000000 -3.189427 0.000000 
-0.000000 -3.189427 0.000000 
0.000000 -3.189427 0.000000 
0.000000 -3.189427 0.000000 
0.000000 -3.189427 0.000000 
-0.000000 -3.189427 0.000000 
-0.000000 -3.189427 0.000000 
0.000000 -3.189427 0.000000 
0.000000 -3.189427 0.000000 
0.000000 -3.189427 0.000000 
0.000000 -3.189427 0.000000 
0.000000 -3.189427 0.000000 
-0.000000 -3.189427 0.000000 
-0.000000 -3.189427 0.000000 
0.000000 -3.189427 0.000000 
0.000000 -3.189427 0.000000 
-0.000000 -3.189427 0.000000 
0.000000 -3.189427 0.000000 
-0.000000 -3.189427 0.000000 
-0.000000 -3.189427 0.000000 
0.000000 -3.189427 0.000000 
-0.000000 -3.189427 0.000000 
-0.000000 -3.189427 0.000000 
TENSORS STRESS float 
0.000000 -0.000000 0.000000 
0.000000 -0.000000 0.000000 
0.000000 0.000000 0.000000 

0.000000 0.000000 0.000000 
0.000000 0.000000 0.000000 
0.000000 0.000000 0.000000 

-0.000000 0.000000 0.000000 
0.000000 -0.000000 0.000000 
0.000000 0.000000 0.000000 

0.000000 0.000000 0.000000 
0.000000 -0.000000 0.000000 
0.000000 0.000000 0.000000 

-0.000000 0.000000 0.000000 
0.000000 0.000000 0.000000 
0.000000 0.000000 0.000000 

0.000000 0.000000 0.000000 
0.000000 0.000000 0.000000 
0.000000 0.000000 0.000000 

-0.000000 0.000000 0.000000 
0.000000 -0.000000 0.000000 
0.000000 0.000000 0.000000 

0.000000 -0.000000 0.000000 
0.000000 0.000000 0.000000 
0.000000 0.000000 0.000000 

0.000000 -0.000000 0.000000 
0.000000 0.000000 0.000000 
0.000000 0.000000 0.000000 

0.000000 0.000000 0.000000 
0.000000 0.000000 0.000000 
0.000000 0.000000 0.000000 

-0.000000 -0.000000 0.000000 
0.000000 -0.000000 0.000000 
0.000000 0.000000 0.000000 

0.000000 0.000000 0.000000 
0.000000 0.000000 0.000000 
0.000000 0.000000 0.000000 

0.000000 -0.000000 0.000000 
0.000000 0.000000 0.000000 
0.000000 0.000000 0.000000 

0.000000 0.000000 0.000000 
0.000000 0.000000 0.000000 
0.000000 0.000000 0.000000 

0.000000 -0.000000 0.000000 
0.000000 0.000000 0.000000 
0.000000 0.000000 0.000000 

0.000000 -0.000000 0.000000 
0.000000 0.000000 0.000000 
0.000000 0.000000 0.000000 

0.000000 0.000000 0.000000 
0.000000 0.000000 0.000000 
0.000000 0.000000 0.000000 

0.000000 0.000000 0.000000 
0.000000 0.000000 0.000000 
0.000000 0.000000 0.000000 

-0.000000 -0.000000 0.000000 
0.000000 -0.000000 0.000000 
0.000000 0.000000 0.000000 

0.000000 0.000000 0.000000 
0.000000 0.000000 0.000000 
0.000000 0.000000 0.000000 

0.000000 0.000000 0.000000 
0.000000 -0.000000 0.000000 
0.000000 0.000000 0.000000 

0.000000 -0.000000 0.000000 
0.000000 -0.000000 0.000000 
0.000000 0.000000 0.000000 

0.000000 -0.000000 0.000000 
0.000000 0.000000 0.000000 
0.000000 0.000000 0.000000 

-0.000000 -0.000000 0.000000 
0.000000 -0.000000 0.000000 
0.000000 0.000000 0.000000 

0.000000 0.000000 0.000000 
0.000000 0.000000 0.000000 
0.000000 0.000000 0.000000 

0.000000 0.000000 0.000000 
0.000000 0.000000 0.000000 
0.000000 0.000000 0.000000 

0.000000 0.000000 0.000000 
0.000000 0.000000 0.000000 
0.000000 0.000000 0.000000 

0.000000 0.000000 0.000000 
0.000000 -0.000000 0.000000 
0.000000 0.000000 0.000000 

0.000000 -0.000000 0.000000 
0.000000 0.000000 0.000000 
0.000000 0.000000 0.000000 

-0.000000 -0.000000 0.000000 
0.000000 -0.000000 0.000000 
0.000000 0.000000 0.000000 

-0.000000 -0.000000 0.000000 
0.000000 -0.000000 0.000000 
0.000000 0.000000 0.000000 

-0.000000 -0.000000 0.000000 
0.000000 -0.000000 0.000000 
0.000000 0.000000 0.000000 

0.000000 -0.000000 0.000000 
0.000000 0.000000 0.000000 
0.000000 0.000000 0.000000 

-0.000000 0.000000 0.000000 
0.000000 -0.000000 0.000000 
0.000000 0.000000 0.000000 

-0.000000 -0.000000 0.000000 
0.000000 -0.000000 0.000000 
0.000000 0.000000 0.000000 

0.000000 0.000000 0.000000 
0.000000 -0.000000 0.000000 
0.000000 0.000000 0.000000 

-0.000000 -0.000000 0.000000 
0.000000 -0.000000 0.000000 
0.000000 0.000000 0.000000 

0.000000 0.000000 0.000000 
0.000000 0.000000 0.000000 
0.000000 0.000000 0.000000 

0.000000 -0.000000 0.000000 
0.000000 0.000000 0.000000 
0.000000 0.000000 0.000000 

0.000000 0.000000 0.000000 
0.000000 0.000000 0.000000 
0.000000 0.000000 0.000000 

0.000000 -0.000000 0.000000 
0.000000 0.000000 0.000000 
0.000000 0.000000 0.000000 

-0.000000 -0.000000 0.000000 
0.000000 -0.000000 0.000000 
0.000000 0.000000 0.000000 

0.000000 0.000000 0.000000 
0.000000 0.000000 0.000000 
0.000000 0.000000 0.000000 

0.000000 -0.000000 0.000000 
0.000000 0.000000 0.000000 
0.000000 0.000000 0.000000 

0.000000 0.000000 0.000000 
0.000000 0.000000 0.000000 
0.000000 0.000000 0.000000 

-0.000000 -0.000000 0.000000 
0.000000 -0.000000 0.000000 
0.000000 0.000000 0.000000 

-0.000000 0.000000 0.000000 
0.000000 -0.000000 0.000000 
0.000000 0.000000 0.000000 

0.000000 0.000000 0.000000 
0.000000 -0.000000 0.000000 
0.000000 0.000000 0.000000 

0.000000 0.000000 0.000000 
0.000000 0.000000 0.000000 
0.000000 0.000000 0.000000 

-0.000000 -0.000000 0.000000 
0.000000 -0.000000 0.000000 
0.000000 0.000000 0.000000 

0.000000 0.000000 0.000000 
0.000000 0.000000 0.000000 
0.000000 0.000000 0.000000 

-0.000000 -0.000000 0.000000 
0.000000 -0.000000 0.000000 
0.000000 0.000000 0.000000 

-0.000000 0.000000 0.000000 
0.000000 -0.000000 0.000000 
0.000000 0.000000 0.000000 

-0.000000 0.000000 0.000000 
0.000000 -0.000000 0.000000 
0.000000 0.000000 0.000000 

-0.000000 0.000000 0.000000 
0.000000 -0.000000 0.000000 
0.000000 0.000000 0.000000 

-0.000000 -0.000000 0.000000 
0.000000 -0.000000 0.000000 
0.000000 0.000000 0.000000 

-0.000000 0.000000 0.000000 
0.000000 -0.000000 0.000000 
0.000000 0.000000 0.000000 

-0.000000 -0.000000 0.000000 
0.000000 -0.000000 0.000000 
0.000000 0.000000 0.000000 

-0.000000 0.000000 0.000000 
0.000000 -0.000000 0.000000 
0.000000 0.000000 0.000000 

0.000000 -0.000000 0.000000 
0.000000 0.000000 0.000000 
0.000000 0.000000 0.000000 

0.000000 0.000000 0.000000 
0.000000 0.000000 0.000000 
0.000000 0.000000 0.000000 

-0.000000 0.000000 0.000000 
0.000000 -0.000000 0.000000 
0.000000 0.000000 0.000000 

-0.000000 0.000000 0.000000 
0.000000 -0.000000 0.000000 
0.000000 0.000000 0.000000 

-0.000000 0.000000 0.000000 
0.000000 0.000000 0.000000 
0.000000 0.000000 0.000000 

0.000000 0.000000 0.000000 
0.000000 0.000000 0.000000 
0.000000 0.000000 0.000000 

0.000000 -0.000000 0.000000 
0.000000 0.000000 0.000000 
0.000000 0.000000 0.000000 

0.000000 -0.000000 0.000000 
0.000000 0.000000 0.000000 
0.000000 0.000000 0.000000 

-0.000000 0.000000 0.000000 
0.000000 0.000000 0.000000 
0.000000 0.000000 0.000000 

-0.000000 0.000000 0.000000 
0.000000 -0.000000 0.000000 
0.000000 0.000000 0.000000 

-0.000000 -0.000000 0.000000 
0.000000 0.000000 0.000000 
0.000000 0.000000 0.000000 

-0.000000 0.000000 0.000000 
0.000000 -0.000000 0.000000 
0.000000 0.000000 0.000000 

-0.000000 0.000000 0.000000 
0.000000 -0.000000 0.000000 
0.000000 0.000000 0.000000 

0.000000 -0.000000 0.000000 
0.000000 0.000000 0.000000 
0.000000 0.000000 0.000000 

0.000000 -0.000000 0.000000 
0.000000 0.000000 0.000000 
0.000000 0.000000 0.000000 

0.000000 -0.000000 0.000000 
0.000000 0.000000 0.000000 
0.000000 0.000000 0.000000 

-0.000000 0.000000 0.000000 
0.000000 -0.000000 0.000000 
0.000000 0.000000 0.000000 

-0.000000 -0.000000 0.000000 
0.000000 -0.000000 0.000000 
0.000000 0.000000 0.000000 

0.000000 -0.000000 0.000000 
0.000000 0.000000 0.000000 
0.000000 0.000000 0.000000 

0.000000 -0.000000 0.000000 
0.000000 0.000000 0.000000 
0.000000 0.000000 0.000000 

-0.000000 -0.000000 0.000000 
0.000000 -0.000000 0.000000 
0.000000 0.000000 0.000000 

-0.000000 0.000000 0.000000 
0.000000 -0.000000 0.000000 
0.000000 0.000000 0.000000 

0.000000 0.000000 0.000000 
0.000000 -0.000000 0.000000 
0.000000 0.000000 0.000000 

0.000000 0.000000 0.000000 
0.000000 0.000000 0.000000 
0.000000 0.000000 0.000000 

-0.000000 -0.000000 0.000000 
0.000000 -0.000000 0.000000 
0.000000 0.000000 0.000000 

0.000000 0.000000 0.000000 
0.000000 0.000000 0.000000 
0.000000 0.000000 0.000000 

0.000000 0.000000 0.000000 
0.000000 0.000000 0.000000 
0.000000 0.000000 0.000000 

-0.000000 0.000000 0.000000 
0.000000 0.000000 0.000000 
0.000000 0.000000 0.000000 

-0.000000 -0.000000 0.000000 
0.000000 0.000000 0.000000 
0.000000 0.000000 0.000000 

-0.000000 0.000000 0.000000 
0.000000 0.000000 0.000000 
0.000000 0.000000 0.000000 

0.000000 0.000000 0.000000 
0.000000 0.000000 0.000000 
0.000000 0.000000 0.000000 

0.000000 -0.000000 0.000000 
0.000000 -0.000000 0.000000 
0.000000 0.000000 0.000000 

-0.000000 -0.000000 0.000000 
0.000000 -0.000000 0.000000 
0.000000 0.000000 0.000000 

0.000000 0.000000 0.000000 
0.000000 -0.000000 0.000000 
0.000000 0.000000 0.000000 

0.000000 0.000000 0.000000 
0.000000 0.000000 0.000000 
0.000000 0.000000 0.000000 

-0.000000 0.000000 0.000000 
0.000000 0.000000 0.000000 
0.000000 0.000000 0.000000 

0.000000 0.000000 0.000000 
0.000000 0.000000 0.000000 
0.000000 0.000000 0.000000 

-0.000000 0.000000 0.000000 
0.000000 0.000000 0.000000 
0.000000 0.000000 0.000000 

0.000000 -0.000000 0.000000 
0.000000 0.000000 0.000000 
0.000000 0.000000 0.000000 

0.000000 -0.000000 0.000000 
0.000000 0.000000 0.000000 
0.000000 0.000000 0.000000 

-0.000000 -0.000000 0.000000 
0.000000 -0.000000 0.000000 
0.000000 0.000000 0.000000 

-0.000000 0.000000 0.000000 
0.000000 -0.000000 0.000000 
0.000000 0.000000 0.000000 

-0.000000 -0.000000 0.000000 
0.000000 -0.000000 0.000000 
0.000000 0.000000 0.000000 

-0.000000 0.000000 0.000000 
0.000000 0.000000 0.000000 
0.000000 0.000000 0.000000 

0.000000 0.000000 0.000000 
0.000000 0.000000 0.000000 
0.000000 0.000000 0.000000 

0.000000 0.000000 0.000000 
0.000000 -0.000000 0.000000 
0.000000 0.000000 0.000000 

-0.000000 -0.000000 0.000000 
0.000000 -0.000000 0.000000 
0.000000 0.000000 0.000000 

0.000000 -0.000000 0.000000 
0.000000 -0.000000 0.000000 
0.000000 0.000000 0.000000 

0.000000 -0.000000 0.000000 
0.000000 0.000000 0.000000 
0.000000 0.000000 0.000000 

0.000000 -0.000000 0.000000 
0.000000 -0.000000 0.000000 
0.000000 0.000000 0.000000 

0.000000 0.000000 0.000000 
0.000000 0.000000 0.000000 
0.000000 0.000000 0.000000 

0.000000 -0.000000 0.000000 
0.000000 -0.000000 0.000000 
0.000000 0.000000 0.000000 

-0.000000 0.000000 0.000000 
0.000000 -0.000000 0.000000 
0.000000 0.000000 0.000000 

-0.000000 -0.000000 0.000000 
0.000000 -0.000000 0.000000 
0.000000 0.000000 0.000000 

-0.000000 -0.000000 0.000000 
0.000000 -0.000000 0.000000 
0.000000 0.000000 0.000000 

0.000000 0.000000 0.000000 
0.000000 0.000000 0.000000 
0.000000 0.000000 0.000000 

0.000000 -0.000000 0.000000 
0.000000 0.000000 0.000000 
0.000000 0.000000 0.000000 

0.000000 0.000000 0.000000 
0.000000 0.000000 0.000000 
0.000000 0.000000 0.000000 

0.000000 0.000000 0.000000 
0.000000 0.000000 0.000000 
0.000000 0.000000 0.000000 

0.000000 -0.000000 0.000000 
0.000000 0.000000 0.000000 
0.000000 0.000000 0.000000 

-0.000000 -0.000000 0.000000 
0.000000 -0.000000 0.000000 
0.000000 0.000000 0.000000 

0.000000 -0.000000 0.000000 
0.000000 0.000000 0.000000 
0.000000 0.000000 0.000000 

0.000000 -0.000000 0.000000 
0.000000 0.000000 0.000000 
0.000000 0.000000 0.000000 

0.000000 0.000000 0.000000 
0.000000 0.000000 0.000000 
0.000000 0.000000 0.000000 

0.000000 0.000000 0.000000 
0.000000 -0.000000 0.000000 
0.000000 0.000000 0.000000 

0.000000 -0.000000 0.000000 
0.000000 -0.000000 0.000000 
0.000000 0.000000 0.000000 

-0.000000 -0.000000 0.000000 
0.000000 -0.000000 0.000000 
0.000000 0.000000 0.000000 

-0.000000 0.000000 0.000000 
0.000000 -0.000000 0.000000 
0.000000 0.000000 0.000000 

-0.000000 0.000000 0.000000 
0.000000 0.000000 0.000000 
0.000000 0.000000 0.000000 

-0.000000 -0.000000 0.000000 
0.000000 0.000000 0.000000 
0.000000 0.000000 0.000000 

0.000000 0.000000 0.000000 
0.000000 -0.000000 0.000000 
0.000000 0.000000 0.000000 

0.000000 -0.000000 0.000000 
0.000000 0.000000 0.000000 
0.000000 0.000000 0.000000 

-0.000000 0.000000 0.000000 
0.000000 -0.000000 0.000000 
0.000000 0.000000 0.000000 

0.000000 0.000000 0.000000 
0.000000 0.000000 0.000000 
0.000000 0.000000 0.000000 

0.000000 0.000000 0.000000 
0.000000 0.000000 0.000000 
0.000000 0.000000 0.000000 

0.000000 0.000000 0.000000 
0.000000 0.000000 0.000000 
0.000000 0.000000 0.000000 

-0.000000 -0.000000 0.000000 
0.000000 -0.000000 0.000000 
0.000000 0.000000 0.000000 

-0.000000 -0.000000 0.000000 
0.000000 -0.000000 0.000000 
0.000000 0.000000 0.000000 

-0.000000 0.000000 0.000000 
0.000000 -0.000000 0.000000 
0.000000 0.000000 0.000000 

-0.000000 -0.000000 0.000000 
0.000000 -0.000000 0.000000 
0.000000 0.000000 0.000000 

0.000000 0.000000 0.000000 
0.000000 0.000000 0.000000 
0.000000 0.000000 0.000000 

0.000000 0.000000 0.000000 
0.000000 0.000000 0.000000 
0.000000 0.000000 0.000000 

0.000000 0.000000 0.000000 
0.000000 0.000000 0.000000 
0.000000 0.000000 0.000000 

0.000000 0.000000 0.000000 
0.000000 -0.000000 0.000000 
0.000000 0.000000 0.000000 

-0.000000 0.000000 0.000000 
0.000000 -0.000000 0.000000 
0.000000 0.000000 0.000000 

0.000000 -0.000000 0.000000 
0.000000 0.000000 0.000000 
0.000000 0.000000 0.000000 

0.000000 -0.000000 0.000000 
0.000000 0.000000 0.000000 
0.000000 0.000000 0.000000 

-0.000000 0.000000 0.000000 
0.000000 -0.000000 0.000000 
0.000000 0.000000 0.000000 

0.000000 -0.000000 0.000000 
0.000000 0.000000 0.000000 
0.000000 0.000000 0.000000 

-0.000000 0.000000 0.000000 
0.000000 -0.000000 0.000000 
0.000000 0.000000 0.000000 

-0.000000 0.000000 0.000000 
0.000000 0.000000 0.000000 
0.000000 0.000000 0.000000 

0.000000 -0.000000 0.000000 
0.000000 0.000000 0.000000 
0.000000 0.000000 0.000000 

0.000000 0.000000 0.000000 
0.000000 0.000000 0.000000 
0.000000 0.000000 0.000000 

0.000000 0.000000 0.000000 
0.000000 0.000000 0.000000 
0.000000 0.000000 0.000000 

0.000000 -0.000000 0.000000 
0.000000 -0.000000 0.000000 
0.000000 0.000000 0.000000 

-0.000000 -0.000000 0.000000 
0.000000 -0.000000 0.000000 
0.000000 0.000000 0.000000 

-0.000000 -0.000000 0.000000 
0.000000 0.000000 0.000000 
0.000000 0.000000 0.000000 

0.000000 0.000000 0.000000 
0.000000 0.000000 0.000000 
0.000000 0.000000 0.000000 

0.000000 -0.000000 0.000000 
0.000000 -0.000000 0.000000 
0.000000 0.000000 0.000000 

0.000000 0.000000 0.000000 
0.000000 0.000000 0.000000 
0.000000 0.000000 0.000000 

0.000000 -0.000000 0.000000 
0.000000 -0.000000 0.000000 
0.000000 0.000000 0.000000 

0.000000 -0.000000 0.000000 
0.000000 -0.000000 0.000000 
0.000000 0.000000 0.000000 

0.000000 -0.000000 0.000000 
0.000000 -0.000000 0.000000 
0.000000 0.000000 0.000000 

0.000000 -0.000000 0.000000 
0.000000 0.000000 0.000000 
0.000000 0.000000 0.000000 

0.000000 0.000000 0.000000 
0.000000 0.000000 0.000000 
0.000000 0.000000 0.000000 

0.000000 -0.000000 0.000000 
0.000000 0.000000 0.000000 
0.000000 0.000000 0.000000 

0.000000 -0.000000 0.000000 
0.000000 0.000000 0.000000 
0.000000 0.000000 0.000000 

-0.000000 -0.000000 0.000000 
0.000000 -0.000000 0.000000 
0.000000 0.000000 0.000000 

-0.000000 -0.000000 0.000000 
0.000000 0.000000 0.000000 
0.000000 0.000000 0.000000 

0.000000 -0.000000 0.000000 
0.000000 0.000000 0.000000 
0.000000 0.000000 0.000000 

-0.000000 -0.000000 0.000000 
0.000000 -0.000000 0.000000 
0.000000 0.000000 0.000000 

0.000000 -0.000000 0.000000 
0.000000 0.000000 0.000000 
0.000000 0.000000 0.000000 

-0.000000 0.000000 0.000000 
0.000000 -0.000000 0.000000 
0.000000 0.000000 0.000000 

0.000000 -0.000000 0.000000 
0.000000 0.000000 0.000000 
0.000000 0.000000 0.000000 

0.000000 0.000000 0.000000 
0.000000 -0.000000 0.000000 
0.000000 0.000000 0.000000 

0.000000 -0.000000 0.000000 
0.000000 0.000000 0.000000 
0.000000 0.000000 0.000000 

TENSORS STRAIN float 
0.000000 -0.000000 0.000000 
0.000000 -0.000000 0.000000 
0.000000 0.000000 0.000000 

-0.000000 0.000000 0.000000 
0.000000 0.000000 0.000000 
0.000000 0.000000 0.000000 

0.000000 0.000000 0.000000 
0.000000 -0.000000 0.000000 
0.000000 0.000000 0.000000 

0.000000 0.000000 0.000000 
0.000000 -0.000000 0.000000 
0.000000 0.000000 0.000000 

-0.000000 0.000000 0.000000 
0.000000 0.000000 0.000000 
0.000000 0.000000 0.000000 

-0.000000 0.000000 0.000000 
0.000000 0.000000 0.000000 
0.000000 0.000000 0.000000 

-0.000000 0.000000 0.000000 
0.000000 -0.000000 0.000000 
0.000000 0.000000 0.000000 

-0.000000 -0.000000 0.000000 
0.000000 0.000000 0.000000 
0.000000 0.000000 0.000000 

-0.000000 -0.000000 0.000000 
0.000000 0.000000 0.000000 
0.000000 0.000000 0.000000 

0.000000 0.000000 0.000000 
0.000000 0.000000 0.000000 
0.000000 0.000000 0.000000 

-0.000000 -0.000000 0.000000 
0.000000 -0.000000 0.000000 
0.000000 0.000000 0.000000 

-0.000000 0.000000 0.000000 
0.000000 0.000000 0.000000 
0.000000 0.000000 0.000000 

-0.000000 -0.000000 0.000000 
0.000000 0.000000 0.000000 
0.000000 0.000000 0.000000 

-0.000000 0.000000 0.000000 
0.000000 0.000000 0.000000 
0.000000 0.000000 0.000000 

0.000000 -0.000000 0.000000 
0.000000 0.000000 0.000000 
0.000000 0.000000 0.000000 

0.000000 -0.000000 0.000000 
0.000000 0.000000 0.000000 
0.000000 0.000000 0.000000 

0.000000 0.000000 0.000000 
0.000000 0.000000 0.000000 
0.000000 0.000000 0.000000 

0.000000 0.000000 0.000000 
0.000000 0.000000 0.000000 
0.000000 0.000000 0.000000 

-0.000000 -0.000000 0.000000 
0.000000 -0.000000 0.000000 
0.000000 0.000000 0.000000 

0.000000 0.000000 0.000000 
0.000000 0.000000 0.000000 
0.000000 0.000000 0.000000 

0.000000 0.000000 0.000000 
0.000000 -0.000000 0.000000 
0.000000 0.000000 0.000000 

0.000000 -0.000000 0.000000 
0.000000 -0.000000 0.000000 
0.000000 0.000000 0.000000 

0.000000 -0.000000 0.000000 
0.000000 -0.000000 0.000000 
0.000000 0.000000 0.000000 

-0.000000 -0.000000 0.000000 
0.000000 -0.000000 0.000000 
0.000000 0.000000 0.000000 

-0.000000 0.000000 0.000000 
0.000000 0.000000 0.000000 
0.000000 0.000000 0.000000 

0.000000 0.000000 0.000000 
0.000000 0.000000 0.000000 
0.000000 0.000000 0.000000 

0.000000 0.000000 0.000000 
0.000000 0.000000 0.000000 
0.000000 0.000000 0.000000 

0.000000 0.000000 0.000000 
0.000000 -0.000000 0.000000 
0.000000 0.000000 0.000000 

-0.000000 -0.000000 0.000000 
0.000000 0.000000 0.000000 
0.000000 0.000000 0.000000 

0.000000 -0.000000 0.000000 
0.000000 -0.000000 0.000000 
0.000000 0.000000 0.000000 

0.000000 -0.000000 0.000000 
0.000000 -0.000000 0.000000 
0.000000 0.000000 0.000000 

0.000000 -0.000000 0.000000 
0.000000 -0.000000 0.000000 
0.000000 0.000000 0.000000 

-0.000000 -0.000000 0.000000 
0.000000 0.000000 0.000000 
0.000000 0.000000 0.000000 

-0.000000 0.000000 0.000000 
0.000000 -0.000000 0.000000 
0.000000 0.000000 0.000000 

-0.000000 -0.000000 0.000000 
0.000000 -0.000000 0.000000 
0.000000 0.000000 0.000000 

0.000000 0.000000 0.000000 
0.000000 -0.000000 0.000000 
0.000000 0.000000 0.000000 

0.000000 -0.000000 0.000000 
0.000000 -0.000000 0.000000 
0.000000 0.000000 0.000000 

0.000000 0.000000 0.000000 
0.000000 0.000000 0.000000 
0.000000 0.000000 0.000000 

0.000000 -0.000000 0.000000 
0.000000 0.000000 0.000000 
0.000000 0.000000 0.000000 

0.000000 0.000000 0.000000 
0.000000 0.000000 0.000000 
0.000000 0.000000 0.000000 

0.000000 -0.000000 0.000000 
0.000000 0.000000 0.000000 
0.000000 0.000000 0.000000 

0.000000 -0.000000 0.000000 
0.000000 -0.000000 0.000000 
0.000000 0.000000 0.000000 

-0.000000 0.000000 0.000000 
0.000000 0.000000 0.000000 
0.000000 0.000000 0.000000 

-0.000000 -0.000000 0.000000 
0.000000 0.000000 0.000000 
0.000000 0.000000 0.000000 

-0.000000 0.000000 0.000000 
0.000000 0.000000 0.000000 
0.000000 0.000000 0.000000 

-0.000000 -0.000000 0.000000 
0.000000 -0.000000 0.000000 
0.000000 0.000000 0.000000 

-0.000000 0.000000 0.000000 
0.000000 -0.000000 0.000000 
0.000000 0.000000 0.000000 

0.000000 0.000000 0.000000 
0.000000 -0.000000 0.000000 
0.000000 0.000000 0.000000 

0.000000 0.000000 0.000000 
0.000000 0.000000 0.000000 
0.000000 0.000000 0.000000 

0.000000 -0.000000 0.000000 
0.000000 -0.000000 0.000000 
0.000000 0.000000 0.000000 

-0.000000 0.000000 0.000000 
0.000000 0.000000 0.000000 
0.000000 0.000000 0.000000 

-0.000000 -0.000000 0.000000 
0.000000 0.000000 0.000000 
0.000000 0.000000 0.000000 

-0.000000 0.000000 0.000000 
0.000000 -0.000000 0.000000 
0.000000 0.000000 0.000000 

-0.000000 0.000000 0.000000 
0.000000 -0.000000 0.000000 
0.000000 0.000000 0.000000 

-0.000000 0.000000 0.000000 
0.000000 -0.000000 0.000000 
0.000000 0.000000 0.000000 

0.000000 -0.000000 0.000000 
0.000000 -0.000000 0.000000 
0.000000 0.000000 0.000000 

-0.000000 0.000000 0.000000 
0.000000 -0.000000 0.000000 
0.000000 0.000000 0.000000 

-0.000000 -0.000000 0.000000 
0.000000 -0.000000 0.000000 
0.000000 0.000000 0.000000 

-0.000000 0.000000 0.000000 
0.000000 -0.000000 0.000000 
0.000000 0.000000 0.000000 

0.000000 -0.000000 0.000000 
0.000000 0.000000 0.000000 
0.000000 0.000000 0.000000 

-0.000000 0.000000 0.000000 
0.000000 0.000000 0.000000 
0.000000 0.000000 0.000000 

-0.000000 0.000000 0.000000 
0.000000 -0.000000 0.000000 
0.000000 0.000000 0.000000 

-0.000000 0.000000 0.000000 
0.000000 -0.000000 0.000000 
0.000000 0.000000 0.000000 

-0.000000 0.000000 0.000000 
0.000000 0.000000 0.000000 
0.000000 0.000000 0.000000 

-0.000000 0.000000 0.000000 
0.000000 0.000000 0.000000 
0.000000 0.000000 0.000000 

-0.000000 -0.000000 0.000000 
0.000000 0.000000 0.000000 
0.000000 0.000000 0.000000 

0.000000 -0.000000 0.000000 
0.000000 0.000000 0.000000 
0.000000 0.000000 0.000000 

-0.000000 0.000000 0.000000 
0.000000 0.000000 0.000000 
0.000000 0.000000 0.000000 

-0.000000 0.000000 0.000000 
0.000000 0.000000 0.000000 
0.000000 0.000000 0.000000 

-0.000000 -0.000000 0.000000 
0.000000 0.000000 0.000000 
0.000000 0.000000 0.000000 

-0.000000 0.000000 0.000000 
0.000000 -0.000000 0.000000 
0.000000 0.000000 0.000000 

-0.000000 0.000000 0.000000 
0.000000 -0.000000 0.000000 
0.000000 0.000000 0.000000 

0.000000 -0.000000 0.000000 
0.000000 0.000000 0.000000 
0.000000 0.000000 0.000000 

-0.000000 -0.000000 0.000000 
0.000000 0.000000 0.000000 
0.000000 0.000000 0.000000 

-0.000000 -0.000000 0.000000 
0.000000 0.000000 0.000000 
0.000000 0.000000 0.000000 

-0.000000 0.000000 0.000000 
0.000000 -0.000000 0.000000 
0.000000 0.000000 0.000000 

-0.000000 -0.000000 0.000000 
0.000000 -0.000000 0.000000 
0.000000 0.000000 0.000000 

-0.000000 -0.000000 0.000000 
0.000000 0.000000 0.000000 
0.000000 0.000000 0.000000 

-0.000000 -0.000000 0.000000 
0.000000 0.000000 0.000000 
0.000000 0.000000 0.000000 

0.000000 -0.000000 0.000000 
0.000000 -0.000000 0.000000 
0.000000 0.000000 0.000000 

-0.000000 0.000000 0.000000 
0.000000 -0.000000 0.000000 
0.000000 0.000000 0.000000 

0.000000 0.000000 0.000000 
0.000000 -0.000000 0.000000 
0.000000 0.000000 0.000000 

-0.000000 0.000000 0.000000 
0.000000 0.000000 0.000000 
0.000000 0.000000 0.000000 

-0.000000 -0.000000 0.000000 
0.000000 -0.000000 0.000000 
0.000000 0.000000 0.000000 

-0.000000 0.000000 0.000000 
0.000000 0.000000 0.000000 
0.000000 0.000000 0.000000 

0.000000 0.000000 0.000000 
0.000000 0.000000 0.000000 
0.000000 0.000000 0.000000 

-0.000000 0.000000 0.000000 
0.000000 0.000000 0.000000 
0.000000 0.000000 0.000000 

-0.000000 -0.000000 0.000000 
0.000000 0.000000 0.000000 
0.000000 0.000000 0.000000 

-0.000000 0.000000 0.000000 
0.000000 0.000000 0.000000 
0.000000 0.000000 0.000000 

-0.000000 0.000000 0.000000 
0.000000 0.000000 0.000000 
0.000000 0.000000 0.000000 

0.000000 -0.000000 0.000000 
0.000000 -0.000000 0.000000 
0.000000 0.000000 0.000000 

0.000000 -0.000000 0.000000 
0.000000 -0.000000 0.000000 
0.000000 0.000000 0.000000 

0.000000 0.000000 0.000000 
0.000000 -0.000000 0.000000 
0.000000 0.000000 0.000000 

0.000000 0.000000 0.000000 
0.000000 0.000000 0.000000 
0.000000 0.000000 0.000000 

-0.000000 0.000000 0.000000 
0.000000 0.000000 0.000000 
0.000000 0.000000 0.000000 

0.000000 0.000000 0.000000 
0.000000 0.000000 0.000000 
0.000000 0.000000 0.000000 

-0.000000 0.000000 0.000000 
0.000000 0.000000 0.000000 
0.000000 0.000000 0.000000 

-0.000000 -0.000000 0.000000 
0.000000 0.000000 0.000000 
0.000000 0.000000 0.000000 

0.000000 -0.000000 0.000000 
0.000000 0.000000 0.000000 
0.000000 0.000000 0.000000 

-0.000000 -0.000000 0.000000 
0.000000 -0.000000 0.000000 
0.000000 0.000000 0.000000 

-0.000000 0.000000 0.000000 
0.000000 -0.000000 0.000000 
0.000000 0.000000 0.000000 

-0.000000 -0.000000 0.000000 
0.000000 -0.000000 0.000000 
0.000000 0.000000 0.000000 

-0.000000 0.000000 0.000000 
0.000000 0.000000 0.000000 
0.000000 0.000000 0.000000 

0.000000 0.000000 0.000000 
0.000000 0.000000 0.000000 
0.000000 0.000000 0.000000 

0.000000 0.000000 0.000000 
0.000000 -0.000000 0.000000 
0.000000 0.000000 0.000000 

0.000000 -0.000000 0.000000 
0.000000 -0.000000 0.000000 
0.000000 0.000000 0.000000 

0.000000 -0.000000 0.000000 
0.000000 -0.000000 0.000000 
0.000000 0.000000 0.000000 

0.000000 -0.000000 0.000000 
0.000000 -0.000000 0.000000 
0.000000 0.000000 0.000000 

0.000000 -0.000000 0.000000 
0.000000 -0.000000 0.000000 
0.000000 0.000000 0.000000 

0.000000 0.000000 0.000000 
0.000000 0.000000 0.000000 
0.000000 0.000000 0.000000 

0.000000 -0.000000 0.000000 
0.000000 -0.000000 0.000000 
0.000000 0.000000 0.000000 

-0.000000 0.000000 0.000000 
0.000000 -0.000000 0.000000 
0.000000 0.000000 0.000000 

-0.000000 -0.000000 0.000000 
0.000000 -0.000000 0.000000 
0.000000 0.000000 0.000000 

-0.000000 -0.000000 0.000000 
0.000000 -0.000000 0.000000 
0.000000 0.000000 0.000000 

0.000000 0.000000 0.000000 
0.000000 0.000000 0.000000 
0.000000 0.000000 0.000000 

0.000000 -0.000000 0.000000 
0.000000 0.000000 0.000000 
0.000000 0.000000 0.000000 

-0.000000 0.000000 0.000000 
0.000000 0.000000 0.000000 
0.000000 0.000000 0.000000 

-0.000000 0.000000 0.000000 
0.000000 0.000000 0.000000 
0.000000 0.000000 0.000000 

0.000000 -0.000000 0.000000 
0.000000 -0.000000 0.000000 
0.000000 0.000000 0.000000 

-0.000000 -0.000000 0.000000 
0.000000 -0.000000 0.000000 
0.000000 0.000000 0.000000 

-0.000000 -0.000000 0.000000 
0.000000 0.000000 0.000000 
0.000000 0.000000 0.000000 

0.000000 -0.000000 0.000000 
0.000000 0.000000 0.000000 
0.000000 0.000000 0.000000 

0.000000 0.000000 0.000000 
0.000000 0.000000 0.000000 
0.000000 0.000000 0.000000 

0.000000 0.000000 0.000000 
0.000000 -0.000000 0.000000 
0.000000 0.000000 0.000000 

0.000000 -0.000000 0.000000 
0.000000 -0.000000 0.000000 
0.000000 0.000000 0.000000 

0.000000 -0.000000 0.000000 
0.000000 -0.000000 0.000000 
0.000000 0.000000 0.000000 

0.000000 0.000000 0.000000 
0.000000 -0.000000 0.000000 
0.000000 0.000000 0.000000 

-0.000000 0.000000 0.000000 
0.000000 0.000000 0.000000 
0.000000 0.000000 0.000000 

-0.000000 -0.000000 0.000000 
0.000000 0.000000 0.000000 
0.000000 0.000000 0.000000 

0.000000 0.000000 0.000000 
0.000000 -0.000000 0.000000 
0.000000 0.000000 0.000000 

0.000000 -0.000000 0.000000 
0.000000 -0.000000 0.000000 
0.000000 0.000000 0.000000 

0.000000 0.000000 0.000000 
0.000000 -0.000000 0.000000 
0.000000 0.000000 0.000000 

-0.000000 0.000000 0.000000 
0.000000 0.000000 0.000000 
0.000000 0.000000 0.000000 

0.000000 0.000000 0.000000 
0.000000 0.000000 0.000000 
0.000000 0.000000 0.000000 

0.000000 0.000000 0.000000 
0.000000 0.000000 0.000000 
0.000000 0.000000 0.000000 

-0.000000 -0.000000 0.000000 
0.000000 -0.000000 0.000000 
0.000000 0.000000 0.000000 

0.000000 -0.000000 0.000000 
0.000000 -0.000000 0.000000 
0.000000 0.000000 0.000000 

0.000000 0.000000 0.000000 
0.000000 -0.000000 0.000000 
0.000000 0.000000 0.000000 

0.000000 -0.000000 0.000000 
0.000000 -0.000000 0.000000 
0.000000 0.000000 0.000000 

0.000000 0.000000 0.000000 
0.000000 -0.000000 0.000000 
0.000000 0.000000 0.000000 

0.000000 0.000000 0.000000 
0.000000 0.000000 0.000000 
0.000000 0.000000 0.000000 

0.000000 0.000000 0.000000 
0.000000 -0.000000 0.000000 
0.000000 0.000000 0.000000 

0.000000 0.000000 0.000000 
0.000000 -0.000000 0.000000 
0.000000 0.000000 0.000000 

-0.000000 0.000000 0.000000 
0.000000 -0.000000 0.000000 
0.000000 0.000000 0.000000 

0.000000 -0.000000 0.000000 
0.000000 -0.000000 0.000000 
0.000000 0.000000 0.000000 

0.000000 -0.000000 0.000000 
0.000000 0.000000 0.000000 
0.000000 0.000000 0.000000 

0.000000 0.000000 0.000000 
0.000000 -0.000000 0.000000 
0.000000 0.000000 0.000000 

-0.000000 -0.000000 0.000000 
0.000000 0.000000 0.000000 
0.000000 0.000000 0.000000 

0.000000 0.000000 0.000000 
0.000000 -0.000000 0.000000 
0.000000 0.000000 0.000000 

-0.000000 0.000000 0.000000 
0.000000 0.000000 0.000000 
0.000000 0.000000 0.000000 

0.000000 -0.000000 0.000000 
0.000000 0.000000 0.000000 
0.000000 0.000000 0.000000 

0.000000 0.000000 0.000000 
0.000000 0.000000 0.000000 
0.000000 0.000000 0.000000 

0.000000 0.000000 0.000000 
0.000000 0.000000 0.000000 
0.000000 0.000000 0.000000 

0.000000 -0.000000 0.000000 
0.000000 -0.000000 0.000000 
0.000000 0.000000 0.000000 

-0.000000 -0.000000 0.000000 
0.000000 -0.000000 0.000000 
0.000000 0.000000 0.000000 

-0.000000 -0.000000 0.000000 
0.000000 0.000000 0.000000 
0.000000 0.000000 0.000000 

0.000000 0.000000 0.000000 
0.000000 -0.000000 0.000000 
0.000000 0.000000 0.000000 

0.000000 -0.000000 0.000000 
0.000000 -0.000000 0.000000 
0.000000 0.000000 0.000000 

0.000000 0.000000 0.000000 
0.000000 0.000000 0.000000 
0.000000 0.000000 0.000000 

0.000000 -0.000000 0.000000 
0.000000 -0.000000 0.000000 
0.000000 0.000000 0.000000 

0.000000 -0.000000 0.000000 
0.000000 -0.000000 0.000000 
0.000000 0.000000 0.000000 

0.000000 -0.000000 0.000000 
0.000000 -0.000000 0.000000 
0.000000 0.000000 0.000000 

0.000000 -0.000000 0.000000 
0.000000 0.000000 0.000000 
0.000000 0.000000 0.000000 

0.000000 0.000000 0.000000 
0.000000 0.000000 0.000000 
0.000000 0.000000 0.000000 

0.000000 -0.000000 0.000000 
0.000000 0.000000 0.000000 
0.000000 0.000000 0.000000 

0.000000 -0.000000 0.000000 
0.000000 0.000000 0.000000 
0.000000 0.000000 0.000000 

-0.000000 -0.000000 0.000000 
0.000000 -0.000000 0.000000 
0.000000 0.000000 0.000000 

-0.000000 -0.000000 0.000000 
0.000000 0.000000 0.000000 
0.000000 0.000000 0.000000 

-0.000000 -0.000000 0.000000 
0.000000 0.000000 0.000000 
0.000000 0.000000 0.000000 

0.000000 -0.000000 0.000000 
0.000000 -0.000000 0.000000 
0.000000 0.000000 0.000000 

0.000000 -0.000000 0.000000 
0.000000 0.000000 0.000000 
0.000000 0.000000 0.000000 

0.000000 0.000000 0.000000 
0.000000 -0.000000 0.000000 
0.000000 0.000000 0.000000 

-0.000000 -0.000000 0.000000 
0.000000 0.000000 0.000000 
0.000000 0.000000 0.000000 

0.000000 0.000000 0.000000 
0.000000 -0.000000 0.000000 
0.000000 0.000000 0.000000 

0.000000 -0.000000 0.000000 
0.000000 0.000000 0.000000 
0.000000 0.000000 0.000000 

