# vtk DataFile Version 3.0 
vtk output 
ASCII 
DATASET UNSTRUCTURED_GRID 
POINTS 175 float 
-0.026061 -1.038454 0.000000 
-0.106992 -0.970399 0.000000 
-0.054870 -0.978631 0.000000 
-0.028809 -0.932748 0.000000 
-0.186430 -0.906323 0.000000 
-0.137056 -0.908849 0.000000 
-0.114311 -0.855202 0.000000 
-0.058186 -0.870868 0.000000 
-0.029377 -0.830690 0.000000 
-0.265318 -0.843167 0.000000 
-0.217198 -0.843967 0.000000 
-0.196633 -0.786670 0.000000 
-0.143120 -0.795379 0.000000 
-0.116563 -0.748111 0.000000 
-0.058945 -0.767756 0.000000 
-0.029568 -0.729636 0.000000 
-0.344206 -0.780011 0.000000 
-0.296791 -0.780004 0.000000 
-0.278030 -0.720061 0.000000 
-0.225992 -0.725928 0.000000 
-0.201664 -0.673811 0.000000 
-0.145749 -0.687285 0.000000 
-0.117890 -0.642942 0.000000 
-0.059328 -0.665648 0.000000 
-0.029759 -0.628582 0.000000 
-0.058559 -1.079205 0.000000 
-0.162226 -1.100047 0.000000 
-0.123292 -1.064430 0.000000 
-0.142917 -1.015446 0.000000 
-0.261851 -1.122204 0.000000 
-0.229092 -1.085177 0.000000 
-0.256854 -1.033945 0.000000 
-0.209613 -0.999833 0.000000 
-0.223062 -0.952259 0.000000 
-0.360414 -1.144504 0.000000 
-0.329787 -1.107381 0.000000 
-0.361761 -1.055579 0.000000 
-0.321587 -1.019170 0.000000 
-0.341985 -0.968936 0.000000 
-0.290702 -0.936137 0.000000 
-0.302189 -0.889402 0.000000 
-0.458977 -1.166804 0.000000 
-0.429420 -1.129729 0.000000 
-0.464588 -1.077688 0.000000 
-0.427556 -1.040660 0.000000 
-0.453135 -0.989145 0.000000 
-0.407738 -0.953830 0.000000 
-0.425037 -0.904402 0.000000 
-0.370772 -0.872773 0.000000 
-0.381315 -0.826545 0.000000 
-0.046960 -1.130020 0.000000 
-0.095301 -1.224066 0.000000 
-0.098873 -1.171419 0.000000 
-0.149405 -1.156221 0.000000 
-0.140093 -1.315770 0.000000 
-0.148617 -1.267072 0.000000 
-0.205981 -1.256834 0.000000 
-0.203197 -1.198631 0.000000 
-0.248777 -1.179484 0.000000 
-0.184111 -1.406733 0.000000 
-0.194039 -1.359642 0.000000 
-0.254475 -1.352343 0.000000 
-0.257893 -1.298233 0.000000 
-0.309886 -1.282861 0.000000 
-0.303554 -1.222315 0.000000 
-0.347255 -1.202158 0.000000 
-0.228129 -1.497697 0.000000 
-0.238687 -1.451473 0.000000 
-0.301302 -1.446521 0.000000 
-0.307162 -1.394482 0.000000 
-0.363386 -1.382361 0.000000 
-0.362692 -1.324850 0.000000 
-0.412122 -1.307556 0.000000 
-0.403017 -1.245410 0.000000 
-0.445733 -1.224831 0.000000 
-0.000000 -1.152635 0.000000 
0.043388 -1.249065 0.000000 
-0.000000 -1.219033 0.000000 
-0.043388 -1.249065 0.000000 
0.087158 -1.341262 0.000000 
0.043769 -1.317564 0.000000 
-0.000000 -1.356029 0.000000 
-0.043769 -1.317564 0.000000 
-0.087158 -1.341262 0.000000 
0.130831 -1.432392 0.000000 
0.087824 -1.410793 0.000000 
0.044436 -1.453493 0.000000 
-0.000000 -1.422428 0.000000 
-0.044436 -1.453493 0.000000 
-0.087824 -1.410793 0.000000 
-0.130831 -1.432392 0.000000 
0.174505 -1.523521 0.000000 
0.131782 -1.502955 0.000000 
0.088871 -1.548822 0.000000 
0.044532 -1.520958 0.000000 
-0.000000 -1.557358 0.000000 
-0.044532 -1.520958 0.000000 
-0.088871 -1.548822 0.000000 
-0.131782 -1.502955 0.000000 
-0.174505 -1.523521 0.000000 
0.046960 -1.130020 0.000000 
0.149405 -1.156221 0.000000 
0.098873 -1.171419 0.000000 
0.095301 -1.224066 0.000000 
0.248777 -1.179484 0.000000 
0.203197 -1.198631 0.000000 
0.205981 -1.256834 0.000000 
0.148617 -1.267072 0.000000 
0.140093 -1.315770 0.000000 
0.347255 -1.202158 0.000000 
0.303554 -1.222315 0.000000 
0.309886 -1.282861 0.000000 
0.257893 -1.298233 0.000000 
0.254475 -1.352343 0.000000 
0.194039 -1.359642 0.000000 
0.184111 -1.406733 0.000000 
0.445733 -1.224831 0.000000 
0.403017 -1.245410 0.000000 
0.412122 -1.307556 0.000000 
0.362692 -1.324850 0.000000 
0.363386 -1.382361 0.000000 
0.307162 -1.394482 0.000000 
0.301302 -1.446521 0.000000 
0.238687 -1.451473 0.000000 
0.228129 -1.497697 0.000000 
0.058559 -1.079205 0.000000 
0.142917 -1.015446 0.000000 
0.123292 -1.064430 0.000000 
0.162226 -1.100047 0.000000 
0.223062 -0.952259 0.000000 
0.209613 -0.999833 0.000000 
0.256854 -1.033945 0.000000 
0.229092 -1.085177 0.000000 
0.261851 -1.122204 0.000000 
0.302189 -0.889402 0.000000 
0.290702 -0.936137 0.000000 
0.341985 -0.968936 0.000000 
0.321587 -1.019170 0.000000 
0.361761 -1.055579 0.000000 
0.329787 -1.107381 0.000000 
0.360414 -1.144504 0.000000 
0.381315 -0.826545 0.000000 
0.370772 -0.872773 0.000000 
0.425037 -0.904402 0.000000 
0.407738 -0.953830 0.000000 
0.453135 -0.989145 0.000000 
0.427556 -1.040660 0.000000 
0.464588 -1.077688 0.000000 
0.429420 -1.129729 0.000000 
0.458977 -1.166804 0.000000 
0.026061 -1.038454 0.000000 
0.028809 -0.932748 0.000000 
0.054870 -0.978631 0.000000 
0.106992 -0.970399 0.000000 
0.029377 -0.830690 0.000000 
0.058186 -0.870868 0.000000 
0.114311 -0.855202 0.000000 
0.137056 -0.908849 0.000000 
0.186430 -0.906323 0.000000 
0.029568 -0.729636 0.000000 
0.058945 -0.767756 0.000000 
0.116563 -0.748111 0.000000 
0.143120 -0.795379 0.000000 
0.196633 -0.786670 0.000000 
0.217198 -0.843967 0.000000 
0.265318 -0.843167 0.000000 
0.029759 -0.628582 0.000000 
0.059328 -0.665648 0.000000 
0.117890 -0.642942 0.000000 
0.145749 -0.687285 0.000000 
0.201664 -0.673811 0.000000 
0.225992 -0.725928 0.000000 
0.278030 -0.720061 0.000000 
0.296791 -0.780004 0.000000 
0.344206 -0.780011 0.000000 
CELLS 175 350 
1 0 
1 1 
1 2 
1 3 
1 4 
1 5 
1 6 
1 7 
1 8 
1 9 
1 10 
1 11 
1 12 
1 13 
1 14 
1 15 
1 16 
1 17 
1 18 
1 19 
1 20 
1 21 
1 22 
1 23 
1 24 
1 25 
1 26 
1 27 
1 28 
1 29 
1 30 
1 31 
1 32 
1 33 
1 34 
1 35 
1 36 
1 37 
1 38 
1 39 
1 40 
1 41 
1 42 
1 43 
1 44 
1 45 
1 46 
1 47 
1 48 
1 49 
1 50 
1 51 
1 52 
1 53 
1 54 
1 55 
1 56 
1 57 
1 58 
1 59 
1 60 
1 61 
1 62 
1 63 
1 64 
1 65 
1 66 
1 67 
1 68 
1 69 
1 70 
1 71 
1 72 
1 73 
1 74 
1 75 
1 76 
1 77 
1 78 
1 79 
1 80 
1 81 
1 82 
1 83 
1 84 
1 85 
1 86 
1 87 
1 88 
1 89 
1 90 
1 91 
1 92 
1 93 
1 94 
1 95 
1 96 
1 97 
1 98 
1 99 
1 100 
1 101 
1 102 
1 103 
1 104 
1 105 
1 106 
1 107 
1 108 
1 109 
1 110 
1 111 
1 112 
1 113 
1 114 
1 115 
1 116 
1 117 
1 118 
1 119 
1 120 
1 121 
1 122 
1 123 
1 124 
1 125 
1 126 
1 127 
1 128 
1 129 
1 130 
1 131 
1 132 
1 133 
1 134 
1 135 
1 136 
1 137 
1 138 
1 139 
1 140 
1 141 
1 142 
1 143 
1 144 
1 145 
1 146 
1 147 
1 148 
1 149 
1 150 
1 151 
1 152 
1 153 
1 154 
1 155 
1 156 
1 157 
1 158 
1 159 
1 160 
1 161 
1 162 
1 163 
1 164 
1 165 
1 166 
1 167 
1 168 
1 169 
1 170 
1 171 
1 172 
1 173 
1 174 
CELL_TYPES 175 
1 
1 
1 
1 
1 
1 
1 
1 
1 
1 
1 
1 
1 
1 
1 
1 
1 
1 
1 
1 
1 
1 
1 
1 
1 
1 
1 
1 
1 
1 
1 
1 
1 
1 
1 
1 
1 
1 
1 
1 
1 
1 
1 
1 
1 
1 
1 
1 
1 
1 
1 
1 
1 
1 
1 
1 
1 
1 
1 
1 
1 
1 
1 
1 
1 
1 
1 
1 
1 
1 
1 
1 
1 
1 
1 
1 
1 
1 
1 
1 
1 
1 
1 
1 
1 
1 
1 
1 
1 
1 
1 
1 
1 
1 
1 
1 
1 
1 
1 
1 
1 
1 
1 
1 
1 
1 
1 
1 
1 
1 
1 
1 
1 
1 
1 
1 
1 
1 
1 
1 
1 
1 
1 
1 
1 
1 
1 
1 
1 
1 
1 
1 
1 
1 
1 
1 
1 
1 
1 
1 
1 
1 
1 
1 
1 
1 
1 
1 
1 
1 
1 
1 
1 
1 
1 
1 
1 
1 
1 
1 
1 
1 
1 
1 
1 
1 
1 
1 
1 
1 
1 
1 
1 
1 
1 
POINT_DATA 175 
VECTORS X_GC float 
-0.026061 -1.038454 0.000000 
-0.106992 -0.970399 0.000000 
-0.054870 -0.978631 0.000000 
-0.028809 -0.932748 0.000000 
-0.186430 -0.906323 0.000000 
-0.137056 -0.908849 0.000000 
-0.114311 -0.855202 0.000000 
-0.058186 -0.870868 0.000000 
-0.029377 -0.830690 0.000000 
-0.265318 -0.843167 0.000000 
-0.217198 -0.843967 0.000000 
-0.196633 -0.786670 0.000000 
-0.143120 -0.795379 0.000000 
-0.116563 -0.748111 0.000000 
-0.058945 -0.767756 0.000000 
-0.029568 -0.729636 0.000000 
-0.344206 -0.780011 0.000000 
-0.296791 -0.780004 0.000000 
-0.278030 -0.720061 0.000000 
-0.225992 -0.725928 0.000000 
-0.201664 -0.673811 0.000000 
-0.145749 -0.687285 0.000000 
-0.117890 -0.642942 0.000000 
-0.059328 -0.665648 0.000000 
-0.029759 -0.628582 0.000000 
-0.058559 -1.079205 0.000000 
-0.162226 -1.100047 0.000000 
-0.123292 -1.064430 0.000000 
-0.142917 -1.015446 0.000000 
-0.261851 -1.122204 0.000000 
-0.229092 -1.085177 0.000000 
-0.256854 -1.033945 0.000000 
-0.209613 -0.999833 0.000000 
-0.223062 -0.952259 0.000000 
-0.360414 -1.144504 0.000000 
-0.329787 -1.107381 0.000000 
-0.361761 -1.055579 0.000000 
-0.321587 -1.019170 0.000000 
-0.341985 -0.968936 0.000000 
-0.290702 -0.936137 0.000000 
-0.302189 -0.889402 0.000000 
-0.458977 -1.166804 0.000000 
-0.429420 -1.129729 0.000000 
-0.464588 -1.077688 0.000000 
-0.427556 -1.040660 0.000000 
-0.453135 -0.989145 0.000000 
-0.407738 -0.953830 0.000000 
-0.425037 -0.904402 0.000000 
-0.370772 -0.872773 0.000000 
-0.381315 -0.826545 0.000000 
-0.046960 -1.130020 0.000000 
-0.095301 -1.224066 0.000000 
-0.098873 -1.171419 0.000000 
-0.149405 -1.156221 0.000000 
-0.140093 -1.315770 0.000000 
-0.148617 -1.267072 0.000000 
-0.205981 -1.256834 0.000000 
-0.203197 -1.198631 0.000000 
-0.248777 -1.179484 0.000000 
-0.184111 -1.406733 0.000000 
-0.194039 -1.359642 0.000000 
-0.254475 -1.352343 0.000000 
-0.257893 -1.298233 0.000000 
-0.309886 -1.282861 0.000000 
-0.303554 -1.222315 0.000000 
-0.347255 -1.202158 0.000000 
-0.228129 -1.497697 0.000000 
-0.238687 -1.451473 0.000000 
-0.301302 -1.446521 0.000000 
-0.307162 -1.394482 0.000000 
-0.363386 -1.382361 0.000000 
-0.362692 -1.324850 0.000000 
-0.412122 -1.307556 0.000000 
-0.403017 -1.245410 0.000000 
-0.445733 -1.224831 0.000000 
-0.000000 -1.152635 0.000000 
0.043388 -1.249065 0.000000 
-0.000000 -1.219033 0.000000 
-0.043388 -1.249065 0.000000 
0.087158 -1.341262 0.000000 
0.043769 -1.317564 0.000000 
-0.000000 -1.356029 0.000000 
-0.043769 -1.317564 0.000000 
-0.087158 -1.341262 0.000000 
0.130831 -1.432392 0.000000 
0.087824 -1.410793 0.000000 
0.044436 -1.453493 0.000000 
-0.000000 -1.422428 0.000000 
-0.044436 -1.453493 0.000000 
-0.087824 -1.410793 0.000000 
-0.130831 -1.432392 0.000000 
0.174505 -1.523521 0.000000 
0.131782 -1.502955 0.000000 
0.088871 -1.548822 0.000000 
0.044532 -1.520958 0.000000 
-0.000000 -1.557358 0.000000 
-0.044532 -1.520958 0.000000 
-0.088871 -1.548822 0.000000 
-0.131782 -1.502955 0.000000 
-0.174505 -1.523521 0.000000 
0.046960 -1.130020 0.000000 
0.149405 -1.156221 0.000000 
0.098873 -1.171419 0.000000 
0.095301 -1.224066 0.000000 
0.248777 -1.179484 0.000000 
0.203197 -1.198631 0.000000 
0.205981 -1.256834 0.000000 
0.148617 -1.267072 0.000000 
0.140093 -1.315770 0.000000 
0.347255 -1.202158 0.000000 
0.303554 -1.222315 0.000000 
0.309886 -1.282861 0.000000 
0.257893 -1.298233 0.000000 
0.254475 -1.352343 0.000000 
0.194039 -1.359642 0.000000 
0.184111 -1.406733 0.000000 
0.445733 -1.224831 0.000000 
0.403017 -1.245410 0.000000 
0.412122 -1.307556 0.000000 
0.362692 -1.324850 0.000000 
0.363386 -1.382361 0.000000 
0.307162 -1.394482 0.000000 
0.301302 -1.446521 0.000000 
0.238687 -1.451473 0.000000 
0.228129 -1.497697 0.000000 
0.058559 -1.079205 0.000000 
0.142917 -1.015446 0.000000 
0.123292 -1.064430 0.000000 
0.162226 -1.100047 0.000000 
0.223062 -0.952259 0.000000 
0.209613 -0.999833 0.000000 
0.256854 -1.033945 0.000000 
0.229092 -1.085177 0.000000 
0.261851 -1.122204 0.000000 
0.302189 -0.889402 0.000000 
0.290702 -0.936137 0.000000 
0.341985 -0.968936 0.000000 
0.321587 -1.019170 0.000000 
0.361761 -1.055579 0.000000 
0.329787 -1.107381 0.000000 
0.360414 -1.144504 0.000000 
0.381315 -0.826545 0.000000 
0.370772 -0.872773 0.000000 
0.425037 -0.904402 0.000000 
0.407738 -0.953830 0.000000 
0.453135 -0.989145 0.000000 
0.427556 -1.040660 0.000000 
0.464588 -1.077688 0.000000 
0.429420 -1.129729 0.000000 
0.458977 -1.166804 0.000000 
0.026061 -1.038454 0.000000 
0.028809 -0.932748 0.000000 
0.054870 -0.978631 0.000000 
0.106992 -0.970399 0.000000 
0.029377 -0.830690 0.000000 
0.058186 -0.870868 0.000000 
0.114311 -0.855202 0.000000 
0.137056 -0.908849 0.000000 
0.186430 -0.906323 0.000000 
0.029568 -0.729636 0.000000 
0.058945 -0.767756 0.000000 
0.116563 -0.748111 0.000000 
0.143120 -0.795379 0.000000 
0.196633 -0.786670 0.000000 
0.217198 -0.843967 0.000000 
0.265318 -0.843167 0.000000 
0.029759 -0.628582 0.000000 
0.059328 -0.665648 0.000000 
0.117890 -0.642942 0.000000 
0.145749 -0.687285 0.000000 
0.201664 -0.673811 0.000000 
0.225992 -0.725928 0.000000 
0.278030 -0.720061 0.000000 
0.296791 -0.780004 0.000000 
0.344206 -0.780011 0.000000 
VECTORS X_EC float 
0.338794 0.519129 0.000000 
-0.609100 -0.399620 0.000000 
0.713312 -0.288479 0.000000 
0.374519 -0.907908 0.000000 
0.423588 0.735361 0.000000 
-0.218274 0.769465 0.000000 
-0.513962 0.045226 0.000000 
0.756418 0.256712 0.000000 
0.381900 -0.285681 0.000000 
-0.550868 -0.117242 0.000000 
0.823577 -0.106447 0.000000 
0.556234 -0.879951 0.000000 
-0.139443 -0.762382 0.000000 
-0.484677 0.599494 0.000000 
0.766286 0.864709 0.000000 
0.384386 0.350089 0.000000 
0.474677 -0.969845 0.000000 
-0.141715 -0.969942 0.000000 
-0.385608 0.220830 0.000000 
0.937896 0.300026 0.000000 
0.621631 -0.403554 0.000000 
-0.105264 -0.221655 0.000000 
-0.467428 -0.820282 0.000000 
0.771260 -0.513753 0.000000 
0.386873 0.985858 0.000000 
0.761262 -0.930737 0.000000 
0.108942 -0.649360 0.000000 
-0.397202 0.869801 0.000000 
-0.142083 0.208525 0.000000 
-0.595936 -0.350249 0.000000 
0.978194 -0.850115 0.000000 
-0.660903 0.458260 0.000000 
0.724964 -0.002260 0.000000 
0.899809 -0.644509 0.000000 
0.685384 -0.049197 0.000000 
0.287229 -0.550356 0.000000 
0.702895 0.750316 0.000000 
0.180633 0.258797 0.000000 
0.445811 -0.419363 0.000000 
-0.220880 -0.862149 0.000000 
-0.071546 0.506926 0.000000 
-0.033296 0.251855 0.000000 
-0.417537 -0.248655 0.000000 
0.039645 -0.951217 0.000000 
-0.441768 0.548912 0.000000 
-0.109248 -0.146539 0.000000 
-0.699407 -0.623295 0.000000 
-0.474522 0.709426 0.000000 
0.820030 0.282433 0.000000 
0.957100 -0.341639 0.000000 
0.610485 -0.244730 0.000000 
-0.761092 -0.975111 0.000000 
-0.714655 0.314151 0.000000 
-0.057734 0.108984 0.000000 
-0.178789 0.262893 0.000000 
-0.067979 -0.394533 0.000000 
0.677748 -0.532736 0.000000 
0.641556 0.681518 0.000000 
-0.765897 0.423040 0.000000 
0.393446 -0.509098 0.000000 
0.522510 0.855172 0.000000 
-0.691820 0.756628 0.000000 
-0.647393 0.026145 0.000000 
0.028512 -0.181381 0.000000 
-0.053800 -0.998742 0.000000 
0.514316 0.729128 0.000000 
0.965681 0.718911 0.000000 
-0.897068 0.094882 0.000000 
-0.083078 0.028029 0.000000 
-0.006893 -0.674495 0.000000 
0.724017 -0.838128 0.000000 
0.714996 0.385468 0.000000 
-0.642413 0.152011 0.000000 
-0.760780 -0.686969 0.000000 
-0.205471 -0.964785 0.000000 
0.000000 0.060571 0.000000 
-0.564049 -0.637616 0.000000 
0.000000 0.956948 0.000000 
0.564049 -0.637616 0.000000 
0.866949 0.607039 0.000000 
-0.569003 0.287108 0.000000 
0.000000 0.806396 0.000000 
0.569003 0.287108 0.000000 
-0.866949 0.607039 0.000000 
0.299194 -0.162711 0.000000 
0.858290 -0.454294 0.000000 
-0.577662 0.122151 0.000000 
0.000000 -0.297227 0.000000 
0.577662 0.122151 0.000000 
-0.858290 -0.454294 0.000000 
-0.299194 -0.162711 0.000000 
-0.268560 -0.932461 0.000000 
0.286830 0.789898 0.000000 
0.844677 -0.590904 0.000000 
-0.578910 -0.967067 0.000000 
0.000000 -0.475663 0.000000 
0.578910 -0.967067 0.000000 
-0.844677 -0.590904 0.000000 
-0.286830 0.789898 0.000000 
0.268560 -0.932461 0.000000 
-0.610485 -0.244730 0.000000 
0.057734 0.108984 0.000000 
0.714655 0.314151 0.000000 
0.761092 -0.975111 0.000000 
0.765897 0.423040 0.000000 
-0.641556 0.681518 0.000000 
-0.677748 -0.532736 0.000000 
0.067979 -0.394533 0.000000 
0.178789 0.262893 0.000000 
-0.514316 0.729128 0.000000 
0.053800 -0.998742 0.000000 
-0.028512 -0.181381 0.000000 
0.647393 0.026145 0.000000 
0.691820 0.756628 0.000000 
-0.522510 0.855172 0.000000 
-0.393446 -0.509098 0.000000 
0.205471 -0.964785 0.000000 
0.760780 -0.686969 0.000000 
0.642413 0.152011 0.000000 
-0.714996 0.385468 0.000000 
-0.724017 -0.838128 0.000000 
0.006894 -0.674495 0.000000 
0.083078 0.028029 0.000000 
0.897068 0.094882 0.000000 
-0.965681 0.718911 0.000000 
-0.761262 -0.930737 0.000000 
0.142083 0.208525 0.000000 
0.397202 0.869801 0.000000 
-0.108942 -0.649360 0.000000 
-0.899809 -0.644509 0.000000 
-0.724964 -0.002260 0.000000 
0.660903 0.458260 0.000000 
-0.978194 -0.850115 0.000000 
0.595936 -0.350249 0.000000 
0.071546 0.506926 0.000000 
0.220880 -0.862149 0.000000 
-0.445811 -0.419363 0.000000 
-0.180633 0.258797 0.000000 
-0.702895 0.750316 0.000000 
-0.287229 -0.550356 0.000000 
-0.685384 -0.049197 0.000000 
-0.957100 -0.341639 0.000000 
-0.820030 0.282433 0.000000 
0.474522 0.709426 0.000000 
0.699407 -0.623295 0.000000 
0.109248 -0.146539 0.000000 
0.441768 0.548912 0.000000 
-0.039645 -0.951217 0.000000 
0.417537 -0.248655 0.000000 
0.033296 0.251855 0.000000 
-0.338794 0.519129 0.000000 
-0.374519 -0.907908 0.000000 
-0.713312 -0.288479 0.000000 
0.609100 -0.399620 0.000000 
-0.381900 -0.285681 0.000000 
-0.756418 0.256712 0.000000 
0.513962 0.045226 0.000000 
0.218274 0.769465 0.000000 
-0.423588 0.735361 0.000000 
-0.384386 0.350089 0.000000 
-0.766286 0.864709 0.000000 
0.484677 0.599494 0.000000 
0.139443 -0.762382 0.000000 
-0.556234 -0.879951 0.000000 
-0.823577 -0.106447 0.000000 
0.550868 -0.117242 0.000000 
-0.386873 0.985858 0.000000 
-0.771260 -0.513753 0.000000 
0.467428 -0.820282 0.000000 
0.105264 -0.221655 0.000000 
-0.621631 -0.403554 0.000000 
-0.937896 0.300026 0.000000 
0.385608 0.220830 0.000000 
0.141715 -0.969942 0.000000 
-0.474677 -0.969845 0.000000 
CELL_DATA 175 
SCALARS MASS float 
LOOKUP_TABLE default 
0.078183 
0.086427 
0.094672 
0.086427 
0.088131 
0.092111 
0.085854 
0.092111 
0.088131 
0.088705 
0.091000 
0.086983 
0.091556 
0.086983 
0.091000 
0.088705 
0.089278 
0.091574 
0.089278 
0.092722 
0.089278 
0.092722 
0.089278 
0.091574 
0.089278 
0.078183 
0.086427 
0.094672 
0.086427 
0.088131 
0.092111 
0.085854 
0.092111 
0.088131 
0.088705 
0.091000 
0.086983 
0.091556 
0.086983 
0.091000 
0.088705 
0.089278 
0.091574 
0.089278 
0.092722 
0.089278 
0.092722 
0.089278 
0.091574 
0.089278 
0.078183 
0.086427 
0.094672 
0.086427 
0.088131 
0.092111 
0.085854 
0.092111 
0.088131 
0.088705 
0.091000 
0.086983 
0.091556 
0.086983 
0.091000 
0.088705 
0.089278 
0.091574 
0.089278 
0.092722 
0.089278 
0.092722 
0.089278 
0.091574 
0.089278 
0.078183 
0.086427 
0.094672 
0.086427 
0.088131 
0.092111 
0.085854 
0.092111 
0.088131 
0.088705 
0.091000 
0.086983 
0.091556 
0.086983 
0.091000 
0.088705 
0.089278 
0.091574 
0.089278 
0.092722 
0.089278 
0.092722 
0.089278 
0.091574 
0.089278 
0.078183 
0.086427 
0.094672 
0.086427 
0.088131 
0.092111 
0.085854 
0.092111 
0.088131 
0.088705 
0.091000 
0.086983 
0.091556 
0.086983 
0.091000 
0.088705 
0.089278 
0.091574 
0.089278 
0.092722 
0.089278 
0.092722 
0.089278 
0.091574 
0.089278 
0.078183 
0.086427 
0.094672 
0.086427 
0.088131 
0.092111 
0.085854 
0.092111 
0.088131 
0.088705 
0.091000 
0.086983 
0.091556 
0.086983 
0.091000 
0.088705 
0.089278 
0.091574 
0.089278 
0.092722 
0.089278 
0.092722 
0.089278 
0.091574 
0.089278 
0.078183 
0.086427 
0.094672 
0.086427 
0.088131 
0.092111 
0.085854 
0.092111 
0.088131 
0.088705 
0.091000 
0.086983 
0.091556 
0.086983 
0.091000 
0.088705 
0.089278 
0.091574 
0.089278 
0.092722 
0.089278 
0.092722 
0.089278 
0.091574 
0.089278 
SCALARS MASS float 
LOOKUP_TABLE default 
0.078183 
0.086427 
0.094672 
0.086427 
0.088131 
0.092111 
0.085854 
0.092111 
0.088131 
0.088705 
0.091000 
0.086983 
0.091556 
0.086983 
0.091000 
0.088705 
0.089278 
0.091574 
0.089278 
0.092722 
0.089278 
0.092722 
0.089278 
0.091574 
0.089278 
0.078183 
0.086427 
0.094672 
0.086427 
0.088131 
0.092111 
0.085854 
0.092111 
0.088131 
0.088705 
0.091000 
0.086983 
0.091556 
0.086983 
0.091000 
0.088705 
0.089278 
0.091574 
0.089278 
0.092722 
0.089278 
0.092722 
0.089278 
0.091574 
0.089278 
0.078183 
0.086427 
0.094672 
0.086427 
0.088131 
0.092111 
0.085854 
0.092111 
0.088131 
0.088705 
0.091000 
0.086983 
0.091556 
0.086983 
0.091000 
0.088705 
0.089278 
0.091574 
0.089278 
0.092722 
0.089278 
0.092722 
0.089278 
0.091574 
0.089278 
0.078183 
0.086427 
0.094672 
0.086427 
0.088131 
0.092111 
0.085854 
0.092111 
0.088131 
0.088705 
0.091000 
0.086983 
0.091556 
0.086983 
0.091000 
0.088705 
0.089278 
0.091574 
0.089278 
0.092722 
0.089278 
0.092722 
0.089278 
0.091574 
0.089278 
0.078183 
0.086427 
0.094672 
0.086427 
0.088131 
0.092111 
0.085854 
0.092111 
0.088131 
0.088705 
0.091000 
0.086983 
0.091556 
0.086983 
0.091000 
0.088705 
0.089278 
0.091574 
0.089278 
0.092722 
0.089278 
0.092722 
0.089278 
0.091574 
0.089278 
0.078183 
0.086427 
0.094672 
0.086427 
0.088131 
0.092111 
0.085854 
0.092111 
0.088131 
0.088705 
0.091000 
0.086983 
0.091556 
0.086983 
0.091000 
0.088705 
0.089278 
0.091574 
0.089278 
0.092722 
0.089278 
0.092722 
0.089278 
0.091574 
0.089278 
0.078183 
0.086427 
0.094672 
0.086427 
0.088131 
0.092111 
0.085854 
0.092111 
0.088131 
0.088705 
0.091000 
0.086983 
0.091556 
0.086983 
0.091000 
0.088705 
0.089278 
0.091574 
0.089278 
0.092722 
0.089278 
0.092722 
0.089278 
0.091574 
0.089278 
SCALARS DENSITY float 
LOOKUP_TABLE default 
20.000000 
20.000000 
20.000000 
20.000000 
20.000000 
20.000000 
20.000000 
20.000000 
20.000000 
20.000000 
20.000000 
20.000000 
20.000000 
20.000000 
20.000000 
20.000000 
20.000000 
20.000000 
20.000000 
20.000000 
20.000000 
20.000000 
20.000000 
20.000000 
20.000000 
20.000000 
20.000000 
20.000000 
20.000000 
20.000000 
20.000000 
20.000000 
20.000000 
20.000000 
20.000000 
20.000000 
20.000000 
20.000000 
20.000000 
20.000000 
20.000000 
20.000000 
20.000000 
20.000000 
20.000000 
20.000000 
20.000000 
20.000000 
20.000000 
20.000000 
20.000000 
20.000000 
20.000000 
20.000000 
20.000000 
20.000000 
20.000000 
20.000000 
20.000000 
20.000000 
20.000000 
20.000000 
20.000000 
20.000000 
20.000000 
20.000000 
20.000000 
20.000000 
20.000000 
20.000000 
20.000000 
20.000000 
20.000000 
20.000000 
20.000000 
20.000000 
20.000000 
20.000000 
20.000000 
20.000000 
20.000000 
20.000000 
20.000000 
20.000000 
20.000000 
20.000000 
20.000000 
20.000000 
20.000000 
20.000000 
20.000000 
20.000000 
20.000000 
20.000000 
20.000000 
20.000000 
20.000000 
20.000000 
20.000000 
20.000000 
20.000000 
20.000000 
20.000000 
20.000000 
20.000000 
20.000000 
20.000000 
20.000000 
20.000000 
20.000000 
20.000000 
20.000000 
20.000000 
20.000000 
20.000000 
20.000000 
20.000000 
20.000000 
20.000000 
20.000000 
20.000000 
20.000000 
20.000000 
20.000000 
20.000000 
20.000000 
20.000000 
20.000000 
20.000000 
20.000000 
20.000000 
20.000000 
20.000000 
20.000000 
20.000000 
20.000000 
20.000000 
20.000000 
20.000000 
20.000000 
20.000000 
20.000000 
20.000000 
20.000000 
20.000000 
20.000000 
20.000000 
20.000000 
20.000000 
20.000000 
20.000000 
20.000000 
20.000000 
20.000000 
20.000000 
20.000000 
20.000000 
20.000000 
20.000000 
20.000000 
20.000000 
20.000000 
20.000000 
20.000000 
20.000000 
20.000000 
20.000000 
20.000000 
20.000000 
20.000000 
20.000000 
20.000000 
20.000000 
20.000000 
20.000000 
SCALARS ELEM_i float 
LOOKUP_TABLE default 
175 
202 
175 
175 
203 
203 
203 
176 
176 
230 
203 
203 
203 
204 
177 
177 
230 
230 
231 
204 
204 
204 
204 
177 
178 
174 
201 
202 
202 
228 
201 
229 
202 
202 
228 
228 
229 
229 
229 
229 
230 
255 
255 
255 
256 
256 
256 
257 
230 
230 
174 
200 
201 
201 
200 
200 
200 
201 
228 
199 
200 
227 
227 
227 
227 
228 
199 
226 
226 
226 
226 
227 
254 
254 
254 
174 
173 
174 
173 
146 
173 
173 
173 
200 
145 
145 
172 
172 
172 
199 
199 
144 
145 
144 
171 
171 
171 
198 
199 
198 
174 
147 
147 
146 
120 
147 
146 
146 
146 
120 
119 
119 
119 
119 
146 
145 
92 
92 
92 
119 
118 
118 
118 
118 
145 
174 
148 
148 
147 
148 
148 
121 
147 
120 
122 
121 
121 
121 
121 
120 
120 
122 
122 
95 
94 
94 
94 
93 
93 
93 
175 
175 
175 
148 
176 
176 
149 
149 
149 
177 
177 
150 
149 
149 
149 
122 
178 
177 
150 
150 
150 
150 
123 
122 
122 
VECTORS VELOCITY float 
0.000000 -4.629535 0.000000 
0.000000 -4.629535 0.000000 
-0.000000 -4.629535 0.000000 
0.000000 -4.629535 0.000000 
0.000000 -4.629535 0.000000 
0.000000 -4.629535 0.000000 
0.000000 -4.629535 0.000000 
0.000000 -4.629535 0.000000 
0.000000 -4.629535 0.000000 
-0.000000 -4.629535 0.000000 
-0.000000 -4.629535 0.000000 
-0.000000 -4.629535 0.000000 
0.000000 -4.629535 0.000000 
-0.000000 -4.629535 0.000000 
0.000000 -4.629535 0.000000 
-0.000000 -4.629535 0.000000 
-0.000000 -4.629535 0.000000 
-0.000000 -4.629535 0.000000 
0.000000 -4.629535 0.000000 
0.000000 -4.629535 0.000000 
0.000000 -4.629535 0.000000 
-0.000000 -4.629535 0.000000 
-0.000000 -4.629535 0.000000 
-0.000000 -4.629535 0.000000 
-0.000000 -4.629535 0.000000 
0.000000 -4.629535 0.000000 
0.000000 -4.629535 0.000000 
0.000000 -4.629535 0.000000 
0.000000 -4.629535 0.000000 
0.000000 -4.629535 0.000000 
0.000000 -4.629535 0.000000 
0.000000 -4.629535 0.000000 
0.000000 -4.629535 0.000000 
0.000000 -4.629535 0.000000 
-0.000000 -4.629535 0.000000 
-0.000000 -4.629535 0.000000 
-0.000000 -4.629535 0.000000 
-0.000000 -4.629535 0.000000 
0.000000 -4.629535 0.000000 
0.000000 -4.629535 0.000000 
0.000000 -4.629535 0.000000 
-0.000000 -4.629535 0.000000 
-0.000000 -4.629535 0.000000 
-0.000000 -4.629535 0.000000 
0.000000 -4.629535 0.000000 
0.000000 -4.629535 0.000000 
0.000000 -4.629535 0.000000 
0.000000 -4.629535 0.000000 
-0.000000 -4.629535 0.000000 
-0.000000 -4.629535 0.000000 
-0.000000 -4.629535 0.000000 
-0.000000 -4.629535 0.000000 
-0.000000 -4.629535 0.000000 
-0.000000 -4.629535 0.000000 
0.000000 -4.629535 0.000000 
0.000000 -4.629535 0.000000 
-0.000000 -4.629535 0.000000 
-0.000000 -4.629535 0.000000 
-0.000000 -4.629535 0.000000 
-0.000000 -4.629535 0.000000 
0.000000 -4.629535 0.000000 
0.000000 -4.629535 0.000000 
0.000000 -4.629535 0.000000 
-0.000000 -4.629535 0.000000 
-0.000000 -4.629535 0.000000 
0.000000 -4.629535 0.000000 
-0.000000 -4.629535 0.000000 
-0.000000 -4.629535 0.000000 
0.000000 -4.629535 0.000000 
-0.000000 -4.629535 0.000000 
-0.000000 -4.629535 0.000000 
-0.000000 -4.629535 0.000000 
0.000000 -4.629535 0.000000 
0.000000 -4.629535 0.000000 
0.000000 -4.629535 0.000000 
-0.000000 -4.629535 0.000000 
-0.000000 -4.629535 0.000000 
-0.000000 -4.629535 0.000000 
0.000000 -4.629535 0.000000 
-0.000000 -4.629535 0.000000 
-0.000000 -4.629535 0.000000 
0.000000 -4.629535 0.000000 
0.000000 -4.629535 0.000000 
0.000000 -4.629535 0.000000 
0.000000 -4.629535 0.000000 
-0.000000 -4.629535 0.000000 
-0.000000 -4.629535 0.000000 
-0.000000 -4.629535 0.000000 
-0.000000 -4.629535 0.000000 
-0.000000 -4.629535 0.000000 
-0.000000 -4.629535 0.000000 
0.000000 -4.629535 0.000000 
0.000000 -4.629535 0.000000 
0.000000 -4.629535 0.000000 
0.000000 -4.629535 0.000000 
-0.000000 -4.629535 0.000000 
-0.000000 -4.629535 0.000000 
-0.000000 -4.629535 0.000000 
-0.000000 -4.629535 0.000000 
-0.000000 -4.629535 0.000000 
-0.000000 -4.629535 0.000000 
0.000000 -4.629535 0.000000 
-0.000000 -4.629535 0.000000 
-0.000000 -4.629535 0.000000 
0.000000 -4.629535 0.000000 
0.000000 -4.629535 0.000000 
0.000000 -4.629535 0.000000 
-0.000000 -4.629535 0.000000 
-0.000000 -4.629535 0.000000 
-0.000000 -4.629535 0.000000 
0.000000 -4.629535 0.000000 
-0.000000 -4.629535 0.000000 
0.000000 -4.629535 0.000000 
-0.000000 -4.629535 0.000000 
-0.000000 -4.629535 0.000000 
0.000000 -4.629535 0.000000 
0.000000 -4.629535 0.000000 
0.000000 -4.629535 0.000000 
0.000000 -4.629535 0.000000 
-0.000000 -4.629535 0.000000 
0.000000 -4.629535 0.000000 
-0.000000 -4.629535 0.000000 
-0.000000 -4.629535 0.000000 
-0.000000 -4.629535 0.000000 
0.000000 -4.629535 0.000000 
0.000000 -4.629535 0.000000 
-0.000000 -4.629535 0.000000 
0.000000 -4.629535 0.000000 
-0.000000 -4.629535 0.000000 
0.000000 -4.629535 0.000000 
-0.000000 -4.629535 0.000000 
-0.000000 -4.629535 0.000000 
-0.000000 -4.629535 0.000000 
0.000000 -4.629535 0.000000 
0.000000 -4.629535 0.000000 
0.000000 -4.629535 0.000000 
0.000000 -4.629535 0.000000 
0.000000 -4.629535 0.000000 
0.000000 -4.629535 0.000000 
-0.000000 -4.629535 0.000000 
-0.000000 -4.629535 0.000000 
-0.000000 -4.629535 0.000000 
-0.000000 -4.629535 0.000000 
-0.000000 -4.629535 0.000000 
0.000000 -4.629535 0.000000 
-0.000000 -4.629535 0.000000 
0.000000 -4.629535 0.000000 
0.000000 -4.629535 0.000000 
-0.000000 -4.629535 0.000000 
0.000000 -4.629535 0.000000 
0.000000 -4.629535 0.000000 
-0.000000 -4.629535 0.000000 
-0.000000 -4.629535 0.000000 
-0.000000 -4.629535 0.000000 
0.000000 -4.629535 0.000000 
0.000000 -4.629535 0.000000 
0.000000 -4.629535 0.000000 
0.000000 -4.629535 0.000000 
0.000000 -4.629535 0.000000 
-0.000000 -4.629535 0.000000 
-0.000000 -4.629535 0.000000 
-0.000000 -4.629535 0.000000 
0.000000 -4.629535 0.000000 
0.000000 -4.629535 0.000000 
0.000000 -4.629535 0.000000 
0.000000 -4.629535 0.000000 
0.000000 -4.629535 0.000000 
0.000000 -4.629535 0.000000 
0.000000 -4.629535 0.000000 
0.000000 -4.629535 0.000000 
0.000000 -4.629535 0.000000 
0.000000 -4.629535 0.000000 
0.000000 -4.629535 0.000000 
0.000000 -4.629535 0.000000 
-0.000000 -4.629535 0.000000 
TENSORS STRESS float 
0.000000 0.000000 0.000000 
0.000000 -0.000000 0.000000 
0.000000 0.000000 0.000000 

0.000000 -0.000000 0.000000 
0.000000 0.000000 0.000000 
0.000000 0.000000 0.000000 

0.000000 -0.000000 0.000000 
0.000000 -0.000000 0.000000 
0.000000 0.000000 0.000000 

0.000000 -0.000000 0.000000 
0.000000 0.000000 0.000000 
0.000000 0.000000 0.000000 

-0.000000 0.000000 0.000000 
0.000000 -0.000000 0.000000 
0.000000 0.000000 0.000000 

0.000000 0.000000 0.000000 
0.000000 0.000000 0.000000 
0.000000 0.000000 0.000000 

0.000000 -0.000000 0.000000 
0.000000 0.000000 0.000000 
0.000000 0.000000 0.000000 

-0.000000 -0.000000 0.000000 
0.000000 -0.000000 0.000000 
0.000000 0.000000 0.000000 

-0.000000 0.000000 0.000000 
0.000000 -0.000000 0.000000 
0.000000 0.000000 0.000000 

-0.000000 -0.000000 0.000000 
0.000000 -0.000000 0.000000 
0.000000 0.000000 0.000000 

-0.000000 -0.000000 0.000000 
0.000000 -0.000000 0.000000 
0.000000 0.000000 0.000000 

0.000000 0.000000 0.000000 
0.000000 0.000000 0.000000 
0.000000 0.000000 0.000000 

0.000000 -0.000000 0.000000 
0.000000 -0.000000 0.000000 
0.000000 0.000000 0.000000 

0.000000 -0.000000 0.000000 
0.000000 0.000000 0.000000 
0.000000 0.000000 0.000000 

-0.000000 -0.000000 0.000000 
0.000000 -0.000000 0.000000 
0.000000 0.000000 0.000000 

0.000000 -0.000000 0.000000 
0.000000 0.000000 0.000000 
0.000000 0.000000 0.000000 

0.000000 0.000000 0.000000 
0.000000 0.000000 0.000000 
0.000000 0.000000 0.000000 

0.000000 0.000000 0.000000 
0.000000 0.000000 0.000000 
0.000000 0.000000 0.000000 

-0.000000 -0.000000 0.000000 
0.000000 -0.000000 0.000000 
0.000000 0.000000 0.000000 

-0.000000 -0.000000 0.000000 
0.000000 -0.000000 0.000000 
0.000000 0.000000 0.000000 

0.000000 0.000000 0.000000 
0.000000 0.000000 0.000000 
0.000000 0.000000 0.000000 

0.000000 -0.000000 0.000000 
0.000000 0.000000 0.000000 
0.000000 0.000000 0.000000 

0.000000 0.000000 0.000000 
0.000000 0.000000 0.000000 
0.000000 0.000000 0.000000 

0.000000 -0.000000 0.000000 
0.000000 0.000000 0.000000 
0.000000 0.000000 0.000000 

-0.000000 0.000000 0.000000 
0.000000 -0.000000 0.000000 
0.000000 0.000000 0.000000 

0.000000 0.000000 0.000000 
0.000000 0.000000 0.000000 
0.000000 0.000000 0.000000 

-0.000000 -0.000000 0.000000 
0.000000 -0.000000 0.000000 
0.000000 0.000000 0.000000 

0.000000 0.000000 0.000000 
0.000000 0.000000 0.000000 
0.000000 0.000000 0.000000 

-0.000000 0.000000 0.000000 
0.000000 -0.000000 0.000000 
0.000000 0.000000 0.000000 

-0.000000 0.000000 0.000000 
0.000000 -0.000000 0.000000 
0.000000 0.000000 0.000000 

0.000000 0.000000 0.000000 
0.000000 0.000000 0.000000 
0.000000 0.000000 0.000000 

0.000000 -0.000000 0.000000 
0.000000 -0.000000 0.000000 
0.000000 0.000000 0.000000 

0.000000 -0.000000 0.000000 
0.000000 0.000000 0.000000 
0.000000 0.000000 0.000000 

0.000000 -0.000000 0.000000 
0.000000 0.000000 0.000000 
0.000000 0.000000 0.000000 

-0.000000 -0.000000 0.000000 
0.000000 -0.000000 0.000000 
0.000000 0.000000 0.000000 

-0.000000 0.000000 0.000000 
0.000000 0.000000 0.000000 
0.000000 0.000000 0.000000 

-0.000000 -0.000000 0.000000 
0.000000 -0.000000 0.000000 
0.000000 0.000000 0.000000 

0.000000 0.000000 0.000000 
0.000000 -0.000000 0.000000 
0.000000 0.000000 0.000000 

0.000000 0.000000 0.000000 
0.000000 0.000000 0.000000 
0.000000 0.000000 0.000000 

-0.000000 0.000000 0.000000 
0.000000 -0.000000 0.000000 
0.000000 0.000000 0.000000 

-0.000000 0.000000 0.000000 
0.000000 0.000000 0.000000 
0.000000 0.000000 0.000000 

0.000000 0.000000 0.000000 
0.000000 -0.000000 0.000000 
0.000000 0.000000 0.000000 

0.000000 0.000000 0.000000 
0.000000 0.000000 0.000000 
0.000000 0.000000 0.000000 

0.000000 -0.000000 0.000000 
0.000000 0.000000 0.000000 
0.000000 0.000000 0.000000 

0.000000 0.000000 0.000000 
0.000000 0.000000 0.000000 
0.000000 0.000000 0.000000 

-0.000000 0.000000 0.000000 
0.000000 -0.000000 0.000000 
0.000000 0.000000 0.000000 

-0.000000 0.000000 0.000000 
0.000000 -0.000000 0.000000 
0.000000 0.000000 0.000000 

0.000000 0.000000 0.000000 
0.000000 0.000000 0.000000 
0.000000 0.000000 0.000000 

-0.000000 -0.000000 0.000000 
0.000000 -0.000000 0.000000 
0.000000 0.000000 0.000000 

-0.000000 -0.000000 0.000000 
0.000000 -0.000000 0.000000 
0.000000 0.000000 0.000000 

0.000000 -0.000000 0.000000 
0.000000 0.000000 0.000000 
0.000000 0.000000 0.000000 

0.000000 0.000000 0.000000 
0.000000 -0.000000 0.000000 
0.000000 0.000000 0.000000 

0.000000 -0.000000 0.000000 
0.000000 0.000000 0.000000 
0.000000 0.000000 0.000000 

0.000000 0.000000 0.000000 
0.000000 0.000000 0.000000 
0.000000 0.000000 0.000000 

-0.000000 -0.000000 0.000000 
0.000000 -0.000000 0.000000 
0.000000 0.000000 0.000000 

-0.000000 0.000000 0.000000 
0.000000 -0.000000 0.000000 
0.000000 0.000000 0.000000 

0.000000 0.000000 0.000000 
0.000000 0.000000 0.000000 
0.000000 0.000000 0.000000 

0.000000 0.000000 0.000000 
0.000000 -0.000000 0.000000 
0.000000 0.000000 0.000000 

0.000000 -0.000000 0.000000 
0.000000 0.000000 0.000000 
0.000000 0.000000 0.000000 

0.000000 -0.000000 0.000000 
0.000000 -0.000000 0.000000 
0.000000 0.000000 0.000000 

0.000000 0.000000 0.000000 
0.000000 0.000000 0.000000 
0.000000 0.000000 0.000000 

0.000000 0.000000 0.000000 
0.000000 0.000000 0.000000 
0.000000 0.000000 0.000000 

-0.000000 0.000000 0.000000 
0.000000 -0.000000 0.000000 
0.000000 0.000000 0.000000 

-0.000000 -0.000000 0.000000 
0.000000 0.000000 0.000000 
0.000000 0.000000 0.000000 

-0.000000 -0.000000 0.000000 
0.000000 -0.000000 0.000000 
0.000000 0.000000 0.000000 

-0.000000 -0.000000 0.000000 
0.000000 -0.000000 0.000000 
0.000000 0.000000 0.000000 

-0.000000 -0.000000 0.000000 
0.000000 -0.000000 0.000000 
0.000000 0.000000 0.000000 

0.000000 0.000000 0.000000 
0.000000 -0.000000 0.000000 
0.000000 0.000000 0.000000 

0.000000 0.000000 0.000000 
0.000000 -0.000000 0.000000 
0.000000 0.000000 0.000000 

0.000000 -0.000000 0.000000 
0.000000 0.000000 0.000000 
0.000000 0.000000 0.000000 

0.000000 0.000000 0.000000 
0.000000 0.000000 0.000000 
0.000000 0.000000 0.000000 

-0.000000 -0.000000 0.000000 
0.000000 -0.000000 0.000000 
0.000000 0.000000 0.000000 

-0.000000 -0.000000 0.000000 
0.000000 -0.000000 0.000000 
0.000000 0.000000 0.000000 

0.000000 -0.000000 0.000000 
0.000000 -0.000000 0.000000 
0.000000 0.000000 0.000000 

0.000000 0.000000 0.000000 
0.000000 0.000000 0.000000 
0.000000 0.000000 0.000000 

-0.000000 -0.000000 0.000000 
0.000000 -0.000000 0.000000 
0.000000 0.000000 0.000000 

-0.000000 -0.000000 0.000000 
0.000000 -0.000000 0.000000 
0.000000 0.000000 0.000000 

-0.000000 -0.000000 0.000000 
0.000000 -0.000000 0.000000 
0.000000 0.000000 0.000000 

0.000000 -0.000000 0.000000 
0.000000 0.000000 0.000000 
0.000000 0.000000 0.000000 

-0.000000 -0.000000 0.000000 
0.000000 -0.000000 0.000000 
0.000000 0.000000 0.000000 

-0.000000 -0.000000 0.000000 
0.000000 -0.000000 0.000000 
0.000000 0.000000 0.000000 

-0.000000 0.000000 0.000000 
0.000000 -0.000000 0.000000 
0.000000 0.000000 0.000000 

-0.000000 -0.000000 0.000000 
0.000000 -0.000000 0.000000 
0.000000 0.000000 0.000000 

0.000000 -0.000000 0.000000 
0.000000 0.000000 0.000000 
0.000000 0.000000 0.000000 

-0.000000 0.000000 0.000000 
0.000000 -0.000000 0.000000 
0.000000 0.000000 0.000000 

0.000000 0.000000 0.000000 
0.000000 -0.000000 0.000000 
0.000000 0.000000 0.000000 

0.000000 -0.000000 0.000000 
0.000000 0.000000 0.000000 
0.000000 0.000000 0.000000 

-0.000000 -0.000000 0.000000 
0.000000 -0.000000 0.000000 
0.000000 0.000000 0.000000 

-0.000000 0.000000 0.000000 
0.000000 0.000000 0.000000 
0.000000 0.000000 0.000000 

0.000000 -0.000000 0.000000 
0.000000 0.000000 0.000000 
0.000000 0.000000 0.000000 

0.000000 -0.000000 0.000000 
0.000000 0.000000 0.000000 
0.000000 0.000000 0.000000 

-0.000000 -0.000000 0.000000 
0.000000 0.000000 0.000000 
0.000000 0.000000 0.000000 

-0.000000 -0.000000 0.000000 
0.000000 -0.000000 0.000000 
0.000000 0.000000 0.000000 

-0.000000 -0.000000 0.000000 
0.000000 -0.000000 0.000000 
0.000000 0.000000 0.000000 

0.000000 0.000000 0.000000 
0.000000 0.000000 0.000000 
0.000000 0.000000 0.000000 

0.000000 0.000000 0.000000 
0.000000 0.000000 0.000000 
0.000000 0.000000 0.000000 

0.000000 0.000000 0.000000 
0.000000 -0.000000 0.000000 
0.000000 0.000000 0.000000 

0.000000 0.000000 0.000000 
0.000000 0.000000 0.000000 
0.000000 0.000000 0.000000 

-0.000000 -0.000000 0.000000 
0.000000 -0.000000 0.000000 
0.000000 0.000000 0.000000 

0.000000 0.000000 0.000000 
0.000000 0.000000 0.000000 
0.000000 0.000000 0.000000 

0.000000 -0.000000 0.000000 
0.000000 0.000000 0.000000 
0.000000 0.000000 0.000000 

0.000000 0.000000 0.000000 
0.000000 -0.000000 0.000000 
0.000000 0.000000 0.000000 

0.000000 0.000000 0.000000 
0.000000 -0.000000 0.000000 
0.000000 0.000000 0.000000 

0.000000 -0.000000 0.000000 
0.000000 0.000000 0.000000 
0.000000 0.000000 0.000000 

0.000000 0.000000 0.000000 
0.000000 0.000000 0.000000 
0.000000 0.000000 0.000000 

0.000000 -0.000000 0.000000 
0.000000 0.000000 0.000000 
0.000000 0.000000 0.000000 

0.000000 -0.000000 0.000000 
0.000000 0.000000 0.000000 
0.000000 0.000000 0.000000 

-0.000000 -0.000000 0.000000 
0.000000 -0.000000 0.000000 
0.000000 0.000000 0.000000 

-0.000000 -0.000000 0.000000 
0.000000 -0.000000 0.000000 
0.000000 0.000000 0.000000 

0.000000 0.000000 0.000000 
0.000000 -0.000000 0.000000 
0.000000 0.000000 0.000000 

0.000000 -0.000000 0.000000 
0.000000 0.000000 0.000000 
0.000000 0.000000 0.000000 

-0.000000 0.000000 0.000000 
0.000000 -0.000000 0.000000 
0.000000 0.000000 0.000000 

-0.000000 0.000000 0.000000 
0.000000 -0.000000 0.000000 
0.000000 0.000000 0.000000 

-0.000000 -0.000000 0.000000 
0.000000 -0.000000 0.000000 
0.000000 0.000000 0.000000 

0.000000 -0.000000 0.000000 
0.000000 -0.000000 0.000000 
0.000000 0.000000 0.000000 

0.000000 0.000000 0.000000 
0.000000 -0.000000 0.000000 
0.000000 0.000000 0.000000 

-0.000000 0.000000 0.000000 
0.000000 -0.000000 0.000000 
0.000000 0.000000 0.000000 

-0.000000 0.000000 0.000000 
0.000000 -0.000000 0.000000 
0.000000 0.000000 0.000000 

-0.000000 0.000000 0.000000 
0.000000 0.000000 0.000000 
0.000000 0.000000 0.000000 

-0.000000 -0.000000 0.000000 
0.000000 -0.000000 0.000000 
0.000000 0.000000 0.000000 

-0.000000 0.000000 0.000000 
0.000000 -0.000000 0.000000 
0.000000 0.000000 0.000000 

0.000000 0.000000 0.000000 
0.000000 0.000000 0.000000 
0.000000 0.000000 0.000000 

-0.000000 0.000000 0.000000 
0.000000 -0.000000 0.000000 
0.000000 0.000000 0.000000 

-0.000000 -0.000000 0.000000 
0.000000 0.000000 0.000000 
0.000000 0.000000 0.000000 

-0.000000 0.000000 0.000000 
0.000000 -0.000000 0.000000 
0.000000 0.000000 0.000000 

0.000000 -0.000000 0.000000 
0.000000 -0.000000 0.000000 
0.000000 0.000000 0.000000 

0.000000 0.000000 0.000000 
0.000000 -0.000000 0.000000 
0.000000 0.000000 0.000000 

0.000000 -0.000000 0.000000 
0.000000 0.000000 0.000000 
0.000000 0.000000 0.000000 

-0.000000 -0.000000 0.000000 
0.000000 -0.000000 0.000000 
0.000000 0.000000 0.000000 

0.000000 0.000000 0.000000 
0.000000 0.000000 0.000000 
0.000000 0.000000 0.000000 

0.000000 0.000000 0.000000 
0.000000 0.000000 0.000000 
0.000000 0.000000 0.000000 

0.000000 0.000000 0.000000 
0.000000 -0.000000 0.000000 
0.000000 0.000000 0.000000 

0.000000 -0.000000 0.000000 
0.000000 0.000000 0.000000 
0.000000 0.000000 0.000000 

0.000000 0.000000 0.000000 
0.000000 -0.000000 0.000000 
0.000000 0.000000 0.000000 

0.000000 -0.000000 0.000000 
0.000000 0.000000 0.000000 
0.000000 0.000000 0.000000 

0.000000 -0.000000 0.000000 
0.000000 -0.000000 0.000000 
0.000000 0.000000 0.000000 

0.000000 0.000000 0.000000 
0.000000 0.000000 0.000000 
0.000000 0.000000 0.000000 

0.000000 0.000000 0.000000 
0.000000 0.000000 0.000000 
0.000000 0.000000 0.000000 

0.000000 -0.000000 0.000000 
0.000000 0.000000 0.000000 
0.000000 0.000000 0.000000 

0.000000 -0.000000 0.000000 
0.000000 0.000000 0.000000 
0.000000 0.000000 0.000000 

0.000000 0.000000 0.000000 
0.000000 0.000000 0.000000 
0.000000 0.000000 0.000000 

0.000000 0.000000 0.000000 
0.000000 0.000000 0.000000 
0.000000 0.000000 0.000000 

0.000000 -0.000000 0.000000 
0.000000 0.000000 0.000000 
0.000000 0.000000 0.000000 

0.000000 0.000000 0.000000 
0.000000 0.000000 0.000000 
0.000000 0.000000 0.000000 

0.000000 -0.000000 0.000000 
0.000000 0.000000 0.000000 
0.000000 0.000000 0.000000 

-0.000000 -0.000000 0.000000 
0.000000 -0.000000 0.000000 
0.000000 0.000000 0.000000 

-0.000000 -0.000000 0.000000 
0.000000 0.000000 0.000000 
0.000000 0.000000 0.000000 

-0.000000 0.000000 0.000000 
0.000000 -0.000000 0.000000 
0.000000 0.000000 0.000000 

-0.000000 0.000000 0.000000 
0.000000 0.000000 0.000000 
0.000000 0.000000 0.000000 

-0.000000 0.000000 0.000000 
0.000000 -0.000000 0.000000 
0.000000 0.000000 0.000000 

0.000000 0.000000 0.000000 
0.000000 -0.000000 0.000000 
0.000000 0.000000 0.000000 

0.000000 -0.000000 0.000000 
0.000000 0.000000 0.000000 
0.000000 0.000000 0.000000 

0.000000 -0.000000 0.000000 
0.000000 0.000000 0.000000 
0.000000 0.000000 0.000000 

0.000000 0.000000 0.000000 
0.000000 -0.000000 0.000000 
0.000000 0.000000 0.000000 

-0.000000 -0.000000 0.000000 
0.000000 -0.000000 0.000000 
0.000000 0.000000 0.000000 

0.000000 -0.000000 0.000000 
0.000000 0.000000 0.000000 
0.000000 0.000000 0.000000 

0.000000 0.000000 0.000000 
0.000000 0.000000 0.000000 
0.000000 0.000000 0.000000 

0.000000 0.000000 0.000000 
0.000000 -0.000000 0.000000 
0.000000 0.000000 0.000000 

0.000000 0.000000 0.000000 
0.000000 0.000000 0.000000 
0.000000 0.000000 0.000000 

0.000000 0.000000 0.000000 
0.000000 0.000000 0.000000 
0.000000 0.000000 0.000000 

0.000000 0.000000 0.000000 
0.000000 0.000000 0.000000 
0.000000 0.000000 0.000000 

0.000000 -0.000000 0.000000 
0.000000 0.000000 0.000000 
0.000000 0.000000 0.000000 

0.000000 -0.000000 0.000000 
0.000000 0.000000 0.000000 
0.000000 0.000000 0.000000 

0.000000 0.000000 0.000000 
0.000000 0.000000 0.000000 
0.000000 0.000000 0.000000 

0.000000 -0.000000 0.000000 
0.000000 0.000000 0.000000 
0.000000 0.000000 0.000000 

0.000000 -0.000000 0.000000 
0.000000 -0.000000 0.000000 
0.000000 0.000000 0.000000 

0.000000 -0.000000 0.000000 
0.000000 0.000000 0.000000 
0.000000 0.000000 0.000000 

0.000000 -0.000000 0.000000 
0.000000 0.000000 0.000000 
0.000000 0.000000 0.000000 

-0.000000 0.000000 0.000000 
0.000000 -0.000000 0.000000 
0.000000 0.000000 0.000000 

0.000000 0.000000 0.000000 
0.000000 -0.000000 0.000000 
0.000000 0.000000 0.000000 

0.000000 -0.000000 0.000000 
0.000000 0.000000 0.000000 
0.000000 0.000000 0.000000 

-0.000000 -0.000000 0.000000 
0.000000 -0.000000 0.000000 
0.000000 0.000000 0.000000 

-0.000000 0.000000 0.000000 
0.000000 0.000000 0.000000 
0.000000 0.000000 0.000000 

-0.000000 0.000000 0.000000 
0.000000 0.000000 0.000000 
0.000000 0.000000 0.000000 

-0.000000 -0.000000 0.000000 
0.000000 0.000000 0.000000 
0.000000 0.000000 0.000000 

TENSORS STRAIN float 
0.000000 0.000000 0.000000 
0.000000 -0.000000 0.000000 
0.000000 0.000000 0.000000 

-0.000000 -0.000000 0.000000 
0.000000 0.000000 0.000000 
0.000000 0.000000 0.000000 

0.000000 -0.000000 0.000000 
0.000000 -0.000000 0.000000 
0.000000 0.000000 0.000000 

0.000000 -0.000000 0.000000 
0.000000 -0.000000 0.000000 
0.000000 0.000000 0.000000 

-0.000000 0.000000 0.000000 
0.000000 -0.000000 0.000000 
0.000000 0.000000 0.000000 

-0.000000 0.000000 0.000000 
0.000000 0.000000 0.000000 
0.000000 0.000000 0.000000 

0.000000 -0.000000 0.000000 
0.000000 0.000000 0.000000 
0.000000 0.000000 0.000000 

0.000000 -0.000000 0.000000 
0.000000 -0.000000 0.000000 
0.000000 0.000000 0.000000 

0.000000 0.000000 0.000000 
0.000000 -0.000000 0.000000 
0.000000 0.000000 0.000000 

-0.000000 -0.000000 0.000000 
0.000000 -0.000000 0.000000 
0.000000 0.000000 0.000000 

0.000000 -0.000000 0.000000 
0.000000 -0.000000 0.000000 
0.000000 0.000000 0.000000 

0.000000 0.000000 0.000000 
0.000000 0.000000 0.000000 
0.000000 0.000000 0.000000 

0.000000 -0.000000 0.000000 
0.000000 -0.000000 0.000000 
0.000000 0.000000 0.000000 

0.000000 -0.000000 0.000000 
0.000000 0.000000 0.000000 
0.000000 0.000000 0.000000 

-0.000000 -0.000000 0.000000 
0.000000 -0.000000 0.000000 
0.000000 0.000000 0.000000 

0.000000 -0.000000 0.000000 
0.000000 0.000000 0.000000 
0.000000 0.000000 0.000000 

0.000000 0.000000 0.000000 
0.000000 0.000000 0.000000 
0.000000 0.000000 0.000000 

0.000000 0.000000 0.000000 
0.000000 0.000000 0.000000 
0.000000 0.000000 0.000000 

-0.000000 -0.000000 0.000000 
0.000000 0.000000 0.000000 
0.000000 0.000000 0.000000 

0.000000 -0.000000 0.000000 
0.000000 -0.000000 0.000000 
0.000000 0.000000 0.000000 

-0.000000 0.000000 0.000000 
0.000000 0.000000 0.000000 
0.000000 0.000000 0.000000 

-0.000000 -0.000000 0.000000 
0.000000 0.000000 0.000000 
0.000000 0.000000 0.000000 

0.000000 0.000000 0.000000 
0.000000 0.000000 0.000000 
0.000000 0.000000 0.000000 

0.000000 -0.000000 0.000000 
0.000000 0.000000 0.000000 
0.000000 0.000000 0.000000 

0.000000 0.000000 0.000000 
0.000000 -0.000000 0.000000 
0.000000 0.000000 0.000000 

0.000000 0.000000 0.000000 
0.000000 0.000000 0.000000 
0.000000 0.000000 0.000000 

0.000000 -0.000000 0.000000 
0.000000 -0.000000 0.000000 
0.000000 0.000000 0.000000 

0.000000 0.000000 0.000000 
0.000000 0.000000 0.000000 
0.000000 0.000000 0.000000 

-0.000000 0.000000 0.000000 
0.000000 -0.000000 0.000000 
0.000000 0.000000 0.000000 

-0.000000 0.000000 0.000000 
0.000000 -0.000000 0.000000 
0.000000 0.000000 0.000000 

0.000000 0.000000 0.000000 
0.000000 0.000000 0.000000 
0.000000 0.000000 0.000000 

0.000000 -0.000000 0.000000 
0.000000 -0.000000 0.000000 
0.000000 0.000000 0.000000 

0.000000 -0.000000 0.000000 
0.000000 0.000000 0.000000 
0.000000 0.000000 0.000000 

-0.000000 -0.000000 0.000000 
0.000000 0.000000 0.000000 
0.000000 0.000000 0.000000 

-0.000000 -0.000000 0.000000 
0.000000 -0.000000 0.000000 
0.000000 0.000000 0.000000 

-0.000000 0.000000 0.000000 
0.000000 0.000000 0.000000 
0.000000 0.000000 0.000000 

0.000000 -0.000000 0.000000 
0.000000 -0.000000 0.000000 
0.000000 0.000000 0.000000 

0.000000 0.000000 0.000000 
0.000000 -0.000000 0.000000 
0.000000 0.000000 0.000000 

0.000000 0.000000 0.000000 
0.000000 0.000000 0.000000 
0.000000 0.000000 0.000000 

0.000000 0.000000 0.000000 
0.000000 -0.000000 0.000000 
0.000000 0.000000 0.000000 

-0.000000 0.000000 0.000000 
0.000000 0.000000 0.000000 
0.000000 0.000000 0.000000 

0.000000 0.000000 0.000000 
0.000000 -0.000000 0.000000 
0.000000 0.000000 0.000000 

0.000000 0.000000 0.000000 
0.000000 0.000000 0.000000 
0.000000 0.000000 0.000000 

0.000000 -0.000000 0.000000 
0.000000 -0.000000 0.000000 
0.000000 0.000000 0.000000 

0.000000 0.000000 0.000000 
0.000000 0.000000 0.000000 
0.000000 0.000000 0.000000 

-0.000000 0.000000 0.000000 
0.000000 -0.000000 0.000000 
0.000000 0.000000 0.000000 

0.000000 0.000000 0.000000 
0.000000 -0.000000 0.000000 
0.000000 0.000000 0.000000 

0.000000 0.000000 0.000000 
0.000000 0.000000 0.000000 
0.000000 0.000000 0.000000 

-0.000000 -0.000000 0.000000 
0.000000 -0.000000 0.000000 
0.000000 0.000000 0.000000 

-0.000000 -0.000000 0.000000 
0.000000 -0.000000 0.000000 
0.000000 0.000000 0.000000 

0.000000 -0.000000 0.000000 
0.000000 0.000000 0.000000 
0.000000 0.000000 0.000000 

0.000000 0.000000 0.000000 
0.000000 -0.000000 0.000000 
0.000000 0.000000 0.000000 

0.000000 -0.000000 0.000000 
0.000000 0.000000 0.000000 
0.000000 0.000000 0.000000 

0.000000 0.000000 0.000000 
0.000000 0.000000 0.000000 
0.000000 0.000000 0.000000 

0.000000 -0.000000 0.000000 
0.000000 -0.000000 0.000000 
0.000000 0.000000 0.000000 

0.000000 0.000000 0.000000 
0.000000 -0.000000 0.000000 
0.000000 0.000000 0.000000 

0.000000 0.000000 0.000000 
0.000000 0.000000 0.000000 
0.000000 0.000000 0.000000 

0.000000 0.000000 0.000000 
0.000000 -0.000000 0.000000 
0.000000 0.000000 0.000000 

-0.000000 -0.000000 0.000000 
0.000000 0.000000 0.000000 
0.000000 0.000000 0.000000 

0.000000 -0.000000 0.000000 
0.000000 -0.000000 0.000000 
0.000000 0.000000 0.000000 

0.000000 0.000000 0.000000 
0.000000 0.000000 0.000000 
0.000000 0.000000 0.000000 

-0.000000 0.000000 0.000000 
0.000000 0.000000 0.000000 
0.000000 0.000000 0.000000 

-0.000000 0.000000 0.000000 
0.000000 0.000000 0.000000 
0.000000 0.000000 0.000000 

-0.000000 -0.000000 0.000000 
0.000000 0.000000 0.000000 
0.000000 0.000000 0.000000 

0.000000 -0.000000 0.000000 
0.000000 -0.000000 0.000000 
0.000000 0.000000 0.000000 

-0.000000 -0.000000 0.000000 
0.000000 -0.000000 0.000000 
0.000000 0.000000 0.000000 

0.000000 -0.000000 0.000000 
0.000000 -0.000000 0.000000 
0.000000 0.000000 0.000000 

0.000000 0.000000 0.000000 
0.000000 -0.000000 0.000000 
0.000000 0.000000 0.000000 

0.000000 0.000000 0.000000 
0.000000 -0.000000 0.000000 
0.000000 0.000000 0.000000 

0.000000 -0.000000 0.000000 
0.000000 0.000000 0.000000 
0.000000 0.000000 0.000000 

0.000000 0.000000 0.000000 
0.000000 -0.000000 0.000000 
0.000000 0.000000 0.000000 

-0.000000 -0.000000 0.000000 
0.000000 -0.000000 0.000000 
0.000000 0.000000 0.000000 

0.000000 -0.000000 0.000000 
0.000000 -0.000000 0.000000 
0.000000 0.000000 0.000000 

0.000000 -0.000000 0.000000 
0.000000 -0.000000 0.000000 
0.000000 0.000000 0.000000 

0.000000 0.000000 0.000000 
0.000000 0.000000 0.000000 
0.000000 0.000000 0.000000 

0.000000 -0.000000 0.000000 
0.000000 -0.000000 0.000000 
0.000000 0.000000 0.000000 

-0.000000 -0.000000 0.000000 
0.000000 -0.000000 0.000000 
0.000000 0.000000 0.000000 

0.000000 -0.000000 0.000000 
0.000000 -0.000000 0.000000 
0.000000 0.000000 0.000000 

-0.000000 -0.000000 0.000000 
0.000000 0.000000 0.000000 
0.000000 0.000000 0.000000 

-0.000000 -0.000000 0.000000 
0.000000 -0.000000 0.000000 
0.000000 0.000000 0.000000 

0.000000 -0.000000 0.000000 
0.000000 -0.000000 0.000000 
0.000000 0.000000 0.000000 

-0.000000 0.000000 0.000000 
0.000000 -0.000000 0.000000 
0.000000 0.000000 0.000000 

0.000000 -0.000000 0.000000 
0.000000 -0.000000 0.000000 
0.000000 0.000000 0.000000 

0.000000 -0.000000 0.000000 
0.000000 0.000000 0.000000 
0.000000 0.000000 0.000000 

-0.000000 0.000000 0.000000 
0.000000 -0.000000 0.000000 
0.000000 0.000000 0.000000 

0.000000 0.000000 0.000000 
0.000000 -0.000000 0.000000 
0.000000 0.000000 0.000000 

-0.000000 -0.000000 0.000000 
0.000000 0.000000 0.000000 
0.000000 0.000000 0.000000 

-0.000000 -0.000000 0.000000 
0.000000 -0.000000 0.000000 
0.000000 0.000000 0.000000 

-0.000000 0.000000 0.000000 
0.000000 0.000000 0.000000 
0.000000 0.000000 0.000000 

0.000000 -0.000000 0.000000 
0.000000 -0.000000 0.000000 
0.000000 0.000000 0.000000 

0.000000 -0.000000 0.000000 
0.000000 0.000000 0.000000 
0.000000 0.000000 0.000000 

-0.000000 -0.000000 0.000000 
0.000000 0.000000 0.000000 
0.000000 0.000000 0.000000 

-0.000000 -0.000000 0.000000 
0.000000 -0.000000 0.000000 
0.000000 0.000000 0.000000 

-0.000000 -0.000000 0.000000 
0.000000 -0.000000 0.000000 
0.000000 0.000000 0.000000 

0.000000 0.000000 0.000000 
0.000000 -0.000000 0.000000 
0.000000 0.000000 0.000000 

0.000000 0.000000 0.000000 
0.000000 0.000000 0.000000 
0.000000 0.000000 0.000000 

0.000000 0.000000 0.000000 
0.000000 -0.000000 0.000000 
0.000000 0.000000 0.000000 

0.000000 0.000000 0.000000 
0.000000 0.000000 0.000000 
0.000000 0.000000 0.000000 

0.000000 -0.000000 0.000000 
0.000000 -0.000000 0.000000 
0.000000 0.000000 0.000000 

0.000000 0.000000 0.000000 
0.000000 0.000000 0.000000 
0.000000 0.000000 0.000000 

0.000000 -0.000000 0.000000 
0.000000 0.000000 0.000000 
0.000000 0.000000 0.000000 

0.000000 0.000000 0.000000 
0.000000 -0.000000 0.000000 
0.000000 0.000000 0.000000 

0.000000 0.000000 0.000000 
0.000000 -0.000000 0.000000 
0.000000 0.000000 0.000000 

0.000000 -0.000000 0.000000 
0.000000 0.000000 0.000000 
0.000000 0.000000 0.000000 

0.000000 0.000000 0.000000 
0.000000 0.000000 0.000000 
0.000000 0.000000 0.000000 

0.000000 -0.000000 0.000000 
0.000000 0.000000 0.000000 
0.000000 0.000000 0.000000 

-0.000000 -0.000000 0.000000 
0.000000 0.000000 0.000000 
0.000000 0.000000 0.000000 

-0.000000 -0.000000 0.000000 
0.000000 -0.000000 0.000000 
0.000000 0.000000 0.000000 

0.000000 -0.000000 0.000000 
0.000000 -0.000000 0.000000 
0.000000 0.000000 0.000000 

0.000000 0.000000 0.000000 
0.000000 -0.000000 0.000000 
0.000000 0.000000 0.000000 

0.000000 -0.000000 0.000000 
0.000000 0.000000 0.000000 
0.000000 0.000000 0.000000 

-0.000000 0.000000 0.000000 
0.000000 -0.000000 0.000000 
0.000000 0.000000 0.000000 

-0.000000 0.000000 0.000000 
0.000000 0.000000 0.000000 
0.000000 0.000000 0.000000 

0.000000 -0.000000 0.000000 
0.000000 -0.000000 0.000000 
0.000000 0.000000 0.000000 

0.000000 -0.000000 0.000000 
0.000000 -0.000000 0.000000 
0.000000 0.000000 0.000000 

0.000000 0.000000 0.000000 
0.000000 -0.000000 0.000000 
0.000000 0.000000 0.000000 

-0.000000 0.000000 0.000000 
0.000000 -0.000000 0.000000 
0.000000 0.000000 0.000000 

0.000000 0.000000 0.000000 
0.000000 -0.000000 0.000000 
0.000000 0.000000 0.000000 

-0.000000 0.000000 0.000000 
0.000000 0.000000 0.000000 
0.000000 0.000000 0.000000 

-0.000000 -0.000000 0.000000 
0.000000 -0.000000 0.000000 
0.000000 0.000000 0.000000 

0.000000 0.000000 0.000000 
0.000000 -0.000000 0.000000 
0.000000 0.000000 0.000000 

0.000000 0.000000 0.000000 
0.000000 0.000000 0.000000 
0.000000 0.000000 0.000000 

-0.000000 0.000000 0.000000 
0.000000 -0.000000 0.000000 
0.000000 0.000000 0.000000 

-0.000000 -0.000000 0.000000 
0.000000 0.000000 0.000000 
0.000000 0.000000 0.000000 

-0.000000 0.000000 0.000000 
0.000000 -0.000000 0.000000 
0.000000 0.000000 0.000000 

0.000000 -0.000000 0.000000 
0.000000 -0.000000 0.000000 
0.000000 0.000000 0.000000 

0.000000 0.000000 0.000000 
0.000000 -0.000000 0.000000 
0.000000 0.000000 0.000000 

0.000000 -0.000000 0.000000 
0.000000 0.000000 0.000000 
0.000000 0.000000 0.000000 

0.000000 -0.000000 0.000000 
0.000000 -0.000000 0.000000 
0.000000 0.000000 0.000000 

0.000000 0.000000 0.000000 
0.000000 0.000000 0.000000 
0.000000 0.000000 0.000000 

0.000000 0.000000 0.000000 
0.000000 0.000000 0.000000 
0.000000 0.000000 0.000000 

0.000000 0.000000 0.000000 
0.000000 -0.000000 0.000000 
0.000000 0.000000 0.000000 

0.000000 -0.000000 0.000000 
0.000000 0.000000 0.000000 
0.000000 0.000000 0.000000 

0.000000 0.000000 0.000000 
0.000000 -0.000000 0.000000 
0.000000 0.000000 0.000000 

0.000000 -0.000000 0.000000 
0.000000 0.000000 0.000000 
0.000000 0.000000 0.000000 

0.000000 -0.000000 0.000000 
0.000000 -0.000000 0.000000 
0.000000 0.000000 0.000000 

0.000000 0.000000 0.000000 
0.000000 -0.000000 0.000000 
0.000000 0.000000 0.000000 

0.000000 0.000000 0.000000 
0.000000 0.000000 0.000000 
0.000000 0.000000 0.000000 

0.000000 -0.000000 0.000000 
0.000000 0.000000 0.000000 
0.000000 0.000000 0.000000 

0.000000 -0.000000 0.000000 
0.000000 -0.000000 0.000000 
0.000000 0.000000 0.000000 

0.000000 0.000000 0.000000 
0.000000 0.000000 0.000000 
0.000000 0.000000 0.000000 

0.000000 0.000000 0.000000 
0.000000 0.000000 0.000000 
0.000000 0.000000 0.000000 

0.000000 -0.000000 0.000000 
0.000000 0.000000 0.000000 
0.000000 0.000000 0.000000 

-0.000000 0.000000 0.000000 
0.000000 0.000000 0.000000 
0.000000 0.000000 0.000000 

-0.000000 -0.000000 0.000000 
0.000000 0.000000 0.000000 
0.000000 0.000000 0.000000 

-0.000000 -0.000000 0.000000 
0.000000 -0.000000 0.000000 
0.000000 0.000000 0.000000 

-0.000000 -0.000000 0.000000 
0.000000 0.000000 0.000000 
0.000000 0.000000 0.000000 

-0.000000 0.000000 0.000000 
0.000000 -0.000000 0.000000 
0.000000 0.000000 0.000000 

-0.000000 0.000000 0.000000 
0.000000 0.000000 0.000000 
0.000000 0.000000 0.000000 

-0.000000 0.000000 0.000000 
0.000000 -0.000000 0.000000 
0.000000 0.000000 0.000000 

0.000000 0.000000 0.000000 
0.000000 -0.000000 0.000000 
0.000000 0.000000 0.000000 

0.000000 -0.000000 0.000000 
0.000000 0.000000 0.000000 
0.000000 0.000000 0.000000 

0.000000 -0.000000 0.000000 
0.000000 -0.000000 0.000000 
0.000000 0.000000 0.000000 

0.000000 0.000000 0.000000 
0.000000 -0.000000 0.000000 
0.000000 0.000000 0.000000 

0.000000 -0.000000 0.000000 
0.000000 -0.000000 0.000000 
0.000000 0.000000 0.000000 

0.000000 -0.000000 0.000000 
0.000000 -0.000000 0.000000 
0.000000 0.000000 0.000000 

0.000000 0.000000 0.000000 
0.000000 0.000000 0.000000 
0.000000 0.000000 0.000000 

0.000000 0.000000 0.000000 
0.000000 -0.000000 0.000000 
0.000000 0.000000 0.000000 

0.000000 0.000000 0.000000 
0.000000 0.000000 0.000000 
0.000000 0.000000 0.000000 

0.000000 0.000000 0.000000 
0.000000 0.000000 0.000000 
0.000000 0.000000 0.000000 

-0.000000 0.000000 0.000000 
0.000000 0.000000 0.000000 
0.000000 0.000000 0.000000 

0.000000 -0.000000 0.000000 
0.000000 0.000000 0.000000 
0.000000 0.000000 0.000000 

0.000000 -0.000000 0.000000 
0.000000 0.000000 0.000000 
0.000000 0.000000 0.000000 

0.000000 0.000000 0.000000 
0.000000 0.000000 0.000000 
0.000000 0.000000 0.000000 

0.000000 -0.000000 0.000000 
0.000000 0.000000 0.000000 
0.000000 0.000000 0.000000 

0.000000 -0.000000 0.000000 
0.000000 -0.000000 0.000000 
0.000000 0.000000 0.000000 

0.000000 -0.000000 0.000000 
0.000000 -0.000000 0.000000 
0.000000 0.000000 0.000000 

0.000000 -0.000000 0.000000 
0.000000 0.000000 0.000000 
0.000000 0.000000 0.000000 

0.000000 0.000000 0.000000 
0.000000 -0.000000 0.000000 
0.000000 0.000000 0.000000 

0.000000 0.000000 0.000000 
0.000000 -0.000000 0.000000 
0.000000 0.000000 0.000000 

0.000000 -0.000000 0.000000 
0.000000 0.000000 0.000000 
0.000000 0.000000 0.000000 

0.000000 -0.000000 0.000000 
0.000000 -0.000000 0.000000 
0.000000 0.000000 0.000000 

-0.000000 0.000000 0.000000 
0.000000 0.000000 0.000000 
0.000000 0.000000 0.000000 

-0.000000 0.000000 0.000000 
0.000000 0.000000 0.000000 
0.000000 0.000000 0.000000 

-0.000000 -0.000000 0.000000 
0.000000 0.000000 0.000000 
0.000000 0.000000 0.000000 

