# vtk DataFile Version 3.0 
vtk output 
ASCII 
DATASET UNSTRUCTURED_GRID 
POINTS 175 float 
-0.026061 -1.100804 0.000000 
-0.106992 -1.032749 0.000000 
-0.054870 -1.040982 0.000000 
-0.028809 -0.995098 0.000000 
-0.186430 -0.968674 0.000000 
-0.137056 -0.971200 0.000000 
-0.114311 -0.917552 0.000000 
-0.058186 -0.933218 0.000000 
-0.029377 -0.893041 0.000000 
-0.265318 -0.905518 0.000000 
-0.217198 -0.906317 0.000000 
-0.196633 -0.849021 0.000000 
-0.143120 -0.857730 0.000000 
-0.116563 -0.810461 0.000000 
-0.058945 -0.830107 0.000000 
-0.029568 -0.791987 0.000000 
-0.344206 -0.842362 0.000000 
-0.296791 -0.842355 0.000000 
-0.278030 -0.782412 0.000000 
-0.225992 -0.788278 0.000000 
-0.201664 -0.736161 0.000000 
-0.145749 -0.749635 0.000000 
-0.117890 -0.705293 0.000000 
-0.059328 -0.727998 0.000000 
-0.029759 -0.690933 0.000000 
-0.058559 -1.141555 0.000000 
-0.162226 -1.162398 0.000000 
-0.123292 -1.126780 0.000000 
-0.142917 -1.077797 0.000000 
-0.261851 -1.184554 0.000000 
-0.229092 -1.147527 0.000000 
-0.256854 -1.096296 0.000000 
-0.209613 -1.062183 0.000000 
-0.223062 -1.014609 0.000000 
-0.360414 -1.206854 0.000000 
-0.329787 -1.169732 0.000000 
-0.361761 -1.117929 0.000000 
-0.321587 -1.081521 0.000000 
-0.341985 -1.031287 0.000000 
-0.290702 -0.998488 0.000000 
-0.302189 -0.951752 0.000000 
-0.458977 -1.229155 0.000000 
-0.429420 -1.192080 0.000000 
-0.464588 -1.140038 0.000000 
-0.427556 -1.103011 0.000000 
-0.453135 -1.051496 0.000000 
-0.407738 -1.016181 0.000000 
-0.425037 -0.966752 0.000000 
-0.370772 -0.935123 0.000000 
-0.381315 -0.888896 0.000000 
-0.046960 -1.192370 0.000000 
-0.095301 -1.286416 0.000000 
-0.098873 -1.233769 0.000000 
-0.149405 -1.218572 0.000000 
-0.140093 -1.378120 0.000000 
-0.148617 -1.329422 0.000000 
-0.205981 -1.319185 0.000000 
-0.203197 -1.260981 0.000000 
-0.248777 -1.241835 0.000000 
-0.184111 -1.469084 0.000000 
-0.194039 -1.421993 0.000000 
-0.254475 -1.414693 0.000000 
-0.257893 -1.360583 0.000000 
-0.309886 -1.345211 0.000000 
-0.303554 -1.284666 0.000000 
-0.347255 -1.264508 0.000000 
-0.228129 -1.560048 0.000000 
-0.238687 -1.513823 0.000000 
-0.301302 -1.508871 0.000000 
-0.307162 -1.456832 0.000000 
-0.363386 -1.444711 0.000000 
-0.362692 -1.387200 0.000000 
-0.412122 -1.369907 0.000000 
-0.403017 -1.307760 0.000000 
-0.445733 -1.287181 0.000000 
-0.000000 -1.214985 0.000000 
0.043388 -1.311416 0.000000 
-0.000000 -1.281384 0.000000 
-0.043388 -1.311416 0.000000 
0.087158 -1.403613 0.000000 
0.043769 -1.379914 0.000000 
-0.000000 -1.418380 0.000000 
-0.043769 -1.379914 0.000000 
-0.087158 -1.403613 0.000000 
0.130831 -1.494742 0.000000 
0.087824 -1.473143 0.000000 
0.044436 -1.515843 0.000000 
-0.000000 -1.484778 0.000000 
-0.044436 -1.515843 0.000000 
-0.087824 -1.473143 0.000000 
-0.130831 -1.494742 0.000000 
0.174505 -1.585872 0.000000 
0.131782 -1.565306 0.000000 
0.088871 -1.611172 0.000000 
0.044532 -1.583309 0.000000 
-0.000000 -1.619709 0.000000 
-0.044532 -1.583309 0.000000 
-0.088871 -1.611172 0.000000 
-0.131782 -1.565306 0.000000 
-0.174505 -1.585872 0.000000 
0.046960 -1.192370 0.000000 
0.149405 -1.218572 0.000000 
0.098873 -1.233769 0.000000 
0.095301 -1.286416 0.000000 
0.248777 -1.241835 0.000000 
0.203197 -1.260981 0.000000 
0.205981 -1.319185 0.000000 
0.148617 -1.329422 0.000000 
0.140093 -1.378120 0.000000 
0.347255 -1.264508 0.000000 
0.303554 -1.284666 0.000000 
0.309886 -1.345211 0.000000 
0.257893 -1.360583 0.000000 
0.254475 -1.414693 0.000000 
0.194039 -1.421993 0.000000 
0.184111 -1.469084 0.000000 
0.445733 -1.287181 0.000000 
0.403017 -1.307760 0.000000 
0.412122 -1.369907 0.000000 
0.362692 -1.387200 0.000000 
0.363386 -1.444711 0.000000 
0.307162 -1.456832 0.000000 
0.301302 -1.508871 0.000000 
0.238687 -1.513823 0.000000 
0.228129 -1.560048 0.000000 
0.058559 -1.141555 0.000000 
0.142917 -1.077797 0.000000 
0.123292 -1.126780 0.000000 
0.162226 -1.162398 0.000000 
0.223062 -1.014609 0.000000 
0.209613 -1.062183 0.000000 
0.256854 -1.096296 0.000000 
0.229092 -1.147527 0.000000 
0.261851 -1.184554 0.000000 
0.302189 -0.951752 0.000000 
0.290702 -0.998488 0.000000 
0.341985 -1.031287 0.000000 
0.321587 -1.081521 0.000000 
0.361761 -1.117929 0.000000 
0.329787 -1.169732 0.000000 
0.360414 -1.206854 0.000000 
0.381315 -0.888896 0.000000 
0.370772 -0.935123 0.000000 
0.425037 -0.966752 0.000000 
0.407738 -1.016181 0.000000 
0.453135 -1.051496 0.000000 
0.427556 -1.103011 0.000000 
0.464588 -1.140038 0.000000 
0.429420 -1.192080 0.000000 
0.458977 -1.229155 0.000000 
0.026061 -1.100804 0.000000 
0.028809 -0.995098 0.000000 
0.054870 -1.040982 0.000000 
0.106992 -1.032749 0.000000 
0.029377 -0.893041 0.000000 
0.058186 -0.933218 0.000000 
0.114311 -0.917552 0.000000 
0.137056 -0.971200 0.000000 
0.186430 -0.968674 0.000000 
0.029568 -0.791987 0.000000 
0.058945 -0.830107 0.000000 
0.116563 -0.810461 0.000000 
0.143120 -0.857730 0.000000 
0.196633 -0.849021 0.000000 
0.217198 -0.906317 0.000000 
0.265318 -0.905518 0.000000 
0.029759 -0.690933 0.000000 
0.059328 -0.727998 0.000000 
0.117890 -0.705293 0.000000 
0.145749 -0.749635 0.000000 
0.201664 -0.736161 0.000000 
0.225992 -0.788278 0.000000 
0.278030 -0.782412 0.000000 
0.296791 -0.842355 0.000000 
0.344206 -0.842362 0.000000 
CELLS 175 350 
1 0 
1 1 
1 2 
1 3 
1 4 
1 5 
1 6 
1 7 
1 8 
1 9 
1 10 
1 11 
1 12 
1 13 
1 14 
1 15 
1 16 
1 17 
1 18 
1 19 
1 20 
1 21 
1 22 
1 23 
1 24 
1 25 
1 26 
1 27 
1 28 
1 29 
1 30 
1 31 
1 32 
1 33 
1 34 
1 35 
1 36 
1 37 
1 38 
1 39 
1 40 
1 41 
1 42 
1 43 
1 44 
1 45 
1 46 
1 47 
1 48 
1 49 
1 50 
1 51 
1 52 
1 53 
1 54 
1 55 
1 56 
1 57 
1 58 
1 59 
1 60 
1 61 
1 62 
1 63 
1 64 
1 65 
1 66 
1 67 
1 68 
1 69 
1 70 
1 71 
1 72 
1 73 
1 74 
1 75 
1 76 
1 77 
1 78 
1 79 
1 80 
1 81 
1 82 
1 83 
1 84 
1 85 
1 86 
1 87 
1 88 
1 89 
1 90 
1 91 
1 92 
1 93 
1 94 
1 95 
1 96 
1 97 
1 98 
1 99 
1 100 
1 101 
1 102 
1 103 
1 104 
1 105 
1 106 
1 107 
1 108 
1 109 
1 110 
1 111 
1 112 
1 113 
1 114 
1 115 
1 116 
1 117 
1 118 
1 119 
1 120 
1 121 
1 122 
1 123 
1 124 
1 125 
1 126 
1 127 
1 128 
1 129 
1 130 
1 131 
1 132 
1 133 
1 134 
1 135 
1 136 
1 137 
1 138 
1 139 
1 140 
1 141 
1 142 
1 143 
1 144 
1 145 
1 146 
1 147 
1 148 
1 149 
1 150 
1 151 
1 152 
1 153 
1 154 
1 155 
1 156 
1 157 
1 158 
1 159 
1 160 
1 161 
1 162 
1 163 
1 164 
1 165 
1 166 
1 167 
1 168 
1 169 
1 170 
1 171 
1 172 
1 173 
1 174 
CELL_TYPES 175 
1 
1 
1 
1 
1 
1 
1 
1 
1 
1 
1 
1 
1 
1 
1 
1 
1 
1 
1 
1 
1 
1 
1 
1 
1 
1 
1 
1 
1 
1 
1 
1 
1 
1 
1 
1 
1 
1 
1 
1 
1 
1 
1 
1 
1 
1 
1 
1 
1 
1 
1 
1 
1 
1 
1 
1 
1 
1 
1 
1 
1 
1 
1 
1 
1 
1 
1 
1 
1 
1 
1 
1 
1 
1 
1 
1 
1 
1 
1 
1 
1 
1 
1 
1 
1 
1 
1 
1 
1 
1 
1 
1 
1 
1 
1 
1 
1 
1 
1 
1 
1 
1 
1 
1 
1 
1 
1 
1 
1 
1 
1 
1 
1 
1 
1 
1 
1 
1 
1 
1 
1 
1 
1 
1 
1 
1 
1 
1 
1 
1 
1 
1 
1 
1 
1 
1 
1 
1 
1 
1 
1 
1 
1 
1 
1 
1 
1 
1 
1 
1 
1 
1 
1 
1 
1 
1 
1 
1 
1 
1 
1 
1 
1 
1 
1 
1 
1 
1 
1 
1 
1 
1 
1 
1 
1 
POINT_DATA 175 
VECTORS X_GC float 
-0.026061 -1.100804 0.000000 
-0.106992 -1.032749 0.000000 
-0.054870 -1.040982 0.000000 
-0.028809 -0.995098 0.000000 
-0.186430 -0.968674 0.000000 
-0.137056 -0.971200 0.000000 
-0.114311 -0.917552 0.000000 
-0.058186 -0.933218 0.000000 
-0.029377 -0.893041 0.000000 
-0.265318 -0.905518 0.000000 
-0.217198 -0.906317 0.000000 
-0.196633 -0.849021 0.000000 
-0.143120 -0.857730 0.000000 
-0.116563 -0.810461 0.000000 
-0.058945 -0.830107 0.000000 
-0.029568 -0.791987 0.000000 
-0.344206 -0.842362 0.000000 
-0.296791 -0.842355 0.000000 
-0.278030 -0.782412 0.000000 
-0.225992 -0.788278 0.000000 
-0.201664 -0.736161 0.000000 
-0.145749 -0.749635 0.000000 
-0.117890 -0.705293 0.000000 
-0.059328 -0.727998 0.000000 
-0.029759 -0.690933 0.000000 
-0.058559 -1.141555 0.000000 
-0.162226 -1.162398 0.000000 
-0.123292 -1.126780 0.000000 
-0.142917 -1.077797 0.000000 
-0.261851 -1.184554 0.000000 
-0.229092 -1.147527 0.000000 
-0.256854 -1.096296 0.000000 
-0.209613 -1.062183 0.000000 
-0.223062 -1.014609 0.000000 
-0.360414 -1.206854 0.000000 
-0.329787 -1.169732 0.000000 
-0.361761 -1.117929 0.000000 
-0.321587 -1.081521 0.000000 
-0.341985 -1.031287 0.000000 
-0.290702 -0.998488 0.000000 
-0.302189 -0.951752 0.000000 
-0.458977 -1.229155 0.000000 
-0.429420 -1.192080 0.000000 
-0.464588 -1.140038 0.000000 
-0.427556 -1.103011 0.000000 
-0.453135 -1.051496 0.000000 
-0.407738 -1.016181 0.000000 
-0.425037 -0.966752 0.000000 
-0.370772 -0.935123 0.000000 
-0.381315 -0.888896 0.000000 
-0.046960 -1.192370 0.000000 
-0.095301 -1.286416 0.000000 
-0.098873 -1.233769 0.000000 
-0.149405 -1.218572 0.000000 
-0.140093 -1.378120 0.000000 
-0.148617 -1.329422 0.000000 
-0.205981 -1.319185 0.000000 
-0.203197 -1.260981 0.000000 
-0.248777 -1.241835 0.000000 
-0.184111 -1.469084 0.000000 
-0.194039 -1.421993 0.000000 
-0.254475 -1.414693 0.000000 
-0.257893 -1.360583 0.000000 
-0.309886 -1.345211 0.000000 
-0.303554 -1.284666 0.000000 
-0.347255 -1.264508 0.000000 
-0.228129 -1.560048 0.000000 
-0.238687 -1.513823 0.000000 
-0.301302 -1.508871 0.000000 
-0.307162 -1.456832 0.000000 
-0.363386 -1.444711 0.000000 
-0.362692 -1.387200 0.000000 
-0.412122 -1.369907 0.000000 
-0.403017 -1.307760 0.000000 
-0.445733 -1.287181 0.000000 
-0.000000 -1.214985 0.000000 
0.043388 -1.311416 0.000000 
-0.000000 -1.281384 0.000000 
-0.043388 -1.311416 0.000000 
0.087158 -1.403613 0.000000 
0.043769 -1.379914 0.000000 
-0.000000 -1.418380 0.000000 
-0.043769 -1.379914 0.000000 
-0.087158 -1.403613 0.000000 
0.130831 -1.494742 0.000000 
0.087824 -1.473143 0.000000 
0.044436 -1.515843 0.000000 
-0.000000 -1.484778 0.000000 
-0.044436 -1.515843 0.000000 
-0.087824 -1.473143 0.000000 
-0.130831 -1.494742 0.000000 
0.174505 -1.585872 0.000000 
0.131782 -1.565306 0.000000 
0.088871 -1.611172 0.000000 
0.044532 -1.583309 0.000000 
-0.000000 -1.619709 0.000000 
-0.044532 -1.583309 0.000000 
-0.088871 -1.611172 0.000000 
-0.131782 -1.565306 0.000000 
-0.174505 -1.585872 0.000000 
0.046960 -1.192370 0.000000 
0.149405 -1.218572 0.000000 
0.098873 -1.233769 0.000000 
0.095301 -1.286416 0.000000 
0.248777 -1.241835 0.000000 
0.203197 -1.260981 0.000000 
0.205981 -1.319185 0.000000 
0.148617 -1.329422 0.000000 
0.140093 -1.378120 0.000000 
0.347255 -1.264508 0.000000 
0.303554 -1.284666 0.000000 
0.309886 -1.345211 0.000000 
0.257893 -1.360583 0.000000 
0.254475 -1.414693 0.000000 
0.194039 -1.421993 0.000000 
0.184111 -1.469084 0.000000 
0.445733 -1.287181 0.000000 
0.403017 -1.307760 0.000000 
0.412122 -1.369907 0.000000 
0.362692 -1.387200 0.000000 
0.363386 -1.444711 0.000000 
0.307162 -1.456832 0.000000 
0.301302 -1.508871 0.000000 
0.238687 -1.513823 0.000000 
0.228129 -1.560048 0.000000 
0.058559 -1.141555 0.000000 
0.142917 -1.077797 0.000000 
0.123292 -1.126780 0.000000 
0.162226 -1.162398 0.000000 
0.223062 -1.014609 0.000000 
0.209613 -1.062183 0.000000 
0.256854 -1.096296 0.000000 
0.229092 -1.147527 0.000000 
0.261851 -1.184554 0.000000 
0.302189 -0.951752 0.000000 
0.290702 -0.998488 0.000000 
0.341985 -1.031287 0.000000 
0.321587 -1.081521 0.000000 
0.361761 -1.117929 0.000000 
0.329787 -1.169732 0.000000 
0.360414 -1.206854 0.000000 
0.381315 -0.888896 0.000000 
0.370772 -0.935123 0.000000 
0.425037 -0.966752 0.000000 
0.407738 -1.016181 0.000000 
0.453135 -1.051496 0.000000 
0.427556 -1.103011 0.000000 
0.464588 -1.140038 0.000000 
0.429420 -1.192080 0.000000 
0.458977 -1.229155 0.000000 
0.026061 -1.100804 0.000000 
0.028809 -0.995098 0.000000 
0.054870 -1.040982 0.000000 
0.106992 -1.032749 0.000000 
0.029377 -0.893041 0.000000 
0.058186 -0.933218 0.000000 
0.114311 -0.917552 0.000000 
0.137056 -0.971200 0.000000 
0.186430 -0.968674 0.000000 
0.029568 -0.791987 0.000000 
0.058945 -0.830107 0.000000 
0.116563 -0.810461 0.000000 
0.143120 -0.857730 0.000000 
0.196633 -0.849021 0.000000 
0.217198 -0.906317 0.000000 
0.265318 -0.905518 0.000000 
0.029759 -0.690933 0.000000 
0.059328 -0.727998 0.000000 
0.117890 -0.705293 0.000000 
0.145749 -0.749635 0.000000 
0.201664 -0.736161 0.000000 
0.225992 -0.788278 0.000000 
0.278030 -0.782412 0.000000 
0.296791 -0.842355 0.000000 
0.344206 -0.842362 0.000000 
VECTORS X_EC float 
0.338794 -0.639140 0.000000 
-0.609100 0.442112 0.000000 
0.713312 0.553253 0.000000 
0.374519 -0.066177 0.000000 
0.423588 -0.422908 0.000000 
-0.218274 -0.388804 0.000000 
-0.513962 0.886957 0.000000 
0.756418 -0.901557 0.000000 
0.381900 0.556051 0.000000 
-0.550868 0.724489 0.000000 
0.823577 0.735285 0.000000 
0.556234 -0.038219 0.000000 
-0.139443 0.079350 0.000000 
-0.484677 -0.558775 0.000000 
0.766286 -0.293560 0.000000 
0.384386 -0.808180 0.000000 
0.474677 -0.128114 0.000000 
-0.141715 -0.128210 0.000000 
-0.385608 -0.937438 0.000000 
0.937896 -0.858243 0.000000 
0.621631 0.438177 0.000000 
-0.105264 0.620076 0.000000 
-0.467428 0.021450 0.000000 
0.771260 0.327978 0.000000 
0.386873 -0.172411 0.000000 
0.761262 -0.089005 0.000000 
0.108942 0.192371 0.000000 
-0.397202 -0.288468 0.000000 
-0.142083 -0.949743 0.000000 
-0.595936 0.491482 0.000000 
0.978194 -0.008384 0.000000 
-0.660903 -0.700009 0.000000 
0.724964 0.839471 0.000000 
0.899809 0.197222 0.000000 
0.685384 0.792534 0.000000 
0.287229 0.291376 0.000000 
0.702895 -0.407953 0.000000 
0.180633 -0.899472 0.000000 
0.445811 0.422369 0.000000 
-0.220880 -0.020417 0.000000 
-0.071546 -0.651343 0.000000 
-0.033296 -0.906414 0.000000 
-0.417537 0.593077 0.000000 
0.039645 -0.109486 0.000000 
-0.441768 -0.609357 0.000000 
-0.109248 0.695192 0.000000 
-0.699407 0.218437 0.000000 
-0.474522 -0.448842 0.000000 
0.820030 -0.875836 0.000000 
0.957100 0.500092 0.000000 
0.610485 0.597001 0.000000 
-0.761092 -0.133380 0.000000 
-0.714655 -0.844117 0.000000 
-0.057734 0.950716 0.000000 
-0.178789 -0.895375 0.000000 
-0.067979 0.447198 0.000000 
0.677748 0.308995 0.000000 
0.641556 -0.476750 0.000000 
-0.765897 -0.735229 0.000000 
0.393446 0.332634 0.000000 
0.522510 -0.303096 0.000000 
-0.691820 -0.401641 0.000000 
-0.647393 0.867877 0.000000 
0.028512 0.660350 0.000000 
-0.053800 -0.157010 0.000000 
0.514316 -0.429141 0.000000 
0.965681 -0.439357 0.000000 
-0.897068 0.936614 0.000000 
-0.083078 0.869761 0.000000 
-0.006893 0.167236 0.000000 
0.724017 0.003603 0.000000 
0.714996 -0.772800 0.000000 
-0.642413 0.993743 0.000000 
-0.760780 0.154762 0.000000 
-0.205471 -0.123053 0.000000 
0.000000 0.902303 0.000000 
-0.564049 0.204115 0.000000 
0.000000 -0.201321 0.000000 
0.564049 0.204115 0.000000 
0.866949 -0.551229 0.000000 
-0.569003 -0.871160 0.000000 
0.000000 -0.351872 0.000000 
0.569003 -0.871160 0.000000 
-0.866949 -0.551229 0.000000 
0.299194 0.679021 0.000000 
0.858290 0.387437 0.000000 
-0.577662 0.963883 0.000000 
0.000000 0.544505 0.000000 
0.577662 0.963883 0.000000 
-0.858290 0.387437 0.000000 
-0.299194 0.679021 0.000000 
-0.268560 -0.090729 0.000000 
0.286830 -0.368371 0.000000 
0.844677 0.250827 0.000000 
-0.578910 -0.125335 0.000000 
0.000000 0.366069 0.000000 
0.578910 -0.125335 0.000000 
-0.844677 0.250827 0.000000 
-0.286830 -0.368371 0.000000 
0.268560 -0.090729 0.000000 
-0.610485 0.597001 0.000000 
0.057734 0.950716 0.000000 
0.714655 -0.844117 0.000000 
0.761092 -0.133380 0.000000 
0.765897 -0.735229 0.000000 
-0.641556 -0.476750 0.000000 
-0.677748 0.308995 0.000000 
0.067979 0.447198 0.000000 
0.178789 -0.895375 0.000000 
-0.514316 -0.429141 0.000000 
0.053800 -0.157010 0.000000 
-0.028512 0.660350 0.000000 
0.647393 0.867877 0.000000 
0.691820 -0.401641 0.000000 
-0.522510 -0.303096 0.000000 
-0.393446 0.332634 0.000000 
0.205471 -0.123053 0.000000 
0.760780 0.154762 0.000000 
0.642413 0.993743 0.000000 
-0.714996 -0.772800 0.000000 
-0.724017 0.003603 0.000000 
0.006894 0.167236 0.000000 
0.083078 0.869761 0.000000 
0.897068 0.936614 0.000000 
-0.965681 -0.439357 0.000000 
-0.761262 -0.089005 0.000000 
0.142083 -0.949743 0.000000 
0.397202 -0.288468 0.000000 
-0.108942 0.192371 0.000000 
-0.899809 0.197222 0.000000 
-0.724964 0.839471 0.000000 
0.660903 -0.700009 0.000000 
-0.978194 -0.008384 0.000000 
0.595936 0.491482 0.000000 
0.071546 -0.651343 0.000000 
0.220880 -0.020417 0.000000 
-0.445811 0.422369 0.000000 
-0.180633 -0.899472 0.000000 
-0.702895 -0.407953 0.000000 
-0.287229 0.291376 0.000000 
-0.685384 0.792534 0.000000 
-0.957100 0.500092 0.000000 
-0.820030 -0.875836 0.000000 
0.474522 -0.448842 0.000000 
0.699407 0.218437 0.000000 
0.109248 0.695192 0.000000 
0.441768 -0.609357 0.000000 
-0.039645 -0.109486 0.000000 
0.417537 0.593077 0.000000 
0.033296 -0.906414 0.000000 
-0.338794 -0.639140 0.000000 
-0.374519 -0.066177 0.000000 
-0.713312 0.553253 0.000000 
0.609100 0.442112 0.000000 
-0.381900 0.556051 0.000000 
-0.756418 -0.901557 0.000000 
0.513962 0.886957 0.000000 
0.218274 -0.388804 0.000000 
-0.423588 -0.422908 0.000000 
-0.384386 -0.808180 0.000000 
-0.766286 -0.293560 0.000000 
0.484677 -0.558775 0.000000 
0.139443 0.079350 0.000000 
-0.556234 -0.038219 0.000000 
-0.823577 0.735285 0.000000 
0.550868 0.724489 0.000000 
-0.386873 -0.172411 0.000000 
-0.771260 0.327978 0.000000 
0.467428 0.021450 0.000000 
0.105264 0.620076 0.000000 
-0.621631 0.438177 0.000000 
-0.937896 -0.858243 0.000000 
0.385608 -0.937438 0.000000 
0.141715 -0.128210 0.000000 
-0.474677 -0.128114 0.000000 
CELL_DATA 175 
SCALARS MASS float 
LOOKUP_TABLE default 
0.078183 
0.086427 
0.094672 
0.086427 
0.088131 
0.092111 
0.085854 
0.092111 
0.088131 
0.088705 
0.091000 
0.086983 
0.091556 
0.086983 
0.091000 
0.088705 
0.089278 
0.091574 
0.089278 
0.092722 
0.089278 
0.092722 
0.089278 
0.091574 
0.089278 
0.078183 
0.086427 
0.094672 
0.086427 
0.088131 
0.092111 
0.085854 
0.092111 
0.088131 
0.088705 
0.091000 
0.086983 
0.091556 
0.086983 
0.091000 
0.088705 
0.089278 
0.091574 
0.089278 
0.092722 
0.089278 
0.092722 
0.089278 
0.091574 
0.089278 
0.078183 
0.086427 
0.094672 
0.086427 
0.088131 
0.092111 
0.085854 
0.092111 
0.088131 
0.088705 
0.091000 
0.086983 
0.091556 
0.086983 
0.091000 
0.088705 
0.089278 
0.091574 
0.089278 
0.092722 
0.089278 
0.092722 
0.089278 
0.091574 
0.089278 
0.078183 
0.086427 
0.094672 
0.086427 
0.088131 
0.092111 
0.085854 
0.092111 
0.088131 
0.088705 
0.091000 
0.086983 
0.091556 
0.086983 
0.091000 
0.088705 
0.089278 
0.091574 
0.089278 
0.092722 
0.089278 
0.092722 
0.089278 
0.091574 
0.089278 
0.078183 
0.086427 
0.094672 
0.086427 
0.088131 
0.092111 
0.085854 
0.092111 
0.088131 
0.088705 
0.091000 
0.086983 
0.091556 
0.086983 
0.091000 
0.088705 
0.089278 
0.091574 
0.089278 
0.092722 
0.089278 
0.092722 
0.089278 
0.091574 
0.089278 
0.078183 
0.086427 
0.094672 
0.086427 
0.088131 
0.092111 
0.085854 
0.092111 
0.088131 
0.088705 
0.091000 
0.086983 
0.091556 
0.086983 
0.091000 
0.088705 
0.089278 
0.091574 
0.089278 
0.092722 
0.089278 
0.092722 
0.089278 
0.091574 
0.089278 
0.078183 
0.086427 
0.094672 
0.086427 
0.088131 
0.092111 
0.085854 
0.092111 
0.088131 
0.088705 
0.091000 
0.086983 
0.091556 
0.086983 
0.091000 
0.088705 
0.089278 
0.091574 
0.089278 
0.092722 
0.089278 
0.092722 
0.089278 
0.091574 
0.089278 
SCALARS MASS float 
LOOKUP_TABLE default 
0.078183 
0.086427 
0.094672 
0.086427 
0.088131 
0.092111 
0.085854 
0.092111 
0.088131 
0.088705 
0.091000 
0.086983 
0.091556 
0.086983 
0.091000 
0.088705 
0.089278 
0.091574 
0.089278 
0.092722 
0.089278 
0.092722 
0.089278 
0.091574 
0.089278 
0.078183 
0.086427 
0.094672 
0.086427 
0.088131 
0.092111 
0.085854 
0.092111 
0.088131 
0.088705 
0.091000 
0.086983 
0.091556 
0.086983 
0.091000 
0.088705 
0.089278 
0.091574 
0.089278 
0.092722 
0.089278 
0.092722 
0.089278 
0.091574 
0.089278 
0.078183 
0.086427 
0.094672 
0.086427 
0.088131 
0.092111 
0.085854 
0.092111 
0.088131 
0.088705 
0.091000 
0.086983 
0.091556 
0.086983 
0.091000 
0.088705 
0.089278 
0.091574 
0.089278 
0.092722 
0.089278 
0.092722 
0.089278 
0.091574 
0.089278 
0.078183 
0.086427 
0.094672 
0.086427 
0.088131 
0.092111 
0.085854 
0.092111 
0.088131 
0.088705 
0.091000 
0.086983 
0.091556 
0.086983 
0.091000 
0.088705 
0.089278 
0.091574 
0.089278 
0.092722 
0.089278 
0.092722 
0.089278 
0.091574 
0.089278 
0.078183 
0.086427 
0.094672 
0.086427 
0.088131 
0.092111 
0.085854 
0.092111 
0.088131 
0.088705 
0.091000 
0.086983 
0.091556 
0.086983 
0.091000 
0.088705 
0.089278 
0.091574 
0.089278 
0.092722 
0.089278 
0.092722 
0.089278 
0.091574 
0.089278 
0.078183 
0.086427 
0.094672 
0.086427 
0.088131 
0.092111 
0.085854 
0.092111 
0.088131 
0.088705 
0.091000 
0.086983 
0.091556 
0.086983 
0.091000 
0.088705 
0.089278 
0.091574 
0.089278 
0.092722 
0.089278 
0.092722 
0.089278 
0.091574 
0.089278 
0.078183 
0.086427 
0.094672 
0.086427 
0.088131 
0.092111 
0.085854 
0.092111 
0.088131 
0.088705 
0.091000 
0.086983 
0.091556 
0.086983 
0.091000 
0.088705 
0.089278 
0.091574 
0.089278 
0.092722 
0.089278 
0.092722 
0.089278 
0.091574 
0.089278 
SCALARS DENSITY float 
LOOKUP_TABLE default 
20.000000 
20.000000 
20.000000 
20.000000 
20.000000 
20.000000 
20.000000 
20.000000 
20.000000 
20.000000 
20.000000 
20.000000 
20.000000 
20.000000 
20.000000 
20.000000 
20.000000 
20.000000 
20.000000 
20.000000 
20.000000 
20.000000 
20.000000 
20.000000 
20.000000 
20.000000 
20.000000 
20.000000 
20.000000 
20.000000 
20.000000 
20.000000 
20.000000 
20.000000 
20.000000 
20.000000 
20.000000 
20.000000 
20.000000 
20.000000 
20.000000 
20.000000 
20.000000 
20.000000 
20.000000 
20.000000 
20.000000 
20.000000 
20.000000 
20.000000 
20.000000 
20.000000 
20.000000 
20.000000 
20.000000 
20.000000 
20.000000 
20.000000 
20.000000 
20.000000 
20.000000 
20.000000 
20.000000 
20.000000 
20.000000 
20.000000 
20.000000 
20.000000 
20.000000 
20.000000 
20.000000 
20.000000 
20.000000 
20.000000 
20.000000 
20.000000 
20.000000 
20.000000 
20.000000 
20.000000 
20.000000 
20.000000 
20.000000 
20.000000 
20.000000 
20.000000 
20.000000 
20.000000 
20.000000 
20.000000 
20.000000 
20.000000 
20.000000 
20.000000 
20.000000 
20.000000 
20.000000 
20.000000 
20.000000 
20.000000 
20.000000 
20.000000 
20.000000 
20.000000 
20.000000 
20.000000 
20.000000 
20.000000 
20.000000 
20.000000 
20.000000 
20.000000 
20.000000 
20.000000 
20.000000 
20.000000 
20.000000 
20.000000 
20.000000 
20.000000 
20.000000 
20.000000 
20.000000 
20.000000 
20.000000 
20.000000 
20.000000 
20.000000 
20.000000 
20.000000 
20.000000 
20.000000 
20.000000 
20.000000 
20.000000 
20.000000 
20.000000 
20.000000 
20.000000 
20.000000 
20.000000 
20.000000 
20.000000 
20.000000 
20.000000 
20.000000 
20.000000 
20.000000 
20.000000 
20.000000 
20.000000 
20.000000 
20.000000 
20.000000 
20.000000 
20.000000 
20.000000 
20.000000 
20.000000 
20.000000 
20.000000 
20.000000 
20.000000 
20.000000 
20.000000 
20.000000 
20.000000 
20.000000 
20.000000 
20.000000 
20.000000 
20.000000 
20.000000 
20.000000 
20.000000 
SCALARS ELEM_i float 
LOOKUP_TABLE default 
174 
202 
175 
175 
202 
202 
203 
175 
176 
230 
203 
203 
203 
203 
176 
176 
230 
230 
230 
203 
204 
204 
204 
177 
177 
174 
201 
201 
201 
228 
201 
228 
202 
202 
228 
228 
228 
228 
229 
229 
229 
254 
255 
255 
255 
256 
256 
256 
229 
230 
174 
200 
200 
201 
199 
200 
200 
200 
227 
199 
199 
226 
227 
227 
227 
227 
198 
226 
226 
226 
226 
226 
254 
254 
254 
174 
173 
173 
173 
145 
172 
172 
172 
199 
145 
145 
172 
172 
172 
199 
199 
144 
144 
144 
171 
171 
171 
198 
198 
198 
174 
147 
146 
146 
119 
146 
146 
146 
145 
119 
119 
119 
119 
118 
145 
145 
92 
92 
92 
118 
118 
118 
118 
118 
144 
174 
147 
147 
147 
148 
148 
120 
147 
120 
121 
121 
121 
120 
120 
120 
120 
122 
121 
94 
94 
94 
93 
93 
93 
92 
174 
175 
175 
148 
176 
175 
149 
148 
148 
176 
176 
149 
149 
149 
149 
122 
177 
177 
150 
150 
150 
149 
122 
122 
122 
VECTORS VELOCITY float 
0.000000 -4.759812 0.000000 
-0.000000 -4.759812 0.000000 
-0.000000 -4.759812 0.000000 
-0.000000 -4.759812 0.000000 
-0.000000 -4.759812 0.000000 
-0.000000 -4.759812 0.000000 
0.000000 -4.759812 0.000000 
0.000000 -4.759812 0.000000 
0.000000 -4.759812 0.000000 
-0.000000 -4.759812 0.000000 
-0.000000 -4.759812 0.000000 
0.000000 -4.759812 0.000000 
0.000000 -4.759812 0.000000 
0.000000 -4.759812 0.000000 
0.000000 -4.759812 0.000000 
0.000000 -4.759812 0.000000 
0.000000 -4.759812 0.000000 
0.000000 -4.759812 0.000000 
-0.000000 -4.759812 0.000000 
0.000000 -4.759812 0.000000 
0.000000 -4.759812 0.000000 
0.000000 -4.759812 0.000000 
0.000000 -4.759812 0.000000 
0.000000 -4.759812 0.000000 
0.000000 -4.759812 0.000000 
0.000000 -4.759812 0.000000 
-0.000000 -4.759812 0.000000 
0.000000 -4.759812 0.000000 
0.000000 -4.759812 0.000000 
-0.000000 -4.759812 0.000000 
-0.000000 -4.759812 0.000000 
0.000000 -4.759812 0.000000 
0.000000 -4.759812 0.000000 
0.000000 -4.759812 0.000000 
-0.000000 -4.759812 0.000000 
0.000000 -4.759812 0.000000 
0.000000 -4.759812 0.000000 
0.000000 -4.759812 0.000000 
0.000000 -4.759812 0.000000 
0.000000 -4.759812 0.000000 
-0.000000 -4.759812 0.000000 
0.000000 -4.759812 0.000000 
0.000000 -4.759812 0.000000 
0.000000 -4.759812 0.000000 
0.000000 -4.759812 0.000000 
0.000000 -4.759812 0.000000 
0.000000 -4.759812 0.000000 
0.000000 -4.759812 0.000000 
-0.000000 -4.759812 0.000000 
-0.000000 -4.759812 0.000000 
-0.000000 -4.759812 0.000000 
-0.000000 -4.759812 0.000000 
-0.000000 -4.759812 0.000000 
-0.000000 -4.759812 0.000000 
-0.000000 -4.759812 0.000000 
-0.000000 -4.759812 0.000000 
-0.000000 -4.759812 0.000000 
-0.000000 -4.759812 0.000000 
-0.000000 -4.759812 0.000000 
-0.000000 -4.759812 0.000000 
-0.000000 -4.759812 0.000000 
-0.000000 -4.759812 0.000000 
-0.000000 -4.759812 0.000000 
0.000000 -4.759812 0.000000 
0.000000 -4.759812 0.000000 
0.000000 -4.759812 0.000000 
0.000000 -4.759812 0.000000 
0.000000 -4.759812 0.000000 
-0.000000 -4.759812 0.000000 
-0.000000 -4.759812 0.000000 
-0.000000 -4.759812 0.000000 
0.000000 -4.759812 0.000000 
0.000000 -4.759812 0.000000 
0.000000 -4.759812 0.000000 
0.000000 -4.759812 0.000000 
0.000000 -4.759812 0.000000 
-0.000000 -4.759812 0.000000 
-0.000000 -4.759812 0.000000 
-0.000000 -4.759812 0.000000 
-0.000000 -4.759812 0.000000 
-0.000000 -4.759812 0.000000 
-0.000000 -4.759812 0.000000 
-0.000000 -4.759812 0.000000 
-0.000000 -4.759812 0.000000 
0.000000 -4.759812 0.000000 
-0.000000 -4.759812 0.000000 
0.000000 -4.759812 0.000000 
0.000000 -4.759812 0.000000 
0.000000 -4.759812 0.000000 
0.000000 -4.759812 0.000000 
0.000000 -4.759812 0.000000 
0.000000 -4.759812 0.000000 
0.000000 -4.759812 0.000000 
-0.000000 -4.759812 0.000000 
0.000000 -4.759812 0.000000 
-0.000000 -4.759812 0.000000 
-0.000000 -4.759812 0.000000 
-0.000000 -4.759812 0.000000 
-0.000000 -4.759812 0.000000 
0.000000 -4.759812 0.000000 
0.000000 -4.759812 0.000000 
-0.000000 -4.759812 0.000000 
0.000000 -4.759812 0.000000 
-0.000000 -4.759812 0.000000 
-0.000000 -4.759812 0.000000 
-0.000000 -4.759812 0.000000 
-0.000000 -4.759812 0.000000 
-0.000000 -4.759812 0.000000 
-0.000000 -4.759812 0.000000 
0.000000 -4.759812 0.000000 
0.000000 -4.759812 0.000000 
-0.000000 -4.759812 0.000000 
-0.000000 -4.759812 0.000000 
0.000000 -4.759812 0.000000 
0.000000 -4.759812 0.000000 
0.000000 -4.759812 0.000000 
-0.000000 -4.759812 0.000000 
0.000000 -4.759812 0.000000 
-0.000000 -4.759812 0.000000 
-0.000000 -4.759812 0.000000 
0.000000 -4.759812 0.000000 
0.000000 -4.759812 0.000000 
-0.000000 -4.759812 0.000000 
0.000000 -4.759812 0.000000 
-0.000000 -4.759812 0.000000 
0.000000 -4.759812 0.000000 
-0.000000 -4.759812 0.000000 
0.000000 -4.759812 0.000000 
0.000000 -4.759812 0.000000 
-0.000000 -4.759812 0.000000 
-0.000000 -4.759812 0.000000 
-0.000000 -4.759812 0.000000 
-0.000000 -4.759812 0.000000 
-0.000000 -4.759812 0.000000 
0.000000 -4.759812 0.000000 
-0.000000 -4.759812 0.000000 
-0.000000 -4.759812 0.000000 
-0.000000 -4.759812 0.000000 
-0.000000 -4.759812 0.000000 
-0.000000 -4.759812 0.000000 
0.000000 -4.759812 0.000000 
0.000000 -4.759812 0.000000 
0.000000 -4.759812 0.000000 
-0.000000 -4.759812 0.000000 
0.000000 -4.759812 0.000000 
-0.000000 -4.759812 0.000000 
-0.000000 -4.759812 0.000000 
-0.000000 -4.759812 0.000000 
-0.000000 -4.759812 0.000000 
-0.000000 -4.759812 0.000000 
0.000000 -4.759812 0.000000 
-0.000000 -4.759812 0.000000 
-0.000000 -4.759812 0.000000 
-0.000000 -4.759812 0.000000 
0.000000 -4.759812 0.000000 
0.000000 -4.759812 0.000000 
0.000000 -4.759812 0.000000 
-0.000000 -4.759812 0.000000 
0.000000 -4.759812 0.000000 
-0.000000 -4.759812 0.000000 
0.000000 -4.759812 0.000000 
-0.000000 -4.759812 0.000000 
0.000000 -4.759812 0.000000 
0.000000 -4.759812 0.000000 
0.000000 -4.759812 0.000000 
0.000000 -4.759812 0.000000 
-0.000000 -4.759812 0.000000 
-0.000000 -4.759812 0.000000 
-0.000000 -4.759812 0.000000 
-0.000000 -4.759812 0.000000 
-0.000000 -4.759812 0.000000 
0.000000 -4.759812 0.000000 
-0.000000 -4.759812 0.000000 
0.000000 -4.759812 0.000000 
0.000000 -4.759812 0.000000 
TENSORS STRESS float 
-0.000000 0.000000 0.000000 
0.000000 -0.000000 0.000000 
0.000000 0.000000 0.000000 

0.000000 -0.000000 0.000000 
0.000000 0.000000 0.000000 
0.000000 0.000000 0.000000 

0.000000 -0.000000 0.000000 
0.000000 -0.000000 0.000000 
0.000000 0.000000 0.000000 

0.000000 -0.000000 0.000000 
0.000000 0.000000 0.000000 
0.000000 0.000000 0.000000 

-0.000000 0.000000 0.000000 
0.000000 -0.000000 0.000000 
0.000000 0.000000 0.000000 

-0.000000 -0.000000 0.000000 
0.000000 0.000000 0.000000 
0.000000 0.000000 0.000000 

-0.000000 0.000000 0.000000 
0.000000 0.000000 0.000000 
0.000000 0.000000 0.000000 

0.000000 0.000000 0.000000 
0.000000 0.000000 0.000000 
0.000000 0.000000 0.000000 

0.000000 0.000000 0.000000 
0.000000 -0.000000 0.000000 
0.000000 0.000000 0.000000 

-0.000000 -0.000000 0.000000 
0.000000 0.000000 0.000000 
0.000000 0.000000 0.000000 

-0.000000 -0.000000 0.000000 
0.000000 0.000000 0.000000 
0.000000 0.000000 0.000000 

0.000000 0.000000 0.000000 
0.000000 0.000000 0.000000 
0.000000 0.000000 0.000000 

0.000000 0.000000 0.000000 
0.000000 0.000000 0.000000 
0.000000 0.000000 0.000000 

-0.000000 -0.000000 0.000000 
0.000000 -0.000000 0.000000 
0.000000 0.000000 0.000000 

-0.000000 -0.000000 0.000000 
0.000000 -0.000000 0.000000 
0.000000 0.000000 0.000000 

0.000000 -0.000000 0.000000 
0.000000 0.000000 0.000000 
0.000000 0.000000 0.000000 

0.000000 0.000000 0.000000 
0.000000 0.000000 0.000000 
0.000000 0.000000 0.000000 

0.000000 0.000000 0.000000 
0.000000 0.000000 0.000000 
0.000000 0.000000 0.000000 

-0.000000 -0.000000 0.000000 
0.000000 0.000000 0.000000 
0.000000 0.000000 0.000000 

-0.000000 0.000000 0.000000 
0.000000 -0.000000 0.000000 
0.000000 0.000000 0.000000 

0.000000 0.000000 0.000000 
0.000000 0.000000 0.000000 
0.000000 0.000000 0.000000 

0.000000 -0.000000 0.000000 
0.000000 0.000000 0.000000 
0.000000 0.000000 0.000000 

0.000000 0.000000 0.000000 
0.000000 0.000000 0.000000 
0.000000 0.000000 0.000000 

0.000000 -0.000000 0.000000 
0.000000 0.000000 0.000000 
0.000000 0.000000 0.000000 

-0.000000 0.000000 0.000000 
0.000000 -0.000000 0.000000 
0.000000 0.000000 0.000000 

0.000000 0.000000 0.000000 
0.000000 0.000000 0.000000 
0.000000 0.000000 0.000000 

0.000000 -0.000000 0.000000 
0.000000 0.000000 0.000000 
0.000000 0.000000 0.000000 

0.000000 0.000000 0.000000 
0.000000 0.000000 0.000000 
0.000000 0.000000 0.000000 

-0.000000 0.000000 0.000000 
0.000000 -0.000000 0.000000 
0.000000 0.000000 0.000000 

-0.000000 -0.000000 0.000000 
0.000000 -0.000000 0.000000 
0.000000 0.000000 0.000000 

0.000000 0.000000 0.000000 
0.000000 0.000000 0.000000 
0.000000 0.000000 0.000000 

-0.000000 -0.000000 0.000000 
0.000000 -0.000000 0.000000 
0.000000 0.000000 0.000000 

0.000000 0.000000 0.000000 
0.000000 0.000000 0.000000 
0.000000 0.000000 0.000000 

-0.000000 0.000000 0.000000 
0.000000 0.000000 0.000000 
0.000000 0.000000 0.000000 

0.000000 -0.000000 0.000000 
0.000000 0.000000 0.000000 
0.000000 0.000000 0.000000 

0.000000 0.000000 0.000000 
0.000000 0.000000 0.000000 
0.000000 0.000000 0.000000 

-0.000000 -0.000000 0.000000 
0.000000 -0.000000 0.000000 
0.000000 0.000000 0.000000 

0.000000 0.000000 0.000000 
0.000000 -0.000000 0.000000 
0.000000 0.000000 0.000000 

0.000000 0.000000 0.000000 
0.000000 0.000000 0.000000 
0.000000 0.000000 0.000000 

0.000000 0.000000 0.000000 
0.000000 0.000000 0.000000 
0.000000 0.000000 0.000000 

0.000000 0.000000 0.000000 
0.000000 0.000000 0.000000 
0.000000 0.000000 0.000000 

0.000000 -0.000000 0.000000 
0.000000 0.000000 0.000000 
0.000000 0.000000 0.000000 

0.000000 0.000000 0.000000 
0.000000 0.000000 0.000000 
0.000000 0.000000 0.000000 

0.000000 -0.000000 0.000000 
0.000000 0.000000 0.000000 
0.000000 0.000000 0.000000 

0.000000 0.000000 0.000000 
0.000000 0.000000 0.000000 
0.000000 0.000000 0.000000 

-0.000000 -0.000000 0.000000 
0.000000 -0.000000 0.000000 
0.000000 0.000000 0.000000 

0.000000 0.000000 0.000000 
0.000000 -0.000000 0.000000 
0.000000 0.000000 0.000000 

0.000000 -0.000000 0.000000 
0.000000 0.000000 0.000000 
0.000000 0.000000 0.000000 

-0.000000 -0.000000 0.000000 
0.000000 0.000000 0.000000 
0.000000 0.000000 0.000000 

-0.000000 -0.000000 0.000000 
0.000000 0.000000 0.000000 
0.000000 0.000000 0.000000 

0.000000 0.000000 0.000000 
0.000000 0.000000 0.000000 
0.000000 0.000000 0.000000 

-0.000000 0.000000 0.000000 
0.000000 -0.000000 0.000000 
0.000000 0.000000 0.000000 

0.000000 -0.000000 0.000000 
0.000000 0.000000 0.000000 
0.000000 0.000000 0.000000 

0.000000 0.000000 0.000000 
0.000000 0.000000 0.000000 
0.000000 0.000000 0.000000 

-0.000000 -0.000000 0.000000 
0.000000 -0.000000 0.000000 
0.000000 0.000000 0.000000 

-0.000000 0.000000 0.000000 
0.000000 -0.000000 0.000000 
0.000000 0.000000 0.000000 

0.000000 0.000000 0.000000 
0.000000 0.000000 0.000000 
0.000000 0.000000 0.000000 

-0.000000 0.000000 0.000000 
0.000000 -0.000000 0.000000 
0.000000 0.000000 0.000000 

0.000000 -0.000000 0.000000 
0.000000 -0.000000 0.000000 
0.000000 0.000000 0.000000 

-0.000000 -0.000000 0.000000 
0.000000 -0.000000 0.000000 
0.000000 0.000000 0.000000 

-0.000000 0.000000 0.000000 
0.000000 0.000000 0.000000 
0.000000 0.000000 0.000000 

0.000000 0.000000 0.000000 
0.000000 0.000000 0.000000 
0.000000 0.000000 0.000000 

0.000000 0.000000 0.000000 
0.000000 0.000000 0.000000 
0.000000 0.000000 0.000000 

-0.000000 -0.000000 0.000000 
0.000000 0.000000 0.000000 
0.000000 0.000000 0.000000 

0.000000 -0.000000 0.000000 
0.000000 -0.000000 0.000000 
0.000000 0.000000 0.000000 

0.000000 -0.000000 0.000000 
0.000000 0.000000 0.000000 
0.000000 0.000000 0.000000 

-0.000000 -0.000000 0.000000 
0.000000 -0.000000 0.000000 
0.000000 0.000000 0.000000 

0.000000 0.000000 0.000000 
0.000000 -0.000000 0.000000 
0.000000 0.000000 0.000000 

0.000000 0.000000 0.000000 
0.000000 0.000000 0.000000 
0.000000 0.000000 0.000000 

0.000000 -0.000000 0.000000 
0.000000 0.000000 0.000000 
0.000000 0.000000 0.000000 

0.000000 -0.000000 0.000000 
0.000000 0.000000 0.000000 
0.000000 0.000000 0.000000 

0.000000 0.000000 0.000000 
0.000000 0.000000 0.000000 
0.000000 0.000000 0.000000 

-0.000000 -0.000000 0.000000 
0.000000 -0.000000 0.000000 
0.000000 0.000000 0.000000 

0.000000 -0.000000 0.000000 
0.000000 -0.000000 0.000000 
0.000000 0.000000 0.000000 

0.000000 -0.000000 0.000000 
0.000000 0.000000 0.000000 
0.000000 0.000000 0.000000 

-0.000000 0.000000 0.000000 
0.000000 -0.000000 0.000000 
0.000000 0.000000 0.000000 

-0.000000 -0.000000 0.000000 
0.000000 -0.000000 0.000000 
0.000000 0.000000 0.000000 

-0.000000 -0.000000 0.000000 
0.000000 -0.000000 0.000000 
0.000000 0.000000 0.000000 

0.000000 0.000000 0.000000 
0.000000 0.000000 0.000000 
0.000000 0.000000 0.000000 

-0.000000 -0.000000 0.000000 
0.000000 -0.000000 0.000000 
0.000000 0.000000 0.000000 

-0.000000 -0.000000 0.000000 
0.000000 -0.000000 0.000000 
0.000000 0.000000 0.000000 

-0.000000 0.000000 0.000000 
0.000000 -0.000000 0.000000 
0.000000 0.000000 0.000000 

-0.000000 -0.000000 0.000000 
0.000000 -0.000000 0.000000 
0.000000 0.000000 0.000000 

-0.000000 -0.000000 0.000000 
0.000000 0.000000 0.000000 
0.000000 0.000000 0.000000 

-0.000000 0.000000 0.000000 
0.000000 -0.000000 0.000000 
0.000000 0.000000 0.000000 

0.000000 -0.000000 0.000000 
0.000000 0.000000 0.000000 
0.000000 0.000000 0.000000 

-0.000000 -0.000000 0.000000 
0.000000 0.000000 0.000000 
0.000000 0.000000 0.000000 

-0.000000 -0.000000 0.000000 
0.000000 -0.000000 0.000000 
0.000000 0.000000 0.000000 

-0.000000 0.000000 0.000000 
0.000000 -0.000000 0.000000 
0.000000 0.000000 0.000000 

-0.000000 -0.000000 0.000000 
0.000000 -0.000000 0.000000 
0.000000 0.000000 0.000000 

0.000000 -0.000000 0.000000 
0.000000 0.000000 0.000000 
0.000000 0.000000 0.000000 

-0.000000 -0.000000 0.000000 
0.000000 -0.000000 0.000000 
0.000000 0.000000 0.000000 

0.000000 -0.000000 0.000000 
0.000000 0.000000 0.000000 
0.000000 0.000000 0.000000 

-0.000000 0.000000 0.000000 
0.000000 -0.000000 0.000000 
0.000000 0.000000 0.000000 

0.000000 0.000000 0.000000 
0.000000 0.000000 0.000000 
0.000000 0.000000 0.000000 

-0.000000 0.000000 0.000000 
0.000000 0.000000 0.000000 
0.000000 0.000000 0.000000 

-0.000000 -0.000000 0.000000 
0.000000 -0.000000 0.000000 
0.000000 0.000000 0.000000 

-0.000000 0.000000 0.000000 
0.000000 -0.000000 0.000000 
0.000000 0.000000 0.000000 

-0.000000 -0.000000 0.000000 
0.000000 -0.000000 0.000000 
0.000000 0.000000 0.000000 

0.000000 -0.000000 0.000000 
0.000000 0.000000 0.000000 
0.000000 0.000000 0.000000 

-0.000000 0.000000 0.000000 
0.000000 0.000000 0.000000 
0.000000 0.000000 0.000000 

-0.000000 0.000000 0.000000 
0.000000 -0.000000 0.000000 
0.000000 0.000000 0.000000 

0.000000 0.000000 0.000000 
0.000000 0.000000 0.000000 
0.000000 0.000000 0.000000 

0.000000 0.000000 0.000000 
0.000000 0.000000 0.000000 
0.000000 0.000000 0.000000 

0.000000 -0.000000 0.000000 
0.000000 -0.000000 0.000000 
0.000000 0.000000 0.000000 

0.000000 -0.000000 0.000000 
0.000000 0.000000 0.000000 
0.000000 0.000000 0.000000 

0.000000 -0.000000 0.000000 
0.000000 0.000000 0.000000 
0.000000 0.000000 0.000000 

-0.000000 -0.000000 0.000000 
0.000000 -0.000000 0.000000 
0.000000 0.000000 0.000000 

0.000000 -0.000000 0.000000 
0.000000 -0.000000 0.000000 
0.000000 0.000000 0.000000 

-0.000000 0.000000 0.000000 
0.000000 -0.000000 0.000000 
0.000000 0.000000 0.000000 

-0.000000 -0.000000 0.000000 
0.000000 0.000000 0.000000 
0.000000 0.000000 0.000000 

-0.000000 -0.000000 0.000000 
0.000000 -0.000000 0.000000 
0.000000 0.000000 0.000000 

-0.000000 0.000000 0.000000 
0.000000 -0.000000 0.000000 
0.000000 0.000000 0.000000 

0.000000 -0.000000 0.000000 
0.000000 -0.000000 0.000000 
0.000000 0.000000 0.000000 

0.000000 -0.000000 0.000000 
0.000000 0.000000 0.000000 
0.000000 0.000000 0.000000 

0.000000 0.000000 0.000000 
0.000000 0.000000 0.000000 
0.000000 0.000000 0.000000 

-0.000000 0.000000 0.000000 
0.000000 0.000000 0.000000 
0.000000 0.000000 0.000000 

-0.000000 0.000000 0.000000 
0.000000 -0.000000 0.000000 
0.000000 0.000000 0.000000 

-0.000000 0.000000 0.000000 
0.000000 0.000000 0.000000 
0.000000 0.000000 0.000000 

-0.000000 -0.000000 0.000000 
0.000000 -0.000000 0.000000 
0.000000 0.000000 0.000000 

0.000000 0.000000 0.000000 
0.000000 -0.000000 0.000000 
0.000000 0.000000 0.000000 

0.000000 0.000000 0.000000 
0.000000 0.000000 0.000000 
0.000000 0.000000 0.000000 

0.000000 0.000000 0.000000 
0.000000 -0.000000 0.000000 
0.000000 0.000000 0.000000 

0.000000 -0.000000 0.000000 
0.000000 0.000000 0.000000 
0.000000 0.000000 0.000000 

0.000000 -0.000000 0.000000 
0.000000 0.000000 0.000000 
0.000000 0.000000 0.000000 

-0.000000 -0.000000 0.000000 
0.000000 -0.000000 0.000000 
0.000000 0.000000 0.000000 

-0.000000 0.000000 0.000000 
0.000000 -0.000000 0.000000 
0.000000 0.000000 0.000000 

0.000000 0.000000 0.000000 
0.000000 0.000000 0.000000 
0.000000 0.000000 0.000000 

-0.000000 -0.000000 0.000000 
0.000000 -0.000000 0.000000 
0.000000 0.000000 0.000000 

0.000000 0.000000 0.000000 
0.000000 0.000000 0.000000 
0.000000 0.000000 0.000000 

0.000000 0.000000 0.000000 
0.000000 0.000000 0.000000 
0.000000 0.000000 0.000000 

-0.000000 0.000000 0.000000 
0.000000 -0.000000 0.000000 
0.000000 0.000000 0.000000 

-0.000000 0.000000 0.000000 
0.000000 0.000000 0.000000 
0.000000 0.000000 0.000000 

0.000000 0.000000 0.000000 
0.000000 0.000000 0.000000 
0.000000 0.000000 0.000000 

-0.000000 0.000000 0.000000 
0.000000 0.000000 0.000000 
0.000000 0.000000 0.000000 

-0.000000 -0.000000 0.000000 
0.000000 -0.000000 0.000000 
0.000000 0.000000 0.000000 

-0.000000 0.000000 0.000000 
0.000000 -0.000000 0.000000 
0.000000 0.000000 0.000000 

0.000000 0.000000 0.000000 
0.000000 0.000000 0.000000 
0.000000 0.000000 0.000000 

0.000000 -0.000000 0.000000 
0.000000 0.000000 0.000000 
0.000000 0.000000 0.000000 

0.000000 -0.000000 0.000000 
0.000000 0.000000 0.000000 
0.000000 0.000000 0.000000 

0.000000 -0.000000 0.000000 
0.000000 0.000000 0.000000 
0.000000 0.000000 0.000000 

-0.000000 0.000000 0.000000 
0.000000 -0.000000 0.000000 
0.000000 0.000000 0.000000 

-0.000000 0.000000 0.000000 
0.000000 0.000000 0.000000 
0.000000 0.000000 0.000000 

-0.000000 0.000000 0.000000 
0.000000 0.000000 0.000000 
0.000000 0.000000 0.000000 

-0.000000 0.000000 0.000000 
0.000000 0.000000 0.000000 
0.000000 0.000000 0.000000 

-0.000000 -0.000000 0.000000 
0.000000 -0.000000 0.000000 
0.000000 0.000000 0.000000 

-0.000000 0.000000 0.000000 
0.000000 0.000000 0.000000 
0.000000 0.000000 0.000000 

-0.000000 0.000000 0.000000 
0.000000 -0.000000 0.000000 
0.000000 0.000000 0.000000 

0.000000 0.000000 0.000000 
0.000000 0.000000 0.000000 
0.000000 0.000000 0.000000 

-0.000000 0.000000 0.000000 
0.000000 -0.000000 0.000000 
0.000000 0.000000 0.000000 

-0.000000 0.000000 0.000000 
0.000000 -0.000000 0.000000 
0.000000 0.000000 0.000000 

0.000000 0.000000 0.000000 
0.000000 0.000000 0.000000 
0.000000 0.000000 0.000000 

0.000000 0.000000 0.000000 
0.000000 0.000000 0.000000 
0.000000 0.000000 0.000000 

-0.000000 0.000000 0.000000 
0.000000 -0.000000 0.000000 
0.000000 0.000000 0.000000 

0.000000 -0.000000 0.000000 
0.000000 -0.000000 0.000000 
0.000000 0.000000 0.000000 

0.000000 0.000000 0.000000 
0.000000 0.000000 0.000000 
0.000000 0.000000 0.000000 

0.000000 0.000000 0.000000 
0.000000 0.000000 0.000000 
0.000000 0.000000 0.000000 

-0.000000 0.000000 0.000000 
0.000000 0.000000 0.000000 
0.000000 0.000000 0.000000 

0.000000 0.000000 0.000000 
0.000000 0.000000 0.000000 
0.000000 0.000000 0.000000 

0.000000 -0.000000 0.000000 
0.000000 0.000000 0.000000 
0.000000 0.000000 0.000000 

0.000000 -0.000000 0.000000 
0.000000 0.000000 0.000000 
0.000000 0.000000 0.000000 

0.000000 0.000000 0.000000 
0.000000 0.000000 0.000000 
0.000000 0.000000 0.000000 

0.000000 -0.000000 0.000000 
0.000000 0.000000 0.000000 
0.000000 0.000000 0.000000 

0.000000 0.000000 0.000000 
0.000000 0.000000 0.000000 
0.000000 0.000000 0.000000 

0.000000 -0.000000 0.000000 
0.000000 0.000000 0.000000 
0.000000 0.000000 0.000000 

-0.000000 -0.000000 0.000000 
0.000000 -0.000000 0.000000 
0.000000 0.000000 0.000000 

-0.000000 0.000000 0.000000 
0.000000 0.000000 0.000000 
0.000000 0.000000 0.000000 

0.000000 -0.000000 0.000000 
0.000000 0.000000 0.000000 
0.000000 0.000000 0.000000 

-0.000000 0.000000 0.000000 
0.000000 -0.000000 0.000000 
0.000000 0.000000 0.000000 

0.000000 0.000000 0.000000 
0.000000 -0.000000 0.000000 
0.000000 0.000000 0.000000 

0.000000 -0.000000 0.000000 
0.000000 0.000000 0.000000 
0.000000 0.000000 0.000000 

0.000000 -0.000000 0.000000 
0.000000 0.000000 0.000000 
0.000000 0.000000 0.000000 

-0.000000 -0.000000 0.000000 
0.000000 0.000000 0.000000 
0.000000 0.000000 0.000000 

-0.000000 0.000000 0.000000 
0.000000 0.000000 0.000000 
0.000000 0.000000 0.000000 

-0.000000 -0.000000 0.000000 
0.000000 0.000000 0.000000 
0.000000 0.000000 0.000000 

TENSORS STRAIN float 
-0.000000 0.000000 0.000000 
0.000000 -0.000000 0.000000 
0.000000 0.000000 0.000000 

-0.000000 -0.000000 0.000000 
0.000000 0.000000 0.000000 
0.000000 0.000000 0.000000 

0.000000 -0.000000 0.000000 
0.000000 -0.000000 0.000000 
0.000000 0.000000 0.000000 

0.000000 -0.000000 0.000000 
0.000000 -0.000000 0.000000 
0.000000 0.000000 0.000000 

-0.000000 0.000000 0.000000 
0.000000 0.000000 0.000000 
0.000000 0.000000 0.000000 

-0.000000 -0.000000 0.000000 
0.000000 0.000000 0.000000 
0.000000 0.000000 0.000000 

-0.000000 0.000000 0.000000 
0.000000 0.000000 0.000000 
0.000000 0.000000 0.000000 

0.000000 0.000000 0.000000 
0.000000 0.000000 0.000000 
0.000000 0.000000 0.000000 

0.000000 0.000000 0.000000 
0.000000 -0.000000 0.000000 
0.000000 0.000000 0.000000 

-0.000000 -0.000000 0.000000 
0.000000 0.000000 0.000000 
0.000000 0.000000 0.000000 

-0.000000 -0.000000 0.000000 
0.000000 0.000000 0.000000 
0.000000 0.000000 0.000000 

-0.000000 0.000000 0.000000 
0.000000 0.000000 0.000000 
0.000000 0.000000 0.000000 

-0.000000 0.000000 0.000000 
0.000000 0.000000 0.000000 
0.000000 0.000000 0.000000 

-0.000000 -0.000000 0.000000 
0.000000 -0.000000 0.000000 
0.000000 0.000000 0.000000 

-0.000000 -0.000000 0.000000 
0.000000 -0.000000 0.000000 
0.000000 0.000000 0.000000 

-0.000000 -0.000000 0.000000 
0.000000 0.000000 0.000000 
0.000000 0.000000 0.000000 

-0.000000 0.000000 0.000000 
0.000000 0.000000 0.000000 
0.000000 0.000000 0.000000 

-0.000000 0.000000 0.000000 
0.000000 0.000000 0.000000 
0.000000 0.000000 0.000000 

-0.000000 -0.000000 0.000000 
0.000000 0.000000 0.000000 
0.000000 0.000000 0.000000 

-0.000000 0.000000 0.000000 
0.000000 -0.000000 0.000000 
0.000000 0.000000 0.000000 

-0.000000 0.000000 0.000000 
0.000000 0.000000 0.000000 
0.000000 0.000000 0.000000 

-0.000000 -0.000000 0.000000 
0.000000 0.000000 0.000000 
0.000000 0.000000 0.000000 

0.000000 0.000000 0.000000 
0.000000 0.000000 0.000000 
0.000000 0.000000 0.000000 

-0.000000 -0.000000 0.000000 
0.000000 0.000000 0.000000 
0.000000 0.000000 0.000000 

-0.000000 0.000000 0.000000 
0.000000 -0.000000 0.000000 
0.000000 0.000000 0.000000 

-0.000000 0.000000 0.000000 
0.000000 0.000000 0.000000 
0.000000 0.000000 0.000000 

0.000000 -0.000000 0.000000 
0.000000 0.000000 0.000000 
0.000000 0.000000 0.000000 

0.000000 0.000000 0.000000 
0.000000 0.000000 0.000000 
0.000000 0.000000 0.000000 

0.000000 0.000000 0.000000 
0.000000 -0.000000 0.000000 
0.000000 0.000000 0.000000 

0.000000 -0.000000 0.000000 
0.000000 -0.000000 0.000000 
0.000000 0.000000 0.000000 

0.000000 0.000000 0.000000 
0.000000 0.000000 0.000000 
0.000000 0.000000 0.000000 

-0.000000 -0.000000 0.000000 
0.000000 -0.000000 0.000000 
0.000000 0.000000 0.000000 

0.000000 0.000000 0.000000 
0.000000 0.000000 0.000000 
0.000000 0.000000 0.000000 

-0.000000 0.000000 0.000000 
0.000000 0.000000 0.000000 
0.000000 0.000000 0.000000 

0.000000 -0.000000 0.000000 
0.000000 0.000000 0.000000 
0.000000 0.000000 0.000000 

-0.000000 0.000000 0.000000 
0.000000 0.000000 0.000000 
0.000000 0.000000 0.000000 

-0.000000 -0.000000 0.000000 
0.000000 -0.000000 0.000000 
0.000000 0.000000 0.000000 

0.000000 0.000000 0.000000 
0.000000 -0.000000 0.000000 
0.000000 0.000000 0.000000 

0.000000 0.000000 0.000000 
0.000000 0.000000 0.000000 
0.000000 0.000000 0.000000 

-0.000000 0.000000 0.000000 
0.000000 0.000000 0.000000 
0.000000 0.000000 0.000000 

-0.000000 0.000000 0.000000 
0.000000 0.000000 0.000000 
0.000000 0.000000 0.000000 

0.000000 -0.000000 0.000000 
0.000000 -0.000000 0.000000 
0.000000 0.000000 0.000000 

0.000000 0.000000 0.000000 
0.000000 0.000000 0.000000 
0.000000 0.000000 0.000000 

0.000000 -0.000000 0.000000 
0.000000 0.000000 0.000000 
0.000000 0.000000 0.000000 

-0.000000 0.000000 0.000000 
0.000000 0.000000 0.000000 
0.000000 0.000000 0.000000 

-0.000000 -0.000000 0.000000 
0.000000 -0.000000 0.000000 
0.000000 0.000000 0.000000 

0.000000 0.000000 0.000000 
0.000000 -0.000000 0.000000 
0.000000 0.000000 0.000000 

0.000000 -0.000000 0.000000 
0.000000 -0.000000 0.000000 
0.000000 0.000000 0.000000 

-0.000000 -0.000000 0.000000 
0.000000 0.000000 0.000000 
0.000000 0.000000 0.000000 

-0.000000 -0.000000 0.000000 
0.000000 0.000000 0.000000 
0.000000 0.000000 0.000000 

-0.000000 0.000000 0.000000 
0.000000 0.000000 0.000000 
0.000000 0.000000 0.000000 

0.000000 0.000000 0.000000 
0.000000 -0.000000 0.000000 
0.000000 0.000000 0.000000 

0.000000 -0.000000 0.000000 
0.000000 -0.000000 0.000000 
0.000000 0.000000 0.000000 

0.000000 0.000000 0.000000 
0.000000 0.000000 0.000000 
0.000000 0.000000 0.000000 

-0.000000 -0.000000 0.000000 
0.000000 -0.000000 0.000000 
0.000000 0.000000 0.000000 

-0.000000 0.000000 0.000000 
0.000000 -0.000000 0.000000 
0.000000 0.000000 0.000000 

-0.000000 0.000000 0.000000 
0.000000 0.000000 0.000000 
0.000000 0.000000 0.000000 

0.000000 0.000000 0.000000 
0.000000 -0.000000 0.000000 
0.000000 0.000000 0.000000 

0.000000 -0.000000 0.000000 
0.000000 -0.000000 0.000000 
0.000000 0.000000 0.000000 

-0.000000 -0.000000 0.000000 
0.000000 -0.000000 0.000000 
0.000000 0.000000 0.000000 

-0.000000 0.000000 0.000000 
0.000000 0.000000 0.000000 
0.000000 0.000000 0.000000 

0.000000 0.000000 0.000000 
0.000000 -0.000000 0.000000 
0.000000 0.000000 0.000000 

-0.000000 0.000000 0.000000 
0.000000 0.000000 0.000000 
0.000000 0.000000 0.000000 

-0.000000 -0.000000 0.000000 
0.000000 0.000000 0.000000 
0.000000 0.000000 0.000000 

0.000000 -0.000000 0.000000 
0.000000 -0.000000 0.000000 
0.000000 0.000000 0.000000 

0.000000 -0.000000 0.000000 
0.000000 0.000000 0.000000 
0.000000 0.000000 0.000000 

-0.000000 -0.000000 0.000000 
0.000000 -0.000000 0.000000 
0.000000 0.000000 0.000000 

0.000000 0.000000 0.000000 
0.000000 -0.000000 0.000000 
0.000000 0.000000 0.000000 

0.000000 0.000000 0.000000 
0.000000 -0.000000 0.000000 
0.000000 0.000000 0.000000 

0.000000 -0.000000 0.000000 
0.000000 0.000000 0.000000 
0.000000 0.000000 0.000000 

0.000000 -0.000000 0.000000 
0.000000 -0.000000 0.000000 
0.000000 0.000000 0.000000 

-0.000000 0.000000 0.000000 
0.000000 0.000000 0.000000 
0.000000 0.000000 0.000000 

-0.000000 -0.000000 0.000000 
0.000000 -0.000000 0.000000 
0.000000 0.000000 0.000000 

0.000000 -0.000000 0.000000 
0.000000 -0.000000 0.000000 
0.000000 0.000000 0.000000 

0.000000 -0.000000 0.000000 
0.000000 0.000000 0.000000 
0.000000 0.000000 0.000000 

-0.000000 0.000000 0.000000 
0.000000 -0.000000 0.000000 
0.000000 0.000000 0.000000 

-0.000000 -0.000000 0.000000 
0.000000 -0.000000 0.000000 
0.000000 0.000000 0.000000 

-0.000000 -0.000000 0.000000 
0.000000 -0.000000 0.000000 
0.000000 0.000000 0.000000 

-0.000000 0.000000 0.000000 
0.000000 0.000000 0.000000 
0.000000 0.000000 0.000000 

0.000000 -0.000000 0.000000 
0.000000 -0.000000 0.000000 
0.000000 0.000000 0.000000 

0.000000 -0.000000 0.000000 
0.000000 -0.000000 0.000000 
0.000000 0.000000 0.000000 

-0.000000 0.000000 0.000000 
0.000000 -0.000000 0.000000 
0.000000 0.000000 0.000000 

0.000000 -0.000000 0.000000 
0.000000 -0.000000 0.000000 
0.000000 0.000000 0.000000 

-0.000000 -0.000000 0.000000 
0.000000 0.000000 0.000000 
0.000000 0.000000 0.000000 

-0.000000 0.000000 0.000000 
0.000000 -0.000000 0.000000 
0.000000 0.000000 0.000000 

0.000000 -0.000000 0.000000 
0.000000 -0.000000 0.000000 
0.000000 0.000000 0.000000 

-0.000000 -0.000000 0.000000 
0.000000 0.000000 0.000000 
0.000000 0.000000 0.000000 

-0.000000 -0.000000 0.000000 
0.000000 -0.000000 0.000000 
0.000000 0.000000 0.000000 

-0.000000 0.000000 0.000000 
0.000000 -0.000000 0.000000 
0.000000 0.000000 0.000000 

-0.000000 -0.000000 0.000000 
0.000000 -0.000000 0.000000 
0.000000 0.000000 0.000000 

0.000000 -0.000000 0.000000 
0.000000 0.000000 0.000000 
0.000000 0.000000 0.000000 

-0.000000 -0.000000 0.000000 
0.000000 -0.000000 0.000000 
0.000000 0.000000 0.000000 

-0.000000 -0.000000 0.000000 
0.000000 0.000000 0.000000 
0.000000 0.000000 0.000000 

-0.000000 0.000000 0.000000 
0.000000 -0.000000 0.000000 
0.000000 0.000000 0.000000 

-0.000000 0.000000 0.000000 
0.000000 0.000000 0.000000 
0.000000 0.000000 0.000000 

-0.000000 0.000000 0.000000 
0.000000 0.000000 0.000000 
0.000000 0.000000 0.000000 

-0.000000 -0.000000 0.000000 
0.000000 -0.000000 0.000000 
0.000000 0.000000 0.000000 

-0.000000 0.000000 0.000000 
0.000000 -0.000000 0.000000 
0.000000 0.000000 0.000000 

-0.000000 -0.000000 0.000000 
0.000000 -0.000000 0.000000 
0.000000 0.000000 0.000000 

-0.000000 -0.000000 0.000000 
0.000000 0.000000 0.000000 
0.000000 0.000000 0.000000 

-0.000000 0.000000 0.000000 
0.000000 0.000000 0.000000 
0.000000 0.000000 0.000000 

-0.000000 0.000000 0.000000 
0.000000 -0.000000 0.000000 
0.000000 0.000000 0.000000 

-0.000000 0.000000 0.000000 
0.000000 0.000000 0.000000 
0.000000 0.000000 0.000000 

0.000000 0.000000 0.000000 
0.000000 0.000000 0.000000 
0.000000 0.000000 0.000000 

0.000000 -0.000000 0.000000 
0.000000 -0.000000 0.000000 
0.000000 0.000000 0.000000 

-0.000000 -0.000000 0.000000 
0.000000 0.000000 0.000000 
0.000000 0.000000 0.000000 

0.000000 -0.000000 0.000000 
0.000000 0.000000 0.000000 
0.000000 0.000000 0.000000 

0.000000 -0.000000 0.000000 
0.000000 -0.000000 0.000000 
0.000000 0.000000 0.000000 

0.000000 -0.000000 0.000000 
0.000000 -0.000000 0.000000 
0.000000 0.000000 0.000000 

-0.000000 0.000000 0.000000 
0.000000 -0.000000 0.000000 
0.000000 0.000000 0.000000 

-0.000000 -0.000000 0.000000 
0.000000 0.000000 0.000000 
0.000000 0.000000 0.000000 

-0.000000 -0.000000 0.000000 
0.000000 -0.000000 0.000000 
0.000000 0.000000 0.000000 

-0.000000 0.000000 0.000000 
0.000000 -0.000000 0.000000 
0.000000 0.000000 0.000000 

0.000000 -0.000000 0.000000 
0.000000 -0.000000 0.000000 
0.000000 0.000000 0.000000 

0.000000 -0.000000 0.000000 
0.000000 0.000000 0.000000 
0.000000 0.000000 0.000000 

0.000000 0.000000 0.000000 
0.000000 0.000000 0.000000 
0.000000 0.000000 0.000000 

-0.000000 0.000000 0.000000 
0.000000 0.000000 0.000000 
0.000000 0.000000 0.000000 

-0.000000 0.000000 0.000000 
0.000000 -0.000000 0.000000 
0.000000 0.000000 0.000000 

-0.000000 0.000000 0.000000 
0.000000 0.000000 0.000000 
0.000000 0.000000 0.000000 

-0.000000 -0.000000 0.000000 
0.000000 -0.000000 0.000000 
0.000000 0.000000 0.000000 

0.000000 0.000000 0.000000 
0.000000 -0.000000 0.000000 
0.000000 0.000000 0.000000 

0.000000 0.000000 0.000000 
0.000000 0.000000 0.000000 
0.000000 0.000000 0.000000 

0.000000 0.000000 0.000000 
0.000000 -0.000000 0.000000 
0.000000 0.000000 0.000000 

0.000000 -0.000000 0.000000 
0.000000 0.000000 0.000000 
0.000000 0.000000 0.000000 

-0.000000 -0.000000 0.000000 
0.000000 0.000000 0.000000 
0.000000 0.000000 0.000000 

-0.000000 -0.000000 0.000000 
0.000000 -0.000000 0.000000 
0.000000 0.000000 0.000000 

-0.000000 0.000000 0.000000 
0.000000 -0.000000 0.000000 
0.000000 0.000000 0.000000 

-0.000000 0.000000 0.000000 
0.000000 0.000000 0.000000 
0.000000 0.000000 0.000000 

-0.000000 -0.000000 0.000000 
0.000000 -0.000000 0.000000 
0.000000 0.000000 0.000000 

0.000000 0.000000 0.000000 
0.000000 0.000000 0.000000 
0.000000 0.000000 0.000000 

0.000000 0.000000 0.000000 
0.000000 0.000000 0.000000 
0.000000 0.000000 0.000000 

-0.000000 0.000000 0.000000 
0.000000 -0.000000 0.000000 
0.000000 0.000000 0.000000 

-0.000000 0.000000 0.000000 
0.000000 0.000000 0.000000 
0.000000 0.000000 0.000000 

0.000000 0.000000 0.000000 
0.000000 0.000000 0.000000 
0.000000 0.000000 0.000000 

-0.000000 0.000000 0.000000 
0.000000 0.000000 0.000000 
0.000000 0.000000 0.000000 

-0.000000 -0.000000 0.000000 
0.000000 -0.000000 0.000000 
0.000000 0.000000 0.000000 

-0.000000 0.000000 0.000000 
0.000000 -0.000000 0.000000 
0.000000 0.000000 0.000000 

-0.000000 0.000000 0.000000 
0.000000 0.000000 0.000000 
0.000000 0.000000 0.000000 

-0.000000 -0.000000 0.000000 
0.000000 0.000000 0.000000 
0.000000 0.000000 0.000000 

0.000000 -0.000000 0.000000 
0.000000 0.000000 0.000000 
0.000000 0.000000 0.000000 

0.000000 -0.000000 0.000000 
0.000000 0.000000 0.000000 
0.000000 0.000000 0.000000 

-0.000000 0.000000 0.000000 
0.000000 -0.000000 0.000000 
0.000000 0.000000 0.000000 

-0.000000 0.000000 0.000000 
0.000000 0.000000 0.000000 
0.000000 0.000000 0.000000 

-0.000000 0.000000 0.000000 
0.000000 0.000000 0.000000 
0.000000 0.000000 0.000000 

-0.000000 0.000000 0.000000 
0.000000 0.000000 0.000000 
0.000000 0.000000 0.000000 

-0.000000 -0.000000 0.000000 
0.000000 -0.000000 0.000000 
0.000000 0.000000 0.000000 

-0.000000 0.000000 0.000000 
0.000000 0.000000 0.000000 
0.000000 0.000000 0.000000 

-0.000000 0.000000 0.000000 
0.000000 -0.000000 0.000000 
0.000000 0.000000 0.000000 

-0.000000 0.000000 0.000000 
0.000000 0.000000 0.000000 
0.000000 0.000000 0.000000 

-0.000000 0.000000 0.000000 
0.000000 -0.000000 0.000000 
0.000000 0.000000 0.000000 

-0.000000 0.000000 0.000000 
0.000000 -0.000000 0.000000 
0.000000 0.000000 0.000000 

0.000000 0.000000 0.000000 
0.000000 0.000000 0.000000 
0.000000 0.000000 0.000000 

0.000000 0.000000 0.000000 
0.000000 0.000000 0.000000 
0.000000 0.000000 0.000000 

0.000000 0.000000 0.000000 
0.000000 -0.000000 0.000000 
0.000000 0.000000 0.000000 

0.000000 -0.000000 0.000000 
0.000000 -0.000000 0.000000 
0.000000 0.000000 0.000000 

0.000000 0.000000 0.000000 
0.000000 -0.000000 0.000000 
0.000000 0.000000 0.000000 

-0.000000 0.000000 0.000000 
0.000000 0.000000 0.000000 
0.000000 0.000000 0.000000 

-0.000000 0.000000 0.000000 
0.000000 0.000000 0.000000 
0.000000 0.000000 0.000000 

-0.000000 0.000000 0.000000 
0.000000 0.000000 0.000000 
0.000000 0.000000 0.000000 

-0.000000 -0.000000 0.000000 
0.000000 0.000000 0.000000 
0.000000 0.000000 0.000000 

-0.000000 -0.000000 0.000000 
0.000000 0.000000 0.000000 
0.000000 0.000000 0.000000 

0.000000 0.000000 0.000000 
0.000000 0.000000 0.000000 
0.000000 0.000000 0.000000 

0.000000 -0.000000 0.000000 
0.000000 0.000000 0.000000 
0.000000 0.000000 0.000000 

0.000000 0.000000 0.000000 
0.000000 0.000000 0.000000 
0.000000 0.000000 0.000000 

-0.000000 -0.000000 0.000000 
0.000000 0.000000 0.000000 
0.000000 0.000000 0.000000 

-0.000000 -0.000000 0.000000 
0.000000 0.000000 0.000000 
0.000000 0.000000 0.000000 

-0.000000 0.000000 0.000000 
0.000000 0.000000 0.000000 
0.000000 0.000000 0.000000 

-0.000000 -0.000000 0.000000 
0.000000 0.000000 0.000000 
0.000000 0.000000 0.000000 

-0.000000 0.000000 0.000000 
0.000000 -0.000000 0.000000 
0.000000 0.000000 0.000000 

0.000000 0.000000 0.000000 
0.000000 -0.000000 0.000000 
0.000000 0.000000 0.000000 

0.000000 -0.000000 0.000000 
0.000000 0.000000 0.000000 
0.000000 0.000000 0.000000 

-0.000000 -0.000000 0.000000 
0.000000 0.000000 0.000000 
0.000000 0.000000 0.000000 

-0.000000 -0.000000 0.000000 
0.000000 0.000000 0.000000 
0.000000 0.000000 0.000000 

-0.000000 0.000000 0.000000 
0.000000 0.000000 0.000000 
0.000000 0.000000 0.000000 

-0.000000 -0.000000 0.000000 
0.000000 0.000000 0.000000 
0.000000 0.000000 0.000000 

