# vtk DataFile Version 3.0 
vtk output 
ASCII 
DATASET UNSTRUCTURED_GRID 
POINTS 175 float 
-0.026061 -0.530514 0.000000 
-0.106992 -0.462458 0.000000 
-0.054870 -0.470691 0.000000 
-0.028809 -0.424807 0.000000 
-0.186430 -0.398383 0.000000 
-0.137056 -0.400909 0.000000 
-0.114311 -0.347262 0.000000 
-0.058186 -0.362927 0.000000 
-0.029377 -0.322750 0.000000 
-0.265318 -0.335227 0.000000 
-0.217198 -0.336027 0.000000 
-0.196633 -0.278730 0.000000 
-0.143120 -0.287439 0.000000 
-0.116563 -0.240170 0.000000 
-0.058945 -0.259816 0.000000 
-0.029568 -0.221696 0.000000 
-0.344206 -0.272071 0.000000 
-0.296791 -0.272064 0.000000 
-0.278030 -0.212121 0.000000 
-0.225992 -0.217988 0.000000 
-0.201664 -0.165871 0.000000 
-0.145749 -0.179345 0.000000 
-0.117890 -0.135002 0.000000 
-0.059328 -0.157708 0.000000 
-0.029759 -0.120642 0.000000 
-0.058559 -0.571265 0.000000 
-0.162226 -0.592107 0.000000 
-0.123292 -0.556490 0.000000 
-0.142917 -0.507506 0.000000 
-0.261851 -0.614264 0.000000 
-0.229092 -0.577236 0.000000 
-0.256854 -0.526005 0.000000 
-0.209613 -0.491892 0.000000 
-0.223062 -0.444318 0.000000 
-0.360414 -0.636564 0.000000 
-0.329787 -0.599441 0.000000 
-0.361761 -0.547639 0.000000 
-0.321587 -0.511230 0.000000 
-0.341985 -0.460996 0.000000 
-0.290702 -0.428197 0.000000 
-0.302189 -0.381462 0.000000 
-0.458977 -0.658864 0.000000 
-0.429420 -0.621789 0.000000 
-0.464588 -0.569747 0.000000 
-0.427556 -0.532720 0.000000 
-0.453135 -0.481205 0.000000 
-0.407738 -0.445890 0.000000 
-0.425037 -0.396462 0.000000 
-0.370772 -0.364833 0.000000 
-0.381315 -0.318605 0.000000 
-0.046960 -0.622080 0.000000 
-0.095301 -0.716126 0.000000 
-0.098873 -0.663478 0.000000 
-0.149405 -0.648281 0.000000 
-0.140093 -0.807830 0.000000 
-0.148617 -0.759131 0.000000 
-0.205981 -0.748894 0.000000 
-0.203197 -0.690691 0.000000 
-0.248777 -0.671544 0.000000 
-0.184111 -0.898793 0.000000 
-0.194039 -0.851702 0.000000 
-0.254475 -0.844403 0.000000 
-0.257893 -0.790293 0.000000 
-0.309886 -0.774921 0.000000 
-0.303554 -0.714375 0.000000 
-0.347255 -0.694217 0.000000 
-0.228129 -0.989757 0.000000 
-0.238687 -0.943533 0.000000 
-0.301302 -0.938581 0.000000 
-0.307162 -0.886542 0.000000 
-0.363386 -0.874421 0.000000 
-0.362692 -0.816909 0.000000 
-0.412122 -0.799616 0.000000 
-0.403017 -0.737470 0.000000 
-0.445733 -0.716891 0.000000 
-0.000000 -0.644695 0.000000 
0.043388 -0.741125 0.000000 
-0.000000 -0.711093 0.000000 
-0.043388 -0.741125 0.000000 
0.087158 -0.833322 0.000000 
0.043769 -0.809623 0.000000 
-0.000000 -0.848089 0.000000 
-0.043769 -0.809623 0.000000 
-0.087158 -0.833322 0.000000 
0.130831 -0.924452 0.000000 
0.087824 -0.902853 0.000000 
0.044436 -0.945553 0.000000 
-0.000000 -0.914488 0.000000 
-0.044436 -0.945553 0.000000 
-0.087824 -0.902853 0.000000 
-0.130831 -0.924452 0.000000 
0.174505 -1.015581 0.000000 
0.131782 -0.995015 0.000000 
0.088871 -1.040882 0.000000 
0.044532 -1.013018 0.000000 
-0.000000 -1.049418 0.000000 
-0.044532 -1.013018 0.000000 
-0.088871 -1.040882 0.000000 
-0.131782 -0.995015 0.000000 
-0.174505 -1.015581 0.000000 
0.046960 -0.622080 0.000000 
0.149405 -0.648281 0.000000 
0.098873 -0.663478 0.000000 
0.095301 -0.716126 0.000000 
0.248777 -0.671544 0.000000 
0.203197 -0.690691 0.000000 
0.205981 -0.748894 0.000000 
0.148617 -0.759131 0.000000 
0.140093 -0.807830 0.000000 
0.347255 -0.694217 0.000000 
0.303554 -0.714375 0.000000 
0.309886 -0.774921 0.000000 
0.257893 -0.790293 0.000000 
0.254475 -0.844403 0.000000 
0.194039 -0.851702 0.000000 
0.184111 -0.898793 0.000000 
0.445733 -0.716891 0.000000 
0.403017 -0.737470 0.000000 
0.412122 -0.799616 0.000000 
0.362692 -0.816909 0.000000 
0.363386 -0.874421 0.000000 
0.307162 -0.886542 0.000000 
0.301302 -0.938581 0.000000 
0.238687 -0.943533 0.000000 
0.228129 -0.989757 0.000000 
0.058559 -0.571265 0.000000 
0.142917 -0.507506 0.000000 
0.123292 -0.556490 0.000000 
0.162226 -0.592107 0.000000 
0.223062 -0.444318 0.000000 
0.209613 -0.491892 0.000000 
0.256854 -0.526005 0.000000 
0.229092 -0.577236 0.000000 
0.261851 -0.614264 0.000000 
0.302189 -0.381462 0.000000 
0.290702 -0.428197 0.000000 
0.341985 -0.460996 0.000000 
0.321587 -0.511230 0.000000 
0.361761 -0.547639 0.000000 
0.329787 -0.599441 0.000000 
0.360414 -0.636564 0.000000 
0.381315 -0.318605 0.000000 
0.370772 -0.364833 0.000000 
0.425037 -0.396462 0.000000 
0.407738 -0.445890 0.000000 
0.453135 -0.481205 0.000000 
0.427556 -0.532720 0.000000 
0.464588 -0.569747 0.000000 
0.429420 -0.621789 0.000000 
0.458977 -0.658864 0.000000 
0.026061 -0.530514 0.000000 
0.028809 -0.424807 0.000000 
0.054870 -0.470691 0.000000 
0.106992 -0.462458 0.000000 
0.029377 -0.322750 0.000000 
0.058186 -0.362927 0.000000 
0.114311 -0.347262 0.000000 
0.137056 -0.400909 0.000000 
0.186430 -0.398383 0.000000 
0.029568 -0.221696 0.000000 
0.058945 -0.259816 0.000000 
0.116563 -0.240170 0.000000 
0.143120 -0.287439 0.000000 
0.196633 -0.278730 0.000000 
0.217198 -0.336027 0.000000 
0.265318 -0.335227 0.000000 
0.029759 -0.120642 0.000000 
0.059328 -0.157708 0.000000 
0.117890 -0.135002 0.000000 
0.145749 -0.179345 0.000000 
0.201664 -0.165871 0.000000 
0.225992 -0.217988 0.000000 
0.278030 -0.212121 0.000000 
0.296791 -0.272064 0.000000 
0.344206 -0.272071 0.000000 
CELLS 175 350 
1 0 
1 1 
1 2 
1 3 
1 4 
1 5 
1 6 
1 7 
1 8 
1 9 
1 10 
1 11 
1 12 
1 13 
1 14 
1 15 
1 16 
1 17 
1 18 
1 19 
1 20 
1 21 
1 22 
1 23 
1 24 
1 25 
1 26 
1 27 
1 28 
1 29 
1 30 
1 31 
1 32 
1 33 
1 34 
1 35 
1 36 
1 37 
1 38 
1 39 
1 40 
1 41 
1 42 
1 43 
1 44 
1 45 
1 46 
1 47 
1 48 
1 49 
1 50 
1 51 
1 52 
1 53 
1 54 
1 55 
1 56 
1 57 
1 58 
1 59 
1 60 
1 61 
1 62 
1 63 
1 64 
1 65 
1 66 
1 67 
1 68 
1 69 
1 70 
1 71 
1 72 
1 73 
1 74 
1 75 
1 76 
1 77 
1 78 
1 79 
1 80 
1 81 
1 82 
1 83 
1 84 
1 85 
1 86 
1 87 
1 88 
1 89 
1 90 
1 91 
1 92 
1 93 
1 94 
1 95 
1 96 
1 97 
1 98 
1 99 
1 100 
1 101 
1 102 
1 103 
1 104 
1 105 
1 106 
1 107 
1 108 
1 109 
1 110 
1 111 
1 112 
1 113 
1 114 
1 115 
1 116 
1 117 
1 118 
1 119 
1 120 
1 121 
1 122 
1 123 
1 124 
1 125 
1 126 
1 127 
1 128 
1 129 
1 130 
1 131 
1 132 
1 133 
1 134 
1 135 
1 136 
1 137 
1 138 
1 139 
1 140 
1 141 
1 142 
1 143 
1 144 
1 145 
1 146 
1 147 
1 148 
1 149 
1 150 
1 151 
1 152 
1 153 
1 154 
1 155 
1 156 
1 157 
1 158 
1 159 
1 160 
1 161 
1 162 
1 163 
1 164 
1 165 
1 166 
1 167 
1 168 
1 169 
1 170 
1 171 
1 172 
1 173 
1 174 
CELL_TYPES 175 
1 
1 
1 
1 
1 
1 
1 
1 
1 
1 
1 
1 
1 
1 
1 
1 
1 
1 
1 
1 
1 
1 
1 
1 
1 
1 
1 
1 
1 
1 
1 
1 
1 
1 
1 
1 
1 
1 
1 
1 
1 
1 
1 
1 
1 
1 
1 
1 
1 
1 
1 
1 
1 
1 
1 
1 
1 
1 
1 
1 
1 
1 
1 
1 
1 
1 
1 
1 
1 
1 
1 
1 
1 
1 
1 
1 
1 
1 
1 
1 
1 
1 
1 
1 
1 
1 
1 
1 
1 
1 
1 
1 
1 
1 
1 
1 
1 
1 
1 
1 
1 
1 
1 
1 
1 
1 
1 
1 
1 
1 
1 
1 
1 
1 
1 
1 
1 
1 
1 
1 
1 
1 
1 
1 
1 
1 
1 
1 
1 
1 
1 
1 
1 
1 
1 
1 
1 
1 
1 
1 
1 
1 
1 
1 
1 
1 
1 
1 
1 
1 
1 
1 
1 
1 
1 
1 
1 
1 
1 
1 
1 
1 
1 
1 
1 
1 
1 
1 
1 
1 
1 
1 
1 
1 
1 
POINT_DATA 175 
VECTORS X_GC float 
-0.026061 -0.530514 0.000000 
-0.106992 -0.462458 0.000000 
-0.054870 -0.470691 0.000000 
-0.028809 -0.424807 0.000000 
-0.186430 -0.398383 0.000000 
-0.137056 -0.400909 0.000000 
-0.114311 -0.347262 0.000000 
-0.058186 -0.362927 0.000000 
-0.029377 -0.322750 0.000000 
-0.265318 -0.335227 0.000000 
-0.217198 -0.336027 0.000000 
-0.196633 -0.278730 0.000000 
-0.143120 -0.287439 0.000000 
-0.116563 -0.240170 0.000000 
-0.058945 -0.259816 0.000000 
-0.029568 -0.221696 0.000000 
-0.344206 -0.272071 0.000000 
-0.296791 -0.272064 0.000000 
-0.278030 -0.212121 0.000000 
-0.225992 -0.217988 0.000000 
-0.201664 -0.165871 0.000000 
-0.145749 -0.179345 0.000000 
-0.117890 -0.135002 0.000000 
-0.059328 -0.157708 0.000000 
-0.029759 -0.120642 0.000000 
-0.058559 -0.571265 0.000000 
-0.162226 -0.592107 0.000000 
-0.123292 -0.556490 0.000000 
-0.142917 -0.507506 0.000000 
-0.261851 -0.614264 0.000000 
-0.229092 -0.577236 0.000000 
-0.256854 -0.526005 0.000000 
-0.209613 -0.491892 0.000000 
-0.223062 -0.444318 0.000000 
-0.360414 -0.636564 0.000000 
-0.329787 -0.599441 0.000000 
-0.361761 -0.547639 0.000000 
-0.321587 -0.511230 0.000000 
-0.341985 -0.460996 0.000000 
-0.290702 -0.428197 0.000000 
-0.302189 -0.381462 0.000000 
-0.458977 -0.658864 0.000000 
-0.429420 -0.621789 0.000000 
-0.464588 -0.569747 0.000000 
-0.427556 -0.532720 0.000000 
-0.453135 -0.481205 0.000000 
-0.407738 -0.445890 0.000000 
-0.425037 -0.396462 0.000000 
-0.370772 -0.364833 0.000000 
-0.381315 -0.318605 0.000000 
-0.046960 -0.622080 0.000000 
-0.095301 -0.716126 0.000000 
-0.098873 -0.663478 0.000000 
-0.149405 -0.648281 0.000000 
-0.140093 -0.807830 0.000000 
-0.148617 -0.759131 0.000000 
-0.205981 -0.748894 0.000000 
-0.203197 -0.690691 0.000000 
-0.248777 -0.671544 0.000000 
-0.184111 -0.898793 0.000000 
-0.194039 -0.851702 0.000000 
-0.254475 -0.844403 0.000000 
-0.257893 -0.790293 0.000000 
-0.309886 -0.774921 0.000000 
-0.303554 -0.714375 0.000000 
-0.347255 -0.694217 0.000000 
-0.228129 -0.989757 0.000000 
-0.238687 -0.943533 0.000000 
-0.301302 -0.938581 0.000000 
-0.307162 -0.886542 0.000000 
-0.363386 -0.874421 0.000000 
-0.362692 -0.816909 0.000000 
-0.412122 -0.799616 0.000000 
-0.403017 -0.737470 0.000000 
-0.445733 -0.716891 0.000000 
-0.000000 -0.644695 0.000000 
0.043388 -0.741125 0.000000 
-0.000000 -0.711093 0.000000 
-0.043388 -0.741125 0.000000 
0.087158 -0.833322 0.000000 
0.043769 -0.809623 0.000000 
-0.000000 -0.848089 0.000000 
-0.043769 -0.809623 0.000000 
-0.087158 -0.833322 0.000000 
0.130831 -0.924452 0.000000 
0.087824 -0.902853 0.000000 
0.044436 -0.945553 0.000000 
-0.000000 -0.914488 0.000000 
-0.044436 -0.945553 0.000000 
-0.087824 -0.902853 0.000000 
-0.130831 -0.924452 0.000000 
0.174505 -1.015581 0.000000 
0.131782 -0.995015 0.000000 
0.088871 -1.040882 0.000000 
0.044532 -1.013018 0.000000 
-0.000000 -1.049418 0.000000 
-0.044532 -1.013018 0.000000 
-0.088871 -1.040882 0.000000 
-0.131782 -0.995015 0.000000 
-0.174505 -1.015581 0.000000 
0.046960 -0.622080 0.000000 
0.149405 -0.648281 0.000000 
0.098873 -0.663478 0.000000 
0.095301 -0.716126 0.000000 
0.248777 -0.671544 0.000000 
0.203197 -0.690691 0.000000 
0.205981 -0.748894 0.000000 
0.148617 -0.759131 0.000000 
0.140093 -0.807830 0.000000 
0.347255 -0.694217 0.000000 
0.303554 -0.714375 0.000000 
0.309886 -0.774921 0.000000 
0.257893 -0.790293 0.000000 
0.254475 -0.844403 0.000000 
0.194039 -0.851702 0.000000 
0.184111 -0.898793 0.000000 
0.445733 -0.716891 0.000000 
0.403017 -0.737470 0.000000 
0.412122 -0.799616 0.000000 
0.362692 -0.816909 0.000000 
0.363386 -0.874421 0.000000 
0.307162 -0.886542 0.000000 
0.301302 -0.938581 0.000000 
0.238687 -0.943533 0.000000 
0.228129 -0.989757 0.000000 
0.058559 -0.571265 0.000000 
0.142917 -0.507506 0.000000 
0.123292 -0.556490 0.000000 
0.162226 -0.592107 0.000000 
0.223062 -0.444318 0.000000 
0.209613 -0.491892 0.000000 
0.256854 -0.526005 0.000000 
0.229092 -0.577236 0.000000 
0.261851 -0.614264 0.000000 
0.302189 -0.381462 0.000000 
0.290702 -0.428197 0.000000 
0.341985 -0.460996 0.000000 
0.321587 -0.511230 0.000000 
0.361761 -0.547639 0.000000 
0.329787 -0.599441 0.000000 
0.360414 -0.636564 0.000000 
0.381315 -0.318605 0.000000 
0.370772 -0.364833 0.000000 
0.425037 -0.396462 0.000000 
0.407738 -0.445890 0.000000 
0.453135 -0.481205 0.000000 
0.427556 -0.532720 0.000000 
0.464588 -0.569747 0.000000 
0.429420 -0.621789 0.000000 
0.458977 -0.658864 0.000000 
0.026061 -0.530514 0.000000 
0.028809 -0.424807 0.000000 
0.054870 -0.470691 0.000000 
0.106992 -0.462458 0.000000 
0.029377 -0.322750 0.000000 
0.058186 -0.362927 0.000000 
0.114311 -0.347262 0.000000 
0.137056 -0.400909 0.000000 
0.186430 -0.398383 0.000000 
0.029568 -0.221696 0.000000 
0.058945 -0.259816 0.000000 
0.116563 -0.240170 0.000000 
0.143120 -0.287439 0.000000 
0.196633 -0.278730 0.000000 
0.217198 -0.336027 0.000000 
0.265318 -0.335227 0.000000 
0.029759 -0.120642 0.000000 
0.059328 -0.157708 0.000000 
0.117890 -0.135002 0.000000 
0.145749 -0.179345 0.000000 
0.201664 -0.165871 0.000000 
0.225992 -0.217988 0.000000 
0.278030 -0.212121 0.000000 
0.296791 -0.272064 0.000000 
0.344206 -0.272071 0.000000 
VECTORS X_EC float 
0.338794 -0.338063 0.000000 
-0.609100 0.743188 0.000000 
0.713312 0.854329 0.000000 
0.374519 0.234900 0.000000 
0.423588 -0.121831 0.000000 
-0.218274 -0.087727 0.000000 
-0.513962 -0.811966 0.000000 
0.756418 -0.600480 0.000000 
0.381900 0.857128 0.000000 
-0.550868 -0.974434 0.000000 
0.823577 -0.963638 0.000000 
0.556234 0.262857 0.000000 
-0.139443 0.380426 0.000000 
-0.484677 -0.257698 0.000000 
0.766286 0.007517 0.000000 
0.384386 -0.507103 0.000000 
0.474677 0.172963 0.000000 
-0.141715 0.172866 0.000000 
-0.385608 -0.636362 0.000000 
0.937896 -0.557166 0.000000 
0.621631 0.739254 0.000000 
-0.105264 0.921153 0.000000 
-0.467428 0.322527 0.000000 
0.771260 0.629055 0.000000 
0.386873 0.128666 0.000000 
0.761262 0.212071 0.000000 
0.108942 0.493448 0.000000 
-0.397202 0.012609 0.000000 
-0.142083 -0.648667 0.000000 
-0.595936 0.792559 0.000000 
0.978194 0.292693 0.000000 
-0.660903 -0.398932 0.000000 
0.724964 -0.859452 0.000000 
0.899809 0.498299 0.000000 
0.685384 -0.906389 0.000000 
0.287229 0.592452 0.000000 
0.702895 -0.106876 0.000000 
0.180633 -0.598395 0.000000 
0.445811 0.723445 0.000000 
-0.220880 0.280659 0.000000 
-0.071546 -0.350266 0.000000 
-0.033296 -0.605337 0.000000 
-0.417537 0.894153 0.000000 
0.039645 0.191591 0.000000 
-0.441768 -0.308280 0.000000 
-0.109248 0.996269 0.000000 
-0.699407 0.519513 0.000000 
-0.474522 -0.147766 0.000000 
0.820030 -0.574759 0.000000 
0.957100 0.801169 0.000000 
0.610485 0.898078 0.000000 
-0.761092 0.167697 0.000000 
-0.714655 -0.543040 0.000000 
-0.057734 -0.748208 0.000000 
-0.178789 -0.594299 0.000000 
-0.067979 0.748275 0.000000 
0.677748 0.610072 0.000000 
0.641556 -0.175674 0.000000 
-0.765897 -0.434152 0.000000 
0.393446 0.633710 0.000000 
0.522510 -0.002020 0.000000 
-0.691820 -0.100564 0.000000 
-0.647393 -0.831046 0.000000 
0.028512 0.961427 0.000000 
-0.053800 0.144066 0.000000 
0.514316 -0.128064 0.000000 
0.965681 -0.138281 0.000000 
-0.897068 -0.762309 0.000000 
-0.083078 -0.829162 0.000000 
-0.006893 0.468313 0.000000 
0.724017 0.304680 0.000000 
0.714996 -0.471723 0.000000 
-0.642413 -0.705181 0.000000 
-0.760780 0.455839 0.000000 
-0.205471 0.178023 0.000000 
0.000000 -0.796621 0.000000 
-0.564049 0.505192 0.000000 
0.000000 0.099756 0.000000 
0.564049 0.505192 0.000000 
0.866949 -0.250153 0.000000 
-0.569003 -0.570084 0.000000 
0.000000 -0.050796 0.000000 
0.569003 -0.570084 0.000000 
-0.866949 -0.250153 0.000000 
0.299194 0.980097 0.000000 
0.858290 0.688514 0.000000 
-0.577662 -0.735041 0.000000 
0.000000 0.845581 0.000000 
0.577662 -0.735041 0.000000 
-0.858290 0.688514 0.000000 
-0.299194 0.980097 0.000000 
-0.268560 0.210348 0.000000 
0.286830 -0.067294 0.000000 
0.844677 0.551904 0.000000 
-0.578910 0.175741 0.000000 
0.000000 0.667145 0.000000 
0.578910 0.175741 0.000000 
-0.844677 0.551904 0.000000 
-0.286830 -0.067294 0.000000 
0.268560 0.210348 0.000000 
-0.610485 0.898078 0.000000 
0.057734 -0.748208 0.000000 
0.714655 -0.543040 0.000000 
0.761092 0.167697 0.000000 
0.765897 -0.434152 0.000000 
-0.641556 -0.175674 0.000000 
-0.677748 0.610072 0.000000 
0.067979 0.748275 0.000000 
0.178789 -0.594299 0.000000 
-0.514316 -0.128064 0.000000 
0.053800 0.144067 0.000000 
-0.028512 0.961427 0.000000 
0.647393 -0.831046 0.000000 
0.691820 -0.100564 0.000000 
-0.522510 -0.002020 0.000000 
-0.393446 0.633710 0.000000 
0.205471 0.178023 0.000000 
0.760780 0.455839 0.000000 
0.642413 -0.705181 0.000000 
-0.714996 -0.471723 0.000000 
-0.724017 0.304680 0.000000 
0.006894 0.468313 0.000000 
0.083078 -0.829162 0.000000 
0.897068 -0.762309 0.000000 
-0.965681 -0.138281 0.000000 
-0.761262 0.212071 0.000000 
0.142083 -0.648667 0.000000 
0.397202 0.012609 0.000000 
-0.108942 0.493448 0.000000 
-0.899809 0.498299 0.000000 
-0.724964 -0.859452 0.000000 
0.660903 -0.398932 0.000000 
-0.978194 0.292693 0.000000 
0.595936 0.792559 0.000000 
0.071546 -0.350266 0.000000 
0.220880 0.280660 0.000000 
-0.445811 0.723446 0.000000 
-0.180633 -0.598395 0.000000 
-0.702895 -0.106876 0.000000 
-0.287229 0.592452 0.000000 
-0.685384 -0.906389 0.000000 
-0.957100 0.801169 0.000000 
-0.820030 -0.574759 0.000000 
0.474522 -0.147766 0.000000 
0.699407 0.519513 0.000000 
0.109248 0.996269 0.000000 
0.441768 -0.308280 0.000000 
-0.039645 0.191591 0.000000 
0.417537 0.894153 0.000000 
0.033296 -0.605337 0.000000 
-0.338794 -0.338063 0.000000 
-0.374519 0.234900 0.000000 
-0.713312 0.854329 0.000000 
0.609100 0.743188 0.000000 
-0.381900 0.857128 0.000000 
-0.756418 -0.600480 0.000000 
0.513962 -0.811966 0.000000 
0.218274 -0.087727 0.000000 
-0.423588 -0.121831 0.000000 
-0.384386 -0.507103 0.000000 
-0.766286 0.007517 0.000000 
0.484677 -0.257698 0.000000 
0.139443 0.380426 0.000000 
-0.556234 0.262857 0.000000 
-0.823577 -0.963638 0.000000 
0.550868 -0.974434 0.000000 
-0.386873 0.128666 0.000000 
-0.771260 0.629055 0.000000 
0.467428 0.322527 0.000000 
0.105264 0.921153 0.000000 
-0.621631 0.739254 0.000000 
-0.937896 -0.557166 0.000000 
0.385608 -0.636362 0.000000 
0.141715 0.172866 0.000000 
-0.474677 0.172963 0.000000 
CELL_DATA 175 
SCALARS MASS float 
LOOKUP_TABLE default 
0.078183 
0.086427 
0.094672 
0.086427 
0.088131 
0.092111 
0.085854 
0.092111 
0.088131 
0.088705 
0.091000 
0.086983 
0.091556 
0.086983 
0.091000 
0.088705 
0.089278 
0.091574 
0.089278 
0.092722 
0.089278 
0.092722 
0.089278 
0.091574 
0.089278 
0.078183 
0.086427 
0.094672 
0.086427 
0.088131 
0.092111 
0.085854 
0.092111 
0.088131 
0.088705 
0.091000 
0.086983 
0.091556 
0.086983 
0.091000 
0.088705 
0.089278 
0.091574 
0.089278 
0.092722 
0.089278 
0.092722 
0.089278 
0.091574 
0.089278 
0.078183 
0.086427 
0.094672 
0.086427 
0.088131 
0.092111 
0.085854 
0.092111 
0.088131 
0.088705 
0.091000 
0.086983 
0.091556 
0.086983 
0.091000 
0.088705 
0.089278 
0.091574 
0.089278 
0.092722 
0.089278 
0.092722 
0.089278 
0.091574 
0.089278 
0.078183 
0.086427 
0.094672 
0.086427 
0.088131 
0.092111 
0.085854 
0.092111 
0.088131 
0.088705 
0.091000 
0.086983 
0.091556 
0.086983 
0.091000 
0.088705 
0.089278 
0.091574 
0.089278 
0.092722 
0.089278 
0.092722 
0.089278 
0.091574 
0.089278 
0.078183 
0.086427 
0.094672 
0.086427 
0.088131 
0.092111 
0.085854 
0.092111 
0.088131 
0.088705 
0.091000 
0.086983 
0.091556 
0.086983 
0.091000 
0.088705 
0.089278 
0.091574 
0.089278 
0.092722 
0.089278 
0.092722 
0.089278 
0.091574 
0.089278 
0.078183 
0.086427 
0.094672 
0.086427 
0.088131 
0.092111 
0.085854 
0.092111 
0.088131 
0.088705 
0.091000 
0.086983 
0.091556 
0.086983 
0.091000 
0.088705 
0.089278 
0.091574 
0.089278 
0.092722 
0.089278 
0.092722 
0.089278 
0.091574 
0.089278 
0.078183 
0.086427 
0.094672 
0.086427 
0.088131 
0.092111 
0.085854 
0.092111 
0.088131 
0.088705 
0.091000 
0.086983 
0.091556 
0.086983 
0.091000 
0.088705 
0.089278 
0.091574 
0.089278 
0.092722 
0.089278 
0.092722 
0.089278 
0.091574 
0.089278 
SCALARS MASS float 
LOOKUP_TABLE default 
0.078183 
0.086427 
0.094672 
0.086427 
0.088131 
0.092111 
0.085854 
0.092111 
0.088131 
0.088705 
0.091000 
0.086983 
0.091556 
0.086983 
0.091000 
0.088705 
0.089278 
0.091574 
0.089278 
0.092722 
0.089278 
0.092722 
0.089278 
0.091574 
0.089278 
0.078183 
0.086427 
0.094672 
0.086427 
0.088131 
0.092111 
0.085854 
0.092111 
0.088131 
0.088705 
0.091000 
0.086983 
0.091556 
0.086983 
0.091000 
0.088705 
0.089278 
0.091574 
0.089278 
0.092722 
0.089278 
0.092722 
0.089278 
0.091574 
0.089278 
0.078183 
0.086427 
0.094672 
0.086427 
0.088131 
0.092111 
0.085854 
0.092111 
0.088131 
0.088705 
0.091000 
0.086983 
0.091556 
0.086983 
0.091000 
0.088705 
0.089278 
0.091574 
0.089278 
0.092722 
0.089278 
0.092722 
0.089278 
0.091574 
0.089278 
0.078183 
0.086427 
0.094672 
0.086427 
0.088131 
0.092111 
0.085854 
0.092111 
0.088131 
0.088705 
0.091000 
0.086983 
0.091556 
0.086983 
0.091000 
0.088705 
0.089278 
0.091574 
0.089278 
0.092722 
0.089278 
0.092722 
0.089278 
0.091574 
0.089278 
0.078183 
0.086427 
0.094672 
0.086427 
0.088131 
0.092111 
0.085854 
0.092111 
0.088131 
0.088705 
0.091000 
0.086983 
0.091556 
0.086983 
0.091000 
0.088705 
0.089278 
0.091574 
0.089278 
0.092722 
0.089278 
0.092722 
0.089278 
0.091574 
0.089278 
0.078183 
0.086427 
0.094672 
0.086427 
0.088131 
0.092111 
0.085854 
0.092111 
0.088131 
0.088705 
0.091000 
0.086983 
0.091556 
0.086983 
0.091000 
0.088705 
0.089278 
0.091574 
0.089278 
0.092722 
0.089278 
0.092722 
0.089278 
0.091574 
0.089278 
0.078183 
0.086427 
0.094672 
0.086427 
0.088131 
0.092111 
0.085854 
0.092111 
0.088131 
0.088705 
0.091000 
0.086983 
0.091556 
0.086983 
0.091000 
0.088705 
0.089278 
0.091574 
0.089278 
0.092722 
0.089278 
0.092722 
0.089278 
0.091574 
0.089278 
SCALARS DENSITY float 
LOOKUP_TABLE default 
20.000000 
20.000000 
20.000000 
20.000000 
20.000000 
20.000000 
20.000000 
20.000000 
20.000000 
20.000000 
20.000000 
20.000000 
20.000000 
20.000000 
20.000000 
20.000000 
20.000000 
20.000000 
20.000000 
20.000000 
20.000000 
20.000000 
20.000000 
20.000000 
20.000000 
20.000000 
20.000000 
20.000000 
20.000000 
20.000000 
20.000000 
20.000000 
20.000000 
20.000000 
20.000000 
20.000000 
20.000000 
20.000000 
20.000000 
20.000000 
20.000000 
20.000000 
20.000000 
20.000000 
20.000000 
20.000000 
20.000000 
20.000000 
20.000000 
20.000000 
20.000000 
20.000000 
20.000000 
20.000000 
20.000000 
20.000000 
20.000000 
20.000000 
20.000000 
20.000000 
20.000000 
20.000000 
20.000000 
20.000000 
20.000000 
20.000000 
20.000000 
20.000000 
20.000000 
20.000000 
20.000000 
20.000000 
20.000000 
20.000000 
20.000000 
20.000000 
20.000000 
20.000000 
20.000000 
20.000000 
20.000000 
20.000000 
20.000000 
20.000000 
20.000000 
20.000000 
20.000000 
20.000000 
20.000000 
20.000000 
20.000000 
20.000000 
20.000000 
20.000000 
20.000000 
20.000000 
20.000000 
20.000000 
20.000000 
20.000000 
20.000000 
20.000000 
20.000000 
20.000000 
20.000000 
20.000000 
20.000000 
20.000000 
20.000000 
20.000000 
20.000000 
20.000000 
20.000000 
20.000000 
20.000000 
20.000000 
20.000000 
20.000000 
20.000000 
20.000000 
20.000000 
20.000000 
20.000000 
20.000000 
20.000000 
20.000000 
20.000000 
20.000000 
20.000000 
20.000000 
20.000000 
20.000000 
20.000000 
20.000000 
20.000000 
20.000000 
20.000000 
20.000000 
20.000000 
20.000000 
20.000000 
20.000000 
20.000000 
20.000000 
20.000000 
20.000000 
20.000000 
20.000000 
20.000000 
20.000000 
20.000000 
20.000000 
20.000000 
20.000000 
20.000000 
20.000000 
20.000000 
20.000000 
20.000000 
20.000000 
20.000000 
20.000000 
20.000000 
20.000000 
20.000000 
20.000000 
20.000000 
20.000000 
20.000000 
20.000000 
20.000000 
20.000000 
20.000000 
20.000000 
20.000000 
SCALARS ELEM_i float 
LOOKUP_TABLE default 
178 
206 
179 
179 
206 
206 
206 
179 
180 
233 
206 
207 
207 
207 
180 
180 
234 
234 
234 
207 
208 
208 
208 
181 
181 
178 
205 
205 
205 
232 
205 
232 
205 
206 
231 
232 
232 
232 
233 
233 
233 
258 
259 
259 
259 
260 
260 
260 
233 
234 
178 
204 
204 
204 
203 
204 
204 
204 
231 
203 
203 
230 
230 
231 
231 
231 
202 
229 
229 
230 
230 
230 
257 
258 
258 
177 
177 
177 
177 
149 
176 
176 
176 
203 
149 
149 
175 
176 
175 
203 
203 
148 
148 
148 
175 
175 
175 
202 
202 
202 
178 
150 
150 
150 
123 
150 
150 
150 
149 
123 
123 
123 
122 
122 
149 
149 
96 
96 
95 
122 
122 
122 
121 
121 
148 
178 
151 
151 
151 
152 
151 
124 
151 
124 
125 
125 
125 
124 
124 
124 
123 
126 
125 
98 
98 
98 
97 
97 
97 
96 
178 
179 
179 
152 
180 
179 
152 
152 
152 
180 
180 
153 
153 
153 
152 
125 
181 
181 
154 
154 
154 
153 
126 
126 
126 
VECTORS VELOCITY float 
-0.000000 -3.386412 0.000000 
0.000000 -3.386412 0.000000 
0.000000 -3.386412 0.000000 
0.000000 -3.386412 0.000000 
0.000000 -3.386412 0.000000 
-0.000000 -3.386412 0.000000 
-0.000000 -3.386412 0.000000 
-0.000000 -3.386412 0.000000 
-0.000000 -3.386412 0.000000 
0.000000 -3.386412 0.000000 
-0.000000 -3.386412 0.000000 
-0.000000 -3.386412 0.000000 
-0.000000 -3.386412 0.000000 
-0.000000 -3.386412 0.000000 
0.000000 -3.386412 0.000000 
0.000000 -3.386412 0.000000 
-0.000000 -3.386412 0.000000 
-0.000000 -3.386412 0.000000 
0.000000 -3.386412 0.000000 
-0.000000 -3.386412 0.000000 
-0.000000 -3.386412 0.000000 
0.000000 -3.386412 0.000000 
-0.000000 -3.386412 0.000000 
0.000000 -3.386412 0.000000 
0.000000 -3.386412 0.000000 
-0.000000 -3.386412 0.000000 
-0.000000 -3.386412 0.000000 
-0.000000 -3.386412 0.000000 
-0.000000 -3.386412 0.000000 
-0.000000 -3.386412 0.000000 
-0.000000 -3.386412 0.000000 
-0.000000 -3.386412 0.000000 
-0.000000 -3.386412 0.000000 
-0.000000 -3.386412 0.000000 
-0.000000 -3.386412 0.000000 
-0.000000 -3.386412 0.000000 
-0.000000 -3.386412 0.000000 
-0.000000 -3.386412 0.000000 
0.000000 -3.386412 0.000000 
0.000000 -3.386412 0.000000 
0.000000 -3.386412 0.000000 
0.000000 -3.386412 0.000000 
0.000000 -3.386412 0.000000 
-0.000000 -3.386412 0.000000 
-0.000000 -3.386412 0.000000 
-0.000000 -3.386412 0.000000 
0.000000 -3.386412 0.000000 
0.000000 -3.386412 0.000000 
0.000000 -3.386412 0.000000 
0.000000 -3.386412 0.000000 
-0.000000 -3.386412 0.000000 
-0.000000 -3.386412 0.000000 
-0.000000 -3.386412 0.000000 
-0.000000 -3.386412 0.000000 
0.000000 -3.386412 0.000000 
0.000000 -3.386412 0.000000 
0.000000 -3.386412 0.000000 
-0.000000 -3.386412 0.000000 
-0.000000 -3.386412 0.000000 
-0.000000 -3.386412 0.000000 
0.000000 -3.386412 0.000000 
0.000000 -3.386412 0.000000 
0.000000 -3.386412 0.000000 
0.000000 -3.386412 0.000000 
0.000000 -3.386412 0.000000 
0.000000 -3.386412 0.000000 
0.000000 -3.386412 0.000000 
-0.000000 -3.386412 0.000000 
0.000000 -3.386412 0.000000 
-0.000000 -3.386412 0.000000 
-0.000000 -3.386412 0.000000 
-0.000000 -3.386412 0.000000 
-0.000000 -3.386412 0.000000 
0.000000 -3.386412 0.000000 
0.000000 -3.386412 0.000000 
-0.000000 -3.386412 0.000000 
0.000000 -3.386412 0.000000 
0.000000 -3.386412 0.000000 
-0.000000 -3.386412 0.000000 
0.000000 -3.386412 0.000000 
0.000000 -3.386412 0.000000 
0.000000 -3.386412 0.000000 
0.000000 -3.386412 0.000000 
0.000000 -3.386412 0.000000 
-0.000000 -3.386412 0.000000 
-0.000000 -3.386412 0.000000 
-0.000000 -3.386412 0.000000 
-0.000000 -3.386412 0.000000 
0.000000 -3.386412 0.000000 
0.000000 -3.386412 0.000000 
0.000000 -3.386412 0.000000 
-0.000000 -3.386412 0.000000 
0.000000 -3.386412 0.000000 
0.000000 -3.386412 0.000000 
-0.000000 -3.386412 0.000000 
0.000000 -3.386412 0.000000 
0.000000 -3.386412 0.000000 
0.000000 -3.386412 0.000000 
0.000000 -3.386412 0.000000 
0.000000 -3.386412 0.000000 
-0.000000 -3.386412 0.000000 
0.000000 -3.386412 0.000000 
0.000000 -3.386412 0.000000 
0.000000 -3.386412 0.000000 
0.000000 -3.386412 0.000000 
0.000000 -3.386412 0.000000 
-0.000000 -3.386412 0.000000 
0.000000 -3.386412 0.000000 
0.000000 -3.386412 0.000000 
0.000000 -3.386412 0.000000 
-0.000000 -3.386412 0.000000 
-0.000000 -3.386412 0.000000 
-0.000000 -3.386412 0.000000 
-0.000000 -3.386412 0.000000 
-0.000000 -3.386412 0.000000 
-0.000000 -3.386412 0.000000 
0.000000 -3.386412 0.000000 
0.000000 -3.386412 0.000000 
-0.000000 -3.386412 0.000000 
-0.000000 -3.386412 0.000000 
-0.000000 -3.386412 0.000000 
-0.000000 -3.386412 0.000000 
0.000000 -3.386412 0.000000 
-0.000000 -3.386412 0.000000 
0.000000 -3.386412 0.000000 
-0.000000 -3.386412 0.000000 
-0.000000 -3.386412 0.000000 
-0.000000 -3.386412 0.000000 
0.000000 -3.386412 0.000000 
-0.000000 -3.386412 0.000000 
-0.000000 -3.386412 0.000000 
0.000000 -3.386412 0.000000 
0.000000 -3.386412 0.000000 
0.000000 -3.386412 0.000000 
-0.000000 -3.386412 0.000000 
-0.000000 -3.386412 0.000000 
0.000000 -3.386412 0.000000 
0.000000 -3.386412 0.000000 
0.000000 -3.386412 0.000000 
0.000000 -3.386412 0.000000 
0.000000 -3.386412 0.000000 
-0.000000 -3.386412 0.000000 
-0.000000 -3.386412 0.000000 
-0.000000 -3.386412 0.000000 
0.000000 -3.386412 0.000000 
-0.000000 -3.386412 0.000000 
-0.000000 -3.386412 0.000000 
-0.000000 -3.386412 0.000000 
-0.000000 -3.386412 0.000000 
-0.000000 -3.386412 0.000000 
-0.000000 -3.386412 0.000000 
0.000000 -3.386412 0.000000 
-0.000000 -3.386412 0.000000 
-0.000000 -3.386412 0.000000 
0.000000 -3.386412 0.000000 
0.000000 -3.386412 0.000000 
0.000000 -3.386412 0.000000 
-0.000000 -3.386412 0.000000 
-0.000000 -3.386412 0.000000 
0.000000 -3.386412 0.000000 
0.000000 -3.386412 0.000000 
0.000000 -3.386412 0.000000 
0.000000 -3.386412 0.000000 
0.000000 -3.386412 0.000000 
-0.000000 -3.386412 0.000000 
-0.000000 -3.386412 0.000000 
-0.000000 -3.386412 0.000000 
-0.000000 -3.386412 0.000000 
-0.000000 -3.386412 0.000000 
0.000000 -3.386412 0.000000 
0.000000 -3.386412 0.000000 
0.000000 -3.386412 0.000000 
0.000000 -3.386412 0.000000 
-0.000000 -3.386412 0.000000 
-0.000000 -3.386412 0.000000 
TENSORS STRESS float 
0.000000 0.000000 0.000000 
0.000000 0.000000 0.000000 
0.000000 0.000000 0.000000 

0.000000 -0.000000 0.000000 
0.000000 0.000000 0.000000 
0.000000 0.000000 0.000000 

-0.000000 0.000000 0.000000 
0.000000 -0.000000 0.000000 
0.000000 0.000000 0.000000 

-0.000000 0.000000 0.000000 
0.000000 -0.000000 0.000000 
0.000000 0.000000 0.000000 

-0.000000 0.000000 0.000000 
0.000000 -0.000000 0.000000 
0.000000 0.000000 0.000000 

0.000000 0.000000 0.000000 
0.000000 0.000000 0.000000 
0.000000 0.000000 0.000000 

0.000000 0.000000 0.000000 
0.000000 -0.000000 0.000000 
0.000000 0.000000 0.000000 

-0.000000 0.000000 0.000000 
0.000000 0.000000 0.000000 
0.000000 0.000000 0.000000 

-0.000000 -0.000000 0.000000 
0.000000 -0.000000 0.000000 
0.000000 0.000000 0.000000 

-0.000000 -0.000000 0.000000 
0.000000 -0.000000 0.000000 
0.000000 0.000000 0.000000 

-0.000000 -0.000000 0.000000 
0.000000 -0.000000 0.000000 
0.000000 0.000000 0.000000 

-0.000000 0.000000 0.000000 
0.000000 0.000000 0.000000 
0.000000 0.000000 0.000000 

0.000000 -0.000000 0.000000 
0.000000 0.000000 0.000000 
0.000000 0.000000 0.000000 

0.000000 -0.000000 0.000000 
0.000000 0.000000 0.000000 
0.000000 0.000000 0.000000 

-0.000000 -0.000000 0.000000 
0.000000 -0.000000 0.000000 
0.000000 0.000000 0.000000 

-0.000000 -0.000000 0.000000 
0.000000 -0.000000 0.000000 
0.000000 0.000000 0.000000 

-0.000000 0.000000 0.000000 
0.000000 -0.000000 0.000000 
0.000000 0.000000 0.000000 

-0.000000 0.000000 0.000000 
0.000000 -0.000000 0.000000 
0.000000 0.000000 0.000000 

-0.000000 -0.000000 0.000000 
0.000000 0.000000 0.000000 
0.000000 0.000000 0.000000 

0.000000 0.000000 0.000000 
0.000000 0.000000 0.000000 
0.000000 0.000000 0.000000 

-0.000000 0.000000 0.000000 
0.000000 -0.000000 0.000000 
0.000000 0.000000 0.000000 

-0.000000 0.000000 0.000000 
0.000000 -0.000000 0.000000 
0.000000 0.000000 0.000000 

-0.000000 -0.000000 0.000000 
0.000000 -0.000000 0.000000 
0.000000 0.000000 0.000000 

-0.000000 -0.000000 0.000000 
0.000000 -0.000000 0.000000 
0.000000 0.000000 0.000000 

0.000000 -0.000000 0.000000 
0.000000 0.000000 0.000000 
0.000000 0.000000 0.000000 

0.000000 0.000000 0.000000 
0.000000 0.000000 0.000000 
0.000000 0.000000 0.000000 

0.000000 0.000000 0.000000 
0.000000 0.000000 0.000000 
0.000000 0.000000 0.000000 

0.000000 0.000000 0.000000 
0.000000 -0.000000 0.000000 
0.000000 0.000000 0.000000 

0.000000 -0.000000 0.000000 
0.000000 -0.000000 0.000000 
0.000000 0.000000 0.000000 

-0.000000 0.000000 0.000000 
0.000000 -0.000000 0.000000 
0.000000 0.000000 0.000000 

0.000000 -0.000000 0.000000 
0.000000 -0.000000 0.000000 
0.000000 0.000000 0.000000 

-0.000000 -0.000000 0.000000 
0.000000 -0.000000 0.000000 
0.000000 0.000000 0.000000 

0.000000 -0.000000 0.000000 
0.000000 0.000000 0.000000 
0.000000 0.000000 0.000000 

-0.000000 0.000000 0.000000 
0.000000 -0.000000 0.000000 
0.000000 0.000000 0.000000 

-0.000000 -0.000000 0.000000 
0.000000 -0.000000 0.000000 
0.000000 0.000000 0.000000 

0.000000 0.000000 0.000000 
0.000000 -0.000000 0.000000 
0.000000 0.000000 0.000000 

0.000000 -0.000000 0.000000 
0.000000 -0.000000 0.000000 
0.000000 0.000000 0.000000 

0.000000 0.000000 0.000000 
0.000000 0.000000 0.000000 
0.000000 0.000000 0.000000 

0.000000 0.000000 0.000000 
0.000000 0.000000 0.000000 
0.000000 0.000000 0.000000 

0.000000 0.000000 0.000000 
0.000000 0.000000 0.000000 
0.000000 0.000000 0.000000 

0.000000 -0.000000 0.000000 
0.000000 0.000000 0.000000 
0.000000 0.000000 0.000000 

-0.000000 -0.000000 0.000000 
0.000000 -0.000000 0.000000 
0.000000 0.000000 0.000000 

-0.000000 -0.000000 0.000000 
0.000000 -0.000000 0.000000 
0.000000 0.000000 0.000000 

-0.000000 -0.000000 0.000000 
0.000000 -0.000000 0.000000 
0.000000 0.000000 0.000000 

-0.000000 0.000000 0.000000 
0.000000 0.000000 0.000000 
0.000000 0.000000 0.000000 

0.000000 0.000000 0.000000 
0.000000 0.000000 0.000000 
0.000000 0.000000 0.000000 

-0.000000 -0.000000 0.000000 
0.000000 -0.000000 0.000000 
0.000000 0.000000 0.000000 

0.000000 -0.000000 0.000000 
0.000000 0.000000 0.000000 
0.000000 0.000000 0.000000 

0.000000 -0.000000 0.000000 
0.000000 0.000000 0.000000 
0.000000 0.000000 0.000000 

-0.000000 0.000000 0.000000 
0.000000 -0.000000 0.000000 
0.000000 0.000000 0.000000 

0.000000 -0.000000 0.000000 
0.000000 0.000000 0.000000 
0.000000 0.000000 0.000000 

-0.000000 0.000000 0.000000 
0.000000 -0.000000 0.000000 
0.000000 0.000000 0.000000 

0.000000 0.000000 0.000000 
0.000000 -0.000000 0.000000 
0.000000 0.000000 0.000000 

0.000000 -0.000000 0.000000 
0.000000 -0.000000 0.000000 
0.000000 0.000000 0.000000 

-0.000000 0.000000 0.000000 
0.000000 -0.000000 0.000000 
0.000000 0.000000 0.000000 

-0.000000 0.000000 0.000000 
0.000000 -0.000000 0.000000 
0.000000 0.000000 0.000000 

0.000000 0.000000 0.000000 
0.000000 0.000000 0.000000 
0.000000 0.000000 0.000000 

0.000000 -0.000000 0.000000 
0.000000 0.000000 0.000000 
0.000000 0.000000 0.000000 

-0.000000 0.000000 0.000000 
0.000000 -0.000000 0.000000 
0.000000 0.000000 0.000000 

0.000000 0.000000 0.000000 
0.000000 0.000000 0.000000 
0.000000 0.000000 0.000000 

-0.000000 0.000000 0.000000 
0.000000 -0.000000 0.000000 
0.000000 0.000000 0.000000 

-0.000000 0.000000 0.000000 
0.000000 -0.000000 0.000000 
0.000000 0.000000 0.000000 

-0.000000 0.000000 0.000000 
0.000000 -0.000000 0.000000 
0.000000 0.000000 0.000000 

0.000000 0.000000 0.000000 
0.000000 0.000000 0.000000 
0.000000 0.000000 0.000000 

0.000000 0.000000 0.000000 
0.000000 0.000000 0.000000 
0.000000 0.000000 0.000000 

-0.000000 0.000000 0.000000 
0.000000 0.000000 0.000000 
0.000000 0.000000 0.000000 

0.000000 0.000000 0.000000 
0.000000 0.000000 0.000000 
0.000000 0.000000 0.000000 

-0.000000 0.000000 0.000000 
0.000000 -0.000000 0.000000 
0.000000 0.000000 0.000000 

-0.000000 0.000000 0.000000 
0.000000 -0.000000 0.000000 
0.000000 0.000000 0.000000 

0.000000 -0.000000 0.000000 
0.000000 -0.000000 0.000000 
0.000000 0.000000 0.000000 

-0.000000 -0.000000 0.000000 
0.000000 -0.000000 0.000000 
0.000000 0.000000 0.000000 

-0.000000 -0.000000 0.000000 
0.000000 -0.000000 0.000000 
0.000000 0.000000 0.000000 

-0.000000 0.000000 0.000000 
0.000000 -0.000000 0.000000 
0.000000 0.000000 0.000000 

-0.000000 0.000000 0.000000 
0.000000 0.000000 0.000000 
0.000000 0.000000 0.000000 

0.000000 -0.000000 0.000000 
0.000000 0.000000 0.000000 
0.000000 0.000000 0.000000 

0.000000 0.000000 0.000000 
0.000000 -0.000000 0.000000 
0.000000 0.000000 0.000000 

0.000000 -0.000000 0.000000 
0.000000 -0.000000 0.000000 
0.000000 0.000000 0.000000 

0.000000 -0.000000 0.000000 
0.000000 0.000000 0.000000 
0.000000 0.000000 0.000000 

0.000000 -0.000000 0.000000 
0.000000 0.000000 0.000000 
0.000000 0.000000 0.000000 

-0.000000 -0.000000 0.000000 
0.000000 -0.000000 0.000000 
0.000000 0.000000 0.000000 

0.000000 0.000000 0.000000 
0.000000 -0.000000 0.000000 
0.000000 0.000000 0.000000 

0.000000 -0.000000 0.000000 
0.000000 -0.000000 0.000000 
0.000000 0.000000 0.000000 

0.000000 0.000000 0.000000 
0.000000 -0.000000 0.000000 
0.000000 0.000000 0.000000 

-0.000000 0.000000 0.000000 
0.000000 -0.000000 0.000000 
0.000000 0.000000 0.000000 

-0.000000 0.000000 0.000000 
0.000000 0.000000 0.000000 
0.000000 0.000000 0.000000 

0.000000 0.000000 0.000000 
0.000000 0.000000 0.000000 
0.000000 0.000000 0.000000 

0.000000 0.000000 0.000000 
0.000000 0.000000 0.000000 
0.000000 0.000000 0.000000 

0.000000 -0.000000 0.000000 
0.000000 0.000000 0.000000 
0.000000 0.000000 0.000000 

0.000000 -0.000000 0.000000 
0.000000 0.000000 0.000000 
0.000000 0.000000 0.000000 

-0.000000 0.000000 0.000000 
0.000000 0.000000 0.000000 
0.000000 0.000000 0.000000 

-0.000000 -0.000000 0.000000 
0.000000 -0.000000 0.000000 
0.000000 0.000000 0.000000 

-0.000000 -0.000000 0.000000 
0.000000 -0.000000 0.000000 
0.000000 0.000000 0.000000 

0.000000 0.000000 0.000000 
0.000000 0.000000 0.000000 
0.000000 0.000000 0.000000 

0.000000 0.000000 0.000000 
0.000000 -0.000000 0.000000 
0.000000 0.000000 0.000000 

0.000000 -0.000000 0.000000 
0.000000 0.000000 0.000000 
0.000000 0.000000 0.000000 

0.000000 0.000000 0.000000 
0.000000 0.000000 0.000000 
0.000000 0.000000 0.000000 

0.000000 0.000000 0.000000 
0.000000 0.000000 0.000000 
0.000000 0.000000 0.000000 

0.000000 -0.000000 0.000000 
0.000000 0.000000 0.000000 
0.000000 0.000000 0.000000 

0.000000 -0.000000 0.000000 
0.000000 -0.000000 0.000000 
0.000000 0.000000 0.000000 

0.000000 0.000000 0.000000 
0.000000 -0.000000 0.000000 
0.000000 0.000000 0.000000 

0.000000 -0.000000 0.000000 
0.000000 0.000000 0.000000 
0.000000 0.000000 0.000000 

0.000000 0.000000 0.000000 
0.000000 -0.000000 0.000000 
0.000000 0.000000 0.000000 

0.000000 0.000000 0.000000 
0.000000 0.000000 0.000000 
0.000000 0.000000 0.000000 

0.000000 0.000000 0.000000 
0.000000 0.000000 0.000000 
0.000000 0.000000 0.000000 

-0.000000 -0.000000 0.000000 
0.000000 -0.000000 0.000000 
0.000000 0.000000 0.000000 

0.000000 0.000000 0.000000 
0.000000 0.000000 0.000000 
0.000000 0.000000 0.000000 

0.000000 0.000000 0.000000 
0.000000 0.000000 0.000000 
0.000000 0.000000 0.000000 

0.000000 -0.000000 0.000000 
0.000000 0.000000 0.000000 
0.000000 0.000000 0.000000 

0.000000 -0.000000 0.000000 
0.000000 0.000000 0.000000 
0.000000 0.000000 0.000000 

-0.000000 -0.000000 0.000000 
0.000000 0.000000 0.000000 
0.000000 0.000000 0.000000 

-0.000000 -0.000000 0.000000 
0.000000 0.000000 0.000000 
0.000000 0.000000 0.000000 

0.000000 0.000000 0.000000 
0.000000 0.000000 0.000000 
0.000000 0.000000 0.000000 

0.000000 -0.000000 0.000000 
0.000000 -0.000000 0.000000 
0.000000 0.000000 0.000000 

-0.000000 0.000000 0.000000 
0.000000 -0.000000 0.000000 
0.000000 0.000000 0.000000 

-0.000000 -0.000000 0.000000 
0.000000 0.000000 0.000000 
0.000000 0.000000 0.000000 

-0.000000 -0.000000 0.000000 
0.000000 -0.000000 0.000000 
0.000000 0.000000 0.000000 

-0.000000 0.000000 0.000000 
0.000000 -0.000000 0.000000 
0.000000 0.000000 0.000000 

-0.000000 0.000000 0.000000 
0.000000 0.000000 0.000000 
0.000000 0.000000 0.000000 

0.000000 0.000000 0.000000 
0.000000 -0.000000 0.000000 
0.000000 0.000000 0.000000 

-0.000000 -0.000000 0.000000 
0.000000 -0.000000 0.000000 
0.000000 0.000000 0.000000 

0.000000 0.000000 0.000000 
0.000000 0.000000 0.000000 
0.000000 0.000000 0.000000 

0.000000 -0.000000 0.000000 
0.000000 0.000000 0.000000 
0.000000 0.000000 0.000000 

-0.000000 0.000000 0.000000 
0.000000 -0.000000 0.000000 
0.000000 0.000000 0.000000 

-0.000000 0.000000 0.000000 
0.000000 -0.000000 0.000000 
0.000000 0.000000 0.000000 

0.000000 0.000000 0.000000 
0.000000 0.000000 0.000000 
0.000000 0.000000 0.000000 

-0.000000 -0.000000 0.000000 
0.000000 -0.000000 0.000000 
0.000000 0.000000 0.000000 

-0.000000 0.000000 0.000000 
0.000000 -0.000000 0.000000 
0.000000 0.000000 0.000000 

0.000000 -0.000000 0.000000 
0.000000 0.000000 0.000000 
0.000000 0.000000 0.000000 

0.000000 -0.000000 0.000000 
0.000000 0.000000 0.000000 
0.000000 0.000000 0.000000 

-0.000000 0.000000 0.000000 
0.000000 -0.000000 0.000000 
0.000000 0.000000 0.000000 

0.000000 -0.000000 0.000000 
0.000000 0.000000 0.000000 
0.000000 0.000000 0.000000 

-0.000000 -0.000000 0.000000 
0.000000 -0.000000 0.000000 
0.000000 0.000000 0.000000 

0.000000 -0.000000 0.000000 
0.000000 0.000000 0.000000 
0.000000 0.000000 0.000000 

-0.000000 0.000000 0.000000 
0.000000 0.000000 0.000000 
0.000000 0.000000 0.000000 

-0.000000 0.000000 0.000000 
0.000000 -0.000000 0.000000 
0.000000 0.000000 0.000000 

-0.000000 -0.000000 0.000000 
0.000000 -0.000000 0.000000 
0.000000 0.000000 0.000000 

-0.000000 -0.000000 0.000000 
0.000000 -0.000000 0.000000 
0.000000 0.000000 0.000000 

0.000000 0.000000 0.000000 
0.000000 0.000000 0.000000 
0.000000 0.000000 0.000000 

-0.000000 -0.000000 0.000000 
0.000000 -0.000000 0.000000 
0.000000 0.000000 0.000000 

-0.000000 -0.000000 0.000000 
0.000000 -0.000000 0.000000 
0.000000 0.000000 0.000000 

-0.000000 -0.000000 0.000000 
0.000000 0.000000 0.000000 
0.000000 0.000000 0.000000 

-0.000000 0.000000 0.000000 
0.000000 -0.000000 0.000000 
0.000000 0.000000 0.000000 

0.000000 0.000000 0.000000 
0.000000 -0.000000 0.000000 
0.000000 0.000000 0.000000 

0.000000 0.000000 0.000000 
0.000000 -0.000000 0.000000 
0.000000 0.000000 0.000000 

0.000000 -0.000000 0.000000 
0.000000 0.000000 0.000000 
0.000000 0.000000 0.000000 

0.000000 0.000000 0.000000 
0.000000 0.000000 0.000000 
0.000000 0.000000 0.000000 

-0.000000 -0.000000 0.000000 
0.000000 0.000000 0.000000 
0.000000 0.000000 0.000000 

-0.000000 -0.000000 0.000000 
0.000000 0.000000 0.000000 
0.000000 0.000000 0.000000 

-0.000000 -0.000000 0.000000 
0.000000 0.000000 0.000000 
0.000000 0.000000 0.000000 

-0.000000 -0.000000 0.000000 
0.000000 0.000000 0.000000 
0.000000 0.000000 0.000000 

0.000000 -0.000000 0.000000 
0.000000 0.000000 0.000000 
0.000000 0.000000 0.000000 

0.000000 0.000000 0.000000 
0.000000 0.000000 0.000000 
0.000000 0.000000 0.000000 

0.000000 0.000000 0.000000 
0.000000 0.000000 0.000000 
0.000000 0.000000 0.000000 

-0.000000 0.000000 0.000000 
0.000000 -0.000000 0.000000 
0.000000 0.000000 0.000000 

-0.000000 -0.000000 0.000000 
0.000000 -0.000000 0.000000 
0.000000 0.000000 0.000000 

-0.000000 -0.000000 0.000000 
0.000000 0.000000 0.000000 
0.000000 0.000000 0.000000 

-0.000000 0.000000 0.000000 
0.000000 -0.000000 0.000000 
0.000000 0.000000 0.000000 

-0.000000 -0.000000 0.000000 
0.000000 -0.000000 0.000000 
0.000000 0.000000 0.000000 

-0.000000 0.000000 0.000000 
0.000000 -0.000000 0.000000 
0.000000 0.000000 0.000000 

-0.000000 -0.000000 0.000000 
0.000000 -0.000000 0.000000 
0.000000 0.000000 0.000000 

0.000000 -0.000000 0.000000 
0.000000 -0.000000 0.000000 
0.000000 0.000000 0.000000 

-0.000000 -0.000000 0.000000 
0.000000 0.000000 0.000000 
0.000000 0.000000 0.000000 

-0.000000 -0.000000 0.000000 
0.000000 0.000000 0.000000 
0.000000 0.000000 0.000000 

-0.000000 0.000000 0.000000 
0.000000 0.000000 0.000000 
0.000000 0.000000 0.000000 

0.000000 -0.000000 0.000000 
0.000000 0.000000 0.000000 
0.000000 0.000000 0.000000 

0.000000 0.000000 0.000000 
0.000000 0.000000 0.000000 
0.000000 0.000000 0.000000 

-0.000000 -0.000000 0.000000 
0.000000 -0.000000 0.000000 
0.000000 0.000000 0.000000 

-0.000000 -0.000000 0.000000 
0.000000 -0.000000 0.000000 
0.000000 0.000000 0.000000 

-0.000000 0.000000 0.000000 
0.000000 -0.000000 0.000000 
0.000000 0.000000 0.000000 

-0.000000 0.000000 0.000000 
0.000000 -0.000000 0.000000 
0.000000 0.000000 0.000000 

0.000000 0.000000 0.000000 
0.000000 0.000000 0.000000 
0.000000 0.000000 0.000000 

-0.000000 0.000000 0.000000 
0.000000 -0.000000 0.000000 
0.000000 0.000000 0.000000 

0.000000 0.000000 0.000000 
0.000000 0.000000 0.000000 
0.000000 0.000000 0.000000 

-0.000000 0.000000 0.000000 
0.000000 -0.000000 0.000000 
0.000000 0.000000 0.000000 

-0.000000 -0.000000 0.000000 
0.000000 -0.000000 0.000000 
0.000000 0.000000 0.000000 

TENSORS STRAIN float 
0.000000 0.000000 0.000000 
0.000000 0.000000 0.000000 
0.000000 0.000000 0.000000 

0.000000 -0.000000 0.000000 
0.000000 0.000000 0.000000 
0.000000 0.000000 0.000000 

-0.000000 0.000000 0.000000 
0.000000 -0.000000 0.000000 
0.000000 0.000000 0.000000 

-0.000000 0.000000 0.000000 
0.000000 -0.000000 0.000000 
0.000000 0.000000 0.000000 

0.000000 0.000000 0.000000 
0.000000 -0.000000 0.000000 
0.000000 0.000000 0.000000 

0.000000 0.000000 0.000000 
0.000000 0.000000 0.000000 
0.000000 0.000000 0.000000 

0.000000 0.000000 0.000000 
0.000000 -0.000000 0.000000 
0.000000 0.000000 0.000000 

-0.000000 0.000000 0.000000 
0.000000 0.000000 0.000000 
0.000000 0.000000 0.000000 

-0.000000 -0.000000 0.000000 
0.000000 -0.000000 0.000000 
0.000000 0.000000 0.000000 

0.000000 -0.000000 0.000000 
0.000000 -0.000000 0.000000 
0.000000 0.000000 0.000000 

0.000000 -0.000000 0.000000 
0.000000 -0.000000 0.000000 
0.000000 0.000000 0.000000 

-0.000000 0.000000 0.000000 
0.000000 0.000000 0.000000 
0.000000 0.000000 0.000000 

0.000000 -0.000000 0.000000 
0.000000 0.000000 0.000000 
0.000000 0.000000 0.000000 

-0.000000 -0.000000 0.000000 
0.000000 0.000000 0.000000 
0.000000 0.000000 0.000000 

0.000000 -0.000000 0.000000 
0.000000 -0.000000 0.000000 
0.000000 0.000000 0.000000 

0.000000 -0.000000 0.000000 
0.000000 -0.000000 0.000000 
0.000000 0.000000 0.000000 

-0.000000 0.000000 0.000000 
0.000000 0.000000 0.000000 
0.000000 0.000000 0.000000 

-0.000000 0.000000 0.000000 
0.000000 -0.000000 0.000000 
0.000000 0.000000 0.000000 

-0.000000 -0.000000 0.000000 
0.000000 0.000000 0.000000 
0.000000 0.000000 0.000000 

-0.000000 0.000000 0.000000 
0.000000 0.000000 0.000000 
0.000000 0.000000 0.000000 

-0.000000 0.000000 0.000000 
0.000000 -0.000000 0.000000 
0.000000 0.000000 0.000000 

-0.000000 0.000000 0.000000 
0.000000 -0.000000 0.000000 
0.000000 0.000000 0.000000 

-0.000000 -0.000000 0.000000 
0.000000 -0.000000 0.000000 
0.000000 0.000000 0.000000 

0.000000 -0.000000 0.000000 
0.000000 -0.000000 0.000000 
0.000000 0.000000 0.000000 

-0.000000 -0.000000 0.000000 
0.000000 0.000000 0.000000 
0.000000 0.000000 0.000000 

0.000000 0.000000 0.000000 
0.000000 0.000000 0.000000 
0.000000 0.000000 0.000000 

0.000000 0.000000 0.000000 
0.000000 0.000000 0.000000 
0.000000 0.000000 0.000000 

0.000000 0.000000 0.000000 
0.000000 -0.000000 0.000000 
0.000000 0.000000 0.000000 

0.000000 -0.000000 0.000000 
0.000000 -0.000000 0.000000 
0.000000 0.000000 0.000000 

-0.000000 0.000000 0.000000 
0.000000 -0.000000 0.000000 
0.000000 0.000000 0.000000 

0.000000 -0.000000 0.000000 
0.000000 -0.000000 0.000000 
0.000000 0.000000 0.000000 

0.000000 -0.000000 0.000000 
0.000000 -0.000000 0.000000 
0.000000 0.000000 0.000000 

0.000000 -0.000000 0.000000 
0.000000 0.000000 0.000000 
0.000000 0.000000 0.000000 

0.000000 0.000000 0.000000 
0.000000 -0.000000 0.000000 
0.000000 0.000000 0.000000 

-0.000000 -0.000000 0.000000 
0.000000 -0.000000 0.000000 
0.000000 0.000000 0.000000 

0.000000 0.000000 0.000000 
0.000000 -0.000000 0.000000 
0.000000 0.000000 0.000000 

0.000000 -0.000000 0.000000 
0.000000 -0.000000 0.000000 
0.000000 0.000000 0.000000 

0.000000 0.000000 0.000000 
0.000000 0.000000 0.000000 
0.000000 0.000000 0.000000 

0.000000 0.000000 0.000000 
0.000000 0.000000 0.000000 
0.000000 0.000000 0.000000 

0.000000 0.000000 0.000000 
0.000000 0.000000 0.000000 
0.000000 0.000000 0.000000 

0.000000 -0.000000 0.000000 
0.000000 -0.000000 0.000000 
0.000000 0.000000 0.000000 

-0.000000 -0.000000 0.000000 
0.000000 -0.000000 0.000000 
0.000000 0.000000 0.000000 

-0.000000 -0.000000 0.000000 
0.000000 -0.000000 0.000000 
0.000000 0.000000 0.000000 

-0.000000 -0.000000 0.000000 
0.000000 -0.000000 0.000000 
0.000000 0.000000 0.000000 

-0.000000 0.000000 0.000000 
0.000000 0.000000 0.000000 
0.000000 0.000000 0.000000 

-0.000000 0.000000 0.000000 
0.000000 0.000000 0.000000 
0.000000 0.000000 0.000000 

-0.000000 -0.000000 0.000000 
0.000000 0.000000 0.000000 
0.000000 0.000000 0.000000 

0.000000 -0.000000 0.000000 
0.000000 0.000000 0.000000 
0.000000 0.000000 0.000000 

0.000000 -0.000000 0.000000 
0.000000 0.000000 0.000000 
0.000000 0.000000 0.000000 

0.000000 0.000000 0.000000 
0.000000 -0.000000 0.000000 
0.000000 0.000000 0.000000 

0.000000 -0.000000 0.000000 
0.000000 0.000000 0.000000 
0.000000 0.000000 0.000000 

0.000000 0.000000 0.000000 
0.000000 -0.000000 0.000000 
0.000000 0.000000 0.000000 

0.000000 0.000000 0.000000 
0.000000 -0.000000 0.000000 
0.000000 0.000000 0.000000 

0.000000 -0.000000 0.000000 
0.000000 -0.000000 0.000000 
0.000000 0.000000 0.000000 

0.000000 0.000000 0.000000 
0.000000 -0.000000 0.000000 
0.000000 0.000000 0.000000 

0.000000 0.000000 0.000000 
0.000000 -0.000000 0.000000 
0.000000 0.000000 0.000000 

0.000000 0.000000 0.000000 
0.000000 0.000000 0.000000 
0.000000 0.000000 0.000000 

0.000000 -0.000000 0.000000 
0.000000 0.000000 0.000000 
0.000000 0.000000 0.000000 

-0.000000 0.000000 0.000000 
0.000000 -0.000000 0.000000 
0.000000 0.000000 0.000000 

-0.000000 0.000000 0.000000 
0.000000 0.000000 0.000000 
0.000000 0.000000 0.000000 

-0.000000 0.000000 0.000000 
0.000000 0.000000 0.000000 
0.000000 0.000000 0.000000 

0.000000 0.000000 0.000000 
0.000000 -0.000000 0.000000 
0.000000 0.000000 0.000000 

0.000000 0.000000 0.000000 
0.000000 -0.000000 0.000000 
0.000000 0.000000 0.000000 

0.000000 0.000000 0.000000 
0.000000 0.000000 0.000000 
0.000000 0.000000 0.000000 

-0.000000 0.000000 0.000000 
0.000000 0.000000 0.000000 
0.000000 0.000000 0.000000 

-0.000000 0.000000 0.000000 
0.000000 0.000000 0.000000 
0.000000 0.000000 0.000000 

0.000000 0.000000 0.000000 
0.000000 -0.000000 0.000000 
0.000000 0.000000 0.000000 

-0.000000 0.000000 0.000000 
0.000000 -0.000000 0.000000 
0.000000 0.000000 0.000000 

-0.000000 0.000000 0.000000 
0.000000 -0.000000 0.000000 
0.000000 0.000000 0.000000 

0.000000 -0.000000 0.000000 
0.000000 -0.000000 0.000000 
0.000000 0.000000 0.000000 

0.000000 -0.000000 0.000000 
0.000000 -0.000000 0.000000 
0.000000 0.000000 0.000000 

0.000000 -0.000000 0.000000 
0.000000 -0.000000 0.000000 
0.000000 0.000000 0.000000 

-0.000000 0.000000 0.000000 
0.000000 -0.000000 0.000000 
0.000000 0.000000 0.000000 

-0.000000 0.000000 0.000000 
0.000000 0.000000 0.000000 
0.000000 0.000000 0.000000 

-0.000000 -0.000000 0.000000 
0.000000 0.000000 0.000000 
0.000000 0.000000 0.000000 

0.000000 0.000000 0.000000 
0.000000 -0.000000 0.000000 
0.000000 0.000000 0.000000 

0.000000 -0.000000 0.000000 
0.000000 -0.000000 0.000000 
0.000000 0.000000 0.000000 

0.000000 -0.000000 0.000000 
0.000000 0.000000 0.000000 
0.000000 0.000000 0.000000 

0.000000 -0.000000 0.000000 
0.000000 0.000000 0.000000 
0.000000 0.000000 0.000000 

-0.000000 -0.000000 0.000000 
0.000000 -0.000000 0.000000 
0.000000 0.000000 0.000000 

0.000000 0.000000 0.000000 
0.000000 -0.000000 0.000000 
0.000000 0.000000 0.000000 

0.000000 -0.000000 0.000000 
0.000000 -0.000000 0.000000 
0.000000 0.000000 0.000000 

0.000000 0.000000 0.000000 
0.000000 -0.000000 0.000000 
0.000000 0.000000 0.000000 

-0.000000 0.000000 0.000000 
0.000000 -0.000000 0.000000 
0.000000 0.000000 0.000000 

-0.000000 0.000000 0.000000 
0.000000 0.000000 0.000000 
0.000000 0.000000 0.000000 

-0.000000 0.000000 0.000000 
0.000000 0.000000 0.000000 
0.000000 0.000000 0.000000 

0.000000 0.000000 0.000000 
0.000000 0.000000 0.000000 
0.000000 0.000000 0.000000 

0.000000 -0.000000 0.000000 
0.000000 -0.000000 0.000000 
0.000000 0.000000 0.000000 

0.000000 -0.000000 0.000000 
0.000000 0.000000 0.000000 
0.000000 0.000000 0.000000 

-0.000000 0.000000 0.000000 
0.000000 0.000000 0.000000 
0.000000 0.000000 0.000000 

0.000000 -0.000000 0.000000 
0.000000 -0.000000 0.000000 
0.000000 0.000000 0.000000 

0.000000 -0.000000 0.000000 
0.000000 -0.000000 0.000000 
0.000000 0.000000 0.000000 

0.000000 0.000000 0.000000 
0.000000 -0.000000 0.000000 
0.000000 0.000000 0.000000 

0.000000 0.000000 0.000000 
0.000000 -0.000000 0.000000 
0.000000 0.000000 0.000000 

-0.000000 -0.000000 0.000000 
0.000000 0.000000 0.000000 
0.000000 0.000000 0.000000 

0.000000 0.000000 0.000000 
0.000000 0.000000 0.000000 
0.000000 0.000000 0.000000 

-0.000000 0.000000 0.000000 
0.000000 0.000000 0.000000 
0.000000 0.000000 0.000000 

0.000000 -0.000000 0.000000 
0.000000 -0.000000 0.000000 
0.000000 0.000000 0.000000 

0.000000 -0.000000 0.000000 
0.000000 -0.000000 0.000000 
0.000000 0.000000 0.000000 

0.000000 0.000000 0.000000 
0.000000 -0.000000 0.000000 
0.000000 0.000000 0.000000 

0.000000 -0.000000 0.000000 
0.000000 0.000000 0.000000 
0.000000 0.000000 0.000000 

0.000000 0.000000 0.000000 
0.000000 -0.000000 0.000000 
0.000000 0.000000 0.000000 

0.000000 0.000000 0.000000 
0.000000 0.000000 0.000000 
0.000000 0.000000 0.000000 

0.000000 0.000000 0.000000 
0.000000 0.000000 0.000000 
0.000000 0.000000 0.000000 

-0.000000 -0.000000 0.000000 
0.000000 -0.000000 0.000000 
0.000000 0.000000 0.000000 

0.000000 0.000000 0.000000 
0.000000 0.000000 0.000000 
0.000000 0.000000 0.000000 

0.000000 0.000000 0.000000 
0.000000 0.000000 0.000000 
0.000000 0.000000 0.000000 

0.000000 -0.000000 0.000000 
0.000000 0.000000 0.000000 
0.000000 0.000000 0.000000 

0.000000 -0.000000 0.000000 
0.000000 0.000000 0.000000 
0.000000 0.000000 0.000000 

-0.000000 -0.000000 0.000000 
0.000000 0.000000 0.000000 
0.000000 0.000000 0.000000 

-0.000000 -0.000000 0.000000 
0.000000 0.000000 0.000000 
0.000000 0.000000 0.000000 

0.000000 0.000000 0.000000 
0.000000 0.000000 0.000000 
0.000000 0.000000 0.000000 

0.000000 -0.000000 0.000000 
0.000000 -0.000000 0.000000 
0.000000 0.000000 0.000000 

0.000000 0.000000 0.000000 
0.000000 -0.000000 0.000000 
0.000000 0.000000 0.000000 

-0.000000 -0.000000 0.000000 
0.000000 0.000000 0.000000 
0.000000 0.000000 0.000000 

-0.000000 -0.000000 0.000000 
0.000000 -0.000000 0.000000 
0.000000 0.000000 0.000000 

-0.000000 0.000000 0.000000 
0.000000 -0.000000 0.000000 
0.000000 0.000000 0.000000 

-0.000000 0.000000 0.000000 
0.000000 0.000000 0.000000 
0.000000 0.000000 0.000000 

0.000000 0.000000 0.000000 
0.000000 -0.000000 0.000000 
0.000000 0.000000 0.000000 

-0.000000 -0.000000 0.000000 
0.000000 -0.000000 0.000000 
0.000000 0.000000 0.000000 

0.000000 0.000000 0.000000 
0.000000 0.000000 0.000000 
0.000000 0.000000 0.000000 

0.000000 -0.000000 0.000000 
0.000000 0.000000 0.000000 
0.000000 0.000000 0.000000 

-0.000000 0.000000 0.000000 
0.000000 -0.000000 0.000000 
0.000000 0.000000 0.000000 

-0.000000 0.000000 0.000000 
0.000000 -0.000000 0.000000 
0.000000 0.000000 0.000000 

0.000000 0.000000 0.000000 
0.000000 0.000000 0.000000 
0.000000 0.000000 0.000000 

0.000000 -0.000000 0.000000 
0.000000 -0.000000 0.000000 
0.000000 0.000000 0.000000 

-0.000000 0.000000 0.000000 
0.000000 -0.000000 0.000000 
0.000000 0.000000 0.000000 

-0.000000 -0.000000 0.000000 
0.000000 0.000000 0.000000 
0.000000 0.000000 0.000000 

-0.000000 -0.000000 0.000000 
0.000000 0.000000 0.000000 
0.000000 0.000000 0.000000 

0.000000 0.000000 0.000000 
0.000000 -0.000000 0.000000 
0.000000 0.000000 0.000000 

0.000000 -0.000000 0.000000 
0.000000 0.000000 0.000000 
0.000000 0.000000 0.000000 

-0.000000 -0.000000 0.000000 
0.000000 0.000000 0.000000 
0.000000 0.000000 0.000000 

-0.000000 -0.000000 0.000000 
0.000000 0.000000 0.000000 
0.000000 0.000000 0.000000 

-0.000000 0.000000 0.000000 
0.000000 0.000000 0.000000 
0.000000 0.000000 0.000000 

0.000000 0.000000 0.000000 
0.000000 -0.000000 0.000000 
0.000000 0.000000 0.000000 

-0.000000 -0.000000 0.000000 
0.000000 -0.000000 0.000000 
0.000000 0.000000 0.000000 

-0.000000 -0.000000 0.000000 
0.000000 -0.000000 0.000000 
0.000000 0.000000 0.000000 

-0.000000 0.000000 0.000000 
0.000000 0.000000 0.000000 
0.000000 0.000000 0.000000 

-0.000000 -0.000000 0.000000 
0.000000 -0.000000 0.000000 
0.000000 0.000000 0.000000 

-0.000000 -0.000000 0.000000 
0.000000 0.000000 0.000000 
0.000000 0.000000 0.000000 

-0.000000 -0.000000 0.000000 
0.000000 0.000000 0.000000 
0.000000 0.000000 0.000000 

0.000000 0.000000 0.000000 
0.000000 -0.000000 0.000000 
0.000000 0.000000 0.000000 

0.000000 0.000000 0.000000 
0.000000 -0.000000 0.000000 
0.000000 0.000000 0.000000 

0.000000 0.000000 0.000000 
0.000000 -0.000000 0.000000 
0.000000 0.000000 0.000000 

0.000000 -0.000000 0.000000 
0.000000 0.000000 0.000000 
0.000000 0.000000 0.000000 

-0.000000 0.000000 0.000000 
0.000000 0.000000 0.000000 
0.000000 0.000000 0.000000 

-0.000000 -0.000000 0.000000 
0.000000 0.000000 0.000000 
0.000000 0.000000 0.000000 

-0.000000 -0.000000 0.000000 
0.000000 0.000000 0.000000 
0.000000 0.000000 0.000000 

-0.000000 -0.000000 0.000000 
0.000000 0.000000 0.000000 
0.000000 0.000000 0.000000 

-0.000000 -0.000000 0.000000 
0.000000 0.000000 0.000000 
0.000000 0.000000 0.000000 

0.000000 -0.000000 0.000000 
0.000000 0.000000 0.000000 
0.000000 0.000000 0.000000 

-0.000000 0.000000 0.000000 
0.000000 0.000000 0.000000 
0.000000 0.000000 0.000000 

-0.000000 0.000000 0.000000 
0.000000 0.000000 0.000000 
0.000000 0.000000 0.000000 

0.000000 0.000000 0.000000 
0.000000 -0.000000 0.000000 
0.000000 0.000000 0.000000 

-0.000000 -0.000000 0.000000 
0.000000 -0.000000 0.000000 
0.000000 0.000000 0.000000 

-0.000000 -0.000000 0.000000 
0.000000 0.000000 0.000000 
0.000000 0.000000 0.000000 

-0.000000 0.000000 0.000000 
0.000000 -0.000000 0.000000 
0.000000 0.000000 0.000000 

-0.000000 -0.000000 0.000000 
0.000000 -0.000000 0.000000 
0.000000 0.000000 0.000000 

-0.000000 0.000000 0.000000 
0.000000 -0.000000 0.000000 
0.000000 0.000000 0.000000 

0.000000 -0.000000 0.000000 
0.000000 -0.000000 0.000000 
0.000000 0.000000 0.000000 

0.000000 -0.000000 0.000000 
0.000000 -0.000000 0.000000 
0.000000 0.000000 0.000000 

-0.000000 -0.000000 0.000000 
0.000000 0.000000 0.000000 
0.000000 0.000000 0.000000 

-0.000000 -0.000000 0.000000 
0.000000 0.000000 0.000000 
0.000000 0.000000 0.000000 

-0.000000 0.000000 0.000000 
0.000000 0.000000 0.000000 
0.000000 0.000000 0.000000 

-0.000000 -0.000000 0.000000 
0.000000 0.000000 0.000000 
0.000000 0.000000 0.000000 

0.000000 0.000000 0.000000 
0.000000 0.000000 0.000000 
0.000000 0.000000 0.000000 

-0.000000 -0.000000 0.000000 
0.000000 -0.000000 0.000000 
0.000000 0.000000 0.000000 

0.000000 -0.000000 0.000000 
0.000000 -0.000000 0.000000 
0.000000 0.000000 0.000000 

-0.000000 0.000000 0.000000 
0.000000 -0.000000 0.000000 
0.000000 0.000000 0.000000 

-0.000000 0.000000 0.000000 
0.000000 -0.000000 0.000000 
0.000000 0.000000 0.000000 

-0.000000 0.000000 0.000000 
0.000000 0.000000 0.000000 
0.000000 0.000000 0.000000 

-0.000000 0.000000 0.000000 
0.000000 0.000000 0.000000 
0.000000 0.000000 0.000000 

0.000000 0.000000 0.000000 
0.000000 0.000000 0.000000 
0.000000 0.000000 0.000000 

0.000000 0.000000 0.000000 
0.000000 -0.000000 0.000000 
0.000000 0.000000 0.000000 

0.000000 -0.000000 0.000000 
0.000000 -0.000000 0.000000 
0.000000 0.000000 0.000000 

