# vtk DataFile Version 3.0 
vtk output 
ASCII 
DATASET UNSTRUCTURED_GRID 
POINTS 175 float 
-0.026061 -0.525377 0.000000 
-0.106992 -0.457322 0.000000 
-0.054870 -0.465554 0.000000 
-0.028809 -0.419671 0.000000 
-0.186430 -0.393246 0.000000 
-0.137056 -0.395772 0.000000 
-0.114311 -0.342125 0.000000 
-0.058186 -0.357791 0.000000 
-0.029377 -0.317614 0.000000 
-0.265318 -0.330090 0.000000 
-0.217198 -0.330890 0.000000 
-0.196633 -0.273594 0.000000 
-0.143120 -0.282302 0.000000 
-0.116563 -0.235034 0.000000 
-0.058945 -0.254679 0.000000 
-0.029568 -0.216559 0.000000 
-0.344206 -0.266935 0.000000 
-0.296791 -0.266928 0.000000 
-0.278030 -0.206985 0.000000 
-0.225992 -0.212851 0.000000 
-0.201664 -0.160734 0.000000 
-0.145749 -0.174208 0.000000 
-0.117890 -0.129865 0.000000 
-0.059328 -0.152571 0.000000 
-0.029759 -0.115505 0.000000 
-0.058559 -0.566128 0.000000 
-0.162226 -0.586971 0.000000 
-0.123292 -0.551353 0.000000 
-0.142917 -0.502370 0.000000 
-0.261851 -0.609127 0.000000 
-0.229092 -0.572100 0.000000 
-0.256854 -0.520868 0.000000 
-0.209613 -0.486756 0.000000 
-0.223062 -0.439182 0.000000 
-0.360414 -0.631427 0.000000 
-0.329787 -0.594304 0.000000 
-0.361761 -0.542502 0.000000 
-0.321587 -0.506093 0.000000 
-0.341985 -0.455859 0.000000 
-0.290702 -0.423060 0.000000 
-0.302189 -0.376325 0.000000 
-0.458977 -0.653727 0.000000 
-0.429420 -0.616653 0.000000 
-0.464588 -0.564611 0.000000 
-0.427556 -0.527583 0.000000 
-0.453135 -0.476068 0.000000 
-0.407738 -0.440753 0.000000 
-0.425037 -0.391325 0.000000 
-0.370772 -0.359696 0.000000 
-0.381315 -0.313469 0.000000 
-0.046960 -0.616943 0.000000 
-0.095301 -0.710989 0.000000 
-0.098873 -0.658342 0.000000 
-0.149405 -0.643144 0.000000 
-0.140093 -0.802693 0.000000 
-0.148617 -0.753995 0.000000 
-0.205981 -0.743758 0.000000 
-0.203197 -0.685554 0.000000 
-0.248777 -0.666408 0.000000 
-0.184111 -0.893657 0.000000 
-0.194039 -0.846566 0.000000 
-0.254475 -0.839266 0.000000 
-0.257893 -0.785156 0.000000 
-0.309886 -0.769784 0.000000 
-0.303554 -0.709239 0.000000 
-0.347255 -0.689081 0.000000 
-0.228129 -0.984620 0.000000 
-0.238687 -0.938396 0.000000 
-0.301302 -0.933444 0.000000 
-0.307162 -0.881405 0.000000 
-0.363386 -0.869284 0.000000 
-0.362692 -0.811773 0.000000 
-0.412122 -0.794480 0.000000 
-0.403017 -0.732333 0.000000 
-0.445733 -0.711754 0.000000 
-0.000000 -0.639558 0.000000 
0.043388 -0.735989 0.000000 
-0.000000 -0.705956 0.000000 
-0.043388 -0.735989 0.000000 
0.087158 -0.828185 0.000000 
0.043769 -0.804487 0.000000 
-0.000000 -0.842953 0.000000 
-0.043769 -0.804487 0.000000 
-0.087158 -0.828185 0.000000 
0.130831 -0.919315 0.000000 
0.087824 -0.897716 0.000000 
0.044436 -0.940416 0.000000 
-0.000000 -0.909351 0.000000 
-0.044436 -0.940416 0.000000 
-0.087824 -0.897716 0.000000 
-0.130831 -0.919315 0.000000 
0.174505 -1.010445 0.000000 
0.131782 -0.989879 0.000000 
0.088871 -1.035745 0.000000 
0.044532 -1.007881 0.000000 
-0.000000 -1.044282 0.000000 
-0.044532 -1.007881 0.000000 
-0.088871 -1.035745 0.000000 
-0.131782 -0.989879 0.000000 
-0.174505 -1.010445 0.000000 
0.046960 -0.616943 0.000000 
0.149405 -0.643144 0.000000 
0.098873 -0.658342 0.000000 
0.095301 -0.710989 0.000000 
0.248777 -0.666408 0.000000 
0.203197 -0.685554 0.000000 
0.205981 -0.743758 0.000000 
0.148617 -0.753995 0.000000 
0.140093 -0.802693 0.000000 
0.347255 -0.689081 0.000000 
0.303554 -0.709239 0.000000 
0.309886 -0.769784 0.000000 
0.257893 -0.785156 0.000000 
0.254475 -0.839266 0.000000 
0.194039 -0.846566 0.000000 
0.184111 -0.893657 0.000000 
0.445733 -0.711754 0.000000 
0.403017 -0.732333 0.000000 
0.412122 -0.794480 0.000000 
0.362692 -0.811773 0.000000 
0.363386 -0.869284 0.000000 
0.307162 -0.881405 0.000000 
0.301302 -0.933444 0.000000 
0.238687 -0.938396 0.000000 
0.228129 -0.984620 0.000000 
0.058559 -0.566128 0.000000 
0.142917 -0.502370 0.000000 
0.123292 -0.551353 0.000000 
0.162226 -0.586971 0.000000 
0.223062 -0.439182 0.000000 
0.209613 -0.486756 0.000000 
0.256854 -0.520868 0.000000 
0.229092 -0.572100 0.000000 
0.261851 -0.609127 0.000000 
0.302189 -0.376325 0.000000 
0.290702 -0.423060 0.000000 
0.341985 -0.455859 0.000000 
0.321587 -0.506093 0.000000 
0.361761 -0.542502 0.000000 
0.329787 -0.594304 0.000000 
0.360414 -0.631427 0.000000 
0.381315 -0.313469 0.000000 
0.370772 -0.359696 0.000000 
0.425037 -0.391325 0.000000 
0.407738 -0.440753 0.000000 
0.453135 -0.476068 0.000000 
0.427556 -0.527583 0.000000 
0.464588 -0.564611 0.000000 
0.429420 -0.616653 0.000000 
0.458977 -0.653727 0.000000 
0.026061 -0.525377 0.000000 
0.028809 -0.419671 0.000000 
0.054870 -0.465554 0.000000 
0.106992 -0.457322 0.000000 
0.029377 -0.317614 0.000000 
0.058186 -0.357791 0.000000 
0.114311 -0.342125 0.000000 
0.137056 -0.395772 0.000000 
0.186430 -0.393246 0.000000 
0.029568 -0.216559 0.000000 
0.058945 -0.254679 0.000000 
0.116563 -0.235034 0.000000 
0.143120 -0.282302 0.000000 
0.196633 -0.273594 0.000000 
0.217198 -0.330890 0.000000 
0.265318 -0.330090 0.000000 
0.029759 -0.115505 0.000000 
0.059328 -0.152571 0.000000 
0.117890 -0.129865 0.000000 
0.145749 -0.174208 0.000000 
0.201664 -0.160734 0.000000 
0.225992 -0.212851 0.000000 
0.278030 -0.206985 0.000000 
0.296791 -0.266928 0.000000 
0.344206 -0.266935 0.000000 
CELLS 175 350 
1 0 
1 1 
1 2 
1 3 
1 4 
1 5 
1 6 
1 7 
1 8 
1 9 
1 10 
1 11 
1 12 
1 13 
1 14 
1 15 
1 16 
1 17 
1 18 
1 19 
1 20 
1 21 
1 22 
1 23 
1 24 
1 25 
1 26 
1 27 
1 28 
1 29 
1 30 
1 31 
1 32 
1 33 
1 34 
1 35 
1 36 
1 37 
1 38 
1 39 
1 40 
1 41 
1 42 
1 43 
1 44 
1 45 
1 46 
1 47 
1 48 
1 49 
1 50 
1 51 
1 52 
1 53 
1 54 
1 55 
1 56 
1 57 
1 58 
1 59 
1 60 
1 61 
1 62 
1 63 
1 64 
1 65 
1 66 
1 67 
1 68 
1 69 
1 70 
1 71 
1 72 
1 73 
1 74 
1 75 
1 76 
1 77 
1 78 
1 79 
1 80 
1 81 
1 82 
1 83 
1 84 
1 85 
1 86 
1 87 
1 88 
1 89 
1 90 
1 91 
1 92 
1 93 
1 94 
1 95 
1 96 
1 97 
1 98 
1 99 
1 100 
1 101 
1 102 
1 103 
1 104 
1 105 
1 106 
1 107 
1 108 
1 109 
1 110 
1 111 
1 112 
1 113 
1 114 
1 115 
1 116 
1 117 
1 118 
1 119 
1 120 
1 121 
1 122 
1 123 
1 124 
1 125 
1 126 
1 127 
1 128 
1 129 
1 130 
1 131 
1 132 
1 133 
1 134 
1 135 
1 136 
1 137 
1 138 
1 139 
1 140 
1 141 
1 142 
1 143 
1 144 
1 145 
1 146 
1 147 
1 148 
1 149 
1 150 
1 151 
1 152 
1 153 
1 154 
1 155 
1 156 
1 157 
1 158 
1 159 
1 160 
1 161 
1 162 
1 163 
1 164 
1 165 
1 166 
1 167 
1 168 
1 169 
1 170 
1 171 
1 172 
1 173 
1 174 
CELL_TYPES 175 
1 
1 
1 
1 
1 
1 
1 
1 
1 
1 
1 
1 
1 
1 
1 
1 
1 
1 
1 
1 
1 
1 
1 
1 
1 
1 
1 
1 
1 
1 
1 
1 
1 
1 
1 
1 
1 
1 
1 
1 
1 
1 
1 
1 
1 
1 
1 
1 
1 
1 
1 
1 
1 
1 
1 
1 
1 
1 
1 
1 
1 
1 
1 
1 
1 
1 
1 
1 
1 
1 
1 
1 
1 
1 
1 
1 
1 
1 
1 
1 
1 
1 
1 
1 
1 
1 
1 
1 
1 
1 
1 
1 
1 
1 
1 
1 
1 
1 
1 
1 
1 
1 
1 
1 
1 
1 
1 
1 
1 
1 
1 
1 
1 
1 
1 
1 
1 
1 
1 
1 
1 
1 
1 
1 
1 
1 
1 
1 
1 
1 
1 
1 
1 
1 
1 
1 
1 
1 
1 
1 
1 
1 
1 
1 
1 
1 
1 
1 
1 
1 
1 
1 
1 
1 
1 
1 
1 
1 
1 
1 
1 
1 
1 
1 
1 
1 
1 
1 
1 
1 
1 
1 
1 
1 
1 
POINT_DATA 175 
VECTORS X_GC float 
-0.026061 -0.525377 0.000000 
-0.106992 -0.457322 0.000000 
-0.054870 -0.465554 0.000000 
-0.028809 -0.419671 0.000000 
-0.186430 -0.393246 0.000000 
-0.137056 -0.395772 0.000000 
-0.114311 -0.342125 0.000000 
-0.058186 -0.357791 0.000000 
-0.029377 -0.317614 0.000000 
-0.265318 -0.330090 0.000000 
-0.217198 -0.330890 0.000000 
-0.196633 -0.273594 0.000000 
-0.143120 -0.282302 0.000000 
-0.116563 -0.235034 0.000000 
-0.058945 -0.254679 0.000000 
-0.029568 -0.216559 0.000000 
-0.344206 -0.266935 0.000000 
-0.296791 -0.266928 0.000000 
-0.278030 -0.206985 0.000000 
-0.225992 -0.212851 0.000000 
-0.201664 -0.160734 0.000000 
-0.145749 -0.174208 0.000000 
-0.117890 -0.129865 0.000000 
-0.059328 -0.152571 0.000000 
-0.029759 -0.115505 0.000000 
-0.058559 -0.566128 0.000000 
-0.162226 -0.586971 0.000000 
-0.123292 -0.551353 0.000000 
-0.142917 -0.502370 0.000000 
-0.261851 -0.609127 0.000000 
-0.229092 -0.572100 0.000000 
-0.256854 -0.520868 0.000000 
-0.209613 -0.486756 0.000000 
-0.223062 -0.439182 0.000000 
-0.360414 -0.631427 0.000000 
-0.329787 -0.594304 0.000000 
-0.361761 -0.542502 0.000000 
-0.321587 -0.506093 0.000000 
-0.341985 -0.455859 0.000000 
-0.290702 -0.423060 0.000000 
-0.302189 -0.376325 0.000000 
-0.458977 -0.653727 0.000000 
-0.429420 -0.616653 0.000000 
-0.464588 -0.564611 0.000000 
-0.427556 -0.527583 0.000000 
-0.453135 -0.476068 0.000000 
-0.407738 -0.440753 0.000000 
-0.425037 -0.391325 0.000000 
-0.370772 -0.359696 0.000000 
-0.381315 -0.313469 0.000000 
-0.046960 -0.616943 0.000000 
-0.095301 -0.710989 0.000000 
-0.098873 -0.658342 0.000000 
-0.149405 -0.643144 0.000000 
-0.140093 -0.802693 0.000000 
-0.148617 -0.753995 0.000000 
-0.205981 -0.743758 0.000000 
-0.203197 -0.685554 0.000000 
-0.248777 -0.666408 0.000000 
-0.184111 -0.893657 0.000000 
-0.194039 -0.846566 0.000000 
-0.254475 -0.839266 0.000000 
-0.257893 -0.785156 0.000000 
-0.309886 -0.769784 0.000000 
-0.303554 -0.709239 0.000000 
-0.347255 -0.689081 0.000000 
-0.228129 -0.984620 0.000000 
-0.238687 -0.938396 0.000000 
-0.301302 -0.933444 0.000000 
-0.307162 -0.881405 0.000000 
-0.363386 -0.869284 0.000000 
-0.362692 -0.811773 0.000000 
-0.412122 -0.794480 0.000000 
-0.403017 -0.732333 0.000000 
-0.445733 -0.711754 0.000000 
-0.000000 -0.639558 0.000000 
0.043388 -0.735989 0.000000 
-0.000000 -0.705956 0.000000 
-0.043388 -0.735989 0.000000 
0.087158 -0.828185 0.000000 
0.043769 -0.804487 0.000000 
-0.000000 -0.842953 0.000000 
-0.043769 -0.804487 0.000000 
-0.087158 -0.828185 0.000000 
0.130831 -0.919315 0.000000 
0.087824 -0.897716 0.000000 
0.044436 -0.940416 0.000000 
-0.000000 -0.909351 0.000000 
-0.044436 -0.940416 0.000000 
-0.087824 -0.897716 0.000000 
-0.130831 -0.919315 0.000000 
0.174505 -1.010445 0.000000 
0.131782 -0.989879 0.000000 
0.088871 -1.035745 0.000000 
0.044532 -1.007881 0.000000 
-0.000000 -1.044282 0.000000 
-0.044532 -1.007881 0.000000 
-0.088871 -1.035745 0.000000 
-0.131782 -0.989879 0.000000 
-0.174505 -1.010445 0.000000 
0.046960 -0.616943 0.000000 
0.149405 -0.643144 0.000000 
0.098873 -0.658342 0.000000 
0.095301 -0.710989 0.000000 
0.248777 -0.666408 0.000000 
0.203197 -0.685554 0.000000 
0.205981 -0.743758 0.000000 
0.148617 -0.753995 0.000000 
0.140093 -0.802693 0.000000 
0.347255 -0.689081 0.000000 
0.303554 -0.709239 0.000000 
0.309886 -0.769784 0.000000 
0.257893 -0.785156 0.000000 
0.254475 -0.839266 0.000000 
0.194039 -0.846566 0.000000 
0.184111 -0.893657 0.000000 
0.445733 -0.711754 0.000000 
0.403017 -0.732333 0.000000 
0.412122 -0.794480 0.000000 
0.362692 -0.811773 0.000000 
0.363386 -0.869284 0.000000 
0.307162 -0.881405 0.000000 
0.301302 -0.933444 0.000000 
0.238687 -0.938396 0.000000 
0.228129 -0.984620 0.000000 
0.058559 -0.566128 0.000000 
0.142917 -0.502370 0.000000 
0.123292 -0.551353 0.000000 
0.162226 -0.586971 0.000000 
0.223062 -0.439182 0.000000 
0.209613 -0.486756 0.000000 
0.256854 -0.520868 0.000000 
0.229092 -0.572100 0.000000 
0.261851 -0.609127 0.000000 
0.302189 -0.376325 0.000000 
0.290702 -0.423060 0.000000 
0.341985 -0.455859 0.000000 
0.321587 -0.506093 0.000000 
0.361761 -0.542502 0.000000 
0.329787 -0.594304 0.000000 
0.360414 -0.631427 0.000000 
0.381315 -0.313469 0.000000 
0.370772 -0.359696 0.000000 
0.425037 -0.391325 0.000000 
0.407738 -0.440753 0.000000 
0.453135 -0.476068 0.000000 
0.427556 -0.527583 0.000000 
0.464588 -0.564611 0.000000 
0.429420 -0.616653 0.000000 
0.458977 -0.653727 0.000000 
0.026061 -0.525377 0.000000 
0.028809 -0.419671 0.000000 
0.054870 -0.465554 0.000000 
0.106992 -0.457322 0.000000 
0.029377 -0.317614 0.000000 
0.058186 -0.357791 0.000000 
0.114311 -0.342125 0.000000 
0.137056 -0.395772 0.000000 
0.186430 -0.393246 0.000000 
0.029568 -0.216559 0.000000 
0.058945 -0.254679 0.000000 
0.116563 -0.235034 0.000000 
0.143120 -0.282302 0.000000 
0.196633 -0.273594 0.000000 
0.217198 -0.330890 0.000000 
0.265318 -0.330090 0.000000 
0.029759 -0.115505 0.000000 
0.059328 -0.152571 0.000000 
0.117890 -0.129865 0.000000 
0.145749 -0.174208 0.000000 
0.201664 -0.160734 0.000000 
0.225992 -0.212851 0.000000 
0.278030 -0.206985 0.000000 
0.296791 -0.266928 0.000000 
0.344206 -0.266935 0.000000 
VECTORS X_EC float 
0.338794 -0.407407 0.000000 
-0.609100 0.673844 0.000000 
0.713312 0.784985 0.000000 
0.374519 0.165555 0.000000 
0.423588 -0.191175 0.000000 
-0.218274 -0.157072 0.000000 
-0.513962 -0.881310 0.000000 
0.756418 -0.669824 0.000000 
0.381900 0.787783 0.000000 
-0.550868 0.956222 0.000000 
0.823577 0.967017 0.000000 
0.556234 0.193513 0.000000 
-0.139443 0.311082 0.000000 
-0.484677 -0.327043 0.000000 
0.766286 -0.061827 0.000000 
0.384386 -0.576448 0.000000 
0.474677 0.103619 0.000000 
-0.141715 0.103522 0.000000 
-0.385608 -0.705706 0.000000 
0.937896 -0.626510 0.000000 
0.621631 0.669909 0.000000 
-0.105264 0.851809 0.000000 
-0.467428 0.253182 0.000000 
0.771260 0.559711 0.000000 
0.386873 0.059321 0.000000 
0.761262 0.142727 0.000000 
0.108942 0.424104 0.000000 
-0.397202 -0.056736 0.000000 
-0.142083 -0.718011 0.000000 
-0.595936 0.723214 0.000000 
0.978194 0.223348 0.000000 
-0.660903 -0.468277 0.000000 
0.724964 -0.928797 0.000000 
0.899809 0.428955 0.000000 
0.685384 -0.975733 0.000000 
0.287229 0.523108 0.000000 
0.702895 -0.176220 0.000000 
0.180633 -0.667739 0.000000 
0.445811 0.654101 0.000000 
-0.220880 0.211315 0.000000 
-0.071546 -0.419610 0.000000 
-0.033296 -0.674681 0.000000 
-0.417537 0.824809 0.000000 
0.039645 0.122247 0.000000 
-0.441768 -0.377625 0.000000 
-0.109248 0.926925 0.000000 
-0.699407 0.450169 0.000000 
-0.474522 -0.217110 0.000000 
0.820030 -0.644103 0.000000 
0.957100 0.731825 0.000000 
0.610485 0.828733 0.000000 
-0.761092 0.098353 0.000000 
-0.714655 -0.612385 0.000000 
-0.057734 -0.817552 0.000000 
-0.178789 -0.663643 0.000000 
-0.067979 0.678931 0.000000 
0.677748 0.540727 0.000000 
0.641556 -0.245018 0.000000 
-0.765897 -0.503496 0.000000 
0.393446 0.564366 0.000000 
0.522510 -0.071364 0.000000 
-0.691820 -0.169908 0.000000 
-0.647393 -0.900391 0.000000 
0.028512 0.892083 0.000000 
-0.053800 0.074722 0.000000 
0.514316 -0.197409 0.000000 
0.965681 -0.207625 0.000000 
-0.897068 -0.831654 0.000000 
-0.083078 -0.898507 0.000000 
-0.006893 0.398969 0.000000 
0.724017 0.235336 0.000000 
0.714996 -0.541068 0.000000 
-0.642413 -0.774525 0.000000 
-0.760780 0.386494 0.000000 
-0.205471 0.108679 0.000000 
0.000000 -0.865965 0.000000 
-0.564049 0.435848 0.000000 
0.000000 0.030412 0.000000 
0.564049 0.435848 0.000000 
0.866949 -0.319497 0.000000 
-0.569003 -0.639428 0.000000 
0.000000 -0.120140 0.000000 
0.569003 -0.639428 0.000000 
-0.866949 -0.319497 0.000000 
0.299194 0.910753 0.000000 
0.858290 0.619169 0.000000 
-0.577662 -0.804385 0.000000 
0.000000 0.776237 0.000000 
0.577662 -0.804385 0.000000 
-0.858290 0.619169 0.000000 
-0.299194 0.910753 0.000000 
-0.268560 0.141003 0.000000 
0.286830 -0.136638 0.000000 
0.844677 0.482560 0.000000 
-0.578910 0.106397 0.000000 
0.000000 0.597801 0.000000 
0.578910 0.106397 0.000000 
-0.844677 0.482560 0.000000 
-0.286830 -0.136638 0.000000 
0.268560 0.141003 0.000000 
-0.610485 0.828733 0.000000 
0.057734 -0.817552 0.000000 
0.714655 -0.612385 0.000000 
0.761092 0.098353 0.000000 
0.765897 -0.503496 0.000000 
-0.641556 -0.245018 0.000000 
-0.677748 0.540727 0.000000 
0.067979 0.678931 0.000000 
0.178789 -0.663643 0.000000 
-0.514316 -0.197409 0.000000 
0.053800 0.074722 0.000000 
-0.028512 0.892083 0.000000 
0.647393 -0.900391 0.000000 
0.691820 -0.169908 0.000000 
-0.522510 -0.071364 0.000000 
-0.393446 0.564366 0.000000 
0.205471 0.108679 0.000000 
0.760780 0.386494 0.000000 
0.642413 -0.774525 0.000000 
-0.714996 -0.541068 0.000000 
-0.724017 0.235336 0.000000 
0.006894 0.398969 0.000000 
0.083078 -0.898507 0.000000 
0.897068 -0.831654 0.000000 
-0.965681 -0.207625 0.000000 
-0.761262 0.142727 0.000000 
0.142083 -0.718011 0.000000 
0.397202 -0.056736 0.000000 
-0.108942 0.424104 0.000000 
-0.899809 0.428955 0.000000 
-0.724964 -0.928797 0.000000 
0.660903 -0.468277 0.000000 
-0.978194 0.223348 0.000000 
0.595936 0.723214 0.000000 
0.071546 -0.419610 0.000000 
0.220880 0.211315 0.000000 
-0.445811 0.654101 0.000000 
-0.180633 -0.667739 0.000000 
-0.702895 -0.176220 0.000000 
-0.287229 0.523108 0.000000 
-0.685384 -0.975733 0.000000 
-0.957100 0.731825 0.000000 
-0.820030 -0.644103 0.000000 
0.474522 -0.217110 0.000000 
0.699407 0.450169 0.000000 
0.109248 0.926925 0.000000 
0.441768 -0.377624 0.000000 
-0.039645 0.122247 0.000000 
0.417537 0.824809 0.000000 
0.033296 -0.674681 0.000000 
-0.338794 -0.407407 0.000000 
-0.374519 0.165555 0.000000 
-0.713312 0.784985 0.000000 
0.609100 0.673844 0.000000 
-0.381900 0.787783 0.000000 
-0.756418 -0.669824 0.000000 
0.513962 -0.881310 0.000000 
0.218274 -0.157072 0.000000 
-0.423588 -0.191175 0.000000 
-0.384386 -0.576448 0.000000 
-0.766286 -0.061827 0.000000 
0.484677 -0.327043 0.000000 
0.139443 0.311082 0.000000 
-0.556234 0.193513 0.000000 
-0.823577 0.967017 0.000000 
0.550868 0.956222 0.000000 
-0.386873 0.059321 0.000000 
-0.771260 0.559711 0.000000 
0.467428 0.253182 0.000000 
0.105264 0.851809 0.000000 
-0.621631 0.669909 0.000000 
-0.937896 -0.626510 0.000000 
0.385608 -0.705706 0.000000 
0.141715 0.103522 0.000000 
-0.474677 0.103619 0.000000 
CELL_DATA 175 
SCALARS MASS float 
LOOKUP_TABLE default 
0.078183 
0.086427 
0.094672 
0.086427 
0.088131 
0.092111 
0.085854 
0.092111 
0.088131 
0.088705 
0.091000 
0.086983 
0.091556 
0.086983 
0.091000 
0.088705 
0.089278 
0.091574 
0.089278 
0.092722 
0.089278 
0.092722 
0.089278 
0.091574 
0.089278 
0.078183 
0.086427 
0.094672 
0.086427 
0.088131 
0.092111 
0.085854 
0.092111 
0.088131 
0.088705 
0.091000 
0.086983 
0.091556 
0.086983 
0.091000 
0.088705 
0.089278 
0.091574 
0.089278 
0.092722 
0.089278 
0.092722 
0.089278 
0.091574 
0.089278 
0.078183 
0.086427 
0.094672 
0.086427 
0.088131 
0.092111 
0.085854 
0.092111 
0.088131 
0.088705 
0.091000 
0.086983 
0.091556 
0.086983 
0.091000 
0.088705 
0.089278 
0.091574 
0.089278 
0.092722 
0.089278 
0.092722 
0.089278 
0.091574 
0.089278 
0.078183 
0.086427 
0.094672 
0.086427 
0.088131 
0.092111 
0.085854 
0.092111 
0.088131 
0.088705 
0.091000 
0.086983 
0.091556 
0.086983 
0.091000 
0.088705 
0.089278 
0.091574 
0.089278 
0.092722 
0.089278 
0.092722 
0.089278 
0.091574 
0.089278 
0.078183 
0.086427 
0.094672 
0.086427 
0.088131 
0.092111 
0.085854 
0.092111 
0.088131 
0.088705 
0.091000 
0.086983 
0.091556 
0.086983 
0.091000 
0.088705 
0.089278 
0.091574 
0.089278 
0.092722 
0.089278 
0.092722 
0.089278 
0.091574 
0.089278 
0.078183 
0.086427 
0.094672 
0.086427 
0.088131 
0.092111 
0.085854 
0.092111 
0.088131 
0.088705 
0.091000 
0.086983 
0.091556 
0.086983 
0.091000 
0.088705 
0.089278 
0.091574 
0.089278 
0.092722 
0.089278 
0.092722 
0.089278 
0.091574 
0.089278 
0.078183 
0.086427 
0.094672 
0.086427 
0.088131 
0.092111 
0.085854 
0.092111 
0.088131 
0.088705 
0.091000 
0.086983 
0.091556 
0.086983 
0.091000 
0.088705 
0.089278 
0.091574 
0.089278 
0.092722 
0.089278 
0.092722 
0.089278 
0.091574 
0.089278 
SCALARS MASS float 
LOOKUP_TABLE default 
0.078183 
0.086427 
0.094672 
0.086427 
0.088131 
0.092111 
0.085854 
0.092111 
0.088131 
0.088705 
0.091000 
0.086983 
0.091556 
0.086983 
0.091000 
0.088705 
0.089278 
0.091574 
0.089278 
0.092722 
0.089278 
0.092722 
0.089278 
0.091574 
0.089278 
0.078183 
0.086427 
0.094672 
0.086427 
0.088131 
0.092111 
0.085854 
0.092111 
0.088131 
0.088705 
0.091000 
0.086983 
0.091556 
0.086983 
0.091000 
0.088705 
0.089278 
0.091574 
0.089278 
0.092722 
0.089278 
0.092722 
0.089278 
0.091574 
0.089278 
0.078183 
0.086427 
0.094672 
0.086427 
0.088131 
0.092111 
0.085854 
0.092111 
0.088131 
0.088705 
0.091000 
0.086983 
0.091556 
0.086983 
0.091000 
0.088705 
0.089278 
0.091574 
0.089278 
0.092722 
0.089278 
0.092722 
0.089278 
0.091574 
0.089278 
0.078183 
0.086427 
0.094672 
0.086427 
0.088131 
0.092111 
0.085854 
0.092111 
0.088131 
0.088705 
0.091000 
0.086983 
0.091556 
0.086983 
0.091000 
0.088705 
0.089278 
0.091574 
0.089278 
0.092722 
0.089278 
0.092722 
0.089278 
0.091574 
0.089278 
0.078183 
0.086427 
0.094672 
0.086427 
0.088131 
0.092111 
0.085854 
0.092111 
0.088131 
0.088705 
0.091000 
0.086983 
0.091556 
0.086983 
0.091000 
0.088705 
0.089278 
0.091574 
0.089278 
0.092722 
0.089278 
0.092722 
0.089278 
0.091574 
0.089278 
0.078183 
0.086427 
0.094672 
0.086427 
0.088131 
0.092111 
0.085854 
0.092111 
0.088131 
0.088705 
0.091000 
0.086983 
0.091556 
0.086983 
0.091000 
0.088705 
0.089278 
0.091574 
0.089278 
0.092722 
0.089278 
0.092722 
0.089278 
0.091574 
0.089278 
0.078183 
0.086427 
0.094672 
0.086427 
0.088131 
0.092111 
0.085854 
0.092111 
0.088131 
0.088705 
0.091000 
0.086983 
0.091556 
0.086983 
0.091000 
0.088705 
0.089278 
0.091574 
0.089278 
0.092722 
0.089278 
0.092722 
0.089278 
0.091574 
0.089278 
SCALARS DENSITY float 
LOOKUP_TABLE default 
20.000000 
20.000000 
20.000000 
20.000000 
20.000000 
20.000000 
20.000000 
20.000000 
20.000000 
20.000000 
20.000000 
20.000000 
20.000000 
20.000000 
20.000000 
20.000000 
20.000000 
20.000000 
20.000000 
20.000000 
20.000000 
20.000000 
20.000000 
20.000000 
20.000000 
20.000000 
20.000000 
20.000000 
20.000000 
20.000000 
20.000000 
20.000000 
20.000000 
20.000000 
20.000000 
20.000000 
20.000000 
20.000000 
20.000000 
20.000000 
20.000000 
20.000000 
20.000000 
20.000000 
20.000000 
20.000000 
20.000000 
20.000000 
20.000000 
20.000000 
20.000000 
20.000000 
20.000000 
20.000000 
20.000000 
20.000000 
20.000000 
20.000000 
20.000000 
20.000000 
20.000000 
20.000000 
20.000000 
20.000000 
20.000000 
20.000000 
20.000000 
20.000000 
20.000000 
20.000000 
20.000000 
20.000000 
20.000000 
20.000000 
20.000000 
20.000000 
20.000000 
20.000000 
20.000000 
20.000000 
20.000000 
20.000000 
20.000000 
20.000000 
20.000000 
20.000000 
20.000000 
20.000000 
20.000000 
20.000000 
20.000000 
20.000000 
20.000000 
20.000000 
20.000000 
20.000000 
20.000000 
20.000000 
20.000000 
20.000000 
20.000000 
20.000000 
20.000000 
20.000000 
20.000000 
20.000000 
20.000000 
20.000000 
20.000000 
20.000000 
20.000000 
20.000000 
20.000000 
20.000000 
20.000000 
20.000000 
20.000000 
20.000000 
20.000000 
20.000000 
20.000000 
20.000000 
20.000000 
20.000000 
20.000000 
20.000000 
20.000000 
20.000000 
20.000000 
20.000000 
20.000000 
20.000000 
20.000000 
20.000000 
20.000000 
20.000000 
20.000000 
20.000000 
20.000000 
20.000000 
20.000000 
20.000000 
20.000000 
20.000000 
20.000000 
20.000000 
20.000000 
20.000000 
20.000000 
20.000000 
20.000000 
20.000000 
20.000000 
20.000000 
20.000000 
20.000000 
20.000000 
20.000000 
20.000000 
20.000000 
20.000000 
20.000000 
20.000000 
20.000000 
20.000000 
20.000000 
20.000000 
20.000000 
20.000000 
20.000000 
20.000000 
20.000000 
20.000000 
20.000000 
20.000000 
SCALARS ELEM_i float 
LOOKUP_TABLE default 
178 
206 
179 
179 
206 
206 
206 
179 
180 
234 
207 
207 
207 
207 
180 
180 
234 
234 
234 
207 
208 
208 
208 
181 
181 
178 
205 
205 
205 
232 
205 
232 
205 
206 
231 
232 
232 
232 
233 
233 
233 
258 
259 
259 
259 
260 
260 
260 
233 
234 
178 
204 
204 
204 
203 
204 
204 
204 
231 
203 
203 
230 
230 
231 
231 
231 
202 
229 
229 
230 
230 
230 
257 
258 
258 
177 
177 
177 
177 
149 
176 
176 
176 
203 
149 
149 
175 
176 
175 
203 
203 
148 
148 
148 
175 
175 
175 
202 
202 
202 
178 
150 
150 
150 
123 
150 
150 
150 
149 
123 
123 
123 
122 
122 
149 
149 
96 
96 
95 
122 
122 
122 
121 
121 
148 
178 
151 
151 
151 
152 
151 
124 
151 
124 
125 
125 
125 
124 
124 
124 
123 
126 
125 
98 
98 
98 
97 
97 
97 
96 
178 
179 
179 
152 
180 
179 
152 
152 
152 
180 
180 
153 
153 
153 
153 
126 
181 
181 
154 
154 
154 
153 
126 
126 
126 
VECTORS VELOCITY float 
-0.000000 -3.371501 0.000000 
0.000000 -3.371501 0.000000 
0.000000 -3.371501 0.000000 
0.000000 -3.371501 0.000000 
0.000000 -3.371501 0.000000 
0.000000 -3.371501 0.000000 
0.000000 -3.371501 0.000000 
0.000000 -3.371501 0.000000 
0.000000 -3.371501 0.000000 
0.000000 -3.371501 0.000000 
0.000000 -3.371501 0.000000 
-0.000000 -3.371501 0.000000 
0.000000 -3.371501 0.000000 
0.000000 -3.371501 0.000000 
0.000000 -3.371501 0.000000 
0.000000 -3.371501 0.000000 
-0.000000 -3.371501 0.000000 
-0.000000 -3.371501 0.000000 
0.000000 -3.371501 0.000000 
-0.000000 -3.371501 0.000000 
0.000000 -3.371501 0.000000 
0.000000 -3.371501 0.000000 
-0.000000 -3.371501 0.000000 
-0.000000 -3.371501 0.000000 
0.000000 -3.371501 0.000000 
-0.000000 -3.371501 0.000000 
-0.000000 -3.371501 0.000000 
-0.000000 -3.371501 0.000000 
-0.000000 -3.371501 0.000000 
-0.000000 -3.371501 0.000000 
-0.000000 -3.371501 0.000000 
-0.000000 -3.371501 0.000000 
-0.000000 -3.371501 0.000000 
-0.000000 -3.371501 0.000000 
-0.000000 -3.371501 0.000000 
-0.000000 -3.371501 0.000000 
-0.000000 -3.371501 0.000000 
-0.000000 -3.371501 0.000000 
0.000000 -3.371501 0.000000 
0.000000 -3.371501 0.000000 
0.000000 -3.371501 0.000000 
0.000000 -3.371501 0.000000 
0.000000 -3.371501 0.000000 
-0.000000 -3.371501 0.000000 
-0.000000 -3.371501 0.000000 
-0.000000 -3.371501 0.000000 
0.000000 -3.371501 0.000000 
0.000000 -3.371501 0.000000 
0.000000 -3.371501 0.000000 
-0.000000 -3.371501 0.000000 
-0.000000 -3.371501 0.000000 
-0.000000 -3.371501 0.000000 
-0.000000 -3.371501 0.000000 
-0.000000 -3.371501 0.000000 
-0.000000 -3.371501 0.000000 
-0.000000 -3.371501 0.000000 
0.000000 -3.371501 0.000000 
-0.000000 -3.371501 0.000000 
-0.000000 -3.371501 0.000000 
-0.000000 -3.371501 0.000000 
0.000000 -3.371501 0.000000 
0.000000 -3.371501 0.000000 
0.000000 -3.371501 0.000000 
0.000000 -3.371501 0.000000 
0.000000 -3.371501 0.000000 
0.000000 -3.371501 0.000000 
-0.000000 -3.371501 0.000000 
-0.000000 -3.371501 0.000000 
0.000000 -3.371501 0.000000 
-0.000000 -3.371501 0.000000 
-0.000000 -3.371501 0.000000 
-0.000000 -3.371501 0.000000 
-0.000000 -3.371501 0.000000 
0.000000 -3.371501 0.000000 
0.000000 -3.371501 0.000000 
0.000000 -3.371501 0.000000 
0.000000 -3.371501 0.000000 
-0.000000 -3.371501 0.000000 
-0.000000 -3.371501 0.000000 
0.000000 -3.371501 0.000000 
0.000000 -3.371501 0.000000 
0.000000 -3.371501 0.000000 
-0.000000 -3.371501 0.000000 
-0.000000 -3.371501 0.000000 
-0.000000 -3.371501 0.000000 
0.000000 -3.371501 0.000000 
0.000000 -3.371501 0.000000 
-0.000000 -3.371501 0.000000 
0.000000 -3.371501 0.000000 
-0.000000 -3.371501 0.000000 
-0.000000 -3.371501 0.000000 
-0.000000 -3.371501 0.000000 
0.000000 -3.371501 0.000000 
0.000000 -3.371501 0.000000 
0.000000 -3.371501 0.000000 
0.000000 -3.371501 0.000000 
0.000000 -3.371501 0.000000 
0.000000 -3.371501 0.000000 
-0.000000 -3.371501 0.000000 
0.000000 -3.371501 0.000000 
-0.000000 -3.371501 0.000000 
0.000000 -3.371501 0.000000 
0.000000 -3.371501 0.000000 
0.000000 -3.371501 0.000000 
0.000000 -3.371501 0.000000 
0.000000 -3.371501 0.000000 
-0.000000 -3.371501 0.000000 
0.000000 -3.371501 0.000000 
0.000000 -3.371501 0.000000 
0.000000 -3.371501 0.000000 
0.000000 -3.371501 0.000000 
-0.000000 -3.371501 0.000000 
-0.000000 -3.371501 0.000000 
-0.000000 -3.371501 0.000000 
-0.000000 -3.371501 0.000000 
-0.000000 -3.371501 0.000000 
0.000000 -3.371501 0.000000 
0.000000 -3.371501 0.000000 
-0.000000 -3.371501 0.000000 
-0.000000 -3.371501 0.000000 
-0.000000 -3.371501 0.000000 
-0.000000 -3.371501 0.000000 
0.000000 -3.371501 0.000000 
0.000000 -3.371501 0.000000 
0.000000 -3.371501 0.000000 
-0.000000 -3.371501 0.000000 
-0.000000 -3.371501 0.000000 
0.000000 -3.371501 0.000000 
0.000000 -3.371501 0.000000 
-0.000000 -3.371501 0.000000 
-0.000000 -3.371501 0.000000 
0.000000 -3.371501 0.000000 
0.000000 -3.371501 0.000000 
0.000000 -3.371501 0.000000 
-0.000000 -3.371501 0.000000 
-0.000000 -3.371501 0.000000 
0.000000 -3.371501 0.000000 
0.000000 -3.371501 0.000000 
0.000000 -3.371501 0.000000 
0.000000 -3.371501 0.000000 
0.000000 -3.371501 0.000000 
-0.000000 -3.371501 0.000000 
-0.000000 -3.371501 0.000000 
0.000000 -3.371501 0.000000 
0.000000 -3.371501 0.000000 
-0.000000 -3.371501 0.000000 
-0.000000 -3.371501 0.000000 
-0.000000 -3.371501 0.000000 
-0.000000 -3.371501 0.000000 
-0.000000 -3.371501 0.000000 
-0.000000 -3.371501 0.000000 
0.000000 -3.371501 0.000000 
-0.000000 -3.371501 0.000000 
-0.000000 -3.371501 0.000000 
0.000000 -3.371501 0.000000 
0.000000 -3.371501 0.000000 
0.000000 -3.371501 0.000000 
-0.000000 -3.371501 0.000000 
-0.000000 -3.371501 0.000000 
0.000000 -3.371501 0.000000 
0.000000 -3.371501 0.000000 
0.000000 -3.371501 0.000000 
0.000000 -3.371501 0.000000 
0.000000 -3.371501 0.000000 
-0.000000 -3.371501 0.000000 
-0.000000 -3.371501 0.000000 
-0.000000 -3.371501 0.000000 
-0.000000 -3.371501 0.000000 
-0.000000 -3.371501 0.000000 
0.000000 -3.371501 0.000000 
0.000000 -3.371501 0.000000 
0.000000 -3.371501 0.000000 
0.000000 -3.371501 0.000000 
-0.000000 -3.371501 0.000000 
-0.000000 -3.371501 0.000000 
TENSORS STRESS float 
0.000000 -0.000000 0.000000 
0.000000 0.000000 0.000000 
0.000000 0.000000 0.000000 

0.000000 -0.000000 0.000000 
0.000000 0.000000 0.000000 
0.000000 0.000000 0.000000 

-0.000000 0.000000 0.000000 
0.000000 -0.000000 0.000000 
0.000000 0.000000 0.000000 

-0.000000 0.000000 0.000000 
0.000000 -0.000000 0.000000 
0.000000 0.000000 0.000000 

-0.000000 0.000000 0.000000 
0.000000 -0.000000 0.000000 
0.000000 0.000000 0.000000 

0.000000 0.000000 0.000000 
0.000000 0.000000 0.000000 
0.000000 0.000000 0.000000 

-0.000000 0.000000 0.000000 
0.000000 -0.000000 0.000000 
0.000000 0.000000 0.000000 

-0.000000 0.000000 0.000000 
0.000000 0.000000 0.000000 
0.000000 0.000000 0.000000 

-0.000000 -0.000000 0.000000 
0.000000 -0.000000 0.000000 
0.000000 0.000000 0.000000 

0.000000 -0.000000 0.000000 
0.000000 -0.000000 0.000000 
0.000000 0.000000 0.000000 

-0.000000 -0.000000 0.000000 
0.000000 -0.000000 0.000000 
0.000000 0.000000 0.000000 

0.000000 0.000000 0.000000 
0.000000 0.000000 0.000000 
0.000000 0.000000 0.000000 

0.000000 -0.000000 0.000000 
0.000000 0.000000 0.000000 
0.000000 0.000000 0.000000 

0.000000 -0.000000 0.000000 
0.000000 0.000000 0.000000 
0.000000 0.000000 0.000000 

-0.000000 -0.000000 0.000000 
0.000000 -0.000000 0.000000 
0.000000 0.000000 0.000000 

-0.000000 -0.000000 0.000000 
0.000000 -0.000000 0.000000 
0.000000 0.000000 0.000000 

-0.000000 0.000000 0.000000 
0.000000 0.000000 0.000000 
0.000000 0.000000 0.000000 

-0.000000 0.000000 0.000000 
0.000000 0.000000 0.000000 
0.000000 0.000000 0.000000 

-0.000000 -0.000000 0.000000 
0.000000 0.000000 0.000000 
0.000000 0.000000 0.000000 

0.000000 0.000000 0.000000 
0.000000 0.000000 0.000000 
0.000000 0.000000 0.000000 

-0.000000 0.000000 0.000000 
0.000000 -0.000000 0.000000 
0.000000 0.000000 0.000000 

-0.000000 0.000000 0.000000 
0.000000 -0.000000 0.000000 
0.000000 0.000000 0.000000 

-0.000000 -0.000000 0.000000 
0.000000 -0.000000 0.000000 
0.000000 0.000000 0.000000 

-0.000000 -0.000000 0.000000 
0.000000 -0.000000 0.000000 
0.000000 0.000000 0.000000 

0.000000 -0.000000 0.000000 
0.000000 0.000000 0.000000 
0.000000 0.000000 0.000000 

0.000000 0.000000 0.000000 
0.000000 0.000000 0.000000 
0.000000 0.000000 0.000000 

0.000000 0.000000 0.000000 
0.000000 0.000000 0.000000 
0.000000 0.000000 0.000000 

0.000000 0.000000 0.000000 
0.000000 -0.000000 0.000000 
0.000000 0.000000 0.000000 

0.000000 -0.000000 0.000000 
0.000000 -0.000000 0.000000 
0.000000 0.000000 0.000000 

-0.000000 0.000000 0.000000 
0.000000 -0.000000 0.000000 
0.000000 0.000000 0.000000 

0.000000 -0.000000 0.000000 
0.000000 -0.000000 0.000000 
0.000000 0.000000 0.000000 

-0.000000 -0.000000 0.000000 
0.000000 -0.000000 0.000000 
0.000000 0.000000 0.000000 

0.000000 -0.000000 0.000000 
0.000000 0.000000 0.000000 
0.000000 0.000000 0.000000 

-0.000000 0.000000 0.000000 
0.000000 -0.000000 0.000000 
0.000000 0.000000 0.000000 

-0.000000 -0.000000 0.000000 
0.000000 -0.000000 0.000000 
0.000000 0.000000 0.000000 

0.000000 0.000000 0.000000 
0.000000 -0.000000 0.000000 
0.000000 0.000000 0.000000 

0.000000 -0.000000 0.000000 
0.000000 -0.000000 0.000000 
0.000000 0.000000 0.000000 

0.000000 0.000000 0.000000 
0.000000 0.000000 0.000000 
0.000000 0.000000 0.000000 

0.000000 -0.000000 0.000000 
0.000000 0.000000 0.000000 
0.000000 0.000000 0.000000 

0.000000 0.000000 0.000000 
0.000000 0.000000 0.000000 
0.000000 0.000000 0.000000 

0.000000 -0.000000 0.000000 
0.000000 -0.000000 0.000000 
0.000000 0.000000 0.000000 

-0.000000 -0.000000 0.000000 
0.000000 -0.000000 0.000000 
0.000000 0.000000 0.000000 

-0.000000 -0.000000 0.000000 
0.000000 -0.000000 0.000000 
0.000000 0.000000 0.000000 

-0.000000 -0.000000 0.000000 
0.000000 -0.000000 0.000000 
0.000000 0.000000 0.000000 

-0.000000 0.000000 0.000000 
0.000000 0.000000 0.000000 
0.000000 0.000000 0.000000 

-0.000000 -0.000000 0.000000 
0.000000 0.000000 0.000000 
0.000000 0.000000 0.000000 

-0.000000 -0.000000 0.000000 
0.000000 -0.000000 0.000000 
0.000000 0.000000 0.000000 

0.000000 -0.000000 0.000000 
0.000000 0.000000 0.000000 
0.000000 0.000000 0.000000 

0.000000 -0.000000 0.000000 
0.000000 0.000000 0.000000 
0.000000 0.000000 0.000000 

-0.000000 0.000000 0.000000 
0.000000 -0.000000 0.000000 
0.000000 0.000000 0.000000 

0.000000 -0.000000 0.000000 
0.000000 0.000000 0.000000 
0.000000 0.000000 0.000000 

0.000000 0.000000 0.000000 
0.000000 -0.000000 0.000000 
0.000000 0.000000 0.000000 

0.000000 0.000000 0.000000 
0.000000 -0.000000 0.000000 
0.000000 0.000000 0.000000 

0.000000 0.000000 0.000000 
0.000000 0.000000 0.000000 
0.000000 0.000000 0.000000 

-0.000000 0.000000 0.000000 
0.000000 -0.000000 0.000000 
0.000000 0.000000 0.000000 

-0.000000 0.000000 0.000000 
0.000000 -0.000000 0.000000 
0.000000 0.000000 0.000000 

0.000000 0.000000 0.000000 
0.000000 0.000000 0.000000 
0.000000 0.000000 0.000000 

0.000000 -0.000000 0.000000 
0.000000 0.000000 0.000000 
0.000000 0.000000 0.000000 

-0.000000 0.000000 0.000000 
0.000000 -0.000000 0.000000 
0.000000 0.000000 0.000000 

0.000000 0.000000 0.000000 
0.000000 0.000000 0.000000 
0.000000 0.000000 0.000000 

-0.000000 0.000000 0.000000 
0.000000 0.000000 0.000000 
0.000000 0.000000 0.000000 

-0.000000 0.000000 0.000000 
0.000000 -0.000000 0.000000 
0.000000 0.000000 0.000000 

-0.000000 0.000000 0.000000 
0.000000 -0.000000 0.000000 
0.000000 0.000000 0.000000 

0.000000 0.000000 0.000000 
0.000000 0.000000 0.000000 
0.000000 0.000000 0.000000 

0.000000 0.000000 0.000000 
0.000000 0.000000 0.000000 
0.000000 0.000000 0.000000 

-0.000000 0.000000 0.000000 
0.000000 0.000000 0.000000 
0.000000 0.000000 0.000000 

0.000000 0.000000 0.000000 
0.000000 0.000000 0.000000 
0.000000 0.000000 0.000000 

0.000000 0.000000 0.000000 
0.000000 0.000000 0.000000 
0.000000 0.000000 0.000000 

-0.000000 0.000000 0.000000 
0.000000 0.000000 0.000000 
0.000000 0.000000 0.000000 

0.000000 -0.000000 0.000000 
0.000000 0.000000 0.000000 
0.000000 0.000000 0.000000 

0.000000 -0.000000 0.000000 
0.000000 -0.000000 0.000000 
0.000000 0.000000 0.000000 

-0.000000 -0.000000 0.000000 
0.000000 -0.000000 0.000000 
0.000000 0.000000 0.000000 

0.000000 0.000000 0.000000 
0.000000 -0.000000 0.000000 
0.000000 0.000000 0.000000 

-0.000000 0.000000 0.000000 
0.000000 0.000000 0.000000 
0.000000 0.000000 0.000000 

0.000000 -0.000000 0.000000 
0.000000 0.000000 0.000000 
0.000000 0.000000 0.000000 

-0.000000 0.000000 0.000000 
0.000000 -0.000000 0.000000 
0.000000 0.000000 0.000000 

0.000000 -0.000000 0.000000 
0.000000 -0.000000 0.000000 
0.000000 0.000000 0.000000 

0.000000 -0.000000 0.000000 
0.000000 0.000000 0.000000 
0.000000 0.000000 0.000000 

0.000000 -0.000000 0.000000 
0.000000 0.000000 0.000000 
0.000000 0.000000 0.000000 

0.000000 -0.000000 0.000000 
0.000000 -0.000000 0.000000 
0.000000 0.000000 0.000000 

0.000000 0.000000 0.000000 
0.000000 -0.000000 0.000000 
0.000000 0.000000 0.000000 

0.000000 -0.000000 0.000000 
0.000000 -0.000000 0.000000 
0.000000 0.000000 0.000000 

0.000000 0.000000 0.000000 
0.000000 -0.000000 0.000000 
0.000000 0.000000 0.000000 

-0.000000 0.000000 0.000000 
0.000000 -0.000000 0.000000 
0.000000 0.000000 0.000000 

0.000000 0.000000 0.000000 
0.000000 0.000000 0.000000 
0.000000 0.000000 0.000000 

0.000000 0.000000 0.000000 
0.000000 0.000000 0.000000 
0.000000 0.000000 0.000000 

0.000000 0.000000 0.000000 
0.000000 0.000000 0.000000 
0.000000 0.000000 0.000000 

0.000000 -0.000000 0.000000 
0.000000 0.000000 0.000000 
0.000000 0.000000 0.000000 

0.000000 -0.000000 0.000000 
0.000000 0.000000 0.000000 
0.000000 0.000000 0.000000 

0.000000 0.000000 0.000000 
0.000000 0.000000 0.000000 
0.000000 0.000000 0.000000 

-0.000000 -0.000000 0.000000 
0.000000 -0.000000 0.000000 
0.000000 0.000000 0.000000 

-0.000000 -0.000000 0.000000 
0.000000 -0.000000 0.000000 
0.000000 0.000000 0.000000 

0.000000 0.000000 0.000000 
0.000000 0.000000 0.000000 
0.000000 0.000000 0.000000 

0.000000 -0.000000 0.000000 
0.000000 -0.000000 0.000000 
0.000000 0.000000 0.000000 

0.000000 0.000000 0.000000 
0.000000 0.000000 0.000000 
0.000000 0.000000 0.000000 

0.000000 0.000000 0.000000 
0.000000 0.000000 0.000000 
0.000000 0.000000 0.000000 

0.000000 0.000000 0.000000 
0.000000 0.000000 0.000000 
0.000000 0.000000 0.000000 

0.000000 0.000000 0.000000 
0.000000 0.000000 0.000000 
0.000000 0.000000 0.000000 

0.000000 0.000000 0.000000 
0.000000 0.000000 0.000000 
0.000000 0.000000 0.000000 

0.000000 0.000000 0.000000 
0.000000 -0.000000 0.000000 
0.000000 0.000000 0.000000 

0.000000 -0.000000 0.000000 
0.000000 0.000000 0.000000 
0.000000 0.000000 0.000000 

-0.000000 0.000000 0.000000 
0.000000 -0.000000 0.000000 
0.000000 0.000000 0.000000 

0.000000 0.000000 0.000000 
0.000000 0.000000 0.000000 
0.000000 0.000000 0.000000 

0.000000 0.000000 0.000000 
0.000000 0.000000 0.000000 
0.000000 0.000000 0.000000 

-0.000000 -0.000000 0.000000 
0.000000 -0.000000 0.000000 
0.000000 0.000000 0.000000 

0.000000 0.000000 0.000000 
0.000000 0.000000 0.000000 
0.000000 0.000000 0.000000 

0.000000 0.000000 0.000000 
0.000000 0.000000 0.000000 
0.000000 0.000000 0.000000 

0.000000 -0.000000 0.000000 
0.000000 0.000000 0.000000 
0.000000 0.000000 0.000000 

0.000000 -0.000000 0.000000 
0.000000 0.000000 0.000000 
0.000000 0.000000 0.000000 

0.000000 -0.000000 0.000000 
0.000000 0.000000 0.000000 
0.000000 0.000000 0.000000 

0.000000 -0.000000 0.000000 
0.000000 0.000000 0.000000 
0.000000 0.000000 0.000000 

0.000000 -0.000000 0.000000 
0.000000 0.000000 0.000000 
0.000000 0.000000 0.000000 

0.000000 -0.000000 0.000000 
0.000000 0.000000 0.000000 
0.000000 0.000000 0.000000 

-0.000000 0.000000 0.000000 
0.000000 -0.000000 0.000000 
0.000000 0.000000 0.000000 

0.000000 -0.000000 0.000000 
0.000000 0.000000 0.000000 
0.000000 0.000000 0.000000 

0.000000 -0.000000 0.000000 
0.000000 0.000000 0.000000 
0.000000 0.000000 0.000000 

-0.000000 0.000000 0.000000 
0.000000 0.000000 0.000000 
0.000000 0.000000 0.000000 

0.000000 0.000000 0.000000 
0.000000 0.000000 0.000000 
0.000000 0.000000 0.000000 

-0.000000 0.000000 0.000000 
0.000000 -0.000000 0.000000 
0.000000 0.000000 0.000000 

-0.000000 -0.000000 0.000000 
0.000000 -0.000000 0.000000 
0.000000 0.000000 0.000000 

0.000000 0.000000 0.000000 
0.000000 0.000000 0.000000 
0.000000 0.000000 0.000000 

0.000000 -0.000000 0.000000 
0.000000 0.000000 0.000000 
0.000000 0.000000 0.000000 

0.000000 0.000000 0.000000 
0.000000 0.000000 0.000000 
0.000000 0.000000 0.000000 

-0.000000 0.000000 0.000000 
0.000000 -0.000000 0.000000 
0.000000 0.000000 0.000000 

0.000000 0.000000 0.000000 
0.000000 0.000000 0.000000 
0.000000 0.000000 0.000000 

-0.000000 -0.000000 0.000000 
0.000000 -0.000000 0.000000 
0.000000 0.000000 0.000000 

-0.000000 0.000000 0.000000 
0.000000 -0.000000 0.000000 
0.000000 0.000000 0.000000 

-0.000000 0.000000 0.000000 
0.000000 0.000000 0.000000 
0.000000 0.000000 0.000000 

-0.000000 -0.000000 0.000000 
0.000000 0.000000 0.000000 
0.000000 0.000000 0.000000 

-0.000000 0.000000 0.000000 
0.000000 -0.000000 0.000000 
0.000000 0.000000 0.000000 

0.000000 -0.000000 0.000000 
0.000000 0.000000 0.000000 
0.000000 0.000000 0.000000 

-0.000000 -0.000000 0.000000 
0.000000 0.000000 0.000000 
0.000000 0.000000 0.000000 

-0.000000 0.000000 0.000000 
0.000000 0.000000 0.000000 
0.000000 0.000000 0.000000 

0.000000 0.000000 0.000000 
0.000000 0.000000 0.000000 
0.000000 0.000000 0.000000 

-0.000000 0.000000 0.000000 
0.000000 -0.000000 0.000000 
0.000000 0.000000 0.000000 

-0.000000 -0.000000 0.000000 
0.000000 -0.000000 0.000000 
0.000000 0.000000 0.000000 

-0.000000 -0.000000 0.000000 
0.000000 -0.000000 0.000000 
0.000000 0.000000 0.000000 

0.000000 0.000000 0.000000 
0.000000 0.000000 0.000000 
0.000000 0.000000 0.000000 

-0.000000 -0.000000 0.000000 
0.000000 -0.000000 0.000000 
0.000000 0.000000 0.000000 

-0.000000 -0.000000 0.000000 
0.000000 -0.000000 0.000000 
0.000000 0.000000 0.000000 

0.000000 -0.000000 0.000000 
0.000000 0.000000 0.000000 
0.000000 0.000000 0.000000 

0.000000 0.000000 0.000000 
0.000000 -0.000000 0.000000 
0.000000 0.000000 0.000000 

0.000000 0.000000 0.000000 
0.000000 -0.000000 0.000000 
0.000000 0.000000 0.000000 

0.000000 -0.000000 0.000000 
0.000000 -0.000000 0.000000 
0.000000 0.000000 0.000000 

0.000000 -0.000000 0.000000 
0.000000 0.000000 0.000000 
0.000000 0.000000 0.000000 

0.000000 -0.000000 0.000000 
0.000000 0.000000 0.000000 
0.000000 0.000000 0.000000 

0.000000 0.000000 0.000000 
0.000000 0.000000 0.000000 
0.000000 0.000000 0.000000 

0.000000 -0.000000 0.000000 
0.000000 0.000000 0.000000 
0.000000 0.000000 0.000000 

0.000000 0.000000 0.000000 
0.000000 -0.000000 0.000000 
0.000000 0.000000 0.000000 

0.000000 -0.000000 0.000000 
0.000000 0.000000 0.000000 
0.000000 0.000000 0.000000 

0.000000 -0.000000 0.000000 
0.000000 0.000000 0.000000 
0.000000 0.000000 0.000000 

0.000000 0.000000 0.000000 
0.000000 0.000000 0.000000 
0.000000 0.000000 0.000000 

0.000000 0.000000 0.000000 
0.000000 0.000000 0.000000 
0.000000 0.000000 0.000000 

-0.000000 0.000000 0.000000 
0.000000 -0.000000 0.000000 
0.000000 0.000000 0.000000 

-0.000000 -0.000000 0.000000 
0.000000 -0.000000 0.000000 
0.000000 0.000000 0.000000 

-0.000000 -0.000000 0.000000 
0.000000 0.000000 0.000000 
0.000000 0.000000 0.000000 

-0.000000 0.000000 0.000000 
0.000000 -0.000000 0.000000 
0.000000 0.000000 0.000000 

-0.000000 -0.000000 0.000000 
0.000000 -0.000000 0.000000 
0.000000 0.000000 0.000000 

0.000000 0.000000 0.000000 
0.000000 0.000000 0.000000 
0.000000 0.000000 0.000000 

-0.000000 0.000000 0.000000 
0.000000 -0.000000 0.000000 
0.000000 0.000000 0.000000 

-0.000000 0.000000 0.000000 
0.000000 -0.000000 0.000000 
0.000000 0.000000 0.000000 

-0.000000 -0.000000 0.000000 
0.000000 0.000000 0.000000 
0.000000 0.000000 0.000000 

-0.000000 -0.000000 0.000000 
0.000000 0.000000 0.000000 
0.000000 0.000000 0.000000 

-0.000000 0.000000 0.000000 
0.000000 0.000000 0.000000 
0.000000 0.000000 0.000000 

0.000000 -0.000000 0.000000 
0.000000 0.000000 0.000000 
0.000000 0.000000 0.000000 

0.000000 -0.000000 0.000000 
0.000000 0.000000 0.000000 
0.000000 0.000000 0.000000 

-0.000000 -0.000000 0.000000 
0.000000 -0.000000 0.000000 
0.000000 0.000000 0.000000 

-0.000000 -0.000000 0.000000 
0.000000 -0.000000 0.000000 
0.000000 0.000000 0.000000 

-0.000000 0.000000 0.000000 
0.000000 -0.000000 0.000000 
0.000000 0.000000 0.000000 

-0.000000 0.000000 0.000000 
0.000000 -0.000000 0.000000 
0.000000 0.000000 0.000000 

0.000000 0.000000 0.000000 
0.000000 0.000000 0.000000 
0.000000 0.000000 0.000000 

-0.000000 0.000000 0.000000 
0.000000 -0.000000 0.000000 
0.000000 0.000000 0.000000 

0.000000 0.000000 0.000000 
0.000000 0.000000 0.000000 
0.000000 0.000000 0.000000 

0.000000 -0.000000 0.000000 
0.000000 -0.000000 0.000000 
0.000000 0.000000 0.000000 

0.000000 -0.000000 0.000000 
0.000000 0.000000 0.000000 
0.000000 0.000000 0.000000 

TENSORS STRAIN float 
0.000000 -0.000000 0.000000 
0.000000 0.000000 0.000000 
0.000000 0.000000 0.000000 

0.000000 -0.000000 0.000000 
0.000000 0.000000 0.000000 
0.000000 0.000000 0.000000 

-0.000000 0.000000 0.000000 
0.000000 -0.000000 0.000000 
0.000000 0.000000 0.000000 

-0.000000 0.000000 0.000000 
0.000000 -0.000000 0.000000 
0.000000 0.000000 0.000000 

0.000000 0.000000 0.000000 
0.000000 -0.000000 0.000000 
0.000000 0.000000 0.000000 

0.000000 0.000000 0.000000 
0.000000 0.000000 0.000000 
0.000000 0.000000 0.000000 

0.000000 0.000000 0.000000 
0.000000 -0.000000 0.000000 
0.000000 0.000000 0.000000 

-0.000000 0.000000 0.000000 
0.000000 0.000000 0.000000 
0.000000 0.000000 0.000000 

-0.000000 -0.000000 0.000000 
0.000000 -0.000000 0.000000 
0.000000 0.000000 0.000000 

0.000000 -0.000000 0.000000 
0.000000 -0.000000 0.000000 
0.000000 0.000000 0.000000 

0.000000 -0.000000 0.000000 
0.000000 -0.000000 0.000000 
0.000000 0.000000 0.000000 

-0.000000 0.000000 0.000000 
0.000000 0.000000 0.000000 
0.000000 0.000000 0.000000 

0.000000 -0.000000 0.000000 
0.000000 0.000000 0.000000 
0.000000 0.000000 0.000000 

-0.000000 -0.000000 0.000000 
0.000000 0.000000 0.000000 
0.000000 0.000000 0.000000 

0.000000 -0.000000 0.000000 
0.000000 -0.000000 0.000000 
0.000000 0.000000 0.000000 

0.000000 -0.000000 0.000000 
0.000000 -0.000000 0.000000 
0.000000 0.000000 0.000000 

-0.000000 0.000000 0.000000 
0.000000 0.000000 0.000000 
0.000000 0.000000 0.000000 

-0.000000 0.000000 0.000000 
0.000000 0.000000 0.000000 
0.000000 0.000000 0.000000 

-0.000000 -0.000000 0.000000 
0.000000 0.000000 0.000000 
0.000000 0.000000 0.000000 

-0.000000 0.000000 0.000000 
0.000000 0.000000 0.000000 
0.000000 0.000000 0.000000 

-0.000000 0.000000 0.000000 
0.000000 -0.000000 0.000000 
0.000000 0.000000 0.000000 

-0.000000 0.000000 0.000000 
0.000000 0.000000 0.000000 
0.000000 0.000000 0.000000 

-0.000000 -0.000000 0.000000 
0.000000 0.000000 0.000000 
0.000000 0.000000 0.000000 

0.000000 -0.000000 0.000000 
0.000000 -0.000000 0.000000 
0.000000 0.000000 0.000000 

-0.000000 -0.000000 0.000000 
0.000000 0.000000 0.000000 
0.000000 0.000000 0.000000 

0.000000 0.000000 0.000000 
0.000000 0.000000 0.000000 
0.000000 0.000000 0.000000 

0.000000 0.000000 0.000000 
0.000000 -0.000000 0.000000 
0.000000 0.000000 0.000000 

0.000000 0.000000 0.000000 
0.000000 -0.000000 0.000000 
0.000000 0.000000 0.000000 

0.000000 -0.000000 0.000000 
0.000000 -0.000000 0.000000 
0.000000 0.000000 0.000000 

0.000000 0.000000 0.000000 
0.000000 -0.000000 0.000000 
0.000000 0.000000 0.000000 

0.000000 -0.000000 0.000000 
0.000000 -0.000000 0.000000 
0.000000 0.000000 0.000000 

0.000000 -0.000000 0.000000 
0.000000 -0.000000 0.000000 
0.000000 0.000000 0.000000 

0.000000 -0.000000 0.000000 
0.000000 -0.000000 0.000000 
0.000000 0.000000 0.000000 

0.000000 0.000000 0.000000 
0.000000 -0.000000 0.000000 
0.000000 0.000000 0.000000 

-0.000000 -0.000000 0.000000 
0.000000 -0.000000 0.000000 
0.000000 0.000000 0.000000 

0.000000 0.000000 0.000000 
0.000000 -0.000000 0.000000 
0.000000 0.000000 0.000000 

0.000000 -0.000000 0.000000 
0.000000 -0.000000 0.000000 
0.000000 0.000000 0.000000 

0.000000 0.000000 0.000000 
0.000000 0.000000 0.000000 
0.000000 0.000000 0.000000 

0.000000 -0.000000 0.000000 
0.000000 0.000000 0.000000 
0.000000 0.000000 0.000000 

0.000000 0.000000 0.000000 
0.000000 0.000000 0.000000 
0.000000 0.000000 0.000000 

0.000000 -0.000000 0.000000 
0.000000 -0.000000 0.000000 
0.000000 0.000000 0.000000 

0.000000 -0.000000 0.000000 
0.000000 -0.000000 0.000000 
0.000000 0.000000 0.000000 

-0.000000 -0.000000 0.000000 
0.000000 -0.000000 0.000000 
0.000000 0.000000 0.000000 

-0.000000 -0.000000 0.000000 
0.000000 -0.000000 0.000000 
0.000000 0.000000 0.000000 

-0.000000 0.000000 0.000000 
0.000000 0.000000 0.000000 
0.000000 0.000000 0.000000 

-0.000000 -0.000000 0.000000 
0.000000 0.000000 0.000000 
0.000000 0.000000 0.000000 

-0.000000 -0.000000 0.000000 
0.000000 -0.000000 0.000000 
0.000000 0.000000 0.000000 

0.000000 -0.000000 0.000000 
0.000000 -0.000000 0.000000 
0.000000 0.000000 0.000000 

0.000000 -0.000000 0.000000 
0.000000 0.000000 0.000000 
0.000000 0.000000 0.000000 

0.000000 0.000000 0.000000 
0.000000 -0.000000 0.000000 
0.000000 0.000000 0.000000 

0.000000 -0.000000 0.000000 
0.000000 0.000000 0.000000 
0.000000 0.000000 0.000000 

0.000000 0.000000 0.000000 
0.000000 -0.000000 0.000000 
0.000000 0.000000 0.000000 

0.000000 0.000000 0.000000 
0.000000 -0.000000 0.000000 
0.000000 0.000000 0.000000 

0.000000 0.000000 0.000000 
0.000000 -0.000000 0.000000 
0.000000 0.000000 0.000000 

0.000000 0.000000 0.000000 
0.000000 -0.000000 0.000000 
0.000000 0.000000 0.000000 

0.000000 0.000000 0.000000 
0.000000 -0.000000 0.000000 
0.000000 0.000000 0.000000 

0.000000 0.000000 0.000000 
0.000000 0.000000 0.000000 
0.000000 0.000000 0.000000 

0.000000 -0.000000 0.000000 
0.000000 0.000000 0.000000 
0.000000 0.000000 0.000000 

-0.000000 0.000000 0.000000 
0.000000 -0.000000 0.000000 
0.000000 0.000000 0.000000 

-0.000000 0.000000 0.000000 
0.000000 0.000000 0.000000 
0.000000 0.000000 0.000000 

-0.000000 0.000000 0.000000 
0.000000 0.000000 0.000000 
0.000000 0.000000 0.000000 

-0.000000 0.000000 0.000000 
0.000000 -0.000000 0.000000 
0.000000 0.000000 0.000000 

0.000000 0.000000 0.000000 
0.000000 -0.000000 0.000000 
0.000000 0.000000 0.000000 

0.000000 0.000000 0.000000 
0.000000 0.000000 0.000000 
0.000000 0.000000 0.000000 

0.000000 0.000000 0.000000 
0.000000 0.000000 0.000000 
0.000000 0.000000 0.000000 

-0.000000 0.000000 0.000000 
0.000000 0.000000 0.000000 
0.000000 0.000000 0.000000 

0.000000 0.000000 0.000000 
0.000000 0.000000 0.000000 
0.000000 0.000000 0.000000 

-0.000000 0.000000 0.000000 
0.000000 0.000000 0.000000 
0.000000 0.000000 0.000000 

-0.000000 0.000000 0.000000 
0.000000 0.000000 0.000000 
0.000000 0.000000 0.000000 

0.000000 -0.000000 0.000000 
0.000000 0.000000 0.000000 
0.000000 0.000000 0.000000 

0.000000 -0.000000 0.000000 
0.000000 -0.000000 0.000000 
0.000000 0.000000 0.000000 

0.000000 -0.000000 0.000000 
0.000000 -0.000000 0.000000 
0.000000 0.000000 0.000000 

0.000000 0.000000 0.000000 
0.000000 -0.000000 0.000000 
0.000000 0.000000 0.000000 

-0.000000 0.000000 0.000000 
0.000000 0.000000 0.000000 
0.000000 0.000000 0.000000 

-0.000000 -0.000000 0.000000 
0.000000 0.000000 0.000000 
0.000000 0.000000 0.000000 

0.000000 0.000000 0.000000 
0.000000 -0.000000 0.000000 
0.000000 0.000000 0.000000 

0.000000 -0.000000 0.000000 
0.000000 -0.000000 0.000000 
0.000000 0.000000 0.000000 

0.000000 -0.000000 0.000000 
0.000000 0.000000 0.000000 
0.000000 0.000000 0.000000 

0.000000 -0.000000 0.000000 
0.000000 0.000000 0.000000 
0.000000 0.000000 0.000000 

0.000000 -0.000000 0.000000 
0.000000 -0.000000 0.000000 
0.000000 0.000000 0.000000 

0.000000 0.000000 0.000000 
0.000000 -0.000000 0.000000 
0.000000 0.000000 0.000000 

0.000000 -0.000000 0.000000 
0.000000 -0.000000 0.000000 
0.000000 0.000000 0.000000 

0.000000 0.000000 0.000000 
0.000000 -0.000000 0.000000 
0.000000 0.000000 0.000000 

-0.000000 0.000000 0.000000 
0.000000 -0.000000 0.000000 
0.000000 0.000000 0.000000 

0.000000 0.000000 0.000000 
0.000000 0.000000 0.000000 
0.000000 0.000000 0.000000 

0.000000 0.000000 0.000000 
0.000000 0.000000 0.000000 
0.000000 0.000000 0.000000 

0.000000 0.000000 0.000000 
0.000000 0.000000 0.000000 
0.000000 0.000000 0.000000 

0.000000 -0.000000 0.000000 
0.000000 -0.000000 0.000000 
0.000000 0.000000 0.000000 

0.000000 -0.000000 0.000000 
0.000000 0.000000 0.000000 
0.000000 0.000000 0.000000 

-0.000000 0.000000 0.000000 
0.000000 0.000000 0.000000 
0.000000 0.000000 0.000000 

0.000000 -0.000000 0.000000 
0.000000 -0.000000 0.000000 
0.000000 0.000000 0.000000 

0.000000 -0.000000 0.000000 
0.000000 -0.000000 0.000000 
0.000000 0.000000 0.000000 

0.000000 0.000000 0.000000 
0.000000 -0.000000 0.000000 
0.000000 0.000000 0.000000 

0.000000 -0.000000 0.000000 
0.000000 -0.000000 0.000000 
0.000000 0.000000 0.000000 

-0.000000 0.000000 0.000000 
0.000000 0.000000 0.000000 
0.000000 0.000000 0.000000 

0.000000 0.000000 0.000000 
0.000000 0.000000 0.000000 
0.000000 0.000000 0.000000 

-0.000000 0.000000 0.000000 
0.000000 0.000000 0.000000 
0.000000 0.000000 0.000000 

0.000000 0.000000 0.000000 
0.000000 0.000000 0.000000 
0.000000 0.000000 0.000000 

0.000000 0.000000 0.000000 
0.000000 -0.000000 0.000000 
0.000000 0.000000 0.000000 

0.000000 0.000000 0.000000 
0.000000 -0.000000 0.000000 
0.000000 0.000000 0.000000 

0.000000 -0.000000 0.000000 
0.000000 0.000000 0.000000 
0.000000 0.000000 0.000000 

0.000000 0.000000 0.000000 
0.000000 -0.000000 0.000000 
0.000000 0.000000 0.000000 

0.000000 0.000000 0.000000 
0.000000 0.000000 0.000000 
0.000000 0.000000 0.000000 

0.000000 0.000000 0.000000 
0.000000 0.000000 0.000000 
0.000000 0.000000 0.000000 

-0.000000 -0.000000 0.000000 
0.000000 -0.000000 0.000000 
0.000000 0.000000 0.000000 

0.000000 0.000000 0.000000 
0.000000 0.000000 0.000000 
0.000000 0.000000 0.000000 

0.000000 0.000000 0.000000 
0.000000 0.000000 0.000000 
0.000000 0.000000 0.000000 

0.000000 -0.000000 0.000000 
0.000000 0.000000 0.000000 
0.000000 0.000000 0.000000 

0.000000 -0.000000 0.000000 
0.000000 0.000000 0.000000 
0.000000 0.000000 0.000000 

-0.000000 -0.000000 0.000000 
0.000000 0.000000 0.000000 
0.000000 0.000000 0.000000 

-0.000000 -0.000000 0.000000 
0.000000 0.000000 0.000000 
0.000000 0.000000 0.000000 

-0.000000 -0.000000 0.000000 
0.000000 0.000000 0.000000 
0.000000 0.000000 0.000000 

0.000000 -0.000000 0.000000 
0.000000 0.000000 0.000000 
0.000000 0.000000 0.000000 

0.000000 0.000000 0.000000 
0.000000 -0.000000 0.000000 
0.000000 0.000000 0.000000 

0.000000 -0.000000 0.000000 
0.000000 0.000000 0.000000 
0.000000 0.000000 0.000000 

0.000000 -0.000000 0.000000 
0.000000 0.000000 0.000000 
0.000000 0.000000 0.000000 

-0.000000 0.000000 0.000000 
0.000000 0.000000 0.000000 
0.000000 0.000000 0.000000 

-0.000000 0.000000 0.000000 
0.000000 0.000000 0.000000 
0.000000 0.000000 0.000000 

0.000000 0.000000 0.000000 
0.000000 -0.000000 0.000000 
0.000000 0.000000 0.000000 

-0.000000 -0.000000 0.000000 
0.000000 -0.000000 0.000000 
0.000000 0.000000 0.000000 

0.000000 0.000000 0.000000 
0.000000 0.000000 0.000000 
0.000000 0.000000 0.000000 

0.000000 -0.000000 0.000000 
0.000000 0.000000 0.000000 
0.000000 0.000000 0.000000 

-0.000000 0.000000 0.000000 
0.000000 0.000000 0.000000 
0.000000 0.000000 0.000000 

-0.000000 0.000000 0.000000 
0.000000 -0.000000 0.000000 
0.000000 0.000000 0.000000 

0.000000 0.000000 0.000000 
0.000000 0.000000 0.000000 
0.000000 0.000000 0.000000 

0.000000 -0.000000 0.000000 
0.000000 -0.000000 0.000000 
0.000000 0.000000 0.000000 

-0.000000 0.000000 0.000000 
0.000000 -0.000000 0.000000 
0.000000 0.000000 0.000000 

-0.000000 0.000000 0.000000 
0.000000 0.000000 0.000000 
0.000000 0.000000 0.000000 

-0.000000 -0.000000 0.000000 
0.000000 0.000000 0.000000 
0.000000 0.000000 0.000000 

0.000000 0.000000 0.000000 
0.000000 -0.000000 0.000000 
0.000000 0.000000 0.000000 

0.000000 -0.000000 0.000000 
0.000000 0.000000 0.000000 
0.000000 0.000000 0.000000 

-0.000000 -0.000000 0.000000 
0.000000 0.000000 0.000000 
0.000000 0.000000 0.000000 

-0.000000 0.000000 0.000000 
0.000000 0.000000 0.000000 
0.000000 0.000000 0.000000 

-0.000000 0.000000 0.000000 
0.000000 0.000000 0.000000 
0.000000 0.000000 0.000000 

0.000000 0.000000 0.000000 
0.000000 -0.000000 0.000000 
0.000000 0.000000 0.000000 

-0.000000 -0.000000 0.000000 
0.000000 -0.000000 0.000000 
0.000000 0.000000 0.000000 

-0.000000 -0.000000 0.000000 
0.000000 -0.000000 0.000000 
0.000000 0.000000 0.000000 

-0.000000 0.000000 0.000000 
0.000000 0.000000 0.000000 
0.000000 0.000000 0.000000 

-0.000000 -0.000000 0.000000 
0.000000 -0.000000 0.000000 
0.000000 0.000000 0.000000 

-0.000000 -0.000000 0.000000 
0.000000 -0.000000 0.000000 
0.000000 0.000000 0.000000 

-0.000000 -0.000000 0.000000 
0.000000 0.000000 0.000000 
0.000000 0.000000 0.000000 

0.000000 0.000000 0.000000 
0.000000 -0.000000 0.000000 
0.000000 0.000000 0.000000 

0.000000 0.000000 0.000000 
0.000000 -0.000000 0.000000 
0.000000 0.000000 0.000000 

0.000000 -0.000000 0.000000 
0.000000 -0.000000 0.000000 
0.000000 0.000000 0.000000 

0.000000 -0.000000 0.000000 
0.000000 0.000000 0.000000 
0.000000 0.000000 0.000000 

0.000000 -0.000000 0.000000 
0.000000 0.000000 0.000000 
0.000000 0.000000 0.000000 

-0.000000 0.000000 0.000000 
0.000000 0.000000 0.000000 
0.000000 0.000000 0.000000 

-0.000000 -0.000000 0.000000 
0.000000 0.000000 0.000000 
0.000000 0.000000 0.000000 

0.000000 0.000000 0.000000 
0.000000 -0.000000 0.000000 
0.000000 0.000000 0.000000 

0.000000 -0.000000 0.000000 
0.000000 0.000000 0.000000 
0.000000 0.000000 0.000000 

0.000000 -0.000000 0.000000 
0.000000 0.000000 0.000000 
0.000000 0.000000 0.000000 

-0.000000 0.000000 0.000000 
0.000000 0.000000 0.000000 
0.000000 0.000000 0.000000 

-0.000000 0.000000 0.000000 
0.000000 0.000000 0.000000 
0.000000 0.000000 0.000000 

0.000000 0.000000 0.000000 
0.000000 -0.000000 0.000000 
0.000000 0.000000 0.000000 

-0.000000 -0.000000 0.000000 
0.000000 -0.000000 0.000000 
0.000000 0.000000 0.000000 

-0.000000 -0.000000 0.000000 
0.000000 0.000000 0.000000 
0.000000 0.000000 0.000000 

0.000000 0.000000 0.000000 
0.000000 -0.000000 0.000000 
0.000000 0.000000 0.000000 

0.000000 -0.000000 0.000000 
0.000000 -0.000000 0.000000 
0.000000 0.000000 0.000000 

0.000000 0.000000 0.000000 
0.000000 0.000000 0.000000 
0.000000 0.000000 0.000000 

0.000000 0.000000 0.000000 
0.000000 -0.000000 0.000000 
0.000000 0.000000 0.000000 

0.000000 0.000000 0.000000 
0.000000 -0.000000 0.000000 
0.000000 0.000000 0.000000 

-0.000000 -0.000000 0.000000 
0.000000 0.000000 0.000000 
0.000000 0.000000 0.000000 

-0.000000 -0.000000 0.000000 
0.000000 0.000000 0.000000 
0.000000 0.000000 0.000000 

-0.000000 0.000000 0.000000 
0.000000 0.000000 0.000000 
0.000000 0.000000 0.000000 

-0.000000 -0.000000 0.000000 
0.000000 0.000000 0.000000 
0.000000 0.000000 0.000000 

0.000000 -0.000000 0.000000 
0.000000 0.000000 0.000000 
0.000000 0.000000 0.000000 

-0.000000 -0.000000 0.000000 
0.000000 -0.000000 0.000000 
0.000000 0.000000 0.000000 

0.000000 -0.000000 0.000000 
0.000000 -0.000000 0.000000 
0.000000 0.000000 0.000000 

-0.000000 0.000000 0.000000 
0.000000 0.000000 0.000000 
0.000000 0.000000 0.000000 

-0.000000 0.000000 0.000000 
0.000000 -0.000000 0.000000 
0.000000 0.000000 0.000000 

-0.000000 0.000000 0.000000 
0.000000 0.000000 0.000000 
0.000000 0.000000 0.000000 

-0.000000 0.000000 0.000000 
0.000000 -0.000000 0.000000 
0.000000 0.000000 0.000000 

0.000000 0.000000 0.000000 
0.000000 0.000000 0.000000 
0.000000 0.000000 0.000000 

0.000000 -0.000000 0.000000 
0.000000 -0.000000 0.000000 
0.000000 0.000000 0.000000 

0.000000 -0.000000 0.000000 
0.000000 -0.000000 0.000000 
0.000000 0.000000 0.000000 

