# vtk DataFile Version 3.0 
vtk output 
ASCII 
DATASET UNSTRUCTURED_GRID 
POINTS 175 float 
-0.026061 -1.521008 0.000000 
-0.106992 -1.452952 0.000000 
-0.054870 -1.461185 0.000000 
-0.028809 -1.415301 0.000000 
-0.186430 -1.388877 0.000000 
-0.137056 -1.391403 0.000000 
-0.114311 -1.337756 0.000000 
-0.058186 -1.353421 0.000000 
-0.029377 -1.313244 0.000000 
-0.265318 -1.325721 0.000000 
-0.217198 -1.326521 0.000000 
-0.196633 -1.269224 0.000000 
-0.143120 -1.277933 0.000000 
-0.116563 -1.230664 0.000000 
-0.058945 -1.250310 0.000000 
-0.029568 -1.212190 0.000000 
-0.344206 -1.262565 0.000000 
-0.296791 -1.262558 0.000000 
-0.278030 -1.202615 0.000000 
-0.225992 -1.208482 0.000000 
-0.201664 -1.156365 0.000000 
-0.145749 -1.169839 0.000000 
-0.117890 -1.125496 0.000000 
-0.059328 -1.148202 0.000000 
-0.029759 -1.111136 0.000000 
-0.058559 -1.561758 0.000000 
-0.162226 -1.582601 0.000000 
-0.123292 -1.546983 0.000000 
-0.142917 -1.498000 0.000000 
-0.261851 -1.604758 0.000000 
-0.229092 -1.567730 0.000000 
-0.256854 -1.516499 0.000000 
-0.209613 -1.482386 0.000000 
-0.223062 -1.434812 0.000000 
-0.360414 -1.627058 0.000000 
-0.329787 -1.589935 0.000000 
-0.361761 -1.538133 0.000000 
-0.321587 -1.501724 0.000000 
-0.341985 -1.451490 0.000000 
-0.290702 -1.418691 0.000000 
-0.302189 -1.371956 0.000000 
-0.458977 -1.649358 0.000000 
-0.429420 -1.612283 0.000000 
-0.464588 -1.560241 0.000000 
-0.427556 -1.523214 0.000000 
-0.453135 -1.471699 0.000000 
-0.407738 -1.436384 0.000000 
-0.425037 -1.386956 0.000000 
-0.370772 -1.355327 0.000000 
-0.381315 -1.309099 0.000000 
-0.046960 -1.612574 0.000000 
-0.095301 -1.706620 0.000000 
-0.098873 -1.653972 0.000000 
-0.149405 -1.638775 0.000000 
-0.140093 -1.798324 0.000000 
-0.148617 -1.749625 0.000000 
-0.205981 -1.739388 0.000000 
-0.203197 -1.681185 0.000000 
-0.248777 -1.662038 0.000000 
-0.184111 -1.889287 0.000000 
-0.194039 -1.842196 0.000000 
-0.254475 -1.834897 0.000000 
-0.257893 -1.780787 0.000000 
-0.309886 -1.765414 0.000000 
-0.303554 -1.704869 0.000000 
-0.347255 -1.684711 0.000000 
-0.228129 -1.980251 0.000000 
-0.238687 -1.934027 0.000000 
-0.301302 -1.929075 0.000000 
-0.307162 -1.877036 0.000000 
-0.363386 -1.864915 0.000000 
-0.362692 -1.807403 0.000000 
-0.412122 -1.790110 0.000000 
-0.403017 -1.727963 0.000000 
-0.445733 -1.707385 0.000000 
-0.000000 -1.635189 0.000000 
0.043388 -1.731619 0.000000 
-0.000000 -1.701587 0.000000 
-0.043388 -1.731619 0.000000 
0.087158 -1.823816 0.000000 
0.043769 -1.800117 0.000000 
-0.000000 -1.838583 0.000000 
-0.043769 -1.800117 0.000000 
-0.087158 -1.823816 0.000000 
0.130831 -1.914946 0.000000 
0.087824 -1.893347 0.000000 
0.044436 -1.936046 0.000000 
-0.000000 -1.904981 0.000000 
-0.044436 -1.936046 0.000000 
-0.087824 -1.893347 0.000000 
-0.130831 -1.914946 0.000000 
0.174505 -2.006075 0.000000 
0.131782 -1.985509 0.000000 
0.088871 -2.031376 0.000000 
0.044532 -2.003512 0.000000 
-0.000000 -2.039912 0.000000 
-0.044532 -2.003512 0.000000 
-0.088871 -2.031376 0.000000 
-0.131782 -1.985509 0.000000 
-0.174505 -2.006075 0.000000 
0.046960 -1.612574 0.000000 
0.149405 -1.638775 0.000000 
0.098873 -1.653972 0.000000 
0.095301 -1.706620 0.000000 
0.248777 -1.662038 0.000000 
0.203197 -1.681185 0.000000 
0.205981 -1.739388 0.000000 
0.148617 -1.749625 0.000000 
0.140093 -1.798324 0.000000 
0.347255 -1.684711 0.000000 
0.303554 -1.704869 0.000000 
0.309886 -1.765414 0.000000 
0.257893 -1.780787 0.000000 
0.254475 -1.834897 0.000000 
0.194039 -1.842196 0.000000 
0.184111 -1.889287 0.000000 
0.445733 -1.707385 0.000000 
0.403017 -1.727963 0.000000 
0.412122 -1.790110 0.000000 
0.362692 -1.807403 0.000000 
0.363386 -1.864915 0.000000 
0.307162 -1.877036 0.000000 
0.301302 -1.929075 0.000000 
0.238687 -1.934027 0.000000 
0.228129 -1.980251 0.000000 
0.058559 -1.561758 0.000000 
0.142917 -1.498000 0.000000 
0.123292 -1.546983 0.000000 
0.162226 -1.582601 0.000000 
0.223062 -1.434812 0.000000 
0.209613 -1.482386 0.000000 
0.256854 -1.516499 0.000000 
0.229092 -1.567730 0.000000 
0.261851 -1.604758 0.000000 
0.302189 -1.371956 0.000000 
0.290702 -1.418691 0.000000 
0.341985 -1.451490 0.000000 
0.321587 -1.501724 0.000000 
0.361761 -1.538133 0.000000 
0.329787 -1.589935 0.000000 
0.360414 -1.627058 0.000000 
0.381315 -1.309099 0.000000 
0.370772 -1.355327 0.000000 
0.425037 -1.386956 0.000000 
0.407738 -1.436384 0.000000 
0.453135 -1.471699 0.000000 
0.427556 -1.523214 0.000000 
0.464588 -1.560241 0.000000 
0.429420 -1.612283 0.000000 
0.458977 -1.649358 0.000000 
0.026061 -1.521008 0.000000 
0.028809 -1.415301 0.000000 
0.054870 -1.461185 0.000000 
0.106992 -1.452952 0.000000 
0.029377 -1.313244 0.000000 
0.058186 -1.353421 0.000000 
0.114311 -1.337756 0.000000 
0.137056 -1.391403 0.000000 
0.186430 -1.388877 0.000000 
0.029568 -1.212190 0.000000 
0.058945 -1.250310 0.000000 
0.116563 -1.230664 0.000000 
0.143120 -1.277933 0.000000 
0.196633 -1.269224 0.000000 
0.217198 -1.326521 0.000000 
0.265318 -1.325721 0.000000 
0.029759 -1.111136 0.000000 
0.059328 -1.148202 0.000000 
0.117890 -1.125496 0.000000 
0.145749 -1.169839 0.000000 
0.201664 -1.156365 0.000000 
0.225992 -1.208482 0.000000 
0.278030 -1.202615 0.000000 
0.296791 -1.262558 0.000000 
0.344206 -1.262565 0.000000 
CELLS 175 350 
1 0 
1 1 
1 2 
1 3 
1 4 
1 5 
1 6 
1 7 
1 8 
1 9 
1 10 
1 11 
1 12 
1 13 
1 14 
1 15 
1 16 
1 17 
1 18 
1 19 
1 20 
1 21 
1 22 
1 23 
1 24 
1 25 
1 26 
1 27 
1 28 
1 29 
1 30 
1 31 
1 32 
1 33 
1 34 
1 35 
1 36 
1 37 
1 38 
1 39 
1 40 
1 41 
1 42 
1 43 
1 44 
1 45 
1 46 
1 47 
1 48 
1 49 
1 50 
1 51 
1 52 
1 53 
1 54 
1 55 
1 56 
1 57 
1 58 
1 59 
1 60 
1 61 
1 62 
1 63 
1 64 
1 65 
1 66 
1 67 
1 68 
1 69 
1 70 
1 71 
1 72 
1 73 
1 74 
1 75 
1 76 
1 77 
1 78 
1 79 
1 80 
1 81 
1 82 
1 83 
1 84 
1 85 
1 86 
1 87 
1 88 
1 89 
1 90 
1 91 
1 92 
1 93 
1 94 
1 95 
1 96 
1 97 
1 98 
1 99 
1 100 
1 101 
1 102 
1 103 
1 104 
1 105 
1 106 
1 107 
1 108 
1 109 
1 110 
1 111 
1 112 
1 113 
1 114 
1 115 
1 116 
1 117 
1 118 
1 119 
1 120 
1 121 
1 122 
1 123 
1 124 
1 125 
1 126 
1 127 
1 128 
1 129 
1 130 
1 131 
1 132 
1 133 
1 134 
1 135 
1 136 
1 137 
1 138 
1 139 
1 140 
1 141 
1 142 
1 143 
1 144 
1 145 
1 146 
1 147 
1 148 
1 149 
1 150 
1 151 
1 152 
1 153 
1 154 
1 155 
1 156 
1 157 
1 158 
1 159 
1 160 
1 161 
1 162 
1 163 
1 164 
1 165 
1 166 
1 167 
1 168 
1 169 
1 170 
1 171 
1 172 
1 173 
1 174 
CELL_TYPES 175 
1 
1 
1 
1 
1 
1 
1 
1 
1 
1 
1 
1 
1 
1 
1 
1 
1 
1 
1 
1 
1 
1 
1 
1 
1 
1 
1 
1 
1 
1 
1 
1 
1 
1 
1 
1 
1 
1 
1 
1 
1 
1 
1 
1 
1 
1 
1 
1 
1 
1 
1 
1 
1 
1 
1 
1 
1 
1 
1 
1 
1 
1 
1 
1 
1 
1 
1 
1 
1 
1 
1 
1 
1 
1 
1 
1 
1 
1 
1 
1 
1 
1 
1 
1 
1 
1 
1 
1 
1 
1 
1 
1 
1 
1 
1 
1 
1 
1 
1 
1 
1 
1 
1 
1 
1 
1 
1 
1 
1 
1 
1 
1 
1 
1 
1 
1 
1 
1 
1 
1 
1 
1 
1 
1 
1 
1 
1 
1 
1 
1 
1 
1 
1 
1 
1 
1 
1 
1 
1 
1 
1 
1 
1 
1 
1 
1 
1 
1 
1 
1 
1 
1 
1 
1 
1 
1 
1 
1 
1 
1 
1 
1 
1 
1 
1 
1 
1 
1 
1 
1 
1 
1 
1 
1 
1 
POINT_DATA 175 
VECTORS X_GC float 
-0.026061 -1.521008 0.000000 
-0.106992 -1.452952 0.000000 
-0.054870 -1.461185 0.000000 
-0.028809 -1.415301 0.000000 
-0.186430 -1.388877 0.000000 
-0.137056 -1.391403 0.000000 
-0.114311 -1.337756 0.000000 
-0.058186 -1.353421 0.000000 
-0.029377 -1.313244 0.000000 
-0.265318 -1.325721 0.000000 
-0.217198 -1.326521 0.000000 
-0.196633 -1.269224 0.000000 
-0.143120 -1.277933 0.000000 
-0.116563 -1.230664 0.000000 
-0.058945 -1.250310 0.000000 
-0.029568 -1.212190 0.000000 
-0.344206 -1.262565 0.000000 
-0.296791 -1.262558 0.000000 
-0.278030 -1.202615 0.000000 
-0.225992 -1.208482 0.000000 
-0.201664 -1.156365 0.000000 
-0.145749 -1.169839 0.000000 
-0.117890 -1.125496 0.000000 
-0.059328 -1.148202 0.000000 
-0.029759 -1.111136 0.000000 
-0.058559 -1.561758 0.000000 
-0.162226 -1.582601 0.000000 
-0.123292 -1.546983 0.000000 
-0.142917 -1.498000 0.000000 
-0.261851 -1.604758 0.000000 
-0.229092 -1.567730 0.000000 
-0.256854 -1.516499 0.000000 
-0.209613 -1.482386 0.000000 
-0.223062 -1.434812 0.000000 
-0.360414 -1.627058 0.000000 
-0.329787 -1.589935 0.000000 
-0.361761 -1.538133 0.000000 
-0.321587 -1.501724 0.000000 
-0.341985 -1.451490 0.000000 
-0.290702 -1.418691 0.000000 
-0.302189 -1.371956 0.000000 
-0.458977 -1.649358 0.000000 
-0.429420 -1.612283 0.000000 
-0.464588 -1.560241 0.000000 
-0.427556 -1.523214 0.000000 
-0.453135 -1.471699 0.000000 
-0.407738 -1.436384 0.000000 
-0.425037 -1.386956 0.000000 
-0.370772 -1.355327 0.000000 
-0.381315 -1.309099 0.000000 
-0.046960 -1.612574 0.000000 
-0.095301 -1.706620 0.000000 
-0.098873 -1.653972 0.000000 
-0.149405 -1.638775 0.000000 
-0.140093 -1.798324 0.000000 
-0.148617 -1.749625 0.000000 
-0.205981 -1.739388 0.000000 
-0.203197 -1.681185 0.000000 
-0.248777 -1.662038 0.000000 
-0.184111 -1.889287 0.000000 
-0.194039 -1.842196 0.000000 
-0.254475 -1.834897 0.000000 
-0.257893 -1.780787 0.000000 
-0.309886 -1.765414 0.000000 
-0.303554 -1.704869 0.000000 
-0.347255 -1.684711 0.000000 
-0.228129 -1.980251 0.000000 
-0.238687 -1.934027 0.000000 
-0.301302 -1.929075 0.000000 
-0.307162 -1.877036 0.000000 
-0.363386 -1.864915 0.000000 
-0.362692 -1.807403 0.000000 
-0.412122 -1.790110 0.000000 
-0.403017 -1.727963 0.000000 
-0.445733 -1.707385 0.000000 
-0.000000 -1.635189 0.000000 
0.043388 -1.731619 0.000000 
-0.000000 -1.701587 0.000000 
-0.043388 -1.731619 0.000000 
0.087158 -1.823816 0.000000 
0.043769 -1.800117 0.000000 
-0.000000 -1.838583 0.000000 
-0.043769 -1.800117 0.000000 
-0.087158 -1.823816 0.000000 
0.130831 -1.914946 0.000000 
0.087824 -1.893347 0.000000 
0.044436 -1.936046 0.000000 
-0.000000 -1.904981 0.000000 
-0.044436 -1.936046 0.000000 
-0.087824 -1.893347 0.000000 
-0.130831 -1.914946 0.000000 
0.174505 -2.006075 0.000000 
0.131782 -1.985509 0.000000 
0.088871 -2.031376 0.000000 
0.044532 -2.003512 0.000000 
-0.000000 -2.039912 0.000000 
-0.044532 -2.003512 0.000000 
-0.088871 -2.031376 0.000000 
-0.131782 -1.985509 0.000000 
-0.174505 -2.006075 0.000000 
0.046960 -1.612574 0.000000 
0.149405 -1.638775 0.000000 
0.098873 -1.653972 0.000000 
0.095301 -1.706620 0.000000 
0.248777 -1.662038 0.000000 
0.203197 -1.681185 0.000000 
0.205981 -1.739388 0.000000 
0.148617 -1.749625 0.000000 
0.140093 -1.798324 0.000000 
0.347255 -1.684711 0.000000 
0.303554 -1.704869 0.000000 
0.309886 -1.765414 0.000000 
0.257893 -1.780787 0.000000 
0.254475 -1.834897 0.000000 
0.194039 -1.842196 0.000000 
0.184111 -1.889287 0.000000 
0.445733 -1.707385 0.000000 
0.403017 -1.727963 0.000000 
0.412122 -1.790110 0.000000 
0.362692 -1.807403 0.000000 
0.363386 -1.864915 0.000000 
0.307162 -1.877036 0.000000 
0.301302 -1.929075 0.000000 
0.238687 -1.934027 0.000000 
0.228129 -1.980251 0.000000 
0.058559 -1.561758 0.000000 
0.142917 -1.498000 0.000000 
0.123292 -1.546983 0.000000 
0.162226 -1.582601 0.000000 
0.223062 -1.434812 0.000000 
0.209613 -1.482386 0.000000 
0.256854 -1.516499 0.000000 
0.229092 -1.567730 0.000000 
0.261851 -1.604758 0.000000 
0.302189 -1.371956 0.000000 
0.290702 -1.418691 0.000000 
0.341985 -1.451490 0.000000 
0.321587 -1.501724 0.000000 
0.361761 -1.538133 0.000000 
0.329787 -1.589935 0.000000 
0.360414 -1.627058 0.000000 
0.381315 -1.309099 0.000000 
0.370772 -1.355327 0.000000 
0.425037 -1.386956 0.000000 
0.407738 -1.436384 0.000000 
0.453135 -1.471699 0.000000 
0.427556 -1.523214 0.000000 
0.464588 -1.560241 0.000000 
0.429420 -1.612283 0.000000 
0.458977 -1.649358 0.000000 
0.026061 -1.521008 0.000000 
0.028809 -1.415301 0.000000 
0.054870 -1.461185 0.000000 
0.106992 -1.452952 0.000000 
0.029377 -1.313244 0.000000 
0.058186 -1.353421 0.000000 
0.114311 -1.337756 0.000000 
0.137056 -1.391403 0.000000 
0.186430 -1.388877 0.000000 
0.029568 -1.212190 0.000000 
0.058945 -1.250310 0.000000 
0.116563 -1.230664 0.000000 
0.143120 -1.277933 0.000000 
0.196633 -1.269224 0.000000 
0.217198 -1.326521 0.000000 
0.265318 -1.325721 0.000000 
0.029759 -1.111136 0.000000 
0.059328 -1.148202 0.000000 
0.117890 -1.125496 0.000000 
0.145749 -1.169839 0.000000 
0.201664 -1.156365 0.000000 
0.225992 -1.208482 0.000000 
0.278030 -1.202615 0.000000 
0.296791 -1.262558 0.000000 
0.344206 -1.262565 0.000000 
VECTORS X_EC float 
0.338794 -0.966395 0.000000 
-0.609100 0.114857 0.000000 
0.713312 0.225997 0.000000 
0.374519 -0.393432 0.000000 
0.423588 -0.750163 0.000000 
-0.218274 -0.716059 0.000000 
-0.513962 0.559702 0.000000 
0.756418 0.771188 0.000000 
0.381900 0.228796 0.000000 
-0.550868 0.397234 0.000000 
0.823577 0.408030 0.000000 
0.556234 -0.365474 0.000000 
-0.139443 -0.247906 0.000000 
-0.484677 -0.886030 0.000000 
0.766286 -0.620815 0.000000 
0.384386 0.864565 0.000000 
0.474677 -0.455369 0.000000 
-0.141715 -0.455465 0.000000 
-0.385608 0.735307 0.000000 
0.937896 0.814502 0.000000 
0.621631 0.110922 0.000000 
-0.105264 0.292821 0.000000 
-0.467428 -0.305805 0.000000 
0.771260 0.000723 0.000000 
0.386873 -0.499666 0.000000 
0.761262 -0.416260 0.000000 
0.108942 -0.134884 0.000000 
-0.397202 -0.615723 0.000000 
-0.142083 0.723002 0.000000 
-0.595936 0.164227 0.000000 
0.978194 -0.335639 0.000000 
-0.660903 0.972736 0.000000 
0.724964 0.512216 0.000000 
0.899809 -0.130033 0.000000 
0.685384 0.465279 0.000000 
0.287229 -0.035879 0.000000 
0.702895 -0.735208 0.000000 
0.180633 0.773273 0.000000 
0.445811 0.095114 0.000000 
-0.220880 -0.347672 0.000000 
-0.071546 -0.978598 0.000000 
-0.033296 0.766331 0.000000 
-0.417537 0.265822 0.000000 
0.039645 -0.436741 0.000000 
-0.441768 -0.936612 0.000000 
-0.109248 0.367937 0.000000 
-0.699407 -0.108818 0.000000 
-0.474522 -0.776098 0.000000 
0.820030 0.796909 0.000000 
0.957100 0.172837 0.000000 
0.610485 0.269746 0.000000 
-0.761092 -0.460635 0.000000 
-0.714655 0.828628 0.000000 
-0.057734 0.623461 0.000000 
-0.178789 0.777370 0.000000 
-0.067979 0.119943 0.000000 
0.677748 -0.018260 0.000000 
0.641556 -0.804005 0.000000 
-0.765897 0.937516 0.000000 
0.393446 0.005379 0.000000 
0.522510 -0.630351 0.000000 
-0.691820 -0.728896 0.000000 
-0.647393 0.540622 0.000000 
0.028512 0.333095 0.000000 
-0.053800 -0.484265 0.000000 
0.514316 -0.756396 0.000000 
0.965681 -0.766612 0.000000 
-0.897068 0.609359 0.000000 
-0.083078 0.542506 0.000000 
-0.006893 -0.160019 0.000000 
0.724017 -0.323652 0.000000 
0.714996 0.899945 0.000000 
-0.642413 0.666488 0.000000 
-0.760780 -0.172493 0.000000 
-0.205471 -0.450308 0.000000 
0.000000 0.575047 0.000000 
-0.564049 -0.123140 0.000000 
0.000000 -0.528576 0.000000 
0.564049 -0.123140 0.000000 
0.866949 -0.878484 0.000000 
-0.569003 0.801585 0.000000 
0.000000 -0.679127 0.000000 
0.569003 0.801585 0.000000 
-0.866949 -0.878484 0.000000 
0.299194 0.351766 0.000000 
0.858290 0.060182 0.000000 
-0.577662 0.636628 0.000000 
0.000000 0.217250 0.000000 
0.577662 0.636628 0.000000 
-0.858290 0.060182 0.000000 
-0.299194 0.351766 0.000000 
-0.268560 -0.417984 0.000000 
0.286830 -0.695626 0.000000 
0.844677 -0.076428 0.000000 
-0.578910 -0.452590 0.000000 
0.000000 0.038814 0.000000 
0.578910 -0.452590 0.000000 
-0.844677 -0.076428 0.000000 
-0.286830 -0.695626 0.000000 
0.268560 -0.417984 0.000000 
-0.610485 0.269746 0.000000 
0.057734 0.623461 0.000000 
0.714655 0.828628 0.000000 
0.761092 -0.460635 0.000000 
0.765897 0.937516 0.000000 
-0.641556 -0.804005 0.000000 
-0.677748 -0.018260 0.000000 
0.067979 0.119943 0.000000 
0.178789 0.777370 0.000000 
-0.514316 -0.756396 0.000000 
0.053800 -0.484265 0.000000 
-0.028512 0.333095 0.000000 
0.647393 0.540622 0.000000 
0.691820 -0.728896 0.000000 
-0.522510 -0.630351 0.000000 
-0.393446 0.005379 0.000000 
0.205471 -0.450308 0.000000 
0.760780 -0.172493 0.000000 
0.642413 0.666488 0.000000 
-0.714996 0.899945 0.000000 
-0.724017 -0.323652 0.000000 
0.006894 -0.160019 0.000000 
0.083078 0.542506 0.000000 
0.897068 0.609359 0.000000 
-0.965681 -0.766612 0.000000 
-0.761262 -0.416260 0.000000 
0.142083 0.723002 0.000000 
0.397202 -0.615723 0.000000 
-0.108942 -0.134884 0.000000 
-0.899809 -0.130033 0.000000 
-0.724964 0.512216 0.000000 
0.660903 0.972736 0.000000 
-0.978194 -0.335639 0.000000 
0.595936 0.164227 0.000000 
0.071546 -0.978598 0.000000 
0.220880 -0.347672 0.000000 
-0.445811 0.095114 0.000000 
-0.180633 0.773273 0.000000 
-0.702895 -0.735208 0.000000 
-0.287229 -0.035879 0.000000 
-0.685384 0.465279 0.000000 
-0.957100 0.172837 0.000000 
-0.820030 0.796909 0.000000 
0.474522 -0.776098 0.000000 
0.699407 -0.108818 0.000000 
0.109248 0.367937 0.000000 
0.441768 -0.936612 0.000000 
-0.039645 -0.436741 0.000000 
0.417537 0.265822 0.000000 
0.033296 0.766331 0.000000 
-0.338794 -0.966395 0.000000 
-0.374519 -0.393432 0.000000 
-0.713312 0.225997 0.000000 
0.609100 0.114857 0.000000 
-0.381900 0.228796 0.000000 
-0.756418 0.771188 0.000000 
0.513962 0.559702 0.000000 
0.218274 -0.716059 0.000000 
-0.423588 -0.750163 0.000000 
-0.384386 0.864565 0.000000 
-0.766286 -0.620815 0.000000 
0.484677 -0.886030 0.000000 
0.139443 -0.247906 0.000000 
-0.556234 -0.365474 0.000000 
-0.823577 0.408030 0.000000 
0.550868 0.397234 0.000000 
-0.386873 -0.499666 0.000000 
-0.771260 0.000723 0.000000 
0.467428 -0.305805 0.000000 
0.105264 0.292821 0.000000 
-0.621631 0.110922 0.000000 
-0.937896 0.814502 0.000000 
0.385608 0.735307 0.000000 
0.141715 -0.455465 0.000000 
-0.474677 -0.455369 0.000000 
CELL_DATA 175 
SCALARS MASS float 
LOOKUP_TABLE default 
0.078183 
0.086427 
0.094672 
0.086427 
0.088131 
0.092111 
0.085854 
0.092111 
0.088131 
0.088705 
0.091000 
0.086983 
0.091556 
0.086983 
0.091000 
0.088705 
0.089278 
0.091574 
0.089278 
0.092722 
0.089278 
0.092722 
0.089278 
0.091574 
0.089278 
0.078183 
0.086427 
0.094672 
0.086427 
0.088131 
0.092111 
0.085854 
0.092111 
0.088131 
0.088705 
0.091000 
0.086983 
0.091556 
0.086983 
0.091000 
0.088705 
0.089278 
0.091574 
0.089278 
0.092722 
0.089278 
0.092722 
0.089278 
0.091574 
0.089278 
0.078183 
0.086427 
0.094672 
0.086427 
0.088131 
0.092111 
0.085854 
0.092111 
0.088131 
0.088705 
0.091000 
0.086983 
0.091556 
0.086983 
0.091000 
0.088705 
0.089278 
0.091574 
0.089278 
0.092722 
0.089278 
0.092722 
0.089278 
0.091574 
0.089278 
0.078183 
0.086427 
0.094672 
0.086427 
0.088131 
0.092111 
0.085854 
0.092111 
0.088131 
0.088705 
0.091000 
0.086983 
0.091556 
0.086983 
0.091000 
0.088705 
0.089278 
0.091574 
0.089278 
0.092722 
0.089278 
0.092722 
0.089278 
0.091574 
0.089278 
0.078183 
0.086427 
0.094672 
0.086427 
0.088131 
0.092111 
0.085854 
0.092111 
0.088131 
0.088705 
0.091000 
0.086983 
0.091556 
0.086983 
0.091000 
0.088705 
0.089278 
0.091574 
0.089278 
0.092722 
0.089278 
0.092722 
0.089278 
0.091574 
0.089278 
0.078183 
0.086427 
0.094672 
0.086427 
0.088131 
0.092111 
0.085854 
0.092111 
0.088131 
0.088705 
0.091000 
0.086983 
0.091556 
0.086983 
0.091000 
0.088705 
0.089278 
0.091574 
0.089278 
0.092722 
0.089278 
0.092722 
0.089278 
0.091574 
0.089278 
0.078183 
0.086427 
0.094672 
0.086427 
0.088131 
0.092111 
0.085854 
0.092111 
0.088131 
0.088705 
0.091000 
0.086983 
0.091556 
0.086983 
0.091000 
0.088705 
0.089278 
0.091574 
0.089278 
0.092722 
0.089278 
0.092722 
0.089278 
0.091574 
0.089278 
SCALARS MASS float 
LOOKUP_TABLE default 
0.078183 
0.086427 
0.094672 
0.086427 
0.088131 
0.092111 
0.085854 
0.092111 
0.088131 
0.088705 
0.091000 
0.086983 
0.091556 
0.086983 
0.091000 
0.088705 
0.089278 
0.091574 
0.089278 
0.092722 
0.089278 
0.092722 
0.089278 
0.091574 
0.089278 
0.078183 
0.086427 
0.094672 
0.086427 
0.088131 
0.092111 
0.085854 
0.092111 
0.088131 
0.088705 
0.091000 
0.086983 
0.091556 
0.086983 
0.091000 
0.088705 
0.089278 
0.091574 
0.089278 
0.092722 
0.089278 
0.092722 
0.089278 
0.091574 
0.089278 
0.078183 
0.086427 
0.094672 
0.086427 
0.088131 
0.092111 
0.085854 
0.092111 
0.088131 
0.088705 
0.091000 
0.086983 
0.091556 
0.086983 
0.091000 
0.088705 
0.089278 
0.091574 
0.089278 
0.092722 
0.089278 
0.092722 
0.089278 
0.091574 
0.089278 
0.078183 
0.086427 
0.094672 
0.086427 
0.088131 
0.092111 
0.085854 
0.092111 
0.088131 
0.088705 
0.091000 
0.086983 
0.091556 
0.086983 
0.091000 
0.088705 
0.089278 
0.091574 
0.089278 
0.092722 
0.089278 
0.092722 
0.089278 
0.091574 
0.089278 
0.078183 
0.086427 
0.094672 
0.086427 
0.088131 
0.092111 
0.085854 
0.092111 
0.088131 
0.088705 
0.091000 
0.086983 
0.091556 
0.086983 
0.091000 
0.088705 
0.089278 
0.091574 
0.089278 
0.092722 
0.089278 
0.092722 
0.089278 
0.091574 
0.089278 
0.078183 
0.086427 
0.094672 
0.086427 
0.088131 
0.092111 
0.085854 
0.092111 
0.088131 
0.088705 
0.091000 
0.086983 
0.091556 
0.086983 
0.091000 
0.088705 
0.089278 
0.091574 
0.089278 
0.092722 
0.089278 
0.092722 
0.089278 
0.091574 
0.089278 
0.078183 
0.086427 
0.094672 
0.086427 
0.088131 
0.092111 
0.085854 
0.092111 
0.088131 
0.088705 
0.091000 
0.086983 
0.091556 
0.086983 
0.091000 
0.088705 
0.089278 
0.091574 
0.089278 
0.092722 
0.089278 
0.092722 
0.089278 
0.091574 
0.089278 
SCALARS DENSITY float 
LOOKUP_TABLE default 
20.000000 
20.000000 
20.000000 
20.000000 
20.000000 
20.000000 
20.000000 
20.000000 
20.000000 
20.000000 
20.000000 
20.000000 
20.000000 
20.000000 
20.000000 
20.000000 
20.000000 
20.000000 
20.000000 
20.000000 
20.000000 
20.000000 
20.000000 
20.000000 
20.000000 
20.000000 
20.000000 
20.000000 
20.000000 
20.000000 
20.000000 
20.000000 
20.000000 
20.000000 
20.000000 
20.000000 
20.000000 
20.000000 
20.000000 
20.000000 
20.000000 
20.000000 
20.000000 
20.000000 
20.000000 
20.000000 
20.000000 
20.000000 
20.000000 
20.000000 
20.000000 
20.000000 
20.000000 
20.000000 
20.000000 
20.000000 
20.000000 
20.000000 
20.000000 
20.000000 
20.000000 
20.000000 
20.000000 
20.000000 
20.000000 
20.000000 
20.000000 
20.000000 
20.000000 
20.000000 
20.000000 
20.000000 
20.000000 
20.000000 
20.000000 
20.000000 
20.000000 
20.000000 
20.000000 
20.000000 
20.000000 
20.000000 
20.000000 
20.000000 
20.000000 
20.000000 
20.000000 
20.000000 
20.000000 
20.000000 
20.000000 
20.000000 
20.000000 
20.000000 
20.000000 
20.000000 
20.000000 
20.000000 
20.000000 
20.000000 
20.000000 
20.000000 
20.000000 
20.000000 
20.000000 
20.000000 
20.000000 
20.000000 
20.000000 
20.000000 
20.000000 
20.000000 
20.000000 
20.000000 
20.000000 
20.000000 
20.000000 
20.000000 
20.000000 
20.000000 
20.000000 
20.000000 
20.000000 
20.000000 
20.000000 
20.000000 
20.000000 
20.000000 
20.000000 
20.000000 
20.000000 
20.000000 
20.000000 
20.000000 
20.000000 
20.000000 
20.000000 
20.000000 
20.000000 
20.000000 
20.000000 
20.000000 
20.000000 
20.000000 
20.000000 
20.000000 
20.000000 
20.000000 
20.000000 
20.000000 
20.000000 
20.000000 
20.000000 
20.000000 
20.000000 
20.000000 
20.000000 
20.000000 
20.000000 
20.000000 
20.000000 
20.000000 
20.000000 
20.000000 
20.000000 
20.000000 
20.000000 
20.000000 
20.000000 
20.000000 
20.000000 
20.000000 
20.000000 
20.000000 
20.000000 
SCALARS ELEM_i float 
LOOKUP_TABLE default 
171 
199 
172 
172 
199 
199 
200 
173 
173 
227 
200 
200 
200 
200 
173 
174 
227 
227 
228 
201 
201 
201 
201 
174 
174 
171 
198 
198 
199 
225 
198 
226 
199 
199 
225 
225 
225 
226 
226 
226 
226 
252 
252 
252 
252 
253 
253 
253 
227 
227 
171 
197 
198 
198 
197 
197 
197 
197 
225 
196 
196 
223 
224 
224 
224 
224 
195 
223 
223 
223 
223 
224 
251 
251 
251 
171 
170 
170 
170 
142 
170 
169 
170 
196 
142 
142 
169 
169 
169 
196 
196 
141 
141 
141 
168 
168 
168 
195 
195 
195 
171 
144 
144 
143 
117 
143 
143 
143 
143 
116 
116 
116 
116 
115 
142 
142 
89 
89 
89 
116 
115 
115 
115 
115 
141 
171 
145 
144 
144 
145 
145 
118 
144 
117 
118 
118 
118 
118 
117 
117 
117 
119 
119 
91 
91 
91 
90 
90 
90 
90 
171 
172 
172 
145 
173 
173 
146 
145 
145 
174 
173 
146 
146 
146 
146 
119 
174 
174 
147 
147 
147 
147 
120 
119 
119 
VECTORS VELOCITY float 
-0.000000 -5.558738 0.000000 
0.000000 -5.558738 0.000000 
0.000000 -5.558738 0.000000 
-0.000000 -5.558738 0.000000 
0.000000 -5.558738 0.000000 
0.000000 -5.558738 0.000000 
0.000000 -5.558738 0.000000 
0.000000 -5.558738 0.000000 
0.000000 -5.558738 0.000000 
0.000000 -5.558738 0.000000 
-0.000000 -5.558738 0.000000 
0.000000 -5.558738 0.000000 
0.000000 -5.558738 0.000000 
-0.000000 -5.558738 0.000000 
-0.000000 -5.558738 0.000000 
-0.000000 -5.558738 0.000000 
0.000000 -5.558738 0.000000 
0.000000 -5.558738 0.000000 
0.000000 -5.558738 0.000000 
0.000000 -5.558738 0.000000 
0.000000 -5.558738 0.000000 
-0.000000 -5.558738 0.000000 
0.000000 -5.558738 0.000000 
-0.000000 -5.558738 0.000000 
0.000000 -5.558738 0.000000 
0.000000 -5.558738 0.000000 
0.000000 -5.558738 0.000000 
0.000000 -5.558738 0.000000 
0.000000 -5.558738 0.000000 
0.000000 -5.558738 0.000000 
0.000000 -5.558738 0.000000 
0.000000 -5.558738 0.000000 
0.000000 -5.558738 0.000000 
-0.000000 -5.558738 0.000000 
-0.000000 -5.558738 0.000000 
0.000000 -5.558738 0.000000 
0.000000 -5.558738 0.000000 
0.000000 -5.558738 0.000000 
0.000000 -5.558738 0.000000 
0.000000 -5.558738 0.000000 
0.000000 -5.558738 0.000000 
-0.000000 -5.558738 0.000000 
0.000000 -5.558738 0.000000 
0.000000 -5.558738 0.000000 
0.000000 -5.558738 0.000000 
0.000000 -5.558738 0.000000 
0.000000 -5.558738 0.000000 
-0.000000 -5.558738 0.000000 
0.000000 -5.558738 0.000000 
0.000000 -5.558738 0.000000 
0.000000 -5.558738 0.000000 
-0.000000 -5.558738 0.000000 
-0.000000 -5.558738 0.000000 
0.000000 -5.558738 0.000000 
-0.000000 -5.558738 0.000000 
-0.000000 -5.558738 0.000000 
-0.000000 -5.558738 0.000000 
0.000000 -5.558738 0.000000 
0.000000 -5.558738 0.000000 
-0.000000 -5.558738 0.000000 
-0.000000 -5.558738 0.000000 
-0.000000 -5.558738 0.000000 
-0.000000 -5.558738 0.000000 
-0.000000 -5.558738 0.000000 
-0.000000 -5.558738 0.000000 
-0.000000 -5.558738 0.000000 
-0.000000 -5.558738 0.000000 
-0.000000 -5.558738 0.000000 
0.000000 -5.558738 0.000000 
-0.000000 -5.558738 0.000000 
0.000000 -5.558738 0.000000 
-0.000000 -5.558738 0.000000 
-0.000000 -5.558738 0.000000 
-0.000000 -5.558738 0.000000 
-0.000000 -5.558738 0.000000 
-0.000000 -5.558738 0.000000 
0.000000 -5.558738 0.000000 
-0.000000 -5.558738 0.000000 
-0.000000 -5.558738 0.000000 
-0.000000 -5.558738 0.000000 
-0.000000 -5.558738 0.000000 
0.000000 -5.558738 0.000000 
0.000000 -5.558738 0.000000 
0.000000 -5.558738 0.000000 
0.000000 -5.558738 0.000000 
-0.000000 -5.558738 0.000000 
0.000000 -5.558738 0.000000 
-0.000000 -5.558738 0.000000 
-0.000000 -5.558738 0.000000 
0.000000 -5.558738 0.000000 
-0.000000 -5.558738 0.000000 
-0.000000 -5.558738 0.000000 
-0.000000 -5.558738 0.000000 
-0.000000 -5.558738 0.000000 
-0.000000 -5.558738 0.000000 
-0.000000 -5.558738 0.000000 
-0.000000 -5.558738 0.000000 
-0.000000 -5.558738 0.000000 
-0.000000 -5.558738 0.000000 
0.000000 -5.558738 0.000000 
-0.000000 -5.558738 0.000000 
-0.000000 -5.558738 0.000000 
-0.000000 -5.558738 0.000000 
0.000000 -5.558738 0.000000 
-0.000000 -5.558738 0.000000 
-0.000000 -5.558738 0.000000 
-0.000000 -5.558738 0.000000 
0.000000 -5.558738 0.000000 
-0.000000 -5.558738 0.000000 
0.000000 -5.558738 0.000000 
-0.000000 -5.558738 0.000000 
-0.000000 -5.558738 0.000000 
-0.000000 -5.558738 0.000000 
0.000000 -5.558738 0.000000 
0.000000 -5.558738 0.000000 
0.000000 -5.558738 0.000000 
-0.000000 -5.558738 0.000000 
-0.000000 -5.558738 0.000000 
0.000000 -5.558738 0.000000 
0.000000 -5.558738 0.000000 
0.000000 -5.558738 0.000000 
0.000000 -5.558738 0.000000 
-0.000000 -5.558738 0.000000 
0.000000 -5.558738 0.000000 
0.000000 -5.558738 0.000000 
-0.000000 -5.558738 0.000000 
-0.000000 -5.558738 0.000000 
-0.000000 -5.558738 0.000000 
-0.000000 -5.558738 0.000000 
-0.000000 -5.558738 0.000000 
-0.000000 -5.558738 0.000000 
-0.000000 -5.558738 0.000000 
0.000000 -5.558738 0.000000 
0.000000 -5.558738 0.000000 
0.000000 -5.558738 0.000000 
-0.000000 -5.558738 0.000000 
-0.000000 -5.558738 0.000000 
-0.000000 -5.558738 0.000000 
-0.000000 -5.558738 0.000000 
0.000000 -5.558738 0.000000 
0.000000 -5.558738 0.000000 
-0.000000 -5.558738 0.000000 
0.000000 -5.558738 0.000000 
-0.000000 -5.558738 0.000000 
0.000000 -5.558738 0.000000 
0.000000 -5.558738 0.000000 
0.000000 -5.558738 0.000000 
0.000000 -5.558738 0.000000 
-0.000000 -5.558738 0.000000 
-0.000000 -5.558738 0.000000 
-0.000000 -5.558738 0.000000 
-0.000000 -5.558738 0.000000 
-0.000000 -5.558738 0.000000 
-0.000000 -5.558738 0.000000 
0.000000 -5.558738 0.000000 
-0.000000 -5.558738 0.000000 
-0.000000 -5.558738 0.000000 
-0.000000 -5.558738 0.000000 
-0.000000 -5.558738 0.000000 
0.000000 -5.558738 0.000000 
0.000000 -5.558738 0.000000 
0.000000 -5.558738 0.000000 
0.000000 -5.558738 0.000000 
-0.000000 -5.558738 0.000000 
0.000000 -5.558738 0.000000 
0.000000 -5.558738 0.000000 
0.000000 -5.558738 0.000000 
0.000000 -5.558738 0.000000 
0.000000 -5.558738 0.000000 
0.000000 -5.558738 0.000000 
0.000000 -5.558738 0.000000 
0.000000 -5.558738 0.000000 
0.000000 -5.558738 0.000000 
0.000000 -5.558738 0.000000 
0.000000 -5.558738 0.000000 
TENSORS STRESS float 
-0.000000 -0.000000 0.000000 
0.000000 -0.000000 0.000000 
0.000000 0.000000 0.000000 

0.000000 0.000000 0.000000 
0.000000 0.000000 0.000000 
0.000000 0.000000 0.000000 

-0.000000 -0.000000 0.000000 
0.000000 -0.000000 0.000000 
0.000000 0.000000 0.000000 

-0.000000 -0.000000 0.000000 
0.000000 -0.000000 0.000000 
0.000000 0.000000 0.000000 

-0.000000 0.000000 0.000000 
0.000000 -0.000000 0.000000 
0.000000 0.000000 0.000000 

0.000000 -0.000000 0.000000 
0.000000 0.000000 0.000000 
0.000000 0.000000 0.000000 

0.000000 -0.000000 0.000000 
0.000000 0.000000 0.000000 
0.000000 0.000000 0.000000 

-0.000000 -0.000000 0.000000 
0.000000 -0.000000 0.000000 
0.000000 0.000000 0.000000 

-0.000000 -0.000000 0.000000 
0.000000 -0.000000 0.000000 
0.000000 0.000000 0.000000 

-0.000000 -0.000000 0.000000 
0.000000 -0.000000 0.000000 
0.000000 0.000000 0.000000 

-0.000000 -0.000000 0.000000 
0.000000 -0.000000 0.000000 
0.000000 0.000000 0.000000 

0.000000 0.000000 0.000000 
0.000000 0.000000 0.000000 
0.000000 0.000000 0.000000 

0.000000 0.000000 0.000000 
0.000000 0.000000 0.000000 
0.000000 0.000000 0.000000 

-0.000000 -0.000000 0.000000 
0.000000 0.000000 0.000000 
0.000000 0.000000 0.000000 

0.000000 -0.000000 0.000000 
0.000000 0.000000 0.000000 
0.000000 0.000000 0.000000 

0.000000 -0.000000 0.000000 
0.000000 -0.000000 0.000000 
0.000000 0.000000 0.000000 

0.000000 -0.000000 0.000000 
0.000000 0.000000 0.000000 
0.000000 0.000000 0.000000 

0.000000 -0.000000 0.000000 
0.000000 0.000000 0.000000 
0.000000 0.000000 0.000000 

-0.000000 -0.000000 0.000000 
0.000000 0.000000 0.000000 
0.000000 0.000000 0.000000 

-0.000000 0.000000 0.000000 
0.000000 -0.000000 0.000000 
0.000000 0.000000 0.000000 

0.000000 0.000000 0.000000 
0.000000 0.000000 0.000000 
0.000000 0.000000 0.000000 

-0.000000 0.000000 0.000000 
0.000000 -0.000000 0.000000 
0.000000 0.000000 0.000000 

0.000000 -0.000000 0.000000 
0.000000 0.000000 0.000000 
0.000000 0.000000 0.000000 

0.000000 -0.000000 0.000000 
0.000000 0.000000 0.000000 
0.000000 0.000000 0.000000 

-0.000000 -0.000000 0.000000 
0.000000 -0.000000 0.000000 
0.000000 0.000000 0.000000 

0.000000 -0.000000 0.000000 
0.000000 0.000000 0.000000 
0.000000 0.000000 0.000000 

0.000000 -0.000000 0.000000 
0.000000 0.000000 0.000000 
0.000000 0.000000 0.000000 

0.000000 0.000000 0.000000 
0.000000 0.000000 0.000000 
0.000000 0.000000 0.000000 

0.000000 -0.000000 0.000000 
0.000000 -0.000000 0.000000 
0.000000 0.000000 0.000000 

-0.000000 -0.000000 0.000000 
0.000000 -0.000000 0.000000 
0.000000 0.000000 0.000000 

-0.000000 -0.000000 0.000000 
0.000000 -0.000000 0.000000 
0.000000 0.000000 0.000000 

-0.000000 -0.000000 0.000000 
0.000000 -0.000000 0.000000 
0.000000 0.000000 0.000000 

0.000000 -0.000000 0.000000 
0.000000 0.000000 0.000000 
0.000000 0.000000 0.000000 

0.000000 -0.000000 0.000000 
0.000000 0.000000 0.000000 
0.000000 0.000000 0.000000 

0.000000 -0.000000 0.000000 
0.000000 0.000000 0.000000 
0.000000 0.000000 0.000000 

-0.000000 -0.000000 0.000000 
0.000000 0.000000 0.000000 
0.000000 0.000000 0.000000 

0.000000 -0.000000 0.000000 
0.000000 0.000000 0.000000 
0.000000 0.000000 0.000000 

0.000000 0.000000 0.000000 
0.000000 -0.000000 0.000000 
0.000000 0.000000 0.000000 

0.000000 0.000000 0.000000 
0.000000 0.000000 0.000000 
0.000000 0.000000 0.000000 

0.000000 0.000000 0.000000 
0.000000 0.000000 0.000000 
0.000000 0.000000 0.000000 

0.000000 0.000000 0.000000 
0.000000 0.000000 0.000000 
0.000000 0.000000 0.000000 

0.000000 0.000000 0.000000 
0.000000 -0.000000 0.000000 
0.000000 0.000000 0.000000 

0.000000 0.000000 0.000000 
0.000000 0.000000 0.000000 
0.000000 0.000000 0.000000 

0.000000 -0.000000 0.000000 
0.000000 0.000000 0.000000 
0.000000 0.000000 0.000000 

-0.000000 -0.000000 0.000000 
0.000000 -0.000000 0.000000 
0.000000 0.000000 0.000000 

-0.000000 -0.000000 0.000000 
0.000000 -0.000000 0.000000 
0.000000 0.000000 0.000000 

-0.000000 -0.000000 0.000000 
0.000000 0.000000 0.000000 
0.000000 0.000000 0.000000 

-0.000000 -0.000000 0.000000 
0.000000 -0.000000 0.000000 
0.000000 0.000000 0.000000 

-0.000000 0.000000 0.000000 
0.000000 0.000000 0.000000 
0.000000 0.000000 0.000000 

-0.000000 -0.000000 0.000000 
0.000000 -0.000000 0.000000 
0.000000 0.000000 0.000000 

-0.000000 0.000000 0.000000 
0.000000 0.000000 0.000000 
0.000000 0.000000 0.000000 

-0.000000 -0.000000 0.000000 
0.000000 -0.000000 0.000000 
0.000000 0.000000 0.000000 

-0.000000 -0.000000 0.000000 
0.000000 0.000000 0.000000 
0.000000 0.000000 0.000000 

0.000000 0.000000 0.000000 
0.000000 0.000000 0.000000 
0.000000 0.000000 0.000000 

-0.000000 0.000000 0.000000 
0.000000 -0.000000 0.000000 
0.000000 0.000000 0.000000 

0.000000 -0.000000 0.000000 
0.000000 0.000000 0.000000 
0.000000 0.000000 0.000000 

0.000000 0.000000 0.000000 
0.000000 0.000000 0.000000 
0.000000 0.000000 0.000000 

-0.000000 0.000000 0.000000 
0.000000 -0.000000 0.000000 
0.000000 0.000000 0.000000 

0.000000 0.000000 0.000000 
0.000000 0.000000 0.000000 
0.000000 0.000000 0.000000 

-0.000000 0.000000 0.000000 
0.000000 -0.000000 0.000000 
0.000000 0.000000 0.000000 

0.000000 0.000000 0.000000 
0.000000 0.000000 0.000000 
0.000000 0.000000 0.000000 

-0.000000 -0.000000 0.000000 
0.000000 -0.000000 0.000000 
0.000000 0.000000 0.000000 

-0.000000 0.000000 0.000000 
0.000000 0.000000 0.000000 
0.000000 0.000000 0.000000 

-0.000000 -0.000000 0.000000 
0.000000 0.000000 0.000000 
0.000000 0.000000 0.000000 

0.000000 0.000000 0.000000 
0.000000 0.000000 0.000000 
0.000000 0.000000 0.000000 

-0.000000 0.000000 0.000000 
0.000000 -0.000000 0.000000 
0.000000 0.000000 0.000000 

0.000000 0.000000 0.000000 
0.000000 -0.000000 0.000000 
0.000000 0.000000 0.000000 

0.000000 0.000000 0.000000 
0.000000 0.000000 0.000000 
0.000000 0.000000 0.000000 

-0.000000 0.000000 0.000000 
0.000000 -0.000000 0.000000 
0.000000 0.000000 0.000000 

0.000000 -0.000000 0.000000 
0.000000 0.000000 0.000000 
0.000000 0.000000 0.000000 

0.000000 -0.000000 0.000000 
0.000000 -0.000000 0.000000 
0.000000 0.000000 0.000000 

-0.000000 -0.000000 0.000000 
0.000000 -0.000000 0.000000 
0.000000 0.000000 0.000000 

0.000000 0.000000 0.000000 
0.000000 0.000000 0.000000 
0.000000 0.000000 0.000000 

0.000000 -0.000000 0.000000 
0.000000 -0.000000 0.000000 
0.000000 0.000000 0.000000 

0.000000 0.000000 0.000000 
0.000000 -0.000000 0.000000 
0.000000 0.000000 0.000000 

-0.000000 0.000000 0.000000 
0.000000 -0.000000 0.000000 
0.000000 0.000000 0.000000 

0.000000 0.000000 0.000000 
0.000000 0.000000 0.000000 
0.000000 0.000000 0.000000 

0.000000 -0.000000 0.000000 
0.000000 -0.000000 0.000000 
0.000000 0.000000 0.000000 

0.000000 -0.000000 0.000000 
0.000000 0.000000 0.000000 
0.000000 0.000000 0.000000 

0.000000 0.000000 0.000000 
0.000000 0.000000 0.000000 
0.000000 0.000000 0.000000 

-0.000000 0.000000 0.000000 
0.000000 -0.000000 0.000000 
0.000000 0.000000 0.000000 

-0.000000 0.000000 0.000000 
0.000000 -0.000000 0.000000 
0.000000 0.000000 0.000000 

-0.000000 0.000000 0.000000 
0.000000 -0.000000 0.000000 
0.000000 0.000000 0.000000 

0.000000 0.000000 0.000000 
0.000000 0.000000 0.000000 
0.000000 0.000000 0.000000 

-0.000000 0.000000 0.000000 
0.000000 -0.000000 0.000000 
0.000000 0.000000 0.000000 

-0.000000 -0.000000 0.000000 
0.000000 -0.000000 0.000000 
0.000000 0.000000 0.000000 

-0.000000 0.000000 0.000000 
0.000000 -0.000000 0.000000 
0.000000 0.000000 0.000000 

-0.000000 -0.000000 0.000000 
0.000000 -0.000000 0.000000 
0.000000 0.000000 0.000000 

-0.000000 0.000000 0.000000 
0.000000 0.000000 0.000000 
0.000000 0.000000 0.000000 

-0.000000 0.000000 0.000000 
0.000000 -0.000000 0.000000 
0.000000 0.000000 0.000000 

0.000000 0.000000 0.000000 
0.000000 0.000000 0.000000 
0.000000 0.000000 0.000000 

0.000000 -0.000000 0.000000 
0.000000 0.000000 0.000000 
0.000000 0.000000 0.000000 

-0.000000 0.000000 0.000000 
0.000000 -0.000000 0.000000 
0.000000 0.000000 0.000000 

0.000000 -0.000000 0.000000 
0.000000 0.000000 0.000000 
0.000000 0.000000 0.000000 

0.000000 0.000000 0.000000 
0.000000 0.000000 0.000000 
0.000000 0.000000 0.000000 

0.000000 0.000000 0.000000 
0.000000 0.000000 0.000000 
0.000000 0.000000 0.000000 

0.000000 0.000000 0.000000 
0.000000 0.000000 0.000000 
0.000000 0.000000 0.000000 

-0.000000 0.000000 0.000000 
0.000000 -0.000000 0.000000 
0.000000 0.000000 0.000000 

0.000000 0.000000 0.000000 
0.000000 0.000000 0.000000 
0.000000 0.000000 0.000000 

0.000000 0.000000 0.000000 
0.000000 0.000000 0.000000 
0.000000 0.000000 0.000000 

-0.000000 -0.000000 0.000000 
0.000000 -0.000000 0.000000 
0.000000 0.000000 0.000000 

-0.000000 -0.000000 0.000000 
0.000000 -0.000000 0.000000 
0.000000 0.000000 0.000000 

-0.000000 0.000000 0.000000 
0.000000 0.000000 0.000000 
0.000000 0.000000 0.000000 

-0.000000 -0.000000 0.000000 
0.000000 -0.000000 0.000000 
0.000000 0.000000 0.000000 

-0.000000 0.000000 0.000000 
0.000000 -0.000000 0.000000 
0.000000 0.000000 0.000000 

-0.000000 -0.000000 0.000000 
0.000000 0.000000 0.000000 
0.000000 0.000000 0.000000 

-0.000000 0.000000 0.000000 
0.000000 0.000000 0.000000 
0.000000 0.000000 0.000000 

-0.000000 0.000000 0.000000 
0.000000 0.000000 0.000000 
0.000000 0.000000 0.000000 

0.000000 -0.000000 0.000000 
0.000000 0.000000 0.000000 
0.000000 0.000000 0.000000 

0.000000 -0.000000 0.000000 
0.000000 0.000000 0.000000 
0.000000 0.000000 0.000000 

0.000000 -0.000000 0.000000 
0.000000 0.000000 0.000000 
0.000000 0.000000 0.000000 

0.000000 -0.000000 0.000000 
0.000000 -0.000000 0.000000 
0.000000 0.000000 0.000000 

0.000000 -0.000000 0.000000 
0.000000 0.000000 0.000000 
0.000000 0.000000 0.000000 

0.000000 0.000000 0.000000 
0.000000 0.000000 0.000000 
0.000000 0.000000 0.000000 

0.000000 -0.000000 0.000000 
0.000000 0.000000 0.000000 
0.000000 0.000000 0.000000 

-0.000000 -0.000000 0.000000 
0.000000 -0.000000 0.000000 
0.000000 0.000000 0.000000 

-0.000000 -0.000000 0.000000 
0.000000 -0.000000 0.000000 
0.000000 0.000000 0.000000 

0.000000 0.000000 0.000000 
0.000000 0.000000 0.000000 
0.000000 0.000000 0.000000 

0.000000 0.000000 0.000000 
0.000000 0.000000 0.000000 
0.000000 0.000000 0.000000 

-0.000000 -0.000000 0.000000 
0.000000 -0.000000 0.000000 
0.000000 0.000000 0.000000 

0.000000 0.000000 0.000000 
0.000000 0.000000 0.000000 
0.000000 0.000000 0.000000 

0.000000 0.000000 0.000000 
0.000000 0.000000 0.000000 
0.000000 0.000000 0.000000 

-0.000000 -0.000000 0.000000 
0.000000 -0.000000 0.000000 
0.000000 0.000000 0.000000 

0.000000 0.000000 0.000000 
0.000000 -0.000000 0.000000 
0.000000 0.000000 0.000000 

-0.000000 0.000000 0.000000 
0.000000 -0.000000 0.000000 
0.000000 0.000000 0.000000 

-0.000000 -0.000000 0.000000 
0.000000 0.000000 0.000000 
0.000000 0.000000 0.000000 

0.000000 0.000000 0.000000 
0.000000 0.000000 0.000000 
0.000000 0.000000 0.000000 

-0.000000 0.000000 0.000000 
0.000000 -0.000000 0.000000 
0.000000 0.000000 0.000000 

-0.000000 0.000000 0.000000 
0.000000 -0.000000 0.000000 
0.000000 0.000000 0.000000 

0.000000 0.000000 0.000000 
0.000000 0.000000 0.000000 
0.000000 0.000000 0.000000 

0.000000 0.000000 0.000000 
0.000000 0.000000 0.000000 
0.000000 0.000000 0.000000 

0.000000 -0.000000 0.000000 
0.000000 0.000000 0.000000 
0.000000 0.000000 0.000000 

-0.000000 0.000000 0.000000 
0.000000 -0.000000 0.000000 
0.000000 0.000000 0.000000 

0.000000 0.000000 0.000000 
0.000000 -0.000000 0.000000 
0.000000 0.000000 0.000000 

-0.000000 -0.000000 0.000000 
0.000000 -0.000000 0.000000 
0.000000 0.000000 0.000000 

0.000000 -0.000000 0.000000 
0.000000 -0.000000 0.000000 
0.000000 0.000000 0.000000 

0.000000 -0.000000 0.000000 
0.000000 0.000000 0.000000 
0.000000 0.000000 0.000000 

0.000000 0.000000 0.000000 
0.000000 0.000000 0.000000 
0.000000 0.000000 0.000000 

0.000000 0.000000 0.000000 
0.000000 0.000000 0.000000 
0.000000 0.000000 0.000000 

0.000000 -0.000000 0.000000 
0.000000 0.000000 0.000000 
0.000000 0.000000 0.000000 

0.000000 -0.000000 0.000000 
0.000000 -0.000000 0.000000 
0.000000 0.000000 0.000000 

-0.000000 -0.000000 0.000000 
0.000000 -0.000000 0.000000 
0.000000 0.000000 0.000000 

0.000000 0.000000 0.000000 
0.000000 0.000000 0.000000 
0.000000 0.000000 0.000000 

0.000000 -0.000000 0.000000 
0.000000 0.000000 0.000000 
0.000000 0.000000 0.000000 

0.000000 -0.000000 0.000000 
0.000000 0.000000 0.000000 
0.000000 0.000000 0.000000 

-0.000000 -0.000000 0.000000 
0.000000 -0.000000 0.000000 
0.000000 0.000000 0.000000 

0.000000 -0.000000 0.000000 
0.000000 0.000000 0.000000 
0.000000 0.000000 0.000000 

0.000000 -0.000000 0.000000 
0.000000 -0.000000 0.000000 
0.000000 0.000000 0.000000 

0.000000 0.000000 0.000000 
0.000000 -0.000000 0.000000 
0.000000 0.000000 0.000000 

0.000000 -0.000000 0.000000 
0.000000 0.000000 0.000000 
0.000000 0.000000 0.000000 

-0.000000 -0.000000 0.000000 
0.000000 -0.000000 0.000000 
0.000000 0.000000 0.000000 

0.000000 -0.000000 0.000000 
0.000000 0.000000 0.000000 
0.000000 0.000000 0.000000 

0.000000 -0.000000 0.000000 
0.000000 0.000000 0.000000 
0.000000 0.000000 0.000000 

0.000000 -0.000000 0.000000 
0.000000 0.000000 0.000000 
0.000000 0.000000 0.000000 

-0.000000 -0.000000 0.000000 
0.000000 -0.000000 0.000000 
0.000000 0.000000 0.000000 

-0.000000 -0.000000 0.000000 
0.000000 -0.000000 0.000000 
0.000000 0.000000 0.000000 

-0.000000 0.000000 0.000000 
0.000000 -0.000000 0.000000 
0.000000 0.000000 0.000000 

0.000000 -0.000000 0.000000 
0.000000 0.000000 0.000000 
0.000000 0.000000 0.000000 

0.000000 -0.000000 0.000000 
0.000000 0.000000 0.000000 
0.000000 0.000000 0.000000 

0.000000 -0.000000 0.000000 
0.000000 0.000000 0.000000 
0.000000 0.000000 0.000000 

0.000000 -0.000000 0.000000 
0.000000 0.000000 0.000000 
0.000000 0.000000 0.000000 

0.000000 0.000000 0.000000 
0.000000 0.000000 0.000000 
0.000000 0.000000 0.000000 

0.000000 -0.000000 0.000000 
0.000000 0.000000 0.000000 
0.000000 0.000000 0.000000 

0.000000 -0.000000 0.000000 
0.000000 0.000000 0.000000 
0.000000 0.000000 0.000000 

0.000000 0.000000 0.000000 
0.000000 0.000000 0.000000 
0.000000 0.000000 0.000000 

0.000000 0.000000 0.000000 
0.000000 -0.000000 0.000000 
0.000000 0.000000 0.000000 

0.000000 -0.000000 0.000000 
0.000000 -0.000000 0.000000 
0.000000 0.000000 0.000000 

0.000000 -0.000000 0.000000 
0.000000 0.000000 0.000000 
0.000000 0.000000 0.000000 

0.000000 0.000000 0.000000 
0.000000 0.000000 0.000000 
0.000000 0.000000 0.000000 

0.000000 0.000000 0.000000 
0.000000 0.000000 0.000000 
0.000000 0.000000 0.000000 

0.000000 0.000000 0.000000 
0.000000 0.000000 0.000000 
0.000000 0.000000 0.000000 

0.000000 0.000000 0.000000 
0.000000 0.000000 0.000000 
0.000000 0.000000 0.000000 

0.000000 0.000000 0.000000 
0.000000 -0.000000 0.000000 
0.000000 0.000000 0.000000 

-0.000000 -0.000000 0.000000 
0.000000 -0.000000 0.000000 
0.000000 0.000000 0.000000 

-0.000000 -0.000000 0.000000 
0.000000 -0.000000 0.000000 
0.000000 0.000000 0.000000 

TENSORS STRAIN float 
-0.000000 -0.000000 0.000000 
0.000000 -0.000000 0.000000 
0.000000 0.000000 0.000000 

0.000000 0.000000 0.000000 
0.000000 0.000000 0.000000 
0.000000 0.000000 0.000000 

0.000000 -0.000000 0.000000 
0.000000 -0.000000 0.000000 
0.000000 0.000000 0.000000 

0.000000 -0.000000 0.000000 
0.000000 -0.000000 0.000000 
0.000000 0.000000 0.000000 

0.000000 0.000000 0.000000 
0.000000 -0.000000 0.000000 
0.000000 0.000000 0.000000 

0.000000 -0.000000 0.000000 
0.000000 0.000000 0.000000 
0.000000 0.000000 0.000000 

0.000000 -0.000000 0.000000 
0.000000 0.000000 0.000000 
0.000000 0.000000 0.000000 

-0.000000 -0.000000 0.000000 
0.000000 -0.000000 0.000000 
0.000000 0.000000 0.000000 

-0.000000 -0.000000 0.000000 
0.000000 -0.000000 0.000000 
0.000000 0.000000 0.000000 

-0.000000 -0.000000 0.000000 
0.000000 -0.000000 0.000000 
0.000000 0.000000 0.000000 

0.000000 -0.000000 0.000000 
0.000000 -0.000000 0.000000 
0.000000 0.000000 0.000000 

-0.000000 0.000000 0.000000 
0.000000 0.000000 0.000000 
0.000000 0.000000 0.000000 

0.000000 0.000000 0.000000 
0.000000 0.000000 0.000000 
0.000000 0.000000 0.000000 

-0.000000 -0.000000 0.000000 
0.000000 0.000000 0.000000 
0.000000 0.000000 0.000000 

-0.000000 -0.000000 0.000000 
0.000000 0.000000 0.000000 
0.000000 0.000000 0.000000 

0.000000 -0.000000 0.000000 
0.000000 -0.000000 0.000000 
0.000000 0.000000 0.000000 

-0.000000 -0.000000 0.000000 
0.000000 0.000000 0.000000 
0.000000 0.000000 0.000000 

-0.000000 -0.000000 0.000000 
0.000000 0.000000 0.000000 
0.000000 0.000000 0.000000 

-0.000000 -0.000000 0.000000 
0.000000 0.000000 0.000000 
0.000000 0.000000 0.000000 

-0.000000 0.000000 0.000000 
0.000000 -0.000000 0.000000 
0.000000 0.000000 0.000000 

0.000000 0.000000 0.000000 
0.000000 0.000000 0.000000 
0.000000 0.000000 0.000000 

-0.000000 0.000000 0.000000 
0.000000 -0.000000 0.000000 
0.000000 0.000000 0.000000 

0.000000 -0.000000 0.000000 
0.000000 0.000000 0.000000 
0.000000 0.000000 0.000000 

0.000000 -0.000000 0.000000 
0.000000 0.000000 0.000000 
0.000000 0.000000 0.000000 

0.000000 -0.000000 0.000000 
0.000000 -0.000000 0.000000 
0.000000 0.000000 0.000000 

-0.000000 -0.000000 0.000000 
0.000000 0.000000 0.000000 
0.000000 0.000000 0.000000 

0.000000 -0.000000 0.000000 
0.000000 0.000000 0.000000 
0.000000 0.000000 0.000000 

0.000000 0.000000 0.000000 
0.000000 0.000000 0.000000 
0.000000 0.000000 0.000000 

0.000000 -0.000000 0.000000 
0.000000 -0.000000 0.000000 
0.000000 0.000000 0.000000 

-0.000000 -0.000000 0.000000 
0.000000 -0.000000 0.000000 
0.000000 0.000000 0.000000 

0.000000 -0.000000 0.000000 
0.000000 -0.000000 0.000000 
0.000000 0.000000 0.000000 

0.000000 -0.000000 0.000000 
0.000000 -0.000000 0.000000 
0.000000 0.000000 0.000000 

0.000000 -0.000000 0.000000 
0.000000 0.000000 0.000000 
0.000000 0.000000 0.000000 

0.000000 -0.000000 0.000000 
0.000000 0.000000 0.000000 
0.000000 0.000000 0.000000 

-0.000000 -0.000000 0.000000 
0.000000 0.000000 0.000000 
0.000000 0.000000 0.000000 

-0.000000 -0.000000 0.000000 
0.000000 0.000000 0.000000 
0.000000 0.000000 0.000000 

0.000000 -0.000000 0.000000 
0.000000 0.000000 0.000000 
0.000000 0.000000 0.000000 

0.000000 0.000000 0.000000 
0.000000 -0.000000 0.000000 
0.000000 0.000000 0.000000 

0.000000 0.000000 0.000000 
0.000000 -0.000000 0.000000 
0.000000 0.000000 0.000000 

0.000000 0.000000 0.000000 
0.000000 0.000000 0.000000 
0.000000 0.000000 0.000000 

-0.000000 0.000000 0.000000 
0.000000 0.000000 0.000000 
0.000000 0.000000 0.000000 

0.000000 0.000000 0.000000 
0.000000 -0.000000 0.000000 
0.000000 0.000000 0.000000 

0.000000 0.000000 0.000000 
0.000000 0.000000 0.000000 
0.000000 0.000000 0.000000 

-0.000000 -0.000000 0.000000 
0.000000 0.000000 0.000000 
0.000000 0.000000 0.000000 

-0.000000 -0.000000 0.000000 
0.000000 -0.000000 0.000000 
0.000000 0.000000 0.000000 

-0.000000 -0.000000 0.000000 
0.000000 -0.000000 0.000000 
0.000000 0.000000 0.000000 

-0.000000 -0.000000 0.000000 
0.000000 0.000000 0.000000 
0.000000 0.000000 0.000000 

-0.000000 -0.000000 0.000000 
0.000000 -0.000000 0.000000 
0.000000 0.000000 0.000000 

-0.000000 0.000000 0.000000 
0.000000 0.000000 0.000000 
0.000000 0.000000 0.000000 

-0.000000 -0.000000 0.000000 
0.000000 -0.000000 0.000000 
0.000000 0.000000 0.000000 

-0.000000 0.000000 0.000000 
0.000000 0.000000 0.000000 
0.000000 0.000000 0.000000 

0.000000 -0.000000 0.000000 
0.000000 -0.000000 0.000000 
0.000000 0.000000 0.000000 

-0.000000 -0.000000 0.000000 
0.000000 0.000000 0.000000 
0.000000 0.000000 0.000000 

-0.000000 0.000000 0.000000 
0.000000 0.000000 0.000000 
0.000000 0.000000 0.000000 

0.000000 0.000000 0.000000 
0.000000 -0.000000 0.000000 
0.000000 0.000000 0.000000 

0.000000 -0.000000 0.000000 
0.000000 -0.000000 0.000000 
0.000000 0.000000 0.000000 

0.000000 0.000000 0.000000 
0.000000 0.000000 0.000000 
0.000000 0.000000 0.000000 

-0.000000 0.000000 0.000000 
0.000000 -0.000000 0.000000 
0.000000 0.000000 0.000000 

-0.000000 0.000000 0.000000 
0.000000 0.000000 0.000000 
0.000000 0.000000 0.000000 

-0.000000 0.000000 0.000000 
0.000000 -0.000000 0.000000 
0.000000 0.000000 0.000000 

0.000000 0.000000 0.000000 
0.000000 0.000000 0.000000 
0.000000 0.000000 0.000000 

-0.000000 -0.000000 0.000000 
0.000000 0.000000 0.000000 
0.000000 0.000000 0.000000 

-0.000000 0.000000 0.000000 
0.000000 0.000000 0.000000 
0.000000 0.000000 0.000000 

-0.000000 -0.000000 0.000000 
0.000000 0.000000 0.000000 
0.000000 0.000000 0.000000 

-0.000000 0.000000 0.000000 
0.000000 0.000000 0.000000 
0.000000 0.000000 0.000000 

-0.000000 0.000000 0.000000 
0.000000 -0.000000 0.000000 
0.000000 0.000000 0.000000 

0.000000 0.000000 0.000000 
0.000000 -0.000000 0.000000 
0.000000 0.000000 0.000000 

0.000000 0.000000 0.000000 
0.000000 0.000000 0.000000 
0.000000 0.000000 0.000000 

0.000000 0.000000 0.000000 
0.000000 -0.000000 0.000000 
0.000000 0.000000 0.000000 

0.000000 -0.000000 0.000000 
0.000000 0.000000 0.000000 
0.000000 0.000000 0.000000 

0.000000 -0.000000 0.000000 
0.000000 -0.000000 0.000000 
0.000000 0.000000 0.000000 

-0.000000 -0.000000 0.000000 
0.000000 -0.000000 0.000000 
0.000000 0.000000 0.000000 

0.000000 0.000000 0.000000 
0.000000 0.000000 0.000000 
0.000000 0.000000 0.000000 

0.000000 -0.000000 0.000000 
0.000000 -0.000000 0.000000 
0.000000 0.000000 0.000000 

0.000000 0.000000 0.000000 
0.000000 -0.000000 0.000000 
0.000000 0.000000 0.000000 

0.000000 0.000000 0.000000 
0.000000 -0.000000 0.000000 
0.000000 0.000000 0.000000 

0.000000 0.000000 0.000000 
0.000000 0.000000 0.000000 
0.000000 0.000000 0.000000 

0.000000 -0.000000 0.000000 
0.000000 -0.000000 0.000000 
0.000000 0.000000 0.000000 

0.000000 -0.000000 0.000000 
0.000000 0.000000 0.000000 
0.000000 0.000000 0.000000 

-0.000000 0.000000 0.000000 
0.000000 0.000000 0.000000 
0.000000 0.000000 0.000000 

-0.000000 0.000000 0.000000 
0.000000 -0.000000 0.000000 
0.000000 0.000000 0.000000 

-0.000000 0.000000 0.000000 
0.000000 -0.000000 0.000000 
0.000000 0.000000 0.000000 

-0.000000 0.000000 0.000000 
0.000000 -0.000000 0.000000 
0.000000 0.000000 0.000000 

0.000000 0.000000 0.000000 
0.000000 0.000000 0.000000 
0.000000 0.000000 0.000000 

-0.000000 0.000000 0.000000 
0.000000 -0.000000 0.000000 
0.000000 0.000000 0.000000 

0.000000 -0.000000 0.000000 
0.000000 -0.000000 0.000000 
0.000000 0.000000 0.000000 

-0.000000 0.000000 0.000000 
0.000000 0.000000 0.000000 
0.000000 0.000000 0.000000 

-0.000000 -0.000000 0.000000 
0.000000 -0.000000 0.000000 
0.000000 0.000000 0.000000 

-0.000000 0.000000 0.000000 
0.000000 0.000000 0.000000 
0.000000 0.000000 0.000000 

-0.000000 0.000000 0.000000 
0.000000 -0.000000 0.000000 
0.000000 0.000000 0.000000 

0.000000 0.000000 0.000000 
0.000000 0.000000 0.000000 
0.000000 0.000000 0.000000 

-0.000000 -0.000000 0.000000 
0.000000 0.000000 0.000000 
0.000000 0.000000 0.000000 

-0.000000 0.000000 0.000000 
0.000000 -0.000000 0.000000 
0.000000 0.000000 0.000000 

0.000000 -0.000000 0.000000 
0.000000 0.000000 0.000000 
0.000000 0.000000 0.000000 

0.000000 0.000000 0.000000 
0.000000 0.000000 0.000000 
0.000000 0.000000 0.000000 

0.000000 0.000000 0.000000 
0.000000 0.000000 0.000000 
0.000000 0.000000 0.000000 

0.000000 0.000000 0.000000 
0.000000 0.000000 0.000000 
0.000000 0.000000 0.000000 

-0.000000 0.000000 0.000000 
0.000000 -0.000000 0.000000 
0.000000 0.000000 0.000000 

0.000000 0.000000 0.000000 
0.000000 0.000000 0.000000 
0.000000 0.000000 0.000000 

0.000000 0.000000 0.000000 
0.000000 0.000000 0.000000 
0.000000 0.000000 0.000000 

-0.000000 -0.000000 0.000000 
0.000000 -0.000000 0.000000 
0.000000 0.000000 0.000000 

-0.000000 -0.000000 0.000000 
0.000000 -0.000000 0.000000 
0.000000 0.000000 0.000000 

-0.000000 0.000000 0.000000 
0.000000 0.000000 0.000000 
0.000000 0.000000 0.000000 

-0.000000 -0.000000 0.000000 
0.000000 -0.000000 0.000000 
0.000000 0.000000 0.000000 

0.000000 0.000000 0.000000 
0.000000 -0.000000 0.000000 
0.000000 0.000000 0.000000 

-0.000000 -0.000000 0.000000 
0.000000 0.000000 0.000000 
0.000000 0.000000 0.000000 

-0.000000 0.000000 0.000000 
0.000000 0.000000 0.000000 
0.000000 0.000000 0.000000 

-0.000000 0.000000 0.000000 
0.000000 0.000000 0.000000 
0.000000 0.000000 0.000000 

-0.000000 -0.000000 0.000000 
0.000000 0.000000 0.000000 
0.000000 0.000000 0.000000 

0.000000 -0.000000 0.000000 
0.000000 0.000000 0.000000 
0.000000 0.000000 0.000000 

0.000000 -0.000000 0.000000 
0.000000 0.000000 0.000000 
0.000000 0.000000 0.000000 

0.000000 -0.000000 0.000000 
0.000000 -0.000000 0.000000 
0.000000 0.000000 0.000000 

0.000000 -0.000000 0.000000 
0.000000 0.000000 0.000000 
0.000000 0.000000 0.000000 

0.000000 0.000000 0.000000 
0.000000 -0.000000 0.000000 
0.000000 0.000000 0.000000 

0.000000 -0.000000 0.000000 
0.000000 0.000000 0.000000 
0.000000 0.000000 0.000000 

0.000000 -0.000000 0.000000 
0.000000 -0.000000 0.000000 
0.000000 0.000000 0.000000 

-0.000000 -0.000000 0.000000 
0.000000 -0.000000 0.000000 
0.000000 0.000000 0.000000 

0.000000 0.000000 0.000000 
0.000000 0.000000 0.000000 
0.000000 0.000000 0.000000 

0.000000 0.000000 0.000000 
0.000000 0.000000 0.000000 
0.000000 0.000000 0.000000 

0.000000 -0.000000 0.000000 
0.000000 -0.000000 0.000000 
0.000000 0.000000 0.000000 

0.000000 0.000000 0.000000 
0.000000 -0.000000 0.000000 
0.000000 0.000000 0.000000 

0.000000 0.000000 0.000000 
0.000000 0.000000 0.000000 
0.000000 0.000000 0.000000 

0.000000 -0.000000 0.000000 
0.000000 -0.000000 0.000000 
0.000000 0.000000 0.000000 

0.000000 0.000000 0.000000 
0.000000 -0.000000 0.000000 
0.000000 0.000000 0.000000 

-0.000000 0.000000 0.000000 
0.000000 0.000000 0.000000 
0.000000 0.000000 0.000000 

-0.000000 -0.000000 0.000000 
0.000000 0.000000 0.000000 
0.000000 0.000000 0.000000 

-0.000000 0.000000 0.000000 
0.000000 0.000000 0.000000 
0.000000 0.000000 0.000000 

-0.000000 0.000000 0.000000 
0.000000 -0.000000 0.000000 
0.000000 0.000000 0.000000 

-0.000000 0.000000 0.000000 
0.000000 -0.000000 0.000000 
0.000000 0.000000 0.000000 

0.000000 0.000000 0.000000 
0.000000 0.000000 0.000000 
0.000000 0.000000 0.000000 

-0.000000 0.000000 0.000000 
0.000000 0.000000 0.000000 
0.000000 0.000000 0.000000 

0.000000 -0.000000 0.000000 
0.000000 0.000000 0.000000 
0.000000 0.000000 0.000000 

-0.000000 0.000000 0.000000 
0.000000 -0.000000 0.000000 
0.000000 0.000000 0.000000 

0.000000 0.000000 0.000000 
0.000000 -0.000000 0.000000 
0.000000 0.000000 0.000000 

0.000000 -0.000000 0.000000 
0.000000 -0.000000 0.000000 
0.000000 0.000000 0.000000 

0.000000 -0.000000 0.000000 
0.000000 -0.000000 0.000000 
0.000000 0.000000 0.000000 

0.000000 -0.000000 0.000000 
0.000000 0.000000 0.000000 
0.000000 0.000000 0.000000 

0.000000 0.000000 0.000000 
0.000000 0.000000 0.000000 
0.000000 0.000000 0.000000 

0.000000 0.000000 0.000000 
0.000000 0.000000 0.000000 
0.000000 0.000000 0.000000 

0.000000 -0.000000 0.000000 
0.000000 0.000000 0.000000 
0.000000 0.000000 0.000000 

0.000000 -0.000000 0.000000 
0.000000 -0.000000 0.000000 
0.000000 0.000000 0.000000 

0.000000 -0.000000 0.000000 
0.000000 -0.000000 0.000000 
0.000000 0.000000 0.000000 

0.000000 0.000000 0.000000 
0.000000 0.000000 0.000000 
0.000000 0.000000 0.000000 

0.000000 -0.000000 0.000000 
0.000000 -0.000000 0.000000 
0.000000 0.000000 0.000000 

-0.000000 -0.000000 0.000000 
0.000000 0.000000 0.000000 
0.000000 0.000000 0.000000 

0.000000 -0.000000 0.000000 
0.000000 -0.000000 0.000000 
0.000000 0.000000 0.000000 

0.000000 -0.000000 0.000000 
0.000000 0.000000 0.000000 
0.000000 0.000000 0.000000 

0.000000 -0.000000 0.000000 
0.000000 -0.000000 0.000000 
0.000000 0.000000 0.000000 

0.000000 0.000000 0.000000 
0.000000 -0.000000 0.000000 
0.000000 0.000000 0.000000 

0.000000 -0.000000 0.000000 
0.000000 0.000000 0.000000 
0.000000 0.000000 0.000000 

-0.000000 -0.000000 0.000000 
0.000000 -0.000000 0.000000 
0.000000 0.000000 0.000000 

0.000000 -0.000000 0.000000 
0.000000 0.000000 0.000000 
0.000000 0.000000 0.000000 

0.000000 -0.000000 0.000000 
0.000000 0.000000 0.000000 
0.000000 0.000000 0.000000 

-0.000000 -0.000000 0.000000 
0.000000 0.000000 0.000000 
0.000000 0.000000 0.000000 

-0.000000 -0.000000 0.000000 
0.000000 -0.000000 0.000000 
0.000000 0.000000 0.000000 

-0.000000 -0.000000 0.000000 
0.000000 -0.000000 0.000000 
0.000000 0.000000 0.000000 

0.000000 0.000000 0.000000 
0.000000 -0.000000 0.000000 
0.000000 0.000000 0.000000 

0.000000 -0.000000 0.000000 
0.000000 0.000000 0.000000 
0.000000 0.000000 0.000000 

0.000000 -0.000000 0.000000 
0.000000 0.000000 0.000000 
0.000000 0.000000 0.000000 

0.000000 -0.000000 0.000000 
0.000000 -0.000000 0.000000 
0.000000 0.000000 0.000000 

-0.000000 -0.000000 0.000000 
0.000000 0.000000 0.000000 
0.000000 0.000000 0.000000 

0.000000 0.000000 0.000000 
0.000000 0.000000 0.000000 
0.000000 0.000000 0.000000 

0.000000 -0.000000 0.000000 
0.000000 -0.000000 0.000000 
0.000000 0.000000 0.000000 

0.000000 -0.000000 0.000000 
0.000000 0.000000 0.000000 
0.000000 0.000000 0.000000 

0.000000 0.000000 0.000000 
0.000000 0.000000 0.000000 
0.000000 0.000000 0.000000 

0.000000 0.000000 0.000000 
0.000000 -0.000000 0.000000 
0.000000 0.000000 0.000000 

0.000000 -0.000000 0.000000 
0.000000 -0.000000 0.000000 
0.000000 0.000000 0.000000 

0.000000 -0.000000 0.000000 
0.000000 0.000000 0.000000 
0.000000 0.000000 0.000000 

0.000000 0.000000 0.000000 
0.000000 -0.000000 0.000000 
0.000000 0.000000 0.000000 

0.000000 0.000000 0.000000 
0.000000 0.000000 0.000000 
0.000000 0.000000 0.000000 

0.000000 0.000000 0.000000 
0.000000 0.000000 0.000000 
0.000000 0.000000 0.000000 

0.000000 0.000000 0.000000 
0.000000 0.000000 0.000000 
0.000000 0.000000 0.000000 

0.000000 0.000000 0.000000 
0.000000 -0.000000 0.000000 
0.000000 0.000000 0.000000 

-0.000000 -0.000000 0.000000 
0.000000 -0.000000 0.000000 
0.000000 0.000000 0.000000 

-0.000000 -0.000000 0.000000 
0.000000 -0.000000 0.000000 
0.000000 0.000000 0.000000 

