# vtk DataFile Version 3.0 
vtk output 
ASCII 
DATASET UNSTRUCTURED_GRID 
POINTS 175 float 
-0.026061 -0.047537 0.000000 
-0.106992 0.020518 0.000000 
-0.054870 0.012286 0.000000 
-0.028809 0.058169 0.000000 
-0.186430 0.084594 0.000000 
-0.137056 0.082068 0.000000 
-0.114311 0.135715 0.000000 
-0.058186 0.120049 0.000000 
-0.029377 0.160226 0.000000 
-0.265318 0.147749 0.000000 
-0.217198 0.146950 0.000000 
-0.196633 0.204246 0.000000 
-0.143120 0.195538 0.000000 
-0.116563 0.242806 0.000000 
-0.058945 0.223161 0.000000 
-0.029568 0.261281 0.000000 
-0.344206 0.210905 0.000000 
-0.296791 0.210912 0.000000 
-0.278030 0.270855 0.000000 
-0.225992 0.264989 0.000000 
-0.201664 0.317106 0.000000 
-0.145749 0.303632 0.000000 
-0.117890 0.347975 0.000000 
-0.059328 0.325269 0.000000 
-0.029759 0.362335 0.000000 
-0.058559 -0.088288 0.000000 
-0.162226 -0.109131 0.000000 
-0.123292 -0.073513 0.000000 
-0.142917 -0.024530 0.000000 
-0.261851 -0.131287 0.000000 
-0.229092 -0.094260 0.000000 
-0.256854 -0.043028 0.000000 
-0.209613 -0.008916 0.000000 
-0.223062 0.038658 0.000000 
-0.360414 -0.153587 0.000000 
-0.329787 -0.116464 0.000000 
-0.361761 -0.064662 0.000000 
-0.321587 -0.028253 0.000000 
-0.341985 0.021981 0.000000 
-0.290702 0.054780 0.000000 
-0.302189 0.101515 0.000000 
-0.458977 -0.175887 0.000000 
-0.429420 -0.138813 0.000000 
-0.464588 -0.086771 0.000000 
-0.427556 -0.049743 0.000000 
-0.453135 0.001771 0.000000 
-0.407738 0.037087 0.000000 
-0.425037 0.086515 0.000000 
-0.370772 0.118144 0.000000 
-0.381315 0.164371 0.000000 
-0.046960 -0.139103 0.000000 
-0.095301 -0.233149 0.000000 
-0.098873 -0.180502 0.000000 
-0.149405 -0.165304 0.000000 
-0.140093 -0.324853 0.000000 
-0.148617 -0.276155 0.000000 
-0.205981 -0.265918 0.000000 
-0.203197 -0.207714 0.000000 
-0.248777 -0.188568 0.000000 
-0.184111 -0.415817 0.000000 
-0.194039 -0.368726 0.000000 
-0.254475 -0.361426 0.000000 
-0.257893 -0.307316 0.000000 
-0.309886 -0.291944 0.000000 
-0.303554 -0.231399 0.000000 
-0.347255 -0.211241 0.000000 
-0.228129 -0.506780 0.000000 
-0.238687 -0.460556 0.000000 
-0.301302 -0.455604 0.000000 
-0.307162 -0.403565 0.000000 
-0.363386 -0.391444 0.000000 
-0.362692 -0.333933 0.000000 
-0.412122 -0.316640 0.000000 
-0.403017 -0.254493 0.000000 
-0.445733 -0.233914 0.000000 
-0.000000 -0.161718 0.000000 
0.043388 -0.258149 0.000000 
-0.000000 -0.228116 0.000000 
-0.043388 -0.258149 0.000000 
0.087158 -0.350345 0.000000 
0.043769 -0.326647 0.000000 
-0.000000 -0.365113 0.000000 
-0.043769 -0.326647 0.000000 
-0.087158 -0.350345 0.000000 
0.130831 -0.441475 0.000000 
0.087824 -0.419876 0.000000 
0.044436 -0.462576 0.000000 
-0.000000 -0.431511 0.000000 
-0.044436 -0.462576 0.000000 
-0.087824 -0.419876 0.000000 
-0.130831 -0.441475 0.000000 
0.174505 -0.532605 0.000000 
0.131782 -0.512039 0.000000 
0.088871 -0.557905 0.000000 
0.044532 -0.530041 0.000000 
-0.000000 -0.566442 0.000000 
-0.044532 -0.530041 0.000000 
-0.088871 -0.557905 0.000000 
-0.131782 -0.512039 0.000000 
-0.174505 -0.532605 0.000000 
0.046960 -0.139103 0.000000 
0.149405 -0.165304 0.000000 
0.098873 -0.180502 0.000000 
0.095301 -0.233149 0.000000 
0.248777 -0.188568 0.000000 
0.203197 -0.207714 0.000000 
0.205981 -0.265918 0.000000 
0.148617 -0.276155 0.000000 
0.140093 -0.324853 0.000000 
0.347255 -0.211241 0.000000 
0.303554 -0.231399 0.000000 
0.309886 -0.291944 0.000000 
0.257893 -0.307316 0.000000 
0.254475 -0.361426 0.000000 
0.194039 -0.368726 0.000000 
0.184111 -0.415817 0.000000 
0.445733 -0.233914 0.000000 
0.403017 -0.254493 0.000000 
0.412122 -0.316640 0.000000 
0.362692 -0.333933 0.000000 
0.363386 -0.391444 0.000000 
0.307162 -0.403565 0.000000 
0.301302 -0.455604 0.000000 
0.238687 -0.460556 0.000000 
0.228129 -0.506780 0.000000 
0.058559 -0.088288 0.000000 
0.142917 -0.024530 0.000000 
0.123292 -0.073513 0.000000 
0.162226 -0.109131 0.000000 
0.223062 0.038658 0.000000 
0.209613 -0.008916 0.000000 
0.256854 -0.043028 0.000000 
0.229092 -0.094260 0.000000 
0.261851 -0.131287 0.000000 
0.302189 0.101515 0.000000 
0.290702 0.054780 0.000000 
0.341985 0.021981 0.000000 
0.321587 -0.028253 0.000000 
0.361761 -0.064662 0.000000 
0.329787 -0.116464 0.000000 
0.360414 -0.153587 0.000000 
0.381315 0.164371 0.000000 
0.370772 0.118144 0.000000 
0.425037 0.086515 0.000000 
0.407738 0.037087 0.000000 
0.453135 0.001771 0.000000 
0.427556 -0.049743 0.000000 
0.464588 -0.086771 0.000000 
0.429420 -0.138813 0.000000 
0.458977 -0.175887 0.000000 
0.026061 -0.047537 0.000000 
0.028809 0.058169 0.000000 
0.054870 0.012286 0.000000 
0.106992 0.020518 0.000000 
0.029377 0.160226 0.000000 
0.058186 0.120049 0.000000 
0.114311 0.135715 0.000000 
0.137056 0.082068 0.000000 
0.186430 0.084594 0.000000 
0.029568 0.261281 0.000000 
0.058945 0.223161 0.000000 
0.116563 0.242806 0.000000 
0.143120 0.195538 0.000000 
0.196633 0.204246 0.000000 
0.217198 0.146950 0.000000 
0.265318 0.147749 0.000000 
0.029759 0.362335 0.000000 
0.059328 0.325269 0.000000 
0.117890 0.347975 0.000000 
0.145749 0.303632 0.000000 
0.201664 0.317106 0.000000 
0.225992 0.264989 0.000000 
0.278030 0.270855 0.000000 
0.296791 0.210912 0.000000 
0.344206 0.210905 0.000000 
CELLS 175 350 
1 0 
1 1 
1 2 
1 3 
1 4 
1 5 
1 6 
1 7 
1 8 
1 9 
1 10 
1 11 
1 12 
1 13 
1 14 
1 15 
1 16 
1 17 
1 18 
1 19 
1 20 
1 21 
1 22 
1 23 
1 24 
1 25 
1 26 
1 27 
1 28 
1 29 
1 30 
1 31 
1 32 
1 33 
1 34 
1 35 
1 36 
1 37 
1 38 
1 39 
1 40 
1 41 
1 42 
1 43 
1 44 
1 45 
1 46 
1 47 
1 48 
1 49 
1 50 
1 51 
1 52 
1 53 
1 54 
1 55 
1 56 
1 57 
1 58 
1 59 
1 60 
1 61 
1 62 
1 63 
1 64 
1 65 
1 66 
1 67 
1 68 
1 69 
1 70 
1 71 
1 72 
1 73 
1 74 
1 75 
1 76 
1 77 
1 78 
1 79 
1 80 
1 81 
1 82 
1 83 
1 84 
1 85 
1 86 
1 87 
1 88 
1 89 
1 90 
1 91 
1 92 
1 93 
1 94 
1 95 
1 96 
1 97 
1 98 
1 99 
1 100 
1 101 
1 102 
1 103 
1 104 
1 105 
1 106 
1 107 
1 108 
1 109 
1 110 
1 111 
1 112 
1 113 
1 114 
1 115 
1 116 
1 117 
1 118 
1 119 
1 120 
1 121 
1 122 
1 123 
1 124 
1 125 
1 126 
1 127 
1 128 
1 129 
1 130 
1 131 
1 132 
1 133 
1 134 
1 135 
1 136 
1 137 
1 138 
1 139 
1 140 
1 141 
1 142 
1 143 
1 144 
1 145 
1 146 
1 147 
1 148 
1 149 
1 150 
1 151 
1 152 
1 153 
1 154 
1 155 
1 156 
1 157 
1 158 
1 159 
1 160 
1 161 
1 162 
1 163 
1 164 
1 165 
1 166 
1 167 
1 168 
1 169 
1 170 
1 171 
1 172 
1 173 
1 174 
CELL_TYPES 175 
1 
1 
1 
1 
1 
1 
1 
1 
1 
1 
1 
1 
1 
1 
1 
1 
1 
1 
1 
1 
1 
1 
1 
1 
1 
1 
1 
1 
1 
1 
1 
1 
1 
1 
1 
1 
1 
1 
1 
1 
1 
1 
1 
1 
1 
1 
1 
1 
1 
1 
1 
1 
1 
1 
1 
1 
1 
1 
1 
1 
1 
1 
1 
1 
1 
1 
1 
1 
1 
1 
1 
1 
1 
1 
1 
1 
1 
1 
1 
1 
1 
1 
1 
1 
1 
1 
1 
1 
1 
1 
1 
1 
1 
1 
1 
1 
1 
1 
1 
1 
1 
1 
1 
1 
1 
1 
1 
1 
1 
1 
1 
1 
1 
1 
1 
1 
1 
1 
1 
1 
1 
1 
1 
1 
1 
1 
1 
1 
1 
1 
1 
1 
1 
1 
1 
1 
1 
1 
1 
1 
1 
1 
1 
1 
1 
1 
1 
1 
1 
1 
1 
1 
1 
1 
1 
1 
1 
1 
1 
1 
1 
1 
1 
1 
1 
1 
1 
1 
1 
1 
1 
1 
1 
1 
1 
POINT_DATA 175 
VECTORS X_GC float 
-0.026061 -0.047537 0.000000 
-0.106992 0.020518 0.000000 
-0.054870 0.012286 0.000000 
-0.028809 0.058169 0.000000 
-0.186430 0.084594 0.000000 
-0.137056 0.082068 0.000000 
-0.114311 0.135715 0.000000 
-0.058186 0.120049 0.000000 
-0.029377 0.160226 0.000000 
-0.265318 0.147749 0.000000 
-0.217198 0.146950 0.000000 
-0.196633 0.204246 0.000000 
-0.143120 0.195538 0.000000 
-0.116563 0.242806 0.000000 
-0.058945 0.223161 0.000000 
-0.029568 0.261281 0.000000 
-0.344206 0.210905 0.000000 
-0.296791 0.210912 0.000000 
-0.278030 0.270855 0.000000 
-0.225992 0.264989 0.000000 
-0.201664 0.317106 0.000000 
-0.145749 0.303632 0.000000 
-0.117890 0.347975 0.000000 
-0.059328 0.325269 0.000000 
-0.029759 0.362335 0.000000 
-0.058559 -0.088288 0.000000 
-0.162226 -0.109131 0.000000 
-0.123292 -0.073513 0.000000 
-0.142917 -0.024530 0.000000 
-0.261851 -0.131287 0.000000 
-0.229092 -0.094260 0.000000 
-0.256854 -0.043028 0.000000 
-0.209613 -0.008916 0.000000 
-0.223062 0.038658 0.000000 
-0.360414 -0.153587 0.000000 
-0.329787 -0.116464 0.000000 
-0.361761 -0.064662 0.000000 
-0.321587 -0.028253 0.000000 
-0.341985 0.021981 0.000000 
-0.290702 0.054780 0.000000 
-0.302189 0.101515 0.000000 
-0.458977 -0.175887 0.000000 
-0.429420 -0.138813 0.000000 
-0.464588 -0.086771 0.000000 
-0.427556 -0.049743 0.000000 
-0.453135 0.001771 0.000000 
-0.407738 0.037087 0.000000 
-0.425037 0.086515 0.000000 
-0.370772 0.118144 0.000000 
-0.381315 0.164371 0.000000 
-0.046960 -0.139103 0.000000 
-0.095301 -0.233149 0.000000 
-0.098873 -0.180502 0.000000 
-0.149405 -0.165304 0.000000 
-0.140093 -0.324853 0.000000 
-0.148617 -0.276155 0.000000 
-0.205981 -0.265918 0.000000 
-0.203197 -0.207714 0.000000 
-0.248777 -0.188568 0.000000 
-0.184111 -0.415817 0.000000 
-0.194039 -0.368726 0.000000 
-0.254475 -0.361426 0.000000 
-0.257893 -0.307316 0.000000 
-0.309886 -0.291944 0.000000 
-0.303554 -0.231399 0.000000 
-0.347255 -0.211241 0.000000 
-0.228129 -0.506780 0.000000 
-0.238687 -0.460556 0.000000 
-0.301302 -0.455604 0.000000 
-0.307162 -0.403565 0.000000 
-0.363386 -0.391444 0.000000 
-0.362692 -0.333933 0.000000 
-0.412122 -0.316640 0.000000 
-0.403017 -0.254493 0.000000 
-0.445733 -0.233914 0.000000 
-0.000000 -0.161718 0.000000 
0.043388 -0.258149 0.000000 
-0.000000 -0.228116 0.000000 
-0.043388 -0.258149 0.000000 
0.087158 -0.350345 0.000000 
0.043769 -0.326647 0.000000 
-0.000000 -0.365113 0.000000 
-0.043769 -0.326647 0.000000 
-0.087158 -0.350345 0.000000 
0.130831 -0.441475 0.000000 
0.087824 -0.419876 0.000000 
0.044436 -0.462576 0.000000 
-0.000000 -0.431511 0.000000 
-0.044436 -0.462576 0.000000 
-0.087824 -0.419876 0.000000 
-0.130831 -0.441475 0.000000 
0.174505 -0.532605 0.000000 
0.131782 -0.512039 0.000000 
0.088871 -0.557905 0.000000 
0.044532 -0.530041 0.000000 
-0.000000 -0.566442 0.000000 
-0.044532 -0.530041 0.000000 
-0.088871 -0.557905 0.000000 
-0.131782 -0.512039 0.000000 
-0.174505 -0.532605 0.000000 
0.046960 -0.139103 0.000000 
0.149405 -0.165304 0.000000 
0.098873 -0.180502 0.000000 
0.095301 -0.233149 0.000000 
0.248777 -0.188568 0.000000 
0.203197 -0.207714 0.000000 
0.205981 -0.265918 0.000000 
0.148617 -0.276155 0.000000 
0.140093 -0.324853 0.000000 
0.347255 -0.211241 0.000000 
0.303554 -0.231399 0.000000 
0.309886 -0.291944 0.000000 
0.257893 -0.307316 0.000000 
0.254475 -0.361426 0.000000 
0.194039 -0.368726 0.000000 
0.184111 -0.415817 0.000000 
0.445733 -0.233914 0.000000 
0.403017 -0.254493 0.000000 
0.412122 -0.316640 0.000000 
0.362692 -0.333933 0.000000 
0.363386 -0.391444 0.000000 
0.307162 -0.403565 0.000000 
0.301302 -0.455604 0.000000 
0.238687 -0.460556 0.000000 
0.228129 -0.506780 0.000000 
0.058559 -0.088288 0.000000 
0.142917 -0.024530 0.000000 
0.123292 -0.073513 0.000000 
0.162226 -0.109131 0.000000 
0.223062 0.038658 0.000000 
0.209613 -0.008916 0.000000 
0.256854 -0.043028 0.000000 
0.229092 -0.094260 0.000000 
0.261851 -0.131287 0.000000 
0.302189 0.101515 0.000000 
0.290702 0.054780 0.000000 
0.341985 0.021981 0.000000 
0.321587 -0.028253 0.000000 
0.361761 -0.064662 0.000000 
0.329787 -0.116464 0.000000 
0.360414 -0.153587 0.000000 
0.381315 0.164371 0.000000 
0.370772 0.118144 0.000000 
0.425037 0.086515 0.000000 
0.407738 0.037087 0.000000 
0.453135 0.001771 0.000000 
0.427556 -0.049743 0.000000 
0.464588 -0.086771 0.000000 
0.429420 -0.138813 0.000000 
0.458977 -0.175887 0.000000 
0.026061 -0.047537 0.000000 
0.028809 0.058169 0.000000 
0.054870 0.012286 0.000000 
0.106992 0.020518 0.000000 
0.029377 0.160226 0.000000 
0.058186 0.120049 0.000000 
0.114311 0.135715 0.000000 
0.137056 0.082068 0.000000 
0.186430 0.084594 0.000000 
0.029568 0.261281 0.000000 
0.058945 0.223161 0.000000 
0.116563 0.242806 0.000000 
0.143120 0.195538 0.000000 
0.196633 0.204246 0.000000 
0.217198 0.146950 0.000000 
0.265318 0.147749 0.000000 
0.029759 0.362335 0.000000 
0.059328 0.325269 0.000000 
0.117890 0.347975 0.000000 
0.145749 0.303632 0.000000 
0.201664 0.317106 0.000000 
0.225992 0.264989 0.000000 
0.278030 0.270855 0.000000 
0.296791 0.210912 0.000000 
0.344206 0.210905 0.000000 
VECTORS X_EC float 
0.338794 -0.858247 0.000000 
-0.609100 0.223004 0.000000 
0.713312 0.334145 0.000000 
0.374519 -0.285284 0.000000 
0.423588 -0.642015 0.000000 
-0.218274 -0.607911 0.000000 
-0.513962 0.667850 0.000000 
0.756418 0.879336 0.000000 
0.381900 0.336944 0.000000 
-0.550868 0.505382 0.000000 
0.823577 0.516178 0.000000 
0.556234 -0.257327 0.000000 
-0.139443 -0.139758 0.000000 
-0.484677 -0.777882 0.000000 
0.766286 -0.512667 0.000000 
0.384386 0.972713 0.000000 
0.474677 -0.347221 0.000000 
-0.141715 -0.347318 0.000000 
-0.385608 0.843454 0.000000 
0.937896 0.922650 0.000000 
0.621631 0.219070 0.000000 
-0.105264 0.400969 0.000000 
-0.467428 -0.197657 0.000000 
0.771260 0.108871 0.000000 
0.386873 -0.391518 0.000000 
0.761262 -0.308113 0.000000 
0.108942 -0.026736 0.000000 
-0.397202 -0.507575 0.000000 
-0.142083 0.831149 0.000000 
-0.595936 0.272375 0.000000 
0.978194 -0.227491 0.000000 
-0.660903 -0.919116 0.000000 
0.724964 0.620364 0.000000 
0.899809 -0.021885 0.000000 
0.685384 0.573427 0.000000 
0.287229 0.072268 0.000000 
0.702895 -0.627060 0.000000 
0.180633 0.881421 0.000000 
0.445811 0.203261 0.000000 
-0.220880 -0.239525 0.000000 
-0.071546 -0.870450 0.000000 
-0.033296 0.874479 0.000000 
-0.417537 0.373969 0.000000 
0.039645 -0.328593 0.000000 
-0.441768 -0.828464 0.000000 
-0.109248 0.476085 0.000000 
-0.699407 -0.000671 0.000000 
-0.474522 -0.667950 0.000000 
0.820030 0.905057 0.000000 
0.957100 0.280985 0.000000 
0.610485 0.377894 0.000000 
-0.761092 -0.352487 0.000000 
-0.714655 0.936776 0.000000 
-0.057734 0.731608 0.000000 
-0.178789 0.885517 0.000000 
-0.067979 0.228091 0.000000 
0.677748 0.089888 0.000000 
0.641556 -0.695858 0.000000 
-0.765897 -0.954336 0.000000 
0.393446 0.113526 0.000000 
0.522510 -0.522204 0.000000 
-0.691820 -0.620748 0.000000 
-0.647393 0.648770 0.000000 
0.028512 0.441243 0.000000 
-0.053800 -0.376118 0.000000 
0.514316 -0.648248 0.000000 
0.965681 -0.658465 0.000000 
-0.897068 0.717507 0.000000 
-0.083078 0.650654 0.000000 
-0.006893 -0.051871 0.000000 
0.724017 -0.215504 0.000000 
0.714996 -0.991907 0.000000 
-0.642413 0.774635 0.000000 
-0.760780 -0.064345 0.000000 
-0.205471 -0.342161 0.000000 
0.000000 0.683195 0.000000 
-0.564049 -0.014992 0.000000 
0.000000 -0.420428 0.000000 
0.564049 -0.014992 0.000000 
0.866949 -0.770337 0.000000 
-0.569003 0.909732 0.000000 
0.000000 -0.570980 0.000000 
0.569003 0.909732 0.000000 
-0.866949 -0.770337 0.000000 
0.299194 0.459913 0.000000 
0.858290 0.168330 0.000000 
-0.577662 0.744775 0.000000 
0.000000 0.325397 0.000000 
0.577662 0.744775 0.000000 
-0.858290 0.168330 0.000000 
-0.299194 0.459913 0.000000 
-0.268560 -0.309836 0.000000 
0.286830 -0.587478 0.000000 
0.844677 0.031720 0.000000 
-0.578910 -0.344443 0.000000 
0.000000 0.146961 0.000000 
0.578910 -0.344443 0.000000 
-0.844677 0.031720 0.000000 
-0.286830 -0.587478 0.000000 
0.268560 -0.309836 0.000000 
-0.610485 0.377894 0.000000 
0.057734 0.731608 0.000000 
0.714655 0.936776 0.000000 
0.761092 -0.352487 0.000000 
0.765897 -0.954336 0.000000 
-0.641556 -0.695858 0.000000 
-0.677748 0.089888 0.000000 
0.067979 0.228091 0.000000 
0.178789 0.885517 0.000000 
-0.514316 -0.648248 0.000000 
0.053800 -0.376117 0.000000 
-0.028512 0.441243 0.000000 
0.647393 0.648770 0.000000 
0.691820 -0.620748 0.000000 
-0.522510 -0.522204 0.000000 
-0.393446 0.113526 0.000000 
0.205471 -0.342161 0.000000 
0.760780 -0.064345 0.000000 
0.642413 0.774635 0.000000 
-0.714996 -0.991907 0.000000 
-0.724017 -0.215504 0.000000 
0.006894 -0.051871 0.000000 
0.083078 0.650654 0.000000 
0.897068 0.717507 0.000000 
-0.965681 -0.658465 0.000000 
-0.761262 -0.308113 0.000000 
0.142083 0.831149 0.000000 
0.397202 -0.507575 0.000000 
-0.108942 -0.026736 0.000000 
-0.899809 -0.021885 0.000000 
-0.724964 0.620364 0.000000 
0.660903 -0.919116 0.000000 
-0.978194 -0.227491 0.000000 
0.595936 0.272375 0.000000 
0.071546 -0.870450 0.000000 
0.220880 -0.239525 0.000000 
-0.445811 0.203261 0.000000 
-0.180633 0.881421 0.000000 
-0.702895 -0.627060 0.000000 
-0.287229 0.072268 0.000000 
-0.685384 0.573427 0.000000 
-0.957100 0.280985 0.000000 
-0.820030 0.905057 0.000000 
0.474522 -0.667950 0.000000 
0.699407 -0.000671 0.000000 
0.109248 0.476085 0.000000 
0.441768 -0.828464 0.000000 
-0.039645 -0.328593 0.000000 
0.417537 0.373969 0.000000 
0.033296 0.874479 0.000000 
-0.338794 -0.858247 0.000000 
-0.374519 -0.285284 0.000000 
-0.713312 0.334145 0.000000 
0.609100 0.223004 0.000000 
-0.381900 0.336944 0.000000 
-0.756418 0.879336 0.000000 
0.513962 0.667850 0.000000 
0.218274 -0.607911 0.000000 
-0.423588 -0.642015 0.000000 
-0.384386 0.972713 0.000000 
-0.766286 -0.512667 0.000000 
0.484677 -0.777882 0.000000 
0.139443 -0.139758 0.000000 
-0.556234 -0.257327 0.000000 
-0.823577 0.516178 0.000000 
0.550868 0.505382 0.000000 
-0.386873 -0.391518 0.000000 
-0.771260 0.108871 0.000000 
0.467428 -0.197657 0.000000 
0.105264 0.400969 0.000000 
-0.621631 0.219070 0.000000 
-0.937896 0.922650 0.000000 
0.385608 0.843454 0.000000 
0.141715 -0.347318 0.000000 
-0.474677 -0.347221 0.000000 
CELL_DATA 175 
SCALARS MASS float 
LOOKUP_TABLE default 
0.078183 
0.086427 
0.094672 
0.086427 
0.088131 
0.092111 
0.085854 
0.092111 
0.088131 
0.088705 
0.091000 
0.086983 
0.091556 
0.086983 
0.091000 
0.088705 
0.089278 
0.091574 
0.089278 
0.092722 
0.089278 
0.092722 
0.089278 
0.091574 
0.089278 
0.078183 
0.086427 
0.094672 
0.086427 
0.088131 
0.092111 
0.085854 
0.092111 
0.088131 
0.088705 
0.091000 
0.086983 
0.091556 
0.086983 
0.091000 
0.088705 
0.089278 
0.091574 
0.089278 
0.092722 
0.089278 
0.092722 
0.089278 
0.091574 
0.089278 
0.078183 
0.086427 
0.094672 
0.086427 
0.088131 
0.092111 
0.085854 
0.092111 
0.088131 
0.088705 
0.091000 
0.086983 
0.091556 
0.086983 
0.091000 
0.088705 
0.089278 
0.091574 
0.089278 
0.092722 
0.089278 
0.092722 
0.089278 
0.091574 
0.089278 
0.078183 
0.086427 
0.094672 
0.086427 
0.088131 
0.092111 
0.085854 
0.092111 
0.088131 
0.088705 
0.091000 
0.086983 
0.091556 
0.086983 
0.091000 
0.088705 
0.089278 
0.091574 
0.089278 
0.092722 
0.089278 
0.092722 
0.089278 
0.091574 
0.089278 
0.078183 
0.086427 
0.094672 
0.086427 
0.088131 
0.092111 
0.085854 
0.092111 
0.088131 
0.088705 
0.091000 
0.086983 
0.091556 
0.086983 
0.091000 
0.088705 
0.089278 
0.091574 
0.089278 
0.092722 
0.089278 
0.092722 
0.089278 
0.091574 
0.089278 
0.078183 
0.086427 
0.094672 
0.086427 
0.088131 
0.092111 
0.085854 
0.092111 
0.088131 
0.088705 
0.091000 
0.086983 
0.091556 
0.086983 
0.091000 
0.088705 
0.089278 
0.091574 
0.089278 
0.092722 
0.089278 
0.092722 
0.089278 
0.091574 
0.089278 
0.078183 
0.086427 
0.094672 
0.086427 
0.088131 
0.092111 
0.085854 
0.092111 
0.088131 
0.088705 
0.091000 
0.086983 
0.091556 
0.086983 
0.091000 
0.088705 
0.089278 
0.091574 
0.089278 
0.092722 
0.089278 
0.092722 
0.089278 
0.091574 
0.089278 
SCALARS MASS float 
LOOKUP_TABLE default 
0.078183 
0.086427 
0.094672 
0.086427 
0.088131 
0.092111 
0.085854 
0.092111 
0.088131 
0.088705 
0.091000 
0.086983 
0.091556 
0.086983 
0.091000 
0.088705 
0.089278 
0.091574 
0.089278 
0.092722 
0.089278 
0.092722 
0.089278 
0.091574 
0.089278 
0.078183 
0.086427 
0.094672 
0.086427 
0.088131 
0.092111 
0.085854 
0.092111 
0.088131 
0.088705 
0.091000 
0.086983 
0.091556 
0.086983 
0.091000 
0.088705 
0.089278 
0.091574 
0.089278 
0.092722 
0.089278 
0.092722 
0.089278 
0.091574 
0.089278 
0.078183 
0.086427 
0.094672 
0.086427 
0.088131 
0.092111 
0.085854 
0.092111 
0.088131 
0.088705 
0.091000 
0.086983 
0.091556 
0.086983 
0.091000 
0.088705 
0.089278 
0.091574 
0.089278 
0.092722 
0.089278 
0.092722 
0.089278 
0.091574 
0.089278 
0.078183 
0.086427 
0.094672 
0.086427 
0.088131 
0.092111 
0.085854 
0.092111 
0.088131 
0.088705 
0.091000 
0.086983 
0.091556 
0.086983 
0.091000 
0.088705 
0.089278 
0.091574 
0.089278 
0.092722 
0.089278 
0.092722 
0.089278 
0.091574 
0.089278 
0.078183 
0.086427 
0.094672 
0.086427 
0.088131 
0.092111 
0.085854 
0.092111 
0.088131 
0.088705 
0.091000 
0.086983 
0.091556 
0.086983 
0.091000 
0.088705 
0.089278 
0.091574 
0.089278 
0.092722 
0.089278 
0.092722 
0.089278 
0.091574 
0.089278 
0.078183 
0.086427 
0.094672 
0.086427 
0.088131 
0.092111 
0.085854 
0.092111 
0.088131 
0.088705 
0.091000 
0.086983 
0.091556 
0.086983 
0.091000 
0.088705 
0.089278 
0.091574 
0.089278 
0.092722 
0.089278 
0.092722 
0.089278 
0.091574 
0.089278 
0.078183 
0.086427 
0.094672 
0.086427 
0.088131 
0.092111 
0.085854 
0.092111 
0.088131 
0.088705 
0.091000 
0.086983 
0.091556 
0.086983 
0.091000 
0.088705 
0.089278 
0.091574 
0.089278 
0.092722 
0.089278 
0.092722 
0.089278 
0.091574 
0.089278 
SCALARS DENSITY float 
LOOKUP_TABLE default 
20.000000 
20.000000 
20.000000 
20.000000 
20.000000 
20.000000 
20.000000 
20.000000 
20.000000 
20.000000 
20.000000 
20.000000 
20.000000 
20.000000 
20.000000 
20.000000 
20.000000 
20.000000 
20.000000 
20.000000 
20.000000 
20.000000 
20.000000 
20.000000 
20.000000 
20.000000 
20.000000 
20.000000 
20.000000 
20.000000 
20.000000 
20.000000 
20.000000 
20.000000 
20.000000 
20.000000 
20.000000 
20.000000 
20.000000 
20.000000 
20.000000 
20.000000 
20.000000 
20.000000 
20.000000 
20.000000 
20.000000 
20.000000 
20.000000 
20.000000 
20.000000 
20.000000 
20.000000 
20.000000 
20.000000 
20.000000 
20.000000 
20.000000 
20.000000 
20.000000 
20.000000 
20.000000 
20.000000 
20.000000 
20.000000 
20.000000 
20.000000 
20.000000 
20.000000 
20.000000 
20.000000 
20.000000 
20.000000 
20.000000 
20.000000 
20.000000 
20.000000 
20.000000 
20.000000 
20.000000 
20.000000 
20.000000 
20.000000 
20.000000 
20.000000 
20.000000 
20.000000 
20.000000 
20.000000 
20.000000 
20.000000 
20.000000 
20.000000 
20.000000 
20.000000 
20.000000 
20.000000 
20.000000 
20.000000 
20.000000 
20.000000 
20.000000 
20.000000 
20.000000 
20.000000 
20.000000 
20.000000 
20.000000 
20.000000 
20.000000 
20.000000 
20.000000 
20.000000 
20.000000 
20.000000 
20.000000 
20.000000 
20.000000 
20.000000 
20.000000 
20.000000 
20.000000 
20.000000 
20.000000 
20.000000 
20.000000 
20.000000 
20.000000 
20.000000 
20.000000 
20.000000 
20.000000 
20.000000 
20.000000 
20.000000 
20.000000 
20.000000 
20.000000 
20.000000 
20.000000 
20.000000 
20.000000 
20.000000 
20.000000 
20.000000 
20.000000 
20.000000 
20.000000 
20.000000 
20.000000 
20.000000 
20.000000 
20.000000 
20.000000 
20.000000 
20.000000 
20.000000 
20.000000 
20.000000 
20.000000 
20.000000 
20.000000 
20.000000 
20.000000 
20.000000 
20.000000 
20.000000 
20.000000 
20.000000 
20.000000 
20.000000 
20.000000 
20.000000 
20.000000 
20.000000 
SCALARS ELEM_i float 
LOOKUP_TABLE default 
181 
209 
182 
182 
209 
209 
210 
183 
183 
237 
210 
210 
210 
210 
183 
184 
237 
237 
238 
211 
211 
211 
211 
184 
184 
181 
208 
208 
209 
235 
208 
235 
209 
209 
235 
235 
235 
236 
236 
236 
236 
262 
262 
262 
262 
263 
263 
263 
237 
237 
181 
207 
208 
208 
207 
207 
207 
207 
234 
206 
206 
233 
234 
234 
234 
234 
205 
233 
233 
233 
233 
233 
261 
261 
261 
181 
180 
180 
180 
152 
180 
179 
180 
206 
152 
152 
179 
179 
179 
206 
206 
151 
151 
151 
178 
178 
178 
205 
205 
205 
181 
154 
154 
153 
126 
153 
153 
153 
153 
126 
126 
126 
126 
125 
152 
152 
99 
99 
99 
125 
125 
125 
125 
125 
151 
181 
155 
154 
154 
155 
155 
127 
154 
127 
128 
128 
128 
128 
127 
127 
127 
129 
129 
101 
101 
101 
100 
100 
100 
100 
181 
182 
182 
155 
183 
183 
156 
155 
155 
184 
183 
156 
156 
156 
156 
129 
184 
184 
157 
157 
157 
157 
130 
129 
129 
VECTORS VELOCITY float 
0.000000 -1.411855 0.000000 
0.000000 -1.411855 0.000000 
0.000000 -1.411855 0.000000 
0.000000 -1.411855 0.000000 
-0.000000 -1.411855 0.000000 
-0.000000 -1.411855 0.000000 
-0.000000 -1.411855 0.000000 
-0.000000 -1.411855 0.000000 
-0.000000 -1.411855 0.000000 
0.000000 -1.411855 0.000000 
0.000000 -1.411855 0.000000 
0.000000 -1.411855 0.000000 
0.000000 -1.411855 0.000000 
0.000000 -1.411855 0.000000 
0.000000 -1.411855 0.000000 
0.000000 -1.411855 0.000000 
0.000000 -1.411855 0.000000 
0.000000 -1.411855 0.000000 
-0.000000 -1.411855 0.000000 
0.000000 -1.411855 0.000000 
-0.000000 -1.411855 0.000000 
0.000000 -1.411855 0.000000 
-0.000000 -1.411855 0.000000 
0.000000 -1.411855 0.000000 
-0.000000 -1.411855 0.000000 
0.000000 -1.411855 0.000000 
0.000000 -1.411855 0.000000 
0.000000 -1.411855 0.000000 
0.000000 -1.411855 0.000000 
-0.000000 -1.411855 0.000000 
-0.000000 -1.411855 0.000000 
-0.000000 -1.411855 0.000000 
-0.000000 -1.411855 0.000000 
-0.000000 -1.411855 0.000000 
-0.000000 -1.411855 0.000000 
-0.000000 -1.411855 0.000000 
0.000000 -1.411855 0.000000 
0.000000 -1.411855 0.000000 
-0.000000 -1.411855 0.000000 
-0.000000 -1.411855 0.000000 
-0.000000 -1.411855 0.000000 
-0.000000 -1.411855 0.000000 
-0.000000 -1.411855 0.000000 
-0.000000 -1.411855 0.000000 
0.000000 -1.411855 0.000000 
-0.000000 -1.411855 0.000000 
-0.000000 -1.411855 0.000000 
-0.000000 -1.411855 0.000000 
-0.000000 -1.411855 0.000000 
-0.000000 -1.411855 0.000000 
0.000000 -1.411855 0.000000 
0.000000 -1.411855 0.000000 
0.000000 -1.411855 0.000000 
0.000000 -1.411855 0.000000 
0.000000 -1.411855 0.000000 
0.000000 -1.411855 0.000000 
-0.000000 -1.411855 0.000000 
-0.000000 -1.411855 0.000000 
-0.000000 -1.411855 0.000000 
-0.000000 -1.411855 0.000000 
0.000000 -1.411855 0.000000 
0.000000 -1.411855 0.000000 
0.000000 -1.411855 0.000000 
0.000000 -1.411855 0.000000 
-0.000000 -1.411855 0.000000 
0.000000 -1.411855 0.000000 
-0.000000 -1.411855 0.000000 
-0.000000 -1.411855 0.000000 
0.000000 -1.411855 0.000000 
0.000000 -1.411855 0.000000 
0.000000 -1.411855 0.000000 
0.000000 -1.411855 0.000000 
0.000000 -1.411855 0.000000 
0.000000 -1.411855 0.000000 
-0.000000 -1.411855 0.000000 
0.000000 -1.411855 0.000000 
-0.000000 -1.411855 0.000000 
0.000000 -1.411855 0.000000 
0.000000 -1.411855 0.000000 
-0.000000 -1.411855 0.000000 
-0.000000 -1.411855 0.000000 
-0.000000 -1.411855 0.000000 
0.000000 -1.411855 0.000000 
0.000000 -1.411855 0.000000 
0.000000 -1.411855 0.000000 
0.000000 -1.411855 0.000000 
0.000000 -1.411855 0.000000 
0.000000 -1.411855 0.000000 
-0.000000 -1.411855 0.000000 
-0.000000 -1.411855 0.000000 
-0.000000 -1.411855 0.000000 
0.000000 -1.411855 0.000000 
0.000000 -1.411855 0.000000 
-0.000000 -1.411855 0.000000 
-0.000000 -1.411855 0.000000 
-0.000000 -1.411855 0.000000 
-0.000000 -1.411855 0.000000 
-0.000000 -1.411855 0.000000 
-0.000000 -1.411855 0.000000 
0.000000 -1.411855 0.000000 
0.000000 -1.411855 0.000000 
0.000000 -1.411855 0.000000 
0.000000 -1.411855 0.000000 
-0.000000 -1.411855 0.000000 
0.000000 -1.411855 0.000000 
0.000000 -1.411855 0.000000 
0.000000 -1.411855 0.000000 
-0.000000 -1.411855 0.000000 
-0.000000 -1.411855 0.000000 
-0.000000 -1.411855 0.000000 
-0.000000 -1.411855 0.000000 
-0.000000 -1.411855 0.000000 
-0.000000 -1.411855 0.000000 
-0.000000 -1.411855 0.000000 
-0.000000 -1.411855 0.000000 
0.000000 -1.411855 0.000000 
-0.000000 -1.411855 0.000000 
-0.000000 -1.411855 0.000000 
-0.000000 -1.411855 0.000000 
0.000000 -1.411855 0.000000 
-0.000000 -1.411855 0.000000 
0.000000 -1.411855 0.000000 
0.000000 -1.411855 0.000000 
0.000000 -1.411855 0.000000 
0.000000 -1.411855 0.000000 
-0.000000 -1.411855 0.000000 
-0.000000 -1.411855 0.000000 
-0.000000 -1.411855 0.000000 
0.000000 -1.411855 0.000000 
-0.000000 -1.411855 0.000000 
0.000000 -1.411855 0.000000 
0.000000 -1.411855 0.000000 
0.000000 -1.411855 0.000000 
0.000000 -1.411855 0.000000 
-0.000000 -1.411855 0.000000 
-0.000000 -1.411855 0.000000 
-0.000000 -1.411855 0.000000 
-0.000000 -1.411855 0.000000 
-0.000000 -1.411855 0.000000 
-0.000000 -1.411855 0.000000 
-0.000000 -1.411855 0.000000 
0.000000 -1.411855 0.000000 
0.000000 -1.411855 0.000000 
-0.000000 -1.411855 0.000000 
-0.000000 -1.411855 0.000000 
0.000000 -1.411855 0.000000 
-0.000000 -1.411855 0.000000 
0.000000 -1.411855 0.000000 
-0.000000 -1.411855 0.000000 
0.000000 -1.411855 0.000000 
-0.000000 -1.411855 0.000000 
0.000000 -1.411855 0.000000 
-0.000000 -1.411855 0.000000 
-0.000000 -1.411855 0.000000 
0.000000 -1.411855 0.000000 
0.000000 -1.411855 0.000000 
0.000000 -1.411855 0.000000 
-0.000000 -1.411855 0.000000 
-0.000000 -1.411855 0.000000 
0.000000 -1.411855 0.000000 
-0.000000 -1.411855 0.000000 
0.000000 -1.411855 0.000000 
0.000000 -1.411855 0.000000 
0.000000 -1.411855 0.000000 
-0.000000 -1.411855 0.000000 
-0.000000 -1.411855 0.000000 
-0.000000 -1.411855 0.000000 
-0.000000 -1.411855 0.000000 
0.000000 -1.411855 0.000000 
0.000000 -1.411855 0.000000 
0.000000 -1.411855 0.000000 
0.000000 -1.411855 0.000000 
-0.000000 -1.411855 0.000000 
0.000000 -1.411855 0.000000 
-0.000000 -1.411855 0.000000 
TENSORS STRESS float 
-0.000000 0.000000 0.000000 
0.000000 0.000000 0.000000 
0.000000 0.000000 0.000000 

0.000000 0.000000 0.000000 
0.000000 0.000000 0.000000 
0.000000 0.000000 0.000000 

-0.000000 0.000000 0.000000 
0.000000 -0.000000 0.000000 
0.000000 0.000000 0.000000 

-0.000000 0.000000 0.000000 
0.000000 -0.000000 0.000000 
0.000000 0.000000 0.000000 

0.000000 0.000000 0.000000 
0.000000 0.000000 0.000000 
0.000000 0.000000 0.000000 

0.000000 0.000000 0.000000 
0.000000 0.000000 0.000000 
0.000000 0.000000 0.000000 

0.000000 0.000000 0.000000 
0.000000 0.000000 0.000000 
0.000000 0.000000 0.000000 

0.000000 -0.000000 0.000000 
0.000000 0.000000 0.000000 
0.000000 0.000000 0.000000 

0.000000 -0.000000 0.000000 
0.000000 0.000000 0.000000 
0.000000 0.000000 0.000000 

-0.000000 0.000000 0.000000 
0.000000 0.000000 0.000000 
0.000000 0.000000 0.000000 

-0.000000 0.000000 0.000000 
0.000000 -0.000000 0.000000 
0.000000 0.000000 0.000000 

-0.000000 0.000000 0.000000 
0.000000 -0.000000 0.000000 
0.000000 0.000000 0.000000 

0.000000 0.000000 0.000000 
0.000000 0.000000 0.000000 
0.000000 0.000000 0.000000 

0.000000 0.000000 0.000000 
0.000000 0.000000 0.000000 
0.000000 0.000000 0.000000 

0.000000 -0.000000 0.000000 
0.000000 0.000000 0.000000 
0.000000 0.000000 0.000000 

0.000000 -0.000000 0.000000 
0.000000 0.000000 0.000000 
0.000000 0.000000 0.000000 

-0.000000 -0.000000 0.000000 
0.000000 -0.000000 0.000000 
0.000000 0.000000 0.000000 

-0.000000 -0.000000 0.000000 
0.000000 0.000000 0.000000 
0.000000 0.000000 0.000000 

-0.000000 -0.000000 0.000000 
0.000000 -0.000000 0.000000 
0.000000 0.000000 0.000000 

0.000000 0.000000 0.000000 
0.000000 0.000000 0.000000 
0.000000 0.000000 0.000000 

0.000000 -0.000000 0.000000 
0.000000 0.000000 0.000000 
0.000000 0.000000 0.000000 

0.000000 0.000000 0.000000 
0.000000 0.000000 0.000000 
0.000000 0.000000 0.000000 

-0.000000 -0.000000 0.000000 
0.000000 0.000000 0.000000 
0.000000 0.000000 0.000000 

0.000000 0.000000 0.000000 
0.000000 0.000000 0.000000 
0.000000 0.000000 0.000000 

0.000000 -0.000000 0.000000 
0.000000 0.000000 0.000000 
0.000000 0.000000 0.000000 

-0.000000 0.000000 0.000000 
0.000000 -0.000000 0.000000 
0.000000 0.000000 0.000000 

0.000000 0.000000 0.000000 
0.000000 0.000000 0.000000 
0.000000 0.000000 0.000000 

0.000000 0.000000 0.000000 
0.000000 0.000000 0.000000 
0.000000 0.000000 0.000000 

-0.000000 0.000000 0.000000 
0.000000 -0.000000 0.000000 
0.000000 0.000000 0.000000 

0.000000 0.000000 0.000000 
0.000000 0.000000 0.000000 
0.000000 0.000000 0.000000 

0.000000 0.000000 0.000000 
0.000000 0.000000 0.000000 
0.000000 0.000000 0.000000 

0.000000 0.000000 0.000000 
0.000000 -0.000000 0.000000 
0.000000 0.000000 0.000000 

0.000000 0.000000 0.000000 
0.000000 0.000000 0.000000 
0.000000 0.000000 0.000000 

0.000000 0.000000 0.000000 
0.000000 0.000000 0.000000 
0.000000 0.000000 0.000000 

0.000000 0.000000 0.000000 
0.000000 -0.000000 0.000000 
0.000000 0.000000 0.000000 

0.000000 0.000000 0.000000 
0.000000 -0.000000 0.000000 
0.000000 0.000000 0.000000 

0.000000 0.000000 0.000000 
0.000000 0.000000 0.000000 
0.000000 0.000000 0.000000 

0.000000 0.000000 0.000000 
0.000000 0.000000 0.000000 
0.000000 0.000000 0.000000 

0.000000 0.000000 0.000000 
0.000000 0.000000 0.000000 
0.000000 0.000000 0.000000 

0.000000 0.000000 0.000000 
0.000000 0.000000 0.000000 
0.000000 0.000000 0.000000 

0.000000 0.000000 0.000000 
0.000000 0.000000 0.000000 
0.000000 0.000000 0.000000 

0.000000 0.000000 0.000000 
0.000000 0.000000 0.000000 
0.000000 0.000000 0.000000 

0.000000 0.000000 0.000000 
0.000000 0.000000 0.000000 
0.000000 0.000000 0.000000 

0.000000 0.000000 0.000000 
0.000000 0.000000 0.000000 
0.000000 0.000000 0.000000 

-0.000000 -0.000000 0.000000 
0.000000 0.000000 0.000000 
0.000000 0.000000 0.000000 

-0.000000 0.000000 0.000000 
0.000000 -0.000000 0.000000 
0.000000 0.000000 0.000000 

-0.000000 0.000000 0.000000 
0.000000 0.000000 0.000000 
0.000000 0.000000 0.000000 

0.000000 -0.000000 0.000000 
0.000000 0.000000 0.000000 
0.000000 0.000000 0.000000 

0.000000 0.000000 0.000000 
0.000000 0.000000 0.000000 
0.000000 0.000000 0.000000 

0.000000 -0.000000 0.000000 
0.000000 0.000000 0.000000 
0.000000 0.000000 0.000000 

0.000000 0.000000 0.000000 
0.000000 0.000000 0.000000 
0.000000 0.000000 0.000000 

-0.000000 -0.000000 0.000000 
0.000000 -0.000000 0.000000 
0.000000 0.000000 0.000000 

0.000000 0.000000 0.000000 
0.000000 0.000000 0.000000 
0.000000 0.000000 0.000000 

0.000000 0.000000 0.000000 
0.000000 0.000000 0.000000 
0.000000 0.000000 0.000000 

-0.000000 0.000000 0.000000 
0.000000 -0.000000 0.000000 
0.000000 0.000000 0.000000 

-0.000000 -0.000000 0.000000 
0.000000 -0.000000 0.000000 
0.000000 0.000000 0.000000 

-0.000000 -0.000000 0.000000 
0.000000 -0.000000 0.000000 
0.000000 0.000000 0.000000 

0.000000 -0.000000 0.000000 
0.000000 -0.000000 0.000000 
0.000000 0.000000 0.000000 

-0.000000 0.000000 0.000000 
0.000000 -0.000000 0.000000 
0.000000 0.000000 0.000000 

-0.000000 0.000000 0.000000 
0.000000 -0.000000 0.000000 
0.000000 0.000000 0.000000 

-0.000000 0.000000 0.000000 
0.000000 -0.000000 0.000000 
0.000000 0.000000 0.000000 

0.000000 0.000000 0.000000 
0.000000 -0.000000 0.000000 
0.000000 0.000000 0.000000 

0.000000 -0.000000 0.000000 
0.000000 -0.000000 0.000000 
0.000000 0.000000 0.000000 

0.000000 -0.000000 0.000000 
0.000000 -0.000000 0.000000 
0.000000 0.000000 0.000000 

0.000000 -0.000000 0.000000 
0.000000 -0.000000 0.000000 
0.000000 0.000000 0.000000 

0.000000 0.000000 0.000000 
0.000000 -0.000000 0.000000 
0.000000 0.000000 0.000000 

0.000000 -0.000000 0.000000 
0.000000 0.000000 0.000000 
0.000000 0.000000 0.000000 

-0.000000 0.000000 0.000000 
0.000000 -0.000000 0.000000 
0.000000 0.000000 0.000000 

-0.000000 0.000000 0.000000 
0.000000 -0.000000 0.000000 
0.000000 0.000000 0.000000 

-0.000000 -0.000000 0.000000 
0.000000 0.000000 0.000000 
0.000000 0.000000 0.000000 

0.000000 -0.000000 0.000000 
0.000000 0.000000 0.000000 
0.000000 0.000000 0.000000 

0.000000 0.000000 0.000000 
0.000000 -0.000000 0.000000 
0.000000 0.000000 0.000000 

0.000000 0.000000 0.000000 
0.000000 -0.000000 0.000000 
0.000000 0.000000 0.000000 

0.000000 0.000000 0.000000 
0.000000 -0.000000 0.000000 
0.000000 0.000000 0.000000 

0.000000 0.000000 0.000000 
0.000000 -0.000000 0.000000 
0.000000 0.000000 0.000000 

-0.000000 0.000000 0.000000 
0.000000 -0.000000 0.000000 
0.000000 0.000000 0.000000 

-0.000000 -0.000000 0.000000 
0.000000 -0.000000 0.000000 
0.000000 0.000000 0.000000 

-0.000000 0.000000 0.000000 
0.000000 -0.000000 0.000000 
0.000000 0.000000 0.000000 

-0.000000 0.000000 0.000000 
0.000000 -0.000000 0.000000 
0.000000 0.000000 0.000000 

-0.000000 -0.000000 0.000000 
0.000000 -0.000000 0.000000 
0.000000 0.000000 0.000000 

-0.000000 0.000000 0.000000 
0.000000 -0.000000 0.000000 
0.000000 0.000000 0.000000 

0.000000 0.000000 0.000000 
0.000000 -0.000000 0.000000 
0.000000 0.000000 0.000000 

-0.000000 0.000000 0.000000 
0.000000 -0.000000 0.000000 
0.000000 0.000000 0.000000 

0.000000 -0.000000 0.000000 
0.000000 0.000000 0.000000 
0.000000 0.000000 0.000000 

0.000000 -0.000000 0.000000 
0.000000 -0.000000 0.000000 
0.000000 0.000000 0.000000 

0.000000 -0.000000 0.000000 
0.000000 -0.000000 0.000000 
0.000000 0.000000 0.000000 

0.000000 0.000000 0.000000 
0.000000 0.000000 0.000000 
0.000000 0.000000 0.000000 

0.000000 -0.000000 0.000000 
0.000000 -0.000000 0.000000 
0.000000 0.000000 0.000000 

0.000000 0.000000 0.000000 
0.000000 -0.000000 0.000000 
0.000000 0.000000 0.000000 

0.000000 0.000000 0.000000 
0.000000 0.000000 0.000000 
0.000000 0.000000 0.000000 

-0.000000 0.000000 0.000000 
0.000000 -0.000000 0.000000 
0.000000 0.000000 0.000000 

-0.000000 0.000000 0.000000 
0.000000 -0.000000 0.000000 
0.000000 0.000000 0.000000 

0.000000 -0.000000 0.000000 
0.000000 -0.000000 0.000000 
0.000000 0.000000 0.000000 

0.000000 0.000000 0.000000 
0.000000 0.000000 0.000000 
0.000000 0.000000 0.000000 

0.000000 -0.000000 0.000000 
0.000000 0.000000 0.000000 
0.000000 0.000000 0.000000 

0.000000 -0.000000 0.000000 
0.000000 0.000000 0.000000 
0.000000 0.000000 0.000000 

0.000000 0.000000 0.000000 
0.000000 0.000000 0.000000 
0.000000 0.000000 0.000000 

-0.000000 -0.000000 0.000000 
0.000000 0.000000 0.000000 
0.000000 0.000000 0.000000 

-0.000000 -0.000000 0.000000 
0.000000 -0.000000 0.000000 
0.000000 0.000000 0.000000 

-0.000000 -0.000000 0.000000 
0.000000 -0.000000 0.000000 
0.000000 0.000000 0.000000 

-0.000000 0.000000 0.000000 
0.000000 -0.000000 0.000000 
0.000000 0.000000 0.000000 

-0.000000 -0.000000 0.000000 
0.000000 -0.000000 0.000000 
0.000000 0.000000 0.000000 

-0.000000 -0.000000 0.000000 
0.000000 -0.000000 0.000000 
0.000000 0.000000 0.000000 

-0.000000 0.000000 0.000000 
0.000000 -0.000000 0.000000 
0.000000 0.000000 0.000000 

0.000000 0.000000 0.000000 
0.000000 -0.000000 0.000000 
0.000000 0.000000 0.000000 

-0.000000 -0.000000 0.000000 
0.000000 -0.000000 0.000000 
0.000000 0.000000 0.000000 

-0.000000 -0.000000 0.000000 
0.000000 -0.000000 0.000000 
0.000000 0.000000 0.000000 

-0.000000 -0.000000 0.000000 
0.000000 -0.000000 0.000000 
0.000000 0.000000 0.000000 

-0.000000 -0.000000 0.000000 
0.000000 -0.000000 0.000000 
0.000000 0.000000 0.000000 

0.000000 -0.000000 0.000000 
0.000000 -0.000000 0.000000 
0.000000 0.000000 0.000000 

0.000000 -0.000000 0.000000 
0.000000 -0.000000 0.000000 
0.000000 0.000000 0.000000 

-0.000000 0.000000 0.000000 
0.000000 -0.000000 0.000000 
0.000000 0.000000 0.000000 

-0.000000 -0.000000 0.000000 
0.000000 -0.000000 0.000000 
0.000000 0.000000 0.000000 

0.000000 -0.000000 0.000000 
0.000000 -0.000000 0.000000 
0.000000 0.000000 0.000000 

0.000000 -0.000000 0.000000 
0.000000 0.000000 0.000000 
0.000000 0.000000 0.000000 

0.000000 -0.000000 0.000000 
0.000000 0.000000 0.000000 
0.000000 0.000000 0.000000 

-0.000000 -0.000000 0.000000 
0.000000 -0.000000 0.000000 
0.000000 0.000000 0.000000 

-0.000000 0.000000 0.000000 
0.000000 -0.000000 0.000000 
0.000000 0.000000 0.000000 

-0.000000 0.000000 0.000000 
0.000000 -0.000000 0.000000 
0.000000 0.000000 0.000000 

-0.000000 0.000000 0.000000 
0.000000 -0.000000 0.000000 
0.000000 0.000000 0.000000 

0.000000 -0.000000 0.000000 
0.000000 0.000000 0.000000 
0.000000 0.000000 0.000000 

-0.000000 -0.000000 0.000000 
0.000000 0.000000 0.000000 
0.000000 0.000000 0.000000 

-0.000000 -0.000000 0.000000 
0.000000 0.000000 0.000000 
0.000000 0.000000 0.000000 

-0.000000 -0.000000 0.000000 
0.000000 0.000000 0.000000 
0.000000 0.000000 0.000000 

0.000000 -0.000000 0.000000 
0.000000 0.000000 0.000000 
0.000000 0.000000 0.000000 

-0.000000 -0.000000 0.000000 
0.000000 0.000000 0.000000 
0.000000 0.000000 0.000000 

0.000000 0.000000 0.000000 
0.000000 -0.000000 0.000000 
0.000000 0.000000 0.000000 

-0.000000 -0.000000 0.000000 
0.000000 -0.000000 0.000000 
0.000000 0.000000 0.000000 

-0.000000 0.000000 0.000000 
0.000000 -0.000000 0.000000 
0.000000 0.000000 0.000000 

0.000000 0.000000 0.000000 
0.000000 -0.000000 0.000000 
0.000000 0.000000 0.000000 

0.000000 0.000000 0.000000 
0.000000 -0.000000 0.000000 
0.000000 0.000000 0.000000 

-0.000000 -0.000000 0.000000 
0.000000 -0.000000 0.000000 
0.000000 0.000000 0.000000 

0.000000 0.000000 0.000000 
0.000000 0.000000 0.000000 
0.000000 0.000000 0.000000 

0.000000 -0.000000 0.000000 
0.000000 0.000000 0.000000 
0.000000 0.000000 0.000000 

-0.000000 0.000000 0.000000 
0.000000 -0.000000 0.000000 
0.000000 0.000000 0.000000 

0.000000 -0.000000 0.000000 
0.000000 0.000000 0.000000 
0.000000 0.000000 0.000000 

0.000000 0.000000 0.000000 
0.000000 0.000000 0.000000 
0.000000 0.000000 0.000000 

0.000000 0.000000 0.000000 
0.000000 0.000000 0.000000 
0.000000 0.000000 0.000000 

0.000000 0.000000 0.000000 
0.000000 -0.000000 0.000000 
0.000000 0.000000 0.000000 

0.000000 -0.000000 0.000000 
0.000000 -0.000000 0.000000 
0.000000 0.000000 0.000000 

0.000000 -0.000000 0.000000 
0.000000 0.000000 0.000000 
0.000000 0.000000 0.000000 

0.000000 0.000000 0.000000 
0.000000 0.000000 0.000000 
0.000000 0.000000 0.000000 

0.000000 0.000000 0.000000 
0.000000 0.000000 0.000000 
0.000000 0.000000 0.000000 

-0.000000 -0.000000 0.000000 
0.000000 0.000000 0.000000 
0.000000 0.000000 0.000000 

-0.000000 0.000000 0.000000 
0.000000 0.000000 0.000000 
0.000000 0.000000 0.000000 

0.000000 -0.000000 0.000000 
0.000000 0.000000 0.000000 
0.000000 0.000000 0.000000 

0.000000 -0.000000 0.000000 
0.000000 0.000000 0.000000 
0.000000 0.000000 0.000000 

-0.000000 0.000000 0.000000 
0.000000 -0.000000 0.000000 
0.000000 0.000000 0.000000 

-0.000000 -0.000000 0.000000 
0.000000 -0.000000 0.000000 
0.000000 0.000000 0.000000 

-0.000000 0.000000 0.000000 
0.000000 -0.000000 0.000000 
0.000000 0.000000 0.000000 

-0.000000 -0.000000 0.000000 
0.000000 -0.000000 0.000000 
0.000000 0.000000 0.000000 

-0.000000 0.000000 0.000000 
0.000000 -0.000000 0.000000 
0.000000 0.000000 0.000000 

-0.000000 0.000000 0.000000 
0.000000 -0.000000 0.000000 
0.000000 0.000000 0.000000 

-0.000000 0.000000 0.000000 
0.000000 -0.000000 0.000000 
0.000000 0.000000 0.000000 

0.000000 -0.000000 0.000000 
0.000000 0.000000 0.000000 
0.000000 0.000000 0.000000 

0.000000 -0.000000 0.000000 
0.000000 0.000000 0.000000 
0.000000 0.000000 0.000000 

0.000000 0.000000 0.000000 
0.000000 0.000000 0.000000 
0.000000 0.000000 0.000000 

-0.000000 0.000000 0.000000 
0.000000 -0.000000 0.000000 
0.000000 0.000000 0.000000 

0.000000 0.000000 0.000000 
0.000000 -0.000000 0.000000 
0.000000 0.000000 0.000000 

0.000000 -0.000000 0.000000 
0.000000 0.000000 0.000000 
0.000000 0.000000 0.000000 

0.000000 -0.000000 0.000000 
0.000000 0.000000 0.000000 
0.000000 0.000000 0.000000 

-0.000000 0.000000 0.000000 
0.000000 -0.000000 0.000000 
0.000000 0.000000 0.000000 

-0.000000 0.000000 0.000000 
0.000000 -0.000000 0.000000 
0.000000 0.000000 0.000000 

-0.000000 0.000000 0.000000 
0.000000 0.000000 0.000000 
0.000000 0.000000 0.000000 

-0.000000 0.000000 0.000000 
0.000000 0.000000 0.000000 
0.000000 0.000000 0.000000 

-0.000000 0.000000 0.000000 
0.000000 0.000000 0.000000 
0.000000 0.000000 0.000000 

0.000000 0.000000 0.000000 
0.000000 0.000000 0.000000 
0.000000 0.000000 0.000000 

0.000000 0.000000 0.000000 
0.000000 0.000000 0.000000 
0.000000 0.000000 0.000000 

-0.000000 0.000000 0.000000 
0.000000 -0.000000 0.000000 
0.000000 0.000000 0.000000 

0.000000 0.000000 0.000000 
0.000000 0.000000 0.000000 
0.000000 0.000000 0.000000 

0.000000 0.000000 0.000000 
0.000000 0.000000 0.000000 
0.000000 0.000000 0.000000 

-0.000000 0.000000 0.000000 
0.000000 0.000000 0.000000 
0.000000 0.000000 0.000000 

0.000000 0.000000 0.000000 
0.000000 0.000000 0.000000 
0.000000 0.000000 0.000000 

0.000000 0.000000 0.000000 
0.000000 0.000000 0.000000 
0.000000 0.000000 0.000000 

0.000000 0.000000 0.000000 
0.000000 0.000000 0.000000 
0.000000 0.000000 0.000000 

TENSORS STRAIN float 
-0.000000 0.000000 0.000000 
0.000000 0.000000 0.000000 
0.000000 0.000000 0.000000 

0.000000 0.000000 0.000000 
0.000000 0.000000 0.000000 
0.000000 0.000000 0.000000 

-0.000000 0.000000 0.000000 
0.000000 -0.000000 0.000000 
0.000000 0.000000 0.000000 

-0.000000 0.000000 0.000000 
0.000000 -0.000000 0.000000 
0.000000 0.000000 0.000000 

0.000000 0.000000 0.000000 
0.000000 0.000000 0.000000 
0.000000 0.000000 0.000000 

0.000000 0.000000 0.000000 
0.000000 0.000000 0.000000 
0.000000 0.000000 0.000000 

0.000000 0.000000 0.000000 
0.000000 0.000000 0.000000 
0.000000 0.000000 0.000000 

-0.000000 -0.000000 0.000000 
0.000000 0.000000 0.000000 
0.000000 0.000000 0.000000 

-0.000000 -0.000000 0.000000 
0.000000 0.000000 0.000000 
0.000000 0.000000 0.000000 

-0.000000 0.000000 0.000000 
0.000000 0.000000 0.000000 
0.000000 0.000000 0.000000 

0.000000 0.000000 0.000000 
0.000000 -0.000000 0.000000 
0.000000 0.000000 0.000000 

-0.000000 0.000000 0.000000 
0.000000 -0.000000 0.000000 
0.000000 0.000000 0.000000 

-0.000000 0.000000 0.000000 
0.000000 0.000000 0.000000 
0.000000 0.000000 0.000000 

-0.000000 0.000000 0.000000 
0.000000 0.000000 0.000000 
0.000000 0.000000 0.000000 

0.000000 -0.000000 0.000000 
0.000000 0.000000 0.000000 
0.000000 0.000000 0.000000 

-0.000000 -0.000000 0.000000 
0.000000 0.000000 0.000000 
0.000000 0.000000 0.000000 

-0.000000 -0.000000 0.000000 
0.000000 0.000000 0.000000 
0.000000 0.000000 0.000000 

-0.000000 -0.000000 0.000000 
0.000000 0.000000 0.000000 
0.000000 0.000000 0.000000 

-0.000000 -0.000000 0.000000 
0.000000 -0.000000 0.000000 
0.000000 0.000000 0.000000 

-0.000000 0.000000 0.000000 
0.000000 0.000000 0.000000 
0.000000 0.000000 0.000000 

-0.000000 -0.000000 0.000000 
0.000000 0.000000 0.000000 
0.000000 0.000000 0.000000 

-0.000000 0.000000 0.000000 
0.000000 0.000000 0.000000 
0.000000 0.000000 0.000000 

-0.000000 -0.000000 0.000000 
0.000000 0.000000 0.000000 
0.000000 0.000000 0.000000 

-0.000000 0.000000 0.000000 
0.000000 0.000000 0.000000 
0.000000 0.000000 0.000000 

-0.000000 -0.000000 0.000000 
0.000000 0.000000 0.000000 
0.000000 0.000000 0.000000 

-0.000000 0.000000 0.000000 
0.000000 -0.000000 0.000000 
0.000000 0.000000 0.000000 

0.000000 0.000000 0.000000 
0.000000 0.000000 0.000000 
0.000000 0.000000 0.000000 

0.000000 0.000000 0.000000 
0.000000 0.000000 0.000000 
0.000000 0.000000 0.000000 

-0.000000 0.000000 0.000000 
0.000000 0.000000 0.000000 
0.000000 0.000000 0.000000 

0.000000 0.000000 0.000000 
0.000000 -0.000000 0.000000 
0.000000 0.000000 0.000000 

0.000000 0.000000 0.000000 
0.000000 0.000000 0.000000 
0.000000 0.000000 0.000000 

0.000000 0.000000 0.000000 
0.000000 -0.000000 0.000000 
0.000000 0.000000 0.000000 

-0.000000 0.000000 0.000000 
0.000000 0.000000 0.000000 
0.000000 0.000000 0.000000 

0.000000 0.000000 0.000000 
0.000000 0.000000 0.000000 
0.000000 0.000000 0.000000 

0.000000 0.000000 0.000000 
0.000000 -0.000000 0.000000 
0.000000 0.000000 0.000000 

0.000000 0.000000 0.000000 
0.000000 -0.000000 0.000000 
0.000000 0.000000 0.000000 

0.000000 0.000000 0.000000 
0.000000 0.000000 0.000000 
0.000000 0.000000 0.000000 

0.000000 0.000000 0.000000 
0.000000 0.000000 0.000000 
0.000000 0.000000 0.000000 

-0.000000 0.000000 0.000000 
0.000000 0.000000 0.000000 
0.000000 0.000000 0.000000 

-0.000000 0.000000 0.000000 
0.000000 0.000000 0.000000 
0.000000 0.000000 0.000000 

-0.000000 0.000000 0.000000 
0.000000 0.000000 0.000000 
0.000000 0.000000 0.000000 

0.000000 0.000000 0.000000 
0.000000 0.000000 0.000000 
0.000000 0.000000 0.000000 

0.000000 0.000000 0.000000 
0.000000 0.000000 0.000000 
0.000000 0.000000 0.000000 

0.000000 0.000000 0.000000 
0.000000 0.000000 0.000000 
0.000000 0.000000 0.000000 

-0.000000 -0.000000 0.000000 
0.000000 0.000000 0.000000 
0.000000 0.000000 0.000000 

-0.000000 0.000000 0.000000 
0.000000 0.000000 0.000000 
0.000000 0.000000 0.000000 

-0.000000 0.000000 0.000000 
0.000000 0.000000 0.000000 
0.000000 0.000000 0.000000 

0.000000 -0.000000 0.000000 
0.000000 0.000000 0.000000 
0.000000 0.000000 0.000000 

-0.000000 0.000000 0.000000 
0.000000 0.000000 0.000000 
0.000000 0.000000 0.000000 

-0.000000 -0.000000 0.000000 
0.000000 0.000000 0.000000 
0.000000 0.000000 0.000000 

-0.000000 0.000000 0.000000 
0.000000 0.000000 0.000000 
0.000000 0.000000 0.000000 

0.000000 -0.000000 0.000000 
0.000000 -0.000000 0.000000 
0.000000 0.000000 0.000000 

0.000000 0.000000 0.000000 
0.000000 0.000000 0.000000 
0.000000 0.000000 0.000000 

0.000000 0.000000 0.000000 
0.000000 0.000000 0.000000 
0.000000 0.000000 0.000000 

-0.000000 0.000000 0.000000 
0.000000 -0.000000 0.000000 
0.000000 0.000000 0.000000 

0.000000 -0.000000 0.000000 
0.000000 -0.000000 0.000000 
0.000000 0.000000 0.000000 

0.000000 -0.000000 0.000000 
0.000000 -0.000000 0.000000 
0.000000 0.000000 0.000000 

0.000000 -0.000000 0.000000 
0.000000 -0.000000 0.000000 
0.000000 0.000000 0.000000 

0.000000 0.000000 0.000000 
0.000000 -0.000000 0.000000 
0.000000 0.000000 0.000000 

-0.000000 0.000000 0.000000 
0.000000 -0.000000 0.000000 
0.000000 0.000000 0.000000 

-0.000000 0.000000 0.000000 
0.000000 -0.000000 0.000000 
0.000000 0.000000 0.000000 

0.000000 0.000000 0.000000 
0.000000 -0.000000 0.000000 
0.000000 0.000000 0.000000 

0.000000 -0.000000 0.000000 
0.000000 -0.000000 0.000000 
0.000000 0.000000 0.000000 

0.000000 -0.000000 0.000000 
0.000000 -0.000000 0.000000 
0.000000 0.000000 0.000000 

0.000000 -0.000000 0.000000 
0.000000 -0.000000 0.000000 
0.000000 0.000000 0.000000 

0.000000 0.000000 0.000000 
0.000000 -0.000000 0.000000 
0.000000 0.000000 0.000000 

-0.000000 -0.000000 0.000000 
0.000000 0.000000 0.000000 
0.000000 0.000000 0.000000 

-0.000000 0.000000 0.000000 
0.000000 -0.000000 0.000000 
0.000000 0.000000 0.000000 

-0.000000 0.000000 0.000000 
0.000000 0.000000 0.000000 
0.000000 0.000000 0.000000 

-0.000000 -0.000000 0.000000 
0.000000 0.000000 0.000000 
0.000000 0.000000 0.000000 

-0.000000 -0.000000 0.000000 
0.000000 0.000000 0.000000 
0.000000 0.000000 0.000000 

0.000000 0.000000 0.000000 
0.000000 -0.000000 0.000000 
0.000000 0.000000 0.000000 

0.000000 0.000000 0.000000 
0.000000 -0.000000 0.000000 
0.000000 0.000000 0.000000 

0.000000 0.000000 0.000000 
0.000000 -0.000000 0.000000 
0.000000 0.000000 0.000000 

0.000000 0.000000 0.000000 
0.000000 -0.000000 0.000000 
0.000000 0.000000 0.000000 

-0.000000 0.000000 0.000000 
0.000000 0.000000 0.000000 
0.000000 0.000000 0.000000 

-0.000000 -0.000000 0.000000 
0.000000 -0.000000 0.000000 
0.000000 0.000000 0.000000 

-0.000000 0.000000 0.000000 
0.000000 -0.000000 0.000000 
0.000000 0.000000 0.000000 

-0.000000 0.000000 0.000000 
0.000000 -0.000000 0.000000 
0.000000 0.000000 0.000000 

0.000000 -0.000000 0.000000 
0.000000 -0.000000 0.000000 
0.000000 0.000000 0.000000 

0.000000 0.000000 0.000000 
0.000000 -0.000000 0.000000 
0.000000 0.000000 0.000000 

0.000000 0.000000 0.000000 
0.000000 -0.000000 0.000000 
0.000000 0.000000 0.000000 

0.000000 0.000000 0.000000 
0.000000 -0.000000 0.000000 
0.000000 0.000000 0.000000 

-0.000000 -0.000000 0.000000 
0.000000 0.000000 0.000000 
0.000000 0.000000 0.000000 

0.000000 -0.000000 0.000000 
0.000000 -0.000000 0.000000 
0.000000 0.000000 0.000000 

0.000000 -0.000000 0.000000 
0.000000 -0.000000 0.000000 
0.000000 0.000000 0.000000 

0.000000 0.000000 0.000000 
0.000000 -0.000000 0.000000 
0.000000 0.000000 0.000000 

0.000000 -0.000000 0.000000 
0.000000 -0.000000 0.000000 
0.000000 0.000000 0.000000 

0.000000 0.000000 0.000000 
0.000000 -0.000000 0.000000 
0.000000 0.000000 0.000000 

-0.000000 0.000000 0.000000 
0.000000 0.000000 0.000000 
0.000000 0.000000 0.000000 

-0.000000 0.000000 0.000000 
0.000000 -0.000000 0.000000 
0.000000 0.000000 0.000000 

0.000000 0.000000 0.000000 
0.000000 -0.000000 0.000000 
0.000000 0.000000 0.000000 

0.000000 -0.000000 0.000000 
0.000000 -0.000000 0.000000 
0.000000 0.000000 0.000000 

0.000000 0.000000 0.000000 
0.000000 0.000000 0.000000 
0.000000 0.000000 0.000000 

0.000000 -0.000000 0.000000 
0.000000 0.000000 0.000000 
0.000000 0.000000 0.000000 

0.000000 -0.000000 0.000000 
0.000000 0.000000 0.000000 
0.000000 0.000000 0.000000 

0.000000 0.000000 0.000000 
0.000000 0.000000 0.000000 
0.000000 0.000000 0.000000 

-0.000000 -0.000000 0.000000 
0.000000 0.000000 0.000000 
0.000000 0.000000 0.000000 

-0.000000 -0.000000 0.000000 
0.000000 -0.000000 0.000000 
0.000000 0.000000 0.000000 

-0.000000 -0.000000 0.000000 
0.000000 -0.000000 0.000000 
0.000000 0.000000 0.000000 

-0.000000 0.000000 0.000000 
0.000000 -0.000000 0.000000 
0.000000 0.000000 0.000000 

-0.000000 -0.000000 0.000000 
0.000000 -0.000000 0.000000 
0.000000 0.000000 0.000000 

-0.000000 -0.000000 0.000000 
0.000000 -0.000000 0.000000 
0.000000 0.000000 0.000000 

0.000000 0.000000 0.000000 
0.000000 -0.000000 0.000000 
0.000000 0.000000 0.000000 

0.000000 0.000000 0.000000 
0.000000 -0.000000 0.000000 
0.000000 0.000000 0.000000 

0.000000 -0.000000 0.000000 
0.000000 -0.000000 0.000000 
0.000000 0.000000 0.000000 

0.000000 -0.000000 0.000000 
0.000000 -0.000000 0.000000 
0.000000 0.000000 0.000000 

0.000000 -0.000000 0.000000 
0.000000 -0.000000 0.000000 
0.000000 0.000000 0.000000 

0.000000 -0.000000 0.000000 
0.000000 -0.000000 0.000000 
0.000000 0.000000 0.000000 

0.000000 -0.000000 0.000000 
0.000000 -0.000000 0.000000 
0.000000 0.000000 0.000000 

0.000000 -0.000000 0.000000 
0.000000 -0.000000 0.000000 
0.000000 0.000000 0.000000 

0.000000 0.000000 0.000000 
0.000000 -0.000000 0.000000 
0.000000 0.000000 0.000000 

0.000000 -0.000000 0.000000 
0.000000 -0.000000 0.000000 
0.000000 0.000000 0.000000 

0.000000 -0.000000 0.000000 
0.000000 -0.000000 0.000000 
0.000000 0.000000 0.000000 

0.000000 -0.000000 0.000000 
0.000000 0.000000 0.000000 
0.000000 0.000000 0.000000 

0.000000 -0.000000 0.000000 
0.000000 0.000000 0.000000 
0.000000 0.000000 0.000000 

-0.000000 -0.000000 0.000000 
0.000000 -0.000000 0.000000 
0.000000 0.000000 0.000000 

-0.000000 0.000000 0.000000 
0.000000 -0.000000 0.000000 
0.000000 0.000000 0.000000 

-0.000000 0.000000 0.000000 
0.000000 -0.000000 0.000000 
0.000000 0.000000 0.000000 

0.000000 0.000000 0.000000 
0.000000 -0.000000 0.000000 
0.000000 0.000000 0.000000 

-0.000000 -0.000000 0.000000 
0.000000 0.000000 0.000000 
0.000000 0.000000 0.000000 

-0.000000 -0.000000 0.000000 
0.000000 0.000000 0.000000 
0.000000 0.000000 0.000000 

-0.000000 -0.000000 0.000000 
0.000000 0.000000 0.000000 
0.000000 0.000000 0.000000 

-0.000000 -0.000000 0.000000 
0.000000 0.000000 0.000000 
0.000000 0.000000 0.000000 

0.000000 -0.000000 0.000000 
0.000000 -0.000000 0.000000 
0.000000 0.000000 0.000000 

-0.000000 -0.000000 0.000000 
0.000000 0.000000 0.000000 
0.000000 0.000000 0.000000 

0.000000 0.000000 0.000000 
0.000000 -0.000000 0.000000 
0.000000 0.000000 0.000000 

0.000000 -0.000000 0.000000 
0.000000 -0.000000 0.000000 
0.000000 0.000000 0.000000 

-0.000000 0.000000 0.000000 
0.000000 -0.000000 0.000000 
0.000000 0.000000 0.000000 

0.000000 0.000000 0.000000 
0.000000 -0.000000 0.000000 
0.000000 0.000000 0.000000 

0.000000 0.000000 0.000000 
0.000000 -0.000000 0.000000 
0.000000 0.000000 0.000000 

0.000000 -0.000000 0.000000 
0.000000 -0.000000 0.000000 
0.000000 0.000000 0.000000 

-0.000000 0.000000 0.000000 
0.000000 0.000000 0.000000 
0.000000 0.000000 0.000000 

0.000000 -0.000000 0.000000 
0.000000 0.000000 0.000000 
0.000000 0.000000 0.000000 

-0.000000 0.000000 0.000000 
0.000000 -0.000000 0.000000 
0.000000 0.000000 0.000000 

0.000000 -0.000000 0.000000 
0.000000 0.000000 0.000000 
0.000000 0.000000 0.000000 

0.000000 0.000000 0.000000 
0.000000 0.000000 0.000000 
0.000000 0.000000 0.000000 

0.000000 0.000000 0.000000 
0.000000 0.000000 0.000000 
0.000000 0.000000 0.000000 

0.000000 0.000000 0.000000 
0.000000 -0.000000 0.000000 
0.000000 0.000000 0.000000 

0.000000 -0.000000 0.000000 
0.000000 -0.000000 0.000000 
0.000000 0.000000 0.000000 

0.000000 -0.000000 0.000000 
0.000000 0.000000 0.000000 
0.000000 0.000000 0.000000 

-0.000000 0.000000 0.000000 
0.000000 0.000000 0.000000 
0.000000 0.000000 0.000000 

-0.000000 0.000000 0.000000 
0.000000 0.000000 0.000000 
0.000000 0.000000 0.000000 

-0.000000 -0.000000 0.000000 
0.000000 0.000000 0.000000 
0.000000 0.000000 0.000000 

-0.000000 0.000000 0.000000 
0.000000 0.000000 0.000000 
0.000000 0.000000 0.000000 

-0.000000 -0.000000 0.000000 
0.000000 0.000000 0.000000 
0.000000 0.000000 0.000000 

-0.000000 -0.000000 0.000000 
0.000000 0.000000 0.000000 
0.000000 0.000000 0.000000 

-0.000000 0.000000 0.000000 
0.000000 -0.000000 0.000000 
0.000000 0.000000 0.000000 

-0.000000 -0.000000 0.000000 
0.000000 -0.000000 0.000000 
0.000000 0.000000 0.000000 

-0.000000 0.000000 0.000000 
0.000000 -0.000000 0.000000 
0.000000 0.000000 0.000000 

-0.000000 -0.000000 0.000000 
0.000000 -0.000000 0.000000 
0.000000 0.000000 0.000000 

-0.000000 0.000000 0.000000 
0.000000 -0.000000 0.000000 
0.000000 0.000000 0.000000 

-0.000000 0.000000 0.000000 
0.000000 -0.000000 0.000000 
0.000000 0.000000 0.000000 

0.000000 0.000000 0.000000 
0.000000 -0.000000 0.000000 
0.000000 0.000000 0.000000 

-0.000000 -0.000000 0.000000 
0.000000 0.000000 0.000000 
0.000000 0.000000 0.000000 

-0.000000 -0.000000 0.000000 
0.000000 0.000000 0.000000 
0.000000 0.000000 0.000000 

-0.000000 0.000000 0.000000 
0.000000 0.000000 0.000000 
0.000000 0.000000 0.000000 

0.000000 0.000000 0.000000 
0.000000 -0.000000 0.000000 
0.000000 0.000000 0.000000 

0.000000 0.000000 0.000000 
0.000000 -0.000000 0.000000 
0.000000 0.000000 0.000000 

-0.000000 -0.000000 0.000000 
0.000000 0.000000 0.000000 
0.000000 0.000000 0.000000 

0.000000 -0.000000 0.000000 
0.000000 0.000000 0.000000 
0.000000 0.000000 0.000000 

-0.000000 0.000000 0.000000 
0.000000 -0.000000 0.000000 
0.000000 0.000000 0.000000 

-0.000000 0.000000 0.000000 
0.000000 -0.000000 0.000000 
0.000000 0.000000 0.000000 

-0.000000 0.000000 0.000000 
0.000000 0.000000 0.000000 
0.000000 0.000000 0.000000 

-0.000000 0.000000 0.000000 
0.000000 0.000000 0.000000 
0.000000 0.000000 0.000000 

-0.000000 0.000000 0.000000 
0.000000 0.000000 0.000000 
0.000000 0.000000 0.000000 

-0.000000 0.000000 0.000000 
0.000000 0.000000 0.000000 
0.000000 0.000000 0.000000 

-0.000000 0.000000 0.000000 
0.000000 0.000000 0.000000 
0.000000 0.000000 0.000000 

0.000000 0.000000 0.000000 
0.000000 -0.000000 0.000000 
0.000000 0.000000 0.000000 

0.000000 0.000000 0.000000 
0.000000 0.000000 0.000000 
0.000000 0.000000 0.000000 

0.000000 0.000000 0.000000 
0.000000 -0.000000 0.000000 
0.000000 0.000000 0.000000 

-0.000000 0.000000 0.000000 
0.000000 0.000000 0.000000 
0.000000 0.000000 0.000000 

0.000000 0.000000 0.000000 
0.000000 0.000000 0.000000 
0.000000 0.000000 0.000000 

-0.000000 0.000000 0.000000 
0.000000 0.000000 0.000000 
0.000000 0.000000 0.000000 

-0.000000 0.000000 0.000000 
0.000000 0.000000 0.000000 
0.000000 0.000000 0.000000 

