# vtk DataFile Version 3.0 
vtk output 
ASCII 
DATASET UNSTRUCTURED_GRID 
POINTS 175 float 
-0.026061 0.039149 0.000000 
-0.106992 0.107204 0.000000 
-0.054870 0.098972 0.000000 
-0.028809 0.144855 0.000000 
-0.186430 0.171280 0.000000 
-0.137056 0.168754 0.000000 
-0.114311 0.222401 0.000000 
-0.058186 0.206735 0.000000 
-0.029377 0.246913 0.000000 
-0.265318 0.234436 0.000000 
-0.217198 0.233636 0.000000 
-0.196633 0.290933 0.000000 
-0.143120 0.282224 0.000000 
-0.116563 0.329492 0.000000 
-0.058945 0.309847 0.000000 
-0.029568 0.347967 0.000000 
-0.344206 0.297591 0.000000 
-0.296791 0.297599 0.000000 
-0.278030 0.357541 0.000000 
-0.225992 0.351675 0.000000 
-0.201664 0.403792 0.000000 
-0.145749 0.390318 0.000000 
-0.117890 0.434661 0.000000 
-0.059328 0.411955 0.000000 
-0.029759 0.449021 0.000000 
-0.058559 -0.001602 0.000000 
-0.162226 -0.022444 0.000000 
-0.123292 0.013173 0.000000 
-0.142917 0.062157 0.000000 
-0.261851 -0.044601 0.000000 
-0.229092 -0.007574 0.000000 
-0.256854 0.043658 0.000000 
-0.209613 0.077770 0.000000 
-0.223062 0.125344 0.000000 
-0.360414 -0.066901 0.000000 
-0.329787 -0.029778 0.000000 
-0.361761 0.022024 0.000000 
-0.321587 0.058433 0.000000 
-0.341985 0.108667 0.000000 
-0.290702 0.141466 0.000000 
-0.302189 0.188201 0.000000 
-0.458977 -0.089201 0.000000 
-0.429420 -0.052126 0.000000 
-0.464588 -0.000085 0.000000 
-0.427556 0.036943 0.000000 
-0.453135 0.088458 0.000000 
-0.407738 0.123773 0.000000 
-0.425037 0.173201 0.000000 
-0.370772 0.204830 0.000000 
-0.381315 0.251058 0.000000 
-0.046960 -0.052417 0.000000 
-0.095301 -0.146463 0.000000 
-0.098873 -0.093816 0.000000 
-0.149405 -0.078618 0.000000 
-0.140093 -0.238167 0.000000 
-0.148617 -0.189469 0.000000 
-0.205981 -0.179231 0.000000 
-0.203197 -0.121028 0.000000 
-0.248777 -0.101882 0.000000 
-0.184111 -0.329131 0.000000 
-0.194039 -0.282039 0.000000 
-0.254475 -0.274740 0.000000 
-0.257893 -0.220630 0.000000 
-0.309886 -0.205258 0.000000 
-0.303554 -0.144713 0.000000 
-0.347255 -0.124555 0.000000 
-0.228129 -0.420094 0.000000 
-0.238687 -0.373870 0.000000 
-0.301302 -0.368918 0.000000 
-0.307162 -0.316879 0.000000 
-0.363386 -0.304758 0.000000 
-0.362692 -0.247247 0.000000 
-0.412122 -0.229953 0.000000 
-0.403017 -0.167807 0.000000 
-0.445733 -0.147228 0.000000 
-0.000000 -0.075032 0.000000 
0.043388 -0.171463 0.000000 
-0.000000 -0.141430 0.000000 
-0.043388 -0.171463 0.000000 
0.087158 -0.263659 0.000000 
0.043769 -0.239961 0.000000 
-0.000000 -0.278426 0.000000 
-0.043769 -0.239961 0.000000 
-0.087158 -0.263659 0.000000 
0.130831 -0.354789 0.000000 
0.087824 -0.333190 0.000000 
0.044436 -0.375890 0.000000 
-0.000000 -0.344825 0.000000 
-0.044436 -0.375890 0.000000 
-0.087824 -0.333190 0.000000 
-0.130831 -0.354789 0.000000 
0.174505 -0.445919 0.000000 
0.131782 -0.425352 0.000000 
0.088871 -0.471219 0.000000 
0.044532 -0.443355 0.000000 
-0.000000 -0.479755 0.000000 
-0.044532 -0.443355 0.000000 
-0.088871 -0.471219 0.000000 
-0.131782 -0.425352 0.000000 
-0.174505 -0.445919 0.000000 
0.046960 -0.052417 0.000000 
0.149405 -0.078618 0.000000 
0.098873 -0.093816 0.000000 
0.095301 -0.146463 0.000000 
0.248777 -0.101882 0.000000 
0.203197 -0.121028 0.000000 
0.205981 -0.179231 0.000000 
0.148617 -0.189469 0.000000 
0.140093 -0.238167 0.000000 
0.347255 -0.124555 0.000000 
0.303554 -0.144713 0.000000 
0.309886 -0.205258 0.000000 
0.257893 -0.220630 0.000000 
0.254475 -0.274740 0.000000 
0.194039 -0.282039 0.000000 
0.184111 -0.329131 0.000000 
0.445733 -0.147228 0.000000 
0.403017 -0.167807 0.000000 
0.412122 -0.229953 0.000000 
0.362692 -0.247247 0.000000 
0.363386 -0.304758 0.000000 
0.307162 -0.316879 0.000000 
0.301302 -0.368918 0.000000 
0.238687 -0.373870 0.000000 
0.228129 -0.420094 0.000000 
0.058559 -0.001602 0.000000 
0.142917 0.062157 0.000000 
0.123292 0.013173 0.000000 
0.162226 -0.022444 0.000000 
0.223062 0.125344 0.000000 
0.209613 0.077770 0.000000 
0.256854 0.043658 0.000000 
0.229092 -0.007574 0.000000 
0.261851 -0.044601 0.000000 
0.302189 0.188201 0.000000 
0.290702 0.141466 0.000000 
0.341985 0.108667 0.000000 
0.321587 0.058433 0.000000 
0.361761 0.022024 0.000000 
0.329787 -0.029778 0.000000 
0.360414 -0.066901 0.000000 
0.381315 0.251058 0.000000 
0.370772 0.204830 0.000000 
0.425037 0.173201 0.000000 
0.407738 0.123773 0.000000 
0.453135 0.088458 0.000000 
0.427556 0.036943 0.000000 
0.464588 -0.000085 0.000000 
0.429420 -0.052126 0.000000 
0.458977 -0.089201 0.000000 
0.026061 0.039149 0.000000 
0.028809 0.144855 0.000000 
0.054870 0.098972 0.000000 
0.106992 0.107204 0.000000 
0.029377 0.246913 0.000000 
0.058186 0.206735 0.000000 
0.114311 0.222401 0.000000 
0.137056 0.168754 0.000000 
0.186430 0.171280 0.000000 
0.029568 0.347967 0.000000 
0.058945 0.309847 0.000000 
0.116563 0.329492 0.000000 
0.143120 0.282224 0.000000 
0.196633 0.290933 0.000000 
0.217198 0.233636 0.000000 
0.265318 0.234436 0.000000 
0.029759 0.449021 0.000000 
0.059328 0.411955 0.000000 
0.117890 0.434661 0.000000 
0.145749 0.390318 0.000000 
0.201664 0.403792 0.000000 
0.225992 0.351675 0.000000 
0.278030 0.357541 0.000000 
0.296791 0.297599 0.000000 
0.344206 0.297591 0.000000 
CELLS 175 350 
1 0 
1 1 
1 2 
1 3 
1 4 
1 5 
1 6 
1 7 
1 8 
1 9 
1 10 
1 11 
1 12 
1 13 
1 14 
1 15 
1 16 
1 17 
1 18 
1 19 
1 20 
1 21 
1 22 
1 23 
1 24 
1 25 
1 26 
1 27 
1 28 
1 29 
1 30 
1 31 
1 32 
1 33 
1 34 
1 35 
1 36 
1 37 
1 38 
1 39 
1 40 
1 41 
1 42 
1 43 
1 44 
1 45 
1 46 
1 47 
1 48 
1 49 
1 50 
1 51 
1 52 
1 53 
1 54 
1 55 
1 56 
1 57 
1 58 
1 59 
1 60 
1 61 
1 62 
1 63 
1 64 
1 65 
1 66 
1 67 
1 68 
1 69 
1 70 
1 71 
1 72 
1 73 
1 74 
1 75 
1 76 
1 77 
1 78 
1 79 
1 80 
1 81 
1 82 
1 83 
1 84 
1 85 
1 86 
1 87 
1 88 
1 89 
1 90 
1 91 
1 92 
1 93 
1 94 
1 95 
1 96 
1 97 
1 98 
1 99 
1 100 
1 101 
1 102 
1 103 
1 104 
1 105 
1 106 
1 107 
1 108 
1 109 
1 110 
1 111 
1 112 
1 113 
1 114 
1 115 
1 116 
1 117 
1 118 
1 119 
1 120 
1 121 
1 122 
1 123 
1 124 
1 125 
1 126 
1 127 
1 128 
1 129 
1 130 
1 131 
1 132 
1 133 
1 134 
1 135 
1 136 
1 137 
1 138 
1 139 
1 140 
1 141 
1 142 
1 143 
1 144 
1 145 
1 146 
1 147 
1 148 
1 149 
1 150 
1 151 
1 152 
1 153 
1 154 
1 155 
1 156 
1 157 
1 158 
1 159 
1 160 
1 161 
1 162 
1 163 
1 164 
1 165 
1 166 
1 167 
1 168 
1 169 
1 170 
1 171 
1 172 
1 173 
1 174 
CELL_TYPES 175 
1 
1 
1 
1 
1 
1 
1 
1 
1 
1 
1 
1 
1 
1 
1 
1 
1 
1 
1 
1 
1 
1 
1 
1 
1 
1 
1 
1 
1 
1 
1 
1 
1 
1 
1 
1 
1 
1 
1 
1 
1 
1 
1 
1 
1 
1 
1 
1 
1 
1 
1 
1 
1 
1 
1 
1 
1 
1 
1 
1 
1 
1 
1 
1 
1 
1 
1 
1 
1 
1 
1 
1 
1 
1 
1 
1 
1 
1 
1 
1 
1 
1 
1 
1 
1 
1 
1 
1 
1 
1 
1 
1 
1 
1 
1 
1 
1 
1 
1 
1 
1 
1 
1 
1 
1 
1 
1 
1 
1 
1 
1 
1 
1 
1 
1 
1 
1 
1 
1 
1 
1 
1 
1 
1 
1 
1 
1 
1 
1 
1 
1 
1 
1 
1 
1 
1 
1 
1 
1 
1 
1 
1 
1 
1 
1 
1 
1 
1 
1 
1 
1 
1 
1 
1 
1 
1 
1 
1 
1 
1 
1 
1 
1 
1 
1 
1 
1 
1 
1 
1 
1 
1 
1 
1 
1 
POINT_DATA 175 
VECTORS X_GC float 
-0.026061 0.039149 0.000000 
-0.106992 0.107204 0.000000 
-0.054870 0.098972 0.000000 
-0.028809 0.144855 0.000000 
-0.186430 0.171280 0.000000 
-0.137056 0.168754 0.000000 
-0.114311 0.222401 0.000000 
-0.058186 0.206735 0.000000 
-0.029377 0.246913 0.000000 
-0.265318 0.234436 0.000000 
-0.217198 0.233636 0.000000 
-0.196633 0.290933 0.000000 
-0.143120 0.282224 0.000000 
-0.116563 0.329492 0.000000 
-0.058945 0.309847 0.000000 
-0.029568 0.347967 0.000000 
-0.344206 0.297591 0.000000 
-0.296791 0.297599 0.000000 
-0.278030 0.357541 0.000000 
-0.225992 0.351675 0.000000 
-0.201664 0.403792 0.000000 
-0.145749 0.390318 0.000000 
-0.117890 0.434661 0.000000 
-0.059328 0.411955 0.000000 
-0.029759 0.449021 0.000000 
-0.058559 -0.001602 0.000000 
-0.162226 -0.022444 0.000000 
-0.123292 0.013173 0.000000 
-0.142917 0.062157 0.000000 
-0.261851 -0.044601 0.000000 
-0.229092 -0.007574 0.000000 
-0.256854 0.043658 0.000000 
-0.209613 0.077770 0.000000 
-0.223062 0.125344 0.000000 
-0.360414 -0.066901 0.000000 
-0.329787 -0.029778 0.000000 
-0.361761 0.022024 0.000000 
-0.321587 0.058433 0.000000 
-0.341985 0.108667 0.000000 
-0.290702 0.141466 0.000000 
-0.302189 0.188201 0.000000 
-0.458977 -0.089201 0.000000 
-0.429420 -0.052126 0.000000 
-0.464588 -0.000085 0.000000 
-0.427556 0.036943 0.000000 
-0.453135 0.088458 0.000000 
-0.407738 0.123773 0.000000 
-0.425037 0.173201 0.000000 
-0.370772 0.204830 0.000000 
-0.381315 0.251058 0.000000 
-0.046960 -0.052417 0.000000 
-0.095301 -0.146463 0.000000 
-0.098873 -0.093816 0.000000 
-0.149405 -0.078618 0.000000 
-0.140093 -0.238167 0.000000 
-0.148617 -0.189469 0.000000 
-0.205981 -0.179231 0.000000 
-0.203197 -0.121028 0.000000 
-0.248777 -0.101882 0.000000 
-0.184111 -0.329131 0.000000 
-0.194039 -0.282039 0.000000 
-0.254475 -0.274740 0.000000 
-0.257893 -0.220630 0.000000 
-0.309886 -0.205258 0.000000 
-0.303554 -0.144713 0.000000 
-0.347255 -0.124555 0.000000 
-0.228129 -0.420094 0.000000 
-0.238687 -0.373870 0.000000 
-0.301302 -0.368918 0.000000 
-0.307162 -0.316879 0.000000 
-0.363386 -0.304758 0.000000 
-0.362692 -0.247247 0.000000 
-0.412122 -0.229953 0.000000 
-0.403017 -0.167807 0.000000 
-0.445733 -0.147228 0.000000 
-0.000000 -0.075032 0.000000 
0.043388 -0.171463 0.000000 
-0.000000 -0.141430 0.000000 
-0.043388 -0.171463 0.000000 
0.087158 -0.263659 0.000000 
0.043769 -0.239961 0.000000 
-0.000000 -0.278426 0.000000 
-0.043769 -0.239961 0.000000 
-0.087158 -0.263659 0.000000 
0.130831 -0.354789 0.000000 
0.087824 -0.333190 0.000000 
0.044436 -0.375890 0.000000 
-0.000000 -0.344825 0.000000 
-0.044436 -0.375890 0.000000 
-0.087824 -0.333190 0.000000 
-0.130831 -0.354789 0.000000 
0.174505 -0.445919 0.000000 
0.131782 -0.425352 0.000000 
0.088871 -0.471219 0.000000 
0.044532 -0.443355 0.000000 
-0.000000 -0.479755 0.000000 
-0.044532 -0.443355 0.000000 
-0.088871 -0.471219 0.000000 
-0.131782 -0.425352 0.000000 
-0.174505 -0.445919 0.000000 
0.046960 -0.052417 0.000000 
0.149405 -0.078618 0.000000 
0.098873 -0.093816 0.000000 
0.095301 -0.146463 0.000000 
0.248777 -0.101882 0.000000 
0.203197 -0.121028 0.000000 
0.205981 -0.179231 0.000000 
0.148617 -0.189469 0.000000 
0.140093 -0.238167 0.000000 
0.347255 -0.124555 0.000000 
0.303554 -0.144713 0.000000 
0.309886 -0.205258 0.000000 
0.257893 -0.220630 0.000000 
0.254475 -0.274740 0.000000 
0.194039 -0.282039 0.000000 
0.184111 -0.329131 0.000000 
0.445733 -0.147228 0.000000 
0.403017 -0.167807 0.000000 
0.412122 -0.229953 0.000000 
0.362692 -0.247247 0.000000 
0.363386 -0.304758 0.000000 
0.307162 -0.316879 0.000000 
0.301302 -0.368918 0.000000 
0.238687 -0.373870 0.000000 
0.228129 -0.420094 0.000000 
0.058559 -0.001602 0.000000 
0.142917 0.062157 0.000000 
0.123292 0.013173 0.000000 
0.162226 -0.022444 0.000000 
0.223062 0.125344 0.000000 
0.209613 0.077770 0.000000 
0.256854 0.043658 0.000000 
0.229092 -0.007574 0.000000 
0.261851 -0.044601 0.000000 
0.302189 0.188201 0.000000 
0.290702 0.141466 0.000000 
0.341985 0.108667 0.000000 
0.321587 0.058433 0.000000 
0.361761 0.022024 0.000000 
0.329787 -0.029778 0.000000 
0.360414 -0.066901 0.000000 
0.381315 0.251058 0.000000 
0.370772 0.204830 0.000000 
0.425037 0.173201 0.000000 
0.407738 0.123773 0.000000 
0.453135 0.088458 0.000000 
0.427556 0.036943 0.000000 
0.464588 -0.000085 0.000000 
0.429420 -0.052126 0.000000 
0.458977 -0.089201 0.000000 
0.026061 0.039149 0.000000 
0.028809 0.144855 0.000000 
0.054870 0.098972 0.000000 
0.106992 0.107204 0.000000 
0.029377 0.246913 0.000000 
0.058186 0.206735 0.000000 
0.114311 0.222401 0.000000 
0.137056 0.168754 0.000000 
0.186430 0.171280 0.000000 
0.029568 0.347967 0.000000 
0.058945 0.309847 0.000000 
0.116563 0.329492 0.000000 
0.143120 0.282224 0.000000 
0.196633 0.290933 0.000000 
0.217198 0.233636 0.000000 
0.265318 0.234436 0.000000 
0.029759 0.449021 0.000000 
0.059328 0.411955 0.000000 
0.117890 0.434661 0.000000 
0.145749 0.390318 0.000000 
0.201664 0.403792 0.000000 
0.225992 0.351675 0.000000 
0.278030 0.357541 0.000000 
0.296791 0.297599 0.000000 
0.344206 0.297591 0.000000 
VECTORS X_EC float 
0.338794 -0.028511 0.000000 
-0.609100 -0.947259 0.000000 
0.713312 -0.836118 0.000000 
0.374519 0.544452 0.000000 
0.423588 0.187722 0.000000 
-0.218274 0.221825 0.000000 
-0.513962 -0.502414 0.000000 
0.756418 -0.290928 0.000000 
0.381900 -0.833320 0.000000 
-0.550868 -0.664882 0.000000 
0.823577 -0.654086 0.000000 
0.556234 0.572410 0.000000 
-0.139443 0.689979 0.000000 
-0.484677 0.051854 0.000000 
0.766286 0.317069 0.000000 
0.384386 -0.197551 0.000000 
0.474677 0.482515 0.000000 
-0.141715 0.482419 0.000000 
-0.385608 -0.326809 0.000000 
0.937896 -0.247614 0.000000 
0.621631 -0.951194 0.000000 
-0.105264 -0.769295 0.000000 
-0.467428 0.632079 0.000000 
0.771260 0.938608 0.000000 
0.386873 0.438218 0.000000 
0.761262 0.521624 0.000000 
0.108942 0.803000 0.000000 
-0.397202 0.322161 0.000000 
-0.142083 -0.339114 0.000000 
-0.595936 -0.897889 0.000000 
0.978194 0.602245 0.000000 
-0.660903 -0.089380 0.000000 
0.724964 -0.549900 0.000000 
0.899809 0.807852 0.000000 
0.685384 -0.596837 0.000000 
0.287229 0.902005 0.000000 
0.702895 0.202676 0.000000 
0.180633 -0.288842 0.000000 
0.445811 -0.967002 0.000000 
-0.220880 0.590212 0.000000 
-0.071546 -0.040713 0.000000 
-0.033296 -0.295785 0.000000 
-0.417537 -0.796294 0.000000 
0.039645 0.501143 0.000000 
-0.441768 0.001272 0.000000 
-0.109248 -0.694179 0.000000 
-0.699407 0.829066 0.000000 
-0.474522 0.161787 0.000000 
0.820030 -0.265207 0.000000 
0.957100 -0.889278 0.000000 
0.610485 -0.792370 0.000000 
-0.761092 0.477250 0.000000 
-0.714655 -0.233488 0.000000 
-0.057734 -0.438655 0.000000 
-0.178789 -0.284746 0.000000 
-0.067979 -0.942172 0.000000 
0.677748 0.919624 0.000000 
0.641556 0.133879 0.000000 
-0.765897 -0.124600 0.000000 
0.393446 0.943263 0.000000 
0.522510 0.307533 0.000000 
-0.691820 0.208989 0.000000 
-0.647393 -0.521494 0.000000 
0.028512 -0.729021 0.000000 
-0.053800 0.453619 0.000000 
0.514316 0.181488 0.000000 
0.965681 0.171272 0.000000 
-0.897068 -0.452757 0.000000 
-0.083078 -0.519610 0.000000 
-0.006893 0.777866 0.000000 
0.724017 0.614233 0.000000 
0.714996 -0.162171 0.000000 
-0.642413 -0.395628 0.000000 
-0.760780 0.765391 0.000000 
-0.205471 0.487576 0.000000 
0.000000 -0.487068 0.000000 
-0.564049 0.814745 0.000000 
0.000000 0.409309 0.000000 
0.564049 0.814745 0.000000 
0.866949 0.059400 0.000000 
-0.569003 -0.260531 0.000000 
0.000000 0.258757 0.000000 
0.569003 -0.260531 0.000000 
-0.866949 0.059400 0.000000 
0.299194 -0.710350 0.000000 
0.858290 0.998066 0.000000 
-0.577662 -0.425488 0.000000 
0.000000 -0.844866 0.000000 
0.577662 -0.425488 0.000000 
-0.858290 0.998066 0.000000 
-0.299194 -0.710350 0.000000 
-0.268560 0.519900 0.000000 
0.286830 0.242258 0.000000 
0.844677 0.861457 0.000000 
-0.578910 0.485294 0.000000 
0.000000 0.976698 0.000000 
0.578910 0.485294 0.000000 
-0.844677 0.861457 0.000000 
-0.286830 0.242258 0.000000 
0.268560 0.519900 0.000000 
-0.610485 -0.792370 0.000000 
0.057734 -0.438655 0.000000 
0.714655 -0.233488 0.000000 
0.761092 0.477250 0.000000 
0.765897 -0.124600 0.000000 
-0.641556 0.133879 0.000000 
-0.677748 0.919624 0.000000 
0.067979 -0.942172 0.000000 
0.178789 -0.284746 0.000000 
-0.514316 0.181488 0.000000 
0.053800 0.453619 0.000000 
-0.028512 -0.729021 0.000000 
0.647393 -0.521494 0.000000 
0.691820 0.208989 0.000000 
-0.522510 0.307533 0.000000 
-0.393446 0.943263 0.000000 
0.205471 0.487576 0.000000 
0.760780 0.765391 0.000000 
0.642413 -0.395628 0.000000 
-0.714996 -0.162171 0.000000 
-0.724017 0.614233 0.000000 
0.006894 0.777866 0.000000 
0.083078 -0.519610 0.000000 
0.897068 -0.452757 0.000000 
-0.965681 0.171272 0.000000 
-0.761262 0.521624 0.000000 
0.142083 -0.339114 0.000000 
0.397202 0.322161 0.000000 
-0.108942 0.803000 0.000000 
-0.899809 0.807852 0.000000 
-0.724964 -0.549900 0.000000 
0.660903 -0.089380 0.000000 
-0.978194 0.602245 0.000000 
0.595936 -0.897889 0.000000 
0.071546 -0.040713 0.000000 
0.220880 0.590212 0.000000 
-0.445811 -0.967002 0.000000 
-0.180633 -0.288842 0.000000 
-0.702895 0.202676 0.000000 
-0.287229 0.902005 0.000000 
-0.685384 -0.596837 0.000000 
-0.957100 -0.889278 0.000000 
-0.820030 -0.265207 0.000000 
0.474522 0.161787 0.000000 
0.699407 0.829066 0.000000 
0.109248 -0.694179 0.000000 
0.441768 0.001272 0.000000 
-0.039645 0.501143 0.000000 
0.417537 -0.796294 0.000000 
0.033296 -0.295785 0.000000 
-0.338794 -0.028511 0.000000 
-0.374519 0.544452 0.000000 
-0.713312 -0.836118 0.000000 
0.609100 -0.947259 0.000000 
-0.381900 -0.833320 0.000000 
-0.756418 -0.290928 0.000000 
0.513962 -0.502414 0.000000 
0.218274 0.221825 0.000000 
-0.423588 0.187722 0.000000 
-0.384386 -0.197551 0.000000 
-0.766286 0.317069 0.000000 
0.484677 0.051854 0.000000 
0.139443 0.689979 0.000000 
-0.556234 0.572410 0.000000 
-0.823577 -0.654086 0.000000 
0.550868 -0.664882 0.000000 
-0.386873 0.438218 0.000000 
-0.771260 0.938608 0.000000 
0.467428 0.632079 0.000000 
0.105264 -0.769295 0.000000 
-0.621631 -0.951194 0.000000 
-0.937896 -0.247614 0.000000 
0.385608 -0.326809 0.000000 
0.141715 0.482419 0.000000 
-0.474677 0.482515 0.000000 
CELL_DATA 175 
SCALARS MASS float 
LOOKUP_TABLE default 
0.078183 
0.086427 
0.094672 
0.086427 
0.088131 
0.092111 
0.085854 
0.092111 
0.088131 
0.088705 
0.091000 
0.086983 
0.091556 
0.086983 
0.091000 
0.088705 
0.089278 
0.091574 
0.089278 
0.092722 
0.089278 
0.092722 
0.089278 
0.091574 
0.089278 
0.078183 
0.086427 
0.094672 
0.086427 
0.088131 
0.092111 
0.085854 
0.092111 
0.088131 
0.088705 
0.091000 
0.086983 
0.091556 
0.086983 
0.091000 
0.088705 
0.089278 
0.091574 
0.089278 
0.092722 
0.089278 
0.092722 
0.089278 
0.091574 
0.089278 
0.078183 
0.086427 
0.094672 
0.086427 
0.088131 
0.092111 
0.085854 
0.092111 
0.088131 
0.088705 
0.091000 
0.086983 
0.091556 
0.086983 
0.091000 
0.088705 
0.089278 
0.091574 
0.089278 
0.092722 
0.089278 
0.092722 
0.089278 
0.091574 
0.089278 
0.078183 
0.086427 
0.094672 
0.086427 
0.088131 
0.092111 
0.085854 
0.092111 
0.088131 
0.088705 
0.091000 
0.086983 
0.091556 
0.086983 
0.091000 
0.088705 
0.089278 
0.091574 
0.089278 
0.092722 
0.089278 
0.092722 
0.089278 
0.091574 
0.089278 
0.078183 
0.086427 
0.094672 
0.086427 
0.088131 
0.092111 
0.085854 
0.092111 
0.088131 
0.088705 
0.091000 
0.086983 
0.091556 
0.086983 
0.091000 
0.088705 
0.089278 
0.091574 
0.089278 
0.092722 
0.089278 
0.092722 
0.089278 
0.091574 
0.089278 
0.078183 
0.086427 
0.094672 
0.086427 
0.088131 
0.092111 
0.085854 
0.092111 
0.088131 
0.088705 
0.091000 
0.086983 
0.091556 
0.086983 
0.091000 
0.088705 
0.089278 
0.091574 
0.089278 
0.092722 
0.089278 
0.092722 
0.089278 
0.091574 
0.089278 
0.078183 
0.086427 
0.094672 
0.086427 
0.088131 
0.092111 
0.085854 
0.092111 
0.088131 
0.088705 
0.091000 
0.086983 
0.091556 
0.086983 
0.091000 
0.088705 
0.089278 
0.091574 
0.089278 
0.092722 
0.089278 
0.092722 
0.089278 
0.091574 
0.089278 
SCALARS MASS float 
LOOKUP_TABLE default 
0.078183 
0.086427 
0.094672 
0.086427 
0.088131 
0.092111 
0.085854 
0.092111 
0.088131 
0.088705 
0.091000 
0.086983 
0.091556 
0.086983 
0.091000 
0.088705 
0.089278 
0.091574 
0.089278 
0.092722 
0.089278 
0.092722 
0.089278 
0.091574 
0.089278 
0.078183 
0.086427 
0.094672 
0.086427 
0.088131 
0.092111 
0.085854 
0.092111 
0.088131 
0.088705 
0.091000 
0.086983 
0.091556 
0.086983 
0.091000 
0.088705 
0.089278 
0.091574 
0.089278 
0.092722 
0.089278 
0.092722 
0.089278 
0.091574 
0.089278 
0.078183 
0.086427 
0.094672 
0.086427 
0.088131 
0.092111 
0.085854 
0.092111 
0.088131 
0.088705 
0.091000 
0.086983 
0.091556 
0.086983 
0.091000 
0.088705 
0.089278 
0.091574 
0.089278 
0.092722 
0.089278 
0.092722 
0.089278 
0.091574 
0.089278 
0.078183 
0.086427 
0.094672 
0.086427 
0.088131 
0.092111 
0.085854 
0.092111 
0.088131 
0.088705 
0.091000 
0.086983 
0.091556 
0.086983 
0.091000 
0.088705 
0.089278 
0.091574 
0.089278 
0.092722 
0.089278 
0.092722 
0.089278 
0.091574 
0.089278 
0.078183 
0.086427 
0.094672 
0.086427 
0.088131 
0.092111 
0.085854 
0.092111 
0.088131 
0.088705 
0.091000 
0.086983 
0.091556 
0.086983 
0.091000 
0.088705 
0.089278 
0.091574 
0.089278 
0.092722 
0.089278 
0.092722 
0.089278 
0.091574 
0.089278 
0.078183 
0.086427 
0.094672 
0.086427 
0.088131 
0.092111 
0.085854 
0.092111 
0.088131 
0.088705 
0.091000 
0.086983 
0.091556 
0.086983 
0.091000 
0.088705 
0.089278 
0.091574 
0.089278 
0.092722 
0.089278 
0.092722 
0.089278 
0.091574 
0.089278 
0.078183 
0.086427 
0.094672 
0.086427 
0.088131 
0.092111 
0.085854 
0.092111 
0.088131 
0.088705 
0.091000 
0.086983 
0.091556 
0.086983 
0.091000 
0.088705 
0.089278 
0.091574 
0.089278 
0.092722 
0.089278 
0.092722 
0.089278 
0.091574 
0.089278 
SCALARS DENSITY float 
LOOKUP_TABLE default 
20.000000 
20.000000 
20.000000 
20.000000 
20.000000 
20.000000 
20.000000 
20.000000 
20.000000 
20.000000 
20.000000 
20.000000 
20.000000 
20.000000 
20.000000 
20.000000 
20.000000 
20.000000 
20.000000 
20.000000 
20.000000 
20.000000 
20.000000 
20.000000 
20.000000 
20.000000 
20.000000 
20.000000 
20.000000 
20.000000 
20.000000 
20.000000 
20.000000 
20.000000 
20.000000 
20.000000 
20.000000 
20.000000 
20.000000 
20.000000 
20.000000 
20.000000 
20.000000 
20.000000 
20.000000 
20.000000 
20.000000 
20.000000 
20.000000 
20.000000 
20.000000 
20.000000 
20.000000 
20.000000 
20.000000 
20.000000 
20.000000 
20.000000 
20.000000 
20.000000 
20.000000 
20.000000 
20.000000 
20.000000 
20.000000 
20.000000 
20.000000 
20.000000 
20.000000 
20.000000 
20.000000 
20.000000 
20.000000 
20.000000 
20.000000 
20.000000 
20.000000 
20.000000 
20.000000 
20.000000 
20.000000 
20.000000 
20.000000 
20.000000 
20.000000 
20.000000 
20.000000 
20.000000 
20.000000 
20.000000 
20.000000 
20.000000 
20.000000 
20.000000 
20.000000 
20.000000 
20.000000 
20.000000 
20.000000 
20.000000 
20.000000 
20.000000 
20.000000 
20.000000 
20.000000 
20.000000 
20.000000 
20.000000 
20.000000 
20.000000 
20.000000 
20.000000 
20.000000 
20.000000 
20.000000 
20.000000 
20.000000 
20.000000 
20.000000 
20.000000 
20.000000 
20.000000 
20.000000 
20.000000 
20.000000 
20.000000 
20.000000 
20.000000 
20.000000 
20.000000 
20.000000 
20.000000 
20.000000 
20.000000 
20.000000 
20.000000 
20.000000 
20.000000 
20.000000 
20.000000 
20.000000 
20.000000 
20.000000 
20.000000 
20.000000 
20.000000 
20.000000 
20.000000 
20.000000 
20.000000 
20.000000 
20.000000 
20.000000 
20.000000 
20.000000 
20.000000 
20.000000 
20.000000 
20.000000 
20.000000 
20.000000 
20.000000 
20.000000 
20.000000 
20.000000 
20.000000 
20.000000 
20.000000 
20.000000 
20.000000 
20.000000 
20.000000 
20.000000 
20.000000 
20.000000 
SCALARS ELEM_i float 
LOOKUP_TABLE default 
182 
209 
182 
183 
210 
210 
210 
183 
183 
237 
210 
211 
211 
211 
184 
184 
238 
238 
238 
211 
211 
211 
212 
185 
185 
182 
209 
209 
209 
235 
209 
236 
209 
210 
235 
236 
236 
236 
236 
237 
237 
262 
262 
263 
263 
263 
264 
264 
237 
237 
181 
208 
208 
208 
207 
207 
208 
208 
235 
207 
207 
234 
234 
234 
235 
235 
206 
233 
233 
234 
234 
234 
261 
262 
262 
181 
181 
181 
181 
153 
180 
180 
180 
207 
152 
153 
179 
179 
179 
207 
206 
152 
152 
152 
179 
179 
179 
206 
206 
206 
181 
154 
154 
154 
127 
154 
154 
153 
153 
127 
127 
126 
126 
126 
153 
153 
100 
100 
99 
126 
126 
126 
125 
125 
152 
182 
155 
155 
155 
156 
155 
128 
155 
127 
129 
129 
128 
128 
128 
128 
127 
129 
129 
102 
102 
101 
101 
101 
100 
100 
182 
183 
182 
155 
183 
183 
156 
156 
156 
184 
184 
157 
157 
157 
156 
129 
185 
185 
158 
157 
157 
157 
130 
130 
130 
VECTORS VELOCITY float 
-0.000000 -0.541512 0.000000 
-0.000000 -0.541512 0.000000 
-0.000000 -0.541512 0.000000 
-0.000000 -0.541512 0.000000 
0.000000 -0.541512 0.000000 
-0.000000 -0.541512 0.000000 
-0.000000 -0.541512 0.000000 
-0.000000 -0.541512 0.000000 
-0.000000 -0.541512 0.000000 
0.000000 -0.541512 0.000000 
0.000000 -0.541512 0.000000 
0.000000 -0.541512 0.000000 
-0.000000 -0.541512 0.000000 
-0.000000 -0.541512 0.000000 
-0.000000 -0.541512 0.000000 
-0.000000 -0.541512 0.000000 
-0.000000 -0.541512 0.000000 
-0.000000 -0.541512 0.000000 
-0.000000 -0.541512 0.000000 
0.000000 -0.541512 0.000000 
-0.000000 -0.541512 0.000000 
0.000000 -0.541512 0.000000 
0.000000 -0.541512 0.000000 
0.000000 -0.541512 0.000000 
0.000000 -0.541512 0.000000 
0.000000 -0.541512 0.000000 
-0.000000 -0.541512 0.000000 
-0.000000 -0.541512 0.000000 
-0.000000 -0.541512 0.000000 
-0.000000 -0.541512 0.000000 
-0.000000 -0.541512 0.000000 
-0.000000 -0.541512 0.000000 
-0.000000 -0.541512 0.000000 
0.000000 -0.541512 0.000000 
0.000000 -0.541512 0.000000 
0.000000 -0.541512 0.000000 
0.000000 -0.541512 0.000000 
-0.000000 -0.541512 0.000000 
-0.000000 -0.541512 0.000000 
-0.000000 -0.541512 0.000000 
0.000000 -0.541512 0.000000 
-0.000000 -0.541512 0.000000 
-0.000000 -0.541512 0.000000 
-0.000000 -0.541512 0.000000 
0.000000 -0.541512 0.000000 
0.000000 -0.541512 0.000000 
0.000000 -0.541512 0.000000 
0.000000 -0.541512 0.000000 
-0.000000 -0.541512 0.000000 
-0.000000 -0.541512 0.000000 
0.000000 -0.541512 0.000000 
-0.000000 -0.541512 0.000000 
0.000000 -0.541512 0.000000 
0.000000 -0.541512 0.000000 
-0.000000 -0.541512 0.000000 
0.000000 -0.541512 0.000000 
0.000000 -0.541512 0.000000 
0.000000 -0.541512 0.000000 
0.000000 -0.541512 0.000000 
-0.000000 -0.541512 0.000000 
-0.000000 -0.541512 0.000000 
0.000000 -0.541512 0.000000 
0.000000 -0.541512 0.000000 
0.000000 -0.541512 0.000000 
0.000000 -0.541512 0.000000 
0.000000 -0.541512 0.000000 
-0.000000 -0.541512 0.000000 
-0.000000 -0.541512 0.000000 
0.000000 -0.541512 0.000000 
0.000000 -0.541512 0.000000 
0.000000 -0.541512 0.000000 
0.000000 -0.541512 0.000000 
0.000000 -0.541512 0.000000 
0.000000 -0.541512 0.000000 
0.000000 -0.541512 0.000000 
0.000000 -0.541512 0.000000 
0.000000 -0.541512 0.000000 
0.000000 -0.541512 0.000000 
-0.000000 -0.541512 0.000000 
0.000000 -0.541512 0.000000 
0.000000 -0.541512 0.000000 
-0.000000 -0.541512 0.000000 
-0.000000 -0.541512 0.000000 
-0.000000 -0.541512 0.000000 
-0.000000 -0.541512 0.000000 
0.000000 -0.541512 0.000000 
0.000000 -0.541512 0.000000 
-0.000000 -0.541512 0.000000 
-0.000000 -0.541512 0.000000 
-0.000000 -0.541512 0.000000 
-0.000000 -0.541512 0.000000 
-0.000000 -0.541512 0.000000 
-0.000000 -0.541512 0.000000 
-0.000000 -0.541512 0.000000 
-0.000000 -0.541512 0.000000 
0.000000 -0.541512 0.000000 
0.000000 -0.541512 0.000000 
0.000000 -0.541512 0.000000 
0.000000 -0.541512 0.000000 
0.000000 -0.541512 0.000000 
0.000000 -0.541512 0.000000 
0.000000 -0.541512 0.000000 
0.000000 -0.541512 0.000000 
0.000000 -0.541512 0.000000 
-0.000000 -0.541512 0.000000 
0.000000 -0.541512 0.000000 
0.000000 -0.541512 0.000000 
0.000000 -0.541512 0.000000 
0.000000 -0.541512 0.000000 
-0.000000 -0.541512 0.000000 
-0.000000 -0.541512 0.000000 
-0.000000 -0.541512 0.000000 
0.000000 -0.541512 0.000000 
-0.000000 -0.541512 0.000000 
0.000000 -0.541512 0.000000 
-0.000000 -0.541512 0.000000 
0.000000 -0.541512 0.000000 
-0.000000 -0.541512 0.000000 
0.000000 -0.541512 0.000000 
-0.000000 -0.541512 0.000000 
-0.000000 -0.541512 0.000000 
-0.000000 -0.541512 0.000000 
0.000000 -0.541512 0.000000 
-0.000000 -0.541512 0.000000 
-0.000000 -0.541512 0.000000 
0.000000 -0.541512 0.000000 
-0.000000 -0.541512 0.000000 
0.000000 -0.541512 0.000000 
-0.000000 -0.541512 0.000000 
0.000000 -0.541512 0.000000 
0.000000 -0.541512 0.000000 
-0.000000 -0.541512 0.000000 
-0.000000 -0.541512 0.000000 
-0.000000 -0.541512 0.000000 
0.000000 -0.541512 0.000000 
0.000000 -0.541512 0.000000 
0.000000 -0.541512 0.000000 
0.000000 -0.541512 0.000000 
0.000000 -0.541512 0.000000 
0.000000 -0.541512 0.000000 
0.000000 -0.541512 0.000000 
-0.000000 -0.541512 0.000000 
0.000000 -0.541512 0.000000 
0.000000 -0.541512 0.000000 
0.000000 -0.541512 0.000000 
-0.000000 -0.541512 0.000000 
0.000000 -0.541512 0.000000 
-0.000000 -0.541512 0.000000 
0.000000 -0.541512 0.000000 
-0.000000 -0.541512 0.000000 
0.000000 -0.541512 0.000000 
-0.000000 -0.541512 0.000000 
-0.000000 -0.541512 0.000000 
-0.000000 -0.541512 0.000000 
-0.000000 -0.541512 0.000000 
-0.000000 -0.541512 0.000000 
0.000000 -0.541512 0.000000 
0.000000 -0.541512 0.000000 
0.000000 -0.541512 0.000000 
-0.000000 -0.541512 0.000000 
-0.000000 -0.541512 0.000000 
-0.000000 -0.541512 0.000000 
0.000000 -0.541512 0.000000 
0.000000 -0.541512 0.000000 
0.000000 -0.541512 0.000000 
0.000000 -0.541512 0.000000 
-0.000000 -0.541512 0.000000 
-0.000000 -0.541512 0.000000 
-0.000000 -0.541512 0.000000 
-0.000000 -0.541512 0.000000 
-0.000000 -0.541512 0.000000 
-0.000000 -0.541512 0.000000 
-0.000000 -0.541512 0.000000 
-0.000000 -0.541512 0.000000 
-0.000000 -0.541512 0.000000 
TENSORS STRESS float 
0.000000 -0.000000 0.000000 
0.000000 0.000000 0.000000 
0.000000 0.000000 0.000000 

-0.000000 0.000000 0.000000 
0.000000 0.000000 0.000000 
0.000000 0.000000 0.000000 

0.000000 -0.000000 0.000000 
0.000000 0.000000 0.000000 
0.000000 0.000000 0.000000 

-0.000000 -0.000000 0.000000 
0.000000 -0.000000 0.000000 
0.000000 0.000000 0.000000 

-0.000000 0.000000 0.000000 
0.000000 0.000000 0.000000 
0.000000 0.000000 0.000000 

0.000000 0.000000 0.000000 
0.000000 0.000000 0.000000 
0.000000 0.000000 0.000000 

-0.000000 0.000000 0.000000 
0.000000 -0.000000 0.000000 
0.000000 0.000000 0.000000 

-0.000000 -0.000000 0.000000 
0.000000 -0.000000 0.000000 
0.000000 0.000000 0.000000 

0.000000 0.000000 0.000000 
0.000000 -0.000000 0.000000 
0.000000 0.000000 0.000000 

0.000000 0.000000 0.000000 
0.000000 0.000000 0.000000 
0.000000 0.000000 0.000000 

-0.000000 -0.000000 0.000000 
0.000000 -0.000000 0.000000 
0.000000 0.000000 0.000000 

-0.000000 0.000000 0.000000 
0.000000 -0.000000 0.000000 
0.000000 0.000000 0.000000 

-0.000000 0.000000 0.000000 
0.000000 -0.000000 0.000000 
0.000000 0.000000 0.000000 

0.000000 0.000000 0.000000 
0.000000 0.000000 0.000000 
0.000000 0.000000 0.000000 

0.000000 -0.000000 0.000000 
0.000000 0.000000 0.000000 
0.000000 0.000000 0.000000 

0.000000 -0.000000 0.000000 
0.000000 0.000000 0.000000 
0.000000 0.000000 0.000000 

-0.000000 0.000000 0.000000 
0.000000 0.000000 0.000000 
0.000000 0.000000 0.000000 

-0.000000 0.000000 0.000000 
0.000000 0.000000 0.000000 
0.000000 0.000000 0.000000 

-0.000000 -0.000000 0.000000 
0.000000 -0.000000 0.000000 
0.000000 0.000000 0.000000 

-0.000000 0.000000 0.000000 
0.000000 -0.000000 0.000000 
0.000000 0.000000 0.000000 

-0.000000 -0.000000 0.000000 
0.000000 0.000000 0.000000 
0.000000 0.000000 0.000000 

-0.000000 0.000000 0.000000 
0.000000 -0.000000 0.000000 
0.000000 0.000000 0.000000 

0.000000 -0.000000 0.000000 
0.000000 0.000000 0.000000 
0.000000 0.000000 0.000000 

-0.000000 -0.000000 0.000000 
0.000000 -0.000000 0.000000 
0.000000 0.000000 0.000000 

-0.000000 -0.000000 0.000000 
0.000000 -0.000000 0.000000 
0.000000 0.000000 0.000000 

0.000000 -0.000000 0.000000 
0.000000 0.000000 0.000000 
0.000000 0.000000 0.000000 

0.000000 0.000000 0.000000 
0.000000 0.000000 0.000000 
0.000000 0.000000 0.000000 

0.000000 -0.000000 0.000000 
0.000000 0.000000 0.000000 
0.000000 0.000000 0.000000 

0.000000 0.000000 0.000000 
0.000000 0.000000 0.000000 
0.000000 0.000000 0.000000 

0.000000 -0.000000 0.000000 
0.000000 -0.000000 0.000000 
0.000000 0.000000 0.000000 

0.000000 0.000000 0.000000 
0.000000 0.000000 0.000000 
0.000000 0.000000 0.000000 

0.000000 -0.000000 0.000000 
0.000000 0.000000 0.000000 
0.000000 0.000000 0.000000 

-0.000000 0.000000 0.000000 
0.000000 0.000000 0.000000 
0.000000 0.000000 0.000000 

-0.000000 0.000000 0.000000 
0.000000 0.000000 0.000000 
0.000000 0.000000 0.000000 

0.000000 -0.000000 0.000000 
0.000000 -0.000000 0.000000 
0.000000 0.000000 0.000000 

0.000000 0.000000 0.000000 
0.000000 -0.000000 0.000000 
0.000000 0.000000 0.000000 

0.000000 0.000000 0.000000 
0.000000 0.000000 0.000000 
0.000000 0.000000 0.000000 

0.000000 -0.000000 0.000000 
0.000000 0.000000 0.000000 
0.000000 0.000000 0.000000 

0.000000 0.000000 0.000000 
0.000000 0.000000 0.000000 
0.000000 0.000000 0.000000 

0.000000 0.000000 0.000000 
0.000000 0.000000 0.000000 
0.000000 0.000000 0.000000 

-0.000000 0.000000 0.000000 
0.000000 -0.000000 0.000000 
0.000000 0.000000 0.000000 

-0.000000 0.000000 0.000000 
0.000000 -0.000000 0.000000 
0.000000 0.000000 0.000000 

-0.000000 0.000000 0.000000 
0.000000 -0.000000 0.000000 
0.000000 0.000000 0.000000 

0.000000 0.000000 0.000000 
0.000000 0.000000 0.000000 
0.000000 0.000000 0.000000 

0.000000 0.000000 0.000000 
0.000000 0.000000 0.000000 
0.000000 0.000000 0.000000 

0.000000 -0.000000 0.000000 
0.000000 0.000000 0.000000 
0.000000 0.000000 0.000000 

-0.000000 -0.000000 0.000000 
0.000000 -0.000000 0.000000 
0.000000 0.000000 0.000000 

-0.000000 -0.000000 0.000000 
0.000000 -0.000000 0.000000 
0.000000 0.000000 0.000000 

-0.000000 0.000000 0.000000 
0.000000 -0.000000 0.000000 
0.000000 0.000000 0.000000 

-0.000000 -0.000000 0.000000 
0.000000 -0.000000 0.000000 
0.000000 0.000000 0.000000 

-0.000000 -0.000000 0.000000 
0.000000 0.000000 0.000000 
0.000000 0.000000 0.000000 

0.000000 -0.000000 0.000000 
0.000000 0.000000 0.000000 
0.000000 0.000000 0.000000 

0.000000 -0.000000 0.000000 
0.000000 0.000000 0.000000 
0.000000 0.000000 0.000000 

0.000000 -0.000000 0.000000 
0.000000 0.000000 0.000000 
0.000000 0.000000 0.000000 

0.000000 -0.000000 0.000000 
0.000000 0.000000 0.000000 
0.000000 0.000000 0.000000 

0.000000 0.000000 0.000000 
0.000000 -0.000000 0.000000 
0.000000 0.000000 0.000000 

0.000000 -0.000000 0.000000 
0.000000 -0.000000 0.000000 
0.000000 0.000000 0.000000 

-0.000000 -0.000000 0.000000 
0.000000 -0.000000 0.000000 
0.000000 0.000000 0.000000 

0.000000 -0.000000 0.000000 
0.000000 -0.000000 0.000000 
0.000000 0.000000 0.000000 

0.000000 0.000000 0.000000 
0.000000 0.000000 0.000000 
0.000000 0.000000 0.000000 

0.000000 0.000000 0.000000 
0.000000 0.000000 0.000000 
0.000000 0.000000 0.000000 

0.000000 -0.000000 0.000000 
0.000000 0.000000 0.000000 
0.000000 0.000000 0.000000 

0.000000 -0.000000 0.000000 
0.000000 0.000000 0.000000 
0.000000 0.000000 0.000000 

0.000000 -0.000000 0.000000 
0.000000 0.000000 0.000000 
0.000000 0.000000 0.000000 

0.000000 -0.000000 0.000000 
0.000000 -0.000000 0.000000 
0.000000 0.000000 0.000000 

0.000000 -0.000000 0.000000 
0.000000 -0.000000 0.000000 
0.000000 0.000000 0.000000 

0.000000 0.000000 0.000000 
0.000000 -0.000000 0.000000 
0.000000 0.000000 0.000000 

0.000000 -0.000000 0.000000 
0.000000 -0.000000 0.000000 
0.000000 0.000000 0.000000 

0.000000 0.000000 0.000000 
0.000000 0.000000 0.000000 
0.000000 0.000000 0.000000 

0.000000 -0.000000 0.000000 
0.000000 0.000000 0.000000 
0.000000 0.000000 0.000000 

0.000000 -0.000000 0.000000 
0.000000 0.000000 0.000000 
0.000000 0.000000 0.000000 

0.000000 -0.000000 0.000000 
0.000000 0.000000 0.000000 
0.000000 0.000000 0.000000 

0.000000 0.000000 0.000000 
0.000000 0.000000 0.000000 
0.000000 0.000000 0.000000 

-0.000000 0.000000 0.000000 
0.000000 -0.000000 0.000000 
0.000000 0.000000 0.000000 

-0.000000 0.000000 0.000000 
0.000000 -0.000000 0.000000 
0.000000 0.000000 0.000000 

-0.000000 -0.000000 0.000000 
0.000000 -0.000000 0.000000 
0.000000 0.000000 0.000000 

-0.000000 0.000000 0.000000 
0.000000 0.000000 0.000000 
0.000000 0.000000 0.000000 

-0.000000 0.000000 0.000000 
0.000000 -0.000000 0.000000 
0.000000 0.000000 0.000000 

-0.000000 0.000000 0.000000 
0.000000 0.000000 0.000000 
0.000000 0.000000 0.000000 

-0.000000 -0.000000 0.000000 
0.000000 0.000000 0.000000 
0.000000 0.000000 0.000000 

-0.000000 -0.000000 0.000000 
0.000000 0.000000 0.000000 
0.000000 0.000000 0.000000 

0.000000 -0.000000 0.000000 
0.000000 0.000000 0.000000 
0.000000 0.000000 0.000000 

-0.000000 0.000000 0.000000 
0.000000 0.000000 0.000000 
0.000000 0.000000 0.000000 

0.000000 -0.000000 0.000000 
0.000000 0.000000 0.000000 
0.000000 0.000000 0.000000 

-0.000000 0.000000 0.000000 
0.000000 -0.000000 0.000000 
0.000000 0.000000 0.000000 

-0.000000 -0.000000 0.000000 
0.000000 0.000000 0.000000 
0.000000 0.000000 0.000000 

0.000000 -0.000000 0.000000 
0.000000 -0.000000 0.000000 
0.000000 0.000000 0.000000 

0.000000 -0.000000 0.000000 
0.000000 -0.000000 0.000000 
0.000000 0.000000 0.000000 

0.000000 0.000000 0.000000 
0.000000 -0.000000 0.000000 
0.000000 0.000000 0.000000 

0.000000 0.000000 0.000000 
0.000000 0.000000 0.000000 
0.000000 0.000000 0.000000 

-0.000000 0.000000 0.000000 
0.000000 -0.000000 0.000000 
0.000000 0.000000 0.000000 

-0.000000 -0.000000 0.000000 
0.000000 -0.000000 0.000000 
0.000000 0.000000 0.000000 

0.000000 0.000000 0.000000 
0.000000 0.000000 0.000000 
0.000000 0.000000 0.000000 

-0.000000 0.000000 0.000000 
0.000000 -0.000000 0.000000 
0.000000 0.000000 0.000000 

0.000000 -0.000000 0.000000 
0.000000 -0.000000 0.000000 
0.000000 0.000000 0.000000 

0.000000 0.000000 0.000000 
0.000000 -0.000000 0.000000 
0.000000 0.000000 0.000000 

0.000000 0.000000 0.000000 
0.000000 -0.000000 0.000000 
0.000000 0.000000 0.000000 

-0.000000 0.000000 0.000000 
0.000000 -0.000000 0.000000 
0.000000 0.000000 0.000000 

-0.000000 0.000000 0.000000 
0.000000 -0.000000 0.000000 
0.000000 0.000000 0.000000 

0.000000 0.000000 0.000000 
0.000000 0.000000 0.000000 
0.000000 0.000000 0.000000 

-0.000000 0.000000 0.000000 
0.000000 -0.000000 0.000000 
0.000000 0.000000 0.000000 

0.000000 0.000000 0.000000 
0.000000 0.000000 0.000000 
0.000000 0.000000 0.000000 

0.000000 -0.000000 0.000000 
0.000000 0.000000 0.000000 
0.000000 0.000000 0.000000 

0.000000 -0.000000 0.000000 
0.000000 0.000000 0.000000 
0.000000 0.000000 0.000000 

0.000000 0.000000 0.000000 
0.000000 0.000000 0.000000 
0.000000 0.000000 0.000000 

0.000000 -0.000000 0.000000 
0.000000 0.000000 0.000000 
0.000000 0.000000 0.000000 

0.000000 -0.000000 0.000000 
0.000000 0.000000 0.000000 
0.000000 0.000000 0.000000 

0.000000 -0.000000 0.000000 
0.000000 0.000000 0.000000 
0.000000 0.000000 0.000000 

0.000000 -0.000000 0.000000 
0.000000 0.000000 0.000000 
0.000000 0.000000 0.000000 

-0.000000 0.000000 0.000000 
0.000000 -0.000000 0.000000 
0.000000 0.000000 0.000000 

-0.000000 0.000000 0.000000 
0.000000 -0.000000 0.000000 
0.000000 0.000000 0.000000 

0.000000 0.000000 0.000000 
0.000000 0.000000 0.000000 
0.000000 0.000000 0.000000 

-0.000000 0.000000 0.000000 
0.000000 0.000000 0.000000 
0.000000 0.000000 0.000000 

-0.000000 0.000000 0.000000 
0.000000 -0.000000 0.000000 
0.000000 0.000000 0.000000 

-0.000000 0.000000 0.000000 
0.000000 0.000000 0.000000 
0.000000 0.000000 0.000000 

-0.000000 0.000000 0.000000 
0.000000 0.000000 0.000000 
0.000000 0.000000 0.000000 

-0.000000 -0.000000 0.000000 
0.000000 0.000000 0.000000 
0.000000 0.000000 0.000000 

-0.000000 -0.000000 0.000000 
0.000000 -0.000000 0.000000 
0.000000 0.000000 0.000000 

0.000000 0.000000 0.000000 
0.000000 -0.000000 0.000000 
0.000000 0.000000 0.000000 

0.000000 0.000000 0.000000 
0.000000 0.000000 0.000000 
0.000000 0.000000 0.000000 

0.000000 0.000000 0.000000 
0.000000 0.000000 0.000000 
0.000000 0.000000 0.000000 

0.000000 0.000000 0.000000 
0.000000 0.000000 0.000000 
0.000000 0.000000 0.000000 

-0.000000 0.000000 0.000000 
0.000000 -0.000000 0.000000 
0.000000 0.000000 0.000000 

-0.000000 0.000000 0.000000 
0.000000 -0.000000 0.000000 
0.000000 0.000000 0.000000 

-0.000000 -0.000000 0.000000 
0.000000 -0.000000 0.000000 
0.000000 0.000000 0.000000 

-0.000000 -0.000000 0.000000 
0.000000 -0.000000 0.000000 
0.000000 0.000000 0.000000 

0.000000 0.000000 0.000000 
0.000000 -0.000000 0.000000 
0.000000 0.000000 0.000000 

0.000000 0.000000 0.000000 
0.000000 0.000000 0.000000 
0.000000 0.000000 0.000000 

0.000000 0.000000 0.000000 
0.000000 0.000000 0.000000 
0.000000 0.000000 0.000000 

0.000000 0.000000 0.000000 
0.000000 0.000000 0.000000 
0.000000 0.000000 0.000000 

0.000000 0.000000 0.000000 
0.000000 -0.000000 0.000000 
0.000000 0.000000 0.000000 

-0.000000 -0.000000 0.000000 
0.000000 -0.000000 0.000000 
0.000000 0.000000 0.000000 

-0.000000 0.000000 0.000000 
0.000000 -0.000000 0.000000 
0.000000 0.000000 0.000000 

0.000000 -0.000000 0.000000 
0.000000 -0.000000 0.000000 
0.000000 0.000000 0.000000 

0.000000 0.000000 0.000000 
0.000000 0.000000 0.000000 
0.000000 0.000000 0.000000 

-0.000000 0.000000 0.000000 
0.000000 -0.000000 0.000000 
0.000000 0.000000 0.000000 

-0.000000 0.000000 0.000000 
0.000000 -0.000000 0.000000 
0.000000 0.000000 0.000000 

-0.000000 -0.000000 0.000000 
0.000000 -0.000000 0.000000 
0.000000 0.000000 0.000000 

-0.000000 -0.000000 0.000000 
0.000000 0.000000 0.000000 
0.000000 0.000000 0.000000 

0.000000 -0.000000 0.000000 
0.000000 -0.000000 0.000000 
0.000000 0.000000 0.000000 

-0.000000 0.000000 0.000000 
0.000000 -0.000000 0.000000 
0.000000 0.000000 0.000000 

0.000000 0.000000 0.000000 
0.000000 -0.000000 0.000000 
0.000000 0.000000 0.000000 

-0.000000 0.000000 0.000000 
0.000000 -0.000000 0.000000 
0.000000 0.000000 0.000000 

-0.000000 -0.000000 0.000000 
0.000000 0.000000 0.000000 
0.000000 0.000000 0.000000 

0.000000 -0.000000 0.000000 
0.000000 -0.000000 0.000000 
0.000000 0.000000 0.000000 

0.000000 -0.000000 0.000000 
0.000000 -0.000000 0.000000 
0.000000 0.000000 0.000000 

0.000000 -0.000000 0.000000 
0.000000 -0.000000 0.000000 
0.000000 0.000000 0.000000 

0.000000 0.000000 0.000000 
0.000000 -0.000000 0.000000 
0.000000 0.000000 0.000000 

-0.000000 0.000000 0.000000 
0.000000 -0.000000 0.000000 
0.000000 0.000000 0.000000 

-0.000000 0.000000 0.000000 
0.000000 0.000000 0.000000 
0.000000 0.000000 0.000000 

-0.000000 -0.000000 0.000000 
0.000000 0.000000 0.000000 
0.000000 0.000000 0.000000 

-0.000000 -0.000000 0.000000 
0.000000 -0.000000 0.000000 
0.000000 0.000000 0.000000 

-0.000000 -0.000000 0.000000 
0.000000 -0.000000 0.000000 
0.000000 0.000000 0.000000 

0.000000 -0.000000 0.000000 
0.000000 -0.000000 0.000000 
0.000000 0.000000 0.000000 

0.000000 0.000000 0.000000 
0.000000 0.000000 0.000000 
0.000000 0.000000 0.000000 

0.000000 0.000000 0.000000 
0.000000 -0.000000 0.000000 
0.000000 0.000000 0.000000 

-0.000000 0.000000 0.000000 
0.000000 -0.000000 0.000000 
0.000000 0.000000 0.000000 

0.000000 0.000000 0.000000 
0.000000 0.000000 0.000000 
0.000000 0.000000 0.000000 

0.000000 0.000000 0.000000 
0.000000 0.000000 0.000000 
0.000000 0.000000 0.000000 

0.000000 -0.000000 0.000000 
0.000000 0.000000 0.000000 
0.000000 0.000000 0.000000 

0.000000 -0.000000 0.000000 
0.000000 0.000000 0.000000 
0.000000 0.000000 0.000000 

-0.000000 -0.000000 0.000000 
0.000000 -0.000000 0.000000 
0.000000 0.000000 0.000000 

-0.000000 0.000000 0.000000 
0.000000 -0.000000 0.000000 
0.000000 0.000000 0.000000 

-0.000000 0.000000 0.000000 
0.000000 -0.000000 0.000000 
0.000000 0.000000 0.000000 

0.000000 0.000000 0.000000 
0.000000 0.000000 0.000000 
0.000000 0.000000 0.000000 

0.000000 -0.000000 0.000000 
0.000000 -0.000000 0.000000 
0.000000 0.000000 0.000000 

0.000000 -0.000000 0.000000 
0.000000 0.000000 0.000000 
0.000000 0.000000 0.000000 

0.000000 -0.000000 0.000000 
0.000000 0.000000 0.000000 
0.000000 0.000000 0.000000 

0.000000 0.000000 0.000000 
0.000000 0.000000 0.000000 
0.000000 0.000000 0.000000 

-0.000000 -0.000000 0.000000 
0.000000 -0.000000 0.000000 
0.000000 0.000000 0.000000 

-0.000000 -0.000000 0.000000 
0.000000 -0.000000 0.000000 
0.000000 0.000000 0.000000 

-0.000000 0.000000 0.000000 
0.000000 -0.000000 0.000000 
0.000000 0.000000 0.000000 

-0.000000 -0.000000 0.000000 
0.000000 -0.000000 0.000000 
0.000000 0.000000 0.000000 

0.000000 -0.000000 0.000000 
0.000000 0.000000 0.000000 
0.000000 0.000000 0.000000 

0.000000 -0.000000 0.000000 
0.000000 0.000000 0.000000 
0.000000 0.000000 0.000000 

TENSORS STRAIN float 
-0.000000 -0.000000 0.000000 
0.000000 0.000000 0.000000 
0.000000 0.000000 0.000000 

-0.000000 0.000000 0.000000 
0.000000 0.000000 0.000000 
0.000000 0.000000 0.000000 

-0.000000 -0.000000 0.000000 
0.000000 0.000000 0.000000 
0.000000 0.000000 0.000000 

0.000000 -0.000000 0.000000 
0.000000 -0.000000 0.000000 
0.000000 0.000000 0.000000 

-0.000000 0.000000 0.000000 
0.000000 0.000000 0.000000 
0.000000 0.000000 0.000000 

-0.000000 0.000000 0.000000 
0.000000 0.000000 0.000000 
0.000000 0.000000 0.000000 

-0.000000 0.000000 0.000000 
0.000000 -0.000000 0.000000 
0.000000 0.000000 0.000000 

0.000000 -0.000000 0.000000 
0.000000 -0.000000 0.000000 
0.000000 0.000000 0.000000 

0.000000 0.000000 0.000000 
0.000000 -0.000000 0.000000 
0.000000 0.000000 0.000000 

-0.000000 0.000000 0.000000 
0.000000 0.000000 0.000000 
0.000000 0.000000 0.000000 

-0.000000 -0.000000 0.000000 
0.000000 -0.000000 0.000000 
0.000000 0.000000 0.000000 

-0.000000 0.000000 0.000000 
0.000000 -0.000000 0.000000 
0.000000 0.000000 0.000000 

-0.000000 0.000000 0.000000 
0.000000 -0.000000 0.000000 
0.000000 0.000000 0.000000 

-0.000000 0.000000 0.000000 
0.000000 0.000000 0.000000 
0.000000 0.000000 0.000000 

0.000000 -0.000000 0.000000 
0.000000 0.000000 0.000000 
0.000000 0.000000 0.000000 

0.000000 -0.000000 0.000000 
0.000000 0.000000 0.000000 
0.000000 0.000000 0.000000 

-0.000000 0.000000 0.000000 
0.000000 0.000000 0.000000 
0.000000 0.000000 0.000000 

-0.000000 0.000000 0.000000 
0.000000 0.000000 0.000000 
0.000000 0.000000 0.000000 

-0.000000 -0.000000 0.000000 
0.000000 -0.000000 0.000000 
0.000000 0.000000 0.000000 

-0.000000 0.000000 0.000000 
0.000000 -0.000000 0.000000 
0.000000 0.000000 0.000000 

-0.000000 -0.000000 0.000000 
0.000000 0.000000 0.000000 
0.000000 0.000000 0.000000 

-0.000000 0.000000 0.000000 
0.000000 -0.000000 0.000000 
0.000000 0.000000 0.000000 

0.000000 -0.000000 0.000000 
0.000000 0.000000 0.000000 
0.000000 0.000000 0.000000 

0.000000 -0.000000 0.000000 
0.000000 -0.000000 0.000000 
0.000000 0.000000 0.000000 

0.000000 -0.000000 0.000000 
0.000000 -0.000000 0.000000 
0.000000 0.000000 0.000000 

-0.000000 -0.000000 0.000000 
0.000000 0.000000 0.000000 
0.000000 0.000000 0.000000 

-0.000000 0.000000 0.000000 
0.000000 0.000000 0.000000 
0.000000 0.000000 0.000000 

-0.000000 -0.000000 0.000000 
0.000000 0.000000 0.000000 
0.000000 0.000000 0.000000 

-0.000000 0.000000 0.000000 
0.000000 0.000000 0.000000 
0.000000 0.000000 0.000000 

0.000000 -0.000000 0.000000 
0.000000 -0.000000 0.000000 
0.000000 0.000000 0.000000 

-0.000000 0.000000 0.000000 
0.000000 0.000000 0.000000 
0.000000 0.000000 0.000000 

0.000000 -0.000000 0.000000 
0.000000 -0.000000 0.000000 
0.000000 0.000000 0.000000 

-0.000000 0.000000 0.000000 
0.000000 0.000000 0.000000 
0.000000 0.000000 0.000000 

-0.000000 0.000000 0.000000 
0.000000 0.000000 0.000000 
0.000000 0.000000 0.000000 

0.000000 -0.000000 0.000000 
0.000000 -0.000000 0.000000 
0.000000 0.000000 0.000000 

0.000000 0.000000 0.000000 
0.000000 -0.000000 0.000000 
0.000000 0.000000 0.000000 

0.000000 0.000000 0.000000 
0.000000 0.000000 0.000000 
0.000000 0.000000 0.000000 

0.000000 -0.000000 0.000000 
0.000000 -0.000000 0.000000 
0.000000 0.000000 0.000000 

0.000000 0.000000 0.000000 
0.000000 -0.000000 0.000000 
0.000000 0.000000 0.000000 

0.000000 0.000000 0.000000 
0.000000 0.000000 0.000000 
0.000000 0.000000 0.000000 

-0.000000 0.000000 0.000000 
0.000000 -0.000000 0.000000 
0.000000 0.000000 0.000000 

-0.000000 0.000000 0.000000 
0.000000 -0.000000 0.000000 
0.000000 0.000000 0.000000 

-0.000000 0.000000 0.000000 
0.000000 -0.000000 0.000000 
0.000000 0.000000 0.000000 

-0.000000 0.000000 0.000000 
0.000000 0.000000 0.000000 
0.000000 0.000000 0.000000 

0.000000 0.000000 0.000000 
0.000000 0.000000 0.000000 
0.000000 0.000000 0.000000 

0.000000 -0.000000 0.000000 
0.000000 0.000000 0.000000 
0.000000 0.000000 0.000000 

-0.000000 -0.000000 0.000000 
0.000000 -0.000000 0.000000 
0.000000 0.000000 0.000000 

-0.000000 -0.000000 0.000000 
0.000000 -0.000000 0.000000 
0.000000 0.000000 0.000000 

-0.000000 0.000000 0.000000 
0.000000 -0.000000 0.000000 
0.000000 0.000000 0.000000 

-0.000000 -0.000000 0.000000 
0.000000 -0.000000 0.000000 
0.000000 0.000000 0.000000 

-0.000000 -0.000000 0.000000 
0.000000 0.000000 0.000000 
0.000000 0.000000 0.000000 

0.000000 -0.000000 0.000000 
0.000000 0.000000 0.000000 
0.000000 0.000000 0.000000 

0.000000 -0.000000 0.000000 
0.000000 0.000000 0.000000 
0.000000 0.000000 0.000000 

0.000000 -0.000000 0.000000 
0.000000 0.000000 0.000000 
0.000000 0.000000 0.000000 

0.000000 -0.000000 0.000000 
0.000000 0.000000 0.000000 
0.000000 0.000000 0.000000 

0.000000 0.000000 0.000000 
0.000000 -0.000000 0.000000 
0.000000 0.000000 0.000000 

0.000000 -0.000000 0.000000 
0.000000 -0.000000 0.000000 
0.000000 0.000000 0.000000 

0.000000 -0.000000 0.000000 
0.000000 -0.000000 0.000000 
0.000000 0.000000 0.000000 

0.000000 -0.000000 0.000000 
0.000000 -0.000000 0.000000 
0.000000 0.000000 0.000000 

0.000000 0.000000 0.000000 
0.000000 0.000000 0.000000 
0.000000 0.000000 0.000000 

0.000000 0.000000 0.000000 
0.000000 0.000000 0.000000 
0.000000 0.000000 0.000000 

0.000000 -0.000000 0.000000 
0.000000 0.000000 0.000000 
0.000000 0.000000 0.000000 

0.000000 -0.000000 0.000000 
0.000000 0.000000 0.000000 
0.000000 0.000000 0.000000 

0.000000 -0.000000 0.000000 
0.000000 0.000000 0.000000 
0.000000 0.000000 0.000000 

0.000000 -0.000000 0.000000 
0.000000 -0.000000 0.000000 
0.000000 0.000000 0.000000 

0.000000 -0.000000 0.000000 
0.000000 -0.000000 0.000000 
0.000000 0.000000 0.000000 

0.000000 0.000000 0.000000 
0.000000 -0.000000 0.000000 
0.000000 0.000000 0.000000 

0.000000 -0.000000 0.000000 
0.000000 -0.000000 0.000000 
0.000000 0.000000 0.000000 

0.000000 0.000000 0.000000 
0.000000 0.000000 0.000000 
0.000000 0.000000 0.000000 

-0.000000 -0.000000 0.000000 
0.000000 0.000000 0.000000 
0.000000 0.000000 0.000000 

0.000000 -0.000000 0.000000 
0.000000 0.000000 0.000000 
0.000000 0.000000 0.000000 

0.000000 -0.000000 0.000000 
0.000000 0.000000 0.000000 
0.000000 0.000000 0.000000 

0.000000 0.000000 0.000000 
0.000000 -0.000000 0.000000 
0.000000 0.000000 0.000000 

-0.000000 0.000000 0.000000 
0.000000 -0.000000 0.000000 
0.000000 0.000000 0.000000 

-0.000000 0.000000 0.000000 
0.000000 -0.000000 0.000000 
0.000000 0.000000 0.000000 

-0.000000 -0.000000 0.000000 
0.000000 -0.000000 0.000000 
0.000000 0.000000 0.000000 

-0.000000 0.000000 0.000000 
0.000000 0.000000 0.000000 
0.000000 0.000000 0.000000 

-0.000000 0.000000 0.000000 
0.000000 0.000000 0.000000 
0.000000 0.000000 0.000000 

-0.000000 0.000000 0.000000 
0.000000 0.000000 0.000000 
0.000000 0.000000 0.000000 

-0.000000 -0.000000 0.000000 
0.000000 0.000000 0.000000 
0.000000 0.000000 0.000000 

-0.000000 -0.000000 0.000000 
0.000000 0.000000 0.000000 
0.000000 0.000000 0.000000 

-0.000000 -0.000000 0.000000 
0.000000 0.000000 0.000000 
0.000000 0.000000 0.000000 

-0.000000 0.000000 0.000000 
0.000000 0.000000 0.000000 
0.000000 0.000000 0.000000 

0.000000 -0.000000 0.000000 
0.000000 0.000000 0.000000 
0.000000 0.000000 0.000000 

-0.000000 0.000000 0.000000 
0.000000 -0.000000 0.000000 
0.000000 0.000000 0.000000 

-0.000000 -0.000000 0.000000 
0.000000 0.000000 0.000000 
0.000000 0.000000 0.000000 

0.000000 -0.000000 0.000000 
0.000000 -0.000000 0.000000 
0.000000 0.000000 0.000000 

0.000000 -0.000000 0.000000 
0.000000 -0.000000 0.000000 
0.000000 0.000000 0.000000 

0.000000 0.000000 0.000000 
0.000000 -0.000000 0.000000 
0.000000 0.000000 0.000000 

0.000000 0.000000 0.000000 
0.000000 -0.000000 0.000000 
0.000000 0.000000 0.000000 

0.000000 0.000000 0.000000 
0.000000 -0.000000 0.000000 
0.000000 0.000000 0.000000 

-0.000000 -0.000000 0.000000 
0.000000 -0.000000 0.000000 
0.000000 0.000000 0.000000 

-0.000000 0.000000 0.000000 
0.000000 0.000000 0.000000 
0.000000 0.000000 0.000000 

0.000000 0.000000 0.000000 
0.000000 -0.000000 0.000000 
0.000000 0.000000 0.000000 

0.000000 -0.000000 0.000000 
0.000000 -0.000000 0.000000 
0.000000 0.000000 0.000000 

0.000000 0.000000 0.000000 
0.000000 -0.000000 0.000000 
0.000000 0.000000 0.000000 

0.000000 0.000000 0.000000 
0.000000 -0.000000 0.000000 
0.000000 0.000000 0.000000 

-0.000000 0.000000 0.000000 
0.000000 -0.000000 0.000000 
0.000000 0.000000 0.000000 

0.000000 0.000000 0.000000 
0.000000 -0.000000 0.000000 
0.000000 0.000000 0.000000 

0.000000 0.000000 0.000000 
0.000000 0.000000 0.000000 
0.000000 0.000000 0.000000 

-0.000000 0.000000 0.000000 
0.000000 0.000000 0.000000 
0.000000 0.000000 0.000000 

0.000000 0.000000 0.000000 
0.000000 0.000000 0.000000 
0.000000 0.000000 0.000000 

0.000000 -0.000000 0.000000 
0.000000 0.000000 0.000000 
0.000000 0.000000 0.000000 

0.000000 -0.000000 0.000000 
0.000000 0.000000 0.000000 
0.000000 0.000000 0.000000 

-0.000000 0.000000 0.000000 
0.000000 0.000000 0.000000 
0.000000 0.000000 0.000000 

0.000000 -0.000000 0.000000 
0.000000 0.000000 0.000000 
0.000000 0.000000 0.000000 

0.000000 -0.000000 0.000000 
0.000000 0.000000 0.000000 
0.000000 0.000000 0.000000 

0.000000 -0.000000 0.000000 
0.000000 0.000000 0.000000 
0.000000 0.000000 0.000000 

-0.000000 -0.000000 0.000000 
0.000000 0.000000 0.000000 
0.000000 0.000000 0.000000 

-0.000000 0.000000 0.000000 
0.000000 -0.000000 0.000000 
0.000000 0.000000 0.000000 

-0.000000 0.000000 0.000000 
0.000000 -0.000000 0.000000 
0.000000 0.000000 0.000000 

-0.000000 0.000000 0.000000 
0.000000 0.000000 0.000000 
0.000000 0.000000 0.000000 

-0.000000 0.000000 0.000000 
0.000000 0.000000 0.000000 
0.000000 0.000000 0.000000 

-0.000000 0.000000 0.000000 
0.000000 -0.000000 0.000000 
0.000000 0.000000 0.000000 

-0.000000 0.000000 0.000000 
0.000000 0.000000 0.000000 
0.000000 0.000000 0.000000 

-0.000000 0.000000 0.000000 
0.000000 0.000000 0.000000 
0.000000 0.000000 0.000000 

-0.000000 -0.000000 0.000000 
0.000000 0.000000 0.000000 
0.000000 0.000000 0.000000 

-0.000000 -0.000000 0.000000 
0.000000 -0.000000 0.000000 
0.000000 0.000000 0.000000 

0.000000 0.000000 0.000000 
0.000000 -0.000000 0.000000 
0.000000 0.000000 0.000000 

-0.000000 0.000000 0.000000 
0.000000 0.000000 0.000000 
0.000000 0.000000 0.000000 

-0.000000 0.000000 0.000000 
0.000000 0.000000 0.000000 
0.000000 0.000000 0.000000 

-0.000000 0.000000 0.000000 
0.000000 0.000000 0.000000 
0.000000 0.000000 0.000000 

-0.000000 0.000000 0.000000 
0.000000 -0.000000 0.000000 
0.000000 0.000000 0.000000 

-0.000000 0.000000 0.000000 
0.000000 -0.000000 0.000000 
0.000000 0.000000 0.000000 

-0.000000 -0.000000 0.000000 
0.000000 0.000000 0.000000 
0.000000 0.000000 0.000000 

-0.000000 -0.000000 0.000000 
0.000000 0.000000 0.000000 
0.000000 0.000000 0.000000 

0.000000 0.000000 0.000000 
0.000000 -0.000000 0.000000 
0.000000 0.000000 0.000000 

0.000000 0.000000 0.000000 
0.000000 -0.000000 0.000000 
0.000000 0.000000 0.000000 

0.000000 0.000000 0.000000 
0.000000 -0.000000 0.000000 
0.000000 0.000000 0.000000 

0.000000 0.000000 0.000000 
0.000000 0.000000 0.000000 
0.000000 0.000000 0.000000 

0.000000 0.000000 0.000000 
0.000000 -0.000000 0.000000 
0.000000 0.000000 0.000000 

-0.000000 -0.000000 0.000000 
0.000000 -0.000000 0.000000 
0.000000 0.000000 0.000000 

0.000000 0.000000 0.000000 
0.000000 -0.000000 0.000000 
0.000000 0.000000 0.000000 

0.000000 -0.000000 0.000000 
0.000000 -0.000000 0.000000 
0.000000 0.000000 0.000000 

-0.000000 0.000000 0.000000 
0.000000 0.000000 0.000000 
0.000000 0.000000 0.000000 

-0.000000 0.000000 0.000000 
0.000000 0.000000 0.000000 
0.000000 0.000000 0.000000 

-0.000000 0.000000 0.000000 
0.000000 -0.000000 0.000000 
0.000000 0.000000 0.000000 

-0.000000 -0.000000 0.000000 
0.000000 0.000000 0.000000 
0.000000 0.000000 0.000000 

-0.000000 -0.000000 0.000000 
0.000000 0.000000 0.000000 
0.000000 0.000000 0.000000 

0.000000 -0.000000 0.000000 
0.000000 -0.000000 0.000000 
0.000000 0.000000 0.000000 

0.000000 0.000000 0.000000 
0.000000 -0.000000 0.000000 
0.000000 0.000000 0.000000 

0.000000 0.000000 0.000000 
0.000000 -0.000000 0.000000 
0.000000 0.000000 0.000000 

0.000000 0.000000 0.000000 
0.000000 -0.000000 0.000000 
0.000000 0.000000 0.000000 

-0.000000 -0.000000 0.000000 
0.000000 0.000000 0.000000 
0.000000 0.000000 0.000000 

0.000000 -0.000000 0.000000 
0.000000 -0.000000 0.000000 
0.000000 0.000000 0.000000 

0.000000 -0.000000 0.000000 
0.000000 -0.000000 0.000000 
0.000000 0.000000 0.000000 

0.000000 -0.000000 0.000000 
0.000000 -0.000000 0.000000 
0.000000 0.000000 0.000000 

0.000000 0.000000 0.000000 
0.000000 -0.000000 0.000000 
0.000000 0.000000 0.000000 

0.000000 0.000000 0.000000 
0.000000 -0.000000 0.000000 
0.000000 0.000000 0.000000 

-0.000000 0.000000 0.000000 
0.000000 0.000000 0.000000 
0.000000 0.000000 0.000000 

-0.000000 -0.000000 0.000000 
0.000000 0.000000 0.000000 
0.000000 0.000000 0.000000 

0.000000 -0.000000 0.000000 
0.000000 -0.000000 0.000000 
0.000000 0.000000 0.000000 

-0.000000 -0.000000 0.000000 
0.000000 -0.000000 0.000000 
0.000000 0.000000 0.000000 

0.000000 -0.000000 0.000000 
0.000000 -0.000000 0.000000 
0.000000 0.000000 0.000000 

0.000000 0.000000 0.000000 
0.000000 -0.000000 0.000000 
0.000000 0.000000 0.000000 

0.000000 0.000000 0.000000 
0.000000 -0.000000 0.000000 
0.000000 0.000000 0.000000 

-0.000000 0.000000 0.000000 
0.000000 -0.000000 0.000000 
0.000000 0.000000 0.000000 

0.000000 0.000000 0.000000 
0.000000 0.000000 0.000000 
0.000000 0.000000 0.000000 

0.000000 0.000000 0.000000 
0.000000 0.000000 0.000000 
0.000000 0.000000 0.000000 

0.000000 -0.000000 0.000000 
0.000000 0.000000 0.000000 
0.000000 0.000000 0.000000 

0.000000 -0.000000 0.000000 
0.000000 -0.000000 0.000000 
0.000000 0.000000 0.000000 

-0.000000 -0.000000 0.000000 
0.000000 -0.000000 0.000000 
0.000000 0.000000 0.000000 

-0.000000 0.000000 0.000000 
0.000000 -0.000000 0.000000 
0.000000 0.000000 0.000000 

-0.000000 0.000000 0.000000 
0.000000 0.000000 0.000000 
0.000000 0.000000 0.000000 

-0.000000 0.000000 0.000000 
0.000000 0.000000 0.000000 
0.000000 0.000000 0.000000 

0.000000 -0.000000 0.000000 
0.000000 -0.000000 0.000000 
0.000000 0.000000 0.000000 

0.000000 -0.000000 0.000000 
0.000000 -0.000000 0.000000 
0.000000 0.000000 0.000000 

0.000000 -0.000000 0.000000 
0.000000 0.000000 0.000000 
0.000000 0.000000 0.000000 

-0.000000 0.000000 0.000000 
0.000000 0.000000 0.000000 
0.000000 0.000000 0.000000 

-0.000000 -0.000000 0.000000 
0.000000 -0.000000 0.000000 
0.000000 0.000000 0.000000 

-0.000000 -0.000000 0.000000 
0.000000 -0.000000 0.000000 
0.000000 0.000000 0.000000 

-0.000000 0.000000 0.000000 
0.000000 -0.000000 0.000000 
0.000000 0.000000 0.000000 

-0.000000 -0.000000 0.000000 
0.000000 -0.000000 0.000000 
0.000000 0.000000 0.000000 

0.000000 -0.000000 0.000000 
0.000000 0.000000 0.000000 
0.000000 0.000000 0.000000 

0.000000 -0.000000 0.000000 
0.000000 0.000000 0.000000 
0.000000 0.000000 0.000000 

