# vtk DataFile Version 3.0 
vtk output 
ASCII 
DATASET UNSTRUCTURED_GRID 
POINTS 175 float 
-0.026061 -2.190270 0.000000 
-0.106992 -2.122214 0.000000 
-0.054870 -2.130447 0.000000 
-0.028809 -2.084563 0.000000 
-0.186430 -2.058139 0.000000 
-0.137056 -2.060665 0.000000 
-0.114311 -2.007018 0.000000 
-0.058186 -2.022683 0.000000 
-0.029377 -1.982506 0.000000 
-0.265318 -1.994983 0.000000 
-0.217198 -1.995783 0.000000 
-0.196633 -1.938486 0.000000 
-0.143120 -1.947195 0.000000 
-0.116563 -1.899926 0.000000 
-0.058945 -1.919572 0.000000 
-0.029568 -1.881452 0.000000 
-0.344206 -1.931827 0.000000 
-0.296791 -1.931820 0.000000 
-0.278030 -1.871877 0.000000 
-0.225992 -1.877744 0.000000 
-0.201664 -1.825627 0.000000 
-0.145749 -1.839101 0.000000 
-0.117890 -1.794758 0.000000 
-0.059328 -1.817464 0.000000 
-0.029759 -1.780398 0.000000 
-0.058559 -2.231020 0.000000 
-0.162226 -2.251863 0.000000 
-0.123292 -2.216245 0.000000 
-0.142917 -2.167262 0.000000 
-0.261851 -2.274020 0.000000 
-0.229092 -2.236992 0.000000 
-0.256854 -2.185761 0.000000 
-0.209613 -2.151648 0.000000 
-0.223062 -2.104074 0.000000 
-0.360414 -2.296320 0.000000 
-0.329787 -2.259197 0.000000 
-0.361761 -2.207395 0.000000 
-0.321587 -2.170986 0.000000 
-0.341985 -2.120752 0.000000 
-0.290702 -2.087953 0.000000 
-0.302189 -2.041218 0.000000 
-0.458977 -2.318620 0.000000 
-0.429420 -2.281545 0.000000 
-0.464588 -2.229503 0.000000 
-0.427556 -2.192476 0.000000 
-0.453135 -2.140961 0.000000 
-0.407738 -2.105646 0.000000 
-0.425037 -2.056218 0.000000 
-0.370772 -2.024589 0.000000 
-0.381315 -1.978361 0.000000 
-0.046960 -2.281836 0.000000 
-0.095301 -2.375882 0.000000 
-0.098873 -2.323234 0.000000 
-0.149405 -2.308037 0.000000 
-0.140093 -2.467586 0.000000 
-0.148617 -2.418887 0.000000 
-0.205981 -2.408650 0.000000 
-0.203197 -2.350447 0.000000 
-0.248777 -2.331300 0.000000 
-0.184111 -2.558549 0.000000 
-0.194039 -2.511458 0.000000 
-0.254475 -2.504159 0.000000 
-0.257893 -2.450049 0.000000 
-0.309886 -2.434676 0.000000 
-0.303554 -2.374131 0.000000 
-0.347255 -2.353973 0.000000 
-0.228129 -2.649513 0.000000 
-0.238687 -2.603289 0.000000 
-0.301302 -2.598337 0.000000 
-0.307162 -2.546298 0.000000 
-0.363386 -2.534177 0.000000 
-0.362692 -2.476665 0.000000 
-0.412122 -2.459372 0.000000 
-0.403017 -2.397225 0.000000 
-0.445733 -2.376647 0.000000 
-0.000000 -2.304451 0.000000 
0.043388 -2.400881 0.000000 
-0.000000 -2.370849 0.000000 
-0.043388 -2.400881 0.000000 
0.087158 -2.493078 0.000000 
0.043769 -2.469379 0.000000 
-0.000000 -2.507845 0.000000 
-0.043769 -2.469379 0.000000 
-0.087158 -2.493078 0.000000 
0.130831 -2.584208 0.000000 
0.087824 -2.562609 0.000000 
0.044436 -2.605308 0.000000 
-0.000000 -2.574243 0.000000 
-0.044436 -2.605308 0.000000 
-0.087824 -2.562609 0.000000 
-0.130831 -2.584208 0.000000 
0.174505 -2.675337 0.000000 
0.131782 -2.654771 0.000000 
0.088871 -2.700638 0.000000 
0.044532 -2.672774 0.000000 
-0.000000 -2.709174 0.000000 
-0.044532 -2.672774 0.000000 
-0.088871 -2.700638 0.000000 
-0.131782 -2.654771 0.000000 
-0.174505 -2.675337 0.000000 
0.046960 -2.281836 0.000000 
0.149405 -2.308037 0.000000 
0.098873 -2.323234 0.000000 
0.095301 -2.375882 0.000000 
0.248777 -2.331300 0.000000 
0.203197 -2.350447 0.000000 
0.205981 -2.408650 0.000000 
0.148617 -2.418887 0.000000 
0.140093 -2.467586 0.000000 
0.347255 -2.353973 0.000000 
0.303554 -2.374131 0.000000 
0.309886 -2.434676 0.000000 
0.257893 -2.450049 0.000000 
0.254475 -2.504159 0.000000 
0.194039 -2.511458 0.000000 
0.184111 -2.558549 0.000000 
0.445733 -2.376647 0.000000 
0.403017 -2.397225 0.000000 
0.412122 -2.459372 0.000000 
0.362692 -2.476665 0.000000 
0.363386 -2.534177 0.000000 
0.307162 -2.546298 0.000000 
0.301302 -2.598337 0.000000 
0.238687 -2.603289 0.000000 
0.228129 -2.649513 0.000000 
0.058559 -2.231020 0.000000 
0.142917 -2.167262 0.000000 
0.123292 -2.216245 0.000000 
0.162226 -2.251863 0.000000 
0.223062 -2.104074 0.000000 
0.209613 -2.151648 0.000000 
0.256854 -2.185761 0.000000 
0.229092 -2.236992 0.000000 
0.261851 -2.274020 0.000000 
0.302189 -2.041218 0.000000 
0.290702 -2.087953 0.000000 
0.341985 -2.120752 0.000000 
0.321587 -2.170986 0.000000 
0.361761 -2.207395 0.000000 
0.329787 -2.259197 0.000000 
0.360414 -2.296320 0.000000 
0.381315 -1.978361 0.000000 
0.370772 -2.024589 0.000000 
0.425037 -2.056218 0.000000 
0.407738 -2.105646 0.000000 
0.453135 -2.140961 0.000000 
0.427556 -2.192476 0.000000 
0.464588 -2.229503 0.000000 
0.429420 -2.281545 0.000000 
0.458977 -2.318620 0.000000 
0.026061 -2.190270 0.000000 
0.028809 -2.084563 0.000000 
0.054870 -2.130447 0.000000 
0.106992 -2.122214 0.000000 
0.029377 -1.982506 0.000000 
0.058186 -2.022683 0.000000 
0.114311 -2.007018 0.000000 
0.137056 -2.060665 0.000000 
0.186430 -2.058139 0.000000 
0.029568 -1.881452 0.000000 
0.058945 -1.919572 0.000000 
0.116563 -1.899926 0.000000 
0.143120 -1.947195 0.000000 
0.196633 -1.938486 0.000000 
0.217198 -1.995783 0.000000 
0.265318 -1.994983 0.000000 
0.029759 -1.780398 0.000000 
0.059328 -1.817464 0.000000 
0.117890 -1.794758 0.000000 
0.145749 -1.839101 0.000000 
0.201664 -1.825627 0.000000 
0.225992 -1.877744 0.000000 
0.278030 -1.871877 0.000000 
0.296791 -1.931820 0.000000 
0.344206 -1.931827 0.000000 
CELLS 175 350 
1 0 
1 1 
1 2 
1 3 
1 4 
1 5 
1 6 
1 7 
1 8 
1 9 
1 10 
1 11 
1 12 
1 13 
1 14 
1 15 
1 16 
1 17 
1 18 
1 19 
1 20 
1 21 
1 22 
1 23 
1 24 
1 25 
1 26 
1 27 
1 28 
1 29 
1 30 
1 31 
1 32 
1 33 
1 34 
1 35 
1 36 
1 37 
1 38 
1 39 
1 40 
1 41 
1 42 
1 43 
1 44 
1 45 
1 46 
1 47 
1 48 
1 49 
1 50 
1 51 
1 52 
1 53 
1 54 
1 55 
1 56 
1 57 
1 58 
1 59 
1 60 
1 61 
1 62 
1 63 
1 64 
1 65 
1 66 
1 67 
1 68 
1 69 
1 70 
1 71 
1 72 
1 73 
1 74 
1 75 
1 76 
1 77 
1 78 
1 79 
1 80 
1 81 
1 82 
1 83 
1 84 
1 85 
1 86 
1 87 
1 88 
1 89 
1 90 
1 91 
1 92 
1 93 
1 94 
1 95 
1 96 
1 97 
1 98 
1 99 
1 100 
1 101 
1 102 
1 103 
1 104 
1 105 
1 106 
1 107 
1 108 
1 109 
1 110 
1 111 
1 112 
1 113 
1 114 
1 115 
1 116 
1 117 
1 118 
1 119 
1 120 
1 121 
1 122 
1 123 
1 124 
1 125 
1 126 
1 127 
1 128 
1 129 
1 130 
1 131 
1 132 
1 133 
1 134 
1 135 
1 136 
1 137 
1 138 
1 139 
1 140 
1 141 
1 142 
1 143 
1 144 
1 145 
1 146 
1 147 
1 148 
1 149 
1 150 
1 151 
1 152 
1 153 
1 154 
1 155 
1 156 
1 157 
1 158 
1 159 
1 160 
1 161 
1 162 
1 163 
1 164 
1 165 
1 166 
1 167 
1 168 
1 169 
1 170 
1 171 
1 172 
1 173 
1 174 
CELL_TYPES 175 
1 
1 
1 
1 
1 
1 
1 
1 
1 
1 
1 
1 
1 
1 
1 
1 
1 
1 
1 
1 
1 
1 
1 
1 
1 
1 
1 
1 
1 
1 
1 
1 
1 
1 
1 
1 
1 
1 
1 
1 
1 
1 
1 
1 
1 
1 
1 
1 
1 
1 
1 
1 
1 
1 
1 
1 
1 
1 
1 
1 
1 
1 
1 
1 
1 
1 
1 
1 
1 
1 
1 
1 
1 
1 
1 
1 
1 
1 
1 
1 
1 
1 
1 
1 
1 
1 
1 
1 
1 
1 
1 
1 
1 
1 
1 
1 
1 
1 
1 
1 
1 
1 
1 
1 
1 
1 
1 
1 
1 
1 
1 
1 
1 
1 
1 
1 
1 
1 
1 
1 
1 
1 
1 
1 
1 
1 
1 
1 
1 
1 
1 
1 
1 
1 
1 
1 
1 
1 
1 
1 
1 
1 
1 
1 
1 
1 
1 
1 
1 
1 
1 
1 
1 
1 
1 
1 
1 
1 
1 
1 
1 
1 
1 
1 
1 
1 
1 
1 
1 
1 
1 
1 
1 
1 
1 
POINT_DATA 175 
VECTORS X_GC float 
-0.026061 -2.190270 0.000000 
-0.106992 -2.122214 0.000000 
-0.054870 -2.130447 0.000000 
-0.028809 -2.084563 0.000000 
-0.186430 -2.058139 0.000000 
-0.137056 -2.060665 0.000000 
-0.114311 -2.007018 0.000000 
-0.058186 -2.022683 0.000000 
-0.029377 -1.982506 0.000000 
-0.265318 -1.994983 0.000000 
-0.217198 -1.995783 0.000000 
-0.196633 -1.938486 0.000000 
-0.143120 -1.947195 0.000000 
-0.116563 -1.899926 0.000000 
-0.058945 -1.919572 0.000000 
-0.029568 -1.881452 0.000000 
-0.344206 -1.931827 0.000000 
-0.296791 -1.931820 0.000000 
-0.278030 -1.871877 0.000000 
-0.225992 -1.877744 0.000000 
-0.201664 -1.825627 0.000000 
-0.145749 -1.839101 0.000000 
-0.117890 -1.794758 0.000000 
-0.059328 -1.817464 0.000000 
-0.029759 -1.780398 0.000000 
-0.058559 -2.231020 0.000000 
-0.162226 -2.251863 0.000000 
-0.123292 -2.216245 0.000000 
-0.142917 -2.167262 0.000000 
-0.261851 -2.274020 0.000000 
-0.229092 -2.236992 0.000000 
-0.256854 -2.185761 0.000000 
-0.209613 -2.151648 0.000000 
-0.223062 -2.104074 0.000000 
-0.360414 -2.296320 0.000000 
-0.329787 -2.259197 0.000000 
-0.361761 -2.207395 0.000000 
-0.321587 -2.170986 0.000000 
-0.341985 -2.120752 0.000000 
-0.290702 -2.087953 0.000000 
-0.302189 -2.041218 0.000000 
-0.458977 -2.318620 0.000000 
-0.429420 -2.281545 0.000000 
-0.464588 -2.229503 0.000000 
-0.427556 -2.192476 0.000000 
-0.453135 -2.140961 0.000000 
-0.407738 -2.105646 0.000000 
-0.425037 -2.056218 0.000000 
-0.370772 -2.024589 0.000000 
-0.381315 -1.978361 0.000000 
-0.046960 -2.281836 0.000000 
-0.095301 -2.375882 0.000000 
-0.098873 -2.323234 0.000000 
-0.149405 -2.308037 0.000000 
-0.140093 -2.467586 0.000000 
-0.148617 -2.418887 0.000000 
-0.205981 -2.408650 0.000000 
-0.203197 -2.350447 0.000000 
-0.248777 -2.331300 0.000000 
-0.184111 -2.558549 0.000000 
-0.194039 -2.511458 0.000000 
-0.254475 -2.504159 0.000000 
-0.257893 -2.450049 0.000000 
-0.309886 -2.434676 0.000000 
-0.303554 -2.374131 0.000000 
-0.347255 -2.353973 0.000000 
-0.228129 -2.649513 0.000000 
-0.238687 -2.603289 0.000000 
-0.301302 -2.598337 0.000000 
-0.307162 -2.546298 0.000000 
-0.363386 -2.534177 0.000000 
-0.362692 -2.476665 0.000000 
-0.412122 -2.459372 0.000000 
-0.403017 -2.397225 0.000000 
-0.445733 -2.376647 0.000000 
-0.000000 -2.304451 0.000000 
0.043388 -2.400881 0.000000 
-0.000000 -2.370849 0.000000 
-0.043388 -2.400881 0.000000 
0.087158 -2.493078 0.000000 
0.043769 -2.469379 0.000000 
-0.000000 -2.507845 0.000000 
-0.043769 -2.469379 0.000000 
-0.087158 -2.493078 0.000000 
0.130831 -2.584208 0.000000 
0.087824 -2.562609 0.000000 
0.044436 -2.605308 0.000000 
-0.000000 -2.574243 0.000000 
-0.044436 -2.605308 0.000000 
-0.087824 -2.562609 0.000000 
-0.130831 -2.584208 0.000000 
0.174505 -2.675337 0.000000 
0.131782 -2.654771 0.000000 
0.088871 -2.700638 0.000000 
0.044532 -2.672774 0.000000 
-0.000000 -2.709174 0.000000 
-0.044532 -2.672774 0.000000 
-0.088871 -2.700638 0.000000 
-0.131782 -2.654771 0.000000 
-0.174505 -2.675337 0.000000 
0.046960 -2.281836 0.000000 
0.149405 -2.308037 0.000000 
0.098873 -2.323234 0.000000 
0.095301 -2.375882 0.000000 
0.248777 -2.331300 0.000000 
0.203197 -2.350447 0.000000 
0.205981 -2.408650 0.000000 
0.148617 -2.418887 0.000000 
0.140093 -2.467586 0.000000 
0.347255 -2.353973 0.000000 
0.303554 -2.374131 0.000000 
0.309886 -2.434676 0.000000 
0.257893 -2.450049 0.000000 
0.254475 -2.504159 0.000000 
0.194039 -2.511458 0.000000 
0.184111 -2.558549 0.000000 
0.445733 -2.376647 0.000000 
0.403017 -2.397225 0.000000 
0.412122 -2.459372 0.000000 
0.362692 -2.476665 0.000000 
0.363386 -2.534177 0.000000 
0.307162 -2.546298 0.000000 
0.301302 -2.598337 0.000000 
0.238687 -2.603289 0.000000 
0.228129 -2.649513 0.000000 
0.058559 -2.231020 0.000000 
0.142917 -2.167262 0.000000 
0.123292 -2.216245 0.000000 
0.162226 -2.251863 0.000000 
0.223062 -2.104074 0.000000 
0.209613 -2.151648 0.000000 
0.256854 -2.185761 0.000000 
0.229092 -2.236992 0.000000 
0.261851 -2.274020 0.000000 
0.302189 -2.041218 0.000000 
0.290702 -2.087953 0.000000 
0.341985 -2.120752 0.000000 
0.321587 -2.170986 0.000000 
0.361761 -2.207395 0.000000 
0.329787 -2.259197 0.000000 
0.360414 -2.296320 0.000000 
0.381315 -1.978361 0.000000 
0.370772 -2.024589 0.000000 
0.425037 -2.056218 0.000000 
0.407738 -2.105646 0.000000 
0.453135 -2.140961 0.000000 
0.427556 -2.192476 0.000000 
0.464588 -2.229503 0.000000 
0.429420 -2.281545 0.000000 
0.458977 -2.318620 0.000000 
0.026061 -2.190270 0.000000 
0.028809 -2.084563 0.000000 
0.054870 -2.130447 0.000000 
0.106992 -2.122214 0.000000 
0.029377 -1.982506 0.000000 
0.058186 -2.022683 0.000000 
0.114311 -2.007018 0.000000 
0.137056 -2.060665 0.000000 
0.186430 -2.058139 0.000000 
0.029568 -1.881452 0.000000 
0.058945 -1.919572 0.000000 
0.116563 -1.899926 0.000000 
0.143120 -1.947195 0.000000 
0.196633 -1.938486 0.000000 
0.217198 -1.995783 0.000000 
0.265318 -1.994983 0.000000 
0.029759 -1.780398 0.000000 
0.059328 -1.817464 0.000000 
0.117890 -1.794758 0.000000 
0.145749 -1.839101 0.000000 
0.201664 -1.825627 0.000000 
0.225992 -1.877744 0.000000 
0.278030 -1.871877 0.000000 
0.296791 -1.931820 0.000000 
0.344206 -1.931827 0.000000 
VECTORS X_EC float 
0.338794 0.068642 0.000000 
-0.609100 -0.850106 0.000000 
0.713312 -0.738966 0.000000 
0.374519 0.641605 0.000000 
0.423588 0.284874 0.000000 
-0.218274 0.318978 0.000000 
-0.513962 -0.405261 0.000000 
0.756418 -0.193775 0.000000 
0.381900 -0.736167 0.000000 
-0.550868 -0.567729 0.000000 
0.823577 -0.556933 0.000000 
0.556234 0.669563 0.000000 
-0.139443 0.787131 0.000000 
-0.484677 0.149007 0.000000 
0.766286 0.414222 0.000000 
0.384386 -0.100398 0.000000 
0.474677 0.579668 0.000000 
-0.141715 0.579572 0.000000 
-0.385608 -0.229657 0.000000 
0.937896 -0.150461 0.000000 
0.621631 -0.854041 0.000000 
-0.105264 -0.672142 0.000000 
-0.467428 0.729232 0.000000 
0.771260 -0.964240 0.000000 
0.386873 0.535371 0.000000 
0.761262 0.618776 0.000000 
0.108942 0.900153 0.000000 
-0.397202 0.419314 0.000000 
-0.142083 -0.241961 0.000000 
-0.595936 -0.800736 0.000000 
0.978194 0.699398 0.000000 
-0.660903 0.007773 0.000000 
0.724964 -0.452747 0.000000 
0.899809 0.905004 0.000000 
0.685384 -0.499684 0.000000 
0.287229 0.999157 0.000000 
0.702895 0.299829 0.000000 
0.180633 -0.191690 0.000000 
0.445811 -0.869849 0.000000 
-0.220880 0.687365 0.000000 
-0.071546 0.056439 0.000000 
-0.033296 -0.198632 0.000000 
-0.417537 -0.699141 0.000000 
0.039645 0.598296 0.000000 
-0.441768 0.098425 0.000000 
-0.109248 -0.597026 0.000000 
-0.699407 0.926219 0.000000 
-0.474522 0.258939 0.000000 
0.820030 -0.168054 0.000000 
0.957100 -0.792126 0.000000 
0.610485 -0.695217 0.000000 
-0.761092 0.574402 0.000000 
-0.714655 -0.136335 0.000000 
-0.057734 -0.341502 0.000000 
-0.178789 -0.187594 0.000000 
-0.067979 -0.845020 0.000000 
0.677748 -0.983223 0.000000 
0.641556 0.231032 0.000000 
-0.765897 -0.027447 0.000000 
0.393446 -0.959585 0.000000 
0.522510 0.404686 0.000000 
-0.691820 0.306141 0.000000 
-0.647393 -0.424341 0.000000 
0.028512 -0.631868 0.000000 
-0.053800 0.550772 0.000000 
0.514316 0.278641 0.000000 
0.965681 0.268425 0.000000 
-0.897068 -0.355604 0.000000 
-0.083078 -0.422457 0.000000 
-0.006893 0.875018 0.000000 
0.724017 0.711385 0.000000 
0.714996 -0.065018 0.000000 
-0.642413 -0.298476 0.000000 
-0.760780 0.862544 0.000000 
-0.205471 0.584729 0.000000 
0.000000 -0.389916 0.000000 
-0.564049 0.911897 0.000000 
0.000000 0.506461 0.000000 
0.564049 0.911897 0.000000 
0.866949 0.156553 0.000000 
-0.569003 -0.163379 0.000000 
0.000000 0.355910 0.000000 
0.569003 -0.163379 0.000000 
-0.866949 0.156553 0.000000 
0.299194 -0.613197 0.000000 
0.858290 -0.904781 0.000000 
-0.577662 -0.328335 0.000000 
0.000000 -0.747714 0.000000 
0.577662 -0.328335 0.000000 
-0.858290 -0.904781 0.000000 
-0.299194 -0.613197 0.000000 
-0.268560 0.617053 0.000000 
0.286830 0.339411 0.000000 
0.844677 0.958609 0.000000 
-0.578910 0.582447 0.000000 
0.000000 -0.926149 0.000000 
0.578910 0.582447 0.000000 
-0.844677 0.958609 0.000000 
-0.286830 0.339411 0.000000 
0.268560 0.617053 0.000000 
-0.610485 -0.695217 0.000000 
0.057734 -0.341502 0.000000 
0.714655 -0.136335 0.000000 
0.761092 0.574402 0.000000 
0.765897 -0.027447 0.000000 
-0.641556 0.231032 0.000000 
-0.677748 -0.983223 0.000000 
0.067979 -0.845020 0.000000 
0.178789 -0.187594 0.000000 
-0.514316 0.278641 0.000000 
0.053800 0.550772 0.000000 
-0.028512 -0.631868 0.000000 
0.647393 -0.424341 0.000000 
0.691820 0.306141 0.000000 
-0.522510 0.404686 0.000000 
-0.393446 -0.959585 0.000000 
0.205471 0.584729 0.000000 
0.760780 0.862544 0.000000 
0.642413 -0.298476 0.000000 
-0.714996 -0.065018 0.000000 
-0.724017 0.711385 0.000000 
0.006894 0.875018 0.000000 
0.083078 -0.422457 0.000000 
0.897068 -0.355604 0.000000 
-0.965681 0.268425 0.000000 
-0.761262 0.618776 0.000000 
0.142083 -0.241961 0.000000 
0.397202 0.419314 0.000000 
-0.108942 0.900153 0.000000 
-0.899809 0.905004 0.000000 
-0.724964 -0.452747 0.000000 
0.660903 0.007773 0.000000 
-0.978194 0.699398 0.000000 
0.595936 -0.800736 0.000000 
0.071546 0.056439 0.000000 
0.220880 0.687365 0.000000 
-0.445811 -0.869849 0.000000 
-0.180633 -0.191690 0.000000 
-0.702895 0.299829 0.000000 
-0.287229 0.999157 0.000000 
-0.685384 -0.499684 0.000000 
-0.957100 -0.792126 0.000000 
-0.820030 -0.168054 0.000000 
0.474522 0.258939 0.000000 
0.699407 0.926219 0.000000 
0.109248 -0.597026 0.000000 
0.441768 0.098425 0.000000 
-0.039645 0.598296 0.000000 
0.417537 -0.699141 0.000000 
0.033296 -0.198632 0.000000 
-0.338794 0.068642 0.000000 
-0.374519 0.641605 0.000000 
-0.713312 -0.738966 0.000000 
0.609100 -0.850106 0.000000 
-0.381900 -0.736167 0.000000 
-0.756418 -0.193775 0.000000 
0.513962 -0.405261 0.000000 
0.218274 0.318978 0.000000 
-0.423588 0.284874 0.000000 
-0.384386 -0.100398 0.000000 
-0.766286 0.414222 0.000000 
0.484677 0.149007 0.000000 
0.139443 0.787131 0.000000 
-0.556234 0.669563 0.000000 
-0.823577 -0.556933 0.000000 
0.550868 -0.567729 0.000000 
-0.386873 0.535371 0.000000 
-0.771260 -0.964240 0.000000 
0.467428 0.729232 0.000000 
0.105264 -0.672142 0.000000 
-0.621631 -0.854041 0.000000 
-0.937896 -0.150461 0.000000 
0.385608 -0.229656 0.000000 
0.141715 0.579572 0.000000 
-0.474677 0.579668 0.000000 
CELL_DATA 175 
SCALARS MASS float 
LOOKUP_TABLE default 
0.078183 
0.086427 
0.094672 
0.086427 
0.088131 
0.092111 
0.085854 
0.092111 
0.088131 
0.088705 
0.091000 
0.086983 
0.091556 
0.086983 
0.091000 
0.088705 
0.089278 
0.091574 
0.089278 
0.092722 
0.089278 
0.092722 
0.089278 
0.091574 
0.089278 
0.078183 
0.086427 
0.094672 
0.086427 
0.088131 
0.092111 
0.085854 
0.092111 
0.088131 
0.088705 
0.091000 
0.086983 
0.091556 
0.086983 
0.091000 
0.088705 
0.089278 
0.091574 
0.089278 
0.092722 
0.089278 
0.092722 
0.089278 
0.091574 
0.089278 
0.078183 
0.086427 
0.094672 
0.086427 
0.088131 
0.092111 
0.085854 
0.092111 
0.088131 
0.088705 
0.091000 
0.086983 
0.091556 
0.086983 
0.091000 
0.088705 
0.089278 
0.091574 
0.089278 
0.092722 
0.089278 
0.092722 
0.089278 
0.091574 
0.089278 
0.078183 
0.086427 
0.094672 
0.086427 
0.088131 
0.092111 
0.085854 
0.092111 
0.088131 
0.088705 
0.091000 
0.086983 
0.091556 
0.086983 
0.091000 
0.088705 
0.089278 
0.091574 
0.089278 
0.092722 
0.089278 
0.092722 
0.089278 
0.091574 
0.089278 
0.078183 
0.086427 
0.094672 
0.086427 
0.088131 
0.092111 
0.085854 
0.092111 
0.088131 
0.088705 
0.091000 
0.086983 
0.091556 
0.086983 
0.091000 
0.088705 
0.089278 
0.091574 
0.089278 
0.092722 
0.089278 
0.092722 
0.089278 
0.091574 
0.089278 
0.078183 
0.086427 
0.094672 
0.086427 
0.088131 
0.092111 
0.085854 
0.092111 
0.088131 
0.088705 
0.091000 
0.086983 
0.091556 
0.086983 
0.091000 
0.088705 
0.089278 
0.091574 
0.089278 
0.092722 
0.089278 
0.092722 
0.089278 
0.091574 
0.089278 
0.078183 
0.086427 
0.094672 
0.086427 
0.088131 
0.092111 
0.085854 
0.092111 
0.088131 
0.088705 
0.091000 
0.086983 
0.091556 
0.086983 
0.091000 
0.088705 
0.089278 
0.091574 
0.089278 
0.092722 
0.089278 
0.092722 
0.089278 
0.091574 
0.089278 
SCALARS MASS float 
LOOKUP_TABLE default 
0.078183 
0.086427 
0.094672 
0.086427 
0.088131 
0.092111 
0.085854 
0.092111 
0.088131 
0.088705 
0.091000 
0.086983 
0.091556 
0.086983 
0.091000 
0.088705 
0.089278 
0.091574 
0.089278 
0.092722 
0.089278 
0.092722 
0.089278 
0.091574 
0.089278 
0.078183 
0.086427 
0.094672 
0.086427 
0.088131 
0.092111 
0.085854 
0.092111 
0.088131 
0.088705 
0.091000 
0.086983 
0.091556 
0.086983 
0.091000 
0.088705 
0.089278 
0.091574 
0.089278 
0.092722 
0.089278 
0.092722 
0.089278 
0.091574 
0.089278 
0.078183 
0.086427 
0.094672 
0.086427 
0.088131 
0.092111 
0.085854 
0.092111 
0.088131 
0.088705 
0.091000 
0.086983 
0.091556 
0.086983 
0.091000 
0.088705 
0.089278 
0.091574 
0.089278 
0.092722 
0.089278 
0.092722 
0.089278 
0.091574 
0.089278 
0.078183 
0.086427 
0.094672 
0.086427 
0.088131 
0.092111 
0.085854 
0.092111 
0.088131 
0.088705 
0.091000 
0.086983 
0.091556 
0.086983 
0.091000 
0.088705 
0.089278 
0.091574 
0.089278 
0.092722 
0.089278 
0.092722 
0.089278 
0.091574 
0.089278 
0.078183 
0.086427 
0.094672 
0.086427 
0.088131 
0.092111 
0.085854 
0.092111 
0.088131 
0.088705 
0.091000 
0.086983 
0.091556 
0.086983 
0.091000 
0.088705 
0.089278 
0.091574 
0.089278 
0.092722 
0.089278 
0.092722 
0.089278 
0.091574 
0.089278 
0.078183 
0.086427 
0.094672 
0.086427 
0.088131 
0.092111 
0.085854 
0.092111 
0.088131 
0.088705 
0.091000 
0.086983 
0.091556 
0.086983 
0.091000 
0.088705 
0.089278 
0.091574 
0.089278 
0.092722 
0.089278 
0.092722 
0.089278 
0.091574 
0.089278 
0.078183 
0.086427 
0.094672 
0.086427 
0.088131 
0.092111 
0.085854 
0.092111 
0.088131 
0.088705 
0.091000 
0.086983 
0.091556 
0.086983 
0.091000 
0.088705 
0.089278 
0.091574 
0.089278 
0.092722 
0.089278 
0.092722 
0.089278 
0.091574 
0.089278 
SCALARS DENSITY float 
LOOKUP_TABLE default 
20.000000 
20.000000 
20.000000 
20.000000 
20.000000 
20.000000 
20.000000 
20.000000 
20.000000 
20.000000 
20.000000 
20.000000 
20.000000 
20.000000 
20.000000 
20.000000 
20.000000 
20.000000 
20.000000 
20.000000 
20.000000 
20.000000 
20.000000 
20.000000 
20.000000 
20.000000 
20.000000 
20.000000 
20.000000 
20.000000 
20.000000 
20.000000 
20.000000 
20.000000 
20.000000 
20.000000 
20.000000 
20.000000 
20.000000 
20.000000 
20.000000 
20.000000 
20.000000 
20.000000 
20.000000 
20.000000 
20.000000 
20.000000 
20.000000 
20.000000 
20.000000 
20.000000 
20.000000 
20.000000 
20.000000 
20.000000 
20.000000 
20.000000 
20.000000 
20.000000 
20.000000 
20.000000 
20.000000 
20.000000 
20.000000 
20.000000 
20.000000 
20.000000 
20.000000 
20.000000 
20.000000 
20.000000 
20.000000 
20.000000 
20.000000 
20.000000 
20.000000 
20.000000 
20.000000 
20.000000 
20.000000 
20.000000 
20.000000 
20.000000 
20.000000 
20.000000 
20.000000 
20.000000 
20.000000 
20.000000 
20.000000 
20.000000 
20.000000 
20.000000 
20.000000 
20.000000 
20.000000 
20.000000 
20.000000 
20.000000 
20.000000 
20.000000 
20.000000 
20.000000 
20.000000 
20.000000 
20.000000 
20.000000 
20.000000 
20.000000 
20.000000 
20.000000 
20.000000 
20.000000 
20.000000 
20.000000 
20.000000 
20.000000 
20.000000 
20.000000 
20.000000 
20.000000 
20.000000 
20.000000 
20.000000 
20.000000 
20.000000 
20.000000 
20.000000 
20.000000 
20.000000 
20.000000 
20.000000 
20.000000 
20.000000 
20.000000 
20.000000 
20.000000 
20.000000 
20.000000 
20.000000 
20.000000 
20.000000 
20.000000 
20.000000 
20.000000 
20.000000 
20.000000 
20.000000 
20.000000 
20.000000 
20.000000 
20.000000 
20.000000 
20.000000 
20.000000 
20.000000 
20.000000 
20.000000 
20.000000 
20.000000 
20.000000 
20.000000 
20.000000 
20.000000 
20.000000 
20.000000 
20.000000 
20.000000 
20.000000 
20.000000 
20.000000 
20.000000 
20.000000 
20.000000 
SCALARS ELEM_i float 
LOOKUP_TABLE default 
167 
194 
167 
168 
195 
195 
195 
168 
168 
222 
195 
196 
196 
196 
169 
169 
223 
223 
223 
196 
196 
196 
197 
169 
170 
167 
194 
194 
194 
220 
194 
221 
194 
195 
220 
221 
221 
221 
221 
222 
222 
247 
247 
248 
248 
248 
249 
249 
222 
222 
166 
193 
193 
193 
192 
192 
192 
193 
220 
191 
192 
219 
219 
219 
220 
220 
191 
218 
218 
219 
219 
219 
246 
247 
247 
166 
166 
166 
166 
138 
165 
165 
165 
192 
137 
137 
164 
164 
164 
191 
191 
137 
137 
137 
164 
163 
164 
191 
191 
191 
166 
139 
139 
139 
112 
139 
138 
138 
138 
112 
112 
111 
111 
111 
138 
137 
85 
85 
84 
111 
111 
111 
110 
110 
137 
167 
140 
140 
140 
141 
140 
113 
140 
112 
114 
114 
113 
113 
113 
113 
112 
114 
114 
87 
87 
86 
86 
86 
85 
85 
167 
168 
167 
140 
168 
168 
141 
141 
141 
169 
169 
142 
142 
142 
141 
114 
170 
169 
143 
142 
142 
142 
115 
115 
115 
VECTORS VELOCITY float 
0.000000 -6.635484 0.000000 
0.000000 -6.635484 0.000000 
0.000000 -6.635484 0.000000 
0.000000 -6.635484 0.000000 
0.000000 -6.635484 0.000000 
0.000000 -6.635484 0.000000 
0.000000 -6.635484 0.000000 
0.000000 -6.635484 0.000000 
0.000000 -6.635484 0.000000 
0.000000 -6.635484 0.000000 
0.000000 -6.635484 0.000000 
-0.000000 -6.635484 0.000000 
-0.000000 -6.635484 0.000000 
-0.000000 -6.635484 0.000000 
0.000000 -6.635484 0.000000 
0.000000 -6.635484 0.000000 
0.000000 -6.635484 0.000000 
-0.000000 -6.635484 0.000000 
0.000000 -6.635484 0.000000 
-0.000000 -6.635484 0.000000 
-0.000000 -6.635484 0.000000 
-0.000000 -6.635484 0.000000 
-0.000000 -6.635484 0.000000 
-0.000000 -6.635484 0.000000 
-0.000000 -6.635484 0.000000 
0.000000 -6.635484 0.000000 
0.000000 -6.635484 0.000000 
0.000000 -6.635484 0.000000 
-0.000000 -6.635484 0.000000 
-0.000000 -6.635484 0.000000 
-0.000000 -6.635484 0.000000 
-0.000000 -6.635484 0.000000 
-0.000000 -6.635484 0.000000 
0.000000 -6.635484 0.000000 
-0.000000 -6.635484 0.000000 
-0.000000 -6.635484 0.000000 
0.000000 -6.635484 0.000000 
0.000000 -6.635484 0.000000 
0.000000 -6.635484 0.000000 
0.000000 -6.635484 0.000000 
0.000000 -6.635484 0.000000 
0.000000 -6.635484 0.000000 
0.000000 -6.635484 0.000000 
-0.000000 -6.635484 0.000000 
-0.000000 -6.635484 0.000000 
-0.000000 -6.635484 0.000000 
-0.000000 -6.635484 0.000000 
-0.000000 -6.635484 0.000000 
-0.000000 -6.635484 0.000000 
0.000000 -6.635484 0.000000 
0.000000 -6.635484 0.000000 
-0.000000 -6.635484 0.000000 
0.000000 -6.635484 0.000000 
0.000000 -6.635484 0.000000 
0.000000 -6.635484 0.000000 
0.000000 -6.635484 0.000000 
0.000000 -6.635484 0.000000 
0.000000 -6.635484 0.000000 
0.000000 -6.635484 0.000000 
-0.000000 -6.635484 0.000000 
-0.000000 -6.635484 0.000000 
-0.000000 -6.635484 0.000000 
0.000000 -6.635484 0.000000 
0.000000 -6.635484 0.000000 
0.000000 -6.635484 0.000000 
0.000000 -6.635484 0.000000 
-0.000000 -6.635484 0.000000 
-0.000000 -6.635484 0.000000 
0.000000 -6.635484 0.000000 
0.000000 -6.635484 0.000000 
0.000000 -6.635484 0.000000 
-0.000000 -6.635484 0.000000 
-0.000000 -6.635484 0.000000 
0.000000 -6.635484 0.000000 
0.000000 -6.635484 0.000000 
0.000000 -6.635484 0.000000 
0.000000 -6.635484 0.000000 
-0.000000 -6.635484 0.000000 
-0.000000 -6.635484 0.000000 
-0.000000 -6.635484 0.000000 
-0.000000 -6.635484 0.000000 
-0.000000 -6.635484 0.000000 
-0.000000 -6.635484 0.000000 
0.000000 -6.635484 0.000000 
0.000000 -6.635484 0.000000 
-0.000000 -6.635484 0.000000 
0.000000 -6.635484 0.000000 
-0.000000 -6.635484 0.000000 
-0.000000 -6.635484 0.000000 
-0.000000 -6.635484 0.000000 
-0.000000 -6.635484 0.000000 
-0.000000 -6.635484 0.000000 
-0.000000 -6.635484 0.000000 
0.000000 -6.635484 0.000000 
0.000000 -6.635484 0.000000 
0.000000 -6.635484 0.000000 
0.000000 -6.635484 0.000000 
-0.000000 -6.635484 0.000000 
-0.000000 -6.635484 0.000000 
0.000000 -6.635484 0.000000 
-0.000000 -6.635484 0.000000 
-0.000000 -6.635484 0.000000 
0.000000 -6.635484 0.000000 
0.000000 -6.635484 0.000000 
0.000000 -6.635484 0.000000 
0.000000 -6.635484 0.000000 
0.000000 -6.635484 0.000000 
-0.000000 -6.635484 0.000000 
-0.000000 -6.635484 0.000000 
-0.000000 -6.635484 0.000000 
-0.000000 -6.635484 0.000000 
-0.000000 -6.635484 0.000000 
-0.000000 -6.635484 0.000000 
-0.000000 -6.635484 0.000000 
-0.000000 -6.635484 0.000000 
-0.000000 -6.635484 0.000000 
0.000000 -6.635484 0.000000 
-0.000000 -6.635484 0.000000 
-0.000000 -6.635484 0.000000 
-0.000000 -6.635484 0.000000 
0.000000 -6.635484 0.000000 
-0.000000 -6.635484 0.000000 
-0.000000 -6.635484 0.000000 
0.000000 -6.635484 0.000000 
-0.000000 -6.635484 0.000000 
-0.000000 -6.635484 0.000000 
-0.000000 -6.635484 0.000000 
-0.000000 -6.635484 0.000000 
-0.000000 -6.635484 0.000000 
-0.000000 -6.635484 0.000000 
-0.000000 -6.635484 0.000000 
-0.000000 -6.635484 0.000000 
0.000000 -6.635484 0.000000 
0.000000 -6.635484 0.000000 
0.000000 -6.635484 0.000000 
-0.000000 -6.635484 0.000000 
0.000000 -6.635484 0.000000 
0.000000 -6.635484 0.000000 
0.000000 -6.635484 0.000000 
-0.000000 -6.635484 0.000000 
-0.000000 -6.635484 0.000000 
-0.000000 -6.635484 0.000000 
0.000000 -6.635484 0.000000 
0.000000 -6.635484 0.000000 
0.000000 -6.635484 0.000000 
-0.000000 -6.635484 0.000000 
-0.000000 -6.635484 0.000000 
-0.000000 -6.635484 0.000000 
-0.000000 -6.635484 0.000000 
0.000000 -6.635484 0.000000 
0.000000 -6.635484 0.000000 
0.000000 -6.635484 0.000000 
0.000000 -6.635484 0.000000 
-0.000000 -6.635484 0.000000 
0.000000 -6.635484 0.000000 
-0.000000 -6.635484 0.000000 
0.000000 -6.635484 0.000000 
-0.000000 -6.635484 0.000000 
0.000000 -6.635484 0.000000 
0.000000 -6.635484 0.000000 
0.000000 -6.635484 0.000000 
0.000000 -6.635484 0.000000 
0.000000 -6.635484 0.000000 
0.000000 -6.635484 0.000000 
0.000000 -6.635484 0.000000 
0.000000 -6.635484 0.000000 
0.000000 -6.635484 0.000000 
0.000000 -6.635484 0.000000 
-0.000000 -6.635484 0.000000 
-0.000000 -6.635484 0.000000 
0.000000 -6.635484 0.000000 
-0.000000 -6.635484 0.000000 
0.000000 -6.635484 0.000000 
0.000000 -6.635484 0.000000 
0.000000 -6.635484 0.000000 
TENSORS STRESS float 
-0.000000 0.000000 0.000000 
0.000000 0.000000 0.000000 
0.000000 0.000000 0.000000 

0.000000 -0.000000 0.000000 
0.000000 0.000000 0.000000 
0.000000 0.000000 0.000000 

-0.000000 0.000000 0.000000 
0.000000 -0.000000 0.000000 
0.000000 0.000000 0.000000 

0.000000 0.000000 0.000000 
0.000000 0.000000 0.000000 
0.000000 0.000000 0.000000 

0.000000 0.000000 0.000000 
0.000000 0.000000 0.000000 
0.000000 0.000000 0.000000 

0.000000 0.000000 0.000000 
0.000000 0.000000 0.000000 
0.000000 0.000000 0.000000 

0.000000 0.000000 0.000000 
0.000000 0.000000 0.000000 
0.000000 0.000000 0.000000 

0.000000 -0.000000 0.000000 
0.000000 0.000000 0.000000 
0.000000 0.000000 0.000000 

-0.000000 0.000000 0.000000 
0.000000 -0.000000 0.000000 
0.000000 0.000000 0.000000 

0.000000 -0.000000 0.000000 
0.000000 0.000000 0.000000 
0.000000 0.000000 0.000000 

0.000000 0.000000 0.000000 
0.000000 -0.000000 0.000000 
0.000000 0.000000 0.000000 

0.000000 0.000000 0.000000 
0.000000 0.000000 0.000000 
0.000000 0.000000 0.000000 

-0.000000 -0.000000 0.000000 
0.000000 -0.000000 0.000000 
0.000000 0.000000 0.000000 

-0.000000 0.000000 0.000000 
0.000000 -0.000000 0.000000 
0.000000 0.000000 0.000000 

0.000000 -0.000000 0.000000 
0.000000 0.000000 0.000000 
0.000000 0.000000 0.000000 

-0.000000 0.000000 0.000000 
0.000000 -0.000000 0.000000 
0.000000 0.000000 0.000000 

-0.000000 0.000000 0.000000 
0.000000 0.000000 0.000000 
0.000000 0.000000 0.000000 

-0.000000 0.000000 0.000000 
0.000000 0.000000 0.000000 
0.000000 0.000000 0.000000 

0.000000 -0.000000 0.000000 
0.000000 0.000000 0.000000 
0.000000 0.000000 0.000000 

-0.000000 0.000000 0.000000 
0.000000 -0.000000 0.000000 
0.000000 0.000000 0.000000 

-0.000000 -0.000000 0.000000 
0.000000 0.000000 0.000000 
0.000000 0.000000 0.000000 

-0.000000 -0.000000 0.000000 
0.000000 -0.000000 0.000000 
0.000000 0.000000 0.000000 

-0.000000 -0.000000 0.000000 
0.000000 -0.000000 0.000000 
0.000000 0.000000 0.000000 

-0.000000 0.000000 0.000000 
0.000000 -0.000000 0.000000 
0.000000 0.000000 0.000000 

-0.000000 0.000000 0.000000 
0.000000 -0.000000 0.000000 
0.000000 0.000000 0.000000 

0.000000 0.000000 0.000000 
0.000000 0.000000 0.000000 
0.000000 0.000000 0.000000 

0.000000 -0.000000 0.000000 
0.000000 0.000000 0.000000 
0.000000 0.000000 0.000000 

0.000000 -0.000000 0.000000 
0.000000 0.000000 0.000000 
0.000000 0.000000 0.000000 

0.000000 -0.000000 0.000000 
0.000000 0.000000 0.000000 
0.000000 0.000000 0.000000 

0.000000 0.000000 0.000000 
0.000000 0.000000 0.000000 
0.000000 0.000000 0.000000 

0.000000 -0.000000 0.000000 
0.000000 -0.000000 0.000000 
0.000000 0.000000 0.000000 

-0.000000 -0.000000 0.000000 
0.000000 -0.000000 0.000000 
0.000000 0.000000 0.000000 

-0.000000 0.000000 0.000000 
0.000000 -0.000000 0.000000 
0.000000 0.000000 0.000000 

0.000000 -0.000000 0.000000 
0.000000 0.000000 0.000000 
0.000000 0.000000 0.000000 

-0.000000 -0.000000 0.000000 
0.000000 -0.000000 0.000000 
0.000000 0.000000 0.000000 

-0.000000 -0.000000 0.000000 
0.000000 -0.000000 0.000000 
0.000000 0.000000 0.000000 

0.000000 0.000000 0.000000 
0.000000 0.000000 0.000000 
0.000000 0.000000 0.000000 

0.000000 0.000000 0.000000 
0.000000 0.000000 0.000000 
0.000000 0.000000 0.000000 

0.000000 -0.000000 0.000000 
0.000000 -0.000000 0.000000 
0.000000 0.000000 0.000000 

0.000000 -0.000000 0.000000 
0.000000 0.000000 0.000000 
0.000000 0.000000 0.000000 

0.000000 0.000000 0.000000 
0.000000 0.000000 0.000000 
0.000000 0.000000 0.000000 

0.000000 -0.000000 0.000000 
0.000000 0.000000 0.000000 
0.000000 0.000000 0.000000 

0.000000 -0.000000 0.000000 
0.000000 0.000000 0.000000 
0.000000 0.000000 0.000000 

-0.000000 -0.000000 0.000000 
0.000000 -0.000000 0.000000 
0.000000 0.000000 0.000000 

-0.000000 0.000000 0.000000 
0.000000 -0.000000 0.000000 
0.000000 0.000000 0.000000 

0.000000 -0.000000 0.000000 
0.000000 0.000000 0.000000 
0.000000 0.000000 0.000000 

-0.000000 -0.000000 0.000000 
0.000000 0.000000 0.000000 
0.000000 0.000000 0.000000 

-0.000000 -0.000000 0.000000 
0.000000 -0.000000 0.000000 
0.000000 0.000000 0.000000 

-0.000000 0.000000 0.000000 
0.000000 -0.000000 0.000000 
0.000000 0.000000 0.000000 

-0.000000 0.000000 0.000000 
0.000000 -0.000000 0.000000 
0.000000 0.000000 0.000000 

0.000000 0.000000 0.000000 
0.000000 0.000000 0.000000 
0.000000 0.000000 0.000000 

-0.000000 -0.000000 0.000000 
0.000000 0.000000 0.000000 
0.000000 0.000000 0.000000 

-0.000000 -0.000000 0.000000 
0.000000 -0.000000 0.000000 
0.000000 0.000000 0.000000 

-0.000000 0.000000 0.000000 
0.000000 -0.000000 0.000000 
0.000000 0.000000 0.000000 

-0.000000 0.000000 0.000000 
0.000000 -0.000000 0.000000 
0.000000 0.000000 0.000000 

-0.000000 -0.000000 0.000000 
0.000000 -0.000000 0.000000 
0.000000 0.000000 0.000000 

-0.000000 -0.000000 0.000000 
0.000000 -0.000000 0.000000 
0.000000 0.000000 0.000000 

-0.000000 0.000000 0.000000 
0.000000 0.000000 0.000000 
0.000000 0.000000 0.000000 

0.000000 -0.000000 0.000000 
0.000000 0.000000 0.000000 
0.000000 0.000000 0.000000 

0.000000 -0.000000 0.000000 
0.000000 -0.000000 0.000000 
0.000000 0.000000 0.000000 

0.000000 -0.000000 0.000000 
0.000000 0.000000 0.000000 
0.000000 0.000000 0.000000 

-0.000000 -0.000000 0.000000 
0.000000 0.000000 0.000000 
0.000000 0.000000 0.000000 

0.000000 0.000000 0.000000 
0.000000 0.000000 0.000000 
0.000000 0.000000 0.000000 

-0.000000 -0.000000 0.000000 
0.000000 -0.000000 0.000000 
0.000000 0.000000 0.000000 

0.000000 -0.000000 0.000000 
0.000000 -0.000000 0.000000 
0.000000 0.000000 0.000000 

0.000000 0.000000 0.000000 
0.000000 -0.000000 0.000000 
0.000000 0.000000 0.000000 

-0.000000 -0.000000 0.000000 
0.000000 -0.000000 0.000000 
0.000000 0.000000 0.000000 

0.000000 -0.000000 0.000000 
0.000000 0.000000 0.000000 
0.000000 0.000000 0.000000 

-0.000000 -0.000000 0.000000 
0.000000 -0.000000 0.000000 
0.000000 0.000000 0.000000 

-0.000000 0.000000 0.000000 
0.000000 0.000000 0.000000 
0.000000 0.000000 0.000000 

-0.000000 0.000000 0.000000 
0.000000 0.000000 0.000000 
0.000000 0.000000 0.000000 

-0.000000 -0.000000 0.000000 
0.000000 -0.000000 0.000000 
0.000000 0.000000 0.000000 

0.000000 -0.000000 0.000000 
0.000000 -0.000000 0.000000 
0.000000 0.000000 0.000000 

0.000000 0.000000 0.000000 
0.000000 0.000000 0.000000 
0.000000 0.000000 0.000000 

-0.000000 0.000000 0.000000 
0.000000 0.000000 0.000000 
0.000000 0.000000 0.000000 

0.000000 0.000000 0.000000 
0.000000 -0.000000 0.000000 
0.000000 0.000000 0.000000 

0.000000 0.000000 0.000000 
0.000000 0.000000 0.000000 
0.000000 0.000000 0.000000 

0.000000 -0.000000 0.000000 
0.000000 0.000000 0.000000 
0.000000 0.000000 0.000000 

0.000000 0.000000 0.000000 
0.000000 0.000000 0.000000 
0.000000 0.000000 0.000000 

0.000000 0.000000 0.000000 
0.000000 0.000000 0.000000 
0.000000 0.000000 0.000000 

0.000000 0.000000 0.000000 
0.000000 -0.000000 0.000000 
0.000000 0.000000 0.000000 

0.000000 0.000000 0.000000 
0.000000 -0.000000 0.000000 
0.000000 0.000000 0.000000 

0.000000 0.000000 0.000000 
0.000000 0.000000 0.000000 
0.000000 0.000000 0.000000 

0.000000 -0.000000 0.000000 
0.000000 0.000000 0.000000 
0.000000 0.000000 0.000000 

-0.000000 -0.000000 0.000000 
0.000000 -0.000000 0.000000 
0.000000 0.000000 0.000000 

-0.000000 -0.000000 0.000000 
0.000000 -0.000000 0.000000 
0.000000 0.000000 0.000000 

0.000000 0.000000 0.000000 
0.000000 0.000000 0.000000 
0.000000 0.000000 0.000000 

-0.000000 -0.000000 0.000000 
0.000000 -0.000000 0.000000 
0.000000 0.000000 0.000000 

0.000000 0.000000 0.000000 
0.000000 0.000000 0.000000 
0.000000 0.000000 0.000000 

0.000000 -0.000000 0.000000 
0.000000 -0.000000 0.000000 
0.000000 0.000000 0.000000 

0.000000 -0.000000 0.000000 
0.000000 -0.000000 0.000000 
0.000000 0.000000 0.000000 

-0.000000 0.000000 0.000000 
0.000000 -0.000000 0.000000 
0.000000 0.000000 0.000000 

0.000000 -0.000000 0.000000 
0.000000 0.000000 0.000000 
0.000000 0.000000 0.000000 

-0.000000 0.000000 0.000000 
0.000000 -0.000000 0.000000 
0.000000 0.000000 0.000000 

0.000000 0.000000 0.000000 
0.000000 0.000000 0.000000 
0.000000 0.000000 0.000000 

0.000000 0.000000 0.000000 
0.000000 -0.000000 0.000000 
0.000000 0.000000 0.000000 

0.000000 0.000000 0.000000 
0.000000 -0.000000 0.000000 
0.000000 0.000000 0.000000 

-0.000000 0.000000 0.000000 
0.000000 -0.000000 0.000000 
0.000000 0.000000 0.000000 

-0.000000 -0.000000 0.000000 
0.000000 -0.000000 0.000000 
0.000000 0.000000 0.000000 

0.000000 0.000000 0.000000 
0.000000 0.000000 0.000000 
0.000000 0.000000 0.000000 

0.000000 0.000000 0.000000 
0.000000 0.000000 0.000000 
0.000000 0.000000 0.000000 

-0.000000 0.000000 0.000000 
0.000000 0.000000 0.000000 
0.000000 0.000000 0.000000 

0.000000 0.000000 0.000000 
0.000000 0.000000 0.000000 
0.000000 0.000000 0.000000 

0.000000 0.000000 0.000000 
0.000000 0.000000 0.000000 
0.000000 0.000000 0.000000 

-0.000000 0.000000 0.000000 
0.000000 -0.000000 0.000000 
0.000000 0.000000 0.000000 

-0.000000 -0.000000 0.000000 
0.000000 0.000000 0.000000 
0.000000 0.000000 0.000000 

0.000000 0.000000 0.000000 
0.000000 0.000000 0.000000 
0.000000 0.000000 0.000000 

0.000000 -0.000000 0.000000 
0.000000 0.000000 0.000000 
0.000000 0.000000 0.000000 

0.000000 -0.000000 0.000000 
0.000000 0.000000 0.000000 
0.000000 0.000000 0.000000 

-0.000000 -0.000000 0.000000 
0.000000 -0.000000 0.000000 
0.000000 0.000000 0.000000 

-0.000000 -0.000000 0.000000 
0.000000 0.000000 0.000000 
0.000000 0.000000 0.000000 

-0.000000 -0.000000 0.000000 
0.000000 -0.000000 0.000000 
0.000000 0.000000 0.000000 

-0.000000 0.000000 0.000000 
0.000000 -0.000000 0.000000 
0.000000 0.000000 0.000000 

-0.000000 0.000000 0.000000 
0.000000 -0.000000 0.000000 
0.000000 0.000000 0.000000 

0.000000 -0.000000 0.000000 
0.000000 0.000000 0.000000 
0.000000 0.000000 0.000000 

0.000000 -0.000000 0.000000 
0.000000 0.000000 0.000000 
0.000000 0.000000 0.000000 

-0.000000 -0.000000 0.000000 
0.000000 0.000000 0.000000 
0.000000 0.000000 0.000000 

-0.000000 -0.000000 0.000000 
0.000000 -0.000000 0.000000 
0.000000 0.000000 0.000000 

0.000000 0.000000 0.000000 
0.000000 0.000000 0.000000 
0.000000 0.000000 0.000000 

-0.000000 -0.000000 0.000000 
0.000000 -0.000000 0.000000 
0.000000 0.000000 0.000000 

0.000000 0.000000 0.000000 
0.000000 0.000000 0.000000 
0.000000 0.000000 0.000000 

0.000000 0.000000 0.000000 
0.000000 0.000000 0.000000 
0.000000 0.000000 0.000000 

-0.000000 -0.000000 0.000000 
0.000000 -0.000000 0.000000 
0.000000 0.000000 0.000000 

0.000000 0.000000 0.000000 
0.000000 0.000000 0.000000 
0.000000 0.000000 0.000000 

0.000000 -0.000000 0.000000 
0.000000 0.000000 0.000000 
0.000000 0.000000 0.000000 

-0.000000 -0.000000 0.000000 
0.000000 -0.000000 0.000000 
0.000000 0.000000 0.000000 

0.000000 0.000000 0.000000 
0.000000 0.000000 0.000000 
0.000000 0.000000 0.000000 

-0.000000 -0.000000 0.000000 
0.000000 -0.000000 0.000000 
0.000000 0.000000 0.000000 

-0.000000 -0.000000 0.000000 
0.000000 0.000000 0.000000 
0.000000 0.000000 0.000000 

-0.000000 0.000000 0.000000 
0.000000 -0.000000 0.000000 
0.000000 0.000000 0.000000 

0.000000 0.000000 0.000000 
0.000000 0.000000 0.000000 
0.000000 0.000000 0.000000 

-0.000000 -0.000000 0.000000 
0.000000 -0.000000 0.000000 
0.000000 0.000000 0.000000 

-0.000000 -0.000000 0.000000 
0.000000 -0.000000 0.000000 
0.000000 0.000000 0.000000 

-0.000000 0.000000 0.000000 
0.000000 -0.000000 0.000000 
0.000000 0.000000 0.000000 

0.000000 0.000000 0.000000 
0.000000 0.000000 0.000000 
0.000000 0.000000 0.000000 

0.000000 0.000000 0.000000 
0.000000 0.000000 0.000000 
0.000000 0.000000 0.000000 

0.000000 0.000000 0.000000 
0.000000 0.000000 0.000000 
0.000000 0.000000 0.000000 

-0.000000 0.000000 0.000000 
0.000000 0.000000 0.000000 
0.000000 0.000000 0.000000 

-0.000000 0.000000 0.000000 
0.000000 0.000000 0.000000 
0.000000 0.000000 0.000000 

0.000000 -0.000000 0.000000 
0.000000 0.000000 0.000000 
0.000000 0.000000 0.000000 

-0.000000 0.000000 0.000000 
0.000000 -0.000000 0.000000 
0.000000 0.000000 0.000000 

-0.000000 0.000000 0.000000 
0.000000 0.000000 0.000000 
0.000000 0.000000 0.000000 

-0.000000 0.000000 0.000000 
0.000000 0.000000 0.000000 
0.000000 0.000000 0.000000 

0.000000 -0.000000 0.000000 
0.000000 -0.000000 0.000000 
0.000000 0.000000 0.000000 

-0.000000 0.000000 0.000000 
0.000000 -0.000000 0.000000 
0.000000 0.000000 0.000000 

-0.000000 0.000000 0.000000 
0.000000 0.000000 0.000000 
0.000000 0.000000 0.000000 

-0.000000 0.000000 0.000000 
0.000000 -0.000000 0.000000 
0.000000 0.000000 0.000000 

-0.000000 -0.000000 0.000000 
0.000000 0.000000 0.000000 
0.000000 0.000000 0.000000 

-0.000000 0.000000 0.000000 
0.000000 -0.000000 0.000000 
0.000000 0.000000 0.000000 

0.000000 0.000000 0.000000 
0.000000 0.000000 0.000000 
0.000000 0.000000 0.000000 

-0.000000 0.000000 0.000000 
0.000000 0.000000 0.000000 
0.000000 0.000000 0.000000 

0.000000 0.000000 0.000000 
0.000000 0.000000 0.000000 
0.000000 0.000000 0.000000 

0.000000 0.000000 0.000000 
0.000000 0.000000 0.000000 
0.000000 0.000000 0.000000 

-0.000000 0.000000 0.000000 
0.000000 0.000000 0.000000 
0.000000 0.000000 0.000000 

-0.000000 0.000000 0.000000 
0.000000 -0.000000 0.000000 
0.000000 0.000000 0.000000 

0.000000 -0.000000 0.000000 
0.000000 0.000000 0.000000 
0.000000 0.000000 0.000000 

0.000000 -0.000000 0.000000 
0.000000 0.000000 0.000000 
0.000000 0.000000 0.000000 

-0.000000 -0.000000 0.000000 
0.000000 -0.000000 0.000000 
0.000000 0.000000 0.000000 

0.000000 0.000000 0.000000 
0.000000 0.000000 0.000000 
0.000000 0.000000 0.000000 

0.000000 -0.000000 0.000000 
0.000000 -0.000000 0.000000 
0.000000 0.000000 0.000000 

0.000000 -0.000000 0.000000 
0.000000 0.000000 0.000000 
0.000000 0.000000 0.000000 

0.000000 0.000000 0.000000 
0.000000 0.000000 0.000000 
0.000000 0.000000 0.000000 

-0.000000 0.000000 0.000000 
0.000000 -0.000000 0.000000 
0.000000 0.000000 0.000000 

0.000000 0.000000 0.000000 
0.000000 0.000000 0.000000 
0.000000 0.000000 0.000000 

0.000000 -0.000000 0.000000 
0.000000 0.000000 0.000000 
0.000000 0.000000 0.000000 

-0.000000 -0.000000 0.000000 
0.000000 -0.000000 0.000000 
0.000000 0.000000 0.000000 

-0.000000 0.000000 0.000000 
0.000000 -0.000000 0.000000 
0.000000 0.000000 0.000000 

-0.000000 -0.000000 0.000000 
0.000000 -0.000000 0.000000 
0.000000 0.000000 0.000000 

-0.000000 0.000000 0.000000 
0.000000 -0.000000 0.000000 
0.000000 0.000000 0.000000 

0.000000 0.000000 0.000000 
0.000000 0.000000 0.000000 
0.000000 0.000000 0.000000 

0.000000 0.000000 0.000000 
0.000000 0.000000 0.000000 
0.000000 0.000000 0.000000 

0.000000 0.000000 0.000000 
0.000000 0.000000 0.000000 
0.000000 0.000000 0.000000 

-0.000000 0.000000 0.000000 
0.000000 0.000000 0.000000 
0.000000 0.000000 0.000000 

-0.000000 -0.000000 0.000000 
0.000000 0.000000 0.000000 
0.000000 0.000000 0.000000 

-0.000000 0.000000 0.000000 
0.000000 0.000000 0.000000 
0.000000 0.000000 0.000000 

TENSORS STRAIN float 
-0.000000 0.000000 0.000000 
0.000000 0.000000 0.000000 
0.000000 0.000000 0.000000 

0.000000 -0.000000 0.000000 
0.000000 0.000000 0.000000 
0.000000 0.000000 0.000000 

0.000000 0.000000 0.000000 
0.000000 -0.000000 0.000000 
0.000000 0.000000 0.000000 

0.000000 0.000000 0.000000 
0.000000 -0.000000 0.000000 
0.000000 0.000000 0.000000 

0.000000 0.000000 0.000000 
0.000000 0.000000 0.000000 
0.000000 0.000000 0.000000 

0.000000 0.000000 0.000000 
0.000000 0.000000 0.000000 
0.000000 0.000000 0.000000 

0.000000 0.000000 0.000000 
0.000000 0.000000 0.000000 
0.000000 0.000000 0.000000 

0.000000 -0.000000 0.000000 
0.000000 0.000000 0.000000 
0.000000 0.000000 0.000000 

-0.000000 0.000000 0.000000 
0.000000 -0.000000 0.000000 
0.000000 0.000000 0.000000 

0.000000 -0.000000 0.000000 
0.000000 0.000000 0.000000 
0.000000 0.000000 0.000000 

0.000000 0.000000 0.000000 
0.000000 -0.000000 0.000000 
0.000000 0.000000 0.000000 

-0.000000 0.000000 0.000000 
0.000000 0.000000 0.000000 
0.000000 0.000000 0.000000 

-0.000000 -0.000000 0.000000 
0.000000 -0.000000 0.000000 
0.000000 0.000000 0.000000 

-0.000000 0.000000 0.000000 
0.000000 -0.000000 0.000000 
0.000000 0.000000 0.000000 

0.000000 -0.000000 0.000000 
0.000000 -0.000000 0.000000 
0.000000 0.000000 0.000000 

0.000000 0.000000 0.000000 
0.000000 -0.000000 0.000000 
0.000000 0.000000 0.000000 

-0.000000 0.000000 0.000000 
0.000000 0.000000 0.000000 
0.000000 0.000000 0.000000 

-0.000000 0.000000 0.000000 
0.000000 0.000000 0.000000 
0.000000 0.000000 0.000000 

-0.000000 -0.000000 0.000000 
0.000000 0.000000 0.000000 
0.000000 0.000000 0.000000 

-0.000000 0.000000 0.000000 
0.000000 -0.000000 0.000000 
0.000000 0.000000 0.000000 

-0.000000 -0.000000 0.000000 
0.000000 0.000000 0.000000 
0.000000 0.000000 0.000000 

-0.000000 -0.000000 0.000000 
0.000000 -0.000000 0.000000 
0.000000 0.000000 0.000000 

-0.000000 -0.000000 0.000000 
0.000000 -0.000000 0.000000 
0.000000 0.000000 0.000000 

-0.000000 0.000000 0.000000 
0.000000 -0.000000 0.000000 
0.000000 0.000000 0.000000 

-0.000000 0.000000 0.000000 
0.000000 -0.000000 0.000000 
0.000000 0.000000 0.000000 

-0.000000 0.000000 0.000000 
0.000000 0.000000 0.000000 
0.000000 0.000000 0.000000 

0.000000 -0.000000 0.000000 
0.000000 0.000000 0.000000 
0.000000 0.000000 0.000000 

0.000000 -0.000000 0.000000 
0.000000 0.000000 0.000000 
0.000000 0.000000 0.000000 

0.000000 -0.000000 0.000000 
0.000000 0.000000 0.000000 
0.000000 0.000000 0.000000 

0.000000 0.000000 0.000000 
0.000000 0.000000 0.000000 
0.000000 0.000000 0.000000 

0.000000 -0.000000 0.000000 
0.000000 -0.000000 0.000000 
0.000000 0.000000 0.000000 

0.000000 -0.000000 0.000000 
0.000000 -0.000000 0.000000 
0.000000 0.000000 0.000000 

-0.000000 0.000000 0.000000 
0.000000 -0.000000 0.000000 
0.000000 0.000000 0.000000 

0.000000 -0.000000 0.000000 
0.000000 0.000000 0.000000 
0.000000 0.000000 0.000000 

0.000000 -0.000000 0.000000 
0.000000 -0.000000 0.000000 
0.000000 0.000000 0.000000 

0.000000 -0.000000 0.000000 
0.000000 -0.000000 0.000000 
0.000000 0.000000 0.000000 

0.000000 0.000000 0.000000 
0.000000 0.000000 0.000000 
0.000000 0.000000 0.000000 

0.000000 0.000000 0.000000 
0.000000 0.000000 0.000000 
0.000000 0.000000 0.000000 

0.000000 -0.000000 0.000000 
0.000000 -0.000000 0.000000 
0.000000 0.000000 0.000000 

0.000000 -0.000000 0.000000 
0.000000 0.000000 0.000000 
0.000000 0.000000 0.000000 

0.000000 0.000000 0.000000 
0.000000 0.000000 0.000000 
0.000000 0.000000 0.000000 

0.000000 -0.000000 0.000000 
0.000000 0.000000 0.000000 
0.000000 0.000000 0.000000 

0.000000 -0.000000 0.000000 
0.000000 0.000000 0.000000 
0.000000 0.000000 0.000000 

-0.000000 -0.000000 0.000000 
0.000000 -0.000000 0.000000 
0.000000 0.000000 0.000000 

0.000000 0.000000 0.000000 
0.000000 -0.000000 0.000000 
0.000000 0.000000 0.000000 

-0.000000 -0.000000 0.000000 
0.000000 0.000000 0.000000 
0.000000 0.000000 0.000000 

-0.000000 -0.000000 0.000000 
0.000000 0.000000 0.000000 
0.000000 0.000000 0.000000 

0.000000 -0.000000 0.000000 
0.000000 -0.000000 0.000000 
0.000000 0.000000 0.000000 

0.000000 0.000000 0.000000 
0.000000 -0.000000 0.000000 
0.000000 0.000000 0.000000 

-0.000000 0.000000 0.000000 
0.000000 -0.000000 0.000000 
0.000000 0.000000 0.000000 

0.000000 0.000000 0.000000 
0.000000 0.000000 0.000000 
0.000000 0.000000 0.000000 

-0.000000 -0.000000 0.000000 
0.000000 0.000000 0.000000 
0.000000 0.000000 0.000000 

-0.000000 -0.000000 0.000000 
0.000000 -0.000000 0.000000 
0.000000 0.000000 0.000000 

0.000000 0.000000 0.000000 
0.000000 -0.000000 0.000000 
0.000000 0.000000 0.000000 

-0.000000 0.000000 0.000000 
0.000000 -0.000000 0.000000 
0.000000 0.000000 0.000000 

-0.000000 -0.000000 0.000000 
0.000000 -0.000000 0.000000 
0.000000 0.000000 0.000000 

-0.000000 -0.000000 0.000000 
0.000000 -0.000000 0.000000 
0.000000 0.000000 0.000000 

-0.000000 0.000000 0.000000 
0.000000 0.000000 0.000000 
0.000000 0.000000 0.000000 

0.000000 -0.000000 0.000000 
0.000000 0.000000 0.000000 
0.000000 0.000000 0.000000 

0.000000 -0.000000 0.000000 
0.000000 -0.000000 0.000000 
0.000000 0.000000 0.000000 

-0.000000 -0.000000 0.000000 
0.000000 0.000000 0.000000 
0.000000 0.000000 0.000000 

-0.000000 -0.000000 0.000000 
0.000000 0.000000 0.000000 
0.000000 0.000000 0.000000 

-0.000000 0.000000 0.000000 
0.000000 0.000000 0.000000 
0.000000 0.000000 0.000000 

0.000000 -0.000000 0.000000 
0.000000 -0.000000 0.000000 
0.000000 0.000000 0.000000 

0.000000 -0.000000 0.000000 
0.000000 -0.000000 0.000000 
0.000000 0.000000 0.000000 

0.000000 0.000000 0.000000 
0.000000 -0.000000 0.000000 
0.000000 0.000000 0.000000 

-0.000000 -0.000000 0.000000 
0.000000 -0.000000 0.000000 
0.000000 0.000000 0.000000 

0.000000 -0.000000 0.000000 
0.000000 0.000000 0.000000 
0.000000 0.000000 0.000000 

0.000000 -0.000000 0.000000 
0.000000 -0.000000 0.000000 
0.000000 0.000000 0.000000 

-0.000000 0.000000 0.000000 
0.000000 0.000000 0.000000 
0.000000 0.000000 0.000000 

-0.000000 0.000000 0.000000 
0.000000 0.000000 0.000000 
0.000000 0.000000 0.000000 

-0.000000 -0.000000 0.000000 
0.000000 0.000000 0.000000 
0.000000 0.000000 0.000000 

0.000000 -0.000000 0.000000 
0.000000 -0.000000 0.000000 
0.000000 0.000000 0.000000 

-0.000000 0.000000 0.000000 
0.000000 0.000000 0.000000 
0.000000 0.000000 0.000000 

-0.000000 0.000000 0.000000 
0.000000 0.000000 0.000000 
0.000000 0.000000 0.000000 

0.000000 0.000000 0.000000 
0.000000 -0.000000 0.000000 
0.000000 0.000000 0.000000 

0.000000 0.000000 0.000000 
0.000000 0.000000 0.000000 
0.000000 0.000000 0.000000 

0.000000 -0.000000 0.000000 
0.000000 0.000000 0.000000 
0.000000 0.000000 0.000000 

0.000000 0.000000 0.000000 
0.000000 0.000000 0.000000 
0.000000 0.000000 0.000000 

0.000000 0.000000 0.000000 
0.000000 0.000000 0.000000 
0.000000 0.000000 0.000000 

0.000000 0.000000 0.000000 
0.000000 -0.000000 0.000000 
0.000000 0.000000 0.000000 

0.000000 0.000000 0.000000 
0.000000 -0.000000 0.000000 
0.000000 0.000000 0.000000 

0.000000 0.000000 0.000000 
0.000000 0.000000 0.000000 
0.000000 0.000000 0.000000 

-0.000000 -0.000000 0.000000 
0.000000 0.000000 0.000000 
0.000000 0.000000 0.000000 

0.000000 -0.000000 0.000000 
0.000000 -0.000000 0.000000 
0.000000 0.000000 0.000000 

0.000000 -0.000000 0.000000 
0.000000 -0.000000 0.000000 
0.000000 0.000000 0.000000 

0.000000 0.000000 0.000000 
0.000000 0.000000 0.000000 
0.000000 0.000000 0.000000 

0.000000 -0.000000 0.000000 
0.000000 -0.000000 0.000000 
0.000000 0.000000 0.000000 

0.000000 0.000000 0.000000 
0.000000 0.000000 0.000000 
0.000000 0.000000 0.000000 

0.000000 -0.000000 0.000000 
0.000000 -0.000000 0.000000 
0.000000 0.000000 0.000000 

0.000000 -0.000000 0.000000 
0.000000 -0.000000 0.000000 
0.000000 0.000000 0.000000 

0.000000 0.000000 0.000000 
0.000000 -0.000000 0.000000 
0.000000 0.000000 0.000000 

0.000000 -0.000000 0.000000 
0.000000 0.000000 0.000000 
0.000000 0.000000 0.000000 

0.000000 0.000000 0.000000 
0.000000 -0.000000 0.000000 
0.000000 0.000000 0.000000 

0.000000 0.000000 0.000000 
0.000000 0.000000 0.000000 
0.000000 0.000000 0.000000 

0.000000 0.000000 0.000000 
0.000000 -0.000000 0.000000 
0.000000 0.000000 0.000000 

0.000000 0.000000 0.000000 
0.000000 -0.000000 0.000000 
0.000000 0.000000 0.000000 

-0.000000 0.000000 0.000000 
0.000000 -0.000000 0.000000 
0.000000 0.000000 0.000000 

-0.000000 -0.000000 0.000000 
0.000000 -0.000000 0.000000 
0.000000 0.000000 0.000000 

-0.000000 0.000000 0.000000 
0.000000 0.000000 0.000000 
0.000000 0.000000 0.000000 

0.000000 0.000000 0.000000 
0.000000 0.000000 0.000000 
0.000000 0.000000 0.000000 

-0.000000 0.000000 0.000000 
0.000000 0.000000 0.000000 
0.000000 0.000000 0.000000 

-0.000000 0.000000 0.000000 
0.000000 0.000000 0.000000 
0.000000 0.000000 0.000000 

-0.000000 0.000000 0.000000 
0.000000 0.000000 0.000000 
0.000000 0.000000 0.000000 

-0.000000 0.000000 0.000000 
0.000000 -0.000000 0.000000 
0.000000 0.000000 0.000000 

-0.000000 -0.000000 0.000000 
0.000000 0.000000 0.000000 
0.000000 0.000000 0.000000 

0.000000 0.000000 0.000000 
0.000000 0.000000 0.000000 
0.000000 0.000000 0.000000 

0.000000 -0.000000 0.000000 
0.000000 0.000000 0.000000 
0.000000 0.000000 0.000000 

0.000000 -0.000000 0.000000 
0.000000 0.000000 0.000000 
0.000000 0.000000 0.000000 

-0.000000 -0.000000 0.000000 
0.000000 -0.000000 0.000000 
0.000000 0.000000 0.000000 

-0.000000 -0.000000 0.000000 
0.000000 0.000000 0.000000 
0.000000 0.000000 0.000000 

-0.000000 -0.000000 0.000000 
0.000000 -0.000000 0.000000 
0.000000 0.000000 0.000000 

-0.000000 0.000000 0.000000 
0.000000 0.000000 0.000000 
0.000000 0.000000 0.000000 

-0.000000 0.000000 0.000000 
0.000000 -0.000000 0.000000 
0.000000 0.000000 0.000000 

0.000000 -0.000000 0.000000 
0.000000 -0.000000 0.000000 
0.000000 0.000000 0.000000 

0.000000 -0.000000 0.000000 
0.000000 0.000000 0.000000 
0.000000 0.000000 0.000000 

-0.000000 -0.000000 0.000000 
0.000000 0.000000 0.000000 
0.000000 0.000000 0.000000 

-0.000000 -0.000000 0.000000 
0.000000 -0.000000 0.000000 
0.000000 0.000000 0.000000 

0.000000 0.000000 0.000000 
0.000000 -0.000000 0.000000 
0.000000 0.000000 0.000000 

-0.000000 -0.000000 0.000000 
0.000000 0.000000 0.000000 
0.000000 0.000000 0.000000 

-0.000000 0.000000 0.000000 
0.000000 0.000000 0.000000 
0.000000 0.000000 0.000000 

-0.000000 0.000000 0.000000 
0.000000 0.000000 0.000000 
0.000000 0.000000 0.000000 

-0.000000 -0.000000 0.000000 
0.000000 0.000000 0.000000 
0.000000 0.000000 0.000000 

0.000000 0.000000 0.000000 
0.000000 0.000000 0.000000 
0.000000 0.000000 0.000000 

0.000000 -0.000000 0.000000 
0.000000 0.000000 0.000000 
0.000000 0.000000 0.000000 

-0.000000 -0.000000 0.000000 
0.000000 0.000000 0.000000 
0.000000 0.000000 0.000000 

-0.000000 0.000000 0.000000 
0.000000 0.000000 0.000000 
0.000000 0.000000 0.000000 

-0.000000 -0.000000 0.000000 
0.000000 0.000000 0.000000 
0.000000 0.000000 0.000000 

-0.000000 -0.000000 0.000000 
0.000000 0.000000 0.000000 
0.000000 0.000000 0.000000 

-0.000000 0.000000 0.000000 
0.000000 -0.000000 0.000000 
0.000000 0.000000 0.000000 

-0.000000 0.000000 0.000000 
0.000000 0.000000 0.000000 
0.000000 0.000000 0.000000 

-0.000000 -0.000000 0.000000 
0.000000 0.000000 0.000000 
0.000000 0.000000 0.000000 

-0.000000 -0.000000 0.000000 
0.000000 -0.000000 0.000000 
0.000000 0.000000 0.000000 

-0.000000 0.000000 0.000000 
0.000000 -0.000000 0.000000 
0.000000 0.000000 0.000000 

-0.000000 0.000000 0.000000 
0.000000 0.000000 0.000000 
0.000000 0.000000 0.000000 

0.000000 0.000000 0.000000 
0.000000 0.000000 0.000000 
0.000000 0.000000 0.000000 

0.000000 0.000000 0.000000 
0.000000 0.000000 0.000000 
0.000000 0.000000 0.000000 

-0.000000 0.000000 0.000000 
0.000000 0.000000 0.000000 
0.000000 0.000000 0.000000 

-0.000000 0.000000 0.000000 
0.000000 0.000000 0.000000 
0.000000 0.000000 0.000000 

-0.000000 -0.000000 0.000000 
0.000000 0.000000 0.000000 
0.000000 0.000000 0.000000 

0.000000 0.000000 0.000000 
0.000000 -0.000000 0.000000 
0.000000 0.000000 0.000000 

-0.000000 0.000000 0.000000 
0.000000 0.000000 0.000000 
0.000000 0.000000 0.000000 

-0.000000 0.000000 0.000000 
0.000000 0.000000 0.000000 
0.000000 0.000000 0.000000 

0.000000 -0.000000 0.000000 
0.000000 -0.000000 0.000000 
0.000000 0.000000 0.000000 

-0.000000 0.000000 0.000000 
0.000000 -0.000000 0.000000 
0.000000 0.000000 0.000000 

-0.000000 0.000000 0.000000 
0.000000 0.000000 0.000000 
0.000000 0.000000 0.000000 

-0.000000 0.000000 0.000000 
0.000000 -0.000000 0.000000 
0.000000 0.000000 0.000000 

-0.000000 -0.000000 0.000000 
0.000000 0.000000 0.000000 
0.000000 0.000000 0.000000 

-0.000000 0.000000 0.000000 
0.000000 -0.000000 0.000000 
0.000000 0.000000 0.000000 

0.000000 0.000000 0.000000 
0.000000 0.000000 0.000000 
0.000000 0.000000 0.000000 

-0.000000 0.000000 0.000000 
0.000000 0.000000 0.000000 
0.000000 0.000000 0.000000 

0.000000 0.000000 0.000000 
0.000000 0.000000 0.000000 
0.000000 0.000000 0.000000 

0.000000 0.000000 0.000000 
0.000000 0.000000 0.000000 
0.000000 0.000000 0.000000 

-0.000000 0.000000 0.000000 
0.000000 0.000000 0.000000 
0.000000 0.000000 0.000000 

-0.000000 0.000000 0.000000 
0.000000 0.000000 0.000000 
0.000000 0.000000 0.000000 

0.000000 -0.000000 0.000000 
0.000000 0.000000 0.000000 
0.000000 0.000000 0.000000 

0.000000 -0.000000 0.000000 
0.000000 0.000000 0.000000 
0.000000 0.000000 0.000000 

-0.000000 -0.000000 0.000000 
0.000000 -0.000000 0.000000 
0.000000 0.000000 0.000000 

-0.000000 0.000000 0.000000 
0.000000 0.000000 0.000000 
0.000000 0.000000 0.000000 

0.000000 -0.000000 0.000000 
0.000000 -0.000000 0.000000 
0.000000 0.000000 0.000000 

0.000000 -0.000000 0.000000 
0.000000 0.000000 0.000000 
0.000000 0.000000 0.000000 

-0.000000 0.000000 0.000000 
0.000000 0.000000 0.000000 
0.000000 0.000000 0.000000 

0.000000 0.000000 0.000000 
0.000000 -0.000000 0.000000 
0.000000 0.000000 0.000000 

0.000000 0.000000 0.000000 
0.000000 0.000000 0.000000 
0.000000 0.000000 0.000000 

-0.000000 -0.000000 0.000000 
0.000000 0.000000 0.000000 
0.000000 0.000000 0.000000 

-0.000000 -0.000000 0.000000 
0.000000 -0.000000 0.000000 
0.000000 0.000000 0.000000 

-0.000000 0.000000 0.000000 
0.000000 -0.000000 0.000000 
0.000000 0.000000 0.000000 

-0.000000 -0.000000 0.000000 
0.000000 -0.000000 0.000000 
0.000000 0.000000 0.000000 

-0.000000 0.000000 0.000000 
0.000000 -0.000000 0.000000 
0.000000 0.000000 0.000000 

0.000000 0.000000 0.000000 
0.000000 0.000000 0.000000 
0.000000 0.000000 0.000000 

0.000000 0.000000 0.000000 
0.000000 0.000000 0.000000 
0.000000 0.000000 0.000000 

-0.000000 0.000000 0.000000 
0.000000 0.000000 0.000000 
0.000000 0.000000 0.000000 

-0.000000 0.000000 0.000000 
0.000000 0.000000 0.000000 
0.000000 0.000000 0.000000 

-0.000000 -0.000000 0.000000 
0.000000 0.000000 0.000000 
0.000000 0.000000 0.000000 

-0.000000 0.000000 0.000000 
0.000000 0.000000 0.000000 
0.000000 0.000000 0.000000 

