# vtk DataFile Version 3.0 
vtk output 
ASCII 
DATASET UNSTRUCTURED_GRID 
POINTS 175 float 
-0.026061 -1.180191 0.000000 
-0.106992 -1.112136 0.000000 
-0.054870 -1.120368 0.000000 
-0.028809 -1.074485 0.000000 
-0.186430 -1.048060 0.000000 
-0.137056 -1.050586 0.000000 
-0.114311 -0.996939 0.000000 
-0.058186 -1.012605 0.000000 
-0.029377 -0.972427 0.000000 
-0.265318 -0.984904 0.000000 
-0.217198 -0.985704 0.000000 
-0.196633 -0.928407 0.000000 
-0.143120 -0.937116 0.000000 
-0.116563 -0.889848 0.000000 
-0.058945 -0.909493 0.000000 
-0.029568 -0.871373 0.000000 
-0.344206 -0.921749 0.000000 
-0.296791 -0.921741 0.000000 
-0.278030 -0.861799 0.000000 
-0.225992 -0.867665 0.000000 
-0.201664 -0.815548 0.000000 
-0.145749 -0.829022 0.000000 
-0.117890 -0.784679 0.000000 
-0.059328 -0.807385 0.000000 
-0.029759 -0.770319 0.000000 
-0.058559 -1.220942 0.000000 
-0.162226 -1.241784 0.000000 
-0.123292 -1.206167 0.000000 
-0.142917 -1.157183 0.000000 
-0.261851 -1.263941 0.000000 
-0.229092 -1.226914 0.000000 
-0.256854 -1.175682 0.000000 
-0.209613 -1.141570 0.000000 
-0.223062 -1.093996 0.000000 
-0.360414 -1.286241 0.000000 
-0.329787 -1.249118 0.000000 
-0.361761 -1.197316 0.000000 
-0.321587 -1.160907 0.000000 
-0.341985 -1.110673 0.000000 
-0.290702 -1.077874 0.000000 
-0.302189 -1.031139 0.000000 
-0.458977 -1.308541 0.000000 
-0.429420 -1.271466 0.000000 
-0.464588 -1.219425 0.000000 
-0.427556 -1.182397 0.000000 
-0.453135 -1.130882 0.000000 
-0.407738 -1.095567 0.000000 
-0.425037 -1.046139 0.000000 
-0.370772 -1.014510 0.000000 
-0.381315 -0.968282 0.000000 
-0.046960 -1.271757 0.000000 
-0.095301 -1.365803 0.000000 
-0.098873 -1.313156 0.000000 
-0.149405 -1.297958 0.000000 
-0.140093 -1.457507 0.000000 
-0.148617 -1.408809 0.000000 
-0.205981 -1.398571 0.000000 
-0.203197 -1.340368 0.000000 
-0.248777 -1.321222 0.000000 
-0.184111 -1.548471 0.000000 
-0.194039 -1.501379 0.000000 
-0.254475 -1.494080 0.000000 
-0.257893 -1.439970 0.000000 
-0.309886 -1.424598 0.000000 
-0.303554 -1.364053 0.000000 
-0.347255 -1.343895 0.000000 
-0.228129 -1.639434 0.000000 
-0.238687 -1.593210 0.000000 
-0.301302 -1.588258 0.000000 
-0.307162 -1.536219 0.000000 
-0.363386 -1.524098 0.000000 
-0.362692 -1.466587 0.000000 
-0.412122 -1.449293 0.000000 
-0.403017 -1.387147 0.000000 
-0.445733 -1.366568 0.000000 
-0.000000 -1.294372 0.000000 
0.043388 -1.390803 0.000000 
-0.000000 -1.360770 0.000000 
-0.043388 -1.390803 0.000000 
0.087158 -1.482999 0.000000 
0.043769 -1.459301 0.000000 
-0.000000 -1.497766 0.000000 
-0.043769 -1.459301 0.000000 
-0.087158 -1.482999 0.000000 
0.130831 -1.574129 0.000000 
0.087824 -1.552530 0.000000 
0.044436 -1.595230 0.000000 
-0.000000 -1.564165 0.000000 
-0.044436 -1.595230 0.000000 
-0.087824 -1.552530 0.000000 
-0.130831 -1.574129 0.000000 
0.174505 -1.665259 0.000000 
0.131782 -1.644692 0.000000 
0.088871 -1.690559 0.000000 
0.044532 -1.662695 0.000000 
-0.000000 -1.699095 0.000000 
-0.044532 -1.662695 0.000000 
-0.088871 -1.690559 0.000000 
-0.131782 -1.644692 0.000000 
-0.174505 -1.665259 0.000000 
0.046960 -1.271757 0.000000 
0.149405 -1.297958 0.000000 
0.098873 -1.313156 0.000000 
0.095301 -1.365803 0.000000 
0.248777 -1.321222 0.000000 
0.203197 -1.340368 0.000000 
0.205981 -1.398571 0.000000 
0.148617 -1.408809 0.000000 
0.140093 -1.457507 0.000000 
0.347255 -1.343895 0.000000 
0.303554 -1.364053 0.000000 
0.309886 -1.424598 0.000000 
0.257893 -1.439970 0.000000 
0.254475 -1.494080 0.000000 
0.194039 -1.501379 0.000000 
0.184111 -1.548471 0.000000 
0.445733 -1.366568 0.000000 
0.403017 -1.387147 0.000000 
0.412122 -1.449293 0.000000 
0.362692 -1.466587 0.000000 
0.363386 -1.524098 0.000000 
0.307162 -1.536219 0.000000 
0.301302 -1.588258 0.000000 
0.238687 -1.593210 0.000000 
0.228129 -1.639434 0.000000 
0.058559 -1.220942 0.000000 
0.142917 -1.157183 0.000000 
0.123292 -1.206167 0.000000 
0.162226 -1.241784 0.000000 
0.223062 -1.093996 0.000000 
0.209613 -1.141570 0.000000 
0.256854 -1.175682 0.000000 
0.229092 -1.226914 0.000000 
0.261851 -1.263941 0.000000 
0.302189 -1.031139 0.000000 
0.290702 -1.077874 0.000000 
0.341985 -1.110673 0.000000 
0.321587 -1.160907 0.000000 
0.361761 -1.197316 0.000000 
0.329787 -1.249118 0.000000 
0.360414 -1.286241 0.000000 
0.381315 -0.968282 0.000000 
0.370772 -1.014510 0.000000 
0.425037 -1.046139 0.000000 
0.407738 -1.095567 0.000000 
0.453135 -1.130882 0.000000 
0.427556 -1.182397 0.000000 
0.464588 -1.219425 0.000000 
0.429420 -1.271466 0.000000 
0.458977 -1.308541 0.000000 
0.026061 -1.180191 0.000000 
0.028809 -1.074485 0.000000 
0.054870 -1.120368 0.000000 
0.106992 -1.112136 0.000000 
0.029377 -0.972427 0.000000 
0.058186 -1.012605 0.000000 
0.114311 -0.996939 0.000000 
0.137056 -1.050586 0.000000 
0.186430 -1.048060 0.000000 
0.029568 -0.871373 0.000000 
0.058945 -0.909493 0.000000 
0.116563 -0.889848 0.000000 
0.143120 -0.937116 0.000000 
0.196633 -0.928407 0.000000 
0.217198 -0.985704 0.000000 
0.265318 -0.984904 0.000000 
0.029759 -0.770319 0.000000 
0.059328 -0.807385 0.000000 
0.117890 -0.784679 0.000000 
0.145749 -0.829022 0.000000 
0.201664 -0.815548 0.000000 
0.225992 -0.867665 0.000000 
0.278030 -0.861799 0.000000 
0.296791 -0.921741 0.000000 
0.344206 -0.921749 0.000000 
CELLS 175 350 
1 0 
1 1 
1 2 
1 3 
1 4 
1 5 
1 6 
1 7 
1 8 
1 9 
1 10 
1 11 
1 12 
1 13 
1 14 
1 15 
1 16 
1 17 
1 18 
1 19 
1 20 
1 21 
1 22 
1 23 
1 24 
1 25 
1 26 
1 27 
1 28 
1 29 
1 30 
1 31 
1 32 
1 33 
1 34 
1 35 
1 36 
1 37 
1 38 
1 39 
1 40 
1 41 
1 42 
1 43 
1 44 
1 45 
1 46 
1 47 
1 48 
1 49 
1 50 
1 51 
1 52 
1 53 
1 54 
1 55 
1 56 
1 57 
1 58 
1 59 
1 60 
1 61 
1 62 
1 63 
1 64 
1 65 
1 66 
1 67 
1 68 
1 69 
1 70 
1 71 
1 72 
1 73 
1 74 
1 75 
1 76 
1 77 
1 78 
1 79 
1 80 
1 81 
1 82 
1 83 
1 84 
1 85 
1 86 
1 87 
1 88 
1 89 
1 90 
1 91 
1 92 
1 93 
1 94 
1 95 
1 96 
1 97 
1 98 
1 99 
1 100 
1 101 
1 102 
1 103 
1 104 
1 105 
1 106 
1 107 
1 108 
1 109 
1 110 
1 111 
1 112 
1 113 
1 114 
1 115 
1 116 
1 117 
1 118 
1 119 
1 120 
1 121 
1 122 
1 123 
1 124 
1 125 
1 126 
1 127 
1 128 
1 129 
1 130 
1 131 
1 132 
1 133 
1 134 
1 135 
1 136 
1 137 
1 138 
1 139 
1 140 
1 141 
1 142 
1 143 
1 144 
1 145 
1 146 
1 147 
1 148 
1 149 
1 150 
1 151 
1 152 
1 153 
1 154 
1 155 
1 156 
1 157 
1 158 
1 159 
1 160 
1 161 
1 162 
1 163 
1 164 
1 165 
1 166 
1 167 
1 168 
1 169 
1 170 
1 171 
1 172 
1 173 
1 174 
CELL_TYPES 175 
1 
1 
1 
1 
1 
1 
1 
1 
1 
1 
1 
1 
1 
1 
1 
1 
1 
1 
1 
1 
1 
1 
1 
1 
1 
1 
1 
1 
1 
1 
1 
1 
1 
1 
1 
1 
1 
1 
1 
1 
1 
1 
1 
1 
1 
1 
1 
1 
1 
1 
1 
1 
1 
1 
1 
1 
1 
1 
1 
1 
1 
1 
1 
1 
1 
1 
1 
1 
1 
1 
1 
1 
1 
1 
1 
1 
1 
1 
1 
1 
1 
1 
1 
1 
1 
1 
1 
1 
1 
1 
1 
1 
1 
1 
1 
1 
1 
1 
1 
1 
1 
1 
1 
1 
1 
1 
1 
1 
1 
1 
1 
1 
1 
1 
1 
1 
1 
1 
1 
1 
1 
1 
1 
1 
1 
1 
1 
1 
1 
1 
1 
1 
1 
1 
1 
1 
1 
1 
1 
1 
1 
1 
1 
1 
1 
1 
1 
1 
1 
1 
1 
1 
1 
1 
1 
1 
1 
1 
1 
1 
1 
1 
1 
1 
1 
1 
1 
1 
1 
1 
1 
1 
1 
1 
1 
POINT_DATA 175 
VECTORS X_GC float 
-0.026061 -1.180191 0.000000 
-0.106992 -1.112136 0.000000 
-0.054870 -1.120368 0.000000 
-0.028809 -1.074485 0.000000 
-0.186430 -1.048060 0.000000 
-0.137056 -1.050586 0.000000 
-0.114311 -0.996939 0.000000 
-0.058186 -1.012605 0.000000 
-0.029377 -0.972427 0.000000 
-0.265318 -0.984904 0.000000 
-0.217198 -0.985704 0.000000 
-0.196633 -0.928407 0.000000 
-0.143120 -0.937116 0.000000 
-0.116563 -0.889848 0.000000 
-0.058945 -0.909493 0.000000 
-0.029568 -0.871373 0.000000 
-0.344206 -0.921749 0.000000 
-0.296791 -0.921741 0.000000 
-0.278030 -0.861799 0.000000 
-0.225992 -0.867665 0.000000 
-0.201664 -0.815548 0.000000 
-0.145749 -0.829022 0.000000 
-0.117890 -0.784679 0.000000 
-0.059328 -0.807385 0.000000 
-0.029759 -0.770319 0.000000 
-0.058559 -1.220942 0.000000 
-0.162226 -1.241784 0.000000 
-0.123292 -1.206167 0.000000 
-0.142917 -1.157183 0.000000 
-0.261851 -1.263941 0.000000 
-0.229092 -1.226914 0.000000 
-0.256854 -1.175682 0.000000 
-0.209613 -1.141570 0.000000 
-0.223062 -1.093996 0.000000 
-0.360414 -1.286241 0.000000 
-0.329787 -1.249118 0.000000 
-0.361761 -1.197316 0.000000 
-0.321587 -1.160907 0.000000 
-0.341985 -1.110673 0.000000 
-0.290702 -1.077874 0.000000 
-0.302189 -1.031139 0.000000 
-0.458977 -1.308541 0.000000 
-0.429420 -1.271466 0.000000 
-0.464588 -1.219425 0.000000 
-0.427556 -1.182397 0.000000 
-0.453135 -1.130882 0.000000 
-0.407738 -1.095567 0.000000 
-0.425037 -1.046139 0.000000 
-0.370772 -1.014510 0.000000 
-0.381315 -0.968282 0.000000 
-0.046960 -1.271757 0.000000 
-0.095301 -1.365803 0.000000 
-0.098873 -1.313156 0.000000 
-0.149405 -1.297958 0.000000 
-0.140093 -1.457507 0.000000 
-0.148617 -1.408809 0.000000 
-0.205981 -1.398571 0.000000 
-0.203197 -1.340368 0.000000 
-0.248777 -1.321222 0.000000 
-0.184111 -1.548471 0.000000 
-0.194039 -1.501379 0.000000 
-0.254475 -1.494080 0.000000 
-0.257893 -1.439970 0.000000 
-0.309886 -1.424598 0.000000 
-0.303554 -1.364053 0.000000 
-0.347255 -1.343895 0.000000 
-0.228129 -1.639434 0.000000 
-0.238687 -1.593210 0.000000 
-0.301302 -1.588258 0.000000 
-0.307162 -1.536219 0.000000 
-0.363386 -1.524098 0.000000 
-0.362692 -1.466587 0.000000 
-0.412122 -1.449293 0.000000 
-0.403017 -1.387147 0.000000 
-0.445733 -1.366568 0.000000 
-0.000000 -1.294372 0.000000 
0.043388 -1.390803 0.000000 
-0.000000 -1.360770 0.000000 
-0.043388 -1.390803 0.000000 
0.087158 -1.482999 0.000000 
0.043769 -1.459301 0.000000 
-0.000000 -1.497766 0.000000 
-0.043769 -1.459301 0.000000 
-0.087158 -1.482999 0.000000 
0.130831 -1.574129 0.000000 
0.087824 -1.552530 0.000000 
0.044436 -1.595230 0.000000 
-0.000000 -1.564165 0.000000 
-0.044436 -1.595230 0.000000 
-0.087824 -1.552530 0.000000 
-0.130831 -1.574129 0.000000 
0.174505 -1.665259 0.000000 
0.131782 -1.644692 0.000000 
0.088871 -1.690559 0.000000 
0.044532 -1.662695 0.000000 
-0.000000 -1.699095 0.000000 
-0.044532 -1.662695 0.000000 
-0.088871 -1.690559 0.000000 
-0.131782 -1.644692 0.000000 
-0.174505 -1.665259 0.000000 
0.046960 -1.271757 0.000000 
0.149405 -1.297958 0.000000 
0.098873 -1.313156 0.000000 
0.095301 -1.365803 0.000000 
0.248777 -1.321222 0.000000 
0.203197 -1.340368 0.000000 
0.205981 -1.398571 0.000000 
0.148617 -1.408809 0.000000 
0.140093 -1.457507 0.000000 
0.347255 -1.343895 0.000000 
0.303554 -1.364053 0.000000 
0.309886 -1.424598 0.000000 
0.257893 -1.439970 0.000000 
0.254475 -1.494080 0.000000 
0.194039 -1.501379 0.000000 
0.184111 -1.548471 0.000000 
0.445733 -1.366568 0.000000 
0.403017 -1.387147 0.000000 
0.412122 -1.449293 0.000000 
0.362692 -1.466587 0.000000 
0.363386 -1.524098 0.000000 
0.307162 -1.536219 0.000000 
0.301302 -1.588258 0.000000 
0.238687 -1.593210 0.000000 
0.228129 -1.639434 0.000000 
0.058559 -1.220942 0.000000 
0.142917 -1.157183 0.000000 
0.123292 -1.206167 0.000000 
0.162226 -1.241784 0.000000 
0.223062 -1.093996 0.000000 
0.209613 -1.141570 0.000000 
0.256854 -1.175682 0.000000 
0.229092 -1.226914 0.000000 
0.261851 -1.263941 0.000000 
0.302189 -1.031139 0.000000 
0.290702 -1.077874 0.000000 
0.341985 -1.110673 0.000000 
0.321587 -1.160907 0.000000 
0.361761 -1.197316 0.000000 
0.329787 -1.249118 0.000000 
0.360414 -1.286241 0.000000 
0.381315 -0.968282 0.000000 
0.370772 -1.014510 0.000000 
0.425037 -1.046139 0.000000 
0.407738 -1.095567 0.000000 
0.453135 -1.130882 0.000000 
0.427556 -1.182397 0.000000 
0.464588 -1.219425 0.000000 
0.429420 -1.271466 0.000000 
0.458977 -1.308541 0.000000 
0.026061 -1.180191 0.000000 
0.028809 -1.074485 0.000000 
0.054870 -1.120368 0.000000 
0.106992 -1.112136 0.000000 
0.029377 -0.972427 0.000000 
0.058186 -1.012605 0.000000 
0.114311 -0.996939 0.000000 
0.137056 -1.050586 0.000000 
0.186430 -1.048060 0.000000 
0.029568 -0.871373 0.000000 
0.058945 -0.909493 0.000000 
0.116563 -0.889848 0.000000 
0.143120 -0.937116 0.000000 
0.196633 -0.928407 0.000000 
0.217198 -0.985704 0.000000 
0.265318 -0.984904 0.000000 
0.029759 -0.770319 0.000000 
0.059328 -0.807385 0.000000 
0.117890 -0.784679 0.000000 
0.145749 -0.829022 0.000000 
0.201664 -0.815548 0.000000 
0.225992 -0.867665 0.000000 
0.278030 -0.861799 0.000000 
0.296791 -0.921741 0.000000 
0.344206 -0.921749 0.000000 
VECTORS X_EC float 
0.338794 0.432579 0.000000 
-0.609100 -0.486169 0.000000 
0.713312 -0.375028 0.000000 
0.374519 -0.994458 0.000000 
0.423588 0.648812 0.000000 
-0.218274 0.682915 0.000000 
-0.513962 -0.041324 0.000000 
0.756418 0.170162 0.000000 
0.381900 -0.372230 0.000000 
-0.550868 -0.203792 0.000000 
0.823577 -0.192996 0.000000 
0.556234 -0.966500 0.000000 
-0.139443 -0.848931 0.000000 
-0.484677 0.512944 0.000000 
0.766286 0.778159 0.000000 
0.384386 0.263539 0.000000 
0.474677 0.943605 0.000000 
-0.141715 0.943509 0.000000 
-0.385608 0.134281 0.000000 
0.937896 0.213476 0.000000 
0.621631 -0.490104 0.000000 
-0.105264 -0.308205 0.000000 
-0.467428 -0.906831 0.000000 
0.771260 -0.600303 0.000000 
0.386873 0.899308 0.000000 
0.761262 0.982714 0.000000 
0.108942 -0.735910 0.000000 
-0.397202 0.783251 0.000000 
-0.142083 0.121976 0.000000 
-0.595936 -0.436799 0.000000 
0.978194 -0.936665 0.000000 
-0.660903 0.371710 0.000000 
0.724964 -0.088810 0.000000 
0.899809 -0.731059 0.000000 
0.685384 -0.135747 0.000000 
0.287229 -0.636905 0.000000 
0.702895 0.663766 0.000000 
0.180633 0.172248 0.000000 
0.445811 -0.505912 0.000000 
-0.220880 -0.948698 0.000000 
-0.071546 0.420377 0.000000 
-0.033296 0.165305 0.000000 
-0.417537 -0.335204 0.000000 
0.039645 0.962233 0.000000 
-0.441768 0.462362 0.000000 
-0.109248 -0.233089 0.000000 
-0.699407 -0.709844 0.000000 
-0.474522 0.622877 0.000000 
0.820030 0.195883 0.000000 
0.957100 -0.428188 0.000000 
0.610485 -0.331280 0.000000 
-0.761092 0.938340 0.000000 
-0.714655 0.227602 0.000000 
-0.057734 0.022435 0.000000 
-0.178789 0.176344 0.000000 
-0.067979 -0.481082 0.000000 
0.677748 -0.619286 0.000000 
0.641556 0.594969 0.000000 
-0.765897 0.336490 0.000000 
0.393446 -0.595647 0.000000 
0.522510 0.768623 0.000000 
-0.691820 0.670079 0.000000 
-0.647393 -0.060404 0.000000 
0.028512 -0.267931 0.000000 
-0.053800 0.914709 0.000000 
0.514316 0.642578 0.000000 
0.965681 0.632362 0.000000 
-0.897068 0.008333 0.000000 
-0.083078 -0.058520 0.000000 
-0.006893 -0.761045 0.000000 
0.724017 -0.924677 0.000000 
0.714996 0.298919 0.000000 
-0.642413 0.065462 0.000000 
-0.760780 -0.773519 0.000000 
-0.205471 0.948666 0.000000 
0.000000 -0.025978 0.000000 
-0.564049 -0.724165 0.000000 
0.000000 0.870399 0.000000 
0.564049 -0.724165 0.000000 
0.866949 0.520490 0.000000 
-0.569003 0.200559 0.000000 
0.000000 0.719847 0.000000 
0.569003 0.200559 0.000000 
-0.866949 0.520490 0.000000 
0.299194 -0.249260 0.000000 
0.858290 -0.540844 0.000000 
-0.577662 0.035602 0.000000 
0.000000 -0.383776 0.000000 
0.577662 0.035602 0.000000 
-0.858290 -0.540844 0.000000 
-0.299194 -0.249260 0.000000 
-0.268560 0.980990 0.000000 
0.286830 0.703348 0.000000 
0.844677 -0.677453 0.000000 
-0.578910 0.946384 0.000000 
0.000000 -0.562212 0.000000 
0.578910 0.946384 0.000000 
-0.844677 -0.677453 0.000000 
-0.286830 0.703348 0.000000 
0.268560 0.980990 0.000000 
-0.610485 -0.331280 0.000000 
0.057734 0.022435 0.000000 
0.714655 0.227602 0.000000 
0.761092 0.938340 0.000000 
0.765897 0.336490 0.000000 
-0.641556 0.594969 0.000000 
-0.677748 -0.619286 0.000000 
0.067979 -0.481082 0.000000 
0.178789 0.176344 0.000000 
-0.514316 0.642578 0.000000 
0.053800 0.914709 0.000000 
-0.028512 -0.267931 0.000000 
0.647393 -0.060404 0.000000 
0.691820 0.670079 0.000000 
-0.522510 0.768623 0.000000 
-0.393446 -0.595647 0.000000 
0.205471 0.948666 0.000000 
0.760780 -0.773519 0.000000 
0.642413 0.065462 0.000000 
-0.714996 0.298919 0.000000 
-0.724017 -0.924677 0.000000 
0.006894 -0.761045 0.000000 
0.083078 -0.058520 0.000000 
0.897068 0.008333 0.000000 
-0.965681 0.632362 0.000000 
-0.761262 0.982714 0.000000 
0.142083 0.121976 0.000000 
0.397202 0.783251 0.000000 
-0.108942 -0.735910 0.000000 
-0.899809 -0.731058 0.000000 
-0.724964 -0.088810 0.000000 
0.660903 0.371710 0.000000 
-0.978194 -0.936665 0.000000 
0.595936 -0.436799 0.000000 
0.071546 0.420377 0.000000 
0.220880 -0.948698 0.000000 
-0.445811 -0.505912 0.000000 
-0.180633 0.172248 0.000000 
-0.702895 0.663766 0.000000 
-0.287229 -0.636905 0.000000 
-0.685384 -0.135747 0.000000 
-0.957100 -0.428188 0.000000 
-0.820030 0.195883 0.000000 
0.474522 0.622877 0.000000 
0.699407 -0.709844 0.000000 
0.109248 -0.233089 0.000000 
0.441768 0.462362 0.000000 
-0.039645 0.962233 0.000000 
0.417537 -0.335204 0.000000 
0.033296 0.165305 0.000000 
-0.338794 0.432579 0.000000 
-0.374519 -0.994458 0.000000 
-0.713312 -0.375028 0.000000 
0.609100 -0.486169 0.000000 
-0.381900 -0.372230 0.000000 
-0.756418 0.170162 0.000000 
0.513962 -0.041324 0.000000 
0.218274 0.682915 0.000000 
-0.423588 0.648812 0.000000 
-0.384386 0.263539 0.000000 
-0.766286 0.778159 0.000000 
0.484677 0.512944 0.000000 
0.139443 -0.848931 0.000000 
-0.556234 -0.966500 0.000000 
-0.823577 -0.192996 0.000000 
0.550868 -0.203792 0.000000 
-0.386873 0.899308 0.000000 
-0.771260 -0.600303 0.000000 
0.467428 -0.906831 0.000000 
0.105264 -0.308205 0.000000 
-0.621631 -0.490104 0.000000 
-0.937896 0.213476 0.000000 
0.385608 0.134281 0.000000 
0.141715 0.943509 0.000000 
-0.474677 0.943605 0.000000 
CELL_DATA 175 
SCALARS MASS float 
LOOKUP_TABLE default 
0.078183 
0.086427 
0.094672 
0.086427 
0.088131 
0.092111 
0.085854 
0.092111 
0.088131 
0.088705 
0.091000 
0.086983 
0.091556 
0.086983 
0.091000 
0.088705 
0.089278 
0.091574 
0.089278 
0.092722 
0.089278 
0.092722 
0.089278 
0.091574 
0.089278 
0.078183 
0.086427 
0.094672 
0.086427 
0.088131 
0.092111 
0.085854 
0.092111 
0.088131 
0.088705 
0.091000 
0.086983 
0.091556 
0.086983 
0.091000 
0.088705 
0.089278 
0.091574 
0.089278 
0.092722 
0.089278 
0.092722 
0.089278 
0.091574 
0.089278 
0.078183 
0.086427 
0.094672 
0.086427 
0.088131 
0.092111 
0.085854 
0.092111 
0.088131 
0.088705 
0.091000 
0.086983 
0.091556 
0.086983 
0.091000 
0.088705 
0.089278 
0.091574 
0.089278 
0.092722 
0.089278 
0.092722 
0.089278 
0.091574 
0.089278 
0.078183 
0.086427 
0.094672 
0.086427 
0.088131 
0.092111 
0.085854 
0.092111 
0.088131 
0.088705 
0.091000 
0.086983 
0.091556 
0.086983 
0.091000 
0.088705 
0.089278 
0.091574 
0.089278 
0.092722 
0.089278 
0.092722 
0.089278 
0.091574 
0.089278 
0.078183 
0.086427 
0.094672 
0.086427 
0.088131 
0.092111 
0.085854 
0.092111 
0.088131 
0.088705 
0.091000 
0.086983 
0.091556 
0.086983 
0.091000 
0.088705 
0.089278 
0.091574 
0.089278 
0.092722 
0.089278 
0.092722 
0.089278 
0.091574 
0.089278 
0.078183 
0.086427 
0.094672 
0.086427 
0.088131 
0.092111 
0.085854 
0.092111 
0.088131 
0.088705 
0.091000 
0.086983 
0.091556 
0.086983 
0.091000 
0.088705 
0.089278 
0.091574 
0.089278 
0.092722 
0.089278 
0.092722 
0.089278 
0.091574 
0.089278 
0.078183 
0.086427 
0.094672 
0.086427 
0.088131 
0.092111 
0.085854 
0.092111 
0.088131 
0.088705 
0.091000 
0.086983 
0.091556 
0.086983 
0.091000 
0.088705 
0.089278 
0.091574 
0.089278 
0.092722 
0.089278 
0.092722 
0.089278 
0.091574 
0.089278 
SCALARS MASS float 
LOOKUP_TABLE default 
0.078183 
0.086427 
0.094672 
0.086427 
0.088131 
0.092111 
0.085854 
0.092111 
0.088131 
0.088705 
0.091000 
0.086983 
0.091556 
0.086983 
0.091000 
0.088705 
0.089278 
0.091574 
0.089278 
0.092722 
0.089278 
0.092722 
0.089278 
0.091574 
0.089278 
0.078183 
0.086427 
0.094672 
0.086427 
0.088131 
0.092111 
0.085854 
0.092111 
0.088131 
0.088705 
0.091000 
0.086983 
0.091556 
0.086983 
0.091000 
0.088705 
0.089278 
0.091574 
0.089278 
0.092722 
0.089278 
0.092722 
0.089278 
0.091574 
0.089278 
0.078183 
0.086427 
0.094672 
0.086427 
0.088131 
0.092111 
0.085854 
0.092111 
0.088131 
0.088705 
0.091000 
0.086983 
0.091556 
0.086983 
0.091000 
0.088705 
0.089278 
0.091574 
0.089278 
0.092722 
0.089278 
0.092722 
0.089278 
0.091574 
0.089278 
0.078183 
0.086427 
0.094672 
0.086427 
0.088131 
0.092111 
0.085854 
0.092111 
0.088131 
0.088705 
0.091000 
0.086983 
0.091556 
0.086983 
0.091000 
0.088705 
0.089278 
0.091574 
0.089278 
0.092722 
0.089278 
0.092722 
0.089278 
0.091574 
0.089278 
0.078183 
0.086427 
0.094672 
0.086427 
0.088131 
0.092111 
0.085854 
0.092111 
0.088131 
0.088705 
0.091000 
0.086983 
0.091556 
0.086983 
0.091000 
0.088705 
0.089278 
0.091574 
0.089278 
0.092722 
0.089278 
0.092722 
0.089278 
0.091574 
0.089278 
0.078183 
0.086427 
0.094672 
0.086427 
0.088131 
0.092111 
0.085854 
0.092111 
0.088131 
0.088705 
0.091000 
0.086983 
0.091556 
0.086983 
0.091000 
0.088705 
0.089278 
0.091574 
0.089278 
0.092722 
0.089278 
0.092722 
0.089278 
0.091574 
0.089278 
0.078183 
0.086427 
0.094672 
0.086427 
0.088131 
0.092111 
0.085854 
0.092111 
0.088131 
0.088705 
0.091000 
0.086983 
0.091556 
0.086983 
0.091000 
0.088705 
0.089278 
0.091574 
0.089278 
0.092722 
0.089278 
0.092722 
0.089278 
0.091574 
0.089278 
SCALARS DENSITY float 
LOOKUP_TABLE default 
20.000000 
20.000000 
20.000000 
20.000000 
20.000000 
20.000000 
20.000000 
20.000000 
20.000000 
20.000000 
20.000000 
20.000000 
20.000000 
20.000000 
20.000000 
20.000000 
20.000000 
20.000000 
20.000000 
20.000000 
20.000000 
20.000000 
20.000000 
20.000000 
20.000000 
20.000000 
20.000000 
20.000000 
20.000000 
20.000000 
20.000000 
20.000000 
20.000000 
20.000000 
20.000000 
20.000000 
20.000000 
20.000000 
20.000000 
20.000000 
20.000000 
20.000000 
20.000000 
20.000000 
20.000000 
20.000000 
20.000000 
20.000000 
20.000000 
20.000000 
20.000000 
20.000000 
20.000000 
20.000000 
20.000000 
20.000000 
20.000000 
20.000000 
20.000000 
20.000000 
20.000000 
20.000000 
20.000000 
20.000000 
20.000000 
20.000000 
20.000000 
20.000000 
20.000000 
20.000000 
20.000000 
20.000000 
20.000000 
20.000000 
20.000000 
20.000000 
20.000000 
20.000000 
20.000000 
20.000000 
20.000000 
20.000000 
20.000000 
20.000000 
20.000000 
20.000000 
20.000000 
20.000000 
20.000000 
20.000000 
20.000000 
20.000000 
20.000000 
20.000000 
20.000000 
20.000000 
20.000000 
20.000000 
20.000000 
20.000000 
20.000000 
20.000000 
20.000000 
20.000000 
20.000000 
20.000000 
20.000000 
20.000000 
20.000000 
20.000000 
20.000000 
20.000000 
20.000000 
20.000000 
20.000000 
20.000000 
20.000000 
20.000000 
20.000000 
20.000000 
20.000000 
20.000000 
20.000000 
20.000000 
20.000000 
20.000000 
20.000000 
20.000000 
20.000000 
20.000000 
20.000000 
20.000000 
20.000000 
20.000000 
20.000000 
20.000000 
20.000000 
20.000000 
20.000000 
20.000000 
20.000000 
20.000000 
20.000000 
20.000000 
20.000000 
20.000000 
20.000000 
20.000000 
20.000000 
20.000000 
20.000000 
20.000000 
20.000000 
20.000000 
20.000000 
20.000000 
20.000000 
20.000000 
20.000000 
20.000000 
20.000000 
20.000000 
20.000000 
20.000000 
20.000000 
20.000000 
20.000000 
20.000000 
20.000000 
20.000000 
20.000000 
20.000000 
20.000000 
20.000000 
20.000000 
SCALARS ELEM_i float 
LOOKUP_TABLE default 
174 
201 
174 
174 
202 
202 
202 
175 
175 
229 
202 
202 
202 
203 
176 
176 
230 
230 
230 
203 
203 
203 
203 
176 
177 
174 
200 
201 
201 
227 
200 
228 
201 
201 
227 
227 
228 
228 
228 
228 
229 
254 
254 
255 
255 
255 
255 
256 
229 
229 
173 
200 
200 
200 
199 
199 
199 
200 
227 
198 
199 
226 
226 
226 
227 
227 
198 
225 
225 
225 
225 
226 
253 
253 
254 
173 
172 
173 
172 
145 
172 
172 
172 
199 
144 
144 
171 
171 
171 
198 
198 
144 
144 
143 
171 
170 
171 
197 
198 
198 
173 
146 
146 
146 
119 
146 
145 
145 
145 
119 
119 
118 
118 
118 
145 
144 
92 
91 
91 
118 
117 
117 
117 
117 
144 
174 
147 
147 
146 
147 
147 
120 
146 
119 
121 
120 
120 
120 
120 
119 
119 
121 
121 
94 
93 
93 
93 
93 
92 
92 
174 
174 
174 
147 
175 
175 
148 
148 
148 
176 
176 
149 
148 
148 
148 
121 
177 
176 
149 
149 
149 
149 
122 
122 
122 
VECTORS VELOCITY float 
0.000000 -4.920696 0.000000 
0.000000 -4.920696 0.000000 
0.000000 -4.920696 0.000000 
-0.000000 -4.920696 0.000000 
-0.000000 -4.920696 0.000000 
-0.000000 -4.920696 0.000000 
-0.000000 -4.920696 0.000000 
-0.000000 -4.920696 0.000000 
0.000000 -4.920696 0.000000 
-0.000000 -4.920696 0.000000 
-0.000000 -4.920696 0.000000 
-0.000000 -4.920696 0.000000 
0.000000 -4.920696 0.000000 
0.000000 -4.920696 0.000000 
0.000000 -4.920696 0.000000 
-0.000000 -4.920696 0.000000 
0.000000 -4.920696 0.000000 
0.000000 -4.920696 0.000000 
-0.000000 -4.920696 0.000000 
0.000000 -4.920696 0.000000 
0.000000 -4.920696 0.000000 
0.000000 -4.920696 0.000000 
0.000000 -4.920696 0.000000 
-0.000000 -4.920696 0.000000 
-0.000000 -4.920696 0.000000 
0.000000 -4.920696 0.000000 
-0.000000 -4.920696 0.000000 
0.000000 -4.920696 0.000000 
0.000000 -4.920696 0.000000 
0.000000 -4.920696 0.000000 
0.000000 -4.920696 0.000000 
-0.000000 -4.920696 0.000000 
-0.000000 -4.920696 0.000000 
-0.000000 -4.920696 0.000000 
-0.000000 -4.920696 0.000000 
0.000000 -4.920696 0.000000 
0.000000 -4.920696 0.000000 
-0.000000 -4.920696 0.000000 
-0.000000 -4.920696 0.000000 
-0.000000 -4.920696 0.000000 
-0.000000 -4.920696 0.000000 
0.000000 -4.920696 0.000000 
0.000000 -4.920696 0.000000 
-0.000000 -4.920696 0.000000 
0.000000 -4.920696 0.000000 
0.000000 -4.920696 0.000000 
-0.000000 -4.920696 0.000000 
0.000000 -4.920696 0.000000 
-0.000000 -4.920696 0.000000 
-0.000000 -4.920696 0.000000 
-0.000000 -4.920696 0.000000 
0.000000 -4.920696 0.000000 
-0.000000 -4.920696 0.000000 
0.000000 -4.920696 0.000000 
-0.000000 -4.920696 0.000000 
-0.000000 -4.920696 0.000000 
-0.000000 -4.920696 0.000000 
0.000000 -4.920696 0.000000 
0.000000 -4.920696 0.000000 
0.000000 -4.920696 0.000000 
-0.000000 -4.920696 0.000000 
-0.000000 -4.920696 0.000000 
-0.000000 -4.920696 0.000000 
-0.000000 -4.920696 0.000000 
-0.000000 -4.920696 0.000000 
-0.000000 -4.920696 0.000000 
0.000000 -4.920696 0.000000 
0.000000 -4.920696 0.000000 
-0.000000 -4.920696 0.000000 
-0.000000 -4.920696 0.000000 
-0.000000 -4.920696 0.000000 
0.000000 -4.920696 0.000000 
0.000000 -4.920696 0.000000 
-0.000000 -4.920696 0.000000 
-0.000000 -4.920696 0.000000 
-0.000000 -4.920696 0.000000 
-0.000000 -4.920696 0.000000 
-0.000000 -4.920696 0.000000 
-0.000000 -4.920696 0.000000 
0.000000 -4.920696 0.000000 
0.000000 -4.920696 0.000000 
-0.000000 -4.920696 0.000000 
-0.000000 -4.920696 0.000000 
-0.000000 -4.920696 0.000000 
-0.000000 -4.920696 0.000000 
-0.000000 -4.920696 0.000000 
-0.000000 -4.920696 0.000000 
-0.000000 -4.920696 0.000000 
-0.000000 -4.920696 0.000000 
-0.000000 -4.920696 0.000000 
-0.000000 -4.920696 0.000000 
0.000000 -4.920696 0.000000 
-0.000000 -4.920696 0.000000 
0.000000 -4.920696 0.000000 
-0.000000 -4.920696 0.000000 
0.000000 -4.920696 0.000000 
-0.000000 -4.920696 0.000000 
0.000000 -4.920696 0.000000 
-0.000000 -4.920696 0.000000 
-0.000000 -4.920696 0.000000 
-0.000000 -4.920696 0.000000 
0.000000 -4.920696 0.000000 
-0.000000 -4.920696 0.000000 
-0.000000 -4.920696 0.000000 
0.000000 -4.920696 0.000000 
0.000000 -4.920696 0.000000 
0.000000 -4.920696 0.000000 
0.000000 -4.920696 0.000000 
0.000000 -4.920696 0.000000 
0.000000 -4.920696 0.000000 
0.000000 -4.920696 0.000000 
0.000000 -4.920696 0.000000 
0.000000 -4.920696 0.000000 
0.000000 -4.920696 0.000000 
0.000000 -4.920696 0.000000 
0.000000 -4.920696 0.000000 
0.000000 -4.920696 0.000000 
0.000000 -4.920696 0.000000 
0.000000 -4.920696 0.000000 
-0.000000 -4.920696 0.000000 
-0.000000 -4.920696 0.000000 
-0.000000 -4.920696 0.000000 
0.000000 -4.920696 0.000000 
0.000000 -4.920696 0.000000 
-0.000000 -4.920696 0.000000 
0.000000 -4.920696 0.000000 
0.000000 -4.920696 0.000000 
0.000000 -4.920696 0.000000 
0.000000 -4.920696 0.000000 
-0.000000 -4.920696 0.000000 
0.000000 -4.920696 0.000000 
-0.000000 -4.920696 0.000000 
0.000000 -4.920696 0.000000 
0.000000 -4.920696 0.000000 
0.000000 -4.920696 0.000000 
0.000000 -4.920696 0.000000 
0.000000 -4.920696 0.000000 
0.000000 -4.920696 0.000000 
0.000000 -4.920696 0.000000 
0.000000 -4.920696 0.000000 
0.000000 -4.920696 0.000000 
-0.000000 -4.920696 0.000000 
-0.000000 -4.920696 0.000000 
0.000000 -4.920696 0.000000 
0.000000 -4.920696 0.000000 
-0.000000 -4.920696 0.000000 
-0.000000 -4.920696 0.000000 
-0.000000 -4.920696 0.000000 
0.000000 -4.920696 0.000000 
0.000000 -4.920696 0.000000 
0.000000 -4.920696 0.000000 
-0.000000 -4.920696 0.000000 
-0.000000 -4.920696 0.000000 
-0.000000 -4.920696 0.000000 
0.000000 -4.920696 0.000000 
0.000000 -4.920696 0.000000 
0.000000 -4.920696 0.000000 
-0.000000 -4.920696 0.000000 
0.000000 -4.920696 0.000000 
-0.000000 -4.920696 0.000000 
0.000000 -4.920696 0.000000 
-0.000000 -4.920696 0.000000 
0.000000 -4.920696 0.000000 
-0.000000 -4.920696 0.000000 
0.000000 -4.920696 0.000000 
0.000000 -4.920696 0.000000 
-0.000000 -4.920696 0.000000 
0.000000 -4.920696 0.000000 
0.000000 -4.920696 0.000000 
-0.000000 -4.920696 0.000000 
0.000000 -4.920696 0.000000 
-0.000000 -4.920696 0.000000 
0.000000 -4.920696 0.000000 
0.000000 -4.920696 0.000000 
0.000000 -4.920696 0.000000 
TENSORS STRESS float 
-0.000000 -0.000000 0.000000 
0.000000 -0.000000 0.000000 
0.000000 0.000000 0.000000 

0.000000 -0.000000 0.000000 
0.000000 0.000000 0.000000 
0.000000 0.000000 0.000000 

-0.000000 0.000000 0.000000 
0.000000 -0.000000 0.000000 
0.000000 0.000000 0.000000 

-0.000000 0.000000 0.000000 
0.000000 -0.000000 0.000000 
0.000000 0.000000 0.000000 

-0.000000 -0.000000 0.000000 
0.000000 -0.000000 0.000000 
0.000000 0.000000 0.000000 

-0.000000 -0.000000 0.000000 
0.000000 0.000000 0.000000 
0.000000 0.000000 0.000000 

-0.000000 -0.000000 0.000000 
0.000000 0.000000 0.000000 
0.000000 0.000000 0.000000 

0.000000 0.000000 0.000000 
0.000000 -0.000000 0.000000 
0.000000 0.000000 0.000000 

0.000000 0.000000 0.000000 
0.000000 -0.000000 0.000000 
0.000000 0.000000 0.000000 

-0.000000 0.000000 0.000000 
0.000000 -0.000000 0.000000 
0.000000 0.000000 0.000000 

-0.000000 0.000000 0.000000 
0.000000 -0.000000 0.000000 
0.000000 0.000000 0.000000 

-0.000000 0.000000 0.000000 
0.000000 0.000000 0.000000 
0.000000 0.000000 0.000000 

-0.000000 0.000000 0.000000 
0.000000 -0.000000 0.000000 
0.000000 0.000000 0.000000 

-0.000000 0.000000 0.000000 
0.000000 0.000000 0.000000 
0.000000 0.000000 0.000000 

0.000000 -0.000000 0.000000 
0.000000 0.000000 0.000000 
0.000000 0.000000 0.000000 

0.000000 0.000000 0.000000 
0.000000 0.000000 0.000000 
0.000000 0.000000 0.000000 

0.000000 -0.000000 0.000000 
0.000000 -0.000000 0.000000 
0.000000 0.000000 0.000000 

0.000000 -0.000000 0.000000 
0.000000 -0.000000 0.000000 
0.000000 0.000000 0.000000 

0.000000 -0.000000 0.000000 
0.000000 0.000000 0.000000 
0.000000 0.000000 0.000000 

-0.000000 -0.000000 0.000000 
0.000000 -0.000000 0.000000 
0.000000 0.000000 0.000000 

0.000000 0.000000 0.000000 
0.000000 0.000000 0.000000 
0.000000 0.000000 0.000000 

0.000000 -0.000000 0.000000 
0.000000 0.000000 0.000000 
0.000000 0.000000 0.000000 

0.000000 -0.000000 0.000000 
0.000000 0.000000 0.000000 
0.000000 0.000000 0.000000 

0.000000 -0.000000 0.000000 
0.000000 0.000000 0.000000 
0.000000 0.000000 0.000000 

-0.000000 -0.000000 0.000000 
0.000000 -0.000000 0.000000 
0.000000 0.000000 0.000000 

-0.000000 0.000000 0.000000 
0.000000 -0.000000 0.000000 
0.000000 0.000000 0.000000 

0.000000 0.000000 0.000000 
0.000000 0.000000 0.000000 
0.000000 0.000000 0.000000 

0.000000 0.000000 0.000000 
0.000000 0.000000 0.000000 
0.000000 0.000000 0.000000 

-0.000000 0.000000 0.000000 
0.000000 -0.000000 0.000000 
0.000000 0.000000 0.000000 

-0.000000 0.000000 0.000000 
0.000000 -0.000000 0.000000 
0.000000 0.000000 0.000000 

0.000000 0.000000 0.000000 
0.000000 -0.000000 0.000000 
0.000000 0.000000 0.000000 

-0.000000 0.000000 0.000000 
0.000000 -0.000000 0.000000 
0.000000 0.000000 0.000000 

-0.000000 -0.000000 0.000000 
0.000000 -0.000000 0.000000 
0.000000 0.000000 0.000000 

-0.000000 0.000000 0.000000 
0.000000 -0.000000 0.000000 
0.000000 0.000000 0.000000 

0.000000 0.000000 0.000000 
0.000000 0.000000 0.000000 
0.000000 0.000000 0.000000 

0.000000 0.000000 0.000000 
0.000000 0.000000 0.000000 
0.000000 0.000000 0.000000 

-0.000000 -0.000000 0.000000 
0.000000 -0.000000 0.000000 
0.000000 0.000000 0.000000 

-0.000000 0.000000 0.000000 
0.000000 -0.000000 0.000000 
0.000000 0.000000 0.000000 

0.000000 0.000000 0.000000 
0.000000 0.000000 0.000000 
0.000000 0.000000 0.000000 

0.000000 0.000000 0.000000 
0.000000 -0.000000 0.000000 
0.000000 0.000000 0.000000 

0.000000 0.000000 0.000000 
0.000000 0.000000 0.000000 
0.000000 0.000000 0.000000 

-0.000000 0.000000 0.000000 
0.000000 -0.000000 0.000000 
0.000000 0.000000 0.000000 

0.000000 0.000000 0.000000 
0.000000 0.000000 0.000000 
0.000000 0.000000 0.000000 

0.000000 0.000000 0.000000 
0.000000 -0.000000 0.000000 
0.000000 0.000000 0.000000 

0.000000 0.000000 0.000000 
0.000000 0.000000 0.000000 
0.000000 0.000000 0.000000 

0.000000 0.000000 0.000000 
0.000000 -0.000000 0.000000 
0.000000 0.000000 0.000000 

0.000000 0.000000 0.000000 
0.000000 -0.000000 0.000000 
0.000000 0.000000 0.000000 

0.000000 0.000000 0.000000 
0.000000 0.000000 0.000000 
0.000000 0.000000 0.000000 

-0.000000 -0.000000 0.000000 
0.000000 -0.000000 0.000000 
0.000000 0.000000 0.000000 

-0.000000 0.000000 0.000000 
0.000000 -0.000000 0.000000 
0.000000 0.000000 0.000000 

0.000000 0.000000 0.000000 
0.000000 0.000000 0.000000 
0.000000 0.000000 0.000000 

-0.000000 0.000000 0.000000 
0.000000 -0.000000 0.000000 
0.000000 0.000000 0.000000 

0.000000 -0.000000 0.000000 
0.000000 0.000000 0.000000 
0.000000 0.000000 0.000000 

0.000000 0.000000 0.000000 
0.000000 0.000000 0.000000 
0.000000 0.000000 0.000000 

-0.000000 -0.000000 0.000000 
0.000000 -0.000000 0.000000 
0.000000 0.000000 0.000000 

-0.000000 -0.000000 0.000000 
0.000000 -0.000000 0.000000 
0.000000 0.000000 0.000000 

0.000000 -0.000000 0.000000 
0.000000 0.000000 0.000000 
0.000000 0.000000 0.000000 

-0.000000 0.000000 0.000000 
0.000000 -0.000000 0.000000 
0.000000 0.000000 0.000000 

0.000000 0.000000 0.000000 
0.000000 -0.000000 0.000000 
0.000000 0.000000 0.000000 

0.000000 0.000000 0.000000 
0.000000 -0.000000 0.000000 
0.000000 0.000000 0.000000 

0.000000 0.000000 0.000000 
0.000000 -0.000000 0.000000 
0.000000 0.000000 0.000000 

0.000000 0.000000 0.000000 
0.000000 -0.000000 0.000000 
0.000000 0.000000 0.000000 

-0.000000 0.000000 0.000000 
0.000000 0.000000 0.000000 
0.000000 0.000000 0.000000 

-0.000000 -0.000000 0.000000 
0.000000 -0.000000 0.000000 
0.000000 0.000000 0.000000 

-0.000000 0.000000 0.000000 
0.000000 -0.000000 0.000000 
0.000000 0.000000 0.000000 

-0.000000 0.000000 0.000000 
0.000000 -0.000000 0.000000 
0.000000 0.000000 0.000000 

0.000000 -0.000000 0.000000 
0.000000 0.000000 0.000000 
0.000000 0.000000 0.000000 

-0.000000 0.000000 0.000000 
0.000000 -0.000000 0.000000 
0.000000 0.000000 0.000000 

-0.000000 0.000000 0.000000 
0.000000 -0.000000 0.000000 
0.000000 0.000000 0.000000 

0.000000 0.000000 0.000000 
0.000000 -0.000000 0.000000 
0.000000 0.000000 0.000000 

0.000000 0.000000 0.000000 
0.000000 -0.000000 0.000000 
0.000000 0.000000 0.000000 

-0.000000 0.000000 0.000000 
0.000000 -0.000000 0.000000 
0.000000 0.000000 0.000000 

0.000000 0.000000 0.000000 
0.000000 0.000000 0.000000 
0.000000 0.000000 0.000000 

-0.000000 -0.000000 0.000000 
0.000000 -0.000000 0.000000 
0.000000 0.000000 0.000000 

0.000000 -0.000000 0.000000 
0.000000 0.000000 0.000000 
0.000000 0.000000 0.000000 

-0.000000 0.000000 0.000000 
0.000000 -0.000000 0.000000 
0.000000 0.000000 0.000000 

0.000000 -0.000000 0.000000 
0.000000 -0.000000 0.000000 
0.000000 0.000000 0.000000 

0.000000 0.000000 0.000000 
0.000000 -0.000000 0.000000 
0.000000 0.000000 0.000000 

0.000000 -0.000000 0.000000 
0.000000 0.000000 0.000000 
0.000000 0.000000 0.000000 

-0.000000 -0.000000 0.000000 
0.000000 -0.000000 0.000000 
0.000000 0.000000 0.000000 

0.000000 -0.000000 0.000000 
0.000000 0.000000 0.000000 
0.000000 0.000000 0.000000 

0.000000 -0.000000 0.000000 
0.000000 0.000000 0.000000 
0.000000 0.000000 0.000000 

0.000000 -0.000000 0.000000 
0.000000 0.000000 0.000000 
0.000000 0.000000 0.000000 

0.000000 -0.000000 0.000000 
0.000000 0.000000 0.000000 
0.000000 0.000000 0.000000 

-0.000000 -0.000000 0.000000 
0.000000 -0.000000 0.000000 
0.000000 0.000000 0.000000 

-0.000000 0.000000 0.000000 
0.000000 0.000000 0.000000 
0.000000 0.000000 0.000000 

0.000000 -0.000000 0.000000 
0.000000 0.000000 0.000000 
0.000000 0.000000 0.000000 

-0.000000 -0.000000 0.000000 
0.000000 -0.000000 0.000000 
0.000000 0.000000 0.000000 

0.000000 0.000000 0.000000 
0.000000 0.000000 0.000000 
0.000000 0.000000 0.000000 

0.000000 0.000000 0.000000 
0.000000 -0.000000 0.000000 
0.000000 0.000000 0.000000 

0.000000 0.000000 0.000000 
0.000000 0.000000 0.000000 
0.000000 0.000000 0.000000 

-0.000000 -0.000000 0.000000 
0.000000 -0.000000 0.000000 
0.000000 0.000000 0.000000 

-0.000000 -0.000000 0.000000 
0.000000 -0.000000 0.000000 
0.000000 0.000000 0.000000 

0.000000 0.000000 0.000000 
0.000000 0.000000 0.000000 
0.000000 0.000000 0.000000 

0.000000 0.000000 0.000000 
0.000000 -0.000000 0.000000 
0.000000 0.000000 0.000000 

0.000000 0.000000 0.000000 
0.000000 0.000000 0.000000 
0.000000 0.000000 0.000000 

0.000000 0.000000 0.000000 
0.000000 -0.000000 0.000000 
0.000000 0.000000 0.000000 

0.000000 -0.000000 0.000000 
0.000000 0.000000 0.000000 
0.000000 0.000000 0.000000 

0.000000 -0.000000 0.000000 
0.000000 -0.000000 0.000000 
0.000000 0.000000 0.000000 

0.000000 -0.000000 0.000000 
0.000000 0.000000 0.000000 
0.000000 0.000000 0.000000 

-0.000000 -0.000000 0.000000 
0.000000 -0.000000 0.000000 
0.000000 0.000000 0.000000 

-0.000000 0.000000 0.000000 
0.000000 -0.000000 0.000000 
0.000000 0.000000 0.000000 

0.000000 0.000000 0.000000 
0.000000 0.000000 0.000000 
0.000000 0.000000 0.000000 

0.000000 -0.000000 0.000000 
0.000000 0.000000 0.000000 
0.000000 0.000000 0.000000 

-0.000000 -0.000000 0.000000 
0.000000 0.000000 0.000000 
0.000000 0.000000 0.000000 

0.000000 -0.000000 0.000000 
0.000000 0.000000 0.000000 
0.000000 0.000000 0.000000 

-0.000000 -0.000000 0.000000 
0.000000 0.000000 0.000000 
0.000000 0.000000 0.000000 

-0.000000 -0.000000 0.000000 
0.000000 0.000000 0.000000 
0.000000 0.000000 0.000000 

0.000000 -0.000000 0.000000 
0.000000 0.000000 0.000000 
0.000000 0.000000 0.000000 

-0.000000 0.000000 0.000000 
0.000000 -0.000000 0.000000 
0.000000 0.000000 0.000000 

-0.000000 0.000000 0.000000 
0.000000 0.000000 0.000000 
0.000000 0.000000 0.000000 

-0.000000 0.000000 0.000000 
0.000000 -0.000000 0.000000 
0.000000 0.000000 0.000000 

-0.000000 0.000000 0.000000 
0.000000 -0.000000 0.000000 
0.000000 0.000000 0.000000 

0.000000 -0.000000 0.000000 
0.000000 0.000000 0.000000 
0.000000 0.000000 0.000000 

0.000000 -0.000000 0.000000 
0.000000 0.000000 0.000000 
0.000000 0.000000 0.000000 

-0.000000 0.000000 0.000000 
0.000000 0.000000 0.000000 
0.000000 0.000000 0.000000 

0.000000 -0.000000 0.000000 
0.000000 0.000000 0.000000 
0.000000 0.000000 0.000000 

-0.000000 0.000000 0.000000 
0.000000 -0.000000 0.000000 
0.000000 0.000000 0.000000 

-0.000000 0.000000 0.000000 
0.000000 0.000000 0.000000 
0.000000 0.000000 0.000000 

-0.000000 -0.000000 0.000000 
0.000000 -0.000000 0.000000 
0.000000 0.000000 0.000000 

-0.000000 0.000000 0.000000 
0.000000 -0.000000 0.000000 
0.000000 0.000000 0.000000 

0.000000 -0.000000 0.000000 
0.000000 0.000000 0.000000 
0.000000 0.000000 0.000000 

0.000000 -0.000000 0.000000 
0.000000 -0.000000 0.000000 
0.000000 0.000000 0.000000 

0.000000 -0.000000 0.000000 
0.000000 0.000000 0.000000 
0.000000 0.000000 0.000000 

-0.000000 -0.000000 0.000000 
0.000000 -0.000000 0.000000 
0.000000 0.000000 0.000000 

-0.000000 -0.000000 0.000000 
0.000000 -0.000000 0.000000 
0.000000 0.000000 0.000000 

-0.000000 -0.000000 0.000000 
0.000000 -0.000000 0.000000 
0.000000 0.000000 0.000000 

0.000000 -0.000000 0.000000 
0.000000 0.000000 0.000000 
0.000000 0.000000 0.000000 

-0.000000 -0.000000 0.000000 
0.000000 -0.000000 0.000000 
0.000000 0.000000 0.000000 

0.000000 0.000000 0.000000 
0.000000 0.000000 0.000000 
0.000000 0.000000 0.000000 

0.000000 0.000000 0.000000 
0.000000 0.000000 0.000000 
0.000000 0.000000 0.000000 

-0.000000 -0.000000 0.000000 
0.000000 -0.000000 0.000000 
0.000000 0.000000 0.000000 

-0.000000 -0.000000 0.000000 
0.000000 0.000000 0.000000 
0.000000 0.000000 0.000000 

-0.000000 -0.000000 0.000000 
0.000000 0.000000 0.000000 
0.000000 0.000000 0.000000 

0.000000 0.000000 0.000000 
0.000000 0.000000 0.000000 
0.000000 0.000000 0.000000 

-0.000000 -0.000000 0.000000 
0.000000 -0.000000 0.000000 
0.000000 0.000000 0.000000 

-0.000000 -0.000000 0.000000 
0.000000 -0.000000 0.000000 
0.000000 0.000000 0.000000 

0.000000 -0.000000 0.000000 
0.000000 0.000000 0.000000 
0.000000 0.000000 0.000000 

-0.000000 -0.000000 0.000000 
0.000000 0.000000 0.000000 
0.000000 0.000000 0.000000 

-0.000000 -0.000000 0.000000 
0.000000 0.000000 0.000000 
0.000000 0.000000 0.000000 

-0.000000 -0.000000 0.000000 
0.000000 -0.000000 0.000000 
0.000000 0.000000 0.000000 

0.000000 0.000000 0.000000 
0.000000 0.000000 0.000000 
0.000000 0.000000 0.000000 

0.000000 0.000000 0.000000 
0.000000 0.000000 0.000000 
0.000000 0.000000 0.000000 

-0.000000 -0.000000 0.000000 
0.000000 -0.000000 0.000000 
0.000000 0.000000 0.000000 

-0.000000 -0.000000 0.000000 
0.000000 -0.000000 0.000000 
0.000000 0.000000 0.000000 

-0.000000 -0.000000 0.000000 
0.000000 -0.000000 0.000000 
0.000000 0.000000 0.000000 

0.000000 -0.000000 0.000000 
0.000000 -0.000000 0.000000 
0.000000 0.000000 0.000000 

-0.000000 0.000000 0.000000 
0.000000 -0.000000 0.000000 
0.000000 0.000000 0.000000 

-0.000000 0.000000 0.000000 
0.000000 -0.000000 0.000000 
0.000000 0.000000 0.000000 

-0.000000 0.000000 0.000000 
0.000000 0.000000 0.000000 
0.000000 0.000000 0.000000 

-0.000000 0.000000 0.000000 
0.000000 -0.000000 0.000000 
0.000000 0.000000 0.000000 

-0.000000 0.000000 0.000000 
0.000000 -0.000000 0.000000 
0.000000 0.000000 0.000000 

0.000000 0.000000 0.000000 
0.000000 0.000000 0.000000 
0.000000 0.000000 0.000000 

0.000000 -0.000000 0.000000 
0.000000 0.000000 0.000000 
0.000000 0.000000 0.000000 

0.000000 0.000000 0.000000 
0.000000 -0.000000 0.000000 
0.000000 0.000000 0.000000 

-0.000000 0.000000 0.000000 
0.000000 -0.000000 0.000000 
0.000000 0.000000 0.000000 

-0.000000 0.000000 0.000000 
0.000000 -0.000000 0.000000 
0.000000 0.000000 0.000000 

-0.000000 -0.000000 0.000000 
0.000000 -0.000000 0.000000 
0.000000 0.000000 0.000000 

-0.000000 0.000000 0.000000 
0.000000 0.000000 0.000000 
0.000000 0.000000 0.000000 

0.000000 0.000000 0.000000 
0.000000 0.000000 0.000000 
0.000000 0.000000 0.000000 

0.000000 0.000000 0.000000 
0.000000 0.000000 0.000000 
0.000000 0.000000 0.000000 

-0.000000 -0.000000 0.000000 
0.000000 -0.000000 0.000000 
0.000000 0.000000 0.000000 

-0.000000 0.000000 0.000000 
0.000000 -0.000000 0.000000 
0.000000 0.000000 0.000000 

0.000000 0.000000 0.000000 
0.000000 0.000000 0.000000 
0.000000 0.000000 0.000000 

-0.000000 -0.000000 0.000000 
0.000000 -0.000000 0.000000 
0.000000 0.000000 0.000000 

-0.000000 0.000000 0.000000 
0.000000 -0.000000 0.000000 
0.000000 0.000000 0.000000 

0.000000 -0.000000 0.000000 
0.000000 -0.000000 0.000000 
0.000000 0.000000 0.000000 

0.000000 -0.000000 0.000000 
0.000000 0.000000 0.000000 
0.000000 0.000000 0.000000 

-0.000000 0.000000 0.000000 
0.000000 -0.000000 0.000000 
0.000000 0.000000 0.000000 

-0.000000 -0.000000 0.000000 
0.000000 -0.000000 0.000000 
0.000000 0.000000 0.000000 

-0.000000 -0.000000 0.000000 
0.000000 0.000000 0.000000 
0.000000 0.000000 0.000000 

-0.000000 -0.000000 0.000000 
0.000000 -0.000000 0.000000 
0.000000 0.000000 0.000000 

-0.000000 -0.000000 0.000000 
0.000000 0.000000 0.000000 
0.000000 0.000000 0.000000 

-0.000000 0.000000 0.000000 
0.000000 0.000000 0.000000 
0.000000 0.000000 0.000000 

-0.000000 0.000000 0.000000 
0.000000 -0.000000 0.000000 
0.000000 0.000000 0.000000 

TENSORS STRAIN float 
-0.000000 -0.000000 0.000000 
0.000000 -0.000000 0.000000 
0.000000 0.000000 0.000000 

0.000000 -0.000000 0.000000 
0.000000 0.000000 0.000000 
0.000000 0.000000 0.000000 

-0.000000 0.000000 0.000000 
0.000000 -0.000000 0.000000 
0.000000 0.000000 0.000000 

0.000000 0.000000 0.000000 
0.000000 -0.000000 0.000000 
0.000000 0.000000 0.000000 

-0.000000 -0.000000 0.000000 
0.000000 -0.000000 0.000000 
0.000000 0.000000 0.000000 

-0.000000 -0.000000 0.000000 
0.000000 0.000000 0.000000 
0.000000 0.000000 0.000000 

-0.000000 -0.000000 0.000000 
0.000000 0.000000 0.000000 
0.000000 0.000000 0.000000 

0.000000 0.000000 0.000000 
0.000000 -0.000000 0.000000 
0.000000 0.000000 0.000000 

0.000000 0.000000 0.000000 
0.000000 -0.000000 0.000000 
0.000000 0.000000 0.000000 

-0.000000 0.000000 0.000000 
0.000000 -0.000000 0.000000 
0.000000 0.000000 0.000000 

-0.000000 0.000000 0.000000 
0.000000 -0.000000 0.000000 
0.000000 0.000000 0.000000 

-0.000000 0.000000 0.000000 
0.000000 0.000000 0.000000 
0.000000 0.000000 0.000000 

-0.000000 0.000000 0.000000 
0.000000 0.000000 0.000000 
0.000000 0.000000 0.000000 

-0.000000 0.000000 0.000000 
0.000000 0.000000 0.000000 
0.000000 0.000000 0.000000 

0.000000 -0.000000 0.000000 
0.000000 0.000000 0.000000 
0.000000 0.000000 0.000000 

0.000000 0.000000 0.000000 
0.000000 0.000000 0.000000 
0.000000 0.000000 0.000000 

0.000000 -0.000000 0.000000 
0.000000 -0.000000 0.000000 
0.000000 0.000000 0.000000 

0.000000 -0.000000 0.000000 
0.000000 -0.000000 0.000000 
0.000000 0.000000 0.000000 

0.000000 -0.000000 0.000000 
0.000000 -0.000000 0.000000 
0.000000 0.000000 0.000000 

-0.000000 -0.000000 0.000000 
0.000000 -0.000000 0.000000 
0.000000 0.000000 0.000000 

0.000000 0.000000 0.000000 
0.000000 0.000000 0.000000 
0.000000 0.000000 0.000000 

0.000000 -0.000000 0.000000 
0.000000 0.000000 0.000000 
0.000000 0.000000 0.000000 

0.000000 -0.000000 0.000000 
0.000000 0.000000 0.000000 
0.000000 0.000000 0.000000 

0.000000 -0.000000 0.000000 
0.000000 0.000000 0.000000 
0.000000 0.000000 0.000000 

0.000000 -0.000000 0.000000 
0.000000 -0.000000 0.000000 
0.000000 0.000000 0.000000 

-0.000000 0.000000 0.000000 
0.000000 -0.000000 0.000000 
0.000000 0.000000 0.000000 

0.000000 0.000000 0.000000 
0.000000 -0.000000 0.000000 
0.000000 0.000000 0.000000 

0.000000 0.000000 0.000000 
0.000000 0.000000 0.000000 
0.000000 0.000000 0.000000 

0.000000 0.000000 0.000000 
0.000000 -0.000000 0.000000 
0.000000 0.000000 0.000000 

0.000000 0.000000 0.000000 
0.000000 -0.000000 0.000000 
0.000000 0.000000 0.000000 

0.000000 0.000000 0.000000 
0.000000 -0.000000 0.000000 
0.000000 0.000000 0.000000 

0.000000 0.000000 0.000000 
0.000000 -0.000000 0.000000 
0.000000 0.000000 0.000000 

0.000000 -0.000000 0.000000 
0.000000 -0.000000 0.000000 
0.000000 0.000000 0.000000 

-0.000000 0.000000 0.000000 
0.000000 -0.000000 0.000000 
0.000000 0.000000 0.000000 

0.000000 0.000000 0.000000 
0.000000 0.000000 0.000000 
0.000000 0.000000 0.000000 

0.000000 0.000000 0.000000 
0.000000 0.000000 0.000000 
0.000000 0.000000 0.000000 

0.000000 -0.000000 0.000000 
0.000000 -0.000000 0.000000 
0.000000 0.000000 0.000000 

0.000000 0.000000 0.000000 
0.000000 -0.000000 0.000000 
0.000000 0.000000 0.000000 

0.000000 0.000000 0.000000 
0.000000 0.000000 0.000000 
0.000000 0.000000 0.000000 

0.000000 0.000000 0.000000 
0.000000 -0.000000 0.000000 
0.000000 0.000000 0.000000 

-0.000000 0.000000 0.000000 
0.000000 0.000000 0.000000 
0.000000 0.000000 0.000000 

0.000000 0.000000 0.000000 
0.000000 -0.000000 0.000000 
0.000000 0.000000 0.000000 

0.000000 0.000000 0.000000 
0.000000 -0.000000 0.000000 
0.000000 0.000000 0.000000 

0.000000 0.000000 0.000000 
0.000000 -0.000000 0.000000 
0.000000 0.000000 0.000000 

0.000000 0.000000 0.000000 
0.000000 0.000000 0.000000 
0.000000 0.000000 0.000000 

0.000000 0.000000 0.000000 
0.000000 -0.000000 0.000000 
0.000000 0.000000 0.000000 

0.000000 0.000000 0.000000 
0.000000 -0.000000 0.000000 
0.000000 0.000000 0.000000 

0.000000 0.000000 0.000000 
0.000000 0.000000 0.000000 
0.000000 0.000000 0.000000 

-0.000000 -0.000000 0.000000 
0.000000 0.000000 0.000000 
0.000000 0.000000 0.000000 

0.000000 0.000000 0.000000 
0.000000 -0.000000 0.000000 
0.000000 0.000000 0.000000 

-0.000000 0.000000 0.000000 
0.000000 0.000000 0.000000 
0.000000 0.000000 0.000000 

-0.000000 0.000000 0.000000 
0.000000 -0.000000 0.000000 
0.000000 0.000000 0.000000 

0.000000 -0.000000 0.000000 
0.000000 0.000000 0.000000 
0.000000 0.000000 0.000000 

0.000000 0.000000 0.000000 
0.000000 0.000000 0.000000 
0.000000 0.000000 0.000000 

-0.000000 -0.000000 0.000000 
0.000000 -0.000000 0.000000 
0.000000 0.000000 0.000000 

-0.000000 -0.000000 0.000000 
0.000000 -0.000000 0.000000 
0.000000 0.000000 0.000000 

-0.000000 -0.000000 0.000000 
0.000000 0.000000 0.000000 
0.000000 0.000000 0.000000 

0.000000 0.000000 0.000000 
0.000000 -0.000000 0.000000 
0.000000 0.000000 0.000000 

0.000000 0.000000 0.000000 
0.000000 -0.000000 0.000000 
0.000000 0.000000 0.000000 

0.000000 0.000000 0.000000 
0.000000 -0.000000 0.000000 
0.000000 0.000000 0.000000 

0.000000 0.000000 0.000000 
0.000000 -0.000000 0.000000 
0.000000 0.000000 0.000000 

0.000000 0.000000 0.000000 
0.000000 -0.000000 0.000000 
0.000000 0.000000 0.000000 

-0.000000 0.000000 0.000000 
0.000000 0.000000 0.000000 
0.000000 0.000000 0.000000 

-0.000000 -0.000000 0.000000 
0.000000 -0.000000 0.000000 
0.000000 0.000000 0.000000 

0.000000 0.000000 0.000000 
0.000000 -0.000000 0.000000 
0.000000 0.000000 0.000000 

0.000000 0.000000 0.000000 
0.000000 -0.000000 0.000000 
0.000000 0.000000 0.000000 

0.000000 -0.000000 0.000000 
0.000000 -0.000000 0.000000 
0.000000 0.000000 0.000000 

-0.000000 0.000000 0.000000 
0.000000 -0.000000 0.000000 
0.000000 0.000000 0.000000 

-0.000000 0.000000 0.000000 
0.000000 -0.000000 0.000000 
0.000000 0.000000 0.000000 

0.000000 0.000000 0.000000 
0.000000 -0.000000 0.000000 
0.000000 0.000000 0.000000 

0.000000 0.000000 0.000000 
0.000000 -0.000000 0.000000 
0.000000 0.000000 0.000000 

-0.000000 0.000000 0.000000 
0.000000 -0.000000 0.000000 
0.000000 0.000000 0.000000 

0.000000 0.000000 0.000000 
0.000000 0.000000 0.000000 
0.000000 0.000000 0.000000 

0.000000 -0.000000 0.000000 
0.000000 -0.000000 0.000000 
0.000000 0.000000 0.000000 

-0.000000 -0.000000 0.000000 
0.000000 0.000000 0.000000 
0.000000 0.000000 0.000000 

0.000000 0.000000 0.000000 
0.000000 -0.000000 0.000000 
0.000000 0.000000 0.000000 

0.000000 -0.000000 0.000000 
0.000000 -0.000000 0.000000 
0.000000 0.000000 0.000000 

0.000000 0.000000 0.000000 
0.000000 -0.000000 0.000000 
0.000000 0.000000 0.000000 

0.000000 -0.000000 0.000000 
0.000000 0.000000 0.000000 
0.000000 0.000000 0.000000 

-0.000000 -0.000000 0.000000 
0.000000 -0.000000 0.000000 
0.000000 0.000000 0.000000 

0.000000 -0.000000 0.000000 
0.000000 0.000000 0.000000 
0.000000 0.000000 0.000000 

0.000000 -0.000000 0.000000 
0.000000 -0.000000 0.000000 
0.000000 0.000000 0.000000 

0.000000 -0.000000 0.000000 
0.000000 -0.000000 0.000000 
0.000000 0.000000 0.000000 

-0.000000 -0.000000 0.000000 
0.000000 0.000000 0.000000 
0.000000 0.000000 0.000000 

-0.000000 -0.000000 0.000000 
0.000000 -0.000000 0.000000 
0.000000 0.000000 0.000000 

-0.000000 0.000000 0.000000 
0.000000 0.000000 0.000000 
0.000000 0.000000 0.000000 

0.000000 -0.000000 0.000000 
0.000000 0.000000 0.000000 
0.000000 0.000000 0.000000 

0.000000 -0.000000 0.000000 
0.000000 -0.000000 0.000000 
0.000000 0.000000 0.000000 

0.000000 0.000000 0.000000 
0.000000 0.000000 0.000000 
0.000000 0.000000 0.000000 

0.000000 0.000000 0.000000 
0.000000 -0.000000 0.000000 
0.000000 0.000000 0.000000 

0.000000 0.000000 0.000000 
0.000000 0.000000 0.000000 
0.000000 0.000000 0.000000 

-0.000000 -0.000000 0.000000 
0.000000 -0.000000 0.000000 
0.000000 0.000000 0.000000 

-0.000000 -0.000000 0.000000 
0.000000 -0.000000 0.000000 
0.000000 0.000000 0.000000 

0.000000 0.000000 0.000000 
0.000000 -0.000000 0.000000 
0.000000 0.000000 0.000000 

0.000000 0.000000 0.000000 
0.000000 -0.000000 0.000000 
0.000000 0.000000 0.000000 

0.000000 0.000000 0.000000 
0.000000 0.000000 0.000000 
0.000000 0.000000 0.000000 

0.000000 0.000000 0.000000 
0.000000 -0.000000 0.000000 
0.000000 0.000000 0.000000 

0.000000 -0.000000 0.000000 
0.000000 0.000000 0.000000 
0.000000 0.000000 0.000000 

0.000000 -0.000000 0.000000 
0.000000 -0.000000 0.000000 
0.000000 0.000000 0.000000 

0.000000 -0.000000 0.000000 
0.000000 0.000000 0.000000 
0.000000 0.000000 0.000000 

-0.000000 -0.000000 0.000000 
0.000000 -0.000000 0.000000 
0.000000 0.000000 0.000000 

0.000000 0.000000 0.000000 
0.000000 -0.000000 0.000000 
0.000000 0.000000 0.000000 

-0.000000 0.000000 0.000000 
0.000000 0.000000 0.000000 
0.000000 0.000000 0.000000 

-0.000000 -0.000000 0.000000 
0.000000 0.000000 0.000000 
0.000000 0.000000 0.000000 

-0.000000 -0.000000 0.000000 
0.000000 0.000000 0.000000 
0.000000 0.000000 0.000000 

-0.000000 -0.000000 0.000000 
0.000000 0.000000 0.000000 
0.000000 0.000000 0.000000 

-0.000000 -0.000000 0.000000 
0.000000 0.000000 0.000000 
0.000000 0.000000 0.000000 

-0.000000 -0.000000 0.000000 
0.000000 0.000000 0.000000 
0.000000 0.000000 0.000000 

-0.000000 -0.000000 0.000000 
0.000000 0.000000 0.000000 
0.000000 0.000000 0.000000 

-0.000000 0.000000 0.000000 
0.000000 -0.000000 0.000000 
0.000000 0.000000 0.000000 

-0.000000 0.000000 0.000000 
0.000000 0.000000 0.000000 
0.000000 0.000000 0.000000 

-0.000000 0.000000 0.000000 
0.000000 -0.000000 0.000000 
0.000000 0.000000 0.000000 

-0.000000 0.000000 0.000000 
0.000000 -0.000000 0.000000 
0.000000 0.000000 0.000000 

0.000000 -0.000000 0.000000 
0.000000 -0.000000 0.000000 
0.000000 0.000000 0.000000 

-0.000000 -0.000000 0.000000 
0.000000 0.000000 0.000000 
0.000000 0.000000 0.000000 

-0.000000 0.000000 0.000000 
0.000000 0.000000 0.000000 
0.000000 0.000000 0.000000 

-0.000000 -0.000000 0.000000 
0.000000 0.000000 0.000000 
0.000000 0.000000 0.000000 

-0.000000 0.000000 0.000000 
0.000000 -0.000000 0.000000 
0.000000 0.000000 0.000000 

-0.000000 0.000000 0.000000 
0.000000 0.000000 0.000000 
0.000000 0.000000 0.000000 

-0.000000 -0.000000 0.000000 
0.000000 -0.000000 0.000000 
0.000000 0.000000 0.000000 

0.000000 0.000000 0.000000 
0.000000 -0.000000 0.000000 
0.000000 0.000000 0.000000 

0.000000 -0.000000 0.000000 
0.000000 0.000000 0.000000 
0.000000 0.000000 0.000000 

0.000000 -0.000000 0.000000 
0.000000 -0.000000 0.000000 
0.000000 0.000000 0.000000 

0.000000 -0.000000 0.000000 
0.000000 0.000000 0.000000 
0.000000 0.000000 0.000000 

-0.000000 -0.000000 0.000000 
0.000000 -0.000000 0.000000 
0.000000 0.000000 0.000000 

-0.000000 -0.000000 0.000000 
0.000000 -0.000000 0.000000 
0.000000 0.000000 0.000000 

-0.000000 -0.000000 0.000000 
0.000000 -0.000000 0.000000 
0.000000 0.000000 0.000000 

0.000000 -0.000000 0.000000 
0.000000 0.000000 0.000000 
0.000000 0.000000 0.000000 

-0.000000 -0.000000 0.000000 
0.000000 -0.000000 0.000000 
0.000000 0.000000 0.000000 

0.000000 0.000000 0.000000 
0.000000 0.000000 0.000000 
0.000000 0.000000 0.000000 

0.000000 0.000000 0.000000 
0.000000 0.000000 0.000000 
0.000000 0.000000 0.000000 

-0.000000 -0.000000 0.000000 
0.000000 -0.000000 0.000000 
0.000000 0.000000 0.000000 

-0.000000 -0.000000 0.000000 
0.000000 0.000000 0.000000 
0.000000 0.000000 0.000000 

-0.000000 -0.000000 0.000000 
0.000000 0.000000 0.000000 
0.000000 0.000000 0.000000 

-0.000000 0.000000 0.000000 
0.000000 0.000000 0.000000 
0.000000 0.000000 0.000000 

-0.000000 -0.000000 0.000000 
0.000000 -0.000000 0.000000 
0.000000 0.000000 0.000000 

0.000000 -0.000000 0.000000 
0.000000 -0.000000 0.000000 
0.000000 0.000000 0.000000 

-0.000000 -0.000000 0.000000 
0.000000 0.000000 0.000000 
0.000000 0.000000 0.000000 

-0.000000 -0.000000 0.000000 
0.000000 0.000000 0.000000 
0.000000 0.000000 0.000000 

-0.000000 -0.000000 0.000000 
0.000000 0.000000 0.000000 
0.000000 0.000000 0.000000 

-0.000000 -0.000000 0.000000 
0.000000 -0.000000 0.000000 
0.000000 0.000000 0.000000 

0.000000 0.000000 0.000000 
0.000000 0.000000 0.000000 
0.000000 0.000000 0.000000 

-0.000000 0.000000 0.000000 
0.000000 0.000000 0.000000 
0.000000 0.000000 0.000000 

-0.000000 -0.000000 0.000000 
0.000000 -0.000000 0.000000 
0.000000 0.000000 0.000000 

-0.000000 -0.000000 0.000000 
0.000000 -0.000000 0.000000 
0.000000 0.000000 0.000000 

-0.000000 -0.000000 0.000000 
0.000000 -0.000000 0.000000 
0.000000 0.000000 0.000000 

0.000000 -0.000000 0.000000 
0.000000 -0.000000 0.000000 
0.000000 0.000000 0.000000 

0.000000 0.000000 0.000000 
0.000000 -0.000000 0.000000 
0.000000 0.000000 0.000000 

0.000000 0.000000 0.000000 
0.000000 -0.000000 0.000000 
0.000000 0.000000 0.000000 

-0.000000 0.000000 0.000000 
0.000000 0.000000 0.000000 
0.000000 0.000000 0.000000 

-0.000000 0.000000 0.000000 
0.000000 -0.000000 0.000000 
0.000000 0.000000 0.000000 

0.000000 0.000000 0.000000 
0.000000 -0.000000 0.000000 
0.000000 0.000000 0.000000 

-0.000000 0.000000 0.000000 
0.000000 0.000000 0.000000 
0.000000 0.000000 0.000000 

0.000000 -0.000000 0.000000 
0.000000 0.000000 0.000000 
0.000000 0.000000 0.000000 

0.000000 0.000000 0.000000 
0.000000 -0.000000 0.000000 
0.000000 0.000000 0.000000 

0.000000 0.000000 0.000000 
0.000000 -0.000000 0.000000 
0.000000 0.000000 0.000000 

-0.000000 0.000000 0.000000 
0.000000 -0.000000 0.000000 
0.000000 0.000000 0.000000 

-0.000000 -0.000000 0.000000 
0.000000 -0.000000 0.000000 
0.000000 0.000000 0.000000 

-0.000000 0.000000 0.000000 
0.000000 0.000000 0.000000 
0.000000 0.000000 0.000000 

0.000000 0.000000 0.000000 
0.000000 0.000000 0.000000 
0.000000 0.000000 0.000000 

0.000000 0.000000 0.000000 
0.000000 0.000000 0.000000 
0.000000 0.000000 0.000000 

-0.000000 -0.000000 0.000000 
0.000000 0.000000 0.000000 
0.000000 0.000000 0.000000 

0.000000 0.000000 0.000000 
0.000000 -0.000000 0.000000 
0.000000 0.000000 0.000000 

0.000000 0.000000 0.000000 
0.000000 0.000000 0.000000 
0.000000 0.000000 0.000000 

-0.000000 -0.000000 0.000000 
0.000000 -0.000000 0.000000 
0.000000 0.000000 0.000000 

0.000000 0.000000 0.000000 
0.000000 -0.000000 0.000000 
0.000000 0.000000 0.000000 

0.000000 -0.000000 0.000000 
0.000000 -0.000000 0.000000 
0.000000 0.000000 0.000000 

0.000000 -0.000000 0.000000 
0.000000 0.000000 0.000000 
0.000000 0.000000 0.000000 

-0.000000 0.000000 0.000000 
0.000000 -0.000000 0.000000 
0.000000 0.000000 0.000000 

-0.000000 -0.000000 0.000000 
0.000000 -0.000000 0.000000 
0.000000 0.000000 0.000000 

-0.000000 -0.000000 0.000000 
0.000000 0.000000 0.000000 
0.000000 0.000000 0.000000 

-0.000000 -0.000000 0.000000 
0.000000 0.000000 0.000000 
0.000000 0.000000 0.000000 

-0.000000 -0.000000 0.000000 
0.000000 0.000000 0.000000 
0.000000 0.000000 0.000000 

-0.000000 0.000000 0.000000 
0.000000 0.000000 0.000000 
0.000000 0.000000 0.000000 

-0.000000 0.000000 0.000000 
0.000000 0.000000 0.000000 
0.000000 0.000000 0.000000 

