# vtk DataFile Version 3.0 
vtk output 
ASCII 
DATASET UNSTRUCTURED_GRID 
POINTS 175 float 
-0.026061 -0.366054 0.000000 
-0.106992 -0.297998 0.000000 
-0.054870 -0.306231 0.000000 
-0.028809 -0.260347 0.000000 
-0.186430 -0.233923 0.000000 
-0.137056 -0.236449 0.000000 
-0.114311 -0.182802 0.000000 
-0.058186 -0.198467 0.000000 
-0.029377 -0.158290 0.000000 
-0.265318 -0.170767 0.000000 
-0.217198 -0.171567 0.000000 
-0.196633 -0.114270 0.000000 
-0.143120 -0.122979 0.000000 
-0.116563 -0.075710 0.000000 
-0.058945 -0.095356 0.000000 
-0.029568 -0.057236 0.000000 
-0.344206 -0.107611 0.000000 
-0.296791 -0.107604 0.000000 
-0.278030 -0.047661 0.000000 
-0.225992 -0.053528 0.000000 
-0.201664 -0.001411 0.000000 
-0.145749 -0.014885 0.000000 
-0.117890 0.029458 0.000000 
-0.059328 0.006752 0.000000 
-0.029759 0.043818 0.000000 
-0.058559 -0.406804 0.000000 
-0.162226 -0.427647 0.000000 
-0.123292 -0.392029 0.000000 
-0.142917 -0.343046 0.000000 
-0.261851 -0.449803 0.000000 
-0.229092 -0.412776 0.000000 
-0.256854 -0.361545 0.000000 
-0.209613 -0.327432 0.000000 
-0.223062 -0.279858 0.000000 
-0.360414 -0.472104 0.000000 
-0.329787 -0.434981 0.000000 
-0.361761 -0.383179 0.000000 
-0.321587 -0.346770 0.000000 
-0.341985 -0.296536 0.000000 
-0.290702 -0.263737 0.000000 
-0.302189 -0.217002 0.000000 
-0.458977 -0.494404 0.000000 
-0.429420 -0.457329 0.000000 
-0.464588 -0.405287 0.000000 
-0.427556 -0.368260 0.000000 
-0.453135 -0.316745 0.000000 
-0.407738 -0.281430 0.000000 
-0.425037 -0.232002 0.000000 
-0.370772 -0.200373 0.000000 
-0.381315 -0.154145 0.000000 
-0.046960 -0.457620 0.000000 
-0.095301 -0.551666 0.000000 
-0.098873 -0.499018 0.000000 
-0.149405 -0.483821 0.000000 
-0.140093 -0.643370 0.000000 
-0.148617 -0.594671 0.000000 
-0.205981 -0.584434 0.000000 
-0.203197 -0.526231 0.000000 
-0.248777 -0.507084 0.000000 
-0.184111 -0.734333 0.000000 
-0.194039 -0.687242 0.000000 
-0.254475 -0.679943 0.000000 
-0.257893 -0.625833 0.000000 
-0.309886 -0.610460 0.000000 
-0.303554 -0.549915 0.000000 
-0.347255 -0.529757 0.000000 
-0.228129 -0.825297 0.000000 
-0.238687 -0.779073 0.000000 
-0.301302 -0.774120 0.000000 
-0.307162 -0.722082 0.000000 
-0.363386 -0.709961 0.000000 
-0.362692 -0.652449 0.000000 
-0.412122 -0.635156 0.000000 
-0.403017 -0.573009 0.000000 
-0.445733 -0.552431 0.000000 
-0.000000 -0.480235 0.000000 
0.043388 -0.576665 0.000000 
-0.000000 -0.546633 0.000000 
-0.043388 -0.576665 0.000000 
0.087158 -0.668862 0.000000 
0.043769 -0.645163 0.000000 
-0.000000 -0.683629 0.000000 
-0.043769 -0.645163 0.000000 
-0.087158 -0.668862 0.000000 
0.130831 -0.759992 0.000000 
0.087824 -0.738393 0.000000 
0.044436 -0.781092 0.000000 
-0.000000 -0.750027 0.000000 
-0.044436 -0.781092 0.000000 
-0.087824 -0.738393 0.000000 
-0.130831 -0.759992 0.000000 
0.174505 -0.851121 0.000000 
0.131782 -0.830555 0.000000 
0.088871 -0.876422 0.000000 
0.044532 -0.848558 0.000000 
-0.000000 -0.884958 0.000000 
-0.044532 -0.848558 0.000000 
-0.088871 -0.876422 0.000000 
-0.131782 -0.830555 0.000000 
-0.174505 -0.851121 0.000000 
0.046960 -0.457620 0.000000 
0.149405 -0.483821 0.000000 
0.098873 -0.499018 0.000000 
0.095301 -0.551666 0.000000 
0.248777 -0.507084 0.000000 
0.203197 -0.526231 0.000000 
0.205981 -0.584434 0.000000 
0.148617 -0.594671 0.000000 
0.140093 -0.643370 0.000000 
0.347255 -0.529757 0.000000 
0.303554 -0.549915 0.000000 
0.309886 -0.610460 0.000000 
0.257893 -0.625833 0.000000 
0.254475 -0.679943 0.000000 
0.194039 -0.687242 0.000000 
0.184111 -0.734333 0.000000 
0.445733 -0.552431 0.000000 
0.403017 -0.573009 0.000000 
0.412122 -0.635156 0.000000 
0.362692 -0.652449 0.000000 
0.363386 -0.709961 0.000000 
0.307162 -0.722082 0.000000 
0.301302 -0.774120 0.000000 
0.238687 -0.779073 0.000000 
0.228129 -0.825297 0.000000 
0.058559 -0.406804 0.000000 
0.142917 -0.343046 0.000000 
0.123292 -0.392029 0.000000 
0.162226 -0.427647 0.000000 
0.223062 -0.279858 0.000000 
0.209613 -0.327432 0.000000 
0.256854 -0.361545 0.000000 
0.229092 -0.412776 0.000000 
0.261851 -0.449803 0.000000 
0.302189 -0.217002 0.000000 
0.290702 -0.263737 0.000000 
0.341985 -0.296536 0.000000 
0.321587 -0.346770 0.000000 
0.361761 -0.383179 0.000000 
0.329787 -0.434981 0.000000 
0.360414 -0.472104 0.000000 
0.381315 -0.154145 0.000000 
0.370772 -0.200373 0.000000 
0.425037 -0.232002 0.000000 
0.407738 -0.281430 0.000000 
0.453135 -0.316745 0.000000 
0.427556 -0.368260 0.000000 
0.464588 -0.405287 0.000000 
0.429420 -0.457329 0.000000 
0.458977 -0.494404 0.000000 
0.026061 -0.366054 0.000000 
0.028809 -0.260347 0.000000 
0.054870 -0.306231 0.000000 
0.106992 -0.297998 0.000000 
0.029377 -0.158290 0.000000 
0.058186 -0.198467 0.000000 
0.114311 -0.182802 0.000000 
0.137056 -0.236449 0.000000 
0.186430 -0.233923 0.000000 
0.029568 -0.057236 0.000000 
0.058945 -0.095356 0.000000 
0.116563 -0.075710 0.000000 
0.143120 -0.122979 0.000000 
0.196633 -0.114270 0.000000 
0.217198 -0.171567 0.000000 
0.265318 -0.170767 0.000000 
0.029759 0.043818 0.000000 
0.059328 0.006752 0.000000 
0.117890 0.029458 0.000000 
0.145749 -0.014885 0.000000 
0.201664 -0.001411 0.000000 
0.225992 -0.053528 0.000000 
0.278030 -0.047661 0.000000 
0.296791 -0.107604 0.000000 
0.344206 -0.107611 0.000000 
CELLS 175 350 
1 0 
1 1 
1 2 
1 3 
1 4 
1 5 
1 6 
1 7 
1 8 
1 9 
1 10 
1 11 
1 12 
1 13 
1 14 
1 15 
1 16 
1 17 
1 18 
1 19 
1 20 
1 21 
1 22 
1 23 
1 24 
1 25 
1 26 
1 27 
1 28 
1 29 
1 30 
1 31 
1 32 
1 33 
1 34 
1 35 
1 36 
1 37 
1 38 
1 39 
1 40 
1 41 
1 42 
1 43 
1 44 
1 45 
1 46 
1 47 
1 48 
1 49 
1 50 
1 51 
1 52 
1 53 
1 54 
1 55 
1 56 
1 57 
1 58 
1 59 
1 60 
1 61 
1 62 
1 63 
1 64 
1 65 
1 66 
1 67 
1 68 
1 69 
1 70 
1 71 
1 72 
1 73 
1 74 
1 75 
1 76 
1 77 
1 78 
1 79 
1 80 
1 81 
1 82 
1 83 
1 84 
1 85 
1 86 
1 87 
1 88 
1 89 
1 90 
1 91 
1 92 
1 93 
1 94 
1 95 
1 96 
1 97 
1 98 
1 99 
1 100 
1 101 
1 102 
1 103 
1 104 
1 105 
1 106 
1 107 
1 108 
1 109 
1 110 
1 111 
1 112 
1 113 
1 114 
1 115 
1 116 
1 117 
1 118 
1 119 
1 120 
1 121 
1 122 
1 123 
1 124 
1 125 
1 126 
1 127 
1 128 
1 129 
1 130 
1 131 
1 132 
1 133 
1 134 
1 135 
1 136 
1 137 
1 138 
1 139 
1 140 
1 141 
1 142 
1 143 
1 144 
1 145 
1 146 
1 147 
1 148 
1 149 
1 150 
1 151 
1 152 
1 153 
1 154 
1 155 
1 156 
1 157 
1 158 
1 159 
1 160 
1 161 
1 162 
1 163 
1 164 
1 165 
1 166 
1 167 
1 168 
1 169 
1 170 
1 171 
1 172 
1 173 
1 174 
CELL_TYPES 175 
1 
1 
1 
1 
1 
1 
1 
1 
1 
1 
1 
1 
1 
1 
1 
1 
1 
1 
1 
1 
1 
1 
1 
1 
1 
1 
1 
1 
1 
1 
1 
1 
1 
1 
1 
1 
1 
1 
1 
1 
1 
1 
1 
1 
1 
1 
1 
1 
1 
1 
1 
1 
1 
1 
1 
1 
1 
1 
1 
1 
1 
1 
1 
1 
1 
1 
1 
1 
1 
1 
1 
1 
1 
1 
1 
1 
1 
1 
1 
1 
1 
1 
1 
1 
1 
1 
1 
1 
1 
1 
1 
1 
1 
1 
1 
1 
1 
1 
1 
1 
1 
1 
1 
1 
1 
1 
1 
1 
1 
1 
1 
1 
1 
1 
1 
1 
1 
1 
1 
1 
1 
1 
1 
1 
1 
1 
1 
1 
1 
1 
1 
1 
1 
1 
1 
1 
1 
1 
1 
1 
1 
1 
1 
1 
1 
1 
1 
1 
1 
1 
1 
1 
1 
1 
1 
1 
1 
1 
1 
1 
1 
1 
1 
1 
1 
1 
1 
1 
1 
1 
1 
1 
1 
1 
1 
POINT_DATA 175 
VECTORS X_GC float 
-0.026061 -0.366054 0.000000 
-0.106992 -0.297998 0.000000 
-0.054870 -0.306231 0.000000 
-0.028809 -0.260347 0.000000 
-0.186430 -0.233923 0.000000 
-0.137056 -0.236449 0.000000 
-0.114311 -0.182802 0.000000 
-0.058186 -0.198467 0.000000 
-0.029377 -0.158290 0.000000 
-0.265318 -0.170767 0.000000 
-0.217198 -0.171567 0.000000 
-0.196633 -0.114270 0.000000 
-0.143120 -0.122979 0.000000 
-0.116563 -0.075710 0.000000 
-0.058945 -0.095356 0.000000 
-0.029568 -0.057236 0.000000 
-0.344206 -0.107611 0.000000 
-0.296791 -0.107604 0.000000 
-0.278030 -0.047661 0.000000 
-0.225992 -0.053528 0.000000 
-0.201664 -0.001411 0.000000 
-0.145749 -0.014885 0.000000 
-0.117890 0.029458 0.000000 
-0.059328 0.006752 0.000000 
-0.029759 0.043818 0.000000 
-0.058559 -0.406804 0.000000 
-0.162226 -0.427647 0.000000 
-0.123292 -0.392029 0.000000 
-0.142917 -0.343046 0.000000 
-0.261851 -0.449803 0.000000 
-0.229092 -0.412776 0.000000 
-0.256854 -0.361545 0.000000 
-0.209613 -0.327432 0.000000 
-0.223062 -0.279858 0.000000 
-0.360414 -0.472104 0.000000 
-0.329787 -0.434981 0.000000 
-0.361761 -0.383179 0.000000 
-0.321587 -0.346770 0.000000 
-0.341985 -0.296536 0.000000 
-0.290702 -0.263737 0.000000 
-0.302189 -0.217002 0.000000 
-0.458977 -0.494404 0.000000 
-0.429420 -0.457329 0.000000 
-0.464588 -0.405287 0.000000 
-0.427556 -0.368260 0.000000 
-0.453135 -0.316745 0.000000 
-0.407738 -0.281430 0.000000 
-0.425037 -0.232002 0.000000 
-0.370772 -0.200373 0.000000 
-0.381315 -0.154145 0.000000 
-0.046960 -0.457620 0.000000 
-0.095301 -0.551666 0.000000 
-0.098873 -0.499018 0.000000 
-0.149405 -0.483821 0.000000 
-0.140093 -0.643370 0.000000 
-0.148617 -0.594671 0.000000 
-0.205981 -0.584434 0.000000 
-0.203197 -0.526231 0.000000 
-0.248777 -0.507084 0.000000 
-0.184111 -0.734333 0.000000 
-0.194039 -0.687242 0.000000 
-0.254475 -0.679943 0.000000 
-0.257893 -0.625833 0.000000 
-0.309886 -0.610460 0.000000 
-0.303554 -0.549915 0.000000 
-0.347255 -0.529757 0.000000 
-0.228129 -0.825297 0.000000 
-0.238687 -0.779073 0.000000 
-0.301302 -0.774120 0.000000 
-0.307162 -0.722082 0.000000 
-0.363386 -0.709961 0.000000 
-0.362692 -0.652449 0.000000 
-0.412122 -0.635156 0.000000 
-0.403017 -0.573009 0.000000 
-0.445733 -0.552431 0.000000 
-0.000000 -0.480235 0.000000 
0.043388 -0.576665 0.000000 
-0.000000 -0.546633 0.000000 
-0.043388 -0.576665 0.000000 
0.087158 -0.668862 0.000000 
0.043769 -0.645163 0.000000 
-0.000000 -0.683629 0.000000 
-0.043769 -0.645163 0.000000 
-0.087158 -0.668862 0.000000 
0.130831 -0.759992 0.000000 
0.087824 -0.738393 0.000000 
0.044436 -0.781092 0.000000 
-0.000000 -0.750027 0.000000 
-0.044436 -0.781092 0.000000 
-0.087824 -0.738393 0.000000 
-0.130831 -0.759992 0.000000 
0.174505 -0.851121 0.000000 
0.131782 -0.830555 0.000000 
0.088871 -0.876422 0.000000 
0.044532 -0.848558 0.000000 
-0.000000 -0.884958 0.000000 
-0.044532 -0.848558 0.000000 
-0.088871 -0.876422 0.000000 
-0.131782 -0.830555 0.000000 
-0.174505 -0.851121 0.000000 
0.046960 -0.457620 0.000000 
0.149405 -0.483821 0.000000 
0.098873 -0.499018 0.000000 
0.095301 -0.551666 0.000000 
0.248777 -0.507084 0.000000 
0.203197 -0.526231 0.000000 
0.205981 -0.584434 0.000000 
0.148617 -0.594671 0.000000 
0.140093 -0.643370 0.000000 
0.347255 -0.529757 0.000000 
0.303554 -0.549915 0.000000 
0.309886 -0.610460 0.000000 
0.257893 -0.625833 0.000000 
0.254475 -0.679943 0.000000 
0.194039 -0.687242 0.000000 
0.184111 -0.734333 0.000000 
0.445733 -0.552431 0.000000 
0.403017 -0.573009 0.000000 
0.412122 -0.635156 0.000000 
0.362692 -0.652449 0.000000 
0.363386 -0.709961 0.000000 
0.307162 -0.722082 0.000000 
0.301302 -0.774120 0.000000 
0.238687 -0.779073 0.000000 
0.228129 -0.825297 0.000000 
0.058559 -0.406804 0.000000 
0.142917 -0.343046 0.000000 
0.123292 -0.392029 0.000000 
0.162226 -0.427647 0.000000 
0.223062 -0.279858 0.000000 
0.209613 -0.327432 0.000000 
0.256854 -0.361545 0.000000 
0.229092 -0.412776 0.000000 
0.261851 -0.449803 0.000000 
0.302189 -0.217002 0.000000 
0.290702 -0.263737 0.000000 
0.341985 -0.296536 0.000000 
0.321587 -0.346770 0.000000 
0.361761 -0.383179 0.000000 
0.329787 -0.434981 0.000000 
0.360414 -0.472104 0.000000 
0.381315 -0.154145 0.000000 
0.370772 -0.200373 0.000000 
0.425037 -0.232002 0.000000 
0.407738 -0.281430 0.000000 
0.453135 -0.316745 0.000000 
0.427556 -0.368260 0.000000 
0.464588 -0.405287 0.000000 
0.429420 -0.457329 0.000000 
0.458977 -0.494404 0.000000 
0.026061 -0.366054 0.000000 
0.028809 -0.260347 0.000000 
0.054870 -0.306231 0.000000 
0.106992 -0.297998 0.000000 
0.029377 -0.158290 0.000000 
0.058186 -0.198467 0.000000 
0.114311 -0.182802 0.000000 
0.137056 -0.236449 0.000000 
0.186430 -0.233923 0.000000 
0.029568 -0.057236 0.000000 
0.058945 -0.095356 0.000000 
0.116563 -0.075710 0.000000 
0.143120 -0.122979 0.000000 
0.196633 -0.114270 0.000000 
0.217198 -0.171567 0.000000 
0.265318 -0.170767 0.000000 
0.029759 0.043818 0.000000 
0.059328 0.006752 0.000000 
0.117890 0.029458 0.000000 
0.145749 -0.014885 0.000000 
0.201664 -0.001411 0.000000 
0.225992 -0.053528 0.000000 
0.278030 -0.047661 0.000000 
0.296791 -0.107604 0.000000 
0.344206 -0.107611 0.000000 
VECTORS X_EC float 
0.338794 -0.558275 0.000000 
-0.609100 0.522977 0.000000 
0.713312 0.634118 0.000000 
0.374519 0.014688 0.000000 
0.423588 -0.342042 0.000000 
-0.218274 -0.307939 0.000000 
-0.513962 0.967822 0.000000 
0.756418 -0.820692 0.000000 
0.381900 0.636916 0.000000 
-0.550868 0.805354 0.000000 
0.823577 0.816150 0.000000 
0.556234 0.042646 0.000000 
-0.139443 0.160215 0.000000 
-0.484677 -0.477910 0.000000 
0.766286 -0.212695 0.000000 
0.384386 -0.727315 0.000000 
0.474677 -0.047249 0.000000 
-0.141715 -0.047345 0.000000 
-0.385608 -0.856573 0.000000 
0.937896 -0.777378 0.000000 
0.621631 0.519042 0.000000 
-0.105264 0.700941 0.000000 
-0.467428 0.102315 0.000000 
0.771260 0.408844 0.000000 
0.386873 -0.091546 0.000000 
0.761262 -0.008140 0.000000 
0.108942 0.273236 0.000000 
-0.397202 -0.207603 0.000000 
-0.142083 -0.868878 0.000000 
-0.595936 0.572347 0.000000 
0.978194 0.072481 0.000000 
-0.660903 -0.619144 0.000000 
0.724964 0.920336 0.000000 
0.899809 0.278087 0.000000 
0.685384 0.873399 0.000000 
0.287229 0.372241 0.000000 
0.702895 -0.327088 0.000000 
0.180633 -0.818606 0.000000 
0.445811 0.503234 0.000000 
-0.220880 0.060448 0.000000 
-0.071546 -0.570477 0.000000 
-0.033296 -0.825549 0.000000 
-0.417537 0.673942 0.000000 
0.039645 -0.028621 0.000000 
-0.441768 -0.528492 0.000000 
-0.109248 0.776057 0.000000 
-0.699407 0.299302 0.000000 
-0.474522 -0.367977 0.000000 
0.820030 -0.794971 0.000000 
0.957100 0.580958 0.000000 
0.610485 0.677866 0.000000 
-0.761092 -0.052514 0.000000 
-0.714655 -0.763252 0.000000 
-0.057734 -0.968419 0.000000 
-0.178789 -0.814510 0.000000 
-0.067979 0.528064 0.000000 
0.677748 0.389860 0.000000 
0.641556 -0.395885 0.000000 
-0.765897 -0.654364 0.000000 
0.393446 0.413499 0.000000 
0.522510 -0.222231 0.000000 
-0.691820 -0.320775 0.000000 
-0.647393 0.948742 0.000000 
0.028512 0.741215 0.000000 
-0.053800 -0.076145 0.000000 
0.514316 -0.348276 0.000000 
0.965681 -0.358492 0.000000 
-0.897068 -0.982521 0.000000 
-0.083078 0.950626 0.000000 
-0.006893 0.248101 0.000000 
0.724017 0.084469 0.000000 
0.714996 -0.691935 0.000000 
-0.642413 -0.925392 0.000000 
-0.760780 0.235627 0.000000 
-0.205471 -0.042188 0.000000 
0.000000 0.983168 0.000000 
-0.564049 0.284981 0.000000 
0.000000 -0.120455 0.000000 
0.564049 0.284981 0.000000 
0.866949 -0.470364 0.000000 
-0.569003 -0.790295 0.000000 
0.000000 -0.271007 0.000000 
0.569003 -0.790295 0.000000 
-0.866949 -0.470364 0.000000 
0.299194 0.759886 0.000000 
0.858290 0.468302 0.000000 
-0.577662 -0.955252 0.000000 
0.000000 0.625370 0.000000 
0.577662 -0.955252 0.000000 
-0.858290 0.468302 0.000000 
-0.299194 0.759886 0.000000 
-0.268560 -0.009864 0.000000 
0.286830 -0.287506 0.000000 
0.844677 0.331693 0.000000 
-0.578910 -0.044470 0.000000 
0.000000 0.446934 0.000000 
0.578910 -0.044470 0.000000 
-0.844677 0.331693 0.000000 
-0.286830 -0.287506 0.000000 
0.268560 -0.009864 0.000000 
-0.610485 0.677866 0.000000 
0.057734 -0.968419 0.000000 
0.714655 -0.763252 0.000000 
0.761092 -0.052514 0.000000 
0.765897 -0.654364 0.000000 
-0.641556 -0.395885 0.000000 
-0.677748 0.389860 0.000000 
0.067979 0.528064 0.000000 
0.178789 -0.814510 0.000000 
-0.514316 -0.348276 0.000000 
0.053800 -0.076145 0.000000 
-0.028512 0.741215 0.000000 
0.647393 0.948742 0.000000 
0.691820 -0.320775 0.000000 
-0.522510 -0.222231 0.000000 
-0.393446 0.413499 0.000000 
0.205471 -0.042188 0.000000 
0.760780 0.235627 0.000000 
0.642413 -0.925392 0.000000 
-0.714996 -0.691935 0.000000 
-0.724017 0.084469 0.000000 
0.006894 0.248101 0.000000 
0.083078 0.950626 0.000000 
0.897068 -0.982521 0.000000 
-0.965681 -0.358492 0.000000 
-0.761262 -0.008140 0.000000 
0.142083 -0.868878 0.000000 
0.397202 -0.207603 0.000000 
-0.108942 0.273236 0.000000 
-0.899809 0.278087 0.000000 
-0.724964 0.920336 0.000000 
0.660903 -0.619144 0.000000 
-0.978194 0.072481 0.000000 
0.595936 0.572347 0.000000 
0.071546 -0.570477 0.000000 
0.220880 0.060448 0.000000 
-0.445811 0.503234 0.000000 
-0.180633 -0.818606 0.000000 
-0.702895 -0.327088 0.000000 
-0.287229 0.372241 0.000000 
-0.685384 0.873399 0.000000 
-0.957100 0.580958 0.000000 
-0.820030 -0.794971 0.000000 
0.474522 -0.367977 0.000000 
0.699407 0.299302 0.000000 
0.109248 0.776057 0.000000 
0.441768 -0.528492 0.000000 
-0.039645 -0.028621 0.000000 
0.417537 0.673942 0.000000 
0.033296 -0.825549 0.000000 
-0.338794 -0.558275 0.000000 
-0.374519 0.014688 0.000000 
-0.713312 0.634118 0.000000 
0.609100 0.522977 0.000000 
-0.381900 0.636916 0.000000 
-0.756418 -0.820692 0.000000 
0.513962 0.967822 0.000000 
0.218274 -0.307939 0.000000 
-0.423588 -0.342042 0.000000 
-0.384386 -0.727315 0.000000 
-0.766286 -0.212695 0.000000 
0.484677 -0.477910 0.000000 
0.139443 0.160215 0.000000 
-0.556234 0.042646 0.000000 
-0.823577 0.816150 0.000000 
0.550868 0.805354 0.000000 
-0.386873 -0.091546 0.000000 
-0.771260 0.408844 0.000000 
0.467428 0.102315 0.000000 
0.105264 0.700941 0.000000 
-0.621631 0.519042 0.000000 
-0.937896 -0.777378 0.000000 
0.385608 -0.856573 0.000000 
0.141715 -0.047345 0.000000 
-0.474677 -0.047249 0.000000 
CELL_DATA 175 
SCALARS MASS float 
LOOKUP_TABLE default 
0.078183 
0.086427 
0.094672 
0.086427 
0.088131 
0.092111 
0.085854 
0.092111 
0.088131 
0.088705 
0.091000 
0.086983 
0.091556 
0.086983 
0.091000 
0.088705 
0.089278 
0.091574 
0.089278 
0.092722 
0.089278 
0.092722 
0.089278 
0.091574 
0.089278 
0.078183 
0.086427 
0.094672 
0.086427 
0.088131 
0.092111 
0.085854 
0.092111 
0.088131 
0.088705 
0.091000 
0.086983 
0.091556 
0.086983 
0.091000 
0.088705 
0.089278 
0.091574 
0.089278 
0.092722 
0.089278 
0.092722 
0.089278 
0.091574 
0.089278 
0.078183 
0.086427 
0.094672 
0.086427 
0.088131 
0.092111 
0.085854 
0.092111 
0.088131 
0.088705 
0.091000 
0.086983 
0.091556 
0.086983 
0.091000 
0.088705 
0.089278 
0.091574 
0.089278 
0.092722 
0.089278 
0.092722 
0.089278 
0.091574 
0.089278 
0.078183 
0.086427 
0.094672 
0.086427 
0.088131 
0.092111 
0.085854 
0.092111 
0.088131 
0.088705 
0.091000 
0.086983 
0.091556 
0.086983 
0.091000 
0.088705 
0.089278 
0.091574 
0.089278 
0.092722 
0.089278 
0.092722 
0.089278 
0.091574 
0.089278 
0.078183 
0.086427 
0.094672 
0.086427 
0.088131 
0.092111 
0.085854 
0.092111 
0.088131 
0.088705 
0.091000 
0.086983 
0.091556 
0.086983 
0.091000 
0.088705 
0.089278 
0.091574 
0.089278 
0.092722 
0.089278 
0.092722 
0.089278 
0.091574 
0.089278 
0.078183 
0.086427 
0.094672 
0.086427 
0.088131 
0.092111 
0.085854 
0.092111 
0.088131 
0.088705 
0.091000 
0.086983 
0.091556 
0.086983 
0.091000 
0.088705 
0.089278 
0.091574 
0.089278 
0.092722 
0.089278 
0.092722 
0.089278 
0.091574 
0.089278 
0.078183 
0.086427 
0.094672 
0.086427 
0.088131 
0.092111 
0.085854 
0.092111 
0.088131 
0.088705 
0.091000 
0.086983 
0.091556 
0.086983 
0.091000 
0.088705 
0.089278 
0.091574 
0.089278 
0.092722 
0.089278 
0.092722 
0.089278 
0.091574 
0.089278 
SCALARS MASS float 
LOOKUP_TABLE default 
0.078183 
0.086427 
0.094672 
0.086427 
0.088131 
0.092111 
0.085854 
0.092111 
0.088131 
0.088705 
0.091000 
0.086983 
0.091556 
0.086983 
0.091000 
0.088705 
0.089278 
0.091574 
0.089278 
0.092722 
0.089278 
0.092722 
0.089278 
0.091574 
0.089278 
0.078183 
0.086427 
0.094672 
0.086427 
0.088131 
0.092111 
0.085854 
0.092111 
0.088131 
0.088705 
0.091000 
0.086983 
0.091556 
0.086983 
0.091000 
0.088705 
0.089278 
0.091574 
0.089278 
0.092722 
0.089278 
0.092722 
0.089278 
0.091574 
0.089278 
0.078183 
0.086427 
0.094672 
0.086427 
0.088131 
0.092111 
0.085854 
0.092111 
0.088131 
0.088705 
0.091000 
0.086983 
0.091556 
0.086983 
0.091000 
0.088705 
0.089278 
0.091574 
0.089278 
0.092722 
0.089278 
0.092722 
0.089278 
0.091574 
0.089278 
0.078183 
0.086427 
0.094672 
0.086427 
0.088131 
0.092111 
0.085854 
0.092111 
0.088131 
0.088705 
0.091000 
0.086983 
0.091556 
0.086983 
0.091000 
0.088705 
0.089278 
0.091574 
0.089278 
0.092722 
0.089278 
0.092722 
0.089278 
0.091574 
0.089278 
0.078183 
0.086427 
0.094672 
0.086427 
0.088131 
0.092111 
0.085854 
0.092111 
0.088131 
0.088705 
0.091000 
0.086983 
0.091556 
0.086983 
0.091000 
0.088705 
0.089278 
0.091574 
0.089278 
0.092722 
0.089278 
0.092722 
0.089278 
0.091574 
0.089278 
0.078183 
0.086427 
0.094672 
0.086427 
0.088131 
0.092111 
0.085854 
0.092111 
0.088131 
0.088705 
0.091000 
0.086983 
0.091556 
0.086983 
0.091000 
0.088705 
0.089278 
0.091574 
0.089278 
0.092722 
0.089278 
0.092722 
0.089278 
0.091574 
0.089278 
0.078183 
0.086427 
0.094672 
0.086427 
0.088131 
0.092111 
0.085854 
0.092111 
0.088131 
0.088705 
0.091000 
0.086983 
0.091556 
0.086983 
0.091000 
0.088705 
0.089278 
0.091574 
0.089278 
0.092722 
0.089278 
0.092722 
0.089278 
0.091574 
0.089278 
SCALARS DENSITY float 
LOOKUP_TABLE default 
20.000000 
20.000000 
20.000000 
20.000000 
20.000000 
20.000000 
20.000000 
20.000000 
20.000000 
20.000000 
20.000000 
20.000000 
20.000000 
20.000000 
20.000000 
20.000000 
20.000000 
20.000000 
20.000000 
20.000000 
20.000000 
20.000000 
20.000000 
20.000000 
20.000000 
20.000000 
20.000000 
20.000000 
20.000000 
20.000000 
20.000000 
20.000000 
20.000000 
20.000000 
20.000000 
20.000000 
20.000000 
20.000000 
20.000000 
20.000000 
20.000000 
20.000000 
20.000000 
20.000000 
20.000000 
20.000000 
20.000000 
20.000000 
20.000000 
20.000000 
20.000000 
20.000000 
20.000000 
20.000000 
20.000000 
20.000000 
20.000000 
20.000000 
20.000000 
20.000000 
20.000000 
20.000000 
20.000000 
20.000000 
20.000000 
20.000000 
20.000000 
20.000000 
20.000000 
20.000000 
20.000000 
20.000000 
20.000000 
20.000000 
20.000000 
20.000000 
20.000000 
20.000000 
20.000000 
20.000000 
20.000000 
20.000000 
20.000000 
20.000000 
20.000000 
20.000000 
20.000000 
20.000000 
20.000000 
20.000000 
20.000000 
20.000000 
20.000000 
20.000000 
20.000000 
20.000000 
20.000000 
20.000000 
20.000000 
20.000000 
20.000000 
20.000000 
20.000000 
20.000000 
20.000000 
20.000000 
20.000000 
20.000000 
20.000000 
20.000000 
20.000000 
20.000000 
20.000000 
20.000000 
20.000000 
20.000000 
20.000000 
20.000000 
20.000000 
20.000000 
20.000000 
20.000000 
20.000000 
20.000000 
20.000000 
20.000000 
20.000000 
20.000000 
20.000000 
20.000000 
20.000000 
20.000000 
20.000000 
20.000000 
20.000000 
20.000000 
20.000000 
20.000000 
20.000000 
20.000000 
20.000000 
20.000000 
20.000000 
20.000000 
20.000000 
20.000000 
20.000000 
20.000000 
20.000000 
20.000000 
20.000000 
20.000000 
20.000000 
20.000000 
20.000000 
20.000000 
20.000000 
20.000000 
20.000000 
20.000000 
20.000000 
20.000000 
20.000000 
20.000000 
20.000000 
20.000000 
20.000000 
20.000000 
20.000000 
20.000000 
20.000000 
20.000000 
20.000000 
20.000000 
20.000000 
SCALARS ELEM_i float 
LOOKUP_TABLE default 
179 
207 
180 
180 
207 
207 
208 
180 
181 
235 
208 
208 
208 
208 
181 
181 
235 
235 
235 
208 
209 
209 
209 
182 
182 
179 
206 
206 
206 
233 
206 
233 
207 
207 
233 
233 
233 
233 
234 
234 
234 
259 
260 
260 
260 
261 
261 
261 
234 
235 
179 
205 
205 
205 
204 
205 
205 
205 
232 
204 
204 
231 
232 
232 
232 
232 
203 
230 
231 
231 
231 
231 
258 
259 
259 
179 
178 
178 
178 
150 
177 
177 
177 
204 
150 
150 
176 
177 
176 
204 
204 
149 
149 
149 
176 
176 
176 
203 
203 
203 
179 
151 
151 
151 
124 
151 
151 
151 
150 
124 
124 
124 
124 
123 
150 
150 
97 
97 
96 
123 
123 
123 
123 
122 
149 
179 
152 
152 
152 
153 
153 
125 
152 
125 
126 
126 
126 
125 
125 
125 
125 
127 
126 
99 
99 
99 
98 
98 
98 
97 
179 
180 
180 
153 
181 
180 
154 
153 
153 
181 
181 
154 
154 
154 
154 
127 
182 
182 
155 
155 
155 
154 
127 
127 
127 
VECTORS VELOCITY float 
0.000000 -2.870798 0.000000 
0.000000 -2.870798 0.000000 
0.000000 -2.870798 0.000000 
0.000000 -2.870798 0.000000 
0.000000 -2.870798 0.000000 
0.000000 -2.870798 0.000000 
0.000000 -2.870798 0.000000 
0.000000 -2.870798 0.000000 
0.000000 -2.870798 0.000000 
-0.000000 -2.870798 0.000000 
-0.000000 -2.870798 0.000000 
-0.000000 -2.870798 0.000000 
-0.000000 -2.870798 0.000000 
-0.000000 -2.870798 0.000000 
0.000000 -2.870798 0.000000 
-0.000000 -2.870798 0.000000 
-0.000000 -2.870798 0.000000 
-0.000000 -2.870798 0.000000 
-0.000000 -2.870798 0.000000 
-0.000000 -2.870798 0.000000 
-0.000000 -2.870798 0.000000 
-0.000000 -2.870798 0.000000 
-0.000000 -2.870798 0.000000 
-0.000000 -2.870798 0.000000 
0.000000 -2.870798 0.000000 
-0.000000 -2.870798 0.000000 
-0.000000 -2.870798 0.000000 
-0.000000 -2.870798 0.000000 
0.000000 -2.870798 0.000000 
0.000000 -2.870798 0.000000 
-0.000000 -2.870798 0.000000 
-0.000000 -2.870798 0.000000 
-0.000000 -2.870798 0.000000 
-0.000000 -2.870798 0.000000 
0.000000 -2.870798 0.000000 
0.000000 -2.870798 0.000000 
0.000000 -2.870798 0.000000 
0.000000 -2.870798 0.000000 
0.000000 -2.870798 0.000000 
-0.000000 -2.870798 0.000000 
-0.000000 -2.870798 0.000000 
-0.000000 -2.870798 0.000000 
0.000000 -2.870798 0.000000 
-0.000000 -2.870798 0.000000 
0.000000 -2.870798 0.000000 
-0.000000 -2.870798 0.000000 
-0.000000 -2.870798 0.000000 
-0.000000 -2.870798 0.000000 
-0.000000 -2.870798 0.000000 
-0.000000 -2.870798 0.000000 
-0.000000 -2.870798 0.000000 
0.000000 -2.870798 0.000000 
-0.000000 -2.870798 0.000000 
-0.000000 -2.870798 0.000000 
0.000000 -2.870798 0.000000 
0.000000 -2.870798 0.000000 
0.000000 -2.870798 0.000000 
-0.000000 -2.870798 0.000000 
0.000000 -2.870798 0.000000 
-0.000000 -2.870798 0.000000 
0.000000 -2.870798 0.000000 
0.000000 -2.870798 0.000000 
0.000000 -2.870798 0.000000 
0.000000 -2.870798 0.000000 
0.000000 -2.870798 0.000000 
0.000000 -2.870798 0.000000 
-0.000000 -2.870798 0.000000 
-0.000000 -2.870798 0.000000 
-0.000000 -2.870798 0.000000 
-0.000000 -2.870798 0.000000 
0.000000 -2.870798 0.000000 
-0.000000 -2.870798 0.000000 
-0.000000 -2.870798 0.000000 
0.000000 -2.870798 0.000000 
0.000000 -2.870798 0.000000 
-0.000000 -2.870798 0.000000 
-0.000000 -2.870798 0.000000 
-0.000000 -2.870798 0.000000 
0.000000 -2.870798 0.000000 
-0.000000 -2.870798 0.000000 
0.000000 -2.870798 0.000000 
0.000000 -2.870798 0.000000 
0.000000 -2.870798 0.000000 
0.000000 -2.870798 0.000000 
0.000000 -2.870798 0.000000 
0.000000 -2.870798 0.000000 
0.000000 -2.870798 0.000000 
0.000000 -2.870798 0.000000 
-0.000000 -2.870798 0.000000 
0.000000 -2.870798 0.000000 
-0.000000 -2.870798 0.000000 
0.000000 -2.870798 0.000000 
0.000000 -2.870798 0.000000 
0.000000 -2.870798 0.000000 
-0.000000 -2.870798 0.000000 
0.000000 -2.870798 0.000000 
0.000000 -2.870798 0.000000 
0.000000 -2.870798 0.000000 
0.000000 -2.870798 0.000000 
0.000000 -2.870798 0.000000 
-0.000000 -2.870798 0.000000 
-0.000000 -2.870798 0.000000 
-0.000000 -2.870798 0.000000 
-0.000000 -2.870798 0.000000 
-0.000000 -2.870798 0.000000 
-0.000000 -2.870798 0.000000 
-0.000000 -2.870798 0.000000 
-0.000000 -2.870798 0.000000 
-0.000000 -2.870798 0.000000 
-0.000000 -2.870798 0.000000 
-0.000000 -2.870798 0.000000 
0.000000 -2.870798 0.000000 
0.000000 -2.870798 0.000000 
0.000000 -2.870798 0.000000 
0.000000 -2.870798 0.000000 
0.000000 -2.870798 0.000000 
-0.000000 -2.870798 0.000000 
-0.000000 -2.870798 0.000000 
-0.000000 -2.870798 0.000000 
-0.000000 -2.870798 0.000000 
-0.000000 -2.870798 0.000000 
-0.000000 -2.870798 0.000000 
-0.000000 -2.870798 0.000000 
-0.000000 -2.870798 0.000000 
0.000000 -2.870798 0.000000 
-0.000000 -2.870798 0.000000 
0.000000 -2.870798 0.000000 
-0.000000 -2.870798 0.000000 
-0.000000 -2.870798 0.000000 
-0.000000 -2.870798 0.000000 
-0.000000 -2.870798 0.000000 
-0.000000 -2.870798 0.000000 
0.000000 -2.870798 0.000000 
0.000000 -2.870798 0.000000 
-0.000000 -2.870798 0.000000 
-0.000000 -2.870798 0.000000 
-0.000000 -2.870798 0.000000 
-0.000000 -2.870798 0.000000 
-0.000000 -2.870798 0.000000 
-0.000000 -2.870798 0.000000 
-0.000000 -2.870798 0.000000 
0.000000 -2.870798 0.000000 
-0.000000 -2.870798 0.000000 
0.000000 -2.870798 0.000000 
-0.000000 -2.870798 0.000000 
0.000000 -2.870798 0.000000 
0.000000 -2.870798 0.000000 
0.000000 -2.870798 0.000000 
-0.000000 -2.870798 0.000000 
0.000000 -2.870798 0.000000 
0.000000 -2.870798 0.000000 
0.000000 -2.870798 0.000000 
0.000000 -2.870798 0.000000 
0.000000 -2.870798 0.000000 
0.000000 -2.870798 0.000000 
-0.000000 -2.870798 0.000000 
-0.000000 -2.870798 0.000000 
-0.000000 -2.870798 0.000000 
0.000000 -2.870798 0.000000 
-0.000000 -2.870798 0.000000 
-0.000000 -2.870798 0.000000 
-0.000000 -2.870798 0.000000 
-0.000000 -2.870798 0.000000 
-0.000000 -2.870798 0.000000 
-0.000000 -2.870798 0.000000 
-0.000000 -2.870798 0.000000 
0.000000 -2.870798 0.000000 
-0.000000 -2.870798 0.000000 
-0.000000 -2.870798 0.000000 
0.000000 -2.870798 0.000000 
0.000000 -2.870798 0.000000 
0.000000 -2.870798 0.000000 
0.000000 -2.870798 0.000000 
0.000000 -2.870798 0.000000 
0.000000 -2.870798 0.000000 
TENSORS STRESS float 
0.000000 -0.000000 0.000000 
0.000000 -0.000000 0.000000 
0.000000 0.000000 0.000000 

-0.000000 -0.000000 0.000000 
0.000000 0.000000 0.000000 
0.000000 0.000000 0.000000 

0.000000 -0.000000 0.000000 
0.000000 0.000000 0.000000 
0.000000 0.000000 0.000000 

0.000000 0.000000 0.000000 
0.000000 -0.000000 0.000000 
0.000000 0.000000 0.000000 

-0.000000 -0.000000 0.000000 
0.000000 -0.000000 0.000000 
0.000000 0.000000 0.000000 

-0.000000 -0.000000 0.000000 
0.000000 0.000000 0.000000 
0.000000 0.000000 0.000000 

-0.000000 0.000000 0.000000 
0.000000 -0.000000 0.000000 
0.000000 0.000000 0.000000 

0.000000 -0.000000 0.000000 
0.000000 0.000000 0.000000 
0.000000 0.000000 0.000000 

-0.000000 -0.000000 0.000000 
0.000000 -0.000000 0.000000 
0.000000 0.000000 0.000000 

-0.000000 -0.000000 0.000000 
0.000000 -0.000000 0.000000 
0.000000 0.000000 0.000000 

-0.000000 -0.000000 0.000000 
0.000000 -0.000000 0.000000 
0.000000 0.000000 0.000000 

-0.000000 0.000000 0.000000 
0.000000 -0.000000 0.000000 
0.000000 0.000000 0.000000 

-0.000000 0.000000 0.000000 
0.000000 0.000000 0.000000 
0.000000 0.000000 0.000000 

0.000000 0.000000 0.000000 
0.000000 0.000000 0.000000 
0.000000 0.000000 0.000000 

0.000000 0.000000 0.000000 
0.000000 0.000000 0.000000 
0.000000 0.000000 0.000000 

0.000000 0.000000 0.000000 
0.000000 0.000000 0.000000 
0.000000 0.000000 0.000000 

0.000000 -0.000000 0.000000 
0.000000 0.000000 0.000000 
0.000000 0.000000 0.000000 

-0.000000 -0.000000 0.000000 
0.000000 0.000000 0.000000 
0.000000 0.000000 0.000000 

-0.000000 0.000000 0.000000 
0.000000 -0.000000 0.000000 
0.000000 0.000000 0.000000 

0.000000 0.000000 0.000000 
0.000000 0.000000 0.000000 
0.000000 0.000000 0.000000 

0.000000 0.000000 0.000000 
0.000000 -0.000000 0.000000 
0.000000 0.000000 0.000000 

0.000000 -0.000000 0.000000 
0.000000 0.000000 0.000000 
0.000000 0.000000 0.000000 

0.000000 0.000000 0.000000 
0.000000 0.000000 0.000000 
0.000000 0.000000 0.000000 

-0.000000 -0.000000 0.000000 
0.000000 -0.000000 0.000000 
0.000000 0.000000 0.000000 

-0.000000 -0.000000 0.000000 
0.000000 0.000000 0.000000 
0.000000 0.000000 0.000000 

0.000000 -0.000000 0.000000 
0.000000 0.000000 0.000000 
0.000000 0.000000 0.000000 

-0.000000 0.000000 0.000000 
0.000000 -0.000000 0.000000 
0.000000 0.000000 0.000000 

-0.000000 0.000000 0.000000 
0.000000 -0.000000 0.000000 
0.000000 0.000000 0.000000 

-0.000000 -0.000000 0.000000 
0.000000 -0.000000 0.000000 
0.000000 0.000000 0.000000 

0.000000 0.000000 0.000000 
0.000000 -0.000000 0.000000 
0.000000 0.000000 0.000000 

-0.000000 -0.000000 0.000000 
0.000000 -0.000000 0.000000 
0.000000 0.000000 0.000000 

0.000000 -0.000000 0.000000 
0.000000 -0.000000 0.000000 
0.000000 0.000000 0.000000 

-0.000000 -0.000000 0.000000 
0.000000 -0.000000 0.000000 
0.000000 0.000000 0.000000 

-0.000000 0.000000 0.000000 
0.000000 -0.000000 0.000000 
0.000000 0.000000 0.000000 

0.000000 -0.000000 0.000000 
0.000000 -0.000000 0.000000 
0.000000 0.000000 0.000000 

0.000000 0.000000 0.000000 
0.000000 0.000000 0.000000 
0.000000 0.000000 0.000000 

0.000000 0.000000 0.000000 
0.000000 0.000000 0.000000 
0.000000 0.000000 0.000000 

0.000000 0.000000 0.000000 
0.000000 0.000000 0.000000 
0.000000 0.000000 0.000000 

0.000000 -0.000000 0.000000 
0.000000 0.000000 0.000000 
0.000000 0.000000 0.000000 

0.000000 -0.000000 0.000000 
0.000000 0.000000 0.000000 
0.000000 0.000000 0.000000 

0.000000 -0.000000 0.000000 
0.000000 0.000000 0.000000 
0.000000 0.000000 0.000000 

0.000000 0.000000 0.000000 
0.000000 -0.000000 0.000000 
0.000000 0.000000 0.000000 

0.000000 -0.000000 0.000000 
0.000000 0.000000 0.000000 
0.000000 0.000000 0.000000 

-0.000000 -0.000000 0.000000 
0.000000 -0.000000 0.000000 
0.000000 0.000000 0.000000 

0.000000 0.000000 0.000000 
0.000000 0.000000 0.000000 
0.000000 0.000000 0.000000 

-0.000000 0.000000 0.000000 
0.000000 -0.000000 0.000000 
0.000000 0.000000 0.000000 

-0.000000 0.000000 0.000000 
0.000000 0.000000 0.000000 
0.000000 0.000000 0.000000 

-0.000000 -0.000000 0.000000 
0.000000 -0.000000 0.000000 
0.000000 0.000000 0.000000 

0.000000 0.000000 0.000000 
0.000000 -0.000000 0.000000 
0.000000 0.000000 0.000000 

-0.000000 -0.000000 0.000000 
0.000000 -0.000000 0.000000 
0.000000 0.000000 0.000000 

0.000000 0.000000 0.000000 
0.000000 0.000000 0.000000 
0.000000 0.000000 0.000000 

0.000000 0.000000 0.000000 
0.000000 0.000000 0.000000 
0.000000 0.000000 0.000000 

-0.000000 0.000000 0.000000 
0.000000 -0.000000 0.000000 
0.000000 0.000000 0.000000 

-0.000000 0.000000 0.000000 
0.000000 -0.000000 0.000000 
0.000000 0.000000 0.000000 

0.000000 0.000000 0.000000 
0.000000 -0.000000 0.000000 
0.000000 0.000000 0.000000 

0.000000 -0.000000 0.000000 
0.000000 -0.000000 0.000000 
0.000000 0.000000 0.000000 

0.000000 -0.000000 0.000000 
0.000000 0.000000 0.000000 
0.000000 0.000000 0.000000 

-0.000000 -0.000000 0.000000 
0.000000 -0.000000 0.000000 
0.000000 0.000000 0.000000 

-0.000000 0.000000 0.000000 
0.000000 -0.000000 0.000000 
0.000000 0.000000 0.000000 

0.000000 0.000000 0.000000 
0.000000 0.000000 0.000000 
0.000000 0.000000 0.000000 

0.000000 -0.000000 0.000000 
0.000000 0.000000 0.000000 
0.000000 0.000000 0.000000 

0.000000 -0.000000 0.000000 
0.000000 0.000000 0.000000 
0.000000 0.000000 0.000000 

0.000000 0.000000 0.000000 
0.000000 -0.000000 0.000000 
0.000000 0.000000 0.000000 

0.000000 0.000000 0.000000 
0.000000 -0.000000 0.000000 
0.000000 0.000000 0.000000 

-0.000000 0.000000 0.000000 
0.000000 -0.000000 0.000000 
0.000000 0.000000 0.000000 

-0.000000 0.000000 0.000000 
0.000000 0.000000 0.000000 
0.000000 0.000000 0.000000 

-0.000000 0.000000 0.000000 
0.000000 -0.000000 0.000000 
0.000000 0.000000 0.000000 

-0.000000 0.000000 0.000000 
0.000000 0.000000 0.000000 
0.000000 0.000000 0.000000 

-0.000000 0.000000 0.000000 
0.000000 0.000000 0.000000 
0.000000 0.000000 0.000000 

-0.000000 -0.000000 0.000000 
0.000000 -0.000000 0.000000 
0.000000 0.000000 0.000000 

-0.000000 -0.000000 0.000000 
0.000000 -0.000000 0.000000 
0.000000 0.000000 0.000000 

0.000000 -0.000000 0.000000 
0.000000 0.000000 0.000000 
0.000000 0.000000 0.000000 

-0.000000 -0.000000 0.000000 
0.000000 0.000000 0.000000 
0.000000 0.000000 0.000000 

-0.000000 0.000000 0.000000 
0.000000 -0.000000 0.000000 
0.000000 0.000000 0.000000 

0.000000 -0.000000 0.000000 
0.000000 0.000000 0.000000 
0.000000 0.000000 0.000000 

-0.000000 -0.000000 0.000000 
0.000000 -0.000000 0.000000 
0.000000 0.000000 0.000000 

-0.000000 -0.000000 0.000000 
0.000000 -0.000000 0.000000 
0.000000 0.000000 0.000000 

0.000000 -0.000000 0.000000 
0.000000 0.000000 0.000000 
0.000000 0.000000 0.000000 

0.000000 -0.000000 0.000000 
0.000000 0.000000 0.000000 
0.000000 0.000000 0.000000 

-0.000000 0.000000 0.000000 
0.000000 -0.000000 0.000000 
0.000000 0.000000 0.000000 

-0.000000 0.000000 0.000000 
0.000000 -0.000000 0.000000 
0.000000 0.000000 0.000000 

-0.000000 0.000000 0.000000 
0.000000 -0.000000 0.000000 
0.000000 0.000000 0.000000 

-0.000000 0.000000 0.000000 
0.000000 0.000000 0.000000 
0.000000 0.000000 0.000000 

0.000000 -0.000000 0.000000 
0.000000 0.000000 0.000000 
0.000000 0.000000 0.000000 

-0.000000 0.000000 0.000000 
0.000000 0.000000 0.000000 
0.000000 0.000000 0.000000 

-0.000000 0.000000 0.000000 
0.000000 0.000000 0.000000 
0.000000 0.000000 0.000000 

-0.000000 -0.000000 0.000000 
0.000000 0.000000 0.000000 
0.000000 0.000000 0.000000 

-0.000000 0.000000 0.000000 
0.000000 -0.000000 0.000000 
0.000000 0.000000 0.000000 

-0.000000 -0.000000 0.000000 
0.000000 -0.000000 0.000000 
0.000000 0.000000 0.000000 

0.000000 0.000000 0.000000 
0.000000 0.000000 0.000000 
0.000000 0.000000 0.000000 

-0.000000 0.000000 0.000000 
0.000000 -0.000000 0.000000 
0.000000 0.000000 0.000000 

-0.000000 0.000000 0.000000 
0.000000 -0.000000 0.000000 
0.000000 0.000000 0.000000 

-0.000000 0.000000 0.000000 
0.000000 -0.000000 0.000000 
0.000000 0.000000 0.000000 

0.000000 -0.000000 0.000000 
0.000000 0.000000 0.000000 
0.000000 0.000000 0.000000 

-0.000000 -0.000000 0.000000 
0.000000 -0.000000 0.000000 
0.000000 0.000000 0.000000 

-0.000000 -0.000000 0.000000 
0.000000 0.000000 0.000000 
0.000000 0.000000 0.000000 

-0.000000 -0.000000 0.000000 
0.000000 0.000000 0.000000 
0.000000 0.000000 0.000000 

-0.000000 -0.000000 0.000000 
0.000000 0.000000 0.000000 
0.000000 0.000000 0.000000 

-0.000000 -0.000000 0.000000 
0.000000 -0.000000 0.000000 
0.000000 0.000000 0.000000 

-0.000000 -0.000000 0.000000 
0.000000 -0.000000 0.000000 
0.000000 0.000000 0.000000 

0.000000 0.000000 0.000000 
0.000000 -0.000000 0.000000 
0.000000 0.000000 0.000000 

-0.000000 0.000000 0.000000 
0.000000 -0.000000 0.000000 
0.000000 0.000000 0.000000 

-0.000000 0.000000 0.000000 
0.000000 -0.000000 0.000000 
0.000000 0.000000 0.000000 

0.000000 0.000000 0.000000 
0.000000 0.000000 0.000000 
0.000000 0.000000 0.000000 

0.000000 0.000000 0.000000 
0.000000 -0.000000 0.000000 
0.000000 0.000000 0.000000 

-0.000000 0.000000 0.000000 
0.000000 -0.000000 0.000000 
0.000000 0.000000 0.000000 

-0.000000 0.000000 0.000000 
0.000000 -0.000000 0.000000 
0.000000 0.000000 0.000000 

-0.000000 -0.000000 0.000000 
0.000000 -0.000000 0.000000 
0.000000 0.000000 0.000000 

-0.000000 -0.000000 0.000000 
0.000000 -0.000000 0.000000 
0.000000 0.000000 0.000000 

0.000000 0.000000 0.000000 
0.000000 -0.000000 0.000000 
0.000000 0.000000 0.000000 

0.000000 0.000000 0.000000 
0.000000 -0.000000 0.000000 
0.000000 0.000000 0.000000 

0.000000 0.000000 0.000000 
0.000000 0.000000 0.000000 
0.000000 0.000000 0.000000 

0.000000 0.000000 0.000000 
0.000000 -0.000000 0.000000 
0.000000 0.000000 0.000000 

-0.000000 -0.000000 0.000000 
0.000000 -0.000000 0.000000 
0.000000 0.000000 0.000000 

-0.000000 0.000000 0.000000 
0.000000 0.000000 0.000000 
0.000000 0.000000 0.000000 

-0.000000 0.000000 0.000000 
0.000000 0.000000 0.000000 
0.000000 0.000000 0.000000 

-0.000000 -0.000000 0.000000 
0.000000 0.000000 0.000000 
0.000000 0.000000 0.000000 

-0.000000 0.000000 0.000000 
0.000000 0.000000 0.000000 
0.000000 0.000000 0.000000 

-0.000000 -0.000000 0.000000 
0.000000 -0.000000 0.000000 
0.000000 0.000000 0.000000 

-0.000000 -0.000000 0.000000 
0.000000 -0.000000 0.000000 
0.000000 0.000000 0.000000 

-0.000000 0.000000 0.000000 
0.000000 -0.000000 0.000000 
0.000000 0.000000 0.000000 

-0.000000 -0.000000 0.000000 
0.000000 0.000000 0.000000 
0.000000 0.000000 0.000000 

0.000000 -0.000000 0.000000 
0.000000 0.000000 0.000000 
0.000000 0.000000 0.000000 

0.000000 0.000000 0.000000 
0.000000 -0.000000 0.000000 
0.000000 0.000000 0.000000 

-0.000000 -0.000000 0.000000 
0.000000 -0.000000 0.000000 
0.000000 0.000000 0.000000 

0.000000 -0.000000 0.000000 
0.000000 -0.000000 0.000000 
0.000000 0.000000 0.000000 

-0.000000 -0.000000 0.000000 
0.000000 -0.000000 0.000000 
0.000000 0.000000 0.000000 

-0.000000 -0.000000 0.000000 
0.000000 -0.000000 0.000000 
0.000000 0.000000 0.000000 

-0.000000 0.000000 0.000000 
0.000000 0.000000 0.000000 
0.000000 0.000000 0.000000 

-0.000000 -0.000000 0.000000 
0.000000 -0.000000 0.000000 
0.000000 0.000000 0.000000 

-0.000000 -0.000000 0.000000 
0.000000 0.000000 0.000000 
0.000000 0.000000 0.000000 

-0.000000 -0.000000 0.000000 
0.000000 -0.000000 0.000000 
0.000000 0.000000 0.000000 

-0.000000 0.000000 0.000000 
0.000000 0.000000 0.000000 
0.000000 0.000000 0.000000 

0.000000 0.000000 0.000000 
0.000000 0.000000 0.000000 
0.000000 0.000000 0.000000 

0.000000 -0.000000 0.000000 
0.000000 0.000000 0.000000 
0.000000 0.000000 0.000000 

0.000000 0.000000 0.000000 
0.000000 0.000000 0.000000 
0.000000 0.000000 0.000000 

-0.000000 0.000000 0.000000 
0.000000 -0.000000 0.000000 
0.000000 0.000000 0.000000 

-0.000000 0.000000 0.000000 
0.000000 -0.000000 0.000000 
0.000000 0.000000 0.000000 

-0.000000 -0.000000 0.000000 
0.000000 -0.000000 0.000000 
0.000000 0.000000 0.000000 

-0.000000 -0.000000 0.000000 
0.000000 -0.000000 0.000000 
0.000000 0.000000 0.000000 

0.000000 -0.000000 0.000000 
0.000000 0.000000 0.000000 
0.000000 0.000000 0.000000 

-0.000000 -0.000000 0.000000 
0.000000 -0.000000 0.000000 
0.000000 0.000000 0.000000 

0.000000 0.000000 0.000000 
0.000000 -0.000000 0.000000 
0.000000 0.000000 0.000000 

0.000000 -0.000000 0.000000 
0.000000 -0.000000 0.000000 
0.000000 0.000000 0.000000 

-0.000000 0.000000 0.000000 
0.000000 0.000000 0.000000 
0.000000 0.000000 0.000000 

-0.000000 -0.000000 0.000000 
0.000000 -0.000000 0.000000 
0.000000 0.000000 0.000000 

-0.000000 0.000000 0.000000 
0.000000 0.000000 0.000000 
0.000000 0.000000 0.000000 

-0.000000 -0.000000 0.000000 
0.000000 -0.000000 0.000000 
0.000000 0.000000 0.000000 

-0.000000 0.000000 0.000000 
0.000000 -0.000000 0.000000 
0.000000 0.000000 0.000000 

-0.000000 0.000000 0.000000 
0.000000 0.000000 0.000000 
0.000000 0.000000 0.000000 

0.000000 -0.000000 0.000000 
0.000000 0.000000 0.000000 
0.000000 0.000000 0.000000 

0.000000 -0.000000 0.000000 
0.000000 0.000000 0.000000 
0.000000 0.000000 0.000000 

0.000000 -0.000000 0.000000 
0.000000 0.000000 0.000000 
0.000000 0.000000 0.000000 

-0.000000 -0.000000 0.000000 
0.000000 -0.000000 0.000000 
0.000000 0.000000 0.000000 

0.000000 -0.000000 0.000000 
0.000000 0.000000 0.000000 
0.000000 0.000000 0.000000 

0.000000 -0.000000 0.000000 
0.000000 0.000000 0.000000 
0.000000 0.000000 0.000000 

0.000000 0.000000 0.000000 
0.000000 0.000000 0.000000 
0.000000 0.000000 0.000000 

0.000000 -0.000000 0.000000 
0.000000 -0.000000 0.000000 
0.000000 0.000000 0.000000 

0.000000 0.000000 0.000000 
0.000000 0.000000 0.000000 
0.000000 0.000000 0.000000 

-0.000000 0.000000 0.000000 
0.000000 0.000000 0.000000 
0.000000 0.000000 0.000000 

0.000000 0.000000 0.000000 
0.000000 0.000000 0.000000 
0.000000 0.000000 0.000000 

0.000000 0.000000 0.000000 
0.000000 -0.000000 0.000000 
0.000000 0.000000 0.000000 

0.000000 0.000000 0.000000 
0.000000 0.000000 0.000000 
0.000000 0.000000 0.000000 

-0.000000 0.000000 0.000000 
0.000000 -0.000000 0.000000 
0.000000 0.000000 0.000000 

0.000000 0.000000 0.000000 
0.000000 0.000000 0.000000 
0.000000 0.000000 0.000000 

0.000000 -0.000000 0.000000 
0.000000 0.000000 0.000000 
0.000000 0.000000 0.000000 

-0.000000 -0.000000 0.000000 
0.000000 -0.000000 0.000000 
0.000000 0.000000 0.000000 

0.000000 -0.000000 0.000000 
0.000000 0.000000 0.000000 
0.000000 0.000000 0.000000 

0.000000 0.000000 0.000000 
0.000000 0.000000 0.000000 
0.000000 0.000000 0.000000 

-0.000000 -0.000000 0.000000 
0.000000 -0.000000 0.000000 
0.000000 0.000000 0.000000 

0.000000 -0.000000 0.000000 
0.000000 0.000000 0.000000 
0.000000 0.000000 0.000000 

0.000000 0.000000 0.000000 
0.000000 0.000000 0.000000 
0.000000 0.000000 0.000000 

-0.000000 0.000000 0.000000 
0.000000 0.000000 0.000000 
0.000000 0.000000 0.000000 

-0.000000 -0.000000 0.000000 
0.000000 -0.000000 0.000000 
0.000000 0.000000 0.000000 

-0.000000 -0.000000 0.000000 
0.000000 0.000000 0.000000 
0.000000 0.000000 0.000000 

TENSORS STRAIN float 
0.000000 -0.000000 0.000000 
0.000000 -0.000000 0.000000 
0.000000 0.000000 0.000000 

-0.000000 -0.000000 0.000000 
0.000000 0.000000 0.000000 
0.000000 0.000000 0.000000 

0.000000 -0.000000 0.000000 
0.000000 -0.000000 0.000000 
0.000000 0.000000 0.000000 

0.000000 0.000000 0.000000 
0.000000 -0.000000 0.000000 
0.000000 0.000000 0.000000 

-0.000000 -0.000000 0.000000 
0.000000 -0.000000 0.000000 
0.000000 0.000000 0.000000 

-0.000000 -0.000000 0.000000 
0.000000 0.000000 0.000000 
0.000000 0.000000 0.000000 

-0.000000 0.000000 0.000000 
0.000000 -0.000000 0.000000 
0.000000 0.000000 0.000000 

0.000000 -0.000000 0.000000 
0.000000 0.000000 0.000000 
0.000000 0.000000 0.000000 

0.000000 -0.000000 0.000000 
0.000000 -0.000000 0.000000 
0.000000 0.000000 0.000000 

0.000000 -0.000000 0.000000 
0.000000 -0.000000 0.000000 
0.000000 0.000000 0.000000 

-0.000000 -0.000000 0.000000 
0.000000 -0.000000 0.000000 
0.000000 0.000000 0.000000 

-0.000000 0.000000 0.000000 
0.000000 -0.000000 0.000000 
0.000000 0.000000 0.000000 

-0.000000 0.000000 0.000000 
0.000000 0.000000 0.000000 
0.000000 0.000000 0.000000 

0.000000 0.000000 0.000000 
0.000000 0.000000 0.000000 
0.000000 0.000000 0.000000 

0.000000 0.000000 0.000000 
0.000000 0.000000 0.000000 
0.000000 0.000000 0.000000 

-0.000000 0.000000 0.000000 
0.000000 0.000000 0.000000 
0.000000 0.000000 0.000000 

-0.000000 -0.000000 0.000000 
0.000000 0.000000 0.000000 
0.000000 0.000000 0.000000 

-0.000000 -0.000000 0.000000 
0.000000 0.000000 0.000000 
0.000000 0.000000 0.000000 

-0.000000 0.000000 0.000000 
0.000000 -0.000000 0.000000 
0.000000 0.000000 0.000000 

0.000000 0.000000 0.000000 
0.000000 0.000000 0.000000 
0.000000 0.000000 0.000000 

0.000000 0.000000 0.000000 
0.000000 -0.000000 0.000000 
0.000000 0.000000 0.000000 

0.000000 -0.000000 0.000000 
0.000000 0.000000 0.000000 
0.000000 0.000000 0.000000 

0.000000 0.000000 0.000000 
0.000000 0.000000 0.000000 
0.000000 0.000000 0.000000 

-0.000000 -0.000000 0.000000 
0.000000 -0.000000 0.000000 
0.000000 0.000000 0.000000 

-0.000000 -0.000000 0.000000 
0.000000 0.000000 0.000000 
0.000000 0.000000 0.000000 

0.000000 -0.000000 0.000000 
0.000000 0.000000 0.000000 
0.000000 0.000000 0.000000 

-0.000000 0.000000 0.000000 
0.000000 -0.000000 0.000000 
0.000000 0.000000 0.000000 

-0.000000 0.000000 0.000000 
0.000000 -0.000000 0.000000 
0.000000 0.000000 0.000000 

-0.000000 -0.000000 0.000000 
0.000000 -0.000000 0.000000 
0.000000 0.000000 0.000000 

0.000000 0.000000 0.000000 
0.000000 -0.000000 0.000000 
0.000000 0.000000 0.000000 

-0.000000 -0.000000 0.000000 
0.000000 -0.000000 0.000000 
0.000000 0.000000 0.000000 

0.000000 -0.000000 0.000000 
0.000000 -0.000000 0.000000 
0.000000 0.000000 0.000000 

-0.000000 -0.000000 0.000000 
0.000000 -0.000000 0.000000 
0.000000 0.000000 0.000000 

-0.000000 0.000000 0.000000 
0.000000 -0.000000 0.000000 
0.000000 0.000000 0.000000 

0.000000 -0.000000 0.000000 
0.000000 -0.000000 0.000000 
0.000000 0.000000 0.000000 

0.000000 0.000000 0.000000 
0.000000 -0.000000 0.000000 
0.000000 0.000000 0.000000 

0.000000 0.000000 0.000000 
0.000000 -0.000000 0.000000 
0.000000 0.000000 0.000000 

0.000000 0.000000 0.000000 
0.000000 0.000000 0.000000 
0.000000 0.000000 0.000000 

0.000000 -0.000000 0.000000 
0.000000 0.000000 0.000000 
0.000000 0.000000 0.000000 

0.000000 -0.000000 0.000000 
0.000000 -0.000000 0.000000 
0.000000 0.000000 0.000000 

0.000000 -0.000000 0.000000 
0.000000 0.000000 0.000000 
0.000000 0.000000 0.000000 

0.000000 0.000000 0.000000 
0.000000 -0.000000 0.000000 
0.000000 0.000000 0.000000 

0.000000 -0.000000 0.000000 
0.000000 0.000000 0.000000 
0.000000 0.000000 0.000000 

0.000000 -0.000000 0.000000 
0.000000 -0.000000 0.000000 
0.000000 0.000000 0.000000 

0.000000 0.000000 0.000000 
0.000000 0.000000 0.000000 
0.000000 0.000000 0.000000 

-0.000000 0.000000 0.000000 
0.000000 -0.000000 0.000000 
0.000000 0.000000 0.000000 

-0.000000 0.000000 0.000000 
0.000000 0.000000 0.000000 
0.000000 0.000000 0.000000 

-0.000000 -0.000000 0.000000 
0.000000 -0.000000 0.000000 
0.000000 0.000000 0.000000 

0.000000 0.000000 0.000000 
0.000000 -0.000000 0.000000 
0.000000 0.000000 0.000000 

0.000000 -0.000000 0.000000 
0.000000 -0.000000 0.000000 
0.000000 0.000000 0.000000 

0.000000 0.000000 0.000000 
0.000000 0.000000 0.000000 
0.000000 0.000000 0.000000 

0.000000 0.000000 0.000000 
0.000000 -0.000000 0.000000 
0.000000 0.000000 0.000000 

-0.000000 0.000000 0.000000 
0.000000 -0.000000 0.000000 
0.000000 0.000000 0.000000 

-0.000000 0.000000 0.000000 
0.000000 -0.000000 0.000000 
0.000000 0.000000 0.000000 

0.000000 0.000000 0.000000 
0.000000 -0.000000 0.000000 
0.000000 0.000000 0.000000 

0.000000 -0.000000 0.000000 
0.000000 -0.000000 0.000000 
0.000000 0.000000 0.000000 

0.000000 -0.000000 0.000000 
0.000000 0.000000 0.000000 
0.000000 0.000000 0.000000 

0.000000 -0.000000 0.000000 
0.000000 -0.000000 0.000000 
0.000000 0.000000 0.000000 

0.000000 0.000000 0.000000 
0.000000 -0.000000 0.000000 
0.000000 0.000000 0.000000 

-0.000000 0.000000 0.000000 
0.000000 0.000000 0.000000 
0.000000 0.000000 0.000000 

0.000000 -0.000000 0.000000 
0.000000 0.000000 0.000000 
0.000000 0.000000 0.000000 

-0.000000 -0.000000 0.000000 
0.000000 0.000000 0.000000 
0.000000 0.000000 0.000000 

0.000000 0.000000 0.000000 
0.000000 -0.000000 0.000000 
0.000000 0.000000 0.000000 

0.000000 0.000000 0.000000 
0.000000 -0.000000 0.000000 
0.000000 0.000000 0.000000 

0.000000 0.000000 0.000000 
0.000000 -0.000000 0.000000 
0.000000 0.000000 0.000000 

-0.000000 0.000000 0.000000 
0.000000 0.000000 0.000000 
0.000000 0.000000 0.000000 

-0.000000 0.000000 0.000000 
0.000000 -0.000000 0.000000 
0.000000 0.000000 0.000000 

-0.000000 0.000000 0.000000 
0.000000 0.000000 0.000000 
0.000000 0.000000 0.000000 

-0.000000 0.000000 0.000000 
0.000000 0.000000 0.000000 
0.000000 0.000000 0.000000 

-0.000000 -0.000000 0.000000 
0.000000 -0.000000 0.000000 
0.000000 0.000000 0.000000 

0.000000 -0.000000 0.000000 
0.000000 -0.000000 0.000000 
0.000000 0.000000 0.000000 

0.000000 -0.000000 0.000000 
0.000000 0.000000 0.000000 
0.000000 0.000000 0.000000 

-0.000000 -0.000000 0.000000 
0.000000 0.000000 0.000000 
0.000000 0.000000 0.000000 

-0.000000 0.000000 0.000000 
0.000000 -0.000000 0.000000 
0.000000 0.000000 0.000000 

-0.000000 -0.000000 0.000000 
0.000000 0.000000 0.000000 
0.000000 0.000000 0.000000 

0.000000 -0.000000 0.000000 
0.000000 -0.000000 0.000000 
0.000000 0.000000 0.000000 

-0.000000 -0.000000 0.000000 
0.000000 -0.000000 0.000000 
0.000000 0.000000 0.000000 

-0.000000 -0.000000 0.000000 
0.000000 0.000000 0.000000 
0.000000 0.000000 0.000000 

-0.000000 -0.000000 0.000000 
0.000000 0.000000 0.000000 
0.000000 0.000000 0.000000 

-0.000000 0.000000 0.000000 
0.000000 -0.000000 0.000000 
0.000000 0.000000 0.000000 

-0.000000 0.000000 0.000000 
0.000000 0.000000 0.000000 
0.000000 0.000000 0.000000 

-0.000000 0.000000 0.000000 
0.000000 0.000000 0.000000 
0.000000 0.000000 0.000000 

-0.000000 0.000000 0.000000 
0.000000 0.000000 0.000000 
0.000000 0.000000 0.000000 

0.000000 -0.000000 0.000000 
0.000000 -0.000000 0.000000 
0.000000 0.000000 0.000000 

-0.000000 0.000000 0.000000 
0.000000 0.000000 0.000000 
0.000000 0.000000 0.000000 

-0.000000 0.000000 0.000000 
0.000000 0.000000 0.000000 
0.000000 0.000000 0.000000 

-0.000000 -0.000000 0.000000 
0.000000 0.000000 0.000000 
0.000000 0.000000 0.000000 

-0.000000 0.000000 0.000000 
0.000000 -0.000000 0.000000 
0.000000 0.000000 0.000000 

-0.000000 -0.000000 0.000000 
0.000000 -0.000000 0.000000 
0.000000 0.000000 0.000000 

-0.000000 0.000000 0.000000 
0.000000 0.000000 0.000000 
0.000000 0.000000 0.000000 

-0.000000 0.000000 0.000000 
0.000000 -0.000000 0.000000 
0.000000 0.000000 0.000000 

-0.000000 0.000000 0.000000 
0.000000 -0.000000 0.000000 
0.000000 0.000000 0.000000 

-0.000000 0.000000 0.000000 
0.000000 -0.000000 0.000000 
0.000000 0.000000 0.000000 

-0.000000 -0.000000 0.000000 
0.000000 0.000000 0.000000 
0.000000 0.000000 0.000000 

-0.000000 -0.000000 0.000000 
0.000000 -0.000000 0.000000 
0.000000 0.000000 0.000000 

-0.000000 -0.000000 0.000000 
0.000000 0.000000 0.000000 
0.000000 0.000000 0.000000 

-0.000000 -0.000000 0.000000 
0.000000 0.000000 0.000000 
0.000000 0.000000 0.000000 

-0.000000 -0.000000 0.000000 
0.000000 0.000000 0.000000 
0.000000 0.000000 0.000000 

0.000000 -0.000000 0.000000 
0.000000 -0.000000 0.000000 
0.000000 0.000000 0.000000 

0.000000 -0.000000 0.000000 
0.000000 -0.000000 0.000000 
0.000000 0.000000 0.000000 

0.000000 0.000000 0.000000 
0.000000 -0.000000 0.000000 
0.000000 0.000000 0.000000 

0.000000 0.000000 0.000000 
0.000000 -0.000000 0.000000 
0.000000 0.000000 0.000000 

-0.000000 0.000000 0.000000 
0.000000 -0.000000 0.000000 
0.000000 0.000000 0.000000 

-0.000000 0.000000 0.000000 
0.000000 0.000000 0.000000 
0.000000 0.000000 0.000000 

0.000000 0.000000 0.000000 
0.000000 -0.000000 0.000000 
0.000000 0.000000 0.000000 

0.000000 0.000000 0.000000 
0.000000 -0.000000 0.000000 
0.000000 0.000000 0.000000 

-0.000000 0.000000 0.000000 
0.000000 -0.000000 0.000000 
0.000000 0.000000 0.000000 

-0.000000 -0.000000 0.000000 
0.000000 -0.000000 0.000000 
0.000000 0.000000 0.000000 

-0.000000 -0.000000 0.000000 
0.000000 -0.000000 0.000000 
0.000000 0.000000 0.000000 

0.000000 0.000000 0.000000 
0.000000 -0.000000 0.000000 
0.000000 0.000000 0.000000 

0.000000 0.000000 0.000000 
0.000000 -0.000000 0.000000 
0.000000 0.000000 0.000000 

0.000000 0.000000 0.000000 
0.000000 0.000000 0.000000 
0.000000 0.000000 0.000000 

0.000000 0.000000 0.000000 
0.000000 -0.000000 0.000000 
0.000000 0.000000 0.000000 

0.000000 -0.000000 0.000000 
0.000000 -0.000000 0.000000 
0.000000 0.000000 0.000000 

-0.000000 0.000000 0.000000 
0.000000 0.000000 0.000000 
0.000000 0.000000 0.000000 

-0.000000 0.000000 0.000000 
0.000000 0.000000 0.000000 
0.000000 0.000000 0.000000 

-0.000000 -0.000000 0.000000 
0.000000 0.000000 0.000000 
0.000000 0.000000 0.000000 

-0.000000 0.000000 0.000000 
0.000000 0.000000 0.000000 
0.000000 0.000000 0.000000 

0.000000 -0.000000 0.000000 
0.000000 -0.000000 0.000000 
0.000000 0.000000 0.000000 

-0.000000 -0.000000 0.000000 
0.000000 -0.000000 0.000000 
0.000000 0.000000 0.000000 

-0.000000 0.000000 0.000000 
0.000000 -0.000000 0.000000 
0.000000 0.000000 0.000000 

-0.000000 -0.000000 0.000000 
0.000000 0.000000 0.000000 
0.000000 0.000000 0.000000 

0.000000 -0.000000 0.000000 
0.000000 -0.000000 0.000000 
0.000000 0.000000 0.000000 

0.000000 0.000000 0.000000 
0.000000 -0.000000 0.000000 
0.000000 0.000000 0.000000 

-0.000000 -0.000000 0.000000 
0.000000 -0.000000 0.000000 
0.000000 0.000000 0.000000 

0.000000 -0.000000 0.000000 
0.000000 -0.000000 0.000000 
0.000000 0.000000 0.000000 

-0.000000 -0.000000 0.000000 
0.000000 -0.000000 0.000000 
0.000000 0.000000 0.000000 

-0.000000 -0.000000 0.000000 
0.000000 0.000000 0.000000 
0.000000 0.000000 0.000000 

-0.000000 0.000000 0.000000 
0.000000 0.000000 0.000000 
0.000000 0.000000 0.000000 

0.000000 -0.000000 0.000000 
0.000000 -0.000000 0.000000 
0.000000 0.000000 0.000000 

-0.000000 -0.000000 0.000000 
0.000000 0.000000 0.000000 
0.000000 0.000000 0.000000 

-0.000000 -0.000000 0.000000 
0.000000 -0.000000 0.000000 
0.000000 0.000000 0.000000 

-0.000000 0.000000 0.000000 
0.000000 0.000000 0.000000 
0.000000 0.000000 0.000000 

0.000000 0.000000 0.000000 
0.000000 0.000000 0.000000 
0.000000 0.000000 0.000000 

0.000000 -0.000000 0.000000 
0.000000 0.000000 0.000000 
0.000000 0.000000 0.000000 

0.000000 0.000000 0.000000 
0.000000 0.000000 0.000000 
0.000000 0.000000 0.000000 

0.000000 0.000000 0.000000 
0.000000 -0.000000 0.000000 
0.000000 0.000000 0.000000 

-0.000000 0.000000 0.000000 
0.000000 0.000000 0.000000 
0.000000 0.000000 0.000000 

-0.000000 -0.000000 0.000000 
0.000000 -0.000000 0.000000 
0.000000 0.000000 0.000000 

0.000000 -0.000000 0.000000 
0.000000 -0.000000 0.000000 
0.000000 0.000000 0.000000 

0.000000 -0.000000 0.000000 
0.000000 -0.000000 0.000000 
0.000000 0.000000 0.000000 

0.000000 -0.000000 0.000000 
0.000000 -0.000000 0.000000 
0.000000 0.000000 0.000000 

0.000000 0.000000 0.000000 
0.000000 -0.000000 0.000000 
0.000000 0.000000 0.000000 

0.000000 -0.000000 0.000000 
0.000000 -0.000000 0.000000 
0.000000 0.000000 0.000000 

-0.000000 0.000000 0.000000 
0.000000 0.000000 0.000000 
0.000000 0.000000 0.000000 

-0.000000 -0.000000 0.000000 
0.000000 -0.000000 0.000000 
0.000000 0.000000 0.000000 

-0.000000 0.000000 0.000000 
0.000000 0.000000 0.000000 
0.000000 0.000000 0.000000 

-0.000000 -0.000000 0.000000 
0.000000 -0.000000 0.000000 
0.000000 0.000000 0.000000 

-0.000000 0.000000 0.000000 
0.000000 -0.000000 0.000000 
0.000000 0.000000 0.000000 

-0.000000 0.000000 0.000000 
0.000000 0.000000 0.000000 
0.000000 0.000000 0.000000 

0.000000 -0.000000 0.000000 
0.000000 0.000000 0.000000 
0.000000 0.000000 0.000000 

0.000000 -0.000000 0.000000 
0.000000 0.000000 0.000000 
0.000000 0.000000 0.000000 

0.000000 -0.000000 0.000000 
0.000000 0.000000 0.000000 
0.000000 0.000000 0.000000 

-0.000000 -0.000000 0.000000 
0.000000 -0.000000 0.000000 
0.000000 0.000000 0.000000 

0.000000 -0.000000 0.000000 
0.000000 0.000000 0.000000 
0.000000 0.000000 0.000000 

0.000000 -0.000000 0.000000 
0.000000 0.000000 0.000000 
0.000000 0.000000 0.000000 

0.000000 0.000000 0.000000 
0.000000 0.000000 0.000000 
0.000000 0.000000 0.000000 

0.000000 -0.000000 0.000000 
0.000000 -0.000000 0.000000 
0.000000 0.000000 0.000000 

0.000000 0.000000 0.000000 
0.000000 0.000000 0.000000 
0.000000 0.000000 0.000000 

-0.000000 0.000000 0.000000 
0.000000 0.000000 0.000000 
0.000000 0.000000 0.000000 

0.000000 0.000000 0.000000 
0.000000 0.000000 0.000000 
0.000000 0.000000 0.000000 

0.000000 0.000000 0.000000 
0.000000 -0.000000 0.000000 
0.000000 0.000000 0.000000 

0.000000 0.000000 0.000000 
0.000000 0.000000 0.000000 
0.000000 0.000000 0.000000 

0.000000 0.000000 0.000000 
0.000000 -0.000000 0.000000 
0.000000 0.000000 0.000000 

0.000000 0.000000 0.000000 
0.000000 0.000000 0.000000 
0.000000 0.000000 0.000000 

0.000000 -0.000000 0.000000 
0.000000 -0.000000 0.000000 
0.000000 0.000000 0.000000 

-0.000000 -0.000000 0.000000 
0.000000 -0.000000 0.000000 
0.000000 0.000000 0.000000 

-0.000000 -0.000000 0.000000 
0.000000 0.000000 0.000000 
0.000000 0.000000 0.000000 

0.000000 0.000000 0.000000 
0.000000 0.000000 0.000000 
0.000000 0.000000 0.000000 

0.000000 -0.000000 0.000000 
0.000000 -0.000000 0.000000 
0.000000 0.000000 0.000000 

0.000000 -0.000000 0.000000 
0.000000 0.000000 0.000000 
0.000000 0.000000 0.000000 

0.000000 0.000000 0.000000 
0.000000 0.000000 0.000000 
0.000000 0.000000 0.000000 

-0.000000 0.000000 0.000000 
0.000000 0.000000 0.000000 
0.000000 0.000000 0.000000 

-0.000000 -0.000000 0.000000 
0.000000 -0.000000 0.000000 
0.000000 0.000000 0.000000 

-0.000000 -0.000000 0.000000 
0.000000 0.000000 0.000000 
0.000000 0.000000 0.000000 

