# vtk DataFile Version 3.0 
vtk output 
ASCII 
DATASET UNSTRUCTURED_GRID 
POINTS 175 float 
-0.026061 -1.658643 0.000000 
-0.106992 -1.590588 0.000000 
-0.054870 -1.598820 0.000000 
-0.028809 -1.552937 0.000000 
-0.186430 -1.526512 0.000000 
-0.137056 -1.529038 0.000000 
-0.114311 -1.475391 0.000000 
-0.058186 -1.491057 0.000000 
-0.029377 -1.450880 0.000000 
-0.265318 -1.463356 0.000000 
-0.217198 -1.464156 0.000000 
-0.196633 -1.406860 0.000000 
-0.143120 -1.415568 0.000000 
-0.116563 -1.368300 0.000000 
-0.058945 -1.387945 0.000000 
-0.029568 -1.349825 0.000000 
-0.344206 -1.400201 0.000000 
-0.296791 -1.400194 0.000000 
-0.278030 -1.340251 0.000000 
-0.225992 -1.346117 0.000000 
-0.201664 -1.294000 0.000000 
-0.145749 -1.307474 0.000000 
-0.117890 -1.263131 0.000000 
-0.059328 -1.285837 0.000000 
-0.029759 -1.248771 0.000000 
-0.058559 -1.699394 0.000000 
-0.162226 -1.720237 0.000000 
-0.123292 -1.684619 0.000000 
-0.142917 -1.635636 0.000000 
-0.261851 -1.742393 0.000000 
-0.229092 -1.705366 0.000000 
-0.256854 -1.654134 0.000000 
-0.209613 -1.620022 0.000000 
-0.223062 -1.572448 0.000000 
-0.360414 -1.764693 0.000000 
-0.329787 -1.727570 0.000000 
-0.361761 -1.675768 0.000000 
-0.321587 -1.639359 0.000000 
-0.341985 -1.589125 0.000000 
-0.290702 -1.556326 0.000000 
-0.302189 -1.509591 0.000000 
-0.458977 -1.786993 0.000000 
-0.429420 -1.749918 0.000000 
-0.464588 -1.697877 0.000000 
-0.427556 -1.660849 0.000000 
-0.453135 -1.609334 0.000000 
-0.407738 -1.574019 0.000000 
-0.425037 -1.524591 0.000000 
-0.370772 -1.492962 0.000000 
-0.381315 -1.446734 0.000000 
-0.046960 -1.750209 0.000000 
-0.095301 -1.844255 0.000000 
-0.098873 -1.791608 0.000000 
-0.149405 -1.776410 0.000000 
-0.140093 -1.935959 0.000000 
-0.148617 -1.887261 0.000000 
-0.205981 -1.877024 0.000000 
-0.203197 -1.818820 0.000000 
-0.248777 -1.799674 0.000000 
-0.184111 -2.026923 0.000000 
-0.194039 -1.979832 0.000000 
-0.254475 -1.972532 0.000000 
-0.257893 -1.918422 0.000000 
-0.309886 -1.903050 0.000000 
-0.303554 -1.842505 0.000000 
-0.347255 -1.822347 0.000000 
-0.228129 -2.117886 0.000000 
-0.238687 -2.071662 0.000000 
-0.301302 -2.066710 0.000000 
-0.307162 -2.014671 0.000000 
-0.363386 -2.002550 0.000000 
-0.362692 -1.945039 0.000000 
-0.412122 -1.927746 0.000000 
-0.403017 -1.865599 0.000000 
-0.445733 -1.845020 0.000000 
-0.000000 -1.772824 0.000000 
0.043388 -1.869255 0.000000 
-0.000000 -1.839222 0.000000 
-0.043388 -1.869255 0.000000 
0.087158 -1.961451 0.000000 
0.043769 -1.937753 0.000000 
-0.000000 -1.976219 0.000000 
-0.043769 -1.937753 0.000000 
-0.087158 -1.961451 0.000000 
0.130831 -2.052581 0.000000 
0.087824 -2.030982 0.000000 
0.044436 -2.073682 0.000000 
-0.000000 -2.042617 0.000000 
-0.044436 -2.073682 0.000000 
-0.087824 -2.030982 0.000000 
-0.130831 -2.052581 0.000000 
0.174505 -2.143711 0.000000 
0.131782 -2.123145 0.000000 
0.088871 -2.169011 0.000000 
0.044532 -2.141147 0.000000 
-0.000000 -2.177548 0.000000 
-0.044532 -2.141147 0.000000 
-0.088871 -2.169011 0.000000 
-0.131782 -2.123145 0.000000 
-0.174505 -2.143711 0.000000 
0.046960 -1.750209 0.000000 
0.149405 -1.776410 0.000000 
0.098873 -1.791608 0.000000 
0.095301 -1.844255 0.000000 
0.248777 -1.799674 0.000000 
0.203197 -1.818820 0.000000 
0.205981 -1.877024 0.000000 
0.148617 -1.887261 0.000000 
0.140093 -1.935959 0.000000 
0.347255 -1.822347 0.000000 
0.303554 -1.842505 0.000000 
0.309886 -1.903050 0.000000 
0.257893 -1.918422 0.000000 
0.254475 -1.972532 0.000000 
0.194039 -1.979832 0.000000 
0.184111 -2.026923 0.000000 
0.445733 -1.845020 0.000000 
0.403017 -1.865599 0.000000 
0.412122 -1.927746 0.000000 
0.362692 -1.945039 0.000000 
0.363386 -2.002550 0.000000 
0.307162 -2.014671 0.000000 
0.301302 -2.066710 0.000000 
0.238687 -2.071662 0.000000 
0.228129 -2.117886 0.000000 
0.058559 -1.699394 0.000000 
0.142917 -1.635636 0.000000 
0.123292 -1.684619 0.000000 
0.162226 -1.720237 0.000000 
0.223062 -1.572448 0.000000 
0.209613 -1.620022 0.000000 
0.256854 -1.654134 0.000000 
0.229092 -1.705366 0.000000 
0.261851 -1.742393 0.000000 
0.302189 -1.509591 0.000000 
0.290702 -1.556326 0.000000 
0.341985 -1.589125 0.000000 
0.321587 -1.639359 0.000000 
0.361761 -1.675768 0.000000 
0.329787 -1.727570 0.000000 
0.360414 -1.764693 0.000000 
0.381315 -1.446734 0.000000 
0.370772 -1.492962 0.000000 
0.425037 -1.524591 0.000000 
0.407738 -1.574019 0.000000 
0.453135 -1.609334 0.000000 
0.427556 -1.660849 0.000000 
0.464588 -1.697877 0.000000 
0.429420 -1.749918 0.000000 
0.458977 -1.786993 0.000000 
0.026061 -1.658643 0.000000 
0.028809 -1.552937 0.000000 
0.054870 -1.598820 0.000000 
0.106992 -1.590588 0.000000 
0.029377 -1.450880 0.000000 
0.058186 -1.491057 0.000000 
0.114311 -1.475391 0.000000 
0.137056 -1.529038 0.000000 
0.186430 -1.526512 0.000000 
0.029568 -1.349825 0.000000 
0.058945 -1.387945 0.000000 
0.116563 -1.368300 0.000000 
0.143120 -1.415568 0.000000 
0.196633 -1.406860 0.000000 
0.217198 -1.464156 0.000000 
0.265318 -1.463356 0.000000 
0.029759 -1.248771 0.000000 
0.059328 -1.285837 0.000000 
0.117890 -1.263131 0.000000 
0.145749 -1.307474 0.000000 
0.201664 -1.294000 0.000000 
0.225992 -1.346117 0.000000 
0.278030 -1.340251 0.000000 
0.296791 -1.400194 0.000000 
0.344206 -1.400201 0.000000 
CELLS 175 350 
1 0 
1 1 
1 2 
1 3 
1 4 
1 5 
1 6 
1 7 
1 8 
1 9 
1 10 
1 11 
1 12 
1 13 
1 14 
1 15 
1 16 
1 17 
1 18 
1 19 
1 20 
1 21 
1 22 
1 23 
1 24 
1 25 
1 26 
1 27 
1 28 
1 29 
1 30 
1 31 
1 32 
1 33 
1 34 
1 35 
1 36 
1 37 
1 38 
1 39 
1 40 
1 41 
1 42 
1 43 
1 44 
1 45 
1 46 
1 47 
1 48 
1 49 
1 50 
1 51 
1 52 
1 53 
1 54 
1 55 
1 56 
1 57 
1 58 
1 59 
1 60 
1 61 
1 62 
1 63 
1 64 
1 65 
1 66 
1 67 
1 68 
1 69 
1 70 
1 71 
1 72 
1 73 
1 74 
1 75 
1 76 
1 77 
1 78 
1 79 
1 80 
1 81 
1 82 
1 83 
1 84 
1 85 
1 86 
1 87 
1 88 
1 89 
1 90 
1 91 
1 92 
1 93 
1 94 
1 95 
1 96 
1 97 
1 98 
1 99 
1 100 
1 101 
1 102 
1 103 
1 104 
1 105 
1 106 
1 107 
1 108 
1 109 
1 110 
1 111 
1 112 
1 113 
1 114 
1 115 
1 116 
1 117 
1 118 
1 119 
1 120 
1 121 
1 122 
1 123 
1 124 
1 125 
1 126 
1 127 
1 128 
1 129 
1 130 
1 131 
1 132 
1 133 
1 134 
1 135 
1 136 
1 137 
1 138 
1 139 
1 140 
1 141 
1 142 
1 143 
1 144 
1 145 
1 146 
1 147 
1 148 
1 149 
1 150 
1 151 
1 152 
1 153 
1 154 
1 155 
1 156 
1 157 
1 158 
1 159 
1 160 
1 161 
1 162 
1 163 
1 164 
1 165 
1 166 
1 167 
1 168 
1 169 
1 170 
1 171 
1 172 
1 173 
1 174 
CELL_TYPES 175 
1 
1 
1 
1 
1 
1 
1 
1 
1 
1 
1 
1 
1 
1 
1 
1 
1 
1 
1 
1 
1 
1 
1 
1 
1 
1 
1 
1 
1 
1 
1 
1 
1 
1 
1 
1 
1 
1 
1 
1 
1 
1 
1 
1 
1 
1 
1 
1 
1 
1 
1 
1 
1 
1 
1 
1 
1 
1 
1 
1 
1 
1 
1 
1 
1 
1 
1 
1 
1 
1 
1 
1 
1 
1 
1 
1 
1 
1 
1 
1 
1 
1 
1 
1 
1 
1 
1 
1 
1 
1 
1 
1 
1 
1 
1 
1 
1 
1 
1 
1 
1 
1 
1 
1 
1 
1 
1 
1 
1 
1 
1 
1 
1 
1 
1 
1 
1 
1 
1 
1 
1 
1 
1 
1 
1 
1 
1 
1 
1 
1 
1 
1 
1 
1 
1 
1 
1 
1 
1 
1 
1 
1 
1 
1 
1 
1 
1 
1 
1 
1 
1 
1 
1 
1 
1 
1 
1 
1 
1 
1 
1 
1 
1 
1 
1 
1 
1 
1 
1 
1 
1 
1 
1 
1 
1 
POINT_DATA 175 
VECTORS X_GC float 
-0.026061 -1.658643 0.000000 
-0.106992 -1.590588 0.000000 
-0.054870 -1.598820 0.000000 
-0.028809 -1.552937 0.000000 
-0.186430 -1.526512 0.000000 
-0.137056 -1.529038 0.000000 
-0.114311 -1.475391 0.000000 
-0.058186 -1.491057 0.000000 
-0.029377 -1.450880 0.000000 
-0.265318 -1.463356 0.000000 
-0.217198 -1.464156 0.000000 
-0.196633 -1.406860 0.000000 
-0.143120 -1.415568 0.000000 
-0.116563 -1.368300 0.000000 
-0.058945 -1.387945 0.000000 
-0.029568 -1.349825 0.000000 
-0.344206 -1.400201 0.000000 
-0.296791 -1.400194 0.000000 
-0.278030 -1.340251 0.000000 
-0.225992 -1.346117 0.000000 
-0.201664 -1.294000 0.000000 
-0.145749 -1.307474 0.000000 
-0.117890 -1.263131 0.000000 
-0.059328 -1.285837 0.000000 
-0.029759 -1.248771 0.000000 
-0.058559 -1.699394 0.000000 
-0.162226 -1.720237 0.000000 
-0.123292 -1.684619 0.000000 
-0.142917 -1.635636 0.000000 
-0.261851 -1.742393 0.000000 
-0.229092 -1.705366 0.000000 
-0.256854 -1.654134 0.000000 
-0.209613 -1.620022 0.000000 
-0.223062 -1.572448 0.000000 
-0.360414 -1.764693 0.000000 
-0.329787 -1.727570 0.000000 
-0.361761 -1.675768 0.000000 
-0.321587 -1.639359 0.000000 
-0.341985 -1.589125 0.000000 
-0.290702 -1.556326 0.000000 
-0.302189 -1.509591 0.000000 
-0.458977 -1.786993 0.000000 
-0.429420 -1.749918 0.000000 
-0.464588 -1.697877 0.000000 
-0.427556 -1.660849 0.000000 
-0.453135 -1.609334 0.000000 
-0.407738 -1.574019 0.000000 
-0.425037 -1.524591 0.000000 
-0.370772 -1.492962 0.000000 
-0.381315 -1.446734 0.000000 
-0.046960 -1.750209 0.000000 
-0.095301 -1.844255 0.000000 
-0.098873 -1.791608 0.000000 
-0.149405 -1.776410 0.000000 
-0.140093 -1.935959 0.000000 
-0.148617 -1.887261 0.000000 
-0.205981 -1.877024 0.000000 
-0.203197 -1.818820 0.000000 
-0.248777 -1.799674 0.000000 
-0.184111 -2.026923 0.000000 
-0.194039 -1.979832 0.000000 
-0.254475 -1.972532 0.000000 
-0.257893 -1.918422 0.000000 
-0.309886 -1.903050 0.000000 
-0.303554 -1.842505 0.000000 
-0.347255 -1.822347 0.000000 
-0.228129 -2.117886 0.000000 
-0.238687 -2.071662 0.000000 
-0.301302 -2.066710 0.000000 
-0.307162 -2.014671 0.000000 
-0.363386 -2.002550 0.000000 
-0.362692 -1.945039 0.000000 
-0.412122 -1.927746 0.000000 
-0.403017 -1.865599 0.000000 
-0.445733 -1.845020 0.000000 
-0.000000 -1.772824 0.000000 
0.043388 -1.869255 0.000000 
-0.000000 -1.839222 0.000000 
-0.043388 -1.869255 0.000000 
0.087158 -1.961451 0.000000 
0.043769 -1.937753 0.000000 
-0.000000 -1.976219 0.000000 
-0.043769 -1.937753 0.000000 
-0.087158 -1.961451 0.000000 
0.130831 -2.052581 0.000000 
0.087824 -2.030982 0.000000 
0.044436 -2.073682 0.000000 
-0.000000 -2.042617 0.000000 
-0.044436 -2.073682 0.000000 
-0.087824 -2.030982 0.000000 
-0.130831 -2.052581 0.000000 
0.174505 -2.143711 0.000000 
0.131782 -2.123145 0.000000 
0.088871 -2.169011 0.000000 
0.044532 -2.141147 0.000000 
-0.000000 -2.177548 0.000000 
-0.044532 -2.141147 0.000000 
-0.088871 -2.169011 0.000000 
-0.131782 -2.123145 0.000000 
-0.174505 -2.143711 0.000000 
0.046960 -1.750209 0.000000 
0.149405 -1.776410 0.000000 
0.098873 -1.791608 0.000000 
0.095301 -1.844255 0.000000 
0.248777 -1.799674 0.000000 
0.203197 -1.818820 0.000000 
0.205981 -1.877024 0.000000 
0.148617 -1.887261 0.000000 
0.140093 -1.935959 0.000000 
0.347255 -1.822347 0.000000 
0.303554 -1.842505 0.000000 
0.309886 -1.903050 0.000000 
0.257893 -1.918422 0.000000 
0.254475 -1.972532 0.000000 
0.194039 -1.979832 0.000000 
0.184111 -2.026923 0.000000 
0.445733 -1.845020 0.000000 
0.403017 -1.865599 0.000000 
0.412122 -1.927746 0.000000 
0.362692 -1.945039 0.000000 
0.363386 -2.002550 0.000000 
0.307162 -2.014671 0.000000 
0.301302 -2.066710 0.000000 
0.238687 -2.071662 0.000000 
0.228129 -2.117886 0.000000 
0.058559 -1.699394 0.000000 
0.142917 -1.635636 0.000000 
0.123292 -1.684619 0.000000 
0.162226 -1.720237 0.000000 
0.223062 -1.572448 0.000000 
0.209613 -1.620022 0.000000 
0.256854 -1.654134 0.000000 
0.229092 -1.705366 0.000000 
0.261851 -1.742393 0.000000 
0.302189 -1.509591 0.000000 
0.290702 -1.556326 0.000000 
0.341985 -1.589125 0.000000 
0.321587 -1.639359 0.000000 
0.361761 -1.675768 0.000000 
0.329787 -1.727570 0.000000 
0.360414 -1.764693 0.000000 
0.381315 -1.446734 0.000000 
0.370772 -1.492962 0.000000 
0.425037 -1.524591 0.000000 
0.407738 -1.574019 0.000000 
0.453135 -1.609334 0.000000 
0.427556 -1.660849 0.000000 
0.464588 -1.697877 0.000000 
0.429420 -1.749918 0.000000 
0.458977 -1.786993 0.000000 
0.026061 -1.658643 0.000000 
0.028809 -1.552937 0.000000 
0.054870 -1.598820 0.000000 
0.106992 -1.590588 0.000000 
0.029377 -1.450880 0.000000 
0.058186 -1.491057 0.000000 
0.114311 -1.475391 0.000000 
0.137056 -1.529038 0.000000 
0.186430 -1.526512 0.000000 
0.029568 -1.349825 0.000000 
0.058945 -1.387945 0.000000 
0.116563 -1.368300 0.000000 
0.143120 -1.415568 0.000000 
0.196633 -1.406860 0.000000 
0.217198 -1.464156 0.000000 
0.265318 -1.463356 0.000000 
0.029759 -1.248771 0.000000 
0.059328 -1.285837 0.000000 
0.117890 -1.263131 0.000000 
0.145749 -1.307474 0.000000 
0.201664 -1.294000 0.000000 
0.225992 -1.346117 0.000000 
0.278030 -1.340251 0.000000 
0.296791 -1.400194 0.000000 
0.344206 -1.400201 0.000000 
VECTORS X_EC float 
0.338794 0.891683 0.000000 
-0.609100 -0.027066 0.000000 
0.713312 0.084075 0.000000 
0.374519 -0.535354 0.000000 
0.423588 -0.892085 0.000000 
-0.218274 -0.857981 0.000000 
-0.513962 0.417780 0.000000 
0.756418 0.629266 0.000000 
0.381900 0.086874 0.000000 
-0.550868 0.255312 0.000000 
0.823577 0.266108 0.000000 
0.556234 -0.507396 0.000000 
-0.139443 -0.389828 0.000000 
-0.484677 0.972048 0.000000 
0.766286 -0.762737 0.000000 
0.384386 0.722643 0.000000 
0.474677 -0.597291 0.000000 
-0.141715 -0.597387 0.000000 
-0.385608 0.593384 0.000000 
0.937896 0.672580 0.000000 
0.621631 -0.031000 0.000000 
-0.105264 0.150899 0.000000 
-0.467428 -0.447727 0.000000 
0.771260 -0.141199 0.000000 
0.386873 -0.641588 0.000000 
0.761262 -0.558183 0.000000 
0.108942 -0.276806 0.000000 
-0.397202 -0.757645 0.000000 
-0.142083 0.581080 0.000000 
-0.595936 0.022305 0.000000 
0.978194 -0.477561 0.000000 
-0.660903 0.830814 0.000000 
0.724964 0.370294 0.000000 
0.899809 -0.271955 0.000000 
0.685384 0.323357 0.000000 
0.287229 -0.177802 0.000000 
0.702895 -0.877130 0.000000 
0.180633 0.631351 0.000000 
0.445811 -0.046808 0.000000 
-0.220880 -0.489594 0.000000 
-0.071546 0.879480 0.000000 
-0.033296 0.624409 0.000000 
-0.417537 0.123900 0.000000 
0.039645 -0.578663 0.000000 
-0.441768 0.921466 0.000000 
-0.109248 0.226015 0.000000 
-0.699407 -0.250740 0.000000 
-0.474522 -0.918020 0.000000 
0.820030 0.654987 0.000000 
0.957100 0.030915 0.000000 
0.610485 0.127824 0.000000 
-0.761092 -0.602557 0.000000 
-0.714655 0.686706 0.000000 
-0.057734 0.481539 0.000000 
-0.178789 0.635447 0.000000 
-0.067979 -0.021979 0.000000 
0.677748 -0.160182 0.000000 
0.641556 -0.945927 0.000000 
-0.765897 0.795594 0.000000 
0.393446 -0.136543 0.000000 
0.522510 -0.772273 0.000000 
-0.691820 -0.870818 0.000000 
-0.647393 0.398700 0.000000 
0.028512 0.191173 0.000000 
-0.053800 -0.626187 0.000000 
0.514316 -0.898318 0.000000 
0.965681 -0.908534 0.000000 
-0.897068 0.467437 0.000000 
-0.083078 0.400584 0.000000 
-0.006893 -0.301941 0.000000 
0.724017 -0.465574 0.000000 
0.714996 0.758023 0.000000 
-0.642413 0.524565 0.000000 
-0.760780 -0.314415 0.000000 
-0.205471 -0.592230 0.000000 
0.000000 0.433125 0.000000 
-0.564049 -0.265062 0.000000 
0.000000 -0.670498 0.000000 
0.564049 -0.265062 0.000000 
0.866949 0.979594 0.000000 
-0.569003 0.659662 0.000000 
0.000000 -0.821049 0.000000 
0.569003 0.659662 0.000000 
-0.866949 0.979594 0.000000 
0.299194 0.209844 0.000000 
0.858290 -0.081740 0.000000 
-0.577662 0.494706 0.000000 
0.000000 0.075327 0.000000 
0.577662 0.494706 0.000000 
-0.858290 -0.081740 0.000000 
-0.299194 0.209844 0.000000 
-0.268560 -0.559906 0.000000 
0.286830 -0.837548 0.000000 
0.844677 -0.218350 0.000000 
-0.578910 -0.594512 0.000000 
0.000000 -0.103109 0.000000 
0.578910 -0.594512 0.000000 
-0.844677 -0.218350 0.000000 
-0.286830 -0.837548 0.000000 
0.268560 -0.559906 0.000000 
-0.610485 0.127824 0.000000 
0.057734 0.481539 0.000000 
0.714655 0.686706 0.000000 
0.761092 -0.602557 0.000000 
0.765897 0.795594 0.000000 
-0.641556 -0.945927 0.000000 
-0.677748 -0.160182 0.000000 
0.067979 -0.021979 0.000000 
0.178789 0.635447 0.000000 
-0.514316 -0.898318 0.000000 
0.053800 -0.626187 0.000000 
-0.028512 0.191173 0.000000 
0.647393 0.398700 0.000000 
0.691820 -0.870818 0.000000 
-0.522510 -0.772273 0.000000 
-0.393446 -0.136543 0.000000 
0.205471 -0.592230 0.000000 
0.760780 -0.314415 0.000000 
0.642413 0.524565 0.000000 
-0.714996 0.758023 0.000000 
-0.724017 -0.465574 0.000000 
0.006894 -0.301941 0.000000 
0.083078 0.400584 0.000000 
0.897068 0.467437 0.000000 
-0.965681 -0.908534 0.000000 
-0.761262 -0.558183 0.000000 
0.142083 0.581080 0.000000 
0.397202 -0.757645 0.000000 
-0.108942 -0.276806 0.000000 
-0.899809 -0.271955 0.000000 
-0.724964 0.370294 0.000000 
0.660903 0.830814 0.000000 
-0.978194 -0.477561 0.000000 
0.595936 0.022305 0.000000 
0.071546 0.879480 0.000000 
0.220880 -0.489594 0.000000 
-0.445811 -0.046808 0.000000 
-0.180633 0.631351 0.000000 
-0.702895 -0.877130 0.000000 
-0.287229 -0.177802 0.000000 
-0.685384 0.323357 0.000000 
-0.957100 0.030915 0.000000 
-0.820030 0.654987 0.000000 
0.474522 -0.918020 0.000000 
0.699407 -0.250740 0.000000 
0.109248 0.226015 0.000000 
0.441768 0.921466 0.000000 
-0.039645 -0.578663 0.000000 
0.417537 0.123900 0.000000 
0.033296 0.624409 0.000000 
-0.338794 0.891683 0.000000 
-0.374519 -0.535354 0.000000 
-0.713312 0.084075 0.000000 
0.609100 -0.027066 0.000000 
-0.381900 0.086874 0.000000 
-0.756418 0.629266 0.000000 
0.513962 0.417780 0.000000 
0.218274 -0.857981 0.000000 
-0.423588 -0.892085 0.000000 
-0.384386 0.722643 0.000000 
-0.766286 -0.762737 0.000000 
0.484677 0.972048 0.000000 
0.139443 -0.389828 0.000000 
-0.556234 -0.507396 0.000000 
-0.823577 0.266108 0.000000 
0.550868 0.255312 0.000000 
-0.386873 -0.641588 0.000000 
-0.771260 -0.141199 0.000000 
0.467428 -0.447727 0.000000 
0.105264 0.150899 0.000000 
-0.621631 -0.031000 0.000000 
-0.937896 0.672580 0.000000 
0.385608 0.593384 0.000000 
0.141715 -0.597387 0.000000 
-0.474677 -0.597291 0.000000 
CELL_DATA 175 
SCALARS MASS float 
LOOKUP_TABLE default 
0.078183 
0.086427 
0.094672 
0.086427 
0.088131 
0.092111 
0.085854 
0.092111 
0.088131 
0.088705 
0.091000 
0.086983 
0.091556 
0.086983 
0.091000 
0.088705 
0.089278 
0.091574 
0.089278 
0.092722 
0.089278 
0.092722 
0.089278 
0.091574 
0.089278 
0.078183 
0.086427 
0.094672 
0.086427 
0.088131 
0.092111 
0.085854 
0.092111 
0.088131 
0.088705 
0.091000 
0.086983 
0.091556 
0.086983 
0.091000 
0.088705 
0.089278 
0.091574 
0.089278 
0.092722 
0.089278 
0.092722 
0.089278 
0.091574 
0.089278 
0.078183 
0.086427 
0.094672 
0.086427 
0.088131 
0.092111 
0.085854 
0.092111 
0.088131 
0.088705 
0.091000 
0.086983 
0.091556 
0.086983 
0.091000 
0.088705 
0.089278 
0.091574 
0.089278 
0.092722 
0.089278 
0.092722 
0.089278 
0.091574 
0.089278 
0.078183 
0.086427 
0.094672 
0.086427 
0.088131 
0.092111 
0.085854 
0.092111 
0.088131 
0.088705 
0.091000 
0.086983 
0.091556 
0.086983 
0.091000 
0.088705 
0.089278 
0.091574 
0.089278 
0.092722 
0.089278 
0.092722 
0.089278 
0.091574 
0.089278 
0.078183 
0.086427 
0.094672 
0.086427 
0.088131 
0.092111 
0.085854 
0.092111 
0.088131 
0.088705 
0.091000 
0.086983 
0.091556 
0.086983 
0.091000 
0.088705 
0.089278 
0.091574 
0.089278 
0.092722 
0.089278 
0.092722 
0.089278 
0.091574 
0.089278 
0.078183 
0.086427 
0.094672 
0.086427 
0.088131 
0.092111 
0.085854 
0.092111 
0.088131 
0.088705 
0.091000 
0.086983 
0.091556 
0.086983 
0.091000 
0.088705 
0.089278 
0.091574 
0.089278 
0.092722 
0.089278 
0.092722 
0.089278 
0.091574 
0.089278 
0.078183 
0.086427 
0.094672 
0.086427 
0.088131 
0.092111 
0.085854 
0.092111 
0.088131 
0.088705 
0.091000 
0.086983 
0.091556 
0.086983 
0.091000 
0.088705 
0.089278 
0.091574 
0.089278 
0.092722 
0.089278 
0.092722 
0.089278 
0.091574 
0.089278 
SCALARS MASS float 
LOOKUP_TABLE default 
0.078183 
0.086427 
0.094672 
0.086427 
0.088131 
0.092111 
0.085854 
0.092111 
0.088131 
0.088705 
0.091000 
0.086983 
0.091556 
0.086983 
0.091000 
0.088705 
0.089278 
0.091574 
0.089278 
0.092722 
0.089278 
0.092722 
0.089278 
0.091574 
0.089278 
0.078183 
0.086427 
0.094672 
0.086427 
0.088131 
0.092111 
0.085854 
0.092111 
0.088131 
0.088705 
0.091000 
0.086983 
0.091556 
0.086983 
0.091000 
0.088705 
0.089278 
0.091574 
0.089278 
0.092722 
0.089278 
0.092722 
0.089278 
0.091574 
0.089278 
0.078183 
0.086427 
0.094672 
0.086427 
0.088131 
0.092111 
0.085854 
0.092111 
0.088131 
0.088705 
0.091000 
0.086983 
0.091556 
0.086983 
0.091000 
0.088705 
0.089278 
0.091574 
0.089278 
0.092722 
0.089278 
0.092722 
0.089278 
0.091574 
0.089278 
0.078183 
0.086427 
0.094672 
0.086427 
0.088131 
0.092111 
0.085854 
0.092111 
0.088131 
0.088705 
0.091000 
0.086983 
0.091556 
0.086983 
0.091000 
0.088705 
0.089278 
0.091574 
0.089278 
0.092722 
0.089278 
0.092722 
0.089278 
0.091574 
0.089278 
0.078183 
0.086427 
0.094672 
0.086427 
0.088131 
0.092111 
0.085854 
0.092111 
0.088131 
0.088705 
0.091000 
0.086983 
0.091556 
0.086983 
0.091000 
0.088705 
0.089278 
0.091574 
0.089278 
0.092722 
0.089278 
0.092722 
0.089278 
0.091574 
0.089278 
0.078183 
0.086427 
0.094672 
0.086427 
0.088131 
0.092111 
0.085854 
0.092111 
0.088131 
0.088705 
0.091000 
0.086983 
0.091556 
0.086983 
0.091000 
0.088705 
0.089278 
0.091574 
0.089278 
0.092722 
0.089278 
0.092722 
0.089278 
0.091574 
0.089278 
0.078183 
0.086427 
0.094672 
0.086427 
0.088131 
0.092111 
0.085854 
0.092111 
0.088131 
0.088705 
0.091000 
0.086983 
0.091556 
0.086983 
0.091000 
0.088705 
0.089278 
0.091574 
0.089278 
0.092722 
0.089278 
0.092722 
0.089278 
0.091574 
0.089278 
SCALARS DENSITY float 
LOOKUP_TABLE default 
20.000000 
20.000000 
20.000000 
20.000000 
20.000000 
20.000000 
20.000000 
20.000000 
20.000000 
20.000000 
20.000000 
20.000000 
20.000000 
20.000000 
20.000000 
20.000000 
20.000000 
20.000000 
20.000000 
20.000000 
20.000000 
20.000000 
20.000000 
20.000000 
20.000000 
20.000000 
20.000000 
20.000000 
20.000000 
20.000000 
20.000000 
20.000000 
20.000000 
20.000000 
20.000000 
20.000000 
20.000000 
20.000000 
20.000000 
20.000000 
20.000000 
20.000000 
20.000000 
20.000000 
20.000000 
20.000000 
20.000000 
20.000000 
20.000000 
20.000000 
20.000000 
20.000000 
20.000000 
20.000000 
20.000000 
20.000000 
20.000000 
20.000000 
20.000000 
20.000000 
20.000000 
20.000000 
20.000000 
20.000000 
20.000000 
20.000000 
20.000000 
20.000000 
20.000000 
20.000000 
20.000000 
20.000000 
20.000000 
20.000000 
20.000000 
20.000000 
20.000000 
20.000000 
20.000000 
20.000000 
20.000000 
20.000000 
20.000000 
20.000000 
20.000000 
20.000000 
20.000000 
20.000000 
20.000000 
20.000000 
20.000000 
20.000000 
20.000000 
20.000000 
20.000000 
20.000000 
20.000000 
20.000000 
20.000000 
20.000000 
20.000000 
20.000000 
20.000000 
20.000000 
20.000000 
20.000000 
20.000000 
20.000000 
20.000000 
20.000000 
20.000000 
20.000000 
20.000000 
20.000000 
20.000000 
20.000000 
20.000000 
20.000000 
20.000000 
20.000000 
20.000000 
20.000000 
20.000000 
20.000000 
20.000000 
20.000000 
20.000000 
20.000000 
20.000000 
20.000000 
20.000000 
20.000000 
20.000000 
20.000000 
20.000000 
20.000000 
20.000000 
20.000000 
20.000000 
20.000000 
20.000000 
20.000000 
20.000000 
20.000000 
20.000000 
20.000000 
20.000000 
20.000000 
20.000000 
20.000000 
20.000000 
20.000000 
20.000000 
20.000000 
20.000000 
20.000000 
20.000000 
20.000000 
20.000000 
20.000000 
20.000000 
20.000000 
20.000000 
20.000000 
20.000000 
20.000000 
20.000000 
20.000000 
20.000000 
20.000000 
20.000000 
20.000000 
20.000000 
20.000000 
20.000000 
SCALARS ELEM_i float 
LOOKUP_TABLE default 
171 
198 
171 
171 
198 
198 
199 
172 
172 
226 
199 
199 
199 
200 
172 
173 
226 
226 
227 
200 
200 
200 
200 
173 
173 
170 
197 
197 
198 
224 
197 
225 
198 
198 
224 
224 
224 
225 
225 
225 
226 
251 
251 
251 
252 
252 
252 
252 
226 
226 
170 
196 
197 
197 
196 
196 
196 
196 
224 
195 
195 
222 
223 
223 
223 
223 
194 
222 
222 
222 
222 
223 
250 
250 
250 
170 
169 
169 
169 
142 
169 
168 
169 
196 
141 
141 
168 
168 
168 
195 
195 
140 
140 
140 
167 
167 
167 
194 
194 
194 
170 
143 
143 
142 
116 
142 
142 
142 
142 
115 
115 
115 
115 
114 
141 
141 
88 
88 
88 
115 
114 
114 
114 
114 
140 
170 
144 
143 
143 
144 
144 
117 
143 
116 
118 
117 
117 
117 
116 
116 
116 
118 
118 
90 
90 
90 
90 
89 
89 
89 
171 
171 
171 
144 
172 
172 
145 
144 
144 
173 
172 
146 
145 
145 
145 
118 
173 
173 
146 
146 
146 
146 
119 
118 
118 
VECTORS VELOCITY float 
-0.000000 -5.796533 0.000000 
0.000000 -5.796533 0.000000 
0.000000 -5.796533 0.000000 
0.000000 -5.796533 0.000000 
-0.000000 -5.796533 0.000000 
-0.000000 -5.796533 0.000000 
-0.000000 -5.796533 0.000000 
-0.000000 -5.796533 0.000000 
0.000000 -5.796533 0.000000 
0.000000 -5.796533 0.000000 
0.000000 -5.796533 0.000000 
0.000000 -5.796533 0.000000 
0.000000 -5.796533 0.000000 
-0.000000 -5.796533 0.000000 
0.000000 -5.796533 0.000000 
0.000000 -5.796533 0.000000 
0.000000 -5.796533 0.000000 
0.000000 -5.796533 0.000000 
0.000000 -5.796533 0.000000 
-0.000000 -5.796533 0.000000 
0.000000 -5.796533 0.000000 
-0.000000 -5.796533 0.000000 
0.000000 -5.796533 0.000000 
-0.000000 -5.796533 0.000000 
-0.000000 -5.796533 0.000000 
-0.000000 -5.796533 0.000000 
-0.000000 -5.796533 0.000000 
-0.000000 -5.796533 0.000000 
-0.000000 -5.796533 0.000000 
0.000000 -5.796533 0.000000 
0.000000 -5.796533 0.000000 
-0.000000 -5.796533 0.000000 
-0.000000 -5.796533 0.000000 
-0.000000 -5.796533 0.000000 
-0.000000 -5.796533 0.000000 
-0.000000 -5.796533 0.000000 
0.000000 -5.796533 0.000000 
-0.000000 -5.796533 0.000000 
0.000000 -5.796533 0.000000 
-0.000000 -5.796533 0.000000 
0.000000 -5.796533 0.000000 
-0.000000 -5.796533 0.000000 
-0.000000 -5.796533 0.000000 
-0.000000 -5.796533 0.000000 
-0.000000 -5.796533 0.000000 
-0.000000 -5.796533 0.000000 
0.000000 -5.796533 0.000000 
-0.000000 -5.796533 0.000000 
0.000000 -5.796533 0.000000 
0.000000 -5.796533 0.000000 
-0.000000 -5.796533 0.000000 
-0.000000 -5.796533 0.000000 
-0.000000 -5.796533 0.000000 
-0.000000 -5.796533 0.000000 
-0.000000 -5.796533 0.000000 
-0.000000 -5.796533 0.000000 
-0.000000 -5.796533 0.000000 
0.000000 -5.796533 0.000000 
-0.000000 -5.796533 0.000000 
-0.000000 -5.796533 0.000000 
-0.000000 -5.796533 0.000000 
-0.000000 -5.796533 0.000000 
0.000000 -5.796533 0.000000 
-0.000000 -5.796533 0.000000 
-0.000000 -5.796533 0.000000 
-0.000000 -5.796533 0.000000 
-0.000000 -5.796533 0.000000 
-0.000000 -5.796533 0.000000 
-0.000000 -5.796533 0.000000 
0.000000 -5.796533 0.000000 
0.000000 -5.796533 0.000000 
0.000000 -5.796533 0.000000 
0.000000 -5.796533 0.000000 
0.000000 -5.796533 0.000000 
0.000000 -5.796533 0.000000 
-0.000000 -5.796533 0.000000 
0.000000 -5.796533 0.000000 
0.000000 -5.796533 0.000000 
-0.000000 -5.796533 0.000000 
-0.000000 -5.796533 0.000000 
-0.000000 -5.796533 0.000000 
-0.000000 -5.796533 0.000000 
-0.000000 -5.796533 0.000000 
-0.000000 -5.796533 0.000000 
-0.000000 -5.796533 0.000000 
-0.000000 -5.796533 0.000000 
0.000000 -5.796533 0.000000 
-0.000000 -5.796533 0.000000 
0.000000 -5.796533 0.000000 
-0.000000 -5.796533 0.000000 
-0.000000 -5.796533 0.000000 
-0.000000 -5.796533 0.000000 
-0.000000 -5.796533 0.000000 
0.000000 -5.796533 0.000000 
-0.000000 -5.796533 0.000000 
0.000000 -5.796533 0.000000 
0.000000 -5.796533 0.000000 
0.000000 -5.796533 0.000000 
-0.000000 -5.796533 0.000000 
-0.000000 -5.796533 0.000000 
-0.000000 -5.796533 0.000000 
0.000000 -5.796533 0.000000 
0.000000 -5.796533 0.000000 
0.000000 -5.796533 0.000000 
0.000000 -5.796533 0.000000 
0.000000 -5.796533 0.000000 
0.000000 -5.796533 0.000000 
0.000000 -5.796533 0.000000 
-0.000000 -5.796533 0.000000 
-0.000000 -5.796533 0.000000 
-0.000000 -5.796533 0.000000 
-0.000000 -5.796533 0.000000 
0.000000 -5.796533 0.000000 
-0.000000 -5.796533 0.000000 
-0.000000 -5.796533 0.000000 
-0.000000 -5.796533 0.000000 
0.000000 -5.796533 0.000000 
0.000000 -5.796533 0.000000 
0.000000 -5.796533 0.000000 
-0.000000 -5.796533 0.000000 
0.000000 -5.796533 0.000000 
0.000000 -5.796533 0.000000 
0.000000 -5.796533 0.000000 
-0.000000 -5.796533 0.000000 
-0.000000 -5.796533 0.000000 
-0.000000 -5.796533 0.000000 
0.000000 -5.796533 0.000000 
0.000000 -5.796533 0.000000 
0.000000 -5.796533 0.000000 
-0.000000 -5.796533 0.000000 
0.000000 -5.796533 0.000000 
0.000000 -5.796533 0.000000 
0.000000 -5.796533 0.000000 
0.000000 -5.796533 0.000000 
0.000000 -5.796533 0.000000 
-0.000000 -5.796533 0.000000 
-0.000000 -5.796533 0.000000 
-0.000000 -5.796533 0.000000 
-0.000000 -5.796533 0.000000 
0.000000 -5.796533 0.000000 
-0.000000 -5.796533 0.000000 
0.000000 -5.796533 0.000000 
0.000000 -5.796533 0.000000 
0.000000 -5.796533 0.000000 
0.000000 -5.796533 0.000000 
0.000000 -5.796533 0.000000 
-0.000000 -5.796533 0.000000 
-0.000000 -5.796533 0.000000 
-0.000000 -5.796533 0.000000 
0.000000 -5.796533 0.000000 
-0.000000 -5.796533 0.000000 
0.000000 -5.796533 0.000000 
0.000000 -5.796533 0.000000 
-0.000000 -5.796533 0.000000 
0.000000 -5.796533 0.000000 
0.000000 -5.796533 0.000000 
0.000000 -5.796533 0.000000 
0.000000 -5.796533 0.000000 
-0.000000 -5.796533 0.000000 
0.000000 -5.796533 0.000000 
0.000000 -5.796533 0.000000 
0.000000 -5.796533 0.000000 
-0.000000 -5.796533 0.000000 
-0.000000 -5.796533 0.000000 
0.000000 -5.796533 0.000000 
0.000000 -5.796533 0.000000 
0.000000 -5.796533 0.000000 
0.000000 -5.796533 0.000000 
0.000000 -5.796533 0.000000 
0.000000 -5.796533 0.000000 
0.000000 -5.796533 0.000000 
-0.000000 -5.796533 0.000000 
-0.000000 -5.796533 0.000000 
0.000000 -5.796533 0.000000 
0.000000 -5.796533 0.000000 
TENSORS STRESS float 
-0.000000 0.000000 0.000000 
0.000000 0.000000 0.000000 
0.000000 0.000000 0.000000 

0.000000 0.000000 0.000000 
0.000000 0.000000 0.000000 
0.000000 0.000000 0.000000 

0.000000 0.000000 0.000000 
0.000000 0.000000 0.000000 
0.000000 0.000000 0.000000 

-0.000000 -0.000000 0.000000 
0.000000 -0.000000 0.000000 
0.000000 0.000000 0.000000 

-0.000000 0.000000 0.000000 
0.000000 -0.000000 0.000000 
0.000000 0.000000 0.000000 

-0.000000 0.000000 0.000000 
0.000000 0.000000 0.000000 
0.000000 0.000000 0.000000 

-0.000000 0.000000 0.000000 
0.000000 0.000000 0.000000 
0.000000 0.000000 0.000000 

-0.000000 0.000000 0.000000 
0.000000 0.000000 0.000000 
0.000000 0.000000 0.000000 

-0.000000 0.000000 0.000000 
0.000000 -0.000000 0.000000 
0.000000 0.000000 0.000000 

0.000000 -0.000000 0.000000 
0.000000 0.000000 0.000000 
0.000000 0.000000 0.000000 

-0.000000 -0.000000 0.000000 
0.000000 0.000000 0.000000 
0.000000 0.000000 0.000000 

0.000000 0.000000 0.000000 
0.000000 0.000000 0.000000 
0.000000 0.000000 0.000000 

0.000000 0.000000 0.000000 
0.000000 0.000000 0.000000 
0.000000 0.000000 0.000000 

0.000000 -0.000000 0.000000 
0.000000 0.000000 0.000000 
0.000000 0.000000 0.000000 

-0.000000 -0.000000 0.000000 
0.000000 -0.000000 0.000000 
0.000000 0.000000 0.000000 

-0.000000 -0.000000 0.000000 
0.000000 -0.000000 0.000000 
0.000000 0.000000 0.000000 

-0.000000 0.000000 0.000000 
0.000000 -0.000000 0.000000 
0.000000 0.000000 0.000000 

-0.000000 -0.000000 0.000000 
0.000000 -0.000000 0.000000 
0.000000 0.000000 0.000000 

-0.000000 -0.000000 0.000000 
0.000000 0.000000 0.000000 
0.000000 0.000000 0.000000 

0.000000 -0.000000 0.000000 
0.000000 0.000000 0.000000 
0.000000 0.000000 0.000000 

0.000000 0.000000 0.000000 
0.000000 0.000000 0.000000 
0.000000 0.000000 0.000000 

0.000000 0.000000 0.000000 
0.000000 -0.000000 0.000000 
0.000000 0.000000 0.000000 

-0.000000 0.000000 0.000000 
0.000000 -0.000000 0.000000 
0.000000 0.000000 0.000000 

0.000000 -0.000000 0.000000 
0.000000 0.000000 0.000000 
0.000000 0.000000 0.000000 

-0.000000 -0.000000 0.000000 
0.000000 -0.000000 0.000000 
0.000000 0.000000 0.000000 

0.000000 0.000000 0.000000 
0.000000 0.000000 0.000000 
0.000000 0.000000 0.000000 

-0.000000 -0.000000 0.000000 
0.000000 -0.000000 0.000000 
0.000000 0.000000 0.000000 

-0.000000 -0.000000 0.000000 
0.000000 0.000000 0.000000 
0.000000 0.000000 0.000000 

-0.000000 -0.000000 0.000000 
0.000000 -0.000000 0.000000 
0.000000 0.000000 0.000000 

-0.000000 0.000000 0.000000 
0.000000 0.000000 0.000000 
0.000000 0.000000 0.000000 

-0.000000 0.000000 0.000000 
0.000000 -0.000000 0.000000 
0.000000 0.000000 0.000000 

-0.000000 -0.000000 0.000000 
0.000000 -0.000000 0.000000 
0.000000 0.000000 0.000000 

-0.000000 -0.000000 0.000000 
0.000000 -0.000000 0.000000 
0.000000 0.000000 0.000000 

-0.000000 -0.000000 0.000000 
0.000000 0.000000 0.000000 
0.000000 0.000000 0.000000 

-0.000000 0.000000 0.000000 
0.000000 -0.000000 0.000000 
0.000000 0.000000 0.000000 

-0.000000 0.000000 0.000000 
0.000000 0.000000 0.000000 
0.000000 0.000000 0.000000 

0.000000 0.000000 0.000000 
0.000000 0.000000 0.000000 
0.000000 0.000000 0.000000 

-0.000000 0.000000 0.000000 
0.000000 -0.000000 0.000000 
0.000000 0.000000 0.000000 

-0.000000 0.000000 0.000000 
0.000000 -0.000000 0.000000 
0.000000 0.000000 0.000000 

0.000000 0.000000 0.000000 
0.000000 0.000000 0.000000 
0.000000 0.000000 0.000000 

0.000000 0.000000 0.000000 
0.000000 0.000000 0.000000 
0.000000 0.000000 0.000000 

0.000000 0.000000 0.000000 
0.000000 0.000000 0.000000 
0.000000 0.000000 0.000000 

0.000000 -0.000000 0.000000 
0.000000 0.000000 0.000000 
0.000000 0.000000 0.000000 

0.000000 0.000000 0.000000 
0.000000 0.000000 0.000000 
0.000000 0.000000 0.000000 

0.000000 0.000000 0.000000 
0.000000 -0.000000 0.000000 
0.000000 0.000000 0.000000 

0.000000 -0.000000 0.000000 
0.000000 0.000000 0.000000 
0.000000 0.000000 0.000000 

0.000000 -0.000000 0.000000 
0.000000 0.000000 0.000000 
0.000000 0.000000 0.000000 

-0.000000 -0.000000 0.000000 
0.000000 -0.000000 0.000000 
0.000000 0.000000 0.000000 

0.000000 -0.000000 0.000000 
0.000000 0.000000 0.000000 
0.000000 0.000000 0.000000 

-0.000000 -0.000000 0.000000 
0.000000 -0.000000 0.000000 
0.000000 0.000000 0.000000 

0.000000 -0.000000 0.000000 
0.000000 0.000000 0.000000 
0.000000 0.000000 0.000000 

0.000000 -0.000000 0.000000 
0.000000 0.000000 0.000000 
0.000000 0.000000 0.000000 

0.000000 -0.000000 0.000000 
0.000000 -0.000000 0.000000 
0.000000 0.000000 0.000000 

0.000000 0.000000 0.000000 
0.000000 0.000000 0.000000 
0.000000 0.000000 0.000000 

-0.000000 0.000000 0.000000 
0.000000 -0.000000 0.000000 
0.000000 0.000000 0.000000 

0.000000 -0.000000 0.000000 
0.000000 -0.000000 0.000000 
0.000000 0.000000 0.000000 

0.000000 0.000000 0.000000 
0.000000 0.000000 0.000000 
0.000000 0.000000 0.000000 

0.000000 0.000000 0.000000 
0.000000 -0.000000 0.000000 
0.000000 0.000000 0.000000 

-0.000000 0.000000 0.000000 
0.000000 -0.000000 0.000000 
0.000000 0.000000 0.000000 

0.000000 0.000000 0.000000 
0.000000 -0.000000 0.000000 
0.000000 0.000000 0.000000 

0.000000 -0.000000 0.000000 
0.000000 0.000000 0.000000 
0.000000 0.000000 0.000000 

-0.000000 -0.000000 0.000000 
0.000000 -0.000000 0.000000 
0.000000 0.000000 0.000000 

-0.000000 0.000000 0.000000 
0.000000 -0.000000 0.000000 
0.000000 0.000000 0.000000 

-0.000000 -0.000000 0.000000 
0.000000 0.000000 0.000000 
0.000000 0.000000 0.000000 

-0.000000 -0.000000 0.000000 
0.000000 0.000000 0.000000 
0.000000 0.000000 0.000000 

-0.000000 -0.000000 0.000000 
0.000000 -0.000000 0.000000 
0.000000 0.000000 0.000000 

-0.000000 -0.000000 0.000000 
0.000000 -0.000000 0.000000 
0.000000 0.000000 0.000000 

0.000000 0.000000 0.000000 
0.000000 0.000000 0.000000 
0.000000 0.000000 0.000000 

-0.000000 0.000000 0.000000 
0.000000 -0.000000 0.000000 
0.000000 0.000000 0.000000 

0.000000 -0.000000 0.000000 
0.000000 0.000000 0.000000 
0.000000 0.000000 0.000000 

0.000000 0.000000 0.000000 
0.000000 0.000000 0.000000 
0.000000 0.000000 0.000000 

-0.000000 -0.000000 0.000000 
0.000000 -0.000000 0.000000 
0.000000 0.000000 0.000000 

-0.000000 0.000000 0.000000 
0.000000 -0.000000 0.000000 
0.000000 0.000000 0.000000 

0.000000 0.000000 0.000000 
0.000000 -0.000000 0.000000 
0.000000 0.000000 0.000000 

0.000000 -0.000000 0.000000 
0.000000 0.000000 0.000000 
0.000000 0.000000 0.000000 

-0.000000 -0.000000 0.000000 
0.000000 -0.000000 0.000000 
0.000000 0.000000 0.000000 

0.000000 0.000000 0.000000 
0.000000 0.000000 0.000000 
0.000000 0.000000 0.000000 

0.000000 -0.000000 0.000000 
0.000000 -0.000000 0.000000 
0.000000 0.000000 0.000000 

0.000000 0.000000 0.000000 
0.000000 0.000000 0.000000 
0.000000 0.000000 0.000000 

0.000000 -0.000000 0.000000 
0.000000 0.000000 0.000000 
0.000000 0.000000 0.000000 

0.000000 0.000000 0.000000 
0.000000 0.000000 0.000000 
0.000000 0.000000 0.000000 

-0.000000 -0.000000 0.000000 
0.000000 -0.000000 0.000000 
0.000000 0.000000 0.000000 

0.000000 0.000000 0.000000 
0.000000 -0.000000 0.000000 
0.000000 0.000000 0.000000 

0.000000 -0.000000 0.000000 
0.000000 0.000000 0.000000 
0.000000 0.000000 0.000000 

0.000000 0.000000 0.000000 
0.000000 0.000000 0.000000 
0.000000 0.000000 0.000000 

-0.000000 0.000000 0.000000 
0.000000 -0.000000 0.000000 
0.000000 0.000000 0.000000 

0.000000 -0.000000 0.000000 
0.000000 0.000000 0.000000 
0.000000 0.000000 0.000000 

-0.000000 -0.000000 0.000000 
0.000000 -0.000000 0.000000 
0.000000 0.000000 0.000000 

-0.000000 -0.000000 0.000000 
0.000000 -0.000000 0.000000 
0.000000 0.000000 0.000000 

-0.000000 0.000000 0.000000 
0.000000 -0.000000 0.000000 
0.000000 0.000000 0.000000 

0.000000 0.000000 0.000000 
0.000000 -0.000000 0.000000 
0.000000 0.000000 0.000000 

0.000000 -0.000000 0.000000 
0.000000 0.000000 0.000000 
0.000000 0.000000 0.000000 

-0.000000 0.000000 0.000000 
0.000000 -0.000000 0.000000 
0.000000 0.000000 0.000000 

-0.000000 0.000000 0.000000 
0.000000 -0.000000 0.000000 
0.000000 0.000000 0.000000 

0.000000 -0.000000 0.000000 
0.000000 0.000000 0.000000 
0.000000 0.000000 0.000000 

-0.000000 0.000000 0.000000 
0.000000 -0.000000 0.000000 
0.000000 0.000000 0.000000 

0.000000 0.000000 0.000000 
0.000000 0.000000 0.000000 
0.000000 0.000000 0.000000 

-0.000000 -0.000000 0.000000 
0.000000 -0.000000 0.000000 
0.000000 0.000000 0.000000 

-0.000000 0.000000 0.000000 
0.000000 -0.000000 0.000000 
0.000000 0.000000 0.000000 

-0.000000 -0.000000 0.000000 
0.000000 -0.000000 0.000000 
0.000000 0.000000 0.000000 

-0.000000 -0.000000 0.000000 
0.000000 -0.000000 0.000000 
0.000000 0.000000 0.000000 

0.000000 -0.000000 0.000000 
0.000000 0.000000 0.000000 
0.000000 0.000000 0.000000 

-0.000000 -0.000000 0.000000 
0.000000 0.000000 0.000000 
0.000000 0.000000 0.000000 

-0.000000 0.000000 0.000000 
0.000000 -0.000000 0.000000 
0.000000 0.000000 0.000000 

-0.000000 0.000000 0.000000 
0.000000 -0.000000 0.000000 
0.000000 0.000000 0.000000 

-0.000000 -0.000000 0.000000 
0.000000 0.000000 0.000000 
0.000000 0.000000 0.000000 

-0.000000 0.000000 0.000000 
0.000000 0.000000 0.000000 
0.000000 0.000000 0.000000 

-0.000000 -0.000000 0.000000 
0.000000 0.000000 0.000000 
0.000000 0.000000 0.000000 

-0.000000 -0.000000 0.000000 
0.000000 0.000000 0.000000 
0.000000 0.000000 0.000000 

-0.000000 0.000000 0.000000 
0.000000 0.000000 0.000000 
0.000000 0.000000 0.000000 

-0.000000 0.000000 0.000000 
0.000000 0.000000 0.000000 
0.000000 0.000000 0.000000 

-0.000000 0.000000 0.000000 
0.000000 -0.000000 0.000000 
0.000000 0.000000 0.000000 

-0.000000 0.000000 0.000000 
0.000000 -0.000000 0.000000 
0.000000 0.000000 0.000000 

-0.000000 0.000000 0.000000 
0.000000 -0.000000 0.000000 
0.000000 0.000000 0.000000 

0.000000 -0.000000 0.000000 
0.000000 0.000000 0.000000 
0.000000 0.000000 0.000000 

-0.000000 0.000000 0.000000 
0.000000 -0.000000 0.000000 
0.000000 0.000000 0.000000 

-0.000000 -0.000000 0.000000 
0.000000 -0.000000 0.000000 
0.000000 0.000000 0.000000 

-0.000000 0.000000 0.000000 
0.000000 -0.000000 0.000000 
0.000000 0.000000 0.000000 

-0.000000 0.000000 0.000000 
0.000000 -0.000000 0.000000 
0.000000 0.000000 0.000000 

-0.000000 -0.000000 0.000000 
0.000000 -0.000000 0.000000 
0.000000 0.000000 0.000000 

0.000000 0.000000 0.000000 
0.000000 0.000000 0.000000 
0.000000 0.000000 0.000000 

0.000000 -0.000000 0.000000 
0.000000 0.000000 0.000000 
0.000000 0.000000 0.000000 

-0.000000 0.000000 0.000000 
0.000000 -0.000000 0.000000 
0.000000 0.000000 0.000000 

0.000000 0.000000 0.000000 
0.000000 0.000000 0.000000 
0.000000 0.000000 0.000000 

0.000000 0.000000 0.000000 
0.000000 0.000000 0.000000 
0.000000 0.000000 0.000000 

0.000000 -0.000000 0.000000 
0.000000 0.000000 0.000000 
0.000000 0.000000 0.000000 

0.000000 0.000000 0.000000 
0.000000 0.000000 0.000000 
0.000000 0.000000 0.000000 

0.000000 -0.000000 0.000000 
0.000000 -0.000000 0.000000 
0.000000 0.000000 0.000000 

0.000000 0.000000 0.000000 
0.000000 0.000000 0.000000 
0.000000 0.000000 0.000000 

0.000000 0.000000 0.000000 
0.000000 0.000000 0.000000 
0.000000 0.000000 0.000000 

0.000000 0.000000 0.000000 
0.000000 -0.000000 0.000000 
0.000000 0.000000 0.000000 

-0.000000 -0.000000 0.000000 
0.000000 -0.000000 0.000000 
0.000000 0.000000 0.000000 

-0.000000 -0.000000 0.000000 
0.000000 -0.000000 0.000000 
0.000000 0.000000 0.000000 

-0.000000 0.000000 0.000000 
0.000000 -0.000000 0.000000 
0.000000 0.000000 0.000000 

-0.000000 -0.000000 0.000000 
0.000000 -0.000000 0.000000 
0.000000 0.000000 0.000000 

0.000000 -0.000000 0.000000 
0.000000 -0.000000 0.000000 
0.000000 0.000000 0.000000 

0.000000 -0.000000 0.000000 
0.000000 -0.000000 0.000000 
0.000000 0.000000 0.000000 

-0.000000 0.000000 0.000000 
0.000000 -0.000000 0.000000 
0.000000 0.000000 0.000000 

-0.000000 0.000000 0.000000 
0.000000 -0.000000 0.000000 
0.000000 0.000000 0.000000 

-0.000000 -0.000000 0.000000 
0.000000 0.000000 0.000000 
0.000000 0.000000 0.000000 

-0.000000 -0.000000 0.000000 
0.000000 -0.000000 0.000000 
0.000000 0.000000 0.000000 

0.000000 -0.000000 0.000000 
0.000000 0.000000 0.000000 
0.000000 0.000000 0.000000 

0.000000 -0.000000 0.000000 
0.000000 0.000000 0.000000 
0.000000 0.000000 0.000000 

-0.000000 0.000000 0.000000 
0.000000 0.000000 0.000000 
0.000000 0.000000 0.000000 

-0.000000 0.000000 0.000000 
0.000000 -0.000000 0.000000 
0.000000 0.000000 0.000000 

-0.000000 0.000000 0.000000 
0.000000 -0.000000 0.000000 
0.000000 0.000000 0.000000 

-0.000000 0.000000 0.000000 
0.000000 -0.000000 0.000000 
0.000000 0.000000 0.000000 

-0.000000 -0.000000 0.000000 
0.000000 -0.000000 0.000000 
0.000000 0.000000 0.000000 

-0.000000 0.000000 0.000000 
0.000000 -0.000000 0.000000 
0.000000 0.000000 0.000000 

0.000000 0.000000 0.000000 
0.000000 0.000000 0.000000 
0.000000 0.000000 0.000000 

-0.000000 0.000000 0.000000 
0.000000 0.000000 0.000000 
0.000000 0.000000 0.000000 

-0.000000 0.000000 0.000000 
0.000000 0.000000 0.000000 
0.000000 0.000000 0.000000 

0.000000 0.000000 0.000000 
0.000000 0.000000 0.000000 
0.000000 0.000000 0.000000 

0.000000 -0.000000 0.000000 
0.000000 0.000000 0.000000 
0.000000 0.000000 0.000000 

-0.000000 0.000000 0.000000 
0.000000 -0.000000 0.000000 
0.000000 0.000000 0.000000 

-0.000000 0.000000 0.000000 
0.000000 0.000000 0.000000 
0.000000 0.000000 0.000000 

-0.000000 0.000000 0.000000 
0.000000 -0.000000 0.000000 
0.000000 0.000000 0.000000 

0.000000 -0.000000 0.000000 
0.000000 0.000000 0.000000 
0.000000 0.000000 0.000000 

0.000000 -0.000000 0.000000 
0.000000 0.000000 0.000000 
0.000000 0.000000 0.000000 

-0.000000 -0.000000 0.000000 
0.000000 -0.000000 0.000000 
0.000000 0.000000 0.000000 

-0.000000 -0.000000 0.000000 
0.000000 -0.000000 0.000000 
0.000000 0.000000 0.000000 

-0.000000 0.000000 0.000000 
0.000000 -0.000000 0.000000 
0.000000 0.000000 0.000000 

-0.000000 -0.000000 0.000000 
0.000000 -0.000000 0.000000 
0.000000 0.000000 0.000000 

-0.000000 -0.000000 0.000000 
0.000000 0.000000 0.000000 
0.000000 0.000000 0.000000 

-0.000000 0.000000 0.000000 
0.000000 -0.000000 0.000000 
0.000000 0.000000 0.000000 

-0.000000 -0.000000 0.000000 
0.000000 -0.000000 0.000000 
0.000000 0.000000 0.000000 

-0.000000 -0.000000 0.000000 
0.000000 -0.000000 0.000000 
0.000000 0.000000 0.000000 

0.000000 -0.000000 0.000000 
0.000000 0.000000 0.000000 
0.000000 0.000000 0.000000 

-0.000000 0.000000 0.000000 
0.000000 -0.000000 0.000000 
0.000000 0.000000 0.000000 

-0.000000 0.000000 0.000000 
0.000000 -0.000000 0.000000 
0.000000 0.000000 0.000000 

-0.000000 0.000000 0.000000 
0.000000 -0.000000 0.000000 
0.000000 0.000000 0.000000 

-0.000000 0.000000 0.000000 
0.000000 -0.000000 0.000000 
0.000000 0.000000 0.000000 

-0.000000 -0.000000 0.000000 
0.000000 -0.000000 0.000000 
0.000000 0.000000 0.000000 

-0.000000 -0.000000 0.000000 
0.000000 -0.000000 0.000000 
0.000000 0.000000 0.000000 

-0.000000 0.000000 0.000000 
0.000000 -0.000000 0.000000 
0.000000 0.000000 0.000000 

TENSORS STRAIN float 
-0.000000 0.000000 0.000000 
0.000000 0.000000 0.000000 
0.000000 0.000000 0.000000 

-0.000000 0.000000 0.000000 
0.000000 0.000000 0.000000 
0.000000 0.000000 0.000000 

-0.000000 0.000000 0.000000 
0.000000 0.000000 0.000000 
0.000000 0.000000 0.000000 

-0.000000 -0.000000 0.000000 
0.000000 -0.000000 0.000000 
0.000000 0.000000 0.000000 

-0.000000 0.000000 0.000000 
0.000000 -0.000000 0.000000 
0.000000 0.000000 0.000000 

-0.000000 0.000000 0.000000 
0.000000 0.000000 0.000000 
0.000000 0.000000 0.000000 

-0.000000 0.000000 0.000000 
0.000000 0.000000 0.000000 
0.000000 0.000000 0.000000 

-0.000000 0.000000 0.000000 
0.000000 0.000000 0.000000 
0.000000 0.000000 0.000000 

-0.000000 0.000000 0.000000 
0.000000 -0.000000 0.000000 
0.000000 0.000000 0.000000 

-0.000000 -0.000000 0.000000 
0.000000 0.000000 0.000000 
0.000000 0.000000 0.000000 

-0.000000 -0.000000 0.000000 
0.000000 0.000000 0.000000 
0.000000 0.000000 0.000000 

-0.000000 0.000000 0.000000 
0.000000 0.000000 0.000000 
0.000000 0.000000 0.000000 

-0.000000 0.000000 0.000000 
0.000000 0.000000 0.000000 
0.000000 0.000000 0.000000 

0.000000 -0.000000 0.000000 
0.000000 -0.000000 0.000000 
0.000000 0.000000 0.000000 

-0.000000 -0.000000 0.000000 
0.000000 -0.000000 0.000000 
0.000000 0.000000 0.000000 

-0.000000 -0.000000 0.000000 
0.000000 -0.000000 0.000000 
0.000000 0.000000 0.000000 

-0.000000 0.000000 0.000000 
0.000000 -0.000000 0.000000 
0.000000 0.000000 0.000000 

-0.000000 -0.000000 0.000000 
0.000000 -0.000000 0.000000 
0.000000 0.000000 0.000000 

-0.000000 -0.000000 0.000000 
0.000000 0.000000 0.000000 
0.000000 0.000000 0.000000 

0.000000 -0.000000 0.000000 
0.000000 0.000000 0.000000 
0.000000 0.000000 0.000000 

0.000000 0.000000 0.000000 
0.000000 0.000000 0.000000 
0.000000 0.000000 0.000000 

0.000000 0.000000 0.000000 
0.000000 -0.000000 0.000000 
0.000000 0.000000 0.000000 

0.000000 0.000000 0.000000 
0.000000 -0.000000 0.000000 
0.000000 0.000000 0.000000 

-0.000000 -0.000000 0.000000 
0.000000 0.000000 0.000000 
0.000000 0.000000 0.000000 

-0.000000 -0.000000 0.000000 
0.000000 -0.000000 0.000000 
0.000000 0.000000 0.000000 

0.000000 0.000000 0.000000 
0.000000 -0.000000 0.000000 
0.000000 0.000000 0.000000 

-0.000000 -0.000000 0.000000 
0.000000 -0.000000 0.000000 
0.000000 0.000000 0.000000 

-0.000000 -0.000000 0.000000 
0.000000 0.000000 0.000000 
0.000000 0.000000 0.000000 

-0.000000 -0.000000 0.000000 
0.000000 0.000000 0.000000 
0.000000 0.000000 0.000000 

-0.000000 0.000000 0.000000 
0.000000 0.000000 0.000000 
0.000000 0.000000 0.000000 

-0.000000 0.000000 0.000000 
0.000000 -0.000000 0.000000 
0.000000 0.000000 0.000000 

0.000000 -0.000000 0.000000 
0.000000 -0.000000 0.000000 
0.000000 0.000000 0.000000 

-0.000000 -0.000000 0.000000 
0.000000 0.000000 0.000000 
0.000000 0.000000 0.000000 

-0.000000 -0.000000 0.000000 
0.000000 0.000000 0.000000 
0.000000 0.000000 0.000000 

-0.000000 0.000000 0.000000 
0.000000 -0.000000 0.000000 
0.000000 0.000000 0.000000 

-0.000000 0.000000 0.000000 
0.000000 0.000000 0.000000 
0.000000 0.000000 0.000000 

0.000000 0.000000 0.000000 
0.000000 0.000000 0.000000 
0.000000 0.000000 0.000000 

0.000000 0.000000 0.000000 
0.000000 -0.000000 0.000000 
0.000000 0.000000 0.000000 

0.000000 0.000000 0.000000 
0.000000 -0.000000 0.000000 
0.000000 0.000000 0.000000 

0.000000 0.000000 0.000000 
0.000000 -0.000000 0.000000 
0.000000 0.000000 0.000000 

0.000000 0.000000 0.000000 
0.000000 0.000000 0.000000 
0.000000 0.000000 0.000000 

0.000000 0.000000 0.000000 
0.000000 0.000000 0.000000 
0.000000 0.000000 0.000000 

0.000000 -0.000000 0.000000 
0.000000 -0.000000 0.000000 
0.000000 0.000000 0.000000 

0.000000 0.000000 0.000000 
0.000000 0.000000 0.000000 
0.000000 0.000000 0.000000 

0.000000 0.000000 0.000000 
0.000000 -0.000000 0.000000 
0.000000 0.000000 0.000000 

0.000000 -0.000000 0.000000 
0.000000 0.000000 0.000000 
0.000000 0.000000 0.000000 

-0.000000 -0.000000 0.000000 
0.000000 0.000000 0.000000 
0.000000 0.000000 0.000000 

0.000000 -0.000000 0.000000 
0.000000 -0.000000 0.000000 
0.000000 0.000000 0.000000 

0.000000 -0.000000 0.000000 
0.000000 0.000000 0.000000 
0.000000 0.000000 0.000000 

-0.000000 -0.000000 0.000000 
0.000000 -0.000000 0.000000 
0.000000 0.000000 0.000000 

0.000000 -0.000000 0.000000 
0.000000 0.000000 0.000000 
0.000000 0.000000 0.000000 

0.000000 -0.000000 0.000000 
0.000000 0.000000 0.000000 
0.000000 0.000000 0.000000 

0.000000 -0.000000 0.000000 
0.000000 -0.000000 0.000000 
0.000000 0.000000 0.000000 

0.000000 0.000000 0.000000 
0.000000 0.000000 0.000000 
0.000000 0.000000 0.000000 

-0.000000 0.000000 0.000000 
0.000000 -0.000000 0.000000 
0.000000 0.000000 0.000000 

0.000000 -0.000000 0.000000 
0.000000 -0.000000 0.000000 
0.000000 0.000000 0.000000 

0.000000 0.000000 0.000000 
0.000000 -0.000000 0.000000 
0.000000 0.000000 0.000000 

0.000000 0.000000 0.000000 
0.000000 -0.000000 0.000000 
0.000000 0.000000 0.000000 

-0.000000 0.000000 0.000000 
0.000000 -0.000000 0.000000 
0.000000 0.000000 0.000000 

0.000000 0.000000 0.000000 
0.000000 -0.000000 0.000000 
0.000000 0.000000 0.000000 

0.000000 -0.000000 0.000000 
0.000000 0.000000 0.000000 
0.000000 0.000000 0.000000 

-0.000000 -0.000000 0.000000 
0.000000 0.000000 0.000000 
0.000000 0.000000 0.000000 

-0.000000 0.000000 0.000000 
0.000000 -0.000000 0.000000 
0.000000 0.000000 0.000000 

-0.000000 -0.000000 0.000000 
0.000000 0.000000 0.000000 
0.000000 0.000000 0.000000 

-0.000000 -0.000000 0.000000 
0.000000 0.000000 0.000000 
0.000000 0.000000 0.000000 

-0.000000 -0.000000 0.000000 
0.000000 -0.000000 0.000000 
0.000000 0.000000 0.000000 

0.000000 -0.000000 0.000000 
0.000000 -0.000000 0.000000 
0.000000 0.000000 0.000000 

0.000000 0.000000 0.000000 
0.000000 0.000000 0.000000 
0.000000 0.000000 0.000000 

0.000000 0.000000 0.000000 
0.000000 -0.000000 0.000000 
0.000000 0.000000 0.000000 

0.000000 -0.000000 0.000000 
0.000000 0.000000 0.000000 
0.000000 0.000000 0.000000 

0.000000 0.000000 0.000000 
0.000000 0.000000 0.000000 
0.000000 0.000000 0.000000 

-0.000000 -0.000000 0.000000 
0.000000 -0.000000 0.000000 
0.000000 0.000000 0.000000 

-0.000000 0.000000 0.000000 
0.000000 -0.000000 0.000000 
0.000000 0.000000 0.000000 

0.000000 0.000000 0.000000 
0.000000 -0.000000 0.000000 
0.000000 0.000000 0.000000 

0.000000 -0.000000 0.000000 
0.000000 0.000000 0.000000 
0.000000 0.000000 0.000000 

0.000000 -0.000000 0.000000 
0.000000 -0.000000 0.000000 
0.000000 0.000000 0.000000 

0.000000 0.000000 0.000000 
0.000000 0.000000 0.000000 
0.000000 0.000000 0.000000 

0.000000 -0.000000 0.000000 
0.000000 -0.000000 0.000000 
0.000000 0.000000 0.000000 

0.000000 0.000000 0.000000 
0.000000 0.000000 0.000000 
0.000000 0.000000 0.000000 

-0.000000 -0.000000 0.000000 
0.000000 0.000000 0.000000 
0.000000 0.000000 0.000000 

0.000000 0.000000 0.000000 
0.000000 0.000000 0.000000 
0.000000 0.000000 0.000000 

-0.000000 -0.000000 0.000000 
0.000000 -0.000000 0.000000 
0.000000 0.000000 0.000000 

0.000000 0.000000 0.000000 
0.000000 -0.000000 0.000000 
0.000000 0.000000 0.000000 

0.000000 -0.000000 0.000000 
0.000000 0.000000 0.000000 
0.000000 0.000000 0.000000 

-0.000000 0.000000 0.000000 
0.000000 0.000000 0.000000 
0.000000 0.000000 0.000000 

-0.000000 0.000000 0.000000 
0.000000 -0.000000 0.000000 
0.000000 0.000000 0.000000 

-0.000000 -0.000000 0.000000 
0.000000 0.000000 0.000000 
0.000000 0.000000 0.000000 

-0.000000 -0.000000 0.000000 
0.000000 -0.000000 0.000000 
0.000000 0.000000 0.000000 

-0.000000 -0.000000 0.000000 
0.000000 -0.000000 0.000000 
0.000000 0.000000 0.000000 

0.000000 0.000000 0.000000 
0.000000 -0.000000 0.000000 
0.000000 0.000000 0.000000 

0.000000 0.000000 0.000000 
0.000000 -0.000000 0.000000 
0.000000 0.000000 0.000000 

-0.000000 -0.000000 0.000000 
0.000000 0.000000 0.000000 
0.000000 0.000000 0.000000 

-0.000000 0.000000 0.000000 
0.000000 -0.000000 0.000000 
0.000000 0.000000 0.000000 

0.000000 0.000000 0.000000 
0.000000 -0.000000 0.000000 
0.000000 0.000000 0.000000 

-0.000000 -0.000000 0.000000 
0.000000 0.000000 0.000000 
0.000000 0.000000 0.000000 

-0.000000 0.000000 0.000000 
0.000000 -0.000000 0.000000 
0.000000 0.000000 0.000000 

-0.000000 0.000000 0.000000 
0.000000 0.000000 0.000000 
0.000000 0.000000 0.000000 

-0.000000 -0.000000 0.000000 
0.000000 -0.000000 0.000000 
0.000000 0.000000 0.000000 

0.000000 0.000000 0.000000 
0.000000 -0.000000 0.000000 
0.000000 0.000000 0.000000 

-0.000000 -0.000000 0.000000 
0.000000 -0.000000 0.000000 
0.000000 0.000000 0.000000 

0.000000 -0.000000 0.000000 
0.000000 -0.000000 0.000000 
0.000000 0.000000 0.000000 

-0.000000 -0.000000 0.000000 
0.000000 0.000000 0.000000 
0.000000 0.000000 0.000000 

-0.000000 -0.000000 0.000000 
0.000000 0.000000 0.000000 
0.000000 0.000000 0.000000 

-0.000000 0.000000 0.000000 
0.000000 -0.000000 0.000000 
0.000000 0.000000 0.000000 

-0.000000 0.000000 0.000000 
0.000000 -0.000000 0.000000 
0.000000 0.000000 0.000000 

-0.000000 -0.000000 0.000000 
0.000000 0.000000 0.000000 
0.000000 0.000000 0.000000 

-0.000000 0.000000 0.000000 
0.000000 0.000000 0.000000 
0.000000 0.000000 0.000000 

-0.000000 -0.000000 0.000000 
0.000000 0.000000 0.000000 
0.000000 0.000000 0.000000 

-0.000000 -0.000000 0.000000 
0.000000 0.000000 0.000000 
0.000000 0.000000 0.000000 

-0.000000 0.000000 0.000000 
0.000000 0.000000 0.000000 
0.000000 0.000000 0.000000 

-0.000000 0.000000 0.000000 
0.000000 0.000000 0.000000 
0.000000 0.000000 0.000000 

-0.000000 0.000000 0.000000 
0.000000 -0.000000 0.000000 
0.000000 0.000000 0.000000 

-0.000000 0.000000 0.000000 
0.000000 -0.000000 0.000000 
0.000000 0.000000 0.000000 

0.000000 0.000000 0.000000 
0.000000 -0.000000 0.000000 
0.000000 0.000000 0.000000 

0.000000 -0.000000 0.000000 
0.000000 0.000000 0.000000 
0.000000 0.000000 0.000000 

-0.000000 0.000000 0.000000 
0.000000 -0.000000 0.000000 
0.000000 0.000000 0.000000 

-0.000000 -0.000000 0.000000 
0.000000 -0.000000 0.000000 
0.000000 0.000000 0.000000 

-0.000000 0.000000 0.000000 
0.000000 -0.000000 0.000000 
0.000000 0.000000 0.000000 

-0.000000 0.000000 0.000000 
0.000000 0.000000 0.000000 
0.000000 0.000000 0.000000 

-0.000000 -0.000000 0.000000 
0.000000 -0.000000 0.000000 
0.000000 0.000000 0.000000 

0.000000 0.000000 0.000000 
0.000000 0.000000 0.000000 
0.000000 0.000000 0.000000 

0.000000 -0.000000 0.000000 
0.000000 0.000000 0.000000 
0.000000 0.000000 0.000000 

0.000000 0.000000 0.000000 
0.000000 -0.000000 0.000000 
0.000000 0.000000 0.000000 

0.000000 0.000000 0.000000 
0.000000 0.000000 0.000000 
0.000000 0.000000 0.000000 

0.000000 0.000000 0.000000 
0.000000 0.000000 0.000000 
0.000000 0.000000 0.000000 

0.000000 -0.000000 0.000000 
0.000000 0.000000 0.000000 
0.000000 0.000000 0.000000 

0.000000 0.000000 0.000000 
0.000000 0.000000 0.000000 
0.000000 0.000000 0.000000 

0.000000 -0.000000 0.000000 
0.000000 -0.000000 0.000000 
0.000000 0.000000 0.000000 

0.000000 0.000000 0.000000 
0.000000 -0.000000 0.000000 
0.000000 0.000000 0.000000 

0.000000 0.000000 0.000000 
0.000000 0.000000 0.000000 
0.000000 0.000000 0.000000 

0.000000 0.000000 0.000000 
0.000000 -0.000000 0.000000 
0.000000 0.000000 0.000000 

-0.000000 -0.000000 0.000000 
0.000000 -0.000000 0.000000 
0.000000 0.000000 0.000000 

-0.000000 -0.000000 0.000000 
0.000000 -0.000000 0.000000 
0.000000 0.000000 0.000000 

-0.000000 0.000000 0.000000 
0.000000 -0.000000 0.000000 
0.000000 0.000000 0.000000 

0.000000 -0.000000 0.000000 
0.000000 -0.000000 0.000000 
0.000000 0.000000 0.000000 

0.000000 -0.000000 0.000000 
0.000000 -0.000000 0.000000 
0.000000 0.000000 0.000000 

0.000000 -0.000000 0.000000 
0.000000 -0.000000 0.000000 
0.000000 0.000000 0.000000 

-0.000000 0.000000 0.000000 
0.000000 -0.000000 0.000000 
0.000000 0.000000 0.000000 

-0.000000 0.000000 0.000000 
0.000000 0.000000 0.000000 
0.000000 0.000000 0.000000 

-0.000000 -0.000000 0.000000 
0.000000 0.000000 0.000000 
0.000000 0.000000 0.000000 

-0.000000 -0.000000 0.000000 
0.000000 -0.000000 0.000000 
0.000000 0.000000 0.000000 

-0.000000 -0.000000 0.000000 
0.000000 0.000000 0.000000 
0.000000 0.000000 0.000000 

0.000000 -0.000000 0.000000 
0.000000 0.000000 0.000000 
0.000000 0.000000 0.000000 

-0.000000 0.000000 0.000000 
0.000000 0.000000 0.000000 
0.000000 0.000000 0.000000 

-0.000000 0.000000 0.000000 
0.000000 -0.000000 0.000000 
0.000000 0.000000 0.000000 

-0.000000 0.000000 0.000000 
0.000000 -0.000000 0.000000 
0.000000 0.000000 0.000000 

0.000000 0.000000 0.000000 
0.000000 -0.000000 0.000000 
0.000000 0.000000 0.000000 

-0.000000 -0.000000 0.000000 
0.000000 -0.000000 0.000000 
0.000000 0.000000 0.000000 

-0.000000 0.000000 0.000000 
0.000000 -0.000000 0.000000 
0.000000 0.000000 0.000000 

-0.000000 0.000000 0.000000 
0.000000 0.000000 0.000000 
0.000000 0.000000 0.000000 

-0.000000 0.000000 0.000000 
0.000000 0.000000 0.000000 
0.000000 0.000000 0.000000 

-0.000000 0.000000 0.000000 
0.000000 0.000000 0.000000 
0.000000 0.000000 0.000000 

-0.000000 0.000000 0.000000 
0.000000 0.000000 0.000000 
0.000000 0.000000 0.000000 

0.000000 -0.000000 0.000000 
0.000000 0.000000 0.000000 
0.000000 0.000000 0.000000 

-0.000000 0.000000 0.000000 
0.000000 -0.000000 0.000000 
0.000000 0.000000 0.000000 

-0.000000 0.000000 0.000000 
0.000000 0.000000 0.000000 
0.000000 0.000000 0.000000 

-0.000000 0.000000 0.000000 
0.000000 0.000000 0.000000 
0.000000 0.000000 0.000000 

-0.000000 -0.000000 0.000000 
0.000000 0.000000 0.000000 
0.000000 0.000000 0.000000 

-0.000000 -0.000000 0.000000 
0.000000 0.000000 0.000000 
0.000000 0.000000 0.000000 

-0.000000 -0.000000 0.000000 
0.000000 -0.000000 0.000000 
0.000000 0.000000 0.000000 

-0.000000 -0.000000 0.000000 
0.000000 -0.000000 0.000000 
0.000000 0.000000 0.000000 

-0.000000 0.000000 0.000000 
0.000000 0.000000 0.000000 
0.000000 0.000000 0.000000 

-0.000000 -0.000000 0.000000 
0.000000 -0.000000 0.000000 
0.000000 0.000000 0.000000 

-0.000000 -0.000000 0.000000 
0.000000 0.000000 0.000000 
0.000000 0.000000 0.000000 

-0.000000 0.000000 0.000000 
0.000000 0.000000 0.000000 
0.000000 0.000000 0.000000 

-0.000000 -0.000000 0.000000 
0.000000 -0.000000 0.000000 
0.000000 0.000000 0.000000 

-0.000000 -0.000000 0.000000 
0.000000 -0.000000 0.000000 
0.000000 0.000000 0.000000 

-0.000000 -0.000000 0.000000 
0.000000 0.000000 0.000000 
0.000000 0.000000 0.000000 

-0.000000 0.000000 0.000000 
0.000000 -0.000000 0.000000 
0.000000 0.000000 0.000000 

-0.000000 0.000000 0.000000 
0.000000 -0.000000 0.000000 
0.000000 0.000000 0.000000 

-0.000000 0.000000 0.000000 
0.000000 0.000000 0.000000 
0.000000 0.000000 0.000000 

-0.000000 0.000000 0.000000 
0.000000 -0.000000 0.000000 
0.000000 0.000000 0.000000 

-0.000000 -0.000000 0.000000 
0.000000 -0.000000 0.000000 
0.000000 0.000000 0.000000 

-0.000000 -0.000000 0.000000 
0.000000 -0.000000 0.000000 
0.000000 0.000000 0.000000 

-0.000000 0.000000 0.000000 
0.000000 -0.000000 0.000000 
0.000000 0.000000 0.000000 

