# vtk DataFile Version 3.0 
vtk output 
ASCII 
DATASET UNSTRUCTURED_GRID 
POINTS 175 float 
-0.026061 0.046126 0.000000 
-0.106992 0.114182 0.000000 
-0.054870 0.105949 0.000000 
-0.028809 0.151833 0.000000 
-0.186430 0.178257 0.000000 
-0.137056 0.175731 0.000000 
-0.114311 0.229379 0.000000 
-0.058186 0.213713 0.000000 
-0.029377 0.253890 0.000000 
-0.265318 0.241413 0.000000 
-0.217198 0.240613 0.000000 
-0.196633 0.297910 0.000000 
-0.143120 0.289201 0.000000 
-0.116563 0.336470 0.000000 
-0.058945 0.316824 0.000000 
-0.029568 0.354944 0.000000 
-0.344206 0.304569 0.000000 
-0.296791 0.304576 0.000000 
-0.278030 0.364519 0.000000 
-0.225992 0.358653 0.000000 
-0.201664 0.410770 0.000000 
-0.145749 0.397296 0.000000 
-0.117890 0.441638 0.000000 
-0.059328 0.418932 0.000000 
-0.029759 0.455998 0.000000 
-0.058559 0.005376 0.000000 
-0.162226 -0.015467 0.000000 
-0.123292 0.020151 0.000000 
-0.142917 0.069134 0.000000 
-0.261851 -0.037623 0.000000 
-0.229092 -0.000596 0.000000 
-0.256854 0.050635 0.000000 
-0.209613 0.084748 0.000000 
-0.223062 0.132322 0.000000 
-0.360414 -0.059923 0.000000 
-0.329787 -0.022801 0.000000 
-0.361761 0.029001 0.000000 
-0.321587 0.065410 0.000000 
-0.341985 0.115644 0.000000 
-0.290702 0.148443 0.000000 
-0.302189 0.195178 0.000000 
-0.458977 -0.082224 0.000000 
-0.429420 -0.045149 0.000000 
-0.464588 0.006893 0.000000 
-0.427556 0.043920 0.000000 
-0.453135 0.095435 0.000000 
-0.407738 0.130750 0.000000 
-0.425037 0.180178 0.000000 
-0.370772 0.211808 0.000000 
-0.381315 0.258035 0.000000 
-0.046960 -0.045440 0.000000 
-0.095301 -0.139485 0.000000 
-0.098873 -0.086838 0.000000 
-0.149405 -0.071641 0.000000 
-0.140093 -0.231189 0.000000 
-0.148617 -0.182491 0.000000 
-0.205981 -0.172254 0.000000 
-0.203197 -0.114051 0.000000 
-0.248777 -0.094904 0.000000 
-0.184111 -0.322153 0.000000 
-0.194039 -0.275062 0.000000 
-0.254475 -0.267762 0.000000 
-0.257893 -0.213653 0.000000 
-0.309886 -0.198280 0.000000 
-0.303554 -0.137735 0.000000 
-0.347255 -0.117577 0.000000 
-0.228129 -0.413117 0.000000 
-0.238687 -0.366892 0.000000 
-0.301302 -0.361940 0.000000 
-0.307162 -0.309901 0.000000 
-0.363386 -0.297780 0.000000 
-0.362692 -0.240269 0.000000 
-0.412122 -0.222976 0.000000 
-0.403017 -0.160829 0.000000 
-0.445733 -0.140250 0.000000 
-0.000000 -0.068054 0.000000 
0.043388 -0.164485 0.000000 
-0.000000 -0.134453 0.000000 
-0.043388 -0.164485 0.000000 
0.087158 -0.256682 0.000000 
0.043769 -0.232983 0.000000 
-0.000000 -0.271449 0.000000 
-0.043769 -0.232983 0.000000 
-0.087158 -0.256682 0.000000 
0.130831 -0.347811 0.000000 
0.087824 -0.326213 0.000000 
0.044436 -0.368912 0.000000 
-0.000000 -0.337847 0.000000 
-0.044436 -0.368912 0.000000 
-0.087824 -0.326213 0.000000 
-0.130831 -0.347811 0.000000 
0.174505 -0.438941 0.000000 
0.131782 -0.418375 0.000000 
0.088871 -0.464242 0.000000 
0.044532 -0.436378 0.000000 
-0.000000 -0.472778 0.000000 
-0.044532 -0.436378 0.000000 
-0.088871 -0.464242 0.000000 
-0.131782 -0.418375 0.000000 
-0.174505 -0.438941 0.000000 
0.046960 -0.045440 0.000000 
0.149405 -0.071641 0.000000 
0.098873 -0.086838 0.000000 
0.095301 -0.139485 0.000000 
0.248777 -0.094904 0.000000 
0.203197 -0.114051 0.000000 
0.205981 -0.172254 0.000000 
0.148617 -0.182491 0.000000 
0.140093 -0.231189 0.000000 
0.347255 -0.117577 0.000000 
0.303554 -0.137735 0.000000 
0.309886 -0.198280 0.000000 
0.257893 -0.213653 0.000000 
0.254475 -0.267762 0.000000 
0.194039 -0.275062 0.000000 
0.184111 -0.322153 0.000000 
0.445733 -0.140250 0.000000 
0.403017 -0.160829 0.000000 
0.412122 -0.222976 0.000000 
0.362692 -0.240269 0.000000 
0.363386 -0.297780 0.000000 
0.307162 -0.309901 0.000000 
0.301302 -0.361940 0.000000 
0.238687 -0.366892 0.000000 
0.228129 -0.413117 0.000000 
0.058559 0.005376 0.000000 
0.142917 0.069134 0.000000 
0.123292 0.020151 0.000000 
0.162226 -0.015467 0.000000 
0.223062 0.132322 0.000000 
0.209613 0.084748 0.000000 
0.256854 0.050635 0.000000 
0.229092 -0.000596 0.000000 
0.261851 -0.037623 0.000000 
0.302189 0.195178 0.000000 
0.290702 0.148443 0.000000 
0.341985 0.115644 0.000000 
0.321587 0.065410 0.000000 
0.361761 0.029001 0.000000 
0.329787 -0.022801 0.000000 
0.360414 -0.059923 0.000000 
0.381315 0.258035 0.000000 
0.370772 0.211808 0.000000 
0.425037 0.180178 0.000000 
0.407738 0.130750 0.000000 
0.453135 0.095435 0.000000 
0.427556 0.043920 0.000000 
0.464588 0.006893 0.000000 
0.429420 -0.045149 0.000000 
0.458977 -0.082224 0.000000 
0.026061 0.046126 0.000000 
0.028809 0.151833 0.000000 
0.054870 0.105949 0.000000 
0.106992 0.114182 0.000000 
0.029377 0.253890 0.000000 
0.058186 0.213713 0.000000 
0.114311 0.229379 0.000000 
0.137056 0.175731 0.000000 
0.186430 0.178257 0.000000 
0.029568 0.354944 0.000000 
0.058945 0.316824 0.000000 
0.116563 0.336470 0.000000 
0.143120 0.289201 0.000000 
0.196633 0.297910 0.000000 
0.217198 0.240613 0.000000 
0.265318 0.241413 0.000000 
0.029759 0.455998 0.000000 
0.059328 0.418932 0.000000 
0.117890 0.441638 0.000000 
0.145749 0.397296 0.000000 
0.201664 0.410770 0.000000 
0.225992 0.358653 0.000000 
0.278030 0.364519 0.000000 
0.296791 0.304576 0.000000 
0.344206 0.304569 0.000000 
CELLS 175 350 
1 0 
1 1 
1 2 
1 3 
1 4 
1 5 
1 6 
1 7 
1 8 
1 9 
1 10 
1 11 
1 12 
1 13 
1 14 
1 15 
1 16 
1 17 
1 18 
1 19 
1 20 
1 21 
1 22 
1 23 
1 24 
1 25 
1 26 
1 27 
1 28 
1 29 
1 30 
1 31 
1 32 
1 33 
1 34 
1 35 
1 36 
1 37 
1 38 
1 39 
1 40 
1 41 
1 42 
1 43 
1 44 
1 45 
1 46 
1 47 
1 48 
1 49 
1 50 
1 51 
1 52 
1 53 
1 54 
1 55 
1 56 
1 57 
1 58 
1 59 
1 60 
1 61 
1 62 
1 63 
1 64 
1 65 
1 66 
1 67 
1 68 
1 69 
1 70 
1 71 
1 72 
1 73 
1 74 
1 75 
1 76 
1 77 
1 78 
1 79 
1 80 
1 81 
1 82 
1 83 
1 84 
1 85 
1 86 
1 87 
1 88 
1 89 
1 90 
1 91 
1 92 
1 93 
1 94 
1 95 
1 96 
1 97 
1 98 
1 99 
1 100 
1 101 
1 102 
1 103 
1 104 
1 105 
1 106 
1 107 
1 108 
1 109 
1 110 
1 111 
1 112 
1 113 
1 114 
1 115 
1 116 
1 117 
1 118 
1 119 
1 120 
1 121 
1 122 
1 123 
1 124 
1 125 
1 126 
1 127 
1 128 
1 129 
1 130 
1 131 
1 132 
1 133 
1 134 
1 135 
1 136 
1 137 
1 138 
1 139 
1 140 
1 141 
1 142 
1 143 
1 144 
1 145 
1 146 
1 147 
1 148 
1 149 
1 150 
1 151 
1 152 
1 153 
1 154 
1 155 
1 156 
1 157 
1 158 
1 159 
1 160 
1 161 
1 162 
1 163 
1 164 
1 165 
1 166 
1 167 
1 168 
1 169 
1 170 
1 171 
1 172 
1 173 
1 174 
CELL_TYPES 175 
1 
1 
1 
1 
1 
1 
1 
1 
1 
1 
1 
1 
1 
1 
1 
1 
1 
1 
1 
1 
1 
1 
1 
1 
1 
1 
1 
1 
1 
1 
1 
1 
1 
1 
1 
1 
1 
1 
1 
1 
1 
1 
1 
1 
1 
1 
1 
1 
1 
1 
1 
1 
1 
1 
1 
1 
1 
1 
1 
1 
1 
1 
1 
1 
1 
1 
1 
1 
1 
1 
1 
1 
1 
1 
1 
1 
1 
1 
1 
1 
1 
1 
1 
1 
1 
1 
1 
1 
1 
1 
1 
1 
1 
1 
1 
1 
1 
1 
1 
1 
1 
1 
1 
1 
1 
1 
1 
1 
1 
1 
1 
1 
1 
1 
1 
1 
1 
1 
1 
1 
1 
1 
1 
1 
1 
1 
1 
1 
1 
1 
1 
1 
1 
1 
1 
1 
1 
1 
1 
1 
1 
1 
1 
1 
1 
1 
1 
1 
1 
1 
1 
1 
1 
1 
1 
1 
1 
1 
1 
1 
1 
1 
1 
1 
1 
1 
1 
1 
1 
1 
1 
1 
1 
1 
1 
POINT_DATA 175 
VECTORS X_GC float 
-0.026061 0.046126 0.000000 
-0.106992 0.114182 0.000000 
-0.054870 0.105949 0.000000 
-0.028809 0.151833 0.000000 
-0.186430 0.178257 0.000000 
-0.137056 0.175731 0.000000 
-0.114311 0.229379 0.000000 
-0.058186 0.213713 0.000000 
-0.029377 0.253890 0.000000 
-0.265318 0.241413 0.000000 
-0.217198 0.240613 0.000000 
-0.196633 0.297910 0.000000 
-0.143120 0.289201 0.000000 
-0.116563 0.336470 0.000000 
-0.058945 0.316824 0.000000 
-0.029568 0.354944 0.000000 
-0.344206 0.304569 0.000000 
-0.296791 0.304576 0.000000 
-0.278030 0.364519 0.000000 
-0.225992 0.358653 0.000000 
-0.201664 0.410770 0.000000 
-0.145749 0.397296 0.000000 
-0.117890 0.441638 0.000000 
-0.059328 0.418932 0.000000 
-0.029759 0.455998 0.000000 
-0.058559 0.005376 0.000000 
-0.162226 -0.015467 0.000000 
-0.123292 0.020151 0.000000 
-0.142917 0.069134 0.000000 
-0.261851 -0.037623 0.000000 
-0.229092 -0.000596 0.000000 
-0.256854 0.050635 0.000000 
-0.209613 0.084748 0.000000 
-0.223062 0.132322 0.000000 
-0.360414 -0.059923 0.000000 
-0.329787 -0.022801 0.000000 
-0.361761 0.029001 0.000000 
-0.321587 0.065410 0.000000 
-0.341985 0.115644 0.000000 
-0.290702 0.148443 0.000000 
-0.302189 0.195178 0.000000 
-0.458977 -0.082224 0.000000 
-0.429420 -0.045149 0.000000 
-0.464588 0.006893 0.000000 
-0.427556 0.043920 0.000000 
-0.453135 0.095435 0.000000 
-0.407738 0.130750 0.000000 
-0.425037 0.180178 0.000000 
-0.370772 0.211808 0.000000 
-0.381315 0.258035 0.000000 
-0.046960 -0.045440 0.000000 
-0.095301 -0.139485 0.000000 
-0.098873 -0.086838 0.000000 
-0.149405 -0.071641 0.000000 
-0.140093 -0.231189 0.000000 
-0.148617 -0.182491 0.000000 
-0.205981 -0.172254 0.000000 
-0.203197 -0.114051 0.000000 
-0.248777 -0.094904 0.000000 
-0.184111 -0.322153 0.000000 
-0.194039 -0.275062 0.000000 
-0.254475 -0.267762 0.000000 
-0.257893 -0.213653 0.000000 
-0.309886 -0.198280 0.000000 
-0.303554 -0.137735 0.000000 
-0.347255 -0.117577 0.000000 
-0.228129 -0.413117 0.000000 
-0.238687 -0.366892 0.000000 
-0.301302 -0.361940 0.000000 
-0.307162 -0.309901 0.000000 
-0.363386 -0.297780 0.000000 
-0.362692 -0.240269 0.000000 
-0.412122 -0.222976 0.000000 
-0.403017 -0.160829 0.000000 
-0.445733 -0.140250 0.000000 
-0.000000 -0.068054 0.000000 
0.043388 -0.164485 0.000000 
-0.000000 -0.134453 0.000000 
-0.043388 -0.164485 0.000000 
0.087158 -0.256682 0.000000 
0.043769 -0.232983 0.000000 
-0.000000 -0.271449 0.000000 
-0.043769 -0.232983 0.000000 
-0.087158 -0.256682 0.000000 
0.130831 -0.347811 0.000000 
0.087824 -0.326213 0.000000 
0.044436 -0.368912 0.000000 
-0.000000 -0.337847 0.000000 
-0.044436 -0.368912 0.000000 
-0.087824 -0.326213 0.000000 
-0.130831 -0.347811 0.000000 
0.174505 -0.438941 0.000000 
0.131782 -0.418375 0.000000 
0.088871 -0.464242 0.000000 
0.044532 -0.436378 0.000000 
-0.000000 -0.472778 0.000000 
-0.044532 -0.436378 0.000000 
-0.088871 -0.464242 0.000000 
-0.131782 -0.418375 0.000000 
-0.174505 -0.438941 0.000000 
0.046960 -0.045440 0.000000 
0.149405 -0.071641 0.000000 
0.098873 -0.086838 0.000000 
0.095301 -0.139485 0.000000 
0.248777 -0.094904 0.000000 
0.203197 -0.114051 0.000000 
0.205981 -0.172254 0.000000 
0.148617 -0.182491 0.000000 
0.140093 -0.231189 0.000000 
0.347255 -0.117577 0.000000 
0.303554 -0.137735 0.000000 
0.309886 -0.198280 0.000000 
0.257893 -0.213653 0.000000 
0.254475 -0.267762 0.000000 
0.194039 -0.275062 0.000000 
0.184111 -0.322153 0.000000 
0.445733 -0.140250 0.000000 
0.403017 -0.160829 0.000000 
0.412122 -0.222976 0.000000 
0.362692 -0.240269 0.000000 
0.363386 -0.297780 0.000000 
0.307162 -0.309901 0.000000 
0.301302 -0.361940 0.000000 
0.238687 -0.366892 0.000000 
0.228129 -0.413117 0.000000 
0.058559 0.005376 0.000000 
0.142917 0.069134 0.000000 
0.123292 0.020151 0.000000 
0.162226 -0.015467 0.000000 
0.223062 0.132322 0.000000 
0.209613 0.084748 0.000000 
0.256854 0.050635 0.000000 
0.229092 -0.000596 0.000000 
0.261851 -0.037623 0.000000 
0.302189 0.195178 0.000000 
0.290702 0.148443 0.000000 
0.341985 0.115644 0.000000 
0.321587 0.065410 0.000000 
0.361761 0.029001 0.000000 
0.329787 -0.022801 0.000000 
0.360414 -0.059923 0.000000 
0.381315 0.258035 0.000000 
0.370772 0.211808 0.000000 
0.425037 0.180178 0.000000 
0.407738 0.130750 0.000000 
0.453135 0.095435 0.000000 
0.427556 0.043920 0.000000 
0.464588 0.006893 0.000000 
0.429420 -0.045149 0.000000 
0.458977 -0.082224 0.000000 
0.026061 0.046126 0.000000 
0.028809 0.151833 0.000000 
0.054870 0.105949 0.000000 
0.106992 0.114182 0.000000 
0.029377 0.253890 0.000000 
0.058186 0.213713 0.000000 
0.114311 0.229379 0.000000 
0.137056 0.175731 0.000000 
0.186430 0.178257 0.000000 
0.029568 0.354944 0.000000 
0.058945 0.316824 0.000000 
0.116563 0.336470 0.000000 
0.143120 0.289201 0.000000 
0.196633 0.297910 0.000000 
0.217198 0.240613 0.000000 
0.265318 0.241413 0.000000 
0.029759 0.455998 0.000000 
0.059328 0.418932 0.000000 
0.117890 0.441638 0.000000 
0.145749 0.397296 0.000000 
0.201664 0.410770 0.000000 
0.225992 0.358653 0.000000 
0.278030 0.364519 0.000000 
0.296791 0.304576 0.000000 
0.344206 0.304569 0.000000 
VECTORS X_EC float 
0.338794 -0.122707 0.000000 
-0.609100 0.958545 0.000000 
0.713312 -0.930315 0.000000 
0.374519 0.450256 0.000000 
0.423588 0.093525 0.000000 
-0.218274 0.127629 0.000000 
-0.513962 -0.596610 0.000000 
0.756418 -0.385124 0.000000 
0.381900 -0.927516 0.000000 
-0.550868 -0.759078 0.000000 
0.823577 -0.748282 0.000000 
0.556234 0.478214 0.000000 
-0.139443 0.595782 0.000000 
-0.484677 -0.042342 0.000000 
0.766286 0.222873 0.000000 
0.384386 -0.291747 0.000000 
0.474677 0.388319 0.000000 
-0.141715 0.388223 0.000000 
-0.385608 -0.421005 0.000000 
0.937896 -0.341810 0.000000 
0.621631 0.954610 0.000000 
-0.105264 -0.863491 0.000000 
-0.467428 0.537883 0.000000 
0.771260 0.844411 0.000000 
0.386873 0.344022 0.000000 
0.761262 0.427428 0.000000 
0.108942 0.708804 0.000000 
-0.397202 0.227965 0.000000 
-0.142083 -0.433310 0.000000 
-0.595936 -0.992085 0.000000 
0.978194 0.508049 0.000000 
-0.660903 -0.183576 0.000000 
0.724964 -0.644096 0.000000 
0.899809 0.713655 0.000000 
0.685384 -0.691033 0.000000 
0.287229 0.807809 0.000000 
0.702895 0.108480 0.000000 
0.180633 -0.383039 0.000000 
0.445811 0.938802 0.000000 
-0.220880 0.496016 0.000000 
-0.071546 -0.134910 0.000000 
-0.033296 -0.389981 0.000000 
-0.417537 -0.890490 0.000000 
0.039645 0.406947 0.000000 
-0.441768 -0.092924 0.000000 
-0.109248 -0.788375 0.000000 
-0.699407 0.734870 0.000000 
-0.474522 0.067590 0.000000 
0.820030 -0.359403 0.000000 
0.957100 -0.983475 0.000000 
0.610485 -0.886566 0.000000 
-0.761092 0.383053 0.000000 
-0.714655 -0.327684 0.000000 
-0.057734 -0.532851 0.000000 
-0.178789 -0.378942 0.000000 
-0.067979 0.963631 0.000000 
0.677748 0.825428 0.000000 
0.641556 0.039683 0.000000 
-0.765897 -0.218796 0.000000 
0.393446 0.849067 0.000000 
0.522510 0.213337 0.000000 
-0.691820 0.114792 0.000000 
-0.647393 -0.615690 0.000000 
0.028512 -0.823217 0.000000 
-0.053800 0.359423 0.000000 
0.514316 0.087292 0.000000 
0.965681 0.077076 0.000000 
-0.897068 -0.546953 0.000000 
-0.083078 -0.613806 0.000000 
-0.006893 0.683669 0.000000 
0.724017 0.520036 0.000000 
0.714996 -0.256367 0.000000 
-0.642413 -0.489824 0.000000 
-0.760780 0.671195 0.000000 
-0.205471 0.393380 0.000000 
0.000000 -0.581264 0.000000 
-0.564049 0.720548 0.000000 
0.000000 0.315112 0.000000 
0.564049 0.720548 0.000000 
0.866949 -0.034796 0.000000 
-0.569003 -0.354727 0.000000 
0.000000 0.164561 0.000000 
0.569003 -0.354727 0.000000 
-0.866949 -0.034796 0.000000 
0.299194 -0.804546 0.000000 
0.858290 0.903870 0.000000 
-0.577662 -0.519684 0.000000 
0.000000 -0.939062 0.000000 
0.577662 -0.519684 0.000000 
-0.858290 0.903870 0.000000 
-0.299194 -0.804546 0.000000 
-0.268560 0.425704 0.000000 
0.286830 0.148062 0.000000 
0.844677 0.767260 0.000000 
-0.578910 0.391098 0.000000 
0.000000 0.882502 0.000000 
0.578910 0.391098 0.000000 
-0.844677 0.767260 0.000000 
-0.286830 0.148062 0.000000 
0.268560 0.425704 0.000000 
-0.610485 -0.886566 0.000000 
0.057734 -0.532851 0.000000 
0.714655 -0.327684 0.000000 
0.761092 0.383053 0.000000 
0.765897 -0.218796 0.000000 
-0.641556 0.039683 0.000000 
-0.677748 0.825428 0.000000 
0.067979 0.963631 0.000000 
0.178789 -0.378942 0.000000 
-0.514316 0.087292 0.000000 
0.053800 0.359423 0.000000 
-0.028512 -0.823217 0.000000 
0.647393 -0.615690 0.000000 
0.691820 0.114792 0.000000 
-0.522510 0.213337 0.000000 
-0.393446 0.849067 0.000000 
0.205471 0.393380 0.000000 
0.760780 0.671195 0.000000 
0.642413 -0.489824 0.000000 
-0.714996 -0.256367 0.000000 
-0.724017 0.520036 0.000000 
0.006894 0.683669 0.000000 
0.083078 -0.613806 0.000000 
0.897068 -0.546953 0.000000 
-0.965681 0.077076 0.000000 
-0.761262 0.427428 0.000000 
0.142083 -0.433310 0.000000 
0.397202 0.227965 0.000000 
-0.108942 0.708804 0.000000 
-0.899809 0.713655 0.000000 
-0.724964 -0.644096 0.000000 
0.660903 -0.183576 0.000000 
-0.978194 0.508049 0.000000 
0.595936 -0.992085 0.000000 
0.071546 -0.134910 0.000000 
0.220880 0.496016 0.000000 
-0.445811 0.938802 0.000000 
-0.180633 -0.383039 0.000000 
-0.702895 0.108480 0.000000 
-0.287229 0.807809 0.000000 
-0.685384 -0.691033 0.000000 
-0.957100 -0.983475 0.000000 
-0.820030 -0.359403 0.000000 
0.474522 0.067590 0.000000 
0.699407 0.734870 0.000000 
0.109248 -0.788375 0.000000 
0.441768 -0.092924 0.000000 
-0.039645 0.406947 0.000000 
0.417537 -0.890490 0.000000 
0.033296 -0.389981 0.000000 
-0.338794 -0.122707 0.000000 
-0.374519 0.450256 0.000000 
-0.713312 -0.930315 0.000000 
0.609100 0.958545 0.000000 
-0.381900 -0.927516 0.000000 
-0.756418 -0.385124 0.000000 
0.513962 -0.596610 0.000000 
0.218274 0.127629 0.000000 
-0.423588 0.093525 0.000000 
-0.384386 -0.291747 0.000000 
-0.766286 0.222873 0.000000 
0.484677 -0.042342 0.000000 
0.139443 0.595782 0.000000 
-0.556234 0.478214 0.000000 
-0.823577 -0.748282 0.000000 
0.550868 -0.759078 0.000000 
-0.386873 0.344022 0.000000 
-0.771260 0.844411 0.000000 
0.467428 0.537883 0.000000 
0.105264 -0.863491 0.000000 
-0.621631 0.954610 0.000000 
-0.937896 -0.341810 0.000000 
0.385608 -0.421005 0.000000 
0.141715 0.388223 0.000000 
-0.474677 0.388319 0.000000 
CELL_DATA 175 
SCALARS MASS float 
LOOKUP_TABLE default 
0.078183 
0.086427 
0.094672 
0.086427 
0.088131 
0.092111 
0.085854 
0.092111 
0.088131 
0.088705 
0.091000 
0.086983 
0.091556 
0.086983 
0.091000 
0.088705 
0.089278 
0.091574 
0.089278 
0.092722 
0.089278 
0.092722 
0.089278 
0.091574 
0.089278 
0.078183 
0.086427 
0.094672 
0.086427 
0.088131 
0.092111 
0.085854 
0.092111 
0.088131 
0.088705 
0.091000 
0.086983 
0.091556 
0.086983 
0.091000 
0.088705 
0.089278 
0.091574 
0.089278 
0.092722 
0.089278 
0.092722 
0.089278 
0.091574 
0.089278 
0.078183 
0.086427 
0.094672 
0.086427 
0.088131 
0.092111 
0.085854 
0.092111 
0.088131 
0.088705 
0.091000 
0.086983 
0.091556 
0.086983 
0.091000 
0.088705 
0.089278 
0.091574 
0.089278 
0.092722 
0.089278 
0.092722 
0.089278 
0.091574 
0.089278 
0.078183 
0.086427 
0.094672 
0.086427 
0.088131 
0.092111 
0.085854 
0.092111 
0.088131 
0.088705 
0.091000 
0.086983 
0.091556 
0.086983 
0.091000 
0.088705 
0.089278 
0.091574 
0.089278 
0.092722 
0.089278 
0.092722 
0.089278 
0.091574 
0.089278 
0.078183 
0.086427 
0.094672 
0.086427 
0.088131 
0.092111 
0.085854 
0.092111 
0.088131 
0.088705 
0.091000 
0.086983 
0.091556 
0.086983 
0.091000 
0.088705 
0.089278 
0.091574 
0.089278 
0.092722 
0.089278 
0.092722 
0.089278 
0.091574 
0.089278 
0.078183 
0.086427 
0.094672 
0.086427 
0.088131 
0.092111 
0.085854 
0.092111 
0.088131 
0.088705 
0.091000 
0.086983 
0.091556 
0.086983 
0.091000 
0.088705 
0.089278 
0.091574 
0.089278 
0.092722 
0.089278 
0.092722 
0.089278 
0.091574 
0.089278 
0.078183 
0.086427 
0.094672 
0.086427 
0.088131 
0.092111 
0.085854 
0.092111 
0.088131 
0.088705 
0.091000 
0.086983 
0.091556 
0.086983 
0.091000 
0.088705 
0.089278 
0.091574 
0.089278 
0.092722 
0.089278 
0.092722 
0.089278 
0.091574 
0.089278 
SCALARS MASS float 
LOOKUP_TABLE default 
0.078183 
0.086427 
0.094672 
0.086427 
0.088131 
0.092111 
0.085854 
0.092111 
0.088131 
0.088705 
0.091000 
0.086983 
0.091556 
0.086983 
0.091000 
0.088705 
0.089278 
0.091574 
0.089278 
0.092722 
0.089278 
0.092722 
0.089278 
0.091574 
0.089278 
0.078183 
0.086427 
0.094672 
0.086427 
0.088131 
0.092111 
0.085854 
0.092111 
0.088131 
0.088705 
0.091000 
0.086983 
0.091556 
0.086983 
0.091000 
0.088705 
0.089278 
0.091574 
0.089278 
0.092722 
0.089278 
0.092722 
0.089278 
0.091574 
0.089278 
0.078183 
0.086427 
0.094672 
0.086427 
0.088131 
0.092111 
0.085854 
0.092111 
0.088131 
0.088705 
0.091000 
0.086983 
0.091556 
0.086983 
0.091000 
0.088705 
0.089278 
0.091574 
0.089278 
0.092722 
0.089278 
0.092722 
0.089278 
0.091574 
0.089278 
0.078183 
0.086427 
0.094672 
0.086427 
0.088131 
0.092111 
0.085854 
0.092111 
0.088131 
0.088705 
0.091000 
0.086983 
0.091556 
0.086983 
0.091000 
0.088705 
0.089278 
0.091574 
0.089278 
0.092722 
0.089278 
0.092722 
0.089278 
0.091574 
0.089278 
0.078183 
0.086427 
0.094672 
0.086427 
0.088131 
0.092111 
0.085854 
0.092111 
0.088131 
0.088705 
0.091000 
0.086983 
0.091556 
0.086983 
0.091000 
0.088705 
0.089278 
0.091574 
0.089278 
0.092722 
0.089278 
0.092722 
0.089278 
0.091574 
0.089278 
0.078183 
0.086427 
0.094672 
0.086427 
0.088131 
0.092111 
0.085854 
0.092111 
0.088131 
0.088705 
0.091000 
0.086983 
0.091556 
0.086983 
0.091000 
0.088705 
0.089278 
0.091574 
0.089278 
0.092722 
0.089278 
0.092722 
0.089278 
0.091574 
0.089278 
0.078183 
0.086427 
0.094672 
0.086427 
0.088131 
0.092111 
0.085854 
0.092111 
0.088131 
0.088705 
0.091000 
0.086983 
0.091556 
0.086983 
0.091000 
0.088705 
0.089278 
0.091574 
0.089278 
0.092722 
0.089278 
0.092722 
0.089278 
0.091574 
0.089278 
SCALARS DENSITY float 
LOOKUP_TABLE default 
20.000000 
20.000000 
20.000000 
20.000000 
20.000000 
20.000000 
20.000000 
20.000000 
20.000000 
20.000000 
20.000000 
20.000000 
20.000000 
20.000000 
20.000000 
20.000000 
20.000000 
20.000000 
20.000000 
20.000000 
20.000000 
20.000000 
20.000000 
20.000000 
20.000000 
20.000000 
20.000000 
20.000000 
20.000000 
20.000000 
20.000000 
20.000000 
20.000000 
20.000000 
20.000000 
20.000000 
20.000000 
20.000000 
20.000000 
20.000000 
20.000000 
20.000000 
20.000000 
20.000000 
20.000000 
20.000000 
20.000000 
20.000000 
20.000000 
20.000000 
20.000000 
20.000000 
20.000000 
20.000000 
20.000000 
20.000000 
20.000000 
20.000000 
20.000000 
20.000000 
20.000000 
20.000000 
20.000000 
20.000000 
20.000000 
20.000000 
20.000000 
20.000000 
20.000000 
20.000000 
20.000000 
20.000000 
20.000000 
20.000000 
20.000000 
20.000000 
20.000000 
20.000000 
20.000000 
20.000000 
20.000000 
20.000000 
20.000000 
20.000000 
20.000000 
20.000000 
20.000000 
20.000000 
20.000000 
20.000000 
20.000000 
20.000000 
20.000000 
20.000000 
20.000000 
20.000000 
20.000000 
20.000000 
20.000000 
20.000000 
20.000000 
20.000000 
20.000000 
20.000000 
20.000000 
20.000000 
20.000000 
20.000000 
20.000000 
20.000000 
20.000000 
20.000000 
20.000000 
20.000000 
20.000000 
20.000000 
20.000000 
20.000000 
20.000000 
20.000000 
20.000000 
20.000000 
20.000000 
20.000000 
20.000000 
20.000000 
20.000000 
20.000000 
20.000000 
20.000000 
20.000000 
20.000000 
20.000000 
20.000000 
20.000000 
20.000000 
20.000000 
20.000000 
20.000000 
20.000000 
20.000000 
20.000000 
20.000000 
20.000000 
20.000000 
20.000000 
20.000000 
20.000000 
20.000000 
20.000000 
20.000000 
20.000000 
20.000000 
20.000000 
20.000000 
20.000000 
20.000000 
20.000000 
20.000000 
20.000000 
20.000000 
20.000000 
20.000000 
20.000000 
20.000000 
20.000000 
20.000000 
20.000000 
20.000000 
20.000000 
20.000000 
20.000000 
20.000000 
20.000000 
20.000000 
SCALARS ELEM_i float 
LOOKUP_TABLE default 
182 
210 
182 
183 
210 
210 
210 
183 
183 
237 
210 
211 
211 
211 
184 
184 
238 
238 
238 
211 
212 
211 
212 
185 
185 
182 
209 
209 
209 
235 
209 
236 
209 
210 
235 
236 
236 
236 
237 
237 
237 
262 
262 
263 
263 
263 
264 
264 
237 
237 
181 
208 
208 
208 
207 
208 
208 
208 
235 
207 
207 
234 
234 
234 
235 
235 
206 
233 
233 
234 
234 
234 
261 
262 
262 
181 
181 
181 
181 
153 
180 
180 
180 
207 
152 
153 
179 
179 
179 
207 
206 
152 
152 
152 
179 
179 
179 
206 
206 
206 
181 
154 
154 
154 
127 
154 
154 
154 
153 
127 
127 
126 
126 
126 
153 
153 
100 
100 
99 
126 
126 
126 
125 
125 
152 
182 
155 
155 
155 
156 
155 
128 
155 
127 
129 
129 
129 
128 
128 
128 
127 
129 
129 
102 
102 
101 
101 
101 
100 
100 
182 
183 
182 
156 
183 
183 
156 
156 
156 
184 
184 
157 
157 
157 
156 
129 
185 
185 
158 
157 
158 
157 
130 
130 
130 
VECTORS VELOCITY float 
0.000000 -0.395539 0.000000 
-0.000000 -0.395539 0.000000 
-0.000000 -0.395539 0.000000 
-0.000000 -0.395539 0.000000 
0.000000 -0.395539 0.000000 
-0.000000 -0.395539 0.000000 
-0.000000 -0.395539 0.000000 
-0.000000 -0.395539 0.000000 
-0.000000 -0.395539 0.000000 
0.000000 -0.395539 0.000000 
0.000000 -0.395539 0.000000 
0.000000 -0.395539 0.000000 
0.000000 -0.395539 0.000000 
-0.000000 -0.395539 0.000000 
-0.000000 -0.395539 0.000000 
-0.000000 -0.395539 0.000000 
-0.000000 -0.395539 0.000000 
-0.000000 -0.395539 0.000000 
0.000000 -0.395539 0.000000 
0.000000 -0.395539 0.000000 
-0.000000 -0.395539 0.000000 
-0.000000 -0.395539 0.000000 
0.000000 -0.395539 0.000000 
-0.000000 -0.395539 0.000000 
-0.000000 -0.395539 0.000000 
0.000000 -0.395539 0.000000 
0.000000 -0.395539 0.000000 
0.000000 -0.395539 0.000000 
-0.000000 -0.395539 0.000000 
-0.000000 -0.395539 0.000000 
-0.000000 -0.395539 0.000000 
-0.000000 -0.395539 0.000000 
-0.000000 -0.395539 0.000000 
-0.000000 -0.395539 0.000000 
-0.000000 -0.395539 0.000000 
-0.000000 -0.395539 0.000000 
-0.000000 -0.395539 0.000000 
-0.000000 -0.395539 0.000000 
-0.000000 -0.395539 0.000000 
-0.000000 -0.395539 0.000000 
-0.000000 -0.395539 0.000000 
0.000000 -0.395539 0.000000 
-0.000000 -0.395539 0.000000 
-0.000000 -0.395539 0.000000 
-0.000000 -0.395539 0.000000 
-0.000000 -0.395539 0.000000 
-0.000000 -0.395539 0.000000 
0.000000 -0.395539 0.000000 
-0.000000 -0.395539 0.000000 
-0.000000 -0.395539 0.000000 
0.000000 -0.395539 0.000000 
0.000000 -0.395539 0.000000 
0.000000 -0.395539 0.000000 
0.000000 -0.395539 0.000000 
0.000000 -0.395539 0.000000 
0.000000 -0.395539 0.000000 
0.000000 -0.395539 0.000000 
0.000000 -0.395539 0.000000 
-0.000000 -0.395539 0.000000 
0.000000 -0.395539 0.000000 
0.000000 -0.395539 0.000000 
0.000000 -0.395539 0.000000 
0.000000 -0.395539 0.000000 
0.000000 -0.395539 0.000000 
0.000000 -0.395539 0.000000 
-0.000000 -0.395539 0.000000 
0.000000 -0.395539 0.000000 
0.000000 -0.395539 0.000000 
0.000000 -0.395539 0.000000 
0.000000 -0.395539 0.000000 
0.000000 -0.395539 0.000000 
0.000000 -0.395539 0.000000 
-0.000000 -0.395539 0.000000 
0.000000 -0.395539 0.000000 
0.000000 -0.395539 0.000000 
0.000000 -0.395539 0.000000 
-0.000000 -0.395539 0.000000 
0.000000 -0.395539 0.000000 
-0.000000 -0.395539 0.000000 
-0.000000 -0.395539 0.000000 
-0.000000 -0.395539 0.000000 
-0.000000 -0.395539 0.000000 
-0.000000 -0.395539 0.000000 
-0.000000 -0.395539 0.000000 
-0.000000 -0.395539 0.000000 
-0.000000 -0.395539 0.000000 
-0.000000 -0.395539 0.000000 
-0.000000 -0.395539 0.000000 
-0.000000 -0.395539 0.000000 
-0.000000 -0.395539 0.000000 
-0.000000 -0.395539 0.000000 
0.000000 -0.395539 0.000000 
0.000000 -0.395539 0.000000 
-0.000000 -0.395539 0.000000 
-0.000000 -0.395539 0.000000 
0.000000 -0.395539 0.000000 
-0.000000 -0.395539 0.000000 
0.000000 -0.395539 0.000000 
0.000000 -0.395539 0.000000 
0.000000 -0.395539 0.000000 
0.000000 -0.395539 0.000000 
0.000000 -0.395539 0.000000 
0.000000 -0.395539 0.000000 
-0.000000 -0.395539 0.000000 
0.000000 -0.395539 0.000000 
0.000000 -0.395539 0.000000 
-0.000000 -0.395539 0.000000 
-0.000000 -0.395539 0.000000 
-0.000000 -0.395539 0.000000 
-0.000000 -0.395539 0.000000 
0.000000 -0.395539 0.000000 
0.000000 -0.395539 0.000000 
0.000000 -0.395539 0.000000 
0.000000 -0.395539 0.000000 
0.000000 -0.395539 0.000000 
0.000000 -0.395539 0.000000 
0.000000 -0.395539 0.000000 
0.000000 -0.395539 0.000000 
0.000000 -0.395539 0.000000 
0.000000 -0.395539 0.000000 
0.000000 -0.395539 0.000000 
0.000000 -0.395539 0.000000 
-0.000000 -0.395539 0.000000 
0.000000 -0.395539 0.000000 
0.000000 -0.395539 0.000000 
0.000000 -0.395539 0.000000 
-0.000000 -0.395539 0.000000 
-0.000000 -0.395539 0.000000 
0.000000 -0.395539 0.000000 
-0.000000 -0.395539 0.000000 
-0.000000 -0.395539 0.000000 
-0.000000 -0.395539 0.000000 
0.000000 -0.395539 0.000000 
0.000000 -0.395539 0.000000 
0.000000 -0.395539 0.000000 
0.000000 -0.395539 0.000000 
0.000000 -0.395539 0.000000 
0.000000 -0.395539 0.000000 
0.000000 -0.395539 0.000000 
-0.000000 -0.395539 0.000000 
-0.000000 -0.395539 0.000000 
0.000000 -0.395539 0.000000 
0.000000 -0.395539 0.000000 
-0.000000 -0.395539 0.000000 
0.000000 -0.395539 0.000000 
0.000000 -0.395539 0.000000 
0.000000 -0.395539 0.000000 
-0.000000 -0.395539 0.000000 
-0.000000 -0.395539 0.000000 
-0.000000 -0.395539 0.000000 
-0.000000 -0.395539 0.000000 
-0.000000 -0.395539 0.000000 
-0.000000 -0.395539 0.000000 
-0.000000 -0.395539 0.000000 
-0.000000 -0.395539 0.000000 
-0.000000 -0.395539 0.000000 
0.000000 -0.395539 0.000000 
-0.000000 -0.395539 0.000000 
-0.000000 -0.395539 0.000000 
-0.000000 -0.395539 0.000000 
0.000000 -0.395539 0.000000 
-0.000000 -0.395539 0.000000 
0.000000 -0.395539 0.000000 
0.000000 -0.395539 0.000000 
0.000000 -0.395539 0.000000 
0.000000 -0.395539 0.000000 
-0.000000 -0.395539 0.000000 
-0.000000 -0.395539 0.000000 
-0.000000 -0.395539 0.000000 
-0.000000 -0.395539 0.000000 
-0.000000 -0.395539 0.000000 
-0.000000 -0.395539 0.000000 
0.000000 -0.395539 0.000000 
0.000000 -0.395539 0.000000 
0.000000 -0.395539 0.000000 
TENSORS STRESS float 
0.000000 0.000000 0.000000 
0.000000 0.000000 0.000000 
0.000000 0.000000 0.000000 

-0.000000 -0.000000 0.000000 
0.000000 -0.000000 0.000000 
0.000000 0.000000 0.000000 

0.000000 0.000000 0.000000 
0.000000 0.000000 0.000000 
0.000000 0.000000 0.000000 

-0.000000 0.000000 0.000000 
0.000000 -0.000000 0.000000 
0.000000 0.000000 0.000000 

-0.000000 -0.000000 0.000000 
0.000000 0.000000 0.000000 
0.000000 0.000000 0.000000 

-0.000000 -0.000000 0.000000 
0.000000 0.000000 0.000000 
0.000000 0.000000 0.000000 

-0.000000 -0.000000 0.000000 
0.000000 -0.000000 0.000000 
0.000000 0.000000 0.000000 

0.000000 -0.000000 0.000000 
0.000000 -0.000000 0.000000 
0.000000 0.000000 0.000000 

0.000000 -0.000000 0.000000 
0.000000 -0.000000 0.000000 
0.000000 0.000000 0.000000 

-0.000000 0.000000 0.000000 
0.000000 0.000000 0.000000 
0.000000 0.000000 0.000000 

-0.000000 -0.000000 0.000000 
0.000000 0.000000 0.000000 
0.000000 0.000000 0.000000 

0.000000 -0.000000 0.000000 
0.000000 0.000000 0.000000 
0.000000 0.000000 0.000000 

-0.000000 -0.000000 0.000000 
0.000000 0.000000 0.000000 
0.000000 0.000000 0.000000 

0.000000 -0.000000 0.000000 
0.000000 0.000000 0.000000 
0.000000 0.000000 0.000000 

-0.000000 0.000000 0.000000 
0.000000 0.000000 0.000000 
0.000000 0.000000 0.000000 

-0.000000 0.000000 0.000000 
0.000000 0.000000 0.000000 
0.000000 0.000000 0.000000 

-0.000000 -0.000000 0.000000 
0.000000 0.000000 0.000000 
0.000000 0.000000 0.000000 

0.000000 -0.000000 0.000000 
0.000000 0.000000 0.000000 
0.000000 0.000000 0.000000 

0.000000 -0.000000 0.000000 
0.000000 0.000000 0.000000 
0.000000 0.000000 0.000000 

0.000000 -0.000000 0.000000 
0.000000 0.000000 0.000000 
0.000000 0.000000 0.000000 

-0.000000 0.000000 0.000000 
0.000000 -0.000000 0.000000 
0.000000 0.000000 0.000000 

0.000000 -0.000000 0.000000 
0.000000 0.000000 0.000000 
0.000000 0.000000 0.000000 

-0.000000 0.000000 0.000000 
0.000000 -0.000000 0.000000 
0.000000 0.000000 0.000000 

-0.000000 -0.000000 0.000000 
0.000000 -0.000000 0.000000 
0.000000 0.000000 0.000000 

-0.000000 -0.000000 0.000000 
0.000000 0.000000 0.000000 
0.000000 0.000000 0.000000 

0.000000 0.000000 0.000000 
0.000000 0.000000 0.000000 
0.000000 0.000000 0.000000 

-0.000000 0.000000 0.000000 
0.000000 -0.000000 0.000000 
0.000000 0.000000 0.000000 

-0.000000 0.000000 0.000000 
0.000000 -0.000000 0.000000 
0.000000 0.000000 0.000000 

-0.000000 0.000000 0.000000 
0.000000 -0.000000 0.000000 
0.000000 0.000000 0.000000 

-0.000000 0.000000 0.000000 
0.000000 -0.000000 0.000000 
0.000000 0.000000 0.000000 

-0.000000 0.000000 0.000000 
0.000000 -0.000000 0.000000 
0.000000 0.000000 0.000000 

-0.000000 0.000000 0.000000 
0.000000 -0.000000 0.000000 
0.000000 0.000000 0.000000 

-0.000000 0.000000 0.000000 
0.000000 -0.000000 0.000000 
0.000000 0.000000 0.000000 

-0.000000 -0.000000 0.000000 
0.000000 0.000000 0.000000 
0.000000 0.000000 0.000000 

0.000000 0.000000 0.000000 
0.000000 0.000000 0.000000 
0.000000 0.000000 0.000000 

-0.000000 0.000000 0.000000 
0.000000 -0.000000 0.000000 
0.000000 0.000000 0.000000 

-0.000000 0.000000 0.000000 
0.000000 0.000000 0.000000 
0.000000 0.000000 0.000000 

-0.000000 0.000000 0.000000 
0.000000 -0.000000 0.000000 
0.000000 0.000000 0.000000 

-0.000000 -0.000000 0.000000 
0.000000 -0.000000 0.000000 
0.000000 0.000000 0.000000 

0.000000 -0.000000 0.000000 
0.000000 0.000000 0.000000 
0.000000 0.000000 0.000000 

-0.000000 0.000000 0.000000 
0.000000 -0.000000 0.000000 
0.000000 0.000000 0.000000 

0.000000 0.000000 0.000000 
0.000000 -0.000000 0.000000 
0.000000 0.000000 0.000000 

0.000000 0.000000 0.000000 
0.000000 0.000000 0.000000 
0.000000 0.000000 0.000000 

0.000000 0.000000 0.000000 
0.000000 0.000000 0.000000 
0.000000 0.000000 0.000000 

0.000000 0.000000 0.000000 
0.000000 0.000000 0.000000 
0.000000 0.000000 0.000000 

0.000000 0.000000 0.000000 
0.000000 0.000000 0.000000 
0.000000 0.000000 0.000000 

-0.000000 0.000000 0.000000 
0.000000 -0.000000 0.000000 
0.000000 0.000000 0.000000 

-0.000000 0.000000 0.000000 
0.000000 -0.000000 0.000000 
0.000000 0.000000 0.000000 

-0.000000 0.000000 0.000000 
0.000000 -0.000000 0.000000 
0.000000 0.000000 0.000000 

-0.000000 -0.000000 0.000000 
0.000000 -0.000000 0.000000 
0.000000 0.000000 0.000000 

0.000000 0.000000 0.000000 
0.000000 0.000000 0.000000 
0.000000 0.000000 0.000000 

0.000000 -0.000000 0.000000 
0.000000 0.000000 0.000000 
0.000000 0.000000 0.000000 

0.000000 -0.000000 0.000000 
0.000000 0.000000 0.000000 
0.000000 0.000000 0.000000 

0.000000 -0.000000 0.000000 
0.000000 0.000000 0.000000 
0.000000 0.000000 0.000000 

-0.000000 0.000000 0.000000 
0.000000 -0.000000 0.000000 
0.000000 0.000000 0.000000 

0.000000 -0.000000 0.000000 
0.000000 0.000000 0.000000 
0.000000 0.000000 0.000000 

0.000000 -0.000000 0.000000 
0.000000 0.000000 0.000000 
0.000000 0.000000 0.000000 

0.000000 -0.000000 0.000000 
0.000000 0.000000 0.000000 
0.000000 0.000000 0.000000 

-0.000000 0.000000 0.000000 
0.000000 0.000000 0.000000 
0.000000 0.000000 0.000000 

-0.000000 0.000000 0.000000 
0.000000 -0.000000 0.000000 
0.000000 0.000000 0.000000 

0.000000 0.000000 0.000000 
0.000000 0.000000 0.000000 
0.000000 0.000000 0.000000 

0.000000 0.000000 0.000000 
0.000000 0.000000 0.000000 
0.000000 0.000000 0.000000 

-0.000000 0.000000 0.000000 
0.000000 -0.000000 0.000000 
0.000000 0.000000 0.000000 

-0.000000 0.000000 0.000000 
0.000000 -0.000000 0.000000 
0.000000 0.000000 0.000000 

-0.000000 0.000000 0.000000 
0.000000 0.000000 0.000000 
0.000000 0.000000 0.000000 

0.000000 0.000000 0.000000 
0.000000 0.000000 0.000000 
0.000000 0.000000 0.000000 

0.000000 -0.000000 0.000000 
0.000000 0.000000 0.000000 
0.000000 0.000000 0.000000 

0.000000 -0.000000 0.000000 
0.000000 0.000000 0.000000 
0.000000 0.000000 0.000000 

0.000000 -0.000000 0.000000 
0.000000 -0.000000 0.000000 
0.000000 0.000000 0.000000 

0.000000 0.000000 0.000000 
0.000000 -0.000000 0.000000 
0.000000 0.000000 0.000000 

-0.000000 0.000000 0.000000 
0.000000 -0.000000 0.000000 
0.000000 0.000000 0.000000 

-0.000000 0.000000 0.000000 
0.000000 -0.000000 0.000000 
0.000000 0.000000 0.000000 

-0.000000 -0.000000 0.000000 
0.000000 -0.000000 0.000000 
0.000000 0.000000 0.000000 

0.000000 -0.000000 0.000000 
0.000000 0.000000 0.000000 
0.000000 0.000000 0.000000 

0.000000 -0.000000 0.000000 
0.000000 -0.000000 0.000000 
0.000000 0.000000 0.000000 

0.000000 0.000000 0.000000 
0.000000 0.000000 0.000000 
0.000000 0.000000 0.000000 

0.000000 0.000000 0.000000 
0.000000 0.000000 0.000000 
0.000000 0.000000 0.000000 

0.000000 0.000000 0.000000 
0.000000 0.000000 0.000000 
0.000000 0.000000 0.000000 

0.000000 0.000000 0.000000 
0.000000 0.000000 0.000000 
0.000000 0.000000 0.000000 

-0.000000 0.000000 0.000000 
0.000000 -0.000000 0.000000 
0.000000 0.000000 0.000000 

0.000000 0.000000 0.000000 
0.000000 -0.000000 0.000000 
0.000000 0.000000 0.000000 

0.000000 0.000000 0.000000 
0.000000 -0.000000 0.000000 
0.000000 0.000000 0.000000 

0.000000 0.000000 0.000000 
0.000000 -0.000000 0.000000 
0.000000 0.000000 0.000000 

-0.000000 0.000000 0.000000 
0.000000 -0.000000 0.000000 
0.000000 0.000000 0.000000 

-0.000000 -0.000000 0.000000 
0.000000 -0.000000 0.000000 
0.000000 0.000000 0.000000 

0.000000 -0.000000 0.000000 
0.000000 -0.000000 0.000000 
0.000000 0.000000 0.000000 

0.000000 0.000000 0.000000 
0.000000 0.000000 0.000000 
0.000000 0.000000 0.000000 

0.000000 -0.000000 0.000000 
0.000000 0.000000 0.000000 
0.000000 0.000000 0.000000 

0.000000 -0.000000 0.000000 
0.000000 -0.000000 0.000000 
0.000000 0.000000 0.000000 

-0.000000 0.000000 0.000000 
0.000000 -0.000000 0.000000 
0.000000 0.000000 0.000000 

-0.000000 -0.000000 0.000000 
0.000000 -0.000000 0.000000 
0.000000 0.000000 0.000000 

-0.000000 0.000000 0.000000 
0.000000 -0.000000 0.000000 
0.000000 0.000000 0.000000 

0.000000 0.000000 0.000000 
0.000000 0.000000 0.000000 
0.000000 0.000000 0.000000 

-0.000000 0.000000 0.000000 
0.000000 -0.000000 0.000000 
0.000000 0.000000 0.000000 

-0.000000 0.000000 0.000000 
0.000000 -0.000000 0.000000 
0.000000 0.000000 0.000000 

-0.000000 0.000000 0.000000 
0.000000 -0.000000 0.000000 
0.000000 0.000000 0.000000 

-0.000000 0.000000 0.000000 
0.000000 -0.000000 0.000000 
0.000000 0.000000 0.000000 

0.000000 -0.000000 0.000000 
0.000000 -0.000000 0.000000 
0.000000 0.000000 0.000000 

0.000000 -0.000000 0.000000 
0.000000 -0.000000 0.000000 
0.000000 0.000000 0.000000 

0.000000 -0.000000 0.000000 
0.000000 0.000000 0.000000 
0.000000 0.000000 0.000000 

0.000000 0.000000 0.000000 
0.000000 0.000000 0.000000 
0.000000 0.000000 0.000000 

0.000000 0.000000 0.000000 
0.000000 0.000000 0.000000 
0.000000 0.000000 0.000000 

0.000000 0.000000 0.000000 
0.000000 0.000000 0.000000 
0.000000 0.000000 0.000000 

0.000000 0.000000 0.000000 
0.000000 0.000000 0.000000 
0.000000 0.000000 0.000000 

-0.000000 -0.000000 0.000000 
0.000000 -0.000000 0.000000 
0.000000 0.000000 0.000000 

0.000000 0.000000 0.000000 
0.000000 0.000000 0.000000 
0.000000 0.000000 0.000000 

0.000000 0.000000 0.000000 
0.000000 0.000000 0.000000 
0.000000 0.000000 0.000000 

0.000000 0.000000 0.000000 
0.000000 0.000000 0.000000 
0.000000 0.000000 0.000000 

0.000000 0.000000 0.000000 
0.000000 -0.000000 0.000000 
0.000000 0.000000 0.000000 

-0.000000 -0.000000 0.000000 
0.000000 -0.000000 0.000000 
0.000000 0.000000 0.000000 

-0.000000 -0.000000 0.000000 
0.000000 0.000000 0.000000 
0.000000 0.000000 0.000000 

-0.000000 -0.000000 0.000000 
0.000000 -0.000000 0.000000 
0.000000 0.000000 0.000000 

-0.000000 -0.000000 0.000000 
0.000000 0.000000 0.000000 
0.000000 0.000000 0.000000 

-0.000000 -0.000000 0.000000 
0.000000 -0.000000 0.000000 
0.000000 0.000000 0.000000 

0.000000 0.000000 0.000000 
0.000000 0.000000 0.000000 
0.000000 0.000000 0.000000 

0.000000 -0.000000 0.000000 
0.000000 0.000000 0.000000 
0.000000 0.000000 0.000000 

0.000000 -0.000000 0.000000 
0.000000 0.000000 0.000000 
0.000000 0.000000 0.000000 

0.000000 -0.000000 0.000000 
0.000000 0.000000 0.000000 
0.000000 0.000000 0.000000 

0.000000 0.000000 0.000000 
0.000000 -0.000000 0.000000 
0.000000 0.000000 0.000000 

-0.000000 -0.000000 0.000000 
0.000000 -0.000000 0.000000 
0.000000 0.000000 0.000000 

-0.000000 0.000000 0.000000 
0.000000 -0.000000 0.000000 
0.000000 0.000000 0.000000 

-0.000000 0.000000 0.000000 
0.000000 -0.000000 0.000000 
0.000000 0.000000 0.000000 

0.000000 -0.000000 0.000000 
0.000000 0.000000 0.000000 
0.000000 0.000000 0.000000 

-0.000000 -0.000000 0.000000 
0.000000 -0.000000 0.000000 
0.000000 0.000000 0.000000 

-0.000000 0.000000 0.000000 
0.000000 -0.000000 0.000000 
0.000000 0.000000 0.000000 

0.000000 0.000000 0.000000 
0.000000 0.000000 0.000000 
0.000000 0.000000 0.000000 

0.000000 -0.000000 0.000000 
0.000000 0.000000 0.000000 
0.000000 0.000000 0.000000 

0.000000 0.000000 0.000000 
0.000000 0.000000 0.000000 
0.000000 0.000000 0.000000 

0.000000 0.000000 0.000000 
0.000000 0.000000 0.000000 
0.000000 0.000000 0.000000 

-0.000000 -0.000000 0.000000 
0.000000 -0.000000 0.000000 
0.000000 0.000000 0.000000 

0.000000 0.000000 0.000000 
0.000000 -0.000000 0.000000 
0.000000 0.000000 0.000000 

-0.000000 -0.000000 0.000000 
0.000000 -0.000000 0.000000 
0.000000 0.000000 0.000000 

0.000000 -0.000000 0.000000 
0.000000 -0.000000 0.000000 
0.000000 0.000000 0.000000 

0.000000 -0.000000 0.000000 
0.000000 0.000000 0.000000 
0.000000 0.000000 0.000000 

0.000000 -0.000000 0.000000 
0.000000 0.000000 0.000000 
0.000000 0.000000 0.000000 

0.000000 -0.000000 0.000000 
0.000000 0.000000 0.000000 
0.000000 0.000000 0.000000 

0.000000 -0.000000 0.000000 
0.000000 0.000000 0.000000 
0.000000 0.000000 0.000000 

0.000000 -0.000000 0.000000 
0.000000 0.000000 0.000000 
0.000000 0.000000 0.000000 

0.000000 -0.000000 0.000000 
0.000000 0.000000 0.000000 
0.000000 0.000000 0.000000 

0.000000 -0.000000 0.000000 
0.000000 0.000000 0.000000 
0.000000 0.000000 0.000000 

0.000000 -0.000000 0.000000 
0.000000 0.000000 0.000000 
0.000000 0.000000 0.000000 

-0.000000 0.000000 0.000000 
0.000000 -0.000000 0.000000 
0.000000 0.000000 0.000000 

0.000000 -0.000000 0.000000 
0.000000 0.000000 0.000000 
0.000000 0.000000 0.000000 

-0.000000 0.000000 0.000000 
0.000000 0.000000 0.000000 
0.000000 0.000000 0.000000 

-0.000000 -0.000000 0.000000 
0.000000 0.000000 0.000000 
0.000000 0.000000 0.000000 

-0.000000 -0.000000 0.000000 
0.000000 0.000000 0.000000 
0.000000 0.000000 0.000000 

-0.000000 -0.000000 0.000000 
0.000000 -0.000000 0.000000 
0.000000 0.000000 0.000000 

-0.000000 -0.000000 0.000000 
0.000000 0.000000 0.000000 
0.000000 0.000000 0.000000 

0.000000 -0.000000 0.000000 
0.000000 0.000000 0.000000 
0.000000 0.000000 0.000000 

0.000000 -0.000000 0.000000 
0.000000 0.000000 0.000000 
0.000000 0.000000 0.000000 

0.000000 0.000000 0.000000 
0.000000 0.000000 0.000000 
0.000000 0.000000 0.000000 

-0.000000 0.000000 0.000000 
0.000000 -0.000000 0.000000 
0.000000 0.000000 0.000000 

0.000000 0.000000 0.000000 
0.000000 -0.000000 0.000000 
0.000000 0.000000 0.000000 

-0.000000 0.000000 0.000000 
0.000000 -0.000000 0.000000 
0.000000 0.000000 0.000000 

0.000000 0.000000 0.000000 
0.000000 -0.000000 0.000000 
0.000000 0.000000 0.000000 

-0.000000 0.000000 0.000000 
0.000000 -0.000000 0.000000 
0.000000 0.000000 0.000000 

-0.000000 0.000000 0.000000 
0.000000 -0.000000 0.000000 
0.000000 0.000000 0.000000 

-0.000000 0.000000 0.000000 
0.000000 -0.000000 0.000000 
0.000000 0.000000 0.000000 

-0.000000 0.000000 0.000000 
0.000000 -0.000000 0.000000 
0.000000 0.000000 0.000000 

-0.000000 -0.000000 0.000000 
0.000000 0.000000 0.000000 
0.000000 0.000000 0.000000 

0.000000 -0.000000 0.000000 
0.000000 0.000000 0.000000 
0.000000 0.000000 0.000000 

-0.000000 0.000000 0.000000 
0.000000 0.000000 0.000000 
0.000000 0.000000 0.000000 

0.000000 0.000000 0.000000 
0.000000 0.000000 0.000000 
0.000000 0.000000 0.000000 

0.000000 0.000000 0.000000 
0.000000 0.000000 0.000000 
0.000000 0.000000 0.000000 

-0.000000 0.000000 0.000000 
0.000000 -0.000000 0.000000 
0.000000 0.000000 0.000000 

-0.000000 0.000000 0.000000 
0.000000 -0.000000 0.000000 
0.000000 0.000000 0.000000 

-0.000000 -0.000000 0.000000 
0.000000 0.000000 0.000000 
0.000000 0.000000 0.000000 

-0.000000 -0.000000 0.000000 
0.000000 0.000000 0.000000 
0.000000 0.000000 0.000000 

0.000000 -0.000000 0.000000 
0.000000 0.000000 0.000000 
0.000000 0.000000 0.000000 

0.000000 0.000000 0.000000 
0.000000 0.000000 0.000000 
0.000000 0.000000 0.000000 

-0.000000 0.000000 0.000000 
0.000000 -0.000000 0.000000 
0.000000 0.000000 0.000000 

0.000000 0.000000 0.000000 
0.000000 0.000000 0.000000 
0.000000 0.000000 0.000000 

0.000000 -0.000000 0.000000 
0.000000 -0.000000 0.000000 
0.000000 0.000000 0.000000 

0.000000 0.000000 0.000000 
0.000000 0.000000 0.000000 
0.000000 0.000000 0.000000 

-0.000000 0.000000 0.000000 
0.000000 -0.000000 0.000000 
0.000000 0.000000 0.000000 

TENSORS STRAIN float 
0.000000 0.000000 0.000000 
0.000000 0.000000 0.000000 
0.000000 0.000000 0.000000 

-0.000000 -0.000000 0.000000 
0.000000 0.000000 0.000000 
0.000000 0.000000 0.000000 

0.000000 0.000000 0.000000 
0.000000 0.000000 0.000000 
0.000000 0.000000 0.000000 

0.000000 0.000000 0.000000 
0.000000 -0.000000 0.000000 
0.000000 0.000000 0.000000 

-0.000000 -0.000000 0.000000 
0.000000 0.000000 0.000000 
0.000000 0.000000 0.000000 

-0.000000 -0.000000 0.000000 
0.000000 0.000000 0.000000 
0.000000 0.000000 0.000000 

-0.000000 -0.000000 0.000000 
0.000000 -0.000000 0.000000 
0.000000 0.000000 0.000000 

0.000000 -0.000000 0.000000 
0.000000 -0.000000 0.000000 
0.000000 0.000000 0.000000 

0.000000 -0.000000 0.000000 
0.000000 -0.000000 0.000000 
0.000000 0.000000 0.000000 

-0.000000 0.000000 0.000000 
0.000000 0.000000 0.000000 
0.000000 0.000000 0.000000 

-0.000000 -0.000000 0.000000 
0.000000 0.000000 0.000000 
0.000000 0.000000 0.000000 

-0.000000 -0.000000 0.000000 
0.000000 0.000000 0.000000 
0.000000 0.000000 0.000000 

-0.000000 -0.000000 0.000000 
0.000000 0.000000 0.000000 
0.000000 0.000000 0.000000 

0.000000 -0.000000 0.000000 
0.000000 0.000000 0.000000 
0.000000 0.000000 0.000000 

-0.000000 0.000000 0.000000 
0.000000 0.000000 0.000000 
0.000000 0.000000 0.000000 

-0.000000 0.000000 0.000000 
0.000000 0.000000 0.000000 
0.000000 0.000000 0.000000 

-0.000000 -0.000000 0.000000 
0.000000 0.000000 0.000000 
0.000000 0.000000 0.000000 

-0.000000 -0.000000 0.000000 
0.000000 0.000000 0.000000 
0.000000 0.000000 0.000000 

0.000000 -0.000000 0.000000 
0.000000 0.000000 0.000000 
0.000000 0.000000 0.000000 

0.000000 -0.000000 0.000000 
0.000000 0.000000 0.000000 
0.000000 0.000000 0.000000 

0.000000 0.000000 0.000000 
0.000000 -0.000000 0.000000 
0.000000 0.000000 0.000000 

0.000000 -0.000000 0.000000 
0.000000 0.000000 0.000000 
0.000000 0.000000 0.000000 

-0.000000 0.000000 0.000000 
0.000000 -0.000000 0.000000 
0.000000 0.000000 0.000000 

-0.000000 -0.000000 0.000000 
0.000000 0.000000 0.000000 
0.000000 0.000000 0.000000 

-0.000000 -0.000000 0.000000 
0.000000 0.000000 0.000000 
0.000000 0.000000 0.000000 

0.000000 0.000000 0.000000 
0.000000 0.000000 0.000000 
0.000000 0.000000 0.000000 

0.000000 0.000000 0.000000 
0.000000 -0.000000 0.000000 
0.000000 0.000000 0.000000 

-0.000000 0.000000 0.000000 
0.000000 -0.000000 0.000000 
0.000000 0.000000 0.000000 

-0.000000 0.000000 0.000000 
0.000000 -0.000000 0.000000 
0.000000 0.000000 0.000000 

-0.000000 0.000000 0.000000 
0.000000 -0.000000 0.000000 
0.000000 0.000000 0.000000 

-0.000000 0.000000 0.000000 
0.000000 -0.000000 0.000000 
0.000000 0.000000 0.000000 

-0.000000 0.000000 0.000000 
0.000000 -0.000000 0.000000 
0.000000 0.000000 0.000000 

-0.000000 0.000000 0.000000 
0.000000 -0.000000 0.000000 
0.000000 0.000000 0.000000 

-0.000000 -0.000000 0.000000 
0.000000 0.000000 0.000000 
0.000000 0.000000 0.000000 

-0.000000 0.000000 0.000000 
0.000000 0.000000 0.000000 
0.000000 0.000000 0.000000 

-0.000000 0.000000 0.000000 
0.000000 -0.000000 0.000000 
0.000000 0.000000 0.000000 

-0.000000 0.000000 0.000000 
0.000000 0.000000 0.000000 
0.000000 0.000000 0.000000 

-0.000000 0.000000 0.000000 
0.000000 -0.000000 0.000000 
0.000000 0.000000 0.000000 

0.000000 -0.000000 0.000000 
0.000000 -0.000000 0.000000 
0.000000 0.000000 0.000000 

-0.000000 -0.000000 0.000000 
0.000000 0.000000 0.000000 
0.000000 0.000000 0.000000 

-0.000000 0.000000 0.000000 
0.000000 0.000000 0.000000 
0.000000 0.000000 0.000000 

0.000000 0.000000 0.000000 
0.000000 -0.000000 0.000000 
0.000000 0.000000 0.000000 

0.000000 0.000000 0.000000 
0.000000 0.000000 0.000000 
0.000000 0.000000 0.000000 

0.000000 0.000000 0.000000 
0.000000 0.000000 0.000000 
0.000000 0.000000 0.000000 

0.000000 0.000000 0.000000 
0.000000 0.000000 0.000000 
0.000000 0.000000 0.000000 

0.000000 0.000000 0.000000 
0.000000 0.000000 0.000000 
0.000000 0.000000 0.000000 

-0.000000 0.000000 0.000000 
0.000000 -0.000000 0.000000 
0.000000 0.000000 0.000000 

-0.000000 0.000000 0.000000 
0.000000 0.000000 0.000000 
0.000000 0.000000 0.000000 

-0.000000 0.000000 0.000000 
0.000000 -0.000000 0.000000 
0.000000 0.000000 0.000000 

-0.000000 -0.000000 0.000000 
0.000000 -0.000000 0.000000 
0.000000 0.000000 0.000000 

0.000000 0.000000 0.000000 
0.000000 0.000000 0.000000 
0.000000 0.000000 0.000000 

0.000000 -0.000000 0.000000 
0.000000 0.000000 0.000000 
0.000000 0.000000 0.000000 

0.000000 -0.000000 0.000000 
0.000000 0.000000 0.000000 
0.000000 0.000000 0.000000 

0.000000 -0.000000 0.000000 
0.000000 0.000000 0.000000 
0.000000 0.000000 0.000000 

-0.000000 0.000000 0.000000 
0.000000 -0.000000 0.000000 
0.000000 0.000000 0.000000 

-0.000000 -0.000000 0.000000 
0.000000 0.000000 0.000000 
0.000000 0.000000 0.000000 

-0.000000 -0.000000 0.000000 
0.000000 0.000000 0.000000 
0.000000 0.000000 0.000000 

0.000000 -0.000000 0.000000 
0.000000 0.000000 0.000000 
0.000000 0.000000 0.000000 

-0.000000 0.000000 0.000000 
0.000000 0.000000 0.000000 
0.000000 0.000000 0.000000 

-0.000000 0.000000 0.000000 
0.000000 -0.000000 0.000000 
0.000000 0.000000 0.000000 

-0.000000 0.000000 0.000000 
0.000000 0.000000 0.000000 
0.000000 0.000000 0.000000 

-0.000000 0.000000 0.000000 
0.000000 0.000000 0.000000 
0.000000 0.000000 0.000000 

-0.000000 0.000000 0.000000 
0.000000 0.000000 0.000000 
0.000000 0.000000 0.000000 

-0.000000 0.000000 0.000000 
0.000000 -0.000000 0.000000 
0.000000 0.000000 0.000000 

-0.000000 0.000000 0.000000 
0.000000 0.000000 0.000000 
0.000000 0.000000 0.000000 

-0.000000 0.000000 0.000000 
0.000000 0.000000 0.000000 
0.000000 0.000000 0.000000 

0.000000 -0.000000 0.000000 
0.000000 0.000000 0.000000 
0.000000 0.000000 0.000000 

0.000000 -0.000000 0.000000 
0.000000 -0.000000 0.000000 
0.000000 0.000000 0.000000 

0.000000 -0.000000 0.000000 
0.000000 -0.000000 0.000000 
0.000000 0.000000 0.000000 

0.000000 0.000000 0.000000 
0.000000 -0.000000 0.000000 
0.000000 0.000000 0.000000 

0.000000 0.000000 0.000000 
0.000000 -0.000000 0.000000 
0.000000 0.000000 0.000000 

-0.000000 0.000000 0.000000 
0.000000 -0.000000 0.000000 
0.000000 0.000000 0.000000 

0.000000 -0.000000 0.000000 
0.000000 -0.000000 0.000000 
0.000000 0.000000 0.000000 

0.000000 -0.000000 0.000000 
0.000000 0.000000 0.000000 
0.000000 0.000000 0.000000 

0.000000 -0.000000 0.000000 
0.000000 -0.000000 0.000000 
0.000000 0.000000 0.000000 

0.000000 0.000000 0.000000 
0.000000 0.000000 0.000000 
0.000000 0.000000 0.000000 

0.000000 0.000000 0.000000 
0.000000 0.000000 0.000000 
0.000000 0.000000 0.000000 

0.000000 0.000000 0.000000 
0.000000 0.000000 0.000000 
0.000000 0.000000 0.000000 

0.000000 0.000000 0.000000 
0.000000 0.000000 0.000000 
0.000000 0.000000 0.000000 

0.000000 0.000000 0.000000 
0.000000 -0.000000 0.000000 
0.000000 0.000000 0.000000 

0.000000 0.000000 0.000000 
0.000000 -0.000000 0.000000 
0.000000 0.000000 0.000000 

0.000000 0.000000 0.000000 
0.000000 -0.000000 0.000000 
0.000000 0.000000 0.000000 

0.000000 0.000000 0.000000 
0.000000 -0.000000 0.000000 
0.000000 0.000000 0.000000 

-0.000000 0.000000 0.000000 
0.000000 -0.000000 0.000000 
0.000000 0.000000 0.000000 

0.000000 -0.000000 0.000000 
0.000000 -0.000000 0.000000 
0.000000 0.000000 0.000000 

0.000000 -0.000000 0.000000 
0.000000 -0.000000 0.000000 
0.000000 0.000000 0.000000 

0.000000 0.000000 0.000000 
0.000000 0.000000 0.000000 
0.000000 0.000000 0.000000 

0.000000 -0.000000 0.000000 
0.000000 0.000000 0.000000 
0.000000 0.000000 0.000000 

0.000000 -0.000000 0.000000 
0.000000 -0.000000 0.000000 
0.000000 0.000000 0.000000 

-0.000000 0.000000 0.000000 
0.000000 -0.000000 0.000000 
0.000000 0.000000 0.000000 

-0.000000 -0.000000 0.000000 
0.000000 -0.000000 0.000000 
0.000000 0.000000 0.000000 

-0.000000 0.000000 0.000000 
0.000000 -0.000000 0.000000 
0.000000 0.000000 0.000000 

-0.000000 0.000000 0.000000 
0.000000 0.000000 0.000000 
0.000000 0.000000 0.000000 

-0.000000 0.000000 0.000000 
0.000000 -0.000000 0.000000 
0.000000 0.000000 0.000000 

-0.000000 0.000000 0.000000 
0.000000 -0.000000 0.000000 
0.000000 0.000000 0.000000 

-0.000000 0.000000 0.000000 
0.000000 -0.000000 0.000000 
0.000000 0.000000 0.000000 

-0.000000 0.000000 0.000000 
0.000000 -0.000000 0.000000 
0.000000 0.000000 0.000000 

0.000000 -0.000000 0.000000 
0.000000 -0.000000 0.000000 
0.000000 0.000000 0.000000 

0.000000 -0.000000 0.000000 
0.000000 -0.000000 0.000000 
0.000000 0.000000 0.000000 

0.000000 -0.000000 0.000000 
0.000000 0.000000 0.000000 
0.000000 0.000000 0.000000 

0.000000 0.000000 0.000000 
0.000000 0.000000 0.000000 
0.000000 0.000000 0.000000 

0.000000 0.000000 0.000000 
0.000000 0.000000 0.000000 
0.000000 0.000000 0.000000 

0.000000 0.000000 0.000000 
0.000000 0.000000 0.000000 
0.000000 0.000000 0.000000 

0.000000 0.000000 0.000000 
0.000000 0.000000 0.000000 
0.000000 0.000000 0.000000 

-0.000000 -0.000000 0.000000 
0.000000 -0.000000 0.000000 
0.000000 0.000000 0.000000 

0.000000 0.000000 0.000000 
0.000000 0.000000 0.000000 
0.000000 0.000000 0.000000 

0.000000 0.000000 0.000000 
0.000000 0.000000 0.000000 
0.000000 0.000000 0.000000 

0.000000 0.000000 0.000000 
0.000000 0.000000 0.000000 
0.000000 0.000000 0.000000 

0.000000 0.000000 0.000000 
0.000000 -0.000000 0.000000 
0.000000 0.000000 0.000000 

-0.000000 -0.000000 0.000000 
0.000000 -0.000000 0.000000 
0.000000 0.000000 0.000000 

-0.000000 -0.000000 0.000000 
0.000000 0.000000 0.000000 
0.000000 0.000000 0.000000 

-0.000000 -0.000000 0.000000 
0.000000 -0.000000 0.000000 
0.000000 0.000000 0.000000 

-0.000000 -0.000000 0.000000 
0.000000 0.000000 0.000000 
0.000000 0.000000 0.000000 

-0.000000 -0.000000 0.000000 
0.000000 -0.000000 0.000000 
0.000000 0.000000 0.000000 

0.000000 0.000000 0.000000 
0.000000 0.000000 0.000000 
0.000000 0.000000 0.000000 

0.000000 -0.000000 0.000000 
0.000000 0.000000 0.000000 
0.000000 0.000000 0.000000 

0.000000 -0.000000 0.000000 
0.000000 0.000000 0.000000 
0.000000 0.000000 0.000000 

0.000000 -0.000000 0.000000 
0.000000 0.000000 0.000000 
0.000000 0.000000 0.000000 

0.000000 0.000000 0.000000 
0.000000 -0.000000 0.000000 
0.000000 0.000000 0.000000 

-0.000000 -0.000000 0.000000 
0.000000 -0.000000 0.000000 
0.000000 0.000000 0.000000 

-0.000000 0.000000 0.000000 
0.000000 -0.000000 0.000000 
0.000000 0.000000 0.000000 

-0.000000 0.000000 0.000000 
0.000000 0.000000 0.000000 
0.000000 0.000000 0.000000 

-0.000000 -0.000000 0.000000 
0.000000 0.000000 0.000000 
0.000000 0.000000 0.000000 

-0.000000 -0.000000 0.000000 
0.000000 -0.000000 0.000000 
0.000000 0.000000 0.000000 

-0.000000 0.000000 0.000000 
0.000000 -0.000000 0.000000 
0.000000 0.000000 0.000000 

0.000000 0.000000 0.000000 
0.000000 0.000000 0.000000 
0.000000 0.000000 0.000000 

0.000000 -0.000000 0.000000 
0.000000 -0.000000 0.000000 
0.000000 0.000000 0.000000 

0.000000 0.000000 0.000000 
0.000000 0.000000 0.000000 
0.000000 0.000000 0.000000 

0.000000 0.000000 0.000000 
0.000000 0.000000 0.000000 
0.000000 0.000000 0.000000 

-0.000000 -0.000000 0.000000 
0.000000 -0.000000 0.000000 
0.000000 0.000000 0.000000 

0.000000 0.000000 0.000000 
0.000000 -0.000000 0.000000 
0.000000 0.000000 0.000000 

0.000000 -0.000000 0.000000 
0.000000 -0.000000 0.000000 
0.000000 0.000000 0.000000 

0.000000 -0.000000 0.000000 
0.000000 -0.000000 0.000000 
0.000000 0.000000 0.000000 

0.000000 -0.000000 0.000000 
0.000000 0.000000 0.000000 
0.000000 0.000000 0.000000 

-0.000000 -0.000000 0.000000 
0.000000 0.000000 0.000000 
0.000000 0.000000 0.000000 

0.000000 -0.000000 0.000000 
0.000000 0.000000 0.000000 
0.000000 0.000000 0.000000 

0.000000 -0.000000 0.000000 
0.000000 0.000000 0.000000 
0.000000 0.000000 0.000000 

0.000000 -0.000000 0.000000 
0.000000 0.000000 0.000000 
0.000000 0.000000 0.000000 

0.000000 -0.000000 0.000000 
0.000000 0.000000 0.000000 
0.000000 0.000000 0.000000 

0.000000 -0.000000 0.000000 
0.000000 0.000000 0.000000 
0.000000 0.000000 0.000000 

0.000000 -0.000000 0.000000 
0.000000 0.000000 0.000000 
0.000000 0.000000 0.000000 

-0.000000 0.000000 0.000000 
0.000000 -0.000000 0.000000 
0.000000 0.000000 0.000000 

-0.000000 -0.000000 0.000000 
0.000000 0.000000 0.000000 
0.000000 0.000000 0.000000 

-0.000000 0.000000 0.000000 
0.000000 0.000000 0.000000 
0.000000 0.000000 0.000000 

-0.000000 -0.000000 0.000000 
0.000000 0.000000 0.000000 
0.000000 0.000000 0.000000 

-0.000000 -0.000000 0.000000 
0.000000 0.000000 0.000000 
0.000000 0.000000 0.000000 

-0.000000 -0.000000 0.000000 
0.000000 -0.000000 0.000000 
0.000000 0.000000 0.000000 

-0.000000 -0.000000 0.000000 
0.000000 0.000000 0.000000 
0.000000 0.000000 0.000000 

0.000000 -0.000000 0.000000 
0.000000 0.000000 0.000000 
0.000000 0.000000 0.000000 

0.000000 -0.000000 0.000000 
0.000000 0.000000 0.000000 
0.000000 0.000000 0.000000 

0.000000 0.000000 0.000000 
0.000000 0.000000 0.000000 
0.000000 0.000000 0.000000 

0.000000 0.000000 0.000000 
0.000000 -0.000000 0.000000 
0.000000 0.000000 0.000000 

0.000000 0.000000 0.000000 
0.000000 -0.000000 0.000000 
0.000000 0.000000 0.000000 

0.000000 0.000000 0.000000 
0.000000 -0.000000 0.000000 
0.000000 0.000000 0.000000 

0.000000 0.000000 0.000000 
0.000000 -0.000000 0.000000 
0.000000 0.000000 0.000000 

0.000000 0.000000 0.000000 
0.000000 -0.000000 0.000000 
0.000000 0.000000 0.000000 

-0.000000 0.000000 0.000000 
0.000000 -0.000000 0.000000 
0.000000 0.000000 0.000000 

-0.000000 0.000000 0.000000 
0.000000 -0.000000 0.000000 
0.000000 0.000000 0.000000 

-0.000000 0.000000 0.000000 
0.000000 -0.000000 0.000000 
0.000000 0.000000 0.000000 

-0.000000 -0.000000 0.000000 
0.000000 0.000000 0.000000 
0.000000 0.000000 0.000000 

-0.000000 -0.000000 0.000000 
0.000000 0.000000 0.000000 
0.000000 0.000000 0.000000 

-0.000000 0.000000 0.000000 
0.000000 0.000000 0.000000 
0.000000 0.000000 0.000000 

-0.000000 0.000000 0.000000 
0.000000 0.000000 0.000000 
0.000000 0.000000 0.000000 

-0.000000 0.000000 0.000000 
0.000000 0.000000 0.000000 
0.000000 0.000000 0.000000 

-0.000000 0.000000 0.000000 
0.000000 -0.000000 0.000000 
0.000000 0.000000 0.000000 

-0.000000 0.000000 0.000000 
0.000000 -0.000000 0.000000 
0.000000 0.000000 0.000000 

-0.000000 -0.000000 0.000000 
0.000000 0.000000 0.000000 
0.000000 0.000000 0.000000 

-0.000000 -0.000000 0.000000 
0.000000 0.000000 0.000000 
0.000000 0.000000 0.000000 

-0.000000 -0.000000 0.000000 
0.000000 0.000000 0.000000 
0.000000 0.000000 0.000000 

-0.000000 0.000000 0.000000 
0.000000 0.000000 0.000000 
0.000000 0.000000 0.000000 

-0.000000 0.000000 0.000000 
0.000000 -0.000000 0.000000 
0.000000 0.000000 0.000000 

-0.000000 0.000000 0.000000 
0.000000 0.000000 0.000000 
0.000000 0.000000 0.000000 

0.000000 -0.000000 0.000000 
0.000000 -0.000000 0.000000 
0.000000 0.000000 0.000000 

0.000000 0.000000 0.000000 
0.000000 0.000000 0.000000 
0.000000 0.000000 0.000000 

0.000000 0.000000 0.000000 
0.000000 -0.000000 0.000000 
0.000000 0.000000 0.000000 

