# vtk DataFile Version 3.0 
vtk output 
ASCII 
DATASET UNSTRUCTURED_GRID 
POINTS 175 float 
-0.026061 -0.798482 0.000000 
-0.106992 -0.730427 0.000000 
-0.054870 -0.738659 0.000000 
-0.028809 -0.692776 0.000000 
-0.186430 -0.666351 0.000000 
-0.137056 -0.668877 0.000000 
-0.114311 -0.615230 0.000000 
-0.058186 -0.630896 0.000000 
-0.029377 -0.590718 0.000000 
-0.265318 -0.603195 0.000000 
-0.217198 -0.603995 0.000000 
-0.196633 -0.546698 0.000000 
-0.143120 -0.555407 0.000000 
-0.116563 -0.508139 0.000000 
-0.058945 -0.527784 0.000000 
-0.029568 -0.489664 0.000000 
-0.344206 -0.540039 0.000000 
-0.296791 -0.540032 0.000000 
-0.278030 -0.480089 0.000000 
-0.225992 -0.485956 0.000000 
-0.201664 -0.433839 0.000000 
-0.145749 -0.447313 0.000000 
-0.117890 -0.402970 0.000000 
-0.059328 -0.425676 0.000000 
-0.029759 -0.388610 0.000000 
-0.058559 -0.839233 0.000000 
-0.162226 -0.860075 0.000000 
-0.123292 -0.824458 0.000000 
-0.142917 -0.775474 0.000000 
-0.261851 -0.882232 0.000000 
-0.229092 -0.845205 0.000000 
-0.256854 -0.793973 0.000000 
-0.209613 -0.759861 0.000000 
-0.223062 -0.712287 0.000000 
-0.360414 -0.904532 0.000000 
-0.329787 -0.867409 0.000000 
-0.361761 -0.815607 0.000000 
-0.321587 -0.779198 0.000000 
-0.341985 -0.728964 0.000000 
-0.290702 -0.696165 0.000000 
-0.302189 -0.649430 0.000000 
-0.458977 -0.926832 0.000000 
-0.429420 -0.889757 0.000000 
-0.464588 -0.837716 0.000000 
-0.427556 -0.800688 0.000000 
-0.453135 -0.749173 0.000000 
-0.407738 -0.713858 0.000000 
-0.425037 -0.664430 0.000000 
-0.370772 -0.632801 0.000000 
-0.381315 -0.586573 0.000000 
-0.046960 -0.890048 0.000000 
-0.095301 -0.984094 0.000000 
-0.098873 -0.931447 0.000000 
-0.149405 -0.916249 0.000000 
-0.140093 -1.075798 0.000000 
-0.148617 -1.027100 0.000000 
-0.205981 -1.016862 0.000000 
-0.203197 -0.958659 0.000000 
-0.248777 -0.939512 0.000000 
-0.184111 -1.166761 0.000000 
-0.194039 -1.119670 0.000000 
-0.254475 -1.112371 0.000000 
-0.257893 -1.058261 0.000000 
-0.309886 -1.042889 0.000000 
-0.303554 -0.982343 0.000000 
-0.347255 -0.962186 0.000000 
-0.228129 -1.257725 0.000000 
-0.238687 -1.211501 0.000000 
-0.301302 -1.206549 0.000000 
-0.307162 -1.154510 0.000000 
-0.363386 -1.142389 0.000000 
-0.362692 -1.084878 0.000000 
-0.412122 -1.067584 0.000000 
-0.403017 -1.005438 0.000000 
-0.445733 -0.984859 0.000000 
-0.000000 -0.912663 0.000000 
0.043388 -1.009093 0.000000 
-0.000000 -0.979061 0.000000 
-0.043388 -1.009093 0.000000 
0.087158 -1.101290 0.000000 
0.043769 -1.077592 0.000000 
-0.000000 -1.116057 0.000000 
-0.043769 -1.077592 0.000000 
-0.087158 -1.101290 0.000000 
0.130831 -1.192420 0.000000 
0.087824 -1.170821 0.000000 
0.044436 -1.213521 0.000000 
-0.000000 -1.182456 0.000000 
-0.044436 -1.213521 0.000000 
-0.087824 -1.170821 0.000000 
-0.130831 -1.192420 0.000000 
0.174505 -1.283549 0.000000 
0.131782 -1.262983 0.000000 
0.088871 -1.308850 0.000000 
0.044532 -1.280986 0.000000 
-0.000000 -1.317386 0.000000 
-0.044532 -1.280986 0.000000 
-0.088871 -1.308850 0.000000 
-0.131782 -1.262983 0.000000 
-0.174505 -1.283549 0.000000 
0.046960 -0.890048 0.000000 
0.149405 -0.916249 0.000000 
0.098873 -0.931447 0.000000 
0.095301 -0.984094 0.000000 
0.248777 -0.939512 0.000000 
0.203197 -0.958659 0.000000 
0.205981 -1.016862 0.000000 
0.148617 -1.027100 0.000000 
0.140093 -1.075798 0.000000 
0.347255 -0.962186 0.000000 
0.303554 -0.982343 0.000000 
0.309886 -1.042889 0.000000 
0.257893 -1.058261 0.000000 
0.254475 -1.112371 0.000000 
0.194039 -1.119670 0.000000 
0.184111 -1.166761 0.000000 
0.445733 -0.984859 0.000000 
0.403017 -1.005438 0.000000 
0.412122 -1.067584 0.000000 
0.362692 -1.084878 0.000000 
0.363386 -1.142389 0.000000 
0.307162 -1.154510 0.000000 
0.301302 -1.206549 0.000000 
0.238687 -1.211501 0.000000 
0.228129 -1.257725 0.000000 
0.058559 -0.839233 0.000000 
0.142917 -0.775474 0.000000 
0.123292 -0.824458 0.000000 
0.162226 -0.860075 0.000000 
0.223062 -0.712287 0.000000 
0.209613 -0.759861 0.000000 
0.256854 -0.793973 0.000000 
0.229092 -0.845205 0.000000 
0.261851 -0.882232 0.000000 
0.302189 -0.649430 0.000000 
0.290702 -0.696165 0.000000 
0.341985 -0.728964 0.000000 
0.321587 -0.779198 0.000000 
0.361761 -0.815607 0.000000 
0.329787 -0.867409 0.000000 
0.360414 -0.904532 0.000000 
0.381315 -0.586573 0.000000 
0.370772 -0.632801 0.000000 
0.425037 -0.664430 0.000000 
0.407738 -0.713858 0.000000 
0.453135 -0.749173 0.000000 
0.427556 -0.800688 0.000000 
0.464588 -0.837716 0.000000 
0.429420 -0.889757 0.000000 
0.458977 -0.926832 0.000000 
0.026061 -0.798482 0.000000 
0.028809 -0.692776 0.000000 
0.054870 -0.738659 0.000000 
0.106992 -0.730427 0.000000 
0.029377 -0.590718 0.000000 
0.058186 -0.630896 0.000000 
0.114311 -0.615230 0.000000 
0.137056 -0.668877 0.000000 
0.186430 -0.666351 0.000000 
0.029568 -0.489664 0.000000 
0.058945 -0.527784 0.000000 
0.116563 -0.508139 0.000000 
0.143120 -0.555407 0.000000 
0.196633 -0.546698 0.000000 
0.217198 -0.603995 0.000000 
0.265318 -0.603195 0.000000 
0.029759 -0.388610 0.000000 
0.059328 -0.425676 0.000000 
0.117890 -0.402970 0.000000 
0.145749 -0.447313 0.000000 
0.201664 -0.433839 0.000000 
0.225992 -0.485956 0.000000 
0.278030 -0.480089 0.000000 
0.296791 -0.540032 0.000000 
0.344206 -0.540039 0.000000 
CELLS 175 350 
1 0 
1 1 
1 2 
1 3 
1 4 
1 5 
1 6 
1 7 
1 8 
1 9 
1 10 
1 11 
1 12 
1 13 
1 14 
1 15 
1 16 
1 17 
1 18 
1 19 
1 20 
1 21 
1 22 
1 23 
1 24 
1 25 
1 26 
1 27 
1 28 
1 29 
1 30 
1 31 
1 32 
1 33 
1 34 
1 35 
1 36 
1 37 
1 38 
1 39 
1 40 
1 41 
1 42 
1 43 
1 44 
1 45 
1 46 
1 47 
1 48 
1 49 
1 50 
1 51 
1 52 
1 53 
1 54 
1 55 
1 56 
1 57 
1 58 
1 59 
1 60 
1 61 
1 62 
1 63 
1 64 
1 65 
1 66 
1 67 
1 68 
1 69 
1 70 
1 71 
1 72 
1 73 
1 74 
1 75 
1 76 
1 77 
1 78 
1 79 
1 80 
1 81 
1 82 
1 83 
1 84 
1 85 
1 86 
1 87 
1 88 
1 89 
1 90 
1 91 
1 92 
1 93 
1 94 
1 95 
1 96 
1 97 
1 98 
1 99 
1 100 
1 101 
1 102 
1 103 
1 104 
1 105 
1 106 
1 107 
1 108 
1 109 
1 110 
1 111 
1 112 
1 113 
1 114 
1 115 
1 116 
1 117 
1 118 
1 119 
1 120 
1 121 
1 122 
1 123 
1 124 
1 125 
1 126 
1 127 
1 128 
1 129 
1 130 
1 131 
1 132 
1 133 
1 134 
1 135 
1 136 
1 137 
1 138 
1 139 
1 140 
1 141 
1 142 
1 143 
1 144 
1 145 
1 146 
1 147 
1 148 
1 149 
1 150 
1 151 
1 152 
1 153 
1 154 
1 155 
1 156 
1 157 
1 158 
1 159 
1 160 
1 161 
1 162 
1 163 
1 164 
1 165 
1 166 
1 167 
1 168 
1 169 
1 170 
1 171 
1 172 
1 173 
1 174 
CELL_TYPES 175 
1 
1 
1 
1 
1 
1 
1 
1 
1 
1 
1 
1 
1 
1 
1 
1 
1 
1 
1 
1 
1 
1 
1 
1 
1 
1 
1 
1 
1 
1 
1 
1 
1 
1 
1 
1 
1 
1 
1 
1 
1 
1 
1 
1 
1 
1 
1 
1 
1 
1 
1 
1 
1 
1 
1 
1 
1 
1 
1 
1 
1 
1 
1 
1 
1 
1 
1 
1 
1 
1 
1 
1 
1 
1 
1 
1 
1 
1 
1 
1 
1 
1 
1 
1 
1 
1 
1 
1 
1 
1 
1 
1 
1 
1 
1 
1 
1 
1 
1 
1 
1 
1 
1 
1 
1 
1 
1 
1 
1 
1 
1 
1 
1 
1 
1 
1 
1 
1 
1 
1 
1 
1 
1 
1 
1 
1 
1 
1 
1 
1 
1 
1 
1 
1 
1 
1 
1 
1 
1 
1 
1 
1 
1 
1 
1 
1 
1 
1 
1 
1 
1 
1 
1 
1 
1 
1 
1 
1 
1 
1 
1 
1 
1 
1 
1 
1 
1 
1 
1 
1 
1 
1 
1 
1 
1 
POINT_DATA 175 
VECTORS X_GC float 
-0.026061 -0.798482 0.000000 
-0.106992 -0.730427 0.000000 
-0.054870 -0.738659 0.000000 
-0.028809 -0.692776 0.000000 
-0.186430 -0.666351 0.000000 
-0.137056 -0.668877 0.000000 
-0.114311 -0.615230 0.000000 
-0.058186 -0.630896 0.000000 
-0.029377 -0.590718 0.000000 
-0.265318 -0.603195 0.000000 
-0.217198 -0.603995 0.000000 
-0.196633 -0.546698 0.000000 
-0.143120 -0.555407 0.000000 
-0.116563 -0.508139 0.000000 
-0.058945 -0.527784 0.000000 
-0.029568 -0.489664 0.000000 
-0.344206 -0.540039 0.000000 
-0.296791 -0.540032 0.000000 
-0.278030 -0.480089 0.000000 
-0.225992 -0.485956 0.000000 
-0.201664 -0.433839 0.000000 
-0.145749 -0.447313 0.000000 
-0.117890 -0.402970 0.000000 
-0.059328 -0.425676 0.000000 
-0.029759 -0.388610 0.000000 
-0.058559 -0.839233 0.000000 
-0.162226 -0.860075 0.000000 
-0.123292 -0.824458 0.000000 
-0.142917 -0.775474 0.000000 
-0.261851 -0.882232 0.000000 
-0.229092 -0.845205 0.000000 
-0.256854 -0.793973 0.000000 
-0.209613 -0.759861 0.000000 
-0.223062 -0.712287 0.000000 
-0.360414 -0.904532 0.000000 
-0.329787 -0.867409 0.000000 
-0.361761 -0.815607 0.000000 
-0.321587 -0.779198 0.000000 
-0.341985 -0.728964 0.000000 
-0.290702 -0.696165 0.000000 
-0.302189 -0.649430 0.000000 
-0.458977 -0.926832 0.000000 
-0.429420 -0.889757 0.000000 
-0.464588 -0.837716 0.000000 
-0.427556 -0.800688 0.000000 
-0.453135 -0.749173 0.000000 
-0.407738 -0.713858 0.000000 
-0.425037 -0.664430 0.000000 
-0.370772 -0.632801 0.000000 
-0.381315 -0.586573 0.000000 
-0.046960 -0.890048 0.000000 
-0.095301 -0.984094 0.000000 
-0.098873 -0.931447 0.000000 
-0.149405 -0.916249 0.000000 
-0.140093 -1.075798 0.000000 
-0.148617 -1.027100 0.000000 
-0.205981 -1.016862 0.000000 
-0.203197 -0.958659 0.000000 
-0.248777 -0.939512 0.000000 
-0.184111 -1.166761 0.000000 
-0.194039 -1.119670 0.000000 
-0.254475 -1.112371 0.000000 
-0.257893 -1.058261 0.000000 
-0.309886 -1.042889 0.000000 
-0.303554 -0.982343 0.000000 
-0.347255 -0.962186 0.000000 
-0.228129 -1.257725 0.000000 
-0.238687 -1.211501 0.000000 
-0.301302 -1.206549 0.000000 
-0.307162 -1.154510 0.000000 
-0.363386 -1.142389 0.000000 
-0.362692 -1.084878 0.000000 
-0.412122 -1.067584 0.000000 
-0.403017 -1.005438 0.000000 
-0.445733 -0.984859 0.000000 
-0.000000 -0.912663 0.000000 
0.043388 -1.009093 0.000000 
-0.000000 -0.979061 0.000000 
-0.043388 -1.009093 0.000000 
0.087158 -1.101290 0.000000 
0.043769 -1.077592 0.000000 
-0.000000 -1.116057 0.000000 
-0.043769 -1.077592 0.000000 
-0.087158 -1.101290 0.000000 
0.130831 -1.192420 0.000000 
0.087824 -1.170821 0.000000 
0.044436 -1.213521 0.000000 
-0.000000 -1.182456 0.000000 
-0.044436 -1.213521 0.000000 
-0.087824 -1.170821 0.000000 
-0.130831 -1.192420 0.000000 
0.174505 -1.283549 0.000000 
0.131782 -1.262983 0.000000 
0.088871 -1.308850 0.000000 
0.044532 -1.280986 0.000000 
-0.000000 -1.317386 0.000000 
-0.044532 -1.280986 0.000000 
-0.088871 -1.308850 0.000000 
-0.131782 -1.262983 0.000000 
-0.174505 -1.283549 0.000000 
0.046960 -0.890048 0.000000 
0.149405 -0.916249 0.000000 
0.098873 -0.931447 0.000000 
0.095301 -0.984094 0.000000 
0.248777 -0.939512 0.000000 
0.203197 -0.958659 0.000000 
0.205981 -1.016862 0.000000 
0.148617 -1.027100 0.000000 
0.140093 -1.075798 0.000000 
0.347255 -0.962186 0.000000 
0.303554 -0.982343 0.000000 
0.309886 -1.042889 0.000000 
0.257893 -1.058261 0.000000 
0.254475 -1.112371 0.000000 
0.194039 -1.119670 0.000000 
0.184111 -1.166761 0.000000 
0.445733 -0.984859 0.000000 
0.403017 -1.005438 0.000000 
0.412122 -1.067584 0.000000 
0.362692 -1.084878 0.000000 
0.363386 -1.142389 0.000000 
0.307162 -1.154510 0.000000 
0.301302 -1.206549 0.000000 
0.238687 -1.211501 0.000000 
0.228129 -1.257725 0.000000 
0.058559 -0.839233 0.000000 
0.142917 -0.775474 0.000000 
0.123292 -0.824458 0.000000 
0.162226 -0.860075 0.000000 
0.223062 -0.712287 0.000000 
0.209613 -0.759861 0.000000 
0.256854 -0.793973 0.000000 
0.229092 -0.845205 0.000000 
0.261851 -0.882232 0.000000 
0.302189 -0.649430 0.000000 
0.290702 -0.696165 0.000000 
0.341985 -0.728964 0.000000 
0.321587 -0.779198 0.000000 
0.361761 -0.815607 0.000000 
0.329787 -0.867409 0.000000 
0.360414 -0.904532 0.000000 
0.381315 -0.586573 0.000000 
0.370772 -0.632801 0.000000 
0.425037 -0.664430 0.000000 
0.407738 -0.713858 0.000000 
0.453135 -0.749173 0.000000 
0.427556 -0.800688 0.000000 
0.464588 -0.837716 0.000000 
0.429420 -0.889757 0.000000 
0.458977 -0.926832 0.000000 
0.026061 -0.798482 0.000000 
0.028809 -0.692776 0.000000 
0.054870 -0.738659 0.000000 
0.106992 -0.730427 0.000000 
0.029377 -0.590718 0.000000 
0.058186 -0.630896 0.000000 
0.114311 -0.615230 0.000000 
0.137056 -0.668877 0.000000 
0.186430 -0.666351 0.000000 
0.029568 -0.489664 0.000000 
0.058945 -0.527784 0.000000 
0.116563 -0.508139 0.000000 
0.143120 -0.555407 0.000000 
0.196633 -0.546698 0.000000 
0.217198 -0.603995 0.000000 
0.265318 -0.603195 0.000000 
0.029759 -0.388610 0.000000 
0.059328 -0.425676 0.000000 
0.117890 -0.402970 0.000000 
0.145749 -0.447313 0.000000 
0.201664 -0.433839 0.000000 
0.225992 -0.485956 0.000000 
0.278030 -0.480089 0.000000 
0.296791 -0.540032 0.000000 
0.344206 -0.540039 0.000000 
VECTORS X_EC float 
0.338794 -0.720493 0.000000 
-0.609100 0.360758 0.000000 
0.713312 0.471899 0.000000 
0.374519 -0.147531 0.000000 
0.423588 -0.504261 0.000000 
-0.218274 -0.470157 0.000000 
-0.513962 0.805604 0.000000 
0.756418 -0.982910 0.000000 
0.381900 0.474697 0.000000 
-0.550868 0.643136 0.000000 
0.823577 0.653931 0.000000 
0.556234 -0.119573 0.000000 
-0.139443 -0.002004 0.000000 
-0.484677 -0.640128 0.000000 
0.766286 -0.374913 0.000000 
0.384386 -0.889533 0.000000 
0.474677 -0.209467 0.000000 
-0.141715 -0.209564 0.000000 
-0.385608 0.981208 0.000000 
0.937896 -0.939596 0.000000 
0.621631 0.356824 0.000000 
-0.105264 0.538723 0.000000 
-0.467428 -0.059904 0.000000 
0.771260 0.246625 0.000000 
0.386873 -0.253764 0.000000 
0.761262 -0.170359 0.000000 
0.108942 0.111018 0.000000 
-0.397202 -0.369821 0.000000 
-0.142083 0.968903 0.000000 
-0.595936 0.410128 0.000000 
0.978194 -0.089737 0.000000 
-0.660903 -0.781362 0.000000 
0.724964 0.758118 0.000000 
0.899809 0.115869 0.000000 
0.685384 0.711181 0.000000 
0.287229 0.210022 0.000000 
0.702895 -0.489306 0.000000 
0.180633 -0.980825 0.000000 
0.445811 0.341015 0.000000 
-0.220880 -0.101771 0.000000 
-0.071546 -0.732696 0.000000 
-0.033296 -0.987767 0.000000 
-0.417537 0.511723 0.000000 
0.039645 -0.190839 0.000000 
-0.441768 -0.690710 0.000000 
-0.109248 0.613839 0.000000 
-0.699407 0.137083 0.000000 
-0.474522 -0.530196 0.000000 
0.820030 -0.957189 0.000000 
0.957100 0.418739 0.000000 
0.610485 0.515648 0.000000 
-0.761092 -0.214733 0.000000 
-0.714655 -0.925471 0.000000 
-0.057734 0.869362 0.000000 
-0.178789 -0.976729 0.000000 
-0.067979 0.365845 0.000000 
0.677748 0.227642 0.000000 
0.641556 -0.558104 0.000000 
-0.765897 -0.816582 0.000000 
0.393446 0.251280 0.000000 
0.522510 -0.384450 0.000000 
-0.691820 -0.482994 0.000000 
-0.647393 0.786523 0.000000 
0.028512 0.578997 0.000000 
-0.053800 -0.238364 0.000000 
0.514316 -0.510494 0.000000 
0.965681 -0.520711 0.000000 
-0.897068 0.855261 0.000000 
-0.083078 0.788408 0.000000 
-0.006893 0.085883 0.000000 
0.724017 -0.077750 0.000000 
0.714996 -0.854153 0.000000 
-0.642413 0.912389 0.000000 
-0.760780 0.073409 0.000000 
-0.205471 -0.204407 0.000000 
0.000000 0.820949 0.000000 
-0.564049 0.122762 0.000000 
0.000000 -0.282674 0.000000 
0.564049 0.122762 0.000000 
0.866949 -0.632583 0.000000 
-0.569003 -0.952514 0.000000 
0.000000 -0.433226 0.000000 
0.569003 -0.952514 0.000000 
-0.866949 -0.632583 0.000000 
0.299194 0.597667 0.000000 
0.858290 0.306084 0.000000 
-0.577662 0.882529 0.000000 
0.000000 0.463151 0.000000 
0.577662 0.882529 0.000000 
-0.858290 0.306084 0.000000 
-0.299194 0.597667 0.000000 
-0.268560 -0.172082 0.000000 
0.286830 -0.449724 0.000000 
0.844677 0.169474 0.000000 
-0.578910 -0.206689 0.000000 
0.000000 0.284715 0.000000 
0.578910 -0.206689 0.000000 
-0.844677 0.169474 0.000000 
-0.286830 -0.449724 0.000000 
0.268560 -0.172082 0.000000 
-0.610485 0.515648 0.000000 
0.057734 0.869362 0.000000 
0.714655 -0.925471 0.000000 
0.761092 -0.214733 0.000000 
0.765897 -0.816582 0.000000 
-0.641556 -0.558104 0.000000 
-0.677748 0.227642 0.000000 
0.067979 0.365845 0.000000 
0.178789 -0.976729 0.000000 
-0.514316 -0.510494 0.000000 
0.053800 -0.238364 0.000000 
-0.028512 0.578997 0.000000 
0.647393 0.786523 0.000000 
0.691820 -0.482994 0.000000 
-0.522510 -0.384450 0.000000 
-0.393446 0.251280 0.000000 
0.205471 -0.204407 0.000000 
0.760780 0.073409 0.000000 
0.642413 0.912389 0.000000 
-0.714996 -0.854153 0.000000 
-0.724017 -0.077750 0.000000 
0.006894 0.085883 0.000000 
0.083078 0.788408 0.000000 
0.897068 0.855261 0.000000 
-0.965681 -0.520711 0.000000 
-0.761262 -0.170359 0.000000 
0.142083 0.968903 0.000000 
0.397202 -0.369821 0.000000 
-0.108942 0.111018 0.000000 
-0.899809 0.115869 0.000000 
-0.724964 0.758118 0.000000 
0.660903 -0.781362 0.000000 
-0.978194 -0.089737 0.000000 
0.595936 0.410128 0.000000 
0.071546 -0.732696 0.000000 
0.220880 -0.101771 0.000000 
-0.445811 0.341015 0.000000 
-0.180633 -0.980825 0.000000 
-0.702895 -0.489306 0.000000 
-0.287229 0.210022 0.000000 
-0.685384 0.711181 0.000000 
-0.957100 0.418739 0.000000 
-0.820030 -0.957189 0.000000 
0.474522 -0.530196 0.000000 
0.699407 0.137083 0.000000 
0.109248 0.613839 0.000000 
0.441768 -0.690710 0.000000 
-0.039645 -0.190839 0.000000 
0.417537 0.511723 0.000000 
0.033296 -0.987767 0.000000 
-0.338794 -0.720493 0.000000 
-0.374519 -0.147531 0.000000 
-0.713312 0.471899 0.000000 
0.609100 0.360758 0.000000 
-0.381900 0.474697 0.000000 
-0.756418 -0.982910 0.000000 
0.513962 0.805604 0.000000 
0.218274 -0.470157 0.000000 
-0.423588 -0.504261 0.000000 
-0.384386 -0.889533 0.000000 
-0.766286 -0.374913 0.000000 
0.484677 -0.640128 0.000000 
0.139443 -0.002004 0.000000 
-0.556234 -0.119573 0.000000 
-0.823577 0.653931 0.000000 
0.550868 0.643136 0.000000 
-0.386873 -0.253764 0.000000 
-0.771260 0.246625 0.000000 
0.467428 -0.059904 0.000000 
0.105264 0.538723 0.000000 
-0.621631 0.356824 0.000000 
-0.937896 -0.939596 0.000000 
0.385608 0.981208 0.000000 
0.141715 -0.209564 0.000000 
-0.474677 -0.209467 0.000000 
CELL_DATA 175 
SCALARS MASS float 
LOOKUP_TABLE default 
0.078183 
0.086427 
0.094672 
0.086427 
0.088131 
0.092111 
0.085854 
0.092111 
0.088131 
0.088705 
0.091000 
0.086983 
0.091556 
0.086983 
0.091000 
0.088705 
0.089278 
0.091574 
0.089278 
0.092722 
0.089278 
0.092722 
0.089278 
0.091574 
0.089278 
0.078183 
0.086427 
0.094672 
0.086427 
0.088131 
0.092111 
0.085854 
0.092111 
0.088131 
0.088705 
0.091000 
0.086983 
0.091556 
0.086983 
0.091000 
0.088705 
0.089278 
0.091574 
0.089278 
0.092722 
0.089278 
0.092722 
0.089278 
0.091574 
0.089278 
0.078183 
0.086427 
0.094672 
0.086427 
0.088131 
0.092111 
0.085854 
0.092111 
0.088131 
0.088705 
0.091000 
0.086983 
0.091556 
0.086983 
0.091000 
0.088705 
0.089278 
0.091574 
0.089278 
0.092722 
0.089278 
0.092722 
0.089278 
0.091574 
0.089278 
0.078183 
0.086427 
0.094672 
0.086427 
0.088131 
0.092111 
0.085854 
0.092111 
0.088131 
0.088705 
0.091000 
0.086983 
0.091556 
0.086983 
0.091000 
0.088705 
0.089278 
0.091574 
0.089278 
0.092722 
0.089278 
0.092722 
0.089278 
0.091574 
0.089278 
0.078183 
0.086427 
0.094672 
0.086427 
0.088131 
0.092111 
0.085854 
0.092111 
0.088131 
0.088705 
0.091000 
0.086983 
0.091556 
0.086983 
0.091000 
0.088705 
0.089278 
0.091574 
0.089278 
0.092722 
0.089278 
0.092722 
0.089278 
0.091574 
0.089278 
0.078183 
0.086427 
0.094672 
0.086427 
0.088131 
0.092111 
0.085854 
0.092111 
0.088131 
0.088705 
0.091000 
0.086983 
0.091556 
0.086983 
0.091000 
0.088705 
0.089278 
0.091574 
0.089278 
0.092722 
0.089278 
0.092722 
0.089278 
0.091574 
0.089278 
0.078183 
0.086427 
0.094672 
0.086427 
0.088131 
0.092111 
0.085854 
0.092111 
0.088131 
0.088705 
0.091000 
0.086983 
0.091556 
0.086983 
0.091000 
0.088705 
0.089278 
0.091574 
0.089278 
0.092722 
0.089278 
0.092722 
0.089278 
0.091574 
0.089278 
SCALARS MASS float 
LOOKUP_TABLE default 
0.078183 
0.086427 
0.094672 
0.086427 
0.088131 
0.092111 
0.085854 
0.092111 
0.088131 
0.088705 
0.091000 
0.086983 
0.091556 
0.086983 
0.091000 
0.088705 
0.089278 
0.091574 
0.089278 
0.092722 
0.089278 
0.092722 
0.089278 
0.091574 
0.089278 
0.078183 
0.086427 
0.094672 
0.086427 
0.088131 
0.092111 
0.085854 
0.092111 
0.088131 
0.088705 
0.091000 
0.086983 
0.091556 
0.086983 
0.091000 
0.088705 
0.089278 
0.091574 
0.089278 
0.092722 
0.089278 
0.092722 
0.089278 
0.091574 
0.089278 
0.078183 
0.086427 
0.094672 
0.086427 
0.088131 
0.092111 
0.085854 
0.092111 
0.088131 
0.088705 
0.091000 
0.086983 
0.091556 
0.086983 
0.091000 
0.088705 
0.089278 
0.091574 
0.089278 
0.092722 
0.089278 
0.092722 
0.089278 
0.091574 
0.089278 
0.078183 
0.086427 
0.094672 
0.086427 
0.088131 
0.092111 
0.085854 
0.092111 
0.088131 
0.088705 
0.091000 
0.086983 
0.091556 
0.086983 
0.091000 
0.088705 
0.089278 
0.091574 
0.089278 
0.092722 
0.089278 
0.092722 
0.089278 
0.091574 
0.089278 
0.078183 
0.086427 
0.094672 
0.086427 
0.088131 
0.092111 
0.085854 
0.092111 
0.088131 
0.088705 
0.091000 
0.086983 
0.091556 
0.086983 
0.091000 
0.088705 
0.089278 
0.091574 
0.089278 
0.092722 
0.089278 
0.092722 
0.089278 
0.091574 
0.089278 
0.078183 
0.086427 
0.094672 
0.086427 
0.088131 
0.092111 
0.085854 
0.092111 
0.088131 
0.088705 
0.091000 
0.086983 
0.091556 
0.086983 
0.091000 
0.088705 
0.089278 
0.091574 
0.089278 
0.092722 
0.089278 
0.092722 
0.089278 
0.091574 
0.089278 
0.078183 
0.086427 
0.094672 
0.086427 
0.088131 
0.092111 
0.085854 
0.092111 
0.088131 
0.088705 
0.091000 
0.086983 
0.091556 
0.086983 
0.091000 
0.088705 
0.089278 
0.091574 
0.089278 
0.092722 
0.089278 
0.092722 
0.089278 
0.091574 
0.089278 
SCALARS DENSITY float 
LOOKUP_TABLE default 
20.000000 
20.000000 
20.000000 
20.000000 
20.000000 
20.000000 
20.000000 
20.000000 
20.000000 
20.000000 
20.000000 
20.000000 
20.000000 
20.000000 
20.000000 
20.000000 
20.000000 
20.000000 
20.000000 
20.000000 
20.000000 
20.000000 
20.000000 
20.000000 
20.000000 
20.000000 
20.000000 
20.000000 
20.000000 
20.000000 
20.000000 
20.000000 
20.000000 
20.000000 
20.000000 
20.000000 
20.000000 
20.000000 
20.000000 
20.000000 
20.000000 
20.000000 
20.000000 
20.000000 
20.000000 
20.000000 
20.000000 
20.000000 
20.000000 
20.000000 
20.000000 
20.000000 
20.000000 
20.000000 
20.000000 
20.000000 
20.000000 
20.000000 
20.000000 
20.000000 
20.000000 
20.000000 
20.000000 
20.000000 
20.000000 
20.000000 
20.000000 
20.000000 
20.000000 
20.000000 
20.000000 
20.000000 
20.000000 
20.000000 
20.000000 
20.000000 
20.000000 
20.000000 
20.000000 
20.000000 
20.000000 
20.000000 
20.000000 
20.000000 
20.000000 
20.000000 
20.000000 
20.000000 
20.000000 
20.000000 
20.000000 
20.000000 
20.000000 
20.000000 
20.000000 
20.000000 
20.000000 
20.000000 
20.000000 
20.000000 
20.000000 
20.000000 
20.000000 
20.000000 
20.000000 
20.000000 
20.000000 
20.000000 
20.000000 
20.000000 
20.000000 
20.000000 
20.000000 
20.000000 
20.000000 
20.000000 
20.000000 
20.000000 
20.000000 
20.000000 
20.000000 
20.000000 
20.000000 
20.000000 
20.000000 
20.000000 
20.000000 
20.000000 
20.000000 
20.000000 
20.000000 
20.000000 
20.000000 
20.000000 
20.000000 
20.000000 
20.000000 
20.000000 
20.000000 
20.000000 
20.000000 
20.000000 
20.000000 
20.000000 
20.000000 
20.000000 
20.000000 
20.000000 
20.000000 
20.000000 
20.000000 
20.000000 
20.000000 
20.000000 
20.000000 
20.000000 
20.000000 
20.000000 
20.000000 
20.000000 
20.000000 
20.000000 
20.000000 
20.000000 
20.000000 
20.000000 
20.000000 
20.000000 
20.000000 
20.000000 
20.000000 
20.000000 
20.000000 
20.000000 
20.000000 
SCALARS ELEM_i float 
LOOKUP_TABLE default 
176 
204 
177 
177 
204 
204 
205 
177 
178 
232 
205 
205 
205 
205 
178 
178 
232 
232 
233 
205 
206 
206 
206 
179 
179 
176 
203 
203 
204 
230 
203 
230 
204 
204 
230 
230 
230 
230 
231 
231 
231 
256 
257 
257 
257 
258 
258 
258 
231 
232 
176 
202 
202 
203 
201 
202 
202 
202 
229 
201 
201 
228 
229 
229 
229 
229 
200 
228 
228 
228 
228 
228 
256 
256 
256 
176 
175 
175 
175 
147 
174 
174 
174 
201 
147 
147 
174 
174 
174 
201 
201 
146 
146 
146 
173 
173 
173 
200 
200 
200 
176 
149 
148 
148 
121 
148 
148 
148 
147 
121 
121 
121 
121 
120 
147 
147 
94 
94 
94 
120 
120 
120 
120 
120 
146 
176 
150 
149 
149 
150 
150 
122 
149 
122 
123 
123 
123 
122 
122 
122 
122 
124 
123 
96 
96 
96 
95 
95 
95 
94 
176 
177 
177 
150 
178 
177 
151 
150 
150 
178 
178 
151 
151 
151 
151 
124 
179 
179 
152 
152 
152 
151 
125 
124 
124 
VECTORS VELOCITY float 
-0.000000 -4.089593 0.000000 
0.000000 -4.089593 0.000000 
0.000000 -4.089593 0.000000 
0.000000 -4.089593 0.000000 
0.000000 -4.089593 0.000000 
0.000000 -4.089593 0.000000 
0.000000 -4.089593 0.000000 
0.000000 -4.089593 0.000000 
0.000000 -4.089593 0.000000 
0.000000 -4.089593 0.000000 
-0.000000 -4.089593 0.000000 
0.000000 -4.089593 0.000000 
0.000000 -4.089593 0.000000 
0.000000 -4.089593 0.000000 
0.000000 -4.089593 0.000000 
0.000000 -4.089593 0.000000 
0.000000 -4.089593 0.000000 
0.000000 -4.089593 0.000000 
0.000000 -4.089593 0.000000 
0.000000 -4.089593 0.000000 
-0.000000 -4.089593 0.000000 
-0.000000 -4.089593 0.000000 
-0.000000 -4.089593 0.000000 
-0.000000 -4.089593 0.000000 
-0.000000 -4.089593 0.000000 
0.000000 -4.089593 0.000000 
-0.000000 -4.089593 0.000000 
-0.000000 -4.089593 0.000000 
0.000000 -4.089593 0.000000 
-0.000000 -4.089593 0.000000 
-0.000000 -4.089593 0.000000 
0.000000 -4.089593 0.000000 
0.000000 -4.089593 0.000000 
0.000000 -4.089593 0.000000 
0.000000 -4.089593 0.000000 
0.000000 -4.089593 0.000000 
0.000000 -4.089593 0.000000 
0.000000 -4.089593 0.000000 
0.000000 -4.089593 0.000000 
0.000000 -4.089593 0.000000 
0.000000 -4.089593 0.000000 
0.000000 -4.089593 0.000000 
0.000000 -4.089593 0.000000 
0.000000 -4.089593 0.000000 
0.000000 -4.089593 0.000000 
-0.000000 -4.089593 0.000000 
0.000000 -4.089593 0.000000 
0.000000 -4.089593 0.000000 
0.000000 -4.089593 0.000000 
0.000000 -4.089593 0.000000 
0.000000 -4.089593 0.000000 
-0.000000 -4.089593 0.000000 
-0.000000 -4.089593 0.000000 
-0.000000 -4.089593 0.000000 
-0.000000 -4.089593 0.000000 
-0.000000 -4.089593 0.000000 
0.000000 -4.089593 0.000000 
-0.000000 -4.089593 0.000000 
-0.000000 -4.089593 0.000000 
-0.000000 -4.089593 0.000000 
-0.000000 -4.089593 0.000000 
-0.000000 -4.089593 0.000000 
0.000000 -4.089593 0.000000 
0.000000 -4.089593 0.000000 
0.000000 -4.089593 0.000000 
0.000000 -4.089593 0.000000 
0.000000 -4.089593 0.000000 
0.000000 -4.089593 0.000000 
0.000000 -4.089593 0.000000 
-0.000000 -4.089593 0.000000 
-0.000000 -4.089593 0.000000 
0.000000 -4.089593 0.000000 
-0.000000 -4.089593 0.000000 
0.000000 -4.089593 0.000000 
0.000000 -4.089593 0.000000 
0.000000 -4.089593 0.000000 
-0.000000 -4.089593 0.000000 
-0.000000 -4.089593 0.000000 
-0.000000 -4.089593 0.000000 
-0.000000 -4.089593 0.000000 
-0.000000 -4.089593 0.000000 
-0.000000 -4.089593 0.000000 
-0.000000 -4.089593 0.000000 
0.000000 -4.089593 0.000000 
0.000000 -4.089593 0.000000 
-0.000000 -4.089593 0.000000 
0.000000 -4.089593 0.000000 
0.000000 -4.089593 0.000000 
0.000000 -4.089593 0.000000 
0.000000 -4.089593 0.000000 
0.000000 -4.089593 0.000000 
-0.000000 -4.089593 0.000000 
0.000000 -4.089593 0.000000 
-0.000000 -4.089593 0.000000 
-0.000000 -4.089593 0.000000 
-0.000000 -4.089593 0.000000 
-0.000000 -4.089593 0.000000 
-0.000000 -4.089593 0.000000 
-0.000000 -4.089593 0.000000 
-0.000000 -4.089593 0.000000 
0.000000 -4.089593 0.000000 
0.000000 -4.089593 0.000000 
0.000000 -4.089593 0.000000 
0.000000 -4.089593 0.000000 
-0.000000 -4.089593 0.000000 
0.000000 -4.089593 0.000000 
0.000000 -4.089593 0.000000 
-0.000000 -4.089593 0.000000 
-0.000000 -4.089593 0.000000 
-0.000000 -4.089593 0.000000 
-0.000000 -4.089593 0.000000 
-0.000000 -4.089593 0.000000 
0.000000 -4.089593 0.000000 
0.000000 -4.089593 0.000000 
-0.000000 -4.089593 0.000000 
-0.000000 -4.089593 0.000000 
-0.000000 -4.089593 0.000000 
-0.000000 -4.089593 0.000000 
0.000000 -4.089593 0.000000 
-0.000000 -4.089593 0.000000 
0.000000 -4.089593 0.000000 
0.000000 -4.089593 0.000000 
-0.000000 -4.089593 0.000000 
-0.000000 -4.089593 0.000000 
0.000000 -4.089593 0.000000 
0.000000 -4.089593 0.000000 
-0.000000 -4.089593 0.000000 
0.000000 -4.089593 0.000000 
0.000000 -4.089593 0.000000 
-0.000000 -4.089593 0.000000 
-0.000000 -4.089593 0.000000 
0.000000 -4.089593 0.000000 
-0.000000 -4.089593 0.000000 
0.000000 -4.089593 0.000000 
-0.000000 -4.089593 0.000000 
-0.000000 -4.089593 0.000000 
0.000000 -4.089593 0.000000 
0.000000 -4.089593 0.000000 
0.000000 -4.089593 0.000000 
-0.000000 -4.089593 0.000000 
-0.000000 -4.089593 0.000000 
0.000000 -4.089593 0.000000 
0.000000 -4.089593 0.000000 
-0.000000 -4.089593 0.000000 
-0.000000 -4.089593 0.000000 
-0.000000 -4.089593 0.000000 
-0.000000 -4.089593 0.000000 
-0.000000 -4.089593 0.000000 
-0.000000 -4.089593 0.000000 
-0.000000 -4.089593 0.000000 
0.000000 -4.089593 0.000000 
0.000000 -4.089593 0.000000 
0.000000 -4.089593 0.000000 
-0.000000 -4.089593 0.000000 
-0.000000 -4.089593 0.000000 
0.000000 -4.089593 0.000000 
0.000000 -4.089593 0.000000 
-0.000000 -4.089593 0.000000 
-0.000000 -4.089593 0.000000 
0.000000 -4.089593 0.000000 
-0.000000 -4.089593 0.000000 
-0.000000 -4.089593 0.000000 
-0.000000 -4.089593 0.000000 
-0.000000 -4.089593 0.000000 
-0.000000 -4.089593 0.000000 
-0.000000 -4.089593 0.000000 
-0.000000 -4.089593 0.000000 
0.000000 -4.089593 0.000000 
0.000000 -4.089593 0.000000 
-0.000000 -4.089593 0.000000 
-0.000000 -4.089593 0.000000 
-0.000000 -4.089593 0.000000 
-0.000000 -4.089593 0.000000 
0.000000 -4.089593 0.000000 
0.000000 -4.089593 0.000000 
TENSORS STRESS float 
0.000000 -0.000000 0.000000 
0.000000 -0.000000 0.000000 
0.000000 0.000000 0.000000 

-0.000000 0.000000 0.000000 
0.000000 0.000000 0.000000 
0.000000 0.000000 0.000000 

0.000000 -0.000000 0.000000 
0.000000 0.000000 0.000000 
0.000000 0.000000 0.000000 

0.000000 -0.000000 0.000000 
0.000000 -0.000000 0.000000 
0.000000 0.000000 0.000000 

0.000000 -0.000000 0.000000 
0.000000 0.000000 0.000000 
0.000000 0.000000 0.000000 

0.000000 -0.000000 0.000000 
0.000000 0.000000 0.000000 
0.000000 0.000000 0.000000 

0.000000 0.000000 0.000000 
0.000000 -0.000000 0.000000 
0.000000 0.000000 0.000000 

0.000000 -0.000000 0.000000 
0.000000 0.000000 0.000000 
0.000000 0.000000 0.000000 

-0.000000 -0.000000 0.000000 
0.000000 -0.000000 0.000000 
0.000000 0.000000 0.000000 

-0.000000 0.000000 0.000000 
0.000000 0.000000 0.000000 
0.000000 0.000000 0.000000 

0.000000 -0.000000 0.000000 
0.000000 0.000000 0.000000 
0.000000 0.000000 0.000000 

0.000000 0.000000 0.000000 
0.000000 -0.000000 0.000000 
0.000000 0.000000 0.000000 

0.000000 -0.000000 0.000000 
0.000000 0.000000 0.000000 
0.000000 0.000000 0.000000 

0.000000 -0.000000 0.000000 
0.000000 -0.000000 0.000000 
0.000000 0.000000 0.000000 

-0.000000 0.000000 0.000000 
0.000000 -0.000000 0.000000 
0.000000 0.000000 0.000000 

0.000000 0.000000 0.000000 
0.000000 0.000000 0.000000 
0.000000 0.000000 0.000000 

0.000000 -0.000000 0.000000 
0.000000 0.000000 0.000000 
0.000000 0.000000 0.000000 

-0.000000 -0.000000 0.000000 
0.000000 -0.000000 0.000000 
0.000000 0.000000 0.000000 

-0.000000 0.000000 0.000000 
0.000000 -0.000000 0.000000 
0.000000 0.000000 0.000000 

0.000000 0.000000 0.000000 
0.000000 -0.000000 0.000000 
0.000000 0.000000 0.000000 

0.000000 -0.000000 0.000000 
0.000000 0.000000 0.000000 
0.000000 0.000000 0.000000 

0.000000 -0.000000 0.000000 
0.000000 0.000000 0.000000 
0.000000 0.000000 0.000000 

0.000000 -0.000000 0.000000 
0.000000 -0.000000 0.000000 
0.000000 0.000000 0.000000 

0.000000 -0.000000 0.000000 
0.000000 -0.000000 0.000000 
0.000000 0.000000 0.000000 

0.000000 -0.000000 0.000000 
0.000000 0.000000 0.000000 
0.000000 0.000000 0.000000 

0.000000 0.000000 0.000000 
0.000000 0.000000 0.000000 
0.000000 0.000000 0.000000 

0.000000 -0.000000 0.000000 
0.000000 0.000000 0.000000 
0.000000 0.000000 0.000000 

0.000000 -0.000000 0.000000 
0.000000 0.000000 0.000000 
0.000000 0.000000 0.000000 

-0.000000 -0.000000 0.000000 
0.000000 -0.000000 0.000000 
0.000000 0.000000 0.000000 

0.000000 0.000000 0.000000 
0.000000 0.000000 0.000000 
0.000000 0.000000 0.000000 

0.000000 -0.000000 0.000000 
0.000000 0.000000 0.000000 
0.000000 0.000000 0.000000 

0.000000 0.000000 0.000000 
0.000000 -0.000000 0.000000 
0.000000 0.000000 0.000000 

-0.000000 -0.000000 0.000000 
0.000000 -0.000000 0.000000 
0.000000 0.000000 0.000000 

-0.000000 -0.000000 0.000000 
0.000000 -0.000000 0.000000 
0.000000 0.000000 0.000000 

-0.000000 -0.000000 0.000000 
0.000000 -0.000000 0.000000 
0.000000 0.000000 0.000000 

0.000000 0.000000 0.000000 
0.000000 0.000000 0.000000 
0.000000 0.000000 0.000000 

0.000000 -0.000000 0.000000 
0.000000 0.000000 0.000000 
0.000000 0.000000 0.000000 

0.000000 0.000000 0.000000 
0.000000 0.000000 0.000000 
0.000000 0.000000 0.000000 

0.000000 -0.000000 0.000000 
0.000000 0.000000 0.000000 
0.000000 0.000000 0.000000 

0.000000 -0.000000 0.000000 
0.000000 0.000000 0.000000 
0.000000 0.000000 0.000000 

0.000000 -0.000000 0.000000 
0.000000 0.000000 0.000000 
0.000000 0.000000 0.000000 

0.000000 0.000000 0.000000 
0.000000 -0.000000 0.000000 
0.000000 0.000000 0.000000 

0.000000 -0.000000 0.000000 
0.000000 0.000000 0.000000 
0.000000 0.000000 0.000000 

-0.000000 -0.000000 0.000000 
0.000000 -0.000000 0.000000 
0.000000 0.000000 0.000000 

-0.000000 0.000000 0.000000 
0.000000 0.000000 0.000000 
0.000000 0.000000 0.000000 

-0.000000 0.000000 0.000000 
0.000000 0.000000 0.000000 
0.000000 0.000000 0.000000 

-0.000000 0.000000 0.000000 
0.000000 -0.000000 0.000000 
0.000000 0.000000 0.000000 

0.000000 -0.000000 0.000000 
0.000000 -0.000000 0.000000 
0.000000 0.000000 0.000000 

-0.000000 -0.000000 0.000000 
0.000000 -0.000000 0.000000 
0.000000 0.000000 0.000000 

-0.000000 0.000000 0.000000 
0.000000 -0.000000 0.000000 
0.000000 0.000000 0.000000 

-0.000000 -0.000000 0.000000 
0.000000 0.000000 0.000000 
0.000000 0.000000 0.000000 

-0.000000 -0.000000 0.000000 
0.000000 -0.000000 0.000000 
0.000000 0.000000 0.000000 

-0.000000 -0.000000 0.000000 
0.000000 -0.000000 0.000000 
0.000000 0.000000 0.000000 

0.000000 -0.000000 0.000000 
0.000000 -0.000000 0.000000 
0.000000 0.000000 0.000000 

-0.000000 0.000000 0.000000 
0.000000 -0.000000 0.000000 
0.000000 0.000000 0.000000 

-0.000000 0.000000 0.000000 
0.000000 -0.000000 0.000000 
0.000000 0.000000 0.000000 

0.000000 0.000000 0.000000 
0.000000 0.000000 0.000000 
0.000000 0.000000 0.000000 

-0.000000 0.000000 0.000000 
0.000000 0.000000 0.000000 
0.000000 0.000000 0.000000 

0.000000 -0.000000 0.000000 
0.000000 0.000000 0.000000 
0.000000 0.000000 0.000000 

0.000000 0.000000 0.000000 
0.000000 0.000000 0.000000 
0.000000 0.000000 0.000000 

0.000000 0.000000 0.000000 
0.000000 0.000000 0.000000 
0.000000 0.000000 0.000000 

0.000000 0.000000 0.000000 
0.000000 0.000000 0.000000 
0.000000 0.000000 0.000000 

-0.000000 0.000000 0.000000 
0.000000 -0.000000 0.000000 
0.000000 0.000000 0.000000 

0.000000 -0.000000 0.000000 
0.000000 0.000000 0.000000 
0.000000 0.000000 0.000000 

0.000000 0.000000 0.000000 
0.000000 -0.000000 0.000000 
0.000000 0.000000 0.000000 

0.000000 0.000000 0.000000 
0.000000 -0.000000 0.000000 
0.000000 0.000000 0.000000 

-0.000000 -0.000000 0.000000 
0.000000 -0.000000 0.000000 
0.000000 0.000000 0.000000 

0.000000 0.000000 0.000000 
0.000000 0.000000 0.000000 
0.000000 0.000000 0.000000 

0.000000 0.000000 0.000000 
0.000000 -0.000000 0.000000 
0.000000 0.000000 0.000000 

0.000000 0.000000 0.000000 
0.000000 0.000000 0.000000 
0.000000 0.000000 0.000000 

0.000000 0.000000 0.000000 
0.000000 0.000000 0.000000 
0.000000 0.000000 0.000000 

-0.000000 -0.000000 0.000000 
0.000000 -0.000000 0.000000 
0.000000 0.000000 0.000000 

0.000000 -0.000000 0.000000 
0.000000 0.000000 0.000000 
0.000000 0.000000 0.000000 

-0.000000 -0.000000 0.000000 
0.000000 -0.000000 0.000000 
0.000000 0.000000 0.000000 

-0.000000 -0.000000 0.000000 
0.000000 -0.000000 0.000000 
0.000000 0.000000 0.000000 

-0.000000 -0.000000 0.000000 
0.000000 -0.000000 0.000000 
0.000000 0.000000 0.000000 

-0.000000 -0.000000 0.000000 
0.000000 -0.000000 0.000000 
0.000000 0.000000 0.000000 

-0.000000 -0.000000 0.000000 
0.000000 -0.000000 0.000000 
0.000000 0.000000 0.000000 

0.000000 -0.000000 0.000000 
0.000000 0.000000 0.000000 
0.000000 0.000000 0.000000 

-0.000000 -0.000000 0.000000 
0.000000 -0.000000 0.000000 
0.000000 0.000000 0.000000 

0.000000 0.000000 0.000000 
0.000000 0.000000 0.000000 
0.000000 0.000000 0.000000 

-0.000000 0.000000 0.000000 
0.000000 -0.000000 0.000000 
0.000000 0.000000 0.000000 

0.000000 0.000000 0.000000 
0.000000 0.000000 0.000000 
0.000000 0.000000 0.000000 

-0.000000 -0.000000 0.000000 
0.000000 0.000000 0.000000 
0.000000 0.000000 0.000000 

-0.000000 0.000000 0.000000 
0.000000 0.000000 0.000000 
0.000000 0.000000 0.000000 

0.000000 0.000000 0.000000 
0.000000 0.000000 0.000000 
0.000000 0.000000 0.000000 

-0.000000 -0.000000 0.000000 
0.000000 0.000000 0.000000 
0.000000 0.000000 0.000000 

-0.000000 -0.000000 0.000000 
0.000000 -0.000000 0.000000 
0.000000 0.000000 0.000000 

-0.000000 0.000000 0.000000 
0.000000 -0.000000 0.000000 
0.000000 0.000000 0.000000 

-0.000000 -0.000000 0.000000 
0.000000 -0.000000 0.000000 
0.000000 0.000000 0.000000 

0.000000 -0.000000 0.000000 
0.000000 0.000000 0.000000 
0.000000 0.000000 0.000000 

-0.000000 0.000000 0.000000 
0.000000 -0.000000 0.000000 
0.000000 0.000000 0.000000 

-0.000000 0.000000 0.000000 
0.000000 -0.000000 0.000000 
0.000000 0.000000 0.000000 

-0.000000 -0.000000 0.000000 
0.000000 -0.000000 0.000000 
0.000000 0.000000 0.000000 

-0.000000 0.000000 0.000000 
0.000000 -0.000000 0.000000 
0.000000 0.000000 0.000000 

0.000000 0.000000 0.000000 
0.000000 0.000000 0.000000 
0.000000 0.000000 0.000000 

-0.000000 0.000000 0.000000 
0.000000 -0.000000 0.000000 
0.000000 0.000000 0.000000 

-0.000000 0.000000 0.000000 
0.000000 0.000000 0.000000 
0.000000 0.000000 0.000000 

0.000000 -0.000000 0.000000 
0.000000 0.000000 0.000000 
0.000000 0.000000 0.000000 

0.000000 -0.000000 0.000000 
0.000000 0.000000 0.000000 
0.000000 0.000000 0.000000 

-0.000000 -0.000000 0.000000 
0.000000 -0.000000 0.000000 
0.000000 0.000000 0.000000 

0.000000 0.000000 0.000000 
0.000000 0.000000 0.000000 
0.000000 0.000000 0.000000 

-0.000000 0.000000 0.000000 
0.000000 -0.000000 0.000000 
0.000000 0.000000 0.000000 

0.000000 -0.000000 0.000000 
0.000000 0.000000 0.000000 
0.000000 0.000000 0.000000 

-0.000000 -0.000000 0.000000 
0.000000 -0.000000 0.000000 
0.000000 0.000000 0.000000 

0.000000 0.000000 0.000000 
0.000000 0.000000 0.000000 
0.000000 0.000000 0.000000 

-0.000000 -0.000000 0.000000 
0.000000 0.000000 0.000000 
0.000000 0.000000 0.000000 

-0.000000 -0.000000 0.000000 
0.000000 0.000000 0.000000 
0.000000 0.000000 0.000000 

0.000000 -0.000000 0.000000 
0.000000 0.000000 0.000000 
0.000000 0.000000 0.000000 

-0.000000 0.000000 0.000000 
0.000000 -0.000000 0.000000 
0.000000 0.000000 0.000000 

-0.000000 -0.000000 0.000000 
0.000000 -0.000000 0.000000 
0.000000 0.000000 0.000000 

-0.000000 -0.000000 0.000000 
0.000000 0.000000 0.000000 
0.000000 0.000000 0.000000 

0.000000 0.000000 0.000000 
0.000000 0.000000 0.000000 
0.000000 0.000000 0.000000 

0.000000 0.000000 0.000000 
0.000000 -0.000000 0.000000 
0.000000 0.000000 0.000000 

0.000000 0.000000 0.000000 
0.000000 0.000000 0.000000 
0.000000 0.000000 0.000000 

0.000000 -0.000000 0.000000 
0.000000 -0.000000 0.000000 
0.000000 0.000000 0.000000 

-0.000000 -0.000000 0.000000 
0.000000 -0.000000 0.000000 
0.000000 0.000000 0.000000 

0.000000 0.000000 0.000000 
0.000000 0.000000 0.000000 
0.000000 0.000000 0.000000 

-0.000000 0.000000 0.000000 
0.000000 -0.000000 0.000000 
0.000000 0.000000 0.000000 

-0.000000 -0.000000 0.000000 
0.000000 -0.000000 0.000000 
0.000000 0.000000 0.000000 

0.000000 0.000000 0.000000 
0.000000 -0.000000 0.000000 
0.000000 0.000000 0.000000 

0.000000 0.000000 0.000000 
0.000000 0.000000 0.000000 
0.000000 0.000000 0.000000 

0.000000 -0.000000 0.000000 
0.000000 -0.000000 0.000000 
0.000000 0.000000 0.000000 

0.000000 -0.000000 0.000000 
0.000000 -0.000000 0.000000 
0.000000 0.000000 0.000000 

0.000000 0.000000 0.000000 
0.000000 0.000000 0.000000 
0.000000 0.000000 0.000000 

-0.000000 -0.000000 0.000000 
0.000000 -0.000000 0.000000 
0.000000 0.000000 0.000000 

-0.000000 -0.000000 0.000000 
0.000000 -0.000000 0.000000 
0.000000 0.000000 0.000000 

0.000000 0.000000 0.000000 
0.000000 0.000000 0.000000 
0.000000 0.000000 0.000000 

0.000000 0.000000 0.000000 
0.000000 0.000000 0.000000 
0.000000 0.000000 0.000000 

-0.000000 0.000000 0.000000 
0.000000 -0.000000 0.000000 
0.000000 0.000000 0.000000 

0.000000 -0.000000 0.000000 
0.000000 0.000000 0.000000 
0.000000 0.000000 0.000000 

-0.000000 0.000000 0.000000 
0.000000 -0.000000 0.000000 
0.000000 0.000000 0.000000 

-0.000000 -0.000000 0.000000 
0.000000 0.000000 0.000000 
0.000000 0.000000 0.000000 

0.000000 0.000000 0.000000 
0.000000 -0.000000 0.000000 
0.000000 0.000000 0.000000 

0.000000 -0.000000 0.000000 
0.000000 -0.000000 0.000000 
0.000000 0.000000 0.000000 

0.000000 0.000000 0.000000 
0.000000 -0.000000 0.000000 
0.000000 0.000000 0.000000 

-0.000000 -0.000000 0.000000 
0.000000 -0.000000 0.000000 
0.000000 0.000000 0.000000 

-0.000000 0.000000 0.000000 
0.000000 0.000000 0.000000 
0.000000 0.000000 0.000000 

-0.000000 -0.000000 0.000000 
0.000000 -0.000000 0.000000 
0.000000 0.000000 0.000000 

-0.000000 0.000000 0.000000 
0.000000 -0.000000 0.000000 
0.000000 0.000000 0.000000 

0.000000 0.000000 0.000000 
0.000000 0.000000 0.000000 
0.000000 0.000000 0.000000 

0.000000 -0.000000 0.000000 
0.000000 -0.000000 0.000000 
0.000000 0.000000 0.000000 

0.000000 -0.000000 0.000000 
0.000000 0.000000 0.000000 
0.000000 0.000000 0.000000 

-0.000000 0.000000 0.000000 
0.000000 -0.000000 0.000000 
0.000000 0.000000 0.000000 

0.000000 -0.000000 0.000000 
0.000000 0.000000 0.000000 
0.000000 0.000000 0.000000 

-0.000000 0.000000 0.000000 
0.000000 -0.000000 0.000000 
0.000000 0.000000 0.000000 

-0.000000 -0.000000 0.000000 
0.000000 -0.000000 0.000000 
0.000000 0.000000 0.000000 

-0.000000 -0.000000 0.000000 
0.000000 -0.000000 0.000000 
0.000000 0.000000 0.000000 

0.000000 -0.000000 0.000000 
0.000000 0.000000 0.000000 
0.000000 0.000000 0.000000 

-0.000000 0.000000 0.000000 
0.000000 -0.000000 0.000000 
0.000000 0.000000 0.000000 

0.000000 0.000000 0.000000 
0.000000 0.000000 0.000000 
0.000000 0.000000 0.000000 

0.000000 -0.000000 0.000000 
0.000000 0.000000 0.000000 
0.000000 0.000000 0.000000 

0.000000 0.000000 0.000000 
0.000000 0.000000 0.000000 
0.000000 0.000000 0.000000 

-0.000000 -0.000000 0.000000 
0.000000 -0.000000 0.000000 
0.000000 0.000000 0.000000 

0.000000 -0.000000 0.000000 
0.000000 0.000000 0.000000 
0.000000 0.000000 0.000000 

0.000000 -0.000000 0.000000 
0.000000 0.000000 0.000000 
0.000000 0.000000 0.000000 

-0.000000 0.000000 0.000000 
0.000000 -0.000000 0.000000 
0.000000 0.000000 0.000000 

-0.000000 0.000000 0.000000 
0.000000 -0.000000 0.000000 
0.000000 0.000000 0.000000 

0.000000 0.000000 0.000000 
0.000000 0.000000 0.000000 
0.000000 0.000000 0.000000 

0.000000 0.000000 0.000000 
0.000000 0.000000 0.000000 
0.000000 0.000000 0.000000 

0.000000 0.000000 0.000000 
0.000000 0.000000 0.000000 
0.000000 0.000000 0.000000 

0.000000 -0.000000 0.000000 
0.000000 0.000000 0.000000 
0.000000 0.000000 0.000000 

0.000000 -0.000000 0.000000 
0.000000 -0.000000 0.000000 
0.000000 0.000000 0.000000 

0.000000 0.000000 0.000000 
0.000000 0.000000 0.000000 
0.000000 0.000000 0.000000 

-0.000000 0.000000 0.000000 
0.000000 0.000000 0.000000 
0.000000 0.000000 0.000000 

0.000000 -0.000000 0.000000 
0.000000 -0.000000 0.000000 
0.000000 0.000000 0.000000 

0.000000 -0.000000 0.000000 
0.000000 0.000000 0.000000 
0.000000 0.000000 0.000000 

0.000000 0.000000 0.000000 
0.000000 0.000000 0.000000 
0.000000 0.000000 0.000000 

0.000000 0.000000 0.000000 
0.000000 0.000000 0.000000 
0.000000 0.000000 0.000000 

0.000000 0.000000 0.000000 
0.000000 -0.000000 0.000000 
0.000000 0.000000 0.000000 

0.000000 0.000000 0.000000 
0.000000 0.000000 0.000000 
0.000000 0.000000 0.000000 

0.000000 0.000000 0.000000 
0.000000 0.000000 0.000000 
0.000000 0.000000 0.000000 

0.000000 0.000000 0.000000 
0.000000 -0.000000 0.000000 
0.000000 0.000000 0.000000 

-0.000000 0.000000 0.000000 
0.000000 -0.000000 0.000000 
0.000000 0.000000 0.000000 

-0.000000 0.000000 0.000000 
0.000000 -0.000000 0.000000 
0.000000 0.000000 0.000000 

TENSORS STRAIN float 
0.000000 -0.000000 0.000000 
0.000000 -0.000000 0.000000 
0.000000 0.000000 0.000000 

-0.000000 0.000000 0.000000 
0.000000 0.000000 0.000000 
0.000000 0.000000 0.000000 

0.000000 -0.000000 0.000000 
0.000000 0.000000 0.000000 
0.000000 0.000000 0.000000 

0.000000 -0.000000 0.000000 
0.000000 -0.000000 0.000000 
0.000000 0.000000 0.000000 

0.000000 -0.000000 0.000000 
0.000000 0.000000 0.000000 
0.000000 0.000000 0.000000 

0.000000 -0.000000 0.000000 
0.000000 0.000000 0.000000 
0.000000 0.000000 0.000000 

0.000000 0.000000 0.000000 
0.000000 -0.000000 0.000000 
0.000000 0.000000 0.000000 

0.000000 -0.000000 0.000000 
0.000000 -0.000000 0.000000 
0.000000 0.000000 0.000000 

0.000000 -0.000000 0.000000 
0.000000 -0.000000 0.000000 
0.000000 0.000000 0.000000 

-0.000000 0.000000 0.000000 
0.000000 0.000000 0.000000 
0.000000 0.000000 0.000000 

0.000000 -0.000000 0.000000 
0.000000 -0.000000 0.000000 
0.000000 0.000000 0.000000 

0.000000 0.000000 0.000000 
0.000000 -0.000000 0.000000 
0.000000 0.000000 0.000000 

0.000000 -0.000000 0.000000 
0.000000 0.000000 0.000000 
0.000000 0.000000 0.000000 

0.000000 -0.000000 0.000000 
0.000000 -0.000000 0.000000 
0.000000 0.000000 0.000000 

0.000000 0.000000 0.000000 
0.000000 -0.000000 0.000000 
0.000000 0.000000 0.000000 

0.000000 0.000000 0.000000 
0.000000 0.000000 0.000000 
0.000000 0.000000 0.000000 

0.000000 -0.000000 0.000000 
0.000000 0.000000 0.000000 
0.000000 0.000000 0.000000 

0.000000 -0.000000 0.000000 
0.000000 -0.000000 0.000000 
0.000000 0.000000 0.000000 

0.000000 0.000000 0.000000 
0.000000 -0.000000 0.000000 
0.000000 0.000000 0.000000 

0.000000 0.000000 0.000000 
0.000000 -0.000000 0.000000 
0.000000 0.000000 0.000000 

0.000000 -0.000000 0.000000 
0.000000 0.000000 0.000000 
0.000000 0.000000 0.000000 

0.000000 -0.000000 0.000000 
0.000000 0.000000 0.000000 
0.000000 0.000000 0.000000 

0.000000 -0.000000 0.000000 
0.000000 -0.000000 0.000000 
0.000000 0.000000 0.000000 

0.000000 -0.000000 0.000000 
0.000000 -0.000000 0.000000 
0.000000 0.000000 0.000000 

0.000000 -0.000000 0.000000 
0.000000 0.000000 0.000000 
0.000000 0.000000 0.000000 

-0.000000 0.000000 0.000000 
0.000000 0.000000 0.000000 
0.000000 0.000000 0.000000 

0.000000 -0.000000 0.000000 
0.000000 0.000000 0.000000 
0.000000 0.000000 0.000000 

0.000000 -0.000000 0.000000 
0.000000 0.000000 0.000000 
0.000000 0.000000 0.000000 

-0.000000 -0.000000 0.000000 
0.000000 -0.000000 0.000000 
0.000000 0.000000 0.000000 

0.000000 0.000000 0.000000 
0.000000 0.000000 0.000000 
0.000000 0.000000 0.000000 

0.000000 -0.000000 0.000000 
0.000000 0.000000 0.000000 
0.000000 0.000000 0.000000 

0.000000 0.000000 0.000000 
0.000000 -0.000000 0.000000 
0.000000 0.000000 0.000000 

-0.000000 -0.000000 0.000000 
0.000000 0.000000 0.000000 
0.000000 0.000000 0.000000 

-0.000000 -0.000000 0.000000 
0.000000 -0.000000 0.000000 
0.000000 0.000000 0.000000 

0.000000 -0.000000 0.000000 
0.000000 -0.000000 0.000000 
0.000000 0.000000 0.000000 

0.000000 0.000000 0.000000 
0.000000 0.000000 0.000000 
0.000000 0.000000 0.000000 

0.000000 -0.000000 0.000000 
0.000000 0.000000 0.000000 
0.000000 0.000000 0.000000 

0.000000 0.000000 0.000000 
0.000000 0.000000 0.000000 
0.000000 0.000000 0.000000 

0.000000 -0.000000 0.000000 
0.000000 0.000000 0.000000 
0.000000 0.000000 0.000000 

0.000000 -0.000000 0.000000 
0.000000 0.000000 0.000000 
0.000000 0.000000 0.000000 

-0.000000 -0.000000 0.000000 
0.000000 0.000000 0.000000 
0.000000 0.000000 0.000000 

0.000000 0.000000 0.000000 
0.000000 -0.000000 0.000000 
0.000000 0.000000 0.000000 

0.000000 -0.000000 0.000000 
0.000000 0.000000 0.000000 
0.000000 0.000000 0.000000 

-0.000000 -0.000000 0.000000 
0.000000 0.000000 0.000000 
0.000000 0.000000 0.000000 

-0.000000 0.000000 0.000000 
0.000000 0.000000 0.000000 
0.000000 0.000000 0.000000 

-0.000000 0.000000 0.000000 
0.000000 0.000000 0.000000 
0.000000 0.000000 0.000000 

-0.000000 0.000000 0.000000 
0.000000 -0.000000 0.000000 
0.000000 0.000000 0.000000 

0.000000 -0.000000 0.000000 
0.000000 -0.000000 0.000000 
0.000000 0.000000 0.000000 

0.000000 -0.000000 0.000000 
0.000000 -0.000000 0.000000 
0.000000 0.000000 0.000000 

-0.000000 0.000000 0.000000 
0.000000 -0.000000 0.000000 
0.000000 0.000000 0.000000 

-0.000000 -0.000000 0.000000 
0.000000 0.000000 0.000000 
0.000000 0.000000 0.000000 

-0.000000 -0.000000 0.000000 
0.000000 -0.000000 0.000000 
0.000000 0.000000 0.000000 

0.000000 -0.000000 0.000000 
0.000000 -0.000000 0.000000 
0.000000 0.000000 0.000000 

0.000000 -0.000000 0.000000 
0.000000 -0.000000 0.000000 
0.000000 0.000000 0.000000 

-0.000000 0.000000 0.000000 
0.000000 -0.000000 0.000000 
0.000000 0.000000 0.000000 

-0.000000 0.000000 0.000000 
0.000000 -0.000000 0.000000 
0.000000 0.000000 0.000000 

-0.000000 0.000000 0.000000 
0.000000 0.000000 0.000000 
0.000000 0.000000 0.000000 

-0.000000 0.000000 0.000000 
0.000000 0.000000 0.000000 
0.000000 0.000000 0.000000 

0.000000 -0.000000 0.000000 
0.000000 0.000000 0.000000 
0.000000 0.000000 0.000000 

0.000000 0.000000 0.000000 
0.000000 0.000000 0.000000 
0.000000 0.000000 0.000000 

0.000000 0.000000 0.000000 
0.000000 0.000000 0.000000 
0.000000 0.000000 0.000000 

0.000000 0.000000 0.000000 
0.000000 0.000000 0.000000 
0.000000 0.000000 0.000000 

0.000000 0.000000 0.000000 
0.000000 -0.000000 0.000000 
0.000000 0.000000 0.000000 

0.000000 -0.000000 0.000000 
0.000000 -0.000000 0.000000 
0.000000 0.000000 0.000000 

0.000000 0.000000 0.000000 
0.000000 -0.000000 0.000000 
0.000000 0.000000 0.000000 

0.000000 0.000000 0.000000 
0.000000 -0.000000 0.000000 
0.000000 0.000000 0.000000 

-0.000000 -0.000000 0.000000 
0.000000 -0.000000 0.000000 
0.000000 0.000000 0.000000 

0.000000 0.000000 0.000000 
0.000000 0.000000 0.000000 
0.000000 0.000000 0.000000 

0.000000 0.000000 0.000000 
0.000000 -0.000000 0.000000 
0.000000 0.000000 0.000000 

0.000000 0.000000 0.000000 
0.000000 0.000000 0.000000 
0.000000 0.000000 0.000000 

0.000000 0.000000 0.000000 
0.000000 0.000000 0.000000 
0.000000 0.000000 0.000000 

-0.000000 -0.000000 0.000000 
0.000000 -0.000000 0.000000 
0.000000 0.000000 0.000000 

-0.000000 -0.000000 0.000000 
0.000000 0.000000 0.000000 
0.000000 0.000000 0.000000 

0.000000 -0.000000 0.000000 
0.000000 -0.000000 0.000000 
0.000000 0.000000 0.000000 

0.000000 -0.000000 0.000000 
0.000000 -0.000000 0.000000 
0.000000 0.000000 0.000000 

-0.000000 -0.000000 0.000000 
0.000000 -0.000000 0.000000 
0.000000 0.000000 0.000000 

0.000000 -0.000000 0.000000 
0.000000 -0.000000 0.000000 
0.000000 0.000000 0.000000 

0.000000 -0.000000 0.000000 
0.000000 -0.000000 0.000000 
0.000000 0.000000 0.000000 

0.000000 -0.000000 0.000000 
0.000000 0.000000 0.000000 
0.000000 0.000000 0.000000 

0.000000 -0.000000 0.000000 
0.000000 -0.000000 0.000000 
0.000000 0.000000 0.000000 

-0.000000 0.000000 0.000000 
0.000000 0.000000 0.000000 
0.000000 0.000000 0.000000 

-0.000000 0.000000 0.000000 
0.000000 0.000000 0.000000 
0.000000 0.000000 0.000000 

-0.000000 0.000000 0.000000 
0.000000 0.000000 0.000000 
0.000000 0.000000 0.000000 

-0.000000 -0.000000 0.000000 
0.000000 0.000000 0.000000 
0.000000 0.000000 0.000000 

-0.000000 0.000000 0.000000 
0.000000 0.000000 0.000000 
0.000000 0.000000 0.000000 

0.000000 0.000000 0.000000 
0.000000 0.000000 0.000000 
0.000000 0.000000 0.000000 

-0.000000 -0.000000 0.000000 
0.000000 0.000000 0.000000 
0.000000 0.000000 0.000000 

-0.000000 -0.000000 0.000000 
0.000000 -0.000000 0.000000 
0.000000 0.000000 0.000000 

-0.000000 0.000000 0.000000 
0.000000 0.000000 0.000000 
0.000000 0.000000 0.000000 

0.000000 -0.000000 0.000000 
0.000000 -0.000000 0.000000 
0.000000 0.000000 0.000000 

0.000000 -0.000000 0.000000 
0.000000 0.000000 0.000000 
0.000000 0.000000 0.000000 

-0.000000 0.000000 0.000000 
0.000000 -0.000000 0.000000 
0.000000 0.000000 0.000000 

0.000000 0.000000 0.000000 
0.000000 -0.000000 0.000000 
0.000000 0.000000 0.000000 

-0.000000 -0.000000 0.000000 
0.000000 -0.000000 0.000000 
0.000000 0.000000 0.000000 

0.000000 0.000000 0.000000 
0.000000 -0.000000 0.000000 
0.000000 0.000000 0.000000 

0.000000 0.000000 0.000000 
0.000000 0.000000 0.000000 
0.000000 0.000000 0.000000 

0.000000 0.000000 0.000000 
0.000000 -0.000000 0.000000 
0.000000 0.000000 0.000000 

-0.000000 0.000000 0.000000 
0.000000 0.000000 0.000000 
0.000000 0.000000 0.000000 

-0.000000 -0.000000 0.000000 
0.000000 0.000000 0.000000 
0.000000 0.000000 0.000000 

-0.000000 -0.000000 0.000000 
0.000000 0.000000 0.000000 
0.000000 0.000000 0.000000 

-0.000000 -0.000000 0.000000 
0.000000 -0.000000 0.000000 
0.000000 0.000000 0.000000 

-0.000000 0.000000 0.000000 
0.000000 0.000000 0.000000 
0.000000 0.000000 0.000000 

-0.000000 0.000000 0.000000 
0.000000 -0.000000 0.000000 
0.000000 0.000000 0.000000 

-0.000000 -0.000000 0.000000 
0.000000 0.000000 0.000000 
0.000000 0.000000 0.000000 

-0.000000 -0.000000 0.000000 
0.000000 -0.000000 0.000000 
0.000000 0.000000 0.000000 

-0.000000 0.000000 0.000000 
0.000000 0.000000 0.000000 
0.000000 0.000000 0.000000 

-0.000000 -0.000000 0.000000 
0.000000 0.000000 0.000000 
0.000000 0.000000 0.000000 

-0.000000 -0.000000 0.000000 
0.000000 0.000000 0.000000 
0.000000 0.000000 0.000000 

0.000000 -0.000000 0.000000 
0.000000 0.000000 0.000000 
0.000000 0.000000 0.000000 

-0.000000 0.000000 0.000000 
0.000000 -0.000000 0.000000 
0.000000 0.000000 0.000000 

-0.000000 -0.000000 0.000000 
0.000000 -0.000000 0.000000 
0.000000 0.000000 0.000000 

-0.000000 -0.000000 0.000000 
0.000000 0.000000 0.000000 
0.000000 0.000000 0.000000 

-0.000000 0.000000 0.000000 
0.000000 0.000000 0.000000 
0.000000 0.000000 0.000000 

0.000000 0.000000 0.000000 
0.000000 -0.000000 0.000000 
0.000000 0.000000 0.000000 

0.000000 0.000000 0.000000 
0.000000 0.000000 0.000000 
0.000000 0.000000 0.000000 

0.000000 -0.000000 0.000000 
0.000000 -0.000000 0.000000 
0.000000 0.000000 0.000000 

0.000000 -0.000000 0.000000 
0.000000 -0.000000 0.000000 
0.000000 0.000000 0.000000 

0.000000 0.000000 0.000000 
0.000000 0.000000 0.000000 
0.000000 0.000000 0.000000 

0.000000 0.000000 0.000000 
0.000000 -0.000000 0.000000 
0.000000 0.000000 0.000000 

-0.000000 -0.000000 0.000000 
0.000000 -0.000000 0.000000 
0.000000 0.000000 0.000000 

0.000000 0.000000 0.000000 
0.000000 -0.000000 0.000000 
0.000000 0.000000 0.000000 

0.000000 0.000000 0.000000 
0.000000 0.000000 0.000000 
0.000000 0.000000 0.000000 

0.000000 -0.000000 0.000000 
0.000000 -0.000000 0.000000 
0.000000 0.000000 0.000000 

0.000000 -0.000000 0.000000 
0.000000 -0.000000 0.000000 
0.000000 0.000000 0.000000 

0.000000 0.000000 0.000000 
0.000000 0.000000 0.000000 
0.000000 0.000000 0.000000 

-0.000000 -0.000000 0.000000 
0.000000 -0.000000 0.000000 
0.000000 0.000000 0.000000 

-0.000000 -0.000000 0.000000 
0.000000 -0.000000 0.000000 
0.000000 0.000000 0.000000 

-0.000000 0.000000 0.000000 
0.000000 0.000000 0.000000 
0.000000 0.000000 0.000000 

-0.000000 0.000000 0.000000 
0.000000 0.000000 0.000000 
0.000000 0.000000 0.000000 

-0.000000 0.000000 0.000000 
0.000000 -0.000000 0.000000 
0.000000 0.000000 0.000000 

-0.000000 -0.000000 0.000000 
0.000000 0.000000 0.000000 
0.000000 0.000000 0.000000 

-0.000000 0.000000 0.000000 
0.000000 -0.000000 0.000000 
0.000000 0.000000 0.000000 

-0.000000 -0.000000 0.000000 
0.000000 0.000000 0.000000 
0.000000 0.000000 0.000000 

0.000000 0.000000 0.000000 
0.000000 -0.000000 0.000000 
0.000000 0.000000 0.000000 

0.000000 -0.000000 0.000000 
0.000000 -0.000000 0.000000 
0.000000 0.000000 0.000000 

0.000000 0.000000 0.000000 
0.000000 -0.000000 0.000000 
0.000000 0.000000 0.000000 

0.000000 -0.000000 0.000000 
0.000000 -0.000000 0.000000 
0.000000 0.000000 0.000000 

-0.000000 0.000000 0.000000 
0.000000 0.000000 0.000000 
0.000000 0.000000 0.000000 

-0.000000 -0.000000 0.000000 
0.000000 -0.000000 0.000000 
0.000000 0.000000 0.000000 

-0.000000 0.000000 0.000000 
0.000000 -0.000000 0.000000 
0.000000 0.000000 0.000000 

-0.000000 0.000000 0.000000 
0.000000 0.000000 0.000000 
0.000000 0.000000 0.000000 

0.000000 -0.000000 0.000000 
0.000000 -0.000000 0.000000 
0.000000 0.000000 0.000000 

0.000000 -0.000000 0.000000 
0.000000 -0.000000 0.000000 
0.000000 0.000000 0.000000 

0.000000 0.000000 0.000000 
0.000000 -0.000000 0.000000 
0.000000 0.000000 0.000000 

0.000000 -0.000000 0.000000 
0.000000 0.000000 0.000000 
0.000000 0.000000 0.000000 

0.000000 0.000000 0.000000 
0.000000 -0.000000 0.000000 
0.000000 0.000000 0.000000 

-0.000000 -0.000000 0.000000 
0.000000 -0.000000 0.000000 
0.000000 0.000000 0.000000 

-0.000000 -0.000000 0.000000 
0.000000 -0.000000 0.000000 
0.000000 0.000000 0.000000 

0.000000 -0.000000 0.000000 
0.000000 0.000000 0.000000 
0.000000 0.000000 0.000000 

-0.000000 0.000000 0.000000 
0.000000 0.000000 0.000000 
0.000000 0.000000 0.000000 

0.000000 0.000000 0.000000 
0.000000 0.000000 0.000000 
0.000000 0.000000 0.000000 

0.000000 -0.000000 0.000000 
0.000000 0.000000 0.000000 
0.000000 0.000000 0.000000 

0.000000 0.000000 0.000000 
0.000000 0.000000 0.000000 
0.000000 0.000000 0.000000 

-0.000000 -0.000000 0.000000 
0.000000 -0.000000 0.000000 
0.000000 0.000000 0.000000 

0.000000 -0.000000 0.000000 
0.000000 0.000000 0.000000 
0.000000 0.000000 0.000000 

0.000000 -0.000000 0.000000 
0.000000 0.000000 0.000000 
0.000000 0.000000 0.000000 

-0.000000 0.000000 0.000000 
0.000000 -0.000000 0.000000 
0.000000 0.000000 0.000000 

-0.000000 0.000000 0.000000 
0.000000 0.000000 0.000000 
0.000000 0.000000 0.000000 

-0.000000 0.000000 0.000000 
0.000000 0.000000 0.000000 
0.000000 0.000000 0.000000 

0.000000 0.000000 0.000000 
0.000000 0.000000 0.000000 
0.000000 0.000000 0.000000 

0.000000 0.000000 0.000000 
0.000000 0.000000 0.000000 
0.000000 0.000000 0.000000 

0.000000 -0.000000 0.000000 
0.000000 0.000000 0.000000 
0.000000 0.000000 0.000000 

0.000000 -0.000000 0.000000 
0.000000 -0.000000 0.000000 
0.000000 0.000000 0.000000 

0.000000 0.000000 0.000000 
0.000000 0.000000 0.000000 
0.000000 0.000000 0.000000 

-0.000000 0.000000 0.000000 
0.000000 0.000000 0.000000 
0.000000 0.000000 0.000000 

0.000000 -0.000000 0.000000 
0.000000 -0.000000 0.000000 
0.000000 0.000000 0.000000 

0.000000 -0.000000 0.000000 
0.000000 0.000000 0.000000 
0.000000 0.000000 0.000000 

0.000000 0.000000 0.000000 
0.000000 0.000000 0.000000 
0.000000 0.000000 0.000000 

0.000000 0.000000 0.000000 
0.000000 -0.000000 0.000000 
0.000000 0.000000 0.000000 

0.000000 0.000000 0.000000 
0.000000 -0.000000 0.000000 
0.000000 0.000000 0.000000 

0.000000 0.000000 0.000000 
0.000000 0.000000 0.000000 
0.000000 0.000000 0.000000 

0.000000 0.000000 0.000000 
0.000000 0.000000 0.000000 
0.000000 0.000000 0.000000 

0.000000 0.000000 0.000000 
0.000000 -0.000000 0.000000 
0.000000 0.000000 0.000000 

-0.000000 0.000000 0.000000 
0.000000 -0.000000 0.000000 
0.000000 0.000000 0.000000 

-0.000000 0.000000 0.000000 
0.000000 -0.000000 0.000000 
0.000000 0.000000 0.000000 

