# vtk DataFile Version 3.0 
vtk output 
ASCII 
DATASET UNSTRUCTURED_GRID 
POINTS 175 float 
-0.026061 -0.930161 0.000000 
-0.106992 -0.862106 0.000000 
-0.054870 -0.870338 0.000000 
-0.028809 -0.824455 0.000000 
-0.186430 -0.798030 0.000000 
-0.137056 -0.800556 0.000000 
-0.114311 -0.746909 0.000000 
-0.058186 -0.762575 0.000000 
-0.029377 -0.722397 0.000000 
-0.265318 -0.734874 0.000000 
-0.217198 -0.735674 0.000000 
-0.196633 -0.678377 0.000000 
-0.143120 -0.687086 0.000000 
-0.116563 -0.639818 0.000000 
-0.058945 -0.659463 0.000000 
-0.029568 -0.621343 0.000000 
-0.344206 -0.671718 0.000000 
-0.296791 -0.671711 0.000000 
-0.278030 -0.611769 0.000000 
-0.225992 -0.617635 0.000000 
-0.201664 -0.565518 0.000000 
-0.145749 -0.578992 0.000000 
-0.117890 -0.534649 0.000000 
-0.059328 -0.557355 0.000000 
-0.029759 -0.520289 0.000000 
-0.058559 -0.970912 0.000000 
-0.162226 -0.991754 0.000000 
-0.123292 -0.956137 0.000000 
-0.142917 -0.907153 0.000000 
-0.261851 -1.013911 0.000000 
-0.229092 -0.976884 0.000000 
-0.256854 -0.925652 0.000000 
-0.209613 -0.891540 0.000000 
-0.223062 -0.843966 0.000000 
-0.360414 -1.036211 0.000000 
-0.329787 -0.999088 0.000000 
-0.361761 -0.947286 0.000000 
-0.321587 -0.910877 0.000000 
-0.341985 -0.860643 0.000000 
-0.290702 -0.827844 0.000000 
-0.302189 -0.781109 0.000000 
-0.458977 -1.058511 0.000000 
-0.429420 -1.021436 0.000000 
-0.464588 -0.969395 0.000000 
-0.427556 -0.932367 0.000000 
-0.453135 -0.880852 0.000000 
-0.407738 -0.845537 0.000000 
-0.425037 -0.796109 0.000000 
-0.370772 -0.764480 0.000000 
-0.381315 -0.718252 0.000000 
-0.046960 -1.021727 0.000000 
-0.095301 -1.115773 0.000000 
-0.098873 -1.063126 0.000000 
-0.149405 -1.047928 0.000000 
-0.140093 -1.207477 0.000000 
-0.148617 -1.158779 0.000000 
-0.205981 -1.148541 0.000000 
-0.203197 -1.090338 0.000000 
-0.248777 -1.071191 0.000000 
-0.184111 -1.298441 0.000000 
-0.194039 -1.251349 0.000000 
-0.254475 -1.244050 0.000000 
-0.257893 -1.189940 0.000000 
-0.309886 -1.174568 0.000000 
-0.303554 -1.114022 0.000000 
-0.347255 -1.093865 0.000000 
-0.228129 -1.389404 0.000000 
-0.238687 -1.343180 0.000000 
-0.301302 -1.338228 0.000000 
-0.307162 -1.286189 0.000000 
-0.363386 -1.274068 0.000000 
-0.362692 -1.216557 0.000000 
-0.412122 -1.199263 0.000000 
-0.403017 -1.137117 0.000000 
-0.445733 -1.116538 0.000000 
-0.000000 -1.044342 0.000000 
0.043388 -1.140772 0.000000 
-0.000000 -1.110740 0.000000 
-0.043388 -1.140772 0.000000 
0.087158 -1.232969 0.000000 
0.043769 -1.209271 0.000000 
-0.000000 -1.247736 0.000000 
-0.043769 -1.209271 0.000000 
-0.087158 -1.232969 0.000000 
0.130831 -1.324099 0.000000 
0.087824 -1.302500 0.000000 
0.044436 -1.345200 0.000000 
-0.000000 -1.314135 0.000000 
-0.044436 -1.345200 0.000000 
-0.087824 -1.302500 0.000000 
-0.130831 -1.324099 0.000000 
0.174505 -1.415228 0.000000 
0.131782 -1.394662 0.000000 
0.088871 -1.440529 0.000000 
0.044532 -1.412665 0.000000 
-0.000000 -1.449065 0.000000 
-0.044532 -1.412665 0.000000 
-0.088871 -1.440529 0.000000 
-0.131782 -1.394662 0.000000 
-0.174505 -1.415228 0.000000 
0.046960 -1.021727 0.000000 
0.149405 -1.047928 0.000000 
0.098873 -1.063126 0.000000 
0.095301 -1.115773 0.000000 
0.248777 -1.071191 0.000000 
0.203197 -1.090338 0.000000 
0.205981 -1.148541 0.000000 
0.148617 -1.158779 0.000000 
0.140093 -1.207477 0.000000 
0.347255 -1.093865 0.000000 
0.303554 -1.114022 0.000000 
0.309886 -1.174568 0.000000 
0.257893 -1.189940 0.000000 
0.254475 -1.244050 0.000000 
0.194039 -1.251349 0.000000 
0.184111 -1.298441 0.000000 
0.445733 -1.116538 0.000000 
0.403017 -1.137117 0.000000 
0.412122 -1.199263 0.000000 
0.362692 -1.216557 0.000000 
0.363386 -1.274068 0.000000 
0.307162 -1.286189 0.000000 
0.301302 -1.338228 0.000000 
0.238687 -1.343180 0.000000 
0.228129 -1.389404 0.000000 
0.058559 -0.970912 0.000000 
0.142917 -0.907153 0.000000 
0.123292 -0.956137 0.000000 
0.162226 -0.991754 0.000000 
0.223062 -0.843966 0.000000 
0.209613 -0.891540 0.000000 
0.256854 -0.925652 0.000000 
0.229092 -0.976884 0.000000 
0.261851 -1.013911 0.000000 
0.302189 -0.781109 0.000000 
0.290702 -0.827844 0.000000 
0.341985 -0.860643 0.000000 
0.321587 -0.910877 0.000000 
0.361761 -0.947286 0.000000 
0.329787 -0.999088 0.000000 
0.360414 -1.036211 0.000000 
0.381315 -0.718252 0.000000 
0.370772 -0.764480 0.000000 
0.425037 -0.796109 0.000000 
0.407738 -0.845537 0.000000 
0.453135 -0.880852 0.000000 
0.427556 -0.932367 0.000000 
0.464588 -0.969395 0.000000 
0.429420 -1.021436 0.000000 
0.458977 -1.058511 0.000000 
0.026061 -0.930161 0.000000 
0.028809 -0.824455 0.000000 
0.054870 -0.870338 0.000000 
0.106992 -0.862106 0.000000 
0.029377 -0.722397 0.000000 
0.058186 -0.762575 0.000000 
0.114311 -0.746909 0.000000 
0.137056 -0.800556 0.000000 
0.186430 -0.798030 0.000000 
0.029568 -0.621343 0.000000 
0.058945 -0.659463 0.000000 
0.116563 -0.639818 0.000000 
0.143120 -0.687086 0.000000 
0.196633 -0.678377 0.000000 
0.217198 -0.735674 0.000000 
0.265318 -0.734874 0.000000 
0.029759 -0.520289 0.000000 
0.059328 -0.557355 0.000000 
0.117890 -0.534649 0.000000 
0.145749 -0.578992 0.000000 
0.201664 -0.565518 0.000000 
0.225992 -0.617635 0.000000 
0.278030 -0.611769 0.000000 
0.296791 -0.671711 0.000000 
0.344206 -0.671718 0.000000 
CELLS 175 350 
1 0 
1 1 
1 2 
1 3 
1 4 
1 5 
1 6 
1 7 
1 8 
1 9 
1 10 
1 11 
1 12 
1 13 
1 14 
1 15 
1 16 
1 17 
1 18 
1 19 
1 20 
1 21 
1 22 
1 23 
1 24 
1 25 
1 26 
1 27 
1 28 
1 29 
1 30 
1 31 
1 32 
1 33 
1 34 
1 35 
1 36 
1 37 
1 38 
1 39 
1 40 
1 41 
1 42 
1 43 
1 44 
1 45 
1 46 
1 47 
1 48 
1 49 
1 50 
1 51 
1 52 
1 53 
1 54 
1 55 
1 56 
1 57 
1 58 
1 59 
1 60 
1 61 
1 62 
1 63 
1 64 
1 65 
1 66 
1 67 
1 68 
1 69 
1 70 
1 71 
1 72 
1 73 
1 74 
1 75 
1 76 
1 77 
1 78 
1 79 
1 80 
1 81 
1 82 
1 83 
1 84 
1 85 
1 86 
1 87 
1 88 
1 89 
1 90 
1 91 
1 92 
1 93 
1 94 
1 95 
1 96 
1 97 
1 98 
1 99 
1 100 
1 101 
1 102 
1 103 
1 104 
1 105 
1 106 
1 107 
1 108 
1 109 
1 110 
1 111 
1 112 
1 113 
1 114 
1 115 
1 116 
1 117 
1 118 
1 119 
1 120 
1 121 
1 122 
1 123 
1 124 
1 125 
1 126 
1 127 
1 128 
1 129 
1 130 
1 131 
1 132 
1 133 
1 134 
1 135 
1 136 
1 137 
1 138 
1 139 
1 140 
1 141 
1 142 
1 143 
1 144 
1 145 
1 146 
1 147 
1 148 
1 149 
1 150 
1 151 
1 152 
1 153 
1 154 
1 155 
1 156 
1 157 
1 158 
1 159 
1 160 
1 161 
1 162 
1 163 
1 164 
1 165 
1 166 
1 167 
1 168 
1 169 
1 170 
1 171 
1 172 
1 173 
1 174 
CELL_TYPES 175 
1 
1 
1 
1 
1 
1 
1 
1 
1 
1 
1 
1 
1 
1 
1 
1 
1 
1 
1 
1 
1 
1 
1 
1 
1 
1 
1 
1 
1 
1 
1 
1 
1 
1 
1 
1 
1 
1 
1 
1 
1 
1 
1 
1 
1 
1 
1 
1 
1 
1 
1 
1 
1 
1 
1 
1 
1 
1 
1 
1 
1 
1 
1 
1 
1 
1 
1 
1 
1 
1 
1 
1 
1 
1 
1 
1 
1 
1 
1 
1 
1 
1 
1 
1 
1 
1 
1 
1 
1 
1 
1 
1 
1 
1 
1 
1 
1 
1 
1 
1 
1 
1 
1 
1 
1 
1 
1 
1 
1 
1 
1 
1 
1 
1 
1 
1 
1 
1 
1 
1 
1 
1 
1 
1 
1 
1 
1 
1 
1 
1 
1 
1 
1 
1 
1 
1 
1 
1 
1 
1 
1 
1 
1 
1 
1 
1 
1 
1 
1 
1 
1 
1 
1 
1 
1 
1 
1 
1 
1 
1 
1 
1 
1 
1 
1 
1 
1 
1 
1 
1 
1 
1 
1 
1 
1 
POINT_DATA 175 
VECTORS X_GC float 
-0.026061 -0.930161 0.000000 
-0.106992 -0.862106 0.000000 
-0.054870 -0.870338 0.000000 
-0.028809 -0.824455 0.000000 
-0.186430 -0.798030 0.000000 
-0.137056 -0.800556 0.000000 
-0.114311 -0.746909 0.000000 
-0.058186 -0.762575 0.000000 
-0.029377 -0.722397 0.000000 
-0.265318 -0.734874 0.000000 
-0.217198 -0.735674 0.000000 
-0.196633 -0.678377 0.000000 
-0.143120 -0.687086 0.000000 
-0.116563 -0.639818 0.000000 
-0.058945 -0.659463 0.000000 
-0.029568 -0.621343 0.000000 
-0.344206 -0.671718 0.000000 
-0.296791 -0.671711 0.000000 
-0.278030 -0.611769 0.000000 
-0.225992 -0.617635 0.000000 
-0.201664 -0.565518 0.000000 
-0.145749 -0.578992 0.000000 
-0.117890 -0.534649 0.000000 
-0.059328 -0.557355 0.000000 
-0.029759 -0.520289 0.000000 
-0.058559 -0.970912 0.000000 
-0.162226 -0.991754 0.000000 
-0.123292 -0.956137 0.000000 
-0.142917 -0.907153 0.000000 
-0.261851 -1.013911 0.000000 
-0.229092 -0.976884 0.000000 
-0.256854 -0.925652 0.000000 
-0.209613 -0.891540 0.000000 
-0.223062 -0.843966 0.000000 
-0.360414 -1.036211 0.000000 
-0.329787 -0.999088 0.000000 
-0.361761 -0.947286 0.000000 
-0.321587 -0.910877 0.000000 
-0.341985 -0.860643 0.000000 
-0.290702 -0.827844 0.000000 
-0.302189 -0.781109 0.000000 
-0.458977 -1.058511 0.000000 
-0.429420 -1.021436 0.000000 
-0.464588 -0.969395 0.000000 
-0.427556 -0.932367 0.000000 
-0.453135 -0.880852 0.000000 
-0.407738 -0.845537 0.000000 
-0.425037 -0.796109 0.000000 
-0.370772 -0.764480 0.000000 
-0.381315 -0.718252 0.000000 
-0.046960 -1.021727 0.000000 
-0.095301 -1.115773 0.000000 
-0.098873 -1.063126 0.000000 
-0.149405 -1.047928 0.000000 
-0.140093 -1.207477 0.000000 
-0.148617 -1.158779 0.000000 
-0.205981 -1.148541 0.000000 
-0.203197 -1.090338 0.000000 
-0.248777 -1.071191 0.000000 
-0.184111 -1.298441 0.000000 
-0.194039 -1.251349 0.000000 
-0.254475 -1.244050 0.000000 
-0.257893 -1.189940 0.000000 
-0.309886 -1.174568 0.000000 
-0.303554 -1.114022 0.000000 
-0.347255 -1.093865 0.000000 
-0.228129 -1.389404 0.000000 
-0.238687 -1.343180 0.000000 
-0.301302 -1.338228 0.000000 
-0.307162 -1.286189 0.000000 
-0.363386 -1.274068 0.000000 
-0.362692 -1.216557 0.000000 
-0.412122 -1.199263 0.000000 
-0.403017 -1.137117 0.000000 
-0.445733 -1.116538 0.000000 
-0.000000 -1.044342 0.000000 
0.043388 -1.140772 0.000000 
-0.000000 -1.110740 0.000000 
-0.043388 -1.140772 0.000000 
0.087158 -1.232969 0.000000 
0.043769 -1.209271 0.000000 
-0.000000 -1.247736 0.000000 
-0.043769 -1.209271 0.000000 
-0.087158 -1.232969 0.000000 
0.130831 -1.324099 0.000000 
0.087824 -1.302500 0.000000 
0.044436 -1.345200 0.000000 
-0.000000 -1.314135 0.000000 
-0.044436 -1.345200 0.000000 
-0.087824 -1.302500 0.000000 
-0.130831 -1.324099 0.000000 
0.174505 -1.415228 0.000000 
0.131782 -1.394662 0.000000 
0.088871 -1.440529 0.000000 
0.044532 -1.412665 0.000000 
-0.000000 -1.449065 0.000000 
-0.044532 -1.412665 0.000000 
-0.088871 -1.440529 0.000000 
-0.131782 -1.394662 0.000000 
-0.174505 -1.415228 0.000000 
0.046960 -1.021727 0.000000 
0.149405 -1.047928 0.000000 
0.098873 -1.063126 0.000000 
0.095301 -1.115773 0.000000 
0.248777 -1.071191 0.000000 
0.203197 -1.090338 0.000000 
0.205981 -1.148541 0.000000 
0.148617 -1.158779 0.000000 
0.140093 -1.207477 0.000000 
0.347255 -1.093865 0.000000 
0.303554 -1.114022 0.000000 
0.309886 -1.174568 0.000000 
0.257893 -1.189940 0.000000 
0.254475 -1.244050 0.000000 
0.194039 -1.251349 0.000000 
0.184111 -1.298441 0.000000 
0.445733 -1.116538 0.000000 
0.403017 -1.137117 0.000000 
0.412122 -1.199263 0.000000 
0.362692 -1.216557 0.000000 
0.363386 -1.274068 0.000000 
0.307162 -1.286189 0.000000 
0.301302 -1.338228 0.000000 
0.238687 -1.343180 0.000000 
0.228129 -1.389404 0.000000 
0.058559 -0.970912 0.000000 
0.142917 -0.907153 0.000000 
0.123292 -0.956137 0.000000 
0.162226 -0.991754 0.000000 
0.223062 -0.843966 0.000000 
0.209613 -0.891540 0.000000 
0.256854 -0.925652 0.000000 
0.229092 -0.976884 0.000000 
0.261851 -1.013911 0.000000 
0.302189 -0.781109 0.000000 
0.290702 -0.827844 0.000000 
0.341985 -0.860643 0.000000 
0.321587 -0.910877 0.000000 
0.361761 -0.947286 0.000000 
0.329787 -0.999088 0.000000 
0.360414 -1.036211 0.000000 
0.381315 -0.718252 0.000000 
0.370772 -0.764480 0.000000 
0.425037 -0.796109 0.000000 
0.407738 -0.845537 0.000000 
0.453135 -0.880852 0.000000 
0.427556 -0.932367 0.000000 
0.464588 -0.969395 0.000000 
0.429420 -1.021436 0.000000 
0.458977 -1.058511 0.000000 
0.026061 -0.930161 0.000000 
0.028809 -0.824455 0.000000 
0.054870 -0.870338 0.000000 
0.106992 -0.862106 0.000000 
0.029377 -0.722397 0.000000 
0.058186 -0.762575 0.000000 
0.114311 -0.746909 0.000000 
0.137056 -0.800556 0.000000 
0.186430 -0.798030 0.000000 
0.029568 -0.621343 0.000000 
0.058945 -0.659463 0.000000 
0.116563 -0.639818 0.000000 
0.143120 -0.687086 0.000000 
0.196633 -0.678377 0.000000 
0.217198 -0.735674 0.000000 
0.265318 -0.734874 0.000000 
0.029759 -0.520289 0.000000 
0.059328 -0.557355 0.000000 
0.117890 -0.534649 0.000000 
0.145749 -0.578992 0.000000 
0.201664 -0.565518 0.000000 
0.225992 -0.617635 0.000000 
0.278030 -0.611769 0.000000 
0.296791 -0.671711 0.000000 
0.344206 -0.671718 0.000000 
VECTORS X_EC float 
0.338794 -0.942827 0.000000 
-0.609100 0.138425 0.000000 
0.713312 0.249566 0.000000 
0.374519 -0.369864 0.000000 
0.423588 -0.726594 0.000000 
-0.218274 -0.692491 0.000000 
-0.513962 0.583270 0.000000 
0.756418 0.794757 0.000000 
0.381900 0.252364 0.000000 
-0.550868 0.420803 0.000000 
0.823577 0.431598 0.000000 
0.556234 -0.341906 0.000000 
-0.139443 -0.224337 0.000000 
-0.484677 -0.862462 0.000000 
0.766286 -0.597246 0.000000 
0.384386 0.888133 0.000000 
0.474677 -0.431801 0.000000 
-0.141715 -0.431897 0.000000 
-0.385608 0.758875 0.000000 
0.937896 0.838070 0.000000 
0.621631 0.134490 0.000000 
-0.105264 0.316389 0.000000 
-0.467428 -0.282237 0.000000 
0.771260 0.024292 0.000000 
0.386873 -0.476098 0.000000 
0.761262 -0.392692 0.000000 
0.108942 -0.111315 0.000000 
-0.397202 -0.592155 0.000000 
-0.142083 0.746570 0.000000 
-0.595936 0.187795 0.000000 
0.978194 -0.312071 0.000000 
-0.660903 0.996304 0.000000 
0.724964 0.535784 0.000000 
0.899809 -0.106464 0.000000 
0.685384 0.488847 0.000000 
0.287229 -0.012311 0.000000 
0.702895 -0.711640 0.000000 
0.180633 0.796842 0.000000 
0.445811 0.118682 0.000000 
-0.220880 -0.324104 0.000000 
-0.071546 -0.955029 0.000000 
-0.033296 0.789900 0.000000 
-0.417537 0.289390 0.000000 
0.039645 -0.413173 0.000000 
-0.441768 -0.913044 0.000000 
-0.109248 0.391506 0.000000 
-0.699407 -0.085250 0.000000 
-0.474522 -0.752529 0.000000 
0.820030 0.820477 0.000000 
0.957100 0.196406 0.000000 
0.610485 0.293314 0.000000 
-0.761092 -0.437066 0.000000 
-0.714655 0.852196 0.000000 
-0.057734 0.647029 0.000000 
-0.178789 0.800938 0.000000 
-0.067979 0.143512 0.000000 
0.677748 0.005308 0.000000 
0.641556 -0.780437 0.000000 
-0.765897 0.961085 0.000000 
0.393446 0.028947 0.000000 
0.522510 -0.606783 0.000000 
-0.691820 -0.705327 0.000000 
-0.647393 0.564190 0.000000 
0.028512 0.356664 0.000000 
-0.053800 -0.460697 0.000000 
0.514316 -0.732828 0.000000 
0.965681 -0.743044 0.000000 
-0.897068 0.632927 0.000000 
-0.083078 0.566074 0.000000 
-0.006893 -0.136450 0.000000 
0.724017 -0.300083 0.000000 
0.714996 0.923513 0.000000 
-0.642413 0.690056 0.000000 
-0.760780 -0.148925 0.000000 
-0.205471 -0.426740 0.000000 
0.000000 0.598616 0.000000 
-0.564049 -0.099571 0.000000 
0.000000 -0.505007 0.000000 
0.564049 -0.099571 0.000000 
0.866949 -0.854916 0.000000 
-0.569003 0.825153 0.000000 
0.000000 -0.655559 0.000000 
0.569003 0.825153 0.000000 
-0.866949 -0.854916 0.000000 
0.299194 0.375334 0.000000 
0.858290 0.083750 0.000000 
-0.577662 0.660196 0.000000 
0.000000 0.240818 0.000000 
0.577662 0.660196 0.000000 
-0.858290 0.083750 0.000000 
-0.299194 0.375334 0.000000 
-0.268560 -0.394416 0.000000 
0.286830 -0.672057 0.000000 
0.844677 -0.052859 0.000000 
-0.578910 -0.429022 0.000000 
0.000000 0.062382 0.000000 
0.578910 -0.429022 0.000000 
-0.844677 -0.052859 0.000000 
-0.286830 -0.672057 0.000000 
0.268560 -0.394416 0.000000 
-0.610485 0.293314 0.000000 
0.057734 0.647029 0.000000 
0.714655 0.852196 0.000000 
0.761092 -0.437066 0.000000 
0.765897 0.961085 0.000000 
-0.641556 -0.780437 0.000000 
-0.677748 0.005308 0.000000 
0.067979 0.143512 0.000000 
0.178789 0.800938 0.000000 
-0.514316 -0.732828 0.000000 
0.053800 -0.460697 0.000000 
-0.028512 0.356664 0.000000 
0.647393 0.564190 0.000000 
0.691820 -0.705327 0.000000 
-0.522510 -0.606783 0.000000 
-0.393446 0.028947 0.000000 
0.205471 -0.426740 0.000000 
0.760780 -0.148925 0.000000 
0.642413 0.690056 0.000000 
-0.714996 0.923513 0.000000 
-0.724017 -0.300083 0.000000 
0.006894 -0.136450 0.000000 
0.083078 0.566074 0.000000 
0.897068 0.632927 0.000000 
-0.965681 -0.743044 0.000000 
-0.761262 -0.392692 0.000000 
0.142083 0.746570 0.000000 
0.397202 -0.592155 0.000000 
-0.108942 -0.111315 0.000000 
-0.899809 -0.106464 0.000000 
-0.724964 0.535784 0.000000 
0.660903 0.996304 0.000000 
-0.978194 -0.312071 0.000000 
0.595936 0.187795 0.000000 
0.071546 -0.955029 0.000000 
0.220880 -0.324104 0.000000 
-0.445811 0.118682 0.000000 
-0.180633 0.796842 0.000000 
-0.702895 -0.711640 0.000000 
-0.287229 -0.012311 0.000000 
-0.685384 0.488847 0.000000 
-0.957100 0.196406 0.000000 
-0.820030 0.820477 0.000000 
0.474522 -0.752529 0.000000 
0.699407 -0.085250 0.000000 
0.109248 0.391506 0.000000 
0.441768 -0.913044 0.000000 
-0.039645 -0.413173 0.000000 
0.417537 0.289390 0.000000 
0.033296 0.789900 0.000000 
-0.338794 -0.942827 0.000000 
-0.374519 -0.369864 0.000000 
-0.713312 0.249566 0.000000 
0.609100 0.138425 0.000000 
-0.381900 0.252364 0.000000 
-0.756418 0.794757 0.000000 
0.513962 0.583270 0.000000 
0.218274 -0.692491 0.000000 
-0.423588 -0.726594 0.000000 
-0.384386 0.888133 0.000000 
-0.766286 -0.597246 0.000000 
0.484677 -0.862462 0.000000 
0.139443 -0.224337 0.000000 
-0.556234 -0.341906 0.000000 
-0.823577 0.431598 0.000000 
0.550868 0.420803 0.000000 
-0.386873 -0.476098 0.000000 
-0.771260 0.024292 0.000000 
0.467428 -0.282237 0.000000 
0.105264 0.316389 0.000000 
-0.621631 0.134490 0.000000 
-0.937896 0.838070 0.000000 
0.385608 0.758875 0.000000 
0.141715 -0.431897 0.000000 
-0.474677 -0.431801 0.000000 
CELL_DATA 175 
SCALARS MASS float 
LOOKUP_TABLE default 
0.078183 
0.086427 
0.094672 
0.086427 
0.088131 
0.092111 
0.085854 
0.092111 
0.088131 
0.088705 
0.091000 
0.086983 
0.091556 
0.086983 
0.091000 
0.088705 
0.089278 
0.091574 
0.089278 
0.092722 
0.089278 
0.092722 
0.089278 
0.091574 
0.089278 
0.078183 
0.086427 
0.094672 
0.086427 
0.088131 
0.092111 
0.085854 
0.092111 
0.088131 
0.088705 
0.091000 
0.086983 
0.091556 
0.086983 
0.091000 
0.088705 
0.089278 
0.091574 
0.089278 
0.092722 
0.089278 
0.092722 
0.089278 
0.091574 
0.089278 
0.078183 
0.086427 
0.094672 
0.086427 
0.088131 
0.092111 
0.085854 
0.092111 
0.088131 
0.088705 
0.091000 
0.086983 
0.091556 
0.086983 
0.091000 
0.088705 
0.089278 
0.091574 
0.089278 
0.092722 
0.089278 
0.092722 
0.089278 
0.091574 
0.089278 
0.078183 
0.086427 
0.094672 
0.086427 
0.088131 
0.092111 
0.085854 
0.092111 
0.088131 
0.088705 
0.091000 
0.086983 
0.091556 
0.086983 
0.091000 
0.088705 
0.089278 
0.091574 
0.089278 
0.092722 
0.089278 
0.092722 
0.089278 
0.091574 
0.089278 
0.078183 
0.086427 
0.094672 
0.086427 
0.088131 
0.092111 
0.085854 
0.092111 
0.088131 
0.088705 
0.091000 
0.086983 
0.091556 
0.086983 
0.091000 
0.088705 
0.089278 
0.091574 
0.089278 
0.092722 
0.089278 
0.092722 
0.089278 
0.091574 
0.089278 
0.078183 
0.086427 
0.094672 
0.086427 
0.088131 
0.092111 
0.085854 
0.092111 
0.088131 
0.088705 
0.091000 
0.086983 
0.091556 
0.086983 
0.091000 
0.088705 
0.089278 
0.091574 
0.089278 
0.092722 
0.089278 
0.092722 
0.089278 
0.091574 
0.089278 
0.078183 
0.086427 
0.094672 
0.086427 
0.088131 
0.092111 
0.085854 
0.092111 
0.088131 
0.088705 
0.091000 
0.086983 
0.091556 
0.086983 
0.091000 
0.088705 
0.089278 
0.091574 
0.089278 
0.092722 
0.089278 
0.092722 
0.089278 
0.091574 
0.089278 
SCALARS MASS float 
LOOKUP_TABLE default 
0.078183 
0.086427 
0.094672 
0.086427 
0.088131 
0.092111 
0.085854 
0.092111 
0.088131 
0.088705 
0.091000 
0.086983 
0.091556 
0.086983 
0.091000 
0.088705 
0.089278 
0.091574 
0.089278 
0.092722 
0.089278 
0.092722 
0.089278 
0.091574 
0.089278 
0.078183 
0.086427 
0.094672 
0.086427 
0.088131 
0.092111 
0.085854 
0.092111 
0.088131 
0.088705 
0.091000 
0.086983 
0.091556 
0.086983 
0.091000 
0.088705 
0.089278 
0.091574 
0.089278 
0.092722 
0.089278 
0.092722 
0.089278 
0.091574 
0.089278 
0.078183 
0.086427 
0.094672 
0.086427 
0.088131 
0.092111 
0.085854 
0.092111 
0.088131 
0.088705 
0.091000 
0.086983 
0.091556 
0.086983 
0.091000 
0.088705 
0.089278 
0.091574 
0.089278 
0.092722 
0.089278 
0.092722 
0.089278 
0.091574 
0.089278 
0.078183 
0.086427 
0.094672 
0.086427 
0.088131 
0.092111 
0.085854 
0.092111 
0.088131 
0.088705 
0.091000 
0.086983 
0.091556 
0.086983 
0.091000 
0.088705 
0.089278 
0.091574 
0.089278 
0.092722 
0.089278 
0.092722 
0.089278 
0.091574 
0.089278 
0.078183 
0.086427 
0.094672 
0.086427 
0.088131 
0.092111 
0.085854 
0.092111 
0.088131 
0.088705 
0.091000 
0.086983 
0.091556 
0.086983 
0.091000 
0.088705 
0.089278 
0.091574 
0.089278 
0.092722 
0.089278 
0.092722 
0.089278 
0.091574 
0.089278 
0.078183 
0.086427 
0.094672 
0.086427 
0.088131 
0.092111 
0.085854 
0.092111 
0.088131 
0.088705 
0.091000 
0.086983 
0.091556 
0.086983 
0.091000 
0.088705 
0.089278 
0.091574 
0.089278 
0.092722 
0.089278 
0.092722 
0.089278 
0.091574 
0.089278 
0.078183 
0.086427 
0.094672 
0.086427 
0.088131 
0.092111 
0.085854 
0.092111 
0.088131 
0.088705 
0.091000 
0.086983 
0.091556 
0.086983 
0.091000 
0.088705 
0.089278 
0.091574 
0.089278 
0.092722 
0.089278 
0.092722 
0.089278 
0.091574 
0.089278 
SCALARS DENSITY float 
LOOKUP_TABLE default 
20.000000 
20.000000 
20.000000 
20.000000 
20.000000 
20.000000 
20.000000 
20.000000 
20.000000 
20.000000 
20.000000 
20.000000 
20.000000 
20.000000 
20.000000 
20.000000 
20.000000 
20.000000 
20.000000 
20.000000 
20.000000 
20.000000 
20.000000 
20.000000 
20.000000 
20.000000 
20.000000 
20.000000 
20.000000 
20.000000 
20.000000 
20.000000 
20.000000 
20.000000 
20.000000 
20.000000 
20.000000 
20.000000 
20.000000 
20.000000 
20.000000 
20.000000 
20.000000 
20.000000 
20.000000 
20.000000 
20.000000 
20.000000 
20.000000 
20.000000 
20.000000 
20.000000 
20.000000 
20.000000 
20.000000 
20.000000 
20.000000 
20.000000 
20.000000 
20.000000 
20.000000 
20.000000 
20.000000 
20.000000 
20.000000 
20.000000 
20.000000 
20.000000 
20.000000 
20.000000 
20.000000 
20.000000 
20.000000 
20.000000 
20.000000 
20.000000 
20.000000 
20.000000 
20.000000 
20.000000 
20.000000 
20.000000 
20.000000 
20.000000 
20.000000 
20.000000 
20.000000 
20.000000 
20.000000 
20.000000 
20.000000 
20.000000 
20.000000 
20.000000 
20.000000 
20.000000 
20.000000 
20.000000 
20.000000 
20.000000 
20.000000 
20.000000 
20.000000 
20.000000 
20.000000 
20.000000 
20.000000 
20.000000 
20.000000 
20.000000 
20.000000 
20.000000 
20.000000 
20.000000 
20.000000 
20.000000 
20.000000 
20.000000 
20.000000 
20.000000 
20.000000 
20.000000 
20.000000 
20.000000 
20.000000 
20.000000 
20.000000 
20.000000 
20.000000 
20.000000 
20.000000 
20.000000 
20.000000 
20.000000 
20.000000 
20.000000 
20.000000 
20.000000 
20.000000 
20.000000 
20.000000 
20.000000 
20.000000 
20.000000 
20.000000 
20.000000 
20.000000 
20.000000 
20.000000 
20.000000 
20.000000 
20.000000 
20.000000 
20.000000 
20.000000 
20.000000 
20.000000 
20.000000 
20.000000 
20.000000 
20.000000 
20.000000 
20.000000 
20.000000 
20.000000 
20.000000 
20.000000 
20.000000 
20.000000 
20.000000 
20.000000 
20.000000 
20.000000 
20.000000 
20.000000 
SCALARS ELEM_i float 
LOOKUP_TABLE default 
175 
203 
176 
176 
203 
203 
204 
177 
177 
231 
204 
204 
204 
204 
177 
178 
231 
231 
232 
205 
205 
205 
205 
178 
178 
175 
202 
202 
203 
229 
202 
230 
203 
203 
229 
229 
229 
230 
230 
230 
230 
256 
256 
256 
256 
257 
257 
257 
231 
231 
175 
201 
202 
202 
201 
201 
201 
201 
229 
200 
200 
227 
228 
228 
228 
228 
199 
227 
227 
227 
227 
228 
255 
255 
255 
175 
174 
174 
174 
146 
174 
173 
174 
200 
146 
146 
173 
173 
173 
200 
200 
145 
145 
145 
172 
172 
172 
199 
199 
199 
175 
148 
148 
147 
121 
147 
147 
147 
147 
120 
120 
120 
120 
119 
146 
146 
93 
93 
93 
120 
119 
119 
119 
119 
145 
175 
149 
148 
148 
149 
149 
122 
148 
121 
122 
122 
122 
122 
121 
121 
121 
123 
123 
95 
95 
95 
94 
94 
94 
94 
175 
176 
176 
149 
177 
177 
150 
149 
149 
178 
177 
150 
150 
150 
150 
123 
178 
178 
151 
151 
151 
151 
124 
123 
123 
VECTORS VELOCITY float 
0.000000 -4.394095 0.000000 
-0.000000 -4.394095 0.000000 
-0.000000 -4.394095 0.000000 
-0.000000 -4.394095 0.000000 
-0.000000 -4.394095 0.000000 
0.000000 -4.394095 0.000000 
0.000000 -4.394095 0.000000 
0.000000 -4.394095 0.000000 
0.000000 -4.394095 0.000000 
-0.000000 -4.394095 0.000000 
-0.000000 -4.394095 0.000000 
0.000000 -4.394095 0.000000 
0.000000 -4.394095 0.000000 
0.000000 -4.394095 0.000000 
0.000000 -4.394095 0.000000 
0.000000 -4.394095 0.000000 
-0.000000 -4.394095 0.000000 
-0.000000 -4.394095 0.000000 
-0.000000 -4.394095 0.000000 
0.000000 -4.394095 0.000000 
0.000000 -4.394095 0.000000 
0.000000 -4.394095 0.000000 
0.000000 -4.394095 0.000000 
0.000000 -4.394095 0.000000 
-0.000000 -4.394095 0.000000 
0.000000 -4.394095 0.000000 
-0.000000 -4.394095 0.000000 
0.000000 -4.394095 0.000000 
-0.000000 -4.394095 0.000000 
-0.000000 -4.394095 0.000000 
-0.000000 -4.394095 0.000000 
-0.000000 -4.394095 0.000000 
-0.000000 -4.394095 0.000000 
-0.000000 -4.394095 0.000000 
-0.000000 -4.394095 0.000000 
-0.000000 -4.394095 0.000000 
0.000000 -4.394095 0.000000 
0.000000 -4.394095 0.000000 
0.000000 -4.394095 0.000000 
-0.000000 -4.394095 0.000000 
0.000000 -4.394095 0.000000 
0.000000 -4.394095 0.000000 
0.000000 -4.394095 0.000000 
0.000000 -4.394095 0.000000 
0.000000 -4.394095 0.000000 
-0.000000 -4.394095 0.000000 
0.000000 -4.394095 0.000000 
0.000000 -4.394095 0.000000 
0.000000 -4.394095 0.000000 
-0.000000 -4.394095 0.000000 
0.000000 -4.394095 0.000000 
-0.000000 -4.394095 0.000000 
0.000000 -4.394095 0.000000 
0.000000 -4.394095 0.000000 
0.000000 -4.394095 0.000000 
0.000000 -4.394095 0.000000 
0.000000 -4.394095 0.000000 
-0.000000 -4.394095 0.000000 
-0.000000 -4.394095 0.000000 
-0.000000 -4.394095 0.000000 
0.000000 -4.394095 0.000000 
0.000000 -4.394095 0.000000 
0.000000 -4.394095 0.000000 
0.000000 -4.394095 0.000000 
-0.000000 -4.394095 0.000000 
-0.000000 -4.394095 0.000000 
-0.000000 -4.394095 0.000000 
0.000000 -4.394095 0.000000 
-0.000000 -4.394095 0.000000 
-0.000000 -4.394095 0.000000 
-0.000000 -4.394095 0.000000 
0.000000 -4.394095 0.000000 
-0.000000 -4.394095 0.000000 
-0.000000 -4.394095 0.000000 
0.000000 -4.394095 0.000000 
0.000000 -4.394095 0.000000 
0.000000 -4.394095 0.000000 
-0.000000 -4.394095 0.000000 
0.000000 -4.394095 0.000000 
0.000000 -4.394095 0.000000 
0.000000 -4.394095 0.000000 
0.000000 -4.394095 0.000000 
0.000000 -4.394095 0.000000 
0.000000 -4.394095 0.000000 
-0.000000 -4.394095 0.000000 
-0.000000 -4.394095 0.000000 
-0.000000 -4.394095 0.000000 
-0.000000 -4.394095 0.000000 
-0.000000 -4.394095 0.000000 
-0.000000 -4.394095 0.000000 
-0.000000 -4.394095 0.000000 
-0.000000 -4.394095 0.000000 
-0.000000 -4.394095 0.000000 
-0.000000 -4.394095 0.000000 
-0.000000 -4.394095 0.000000 
-0.000000 -4.394095 0.000000 
0.000000 -4.394095 0.000000 
-0.000000 -4.394095 0.000000 
-0.000000 -4.394095 0.000000 
-0.000000 -4.394095 0.000000 
0.000000 -4.394095 0.000000 
-0.000000 -4.394095 0.000000 
-0.000000 -4.394095 0.000000 
-0.000000 -4.394095 0.000000 
-0.000000 -4.394095 0.000000 
-0.000000 -4.394095 0.000000 
0.000000 -4.394095 0.000000 
-0.000000 -4.394095 0.000000 
0.000000 -4.394095 0.000000 
-0.000000 -4.394095 0.000000 
-0.000000 -4.394095 0.000000 
-0.000000 -4.394095 0.000000 
-0.000000 -4.394095 0.000000 
-0.000000 -4.394095 0.000000 
-0.000000 -4.394095 0.000000 
-0.000000 -4.394095 0.000000 
0.000000 -4.394095 0.000000 
0.000000 -4.394095 0.000000 
-0.000000 -4.394095 0.000000 
-0.000000 -4.394095 0.000000 
-0.000000 -4.394095 0.000000 
-0.000000 -4.394095 0.000000 
-0.000000 -4.394095 0.000000 
0.000000 -4.394095 0.000000 
0.000000 -4.394095 0.000000 
0.000000 -4.394095 0.000000 
0.000000 -4.394095 0.000000 
0.000000 -4.394095 0.000000 
-0.000000 -4.394095 0.000000 
0.000000 -4.394095 0.000000 
0.000000 -4.394095 0.000000 
-0.000000 -4.394095 0.000000 
-0.000000 -4.394095 0.000000 
-0.000000 -4.394095 0.000000 
0.000000 -4.394095 0.000000 
-0.000000 -4.394095 0.000000 
0.000000 -4.394095 0.000000 
0.000000 -4.394095 0.000000 
0.000000 -4.394095 0.000000 
-0.000000 -4.394095 0.000000 
0.000000 -4.394095 0.000000 
0.000000 -4.394095 0.000000 
0.000000 -4.394095 0.000000 
0.000000 -4.394095 0.000000 
-0.000000 -4.394095 0.000000 
0.000000 -4.394095 0.000000 
0.000000 -4.394095 0.000000 
0.000000 -4.394095 0.000000 
-0.000000 -4.394095 0.000000 
0.000000 -4.394095 0.000000 
0.000000 -4.394095 0.000000 
0.000000 -4.394095 0.000000 
0.000000 -4.394095 0.000000 
-0.000000 -4.394095 0.000000 
0.000000 -4.394095 0.000000 
0.000000 -4.394095 0.000000 
0.000000 -4.394095 0.000000 
0.000000 -4.394095 0.000000 
0.000000 -4.394095 0.000000 
0.000000 -4.394095 0.000000 
0.000000 -4.394095 0.000000 
-0.000000 -4.394095 0.000000 
-0.000000 -4.394095 0.000000 
-0.000000 -4.394095 0.000000 
-0.000000 -4.394095 0.000000 
0.000000 -4.394095 0.000000 
-0.000000 -4.394095 0.000000 
0.000000 -4.394095 0.000000 
-0.000000 -4.394095 0.000000 
0.000000 -4.394095 0.000000 
0.000000 -4.394095 0.000000 
0.000000 -4.394095 0.000000 
-0.000000 -4.394095 0.000000 
0.000000 -4.394095 0.000000 
0.000000 -4.394095 0.000000 
TENSORS STRESS float 
-0.000000 0.000000 0.000000 
0.000000 -0.000000 0.000000 
0.000000 0.000000 0.000000 

0.000000 -0.000000 0.000000 
0.000000 0.000000 0.000000 
0.000000 0.000000 0.000000 

0.000000 -0.000000 0.000000 
0.000000 0.000000 0.000000 
0.000000 0.000000 0.000000 

0.000000 0.000000 0.000000 
0.000000 0.000000 0.000000 
0.000000 0.000000 0.000000 

-0.000000 0.000000 0.000000 
0.000000 -0.000000 0.000000 
0.000000 0.000000 0.000000 

0.000000 -0.000000 0.000000 
0.000000 0.000000 0.000000 
0.000000 0.000000 0.000000 

-0.000000 0.000000 0.000000 
0.000000 -0.000000 0.000000 
0.000000 0.000000 0.000000 

0.000000 -0.000000 0.000000 
0.000000 0.000000 0.000000 
0.000000 0.000000 0.000000 

-0.000000 0.000000 0.000000 
0.000000 -0.000000 0.000000 
0.000000 0.000000 0.000000 

0.000000 -0.000000 0.000000 
0.000000 0.000000 0.000000 
0.000000 0.000000 0.000000 

-0.000000 -0.000000 0.000000 
0.000000 -0.000000 0.000000 
0.000000 0.000000 0.000000 

-0.000000 0.000000 0.000000 
0.000000 0.000000 0.000000 
0.000000 0.000000 0.000000 

-0.000000 -0.000000 0.000000 
0.000000 0.000000 0.000000 
0.000000 0.000000 0.000000 

-0.000000 -0.000000 0.000000 
0.000000 -0.000000 0.000000 
0.000000 0.000000 0.000000 

-0.000000 -0.000000 0.000000 
0.000000 -0.000000 0.000000 
0.000000 0.000000 0.000000 

-0.000000 0.000000 0.000000 
0.000000 0.000000 0.000000 
0.000000 0.000000 0.000000 

0.000000 -0.000000 0.000000 
0.000000 0.000000 0.000000 
0.000000 0.000000 0.000000 

0.000000 -0.000000 0.000000 
0.000000 0.000000 0.000000 
0.000000 0.000000 0.000000 

-0.000000 -0.000000 0.000000 
0.000000 0.000000 0.000000 
0.000000 0.000000 0.000000 

-0.000000 -0.000000 0.000000 
0.000000 -0.000000 0.000000 
0.000000 0.000000 0.000000 

0.000000 0.000000 0.000000 
0.000000 0.000000 0.000000 
0.000000 0.000000 0.000000 

0.000000 0.000000 0.000000 
0.000000 0.000000 0.000000 
0.000000 0.000000 0.000000 

0.000000 0.000000 0.000000 
0.000000 -0.000000 0.000000 
0.000000 0.000000 0.000000 

-0.000000 0.000000 0.000000 
0.000000 -0.000000 0.000000 
0.000000 0.000000 0.000000 

-0.000000 0.000000 0.000000 
0.000000 -0.000000 0.000000 
0.000000 0.000000 0.000000 

-0.000000 0.000000 0.000000 
0.000000 -0.000000 0.000000 
0.000000 0.000000 0.000000 

-0.000000 -0.000000 0.000000 
0.000000 0.000000 0.000000 
0.000000 0.000000 0.000000 

0.000000 0.000000 0.000000 
0.000000 0.000000 0.000000 
0.000000 0.000000 0.000000 

-0.000000 -0.000000 0.000000 
0.000000 -0.000000 0.000000 
0.000000 0.000000 0.000000 

-0.000000 0.000000 0.000000 
0.000000 -0.000000 0.000000 
0.000000 0.000000 0.000000 

0.000000 -0.000000 0.000000 
0.000000 -0.000000 0.000000 
0.000000 0.000000 0.000000 

-0.000000 -0.000000 0.000000 
0.000000 -0.000000 0.000000 
0.000000 0.000000 0.000000 

0.000000 -0.000000 0.000000 
0.000000 0.000000 0.000000 
0.000000 0.000000 0.000000 

-0.000000 -0.000000 0.000000 
0.000000 -0.000000 0.000000 
0.000000 0.000000 0.000000 

-0.000000 -0.000000 0.000000 
0.000000 -0.000000 0.000000 
0.000000 0.000000 0.000000 

-0.000000 0.000000 0.000000 
0.000000 0.000000 0.000000 
0.000000 0.000000 0.000000 

-0.000000 -0.000000 0.000000 
0.000000 -0.000000 0.000000 
0.000000 0.000000 0.000000 

-0.000000 0.000000 0.000000 
0.000000 -0.000000 0.000000 
0.000000 0.000000 0.000000 

0.000000 -0.000000 0.000000 
0.000000 0.000000 0.000000 
0.000000 0.000000 0.000000 

-0.000000 -0.000000 0.000000 
0.000000 -0.000000 0.000000 
0.000000 0.000000 0.000000 

0.000000 -0.000000 0.000000 
0.000000 0.000000 0.000000 
0.000000 0.000000 0.000000 

-0.000000 0.000000 0.000000 
0.000000 0.000000 0.000000 
0.000000 0.000000 0.000000 

0.000000 0.000000 0.000000 
0.000000 0.000000 0.000000 
0.000000 0.000000 0.000000 

0.000000 0.000000 0.000000 
0.000000 -0.000000 0.000000 
0.000000 0.000000 0.000000 

0.000000 0.000000 0.000000 
0.000000 0.000000 0.000000 
0.000000 0.000000 0.000000 

0.000000 -0.000000 0.000000 
0.000000 0.000000 0.000000 
0.000000 0.000000 0.000000 

0.000000 -0.000000 0.000000 
0.000000 0.000000 0.000000 
0.000000 0.000000 0.000000 

-0.000000 0.000000 0.000000 
0.000000 -0.000000 0.000000 
0.000000 0.000000 0.000000 

0.000000 -0.000000 0.000000 
0.000000 0.000000 0.000000 
0.000000 0.000000 0.000000 

0.000000 -0.000000 0.000000 
0.000000 0.000000 0.000000 
0.000000 0.000000 0.000000 

0.000000 -0.000000 0.000000 
0.000000 0.000000 0.000000 
0.000000 0.000000 0.000000 

0.000000 -0.000000 0.000000 
0.000000 -0.000000 0.000000 
0.000000 0.000000 0.000000 

0.000000 -0.000000 0.000000 
0.000000 0.000000 0.000000 
0.000000 0.000000 0.000000 

-0.000000 0.000000 0.000000 
0.000000 -0.000000 0.000000 
0.000000 0.000000 0.000000 

-0.000000 -0.000000 0.000000 
0.000000 -0.000000 0.000000 
0.000000 0.000000 0.000000 

-0.000000 -0.000000 0.000000 
0.000000 -0.000000 0.000000 
0.000000 0.000000 0.000000 

0.000000 0.000000 0.000000 
0.000000 0.000000 0.000000 
0.000000 0.000000 0.000000 

-0.000000 0.000000 0.000000 
0.000000 -0.000000 0.000000 
0.000000 0.000000 0.000000 

-0.000000 0.000000 0.000000 
0.000000 -0.000000 0.000000 
0.000000 0.000000 0.000000 

-0.000000 -0.000000 0.000000 
0.000000 0.000000 0.000000 
0.000000 0.000000 0.000000 

-0.000000 0.000000 0.000000 
0.000000 0.000000 0.000000 
0.000000 0.000000 0.000000 

0.000000 0.000000 0.000000 
0.000000 0.000000 0.000000 
0.000000 0.000000 0.000000 

-0.000000 0.000000 0.000000 
0.000000 -0.000000 0.000000 
0.000000 0.000000 0.000000 

-0.000000 0.000000 0.000000 
0.000000 0.000000 0.000000 
0.000000 0.000000 0.000000 

0.000000 0.000000 0.000000 
0.000000 -0.000000 0.000000 
0.000000 0.000000 0.000000 

-0.000000 0.000000 0.000000 
0.000000 -0.000000 0.000000 
0.000000 0.000000 0.000000 

-0.000000 -0.000000 0.000000 
0.000000 -0.000000 0.000000 
0.000000 0.000000 0.000000 

0.000000 0.000000 0.000000 
0.000000 0.000000 0.000000 
0.000000 0.000000 0.000000 

0.000000 -0.000000 0.000000 
0.000000 -0.000000 0.000000 
0.000000 0.000000 0.000000 

0.000000 -0.000000 0.000000 
0.000000 0.000000 0.000000 
0.000000 0.000000 0.000000 

0.000000 0.000000 0.000000 
0.000000 -0.000000 0.000000 
0.000000 0.000000 0.000000 

-0.000000 -0.000000 0.000000 
0.000000 -0.000000 0.000000 
0.000000 0.000000 0.000000 

0.000000 -0.000000 0.000000 
0.000000 0.000000 0.000000 
0.000000 0.000000 0.000000 

-0.000000 0.000000 0.000000 
0.000000 -0.000000 0.000000 
0.000000 0.000000 0.000000 

-0.000000 -0.000000 0.000000 
0.000000 -0.000000 0.000000 
0.000000 0.000000 0.000000 

0.000000 -0.000000 0.000000 
0.000000 0.000000 0.000000 
0.000000 0.000000 0.000000 

0.000000 0.000000 0.000000 
0.000000 0.000000 0.000000 
0.000000 0.000000 0.000000 

0.000000 -0.000000 0.000000 
0.000000 0.000000 0.000000 
0.000000 0.000000 0.000000 

0.000000 -0.000000 0.000000 
0.000000 0.000000 0.000000 
0.000000 0.000000 0.000000 

0.000000 0.000000 0.000000 
0.000000 0.000000 0.000000 
0.000000 0.000000 0.000000 

0.000000 0.000000 0.000000 
0.000000 0.000000 0.000000 
0.000000 0.000000 0.000000 

0.000000 0.000000 0.000000 
0.000000 -0.000000 0.000000 
0.000000 0.000000 0.000000 

0.000000 0.000000 0.000000 
0.000000 -0.000000 0.000000 
0.000000 0.000000 0.000000 

-0.000000 -0.000000 0.000000 
0.000000 -0.000000 0.000000 
0.000000 0.000000 0.000000 

-0.000000 0.000000 0.000000 
0.000000 -0.000000 0.000000 
0.000000 0.000000 0.000000 

0.000000 0.000000 0.000000 
0.000000 -0.000000 0.000000 
0.000000 0.000000 0.000000 

-0.000000 -0.000000 0.000000 
0.000000 -0.000000 0.000000 
0.000000 0.000000 0.000000 

-0.000000 -0.000000 0.000000 
0.000000 -0.000000 0.000000 
0.000000 0.000000 0.000000 

-0.000000 -0.000000 0.000000 
0.000000 -0.000000 0.000000 
0.000000 0.000000 0.000000 

-0.000000 0.000000 0.000000 
0.000000 -0.000000 0.000000 
0.000000 0.000000 0.000000 

-0.000000 -0.000000 0.000000 
0.000000 -0.000000 0.000000 
0.000000 0.000000 0.000000 

0.000000 0.000000 0.000000 
0.000000 0.000000 0.000000 
0.000000 0.000000 0.000000 

-0.000000 0.000000 0.000000 
0.000000 -0.000000 0.000000 
0.000000 0.000000 0.000000 

0.000000 -0.000000 0.000000 
0.000000 0.000000 0.000000 
0.000000 0.000000 0.000000 

-0.000000 0.000000 0.000000 
0.000000 -0.000000 0.000000 
0.000000 0.000000 0.000000 

-0.000000 -0.000000 0.000000 
0.000000 -0.000000 0.000000 
0.000000 0.000000 0.000000 

-0.000000 0.000000 0.000000 
0.000000 -0.000000 0.000000 
0.000000 0.000000 0.000000 

-0.000000 -0.000000 0.000000 
0.000000 -0.000000 0.000000 
0.000000 0.000000 0.000000 

-0.000000 -0.000000 0.000000 
0.000000 -0.000000 0.000000 
0.000000 0.000000 0.000000 

0.000000 0.000000 0.000000 
0.000000 0.000000 0.000000 
0.000000 0.000000 0.000000 

-0.000000 -0.000000 0.000000 
0.000000 -0.000000 0.000000 
0.000000 0.000000 0.000000 

-0.000000 0.000000 0.000000 
0.000000 -0.000000 0.000000 
0.000000 0.000000 0.000000 

-0.000000 0.000000 0.000000 
0.000000 -0.000000 0.000000 
0.000000 0.000000 0.000000 

0.000000 0.000000 0.000000 
0.000000 0.000000 0.000000 
0.000000 0.000000 0.000000 

0.000000 0.000000 0.000000 
0.000000 -0.000000 0.000000 
0.000000 0.000000 0.000000 

-0.000000 0.000000 0.000000 
0.000000 0.000000 0.000000 
0.000000 0.000000 0.000000 

0.000000 0.000000 0.000000 
0.000000 0.000000 0.000000 
0.000000 0.000000 0.000000 

-0.000000 -0.000000 0.000000 
0.000000 0.000000 0.000000 
0.000000 0.000000 0.000000 

0.000000 -0.000000 0.000000 
0.000000 0.000000 0.000000 
0.000000 0.000000 0.000000 

0.000000 -0.000000 0.000000 
0.000000 -0.000000 0.000000 
0.000000 0.000000 0.000000 

0.000000 -0.000000 0.000000 
0.000000 0.000000 0.000000 
0.000000 0.000000 0.000000 

0.000000 -0.000000 0.000000 
0.000000 0.000000 0.000000 
0.000000 0.000000 0.000000 

0.000000 -0.000000 0.000000 
0.000000 0.000000 0.000000 
0.000000 0.000000 0.000000 

0.000000 -0.000000 0.000000 
0.000000 0.000000 0.000000 
0.000000 0.000000 0.000000 

0.000000 0.000000 0.000000 
0.000000 0.000000 0.000000 
0.000000 0.000000 0.000000 

0.000000 0.000000 0.000000 
0.000000 0.000000 0.000000 
0.000000 0.000000 0.000000 

0.000000 -0.000000 0.000000 
0.000000 -0.000000 0.000000 
0.000000 0.000000 0.000000 

0.000000 0.000000 0.000000 
0.000000 -0.000000 0.000000 
0.000000 0.000000 0.000000 

0.000000 0.000000 0.000000 
0.000000 0.000000 0.000000 
0.000000 0.000000 0.000000 

0.000000 0.000000 0.000000 
0.000000 0.000000 0.000000 
0.000000 0.000000 0.000000 

0.000000 0.000000 0.000000 
0.000000 0.000000 0.000000 
0.000000 0.000000 0.000000 

0.000000 0.000000 0.000000 
0.000000 0.000000 0.000000 
0.000000 0.000000 0.000000 

0.000000 0.000000 0.000000 
0.000000 -0.000000 0.000000 
0.000000 0.000000 0.000000 

0.000000 -0.000000 0.000000 
0.000000 0.000000 0.000000 
0.000000 0.000000 0.000000 

0.000000 0.000000 0.000000 
0.000000 0.000000 0.000000 
0.000000 0.000000 0.000000 

-0.000000 -0.000000 0.000000 
0.000000 0.000000 0.000000 
0.000000 0.000000 0.000000 

0.000000 -0.000000 0.000000 
0.000000 -0.000000 0.000000 
0.000000 0.000000 0.000000 

0.000000 0.000000 0.000000 
0.000000 0.000000 0.000000 
0.000000 0.000000 0.000000 

-0.000000 0.000000 0.000000 
0.000000 -0.000000 0.000000 
0.000000 0.000000 0.000000 

-0.000000 0.000000 0.000000 
0.000000 -0.000000 0.000000 
0.000000 0.000000 0.000000 

0.000000 0.000000 0.000000 
0.000000 0.000000 0.000000 
0.000000 0.000000 0.000000 

-0.000000 -0.000000 0.000000 
0.000000 -0.000000 0.000000 
0.000000 0.000000 0.000000 

0.000000 0.000000 0.000000 
0.000000 0.000000 0.000000 
0.000000 0.000000 0.000000 

0.000000 0.000000 0.000000 
0.000000 -0.000000 0.000000 
0.000000 0.000000 0.000000 

0.000000 0.000000 0.000000 
0.000000 0.000000 0.000000 
0.000000 0.000000 0.000000 

0.000000 -0.000000 0.000000 
0.000000 -0.000000 0.000000 
0.000000 0.000000 0.000000 

0.000000 -0.000000 0.000000 
0.000000 -0.000000 0.000000 
0.000000 0.000000 0.000000 

0.000000 0.000000 0.000000 
0.000000 0.000000 0.000000 
0.000000 0.000000 0.000000 

0.000000 -0.000000 0.000000 
0.000000 0.000000 0.000000 
0.000000 0.000000 0.000000 

0.000000 -0.000000 0.000000 
0.000000 -0.000000 0.000000 
0.000000 0.000000 0.000000 

0.000000 0.000000 0.000000 
0.000000 0.000000 0.000000 
0.000000 0.000000 0.000000 

0.000000 -0.000000 0.000000 
0.000000 0.000000 0.000000 
0.000000 0.000000 0.000000 

0.000000 -0.000000 0.000000 
0.000000 0.000000 0.000000 
0.000000 0.000000 0.000000 

-0.000000 0.000000 0.000000 
0.000000 -0.000000 0.000000 
0.000000 0.000000 0.000000 

0.000000 0.000000 0.000000 
0.000000 0.000000 0.000000 
0.000000 0.000000 0.000000 

-0.000000 0.000000 0.000000 
0.000000 -0.000000 0.000000 
0.000000 0.000000 0.000000 

-0.000000 -0.000000 0.000000 
0.000000 0.000000 0.000000 
0.000000 0.000000 0.000000 

-0.000000 0.000000 0.000000 
0.000000 -0.000000 0.000000 
0.000000 0.000000 0.000000 

0.000000 -0.000000 0.000000 
0.000000 0.000000 0.000000 
0.000000 0.000000 0.000000 

-0.000000 0.000000 0.000000 
0.000000 -0.000000 0.000000 
0.000000 0.000000 0.000000 

-0.000000 0.000000 0.000000 
0.000000 -0.000000 0.000000 
0.000000 0.000000 0.000000 

0.000000 0.000000 0.000000 
0.000000 0.000000 0.000000 
0.000000 0.000000 0.000000 

0.000000 0.000000 0.000000 
0.000000 0.000000 0.000000 
0.000000 0.000000 0.000000 

0.000000 -0.000000 0.000000 
0.000000 -0.000000 0.000000 
0.000000 0.000000 0.000000 

-0.000000 -0.000000 0.000000 
0.000000 -0.000000 0.000000 
0.000000 0.000000 0.000000 

-0.000000 0.000000 0.000000 
0.000000 -0.000000 0.000000 
0.000000 0.000000 0.000000 

-0.000000 0.000000 0.000000 
0.000000 -0.000000 0.000000 
0.000000 0.000000 0.000000 

-0.000000 0.000000 0.000000 
0.000000 -0.000000 0.000000 
0.000000 0.000000 0.000000 

-0.000000 0.000000 0.000000 
0.000000 0.000000 0.000000 
0.000000 0.000000 0.000000 

-0.000000 0.000000 0.000000 
0.000000 -0.000000 0.000000 
0.000000 0.000000 0.000000 

-0.000000 -0.000000 0.000000 
0.000000 0.000000 0.000000 
0.000000 0.000000 0.000000 

0.000000 -0.000000 0.000000 
0.000000 0.000000 0.000000 
0.000000 0.000000 0.000000 

0.000000 -0.000000 0.000000 
0.000000 0.000000 0.000000 
0.000000 0.000000 0.000000 

0.000000 0.000000 0.000000 
0.000000 0.000000 0.000000 
0.000000 0.000000 0.000000 

0.000000 -0.000000 0.000000 
0.000000 0.000000 0.000000 
0.000000 0.000000 0.000000 

0.000000 -0.000000 0.000000 
0.000000 -0.000000 0.000000 
0.000000 0.000000 0.000000 

-0.000000 -0.000000 0.000000 
0.000000 0.000000 0.000000 
0.000000 0.000000 0.000000 

0.000000 0.000000 0.000000 
0.000000 0.000000 0.000000 
0.000000 0.000000 0.000000 

-0.000000 0.000000 0.000000 
0.000000 -0.000000 0.000000 
0.000000 0.000000 0.000000 

-0.000000 0.000000 0.000000 
0.000000 -0.000000 0.000000 
0.000000 0.000000 0.000000 

-0.000000 0.000000 0.000000 
0.000000 -0.000000 0.000000 
0.000000 0.000000 0.000000 

0.000000 0.000000 0.000000 
0.000000 0.000000 0.000000 
0.000000 0.000000 0.000000 

-0.000000 -0.000000 0.000000 
0.000000 0.000000 0.000000 
0.000000 0.000000 0.000000 

-0.000000 -0.000000 0.000000 
0.000000 0.000000 0.000000 
0.000000 0.000000 0.000000 

-0.000000 -0.000000 0.000000 
0.000000 -0.000000 0.000000 
0.000000 0.000000 0.000000 

TENSORS STRAIN float 
-0.000000 0.000000 0.000000 
0.000000 -0.000000 0.000000 
0.000000 0.000000 0.000000 

-0.000000 -0.000000 0.000000 
0.000000 0.000000 0.000000 
0.000000 0.000000 0.000000 

0.000000 -0.000000 0.000000 
0.000000 0.000000 0.000000 
0.000000 0.000000 0.000000 

0.000000 0.000000 0.000000 
0.000000 0.000000 0.000000 
0.000000 0.000000 0.000000 

-0.000000 0.000000 0.000000 
0.000000 -0.000000 0.000000 
0.000000 0.000000 0.000000 

-0.000000 -0.000000 0.000000 
0.000000 0.000000 0.000000 
0.000000 0.000000 0.000000 

-0.000000 0.000000 0.000000 
0.000000 -0.000000 0.000000 
0.000000 0.000000 0.000000 

-0.000000 -0.000000 0.000000 
0.000000 0.000000 0.000000 
0.000000 0.000000 0.000000 

-0.000000 0.000000 0.000000 
0.000000 -0.000000 0.000000 
0.000000 0.000000 0.000000 

0.000000 -0.000000 0.000000 
0.000000 0.000000 0.000000 
0.000000 0.000000 0.000000 

-0.000000 -0.000000 0.000000 
0.000000 -0.000000 0.000000 
0.000000 0.000000 0.000000 

-0.000000 0.000000 0.000000 
0.000000 0.000000 0.000000 
0.000000 0.000000 0.000000 

-0.000000 -0.000000 0.000000 
0.000000 0.000000 0.000000 
0.000000 0.000000 0.000000 

-0.000000 -0.000000 0.000000 
0.000000 -0.000000 0.000000 
0.000000 0.000000 0.000000 

-0.000000 -0.000000 0.000000 
0.000000 -0.000000 0.000000 
0.000000 0.000000 0.000000 

-0.000000 0.000000 0.000000 
0.000000 0.000000 0.000000 
0.000000 0.000000 0.000000 

0.000000 -0.000000 0.000000 
0.000000 0.000000 0.000000 
0.000000 0.000000 0.000000 

0.000000 -0.000000 0.000000 
0.000000 0.000000 0.000000 
0.000000 0.000000 0.000000 

-0.000000 -0.000000 0.000000 
0.000000 0.000000 0.000000 
0.000000 0.000000 0.000000 

0.000000 -0.000000 0.000000 
0.000000 -0.000000 0.000000 
0.000000 0.000000 0.000000 

0.000000 0.000000 0.000000 
0.000000 0.000000 0.000000 
0.000000 0.000000 0.000000 

0.000000 0.000000 0.000000 
0.000000 0.000000 0.000000 
0.000000 0.000000 0.000000 

0.000000 0.000000 0.000000 
0.000000 -0.000000 0.000000 
0.000000 0.000000 0.000000 

-0.000000 0.000000 0.000000 
0.000000 -0.000000 0.000000 
0.000000 0.000000 0.000000 

-0.000000 0.000000 0.000000 
0.000000 -0.000000 0.000000 
0.000000 0.000000 0.000000 

-0.000000 0.000000 0.000000 
0.000000 -0.000000 0.000000 
0.000000 0.000000 0.000000 

-0.000000 -0.000000 0.000000 
0.000000 0.000000 0.000000 
0.000000 0.000000 0.000000 

0.000000 0.000000 0.000000 
0.000000 -0.000000 0.000000 
0.000000 0.000000 0.000000 

0.000000 -0.000000 0.000000 
0.000000 -0.000000 0.000000 
0.000000 0.000000 0.000000 

-0.000000 0.000000 0.000000 
0.000000 -0.000000 0.000000 
0.000000 0.000000 0.000000 

0.000000 -0.000000 0.000000 
0.000000 -0.000000 0.000000 
0.000000 0.000000 0.000000 

-0.000000 -0.000000 0.000000 
0.000000 -0.000000 0.000000 
0.000000 0.000000 0.000000 

0.000000 -0.000000 0.000000 
0.000000 0.000000 0.000000 
0.000000 0.000000 0.000000 

-0.000000 -0.000000 0.000000 
0.000000 -0.000000 0.000000 
0.000000 0.000000 0.000000 

-0.000000 -0.000000 0.000000 
0.000000 -0.000000 0.000000 
0.000000 0.000000 0.000000 

-0.000000 0.000000 0.000000 
0.000000 0.000000 0.000000 
0.000000 0.000000 0.000000 

-0.000000 -0.000000 0.000000 
0.000000 -0.000000 0.000000 
0.000000 0.000000 0.000000 

-0.000000 0.000000 0.000000 
0.000000 -0.000000 0.000000 
0.000000 0.000000 0.000000 

-0.000000 -0.000000 0.000000 
0.000000 0.000000 0.000000 
0.000000 0.000000 0.000000 

0.000000 -0.000000 0.000000 
0.000000 -0.000000 0.000000 
0.000000 0.000000 0.000000 

-0.000000 -0.000000 0.000000 
0.000000 0.000000 0.000000 
0.000000 0.000000 0.000000 

-0.000000 0.000000 0.000000 
0.000000 0.000000 0.000000 
0.000000 0.000000 0.000000 

-0.000000 0.000000 0.000000 
0.000000 0.000000 0.000000 
0.000000 0.000000 0.000000 

0.000000 0.000000 0.000000 
0.000000 -0.000000 0.000000 
0.000000 0.000000 0.000000 

-0.000000 0.000000 0.000000 
0.000000 0.000000 0.000000 
0.000000 0.000000 0.000000 

-0.000000 -0.000000 0.000000 
0.000000 0.000000 0.000000 
0.000000 0.000000 0.000000 

0.000000 -0.000000 0.000000 
0.000000 0.000000 0.000000 
0.000000 0.000000 0.000000 

-0.000000 0.000000 0.000000 
0.000000 0.000000 0.000000 
0.000000 0.000000 0.000000 

0.000000 -0.000000 0.000000 
0.000000 0.000000 0.000000 
0.000000 0.000000 0.000000 

0.000000 -0.000000 0.000000 
0.000000 0.000000 0.000000 
0.000000 0.000000 0.000000 

-0.000000 -0.000000 0.000000 
0.000000 0.000000 0.000000 
0.000000 0.000000 0.000000 

0.000000 -0.000000 0.000000 
0.000000 -0.000000 0.000000 
0.000000 0.000000 0.000000 

0.000000 -0.000000 0.000000 
0.000000 0.000000 0.000000 
0.000000 0.000000 0.000000 

0.000000 0.000000 0.000000 
0.000000 -0.000000 0.000000 
0.000000 0.000000 0.000000 

-0.000000 -0.000000 0.000000 
0.000000 -0.000000 0.000000 
0.000000 0.000000 0.000000 

0.000000 -0.000000 0.000000 
0.000000 -0.000000 0.000000 
0.000000 0.000000 0.000000 

0.000000 0.000000 0.000000 
0.000000 0.000000 0.000000 
0.000000 0.000000 0.000000 

0.000000 0.000000 0.000000 
0.000000 -0.000000 0.000000 
0.000000 0.000000 0.000000 

0.000000 0.000000 0.000000 
0.000000 -0.000000 0.000000 
0.000000 0.000000 0.000000 

-0.000000 -0.000000 0.000000 
0.000000 0.000000 0.000000 
0.000000 0.000000 0.000000 

-0.000000 0.000000 0.000000 
0.000000 0.000000 0.000000 
0.000000 0.000000 0.000000 

-0.000000 0.000000 0.000000 
0.000000 0.000000 0.000000 
0.000000 0.000000 0.000000 

-0.000000 0.000000 0.000000 
0.000000 -0.000000 0.000000 
0.000000 0.000000 0.000000 

-0.000000 0.000000 0.000000 
0.000000 0.000000 0.000000 
0.000000 0.000000 0.000000 

0.000000 0.000000 0.000000 
0.000000 -0.000000 0.000000 
0.000000 0.000000 0.000000 

0.000000 0.000000 0.000000 
0.000000 -0.000000 0.000000 
0.000000 0.000000 0.000000 

-0.000000 -0.000000 0.000000 
0.000000 -0.000000 0.000000 
0.000000 0.000000 0.000000 

0.000000 0.000000 0.000000 
0.000000 0.000000 0.000000 
0.000000 0.000000 0.000000 

0.000000 -0.000000 0.000000 
0.000000 -0.000000 0.000000 
0.000000 0.000000 0.000000 

0.000000 -0.000000 0.000000 
0.000000 0.000000 0.000000 
0.000000 0.000000 0.000000 

0.000000 0.000000 0.000000 
0.000000 -0.000000 0.000000 
0.000000 0.000000 0.000000 

-0.000000 -0.000000 0.000000 
0.000000 -0.000000 0.000000 
0.000000 0.000000 0.000000 

0.000000 -0.000000 0.000000 
0.000000 0.000000 0.000000 
0.000000 0.000000 0.000000 

-0.000000 0.000000 0.000000 
0.000000 -0.000000 0.000000 
0.000000 0.000000 0.000000 

-0.000000 -0.000000 0.000000 
0.000000 0.000000 0.000000 
0.000000 0.000000 0.000000 

0.000000 -0.000000 0.000000 
0.000000 -0.000000 0.000000 
0.000000 0.000000 0.000000 

0.000000 0.000000 0.000000 
0.000000 0.000000 0.000000 
0.000000 0.000000 0.000000 

0.000000 -0.000000 0.000000 
0.000000 -0.000000 0.000000 
0.000000 0.000000 0.000000 

0.000000 -0.000000 0.000000 
0.000000 0.000000 0.000000 
0.000000 0.000000 0.000000 

-0.000000 0.000000 0.000000 
0.000000 0.000000 0.000000 
0.000000 0.000000 0.000000 

0.000000 0.000000 0.000000 
0.000000 0.000000 0.000000 
0.000000 0.000000 0.000000 

0.000000 0.000000 0.000000 
0.000000 -0.000000 0.000000 
0.000000 0.000000 0.000000 

0.000000 0.000000 0.000000 
0.000000 -0.000000 0.000000 
0.000000 0.000000 0.000000 

-0.000000 -0.000000 0.000000 
0.000000 -0.000000 0.000000 
0.000000 0.000000 0.000000 

0.000000 0.000000 0.000000 
0.000000 -0.000000 0.000000 
0.000000 0.000000 0.000000 

0.000000 0.000000 0.000000 
0.000000 -0.000000 0.000000 
0.000000 0.000000 0.000000 

-0.000000 -0.000000 0.000000 
0.000000 -0.000000 0.000000 
0.000000 0.000000 0.000000 

0.000000 -0.000000 0.000000 
0.000000 -0.000000 0.000000 
0.000000 0.000000 0.000000 

-0.000000 -0.000000 0.000000 
0.000000 -0.000000 0.000000 
0.000000 0.000000 0.000000 

-0.000000 0.000000 0.000000 
0.000000 -0.000000 0.000000 
0.000000 0.000000 0.000000 

-0.000000 -0.000000 0.000000 
0.000000 0.000000 0.000000 
0.000000 0.000000 0.000000 

-0.000000 0.000000 0.000000 
0.000000 0.000000 0.000000 
0.000000 0.000000 0.000000 

0.000000 0.000000 0.000000 
0.000000 -0.000000 0.000000 
0.000000 0.000000 0.000000 

0.000000 -0.000000 0.000000 
0.000000 0.000000 0.000000 
0.000000 0.000000 0.000000 

-0.000000 0.000000 0.000000 
0.000000 -0.000000 0.000000 
0.000000 0.000000 0.000000 

-0.000000 -0.000000 0.000000 
0.000000 -0.000000 0.000000 
0.000000 0.000000 0.000000 

-0.000000 0.000000 0.000000 
0.000000 -0.000000 0.000000 
0.000000 0.000000 0.000000 

0.000000 -0.000000 0.000000 
0.000000 -0.000000 0.000000 
0.000000 0.000000 0.000000 

-0.000000 -0.000000 0.000000 
0.000000 0.000000 0.000000 
0.000000 0.000000 0.000000 

-0.000000 0.000000 0.000000 
0.000000 0.000000 0.000000 
0.000000 0.000000 0.000000 

-0.000000 -0.000000 0.000000 
0.000000 -0.000000 0.000000 
0.000000 0.000000 0.000000 

-0.000000 0.000000 0.000000 
0.000000 -0.000000 0.000000 
0.000000 0.000000 0.000000 

-0.000000 0.000000 0.000000 
0.000000 -0.000000 0.000000 
0.000000 0.000000 0.000000 

-0.000000 0.000000 0.000000 
0.000000 0.000000 0.000000 
0.000000 0.000000 0.000000 

0.000000 0.000000 0.000000 
0.000000 -0.000000 0.000000 
0.000000 0.000000 0.000000 

-0.000000 0.000000 0.000000 
0.000000 0.000000 0.000000 
0.000000 0.000000 0.000000 

-0.000000 0.000000 0.000000 
0.000000 0.000000 0.000000 
0.000000 0.000000 0.000000 

-0.000000 -0.000000 0.000000 
0.000000 0.000000 0.000000 
0.000000 0.000000 0.000000 

0.000000 -0.000000 0.000000 
0.000000 0.000000 0.000000 
0.000000 0.000000 0.000000 

0.000000 -0.000000 0.000000 
0.000000 -0.000000 0.000000 
0.000000 0.000000 0.000000 

0.000000 -0.000000 0.000000 
0.000000 0.000000 0.000000 
0.000000 0.000000 0.000000 

0.000000 -0.000000 0.000000 
0.000000 0.000000 0.000000 
0.000000 0.000000 0.000000 

0.000000 -0.000000 0.000000 
0.000000 0.000000 0.000000 
0.000000 0.000000 0.000000 

0.000000 -0.000000 0.000000 
0.000000 0.000000 0.000000 
0.000000 0.000000 0.000000 

0.000000 0.000000 0.000000 
0.000000 0.000000 0.000000 
0.000000 0.000000 0.000000 

0.000000 0.000000 0.000000 
0.000000 0.000000 0.000000 
0.000000 0.000000 0.000000 

0.000000 -0.000000 0.000000 
0.000000 -0.000000 0.000000 
0.000000 0.000000 0.000000 

0.000000 0.000000 0.000000 
0.000000 -0.000000 0.000000 
0.000000 0.000000 0.000000 

0.000000 0.000000 0.000000 
0.000000 0.000000 0.000000 
0.000000 0.000000 0.000000 

0.000000 0.000000 0.000000 
0.000000 0.000000 0.000000 
0.000000 0.000000 0.000000 

0.000000 0.000000 0.000000 
0.000000 0.000000 0.000000 
0.000000 0.000000 0.000000 

0.000000 0.000000 0.000000 
0.000000 0.000000 0.000000 
0.000000 0.000000 0.000000 

0.000000 0.000000 0.000000 
0.000000 -0.000000 0.000000 
0.000000 0.000000 0.000000 

0.000000 -0.000000 0.000000 
0.000000 0.000000 0.000000 
0.000000 0.000000 0.000000 

0.000000 0.000000 0.000000 
0.000000 0.000000 0.000000 
0.000000 0.000000 0.000000 

-0.000000 -0.000000 0.000000 
0.000000 0.000000 0.000000 
0.000000 0.000000 0.000000 

0.000000 -0.000000 0.000000 
0.000000 -0.000000 0.000000 
0.000000 0.000000 0.000000 

0.000000 0.000000 0.000000 
0.000000 0.000000 0.000000 
0.000000 0.000000 0.000000 

0.000000 0.000000 0.000000 
0.000000 -0.000000 0.000000 
0.000000 0.000000 0.000000 

-0.000000 0.000000 0.000000 
0.000000 -0.000000 0.000000 
0.000000 0.000000 0.000000 

0.000000 0.000000 0.000000 
0.000000 0.000000 0.000000 
0.000000 0.000000 0.000000 

0.000000 -0.000000 0.000000 
0.000000 -0.000000 0.000000 
0.000000 0.000000 0.000000 

0.000000 0.000000 0.000000 
0.000000 0.000000 0.000000 
0.000000 0.000000 0.000000 

0.000000 0.000000 0.000000 
0.000000 -0.000000 0.000000 
0.000000 0.000000 0.000000 

0.000000 0.000000 0.000000 
0.000000 0.000000 0.000000 
0.000000 0.000000 0.000000 

0.000000 -0.000000 0.000000 
0.000000 -0.000000 0.000000 
0.000000 0.000000 0.000000 

0.000000 -0.000000 0.000000 
0.000000 -0.000000 0.000000 
0.000000 0.000000 0.000000 

0.000000 0.000000 0.000000 
0.000000 0.000000 0.000000 
0.000000 0.000000 0.000000 

0.000000 -0.000000 0.000000 
0.000000 -0.000000 0.000000 
0.000000 0.000000 0.000000 

0.000000 -0.000000 0.000000 
0.000000 -0.000000 0.000000 
0.000000 0.000000 0.000000 

0.000000 0.000000 0.000000 
0.000000 0.000000 0.000000 
0.000000 0.000000 0.000000 

0.000000 -0.000000 0.000000 
0.000000 -0.000000 0.000000 
0.000000 0.000000 0.000000 

0.000000 -0.000000 0.000000 
0.000000 0.000000 0.000000 
0.000000 0.000000 0.000000 

0.000000 0.000000 0.000000 
0.000000 -0.000000 0.000000 
0.000000 0.000000 0.000000 

0.000000 0.000000 0.000000 
0.000000 -0.000000 0.000000 
0.000000 0.000000 0.000000 

0.000000 0.000000 0.000000 
0.000000 -0.000000 0.000000 
0.000000 0.000000 0.000000 

-0.000000 -0.000000 0.000000 
0.000000 0.000000 0.000000 
0.000000 0.000000 0.000000 

-0.000000 0.000000 0.000000 
0.000000 -0.000000 0.000000 
0.000000 0.000000 0.000000 

0.000000 -0.000000 0.000000 
0.000000 0.000000 0.000000 
0.000000 0.000000 0.000000 

-0.000000 0.000000 0.000000 
0.000000 -0.000000 0.000000 
0.000000 0.000000 0.000000 

-0.000000 0.000000 0.000000 
0.000000 -0.000000 0.000000 
0.000000 0.000000 0.000000 

0.000000 0.000000 0.000000 
0.000000 0.000000 0.000000 
0.000000 0.000000 0.000000 

0.000000 0.000000 0.000000 
0.000000 0.000000 0.000000 
0.000000 0.000000 0.000000 

0.000000 -0.000000 0.000000 
0.000000 -0.000000 0.000000 
0.000000 0.000000 0.000000 

-0.000000 -0.000000 0.000000 
0.000000 0.000000 0.000000 
0.000000 0.000000 0.000000 

-0.000000 0.000000 0.000000 
0.000000 -0.000000 0.000000 
0.000000 0.000000 0.000000 

0.000000 0.000000 0.000000 
0.000000 -0.000000 0.000000 
0.000000 0.000000 0.000000 

-0.000000 0.000000 0.000000 
0.000000 -0.000000 0.000000 
0.000000 0.000000 0.000000 

-0.000000 0.000000 0.000000 
0.000000 0.000000 0.000000 
0.000000 0.000000 0.000000 

-0.000000 0.000000 0.000000 
0.000000 -0.000000 0.000000 
0.000000 0.000000 0.000000 

-0.000000 -0.000000 0.000000 
0.000000 0.000000 0.000000 
0.000000 0.000000 0.000000 

0.000000 -0.000000 0.000000 
0.000000 0.000000 0.000000 
0.000000 0.000000 0.000000 

0.000000 -0.000000 0.000000 
0.000000 0.000000 0.000000 
0.000000 0.000000 0.000000 

0.000000 0.000000 0.000000 
0.000000 0.000000 0.000000 
0.000000 0.000000 0.000000 

0.000000 -0.000000 0.000000 
0.000000 0.000000 0.000000 
0.000000 0.000000 0.000000 

0.000000 -0.000000 0.000000 
0.000000 -0.000000 0.000000 
0.000000 0.000000 0.000000 

-0.000000 -0.000000 0.000000 
0.000000 0.000000 0.000000 
0.000000 0.000000 0.000000 

-0.000000 0.000000 0.000000 
0.000000 0.000000 0.000000 
0.000000 0.000000 0.000000 

-0.000000 0.000000 0.000000 
0.000000 -0.000000 0.000000 
0.000000 0.000000 0.000000 

0.000000 0.000000 0.000000 
0.000000 -0.000000 0.000000 
0.000000 0.000000 0.000000 

-0.000000 0.000000 0.000000 
0.000000 -0.000000 0.000000 
0.000000 0.000000 0.000000 

0.000000 0.000000 0.000000 
0.000000 0.000000 0.000000 
0.000000 0.000000 0.000000 

-0.000000 -0.000000 0.000000 
0.000000 0.000000 0.000000 
0.000000 0.000000 0.000000 

-0.000000 -0.000000 0.000000 
0.000000 0.000000 0.000000 
0.000000 0.000000 0.000000 

-0.000000 -0.000000 0.000000 
0.000000 -0.000000 0.000000 
0.000000 0.000000 0.000000 

