# vtk DataFile Version 3.0 
vtk output 
ASCII 
DATASET UNSTRUCTURED_GRID 
POINTS 175 float 
-0.026061 -2.194519 0.000000 
-0.106992 -2.126463 0.000000 
-0.054870 -2.134696 0.000000 
-0.028809 -2.088812 0.000000 
-0.186430 -2.062388 0.000000 
-0.137056 -2.064914 0.000000 
-0.114311 -2.011267 0.000000 
-0.058186 -2.026932 0.000000 
-0.029377 -1.986755 0.000000 
-0.265318 -1.999232 0.000000 
-0.217198 -2.000032 0.000000 
-0.196633 -1.942735 0.000000 
-0.143120 -1.951444 0.000000 
-0.116563 -1.904175 0.000000 
-0.058945 -1.923821 0.000000 
-0.029568 -1.885701 0.000000 
-0.344206 -1.936076 0.000000 
-0.296791 -1.936069 0.000000 
-0.278030 -1.876126 0.000000 
-0.225992 -1.881993 0.000000 
-0.201664 -1.829876 0.000000 
-0.145749 -1.843350 0.000000 
-0.117890 -1.799007 0.000000 
-0.059328 -1.821713 0.000000 
-0.029759 -1.784647 0.000000 
-0.058559 -2.235269 0.000000 
-0.162226 -2.256112 0.000000 
-0.123292 -2.220494 0.000000 
-0.142917 -2.171511 0.000000 
-0.261851 -2.278269 0.000000 
-0.229092 -2.241241 0.000000 
-0.256854 -2.190010 0.000000 
-0.209613 -2.155897 0.000000 
-0.223062 -2.108323 0.000000 
-0.360414 -2.300569 0.000000 
-0.329787 -2.263446 0.000000 
-0.361761 -2.211644 0.000000 
-0.321587 -2.175235 0.000000 
-0.341985 -2.125001 0.000000 
-0.290702 -2.092202 0.000000 
-0.302189 -2.045467 0.000000 
-0.458977 -2.322869 0.000000 
-0.429420 -2.285794 0.000000 
-0.464588 -2.233752 0.000000 
-0.427556 -2.196725 0.000000 
-0.453135 -2.145210 0.000000 
-0.407738 -2.109895 0.000000 
-0.425037 -2.060467 0.000000 
-0.370772 -2.028838 0.000000 
-0.381315 -1.982610 0.000000 
-0.046960 -2.286085 0.000000 
-0.095301 -2.380131 0.000000 
-0.098873 -2.327483 0.000000 
-0.149405 -2.312286 0.000000 
-0.140093 -2.471835 0.000000 
-0.148617 -2.423136 0.000000 
-0.205981 -2.412899 0.000000 
-0.203197 -2.354696 0.000000 
-0.248777 -2.335549 0.000000 
-0.184111 -2.562798 0.000000 
-0.194039 -2.515707 0.000000 
-0.254475 -2.508408 0.000000 
-0.257893 -2.454298 0.000000 
-0.309886 -2.438925 0.000000 
-0.303554 -2.378380 0.000000 
-0.347255 -2.358222 0.000000 
-0.228129 -2.653762 0.000000 
-0.238687 -2.607538 0.000000 
-0.301302 -2.602585 0.000000 
-0.307162 -2.550547 0.000000 
-0.363386 -2.538426 0.000000 
-0.362692 -2.480914 0.000000 
-0.412122 -2.463621 0.000000 
-0.403017 -2.401474 0.000000 
-0.445733 -2.380896 0.000000 
-0.000000 -2.308700 0.000000 
0.043388 -2.405130 0.000000 
-0.000000 -2.375098 0.000000 
-0.043388 -2.405130 0.000000 
0.087158 -2.497327 0.000000 
0.043769 -2.473628 0.000000 
-0.000000 -2.512094 0.000000 
-0.043769 -2.473628 0.000000 
-0.087158 -2.497327 0.000000 
0.130831 -2.588457 0.000000 
0.087824 -2.566858 0.000000 
0.044436 -2.609557 0.000000 
-0.000000 -2.578492 0.000000 
-0.044436 -2.609557 0.000000 
-0.087824 -2.566858 0.000000 
-0.130831 -2.588457 0.000000 
0.174505 -2.679586 0.000000 
0.131782 -2.659020 0.000000 
0.088871 -2.704887 0.000000 
0.044532 -2.677023 0.000000 
-0.000000 -2.713423 0.000000 
-0.044532 -2.677023 0.000000 
-0.088871 -2.704887 0.000000 
-0.131782 -2.659020 0.000000 
-0.174505 -2.679586 0.000000 
0.046960 -2.286085 0.000000 
0.149405 -2.312286 0.000000 
0.098873 -2.327483 0.000000 
0.095301 -2.380131 0.000000 
0.248777 -2.335549 0.000000 
0.203197 -2.354696 0.000000 
0.205981 -2.412899 0.000000 
0.148617 -2.423136 0.000000 
0.140093 -2.471835 0.000000 
0.347255 -2.358222 0.000000 
0.303554 -2.378380 0.000000 
0.309886 -2.438925 0.000000 
0.257893 -2.454298 0.000000 
0.254475 -2.508408 0.000000 
0.194039 -2.515707 0.000000 
0.184111 -2.562798 0.000000 
0.445733 -2.380896 0.000000 
0.403017 -2.401474 0.000000 
0.412122 -2.463621 0.000000 
0.362692 -2.480914 0.000000 
0.363386 -2.538426 0.000000 
0.307162 -2.550547 0.000000 
0.301302 -2.602585 0.000000 
0.238687 -2.607538 0.000000 
0.228129 -2.653762 0.000000 
0.058559 -2.235269 0.000000 
0.142917 -2.171511 0.000000 
0.123292 -2.220494 0.000000 
0.162226 -2.256112 0.000000 
0.223062 -2.108323 0.000000 
0.209613 -2.155897 0.000000 
0.256854 -2.190010 0.000000 
0.229092 -2.241241 0.000000 
0.261851 -2.278269 0.000000 
0.302189 -2.045467 0.000000 
0.290702 -2.092202 0.000000 
0.341985 -2.125001 0.000000 
0.321587 -2.175235 0.000000 
0.361761 -2.211644 0.000000 
0.329787 -2.263446 0.000000 
0.360414 -2.300569 0.000000 
0.381315 -1.982610 0.000000 
0.370772 -2.028838 0.000000 
0.425037 -2.060467 0.000000 
0.407738 -2.109895 0.000000 
0.453135 -2.145210 0.000000 
0.427556 -2.196725 0.000000 
0.464588 -2.233752 0.000000 
0.429420 -2.285794 0.000000 
0.458977 -2.322869 0.000000 
0.026061 -2.194519 0.000000 
0.028809 -2.088812 0.000000 
0.054870 -2.134696 0.000000 
0.106992 -2.126463 0.000000 
0.029377 -1.986755 0.000000 
0.058186 -2.026932 0.000000 
0.114311 -2.011267 0.000000 
0.137056 -2.064914 0.000000 
0.186430 -2.062388 0.000000 
0.029568 -1.885701 0.000000 
0.058945 -1.923821 0.000000 
0.116563 -1.904175 0.000000 
0.143120 -1.951444 0.000000 
0.196633 -1.942735 0.000000 
0.217198 -2.000032 0.000000 
0.265318 -1.999232 0.000000 
0.029759 -1.784647 0.000000 
0.059328 -1.821713 0.000000 
0.117890 -1.799007 0.000000 
0.145749 -1.843350 0.000000 
0.201664 -1.829876 0.000000 
0.225992 -1.881993 0.000000 
0.278030 -1.876126 0.000000 
0.296791 -1.936069 0.000000 
0.344206 -1.936076 0.000000 
CELLS 175 350 
1 0 
1 1 
1 2 
1 3 
1 4 
1 5 
1 6 
1 7 
1 8 
1 9 
1 10 
1 11 
1 12 
1 13 
1 14 
1 15 
1 16 
1 17 
1 18 
1 19 
1 20 
1 21 
1 22 
1 23 
1 24 
1 25 
1 26 
1 27 
1 28 
1 29 
1 30 
1 31 
1 32 
1 33 
1 34 
1 35 
1 36 
1 37 
1 38 
1 39 
1 40 
1 41 
1 42 
1 43 
1 44 
1 45 
1 46 
1 47 
1 48 
1 49 
1 50 
1 51 
1 52 
1 53 
1 54 
1 55 
1 56 
1 57 
1 58 
1 59 
1 60 
1 61 
1 62 
1 63 
1 64 
1 65 
1 66 
1 67 
1 68 
1 69 
1 70 
1 71 
1 72 
1 73 
1 74 
1 75 
1 76 
1 77 
1 78 
1 79 
1 80 
1 81 
1 82 
1 83 
1 84 
1 85 
1 86 
1 87 
1 88 
1 89 
1 90 
1 91 
1 92 
1 93 
1 94 
1 95 
1 96 
1 97 
1 98 
1 99 
1 100 
1 101 
1 102 
1 103 
1 104 
1 105 
1 106 
1 107 
1 108 
1 109 
1 110 
1 111 
1 112 
1 113 
1 114 
1 115 
1 116 
1 117 
1 118 
1 119 
1 120 
1 121 
1 122 
1 123 
1 124 
1 125 
1 126 
1 127 
1 128 
1 129 
1 130 
1 131 
1 132 
1 133 
1 134 
1 135 
1 136 
1 137 
1 138 
1 139 
1 140 
1 141 
1 142 
1 143 
1 144 
1 145 
1 146 
1 147 
1 148 
1 149 
1 150 
1 151 
1 152 
1 153 
1 154 
1 155 
1 156 
1 157 
1 158 
1 159 
1 160 
1 161 
1 162 
1 163 
1 164 
1 165 
1 166 
1 167 
1 168 
1 169 
1 170 
1 171 
1 172 
1 173 
1 174 
CELL_TYPES 175 
1 
1 
1 
1 
1 
1 
1 
1 
1 
1 
1 
1 
1 
1 
1 
1 
1 
1 
1 
1 
1 
1 
1 
1 
1 
1 
1 
1 
1 
1 
1 
1 
1 
1 
1 
1 
1 
1 
1 
1 
1 
1 
1 
1 
1 
1 
1 
1 
1 
1 
1 
1 
1 
1 
1 
1 
1 
1 
1 
1 
1 
1 
1 
1 
1 
1 
1 
1 
1 
1 
1 
1 
1 
1 
1 
1 
1 
1 
1 
1 
1 
1 
1 
1 
1 
1 
1 
1 
1 
1 
1 
1 
1 
1 
1 
1 
1 
1 
1 
1 
1 
1 
1 
1 
1 
1 
1 
1 
1 
1 
1 
1 
1 
1 
1 
1 
1 
1 
1 
1 
1 
1 
1 
1 
1 
1 
1 
1 
1 
1 
1 
1 
1 
1 
1 
1 
1 
1 
1 
1 
1 
1 
1 
1 
1 
1 
1 
1 
1 
1 
1 
1 
1 
1 
1 
1 
1 
1 
1 
1 
1 
1 
1 
1 
1 
1 
1 
1 
1 
1 
1 
1 
1 
1 
1 
POINT_DATA 175 
VECTORS X_GC float 
-0.026061 -2.194519 0.000000 
-0.106992 -2.126463 0.000000 
-0.054870 -2.134696 0.000000 
-0.028809 -2.088812 0.000000 
-0.186430 -2.062388 0.000000 
-0.137056 -2.064914 0.000000 
-0.114311 -2.011267 0.000000 
-0.058186 -2.026932 0.000000 
-0.029377 -1.986755 0.000000 
-0.265318 -1.999232 0.000000 
-0.217198 -2.000032 0.000000 
-0.196633 -1.942735 0.000000 
-0.143120 -1.951444 0.000000 
-0.116563 -1.904175 0.000000 
-0.058945 -1.923821 0.000000 
-0.029568 -1.885701 0.000000 
-0.344206 -1.936076 0.000000 
-0.296791 -1.936069 0.000000 
-0.278030 -1.876126 0.000000 
-0.225992 -1.881993 0.000000 
-0.201664 -1.829876 0.000000 
-0.145749 -1.843350 0.000000 
-0.117890 -1.799007 0.000000 
-0.059328 -1.821713 0.000000 
-0.029759 -1.784647 0.000000 
-0.058559 -2.235269 0.000000 
-0.162226 -2.256112 0.000000 
-0.123292 -2.220494 0.000000 
-0.142917 -2.171511 0.000000 
-0.261851 -2.278269 0.000000 
-0.229092 -2.241241 0.000000 
-0.256854 -2.190010 0.000000 
-0.209613 -2.155897 0.000000 
-0.223062 -2.108323 0.000000 
-0.360414 -2.300569 0.000000 
-0.329787 -2.263446 0.000000 
-0.361761 -2.211644 0.000000 
-0.321587 -2.175235 0.000000 
-0.341985 -2.125001 0.000000 
-0.290702 -2.092202 0.000000 
-0.302189 -2.045467 0.000000 
-0.458977 -2.322869 0.000000 
-0.429420 -2.285794 0.000000 
-0.464588 -2.233752 0.000000 
-0.427556 -2.196725 0.000000 
-0.453135 -2.145210 0.000000 
-0.407738 -2.109895 0.000000 
-0.425037 -2.060467 0.000000 
-0.370772 -2.028838 0.000000 
-0.381315 -1.982610 0.000000 
-0.046960 -2.286085 0.000000 
-0.095301 -2.380131 0.000000 
-0.098873 -2.327483 0.000000 
-0.149405 -2.312286 0.000000 
-0.140093 -2.471835 0.000000 
-0.148617 -2.423136 0.000000 
-0.205981 -2.412899 0.000000 
-0.203197 -2.354696 0.000000 
-0.248777 -2.335549 0.000000 
-0.184111 -2.562798 0.000000 
-0.194039 -2.515707 0.000000 
-0.254475 -2.508408 0.000000 
-0.257893 -2.454298 0.000000 
-0.309886 -2.438925 0.000000 
-0.303554 -2.378380 0.000000 
-0.347255 -2.358222 0.000000 
-0.228129 -2.653762 0.000000 
-0.238687 -2.607538 0.000000 
-0.301302 -2.602585 0.000000 
-0.307162 -2.550547 0.000000 
-0.363386 -2.538426 0.000000 
-0.362692 -2.480914 0.000000 
-0.412122 -2.463621 0.000000 
-0.403017 -2.401474 0.000000 
-0.445733 -2.380896 0.000000 
-0.000000 -2.308700 0.000000 
0.043388 -2.405130 0.000000 
-0.000000 -2.375098 0.000000 
-0.043388 -2.405130 0.000000 
0.087158 -2.497327 0.000000 
0.043769 -2.473628 0.000000 
-0.000000 -2.512094 0.000000 
-0.043769 -2.473628 0.000000 
-0.087158 -2.497327 0.000000 
0.130831 -2.588457 0.000000 
0.087824 -2.566858 0.000000 
0.044436 -2.609557 0.000000 
-0.000000 -2.578492 0.000000 
-0.044436 -2.609557 0.000000 
-0.087824 -2.566858 0.000000 
-0.130831 -2.588457 0.000000 
0.174505 -2.679586 0.000000 
0.131782 -2.659020 0.000000 
0.088871 -2.704887 0.000000 
0.044532 -2.677023 0.000000 
-0.000000 -2.713423 0.000000 
-0.044532 -2.677023 0.000000 
-0.088871 -2.704887 0.000000 
-0.131782 -2.659020 0.000000 
-0.174505 -2.679586 0.000000 
0.046960 -2.286085 0.000000 
0.149405 -2.312286 0.000000 
0.098873 -2.327483 0.000000 
0.095301 -2.380131 0.000000 
0.248777 -2.335549 0.000000 
0.203197 -2.354696 0.000000 
0.205981 -2.412899 0.000000 
0.148617 -2.423136 0.000000 
0.140093 -2.471835 0.000000 
0.347255 -2.358222 0.000000 
0.303554 -2.378380 0.000000 
0.309886 -2.438925 0.000000 
0.257893 -2.454298 0.000000 
0.254475 -2.508408 0.000000 
0.194039 -2.515707 0.000000 
0.184111 -2.562798 0.000000 
0.445733 -2.380896 0.000000 
0.403017 -2.401474 0.000000 
0.412122 -2.463621 0.000000 
0.362692 -2.480914 0.000000 
0.363386 -2.538426 0.000000 
0.307162 -2.550547 0.000000 
0.301302 -2.602585 0.000000 
0.238687 -2.607538 0.000000 
0.228129 -2.653762 0.000000 
0.058559 -2.235269 0.000000 
0.142917 -2.171511 0.000000 
0.123292 -2.220494 0.000000 
0.162226 -2.256112 0.000000 
0.223062 -2.108323 0.000000 
0.209613 -2.155897 0.000000 
0.256854 -2.190010 0.000000 
0.229092 -2.241241 0.000000 
0.261851 -2.278269 0.000000 
0.302189 -2.045467 0.000000 
0.290702 -2.092202 0.000000 
0.341985 -2.125001 0.000000 
0.321587 -2.175235 0.000000 
0.361761 -2.211644 0.000000 
0.329787 -2.263446 0.000000 
0.360414 -2.300569 0.000000 
0.381315 -1.982610 0.000000 
0.370772 -2.028838 0.000000 
0.425037 -2.060467 0.000000 
0.407738 -2.109895 0.000000 
0.453135 -2.145210 0.000000 
0.427556 -2.196725 0.000000 
0.464588 -2.233752 0.000000 
0.429420 -2.285794 0.000000 
0.458977 -2.322869 0.000000 
0.026061 -2.194519 0.000000 
0.028809 -2.088812 0.000000 
0.054870 -2.134696 0.000000 
0.106992 -2.126463 0.000000 
0.029377 -1.986755 0.000000 
0.058186 -2.026932 0.000000 
0.114311 -2.011267 0.000000 
0.137056 -2.064914 0.000000 
0.186430 -2.062388 0.000000 
0.029568 -1.885701 0.000000 
0.058945 -1.923821 0.000000 
0.116563 -1.904175 0.000000 
0.143120 -1.951444 0.000000 
0.196633 -1.942735 0.000000 
0.217198 -2.000032 0.000000 
0.265318 -1.999232 0.000000 
0.029759 -1.784647 0.000000 
0.059328 -1.821713 0.000000 
0.117890 -1.799007 0.000000 
0.145749 -1.843350 0.000000 
0.201664 -1.829876 0.000000 
0.225992 -1.881993 0.000000 
0.278030 -1.876126 0.000000 
0.296791 -1.936069 0.000000 
0.344206 -1.936076 0.000000 
VECTORS X_EC float 
0.338794 0.126003 0.000000 
-0.609100 -0.792745 0.000000 
0.713312 -0.681604 0.000000 
0.374519 0.698966 0.000000 
0.423588 0.342235 0.000000 
-0.218274 0.376339 0.000000 
-0.513962 -0.347900 0.000000 
0.756418 -0.136414 0.000000 
0.381900 -0.678806 0.000000 
-0.550868 -0.510368 0.000000 
0.823577 -0.499572 0.000000 
0.556234 0.726924 0.000000 
-0.139443 0.844493 0.000000 
-0.484677 0.206368 0.000000 
0.766286 0.471583 0.000000 
0.384386 -0.043037 0.000000 
0.474677 0.637029 0.000000 
-0.141715 0.636933 0.000000 
-0.385608 -0.172295 0.000000 
0.937896 -0.093100 0.000000 
0.621631 -0.796680 0.000000 
-0.105264 -0.614781 0.000000 
-0.467428 0.786593 0.000000 
0.771260 -0.906879 0.000000 
0.386873 0.592732 0.000000 
0.761262 0.676138 0.000000 
0.108942 0.957514 0.000000 
-0.397202 0.476675 0.000000 
-0.142083 -0.184600 0.000000 
-0.595936 -0.743375 0.000000 
0.978194 0.756759 0.000000 
-0.660903 0.065134 0.000000 
0.724964 -0.395386 0.000000 
0.899809 0.962365 0.000000 
0.685384 -0.442323 0.000000 
0.287229 -0.943481 0.000000 
0.702895 0.357190 0.000000 
0.180633 -0.134329 0.000000 
0.445811 -0.812488 0.000000 
-0.220880 0.744726 0.000000 
-0.071546 0.113800 0.000000 
-0.033296 -0.141271 0.000000 
-0.417537 -0.641780 0.000000 
0.039645 0.655657 0.000000 
-0.441768 0.155786 0.000000 
-0.109248 -0.539665 0.000000 
-0.699407 0.983580 0.000000 
-0.474522 0.316300 0.000000 
0.820030 -0.110693 0.000000 
0.957100 -0.734765 0.000000 
0.610485 -0.637856 0.000000 
-0.761092 0.631763 0.000000 
-0.714655 -0.078974 0.000000 
-0.057734 -0.284141 0.000000 
-0.178789 -0.130233 0.000000 
-0.067979 -0.787659 0.000000 
0.677748 -0.925862 0.000000 
0.641556 0.288393 0.000000 
-0.765897 0.029914 0.000000 
0.393446 -0.902223 0.000000 
0.522510 0.462047 0.000000 
-0.691820 0.363502 0.000000 
-0.647393 -0.366980 0.000000 
0.028512 -0.574507 0.000000 
-0.053800 0.608133 0.000000 
0.514316 0.336002 0.000000 
0.965681 0.325786 0.000000 
-0.897068 -0.298243 0.000000 
-0.083078 -0.365096 0.000000 
-0.006893 0.932379 0.000000 
0.724017 0.768746 0.000000 
0.714996 -0.007657 0.000000 
-0.642413 -0.241115 0.000000 
-0.760780 0.919905 0.000000 
-0.205471 0.642090 0.000000 
0.000000 -0.332554 0.000000 
-0.564049 0.969258 0.000000 
0.000000 0.563822 0.000000 
0.564049 0.969258 0.000000 
0.866949 0.213914 0.000000 
-0.569003 -0.106017 0.000000 
0.000000 0.413271 0.000000 
0.569003 -0.106017 0.000000 
-0.866949 0.213914 0.000000 
0.299194 -0.555836 0.000000 
0.858290 -0.847420 0.000000 
-0.577662 -0.270974 0.000000 
0.000000 -0.690352 0.000000 
0.577662 -0.270974 0.000000 
-0.858290 -0.847420 0.000000 
-0.299194 -0.555836 0.000000 
-0.268560 0.674414 0.000000 
0.286830 0.396772 0.000000 
0.844677 -0.984029 0.000000 
-0.578910 0.639808 0.000000 
0.000000 -0.868788 0.000000 
0.578910 0.639808 0.000000 
-0.844677 -0.984030 0.000000 
-0.286830 0.396772 0.000000 
0.268560 0.674414 0.000000 
-0.610485 -0.637856 0.000000 
0.057734 -0.284141 0.000000 
0.714655 -0.078974 0.000000 
0.761092 0.631763 0.000000 
0.765897 0.029914 0.000000 
-0.641556 0.288393 0.000000 
-0.677748 -0.925862 0.000000 
0.067979 -0.787659 0.000000 
0.178789 -0.130232 0.000000 
-0.514316 0.336002 0.000000 
0.053800 0.608133 0.000000 
-0.028512 -0.574507 0.000000 
0.647393 -0.366980 0.000000 
0.691820 0.363502 0.000000 
-0.522510 0.462047 0.000000 
-0.393446 -0.902223 0.000000 
0.205471 0.642090 0.000000 
0.760780 0.919905 0.000000 
0.642413 -0.241115 0.000000 
-0.714996 -0.007657 0.000000 
-0.724017 0.768746 0.000000 
0.006894 0.932379 0.000000 
0.083078 -0.365096 0.000000 
0.897068 -0.298243 0.000000 
-0.965681 0.325786 0.000000 
-0.761262 0.676138 0.000000 
0.142083 -0.184600 0.000000 
0.397202 0.476675 0.000000 
-0.108942 0.957514 0.000000 
-0.899809 0.962365 0.000000 
-0.724964 -0.395386 0.000000 
0.660903 0.065134 0.000000 
-0.978194 0.756759 0.000000 
0.595936 -0.743375 0.000000 
0.071546 0.113800 0.000000 
0.220880 0.744726 0.000000 
-0.445811 -0.812488 0.000000 
-0.180633 -0.134329 0.000000 
-0.702895 0.357190 0.000000 
-0.287229 -0.943481 0.000000 
-0.685384 -0.442323 0.000000 
-0.957100 -0.734765 0.000000 
-0.820030 -0.110693 0.000000 
0.474522 0.316301 0.000000 
0.699407 0.983580 0.000000 
0.109248 -0.539665 0.000000 
0.441768 0.155786 0.000000 
-0.039645 0.655657 0.000000 
0.417537 -0.641780 0.000000 
0.033296 -0.141271 0.000000 
-0.338794 0.126003 0.000000 
-0.374519 0.698966 0.000000 
-0.713312 -0.681604 0.000000 
0.609100 -0.792745 0.000000 
-0.381900 -0.678806 0.000000 
-0.756418 -0.136414 0.000000 
0.513962 -0.347900 0.000000 
0.218274 0.376339 0.000000 
-0.423588 0.342235 0.000000 
-0.384386 -0.043037 0.000000 
-0.766286 0.471583 0.000000 
0.484677 0.206368 0.000000 
0.139443 0.844493 0.000000 
-0.556234 0.726924 0.000000 
-0.823577 -0.499572 0.000000 
0.550868 -0.510368 0.000000 
-0.386873 0.592732 0.000000 
-0.771260 -0.906879 0.000000 
0.467428 0.786593 0.000000 
0.105264 -0.614781 0.000000 
-0.621631 -0.796680 0.000000 
-0.937896 -0.093100 0.000000 
0.385608 -0.172295 0.000000 
0.141715 0.636933 0.000000 
-0.474677 0.637029 0.000000 
CELL_DATA 175 
SCALARS MASS float 
LOOKUP_TABLE default 
0.078183 
0.086427 
0.094672 
0.086427 
0.088131 
0.092111 
0.085854 
0.092111 
0.088131 
0.088705 
0.091000 
0.086983 
0.091556 
0.086983 
0.091000 
0.088705 
0.089278 
0.091574 
0.089278 
0.092722 
0.089278 
0.092722 
0.089278 
0.091574 
0.089278 
0.078183 
0.086427 
0.094672 
0.086427 
0.088131 
0.092111 
0.085854 
0.092111 
0.088131 
0.088705 
0.091000 
0.086983 
0.091556 
0.086983 
0.091000 
0.088705 
0.089278 
0.091574 
0.089278 
0.092722 
0.089278 
0.092722 
0.089278 
0.091574 
0.089278 
0.078183 
0.086427 
0.094672 
0.086427 
0.088131 
0.092111 
0.085854 
0.092111 
0.088131 
0.088705 
0.091000 
0.086983 
0.091556 
0.086983 
0.091000 
0.088705 
0.089278 
0.091574 
0.089278 
0.092722 
0.089278 
0.092722 
0.089278 
0.091574 
0.089278 
0.078183 
0.086427 
0.094672 
0.086427 
0.088131 
0.092111 
0.085854 
0.092111 
0.088131 
0.088705 
0.091000 
0.086983 
0.091556 
0.086983 
0.091000 
0.088705 
0.089278 
0.091574 
0.089278 
0.092722 
0.089278 
0.092722 
0.089278 
0.091574 
0.089278 
0.078183 
0.086427 
0.094672 
0.086427 
0.088131 
0.092111 
0.085854 
0.092111 
0.088131 
0.088705 
0.091000 
0.086983 
0.091556 
0.086983 
0.091000 
0.088705 
0.089278 
0.091574 
0.089278 
0.092722 
0.089278 
0.092722 
0.089278 
0.091574 
0.089278 
0.078183 
0.086427 
0.094672 
0.086427 
0.088131 
0.092111 
0.085854 
0.092111 
0.088131 
0.088705 
0.091000 
0.086983 
0.091556 
0.086983 
0.091000 
0.088705 
0.089278 
0.091574 
0.089278 
0.092722 
0.089278 
0.092722 
0.089278 
0.091574 
0.089278 
0.078183 
0.086427 
0.094672 
0.086427 
0.088131 
0.092111 
0.085854 
0.092111 
0.088131 
0.088705 
0.091000 
0.086983 
0.091556 
0.086983 
0.091000 
0.088705 
0.089278 
0.091574 
0.089278 
0.092722 
0.089278 
0.092722 
0.089278 
0.091574 
0.089278 
SCALARS MASS float 
LOOKUP_TABLE default 
0.078183 
0.086427 
0.094672 
0.086427 
0.088131 
0.092111 
0.085854 
0.092111 
0.088131 
0.088705 
0.091000 
0.086983 
0.091556 
0.086983 
0.091000 
0.088705 
0.089278 
0.091574 
0.089278 
0.092722 
0.089278 
0.092722 
0.089278 
0.091574 
0.089278 
0.078183 
0.086427 
0.094672 
0.086427 
0.088131 
0.092111 
0.085854 
0.092111 
0.088131 
0.088705 
0.091000 
0.086983 
0.091556 
0.086983 
0.091000 
0.088705 
0.089278 
0.091574 
0.089278 
0.092722 
0.089278 
0.092722 
0.089278 
0.091574 
0.089278 
0.078183 
0.086427 
0.094672 
0.086427 
0.088131 
0.092111 
0.085854 
0.092111 
0.088131 
0.088705 
0.091000 
0.086983 
0.091556 
0.086983 
0.091000 
0.088705 
0.089278 
0.091574 
0.089278 
0.092722 
0.089278 
0.092722 
0.089278 
0.091574 
0.089278 
0.078183 
0.086427 
0.094672 
0.086427 
0.088131 
0.092111 
0.085854 
0.092111 
0.088131 
0.088705 
0.091000 
0.086983 
0.091556 
0.086983 
0.091000 
0.088705 
0.089278 
0.091574 
0.089278 
0.092722 
0.089278 
0.092722 
0.089278 
0.091574 
0.089278 
0.078183 
0.086427 
0.094672 
0.086427 
0.088131 
0.092111 
0.085854 
0.092111 
0.088131 
0.088705 
0.091000 
0.086983 
0.091556 
0.086983 
0.091000 
0.088705 
0.089278 
0.091574 
0.089278 
0.092722 
0.089278 
0.092722 
0.089278 
0.091574 
0.089278 
0.078183 
0.086427 
0.094672 
0.086427 
0.088131 
0.092111 
0.085854 
0.092111 
0.088131 
0.088705 
0.091000 
0.086983 
0.091556 
0.086983 
0.091000 
0.088705 
0.089278 
0.091574 
0.089278 
0.092722 
0.089278 
0.092722 
0.089278 
0.091574 
0.089278 
0.078183 
0.086427 
0.094672 
0.086427 
0.088131 
0.092111 
0.085854 
0.092111 
0.088131 
0.088705 
0.091000 
0.086983 
0.091556 
0.086983 
0.091000 
0.088705 
0.089278 
0.091574 
0.089278 
0.092722 
0.089278 
0.092722 
0.089278 
0.091574 
0.089278 
SCALARS DENSITY float 
LOOKUP_TABLE default 
20.000000 
20.000000 
20.000000 
20.000000 
20.000000 
20.000000 
20.000000 
20.000000 
20.000000 
20.000000 
20.000000 
20.000000 
20.000000 
20.000000 
20.000000 
20.000000 
20.000000 
20.000000 
20.000000 
20.000000 
20.000000 
20.000000 
20.000000 
20.000000 
20.000000 
20.000000 
20.000000 
20.000000 
20.000000 
20.000000 
20.000000 
20.000000 
20.000000 
20.000000 
20.000000 
20.000000 
20.000000 
20.000000 
20.000000 
20.000000 
20.000000 
20.000000 
20.000000 
20.000000 
20.000000 
20.000000 
20.000000 
20.000000 
20.000000 
20.000000 
20.000000 
20.000000 
20.000000 
20.000000 
20.000000 
20.000000 
20.000000 
20.000000 
20.000000 
20.000000 
20.000000 
20.000000 
20.000000 
20.000000 
20.000000 
20.000000 
20.000000 
20.000000 
20.000000 
20.000000 
20.000000 
20.000000 
20.000000 
20.000000 
20.000000 
20.000000 
20.000000 
20.000000 
20.000000 
20.000000 
20.000000 
20.000000 
20.000000 
20.000000 
20.000000 
20.000000 
20.000000 
20.000000 
20.000000 
20.000000 
20.000000 
20.000000 
20.000000 
20.000000 
20.000000 
20.000000 
20.000000 
20.000000 
20.000000 
20.000000 
20.000000 
20.000000 
20.000000 
20.000000 
20.000000 
20.000000 
20.000000 
20.000000 
20.000000 
20.000000 
20.000000 
20.000000 
20.000000 
20.000000 
20.000000 
20.000000 
20.000000 
20.000000 
20.000000 
20.000000 
20.000000 
20.000000 
20.000000 
20.000000 
20.000000 
20.000000 
20.000000 
20.000000 
20.000000 
20.000000 
20.000000 
20.000000 
20.000000 
20.000000 
20.000000 
20.000000 
20.000000 
20.000000 
20.000000 
20.000000 
20.000000 
20.000000 
20.000000 
20.000000 
20.000000 
20.000000 
20.000000 
20.000000 
20.000000 
20.000000 
20.000000 
20.000000 
20.000000 
20.000000 
20.000000 
20.000000 
20.000000 
20.000000 
20.000000 
20.000000 
20.000000 
20.000000 
20.000000 
20.000000 
20.000000 
20.000000 
20.000000 
20.000000 
20.000000 
20.000000 
20.000000 
20.000000 
20.000000 
20.000000 
20.000000 
SCALARS ELEM_i float 
LOOKUP_TABLE default 
167 
194 
167 
168 
195 
195 
195 
168 
168 
222 
195 
196 
196 
196 
169 
169 
223 
223 
223 
196 
196 
196 
197 
169 
170 
167 
194 
194 
194 
220 
194 
221 
194 
195 
220 
220 
221 
221 
221 
222 
222 
247 
247 
248 
248 
248 
249 
249 
222 
222 
166 
193 
193 
193 
192 
192 
192 
193 
220 
191 
192 
219 
219 
219 
220 
220 
191 
218 
218 
219 
219 
219 
246 
247 
247 
166 
166 
166 
166 
138 
165 
165 
165 
192 
137 
137 
164 
164 
164 
191 
191 
137 
137 
136 
164 
163 
164 
190 
191 
191 
166 
139 
139 
139 
112 
139 
138 
138 
138 
112 
112 
111 
111 
111 
138 
137 
85 
85 
84 
111 
111 
111 
110 
110 
137 
167 
140 
140 
140 
141 
140 
113 
140 
112 
114 
114 
113 
113 
113 
112 
112 
114 
114 
87 
87 
86 
86 
86 
85 
85 
167 
168 
167 
140 
168 
168 
141 
141 
141 
169 
169 
142 
142 
142 
141 
114 
170 
169 
143 
142 
142 
142 
115 
115 
115 
VECTORS VELOCITY float 
0.000000 -6.641762 0.000000 
0.000000 -6.641762 0.000000 
0.000000 -6.641762 0.000000 
0.000000 -6.641762 0.000000 
0.000000 -6.641762 0.000000 
0.000000 -6.641762 0.000000 
0.000000 -6.641762 0.000000 
0.000000 -6.641762 0.000000 
0.000000 -6.641762 0.000000 
0.000000 -6.641762 0.000000 
0.000000 -6.641762 0.000000 
-0.000000 -6.641762 0.000000 
-0.000000 -6.641762 0.000000 
-0.000000 -6.641762 0.000000 
0.000000 -6.641762 0.000000 
0.000000 -6.641762 0.000000 
0.000000 -6.641762 0.000000 
-0.000000 -6.641762 0.000000 
0.000000 -6.641762 0.000000 
-0.000000 -6.641762 0.000000 
-0.000000 -6.641762 0.000000 
-0.000000 -6.641762 0.000000 
-0.000000 -6.641762 0.000000 
-0.000000 -6.641762 0.000000 
-0.000000 -6.641762 0.000000 
0.000000 -6.641762 0.000000 
0.000000 -6.641762 0.000000 
0.000000 -6.641762 0.000000 
-0.000000 -6.641762 0.000000 
-0.000000 -6.641762 0.000000 
-0.000000 -6.641762 0.000000 
-0.000000 -6.641762 0.000000 
-0.000000 -6.641762 0.000000 
0.000000 -6.641762 0.000000 
-0.000000 -6.641762 0.000000 
-0.000000 -6.641762 0.000000 
0.000000 -6.641762 0.000000 
0.000000 -6.641762 0.000000 
0.000000 -6.641762 0.000000 
0.000000 -6.641762 0.000000 
0.000000 -6.641762 0.000000 
0.000000 -6.641762 0.000000 
0.000000 -6.641762 0.000000 
-0.000000 -6.641762 0.000000 
-0.000000 -6.641762 0.000000 
-0.000000 -6.641762 0.000000 
-0.000000 -6.641762 0.000000 
-0.000000 -6.641762 0.000000 
-0.000000 -6.641762 0.000000 
0.000000 -6.641762 0.000000 
0.000000 -6.641762 0.000000 
-0.000000 -6.641762 0.000000 
0.000000 -6.641762 0.000000 
0.000000 -6.641762 0.000000 
0.000000 -6.641762 0.000000 
0.000000 -6.641762 0.000000 
0.000000 -6.641762 0.000000 
0.000000 -6.641762 0.000000 
0.000000 -6.641762 0.000000 
-0.000000 -6.641762 0.000000 
-0.000000 -6.641762 0.000000 
-0.000000 -6.641762 0.000000 
0.000000 -6.641762 0.000000 
0.000000 -6.641762 0.000000 
0.000000 -6.641762 0.000000 
0.000000 -6.641762 0.000000 
-0.000000 -6.641762 0.000000 
-0.000000 -6.641762 0.000000 
0.000000 -6.641762 0.000000 
0.000000 -6.641762 0.000000 
0.000000 -6.641762 0.000000 
-0.000000 -6.641762 0.000000 
-0.000000 -6.641762 0.000000 
0.000000 -6.641762 0.000000 
0.000000 -6.641762 0.000000 
0.000000 -6.641762 0.000000 
0.000000 -6.641762 0.000000 
0.000000 -6.641762 0.000000 
0.000000 -6.641762 0.000000 
-0.000000 -6.641762 0.000000 
-0.000000 -6.641762 0.000000 
-0.000000 -6.641762 0.000000 
0.000000 -6.641762 0.000000 
0.000000 -6.641762 0.000000 
0.000000 -6.641762 0.000000 
-0.000000 -6.641762 0.000000 
0.000000 -6.641762 0.000000 
-0.000000 -6.641762 0.000000 
0.000000 -6.641762 0.000000 
-0.000000 -6.641762 0.000000 
-0.000000 -6.641762 0.000000 
-0.000000 -6.641762 0.000000 
-0.000000 -6.641762 0.000000 
0.000000 -6.641762 0.000000 
0.000000 -6.641762 0.000000 
0.000000 -6.641762 0.000000 
0.000000 -6.641762 0.000000 
-0.000000 -6.641762 0.000000 
-0.000000 -6.641762 0.000000 
-0.000000 -6.641762 0.000000 
-0.000000 -6.641762 0.000000 
-0.000000 -6.641762 0.000000 
-0.000000 -6.641762 0.000000 
0.000000 -6.641762 0.000000 
0.000000 -6.641762 0.000000 
-0.000000 -6.641762 0.000000 
-0.000000 -6.641762 0.000000 
-0.000000 -6.641762 0.000000 
-0.000000 -6.641762 0.000000 
-0.000000 -6.641762 0.000000 
-0.000000 -6.641762 0.000000 
-0.000000 -6.641762 0.000000 
-0.000000 -6.641762 0.000000 
-0.000000 -6.641762 0.000000 
-0.000000 -6.641762 0.000000 
-0.000000 -6.641762 0.000000 
0.000000 -6.641762 0.000000 
-0.000000 -6.641762 0.000000 
-0.000000 -6.641762 0.000000 
-0.000000 -6.641762 0.000000 
0.000000 -6.641762 0.000000 
-0.000000 -6.641762 0.000000 
-0.000000 -6.641762 0.000000 
0.000000 -6.641762 0.000000 
-0.000000 -6.641762 0.000000 
-0.000000 -6.641762 0.000000 
-0.000000 -6.641762 0.000000 
-0.000000 -6.641762 0.000000 
-0.000000 -6.641762 0.000000 
-0.000000 -6.641762 0.000000 
-0.000000 -6.641762 0.000000 
-0.000000 -6.641762 0.000000 
0.000000 -6.641762 0.000000 
0.000000 -6.641762 0.000000 
0.000000 -6.641762 0.000000 
-0.000000 -6.641762 0.000000 
-0.000000 -6.641762 0.000000 
0.000000 -6.641762 0.000000 
0.000000 -6.641762 0.000000 
-0.000000 -6.641762 0.000000 
0.000000 -6.641762 0.000000 
-0.000000 -6.641762 0.000000 
0.000000 -6.641762 0.000000 
0.000000 -6.641762 0.000000 
0.000000 -6.641762 0.000000 
0.000000 -6.641762 0.000000 
-0.000000 -6.641762 0.000000 
-0.000000 -6.641762 0.000000 
-0.000000 -6.641762 0.000000 
0.000000 -6.641762 0.000000 
-0.000000 -6.641762 0.000000 
0.000000 -6.641762 0.000000 
0.000000 -6.641762 0.000000 
-0.000000 -6.641762 0.000000 
0.000000 -6.641762 0.000000 
-0.000000 -6.641762 0.000000 
0.000000 -6.641762 0.000000 
-0.000000 -6.641762 0.000000 
0.000000 -6.641762 0.000000 
0.000000 -6.641762 0.000000 
0.000000 -6.641762 0.000000 
0.000000 -6.641762 0.000000 
0.000000 -6.641762 0.000000 
0.000000 -6.641762 0.000000 
0.000000 -6.641762 0.000000 
0.000000 -6.641762 0.000000 
0.000000 -6.641762 0.000000 
0.000000 -6.641762 0.000000 
-0.000000 -6.641762 0.000000 
-0.000000 -6.641762 0.000000 
-0.000000 -6.641762 0.000000 
-0.000000 -6.641762 0.000000 
0.000000 -6.641762 0.000000 
0.000000 -6.641762 0.000000 
0.000000 -6.641762 0.000000 
TENSORS STRESS float 
-0.000000 0.000000 0.000000 
0.000000 0.000000 0.000000 
0.000000 0.000000 0.000000 

0.000000 -0.000000 0.000000 
0.000000 0.000000 0.000000 
0.000000 0.000000 0.000000 

-0.000000 0.000000 0.000000 
0.000000 -0.000000 0.000000 
0.000000 0.000000 0.000000 

0.000000 0.000000 0.000000 
0.000000 0.000000 0.000000 
0.000000 0.000000 0.000000 

0.000000 0.000000 0.000000 
0.000000 0.000000 0.000000 
0.000000 0.000000 0.000000 

0.000000 0.000000 0.000000 
0.000000 0.000000 0.000000 
0.000000 0.000000 0.000000 

0.000000 0.000000 0.000000 
0.000000 0.000000 0.000000 
0.000000 0.000000 0.000000 

0.000000 -0.000000 0.000000 
0.000000 0.000000 0.000000 
0.000000 0.000000 0.000000 

-0.000000 0.000000 0.000000 
0.000000 -0.000000 0.000000 
0.000000 0.000000 0.000000 

0.000000 -0.000000 0.000000 
0.000000 0.000000 0.000000 
0.000000 0.000000 0.000000 

0.000000 0.000000 0.000000 
0.000000 -0.000000 0.000000 
0.000000 0.000000 0.000000 

0.000000 0.000000 0.000000 
0.000000 0.000000 0.000000 
0.000000 0.000000 0.000000 

-0.000000 -0.000000 0.000000 
0.000000 0.000000 0.000000 
0.000000 0.000000 0.000000 

-0.000000 0.000000 0.000000 
0.000000 -0.000000 0.000000 
0.000000 0.000000 0.000000 

0.000000 -0.000000 0.000000 
0.000000 0.000000 0.000000 
0.000000 0.000000 0.000000 

-0.000000 0.000000 0.000000 
0.000000 -0.000000 0.000000 
0.000000 0.000000 0.000000 

-0.000000 0.000000 0.000000 
0.000000 0.000000 0.000000 
0.000000 0.000000 0.000000 

-0.000000 0.000000 0.000000 
0.000000 0.000000 0.000000 
0.000000 0.000000 0.000000 

-0.000000 -0.000000 0.000000 
0.000000 0.000000 0.000000 
0.000000 0.000000 0.000000 

-0.000000 0.000000 0.000000 
0.000000 -0.000000 0.000000 
0.000000 0.000000 0.000000 

-0.000000 -0.000000 0.000000 
0.000000 0.000000 0.000000 
0.000000 0.000000 0.000000 

-0.000000 -0.000000 0.000000 
0.000000 -0.000000 0.000000 
0.000000 0.000000 0.000000 

0.000000 -0.000000 0.000000 
0.000000 0.000000 0.000000 
0.000000 0.000000 0.000000 

-0.000000 0.000000 0.000000 
0.000000 -0.000000 0.000000 
0.000000 0.000000 0.000000 

-0.000000 0.000000 0.000000 
0.000000 -0.000000 0.000000 
0.000000 0.000000 0.000000 

0.000000 0.000000 0.000000 
0.000000 0.000000 0.000000 
0.000000 0.000000 0.000000 

0.000000 -0.000000 0.000000 
0.000000 0.000000 0.000000 
0.000000 0.000000 0.000000 

0.000000 -0.000000 0.000000 
0.000000 0.000000 0.000000 
0.000000 0.000000 0.000000 

0.000000 -0.000000 0.000000 
0.000000 0.000000 0.000000 
0.000000 0.000000 0.000000 

0.000000 0.000000 0.000000 
0.000000 0.000000 0.000000 
0.000000 0.000000 0.000000 

0.000000 -0.000000 0.000000 
0.000000 0.000000 0.000000 
0.000000 0.000000 0.000000 

-0.000000 -0.000000 0.000000 
0.000000 -0.000000 0.000000 
0.000000 0.000000 0.000000 

-0.000000 0.000000 0.000000 
0.000000 -0.000000 0.000000 
0.000000 0.000000 0.000000 

0.000000 -0.000000 0.000000 
0.000000 0.000000 0.000000 
0.000000 0.000000 0.000000 

-0.000000 -0.000000 0.000000 
0.000000 -0.000000 0.000000 
0.000000 0.000000 0.000000 

-0.000000 -0.000000 0.000000 
0.000000 -0.000000 0.000000 
0.000000 0.000000 0.000000 

0.000000 0.000000 0.000000 
0.000000 0.000000 0.000000 
0.000000 0.000000 0.000000 

0.000000 0.000000 0.000000 
0.000000 0.000000 0.000000 
0.000000 0.000000 0.000000 

0.000000 -0.000000 0.000000 
0.000000 -0.000000 0.000000 
0.000000 0.000000 0.000000 

0.000000 -0.000000 0.000000 
0.000000 0.000000 0.000000 
0.000000 0.000000 0.000000 

0.000000 -0.000000 0.000000 
0.000000 0.000000 0.000000 
0.000000 0.000000 0.000000 

0.000000 -0.000000 0.000000 
0.000000 0.000000 0.000000 
0.000000 0.000000 0.000000 

0.000000 -0.000000 0.000000 
0.000000 0.000000 0.000000 
0.000000 0.000000 0.000000 

-0.000000 -0.000000 0.000000 
0.000000 -0.000000 0.000000 
0.000000 0.000000 0.000000 

-0.000000 0.000000 0.000000 
0.000000 -0.000000 0.000000 
0.000000 0.000000 0.000000 

0.000000 -0.000000 0.000000 
0.000000 0.000000 0.000000 
0.000000 0.000000 0.000000 

-0.000000 -0.000000 0.000000 
0.000000 0.000000 0.000000 
0.000000 0.000000 0.000000 

-0.000000 -0.000000 0.000000 
0.000000 -0.000000 0.000000 
0.000000 0.000000 0.000000 

-0.000000 0.000000 0.000000 
0.000000 -0.000000 0.000000 
0.000000 0.000000 0.000000 

-0.000000 0.000000 0.000000 
0.000000 -0.000000 0.000000 
0.000000 0.000000 0.000000 

0.000000 0.000000 0.000000 
0.000000 0.000000 0.000000 
0.000000 0.000000 0.000000 

-0.000000 -0.000000 0.000000 
0.000000 0.000000 0.000000 
0.000000 0.000000 0.000000 

-0.000000 -0.000000 0.000000 
0.000000 -0.000000 0.000000 
0.000000 0.000000 0.000000 

-0.000000 -0.000000 0.000000 
0.000000 -0.000000 0.000000 
0.000000 0.000000 0.000000 

-0.000000 0.000000 0.000000 
0.000000 -0.000000 0.000000 
0.000000 0.000000 0.000000 

-0.000000 -0.000000 0.000000 
0.000000 -0.000000 0.000000 
0.000000 0.000000 0.000000 

-0.000000 -0.000000 0.000000 
0.000000 -0.000000 0.000000 
0.000000 0.000000 0.000000 

-0.000000 0.000000 0.000000 
0.000000 0.000000 0.000000 
0.000000 0.000000 0.000000 

0.000000 -0.000000 0.000000 
0.000000 0.000000 0.000000 
0.000000 0.000000 0.000000 

0.000000 -0.000000 0.000000 
0.000000 -0.000000 0.000000 
0.000000 0.000000 0.000000 

0.000000 -0.000000 0.000000 
0.000000 0.000000 0.000000 
0.000000 0.000000 0.000000 

-0.000000 -0.000000 0.000000 
0.000000 0.000000 0.000000 
0.000000 0.000000 0.000000 

0.000000 0.000000 0.000000 
0.000000 0.000000 0.000000 
0.000000 0.000000 0.000000 

-0.000000 -0.000000 0.000000 
0.000000 -0.000000 0.000000 
0.000000 0.000000 0.000000 

0.000000 -0.000000 0.000000 
0.000000 -0.000000 0.000000 
0.000000 0.000000 0.000000 

0.000000 0.000000 0.000000 
0.000000 -0.000000 0.000000 
0.000000 0.000000 0.000000 

-0.000000 -0.000000 0.000000 
0.000000 -0.000000 0.000000 
0.000000 0.000000 0.000000 

0.000000 -0.000000 0.000000 
0.000000 0.000000 0.000000 
0.000000 0.000000 0.000000 

-0.000000 -0.000000 0.000000 
0.000000 -0.000000 0.000000 
0.000000 0.000000 0.000000 

-0.000000 0.000000 0.000000 
0.000000 0.000000 0.000000 
0.000000 0.000000 0.000000 

-0.000000 0.000000 0.000000 
0.000000 -0.000000 0.000000 
0.000000 0.000000 0.000000 

-0.000000 -0.000000 0.000000 
0.000000 -0.000000 0.000000 
0.000000 0.000000 0.000000 

0.000000 -0.000000 0.000000 
0.000000 -0.000000 0.000000 
0.000000 0.000000 0.000000 

0.000000 0.000000 0.000000 
0.000000 0.000000 0.000000 
0.000000 0.000000 0.000000 

-0.000000 0.000000 0.000000 
0.000000 0.000000 0.000000 
0.000000 0.000000 0.000000 

-0.000000 0.000000 0.000000 
0.000000 -0.000000 0.000000 
0.000000 0.000000 0.000000 

0.000000 0.000000 0.000000 
0.000000 0.000000 0.000000 
0.000000 0.000000 0.000000 

0.000000 -0.000000 0.000000 
0.000000 0.000000 0.000000 
0.000000 0.000000 0.000000 

0.000000 0.000000 0.000000 
0.000000 0.000000 0.000000 
0.000000 0.000000 0.000000 

0.000000 0.000000 0.000000 
0.000000 0.000000 0.000000 
0.000000 0.000000 0.000000 

0.000000 0.000000 0.000000 
0.000000 -0.000000 0.000000 
0.000000 0.000000 0.000000 

0.000000 0.000000 0.000000 
0.000000 -0.000000 0.000000 
0.000000 0.000000 0.000000 

0.000000 0.000000 0.000000 
0.000000 0.000000 0.000000 
0.000000 0.000000 0.000000 

-0.000000 -0.000000 0.000000 
0.000000 0.000000 0.000000 
0.000000 0.000000 0.000000 

-0.000000 -0.000000 0.000000 
0.000000 -0.000000 0.000000 
0.000000 0.000000 0.000000 

-0.000000 -0.000000 0.000000 
0.000000 -0.000000 0.000000 
0.000000 0.000000 0.000000 

0.000000 0.000000 0.000000 
0.000000 0.000000 0.000000 
0.000000 0.000000 0.000000 

-0.000000 -0.000000 0.000000 
0.000000 -0.000000 0.000000 
0.000000 0.000000 0.000000 

0.000000 0.000000 0.000000 
0.000000 0.000000 0.000000 
0.000000 0.000000 0.000000 

0.000000 -0.000000 0.000000 
0.000000 -0.000000 0.000000 
0.000000 0.000000 0.000000 

0.000000 -0.000000 0.000000 
0.000000 -0.000000 0.000000 
0.000000 0.000000 0.000000 

-0.000000 0.000000 0.000000 
0.000000 -0.000000 0.000000 
0.000000 0.000000 0.000000 

0.000000 -0.000000 0.000000 
0.000000 0.000000 0.000000 
0.000000 0.000000 0.000000 

-0.000000 0.000000 0.000000 
0.000000 -0.000000 0.000000 
0.000000 0.000000 0.000000 

0.000000 0.000000 0.000000 
0.000000 0.000000 0.000000 
0.000000 0.000000 0.000000 

0.000000 0.000000 0.000000 
0.000000 -0.000000 0.000000 
0.000000 0.000000 0.000000 

0.000000 0.000000 0.000000 
0.000000 -0.000000 0.000000 
0.000000 0.000000 0.000000 

-0.000000 0.000000 0.000000 
0.000000 -0.000000 0.000000 
0.000000 0.000000 0.000000 

-0.000000 -0.000000 0.000000 
0.000000 -0.000000 0.000000 
0.000000 0.000000 0.000000 

0.000000 0.000000 0.000000 
0.000000 0.000000 0.000000 
0.000000 0.000000 0.000000 

0.000000 0.000000 0.000000 
0.000000 0.000000 0.000000 
0.000000 0.000000 0.000000 

-0.000000 0.000000 0.000000 
0.000000 0.000000 0.000000 
0.000000 0.000000 0.000000 

0.000000 0.000000 0.000000 
0.000000 0.000000 0.000000 
0.000000 0.000000 0.000000 

0.000000 0.000000 0.000000 
0.000000 0.000000 0.000000 
0.000000 0.000000 0.000000 

-0.000000 0.000000 0.000000 
0.000000 -0.000000 0.000000 
0.000000 0.000000 0.000000 

-0.000000 -0.000000 0.000000 
0.000000 0.000000 0.000000 
0.000000 0.000000 0.000000 

-0.000000 -0.000000 0.000000 
0.000000 -0.000000 0.000000 
0.000000 0.000000 0.000000 

0.000000 -0.000000 0.000000 
0.000000 0.000000 0.000000 
0.000000 0.000000 0.000000 

0.000000 -0.000000 0.000000 
0.000000 0.000000 0.000000 
0.000000 0.000000 0.000000 

-0.000000 -0.000000 0.000000 
0.000000 -0.000000 0.000000 
0.000000 0.000000 0.000000 

-0.000000 -0.000000 0.000000 
0.000000 0.000000 0.000000 
0.000000 0.000000 0.000000 

-0.000000 -0.000000 0.000000 
0.000000 -0.000000 0.000000 
0.000000 0.000000 0.000000 

-0.000000 0.000000 0.000000 
0.000000 -0.000000 0.000000 
0.000000 0.000000 0.000000 

-0.000000 0.000000 0.000000 
0.000000 -0.000000 0.000000 
0.000000 0.000000 0.000000 

0.000000 -0.000000 0.000000 
0.000000 0.000000 0.000000 
0.000000 0.000000 0.000000 

0.000000 -0.000000 0.000000 
0.000000 0.000000 0.000000 
0.000000 0.000000 0.000000 

-0.000000 -0.000000 0.000000 
0.000000 0.000000 0.000000 
0.000000 0.000000 0.000000 

-0.000000 0.000000 0.000000 
0.000000 -0.000000 0.000000 
0.000000 0.000000 0.000000 

0.000000 0.000000 0.000000 
0.000000 0.000000 0.000000 
0.000000 0.000000 0.000000 

-0.000000 -0.000000 0.000000 
0.000000 0.000000 0.000000 
0.000000 0.000000 0.000000 

0.000000 0.000000 0.000000 
0.000000 0.000000 0.000000 
0.000000 0.000000 0.000000 

0.000000 0.000000 0.000000 
0.000000 0.000000 0.000000 
0.000000 0.000000 0.000000 

0.000000 -0.000000 0.000000 
0.000000 0.000000 0.000000 
0.000000 0.000000 0.000000 

0.000000 0.000000 0.000000 
0.000000 0.000000 0.000000 
0.000000 0.000000 0.000000 

0.000000 -0.000000 0.000000 
0.000000 0.000000 0.000000 
0.000000 0.000000 0.000000 

-0.000000 -0.000000 0.000000 
0.000000 -0.000000 0.000000 
0.000000 0.000000 0.000000 

0.000000 0.000000 0.000000 
0.000000 0.000000 0.000000 
0.000000 0.000000 0.000000 

-0.000000 -0.000000 0.000000 
0.000000 0.000000 0.000000 
0.000000 0.000000 0.000000 

-0.000000 -0.000000 0.000000 
0.000000 0.000000 0.000000 
0.000000 0.000000 0.000000 

-0.000000 0.000000 0.000000 
0.000000 -0.000000 0.000000 
0.000000 0.000000 0.000000 

0.000000 0.000000 0.000000 
0.000000 0.000000 0.000000 
0.000000 0.000000 0.000000 

-0.000000 -0.000000 0.000000 
0.000000 0.000000 0.000000 
0.000000 0.000000 0.000000 

-0.000000 -0.000000 0.000000 
0.000000 -0.000000 0.000000 
0.000000 0.000000 0.000000 

-0.000000 0.000000 0.000000 
0.000000 -0.000000 0.000000 
0.000000 0.000000 0.000000 

0.000000 0.000000 0.000000 
0.000000 0.000000 0.000000 
0.000000 0.000000 0.000000 

0.000000 0.000000 0.000000 
0.000000 0.000000 0.000000 
0.000000 0.000000 0.000000 

0.000000 0.000000 0.000000 
0.000000 0.000000 0.000000 
0.000000 0.000000 0.000000 

-0.000000 0.000000 0.000000 
0.000000 0.000000 0.000000 
0.000000 0.000000 0.000000 

-0.000000 0.000000 0.000000 
0.000000 0.000000 0.000000 
0.000000 0.000000 0.000000 

0.000000 -0.000000 0.000000 
0.000000 0.000000 0.000000 
0.000000 0.000000 0.000000 

-0.000000 0.000000 0.000000 
0.000000 -0.000000 0.000000 
0.000000 0.000000 0.000000 

-0.000000 -0.000000 0.000000 
0.000000 -0.000000 0.000000 
0.000000 0.000000 0.000000 

-0.000000 0.000000 0.000000 
0.000000 0.000000 0.000000 
0.000000 0.000000 0.000000 

0.000000 -0.000000 0.000000 
0.000000 -0.000000 0.000000 
0.000000 0.000000 0.000000 

-0.000000 0.000000 0.000000 
0.000000 -0.000000 0.000000 
0.000000 0.000000 0.000000 

-0.000000 0.000000 0.000000 
0.000000 0.000000 0.000000 
0.000000 0.000000 0.000000 

-0.000000 0.000000 0.000000 
0.000000 -0.000000 0.000000 
0.000000 0.000000 0.000000 

-0.000000 -0.000000 0.000000 
0.000000 0.000000 0.000000 
0.000000 0.000000 0.000000 

-0.000000 0.000000 0.000000 
0.000000 -0.000000 0.000000 
0.000000 0.000000 0.000000 

0.000000 0.000000 0.000000 
0.000000 0.000000 0.000000 
0.000000 0.000000 0.000000 

-0.000000 0.000000 0.000000 
0.000000 0.000000 0.000000 
0.000000 0.000000 0.000000 

0.000000 0.000000 0.000000 
0.000000 0.000000 0.000000 
0.000000 0.000000 0.000000 

0.000000 0.000000 0.000000 
0.000000 0.000000 0.000000 
0.000000 0.000000 0.000000 

-0.000000 0.000000 0.000000 
0.000000 0.000000 0.000000 
0.000000 0.000000 0.000000 

-0.000000 0.000000 0.000000 
0.000000 -0.000000 0.000000 
0.000000 0.000000 0.000000 

0.000000 -0.000000 0.000000 
0.000000 0.000000 0.000000 
0.000000 0.000000 0.000000 

0.000000 -0.000000 0.000000 
0.000000 0.000000 0.000000 
0.000000 0.000000 0.000000 

-0.000000 -0.000000 0.000000 
0.000000 -0.000000 0.000000 
0.000000 0.000000 0.000000 

0.000000 0.000000 0.000000 
0.000000 0.000000 0.000000 
0.000000 0.000000 0.000000 

0.000000 -0.000000 0.000000 
0.000000 -0.000000 0.000000 
0.000000 0.000000 0.000000 

0.000000 -0.000000 0.000000 
0.000000 0.000000 0.000000 
0.000000 0.000000 0.000000 

-0.000000 0.000000 0.000000 
0.000000 0.000000 0.000000 
0.000000 0.000000 0.000000 

-0.000000 0.000000 0.000000 
0.000000 -0.000000 0.000000 
0.000000 0.000000 0.000000 

0.000000 0.000000 0.000000 
0.000000 0.000000 0.000000 
0.000000 0.000000 0.000000 

0.000000 -0.000000 0.000000 
0.000000 0.000000 0.000000 
0.000000 0.000000 0.000000 

-0.000000 -0.000000 0.000000 
0.000000 -0.000000 0.000000 
0.000000 0.000000 0.000000 

-0.000000 0.000000 0.000000 
0.000000 -0.000000 0.000000 
0.000000 0.000000 0.000000 

-0.000000 -0.000000 0.000000 
0.000000 -0.000000 0.000000 
0.000000 0.000000 0.000000 

-0.000000 0.000000 0.000000 
0.000000 -0.000000 0.000000 
0.000000 0.000000 0.000000 

0.000000 0.000000 0.000000 
0.000000 0.000000 0.000000 
0.000000 0.000000 0.000000 

0.000000 0.000000 0.000000 
0.000000 0.000000 0.000000 
0.000000 0.000000 0.000000 

0.000000 0.000000 0.000000 
0.000000 0.000000 0.000000 
0.000000 0.000000 0.000000 

0.000000 0.000000 0.000000 
0.000000 0.000000 0.000000 
0.000000 0.000000 0.000000 

-0.000000 -0.000000 0.000000 
0.000000 0.000000 0.000000 
0.000000 0.000000 0.000000 

-0.000000 -0.000000 0.000000 
0.000000 0.000000 0.000000 
0.000000 0.000000 0.000000 

TENSORS STRAIN float 
-0.000000 0.000000 0.000000 
0.000000 0.000000 0.000000 
0.000000 0.000000 0.000000 

0.000000 -0.000000 0.000000 
0.000000 0.000000 0.000000 
0.000000 0.000000 0.000000 

-0.000000 0.000000 0.000000 
0.000000 -0.000000 0.000000 
0.000000 0.000000 0.000000 

0.000000 0.000000 0.000000 
0.000000 -0.000000 0.000000 
0.000000 0.000000 0.000000 

0.000000 0.000000 0.000000 
0.000000 0.000000 0.000000 
0.000000 0.000000 0.000000 

0.000000 0.000000 0.000000 
0.000000 0.000000 0.000000 
0.000000 0.000000 0.000000 

0.000000 0.000000 0.000000 
0.000000 0.000000 0.000000 
0.000000 0.000000 0.000000 

0.000000 -0.000000 0.000000 
0.000000 0.000000 0.000000 
0.000000 0.000000 0.000000 

-0.000000 0.000000 0.000000 
0.000000 -0.000000 0.000000 
0.000000 0.000000 0.000000 

0.000000 -0.000000 0.000000 
0.000000 0.000000 0.000000 
0.000000 0.000000 0.000000 

0.000000 0.000000 0.000000 
0.000000 -0.000000 0.000000 
0.000000 0.000000 0.000000 

-0.000000 0.000000 0.000000 
0.000000 0.000000 0.000000 
0.000000 0.000000 0.000000 

-0.000000 -0.000000 0.000000 
0.000000 0.000000 0.000000 
0.000000 0.000000 0.000000 

-0.000000 0.000000 0.000000 
0.000000 -0.000000 0.000000 
0.000000 0.000000 0.000000 

0.000000 -0.000000 0.000000 
0.000000 -0.000000 0.000000 
0.000000 0.000000 0.000000 

0.000000 0.000000 0.000000 
0.000000 -0.000000 0.000000 
0.000000 0.000000 0.000000 

-0.000000 0.000000 0.000000 
0.000000 0.000000 0.000000 
0.000000 0.000000 0.000000 

-0.000000 0.000000 0.000000 
0.000000 0.000000 0.000000 
0.000000 0.000000 0.000000 

-0.000000 -0.000000 0.000000 
0.000000 0.000000 0.000000 
0.000000 0.000000 0.000000 

-0.000000 0.000000 0.000000 
0.000000 -0.000000 0.000000 
0.000000 0.000000 0.000000 

-0.000000 -0.000000 0.000000 
0.000000 0.000000 0.000000 
0.000000 0.000000 0.000000 

-0.000000 -0.000000 0.000000 
0.000000 -0.000000 0.000000 
0.000000 0.000000 0.000000 

0.000000 -0.000000 0.000000 
0.000000 0.000000 0.000000 
0.000000 0.000000 0.000000 

-0.000000 0.000000 0.000000 
0.000000 -0.000000 0.000000 
0.000000 0.000000 0.000000 

-0.000000 0.000000 0.000000 
0.000000 -0.000000 0.000000 
0.000000 0.000000 0.000000 

-0.000000 0.000000 0.000000 
0.000000 0.000000 0.000000 
0.000000 0.000000 0.000000 

0.000000 -0.000000 0.000000 
0.000000 0.000000 0.000000 
0.000000 0.000000 0.000000 

0.000000 -0.000000 0.000000 
0.000000 0.000000 0.000000 
0.000000 0.000000 0.000000 

0.000000 -0.000000 0.000000 
0.000000 0.000000 0.000000 
0.000000 0.000000 0.000000 

-0.000000 0.000000 0.000000 
0.000000 0.000000 0.000000 
0.000000 0.000000 0.000000 

0.000000 -0.000000 0.000000 
0.000000 -0.000000 0.000000 
0.000000 0.000000 0.000000 

0.000000 -0.000000 0.000000 
0.000000 -0.000000 0.000000 
0.000000 0.000000 0.000000 

0.000000 0.000000 0.000000 
0.000000 -0.000000 0.000000 
0.000000 0.000000 0.000000 

0.000000 -0.000000 0.000000 
0.000000 0.000000 0.000000 
0.000000 0.000000 0.000000 

0.000000 -0.000000 0.000000 
0.000000 -0.000000 0.000000 
0.000000 0.000000 0.000000 

0.000000 -0.000000 0.000000 
0.000000 -0.000000 0.000000 
0.000000 0.000000 0.000000 

0.000000 0.000000 0.000000 
0.000000 0.000000 0.000000 
0.000000 0.000000 0.000000 

0.000000 0.000000 0.000000 
0.000000 0.000000 0.000000 
0.000000 0.000000 0.000000 

0.000000 -0.000000 0.000000 
0.000000 -0.000000 0.000000 
0.000000 0.000000 0.000000 

0.000000 -0.000000 0.000000 
0.000000 -0.000000 0.000000 
0.000000 0.000000 0.000000 

0.000000 -0.000000 0.000000 
0.000000 0.000000 0.000000 
0.000000 0.000000 0.000000 

0.000000 -0.000000 0.000000 
0.000000 0.000000 0.000000 
0.000000 0.000000 0.000000 

0.000000 -0.000000 0.000000 
0.000000 0.000000 0.000000 
0.000000 0.000000 0.000000 

-0.000000 -0.000000 0.000000 
0.000000 -0.000000 0.000000 
0.000000 0.000000 0.000000 

0.000000 0.000000 0.000000 
0.000000 -0.000000 0.000000 
0.000000 0.000000 0.000000 

0.000000 -0.000000 0.000000 
0.000000 0.000000 0.000000 
0.000000 0.000000 0.000000 

-0.000000 -0.000000 0.000000 
0.000000 0.000000 0.000000 
0.000000 0.000000 0.000000 

0.000000 -0.000000 0.000000 
0.000000 -0.000000 0.000000 
0.000000 0.000000 0.000000 

0.000000 0.000000 0.000000 
0.000000 -0.000000 0.000000 
0.000000 0.000000 0.000000 

-0.000000 0.000000 0.000000 
0.000000 -0.000000 0.000000 
0.000000 0.000000 0.000000 

0.000000 0.000000 0.000000 
0.000000 0.000000 0.000000 
0.000000 0.000000 0.000000 

-0.000000 -0.000000 0.000000 
0.000000 0.000000 0.000000 
0.000000 0.000000 0.000000 

-0.000000 -0.000000 0.000000 
0.000000 -0.000000 0.000000 
0.000000 0.000000 0.000000 

0.000000 -0.000000 0.000000 
0.000000 -0.000000 0.000000 
0.000000 0.000000 0.000000 

-0.000000 0.000000 0.000000 
0.000000 -0.000000 0.000000 
0.000000 0.000000 0.000000 

-0.000000 -0.000000 0.000000 
0.000000 -0.000000 0.000000 
0.000000 0.000000 0.000000 

-0.000000 -0.000000 0.000000 
0.000000 -0.000000 0.000000 
0.000000 0.000000 0.000000 

-0.000000 0.000000 0.000000 
0.000000 0.000000 0.000000 
0.000000 0.000000 0.000000 

0.000000 -0.000000 0.000000 
0.000000 0.000000 0.000000 
0.000000 0.000000 0.000000 

0.000000 -0.000000 0.000000 
0.000000 -0.000000 0.000000 
0.000000 0.000000 0.000000 

-0.000000 -0.000000 0.000000 
0.000000 0.000000 0.000000 
0.000000 0.000000 0.000000 

-0.000000 -0.000000 0.000000 
0.000000 0.000000 0.000000 
0.000000 0.000000 0.000000 

-0.000000 0.000000 0.000000 
0.000000 0.000000 0.000000 
0.000000 0.000000 0.000000 

0.000000 -0.000000 0.000000 
0.000000 -0.000000 0.000000 
0.000000 0.000000 0.000000 

0.000000 -0.000000 0.000000 
0.000000 -0.000000 0.000000 
0.000000 0.000000 0.000000 

0.000000 0.000000 0.000000 
0.000000 -0.000000 0.000000 
0.000000 0.000000 0.000000 

0.000000 -0.000000 0.000000 
0.000000 -0.000000 0.000000 
0.000000 0.000000 0.000000 

0.000000 -0.000000 0.000000 
0.000000 0.000000 0.000000 
0.000000 0.000000 0.000000 

0.000000 -0.000000 0.000000 
0.000000 -0.000000 0.000000 
0.000000 0.000000 0.000000 

-0.000000 0.000000 0.000000 
0.000000 0.000000 0.000000 
0.000000 0.000000 0.000000 

-0.000000 0.000000 0.000000 
0.000000 0.000000 0.000000 
0.000000 0.000000 0.000000 

-0.000000 -0.000000 0.000000 
0.000000 0.000000 0.000000 
0.000000 0.000000 0.000000 

0.000000 -0.000000 0.000000 
0.000000 -0.000000 0.000000 
0.000000 0.000000 0.000000 

-0.000000 0.000000 0.000000 
0.000000 0.000000 0.000000 
0.000000 0.000000 0.000000 

-0.000000 0.000000 0.000000 
0.000000 0.000000 0.000000 
0.000000 0.000000 0.000000 

0.000000 0.000000 0.000000 
0.000000 -0.000000 0.000000 
0.000000 0.000000 0.000000 

0.000000 0.000000 0.000000 
0.000000 0.000000 0.000000 
0.000000 0.000000 0.000000 

0.000000 -0.000000 0.000000 
0.000000 -0.000000 0.000000 
0.000000 0.000000 0.000000 

0.000000 0.000000 0.000000 
0.000000 0.000000 0.000000 
0.000000 0.000000 0.000000 

0.000000 0.000000 0.000000 
0.000000 0.000000 0.000000 
0.000000 0.000000 0.000000 

0.000000 0.000000 0.000000 
0.000000 -0.000000 0.000000 
0.000000 0.000000 0.000000 

0.000000 0.000000 0.000000 
0.000000 -0.000000 0.000000 
0.000000 0.000000 0.000000 

0.000000 0.000000 0.000000 
0.000000 0.000000 0.000000 
0.000000 0.000000 0.000000 

-0.000000 -0.000000 0.000000 
0.000000 0.000000 0.000000 
0.000000 0.000000 0.000000 

0.000000 -0.000000 0.000000 
0.000000 -0.000000 0.000000 
0.000000 0.000000 0.000000 

0.000000 -0.000000 0.000000 
0.000000 -0.000000 0.000000 
0.000000 0.000000 0.000000 

0.000000 0.000000 0.000000 
0.000000 0.000000 0.000000 
0.000000 0.000000 0.000000 

0.000000 -0.000000 0.000000 
0.000000 -0.000000 0.000000 
0.000000 0.000000 0.000000 

0.000000 0.000000 0.000000 
0.000000 0.000000 0.000000 
0.000000 0.000000 0.000000 

0.000000 -0.000000 0.000000 
0.000000 -0.000000 0.000000 
0.000000 0.000000 0.000000 

0.000000 -0.000000 0.000000 
0.000000 -0.000000 0.000000 
0.000000 0.000000 0.000000 

-0.000000 0.000000 0.000000 
0.000000 -0.000000 0.000000 
0.000000 0.000000 0.000000 

0.000000 -0.000000 0.000000 
0.000000 0.000000 0.000000 
0.000000 0.000000 0.000000 

0.000000 0.000000 0.000000 
0.000000 -0.000000 0.000000 
0.000000 0.000000 0.000000 

0.000000 0.000000 0.000000 
0.000000 0.000000 0.000000 
0.000000 0.000000 0.000000 

0.000000 0.000000 0.000000 
0.000000 -0.000000 0.000000 
0.000000 0.000000 0.000000 

0.000000 0.000000 0.000000 
0.000000 -0.000000 0.000000 
0.000000 0.000000 0.000000 

-0.000000 0.000000 0.000000 
0.000000 -0.000000 0.000000 
0.000000 0.000000 0.000000 

0.000000 -0.000000 0.000000 
0.000000 -0.000000 0.000000 
0.000000 0.000000 0.000000 

0.000000 0.000000 0.000000 
0.000000 0.000000 0.000000 
0.000000 0.000000 0.000000 

0.000000 0.000000 0.000000 
0.000000 0.000000 0.000000 
0.000000 0.000000 0.000000 

-0.000000 0.000000 0.000000 
0.000000 0.000000 0.000000 
0.000000 0.000000 0.000000 

-0.000000 0.000000 0.000000 
0.000000 0.000000 0.000000 
0.000000 0.000000 0.000000 

-0.000000 0.000000 0.000000 
0.000000 0.000000 0.000000 
0.000000 0.000000 0.000000 

-0.000000 0.000000 0.000000 
0.000000 -0.000000 0.000000 
0.000000 0.000000 0.000000 

-0.000000 -0.000000 0.000000 
0.000000 0.000000 0.000000 
0.000000 0.000000 0.000000 

0.000000 -0.000000 0.000000 
0.000000 -0.000000 0.000000 
0.000000 0.000000 0.000000 

0.000000 -0.000000 0.000000 
0.000000 0.000000 0.000000 
0.000000 0.000000 0.000000 

0.000000 -0.000000 0.000000 
0.000000 0.000000 0.000000 
0.000000 0.000000 0.000000 

-0.000000 -0.000000 0.000000 
0.000000 -0.000000 0.000000 
0.000000 0.000000 0.000000 

-0.000000 -0.000000 0.000000 
0.000000 0.000000 0.000000 
0.000000 0.000000 0.000000 

-0.000000 -0.000000 0.000000 
0.000000 -0.000000 0.000000 
0.000000 0.000000 0.000000 

-0.000000 0.000000 0.000000 
0.000000 0.000000 0.000000 
0.000000 0.000000 0.000000 

0.000000 0.000000 0.000000 
0.000000 -0.000000 0.000000 
0.000000 0.000000 0.000000 

0.000000 -0.000000 0.000000 
0.000000 -0.000000 0.000000 
0.000000 0.000000 0.000000 

0.000000 -0.000000 0.000000 
0.000000 0.000000 0.000000 
0.000000 0.000000 0.000000 

-0.000000 -0.000000 0.000000 
0.000000 0.000000 0.000000 
0.000000 0.000000 0.000000 

-0.000000 0.000000 0.000000 
0.000000 -0.000000 0.000000 
0.000000 0.000000 0.000000 

0.000000 0.000000 0.000000 
0.000000 -0.000000 0.000000 
0.000000 0.000000 0.000000 

-0.000000 -0.000000 0.000000 
0.000000 0.000000 0.000000 
0.000000 0.000000 0.000000 

-0.000000 0.000000 0.000000 
0.000000 0.000000 0.000000 
0.000000 0.000000 0.000000 

-0.000000 0.000000 0.000000 
0.000000 0.000000 0.000000 
0.000000 0.000000 0.000000 

-0.000000 -0.000000 0.000000 
0.000000 0.000000 0.000000 
0.000000 0.000000 0.000000 

0.000000 0.000000 0.000000 
0.000000 0.000000 0.000000 
0.000000 0.000000 0.000000 

0.000000 -0.000000 0.000000 
0.000000 0.000000 0.000000 
0.000000 0.000000 0.000000 

-0.000000 -0.000000 0.000000 
0.000000 0.000000 0.000000 
0.000000 0.000000 0.000000 

-0.000000 0.000000 0.000000 
0.000000 0.000000 0.000000 
0.000000 0.000000 0.000000 

-0.000000 -0.000000 0.000000 
0.000000 0.000000 0.000000 
0.000000 0.000000 0.000000 

-0.000000 -0.000000 0.000000 
0.000000 0.000000 0.000000 
0.000000 0.000000 0.000000 

-0.000000 0.000000 0.000000 
0.000000 -0.000000 0.000000 
0.000000 0.000000 0.000000 

-0.000000 0.000000 0.000000 
0.000000 0.000000 0.000000 
0.000000 0.000000 0.000000 

-0.000000 -0.000000 0.000000 
0.000000 0.000000 0.000000 
0.000000 0.000000 0.000000 

-0.000000 -0.000000 0.000000 
0.000000 -0.000000 0.000000 
0.000000 0.000000 0.000000 

-0.000000 0.000000 0.000000 
0.000000 -0.000000 0.000000 
0.000000 0.000000 0.000000 

-0.000000 0.000000 0.000000 
0.000000 0.000000 0.000000 
0.000000 0.000000 0.000000 

0.000000 0.000000 0.000000 
0.000000 0.000000 0.000000 
0.000000 0.000000 0.000000 

0.000000 0.000000 0.000000 
0.000000 0.000000 0.000000 
0.000000 0.000000 0.000000 

-0.000000 0.000000 0.000000 
0.000000 0.000000 0.000000 
0.000000 0.000000 0.000000 

-0.000000 0.000000 0.000000 
0.000000 0.000000 0.000000 
0.000000 0.000000 0.000000 

-0.000000 -0.000000 0.000000 
0.000000 0.000000 0.000000 
0.000000 0.000000 0.000000 

0.000000 0.000000 0.000000 
0.000000 -0.000000 0.000000 
0.000000 0.000000 0.000000 

-0.000000 -0.000000 0.000000 
0.000000 0.000000 0.000000 
0.000000 0.000000 0.000000 

-0.000000 0.000000 0.000000 
0.000000 0.000000 0.000000 
0.000000 0.000000 0.000000 

0.000000 -0.000000 0.000000 
0.000000 -0.000000 0.000000 
0.000000 0.000000 0.000000 

-0.000000 0.000000 0.000000 
0.000000 -0.000000 0.000000 
0.000000 0.000000 0.000000 

-0.000000 0.000000 0.000000 
0.000000 0.000000 0.000000 
0.000000 0.000000 0.000000 

-0.000000 0.000000 0.000000 
0.000000 -0.000000 0.000000 
0.000000 0.000000 0.000000 

-0.000000 -0.000000 0.000000 
0.000000 0.000000 0.000000 
0.000000 0.000000 0.000000 

-0.000000 0.000000 0.000000 
0.000000 -0.000000 0.000000 
0.000000 0.000000 0.000000 

0.000000 0.000000 0.000000 
0.000000 0.000000 0.000000 
0.000000 0.000000 0.000000 

-0.000000 0.000000 0.000000 
0.000000 0.000000 0.000000 
0.000000 0.000000 0.000000 

0.000000 0.000000 0.000000 
0.000000 0.000000 0.000000 
0.000000 0.000000 0.000000 

-0.000000 0.000000 0.000000 
0.000000 0.000000 0.000000 
0.000000 0.000000 0.000000 

-0.000000 0.000000 0.000000 
0.000000 0.000000 0.000000 
0.000000 0.000000 0.000000 

-0.000000 0.000000 0.000000 
0.000000 -0.000000 0.000000 
0.000000 0.000000 0.000000 

0.000000 -0.000000 0.000000 
0.000000 0.000000 0.000000 
0.000000 0.000000 0.000000 

0.000000 -0.000000 0.000000 
0.000000 0.000000 0.000000 
0.000000 0.000000 0.000000 

-0.000000 -0.000000 0.000000 
0.000000 -0.000000 0.000000 
0.000000 0.000000 0.000000 

-0.000000 0.000000 0.000000 
0.000000 0.000000 0.000000 
0.000000 0.000000 0.000000 

0.000000 -0.000000 0.000000 
0.000000 -0.000000 0.000000 
0.000000 0.000000 0.000000 

0.000000 -0.000000 0.000000 
0.000000 0.000000 0.000000 
0.000000 0.000000 0.000000 

-0.000000 0.000000 0.000000 
0.000000 0.000000 0.000000 
0.000000 0.000000 0.000000 

0.000000 0.000000 0.000000 
0.000000 -0.000000 0.000000 
0.000000 0.000000 0.000000 

0.000000 0.000000 0.000000 
0.000000 0.000000 0.000000 
0.000000 0.000000 0.000000 

-0.000000 -0.000000 0.000000 
0.000000 0.000000 0.000000 
0.000000 0.000000 0.000000 

-0.000000 -0.000000 0.000000 
0.000000 -0.000000 0.000000 
0.000000 0.000000 0.000000 

-0.000000 0.000000 0.000000 
0.000000 -0.000000 0.000000 
0.000000 0.000000 0.000000 

-0.000000 -0.000000 0.000000 
0.000000 -0.000000 0.000000 
0.000000 0.000000 0.000000 

-0.000000 0.000000 0.000000 
0.000000 -0.000000 0.000000 
0.000000 0.000000 0.000000 

0.000000 0.000000 0.000000 
0.000000 0.000000 0.000000 
0.000000 0.000000 0.000000 

0.000000 0.000000 0.000000 
0.000000 0.000000 0.000000 
0.000000 0.000000 0.000000 

-0.000000 0.000000 0.000000 
0.000000 0.000000 0.000000 
0.000000 0.000000 0.000000 

-0.000000 0.000000 0.000000 
0.000000 0.000000 0.000000 
0.000000 0.000000 0.000000 

-0.000000 -0.000000 0.000000 
0.000000 0.000000 0.000000 
0.000000 0.000000 0.000000 

-0.000000 -0.000000 0.000000 
0.000000 0.000000 0.000000 
0.000000 0.000000 0.000000 

