# vtk DataFile Version 3.0 
vtk output 
ASCII 
DATASET UNSTRUCTURED_GRID 
POINTS 175 float 
-0.026061 -0.172955 0.000000 
-0.106992 -0.104899 0.000000 
-0.054870 -0.113132 0.000000 
-0.028809 -0.067248 0.000000 
-0.186430 -0.040824 0.000000 
-0.137056 -0.043350 0.000000 
-0.114311 0.010297 0.000000 
-0.058186 -0.005368 0.000000 
-0.029377 0.034809 0.000000 
-0.265318 0.022332 0.000000 
-0.217198 0.021532 0.000000 
-0.196633 0.078829 0.000000 
-0.143120 0.070120 0.000000 
-0.116563 0.117388 0.000000 
-0.058945 0.097743 0.000000 
-0.029568 0.135863 0.000000 
-0.344206 0.085488 0.000000 
-0.296791 0.085495 0.000000 
-0.278030 0.145438 0.000000 
-0.225992 0.139571 0.000000 
-0.201664 0.191688 0.000000 
-0.145749 0.178214 0.000000 
-0.117890 0.222557 0.000000 
-0.059328 0.199851 0.000000 
-0.029759 0.236917 0.000000 
-0.058559 -0.213706 0.000000 
-0.162226 -0.234548 0.000000 
-0.123292 -0.198931 0.000000 
-0.142917 -0.149947 0.000000 
-0.261851 -0.256705 0.000000 
-0.229092 -0.219678 0.000000 
-0.256854 -0.168446 0.000000 
-0.209613 -0.134333 0.000000 
-0.223062 -0.086759 0.000000 
-0.360414 -0.279005 0.000000 
-0.329787 -0.241882 0.000000 
-0.361761 -0.190080 0.000000 
-0.321587 -0.153671 0.000000 
-0.341985 -0.103437 0.000000 
-0.290702 -0.070638 0.000000 
-0.302189 -0.023903 0.000000 
-0.458977 -0.301305 0.000000 
-0.429420 -0.264230 0.000000 
-0.464588 -0.212189 0.000000 
-0.427556 -0.175161 0.000000 
-0.453135 -0.123646 0.000000 
-0.407738 -0.088331 0.000000 
-0.425037 -0.038903 0.000000 
-0.370772 -0.007274 0.000000 
-0.381315 0.038954 0.000000 
-0.046960 -0.264521 0.000000 
-0.095301 -0.358567 0.000000 
-0.098873 -0.305920 0.000000 
-0.149405 -0.290722 0.000000 
-0.140093 -0.450271 0.000000 
-0.148617 -0.401573 0.000000 
-0.205981 -0.391335 0.000000 
-0.203197 -0.333132 0.000000 
-0.248777 -0.313985 0.000000 
-0.184111 -0.541234 0.000000 
-0.194039 -0.494143 0.000000 
-0.254475 -0.486844 0.000000 
-0.257893 -0.432734 0.000000 
-0.309886 -0.417362 0.000000 
-0.303554 -0.356816 0.000000 
-0.347255 -0.336658 0.000000 
-0.228129 -0.632198 0.000000 
-0.238687 -0.585974 0.000000 
-0.301302 -0.581022 0.000000 
-0.307162 -0.528983 0.000000 
-0.363386 -0.516862 0.000000 
-0.362692 -0.459350 0.000000 
-0.412122 -0.442057 0.000000 
-0.403017 -0.379911 0.000000 
-0.445733 -0.359332 0.000000 
-0.000000 -0.287136 0.000000 
0.043388 -0.383566 0.000000 
-0.000000 -0.353534 0.000000 
-0.043388 -0.383566 0.000000 
0.087158 -0.475763 0.000000 
0.043769 -0.452064 0.000000 
-0.000000 -0.490530 0.000000 
-0.043769 -0.452064 0.000000 
-0.087158 -0.475763 0.000000 
0.130831 -0.566893 0.000000 
0.087824 -0.545294 0.000000 
0.044436 -0.587994 0.000000 
-0.000000 -0.556929 0.000000 
-0.044436 -0.587994 0.000000 
-0.087824 -0.545294 0.000000 
-0.130831 -0.566893 0.000000 
0.174505 -0.658022 0.000000 
0.131782 -0.637456 0.000000 
0.088871 -0.683323 0.000000 
0.044532 -0.655459 0.000000 
-0.000000 -0.691859 0.000000 
-0.044532 -0.655459 0.000000 
-0.088871 -0.683323 0.000000 
-0.131782 -0.637456 0.000000 
-0.174505 -0.658022 0.000000 
0.046960 -0.264521 0.000000 
0.149405 -0.290722 0.000000 
0.098873 -0.305920 0.000000 
0.095301 -0.358567 0.000000 
0.248777 -0.313985 0.000000 
0.203197 -0.333132 0.000000 
0.205981 -0.391335 0.000000 
0.148617 -0.401573 0.000000 
0.140093 -0.450271 0.000000 
0.347255 -0.336658 0.000000 
0.303554 -0.356816 0.000000 
0.309886 -0.417362 0.000000 
0.257893 -0.432734 0.000000 
0.254475 -0.486844 0.000000 
0.194039 -0.494143 0.000000 
0.184111 -0.541234 0.000000 
0.445733 -0.359332 0.000000 
0.403017 -0.379911 0.000000 
0.412122 -0.442057 0.000000 
0.362692 -0.459350 0.000000 
0.363386 -0.516862 0.000000 
0.307162 -0.528983 0.000000 
0.301302 -0.581022 0.000000 
0.238687 -0.585974 0.000000 
0.228129 -0.632198 0.000000 
0.058559 -0.213706 0.000000 
0.142917 -0.149947 0.000000 
0.123292 -0.198931 0.000000 
0.162226 -0.234548 0.000000 
0.223062 -0.086759 0.000000 
0.209613 -0.134333 0.000000 
0.256854 -0.168446 0.000000 
0.229092 -0.219678 0.000000 
0.261851 -0.256705 0.000000 
0.302189 -0.023903 0.000000 
0.290702 -0.070638 0.000000 
0.341985 -0.103437 0.000000 
0.321587 -0.153671 0.000000 
0.361761 -0.190080 0.000000 
0.329787 -0.241882 0.000000 
0.360414 -0.279005 0.000000 
0.381315 0.038954 0.000000 
0.370772 -0.007274 0.000000 
0.425037 -0.038903 0.000000 
0.407738 -0.088331 0.000000 
0.453135 -0.123646 0.000000 
0.427556 -0.175161 0.000000 
0.464588 -0.212189 0.000000 
0.429420 -0.264230 0.000000 
0.458977 -0.301305 0.000000 
0.026061 -0.172955 0.000000 
0.028809 -0.067248 0.000000 
0.054870 -0.113132 0.000000 
0.106992 -0.104899 0.000000 
0.029377 0.034809 0.000000 
0.058186 -0.005368 0.000000 
0.114311 0.010297 0.000000 
0.137056 -0.043350 0.000000 
0.186430 -0.040824 0.000000 
0.029568 0.135863 0.000000 
0.058945 0.097743 0.000000 
0.116563 0.117388 0.000000 
0.143120 0.070120 0.000000 
0.196633 0.078829 0.000000 
0.217198 0.021532 0.000000 
0.265318 0.022332 0.000000 
0.029759 0.236917 0.000000 
0.059328 0.199851 0.000000 
0.117890 0.222557 0.000000 
0.145749 0.178214 0.000000 
0.201664 0.191688 0.000000 
0.225992 0.139571 0.000000 
0.278030 0.145438 0.000000 
0.296791 0.085495 0.000000 
0.344206 0.085488 0.000000 
CELLS 175 350 
1 0 
1 1 
1 2 
1 3 
1 4 
1 5 
1 6 
1 7 
1 8 
1 9 
1 10 
1 11 
1 12 
1 13 
1 14 
1 15 
1 16 
1 17 
1 18 
1 19 
1 20 
1 21 
1 22 
1 23 
1 24 
1 25 
1 26 
1 27 
1 28 
1 29 
1 30 
1 31 
1 32 
1 33 
1 34 
1 35 
1 36 
1 37 
1 38 
1 39 
1 40 
1 41 
1 42 
1 43 
1 44 
1 45 
1 46 
1 47 
1 48 
1 49 
1 50 
1 51 
1 52 
1 53 
1 54 
1 55 
1 56 
1 57 
1 58 
1 59 
1 60 
1 61 
1 62 
1 63 
1 64 
1 65 
1 66 
1 67 
1 68 
1 69 
1 70 
1 71 
1 72 
1 73 
1 74 
1 75 
1 76 
1 77 
1 78 
1 79 
1 80 
1 81 
1 82 
1 83 
1 84 
1 85 
1 86 
1 87 
1 88 
1 89 
1 90 
1 91 
1 92 
1 93 
1 94 
1 95 
1 96 
1 97 
1 98 
1 99 
1 100 
1 101 
1 102 
1 103 
1 104 
1 105 
1 106 
1 107 
1 108 
1 109 
1 110 
1 111 
1 112 
1 113 
1 114 
1 115 
1 116 
1 117 
1 118 
1 119 
1 120 
1 121 
1 122 
1 123 
1 124 
1 125 
1 126 
1 127 
1 128 
1 129 
1 130 
1 131 
1 132 
1 133 
1 134 
1 135 
1 136 
1 137 
1 138 
1 139 
1 140 
1 141 
1 142 
1 143 
1 144 
1 145 
1 146 
1 147 
1 148 
1 149 
1 150 
1 151 
1 152 
1 153 
1 154 
1 155 
1 156 
1 157 
1 158 
1 159 
1 160 
1 161 
1 162 
1 163 
1 164 
1 165 
1 166 
1 167 
1 168 
1 169 
1 170 
1 171 
1 172 
1 173 
1 174 
CELL_TYPES 175 
1 
1 
1 
1 
1 
1 
1 
1 
1 
1 
1 
1 
1 
1 
1 
1 
1 
1 
1 
1 
1 
1 
1 
1 
1 
1 
1 
1 
1 
1 
1 
1 
1 
1 
1 
1 
1 
1 
1 
1 
1 
1 
1 
1 
1 
1 
1 
1 
1 
1 
1 
1 
1 
1 
1 
1 
1 
1 
1 
1 
1 
1 
1 
1 
1 
1 
1 
1 
1 
1 
1 
1 
1 
1 
1 
1 
1 
1 
1 
1 
1 
1 
1 
1 
1 
1 
1 
1 
1 
1 
1 
1 
1 
1 
1 
1 
1 
1 
1 
1 
1 
1 
1 
1 
1 
1 
1 
1 
1 
1 
1 
1 
1 
1 
1 
1 
1 
1 
1 
1 
1 
1 
1 
1 
1 
1 
1 
1 
1 
1 
1 
1 
1 
1 
1 
1 
1 
1 
1 
1 
1 
1 
1 
1 
1 
1 
1 
1 
1 
1 
1 
1 
1 
1 
1 
1 
1 
1 
1 
1 
1 
1 
1 
1 
1 
1 
1 
1 
1 
1 
1 
1 
1 
1 
1 
POINT_DATA 175 
VECTORS X_GC float 
-0.026061 -0.172955 0.000000 
-0.106992 -0.104899 0.000000 
-0.054870 -0.113132 0.000000 
-0.028809 -0.067248 0.000000 
-0.186430 -0.040824 0.000000 
-0.137056 -0.043350 0.000000 
-0.114311 0.010297 0.000000 
-0.058186 -0.005368 0.000000 
-0.029377 0.034809 0.000000 
-0.265318 0.022332 0.000000 
-0.217198 0.021532 0.000000 
-0.196633 0.078829 0.000000 
-0.143120 0.070120 0.000000 
-0.116563 0.117388 0.000000 
-0.058945 0.097743 0.000000 
-0.029568 0.135863 0.000000 
-0.344206 0.085488 0.000000 
-0.296791 0.085495 0.000000 
-0.278030 0.145438 0.000000 
-0.225992 0.139571 0.000000 
-0.201664 0.191688 0.000000 
-0.145749 0.178214 0.000000 
-0.117890 0.222557 0.000000 
-0.059328 0.199851 0.000000 
-0.029759 0.236917 0.000000 
-0.058559 -0.213706 0.000000 
-0.162226 -0.234548 0.000000 
-0.123292 -0.198931 0.000000 
-0.142917 -0.149947 0.000000 
-0.261851 -0.256705 0.000000 
-0.229092 -0.219678 0.000000 
-0.256854 -0.168446 0.000000 
-0.209613 -0.134333 0.000000 
-0.223062 -0.086759 0.000000 
-0.360414 -0.279005 0.000000 
-0.329787 -0.241882 0.000000 
-0.361761 -0.190080 0.000000 
-0.321587 -0.153671 0.000000 
-0.341985 -0.103437 0.000000 
-0.290702 -0.070638 0.000000 
-0.302189 -0.023903 0.000000 
-0.458977 -0.301305 0.000000 
-0.429420 -0.264230 0.000000 
-0.464588 -0.212189 0.000000 
-0.427556 -0.175161 0.000000 
-0.453135 -0.123646 0.000000 
-0.407738 -0.088331 0.000000 
-0.425037 -0.038903 0.000000 
-0.370772 -0.007274 0.000000 
-0.381315 0.038954 0.000000 
-0.046960 -0.264521 0.000000 
-0.095301 -0.358567 0.000000 
-0.098873 -0.305920 0.000000 
-0.149405 -0.290722 0.000000 
-0.140093 -0.450271 0.000000 
-0.148617 -0.401573 0.000000 
-0.205981 -0.391335 0.000000 
-0.203197 -0.333132 0.000000 
-0.248777 -0.313985 0.000000 
-0.184111 -0.541234 0.000000 
-0.194039 -0.494143 0.000000 
-0.254475 -0.486844 0.000000 
-0.257893 -0.432734 0.000000 
-0.309886 -0.417362 0.000000 
-0.303554 -0.356816 0.000000 
-0.347255 -0.336658 0.000000 
-0.228129 -0.632198 0.000000 
-0.238687 -0.585974 0.000000 
-0.301302 -0.581022 0.000000 
-0.307162 -0.528983 0.000000 
-0.363386 -0.516862 0.000000 
-0.362692 -0.459350 0.000000 
-0.412122 -0.442057 0.000000 
-0.403017 -0.379911 0.000000 
-0.445733 -0.359332 0.000000 
-0.000000 -0.287136 0.000000 
0.043388 -0.383566 0.000000 
-0.000000 -0.353534 0.000000 
-0.043388 -0.383566 0.000000 
0.087158 -0.475763 0.000000 
0.043769 -0.452064 0.000000 
-0.000000 -0.490530 0.000000 
-0.043769 -0.452064 0.000000 
-0.087158 -0.475763 0.000000 
0.130831 -0.566893 0.000000 
0.087824 -0.545294 0.000000 
0.044436 -0.587994 0.000000 
-0.000000 -0.556929 0.000000 
-0.044436 -0.587994 0.000000 
-0.087824 -0.545294 0.000000 
-0.130831 -0.566893 0.000000 
0.174505 -0.658022 0.000000 
0.131782 -0.637456 0.000000 
0.088871 -0.683323 0.000000 
0.044532 -0.655459 0.000000 
-0.000000 -0.691859 0.000000 
-0.044532 -0.655459 0.000000 
-0.088871 -0.683323 0.000000 
-0.131782 -0.637456 0.000000 
-0.174505 -0.658022 0.000000 
0.046960 -0.264521 0.000000 
0.149405 -0.290722 0.000000 
0.098873 -0.305920 0.000000 
0.095301 -0.358567 0.000000 
0.248777 -0.313985 0.000000 
0.203197 -0.333132 0.000000 
0.205981 -0.391335 0.000000 
0.148617 -0.401573 0.000000 
0.140093 -0.450271 0.000000 
0.347255 -0.336658 0.000000 
0.303554 -0.356816 0.000000 
0.309886 -0.417362 0.000000 
0.257893 -0.432734 0.000000 
0.254475 -0.486844 0.000000 
0.194039 -0.494143 0.000000 
0.184111 -0.541234 0.000000 
0.445733 -0.359332 0.000000 
0.403017 -0.379911 0.000000 
0.412122 -0.442057 0.000000 
0.362692 -0.459350 0.000000 
0.363386 -0.516862 0.000000 
0.307162 -0.528983 0.000000 
0.301302 -0.581022 0.000000 
0.238687 -0.585974 0.000000 
0.228129 -0.632198 0.000000 
0.058559 -0.213706 0.000000 
0.142917 -0.149947 0.000000 
0.123292 -0.198931 0.000000 
0.162226 -0.234548 0.000000 
0.223062 -0.086759 0.000000 
0.209613 -0.134333 0.000000 
0.256854 -0.168446 0.000000 
0.229092 -0.219678 0.000000 
0.261851 -0.256705 0.000000 
0.302189 -0.023903 0.000000 
0.290702 -0.070638 0.000000 
0.341985 -0.103437 0.000000 
0.321587 -0.153671 0.000000 
0.361761 -0.190080 0.000000 
0.329787 -0.241882 0.000000 
0.360414 -0.279005 0.000000 
0.381315 0.038954 0.000000 
0.370772 -0.007274 0.000000 
0.425037 -0.038903 0.000000 
0.407738 -0.088331 0.000000 
0.453135 -0.123646 0.000000 
0.427556 -0.175161 0.000000 
0.464588 -0.212189 0.000000 
0.429420 -0.264230 0.000000 
0.458977 -0.301305 0.000000 
0.026061 -0.172955 0.000000 
0.028809 -0.067248 0.000000 
0.054870 -0.113132 0.000000 
0.106992 -0.104899 0.000000 
0.029377 0.034809 0.000000 
0.058186 -0.005368 0.000000 
0.114311 0.010297 0.000000 
0.137056 -0.043350 0.000000 
0.186430 -0.040824 0.000000 
0.029568 0.135863 0.000000 
0.058945 0.097743 0.000000 
0.116563 0.117388 0.000000 
0.143120 0.070120 0.000000 
0.196633 0.078829 0.000000 
0.217198 0.021532 0.000000 
0.265318 0.022332 0.000000 
0.029759 0.236917 0.000000 
0.059328 0.199851 0.000000 
0.117890 0.222557 0.000000 
0.145749 0.178214 0.000000 
0.201664 0.191688 0.000000 
0.225992 0.139571 0.000000 
0.278030 0.145438 0.000000 
0.296791 0.085495 0.000000 
0.344206 0.085488 0.000000 
VECTORS X_EC float 
0.338794 0.834891 0.000000 
-0.609100 -0.083858 0.000000 
0.713312 0.027283 0.000000 
0.374519 -0.592146 0.000000 
0.423588 -0.948877 0.000000 
-0.218274 -0.914773 0.000000 
-0.513962 0.360988 0.000000 
0.756418 0.572474 0.000000 
0.381900 0.030082 0.000000 
-0.550868 0.198520 0.000000 
0.823577 0.209316 0.000000 
0.556234 -0.564189 0.000000 
-0.139443 -0.446620 0.000000 
-0.484677 0.915256 0.000000 
0.766286 -0.819529 0.000000 
0.384386 0.665851 0.000000 
0.474677 -0.654083 0.000000 
-0.141715 -0.654180 0.000000 
-0.385608 0.536592 0.000000 
0.937896 0.615788 0.000000 
0.621631 -0.087792 0.000000 
-0.105264 0.094107 0.000000 
-0.467428 -0.504519 0.000000 
0.771260 -0.197991 0.000000 
0.386873 -0.698380 0.000000 
0.761262 -0.614975 0.000000 
0.108942 -0.333598 0.000000 
-0.397202 -0.814437 0.000000 
-0.142083 0.524287 0.000000 
-0.595936 -0.034487 0.000000 
0.978194 -0.534353 0.000000 
-0.660903 0.774022 0.000000 
0.724964 0.313502 0.000000 
0.899809 -0.328747 0.000000 
0.685384 0.266565 0.000000 
0.287229 -0.234594 0.000000 
0.702895 -0.933922 0.000000 
0.180633 0.574559 0.000000 
0.445811 -0.103600 0.000000 
-0.220880 -0.546386 0.000000 
-0.071546 0.822688 0.000000 
-0.033296 0.567617 0.000000 
-0.417537 0.067107 0.000000 
0.039645 -0.635455 0.000000 
-0.441768 0.864674 0.000000 
-0.109248 0.169223 0.000000 
-0.699407 -0.307533 0.000000 
-0.474522 -0.974812 0.000000 
0.820030 0.598195 0.000000 
0.957100 -0.025877 0.000000 
0.610485 0.071032 0.000000 
-0.761092 -0.659349 0.000000 
-0.714655 0.629914 0.000000 
-0.057734 0.424746 0.000000 
-0.178789 0.578655 0.000000 
-0.067979 -0.078771 0.000000 
0.677748 -0.216974 0.000000 
0.641556 0.997281 0.000000 
-0.765897 0.738802 0.000000 
0.393446 -0.193336 0.000000 
0.522510 -0.829066 0.000000 
-0.691820 -0.927610 0.000000 
-0.647393 0.341908 0.000000 
0.028512 0.134381 0.000000 
-0.053800 -0.682979 0.000000 
0.514316 -0.955110 0.000000 
0.965681 -0.965327 0.000000 
-0.897068 0.410645 0.000000 
-0.083078 0.343792 0.000000 
-0.006893 -0.358733 0.000000 
0.724017 -0.522366 0.000000 
0.714996 0.701231 0.000000 
-0.642413 0.467773 0.000000 
-0.760780 -0.371207 0.000000 
-0.205471 -0.649023 0.000000 
0.000000 0.376333 0.000000 
-0.564049 -0.321854 0.000000 
0.000000 -0.727290 0.000000 
0.564049 -0.321854 0.000000 
0.866949 0.922801 0.000000 
-0.569003 0.602870 0.000000 
0.000000 -0.877842 0.000000 
0.569003 0.602870 0.000000 
-0.866949 0.922801 0.000000 
0.299194 0.153052 0.000000 
0.858290 -0.138532 0.000000 
-0.577662 0.437913 0.000000 
0.000000 0.018535 0.000000 
0.577662 0.437913 0.000000 
-0.858290 -0.138532 0.000000 
-0.299194 0.153052 0.000000 
-0.268560 -0.616698 0.000000 
0.286830 -0.894340 0.000000 
0.844677 -0.275142 0.000000 
-0.578910 -0.651305 0.000000 
0.000000 -0.159901 0.000000 
0.578910 -0.651305 0.000000 
-0.844677 -0.275142 0.000000 
-0.286830 -0.894340 0.000000 
0.268560 -0.616698 0.000000 
-0.610485 0.071032 0.000000 
0.057734 0.424746 0.000000 
0.714655 0.629914 0.000000 
0.761092 -0.659349 0.000000 
0.765897 0.738802 0.000000 
-0.641556 0.997281 0.000000 
-0.677748 -0.216974 0.000000 
0.067979 -0.078771 0.000000 
0.178789 0.578655 0.000000 
-0.514316 -0.955110 0.000000 
0.053800 -0.682979 0.000000 
-0.028512 0.134381 0.000000 
0.647393 0.341908 0.000000 
0.691820 -0.927610 0.000000 
-0.522510 -0.829066 0.000000 
-0.393446 -0.193336 0.000000 
0.205471 -0.649023 0.000000 
0.760780 -0.371207 0.000000 
0.642413 0.467773 0.000000 
-0.714996 0.701231 0.000000 
-0.724017 -0.522366 0.000000 
0.006894 -0.358733 0.000000 
0.083078 0.343792 0.000000 
0.897068 0.410645 0.000000 
-0.965681 -0.965327 0.000000 
-0.761262 -0.614975 0.000000 
0.142083 0.524287 0.000000 
0.397202 -0.814437 0.000000 
-0.108942 -0.333598 0.000000 
-0.899809 -0.328747 0.000000 
-0.724964 0.313502 0.000000 
0.660903 0.774022 0.000000 
-0.978194 -0.534353 0.000000 
0.595936 -0.034487 0.000000 
0.071546 0.822688 0.000000 
0.220880 -0.546386 0.000000 
-0.445811 -0.103600 0.000000 
-0.180633 0.574559 0.000000 
-0.702895 -0.933922 0.000000 
-0.287229 -0.234594 0.000000 
-0.685384 0.266565 0.000000 
-0.957100 -0.025877 0.000000 
-0.820030 0.598195 0.000000 
0.474522 -0.974812 0.000000 
0.699407 -0.307533 0.000000 
0.109248 0.169223 0.000000 
0.441768 0.864674 0.000000 
-0.039645 -0.635455 0.000000 
0.417537 0.067107 0.000000 
0.033296 0.567617 0.000000 
-0.338794 0.834891 0.000000 
-0.374519 -0.592146 0.000000 
-0.713312 0.027283 0.000000 
0.609100 -0.083858 0.000000 
-0.381900 0.030082 0.000000 
-0.756418 0.572474 0.000000 
0.513962 0.360988 0.000000 
0.218274 -0.914773 0.000000 
-0.423588 -0.948877 0.000000 
-0.384386 0.665851 0.000000 
-0.766286 -0.819529 0.000000 
0.484677 0.915256 0.000000 
0.139443 -0.446620 0.000000 
-0.556234 -0.564189 0.000000 
-0.823577 0.209316 0.000000 
0.550868 0.198520 0.000000 
-0.386873 -0.698380 0.000000 
-0.771260 -0.197991 0.000000 
0.467428 -0.504519 0.000000 
0.105264 0.094107 0.000000 
-0.621631 -0.087792 0.000000 
-0.937896 0.615788 0.000000 
0.385608 0.536592 0.000000 
0.141715 -0.654180 0.000000 
-0.474677 -0.654083 0.000000 
CELL_DATA 175 
SCALARS MASS float 
LOOKUP_TABLE default 
0.078183 
0.086427 
0.094672 
0.086427 
0.088131 
0.092111 
0.085854 
0.092111 
0.088131 
0.088705 
0.091000 
0.086983 
0.091556 
0.086983 
0.091000 
0.088705 
0.089278 
0.091574 
0.089278 
0.092722 
0.089278 
0.092722 
0.089278 
0.091574 
0.089278 
0.078183 
0.086427 
0.094672 
0.086427 
0.088131 
0.092111 
0.085854 
0.092111 
0.088131 
0.088705 
0.091000 
0.086983 
0.091556 
0.086983 
0.091000 
0.088705 
0.089278 
0.091574 
0.089278 
0.092722 
0.089278 
0.092722 
0.089278 
0.091574 
0.089278 
0.078183 
0.086427 
0.094672 
0.086427 
0.088131 
0.092111 
0.085854 
0.092111 
0.088131 
0.088705 
0.091000 
0.086983 
0.091556 
0.086983 
0.091000 
0.088705 
0.089278 
0.091574 
0.089278 
0.092722 
0.089278 
0.092722 
0.089278 
0.091574 
0.089278 
0.078183 
0.086427 
0.094672 
0.086427 
0.088131 
0.092111 
0.085854 
0.092111 
0.088131 
0.088705 
0.091000 
0.086983 
0.091556 
0.086983 
0.091000 
0.088705 
0.089278 
0.091574 
0.089278 
0.092722 
0.089278 
0.092722 
0.089278 
0.091574 
0.089278 
0.078183 
0.086427 
0.094672 
0.086427 
0.088131 
0.092111 
0.085854 
0.092111 
0.088131 
0.088705 
0.091000 
0.086983 
0.091556 
0.086983 
0.091000 
0.088705 
0.089278 
0.091574 
0.089278 
0.092722 
0.089278 
0.092722 
0.089278 
0.091574 
0.089278 
0.078183 
0.086427 
0.094672 
0.086427 
0.088131 
0.092111 
0.085854 
0.092111 
0.088131 
0.088705 
0.091000 
0.086983 
0.091556 
0.086983 
0.091000 
0.088705 
0.089278 
0.091574 
0.089278 
0.092722 
0.089278 
0.092722 
0.089278 
0.091574 
0.089278 
0.078183 
0.086427 
0.094672 
0.086427 
0.088131 
0.092111 
0.085854 
0.092111 
0.088131 
0.088705 
0.091000 
0.086983 
0.091556 
0.086983 
0.091000 
0.088705 
0.089278 
0.091574 
0.089278 
0.092722 
0.089278 
0.092722 
0.089278 
0.091574 
0.089278 
SCALARS MASS float 
LOOKUP_TABLE default 
0.078183 
0.086427 
0.094672 
0.086427 
0.088131 
0.092111 
0.085854 
0.092111 
0.088131 
0.088705 
0.091000 
0.086983 
0.091556 
0.086983 
0.091000 
0.088705 
0.089278 
0.091574 
0.089278 
0.092722 
0.089278 
0.092722 
0.089278 
0.091574 
0.089278 
0.078183 
0.086427 
0.094672 
0.086427 
0.088131 
0.092111 
0.085854 
0.092111 
0.088131 
0.088705 
0.091000 
0.086983 
0.091556 
0.086983 
0.091000 
0.088705 
0.089278 
0.091574 
0.089278 
0.092722 
0.089278 
0.092722 
0.089278 
0.091574 
0.089278 
0.078183 
0.086427 
0.094672 
0.086427 
0.088131 
0.092111 
0.085854 
0.092111 
0.088131 
0.088705 
0.091000 
0.086983 
0.091556 
0.086983 
0.091000 
0.088705 
0.089278 
0.091574 
0.089278 
0.092722 
0.089278 
0.092722 
0.089278 
0.091574 
0.089278 
0.078183 
0.086427 
0.094672 
0.086427 
0.088131 
0.092111 
0.085854 
0.092111 
0.088131 
0.088705 
0.091000 
0.086983 
0.091556 
0.086983 
0.091000 
0.088705 
0.089278 
0.091574 
0.089278 
0.092722 
0.089278 
0.092722 
0.089278 
0.091574 
0.089278 
0.078183 
0.086427 
0.094672 
0.086427 
0.088131 
0.092111 
0.085854 
0.092111 
0.088131 
0.088705 
0.091000 
0.086983 
0.091556 
0.086983 
0.091000 
0.088705 
0.089278 
0.091574 
0.089278 
0.092722 
0.089278 
0.092722 
0.089278 
0.091574 
0.089278 
0.078183 
0.086427 
0.094672 
0.086427 
0.088131 
0.092111 
0.085854 
0.092111 
0.088131 
0.088705 
0.091000 
0.086983 
0.091556 
0.086983 
0.091000 
0.088705 
0.089278 
0.091574 
0.089278 
0.092722 
0.089278 
0.092722 
0.089278 
0.091574 
0.089278 
0.078183 
0.086427 
0.094672 
0.086427 
0.088131 
0.092111 
0.085854 
0.092111 
0.088131 
0.088705 
0.091000 
0.086983 
0.091556 
0.086983 
0.091000 
0.088705 
0.089278 
0.091574 
0.089278 
0.092722 
0.089278 
0.092722 
0.089278 
0.091574 
0.089278 
SCALARS DENSITY float 
LOOKUP_TABLE default 
20.000000 
20.000000 
20.000000 
20.000000 
20.000000 
20.000000 
20.000000 
20.000000 
20.000000 
20.000000 
20.000000 
20.000000 
20.000000 
20.000000 
20.000000 
20.000000 
20.000000 
20.000000 
20.000000 
20.000000 
20.000000 
20.000000 
20.000000 
20.000000 
20.000000 
20.000000 
20.000000 
20.000000 
20.000000 
20.000000 
20.000000 
20.000000 
20.000000 
20.000000 
20.000000 
20.000000 
20.000000 
20.000000 
20.000000 
20.000000 
20.000000 
20.000000 
20.000000 
20.000000 
20.000000 
20.000000 
20.000000 
20.000000 
20.000000 
20.000000 
20.000000 
20.000000 
20.000000 
20.000000 
20.000000 
20.000000 
20.000000 
20.000000 
20.000000 
20.000000 
20.000000 
20.000000 
20.000000 
20.000000 
20.000000 
20.000000 
20.000000 
20.000000 
20.000000 
20.000000 
20.000000 
20.000000 
20.000000 
20.000000 
20.000000 
20.000000 
20.000000 
20.000000 
20.000000 
20.000000 
20.000000 
20.000000 
20.000000 
20.000000 
20.000000 
20.000000 
20.000000 
20.000000 
20.000000 
20.000000 
20.000000 
20.000000 
20.000000 
20.000000 
20.000000 
20.000000 
20.000000 
20.000000 
20.000000 
20.000000 
20.000000 
20.000000 
20.000000 
20.000000 
20.000000 
20.000000 
20.000000 
20.000000 
20.000000 
20.000000 
20.000000 
20.000000 
20.000000 
20.000000 
20.000000 
20.000000 
20.000000 
20.000000 
20.000000 
20.000000 
20.000000 
20.000000 
20.000000 
20.000000 
20.000000 
20.000000 
20.000000 
20.000000 
20.000000 
20.000000 
20.000000 
20.000000 
20.000000 
20.000000 
20.000000 
20.000000 
20.000000 
20.000000 
20.000000 
20.000000 
20.000000 
20.000000 
20.000000 
20.000000 
20.000000 
20.000000 
20.000000 
20.000000 
20.000000 
20.000000 
20.000000 
20.000000 
20.000000 
20.000000 
20.000000 
20.000000 
20.000000 
20.000000 
20.000000 
20.000000 
20.000000 
20.000000 
20.000000 
20.000000 
20.000000 
20.000000 
20.000000 
20.000000 
20.000000 
20.000000 
20.000000 
20.000000 
20.000000 
20.000000 
20.000000 
SCALARS ELEM_i float 
LOOKUP_TABLE default 
181 
208 
181 
181 
208 
208 
209 
182 
182 
236 
209 
209 
209 
210 
182 
183 
236 
236 
237 
210 
210 
210 
210 
183 
183 
180 
207 
207 
208 
234 
207 
235 
208 
208 
234 
234 
234 
235 
235 
235 
236 
261 
261 
261 
262 
262 
262 
262 
236 
236 
180 
206 
207 
207 
206 
206 
206 
207 
234 
205 
205 
232 
233 
233 
233 
233 
204 
232 
232 
232 
232 
233 
260 
260 
260 
180 
179 
179 
179 
152 
179 
178 
179 
206 
151 
151 
178 
178 
178 
205 
205 
150 
150 
150 
177 
177 
177 
204 
204 
204 
180 
153 
153 
152 
126 
153 
152 
152 
152 
125 
125 
125 
125 
124 
151 
151 
98 
98 
98 
125 
124 
124 
124 
124 
150 
180 
154 
153 
153 
154 
154 
127 
153 
126 
128 
127 
127 
127 
126 
126 
126 
128 
128 
100 
100 
100 
100 
99 
99 
99 
181 
181 
181 
154 
182 
182 
155 
154 
154 
183 
182 
156 
155 
155 
155 
128 
183 
183 
156 
156 
156 
156 
129 
128 
128 
VECTORS VELOCITY float 
-0.000000 -2.110327 0.000000 
-0.000000 -2.110327 0.000000 
-0.000000 -2.110327 0.000000 
-0.000000 -2.110327 0.000000 
0.000000 -2.110327 0.000000 
0.000000 -2.110327 0.000000 
0.000000 -2.110327 0.000000 
0.000000 -2.110327 0.000000 
0.000000 -2.110327 0.000000 
0.000000 -2.110327 0.000000 
0.000000 -2.110327 0.000000 
0.000000 -2.110327 0.000000 
0.000000 -2.110327 0.000000 
-0.000000 -2.110327 0.000000 
-0.000000 -2.110327 0.000000 
-0.000000 -2.110327 0.000000 
0.000000 -2.110327 0.000000 
0.000000 -2.110327 0.000000 
-0.000000 -2.110327 0.000000 
-0.000000 -2.110327 0.000000 
-0.000000 -2.110327 0.000000 
-0.000000 -2.110327 0.000000 
0.000000 -2.110327 0.000000 
-0.000000 -2.110327 0.000000 
0.000000 -2.110327 0.000000 
0.000000 -2.110327 0.000000 
-0.000000 -2.110327 0.000000 
-0.000000 -2.110327 0.000000 
-0.000000 -2.110327 0.000000 
-0.000000 -2.110327 0.000000 
-0.000000 -2.110327 0.000000 
-0.000000 -2.110327 0.000000 
-0.000000 -2.110327 0.000000 
0.000000 -2.110327 0.000000 
0.000000 -2.110327 0.000000 
0.000000 -2.110327 0.000000 
0.000000 -2.110327 0.000000 
0.000000 -2.110327 0.000000 
0.000000 -2.110327 0.000000 
0.000000 -2.110327 0.000000 
0.000000 -2.110327 0.000000 
0.000000 -2.110327 0.000000 
0.000000 -2.110327 0.000000 
-0.000000 -2.110327 0.000000 
0.000000 -2.110327 0.000000 
-0.000000 -2.110327 0.000000 
0.000000 -2.110327 0.000000 
0.000000 -2.110327 0.000000 
0.000000 -2.110327 0.000000 
-0.000000 -2.110327 0.000000 
0.000000 -2.110327 0.000000 
0.000000 -2.110327 0.000000 
0.000000 -2.110327 0.000000 
0.000000 -2.110327 0.000000 
-0.000000 -2.110327 0.000000 
0.000000 -2.110327 0.000000 
-0.000000 -2.110327 0.000000 
-0.000000 -2.110327 0.000000 
-0.000000 -2.110327 0.000000 
-0.000000 -2.110327 0.000000 
-0.000000 -2.110327 0.000000 
-0.000000 -2.110327 0.000000 
-0.000000 -2.110327 0.000000 
0.000000 -2.110327 0.000000 
0.000000 -2.110327 0.000000 
0.000000 -2.110327 0.000000 
0.000000 -2.110327 0.000000 
0.000000 -2.110327 0.000000 
-0.000000 -2.110327 0.000000 
-0.000000 -2.110327 0.000000 
-0.000000 -2.110327 0.000000 
0.000000 -2.110327 0.000000 
-0.000000 -2.110327 0.000000 
0.000000 -2.110327 0.000000 
-0.000000 -2.110327 0.000000 
0.000000 -2.110327 0.000000 
0.000000 -2.110327 0.000000 
0.000000 -2.110327 0.000000 
0.000000 -2.110327 0.000000 
0.000000 -2.110327 0.000000 
0.000000 -2.110327 0.000000 
0.000000 -2.110327 0.000000 
0.000000 -2.110327 0.000000 
-0.000000 -2.110327 0.000000 
0.000000 -2.110327 0.000000 
0.000000 -2.110327 0.000000 
0.000000 -2.110327 0.000000 
-0.000000 -2.110327 0.000000 
-0.000000 -2.110327 0.000000 
-0.000000 -2.110327 0.000000 
-0.000000 -2.110327 0.000000 
-0.000000 -2.110327 0.000000 
-0.000000 -2.110327 0.000000 
0.000000 -2.110327 0.000000 
-0.000000 -2.110327 0.000000 
0.000000 -2.110327 0.000000 
-0.000000 -2.110327 0.000000 
-0.000000 -2.110327 0.000000 
-0.000000 -2.110327 0.000000 
-0.000000 -2.110327 0.000000 
-0.000000 -2.110327 0.000000 
-0.000000 -2.110327 0.000000 
-0.000000 -2.110327 0.000000 
-0.000000 -2.110327 0.000000 
0.000000 -2.110327 0.000000 
0.000000 -2.110327 0.000000 
0.000000 -2.110327 0.000000 
0.000000 -2.110327 0.000000 
0.000000 -2.110327 0.000000 
-0.000000 -2.110327 0.000000 
-0.000000 -2.110327 0.000000 
0.000000 -2.110327 0.000000 
0.000000 -2.110327 0.000000 
0.000000 -2.110327 0.000000 
0.000000 -2.110327 0.000000 
0.000000 -2.110327 0.000000 
-0.000000 -2.110327 0.000000 
-0.000000 -2.110327 0.000000 
-0.000000 -2.110327 0.000000 
0.000000 -2.110327 0.000000 
0.000000 -2.110327 0.000000 
0.000000 -2.110327 0.000000 
-0.000000 -2.110327 0.000000 
-0.000000 -2.110327 0.000000 
0.000000 -2.110327 0.000000 
-0.000000 -2.110327 0.000000 
-0.000000 -2.110327 0.000000 
-0.000000 -2.110327 0.000000 
-0.000000 -2.110327 0.000000 
0.000000 -2.110327 0.000000 
-0.000000 -2.110327 0.000000 
-0.000000 -2.110327 0.000000 
-0.000000 -2.110327 0.000000 
-0.000000 -2.110327 0.000000 
0.000000 -2.110327 0.000000 
0.000000 -2.110327 0.000000 
0.000000 -2.110327 0.000000 
-0.000000 -2.110327 0.000000 
-0.000000 -2.110327 0.000000 
-0.000000 -2.110327 0.000000 
-0.000000 -2.110327 0.000000 
0.000000 -2.110327 0.000000 
-0.000000 -2.110327 0.000000 
0.000000 -2.110327 0.000000 
-0.000000 -2.110327 0.000000 
-0.000000 -2.110327 0.000000 
-0.000000 -2.110327 0.000000 
0.000000 -2.110327 0.000000 
0.000000 -2.110327 0.000000 
0.000000 -2.110327 0.000000 
-0.000000 -2.110327 0.000000 
0.000000 -2.110327 0.000000 
-0.000000 -2.110327 0.000000 
-0.000000 -2.110327 0.000000 
-0.000000 -2.110327 0.000000 
-0.000000 -2.110327 0.000000 
-0.000000 -2.110327 0.000000 
0.000000 -2.110327 0.000000 
0.000000 -2.110327 0.000000 
-0.000000 -2.110327 0.000000 
-0.000000 -2.110327 0.000000 
-0.000000 -2.110327 0.000000 
-0.000000 -2.110327 0.000000 
0.000000 -2.110327 0.000000 
0.000000 -2.110327 0.000000 
0.000000 -2.110327 0.000000 
0.000000 -2.110327 0.000000 
-0.000000 -2.110327 0.000000 
0.000000 -2.110327 0.000000 
0.000000 -2.110327 0.000000 
0.000000 -2.110327 0.000000 
0.000000 -2.110327 0.000000 
-0.000000 -2.110327 0.000000 
0.000000 -2.110327 0.000000 
0.000000 -2.110327 0.000000 
TENSORS STRESS float 
-0.000000 0.000000 0.000000 
0.000000 0.000000 0.000000 
0.000000 0.000000 0.000000 

-0.000000 -0.000000 0.000000 
0.000000 0.000000 0.000000 
0.000000 0.000000 0.000000 

0.000000 0.000000 0.000000 
0.000000 0.000000 0.000000 
0.000000 0.000000 0.000000 

0.000000 0.000000 0.000000 
0.000000 0.000000 0.000000 
0.000000 0.000000 0.000000 

-0.000000 -0.000000 0.000000 
0.000000 0.000000 0.000000 
0.000000 0.000000 0.000000 

-0.000000 -0.000000 0.000000 
0.000000 0.000000 0.000000 
0.000000 0.000000 0.000000 

-0.000000 0.000000 0.000000 
0.000000 0.000000 0.000000 
0.000000 0.000000 0.000000 

0.000000 0.000000 0.000000 
0.000000 0.000000 0.000000 
0.000000 0.000000 0.000000 

0.000000 -0.000000 0.000000 
0.000000 0.000000 0.000000 
0.000000 0.000000 0.000000 

-0.000000 0.000000 0.000000 
0.000000 -0.000000 0.000000 
0.000000 0.000000 0.000000 

-0.000000 -0.000000 0.000000 
0.000000 -0.000000 0.000000 
0.000000 0.000000 0.000000 

-0.000000 0.000000 0.000000 
0.000000 -0.000000 0.000000 
0.000000 0.000000 0.000000 

-0.000000 0.000000 0.000000 
0.000000 -0.000000 0.000000 
0.000000 0.000000 0.000000 

-0.000000 0.000000 0.000000 
0.000000 -0.000000 0.000000 
0.000000 0.000000 0.000000 

0.000000 0.000000 0.000000 
0.000000 0.000000 0.000000 
0.000000 0.000000 0.000000 

-0.000000 0.000000 0.000000 
0.000000 -0.000000 0.000000 
0.000000 0.000000 0.000000 

0.000000 0.000000 0.000000 
0.000000 -0.000000 0.000000 
0.000000 0.000000 0.000000 

0.000000 0.000000 0.000000 
0.000000 -0.000000 0.000000 
0.000000 0.000000 0.000000 

0.000000 0.000000 0.000000 
0.000000 0.000000 0.000000 
0.000000 0.000000 0.000000 

0.000000 0.000000 0.000000 
0.000000 0.000000 0.000000 
0.000000 0.000000 0.000000 

0.000000 0.000000 0.000000 
0.000000 -0.000000 0.000000 
0.000000 0.000000 0.000000 

0.000000 -0.000000 0.000000 
0.000000 -0.000000 0.000000 
0.000000 0.000000 0.000000 

0.000000 0.000000 0.000000 
0.000000 0.000000 0.000000 
0.000000 0.000000 0.000000 

-0.000000 0.000000 0.000000 
0.000000 -0.000000 0.000000 
0.000000 0.000000 0.000000 

0.000000 -0.000000 0.000000 
0.000000 0.000000 0.000000 
0.000000 0.000000 0.000000 

-0.000000 0.000000 0.000000 
0.000000 0.000000 0.000000 
0.000000 0.000000 0.000000 

0.000000 -0.000000 0.000000 
0.000000 0.000000 0.000000 
0.000000 0.000000 0.000000 

0.000000 -0.000000 0.000000 
0.000000 0.000000 0.000000 
0.000000 0.000000 0.000000 

-0.000000 -0.000000 0.000000 
0.000000 -0.000000 0.000000 
0.000000 0.000000 0.000000 

0.000000 -0.000000 0.000000 
0.000000 -0.000000 0.000000 
0.000000 0.000000 0.000000 

0.000000 0.000000 0.000000 
0.000000 0.000000 0.000000 
0.000000 0.000000 0.000000 

0.000000 0.000000 0.000000 
0.000000 0.000000 0.000000 
0.000000 0.000000 0.000000 

-0.000000 0.000000 0.000000 
0.000000 0.000000 0.000000 
0.000000 0.000000 0.000000 

-0.000000 -0.000000 0.000000 
0.000000 0.000000 0.000000 
0.000000 0.000000 0.000000 

0.000000 -0.000000 0.000000 
0.000000 0.000000 0.000000 
0.000000 0.000000 0.000000 

0.000000 -0.000000 0.000000 
0.000000 0.000000 0.000000 
0.000000 0.000000 0.000000 

0.000000 -0.000000 0.000000 
0.000000 0.000000 0.000000 
0.000000 0.000000 0.000000 

0.000000 0.000000 0.000000 
0.000000 -0.000000 0.000000 
0.000000 0.000000 0.000000 

0.000000 0.000000 0.000000 
0.000000 -0.000000 0.000000 
0.000000 0.000000 0.000000 

0.000000 0.000000 0.000000 
0.000000 -0.000000 0.000000 
0.000000 0.000000 0.000000 

0.000000 0.000000 0.000000 
0.000000 -0.000000 0.000000 
0.000000 0.000000 0.000000 

0.000000 0.000000 0.000000 
0.000000 0.000000 0.000000 
0.000000 0.000000 0.000000 

0.000000 -0.000000 0.000000 
0.000000 0.000000 0.000000 
0.000000 0.000000 0.000000 

0.000000 -0.000000 0.000000 
0.000000 0.000000 0.000000 
0.000000 0.000000 0.000000 

-0.000000 -0.000000 0.000000 
0.000000 -0.000000 0.000000 
0.000000 0.000000 0.000000 

-0.000000 -0.000000 0.000000 
0.000000 -0.000000 0.000000 
0.000000 0.000000 0.000000 

0.000000 -0.000000 0.000000 
0.000000 -0.000000 0.000000 
0.000000 0.000000 0.000000 

0.000000 -0.000000 0.000000 
0.000000 0.000000 0.000000 
0.000000 0.000000 0.000000 

0.000000 0.000000 0.000000 
0.000000 -0.000000 0.000000 
0.000000 0.000000 0.000000 

-0.000000 -0.000000 0.000000 
0.000000 -0.000000 0.000000 
0.000000 0.000000 0.000000 

-0.000000 -0.000000 0.000000 
0.000000 0.000000 0.000000 
0.000000 0.000000 0.000000 

0.000000 0.000000 0.000000 
0.000000 0.000000 0.000000 
0.000000 0.000000 0.000000 

0.000000 -0.000000 0.000000 
0.000000 0.000000 0.000000 
0.000000 0.000000 0.000000 

0.000000 -0.000000 0.000000 
0.000000 0.000000 0.000000 
0.000000 0.000000 0.000000 

0.000000 -0.000000 0.000000 
0.000000 0.000000 0.000000 
0.000000 0.000000 0.000000 

-0.000000 -0.000000 0.000000 
0.000000 0.000000 0.000000 
0.000000 0.000000 0.000000 

-0.000000 0.000000 0.000000 
0.000000 0.000000 0.000000 
0.000000 0.000000 0.000000 

0.000000 -0.000000 0.000000 
0.000000 0.000000 0.000000 
0.000000 0.000000 0.000000 

0.000000 -0.000000 0.000000 
0.000000 0.000000 0.000000 
0.000000 0.000000 0.000000 

-0.000000 -0.000000 0.000000 
0.000000 -0.000000 0.000000 
0.000000 0.000000 0.000000 

0.000000 -0.000000 0.000000 
0.000000 0.000000 0.000000 
0.000000 0.000000 0.000000 

0.000000 -0.000000 0.000000 
0.000000 0.000000 0.000000 
0.000000 0.000000 0.000000 

0.000000 0.000000 0.000000 
0.000000 -0.000000 0.000000 
0.000000 0.000000 0.000000 

-0.000000 -0.000000 0.000000 
0.000000 -0.000000 0.000000 
0.000000 0.000000 0.000000 

0.000000 -0.000000 0.000000 
0.000000 0.000000 0.000000 
0.000000 0.000000 0.000000 

0.000000 -0.000000 0.000000 
0.000000 0.000000 0.000000 
0.000000 0.000000 0.000000 

0.000000 0.000000 0.000000 
0.000000 0.000000 0.000000 
0.000000 0.000000 0.000000 

0.000000 -0.000000 0.000000 
0.000000 -0.000000 0.000000 
0.000000 0.000000 0.000000 

-0.000000 0.000000 0.000000 
0.000000 -0.000000 0.000000 
0.000000 0.000000 0.000000 

0.000000 0.000000 0.000000 
0.000000 -0.000000 0.000000 
0.000000 0.000000 0.000000 

-0.000000 0.000000 0.000000 
0.000000 -0.000000 0.000000 
0.000000 0.000000 0.000000 

-0.000000 0.000000 0.000000 
0.000000 -0.000000 0.000000 
0.000000 0.000000 0.000000 

0.000000 -0.000000 0.000000 
0.000000 -0.000000 0.000000 
0.000000 0.000000 0.000000 

0.000000 -0.000000 0.000000 
0.000000 -0.000000 0.000000 
0.000000 0.000000 0.000000 

0.000000 -0.000000 0.000000 
0.000000 -0.000000 0.000000 
0.000000 0.000000 0.000000 

-0.000000 -0.000000 0.000000 
0.000000 0.000000 0.000000 
0.000000 0.000000 0.000000 

-0.000000 -0.000000 0.000000 
0.000000 0.000000 0.000000 
0.000000 0.000000 0.000000 

-0.000000 0.000000 0.000000 
0.000000 0.000000 0.000000 
0.000000 0.000000 0.000000 

-0.000000 0.000000 0.000000 
0.000000 0.000000 0.000000 
0.000000 0.000000 0.000000 

-0.000000 -0.000000 0.000000 
0.000000 -0.000000 0.000000 
0.000000 0.000000 0.000000 

0.000000 0.000000 0.000000 
0.000000 0.000000 0.000000 
0.000000 0.000000 0.000000 

-0.000000 0.000000 0.000000 
0.000000 -0.000000 0.000000 
0.000000 0.000000 0.000000 

0.000000 0.000000 0.000000 
0.000000 0.000000 0.000000 
0.000000 0.000000 0.000000 

0.000000 -0.000000 0.000000 
0.000000 0.000000 0.000000 
0.000000 0.000000 0.000000 

-0.000000 0.000000 0.000000 
0.000000 -0.000000 0.000000 
0.000000 0.000000 0.000000 

0.000000 -0.000000 0.000000 
0.000000 0.000000 0.000000 
0.000000 0.000000 0.000000 

-0.000000 0.000000 0.000000 
0.000000 0.000000 0.000000 
0.000000 0.000000 0.000000 

-0.000000 0.000000 0.000000 
0.000000 -0.000000 0.000000 
0.000000 0.000000 0.000000 

-0.000000 0.000000 0.000000 
0.000000 -0.000000 0.000000 
0.000000 0.000000 0.000000 

-0.000000 0.000000 0.000000 
0.000000 0.000000 0.000000 
0.000000 0.000000 0.000000 

-0.000000 -0.000000 0.000000 
0.000000 -0.000000 0.000000 
0.000000 0.000000 0.000000 

-0.000000 -0.000000 0.000000 
0.000000 -0.000000 0.000000 
0.000000 0.000000 0.000000 

-0.000000 -0.000000 0.000000 
0.000000 -0.000000 0.000000 
0.000000 0.000000 0.000000 

-0.000000 -0.000000 0.000000 
0.000000 -0.000000 0.000000 
0.000000 0.000000 0.000000 

-0.000000 0.000000 0.000000 
0.000000 -0.000000 0.000000 
0.000000 0.000000 0.000000 

0.000000 0.000000 0.000000 
0.000000 0.000000 0.000000 
0.000000 0.000000 0.000000 

0.000000 0.000000 0.000000 
0.000000 0.000000 0.000000 
0.000000 0.000000 0.000000 

-0.000000 0.000000 0.000000 
0.000000 0.000000 0.000000 
0.000000 0.000000 0.000000 

0.000000 0.000000 0.000000 
0.000000 0.000000 0.000000 
0.000000 0.000000 0.000000 

-0.000000 0.000000 0.000000 
0.000000 -0.000000 0.000000 
0.000000 0.000000 0.000000 

-0.000000 0.000000 0.000000 
0.000000 0.000000 0.000000 
0.000000 0.000000 0.000000 

-0.000000 0.000000 0.000000 
0.000000 -0.000000 0.000000 
0.000000 0.000000 0.000000 

-0.000000 0.000000 0.000000 
0.000000 -0.000000 0.000000 
0.000000 0.000000 0.000000 

-0.000000 0.000000 0.000000 
0.000000 0.000000 0.000000 
0.000000 0.000000 0.000000 

-0.000000 0.000000 0.000000 
0.000000 -0.000000 0.000000 
0.000000 0.000000 0.000000 

-0.000000 0.000000 0.000000 
0.000000 -0.000000 0.000000 
0.000000 0.000000 0.000000 

0.000000 0.000000 0.000000 
0.000000 0.000000 0.000000 
0.000000 0.000000 0.000000 

-0.000000 0.000000 0.000000 
0.000000 -0.000000 0.000000 
0.000000 0.000000 0.000000 

0.000000 0.000000 0.000000 
0.000000 0.000000 0.000000 
0.000000 0.000000 0.000000 

0.000000 0.000000 0.000000 
0.000000 0.000000 0.000000 
0.000000 0.000000 0.000000 

0.000000 -0.000000 0.000000 
0.000000 0.000000 0.000000 
0.000000 0.000000 0.000000 

-0.000000 -0.000000 0.000000 
0.000000 0.000000 0.000000 
0.000000 0.000000 0.000000 

-0.000000 -0.000000 0.000000 
0.000000 0.000000 0.000000 
0.000000 0.000000 0.000000 

-0.000000 0.000000 0.000000 
0.000000 -0.000000 0.000000 
0.000000 0.000000 0.000000 

0.000000 0.000000 0.000000 
0.000000 0.000000 0.000000 
0.000000 0.000000 0.000000 

-0.000000 -0.000000 0.000000 
0.000000 -0.000000 0.000000 
0.000000 0.000000 0.000000 

0.000000 0.000000 0.000000 
0.000000 0.000000 0.000000 
0.000000 0.000000 0.000000 

0.000000 -0.000000 0.000000 
0.000000 0.000000 0.000000 
0.000000 0.000000 0.000000 

-0.000000 0.000000 0.000000 
0.000000 0.000000 0.000000 
0.000000 0.000000 0.000000 

-0.000000 -0.000000 0.000000 
0.000000 -0.000000 0.000000 
0.000000 0.000000 0.000000 

-0.000000 -0.000000 0.000000 
0.000000 -0.000000 0.000000 
0.000000 0.000000 0.000000 

-0.000000 0.000000 0.000000 
0.000000 -0.000000 0.000000 
0.000000 0.000000 0.000000 

-0.000000 0.000000 0.000000 
0.000000 0.000000 0.000000 
0.000000 0.000000 0.000000 

-0.000000 0.000000 0.000000 
0.000000 -0.000000 0.000000 
0.000000 0.000000 0.000000 

0.000000 -0.000000 0.000000 
0.000000 0.000000 0.000000 
0.000000 0.000000 0.000000 

0.000000 0.000000 0.000000 
0.000000 0.000000 0.000000 
0.000000 0.000000 0.000000 

-0.000000 -0.000000 0.000000 
0.000000 0.000000 0.000000 
0.000000 0.000000 0.000000 

0.000000 -0.000000 0.000000 
0.000000 0.000000 0.000000 
0.000000 0.000000 0.000000 

0.000000 0.000000 0.000000 
0.000000 0.000000 0.000000 
0.000000 0.000000 0.000000 

-0.000000 -0.000000 0.000000 
0.000000 -0.000000 0.000000 
0.000000 0.000000 0.000000 

-0.000000 -0.000000 0.000000 
0.000000 -0.000000 0.000000 
0.000000 0.000000 0.000000 

-0.000000 0.000000 0.000000 
0.000000 -0.000000 0.000000 
0.000000 0.000000 0.000000 

0.000000 0.000000 0.000000 
0.000000 0.000000 0.000000 
0.000000 0.000000 0.000000 

0.000000 -0.000000 0.000000 
0.000000 0.000000 0.000000 
0.000000 0.000000 0.000000 

0.000000 0.000000 0.000000 
0.000000 0.000000 0.000000 
0.000000 0.000000 0.000000 

0.000000 0.000000 0.000000 
0.000000 0.000000 0.000000 
0.000000 0.000000 0.000000 

0.000000 -0.000000 0.000000 
0.000000 -0.000000 0.000000 
0.000000 0.000000 0.000000 

0.000000 0.000000 0.000000 
0.000000 -0.000000 0.000000 
0.000000 0.000000 0.000000 

0.000000 -0.000000 0.000000 
0.000000 0.000000 0.000000 
0.000000 0.000000 0.000000 

0.000000 -0.000000 0.000000 
0.000000 -0.000000 0.000000 
0.000000 0.000000 0.000000 

0.000000 -0.000000 0.000000 
0.000000 -0.000000 0.000000 
0.000000 0.000000 0.000000 

0.000000 0.000000 0.000000 
0.000000 0.000000 0.000000 
0.000000 0.000000 0.000000 

0.000000 -0.000000 0.000000 
0.000000 -0.000000 0.000000 
0.000000 0.000000 0.000000 

-0.000000 -0.000000 0.000000 
0.000000 -0.000000 0.000000 
0.000000 0.000000 0.000000 

0.000000 -0.000000 0.000000 
0.000000 0.000000 0.000000 
0.000000 0.000000 0.000000 

-0.000000 -0.000000 0.000000 
0.000000 0.000000 0.000000 
0.000000 0.000000 0.000000 

-0.000000 -0.000000 0.000000 
0.000000 -0.000000 0.000000 
0.000000 0.000000 0.000000 

-0.000000 -0.000000 0.000000 
0.000000 -0.000000 0.000000 
0.000000 0.000000 0.000000 

-0.000000 0.000000 0.000000 
0.000000 0.000000 0.000000 
0.000000 0.000000 0.000000 

0.000000 0.000000 0.000000 
0.000000 0.000000 0.000000 
0.000000 0.000000 0.000000 

-0.000000 0.000000 0.000000 
0.000000 0.000000 0.000000 
0.000000 0.000000 0.000000 

0.000000 0.000000 0.000000 
0.000000 -0.000000 0.000000 
0.000000 0.000000 0.000000 

0.000000 0.000000 0.000000 
0.000000 0.000000 0.000000 
0.000000 0.000000 0.000000 

-0.000000 -0.000000 0.000000 
0.000000 -0.000000 0.000000 
0.000000 0.000000 0.000000 

0.000000 -0.000000 0.000000 
0.000000 0.000000 0.000000 
0.000000 0.000000 0.000000 

-0.000000 0.000000 0.000000 
0.000000 -0.000000 0.000000 
0.000000 0.000000 0.000000 

0.000000 -0.000000 0.000000 
0.000000 0.000000 0.000000 
0.000000 0.000000 0.000000 

0.000000 -0.000000 0.000000 
0.000000 -0.000000 0.000000 
0.000000 0.000000 0.000000 

0.000000 -0.000000 0.000000 
0.000000 0.000000 0.000000 
0.000000 0.000000 0.000000 

-0.000000 0.000000 0.000000 
0.000000 -0.000000 0.000000 
0.000000 0.000000 0.000000 

0.000000 0.000000 0.000000 
0.000000 0.000000 0.000000 
0.000000 0.000000 0.000000 

-0.000000 0.000000 0.000000 
0.000000 -0.000000 0.000000 
0.000000 0.000000 0.000000 

0.000000 -0.000000 0.000000 
0.000000 0.000000 0.000000 
0.000000 0.000000 0.000000 

0.000000 0.000000 0.000000 
0.000000 -0.000000 0.000000 
0.000000 0.000000 0.000000 

0.000000 -0.000000 0.000000 
0.000000 0.000000 0.000000 
0.000000 0.000000 0.000000 

0.000000 -0.000000 0.000000 
0.000000 0.000000 0.000000 
0.000000 0.000000 0.000000 

-0.000000 0.000000 0.000000 
0.000000 -0.000000 0.000000 
0.000000 0.000000 0.000000 

0.000000 0.000000 0.000000 
0.000000 0.000000 0.000000 
0.000000 0.000000 0.000000 

-0.000000 0.000000 0.000000 
0.000000 -0.000000 0.000000 
0.000000 0.000000 0.000000 

-0.000000 0.000000 0.000000 
0.000000 -0.000000 0.000000 
0.000000 0.000000 0.000000 

-0.000000 -0.000000 0.000000 
0.000000 -0.000000 0.000000 
0.000000 0.000000 0.000000 

-0.000000 -0.000000 0.000000 
0.000000 -0.000000 0.000000 
0.000000 0.000000 0.000000 

-0.000000 -0.000000 0.000000 
0.000000 -0.000000 0.000000 
0.000000 0.000000 0.000000 

0.000000 -0.000000 0.000000 
0.000000 0.000000 0.000000 
0.000000 0.000000 0.000000 

0.000000 -0.000000 0.000000 
0.000000 0.000000 0.000000 
0.000000 0.000000 0.000000 

TENSORS STRAIN float 
-0.000000 0.000000 0.000000 
0.000000 0.000000 0.000000 
0.000000 0.000000 0.000000 

-0.000000 -0.000000 0.000000 
0.000000 0.000000 0.000000 
0.000000 0.000000 0.000000 

-0.000000 0.000000 0.000000 
0.000000 0.000000 0.000000 
0.000000 0.000000 0.000000 

0.000000 0.000000 0.000000 
0.000000 0.000000 0.000000 
0.000000 0.000000 0.000000 

-0.000000 -0.000000 0.000000 
0.000000 0.000000 0.000000 
0.000000 0.000000 0.000000 

-0.000000 -0.000000 0.000000 
0.000000 0.000000 0.000000 
0.000000 0.000000 0.000000 

-0.000000 0.000000 0.000000 
0.000000 0.000000 0.000000 
0.000000 0.000000 0.000000 

0.000000 0.000000 0.000000 
0.000000 0.000000 0.000000 
0.000000 0.000000 0.000000 

0.000000 -0.000000 0.000000 
0.000000 0.000000 0.000000 
0.000000 0.000000 0.000000 

0.000000 0.000000 0.000000 
0.000000 -0.000000 0.000000 
0.000000 0.000000 0.000000 

-0.000000 -0.000000 0.000000 
0.000000 -0.000000 0.000000 
0.000000 0.000000 0.000000 

0.000000 0.000000 0.000000 
0.000000 -0.000000 0.000000 
0.000000 0.000000 0.000000 

0.000000 0.000000 0.000000 
0.000000 -0.000000 0.000000 
0.000000 0.000000 0.000000 

0.000000 0.000000 0.000000 
0.000000 -0.000000 0.000000 
0.000000 0.000000 0.000000 

0.000000 0.000000 0.000000 
0.000000 0.000000 0.000000 
0.000000 0.000000 0.000000 

0.000000 0.000000 0.000000 
0.000000 -0.000000 0.000000 
0.000000 0.000000 0.000000 

0.000000 0.000000 0.000000 
0.000000 -0.000000 0.000000 
0.000000 0.000000 0.000000 

0.000000 0.000000 0.000000 
0.000000 -0.000000 0.000000 
0.000000 0.000000 0.000000 

0.000000 0.000000 0.000000 
0.000000 0.000000 0.000000 
0.000000 0.000000 0.000000 

0.000000 0.000000 0.000000 
0.000000 0.000000 0.000000 
0.000000 0.000000 0.000000 

0.000000 0.000000 0.000000 
0.000000 -0.000000 0.000000 
0.000000 0.000000 0.000000 

0.000000 -0.000000 0.000000 
0.000000 -0.000000 0.000000 
0.000000 0.000000 0.000000 

0.000000 0.000000 0.000000 
0.000000 0.000000 0.000000 
0.000000 0.000000 0.000000 

0.000000 0.000000 0.000000 
0.000000 -0.000000 0.000000 
0.000000 0.000000 0.000000 

0.000000 -0.000000 0.000000 
0.000000 0.000000 0.000000 
0.000000 0.000000 0.000000 

-0.000000 0.000000 0.000000 
0.000000 0.000000 0.000000 
0.000000 0.000000 0.000000 

0.000000 -0.000000 0.000000 
0.000000 0.000000 0.000000 
0.000000 0.000000 0.000000 

0.000000 -0.000000 0.000000 
0.000000 0.000000 0.000000 
0.000000 0.000000 0.000000 

-0.000000 -0.000000 0.000000 
0.000000 0.000000 0.000000 
0.000000 0.000000 0.000000 

0.000000 -0.000000 0.000000 
0.000000 -0.000000 0.000000 
0.000000 0.000000 0.000000 

0.000000 0.000000 0.000000 
0.000000 0.000000 0.000000 
0.000000 0.000000 0.000000 

0.000000 0.000000 0.000000 
0.000000 -0.000000 0.000000 
0.000000 0.000000 0.000000 

-0.000000 0.000000 0.000000 
0.000000 0.000000 0.000000 
0.000000 0.000000 0.000000 

-0.000000 -0.000000 0.000000 
0.000000 0.000000 0.000000 
0.000000 0.000000 0.000000 

0.000000 -0.000000 0.000000 
0.000000 0.000000 0.000000 
0.000000 0.000000 0.000000 

0.000000 -0.000000 0.000000 
0.000000 0.000000 0.000000 
0.000000 0.000000 0.000000 

0.000000 -0.000000 0.000000 
0.000000 0.000000 0.000000 
0.000000 0.000000 0.000000 

0.000000 0.000000 0.000000 
0.000000 -0.000000 0.000000 
0.000000 0.000000 0.000000 

0.000000 0.000000 0.000000 
0.000000 -0.000000 0.000000 
0.000000 0.000000 0.000000 

0.000000 0.000000 0.000000 
0.000000 -0.000000 0.000000 
0.000000 0.000000 0.000000 

0.000000 0.000000 0.000000 
0.000000 -0.000000 0.000000 
0.000000 0.000000 0.000000 

0.000000 0.000000 0.000000 
0.000000 -0.000000 0.000000 
0.000000 0.000000 0.000000 

0.000000 -0.000000 0.000000 
0.000000 0.000000 0.000000 
0.000000 0.000000 0.000000 

-0.000000 -0.000000 0.000000 
0.000000 0.000000 0.000000 
0.000000 0.000000 0.000000 

-0.000000 -0.000000 0.000000 
0.000000 -0.000000 0.000000 
0.000000 0.000000 0.000000 

0.000000 -0.000000 0.000000 
0.000000 -0.000000 0.000000 
0.000000 0.000000 0.000000 

0.000000 -0.000000 0.000000 
0.000000 -0.000000 0.000000 
0.000000 0.000000 0.000000 

-0.000000 -0.000000 0.000000 
0.000000 0.000000 0.000000 
0.000000 0.000000 0.000000 

0.000000 0.000000 0.000000 
0.000000 -0.000000 0.000000 
0.000000 0.000000 0.000000 

0.000000 -0.000000 0.000000 
0.000000 -0.000000 0.000000 
0.000000 0.000000 0.000000 

-0.000000 -0.000000 0.000000 
0.000000 0.000000 0.000000 
0.000000 0.000000 0.000000 

-0.000000 0.000000 0.000000 
0.000000 0.000000 0.000000 
0.000000 0.000000 0.000000 

0.000000 -0.000000 0.000000 
0.000000 0.000000 0.000000 
0.000000 0.000000 0.000000 

0.000000 -0.000000 0.000000 
0.000000 0.000000 0.000000 
0.000000 0.000000 0.000000 

0.000000 -0.000000 0.000000 
0.000000 0.000000 0.000000 
0.000000 0.000000 0.000000 

-0.000000 -0.000000 0.000000 
0.000000 0.000000 0.000000 
0.000000 0.000000 0.000000 

-0.000000 0.000000 0.000000 
0.000000 0.000000 0.000000 
0.000000 0.000000 0.000000 

0.000000 -0.000000 0.000000 
0.000000 -0.000000 0.000000 
0.000000 0.000000 0.000000 

0.000000 -0.000000 0.000000 
0.000000 0.000000 0.000000 
0.000000 0.000000 0.000000 

-0.000000 -0.000000 0.000000 
0.000000 -0.000000 0.000000 
0.000000 0.000000 0.000000 

0.000000 -0.000000 0.000000 
0.000000 0.000000 0.000000 
0.000000 0.000000 0.000000 

0.000000 -0.000000 0.000000 
0.000000 0.000000 0.000000 
0.000000 0.000000 0.000000 

0.000000 0.000000 0.000000 
0.000000 -0.000000 0.000000 
0.000000 0.000000 0.000000 

0.000000 -0.000000 0.000000 
0.000000 -0.000000 0.000000 
0.000000 0.000000 0.000000 

0.000000 -0.000000 0.000000 
0.000000 -0.000000 0.000000 
0.000000 0.000000 0.000000 

0.000000 -0.000000 0.000000 
0.000000 0.000000 0.000000 
0.000000 0.000000 0.000000 

-0.000000 0.000000 0.000000 
0.000000 0.000000 0.000000 
0.000000 0.000000 0.000000 

0.000000 -0.000000 0.000000 
0.000000 -0.000000 0.000000 
0.000000 0.000000 0.000000 

0.000000 0.000000 0.000000 
0.000000 -0.000000 0.000000 
0.000000 0.000000 0.000000 

0.000000 0.000000 0.000000 
0.000000 -0.000000 0.000000 
0.000000 0.000000 0.000000 

0.000000 0.000000 0.000000 
0.000000 -0.000000 0.000000 
0.000000 0.000000 0.000000 

0.000000 0.000000 0.000000 
0.000000 -0.000000 0.000000 
0.000000 0.000000 0.000000 

0.000000 -0.000000 0.000000 
0.000000 -0.000000 0.000000 
0.000000 0.000000 0.000000 

0.000000 -0.000000 0.000000 
0.000000 -0.000000 0.000000 
0.000000 0.000000 0.000000 

0.000000 -0.000000 0.000000 
0.000000 -0.000000 0.000000 
0.000000 0.000000 0.000000 

-0.000000 -0.000000 0.000000 
0.000000 0.000000 0.000000 
0.000000 0.000000 0.000000 

-0.000000 -0.000000 0.000000 
0.000000 0.000000 0.000000 
0.000000 0.000000 0.000000 

-0.000000 0.000000 0.000000 
0.000000 0.000000 0.000000 
0.000000 0.000000 0.000000 

-0.000000 0.000000 0.000000 
0.000000 0.000000 0.000000 
0.000000 0.000000 0.000000 

-0.000000 -0.000000 0.000000 
0.000000 -0.000000 0.000000 
0.000000 0.000000 0.000000 

-0.000000 0.000000 0.000000 
0.000000 0.000000 0.000000 
0.000000 0.000000 0.000000 

-0.000000 0.000000 0.000000 
0.000000 -0.000000 0.000000 
0.000000 0.000000 0.000000 

-0.000000 0.000000 0.000000 
0.000000 0.000000 0.000000 
0.000000 0.000000 0.000000 

0.000000 -0.000000 0.000000 
0.000000 0.000000 0.000000 
0.000000 0.000000 0.000000 

-0.000000 0.000000 0.000000 
0.000000 -0.000000 0.000000 
0.000000 0.000000 0.000000 

-0.000000 -0.000000 0.000000 
0.000000 0.000000 0.000000 
0.000000 0.000000 0.000000 

-0.000000 0.000000 0.000000 
0.000000 0.000000 0.000000 
0.000000 0.000000 0.000000 

-0.000000 0.000000 0.000000 
0.000000 -0.000000 0.000000 
0.000000 0.000000 0.000000 

-0.000000 0.000000 0.000000 
0.000000 -0.000000 0.000000 
0.000000 0.000000 0.000000 

-0.000000 0.000000 0.000000 
0.000000 0.000000 0.000000 
0.000000 0.000000 0.000000 

-0.000000 -0.000000 0.000000 
0.000000 -0.000000 0.000000 
0.000000 0.000000 0.000000 

-0.000000 -0.000000 0.000000 
0.000000 -0.000000 0.000000 
0.000000 0.000000 0.000000 

-0.000000 -0.000000 0.000000 
0.000000 -0.000000 0.000000 
0.000000 0.000000 0.000000 

-0.000000 -0.000000 0.000000 
0.000000 -0.000000 0.000000 
0.000000 0.000000 0.000000 

-0.000000 0.000000 0.000000 
0.000000 -0.000000 0.000000 
0.000000 0.000000 0.000000 

0.000000 0.000000 0.000000 
0.000000 0.000000 0.000000 
0.000000 0.000000 0.000000 

-0.000000 0.000000 0.000000 
0.000000 0.000000 0.000000 
0.000000 0.000000 0.000000 

-0.000000 0.000000 0.000000 
0.000000 0.000000 0.000000 
0.000000 0.000000 0.000000 

-0.000000 0.000000 0.000000 
0.000000 0.000000 0.000000 
0.000000 0.000000 0.000000 

-0.000000 0.000000 0.000000 
0.000000 -0.000000 0.000000 
0.000000 0.000000 0.000000 

-0.000000 0.000000 0.000000 
0.000000 0.000000 0.000000 
0.000000 0.000000 0.000000 

-0.000000 0.000000 0.000000 
0.000000 0.000000 0.000000 
0.000000 0.000000 0.000000 

-0.000000 0.000000 0.000000 
0.000000 0.000000 0.000000 
0.000000 0.000000 0.000000 

-0.000000 0.000000 0.000000 
0.000000 0.000000 0.000000 
0.000000 0.000000 0.000000 

0.000000 0.000000 0.000000 
0.000000 -0.000000 0.000000 
0.000000 0.000000 0.000000 

-0.000000 0.000000 0.000000 
0.000000 -0.000000 0.000000 
0.000000 0.000000 0.000000 

-0.000000 0.000000 0.000000 
0.000000 0.000000 0.000000 
0.000000 0.000000 0.000000 

-0.000000 0.000000 0.000000 
0.000000 -0.000000 0.000000 
0.000000 0.000000 0.000000 

-0.000000 0.000000 0.000000 
0.000000 0.000000 0.000000 
0.000000 0.000000 0.000000 

-0.000000 0.000000 0.000000 
0.000000 0.000000 0.000000 
0.000000 0.000000 0.000000 

-0.000000 -0.000000 0.000000 
0.000000 0.000000 0.000000 
0.000000 0.000000 0.000000 

-0.000000 -0.000000 0.000000 
0.000000 0.000000 0.000000 
0.000000 0.000000 0.000000 

-0.000000 -0.000000 0.000000 
0.000000 0.000000 0.000000 
0.000000 0.000000 0.000000 

-0.000000 0.000000 0.000000 
0.000000 -0.000000 0.000000 
0.000000 0.000000 0.000000 

-0.000000 0.000000 0.000000 
0.000000 0.000000 0.000000 
0.000000 0.000000 0.000000 

-0.000000 -0.000000 0.000000 
0.000000 -0.000000 0.000000 
0.000000 0.000000 0.000000 

0.000000 0.000000 0.000000 
0.000000 0.000000 0.000000 
0.000000 0.000000 0.000000 

0.000000 -0.000000 0.000000 
0.000000 0.000000 0.000000 
0.000000 0.000000 0.000000 

-0.000000 0.000000 0.000000 
0.000000 0.000000 0.000000 
0.000000 0.000000 0.000000 

-0.000000 -0.000000 0.000000 
0.000000 -0.000000 0.000000 
0.000000 0.000000 0.000000 

-0.000000 -0.000000 0.000000 
0.000000 -0.000000 0.000000 
0.000000 0.000000 0.000000 

-0.000000 0.000000 0.000000 
0.000000 0.000000 0.000000 
0.000000 0.000000 0.000000 

-0.000000 0.000000 0.000000 
0.000000 0.000000 0.000000 
0.000000 0.000000 0.000000 

-0.000000 0.000000 0.000000 
0.000000 -0.000000 0.000000 
0.000000 0.000000 0.000000 

-0.000000 -0.000000 0.000000 
0.000000 0.000000 0.000000 
0.000000 0.000000 0.000000 

-0.000000 0.000000 0.000000 
0.000000 0.000000 0.000000 
0.000000 0.000000 0.000000 

-0.000000 -0.000000 0.000000 
0.000000 0.000000 0.000000 
0.000000 0.000000 0.000000 

-0.000000 -0.000000 0.000000 
0.000000 0.000000 0.000000 
0.000000 0.000000 0.000000 

-0.000000 0.000000 0.000000 
0.000000 0.000000 0.000000 
0.000000 0.000000 0.000000 

0.000000 -0.000000 0.000000 
0.000000 -0.000000 0.000000 
0.000000 0.000000 0.000000 

-0.000000 -0.000000 0.000000 
0.000000 -0.000000 0.000000 
0.000000 0.000000 0.000000 

0.000000 0.000000 0.000000 
0.000000 -0.000000 0.000000 
0.000000 0.000000 0.000000 

-0.000000 0.000000 0.000000 
0.000000 0.000000 0.000000 
0.000000 0.000000 0.000000 

0.000000 -0.000000 0.000000 
0.000000 0.000000 0.000000 
0.000000 0.000000 0.000000 

0.000000 0.000000 0.000000 
0.000000 0.000000 0.000000 
0.000000 0.000000 0.000000 

0.000000 0.000000 0.000000 
0.000000 0.000000 0.000000 
0.000000 0.000000 0.000000 

0.000000 -0.000000 0.000000 
0.000000 -0.000000 0.000000 
0.000000 0.000000 0.000000 

0.000000 0.000000 0.000000 
0.000000 -0.000000 0.000000 
0.000000 0.000000 0.000000 

0.000000 -0.000000 0.000000 
0.000000 -0.000000 0.000000 
0.000000 0.000000 0.000000 

0.000000 -0.000000 0.000000 
0.000000 -0.000000 0.000000 
0.000000 0.000000 0.000000 

0.000000 -0.000000 0.000000 
0.000000 -0.000000 0.000000 
0.000000 0.000000 0.000000 

0.000000 0.000000 0.000000 
0.000000 0.000000 0.000000 
0.000000 0.000000 0.000000 

0.000000 -0.000000 0.000000 
0.000000 -0.000000 0.000000 
0.000000 0.000000 0.000000 

-0.000000 -0.000000 0.000000 
0.000000 -0.000000 0.000000 
0.000000 0.000000 0.000000 

-0.000000 -0.000000 0.000000 
0.000000 0.000000 0.000000 
0.000000 0.000000 0.000000 

-0.000000 -0.000000 0.000000 
0.000000 0.000000 0.000000 
0.000000 0.000000 0.000000 

-0.000000 -0.000000 0.000000 
0.000000 0.000000 0.000000 
0.000000 0.000000 0.000000 

-0.000000 -0.000000 0.000000 
0.000000 -0.000000 0.000000 
0.000000 0.000000 0.000000 

-0.000000 0.000000 0.000000 
0.000000 0.000000 0.000000 
0.000000 0.000000 0.000000 

0.000000 0.000000 0.000000 
0.000000 0.000000 0.000000 
0.000000 0.000000 0.000000 

-0.000000 0.000000 0.000000 
0.000000 0.000000 0.000000 
0.000000 0.000000 0.000000 

0.000000 0.000000 0.000000 
0.000000 -0.000000 0.000000 
0.000000 0.000000 0.000000 

-0.000000 0.000000 0.000000 
0.000000 0.000000 0.000000 
0.000000 0.000000 0.000000 

0.000000 -0.000000 0.000000 
0.000000 -0.000000 0.000000 
0.000000 0.000000 0.000000 

0.000000 -0.000000 0.000000 
0.000000 0.000000 0.000000 
0.000000 0.000000 0.000000 

0.000000 0.000000 0.000000 
0.000000 -0.000000 0.000000 
0.000000 0.000000 0.000000 

0.000000 -0.000000 0.000000 
0.000000 0.000000 0.000000 
0.000000 0.000000 0.000000 

0.000000 -0.000000 0.000000 
0.000000 -0.000000 0.000000 
0.000000 0.000000 0.000000 

0.000000 -0.000000 0.000000 
0.000000 0.000000 0.000000 
0.000000 0.000000 0.000000 

0.000000 0.000000 0.000000 
0.000000 -0.000000 0.000000 
0.000000 0.000000 0.000000 

0.000000 0.000000 0.000000 
0.000000 0.000000 0.000000 
0.000000 0.000000 0.000000 

0.000000 0.000000 0.000000 
0.000000 -0.000000 0.000000 
0.000000 0.000000 0.000000 

0.000000 -0.000000 0.000000 
0.000000 0.000000 0.000000 
0.000000 0.000000 0.000000 

0.000000 0.000000 0.000000 
0.000000 -0.000000 0.000000 
0.000000 0.000000 0.000000 

0.000000 -0.000000 0.000000 
0.000000 0.000000 0.000000 
0.000000 0.000000 0.000000 

0.000000 -0.000000 0.000000 
0.000000 0.000000 0.000000 
0.000000 0.000000 0.000000 

0.000000 0.000000 0.000000 
0.000000 -0.000000 0.000000 
0.000000 0.000000 0.000000 

0.000000 0.000000 0.000000 
0.000000 0.000000 0.000000 
0.000000 0.000000 0.000000 

0.000000 0.000000 0.000000 
0.000000 -0.000000 0.000000 
0.000000 0.000000 0.000000 

-0.000000 0.000000 0.000000 
0.000000 -0.000000 0.000000 
0.000000 0.000000 0.000000 

-0.000000 -0.000000 0.000000 
0.000000 -0.000000 0.000000 
0.000000 0.000000 0.000000 

0.000000 -0.000000 0.000000 
0.000000 -0.000000 0.000000 
0.000000 0.000000 0.000000 

-0.000000 -0.000000 0.000000 
0.000000 -0.000000 0.000000 
0.000000 0.000000 0.000000 

0.000000 -0.000000 0.000000 
0.000000 0.000000 0.000000 
0.000000 0.000000 0.000000 

0.000000 -0.000000 0.000000 
0.000000 0.000000 0.000000 
0.000000 0.000000 0.000000 

