# vtk DataFile Version 3.0 
vtk output 
ASCII 
DATASET UNSTRUCTURED_GRID 
POINTS 175 float 
-0.026061 -0.300392 0.000000 
-0.106992 -0.232337 0.000000 
-0.054870 -0.240569 0.000000 
-0.028809 -0.194686 0.000000 
-0.186430 -0.168261 0.000000 
-0.137056 -0.170788 0.000000 
-0.114311 -0.117140 0.000000 
-0.058186 -0.132806 0.000000 
-0.029377 -0.092629 0.000000 
-0.265318 -0.105106 0.000000 
-0.217198 -0.105905 0.000000 
-0.196633 -0.048609 0.000000 
-0.143120 -0.057317 0.000000 
-0.116563 -0.010049 0.000000 
-0.058945 -0.029695 0.000000 
-0.029568 0.008426 0.000000 
-0.344206 -0.041950 0.000000 
-0.296791 -0.041943 0.000000 
-0.278030 0.018000 0.000000 
-0.225992 0.012134 0.000000 
-0.201664 0.064251 0.000000 
-0.145749 0.050777 0.000000 
-0.117890 0.095120 0.000000 
-0.059328 0.072414 0.000000 
-0.029759 0.109480 0.000000 
-0.058559 -0.341143 0.000000 
-0.162226 -0.361986 0.000000 
-0.123292 -0.326368 0.000000 
-0.142917 -0.277385 0.000000 
-0.261851 -0.384142 0.000000 
-0.229092 -0.347115 0.000000 
-0.256854 -0.295883 0.000000 
-0.209613 -0.261771 0.000000 
-0.223062 -0.214197 0.000000 
-0.360414 -0.406442 0.000000 
-0.329787 -0.369319 0.000000 
-0.361761 -0.317517 0.000000 
-0.321587 -0.281108 0.000000 
-0.341985 -0.230874 0.000000 
-0.290702 -0.198075 0.000000 
-0.302189 -0.151340 0.000000 
-0.458977 -0.428742 0.000000 
-0.429420 -0.391668 0.000000 
-0.464588 -0.339626 0.000000 
-0.427556 -0.302598 0.000000 
-0.453135 -0.251084 0.000000 
-0.407738 -0.215768 0.000000 
-0.425037 -0.166340 0.000000 
-0.370772 -0.134711 0.000000 
-0.381315 -0.088484 0.000000 
-0.046960 -0.391958 0.000000 
-0.095301 -0.486004 0.000000 
-0.098873 -0.433357 0.000000 
-0.149405 -0.418159 0.000000 
-0.140093 -0.577708 0.000000 
-0.148617 -0.529010 0.000000 
-0.205981 -0.518773 0.000000 
-0.203197 -0.460569 0.000000 
-0.248777 -0.441423 0.000000 
-0.184111 -0.668672 0.000000 
-0.194039 -0.621581 0.000000 
-0.254475 -0.614281 0.000000 
-0.257893 -0.560171 0.000000 
-0.309886 -0.544799 0.000000 
-0.303554 -0.484254 0.000000 
-0.347255 -0.464096 0.000000 
-0.228129 -0.759635 0.000000 
-0.238687 -0.713411 0.000000 
-0.301302 -0.708459 0.000000 
-0.307162 -0.656420 0.000000 
-0.363386 -0.644299 0.000000 
-0.362692 -0.586788 0.000000 
-0.412122 -0.569495 0.000000 
-0.403017 -0.507348 0.000000 
-0.445733 -0.486769 0.000000 
-0.000000 -0.414573 0.000000 
0.043388 -0.511004 0.000000 
-0.000000 -0.480971 0.000000 
-0.043388 -0.511004 0.000000 
0.087158 -0.603200 0.000000 
0.043769 -0.579502 0.000000 
-0.000000 -0.617968 0.000000 
-0.043769 -0.579502 0.000000 
-0.087158 -0.603200 0.000000 
0.130831 -0.694330 0.000000 
0.087824 -0.672731 0.000000 
0.044436 -0.715431 0.000000 
-0.000000 -0.684366 0.000000 
-0.044436 -0.715431 0.000000 
-0.087824 -0.672731 0.000000 
-0.130831 -0.694330 0.000000 
0.174505 -0.785460 0.000000 
0.131782 -0.764894 0.000000 
0.088871 -0.810760 0.000000 
0.044532 -0.782896 0.000000 
-0.000000 -0.819297 0.000000 
-0.044532 -0.782896 0.000000 
-0.088871 -0.810760 0.000000 
-0.131782 -0.764894 0.000000 
-0.174505 -0.785460 0.000000 
0.046960 -0.391958 0.000000 
0.149405 -0.418159 0.000000 
0.098873 -0.433357 0.000000 
0.095301 -0.486004 0.000000 
0.248777 -0.441423 0.000000 
0.203197 -0.460569 0.000000 
0.205981 -0.518773 0.000000 
0.148617 -0.529010 0.000000 
0.140093 -0.577708 0.000000 
0.347255 -0.464096 0.000000 
0.303554 -0.484254 0.000000 
0.309886 -0.544799 0.000000 
0.257893 -0.560171 0.000000 
0.254475 -0.614281 0.000000 
0.194039 -0.621581 0.000000 
0.184111 -0.668672 0.000000 
0.445733 -0.486769 0.000000 
0.403017 -0.507348 0.000000 
0.412122 -0.569495 0.000000 
0.362692 -0.586788 0.000000 
0.363386 -0.644299 0.000000 
0.307162 -0.656420 0.000000 
0.301302 -0.708459 0.000000 
0.238687 -0.713411 0.000000 
0.228129 -0.759635 0.000000 
0.058559 -0.341143 0.000000 
0.142917 -0.277385 0.000000 
0.123292 -0.326368 0.000000 
0.162226 -0.361986 0.000000 
0.223062 -0.214197 0.000000 
0.209613 -0.261771 0.000000 
0.256854 -0.295883 0.000000 
0.229092 -0.347115 0.000000 
0.261851 -0.384142 0.000000 
0.302189 -0.151340 0.000000 
0.290702 -0.198075 0.000000 
0.341985 -0.230874 0.000000 
0.321587 -0.281108 0.000000 
0.361761 -0.317517 0.000000 
0.329787 -0.369319 0.000000 
0.360414 -0.406442 0.000000 
0.381315 -0.088484 0.000000 
0.370772 -0.134711 0.000000 
0.425037 -0.166340 0.000000 
0.407738 -0.215768 0.000000 
0.453135 -0.251084 0.000000 
0.427556 -0.302598 0.000000 
0.464588 -0.339626 0.000000 
0.429420 -0.391668 0.000000 
0.458977 -0.428742 0.000000 
0.026061 -0.300392 0.000000 
0.028809 -0.194686 0.000000 
0.054870 -0.240569 0.000000 
0.106992 -0.232337 0.000000 
0.029377 -0.092629 0.000000 
0.058186 -0.132806 0.000000 
0.114311 -0.117140 0.000000 
0.137056 -0.170788 0.000000 
0.186430 -0.168261 0.000000 
0.029568 0.008426 0.000000 
0.058945 -0.029695 0.000000 
0.116563 -0.010049 0.000000 
0.143120 -0.057317 0.000000 
0.196633 -0.048609 0.000000 
0.217198 -0.105905 0.000000 
0.265318 -0.105106 0.000000 
0.029759 0.109480 0.000000 
0.059328 0.072414 0.000000 
0.117890 0.095120 0.000000 
0.145749 0.050777 0.000000 
0.201664 0.064251 0.000000 
0.225992 0.012134 0.000000 
0.278030 0.018000 0.000000 
0.296791 -0.041943 0.000000 
0.344206 -0.041950 0.000000 
CELLS 175 350 
1 0 
1 1 
1 2 
1 3 
1 4 
1 5 
1 6 
1 7 
1 8 
1 9 
1 10 
1 11 
1 12 
1 13 
1 14 
1 15 
1 16 
1 17 
1 18 
1 19 
1 20 
1 21 
1 22 
1 23 
1 24 
1 25 
1 26 
1 27 
1 28 
1 29 
1 30 
1 31 
1 32 
1 33 
1 34 
1 35 
1 36 
1 37 
1 38 
1 39 
1 40 
1 41 
1 42 
1 43 
1 44 
1 45 
1 46 
1 47 
1 48 
1 49 
1 50 
1 51 
1 52 
1 53 
1 54 
1 55 
1 56 
1 57 
1 58 
1 59 
1 60 
1 61 
1 62 
1 63 
1 64 
1 65 
1 66 
1 67 
1 68 
1 69 
1 70 
1 71 
1 72 
1 73 
1 74 
1 75 
1 76 
1 77 
1 78 
1 79 
1 80 
1 81 
1 82 
1 83 
1 84 
1 85 
1 86 
1 87 
1 88 
1 89 
1 90 
1 91 
1 92 
1 93 
1 94 
1 95 
1 96 
1 97 
1 98 
1 99 
1 100 
1 101 
1 102 
1 103 
1 104 
1 105 
1 106 
1 107 
1 108 
1 109 
1 110 
1 111 
1 112 
1 113 
1 114 
1 115 
1 116 
1 117 
1 118 
1 119 
1 120 
1 121 
1 122 
1 123 
1 124 
1 125 
1 126 
1 127 
1 128 
1 129 
1 130 
1 131 
1 132 
1 133 
1 134 
1 135 
1 136 
1 137 
1 138 
1 139 
1 140 
1 141 
1 142 
1 143 
1 144 
1 145 
1 146 
1 147 
1 148 
1 149 
1 150 
1 151 
1 152 
1 153 
1 154 
1 155 
1 156 
1 157 
1 158 
1 159 
1 160 
1 161 
1 162 
1 163 
1 164 
1 165 
1 166 
1 167 
1 168 
1 169 
1 170 
1 171 
1 172 
1 173 
1 174 
CELL_TYPES 175 
1 
1 
1 
1 
1 
1 
1 
1 
1 
1 
1 
1 
1 
1 
1 
1 
1 
1 
1 
1 
1 
1 
1 
1 
1 
1 
1 
1 
1 
1 
1 
1 
1 
1 
1 
1 
1 
1 
1 
1 
1 
1 
1 
1 
1 
1 
1 
1 
1 
1 
1 
1 
1 
1 
1 
1 
1 
1 
1 
1 
1 
1 
1 
1 
1 
1 
1 
1 
1 
1 
1 
1 
1 
1 
1 
1 
1 
1 
1 
1 
1 
1 
1 
1 
1 
1 
1 
1 
1 
1 
1 
1 
1 
1 
1 
1 
1 
1 
1 
1 
1 
1 
1 
1 
1 
1 
1 
1 
1 
1 
1 
1 
1 
1 
1 
1 
1 
1 
1 
1 
1 
1 
1 
1 
1 
1 
1 
1 
1 
1 
1 
1 
1 
1 
1 
1 
1 
1 
1 
1 
1 
1 
1 
1 
1 
1 
1 
1 
1 
1 
1 
1 
1 
1 
1 
1 
1 
1 
1 
1 
1 
1 
1 
1 
1 
1 
1 
1 
1 
1 
1 
1 
1 
1 
1 
POINT_DATA 175 
VECTORS X_GC float 
-0.026061 -0.300392 0.000000 
-0.106992 -0.232337 0.000000 
-0.054870 -0.240569 0.000000 
-0.028809 -0.194686 0.000000 
-0.186430 -0.168261 0.000000 
-0.137056 -0.170788 0.000000 
-0.114311 -0.117140 0.000000 
-0.058186 -0.132806 0.000000 
-0.029377 -0.092629 0.000000 
-0.265318 -0.105106 0.000000 
-0.217198 -0.105905 0.000000 
-0.196633 -0.048609 0.000000 
-0.143120 -0.057317 0.000000 
-0.116563 -0.010049 0.000000 
-0.058945 -0.029695 0.000000 
-0.029568 0.008426 0.000000 
-0.344206 -0.041950 0.000000 
-0.296791 -0.041943 0.000000 
-0.278030 0.018000 0.000000 
-0.225992 0.012134 0.000000 
-0.201664 0.064251 0.000000 
-0.145749 0.050777 0.000000 
-0.117890 0.095120 0.000000 
-0.059328 0.072414 0.000000 
-0.029759 0.109480 0.000000 
-0.058559 -0.341143 0.000000 
-0.162226 -0.361986 0.000000 
-0.123292 -0.326368 0.000000 
-0.142917 -0.277385 0.000000 
-0.261851 -0.384142 0.000000 
-0.229092 -0.347115 0.000000 
-0.256854 -0.295883 0.000000 
-0.209613 -0.261771 0.000000 
-0.223062 -0.214197 0.000000 
-0.360414 -0.406442 0.000000 
-0.329787 -0.369319 0.000000 
-0.361761 -0.317517 0.000000 
-0.321587 -0.281108 0.000000 
-0.341985 -0.230874 0.000000 
-0.290702 -0.198075 0.000000 
-0.302189 -0.151340 0.000000 
-0.458977 -0.428742 0.000000 
-0.429420 -0.391668 0.000000 
-0.464588 -0.339626 0.000000 
-0.427556 -0.302598 0.000000 
-0.453135 -0.251084 0.000000 
-0.407738 -0.215768 0.000000 
-0.425037 -0.166340 0.000000 
-0.370772 -0.134711 0.000000 
-0.381315 -0.088484 0.000000 
-0.046960 -0.391958 0.000000 
-0.095301 -0.486004 0.000000 
-0.098873 -0.433357 0.000000 
-0.149405 -0.418159 0.000000 
-0.140093 -0.577708 0.000000 
-0.148617 -0.529010 0.000000 
-0.205981 -0.518773 0.000000 
-0.203197 -0.460569 0.000000 
-0.248777 -0.441423 0.000000 
-0.184111 -0.668672 0.000000 
-0.194039 -0.621581 0.000000 
-0.254475 -0.614281 0.000000 
-0.257893 -0.560171 0.000000 
-0.309886 -0.544799 0.000000 
-0.303554 -0.484254 0.000000 
-0.347255 -0.464096 0.000000 
-0.228129 -0.759635 0.000000 
-0.238687 -0.713411 0.000000 
-0.301302 -0.708459 0.000000 
-0.307162 -0.656420 0.000000 
-0.363386 -0.644299 0.000000 
-0.362692 -0.586788 0.000000 
-0.412122 -0.569495 0.000000 
-0.403017 -0.507348 0.000000 
-0.445733 -0.486769 0.000000 
-0.000000 -0.414573 0.000000 
0.043388 -0.511004 0.000000 
-0.000000 -0.480971 0.000000 
-0.043388 -0.511004 0.000000 
0.087158 -0.603200 0.000000 
0.043769 -0.579502 0.000000 
-0.000000 -0.617968 0.000000 
-0.043769 -0.579502 0.000000 
-0.087158 -0.603200 0.000000 
0.130831 -0.694330 0.000000 
0.087824 -0.672731 0.000000 
0.044436 -0.715431 0.000000 
-0.000000 -0.684366 0.000000 
-0.044436 -0.715431 0.000000 
-0.087824 -0.672731 0.000000 
-0.130831 -0.694330 0.000000 
0.174505 -0.785460 0.000000 
0.131782 -0.764894 0.000000 
0.088871 -0.810760 0.000000 
0.044532 -0.782896 0.000000 
-0.000000 -0.819297 0.000000 
-0.044532 -0.782896 0.000000 
-0.088871 -0.810760 0.000000 
-0.131782 -0.764894 0.000000 
-0.174505 -0.785460 0.000000 
0.046960 -0.391958 0.000000 
0.149405 -0.418159 0.000000 
0.098873 -0.433357 0.000000 
0.095301 -0.486004 0.000000 
0.248777 -0.441423 0.000000 
0.203197 -0.460569 0.000000 
0.205981 -0.518773 0.000000 
0.148617 -0.529010 0.000000 
0.140093 -0.577708 0.000000 
0.347255 -0.464096 0.000000 
0.303554 -0.484254 0.000000 
0.309886 -0.544799 0.000000 
0.257893 -0.560171 0.000000 
0.254475 -0.614281 0.000000 
0.194039 -0.621581 0.000000 
0.184111 -0.668672 0.000000 
0.445733 -0.486769 0.000000 
0.403017 -0.507348 0.000000 
0.412122 -0.569495 0.000000 
0.362692 -0.586788 0.000000 
0.363386 -0.644299 0.000000 
0.307162 -0.656420 0.000000 
0.301302 -0.708459 0.000000 
0.238687 -0.713411 0.000000 
0.228129 -0.759635 0.000000 
0.058559 -0.341143 0.000000 
0.142917 -0.277385 0.000000 
0.123292 -0.326368 0.000000 
0.162226 -0.361986 0.000000 
0.223062 -0.214197 0.000000 
0.209613 -0.261771 0.000000 
0.256854 -0.295883 0.000000 
0.229092 -0.347115 0.000000 
0.261851 -0.384142 0.000000 
0.302189 -0.151340 0.000000 
0.290702 -0.198075 0.000000 
0.341985 -0.230874 0.000000 
0.321587 -0.281108 0.000000 
0.361761 -0.317517 0.000000 
0.329787 -0.369319 0.000000 
0.360414 -0.406442 0.000000 
0.381315 -0.088484 0.000000 
0.370772 -0.134711 0.000000 
0.425037 -0.166340 0.000000 
0.407738 -0.215768 0.000000 
0.453135 -0.251084 0.000000 
0.427556 -0.302598 0.000000 
0.464588 -0.339626 0.000000 
0.429420 -0.391668 0.000000 
0.458977 -0.428742 0.000000 
0.026061 -0.300392 0.000000 
0.028809 -0.194686 0.000000 
0.054870 -0.240569 0.000000 
0.106992 -0.232337 0.000000 
0.029377 -0.092629 0.000000 
0.058186 -0.132806 0.000000 
0.114311 -0.117140 0.000000 
0.137056 -0.170788 0.000000 
0.186430 -0.168261 0.000000 
0.029568 0.008426 0.000000 
0.058945 -0.029695 0.000000 
0.116563 -0.010049 0.000000 
0.143120 -0.057317 0.000000 
0.196633 -0.048609 0.000000 
0.217198 -0.105905 0.000000 
0.265318 -0.105106 0.000000 
0.029759 0.109480 0.000000 
0.059328 0.072414 0.000000 
0.117890 0.095120 0.000000 
0.145749 0.050777 0.000000 
0.201664 0.064251 0.000000 
0.225992 0.012134 0.000000 
0.278030 0.018000 0.000000 
0.296791 -0.041943 0.000000 
0.344206 -0.041950 0.000000 
VECTORS X_EC float 
0.338794 0.555296 0.000000 
-0.609100 -0.363453 0.000000 
0.713312 -0.252312 0.000000 
0.374519 -0.871742 0.000000 
0.423588 0.771528 0.000000 
-0.218274 0.805632 0.000000 
-0.513962 0.081393 0.000000 
0.756418 0.292879 0.000000 
0.381900 -0.249514 0.000000 
-0.550868 -0.081075 0.000000 
0.823577 -0.070280 0.000000 
0.556234 -0.843784 0.000000 
-0.139443 -0.726215 0.000000 
-0.484677 0.635660 0.000000 
0.766286 0.900876 0.000000 
0.384386 0.386255 0.000000 
0.474677 -0.933678 0.000000 
-0.141715 -0.933775 0.000000 
-0.385608 0.256997 0.000000 
0.937896 0.336193 0.000000 
0.621631 -0.367387 0.000000 
-0.105264 -0.185488 0.000000 
-0.467428 -0.784115 0.000000 
0.771260 -0.477586 0.000000 
0.386873 -0.977975 0.000000 
0.761262 -0.894570 0.000000 
0.108942 -0.613193 0.000000 
-0.397202 0.905967 0.000000 
-0.142083 0.244692 0.000000 
-0.595936 -0.314083 0.000000 
0.978194 -0.813948 0.000000 
-0.660903 0.494427 0.000000 
0.724964 0.033906 0.000000 
0.899809 -0.608342 0.000000 
0.685384 -0.013030 0.000000 
0.287229 -0.514189 0.000000 
0.702895 0.786483 0.000000 
0.180633 0.294964 0.000000 
0.445811 -0.383196 0.000000 
-0.220880 -0.825982 0.000000 
-0.071546 0.543093 0.000000 
-0.033296 0.288022 0.000000 
-0.417537 -0.212488 0.000000 
0.039645 -0.915050 0.000000 
-0.441768 0.585079 0.000000 
-0.109248 -0.110372 0.000000 
-0.699407 -0.587128 0.000000 
-0.474522 0.745593 0.000000 
0.820030 0.318600 0.000000 
0.957100 -0.305472 0.000000 
0.610485 -0.208563 0.000000 
-0.761092 -0.938944 0.000000 
-0.714655 0.350318 0.000000 
-0.057734 0.145151 0.000000 
-0.178789 0.299060 0.000000 
-0.067979 -0.358366 0.000000 
0.677748 -0.496569 0.000000 
0.641556 0.717685 0.000000 
-0.765897 0.459207 0.000000 
0.393446 -0.472931 0.000000 
0.522510 0.891339 0.000000 
-0.691820 0.792795 0.000000 
-0.647393 0.062312 0.000000 
0.028512 -0.145214 0.000000 
-0.053800 -0.962575 0.000000 
0.514316 0.765294 0.000000 
0.965681 0.755078 0.000000 
-0.897068 0.131049 0.000000 
-0.083078 0.064196 0.000000 
-0.006893 -0.638328 0.000000 
0.724017 -0.801961 0.000000 
0.714996 0.421635 0.000000 
-0.642413 0.188178 0.000000 
-0.760780 -0.650802 0.000000 
-0.205471 -0.928618 0.000000 
0.000000 0.096738 0.000000 
-0.564049 -0.601449 0.000000 
0.000000 0.993115 0.000000 
0.564049 -0.601449 0.000000 
0.866949 0.643206 0.000000 
-0.569003 0.323275 0.000000 
0.000000 0.842563 0.000000 
0.569003 0.323275 0.000000 
-0.866949 0.643206 0.000000 
0.299194 -0.126544 0.000000 
0.858290 -0.418127 0.000000 
-0.577662 0.158318 0.000000 
0.000000 -0.261060 0.000000 
0.577662 0.158318 0.000000 
-0.858290 -0.418127 0.000000 
-0.299194 -0.126544 0.000000 
-0.268560 -0.896294 0.000000 
0.286830 0.826065 0.000000 
0.844677 -0.554737 0.000000 
-0.578910 -0.930900 0.000000 
0.000000 -0.439496 0.000000 
0.578910 -0.930900 0.000000 
-0.844677 -0.554737 0.000000 
-0.286830 0.826065 0.000000 
0.268560 -0.896294 0.000000 
-0.610485 -0.208563 0.000000 
0.057734 0.145151 0.000000 
0.714655 0.350318 0.000000 
0.761092 -0.938944 0.000000 
0.765897 0.459207 0.000000 
-0.641556 0.717685 0.000000 
-0.677748 -0.496569 0.000000 
0.067979 -0.358366 0.000000 
0.178789 0.299060 0.000000 
-0.514316 0.765294 0.000000 
0.053800 -0.962575 0.000000 
-0.028512 -0.145214 0.000000 
0.647393 0.062312 0.000000 
0.691820 0.792795 0.000000 
-0.522510 0.891339 0.000000 
-0.393446 -0.472931 0.000000 
0.205471 -0.928618 0.000000 
0.760780 -0.650802 0.000000 
0.642413 0.188178 0.000000 
-0.714996 0.421635 0.000000 
-0.724017 -0.801961 0.000000 
0.006894 -0.638328 0.000000 
0.083078 0.064196 0.000000 
0.897068 0.131049 0.000000 
-0.965681 0.755078 0.000000 
-0.761262 -0.894570 0.000000 
0.142083 0.244692 0.000000 
0.397202 0.905968 0.000000 
-0.108942 -0.613193 0.000000 
-0.899809 -0.608342 0.000000 
-0.724964 0.033906 0.000000 
0.660903 0.494427 0.000000 
-0.978194 -0.813948 0.000000 
0.595936 -0.314083 0.000000 
0.071546 0.543093 0.000000 
0.220880 -0.825982 0.000000 
-0.445811 -0.383196 0.000000 
-0.180633 0.294964 0.000000 
-0.702895 0.786483 0.000000 
-0.287229 -0.514189 0.000000 
-0.685384 -0.013030 0.000000 
-0.957100 -0.305472 0.000000 
-0.820030 0.318600 0.000000 
0.474522 0.745593 0.000000 
0.699407 -0.587128 0.000000 
0.109248 -0.110372 0.000000 
0.441768 0.585079 0.000000 
-0.039645 -0.915050 0.000000 
0.417537 -0.212488 0.000000 
0.033296 0.288022 0.000000 
-0.338794 0.555296 0.000000 
-0.374519 -0.871742 0.000000 
-0.713312 -0.252312 0.000000 
0.609100 -0.363453 0.000000 
-0.381900 -0.249514 0.000000 
-0.756418 0.292879 0.000000 
0.513962 0.081393 0.000000 
0.218274 0.805632 0.000000 
-0.423588 0.771528 0.000000 
-0.384386 0.386255 0.000000 
-0.766286 0.900876 0.000000 
0.484677 0.635660 0.000000 
0.139443 -0.726215 0.000000 
-0.556234 -0.843784 0.000000 
-0.823577 -0.070280 0.000000 
0.550868 -0.081075 0.000000 
-0.386873 -0.977975 0.000000 
-0.771260 -0.477586 0.000000 
0.467428 -0.784115 0.000000 
0.105264 -0.185488 0.000000 
-0.621631 -0.367387 0.000000 
-0.937896 0.336193 0.000000 
0.385608 0.256997 0.000000 
0.141715 -0.933775 0.000000 
-0.474677 -0.933678 0.000000 
CELL_DATA 175 
SCALARS MASS float 
LOOKUP_TABLE default 
0.078183 
0.086427 
0.094672 
0.086427 
0.088131 
0.092111 
0.085854 
0.092111 
0.088131 
0.088705 
0.091000 
0.086983 
0.091556 
0.086983 
0.091000 
0.088705 
0.089278 
0.091574 
0.089278 
0.092722 
0.089278 
0.092722 
0.089278 
0.091574 
0.089278 
0.078183 
0.086427 
0.094672 
0.086427 
0.088131 
0.092111 
0.085854 
0.092111 
0.088131 
0.088705 
0.091000 
0.086983 
0.091556 
0.086983 
0.091000 
0.088705 
0.089278 
0.091574 
0.089278 
0.092722 
0.089278 
0.092722 
0.089278 
0.091574 
0.089278 
0.078183 
0.086427 
0.094672 
0.086427 
0.088131 
0.092111 
0.085854 
0.092111 
0.088131 
0.088705 
0.091000 
0.086983 
0.091556 
0.086983 
0.091000 
0.088705 
0.089278 
0.091574 
0.089278 
0.092722 
0.089278 
0.092722 
0.089278 
0.091574 
0.089278 
0.078183 
0.086427 
0.094672 
0.086427 
0.088131 
0.092111 
0.085854 
0.092111 
0.088131 
0.088705 
0.091000 
0.086983 
0.091556 
0.086983 
0.091000 
0.088705 
0.089278 
0.091574 
0.089278 
0.092722 
0.089278 
0.092722 
0.089278 
0.091574 
0.089278 
0.078183 
0.086427 
0.094672 
0.086427 
0.088131 
0.092111 
0.085854 
0.092111 
0.088131 
0.088705 
0.091000 
0.086983 
0.091556 
0.086983 
0.091000 
0.088705 
0.089278 
0.091574 
0.089278 
0.092722 
0.089278 
0.092722 
0.089278 
0.091574 
0.089278 
0.078183 
0.086427 
0.094672 
0.086427 
0.088131 
0.092111 
0.085854 
0.092111 
0.088131 
0.088705 
0.091000 
0.086983 
0.091556 
0.086983 
0.091000 
0.088705 
0.089278 
0.091574 
0.089278 
0.092722 
0.089278 
0.092722 
0.089278 
0.091574 
0.089278 
0.078183 
0.086427 
0.094672 
0.086427 
0.088131 
0.092111 
0.085854 
0.092111 
0.088131 
0.088705 
0.091000 
0.086983 
0.091556 
0.086983 
0.091000 
0.088705 
0.089278 
0.091574 
0.089278 
0.092722 
0.089278 
0.092722 
0.089278 
0.091574 
0.089278 
SCALARS MASS float 
LOOKUP_TABLE default 
0.078183 
0.086427 
0.094672 
0.086427 
0.088131 
0.092111 
0.085854 
0.092111 
0.088131 
0.088705 
0.091000 
0.086983 
0.091556 
0.086983 
0.091000 
0.088705 
0.089278 
0.091574 
0.089278 
0.092722 
0.089278 
0.092722 
0.089278 
0.091574 
0.089278 
0.078183 
0.086427 
0.094672 
0.086427 
0.088131 
0.092111 
0.085854 
0.092111 
0.088131 
0.088705 
0.091000 
0.086983 
0.091556 
0.086983 
0.091000 
0.088705 
0.089278 
0.091574 
0.089278 
0.092722 
0.089278 
0.092722 
0.089278 
0.091574 
0.089278 
0.078183 
0.086427 
0.094672 
0.086427 
0.088131 
0.092111 
0.085854 
0.092111 
0.088131 
0.088705 
0.091000 
0.086983 
0.091556 
0.086983 
0.091000 
0.088705 
0.089278 
0.091574 
0.089278 
0.092722 
0.089278 
0.092722 
0.089278 
0.091574 
0.089278 
0.078183 
0.086427 
0.094672 
0.086427 
0.088131 
0.092111 
0.085854 
0.092111 
0.088131 
0.088705 
0.091000 
0.086983 
0.091556 
0.086983 
0.091000 
0.088705 
0.089278 
0.091574 
0.089278 
0.092722 
0.089278 
0.092722 
0.089278 
0.091574 
0.089278 
0.078183 
0.086427 
0.094672 
0.086427 
0.088131 
0.092111 
0.085854 
0.092111 
0.088131 
0.088705 
0.091000 
0.086983 
0.091556 
0.086983 
0.091000 
0.088705 
0.089278 
0.091574 
0.089278 
0.092722 
0.089278 
0.092722 
0.089278 
0.091574 
0.089278 
0.078183 
0.086427 
0.094672 
0.086427 
0.088131 
0.092111 
0.085854 
0.092111 
0.088131 
0.088705 
0.091000 
0.086983 
0.091556 
0.086983 
0.091000 
0.088705 
0.089278 
0.091574 
0.089278 
0.092722 
0.089278 
0.092722 
0.089278 
0.091574 
0.089278 
0.078183 
0.086427 
0.094672 
0.086427 
0.088131 
0.092111 
0.085854 
0.092111 
0.088131 
0.088705 
0.091000 
0.086983 
0.091556 
0.086983 
0.091000 
0.088705 
0.089278 
0.091574 
0.089278 
0.092722 
0.089278 
0.092722 
0.089278 
0.091574 
0.089278 
SCALARS DENSITY float 
LOOKUP_TABLE default 
20.000000 
20.000000 
20.000000 
20.000000 
20.000000 
20.000000 
20.000000 
20.000000 
20.000000 
20.000000 
20.000000 
20.000000 
20.000000 
20.000000 
20.000000 
20.000000 
20.000000 
20.000000 
20.000000 
20.000000 
20.000000 
20.000000 
20.000000 
20.000000 
20.000000 
20.000000 
20.000000 
20.000000 
20.000000 
20.000000 
20.000000 
20.000000 
20.000000 
20.000000 
20.000000 
20.000000 
20.000000 
20.000000 
20.000000 
20.000000 
20.000000 
20.000000 
20.000000 
20.000000 
20.000000 
20.000000 
20.000000 
20.000000 
20.000000 
20.000000 
20.000000 
20.000000 
20.000000 
20.000000 
20.000000 
20.000000 
20.000000 
20.000000 
20.000000 
20.000000 
20.000000 
20.000000 
20.000000 
20.000000 
20.000000 
20.000000 
20.000000 
20.000000 
20.000000 
20.000000 
20.000000 
20.000000 
20.000000 
20.000000 
20.000000 
20.000000 
20.000000 
20.000000 
20.000000 
20.000000 
20.000000 
20.000000 
20.000000 
20.000000 
20.000000 
20.000000 
20.000000 
20.000000 
20.000000 
20.000000 
20.000000 
20.000000 
20.000000 
20.000000 
20.000000 
20.000000 
20.000000 
20.000000 
20.000000 
20.000000 
20.000000 
20.000000 
20.000000 
20.000000 
20.000000 
20.000000 
20.000000 
20.000000 
20.000000 
20.000000 
20.000000 
20.000000 
20.000000 
20.000000 
20.000000 
20.000000 
20.000000 
20.000000 
20.000000 
20.000000 
20.000000 
20.000000 
20.000000 
20.000000 
20.000000 
20.000000 
20.000000 
20.000000 
20.000000 
20.000000 
20.000000 
20.000000 
20.000000 
20.000000 
20.000000 
20.000000 
20.000000 
20.000000 
20.000000 
20.000000 
20.000000 
20.000000 
20.000000 
20.000000 
20.000000 
20.000000 
20.000000 
20.000000 
20.000000 
20.000000 
20.000000 
20.000000 
20.000000 
20.000000 
20.000000 
20.000000 
20.000000 
20.000000 
20.000000 
20.000000 
20.000000 
20.000000 
20.000000 
20.000000 
20.000000 
20.000000 
20.000000 
20.000000 
20.000000 
20.000000 
20.000000 
20.000000 
20.000000 
20.000000 
20.000000 
SCALARS ELEM_i float 
LOOKUP_TABLE default 
180 
207 
180 
180 
208 
208 
208 
181 
181 
235 
208 
208 
208 
209 
182 
182 
235 
235 
236 
209 
209 
209 
209 
182 
182 
179 
206 
207 
207 
233 
206 
234 
207 
207 
233 
233 
234 
234 
234 
234 
235 
260 
260 
260 
261 
261 
261 
262 
235 
235 
179 
205 
206 
206 
205 
205 
205 
206 
233 
204 
205 
232 
232 
232 
232 
233 
204 
231 
231 
231 
231 
232 
259 
259 
259 
179 
178 
179 
178 
151 
178 
178 
178 
205 
150 
150 
177 
177 
177 
204 
204 
149 
150 
149 
176 
176 
176 
203 
204 
203 
179 
152 
152 
151 
125 
152 
151 
151 
151 
125 
124 
124 
124 
124 
151 
150 
97 
97 
97 
124 
123 
123 
123 
123 
150 
179 
153 
153 
152 
153 
153 
126 
152 
125 
127 
126 
126 
126 
126 
125 
125 
127 
127 
100 
99 
99 
99 
98 
98 
98 
180 
180 
180 
153 
181 
181 
154 
154 
154 
182 
182 
155 
154 
154 
154 
127 
182 
182 
155 
155 
155 
155 
128 
127 
127 
VECTORS VELOCITY float 
-0.000000 -2.636928 0.000000 
-0.000000 -2.636928 0.000000 
-0.000000 -2.636928 0.000000 
0.000000 -2.636928 0.000000 
0.000000 -2.636928 0.000000 
-0.000000 -2.636928 0.000000 
-0.000000 -2.636928 0.000000 
-0.000000 -2.636928 0.000000 
-0.000000 -2.636928 0.000000 
0.000000 -2.636928 0.000000 
0.000000 -2.636928 0.000000 
0.000000 -2.636928 0.000000 
0.000000 -2.636928 0.000000 
0.000000 -2.636928 0.000000 
-0.000000 -2.636928 0.000000 
0.000000 -2.636928 0.000000 
-0.000000 -2.636928 0.000000 
0.000000 -2.636928 0.000000 
-0.000000 -2.636928 0.000000 
0.000000 -2.636928 0.000000 
0.000000 -2.636928 0.000000 
-0.000000 -2.636928 0.000000 
-0.000000 -2.636928 0.000000 
-0.000000 -2.636928 0.000000 
0.000000 -2.636928 0.000000 
-0.000000 -2.636928 0.000000 
-0.000000 -2.636928 0.000000 
-0.000000 -2.636928 0.000000 
-0.000000 -2.636928 0.000000 
-0.000000 -2.636928 0.000000 
-0.000000 -2.636928 0.000000 
-0.000000 -2.636928 0.000000 
-0.000000 -2.636928 0.000000 
0.000000 -2.636928 0.000000 
0.000000 -2.636928 0.000000 
0.000000 -2.636928 0.000000 
0.000000 -2.636928 0.000000 
0.000000 -2.636928 0.000000 
-0.000000 -2.636928 0.000000 
0.000000 -2.636928 0.000000 
0.000000 -2.636928 0.000000 
-0.000000 -2.636928 0.000000 
0.000000 -2.636928 0.000000 
0.000000 -2.636928 0.000000 
0.000000 -2.636928 0.000000 
0.000000 -2.636928 0.000000 
0.000000 -2.636928 0.000000 
0.000000 -2.636928 0.000000 
0.000000 -2.636928 0.000000 
-0.000000 -2.636928 0.000000 
-0.000000 -2.636928 0.000000 
0.000000 -2.636928 0.000000 
0.000000 -2.636928 0.000000 
-0.000000 -2.636928 0.000000 
-0.000000 -2.636928 0.000000 
-0.000000 -2.636928 0.000000 
-0.000000 -2.636928 0.000000 
-0.000000 -2.636928 0.000000 
-0.000000 -2.636928 0.000000 
-0.000000 -2.636928 0.000000 
-0.000000 -2.636928 0.000000 
-0.000000 -2.636928 0.000000 
-0.000000 -2.636928 0.000000 
-0.000000 -2.636928 0.000000 
-0.000000 -2.636928 0.000000 
-0.000000 -2.636928 0.000000 
-0.000000 -2.636928 0.000000 
0.000000 -2.636928 0.000000 
0.000000 -2.636928 0.000000 
0.000000 -2.636928 0.000000 
0.000000 -2.636928 0.000000 
0.000000 -2.636928 0.000000 
-0.000000 -2.636928 0.000000 
-0.000000 -2.636928 0.000000 
-0.000000 -2.636928 0.000000 
-0.000000 -2.636928 0.000000 
0.000000 -2.636928 0.000000 
0.000000 -2.636928 0.000000 
0.000000 -2.636928 0.000000 
0.000000 -2.636928 0.000000 
0.000000 -2.636928 0.000000 
0.000000 -2.636928 0.000000 
0.000000 -2.636928 0.000000 
-0.000000 -2.636928 0.000000 
0.000000 -2.636928 0.000000 
0.000000 -2.636928 0.000000 
-0.000000 -2.636928 0.000000 
-0.000000 -2.636928 0.000000 
-0.000000 -2.636928 0.000000 
-0.000000 -2.636928 0.000000 
-0.000000 -2.636928 0.000000 
-0.000000 -2.636928 0.000000 
-0.000000 -2.636928 0.000000 
0.000000 -2.636928 0.000000 
-0.000000 -2.636928 0.000000 
-0.000000 -2.636928 0.000000 
-0.000000 -2.636928 0.000000 
-0.000000 -2.636928 0.000000 
-0.000000 -2.636928 0.000000 
0.000000 -2.636928 0.000000 
-0.000000 -2.636928 0.000000 
0.000000 -2.636928 0.000000 
-0.000000 -2.636928 0.000000 
-0.000000 -2.636928 0.000000 
-0.000000 -2.636928 0.000000 
-0.000000 -2.636928 0.000000 
-0.000000 -2.636928 0.000000 
-0.000000 -2.636928 0.000000 
0.000000 -2.636928 0.000000 
-0.000000 -2.636928 0.000000 
-0.000000 -2.636928 0.000000 
-0.000000 -2.636928 0.000000 
-0.000000 -2.636928 0.000000 
0.000000 -2.636928 0.000000 
0.000000 -2.636928 0.000000 
0.000000 -2.636928 0.000000 
-0.000000 -2.636928 0.000000 
0.000000 -2.636928 0.000000 
-0.000000 -2.636928 0.000000 
0.000000 -2.636928 0.000000 
0.000000 -2.636928 0.000000 
0.000000 -2.636928 0.000000 
-0.000000 -2.636928 0.000000 
0.000000 -2.636928 0.000000 
-0.000000 -2.636928 0.000000 
-0.000000 -2.636928 0.000000 
0.000000 -2.636928 0.000000 
0.000000 -2.636928 0.000000 
0.000000 -2.636928 0.000000 
0.000000 -2.636928 0.000000 
0.000000 -2.636928 0.000000 
0.000000 -2.636928 0.000000 
0.000000 -2.636928 0.000000 
0.000000 -2.636928 0.000000 
-0.000000 -2.636928 0.000000 
-0.000000 -2.636928 0.000000 
-0.000000 -2.636928 0.000000 
-0.000000 -2.636928 0.000000 
-0.000000 -2.636928 0.000000 
0.000000 -2.636928 0.000000 
-0.000000 -2.636928 0.000000 
-0.000000 -2.636928 0.000000 
-0.000000 -2.636928 0.000000 
0.000000 -2.636928 0.000000 
-0.000000 -2.636928 0.000000 
-0.000000 -2.636928 0.000000 
0.000000 -2.636928 0.000000 
0.000000 -2.636928 0.000000 
-0.000000 -2.636928 0.000000 
-0.000000 -2.636928 0.000000 
-0.000000 -2.636928 0.000000 
0.000000 -2.636928 0.000000 
0.000000 -2.636928 0.000000 
0.000000 -2.636928 0.000000 
-0.000000 -2.636928 0.000000 
0.000000 -2.636928 0.000000 
0.000000 -2.636928 0.000000 
0.000000 -2.636928 0.000000 
0.000000 -2.636928 0.000000 
0.000000 -2.636928 0.000000 
-0.000000 -2.636928 0.000000 
-0.000000 -2.636928 0.000000 
-0.000000 -2.636928 0.000000 
-0.000000 -2.636928 0.000000 
-0.000000 -2.636928 0.000000 
-0.000000 -2.636928 0.000000 
0.000000 -2.636928 0.000000 
0.000000 -2.636928 0.000000 
-0.000000 -2.636928 0.000000 
0.000000 -2.636928 0.000000 
0.000000 -2.636928 0.000000 
-0.000000 -2.636928 0.000000 
-0.000000 -2.636928 0.000000 
-0.000000 -2.636928 0.000000 
-0.000000 -2.636928 0.000000 
TENSORS STRESS float 
0.000000 0.000000 0.000000 
0.000000 0.000000 0.000000 
0.000000 0.000000 0.000000 

0.000000 -0.000000 0.000000 
0.000000 0.000000 0.000000 
0.000000 0.000000 0.000000 

0.000000 0.000000 0.000000 
0.000000 0.000000 0.000000 
0.000000 0.000000 0.000000 

0.000000 0.000000 0.000000 
0.000000 -0.000000 0.000000 
0.000000 0.000000 0.000000 

0.000000 0.000000 0.000000 
0.000000 0.000000 0.000000 
0.000000 0.000000 0.000000 

0.000000 0.000000 0.000000 
0.000000 0.000000 0.000000 
0.000000 0.000000 0.000000 

-0.000000 -0.000000 0.000000 
0.000000 -0.000000 0.000000 
0.000000 0.000000 0.000000 

0.000000 0.000000 0.000000 
0.000000 -0.000000 0.000000 
0.000000 0.000000 0.000000 

-0.000000 -0.000000 0.000000 
0.000000 -0.000000 0.000000 
0.000000 0.000000 0.000000 

0.000000 0.000000 0.000000 
0.000000 0.000000 0.000000 
0.000000 0.000000 0.000000 

0.000000 -0.000000 0.000000 
0.000000 0.000000 0.000000 
0.000000 0.000000 0.000000 

0.000000 -0.000000 0.000000 
0.000000 0.000000 0.000000 
0.000000 0.000000 0.000000 

0.000000 -0.000000 0.000000 
0.000000 0.000000 0.000000 
0.000000 0.000000 0.000000 

0.000000 -0.000000 0.000000 
0.000000 0.000000 0.000000 
0.000000 0.000000 0.000000 

0.000000 -0.000000 0.000000 
0.000000 0.000000 0.000000 
0.000000 0.000000 0.000000 

0.000000 -0.000000 0.000000 
0.000000 0.000000 0.000000 
0.000000 0.000000 0.000000 

0.000000 0.000000 0.000000 
0.000000 0.000000 0.000000 
0.000000 0.000000 0.000000 

0.000000 0.000000 0.000000 
0.000000 0.000000 0.000000 
0.000000 0.000000 0.000000 

0.000000 -0.000000 0.000000 
0.000000 0.000000 0.000000 
0.000000 0.000000 0.000000 

0.000000 -0.000000 0.000000 
0.000000 0.000000 0.000000 
0.000000 0.000000 0.000000 

-0.000000 -0.000000 0.000000 
0.000000 -0.000000 0.000000 
0.000000 0.000000 0.000000 

0.000000 -0.000000 0.000000 
0.000000 0.000000 0.000000 
0.000000 0.000000 0.000000 

0.000000 -0.000000 0.000000 
0.000000 0.000000 0.000000 
0.000000 0.000000 0.000000 

-0.000000 -0.000000 0.000000 
0.000000 -0.000000 0.000000 
0.000000 0.000000 0.000000 

0.000000 -0.000000 0.000000 
0.000000 0.000000 0.000000 
0.000000 0.000000 0.000000 

0.000000 0.000000 0.000000 
0.000000 0.000000 0.000000 
0.000000 0.000000 0.000000 

0.000000 0.000000 0.000000 
0.000000 0.000000 0.000000 
0.000000 0.000000 0.000000 

0.000000 -0.000000 0.000000 
0.000000 0.000000 0.000000 
0.000000 0.000000 0.000000 

0.000000 0.000000 0.000000 
0.000000 0.000000 0.000000 
0.000000 0.000000 0.000000 

-0.000000 0.000000 0.000000 
0.000000 -0.000000 0.000000 
0.000000 0.000000 0.000000 

0.000000 -0.000000 0.000000 
0.000000 -0.000000 0.000000 
0.000000 0.000000 0.000000 

-0.000000 -0.000000 0.000000 
0.000000 -0.000000 0.000000 
0.000000 0.000000 0.000000 

0.000000 0.000000 0.000000 
0.000000 -0.000000 0.000000 
0.000000 0.000000 0.000000 

0.000000 0.000000 0.000000 
0.000000 0.000000 0.000000 
0.000000 0.000000 0.000000 

-0.000000 -0.000000 0.000000 
0.000000 -0.000000 0.000000 
0.000000 0.000000 0.000000 

-0.000000 0.000000 0.000000 
0.000000 -0.000000 0.000000 
0.000000 0.000000 0.000000 

0.000000 0.000000 0.000000 
0.000000 0.000000 0.000000 
0.000000 0.000000 0.000000 

0.000000 0.000000 0.000000 
0.000000 0.000000 0.000000 
0.000000 0.000000 0.000000 

0.000000 -0.000000 0.000000 
0.000000 0.000000 0.000000 
0.000000 0.000000 0.000000 

0.000000 0.000000 0.000000 
0.000000 0.000000 0.000000 
0.000000 0.000000 0.000000 

0.000000 0.000000 0.000000 
0.000000 0.000000 0.000000 
0.000000 0.000000 0.000000 

-0.000000 -0.000000 0.000000 
0.000000 -0.000000 0.000000 
0.000000 0.000000 0.000000 

-0.000000 -0.000000 0.000000 
0.000000 -0.000000 0.000000 
0.000000 0.000000 0.000000 

-0.000000 -0.000000 0.000000 
0.000000 -0.000000 0.000000 
0.000000 0.000000 0.000000 

0.000000 -0.000000 0.000000 
0.000000 0.000000 0.000000 
0.000000 0.000000 0.000000 

0.000000 -0.000000 0.000000 
0.000000 -0.000000 0.000000 
0.000000 0.000000 0.000000 

0.000000 0.000000 0.000000 
0.000000 0.000000 0.000000 
0.000000 0.000000 0.000000 

0.000000 0.000000 0.000000 
0.000000 0.000000 0.000000 
0.000000 0.000000 0.000000 

0.000000 0.000000 0.000000 
0.000000 0.000000 0.000000 
0.000000 0.000000 0.000000 

0.000000 0.000000 0.000000 
0.000000 -0.000000 0.000000 
0.000000 0.000000 0.000000 

0.000000 0.000000 0.000000 
0.000000 0.000000 0.000000 
0.000000 0.000000 0.000000 

0.000000 0.000000 0.000000 
0.000000 -0.000000 0.000000 
0.000000 0.000000 0.000000 

0.000000 0.000000 0.000000 
0.000000 0.000000 0.000000 
0.000000 0.000000 0.000000 

0.000000 0.000000 0.000000 
0.000000 0.000000 0.000000 
0.000000 0.000000 0.000000 

-0.000000 -0.000000 0.000000 
0.000000 -0.000000 0.000000 
0.000000 0.000000 0.000000 

0.000000 0.000000 0.000000 
0.000000 -0.000000 0.000000 
0.000000 0.000000 0.000000 

0.000000 -0.000000 0.000000 
0.000000 0.000000 0.000000 
0.000000 0.000000 0.000000 

0.000000 0.000000 0.000000 
0.000000 0.000000 0.000000 
0.000000 0.000000 0.000000 

-0.000000 0.000000 0.000000 
0.000000 0.000000 0.000000 
0.000000 0.000000 0.000000 

-0.000000 -0.000000 0.000000 
0.000000 0.000000 0.000000 
0.000000 0.000000 0.000000 

-0.000000 -0.000000 0.000000 
0.000000 0.000000 0.000000 
0.000000 0.000000 0.000000 

0.000000 -0.000000 0.000000 
0.000000 0.000000 0.000000 
0.000000 0.000000 0.000000 

0.000000 -0.000000 0.000000 
0.000000 -0.000000 0.000000 
0.000000 0.000000 0.000000 

-0.000000 0.000000 0.000000 
0.000000 -0.000000 0.000000 
0.000000 0.000000 0.000000 

-0.000000 -0.000000 0.000000 
0.000000 -0.000000 0.000000 
0.000000 0.000000 0.000000 

0.000000 0.000000 0.000000 
0.000000 0.000000 0.000000 
0.000000 0.000000 0.000000 

-0.000000 -0.000000 0.000000 
0.000000 0.000000 0.000000 
0.000000 0.000000 0.000000 

-0.000000 0.000000 0.000000 
0.000000 -0.000000 0.000000 
0.000000 0.000000 0.000000 

-0.000000 0.000000 0.000000 
0.000000 0.000000 0.000000 
0.000000 0.000000 0.000000 

-0.000000 -0.000000 0.000000 
0.000000 -0.000000 0.000000 
0.000000 0.000000 0.000000 

0.000000 -0.000000 0.000000 
0.000000 -0.000000 0.000000 
0.000000 0.000000 0.000000 

0.000000 0.000000 0.000000 
0.000000 -0.000000 0.000000 
0.000000 0.000000 0.000000 

-0.000000 -0.000000 0.000000 
0.000000 0.000000 0.000000 
0.000000 0.000000 0.000000 

-0.000000 0.000000 0.000000 
0.000000 -0.000000 0.000000 
0.000000 0.000000 0.000000 

-0.000000 -0.000000 0.000000 
0.000000 -0.000000 0.000000 
0.000000 0.000000 0.000000 

-0.000000 0.000000 0.000000 
0.000000 -0.000000 0.000000 
0.000000 0.000000 0.000000 

-0.000000 -0.000000 0.000000 
0.000000 -0.000000 0.000000 
0.000000 0.000000 0.000000 

0.000000 -0.000000 0.000000 
0.000000 0.000000 0.000000 
0.000000 0.000000 0.000000 

0.000000 -0.000000 0.000000 
0.000000 0.000000 0.000000 
0.000000 0.000000 0.000000 

-0.000000 -0.000000 0.000000 
0.000000 -0.000000 0.000000 
0.000000 0.000000 0.000000 

-0.000000 -0.000000 0.000000 
0.000000 -0.000000 0.000000 
0.000000 0.000000 0.000000 

0.000000 0.000000 0.000000 
0.000000 -0.000000 0.000000 
0.000000 0.000000 0.000000 

0.000000 0.000000 0.000000 
0.000000 -0.000000 0.000000 
0.000000 0.000000 0.000000 

0.000000 0.000000 0.000000 
0.000000 0.000000 0.000000 
0.000000 0.000000 0.000000 

0.000000 0.000000 0.000000 
0.000000 0.000000 0.000000 
0.000000 0.000000 0.000000 

0.000000 -0.000000 0.000000 
0.000000 0.000000 0.000000 
0.000000 0.000000 0.000000 

0.000000 0.000000 0.000000 
0.000000 0.000000 0.000000 
0.000000 0.000000 0.000000 

-0.000000 0.000000 0.000000 
0.000000 -0.000000 0.000000 
0.000000 0.000000 0.000000 

-0.000000 -0.000000 0.000000 
0.000000 0.000000 0.000000 
0.000000 0.000000 0.000000 

-0.000000 0.000000 0.000000 
0.000000 0.000000 0.000000 
0.000000 0.000000 0.000000 

-0.000000 0.000000 0.000000 
0.000000 -0.000000 0.000000 
0.000000 0.000000 0.000000 

-0.000000 0.000000 0.000000 
0.000000 -0.000000 0.000000 
0.000000 0.000000 0.000000 

-0.000000 0.000000 0.000000 
0.000000 -0.000000 0.000000 
0.000000 0.000000 0.000000 

0.000000 0.000000 0.000000 
0.000000 0.000000 0.000000 
0.000000 0.000000 0.000000 

-0.000000 0.000000 0.000000 
0.000000 -0.000000 0.000000 
0.000000 0.000000 0.000000 

-0.000000 0.000000 0.000000 
0.000000 0.000000 0.000000 
0.000000 0.000000 0.000000 

-0.000000 0.000000 0.000000 
0.000000 0.000000 0.000000 
0.000000 0.000000 0.000000 

-0.000000 -0.000000 0.000000 
0.000000 -0.000000 0.000000 
0.000000 0.000000 0.000000 

-0.000000 -0.000000 0.000000 
0.000000 0.000000 0.000000 
0.000000 0.000000 0.000000 

-0.000000 0.000000 0.000000 
0.000000 -0.000000 0.000000 
0.000000 0.000000 0.000000 

-0.000000 0.000000 0.000000 
0.000000 -0.000000 0.000000 
0.000000 0.000000 0.000000 

-0.000000 0.000000 0.000000 
0.000000 -0.000000 0.000000 
0.000000 0.000000 0.000000 

-0.000000 0.000000 0.000000 
0.000000 -0.000000 0.000000 
0.000000 0.000000 0.000000 

0.000000 0.000000 0.000000 
0.000000 0.000000 0.000000 
0.000000 0.000000 0.000000 

-0.000000 -0.000000 0.000000 
0.000000 -0.000000 0.000000 
0.000000 0.000000 0.000000 

-0.000000 0.000000 0.000000 
0.000000 -0.000000 0.000000 
0.000000 0.000000 0.000000 

0.000000 0.000000 0.000000 
0.000000 0.000000 0.000000 
0.000000 0.000000 0.000000 

-0.000000 -0.000000 0.000000 
0.000000 -0.000000 0.000000 
0.000000 0.000000 0.000000 

-0.000000 -0.000000 0.000000 
0.000000 -0.000000 0.000000 
0.000000 0.000000 0.000000 

-0.000000 0.000000 0.000000 
0.000000 -0.000000 0.000000 
0.000000 0.000000 0.000000 

0.000000 -0.000000 0.000000 
0.000000 0.000000 0.000000 
0.000000 0.000000 0.000000 

0.000000 0.000000 0.000000 
0.000000 0.000000 0.000000 
0.000000 0.000000 0.000000 

0.000000 -0.000000 0.000000 
0.000000 0.000000 0.000000 
0.000000 0.000000 0.000000 

-0.000000 -0.000000 0.000000 
0.000000 -0.000000 0.000000 
0.000000 0.000000 0.000000 

0.000000 -0.000000 0.000000 
0.000000 0.000000 0.000000 
0.000000 0.000000 0.000000 

0.000000 -0.000000 0.000000 
0.000000 0.000000 0.000000 
0.000000 0.000000 0.000000 

0.000000 0.000000 0.000000 
0.000000 -0.000000 0.000000 
0.000000 0.000000 0.000000 

-0.000000 0.000000 0.000000 
0.000000 0.000000 0.000000 
0.000000 0.000000 0.000000 

-0.000000 0.000000 0.000000 
0.000000 -0.000000 0.000000 
0.000000 0.000000 0.000000 

-0.000000 -0.000000 0.000000 
0.000000 -0.000000 0.000000 
0.000000 0.000000 0.000000 

-0.000000 0.000000 0.000000 
0.000000 -0.000000 0.000000 
0.000000 0.000000 0.000000 

-0.000000 -0.000000 0.000000 
0.000000 0.000000 0.000000 
0.000000 0.000000 0.000000 

0.000000 -0.000000 0.000000 
0.000000 0.000000 0.000000 
0.000000 0.000000 0.000000 

0.000000 0.000000 0.000000 
0.000000 -0.000000 0.000000 
0.000000 0.000000 0.000000 

0.000000 0.000000 0.000000 
0.000000 0.000000 0.000000 
0.000000 0.000000 0.000000 

-0.000000 0.000000 0.000000 
0.000000 0.000000 0.000000 
0.000000 0.000000 0.000000 

0.000000 0.000000 0.000000 
0.000000 0.000000 0.000000 
0.000000 0.000000 0.000000 

0.000000 0.000000 0.000000 
0.000000 0.000000 0.000000 
0.000000 0.000000 0.000000 

0.000000 0.000000 0.000000 
0.000000 0.000000 0.000000 
0.000000 0.000000 0.000000 

0.000000 0.000000 0.000000 
0.000000 -0.000000 0.000000 
0.000000 0.000000 0.000000 

0.000000 0.000000 0.000000 
0.000000 0.000000 0.000000 
0.000000 0.000000 0.000000 

-0.000000 0.000000 0.000000 
0.000000 -0.000000 0.000000 
0.000000 0.000000 0.000000 

0.000000 0.000000 0.000000 
0.000000 0.000000 0.000000 
0.000000 0.000000 0.000000 

0.000000 0.000000 0.000000 
0.000000 0.000000 0.000000 
0.000000 0.000000 0.000000 

-0.000000 -0.000000 0.000000 
0.000000 0.000000 0.000000 
0.000000 0.000000 0.000000 

-0.000000 0.000000 0.000000 
0.000000 0.000000 0.000000 
0.000000 0.000000 0.000000 

-0.000000 0.000000 0.000000 
0.000000 -0.000000 0.000000 
0.000000 0.000000 0.000000 

0.000000 0.000000 0.000000 
0.000000 0.000000 0.000000 
0.000000 0.000000 0.000000 

0.000000 0.000000 0.000000 
0.000000 0.000000 0.000000 
0.000000 0.000000 0.000000 

-0.000000 -0.000000 0.000000 
0.000000 -0.000000 0.000000 
0.000000 0.000000 0.000000 

-0.000000 -0.000000 0.000000 
0.000000 0.000000 0.000000 
0.000000 0.000000 0.000000 

-0.000000 0.000000 0.000000 
0.000000 0.000000 0.000000 
0.000000 0.000000 0.000000 

-0.000000 0.000000 0.000000 
0.000000 0.000000 0.000000 
0.000000 0.000000 0.000000 

0.000000 -0.000000 0.000000 
0.000000 0.000000 0.000000 
0.000000 0.000000 0.000000 

-0.000000 -0.000000 0.000000 
0.000000 0.000000 0.000000 
0.000000 0.000000 0.000000 

0.000000 -0.000000 0.000000 
0.000000 0.000000 0.000000 
0.000000 0.000000 0.000000 

0.000000 0.000000 0.000000 
0.000000 0.000000 0.000000 
0.000000 0.000000 0.000000 

0.000000 -0.000000 0.000000 
0.000000 0.000000 0.000000 
0.000000 0.000000 0.000000 

0.000000 0.000000 0.000000 
0.000000 0.000000 0.000000 
0.000000 0.000000 0.000000 

0.000000 0.000000 0.000000 
0.000000 0.000000 0.000000 
0.000000 0.000000 0.000000 

0.000000 0.000000 0.000000 
0.000000 0.000000 0.000000 
0.000000 0.000000 0.000000 

0.000000 0.000000 0.000000 
0.000000 0.000000 0.000000 
0.000000 0.000000 0.000000 

0.000000 0.000000 0.000000 
0.000000 0.000000 0.000000 
0.000000 0.000000 0.000000 

0.000000 0.000000 0.000000 
0.000000 -0.000000 0.000000 
0.000000 0.000000 0.000000 

0.000000 -0.000000 0.000000 
0.000000 0.000000 0.000000 
0.000000 0.000000 0.000000 

0.000000 0.000000 0.000000 
0.000000 0.000000 0.000000 
0.000000 0.000000 0.000000 

0.000000 0.000000 0.000000 
0.000000 0.000000 0.000000 
0.000000 0.000000 0.000000 

0.000000 -0.000000 0.000000 
0.000000 -0.000000 0.000000 
0.000000 0.000000 0.000000 

0.000000 -0.000000 0.000000 
0.000000 0.000000 0.000000 
0.000000 0.000000 0.000000 

-0.000000 -0.000000 0.000000 
0.000000 -0.000000 0.000000 
0.000000 0.000000 0.000000 

0.000000 -0.000000 0.000000 
0.000000 0.000000 0.000000 
0.000000 0.000000 0.000000 

0.000000 0.000000 0.000000 
0.000000 -0.000000 0.000000 
0.000000 0.000000 0.000000 

0.000000 -0.000000 0.000000 
0.000000 0.000000 0.000000 
0.000000 0.000000 0.000000 

-0.000000 -0.000000 0.000000 
0.000000 -0.000000 0.000000 
0.000000 0.000000 0.000000 

0.000000 -0.000000 0.000000 
0.000000 0.000000 0.000000 
0.000000 0.000000 0.000000 

-0.000000 -0.000000 0.000000 
0.000000 -0.000000 0.000000 
0.000000 0.000000 0.000000 

-0.000000 -0.000000 0.000000 
0.000000 -0.000000 0.000000 
0.000000 0.000000 0.000000 

0.000000 -0.000000 0.000000 
0.000000 0.000000 0.000000 
0.000000 0.000000 0.000000 

0.000000 0.000000 0.000000 
0.000000 0.000000 0.000000 
0.000000 0.000000 0.000000 

-0.000000 -0.000000 0.000000 
0.000000 -0.000000 0.000000 
0.000000 0.000000 0.000000 

0.000000 -0.000000 0.000000 
0.000000 0.000000 0.000000 
0.000000 0.000000 0.000000 

-0.000000 0.000000 0.000000 
0.000000 -0.000000 0.000000 
0.000000 0.000000 0.000000 

0.000000 0.000000 0.000000 
0.000000 -0.000000 0.000000 
0.000000 0.000000 0.000000 

-0.000000 -0.000000 0.000000 
0.000000 -0.000000 0.000000 
0.000000 0.000000 0.000000 

0.000000 0.000000 0.000000 
0.000000 0.000000 0.000000 
0.000000 0.000000 0.000000 

TENSORS STRAIN float 
0.000000 0.000000 0.000000 
0.000000 -0.000000 0.000000 
0.000000 0.000000 0.000000 

0.000000 -0.000000 0.000000 
0.000000 0.000000 0.000000 
0.000000 0.000000 0.000000 

0.000000 0.000000 0.000000 
0.000000 0.000000 0.000000 
0.000000 0.000000 0.000000 

0.000000 0.000000 0.000000 
0.000000 -0.000000 0.000000 
0.000000 0.000000 0.000000 

-0.000000 0.000000 0.000000 
0.000000 0.000000 0.000000 
0.000000 0.000000 0.000000 

-0.000000 0.000000 0.000000 
0.000000 0.000000 0.000000 
0.000000 0.000000 0.000000 

-0.000000 -0.000000 0.000000 
0.000000 0.000000 0.000000 
0.000000 0.000000 0.000000 

0.000000 0.000000 0.000000 
0.000000 -0.000000 0.000000 
0.000000 0.000000 0.000000 

0.000000 -0.000000 0.000000 
0.000000 -0.000000 0.000000 
0.000000 0.000000 0.000000 

0.000000 0.000000 0.000000 
0.000000 0.000000 0.000000 
0.000000 0.000000 0.000000 

-0.000000 -0.000000 0.000000 
0.000000 0.000000 0.000000 
0.000000 0.000000 0.000000 

-0.000000 -0.000000 0.000000 
0.000000 0.000000 0.000000 
0.000000 0.000000 0.000000 

0.000000 -0.000000 0.000000 
0.000000 0.000000 0.000000 
0.000000 0.000000 0.000000 

0.000000 -0.000000 0.000000 
0.000000 0.000000 0.000000 
0.000000 0.000000 0.000000 

-0.000000 -0.000000 0.000000 
0.000000 0.000000 0.000000 
0.000000 0.000000 0.000000 

-0.000000 -0.000000 0.000000 
0.000000 0.000000 0.000000 
0.000000 0.000000 0.000000 

0.000000 0.000000 0.000000 
0.000000 0.000000 0.000000 
0.000000 0.000000 0.000000 

0.000000 0.000000 0.000000 
0.000000 0.000000 0.000000 
0.000000 0.000000 0.000000 

0.000000 -0.000000 0.000000 
0.000000 0.000000 0.000000 
0.000000 0.000000 0.000000 

0.000000 -0.000000 0.000000 
0.000000 0.000000 0.000000 
0.000000 0.000000 0.000000 

0.000000 -0.000000 0.000000 
0.000000 -0.000000 0.000000 
0.000000 0.000000 0.000000 

0.000000 -0.000000 0.000000 
0.000000 0.000000 0.000000 
0.000000 0.000000 0.000000 

0.000000 -0.000000 0.000000 
0.000000 0.000000 0.000000 
0.000000 0.000000 0.000000 

-0.000000 -0.000000 0.000000 
0.000000 -0.000000 0.000000 
0.000000 0.000000 0.000000 

-0.000000 -0.000000 0.000000 
0.000000 0.000000 0.000000 
0.000000 0.000000 0.000000 

-0.000000 0.000000 0.000000 
0.000000 0.000000 0.000000 
0.000000 0.000000 0.000000 

0.000000 0.000000 0.000000 
0.000000 0.000000 0.000000 
0.000000 0.000000 0.000000 

0.000000 -0.000000 0.000000 
0.000000 0.000000 0.000000 
0.000000 0.000000 0.000000 

0.000000 0.000000 0.000000 
0.000000 -0.000000 0.000000 
0.000000 0.000000 0.000000 

0.000000 0.000000 0.000000 
0.000000 -0.000000 0.000000 
0.000000 0.000000 0.000000 

0.000000 -0.000000 0.000000 
0.000000 -0.000000 0.000000 
0.000000 0.000000 0.000000 

-0.000000 -0.000000 0.000000 
0.000000 -0.000000 0.000000 
0.000000 0.000000 0.000000 

0.000000 0.000000 0.000000 
0.000000 -0.000000 0.000000 
0.000000 0.000000 0.000000 

-0.000000 0.000000 0.000000 
0.000000 0.000000 0.000000 
0.000000 0.000000 0.000000 

-0.000000 -0.000000 0.000000 
0.000000 -0.000000 0.000000 
0.000000 0.000000 0.000000 

0.000000 0.000000 0.000000 
0.000000 -0.000000 0.000000 
0.000000 0.000000 0.000000 

-0.000000 0.000000 0.000000 
0.000000 0.000000 0.000000 
0.000000 0.000000 0.000000 

-0.000000 0.000000 0.000000 
0.000000 0.000000 0.000000 
0.000000 0.000000 0.000000 

0.000000 -0.000000 0.000000 
0.000000 0.000000 0.000000 
0.000000 0.000000 0.000000 

0.000000 0.000000 0.000000 
0.000000 0.000000 0.000000 
0.000000 0.000000 0.000000 

0.000000 0.000000 0.000000 
0.000000 0.000000 0.000000 
0.000000 0.000000 0.000000 

-0.000000 -0.000000 0.000000 
0.000000 -0.000000 0.000000 
0.000000 0.000000 0.000000 

-0.000000 -0.000000 0.000000 
0.000000 0.000000 0.000000 
0.000000 0.000000 0.000000 

-0.000000 -0.000000 0.000000 
0.000000 -0.000000 0.000000 
0.000000 0.000000 0.000000 

0.000000 -0.000000 0.000000 
0.000000 0.000000 0.000000 
0.000000 0.000000 0.000000 

0.000000 -0.000000 0.000000 
0.000000 -0.000000 0.000000 
0.000000 0.000000 0.000000 

0.000000 0.000000 0.000000 
0.000000 0.000000 0.000000 
0.000000 0.000000 0.000000 

0.000000 0.000000 0.000000 
0.000000 0.000000 0.000000 
0.000000 0.000000 0.000000 

0.000000 0.000000 0.000000 
0.000000 -0.000000 0.000000 
0.000000 0.000000 0.000000 

0.000000 0.000000 0.000000 
0.000000 -0.000000 0.000000 
0.000000 0.000000 0.000000 

-0.000000 0.000000 0.000000 
0.000000 0.000000 0.000000 
0.000000 0.000000 0.000000 

0.000000 0.000000 0.000000 
0.000000 -0.000000 0.000000 
0.000000 0.000000 0.000000 

0.000000 0.000000 0.000000 
0.000000 -0.000000 0.000000 
0.000000 0.000000 0.000000 

0.000000 0.000000 0.000000 
0.000000 -0.000000 0.000000 
0.000000 0.000000 0.000000 

0.000000 -0.000000 0.000000 
0.000000 -0.000000 0.000000 
0.000000 0.000000 0.000000 

0.000000 0.000000 0.000000 
0.000000 -0.000000 0.000000 
0.000000 0.000000 0.000000 

0.000000 -0.000000 0.000000 
0.000000 0.000000 0.000000 
0.000000 0.000000 0.000000 

0.000000 0.000000 0.000000 
0.000000 0.000000 0.000000 
0.000000 0.000000 0.000000 

-0.000000 0.000000 0.000000 
0.000000 0.000000 0.000000 
0.000000 0.000000 0.000000 

-0.000000 -0.000000 0.000000 
0.000000 0.000000 0.000000 
0.000000 0.000000 0.000000 

-0.000000 -0.000000 0.000000 
0.000000 0.000000 0.000000 
0.000000 0.000000 0.000000 

0.000000 -0.000000 0.000000 
0.000000 0.000000 0.000000 
0.000000 0.000000 0.000000 

0.000000 -0.000000 0.000000 
0.000000 -0.000000 0.000000 
0.000000 0.000000 0.000000 

-0.000000 0.000000 0.000000 
0.000000 -0.000000 0.000000 
0.000000 0.000000 0.000000 

-0.000000 -0.000000 0.000000 
0.000000 -0.000000 0.000000 
0.000000 0.000000 0.000000 

-0.000000 0.000000 0.000000 
0.000000 0.000000 0.000000 
0.000000 0.000000 0.000000 

-0.000000 -0.000000 0.000000 
0.000000 0.000000 0.000000 
0.000000 0.000000 0.000000 

-0.000000 0.000000 0.000000 
0.000000 -0.000000 0.000000 
0.000000 0.000000 0.000000 

-0.000000 0.000000 0.000000 
0.000000 0.000000 0.000000 
0.000000 0.000000 0.000000 

0.000000 -0.000000 0.000000 
0.000000 -0.000000 0.000000 
0.000000 0.000000 0.000000 

0.000000 -0.000000 0.000000 
0.000000 -0.000000 0.000000 
0.000000 0.000000 0.000000 

0.000000 0.000000 0.000000 
0.000000 -0.000000 0.000000 
0.000000 0.000000 0.000000 

-0.000000 -0.000000 0.000000 
0.000000 0.000000 0.000000 
0.000000 0.000000 0.000000 

-0.000000 0.000000 0.000000 
0.000000 -0.000000 0.000000 
0.000000 0.000000 0.000000 

-0.000000 -0.000000 0.000000 
0.000000 -0.000000 0.000000 
0.000000 0.000000 0.000000 

-0.000000 0.000000 0.000000 
0.000000 -0.000000 0.000000 
0.000000 0.000000 0.000000 

-0.000000 -0.000000 0.000000 
0.000000 -0.000000 0.000000 
0.000000 0.000000 0.000000 

-0.000000 -0.000000 0.000000 
0.000000 0.000000 0.000000 
0.000000 0.000000 0.000000 

-0.000000 -0.000000 0.000000 
0.000000 0.000000 0.000000 
0.000000 0.000000 0.000000 

-0.000000 -0.000000 0.000000 
0.000000 -0.000000 0.000000 
0.000000 0.000000 0.000000 

0.000000 -0.000000 0.000000 
0.000000 -0.000000 0.000000 
0.000000 0.000000 0.000000 

0.000000 0.000000 0.000000 
0.000000 -0.000000 0.000000 
0.000000 0.000000 0.000000 

0.000000 0.000000 0.000000 
0.000000 -0.000000 0.000000 
0.000000 0.000000 0.000000 

0.000000 0.000000 0.000000 
0.000000 0.000000 0.000000 
0.000000 0.000000 0.000000 

-0.000000 0.000000 0.000000 
0.000000 0.000000 0.000000 
0.000000 0.000000 0.000000 

0.000000 -0.000000 0.000000 
0.000000 0.000000 0.000000 
0.000000 0.000000 0.000000 

-0.000000 0.000000 0.000000 
0.000000 0.000000 0.000000 
0.000000 0.000000 0.000000 

0.000000 0.000000 0.000000 
0.000000 -0.000000 0.000000 
0.000000 0.000000 0.000000 

-0.000000 -0.000000 0.000000 
0.000000 0.000000 0.000000 
0.000000 0.000000 0.000000 

-0.000000 0.000000 0.000000 
0.000000 0.000000 0.000000 
0.000000 0.000000 0.000000 

-0.000000 0.000000 0.000000 
0.000000 -0.000000 0.000000 
0.000000 0.000000 0.000000 

-0.000000 0.000000 0.000000 
0.000000 -0.000000 0.000000 
0.000000 0.000000 0.000000 

-0.000000 0.000000 0.000000 
0.000000 -0.000000 0.000000 
0.000000 0.000000 0.000000 

-0.000000 0.000000 0.000000 
0.000000 0.000000 0.000000 
0.000000 0.000000 0.000000 

-0.000000 0.000000 0.000000 
0.000000 -0.000000 0.000000 
0.000000 0.000000 0.000000 

-0.000000 0.000000 0.000000 
0.000000 0.000000 0.000000 
0.000000 0.000000 0.000000 

-0.000000 0.000000 0.000000 
0.000000 0.000000 0.000000 
0.000000 0.000000 0.000000 

-0.000000 -0.000000 0.000000 
0.000000 0.000000 0.000000 
0.000000 0.000000 0.000000 

-0.000000 -0.000000 0.000000 
0.000000 0.000000 0.000000 
0.000000 0.000000 0.000000 

-0.000000 0.000000 0.000000 
0.000000 -0.000000 0.000000 
0.000000 0.000000 0.000000 

-0.000000 0.000000 0.000000 
0.000000 -0.000000 0.000000 
0.000000 0.000000 0.000000 

0.000000 0.000000 0.000000 
0.000000 -0.000000 0.000000 
0.000000 0.000000 0.000000 

-0.000000 0.000000 0.000000 
0.000000 -0.000000 0.000000 
0.000000 0.000000 0.000000 

0.000000 0.000000 0.000000 
0.000000 0.000000 0.000000 
0.000000 0.000000 0.000000 

-0.000000 -0.000000 0.000000 
0.000000 -0.000000 0.000000 
0.000000 0.000000 0.000000 

0.000000 0.000000 0.000000 
0.000000 -0.000000 0.000000 
0.000000 0.000000 0.000000 

-0.000000 0.000000 0.000000 
0.000000 0.000000 0.000000 
0.000000 0.000000 0.000000 

-0.000000 -0.000000 0.000000 
0.000000 -0.000000 0.000000 
0.000000 0.000000 0.000000 

0.000000 -0.000000 0.000000 
0.000000 -0.000000 0.000000 
0.000000 0.000000 0.000000 

0.000000 0.000000 0.000000 
0.000000 -0.000000 0.000000 
0.000000 0.000000 0.000000 

0.000000 -0.000000 0.000000 
0.000000 -0.000000 0.000000 
0.000000 0.000000 0.000000 

0.000000 0.000000 0.000000 
0.000000 0.000000 0.000000 
0.000000 0.000000 0.000000 

0.000000 -0.000000 0.000000 
0.000000 0.000000 0.000000 
0.000000 0.000000 0.000000 

-0.000000 -0.000000 0.000000 
0.000000 -0.000000 0.000000 
0.000000 0.000000 0.000000 

-0.000000 -0.000000 0.000000 
0.000000 0.000000 0.000000 
0.000000 0.000000 0.000000 

0.000000 -0.000000 0.000000 
0.000000 0.000000 0.000000 
0.000000 0.000000 0.000000 

0.000000 0.000000 0.000000 
0.000000 -0.000000 0.000000 
0.000000 0.000000 0.000000 

-0.000000 0.000000 0.000000 
0.000000 0.000000 0.000000 
0.000000 0.000000 0.000000 

-0.000000 0.000000 0.000000 
0.000000 -0.000000 0.000000 
0.000000 0.000000 0.000000 

-0.000000 -0.000000 0.000000 
0.000000 -0.000000 0.000000 
0.000000 0.000000 0.000000 

-0.000000 0.000000 0.000000 
0.000000 -0.000000 0.000000 
0.000000 0.000000 0.000000 

-0.000000 -0.000000 0.000000 
0.000000 0.000000 0.000000 
0.000000 0.000000 0.000000 

0.000000 -0.000000 0.000000 
0.000000 0.000000 0.000000 
0.000000 0.000000 0.000000 

0.000000 0.000000 0.000000 
0.000000 -0.000000 0.000000 
0.000000 0.000000 0.000000 

-0.000000 0.000000 0.000000 
0.000000 0.000000 0.000000 
0.000000 0.000000 0.000000 

-0.000000 0.000000 0.000000 
0.000000 0.000000 0.000000 
0.000000 0.000000 0.000000 

0.000000 0.000000 0.000000 
0.000000 0.000000 0.000000 
0.000000 0.000000 0.000000 

-0.000000 0.000000 0.000000 
0.000000 0.000000 0.000000 
0.000000 0.000000 0.000000 

-0.000000 0.000000 0.000000 
0.000000 0.000000 0.000000 
0.000000 0.000000 0.000000 

0.000000 0.000000 0.000000 
0.000000 -0.000000 0.000000 
0.000000 0.000000 0.000000 

0.000000 0.000000 0.000000 
0.000000 0.000000 0.000000 
0.000000 0.000000 0.000000 

0.000000 0.000000 0.000000 
0.000000 -0.000000 0.000000 
0.000000 0.000000 0.000000 

-0.000000 0.000000 0.000000 
0.000000 0.000000 0.000000 
0.000000 0.000000 0.000000 

-0.000000 0.000000 0.000000 
0.000000 0.000000 0.000000 
0.000000 0.000000 0.000000 

-0.000000 -0.000000 0.000000 
0.000000 0.000000 0.000000 
0.000000 0.000000 0.000000 

-0.000000 0.000000 0.000000 
0.000000 0.000000 0.000000 
0.000000 0.000000 0.000000 

-0.000000 0.000000 0.000000 
0.000000 -0.000000 0.000000 
0.000000 0.000000 0.000000 

0.000000 0.000000 0.000000 
0.000000 0.000000 0.000000 
0.000000 0.000000 0.000000 

0.000000 0.000000 0.000000 
0.000000 0.000000 0.000000 
0.000000 0.000000 0.000000 

-0.000000 -0.000000 0.000000 
0.000000 -0.000000 0.000000 
0.000000 0.000000 0.000000 

-0.000000 -0.000000 0.000000 
0.000000 0.000000 0.000000 
0.000000 0.000000 0.000000 

-0.000000 0.000000 0.000000 
0.000000 0.000000 0.000000 
0.000000 0.000000 0.000000 

-0.000000 0.000000 0.000000 
0.000000 0.000000 0.000000 
0.000000 0.000000 0.000000 

0.000000 -0.000000 0.000000 
0.000000 -0.000000 0.000000 
0.000000 0.000000 0.000000 

-0.000000 -0.000000 0.000000 
0.000000 0.000000 0.000000 
0.000000 0.000000 0.000000 

-0.000000 -0.000000 0.000000 
0.000000 0.000000 0.000000 
0.000000 0.000000 0.000000 

0.000000 0.000000 0.000000 
0.000000 0.000000 0.000000 
0.000000 0.000000 0.000000 

0.000000 -0.000000 0.000000 
0.000000 -0.000000 0.000000 
0.000000 0.000000 0.000000 

0.000000 0.000000 0.000000 
0.000000 -0.000000 0.000000 
0.000000 0.000000 0.000000 

0.000000 0.000000 0.000000 
0.000000 -0.000000 0.000000 
0.000000 0.000000 0.000000 

0.000000 0.000000 0.000000 
0.000000 0.000000 0.000000 
0.000000 0.000000 0.000000 

0.000000 0.000000 0.000000 
0.000000 0.000000 0.000000 
0.000000 0.000000 0.000000 

0.000000 0.000000 0.000000 
0.000000 0.000000 0.000000 
0.000000 0.000000 0.000000 

0.000000 0.000000 0.000000 
0.000000 -0.000000 0.000000 
0.000000 0.000000 0.000000 

0.000000 -0.000000 0.000000 
0.000000 0.000000 0.000000 
0.000000 0.000000 0.000000 

0.000000 0.000000 0.000000 
0.000000 0.000000 0.000000 
0.000000 0.000000 0.000000 

0.000000 0.000000 0.000000 
0.000000 -0.000000 0.000000 
0.000000 0.000000 0.000000 

0.000000 -0.000000 0.000000 
0.000000 -0.000000 0.000000 
0.000000 0.000000 0.000000 

0.000000 -0.000000 0.000000 
0.000000 0.000000 0.000000 
0.000000 0.000000 0.000000 

-0.000000 -0.000000 0.000000 
0.000000 -0.000000 0.000000 
0.000000 0.000000 0.000000 

-0.000000 -0.000000 0.000000 
0.000000 0.000000 0.000000 
0.000000 0.000000 0.000000 

0.000000 0.000000 0.000000 
0.000000 -0.000000 0.000000 
0.000000 0.000000 0.000000 

0.000000 -0.000000 0.000000 
0.000000 0.000000 0.000000 
0.000000 0.000000 0.000000 

0.000000 -0.000000 0.000000 
0.000000 -0.000000 0.000000 
0.000000 0.000000 0.000000 

0.000000 -0.000000 0.000000 
0.000000 0.000000 0.000000 
0.000000 0.000000 0.000000 

-0.000000 -0.000000 0.000000 
0.000000 0.000000 0.000000 
0.000000 0.000000 0.000000 

-0.000000 -0.000000 0.000000 
0.000000 -0.000000 0.000000 
0.000000 0.000000 0.000000 

-0.000000 -0.000000 0.000000 
0.000000 0.000000 0.000000 
0.000000 0.000000 0.000000 

0.000000 0.000000 0.000000 
0.000000 0.000000 0.000000 
0.000000 0.000000 0.000000 

0.000000 -0.000000 0.000000 
0.000000 -0.000000 0.000000 
0.000000 0.000000 0.000000 

-0.000000 -0.000000 0.000000 
0.000000 0.000000 0.000000 
0.000000 0.000000 0.000000 

0.000000 0.000000 0.000000 
0.000000 -0.000000 0.000000 
0.000000 0.000000 0.000000 

0.000000 0.000000 0.000000 
0.000000 -0.000000 0.000000 
0.000000 0.000000 0.000000 

-0.000000 -0.000000 0.000000 
0.000000 -0.000000 0.000000 
0.000000 0.000000 0.000000 

-0.000000 0.000000 0.000000 
0.000000 0.000000 0.000000 
0.000000 0.000000 0.000000 

