# vtk DataFile Version 3.0 
vtk output 
ASCII 
DATASET UNSTRUCTURED_GRID 
POINTS 175 float 
-0.026061 0.031569 0.000000 
-0.106992 0.099624 0.000000 
-0.054870 0.091392 0.000000 
-0.028809 0.137275 0.000000 
-0.186430 0.163700 0.000000 
-0.137056 0.161174 0.000000 
-0.114311 0.214821 0.000000 
-0.058186 0.199155 0.000000 
-0.029377 0.239332 0.000000 
-0.265318 0.226856 0.000000 
-0.217198 0.226056 0.000000 
-0.196633 0.283352 0.000000 
-0.143120 0.274644 0.000000 
-0.116563 0.321912 0.000000 
-0.058945 0.302267 0.000000 
-0.029568 0.340387 0.000000 
-0.344206 0.290011 0.000000 
-0.296791 0.290018 0.000000 
-0.278030 0.349961 0.000000 
-0.225992 0.344095 0.000000 
-0.201664 0.396212 0.000000 
-0.145749 0.382738 0.000000 
-0.117890 0.427081 0.000000 
-0.059328 0.404375 0.000000 
-0.029759 0.441441 0.000000 
-0.058559 -0.009182 0.000000 
-0.162226 -0.030025 0.000000 
-0.123292 0.005593 0.000000 
-0.142917 0.054576 0.000000 
-0.261851 -0.052181 0.000000 
-0.229092 -0.015154 0.000000 
-0.256854 0.036078 0.000000 
-0.209613 0.070190 0.000000 
-0.223062 0.117764 0.000000 
-0.360414 -0.074481 0.000000 
-0.329787 -0.037358 0.000000 
-0.361761 0.014444 0.000000 
-0.321587 0.050853 0.000000 
-0.341985 0.101087 0.000000 
-0.290702 0.133886 0.000000 
-0.302189 0.180621 0.000000 
-0.458977 -0.096781 0.000000 
-0.429420 -0.059706 0.000000 
-0.464588 -0.007665 0.000000 
-0.427556 0.029363 0.000000 
-0.453135 0.080878 0.000000 
-0.407738 0.116193 0.000000 
-0.425037 0.165621 0.000000 
-0.370772 0.197250 0.000000 
-0.381315 0.243478 0.000000 
-0.046960 -0.059997 0.000000 
-0.095301 -0.154043 0.000000 
-0.098873 -0.101396 0.000000 
-0.149405 -0.086198 0.000000 
-0.140093 -0.245747 0.000000 
-0.148617 -0.197049 0.000000 
-0.205981 -0.186812 0.000000 
-0.203197 -0.128608 0.000000 
-0.248777 -0.109462 0.000000 
-0.184111 -0.336711 0.000000 
-0.194039 -0.289620 0.000000 
-0.254475 -0.282320 0.000000 
-0.257893 -0.228210 0.000000 
-0.309886 -0.212838 0.000000 
-0.303554 -0.152293 0.000000 
-0.347255 -0.132135 0.000000 
-0.228129 -0.427674 0.000000 
-0.238687 -0.381450 0.000000 
-0.301302 -0.376498 0.000000 
-0.307162 -0.324459 0.000000 
-0.363386 -0.312338 0.000000 
-0.362692 -0.254827 0.000000 
-0.412122 -0.237534 0.000000 
-0.403017 -0.175387 0.000000 
-0.445733 -0.154808 0.000000 
-0.000000 -0.082612 0.000000 
0.043388 -0.179043 0.000000 
-0.000000 -0.149010 0.000000 
-0.043388 -0.179043 0.000000 
0.087158 -0.271239 0.000000 
0.043769 -0.247541 0.000000 
-0.000000 -0.286007 0.000000 
-0.043769 -0.247541 0.000000 
-0.087158 -0.271239 0.000000 
0.130831 -0.362369 0.000000 
0.087824 -0.340770 0.000000 
0.044436 -0.383470 0.000000 
-0.000000 -0.352405 0.000000 
-0.044436 -0.383470 0.000000 
-0.087824 -0.340770 0.000000 
-0.130831 -0.362369 0.000000 
0.174505 -0.453499 0.000000 
0.131782 -0.432933 0.000000 
0.088871 -0.478799 0.000000 
0.044532 -0.450935 0.000000 
-0.000000 -0.487335 0.000000 
-0.044532 -0.450935 0.000000 
-0.088871 -0.478799 0.000000 
-0.131782 -0.432933 0.000000 
-0.174505 -0.453499 0.000000 
0.046960 -0.059997 0.000000 
0.149405 -0.086198 0.000000 
0.098873 -0.101396 0.000000 
0.095301 -0.154043 0.000000 
0.248777 -0.109462 0.000000 
0.203197 -0.128608 0.000000 
0.205981 -0.186812 0.000000 
0.148617 -0.197049 0.000000 
0.140093 -0.245747 0.000000 
0.347255 -0.132135 0.000000 
0.303554 -0.152293 0.000000 
0.309886 -0.212838 0.000000 
0.257893 -0.228210 0.000000 
0.254475 -0.282320 0.000000 
0.194039 -0.289620 0.000000 
0.184111 -0.336711 0.000000 
0.445733 -0.154808 0.000000 
0.403017 -0.175387 0.000000 
0.412122 -0.237534 0.000000 
0.362692 -0.254827 0.000000 
0.363386 -0.312338 0.000000 
0.307162 -0.324459 0.000000 
0.301302 -0.376498 0.000000 
0.238687 -0.381450 0.000000 
0.228129 -0.427674 0.000000 
0.058559 -0.009182 0.000000 
0.142917 0.054576 0.000000 
0.123292 0.005593 0.000000 
0.162226 -0.030025 0.000000 
0.223062 0.117764 0.000000 
0.209613 0.070190 0.000000 
0.256854 0.036078 0.000000 
0.229092 -0.015154 0.000000 
0.261851 -0.052181 0.000000 
0.302189 0.180621 0.000000 
0.290702 0.133886 0.000000 
0.341985 0.101087 0.000000 
0.321587 0.050853 0.000000 
0.361761 0.014444 0.000000 
0.329787 -0.037358 0.000000 
0.360414 -0.074481 0.000000 
0.381315 0.243478 0.000000 
0.370772 0.197250 0.000000 
0.425037 0.165621 0.000000 
0.407738 0.116193 0.000000 
0.453135 0.080878 0.000000 
0.427556 0.029363 0.000000 
0.464588 -0.007665 0.000000 
0.429420 -0.059706 0.000000 
0.458977 -0.096781 0.000000 
0.026061 0.031569 0.000000 
0.028809 0.137275 0.000000 
0.054870 0.091392 0.000000 
0.106992 0.099624 0.000000 
0.029377 0.239332 0.000000 
0.058186 0.199155 0.000000 
0.114311 0.214821 0.000000 
0.137056 0.161174 0.000000 
0.186430 0.163700 0.000000 
0.029568 0.340387 0.000000 
0.058945 0.302267 0.000000 
0.116563 0.321912 0.000000 
0.143120 0.274644 0.000000 
0.196633 0.283352 0.000000 
0.217198 0.226056 0.000000 
0.265318 0.226856 0.000000 
0.029759 0.441441 0.000000 
0.059328 0.404375 0.000000 
0.117890 0.427081 0.000000 
0.145749 0.382738 0.000000 
0.201664 0.396212 0.000000 
0.225992 0.344095 0.000000 
0.278030 0.349961 0.000000 
0.296791 0.290018 0.000000 
0.344206 0.290011 0.000000 
CELLS 175 350 
1 0 
1 1 
1 2 
1 3 
1 4 
1 5 
1 6 
1 7 
1 8 
1 9 
1 10 
1 11 
1 12 
1 13 
1 14 
1 15 
1 16 
1 17 
1 18 
1 19 
1 20 
1 21 
1 22 
1 23 
1 24 
1 25 
1 26 
1 27 
1 28 
1 29 
1 30 
1 31 
1 32 
1 33 
1 34 
1 35 
1 36 
1 37 
1 38 
1 39 
1 40 
1 41 
1 42 
1 43 
1 44 
1 45 
1 46 
1 47 
1 48 
1 49 
1 50 
1 51 
1 52 
1 53 
1 54 
1 55 
1 56 
1 57 
1 58 
1 59 
1 60 
1 61 
1 62 
1 63 
1 64 
1 65 
1 66 
1 67 
1 68 
1 69 
1 70 
1 71 
1 72 
1 73 
1 74 
1 75 
1 76 
1 77 
1 78 
1 79 
1 80 
1 81 
1 82 
1 83 
1 84 
1 85 
1 86 
1 87 
1 88 
1 89 
1 90 
1 91 
1 92 
1 93 
1 94 
1 95 
1 96 
1 97 
1 98 
1 99 
1 100 
1 101 
1 102 
1 103 
1 104 
1 105 
1 106 
1 107 
1 108 
1 109 
1 110 
1 111 
1 112 
1 113 
1 114 
1 115 
1 116 
1 117 
1 118 
1 119 
1 120 
1 121 
1 122 
1 123 
1 124 
1 125 
1 126 
1 127 
1 128 
1 129 
1 130 
1 131 
1 132 
1 133 
1 134 
1 135 
1 136 
1 137 
1 138 
1 139 
1 140 
1 141 
1 142 
1 143 
1 144 
1 145 
1 146 
1 147 
1 148 
1 149 
1 150 
1 151 
1 152 
1 153 
1 154 
1 155 
1 156 
1 157 
1 158 
1 159 
1 160 
1 161 
1 162 
1 163 
1 164 
1 165 
1 166 
1 167 
1 168 
1 169 
1 170 
1 171 
1 172 
1 173 
1 174 
CELL_TYPES 175 
1 
1 
1 
1 
1 
1 
1 
1 
1 
1 
1 
1 
1 
1 
1 
1 
1 
1 
1 
1 
1 
1 
1 
1 
1 
1 
1 
1 
1 
1 
1 
1 
1 
1 
1 
1 
1 
1 
1 
1 
1 
1 
1 
1 
1 
1 
1 
1 
1 
1 
1 
1 
1 
1 
1 
1 
1 
1 
1 
1 
1 
1 
1 
1 
1 
1 
1 
1 
1 
1 
1 
1 
1 
1 
1 
1 
1 
1 
1 
1 
1 
1 
1 
1 
1 
1 
1 
1 
1 
1 
1 
1 
1 
1 
1 
1 
1 
1 
1 
1 
1 
1 
1 
1 
1 
1 
1 
1 
1 
1 
1 
1 
1 
1 
1 
1 
1 
1 
1 
1 
1 
1 
1 
1 
1 
1 
1 
1 
1 
1 
1 
1 
1 
1 
1 
1 
1 
1 
1 
1 
1 
1 
1 
1 
1 
1 
1 
1 
1 
1 
1 
1 
1 
1 
1 
1 
1 
1 
1 
1 
1 
1 
1 
1 
1 
1 
1 
1 
1 
1 
1 
1 
1 
1 
1 
POINT_DATA 175 
VECTORS X_GC float 
-0.026061 0.031569 0.000000 
-0.106992 0.099624 0.000000 
-0.054870 0.091392 0.000000 
-0.028809 0.137275 0.000000 
-0.186430 0.163700 0.000000 
-0.137056 0.161174 0.000000 
-0.114311 0.214821 0.000000 
-0.058186 0.199155 0.000000 
-0.029377 0.239332 0.000000 
-0.265318 0.226856 0.000000 
-0.217198 0.226056 0.000000 
-0.196633 0.283352 0.000000 
-0.143120 0.274644 0.000000 
-0.116563 0.321912 0.000000 
-0.058945 0.302267 0.000000 
-0.029568 0.340387 0.000000 
-0.344206 0.290011 0.000000 
-0.296791 0.290018 0.000000 
-0.278030 0.349961 0.000000 
-0.225992 0.344095 0.000000 
-0.201664 0.396212 0.000000 
-0.145749 0.382738 0.000000 
-0.117890 0.427081 0.000000 
-0.059328 0.404375 0.000000 
-0.029759 0.441441 0.000000 
-0.058559 -0.009182 0.000000 
-0.162226 -0.030025 0.000000 
-0.123292 0.005593 0.000000 
-0.142917 0.054576 0.000000 
-0.261851 -0.052181 0.000000 
-0.229092 -0.015154 0.000000 
-0.256854 0.036078 0.000000 
-0.209613 0.070190 0.000000 
-0.223062 0.117764 0.000000 
-0.360414 -0.074481 0.000000 
-0.329787 -0.037358 0.000000 
-0.361761 0.014444 0.000000 
-0.321587 0.050853 0.000000 
-0.341985 0.101087 0.000000 
-0.290702 0.133886 0.000000 
-0.302189 0.180621 0.000000 
-0.458977 -0.096781 0.000000 
-0.429420 -0.059706 0.000000 
-0.464588 -0.007665 0.000000 
-0.427556 0.029363 0.000000 
-0.453135 0.080878 0.000000 
-0.407738 0.116193 0.000000 
-0.425037 0.165621 0.000000 
-0.370772 0.197250 0.000000 
-0.381315 0.243478 0.000000 
-0.046960 -0.059997 0.000000 
-0.095301 -0.154043 0.000000 
-0.098873 -0.101396 0.000000 
-0.149405 -0.086198 0.000000 
-0.140093 -0.245747 0.000000 
-0.148617 -0.197049 0.000000 
-0.205981 -0.186812 0.000000 
-0.203197 -0.128608 0.000000 
-0.248777 -0.109462 0.000000 
-0.184111 -0.336711 0.000000 
-0.194039 -0.289620 0.000000 
-0.254475 -0.282320 0.000000 
-0.257893 -0.228210 0.000000 
-0.309886 -0.212838 0.000000 
-0.303554 -0.152293 0.000000 
-0.347255 -0.132135 0.000000 
-0.228129 -0.427674 0.000000 
-0.238687 -0.381450 0.000000 
-0.301302 -0.376498 0.000000 
-0.307162 -0.324459 0.000000 
-0.363386 -0.312338 0.000000 
-0.362692 -0.254827 0.000000 
-0.412122 -0.237534 0.000000 
-0.403017 -0.175387 0.000000 
-0.445733 -0.154808 0.000000 
-0.000000 -0.082612 0.000000 
0.043388 -0.179043 0.000000 
-0.000000 -0.149010 0.000000 
-0.043388 -0.179043 0.000000 
0.087158 -0.271239 0.000000 
0.043769 -0.247541 0.000000 
-0.000000 -0.286007 0.000000 
-0.043769 -0.247541 0.000000 
-0.087158 -0.271239 0.000000 
0.130831 -0.362369 0.000000 
0.087824 -0.340770 0.000000 
0.044436 -0.383470 0.000000 
-0.000000 -0.352405 0.000000 
-0.044436 -0.383470 0.000000 
-0.087824 -0.340770 0.000000 
-0.130831 -0.362369 0.000000 
0.174505 -0.453499 0.000000 
0.131782 -0.432933 0.000000 
0.088871 -0.478799 0.000000 
0.044532 -0.450935 0.000000 
-0.000000 -0.487335 0.000000 
-0.044532 -0.450935 0.000000 
-0.088871 -0.478799 0.000000 
-0.131782 -0.432933 0.000000 
-0.174505 -0.453499 0.000000 
0.046960 -0.059997 0.000000 
0.149405 -0.086198 0.000000 
0.098873 -0.101396 0.000000 
0.095301 -0.154043 0.000000 
0.248777 -0.109462 0.000000 
0.203197 -0.128608 0.000000 
0.205981 -0.186812 0.000000 
0.148617 -0.197049 0.000000 
0.140093 -0.245747 0.000000 
0.347255 -0.132135 0.000000 
0.303554 -0.152293 0.000000 
0.309886 -0.212838 0.000000 
0.257893 -0.228210 0.000000 
0.254475 -0.282320 0.000000 
0.194039 -0.289620 0.000000 
0.184111 -0.336711 0.000000 
0.445733 -0.154808 0.000000 
0.403017 -0.175387 0.000000 
0.412122 -0.237534 0.000000 
0.362692 -0.254827 0.000000 
0.363386 -0.312338 0.000000 
0.307162 -0.324459 0.000000 
0.301302 -0.376498 0.000000 
0.238687 -0.381450 0.000000 
0.228129 -0.427674 0.000000 
0.058559 -0.009182 0.000000 
0.142917 0.054576 0.000000 
0.123292 0.005593 0.000000 
0.162226 -0.030025 0.000000 
0.223062 0.117764 0.000000 
0.209613 0.070190 0.000000 
0.256854 0.036078 0.000000 
0.229092 -0.015154 0.000000 
0.261851 -0.052181 0.000000 
0.302189 0.180621 0.000000 
0.290702 0.133886 0.000000 
0.341985 0.101087 0.000000 
0.321587 0.050853 0.000000 
0.361761 0.014444 0.000000 
0.329787 -0.037358 0.000000 
0.360414 -0.074481 0.000000 
0.381315 0.243478 0.000000 
0.370772 0.197250 0.000000 
0.425037 0.165621 0.000000 
0.407738 0.116193 0.000000 
0.453135 0.080878 0.000000 
0.427556 0.029363 0.000000 
0.464588 -0.007665 0.000000 
0.429420 -0.059706 0.000000 
0.458977 -0.096781 0.000000 
0.026061 0.031569 0.000000 
0.028809 0.137275 0.000000 
0.054870 0.091392 0.000000 
0.106992 0.099624 0.000000 
0.029377 0.239332 0.000000 
0.058186 0.199155 0.000000 
0.114311 0.214821 0.000000 
0.137056 0.161174 0.000000 
0.186430 0.163700 0.000000 
0.029568 0.340387 0.000000 
0.058945 0.302267 0.000000 
0.116563 0.321912 0.000000 
0.143120 0.274644 0.000000 
0.196633 0.283352 0.000000 
0.217198 0.226056 0.000000 
0.265318 0.226856 0.000000 
0.029759 0.441441 0.000000 
0.059328 0.404375 0.000000 
0.117890 0.427081 0.000000 
0.145749 0.382738 0.000000 
0.201664 0.396212 0.000000 
0.225992 0.344095 0.000000 
0.278030 0.349961 0.000000 
0.296791 0.290018 0.000000 
0.344206 0.290011 0.000000 
VECTORS X_EC float 
0.338794 0.073821 0.000000 
-0.609100 -0.844928 0.000000 
0.713312 -0.733787 0.000000 
0.374519 0.646783 0.000000 
0.423588 0.290053 0.000000 
-0.218274 0.324157 0.000000 
-0.513962 -0.400082 0.000000 
0.756418 -0.188596 0.000000 
0.381900 -0.730989 0.000000 
-0.550868 -0.562550 0.000000 
0.823577 -0.551755 0.000000 
0.556234 0.674741 0.000000 
-0.139443 0.792310 0.000000 
-0.484677 0.154186 0.000000 
0.766286 0.419401 0.000000 
0.384386 -0.095219 0.000000 
0.474677 0.584847 0.000000 
-0.141715 0.584750 0.000000 
-0.385608 -0.224478 0.000000 
0.937896 -0.145282 0.000000 
0.621631 -0.848862 0.000000 
-0.105264 -0.666963 0.000000 
-0.467428 0.734410 0.000000 
0.771260 -0.959061 0.000000 
0.386873 0.540550 0.000000 
0.761262 0.623955 0.000000 
0.108942 0.905332 0.000000 
-0.397202 0.424493 0.000000 
-0.142083 -0.236783 0.000000 
-0.595936 -0.795558 0.000000 
0.978194 0.704577 0.000000 
-0.660903 0.012952 0.000000 
0.724964 -0.447568 0.000000 
0.899809 0.910183 0.000000 
0.685384 -0.494505 0.000000 
0.287229 -0.995664 0.000000 
0.702895 0.305008 0.000000 
0.180633 -0.186511 0.000000 
0.445811 -0.864671 0.000000 
-0.220880 0.692543 0.000000 
-0.071546 0.061618 0.000000 
-0.033296 -0.193453 0.000000 
-0.417537 -0.693963 0.000000 
0.039645 0.603475 0.000000 
-0.441768 0.103604 0.000000 
-0.109248 -0.591847 0.000000 
-0.699407 0.931397 0.000000 
-0.474522 0.264118 0.000000 
0.820030 -0.162875 0.000000 
0.957100 -0.786947 0.000000 
0.610485 -0.690038 0.000000 
-0.761092 0.579581 0.000000 
-0.714655 -0.131157 0.000000 
-0.057734 -0.336324 0.000000 
-0.178789 -0.182415 0.000000 
-0.067979 -0.839841 0.000000 
0.677748 -0.978044 0.000000 
0.641556 0.236210 0.000000 
-0.765897 -0.022268 0.000000 
0.393446 -0.954406 0.000000 
0.522510 0.409864 0.000000 
-0.691820 0.311320 0.000000 
-0.647393 -0.419163 0.000000 
0.028512 -0.626689 0.000000 
-0.053800 0.555950 0.000000 
0.514316 0.283820 0.000000 
0.965681 0.273603 0.000000 
-0.897068 -0.350426 0.000000 
-0.083078 -0.417279 0.000000 
-0.006893 0.880197 0.000000 
0.724017 0.716564 0.000000 
0.714996 -0.059840 0.000000 
-0.642413 -0.293297 0.000000 
-0.760780 0.867723 0.000000 
-0.205471 0.589907 0.000000 
0.000000 -0.384737 0.000000 
-0.564049 0.917076 0.000000 
0.000000 0.511640 0.000000 
0.564049 0.917076 0.000000 
0.866949 0.161731 0.000000 
-0.569003 -0.158200 0.000000 
0.000000 0.361088 0.000000 
0.569003 -0.158200 0.000000 
-0.866949 0.161731 0.000000 
0.299194 -0.608019 0.000000 
0.858290 -0.899602 0.000000 
-0.577662 -0.323157 0.000000 
0.000000 -0.742535 0.000000 
0.577662 -0.323157 0.000000 
-0.858290 -0.899602 0.000000 
-0.299194 -0.608019 0.000000 
-0.268560 0.622232 0.000000 
0.286830 0.344590 0.000000 
0.844677 0.963788 0.000000 
-0.578910 0.587625 0.000000 
0.000000 -0.920971 0.000000 
0.578910 0.587625 0.000000 
-0.844677 0.963788 0.000000 
-0.286830 0.344590 0.000000 
0.268560 0.622232 0.000000 
-0.610485 -0.690038 0.000000 
0.057734 -0.336324 0.000000 
0.714655 -0.131157 0.000000 
0.761092 0.579581 0.000000 
0.765897 -0.022268 0.000000 
-0.641556 0.236210 0.000000 
-0.677748 -0.978044 0.000000 
0.067979 -0.839841 0.000000 
0.178789 -0.182415 0.000000 
-0.514316 0.283820 0.000000 
0.053800 0.555950 0.000000 
-0.028512 -0.626689 0.000000 
0.647393 -0.419163 0.000000 
0.691820 0.311320 0.000000 
-0.522510 0.409864 0.000000 
-0.393446 -0.954406 0.000000 
0.205471 0.589907 0.000000 
0.760780 0.867723 0.000000 
0.642413 -0.293297 0.000000 
-0.714996 -0.059840 0.000000 
-0.724017 0.716564 0.000000 
0.006894 0.880197 0.000000 
0.083078 -0.417279 0.000000 
0.897068 -0.350426 0.000000 
-0.965681 0.273603 0.000000 
-0.761262 0.623955 0.000000 
0.142083 -0.236783 0.000000 
0.397202 0.424493 0.000000 
-0.108942 0.905332 0.000000 
-0.899809 0.910183 0.000000 
-0.724964 -0.447568 0.000000 
0.660903 0.012952 0.000000 
-0.978194 0.704577 0.000000 
0.595936 -0.795558 0.000000 
0.071546 0.061618 0.000000 
0.220880 0.692543 0.000000 
-0.445811 -0.864671 0.000000 
-0.180633 -0.186511 0.000000 
-0.702895 0.305008 0.000000 
-0.287229 -0.995664 0.000000 
-0.685384 -0.494505 0.000000 
-0.957100 -0.786947 0.000000 
-0.820030 -0.162875 0.000000 
0.474522 0.264118 0.000000 
0.699407 0.931397 0.000000 
0.109248 -0.591847 0.000000 
0.441768 0.103604 0.000000 
-0.039645 0.603475 0.000000 
0.417537 -0.693963 0.000000 
0.033296 -0.193453 0.000000 
-0.338794 0.073821 0.000000 
-0.374519 0.646783 0.000000 
-0.713312 -0.733787 0.000000 
0.609100 -0.844928 0.000000 
-0.381900 -0.730989 0.000000 
-0.756418 -0.188596 0.000000 
0.513962 -0.400082 0.000000 
0.218274 0.324157 0.000000 
-0.423588 0.290053 0.000000 
-0.384386 -0.095219 0.000000 
-0.766286 0.419401 0.000000 
0.484677 0.154186 0.000000 
0.139443 0.792310 0.000000 
-0.556234 0.674741 0.000000 
-0.823577 -0.551755 0.000000 
0.550868 -0.562550 0.000000 
-0.386873 0.540550 0.000000 
-0.771260 -0.959061 0.000000 
0.467428 0.734410 0.000000 
0.105264 -0.666963 0.000000 
-0.621631 -0.848862 0.000000 
-0.937896 -0.145282 0.000000 
0.385608 -0.224478 0.000000 
0.141715 0.584750 0.000000 
-0.474677 0.584847 0.000000 
CELL_DATA 175 
SCALARS MASS float 
LOOKUP_TABLE default 
0.078183 
0.086427 
0.094672 
0.086427 
0.088131 
0.092111 
0.085854 
0.092111 
0.088131 
0.088705 
0.091000 
0.086983 
0.091556 
0.086983 
0.091000 
0.088705 
0.089278 
0.091574 
0.089278 
0.092722 
0.089278 
0.092722 
0.089278 
0.091574 
0.089278 
0.078183 
0.086427 
0.094672 
0.086427 
0.088131 
0.092111 
0.085854 
0.092111 
0.088131 
0.088705 
0.091000 
0.086983 
0.091556 
0.086983 
0.091000 
0.088705 
0.089278 
0.091574 
0.089278 
0.092722 
0.089278 
0.092722 
0.089278 
0.091574 
0.089278 
0.078183 
0.086427 
0.094672 
0.086427 
0.088131 
0.092111 
0.085854 
0.092111 
0.088131 
0.088705 
0.091000 
0.086983 
0.091556 
0.086983 
0.091000 
0.088705 
0.089278 
0.091574 
0.089278 
0.092722 
0.089278 
0.092722 
0.089278 
0.091574 
0.089278 
0.078183 
0.086427 
0.094672 
0.086427 
0.088131 
0.092111 
0.085854 
0.092111 
0.088131 
0.088705 
0.091000 
0.086983 
0.091556 
0.086983 
0.091000 
0.088705 
0.089278 
0.091574 
0.089278 
0.092722 
0.089278 
0.092722 
0.089278 
0.091574 
0.089278 
0.078183 
0.086427 
0.094672 
0.086427 
0.088131 
0.092111 
0.085854 
0.092111 
0.088131 
0.088705 
0.091000 
0.086983 
0.091556 
0.086983 
0.091000 
0.088705 
0.089278 
0.091574 
0.089278 
0.092722 
0.089278 
0.092722 
0.089278 
0.091574 
0.089278 
0.078183 
0.086427 
0.094672 
0.086427 
0.088131 
0.092111 
0.085854 
0.092111 
0.088131 
0.088705 
0.091000 
0.086983 
0.091556 
0.086983 
0.091000 
0.088705 
0.089278 
0.091574 
0.089278 
0.092722 
0.089278 
0.092722 
0.089278 
0.091574 
0.089278 
0.078183 
0.086427 
0.094672 
0.086427 
0.088131 
0.092111 
0.085854 
0.092111 
0.088131 
0.088705 
0.091000 
0.086983 
0.091556 
0.086983 
0.091000 
0.088705 
0.089278 
0.091574 
0.089278 
0.092722 
0.089278 
0.092722 
0.089278 
0.091574 
0.089278 
SCALARS MASS float 
LOOKUP_TABLE default 
0.078183 
0.086427 
0.094672 
0.086427 
0.088131 
0.092111 
0.085854 
0.092111 
0.088131 
0.088705 
0.091000 
0.086983 
0.091556 
0.086983 
0.091000 
0.088705 
0.089278 
0.091574 
0.089278 
0.092722 
0.089278 
0.092722 
0.089278 
0.091574 
0.089278 
0.078183 
0.086427 
0.094672 
0.086427 
0.088131 
0.092111 
0.085854 
0.092111 
0.088131 
0.088705 
0.091000 
0.086983 
0.091556 
0.086983 
0.091000 
0.088705 
0.089278 
0.091574 
0.089278 
0.092722 
0.089278 
0.092722 
0.089278 
0.091574 
0.089278 
0.078183 
0.086427 
0.094672 
0.086427 
0.088131 
0.092111 
0.085854 
0.092111 
0.088131 
0.088705 
0.091000 
0.086983 
0.091556 
0.086983 
0.091000 
0.088705 
0.089278 
0.091574 
0.089278 
0.092722 
0.089278 
0.092722 
0.089278 
0.091574 
0.089278 
0.078183 
0.086427 
0.094672 
0.086427 
0.088131 
0.092111 
0.085854 
0.092111 
0.088131 
0.088705 
0.091000 
0.086983 
0.091556 
0.086983 
0.091000 
0.088705 
0.089278 
0.091574 
0.089278 
0.092722 
0.089278 
0.092722 
0.089278 
0.091574 
0.089278 
0.078183 
0.086427 
0.094672 
0.086427 
0.088131 
0.092111 
0.085854 
0.092111 
0.088131 
0.088705 
0.091000 
0.086983 
0.091556 
0.086983 
0.091000 
0.088705 
0.089278 
0.091574 
0.089278 
0.092722 
0.089278 
0.092722 
0.089278 
0.091574 
0.089278 
0.078183 
0.086427 
0.094672 
0.086427 
0.088131 
0.092111 
0.085854 
0.092111 
0.088131 
0.088705 
0.091000 
0.086983 
0.091556 
0.086983 
0.091000 
0.088705 
0.089278 
0.091574 
0.089278 
0.092722 
0.089278 
0.092722 
0.089278 
0.091574 
0.089278 
0.078183 
0.086427 
0.094672 
0.086427 
0.088131 
0.092111 
0.085854 
0.092111 
0.088131 
0.088705 
0.091000 
0.086983 
0.091556 
0.086983 
0.091000 
0.088705 
0.089278 
0.091574 
0.089278 
0.092722 
0.089278 
0.092722 
0.089278 
0.091574 
0.089278 
SCALARS DENSITY float 
LOOKUP_TABLE default 
20.000000 
20.000000 
20.000000 
20.000000 
20.000000 
20.000000 
20.000000 
20.000000 
20.000000 
20.000000 
20.000000 
20.000000 
20.000000 
20.000000 
20.000000 
20.000000 
20.000000 
20.000000 
20.000000 
20.000000 
20.000000 
20.000000 
20.000000 
20.000000 
20.000000 
20.000000 
20.000000 
20.000000 
20.000000 
20.000000 
20.000000 
20.000000 
20.000000 
20.000000 
20.000000 
20.000000 
20.000000 
20.000000 
20.000000 
20.000000 
20.000000 
20.000000 
20.000000 
20.000000 
20.000000 
20.000000 
20.000000 
20.000000 
20.000000 
20.000000 
20.000000 
20.000000 
20.000000 
20.000000 
20.000000 
20.000000 
20.000000 
20.000000 
20.000000 
20.000000 
20.000000 
20.000000 
20.000000 
20.000000 
20.000000 
20.000000 
20.000000 
20.000000 
20.000000 
20.000000 
20.000000 
20.000000 
20.000000 
20.000000 
20.000000 
20.000000 
20.000000 
20.000000 
20.000000 
20.000000 
20.000000 
20.000000 
20.000000 
20.000000 
20.000000 
20.000000 
20.000000 
20.000000 
20.000000 
20.000000 
20.000000 
20.000000 
20.000000 
20.000000 
20.000000 
20.000000 
20.000000 
20.000000 
20.000000 
20.000000 
20.000000 
20.000000 
20.000000 
20.000000 
20.000000 
20.000000 
20.000000 
20.000000 
20.000000 
20.000000 
20.000000 
20.000000 
20.000000 
20.000000 
20.000000 
20.000000 
20.000000 
20.000000 
20.000000 
20.000000 
20.000000 
20.000000 
20.000000 
20.000000 
20.000000 
20.000000 
20.000000 
20.000000 
20.000000 
20.000000 
20.000000 
20.000000 
20.000000 
20.000000 
20.000000 
20.000000 
20.000000 
20.000000 
20.000000 
20.000000 
20.000000 
20.000000 
20.000000 
20.000000 
20.000000 
20.000000 
20.000000 
20.000000 
20.000000 
20.000000 
20.000000 
20.000000 
20.000000 
20.000000 
20.000000 
20.000000 
20.000000 
20.000000 
20.000000 
20.000000 
20.000000 
20.000000 
20.000000 
20.000000 
20.000000 
20.000000 
20.000000 
20.000000 
20.000000 
20.000000 
20.000000 
20.000000 
20.000000 
20.000000 
20.000000 
SCALARS ELEM_i float 
LOOKUP_TABLE default 
182 
209 
182 
183 
210 
210 
210 
183 
183 
237 
210 
211 
211 
211 
184 
184 
238 
238 
238 
211 
211 
211 
212 
184 
185 
182 
209 
209 
209 
235 
209 
236 
209 
210 
235 
235 
236 
236 
236 
237 
237 
262 
262 
263 
263 
263 
264 
264 
237 
237 
181 
208 
208 
208 
207 
207 
207 
208 
235 
206 
207 
234 
234 
234 
235 
235 
206 
233 
233 
234 
234 
234 
261 
262 
262 
181 
181 
181 
181 
153 
180 
180 
180 
207 
152 
152 
179 
179 
179 
206 
206 
152 
152 
152 
179 
178 
179 
206 
206 
206 
181 
154 
154 
154 
127 
154 
153 
153 
153 
127 
127 
126 
126 
126 
153 
152 
100 
100 
99 
126 
126 
126 
125 
125 
152 
182 
155 
155 
155 
156 
155 
128 
155 
127 
129 
129 
128 
128 
128 
127 
127 
129 
129 
102 
102 
101 
101 
101 
100 
100 
182 
183 
182 
155 
183 
183 
156 
156 
156 
184 
184 
157 
157 
157 
156 
129 
185 
184 
158 
157 
157 
157 
130 
130 
130 
VECTORS VELOCITY float 
-0.000000 -0.664726 0.000000 
-0.000000 -0.664726 0.000000 
-0.000000 -0.664726 0.000000 
-0.000000 -0.664726 0.000000 
-0.000000 -0.664726 0.000000 
-0.000000 -0.664726 0.000000 
0.000000 -0.664726 0.000000 
0.000000 -0.664726 0.000000 
0.000000 -0.664726 0.000000 
-0.000000 -0.664726 0.000000 
-0.000000 -0.664726 0.000000 
-0.000000 -0.664726 0.000000 
-0.000000 -0.664726 0.000000 
-0.000000 -0.664726 0.000000 
0.000000 -0.664726 0.000000 
-0.000000 -0.664726 0.000000 
-0.000000 -0.664726 0.000000 
-0.000000 -0.664726 0.000000 
-0.000000 -0.664726 0.000000 
-0.000000 -0.664726 0.000000 
-0.000000 -0.664726 0.000000 
-0.000000 -0.664726 0.000000 
0.000000 -0.664726 0.000000 
-0.000000 -0.664726 0.000000 
-0.000000 -0.664726 0.000000 
0.000000 -0.664726 0.000000 
0.000000 -0.664726 0.000000 
0.000000 -0.664726 0.000000 
-0.000000 -0.664726 0.000000 
0.000000 -0.664726 0.000000 
0.000000 -0.664726 0.000000 
0.000000 -0.664726 0.000000 
0.000000 -0.664726 0.000000 
0.000000 -0.664726 0.000000 
-0.000000 -0.664726 0.000000 
-0.000000 -0.664726 0.000000 
-0.000000 -0.664726 0.000000 
-0.000000 -0.664726 0.000000 
-0.000000 -0.664726 0.000000 
-0.000000 -0.664726 0.000000 
-0.000000 -0.664726 0.000000 
-0.000000 -0.664726 0.000000 
-0.000000 -0.664726 0.000000 
-0.000000 -0.664726 0.000000 
-0.000000 -0.664726 0.000000 
-0.000000 -0.664726 0.000000 
-0.000000 -0.664726 0.000000 
-0.000000 -0.664726 0.000000 
-0.000000 -0.664726 0.000000 
-0.000000 -0.664726 0.000000 
0.000000 -0.664726 0.000000 
-0.000000 -0.664726 0.000000 
-0.000000 -0.664726 0.000000 
0.000000 -0.664726 0.000000 
-0.000000 -0.664726 0.000000 
0.000000 -0.664726 0.000000 
0.000000 -0.664726 0.000000 
0.000000 -0.664726 0.000000 
0.000000 -0.664726 0.000000 
-0.000000 -0.664726 0.000000 
-0.000000 -0.664726 0.000000 
-0.000000 -0.664726 0.000000 
0.000000 -0.664726 0.000000 
0.000000 -0.664726 0.000000 
0.000000 -0.664726 0.000000 
0.000000 -0.664726 0.000000 
-0.000000 -0.664726 0.000000 
-0.000000 -0.664726 0.000000 
0.000000 -0.664726 0.000000 
0.000000 -0.664726 0.000000 
0.000000 -0.664726 0.000000 
0.000000 -0.664726 0.000000 
0.000000 -0.664726 0.000000 
0.000000 -0.664726 0.000000 
-0.000000 -0.664726 0.000000 
-0.000000 -0.664726 0.000000 
-0.000000 -0.664726 0.000000 
-0.000000 -0.664726 0.000000 
-0.000000 -0.664726 0.000000 
0.000000 -0.664726 0.000000 
-0.000000 -0.664726 0.000000 
-0.000000 -0.664726 0.000000 
-0.000000 -0.664726 0.000000 
-0.000000 -0.664726 0.000000 
0.000000 -0.664726 0.000000 
0.000000 -0.664726 0.000000 
0.000000 -0.664726 0.000000 
0.000000 -0.664726 0.000000 
0.000000 -0.664726 0.000000 
0.000000 -0.664726 0.000000 
-0.000000 -0.664726 0.000000 
0.000000 -0.664726 0.000000 
0.000000 -0.664726 0.000000 
0.000000 -0.664726 0.000000 
0.000000 -0.664726 0.000000 
0.000000 -0.664726 0.000000 
0.000000 -0.664726 0.000000 
0.000000 -0.664726 0.000000 
0.000000 -0.664726 0.000000 
-0.000000 -0.664726 0.000000 
-0.000000 -0.664726 0.000000 
-0.000000 -0.664726 0.000000 
-0.000000 -0.664726 0.000000 
0.000000 -0.664726 0.000000 
-0.000000 -0.664726 0.000000 
-0.000000 -0.664726 0.000000 
-0.000000 -0.664726 0.000000 
-0.000000 -0.664726 0.000000 
0.000000 -0.664726 0.000000 
-0.000000 -0.664726 0.000000 
-0.000000 -0.664726 0.000000 
0.000000 -0.664726 0.000000 
0.000000 -0.664726 0.000000 
0.000000 -0.664726 0.000000 
0.000000 -0.664726 0.000000 
0.000000 -0.664726 0.000000 
-0.000000 -0.664726 0.000000 
-0.000000 -0.664726 0.000000 
-0.000000 -0.664726 0.000000 
0.000000 -0.664726 0.000000 
0.000000 -0.664726 0.000000 
0.000000 -0.664726 0.000000 
-0.000000 -0.664726 0.000000 
0.000000 -0.664726 0.000000 
0.000000 -0.664726 0.000000 
-0.000000 -0.664726 0.000000 
-0.000000 -0.664726 0.000000 
-0.000000 -0.664726 0.000000 
-0.000000 -0.664726 0.000000 
-0.000000 -0.664726 0.000000 
-0.000000 -0.664726 0.000000 
-0.000000 -0.664726 0.000000 
-0.000000 -0.664726 0.000000 
-0.000000 -0.664726 0.000000 
0.000000 -0.664726 0.000000 
0.000000 -0.664726 0.000000 
-0.000000 -0.664726 0.000000 
-0.000000 -0.664726 0.000000 
-0.000000 -0.664726 0.000000 
-0.000000 -0.664726 0.000000 
-0.000000 -0.664726 0.000000 
0.000000 -0.664726 0.000000 
0.000000 -0.664726 0.000000 
0.000000 -0.664726 0.000000 
0.000000 -0.664726 0.000000 
0.000000 -0.664726 0.000000 
-0.000000 -0.664726 0.000000 
0.000000 -0.664726 0.000000 
-0.000000 -0.664726 0.000000 
0.000000 -0.664726 0.000000 
-0.000000 -0.664726 0.000000 
-0.000000 -0.664726 0.000000 
-0.000000 -0.664726 0.000000 
-0.000000 -0.664726 0.000000 
-0.000000 -0.664726 0.000000 
-0.000000 -0.664726 0.000000 
-0.000000 -0.664726 0.000000 
-0.000000 -0.664726 0.000000 
0.000000 -0.664726 0.000000 
0.000000 -0.664726 0.000000 
-0.000000 -0.664726 0.000000 
0.000000 -0.664726 0.000000 
0.000000 -0.664726 0.000000 
0.000000 -0.664726 0.000000 
0.000000 -0.664726 0.000000 
0.000000 -0.664726 0.000000 
-0.000000 -0.664726 0.000000 
0.000000 -0.664726 0.000000 
-0.000000 -0.664726 0.000000 
0.000000 -0.664726 0.000000 
0.000000 -0.664726 0.000000 
0.000000 -0.664726 0.000000 
0.000000 -0.664726 0.000000 
0.000000 -0.664726 0.000000 
0.000000 -0.664726 0.000000 
TENSORS STRESS float 
0.000000 -0.000000 0.000000 
0.000000 0.000000 0.000000 
0.000000 0.000000 0.000000 

0.000000 0.000000 0.000000 
0.000000 -0.000000 0.000000 
0.000000 0.000000 0.000000 

0.000000 -0.000000 0.000000 
0.000000 0.000000 0.000000 
0.000000 0.000000 0.000000 

-0.000000 -0.000000 0.000000 
0.000000 -0.000000 0.000000 
0.000000 0.000000 0.000000 

-0.000000 0.000000 0.000000 
0.000000 -0.000000 0.000000 
0.000000 0.000000 0.000000 

0.000000 0.000000 0.000000 
0.000000 0.000000 0.000000 
0.000000 0.000000 0.000000 

-0.000000 0.000000 0.000000 
0.000000 -0.000000 0.000000 
0.000000 0.000000 0.000000 

-0.000000 0.000000 0.000000 
0.000000 -0.000000 0.000000 
0.000000 0.000000 0.000000 

-0.000000 0.000000 0.000000 
0.000000 -0.000000 0.000000 
0.000000 0.000000 0.000000 

-0.000000 -0.000000 0.000000 
0.000000 -0.000000 0.000000 
0.000000 0.000000 0.000000 

-0.000000 0.000000 0.000000 
0.000000 -0.000000 0.000000 
0.000000 0.000000 0.000000 

0.000000 0.000000 0.000000 
0.000000 0.000000 0.000000 
0.000000 0.000000 0.000000 

0.000000 -0.000000 0.000000 
0.000000 0.000000 0.000000 
0.000000 0.000000 0.000000 

0.000000 -0.000000 0.000000 
0.000000 0.000000 0.000000 
0.000000 0.000000 0.000000 

0.000000 -0.000000 0.000000 
0.000000 0.000000 0.000000 
0.000000 0.000000 0.000000 

0.000000 -0.000000 0.000000 
0.000000 0.000000 0.000000 
0.000000 0.000000 0.000000 

-0.000000 -0.000000 0.000000 
0.000000 -0.000000 0.000000 
0.000000 0.000000 0.000000 

0.000000 0.000000 0.000000 
0.000000 0.000000 0.000000 
0.000000 0.000000 0.000000 

0.000000 0.000000 0.000000 
0.000000 0.000000 0.000000 
0.000000 0.000000 0.000000 

-0.000000 0.000000 0.000000 
0.000000 0.000000 0.000000 
0.000000 0.000000 0.000000 

-0.000000 -0.000000 0.000000 
0.000000 0.000000 0.000000 
0.000000 0.000000 0.000000 

-0.000000 -0.000000 0.000000 
0.000000 -0.000000 0.000000 
0.000000 0.000000 0.000000 

-0.000000 -0.000000 0.000000 
0.000000 0.000000 0.000000 
0.000000 0.000000 0.000000 

0.000000 0.000000 0.000000 
0.000000 0.000000 0.000000 
0.000000 0.000000 0.000000 

-0.000000 0.000000 0.000000 
0.000000 -0.000000 0.000000 
0.000000 0.000000 0.000000 

0.000000 -0.000000 0.000000 
0.000000 0.000000 0.000000 
0.000000 0.000000 0.000000 

0.000000 0.000000 0.000000 
0.000000 -0.000000 0.000000 
0.000000 0.000000 0.000000 

0.000000 0.000000 0.000000 
0.000000 0.000000 0.000000 
0.000000 0.000000 0.000000 

0.000000 0.000000 0.000000 
0.000000 0.000000 0.000000 
0.000000 0.000000 0.000000 

-0.000000 0.000000 0.000000 
0.000000 -0.000000 0.000000 
0.000000 0.000000 0.000000 

0.000000 0.000000 0.000000 
0.000000 -0.000000 0.000000 
0.000000 0.000000 0.000000 

-0.000000 0.000000 0.000000 
0.000000 -0.000000 0.000000 
0.000000 0.000000 0.000000 

0.000000 0.000000 0.000000 
0.000000 -0.000000 0.000000 
0.000000 0.000000 0.000000 

-0.000000 0.000000 0.000000 
0.000000 -0.000000 0.000000 
0.000000 0.000000 0.000000 

-0.000000 0.000000 0.000000 
0.000000 -0.000000 0.000000 
0.000000 0.000000 0.000000 

-0.000000 0.000000 0.000000 
0.000000 -0.000000 0.000000 
0.000000 0.000000 0.000000 

0.000000 0.000000 0.000000 
0.000000 0.000000 0.000000 
0.000000 0.000000 0.000000 

-0.000000 -0.000000 0.000000 
0.000000 -0.000000 0.000000 
0.000000 0.000000 0.000000 

0.000000 0.000000 0.000000 
0.000000 0.000000 0.000000 
0.000000 0.000000 0.000000 

-0.000000 0.000000 0.000000 
0.000000 -0.000000 0.000000 
0.000000 0.000000 0.000000 

-0.000000 0.000000 0.000000 
0.000000 -0.000000 0.000000 
0.000000 0.000000 0.000000 

-0.000000 -0.000000 0.000000 
0.000000 -0.000000 0.000000 
0.000000 0.000000 0.000000 

-0.000000 0.000000 0.000000 
0.000000 -0.000000 0.000000 
0.000000 0.000000 0.000000 

-0.000000 -0.000000 0.000000 
0.000000 -0.000000 0.000000 
0.000000 0.000000 0.000000 

-0.000000 -0.000000 0.000000 
0.000000 -0.000000 0.000000 
0.000000 0.000000 0.000000 

-0.000000 -0.000000 0.000000 
0.000000 -0.000000 0.000000 
0.000000 0.000000 0.000000 

0.000000 0.000000 0.000000 
0.000000 0.000000 0.000000 
0.000000 0.000000 0.000000 

0.000000 -0.000000 0.000000 
0.000000 0.000000 0.000000 
0.000000 0.000000 0.000000 

-0.000000 0.000000 0.000000 
0.000000 -0.000000 0.000000 
0.000000 0.000000 0.000000 

-0.000000 -0.000000 0.000000 
0.000000 -0.000000 0.000000 
0.000000 0.000000 0.000000 

0.000000 -0.000000 0.000000 
0.000000 0.000000 0.000000 
0.000000 0.000000 0.000000 

-0.000000 0.000000 0.000000 
0.000000 0.000000 0.000000 
0.000000 0.000000 0.000000 

0.000000 0.000000 0.000000 
0.000000 0.000000 0.000000 
0.000000 0.000000 0.000000 

0.000000 -0.000000 0.000000 
0.000000 0.000000 0.000000 
0.000000 0.000000 0.000000 

0.000000 -0.000000 0.000000 
0.000000 0.000000 0.000000 
0.000000 0.000000 0.000000 

-0.000000 0.000000 0.000000 
0.000000 -0.000000 0.000000 
0.000000 0.000000 0.000000 

-0.000000 0.000000 0.000000 
0.000000 -0.000000 0.000000 
0.000000 0.000000 0.000000 

0.000000 -0.000000 0.000000 
0.000000 0.000000 0.000000 
0.000000 0.000000 0.000000 

0.000000 -0.000000 0.000000 
0.000000 0.000000 0.000000 
0.000000 0.000000 0.000000 

-0.000000 -0.000000 0.000000 
0.000000 -0.000000 0.000000 
0.000000 0.000000 0.000000 

0.000000 -0.000000 0.000000 
0.000000 0.000000 0.000000 
0.000000 0.000000 0.000000 

0.000000 0.000000 0.000000 
0.000000 0.000000 0.000000 
0.000000 0.000000 0.000000 

0.000000 0.000000 0.000000 
0.000000 0.000000 0.000000 
0.000000 0.000000 0.000000 

0.000000 0.000000 0.000000 
0.000000 0.000000 0.000000 
0.000000 0.000000 0.000000 

0.000000 -0.000000 0.000000 
0.000000 0.000000 0.000000 
0.000000 0.000000 0.000000 

0.000000 0.000000 0.000000 
0.000000 0.000000 0.000000 
0.000000 0.000000 0.000000 

0.000000 -0.000000 0.000000 
0.000000 -0.000000 0.000000 
0.000000 0.000000 0.000000 

-0.000000 0.000000 0.000000 
0.000000 -0.000000 0.000000 
0.000000 0.000000 0.000000 

-0.000000 0.000000 0.000000 
0.000000 0.000000 0.000000 
0.000000 0.000000 0.000000 

0.000000 0.000000 0.000000 
0.000000 0.000000 0.000000 
0.000000 0.000000 0.000000 

0.000000 0.000000 0.000000 
0.000000 0.000000 0.000000 
0.000000 0.000000 0.000000 

0.000000 0.000000 0.000000 
0.000000 0.000000 0.000000 
0.000000 0.000000 0.000000 

0.000000 -0.000000 0.000000 
0.000000 0.000000 0.000000 
0.000000 0.000000 0.000000 

-0.000000 -0.000000 0.000000 
0.000000 -0.000000 0.000000 
0.000000 0.000000 0.000000 

-0.000000 -0.000000 0.000000 
0.000000 -0.000000 0.000000 
0.000000 0.000000 0.000000 

-0.000000 -0.000000 0.000000 
0.000000 -0.000000 0.000000 
0.000000 0.000000 0.000000 

-0.000000 0.000000 0.000000 
0.000000 -0.000000 0.000000 
0.000000 0.000000 0.000000 

-0.000000 -0.000000 0.000000 
0.000000 -0.000000 0.000000 
0.000000 0.000000 0.000000 

-0.000000 0.000000 0.000000 
0.000000 0.000000 0.000000 
0.000000 0.000000 0.000000 

0.000000 -0.000000 0.000000 
0.000000 -0.000000 0.000000 
0.000000 0.000000 0.000000 

-0.000000 -0.000000 0.000000 
0.000000 0.000000 0.000000 
0.000000 0.000000 0.000000 

0.000000 0.000000 0.000000 
0.000000 0.000000 0.000000 
0.000000 0.000000 0.000000 

0.000000 -0.000000 0.000000 
0.000000 0.000000 0.000000 
0.000000 0.000000 0.000000 

0.000000 -0.000000 0.000000 
0.000000 0.000000 0.000000 
0.000000 0.000000 0.000000 

-0.000000 0.000000 0.000000 
0.000000 0.000000 0.000000 
0.000000 0.000000 0.000000 

0.000000 -0.000000 0.000000 
0.000000 0.000000 0.000000 
0.000000 0.000000 0.000000 

0.000000 0.000000 0.000000 
0.000000 0.000000 0.000000 
0.000000 0.000000 0.000000 

0.000000 0.000000 0.000000 
0.000000 0.000000 0.000000 
0.000000 0.000000 0.000000 

-0.000000 0.000000 0.000000 
0.000000 -0.000000 0.000000 
0.000000 0.000000 0.000000 

0.000000 -0.000000 0.000000 
0.000000 0.000000 0.000000 
0.000000 0.000000 0.000000 

-0.000000 -0.000000 0.000000 
0.000000 -0.000000 0.000000 
0.000000 0.000000 0.000000 

-0.000000 0.000000 0.000000 
0.000000 -0.000000 0.000000 
0.000000 0.000000 0.000000 

0.000000 0.000000 0.000000 
0.000000 0.000000 0.000000 
0.000000 0.000000 0.000000 

-0.000000 0.000000 0.000000 
0.000000 -0.000000 0.000000 
0.000000 0.000000 0.000000 

0.000000 0.000000 0.000000 
0.000000 0.000000 0.000000 
0.000000 0.000000 0.000000 

0.000000 -0.000000 0.000000 
0.000000 -0.000000 0.000000 
0.000000 0.000000 0.000000 

0.000000 0.000000 0.000000 
0.000000 -0.000000 0.000000 
0.000000 0.000000 0.000000 

0.000000 -0.000000 0.000000 
0.000000 -0.000000 0.000000 
0.000000 0.000000 0.000000 

0.000000 -0.000000 0.000000 
0.000000 -0.000000 0.000000 
0.000000 0.000000 0.000000 

0.000000 -0.000000 0.000000 
0.000000 0.000000 0.000000 
0.000000 0.000000 0.000000 

0.000000 -0.000000 0.000000 
0.000000 -0.000000 0.000000 
0.000000 0.000000 0.000000 

-0.000000 0.000000 0.000000 
0.000000 -0.000000 0.000000 
0.000000 0.000000 0.000000 

-0.000000 0.000000 0.000000 
0.000000 -0.000000 0.000000 
0.000000 0.000000 0.000000 

-0.000000 0.000000 0.000000 
0.000000 -0.000000 0.000000 
0.000000 0.000000 0.000000 

0.000000 -0.000000 0.000000 
0.000000 0.000000 0.000000 
0.000000 0.000000 0.000000 

0.000000 0.000000 0.000000 
0.000000 0.000000 0.000000 
0.000000 0.000000 0.000000 

0.000000 -0.000000 0.000000 
0.000000 0.000000 0.000000 
0.000000 0.000000 0.000000 

0.000000 -0.000000 0.000000 
0.000000 0.000000 0.000000 
0.000000 0.000000 0.000000 

0.000000 -0.000000 0.000000 
0.000000 0.000000 0.000000 
0.000000 0.000000 0.000000 

0.000000 -0.000000 0.000000 
0.000000 0.000000 0.000000 
0.000000 0.000000 0.000000 

0.000000 -0.000000 0.000000 
0.000000 0.000000 0.000000 
0.000000 0.000000 0.000000 

-0.000000 -0.000000 0.000000 
0.000000 -0.000000 0.000000 
0.000000 0.000000 0.000000 

-0.000000 -0.000000 0.000000 
0.000000 -0.000000 0.000000 
0.000000 0.000000 0.000000 

-0.000000 -0.000000 0.000000 
0.000000 -0.000000 0.000000 
0.000000 0.000000 0.000000 

0.000000 -0.000000 0.000000 
0.000000 -0.000000 0.000000 
0.000000 0.000000 0.000000 

0.000000 0.000000 0.000000 
0.000000 -0.000000 0.000000 
0.000000 0.000000 0.000000 

0.000000 -0.000000 0.000000 
0.000000 0.000000 0.000000 
0.000000 0.000000 0.000000 

0.000000 -0.000000 0.000000 
0.000000 0.000000 0.000000 
0.000000 0.000000 0.000000 

0.000000 0.000000 0.000000 
0.000000 -0.000000 0.000000 
0.000000 0.000000 0.000000 

-0.000000 -0.000000 0.000000 
0.000000 -0.000000 0.000000 
0.000000 0.000000 0.000000 

-0.000000 0.000000 0.000000 
0.000000 -0.000000 0.000000 
0.000000 0.000000 0.000000 

-0.000000 -0.000000 0.000000 
0.000000 -0.000000 0.000000 
0.000000 0.000000 0.000000 

-0.000000 -0.000000 0.000000 
0.000000 -0.000000 0.000000 
0.000000 0.000000 0.000000 

-0.000000 0.000000 0.000000 
0.000000 -0.000000 0.000000 
0.000000 0.000000 0.000000 

-0.000000 0.000000 0.000000 
0.000000 -0.000000 0.000000 
0.000000 0.000000 0.000000 

0.000000 -0.000000 0.000000 
0.000000 0.000000 0.000000 
0.000000 0.000000 0.000000 

-0.000000 0.000000 0.000000 
0.000000 -0.000000 0.000000 
0.000000 0.000000 0.000000 

-0.000000 0.000000 0.000000 
0.000000 0.000000 0.000000 
0.000000 0.000000 0.000000 

-0.000000 0.000000 0.000000 
0.000000 -0.000000 0.000000 
0.000000 0.000000 0.000000 

-0.000000 0.000000 0.000000 
0.000000 -0.000000 0.000000 
0.000000 0.000000 0.000000 

-0.000000 0.000000 0.000000 
0.000000 -0.000000 0.000000 
0.000000 0.000000 0.000000 

-0.000000 -0.000000 0.000000 
0.000000 -0.000000 0.000000 
0.000000 0.000000 0.000000 

-0.000000 0.000000 0.000000 
0.000000 -0.000000 0.000000 
0.000000 0.000000 0.000000 

0.000000 -0.000000 0.000000 
0.000000 0.000000 0.000000 
0.000000 0.000000 0.000000 

0.000000 -0.000000 0.000000 
0.000000 0.000000 0.000000 
0.000000 0.000000 0.000000 

0.000000 -0.000000 0.000000 
0.000000 0.000000 0.000000 
0.000000 0.000000 0.000000 

-0.000000 -0.000000 0.000000 
0.000000 -0.000000 0.000000 
0.000000 0.000000 0.000000 

-0.000000 -0.000000 0.000000 
0.000000 -0.000000 0.000000 
0.000000 0.000000 0.000000 

-0.000000 -0.000000 0.000000 
0.000000 -0.000000 0.000000 
0.000000 0.000000 0.000000 

-0.000000 -0.000000 0.000000 
0.000000 -0.000000 0.000000 
0.000000 0.000000 0.000000 

0.000000 -0.000000 0.000000 
0.000000 0.000000 0.000000 
0.000000 0.000000 0.000000 

0.000000 0.000000 0.000000 
0.000000 0.000000 0.000000 
0.000000 0.000000 0.000000 

0.000000 0.000000 0.000000 
0.000000 0.000000 0.000000 
0.000000 0.000000 0.000000 

0.000000 -0.000000 0.000000 
0.000000 0.000000 0.000000 
0.000000 0.000000 0.000000 

-0.000000 0.000000 0.000000 
0.000000 -0.000000 0.000000 
0.000000 0.000000 0.000000 

-0.000000 -0.000000 0.000000 
0.000000 -0.000000 0.000000 
0.000000 0.000000 0.000000 

-0.000000 -0.000000 0.000000 
0.000000 -0.000000 0.000000 
0.000000 0.000000 0.000000 

0.000000 -0.000000 0.000000 
0.000000 -0.000000 0.000000 
0.000000 0.000000 0.000000 

0.000000 -0.000000 0.000000 
0.000000 0.000000 0.000000 
0.000000 0.000000 0.000000 

0.000000 -0.000000 0.000000 
0.000000 0.000000 0.000000 
0.000000 0.000000 0.000000 

0.000000 -0.000000 0.000000 
0.000000 0.000000 0.000000 
0.000000 0.000000 0.000000 

0.000000 -0.000000 0.000000 
0.000000 -0.000000 0.000000 
0.000000 0.000000 0.000000 

0.000000 -0.000000 0.000000 
0.000000 0.000000 0.000000 
0.000000 0.000000 0.000000 

-0.000000 0.000000 0.000000 
0.000000 -0.000000 0.000000 
0.000000 0.000000 0.000000 

-0.000000 0.000000 0.000000 
0.000000 0.000000 0.000000 
0.000000 0.000000 0.000000 

0.000000 -0.000000 0.000000 
0.000000 0.000000 0.000000 
0.000000 0.000000 0.000000 

-0.000000 -0.000000 0.000000 
0.000000 0.000000 0.000000 
0.000000 0.000000 0.000000 

-0.000000 -0.000000 0.000000 
0.000000 0.000000 0.000000 
0.000000 0.000000 0.000000 

-0.000000 0.000000 0.000000 
0.000000 0.000000 0.000000 
0.000000 0.000000 0.000000 

0.000000 -0.000000 0.000000 
0.000000 -0.000000 0.000000 
0.000000 0.000000 0.000000 

-0.000000 -0.000000 0.000000 
0.000000 -0.000000 0.000000 
0.000000 0.000000 0.000000 

0.000000 -0.000000 0.000000 
0.000000 -0.000000 0.000000 
0.000000 0.000000 0.000000 

0.000000 -0.000000 0.000000 
0.000000 0.000000 0.000000 
0.000000 0.000000 0.000000 

0.000000 -0.000000 0.000000 
0.000000 0.000000 0.000000 
0.000000 0.000000 0.000000 

-0.000000 0.000000 0.000000 
0.000000 0.000000 0.000000 
0.000000 0.000000 0.000000 

0.000000 -0.000000 0.000000 
0.000000 -0.000000 0.000000 
0.000000 0.000000 0.000000 

-0.000000 -0.000000 0.000000 
0.000000 -0.000000 0.000000 
0.000000 0.000000 0.000000 

0.000000 0.000000 0.000000 
0.000000 0.000000 0.000000 
0.000000 0.000000 0.000000 

0.000000 -0.000000 0.000000 
0.000000 0.000000 0.000000 
0.000000 0.000000 0.000000 

0.000000 -0.000000 0.000000 
0.000000 0.000000 0.000000 
0.000000 0.000000 0.000000 

0.000000 0.000000 0.000000 
0.000000 -0.000000 0.000000 
0.000000 0.000000 0.000000 

0.000000 0.000000 0.000000 
0.000000 0.000000 0.000000 
0.000000 0.000000 0.000000 

-0.000000 0.000000 0.000000 
0.000000 0.000000 0.000000 
0.000000 0.000000 0.000000 

0.000000 -0.000000 0.000000 
0.000000 0.000000 0.000000 
0.000000 0.000000 0.000000 

0.000000 -0.000000 0.000000 
0.000000 0.000000 0.000000 
0.000000 0.000000 0.000000 

TENSORS STRAIN float 
0.000000 -0.000000 0.000000 
0.000000 0.000000 0.000000 
0.000000 0.000000 0.000000 

0.000000 0.000000 0.000000 
0.000000 -0.000000 0.000000 
0.000000 0.000000 0.000000 

0.000000 -0.000000 0.000000 
0.000000 0.000000 0.000000 
0.000000 0.000000 0.000000 

0.000000 -0.000000 0.000000 
0.000000 -0.000000 0.000000 
0.000000 0.000000 0.000000 

0.000000 0.000000 0.000000 
0.000000 -0.000000 0.000000 
0.000000 0.000000 0.000000 

0.000000 0.000000 0.000000 
0.000000 0.000000 0.000000 
0.000000 0.000000 0.000000 

0.000000 0.000000 0.000000 
0.000000 -0.000000 0.000000 
0.000000 0.000000 0.000000 

0.000000 0.000000 0.000000 
0.000000 -0.000000 0.000000 
0.000000 0.000000 0.000000 

-0.000000 0.000000 0.000000 
0.000000 -0.000000 0.000000 
0.000000 0.000000 0.000000 

-0.000000 -0.000000 0.000000 
0.000000 -0.000000 0.000000 
0.000000 0.000000 0.000000 

0.000000 0.000000 0.000000 
0.000000 -0.000000 0.000000 
0.000000 0.000000 0.000000 

0.000000 0.000000 0.000000 
0.000000 0.000000 0.000000 
0.000000 0.000000 0.000000 

0.000000 -0.000000 0.000000 
0.000000 0.000000 0.000000 
0.000000 0.000000 0.000000 

-0.000000 -0.000000 0.000000 
0.000000 0.000000 0.000000 
0.000000 0.000000 0.000000 

0.000000 -0.000000 0.000000 
0.000000 0.000000 0.000000 
0.000000 0.000000 0.000000 

0.000000 -0.000000 0.000000 
0.000000 -0.000000 0.000000 
0.000000 0.000000 0.000000 

0.000000 -0.000000 0.000000 
0.000000 -0.000000 0.000000 
0.000000 0.000000 0.000000 

0.000000 0.000000 0.000000 
0.000000 0.000000 0.000000 
0.000000 0.000000 0.000000 

0.000000 0.000000 0.000000 
0.000000 0.000000 0.000000 
0.000000 0.000000 0.000000 

-0.000000 0.000000 0.000000 
0.000000 0.000000 0.000000 
0.000000 0.000000 0.000000 

-0.000000 -0.000000 0.000000 
0.000000 0.000000 0.000000 
0.000000 0.000000 0.000000 

-0.000000 -0.000000 0.000000 
0.000000 0.000000 0.000000 
0.000000 0.000000 0.000000 

-0.000000 -0.000000 0.000000 
0.000000 0.000000 0.000000 
0.000000 0.000000 0.000000 

0.000000 0.000000 0.000000 
0.000000 0.000000 0.000000 
0.000000 0.000000 0.000000 

-0.000000 0.000000 0.000000 
0.000000 -0.000000 0.000000 
0.000000 0.000000 0.000000 

0.000000 -0.000000 0.000000 
0.000000 0.000000 0.000000 
0.000000 0.000000 0.000000 

0.000000 0.000000 0.000000 
0.000000 -0.000000 0.000000 
0.000000 0.000000 0.000000 

0.000000 0.000000 0.000000 
0.000000 -0.000000 0.000000 
0.000000 0.000000 0.000000 

0.000000 0.000000 0.000000 
0.000000 -0.000000 0.000000 
0.000000 0.000000 0.000000 

-0.000000 0.000000 0.000000 
0.000000 -0.000000 0.000000 
0.000000 0.000000 0.000000 

0.000000 0.000000 0.000000 
0.000000 -0.000000 0.000000 
0.000000 0.000000 0.000000 

0.000000 0.000000 0.000000 
0.000000 -0.000000 0.000000 
0.000000 0.000000 0.000000 

0.000000 0.000000 0.000000 
0.000000 -0.000000 0.000000 
0.000000 0.000000 0.000000 

0.000000 0.000000 0.000000 
0.000000 -0.000000 0.000000 
0.000000 0.000000 0.000000 

-0.000000 0.000000 0.000000 
0.000000 -0.000000 0.000000 
0.000000 0.000000 0.000000 

-0.000000 0.000000 0.000000 
0.000000 -0.000000 0.000000 
0.000000 0.000000 0.000000 

-0.000000 0.000000 0.000000 
0.000000 0.000000 0.000000 
0.000000 0.000000 0.000000 

0.000000 -0.000000 0.000000 
0.000000 -0.000000 0.000000 
0.000000 0.000000 0.000000 

0.000000 0.000000 0.000000 
0.000000 -0.000000 0.000000 
0.000000 0.000000 0.000000 

0.000000 0.000000 0.000000 
0.000000 -0.000000 0.000000 
0.000000 0.000000 0.000000 

0.000000 0.000000 0.000000 
0.000000 -0.000000 0.000000 
0.000000 0.000000 0.000000 

-0.000000 -0.000000 0.000000 
0.000000 -0.000000 0.000000 
0.000000 0.000000 0.000000 

0.000000 0.000000 0.000000 
0.000000 -0.000000 0.000000 
0.000000 0.000000 0.000000 

0.000000 -0.000000 0.000000 
0.000000 -0.000000 0.000000 
0.000000 0.000000 0.000000 

0.000000 -0.000000 0.000000 
0.000000 -0.000000 0.000000 
0.000000 0.000000 0.000000 

0.000000 -0.000000 0.000000 
0.000000 -0.000000 0.000000 
0.000000 0.000000 0.000000 

0.000000 0.000000 0.000000 
0.000000 0.000000 0.000000 
0.000000 0.000000 0.000000 

0.000000 -0.000000 0.000000 
0.000000 0.000000 0.000000 
0.000000 0.000000 0.000000 

-0.000000 0.000000 0.000000 
0.000000 -0.000000 0.000000 
0.000000 0.000000 0.000000 

-0.000000 -0.000000 0.000000 
0.000000 -0.000000 0.000000 
0.000000 0.000000 0.000000 

0.000000 -0.000000 0.000000 
0.000000 0.000000 0.000000 
0.000000 0.000000 0.000000 

-0.000000 0.000000 0.000000 
0.000000 0.000000 0.000000 
0.000000 0.000000 0.000000 

0.000000 0.000000 0.000000 
0.000000 0.000000 0.000000 
0.000000 0.000000 0.000000 

0.000000 -0.000000 0.000000 
0.000000 0.000000 0.000000 
0.000000 0.000000 0.000000 

-0.000000 -0.000000 0.000000 
0.000000 0.000000 0.000000 
0.000000 0.000000 0.000000 

-0.000000 0.000000 0.000000 
0.000000 -0.000000 0.000000 
0.000000 0.000000 0.000000 

-0.000000 0.000000 0.000000 
0.000000 -0.000000 0.000000 
0.000000 0.000000 0.000000 

-0.000000 -0.000000 0.000000 
0.000000 0.000000 0.000000 
0.000000 0.000000 0.000000 

0.000000 -0.000000 0.000000 
0.000000 0.000000 0.000000 
0.000000 0.000000 0.000000 

0.000000 -0.000000 0.000000 
0.000000 -0.000000 0.000000 
0.000000 0.000000 0.000000 

0.000000 -0.000000 0.000000 
0.000000 0.000000 0.000000 
0.000000 0.000000 0.000000 

0.000000 0.000000 0.000000 
0.000000 0.000000 0.000000 
0.000000 0.000000 0.000000 

0.000000 0.000000 0.000000 
0.000000 -0.000000 0.000000 
0.000000 0.000000 0.000000 

0.000000 0.000000 0.000000 
0.000000 0.000000 0.000000 
0.000000 0.000000 0.000000 

0.000000 -0.000000 0.000000 
0.000000 0.000000 0.000000 
0.000000 0.000000 0.000000 

0.000000 0.000000 0.000000 
0.000000 0.000000 0.000000 
0.000000 0.000000 0.000000 

0.000000 -0.000000 0.000000 
0.000000 -0.000000 0.000000 
0.000000 0.000000 0.000000 

-0.000000 0.000000 0.000000 
0.000000 -0.000000 0.000000 
0.000000 0.000000 0.000000 

-0.000000 0.000000 0.000000 
0.000000 0.000000 0.000000 
0.000000 0.000000 0.000000 

0.000000 0.000000 0.000000 
0.000000 -0.000000 0.000000 
0.000000 0.000000 0.000000 

0.000000 0.000000 0.000000 
0.000000 0.000000 0.000000 
0.000000 0.000000 0.000000 

0.000000 0.000000 0.000000 
0.000000 0.000000 0.000000 
0.000000 0.000000 0.000000 

0.000000 -0.000000 0.000000 
0.000000 0.000000 0.000000 
0.000000 0.000000 0.000000 

-0.000000 -0.000000 0.000000 
0.000000 -0.000000 0.000000 
0.000000 0.000000 0.000000 

-0.000000 -0.000000 0.000000 
0.000000 -0.000000 0.000000 
0.000000 0.000000 0.000000 

0.000000 -0.000000 0.000000 
0.000000 -0.000000 0.000000 
0.000000 0.000000 0.000000 

-0.000000 0.000000 0.000000 
0.000000 -0.000000 0.000000 
0.000000 0.000000 0.000000 

-0.000000 -0.000000 0.000000 
0.000000 -0.000000 0.000000 
0.000000 0.000000 0.000000 

-0.000000 0.000000 0.000000 
0.000000 0.000000 0.000000 
0.000000 0.000000 0.000000 

0.000000 -0.000000 0.000000 
0.000000 -0.000000 0.000000 
0.000000 0.000000 0.000000 

-0.000000 -0.000000 0.000000 
0.000000 0.000000 0.000000 
0.000000 0.000000 0.000000 

-0.000000 0.000000 0.000000 
0.000000 0.000000 0.000000 
0.000000 0.000000 0.000000 

-0.000000 -0.000000 0.000000 
0.000000 0.000000 0.000000 
0.000000 0.000000 0.000000 

-0.000000 -0.000000 0.000000 
0.000000 0.000000 0.000000 
0.000000 0.000000 0.000000 

-0.000000 0.000000 0.000000 
0.000000 0.000000 0.000000 
0.000000 0.000000 0.000000 

0.000000 -0.000000 0.000000 
0.000000 0.000000 0.000000 
0.000000 0.000000 0.000000 

0.000000 0.000000 0.000000 
0.000000 0.000000 0.000000 
0.000000 0.000000 0.000000 

-0.000000 0.000000 0.000000 
0.000000 0.000000 0.000000 
0.000000 0.000000 0.000000 

0.000000 0.000000 0.000000 
0.000000 -0.000000 0.000000 
0.000000 0.000000 0.000000 

0.000000 -0.000000 0.000000 
0.000000 0.000000 0.000000 
0.000000 0.000000 0.000000 

0.000000 -0.000000 0.000000 
0.000000 -0.000000 0.000000 
0.000000 0.000000 0.000000 

-0.000000 0.000000 0.000000 
0.000000 0.000000 0.000000 
0.000000 0.000000 0.000000 

-0.000000 0.000000 0.000000 
0.000000 0.000000 0.000000 
0.000000 0.000000 0.000000 

-0.000000 0.000000 0.000000 
0.000000 -0.000000 0.000000 
0.000000 0.000000 0.000000 

0.000000 0.000000 0.000000 
0.000000 -0.000000 0.000000 
0.000000 0.000000 0.000000 

0.000000 -0.000000 0.000000 
0.000000 -0.000000 0.000000 
0.000000 0.000000 0.000000 

0.000000 0.000000 0.000000 
0.000000 -0.000000 0.000000 
0.000000 0.000000 0.000000 

0.000000 -0.000000 0.000000 
0.000000 -0.000000 0.000000 
0.000000 0.000000 0.000000 

0.000000 -0.000000 0.000000 
0.000000 -0.000000 0.000000 
0.000000 0.000000 0.000000 

0.000000 -0.000000 0.000000 
0.000000 0.000000 0.000000 
0.000000 0.000000 0.000000 

0.000000 -0.000000 0.000000 
0.000000 -0.000000 0.000000 
0.000000 0.000000 0.000000 

-0.000000 0.000000 0.000000 
0.000000 0.000000 0.000000 
0.000000 0.000000 0.000000 

-0.000000 0.000000 0.000000 
0.000000 -0.000000 0.000000 
0.000000 0.000000 0.000000 

-0.000000 0.000000 0.000000 
0.000000 -0.000000 0.000000 
0.000000 0.000000 0.000000 

0.000000 -0.000000 0.000000 
0.000000 0.000000 0.000000 
0.000000 0.000000 0.000000 

-0.000000 0.000000 0.000000 
0.000000 0.000000 0.000000 
0.000000 0.000000 0.000000 

0.000000 -0.000000 0.000000 
0.000000 0.000000 0.000000 
0.000000 0.000000 0.000000 

0.000000 -0.000000 0.000000 
0.000000 0.000000 0.000000 
0.000000 0.000000 0.000000 

0.000000 -0.000000 0.000000 
0.000000 0.000000 0.000000 
0.000000 0.000000 0.000000 

0.000000 -0.000000 0.000000 
0.000000 0.000000 0.000000 
0.000000 0.000000 0.000000 

0.000000 -0.000000 0.000000 
0.000000 0.000000 0.000000 
0.000000 0.000000 0.000000 

-0.000000 -0.000000 0.000000 
0.000000 -0.000000 0.000000 
0.000000 0.000000 0.000000 

-0.000000 -0.000000 0.000000 
0.000000 -0.000000 0.000000 
0.000000 0.000000 0.000000 

-0.000000 -0.000000 0.000000 
0.000000 -0.000000 0.000000 
0.000000 0.000000 0.000000 

0.000000 -0.000000 0.000000 
0.000000 -0.000000 0.000000 
0.000000 0.000000 0.000000 

0.000000 0.000000 0.000000 
0.000000 -0.000000 0.000000 
0.000000 0.000000 0.000000 

0.000000 -0.000000 0.000000 
0.000000 0.000000 0.000000 
0.000000 0.000000 0.000000 

0.000000 -0.000000 0.000000 
0.000000 0.000000 0.000000 
0.000000 0.000000 0.000000 

0.000000 0.000000 0.000000 
0.000000 -0.000000 0.000000 
0.000000 0.000000 0.000000 

-0.000000 -0.000000 0.000000 
0.000000 -0.000000 0.000000 
0.000000 0.000000 0.000000 

-0.000000 0.000000 0.000000 
0.000000 -0.000000 0.000000 
0.000000 0.000000 0.000000 

-0.000000 -0.000000 0.000000 
0.000000 -0.000000 0.000000 
0.000000 0.000000 0.000000 

-0.000000 -0.000000 0.000000 
0.000000 -0.000000 0.000000 
0.000000 0.000000 0.000000 

-0.000000 0.000000 0.000000 
0.000000 -0.000000 0.000000 
0.000000 0.000000 0.000000 

-0.000000 0.000000 0.000000 
0.000000 0.000000 0.000000 
0.000000 0.000000 0.000000 

0.000000 -0.000000 0.000000 
0.000000 0.000000 0.000000 
0.000000 0.000000 0.000000 

-0.000000 0.000000 0.000000 
0.000000 0.000000 0.000000 
0.000000 0.000000 0.000000 

-0.000000 0.000000 0.000000 
0.000000 0.000000 0.000000 
0.000000 0.000000 0.000000 

-0.000000 0.000000 0.000000 
0.000000 0.000000 0.000000 
0.000000 0.000000 0.000000 

-0.000000 0.000000 0.000000 
0.000000 0.000000 0.000000 
0.000000 0.000000 0.000000 

-0.000000 0.000000 0.000000 
0.000000 -0.000000 0.000000 
0.000000 0.000000 0.000000 

0.000000 -0.000000 0.000000 
0.000000 -0.000000 0.000000 
0.000000 0.000000 0.000000 

-0.000000 0.000000 0.000000 
0.000000 -0.000000 0.000000 
0.000000 0.000000 0.000000 

0.000000 -0.000000 0.000000 
0.000000 0.000000 0.000000 
0.000000 0.000000 0.000000 

0.000000 -0.000000 0.000000 
0.000000 0.000000 0.000000 
0.000000 0.000000 0.000000 

0.000000 -0.000000 0.000000 
0.000000 0.000000 0.000000 
0.000000 0.000000 0.000000 

0.000000 -0.000000 0.000000 
0.000000 -0.000000 0.000000 
0.000000 0.000000 0.000000 

0.000000 -0.000000 0.000000 
0.000000 -0.000000 0.000000 
0.000000 0.000000 0.000000 

0.000000 -0.000000 0.000000 
0.000000 -0.000000 0.000000 
0.000000 0.000000 0.000000 

0.000000 -0.000000 0.000000 
0.000000 -0.000000 0.000000 
0.000000 0.000000 0.000000 

0.000000 -0.000000 0.000000 
0.000000 0.000000 0.000000 
0.000000 0.000000 0.000000 

0.000000 0.000000 0.000000 
0.000000 0.000000 0.000000 
0.000000 0.000000 0.000000 

0.000000 0.000000 0.000000 
0.000000 0.000000 0.000000 
0.000000 0.000000 0.000000 

0.000000 -0.000000 0.000000 
0.000000 0.000000 0.000000 
0.000000 0.000000 0.000000 

0.000000 0.000000 0.000000 
0.000000 -0.000000 0.000000 
0.000000 0.000000 0.000000 

0.000000 -0.000000 0.000000 
0.000000 -0.000000 0.000000 
0.000000 0.000000 0.000000 

0.000000 -0.000000 0.000000 
0.000000 -0.000000 0.000000 
0.000000 0.000000 0.000000 

0.000000 -0.000000 0.000000 
0.000000 -0.000000 0.000000 
0.000000 0.000000 0.000000 

0.000000 -0.000000 0.000000 
0.000000 0.000000 0.000000 
0.000000 0.000000 0.000000 

0.000000 -0.000000 0.000000 
0.000000 0.000000 0.000000 
0.000000 0.000000 0.000000 

0.000000 -0.000000 0.000000 
0.000000 0.000000 0.000000 
0.000000 0.000000 0.000000 

0.000000 -0.000000 0.000000 
0.000000 -0.000000 0.000000 
0.000000 0.000000 0.000000 

0.000000 -0.000000 0.000000 
0.000000 0.000000 0.000000 
0.000000 0.000000 0.000000 

-0.000000 0.000000 0.000000 
0.000000 0.000000 0.000000 
0.000000 0.000000 0.000000 

-0.000000 0.000000 0.000000 
0.000000 0.000000 0.000000 
0.000000 0.000000 0.000000 

0.000000 -0.000000 0.000000 
0.000000 0.000000 0.000000 
0.000000 0.000000 0.000000 

-0.000000 -0.000000 0.000000 
0.000000 0.000000 0.000000 
0.000000 0.000000 0.000000 

-0.000000 -0.000000 0.000000 
0.000000 0.000000 0.000000 
0.000000 0.000000 0.000000 

-0.000000 0.000000 0.000000 
0.000000 0.000000 0.000000 
0.000000 0.000000 0.000000 

0.000000 -0.000000 0.000000 
0.000000 -0.000000 0.000000 
0.000000 0.000000 0.000000 

0.000000 -0.000000 0.000000 
0.000000 -0.000000 0.000000 
0.000000 0.000000 0.000000 

0.000000 -0.000000 0.000000 
0.000000 -0.000000 0.000000 
0.000000 0.000000 0.000000 

0.000000 -0.000000 0.000000 
0.000000 0.000000 0.000000 
0.000000 0.000000 0.000000 

0.000000 -0.000000 0.000000 
0.000000 0.000000 0.000000 
0.000000 0.000000 0.000000 

-0.000000 0.000000 0.000000 
0.000000 0.000000 0.000000 
0.000000 0.000000 0.000000 

0.000000 -0.000000 0.000000 
0.000000 -0.000000 0.000000 
0.000000 0.000000 0.000000 

-0.000000 -0.000000 0.000000 
0.000000 -0.000000 0.000000 
0.000000 0.000000 0.000000 

0.000000 0.000000 0.000000 
0.000000 0.000000 0.000000 
0.000000 0.000000 0.000000 

0.000000 -0.000000 0.000000 
0.000000 0.000000 0.000000 
0.000000 0.000000 0.000000 

0.000000 -0.000000 0.000000 
0.000000 0.000000 0.000000 
0.000000 0.000000 0.000000 

0.000000 0.000000 0.000000 
0.000000 -0.000000 0.000000 
0.000000 0.000000 0.000000 

0.000000 0.000000 0.000000 
0.000000 0.000000 0.000000 
0.000000 0.000000 0.000000 

-0.000000 0.000000 0.000000 
0.000000 0.000000 0.000000 
0.000000 0.000000 0.000000 

0.000000 -0.000000 0.000000 
0.000000 0.000000 0.000000 
0.000000 0.000000 0.000000 

0.000000 -0.000000 0.000000 
0.000000 0.000000 0.000000 
0.000000 0.000000 0.000000 

