# vtk DataFile Version 3.0 
vtk output 
ASCII 
DATASET UNSTRUCTURED_GRID 
POINTS 175 float 
-0.026061 -0.940383 0.000000 
-0.106992 -0.872327 0.000000 
-0.054870 -0.880560 0.000000 
-0.028809 -0.834676 0.000000 
-0.186430 -0.808252 0.000000 
-0.137056 -0.810778 0.000000 
-0.114311 -0.757131 0.000000 
-0.058186 -0.772796 0.000000 
-0.029377 -0.732619 0.000000 
-0.265318 -0.745096 0.000000 
-0.217198 -0.745896 0.000000 
-0.196633 -0.688599 0.000000 
-0.143120 -0.697308 0.000000 
-0.116563 -0.650039 0.000000 
-0.058945 -0.669685 0.000000 
-0.029568 -0.631565 0.000000 
-0.344206 -0.681940 0.000000 
-0.296791 -0.681933 0.000000 
-0.278030 -0.621990 0.000000 
-0.225992 -0.627856 0.000000 
-0.201664 -0.575739 0.000000 
-0.145749 -0.589213 0.000000 
-0.117890 -0.544871 0.000000 
-0.059328 -0.567577 0.000000 
-0.029759 -0.530511 0.000000 
-0.058559 -0.981133 0.000000 
-0.162226 -1.001976 0.000000 
-0.123292 -0.966358 0.000000 
-0.142917 -0.917375 0.000000 
-0.261851 -1.024132 0.000000 
-0.229092 -0.987105 0.000000 
-0.256854 -0.935874 0.000000 
-0.209613 -0.901761 0.000000 
-0.223062 -0.854187 0.000000 
-0.360414 -1.046433 0.000000 
-0.329787 -1.009310 0.000000 
-0.361761 -0.957508 0.000000 
-0.321587 -0.921099 0.000000 
-0.341985 -0.870865 0.000000 
-0.290702 -0.838066 0.000000 
-0.302189 -0.791331 0.000000 
-0.458977 -1.068733 0.000000 
-0.429420 -1.031658 0.000000 
-0.464588 -0.979616 0.000000 
-0.427556 -0.942589 0.000000 
-0.453135 -0.891074 0.000000 
-0.407738 -0.855759 0.000000 
-0.425037 -0.806331 0.000000 
-0.370772 -0.774701 0.000000 
-0.381315 -0.728474 0.000000 
-0.046960 -1.031949 0.000000 
-0.095301 -1.125994 0.000000 
-0.098873 -1.073347 0.000000 
-0.149405 -1.058150 0.000000 
-0.140093 -1.217698 0.000000 
-0.148617 -1.169000 0.000000 
-0.205981 -1.158763 0.000000 
-0.203197 -1.100560 0.000000 
-0.248777 -1.081413 0.000000 
-0.184111 -1.308662 0.000000 
-0.194039 -1.261571 0.000000 
-0.254475 -1.254271 0.000000 
-0.257893 -1.200162 0.000000 
-0.309886 -1.184789 0.000000 
-0.303554 -1.124244 0.000000 
-0.347255 -1.104086 0.000000 
-0.228129 -1.399626 0.000000 
-0.238687 -1.353401 0.000000 
-0.301302 -1.348449 0.000000 
-0.307162 -1.296410 0.000000 
-0.363386 -1.284290 0.000000 
-0.362692 -1.226778 0.000000 
-0.412122 -1.209485 0.000000 
-0.403017 -1.147338 0.000000 
-0.445733 -1.126759 0.000000 
-0.000000 -1.054564 0.000000 
0.043388 -1.150994 0.000000 
-0.000000 -1.120962 0.000000 
-0.043388 -1.150994 0.000000 
0.087158 -1.243191 0.000000 
0.043769 -1.219492 0.000000 
-0.000000 -1.257958 0.000000 
-0.043769 -1.219492 0.000000 
-0.087158 -1.243191 0.000000 
0.130831 -1.334320 0.000000 
0.087824 -1.312722 0.000000 
0.044436 -1.355421 0.000000 
-0.000000 -1.324356 0.000000 
-0.044436 -1.355421 0.000000 
-0.087824 -1.312722 0.000000 
-0.130831 -1.334320 0.000000 
0.174505 -1.425450 0.000000 
0.131782 -1.404884 0.000000 
0.088871 -1.450751 0.000000 
0.044532 -1.422887 0.000000 
-0.000000 -1.459287 0.000000 
-0.044532 -1.422887 0.000000 
-0.088871 -1.450751 0.000000 
-0.131782 -1.404884 0.000000 
-0.174505 -1.425450 0.000000 
0.046960 -1.031949 0.000000 
0.149405 -1.058150 0.000000 
0.098873 -1.073347 0.000000 
0.095301 -1.125994 0.000000 
0.248777 -1.081413 0.000000 
0.203197 -1.100560 0.000000 
0.205981 -1.158763 0.000000 
0.148617 -1.169000 0.000000 
0.140093 -1.217698 0.000000 
0.347255 -1.104086 0.000000 
0.303554 -1.124244 0.000000 
0.309886 -1.184789 0.000000 
0.257893 -1.200162 0.000000 
0.254475 -1.254271 0.000000 
0.194039 -1.261571 0.000000 
0.184111 -1.308662 0.000000 
0.445733 -1.126759 0.000000 
0.403017 -1.147338 0.000000 
0.412122 -1.209485 0.000000 
0.362692 -1.226778 0.000000 
0.363386 -1.284290 0.000000 
0.307162 -1.296410 0.000000 
0.301302 -1.348449 0.000000 
0.238687 -1.353401 0.000000 
0.228129 -1.399626 0.000000 
0.058559 -0.981133 0.000000 
0.142917 -0.917375 0.000000 
0.123292 -0.966358 0.000000 
0.162226 -1.001976 0.000000 
0.223062 -0.854187 0.000000 
0.209613 -0.901761 0.000000 
0.256854 -0.935874 0.000000 
0.229092 -0.987105 0.000000 
0.261851 -1.024132 0.000000 
0.302189 -0.791331 0.000000 
0.290702 -0.838066 0.000000 
0.341985 -0.870865 0.000000 
0.321587 -0.921099 0.000000 
0.361761 -0.957508 0.000000 
0.329787 -1.009310 0.000000 
0.360414 -1.046433 0.000000 
0.381315 -0.728474 0.000000 
0.370772 -0.774701 0.000000 
0.425037 -0.806331 0.000000 
0.407738 -0.855759 0.000000 
0.453135 -0.891074 0.000000 
0.427556 -0.942589 0.000000 
0.464588 -0.979616 0.000000 
0.429420 -1.031658 0.000000 
0.458977 -1.068733 0.000000 
0.026061 -0.940383 0.000000 
0.028809 -0.834676 0.000000 
0.054870 -0.880560 0.000000 
0.106992 -0.872327 0.000000 
0.029377 -0.732619 0.000000 
0.058186 -0.772796 0.000000 
0.114311 -0.757131 0.000000 
0.137056 -0.810778 0.000000 
0.186430 -0.808252 0.000000 
0.029568 -0.631565 0.000000 
0.058945 -0.669685 0.000000 
0.116563 -0.650039 0.000000 
0.143120 -0.697308 0.000000 
0.196633 -0.688599 0.000000 
0.217198 -0.745896 0.000000 
0.265318 -0.745096 0.000000 
0.029759 -0.530511 0.000000 
0.059328 -0.567577 0.000000 
0.117890 -0.544871 0.000000 
0.145749 -0.589213 0.000000 
0.201664 -0.575739 0.000000 
0.225992 -0.627856 0.000000 
0.278030 -0.621990 0.000000 
0.296791 -0.681933 0.000000 
0.344206 -0.681940 0.000000 
CELLS 175 350 
1 0 
1 1 
1 2 
1 3 
1 4 
1 5 
1 6 
1 7 
1 8 
1 9 
1 10 
1 11 
1 12 
1 13 
1 14 
1 15 
1 16 
1 17 
1 18 
1 19 
1 20 
1 21 
1 22 
1 23 
1 24 
1 25 
1 26 
1 27 
1 28 
1 29 
1 30 
1 31 
1 32 
1 33 
1 34 
1 35 
1 36 
1 37 
1 38 
1 39 
1 40 
1 41 
1 42 
1 43 
1 44 
1 45 
1 46 
1 47 
1 48 
1 49 
1 50 
1 51 
1 52 
1 53 
1 54 
1 55 
1 56 
1 57 
1 58 
1 59 
1 60 
1 61 
1 62 
1 63 
1 64 
1 65 
1 66 
1 67 
1 68 
1 69 
1 70 
1 71 
1 72 
1 73 
1 74 
1 75 
1 76 
1 77 
1 78 
1 79 
1 80 
1 81 
1 82 
1 83 
1 84 
1 85 
1 86 
1 87 
1 88 
1 89 
1 90 
1 91 
1 92 
1 93 
1 94 
1 95 
1 96 
1 97 
1 98 
1 99 
1 100 
1 101 
1 102 
1 103 
1 104 
1 105 
1 106 
1 107 
1 108 
1 109 
1 110 
1 111 
1 112 
1 113 
1 114 
1 115 
1 116 
1 117 
1 118 
1 119 
1 120 
1 121 
1 122 
1 123 
1 124 
1 125 
1 126 
1 127 
1 128 
1 129 
1 130 
1 131 
1 132 
1 133 
1 134 
1 135 
1 136 
1 137 
1 138 
1 139 
1 140 
1 141 
1 142 
1 143 
1 144 
1 145 
1 146 
1 147 
1 148 
1 149 
1 150 
1 151 
1 152 
1 153 
1 154 
1 155 
1 156 
1 157 
1 158 
1 159 
1 160 
1 161 
1 162 
1 163 
1 164 
1 165 
1 166 
1 167 
1 168 
1 169 
1 170 
1 171 
1 172 
1 173 
1 174 
CELL_TYPES 175 
1 
1 
1 
1 
1 
1 
1 
1 
1 
1 
1 
1 
1 
1 
1 
1 
1 
1 
1 
1 
1 
1 
1 
1 
1 
1 
1 
1 
1 
1 
1 
1 
1 
1 
1 
1 
1 
1 
1 
1 
1 
1 
1 
1 
1 
1 
1 
1 
1 
1 
1 
1 
1 
1 
1 
1 
1 
1 
1 
1 
1 
1 
1 
1 
1 
1 
1 
1 
1 
1 
1 
1 
1 
1 
1 
1 
1 
1 
1 
1 
1 
1 
1 
1 
1 
1 
1 
1 
1 
1 
1 
1 
1 
1 
1 
1 
1 
1 
1 
1 
1 
1 
1 
1 
1 
1 
1 
1 
1 
1 
1 
1 
1 
1 
1 
1 
1 
1 
1 
1 
1 
1 
1 
1 
1 
1 
1 
1 
1 
1 
1 
1 
1 
1 
1 
1 
1 
1 
1 
1 
1 
1 
1 
1 
1 
1 
1 
1 
1 
1 
1 
1 
1 
1 
1 
1 
1 
1 
1 
1 
1 
1 
1 
1 
1 
1 
1 
1 
1 
1 
1 
1 
1 
1 
1 
POINT_DATA 175 
VECTORS X_GC float 
-0.026061 -0.940383 0.000000 
-0.106992 -0.872327 0.000000 
-0.054870 -0.880560 0.000000 
-0.028809 -0.834676 0.000000 
-0.186430 -0.808252 0.000000 
-0.137056 -0.810778 0.000000 
-0.114311 -0.757131 0.000000 
-0.058186 -0.772796 0.000000 
-0.029377 -0.732619 0.000000 
-0.265318 -0.745096 0.000000 
-0.217198 -0.745896 0.000000 
-0.196633 -0.688599 0.000000 
-0.143120 -0.697308 0.000000 
-0.116563 -0.650039 0.000000 
-0.058945 -0.669685 0.000000 
-0.029568 -0.631565 0.000000 
-0.344206 -0.681940 0.000000 
-0.296791 -0.681933 0.000000 
-0.278030 -0.621990 0.000000 
-0.225992 -0.627856 0.000000 
-0.201664 -0.575739 0.000000 
-0.145749 -0.589213 0.000000 
-0.117890 -0.544871 0.000000 
-0.059328 -0.567577 0.000000 
-0.029759 -0.530511 0.000000 
-0.058559 -0.981133 0.000000 
-0.162226 -1.001976 0.000000 
-0.123292 -0.966358 0.000000 
-0.142917 -0.917375 0.000000 
-0.261851 -1.024132 0.000000 
-0.229092 -0.987105 0.000000 
-0.256854 -0.935874 0.000000 
-0.209613 -0.901761 0.000000 
-0.223062 -0.854187 0.000000 
-0.360414 -1.046433 0.000000 
-0.329787 -1.009310 0.000000 
-0.361761 -0.957508 0.000000 
-0.321587 -0.921099 0.000000 
-0.341985 -0.870865 0.000000 
-0.290702 -0.838066 0.000000 
-0.302189 -0.791331 0.000000 
-0.458977 -1.068733 0.000000 
-0.429420 -1.031658 0.000000 
-0.464588 -0.979616 0.000000 
-0.427556 -0.942589 0.000000 
-0.453135 -0.891074 0.000000 
-0.407738 -0.855759 0.000000 
-0.425037 -0.806331 0.000000 
-0.370772 -0.774701 0.000000 
-0.381315 -0.728474 0.000000 
-0.046960 -1.031949 0.000000 
-0.095301 -1.125994 0.000000 
-0.098873 -1.073347 0.000000 
-0.149405 -1.058150 0.000000 
-0.140093 -1.217698 0.000000 
-0.148617 -1.169000 0.000000 
-0.205981 -1.158763 0.000000 
-0.203197 -1.100560 0.000000 
-0.248777 -1.081413 0.000000 
-0.184111 -1.308662 0.000000 
-0.194039 -1.261571 0.000000 
-0.254475 -1.254271 0.000000 
-0.257893 -1.200162 0.000000 
-0.309886 -1.184789 0.000000 
-0.303554 -1.124244 0.000000 
-0.347255 -1.104086 0.000000 
-0.228129 -1.399626 0.000000 
-0.238687 -1.353401 0.000000 
-0.301302 -1.348449 0.000000 
-0.307162 -1.296410 0.000000 
-0.363386 -1.284290 0.000000 
-0.362692 -1.226778 0.000000 
-0.412122 -1.209485 0.000000 
-0.403017 -1.147338 0.000000 
-0.445733 -1.126759 0.000000 
-0.000000 -1.054564 0.000000 
0.043388 -1.150994 0.000000 
-0.000000 -1.120962 0.000000 
-0.043388 -1.150994 0.000000 
0.087158 -1.243191 0.000000 
0.043769 -1.219492 0.000000 
-0.000000 -1.257958 0.000000 
-0.043769 -1.219492 0.000000 
-0.087158 -1.243191 0.000000 
0.130831 -1.334320 0.000000 
0.087824 -1.312722 0.000000 
0.044436 -1.355421 0.000000 
-0.000000 -1.324356 0.000000 
-0.044436 -1.355421 0.000000 
-0.087824 -1.312722 0.000000 
-0.130831 -1.334320 0.000000 
0.174505 -1.425450 0.000000 
0.131782 -1.404884 0.000000 
0.088871 -1.450751 0.000000 
0.044532 -1.422887 0.000000 
-0.000000 -1.459287 0.000000 
-0.044532 -1.422887 0.000000 
-0.088871 -1.450751 0.000000 
-0.131782 -1.404884 0.000000 
-0.174505 -1.425450 0.000000 
0.046960 -1.031949 0.000000 
0.149405 -1.058150 0.000000 
0.098873 -1.073347 0.000000 
0.095301 -1.125994 0.000000 
0.248777 -1.081413 0.000000 
0.203197 -1.100560 0.000000 
0.205981 -1.158763 0.000000 
0.148617 -1.169000 0.000000 
0.140093 -1.217698 0.000000 
0.347255 -1.104086 0.000000 
0.303554 -1.124244 0.000000 
0.309886 -1.184789 0.000000 
0.257893 -1.200162 0.000000 
0.254475 -1.254271 0.000000 
0.194039 -1.261571 0.000000 
0.184111 -1.308662 0.000000 
0.445733 -1.126759 0.000000 
0.403017 -1.147338 0.000000 
0.412122 -1.209485 0.000000 
0.362692 -1.226778 0.000000 
0.363386 -1.284290 0.000000 
0.307162 -1.296410 0.000000 
0.301302 -1.348449 0.000000 
0.238687 -1.353401 0.000000 
0.228129 -1.399626 0.000000 
0.058559 -0.981133 0.000000 
0.142917 -0.917375 0.000000 
0.123292 -0.966358 0.000000 
0.162226 -1.001976 0.000000 
0.223062 -0.854187 0.000000 
0.209613 -0.901761 0.000000 
0.256854 -0.935874 0.000000 
0.229092 -0.987105 0.000000 
0.261851 -1.024132 0.000000 
0.302189 -0.791331 0.000000 
0.290702 -0.838066 0.000000 
0.341985 -0.870865 0.000000 
0.321587 -0.921099 0.000000 
0.361761 -0.957508 0.000000 
0.329787 -1.009310 0.000000 
0.360414 -1.046433 0.000000 
0.381315 -0.728474 0.000000 
0.370772 -0.774701 0.000000 
0.425037 -0.806331 0.000000 
0.407738 -0.855759 0.000000 
0.453135 -0.891074 0.000000 
0.427556 -0.942589 0.000000 
0.464588 -0.979616 0.000000 
0.429420 -1.031658 0.000000 
0.458977 -1.068733 0.000000 
0.026061 -0.940383 0.000000 
0.028809 -0.834676 0.000000 
0.054870 -0.880560 0.000000 
0.106992 -0.872327 0.000000 
0.029377 -0.732619 0.000000 
0.058186 -0.772796 0.000000 
0.114311 -0.757131 0.000000 
0.137056 -0.810778 0.000000 
0.186430 -0.808252 0.000000 
0.029568 -0.631565 0.000000 
0.058945 -0.669685 0.000000 
0.116563 -0.650039 0.000000 
0.143120 -0.697308 0.000000 
0.196633 -0.688599 0.000000 
0.217198 -0.745896 0.000000 
0.265318 -0.745096 0.000000 
0.029759 -0.530511 0.000000 
0.059328 -0.567577 0.000000 
0.117890 -0.544871 0.000000 
0.145749 -0.589213 0.000000 
0.201664 -0.575739 0.000000 
0.225992 -0.627856 0.000000 
0.278030 -0.621990 0.000000 
0.296791 -0.681933 0.000000 
0.344206 -0.681940 0.000000 
VECTORS X_EC float 
0.338794 -0.804835 0.000000 
-0.609100 0.276417 0.000000 
0.713312 0.387558 0.000000 
0.374519 -0.231872 0.000000 
0.423588 -0.588602 0.000000 
-0.218274 -0.554499 0.000000 
-0.513962 0.721262 0.000000 
0.756418 0.932748 0.000000 
0.381900 0.390356 0.000000 
-0.550868 0.558794 0.000000 
0.823577 0.569590 0.000000 
0.556234 -0.203914 0.000000 
-0.139443 -0.086345 0.000000 
-0.484677 -0.724470 0.000000 
0.766286 -0.459255 0.000000 
0.384386 -0.973875 0.000000 
0.474677 -0.293809 0.000000 
-0.141715 -0.293905 0.000000 
-0.385608 0.896867 0.000000 
0.937896 0.976062 0.000000 
0.621631 0.272482 0.000000 
-0.105264 0.454381 0.000000 
-0.467428 -0.144245 0.000000 
0.771260 0.162283 0.000000 
0.386873 -0.338106 0.000000 
0.761262 -0.254700 0.000000 
0.108942 0.026676 0.000000 
-0.397202 -0.454163 0.000000 
-0.142083 0.884562 0.000000 
-0.595936 0.325787 0.000000 
0.978194 -0.174079 0.000000 
-0.660903 -0.865704 0.000000 
0.724964 0.673776 0.000000 
0.899809 0.031527 0.000000 
0.685384 0.626839 0.000000 
0.287229 0.125681 0.000000 
0.702895 -0.573648 0.000000 
0.180633 0.934833 0.000000 
0.445811 0.256674 0.000000 
-0.220880 -0.186112 0.000000 
-0.071546 -0.817038 0.000000 
-0.033296 0.927891 0.000000 
-0.417537 0.427382 0.000000 
0.039645 -0.275181 0.000000 
-0.441768 -0.775052 0.000000 
-0.109248 0.529497 0.000000 
-0.699407 0.052742 0.000000 
-0.474522 -0.614537 0.000000 
0.820030 0.958469 0.000000 
0.957100 0.334397 0.000000 
0.610485 0.431306 0.000000 
-0.761092 -0.299075 0.000000 
-0.714655 0.990188 0.000000 
-0.057734 0.785021 0.000000 
-0.178789 0.938930 0.000000 
-0.067979 0.281504 0.000000 
0.677748 0.143300 0.000000 
0.641556 -0.642445 0.000000 
-0.765897 -0.900924 0.000000 
0.393446 0.166939 0.000000 
0.522510 -0.468791 0.000000 
-0.691820 -0.567335 0.000000 
-0.647393 0.702182 0.000000 
0.028512 0.494655 0.000000 
-0.053800 -0.322705 0.000000 
0.514316 -0.594836 0.000000 
0.965681 -0.605052 0.000000 
-0.897068 0.770919 0.000000 
-0.083078 0.704066 0.000000 
-0.006893 0.001541 0.000000 
0.724017 -0.162092 0.000000 
0.714996 -0.938495 0.000000 
-0.642413 0.828048 0.000000 
-0.760780 -0.010933 0.000000 
-0.205471 -0.288748 0.000000 
0.000000 0.736608 0.000000 
-0.564049 0.038421 0.000000 
0.000000 -0.367015 0.000000 
0.564049 0.038421 0.000000 
0.866949 -0.716924 0.000000 
-0.569003 0.963145 0.000000 
0.000000 -0.517567 0.000000 
0.569003 0.963145 0.000000 
-0.866949 -0.716924 0.000000 
0.299194 0.513326 0.000000 
0.858290 0.221742 0.000000 
-0.577662 0.798188 0.000000 
0.000000 0.378810 0.000000 
0.577662 0.798188 0.000000 
-0.858290 0.221742 0.000000 
-0.299194 0.513326 0.000000 
-0.268560 -0.256424 0.000000 
0.286830 -0.534066 0.000000 
0.844677 0.085133 0.000000 
-0.578910 -0.291030 0.000000 
0.000000 0.200374 0.000000 
0.578910 -0.291030 0.000000 
-0.844677 0.085133 0.000000 
-0.286830 -0.534066 0.000000 
0.268560 -0.256424 0.000000 
-0.610485 0.431306 0.000000 
0.057734 0.785021 0.000000 
0.714655 0.990188 0.000000 
0.761092 -0.299075 0.000000 
0.765897 -0.900924 0.000000 
-0.641556 -0.642445 0.000000 
-0.677748 0.143300 0.000000 
0.067979 0.281504 0.000000 
0.178789 0.938930 0.000000 
-0.514316 -0.594836 0.000000 
0.053800 -0.322705 0.000000 
-0.028512 0.494655 0.000000 
0.647393 0.702182 0.000000 
0.691820 -0.567335 0.000000 
-0.522510 -0.468791 0.000000 
-0.393446 0.166939 0.000000 
0.205471 -0.288748 0.000000 
0.760780 -0.010933 0.000000 
0.642413 0.828048 0.000000 
-0.714996 -0.938495 0.000000 
-0.724017 -0.162091 0.000000 
0.006894 0.001541 0.000000 
0.083078 0.704066 0.000000 
0.897068 0.770919 0.000000 
-0.965681 -0.605052 0.000000 
-0.761262 -0.254700 0.000000 
0.142083 0.884562 0.000000 
0.397202 -0.454163 0.000000 
-0.108942 0.026676 0.000000 
-0.899809 0.031527 0.000000 
-0.724964 0.673776 0.000000 
0.660903 -0.865704 0.000000 
-0.978194 -0.174079 0.000000 
0.595936 0.325787 0.000000 
0.071546 -0.817038 0.000000 
0.220880 -0.186112 0.000000 
-0.445811 0.256674 0.000000 
-0.180633 0.934833 0.000000 
-0.702895 -0.573648 0.000000 
-0.287229 0.125681 0.000000 
-0.685384 0.626839 0.000000 
-0.957100 0.334397 0.000000 
-0.820030 0.958469 0.000000 
0.474522 -0.614537 0.000000 
0.699407 0.052742 0.000000 
0.109248 0.529497 0.000000 
0.441768 -0.775052 0.000000 
-0.039645 -0.275181 0.000000 
0.417537 0.427382 0.000000 
0.033296 0.927891 0.000000 
-0.338794 -0.804835 0.000000 
-0.374519 -0.231872 0.000000 
-0.713312 0.387558 0.000000 
0.609100 0.276417 0.000000 
-0.381900 0.390356 0.000000 
-0.756418 0.932748 0.000000 
0.513962 0.721262 0.000000 
0.218274 -0.554499 0.000000 
-0.423588 -0.588602 0.000000 
-0.384386 -0.973875 0.000000 
-0.766286 -0.459255 0.000000 
0.484677 -0.724470 0.000000 
0.139443 -0.086345 0.000000 
-0.556234 -0.203914 0.000000 
-0.823577 0.569590 0.000000 
0.550868 0.558794 0.000000 
-0.386873 -0.338106 0.000000 
-0.771260 0.162283 0.000000 
0.467428 -0.144245 0.000000 
0.105264 0.454381 0.000000 
-0.621631 0.272482 0.000000 
-0.937896 0.976062 0.000000 
0.385608 0.896867 0.000000 
0.141715 -0.293905 0.000000 
-0.474677 -0.293809 0.000000 
CELL_DATA 175 
SCALARS MASS float 
LOOKUP_TABLE default 
0.078183 
0.086427 
0.094672 
0.086427 
0.088131 
0.092111 
0.085854 
0.092111 
0.088131 
0.088705 
0.091000 
0.086983 
0.091556 
0.086983 
0.091000 
0.088705 
0.089278 
0.091574 
0.089278 
0.092722 
0.089278 
0.092722 
0.089278 
0.091574 
0.089278 
0.078183 
0.086427 
0.094672 
0.086427 
0.088131 
0.092111 
0.085854 
0.092111 
0.088131 
0.088705 
0.091000 
0.086983 
0.091556 
0.086983 
0.091000 
0.088705 
0.089278 
0.091574 
0.089278 
0.092722 
0.089278 
0.092722 
0.089278 
0.091574 
0.089278 
0.078183 
0.086427 
0.094672 
0.086427 
0.088131 
0.092111 
0.085854 
0.092111 
0.088131 
0.088705 
0.091000 
0.086983 
0.091556 
0.086983 
0.091000 
0.088705 
0.089278 
0.091574 
0.089278 
0.092722 
0.089278 
0.092722 
0.089278 
0.091574 
0.089278 
0.078183 
0.086427 
0.094672 
0.086427 
0.088131 
0.092111 
0.085854 
0.092111 
0.088131 
0.088705 
0.091000 
0.086983 
0.091556 
0.086983 
0.091000 
0.088705 
0.089278 
0.091574 
0.089278 
0.092722 
0.089278 
0.092722 
0.089278 
0.091574 
0.089278 
0.078183 
0.086427 
0.094672 
0.086427 
0.088131 
0.092111 
0.085854 
0.092111 
0.088131 
0.088705 
0.091000 
0.086983 
0.091556 
0.086983 
0.091000 
0.088705 
0.089278 
0.091574 
0.089278 
0.092722 
0.089278 
0.092722 
0.089278 
0.091574 
0.089278 
0.078183 
0.086427 
0.094672 
0.086427 
0.088131 
0.092111 
0.085854 
0.092111 
0.088131 
0.088705 
0.091000 
0.086983 
0.091556 
0.086983 
0.091000 
0.088705 
0.089278 
0.091574 
0.089278 
0.092722 
0.089278 
0.092722 
0.089278 
0.091574 
0.089278 
0.078183 
0.086427 
0.094672 
0.086427 
0.088131 
0.092111 
0.085854 
0.092111 
0.088131 
0.088705 
0.091000 
0.086983 
0.091556 
0.086983 
0.091000 
0.088705 
0.089278 
0.091574 
0.089278 
0.092722 
0.089278 
0.092722 
0.089278 
0.091574 
0.089278 
SCALARS MASS float 
LOOKUP_TABLE default 
0.078183 
0.086427 
0.094672 
0.086427 
0.088131 
0.092111 
0.085854 
0.092111 
0.088131 
0.088705 
0.091000 
0.086983 
0.091556 
0.086983 
0.091000 
0.088705 
0.089278 
0.091574 
0.089278 
0.092722 
0.089278 
0.092722 
0.089278 
0.091574 
0.089278 
0.078183 
0.086427 
0.094672 
0.086427 
0.088131 
0.092111 
0.085854 
0.092111 
0.088131 
0.088705 
0.091000 
0.086983 
0.091556 
0.086983 
0.091000 
0.088705 
0.089278 
0.091574 
0.089278 
0.092722 
0.089278 
0.092722 
0.089278 
0.091574 
0.089278 
0.078183 
0.086427 
0.094672 
0.086427 
0.088131 
0.092111 
0.085854 
0.092111 
0.088131 
0.088705 
0.091000 
0.086983 
0.091556 
0.086983 
0.091000 
0.088705 
0.089278 
0.091574 
0.089278 
0.092722 
0.089278 
0.092722 
0.089278 
0.091574 
0.089278 
0.078183 
0.086427 
0.094672 
0.086427 
0.088131 
0.092111 
0.085854 
0.092111 
0.088131 
0.088705 
0.091000 
0.086983 
0.091556 
0.086983 
0.091000 
0.088705 
0.089278 
0.091574 
0.089278 
0.092722 
0.089278 
0.092722 
0.089278 
0.091574 
0.089278 
0.078183 
0.086427 
0.094672 
0.086427 
0.088131 
0.092111 
0.085854 
0.092111 
0.088131 
0.088705 
0.091000 
0.086983 
0.091556 
0.086983 
0.091000 
0.088705 
0.089278 
0.091574 
0.089278 
0.092722 
0.089278 
0.092722 
0.089278 
0.091574 
0.089278 
0.078183 
0.086427 
0.094672 
0.086427 
0.088131 
0.092111 
0.085854 
0.092111 
0.088131 
0.088705 
0.091000 
0.086983 
0.091556 
0.086983 
0.091000 
0.088705 
0.089278 
0.091574 
0.089278 
0.092722 
0.089278 
0.092722 
0.089278 
0.091574 
0.089278 
0.078183 
0.086427 
0.094672 
0.086427 
0.088131 
0.092111 
0.085854 
0.092111 
0.088131 
0.088705 
0.091000 
0.086983 
0.091556 
0.086983 
0.091000 
0.088705 
0.089278 
0.091574 
0.089278 
0.092722 
0.089278 
0.092722 
0.089278 
0.091574 
0.089278 
SCALARS DENSITY float 
LOOKUP_TABLE default 
20.000000 
20.000000 
20.000000 
20.000000 
20.000000 
20.000000 
20.000000 
20.000000 
20.000000 
20.000000 
20.000000 
20.000000 
20.000000 
20.000000 
20.000000 
20.000000 
20.000000 
20.000000 
20.000000 
20.000000 
20.000000 
20.000000 
20.000000 
20.000000 
20.000000 
20.000000 
20.000000 
20.000000 
20.000000 
20.000000 
20.000000 
20.000000 
20.000000 
20.000000 
20.000000 
20.000000 
20.000000 
20.000000 
20.000000 
20.000000 
20.000000 
20.000000 
20.000000 
20.000000 
20.000000 
20.000000 
20.000000 
20.000000 
20.000000 
20.000000 
20.000000 
20.000000 
20.000000 
20.000000 
20.000000 
20.000000 
20.000000 
20.000000 
20.000000 
20.000000 
20.000000 
20.000000 
20.000000 
20.000000 
20.000000 
20.000000 
20.000000 
20.000000 
20.000000 
20.000000 
20.000000 
20.000000 
20.000000 
20.000000 
20.000000 
20.000000 
20.000000 
20.000000 
20.000000 
20.000000 
20.000000 
20.000000 
20.000000 
20.000000 
20.000000 
20.000000 
20.000000 
20.000000 
20.000000 
20.000000 
20.000000 
20.000000 
20.000000 
20.000000 
20.000000 
20.000000 
20.000000 
20.000000 
20.000000 
20.000000 
20.000000 
20.000000 
20.000000 
20.000000 
20.000000 
20.000000 
20.000000 
20.000000 
20.000000 
20.000000 
20.000000 
20.000000 
20.000000 
20.000000 
20.000000 
20.000000 
20.000000 
20.000000 
20.000000 
20.000000 
20.000000 
20.000000 
20.000000 
20.000000 
20.000000 
20.000000 
20.000000 
20.000000 
20.000000 
20.000000 
20.000000 
20.000000 
20.000000 
20.000000 
20.000000 
20.000000 
20.000000 
20.000000 
20.000000 
20.000000 
20.000000 
20.000000 
20.000000 
20.000000 
20.000000 
20.000000 
20.000000 
20.000000 
20.000000 
20.000000 
20.000000 
20.000000 
20.000000 
20.000000 
20.000000 
20.000000 
20.000000 
20.000000 
20.000000 
20.000000 
20.000000 
20.000000 
20.000000 
20.000000 
20.000000 
20.000000 
20.000000 
20.000000 
20.000000 
20.000000 
20.000000 
20.000000 
20.000000 
20.000000 
20.000000 
SCALARS ELEM_i float 
LOOKUP_TABLE default 
175 
203 
176 
176 
203 
203 
204 
177 
177 
231 
204 
204 
204 
204 
177 
177 
231 
231 
232 
205 
205 
205 
205 
178 
178 
175 
202 
202 
203 
229 
202 
229 
203 
203 
229 
229 
229 
230 
230 
230 
230 
256 
256 
256 
256 
257 
257 
257 
231 
231 
175 
201 
202 
202 
201 
201 
201 
201 
228 
200 
200 
227 
228 
228 
228 
228 
199 
227 
227 
227 
227 
227 
255 
255 
255 
175 
174 
174 
174 
146 
174 
173 
174 
200 
146 
146 
173 
173 
173 
200 
200 
145 
145 
145 
172 
172 
172 
199 
199 
199 
175 
148 
148 
147 
120 
147 
147 
147 
147 
120 
120 
120 
120 
119 
146 
146 
93 
93 
93 
119 
119 
119 
119 
119 
145 
175 
149 
148 
148 
149 
149 
121 
148 
121 
122 
122 
122 
122 
121 
121 
121 
123 
123 
95 
95 
95 
94 
94 
94 
94 
175 
176 
176 
149 
177 
177 
150 
149 
149 
177 
177 
150 
150 
150 
150 
123 
178 
178 
151 
151 
151 
151 
124 
123 
123 
VECTORS VELOCITY float 
-0.000000 -4.416854 0.000000 
-0.000000 -4.416854 0.000000 
-0.000000 -4.416854 0.000000 
-0.000000 -4.416854 0.000000 
0.000000 -4.416854 0.000000 
0.000000 -4.416854 0.000000 
0.000000 -4.416854 0.000000 
0.000000 -4.416854 0.000000 
0.000000 -4.416854 0.000000 
-0.000000 -4.416854 0.000000 
-0.000000 -4.416854 0.000000 
0.000000 -4.416854 0.000000 
0.000000 -4.416854 0.000000 
-0.000000 -4.416854 0.000000 
0.000000 -4.416854 0.000000 
0.000000 -4.416854 0.000000 
-0.000000 -4.416854 0.000000 
-0.000000 -4.416854 0.000000 
-0.000000 -4.416854 0.000000 
0.000000 -4.416854 0.000000 
0.000000 -4.416854 0.000000 
-0.000000 -4.416854 0.000000 
-0.000000 -4.416854 0.000000 
0.000000 -4.416854 0.000000 
-0.000000 -4.416854 0.000000 
0.000000 -4.416854 0.000000 
-0.000000 -4.416854 0.000000 
-0.000000 -4.416854 0.000000 
-0.000000 -4.416854 0.000000 
0.000000 -4.416854 0.000000 
-0.000000 -4.416854 0.000000 
-0.000000 -4.416854 0.000000 
-0.000000 -4.416854 0.000000 
-0.000000 -4.416854 0.000000 
0.000000 -4.416854 0.000000 
0.000000 -4.416854 0.000000 
-0.000000 -4.416854 0.000000 
-0.000000 -4.416854 0.000000 
0.000000 -4.416854 0.000000 
0.000000 -4.416854 0.000000 
0.000000 -4.416854 0.000000 
-0.000000 -4.416854 0.000000 
0.000000 -4.416854 0.000000 
0.000000 -4.416854 0.000000 
-0.000000 -4.416854 0.000000 
-0.000000 -4.416854 0.000000 
-0.000000 -4.416854 0.000000 
0.000000 -4.416854 0.000000 
0.000000 -4.416854 0.000000 
0.000000 -4.416854 0.000000 
0.000000 -4.416854 0.000000 
0.000000 -4.416854 0.000000 
-0.000000 -4.416854 0.000000 
0.000000 -4.416854 0.000000 
0.000000 -4.416854 0.000000 
0.000000 -4.416854 0.000000 
-0.000000 -4.416854 0.000000 
-0.000000 -4.416854 0.000000 
0.000000 -4.416854 0.000000 
-0.000000 -4.416854 0.000000 
0.000000 -4.416854 0.000000 
0.000000 -4.416854 0.000000 
-0.000000 -4.416854 0.000000 
-0.000000 -4.416854 0.000000 
-0.000000 -4.416854 0.000000 
0.000000 -4.416854 0.000000 
-0.000000 -4.416854 0.000000 
-0.000000 -4.416854 0.000000 
-0.000000 -4.416854 0.000000 
-0.000000 -4.416854 0.000000 
0.000000 -4.416854 0.000000 
0.000000 -4.416854 0.000000 
-0.000000 -4.416854 0.000000 
-0.000000 -4.416854 0.000000 
-0.000000 -4.416854 0.000000 
0.000000 -4.416854 0.000000 
-0.000000 -4.416854 0.000000 
-0.000000 -4.416854 0.000000 
0.000000 -4.416854 0.000000 
-0.000000 -4.416854 0.000000 
0.000000 -4.416854 0.000000 
0.000000 -4.416854 0.000000 
0.000000 -4.416854 0.000000 
0.000000 -4.416854 0.000000 
0.000000 -4.416854 0.000000 
0.000000 -4.416854 0.000000 
-0.000000 -4.416854 0.000000 
-0.000000 -4.416854 0.000000 
-0.000000 -4.416854 0.000000 
-0.000000 -4.416854 0.000000 
-0.000000 -4.416854 0.000000 
0.000000 -4.416854 0.000000 
0.000000 -4.416854 0.000000 
0.000000 -4.416854 0.000000 
0.000000 -4.416854 0.000000 
0.000000 -4.416854 0.000000 
0.000000 -4.416854 0.000000 
-0.000000 -4.416854 0.000000 
-0.000000 -4.416854 0.000000 
-0.000000 -4.416854 0.000000 
0.000000 -4.416854 0.000000 
-0.000000 -4.416854 0.000000 
-0.000000 -4.416854 0.000000 
-0.000000 -4.416854 0.000000 
0.000000 -4.416854 0.000000 
0.000000 -4.416854 0.000000 
0.000000 -4.416854 0.000000 
-0.000000 -4.416854 0.000000 
-0.000000 -4.416854 0.000000 
-0.000000 -4.416854 0.000000 
-0.000000 -4.416854 0.000000 
-0.000000 -4.416854 0.000000 
-0.000000 -4.416854 0.000000 
-0.000000 -4.416854 0.000000 
-0.000000 -4.416854 0.000000 
-0.000000 -4.416854 0.000000 
0.000000 -4.416854 0.000000 
-0.000000 -4.416854 0.000000 
-0.000000 -4.416854 0.000000 
-0.000000 -4.416854 0.000000 
-0.000000 -4.416854 0.000000 
-0.000000 -4.416854 0.000000 
-0.000000 -4.416854 0.000000 
0.000000 -4.416854 0.000000 
0.000000 -4.416854 0.000000 
0.000000 -4.416854 0.000000 
0.000000 -4.416854 0.000000 
0.000000 -4.416854 0.000000 
0.000000 -4.416854 0.000000 
0.000000 -4.416854 0.000000 
0.000000 -4.416854 0.000000 
-0.000000 -4.416854 0.000000 
-0.000000 -4.416854 0.000000 
0.000000 -4.416854 0.000000 
0.000000 -4.416854 0.000000 
-0.000000 -4.416854 0.000000 
-0.000000 -4.416854 0.000000 
-0.000000 -4.416854 0.000000 
0.000000 -4.416854 0.000000 
-0.000000 -4.416854 0.000000 
0.000000 -4.416854 0.000000 
-0.000000 -4.416854 0.000000 
-0.000000 -4.416854 0.000000 
-0.000000 -4.416854 0.000000 
-0.000000 -4.416854 0.000000 
-0.000000 -4.416854 0.000000 
0.000000 -4.416854 0.000000 
-0.000000 -4.416854 0.000000 
-0.000000 -4.416854 0.000000 
0.000000 -4.416854 0.000000 
0.000000 -4.416854 0.000000 
0.000000 -4.416854 0.000000 
0.000000 -4.416854 0.000000 
-0.000000 -4.416854 0.000000 
0.000000 -4.416854 0.000000 
0.000000 -4.416854 0.000000 
0.000000 -4.416854 0.000000 
0.000000 -4.416854 0.000000 
0.000000 -4.416854 0.000000 
0.000000 -4.416854 0.000000 
0.000000 -4.416854 0.000000 
0.000000 -4.416854 0.000000 
-0.000000 -4.416854 0.000000 
-0.000000 -4.416854 0.000000 
0.000000 -4.416854 0.000000 
0.000000 -4.416854 0.000000 
-0.000000 -4.416854 0.000000 
0.000000 -4.416854 0.000000 
-0.000000 -4.416854 0.000000 
0.000000 -4.416854 0.000000 
0.000000 -4.416854 0.000000 
0.000000 -4.416854 0.000000 
0.000000 -4.416854 0.000000 
0.000000 -4.416854 0.000000 
0.000000 -4.416854 0.000000 
TENSORS STRESS float 
-0.000000 0.000000 0.000000 
0.000000 -0.000000 0.000000 
0.000000 0.000000 0.000000 

0.000000 -0.000000 0.000000 
0.000000 0.000000 0.000000 
0.000000 0.000000 0.000000 

0.000000 -0.000000 0.000000 
0.000000 0.000000 0.000000 
0.000000 0.000000 0.000000 

0.000000 0.000000 0.000000 
0.000000 0.000000 0.000000 
0.000000 0.000000 0.000000 

0.000000 0.000000 0.000000 
0.000000 0.000000 0.000000 
0.000000 0.000000 0.000000 

0.000000 0.000000 0.000000 
0.000000 0.000000 0.000000 
0.000000 0.000000 0.000000 

-0.000000 0.000000 0.000000 
0.000000 -0.000000 0.000000 
0.000000 0.000000 0.000000 

-0.000000 -0.000000 0.000000 
0.000000 -0.000000 0.000000 
0.000000 0.000000 0.000000 

-0.000000 0.000000 0.000000 
0.000000 -0.000000 0.000000 
0.000000 0.000000 0.000000 

0.000000 0.000000 0.000000 
0.000000 0.000000 0.000000 
0.000000 0.000000 0.000000 

-0.000000 -0.000000 0.000000 
0.000000 -0.000000 0.000000 
0.000000 0.000000 0.000000 

0.000000 0.000000 0.000000 
0.000000 0.000000 0.000000 
0.000000 0.000000 0.000000 

0.000000 -0.000000 0.000000 
0.000000 0.000000 0.000000 
0.000000 0.000000 0.000000 

-0.000000 -0.000000 0.000000 
0.000000 -0.000000 0.000000 
0.000000 0.000000 0.000000 

-0.000000 -0.000000 0.000000 
0.000000 -0.000000 0.000000 
0.000000 0.000000 0.000000 

-0.000000 -0.000000 0.000000 
0.000000 0.000000 0.000000 
0.000000 0.000000 0.000000 

0.000000 -0.000000 0.000000 
0.000000 0.000000 0.000000 
0.000000 0.000000 0.000000 

0.000000 0.000000 0.000000 
0.000000 0.000000 0.000000 
0.000000 0.000000 0.000000 

-0.000000 -0.000000 0.000000 
0.000000 -0.000000 0.000000 
0.000000 0.000000 0.000000 

-0.000000 -0.000000 0.000000 
0.000000 -0.000000 0.000000 
0.000000 0.000000 0.000000 

0.000000 0.000000 0.000000 
0.000000 0.000000 0.000000 
0.000000 0.000000 0.000000 

0.000000 -0.000000 0.000000 
0.000000 0.000000 0.000000 
0.000000 0.000000 0.000000 

-0.000000 0.000000 0.000000 
0.000000 -0.000000 0.000000 
0.000000 0.000000 0.000000 

-0.000000 0.000000 0.000000 
0.000000 -0.000000 0.000000 
0.000000 0.000000 0.000000 

-0.000000 0.000000 0.000000 
0.000000 -0.000000 0.000000 
0.000000 0.000000 0.000000 

0.000000 0.000000 0.000000 
0.000000 0.000000 0.000000 
0.000000 0.000000 0.000000 

0.000000 -0.000000 0.000000 
0.000000 0.000000 0.000000 
0.000000 0.000000 0.000000 

0.000000 -0.000000 0.000000 
0.000000 0.000000 0.000000 
0.000000 0.000000 0.000000 

0.000000 -0.000000 0.000000 
0.000000 -0.000000 0.000000 
0.000000 0.000000 0.000000 

0.000000 -0.000000 0.000000 
0.000000 0.000000 0.000000 
0.000000 0.000000 0.000000 

0.000000 -0.000000 0.000000 
0.000000 0.000000 0.000000 
0.000000 0.000000 0.000000 

-0.000000 -0.000000 0.000000 
0.000000 -0.000000 0.000000 
0.000000 0.000000 0.000000 

0.000000 -0.000000 0.000000 
0.000000 0.000000 0.000000 
0.000000 0.000000 0.000000 

0.000000 -0.000000 0.000000 
0.000000 -0.000000 0.000000 
0.000000 0.000000 0.000000 

-0.000000 -0.000000 0.000000 
0.000000 -0.000000 0.000000 
0.000000 0.000000 0.000000 

-0.000000 0.000000 0.000000 
0.000000 0.000000 0.000000 
0.000000 0.000000 0.000000 

-0.000000 -0.000000 0.000000 
0.000000 -0.000000 0.000000 
0.000000 0.000000 0.000000 

-0.000000 0.000000 0.000000 
0.000000 -0.000000 0.000000 
0.000000 0.000000 0.000000 

-0.000000 -0.000000 0.000000 
0.000000 0.000000 0.000000 
0.000000 0.000000 0.000000 

-0.000000 0.000000 0.000000 
0.000000 -0.000000 0.000000 
0.000000 0.000000 0.000000 

-0.000000 0.000000 0.000000 
0.000000 0.000000 0.000000 
0.000000 0.000000 0.000000 

-0.000000 -0.000000 0.000000 
0.000000 -0.000000 0.000000 
0.000000 0.000000 0.000000 

0.000000 -0.000000 0.000000 
0.000000 0.000000 0.000000 
0.000000 0.000000 0.000000 

-0.000000 -0.000000 0.000000 
0.000000 -0.000000 0.000000 
0.000000 0.000000 0.000000 

0.000000 0.000000 0.000000 
0.000000 -0.000000 0.000000 
0.000000 0.000000 0.000000 

0.000000 -0.000000 0.000000 
0.000000 0.000000 0.000000 
0.000000 0.000000 0.000000 

0.000000 -0.000000 0.000000 
0.000000 0.000000 0.000000 
0.000000 0.000000 0.000000 

-0.000000 0.000000 0.000000 
0.000000 0.000000 0.000000 
0.000000 0.000000 0.000000 

-0.000000 -0.000000 0.000000 
0.000000 -0.000000 0.000000 
0.000000 0.000000 0.000000 

0.000000 -0.000000 0.000000 
0.000000 -0.000000 0.000000 
0.000000 0.000000 0.000000 

0.000000 -0.000000 0.000000 
0.000000 0.000000 0.000000 
0.000000 0.000000 0.000000 

0.000000 0.000000 0.000000 
0.000000 -0.000000 0.000000 
0.000000 0.000000 0.000000 

0.000000 -0.000000 0.000000 
0.000000 0.000000 0.000000 
0.000000 0.000000 0.000000 

0.000000 0.000000 0.000000 
0.000000 0.000000 0.000000 
0.000000 0.000000 0.000000 

-0.000000 0.000000 0.000000 
0.000000 -0.000000 0.000000 
0.000000 0.000000 0.000000 

0.000000 -0.000000 0.000000 
0.000000 -0.000000 0.000000 
0.000000 0.000000 0.000000 

0.000000 0.000000 0.000000 
0.000000 0.000000 0.000000 
0.000000 0.000000 0.000000 

-0.000000 0.000000 0.000000 
0.000000 -0.000000 0.000000 
0.000000 0.000000 0.000000 

0.000000 0.000000 0.000000 
0.000000 -0.000000 0.000000 
0.000000 0.000000 0.000000 

-0.000000 -0.000000 0.000000 
0.000000 0.000000 0.000000 
0.000000 0.000000 0.000000 

-0.000000 0.000000 0.000000 
0.000000 0.000000 0.000000 
0.000000 0.000000 0.000000 

0.000000 0.000000 0.000000 
0.000000 0.000000 0.000000 
0.000000 0.000000 0.000000 

-0.000000 0.000000 0.000000 
0.000000 -0.000000 0.000000 
0.000000 0.000000 0.000000 

-0.000000 -0.000000 0.000000 
0.000000 0.000000 0.000000 
0.000000 0.000000 0.000000 

0.000000 -0.000000 0.000000 
0.000000 -0.000000 0.000000 
0.000000 0.000000 0.000000 

-0.000000 0.000000 0.000000 
0.000000 -0.000000 0.000000 
0.000000 0.000000 0.000000 

-0.000000 0.000000 0.000000 
0.000000 0.000000 0.000000 
0.000000 0.000000 0.000000 

0.000000 0.000000 0.000000 
0.000000 -0.000000 0.000000 
0.000000 0.000000 0.000000 

-0.000000 -0.000000 0.000000 
0.000000 -0.000000 0.000000 
0.000000 0.000000 0.000000 

0.000000 -0.000000 0.000000 
0.000000 0.000000 0.000000 
0.000000 0.000000 0.000000 

0.000000 0.000000 0.000000 
0.000000 -0.000000 0.000000 
0.000000 0.000000 0.000000 

-0.000000 -0.000000 0.000000 
0.000000 -0.000000 0.000000 
0.000000 0.000000 0.000000 

0.000000 -0.000000 0.000000 
0.000000 0.000000 0.000000 
0.000000 0.000000 0.000000 

-0.000000 -0.000000 0.000000 
0.000000 -0.000000 0.000000 
0.000000 0.000000 0.000000 

-0.000000 -0.000000 0.000000 
0.000000 -0.000000 0.000000 
0.000000 0.000000 0.000000 

0.000000 -0.000000 0.000000 
0.000000 0.000000 0.000000 
0.000000 0.000000 0.000000 

0.000000 0.000000 0.000000 
0.000000 0.000000 0.000000 
0.000000 0.000000 0.000000 

0.000000 -0.000000 0.000000 
0.000000 -0.000000 0.000000 
0.000000 0.000000 0.000000 

0.000000 -0.000000 0.000000 
0.000000 0.000000 0.000000 
0.000000 0.000000 0.000000 

-0.000000 0.000000 0.000000 
0.000000 0.000000 0.000000 
0.000000 0.000000 0.000000 

0.000000 -0.000000 0.000000 
0.000000 0.000000 0.000000 
0.000000 0.000000 0.000000 

0.000000 0.000000 0.000000 
0.000000 -0.000000 0.000000 
0.000000 0.000000 0.000000 

0.000000 0.000000 0.000000 
0.000000 -0.000000 0.000000 
0.000000 0.000000 0.000000 

-0.000000 0.000000 0.000000 
0.000000 -0.000000 0.000000 
0.000000 0.000000 0.000000 

-0.000000 0.000000 0.000000 
0.000000 -0.000000 0.000000 
0.000000 0.000000 0.000000 

0.000000 0.000000 0.000000 
0.000000 0.000000 0.000000 
0.000000 0.000000 0.000000 

0.000000 -0.000000 0.000000 
0.000000 0.000000 0.000000 
0.000000 0.000000 0.000000 

0.000000 -0.000000 0.000000 
0.000000 -0.000000 0.000000 
0.000000 0.000000 0.000000 

0.000000 0.000000 0.000000 
0.000000 0.000000 0.000000 
0.000000 0.000000 0.000000 

-0.000000 0.000000 0.000000 
0.000000 0.000000 0.000000 
0.000000 0.000000 0.000000 

-0.000000 -0.000000 0.000000 
0.000000 0.000000 0.000000 
0.000000 0.000000 0.000000 

0.000000 0.000000 0.000000 
0.000000 0.000000 0.000000 
0.000000 0.000000 0.000000 

-0.000000 0.000000 0.000000 
0.000000 -0.000000 0.000000 
0.000000 0.000000 0.000000 

0.000000 -0.000000 0.000000 
0.000000 0.000000 0.000000 
0.000000 0.000000 0.000000 

-0.000000 0.000000 0.000000 
0.000000 -0.000000 0.000000 
0.000000 0.000000 0.000000 

-0.000000 -0.000000 0.000000 
0.000000 -0.000000 0.000000 
0.000000 0.000000 0.000000 

-0.000000 0.000000 0.000000 
0.000000 -0.000000 0.000000 
0.000000 0.000000 0.000000 

-0.000000 -0.000000 0.000000 
0.000000 -0.000000 0.000000 
0.000000 0.000000 0.000000 

-0.000000 -0.000000 0.000000 
0.000000 0.000000 0.000000 
0.000000 0.000000 0.000000 

0.000000 0.000000 0.000000 
0.000000 0.000000 0.000000 
0.000000 0.000000 0.000000 

-0.000000 -0.000000 0.000000 
0.000000 -0.000000 0.000000 
0.000000 0.000000 0.000000 

-0.000000 0.000000 0.000000 
0.000000 -0.000000 0.000000 
0.000000 0.000000 0.000000 

-0.000000 0.000000 0.000000 
0.000000 -0.000000 0.000000 
0.000000 0.000000 0.000000 

-0.000000 -0.000000 0.000000 
0.000000 0.000000 0.000000 
0.000000 0.000000 0.000000 

-0.000000 0.000000 0.000000 
0.000000 -0.000000 0.000000 
0.000000 0.000000 0.000000 

-0.000000 -0.000000 0.000000 
0.000000 -0.000000 0.000000 
0.000000 0.000000 0.000000 

-0.000000 0.000000 0.000000 
0.000000 -0.000000 0.000000 
0.000000 0.000000 0.000000 

-0.000000 -0.000000 0.000000 
0.000000 -0.000000 0.000000 
0.000000 0.000000 0.000000 

0.000000 -0.000000 0.000000 
0.000000 0.000000 0.000000 
0.000000 0.000000 0.000000 

-0.000000 0.000000 0.000000 
0.000000 -0.000000 0.000000 
0.000000 0.000000 0.000000 

-0.000000 -0.000000 0.000000 
0.000000 -0.000000 0.000000 
0.000000 0.000000 0.000000 

-0.000000 -0.000000 0.000000 
0.000000 -0.000000 0.000000 
0.000000 0.000000 0.000000 

-0.000000 0.000000 0.000000 
0.000000 -0.000000 0.000000 
0.000000 0.000000 0.000000 

0.000000 -0.000000 0.000000 
0.000000 0.000000 0.000000 
0.000000 0.000000 0.000000 

0.000000 0.000000 0.000000 
0.000000 0.000000 0.000000 
0.000000 0.000000 0.000000 

0.000000 0.000000 0.000000 
0.000000 0.000000 0.000000 
0.000000 0.000000 0.000000 

0.000000 -0.000000 0.000000 
0.000000 0.000000 0.000000 
0.000000 0.000000 0.000000 

0.000000 0.000000 0.000000 
0.000000 -0.000000 0.000000 
0.000000 0.000000 0.000000 

0.000000 0.000000 0.000000 
0.000000 0.000000 0.000000 
0.000000 0.000000 0.000000 

-0.000000 0.000000 0.000000 
0.000000 0.000000 0.000000 
0.000000 0.000000 0.000000 

-0.000000 0.000000 0.000000 
0.000000 -0.000000 0.000000 
0.000000 0.000000 0.000000 

0.000000 0.000000 0.000000 
0.000000 0.000000 0.000000 
0.000000 0.000000 0.000000 

-0.000000 0.000000 0.000000 
0.000000 -0.000000 0.000000 
0.000000 0.000000 0.000000 

0.000000 -0.000000 0.000000 
0.000000 0.000000 0.000000 
0.000000 0.000000 0.000000 

0.000000 0.000000 0.000000 
0.000000 0.000000 0.000000 
0.000000 0.000000 0.000000 

-0.000000 -0.000000 0.000000 
0.000000 -0.000000 0.000000 
0.000000 0.000000 0.000000 

0.000000 -0.000000 0.000000 
0.000000 0.000000 0.000000 
0.000000 0.000000 0.000000 

0.000000 -0.000000 0.000000 
0.000000 0.000000 0.000000 
0.000000 0.000000 0.000000 

-0.000000 0.000000 0.000000 
0.000000 -0.000000 0.000000 
0.000000 0.000000 0.000000 

-0.000000 0.000000 0.000000 
0.000000 -0.000000 0.000000 
0.000000 0.000000 0.000000 

0.000000 0.000000 0.000000 
0.000000 0.000000 0.000000 
0.000000 0.000000 0.000000 

0.000000 -0.000000 0.000000 
0.000000 -0.000000 0.000000 
0.000000 0.000000 0.000000 

0.000000 0.000000 0.000000 
0.000000 0.000000 0.000000 
0.000000 0.000000 0.000000 

0.000000 0.000000 0.000000 
0.000000 0.000000 0.000000 
0.000000 0.000000 0.000000 

0.000000 0.000000 0.000000 
0.000000 0.000000 0.000000 
0.000000 0.000000 0.000000 

0.000000 -0.000000 0.000000 
0.000000 -0.000000 0.000000 
0.000000 0.000000 0.000000 

0.000000 -0.000000 0.000000 
0.000000 -0.000000 0.000000 
0.000000 0.000000 0.000000 

0.000000 0.000000 0.000000 
0.000000 0.000000 0.000000 
0.000000 0.000000 0.000000 

0.000000 -0.000000 0.000000 
0.000000 0.000000 0.000000 
0.000000 0.000000 0.000000 

0.000000 0.000000 0.000000 
0.000000 0.000000 0.000000 
0.000000 0.000000 0.000000 

0.000000 0.000000 0.000000 
0.000000 0.000000 0.000000 
0.000000 0.000000 0.000000 

0.000000 -0.000000 0.000000 
0.000000 0.000000 0.000000 
0.000000 0.000000 0.000000 

0.000000 -0.000000 0.000000 
0.000000 0.000000 0.000000 
0.000000 0.000000 0.000000 

-0.000000 0.000000 0.000000 
0.000000 -0.000000 0.000000 
0.000000 0.000000 0.000000 

0.000000 0.000000 0.000000 
0.000000 0.000000 0.000000 
0.000000 0.000000 0.000000 

0.000000 0.000000 0.000000 
0.000000 -0.000000 0.000000 
0.000000 0.000000 0.000000 

-0.000000 0.000000 0.000000 
0.000000 0.000000 0.000000 
0.000000 0.000000 0.000000 

-0.000000 0.000000 0.000000 
0.000000 -0.000000 0.000000 
0.000000 0.000000 0.000000 

0.000000 -0.000000 0.000000 
0.000000 0.000000 0.000000 
0.000000 0.000000 0.000000 

0.000000 0.000000 0.000000 
0.000000 0.000000 0.000000 
0.000000 0.000000 0.000000 

0.000000 0.000000 0.000000 
0.000000 -0.000000 0.000000 
0.000000 0.000000 0.000000 

0.000000 0.000000 0.000000 
0.000000 0.000000 0.000000 
0.000000 0.000000 0.000000 

0.000000 0.000000 0.000000 
0.000000 0.000000 0.000000 
0.000000 0.000000 0.000000 

0.000000 -0.000000 0.000000 
0.000000 0.000000 0.000000 
0.000000 0.000000 0.000000 

-0.000000 -0.000000 0.000000 
0.000000 -0.000000 0.000000 
0.000000 0.000000 0.000000 

-0.000000 -0.000000 0.000000 
0.000000 -0.000000 0.000000 
0.000000 0.000000 0.000000 

-0.000000 0.000000 0.000000 
0.000000 -0.000000 0.000000 
0.000000 0.000000 0.000000 

-0.000000 0.000000 0.000000 
0.000000 -0.000000 0.000000 
0.000000 0.000000 0.000000 

0.000000 0.000000 0.000000 
0.000000 0.000000 0.000000 
0.000000 0.000000 0.000000 

-0.000000 0.000000 0.000000 
0.000000 -0.000000 0.000000 
0.000000 0.000000 0.000000 

-0.000000 -0.000000 0.000000 
0.000000 0.000000 0.000000 
0.000000 0.000000 0.000000 

0.000000 -0.000000 0.000000 
0.000000 0.000000 0.000000 
0.000000 0.000000 0.000000 

0.000000 -0.000000 0.000000 
0.000000 0.000000 0.000000 
0.000000 0.000000 0.000000 

0.000000 0.000000 0.000000 
0.000000 0.000000 0.000000 
0.000000 0.000000 0.000000 

0.000000 -0.000000 0.000000 
0.000000 0.000000 0.000000 
0.000000 0.000000 0.000000 

0.000000 -0.000000 0.000000 
0.000000 -0.000000 0.000000 
0.000000 0.000000 0.000000 

0.000000 -0.000000 0.000000 
0.000000 0.000000 0.000000 
0.000000 0.000000 0.000000 

0.000000 -0.000000 0.000000 
0.000000 0.000000 0.000000 
0.000000 0.000000 0.000000 

-0.000000 -0.000000 0.000000 
0.000000 -0.000000 0.000000 
0.000000 0.000000 0.000000 

-0.000000 0.000000 0.000000 
0.000000 -0.000000 0.000000 
0.000000 0.000000 0.000000 

-0.000000 0.000000 0.000000 
0.000000 -0.000000 0.000000 
0.000000 0.000000 0.000000 

0.000000 0.000000 0.000000 
0.000000 0.000000 0.000000 
0.000000 0.000000 0.000000 

-0.000000 -0.000000 0.000000 
0.000000 -0.000000 0.000000 
0.000000 0.000000 0.000000 

-0.000000 -0.000000 0.000000 
0.000000 -0.000000 0.000000 
0.000000 0.000000 0.000000 

-0.000000 -0.000000 0.000000 
0.000000 -0.000000 0.000000 
0.000000 0.000000 0.000000 

TENSORS STRAIN float 
0.000000 0.000000 0.000000 
0.000000 -0.000000 0.000000 
0.000000 0.000000 0.000000 

0.000000 -0.000000 0.000000 
0.000000 0.000000 0.000000 
0.000000 0.000000 0.000000 

0.000000 -0.000000 0.000000 
0.000000 0.000000 0.000000 
0.000000 0.000000 0.000000 

0.000000 0.000000 0.000000 
0.000000 0.000000 0.000000 
0.000000 0.000000 0.000000 

0.000000 0.000000 0.000000 
0.000000 0.000000 0.000000 
0.000000 0.000000 0.000000 

0.000000 0.000000 0.000000 
0.000000 0.000000 0.000000 
0.000000 0.000000 0.000000 

-0.000000 0.000000 0.000000 
0.000000 -0.000000 0.000000 
0.000000 0.000000 0.000000 

-0.000000 -0.000000 0.000000 
0.000000 -0.000000 0.000000 
0.000000 0.000000 0.000000 

-0.000000 0.000000 0.000000 
0.000000 -0.000000 0.000000 
0.000000 0.000000 0.000000 

0.000000 0.000000 0.000000 
0.000000 0.000000 0.000000 
0.000000 0.000000 0.000000 

-0.000000 -0.000000 0.000000 
0.000000 -0.000000 0.000000 
0.000000 0.000000 0.000000 

-0.000000 0.000000 0.000000 
0.000000 0.000000 0.000000 
0.000000 0.000000 0.000000 

-0.000000 -0.000000 0.000000 
0.000000 0.000000 0.000000 
0.000000 0.000000 0.000000 

0.000000 -0.000000 0.000000 
0.000000 -0.000000 0.000000 
0.000000 0.000000 0.000000 

-0.000000 -0.000000 0.000000 
0.000000 -0.000000 0.000000 
0.000000 0.000000 0.000000 

-0.000000 -0.000000 0.000000 
0.000000 0.000000 0.000000 
0.000000 0.000000 0.000000 

0.000000 -0.000000 0.000000 
0.000000 0.000000 0.000000 
0.000000 0.000000 0.000000 

0.000000 0.000000 0.000000 
0.000000 0.000000 0.000000 
0.000000 0.000000 0.000000 

-0.000000 -0.000000 0.000000 
0.000000 0.000000 0.000000 
0.000000 0.000000 0.000000 

0.000000 -0.000000 0.000000 
0.000000 -0.000000 0.000000 
0.000000 0.000000 0.000000 

0.000000 0.000000 0.000000 
0.000000 -0.000000 0.000000 
0.000000 0.000000 0.000000 

0.000000 -0.000000 0.000000 
0.000000 0.000000 0.000000 
0.000000 0.000000 0.000000 

0.000000 0.000000 0.000000 
0.000000 -0.000000 0.000000 
0.000000 0.000000 0.000000 

-0.000000 0.000000 0.000000 
0.000000 -0.000000 0.000000 
0.000000 0.000000 0.000000 

-0.000000 0.000000 0.000000 
0.000000 -0.000000 0.000000 
0.000000 0.000000 0.000000 

0.000000 0.000000 0.000000 
0.000000 0.000000 0.000000 
0.000000 0.000000 0.000000 

0.000000 -0.000000 0.000000 
0.000000 0.000000 0.000000 
0.000000 0.000000 0.000000 

0.000000 -0.000000 0.000000 
0.000000 0.000000 0.000000 
0.000000 0.000000 0.000000 

0.000000 -0.000000 0.000000 
0.000000 -0.000000 0.000000 
0.000000 0.000000 0.000000 

-0.000000 -0.000000 0.000000 
0.000000 0.000000 0.000000 
0.000000 0.000000 0.000000 

0.000000 -0.000000 0.000000 
0.000000 0.000000 0.000000 
0.000000 0.000000 0.000000 

-0.000000 -0.000000 0.000000 
0.000000 -0.000000 0.000000 
0.000000 0.000000 0.000000 

0.000000 -0.000000 0.000000 
0.000000 0.000000 0.000000 
0.000000 0.000000 0.000000 

0.000000 -0.000000 0.000000 
0.000000 -0.000000 0.000000 
0.000000 0.000000 0.000000 

-0.000000 -0.000000 0.000000 
0.000000 -0.000000 0.000000 
0.000000 0.000000 0.000000 

-0.000000 0.000000 0.000000 
0.000000 0.000000 0.000000 
0.000000 0.000000 0.000000 

-0.000000 -0.000000 0.000000 
0.000000 -0.000000 0.000000 
0.000000 0.000000 0.000000 

-0.000000 0.000000 0.000000 
0.000000 -0.000000 0.000000 
0.000000 0.000000 0.000000 

-0.000000 -0.000000 0.000000 
0.000000 0.000000 0.000000 
0.000000 0.000000 0.000000 

-0.000000 0.000000 0.000000 
0.000000 -0.000000 0.000000 
0.000000 0.000000 0.000000 

-0.000000 0.000000 0.000000 
0.000000 0.000000 0.000000 
0.000000 0.000000 0.000000 

-0.000000 -0.000000 0.000000 
0.000000 0.000000 0.000000 
0.000000 0.000000 0.000000 

-0.000000 -0.000000 0.000000 
0.000000 0.000000 0.000000 
0.000000 0.000000 0.000000 

0.000000 -0.000000 0.000000 
0.000000 -0.000000 0.000000 
0.000000 0.000000 0.000000 

0.000000 0.000000 0.000000 
0.000000 -0.000000 0.000000 
0.000000 0.000000 0.000000 

0.000000 -0.000000 0.000000 
0.000000 0.000000 0.000000 
0.000000 0.000000 0.000000 

0.000000 -0.000000 0.000000 
0.000000 0.000000 0.000000 
0.000000 0.000000 0.000000 

-0.000000 0.000000 0.000000 
0.000000 0.000000 0.000000 
0.000000 0.000000 0.000000 

-0.000000 -0.000000 0.000000 
0.000000 -0.000000 0.000000 
0.000000 0.000000 0.000000 

0.000000 -0.000000 0.000000 
0.000000 -0.000000 0.000000 
0.000000 0.000000 0.000000 

-0.000000 -0.000000 0.000000 
0.000000 0.000000 0.000000 
0.000000 0.000000 0.000000 

0.000000 0.000000 0.000000 
0.000000 -0.000000 0.000000 
0.000000 0.000000 0.000000 

0.000000 -0.000000 0.000000 
0.000000 0.000000 0.000000 
0.000000 0.000000 0.000000 

0.000000 0.000000 0.000000 
0.000000 0.000000 0.000000 
0.000000 0.000000 0.000000 

-0.000000 0.000000 0.000000 
0.000000 -0.000000 0.000000 
0.000000 0.000000 0.000000 

0.000000 -0.000000 0.000000 
0.000000 -0.000000 0.000000 
0.000000 0.000000 0.000000 

0.000000 0.000000 0.000000 
0.000000 0.000000 0.000000 
0.000000 0.000000 0.000000 

0.000000 0.000000 0.000000 
0.000000 -0.000000 0.000000 
0.000000 0.000000 0.000000 

0.000000 0.000000 0.000000 
0.000000 -0.000000 0.000000 
0.000000 0.000000 0.000000 

-0.000000 -0.000000 0.000000 
0.000000 0.000000 0.000000 
0.000000 0.000000 0.000000 

-0.000000 0.000000 0.000000 
0.000000 0.000000 0.000000 
0.000000 0.000000 0.000000 

0.000000 0.000000 0.000000 
0.000000 0.000000 0.000000 
0.000000 0.000000 0.000000 

-0.000000 0.000000 0.000000 
0.000000 -0.000000 0.000000 
0.000000 0.000000 0.000000 

-0.000000 -0.000000 0.000000 
0.000000 0.000000 0.000000 
0.000000 0.000000 0.000000 

0.000000 -0.000000 0.000000 
0.000000 -0.000000 0.000000 
0.000000 0.000000 0.000000 

0.000000 0.000000 0.000000 
0.000000 -0.000000 0.000000 
0.000000 0.000000 0.000000 

-0.000000 0.000000 0.000000 
0.000000 0.000000 0.000000 
0.000000 0.000000 0.000000 

0.000000 0.000000 0.000000 
0.000000 -0.000000 0.000000 
0.000000 0.000000 0.000000 

0.000000 -0.000000 0.000000 
0.000000 -0.000000 0.000000 
0.000000 0.000000 0.000000 

0.000000 -0.000000 0.000000 
0.000000 -0.000000 0.000000 
0.000000 0.000000 0.000000 

0.000000 0.000000 0.000000 
0.000000 -0.000000 0.000000 
0.000000 0.000000 0.000000 

-0.000000 -0.000000 0.000000 
0.000000 -0.000000 0.000000 
0.000000 0.000000 0.000000 

0.000000 -0.000000 0.000000 
0.000000 0.000000 0.000000 
0.000000 0.000000 0.000000 

-0.000000 -0.000000 0.000000 
0.000000 -0.000000 0.000000 
0.000000 0.000000 0.000000 

-0.000000 -0.000000 0.000000 
0.000000 0.000000 0.000000 
0.000000 0.000000 0.000000 

0.000000 -0.000000 0.000000 
0.000000 -0.000000 0.000000 
0.000000 0.000000 0.000000 

0.000000 0.000000 0.000000 
0.000000 0.000000 0.000000 
0.000000 0.000000 0.000000 

0.000000 -0.000000 0.000000 
0.000000 -0.000000 0.000000 
0.000000 0.000000 0.000000 

0.000000 -0.000000 0.000000 
0.000000 0.000000 0.000000 
0.000000 0.000000 0.000000 

-0.000000 0.000000 0.000000 
0.000000 0.000000 0.000000 
0.000000 0.000000 0.000000 

0.000000 -0.000000 0.000000 
0.000000 0.000000 0.000000 
0.000000 0.000000 0.000000 

0.000000 0.000000 0.000000 
0.000000 -0.000000 0.000000 
0.000000 0.000000 0.000000 

0.000000 0.000000 0.000000 
0.000000 -0.000000 0.000000 
0.000000 0.000000 0.000000 

-0.000000 0.000000 0.000000 
0.000000 -0.000000 0.000000 
0.000000 0.000000 0.000000 

0.000000 0.000000 0.000000 
0.000000 -0.000000 0.000000 
0.000000 0.000000 0.000000 

0.000000 0.000000 0.000000 
0.000000 0.000000 0.000000 
0.000000 0.000000 0.000000 

0.000000 -0.000000 0.000000 
0.000000 0.000000 0.000000 
0.000000 0.000000 0.000000 

0.000000 -0.000000 0.000000 
0.000000 -0.000000 0.000000 
0.000000 0.000000 0.000000 

0.000000 0.000000 0.000000 
0.000000 0.000000 0.000000 
0.000000 0.000000 0.000000 

-0.000000 0.000000 0.000000 
0.000000 0.000000 0.000000 
0.000000 0.000000 0.000000 

-0.000000 -0.000000 0.000000 
0.000000 0.000000 0.000000 
0.000000 0.000000 0.000000 

0.000000 0.000000 0.000000 
0.000000 0.000000 0.000000 
0.000000 0.000000 0.000000 

0.000000 0.000000 0.000000 
0.000000 -0.000000 0.000000 
0.000000 0.000000 0.000000 

0.000000 -0.000000 0.000000 
0.000000 0.000000 0.000000 
0.000000 0.000000 0.000000 

-0.000000 0.000000 0.000000 
0.000000 -0.000000 0.000000 
0.000000 0.000000 0.000000 

-0.000000 -0.000000 0.000000 
0.000000 -0.000000 0.000000 
0.000000 0.000000 0.000000 

-0.000000 0.000000 0.000000 
0.000000 -0.000000 0.000000 
0.000000 0.000000 0.000000 

0.000000 -0.000000 0.000000 
0.000000 -0.000000 0.000000 
0.000000 0.000000 0.000000 

-0.000000 -0.000000 0.000000 
0.000000 0.000000 0.000000 
0.000000 0.000000 0.000000 

-0.000000 0.000000 0.000000 
0.000000 0.000000 0.000000 
0.000000 0.000000 0.000000 

-0.000000 -0.000000 0.000000 
0.000000 -0.000000 0.000000 
0.000000 0.000000 0.000000 

-0.000000 0.000000 0.000000 
0.000000 -0.000000 0.000000 
0.000000 0.000000 0.000000 

-0.000000 0.000000 0.000000 
0.000000 -0.000000 0.000000 
0.000000 0.000000 0.000000 

-0.000000 -0.000000 0.000000 
0.000000 0.000000 0.000000 
0.000000 0.000000 0.000000 

0.000000 0.000000 0.000000 
0.000000 -0.000000 0.000000 
0.000000 0.000000 0.000000 

-0.000000 -0.000000 0.000000 
0.000000 -0.000000 0.000000 
0.000000 0.000000 0.000000 

-0.000000 0.000000 0.000000 
0.000000 -0.000000 0.000000 
0.000000 0.000000 0.000000 

-0.000000 -0.000000 0.000000 
0.000000 -0.000000 0.000000 
0.000000 0.000000 0.000000 

-0.000000 -0.000000 0.000000 
0.000000 0.000000 0.000000 
0.000000 0.000000 0.000000 

0.000000 0.000000 0.000000 
0.000000 -0.000000 0.000000 
0.000000 0.000000 0.000000 

0.000000 -0.000000 0.000000 
0.000000 -0.000000 0.000000 
0.000000 0.000000 0.000000 

-0.000000 -0.000000 0.000000 
0.000000 -0.000000 0.000000 
0.000000 0.000000 0.000000 

-0.000000 0.000000 0.000000 
0.000000 -0.000000 0.000000 
0.000000 0.000000 0.000000 

-0.000000 -0.000000 0.000000 
0.000000 0.000000 0.000000 
0.000000 0.000000 0.000000 

-0.000000 0.000000 0.000000 
0.000000 0.000000 0.000000 
0.000000 0.000000 0.000000 

0.000000 0.000000 0.000000 
0.000000 0.000000 0.000000 
0.000000 0.000000 0.000000 

0.000000 -0.000000 0.000000 
0.000000 -0.000000 0.000000 
0.000000 0.000000 0.000000 

0.000000 0.000000 0.000000 
0.000000 -0.000000 0.000000 
0.000000 0.000000 0.000000 

0.000000 0.000000 0.000000 
0.000000 0.000000 0.000000 
0.000000 0.000000 0.000000 

-0.000000 0.000000 0.000000 
0.000000 0.000000 0.000000 
0.000000 0.000000 0.000000 

-0.000000 0.000000 0.000000 
0.000000 -0.000000 0.000000 
0.000000 0.000000 0.000000 

-0.000000 0.000000 0.000000 
0.000000 0.000000 0.000000 
0.000000 0.000000 0.000000 

-0.000000 0.000000 0.000000 
0.000000 -0.000000 0.000000 
0.000000 0.000000 0.000000 

-0.000000 -0.000000 0.000000 
0.000000 0.000000 0.000000 
0.000000 0.000000 0.000000 

0.000000 0.000000 0.000000 
0.000000 -0.000000 0.000000 
0.000000 0.000000 0.000000 

0.000000 -0.000000 0.000000 
0.000000 -0.000000 0.000000 
0.000000 0.000000 0.000000 

0.000000 -0.000000 0.000000 
0.000000 0.000000 0.000000 
0.000000 0.000000 0.000000 

0.000000 -0.000000 0.000000 
0.000000 0.000000 0.000000 
0.000000 0.000000 0.000000 

0.000000 0.000000 0.000000 
0.000000 -0.000000 0.000000 
0.000000 0.000000 0.000000 

-0.000000 0.000000 0.000000 
0.000000 -0.000000 0.000000 
0.000000 0.000000 0.000000 

0.000000 0.000000 0.000000 
0.000000 0.000000 0.000000 
0.000000 0.000000 0.000000 

0.000000 -0.000000 0.000000 
0.000000 -0.000000 0.000000 
0.000000 0.000000 0.000000 

-0.000000 0.000000 0.000000 
0.000000 0.000000 0.000000 
0.000000 0.000000 0.000000 

0.000000 0.000000 0.000000 
0.000000 0.000000 0.000000 
0.000000 0.000000 0.000000 

0.000000 0.000000 0.000000 
0.000000 0.000000 0.000000 
0.000000 0.000000 0.000000 

0.000000 -0.000000 0.000000 
0.000000 -0.000000 0.000000 
0.000000 0.000000 0.000000 

0.000000 -0.000000 0.000000 
0.000000 -0.000000 0.000000 
0.000000 0.000000 0.000000 

0.000000 0.000000 0.000000 
0.000000 0.000000 0.000000 
0.000000 0.000000 0.000000 

0.000000 -0.000000 0.000000 
0.000000 0.000000 0.000000 
0.000000 0.000000 0.000000 

0.000000 0.000000 0.000000 
0.000000 -0.000000 0.000000 
0.000000 0.000000 0.000000 

0.000000 0.000000 0.000000 
0.000000 0.000000 0.000000 
0.000000 0.000000 0.000000 

0.000000 -0.000000 0.000000 
0.000000 0.000000 0.000000 
0.000000 0.000000 0.000000 

0.000000 -0.000000 0.000000 
0.000000 0.000000 0.000000 
0.000000 0.000000 0.000000 

0.000000 0.000000 0.000000 
0.000000 -0.000000 0.000000 
0.000000 0.000000 0.000000 

0.000000 0.000000 0.000000 
0.000000 0.000000 0.000000 
0.000000 0.000000 0.000000 

0.000000 0.000000 0.000000 
0.000000 -0.000000 0.000000 
0.000000 0.000000 0.000000 

-0.000000 0.000000 0.000000 
0.000000 0.000000 0.000000 
0.000000 0.000000 0.000000 

0.000000 0.000000 0.000000 
0.000000 -0.000000 0.000000 
0.000000 0.000000 0.000000 

0.000000 -0.000000 0.000000 
0.000000 0.000000 0.000000 
0.000000 0.000000 0.000000 

0.000000 0.000000 0.000000 
0.000000 0.000000 0.000000 
0.000000 0.000000 0.000000 

0.000000 0.000000 0.000000 
0.000000 -0.000000 0.000000 
0.000000 0.000000 0.000000 

0.000000 0.000000 0.000000 
0.000000 0.000000 0.000000 
0.000000 0.000000 0.000000 

0.000000 0.000000 0.000000 
0.000000 0.000000 0.000000 
0.000000 0.000000 0.000000 

-0.000000 -0.000000 0.000000 
0.000000 0.000000 0.000000 
0.000000 0.000000 0.000000 

-0.000000 -0.000000 0.000000 
0.000000 -0.000000 0.000000 
0.000000 0.000000 0.000000 

-0.000000 -0.000000 0.000000 
0.000000 -0.000000 0.000000 
0.000000 0.000000 0.000000 

0.000000 0.000000 0.000000 
0.000000 -0.000000 0.000000 
0.000000 0.000000 0.000000 

-0.000000 0.000000 0.000000 
0.000000 -0.000000 0.000000 
0.000000 0.000000 0.000000 

-0.000000 0.000000 0.000000 
0.000000 0.000000 0.000000 
0.000000 0.000000 0.000000 

-0.000000 0.000000 0.000000 
0.000000 -0.000000 0.000000 
0.000000 0.000000 0.000000 

-0.000000 -0.000000 0.000000 
0.000000 0.000000 0.000000 
0.000000 0.000000 0.000000 

0.000000 -0.000000 0.000000 
0.000000 0.000000 0.000000 
0.000000 0.000000 0.000000 

0.000000 -0.000000 0.000000 
0.000000 0.000000 0.000000 
0.000000 0.000000 0.000000 

0.000000 0.000000 0.000000 
0.000000 0.000000 0.000000 
0.000000 0.000000 0.000000 

0.000000 -0.000000 0.000000 
0.000000 0.000000 0.000000 
0.000000 0.000000 0.000000 

0.000000 -0.000000 0.000000 
0.000000 -0.000000 0.000000 
0.000000 0.000000 0.000000 

-0.000000 -0.000000 0.000000 
0.000000 0.000000 0.000000 
0.000000 0.000000 0.000000 

-0.000000 -0.000000 0.000000 
0.000000 0.000000 0.000000 
0.000000 0.000000 0.000000 

-0.000000 -0.000000 0.000000 
0.000000 -0.000000 0.000000 
0.000000 0.000000 0.000000 

0.000000 0.000000 0.000000 
0.000000 -0.000000 0.000000 
0.000000 0.000000 0.000000 

0.000000 0.000000 0.000000 
0.000000 -0.000000 0.000000 
0.000000 0.000000 0.000000 

0.000000 0.000000 0.000000 
0.000000 0.000000 0.000000 
0.000000 0.000000 0.000000 

-0.000000 -0.000000 0.000000 
0.000000 0.000000 0.000000 
0.000000 0.000000 0.000000 

-0.000000 -0.000000 0.000000 
0.000000 0.000000 0.000000 
0.000000 0.000000 0.000000 

-0.000000 -0.000000 0.000000 
0.000000 -0.000000 0.000000 
0.000000 0.000000 0.000000 

