# vtk DataFile Version 3.0 
vtk output 
ASCII 
DATASET UNSTRUCTURED_GRID 
POINTS 175 float 
-0.026061 -0.864498 0.000000 
-0.106992 -0.796443 0.000000 
-0.054870 -0.804675 0.000000 
-0.028809 -0.758792 0.000000 
-0.186430 -0.732367 0.000000 
-0.137056 -0.734893 0.000000 
-0.114311 -0.681246 0.000000 
-0.058186 -0.696912 0.000000 
-0.029377 -0.656734 0.000000 
-0.265318 -0.669211 0.000000 
-0.217198 -0.670011 0.000000 
-0.196633 -0.612714 0.000000 
-0.143120 -0.621423 0.000000 
-0.116563 -0.574155 0.000000 
-0.058945 -0.593800 0.000000 
-0.029568 -0.555680 0.000000 
-0.344206 -0.606056 0.000000 
-0.296791 -0.606048 0.000000 
-0.278030 -0.546106 0.000000 
-0.225992 -0.551972 0.000000 
-0.201664 -0.499855 0.000000 
-0.145749 -0.513329 0.000000 
-0.117890 -0.468986 0.000000 
-0.059328 -0.491692 0.000000 
-0.029759 -0.454626 0.000000 
-0.058559 -0.905249 0.000000 
-0.162226 -0.926091 0.000000 
-0.123292 -0.890474 0.000000 
-0.142917 -0.841490 0.000000 
-0.261851 -0.948248 0.000000 
-0.229092 -0.911221 0.000000 
-0.256854 -0.859989 0.000000 
-0.209613 -0.825877 0.000000 
-0.223062 -0.778303 0.000000 
-0.360414 -0.970548 0.000000 
-0.329787 -0.933425 0.000000 
-0.361761 -0.881623 0.000000 
-0.321587 -0.845214 0.000000 
-0.341985 -0.794980 0.000000 
-0.290702 -0.762181 0.000000 
-0.302189 -0.715446 0.000000 
-0.458977 -0.992848 0.000000 
-0.429420 -0.955773 0.000000 
-0.464588 -0.903732 0.000000 
-0.427556 -0.866704 0.000000 
-0.453135 -0.815189 0.000000 
-0.407738 -0.779874 0.000000 
-0.425037 -0.730446 0.000000 
-0.370772 -0.698817 0.000000 
-0.381315 -0.652589 0.000000 
-0.046960 -0.956064 0.000000 
-0.095301 -1.050110 0.000000 
-0.098873 -0.997463 0.000000 
-0.149405 -0.982265 0.000000 
-0.140093 -1.141814 0.000000 
-0.148617 -1.093116 0.000000 
-0.205981 -1.082878 0.000000 
-0.203197 -1.024675 0.000000 
-0.248777 -1.005528 0.000000 
-0.184111 -1.232778 0.000000 
-0.194039 -1.185686 0.000000 
-0.254475 -1.178387 0.000000 
-0.257893 -1.124277 0.000000 
-0.309886 -1.108905 0.000000 
-0.303554 -1.048359 0.000000 
-0.347255 -1.028202 0.000000 
-0.228129 -1.323741 0.000000 
-0.238687 -1.277517 0.000000 
-0.301302 -1.272565 0.000000 
-0.307162 -1.220526 0.000000 
-0.363386 -1.208405 0.000000 
-0.362692 -1.150894 0.000000 
-0.412122 -1.133600 0.000000 
-0.403017 -1.071454 0.000000 
-0.445733 -1.050875 0.000000 
-0.000000 -0.978679 0.000000 
0.043388 -1.075110 0.000000 
-0.000000 -1.045077 0.000000 
-0.043388 -1.075110 0.000000 
0.087158 -1.167306 0.000000 
0.043769 -1.143608 0.000000 
-0.000000 -1.182073 0.000000 
-0.043769 -1.143608 0.000000 
-0.087158 -1.167306 0.000000 
0.130831 -1.258436 0.000000 
0.087824 -1.236837 0.000000 
0.044436 -1.279537 0.000000 
-0.000000 -1.248472 0.000000 
-0.044436 -1.279537 0.000000 
-0.087824 -1.236837 0.000000 
-0.130831 -1.258436 0.000000 
0.174505 -1.349566 0.000000 
0.131782 -1.328999 0.000000 
0.088871 -1.374866 0.000000 
0.044532 -1.347002 0.000000 
-0.000000 -1.383402 0.000000 
-0.044532 -1.347002 0.000000 
-0.088871 -1.374866 0.000000 
-0.131782 -1.328999 0.000000 
-0.174505 -1.349566 0.000000 
0.046960 -0.956064 0.000000 
0.149405 -0.982265 0.000000 
0.098873 -0.997463 0.000000 
0.095301 -1.050110 0.000000 
0.248777 -1.005528 0.000000 
0.203197 -1.024675 0.000000 
0.205981 -1.082878 0.000000 
0.148617 -1.093116 0.000000 
0.140093 -1.141814 0.000000 
0.347255 -1.028202 0.000000 
0.303554 -1.048359 0.000000 
0.309886 -1.108905 0.000000 
0.257893 -1.124277 0.000000 
0.254475 -1.178387 0.000000 
0.194039 -1.185686 0.000000 
0.184111 -1.232778 0.000000 
0.445733 -1.050875 0.000000 
0.403017 -1.071454 0.000000 
0.412122 -1.133600 0.000000 
0.362692 -1.150894 0.000000 
0.363386 -1.208405 0.000000 
0.307162 -1.220526 0.000000 
0.301302 -1.272565 0.000000 
0.238687 -1.277517 0.000000 
0.228129 -1.323741 0.000000 
0.058559 -0.905249 0.000000 
0.142917 -0.841490 0.000000 
0.123292 -0.890474 0.000000 
0.162226 -0.926091 0.000000 
0.223062 -0.778303 0.000000 
0.209613 -0.825877 0.000000 
0.256854 -0.859989 0.000000 
0.229092 -0.911221 0.000000 
0.261851 -0.948248 0.000000 
0.302189 -0.715446 0.000000 
0.290702 -0.762181 0.000000 
0.341985 -0.794980 0.000000 
0.321587 -0.845214 0.000000 
0.361761 -0.881623 0.000000 
0.329787 -0.933425 0.000000 
0.360414 -0.970548 0.000000 
0.381315 -0.652589 0.000000 
0.370772 -0.698817 0.000000 
0.425037 -0.730446 0.000000 
0.407738 -0.779874 0.000000 
0.453135 -0.815189 0.000000 
0.427556 -0.866704 0.000000 
0.464588 -0.903732 0.000000 
0.429420 -0.955773 0.000000 
0.458977 -0.992848 0.000000 
0.026061 -0.864498 0.000000 
0.028809 -0.758792 0.000000 
0.054870 -0.804675 0.000000 
0.106992 -0.796443 0.000000 
0.029377 -0.656734 0.000000 
0.058186 -0.696912 0.000000 
0.114311 -0.681246 0.000000 
0.137056 -0.734893 0.000000 
0.186430 -0.732367 0.000000 
0.029568 -0.555680 0.000000 
0.058945 -0.593800 0.000000 
0.116563 -0.574155 0.000000 
0.143120 -0.621423 0.000000 
0.196633 -0.612714 0.000000 
0.217198 -0.670011 0.000000 
0.265318 -0.669211 0.000000 
0.029759 -0.454626 0.000000 
0.059328 -0.491692 0.000000 
0.117890 -0.468986 0.000000 
0.145749 -0.513329 0.000000 
0.201664 -0.499855 0.000000 
0.225992 -0.551972 0.000000 
0.278030 -0.546106 0.000000 
0.296791 -0.606048 0.000000 
0.344206 -0.606056 0.000000 
CELLS 175 350 
1 0 
1 1 
1 2 
1 3 
1 4 
1 5 
1 6 
1 7 
1 8 
1 9 
1 10 
1 11 
1 12 
1 13 
1 14 
1 15 
1 16 
1 17 
1 18 
1 19 
1 20 
1 21 
1 22 
1 23 
1 24 
1 25 
1 26 
1 27 
1 28 
1 29 
1 30 
1 31 
1 32 
1 33 
1 34 
1 35 
1 36 
1 37 
1 38 
1 39 
1 40 
1 41 
1 42 
1 43 
1 44 
1 45 
1 46 
1 47 
1 48 
1 49 
1 50 
1 51 
1 52 
1 53 
1 54 
1 55 
1 56 
1 57 
1 58 
1 59 
1 60 
1 61 
1 62 
1 63 
1 64 
1 65 
1 66 
1 67 
1 68 
1 69 
1 70 
1 71 
1 72 
1 73 
1 74 
1 75 
1 76 
1 77 
1 78 
1 79 
1 80 
1 81 
1 82 
1 83 
1 84 
1 85 
1 86 
1 87 
1 88 
1 89 
1 90 
1 91 
1 92 
1 93 
1 94 
1 95 
1 96 
1 97 
1 98 
1 99 
1 100 
1 101 
1 102 
1 103 
1 104 
1 105 
1 106 
1 107 
1 108 
1 109 
1 110 
1 111 
1 112 
1 113 
1 114 
1 115 
1 116 
1 117 
1 118 
1 119 
1 120 
1 121 
1 122 
1 123 
1 124 
1 125 
1 126 
1 127 
1 128 
1 129 
1 130 
1 131 
1 132 
1 133 
1 134 
1 135 
1 136 
1 137 
1 138 
1 139 
1 140 
1 141 
1 142 
1 143 
1 144 
1 145 
1 146 
1 147 
1 148 
1 149 
1 150 
1 151 
1 152 
1 153 
1 154 
1 155 
1 156 
1 157 
1 158 
1 159 
1 160 
1 161 
1 162 
1 163 
1 164 
1 165 
1 166 
1 167 
1 168 
1 169 
1 170 
1 171 
1 172 
1 173 
1 174 
CELL_TYPES 175 
1 
1 
1 
1 
1 
1 
1 
1 
1 
1 
1 
1 
1 
1 
1 
1 
1 
1 
1 
1 
1 
1 
1 
1 
1 
1 
1 
1 
1 
1 
1 
1 
1 
1 
1 
1 
1 
1 
1 
1 
1 
1 
1 
1 
1 
1 
1 
1 
1 
1 
1 
1 
1 
1 
1 
1 
1 
1 
1 
1 
1 
1 
1 
1 
1 
1 
1 
1 
1 
1 
1 
1 
1 
1 
1 
1 
1 
1 
1 
1 
1 
1 
1 
1 
1 
1 
1 
1 
1 
1 
1 
1 
1 
1 
1 
1 
1 
1 
1 
1 
1 
1 
1 
1 
1 
1 
1 
1 
1 
1 
1 
1 
1 
1 
1 
1 
1 
1 
1 
1 
1 
1 
1 
1 
1 
1 
1 
1 
1 
1 
1 
1 
1 
1 
1 
1 
1 
1 
1 
1 
1 
1 
1 
1 
1 
1 
1 
1 
1 
1 
1 
1 
1 
1 
1 
1 
1 
1 
1 
1 
1 
1 
1 
1 
1 
1 
1 
1 
1 
1 
1 
1 
1 
1 
1 
POINT_DATA 175 
VECTORS X_GC float 
-0.026061 -0.864498 0.000000 
-0.106992 -0.796443 0.000000 
-0.054870 -0.804675 0.000000 
-0.028809 -0.758792 0.000000 
-0.186430 -0.732367 0.000000 
-0.137056 -0.734893 0.000000 
-0.114311 -0.681246 0.000000 
-0.058186 -0.696912 0.000000 
-0.029377 -0.656734 0.000000 
-0.265318 -0.669211 0.000000 
-0.217198 -0.670011 0.000000 
-0.196633 -0.612714 0.000000 
-0.143120 -0.621423 0.000000 
-0.116563 -0.574155 0.000000 
-0.058945 -0.593800 0.000000 
-0.029568 -0.555680 0.000000 
-0.344206 -0.606056 0.000000 
-0.296791 -0.606048 0.000000 
-0.278030 -0.546106 0.000000 
-0.225992 -0.551972 0.000000 
-0.201664 -0.499855 0.000000 
-0.145749 -0.513329 0.000000 
-0.117890 -0.468986 0.000000 
-0.059328 -0.491692 0.000000 
-0.029759 -0.454626 0.000000 
-0.058559 -0.905249 0.000000 
-0.162226 -0.926091 0.000000 
-0.123292 -0.890474 0.000000 
-0.142917 -0.841490 0.000000 
-0.261851 -0.948248 0.000000 
-0.229092 -0.911221 0.000000 
-0.256854 -0.859989 0.000000 
-0.209613 -0.825877 0.000000 
-0.223062 -0.778303 0.000000 
-0.360414 -0.970548 0.000000 
-0.329787 -0.933425 0.000000 
-0.361761 -0.881623 0.000000 
-0.321587 -0.845214 0.000000 
-0.341985 -0.794980 0.000000 
-0.290702 -0.762181 0.000000 
-0.302189 -0.715446 0.000000 
-0.458977 -0.992848 0.000000 
-0.429420 -0.955773 0.000000 
-0.464588 -0.903732 0.000000 
-0.427556 -0.866704 0.000000 
-0.453135 -0.815189 0.000000 
-0.407738 -0.779874 0.000000 
-0.425037 -0.730446 0.000000 
-0.370772 -0.698817 0.000000 
-0.381315 -0.652589 0.000000 
-0.046960 -0.956064 0.000000 
-0.095301 -1.050110 0.000000 
-0.098873 -0.997463 0.000000 
-0.149405 -0.982265 0.000000 
-0.140093 -1.141814 0.000000 
-0.148617 -1.093116 0.000000 
-0.205981 -1.082878 0.000000 
-0.203197 -1.024675 0.000000 
-0.248777 -1.005528 0.000000 
-0.184111 -1.232778 0.000000 
-0.194039 -1.185686 0.000000 
-0.254475 -1.178387 0.000000 
-0.257893 -1.124277 0.000000 
-0.309886 -1.108905 0.000000 
-0.303554 -1.048359 0.000000 
-0.347255 -1.028202 0.000000 
-0.228129 -1.323741 0.000000 
-0.238687 -1.277517 0.000000 
-0.301302 -1.272565 0.000000 
-0.307162 -1.220526 0.000000 
-0.363386 -1.208405 0.000000 
-0.362692 -1.150894 0.000000 
-0.412122 -1.133600 0.000000 
-0.403017 -1.071454 0.000000 
-0.445733 -1.050875 0.000000 
-0.000000 -0.978679 0.000000 
0.043388 -1.075110 0.000000 
-0.000000 -1.045077 0.000000 
-0.043388 -1.075110 0.000000 
0.087158 -1.167306 0.000000 
0.043769 -1.143608 0.000000 
-0.000000 -1.182073 0.000000 
-0.043769 -1.143608 0.000000 
-0.087158 -1.167306 0.000000 
0.130831 -1.258436 0.000000 
0.087824 -1.236837 0.000000 
0.044436 -1.279537 0.000000 
-0.000000 -1.248472 0.000000 
-0.044436 -1.279537 0.000000 
-0.087824 -1.236837 0.000000 
-0.130831 -1.258436 0.000000 
0.174505 -1.349566 0.000000 
0.131782 -1.328999 0.000000 
0.088871 -1.374866 0.000000 
0.044532 -1.347002 0.000000 
-0.000000 -1.383402 0.000000 
-0.044532 -1.347002 0.000000 
-0.088871 -1.374866 0.000000 
-0.131782 -1.328999 0.000000 
-0.174505 -1.349566 0.000000 
0.046960 -0.956064 0.000000 
0.149405 -0.982265 0.000000 
0.098873 -0.997463 0.000000 
0.095301 -1.050110 0.000000 
0.248777 -1.005528 0.000000 
0.203197 -1.024675 0.000000 
0.205981 -1.082878 0.000000 
0.148617 -1.093116 0.000000 
0.140093 -1.141814 0.000000 
0.347255 -1.028202 0.000000 
0.303554 -1.048359 0.000000 
0.309886 -1.108905 0.000000 
0.257893 -1.124277 0.000000 
0.254475 -1.178387 0.000000 
0.194039 -1.185686 0.000000 
0.184111 -1.232778 0.000000 
0.445733 -1.050875 0.000000 
0.403017 -1.071454 0.000000 
0.412122 -1.133600 0.000000 
0.362692 -1.150894 0.000000 
0.363386 -1.208405 0.000000 
0.307162 -1.220526 0.000000 
0.301302 -1.272565 0.000000 
0.238687 -1.277517 0.000000 
0.228129 -1.323741 0.000000 
0.058559 -0.905249 0.000000 
0.142917 -0.841490 0.000000 
0.123292 -0.890474 0.000000 
0.162226 -0.926091 0.000000 
0.223062 -0.778303 0.000000 
0.209613 -0.825877 0.000000 
0.256854 -0.859989 0.000000 
0.229092 -0.911221 0.000000 
0.261851 -0.948248 0.000000 
0.302189 -0.715446 0.000000 
0.290702 -0.762181 0.000000 
0.341985 -0.794980 0.000000 
0.321587 -0.845214 0.000000 
0.361761 -0.881623 0.000000 
0.329787 -0.933425 0.000000 
0.360414 -0.970548 0.000000 
0.381315 -0.652589 0.000000 
0.370772 -0.698817 0.000000 
0.425037 -0.730446 0.000000 
0.407738 -0.779874 0.000000 
0.453135 -0.815189 0.000000 
0.427556 -0.866704 0.000000 
0.464588 -0.903732 0.000000 
0.429420 -0.955773 0.000000 
0.458977 -0.992848 0.000000 
0.026061 -0.864498 0.000000 
0.028809 -0.758792 0.000000 
0.054870 -0.804675 0.000000 
0.106992 -0.796443 0.000000 
0.029377 -0.656734 0.000000 
0.058186 -0.696912 0.000000 
0.114311 -0.681246 0.000000 
0.137056 -0.734893 0.000000 
0.186430 -0.732367 0.000000 
0.029568 -0.555680 0.000000 
0.058945 -0.593800 0.000000 
0.116563 -0.574155 0.000000 
0.143120 -0.621423 0.000000 
0.196633 -0.612714 0.000000 
0.217198 -0.670011 0.000000 
0.265318 -0.669211 0.000000 
0.029759 -0.454626 0.000000 
0.059328 -0.491692 0.000000 
0.117890 -0.468986 0.000000 
0.145749 -0.513329 0.000000 
0.201664 -0.499855 0.000000 
0.225992 -0.551972 0.000000 
0.278030 -0.546106 0.000000 
0.296791 -0.606048 0.000000 
0.344206 -0.606056 0.000000 
VECTORS X_EC float 
0.338794 0.170724 0.000000 
-0.609100 -0.748025 0.000000 
0.713312 -0.636884 0.000000 
0.374519 0.743686 0.000000 
0.423588 0.386956 0.000000 
-0.218274 0.421059 0.000000 
-0.513962 -0.303180 0.000000 
0.756418 -0.091693 0.000000 
0.381900 -0.634086 0.000000 
-0.550868 -0.465647 0.000000 
0.823577 -0.454852 0.000000 
0.556234 0.771644 0.000000 
-0.139443 0.889213 0.000000 
-0.484677 0.251088 0.000000 
0.766286 0.516304 0.000000 
0.384386 0.001683 0.000000 
0.474677 0.681749 0.000000 
-0.141715 0.681653 0.000000 
-0.385608 -0.127575 0.000000 
0.937896 -0.048380 0.000000 
0.621631 -0.751960 0.000000 
-0.105264 -0.570060 0.000000 
-0.467428 0.831313 0.000000 
0.771260 -0.862158 0.000000 
0.386873 0.637452 0.000000 
0.761262 0.720858 0.000000 
0.108942 -0.997765 0.000000 
-0.397202 0.521395 0.000000 
-0.142083 -0.139880 0.000000 
-0.595936 -0.698655 0.000000 
0.978194 0.801479 0.000000 
-0.660903 0.109854 0.000000 
0.724964 -0.350666 0.000000 
0.899809 -0.992914 0.000000 
0.685384 -0.397603 0.000000 
0.287229 -0.898761 0.000000 
0.702895 0.401910 0.000000 
0.180633 -0.089608 0.000000 
0.445811 -0.767768 0.000000 
-0.220880 0.789446 0.000000 
-0.071546 0.158521 0.000000 
-0.033296 -0.096550 0.000000 
-0.417537 -0.597060 0.000000 
0.039645 0.700377 0.000000 
-0.441768 0.200506 0.000000 
-0.109248 -0.494944 0.000000 
-0.699407 -0.971700 0.000000 
-0.474522 0.361021 0.000000 
0.820030 -0.065973 0.000000 
0.957100 -0.690044 0.000000 
0.610485 -0.593136 0.000000 
-0.761092 0.676484 0.000000 
-0.714655 -0.034254 0.000000 
-0.057734 -0.239421 0.000000 
-0.178789 -0.085512 0.000000 
-0.067979 -0.742938 0.000000 
0.677748 -0.881142 0.000000 
0.641556 0.333113 0.000000 
-0.765897 0.074635 0.000000 
0.393446 -0.857503 0.000000 
0.522510 0.506767 0.000000 
-0.691820 0.408223 0.000000 
-0.647393 -0.322260 0.000000 
0.028512 -0.529786 0.000000 
-0.053800 0.652853 0.000000 
0.514316 0.380722 0.000000 
0.965681 0.370506 0.000000 
-0.897068 -0.253523 0.000000 
-0.083078 -0.320376 0.000000 
-0.006893 0.977100 0.000000 
0.724017 0.813467 0.000000 
0.714996 0.037063 0.000000 
-0.642413 -0.196394 0.000000 
-0.760780 0.964625 0.000000 
-0.205471 0.686810 0.000000 
0.000000 -0.287834 0.000000 
-0.564049 -0.986021 0.000000 
0.000000 0.608543 0.000000 
0.564049 -0.986021 0.000000 
0.866949 0.258634 0.000000 
-0.569003 -0.061297 0.000000 
0.000000 0.457991 0.000000 
0.569003 -0.061297 0.000000 
-0.866949 0.258634 0.000000 
0.299194 -0.511116 0.000000 
0.858290 -0.802700 0.000000 
-0.577662 -0.226254 0.000000 
0.000000 -0.645632 0.000000 
0.577662 -0.226254 0.000000 
-0.858290 -0.802700 0.000000 
-0.299194 -0.511116 0.000000 
-0.268560 0.719134 0.000000 
0.286830 0.441493 0.000000 
0.844677 -0.939309 0.000000 
-0.578910 0.684528 0.000000 
0.000000 -0.824068 0.000000 
0.578910 0.684528 0.000000 
-0.844677 -0.939309 0.000000 
-0.286830 0.441493 0.000000 
0.268560 0.719134 0.000000 
-0.610485 -0.593136 0.000000 
0.057734 -0.239421 0.000000 
0.714655 -0.034254 0.000000 
0.761092 0.676484 0.000000 
0.765897 0.074635 0.000000 
-0.641556 0.333113 0.000000 
-0.677748 -0.881142 0.000000 
0.067979 -0.742938 0.000000 
0.178789 -0.085512 0.000000 
-0.514316 0.380722 0.000000 
0.053800 0.652853 0.000000 
-0.028512 -0.529786 0.000000 
0.647393 -0.322260 0.000000 
0.691820 0.408223 0.000000 
-0.522510 0.506767 0.000000 
-0.393446 -0.857503 0.000000 
0.205471 0.686810 0.000000 
0.760780 0.964625 0.000000 
0.642413 -0.196394 0.000000 
-0.714996 0.037063 0.000000 
-0.724017 0.813467 0.000000 
0.006894 0.977100 0.000000 
0.083078 -0.320376 0.000000 
0.897068 -0.253523 0.000000 
-0.965681 0.370506 0.000000 
-0.761262 0.720858 0.000000 
0.142083 -0.139880 0.000000 
0.397202 0.521395 0.000000 
-0.108942 -0.997765 0.000000 
-0.899809 -0.992914 0.000000 
-0.724964 -0.350666 0.000000 
0.660903 0.109854 0.000000 
-0.978194 0.801479 0.000000 
0.595936 -0.698655 0.000000 
0.071546 0.158521 0.000000 
0.220880 0.789446 0.000000 
-0.445811 -0.767768 0.000000 
-0.180633 -0.089608 0.000000 
-0.702895 0.401910 0.000000 
-0.287229 -0.898761 0.000000 
-0.685384 -0.397603 0.000000 
-0.957100 -0.690044 0.000000 
-0.820030 -0.065973 0.000000 
0.474522 0.361021 0.000000 
0.699407 -0.971700 0.000000 
0.109248 -0.494944 0.000000 
0.441768 0.200506 0.000000 
-0.039645 0.700377 0.000000 
0.417537 -0.597060 0.000000 
0.033296 -0.096550 0.000000 
-0.338794 0.170724 0.000000 
-0.374519 0.743686 0.000000 
-0.713312 -0.636884 0.000000 
0.609100 -0.748025 0.000000 
-0.381900 -0.634086 0.000000 
-0.756418 -0.091693 0.000000 
0.513962 -0.303180 0.000000 
0.218274 0.421059 0.000000 
-0.423588 0.386956 0.000000 
-0.384386 0.001683 0.000000 
-0.766286 0.516304 0.000000 
0.484677 0.251088 0.000000 
0.139443 0.889213 0.000000 
-0.556234 0.771644 0.000000 
-0.823577 -0.454852 0.000000 
0.550868 -0.465647 0.000000 
-0.386873 0.637452 0.000000 
-0.771260 -0.862158 0.000000 
0.467428 0.831313 0.000000 
0.105264 -0.570060 0.000000 
-0.621631 -0.751960 0.000000 
-0.937896 -0.048380 0.000000 
0.385608 -0.127575 0.000000 
0.141715 0.681653 0.000000 
-0.474677 0.681749 0.000000 
CELL_DATA 175 
SCALARS MASS float 
LOOKUP_TABLE default 
0.078183 
0.086427 
0.094672 
0.086427 
0.088131 
0.092111 
0.085854 
0.092111 
0.088131 
0.088705 
0.091000 
0.086983 
0.091556 
0.086983 
0.091000 
0.088705 
0.089278 
0.091574 
0.089278 
0.092722 
0.089278 
0.092722 
0.089278 
0.091574 
0.089278 
0.078183 
0.086427 
0.094672 
0.086427 
0.088131 
0.092111 
0.085854 
0.092111 
0.088131 
0.088705 
0.091000 
0.086983 
0.091556 
0.086983 
0.091000 
0.088705 
0.089278 
0.091574 
0.089278 
0.092722 
0.089278 
0.092722 
0.089278 
0.091574 
0.089278 
0.078183 
0.086427 
0.094672 
0.086427 
0.088131 
0.092111 
0.085854 
0.092111 
0.088131 
0.088705 
0.091000 
0.086983 
0.091556 
0.086983 
0.091000 
0.088705 
0.089278 
0.091574 
0.089278 
0.092722 
0.089278 
0.092722 
0.089278 
0.091574 
0.089278 
0.078183 
0.086427 
0.094672 
0.086427 
0.088131 
0.092111 
0.085854 
0.092111 
0.088131 
0.088705 
0.091000 
0.086983 
0.091556 
0.086983 
0.091000 
0.088705 
0.089278 
0.091574 
0.089278 
0.092722 
0.089278 
0.092722 
0.089278 
0.091574 
0.089278 
0.078183 
0.086427 
0.094672 
0.086427 
0.088131 
0.092111 
0.085854 
0.092111 
0.088131 
0.088705 
0.091000 
0.086983 
0.091556 
0.086983 
0.091000 
0.088705 
0.089278 
0.091574 
0.089278 
0.092722 
0.089278 
0.092722 
0.089278 
0.091574 
0.089278 
0.078183 
0.086427 
0.094672 
0.086427 
0.088131 
0.092111 
0.085854 
0.092111 
0.088131 
0.088705 
0.091000 
0.086983 
0.091556 
0.086983 
0.091000 
0.088705 
0.089278 
0.091574 
0.089278 
0.092722 
0.089278 
0.092722 
0.089278 
0.091574 
0.089278 
0.078183 
0.086427 
0.094672 
0.086427 
0.088131 
0.092111 
0.085854 
0.092111 
0.088131 
0.088705 
0.091000 
0.086983 
0.091556 
0.086983 
0.091000 
0.088705 
0.089278 
0.091574 
0.089278 
0.092722 
0.089278 
0.092722 
0.089278 
0.091574 
0.089278 
SCALARS MASS float 
LOOKUP_TABLE default 
0.078183 
0.086427 
0.094672 
0.086427 
0.088131 
0.092111 
0.085854 
0.092111 
0.088131 
0.088705 
0.091000 
0.086983 
0.091556 
0.086983 
0.091000 
0.088705 
0.089278 
0.091574 
0.089278 
0.092722 
0.089278 
0.092722 
0.089278 
0.091574 
0.089278 
0.078183 
0.086427 
0.094672 
0.086427 
0.088131 
0.092111 
0.085854 
0.092111 
0.088131 
0.088705 
0.091000 
0.086983 
0.091556 
0.086983 
0.091000 
0.088705 
0.089278 
0.091574 
0.089278 
0.092722 
0.089278 
0.092722 
0.089278 
0.091574 
0.089278 
0.078183 
0.086427 
0.094672 
0.086427 
0.088131 
0.092111 
0.085854 
0.092111 
0.088131 
0.088705 
0.091000 
0.086983 
0.091556 
0.086983 
0.091000 
0.088705 
0.089278 
0.091574 
0.089278 
0.092722 
0.089278 
0.092722 
0.089278 
0.091574 
0.089278 
0.078183 
0.086427 
0.094672 
0.086427 
0.088131 
0.092111 
0.085854 
0.092111 
0.088131 
0.088705 
0.091000 
0.086983 
0.091556 
0.086983 
0.091000 
0.088705 
0.089278 
0.091574 
0.089278 
0.092722 
0.089278 
0.092722 
0.089278 
0.091574 
0.089278 
0.078183 
0.086427 
0.094672 
0.086427 
0.088131 
0.092111 
0.085854 
0.092111 
0.088131 
0.088705 
0.091000 
0.086983 
0.091556 
0.086983 
0.091000 
0.088705 
0.089278 
0.091574 
0.089278 
0.092722 
0.089278 
0.092722 
0.089278 
0.091574 
0.089278 
0.078183 
0.086427 
0.094672 
0.086427 
0.088131 
0.092111 
0.085854 
0.092111 
0.088131 
0.088705 
0.091000 
0.086983 
0.091556 
0.086983 
0.091000 
0.088705 
0.089278 
0.091574 
0.089278 
0.092722 
0.089278 
0.092722 
0.089278 
0.091574 
0.089278 
0.078183 
0.086427 
0.094672 
0.086427 
0.088131 
0.092111 
0.085854 
0.092111 
0.088131 
0.088705 
0.091000 
0.086983 
0.091556 
0.086983 
0.091000 
0.088705 
0.089278 
0.091574 
0.089278 
0.092722 
0.089278 
0.092722 
0.089278 
0.091574 
0.089278 
SCALARS DENSITY float 
LOOKUP_TABLE default 
20.000000 
20.000000 
20.000000 
20.000000 
20.000000 
20.000000 
20.000000 
20.000000 
20.000000 
20.000000 
20.000000 
20.000000 
20.000000 
20.000000 
20.000000 
20.000000 
20.000000 
20.000000 
20.000000 
20.000000 
20.000000 
20.000000 
20.000000 
20.000000 
20.000000 
20.000000 
20.000000 
20.000000 
20.000000 
20.000000 
20.000000 
20.000000 
20.000000 
20.000000 
20.000000 
20.000000 
20.000000 
20.000000 
20.000000 
20.000000 
20.000000 
20.000000 
20.000000 
20.000000 
20.000000 
20.000000 
20.000000 
20.000000 
20.000000 
20.000000 
20.000000 
20.000000 
20.000000 
20.000000 
20.000000 
20.000000 
20.000000 
20.000000 
20.000000 
20.000000 
20.000000 
20.000000 
20.000000 
20.000000 
20.000000 
20.000000 
20.000000 
20.000000 
20.000000 
20.000000 
20.000000 
20.000000 
20.000000 
20.000000 
20.000000 
20.000000 
20.000000 
20.000000 
20.000000 
20.000000 
20.000000 
20.000000 
20.000000 
20.000000 
20.000000 
20.000000 
20.000000 
20.000000 
20.000000 
20.000000 
20.000000 
20.000000 
20.000000 
20.000000 
20.000000 
20.000000 
20.000000 
20.000000 
20.000000 
20.000000 
20.000000 
20.000000 
20.000000 
20.000000 
20.000000 
20.000000 
20.000000 
20.000000 
20.000000 
20.000000 
20.000000 
20.000000 
20.000000 
20.000000 
20.000000 
20.000000 
20.000000 
20.000000 
20.000000 
20.000000 
20.000000 
20.000000 
20.000000 
20.000000 
20.000000 
20.000000 
20.000000 
20.000000 
20.000000 
20.000000 
20.000000 
20.000000 
20.000000 
20.000000 
20.000000 
20.000000 
20.000000 
20.000000 
20.000000 
20.000000 
20.000000 
20.000000 
20.000000 
20.000000 
20.000000 
20.000000 
20.000000 
20.000000 
20.000000 
20.000000 
20.000000 
20.000000 
20.000000 
20.000000 
20.000000 
20.000000 
20.000000 
20.000000 
20.000000 
20.000000 
20.000000 
20.000000 
20.000000 
20.000000 
20.000000 
20.000000 
20.000000 
20.000000 
20.000000 
20.000000 
20.000000 
20.000000 
20.000000 
20.000000 
20.000000 
SCALARS ELEM_i float 
LOOKUP_TABLE default 
176 
203 
176 
177 
204 
204 
204 
177 
177 
231 
204 
205 
205 
205 
178 
178 
232 
232 
232 
205 
205 
205 
206 
178 
179 
176 
202 
203 
203 
229 
203 
230 
203 
203 
229 
229 
230 
230 
230 
231 
231 
256 
256 
257 
257 
257 
257 
258 
231 
231 
175 
202 
202 
202 
201 
201 
201 
202 
229 
200 
201 
228 
228 
228 
229 
229 
200 
227 
227 
228 
228 
228 
255 
256 
256 
175 
174 
175 
174 
147 
174 
174 
174 
201 
146 
146 
173 
173 
173 
200 
200 
146 
146 
145 
173 
172 
173 
199 
200 
200 
175 
148 
148 
148 
121 
148 
147 
147 
147 
121 
121 
120 
120 
120 
147 
146 
94 
94 
93 
120 
120 
120 
119 
119 
146 
176 
149 
149 
148 
149 
149 
122 
149 
121 
123 
123 
122 
122 
122 
121 
121 
123 
123 
96 
95 
95 
95 
95 
94 
94 
176 
177 
176 
149 
177 
177 
150 
150 
150 
178 
178 
151 
151 
151 
150 
123 
179 
178 
152 
151 
151 
151 
124 
124 
124 
VECTORS VELOCITY float 
-0.000000 -4.244983 0.000000 
-0.000000 -4.244983 0.000000 
-0.000000 -4.244983 0.000000 
-0.000000 -4.244983 0.000000 
0.000000 -4.244983 0.000000 
0.000000 -4.244983 0.000000 
0.000000 -4.244983 0.000000 
0.000000 -4.244983 0.000000 
0.000000 -4.244983 0.000000 
-0.000000 -4.244983 0.000000 
-0.000000 -4.244983 0.000000 
-0.000000 -4.244983 0.000000 
-0.000000 -4.244983 0.000000 
-0.000000 -4.244983 0.000000 
-0.000000 -4.244983 0.000000 
-0.000000 -4.244983 0.000000 
0.000000 -4.244983 0.000000 
0.000000 -4.244983 0.000000 
0.000000 -4.244983 0.000000 
0.000000 -4.244983 0.000000 
0.000000 -4.244983 0.000000 
-0.000000 -4.244983 0.000000 
-0.000000 -4.244983 0.000000 
-0.000000 -4.244983 0.000000 
-0.000000 -4.244983 0.000000 
-0.000000 -4.244983 0.000000 
-0.000000 -4.244983 0.000000 
-0.000000 -4.244983 0.000000 
-0.000000 -4.244983 0.000000 
0.000000 -4.244983 0.000000 
0.000000 -4.244983 0.000000 
0.000000 -4.244983 0.000000 
-0.000000 -4.244983 0.000000 
0.000000 -4.244983 0.000000 
-0.000000 -4.244983 0.000000 
0.000000 -4.244983 0.000000 
0.000000 -4.244983 0.000000 
0.000000 -4.244983 0.000000 
-0.000000 -4.244983 0.000000 
-0.000000 -4.244983 0.000000 
-0.000000 -4.244983 0.000000 
-0.000000 -4.244983 0.000000 
0.000000 -4.244983 0.000000 
0.000000 -4.244983 0.000000 
0.000000 -4.244983 0.000000 
-0.000000 -4.244983 0.000000 
-0.000000 -4.244983 0.000000 
0.000000 -4.244983 0.000000 
-0.000000 -4.244983 0.000000 
0.000000 -4.244983 0.000000 
-0.000000 -4.244983 0.000000 
-0.000000 -4.244983 0.000000 
-0.000000 -4.244983 0.000000 
-0.000000 -4.244983 0.000000 
-0.000000 -4.244983 0.000000 
-0.000000 -4.244983 0.000000 
-0.000000 -4.244983 0.000000 
0.000000 -4.244983 0.000000 
0.000000 -4.244983 0.000000 
-0.000000 -4.244983 0.000000 
-0.000000 -4.244983 0.000000 
-0.000000 -4.244983 0.000000 
-0.000000 -4.244983 0.000000 
-0.000000 -4.244983 0.000000 
0.000000 -4.244983 0.000000 
-0.000000 -4.244983 0.000000 
0.000000 -4.244983 0.000000 
0.000000 -4.244983 0.000000 
-0.000000 -4.244983 0.000000 
-0.000000 -4.244983 0.000000 
-0.000000 -4.244983 0.000000 
-0.000000 -4.244983 0.000000 
-0.000000 -4.244983 0.000000 
-0.000000 -4.244983 0.000000 
-0.000000 -4.244983 0.000000 
-0.000000 -4.244983 0.000000 
-0.000000 -4.244983 0.000000 
-0.000000 -4.244983 0.000000 
-0.000000 -4.244983 0.000000 
-0.000000 -4.244983 0.000000 
-0.000000 -4.244983 0.000000 
0.000000 -4.244983 0.000000 
0.000000 -4.244983 0.000000 
0.000000 -4.244983 0.000000 
0.000000 -4.244983 0.000000 
-0.000000 -4.244983 0.000000 
-0.000000 -4.244983 0.000000 
0.000000 -4.244983 0.000000 
0.000000 -4.244983 0.000000 
0.000000 -4.244983 0.000000 
0.000000 -4.244983 0.000000 
-0.000000 -4.244983 0.000000 
-0.000000 -4.244983 0.000000 
-0.000000 -4.244983 0.000000 
-0.000000 -4.244983 0.000000 
0.000000 -4.244983 0.000000 
-0.000000 -4.244983 0.000000 
0.000000 -4.244983 0.000000 
-0.000000 -4.244983 0.000000 
-0.000000 -4.244983 0.000000 
0.000000 -4.244983 0.000000 
0.000000 -4.244983 0.000000 
0.000000 -4.244983 0.000000 
-0.000000 -4.244983 0.000000 
0.000000 -4.244983 0.000000 
0.000000 -4.244983 0.000000 
0.000000 -4.244983 0.000000 
-0.000000 -4.244983 0.000000 
-0.000000 -4.244983 0.000000 
0.000000 -4.244983 0.000000 
0.000000 -4.244983 0.000000 
0.000000 -4.244983 0.000000 
0.000000 -4.244983 0.000000 
-0.000000 -4.244983 0.000000 
-0.000000 -4.244983 0.000000 
-0.000000 -4.244983 0.000000 
0.000000 -4.244983 0.000000 
0.000000 -4.244983 0.000000 
-0.000000 -4.244983 0.000000 
-0.000000 -4.244983 0.000000 
-0.000000 -4.244983 0.000000 
-0.000000 -4.244983 0.000000 
0.000000 -4.244983 0.000000 
0.000000 -4.244983 0.000000 
0.000000 -4.244983 0.000000 
0.000000 -4.244983 0.000000 
-0.000000 -4.244983 0.000000 
0.000000 -4.244983 0.000000 
0.000000 -4.244983 0.000000 
0.000000 -4.244983 0.000000 
0.000000 -4.244983 0.000000 
0.000000 -4.244983 0.000000 
-0.000000 -4.244983 0.000000 
-0.000000 -4.244983 0.000000 
0.000000 -4.244983 0.000000 
0.000000 -4.244983 0.000000 
0.000000 -4.244983 0.000000 
0.000000 -4.244983 0.000000 
-0.000000 -4.244983 0.000000 
-0.000000 -4.244983 0.000000 
-0.000000 -4.244983 0.000000 
-0.000000 -4.244983 0.000000 
0.000000 -4.244983 0.000000 
0.000000 -4.244983 0.000000 
0.000000 -4.244983 0.000000 
0.000000 -4.244983 0.000000 
0.000000 -4.244983 0.000000 
0.000000 -4.244983 0.000000 
-0.000000 -4.244983 0.000000 
0.000000 -4.244983 0.000000 
-0.000000 -4.244983 0.000000 
-0.000000 -4.244983 0.000000 
-0.000000 -4.244983 0.000000 
-0.000000 -4.244983 0.000000 
0.000000 -4.244983 0.000000 
0.000000 -4.244983 0.000000 
0.000000 -4.244983 0.000000 
0.000000 -4.244983 0.000000 
0.000000 -4.244983 0.000000 
-0.000000 -4.244983 0.000000 
-0.000000 -4.244983 0.000000 
0.000000 -4.244983 0.000000 
0.000000 -4.244983 0.000000 
0.000000 -4.244983 0.000000 
0.000000 -4.244983 0.000000 
0.000000 -4.244983 0.000000 
-0.000000 -4.244983 0.000000 
0.000000 -4.244983 0.000000 
-0.000000 -4.244983 0.000000 
0.000000 -4.244983 0.000000 
0.000000 -4.244983 0.000000 
0.000000 -4.244983 0.000000 
0.000000 -4.244983 0.000000 
0.000000 -4.244983 0.000000 
-0.000000 -4.244983 0.000000 
TENSORS STRESS float 
-0.000000 0.000000 0.000000 
0.000000 -0.000000 0.000000 
0.000000 0.000000 0.000000 

0.000000 -0.000000 0.000000 
0.000000 0.000000 0.000000 
0.000000 0.000000 0.000000 

0.000000 -0.000000 0.000000 
0.000000 0.000000 0.000000 
0.000000 0.000000 0.000000 

-0.000000 -0.000000 0.000000 
0.000000 -0.000000 0.000000 
0.000000 0.000000 0.000000 

-0.000000 0.000000 0.000000 
0.000000 -0.000000 0.000000 
0.000000 0.000000 0.000000 

0.000000 0.000000 0.000000 
0.000000 0.000000 0.000000 
0.000000 0.000000 0.000000 

-0.000000 -0.000000 0.000000 
0.000000 -0.000000 0.000000 
0.000000 0.000000 0.000000 

-0.000000 -0.000000 0.000000 
0.000000 -0.000000 0.000000 
0.000000 0.000000 0.000000 

-0.000000 0.000000 0.000000 
0.000000 -0.000000 0.000000 
0.000000 0.000000 0.000000 

0.000000 0.000000 0.000000 
0.000000 0.000000 0.000000 
0.000000 0.000000 0.000000 

-0.000000 -0.000000 0.000000 
0.000000 -0.000000 0.000000 
0.000000 0.000000 0.000000 

-0.000000 -0.000000 0.000000 
0.000000 -0.000000 0.000000 
0.000000 0.000000 0.000000 

0.000000 -0.000000 0.000000 
0.000000 0.000000 0.000000 
0.000000 0.000000 0.000000 

-0.000000 -0.000000 0.000000 
0.000000 -0.000000 0.000000 
0.000000 0.000000 0.000000 

-0.000000 -0.000000 0.000000 
0.000000 -0.000000 0.000000 
0.000000 0.000000 0.000000 

0.000000 0.000000 0.000000 
0.000000 -0.000000 0.000000 
0.000000 0.000000 0.000000 

0.000000 -0.000000 0.000000 
0.000000 -0.000000 0.000000 
0.000000 0.000000 0.000000 

-0.000000 -0.000000 0.000000 
0.000000 -0.000000 0.000000 
0.000000 0.000000 0.000000 

-0.000000 0.000000 0.000000 
0.000000 -0.000000 0.000000 
0.000000 0.000000 0.000000 

-0.000000 0.000000 0.000000 
0.000000 -0.000000 0.000000 
0.000000 0.000000 0.000000 

0.000000 0.000000 0.000000 
0.000000 0.000000 0.000000 
0.000000 0.000000 0.000000 

0.000000 -0.000000 0.000000 
0.000000 0.000000 0.000000 
0.000000 0.000000 0.000000 

-0.000000 0.000000 0.000000 
0.000000 -0.000000 0.000000 
0.000000 0.000000 0.000000 

-0.000000 0.000000 0.000000 
0.000000 -0.000000 0.000000 
0.000000 0.000000 0.000000 

-0.000000 0.000000 0.000000 
0.000000 -0.000000 0.000000 
0.000000 0.000000 0.000000 

-0.000000 0.000000 0.000000 
0.000000 0.000000 0.000000 
0.000000 0.000000 0.000000 

0.000000 -0.000000 0.000000 
0.000000 0.000000 0.000000 
0.000000 0.000000 0.000000 

0.000000 -0.000000 0.000000 
0.000000 0.000000 0.000000 
0.000000 0.000000 0.000000 

-0.000000 -0.000000 0.000000 
0.000000 -0.000000 0.000000 
0.000000 0.000000 0.000000 

0.000000 0.000000 0.000000 
0.000000 0.000000 0.000000 
0.000000 0.000000 0.000000 

0.000000 -0.000000 0.000000 
0.000000 0.000000 0.000000 
0.000000 0.000000 0.000000 

-0.000000 0.000000 0.000000 
0.000000 -0.000000 0.000000 
0.000000 0.000000 0.000000 

0.000000 -0.000000 0.000000 
0.000000 0.000000 0.000000 
0.000000 0.000000 0.000000 

-0.000000 0.000000 0.000000 
0.000000 -0.000000 0.000000 
0.000000 0.000000 0.000000 

-0.000000 -0.000000 0.000000 
0.000000 -0.000000 0.000000 
0.000000 0.000000 0.000000 

0.000000 0.000000 0.000000 
0.000000 -0.000000 0.000000 
0.000000 0.000000 0.000000 

-0.000000 -0.000000 0.000000 
0.000000 -0.000000 0.000000 
0.000000 0.000000 0.000000 

-0.000000 0.000000 0.000000 
0.000000 -0.000000 0.000000 
0.000000 0.000000 0.000000 

0.000000 0.000000 0.000000 
0.000000 0.000000 0.000000 
0.000000 0.000000 0.000000 

0.000000 0.000000 0.000000 
0.000000 0.000000 0.000000 
0.000000 0.000000 0.000000 

0.000000 0.000000 0.000000 
0.000000 0.000000 0.000000 
0.000000 0.000000 0.000000 

0.000000 0.000000 0.000000 
0.000000 0.000000 0.000000 
0.000000 0.000000 0.000000 

0.000000 -0.000000 0.000000 
0.000000 0.000000 0.000000 
0.000000 0.000000 0.000000 

-0.000000 -0.000000 0.000000 
0.000000 -0.000000 0.000000 
0.000000 0.000000 0.000000 

-0.000000 0.000000 0.000000 
0.000000 0.000000 0.000000 
0.000000 0.000000 0.000000 

-0.000000 -0.000000 0.000000 
0.000000 0.000000 0.000000 
0.000000 0.000000 0.000000 

0.000000 -0.000000 0.000000 
0.000000 0.000000 0.000000 
0.000000 0.000000 0.000000 

0.000000 -0.000000 0.000000 
0.000000 -0.000000 0.000000 
0.000000 0.000000 0.000000 

0.000000 0.000000 0.000000 
0.000000 0.000000 0.000000 
0.000000 0.000000 0.000000 

0.000000 0.000000 0.000000 
0.000000 0.000000 0.000000 
0.000000 0.000000 0.000000 

-0.000000 0.000000 0.000000 
0.000000 0.000000 0.000000 
0.000000 0.000000 0.000000 

0.000000 0.000000 0.000000 
0.000000 0.000000 0.000000 
0.000000 0.000000 0.000000 

0.000000 0.000000 0.000000 
0.000000 0.000000 0.000000 
0.000000 0.000000 0.000000 

0.000000 0.000000 0.000000 
0.000000 0.000000 0.000000 
0.000000 0.000000 0.000000 

0.000000 -0.000000 0.000000 
0.000000 -0.000000 0.000000 
0.000000 0.000000 0.000000 

0.000000 0.000000 0.000000 
0.000000 -0.000000 0.000000 
0.000000 0.000000 0.000000 

0.000000 0.000000 0.000000 
0.000000 0.000000 0.000000 
0.000000 0.000000 0.000000 

0.000000 0.000000 0.000000 
0.000000 0.000000 0.000000 
0.000000 0.000000 0.000000 

-0.000000 0.000000 0.000000 
0.000000 0.000000 0.000000 
0.000000 0.000000 0.000000 

-0.000000 -0.000000 0.000000 
0.000000 0.000000 0.000000 
0.000000 0.000000 0.000000 

0.000000 -0.000000 0.000000 
0.000000 0.000000 0.000000 
0.000000 0.000000 0.000000 

-0.000000 0.000000 0.000000 
0.000000 -0.000000 0.000000 
0.000000 0.000000 0.000000 

-0.000000 0.000000 0.000000 
0.000000 -0.000000 0.000000 
0.000000 0.000000 0.000000 

-0.000000 -0.000000 0.000000 
0.000000 -0.000000 0.000000 
0.000000 0.000000 0.000000 

-0.000000 0.000000 0.000000 
0.000000 -0.000000 0.000000 
0.000000 0.000000 0.000000 

-0.000000 0.000000 0.000000 
0.000000 -0.000000 0.000000 
0.000000 0.000000 0.000000 

-0.000000 0.000000 0.000000 
0.000000 -0.000000 0.000000 
0.000000 0.000000 0.000000 

-0.000000 0.000000 0.000000 
0.000000 0.000000 0.000000 
0.000000 0.000000 0.000000 

-0.000000 0.000000 0.000000 
0.000000 -0.000000 0.000000 
0.000000 0.000000 0.000000 

-0.000000 0.000000 0.000000 
0.000000 0.000000 0.000000 
0.000000 0.000000 0.000000 

-0.000000 0.000000 0.000000 
0.000000 0.000000 0.000000 
0.000000 0.000000 0.000000 

-0.000000 -0.000000 0.000000 
0.000000 -0.000000 0.000000 
0.000000 0.000000 0.000000 

-0.000000 -0.000000 0.000000 
0.000000 0.000000 0.000000 
0.000000 0.000000 0.000000 

-0.000000 -0.000000 0.000000 
0.000000 -0.000000 0.000000 
0.000000 0.000000 0.000000 

-0.000000 -0.000000 0.000000 
0.000000 -0.000000 0.000000 
0.000000 0.000000 0.000000 

0.000000 -0.000000 0.000000 
0.000000 0.000000 0.000000 
0.000000 0.000000 0.000000 

-0.000000 -0.000000 0.000000 
0.000000 -0.000000 0.000000 
0.000000 0.000000 0.000000 

0.000000 -0.000000 0.000000 
0.000000 0.000000 0.000000 
0.000000 0.000000 0.000000 

0.000000 -0.000000 0.000000 
0.000000 0.000000 0.000000 
0.000000 0.000000 0.000000 

-0.000000 -0.000000 0.000000 
0.000000 -0.000000 0.000000 
0.000000 0.000000 0.000000 

0.000000 0.000000 0.000000 
0.000000 0.000000 0.000000 
0.000000 0.000000 0.000000 

0.000000 0.000000 0.000000 
0.000000 -0.000000 0.000000 
0.000000 0.000000 0.000000 

0.000000 0.000000 0.000000 
0.000000 0.000000 0.000000 
0.000000 0.000000 0.000000 

-0.000000 -0.000000 0.000000 
0.000000 -0.000000 0.000000 
0.000000 0.000000 0.000000 

-0.000000 0.000000 0.000000 
0.000000 -0.000000 0.000000 
0.000000 0.000000 0.000000 

0.000000 0.000000 0.000000 
0.000000 0.000000 0.000000 
0.000000 0.000000 0.000000 

0.000000 -0.000000 0.000000 
0.000000 0.000000 0.000000 
0.000000 0.000000 0.000000 

0.000000 -0.000000 0.000000 
0.000000 -0.000000 0.000000 
0.000000 0.000000 0.000000 

0.000000 0.000000 0.000000 
0.000000 0.000000 0.000000 
0.000000 0.000000 0.000000 

-0.000000 0.000000 0.000000 
0.000000 -0.000000 0.000000 
0.000000 0.000000 0.000000 

-0.000000 0.000000 0.000000 
0.000000 0.000000 0.000000 
0.000000 0.000000 0.000000 

0.000000 -0.000000 0.000000 
0.000000 0.000000 0.000000 
0.000000 0.000000 0.000000 

0.000000 0.000000 0.000000 
0.000000 0.000000 0.000000 
0.000000 0.000000 0.000000 

0.000000 -0.000000 0.000000 
0.000000 0.000000 0.000000 
0.000000 0.000000 0.000000 

0.000000 0.000000 0.000000 
0.000000 -0.000000 0.000000 
0.000000 0.000000 0.000000 

0.000000 0.000000 0.000000 
0.000000 0.000000 0.000000 
0.000000 0.000000 0.000000 

0.000000 0.000000 0.000000 
0.000000 0.000000 0.000000 
0.000000 0.000000 0.000000 

-0.000000 -0.000000 0.000000 
0.000000 0.000000 0.000000 
0.000000 0.000000 0.000000 

-0.000000 -0.000000 0.000000 
0.000000 0.000000 0.000000 
0.000000 0.000000 0.000000 

-0.000000 0.000000 0.000000 
0.000000 0.000000 0.000000 
0.000000 0.000000 0.000000 

-0.000000 -0.000000 0.000000 
0.000000 0.000000 0.000000 
0.000000 0.000000 0.000000 

0.000000 0.000000 0.000000 
0.000000 0.000000 0.000000 
0.000000 0.000000 0.000000 

-0.000000 0.000000 0.000000 
0.000000 0.000000 0.000000 
0.000000 0.000000 0.000000 

0.000000 0.000000 0.000000 
0.000000 0.000000 0.000000 
0.000000 0.000000 0.000000 

0.000000 0.000000 0.000000 
0.000000 -0.000000 0.000000 
0.000000 0.000000 0.000000 

0.000000 0.000000 0.000000 
0.000000 0.000000 0.000000 
0.000000 0.000000 0.000000 

-0.000000 0.000000 0.000000 
0.000000 0.000000 0.000000 
0.000000 0.000000 0.000000 

-0.000000 -0.000000 0.000000 
0.000000 -0.000000 0.000000 
0.000000 0.000000 0.000000 

0.000000 -0.000000 0.000000 
0.000000 0.000000 0.000000 
0.000000 0.000000 0.000000 

-0.000000 0.000000 0.000000 
0.000000 -0.000000 0.000000 
0.000000 0.000000 0.000000 

-0.000000 0.000000 0.000000 
0.000000 -0.000000 0.000000 
0.000000 0.000000 0.000000 

0.000000 0.000000 0.000000 
0.000000 0.000000 0.000000 
0.000000 0.000000 0.000000 

0.000000 0.000000 0.000000 
0.000000 0.000000 0.000000 
0.000000 0.000000 0.000000 

-0.000000 0.000000 0.000000 
0.000000 -0.000000 0.000000 
0.000000 0.000000 0.000000 

0.000000 0.000000 0.000000 
0.000000 0.000000 0.000000 
0.000000 0.000000 0.000000 

-0.000000 -0.000000 0.000000 
0.000000 -0.000000 0.000000 
0.000000 0.000000 0.000000 

-0.000000 0.000000 0.000000 
0.000000 -0.000000 0.000000 
0.000000 0.000000 0.000000 

-0.000000 0.000000 0.000000 
0.000000 -0.000000 0.000000 
0.000000 0.000000 0.000000 

0.000000 -0.000000 0.000000 
0.000000 0.000000 0.000000 
0.000000 0.000000 0.000000 

0.000000 0.000000 0.000000 
0.000000 0.000000 0.000000 
0.000000 0.000000 0.000000 

0.000000 0.000000 0.000000 
0.000000 0.000000 0.000000 
0.000000 0.000000 0.000000 

0.000000 -0.000000 0.000000 
0.000000 0.000000 0.000000 
0.000000 0.000000 0.000000 

-0.000000 0.000000 0.000000 
0.000000 -0.000000 0.000000 
0.000000 0.000000 0.000000 

-0.000000 -0.000000 0.000000 
0.000000 0.000000 0.000000 
0.000000 0.000000 0.000000 

0.000000 -0.000000 0.000000 
0.000000 0.000000 0.000000 
0.000000 0.000000 0.000000 

-0.000000 -0.000000 0.000000 
0.000000 -0.000000 0.000000 
0.000000 0.000000 0.000000 

-0.000000 -0.000000 0.000000 
0.000000 -0.000000 0.000000 
0.000000 0.000000 0.000000 

0.000000 -0.000000 0.000000 
0.000000 0.000000 0.000000 
0.000000 0.000000 0.000000 

0.000000 0.000000 0.000000 
0.000000 0.000000 0.000000 
0.000000 0.000000 0.000000 

-0.000000 0.000000 0.000000 
0.000000 -0.000000 0.000000 
0.000000 0.000000 0.000000 

0.000000 0.000000 0.000000 
0.000000 0.000000 0.000000 
0.000000 0.000000 0.000000 

-0.000000 -0.000000 0.000000 
0.000000 -0.000000 0.000000 
0.000000 0.000000 0.000000 

0.000000 -0.000000 0.000000 
0.000000 0.000000 0.000000 
0.000000 0.000000 0.000000 

0.000000 0.000000 0.000000 
0.000000 0.000000 0.000000 
0.000000 0.000000 0.000000 

0.000000 -0.000000 0.000000 
0.000000 -0.000000 0.000000 
0.000000 0.000000 0.000000 

-0.000000 -0.000000 0.000000 
0.000000 -0.000000 0.000000 
0.000000 0.000000 0.000000 

0.000000 -0.000000 0.000000 
0.000000 -0.000000 0.000000 
0.000000 0.000000 0.000000 

0.000000 0.000000 0.000000 
0.000000 0.000000 0.000000 
0.000000 0.000000 0.000000 

-0.000000 -0.000000 0.000000 
0.000000 -0.000000 0.000000 
0.000000 0.000000 0.000000 

-0.000000 -0.000000 0.000000 
0.000000 -0.000000 0.000000 
0.000000 0.000000 0.000000 

0.000000 0.000000 0.000000 
0.000000 -0.000000 0.000000 
0.000000 0.000000 0.000000 

0.000000 0.000000 0.000000 
0.000000 -0.000000 0.000000 
0.000000 0.000000 0.000000 

0.000000 -0.000000 0.000000 
0.000000 0.000000 0.000000 
0.000000 0.000000 0.000000 

-0.000000 0.000000 0.000000 
0.000000 -0.000000 0.000000 
0.000000 0.000000 0.000000 

0.000000 0.000000 0.000000 
0.000000 0.000000 0.000000 
0.000000 0.000000 0.000000 

0.000000 0.000000 0.000000 
0.000000 0.000000 0.000000 
0.000000 0.000000 0.000000 

-0.000000 0.000000 0.000000 
0.000000 0.000000 0.000000 
0.000000 0.000000 0.000000 

0.000000 0.000000 0.000000 
0.000000 0.000000 0.000000 
0.000000 0.000000 0.000000 

0.000000 0.000000 0.000000 
0.000000 0.000000 0.000000 
0.000000 0.000000 0.000000 

-0.000000 0.000000 0.000000 
0.000000 -0.000000 0.000000 
0.000000 0.000000 0.000000 

0.000000 0.000000 0.000000 
0.000000 -0.000000 0.000000 
0.000000 0.000000 0.000000 

0.000000 0.000000 0.000000 
0.000000 0.000000 0.000000 
0.000000 0.000000 0.000000 

0.000000 -0.000000 0.000000 
0.000000 0.000000 0.000000 
0.000000 0.000000 0.000000 

-0.000000 -0.000000 0.000000 
0.000000 -0.000000 0.000000 
0.000000 0.000000 0.000000 

0.000000 0.000000 0.000000 
0.000000 0.000000 0.000000 
0.000000 0.000000 0.000000 

0.000000 0.000000 0.000000 
0.000000 0.000000 0.000000 
0.000000 0.000000 0.000000 

0.000000 0.000000 0.000000 
0.000000 -0.000000 0.000000 
0.000000 0.000000 0.000000 

0.000000 0.000000 0.000000 
0.000000 -0.000000 0.000000 
0.000000 0.000000 0.000000 

0.000000 0.000000 0.000000 
0.000000 0.000000 0.000000 
0.000000 0.000000 0.000000 

-0.000000 0.000000 0.000000 
0.000000 -0.000000 0.000000 
0.000000 0.000000 0.000000 

0.000000 -0.000000 0.000000 
0.000000 0.000000 0.000000 
0.000000 0.000000 0.000000 

0.000000 -0.000000 0.000000 
0.000000 0.000000 0.000000 
0.000000 0.000000 0.000000 

-0.000000 -0.000000 0.000000 
0.000000 -0.000000 0.000000 
0.000000 0.000000 0.000000 

0.000000 -0.000000 0.000000 
0.000000 -0.000000 0.000000 
0.000000 0.000000 0.000000 

-0.000000 -0.000000 0.000000 
0.000000 -0.000000 0.000000 
0.000000 0.000000 0.000000 

-0.000000 -0.000000 0.000000 
0.000000 -0.000000 0.000000 
0.000000 0.000000 0.000000 

-0.000000 -0.000000 0.000000 
0.000000 0.000000 0.000000 
0.000000 0.000000 0.000000 

0.000000 -0.000000 0.000000 
0.000000 0.000000 0.000000 
0.000000 0.000000 0.000000 

0.000000 -0.000000 0.000000 
0.000000 -0.000000 0.000000 
0.000000 0.000000 0.000000 

-0.000000 0.000000 0.000000 
0.000000 -0.000000 0.000000 
0.000000 0.000000 0.000000 

0.000000 -0.000000 0.000000 
0.000000 -0.000000 0.000000 
0.000000 0.000000 0.000000 

0.000000 0.000000 0.000000 
0.000000 0.000000 0.000000 
0.000000 0.000000 0.000000 

-0.000000 0.000000 0.000000 
0.000000 -0.000000 0.000000 
0.000000 0.000000 0.000000 

-0.000000 -0.000000 0.000000 
0.000000 -0.000000 0.000000 
0.000000 0.000000 0.000000 

-0.000000 -0.000000 0.000000 
0.000000 -0.000000 0.000000 
0.000000 0.000000 0.000000 

TENSORS STRAIN float 
0.000000 0.000000 0.000000 
0.000000 -0.000000 0.000000 
0.000000 0.000000 0.000000 

0.000000 -0.000000 0.000000 
0.000000 0.000000 0.000000 
0.000000 0.000000 0.000000 

0.000000 -0.000000 0.000000 
0.000000 0.000000 0.000000 
0.000000 0.000000 0.000000 

0.000000 -0.000000 0.000000 
0.000000 -0.000000 0.000000 
0.000000 0.000000 0.000000 

0.000000 0.000000 0.000000 
0.000000 -0.000000 0.000000 
0.000000 0.000000 0.000000 

0.000000 0.000000 0.000000 
0.000000 0.000000 0.000000 
0.000000 0.000000 0.000000 

-0.000000 -0.000000 0.000000 
0.000000 -0.000000 0.000000 
0.000000 0.000000 0.000000 

-0.000000 -0.000000 0.000000 
0.000000 -0.000000 0.000000 
0.000000 0.000000 0.000000 

0.000000 0.000000 0.000000 
0.000000 -0.000000 0.000000 
0.000000 0.000000 0.000000 

0.000000 0.000000 0.000000 
0.000000 0.000000 0.000000 
0.000000 0.000000 0.000000 

-0.000000 -0.000000 0.000000 
0.000000 -0.000000 0.000000 
0.000000 0.000000 0.000000 

-0.000000 -0.000000 0.000000 
0.000000 -0.000000 0.000000 
0.000000 0.000000 0.000000 

0.000000 -0.000000 0.000000 
0.000000 0.000000 0.000000 
0.000000 0.000000 0.000000 

0.000000 -0.000000 0.000000 
0.000000 -0.000000 0.000000 
0.000000 0.000000 0.000000 

0.000000 -0.000000 0.000000 
0.000000 -0.000000 0.000000 
0.000000 0.000000 0.000000 

0.000000 0.000000 0.000000 
0.000000 -0.000000 0.000000 
0.000000 0.000000 0.000000 

0.000000 -0.000000 0.000000 
0.000000 -0.000000 0.000000 
0.000000 0.000000 0.000000 

0.000000 -0.000000 0.000000 
0.000000 -0.000000 0.000000 
0.000000 0.000000 0.000000 

-0.000000 0.000000 0.000000 
0.000000 -0.000000 0.000000 
0.000000 0.000000 0.000000 

0.000000 0.000000 0.000000 
0.000000 -0.000000 0.000000 
0.000000 0.000000 0.000000 

-0.000000 0.000000 0.000000 
0.000000 0.000000 0.000000 
0.000000 0.000000 0.000000 

-0.000000 -0.000000 0.000000 
0.000000 0.000000 0.000000 
0.000000 0.000000 0.000000 

0.000000 0.000000 0.000000 
0.000000 -0.000000 0.000000 
0.000000 0.000000 0.000000 

-0.000000 0.000000 0.000000 
0.000000 -0.000000 0.000000 
0.000000 0.000000 0.000000 

-0.000000 0.000000 0.000000 
0.000000 0.000000 0.000000 
0.000000 0.000000 0.000000 

-0.000000 0.000000 0.000000 
0.000000 0.000000 0.000000 
0.000000 0.000000 0.000000 

0.000000 -0.000000 0.000000 
0.000000 0.000000 0.000000 
0.000000 0.000000 0.000000 

0.000000 -0.000000 0.000000 
0.000000 0.000000 0.000000 
0.000000 0.000000 0.000000 

0.000000 -0.000000 0.000000 
0.000000 -0.000000 0.000000 
0.000000 0.000000 0.000000 

0.000000 0.000000 0.000000 
0.000000 0.000000 0.000000 
0.000000 0.000000 0.000000 

0.000000 -0.000000 0.000000 
0.000000 0.000000 0.000000 
0.000000 0.000000 0.000000 

0.000000 0.000000 0.000000 
0.000000 -0.000000 0.000000 
0.000000 0.000000 0.000000 

0.000000 -0.000000 0.000000 
0.000000 0.000000 0.000000 
0.000000 0.000000 0.000000 

0.000000 0.000000 0.000000 
0.000000 -0.000000 0.000000 
0.000000 0.000000 0.000000 

-0.000000 -0.000000 0.000000 
0.000000 -0.000000 0.000000 
0.000000 0.000000 0.000000 

0.000000 0.000000 0.000000 
0.000000 -0.000000 0.000000 
0.000000 0.000000 0.000000 

0.000000 -0.000000 0.000000 
0.000000 -0.000000 0.000000 
0.000000 0.000000 0.000000 

0.000000 0.000000 0.000000 
0.000000 -0.000000 0.000000 
0.000000 0.000000 0.000000 

-0.000000 0.000000 0.000000 
0.000000 0.000000 0.000000 
0.000000 0.000000 0.000000 

0.000000 0.000000 0.000000 
0.000000 -0.000000 0.000000 
0.000000 0.000000 0.000000 

-0.000000 0.000000 0.000000 
0.000000 0.000000 0.000000 
0.000000 0.000000 0.000000 

0.000000 0.000000 0.000000 
0.000000 0.000000 0.000000 
0.000000 0.000000 0.000000 

0.000000 -0.000000 0.000000 
0.000000 -0.000000 0.000000 
0.000000 0.000000 0.000000 

-0.000000 -0.000000 0.000000 
0.000000 -0.000000 0.000000 
0.000000 0.000000 0.000000 

-0.000000 0.000000 0.000000 
0.000000 0.000000 0.000000 
0.000000 0.000000 0.000000 

-0.000000 -0.000000 0.000000 
0.000000 0.000000 0.000000 
0.000000 0.000000 0.000000 

0.000000 -0.000000 0.000000 
0.000000 0.000000 0.000000 
0.000000 0.000000 0.000000 

0.000000 -0.000000 0.000000 
0.000000 -0.000000 0.000000 
0.000000 0.000000 0.000000 

0.000000 0.000000 0.000000 
0.000000 -0.000000 0.000000 
0.000000 0.000000 0.000000 

0.000000 0.000000 0.000000 
0.000000 0.000000 0.000000 
0.000000 0.000000 0.000000 

-0.000000 0.000000 0.000000 
0.000000 0.000000 0.000000 
0.000000 0.000000 0.000000 

0.000000 0.000000 0.000000 
0.000000 -0.000000 0.000000 
0.000000 0.000000 0.000000 

0.000000 0.000000 0.000000 
0.000000 0.000000 0.000000 
0.000000 0.000000 0.000000 

0.000000 0.000000 0.000000 
0.000000 0.000000 0.000000 
0.000000 0.000000 0.000000 

0.000000 -0.000000 0.000000 
0.000000 -0.000000 0.000000 
0.000000 0.000000 0.000000 

0.000000 0.000000 0.000000 
0.000000 -0.000000 0.000000 
0.000000 0.000000 0.000000 

0.000000 0.000000 0.000000 
0.000000 0.000000 0.000000 
0.000000 0.000000 0.000000 

0.000000 0.000000 0.000000 
0.000000 0.000000 0.000000 
0.000000 0.000000 0.000000 

-0.000000 0.000000 0.000000 
0.000000 0.000000 0.000000 
0.000000 0.000000 0.000000 

-0.000000 -0.000000 0.000000 
0.000000 0.000000 0.000000 
0.000000 0.000000 0.000000 

0.000000 -0.000000 0.000000 
0.000000 0.000000 0.000000 
0.000000 0.000000 0.000000 

-0.000000 0.000000 0.000000 
0.000000 0.000000 0.000000 
0.000000 0.000000 0.000000 

-0.000000 0.000000 0.000000 
0.000000 -0.000000 0.000000 
0.000000 0.000000 0.000000 

-0.000000 -0.000000 0.000000 
0.000000 0.000000 0.000000 
0.000000 0.000000 0.000000 

-0.000000 0.000000 0.000000 
0.000000 -0.000000 0.000000 
0.000000 0.000000 0.000000 

-0.000000 0.000000 0.000000 
0.000000 0.000000 0.000000 
0.000000 0.000000 0.000000 

-0.000000 0.000000 0.000000 
0.000000 -0.000000 0.000000 
0.000000 0.000000 0.000000 

-0.000000 0.000000 0.000000 
0.000000 0.000000 0.000000 
0.000000 0.000000 0.000000 

-0.000000 0.000000 0.000000 
0.000000 -0.000000 0.000000 
0.000000 0.000000 0.000000 

-0.000000 0.000000 0.000000 
0.000000 0.000000 0.000000 
0.000000 0.000000 0.000000 

-0.000000 0.000000 0.000000 
0.000000 0.000000 0.000000 
0.000000 0.000000 0.000000 

-0.000000 -0.000000 0.000000 
0.000000 -0.000000 0.000000 
0.000000 0.000000 0.000000 

-0.000000 -0.000000 0.000000 
0.000000 0.000000 0.000000 
0.000000 0.000000 0.000000 

-0.000000 -0.000000 0.000000 
0.000000 -0.000000 0.000000 
0.000000 0.000000 0.000000 

-0.000000 -0.000000 0.000000 
0.000000 0.000000 0.000000 
0.000000 0.000000 0.000000 

-0.000000 -0.000000 0.000000 
0.000000 0.000000 0.000000 
0.000000 0.000000 0.000000 

0.000000 -0.000000 0.000000 
0.000000 -0.000000 0.000000 
0.000000 0.000000 0.000000 

0.000000 -0.000000 0.000000 
0.000000 0.000000 0.000000 
0.000000 0.000000 0.000000 

0.000000 -0.000000 0.000000 
0.000000 0.000000 0.000000 
0.000000 0.000000 0.000000 

-0.000000 -0.000000 0.000000 
0.000000 -0.000000 0.000000 
0.000000 0.000000 0.000000 

0.000000 0.000000 0.000000 
0.000000 0.000000 0.000000 
0.000000 0.000000 0.000000 

0.000000 0.000000 0.000000 
0.000000 -0.000000 0.000000 
0.000000 0.000000 0.000000 

0.000000 0.000000 0.000000 
0.000000 0.000000 0.000000 
0.000000 0.000000 0.000000 

0.000000 -0.000000 0.000000 
0.000000 -0.000000 0.000000 
0.000000 0.000000 0.000000 

-0.000000 0.000000 0.000000 
0.000000 -0.000000 0.000000 
0.000000 0.000000 0.000000 

-0.000000 0.000000 0.000000 
0.000000 0.000000 0.000000 
0.000000 0.000000 0.000000 

0.000000 -0.000000 0.000000 
0.000000 0.000000 0.000000 
0.000000 0.000000 0.000000 

0.000000 -0.000000 0.000000 
0.000000 -0.000000 0.000000 
0.000000 0.000000 0.000000 

0.000000 0.000000 0.000000 
0.000000 0.000000 0.000000 
0.000000 0.000000 0.000000 

-0.000000 0.000000 0.000000 
0.000000 -0.000000 0.000000 
0.000000 0.000000 0.000000 

-0.000000 0.000000 0.000000 
0.000000 0.000000 0.000000 
0.000000 0.000000 0.000000 

0.000000 -0.000000 0.000000 
0.000000 0.000000 0.000000 
0.000000 0.000000 0.000000 

0.000000 0.000000 0.000000 
0.000000 0.000000 0.000000 
0.000000 0.000000 0.000000 

0.000000 -0.000000 0.000000 
0.000000 -0.000000 0.000000 
0.000000 0.000000 0.000000 

0.000000 0.000000 0.000000 
0.000000 -0.000000 0.000000 
0.000000 0.000000 0.000000 

0.000000 0.000000 0.000000 
0.000000 0.000000 0.000000 
0.000000 0.000000 0.000000 

0.000000 0.000000 0.000000 
0.000000 -0.000000 0.000000 
0.000000 0.000000 0.000000 

-0.000000 -0.000000 0.000000 
0.000000 0.000000 0.000000 
0.000000 0.000000 0.000000 

-0.000000 -0.000000 0.000000 
0.000000 0.000000 0.000000 
0.000000 0.000000 0.000000 

-0.000000 0.000000 0.000000 
0.000000 0.000000 0.000000 
0.000000 0.000000 0.000000 

-0.000000 -0.000000 0.000000 
0.000000 0.000000 0.000000 
0.000000 0.000000 0.000000 

0.000000 0.000000 0.000000 
0.000000 0.000000 0.000000 
0.000000 0.000000 0.000000 

-0.000000 0.000000 0.000000 
0.000000 0.000000 0.000000 
0.000000 0.000000 0.000000 

-0.000000 0.000000 0.000000 
0.000000 0.000000 0.000000 
0.000000 0.000000 0.000000 

0.000000 0.000000 0.000000 
0.000000 -0.000000 0.000000 
0.000000 0.000000 0.000000 

-0.000000 0.000000 0.000000 
0.000000 0.000000 0.000000 
0.000000 0.000000 0.000000 

-0.000000 0.000000 0.000000 
0.000000 0.000000 0.000000 
0.000000 0.000000 0.000000 

-0.000000 -0.000000 0.000000 
0.000000 -0.000000 0.000000 
0.000000 0.000000 0.000000 

0.000000 -0.000000 0.000000 
0.000000 0.000000 0.000000 
0.000000 0.000000 0.000000 

0.000000 0.000000 0.000000 
0.000000 -0.000000 0.000000 
0.000000 0.000000 0.000000 

0.000000 0.000000 0.000000 
0.000000 -0.000000 0.000000 
0.000000 0.000000 0.000000 

0.000000 0.000000 0.000000 
0.000000 -0.000000 0.000000 
0.000000 0.000000 0.000000 

0.000000 0.000000 0.000000 
0.000000 0.000000 0.000000 
0.000000 0.000000 0.000000 

0.000000 0.000000 0.000000 
0.000000 -0.000000 0.000000 
0.000000 0.000000 0.000000 

-0.000000 0.000000 0.000000 
0.000000 0.000000 0.000000 
0.000000 0.000000 0.000000 

-0.000000 -0.000000 0.000000 
0.000000 0.000000 0.000000 
0.000000 0.000000 0.000000 

-0.000000 0.000000 0.000000 
0.000000 -0.000000 0.000000 
0.000000 0.000000 0.000000 

-0.000000 0.000000 0.000000 
0.000000 -0.000000 0.000000 
0.000000 0.000000 0.000000 

0.000000 -0.000000 0.000000 
0.000000 0.000000 0.000000 
0.000000 0.000000 0.000000 

-0.000000 0.000000 0.000000 
0.000000 0.000000 0.000000 
0.000000 0.000000 0.000000 

0.000000 0.000000 0.000000 
0.000000 -0.000000 0.000000 
0.000000 0.000000 0.000000 

-0.000000 -0.000000 0.000000 
0.000000 0.000000 0.000000 
0.000000 0.000000 0.000000 

-0.000000 0.000000 0.000000 
0.000000 -0.000000 0.000000 
0.000000 0.000000 0.000000 

-0.000000 -0.000000 0.000000 
0.000000 0.000000 0.000000 
0.000000 0.000000 0.000000 

0.000000 -0.000000 0.000000 
0.000000 0.000000 0.000000 
0.000000 0.000000 0.000000 

-0.000000 -0.000000 0.000000 
0.000000 -0.000000 0.000000 
0.000000 0.000000 0.000000 

-0.000000 -0.000000 0.000000 
0.000000 -0.000000 0.000000 
0.000000 0.000000 0.000000 

0.000000 -0.000000 0.000000 
0.000000 0.000000 0.000000 
0.000000 0.000000 0.000000 

0.000000 0.000000 0.000000 
0.000000 0.000000 0.000000 
0.000000 0.000000 0.000000 

0.000000 0.000000 0.000000 
0.000000 -0.000000 0.000000 
0.000000 0.000000 0.000000 

0.000000 0.000000 0.000000 
0.000000 0.000000 0.000000 
0.000000 0.000000 0.000000 

-0.000000 -0.000000 0.000000 
0.000000 -0.000000 0.000000 
0.000000 0.000000 0.000000 

-0.000000 -0.000000 0.000000 
0.000000 0.000000 0.000000 
0.000000 0.000000 0.000000 

0.000000 0.000000 0.000000 
0.000000 0.000000 0.000000 
0.000000 0.000000 0.000000 

0.000000 -0.000000 0.000000 
0.000000 -0.000000 0.000000 
0.000000 0.000000 0.000000 

0.000000 -0.000000 0.000000 
0.000000 -0.000000 0.000000 
0.000000 0.000000 0.000000 

0.000000 -0.000000 0.000000 
0.000000 -0.000000 0.000000 
0.000000 0.000000 0.000000 

-0.000000 0.000000 0.000000 
0.000000 0.000000 0.000000 
0.000000 0.000000 0.000000 

-0.000000 -0.000000 0.000000 
0.000000 -0.000000 0.000000 
0.000000 0.000000 0.000000 

0.000000 -0.000000 0.000000 
0.000000 -0.000000 0.000000 
0.000000 0.000000 0.000000 

0.000000 0.000000 0.000000 
0.000000 -0.000000 0.000000 
0.000000 0.000000 0.000000 

0.000000 0.000000 0.000000 
0.000000 -0.000000 0.000000 
0.000000 0.000000 0.000000 

0.000000 -0.000000 0.000000 
0.000000 0.000000 0.000000 
0.000000 0.000000 0.000000 

-0.000000 0.000000 0.000000 
0.000000 -0.000000 0.000000 
0.000000 0.000000 0.000000 

0.000000 0.000000 0.000000 
0.000000 0.000000 0.000000 
0.000000 0.000000 0.000000 

-0.000000 0.000000 0.000000 
0.000000 0.000000 0.000000 
0.000000 0.000000 0.000000 

-0.000000 0.000000 0.000000 
0.000000 0.000000 0.000000 
0.000000 0.000000 0.000000 

-0.000000 0.000000 0.000000 
0.000000 0.000000 0.000000 
0.000000 0.000000 0.000000 

-0.000000 0.000000 0.000000 
0.000000 0.000000 0.000000 
0.000000 0.000000 0.000000 

-0.000000 0.000000 0.000000 
0.000000 -0.000000 0.000000 
0.000000 0.000000 0.000000 

0.000000 0.000000 0.000000 
0.000000 -0.000000 0.000000 
0.000000 0.000000 0.000000 

0.000000 0.000000 0.000000 
0.000000 0.000000 0.000000 
0.000000 0.000000 0.000000 

0.000000 -0.000000 0.000000 
0.000000 -0.000000 0.000000 
0.000000 0.000000 0.000000 

0.000000 -0.000000 0.000000 
0.000000 -0.000000 0.000000 
0.000000 0.000000 0.000000 

0.000000 0.000000 0.000000 
0.000000 0.000000 0.000000 
0.000000 0.000000 0.000000 

-0.000000 0.000000 0.000000 
0.000000 0.000000 0.000000 
0.000000 0.000000 0.000000 

0.000000 0.000000 0.000000 
0.000000 -0.000000 0.000000 
0.000000 0.000000 0.000000 

0.000000 0.000000 0.000000 
0.000000 -0.000000 0.000000 
0.000000 0.000000 0.000000 

0.000000 0.000000 0.000000 
0.000000 0.000000 0.000000 
0.000000 0.000000 0.000000 

0.000000 0.000000 0.000000 
0.000000 -0.000000 0.000000 
0.000000 0.000000 0.000000 

0.000000 -0.000000 0.000000 
0.000000 0.000000 0.000000 
0.000000 0.000000 0.000000 

0.000000 -0.000000 0.000000 
0.000000 0.000000 0.000000 
0.000000 0.000000 0.000000 

0.000000 -0.000000 0.000000 
0.000000 -0.000000 0.000000 
0.000000 0.000000 0.000000 

0.000000 -0.000000 0.000000 
0.000000 -0.000000 0.000000 
0.000000 0.000000 0.000000 

-0.000000 -0.000000 0.000000 
0.000000 -0.000000 0.000000 
0.000000 0.000000 0.000000 

0.000000 -0.000000 0.000000 
0.000000 -0.000000 0.000000 
0.000000 0.000000 0.000000 

-0.000000 -0.000000 0.000000 
0.000000 0.000000 0.000000 
0.000000 0.000000 0.000000 

-0.000000 -0.000000 0.000000 
0.000000 0.000000 0.000000 
0.000000 0.000000 0.000000 

0.000000 -0.000000 0.000000 
0.000000 -0.000000 0.000000 
0.000000 0.000000 0.000000 

0.000000 0.000000 0.000000 
0.000000 -0.000000 0.000000 
0.000000 0.000000 0.000000 

0.000000 -0.000000 0.000000 
0.000000 -0.000000 0.000000 
0.000000 0.000000 0.000000 

0.000000 0.000000 0.000000 
0.000000 0.000000 0.000000 
0.000000 0.000000 0.000000 

0.000000 0.000000 0.000000 
0.000000 -0.000000 0.000000 
0.000000 0.000000 0.000000 

-0.000000 -0.000000 0.000000 
0.000000 -0.000000 0.000000 
0.000000 0.000000 0.000000 

-0.000000 -0.000000 0.000000 
0.000000 -0.000000 0.000000 
0.000000 0.000000 0.000000 

