# vtk DataFile Version 3.0 
vtk output 
ASCII 
DATASET UNSTRUCTURED_GRID 
POINTS 175 float 
-0.026061 -1.016343 0.000000 
-0.106992 -0.948288 0.000000 
-0.054870 -0.956521 0.000000 
-0.028809 -0.910637 0.000000 
-0.186430 -0.884212 0.000000 
-0.137056 -0.886739 0.000000 
-0.114311 -0.833091 0.000000 
-0.058186 -0.848757 0.000000 
-0.029377 -0.808580 0.000000 
-0.265318 -0.821057 0.000000 
-0.217198 -0.821856 0.000000 
-0.196633 -0.764560 0.000000 
-0.143120 -0.773268 0.000000 
-0.116563 -0.726000 0.000000 
-0.058945 -0.745646 0.000000 
-0.029568 -0.707526 0.000000 
-0.344206 -0.757901 0.000000 
-0.296791 -0.757894 0.000000 
-0.278030 -0.697951 0.000000 
-0.225992 -0.703817 0.000000 
-0.201664 -0.651700 0.000000 
-0.145749 -0.665174 0.000000 
-0.117890 -0.620831 0.000000 
-0.059328 -0.643537 0.000000 
-0.029759 -0.606471 0.000000 
-0.058559 -1.057094 0.000000 
-0.162226 -1.077937 0.000000 
-0.123292 -1.042319 0.000000 
-0.142917 -0.993336 0.000000 
-0.261851 -1.100093 0.000000 
-0.229092 -1.063066 0.000000 
-0.256854 -1.011835 0.000000 
-0.209613 -0.977722 0.000000 
-0.223062 -0.930148 0.000000 
-0.360414 -1.122393 0.000000 
-0.329787 -1.085270 0.000000 
-0.361761 -1.033468 0.000000 
-0.321587 -0.997060 0.000000 
-0.341985 -0.946825 0.000000 
-0.290702 -0.914026 0.000000 
-0.302189 -0.867291 0.000000 
-0.458977 -1.144693 0.000000 
-0.429420 -1.107619 0.000000 
-0.464588 -1.055577 0.000000 
-0.427556 -1.018549 0.000000 
-0.453135 -0.967035 0.000000 
-0.407738 -0.931719 0.000000 
-0.425037 -0.882291 0.000000 
-0.370772 -0.850662 0.000000 
-0.381315 -0.804435 0.000000 
-0.046960 -1.107909 0.000000 
-0.095301 -1.201955 0.000000 
-0.098873 -1.149308 0.000000 
-0.149405 -1.134110 0.000000 
-0.140093 -1.293659 0.000000 
-0.148617 -1.244961 0.000000 
-0.205981 -1.234724 0.000000 
-0.203197 -1.176520 0.000000 
-0.248777 -1.157374 0.000000 
-0.184111 -1.384623 0.000000 
-0.194039 -1.337532 0.000000 
-0.254475 -1.330232 0.000000 
-0.257893 -1.276122 0.000000 
-0.309886 -1.260750 0.000000 
-0.303554 -1.200205 0.000000 
-0.347255 -1.180047 0.000000 
-0.228129 -1.475586 0.000000 
-0.238687 -1.429362 0.000000 
-0.301302 -1.424410 0.000000 
-0.307162 -1.372371 0.000000 
-0.363386 -1.360250 0.000000 
-0.362692 -1.302739 0.000000 
-0.412122 -1.285446 0.000000 
-0.403017 -1.223299 0.000000 
-0.445733 -1.202720 0.000000 
-0.000000 -1.130524 0.000000 
0.043388 -1.226955 0.000000 
-0.000000 -1.196923 0.000000 
-0.043388 -1.226955 0.000000 
0.087158 -1.319152 0.000000 
0.043769 -1.295453 0.000000 
-0.000000 -1.333919 0.000000 
-0.043769 -1.295453 0.000000 
-0.087158 -1.319152 0.000000 
0.130831 -1.410281 0.000000 
0.087824 -1.388682 0.000000 
0.044436 -1.431382 0.000000 
-0.000000 -1.400317 0.000000 
-0.044436 -1.431382 0.000000 
-0.087824 -1.388682 0.000000 
-0.130831 -1.410281 0.000000 
0.174505 -1.501411 0.000000 
0.131782 -1.480845 0.000000 
0.088871 -1.526711 0.000000 
0.044532 -1.498847 0.000000 
-0.000000 -1.535248 0.000000 
-0.044532 -1.498847 0.000000 
-0.088871 -1.526711 0.000000 
-0.131782 -1.480845 0.000000 
-0.174505 -1.501411 0.000000 
0.046960 -1.107909 0.000000 
0.149405 -1.134110 0.000000 
0.098873 -1.149308 0.000000 
0.095301 -1.201955 0.000000 
0.248777 -1.157374 0.000000 
0.203197 -1.176520 0.000000 
0.205981 -1.234724 0.000000 
0.148617 -1.244961 0.000000 
0.140093 -1.293659 0.000000 
0.347255 -1.180047 0.000000 
0.303554 -1.200205 0.000000 
0.309886 -1.260750 0.000000 
0.257893 -1.276122 0.000000 
0.254475 -1.330232 0.000000 
0.194039 -1.337532 0.000000 
0.184111 -1.384623 0.000000 
0.445733 -1.202720 0.000000 
0.403017 -1.223299 0.000000 
0.412122 -1.285446 0.000000 
0.362692 -1.302739 0.000000 
0.363386 -1.360250 0.000000 
0.307162 -1.372371 0.000000 
0.301302 -1.424410 0.000000 
0.238687 -1.429362 0.000000 
0.228129 -1.475586 0.000000 
0.058559 -1.057094 0.000000 
0.142917 -0.993336 0.000000 
0.123292 -1.042319 0.000000 
0.162226 -1.077937 0.000000 
0.223062 -0.930148 0.000000 
0.209613 -0.977722 0.000000 
0.256854 -1.011835 0.000000 
0.229092 -1.063066 0.000000 
0.261851 -1.100093 0.000000 
0.302189 -0.867291 0.000000 
0.290702 -0.914026 0.000000 
0.341985 -0.946825 0.000000 
0.321587 -0.997060 0.000000 
0.361761 -1.033468 0.000000 
0.329787 -1.085270 0.000000 
0.360414 -1.122393 0.000000 
0.381315 -0.804435 0.000000 
0.370772 -0.850662 0.000000 
0.425037 -0.882291 0.000000 
0.407738 -0.931719 0.000000 
0.453135 -0.967035 0.000000 
0.427556 -1.018549 0.000000 
0.464588 -1.055577 0.000000 
0.429420 -1.107619 0.000000 
0.458977 -1.144693 0.000000 
0.026061 -1.016343 0.000000 
0.028809 -0.910637 0.000000 
0.054870 -0.956521 0.000000 
0.106992 -0.948288 0.000000 
0.029377 -0.808580 0.000000 
0.058186 -0.848757 0.000000 
0.114311 -0.833091 0.000000 
0.137056 -0.886739 0.000000 
0.186430 -0.884212 0.000000 
0.029568 -0.707526 0.000000 
0.058945 -0.745646 0.000000 
0.116563 -0.726000 0.000000 
0.143120 -0.773268 0.000000 
0.196633 -0.764560 0.000000 
0.217198 -0.821856 0.000000 
0.265318 -0.821057 0.000000 
0.029759 -0.606471 0.000000 
0.059328 -0.643537 0.000000 
0.117890 -0.620831 0.000000 
0.145749 -0.665174 0.000000 
0.201664 -0.651700 0.000000 
0.225992 -0.703817 0.000000 
0.278030 -0.697951 0.000000 
0.296791 -0.757894 0.000000 
0.344206 -0.757901 0.000000 
CELLS 175 350 
1 0 
1 1 
1 2 
1 3 
1 4 
1 5 
1 6 
1 7 
1 8 
1 9 
1 10 
1 11 
1 12 
1 13 
1 14 
1 15 
1 16 
1 17 
1 18 
1 19 
1 20 
1 21 
1 22 
1 23 
1 24 
1 25 
1 26 
1 27 
1 28 
1 29 
1 30 
1 31 
1 32 
1 33 
1 34 
1 35 
1 36 
1 37 
1 38 
1 39 
1 40 
1 41 
1 42 
1 43 
1 44 
1 45 
1 46 
1 47 
1 48 
1 49 
1 50 
1 51 
1 52 
1 53 
1 54 
1 55 
1 56 
1 57 
1 58 
1 59 
1 60 
1 61 
1 62 
1 63 
1 64 
1 65 
1 66 
1 67 
1 68 
1 69 
1 70 
1 71 
1 72 
1 73 
1 74 
1 75 
1 76 
1 77 
1 78 
1 79 
1 80 
1 81 
1 82 
1 83 
1 84 
1 85 
1 86 
1 87 
1 88 
1 89 
1 90 
1 91 
1 92 
1 93 
1 94 
1 95 
1 96 
1 97 
1 98 
1 99 
1 100 
1 101 
1 102 
1 103 
1 104 
1 105 
1 106 
1 107 
1 108 
1 109 
1 110 
1 111 
1 112 
1 113 
1 114 
1 115 
1 116 
1 117 
1 118 
1 119 
1 120 
1 121 
1 122 
1 123 
1 124 
1 125 
1 126 
1 127 
1 128 
1 129 
1 130 
1 131 
1 132 
1 133 
1 134 
1 135 
1 136 
1 137 
1 138 
1 139 
1 140 
1 141 
1 142 
1 143 
1 144 
1 145 
1 146 
1 147 
1 148 
1 149 
1 150 
1 151 
1 152 
1 153 
1 154 
1 155 
1 156 
1 157 
1 158 
1 159 
1 160 
1 161 
1 162 
1 163 
1 164 
1 165 
1 166 
1 167 
1 168 
1 169 
1 170 
1 171 
1 172 
1 173 
1 174 
CELL_TYPES 175 
1 
1 
1 
1 
1 
1 
1 
1 
1 
1 
1 
1 
1 
1 
1 
1 
1 
1 
1 
1 
1 
1 
1 
1 
1 
1 
1 
1 
1 
1 
1 
1 
1 
1 
1 
1 
1 
1 
1 
1 
1 
1 
1 
1 
1 
1 
1 
1 
1 
1 
1 
1 
1 
1 
1 
1 
1 
1 
1 
1 
1 
1 
1 
1 
1 
1 
1 
1 
1 
1 
1 
1 
1 
1 
1 
1 
1 
1 
1 
1 
1 
1 
1 
1 
1 
1 
1 
1 
1 
1 
1 
1 
1 
1 
1 
1 
1 
1 
1 
1 
1 
1 
1 
1 
1 
1 
1 
1 
1 
1 
1 
1 
1 
1 
1 
1 
1 
1 
1 
1 
1 
1 
1 
1 
1 
1 
1 
1 
1 
1 
1 
1 
1 
1 
1 
1 
1 
1 
1 
1 
1 
1 
1 
1 
1 
1 
1 
1 
1 
1 
1 
1 
1 
1 
1 
1 
1 
1 
1 
1 
1 
1 
1 
1 
1 
1 
1 
1 
1 
1 
1 
1 
1 
1 
1 
POINT_DATA 175 
VECTORS X_GC float 
-0.026061 -1.016343 0.000000 
-0.106992 -0.948288 0.000000 
-0.054870 -0.956521 0.000000 
-0.028809 -0.910637 0.000000 
-0.186430 -0.884212 0.000000 
-0.137056 -0.886739 0.000000 
-0.114311 -0.833091 0.000000 
-0.058186 -0.848757 0.000000 
-0.029377 -0.808580 0.000000 
-0.265318 -0.821057 0.000000 
-0.217198 -0.821856 0.000000 
-0.196633 -0.764560 0.000000 
-0.143120 -0.773268 0.000000 
-0.116563 -0.726000 0.000000 
-0.058945 -0.745646 0.000000 
-0.029568 -0.707526 0.000000 
-0.344206 -0.757901 0.000000 
-0.296791 -0.757894 0.000000 
-0.278030 -0.697951 0.000000 
-0.225992 -0.703817 0.000000 
-0.201664 -0.651700 0.000000 
-0.145749 -0.665174 0.000000 
-0.117890 -0.620831 0.000000 
-0.059328 -0.643537 0.000000 
-0.029759 -0.606471 0.000000 
-0.058559 -1.057094 0.000000 
-0.162226 -1.077937 0.000000 
-0.123292 -1.042319 0.000000 
-0.142917 -0.993336 0.000000 
-0.261851 -1.100093 0.000000 
-0.229092 -1.063066 0.000000 
-0.256854 -1.011835 0.000000 
-0.209613 -0.977722 0.000000 
-0.223062 -0.930148 0.000000 
-0.360414 -1.122393 0.000000 
-0.329787 -1.085270 0.000000 
-0.361761 -1.033468 0.000000 
-0.321587 -0.997060 0.000000 
-0.341985 -0.946825 0.000000 
-0.290702 -0.914026 0.000000 
-0.302189 -0.867291 0.000000 
-0.458977 -1.144693 0.000000 
-0.429420 -1.107619 0.000000 
-0.464588 -1.055577 0.000000 
-0.427556 -1.018549 0.000000 
-0.453135 -0.967035 0.000000 
-0.407738 -0.931719 0.000000 
-0.425037 -0.882291 0.000000 
-0.370772 -0.850662 0.000000 
-0.381315 -0.804435 0.000000 
-0.046960 -1.107909 0.000000 
-0.095301 -1.201955 0.000000 
-0.098873 -1.149308 0.000000 
-0.149405 -1.134110 0.000000 
-0.140093 -1.293659 0.000000 
-0.148617 -1.244961 0.000000 
-0.205981 -1.234724 0.000000 
-0.203197 -1.176520 0.000000 
-0.248777 -1.157374 0.000000 
-0.184111 -1.384623 0.000000 
-0.194039 -1.337532 0.000000 
-0.254475 -1.330232 0.000000 
-0.257893 -1.276122 0.000000 
-0.309886 -1.260750 0.000000 
-0.303554 -1.200205 0.000000 
-0.347255 -1.180047 0.000000 
-0.228129 -1.475586 0.000000 
-0.238687 -1.429362 0.000000 
-0.301302 -1.424410 0.000000 
-0.307162 -1.372371 0.000000 
-0.363386 -1.360250 0.000000 
-0.362692 -1.302739 0.000000 
-0.412122 -1.285446 0.000000 
-0.403017 -1.223299 0.000000 
-0.445733 -1.202720 0.000000 
-0.000000 -1.130524 0.000000 
0.043388 -1.226955 0.000000 
-0.000000 -1.196923 0.000000 
-0.043388 -1.226955 0.000000 
0.087158 -1.319152 0.000000 
0.043769 -1.295453 0.000000 
-0.000000 -1.333919 0.000000 
-0.043769 -1.295453 0.000000 
-0.087158 -1.319152 0.000000 
0.130831 -1.410281 0.000000 
0.087824 -1.388682 0.000000 
0.044436 -1.431382 0.000000 
-0.000000 -1.400317 0.000000 
-0.044436 -1.431382 0.000000 
-0.087824 -1.388682 0.000000 
-0.130831 -1.410281 0.000000 
0.174505 -1.501411 0.000000 
0.131782 -1.480845 0.000000 
0.088871 -1.526711 0.000000 
0.044532 -1.498847 0.000000 
-0.000000 -1.535248 0.000000 
-0.044532 -1.498847 0.000000 
-0.088871 -1.526711 0.000000 
-0.131782 -1.480845 0.000000 
-0.174505 -1.501411 0.000000 
0.046960 -1.107909 0.000000 
0.149405 -1.134110 0.000000 
0.098873 -1.149308 0.000000 
0.095301 -1.201955 0.000000 
0.248777 -1.157374 0.000000 
0.203197 -1.176520 0.000000 
0.205981 -1.234724 0.000000 
0.148617 -1.244961 0.000000 
0.140093 -1.293659 0.000000 
0.347255 -1.180047 0.000000 
0.303554 -1.200205 0.000000 
0.309886 -1.260750 0.000000 
0.257893 -1.276122 0.000000 
0.254475 -1.330232 0.000000 
0.194039 -1.337532 0.000000 
0.184111 -1.384623 0.000000 
0.445733 -1.202720 0.000000 
0.403017 -1.223299 0.000000 
0.412122 -1.285446 0.000000 
0.362692 -1.302739 0.000000 
0.363386 -1.360250 0.000000 
0.307162 -1.372371 0.000000 
0.301302 -1.424410 0.000000 
0.238687 -1.429362 0.000000 
0.228129 -1.475586 0.000000 
0.058559 -1.057094 0.000000 
0.142917 -0.993336 0.000000 
0.123292 -1.042319 0.000000 
0.162226 -1.077937 0.000000 
0.223062 -0.930148 0.000000 
0.209613 -0.977722 0.000000 
0.256854 -1.011835 0.000000 
0.229092 -1.063066 0.000000 
0.261851 -1.100093 0.000000 
0.302189 -0.867291 0.000000 
0.290702 -0.914026 0.000000 
0.341985 -0.946825 0.000000 
0.321587 -0.997060 0.000000 
0.361761 -1.033468 0.000000 
0.329787 -1.085270 0.000000 
0.360414 -1.122393 0.000000 
0.381315 -0.804435 0.000000 
0.370772 -0.850662 0.000000 
0.425037 -0.882291 0.000000 
0.407738 -0.931719 0.000000 
0.453135 -0.967035 0.000000 
0.427556 -1.018549 0.000000 
0.464588 -1.055577 0.000000 
0.429420 -1.107619 0.000000 
0.458977 -1.144693 0.000000 
0.026061 -1.016343 0.000000 
0.028809 -0.910637 0.000000 
0.054870 -0.956521 0.000000 
0.106992 -0.948288 0.000000 
0.029377 -0.808580 0.000000 
0.058186 -0.848757 0.000000 
0.114311 -0.833091 0.000000 
0.137056 -0.886739 0.000000 
0.186430 -0.884212 0.000000 
0.029568 -0.707526 0.000000 
0.058945 -0.745646 0.000000 
0.116563 -0.726000 0.000000 
0.143120 -0.773268 0.000000 
0.196633 -0.764560 0.000000 
0.217198 -0.821856 0.000000 
0.265318 -0.821057 0.000000 
0.029759 -0.606471 0.000000 
0.059328 -0.643537 0.000000 
0.117890 -0.620831 0.000000 
0.145749 -0.665174 0.000000 
0.201664 -0.651700 0.000000 
0.225992 -0.703817 0.000000 
0.278030 -0.697951 0.000000 
0.296791 -0.757894 0.000000 
0.344206 -0.757901 0.000000 
VECTORS X_EC float 
0.338794 0.220635 0.000000 
-0.609100 -0.698113 0.000000 
0.713312 -0.586973 0.000000 
0.374519 0.793598 0.000000 
0.423588 0.436867 0.000000 
-0.218274 0.470971 0.000000 
-0.513962 -0.253268 0.000000 
0.756418 -0.041782 0.000000 
0.381900 -0.584174 0.000000 
-0.550868 -0.415736 0.000000 
0.823577 -0.404940 0.000000 
0.556234 0.821556 0.000000 
-0.139443 0.939124 0.000000 
-0.484677 0.301000 0.000000 
0.766286 0.566215 0.000000 
0.384386 0.051595 0.000000 
0.474677 0.731661 0.000000 
-0.141715 0.731565 0.000000 
-0.385608 -0.077664 0.000000 
0.937896 0.001532 0.000000 
0.621631 -0.702048 0.000000 
-0.105264 -0.520149 0.000000 
-0.467428 0.881225 0.000000 
0.771260 -0.812247 0.000000 
0.386873 0.687364 0.000000 
0.761262 0.770770 0.000000 
0.108942 -0.947854 0.000000 
-0.397202 0.571307 0.000000 
-0.142083 -0.089968 0.000000 
-0.595936 -0.648743 0.000000 
0.978194 0.851391 0.000000 
-0.660903 0.159766 0.000000 
0.724964 -0.300754 0.000000 
0.899809 -0.943003 0.000000 
0.685384 -0.347691 0.000000 
0.287229 -0.848849 0.000000 
0.702895 0.451822 0.000000 
0.180633 -0.039697 0.000000 
0.445811 -0.717856 0.000000 
-0.220880 0.839358 0.000000 
-0.071546 0.208432 0.000000 
-0.033296 -0.046639 0.000000 
-0.417537 -0.547148 0.000000 
0.039645 0.750289 0.000000 
-0.441768 0.250418 0.000000 
-0.109248 -0.445033 0.000000 
-0.699407 -0.921788 0.000000 
-0.474522 0.410932 0.000000 
0.820030 -0.016061 0.000000 
0.957100 -0.640133 0.000000 
0.610485 -0.543224 0.000000 
-0.761092 0.726395 0.000000 
-0.714655 0.015658 0.000000 
-0.057734 -0.189509 0.000000 
-0.178789 -0.035601 0.000000 
-0.067979 -0.693027 0.000000 
0.677748 -0.831230 0.000000 
0.641556 0.383025 0.000000 
-0.765897 0.124546 0.000000 
0.393446 -0.807591 0.000000 
0.522510 0.556679 0.000000 
-0.691820 0.458134 0.000000 
-0.647393 -0.272348 0.000000 
0.028512 -0.479875 0.000000 
-0.053800 0.702765 0.000000 
0.514316 0.430634 0.000000 
0.965681 0.420418 0.000000 
-0.897068 -0.203611 0.000000 
-0.083078 -0.270464 0.000000 
-0.006893 -0.972989 0.000000 
0.724017 0.863378 0.000000 
0.714996 0.086975 0.000000 
-0.642413 -0.146483 0.000000 
-0.760780 -0.985463 0.000000 
-0.205471 0.736722 0.000000 
0.000000 -0.237922 0.000000 
-0.564049 -0.936110 0.000000 
0.000000 0.658454 0.000000 
0.564049 -0.936110 0.000000 
0.866949 0.308546 0.000000 
-0.569003 -0.011385 0.000000 
0.000000 0.507903 0.000000 
0.569003 -0.011385 0.000000 
-0.866949 0.308546 0.000000 
0.299194 -0.461204 0.000000 
0.858290 -0.752788 0.000000 
-0.577662 -0.176342 0.000000 
0.000000 -0.595720 0.000000 
0.577662 -0.176342 0.000000 
-0.858290 -0.752788 0.000000 
-0.299194 -0.461204 0.000000 
-0.268560 0.769046 0.000000 
0.286830 0.491404 0.000000 
0.844677 -0.889398 0.000000 
-0.578910 0.734440 0.000000 
0.000000 -0.774156 0.000000 
0.578910 0.734440 0.000000 
-0.844677 -0.889398 0.000000 
-0.286830 0.491404 0.000000 
0.268560 0.769046 0.000000 
-0.610485 -0.543224 0.000000 
0.057734 -0.189509 0.000000 
0.714655 0.015658 0.000000 
0.761092 0.726395 0.000000 
0.765897 0.124546 0.000000 
-0.641556 0.383025 0.000000 
-0.677748 -0.831230 0.000000 
0.067979 -0.693027 0.000000 
0.178789 -0.035600 0.000000 
-0.514316 0.430634 0.000000 
0.053800 0.702765 0.000000 
-0.028512 -0.479875 0.000000 
0.647393 -0.272348 0.000000 
0.691820 0.458134 0.000000 
-0.522510 0.556679 0.000000 
-0.393446 -0.807591 0.000000 
0.205471 0.736722 0.000000 
0.760780 -0.985463 0.000000 
0.642413 -0.146483 0.000000 
-0.714996 0.086975 0.000000 
-0.724017 0.863378 0.000000 
0.006894 -0.972989 0.000000 
0.083078 -0.270464 0.000000 
0.897068 -0.203611 0.000000 
-0.965681 0.420418 0.000000 
-0.761262 0.770770 0.000000 
0.142083 -0.089968 0.000000 
0.397202 0.571307 0.000000 
-0.108942 -0.947854 0.000000 
-0.899809 -0.943003 0.000000 
-0.724964 -0.300754 0.000000 
0.660903 0.159766 0.000000 
-0.978194 0.851391 0.000000 
0.595936 -0.648743 0.000000 
0.071546 0.208432 0.000000 
0.220880 0.839358 0.000000 
-0.445811 -0.717856 0.000000 
-0.180633 -0.039697 0.000000 
-0.702895 0.451822 0.000000 
-0.287229 -0.848849 0.000000 
-0.685384 -0.347691 0.000000 
-0.957100 -0.640133 0.000000 
-0.820030 -0.016061 0.000000 
0.474522 0.410932 0.000000 
0.699407 -0.921788 0.000000 
0.109248 -0.445033 0.000000 
0.441768 0.250418 0.000000 
-0.039645 0.750289 0.000000 
0.417537 -0.547148 0.000000 
0.033296 -0.046639 0.000000 
-0.338794 0.220635 0.000000 
-0.374519 0.793598 0.000000 
-0.713312 -0.586973 0.000000 
0.609100 -0.698113 0.000000 
-0.381900 -0.584174 0.000000 
-0.756418 -0.041782 0.000000 
0.513962 -0.253268 0.000000 
0.218274 0.470971 0.000000 
-0.423588 0.436867 0.000000 
-0.384386 0.051595 0.000000 
-0.766286 0.566215 0.000000 
0.484677 0.301000 0.000000 
0.139443 0.939124 0.000000 
-0.556234 0.821556 0.000000 
-0.823577 -0.404940 0.000000 
0.550868 -0.415736 0.000000 
-0.386873 0.687364 0.000000 
-0.771260 -0.812247 0.000000 
0.467428 0.881225 0.000000 
0.105264 -0.520149 0.000000 
-0.621631 -0.702048 0.000000 
-0.937896 0.001532 0.000000 
0.385608 -0.077664 0.000000 
0.141715 0.731565 0.000000 
-0.474677 0.731661 0.000000 
CELL_DATA 175 
SCALARS MASS float 
LOOKUP_TABLE default 
0.078183 
0.086427 
0.094672 
0.086427 
0.088131 
0.092111 
0.085854 
0.092111 
0.088131 
0.088705 
0.091000 
0.086983 
0.091556 
0.086983 
0.091000 
0.088705 
0.089278 
0.091574 
0.089278 
0.092722 
0.089278 
0.092722 
0.089278 
0.091574 
0.089278 
0.078183 
0.086427 
0.094672 
0.086427 
0.088131 
0.092111 
0.085854 
0.092111 
0.088131 
0.088705 
0.091000 
0.086983 
0.091556 
0.086983 
0.091000 
0.088705 
0.089278 
0.091574 
0.089278 
0.092722 
0.089278 
0.092722 
0.089278 
0.091574 
0.089278 
0.078183 
0.086427 
0.094672 
0.086427 
0.088131 
0.092111 
0.085854 
0.092111 
0.088131 
0.088705 
0.091000 
0.086983 
0.091556 
0.086983 
0.091000 
0.088705 
0.089278 
0.091574 
0.089278 
0.092722 
0.089278 
0.092722 
0.089278 
0.091574 
0.089278 
0.078183 
0.086427 
0.094672 
0.086427 
0.088131 
0.092111 
0.085854 
0.092111 
0.088131 
0.088705 
0.091000 
0.086983 
0.091556 
0.086983 
0.091000 
0.088705 
0.089278 
0.091574 
0.089278 
0.092722 
0.089278 
0.092722 
0.089278 
0.091574 
0.089278 
0.078183 
0.086427 
0.094672 
0.086427 
0.088131 
0.092111 
0.085854 
0.092111 
0.088131 
0.088705 
0.091000 
0.086983 
0.091556 
0.086983 
0.091000 
0.088705 
0.089278 
0.091574 
0.089278 
0.092722 
0.089278 
0.092722 
0.089278 
0.091574 
0.089278 
0.078183 
0.086427 
0.094672 
0.086427 
0.088131 
0.092111 
0.085854 
0.092111 
0.088131 
0.088705 
0.091000 
0.086983 
0.091556 
0.086983 
0.091000 
0.088705 
0.089278 
0.091574 
0.089278 
0.092722 
0.089278 
0.092722 
0.089278 
0.091574 
0.089278 
0.078183 
0.086427 
0.094672 
0.086427 
0.088131 
0.092111 
0.085854 
0.092111 
0.088131 
0.088705 
0.091000 
0.086983 
0.091556 
0.086983 
0.091000 
0.088705 
0.089278 
0.091574 
0.089278 
0.092722 
0.089278 
0.092722 
0.089278 
0.091574 
0.089278 
SCALARS MASS float 
LOOKUP_TABLE default 
0.078183 
0.086427 
0.094672 
0.086427 
0.088131 
0.092111 
0.085854 
0.092111 
0.088131 
0.088705 
0.091000 
0.086983 
0.091556 
0.086983 
0.091000 
0.088705 
0.089278 
0.091574 
0.089278 
0.092722 
0.089278 
0.092722 
0.089278 
0.091574 
0.089278 
0.078183 
0.086427 
0.094672 
0.086427 
0.088131 
0.092111 
0.085854 
0.092111 
0.088131 
0.088705 
0.091000 
0.086983 
0.091556 
0.086983 
0.091000 
0.088705 
0.089278 
0.091574 
0.089278 
0.092722 
0.089278 
0.092722 
0.089278 
0.091574 
0.089278 
0.078183 
0.086427 
0.094672 
0.086427 
0.088131 
0.092111 
0.085854 
0.092111 
0.088131 
0.088705 
0.091000 
0.086983 
0.091556 
0.086983 
0.091000 
0.088705 
0.089278 
0.091574 
0.089278 
0.092722 
0.089278 
0.092722 
0.089278 
0.091574 
0.089278 
0.078183 
0.086427 
0.094672 
0.086427 
0.088131 
0.092111 
0.085854 
0.092111 
0.088131 
0.088705 
0.091000 
0.086983 
0.091556 
0.086983 
0.091000 
0.088705 
0.089278 
0.091574 
0.089278 
0.092722 
0.089278 
0.092722 
0.089278 
0.091574 
0.089278 
0.078183 
0.086427 
0.094672 
0.086427 
0.088131 
0.092111 
0.085854 
0.092111 
0.088131 
0.088705 
0.091000 
0.086983 
0.091556 
0.086983 
0.091000 
0.088705 
0.089278 
0.091574 
0.089278 
0.092722 
0.089278 
0.092722 
0.089278 
0.091574 
0.089278 
0.078183 
0.086427 
0.094672 
0.086427 
0.088131 
0.092111 
0.085854 
0.092111 
0.088131 
0.088705 
0.091000 
0.086983 
0.091556 
0.086983 
0.091000 
0.088705 
0.089278 
0.091574 
0.089278 
0.092722 
0.089278 
0.092722 
0.089278 
0.091574 
0.089278 
0.078183 
0.086427 
0.094672 
0.086427 
0.088131 
0.092111 
0.085854 
0.092111 
0.088131 
0.088705 
0.091000 
0.086983 
0.091556 
0.086983 
0.091000 
0.088705 
0.089278 
0.091574 
0.089278 
0.092722 
0.089278 
0.092722 
0.089278 
0.091574 
0.089278 
SCALARS DENSITY float 
LOOKUP_TABLE default 
20.000000 
20.000000 
20.000000 
20.000000 
20.000000 
20.000000 
20.000000 
20.000000 
20.000000 
20.000000 
20.000000 
20.000000 
20.000000 
20.000000 
20.000000 
20.000000 
20.000000 
20.000000 
20.000000 
20.000000 
20.000000 
20.000000 
20.000000 
20.000000 
20.000000 
20.000000 
20.000000 
20.000000 
20.000000 
20.000000 
20.000000 
20.000000 
20.000000 
20.000000 
20.000000 
20.000000 
20.000000 
20.000000 
20.000000 
20.000000 
20.000000 
20.000000 
20.000000 
20.000000 
20.000000 
20.000000 
20.000000 
20.000000 
20.000000 
20.000000 
20.000000 
20.000000 
20.000000 
20.000000 
20.000000 
20.000000 
20.000000 
20.000000 
20.000000 
20.000000 
20.000000 
20.000000 
20.000000 
20.000000 
20.000000 
20.000000 
20.000000 
20.000000 
20.000000 
20.000000 
20.000000 
20.000000 
20.000000 
20.000000 
20.000000 
20.000000 
20.000000 
20.000000 
20.000000 
20.000000 
20.000000 
20.000000 
20.000000 
20.000000 
20.000000 
20.000000 
20.000000 
20.000000 
20.000000 
20.000000 
20.000000 
20.000000 
20.000000 
20.000000 
20.000000 
20.000000 
20.000000 
20.000000 
20.000000 
20.000000 
20.000000 
20.000000 
20.000000 
20.000000 
20.000000 
20.000000 
20.000000 
20.000000 
20.000000 
20.000000 
20.000000 
20.000000 
20.000000 
20.000000 
20.000000 
20.000000 
20.000000 
20.000000 
20.000000 
20.000000 
20.000000 
20.000000 
20.000000 
20.000000 
20.000000 
20.000000 
20.000000 
20.000000 
20.000000 
20.000000 
20.000000 
20.000000 
20.000000 
20.000000 
20.000000 
20.000000 
20.000000 
20.000000 
20.000000 
20.000000 
20.000000 
20.000000 
20.000000 
20.000000 
20.000000 
20.000000 
20.000000 
20.000000 
20.000000 
20.000000 
20.000000 
20.000000 
20.000000 
20.000000 
20.000000 
20.000000 
20.000000 
20.000000 
20.000000 
20.000000 
20.000000 
20.000000 
20.000000 
20.000000 
20.000000 
20.000000 
20.000000 
20.000000 
20.000000 
20.000000 
20.000000 
20.000000 
20.000000 
20.000000 
20.000000 
SCALARS ELEM_i float 
LOOKUP_TABLE default 
175 
202 
175 
176 
203 
203 
203 
176 
176 
230 
203 
204 
204 
204 
177 
177 
231 
231 
231 
204 
204 
204 
205 
177 
178 
175 
201 
202 
202 
228 
202 
229 
202 
202 
228 
228 
229 
229 
229 
230 
230 
255 
255 
256 
256 
256 
256 
257 
230 
230 
174 
201 
201 
201 
200 
200 
200 
201 
228 
199 
200 
227 
227 
227 
228 
228 
199 
226 
226 
226 
227 
227 
254 
254 
255 
174 
173 
174 
173 
146 
173 
173 
173 
200 
145 
145 
172 
172 
172 
199 
199 
145 
145 
144 
172 
171 
172 
198 
199 
199 
174 
147 
147 
147 
120 
147 
146 
146 
146 
120 
120 
119 
119 
119 
146 
145 
93 
92 
92 
119 
119 
118 
118 
118 
145 
175 
148 
148 
147 
148 
148 
121 
148 
120 
122 
122 
121 
121 
121 
120 
120 
122 
122 
95 
94 
94 
94 
94 
93 
93 
175 
176 
175 
148 
176 
176 
149 
149 
149 
177 
177 
150 
150 
150 
149 
122 
178 
177 
151 
150 
150 
150 
123 
123 
123 
VECTORS VELOCITY float 
-0.000000 -4.582447 0.000000 
-0.000000 -4.582447 0.000000 
-0.000000 -4.582447 0.000000 
-0.000000 -4.582447 0.000000 
-0.000000 -4.582447 0.000000 
-0.000000 -4.582447 0.000000 
0.000000 -4.582447 0.000000 
0.000000 -4.582447 0.000000 
0.000000 -4.582447 0.000000 
-0.000000 -4.582447 0.000000 
-0.000000 -4.582447 0.000000 
0.000000 -4.582447 0.000000 
0.000000 -4.582447 0.000000 
0.000000 -4.582447 0.000000 
0.000000 -4.582447 0.000000 
-0.000000 -4.582447 0.000000 
0.000000 -4.582447 0.000000 
0.000000 -4.582447 0.000000 
0.000000 -4.582447 0.000000 
0.000000 -4.582447 0.000000 
0.000000 -4.582447 0.000000 
-0.000000 -4.582447 0.000000 
-0.000000 -4.582447 0.000000 
0.000000 -4.582447 0.000000 
0.000000 -4.582447 0.000000 
-0.000000 -4.582447 0.000000 
-0.000000 -4.582447 0.000000 
-0.000000 -4.582447 0.000000 
-0.000000 -4.582447 0.000000 
-0.000000 -4.582447 0.000000 
-0.000000 -4.582447 0.000000 
-0.000000 -4.582447 0.000000 
-0.000000 -4.582447 0.000000 
-0.000000 -4.582447 0.000000 
0.000000 -4.582447 0.000000 
0.000000 -4.582447 0.000000 
0.000000 -4.582447 0.000000 
0.000000 -4.582447 0.000000 
0.000000 -4.582447 0.000000 
0.000000 -4.582447 0.000000 
0.000000 -4.582447 0.000000 
-0.000000 -4.582447 0.000000 
-0.000000 -4.582447 0.000000 
0.000000 -4.582447 0.000000 
0.000000 -4.582447 0.000000 
-0.000000 -4.582447 0.000000 
-0.000000 -4.582447 0.000000 
-0.000000 -4.582447 0.000000 
0.000000 -4.582447 0.000000 
-0.000000 -4.582447 0.000000 
-0.000000 -4.582447 0.000000 
0.000000 -4.582447 0.000000 
-0.000000 -4.582447 0.000000 
-0.000000 -4.582447 0.000000 
-0.000000 -4.582447 0.000000 
0.000000 -4.582447 0.000000 
-0.000000 -4.582447 0.000000 
-0.000000 -4.582447 0.000000 
-0.000000 -4.582447 0.000000 
-0.000000 -4.582447 0.000000 
-0.000000 -4.582447 0.000000 
-0.000000 -4.582447 0.000000 
-0.000000 -4.582447 0.000000 
-0.000000 -4.582447 0.000000 
-0.000000 -4.582447 0.000000 
-0.000000 -4.582447 0.000000 
0.000000 -4.582447 0.000000 
-0.000000 -4.582447 0.000000 
-0.000000 -4.582447 0.000000 
-0.000000 -4.582447 0.000000 
-0.000000 -4.582447 0.000000 
-0.000000 -4.582447 0.000000 
0.000000 -4.582447 0.000000 
-0.000000 -4.582447 0.000000 
-0.000000 -4.582447 0.000000 
-0.000000 -4.582447 0.000000 
-0.000000 -4.582447 0.000000 
-0.000000 -4.582447 0.000000 
0.000000 -4.582447 0.000000 
-0.000000 -4.582447 0.000000 
0.000000 -4.582447 0.000000 
0.000000 -4.582447 0.000000 
0.000000 -4.582447 0.000000 
0.000000 -4.582447 0.000000 
0.000000 -4.582447 0.000000 
-0.000000 -4.582447 0.000000 
-0.000000 -4.582447 0.000000 
-0.000000 -4.582447 0.000000 
0.000000 -4.582447 0.000000 
-0.000000 -4.582447 0.000000 
-0.000000 -4.582447 0.000000 
-0.000000 -4.582447 0.000000 
-0.000000 -4.582447 0.000000 
0.000000 -4.582447 0.000000 
0.000000 -4.582447 0.000000 
-0.000000 -4.582447 0.000000 
0.000000 -4.582447 0.000000 
-0.000000 -4.582447 0.000000 
-0.000000 -4.582447 0.000000 
0.000000 -4.582447 0.000000 
0.000000 -4.582447 0.000000 
0.000000 -4.582447 0.000000 
0.000000 -4.582447 0.000000 
-0.000000 -4.582447 0.000000 
0.000000 -4.582447 0.000000 
-0.000000 -4.582447 0.000000 
-0.000000 -4.582447 0.000000 
-0.000000 -4.582447 0.000000 
-0.000000 -4.582447 0.000000 
0.000000 -4.582447 0.000000 
-0.000000 -4.582447 0.000000 
0.000000 -4.582447 0.000000 
-0.000000 -4.582447 0.000000 
0.000000 -4.582447 0.000000 
0.000000 -4.582447 0.000000 
0.000000 -4.582447 0.000000 
0.000000 -4.582447 0.000000 
0.000000 -4.582447 0.000000 
0.000000 -4.582447 0.000000 
0.000000 -4.582447 0.000000 
0.000000 -4.582447 0.000000 
0.000000 -4.582447 0.000000 
-0.000000 -4.582447 0.000000 
0.000000 -4.582447 0.000000 
-0.000000 -4.582447 0.000000 
0.000000 -4.582447 0.000000 
0.000000 -4.582447 0.000000 
0.000000 -4.582447 0.000000 
0.000000 -4.582447 0.000000 
0.000000 -4.582447 0.000000 
0.000000 -4.582447 0.000000 
-0.000000 -4.582447 0.000000 
-0.000000 -4.582447 0.000000 
0.000000 -4.582447 0.000000 
0.000000 -4.582447 0.000000 
0.000000 -4.582447 0.000000 
0.000000 -4.582447 0.000000 
0.000000 -4.582447 0.000000 
0.000000 -4.582447 0.000000 
0.000000 -4.582447 0.000000 
0.000000 -4.582447 0.000000 
0.000000 -4.582447 0.000000 
0.000000 -4.582447 0.000000 
0.000000 -4.582447 0.000000 
0.000000 -4.582447 0.000000 
-0.000000 -4.582447 0.000000 
0.000000 -4.582447 0.000000 
-0.000000 -4.582447 0.000000 
-0.000000 -4.582447 0.000000 
-0.000000 -4.582447 0.000000 
0.000000 -4.582447 0.000000 
0.000000 -4.582447 0.000000 
0.000000 -4.582447 0.000000 
0.000000 -4.582447 0.000000 
0.000000 -4.582447 0.000000 
0.000000 -4.582447 0.000000 
0.000000 -4.582447 0.000000 
0.000000 -4.582447 0.000000 
0.000000 -4.582447 0.000000 
-0.000000 -4.582447 0.000000 
-0.000000 -4.582447 0.000000 
-0.000000 -4.582447 0.000000 
-0.000000 -4.582447 0.000000 
-0.000000 -4.582447 0.000000 
0.000000 -4.582447 0.000000 
0.000000 -4.582447 0.000000 
0.000000 -4.582447 0.000000 
0.000000 -4.582447 0.000000 
-0.000000 -4.582447 0.000000 
-0.000000 -4.582447 0.000000 
-0.000000 -4.582447 0.000000 
-0.000000 -4.582447 0.000000 
-0.000000 -4.582447 0.000000 
-0.000000 -4.582447 0.000000 
0.000000 -4.582447 0.000000 
TENSORS STRESS float 
-0.000000 0.000000 0.000000 
0.000000 -0.000000 0.000000 
0.000000 0.000000 0.000000 

0.000000 -0.000000 0.000000 
0.000000 0.000000 0.000000 
0.000000 0.000000 0.000000 

0.000000 -0.000000 0.000000 
0.000000 -0.000000 0.000000 
0.000000 0.000000 0.000000 

0.000000 -0.000000 0.000000 
0.000000 0.000000 0.000000 
0.000000 0.000000 0.000000 

-0.000000 0.000000 0.000000 
0.000000 -0.000000 0.000000 
0.000000 0.000000 0.000000 

0.000000 0.000000 0.000000 
0.000000 0.000000 0.000000 
0.000000 0.000000 0.000000 

-0.000000 0.000000 0.000000 
0.000000 0.000000 0.000000 
0.000000 0.000000 0.000000 

0.000000 -0.000000 0.000000 
0.000000 -0.000000 0.000000 
0.000000 0.000000 0.000000 

-0.000000 0.000000 0.000000 
0.000000 -0.000000 0.000000 
0.000000 0.000000 0.000000 

-0.000000 0.000000 0.000000 
0.000000 0.000000 0.000000 
0.000000 0.000000 0.000000 

-0.000000 0.000000 0.000000 
0.000000 -0.000000 0.000000 
0.000000 0.000000 0.000000 

-0.000000 0.000000 0.000000 
0.000000 0.000000 0.000000 
0.000000 0.000000 0.000000 

-0.000000 0.000000 0.000000 
0.000000 0.000000 0.000000 
0.000000 0.000000 0.000000 

-0.000000 0.000000 0.000000 
0.000000 -0.000000 0.000000 
0.000000 0.000000 0.000000 

-0.000000 -0.000000 0.000000 
0.000000 -0.000000 0.000000 
0.000000 0.000000 0.000000 

0.000000 0.000000 0.000000 
0.000000 0.000000 0.000000 
0.000000 0.000000 0.000000 

0.000000 -0.000000 0.000000 
0.000000 0.000000 0.000000 
0.000000 0.000000 0.000000 

0.000000 -0.000000 0.000000 
0.000000 0.000000 0.000000 
0.000000 0.000000 0.000000 

-0.000000 -0.000000 0.000000 
0.000000 0.000000 0.000000 
0.000000 0.000000 0.000000 

-0.000000 -0.000000 0.000000 
0.000000 -0.000000 0.000000 
0.000000 0.000000 0.000000 

0.000000 0.000000 0.000000 
0.000000 0.000000 0.000000 
0.000000 0.000000 0.000000 

0.000000 -0.000000 0.000000 
0.000000 0.000000 0.000000 
0.000000 0.000000 0.000000 

0.000000 0.000000 0.000000 
0.000000 0.000000 0.000000 
0.000000 0.000000 0.000000 

-0.000000 0.000000 0.000000 
0.000000 0.000000 0.000000 
0.000000 0.000000 0.000000 

-0.000000 0.000000 0.000000 
0.000000 -0.000000 0.000000 
0.000000 0.000000 0.000000 

0.000000 0.000000 0.000000 
0.000000 0.000000 0.000000 
0.000000 0.000000 0.000000 

0.000000 0.000000 0.000000 
0.000000 0.000000 0.000000 
0.000000 0.000000 0.000000 

0.000000 0.000000 0.000000 
0.000000 0.000000 0.000000 
0.000000 0.000000 0.000000 

-0.000000 0.000000 0.000000 
0.000000 -0.000000 0.000000 
0.000000 0.000000 0.000000 

-0.000000 0.000000 0.000000 
0.000000 -0.000000 0.000000 
0.000000 0.000000 0.000000 

0.000000 0.000000 0.000000 
0.000000 0.000000 0.000000 
0.000000 0.000000 0.000000 

-0.000000 -0.000000 0.000000 
0.000000 -0.000000 0.000000 
0.000000 0.000000 0.000000 

0.000000 -0.000000 0.000000 
0.000000 -0.000000 0.000000 
0.000000 0.000000 0.000000 

-0.000000 0.000000 0.000000 
0.000000 -0.000000 0.000000 
0.000000 0.000000 0.000000 

-0.000000 -0.000000 0.000000 
0.000000 -0.000000 0.000000 
0.000000 0.000000 0.000000 

-0.000000 0.000000 0.000000 
0.000000 0.000000 0.000000 
0.000000 0.000000 0.000000 

-0.000000 -0.000000 0.000000 
0.000000 -0.000000 0.000000 
0.000000 0.000000 0.000000 

0.000000 0.000000 0.000000 
0.000000 -0.000000 0.000000 
0.000000 0.000000 0.000000 

0.000000 -0.000000 0.000000 
0.000000 0.000000 0.000000 
0.000000 0.000000 0.000000 

0.000000 0.000000 0.000000 
0.000000 -0.000000 0.000000 
0.000000 0.000000 0.000000 

-0.000000 0.000000 0.000000 
0.000000 0.000000 0.000000 
0.000000 0.000000 0.000000 

-0.000000 0.000000 0.000000 
0.000000 -0.000000 0.000000 
0.000000 0.000000 0.000000 

0.000000 0.000000 0.000000 
0.000000 0.000000 0.000000 
0.000000 0.000000 0.000000 

0.000000 -0.000000 0.000000 
0.000000 0.000000 0.000000 
0.000000 0.000000 0.000000 

0.000000 -0.000000 0.000000 
0.000000 0.000000 0.000000 
0.000000 0.000000 0.000000 

0.000000 -0.000000 0.000000 
0.000000 0.000000 0.000000 
0.000000 0.000000 0.000000 

0.000000 -0.000000 0.000000 
0.000000 0.000000 0.000000 
0.000000 0.000000 0.000000 

0.000000 0.000000 0.000000 
0.000000 0.000000 0.000000 
0.000000 0.000000 0.000000 

-0.000000 -0.000000 0.000000 
0.000000 -0.000000 0.000000 
0.000000 0.000000 0.000000 

-0.000000 -0.000000 0.000000 
0.000000 -0.000000 0.000000 
0.000000 0.000000 0.000000 

0.000000 -0.000000 0.000000 
0.000000 0.000000 0.000000 
0.000000 0.000000 0.000000 

-0.000000 0.000000 0.000000 
0.000000 -0.000000 0.000000 
0.000000 0.000000 0.000000 

0.000000 -0.000000 0.000000 
0.000000 0.000000 0.000000 
0.000000 0.000000 0.000000 

0.000000 0.000000 0.000000 
0.000000 0.000000 0.000000 
0.000000 0.000000 0.000000 

-0.000000 0.000000 0.000000 
0.000000 -0.000000 0.000000 
0.000000 0.000000 0.000000 

-0.000000 0.000000 0.000000 
0.000000 -0.000000 0.000000 
0.000000 0.000000 0.000000 

0.000000 0.000000 0.000000 
0.000000 0.000000 0.000000 
0.000000 0.000000 0.000000 

-0.000000 0.000000 0.000000 
0.000000 -0.000000 0.000000 
0.000000 0.000000 0.000000 

0.000000 -0.000000 0.000000 
0.000000 0.000000 0.000000 
0.000000 0.000000 0.000000 

-0.000000 -0.000000 0.000000 
0.000000 -0.000000 0.000000 
0.000000 0.000000 0.000000 

0.000000 0.000000 0.000000 
0.000000 0.000000 0.000000 
0.000000 0.000000 0.000000 

0.000000 0.000000 0.000000 
0.000000 0.000000 0.000000 
0.000000 0.000000 0.000000 

0.000000 0.000000 0.000000 
0.000000 0.000000 0.000000 
0.000000 0.000000 0.000000 

0.000000 -0.000000 0.000000 
0.000000 0.000000 0.000000 
0.000000 0.000000 0.000000 

0.000000 -0.000000 0.000000 
0.000000 -0.000000 0.000000 
0.000000 0.000000 0.000000 

-0.000000 -0.000000 0.000000 
0.000000 -0.000000 0.000000 
0.000000 0.000000 0.000000 

-0.000000 0.000000 0.000000 
0.000000 -0.000000 0.000000 
0.000000 0.000000 0.000000 

0.000000 -0.000000 0.000000 
0.000000 -0.000000 0.000000 
0.000000 0.000000 0.000000 

0.000000 0.000000 0.000000 
0.000000 -0.000000 0.000000 
0.000000 0.000000 0.000000 

0.000000 -0.000000 0.000000 
0.000000 0.000000 0.000000 
0.000000 0.000000 0.000000 

0.000000 0.000000 0.000000 
0.000000 -0.000000 0.000000 
0.000000 0.000000 0.000000 

-0.000000 -0.000000 0.000000 
0.000000 -0.000000 0.000000 
0.000000 0.000000 0.000000 

0.000000 -0.000000 0.000000 
0.000000 -0.000000 0.000000 
0.000000 0.000000 0.000000 

-0.000000 0.000000 0.000000 
0.000000 -0.000000 0.000000 
0.000000 0.000000 0.000000 

-0.000000 0.000000 0.000000 
0.000000 0.000000 0.000000 
0.000000 0.000000 0.000000 

-0.000000 -0.000000 0.000000 
0.000000 -0.000000 0.000000 
0.000000 0.000000 0.000000 

0.000000 -0.000000 0.000000 
0.000000 0.000000 0.000000 
0.000000 0.000000 0.000000 

0.000000 -0.000000 0.000000 
0.000000 0.000000 0.000000 
0.000000 0.000000 0.000000 

0.000000 -0.000000 0.000000 
0.000000 0.000000 0.000000 
0.000000 0.000000 0.000000 

-0.000000 0.000000 0.000000 
0.000000 0.000000 0.000000 
0.000000 0.000000 0.000000 

0.000000 -0.000000 0.000000 
0.000000 0.000000 0.000000 
0.000000 0.000000 0.000000 

-0.000000 0.000000 0.000000 
0.000000 -0.000000 0.000000 
0.000000 0.000000 0.000000 

0.000000 -0.000000 0.000000 
0.000000 -0.000000 0.000000 
0.000000 0.000000 0.000000 

-0.000000 0.000000 0.000000 
0.000000 0.000000 0.000000 
0.000000 0.000000 0.000000 

-0.000000 0.000000 0.000000 
0.000000 -0.000000 0.000000 
0.000000 0.000000 0.000000 

0.000000 0.000000 0.000000 
0.000000 -0.000000 0.000000 
0.000000 0.000000 0.000000 

-0.000000 -0.000000 0.000000 
0.000000 0.000000 0.000000 
0.000000 0.000000 0.000000 

-0.000000 -0.000000 0.000000 
0.000000 -0.000000 0.000000 
0.000000 0.000000 0.000000 

-0.000000 0.000000 0.000000 
0.000000 0.000000 0.000000 
0.000000 0.000000 0.000000 

-0.000000 0.000000 0.000000 
0.000000 -0.000000 0.000000 
0.000000 0.000000 0.000000 

-0.000000 -0.000000 0.000000 
0.000000 0.000000 0.000000 
0.000000 0.000000 0.000000 

0.000000 -0.000000 0.000000 
0.000000 0.000000 0.000000 
0.000000 0.000000 0.000000 

-0.000000 -0.000000 0.000000 
0.000000 -0.000000 0.000000 
0.000000 0.000000 0.000000 

0.000000 -0.000000 0.000000 
0.000000 0.000000 0.000000 
0.000000 0.000000 0.000000 

-0.000000 0.000000 0.000000 
0.000000 0.000000 0.000000 
0.000000 0.000000 0.000000 

-0.000000 -0.000000 0.000000 
0.000000 0.000000 0.000000 
0.000000 0.000000 0.000000 

-0.000000 0.000000 0.000000 
0.000000 -0.000000 0.000000 
0.000000 0.000000 0.000000 

-0.000000 -0.000000 0.000000 
0.000000 -0.000000 0.000000 
0.000000 0.000000 0.000000 

-0.000000 -0.000000 0.000000 
0.000000 -0.000000 0.000000 
0.000000 0.000000 0.000000 

0.000000 0.000000 0.000000 
0.000000 0.000000 0.000000 
0.000000 0.000000 0.000000 

0.000000 -0.000000 0.000000 
0.000000 0.000000 0.000000 
0.000000 0.000000 0.000000 

-0.000000 0.000000 0.000000 
0.000000 -0.000000 0.000000 
0.000000 0.000000 0.000000 

-0.000000 0.000000 0.000000 
0.000000 -0.000000 0.000000 
0.000000 0.000000 0.000000 

0.000000 -0.000000 0.000000 
0.000000 0.000000 0.000000 
0.000000 0.000000 0.000000 

-0.000000 0.000000 0.000000 
0.000000 -0.000000 0.000000 
0.000000 0.000000 0.000000 

0.000000 0.000000 0.000000 
0.000000 0.000000 0.000000 
0.000000 0.000000 0.000000 

0.000000 -0.000000 0.000000 
0.000000 0.000000 0.000000 
0.000000 0.000000 0.000000 

-0.000000 -0.000000 0.000000 
0.000000 0.000000 0.000000 
0.000000 0.000000 0.000000 

-0.000000 -0.000000 0.000000 
0.000000 0.000000 0.000000 
0.000000 0.000000 0.000000 

-0.000000 -0.000000 0.000000 
0.000000 -0.000000 0.000000 
0.000000 0.000000 0.000000 

0.000000 -0.000000 0.000000 
0.000000 0.000000 0.000000 
0.000000 0.000000 0.000000 

-0.000000 -0.000000 0.000000 
0.000000 0.000000 0.000000 
0.000000 0.000000 0.000000 

0.000000 0.000000 0.000000 
0.000000 0.000000 0.000000 
0.000000 0.000000 0.000000 

-0.000000 -0.000000 0.000000 
0.000000 -0.000000 0.000000 
0.000000 0.000000 0.000000 

0.000000 -0.000000 0.000000 
0.000000 0.000000 0.000000 
0.000000 0.000000 0.000000 

0.000000 0.000000 0.000000 
0.000000 0.000000 0.000000 
0.000000 0.000000 0.000000 

0.000000 -0.000000 0.000000 
0.000000 0.000000 0.000000 
0.000000 0.000000 0.000000 

0.000000 -0.000000 0.000000 
0.000000 -0.000000 0.000000 
0.000000 0.000000 0.000000 

0.000000 0.000000 0.000000 
0.000000 0.000000 0.000000 
0.000000 0.000000 0.000000 

-0.000000 -0.000000 0.000000 
0.000000 -0.000000 0.000000 
0.000000 0.000000 0.000000 

0.000000 -0.000000 0.000000 
0.000000 -0.000000 0.000000 
0.000000 0.000000 0.000000 

0.000000 -0.000000 0.000000 
0.000000 0.000000 0.000000 
0.000000 0.000000 0.000000 

0.000000 0.000000 0.000000 
0.000000 0.000000 0.000000 
0.000000 0.000000 0.000000 

0.000000 -0.000000 0.000000 
0.000000 0.000000 0.000000 
0.000000 0.000000 0.000000 

0.000000 0.000000 0.000000 
0.000000 0.000000 0.000000 
0.000000 0.000000 0.000000 

-0.000000 -0.000000 0.000000 
0.000000 -0.000000 0.000000 
0.000000 0.000000 0.000000 

-0.000000 -0.000000 0.000000 
0.000000 -0.000000 0.000000 
0.000000 0.000000 0.000000 

0.000000 -0.000000 0.000000 
0.000000 0.000000 0.000000 
0.000000 0.000000 0.000000 

-0.000000 -0.000000 0.000000 
0.000000 -0.000000 0.000000 
0.000000 0.000000 0.000000 

-0.000000 -0.000000 0.000000 
0.000000 -0.000000 0.000000 
0.000000 0.000000 0.000000 

0.000000 -0.000000 0.000000 
0.000000 0.000000 0.000000 
0.000000 0.000000 0.000000 

-0.000000 -0.000000 0.000000 
0.000000 -0.000000 0.000000 
0.000000 0.000000 0.000000 

0.000000 -0.000000 0.000000 
0.000000 -0.000000 0.000000 
0.000000 0.000000 0.000000 

-0.000000 0.000000 0.000000 
0.000000 -0.000000 0.000000 
0.000000 0.000000 0.000000 

0.000000 0.000000 0.000000 
0.000000 0.000000 0.000000 
0.000000 0.000000 0.000000 

-0.000000 -0.000000 0.000000 
0.000000 -0.000000 0.000000 
0.000000 0.000000 0.000000 

-0.000000 0.000000 0.000000 
0.000000 -0.000000 0.000000 
0.000000 0.000000 0.000000 

-0.000000 0.000000 0.000000 
0.000000 0.000000 0.000000 
0.000000 0.000000 0.000000 

-0.000000 -0.000000 0.000000 
0.000000 0.000000 0.000000 
0.000000 0.000000 0.000000 

-0.000000 -0.000000 0.000000 
0.000000 -0.000000 0.000000 
0.000000 0.000000 0.000000 

-0.000000 -0.000000 0.000000 
0.000000 0.000000 0.000000 
0.000000 0.000000 0.000000 

0.000000 0.000000 0.000000 
0.000000 -0.000000 0.000000 
0.000000 0.000000 0.000000 

0.000000 -0.000000 0.000000 
0.000000 0.000000 0.000000 
0.000000 0.000000 0.000000 

0.000000 0.000000 0.000000 
0.000000 -0.000000 0.000000 
0.000000 0.000000 0.000000 

0.000000 -0.000000 0.000000 
0.000000 0.000000 0.000000 
0.000000 0.000000 0.000000 

0.000000 -0.000000 0.000000 
0.000000 0.000000 0.000000 
0.000000 0.000000 0.000000 

0.000000 -0.000000 0.000000 
0.000000 0.000000 0.000000 
0.000000 0.000000 0.000000 

-0.000000 0.000000 0.000000 
0.000000 -0.000000 0.000000 
0.000000 0.000000 0.000000 

0.000000 -0.000000 0.000000 
0.000000 0.000000 0.000000 
0.000000 0.000000 0.000000 

-0.000000 -0.000000 0.000000 
0.000000 -0.000000 0.000000 
0.000000 0.000000 0.000000 

0.000000 0.000000 0.000000 
0.000000 -0.000000 0.000000 
0.000000 0.000000 0.000000 

0.000000 0.000000 0.000000 
0.000000 0.000000 0.000000 
0.000000 0.000000 0.000000 

0.000000 0.000000 0.000000 
0.000000 0.000000 0.000000 
0.000000 0.000000 0.000000 

-0.000000 -0.000000 0.000000 
0.000000 -0.000000 0.000000 
0.000000 0.000000 0.000000 

0.000000 -0.000000 0.000000 
0.000000 -0.000000 0.000000 
0.000000 0.000000 0.000000 

0.000000 -0.000000 0.000000 
0.000000 -0.000000 0.000000 
0.000000 0.000000 0.000000 

-0.000000 0.000000 0.000000 
0.000000 -0.000000 0.000000 
0.000000 0.000000 0.000000 

-0.000000 -0.000000 0.000000 
0.000000 -0.000000 0.000000 
0.000000 0.000000 0.000000 

0.000000 0.000000 0.000000 
0.000000 0.000000 0.000000 
0.000000 0.000000 0.000000 

0.000000 0.000000 0.000000 
0.000000 0.000000 0.000000 
0.000000 0.000000 0.000000 

0.000000 -0.000000 0.000000 
0.000000 0.000000 0.000000 
0.000000 0.000000 0.000000 

-0.000000 -0.000000 0.000000 
0.000000 0.000000 0.000000 
0.000000 0.000000 0.000000 

-0.000000 -0.000000 0.000000 
0.000000 -0.000000 0.000000 
0.000000 0.000000 0.000000 

0.000000 0.000000 0.000000 
0.000000 0.000000 0.000000 
0.000000 0.000000 0.000000 

-0.000000 -0.000000 0.000000 
0.000000 0.000000 0.000000 
0.000000 0.000000 0.000000 

0.000000 -0.000000 0.000000 
0.000000 -0.000000 0.000000 
0.000000 0.000000 0.000000 

-0.000000 -0.000000 0.000000 
0.000000 -0.000000 0.000000 
0.000000 0.000000 0.000000 

-0.000000 -0.000000 0.000000 
0.000000 -0.000000 0.000000 
0.000000 0.000000 0.000000 

-0.000000 0.000000 0.000000 
0.000000 -0.000000 0.000000 
0.000000 0.000000 0.000000 

-0.000000 0.000000 0.000000 
0.000000 -0.000000 0.000000 
0.000000 0.000000 0.000000 

0.000000 -0.000000 0.000000 
0.000000 0.000000 0.000000 
0.000000 0.000000 0.000000 

-0.000000 -0.000000 0.000000 
0.000000 -0.000000 0.000000 
0.000000 0.000000 0.000000 

-0.000000 0.000000 0.000000 
0.000000 -0.000000 0.000000 
0.000000 0.000000 0.000000 

-0.000000 -0.000000 0.000000 
0.000000 -0.000000 0.000000 
0.000000 0.000000 0.000000 

-0.000000 -0.000000 0.000000 
0.000000 0.000000 0.000000 
0.000000 0.000000 0.000000 

TENSORS STRAIN float 
0.000000 0.000000 0.000000 
0.000000 -0.000000 0.000000 
0.000000 0.000000 0.000000 

-0.000000 -0.000000 0.000000 
0.000000 0.000000 0.000000 
0.000000 0.000000 0.000000 

0.000000 -0.000000 0.000000 
0.000000 -0.000000 0.000000 
0.000000 0.000000 0.000000 

0.000000 -0.000000 0.000000 
0.000000 -0.000000 0.000000 
0.000000 0.000000 0.000000 

-0.000000 0.000000 0.000000 
0.000000 -0.000000 0.000000 
0.000000 0.000000 0.000000 

-0.000000 0.000000 0.000000 
0.000000 0.000000 0.000000 
0.000000 0.000000 0.000000 

-0.000000 0.000000 0.000000 
0.000000 0.000000 0.000000 
0.000000 0.000000 0.000000 

0.000000 -0.000000 0.000000 
0.000000 -0.000000 0.000000 
0.000000 0.000000 0.000000 

0.000000 0.000000 0.000000 
0.000000 -0.000000 0.000000 
0.000000 0.000000 0.000000 

-0.000000 0.000000 0.000000 
0.000000 0.000000 0.000000 
0.000000 0.000000 0.000000 

-0.000000 0.000000 0.000000 
0.000000 0.000000 0.000000 
0.000000 0.000000 0.000000 

-0.000000 0.000000 0.000000 
0.000000 0.000000 0.000000 
0.000000 0.000000 0.000000 

-0.000000 0.000000 0.000000 
0.000000 0.000000 0.000000 
0.000000 0.000000 0.000000 

-0.000000 0.000000 0.000000 
0.000000 -0.000000 0.000000 
0.000000 0.000000 0.000000 

0.000000 -0.000000 0.000000 
0.000000 -0.000000 0.000000 
0.000000 0.000000 0.000000 

0.000000 0.000000 0.000000 
0.000000 0.000000 0.000000 
0.000000 0.000000 0.000000 

0.000000 -0.000000 0.000000 
0.000000 0.000000 0.000000 
0.000000 0.000000 0.000000 

0.000000 -0.000000 0.000000 
0.000000 0.000000 0.000000 
0.000000 0.000000 0.000000 

-0.000000 -0.000000 0.000000 
0.000000 0.000000 0.000000 
0.000000 0.000000 0.000000 

0.000000 -0.000000 0.000000 
0.000000 -0.000000 0.000000 
0.000000 0.000000 0.000000 

0.000000 0.000000 0.000000 
0.000000 0.000000 0.000000 
0.000000 0.000000 0.000000 

0.000000 -0.000000 0.000000 
0.000000 0.000000 0.000000 
0.000000 0.000000 0.000000 

0.000000 0.000000 0.000000 
0.000000 0.000000 0.000000 
0.000000 0.000000 0.000000 

-0.000000 0.000000 0.000000 
0.000000 0.000000 0.000000 
0.000000 0.000000 0.000000 

-0.000000 0.000000 0.000000 
0.000000 -0.000000 0.000000 
0.000000 0.000000 0.000000 

0.000000 0.000000 0.000000 
0.000000 0.000000 0.000000 
0.000000 0.000000 0.000000 

0.000000 0.000000 0.000000 
0.000000 0.000000 0.000000 
0.000000 0.000000 0.000000 

0.000000 0.000000 0.000000 
0.000000 0.000000 0.000000 
0.000000 0.000000 0.000000 

0.000000 0.000000 0.000000 
0.000000 -0.000000 0.000000 
0.000000 0.000000 0.000000 

-0.000000 0.000000 0.000000 
0.000000 -0.000000 0.000000 
0.000000 0.000000 0.000000 

0.000000 0.000000 0.000000 
0.000000 -0.000000 0.000000 
0.000000 0.000000 0.000000 

0.000000 -0.000000 0.000000 
0.000000 -0.000000 0.000000 
0.000000 0.000000 0.000000 

0.000000 -0.000000 0.000000 
0.000000 -0.000000 0.000000 
0.000000 0.000000 0.000000 

-0.000000 0.000000 0.000000 
0.000000 -0.000000 0.000000 
0.000000 0.000000 0.000000 

-0.000000 -0.000000 0.000000 
0.000000 -0.000000 0.000000 
0.000000 0.000000 0.000000 

-0.000000 0.000000 0.000000 
0.000000 0.000000 0.000000 
0.000000 0.000000 0.000000 

0.000000 -0.000000 0.000000 
0.000000 -0.000000 0.000000 
0.000000 0.000000 0.000000 

0.000000 0.000000 0.000000 
0.000000 -0.000000 0.000000 
0.000000 0.000000 0.000000 

0.000000 -0.000000 0.000000 
0.000000 0.000000 0.000000 
0.000000 0.000000 0.000000 

0.000000 0.000000 0.000000 
0.000000 -0.000000 0.000000 
0.000000 0.000000 0.000000 

-0.000000 0.000000 0.000000 
0.000000 0.000000 0.000000 
0.000000 0.000000 0.000000 

-0.000000 0.000000 0.000000 
0.000000 0.000000 0.000000 
0.000000 0.000000 0.000000 

-0.000000 0.000000 0.000000 
0.000000 0.000000 0.000000 
0.000000 0.000000 0.000000 

0.000000 -0.000000 0.000000 
0.000000 0.000000 0.000000 
0.000000 0.000000 0.000000 

0.000000 -0.000000 0.000000 
0.000000 0.000000 0.000000 
0.000000 0.000000 0.000000 

0.000000 -0.000000 0.000000 
0.000000 0.000000 0.000000 
0.000000 0.000000 0.000000 

0.000000 -0.000000 0.000000 
0.000000 0.000000 0.000000 
0.000000 0.000000 0.000000 

0.000000 0.000000 0.000000 
0.000000 0.000000 0.000000 
0.000000 0.000000 0.000000 

-0.000000 -0.000000 0.000000 
0.000000 -0.000000 0.000000 
0.000000 0.000000 0.000000 

-0.000000 -0.000000 0.000000 
0.000000 -0.000000 0.000000 
0.000000 0.000000 0.000000 

-0.000000 -0.000000 0.000000 
0.000000 0.000000 0.000000 
0.000000 0.000000 0.000000 

0.000000 0.000000 0.000000 
0.000000 -0.000000 0.000000 
0.000000 0.000000 0.000000 

0.000000 -0.000000 0.000000 
0.000000 0.000000 0.000000 
0.000000 0.000000 0.000000 

0.000000 0.000000 0.000000 
0.000000 0.000000 0.000000 
0.000000 0.000000 0.000000 

-0.000000 0.000000 0.000000 
0.000000 -0.000000 0.000000 
0.000000 0.000000 0.000000 

-0.000000 0.000000 0.000000 
0.000000 -0.000000 0.000000 
0.000000 0.000000 0.000000 

-0.000000 0.000000 0.000000 
0.000000 0.000000 0.000000 
0.000000 0.000000 0.000000 

0.000000 0.000000 0.000000 
0.000000 -0.000000 0.000000 
0.000000 0.000000 0.000000 

0.000000 -0.000000 0.000000 
0.000000 0.000000 0.000000 
0.000000 0.000000 0.000000 

-0.000000 -0.000000 0.000000 
0.000000 0.000000 0.000000 
0.000000 0.000000 0.000000 

-0.000000 0.000000 0.000000 
0.000000 0.000000 0.000000 
0.000000 0.000000 0.000000 

-0.000000 0.000000 0.000000 
0.000000 0.000000 0.000000 
0.000000 0.000000 0.000000 

-0.000000 0.000000 0.000000 
0.000000 0.000000 0.000000 
0.000000 0.000000 0.000000 

-0.000000 -0.000000 0.000000 
0.000000 0.000000 0.000000 
0.000000 0.000000 0.000000 

0.000000 -0.000000 0.000000 
0.000000 -0.000000 0.000000 
0.000000 0.000000 0.000000 

0.000000 -0.000000 0.000000 
0.000000 -0.000000 0.000000 
0.000000 0.000000 0.000000 

-0.000000 0.000000 0.000000 
0.000000 -0.000000 0.000000 
0.000000 0.000000 0.000000 

0.000000 -0.000000 0.000000 
0.000000 -0.000000 0.000000 
0.000000 0.000000 0.000000 

0.000000 0.000000 0.000000 
0.000000 -0.000000 0.000000 
0.000000 0.000000 0.000000 

0.000000 -0.000000 0.000000 
0.000000 0.000000 0.000000 
0.000000 0.000000 0.000000 

0.000000 0.000000 0.000000 
0.000000 -0.000000 0.000000 
0.000000 0.000000 0.000000 

-0.000000 -0.000000 0.000000 
0.000000 0.000000 0.000000 
0.000000 0.000000 0.000000 

0.000000 -0.000000 0.000000 
0.000000 -0.000000 0.000000 
0.000000 0.000000 0.000000 

-0.000000 0.000000 0.000000 
0.000000 -0.000000 0.000000 
0.000000 0.000000 0.000000 

-0.000000 0.000000 0.000000 
0.000000 0.000000 0.000000 
0.000000 0.000000 0.000000 

0.000000 -0.000000 0.000000 
0.000000 -0.000000 0.000000 
0.000000 0.000000 0.000000 

0.000000 -0.000000 0.000000 
0.000000 0.000000 0.000000 
0.000000 0.000000 0.000000 

0.000000 -0.000000 0.000000 
0.000000 0.000000 0.000000 
0.000000 0.000000 0.000000 

0.000000 -0.000000 0.000000 
0.000000 0.000000 0.000000 
0.000000 0.000000 0.000000 

-0.000000 0.000000 0.000000 
0.000000 0.000000 0.000000 
0.000000 0.000000 0.000000 

0.000000 -0.000000 0.000000 
0.000000 0.000000 0.000000 
0.000000 0.000000 0.000000 

0.000000 0.000000 0.000000 
0.000000 -0.000000 0.000000 
0.000000 0.000000 0.000000 

0.000000 -0.000000 0.000000 
0.000000 -0.000000 0.000000 
0.000000 0.000000 0.000000 

-0.000000 0.000000 0.000000 
0.000000 0.000000 0.000000 
0.000000 0.000000 0.000000 

-0.000000 0.000000 0.000000 
0.000000 -0.000000 0.000000 
0.000000 0.000000 0.000000 

0.000000 0.000000 0.000000 
0.000000 -0.000000 0.000000 
0.000000 0.000000 0.000000 

-0.000000 -0.000000 0.000000 
0.000000 0.000000 0.000000 
0.000000 0.000000 0.000000 

-0.000000 -0.000000 0.000000 
0.000000 -0.000000 0.000000 
0.000000 0.000000 0.000000 

-0.000000 0.000000 0.000000 
0.000000 0.000000 0.000000 
0.000000 0.000000 0.000000 

-0.000000 0.000000 0.000000 
0.000000 0.000000 0.000000 
0.000000 0.000000 0.000000 

-0.000000 -0.000000 0.000000 
0.000000 0.000000 0.000000 
0.000000 0.000000 0.000000 

-0.000000 -0.000000 0.000000 
0.000000 0.000000 0.000000 
0.000000 0.000000 0.000000 

0.000000 -0.000000 0.000000 
0.000000 -0.000000 0.000000 
0.000000 0.000000 0.000000 

-0.000000 -0.000000 0.000000 
0.000000 0.000000 0.000000 
0.000000 0.000000 0.000000 

-0.000000 0.000000 0.000000 
0.000000 0.000000 0.000000 
0.000000 0.000000 0.000000 

-0.000000 -0.000000 0.000000 
0.000000 0.000000 0.000000 
0.000000 0.000000 0.000000 

-0.000000 0.000000 0.000000 
0.000000 -0.000000 0.000000 
0.000000 0.000000 0.000000 

0.000000 -0.000000 0.000000 
0.000000 -0.000000 0.000000 
0.000000 0.000000 0.000000 

-0.000000 -0.000000 0.000000 
0.000000 -0.000000 0.000000 
0.000000 0.000000 0.000000 

0.000000 0.000000 0.000000 
0.000000 0.000000 0.000000 
0.000000 0.000000 0.000000 

-0.000000 -0.000000 0.000000 
0.000000 0.000000 0.000000 
0.000000 0.000000 0.000000 

0.000000 0.000000 0.000000 
0.000000 -0.000000 0.000000 
0.000000 0.000000 0.000000 

-0.000000 0.000000 0.000000 
0.000000 -0.000000 0.000000 
0.000000 0.000000 0.000000 

-0.000000 -0.000000 0.000000 
0.000000 0.000000 0.000000 
0.000000 0.000000 0.000000 

-0.000000 0.000000 0.000000 
0.000000 -0.000000 0.000000 
0.000000 0.000000 0.000000 

-0.000000 0.000000 0.000000 
0.000000 0.000000 0.000000 
0.000000 0.000000 0.000000 

-0.000000 -0.000000 0.000000 
0.000000 0.000000 0.000000 
0.000000 0.000000 0.000000 

-0.000000 -0.000000 0.000000 
0.000000 0.000000 0.000000 
0.000000 0.000000 0.000000 

-0.000000 -0.000000 0.000000 
0.000000 0.000000 0.000000 
0.000000 0.000000 0.000000 

-0.000000 -0.000000 0.000000 
0.000000 -0.000000 0.000000 
0.000000 0.000000 0.000000 

-0.000000 -0.000000 0.000000 
0.000000 0.000000 0.000000 
0.000000 0.000000 0.000000 

-0.000000 -0.000000 0.000000 
0.000000 0.000000 0.000000 
0.000000 0.000000 0.000000 

-0.000000 0.000000 0.000000 
0.000000 0.000000 0.000000 
0.000000 0.000000 0.000000 

0.000000 -0.000000 0.000000 
0.000000 -0.000000 0.000000 
0.000000 0.000000 0.000000 

-0.000000 -0.000000 0.000000 
0.000000 0.000000 0.000000 
0.000000 0.000000 0.000000 

0.000000 0.000000 0.000000 
0.000000 0.000000 0.000000 
0.000000 0.000000 0.000000 

0.000000 -0.000000 0.000000 
0.000000 0.000000 0.000000 
0.000000 0.000000 0.000000 

0.000000 -0.000000 0.000000 
0.000000 -0.000000 0.000000 
0.000000 0.000000 0.000000 

-0.000000 0.000000 0.000000 
0.000000 0.000000 0.000000 
0.000000 0.000000 0.000000 

-0.000000 -0.000000 0.000000 
0.000000 -0.000000 0.000000 
0.000000 0.000000 0.000000 

0.000000 -0.000000 0.000000 
0.000000 -0.000000 0.000000 
0.000000 0.000000 0.000000 

0.000000 -0.000000 0.000000 
0.000000 0.000000 0.000000 
0.000000 0.000000 0.000000 

0.000000 0.000000 0.000000 
0.000000 -0.000000 0.000000 
0.000000 0.000000 0.000000 

0.000000 -0.000000 0.000000 
0.000000 0.000000 0.000000 
0.000000 0.000000 0.000000 

0.000000 0.000000 0.000000 
0.000000 0.000000 0.000000 
0.000000 0.000000 0.000000 

0.000000 -0.000000 0.000000 
0.000000 -0.000000 0.000000 
0.000000 0.000000 0.000000 

0.000000 -0.000000 0.000000 
0.000000 -0.000000 0.000000 
0.000000 0.000000 0.000000 

0.000000 -0.000000 0.000000 
0.000000 0.000000 0.000000 
0.000000 0.000000 0.000000 

0.000000 -0.000000 0.000000 
0.000000 -0.000000 0.000000 
0.000000 0.000000 0.000000 

0.000000 -0.000000 0.000000 
0.000000 -0.000000 0.000000 
0.000000 0.000000 0.000000 

0.000000 -0.000000 0.000000 
0.000000 0.000000 0.000000 
0.000000 0.000000 0.000000 

-0.000000 -0.000000 0.000000 
0.000000 -0.000000 0.000000 
0.000000 0.000000 0.000000 

0.000000 -0.000000 0.000000 
0.000000 -0.000000 0.000000 
0.000000 0.000000 0.000000 

-0.000000 0.000000 0.000000 
0.000000 -0.000000 0.000000 
0.000000 0.000000 0.000000 

0.000000 0.000000 0.000000 
0.000000 0.000000 0.000000 
0.000000 0.000000 0.000000 

0.000000 -0.000000 0.000000 
0.000000 -0.000000 0.000000 
0.000000 0.000000 0.000000 

-0.000000 0.000000 0.000000 
0.000000 -0.000000 0.000000 
0.000000 0.000000 0.000000 

-0.000000 0.000000 0.000000 
0.000000 0.000000 0.000000 
0.000000 0.000000 0.000000 

-0.000000 -0.000000 0.000000 
0.000000 0.000000 0.000000 
0.000000 0.000000 0.000000 

-0.000000 -0.000000 0.000000 
0.000000 -0.000000 0.000000 
0.000000 0.000000 0.000000 

-0.000000 -0.000000 0.000000 
0.000000 0.000000 0.000000 
0.000000 0.000000 0.000000 

0.000000 0.000000 0.000000 
0.000000 -0.000000 0.000000 
0.000000 0.000000 0.000000 

0.000000 -0.000000 0.000000 
0.000000 0.000000 0.000000 
0.000000 0.000000 0.000000 

0.000000 0.000000 0.000000 
0.000000 -0.000000 0.000000 
0.000000 0.000000 0.000000 

0.000000 -0.000000 0.000000 
0.000000 0.000000 0.000000 
0.000000 0.000000 0.000000 

0.000000 -0.000000 0.000000 
0.000000 -0.000000 0.000000 
0.000000 0.000000 0.000000 

-0.000000 -0.000000 0.000000 
0.000000 0.000000 0.000000 
0.000000 0.000000 0.000000 

-0.000000 0.000000 0.000000 
0.000000 -0.000000 0.000000 
0.000000 0.000000 0.000000 

-0.000000 -0.000000 0.000000 
0.000000 0.000000 0.000000 
0.000000 0.000000 0.000000 

-0.000000 -0.000000 0.000000 
0.000000 -0.000000 0.000000 
0.000000 0.000000 0.000000 

0.000000 0.000000 0.000000 
0.000000 -0.000000 0.000000 
0.000000 0.000000 0.000000 

0.000000 0.000000 0.000000 
0.000000 0.000000 0.000000 
0.000000 0.000000 0.000000 

0.000000 0.000000 0.000000 
0.000000 0.000000 0.000000 
0.000000 0.000000 0.000000 

0.000000 -0.000000 0.000000 
0.000000 -0.000000 0.000000 
0.000000 0.000000 0.000000 

0.000000 -0.000000 0.000000 
0.000000 -0.000000 0.000000 
0.000000 0.000000 0.000000 

0.000000 -0.000000 0.000000 
0.000000 -0.000000 0.000000 
0.000000 0.000000 0.000000 

-0.000000 0.000000 0.000000 
0.000000 -0.000000 0.000000 
0.000000 0.000000 0.000000 

-0.000000 -0.000000 0.000000 
0.000000 -0.000000 0.000000 
0.000000 0.000000 0.000000 

-0.000000 0.000000 0.000000 
0.000000 0.000000 0.000000 
0.000000 0.000000 0.000000 

0.000000 0.000000 0.000000 
0.000000 0.000000 0.000000 
0.000000 0.000000 0.000000 

0.000000 -0.000000 0.000000 
0.000000 0.000000 0.000000 
0.000000 0.000000 0.000000 

-0.000000 -0.000000 0.000000 
0.000000 0.000000 0.000000 
0.000000 0.000000 0.000000 

-0.000000 -0.000000 0.000000 
0.000000 -0.000000 0.000000 
0.000000 0.000000 0.000000 

0.000000 0.000000 0.000000 
0.000000 0.000000 0.000000 
0.000000 0.000000 0.000000 

-0.000000 -0.000000 0.000000 
0.000000 0.000000 0.000000 
0.000000 0.000000 0.000000 

0.000000 -0.000000 0.000000 
0.000000 -0.000000 0.000000 
0.000000 0.000000 0.000000 

-0.000000 -0.000000 0.000000 
0.000000 0.000000 0.000000 
0.000000 0.000000 0.000000 

-0.000000 -0.000000 0.000000 
0.000000 0.000000 0.000000 
0.000000 0.000000 0.000000 

-0.000000 0.000000 0.000000 
0.000000 -0.000000 0.000000 
0.000000 0.000000 0.000000 

0.000000 0.000000 0.000000 
0.000000 -0.000000 0.000000 
0.000000 0.000000 0.000000 

0.000000 -0.000000 0.000000 
0.000000 0.000000 0.000000 
0.000000 0.000000 0.000000 

-0.000000 -0.000000 0.000000 
0.000000 -0.000000 0.000000 
0.000000 0.000000 0.000000 

-0.000000 0.000000 0.000000 
0.000000 -0.000000 0.000000 
0.000000 0.000000 0.000000 

-0.000000 -0.000000 0.000000 
0.000000 -0.000000 0.000000 
0.000000 0.000000 0.000000 

-0.000000 -0.000000 0.000000 
0.000000 0.000000 0.000000 
0.000000 0.000000 0.000000 

