# vtk DataFile Version 3.0 
vtk output 
ASCII 
DATASET UNSTRUCTURED_GRID 
POINTS 175 float 
-0.026061 -0.935089 0.000000 
-0.106992 -0.867034 0.000000 
-0.054870 -0.875266 0.000000 
-0.028809 -0.829383 0.000000 
-0.186430 -0.802958 0.000000 
-0.137056 -0.805484 0.000000 
-0.114311 -0.751837 0.000000 
-0.058186 -0.767503 0.000000 
-0.029377 -0.727325 0.000000 
-0.265318 -0.739802 0.000000 
-0.217198 -0.740602 0.000000 
-0.196633 -0.683305 0.000000 
-0.143120 -0.692014 0.000000 
-0.116563 -0.644746 0.000000 
-0.058945 -0.664391 0.000000 
-0.029568 -0.626271 0.000000 
-0.344206 -0.676646 0.000000 
-0.296791 -0.676639 0.000000 
-0.278030 -0.616696 0.000000 
-0.225992 -0.622563 0.000000 
-0.201664 -0.570446 0.000000 
-0.145749 -0.583920 0.000000 
-0.117890 -0.539577 0.000000 
-0.059328 -0.562283 0.000000 
-0.029759 -0.525217 0.000000 
-0.058559 -0.975840 0.000000 
-0.162226 -0.996682 0.000000 
-0.123292 -0.961065 0.000000 
-0.142917 -0.912081 0.000000 
-0.261851 -1.018839 0.000000 
-0.229092 -0.981812 0.000000 
-0.256854 -0.930580 0.000000 
-0.209613 -0.896468 0.000000 
-0.223062 -0.848894 0.000000 
-0.360414 -1.041139 0.000000 
-0.329787 -1.004016 0.000000 
-0.361761 -0.952214 0.000000 
-0.321587 -0.915805 0.000000 
-0.341985 -0.865571 0.000000 
-0.290702 -0.832772 0.000000 
-0.302189 -0.786037 0.000000 
-0.458977 -1.063439 0.000000 
-0.429420 -1.026364 0.000000 
-0.464588 -0.974323 0.000000 
-0.427556 -0.937295 0.000000 
-0.453135 -0.885780 0.000000 
-0.407738 -0.850465 0.000000 
-0.425037 -0.801037 0.000000 
-0.370772 -0.769408 0.000000 
-0.381315 -0.723180 0.000000 
-0.046960 -1.026655 0.000000 
-0.095301 -1.120701 0.000000 
-0.098873 -1.068054 0.000000 
-0.149405 -1.052856 0.000000 
-0.140093 -1.212405 0.000000 
-0.148617 -1.163707 0.000000 
-0.205981 -1.153469 0.000000 
-0.203197 -1.095266 0.000000 
-0.248777 -1.076119 0.000000 
-0.184111 -1.303368 0.000000 
-0.194039 -1.256277 0.000000 
-0.254475 -1.248978 0.000000 
-0.257893 -1.194868 0.000000 
-0.309886 -1.179496 0.000000 
-0.303554 -1.118950 0.000000 
-0.347255 -1.098793 0.000000 
-0.228129 -1.394332 0.000000 
-0.238687 -1.348108 0.000000 
-0.301302 -1.343156 0.000000 
-0.307162 -1.291117 0.000000 
-0.363386 -1.278996 0.000000 
-0.362692 -1.221485 0.000000 
-0.412122 -1.204191 0.000000 
-0.403017 -1.142045 0.000000 
-0.445733 -1.121466 0.000000 
-0.000000 -1.049270 0.000000 
0.043388 -1.145700 0.000000 
-0.000000 -1.115668 0.000000 
-0.043388 -1.145700 0.000000 
0.087158 -1.237897 0.000000 
0.043769 -1.214199 0.000000 
-0.000000 -1.252664 0.000000 
-0.043769 -1.214199 0.000000 
-0.087158 -1.237897 0.000000 
0.130831 -1.329027 0.000000 
0.087824 -1.307428 0.000000 
0.044436 -1.350128 0.000000 
-0.000000 -1.319063 0.000000 
-0.044436 -1.350128 0.000000 
-0.087824 -1.307428 0.000000 
-0.130831 -1.329027 0.000000 
0.174505 -1.420156 0.000000 
0.131782 -1.399590 0.000000 
0.088871 -1.445457 0.000000 
0.044532 -1.417593 0.000000 
-0.000000 -1.453993 0.000000 
-0.044532 -1.417593 0.000000 
-0.088871 -1.445457 0.000000 
-0.131782 -1.399590 0.000000 
-0.174505 -1.420156 0.000000 
0.046960 -1.026655 0.000000 
0.149405 -1.052856 0.000000 
0.098873 -1.068054 0.000000 
0.095301 -1.120701 0.000000 
0.248777 -1.076119 0.000000 
0.203197 -1.095266 0.000000 
0.205981 -1.153469 0.000000 
0.148617 -1.163707 0.000000 
0.140093 -1.212405 0.000000 
0.347255 -1.098793 0.000000 
0.303554 -1.118950 0.000000 
0.309886 -1.179496 0.000000 
0.257893 -1.194868 0.000000 
0.254475 -1.248978 0.000000 
0.194039 -1.256277 0.000000 
0.184111 -1.303368 0.000000 
0.445733 -1.121466 0.000000 
0.403017 -1.142045 0.000000 
0.412122 -1.204191 0.000000 
0.362692 -1.221485 0.000000 
0.363386 -1.278996 0.000000 
0.307162 -1.291117 0.000000 
0.301302 -1.343156 0.000000 
0.238687 -1.348108 0.000000 
0.228129 -1.394332 0.000000 
0.058559 -0.975840 0.000000 
0.142917 -0.912081 0.000000 
0.123292 -0.961065 0.000000 
0.162226 -0.996682 0.000000 
0.223062 -0.848894 0.000000 
0.209613 -0.896468 0.000000 
0.256854 -0.930580 0.000000 
0.229092 -0.981812 0.000000 
0.261851 -1.018839 0.000000 
0.302189 -0.786037 0.000000 
0.290702 -0.832772 0.000000 
0.341985 -0.865571 0.000000 
0.321587 -0.915805 0.000000 
0.361761 -0.952214 0.000000 
0.329787 -1.004016 0.000000 
0.360414 -1.041139 0.000000 
0.381315 -0.723180 0.000000 
0.370772 -0.769408 0.000000 
0.425037 -0.801037 0.000000 
0.407738 -0.850465 0.000000 
0.453135 -0.885780 0.000000 
0.427556 -0.937295 0.000000 
0.464588 -0.974323 0.000000 
0.429420 -1.026364 0.000000 
0.458977 -1.063439 0.000000 
0.026061 -0.935089 0.000000 
0.028809 -0.829383 0.000000 
0.054870 -0.875266 0.000000 
0.106992 -0.867034 0.000000 
0.029377 -0.727325 0.000000 
0.058186 -0.767503 0.000000 
0.114311 -0.751837 0.000000 
0.137056 -0.805484 0.000000 
0.186430 -0.802958 0.000000 
0.029568 -0.626271 0.000000 
0.058945 -0.664391 0.000000 
0.116563 -0.644746 0.000000 
0.143120 -0.692014 0.000000 
0.196633 -0.683305 0.000000 
0.217198 -0.740602 0.000000 
0.265318 -0.739802 0.000000 
0.029759 -0.525217 0.000000 
0.059328 -0.562283 0.000000 
0.117890 -0.539577 0.000000 
0.145749 -0.583920 0.000000 
0.201664 -0.570446 0.000000 
0.225992 -0.622563 0.000000 
0.278030 -0.616696 0.000000 
0.296791 -0.676639 0.000000 
0.344206 -0.676646 0.000000 
CELLS 175 350 
1 0 
1 1 
1 2 
1 3 
1 4 
1 5 
1 6 
1 7 
1 8 
1 9 
1 10 
1 11 
1 12 
1 13 
1 14 
1 15 
1 16 
1 17 
1 18 
1 19 
1 20 
1 21 
1 22 
1 23 
1 24 
1 25 
1 26 
1 27 
1 28 
1 29 
1 30 
1 31 
1 32 
1 33 
1 34 
1 35 
1 36 
1 37 
1 38 
1 39 
1 40 
1 41 
1 42 
1 43 
1 44 
1 45 
1 46 
1 47 
1 48 
1 49 
1 50 
1 51 
1 52 
1 53 
1 54 
1 55 
1 56 
1 57 
1 58 
1 59 
1 60 
1 61 
1 62 
1 63 
1 64 
1 65 
1 66 
1 67 
1 68 
1 69 
1 70 
1 71 
1 72 
1 73 
1 74 
1 75 
1 76 
1 77 
1 78 
1 79 
1 80 
1 81 
1 82 
1 83 
1 84 
1 85 
1 86 
1 87 
1 88 
1 89 
1 90 
1 91 
1 92 
1 93 
1 94 
1 95 
1 96 
1 97 
1 98 
1 99 
1 100 
1 101 
1 102 
1 103 
1 104 
1 105 
1 106 
1 107 
1 108 
1 109 
1 110 
1 111 
1 112 
1 113 
1 114 
1 115 
1 116 
1 117 
1 118 
1 119 
1 120 
1 121 
1 122 
1 123 
1 124 
1 125 
1 126 
1 127 
1 128 
1 129 
1 130 
1 131 
1 132 
1 133 
1 134 
1 135 
1 136 
1 137 
1 138 
1 139 
1 140 
1 141 
1 142 
1 143 
1 144 
1 145 
1 146 
1 147 
1 148 
1 149 
1 150 
1 151 
1 152 
1 153 
1 154 
1 155 
1 156 
1 157 
1 158 
1 159 
1 160 
1 161 
1 162 
1 163 
1 164 
1 165 
1 166 
1 167 
1 168 
1 169 
1 170 
1 171 
1 172 
1 173 
1 174 
CELL_TYPES 175 
1 
1 
1 
1 
1 
1 
1 
1 
1 
1 
1 
1 
1 
1 
1 
1 
1 
1 
1 
1 
1 
1 
1 
1 
1 
1 
1 
1 
1 
1 
1 
1 
1 
1 
1 
1 
1 
1 
1 
1 
1 
1 
1 
1 
1 
1 
1 
1 
1 
1 
1 
1 
1 
1 
1 
1 
1 
1 
1 
1 
1 
1 
1 
1 
1 
1 
1 
1 
1 
1 
1 
1 
1 
1 
1 
1 
1 
1 
1 
1 
1 
1 
1 
1 
1 
1 
1 
1 
1 
1 
1 
1 
1 
1 
1 
1 
1 
1 
1 
1 
1 
1 
1 
1 
1 
1 
1 
1 
1 
1 
1 
1 
1 
1 
1 
1 
1 
1 
1 
1 
1 
1 
1 
1 
1 
1 
1 
1 
1 
1 
1 
1 
1 
1 
1 
1 
1 
1 
1 
1 
1 
1 
1 
1 
1 
1 
1 
1 
1 
1 
1 
1 
1 
1 
1 
1 
1 
1 
1 
1 
1 
1 
1 
1 
1 
1 
1 
1 
1 
1 
1 
1 
1 
1 
1 
POINT_DATA 175 
VECTORS X_GC float 
-0.026061 -0.935089 0.000000 
-0.106992 -0.867034 0.000000 
-0.054870 -0.875266 0.000000 
-0.028809 -0.829383 0.000000 
-0.186430 -0.802958 0.000000 
-0.137056 -0.805484 0.000000 
-0.114311 -0.751837 0.000000 
-0.058186 -0.767503 0.000000 
-0.029377 -0.727325 0.000000 
-0.265318 -0.739802 0.000000 
-0.217198 -0.740602 0.000000 
-0.196633 -0.683305 0.000000 
-0.143120 -0.692014 0.000000 
-0.116563 -0.644746 0.000000 
-0.058945 -0.664391 0.000000 
-0.029568 -0.626271 0.000000 
-0.344206 -0.676646 0.000000 
-0.296791 -0.676639 0.000000 
-0.278030 -0.616696 0.000000 
-0.225992 -0.622563 0.000000 
-0.201664 -0.570446 0.000000 
-0.145749 -0.583920 0.000000 
-0.117890 -0.539577 0.000000 
-0.059328 -0.562283 0.000000 
-0.029759 -0.525217 0.000000 
-0.058559 -0.975840 0.000000 
-0.162226 -0.996682 0.000000 
-0.123292 -0.961065 0.000000 
-0.142917 -0.912081 0.000000 
-0.261851 -1.018839 0.000000 
-0.229092 -0.981812 0.000000 
-0.256854 -0.930580 0.000000 
-0.209613 -0.896468 0.000000 
-0.223062 -0.848894 0.000000 
-0.360414 -1.041139 0.000000 
-0.329787 -1.004016 0.000000 
-0.361761 -0.952214 0.000000 
-0.321587 -0.915805 0.000000 
-0.341985 -0.865571 0.000000 
-0.290702 -0.832772 0.000000 
-0.302189 -0.786037 0.000000 
-0.458977 -1.063439 0.000000 
-0.429420 -1.026364 0.000000 
-0.464588 -0.974323 0.000000 
-0.427556 -0.937295 0.000000 
-0.453135 -0.885780 0.000000 
-0.407738 -0.850465 0.000000 
-0.425037 -0.801037 0.000000 
-0.370772 -0.769408 0.000000 
-0.381315 -0.723180 0.000000 
-0.046960 -1.026655 0.000000 
-0.095301 -1.120701 0.000000 
-0.098873 -1.068054 0.000000 
-0.149405 -1.052856 0.000000 
-0.140093 -1.212405 0.000000 
-0.148617 -1.163707 0.000000 
-0.205981 -1.153469 0.000000 
-0.203197 -1.095266 0.000000 
-0.248777 -1.076119 0.000000 
-0.184111 -1.303368 0.000000 
-0.194039 -1.256277 0.000000 
-0.254475 -1.248978 0.000000 
-0.257893 -1.194868 0.000000 
-0.309886 -1.179496 0.000000 
-0.303554 -1.118950 0.000000 
-0.347255 -1.098793 0.000000 
-0.228129 -1.394332 0.000000 
-0.238687 -1.348108 0.000000 
-0.301302 -1.343156 0.000000 
-0.307162 -1.291117 0.000000 
-0.363386 -1.278996 0.000000 
-0.362692 -1.221485 0.000000 
-0.412122 -1.204191 0.000000 
-0.403017 -1.142045 0.000000 
-0.445733 -1.121466 0.000000 
-0.000000 -1.049270 0.000000 
0.043388 -1.145700 0.000000 
-0.000000 -1.115668 0.000000 
-0.043388 -1.145700 0.000000 
0.087158 -1.237897 0.000000 
0.043769 -1.214199 0.000000 
-0.000000 -1.252664 0.000000 
-0.043769 -1.214199 0.000000 
-0.087158 -1.237897 0.000000 
0.130831 -1.329027 0.000000 
0.087824 -1.307428 0.000000 
0.044436 -1.350128 0.000000 
-0.000000 -1.319063 0.000000 
-0.044436 -1.350128 0.000000 
-0.087824 -1.307428 0.000000 
-0.130831 -1.329027 0.000000 
0.174505 -1.420156 0.000000 
0.131782 -1.399590 0.000000 
0.088871 -1.445457 0.000000 
0.044532 -1.417593 0.000000 
-0.000000 -1.453993 0.000000 
-0.044532 -1.417593 0.000000 
-0.088871 -1.445457 0.000000 
-0.131782 -1.399590 0.000000 
-0.174505 -1.420156 0.000000 
0.046960 -1.026655 0.000000 
0.149405 -1.052856 0.000000 
0.098873 -1.068054 0.000000 
0.095301 -1.120701 0.000000 
0.248777 -1.076119 0.000000 
0.203197 -1.095266 0.000000 
0.205981 -1.153469 0.000000 
0.148617 -1.163707 0.000000 
0.140093 -1.212405 0.000000 
0.347255 -1.098793 0.000000 
0.303554 -1.118950 0.000000 
0.309886 -1.179496 0.000000 
0.257893 -1.194868 0.000000 
0.254475 -1.248978 0.000000 
0.194039 -1.256277 0.000000 
0.184111 -1.303368 0.000000 
0.445733 -1.121466 0.000000 
0.403017 -1.142045 0.000000 
0.412122 -1.204191 0.000000 
0.362692 -1.221485 0.000000 
0.363386 -1.278996 0.000000 
0.307162 -1.291117 0.000000 
0.301302 -1.343156 0.000000 
0.238687 -1.348108 0.000000 
0.228129 -1.394332 0.000000 
0.058559 -0.975840 0.000000 
0.142917 -0.912081 0.000000 
0.123292 -0.961065 0.000000 
0.162226 -0.996682 0.000000 
0.223062 -0.848894 0.000000 
0.209613 -0.896468 0.000000 
0.256854 -0.930580 0.000000 
0.229092 -0.981812 0.000000 
0.261851 -1.018839 0.000000 
0.302189 -0.786037 0.000000 
0.290702 -0.832772 0.000000 
0.341985 -0.865571 0.000000 
0.321587 -0.915805 0.000000 
0.361761 -0.952214 0.000000 
0.329787 -1.004016 0.000000 
0.360414 -1.041139 0.000000 
0.381315 -0.723180 0.000000 
0.370772 -0.769408 0.000000 
0.425037 -0.801037 0.000000 
0.407738 -0.850465 0.000000 
0.453135 -0.885780 0.000000 
0.427556 -0.937295 0.000000 
0.464588 -0.974323 0.000000 
0.429420 -1.026364 0.000000 
0.458977 -1.063439 0.000000 
0.026061 -0.935089 0.000000 
0.028809 -0.829383 0.000000 
0.054870 -0.875266 0.000000 
0.106992 -0.867034 0.000000 
0.029377 -0.727325 0.000000 
0.058186 -0.767503 0.000000 
0.114311 -0.751837 0.000000 
0.137056 -0.805484 0.000000 
0.186430 -0.802958 0.000000 
0.029568 -0.626271 0.000000 
0.058945 -0.664391 0.000000 
0.116563 -0.644746 0.000000 
0.143120 -0.692014 0.000000 
0.196633 -0.683305 0.000000 
0.217198 -0.740602 0.000000 
0.265318 -0.739802 0.000000 
0.029759 -0.525217 0.000000 
0.059328 -0.562283 0.000000 
0.117890 -0.539577 0.000000 
0.145749 -0.583920 0.000000 
0.201664 -0.570446 0.000000 
0.225992 -0.622563 0.000000 
0.278030 -0.616696 0.000000 
0.296791 -0.676639 0.000000 
0.344206 -0.676646 0.000000 
VECTORS X_EC float 
0.338794 -0.876299 0.000000 
-0.609100 0.204953 0.000000 
0.713312 0.316094 0.000000 
0.374519 -0.303336 0.000000 
0.423588 -0.660067 0.000000 
-0.218274 -0.625963 0.000000 
-0.513962 0.649798 0.000000 
0.756418 0.861284 0.000000 
0.381900 0.318892 0.000000 
-0.550868 0.487330 0.000000 
0.823577 0.498126 0.000000 
0.556234 -0.275378 0.000000 
-0.139443 -0.157809 0.000000 
-0.484677 -0.795934 0.000000 
0.766286 -0.530719 0.000000 
0.384386 0.954661 0.000000 
0.474677 -0.365273 0.000000 
-0.141715 -0.365369 0.000000 
-0.385608 0.825403 0.000000 
0.937896 0.904598 0.000000 
0.621631 0.201018 0.000000 
-0.105264 0.382917 0.000000 
-0.467428 -0.215709 0.000000 
0.771260 0.090819 0.000000 
0.386873 -0.409570 0.000000 
0.761262 -0.326164 0.000000 
0.108942 -0.044788 0.000000 
-0.397202 -0.525627 0.000000 
-0.142083 0.813098 0.000000 
-0.595936 0.254323 0.000000 
0.978194 -0.245543 0.000000 
-0.660903 -0.937168 0.000000 
0.724964 0.602312 0.000000 
0.899809 -0.039937 0.000000 
0.685384 0.555375 0.000000 
0.287229 0.054217 0.000000 
0.702895 -0.645112 0.000000 
0.180633 0.863369 0.000000 
0.445811 0.185210 0.000000 
-0.220880 -0.257576 0.000000 
-0.071546 -0.888502 0.000000 
-0.033296 0.856427 0.000000 
-0.417537 0.355918 0.000000 
0.039645 -0.346645 0.000000 
-0.441768 -0.846516 0.000000 
-0.109248 0.458033 0.000000 
-0.699407 -0.018722 0.000000 
-0.474522 -0.686001 0.000000 
0.820030 0.887005 0.000000 
0.957100 0.262933 0.000000 
0.610485 0.359842 0.000000 
-0.761092 -0.370539 0.000000 
-0.714655 0.918724 0.000000 
-0.057734 0.713557 0.000000 
-0.178789 0.867466 0.000000 
-0.067979 0.210039 0.000000 
0.677748 0.071836 0.000000 
0.641556 -0.713909 0.000000 
-0.765897 -0.972388 0.000000 
0.393446 0.095475 0.000000 
0.522510 -0.540255 0.000000 
-0.691820 -0.638800 0.000000 
-0.647393 0.630718 0.000000 
0.028512 0.423191 0.000000 
-0.053800 -0.394169 0.000000 
0.514316 -0.666300 0.000000 
0.965681 -0.676516 0.000000 
-0.897068 0.699455 0.000000 
-0.083078 0.632602 0.000000 
-0.006893 -0.069923 0.000000 
0.724017 -0.233556 0.000000 
0.714996 0.990041 0.000000 
-0.642413 0.756584 0.000000 
-0.760780 -0.082397 0.000000 
-0.205471 -0.360212 0.000000 
0.000000 0.665144 0.000000 
-0.564049 -0.033044 0.000000 
0.000000 -0.438480 0.000000 
0.564049 -0.033044 0.000000 
0.866949 -0.788388 0.000000 
-0.569003 0.891681 0.000000 
0.000000 -0.589031 0.000000 
0.569003 0.891681 0.000000 
-0.866949 -0.788388 0.000000 
0.299194 0.441862 0.000000 
0.858290 0.150278 0.000000 
-0.577662 0.726724 0.000000 
0.000000 0.307346 0.000000 
0.577662 0.726724 0.000000 
-0.858290 0.150278 0.000000 
-0.299194 0.441862 0.000000 
-0.268560 -0.327888 0.000000 
0.286830 -0.605530 0.000000 
0.844677 0.013668 0.000000 
-0.578910 -0.362494 0.000000 
0.000000 0.128910 0.000000 
0.578910 -0.362494 0.000000 
-0.844677 0.013668 0.000000 
-0.286830 -0.605530 0.000000 
0.268560 -0.327888 0.000000 
-0.610485 0.359842 0.000000 
0.057734 0.713557 0.000000 
0.714655 0.918724 0.000000 
0.761092 -0.370539 0.000000 
0.765897 -0.972388 0.000000 
-0.641556 -0.713909 0.000000 
-0.677748 0.071836 0.000000 
0.067979 0.210039 0.000000 
0.178789 0.867466 0.000000 
-0.514316 -0.666300 0.000000 
0.053800 -0.394169 0.000000 
-0.028512 0.423191 0.000000 
0.647393 0.630718 0.000000 
0.691820 -0.638800 0.000000 
-0.522510 -0.540255 0.000000 
-0.393446 0.095475 0.000000 
0.205471 -0.360212 0.000000 
0.760780 -0.082397 0.000000 
0.642413 0.756584 0.000000 
-0.714996 0.990041 0.000000 
-0.724017 -0.233556 0.000000 
0.006894 -0.069923 0.000000 
0.083078 0.632602 0.000000 
0.897068 0.699455 0.000000 
-0.965681 -0.676516 0.000000 
-0.761262 -0.326164 0.000000 
0.142083 0.813098 0.000000 
0.397202 -0.525627 0.000000 
-0.108942 -0.044788 0.000000 
-0.899809 -0.039937 0.000000 
-0.724964 0.602312 0.000000 
0.660903 -0.937168 0.000000 
-0.978194 -0.245543 0.000000 
0.595936 0.254323 0.000000 
0.071546 -0.888502 0.000000 
0.220880 -0.257576 0.000000 
-0.445811 0.185210 0.000000 
-0.180633 0.863369 0.000000 
-0.702895 -0.645112 0.000000 
-0.287229 0.054217 0.000000 
-0.685384 0.555375 0.000000 
-0.957100 0.262933 0.000000 
-0.820030 0.887005 0.000000 
0.474522 -0.686001 0.000000 
0.699407 -0.018722 0.000000 
0.109248 0.458033 0.000000 
0.441768 -0.846516 0.000000 
-0.039645 -0.346645 0.000000 
0.417537 0.355918 0.000000 
0.033296 0.856427 0.000000 
-0.338794 -0.876299 0.000000 
-0.374519 -0.303336 0.000000 
-0.713312 0.316094 0.000000 
0.609100 0.204953 0.000000 
-0.381900 0.318892 0.000000 
-0.756418 0.861284 0.000000 
0.513962 0.649798 0.000000 
0.218274 -0.625963 0.000000 
-0.423588 -0.660067 0.000000 
-0.384386 0.954661 0.000000 
-0.766286 -0.530719 0.000000 
0.484677 -0.795934 0.000000 
0.139443 -0.157809 0.000000 
-0.556234 -0.275378 0.000000 
-0.823577 0.498126 0.000000 
0.550868 0.487330 0.000000 
-0.386873 -0.409570 0.000000 
-0.771260 0.090819 0.000000 
0.467428 -0.215709 0.000000 
0.105264 0.382917 0.000000 
-0.621631 0.201018 0.000000 
-0.937896 0.904598 0.000000 
0.385608 0.825403 0.000000 
0.141715 -0.365369 0.000000 
-0.474677 -0.365273 0.000000 
CELL_DATA 175 
SCALARS MASS float 
LOOKUP_TABLE default 
0.078183 
0.086427 
0.094672 
0.086427 
0.088131 
0.092111 
0.085854 
0.092111 
0.088131 
0.088705 
0.091000 
0.086983 
0.091556 
0.086983 
0.091000 
0.088705 
0.089278 
0.091574 
0.089278 
0.092722 
0.089278 
0.092722 
0.089278 
0.091574 
0.089278 
0.078183 
0.086427 
0.094672 
0.086427 
0.088131 
0.092111 
0.085854 
0.092111 
0.088131 
0.088705 
0.091000 
0.086983 
0.091556 
0.086983 
0.091000 
0.088705 
0.089278 
0.091574 
0.089278 
0.092722 
0.089278 
0.092722 
0.089278 
0.091574 
0.089278 
0.078183 
0.086427 
0.094672 
0.086427 
0.088131 
0.092111 
0.085854 
0.092111 
0.088131 
0.088705 
0.091000 
0.086983 
0.091556 
0.086983 
0.091000 
0.088705 
0.089278 
0.091574 
0.089278 
0.092722 
0.089278 
0.092722 
0.089278 
0.091574 
0.089278 
0.078183 
0.086427 
0.094672 
0.086427 
0.088131 
0.092111 
0.085854 
0.092111 
0.088131 
0.088705 
0.091000 
0.086983 
0.091556 
0.086983 
0.091000 
0.088705 
0.089278 
0.091574 
0.089278 
0.092722 
0.089278 
0.092722 
0.089278 
0.091574 
0.089278 
0.078183 
0.086427 
0.094672 
0.086427 
0.088131 
0.092111 
0.085854 
0.092111 
0.088131 
0.088705 
0.091000 
0.086983 
0.091556 
0.086983 
0.091000 
0.088705 
0.089278 
0.091574 
0.089278 
0.092722 
0.089278 
0.092722 
0.089278 
0.091574 
0.089278 
0.078183 
0.086427 
0.094672 
0.086427 
0.088131 
0.092111 
0.085854 
0.092111 
0.088131 
0.088705 
0.091000 
0.086983 
0.091556 
0.086983 
0.091000 
0.088705 
0.089278 
0.091574 
0.089278 
0.092722 
0.089278 
0.092722 
0.089278 
0.091574 
0.089278 
0.078183 
0.086427 
0.094672 
0.086427 
0.088131 
0.092111 
0.085854 
0.092111 
0.088131 
0.088705 
0.091000 
0.086983 
0.091556 
0.086983 
0.091000 
0.088705 
0.089278 
0.091574 
0.089278 
0.092722 
0.089278 
0.092722 
0.089278 
0.091574 
0.089278 
SCALARS MASS float 
LOOKUP_TABLE default 
0.078183 
0.086427 
0.094672 
0.086427 
0.088131 
0.092111 
0.085854 
0.092111 
0.088131 
0.088705 
0.091000 
0.086983 
0.091556 
0.086983 
0.091000 
0.088705 
0.089278 
0.091574 
0.089278 
0.092722 
0.089278 
0.092722 
0.089278 
0.091574 
0.089278 
0.078183 
0.086427 
0.094672 
0.086427 
0.088131 
0.092111 
0.085854 
0.092111 
0.088131 
0.088705 
0.091000 
0.086983 
0.091556 
0.086983 
0.091000 
0.088705 
0.089278 
0.091574 
0.089278 
0.092722 
0.089278 
0.092722 
0.089278 
0.091574 
0.089278 
0.078183 
0.086427 
0.094672 
0.086427 
0.088131 
0.092111 
0.085854 
0.092111 
0.088131 
0.088705 
0.091000 
0.086983 
0.091556 
0.086983 
0.091000 
0.088705 
0.089278 
0.091574 
0.089278 
0.092722 
0.089278 
0.092722 
0.089278 
0.091574 
0.089278 
0.078183 
0.086427 
0.094672 
0.086427 
0.088131 
0.092111 
0.085854 
0.092111 
0.088131 
0.088705 
0.091000 
0.086983 
0.091556 
0.086983 
0.091000 
0.088705 
0.089278 
0.091574 
0.089278 
0.092722 
0.089278 
0.092722 
0.089278 
0.091574 
0.089278 
0.078183 
0.086427 
0.094672 
0.086427 
0.088131 
0.092111 
0.085854 
0.092111 
0.088131 
0.088705 
0.091000 
0.086983 
0.091556 
0.086983 
0.091000 
0.088705 
0.089278 
0.091574 
0.089278 
0.092722 
0.089278 
0.092722 
0.089278 
0.091574 
0.089278 
0.078183 
0.086427 
0.094672 
0.086427 
0.088131 
0.092111 
0.085854 
0.092111 
0.088131 
0.088705 
0.091000 
0.086983 
0.091556 
0.086983 
0.091000 
0.088705 
0.089278 
0.091574 
0.089278 
0.092722 
0.089278 
0.092722 
0.089278 
0.091574 
0.089278 
0.078183 
0.086427 
0.094672 
0.086427 
0.088131 
0.092111 
0.085854 
0.092111 
0.088131 
0.088705 
0.091000 
0.086983 
0.091556 
0.086983 
0.091000 
0.088705 
0.089278 
0.091574 
0.089278 
0.092722 
0.089278 
0.092722 
0.089278 
0.091574 
0.089278 
SCALARS DENSITY float 
LOOKUP_TABLE default 
20.000000 
20.000000 
20.000000 
20.000000 
20.000000 
20.000000 
20.000000 
20.000000 
20.000000 
20.000000 
20.000000 
20.000000 
20.000000 
20.000000 
20.000000 
20.000000 
20.000000 
20.000000 
20.000000 
20.000000 
20.000000 
20.000000 
20.000000 
20.000000 
20.000000 
20.000000 
20.000000 
20.000000 
20.000000 
20.000000 
20.000000 
20.000000 
20.000000 
20.000000 
20.000000 
20.000000 
20.000000 
20.000000 
20.000000 
20.000000 
20.000000 
20.000000 
20.000000 
20.000000 
20.000000 
20.000000 
20.000000 
20.000000 
20.000000 
20.000000 
20.000000 
20.000000 
20.000000 
20.000000 
20.000000 
20.000000 
20.000000 
20.000000 
20.000000 
20.000000 
20.000000 
20.000000 
20.000000 
20.000000 
20.000000 
20.000000 
20.000000 
20.000000 
20.000000 
20.000000 
20.000000 
20.000000 
20.000000 
20.000000 
20.000000 
20.000000 
20.000000 
20.000000 
20.000000 
20.000000 
20.000000 
20.000000 
20.000000 
20.000000 
20.000000 
20.000000 
20.000000 
20.000000 
20.000000 
20.000000 
20.000000 
20.000000 
20.000000 
20.000000 
20.000000 
20.000000 
20.000000 
20.000000 
20.000000 
20.000000 
20.000000 
20.000000 
20.000000 
20.000000 
20.000000 
20.000000 
20.000000 
20.000000 
20.000000 
20.000000 
20.000000 
20.000000 
20.000000 
20.000000 
20.000000 
20.000000 
20.000000 
20.000000 
20.000000 
20.000000 
20.000000 
20.000000 
20.000000 
20.000000 
20.000000 
20.000000 
20.000000 
20.000000 
20.000000 
20.000000 
20.000000 
20.000000 
20.000000 
20.000000 
20.000000 
20.000000 
20.000000 
20.000000 
20.000000 
20.000000 
20.000000 
20.000000 
20.000000 
20.000000 
20.000000 
20.000000 
20.000000 
20.000000 
20.000000 
20.000000 
20.000000 
20.000000 
20.000000 
20.000000 
20.000000 
20.000000 
20.000000 
20.000000 
20.000000 
20.000000 
20.000000 
20.000000 
20.000000 
20.000000 
20.000000 
20.000000 
20.000000 
20.000000 
20.000000 
20.000000 
20.000000 
20.000000 
20.000000 
20.000000 
20.000000 
SCALARS ELEM_i float 
LOOKUP_TABLE default 
175 
203 
176 
176 
203 
203 
204 
177 
177 
231 
204 
204 
204 
204 
177 
178 
231 
231 
232 
205 
205 
205 
205 
178 
178 
175 
202 
202 
203 
229 
202 
229 
203 
203 
229 
229 
229 
230 
230 
230 
230 
256 
256 
256 
256 
257 
257 
257 
231 
231 
175 
201 
202 
202 
201 
201 
201 
201 
228 
200 
200 
227 
228 
228 
228 
228 
199 
227 
227 
227 
227 
228 
255 
255 
255 
175 
174 
174 
174 
146 
174 
173 
174 
200 
146 
146 
173 
173 
173 
200 
200 
145 
145 
145 
172 
172 
172 
199 
199 
199 
175 
148 
148 
147 
120 
147 
147 
147 
147 
120 
120 
120 
120 
119 
146 
146 
93 
93 
93 
120 
119 
119 
119 
119 
145 
175 
149 
148 
148 
149 
149 
121 
148 
121 
122 
122 
122 
122 
121 
121 
121 
123 
123 
95 
95 
95 
94 
94 
94 
94 
175 
176 
176 
149 
177 
177 
150 
149 
149 
178 
177 
150 
150 
150 
150 
123 
178 
178 
151 
151 
151 
151 
124 
123 
123 
VECTORS VELOCITY float 
-0.000000 -4.405082 0.000000 
-0.000000 -4.405082 0.000000 
-0.000000 -4.405082 0.000000 
-0.000000 -4.405082 0.000000 
-0.000000 -4.405082 0.000000 
0.000000 -4.405082 0.000000 
0.000000 -4.405082 0.000000 
0.000000 -4.405082 0.000000 
0.000000 -4.405082 0.000000 
-0.000000 -4.405082 0.000000 
-0.000000 -4.405082 0.000000 
0.000000 -4.405082 0.000000 
0.000000 -4.405082 0.000000 
0.000000 -4.405082 0.000000 
0.000000 -4.405082 0.000000 
0.000000 -4.405082 0.000000 
-0.000000 -4.405082 0.000000 
-0.000000 -4.405082 0.000000 
-0.000000 -4.405082 0.000000 
0.000000 -4.405082 0.000000 
0.000000 -4.405082 0.000000 
0.000000 -4.405082 0.000000 
-0.000000 -4.405082 0.000000 
0.000000 -4.405082 0.000000 
-0.000000 -4.405082 0.000000 
0.000000 -4.405082 0.000000 
-0.000000 -4.405082 0.000000 
-0.000000 -4.405082 0.000000 
-0.000000 -4.405082 0.000000 
-0.000000 -4.405082 0.000000 
-0.000000 -4.405082 0.000000 
-0.000000 -4.405082 0.000000 
-0.000000 -4.405082 0.000000 
-0.000000 -4.405082 0.000000 
-0.000000 -4.405082 0.000000 
-0.000000 -4.405082 0.000000 
-0.000000 -4.405082 0.000000 
-0.000000 -4.405082 0.000000 
0.000000 -4.405082 0.000000 
0.000000 -4.405082 0.000000 
0.000000 -4.405082 0.000000 
-0.000000 -4.405082 0.000000 
0.000000 -4.405082 0.000000 
0.000000 -4.405082 0.000000 
-0.000000 -4.405082 0.000000 
-0.000000 -4.405082 0.000000 
-0.000000 -4.405082 0.000000 
0.000000 -4.405082 0.000000 
0.000000 -4.405082 0.000000 
-0.000000 -4.405082 0.000000 
0.000000 -4.405082 0.000000 
0.000000 -4.405082 0.000000 
0.000000 -4.405082 0.000000 
0.000000 -4.405082 0.000000 
0.000000 -4.405082 0.000000 
0.000000 -4.405082 0.000000 
0.000000 -4.405082 0.000000 
-0.000000 -4.405082 0.000000 
-0.000000 -4.405082 0.000000 
-0.000000 -4.405082 0.000000 
0.000000 -4.405082 0.000000 
0.000000 -4.405082 0.000000 
-0.000000 -4.405082 0.000000 
-0.000000 -4.405082 0.000000 
-0.000000 -4.405082 0.000000 
-0.000000 -4.405082 0.000000 
-0.000000 -4.405082 0.000000 
0.000000 -4.405082 0.000000 
-0.000000 -4.405082 0.000000 
-0.000000 -4.405082 0.000000 
0.000000 -4.405082 0.000000 
0.000000 -4.405082 0.000000 
-0.000000 -4.405082 0.000000 
-0.000000 -4.405082 0.000000 
-0.000000 -4.405082 0.000000 
0.000000 -4.405082 0.000000 
-0.000000 -4.405082 0.000000 
-0.000000 -4.405082 0.000000 
0.000000 -4.405082 0.000000 
0.000000 -4.405082 0.000000 
0.000000 -4.405082 0.000000 
0.000000 -4.405082 0.000000 
0.000000 -4.405082 0.000000 
0.000000 -4.405082 0.000000 
0.000000 -4.405082 0.000000 
-0.000000 -4.405082 0.000000 
-0.000000 -4.405082 0.000000 
-0.000000 -4.405082 0.000000 
-0.000000 -4.405082 0.000000 
-0.000000 -4.405082 0.000000 
-0.000000 -4.405082 0.000000 
0.000000 -4.405082 0.000000 
0.000000 -4.405082 0.000000 
0.000000 -4.405082 0.000000 
0.000000 -4.405082 0.000000 
0.000000 -4.405082 0.000000 
0.000000 -4.405082 0.000000 
-0.000000 -4.405082 0.000000 
-0.000000 -4.405082 0.000000 
-0.000000 -4.405082 0.000000 
0.000000 -4.405082 0.000000 
-0.000000 -4.405082 0.000000 
-0.000000 -4.405082 0.000000 
-0.000000 -4.405082 0.000000 
0.000000 -4.405082 0.000000 
0.000000 -4.405082 0.000000 
0.000000 -4.405082 0.000000 
-0.000000 -4.405082 0.000000 
-0.000000 -4.405082 0.000000 
-0.000000 -4.405082 0.000000 
-0.000000 -4.405082 0.000000 
-0.000000 -4.405082 0.000000 
-0.000000 -4.405082 0.000000 
-0.000000 -4.405082 0.000000 
-0.000000 -4.405082 0.000000 
-0.000000 -4.405082 0.000000 
0.000000 -4.405082 0.000000 
-0.000000 -4.405082 0.000000 
-0.000000 -4.405082 0.000000 
-0.000000 -4.405082 0.000000 
-0.000000 -4.405082 0.000000 
-0.000000 -4.405082 0.000000 
-0.000000 -4.405082 0.000000 
0.000000 -4.405082 0.000000 
0.000000 -4.405082 0.000000 
0.000000 -4.405082 0.000000 
0.000000 -4.405082 0.000000 
0.000000 -4.405082 0.000000 
-0.000000 -4.405082 0.000000 
0.000000 -4.405082 0.000000 
0.000000 -4.405082 0.000000 
-0.000000 -4.405082 0.000000 
-0.000000 -4.405082 0.000000 
-0.000000 -4.405082 0.000000 
0.000000 -4.405082 0.000000 
-0.000000 -4.405082 0.000000 
-0.000000 -4.405082 0.000000 
-0.000000 -4.405082 0.000000 
0.000000 -4.405082 0.000000 
-0.000000 -4.405082 0.000000 
0.000000 -4.405082 0.000000 
0.000000 -4.405082 0.000000 
-0.000000 -4.405082 0.000000 
0.000000 -4.405082 0.000000 
-0.000000 -4.405082 0.000000 
0.000000 -4.405082 0.000000 
0.000000 -4.405082 0.000000 
0.000000 -4.405082 0.000000 
-0.000000 -4.405082 0.000000 
0.000000 -4.405082 0.000000 
0.000000 -4.405082 0.000000 
0.000000 -4.405082 0.000000 
0.000000 -4.405082 0.000000 
-0.000000 -4.405082 0.000000 
0.000000 -4.405082 0.000000 
0.000000 -4.405082 0.000000 
0.000000 -4.405082 0.000000 
0.000000 -4.405082 0.000000 
0.000000 -4.405082 0.000000 
0.000000 -4.405082 0.000000 
0.000000 -4.405082 0.000000 
0.000000 -4.405082 0.000000 
-0.000000 -4.405082 0.000000 
-0.000000 -4.405082 0.000000 
0.000000 -4.405082 0.000000 
0.000000 -4.405082 0.000000 
-0.000000 -4.405082 0.000000 
0.000000 -4.405082 0.000000 
-0.000000 -4.405082 0.000000 
0.000000 -4.405082 0.000000 
0.000000 -4.405082 0.000000 
0.000000 -4.405082 0.000000 
0.000000 -4.405082 0.000000 
0.000000 -4.405082 0.000000 
0.000000 -4.405082 0.000000 
TENSORS STRESS float 
-0.000000 0.000000 0.000000 
0.000000 -0.000000 0.000000 
0.000000 0.000000 0.000000 

0.000000 -0.000000 0.000000 
0.000000 0.000000 0.000000 
0.000000 0.000000 0.000000 

0.000000 -0.000000 0.000000 
0.000000 0.000000 0.000000 
0.000000 0.000000 0.000000 

0.000000 0.000000 0.000000 
0.000000 0.000000 0.000000 
0.000000 0.000000 0.000000 

-0.000000 0.000000 0.000000 
0.000000 -0.000000 0.000000 
0.000000 0.000000 0.000000 

0.000000 0.000000 0.000000 
0.000000 0.000000 0.000000 
0.000000 0.000000 0.000000 

-0.000000 0.000000 0.000000 
0.000000 -0.000000 0.000000 
0.000000 0.000000 0.000000 

-0.000000 -0.000000 0.000000 
0.000000 -0.000000 0.000000 
0.000000 0.000000 0.000000 

-0.000000 0.000000 0.000000 
0.000000 -0.000000 0.000000 
0.000000 0.000000 0.000000 

0.000000 0.000000 0.000000 
0.000000 0.000000 0.000000 
0.000000 0.000000 0.000000 

-0.000000 -0.000000 0.000000 
0.000000 -0.000000 0.000000 
0.000000 0.000000 0.000000 

-0.000000 0.000000 0.000000 
0.000000 0.000000 0.000000 
0.000000 0.000000 0.000000 

0.000000 -0.000000 0.000000 
0.000000 0.000000 0.000000 
0.000000 0.000000 0.000000 

-0.000000 -0.000000 0.000000 
0.000000 -0.000000 0.000000 
0.000000 0.000000 0.000000 

-0.000000 -0.000000 0.000000 
0.000000 -0.000000 0.000000 
0.000000 0.000000 0.000000 

-0.000000 0.000000 0.000000 
0.000000 0.000000 0.000000 
0.000000 0.000000 0.000000 

0.000000 -0.000000 0.000000 
0.000000 0.000000 0.000000 
0.000000 0.000000 0.000000 

0.000000 -0.000000 0.000000 
0.000000 0.000000 0.000000 
0.000000 0.000000 0.000000 

-0.000000 -0.000000 0.000000 
0.000000 -0.000000 0.000000 
0.000000 0.000000 0.000000 

-0.000000 -0.000000 0.000000 
0.000000 -0.000000 0.000000 
0.000000 0.000000 0.000000 

0.000000 0.000000 0.000000 
0.000000 0.000000 0.000000 
0.000000 0.000000 0.000000 

0.000000 0.000000 0.000000 
0.000000 0.000000 0.000000 
0.000000 0.000000 0.000000 

0.000000 0.000000 0.000000 
0.000000 -0.000000 0.000000 
0.000000 0.000000 0.000000 

-0.000000 0.000000 0.000000 
0.000000 -0.000000 0.000000 
0.000000 0.000000 0.000000 

-0.000000 0.000000 0.000000 
0.000000 -0.000000 0.000000 
0.000000 0.000000 0.000000 

-0.000000 0.000000 0.000000 
0.000000 -0.000000 0.000000 
0.000000 0.000000 0.000000 

0.000000 -0.000000 0.000000 
0.000000 0.000000 0.000000 
0.000000 0.000000 0.000000 

0.000000 -0.000000 0.000000 
0.000000 0.000000 0.000000 
0.000000 0.000000 0.000000 

0.000000 -0.000000 0.000000 
0.000000 -0.000000 0.000000 
0.000000 0.000000 0.000000 

-0.000000 0.000000 0.000000 
0.000000 0.000000 0.000000 
0.000000 0.000000 0.000000 

0.000000 -0.000000 0.000000 
0.000000 0.000000 0.000000 
0.000000 0.000000 0.000000 

-0.000000 -0.000000 0.000000 
0.000000 -0.000000 0.000000 
0.000000 0.000000 0.000000 

0.000000 -0.000000 0.000000 
0.000000 0.000000 0.000000 
0.000000 0.000000 0.000000 

-0.000000 -0.000000 0.000000 
0.000000 -0.000000 0.000000 
0.000000 0.000000 0.000000 

-0.000000 -0.000000 0.000000 
0.000000 -0.000000 0.000000 
0.000000 0.000000 0.000000 

-0.000000 0.000000 0.000000 
0.000000 0.000000 0.000000 
0.000000 0.000000 0.000000 

-0.000000 -0.000000 0.000000 
0.000000 -0.000000 0.000000 
0.000000 0.000000 0.000000 

-0.000000 0.000000 0.000000 
0.000000 -0.000000 0.000000 
0.000000 0.000000 0.000000 

-0.000000 -0.000000 0.000000 
0.000000 0.000000 0.000000 
0.000000 0.000000 0.000000 

-0.000000 0.000000 0.000000 
0.000000 -0.000000 0.000000 
0.000000 0.000000 0.000000 

-0.000000 0.000000 0.000000 
0.000000 0.000000 0.000000 
0.000000 0.000000 0.000000 

-0.000000 0.000000 0.000000 
0.000000 0.000000 0.000000 
0.000000 0.000000 0.000000 

0.000000 0.000000 0.000000 
0.000000 0.000000 0.000000 
0.000000 0.000000 0.000000 

-0.000000 -0.000000 0.000000 
0.000000 -0.000000 0.000000 
0.000000 0.000000 0.000000 

-0.000000 0.000000 0.000000 
0.000000 0.000000 0.000000 
0.000000 0.000000 0.000000 

0.000000 -0.000000 0.000000 
0.000000 0.000000 0.000000 
0.000000 0.000000 0.000000 

0.000000 -0.000000 0.000000 
0.000000 0.000000 0.000000 
0.000000 0.000000 0.000000 

-0.000000 0.000000 0.000000 
0.000000 -0.000000 0.000000 
0.000000 0.000000 0.000000 

0.000000 -0.000000 0.000000 
0.000000 0.000000 0.000000 
0.000000 0.000000 0.000000 

0.000000 -0.000000 0.000000 
0.000000 0.000000 0.000000 
0.000000 0.000000 0.000000 

0.000000 -0.000000 0.000000 
0.000000 0.000000 0.000000 
0.000000 0.000000 0.000000 

0.000000 -0.000000 0.000000 
0.000000 -0.000000 0.000000 
0.000000 0.000000 0.000000 

0.000000 -0.000000 0.000000 
0.000000 0.000000 0.000000 
0.000000 0.000000 0.000000 

0.000000 0.000000 0.000000 
0.000000 -0.000000 0.000000 
0.000000 0.000000 0.000000 

-0.000000 -0.000000 0.000000 
0.000000 -0.000000 0.000000 
0.000000 0.000000 0.000000 

-0.000000 -0.000000 0.000000 
0.000000 -0.000000 0.000000 
0.000000 0.000000 0.000000 

0.000000 0.000000 0.000000 
0.000000 0.000000 0.000000 
0.000000 0.000000 0.000000 

-0.000000 0.000000 0.000000 
0.000000 -0.000000 0.000000 
0.000000 0.000000 0.000000 

0.000000 0.000000 0.000000 
0.000000 -0.000000 0.000000 
0.000000 0.000000 0.000000 

-0.000000 -0.000000 0.000000 
0.000000 0.000000 0.000000 
0.000000 0.000000 0.000000 

-0.000000 0.000000 0.000000 
0.000000 0.000000 0.000000 
0.000000 0.000000 0.000000 

0.000000 0.000000 0.000000 
0.000000 0.000000 0.000000 
0.000000 0.000000 0.000000 

-0.000000 0.000000 0.000000 
0.000000 -0.000000 0.000000 
0.000000 0.000000 0.000000 

-0.000000 -0.000000 0.000000 
0.000000 0.000000 0.000000 
0.000000 0.000000 0.000000 

-0.000000 0.000000 0.000000 
0.000000 -0.000000 0.000000 
0.000000 0.000000 0.000000 

-0.000000 0.000000 0.000000 
0.000000 -0.000000 0.000000 
0.000000 0.000000 0.000000 

-0.000000 -0.000000 0.000000 
0.000000 -0.000000 0.000000 
0.000000 0.000000 0.000000 

0.000000 0.000000 0.000000 
0.000000 0.000000 0.000000 
0.000000 0.000000 0.000000 

0.000000 -0.000000 0.000000 
0.000000 -0.000000 0.000000 
0.000000 0.000000 0.000000 

0.000000 -0.000000 0.000000 
0.000000 0.000000 0.000000 
0.000000 0.000000 0.000000 

0.000000 0.000000 0.000000 
0.000000 -0.000000 0.000000 
0.000000 0.000000 0.000000 

-0.000000 -0.000000 0.000000 
0.000000 -0.000000 0.000000 
0.000000 0.000000 0.000000 

0.000000 -0.000000 0.000000 
0.000000 0.000000 0.000000 
0.000000 0.000000 0.000000 

-0.000000 -0.000000 0.000000 
0.000000 -0.000000 0.000000 
0.000000 0.000000 0.000000 

-0.000000 -0.000000 0.000000 
0.000000 -0.000000 0.000000 
0.000000 0.000000 0.000000 

0.000000 -0.000000 0.000000 
0.000000 0.000000 0.000000 
0.000000 0.000000 0.000000 

0.000000 0.000000 0.000000 
0.000000 0.000000 0.000000 
0.000000 0.000000 0.000000 

0.000000 -0.000000 0.000000 
0.000000 0.000000 0.000000 
0.000000 0.000000 0.000000 

0.000000 -0.000000 0.000000 
0.000000 0.000000 0.000000 
0.000000 0.000000 0.000000 

-0.000000 0.000000 0.000000 
0.000000 0.000000 0.000000 
0.000000 0.000000 0.000000 

0.000000 -0.000000 0.000000 
0.000000 0.000000 0.000000 
0.000000 0.000000 0.000000 

0.000000 0.000000 0.000000 
0.000000 -0.000000 0.000000 
0.000000 0.000000 0.000000 

0.000000 0.000000 0.000000 
0.000000 -0.000000 0.000000 
0.000000 0.000000 0.000000 

-0.000000 -0.000000 0.000000 
0.000000 -0.000000 0.000000 
0.000000 0.000000 0.000000 

-0.000000 0.000000 0.000000 
0.000000 -0.000000 0.000000 
0.000000 0.000000 0.000000 

0.000000 0.000000 0.000000 
0.000000 0.000000 0.000000 
0.000000 0.000000 0.000000 

0.000000 -0.000000 0.000000 
0.000000 0.000000 0.000000 
0.000000 0.000000 0.000000 

-0.000000 -0.000000 0.000000 
0.000000 -0.000000 0.000000 
0.000000 0.000000 0.000000 

0.000000 -0.000000 0.000000 
0.000000 0.000000 0.000000 
0.000000 0.000000 0.000000 

-0.000000 0.000000 0.000000 
0.000000 -0.000000 0.000000 
0.000000 0.000000 0.000000 

-0.000000 -0.000000 0.000000 
0.000000 0.000000 0.000000 
0.000000 0.000000 0.000000 

0.000000 0.000000 0.000000 
0.000000 0.000000 0.000000 
0.000000 0.000000 0.000000 

-0.000000 0.000000 0.000000 
0.000000 -0.000000 0.000000 
0.000000 0.000000 0.000000 

0.000000 -0.000000 0.000000 
0.000000 0.000000 0.000000 
0.000000 0.000000 0.000000 

-0.000000 0.000000 0.000000 
0.000000 -0.000000 0.000000 
0.000000 0.000000 0.000000 

-0.000000 -0.000000 0.000000 
0.000000 -0.000000 0.000000 
0.000000 0.000000 0.000000 

-0.000000 0.000000 0.000000 
0.000000 -0.000000 0.000000 
0.000000 0.000000 0.000000 

-0.000000 -0.000000 0.000000 
0.000000 -0.000000 0.000000 
0.000000 0.000000 0.000000 

-0.000000 -0.000000 0.000000 
0.000000 0.000000 0.000000 
0.000000 0.000000 0.000000 

0.000000 0.000000 0.000000 
0.000000 0.000000 0.000000 
0.000000 0.000000 0.000000 

-0.000000 -0.000000 0.000000 
0.000000 -0.000000 0.000000 
0.000000 0.000000 0.000000 

-0.000000 0.000000 0.000000 
0.000000 -0.000000 0.000000 
0.000000 0.000000 0.000000 

-0.000000 0.000000 0.000000 
0.000000 -0.000000 0.000000 
0.000000 0.000000 0.000000 

-0.000000 0.000000 0.000000 
0.000000 0.000000 0.000000 
0.000000 0.000000 0.000000 

0.000000 0.000000 0.000000 
0.000000 -0.000000 0.000000 
0.000000 0.000000 0.000000 

-0.000000 0.000000 0.000000 
0.000000 -0.000000 0.000000 
0.000000 0.000000 0.000000 

-0.000000 0.000000 0.000000 
0.000000 0.000000 0.000000 
0.000000 0.000000 0.000000 

-0.000000 -0.000000 0.000000 
0.000000 -0.000000 0.000000 
0.000000 0.000000 0.000000 

0.000000 0.000000 0.000000 
0.000000 0.000000 0.000000 
0.000000 0.000000 0.000000 

0.000000 0.000000 0.000000 
0.000000 -0.000000 0.000000 
0.000000 0.000000 0.000000 

0.000000 -0.000000 0.000000 
0.000000 0.000000 0.000000 
0.000000 0.000000 0.000000 

0.000000 -0.000000 0.000000 
0.000000 0.000000 0.000000 
0.000000 0.000000 0.000000 

0.000000 -0.000000 0.000000 
0.000000 0.000000 0.000000 
0.000000 0.000000 0.000000 

0.000000 -0.000000 0.000000 
0.000000 0.000000 0.000000 
0.000000 0.000000 0.000000 

0.000000 0.000000 0.000000 
0.000000 0.000000 0.000000 
0.000000 0.000000 0.000000 

0.000000 0.000000 0.000000 
0.000000 0.000000 0.000000 
0.000000 0.000000 0.000000 

0.000000 -0.000000 0.000000 
0.000000 0.000000 0.000000 
0.000000 0.000000 0.000000 

0.000000 0.000000 0.000000 
0.000000 -0.000000 0.000000 
0.000000 0.000000 0.000000 

0.000000 0.000000 0.000000 
0.000000 0.000000 0.000000 
0.000000 0.000000 0.000000 

0.000000 0.000000 0.000000 
0.000000 0.000000 0.000000 
0.000000 0.000000 0.000000 

0.000000 0.000000 0.000000 
0.000000 0.000000 0.000000 
0.000000 0.000000 0.000000 

0.000000 0.000000 0.000000 
0.000000 0.000000 0.000000 
0.000000 0.000000 0.000000 

-0.000000 0.000000 0.000000 
0.000000 -0.000000 0.000000 
0.000000 0.000000 0.000000 

0.000000 -0.000000 0.000000 
0.000000 0.000000 0.000000 
0.000000 0.000000 0.000000 

0.000000 0.000000 0.000000 
0.000000 0.000000 0.000000 
0.000000 0.000000 0.000000 

-0.000000 -0.000000 0.000000 
0.000000 -0.000000 0.000000 
0.000000 0.000000 0.000000 

0.000000 -0.000000 0.000000 
0.000000 0.000000 0.000000 
0.000000 0.000000 0.000000 

0.000000 0.000000 0.000000 
0.000000 0.000000 0.000000 
0.000000 0.000000 0.000000 

-0.000000 0.000000 0.000000 
0.000000 -0.000000 0.000000 
0.000000 0.000000 0.000000 

-0.000000 0.000000 0.000000 
0.000000 -0.000000 0.000000 
0.000000 0.000000 0.000000 

0.000000 0.000000 0.000000 
0.000000 0.000000 0.000000 
0.000000 0.000000 0.000000 

0.000000 -0.000000 0.000000 
0.000000 -0.000000 0.000000 
0.000000 0.000000 0.000000 

0.000000 0.000000 0.000000 
0.000000 0.000000 0.000000 
0.000000 0.000000 0.000000 

0.000000 0.000000 0.000000 
0.000000 0.000000 0.000000 
0.000000 0.000000 0.000000 

0.000000 0.000000 0.000000 
0.000000 0.000000 0.000000 
0.000000 0.000000 0.000000 

0.000000 -0.000000 0.000000 
0.000000 -0.000000 0.000000 
0.000000 0.000000 0.000000 

0.000000 -0.000000 0.000000 
0.000000 -0.000000 0.000000 
0.000000 0.000000 0.000000 

0.000000 0.000000 0.000000 
0.000000 0.000000 0.000000 
0.000000 0.000000 0.000000 

0.000000 -0.000000 0.000000 
0.000000 0.000000 0.000000 
0.000000 0.000000 0.000000 

0.000000 0.000000 0.000000 
0.000000 0.000000 0.000000 
0.000000 0.000000 0.000000 

0.000000 0.000000 0.000000 
0.000000 0.000000 0.000000 
0.000000 0.000000 0.000000 

0.000000 -0.000000 0.000000 
0.000000 0.000000 0.000000 
0.000000 0.000000 0.000000 

0.000000 -0.000000 0.000000 
0.000000 0.000000 0.000000 
0.000000 0.000000 0.000000 

-0.000000 0.000000 0.000000 
0.000000 -0.000000 0.000000 
0.000000 0.000000 0.000000 

0.000000 0.000000 0.000000 
0.000000 0.000000 0.000000 
0.000000 0.000000 0.000000 

0.000000 0.000000 0.000000 
0.000000 -0.000000 0.000000 
0.000000 0.000000 0.000000 

-0.000000 0.000000 0.000000 
0.000000 0.000000 0.000000 
0.000000 0.000000 0.000000 

-0.000000 0.000000 0.000000 
0.000000 -0.000000 0.000000 
0.000000 0.000000 0.000000 

0.000000 -0.000000 0.000000 
0.000000 0.000000 0.000000 
0.000000 0.000000 0.000000 

0.000000 0.000000 0.000000 
0.000000 0.000000 0.000000 
0.000000 0.000000 0.000000 

0.000000 0.000000 0.000000 
0.000000 -0.000000 0.000000 
0.000000 0.000000 0.000000 

0.000000 0.000000 0.000000 
0.000000 0.000000 0.000000 
0.000000 0.000000 0.000000 

0.000000 0.000000 0.000000 
0.000000 0.000000 0.000000 
0.000000 0.000000 0.000000 

0.000000 -0.000000 0.000000 
0.000000 0.000000 0.000000 
0.000000 0.000000 0.000000 

-0.000000 -0.000000 0.000000 
0.000000 -0.000000 0.000000 
0.000000 0.000000 0.000000 

-0.000000 -0.000000 0.000000 
0.000000 -0.000000 0.000000 
0.000000 0.000000 0.000000 

-0.000000 0.000000 0.000000 
0.000000 -0.000000 0.000000 
0.000000 0.000000 0.000000 

-0.000000 0.000000 0.000000 
0.000000 -0.000000 0.000000 
0.000000 0.000000 0.000000 

-0.000000 0.000000 0.000000 
0.000000 0.000000 0.000000 
0.000000 0.000000 0.000000 

-0.000000 0.000000 0.000000 
0.000000 -0.000000 0.000000 
0.000000 0.000000 0.000000 

-0.000000 -0.000000 0.000000 
0.000000 0.000000 0.000000 
0.000000 0.000000 0.000000 

0.000000 -0.000000 0.000000 
0.000000 0.000000 0.000000 
0.000000 0.000000 0.000000 

0.000000 -0.000000 0.000000 
0.000000 0.000000 0.000000 
0.000000 0.000000 0.000000 

0.000000 0.000000 0.000000 
0.000000 0.000000 0.000000 
0.000000 0.000000 0.000000 

0.000000 -0.000000 0.000000 
0.000000 0.000000 0.000000 
0.000000 0.000000 0.000000 

0.000000 -0.000000 0.000000 
0.000000 0.000000 0.000000 
0.000000 0.000000 0.000000 

-0.000000 -0.000000 0.000000 
0.000000 0.000000 0.000000 
0.000000 0.000000 0.000000 

0.000000 0.000000 0.000000 
0.000000 0.000000 0.000000 
0.000000 0.000000 0.000000 

-0.000000 0.000000 0.000000 
0.000000 -0.000000 0.000000 
0.000000 0.000000 0.000000 

-0.000000 0.000000 0.000000 
0.000000 -0.000000 0.000000 
0.000000 0.000000 0.000000 

-0.000000 0.000000 0.000000 
0.000000 -0.000000 0.000000 
0.000000 0.000000 0.000000 

0.000000 0.000000 0.000000 
0.000000 0.000000 0.000000 
0.000000 0.000000 0.000000 

-0.000000 -0.000000 0.000000 
0.000000 -0.000000 0.000000 
0.000000 0.000000 0.000000 

-0.000000 -0.000000 0.000000 
0.000000 0.000000 0.000000 
0.000000 0.000000 0.000000 

-0.000000 -0.000000 0.000000 
0.000000 -0.000000 0.000000 
0.000000 0.000000 0.000000 

TENSORS STRAIN float 
0.000000 0.000000 0.000000 
0.000000 -0.000000 0.000000 
0.000000 0.000000 0.000000 

0.000000 -0.000000 0.000000 
0.000000 0.000000 0.000000 
0.000000 0.000000 0.000000 

0.000000 -0.000000 0.000000 
0.000000 0.000000 0.000000 
0.000000 0.000000 0.000000 

0.000000 0.000000 0.000000 
0.000000 0.000000 0.000000 
0.000000 0.000000 0.000000 

-0.000000 0.000000 0.000000 
0.000000 -0.000000 0.000000 
0.000000 0.000000 0.000000 

-0.000000 0.000000 0.000000 
0.000000 0.000000 0.000000 
0.000000 0.000000 0.000000 

-0.000000 0.000000 0.000000 
0.000000 -0.000000 0.000000 
0.000000 0.000000 0.000000 

-0.000000 -0.000000 0.000000 
0.000000 -0.000000 0.000000 
0.000000 0.000000 0.000000 

-0.000000 0.000000 0.000000 
0.000000 -0.000000 0.000000 
0.000000 0.000000 0.000000 

0.000000 0.000000 0.000000 
0.000000 0.000000 0.000000 
0.000000 0.000000 0.000000 

-0.000000 -0.000000 0.000000 
0.000000 -0.000000 0.000000 
0.000000 0.000000 0.000000 

-0.000000 0.000000 0.000000 
0.000000 0.000000 0.000000 
0.000000 0.000000 0.000000 

-0.000000 -0.000000 0.000000 
0.000000 0.000000 0.000000 
0.000000 0.000000 0.000000 

-0.000000 -0.000000 0.000000 
0.000000 -0.000000 0.000000 
0.000000 0.000000 0.000000 

-0.000000 -0.000000 0.000000 
0.000000 -0.000000 0.000000 
0.000000 0.000000 0.000000 

-0.000000 0.000000 0.000000 
0.000000 0.000000 0.000000 
0.000000 0.000000 0.000000 

0.000000 -0.000000 0.000000 
0.000000 0.000000 0.000000 
0.000000 0.000000 0.000000 

0.000000 -0.000000 0.000000 
0.000000 0.000000 0.000000 
0.000000 0.000000 0.000000 

-0.000000 -0.000000 0.000000 
0.000000 0.000000 0.000000 
0.000000 0.000000 0.000000 

0.000000 -0.000000 0.000000 
0.000000 -0.000000 0.000000 
0.000000 0.000000 0.000000 

0.000000 0.000000 0.000000 
0.000000 0.000000 0.000000 
0.000000 0.000000 0.000000 

0.000000 0.000000 0.000000 
0.000000 0.000000 0.000000 
0.000000 0.000000 0.000000 

0.000000 0.000000 0.000000 
0.000000 -0.000000 0.000000 
0.000000 0.000000 0.000000 

-0.000000 0.000000 0.000000 
0.000000 -0.000000 0.000000 
0.000000 0.000000 0.000000 

-0.000000 0.000000 0.000000 
0.000000 -0.000000 0.000000 
0.000000 0.000000 0.000000 

-0.000000 0.000000 0.000000 
0.000000 -0.000000 0.000000 
0.000000 0.000000 0.000000 

0.000000 -0.000000 0.000000 
0.000000 0.000000 0.000000 
0.000000 0.000000 0.000000 

0.000000 -0.000000 0.000000 
0.000000 0.000000 0.000000 
0.000000 0.000000 0.000000 

0.000000 -0.000000 0.000000 
0.000000 -0.000000 0.000000 
0.000000 0.000000 0.000000 

-0.000000 0.000000 0.000000 
0.000000 0.000000 0.000000 
0.000000 0.000000 0.000000 

0.000000 -0.000000 0.000000 
0.000000 0.000000 0.000000 
0.000000 0.000000 0.000000 

-0.000000 -0.000000 0.000000 
0.000000 -0.000000 0.000000 
0.000000 0.000000 0.000000 

0.000000 -0.000000 0.000000 
0.000000 0.000000 0.000000 
0.000000 0.000000 0.000000 

0.000000 -0.000000 0.000000 
0.000000 -0.000000 0.000000 
0.000000 0.000000 0.000000 

-0.000000 -0.000000 0.000000 
0.000000 -0.000000 0.000000 
0.000000 0.000000 0.000000 

-0.000000 0.000000 0.000000 
0.000000 0.000000 0.000000 
0.000000 0.000000 0.000000 

-0.000000 -0.000000 0.000000 
0.000000 -0.000000 0.000000 
0.000000 0.000000 0.000000 

-0.000000 0.000000 0.000000 
0.000000 -0.000000 0.000000 
0.000000 0.000000 0.000000 

-0.000000 -0.000000 0.000000 
0.000000 0.000000 0.000000 
0.000000 0.000000 0.000000 

-0.000000 0.000000 0.000000 
0.000000 -0.000000 0.000000 
0.000000 0.000000 0.000000 

-0.000000 0.000000 0.000000 
0.000000 0.000000 0.000000 
0.000000 0.000000 0.000000 

-0.000000 0.000000 0.000000 
0.000000 0.000000 0.000000 
0.000000 0.000000 0.000000 

-0.000000 0.000000 0.000000 
0.000000 0.000000 0.000000 
0.000000 0.000000 0.000000 

0.000000 -0.000000 0.000000 
0.000000 -0.000000 0.000000 
0.000000 0.000000 0.000000 

-0.000000 0.000000 0.000000 
0.000000 0.000000 0.000000 
0.000000 0.000000 0.000000 

-0.000000 -0.000000 0.000000 
0.000000 0.000000 0.000000 
0.000000 0.000000 0.000000 

0.000000 -0.000000 0.000000 
0.000000 0.000000 0.000000 
0.000000 0.000000 0.000000 

-0.000000 0.000000 0.000000 
0.000000 0.000000 0.000000 
0.000000 0.000000 0.000000 

0.000000 -0.000000 0.000000 
0.000000 0.000000 0.000000 
0.000000 0.000000 0.000000 

0.000000 -0.000000 0.000000 
0.000000 0.000000 0.000000 
0.000000 0.000000 0.000000 

-0.000000 -0.000000 0.000000 
0.000000 0.000000 0.000000 
0.000000 0.000000 0.000000 

0.000000 -0.000000 0.000000 
0.000000 -0.000000 0.000000 
0.000000 0.000000 0.000000 

0.000000 -0.000000 0.000000 
0.000000 0.000000 0.000000 
0.000000 0.000000 0.000000 

0.000000 0.000000 0.000000 
0.000000 -0.000000 0.000000 
0.000000 0.000000 0.000000 

-0.000000 -0.000000 0.000000 
0.000000 -0.000000 0.000000 
0.000000 0.000000 0.000000 

0.000000 -0.000000 0.000000 
0.000000 -0.000000 0.000000 
0.000000 0.000000 0.000000 

0.000000 0.000000 0.000000 
0.000000 0.000000 0.000000 
0.000000 0.000000 0.000000 

0.000000 0.000000 0.000000 
0.000000 -0.000000 0.000000 
0.000000 0.000000 0.000000 

0.000000 0.000000 0.000000 
0.000000 -0.000000 0.000000 
0.000000 0.000000 0.000000 

-0.000000 -0.000000 0.000000 
0.000000 0.000000 0.000000 
0.000000 0.000000 0.000000 

-0.000000 0.000000 0.000000 
0.000000 0.000000 0.000000 
0.000000 0.000000 0.000000 

-0.000000 0.000000 0.000000 
0.000000 0.000000 0.000000 
0.000000 0.000000 0.000000 

-0.000000 0.000000 0.000000 
0.000000 -0.000000 0.000000 
0.000000 0.000000 0.000000 

-0.000000 -0.000000 0.000000 
0.000000 0.000000 0.000000 
0.000000 0.000000 0.000000 

0.000000 0.000000 0.000000 
0.000000 -0.000000 0.000000 
0.000000 0.000000 0.000000 

0.000000 0.000000 0.000000 
0.000000 -0.000000 0.000000 
0.000000 0.000000 0.000000 

-0.000000 -0.000000 0.000000 
0.000000 0.000000 0.000000 
0.000000 0.000000 0.000000 

0.000000 0.000000 0.000000 
0.000000 0.000000 0.000000 
0.000000 0.000000 0.000000 

0.000000 -0.000000 0.000000 
0.000000 -0.000000 0.000000 
0.000000 0.000000 0.000000 

0.000000 -0.000000 0.000000 
0.000000 0.000000 0.000000 
0.000000 0.000000 0.000000 

0.000000 0.000000 0.000000 
0.000000 -0.000000 0.000000 
0.000000 0.000000 0.000000 

-0.000000 -0.000000 0.000000 
0.000000 -0.000000 0.000000 
0.000000 0.000000 0.000000 

0.000000 -0.000000 0.000000 
0.000000 0.000000 0.000000 
0.000000 0.000000 0.000000 

-0.000000 -0.000000 0.000000 
0.000000 -0.000000 0.000000 
0.000000 0.000000 0.000000 

-0.000000 -0.000000 0.000000 
0.000000 0.000000 0.000000 
0.000000 0.000000 0.000000 

0.000000 -0.000000 0.000000 
0.000000 -0.000000 0.000000 
0.000000 0.000000 0.000000 

0.000000 0.000000 0.000000 
0.000000 0.000000 0.000000 
0.000000 0.000000 0.000000 

0.000000 -0.000000 0.000000 
0.000000 -0.000000 0.000000 
0.000000 0.000000 0.000000 

0.000000 -0.000000 0.000000 
0.000000 0.000000 0.000000 
0.000000 0.000000 0.000000 

-0.000000 0.000000 0.000000 
0.000000 0.000000 0.000000 
0.000000 0.000000 0.000000 

0.000000 -0.000000 0.000000 
0.000000 0.000000 0.000000 
0.000000 0.000000 0.000000 

0.000000 0.000000 0.000000 
0.000000 -0.000000 0.000000 
0.000000 0.000000 0.000000 

0.000000 0.000000 0.000000 
0.000000 -0.000000 0.000000 
0.000000 0.000000 0.000000 

-0.000000 -0.000000 0.000000 
0.000000 -0.000000 0.000000 
0.000000 0.000000 0.000000 

0.000000 0.000000 0.000000 
0.000000 -0.000000 0.000000 
0.000000 0.000000 0.000000 

0.000000 0.000000 0.000000 
0.000000 0.000000 0.000000 
0.000000 0.000000 0.000000 

-0.000000 -0.000000 0.000000 
0.000000 0.000000 0.000000 
0.000000 0.000000 0.000000 

0.000000 -0.000000 0.000000 
0.000000 -0.000000 0.000000 
0.000000 0.000000 0.000000 

-0.000000 -0.000000 0.000000 
0.000000 0.000000 0.000000 
0.000000 0.000000 0.000000 

-0.000000 0.000000 0.000000 
0.000000 0.000000 0.000000 
0.000000 0.000000 0.000000 

-0.000000 -0.000000 0.000000 
0.000000 0.000000 0.000000 
0.000000 0.000000 0.000000 

0.000000 0.000000 0.000000 
0.000000 0.000000 0.000000 
0.000000 0.000000 0.000000 

0.000000 0.000000 0.000000 
0.000000 -0.000000 0.000000 
0.000000 0.000000 0.000000 

0.000000 -0.000000 0.000000 
0.000000 0.000000 0.000000 
0.000000 0.000000 0.000000 

-0.000000 0.000000 0.000000 
0.000000 -0.000000 0.000000 
0.000000 0.000000 0.000000 

-0.000000 -0.000000 0.000000 
0.000000 -0.000000 0.000000 
0.000000 0.000000 0.000000 

-0.000000 0.000000 0.000000 
0.000000 -0.000000 0.000000 
0.000000 0.000000 0.000000 

0.000000 -0.000000 0.000000 
0.000000 -0.000000 0.000000 
0.000000 0.000000 0.000000 

-0.000000 -0.000000 0.000000 
0.000000 0.000000 0.000000 
0.000000 0.000000 0.000000 

-0.000000 0.000000 0.000000 
0.000000 0.000000 0.000000 
0.000000 0.000000 0.000000 

-0.000000 -0.000000 0.000000 
0.000000 -0.000000 0.000000 
0.000000 0.000000 0.000000 

-0.000000 0.000000 0.000000 
0.000000 -0.000000 0.000000 
0.000000 0.000000 0.000000 

-0.000000 0.000000 0.000000 
0.000000 -0.000000 0.000000 
0.000000 0.000000 0.000000 

-0.000000 0.000000 0.000000 
0.000000 0.000000 0.000000 
0.000000 0.000000 0.000000 

0.000000 0.000000 0.000000 
0.000000 -0.000000 0.000000 
0.000000 0.000000 0.000000 

-0.000000 0.000000 0.000000 
0.000000 -0.000000 0.000000 
0.000000 0.000000 0.000000 

-0.000000 0.000000 0.000000 
0.000000 0.000000 0.000000 
0.000000 0.000000 0.000000 

-0.000000 -0.000000 0.000000 
0.000000 0.000000 0.000000 
0.000000 0.000000 0.000000 

-0.000000 0.000000 0.000000 
0.000000 0.000000 0.000000 
0.000000 0.000000 0.000000 

0.000000 0.000000 0.000000 
0.000000 -0.000000 0.000000 
0.000000 0.000000 0.000000 

0.000000 -0.000000 0.000000 
0.000000 -0.000000 0.000000 
0.000000 0.000000 0.000000 

0.000000 -0.000000 0.000000 
0.000000 0.000000 0.000000 
0.000000 0.000000 0.000000 

0.000000 -0.000000 0.000000 
0.000000 0.000000 0.000000 
0.000000 0.000000 0.000000 

0.000000 -0.000000 0.000000 
0.000000 0.000000 0.000000 
0.000000 0.000000 0.000000 

0.000000 0.000000 0.000000 
0.000000 0.000000 0.000000 
0.000000 0.000000 0.000000 

0.000000 0.000000 0.000000 
0.000000 0.000000 0.000000 
0.000000 0.000000 0.000000 

0.000000 -0.000000 0.000000 
0.000000 -0.000000 0.000000 
0.000000 0.000000 0.000000 

0.000000 0.000000 0.000000 
0.000000 -0.000000 0.000000 
0.000000 0.000000 0.000000 

0.000000 0.000000 0.000000 
0.000000 0.000000 0.000000 
0.000000 0.000000 0.000000 

0.000000 0.000000 0.000000 
0.000000 0.000000 0.000000 
0.000000 0.000000 0.000000 

0.000000 0.000000 0.000000 
0.000000 0.000000 0.000000 
0.000000 0.000000 0.000000 

0.000000 0.000000 0.000000 
0.000000 0.000000 0.000000 
0.000000 0.000000 0.000000 

0.000000 0.000000 0.000000 
0.000000 -0.000000 0.000000 
0.000000 0.000000 0.000000 

0.000000 -0.000000 0.000000 
0.000000 0.000000 0.000000 
0.000000 0.000000 0.000000 

0.000000 0.000000 0.000000 
0.000000 0.000000 0.000000 
0.000000 0.000000 0.000000 

-0.000000 -0.000000 0.000000 
0.000000 -0.000000 0.000000 
0.000000 0.000000 0.000000 

0.000000 -0.000000 0.000000 
0.000000 -0.000000 0.000000 
0.000000 0.000000 0.000000 

0.000000 0.000000 0.000000 
0.000000 0.000000 0.000000 
0.000000 0.000000 0.000000 

0.000000 0.000000 0.000000 
0.000000 -0.000000 0.000000 
0.000000 0.000000 0.000000 

-0.000000 0.000000 0.000000 
0.000000 -0.000000 0.000000 
0.000000 0.000000 0.000000 

0.000000 0.000000 0.000000 
0.000000 0.000000 0.000000 
0.000000 0.000000 0.000000 

0.000000 -0.000000 0.000000 
0.000000 -0.000000 0.000000 
0.000000 0.000000 0.000000 

-0.000000 0.000000 0.000000 
0.000000 0.000000 0.000000 
0.000000 0.000000 0.000000 

0.000000 0.000000 0.000000 
0.000000 -0.000000 0.000000 
0.000000 0.000000 0.000000 

0.000000 0.000000 0.000000 
0.000000 0.000000 0.000000 
0.000000 0.000000 0.000000 

0.000000 -0.000000 0.000000 
0.000000 -0.000000 0.000000 
0.000000 0.000000 0.000000 

0.000000 -0.000000 0.000000 
0.000000 -0.000000 0.000000 
0.000000 0.000000 0.000000 

0.000000 0.000000 0.000000 
0.000000 0.000000 0.000000 
0.000000 0.000000 0.000000 

0.000000 -0.000000 0.000000 
0.000000 0.000000 0.000000 
0.000000 0.000000 0.000000 

0.000000 0.000000 0.000000 
0.000000 -0.000000 0.000000 
0.000000 0.000000 0.000000 

0.000000 0.000000 0.000000 
0.000000 0.000000 0.000000 
0.000000 0.000000 0.000000 

0.000000 -0.000000 0.000000 
0.000000 0.000000 0.000000 
0.000000 0.000000 0.000000 

0.000000 -0.000000 0.000000 
0.000000 0.000000 0.000000 
0.000000 0.000000 0.000000 

0.000000 0.000000 0.000000 
0.000000 -0.000000 0.000000 
0.000000 0.000000 0.000000 

0.000000 0.000000 0.000000 
0.000000 -0.000000 0.000000 
0.000000 0.000000 0.000000 

0.000000 0.000000 0.000000 
0.000000 -0.000000 0.000000 
0.000000 0.000000 0.000000 

-0.000000 0.000000 0.000000 
0.000000 0.000000 0.000000 
0.000000 0.000000 0.000000 

-0.000000 0.000000 0.000000 
0.000000 -0.000000 0.000000 
0.000000 0.000000 0.000000 

0.000000 -0.000000 0.000000 
0.000000 0.000000 0.000000 
0.000000 0.000000 0.000000 

0.000000 0.000000 0.000000 
0.000000 -0.000000 0.000000 
0.000000 0.000000 0.000000 

0.000000 0.000000 0.000000 
0.000000 -0.000000 0.000000 
0.000000 0.000000 0.000000 

0.000000 0.000000 0.000000 
0.000000 0.000000 0.000000 
0.000000 0.000000 0.000000 

0.000000 0.000000 0.000000 
0.000000 0.000000 0.000000 
0.000000 0.000000 0.000000 

-0.000000 -0.000000 0.000000 
0.000000 0.000000 0.000000 
0.000000 0.000000 0.000000 

-0.000000 -0.000000 0.000000 
0.000000 -0.000000 0.000000 
0.000000 0.000000 0.000000 

-0.000000 -0.000000 0.000000 
0.000000 -0.000000 0.000000 
0.000000 0.000000 0.000000 

0.000000 0.000000 0.000000 
0.000000 -0.000000 0.000000 
0.000000 0.000000 0.000000 

-0.000000 0.000000 0.000000 
0.000000 -0.000000 0.000000 
0.000000 0.000000 0.000000 

-0.000000 0.000000 0.000000 
0.000000 0.000000 0.000000 
0.000000 0.000000 0.000000 

-0.000000 0.000000 0.000000 
0.000000 -0.000000 0.000000 
0.000000 0.000000 0.000000 

-0.000000 -0.000000 0.000000 
0.000000 0.000000 0.000000 
0.000000 0.000000 0.000000 

0.000000 -0.000000 0.000000 
0.000000 0.000000 0.000000 
0.000000 0.000000 0.000000 

0.000000 -0.000000 0.000000 
0.000000 0.000000 0.000000 
0.000000 0.000000 0.000000 

0.000000 0.000000 0.000000 
0.000000 0.000000 0.000000 
0.000000 0.000000 0.000000 

0.000000 -0.000000 0.000000 
0.000000 0.000000 0.000000 
0.000000 0.000000 0.000000 

0.000000 -0.000000 0.000000 
0.000000 -0.000000 0.000000 
0.000000 0.000000 0.000000 

-0.000000 -0.000000 0.000000 
0.000000 0.000000 0.000000 
0.000000 0.000000 0.000000 

-0.000000 0.000000 0.000000 
0.000000 0.000000 0.000000 
0.000000 0.000000 0.000000 

-0.000000 0.000000 0.000000 
0.000000 -0.000000 0.000000 
0.000000 0.000000 0.000000 

0.000000 0.000000 0.000000 
0.000000 -0.000000 0.000000 
0.000000 0.000000 0.000000 

0.000000 0.000000 0.000000 
0.000000 -0.000000 0.000000 
0.000000 0.000000 0.000000 

0.000000 0.000000 0.000000 
0.000000 0.000000 0.000000 
0.000000 0.000000 0.000000 

-0.000000 -0.000000 0.000000 
0.000000 0.000000 0.000000 
0.000000 0.000000 0.000000 

-0.000000 -0.000000 0.000000 
0.000000 0.000000 0.000000 
0.000000 0.000000 0.000000 

-0.000000 -0.000000 0.000000 
0.000000 -0.000000 0.000000 
0.000000 0.000000 0.000000 

