# vtk DataFile Version 3.0 
vtk output 
ASCII 
DATASET UNSTRUCTURED_GRID 
POINTS 175 float 
-0.026061 -1.147343 0.000000 
-0.106992 -1.079287 0.000000 
-0.054870 -1.087520 0.000000 
-0.028809 -1.041636 0.000000 
-0.186430 -1.015212 0.000000 
-0.137056 -1.017738 0.000000 
-0.114311 -0.964091 0.000000 
-0.058186 -0.979756 0.000000 
-0.029377 -0.939579 0.000000 
-0.265318 -0.952056 0.000000 
-0.217198 -0.952856 0.000000 
-0.196633 -0.895559 0.000000 
-0.143120 -0.904268 0.000000 
-0.116563 -0.856999 0.000000 
-0.058945 -0.876645 0.000000 
-0.029568 -0.838525 0.000000 
-0.344206 -0.888900 0.000000 
-0.296791 -0.888893 0.000000 
-0.278030 -0.828950 0.000000 
-0.225992 -0.834817 0.000000 
-0.201664 -0.782700 0.000000 
-0.145749 -0.796174 0.000000 
-0.117890 -0.751831 0.000000 
-0.059328 -0.774537 0.000000 
-0.029759 -0.737471 0.000000 
-0.058559 -1.188094 0.000000 
-0.162226 -1.208936 0.000000 
-0.123292 -1.173319 0.000000 
-0.142917 -1.124335 0.000000 
-0.261851 -1.231093 0.000000 
-0.229092 -1.194066 0.000000 
-0.256854 -1.142834 0.000000 
-0.209613 -1.108721 0.000000 
-0.223062 -1.061147 0.000000 
-0.360414 -1.253393 0.000000 
-0.329787 -1.216270 0.000000 
-0.361761 -1.164468 0.000000 
-0.321587 -1.128059 0.000000 
-0.341985 -1.077825 0.000000 
-0.290702 -1.045026 0.000000 
-0.302189 -0.998291 0.000000 
-0.458977 -1.275693 0.000000 
-0.429420 -1.238618 0.000000 
-0.464588 -1.186576 0.000000 
-0.427556 -1.149549 0.000000 
-0.453135 -1.098034 0.000000 
-0.407738 -1.062719 0.000000 
-0.425037 -1.013291 0.000000 
-0.370772 -0.981662 0.000000 
-0.381315 -0.935434 0.000000 
-0.046960 -1.238909 0.000000 
-0.095301 -1.332955 0.000000 
-0.098873 -1.280307 0.000000 
-0.149405 -1.265110 0.000000 
-0.140093 -1.424659 0.000000 
-0.148617 -1.375960 0.000000 
-0.205981 -1.365723 0.000000 
-0.203197 -1.307520 0.000000 
-0.248777 -1.288373 0.000000 
-0.184111 -1.515622 0.000000 
-0.194039 -1.468531 0.000000 
-0.254475 -1.461232 0.000000 
-0.257893 -1.407122 0.000000 
-0.309886 -1.391750 0.000000 
-0.303554 -1.331204 0.000000 
-0.347255 -1.311046 0.000000 
-0.228129 -1.606586 0.000000 
-0.238687 -1.560362 0.000000 
-0.301302 -1.555410 0.000000 
-0.307162 -1.503371 0.000000 
-0.363386 -1.491250 0.000000 
-0.362692 -1.433738 0.000000 
-0.412122 -1.416445 0.000000 
-0.403017 -1.354299 0.000000 
-0.445733 -1.333720 0.000000 
-0.000000 -1.261524 0.000000 
0.043388 -1.357954 0.000000 
-0.000000 -1.327922 0.000000 
-0.043388 -1.357954 0.000000 
0.087158 -1.450151 0.000000 
0.043769 -1.426452 0.000000 
-0.000000 -1.464918 0.000000 
-0.043769 -1.426452 0.000000 
-0.087158 -1.450151 0.000000 
0.130831 -1.541281 0.000000 
0.087824 -1.519682 0.000000 
0.044436 -1.562382 0.000000 
-0.000000 -1.531317 0.000000 
-0.044436 -1.562382 0.000000 
-0.087824 -1.519682 0.000000 
-0.130831 -1.541281 0.000000 
0.174505 -1.632410 0.000000 
0.131782 -1.611844 0.000000 
0.088871 -1.657711 0.000000 
0.044532 -1.629847 0.000000 
-0.000000 -1.666247 0.000000 
-0.044532 -1.629847 0.000000 
-0.088871 -1.657711 0.000000 
-0.131782 -1.611844 0.000000 
-0.174505 -1.632410 0.000000 
0.046960 -1.238909 0.000000 
0.149405 -1.265110 0.000000 
0.098873 -1.280307 0.000000 
0.095301 -1.332955 0.000000 
0.248777 -1.288373 0.000000 
0.203197 -1.307520 0.000000 
0.205981 -1.365723 0.000000 
0.148617 -1.375960 0.000000 
0.140093 -1.424659 0.000000 
0.347255 -1.311046 0.000000 
0.303554 -1.331204 0.000000 
0.309886 -1.391750 0.000000 
0.257893 -1.407122 0.000000 
0.254475 -1.461232 0.000000 
0.194039 -1.468531 0.000000 
0.184111 -1.515622 0.000000 
0.445733 -1.333720 0.000000 
0.403017 -1.354299 0.000000 
0.412122 -1.416445 0.000000 
0.362692 -1.433738 0.000000 
0.363386 -1.491250 0.000000 
0.307162 -1.503371 0.000000 
0.301302 -1.555410 0.000000 
0.238687 -1.560362 0.000000 
0.228129 -1.606586 0.000000 
0.058559 -1.188094 0.000000 
0.142917 -1.124335 0.000000 
0.123292 -1.173319 0.000000 
0.162226 -1.208936 0.000000 
0.223062 -1.061147 0.000000 
0.209613 -1.108721 0.000000 
0.256854 -1.142834 0.000000 
0.229092 -1.194066 0.000000 
0.261851 -1.231093 0.000000 
0.302189 -0.998291 0.000000 
0.290702 -1.045026 0.000000 
0.341985 -1.077825 0.000000 
0.321587 -1.128059 0.000000 
0.361761 -1.164468 0.000000 
0.329787 -1.216270 0.000000 
0.360414 -1.253393 0.000000 
0.381315 -0.935434 0.000000 
0.370772 -0.981662 0.000000 
0.425037 -1.013291 0.000000 
0.407738 -1.062719 0.000000 
0.453135 -1.098034 0.000000 
0.427556 -1.149549 0.000000 
0.464588 -1.186576 0.000000 
0.429420 -1.238618 0.000000 
0.458977 -1.275693 0.000000 
0.026061 -1.147343 0.000000 
0.028809 -1.041636 0.000000 
0.054870 -1.087520 0.000000 
0.106992 -1.079287 0.000000 
0.029377 -0.939579 0.000000 
0.058186 -0.979756 0.000000 
0.114311 -0.964091 0.000000 
0.137056 -1.017738 0.000000 
0.186430 -1.015212 0.000000 
0.029568 -0.838525 0.000000 
0.058945 -0.876645 0.000000 
0.116563 -0.856999 0.000000 
0.143120 -0.904268 0.000000 
0.196633 -0.895559 0.000000 
0.217198 -0.952856 0.000000 
0.265318 -0.952056 0.000000 
0.029759 -0.737471 0.000000 
0.059328 -0.774537 0.000000 
0.117890 -0.751831 0.000000 
0.145749 -0.796174 0.000000 
0.201664 -0.782700 0.000000 
0.225992 -0.834817 0.000000 
0.278030 -0.828950 0.000000 
0.296791 -0.888893 0.000000 
0.344206 -0.888900 0.000000 
CELLS 175 350 
1 0 
1 1 
1 2 
1 3 
1 4 
1 5 
1 6 
1 7 
1 8 
1 9 
1 10 
1 11 
1 12 
1 13 
1 14 
1 15 
1 16 
1 17 
1 18 
1 19 
1 20 
1 21 
1 22 
1 23 
1 24 
1 25 
1 26 
1 27 
1 28 
1 29 
1 30 
1 31 
1 32 
1 33 
1 34 
1 35 
1 36 
1 37 
1 38 
1 39 
1 40 
1 41 
1 42 
1 43 
1 44 
1 45 
1 46 
1 47 
1 48 
1 49 
1 50 
1 51 
1 52 
1 53 
1 54 
1 55 
1 56 
1 57 
1 58 
1 59 
1 60 
1 61 
1 62 
1 63 
1 64 
1 65 
1 66 
1 67 
1 68 
1 69 
1 70 
1 71 
1 72 
1 73 
1 74 
1 75 
1 76 
1 77 
1 78 
1 79 
1 80 
1 81 
1 82 
1 83 
1 84 
1 85 
1 86 
1 87 
1 88 
1 89 
1 90 
1 91 
1 92 
1 93 
1 94 
1 95 
1 96 
1 97 
1 98 
1 99 
1 100 
1 101 
1 102 
1 103 
1 104 
1 105 
1 106 
1 107 
1 108 
1 109 
1 110 
1 111 
1 112 
1 113 
1 114 
1 115 
1 116 
1 117 
1 118 
1 119 
1 120 
1 121 
1 122 
1 123 
1 124 
1 125 
1 126 
1 127 
1 128 
1 129 
1 130 
1 131 
1 132 
1 133 
1 134 
1 135 
1 136 
1 137 
1 138 
1 139 
1 140 
1 141 
1 142 
1 143 
1 144 
1 145 
1 146 
1 147 
1 148 
1 149 
1 150 
1 151 
1 152 
1 153 
1 154 
1 155 
1 156 
1 157 
1 158 
1 159 
1 160 
1 161 
1 162 
1 163 
1 164 
1 165 
1 166 
1 167 
1 168 
1 169 
1 170 
1 171 
1 172 
1 173 
1 174 
CELL_TYPES 175 
1 
1 
1 
1 
1 
1 
1 
1 
1 
1 
1 
1 
1 
1 
1 
1 
1 
1 
1 
1 
1 
1 
1 
1 
1 
1 
1 
1 
1 
1 
1 
1 
1 
1 
1 
1 
1 
1 
1 
1 
1 
1 
1 
1 
1 
1 
1 
1 
1 
1 
1 
1 
1 
1 
1 
1 
1 
1 
1 
1 
1 
1 
1 
1 
1 
1 
1 
1 
1 
1 
1 
1 
1 
1 
1 
1 
1 
1 
1 
1 
1 
1 
1 
1 
1 
1 
1 
1 
1 
1 
1 
1 
1 
1 
1 
1 
1 
1 
1 
1 
1 
1 
1 
1 
1 
1 
1 
1 
1 
1 
1 
1 
1 
1 
1 
1 
1 
1 
1 
1 
1 
1 
1 
1 
1 
1 
1 
1 
1 
1 
1 
1 
1 
1 
1 
1 
1 
1 
1 
1 
1 
1 
1 
1 
1 
1 
1 
1 
1 
1 
1 
1 
1 
1 
1 
1 
1 
1 
1 
1 
1 
1 
1 
1 
1 
1 
1 
1 
1 
1 
1 
1 
1 
1 
1 
POINT_DATA 175 
VECTORS X_GC float 
-0.026061 -1.147343 0.000000 
-0.106992 -1.079287 0.000000 
-0.054870 -1.087520 0.000000 
-0.028809 -1.041636 0.000000 
-0.186430 -1.015212 0.000000 
-0.137056 -1.017738 0.000000 
-0.114311 -0.964091 0.000000 
-0.058186 -0.979756 0.000000 
-0.029377 -0.939579 0.000000 
-0.265318 -0.952056 0.000000 
-0.217198 -0.952856 0.000000 
-0.196633 -0.895559 0.000000 
-0.143120 -0.904268 0.000000 
-0.116563 -0.856999 0.000000 
-0.058945 -0.876645 0.000000 
-0.029568 -0.838525 0.000000 
-0.344206 -0.888900 0.000000 
-0.296791 -0.888893 0.000000 
-0.278030 -0.828950 0.000000 
-0.225992 -0.834817 0.000000 
-0.201664 -0.782700 0.000000 
-0.145749 -0.796174 0.000000 
-0.117890 -0.751831 0.000000 
-0.059328 -0.774537 0.000000 
-0.029759 -0.737471 0.000000 
-0.058559 -1.188094 0.000000 
-0.162226 -1.208936 0.000000 
-0.123292 -1.173319 0.000000 
-0.142917 -1.124335 0.000000 
-0.261851 -1.231093 0.000000 
-0.229092 -1.194066 0.000000 
-0.256854 -1.142834 0.000000 
-0.209613 -1.108721 0.000000 
-0.223062 -1.061147 0.000000 
-0.360414 -1.253393 0.000000 
-0.329787 -1.216270 0.000000 
-0.361761 -1.164468 0.000000 
-0.321587 -1.128059 0.000000 
-0.341985 -1.077825 0.000000 
-0.290702 -1.045026 0.000000 
-0.302189 -0.998291 0.000000 
-0.458977 -1.275693 0.000000 
-0.429420 -1.238618 0.000000 
-0.464588 -1.186576 0.000000 
-0.427556 -1.149549 0.000000 
-0.453135 -1.098034 0.000000 
-0.407738 -1.062719 0.000000 
-0.425037 -1.013291 0.000000 
-0.370772 -0.981662 0.000000 
-0.381315 -0.935434 0.000000 
-0.046960 -1.238909 0.000000 
-0.095301 -1.332955 0.000000 
-0.098873 -1.280307 0.000000 
-0.149405 -1.265110 0.000000 
-0.140093 -1.424659 0.000000 
-0.148617 -1.375960 0.000000 
-0.205981 -1.365723 0.000000 
-0.203197 -1.307520 0.000000 
-0.248777 -1.288373 0.000000 
-0.184111 -1.515622 0.000000 
-0.194039 -1.468531 0.000000 
-0.254475 -1.461232 0.000000 
-0.257893 -1.407122 0.000000 
-0.309886 -1.391750 0.000000 
-0.303554 -1.331204 0.000000 
-0.347255 -1.311046 0.000000 
-0.228129 -1.606586 0.000000 
-0.238687 -1.560362 0.000000 
-0.301302 -1.555410 0.000000 
-0.307162 -1.503371 0.000000 
-0.363386 -1.491250 0.000000 
-0.362692 -1.433738 0.000000 
-0.412122 -1.416445 0.000000 
-0.403017 -1.354299 0.000000 
-0.445733 -1.333720 0.000000 
-0.000000 -1.261524 0.000000 
0.043388 -1.357954 0.000000 
-0.000000 -1.327922 0.000000 
-0.043388 -1.357954 0.000000 
0.087158 -1.450151 0.000000 
0.043769 -1.426452 0.000000 
-0.000000 -1.464918 0.000000 
-0.043769 -1.426452 0.000000 
-0.087158 -1.450151 0.000000 
0.130831 -1.541281 0.000000 
0.087824 -1.519682 0.000000 
0.044436 -1.562382 0.000000 
-0.000000 -1.531317 0.000000 
-0.044436 -1.562382 0.000000 
-0.087824 -1.519682 0.000000 
-0.130831 -1.541281 0.000000 
0.174505 -1.632410 0.000000 
0.131782 -1.611844 0.000000 
0.088871 -1.657711 0.000000 
0.044532 -1.629847 0.000000 
-0.000000 -1.666247 0.000000 
-0.044532 -1.629847 0.000000 
-0.088871 -1.657711 0.000000 
-0.131782 -1.611844 0.000000 
-0.174505 -1.632410 0.000000 
0.046960 -1.238909 0.000000 
0.149405 -1.265110 0.000000 
0.098873 -1.280307 0.000000 
0.095301 -1.332955 0.000000 
0.248777 -1.288373 0.000000 
0.203197 -1.307520 0.000000 
0.205981 -1.365723 0.000000 
0.148617 -1.375960 0.000000 
0.140093 -1.424659 0.000000 
0.347255 -1.311046 0.000000 
0.303554 -1.331204 0.000000 
0.309886 -1.391750 0.000000 
0.257893 -1.407122 0.000000 
0.254475 -1.461232 0.000000 
0.194039 -1.468531 0.000000 
0.184111 -1.515622 0.000000 
0.445733 -1.333720 0.000000 
0.403017 -1.354299 0.000000 
0.412122 -1.416445 0.000000 
0.362692 -1.433738 0.000000 
0.363386 -1.491250 0.000000 
0.307162 -1.503371 0.000000 
0.301302 -1.555410 0.000000 
0.238687 -1.560362 0.000000 
0.228129 -1.606586 0.000000 
0.058559 -1.188094 0.000000 
0.142917 -1.124335 0.000000 
0.123292 -1.173319 0.000000 
0.162226 -1.208936 0.000000 
0.223062 -1.061147 0.000000 
0.209613 -1.108721 0.000000 
0.256854 -1.142834 0.000000 
0.229092 -1.194066 0.000000 
0.261851 -1.231093 0.000000 
0.302189 -0.998291 0.000000 
0.290702 -1.045026 0.000000 
0.341985 -1.077825 0.000000 
0.321587 -1.128059 0.000000 
0.361761 -1.164468 0.000000 
0.329787 -1.216270 0.000000 
0.360414 -1.253393 0.000000 
0.381315 -0.935434 0.000000 
0.370772 -0.981662 0.000000 
0.425037 -1.013291 0.000000 
0.407738 -1.062719 0.000000 
0.453135 -1.098034 0.000000 
0.427556 -1.149549 0.000000 
0.464588 -1.186576 0.000000 
0.429420 -1.238618 0.000000 
0.458977 -1.275693 0.000000 
0.026061 -1.147343 0.000000 
0.028809 -1.041636 0.000000 
0.054870 -1.087520 0.000000 
0.106992 -1.079287 0.000000 
0.029377 -0.939579 0.000000 
0.058186 -0.979756 0.000000 
0.114311 -0.964091 0.000000 
0.137056 -1.017738 0.000000 
0.186430 -1.015212 0.000000 
0.029568 -0.838525 0.000000 
0.058945 -0.876645 0.000000 
0.116563 -0.856999 0.000000 
0.143120 -0.904268 0.000000 
0.196633 -0.895559 0.000000 
0.217198 -0.952856 0.000000 
0.265318 -0.952056 0.000000 
0.029759 -0.737471 0.000000 
0.059328 -0.774537 0.000000 
0.117890 -0.751831 0.000000 
0.145749 -0.796174 0.000000 
0.201664 -0.782700 0.000000 
0.225992 -0.834817 0.000000 
0.278030 -0.828950 0.000000 
0.296791 -0.888893 0.000000 
0.344206 -0.888900 0.000000 
VECTORS X_EC float 
0.338794 -0.010872 0.000000 
-0.609100 -0.929620 0.000000 
0.713312 -0.818479 0.000000 
0.374519 0.562091 0.000000 
0.423588 0.205361 0.000000 
-0.218274 0.239464 0.000000 
-0.513962 -0.484775 0.000000 
0.756418 -0.273288 0.000000 
0.381900 -0.815681 0.000000 
-0.550868 -0.647242 0.000000 
0.823577 -0.636447 0.000000 
0.556234 0.590049 0.000000 
-0.139443 0.707618 0.000000 
-0.484677 0.069493 0.000000 
0.766286 0.334708 0.000000 
0.384386 -0.179912 0.000000 
0.474677 0.500154 0.000000 
-0.141715 0.500058 0.000000 
-0.385608 -0.309170 0.000000 
0.937896 -0.229975 0.000000 
0.621631 -0.933555 0.000000 
-0.105264 -0.751656 0.000000 
-0.467428 0.649718 0.000000 
0.771260 0.956247 0.000000 
0.386873 0.455857 0.000000 
0.761262 0.539263 0.000000 
0.108942 0.820640 0.000000 
-0.397202 0.339800 0.000000 
-0.142083 -0.321475 0.000000 
-0.595936 -0.880250 0.000000 
0.978194 0.619884 0.000000 
-0.660903 -0.071741 0.000000 
0.724964 -0.532261 0.000000 
0.899809 0.825491 0.000000 
0.685384 -0.579198 0.000000 
0.287229 0.919644 0.000000 
0.702895 0.220315 0.000000 
0.180633 -0.271203 0.000000 
0.445811 -0.949363 0.000000 
-0.220880 0.607851 0.000000 
-0.071546 -0.023074 0.000000 
-0.033296 -0.278146 0.000000 
-0.417537 -0.778655 0.000000 
0.039645 0.518782 0.000000 
-0.441768 0.018911 0.000000 
-0.109248 -0.676539 0.000000 
-0.699407 0.846705 0.000000 
-0.474522 0.179426 0.000000 
0.820030 -0.247568 0.000000 
0.957100 -0.871639 0.000000 
0.610485 -0.774731 0.000000 
-0.761092 0.494889 0.000000 
-0.714655 -0.215849 0.000000 
-0.057734 -0.421016 0.000000 
-0.178789 -0.267107 0.000000 
-0.067979 -0.924533 0.000000 
0.677748 0.937263 0.000000 
0.641556 0.151518 0.000000 
-0.765897 -0.106961 0.000000 
0.393446 0.960902 0.000000 
0.522510 0.325172 0.000000 
-0.691820 0.226628 0.000000 
-0.647393 -0.503855 0.000000 
0.028512 -0.711382 0.000000 
-0.053800 0.471258 0.000000 
0.514316 0.199127 0.000000 
0.965681 0.188911 0.000000 
-0.897068 -0.435118 0.000000 
-0.083078 -0.501971 0.000000 
-0.006893 0.795505 0.000000 
0.724017 0.631872 0.000000 
0.714996 -0.144532 0.000000 
-0.642413 -0.377989 0.000000 
-0.760780 0.783030 0.000000 
-0.205471 0.505215 0.000000 
0.000000 -0.469429 0.000000 
-0.564049 0.832384 0.000000 
0.000000 0.426948 0.000000 
0.564049 0.832384 0.000000 
0.866949 0.077039 0.000000 
-0.569003 -0.242892 0.000000 
0.000000 0.276396 0.000000 
0.569003 -0.242892 0.000000 
-0.866949 0.077039 0.000000 
0.299194 -0.692711 0.000000 
0.858290 -0.984295 0.000000 
-0.577662 -0.407849 0.000000 
0.000000 -0.827227 0.000000 
0.577662 -0.407849 0.000000 
-0.858290 -0.984295 0.000000 
-0.299194 -0.692711 0.000000 
-0.268560 0.537539 0.000000 
0.286830 0.259897 0.000000 
0.844677 0.879096 0.000000 
-0.578910 0.502933 0.000000 
0.000000 0.994337 0.000000 
0.578910 0.502933 0.000000 
-0.844677 0.879096 0.000000 
-0.286830 0.259897 0.000000 
0.268560 0.537539 0.000000 
-0.610485 -0.774731 0.000000 
0.057734 -0.421016 0.000000 
0.714655 -0.215849 0.000000 
0.761092 0.494889 0.000000 
0.765897 -0.106960 0.000000 
-0.641556 0.151518 0.000000 
-0.677748 0.937263 0.000000 
0.067979 -0.924533 0.000000 
0.178789 -0.267107 0.000000 
-0.514316 0.199127 0.000000 
0.053800 0.471258 0.000000 
-0.028512 -0.711382 0.000000 
0.647393 -0.503855 0.000000 
0.691820 0.226628 0.000000 
-0.522510 0.325172 0.000000 
-0.393446 0.960902 0.000000 
0.205471 0.505215 0.000000 
0.760780 0.783030 0.000000 
0.642413 -0.377989 0.000000 
-0.714996 -0.144532 0.000000 
-0.724017 0.631872 0.000000 
0.006894 0.795505 0.000000 
0.083078 -0.501971 0.000000 
0.897068 -0.435118 0.000000 
-0.965681 0.188911 0.000000 
-0.761262 0.539263 0.000000 
0.142083 -0.321475 0.000000 
0.397202 0.339800 0.000000 
-0.108942 0.820640 0.000000 
-0.899809 0.825491 0.000000 
-0.724964 -0.532261 0.000000 
0.660903 -0.071741 0.000000 
-0.978194 0.619884 0.000000 
0.595936 -0.880250 0.000000 
0.071546 -0.023074 0.000000 
0.220880 0.607851 0.000000 
-0.445811 -0.949363 0.000000 
-0.180633 -0.271203 0.000000 
-0.702895 0.220315 0.000000 
-0.287229 0.919644 0.000000 
-0.685384 -0.579198 0.000000 
-0.957100 -0.871639 0.000000 
-0.820030 -0.247568 0.000000 
0.474522 0.179426 0.000000 
0.699407 0.846705 0.000000 
0.109248 -0.676539 0.000000 
0.441768 0.018911 0.000000 
-0.039645 0.518782 0.000000 
0.417537 -0.778655 0.000000 
0.033296 -0.278145 0.000000 
-0.338794 -0.010872 0.000000 
-0.374519 0.562091 0.000000 
-0.713312 -0.818479 0.000000 
0.609100 -0.929620 0.000000 
-0.381900 -0.815681 0.000000 
-0.756418 -0.273288 0.000000 
0.513962 -0.484775 0.000000 
0.218274 0.239464 0.000000 
-0.423588 0.205361 0.000000 
-0.384386 -0.179912 0.000000 
-0.766286 0.334708 0.000000 
0.484677 0.069493 0.000000 
0.139443 0.707618 0.000000 
-0.556234 0.590049 0.000000 
-0.823577 -0.636447 0.000000 
0.550868 -0.647242 0.000000 
-0.386873 0.455857 0.000000 
-0.771260 0.956247 0.000000 
0.467428 0.649718 0.000000 
0.105264 -0.751656 0.000000 
-0.621631 -0.933555 0.000000 
-0.937896 -0.229975 0.000000 
0.385608 -0.309170 0.000000 
0.141715 0.500058 0.000000 
-0.474677 0.500154 0.000000 
CELL_DATA 175 
SCALARS MASS float 
LOOKUP_TABLE default 
0.078183 
0.086427 
0.094672 
0.086427 
0.088131 
0.092111 
0.085854 
0.092111 
0.088131 
0.088705 
0.091000 
0.086983 
0.091556 
0.086983 
0.091000 
0.088705 
0.089278 
0.091574 
0.089278 
0.092722 
0.089278 
0.092722 
0.089278 
0.091574 
0.089278 
0.078183 
0.086427 
0.094672 
0.086427 
0.088131 
0.092111 
0.085854 
0.092111 
0.088131 
0.088705 
0.091000 
0.086983 
0.091556 
0.086983 
0.091000 
0.088705 
0.089278 
0.091574 
0.089278 
0.092722 
0.089278 
0.092722 
0.089278 
0.091574 
0.089278 
0.078183 
0.086427 
0.094672 
0.086427 
0.088131 
0.092111 
0.085854 
0.092111 
0.088131 
0.088705 
0.091000 
0.086983 
0.091556 
0.086983 
0.091000 
0.088705 
0.089278 
0.091574 
0.089278 
0.092722 
0.089278 
0.092722 
0.089278 
0.091574 
0.089278 
0.078183 
0.086427 
0.094672 
0.086427 
0.088131 
0.092111 
0.085854 
0.092111 
0.088131 
0.088705 
0.091000 
0.086983 
0.091556 
0.086983 
0.091000 
0.088705 
0.089278 
0.091574 
0.089278 
0.092722 
0.089278 
0.092722 
0.089278 
0.091574 
0.089278 
0.078183 
0.086427 
0.094672 
0.086427 
0.088131 
0.092111 
0.085854 
0.092111 
0.088131 
0.088705 
0.091000 
0.086983 
0.091556 
0.086983 
0.091000 
0.088705 
0.089278 
0.091574 
0.089278 
0.092722 
0.089278 
0.092722 
0.089278 
0.091574 
0.089278 
0.078183 
0.086427 
0.094672 
0.086427 
0.088131 
0.092111 
0.085854 
0.092111 
0.088131 
0.088705 
0.091000 
0.086983 
0.091556 
0.086983 
0.091000 
0.088705 
0.089278 
0.091574 
0.089278 
0.092722 
0.089278 
0.092722 
0.089278 
0.091574 
0.089278 
0.078183 
0.086427 
0.094672 
0.086427 
0.088131 
0.092111 
0.085854 
0.092111 
0.088131 
0.088705 
0.091000 
0.086983 
0.091556 
0.086983 
0.091000 
0.088705 
0.089278 
0.091574 
0.089278 
0.092722 
0.089278 
0.092722 
0.089278 
0.091574 
0.089278 
SCALARS MASS float 
LOOKUP_TABLE default 
0.078183 
0.086427 
0.094672 
0.086427 
0.088131 
0.092111 
0.085854 
0.092111 
0.088131 
0.088705 
0.091000 
0.086983 
0.091556 
0.086983 
0.091000 
0.088705 
0.089278 
0.091574 
0.089278 
0.092722 
0.089278 
0.092722 
0.089278 
0.091574 
0.089278 
0.078183 
0.086427 
0.094672 
0.086427 
0.088131 
0.092111 
0.085854 
0.092111 
0.088131 
0.088705 
0.091000 
0.086983 
0.091556 
0.086983 
0.091000 
0.088705 
0.089278 
0.091574 
0.089278 
0.092722 
0.089278 
0.092722 
0.089278 
0.091574 
0.089278 
0.078183 
0.086427 
0.094672 
0.086427 
0.088131 
0.092111 
0.085854 
0.092111 
0.088131 
0.088705 
0.091000 
0.086983 
0.091556 
0.086983 
0.091000 
0.088705 
0.089278 
0.091574 
0.089278 
0.092722 
0.089278 
0.092722 
0.089278 
0.091574 
0.089278 
0.078183 
0.086427 
0.094672 
0.086427 
0.088131 
0.092111 
0.085854 
0.092111 
0.088131 
0.088705 
0.091000 
0.086983 
0.091556 
0.086983 
0.091000 
0.088705 
0.089278 
0.091574 
0.089278 
0.092722 
0.089278 
0.092722 
0.089278 
0.091574 
0.089278 
0.078183 
0.086427 
0.094672 
0.086427 
0.088131 
0.092111 
0.085854 
0.092111 
0.088131 
0.088705 
0.091000 
0.086983 
0.091556 
0.086983 
0.091000 
0.088705 
0.089278 
0.091574 
0.089278 
0.092722 
0.089278 
0.092722 
0.089278 
0.091574 
0.089278 
0.078183 
0.086427 
0.094672 
0.086427 
0.088131 
0.092111 
0.085854 
0.092111 
0.088131 
0.088705 
0.091000 
0.086983 
0.091556 
0.086983 
0.091000 
0.088705 
0.089278 
0.091574 
0.089278 
0.092722 
0.089278 
0.092722 
0.089278 
0.091574 
0.089278 
0.078183 
0.086427 
0.094672 
0.086427 
0.088131 
0.092111 
0.085854 
0.092111 
0.088131 
0.088705 
0.091000 
0.086983 
0.091556 
0.086983 
0.091000 
0.088705 
0.089278 
0.091574 
0.089278 
0.092722 
0.089278 
0.092722 
0.089278 
0.091574 
0.089278 
SCALARS DENSITY float 
LOOKUP_TABLE default 
20.000000 
20.000000 
20.000000 
20.000000 
20.000000 
20.000000 
20.000000 
20.000000 
20.000000 
20.000000 
20.000000 
20.000000 
20.000000 
20.000000 
20.000000 
20.000000 
20.000000 
20.000000 
20.000000 
20.000000 
20.000000 
20.000000 
20.000000 
20.000000 
20.000000 
20.000000 
20.000000 
20.000000 
20.000000 
20.000000 
20.000000 
20.000000 
20.000000 
20.000000 
20.000000 
20.000000 
20.000000 
20.000000 
20.000000 
20.000000 
20.000000 
20.000000 
20.000000 
20.000000 
20.000000 
20.000000 
20.000000 
20.000000 
20.000000 
20.000000 
20.000000 
20.000000 
20.000000 
20.000000 
20.000000 
20.000000 
20.000000 
20.000000 
20.000000 
20.000000 
20.000000 
20.000000 
20.000000 
20.000000 
20.000000 
20.000000 
20.000000 
20.000000 
20.000000 
20.000000 
20.000000 
20.000000 
20.000000 
20.000000 
20.000000 
20.000000 
20.000000 
20.000000 
20.000000 
20.000000 
20.000000 
20.000000 
20.000000 
20.000000 
20.000000 
20.000000 
20.000000 
20.000000 
20.000000 
20.000000 
20.000000 
20.000000 
20.000000 
20.000000 
20.000000 
20.000000 
20.000000 
20.000000 
20.000000 
20.000000 
20.000000 
20.000000 
20.000000 
20.000000 
20.000000 
20.000000 
20.000000 
20.000000 
20.000000 
20.000000 
20.000000 
20.000000 
20.000000 
20.000000 
20.000000 
20.000000 
20.000000 
20.000000 
20.000000 
20.000000 
20.000000 
20.000000 
20.000000 
20.000000 
20.000000 
20.000000 
20.000000 
20.000000 
20.000000 
20.000000 
20.000000 
20.000000 
20.000000 
20.000000 
20.000000 
20.000000 
20.000000 
20.000000 
20.000000 
20.000000 
20.000000 
20.000000 
20.000000 
20.000000 
20.000000 
20.000000 
20.000000 
20.000000 
20.000000 
20.000000 
20.000000 
20.000000 
20.000000 
20.000000 
20.000000 
20.000000 
20.000000 
20.000000 
20.000000 
20.000000 
20.000000 
20.000000 
20.000000 
20.000000 
20.000000 
20.000000 
20.000000 
20.000000 
20.000000 
20.000000 
20.000000 
20.000000 
20.000000 
20.000000 
20.000000 
SCALARS ELEM_i float 
LOOKUP_TABLE default 
174 
201 
174 
175 
202 
202 
202 
175 
175 
229 
202 
203 
203 
203 
176 
176 
230 
230 
230 
203 
203 
203 
204 
177 
177 
174 
201 
201 
201 
227 
201 
228 
201 
202 
227 
228 
228 
228 
228 
229 
229 
254 
254 
255 
255 
255 
256 
256 
229 
229 
173 
200 
200 
200 
199 
199 
200 
200 
227 
199 
199 
226 
226 
226 
227 
227 
198 
225 
225 
226 
226 
226 
253 
254 
254 
173 
173 
173 
173 
145 
172 
172 
172 
199 
144 
144 
171 
171 
171 
198 
198 
144 
144 
144 
171 
171 
171 
198 
198 
198 
173 
146 
146 
146 
119 
146 
146 
145 
145 
119 
119 
118 
118 
118 
145 
145 
92 
92 
91 
118 
118 
118 
117 
117 
144 
174 
147 
147 
147 
148 
147 
120 
147 
119 
121 
121 
120 
120 
120 
120 
119 
121 
121 
94 
94 
93 
93 
93 
92 
92 
174 
175 
174 
147 
175 
175 
148 
148 
148 
176 
176 
149 
149 
149 
148 
121 
177 
177 
150 
149 
149 
149 
122 
122 
122 
VECTORS VELOCITY float 
0.000000 -4.854773 0.000000 
0.000000 -4.854773 0.000000 
0.000000 -4.854773 0.000000 
-0.000000 -4.854773 0.000000 
0.000000 -4.854773 0.000000 
-0.000000 -4.854773 0.000000 
-0.000000 -4.854773 0.000000 
-0.000000 -4.854773 0.000000 
-0.000000 -4.854773 0.000000 
0.000000 -4.854773 0.000000 
0.000000 -4.854773 0.000000 
0.000000 -4.854773 0.000000 
-0.000000 -4.854773 0.000000 
0.000000 -4.854773 0.000000 
-0.000000 -4.854773 0.000000 
0.000000 -4.854773 0.000000 
0.000000 -4.854773 0.000000 
0.000000 -4.854773 0.000000 
-0.000000 -4.854773 0.000000 
0.000000 -4.854773 0.000000 
-0.000000 -4.854773 0.000000 
0.000000 -4.854773 0.000000 
0.000000 -4.854773 0.000000 
0.000000 -4.854773 0.000000 
0.000000 -4.854773 0.000000 
0.000000 -4.854773 0.000000 
-0.000000 -4.854773 0.000000 
0.000000 -4.854773 0.000000 
0.000000 -4.854773 0.000000 
-0.000000 -4.854773 0.000000 
-0.000000 -4.854773 0.000000 
-0.000000 -4.854773 0.000000 
-0.000000 -4.854773 0.000000 
-0.000000 -4.854773 0.000000 
-0.000000 -4.854773 0.000000 
-0.000000 -4.854773 0.000000 
-0.000000 -4.854773 0.000000 
-0.000000 -4.854773 0.000000 
0.000000 -4.854773 0.000000 
0.000000 -4.854773 0.000000 
0.000000 -4.854773 0.000000 
0.000000 -4.854773 0.000000 
-0.000000 -4.854773 0.000000 
-0.000000 -4.854773 0.000000 
-0.000000 -4.854773 0.000000 
-0.000000 -4.854773 0.000000 
-0.000000 -4.854773 0.000000 
0.000000 -4.854773 0.000000 
-0.000000 -4.854773 0.000000 
-0.000000 -4.854773 0.000000 
-0.000000 -4.854773 0.000000 
-0.000000 -4.854773 0.000000 
-0.000000 -4.854773 0.000000 
-0.000000 -4.854773 0.000000 
-0.000000 -4.854773 0.000000 
-0.000000 -4.854773 0.000000 
-0.000000 -4.854773 0.000000 
-0.000000 -4.854773 0.000000 
-0.000000 -4.854773 0.000000 
0.000000 -4.854773 0.000000 
0.000000 -4.854773 0.000000 
0.000000 -4.854773 0.000000 
-0.000000 -4.854773 0.000000 
-0.000000 -4.854773 0.000000 
-0.000000 -4.854773 0.000000 
-0.000000 -4.854773 0.000000 
-0.000000 -4.854773 0.000000 
0.000000 -4.854773 0.000000 
0.000000 -4.854773 0.000000 
-0.000000 -4.854773 0.000000 
-0.000000 -4.854773 0.000000 
0.000000 -4.854773 0.000000 
-0.000000 -4.854773 0.000000 
-0.000000 -4.854773 0.000000 
-0.000000 -4.854773 0.000000 
-0.000000 -4.854773 0.000000 
0.000000 -4.854773 0.000000 
-0.000000 -4.854773 0.000000 
0.000000 -4.854773 0.000000 
0.000000 -4.854773 0.000000 
0.000000 -4.854773 0.000000 
0.000000 -4.854773 0.000000 
0.000000 -4.854773 0.000000 
0.000000 -4.854773 0.000000 
-0.000000 -4.854773 0.000000 
-0.000000 -4.854773 0.000000 
-0.000000 -4.854773 0.000000 
-0.000000 -4.854773 0.000000 
0.000000 -4.854773 0.000000 
0.000000 -4.854773 0.000000 
0.000000 -4.854773 0.000000 
0.000000 -4.854773 0.000000 
-0.000000 -4.854773 0.000000 
-0.000000 -4.854773 0.000000 
-0.000000 -4.854773 0.000000 
-0.000000 -4.854773 0.000000 
-0.000000 -4.854773 0.000000 
-0.000000 -4.854773 0.000000 
-0.000000 -4.854773 0.000000 
-0.000000 -4.854773 0.000000 
-0.000000 -4.854773 0.000000 
-0.000000 -4.854773 0.000000 
-0.000000 -4.854773 0.000000 
0.000000 -4.854773 0.000000 
-0.000000 -4.854773 0.000000 
-0.000000 -4.854773 0.000000 
0.000000 -4.854773 0.000000 
0.000000 -4.854773 0.000000 
0.000000 -4.854773 0.000000 
0.000000 -4.854773 0.000000 
0.000000 -4.854773 0.000000 
0.000000 -4.854773 0.000000 
-0.000000 -4.854773 0.000000 
-0.000000 -4.854773 0.000000 
-0.000000 -4.854773 0.000000 
-0.000000 -4.854773 0.000000 
-0.000000 -4.854773 0.000000 
-0.000000 -4.854773 0.000000 
-0.000000 -4.854773 0.000000 
0.000000 -4.854773 0.000000 
0.000000 -4.854773 0.000000 
0.000000 -4.854773 0.000000 
0.000000 -4.854773 0.000000 
0.000000 -4.854773 0.000000 
-0.000000 -4.854773 0.000000 
0.000000 -4.854773 0.000000 
0.000000 -4.854773 0.000000 
0.000000 -4.854773 0.000000 
-0.000000 -4.854773 0.000000 
0.000000 -4.854773 0.000000 
0.000000 -4.854773 0.000000 
-0.000000 -4.854773 0.000000 
-0.000000 -4.854773 0.000000 
-0.000000 -4.854773 0.000000 
0.000000 -4.854773 0.000000 
0.000000 -4.854773 0.000000 
0.000000 -4.854773 0.000000 
0.000000 -4.854773 0.000000 
-0.000000 -4.854773 0.000000 
-0.000000 -4.854773 0.000000 
-0.000000 -4.854773 0.000000 
-0.000000 -4.854773 0.000000 
-0.000000 -4.854773 0.000000 
-0.000000 -4.854773 0.000000 
0.000000 -4.854773 0.000000 
0.000000 -4.854773 0.000000 
0.000000 -4.854773 0.000000 
0.000000 -4.854773 0.000000 
-0.000000 -4.854773 0.000000 
-0.000000 -4.854773 0.000000 
0.000000 -4.854773 0.000000 
0.000000 -4.854773 0.000000 
0.000000 -4.854773 0.000000 
0.000000 -4.854773 0.000000 
-0.000000 -4.854773 0.000000 
-0.000000 -4.854773 0.000000 
0.000000 -4.854773 0.000000 
0.000000 -4.854773 0.000000 
0.000000 -4.854773 0.000000 
-0.000000 -4.854773 0.000000 
-0.000000 -4.854773 0.000000 
-0.000000 -4.854773 0.000000 
0.000000 -4.854773 0.000000 
0.000000 -4.854773 0.000000 
0.000000 -4.854773 0.000000 
0.000000 -4.854773 0.000000 
0.000000 -4.854773 0.000000 
-0.000000 -4.854773 0.000000 
0.000000 -4.854773 0.000000 
-0.000000 -4.854773 0.000000 
0.000000 -4.854773 0.000000 
-0.000000 -4.854773 0.000000 
-0.000000 -4.854773 0.000000 
0.000000 -4.854773 0.000000 
0.000000 -4.854773 0.000000 
TENSORS STRESS float 
-0.000000 -0.000000 0.000000 
0.000000 -0.000000 0.000000 
0.000000 0.000000 0.000000 

0.000000 -0.000000 0.000000 
0.000000 0.000000 0.000000 
0.000000 0.000000 0.000000 

-0.000000 -0.000000 0.000000 
0.000000 -0.000000 0.000000 
0.000000 0.000000 0.000000 

0.000000 -0.000000 0.000000 
0.000000 0.000000 0.000000 
0.000000 0.000000 0.000000 

-0.000000 -0.000000 0.000000 
0.000000 -0.000000 0.000000 
0.000000 0.000000 0.000000 

0.000000 -0.000000 0.000000 
0.000000 0.000000 0.000000 
0.000000 0.000000 0.000000 

0.000000 0.000000 0.000000 
0.000000 0.000000 0.000000 
0.000000 0.000000 0.000000 

0.000000 0.000000 0.000000 
0.000000 0.000000 0.000000 
0.000000 0.000000 0.000000 

-0.000000 0.000000 0.000000 
0.000000 -0.000000 0.000000 
0.000000 0.000000 0.000000 

-0.000000 0.000000 0.000000 
0.000000 -0.000000 0.000000 
0.000000 0.000000 0.000000 

-0.000000 0.000000 0.000000 
0.000000 -0.000000 0.000000 
0.000000 0.000000 0.000000 

0.000000 0.000000 0.000000 
0.000000 0.000000 0.000000 
0.000000 0.000000 0.000000 

0.000000 0.000000 0.000000 
0.000000 0.000000 0.000000 
0.000000 0.000000 0.000000 

-0.000000 -0.000000 0.000000 
0.000000 -0.000000 0.000000 
0.000000 0.000000 0.000000 

-0.000000 -0.000000 0.000000 
0.000000 -0.000000 0.000000 
0.000000 0.000000 0.000000 

0.000000 -0.000000 0.000000 
0.000000 -0.000000 0.000000 
0.000000 0.000000 0.000000 

0.000000 0.000000 0.000000 
0.000000 -0.000000 0.000000 
0.000000 0.000000 0.000000 

0.000000 0.000000 0.000000 
0.000000 -0.000000 0.000000 
0.000000 0.000000 0.000000 

-0.000000 -0.000000 0.000000 
0.000000 0.000000 0.000000 
0.000000 0.000000 0.000000 

-0.000000 0.000000 0.000000 
0.000000 -0.000000 0.000000 
0.000000 0.000000 0.000000 

0.000000 -0.000000 0.000000 
0.000000 0.000000 0.000000 
0.000000 0.000000 0.000000 

-0.000000 -0.000000 0.000000 
0.000000 0.000000 0.000000 
0.000000 0.000000 0.000000 

0.000000 -0.000000 0.000000 
0.000000 0.000000 0.000000 
0.000000 0.000000 0.000000 

0.000000 -0.000000 0.000000 
0.000000 0.000000 0.000000 
0.000000 0.000000 0.000000 

-0.000000 0.000000 0.000000 
0.000000 -0.000000 0.000000 
0.000000 0.000000 0.000000 

-0.000000 0.000000 0.000000 
0.000000 0.000000 0.000000 
0.000000 0.000000 0.000000 

-0.000000 -0.000000 0.000000 
0.000000 0.000000 0.000000 
0.000000 0.000000 0.000000 

0.000000 -0.000000 0.000000 
0.000000 0.000000 0.000000 
0.000000 0.000000 0.000000 

-0.000000 0.000000 0.000000 
0.000000 -0.000000 0.000000 
0.000000 0.000000 0.000000 

-0.000000 -0.000000 0.000000 
0.000000 -0.000000 0.000000 
0.000000 0.000000 0.000000 

-0.000000 -0.000000 0.000000 
0.000000 0.000000 0.000000 
0.000000 0.000000 0.000000 

-0.000000 -0.000000 0.000000 
0.000000 -0.000000 0.000000 
0.000000 0.000000 0.000000 

0.000000 -0.000000 0.000000 
0.000000 0.000000 0.000000 
0.000000 0.000000 0.000000 

-0.000000 -0.000000 0.000000 
0.000000 -0.000000 0.000000 
0.000000 0.000000 0.000000 

0.000000 -0.000000 0.000000 
0.000000 0.000000 0.000000 
0.000000 0.000000 0.000000 

0.000000 -0.000000 0.000000 
0.000000 0.000000 0.000000 
0.000000 0.000000 0.000000 

-0.000000 -0.000000 0.000000 
0.000000 0.000000 0.000000 
0.000000 0.000000 0.000000 

0.000000 0.000000 0.000000 
0.000000 0.000000 0.000000 
0.000000 0.000000 0.000000 

0.000000 -0.000000 0.000000 
0.000000 0.000000 0.000000 
0.000000 0.000000 0.000000 

0.000000 0.000000 0.000000 
0.000000 -0.000000 0.000000 
0.000000 0.000000 0.000000 

0.000000 -0.000000 0.000000 
0.000000 0.000000 0.000000 
0.000000 0.000000 0.000000 

-0.000000 0.000000 0.000000 
0.000000 -0.000000 0.000000 
0.000000 0.000000 0.000000 

-0.000000 -0.000000 0.000000 
0.000000 0.000000 0.000000 
0.000000 0.000000 0.000000 

-0.000000 -0.000000 0.000000 
0.000000 -0.000000 0.000000 
0.000000 0.000000 0.000000 

-0.000000 -0.000000 0.000000 
0.000000 0.000000 0.000000 
0.000000 0.000000 0.000000 

-0.000000 -0.000000 0.000000 
0.000000 -0.000000 0.000000 
0.000000 0.000000 0.000000 

-0.000000 0.000000 0.000000 
0.000000 0.000000 0.000000 
0.000000 0.000000 0.000000 

0.000000 -0.000000 0.000000 
0.000000 0.000000 0.000000 
0.000000 0.000000 0.000000 

-0.000000 -0.000000 0.000000 
0.000000 0.000000 0.000000 
0.000000 0.000000 0.000000 

-0.000000 -0.000000 0.000000 
0.000000 -0.000000 0.000000 
0.000000 0.000000 0.000000 

-0.000000 -0.000000 0.000000 
0.000000 0.000000 0.000000 
0.000000 0.000000 0.000000 

-0.000000 -0.000000 0.000000 
0.000000 -0.000000 0.000000 
0.000000 0.000000 0.000000 

-0.000000 -0.000000 0.000000 
0.000000 0.000000 0.000000 
0.000000 0.000000 0.000000 

0.000000 -0.000000 0.000000 
0.000000 0.000000 0.000000 
0.000000 0.000000 0.000000 

-0.000000 0.000000 0.000000 
0.000000 -0.000000 0.000000 
0.000000 0.000000 0.000000 

-0.000000 0.000000 0.000000 
0.000000 -0.000000 0.000000 
0.000000 0.000000 0.000000 

0.000000 -0.000000 0.000000 
0.000000 0.000000 0.000000 
0.000000 0.000000 0.000000 

-0.000000 0.000000 0.000000 
0.000000 -0.000000 0.000000 
0.000000 0.000000 0.000000 

0.000000 -0.000000 0.000000 
0.000000 0.000000 0.000000 
0.000000 0.000000 0.000000 

-0.000000 0.000000 0.000000 
0.000000 -0.000000 0.000000 
0.000000 0.000000 0.000000 

-0.000000 0.000000 0.000000 
0.000000 -0.000000 0.000000 
0.000000 0.000000 0.000000 

0.000000 0.000000 0.000000 
0.000000 -0.000000 0.000000 
0.000000 0.000000 0.000000 

0.000000 0.000000 0.000000 
0.000000 0.000000 0.000000 
0.000000 0.000000 0.000000 

0.000000 -0.000000 0.000000 
0.000000 0.000000 0.000000 
0.000000 0.000000 0.000000 

0.000000 -0.000000 0.000000 
0.000000 -0.000000 0.000000 
0.000000 0.000000 0.000000 

-0.000000 -0.000000 0.000000 
0.000000 -0.000000 0.000000 
0.000000 0.000000 0.000000 

-0.000000 -0.000000 0.000000 
0.000000 0.000000 0.000000 
0.000000 0.000000 0.000000 

-0.000000 0.000000 0.000000 
0.000000 0.000000 0.000000 
0.000000 0.000000 0.000000 

-0.000000 -0.000000 0.000000 
0.000000 0.000000 0.000000 
0.000000 0.000000 0.000000 

0.000000 -0.000000 0.000000 
0.000000 0.000000 0.000000 
0.000000 0.000000 0.000000 

0.000000 -0.000000 0.000000 
0.000000 -0.000000 0.000000 
0.000000 0.000000 0.000000 

-0.000000 -0.000000 0.000000 
0.000000 -0.000000 0.000000 
0.000000 0.000000 0.000000 

0.000000 0.000000 0.000000 
0.000000 0.000000 0.000000 
0.000000 0.000000 0.000000 

-0.000000 0.000000 0.000000 
0.000000 -0.000000 0.000000 
0.000000 0.000000 0.000000 

0.000000 0.000000 0.000000 
0.000000 0.000000 0.000000 
0.000000 0.000000 0.000000 

-0.000000 -0.000000 0.000000 
0.000000 -0.000000 0.000000 
0.000000 0.000000 0.000000 

-0.000000 0.000000 0.000000 
0.000000 -0.000000 0.000000 
0.000000 0.000000 0.000000 

-0.000000 -0.000000 0.000000 
0.000000 -0.000000 0.000000 
0.000000 0.000000 0.000000 

-0.000000 -0.000000 0.000000 
0.000000 0.000000 0.000000 
0.000000 0.000000 0.000000 

-0.000000 0.000000 0.000000 
0.000000 -0.000000 0.000000 
0.000000 0.000000 0.000000 

-0.000000 -0.000000 0.000000 
0.000000 0.000000 0.000000 
0.000000 0.000000 0.000000 

-0.000000 0.000000 0.000000 
0.000000 -0.000000 0.000000 
0.000000 0.000000 0.000000 

-0.000000 0.000000 0.000000 
0.000000 -0.000000 0.000000 
0.000000 0.000000 0.000000 

-0.000000 0.000000 0.000000 
0.000000 0.000000 0.000000 
0.000000 0.000000 0.000000 

0.000000 0.000000 0.000000 
0.000000 0.000000 0.000000 
0.000000 0.000000 0.000000 

0.000000 0.000000 0.000000 
0.000000 0.000000 0.000000 
0.000000 0.000000 0.000000 

-0.000000 -0.000000 0.000000 
0.000000 0.000000 0.000000 
0.000000 0.000000 0.000000 

-0.000000 -0.000000 0.000000 
0.000000 -0.000000 0.000000 
0.000000 0.000000 0.000000 

-0.000000 -0.000000 0.000000 
0.000000 0.000000 0.000000 
0.000000 0.000000 0.000000 

-0.000000 0.000000 0.000000 
0.000000 -0.000000 0.000000 
0.000000 0.000000 0.000000 

-0.000000 -0.000000 0.000000 
0.000000 0.000000 0.000000 
0.000000 0.000000 0.000000 

-0.000000 0.000000 0.000000 
0.000000 -0.000000 0.000000 
0.000000 0.000000 0.000000 

0.000000 0.000000 0.000000 
0.000000 0.000000 0.000000 
0.000000 0.000000 0.000000 

-0.000000 0.000000 0.000000 
0.000000 -0.000000 0.000000 
0.000000 0.000000 0.000000 

-0.000000 -0.000000 0.000000 
0.000000 -0.000000 0.000000 
0.000000 0.000000 0.000000 

-0.000000 -0.000000 0.000000 
0.000000 0.000000 0.000000 
0.000000 0.000000 0.000000 

-0.000000 -0.000000 0.000000 
0.000000 -0.000000 0.000000 
0.000000 0.000000 0.000000 

-0.000000 0.000000 0.000000 
0.000000 0.000000 0.000000 
0.000000 0.000000 0.000000 

-0.000000 -0.000000 0.000000 
0.000000 -0.000000 0.000000 
0.000000 0.000000 0.000000 

0.000000 -0.000000 0.000000 
0.000000 0.000000 0.000000 
0.000000 0.000000 0.000000 

-0.000000 -0.000000 0.000000 
0.000000 0.000000 0.000000 
0.000000 0.000000 0.000000 

0.000000 0.000000 0.000000 
0.000000 0.000000 0.000000 
0.000000 0.000000 0.000000 

0.000000 0.000000 0.000000 
0.000000 0.000000 0.000000 
0.000000 0.000000 0.000000 

0.000000 0.000000 0.000000 
0.000000 0.000000 0.000000 
0.000000 0.000000 0.000000 

0.000000 0.000000 0.000000 
0.000000 -0.000000 0.000000 
0.000000 0.000000 0.000000 

-0.000000 -0.000000 0.000000 
0.000000 0.000000 0.000000 
0.000000 0.000000 0.000000 

-0.000000 0.000000 0.000000 
0.000000 0.000000 0.000000 
0.000000 0.000000 0.000000 

-0.000000 -0.000000 0.000000 
0.000000 -0.000000 0.000000 
0.000000 0.000000 0.000000 

0.000000 -0.000000 0.000000 
0.000000 0.000000 0.000000 
0.000000 0.000000 0.000000 

-0.000000 0.000000 0.000000 
0.000000 -0.000000 0.000000 
0.000000 0.000000 0.000000 

0.000000 0.000000 0.000000 
0.000000 0.000000 0.000000 
0.000000 0.000000 0.000000 

-0.000000 0.000000 0.000000 
0.000000 -0.000000 0.000000 
0.000000 0.000000 0.000000 

-0.000000 0.000000 0.000000 
0.000000 -0.000000 0.000000 
0.000000 0.000000 0.000000 

0.000000 -0.000000 0.000000 
0.000000 -0.000000 0.000000 
0.000000 0.000000 0.000000 

0.000000 0.000000 0.000000 
0.000000 0.000000 0.000000 
0.000000 0.000000 0.000000 

0.000000 0.000000 0.000000 
0.000000 0.000000 0.000000 
0.000000 0.000000 0.000000 

0.000000 -0.000000 0.000000 
0.000000 0.000000 0.000000 
0.000000 0.000000 0.000000 

-0.000000 -0.000000 0.000000 
0.000000 -0.000000 0.000000 
0.000000 0.000000 0.000000 

-0.000000 0.000000 0.000000 
0.000000 0.000000 0.000000 
0.000000 0.000000 0.000000 

-0.000000 -0.000000 0.000000 
0.000000 -0.000000 0.000000 
0.000000 0.000000 0.000000 

-0.000000 0.000000 0.000000 
0.000000 -0.000000 0.000000 
0.000000 0.000000 0.000000 

0.000000 0.000000 0.000000 
0.000000 0.000000 0.000000 
0.000000 0.000000 0.000000 

-0.000000 0.000000 0.000000 
0.000000 -0.000000 0.000000 
0.000000 0.000000 0.000000 

-0.000000 -0.000000 0.000000 
0.000000 0.000000 0.000000 
0.000000 0.000000 0.000000 

0.000000 -0.000000 0.000000 
0.000000 0.000000 0.000000 
0.000000 0.000000 0.000000 

-0.000000 -0.000000 0.000000 
0.000000 -0.000000 0.000000 
0.000000 0.000000 0.000000 

-0.000000 0.000000 0.000000 
0.000000 -0.000000 0.000000 
0.000000 0.000000 0.000000 

0.000000 0.000000 0.000000 
0.000000 0.000000 0.000000 
0.000000 0.000000 0.000000 

-0.000000 -0.000000 0.000000 
0.000000 -0.000000 0.000000 
0.000000 0.000000 0.000000 

-0.000000 0.000000 0.000000 
0.000000 -0.000000 0.000000 
0.000000 0.000000 0.000000 

0.000000 0.000000 0.000000 
0.000000 0.000000 0.000000 
0.000000 0.000000 0.000000 

-0.000000 -0.000000 0.000000 
0.000000 -0.000000 0.000000 
0.000000 0.000000 0.000000 

0.000000 -0.000000 0.000000 
0.000000 0.000000 0.000000 
0.000000 0.000000 0.000000 

-0.000000 0.000000 0.000000 
0.000000 -0.000000 0.000000 
0.000000 0.000000 0.000000 

0.000000 0.000000 0.000000 
0.000000 0.000000 0.000000 
0.000000 0.000000 0.000000 

0.000000 -0.000000 0.000000 
0.000000 -0.000000 0.000000 
0.000000 0.000000 0.000000 

0.000000 0.000000 0.000000 
0.000000 -0.000000 0.000000 
0.000000 0.000000 0.000000 

0.000000 0.000000 0.000000 
0.000000 0.000000 0.000000 
0.000000 0.000000 0.000000 

0.000000 0.000000 0.000000 
0.000000 0.000000 0.000000 
0.000000 0.000000 0.000000 

-0.000000 -0.000000 0.000000 
0.000000 -0.000000 0.000000 
0.000000 0.000000 0.000000 

-0.000000 0.000000 0.000000 
0.000000 -0.000000 0.000000 
0.000000 0.000000 0.000000 

-0.000000 0.000000 0.000000 
0.000000 -0.000000 0.000000 
0.000000 0.000000 0.000000 

0.000000 0.000000 0.000000 
0.000000 -0.000000 0.000000 
0.000000 0.000000 0.000000 

0.000000 0.000000 0.000000 
0.000000 -0.000000 0.000000 
0.000000 0.000000 0.000000 

0.000000 -0.000000 0.000000 
0.000000 -0.000000 0.000000 
0.000000 0.000000 0.000000 

0.000000 -0.000000 0.000000 
0.000000 0.000000 0.000000 
0.000000 0.000000 0.000000 

0.000000 0.000000 0.000000 
0.000000 0.000000 0.000000 
0.000000 0.000000 0.000000 

0.000000 0.000000 0.000000 
0.000000 0.000000 0.000000 
0.000000 0.000000 0.000000 

-0.000000 0.000000 0.000000 
0.000000 -0.000000 0.000000 
0.000000 0.000000 0.000000 

-0.000000 -0.000000 0.000000 
0.000000 -0.000000 0.000000 
0.000000 0.000000 0.000000 

-0.000000 0.000000 0.000000 
0.000000 -0.000000 0.000000 
0.000000 0.000000 0.000000 

0.000000 -0.000000 0.000000 
0.000000 0.000000 0.000000 
0.000000 0.000000 0.000000 

0.000000 0.000000 0.000000 
0.000000 0.000000 0.000000 
0.000000 0.000000 0.000000 

-0.000000 0.000000 0.000000 
0.000000 -0.000000 0.000000 
0.000000 0.000000 0.000000 

-0.000000 -0.000000 0.000000 
0.000000 -0.000000 0.000000 
0.000000 0.000000 0.000000 

0.000000 -0.000000 0.000000 
0.000000 0.000000 0.000000 
0.000000 0.000000 0.000000 

0.000000 -0.000000 0.000000 
0.000000 0.000000 0.000000 
0.000000 0.000000 0.000000 

-0.000000 -0.000000 0.000000 
0.000000 0.000000 0.000000 
0.000000 0.000000 0.000000 

-0.000000 0.000000 0.000000 
0.000000 0.000000 0.000000 
0.000000 0.000000 0.000000 

0.000000 0.000000 0.000000 
0.000000 0.000000 0.000000 
0.000000 0.000000 0.000000 

-0.000000 0.000000 0.000000 
0.000000 -0.000000 0.000000 
0.000000 0.000000 0.000000 

0.000000 0.000000 0.000000 
0.000000 -0.000000 0.000000 
0.000000 0.000000 0.000000 

0.000000 0.000000 0.000000 
0.000000 0.000000 0.000000 
0.000000 0.000000 0.000000 

0.000000 0.000000 0.000000 
0.000000 0.000000 0.000000 
0.000000 0.000000 0.000000 

0.000000 -0.000000 0.000000 
0.000000 0.000000 0.000000 
0.000000 0.000000 0.000000 

0.000000 -0.000000 0.000000 
0.000000 -0.000000 0.000000 
0.000000 0.000000 0.000000 

0.000000 0.000000 0.000000 
0.000000 0.000000 0.000000 
0.000000 0.000000 0.000000 

0.000000 -0.000000 0.000000 
0.000000 0.000000 0.000000 
0.000000 0.000000 0.000000 

0.000000 0.000000 0.000000 
0.000000 0.000000 0.000000 
0.000000 0.000000 0.000000 

0.000000 -0.000000 0.000000 
0.000000 -0.000000 0.000000 
0.000000 0.000000 0.000000 

0.000000 0.000000 0.000000 
0.000000 0.000000 0.000000 
0.000000 0.000000 0.000000 

0.000000 0.000000 0.000000 
0.000000 -0.000000 0.000000 
0.000000 0.000000 0.000000 

-0.000000 -0.000000 0.000000 
0.000000 -0.000000 0.000000 
0.000000 0.000000 0.000000 

-0.000000 0.000000 0.000000 
0.000000 -0.000000 0.000000 
0.000000 0.000000 0.000000 

-0.000000 -0.000000 0.000000 
0.000000 -0.000000 0.000000 
0.000000 0.000000 0.000000 

TENSORS STRAIN float 
-0.000000 -0.000000 0.000000 
0.000000 -0.000000 0.000000 
0.000000 0.000000 0.000000 

-0.000000 -0.000000 0.000000 
0.000000 0.000000 0.000000 
0.000000 0.000000 0.000000 

0.000000 -0.000000 0.000000 
0.000000 -0.000000 0.000000 
0.000000 0.000000 0.000000 

0.000000 -0.000000 0.000000 
0.000000 -0.000000 0.000000 
0.000000 0.000000 0.000000 

-0.000000 -0.000000 0.000000 
0.000000 -0.000000 0.000000 
0.000000 0.000000 0.000000 

-0.000000 -0.000000 0.000000 
0.000000 0.000000 0.000000 
0.000000 0.000000 0.000000 

0.000000 0.000000 0.000000 
0.000000 0.000000 0.000000 
0.000000 0.000000 0.000000 

-0.000000 0.000000 0.000000 
0.000000 0.000000 0.000000 
0.000000 0.000000 0.000000 

-0.000000 0.000000 0.000000 
0.000000 -0.000000 0.000000 
0.000000 0.000000 0.000000 

-0.000000 0.000000 0.000000 
0.000000 -0.000000 0.000000 
0.000000 0.000000 0.000000 

0.000000 0.000000 0.000000 
0.000000 -0.000000 0.000000 
0.000000 0.000000 0.000000 

0.000000 0.000000 0.000000 
0.000000 0.000000 0.000000 
0.000000 0.000000 0.000000 

0.000000 0.000000 0.000000 
0.000000 0.000000 0.000000 
0.000000 0.000000 0.000000 

0.000000 -0.000000 0.000000 
0.000000 -0.000000 0.000000 
0.000000 0.000000 0.000000 

-0.000000 -0.000000 0.000000 
0.000000 -0.000000 0.000000 
0.000000 0.000000 0.000000 

0.000000 -0.000000 0.000000 
0.000000 -0.000000 0.000000 
0.000000 0.000000 0.000000 

0.000000 0.000000 0.000000 
0.000000 -0.000000 0.000000 
0.000000 0.000000 0.000000 

0.000000 0.000000 0.000000 
0.000000 -0.000000 0.000000 
0.000000 0.000000 0.000000 

-0.000000 -0.000000 0.000000 
0.000000 0.000000 0.000000 
0.000000 0.000000 0.000000 

0.000000 0.000000 0.000000 
0.000000 -0.000000 0.000000 
0.000000 0.000000 0.000000 

-0.000000 -0.000000 0.000000 
0.000000 0.000000 0.000000 
0.000000 0.000000 0.000000 

-0.000000 -0.000000 0.000000 
0.000000 0.000000 0.000000 
0.000000 0.000000 0.000000 

0.000000 -0.000000 0.000000 
0.000000 0.000000 0.000000 
0.000000 0.000000 0.000000 

0.000000 -0.000000 0.000000 
0.000000 0.000000 0.000000 
0.000000 0.000000 0.000000 

0.000000 0.000000 0.000000 
0.000000 -0.000000 0.000000 
0.000000 0.000000 0.000000 

-0.000000 0.000000 0.000000 
0.000000 0.000000 0.000000 
0.000000 0.000000 0.000000 

-0.000000 -0.000000 0.000000 
0.000000 0.000000 0.000000 
0.000000 0.000000 0.000000 

-0.000000 -0.000000 0.000000 
0.000000 0.000000 0.000000 
0.000000 0.000000 0.000000 

-0.000000 0.000000 0.000000 
0.000000 -0.000000 0.000000 
0.000000 0.000000 0.000000 

-0.000000 -0.000000 0.000000 
0.000000 -0.000000 0.000000 
0.000000 0.000000 0.000000 

-0.000000 -0.000000 0.000000 
0.000000 0.000000 0.000000 
0.000000 0.000000 0.000000 

-0.000000 -0.000000 0.000000 
0.000000 -0.000000 0.000000 
0.000000 0.000000 0.000000 

-0.000000 -0.000000 0.000000 
0.000000 0.000000 0.000000 
0.000000 0.000000 0.000000 

-0.000000 -0.000000 0.000000 
0.000000 0.000000 0.000000 
0.000000 0.000000 0.000000 

-0.000000 -0.000000 0.000000 
0.000000 0.000000 0.000000 
0.000000 0.000000 0.000000 

-0.000000 -0.000000 0.000000 
0.000000 0.000000 0.000000 
0.000000 0.000000 0.000000 

-0.000000 -0.000000 0.000000 
0.000000 0.000000 0.000000 
0.000000 0.000000 0.000000 

0.000000 0.000000 0.000000 
0.000000 0.000000 0.000000 
0.000000 0.000000 0.000000 

0.000000 -0.000000 0.000000 
0.000000 0.000000 0.000000 
0.000000 0.000000 0.000000 

0.000000 0.000000 0.000000 
0.000000 -0.000000 0.000000 
0.000000 0.000000 0.000000 

-0.000000 -0.000000 0.000000 
0.000000 0.000000 0.000000 
0.000000 0.000000 0.000000 

-0.000000 0.000000 0.000000 
0.000000 -0.000000 0.000000 
0.000000 0.000000 0.000000 

-0.000000 -0.000000 0.000000 
0.000000 0.000000 0.000000 
0.000000 0.000000 0.000000 

-0.000000 -0.000000 0.000000 
0.000000 -0.000000 0.000000 
0.000000 0.000000 0.000000 

-0.000000 -0.000000 0.000000 
0.000000 0.000000 0.000000 
0.000000 0.000000 0.000000 

-0.000000 -0.000000 0.000000 
0.000000 -0.000000 0.000000 
0.000000 0.000000 0.000000 

-0.000000 0.000000 0.000000 
0.000000 0.000000 0.000000 
0.000000 0.000000 0.000000 

-0.000000 -0.000000 0.000000 
0.000000 0.000000 0.000000 
0.000000 0.000000 0.000000 

-0.000000 -0.000000 0.000000 
0.000000 0.000000 0.000000 
0.000000 0.000000 0.000000 

0.000000 -0.000000 0.000000 
0.000000 -0.000000 0.000000 
0.000000 0.000000 0.000000 

-0.000000 -0.000000 0.000000 
0.000000 0.000000 0.000000 
0.000000 0.000000 0.000000 

-0.000000 -0.000000 0.000000 
0.000000 -0.000000 0.000000 
0.000000 0.000000 0.000000 

-0.000000 -0.000000 0.000000 
0.000000 0.000000 0.000000 
0.000000 0.000000 0.000000 

-0.000000 -0.000000 0.000000 
0.000000 0.000000 0.000000 
0.000000 0.000000 0.000000 

-0.000000 0.000000 0.000000 
0.000000 -0.000000 0.000000 
0.000000 0.000000 0.000000 

-0.000000 0.000000 0.000000 
0.000000 -0.000000 0.000000 
0.000000 0.000000 0.000000 

-0.000000 -0.000000 0.000000 
0.000000 0.000000 0.000000 
0.000000 0.000000 0.000000 

-0.000000 0.000000 0.000000 
0.000000 -0.000000 0.000000 
0.000000 0.000000 0.000000 

0.000000 -0.000000 0.000000 
0.000000 0.000000 0.000000 
0.000000 0.000000 0.000000 

-0.000000 0.000000 0.000000 
0.000000 -0.000000 0.000000 
0.000000 0.000000 0.000000 

-0.000000 0.000000 0.000000 
0.000000 0.000000 0.000000 
0.000000 0.000000 0.000000 

0.000000 0.000000 0.000000 
0.000000 -0.000000 0.000000 
0.000000 0.000000 0.000000 

-0.000000 0.000000 0.000000 
0.000000 0.000000 0.000000 
0.000000 0.000000 0.000000 

-0.000000 -0.000000 0.000000 
0.000000 0.000000 0.000000 
0.000000 0.000000 0.000000 

0.000000 -0.000000 0.000000 
0.000000 -0.000000 0.000000 
0.000000 0.000000 0.000000 

0.000000 -0.000000 0.000000 
0.000000 -0.000000 0.000000 
0.000000 0.000000 0.000000 

-0.000000 -0.000000 0.000000 
0.000000 0.000000 0.000000 
0.000000 0.000000 0.000000 

-0.000000 0.000000 0.000000 
0.000000 0.000000 0.000000 
0.000000 0.000000 0.000000 

-0.000000 -0.000000 0.000000 
0.000000 0.000000 0.000000 
0.000000 0.000000 0.000000 

0.000000 -0.000000 0.000000 
0.000000 0.000000 0.000000 
0.000000 0.000000 0.000000 

0.000000 -0.000000 0.000000 
0.000000 -0.000000 0.000000 
0.000000 0.000000 0.000000 

-0.000000 -0.000000 0.000000 
0.000000 0.000000 0.000000 
0.000000 0.000000 0.000000 

0.000000 0.000000 0.000000 
0.000000 -0.000000 0.000000 
0.000000 0.000000 0.000000 

0.000000 0.000000 0.000000 
0.000000 -0.000000 0.000000 
0.000000 0.000000 0.000000 

-0.000000 0.000000 0.000000 
0.000000 0.000000 0.000000 
0.000000 0.000000 0.000000 

-0.000000 -0.000000 0.000000 
0.000000 -0.000000 0.000000 
0.000000 0.000000 0.000000 

-0.000000 0.000000 0.000000 
0.000000 0.000000 0.000000 
0.000000 0.000000 0.000000 

-0.000000 -0.000000 0.000000 
0.000000 0.000000 0.000000 
0.000000 0.000000 0.000000 

-0.000000 -0.000000 0.000000 
0.000000 0.000000 0.000000 
0.000000 0.000000 0.000000 

-0.000000 0.000000 0.000000 
0.000000 -0.000000 0.000000 
0.000000 0.000000 0.000000 

-0.000000 -0.000000 0.000000 
0.000000 0.000000 0.000000 
0.000000 0.000000 0.000000 

-0.000000 0.000000 0.000000 
0.000000 -0.000000 0.000000 
0.000000 0.000000 0.000000 

-0.000000 0.000000 0.000000 
0.000000 -0.000000 0.000000 
0.000000 0.000000 0.000000 

-0.000000 0.000000 0.000000 
0.000000 0.000000 0.000000 
0.000000 0.000000 0.000000 

-0.000000 0.000000 0.000000 
0.000000 0.000000 0.000000 
0.000000 0.000000 0.000000 

0.000000 0.000000 0.000000 
0.000000 0.000000 0.000000 
0.000000 0.000000 0.000000 

-0.000000 -0.000000 0.000000 
0.000000 0.000000 0.000000 
0.000000 0.000000 0.000000 

-0.000000 -0.000000 0.000000 
0.000000 -0.000000 0.000000 
0.000000 0.000000 0.000000 

-0.000000 -0.000000 0.000000 
0.000000 0.000000 0.000000 
0.000000 0.000000 0.000000 

-0.000000 0.000000 0.000000 
0.000000 -0.000000 0.000000 
0.000000 0.000000 0.000000 

-0.000000 -0.000000 0.000000 
0.000000 0.000000 0.000000 
0.000000 0.000000 0.000000 

-0.000000 0.000000 0.000000 
0.000000 -0.000000 0.000000 
0.000000 0.000000 0.000000 

-0.000000 0.000000 0.000000 
0.000000 0.000000 0.000000 
0.000000 0.000000 0.000000 

0.000000 0.000000 0.000000 
0.000000 -0.000000 0.000000 
0.000000 0.000000 0.000000 

-0.000000 -0.000000 0.000000 
0.000000 0.000000 0.000000 
0.000000 0.000000 0.000000 

-0.000000 -0.000000 0.000000 
0.000000 0.000000 0.000000 
0.000000 0.000000 0.000000 

-0.000000 -0.000000 0.000000 
0.000000 -0.000000 0.000000 
0.000000 0.000000 0.000000 

-0.000000 0.000000 0.000000 
0.000000 0.000000 0.000000 
0.000000 0.000000 0.000000 

-0.000000 -0.000000 0.000000 
0.000000 -0.000000 0.000000 
0.000000 0.000000 0.000000 

-0.000000 -0.000000 0.000000 
0.000000 0.000000 0.000000 
0.000000 0.000000 0.000000 

-0.000000 -0.000000 0.000000 
0.000000 0.000000 0.000000 
0.000000 0.000000 0.000000 

0.000000 0.000000 0.000000 
0.000000 0.000000 0.000000 
0.000000 0.000000 0.000000 

-0.000000 0.000000 0.000000 
0.000000 0.000000 0.000000 
0.000000 0.000000 0.000000 

-0.000000 0.000000 0.000000 
0.000000 0.000000 0.000000 
0.000000 0.000000 0.000000 

0.000000 0.000000 0.000000 
0.000000 -0.000000 0.000000 
0.000000 0.000000 0.000000 

-0.000000 -0.000000 0.000000 
0.000000 0.000000 0.000000 
0.000000 0.000000 0.000000 

-0.000000 0.000000 0.000000 
0.000000 0.000000 0.000000 
0.000000 0.000000 0.000000 

-0.000000 -0.000000 0.000000 
0.000000 -0.000000 0.000000 
0.000000 0.000000 0.000000 

-0.000000 -0.000000 0.000000 
0.000000 0.000000 0.000000 
0.000000 0.000000 0.000000 

-0.000000 0.000000 0.000000 
0.000000 -0.000000 0.000000 
0.000000 0.000000 0.000000 

-0.000000 0.000000 0.000000 
0.000000 0.000000 0.000000 
0.000000 0.000000 0.000000 

0.000000 0.000000 0.000000 
0.000000 -0.000000 0.000000 
0.000000 0.000000 0.000000 

0.000000 0.000000 0.000000 
0.000000 -0.000000 0.000000 
0.000000 0.000000 0.000000 

0.000000 -0.000000 0.000000 
0.000000 -0.000000 0.000000 
0.000000 0.000000 0.000000 

-0.000000 0.000000 0.000000 
0.000000 0.000000 0.000000 
0.000000 0.000000 0.000000 

0.000000 0.000000 0.000000 
0.000000 0.000000 0.000000 
0.000000 0.000000 0.000000 

-0.000000 -0.000000 0.000000 
0.000000 0.000000 0.000000 
0.000000 0.000000 0.000000 

-0.000000 -0.000000 0.000000 
0.000000 -0.000000 0.000000 
0.000000 0.000000 0.000000 

-0.000000 0.000000 0.000000 
0.000000 0.000000 0.000000 
0.000000 0.000000 0.000000 

-0.000000 -0.000000 0.000000 
0.000000 -0.000000 0.000000 
0.000000 0.000000 0.000000 

0.000000 0.000000 0.000000 
0.000000 -0.000000 0.000000 
0.000000 0.000000 0.000000 

0.000000 0.000000 0.000000 
0.000000 0.000000 0.000000 
0.000000 0.000000 0.000000 

-0.000000 0.000000 0.000000 
0.000000 -0.000000 0.000000 
0.000000 0.000000 0.000000 

-0.000000 -0.000000 0.000000 
0.000000 0.000000 0.000000 
0.000000 0.000000 0.000000 

-0.000000 -0.000000 0.000000 
0.000000 0.000000 0.000000 
0.000000 0.000000 0.000000 

-0.000000 -0.000000 0.000000 
0.000000 -0.000000 0.000000 
0.000000 0.000000 0.000000 

-0.000000 0.000000 0.000000 
0.000000 -0.000000 0.000000 
0.000000 0.000000 0.000000 

0.000000 0.000000 0.000000 
0.000000 0.000000 0.000000 
0.000000 0.000000 0.000000 

0.000000 -0.000000 0.000000 
0.000000 -0.000000 0.000000 
0.000000 0.000000 0.000000 

-0.000000 0.000000 0.000000 
0.000000 -0.000000 0.000000 
0.000000 0.000000 0.000000 

0.000000 0.000000 0.000000 
0.000000 0.000000 0.000000 
0.000000 0.000000 0.000000 

0.000000 -0.000000 0.000000 
0.000000 -0.000000 0.000000 
0.000000 0.000000 0.000000 

-0.000000 -0.000000 0.000000 
0.000000 0.000000 0.000000 
0.000000 0.000000 0.000000 

-0.000000 0.000000 0.000000 
0.000000 -0.000000 0.000000 
0.000000 0.000000 0.000000 

0.000000 0.000000 0.000000 
0.000000 -0.000000 0.000000 
0.000000 0.000000 0.000000 

0.000000 -0.000000 0.000000 
0.000000 -0.000000 0.000000 
0.000000 0.000000 0.000000 

0.000000 0.000000 0.000000 
0.000000 -0.000000 0.000000 
0.000000 0.000000 0.000000 

0.000000 0.000000 0.000000 
0.000000 0.000000 0.000000 
0.000000 0.000000 0.000000 

0.000000 0.000000 0.000000 
0.000000 0.000000 0.000000 
0.000000 0.000000 0.000000 

-0.000000 -0.000000 0.000000 
0.000000 -0.000000 0.000000 
0.000000 0.000000 0.000000 

-0.000000 0.000000 0.000000 
0.000000 -0.000000 0.000000 
0.000000 0.000000 0.000000 

0.000000 0.000000 0.000000 
0.000000 -0.000000 0.000000 
0.000000 0.000000 0.000000 

0.000000 0.000000 0.000000 
0.000000 -0.000000 0.000000 
0.000000 0.000000 0.000000 

0.000000 0.000000 0.000000 
0.000000 -0.000000 0.000000 
0.000000 0.000000 0.000000 

0.000000 -0.000000 0.000000 
0.000000 -0.000000 0.000000 
0.000000 0.000000 0.000000 

0.000000 -0.000000 0.000000 
0.000000 0.000000 0.000000 
0.000000 0.000000 0.000000 

0.000000 0.000000 0.000000 
0.000000 0.000000 0.000000 
0.000000 0.000000 0.000000 

0.000000 0.000000 0.000000 
0.000000 -0.000000 0.000000 
0.000000 0.000000 0.000000 

0.000000 0.000000 0.000000 
0.000000 -0.000000 0.000000 
0.000000 0.000000 0.000000 

-0.000000 -0.000000 0.000000 
0.000000 -0.000000 0.000000 
0.000000 0.000000 0.000000 

-0.000000 0.000000 0.000000 
0.000000 -0.000000 0.000000 
0.000000 0.000000 0.000000 

0.000000 -0.000000 0.000000 
0.000000 0.000000 0.000000 
0.000000 0.000000 0.000000 

0.000000 0.000000 0.000000 
0.000000 -0.000000 0.000000 
0.000000 0.000000 0.000000 

-0.000000 0.000000 0.000000 
0.000000 -0.000000 0.000000 
0.000000 0.000000 0.000000 

-0.000000 -0.000000 0.000000 
0.000000 0.000000 0.000000 
0.000000 0.000000 0.000000 

-0.000000 -0.000000 0.000000 
0.000000 0.000000 0.000000 
0.000000 0.000000 0.000000 

0.000000 -0.000000 0.000000 
0.000000 0.000000 0.000000 
0.000000 0.000000 0.000000 

-0.000000 -0.000000 0.000000 
0.000000 0.000000 0.000000 
0.000000 0.000000 0.000000 

-0.000000 0.000000 0.000000 
0.000000 0.000000 0.000000 
0.000000 0.000000 0.000000 

0.000000 0.000000 0.000000 
0.000000 0.000000 0.000000 
0.000000 0.000000 0.000000 

-0.000000 0.000000 0.000000 
0.000000 -0.000000 0.000000 
0.000000 0.000000 0.000000 

0.000000 0.000000 0.000000 
0.000000 -0.000000 0.000000 
0.000000 0.000000 0.000000 

0.000000 0.000000 0.000000 
0.000000 -0.000000 0.000000 
0.000000 0.000000 0.000000 

0.000000 0.000000 0.000000 
0.000000 0.000000 0.000000 
0.000000 0.000000 0.000000 

-0.000000 -0.000000 0.000000 
0.000000 0.000000 0.000000 
0.000000 0.000000 0.000000 

0.000000 -0.000000 0.000000 
0.000000 -0.000000 0.000000 
0.000000 0.000000 0.000000 

0.000000 0.000000 0.000000 
0.000000 0.000000 0.000000 
0.000000 0.000000 0.000000 

0.000000 -0.000000 0.000000 
0.000000 0.000000 0.000000 
0.000000 0.000000 0.000000 

0.000000 0.000000 0.000000 
0.000000 -0.000000 0.000000 
0.000000 0.000000 0.000000 

0.000000 -0.000000 0.000000 
0.000000 -0.000000 0.000000 
0.000000 0.000000 0.000000 

0.000000 0.000000 0.000000 
0.000000 0.000000 0.000000 
0.000000 0.000000 0.000000 

0.000000 0.000000 0.000000 
0.000000 -0.000000 0.000000 
0.000000 0.000000 0.000000 

-0.000000 -0.000000 0.000000 
0.000000 0.000000 0.000000 
0.000000 0.000000 0.000000 

-0.000000 0.000000 0.000000 
0.000000 -0.000000 0.000000 
0.000000 0.000000 0.000000 

-0.000000 -0.000000 0.000000 
0.000000 -0.000000 0.000000 
0.000000 0.000000 0.000000 

