# vtk DataFile Version 3.0 
vtk output 
ASCII 
DATASET UNSTRUCTURED_GRID 
POINTS 175 float 
-0.026061 -2.182844 0.000000 
-0.106992 -2.114788 0.000000 
-0.054870 -2.123021 0.000000 
-0.028809 -2.077137 0.000000 
-0.186430 -2.050713 0.000000 
-0.137056 -2.053239 0.000000 
-0.114311 -1.999592 0.000000 
-0.058186 -2.015257 0.000000 
-0.029377 -1.975080 0.000000 
-0.265318 -1.987557 0.000000 
-0.217198 -1.988357 0.000000 
-0.196633 -1.931060 0.000000 
-0.143120 -1.939769 0.000000 
-0.116563 -1.892500 0.000000 
-0.058945 -1.912146 0.000000 
-0.029568 -1.874026 0.000000 
-0.344206 -1.924401 0.000000 
-0.296791 -1.924394 0.000000 
-0.278030 -1.864451 0.000000 
-0.225992 -1.870318 0.000000 
-0.201664 -1.818201 0.000000 
-0.145749 -1.831675 0.000000 
-0.117890 -1.787332 0.000000 
-0.059328 -1.810038 0.000000 
-0.029759 -1.772972 0.000000 
-0.058559 -2.223594 0.000000 
-0.162226 -2.244437 0.000000 
-0.123292 -2.208819 0.000000 
-0.142917 -2.159836 0.000000 
-0.261851 -2.266594 0.000000 
-0.229092 -2.229566 0.000000 
-0.256854 -2.178335 0.000000 
-0.209613 -2.144222 0.000000 
-0.223062 -2.096648 0.000000 
-0.360414 -2.288894 0.000000 
-0.329787 -2.251771 0.000000 
-0.361761 -2.199969 0.000000 
-0.321587 -2.163560 0.000000 
-0.341985 -2.113326 0.000000 
-0.290702 -2.080527 0.000000 
-0.302189 -2.033792 0.000000 
-0.458977 -2.311194 0.000000 
-0.429420 -2.274119 0.000000 
-0.464588 -2.222077 0.000000 
-0.427556 -2.185050 0.000000 
-0.453135 -2.133535 0.000000 
-0.407738 -2.098220 0.000000 
-0.425037 -2.048792 0.000000 
-0.370772 -2.017163 0.000000 
-0.381315 -1.970935 0.000000 
-0.046960 -2.274410 0.000000 
-0.095301 -2.368456 0.000000 
-0.098873 -2.315808 0.000000 
-0.149405 -2.300611 0.000000 
-0.140093 -2.460160 0.000000 
-0.148617 -2.411461 0.000000 
-0.205981 -2.401224 0.000000 
-0.203197 -2.343021 0.000000 
-0.248777 -2.323874 0.000000 
-0.184111 -2.551123 0.000000 
-0.194039 -2.504032 0.000000 
-0.254475 -2.496733 0.000000 
-0.257893 -2.442623 0.000000 
-0.309886 -2.427250 0.000000 
-0.303554 -2.366705 0.000000 
-0.347255 -2.346547 0.000000 
-0.228129 -2.642087 0.000000 
-0.238687 -2.595863 0.000000 
-0.301302 -2.590910 0.000000 
-0.307162 -2.538872 0.000000 
-0.363386 -2.526751 0.000000 
-0.362692 -2.469239 0.000000 
-0.412122 -2.451946 0.000000 
-0.403017 -2.389799 0.000000 
-0.445733 -2.369221 0.000000 
-0.000000 -2.297025 0.000000 
0.043388 -2.393455 0.000000 
-0.000000 -2.363423 0.000000 
-0.043388 -2.393455 0.000000 
0.087158 -2.485652 0.000000 
0.043769 -2.461953 0.000000 
-0.000000 -2.500419 0.000000 
-0.043769 -2.461953 0.000000 
-0.087158 -2.485652 0.000000 
0.130831 -2.576782 0.000000 
0.087824 -2.555183 0.000000 
0.044436 -2.597882 0.000000 
-0.000000 -2.566817 0.000000 
-0.044436 -2.597882 0.000000 
-0.087824 -2.555183 0.000000 
-0.130831 -2.576782 0.000000 
0.174505 -2.667911 0.000000 
0.131782 -2.647345 0.000000 
0.088871 -2.693212 0.000000 
0.044532 -2.665348 0.000000 
-0.000000 -2.701748 0.000000 
-0.044532 -2.665348 0.000000 
-0.088871 -2.693212 0.000000 
-0.131782 -2.647345 0.000000 
-0.174505 -2.667911 0.000000 
0.046960 -2.274410 0.000000 
0.149405 -2.300611 0.000000 
0.098873 -2.315808 0.000000 
0.095301 -2.368456 0.000000 
0.248777 -2.323874 0.000000 
0.203197 -2.343021 0.000000 
0.205981 -2.401224 0.000000 
0.148617 -2.411461 0.000000 
0.140093 -2.460160 0.000000 
0.347255 -2.346547 0.000000 
0.303554 -2.366705 0.000000 
0.309886 -2.427250 0.000000 
0.257893 -2.442623 0.000000 
0.254475 -2.496733 0.000000 
0.194039 -2.504032 0.000000 
0.184111 -2.551123 0.000000 
0.445733 -2.369221 0.000000 
0.403017 -2.389799 0.000000 
0.412122 -2.451946 0.000000 
0.362692 -2.469239 0.000000 
0.363386 -2.526751 0.000000 
0.307162 -2.538872 0.000000 
0.301302 -2.590910 0.000000 
0.238687 -2.595863 0.000000 
0.228129 -2.642087 0.000000 
0.058559 -2.223594 0.000000 
0.142917 -2.159836 0.000000 
0.123292 -2.208819 0.000000 
0.162226 -2.244437 0.000000 
0.223062 -2.096648 0.000000 
0.209613 -2.144222 0.000000 
0.256854 -2.178335 0.000000 
0.229092 -2.229566 0.000000 
0.261851 -2.266594 0.000000 
0.302189 -2.033792 0.000000 
0.290702 -2.080527 0.000000 
0.341985 -2.113326 0.000000 
0.321587 -2.163560 0.000000 
0.361761 -2.199969 0.000000 
0.329787 -2.251771 0.000000 
0.360414 -2.288894 0.000000 
0.381315 -1.970935 0.000000 
0.370772 -2.017163 0.000000 
0.425037 -2.048792 0.000000 
0.407738 -2.098220 0.000000 
0.453135 -2.133535 0.000000 
0.427556 -2.185050 0.000000 
0.464588 -2.222077 0.000000 
0.429420 -2.274119 0.000000 
0.458977 -2.311194 0.000000 
0.026061 -2.182844 0.000000 
0.028809 -2.077137 0.000000 
0.054870 -2.123021 0.000000 
0.106992 -2.114788 0.000000 
0.029377 -1.975080 0.000000 
0.058186 -2.015257 0.000000 
0.114311 -1.999592 0.000000 
0.137056 -2.053239 0.000000 
0.186430 -2.050713 0.000000 
0.029568 -1.874026 0.000000 
0.058945 -1.912146 0.000000 
0.116563 -1.892500 0.000000 
0.143120 -1.939769 0.000000 
0.196633 -1.931060 0.000000 
0.217198 -1.988357 0.000000 
0.265318 -1.987557 0.000000 
0.029759 -1.772972 0.000000 
0.059328 -1.810038 0.000000 
0.117890 -1.787332 0.000000 
0.145749 -1.831675 0.000000 
0.201664 -1.818201 0.000000 
0.225992 -1.870318 0.000000 
0.278030 -1.864451 0.000000 
0.296791 -1.924394 0.000000 
0.344206 -1.924401 0.000000 
CELLS 175 350 
1 0 
1 1 
1 2 
1 3 
1 4 
1 5 
1 6 
1 7 
1 8 
1 9 
1 10 
1 11 
1 12 
1 13 
1 14 
1 15 
1 16 
1 17 
1 18 
1 19 
1 20 
1 21 
1 22 
1 23 
1 24 
1 25 
1 26 
1 27 
1 28 
1 29 
1 30 
1 31 
1 32 
1 33 
1 34 
1 35 
1 36 
1 37 
1 38 
1 39 
1 40 
1 41 
1 42 
1 43 
1 44 
1 45 
1 46 
1 47 
1 48 
1 49 
1 50 
1 51 
1 52 
1 53 
1 54 
1 55 
1 56 
1 57 
1 58 
1 59 
1 60 
1 61 
1 62 
1 63 
1 64 
1 65 
1 66 
1 67 
1 68 
1 69 
1 70 
1 71 
1 72 
1 73 
1 74 
1 75 
1 76 
1 77 
1 78 
1 79 
1 80 
1 81 
1 82 
1 83 
1 84 
1 85 
1 86 
1 87 
1 88 
1 89 
1 90 
1 91 
1 92 
1 93 
1 94 
1 95 
1 96 
1 97 
1 98 
1 99 
1 100 
1 101 
1 102 
1 103 
1 104 
1 105 
1 106 
1 107 
1 108 
1 109 
1 110 
1 111 
1 112 
1 113 
1 114 
1 115 
1 116 
1 117 
1 118 
1 119 
1 120 
1 121 
1 122 
1 123 
1 124 
1 125 
1 126 
1 127 
1 128 
1 129 
1 130 
1 131 
1 132 
1 133 
1 134 
1 135 
1 136 
1 137 
1 138 
1 139 
1 140 
1 141 
1 142 
1 143 
1 144 
1 145 
1 146 
1 147 
1 148 
1 149 
1 150 
1 151 
1 152 
1 153 
1 154 
1 155 
1 156 
1 157 
1 158 
1 159 
1 160 
1 161 
1 162 
1 163 
1 164 
1 165 
1 166 
1 167 
1 168 
1 169 
1 170 
1 171 
1 172 
1 173 
1 174 
CELL_TYPES 175 
1 
1 
1 
1 
1 
1 
1 
1 
1 
1 
1 
1 
1 
1 
1 
1 
1 
1 
1 
1 
1 
1 
1 
1 
1 
1 
1 
1 
1 
1 
1 
1 
1 
1 
1 
1 
1 
1 
1 
1 
1 
1 
1 
1 
1 
1 
1 
1 
1 
1 
1 
1 
1 
1 
1 
1 
1 
1 
1 
1 
1 
1 
1 
1 
1 
1 
1 
1 
1 
1 
1 
1 
1 
1 
1 
1 
1 
1 
1 
1 
1 
1 
1 
1 
1 
1 
1 
1 
1 
1 
1 
1 
1 
1 
1 
1 
1 
1 
1 
1 
1 
1 
1 
1 
1 
1 
1 
1 
1 
1 
1 
1 
1 
1 
1 
1 
1 
1 
1 
1 
1 
1 
1 
1 
1 
1 
1 
1 
1 
1 
1 
1 
1 
1 
1 
1 
1 
1 
1 
1 
1 
1 
1 
1 
1 
1 
1 
1 
1 
1 
1 
1 
1 
1 
1 
1 
1 
1 
1 
1 
1 
1 
1 
1 
1 
1 
1 
1 
1 
1 
1 
1 
1 
1 
1 
POINT_DATA 175 
VECTORS X_GC float 
-0.026061 -2.182844 0.000000 
-0.106992 -2.114788 0.000000 
-0.054870 -2.123021 0.000000 
-0.028809 -2.077137 0.000000 
-0.186430 -2.050713 0.000000 
-0.137056 -2.053239 0.000000 
-0.114311 -1.999592 0.000000 
-0.058186 -2.015257 0.000000 
-0.029377 -1.975080 0.000000 
-0.265318 -1.987557 0.000000 
-0.217198 -1.988357 0.000000 
-0.196633 -1.931060 0.000000 
-0.143120 -1.939769 0.000000 
-0.116563 -1.892500 0.000000 
-0.058945 -1.912146 0.000000 
-0.029568 -1.874026 0.000000 
-0.344206 -1.924401 0.000000 
-0.296791 -1.924394 0.000000 
-0.278030 -1.864451 0.000000 
-0.225992 -1.870318 0.000000 
-0.201664 -1.818201 0.000000 
-0.145749 -1.831675 0.000000 
-0.117890 -1.787332 0.000000 
-0.059328 -1.810038 0.000000 
-0.029759 -1.772972 0.000000 
-0.058559 -2.223594 0.000000 
-0.162226 -2.244437 0.000000 
-0.123292 -2.208819 0.000000 
-0.142917 -2.159836 0.000000 
-0.261851 -2.266594 0.000000 
-0.229092 -2.229566 0.000000 
-0.256854 -2.178335 0.000000 
-0.209613 -2.144222 0.000000 
-0.223062 -2.096648 0.000000 
-0.360414 -2.288894 0.000000 
-0.329787 -2.251771 0.000000 
-0.361761 -2.199969 0.000000 
-0.321587 -2.163560 0.000000 
-0.341985 -2.113326 0.000000 
-0.290702 -2.080527 0.000000 
-0.302189 -2.033792 0.000000 
-0.458977 -2.311194 0.000000 
-0.429420 -2.274119 0.000000 
-0.464588 -2.222077 0.000000 
-0.427556 -2.185050 0.000000 
-0.453135 -2.133535 0.000000 
-0.407738 -2.098220 0.000000 
-0.425037 -2.048792 0.000000 
-0.370772 -2.017163 0.000000 
-0.381315 -1.970935 0.000000 
-0.046960 -2.274410 0.000000 
-0.095301 -2.368456 0.000000 
-0.098873 -2.315808 0.000000 
-0.149405 -2.300611 0.000000 
-0.140093 -2.460160 0.000000 
-0.148617 -2.411461 0.000000 
-0.205981 -2.401224 0.000000 
-0.203197 -2.343021 0.000000 
-0.248777 -2.323874 0.000000 
-0.184111 -2.551123 0.000000 
-0.194039 -2.504032 0.000000 
-0.254475 -2.496733 0.000000 
-0.257893 -2.442623 0.000000 
-0.309886 -2.427250 0.000000 
-0.303554 -2.366705 0.000000 
-0.347255 -2.346547 0.000000 
-0.228129 -2.642087 0.000000 
-0.238687 -2.595863 0.000000 
-0.301302 -2.590910 0.000000 
-0.307162 -2.538872 0.000000 
-0.363386 -2.526751 0.000000 
-0.362692 -2.469239 0.000000 
-0.412122 -2.451946 0.000000 
-0.403017 -2.389799 0.000000 
-0.445733 -2.369221 0.000000 
-0.000000 -2.297025 0.000000 
0.043388 -2.393455 0.000000 
-0.000000 -2.363423 0.000000 
-0.043388 -2.393455 0.000000 
0.087158 -2.485652 0.000000 
0.043769 -2.461953 0.000000 
-0.000000 -2.500419 0.000000 
-0.043769 -2.461953 0.000000 
-0.087158 -2.485652 0.000000 
0.130831 -2.576782 0.000000 
0.087824 -2.555183 0.000000 
0.044436 -2.597882 0.000000 
-0.000000 -2.566817 0.000000 
-0.044436 -2.597882 0.000000 
-0.087824 -2.555183 0.000000 
-0.130831 -2.576782 0.000000 
0.174505 -2.667911 0.000000 
0.131782 -2.647345 0.000000 
0.088871 -2.693212 0.000000 
0.044532 -2.665348 0.000000 
-0.000000 -2.701748 0.000000 
-0.044532 -2.665348 0.000000 
-0.088871 -2.693212 0.000000 
-0.131782 -2.647345 0.000000 
-0.174505 -2.667911 0.000000 
0.046960 -2.274410 0.000000 
0.149405 -2.300611 0.000000 
0.098873 -2.315808 0.000000 
0.095301 -2.368456 0.000000 
0.248777 -2.323874 0.000000 
0.203197 -2.343021 0.000000 
0.205981 -2.401224 0.000000 
0.148617 -2.411461 0.000000 
0.140093 -2.460160 0.000000 
0.347255 -2.346547 0.000000 
0.303554 -2.366705 0.000000 
0.309886 -2.427250 0.000000 
0.257893 -2.442623 0.000000 
0.254475 -2.496733 0.000000 
0.194039 -2.504032 0.000000 
0.184111 -2.551123 0.000000 
0.445733 -2.369221 0.000000 
0.403017 -2.389799 0.000000 
0.412122 -2.451946 0.000000 
0.362692 -2.469239 0.000000 
0.363386 -2.526751 0.000000 
0.307162 -2.538872 0.000000 
0.301302 -2.590910 0.000000 
0.238687 -2.595863 0.000000 
0.228129 -2.642087 0.000000 
0.058559 -2.223594 0.000000 
0.142917 -2.159836 0.000000 
0.123292 -2.208819 0.000000 
0.162226 -2.244437 0.000000 
0.223062 -2.096648 0.000000 
0.209613 -2.144222 0.000000 
0.256854 -2.178335 0.000000 
0.229092 -2.229566 0.000000 
0.261851 -2.266594 0.000000 
0.302189 -2.033792 0.000000 
0.290702 -2.080527 0.000000 
0.341985 -2.113326 0.000000 
0.321587 -2.163560 0.000000 
0.361761 -2.199969 0.000000 
0.329787 -2.251771 0.000000 
0.360414 -2.288894 0.000000 
0.381315 -1.970935 0.000000 
0.370772 -2.017163 0.000000 
0.425037 -2.048792 0.000000 
0.407738 -2.098220 0.000000 
0.453135 -2.133535 0.000000 
0.427556 -2.185050 0.000000 
0.464588 -2.222077 0.000000 
0.429420 -2.274119 0.000000 
0.458977 -2.311194 0.000000 
0.026061 -2.182844 0.000000 
0.028809 -2.077137 0.000000 
0.054870 -2.123021 0.000000 
0.106992 -2.114788 0.000000 
0.029377 -1.975080 0.000000 
0.058186 -2.015257 0.000000 
0.114311 -1.999592 0.000000 
0.137056 -2.053239 0.000000 
0.186430 -2.050713 0.000000 
0.029568 -1.874026 0.000000 
0.058945 -1.912146 0.000000 
0.116563 -1.892500 0.000000 
0.143120 -1.939769 0.000000 
0.196633 -1.931060 0.000000 
0.217198 -1.988357 0.000000 
0.265318 -1.987557 0.000000 
0.029759 -1.772972 0.000000 
0.059328 -1.810038 0.000000 
0.117890 -1.787332 0.000000 
0.145749 -1.831675 0.000000 
0.201664 -1.818201 0.000000 
0.225992 -1.870318 0.000000 
0.278030 -1.864451 0.000000 
0.296791 -1.924394 0.000000 
0.344206 -1.924401 0.000000 
VECTORS X_EC float 
0.338794 -0.031609 0.000000 
-0.609100 -0.950358 0.000000 
0.713312 -0.839217 0.000000 
0.374519 0.541353 0.000000 
0.423588 0.184623 0.000000 
-0.218274 0.218727 0.000000 
-0.513962 -0.505512 0.000000 
0.756418 -0.294026 0.000000 
0.381900 -0.836419 0.000000 
-0.550868 -0.667980 0.000000 
0.823577 -0.657185 0.000000 
0.556234 0.569311 0.000000 
-0.139443 0.686880 0.000000 
-0.484677 0.048755 0.000000 
0.766286 0.313971 0.000000 
0.384386 -0.200650 0.000000 
0.474677 0.479417 0.000000 
-0.141715 0.479320 0.000000 
-0.385608 -0.329908 0.000000 
0.937896 -0.250712 0.000000 
0.621631 -0.954292 0.000000 
-0.105264 -0.772393 0.000000 
-0.467428 0.628980 0.000000 
0.771260 0.935509 0.000000 
0.386873 0.435120 0.000000 
0.761262 0.518525 0.000000 
0.108942 0.799902 0.000000 
-0.397202 0.319062 0.000000 
-0.142083 -0.342213 0.000000 
-0.595936 -0.900988 0.000000 
0.978194 0.599147 0.000000 
-0.660903 -0.092479 0.000000 
0.724964 -0.552999 0.000000 
0.899809 0.804753 0.000000 
0.685384 -0.599935 0.000000 
0.287229 0.898906 0.000000 
0.702895 0.199578 0.000000 
0.180633 -0.291941 0.000000 
0.445811 -0.970101 0.000000 
-0.220880 0.587113 0.000000 
-0.071546 -0.043812 0.000000 
-0.033296 -0.298883 0.000000 
-0.417537 -0.799393 0.000000 
0.039645 0.498045 0.000000 
-0.441768 -0.001826 0.000000 
-0.109248 -0.697277 0.000000 
-0.699407 0.825967 0.000000 
-0.474522 0.158688 0.000000 
0.820030 -0.268305 0.000000 
0.957100 -0.892377 0.000000 
0.610485 -0.795469 0.000000 
-0.761092 0.474151 0.000000 
-0.714655 -0.236587 0.000000 
-0.057734 -0.441754 0.000000 
-0.178789 -0.287845 0.000000 
-0.067979 -0.945271 0.000000 
0.677748 0.916525 0.000000 
0.641556 0.130780 0.000000 
-0.765897 -0.127698 0.000000 
0.393446 0.940164 0.000000 
0.522510 0.304434 0.000000 
-0.691820 0.205890 0.000000 
-0.647393 -0.524593 0.000000 
0.028512 -0.732119 0.000000 
-0.053800 0.450520 0.000000 
0.514316 0.178389 0.000000 
0.965681 0.168173 0.000000 
-0.897068 -0.455856 0.000000 
-0.083078 -0.522709 0.000000 
-0.006893 0.774767 0.000000 
0.724017 0.611134 0.000000 
0.714996 -0.165270 0.000000 
-0.642413 -0.398727 0.000000 
-0.760780 0.762292 0.000000 
-0.205471 0.484477 0.000000 
0.000000 -0.490167 0.000000 
-0.564049 0.811646 0.000000 
0.000000 0.406210 0.000000 
0.564049 0.811646 0.000000 
0.866949 0.056301 0.000000 
-0.569003 -0.263630 0.000000 
0.000000 0.255658 0.000000 
0.569003 -0.263630 0.000000 
-0.866949 0.056301 0.000000 
0.299194 -0.713449 0.000000 
0.858290 0.994967 0.000000 
-0.577662 -0.428587 0.000000 
0.000000 -0.847965 0.000000 
0.577662 -0.428587 0.000000 
-0.858290 0.994967 0.000000 
-0.299194 -0.713449 0.000000 
-0.268560 0.516801 0.000000 
0.286830 0.239160 0.000000 
0.844677 0.858358 0.000000 
-0.578910 0.482195 0.000000 
0.000000 0.973599 0.000000 
0.578910 0.482195 0.000000 
-0.844677 0.858358 0.000000 
-0.286830 0.239160 0.000000 
0.268560 0.516801 0.000000 
-0.610485 -0.795469 0.000000 
0.057734 -0.441754 0.000000 
0.714655 -0.236587 0.000000 
0.761092 0.474151 0.000000 
0.765897 -0.127698 0.000000 
-0.641556 0.130780 0.000000 
-0.677748 0.916525 0.000000 
0.067979 -0.945271 0.000000 
0.178789 -0.287845 0.000000 
-0.514316 0.178389 0.000000 
0.053800 0.450520 0.000000 
-0.028512 -0.732119 0.000000 
0.647393 -0.524593 0.000000 
0.691820 0.205890 0.000000 
-0.522510 0.304434 0.000000 
-0.393446 0.940164 0.000000 
0.205471 0.484477 0.000000 
0.760780 0.762292 0.000000 
0.642413 -0.398727 0.000000 
-0.714996 -0.165270 0.000000 
-0.724017 0.611134 0.000000 
0.006894 0.774767 0.000000 
0.083078 -0.522709 0.000000 
0.897068 -0.455856 0.000000 
-0.965681 0.168173 0.000000 
-0.761262 0.518525 0.000000 
0.142083 -0.342213 0.000000 
0.397202 0.319062 0.000000 
-0.108942 0.799902 0.000000 
-0.899809 0.804753 0.000000 
-0.724964 -0.552999 0.000000 
0.660903 -0.092478 0.000000 
-0.978194 0.599147 0.000000 
0.595936 -0.900988 0.000000 
0.071546 -0.043812 0.000000 
0.220880 0.587113 0.000000 
-0.445811 -0.970101 0.000000 
-0.180633 -0.291941 0.000000 
-0.702895 0.199578 0.000000 
-0.287229 0.898906 0.000000 
-0.685384 -0.599935 0.000000 
-0.957100 -0.892377 0.000000 
-0.820030 -0.268305 0.000000 
0.474522 0.158688 0.000000 
0.699407 0.825967 0.000000 
0.109248 -0.697277 0.000000 
0.441768 -0.001826 0.000000 
-0.039645 0.498045 0.000000 
0.417537 -0.799393 0.000000 
0.033296 -0.298883 0.000000 
-0.338794 -0.031609 0.000000 
-0.374519 0.541353 0.000000 
-0.713312 -0.839217 0.000000 
0.609100 -0.950358 0.000000 
-0.381900 -0.836419 0.000000 
-0.756418 -0.294026 0.000000 
0.513962 -0.505512 0.000000 
0.218274 0.218727 0.000000 
-0.423588 0.184623 0.000000 
-0.384386 -0.200650 0.000000 
-0.766286 0.313971 0.000000 
0.484677 0.048755 0.000000 
0.139443 0.686880 0.000000 
-0.556234 0.569311 0.000000 
-0.823577 -0.657185 0.000000 
0.550868 -0.667980 0.000000 
-0.386873 0.435120 0.000000 
-0.771260 0.935509 0.000000 
0.467428 0.628980 0.000000 
0.105264 -0.772393 0.000000 
-0.621631 -0.954292 0.000000 
-0.937896 -0.250712 0.000000 
0.385608 -0.329908 0.000000 
0.141715 0.479320 0.000000 
-0.474677 0.479417 0.000000 
CELL_DATA 175 
SCALARS MASS float 
LOOKUP_TABLE default 
0.078183 
0.086427 
0.094672 
0.086427 
0.088131 
0.092111 
0.085854 
0.092111 
0.088131 
0.088705 
0.091000 
0.086983 
0.091556 
0.086983 
0.091000 
0.088705 
0.089278 
0.091574 
0.089278 
0.092722 
0.089278 
0.092722 
0.089278 
0.091574 
0.089278 
0.078183 
0.086427 
0.094672 
0.086427 
0.088131 
0.092111 
0.085854 
0.092111 
0.088131 
0.088705 
0.091000 
0.086983 
0.091556 
0.086983 
0.091000 
0.088705 
0.089278 
0.091574 
0.089278 
0.092722 
0.089278 
0.092722 
0.089278 
0.091574 
0.089278 
0.078183 
0.086427 
0.094672 
0.086427 
0.088131 
0.092111 
0.085854 
0.092111 
0.088131 
0.088705 
0.091000 
0.086983 
0.091556 
0.086983 
0.091000 
0.088705 
0.089278 
0.091574 
0.089278 
0.092722 
0.089278 
0.092722 
0.089278 
0.091574 
0.089278 
0.078183 
0.086427 
0.094672 
0.086427 
0.088131 
0.092111 
0.085854 
0.092111 
0.088131 
0.088705 
0.091000 
0.086983 
0.091556 
0.086983 
0.091000 
0.088705 
0.089278 
0.091574 
0.089278 
0.092722 
0.089278 
0.092722 
0.089278 
0.091574 
0.089278 
0.078183 
0.086427 
0.094672 
0.086427 
0.088131 
0.092111 
0.085854 
0.092111 
0.088131 
0.088705 
0.091000 
0.086983 
0.091556 
0.086983 
0.091000 
0.088705 
0.089278 
0.091574 
0.089278 
0.092722 
0.089278 
0.092722 
0.089278 
0.091574 
0.089278 
0.078183 
0.086427 
0.094672 
0.086427 
0.088131 
0.092111 
0.085854 
0.092111 
0.088131 
0.088705 
0.091000 
0.086983 
0.091556 
0.086983 
0.091000 
0.088705 
0.089278 
0.091574 
0.089278 
0.092722 
0.089278 
0.092722 
0.089278 
0.091574 
0.089278 
0.078183 
0.086427 
0.094672 
0.086427 
0.088131 
0.092111 
0.085854 
0.092111 
0.088131 
0.088705 
0.091000 
0.086983 
0.091556 
0.086983 
0.091000 
0.088705 
0.089278 
0.091574 
0.089278 
0.092722 
0.089278 
0.092722 
0.089278 
0.091574 
0.089278 
SCALARS MASS float 
LOOKUP_TABLE default 
0.078183 
0.086427 
0.094672 
0.086427 
0.088131 
0.092111 
0.085854 
0.092111 
0.088131 
0.088705 
0.091000 
0.086983 
0.091556 
0.086983 
0.091000 
0.088705 
0.089278 
0.091574 
0.089278 
0.092722 
0.089278 
0.092722 
0.089278 
0.091574 
0.089278 
0.078183 
0.086427 
0.094672 
0.086427 
0.088131 
0.092111 
0.085854 
0.092111 
0.088131 
0.088705 
0.091000 
0.086983 
0.091556 
0.086983 
0.091000 
0.088705 
0.089278 
0.091574 
0.089278 
0.092722 
0.089278 
0.092722 
0.089278 
0.091574 
0.089278 
0.078183 
0.086427 
0.094672 
0.086427 
0.088131 
0.092111 
0.085854 
0.092111 
0.088131 
0.088705 
0.091000 
0.086983 
0.091556 
0.086983 
0.091000 
0.088705 
0.089278 
0.091574 
0.089278 
0.092722 
0.089278 
0.092722 
0.089278 
0.091574 
0.089278 
0.078183 
0.086427 
0.094672 
0.086427 
0.088131 
0.092111 
0.085854 
0.092111 
0.088131 
0.088705 
0.091000 
0.086983 
0.091556 
0.086983 
0.091000 
0.088705 
0.089278 
0.091574 
0.089278 
0.092722 
0.089278 
0.092722 
0.089278 
0.091574 
0.089278 
0.078183 
0.086427 
0.094672 
0.086427 
0.088131 
0.092111 
0.085854 
0.092111 
0.088131 
0.088705 
0.091000 
0.086983 
0.091556 
0.086983 
0.091000 
0.088705 
0.089278 
0.091574 
0.089278 
0.092722 
0.089278 
0.092722 
0.089278 
0.091574 
0.089278 
0.078183 
0.086427 
0.094672 
0.086427 
0.088131 
0.092111 
0.085854 
0.092111 
0.088131 
0.088705 
0.091000 
0.086983 
0.091556 
0.086983 
0.091000 
0.088705 
0.089278 
0.091574 
0.089278 
0.092722 
0.089278 
0.092722 
0.089278 
0.091574 
0.089278 
0.078183 
0.086427 
0.094672 
0.086427 
0.088131 
0.092111 
0.085854 
0.092111 
0.088131 
0.088705 
0.091000 
0.086983 
0.091556 
0.086983 
0.091000 
0.088705 
0.089278 
0.091574 
0.089278 
0.092722 
0.089278 
0.092722 
0.089278 
0.091574 
0.089278 
SCALARS DENSITY float 
LOOKUP_TABLE default 
20.000000 
20.000000 
20.000000 
20.000000 
20.000000 
20.000000 
20.000000 
20.000000 
20.000000 
20.000000 
20.000000 
20.000000 
20.000000 
20.000000 
20.000000 
20.000000 
20.000000 
20.000000 
20.000000 
20.000000 
20.000000 
20.000000 
20.000000 
20.000000 
20.000000 
20.000000 
20.000000 
20.000000 
20.000000 
20.000000 
20.000000 
20.000000 
20.000000 
20.000000 
20.000000 
20.000000 
20.000000 
20.000000 
20.000000 
20.000000 
20.000000 
20.000000 
20.000000 
20.000000 
20.000000 
20.000000 
20.000000 
20.000000 
20.000000 
20.000000 
20.000000 
20.000000 
20.000000 
20.000000 
20.000000 
20.000000 
20.000000 
20.000000 
20.000000 
20.000000 
20.000000 
20.000000 
20.000000 
20.000000 
20.000000 
20.000000 
20.000000 
20.000000 
20.000000 
20.000000 
20.000000 
20.000000 
20.000000 
20.000000 
20.000000 
20.000000 
20.000000 
20.000000 
20.000000 
20.000000 
20.000000 
20.000000 
20.000000 
20.000000 
20.000000 
20.000000 
20.000000 
20.000000 
20.000000 
20.000000 
20.000000 
20.000000 
20.000000 
20.000000 
20.000000 
20.000000 
20.000000 
20.000000 
20.000000 
20.000000 
20.000000 
20.000000 
20.000000 
20.000000 
20.000000 
20.000000 
20.000000 
20.000000 
20.000000 
20.000000 
20.000000 
20.000000 
20.000000 
20.000000 
20.000000 
20.000000 
20.000000 
20.000000 
20.000000 
20.000000 
20.000000 
20.000000 
20.000000 
20.000000 
20.000000 
20.000000 
20.000000 
20.000000 
20.000000 
20.000000 
20.000000 
20.000000 
20.000000 
20.000000 
20.000000 
20.000000 
20.000000 
20.000000 
20.000000 
20.000000 
20.000000 
20.000000 
20.000000 
20.000000 
20.000000 
20.000000 
20.000000 
20.000000 
20.000000 
20.000000 
20.000000 
20.000000 
20.000000 
20.000000 
20.000000 
20.000000 
20.000000 
20.000000 
20.000000 
20.000000 
20.000000 
20.000000 
20.000000 
20.000000 
20.000000 
20.000000 
20.000000 
20.000000 
20.000000 
20.000000 
20.000000 
20.000000 
20.000000 
20.000000 
20.000000 
SCALARS ELEM_i float 
LOOKUP_TABLE default 
167 
194 
167 
168 
195 
195 
195 
168 
168 
222 
195 
196 
196 
196 
169 
169 
223 
223 
223 
196 
196 
196 
197 
170 
170 
167 
194 
194 
194 
220 
194 
221 
194 
195 
220 
221 
221 
221 
221 
222 
222 
247 
247 
248 
248 
248 
249 
249 
222 
222 
166 
193 
193 
193 
192 
192 
193 
193 
220 
192 
192 
219 
219 
219 
220 
220 
191 
218 
218 
219 
219 
219 
246 
247 
247 
166 
166 
166 
166 
138 
165 
165 
165 
192 
137 
138 
164 
164 
164 
192 
191 
137 
137 
137 
164 
164 
164 
191 
191 
191 
166 
139 
139 
139 
112 
139 
139 
138 
138 
112 
112 
111 
111 
111 
138 
138 
85 
85 
84 
111 
111 
111 
110 
110 
137 
167 
140 
140 
140 
141 
140 
113 
140 
112 
114 
114 
113 
113 
113 
113 
112 
114 
114 
87 
87 
86 
86 
86 
85 
85 
167 
168 
167 
140 
168 
168 
141 
141 
141 
169 
169 
142 
142 
142 
141 
114 
170 
170 
143 
142 
142 
142 
115 
115 
115 
VECTORS VELOCITY float 
0.000000 -6.624497 0.000000 
0.000000 -6.624497 0.000000 
0.000000 -6.624497 0.000000 
0.000000 -6.624497 0.000000 
0.000000 -6.624497 0.000000 
0.000000 -6.624497 0.000000 
0.000000 -6.624497 0.000000 
0.000000 -6.624497 0.000000 
0.000000 -6.624497 0.000000 
0.000000 -6.624497 0.000000 
0.000000 -6.624497 0.000000 
-0.000000 -6.624497 0.000000 
-0.000000 -6.624497 0.000000 
-0.000000 -6.624497 0.000000 
0.000000 -6.624497 0.000000 
-0.000000 -6.624497 0.000000 
0.000000 -6.624497 0.000000 
-0.000000 -6.624497 0.000000 
0.000000 -6.624497 0.000000 
0.000000 -6.624497 0.000000 
-0.000000 -6.624497 0.000000 
-0.000000 -6.624497 0.000000 
-0.000000 -6.624497 0.000000 
-0.000000 -6.624497 0.000000 
-0.000000 -6.624497 0.000000 
0.000000 -6.624497 0.000000 
0.000000 -6.624497 0.000000 
0.000000 -6.624497 0.000000 
-0.000000 -6.624497 0.000000 
-0.000000 -6.624497 0.000000 
-0.000000 -6.624497 0.000000 
-0.000000 -6.624497 0.000000 
-0.000000 -6.624497 0.000000 
0.000000 -6.624497 0.000000 
-0.000000 -6.624497 0.000000 
-0.000000 -6.624497 0.000000 
0.000000 -6.624497 0.000000 
0.000000 -6.624497 0.000000 
-0.000000 -6.624497 0.000000 
0.000000 -6.624497 0.000000 
0.000000 -6.624497 0.000000 
0.000000 -6.624497 0.000000 
0.000000 -6.624497 0.000000 
-0.000000 -6.624497 0.000000 
-0.000000 -6.624497 0.000000 
-0.000000 -6.624497 0.000000 
-0.000000 -6.624497 0.000000 
-0.000000 -6.624497 0.000000 
-0.000000 -6.624497 0.000000 
0.000000 -6.624497 0.000000 
0.000000 -6.624497 0.000000 
-0.000000 -6.624497 0.000000 
0.000000 -6.624497 0.000000 
0.000000 -6.624497 0.000000 
0.000000 -6.624497 0.000000 
0.000000 -6.624497 0.000000 
0.000000 -6.624497 0.000000 
0.000000 -6.624497 0.000000 
0.000000 -6.624497 0.000000 
-0.000000 -6.624497 0.000000 
-0.000000 -6.624497 0.000000 
-0.000000 -6.624497 0.000000 
0.000000 -6.624497 0.000000 
0.000000 -6.624497 0.000000 
0.000000 -6.624497 0.000000 
0.000000 -6.624497 0.000000 
0.000000 -6.624497 0.000000 
-0.000000 -6.624497 0.000000 
0.000000 -6.624497 0.000000 
0.000000 -6.624497 0.000000 
0.000000 -6.624497 0.000000 
-0.000000 -6.624497 0.000000 
-0.000000 -6.624497 0.000000 
0.000000 -6.624497 0.000000 
0.000000 -6.624497 0.000000 
0.000000 -6.624497 0.000000 
0.000000 -6.624497 0.000000 
-0.000000 -6.624497 0.000000 
-0.000000 -6.624497 0.000000 
-0.000000 -6.624497 0.000000 
-0.000000 -6.624497 0.000000 
-0.000000 -6.624497 0.000000 
-0.000000 -6.624497 0.000000 
0.000000 -6.624497 0.000000 
0.000000 -6.624497 0.000000 
-0.000000 -6.624497 0.000000 
0.000000 -6.624497 0.000000 
-0.000000 -6.624497 0.000000 
-0.000000 -6.624497 0.000000 
-0.000000 -6.624497 0.000000 
-0.000000 -6.624497 0.000000 
-0.000000 -6.624497 0.000000 
-0.000000 -6.624497 0.000000 
0.000000 -6.624497 0.000000 
0.000000 -6.624497 0.000000 
-0.000000 -6.624497 0.000000 
0.000000 -6.624497 0.000000 
-0.000000 -6.624497 0.000000 
-0.000000 -6.624497 0.000000 
0.000000 -6.624497 0.000000 
-0.000000 -6.624497 0.000000 
0.000000 -6.624497 0.000000 
0.000000 -6.624497 0.000000 
0.000000 -6.624497 0.000000 
0.000000 -6.624497 0.000000 
0.000000 -6.624497 0.000000 
0.000000 -6.624497 0.000000 
-0.000000 -6.624497 0.000000 
-0.000000 -6.624497 0.000000 
-0.000000 -6.624497 0.000000 
-0.000000 -6.624497 0.000000 
-0.000000 -6.624497 0.000000 
-0.000000 -6.624497 0.000000 
-0.000000 -6.624497 0.000000 
-0.000000 -6.624497 0.000000 
-0.000000 -6.624497 0.000000 
-0.000000 -6.624497 0.000000 
-0.000000 -6.624497 0.000000 
-0.000000 -6.624497 0.000000 
-0.000000 -6.624497 0.000000 
-0.000000 -6.624497 0.000000 
-0.000000 -6.624497 0.000000 
-0.000000 -6.624497 0.000000 
0.000000 -6.624497 0.000000 
-0.000000 -6.624497 0.000000 
-0.000000 -6.624497 0.000000 
0.000000 -6.624497 0.000000 
-0.000000 -6.624497 0.000000 
-0.000000 -6.624497 0.000000 
-0.000000 -6.624497 0.000000 
-0.000000 -6.624497 0.000000 
-0.000000 -6.624497 0.000000 
0.000000 -6.624497 0.000000 
0.000000 -6.624497 0.000000 
0.000000 -6.624497 0.000000 
0.000000 -6.624497 0.000000 
0.000000 -6.624497 0.000000 
0.000000 -6.624497 0.000000 
0.000000 -6.624497 0.000000 
-0.000000 -6.624497 0.000000 
-0.000000 -6.624497 0.000000 
-0.000000 -6.624497 0.000000 
0.000000 -6.624497 0.000000 
0.000000 -6.624497 0.000000 
0.000000 -6.624497 0.000000 
-0.000000 -6.624497 0.000000 
-0.000000 -6.624497 0.000000 
-0.000000 -6.624497 0.000000 
-0.000000 -6.624497 0.000000 
0.000000 -6.624497 0.000000 
0.000000 -6.624497 0.000000 
0.000000 -6.624497 0.000000 
0.000000 -6.624497 0.000000 
0.000000 -6.624497 0.000000 
0.000000 -6.624497 0.000000 
0.000000 -6.624497 0.000000 
0.000000 -6.624497 0.000000 
0.000000 -6.624497 0.000000 
0.000000 -6.624497 0.000000 
-0.000000 -6.624497 0.000000 
0.000000 -6.624497 0.000000 
0.000000 -6.624497 0.000000 
0.000000 -6.624497 0.000000 
0.000000 -6.624497 0.000000 
0.000000 -6.624497 0.000000 
0.000000 -6.624497 0.000000 
0.000000 -6.624497 0.000000 
0.000000 -6.624497 0.000000 
0.000000 -6.624497 0.000000 
-0.000000 -6.624497 0.000000 
0.000000 -6.624497 0.000000 
-0.000000 -6.624497 0.000000 
0.000000 -6.624497 0.000000 
0.000000 -6.624497 0.000000 
0.000000 -6.624497 0.000000 
TENSORS STRESS float 
-0.000000 0.000000 0.000000 
0.000000 0.000000 0.000000 
0.000000 0.000000 0.000000 

0.000000 -0.000000 0.000000 
0.000000 0.000000 0.000000 
0.000000 0.000000 0.000000 

0.000000 0.000000 0.000000 
0.000000 -0.000000 0.000000 
0.000000 0.000000 0.000000 

0.000000 0.000000 0.000000 
0.000000 -0.000000 0.000000 
0.000000 0.000000 0.000000 

0.000000 0.000000 0.000000 
0.000000 0.000000 0.000000 
0.000000 0.000000 0.000000 

0.000000 0.000000 0.000000 
0.000000 0.000000 0.000000 
0.000000 0.000000 0.000000 

0.000000 0.000000 0.000000 
0.000000 0.000000 0.000000 
0.000000 0.000000 0.000000 

0.000000 -0.000000 0.000000 
0.000000 0.000000 0.000000 
0.000000 0.000000 0.000000 

-0.000000 0.000000 0.000000 
0.000000 -0.000000 0.000000 
0.000000 0.000000 0.000000 

0.000000 -0.000000 0.000000 
0.000000 0.000000 0.000000 
0.000000 0.000000 0.000000 

-0.000000 0.000000 0.000000 
0.000000 -0.000000 0.000000 
0.000000 0.000000 0.000000 

0.000000 0.000000 0.000000 
0.000000 0.000000 0.000000 
0.000000 0.000000 0.000000 

-0.000000 -0.000000 0.000000 
0.000000 -0.000000 0.000000 
0.000000 0.000000 0.000000 

-0.000000 0.000000 0.000000 
0.000000 -0.000000 0.000000 
0.000000 0.000000 0.000000 

0.000000 -0.000000 0.000000 
0.000000 0.000000 0.000000 
0.000000 0.000000 0.000000 

-0.000000 0.000000 0.000000 
0.000000 -0.000000 0.000000 
0.000000 0.000000 0.000000 

-0.000000 0.000000 0.000000 
0.000000 0.000000 0.000000 
0.000000 0.000000 0.000000 

-0.000000 0.000000 0.000000 
0.000000 0.000000 0.000000 
0.000000 0.000000 0.000000 

0.000000 -0.000000 0.000000 
0.000000 0.000000 0.000000 
0.000000 0.000000 0.000000 

-0.000000 0.000000 0.000000 
0.000000 -0.000000 0.000000 
0.000000 0.000000 0.000000 

-0.000000 -0.000000 0.000000 
0.000000 0.000000 0.000000 
0.000000 0.000000 0.000000 

-0.000000 -0.000000 0.000000 
0.000000 -0.000000 0.000000 
0.000000 0.000000 0.000000 

-0.000000 -0.000000 0.000000 
0.000000 -0.000000 0.000000 
0.000000 0.000000 0.000000 

-0.000000 0.000000 0.000000 
0.000000 -0.000000 0.000000 
0.000000 0.000000 0.000000 

-0.000000 0.000000 0.000000 
0.000000 -0.000000 0.000000 
0.000000 0.000000 0.000000 

0.000000 0.000000 0.000000 
0.000000 0.000000 0.000000 
0.000000 0.000000 0.000000 

0.000000 -0.000000 0.000000 
0.000000 0.000000 0.000000 
0.000000 0.000000 0.000000 

0.000000 -0.000000 0.000000 
0.000000 0.000000 0.000000 
0.000000 0.000000 0.000000 

0.000000 -0.000000 0.000000 
0.000000 0.000000 0.000000 
0.000000 0.000000 0.000000 

0.000000 0.000000 0.000000 
0.000000 0.000000 0.000000 
0.000000 0.000000 0.000000 

0.000000 -0.000000 0.000000 
0.000000 -0.000000 0.000000 
0.000000 0.000000 0.000000 

-0.000000 -0.000000 0.000000 
0.000000 -0.000000 0.000000 
0.000000 0.000000 0.000000 

-0.000000 0.000000 0.000000 
0.000000 -0.000000 0.000000 
0.000000 0.000000 0.000000 

0.000000 -0.000000 0.000000 
0.000000 0.000000 0.000000 
0.000000 0.000000 0.000000 

-0.000000 0.000000 0.000000 
0.000000 -0.000000 0.000000 
0.000000 0.000000 0.000000 

-0.000000 -0.000000 0.000000 
0.000000 -0.000000 0.000000 
0.000000 0.000000 0.000000 

0.000000 0.000000 0.000000 
0.000000 0.000000 0.000000 
0.000000 0.000000 0.000000 

0.000000 0.000000 0.000000 
0.000000 0.000000 0.000000 
0.000000 0.000000 0.000000 

0.000000 -0.000000 0.000000 
0.000000 -0.000000 0.000000 
0.000000 0.000000 0.000000 

0.000000 0.000000 0.000000 
0.000000 0.000000 0.000000 
0.000000 0.000000 0.000000 

0.000000 0.000000 0.000000 
0.000000 0.000000 0.000000 
0.000000 0.000000 0.000000 

0.000000 -0.000000 0.000000 
0.000000 0.000000 0.000000 
0.000000 0.000000 0.000000 

0.000000 -0.000000 0.000000 
0.000000 0.000000 0.000000 
0.000000 0.000000 0.000000 

-0.000000 -0.000000 0.000000 
0.000000 -0.000000 0.000000 
0.000000 0.000000 0.000000 

-0.000000 0.000000 0.000000 
0.000000 -0.000000 0.000000 
0.000000 0.000000 0.000000 

-0.000000 -0.000000 0.000000 
0.000000 -0.000000 0.000000 
0.000000 0.000000 0.000000 

-0.000000 -0.000000 0.000000 
0.000000 0.000000 0.000000 
0.000000 0.000000 0.000000 

-0.000000 -0.000000 0.000000 
0.000000 -0.000000 0.000000 
0.000000 0.000000 0.000000 

-0.000000 0.000000 0.000000 
0.000000 -0.000000 0.000000 
0.000000 0.000000 0.000000 

0.000000 0.000000 0.000000 
0.000000 0.000000 0.000000 
0.000000 0.000000 0.000000 

0.000000 0.000000 0.000000 
0.000000 0.000000 0.000000 
0.000000 0.000000 0.000000 

0.000000 -0.000000 0.000000 
0.000000 0.000000 0.000000 
0.000000 0.000000 0.000000 

-0.000000 -0.000000 0.000000 
0.000000 -0.000000 0.000000 
0.000000 0.000000 0.000000 

-0.000000 0.000000 0.000000 
0.000000 -0.000000 0.000000 
0.000000 0.000000 0.000000 

-0.000000 0.000000 0.000000 
0.000000 -0.000000 0.000000 
0.000000 0.000000 0.000000 

-0.000000 -0.000000 0.000000 
0.000000 -0.000000 0.000000 
0.000000 0.000000 0.000000 

-0.000000 0.000000 0.000000 
0.000000 -0.000000 0.000000 
0.000000 0.000000 0.000000 

-0.000000 0.000000 0.000000 
0.000000 0.000000 0.000000 
0.000000 0.000000 0.000000 

0.000000 -0.000000 0.000000 
0.000000 0.000000 0.000000 
0.000000 0.000000 0.000000 

-0.000000 -0.000000 0.000000 
0.000000 -0.000000 0.000000 
0.000000 0.000000 0.000000 

0.000000 -0.000000 0.000000 
0.000000 0.000000 0.000000 
0.000000 0.000000 0.000000 

-0.000000 -0.000000 0.000000 
0.000000 0.000000 0.000000 
0.000000 0.000000 0.000000 

0.000000 -0.000000 0.000000 
0.000000 0.000000 0.000000 
0.000000 0.000000 0.000000 

-0.000000 -0.000000 0.000000 
0.000000 -0.000000 0.000000 
0.000000 0.000000 0.000000 

0.000000 -0.000000 0.000000 
0.000000 -0.000000 0.000000 
0.000000 0.000000 0.000000 

0.000000 0.000000 0.000000 
0.000000 -0.000000 0.000000 
0.000000 0.000000 0.000000 

-0.000000 -0.000000 0.000000 
0.000000 -0.000000 0.000000 
0.000000 0.000000 0.000000 

0.000000 -0.000000 0.000000 
0.000000 0.000000 0.000000 
0.000000 0.000000 0.000000 

0.000000 -0.000000 0.000000 
0.000000 -0.000000 0.000000 
0.000000 0.000000 0.000000 

0.000000 0.000000 0.000000 
0.000000 0.000000 0.000000 
0.000000 0.000000 0.000000 

-0.000000 0.000000 0.000000 
0.000000 0.000000 0.000000 
0.000000 0.000000 0.000000 

-0.000000 -0.000000 0.000000 
0.000000 -0.000000 0.000000 
0.000000 0.000000 0.000000 

-0.000000 -0.000000 0.000000 
0.000000 -0.000000 0.000000 
0.000000 0.000000 0.000000 

0.000000 0.000000 0.000000 
0.000000 0.000000 0.000000 
0.000000 0.000000 0.000000 

0.000000 0.000000 0.000000 
0.000000 0.000000 0.000000 
0.000000 0.000000 0.000000 

0.000000 0.000000 0.000000 
0.000000 -0.000000 0.000000 
0.000000 0.000000 0.000000 

0.000000 0.000000 0.000000 
0.000000 0.000000 0.000000 
0.000000 0.000000 0.000000 

0.000000 -0.000000 0.000000 
0.000000 0.000000 0.000000 
0.000000 0.000000 0.000000 

0.000000 -0.000000 0.000000 
0.000000 0.000000 0.000000 
0.000000 0.000000 0.000000 

0.000000 0.000000 0.000000 
0.000000 0.000000 0.000000 
0.000000 0.000000 0.000000 

0.000000 0.000000 0.000000 
0.000000 -0.000000 0.000000 
0.000000 0.000000 0.000000 

0.000000 0.000000 0.000000 
0.000000 -0.000000 0.000000 
0.000000 0.000000 0.000000 

0.000000 0.000000 0.000000 
0.000000 0.000000 0.000000 
0.000000 0.000000 0.000000 

0.000000 -0.000000 0.000000 
0.000000 0.000000 0.000000 
0.000000 0.000000 0.000000 

-0.000000 -0.000000 0.000000 
0.000000 -0.000000 0.000000 
0.000000 0.000000 0.000000 

0.000000 -0.000000 0.000000 
0.000000 -0.000000 0.000000 
0.000000 0.000000 0.000000 

0.000000 0.000000 0.000000 
0.000000 0.000000 0.000000 
0.000000 0.000000 0.000000 

-0.000000 -0.000000 0.000000 
0.000000 -0.000000 0.000000 
0.000000 0.000000 0.000000 

0.000000 0.000000 0.000000 
0.000000 0.000000 0.000000 
0.000000 0.000000 0.000000 

-0.000000 -0.000000 0.000000 
0.000000 -0.000000 0.000000 
0.000000 0.000000 0.000000 

0.000000 -0.000000 0.000000 
0.000000 -0.000000 0.000000 
0.000000 0.000000 0.000000 

-0.000000 0.000000 0.000000 
0.000000 -0.000000 0.000000 
0.000000 0.000000 0.000000 

0.000000 0.000000 0.000000 
0.000000 0.000000 0.000000 
0.000000 0.000000 0.000000 

0.000000 0.000000 0.000000 
0.000000 -0.000000 0.000000 
0.000000 0.000000 0.000000 

0.000000 0.000000 0.000000 
0.000000 0.000000 0.000000 
0.000000 0.000000 0.000000 

0.000000 0.000000 0.000000 
0.000000 0.000000 0.000000 
0.000000 0.000000 0.000000 

0.000000 0.000000 0.000000 
0.000000 -0.000000 0.000000 
0.000000 0.000000 0.000000 

-0.000000 0.000000 0.000000 
0.000000 -0.000000 0.000000 
0.000000 0.000000 0.000000 

-0.000000 -0.000000 0.000000 
0.000000 -0.000000 0.000000 
0.000000 0.000000 0.000000 

0.000000 0.000000 0.000000 
0.000000 0.000000 0.000000 
0.000000 0.000000 0.000000 

0.000000 0.000000 0.000000 
0.000000 0.000000 0.000000 
0.000000 0.000000 0.000000 

-0.000000 0.000000 0.000000 
0.000000 0.000000 0.000000 
0.000000 0.000000 0.000000 

0.000000 0.000000 0.000000 
0.000000 0.000000 0.000000 
0.000000 0.000000 0.000000 

0.000000 0.000000 0.000000 
0.000000 0.000000 0.000000 
0.000000 0.000000 0.000000 

-0.000000 0.000000 0.000000 
0.000000 -0.000000 0.000000 
0.000000 0.000000 0.000000 

0.000000 -0.000000 0.000000 
0.000000 0.000000 0.000000 
0.000000 0.000000 0.000000 

0.000000 0.000000 0.000000 
0.000000 0.000000 0.000000 
0.000000 0.000000 0.000000 

0.000000 -0.000000 0.000000 
0.000000 0.000000 0.000000 
0.000000 0.000000 0.000000 

0.000000 -0.000000 0.000000 
0.000000 0.000000 0.000000 
0.000000 0.000000 0.000000 

-0.000000 -0.000000 0.000000 
0.000000 -0.000000 0.000000 
0.000000 0.000000 0.000000 

-0.000000 -0.000000 0.000000 
0.000000 0.000000 0.000000 
0.000000 0.000000 0.000000 

-0.000000 -0.000000 0.000000 
0.000000 -0.000000 0.000000 
0.000000 0.000000 0.000000 

-0.000000 0.000000 0.000000 
0.000000 -0.000000 0.000000 
0.000000 0.000000 0.000000 

-0.000000 0.000000 0.000000 
0.000000 -0.000000 0.000000 
0.000000 0.000000 0.000000 

0.000000 -0.000000 0.000000 
0.000000 0.000000 0.000000 
0.000000 0.000000 0.000000 

0.000000 -0.000000 0.000000 
0.000000 0.000000 0.000000 
0.000000 0.000000 0.000000 

0.000000 -0.000000 0.000000 
0.000000 0.000000 0.000000 
0.000000 0.000000 0.000000 

-0.000000 -0.000000 0.000000 
0.000000 -0.000000 0.000000 
0.000000 0.000000 0.000000 

0.000000 0.000000 0.000000 
0.000000 0.000000 0.000000 
0.000000 0.000000 0.000000 

-0.000000 -0.000000 0.000000 
0.000000 -0.000000 0.000000 
0.000000 0.000000 0.000000 

-0.000000 0.000000 0.000000 
0.000000 0.000000 0.000000 
0.000000 0.000000 0.000000 

0.000000 0.000000 0.000000 
0.000000 0.000000 0.000000 
0.000000 0.000000 0.000000 

-0.000000 -0.000000 0.000000 
0.000000 -0.000000 0.000000 
0.000000 0.000000 0.000000 

0.000000 0.000000 0.000000 
0.000000 0.000000 0.000000 
0.000000 0.000000 0.000000 

0.000000 0.000000 0.000000 
0.000000 0.000000 0.000000 
0.000000 0.000000 0.000000 

0.000000 -0.000000 0.000000 
0.000000 0.000000 0.000000 
0.000000 0.000000 0.000000 

0.000000 0.000000 0.000000 
0.000000 0.000000 0.000000 
0.000000 0.000000 0.000000 

-0.000000 -0.000000 0.000000 
0.000000 -0.000000 0.000000 
0.000000 0.000000 0.000000 

-0.000000 -0.000000 0.000000 
0.000000 -0.000000 0.000000 
0.000000 0.000000 0.000000 

-0.000000 0.000000 0.000000 
0.000000 -0.000000 0.000000 
0.000000 0.000000 0.000000 

0.000000 0.000000 0.000000 
0.000000 0.000000 0.000000 
0.000000 0.000000 0.000000 

-0.000000 -0.000000 0.000000 
0.000000 -0.000000 0.000000 
0.000000 0.000000 0.000000 

-0.000000 -0.000000 0.000000 
0.000000 -0.000000 0.000000 
0.000000 0.000000 0.000000 

-0.000000 0.000000 0.000000 
0.000000 -0.000000 0.000000 
0.000000 0.000000 0.000000 

0.000000 0.000000 0.000000 
0.000000 0.000000 0.000000 
0.000000 0.000000 0.000000 

0.000000 0.000000 0.000000 
0.000000 0.000000 0.000000 
0.000000 0.000000 0.000000 

-0.000000 0.000000 0.000000 
0.000000 -0.000000 0.000000 
0.000000 0.000000 0.000000 

-0.000000 0.000000 0.000000 
0.000000 0.000000 0.000000 
0.000000 0.000000 0.000000 

-0.000000 0.000000 0.000000 
0.000000 -0.000000 0.000000 
0.000000 0.000000 0.000000 

0.000000 -0.000000 0.000000 
0.000000 0.000000 0.000000 
0.000000 0.000000 0.000000 

-0.000000 0.000000 0.000000 
0.000000 -0.000000 0.000000 
0.000000 0.000000 0.000000 

-0.000000 0.000000 0.000000 
0.000000 0.000000 0.000000 
0.000000 0.000000 0.000000 

0.000000 0.000000 0.000000 
0.000000 0.000000 0.000000 
0.000000 0.000000 0.000000 

0.000000 -0.000000 0.000000 
0.000000 -0.000000 0.000000 
0.000000 0.000000 0.000000 

-0.000000 0.000000 0.000000 
0.000000 -0.000000 0.000000 
0.000000 0.000000 0.000000 

-0.000000 0.000000 0.000000 
0.000000 0.000000 0.000000 
0.000000 0.000000 0.000000 

-0.000000 0.000000 0.000000 
0.000000 -0.000000 0.000000 
0.000000 0.000000 0.000000 

0.000000 -0.000000 0.000000 
0.000000 0.000000 0.000000 
0.000000 0.000000 0.000000 

0.000000 0.000000 0.000000 
0.000000 -0.000000 0.000000 
0.000000 0.000000 0.000000 

0.000000 0.000000 0.000000 
0.000000 0.000000 0.000000 
0.000000 0.000000 0.000000 

0.000000 -0.000000 0.000000 
0.000000 0.000000 0.000000 
0.000000 0.000000 0.000000 

0.000000 0.000000 0.000000 
0.000000 0.000000 0.000000 
0.000000 0.000000 0.000000 

0.000000 0.000000 0.000000 
0.000000 0.000000 0.000000 
0.000000 0.000000 0.000000 

-0.000000 0.000000 0.000000 
0.000000 0.000000 0.000000 
0.000000 0.000000 0.000000 

-0.000000 0.000000 0.000000 
0.000000 -0.000000 0.000000 
0.000000 0.000000 0.000000 

0.000000 -0.000000 0.000000 
0.000000 0.000000 0.000000 
0.000000 0.000000 0.000000 

0.000000 -0.000000 0.000000 
0.000000 0.000000 0.000000 
0.000000 0.000000 0.000000 

-0.000000 -0.000000 0.000000 
0.000000 -0.000000 0.000000 
0.000000 0.000000 0.000000 

0.000000 0.000000 0.000000 
0.000000 0.000000 0.000000 
0.000000 0.000000 0.000000 

-0.000000 -0.000000 0.000000 
0.000000 -0.000000 0.000000 
0.000000 0.000000 0.000000 

0.000000 -0.000000 0.000000 
0.000000 0.000000 0.000000 
0.000000 0.000000 0.000000 

-0.000000 -0.000000 0.000000 
0.000000 0.000000 0.000000 
0.000000 0.000000 0.000000 

-0.000000 -0.000000 0.000000 
0.000000 -0.000000 0.000000 
0.000000 0.000000 0.000000 

-0.000000 0.000000 0.000000 
0.000000 0.000000 0.000000 
0.000000 0.000000 0.000000 

0.000000 -0.000000 0.000000 
0.000000 0.000000 0.000000 
0.000000 0.000000 0.000000 

-0.000000 -0.000000 0.000000 
0.000000 -0.000000 0.000000 
0.000000 0.000000 0.000000 

-0.000000 0.000000 0.000000 
0.000000 -0.000000 0.000000 
0.000000 0.000000 0.000000 

-0.000000 -0.000000 0.000000 
0.000000 -0.000000 0.000000 
0.000000 0.000000 0.000000 

-0.000000 0.000000 0.000000 
0.000000 -0.000000 0.000000 
0.000000 0.000000 0.000000 

0.000000 0.000000 0.000000 
0.000000 0.000000 0.000000 
0.000000 0.000000 0.000000 

0.000000 0.000000 0.000000 
0.000000 0.000000 0.000000 
0.000000 0.000000 0.000000 

0.000000 0.000000 0.000000 
0.000000 0.000000 0.000000 
0.000000 0.000000 0.000000 

-0.000000 0.000000 0.000000 
0.000000 0.000000 0.000000 
0.000000 0.000000 0.000000 

-0.000000 0.000000 0.000000 
0.000000 -0.000000 0.000000 
0.000000 0.000000 0.000000 

-0.000000 0.000000 0.000000 
0.000000 -0.000000 0.000000 
0.000000 0.000000 0.000000 

TENSORS STRAIN float 
-0.000000 0.000000 0.000000 
0.000000 0.000000 0.000000 
0.000000 0.000000 0.000000 

0.000000 -0.000000 0.000000 
0.000000 0.000000 0.000000 
0.000000 0.000000 0.000000 

0.000000 0.000000 0.000000 
0.000000 -0.000000 0.000000 
0.000000 0.000000 0.000000 

0.000000 0.000000 0.000000 
0.000000 -0.000000 0.000000 
0.000000 0.000000 0.000000 

0.000000 0.000000 0.000000 
0.000000 0.000000 0.000000 
0.000000 0.000000 0.000000 

0.000000 0.000000 0.000000 
0.000000 0.000000 0.000000 
0.000000 0.000000 0.000000 

-0.000000 0.000000 0.000000 
0.000000 0.000000 0.000000 
0.000000 0.000000 0.000000 

0.000000 -0.000000 0.000000 
0.000000 0.000000 0.000000 
0.000000 0.000000 0.000000 

-0.000000 0.000000 0.000000 
0.000000 -0.000000 0.000000 
0.000000 0.000000 0.000000 

0.000000 -0.000000 0.000000 
0.000000 0.000000 0.000000 
0.000000 0.000000 0.000000 

0.000000 0.000000 0.000000 
0.000000 -0.000000 0.000000 
0.000000 0.000000 0.000000 

-0.000000 0.000000 0.000000 
0.000000 0.000000 0.000000 
0.000000 0.000000 0.000000 

-0.000000 -0.000000 0.000000 
0.000000 0.000000 0.000000 
0.000000 0.000000 0.000000 

-0.000000 0.000000 0.000000 
0.000000 -0.000000 0.000000 
0.000000 0.000000 0.000000 

0.000000 -0.000000 0.000000 
0.000000 -0.000000 0.000000 
0.000000 0.000000 0.000000 

0.000000 0.000000 0.000000 
0.000000 -0.000000 0.000000 
0.000000 0.000000 0.000000 

-0.000000 0.000000 0.000000 
0.000000 0.000000 0.000000 
0.000000 0.000000 0.000000 

-0.000000 0.000000 0.000000 
0.000000 0.000000 0.000000 
0.000000 0.000000 0.000000 

-0.000000 -0.000000 0.000000 
0.000000 0.000000 0.000000 
0.000000 0.000000 0.000000 

-0.000000 0.000000 0.000000 
0.000000 -0.000000 0.000000 
0.000000 0.000000 0.000000 

-0.000000 -0.000000 0.000000 
0.000000 0.000000 0.000000 
0.000000 0.000000 0.000000 

-0.000000 -0.000000 0.000000 
0.000000 -0.000000 0.000000 
0.000000 0.000000 0.000000 

-0.000000 -0.000000 0.000000 
0.000000 -0.000000 0.000000 
0.000000 0.000000 0.000000 

-0.000000 0.000000 0.000000 
0.000000 -0.000000 0.000000 
0.000000 0.000000 0.000000 

-0.000000 0.000000 0.000000 
0.000000 0.000000 0.000000 
0.000000 0.000000 0.000000 

0.000000 0.000000 0.000000 
0.000000 0.000000 0.000000 
0.000000 0.000000 0.000000 

0.000000 -0.000000 0.000000 
0.000000 0.000000 0.000000 
0.000000 0.000000 0.000000 

0.000000 -0.000000 0.000000 
0.000000 0.000000 0.000000 
0.000000 0.000000 0.000000 

0.000000 -0.000000 0.000000 
0.000000 0.000000 0.000000 
0.000000 0.000000 0.000000 

0.000000 0.000000 0.000000 
0.000000 0.000000 0.000000 
0.000000 0.000000 0.000000 

0.000000 -0.000000 0.000000 
0.000000 -0.000000 0.000000 
0.000000 0.000000 0.000000 

0.000000 -0.000000 0.000000 
0.000000 -0.000000 0.000000 
0.000000 0.000000 0.000000 

-0.000000 0.000000 0.000000 
0.000000 -0.000000 0.000000 
0.000000 0.000000 0.000000 

0.000000 -0.000000 0.000000 
0.000000 0.000000 0.000000 
0.000000 0.000000 0.000000 

0.000000 0.000000 0.000000 
0.000000 -0.000000 0.000000 
0.000000 0.000000 0.000000 

0.000000 -0.000000 0.000000 
0.000000 -0.000000 0.000000 
0.000000 0.000000 0.000000 

0.000000 0.000000 0.000000 
0.000000 -0.000000 0.000000 
0.000000 0.000000 0.000000 

0.000000 0.000000 0.000000 
0.000000 0.000000 0.000000 
0.000000 0.000000 0.000000 

0.000000 -0.000000 0.000000 
0.000000 -0.000000 0.000000 
0.000000 0.000000 0.000000 

0.000000 0.000000 0.000000 
0.000000 0.000000 0.000000 
0.000000 0.000000 0.000000 

0.000000 0.000000 0.000000 
0.000000 0.000000 0.000000 
0.000000 0.000000 0.000000 

0.000000 -0.000000 0.000000 
0.000000 0.000000 0.000000 
0.000000 0.000000 0.000000 

0.000000 -0.000000 0.000000 
0.000000 0.000000 0.000000 
0.000000 0.000000 0.000000 

-0.000000 -0.000000 0.000000 
0.000000 -0.000000 0.000000 
0.000000 0.000000 0.000000 

-0.000000 0.000000 0.000000 
0.000000 -0.000000 0.000000 
0.000000 0.000000 0.000000 

-0.000000 -0.000000 0.000000 
0.000000 -0.000000 0.000000 
0.000000 0.000000 0.000000 

-0.000000 -0.000000 0.000000 
0.000000 0.000000 0.000000 
0.000000 0.000000 0.000000 

0.000000 -0.000000 0.000000 
0.000000 -0.000000 0.000000 
0.000000 0.000000 0.000000 

0.000000 0.000000 0.000000 
0.000000 -0.000000 0.000000 
0.000000 0.000000 0.000000 

-0.000000 0.000000 0.000000 
0.000000 0.000000 0.000000 
0.000000 0.000000 0.000000 

0.000000 0.000000 0.000000 
0.000000 0.000000 0.000000 
0.000000 0.000000 0.000000 

-0.000000 -0.000000 0.000000 
0.000000 0.000000 0.000000 
0.000000 0.000000 0.000000 

-0.000000 -0.000000 0.000000 
0.000000 -0.000000 0.000000 
0.000000 0.000000 0.000000 

-0.000000 0.000000 0.000000 
0.000000 -0.000000 0.000000 
0.000000 0.000000 0.000000 

-0.000000 0.000000 0.000000 
0.000000 -0.000000 0.000000 
0.000000 0.000000 0.000000 

-0.000000 -0.000000 0.000000 
0.000000 -0.000000 0.000000 
0.000000 0.000000 0.000000 

-0.000000 0.000000 0.000000 
0.000000 -0.000000 0.000000 
0.000000 0.000000 0.000000 

-0.000000 0.000000 0.000000 
0.000000 0.000000 0.000000 
0.000000 0.000000 0.000000 

0.000000 -0.000000 0.000000 
0.000000 0.000000 0.000000 
0.000000 0.000000 0.000000 

0.000000 -0.000000 0.000000 
0.000000 -0.000000 0.000000 
0.000000 0.000000 0.000000 

-0.000000 -0.000000 0.000000 
0.000000 0.000000 0.000000 
0.000000 0.000000 0.000000 

-0.000000 -0.000000 0.000000 
0.000000 0.000000 0.000000 
0.000000 0.000000 0.000000 

-0.000000 -0.000000 0.000000 
0.000000 0.000000 0.000000 
0.000000 0.000000 0.000000 

0.000000 -0.000000 0.000000 
0.000000 -0.000000 0.000000 
0.000000 0.000000 0.000000 

0.000000 -0.000000 0.000000 
0.000000 -0.000000 0.000000 
0.000000 0.000000 0.000000 

0.000000 0.000000 0.000000 
0.000000 -0.000000 0.000000 
0.000000 0.000000 0.000000 

-0.000000 -0.000000 0.000000 
0.000000 -0.000000 0.000000 
0.000000 0.000000 0.000000 

0.000000 -0.000000 0.000000 
0.000000 0.000000 0.000000 
0.000000 0.000000 0.000000 

0.000000 -0.000000 0.000000 
0.000000 -0.000000 0.000000 
0.000000 0.000000 0.000000 

-0.000000 0.000000 0.000000 
0.000000 0.000000 0.000000 
0.000000 0.000000 0.000000 

-0.000000 0.000000 0.000000 
0.000000 0.000000 0.000000 
0.000000 0.000000 0.000000 

-0.000000 -0.000000 0.000000 
0.000000 0.000000 0.000000 
0.000000 0.000000 0.000000 

0.000000 -0.000000 0.000000 
0.000000 -0.000000 0.000000 
0.000000 0.000000 0.000000 

0.000000 0.000000 0.000000 
0.000000 0.000000 0.000000 
0.000000 0.000000 0.000000 

-0.000000 0.000000 0.000000 
0.000000 0.000000 0.000000 
0.000000 0.000000 0.000000 

0.000000 0.000000 0.000000 
0.000000 -0.000000 0.000000 
0.000000 0.000000 0.000000 

0.000000 0.000000 0.000000 
0.000000 0.000000 0.000000 
0.000000 0.000000 0.000000 

0.000000 -0.000000 0.000000 
0.000000 0.000000 0.000000 
0.000000 0.000000 0.000000 

0.000000 -0.000000 0.000000 
0.000000 0.000000 0.000000 
0.000000 0.000000 0.000000 

0.000000 0.000000 0.000000 
0.000000 0.000000 0.000000 
0.000000 0.000000 0.000000 

0.000000 0.000000 0.000000 
0.000000 -0.000000 0.000000 
0.000000 0.000000 0.000000 

0.000000 0.000000 0.000000 
0.000000 -0.000000 0.000000 
0.000000 0.000000 0.000000 

0.000000 0.000000 0.000000 
0.000000 0.000000 0.000000 
0.000000 0.000000 0.000000 

-0.000000 -0.000000 0.000000 
0.000000 0.000000 0.000000 
0.000000 0.000000 0.000000 

0.000000 -0.000000 0.000000 
0.000000 -0.000000 0.000000 
0.000000 0.000000 0.000000 

0.000000 -0.000000 0.000000 
0.000000 -0.000000 0.000000 
0.000000 0.000000 0.000000 

0.000000 0.000000 0.000000 
0.000000 0.000000 0.000000 
0.000000 0.000000 0.000000 

0.000000 -0.000000 0.000000 
0.000000 -0.000000 0.000000 
0.000000 0.000000 0.000000 

0.000000 0.000000 0.000000 
0.000000 0.000000 0.000000 
0.000000 0.000000 0.000000 

0.000000 -0.000000 0.000000 
0.000000 -0.000000 0.000000 
0.000000 0.000000 0.000000 

0.000000 -0.000000 0.000000 
0.000000 -0.000000 0.000000 
0.000000 0.000000 0.000000 

0.000000 0.000000 0.000000 
0.000000 -0.000000 0.000000 
0.000000 0.000000 0.000000 

0.000000 0.000000 0.000000 
0.000000 0.000000 0.000000 
0.000000 0.000000 0.000000 

0.000000 0.000000 0.000000 
0.000000 -0.000000 0.000000 
0.000000 0.000000 0.000000 

0.000000 0.000000 0.000000 
0.000000 0.000000 0.000000 
0.000000 0.000000 0.000000 

0.000000 0.000000 0.000000 
0.000000 0.000000 0.000000 
0.000000 0.000000 0.000000 

0.000000 0.000000 0.000000 
0.000000 -0.000000 0.000000 
0.000000 0.000000 0.000000 

-0.000000 0.000000 0.000000 
0.000000 -0.000000 0.000000 
0.000000 0.000000 0.000000 

-0.000000 -0.000000 0.000000 
0.000000 -0.000000 0.000000 
0.000000 0.000000 0.000000 

-0.000000 0.000000 0.000000 
0.000000 0.000000 0.000000 
0.000000 0.000000 0.000000 

0.000000 0.000000 0.000000 
0.000000 0.000000 0.000000 
0.000000 0.000000 0.000000 

-0.000000 0.000000 0.000000 
0.000000 0.000000 0.000000 
0.000000 0.000000 0.000000 

-0.000000 0.000000 0.000000 
0.000000 0.000000 0.000000 
0.000000 0.000000 0.000000 

-0.000000 0.000000 0.000000 
0.000000 0.000000 0.000000 
0.000000 0.000000 0.000000 

-0.000000 0.000000 0.000000 
0.000000 -0.000000 0.000000 
0.000000 0.000000 0.000000 

-0.000000 -0.000000 0.000000 
0.000000 0.000000 0.000000 
0.000000 0.000000 0.000000 

0.000000 0.000000 0.000000 
0.000000 0.000000 0.000000 
0.000000 0.000000 0.000000 

0.000000 -0.000000 0.000000 
0.000000 0.000000 0.000000 
0.000000 0.000000 0.000000 

0.000000 -0.000000 0.000000 
0.000000 0.000000 0.000000 
0.000000 0.000000 0.000000 

-0.000000 -0.000000 0.000000 
0.000000 0.000000 0.000000 
0.000000 0.000000 0.000000 

-0.000000 -0.000000 0.000000 
0.000000 0.000000 0.000000 
0.000000 0.000000 0.000000 

-0.000000 -0.000000 0.000000 
0.000000 -0.000000 0.000000 
0.000000 0.000000 0.000000 

-0.000000 0.000000 0.000000 
0.000000 0.000000 0.000000 
0.000000 0.000000 0.000000 

0.000000 0.000000 0.000000 
0.000000 -0.000000 0.000000 
0.000000 0.000000 0.000000 

0.000000 -0.000000 0.000000 
0.000000 -0.000000 0.000000 
0.000000 0.000000 0.000000 

0.000000 -0.000000 0.000000 
0.000000 0.000000 0.000000 
0.000000 0.000000 0.000000 

-0.000000 -0.000000 0.000000 
0.000000 0.000000 0.000000 
0.000000 0.000000 0.000000 

-0.000000 -0.000000 0.000000 
0.000000 -0.000000 0.000000 
0.000000 0.000000 0.000000 

0.000000 0.000000 0.000000 
0.000000 -0.000000 0.000000 
0.000000 0.000000 0.000000 

-0.000000 -0.000000 0.000000 
0.000000 0.000000 0.000000 
0.000000 0.000000 0.000000 

-0.000000 0.000000 0.000000 
0.000000 0.000000 0.000000 
0.000000 0.000000 0.000000 

-0.000000 0.000000 0.000000 
0.000000 0.000000 0.000000 
0.000000 0.000000 0.000000 

-0.000000 -0.000000 0.000000 
0.000000 -0.000000 0.000000 
0.000000 0.000000 0.000000 

0.000000 0.000000 0.000000 
0.000000 0.000000 0.000000 
0.000000 0.000000 0.000000 

0.000000 0.000000 0.000000 
0.000000 -0.000000 0.000000 
0.000000 0.000000 0.000000 

0.000000 -0.000000 0.000000 
0.000000 0.000000 0.000000 
0.000000 0.000000 0.000000 

-0.000000 0.000000 0.000000 
0.000000 0.000000 0.000000 
0.000000 0.000000 0.000000 

-0.000000 -0.000000 0.000000 
0.000000 0.000000 0.000000 
0.000000 0.000000 0.000000 

-0.000000 -0.000000 0.000000 
0.000000 0.000000 0.000000 
0.000000 0.000000 0.000000 

-0.000000 0.000000 0.000000 
0.000000 -0.000000 0.000000 
0.000000 0.000000 0.000000 

-0.000000 0.000000 0.000000 
0.000000 0.000000 0.000000 
0.000000 0.000000 0.000000 

-0.000000 -0.000000 0.000000 
0.000000 -0.000000 0.000000 
0.000000 0.000000 0.000000 

-0.000000 -0.000000 0.000000 
0.000000 -0.000000 0.000000 
0.000000 0.000000 0.000000 

0.000000 0.000000 0.000000 
0.000000 -0.000000 0.000000 
0.000000 0.000000 0.000000 

-0.000000 0.000000 0.000000 
0.000000 0.000000 0.000000 
0.000000 0.000000 0.000000 

-0.000000 0.000000 0.000000 
0.000000 0.000000 0.000000 
0.000000 0.000000 0.000000 

-0.000000 0.000000 0.000000 
0.000000 0.000000 0.000000 
0.000000 0.000000 0.000000 

-0.000000 0.000000 0.000000 
0.000000 0.000000 0.000000 
0.000000 0.000000 0.000000 

-0.000000 0.000000 0.000000 
0.000000 0.000000 0.000000 
0.000000 0.000000 0.000000 

-0.000000 -0.000000 0.000000 
0.000000 0.000000 0.000000 
0.000000 0.000000 0.000000 

0.000000 0.000000 0.000000 
0.000000 -0.000000 0.000000 
0.000000 0.000000 0.000000 

-0.000000 0.000000 0.000000 
0.000000 0.000000 0.000000 
0.000000 0.000000 0.000000 

-0.000000 0.000000 0.000000 
0.000000 0.000000 0.000000 
0.000000 0.000000 0.000000 

0.000000 -0.000000 0.000000 
0.000000 -0.000000 0.000000 
0.000000 0.000000 0.000000 

-0.000000 0.000000 0.000000 
0.000000 -0.000000 0.000000 
0.000000 0.000000 0.000000 

-0.000000 0.000000 0.000000 
0.000000 0.000000 0.000000 
0.000000 0.000000 0.000000 

-0.000000 0.000000 0.000000 
0.000000 -0.000000 0.000000 
0.000000 0.000000 0.000000 

-0.000000 -0.000000 0.000000 
0.000000 0.000000 0.000000 
0.000000 0.000000 0.000000 

0.000000 0.000000 0.000000 
0.000000 -0.000000 0.000000 
0.000000 0.000000 0.000000 

0.000000 0.000000 0.000000 
0.000000 0.000000 0.000000 
0.000000 0.000000 0.000000 

-0.000000 -0.000000 0.000000 
0.000000 0.000000 0.000000 
0.000000 0.000000 0.000000 

0.000000 0.000000 0.000000 
0.000000 0.000000 0.000000 
0.000000 0.000000 0.000000 

0.000000 0.000000 0.000000 
0.000000 0.000000 0.000000 
0.000000 0.000000 0.000000 

-0.000000 0.000000 0.000000 
0.000000 0.000000 0.000000 
0.000000 0.000000 0.000000 

-0.000000 0.000000 0.000000 
0.000000 -0.000000 0.000000 
0.000000 0.000000 0.000000 

0.000000 -0.000000 0.000000 
0.000000 0.000000 0.000000 
0.000000 0.000000 0.000000 

-0.000000 -0.000000 0.000000 
0.000000 0.000000 0.000000 
0.000000 0.000000 0.000000 

-0.000000 -0.000000 0.000000 
0.000000 -0.000000 0.000000 
0.000000 0.000000 0.000000 

-0.000000 0.000000 0.000000 
0.000000 0.000000 0.000000 
0.000000 0.000000 0.000000 

0.000000 -0.000000 0.000000 
0.000000 -0.000000 0.000000 
0.000000 0.000000 0.000000 

0.000000 -0.000000 0.000000 
0.000000 0.000000 0.000000 
0.000000 0.000000 0.000000 

-0.000000 -0.000000 0.000000 
0.000000 0.000000 0.000000 
0.000000 0.000000 0.000000 

-0.000000 -0.000000 0.000000 
0.000000 -0.000000 0.000000 
0.000000 0.000000 0.000000 

-0.000000 0.000000 0.000000 
0.000000 0.000000 0.000000 
0.000000 0.000000 0.000000 

-0.000000 -0.000000 0.000000 
0.000000 0.000000 0.000000 
0.000000 0.000000 0.000000 

-0.000000 -0.000000 0.000000 
0.000000 -0.000000 0.000000 
0.000000 0.000000 0.000000 

-0.000000 0.000000 0.000000 
0.000000 0.000000 0.000000 
0.000000 0.000000 0.000000 

-0.000000 -0.000000 0.000000 
0.000000 -0.000000 0.000000 
0.000000 0.000000 0.000000 

-0.000000 0.000000 0.000000 
0.000000 -0.000000 0.000000 
0.000000 0.000000 0.000000 

0.000000 0.000000 0.000000 
0.000000 0.000000 0.000000 
0.000000 0.000000 0.000000 

0.000000 0.000000 0.000000 
0.000000 0.000000 0.000000 
0.000000 0.000000 0.000000 

-0.000000 0.000000 0.000000 
0.000000 0.000000 0.000000 
0.000000 0.000000 0.000000 

-0.000000 0.000000 0.000000 
0.000000 0.000000 0.000000 
0.000000 0.000000 0.000000 

-0.000000 0.000000 0.000000 
0.000000 0.000000 0.000000 
0.000000 0.000000 0.000000 

-0.000000 0.000000 0.000000 
0.000000 0.000000 0.000000 
0.000000 0.000000 0.000000 

