# vtk DataFile Version 3.0 
vtk output 
ASCII 
DATASET UNSTRUCTURED_GRID 
POINTS 175 float 
-0.026061 -1.132242 0.000000 
-0.106992 -1.064187 0.000000 
-0.054870 -1.072420 0.000000 
-0.028809 -1.026536 0.000000 
-0.186430 -1.000112 0.000000 
-0.137056 -1.002638 0.000000 
-0.114311 -0.948990 0.000000 
-0.058186 -0.964656 0.000000 
-0.029377 -0.924479 0.000000 
-0.265318 -0.936956 0.000000 
-0.217198 -0.937755 0.000000 
-0.196633 -0.880459 0.000000 
-0.143120 -0.889168 0.000000 
-0.116563 -0.841899 0.000000 
-0.058945 -0.861545 0.000000 
-0.029568 -0.823425 0.000000 
-0.344206 -0.873800 0.000000 
-0.296791 -0.873793 0.000000 
-0.278030 -0.813850 0.000000 
-0.225992 -0.819716 0.000000 
-0.201664 -0.767599 0.000000 
-0.145749 -0.781073 0.000000 
-0.117890 -0.736731 0.000000 
-0.059328 -0.759436 0.000000 
-0.029759 -0.722371 0.000000 
-0.058559 -1.172993 0.000000 
-0.162226 -1.193836 0.000000 
-0.123292 -1.158218 0.000000 
-0.142917 -1.109235 0.000000 
-0.261851 -1.215992 0.000000 
-0.229092 -1.178965 0.000000 
-0.256854 -1.127734 0.000000 
-0.209613 -1.093621 0.000000 
-0.223062 -1.046047 0.000000 
-0.360414 -1.238292 0.000000 
-0.329787 -1.201170 0.000000 
-0.361761 -1.149367 0.000000 
-0.321587 -1.112959 0.000000 
-0.341985 -1.062725 0.000000 
-0.290702 -1.029926 0.000000 
-0.302189 -0.983190 0.000000 
-0.458977 -1.260593 0.000000 
-0.429420 -1.223518 0.000000 
-0.464588 -1.171476 0.000000 
-0.427556 -1.134449 0.000000 
-0.453135 -1.082934 0.000000 
-0.407738 -1.047619 0.000000 
-0.425037 -0.998190 0.000000 
-0.370772 -0.966561 0.000000 
-0.381315 -0.920334 0.000000 
-0.046960 -1.223808 0.000000 
-0.095301 -1.317854 0.000000 
-0.098873 -1.265207 0.000000 
-0.149405 -1.250010 0.000000 
-0.140093 -1.409558 0.000000 
-0.148617 -1.360860 0.000000 
-0.205981 -1.350623 0.000000 
-0.203197 -1.292419 0.000000 
-0.248777 -1.273273 0.000000 
-0.184111 -1.500522 0.000000 
-0.194039 -1.453431 0.000000 
-0.254475 -1.446131 0.000000 
-0.257893 -1.392021 0.000000 
-0.309886 -1.376649 0.000000 
-0.303554 -1.316104 0.000000 
-0.347255 -1.295946 0.000000 
-0.228129 -1.591486 0.000000 
-0.238687 -1.545261 0.000000 
-0.301302 -1.540309 0.000000 
-0.307162 -1.488270 0.000000 
-0.363386 -1.476149 0.000000 
-0.362692 -1.418638 0.000000 
-0.412122 -1.401345 0.000000 
-0.403017 -1.339198 0.000000 
-0.445733 -1.318619 0.000000 
-0.000000 -1.246423 0.000000 
0.043388 -1.342854 0.000000 
-0.000000 -1.312822 0.000000 
-0.043388 -1.342854 0.000000 
0.087158 -1.435051 0.000000 
0.043769 -1.411352 0.000000 
-0.000000 -1.449818 0.000000 
-0.043769 -1.411352 0.000000 
-0.087158 -1.435051 0.000000 
0.130831 -1.526180 0.000000 
0.087824 -1.504582 0.000000 
0.044436 -1.547281 0.000000 
-0.000000 -1.516216 0.000000 
-0.044436 -1.547281 0.000000 
-0.087824 -1.504582 0.000000 
-0.130831 -1.526180 0.000000 
0.174505 -1.617310 0.000000 
0.131782 -1.596744 0.000000 
0.088871 -1.642610 0.000000 
0.044532 -1.614747 0.000000 
-0.000000 -1.651147 0.000000 
-0.044532 -1.614747 0.000000 
-0.088871 -1.642610 0.000000 
-0.131782 -1.596744 0.000000 
-0.174505 -1.617310 0.000000 
0.046960 -1.223808 0.000000 
0.149405 -1.250010 0.000000 
0.098873 -1.265207 0.000000 
0.095301 -1.317854 0.000000 
0.248777 -1.273273 0.000000 
0.203197 -1.292419 0.000000 
0.205981 -1.350623 0.000000 
0.148617 -1.360860 0.000000 
0.140093 -1.409558 0.000000 
0.347255 -1.295946 0.000000 
0.303554 -1.316104 0.000000 
0.309886 -1.376649 0.000000 
0.257893 -1.392021 0.000000 
0.254475 -1.446131 0.000000 
0.194039 -1.453431 0.000000 
0.184111 -1.500522 0.000000 
0.445733 -1.318619 0.000000 
0.403017 -1.339198 0.000000 
0.412122 -1.401345 0.000000 
0.362692 -1.418638 0.000000 
0.363386 -1.476149 0.000000 
0.307162 -1.488270 0.000000 
0.301302 -1.540309 0.000000 
0.238687 -1.545261 0.000000 
0.228129 -1.591486 0.000000 
0.058559 -1.172993 0.000000 
0.142917 -1.109235 0.000000 
0.123292 -1.158218 0.000000 
0.162226 -1.193836 0.000000 
0.223062 -1.046047 0.000000 
0.209613 -1.093621 0.000000 
0.256854 -1.127734 0.000000 
0.229092 -1.178965 0.000000 
0.261851 -1.215992 0.000000 
0.302189 -0.983190 0.000000 
0.290702 -1.029926 0.000000 
0.341985 -1.062725 0.000000 
0.321587 -1.112959 0.000000 
0.361761 -1.149367 0.000000 
0.329787 -1.201170 0.000000 
0.360414 -1.238292 0.000000 
0.381315 -0.920334 0.000000 
0.370772 -0.966561 0.000000 
0.425037 -0.998190 0.000000 
0.407738 -1.047619 0.000000 
0.453135 -1.082934 0.000000 
0.427556 -1.134449 0.000000 
0.464588 -1.171476 0.000000 
0.429420 -1.223518 0.000000 
0.458977 -1.260593 0.000000 
0.026061 -1.132242 0.000000 
0.028809 -1.026536 0.000000 
0.054870 -1.072420 0.000000 
0.106992 -1.064187 0.000000 
0.029377 -0.924479 0.000000 
0.058186 -0.964656 0.000000 
0.114311 -0.948990 0.000000 
0.137056 -1.002638 0.000000 
0.186430 -1.000112 0.000000 
0.029568 -0.823425 0.000000 
0.058945 -0.861545 0.000000 
0.116563 -0.841899 0.000000 
0.143120 -0.889168 0.000000 
0.196633 -0.880459 0.000000 
0.217198 -0.937755 0.000000 
0.265318 -0.936956 0.000000 
0.029759 -0.722371 0.000000 
0.059328 -0.759436 0.000000 
0.117890 -0.736731 0.000000 
0.145749 -0.781073 0.000000 
0.201664 -0.767599 0.000000 
0.225992 -0.819716 0.000000 
0.278030 -0.813850 0.000000 
0.296791 -0.873793 0.000000 
0.344206 -0.873800 0.000000 
CELLS 175 350 
1 0 
1 1 
1 2 
1 3 
1 4 
1 5 
1 6 
1 7 
1 8 
1 9 
1 10 
1 11 
1 12 
1 13 
1 14 
1 15 
1 16 
1 17 
1 18 
1 19 
1 20 
1 21 
1 22 
1 23 
1 24 
1 25 
1 26 
1 27 
1 28 
1 29 
1 30 
1 31 
1 32 
1 33 
1 34 
1 35 
1 36 
1 37 
1 38 
1 39 
1 40 
1 41 
1 42 
1 43 
1 44 
1 45 
1 46 
1 47 
1 48 
1 49 
1 50 
1 51 
1 52 
1 53 
1 54 
1 55 
1 56 
1 57 
1 58 
1 59 
1 60 
1 61 
1 62 
1 63 
1 64 
1 65 
1 66 
1 67 
1 68 
1 69 
1 70 
1 71 
1 72 
1 73 
1 74 
1 75 
1 76 
1 77 
1 78 
1 79 
1 80 
1 81 
1 82 
1 83 
1 84 
1 85 
1 86 
1 87 
1 88 
1 89 
1 90 
1 91 
1 92 
1 93 
1 94 
1 95 
1 96 
1 97 
1 98 
1 99 
1 100 
1 101 
1 102 
1 103 
1 104 
1 105 
1 106 
1 107 
1 108 
1 109 
1 110 
1 111 
1 112 
1 113 
1 114 
1 115 
1 116 
1 117 
1 118 
1 119 
1 120 
1 121 
1 122 
1 123 
1 124 
1 125 
1 126 
1 127 
1 128 
1 129 
1 130 
1 131 
1 132 
1 133 
1 134 
1 135 
1 136 
1 137 
1 138 
1 139 
1 140 
1 141 
1 142 
1 143 
1 144 
1 145 
1 146 
1 147 
1 148 
1 149 
1 150 
1 151 
1 152 
1 153 
1 154 
1 155 
1 156 
1 157 
1 158 
1 159 
1 160 
1 161 
1 162 
1 163 
1 164 
1 165 
1 166 
1 167 
1 168 
1 169 
1 170 
1 171 
1 172 
1 173 
1 174 
CELL_TYPES 175 
1 
1 
1 
1 
1 
1 
1 
1 
1 
1 
1 
1 
1 
1 
1 
1 
1 
1 
1 
1 
1 
1 
1 
1 
1 
1 
1 
1 
1 
1 
1 
1 
1 
1 
1 
1 
1 
1 
1 
1 
1 
1 
1 
1 
1 
1 
1 
1 
1 
1 
1 
1 
1 
1 
1 
1 
1 
1 
1 
1 
1 
1 
1 
1 
1 
1 
1 
1 
1 
1 
1 
1 
1 
1 
1 
1 
1 
1 
1 
1 
1 
1 
1 
1 
1 
1 
1 
1 
1 
1 
1 
1 
1 
1 
1 
1 
1 
1 
1 
1 
1 
1 
1 
1 
1 
1 
1 
1 
1 
1 
1 
1 
1 
1 
1 
1 
1 
1 
1 
1 
1 
1 
1 
1 
1 
1 
1 
1 
1 
1 
1 
1 
1 
1 
1 
1 
1 
1 
1 
1 
1 
1 
1 
1 
1 
1 
1 
1 
1 
1 
1 
1 
1 
1 
1 
1 
1 
1 
1 
1 
1 
1 
1 
1 
1 
1 
1 
1 
1 
1 
1 
1 
1 
1 
1 
POINT_DATA 175 
VECTORS X_GC float 
-0.026061 -1.132242 0.000000 
-0.106992 -1.064187 0.000000 
-0.054870 -1.072420 0.000000 
-0.028809 -1.026536 0.000000 
-0.186430 -1.000112 0.000000 
-0.137056 -1.002638 0.000000 
-0.114311 -0.948990 0.000000 
-0.058186 -0.964656 0.000000 
-0.029377 -0.924479 0.000000 
-0.265318 -0.936956 0.000000 
-0.217198 -0.937755 0.000000 
-0.196633 -0.880459 0.000000 
-0.143120 -0.889168 0.000000 
-0.116563 -0.841899 0.000000 
-0.058945 -0.861545 0.000000 
-0.029568 -0.823425 0.000000 
-0.344206 -0.873800 0.000000 
-0.296791 -0.873793 0.000000 
-0.278030 -0.813850 0.000000 
-0.225992 -0.819716 0.000000 
-0.201664 -0.767599 0.000000 
-0.145749 -0.781073 0.000000 
-0.117890 -0.736731 0.000000 
-0.059328 -0.759436 0.000000 
-0.029759 -0.722371 0.000000 
-0.058559 -1.172993 0.000000 
-0.162226 -1.193836 0.000000 
-0.123292 -1.158218 0.000000 
-0.142917 -1.109235 0.000000 
-0.261851 -1.215992 0.000000 
-0.229092 -1.178965 0.000000 
-0.256854 -1.127734 0.000000 
-0.209613 -1.093621 0.000000 
-0.223062 -1.046047 0.000000 
-0.360414 -1.238292 0.000000 
-0.329787 -1.201170 0.000000 
-0.361761 -1.149367 0.000000 
-0.321587 -1.112959 0.000000 
-0.341985 -1.062725 0.000000 
-0.290702 -1.029926 0.000000 
-0.302189 -0.983190 0.000000 
-0.458977 -1.260593 0.000000 
-0.429420 -1.223518 0.000000 
-0.464588 -1.171476 0.000000 
-0.427556 -1.134449 0.000000 
-0.453135 -1.082934 0.000000 
-0.407738 -1.047619 0.000000 
-0.425037 -0.998190 0.000000 
-0.370772 -0.966561 0.000000 
-0.381315 -0.920334 0.000000 
-0.046960 -1.223808 0.000000 
-0.095301 -1.317854 0.000000 
-0.098873 -1.265207 0.000000 
-0.149405 -1.250010 0.000000 
-0.140093 -1.409558 0.000000 
-0.148617 -1.360860 0.000000 
-0.205981 -1.350623 0.000000 
-0.203197 -1.292419 0.000000 
-0.248777 -1.273273 0.000000 
-0.184111 -1.500522 0.000000 
-0.194039 -1.453431 0.000000 
-0.254475 -1.446131 0.000000 
-0.257893 -1.392021 0.000000 
-0.309886 -1.376649 0.000000 
-0.303554 -1.316104 0.000000 
-0.347255 -1.295946 0.000000 
-0.228129 -1.591486 0.000000 
-0.238687 -1.545261 0.000000 
-0.301302 -1.540309 0.000000 
-0.307162 -1.488270 0.000000 
-0.363386 -1.476149 0.000000 
-0.362692 -1.418638 0.000000 
-0.412122 -1.401345 0.000000 
-0.403017 -1.339198 0.000000 
-0.445733 -1.318619 0.000000 
-0.000000 -1.246423 0.000000 
0.043388 -1.342854 0.000000 
-0.000000 -1.312822 0.000000 
-0.043388 -1.342854 0.000000 
0.087158 -1.435051 0.000000 
0.043769 -1.411352 0.000000 
-0.000000 -1.449818 0.000000 
-0.043769 -1.411352 0.000000 
-0.087158 -1.435051 0.000000 
0.130831 -1.526180 0.000000 
0.087824 -1.504582 0.000000 
0.044436 -1.547281 0.000000 
-0.000000 -1.516216 0.000000 
-0.044436 -1.547281 0.000000 
-0.087824 -1.504582 0.000000 
-0.130831 -1.526180 0.000000 
0.174505 -1.617310 0.000000 
0.131782 -1.596744 0.000000 
0.088871 -1.642610 0.000000 
0.044532 -1.614747 0.000000 
-0.000000 -1.651147 0.000000 
-0.044532 -1.614747 0.000000 
-0.088871 -1.642610 0.000000 
-0.131782 -1.596744 0.000000 
-0.174505 -1.617310 0.000000 
0.046960 -1.223808 0.000000 
0.149405 -1.250010 0.000000 
0.098873 -1.265207 0.000000 
0.095301 -1.317854 0.000000 
0.248777 -1.273273 0.000000 
0.203197 -1.292419 0.000000 
0.205981 -1.350623 0.000000 
0.148617 -1.360860 0.000000 
0.140093 -1.409558 0.000000 
0.347255 -1.295946 0.000000 
0.303554 -1.316104 0.000000 
0.309886 -1.376649 0.000000 
0.257893 -1.392021 0.000000 
0.254475 -1.446131 0.000000 
0.194039 -1.453431 0.000000 
0.184111 -1.500522 0.000000 
0.445733 -1.318619 0.000000 
0.403017 -1.339198 0.000000 
0.412122 -1.401345 0.000000 
0.362692 -1.418638 0.000000 
0.363386 -1.476149 0.000000 
0.307162 -1.488270 0.000000 
0.301302 -1.540309 0.000000 
0.238687 -1.545261 0.000000 
0.228129 -1.591486 0.000000 
0.058559 -1.172993 0.000000 
0.142917 -1.109235 0.000000 
0.123292 -1.158218 0.000000 
0.162226 -1.193836 0.000000 
0.223062 -1.046047 0.000000 
0.209613 -1.093621 0.000000 
0.256854 -1.127734 0.000000 
0.229092 -1.178965 0.000000 
0.261851 -1.215992 0.000000 
0.302189 -0.983190 0.000000 
0.290702 -1.029926 0.000000 
0.341985 -1.062725 0.000000 
0.321587 -1.112959 0.000000 
0.361761 -1.149367 0.000000 
0.329787 -1.201170 0.000000 
0.360414 -1.238292 0.000000 
0.381315 -0.920334 0.000000 
0.370772 -0.966561 0.000000 
0.425037 -0.998190 0.000000 
0.407738 -1.047619 0.000000 
0.453135 -1.082934 0.000000 
0.427556 -1.134449 0.000000 
0.464588 -1.171476 0.000000 
0.429420 -1.223518 0.000000 
0.458977 -1.260593 0.000000 
0.026061 -1.132242 0.000000 
0.028809 -1.026536 0.000000 
0.054870 -1.072420 0.000000 
0.106992 -1.064187 0.000000 
0.029377 -0.924479 0.000000 
0.058186 -0.964656 0.000000 
0.114311 -0.948990 0.000000 
0.137056 -1.002638 0.000000 
0.186430 -1.000112 0.000000 
0.029568 -0.823425 0.000000 
0.058945 -0.861545 0.000000 
0.116563 -0.841899 0.000000 
0.143120 -0.889168 0.000000 
0.196633 -0.880459 0.000000 
0.217198 -0.937755 0.000000 
0.265318 -0.936956 0.000000 
0.029759 -0.722371 0.000000 
0.059328 -0.759436 0.000000 
0.117890 -0.736731 0.000000 
0.145749 -0.781073 0.000000 
0.201664 -0.767599 0.000000 
0.225992 -0.819716 0.000000 
0.278030 -0.813850 0.000000 
0.296791 -0.873793 0.000000 
0.344206 -0.873800 0.000000 
VECTORS X_EC float 
0.338794 -0.214727 0.000000 
-0.609100 0.866525 0.000000 
0.713312 0.977666 0.000000 
0.374519 0.358236 0.000000 
0.423588 0.001506 0.000000 
-0.218274 0.035609 0.000000 
-0.513962 -0.688630 0.000000 
0.756418 -0.477143 0.000000 
0.381900 0.980464 0.000000 
-0.550868 -0.851097 0.000000 
0.823577 -0.840302 0.000000 
0.556234 0.386194 0.000000 
-0.139443 0.503763 0.000000 
-0.484677 -0.134362 0.000000 
0.766286 0.130854 0.000000 
0.384386 -0.383767 0.000000 
0.474677 0.296299 0.000000 
-0.141715 0.296203 0.000000 
-0.385608 -0.513025 0.000000 
0.937896 -0.433830 0.000000 
0.621631 0.862590 0.000000 
-0.105264 -0.955511 0.000000 
-0.467428 0.445863 0.000000 
0.771260 0.752392 0.000000 
0.386873 0.252002 0.000000 
0.761262 0.335408 0.000000 
0.108942 0.616785 0.000000 
-0.397202 0.135945 0.000000 
-0.142083 -0.525330 0.000000 
-0.595936 0.915895 0.000000 
0.978194 0.416029 0.000000 
-0.660903 -0.275596 0.000000 
0.724964 -0.736116 0.000000 
0.899809 0.621636 0.000000 
0.685384 -0.783053 0.000000 
0.287229 0.715789 0.000000 
0.702895 0.016460 0.000000 
0.180633 -0.475058 0.000000 
0.445811 0.846782 0.000000 
-0.220880 0.403996 0.000000 
-0.071546 -0.226929 0.000000 
-0.033296 -0.482000 0.000000 
-0.417537 -0.982510 0.000000 
0.039645 0.314927 0.000000 
-0.441768 -0.184944 0.000000 
-0.109248 -0.880394 0.000000 
-0.699407 0.642850 0.000000 
-0.474522 -0.024429 0.000000 
0.820030 -0.451423 0.000000 
0.957100 0.924506 0.000000 
0.610485 -0.978586 0.000000 
-0.761092 0.291034 0.000000 
-0.714655 -0.419704 0.000000 
-0.057734 -0.624871 0.000000 
-0.178789 -0.470962 0.000000 
-0.067979 0.871612 0.000000 
0.677748 0.733408 0.000000 
0.641556 -0.052337 0.000000 
-0.765897 -0.310815 0.000000 
0.393446 0.757047 0.000000 
0.522510 0.121317 0.000000 
-0.691820 0.022773 0.000000 
-0.647393 -0.707710 0.000000 
0.028512 -0.915236 0.000000 
-0.053800 0.267403 0.000000 
0.514316 -0.004728 0.000000 
0.965681 -0.014944 0.000000 
-0.897068 -0.638973 0.000000 
-0.083078 -0.705826 0.000000 
-0.006893 0.591650 0.000000 
0.724017 0.428017 0.000000 
0.714996 -0.348387 0.000000 
-0.642413 -0.581844 0.000000 
-0.760780 0.579175 0.000000 
-0.205471 0.301360 0.000000 
0.000000 -0.673284 0.000000 
-0.564049 0.628529 0.000000 
0.000000 0.223093 0.000000 
0.564049 0.628529 0.000000 
0.866949 -0.126816 0.000000 
-0.569003 -0.446747 0.000000 
0.000000 0.072541 0.000000 
0.569003 -0.446747 0.000000 
-0.866949 -0.126816 0.000000 
0.299194 -0.896566 0.000000 
0.858290 0.811850 0.000000 
-0.577662 -0.611704 0.000000 
0.000000 0.968918 0.000000 
0.577662 -0.611704 0.000000 
-0.858290 0.811850 0.000000 
-0.299194 -0.896566 0.000000 
-0.268560 0.333684 0.000000 
0.286830 0.056043 0.000000 
0.844677 0.675241 0.000000 
-0.578910 0.299078 0.000000 
0.000000 0.790482 0.000000 
0.578910 0.299078 0.000000 
-0.844677 0.675241 0.000000 
-0.286830 0.056043 0.000000 
0.268560 0.333684 0.000000 
-0.610485 -0.978586 0.000000 
0.057734 -0.624871 0.000000 
0.714655 -0.419704 0.000000 
0.761092 0.291034 0.000000 
0.765897 -0.310815 0.000000 
-0.641556 -0.052337 0.000000 
-0.677748 0.733408 0.000000 
0.067979 0.871612 0.000000 
0.178789 -0.470962 0.000000 
-0.514316 -0.004728 0.000000 
0.053800 0.267403 0.000000 
-0.028512 -0.915236 0.000000 
0.647393 -0.707710 0.000000 
0.691820 0.022773 0.000000 
-0.522510 0.121317 0.000000 
-0.393446 0.757047 0.000000 
0.205471 0.301360 0.000000 
0.760780 0.579175 0.000000 
0.642413 -0.581844 0.000000 
-0.714996 -0.348387 0.000000 
-0.724017 0.428017 0.000000 
0.006894 0.591650 0.000000 
0.083078 -0.705826 0.000000 
0.897068 -0.638973 0.000000 
-0.965681 -0.014944 0.000000 
-0.761262 0.335408 0.000000 
0.142083 -0.525330 0.000000 
0.397202 0.135945 0.000000 
-0.108942 0.616785 0.000000 
-0.899809 0.621636 0.000000 
-0.724964 -0.736116 0.000000 
0.660903 -0.275596 0.000000 
-0.978194 0.416029 0.000000 
0.595936 0.915895 0.000000 
0.071546 -0.226929 0.000000 
0.220880 0.403996 0.000000 
-0.445811 0.846782 0.000000 
-0.180633 -0.475058 0.000000 
-0.702895 0.016460 0.000000 
-0.287229 0.715789 0.000000 
-0.685384 -0.783053 0.000000 
-0.957100 0.924506 0.000000 
-0.820030 -0.451423 0.000000 
0.474522 -0.024429 0.000000 
0.699407 0.642850 0.000000 
0.109248 -0.880394 0.000000 
0.441768 -0.184944 0.000000 
-0.039645 0.314927 0.000000 
0.417537 -0.982510 0.000000 
0.033296 -0.482000 0.000000 
-0.338794 -0.214727 0.000000 
-0.374519 0.358236 0.000000 
-0.713312 0.977666 0.000000 
0.609100 0.866525 0.000000 
-0.381900 0.980464 0.000000 
-0.756418 -0.477143 0.000000 
0.513962 -0.688630 0.000000 
0.218274 0.035609 0.000000 
-0.423588 0.001506 0.000000 
-0.384386 -0.383767 0.000000 
-0.766286 0.130854 0.000000 
0.484677 -0.134362 0.000000 
0.139443 0.503763 0.000000 
-0.556234 0.386194 0.000000 
-0.823577 -0.840302 0.000000 
0.550868 -0.851097 0.000000 
-0.386873 0.252002 0.000000 
-0.771260 0.752392 0.000000 
0.467428 0.445863 0.000000 
0.105264 -0.955511 0.000000 
-0.621631 0.862590 0.000000 
-0.937896 -0.433830 0.000000 
0.385608 -0.513025 0.000000 
0.141715 0.296203 0.000000 
-0.474677 0.296299 0.000000 
CELL_DATA 175 
SCALARS MASS float 
LOOKUP_TABLE default 
0.078183 
0.086427 
0.094672 
0.086427 
0.088131 
0.092111 
0.085854 
0.092111 
0.088131 
0.088705 
0.091000 
0.086983 
0.091556 
0.086983 
0.091000 
0.088705 
0.089278 
0.091574 
0.089278 
0.092722 
0.089278 
0.092722 
0.089278 
0.091574 
0.089278 
0.078183 
0.086427 
0.094672 
0.086427 
0.088131 
0.092111 
0.085854 
0.092111 
0.088131 
0.088705 
0.091000 
0.086983 
0.091556 
0.086983 
0.091000 
0.088705 
0.089278 
0.091574 
0.089278 
0.092722 
0.089278 
0.092722 
0.089278 
0.091574 
0.089278 
0.078183 
0.086427 
0.094672 
0.086427 
0.088131 
0.092111 
0.085854 
0.092111 
0.088131 
0.088705 
0.091000 
0.086983 
0.091556 
0.086983 
0.091000 
0.088705 
0.089278 
0.091574 
0.089278 
0.092722 
0.089278 
0.092722 
0.089278 
0.091574 
0.089278 
0.078183 
0.086427 
0.094672 
0.086427 
0.088131 
0.092111 
0.085854 
0.092111 
0.088131 
0.088705 
0.091000 
0.086983 
0.091556 
0.086983 
0.091000 
0.088705 
0.089278 
0.091574 
0.089278 
0.092722 
0.089278 
0.092722 
0.089278 
0.091574 
0.089278 
0.078183 
0.086427 
0.094672 
0.086427 
0.088131 
0.092111 
0.085854 
0.092111 
0.088131 
0.088705 
0.091000 
0.086983 
0.091556 
0.086983 
0.091000 
0.088705 
0.089278 
0.091574 
0.089278 
0.092722 
0.089278 
0.092722 
0.089278 
0.091574 
0.089278 
0.078183 
0.086427 
0.094672 
0.086427 
0.088131 
0.092111 
0.085854 
0.092111 
0.088131 
0.088705 
0.091000 
0.086983 
0.091556 
0.086983 
0.091000 
0.088705 
0.089278 
0.091574 
0.089278 
0.092722 
0.089278 
0.092722 
0.089278 
0.091574 
0.089278 
0.078183 
0.086427 
0.094672 
0.086427 
0.088131 
0.092111 
0.085854 
0.092111 
0.088131 
0.088705 
0.091000 
0.086983 
0.091556 
0.086983 
0.091000 
0.088705 
0.089278 
0.091574 
0.089278 
0.092722 
0.089278 
0.092722 
0.089278 
0.091574 
0.089278 
SCALARS MASS float 
LOOKUP_TABLE default 
0.078183 
0.086427 
0.094672 
0.086427 
0.088131 
0.092111 
0.085854 
0.092111 
0.088131 
0.088705 
0.091000 
0.086983 
0.091556 
0.086983 
0.091000 
0.088705 
0.089278 
0.091574 
0.089278 
0.092722 
0.089278 
0.092722 
0.089278 
0.091574 
0.089278 
0.078183 
0.086427 
0.094672 
0.086427 
0.088131 
0.092111 
0.085854 
0.092111 
0.088131 
0.088705 
0.091000 
0.086983 
0.091556 
0.086983 
0.091000 
0.088705 
0.089278 
0.091574 
0.089278 
0.092722 
0.089278 
0.092722 
0.089278 
0.091574 
0.089278 
0.078183 
0.086427 
0.094672 
0.086427 
0.088131 
0.092111 
0.085854 
0.092111 
0.088131 
0.088705 
0.091000 
0.086983 
0.091556 
0.086983 
0.091000 
0.088705 
0.089278 
0.091574 
0.089278 
0.092722 
0.089278 
0.092722 
0.089278 
0.091574 
0.089278 
0.078183 
0.086427 
0.094672 
0.086427 
0.088131 
0.092111 
0.085854 
0.092111 
0.088131 
0.088705 
0.091000 
0.086983 
0.091556 
0.086983 
0.091000 
0.088705 
0.089278 
0.091574 
0.089278 
0.092722 
0.089278 
0.092722 
0.089278 
0.091574 
0.089278 
0.078183 
0.086427 
0.094672 
0.086427 
0.088131 
0.092111 
0.085854 
0.092111 
0.088131 
0.088705 
0.091000 
0.086983 
0.091556 
0.086983 
0.091000 
0.088705 
0.089278 
0.091574 
0.089278 
0.092722 
0.089278 
0.092722 
0.089278 
0.091574 
0.089278 
0.078183 
0.086427 
0.094672 
0.086427 
0.088131 
0.092111 
0.085854 
0.092111 
0.088131 
0.088705 
0.091000 
0.086983 
0.091556 
0.086983 
0.091000 
0.088705 
0.089278 
0.091574 
0.089278 
0.092722 
0.089278 
0.092722 
0.089278 
0.091574 
0.089278 
0.078183 
0.086427 
0.094672 
0.086427 
0.088131 
0.092111 
0.085854 
0.092111 
0.088131 
0.088705 
0.091000 
0.086983 
0.091556 
0.086983 
0.091000 
0.088705 
0.089278 
0.091574 
0.089278 
0.092722 
0.089278 
0.092722 
0.089278 
0.091574 
0.089278 
SCALARS DENSITY float 
LOOKUP_TABLE default 
20.000000 
20.000000 
20.000000 
20.000000 
20.000000 
20.000000 
20.000000 
20.000000 
20.000000 
20.000000 
20.000000 
20.000000 
20.000000 
20.000000 
20.000000 
20.000000 
20.000000 
20.000000 
20.000000 
20.000000 
20.000000 
20.000000 
20.000000 
20.000000 
20.000000 
20.000000 
20.000000 
20.000000 
20.000000 
20.000000 
20.000000 
20.000000 
20.000000 
20.000000 
20.000000 
20.000000 
20.000000 
20.000000 
20.000000 
20.000000 
20.000000 
20.000000 
20.000000 
20.000000 
20.000000 
20.000000 
20.000000 
20.000000 
20.000000 
20.000000 
20.000000 
20.000000 
20.000000 
20.000000 
20.000000 
20.000000 
20.000000 
20.000000 
20.000000 
20.000000 
20.000000 
20.000000 
20.000000 
20.000000 
20.000000 
20.000000 
20.000000 
20.000000 
20.000000 
20.000000 
20.000000 
20.000000 
20.000000 
20.000000 
20.000000 
20.000000 
20.000000 
20.000000 
20.000000 
20.000000 
20.000000 
20.000000 
20.000000 
20.000000 
20.000000 
20.000000 
20.000000 
20.000000 
20.000000 
20.000000 
20.000000 
20.000000 
20.000000 
20.000000 
20.000000 
20.000000 
20.000000 
20.000000 
20.000000 
20.000000 
20.000000 
20.000000 
20.000000 
20.000000 
20.000000 
20.000000 
20.000000 
20.000000 
20.000000 
20.000000 
20.000000 
20.000000 
20.000000 
20.000000 
20.000000 
20.000000 
20.000000 
20.000000 
20.000000 
20.000000 
20.000000 
20.000000 
20.000000 
20.000000 
20.000000 
20.000000 
20.000000 
20.000000 
20.000000 
20.000000 
20.000000 
20.000000 
20.000000 
20.000000 
20.000000 
20.000000 
20.000000 
20.000000 
20.000000 
20.000000 
20.000000 
20.000000 
20.000000 
20.000000 
20.000000 
20.000000 
20.000000 
20.000000 
20.000000 
20.000000 
20.000000 
20.000000 
20.000000 
20.000000 
20.000000 
20.000000 
20.000000 
20.000000 
20.000000 
20.000000 
20.000000 
20.000000 
20.000000 
20.000000 
20.000000 
20.000000 
20.000000 
20.000000 
20.000000 
20.000000 
20.000000 
20.000000 
20.000000 
20.000000 
20.000000 
SCALARS ELEM_i float 
LOOKUP_TABLE default 
174 
202 
175 
175 
202 
202 
202 
175 
176 
229 
202 
203 
203 
203 
176 
176 
230 
230 
230 
203 
204 
203 
204 
177 
177 
174 
201 
201 
201 
228 
201 
228 
201 
202 
227 
228 
228 
228 
229 
229 
229 
254 
254 
255 
255 
255 
256 
256 
229 
230 
173 
200 
200 
200 
199 
200 
200 
200 
227 
199 
199 
226 
226 
226 
227 
227 
198 
225 
225 
226 
226 
226 
253 
254 
254 
173 
173 
173 
173 
145 
172 
172 
172 
199 
144 
145 
171 
172 
171 
199 
198 
144 
144 
144 
171 
171 
171 
198 
198 
198 
173 
146 
146 
146 
119 
146 
146 
146 
145 
119 
119 
118 
118 
118 
145 
145 
92 
92 
91 
118 
118 
118 
117 
117 
144 
174 
147 
147 
147 
148 
147 
120 
147 
120 
121 
121 
121 
120 
120 
120 
119 
122 
121 
94 
94 
93 
93 
93 
92 
92 
174 
175 
175 
148 
176 
175 
148 
148 
148 
176 
176 
149 
149 
149 
148 
121 
177 
177 
150 
149 
150 
149 
122 
122 
122 
VECTORS VELOCITY float 
0.000000 -4.824166 0.000000 
0.000000 -4.824166 0.000000 
0.000000 -4.824166 0.000000 
-0.000000 -4.824166 0.000000 
-0.000000 -4.824166 0.000000 
-0.000000 -4.824166 0.000000 
0.000000 -4.824166 0.000000 
-0.000000 -4.824166 0.000000 
0.000000 -4.824166 0.000000 
-0.000000 -4.824166 0.000000 
-0.000000 -4.824166 0.000000 
0.000000 -4.824166 0.000000 
0.000000 -4.824166 0.000000 
0.000000 -4.824166 0.000000 
0.000000 -4.824166 0.000000 
-0.000000 -4.824166 0.000000 
0.000000 -4.824166 0.000000 
0.000000 -4.824166 0.000000 
-0.000000 -4.824166 0.000000 
0.000000 -4.824166 0.000000 
-0.000000 -4.824166 0.000000 
-0.000000 -4.824166 0.000000 
-0.000000 -4.824166 0.000000 
0.000000 -4.824166 0.000000 
-0.000000 -4.824166 0.000000 
0.000000 -4.824166 0.000000 
0.000000 -4.824166 0.000000 
0.000000 -4.824166 0.000000 
0.000000 -4.824166 0.000000 
0.000000 -4.824166 0.000000 
0.000000 -4.824166 0.000000 
-0.000000 -4.824166 0.000000 
-0.000000 -4.824166 0.000000 
-0.000000 -4.824166 0.000000 
0.000000 -4.824166 0.000000 
0.000000 -4.824166 0.000000 
-0.000000 -4.824166 0.000000 
-0.000000 -4.824166 0.000000 
-0.000000 -4.824166 0.000000 
-0.000000 -4.824166 0.000000 
-0.000000 -4.824166 0.000000 
0.000000 -4.824166 0.000000 
0.000000 -4.824166 0.000000 
-0.000000 -4.824166 0.000000 
-0.000000 -4.824166 0.000000 
-0.000000 -4.824166 0.000000 
-0.000000 -4.824166 0.000000 
-0.000000 -4.824166 0.000000 
-0.000000 -4.824166 0.000000 
-0.000000 -4.824166 0.000000 
-0.000000 -4.824166 0.000000 
0.000000 -4.824166 0.000000 
-0.000000 -4.824166 0.000000 
0.000000 -4.824166 0.000000 
0.000000 -4.824166 0.000000 
0.000000 -4.824166 0.000000 
0.000000 -4.824166 0.000000 
0.000000 -4.824166 0.000000 
0.000000 -4.824166 0.000000 
0.000000 -4.824166 0.000000 
0.000000 -4.824166 0.000000 
0.000000 -4.824166 0.000000 
0.000000 -4.824166 0.000000 
0.000000 -4.824166 0.000000 
0.000000 -4.824166 0.000000 
-0.000000 -4.824166 0.000000 
-0.000000 -4.824166 0.000000 
0.000000 -4.824166 0.000000 
0.000000 -4.824166 0.000000 
-0.000000 -4.824166 0.000000 
-0.000000 -4.824166 0.000000 
0.000000 -4.824166 0.000000 
-0.000000 -4.824166 0.000000 
-0.000000 -4.824166 0.000000 
-0.000000 -4.824166 0.000000 
-0.000000 -4.824166 0.000000 
0.000000 -4.824166 0.000000 
-0.000000 -4.824166 0.000000 
0.000000 -4.824166 0.000000 
-0.000000 -4.824166 0.000000 
0.000000 -4.824166 0.000000 
-0.000000 -4.824166 0.000000 
0.000000 -4.824166 0.000000 
0.000000 -4.824166 0.000000 
-0.000000 -4.824166 0.000000 
-0.000000 -4.824166 0.000000 
-0.000000 -4.824166 0.000000 
-0.000000 -4.824166 0.000000 
-0.000000 -4.824166 0.000000 
-0.000000 -4.824166 0.000000 
-0.000000 -4.824166 0.000000 
0.000000 -4.824166 0.000000 
-0.000000 -4.824166 0.000000 
0.000000 -4.824166 0.000000 
0.000000 -4.824166 0.000000 
-0.000000 -4.824166 0.000000 
0.000000 -4.824166 0.000000 
0.000000 -4.824166 0.000000 
-0.000000 -4.824166 0.000000 
0.000000 -4.824166 0.000000 
-0.000000 -4.824166 0.000000 
-0.000000 -4.824166 0.000000 
-0.000000 -4.824166 0.000000 
-0.000000 -4.824166 0.000000 
0.000000 -4.824166 0.000000 
-0.000000 -4.824166 0.000000 
-0.000000 -4.824166 0.000000 
-0.000000 -4.824166 0.000000 
-0.000000 -4.824166 0.000000 
0.000000 -4.824166 0.000000 
0.000000 -4.824166 0.000000 
0.000000 -4.824166 0.000000 
-0.000000 -4.824166 0.000000 
-0.000000 -4.824166 0.000000 
-0.000000 -4.824166 0.000000 
-0.000000 -4.824166 0.000000 
-0.000000 -4.824166 0.000000 
0.000000 -4.824166 0.000000 
-0.000000 -4.824166 0.000000 
-0.000000 -4.824166 0.000000 
-0.000000 -4.824166 0.000000 
-0.000000 -4.824166 0.000000 
-0.000000 -4.824166 0.000000 
0.000000 -4.824166 0.000000 
-0.000000 -4.824166 0.000000 
-0.000000 -4.824166 0.000000 
0.000000 -4.824166 0.000000 
0.000000 -4.824166 0.000000 
0.000000 -4.824166 0.000000 
-0.000000 -4.824166 0.000000 
0.000000 -4.824166 0.000000 
-0.000000 -4.824166 0.000000 
0.000000 -4.824166 0.000000 
0.000000 -4.824166 0.000000 
0.000000 -4.824166 0.000000 
-0.000000 -4.824166 0.000000 
0.000000 -4.824166 0.000000 
-0.000000 -4.824166 0.000000 
-0.000000 -4.824166 0.000000 
-0.000000 -4.824166 0.000000 
-0.000000 -4.824166 0.000000 
-0.000000 -4.824166 0.000000 
-0.000000 -4.824166 0.000000 
0.000000 -4.824166 0.000000 
0.000000 -4.824166 0.000000 
0.000000 -4.824166 0.000000 
0.000000 -4.824166 0.000000 
0.000000 -4.824166 0.000000 
-0.000000 -4.824166 0.000000 
0.000000 -4.824166 0.000000 
0.000000 -4.824166 0.000000 
-0.000000 -4.824166 0.000000 
0.000000 -4.824166 0.000000 
-0.000000 -4.824166 0.000000 
-0.000000 -4.824166 0.000000 
-0.000000 -4.824166 0.000000 
-0.000000 -4.824166 0.000000 
-0.000000 -4.824166 0.000000 
0.000000 -4.824166 0.000000 
-0.000000 -4.824166 0.000000 
0.000000 -4.824166 0.000000 
-0.000000 -4.824166 0.000000 
-0.000000 -4.824166 0.000000 
0.000000 -4.824166 0.000000 
0.000000 -4.824166 0.000000 
0.000000 -4.824166 0.000000 
0.000000 -4.824166 0.000000 
0.000000 -4.824166 0.000000 
0.000000 -4.824166 0.000000 
0.000000 -4.824166 0.000000 
0.000000 -4.824166 0.000000 
0.000000 -4.824166 0.000000 
-0.000000 -4.824166 0.000000 
0.000000 -4.824166 0.000000 
0.000000 -4.824166 0.000000 
TENSORS STRESS float 
-0.000000 -0.000000 0.000000 
0.000000 -0.000000 0.000000 
0.000000 0.000000 0.000000 

-0.000000 -0.000000 0.000000 
0.000000 0.000000 0.000000 
0.000000 0.000000 0.000000 

-0.000000 -0.000000 0.000000 
0.000000 -0.000000 0.000000 
0.000000 0.000000 0.000000 

-0.000000 0.000000 0.000000 
0.000000 -0.000000 0.000000 
0.000000 0.000000 0.000000 

-0.000000 -0.000000 0.000000 
0.000000 -0.000000 0.000000 
0.000000 0.000000 0.000000 

-0.000000 -0.000000 0.000000 
0.000000 0.000000 0.000000 
0.000000 0.000000 0.000000 

0.000000 0.000000 0.000000 
0.000000 0.000000 0.000000 
0.000000 0.000000 0.000000 

-0.000000 0.000000 0.000000 
0.000000 -0.000000 0.000000 
0.000000 0.000000 0.000000 

-0.000000 0.000000 0.000000 
0.000000 -0.000000 0.000000 
0.000000 0.000000 0.000000 

-0.000000 0.000000 0.000000 
0.000000 -0.000000 0.000000 
0.000000 0.000000 0.000000 

0.000000 -0.000000 0.000000 
0.000000 -0.000000 0.000000 
0.000000 0.000000 0.000000 

0.000000 0.000000 0.000000 
0.000000 0.000000 0.000000 
0.000000 0.000000 0.000000 

0.000000 -0.000000 0.000000 
0.000000 0.000000 0.000000 
0.000000 0.000000 0.000000 

-0.000000 -0.000000 0.000000 
0.000000 -0.000000 0.000000 
0.000000 0.000000 0.000000 

-0.000000 -0.000000 0.000000 
0.000000 -0.000000 0.000000 
0.000000 0.000000 0.000000 

0.000000 0.000000 0.000000 
0.000000 0.000000 0.000000 
0.000000 0.000000 0.000000 

0.000000 0.000000 0.000000 
0.000000 0.000000 0.000000 
0.000000 0.000000 0.000000 

0.000000 0.000000 0.000000 
0.000000 0.000000 0.000000 
0.000000 0.000000 0.000000 

-0.000000 -0.000000 0.000000 
0.000000 0.000000 0.000000 
0.000000 0.000000 0.000000 

-0.000000 0.000000 0.000000 
0.000000 -0.000000 0.000000 
0.000000 0.000000 0.000000 

-0.000000 -0.000000 0.000000 
0.000000 0.000000 0.000000 
0.000000 0.000000 0.000000 

-0.000000 -0.000000 0.000000 
0.000000 0.000000 0.000000 
0.000000 0.000000 0.000000 

0.000000 -0.000000 0.000000 
0.000000 0.000000 0.000000 
0.000000 0.000000 0.000000 

0.000000 -0.000000 0.000000 
0.000000 0.000000 0.000000 
0.000000 0.000000 0.000000 

0.000000 0.000000 0.000000 
0.000000 -0.000000 0.000000 
0.000000 0.000000 0.000000 

0.000000 0.000000 0.000000 
0.000000 0.000000 0.000000 
0.000000 0.000000 0.000000 

-0.000000 -0.000000 0.000000 
0.000000 -0.000000 0.000000 
0.000000 0.000000 0.000000 

-0.000000 -0.000000 0.000000 
0.000000 0.000000 0.000000 
0.000000 0.000000 0.000000 

-0.000000 0.000000 0.000000 
0.000000 -0.000000 0.000000 
0.000000 0.000000 0.000000 

-0.000000 0.000000 0.000000 
0.000000 -0.000000 0.000000 
0.000000 0.000000 0.000000 

-0.000000 -0.000000 0.000000 
0.000000 0.000000 0.000000 
0.000000 0.000000 0.000000 

-0.000000 -0.000000 0.000000 
0.000000 -0.000000 0.000000 
0.000000 0.000000 0.000000 

-0.000000 -0.000000 0.000000 
0.000000 0.000000 0.000000 
0.000000 0.000000 0.000000 

-0.000000 -0.000000 0.000000 
0.000000 -0.000000 0.000000 
0.000000 0.000000 0.000000 

0.000000 -0.000000 0.000000 
0.000000 0.000000 0.000000 
0.000000 0.000000 0.000000 

-0.000000 0.000000 0.000000 
0.000000 0.000000 0.000000 
0.000000 0.000000 0.000000 

-0.000000 -0.000000 0.000000 
0.000000 0.000000 0.000000 
0.000000 0.000000 0.000000 

-0.000000 0.000000 0.000000 
0.000000 0.000000 0.000000 
0.000000 0.000000 0.000000 

0.000000 -0.000000 0.000000 
0.000000 0.000000 0.000000 
0.000000 0.000000 0.000000 

-0.000000 0.000000 0.000000 
0.000000 0.000000 0.000000 
0.000000 0.000000 0.000000 

-0.000000 -0.000000 0.000000 
0.000000 0.000000 0.000000 
0.000000 0.000000 0.000000 

-0.000000 0.000000 0.000000 
0.000000 -0.000000 0.000000 
0.000000 0.000000 0.000000 

-0.000000 0.000000 0.000000 
0.000000 0.000000 0.000000 
0.000000 0.000000 0.000000 

-0.000000 -0.000000 0.000000 
0.000000 0.000000 0.000000 
0.000000 0.000000 0.000000 

-0.000000 0.000000 0.000000 
0.000000 0.000000 0.000000 
0.000000 0.000000 0.000000 

-0.000000 -0.000000 0.000000 
0.000000 -0.000000 0.000000 
0.000000 0.000000 0.000000 

-0.000000 -0.000000 0.000000 
0.000000 0.000000 0.000000 
0.000000 0.000000 0.000000 

-0.000000 -0.000000 0.000000 
0.000000 0.000000 0.000000 
0.000000 0.000000 0.000000 

-0.000000 -0.000000 0.000000 
0.000000 0.000000 0.000000 
0.000000 0.000000 0.000000 

-0.000000 -0.000000 0.000000 
0.000000 -0.000000 0.000000 
0.000000 0.000000 0.000000 

0.000000 -0.000000 0.000000 
0.000000 0.000000 0.000000 
0.000000 0.000000 0.000000 

-0.000000 0.000000 0.000000 
0.000000 -0.000000 0.000000 
0.000000 0.000000 0.000000 

-0.000000 -0.000000 0.000000 
0.000000 0.000000 0.000000 
0.000000 0.000000 0.000000 

0.000000 0.000000 0.000000 
0.000000 0.000000 0.000000 
0.000000 0.000000 0.000000 

-0.000000 0.000000 0.000000 
0.000000 -0.000000 0.000000 
0.000000 0.000000 0.000000 

-0.000000 0.000000 0.000000 
0.000000 0.000000 0.000000 
0.000000 0.000000 0.000000 

0.000000 0.000000 0.000000 
0.000000 0.000000 0.000000 
0.000000 0.000000 0.000000 

-0.000000 0.000000 0.000000 
0.000000 0.000000 0.000000 
0.000000 0.000000 0.000000 

0.000000 0.000000 0.000000 
0.000000 0.000000 0.000000 
0.000000 0.000000 0.000000 

-0.000000 0.000000 0.000000 
0.000000 0.000000 0.000000 
0.000000 0.000000 0.000000 

-0.000000 0.000000 0.000000 
0.000000 0.000000 0.000000 
0.000000 0.000000 0.000000 

-0.000000 0.000000 0.000000 
0.000000 0.000000 0.000000 
0.000000 0.000000 0.000000 

-0.000000 0.000000 0.000000 
0.000000 0.000000 0.000000 
0.000000 0.000000 0.000000 

-0.000000 -0.000000 0.000000 
0.000000 0.000000 0.000000 
0.000000 0.000000 0.000000 

-0.000000 0.000000 0.000000 
0.000000 0.000000 0.000000 
0.000000 0.000000 0.000000 

-0.000000 0.000000 0.000000 
0.000000 -0.000000 0.000000 
0.000000 0.000000 0.000000 

0.000000 -0.000000 0.000000 
0.000000 0.000000 0.000000 
0.000000 0.000000 0.000000 

-0.000000 0.000000 0.000000 
0.000000 0.000000 0.000000 
0.000000 0.000000 0.000000 

-0.000000 0.000000 0.000000 
0.000000 0.000000 0.000000 
0.000000 0.000000 0.000000 

0.000000 -0.000000 0.000000 
0.000000 0.000000 0.000000 
0.000000 0.000000 0.000000 

0.000000 -0.000000 0.000000 
0.000000 0.000000 0.000000 
0.000000 0.000000 0.000000 

-0.000000 0.000000 0.000000 
0.000000 0.000000 0.000000 
0.000000 0.000000 0.000000 

-0.000000 0.000000 0.000000 
0.000000 0.000000 0.000000 
0.000000 0.000000 0.000000 

-0.000000 0.000000 0.000000 
0.000000 -0.000000 0.000000 
0.000000 0.000000 0.000000 

0.000000 0.000000 0.000000 
0.000000 0.000000 0.000000 
0.000000 0.000000 0.000000 

-0.000000 -0.000000 0.000000 
0.000000 -0.000000 0.000000 
0.000000 0.000000 0.000000 

-0.000000 0.000000 0.000000 
0.000000 0.000000 0.000000 
0.000000 0.000000 0.000000 

-0.000000 -0.000000 0.000000 
0.000000 0.000000 0.000000 
0.000000 0.000000 0.000000 

0.000000 -0.000000 0.000000 
0.000000 0.000000 0.000000 
0.000000 0.000000 0.000000 

-0.000000 -0.000000 0.000000 
0.000000 -0.000000 0.000000 
0.000000 0.000000 0.000000 

-0.000000 -0.000000 0.000000 
0.000000 0.000000 0.000000 
0.000000 0.000000 0.000000 

-0.000000 0.000000 0.000000 
0.000000 -0.000000 0.000000 
0.000000 0.000000 0.000000 

-0.000000 0.000000 0.000000 
0.000000 0.000000 0.000000 
0.000000 0.000000 0.000000 

-0.000000 0.000000 0.000000 
0.000000 0.000000 0.000000 
0.000000 0.000000 0.000000 

-0.000000 -0.000000 0.000000 
0.000000 0.000000 0.000000 
0.000000 0.000000 0.000000 

0.000000 0.000000 0.000000 
0.000000 0.000000 0.000000 
0.000000 0.000000 0.000000 

0.000000 -0.000000 0.000000 
0.000000 0.000000 0.000000 
0.000000 0.000000 0.000000 

-0.000000 -0.000000 0.000000 
0.000000 -0.000000 0.000000 
0.000000 0.000000 0.000000 

0.000000 -0.000000 0.000000 
0.000000 0.000000 0.000000 
0.000000 0.000000 0.000000 

-0.000000 0.000000 0.000000 
0.000000 -0.000000 0.000000 
0.000000 0.000000 0.000000 

0.000000 -0.000000 0.000000 
0.000000 0.000000 0.000000 
0.000000 0.000000 0.000000 

-0.000000 0.000000 0.000000 
0.000000 -0.000000 0.000000 
0.000000 0.000000 0.000000 

-0.000000 0.000000 0.000000 
0.000000 0.000000 0.000000 
0.000000 0.000000 0.000000 

-0.000000 0.000000 0.000000 
0.000000 -0.000000 0.000000 
0.000000 0.000000 0.000000 

0.000000 0.000000 0.000000 
0.000000 0.000000 0.000000 
0.000000 0.000000 0.000000 

0.000000 0.000000 0.000000 
0.000000 0.000000 0.000000 
0.000000 0.000000 0.000000 

0.000000 -0.000000 0.000000 
0.000000 -0.000000 0.000000 
0.000000 0.000000 0.000000 

0.000000 0.000000 0.000000 
0.000000 0.000000 0.000000 
0.000000 0.000000 0.000000 

0.000000 -0.000000 0.000000 
0.000000 -0.000000 0.000000 
0.000000 0.000000 0.000000 

0.000000 -0.000000 0.000000 
0.000000 0.000000 0.000000 
0.000000 0.000000 0.000000 

-0.000000 -0.000000 0.000000 
0.000000 0.000000 0.000000 
0.000000 0.000000 0.000000 

0.000000 0.000000 0.000000 
0.000000 0.000000 0.000000 
0.000000 0.000000 0.000000 

0.000000 0.000000 0.000000 
0.000000 0.000000 0.000000 
0.000000 0.000000 0.000000 

0.000000 0.000000 0.000000 
0.000000 0.000000 0.000000 
0.000000 0.000000 0.000000 

0.000000 0.000000 0.000000 
0.000000 -0.000000 0.000000 
0.000000 0.000000 0.000000 

-0.000000 -0.000000 0.000000 
0.000000 0.000000 0.000000 
0.000000 0.000000 0.000000 

-0.000000 0.000000 0.000000 
0.000000 -0.000000 0.000000 
0.000000 0.000000 0.000000 

-0.000000 -0.000000 0.000000 
0.000000 -0.000000 0.000000 
0.000000 0.000000 0.000000 

-0.000000 -0.000000 0.000000 
0.000000 0.000000 0.000000 
0.000000 0.000000 0.000000 

-0.000000 0.000000 0.000000 
0.000000 -0.000000 0.000000 
0.000000 0.000000 0.000000 

0.000000 0.000000 0.000000 
0.000000 0.000000 0.000000 
0.000000 0.000000 0.000000 

0.000000 0.000000 0.000000 
0.000000 -0.000000 0.000000 
0.000000 0.000000 0.000000 

-0.000000 0.000000 0.000000 
0.000000 -0.000000 0.000000 
0.000000 0.000000 0.000000 

0.000000 -0.000000 0.000000 
0.000000 0.000000 0.000000 
0.000000 0.000000 0.000000 

0.000000 -0.000000 0.000000 
0.000000 0.000000 0.000000 
0.000000 0.000000 0.000000 

0.000000 0.000000 0.000000 
0.000000 0.000000 0.000000 
0.000000 0.000000 0.000000 

0.000000 -0.000000 0.000000 
0.000000 0.000000 0.000000 
0.000000 0.000000 0.000000 

0.000000 -0.000000 0.000000 
0.000000 0.000000 0.000000 
0.000000 0.000000 0.000000 

0.000000 0.000000 0.000000 
0.000000 0.000000 0.000000 
0.000000 0.000000 0.000000 

-0.000000 -0.000000 0.000000 
0.000000 -0.000000 0.000000 
0.000000 0.000000 0.000000 

-0.000000 0.000000 0.000000 
0.000000 -0.000000 0.000000 
0.000000 0.000000 0.000000 

0.000000 0.000000 0.000000 
0.000000 0.000000 0.000000 
0.000000 0.000000 0.000000 

-0.000000 0.000000 0.000000 
0.000000 -0.000000 0.000000 
0.000000 0.000000 0.000000 

-0.000000 -0.000000 0.000000 
0.000000 0.000000 0.000000 
0.000000 0.000000 0.000000 

-0.000000 -0.000000 0.000000 
0.000000 -0.000000 0.000000 
0.000000 0.000000 0.000000 

-0.000000 -0.000000 0.000000 
0.000000 -0.000000 0.000000 
0.000000 0.000000 0.000000 

0.000000 -0.000000 0.000000 
0.000000 -0.000000 0.000000 
0.000000 0.000000 0.000000 

0.000000 -0.000000 0.000000 
0.000000 0.000000 0.000000 
0.000000 0.000000 0.000000 

-0.000000 -0.000000 0.000000 
0.000000 -0.000000 0.000000 
0.000000 0.000000 0.000000 

-0.000000 0.000000 0.000000 
0.000000 -0.000000 0.000000 
0.000000 0.000000 0.000000 

0.000000 0.000000 0.000000 
0.000000 0.000000 0.000000 
0.000000 0.000000 0.000000 

-0.000000 -0.000000 0.000000 
0.000000 -0.000000 0.000000 
0.000000 0.000000 0.000000 

0.000000 -0.000000 0.000000 
0.000000 0.000000 0.000000 
0.000000 0.000000 0.000000 

0.000000 0.000000 0.000000 
0.000000 -0.000000 0.000000 
0.000000 0.000000 0.000000 

0.000000 -0.000000 0.000000 
0.000000 0.000000 0.000000 
0.000000 0.000000 0.000000 

0.000000 -0.000000 0.000000 
0.000000 -0.000000 0.000000 
0.000000 0.000000 0.000000 

0.000000 -0.000000 0.000000 
0.000000 -0.000000 0.000000 
0.000000 0.000000 0.000000 

0.000000 0.000000 0.000000 
0.000000 0.000000 0.000000 
0.000000 0.000000 0.000000 

-0.000000 -0.000000 0.000000 
0.000000 -0.000000 0.000000 
0.000000 0.000000 0.000000 

-0.000000 -0.000000 0.000000 
0.000000 -0.000000 0.000000 
0.000000 0.000000 0.000000 

0.000000 0.000000 0.000000 
0.000000 0.000000 0.000000 
0.000000 0.000000 0.000000 

0.000000 0.000000 0.000000 
0.000000 -0.000000 0.000000 
0.000000 0.000000 0.000000 

0.000000 0.000000 0.000000 
0.000000 0.000000 0.000000 
0.000000 0.000000 0.000000 

0.000000 0.000000 0.000000 
0.000000 0.000000 0.000000 
0.000000 0.000000 0.000000 

0.000000 -0.000000 0.000000 
0.000000 0.000000 0.000000 
0.000000 0.000000 0.000000 

0.000000 -0.000000 0.000000 
0.000000 0.000000 0.000000 
0.000000 0.000000 0.000000 

0.000000 -0.000000 0.000000 
0.000000 -0.000000 0.000000 
0.000000 0.000000 0.000000 

-0.000000 -0.000000 0.000000 
0.000000 -0.000000 0.000000 
0.000000 0.000000 0.000000 

-0.000000 -0.000000 0.000000 
0.000000 -0.000000 0.000000 
0.000000 0.000000 0.000000 

-0.000000 -0.000000 0.000000 
0.000000 0.000000 0.000000 
0.000000 0.000000 0.000000 

-0.000000 0.000000 0.000000 
0.000000 -0.000000 0.000000 
0.000000 0.000000 0.000000 

0.000000 0.000000 0.000000 
0.000000 0.000000 0.000000 
0.000000 0.000000 0.000000 

0.000000 0.000000 0.000000 
0.000000 0.000000 0.000000 
0.000000 0.000000 0.000000 

-0.000000 0.000000 0.000000 
0.000000 -0.000000 0.000000 
0.000000 0.000000 0.000000 

-0.000000 0.000000 0.000000 
0.000000 -0.000000 0.000000 
0.000000 0.000000 0.000000 

-0.000000 0.000000 0.000000 
0.000000 -0.000000 0.000000 
0.000000 0.000000 0.000000 

-0.000000 0.000000 0.000000 
0.000000 -0.000000 0.000000 
0.000000 0.000000 0.000000 

-0.000000 -0.000000 0.000000 
0.000000 -0.000000 0.000000 
0.000000 0.000000 0.000000 

-0.000000 0.000000 0.000000 
0.000000 0.000000 0.000000 
0.000000 0.000000 0.000000 

0.000000 0.000000 0.000000 
0.000000 0.000000 0.000000 
0.000000 0.000000 0.000000 

-0.000000 0.000000 0.000000 
0.000000 0.000000 0.000000 
0.000000 0.000000 0.000000 

-0.000000 -0.000000 0.000000 
0.000000 -0.000000 0.000000 
0.000000 0.000000 0.000000 

-0.000000 0.000000 0.000000 
0.000000 -0.000000 0.000000 
0.000000 0.000000 0.000000 

0.000000 0.000000 0.000000 
0.000000 0.000000 0.000000 
0.000000 0.000000 0.000000 

-0.000000 -0.000000 0.000000 
0.000000 -0.000000 0.000000 
0.000000 0.000000 0.000000 

0.000000 -0.000000 0.000000 
0.000000 -0.000000 0.000000 
0.000000 0.000000 0.000000 

0.000000 0.000000 0.000000 
0.000000 0.000000 0.000000 
0.000000 0.000000 0.000000 

0.000000 -0.000000 0.000000 
0.000000 0.000000 0.000000 
0.000000 0.000000 0.000000 

0.000000 -0.000000 0.000000 
0.000000 0.000000 0.000000 
0.000000 0.000000 0.000000 

0.000000 -0.000000 0.000000 
0.000000 -0.000000 0.000000 
0.000000 0.000000 0.000000 

0.000000 -0.000000 0.000000 
0.000000 -0.000000 0.000000 
0.000000 0.000000 0.000000 

-0.000000 0.000000 0.000000 
0.000000 -0.000000 0.000000 
0.000000 0.000000 0.000000 

-0.000000 -0.000000 0.000000 
0.000000 -0.000000 0.000000 
0.000000 0.000000 0.000000 

-0.000000 0.000000 0.000000 
0.000000 -0.000000 0.000000 
0.000000 0.000000 0.000000 

-0.000000 -0.000000 0.000000 
0.000000 -0.000000 0.000000 
0.000000 0.000000 0.000000 

TENSORS STRAIN float 
0.000000 -0.000000 0.000000 
0.000000 -0.000000 0.000000 
0.000000 0.000000 0.000000 

-0.000000 -0.000000 0.000000 
0.000000 0.000000 0.000000 
0.000000 0.000000 0.000000 

0.000000 -0.000000 0.000000 
0.000000 -0.000000 0.000000 
0.000000 0.000000 0.000000 

0.000000 0.000000 0.000000 
0.000000 -0.000000 0.000000 
0.000000 0.000000 0.000000 

-0.000000 -0.000000 0.000000 
0.000000 -0.000000 0.000000 
0.000000 0.000000 0.000000 

-0.000000 -0.000000 0.000000 
0.000000 0.000000 0.000000 
0.000000 0.000000 0.000000 

0.000000 0.000000 0.000000 
0.000000 0.000000 0.000000 
0.000000 0.000000 0.000000 

-0.000000 0.000000 0.000000 
0.000000 -0.000000 0.000000 
0.000000 0.000000 0.000000 

-0.000000 0.000000 0.000000 
0.000000 -0.000000 0.000000 
0.000000 0.000000 0.000000 

-0.000000 0.000000 0.000000 
0.000000 -0.000000 0.000000 
0.000000 0.000000 0.000000 

0.000000 -0.000000 0.000000 
0.000000 -0.000000 0.000000 
0.000000 0.000000 0.000000 

0.000000 0.000000 0.000000 
0.000000 0.000000 0.000000 
0.000000 0.000000 0.000000 

0.000000 -0.000000 0.000000 
0.000000 0.000000 0.000000 
0.000000 0.000000 0.000000 

0.000000 -0.000000 0.000000 
0.000000 -0.000000 0.000000 
0.000000 0.000000 0.000000 

-0.000000 -0.000000 0.000000 
0.000000 -0.000000 0.000000 
0.000000 0.000000 0.000000 

0.000000 0.000000 0.000000 
0.000000 0.000000 0.000000 
0.000000 0.000000 0.000000 

0.000000 0.000000 0.000000 
0.000000 0.000000 0.000000 
0.000000 0.000000 0.000000 

0.000000 0.000000 0.000000 
0.000000 0.000000 0.000000 
0.000000 0.000000 0.000000 

-0.000000 -0.000000 0.000000 
0.000000 0.000000 0.000000 
0.000000 0.000000 0.000000 

0.000000 0.000000 0.000000 
0.000000 -0.000000 0.000000 
0.000000 0.000000 0.000000 

-0.000000 -0.000000 0.000000 
0.000000 0.000000 0.000000 
0.000000 0.000000 0.000000 

-0.000000 -0.000000 0.000000 
0.000000 0.000000 0.000000 
0.000000 0.000000 0.000000 

0.000000 -0.000000 0.000000 
0.000000 0.000000 0.000000 
0.000000 0.000000 0.000000 

0.000000 -0.000000 0.000000 
0.000000 0.000000 0.000000 
0.000000 0.000000 0.000000 

0.000000 0.000000 0.000000 
0.000000 -0.000000 0.000000 
0.000000 0.000000 0.000000 

-0.000000 0.000000 0.000000 
0.000000 0.000000 0.000000 
0.000000 0.000000 0.000000 

-0.000000 -0.000000 0.000000 
0.000000 0.000000 0.000000 
0.000000 0.000000 0.000000 

-0.000000 -0.000000 0.000000 
0.000000 0.000000 0.000000 
0.000000 0.000000 0.000000 

-0.000000 0.000000 0.000000 
0.000000 -0.000000 0.000000 
0.000000 0.000000 0.000000 

-0.000000 0.000000 0.000000 
0.000000 -0.000000 0.000000 
0.000000 0.000000 0.000000 

-0.000000 -0.000000 0.000000 
0.000000 0.000000 0.000000 
0.000000 0.000000 0.000000 

-0.000000 -0.000000 0.000000 
0.000000 -0.000000 0.000000 
0.000000 0.000000 0.000000 

-0.000000 -0.000000 0.000000 
0.000000 0.000000 0.000000 
0.000000 0.000000 0.000000 

-0.000000 -0.000000 0.000000 
0.000000 0.000000 0.000000 
0.000000 0.000000 0.000000 

-0.000000 -0.000000 0.000000 
0.000000 0.000000 0.000000 
0.000000 0.000000 0.000000 

-0.000000 0.000000 0.000000 
0.000000 0.000000 0.000000 
0.000000 0.000000 0.000000 

-0.000000 -0.000000 0.000000 
0.000000 0.000000 0.000000 
0.000000 0.000000 0.000000 

-0.000000 0.000000 0.000000 
0.000000 0.000000 0.000000 
0.000000 0.000000 0.000000 

-0.000000 -0.000000 0.000000 
0.000000 0.000000 0.000000 
0.000000 0.000000 0.000000 

-0.000000 0.000000 0.000000 
0.000000 0.000000 0.000000 
0.000000 0.000000 0.000000 

-0.000000 -0.000000 0.000000 
0.000000 0.000000 0.000000 
0.000000 0.000000 0.000000 

-0.000000 0.000000 0.000000 
0.000000 -0.000000 0.000000 
0.000000 0.000000 0.000000 

-0.000000 0.000000 0.000000 
0.000000 0.000000 0.000000 
0.000000 0.000000 0.000000 

-0.000000 -0.000000 0.000000 
0.000000 0.000000 0.000000 
0.000000 0.000000 0.000000 

-0.000000 0.000000 0.000000 
0.000000 0.000000 0.000000 
0.000000 0.000000 0.000000 

-0.000000 -0.000000 0.000000 
0.000000 -0.000000 0.000000 
0.000000 0.000000 0.000000 

-0.000000 -0.000000 0.000000 
0.000000 0.000000 0.000000 
0.000000 0.000000 0.000000 

-0.000000 -0.000000 0.000000 
0.000000 0.000000 0.000000 
0.000000 0.000000 0.000000 

-0.000000 -0.000000 0.000000 
0.000000 0.000000 0.000000 
0.000000 0.000000 0.000000 

-0.000000 -0.000000 0.000000 
0.000000 -0.000000 0.000000 
0.000000 0.000000 0.000000 

-0.000000 -0.000000 0.000000 
0.000000 0.000000 0.000000 
0.000000 0.000000 0.000000 

-0.000000 0.000000 0.000000 
0.000000 0.000000 0.000000 
0.000000 0.000000 0.000000 

-0.000000 -0.000000 0.000000 
0.000000 0.000000 0.000000 
0.000000 0.000000 0.000000 

-0.000000 0.000000 0.000000 
0.000000 0.000000 0.000000 
0.000000 0.000000 0.000000 

-0.000000 0.000000 0.000000 
0.000000 -0.000000 0.000000 
0.000000 0.000000 0.000000 

-0.000000 0.000000 0.000000 
0.000000 0.000000 0.000000 
0.000000 0.000000 0.000000 

-0.000000 0.000000 0.000000 
0.000000 0.000000 0.000000 
0.000000 0.000000 0.000000 

-0.000000 0.000000 0.000000 
0.000000 0.000000 0.000000 
0.000000 0.000000 0.000000 

-0.000000 0.000000 0.000000 
0.000000 0.000000 0.000000 
0.000000 0.000000 0.000000 

-0.000000 0.000000 0.000000 
0.000000 0.000000 0.000000 
0.000000 0.000000 0.000000 

-0.000000 0.000000 0.000000 
0.000000 0.000000 0.000000 
0.000000 0.000000 0.000000 

-0.000000 0.000000 0.000000 
0.000000 0.000000 0.000000 
0.000000 0.000000 0.000000 

-0.000000 0.000000 0.000000 
0.000000 0.000000 0.000000 
0.000000 0.000000 0.000000 

-0.000000 -0.000000 0.000000 
0.000000 0.000000 0.000000 
0.000000 0.000000 0.000000 

-0.000000 0.000000 0.000000 
0.000000 0.000000 0.000000 
0.000000 0.000000 0.000000 

-0.000000 0.000000 0.000000 
0.000000 0.000000 0.000000 
0.000000 0.000000 0.000000 

0.000000 -0.000000 0.000000 
0.000000 0.000000 0.000000 
0.000000 0.000000 0.000000 

-0.000000 0.000000 0.000000 
0.000000 0.000000 0.000000 
0.000000 0.000000 0.000000 

-0.000000 0.000000 0.000000 
0.000000 0.000000 0.000000 
0.000000 0.000000 0.000000 

-0.000000 -0.000000 0.000000 
0.000000 0.000000 0.000000 
0.000000 0.000000 0.000000 

0.000000 -0.000000 0.000000 
0.000000 0.000000 0.000000 
0.000000 0.000000 0.000000 

-0.000000 0.000000 0.000000 
0.000000 0.000000 0.000000 
0.000000 0.000000 0.000000 

-0.000000 0.000000 0.000000 
0.000000 0.000000 0.000000 
0.000000 0.000000 0.000000 

-0.000000 0.000000 0.000000 
0.000000 -0.000000 0.000000 
0.000000 0.000000 0.000000 

-0.000000 0.000000 0.000000 
0.000000 0.000000 0.000000 
0.000000 0.000000 0.000000 

-0.000000 -0.000000 0.000000 
0.000000 0.000000 0.000000 
0.000000 0.000000 0.000000 

-0.000000 0.000000 0.000000 
0.000000 0.000000 0.000000 
0.000000 0.000000 0.000000 

-0.000000 -0.000000 0.000000 
0.000000 0.000000 0.000000 
0.000000 0.000000 0.000000 

-0.000000 -0.000000 0.000000 
0.000000 0.000000 0.000000 
0.000000 0.000000 0.000000 

-0.000000 -0.000000 0.000000 
0.000000 -0.000000 0.000000 
0.000000 0.000000 0.000000 

-0.000000 -0.000000 0.000000 
0.000000 0.000000 0.000000 
0.000000 0.000000 0.000000 

-0.000000 0.000000 0.000000 
0.000000 -0.000000 0.000000 
0.000000 0.000000 0.000000 

-0.000000 0.000000 0.000000 
0.000000 0.000000 0.000000 
0.000000 0.000000 0.000000 

-0.000000 0.000000 0.000000 
0.000000 0.000000 0.000000 
0.000000 0.000000 0.000000 

-0.000000 -0.000000 0.000000 
0.000000 0.000000 0.000000 
0.000000 0.000000 0.000000 

-0.000000 0.000000 0.000000 
0.000000 0.000000 0.000000 
0.000000 0.000000 0.000000 

0.000000 -0.000000 0.000000 
0.000000 0.000000 0.000000 
0.000000 0.000000 0.000000 

0.000000 -0.000000 0.000000 
0.000000 -0.000000 0.000000 
0.000000 0.000000 0.000000 

0.000000 -0.000000 0.000000 
0.000000 0.000000 0.000000 
0.000000 0.000000 0.000000 

-0.000000 0.000000 0.000000 
0.000000 0.000000 0.000000 
0.000000 0.000000 0.000000 

0.000000 -0.000000 0.000000 
0.000000 0.000000 0.000000 
0.000000 0.000000 0.000000 

-0.000000 0.000000 0.000000 
0.000000 -0.000000 0.000000 
0.000000 0.000000 0.000000 

-0.000000 0.000000 0.000000 
0.000000 0.000000 0.000000 
0.000000 0.000000 0.000000 

-0.000000 0.000000 0.000000 
0.000000 -0.000000 0.000000 
0.000000 0.000000 0.000000 

0.000000 0.000000 0.000000 
0.000000 -0.000000 0.000000 
0.000000 0.000000 0.000000 

0.000000 0.000000 0.000000 
0.000000 0.000000 0.000000 
0.000000 0.000000 0.000000 

0.000000 -0.000000 0.000000 
0.000000 -0.000000 0.000000 
0.000000 0.000000 0.000000 

0.000000 0.000000 0.000000 
0.000000 0.000000 0.000000 
0.000000 0.000000 0.000000 

0.000000 -0.000000 0.000000 
0.000000 -0.000000 0.000000 
0.000000 0.000000 0.000000 

0.000000 -0.000000 0.000000 
0.000000 0.000000 0.000000 
0.000000 0.000000 0.000000 

-0.000000 -0.000000 0.000000 
0.000000 0.000000 0.000000 
0.000000 0.000000 0.000000 

0.000000 0.000000 0.000000 
0.000000 0.000000 0.000000 
0.000000 0.000000 0.000000 

-0.000000 0.000000 0.000000 
0.000000 0.000000 0.000000 
0.000000 0.000000 0.000000 

-0.000000 0.000000 0.000000 
0.000000 0.000000 0.000000 
0.000000 0.000000 0.000000 

0.000000 0.000000 0.000000 
0.000000 -0.000000 0.000000 
0.000000 0.000000 0.000000 

-0.000000 -0.000000 0.000000 
0.000000 0.000000 0.000000 
0.000000 0.000000 0.000000 

-0.000000 0.000000 0.000000 
0.000000 0.000000 0.000000 
0.000000 0.000000 0.000000 

-0.000000 -0.000000 0.000000 
0.000000 -0.000000 0.000000 
0.000000 0.000000 0.000000 

-0.000000 -0.000000 0.000000 
0.000000 0.000000 0.000000 
0.000000 0.000000 0.000000 

-0.000000 0.000000 0.000000 
0.000000 -0.000000 0.000000 
0.000000 0.000000 0.000000 

-0.000000 0.000000 0.000000 
0.000000 0.000000 0.000000 
0.000000 0.000000 0.000000 

0.000000 0.000000 0.000000 
0.000000 -0.000000 0.000000 
0.000000 0.000000 0.000000 

0.000000 0.000000 0.000000 
0.000000 -0.000000 0.000000 
0.000000 0.000000 0.000000 

0.000000 -0.000000 0.000000 
0.000000 0.000000 0.000000 
0.000000 0.000000 0.000000 

-0.000000 -0.000000 0.000000 
0.000000 0.000000 0.000000 
0.000000 0.000000 0.000000 

-0.000000 0.000000 0.000000 
0.000000 0.000000 0.000000 
0.000000 0.000000 0.000000 

0.000000 -0.000000 0.000000 
0.000000 0.000000 0.000000 
0.000000 0.000000 0.000000 

0.000000 -0.000000 0.000000 
0.000000 0.000000 0.000000 
0.000000 0.000000 0.000000 

0.000000 0.000000 0.000000 
0.000000 0.000000 0.000000 
0.000000 0.000000 0.000000 

-0.000000 -0.000000 0.000000 
0.000000 0.000000 0.000000 
0.000000 0.000000 0.000000 

-0.000000 0.000000 0.000000 
0.000000 -0.000000 0.000000 
0.000000 0.000000 0.000000 

-0.000000 0.000000 0.000000 
0.000000 0.000000 0.000000 
0.000000 0.000000 0.000000 

-0.000000 0.000000 0.000000 
0.000000 -0.000000 0.000000 
0.000000 0.000000 0.000000 

-0.000000 -0.000000 0.000000 
0.000000 0.000000 0.000000 
0.000000 0.000000 0.000000 

-0.000000 -0.000000 0.000000 
0.000000 -0.000000 0.000000 
0.000000 0.000000 0.000000 

-0.000000 -0.000000 0.000000 
0.000000 -0.000000 0.000000 
0.000000 0.000000 0.000000 

0.000000 -0.000000 0.000000 
0.000000 -0.000000 0.000000 
0.000000 0.000000 0.000000 

0.000000 -0.000000 0.000000 
0.000000 0.000000 0.000000 
0.000000 0.000000 0.000000 

0.000000 -0.000000 0.000000 
0.000000 -0.000000 0.000000 
0.000000 0.000000 0.000000 

0.000000 0.000000 0.000000 
0.000000 -0.000000 0.000000 
0.000000 0.000000 0.000000 

0.000000 0.000000 0.000000 
0.000000 0.000000 0.000000 
0.000000 0.000000 0.000000 

0.000000 -0.000000 0.000000 
0.000000 -0.000000 0.000000 
0.000000 0.000000 0.000000 

-0.000000 -0.000000 0.000000 
0.000000 0.000000 0.000000 
0.000000 0.000000 0.000000 

0.000000 0.000000 0.000000 
0.000000 -0.000000 0.000000 
0.000000 0.000000 0.000000 

0.000000 -0.000000 0.000000 
0.000000 0.000000 0.000000 
0.000000 0.000000 0.000000 

0.000000 -0.000000 0.000000 
0.000000 -0.000000 0.000000 
0.000000 0.000000 0.000000 

0.000000 -0.000000 0.000000 
0.000000 -0.000000 0.000000 
0.000000 0.000000 0.000000 

0.000000 0.000000 0.000000 
0.000000 0.000000 0.000000 
0.000000 0.000000 0.000000 

0.000000 -0.000000 0.000000 
0.000000 -0.000000 0.000000 
0.000000 0.000000 0.000000 

0.000000 -0.000000 0.000000 
0.000000 -0.000000 0.000000 
0.000000 0.000000 0.000000 

0.000000 0.000000 0.000000 
0.000000 0.000000 0.000000 
0.000000 0.000000 0.000000 

0.000000 0.000000 0.000000 
0.000000 -0.000000 0.000000 
0.000000 0.000000 0.000000 

0.000000 0.000000 0.000000 
0.000000 -0.000000 0.000000 
0.000000 0.000000 0.000000 

-0.000000 0.000000 0.000000 
0.000000 0.000000 0.000000 
0.000000 0.000000 0.000000 

0.000000 -0.000000 0.000000 
0.000000 0.000000 0.000000 
0.000000 0.000000 0.000000 

0.000000 -0.000000 0.000000 
0.000000 -0.000000 0.000000 
0.000000 0.000000 0.000000 

0.000000 -0.000000 0.000000 
0.000000 -0.000000 0.000000 
0.000000 0.000000 0.000000 

0.000000 -0.000000 0.000000 
0.000000 -0.000000 0.000000 
0.000000 0.000000 0.000000 

-0.000000 -0.000000 0.000000 
0.000000 0.000000 0.000000 
0.000000 0.000000 0.000000 

-0.000000 -0.000000 0.000000 
0.000000 0.000000 0.000000 
0.000000 0.000000 0.000000 

0.000000 0.000000 0.000000 
0.000000 -0.000000 0.000000 
0.000000 0.000000 0.000000 

0.000000 0.000000 0.000000 
0.000000 0.000000 0.000000 
0.000000 0.000000 0.000000 

0.000000 0.000000 0.000000 
0.000000 0.000000 0.000000 
0.000000 0.000000 0.000000 

0.000000 0.000000 0.000000 
0.000000 -0.000000 0.000000 
0.000000 0.000000 0.000000 

-0.000000 0.000000 0.000000 
0.000000 -0.000000 0.000000 
0.000000 0.000000 0.000000 

-0.000000 0.000000 0.000000 
0.000000 -0.000000 0.000000 
0.000000 0.000000 0.000000 

-0.000000 0.000000 0.000000 
0.000000 -0.000000 0.000000 
0.000000 0.000000 0.000000 

-0.000000 -0.000000 0.000000 
0.000000 0.000000 0.000000 
0.000000 0.000000 0.000000 

-0.000000 0.000000 0.000000 
0.000000 0.000000 0.000000 
0.000000 0.000000 0.000000 

0.000000 0.000000 0.000000 
0.000000 0.000000 0.000000 
0.000000 0.000000 0.000000 

-0.000000 0.000000 0.000000 
0.000000 0.000000 0.000000 
0.000000 0.000000 0.000000 

-0.000000 -0.000000 0.000000 
0.000000 -0.000000 0.000000 
0.000000 0.000000 0.000000 

-0.000000 0.000000 0.000000 
0.000000 -0.000000 0.000000 
0.000000 0.000000 0.000000 

0.000000 0.000000 0.000000 
0.000000 0.000000 0.000000 
0.000000 0.000000 0.000000 

-0.000000 -0.000000 0.000000 
0.000000 0.000000 0.000000 
0.000000 0.000000 0.000000 

0.000000 -0.000000 0.000000 
0.000000 -0.000000 0.000000 
0.000000 0.000000 0.000000 

0.000000 0.000000 0.000000 
0.000000 0.000000 0.000000 
0.000000 0.000000 0.000000 

0.000000 -0.000000 0.000000 
0.000000 0.000000 0.000000 
0.000000 0.000000 0.000000 

0.000000 -0.000000 0.000000 
0.000000 0.000000 0.000000 
0.000000 0.000000 0.000000 

0.000000 -0.000000 0.000000 
0.000000 -0.000000 0.000000 
0.000000 0.000000 0.000000 

0.000000 -0.000000 0.000000 
0.000000 -0.000000 0.000000 
0.000000 0.000000 0.000000 

-0.000000 0.000000 0.000000 
0.000000 -0.000000 0.000000 
0.000000 0.000000 0.000000 

-0.000000 -0.000000 0.000000 
0.000000 0.000000 0.000000 
0.000000 0.000000 0.000000 

-0.000000 0.000000 0.000000 
0.000000 -0.000000 0.000000 
0.000000 0.000000 0.000000 

-0.000000 -0.000000 0.000000 
0.000000 -0.000000 0.000000 
0.000000 0.000000 0.000000 

