# vtk DataFile Version 3.0 
vtk output 
ASCII 
DATASET UNSTRUCTURED_GRID 
POINTS 175 float 
-0.026061 -0.243197 0.000000 
-0.106992 -0.175142 0.000000 
-0.054870 -0.183375 0.000000 
-0.028809 -0.137491 0.000000 
-0.186430 -0.111067 0.000000 
-0.137056 -0.113593 0.000000 
-0.114311 -0.059945 0.000000 
-0.058186 -0.075611 0.000000 
-0.029377 -0.035434 0.000000 
-0.265318 -0.047911 0.000000 
-0.217198 -0.048710 0.000000 
-0.196633 0.008586 0.000000 
-0.143120 -0.000123 0.000000 
-0.116563 0.047146 0.000000 
-0.058945 0.027500 0.000000 
-0.029568 0.065620 0.000000 
-0.344206 0.015245 0.000000 
-0.296791 0.015252 0.000000 
-0.278030 0.075195 0.000000 
-0.225992 0.069329 0.000000 
-0.201664 0.121446 0.000000 
-0.145749 0.107972 0.000000 
-0.117890 0.152314 0.000000 
-0.059328 0.129609 0.000000 
-0.029759 0.166674 0.000000 
-0.058559 -0.283948 0.000000 
-0.162226 -0.304791 0.000000 
-0.123292 -0.269173 0.000000 
-0.142917 -0.220190 0.000000 
-0.261851 -0.326947 0.000000 
-0.229092 -0.289920 0.000000 
-0.256854 -0.238689 0.000000 
-0.209613 -0.204576 0.000000 
-0.223062 -0.157002 0.000000 
-0.360414 -0.349247 0.000000 
-0.329787 -0.312125 0.000000 
-0.361761 -0.260322 0.000000 
-0.321587 -0.223914 0.000000 
-0.341985 -0.173680 0.000000 
-0.290702 -0.140881 0.000000 
-0.302189 -0.094145 0.000000 
-0.458977 -0.371548 0.000000 
-0.429420 -0.334473 0.000000 
-0.464588 -0.282431 0.000000 
-0.427556 -0.245404 0.000000 
-0.453135 -0.193889 0.000000 
-0.407738 -0.158574 0.000000 
-0.425037 -0.109145 0.000000 
-0.370772 -0.077516 0.000000 
-0.381315 -0.031289 0.000000 
-0.046960 -0.334763 0.000000 
-0.095301 -0.428809 0.000000 
-0.098873 -0.376162 0.000000 
-0.149405 -0.360965 0.000000 
-0.140093 -0.520513 0.000000 
-0.148617 -0.471815 0.000000 
-0.205981 -0.461578 0.000000 
-0.203197 -0.403375 0.000000 
-0.248777 -0.384228 0.000000 
-0.184111 -0.611477 0.000000 
-0.194039 -0.564386 0.000000 
-0.254475 -0.557086 0.000000 
-0.257893 -0.502977 0.000000 
-0.309886 -0.487604 0.000000 
-0.303554 -0.427059 0.000000 
-0.347255 -0.406901 0.000000 
-0.228129 -0.702441 0.000000 
-0.238687 -0.656216 0.000000 
-0.301302 -0.651264 0.000000 
-0.307162 -0.599225 0.000000 
-0.363386 -0.587104 0.000000 
-0.362692 -0.529593 0.000000 
-0.412122 -0.512300 0.000000 
-0.403017 -0.450153 0.000000 
-0.445733 -0.429574 0.000000 
-0.000000 -0.357378 0.000000 
0.043388 -0.453809 0.000000 
-0.000000 -0.423777 0.000000 
-0.043388 -0.453809 0.000000 
0.087158 -0.546006 0.000000 
0.043769 -0.522307 0.000000 
-0.000000 -0.560773 0.000000 
-0.043769 -0.522307 0.000000 
-0.087158 -0.546006 0.000000 
0.130831 -0.637135 0.000000 
0.087824 -0.615537 0.000000 
0.044436 -0.658236 0.000000 
-0.000000 -0.627171 0.000000 
-0.044436 -0.658236 0.000000 
-0.087824 -0.615537 0.000000 
-0.130831 -0.637135 0.000000 
0.174505 -0.728265 0.000000 
0.131782 -0.707699 0.000000 
0.088871 -0.753565 0.000000 
0.044532 -0.725702 0.000000 
-0.000000 -0.762102 0.000000 
-0.044532 -0.725702 0.000000 
-0.088871 -0.753565 0.000000 
-0.131782 -0.707699 0.000000 
-0.174505 -0.728265 0.000000 
0.046960 -0.334763 0.000000 
0.149405 -0.360965 0.000000 
0.098873 -0.376162 0.000000 
0.095301 -0.428809 0.000000 
0.248777 -0.384228 0.000000 
0.203197 -0.403375 0.000000 
0.205981 -0.461578 0.000000 
0.148617 -0.471815 0.000000 
0.140093 -0.520513 0.000000 
0.347255 -0.406901 0.000000 
0.303554 -0.427059 0.000000 
0.309886 -0.487604 0.000000 
0.257893 -0.502977 0.000000 
0.254475 -0.557086 0.000000 
0.194039 -0.564386 0.000000 
0.184111 -0.611477 0.000000 
0.445733 -0.429574 0.000000 
0.403017 -0.450153 0.000000 
0.412122 -0.512300 0.000000 
0.362692 -0.529593 0.000000 
0.363386 -0.587104 0.000000 
0.307162 -0.599225 0.000000 
0.301302 -0.651264 0.000000 
0.238687 -0.656216 0.000000 
0.228129 -0.702441 0.000000 
0.058559 -0.283948 0.000000 
0.142917 -0.220190 0.000000 
0.123292 -0.269173 0.000000 
0.162226 -0.304791 0.000000 
0.223062 -0.157002 0.000000 
0.209613 -0.204576 0.000000 
0.256854 -0.238689 0.000000 
0.229092 -0.289920 0.000000 
0.261851 -0.326947 0.000000 
0.302189 -0.094145 0.000000 
0.290702 -0.140881 0.000000 
0.341985 -0.173680 0.000000 
0.321587 -0.223914 0.000000 
0.361761 -0.260322 0.000000 
0.329787 -0.312125 0.000000 
0.360414 -0.349247 0.000000 
0.381315 -0.031289 0.000000 
0.370772 -0.077516 0.000000 
0.425037 -0.109145 0.000000 
0.407738 -0.158574 0.000000 
0.453135 -0.193889 0.000000 
0.427556 -0.245404 0.000000 
0.464588 -0.282431 0.000000 
0.429420 -0.334473 0.000000 
0.458977 -0.371548 0.000000 
0.026061 -0.243197 0.000000 
0.028809 -0.137491 0.000000 
0.054870 -0.183375 0.000000 
0.106992 -0.175142 0.000000 
0.029377 -0.035434 0.000000 
0.058186 -0.075611 0.000000 
0.114311 -0.059945 0.000000 
0.137056 -0.113593 0.000000 
0.186430 -0.111067 0.000000 
0.029568 0.065620 0.000000 
0.058945 0.027500 0.000000 
0.116563 0.047146 0.000000 
0.143120 -0.000123 0.000000 
0.196633 0.008586 0.000000 
0.217198 -0.048710 0.000000 
0.265318 -0.047911 0.000000 
0.029759 0.166674 0.000000 
0.059328 0.129609 0.000000 
0.117890 0.152314 0.000000 
0.145749 0.107972 0.000000 
0.201664 0.121446 0.000000 
0.225992 0.069329 0.000000 
0.278030 0.075195 0.000000 
0.296791 0.015252 0.000000 
0.344206 0.015245 0.000000 
CELLS 175 350 
1 0 
1 1 
1 2 
1 3 
1 4 
1 5 
1 6 
1 7 
1 8 
1 9 
1 10 
1 11 
1 12 
1 13 
1 14 
1 15 
1 16 
1 17 
1 18 
1 19 
1 20 
1 21 
1 22 
1 23 
1 24 
1 25 
1 26 
1 27 
1 28 
1 29 
1 30 
1 31 
1 32 
1 33 
1 34 
1 35 
1 36 
1 37 
1 38 
1 39 
1 40 
1 41 
1 42 
1 43 
1 44 
1 45 
1 46 
1 47 
1 48 
1 49 
1 50 
1 51 
1 52 
1 53 
1 54 
1 55 
1 56 
1 57 
1 58 
1 59 
1 60 
1 61 
1 62 
1 63 
1 64 
1 65 
1 66 
1 67 
1 68 
1 69 
1 70 
1 71 
1 72 
1 73 
1 74 
1 75 
1 76 
1 77 
1 78 
1 79 
1 80 
1 81 
1 82 
1 83 
1 84 
1 85 
1 86 
1 87 
1 88 
1 89 
1 90 
1 91 
1 92 
1 93 
1 94 
1 95 
1 96 
1 97 
1 98 
1 99 
1 100 
1 101 
1 102 
1 103 
1 104 
1 105 
1 106 
1 107 
1 108 
1 109 
1 110 
1 111 
1 112 
1 113 
1 114 
1 115 
1 116 
1 117 
1 118 
1 119 
1 120 
1 121 
1 122 
1 123 
1 124 
1 125 
1 126 
1 127 
1 128 
1 129 
1 130 
1 131 
1 132 
1 133 
1 134 
1 135 
1 136 
1 137 
1 138 
1 139 
1 140 
1 141 
1 142 
1 143 
1 144 
1 145 
1 146 
1 147 
1 148 
1 149 
1 150 
1 151 
1 152 
1 153 
1 154 
1 155 
1 156 
1 157 
1 158 
1 159 
1 160 
1 161 
1 162 
1 163 
1 164 
1 165 
1 166 
1 167 
1 168 
1 169 
1 170 
1 171 
1 172 
1 173 
1 174 
CELL_TYPES 175 
1 
1 
1 
1 
1 
1 
1 
1 
1 
1 
1 
1 
1 
1 
1 
1 
1 
1 
1 
1 
1 
1 
1 
1 
1 
1 
1 
1 
1 
1 
1 
1 
1 
1 
1 
1 
1 
1 
1 
1 
1 
1 
1 
1 
1 
1 
1 
1 
1 
1 
1 
1 
1 
1 
1 
1 
1 
1 
1 
1 
1 
1 
1 
1 
1 
1 
1 
1 
1 
1 
1 
1 
1 
1 
1 
1 
1 
1 
1 
1 
1 
1 
1 
1 
1 
1 
1 
1 
1 
1 
1 
1 
1 
1 
1 
1 
1 
1 
1 
1 
1 
1 
1 
1 
1 
1 
1 
1 
1 
1 
1 
1 
1 
1 
1 
1 
1 
1 
1 
1 
1 
1 
1 
1 
1 
1 
1 
1 
1 
1 
1 
1 
1 
1 
1 
1 
1 
1 
1 
1 
1 
1 
1 
1 
1 
1 
1 
1 
1 
1 
1 
1 
1 
1 
1 
1 
1 
1 
1 
1 
1 
1 
1 
1 
1 
1 
1 
1 
1 
1 
1 
1 
1 
1 
1 
POINT_DATA 175 
VECTORS X_GC float 
-0.026061 -0.243197 0.000000 
-0.106992 -0.175142 0.000000 
-0.054870 -0.183375 0.000000 
-0.028809 -0.137491 0.000000 
-0.186430 -0.111067 0.000000 
-0.137056 -0.113593 0.000000 
-0.114311 -0.059945 0.000000 
-0.058186 -0.075611 0.000000 
-0.029377 -0.035434 0.000000 
-0.265318 -0.047911 0.000000 
-0.217198 -0.048710 0.000000 
-0.196633 0.008586 0.000000 
-0.143120 -0.000123 0.000000 
-0.116563 0.047146 0.000000 
-0.058945 0.027500 0.000000 
-0.029568 0.065620 0.000000 
-0.344206 0.015245 0.000000 
-0.296791 0.015252 0.000000 
-0.278030 0.075195 0.000000 
-0.225992 0.069329 0.000000 
-0.201664 0.121446 0.000000 
-0.145749 0.107972 0.000000 
-0.117890 0.152314 0.000000 
-0.059328 0.129609 0.000000 
-0.029759 0.166674 0.000000 
-0.058559 -0.283948 0.000000 
-0.162226 -0.304791 0.000000 
-0.123292 -0.269173 0.000000 
-0.142917 -0.220190 0.000000 
-0.261851 -0.326947 0.000000 
-0.229092 -0.289920 0.000000 
-0.256854 -0.238689 0.000000 
-0.209613 -0.204576 0.000000 
-0.223062 -0.157002 0.000000 
-0.360414 -0.349247 0.000000 
-0.329787 -0.312125 0.000000 
-0.361761 -0.260322 0.000000 
-0.321587 -0.223914 0.000000 
-0.341985 -0.173680 0.000000 
-0.290702 -0.140881 0.000000 
-0.302189 -0.094145 0.000000 
-0.458977 -0.371548 0.000000 
-0.429420 -0.334473 0.000000 
-0.464588 -0.282431 0.000000 
-0.427556 -0.245404 0.000000 
-0.453135 -0.193889 0.000000 
-0.407738 -0.158574 0.000000 
-0.425037 -0.109145 0.000000 
-0.370772 -0.077516 0.000000 
-0.381315 -0.031289 0.000000 
-0.046960 -0.334763 0.000000 
-0.095301 -0.428809 0.000000 
-0.098873 -0.376162 0.000000 
-0.149405 -0.360965 0.000000 
-0.140093 -0.520513 0.000000 
-0.148617 -0.471815 0.000000 
-0.205981 -0.461578 0.000000 
-0.203197 -0.403375 0.000000 
-0.248777 -0.384228 0.000000 
-0.184111 -0.611477 0.000000 
-0.194039 -0.564386 0.000000 
-0.254475 -0.557086 0.000000 
-0.257893 -0.502977 0.000000 
-0.309886 -0.487604 0.000000 
-0.303554 -0.427059 0.000000 
-0.347255 -0.406901 0.000000 
-0.228129 -0.702441 0.000000 
-0.238687 -0.656216 0.000000 
-0.301302 -0.651264 0.000000 
-0.307162 -0.599225 0.000000 
-0.363386 -0.587104 0.000000 
-0.362692 -0.529593 0.000000 
-0.412122 -0.512300 0.000000 
-0.403017 -0.450153 0.000000 
-0.445733 -0.429574 0.000000 
-0.000000 -0.357378 0.000000 
0.043388 -0.453809 0.000000 
-0.000000 -0.423777 0.000000 
-0.043388 -0.453809 0.000000 
0.087158 -0.546006 0.000000 
0.043769 -0.522307 0.000000 
-0.000000 -0.560773 0.000000 
-0.043769 -0.522307 0.000000 
-0.087158 -0.546006 0.000000 
0.130831 -0.637135 0.000000 
0.087824 -0.615537 0.000000 
0.044436 -0.658236 0.000000 
-0.000000 -0.627171 0.000000 
-0.044436 -0.658236 0.000000 
-0.087824 -0.615537 0.000000 
-0.130831 -0.637135 0.000000 
0.174505 -0.728265 0.000000 
0.131782 -0.707699 0.000000 
0.088871 -0.753565 0.000000 
0.044532 -0.725702 0.000000 
-0.000000 -0.762102 0.000000 
-0.044532 -0.725702 0.000000 
-0.088871 -0.753565 0.000000 
-0.131782 -0.707699 0.000000 
-0.174505 -0.728265 0.000000 
0.046960 -0.334763 0.000000 
0.149405 -0.360965 0.000000 
0.098873 -0.376162 0.000000 
0.095301 -0.428809 0.000000 
0.248777 -0.384228 0.000000 
0.203197 -0.403375 0.000000 
0.205981 -0.461578 0.000000 
0.148617 -0.471815 0.000000 
0.140093 -0.520513 0.000000 
0.347255 -0.406901 0.000000 
0.303554 -0.427059 0.000000 
0.309886 -0.487604 0.000000 
0.257893 -0.502977 0.000000 
0.254475 -0.557086 0.000000 
0.194039 -0.564386 0.000000 
0.184111 -0.611477 0.000000 
0.445733 -0.429574 0.000000 
0.403017 -0.450153 0.000000 
0.412122 -0.512300 0.000000 
0.362692 -0.529593 0.000000 
0.363386 -0.587104 0.000000 
0.307162 -0.599225 0.000000 
0.301302 -0.651264 0.000000 
0.238687 -0.656216 0.000000 
0.228129 -0.702441 0.000000 
0.058559 -0.283948 0.000000 
0.142917 -0.220190 0.000000 
0.123292 -0.269173 0.000000 
0.162226 -0.304791 0.000000 
0.223062 -0.157002 0.000000 
0.209613 -0.204576 0.000000 
0.256854 -0.238689 0.000000 
0.229092 -0.289920 0.000000 
0.261851 -0.326947 0.000000 
0.302189 -0.094145 0.000000 
0.290702 -0.140881 0.000000 
0.341985 -0.173680 0.000000 
0.321587 -0.223914 0.000000 
0.361761 -0.260322 0.000000 
0.329787 -0.312125 0.000000 
0.360414 -0.349247 0.000000 
0.381315 -0.031289 0.000000 
0.370772 -0.077516 0.000000 
0.425037 -0.109145 0.000000 
0.407738 -0.158574 0.000000 
0.453135 -0.193889 0.000000 
0.427556 -0.245404 0.000000 
0.464588 -0.282431 0.000000 
0.429420 -0.334473 0.000000 
0.458977 -0.371548 0.000000 
0.026061 -0.243197 0.000000 
0.028809 -0.137491 0.000000 
0.054870 -0.183375 0.000000 
0.106992 -0.175142 0.000000 
0.029377 -0.035434 0.000000 
0.058186 -0.075611 0.000000 
0.114311 -0.059945 0.000000 
0.137056 -0.113593 0.000000 
0.186430 -0.111067 0.000000 
0.029568 0.065620 0.000000 
0.058945 0.027500 0.000000 
0.116563 0.047146 0.000000 
0.143120 -0.000123 0.000000 
0.196633 0.008586 0.000000 
0.217198 -0.048710 0.000000 
0.265318 -0.047911 0.000000 
0.029759 0.166674 0.000000 
0.059328 0.129609 0.000000 
0.117890 0.152314 0.000000 
0.145749 0.107972 0.000000 
0.201664 0.121446 0.000000 
0.225992 0.069329 0.000000 
0.278030 0.075195 0.000000 
0.296791 0.015252 0.000000 
0.344206 0.015245 0.000000 
VECTORS X_EC float 
0.338794 -0.216834 0.000000 
-0.609100 0.864418 0.000000 
0.713312 0.975559 0.000000 
0.374519 0.356129 0.000000 
0.423588 -0.000602 0.000000 
-0.218274 0.033502 0.000000 
-0.513962 -0.690737 0.000000 
0.756418 -0.479251 0.000000 
0.381900 0.978357 0.000000 
-0.550868 -0.853205 0.000000 
0.823577 -0.842409 0.000000 
0.556234 0.384087 0.000000 
-0.139443 0.501656 0.000000 
-0.484677 -0.136469 0.000000 
0.766286 0.128746 0.000000 
0.384386 -0.385874 0.000000 
0.474677 0.294192 0.000000 
-0.141715 0.294096 0.000000 
-0.385608 -0.515132 0.000000 
0.937896 -0.435937 0.000000 
0.621631 0.860483 0.000000 
-0.105264 -0.957618 0.000000 
-0.467428 0.443756 0.000000 
0.771260 0.750284 0.000000 
0.386873 0.249895 0.000000 
0.761262 0.333301 0.000000 
0.108942 0.614677 0.000000 
-0.397202 0.133838 0.000000 
-0.142083 -0.527437 0.000000 
-0.595936 0.913788 0.000000 
0.978194 0.413922 0.000000 
-0.660903 -0.277703 0.000000 
0.724964 -0.738223 0.000000 
0.899809 0.619528 0.000000 
0.685384 -0.785160 0.000000 
0.287229 0.713682 0.000000 
0.702895 0.014353 0.000000 
0.180633 -0.477166 0.000000 
0.445811 0.844675 0.000000 
-0.220880 0.401889 0.000000 
-0.071546 -0.229037 0.000000 
-0.033296 -0.484108 0.000000 
-0.417537 -0.984617 0.000000 
0.039645 0.312820 0.000000 
-0.441768 -0.187051 0.000000 
-0.109248 -0.882502 0.000000 
-0.699407 0.640743 0.000000 
-0.474522 -0.026537 0.000000 
0.820030 -0.453530 0.000000 
0.957100 0.922398 0.000000 
0.610485 -0.980693 0.000000 
-0.761092 0.288926 0.000000 
-0.714655 -0.421811 0.000000 
-0.057734 -0.626978 0.000000 
-0.178789 -0.473069 0.000000 
-0.067979 0.869504 0.000000 
0.677748 0.731301 0.000000 
0.641556 -0.054444 0.000000 
-0.765897 -0.312923 0.000000 
0.393446 0.754940 0.000000 
0.522510 0.119210 0.000000 
-0.691820 0.020665 0.000000 
-0.647393 -0.709817 0.000000 
0.028512 -0.917344 0.000000 
-0.053800 0.265296 0.000000 
0.514316 -0.006835 0.000000 
0.965681 -0.017051 0.000000 
-0.897068 -0.641080 0.000000 
-0.083078 -0.707933 0.000000 
-0.006893 0.589542 0.000000 
0.724017 0.425909 0.000000 
0.714996 -0.350494 0.000000 
-0.642413 -0.583951 0.000000 
-0.760780 0.577068 0.000000 
-0.205471 0.299253 0.000000 
0.000000 -0.675391 0.000000 
-0.564049 0.626421 0.000000 
0.000000 0.220985 0.000000 
0.564049 0.626421 0.000000 
0.866949 -0.128923 0.000000 
-0.569003 -0.448854 0.000000 
0.000000 0.070434 0.000000 
0.569003 -0.448854 0.000000 
-0.866949 -0.128923 0.000000 
0.299194 -0.898673 0.000000 
0.858290 0.809743 0.000000 
-0.577662 -0.613811 0.000000 
0.000000 0.966811 0.000000 
0.577662 -0.613811 0.000000 
-0.858290 0.809743 0.000000 
-0.299194 -0.898673 0.000000 
-0.268560 0.331577 0.000000 
0.286830 0.053935 0.000000 
0.844677 0.673133 0.000000 
-0.578910 0.296971 0.000000 
0.000000 0.788375 0.000000 
0.578910 0.296971 0.000000 
-0.844677 0.673133 0.000000 
-0.286830 0.053935 0.000000 
0.268560 0.331577 0.000000 
-0.610485 -0.980693 0.000000 
0.057734 -0.626978 0.000000 
0.714655 -0.421811 0.000000 
0.761092 0.288926 0.000000 
0.765897 -0.312923 0.000000 
-0.641556 -0.054444 0.000000 
-0.677748 0.731301 0.000000 
0.067979 0.869504 0.000000 
0.178789 -0.473069 0.000000 
-0.514316 -0.006835 0.000000 
0.053800 0.265296 0.000000 
-0.028512 -0.917344 0.000000 
0.647393 -0.709817 0.000000 
0.691820 0.020665 0.000000 
-0.522510 0.119210 0.000000 
-0.393446 0.754940 0.000000 
0.205471 0.299253 0.000000 
0.760780 0.577068 0.000000 
0.642413 -0.583951 0.000000 
-0.714996 -0.350494 0.000000 
-0.724017 0.425909 0.000000 
0.006894 0.589542 0.000000 
0.083078 -0.707933 0.000000 
0.897068 -0.641080 0.000000 
-0.965681 -0.017051 0.000000 
-0.761262 0.333301 0.000000 
0.142083 -0.527437 0.000000 
0.397202 0.133838 0.000000 
-0.108942 0.614677 0.000000 
-0.899809 0.619528 0.000000 
-0.724964 -0.738223 0.000000 
0.660903 -0.277703 0.000000 
-0.978194 0.413922 0.000000 
0.595936 0.913788 0.000000 
0.071546 -0.229037 0.000000 
0.220880 0.401889 0.000000 
-0.445811 0.844675 0.000000 
-0.180633 -0.477166 0.000000 
-0.702895 0.014353 0.000000 
-0.287229 0.713682 0.000000 
-0.685384 -0.785160 0.000000 
-0.957100 0.922398 0.000000 
-0.820030 -0.453530 0.000000 
0.474522 -0.026536 0.000000 
0.699407 0.640743 0.000000 
0.109248 -0.882502 0.000000 
0.441768 -0.187051 0.000000 
-0.039645 0.312820 0.000000 
0.417537 -0.984617 0.000000 
0.033296 -0.484108 0.000000 
-0.338794 -0.216834 0.000000 
-0.374519 0.356129 0.000000 
-0.713312 0.975559 0.000000 
0.609100 0.864418 0.000000 
-0.381900 0.978357 0.000000 
-0.756418 -0.479251 0.000000 
0.513962 -0.690737 0.000000 
0.218274 0.033502 0.000000 
-0.423588 -0.000602 0.000000 
-0.384386 -0.385874 0.000000 
-0.766286 0.128746 0.000000 
0.484677 -0.136469 0.000000 
0.139443 0.501656 0.000000 
-0.556234 0.384087 0.000000 
-0.823577 -0.842409 0.000000 
0.550868 -0.853205 0.000000 
-0.386873 0.249895 0.000000 
-0.771260 0.750284 0.000000 
0.467428 0.443756 0.000000 
0.105264 -0.957618 0.000000 
-0.621631 0.860483 0.000000 
-0.937896 -0.435937 0.000000 
0.385608 -0.515132 0.000000 
0.141715 0.294096 0.000000 
-0.474677 0.294192 0.000000 
CELL_DATA 175 
SCALARS MASS float 
LOOKUP_TABLE default 
0.078183 
0.086427 
0.094672 
0.086427 
0.088131 
0.092111 
0.085854 
0.092111 
0.088131 
0.088705 
0.091000 
0.086983 
0.091556 
0.086983 
0.091000 
0.088705 
0.089278 
0.091574 
0.089278 
0.092722 
0.089278 
0.092722 
0.089278 
0.091574 
0.089278 
0.078183 
0.086427 
0.094672 
0.086427 
0.088131 
0.092111 
0.085854 
0.092111 
0.088131 
0.088705 
0.091000 
0.086983 
0.091556 
0.086983 
0.091000 
0.088705 
0.089278 
0.091574 
0.089278 
0.092722 
0.089278 
0.092722 
0.089278 
0.091574 
0.089278 
0.078183 
0.086427 
0.094672 
0.086427 
0.088131 
0.092111 
0.085854 
0.092111 
0.088131 
0.088705 
0.091000 
0.086983 
0.091556 
0.086983 
0.091000 
0.088705 
0.089278 
0.091574 
0.089278 
0.092722 
0.089278 
0.092722 
0.089278 
0.091574 
0.089278 
0.078183 
0.086427 
0.094672 
0.086427 
0.088131 
0.092111 
0.085854 
0.092111 
0.088131 
0.088705 
0.091000 
0.086983 
0.091556 
0.086983 
0.091000 
0.088705 
0.089278 
0.091574 
0.089278 
0.092722 
0.089278 
0.092722 
0.089278 
0.091574 
0.089278 
0.078183 
0.086427 
0.094672 
0.086427 
0.088131 
0.092111 
0.085854 
0.092111 
0.088131 
0.088705 
0.091000 
0.086983 
0.091556 
0.086983 
0.091000 
0.088705 
0.089278 
0.091574 
0.089278 
0.092722 
0.089278 
0.092722 
0.089278 
0.091574 
0.089278 
0.078183 
0.086427 
0.094672 
0.086427 
0.088131 
0.092111 
0.085854 
0.092111 
0.088131 
0.088705 
0.091000 
0.086983 
0.091556 
0.086983 
0.091000 
0.088705 
0.089278 
0.091574 
0.089278 
0.092722 
0.089278 
0.092722 
0.089278 
0.091574 
0.089278 
0.078183 
0.086427 
0.094672 
0.086427 
0.088131 
0.092111 
0.085854 
0.092111 
0.088131 
0.088705 
0.091000 
0.086983 
0.091556 
0.086983 
0.091000 
0.088705 
0.089278 
0.091574 
0.089278 
0.092722 
0.089278 
0.092722 
0.089278 
0.091574 
0.089278 
SCALARS MASS float 
LOOKUP_TABLE default 
0.078183 
0.086427 
0.094672 
0.086427 
0.088131 
0.092111 
0.085854 
0.092111 
0.088131 
0.088705 
0.091000 
0.086983 
0.091556 
0.086983 
0.091000 
0.088705 
0.089278 
0.091574 
0.089278 
0.092722 
0.089278 
0.092722 
0.089278 
0.091574 
0.089278 
0.078183 
0.086427 
0.094672 
0.086427 
0.088131 
0.092111 
0.085854 
0.092111 
0.088131 
0.088705 
0.091000 
0.086983 
0.091556 
0.086983 
0.091000 
0.088705 
0.089278 
0.091574 
0.089278 
0.092722 
0.089278 
0.092722 
0.089278 
0.091574 
0.089278 
0.078183 
0.086427 
0.094672 
0.086427 
0.088131 
0.092111 
0.085854 
0.092111 
0.088131 
0.088705 
0.091000 
0.086983 
0.091556 
0.086983 
0.091000 
0.088705 
0.089278 
0.091574 
0.089278 
0.092722 
0.089278 
0.092722 
0.089278 
0.091574 
0.089278 
0.078183 
0.086427 
0.094672 
0.086427 
0.088131 
0.092111 
0.085854 
0.092111 
0.088131 
0.088705 
0.091000 
0.086983 
0.091556 
0.086983 
0.091000 
0.088705 
0.089278 
0.091574 
0.089278 
0.092722 
0.089278 
0.092722 
0.089278 
0.091574 
0.089278 
0.078183 
0.086427 
0.094672 
0.086427 
0.088131 
0.092111 
0.085854 
0.092111 
0.088131 
0.088705 
0.091000 
0.086983 
0.091556 
0.086983 
0.091000 
0.088705 
0.089278 
0.091574 
0.089278 
0.092722 
0.089278 
0.092722 
0.089278 
0.091574 
0.089278 
0.078183 
0.086427 
0.094672 
0.086427 
0.088131 
0.092111 
0.085854 
0.092111 
0.088131 
0.088705 
0.091000 
0.086983 
0.091556 
0.086983 
0.091000 
0.088705 
0.089278 
0.091574 
0.089278 
0.092722 
0.089278 
0.092722 
0.089278 
0.091574 
0.089278 
0.078183 
0.086427 
0.094672 
0.086427 
0.088131 
0.092111 
0.085854 
0.092111 
0.088131 
0.088705 
0.091000 
0.086983 
0.091556 
0.086983 
0.091000 
0.088705 
0.089278 
0.091574 
0.089278 
0.092722 
0.089278 
0.092722 
0.089278 
0.091574 
0.089278 
SCALARS DENSITY float 
LOOKUP_TABLE default 
20.000000 
20.000000 
20.000000 
20.000000 
20.000000 
20.000000 
20.000000 
20.000000 
20.000000 
20.000000 
20.000000 
20.000000 
20.000000 
20.000000 
20.000000 
20.000000 
20.000000 
20.000000 
20.000000 
20.000000 
20.000000 
20.000000 
20.000000 
20.000000 
20.000000 
20.000000 
20.000000 
20.000000 
20.000000 
20.000000 
20.000000 
20.000000 
20.000000 
20.000000 
20.000000 
20.000000 
20.000000 
20.000000 
20.000000 
20.000000 
20.000000 
20.000000 
20.000000 
20.000000 
20.000000 
20.000000 
20.000000 
20.000000 
20.000000 
20.000000 
20.000000 
20.000000 
20.000000 
20.000000 
20.000000 
20.000000 
20.000000 
20.000000 
20.000000 
20.000000 
20.000000 
20.000000 
20.000000 
20.000000 
20.000000 
20.000000 
20.000000 
20.000000 
20.000000 
20.000000 
20.000000 
20.000000 
20.000000 
20.000000 
20.000000 
20.000000 
20.000000 
20.000000 
20.000000 
20.000000 
20.000000 
20.000000 
20.000000 
20.000000 
20.000000 
20.000000 
20.000000 
20.000000 
20.000000 
20.000000 
20.000000 
20.000000 
20.000000 
20.000000 
20.000000 
20.000000 
20.000000 
20.000000 
20.000000 
20.000000 
20.000000 
20.000000 
20.000000 
20.000000 
20.000000 
20.000000 
20.000000 
20.000000 
20.000000 
20.000000 
20.000000 
20.000000 
20.000000 
20.000000 
20.000000 
20.000000 
20.000000 
20.000000 
20.000000 
20.000000 
20.000000 
20.000000 
20.000000 
20.000000 
20.000000 
20.000000 
20.000000 
20.000000 
20.000000 
20.000000 
20.000000 
20.000000 
20.000000 
20.000000 
20.000000 
20.000000 
20.000000 
20.000000 
20.000000 
20.000000 
20.000000 
20.000000 
20.000000 
20.000000 
20.000000 
20.000000 
20.000000 
20.000000 
20.000000 
20.000000 
20.000000 
20.000000 
20.000000 
20.000000 
20.000000 
20.000000 
20.000000 
20.000000 
20.000000 
20.000000 
20.000000 
20.000000 
20.000000 
20.000000 
20.000000 
20.000000 
20.000000 
20.000000 
20.000000 
20.000000 
20.000000 
20.000000 
20.000000 
20.000000 
20.000000 
SCALARS ELEM_i float 
LOOKUP_TABLE default 
180 
208 
181 
181 
208 
208 
208 
181 
182 
235 
208 
209 
209 
209 
182 
182 
236 
236 
236 
209 
210 
209 
210 
183 
183 
180 
207 
207 
207 
234 
207 
234 
207 
208 
233 
234 
234 
234 
235 
235 
235 
260 
260 
261 
261 
261 
262 
262 
235 
236 
179 
206 
206 
206 
205 
206 
206 
206 
233 
205 
205 
232 
232 
232 
233 
233 
204 
231 
231 
232 
232 
232 
259 
260 
260 
179 
179 
179 
179 
151 
178 
178 
178 
205 
150 
151 
177 
178 
177 
205 
204 
150 
150 
150 
177 
177 
177 
204 
204 
204 
179 
152 
152 
152 
125 
152 
152 
152 
151 
125 
125 
124 
124 
124 
151 
151 
98 
98 
97 
124 
124 
124 
123 
123 
150 
180 
153 
153 
153 
154 
153 
126 
153 
126 
127 
127 
127 
126 
126 
126 
125 
128 
127 
100 
100 
99 
99 
99 
98 
98 
180 
181 
181 
154 
182 
181 
154 
154 
154 
182 
182 
155 
155 
155 
154 
127 
183 
183 
156 
155 
156 
155 
128 
128 
128 
VECTORS VELOCITY float 
0.000000 -2.414830 0.000000 
0.000000 -2.414830 0.000000 
-0.000000 -2.414830 0.000000 
-0.000000 -2.414830 0.000000 
0.000000 -2.414830 0.000000 
-0.000000 -2.414830 0.000000 
-0.000000 -2.414830 0.000000 
-0.000000 -2.414830 0.000000 
-0.000000 -2.414830 0.000000 
0.000000 -2.414830 0.000000 
0.000000 -2.414830 0.000000 
0.000000 -2.414830 0.000000 
0.000000 -2.414830 0.000000 
0.000000 -2.414830 0.000000 
0.000000 -2.414830 0.000000 
0.000000 -2.414830 0.000000 
-0.000000 -2.414830 0.000000 
-0.000000 -2.414830 0.000000 
0.000000 -2.414830 0.000000 
0.000000 -2.414830 0.000000 
-0.000000 -2.414830 0.000000 
-0.000000 -2.414830 0.000000 
-0.000000 -2.414830 0.000000 
-0.000000 -2.414830 0.000000 
-0.000000 -2.414830 0.000000 
0.000000 -2.414830 0.000000 
-0.000000 -2.414830 0.000000 
0.000000 -2.414830 0.000000 
0.000000 -2.414830 0.000000 
-0.000000 -2.414830 0.000000 
-0.000000 -2.414830 0.000000 
-0.000000 -2.414830 0.000000 
-0.000000 -2.414830 0.000000 
0.000000 -2.414830 0.000000 
-0.000000 -2.414830 0.000000 
-0.000000 -2.414830 0.000000 
0.000000 -2.414830 0.000000 
0.000000 -2.414830 0.000000 
0.000000 -2.414830 0.000000 
0.000000 -2.414830 0.000000 
0.000000 -2.414830 0.000000 
0.000000 -2.414830 0.000000 
0.000000 -2.414830 0.000000 
0.000000 -2.414830 0.000000 
0.000000 -2.414830 0.000000 
0.000000 -2.414830 0.000000 
0.000000 -2.414830 0.000000 
-0.000000 -2.414830 0.000000 
-0.000000 -2.414830 0.000000 
-0.000000 -2.414830 0.000000 
0.000000 -2.414830 0.000000 
-0.000000 -2.414830 0.000000 
0.000000 -2.414830 0.000000 
-0.000000 -2.414830 0.000000 
-0.000000 -2.414830 0.000000 
-0.000000 -2.414830 0.000000 
-0.000000 -2.414830 0.000000 
-0.000000 -2.414830 0.000000 
-0.000000 -2.414830 0.000000 
0.000000 -2.414830 0.000000 
0.000000 -2.414830 0.000000 
-0.000000 -2.414830 0.000000 
-0.000000 -2.414830 0.000000 
-0.000000 -2.414830 0.000000 
-0.000000 -2.414830 0.000000 
-0.000000 -2.414830 0.000000 
-0.000000 -2.414830 0.000000 
-0.000000 -2.414830 0.000000 
0.000000 -2.414830 0.000000 
-0.000000 -2.414830 0.000000 
-0.000000 -2.414830 0.000000 
-0.000000 -2.414830 0.000000 
0.000000 -2.414830 0.000000 
-0.000000 -2.414830 0.000000 
0.000000 -2.414830 0.000000 
0.000000 -2.414830 0.000000 
0.000000 -2.414830 0.000000 
0.000000 -2.414830 0.000000 
-0.000000 -2.414830 0.000000 
0.000000 -2.414830 0.000000 
0.000000 -2.414830 0.000000 
0.000000 -2.414830 0.000000 
-0.000000 -2.414830 0.000000 
0.000000 -2.414830 0.000000 
0.000000 -2.414830 0.000000 
0.000000 -2.414830 0.000000 
0.000000 -2.414830 0.000000 
0.000000 -2.414830 0.000000 
0.000000 -2.414830 0.000000 
0.000000 -2.414830 0.000000 
0.000000 -2.414830 0.000000 
-0.000000 -2.414830 0.000000 
0.000000 -2.414830 0.000000 
-0.000000 -2.414830 0.000000 
-0.000000 -2.414830 0.000000 
-0.000000 -2.414830 0.000000 
-0.000000 -2.414830 0.000000 
-0.000000 -2.414830 0.000000 
-0.000000 -2.414830 0.000000 
-0.000000 -2.414830 0.000000 
0.000000 -2.414830 0.000000 
0.000000 -2.414830 0.000000 
0.000000 -2.414830 0.000000 
0.000000 -2.414830 0.000000 
0.000000 -2.414830 0.000000 
0.000000 -2.414830 0.000000 
0.000000 -2.414830 0.000000 
0.000000 -2.414830 0.000000 
0.000000 -2.414830 0.000000 
0.000000 -2.414830 0.000000 
0.000000 -2.414830 0.000000 
0.000000 -2.414830 0.000000 
0.000000 -2.414830 0.000000 
0.000000 -2.414830 0.000000 
0.000000 -2.414830 0.000000 
0.000000 -2.414830 0.000000 
-0.000000 -2.414830 0.000000 
0.000000 -2.414830 0.000000 
0.000000 -2.414830 0.000000 
0.000000 -2.414830 0.000000 
0.000000 -2.414830 0.000000 
0.000000 -2.414830 0.000000 
0.000000 -2.414830 0.000000 
0.000000 -2.414830 0.000000 
0.000000 -2.414830 0.000000 
0.000000 -2.414830 0.000000 
-0.000000 -2.414830 0.000000 
-0.000000 -2.414830 0.000000 
-0.000000 -2.414830 0.000000 
0.000000 -2.414830 0.000000 
-0.000000 -2.414830 0.000000 
-0.000000 -2.414830 0.000000 
-0.000000 -2.414830 0.000000 
-0.000000 -2.414830 0.000000 
0.000000 -2.414830 0.000000 
0.000000 -2.414830 0.000000 
0.000000 -2.414830 0.000000 
-0.000000 -2.414830 0.000000 
-0.000000 -2.414830 0.000000 
-0.000000 -2.414830 0.000000 
-0.000000 -2.414830 0.000000 
-0.000000 -2.414830 0.000000 
0.000000 -2.414830 0.000000 
-0.000000 -2.414830 0.000000 
-0.000000 -2.414830 0.000000 
-0.000000 -2.414830 0.000000 
0.000000 -2.414830 0.000000 
0.000000 -2.414830 0.000000 
-0.000000 -2.414830 0.000000 
-0.000000 -2.414830 0.000000 
0.000000 -2.414830 0.000000 
-0.000000 -2.414830 0.000000 
-0.000000 -2.414830 0.000000 
-0.000000 -2.414830 0.000000 
0.000000 -2.414830 0.000000 
-0.000000 -2.414830 0.000000 
0.000000 -2.414830 0.000000 
-0.000000 -2.414830 0.000000 
0.000000 -2.414830 0.000000 
-0.000000 -2.414830 0.000000 
0.000000 -2.414830 0.000000 
-0.000000 -2.414830 0.000000 
-0.000000 -2.414830 0.000000 
-0.000000 -2.414830 0.000000 
0.000000 -2.414830 0.000000 
-0.000000 -2.414830 0.000000 
0.000000 -2.414830 0.000000 
-0.000000 -2.414830 0.000000 
0.000000 -2.414830 0.000000 
0.000000 -2.414830 0.000000 
0.000000 -2.414830 0.000000 
0.000000 -2.414830 0.000000 
0.000000 -2.414830 0.000000 
-0.000000 -2.414830 0.000000 
-0.000000 -2.414830 0.000000 
TENSORS STRESS float 
-0.000000 0.000000 0.000000 
0.000000 0.000000 0.000000 
0.000000 0.000000 0.000000 

0.000000 -0.000000 0.000000 
0.000000 0.000000 0.000000 
0.000000 0.000000 0.000000 

-0.000000 0.000000 0.000000 
0.000000 0.000000 0.000000 
0.000000 0.000000 0.000000 

-0.000000 0.000000 0.000000 
0.000000 0.000000 0.000000 
0.000000 0.000000 0.000000 

0.000000 0.000000 0.000000 
0.000000 -0.000000 0.000000 
0.000000 0.000000 0.000000 

0.000000 -0.000000 0.000000 
0.000000 0.000000 0.000000 
0.000000 0.000000 0.000000 

-0.000000 0.000000 0.000000 
0.000000 -0.000000 0.000000 
0.000000 0.000000 0.000000 

-0.000000 -0.000000 0.000000 
0.000000 0.000000 0.000000 
0.000000 0.000000 0.000000 

-0.000000 -0.000000 0.000000 
0.000000 -0.000000 0.000000 
0.000000 0.000000 0.000000 

-0.000000 0.000000 0.000000 
0.000000 -0.000000 0.000000 
0.000000 0.000000 0.000000 

-0.000000 -0.000000 0.000000 
0.000000 -0.000000 0.000000 
0.000000 0.000000 0.000000 

-0.000000 0.000000 0.000000 
0.000000 -0.000000 0.000000 
0.000000 0.000000 0.000000 

-0.000000 0.000000 0.000000 
0.000000 -0.000000 0.000000 
0.000000 0.000000 0.000000 

-0.000000 0.000000 0.000000 
0.000000 -0.000000 0.000000 
0.000000 0.000000 0.000000 

-0.000000 0.000000 0.000000 
0.000000 -0.000000 0.000000 
0.000000 0.000000 0.000000 

-0.000000 0.000000 0.000000 
0.000000 -0.000000 0.000000 
0.000000 0.000000 0.000000 

0.000000 -0.000000 0.000000 
0.000000 -0.000000 0.000000 
0.000000 0.000000 0.000000 

0.000000 0.000000 0.000000 
0.000000 -0.000000 0.000000 
0.000000 0.000000 0.000000 

0.000000 0.000000 0.000000 
0.000000 -0.000000 0.000000 
0.000000 0.000000 0.000000 

-0.000000 0.000000 0.000000 
0.000000 0.000000 0.000000 
0.000000 0.000000 0.000000 

-0.000000 -0.000000 0.000000 
0.000000 -0.000000 0.000000 
0.000000 0.000000 0.000000 

-0.000000 -0.000000 0.000000 
0.000000 -0.000000 0.000000 
0.000000 0.000000 0.000000 

-0.000000 -0.000000 0.000000 
0.000000 -0.000000 0.000000 
0.000000 0.000000 0.000000 

-0.000000 0.000000 0.000000 
0.000000 -0.000000 0.000000 
0.000000 0.000000 0.000000 

0.000000 -0.000000 0.000000 
0.000000 -0.000000 0.000000 
0.000000 0.000000 0.000000 

-0.000000 0.000000 0.000000 
0.000000 0.000000 0.000000 
0.000000 0.000000 0.000000 

0.000000 -0.000000 0.000000 
0.000000 0.000000 0.000000 
0.000000 0.000000 0.000000 

0.000000 -0.000000 0.000000 
0.000000 0.000000 0.000000 
0.000000 0.000000 0.000000 

0.000000 -0.000000 0.000000 
0.000000 0.000000 0.000000 
0.000000 0.000000 0.000000 

-0.000000 -0.000000 0.000000 
0.000000 -0.000000 0.000000 
0.000000 0.000000 0.000000 

0.000000 -0.000000 0.000000 
0.000000 0.000000 0.000000 
0.000000 0.000000 0.000000 

-0.000000 -0.000000 0.000000 
0.000000 -0.000000 0.000000 
0.000000 0.000000 0.000000 

0.000000 -0.000000 0.000000 
0.000000 -0.000000 0.000000 
0.000000 0.000000 0.000000 

0.000000 0.000000 0.000000 
0.000000 0.000000 0.000000 
0.000000 0.000000 0.000000 

0.000000 -0.000000 0.000000 
0.000000 0.000000 0.000000 
0.000000 0.000000 0.000000 

-0.000000 -0.000000 0.000000 
0.000000 -0.000000 0.000000 
0.000000 0.000000 0.000000 

-0.000000 0.000000 0.000000 
0.000000 -0.000000 0.000000 
0.000000 0.000000 0.000000 

-0.000000 0.000000 0.000000 
0.000000 -0.000000 0.000000 
0.000000 0.000000 0.000000 

-0.000000 -0.000000 0.000000 
0.000000 -0.000000 0.000000 
0.000000 0.000000 0.000000 

-0.000000 0.000000 0.000000 
0.000000 -0.000000 0.000000 
0.000000 0.000000 0.000000 

-0.000000 -0.000000 0.000000 
0.000000 -0.000000 0.000000 
0.000000 0.000000 0.000000 

-0.000000 0.000000 0.000000 
0.000000 -0.000000 0.000000 
0.000000 0.000000 0.000000 

0.000000 0.000000 0.000000 
0.000000 0.000000 0.000000 
0.000000 0.000000 0.000000 

0.000000 0.000000 0.000000 
0.000000 0.000000 0.000000 
0.000000 0.000000 0.000000 

0.000000 0.000000 0.000000 
0.000000 0.000000 0.000000 
0.000000 0.000000 0.000000 

0.000000 -0.000000 0.000000 
0.000000 -0.000000 0.000000 
0.000000 0.000000 0.000000 

-0.000000 -0.000000 0.000000 
0.000000 -0.000000 0.000000 
0.000000 0.000000 0.000000 

-0.000000 0.000000 0.000000 
0.000000 -0.000000 0.000000 
0.000000 0.000000 0.000000 

-0.000000 0.000000 0.000000 
0.000000 -0.000000 0.000000 
0.000000 0.000000 0.000000 

-0.000000 -0.000000 0.000000 
0.000000 -0.000000 0.000000 
0.000000 0.000000 0.000000 

-0.000000 0.000000 0.000000 
0.000000 0.000000 0.000000 
0.000000 0.000000 0.000000 

-0.000000 -0.000000 0.000000 
0.000000 -0.000000 0.000000 
0.000000 0.000000 0.000000 

-0.000000 0.000000 0.000000 
0.000000 -0.000000 0.000000 
0.000000 0.000000 0.000000 

-0.000000 -0.000000 0.000000 
0.000000 -0.000000 0.000000 
0.000000 0.000000 0.000000 

-0.000000 0.000000 0.000000 
0.000000 -0.000000 0.000000 
0.000000 0.000000 0.000000 

-0.000000 0.000000 0.000000 
0.000000 -0.000000 0.000000 
0.000000 0.000000 0.000000 

0.000000 0.000000 0.000000 
0.000000 0.000000 0.000000 
0.000000 0.000000 0.000000 

-0.000000 -0.000000 0.000000 
0.000000 -0.000000 0.000000 
0.000000 0.000000 0.000000 

0.000000 0.000000 0.000000 
0.000000 0.000000 0.000000 
0.000000 0.000000 0.000000 

-0.000000 0.000000 0.000000 
0.000000 -0.000000 0.000000 
0.000000 0.000000 0.000000 

0.000000 -0.000000 0.000000 
0.000000 0.000000 0.000000 
0.000000 0.000000 0.000000 

0.000000 -0.000000 0.000000 
0.000000 0.000000 0.000000 
0.000000 0.000000 0.000000 

0.000000 0.000000 0.000000 
0.000000 0.000000 0.000000 
0.000000 0.000000 0.000000 

0.000000 0.000000 0.000000 
0.000000 -0.000000 0.000000 
0.000000 0.000000 0.000000 

0.000000 0.000000 0.000000 
0.000000 0.000000 0.000000 
0.000000 0.000000 0.000000 

0.000000 0.000000 0.000000 
0.000000 0.000000 0.000000 
0.000000 0.000000 0.000000 

0.000000 -0.000000 0.000000 
0.000000 0.000000 0.000000 
0.000000 0.000000 0.000000 

-0.000000 -0.000000 0.000000 
0.000000 -0.000000 0.000000 
0.000000 0.000000 0.000000 

-0.000000 -0.000000 0.000000 
0.000000 -0.000000 0.000000 
0.000000 0.000000 0.000000 

0.000000 -0.000000 0.000000 
0.000000 -0.000000 0.000000 
0.000000 0.000000 0.000000 

0.000000 -0.000000 0.000000 
0.000000 -0.000000 0.000000 
0.000000 0.000000 0.000000 

0.000000 0.000000 0.000000 
0.000000 -0.000000 0.000000 
0.000000 0.000000 0.000000 

-0.000000 0.000000 0.000000 
0.000000 0.000000 0.000000 
0.000000 0.000000 0.000000 

-0.000000 0.000000 0.000000 
0.000000 0.000000 0.000000 
0.000000 0.000000 0.000000 

-0.000000 0.000000 0.000000 
0.000000 0.000000 0.000000 
0.000000 0.000000 0.000000 

-0.000000 0.000000 0.000000 
0.000000 -0.000000 0.000000 
0.000000 0.000000 0.000000 

0.000000 0.000000 0.000000 
0.000000 0.000000 0.000000 
0.000000 0.000000 0.000000 

-0.000000 0.000000 0.000000 
0.000000 0.000000 0.000000 
0.000000 0.000000 0.000000 

-0.000000 0.000000 0.000000 
0.000000 -0.000000 0.000000 
0.000000 0.000000 0.000000 

-0.000000 -0.000000 0.000000 
0.000000 -0.000000 0.000000 
0.000000 0.000000 0.000000 

-0.000000 0.000000 0.000000 
0.000000 0.000000 0.000000 
0.000000 0.000000 0.000000 

-0.000000 0.000000 0.000000 
0.000000 -0.000000 0.000000 
0.000000 0.000000 0.000000 

-0.000000 0.000000 0.000000 
0.000000 -0.000000 0.000000 
0.000000 0.000000 0.000000 

0.000000 0.000000 0.000000 
0.000000 0.000000 0.000000 
0.000000 0.000000 0.000000 

0.000000 0.000000 0.000000 
0.000000 0.000000 0.000000 
0.000000 0.000000 0.000000 

0.000000 -0.000000 0.000000 
0.000000 0.000000 0.000000 
0.000000 0.000000 0.000000 

-0.000000 -0.000000 0.000000 
0.000000 0.000000 0.000000 
0.000000 0.000000 0.000000 

-0.000000 0.000000 0.000000 
0.000000 -0.000000 0.000000 
0.000000 0.000000 0.000000 

-0.000000 -0.000000 0.000000 
0.000000 0.000000 0.000000 
0.000000 0.000000 0.000000 

-0.000000 0.000000 0.000000 
0.000000 0.000000 0.000000 
0.000000 0.000000 0.000000 

-0.000000 0.000000 0.000000 
0.000000 -0.000000 0.000000 
0.000000 0.000000 0.000000 

-0.000000 0.000000 0.000000 
0.000000 -0.000000 0.000000 
0.000000 0.000000 0.000000 

-0.000000 0.000000 0.000000 
0.000000 -0.000000 0.000000 
0.000000 0.000000 0.000000 

0.000000 0.000000 0.000000 
0.000000 -0.000000 0.000000 
0.000000 0.000000 0.000000 

-0.000000 0.000000 0.000000 
0.000000 -0.000000 0.000000 
0.000000 0.000000 0.000000 

0.000000 0.000000 0.000000 
0.000000 0.000000 0.000000 
0.000000 0.000000 0.000000 

-0.000000 0.000000 0.000000 
0.000000 0.000000 0.000000 
0.000000 0.000000 0.000000 

-0.000000 0.000000 0.000000 
0.000000 0.000000 0.000000 
0.000000 0.000000 0.000000 

-0.000000 -0.000000 0.000000 
0.000000 0.000000 0.000000 
0.000000 0.000000 0.000000 

-0.000000 0.000000 0.000000 
0.000000 -0.000000 0.000000 
0.000000 0.000000 0.000000 

-0.000000 0.000000 0.000000 
0.000000 -0.000000 0.000000 
0.000000 0.000000 0.000000 

-0.000000 -0.000000 0.000000 
0.000000 -0.000000 0.000000 
0.000000 0.000000 0.000000 

-0.000000 -0.000000 0.000000 
0.000000 -0.000000 0.000000 
0.000000 0.000000 0.000000 

0.000000 0.000000 0.000000 
0.000000 0.000000 0.000000 
0.000000 0.000000 0.000000 

-0.000000 -0.000000 0.000000 
0.000000 -0.000000 0.000000 
0.000000 0.000000 0.000000 

0.000000 0.000000 0.000000 
0.000000 -0.000000 0.000000 
0.000000 0.000000 0.000000 

0.000000 0.000000 0.000000 
0.000000 0.000000 0.000000 
0.000000 0.000000 0.000000 

0.000000 0.000000 0.000000 
0.000000 0.000000 0.000000 
0.000000 0.000000 0.000000 

0.000000 0.000000 0.000000 
0.000000 0.000000 0.000000 
0.000000 0.000000 0.000000 

-0.000000 -0.000000 0.000000 
0.000000 0.000000 0.000000 
0.000000 0.000000 0.000000 

-0.000000 -0.000000 0.000000 
0.000000 0.000000 0.000000 
0.000000 0.000000 0.000000 

0.000000 0.000000 0.000000 
0.000000 0.000000 0.000000 
0.000000 0.000000 0.000000 

0.000000 0.000000 0.000000 
0.000000 0.000000 0.000000 
0.000000 0.000000 0.000000 

0.000000 0.000000 0.000000 
0.000000 -0.000000 0.000000 
0.000000 0.000000 0.000000 

0.000000 0.000000 0.000000 
0.000000 0.000000 0.000000 
0.000000 0.000000 0.000000 

-0.000000 0.000000 0.000000 
0.000000 -0.000000 0.000000 
0.000000 0.000000 0.000000 

-0.000000 0.000000 0.000000 
0.000000 -0.000000 0.000000 
0.000000 0.000000 0.000000 

-0.000000 0.000000 0.000000 
0.000000 0.000000 0.000000 
0.000000 0.000000 0.000000 

-0.000000 0.000000 0.000000 
0.000000 -0.000000 0.000000 
0.000000 0.000000 0.000000 

-0.000000 -0.000000 0.000000 
0.000000 -0.000000 0.000000 
0.000000 0.000000 0.000000 

0.000000 -0.000000 0.000000 
0.000000 0.000000 0.000000 
0.000000 0.000000 0.000000 

0.000000 0.000000 0.000000 
0.000000 0.000000 0.000000 
0.000000 0.000000 0.000000 

0.000000 -0.000000 0.000000 
0.000000 0.000000 0.000000 
0.000000 0.000000 0.000000 

-0.000000 -0.000000 0.000000 
0.000000 -0.000000 0.000000 
0.000000 0.000000 0.000000 

0.000000 0.000000 0.000000 
0.000000 -0.000000 0.000000 
0.000000 0.000000 0.000000 

-0.000000 0.000000 0.000000 
0.000000 -0.000000 0.000000 
0.000000 0.000000 0.000000 

-0.000000 0.000000 0.000000 
0.000000 -0.000000 0.000000 
0.000000 0.000000 0.000000 

-0.000000 -0.000000 0.000000 
0.000000 -0.000000 0.000000 
0.000000 0.000000 0.000000 

-0.000000 -0.000000 0.000000 
0.000000 -0.000000 0.000000 
0.000000 0.000000 0.000000 

-0.000000 0.000000 0.000000 
0.000000 -0.000000 0.000000 
0.000000 0.000000 0.000000 

-0.000000 -0.000000 0.000000 
0.000000 -0.000000 0.000000 
0.000000 0.000000 0.000000 

-0.000000 0.000000 0.000000 
0.000000 -0.000000 0.000000 
0.000000 0.000000 0.000000 

0.000000 -0.000000 0.000000 
0.000000 0.000000 0.000000 
0.000000 0.000000 0.000000 

-0.000000 0.000000 0.000000 
0.000000 -0.000000 0.000000 
0.000000 0.000000 0.000000 

0.000000 0.000000 0.000000 
0.000000 0.000000 0.000000 
0.000000 0.000000 0.000000 

0.000000 0.000000 0.000000 
0.000000 0.000000 0.000000 
0.000000 0.000000 0.000000 

0.000000 0.000000 0.000000 
0.000000 0.000000 0.000000 
0.000000 0.000000 0.000000 

0.000000 -0.000000 0.000000 
0.000000 -0.000000 0.000000 
0.000000 0.000000 0.000000 

0.000000 0.000000 0.000000 
0.000000 -0.000000 0.000000 
0.000000 0.000000 0.000000 

-0.000000 0.000000 0.000000 
0.000000 -0.000000 0.000000 
0.000000 0.000000 0.000000 

-0.000000 0.000000 0.000000 
0.000000 0.000000 0.000000 
0.000000 0.000000 0.000000 

0.000000 0.000000 0.000000 
0.000000 0.000000 0.000000 
0.000000 0.000000 0.000000 

0.000000 0.000000 0.000000 
0.000000 0.000000 0.000000 
0.000000 0.000000 0.000000 

-0.000000 -0.000000 0.000000 
0.000000 -0.000000 0.000000 
0.000000 0.000000 0.000000 

0.000000 -0.000000 0.000000 
0.000000 0.000000 0.000000 
0.000000 0.000000 0.000000 

-0.000000 -0.000000 0.000000 
0.000000 -0.000000 0.000000 
0.000000 0.000000 0.000000 

-0.000000 0.000000 0.000000 
0.000000 -0.000000 0.000000 
0.000000 0.000000 0.000000 

-0.000000 -0.000000 0.000000 
0.000000 -0.000000 0.000000 
0.000000 0.000000 0.000000 

0.000000 0.000000 0.000000 
0.000000 0.000000 0.000000 
0.000000 0.000000 0.000000 

-0.000000 -0.000000 0.000000 
0.000000 -0.000000 0.000000 
0.000000 0.000000 0.000000 

-0.000000 0.000000 0.000000 
0.000000 0.000000 0.000000 
0.000000 0.000000 0.000000 

-0.000000 0.000000 0.000000 
0.000000 0.000000 0.000000 
0.000000 0.000000 0.000000 

-0.000000 0.000000 0.000000 
0.000000 0.000000 0.000000 
0.000000 0.000000 0.000000 

-0.000000 0.000000 0.000000 
0.000000 -0.000000 0.000000 
0.000000 0.000000 0.000000 

0.000000 -0.000000 0.000000 
0.000000 0.000000 0.000000 
0.000000 0.000000 0.000000 

0.000000 0.000000 0.000000 
0.000000 0.000000 0.000000 
0.000000 0.000000 0.000000 

0.000000 0.000000 0.000000 
0.000000 0.000000 0.000000 
0.000000 0.000000 0.000000 

-0.000000 0.000000 0.000000 
0.000000 0.000000 0.000000 
0.000000 0.000000 0.000000 

0.000000 0.000000 0.000000 
0.000000 0.000000 0.000000 
0.000000 0.000000 0.000000 

0.000000 0.000000 0.000000 
0.000000 -0.000000 0.000000 
0.000000 0.000000 0.000000 

0.000000 0.000000 0.000000 
0.000000 0.000000 0.000000 
0.000000 0.000000 0.000000 

-0.000000 0.000000 0.000000 
0.000000 0.000000 0.000000 
0.000000 0.000000 0.000000 

0.000000 0.000000 0.000000 
0.000000 0.000000 0.000000 
0.000000 0.000000 0.000000 

-0.000000 0.000000 0.000000 
0.000000 -0.000000 0.000000 
0.000000 0.000000 0.000000 

0.000000 0.000000 0.000000 
0.000000 0.000000 0.000000 
0.000000 0.000000 0.000000 

0.000000 -0.000000 0.000000 
0.000000 0.000000 0.000000 
0.000000 0.000000 0.000000 

-0.000000 0.000000 0.000000 
0.000000 -0.000000 0.000000 
0.000000 0.000000 0.000000 

-0.000000 0.000000 0.000000 
0.000000 -0.000000 0.000000 
0.000000 0.000000 0.000000 

-0.000000 0.000000 0.000000 
0.000000 -0.000000 0.000000 
0.000000 0.000000 0.000000 

0.000000 0.000000 0.000000 
0.000000 0.000000 0.000000 
0.000000 0.000000 0.000000 

-0.000000 -0.000000 0.000000 
0.000000 -0.000000 0.000000 
0.000000 0.000000 0.000000 

0.000000 0.000000 0.000000 
0.000000 0.000000 0.000000 
0.000000 0.000000 0.000000 

0.000000 0.000000 0.000000 
0.000000 0.000000 0.000000 
0.000000 0.000000 0.000000 

0.000000 -0.000000 0.000000 
0.000000 0.000000 0.000000 
0.000000 0.000000 0.000000 

0.000000 0.000000 0.000000 
0.000000 0.000000 0.000000 
0.000000 0.000000 0.000000 

TENSORS STRAIN float 
-0.000000 0.000000 0.000000 
0.000000 0.000000 0.000000 
0.000000 0.000000 0.000000 

0.000000 -0.000000 0.000000 
0.000000 0.000000 0.000000 
0.000000 0.000000 0.000000 

-0.000000 0.000000 0.000000 
0.000000 0.000000 0.000000 
0.000000 0.000000 0.000000 

-0.000000 0.000000 0.000000 
0.000000 0.000000 0.000000 
0.000000 0.000000 0.000000 

0.000000 0.000000 0.000000 
0.000000 -0.000000 0.000000 
0.000000 0.000000 0.000000 

0.000000 -0.000000 0.000000 
0.000000 0.000000 0.000000 
0.000000 0.000000 0.000000 

0.000000 0.000000 0.000000 
0.000000 -0.000000 0.000000 
0.000000 0.000000 0.000000 

-0.000000 -0.000000 0.000000 
0.000000 0.000000 0.000000 
0.000000 0.000000 0.000000 

0.000000 -0.000000 0.000000 
0.000000 -0.000000 0.000000 
0.000000 0.000000 0.000000 

-0.000000 0.000000 0.000000 
0.000000 -0.000000 0.000000 
0.000000 0.000000 0.000000 

0.000000 -0.000000 0.000000 
0.000000 -0.000000 0.000000 
0.000000 0.000000 0.000000 

0.000000 0.000000 0.000000 
0.000000 -0.000000 0.000000 
0.000000 0.000000 0.000000 

0.000000 0.000000 0.000000 
0.000000 -0.000000 0.000000 
0.000000 0.000000 0.000000 

-0.000000 0.000000 0.000000 
0.000000 -0.000000 0.000000 
0.000000 0.000000 0.000000 

0.000000 0.000000 0.000000 
0.000000 -0.000000 0.000000 
0.000000 0.000000 0.000000 

0.000000 0.000000 0.000000 
0.000000 -0.000000 0.000000 
0.000000 0.000000 0.000000 

0.000000 -0.000000 0.000000 
0.000000 -0.000000 0.000000 
0.000000 0.000000 0.000000 

0.000000 0.000000 0.000000 
0.000000 -0.000000 0.000000 
0.000000 0.000000 0.000000 

0.000000 0.000000 0.000000 
0.000000 -0.000000 0.000000 
0.000000 0.000000 0.000000 

-0.000000 0.000000 0.000000 
0.000000 0.000000 0.000000 
0.000000 0.000000 0.000000 

-0.000000 -0.000000 0.000000 
0.000000 -0.000000 0.000000 
0.000000 0.000000 0.000000 

-0.000000 -0.000000 0.000000 
0.000000 -0.000000 0.000000 
0.000000 0.000000 0.000000 

-0.000000 -0.000000 0.000000 
0.000000 0.000000 0.000000 
0.000000 0.000000 0.000000 

-0.000000 0.000000 0.000000 
0.000000 -0.000000 0.000000 
0.000000 0.000000 0.000000 

0.000000 -0.000000 0.000000 
0.000000 -0.000000 0.000000 
0.000000 0.000000 0.000000 

-0.000000 0.000000 0.000000 
0.000000 0.000000 0.000000 
0.000000 0.000000 0.000000 

0.000000 -0.000000 0.000000 
0.000000 0.000000 0.000000 
0.000000 0.000000 0.000000 

0.000000 -0.000000 0.000000 
0.000000 0.000000 0.000000 
0.000000 0.000000 0.000000 

0.000000 -0.000000 0.000000 
0.000000 0.000000 0.000000 
0.000000 0.000000 0.000000 

0.000000 -0.000000 0.000000 
0.000000 -0.000000 0.000000 
0.000000 0.000000 0.000000 

0.000000 -0.000000 0.000000 
0.000000 0.000000 0.000000 
0.000000 0.000000 0.000000 

-0.000000 -0.000000 0.000000 
0.000000 -0.000000 0.000000 
0.000000 0.000000 0.000000 

0.000000 -0.000000 0.000000 
0.000000 -0.000000 0.000000 
0.000000 0.000000 0.000000 

0.000000 0.000000 0.000000 
0.000000 0.000000 0.000000 
0.000000 0.000000 0.000000 

0.000000 -0.000000 0.000000 
0.000000 0.000000 0.000000 
0.000000 0.000000 0.000000 

0.000000 -0.000000 0.000000 
0.000000 -0.000000 0.000000 
0.000000 0.000000 0.000000 

-0.000000 0.000000 0.000000 
0.000000 -0.000000 0.000000 
0.000000 0.000000 0.000000 

-0.000000 0.000000 0.000000 
0.000000 -0.000000 0.000000 
0.000000 0.000000 0.000000 

-0.000000 -0.000000 0.000000 
0.000000 -0.000000 0.000000 
0.000000 0.000000 0.000000 

-0.000000 0.000000 0.000000 
0.000000 -0.000000 0.000000 
0.000000 0.000000 0.000000 

-0.000000 -0.000000 0.000000 
0.000000 -0.000000 0.000000 
0.000000 0.000000 0.000000 

0.000000 0.000000 0.000000 
0.000000 -0.000000 0.000000 
0.000000 0.000000 0.000000 

0.000000 0.000000 0.000000 
0.000000 0.000000 0.000000 
0.000000 0.000000 0.000000 

0.000000 0.000000 0.000000 
0.000000 0.000000 0.000000 
0.000000 0.000000 0.000000 

0.000000 0.000000 0.000000 
0.000000 0.000000 0.000000 
0.000000 0.000000 0.000000 

0.000000 -0.000000 0.000000 
0.000000 -0.000000 0.000000 
0.000000 0.000000 0.000000 

0.000000 -0.000000 0.000000 
0.000000 -0.000000 0.000000 
0.000000 0.000000 0.000000 

-0.000000 0.000000 0.000000 
0.000000 -0.000000 0.000000 
0.000000 0.000000 0.000000 

-0.000000 0.000000 0.000000 
0.000000 -0.000000 0.000000 
0.000000 0.000000 0.000000 

-0.000000 -0.000000 0.000000 
0.000000 -0.000000 0.000000 
0.000000 0.000000 0.000000 

-0.000000 0.000000 0.000000 
0.000000 0.000000 0.000000 
0.000000 0.000000 0.000000 

-0.000000 -0.000000 0.000000 
0.000000 -0.000000 0.000000 
0.000000 0.000000 0.000000 

-0.000000 0.000000 0.000000 
0.000000 -0.000000 0.000000 
0.000000 0.000000 0.000000 

-0.000000 -0.000000 0.000000 
0.000000 -0.000000 0.000000 
0.000000 0.000000 0.000000 

0.000000 0.000000 0.000000 
0.000000 -0.000000 0.000000 
0.000000 0.000000 0.000000 

0.000000 0.000000 0.000000 
0.000000 -0.000000 0.000000 
0.000000 0.000000 0.000000 

-0.000000 0.000000 0.000000 
0.000000 0.000000 0.000000 
0.000000 0.000000 0.000000 

-0.000000 -0.000000 0.000000 
0.000000 0.000000 0.000000 
0.000000 0.000000 0.000000 

0.000000 0.000000 0.000000 
0.000000 0.000000 0.000000 
0.000000 0.000000 0.000000 

-0.000000 0.000000 0.000000 
0.000000 -0.000000 0.000000 
0.000000 0.000000 0.000000 

0.000000 -0.000000 0.000000 
0.000000 0.000000 0.000000 
0.000000 0.000000 0.000000 

0.000000 -0.000000 0.000000 
0.000000 0.000000 0.000000 
0.000000 0.000000 0.000000 

0.000000 0.000000 0.000000 
0.000000 -0.000000 0.000000 
0.000000 0.000000 0.000000 

0.000000 0.000000 0.000000 
0.000000 -0.000000 0.000000 
0.000000 0.000000 0.000000 

0.000000 0.000000 0.000000 
0.000000 0.000000 0.000000 
0.000000 0.000000 0.000000 

0.000000 0.000000 0.000000 
0.000000 0.000000 0.000000 
0.000000 0.000000 0.000000 

-0.000000 -0.000000 0.000000 
0.000000 0.000000 0.000000 
0.000000 0.000000 0.000000 

-0.000000 -0.000000 0.000000 
0.000000 -0.000000 0.000000 
0.000000 0.000000 0.000000 

-0.000000 -0.000000 0.000000 
0.000000 -0.000000 0.000000 
0.000000 0.000000 0.000000 

0.000000 -0.000000 0.000000 
0.000000 -0.000000 0.000000 
0.000000 0.000000 0.000000 

0.000000 -0.000000 0.000000 
0.000000 -0.000000 0.000000 
0.000000 0.000000 0.000000 

0.000000 0.000000 0.000000 
0.000000 -0.000000 0.000000 
0.000000 0.000000 0.000000 

-0.000000 0.000000 0.000000 
0.000000 0.000000 0.000000 
0.000000 0.000000 0.000000 

-0.000000 0.000000 0.000000 
0.000000 0.000000 0.000000 
0.000000 0.000000 0.000000 

-0.000000 0.000000 0.000000 
0.000000 0.000000 0.000000 
0.000000 0.000000 0.000000 

-0.000000 0.000000 0.000000 
0.000000 -0.000000 0.000000 
0.000000 0.000000 0.000000 

-0.000000 0.000000 0.000000 
0.000000 0.000000 0.000000 
0.000000 0.000000 0.000000 

-0.000000 0.000000 0.000000 
0.000000 0.000000 0.000000 
0.000000 0.000000 0.000000 

-0.000000 0.000000 0.000000 
0.000000 -0.000000 0.000000 
0.000000 0.000000 0.000000 

0.000000 -0.000000 0.000000 
0.000000 -0.000000 0.000000 
0.000000 0.000000 0.000000 

-0.000000 0.000000 0.000000 
0.000000 0.000000 0.000000 
0.000000 0.000000 0.000000 

-0.000000 0.000000 0.000000 
0.000000 -0.000000 0.000000 
0.000000 0.000000 0.000000 

-0.000000 0.000000 0.000000 
0.000000 -0.000000 0.000000 
0.000000 0.000000 0.000000 

0.000000 0.000000 0.000000 
0.000000 0.000000 0.000000 
0.000000 0.000000 0.000000 

-0.000000 0.000000 0.000000 
0.000000 0.000000 0.000000 
0.000000 0.000000 0.000000 

0.000000 -0.000000 0.000000 
0.000000 0.000000 0.000000 
0.000000 0.000000 0.000000 

-0.000000 -0.000000 0.000000 
0.000000 0.000000 0.000000 
0.000000 0.000000 0.000000 

-0.000000 0.000000 0.000000 
0.000000 -0.000000 0.000000 
0.000000 0.000000 0.000000 

-0.000000 -0.000000 0.000000 
0.000000 0.000000 0.000000 
0.000000 0.000000 0.000000 

-0.000000 0.000000 0.000000 
0.000000 0.000000 0.000000 
0.000000 0.000000 0.000000 

-0.000000 0.000000 0.000000 
0.000000 -0.000000 0.000000 
0.000000 0.000000 0.000000 

0.000000 0.000000 0.000000 
0.000000 -0.000000 0.000000 
0.000000 0.000000 0.000000 

0.000000 0.000000 0.000000 
0.000000 -0.000000 0.000000 
0.000000 0.000000 0.000000 

0.000000 0.000000 0.000000 
0.000000 -0.000000 0.000000 
0.000000 0.000000 0.000000 

-0.000000 0.000000 0.000000 
0.000000 -0.000000 0.000000 
0.000000 0.000000 0.000000 

-0.000000 0.000000 0.000000 
0.000000 0.000000 0.000000 
0.000000 0.000000 0.000000 

-0.000000 0.000000 0.000000 
0.000000 0.000000 0.000000 
0.000000 0.000000 0.000000 

-0.000000 0.000000 0.000000 
0.000000 0.000000 0.000000 
0.000000 0.000000 0.000000 

-0.000000 -0.000000 0.000000 
0.000000 0.000000 0.000000 
0.000000 0.000000 0.000000 

-0.000000 0.000000 0.000000 
0.000000 -0.000000 0.000000 
0.000000 0.000000 0.000000 

-0.000000 0.000000 0.000000 
0.000000 -0.000000 0.000000 
0.000000 0.000000 0.000000 

0.000000 -0.000000 0.000000 
0.000000 -0.000000 0.000000 
0.000000 0.000000 0.000000 

0.000000 -0.000000 0.000000 
0.000000 -0.000000 0.000000 
0.000000 0.000000 0.000000 

0.000000 0.000000 0.000000 
0.000000 0.000000 0.000000 
0.000000 0.000000 0.000000 

-0.000000 -0.000000 0.000000 
0.000000 0.000000 0.000000 
0.000000 0.000000 0.000000 

0.000000 0.000000 0.000000 
0.000000 -0.000000 0.000000 
0.000000 0.000000 0.000000 

0.000000 0.000000 0.000000 
0.000000 0.000000 0.000000 
0.000000 0.000000 0.000000 

0.000000 0.000000 0.000000 
0.000000 -0.000000 0.000000 
0.000000 0.000000 0.000000 

0.000000 0.000000 0.000000 
0.000000 -0.000000 0.000000 
0.000000 0.000000 0.000000 

-0.000000 -0.000000 0.000000 
0.000000 0.000000 0.000000 
0.000000 0.000000 0.000000 

-0.000000 -0.000000 0.000000 
0.000000 0.000000 0.000000 
0.000000 0.000000 0.000000 

-0.000000 0.000000 0.000000 
0.000000 0.000000 0.000000 
0.000000 0.000000 0.000000 

0.000000 0.000000 0.000000 
0.000000 0.000000 0.000000 
0.000000 0.000000 0.000000 

0.000000 0.000000 0.000000 
0.000000 -0.000000 0.000000 
0.000000 0.000000 0.000000 

-0.000000 0.000000 0.000000 
0.000000 0.000000 0.000000 
0.000000 0.000000 0.000000 

0.000000 0.000000 0.000000 
0.000000 -0.000000 0.000000 
0.000000 0.000000 0.000000 

-0.000000 0.000000 0.000000 
0.000000 -0.000000 0.000000 
0.000000 0.000000 0.000000 

-0.000000 0.000000 0.000000 
0.000000 0.000000 0.000000 
0.000000 0.000000 0.000000 

-0.000000 0.000000 0.000000 
0.000000 0.000000 0.000000 
0.000000 0.000000 0.000000 

0.000000 -0.000000 0.000000 
0.000000 -0.000000 0.000000 
0.000000 0.000000 0.000000 

0.000000 -0.000000 0.000000 
0.000000 0.000000 0.000000 
0.000000 0.000000 0.000000 

0.000000 0.000000 0.000000 
0.000000 0.000000 0.000000 
0.000000 0.000000 0.000000 

0.000000 -0.000000 0.000000 
0.000000 0.000000 0.000000 
0.000000 0.000000 0.000000 

0.000000 -0.000000 0.000000 
0.000000 -0.000000 0.000000 
0.000000 0.000000 0.000000 

0.000000 0.000000 0.000000 
0.000000 -0.000000 0.000000 
0.000000 0.000000 0.000000 

-0.000000 0.000000 0.000000 
0.000000 -0.000000 0.000000 
0.000000 0.000000 0.000000 

-0.000000 0.000000 0.000000 
0.000000 -0.000000 0.000000 
0.000000 0.000000 0.000000 

-0.000000 -0.000000 0.000000 
0.000000 -0.000000 0.000000 
0.000000 0.000000 0.000000 

-0.000000 -0.000000 0.000000 
0.000000 -0.000000 0.000000 
0.000000 0.000000 0.000000 

-0.000000 0.000000 0.000000 
0.000000 -0.000000 0.000000 
0.000000 0.000000 0.000000 

-0.000000 -0.000000 0.000000 
0.000000 0.000000 0.000000 
0.000000 0.000000 0.000000 

0.000000 0.000000 0.000000 
0.000000 -0.000000 0.000000 
0.000000 0.000000 0.000000 

-0.000000 -0.000000 0.000000 
0.000000 0.000000 0.000000 
0.000000 0.000000 0.000000 

-0.000000 0.000000 0.000000 
0.000000 0.000000 0.000000 
0.000000 0.000000 0.000000 

0.000000 0.000000 0.000000 
0.000000 0.000000 0.000000 
0.000000 0.000000 0.000000 

0.000000 0.000000 0.000000 
0.000000 0.000000 0.000000 
0.000000 0.000000 0.000000 

0.000000 0.000000 0.000000 
0.000000 0.000000 0.000000 
0.000000 0.000000 0.000000 

0.000000 -0.000000 0.000000 
0.000000 -0.000000 0.000000 
0.000000 0.000000 0.000000 

0.000000 0.000000 0.000000 
0.000000 -0.000000 0.000000 
0.000000 0.000000 0.000000 

-0.000000 0.000000 0.000000 
0.000000 -0.000000 0.000000 
0.000000 0.000000 0.000000 

-0.000000 0.000000 0.000000 
0.000000 0.000000 0.000000 
0.000000 0.000000 0.000000 

0.000000 0.000000 0.000000 
0.000000 -0.000000 0.000000 
0.000000 0.000000 0.000000 

0.000000 0.000000 0.000000 
0.000000 0.000000 0.000000 
0.000000 0.000000 0.000000 

-0.000000 -0.000000 0.000000 
0.000000 0.000000 0.000000 
0.000000 0.000000 0.000000 

-0.000000 -0.000000 0.000000 
0.000000 0.000000 0.000000 
0.000000 0.000000 0.000000 

-0.000000 -0.000000 0.000000 
0.000000 -0.000000 0.000000 
0.000000 0.000000 0.000000 

-0.000000 0.000000 0.000000 
0.000000 0.000000 0.000000 
0.000000 0.000000 0.000000 

-0.000000 -0.000000 0.000000 
0.000000 -0.000000 0.000000 
0.000000 0.000000 0.000000 

0.000000 0.000000 0.000000 
0.000000 -0.000000 0.000000 
0.000000 0.000000 0.000000 

0.000000 -0.000000 0.000000 
0.000000 -0.000000 0.000000 
0.000000 0.000000 0.000000 

-0.000000 0.000000 0.000000 
0.000000 0.000000 0.000000 
0.000000 0.000000 0.000000 

-0.000000 0.000000 0.000000 
0.000000 0.000000 0.000000 
0.000000 0.000000 0.000000 

-0.000000 0.000000 0.000000 
0.000000 0.000000 0.000000 
0.000000 0.000000 0.000000 

-0.000000 0.000000 0.000000 
0.000000 0.000000 0.000000 
0.000000 0.000000 0.000000 

0.000000 -0.000000 0.000000 
0.000000 0.000000 0.000000 
0.000000 0.000000 0.000000 

-0.000000 0.000000 0.000000 
0.000000 0.000000 0.000000 
0.000000 0.000000 0.000000 

-0.000000 0.000000 0.000000 
0.000000 0.000000 0.000000 
0.000000 0.000000 0.000000 

-0.000000 0.000000 0.000000 
0.000000 0.000000 0.000000 
0.000000 0.000000 0.000000 

-0.000000 0.000000 0.000000 
0.000000 0.000000 0.000000 
0.000000 0.000000 0.000000 

0.000000 0.000000 0.000000 
0.000000 -0.000000 0.000000 
0.000000 0.000000 0.000000 

0.000000 0.000000 0.000000 
0.000000 0.000000 0.000000 
0.000000 0.000000 0.000000 

-0.000000 0.000000 0.000000 
0.000000 0.000000 0.000000 
0.000000 0.000000 0.000000 

-0.000000 0.000000 0.000000 
0.000000 0.000000 0.000000 
0.000000 0.000000 0.000000 

-0.000000 0.000000 0.000000 
0.000000 0.000000 0.000000 
0.000000 0.000000 0.000000 

-0.000000 0.000000 0.000000 
0.000000 0.000000 0.000000 
0.000000 0.000000 0.000000 

0.000000 -0.000000 0.000000 
0.000000 0.000000 0.000000 
0.000000 0.000000 0.000000 

0.000000 0.000000 0.000000 
0.000000 -0.000000 0.000000 
0.000000 0.000000 0.000000 

-0.000000 0.000000 0.000000 
0.000000 -0.000000 0.000000 
0.000000 0.000000 0.000000 

0.000000 0.000000 0.000000 
0.000000 -0.000000 0.000000 
0.000000 0.000000 0.000000 

0.000000 0.000000 0.000000 
0.000000 -0.000000 0.000000 
0.000000 0.000000 0.000000 

-0.000000 -0.000000 0.000000 
0.000000 -0.000000 0.000000 
0.000000 0.000000 0.000000 

-0.000000 0.000000 0.000000 
0.000000 0.000000 0.000000 
0.000000 0.000000 0.000000 

0.000000 0.000000 0.000000 
0.000000 0.000000 0.000000 
0.000000 0.000000 0.000000 

0.000000 -0.000000 0.000000 
0.000000 -0.000000 0.000000 
0.000000 0.000000 0.000000 

0.000000 0.000000 0.000000 
0.000000 0.000000 0.000000 
0.000000 0.000000 0.000000 

