# vtk DataFile Version 3.0 
vtk output 
ASCII 
DATASET UNSTRUCTURED_GRID 
POINTS 175 float 
-0.026061 -0.332526 0.000000 
-0.106992 -0.264471 0.000000 
-0.054870 -0.272703 0.000000 
-0.028809 -0.226820 0.000000 
-0.186430 -0.200395 0.000000 
-0.137056 -0.202921 0.000000 
-0.114311 -0.149274 0.000000 
-0.058186 -0.164940 0.000000 
-0.029377 -0.124762 0.000000 
-0.265318 -0.137239 0.000000 
-0.217198 -0.138039 0.000000 
-0.196633 -0.080742 0.000000 
-0.143120 -0.089451 0.000000 
-0.116563 -0.042183 0.000000 
-0.058945 -0.061828 0.000000 
-0.029568 -0.023708 0.000000 
-0.344206 -0.074084 0.000000 
-0.296791 -0.074076 0.000000 
-0.278030 -0.014134 0.000000 
-0.225992 -0.020000 0.000000 
-0.201664 0.032117 0.000000 
-0.145749 0.018643 0.000000 
-0.117890 0.062986 0.000000 
-0.059328 0.040280 0.000000 
-0.029759 0.077346 0.000000 
-0.058559 -0.373277 0.000000 
-0.162226 -0.394119 0.000000 
-0.123292 -0.358502 0.000000 
-0.142917 -0.309518 0.000000 
-0.261851 -0.416276 0.000000 
-0.229092 -0.379249 0.000000 
-0.256854 -0.328017 0.000000 
-0.209613 -0.293905 0.000000 
-0.223062 -0.246331 0.000000 
-0.360414 -0.438576 0.000000 
-0.329787 -0.401453 0.000000 
-0.361761 -0.349651 0.000000 
-0.321587 -0.313242 0.000000 
-0.341985 -0.263008 0.000000 
-0.290702 -0.230209 0.000000 
-0.302189 -0.183474 0.000000 
-0.458977 -0.460876 0.000000 
-0.429420 -0.423801 0.000000 
-0.464588 -0.371760 0.000000 
-0.427556 -0.334732 0.000000 
-0.453135 -0.283217 0.000000 
-0.407738 -0.247902 0.000000 
-0.425037 -0.198474 0.000000 
-0.370772 -0.166845 0.000000 
-0.381315 -0.120617 0.000000 
-0.046960 -0.424092 0.000000 
-0.095301 -0.518138 0.000000 
-0.098873 -0.465491 0.000000 
-0.149405 -0.450293 0.000000 
-0.140093 -0.609842 0.000000 
-0.148617 -0.561144 0.000000 
-0.205981 -0.550906 0.000000 
-0.203197 -0.492703 0.000000 
-0.248777 -0.473557 0.000000 
-0.184111 -0.700806 0.000000 
-0.194039 -0.653714 0.000000 
-0.254475 -0.646415 0.000000 
-0.257893 -0.592305 0.000000 
-0.309886 -0.576933 0.000000 
-0.303554 -0.516388 0.000000 
-0.347255 -0.496230 0.000000 
-0.228129 -0.791769 0.000000 
-0.238687 -0.745545 0.000000 
-0.301302 -0.740593 0.000000 
-0.307162 -0.688554 0.000000 
-0.363386 -0.676433 0.000000 
-0.362692 -0.618922 0.000000 
-0.412122 -0.601628 0.000000 
-0.403017 -0.539482 0.000000 
-0.445733 -0.518903 0.000000 
-0.000000 -0.446707 0.000000 
0.043388 -0.543138 0.000000 
-0.000000 -0.513105 0.000000 
-0.043388 -0.543138 0.000000 
0.087158 -0.635334 0.000000 
0.043769 -0.611636 0.000000 
-0.000000 -0.650101 0.000000 
-0.043769 -0.611636 0.000000 
-0.087158 -0.635334 0.000000 
0.130831 -0.726464 0.000000 
0.087824 -0.704865 0.000000 
0.044436 -0.747565 0.000000 
-0.000000 -0.716500 0.000000 
-0.044436 -0.747565 0.000000 
-0.087824 -0.704865 0.000000 
-0.130831 -0.726464 0.000000 
0.174505 -0.817594 0.000000 
0.131782 -0.797027 0.000000 
0.088871 -0.842894 0.000000 
0.044532 -0.815030 0.000000 
-0.000000 -0.851430 0.000000 
-0.044532 -0.815030 0.000000 
-0.088871 -0.842894 0.000000 
-0.131782 -0.797027 0.000000 
-0.174505 -0.817594 0.000000 
0.046960 -0.424092 0.000000 
0.149405 -0.450293 0.000000 
0.098873 -0.465491 0.000000 
0.095301 -0.518138 0.000000 
0.248777 -0.473557 0.000000 
0.203197 -0.492703 0.000000 
0.205981 -0.550906 0.000000 
0.148617 -0.561144 0.000000 
0.140093 -0.609842 0.000000 
0.347255 -0.496230 0.000000 
0.303554 -0.516388 0.000000 
0.309886 -0.576933 0.000000 
0.257893 -0.592305 0.000000 
0.254475 -0.646415 0.000000 
0.194039 -0.653714 0.000000 
0.184111 -0.700806 0.000000 
0.445733 -0.518903 0.000000 
0.403017 -0.539482 0.000000 
0.412122 -0.601628 0.000000 
0.362692 -0.618922 0.000000 
0.363386 -0.676433 0.000000 
0.307162 -0.688554 0.000000 
0.301302 -0.740593 0.000000 
0.238687 -0.745545 0.000000 
0.228129 -0.791769 0.000000 
0.058559 -0.373277 0.000000 
0.142917 -0.309518 0.000000 
0.123292 -0.358502 0.000000 
0.162226 -0.394119 0.000000 
0.223062 -0.246331 0.000000 
0.209613 -0.293905 0.000000 
0.256854 -0.328017 0.000000 
0.229092 -0.379249 0.000000 
0.261851 -0.416276 0.000000 
0.302189 -0.183474 0.000000 
0.290702 -0.230209 0.000000 
0.341985 -0.263008 0.000000 
0.321587 -0.313242 0.000000 
0.361761 -0.349651 0.000000 
0.329787 -0.401453 0.000000 
0.360414 -0.438576 0.000000 
0.381315 -0.120617 0.000000 
0.370772 -0.166845 0.000000 
0.425037 -0.198474 0.000000 
0.407738 -0.247902 0.000000 
0.453135 -0.283217 0.000000 
0.427556 -0.334732 0.000000 
0.464588 -0.371760 0.000000 
0.429420 -0.423801 0.000000 
0.458977 -0.460876 0.000000 
0.026061 -0.332526 0.000000 
0.028809 -0.226820 0.000000 
0.054870 -0.272703 0.000000 
0.106992 -0.264471 0.000000 
0.029377 -0.124762 0.000000 
0.058186 -0.164940 0.000000 
0.114311 -0.149274 0.000000 
0.137056 -0.202921 0.000000 
0.186430 -0.200395 0.000000 
0.029568 -0.023708 0.000000 
0.058945 -0.061828 0.000000 
0.116563 -0.042183 0.000000 
0.143120 -0.089451 0.000000 
0.196633 -0.080742 0.000000 
0.217198 -0.138039 0.000000 
0.265318 -0.137239 0.000000 
0.029759 0.077346 0.000000 
0.059328 0.040280 0.000000 
0.117890 0.062986 0.000000 
0.145749 0.018643 0.000000 
0.201664 0.032117 0.000000 
0.225992 -0.020000 0.000000 
0.278030 -0.014134 0.000000 
0.296791 -0.074076 0.000000 
0.344206 -0.074084 0.000000 
CELLS 175 350 
1 0 
1 1 
1 2 
1 3 
1 4 
1 5 
1 6 
1 7 
1 8 
1 9 
1 10 
1 11 
1 12 
1 13 
1 14 
1 15 
1 16 
1 17 
1 18 
1 19 
1 20 
1 21 
1 22 
1 23 
1 24 
1 25 
1 26 
1 27 
1 28 
1 29 
1 30 
1 31 
1 32 
1 33 
1 34 
1 35 
1 36 
1 37 
1 38 
1 39 
1 40 
1 41 
1 42 
1 43 
1 44 
1 45 
1 46 
1 47 
1 48 
1 49 
1 50 
1 51 
1 52 
1 53 
1 54 
1 55 
1 56 
1 57 
1 58 
1 59 
1 60 
1 61 
1 62 
1 63 
1 64 
1 65 
1 66 
1 67 
1 68 
1 69 
1 70 
1 71 
1 72 
1 73 
1 74 
1 75 
1 76 
1 77 
1 78 
1 79 
1 80 
1 81 
1 82 
1 83 
1 84 
1 85 
1 86 
1 87 
1 88 
1 89 
1 90 
1 91 
1 92 
1 93 
1 94 
1 95 
1 96 
1 97 
1 98 
1 99 
1 100 
1 101 
1 102 
1 103 
1 104 
1 105 
1 106 
1 107 
1 108 
1 109 
1 110 
1 111 
1 112 
1 113 
1 114 
1 115 
1 116 
1 117 
1 118 
1 119 
1 120 
1 121 
1 122 
1 123 
1 124 
1 125 
1 126 
1 127 
1 128 
1 129 
1 130 
1 131 
1 132 
1 133 
1 134 
1 135 
1 136 
1 137 
1 138 
1 139 
1 140 
1 141 
1 142 
1 143 
1 144 
1 145 
1 146 
1 147 
1 148 
1 149 
1 150 
1 151 
1 152 
1 153 
1 154 
1 155 
1 156 
1 157 
1 158 
1 159 
1 160 
1 161 
1 162 
1 163 
1 164 
1 165 
1 166 
1 167 
1 168 
1 169 
1 170 
1 171 
1 172 
1 173 
1 174 
CELL_TYPES 175 
1 
1 
1 
1 
1 
1 
1 
1 
1 
1 
1 
1 
1 
1 
1 
1 
1 
1 
1 
1 
1 
1 
1 
1 
1 
1 
1 
1 
1 
1 
1 
1 
1 
1 
1 
1 
1 
1 
1 
1 
1 
1 
1 
1 
1 
1 
1 
1 
1 
1 
1 
1 
1 
1 
1 
1 
1 
1 
1 
1 
1 
1 
1 
1 
1 
1 
1 
1 
1 
1 
1 
1 
1 
1 
1 
1 
1 
1 
1 
1 
1 
1 
1 
1 
1 
1 
1 
1 
1 
1 
1 
1 
1 
1 
1 
1 
1 
1 
1 
1 
1 
1 
1 
1 
1 
1 
1 
1 
1 
1 
1 
1 
1 
1 
1 
1 
1 
1 
1 
1 
1 
1 
1 
1 
1 
1 
1 
1 
1 
1 
1 
1 
1 
1 
1 
1 
1 
1 
1 
1 
1 
1 
1 
1 
1 
1 
1 
1 
1 
1 
1 
1 
1 
1 
1 
1 
1 
1 
1 
1 
1 
1 
1 
1 
1 
1 
1 
1 
1 
1 
1 
1 
1 
1 
1 
POINT_DATA 175 
VECTORS X_GC float 
-0.026061 -0.332526 0.000000 
-0.106992 -0.264471 0.000000 
-0.054870 -0.272703 0.000000 
-0.028809 -0.226820 0.000000 
-0.186430 -0.200395 0.000000 
-0.137056 -0.202921 0.000000 
-0.114311 -0.149274 0.000000 
-0.058186 -0.164940 0.000000 
-0.029377 -0.124762 0.000000 
-0.265318 -0.137239 0.000000 
-0.217198 -0.138039 0.000000 
-0.196633 -0.080742 0.000000 
-0.143120 -0.089451 0.000000 
-0.116563 -0.042183 0.000000 
-0.058945 -0.061828 0.000000 
-0.029568 -0.023708 0.000000 
-0.344206 -0.074084 0.000000 
-0.296791 -0.074076 0.000000 
-0.278030 -0.014134 0.000000 
-0.225992 -0.020000 0.000000 
-0.201664 0.032117 0.000000 
-0.145749 0.018643 0.000000 
-0.117890 0.062986 0.000000 
-0.059328 0.040280 0.000000 
-0.029759 0.077346 0.000000 
-0.058559 -0.373277 0.000000 
-0.162226 -0.394119 0.000000 
-0.123292 -0.358502 0.000000 
-0.142917 -0.309518 0.000000 
-0.261851 -0.416276 0.000000 
-0.229092 -0.379249 0.000000 
-0.256854 -0.328017 0.000000 
-0.209613 -0.293905 0.000000 
-0.223062 -0.246331 0.000000 
-0.360414 -0.438576 0.000000 
-0.329787 -0.401453 0.000000 
-0.361761 -0.349651 0.000000 
-0.321587 -0.313242 0.000000 
-0.341985 -0.263008 0.000000 
-0.290702 -0.230209 0.000000 
-0.302189 -0.183474 0.000000 
-0.458977 -0.460876 0.000000 
-0.429420 -0.423801 0.000000 
-0.464588 -0.371760 0.000000 
-0.427556 -0.334732 0.000000 
-0.453135 -0.283217 0.000000 
-0.407738 -0.247902 0.000000 
-0.425037 -0.198474 0.000000 
-0.370772 -0.166845 0.000000 
-0.381315 -0.120617 0.000000 
-0.046960 -0.424092 0.000000 
-0.095301 -0.518138 0.000000 
-0.098873 -0.465491 0.000000 
-0.149405 -0.450293 0.000000 
-0.140093 -0.609842 0.000000 
-0.148617 -0.561144 0.000000 
-0.205981 -0.550906 0.000000 
-0.203197 -0.492703 0.000000 
-0.248777 -0.473557 0.000000 
-0.184111 -0.700806 0.000000 
-0.194039 -0.653714 0.000000 
-0.254475 -0.646415 0.000000 
-0.257893 -0.592305 0.000000 
-0.309886 -0.576933 0.000000 
-0.303554 -0.516388 0.000000 
-0.347255 -0.496230 0.000000 
-0.228129 -0.791769 0.000000 
-0.238687 -0.745545 0.000000 
-0.301302 -0.740593 0.000000 
-0.307162 -0.688554 0.000000 
-0.363386 -0.676433 0.000000 
-0.362692 -0.618922 0.000000 
-0.412122 -0.601628 0.000000 
-0.403017 -0.539482 0.000000 
-0.445733 -0.518903 0.000000 
-0.000000 -0.446707 0.000000 
0.043388 -0.543138 0.000000 
-0.000000 -0.513105 0.000000 
-0.043388 -0.543138 0.000000 
0.087158 -0.635334 0.000000 
0.043769 -0.611636 0.000000 
-0.000000 -0.650101 0.000000 
-0.043769 -0.611636 0.000000 
-0.087158 -0.635334 0.000000 
0.130831 -0.726464 0.000000 
0.087824 -0.704865 0.000000 
0.044436 -0.747565 0.000000 
-0.000000 -0.716500 0.000000 
-0.044436 -0.747565 0.000000 
-0.087824 -0.704865 0.000000 
-0.130831 -0.726464 0.000000 
0.174505 -0.817594 0.000000 
0.131782 -0.797027 0.000000 
0.088871 -0.842894 0.000000 
0.044532 -0.815030 0.000000 
-0.000000 -0.851430 0.000000 
-0.044532 -0.815030 0.000000 
-0.088871 -0.842894 0.000000 
-0.131782 -0.797027 0.000000 
-0.174505 -0.817594 0.000000 
0.046960 -0.424092 0.000000 
0.149405 -0.450293 0.000000 
0.098873 -0.465491 0.000000 
0.095301 -0.518138 0.000000 
0.248777 -0.473557 0.000000 
0.203197 -0.492703 0.000000 
0.205981 -0.550906 0.000000 
0.148617 -0.561144 0.000000 
0.140093 -0.609842 0.000000 
0.347255 -0.496230 0.000000 
0.303554 -0.516388 0.000000 
0.309886 -0.576933 0.000000 
0.257893 -0.592305 0.000000 
0.254475 -0.646415 0.000000 
0.194039 -0.653714 0.000000 
0.184111 -0.700806 0.000000 
0.445733 -0.518903 0.000000 
0.403017 -0.539482 0.000000 
0.412122 -0.601628 0.000000 
0.362692 -0.618922 0.000000 
0.363386 -0.676433 0.000000 
0.307162 -0.688554 0.000000 
0.301302 -0.740593 0.000000 
0.238687 -0.745545 0.000000 
0.228129 -0.791769 0.000000 
0.058559 -0.373277 0.000000 
0.142917 -0.309518 0.000000 
0.123292 -0.358502 0.000000 
0.162226 -0.394119 0.000000 
0.223062 -0.246331 0.000000 
0.209613 -0.293905 0.000000 
0.256854 -0.328017 0.000000 
0.229092 -0.379249 0.000000 
0.261851 -0.416276 0.000000 
0.302189 -0.183474 0.000000 
0.290702 -0.230209 0.000000 
0.341985 -0.263008 0.000000 
0.321587 -0.313242 0.000000 
0.361761 -0.349651 0.000000 
0.329787 -0.401453 0.000000 
0.360414 -0.438576 0.000000 
0.381315 -0.120617 0.000000 
0.370772 -0.166845 0.000000 
0.425037 -0.198474 0.000000 
0.407738 -0.247902 0.000000 
0.453135 -0.283217 0.000000 
0.427556 -0.334732 0.000000 
0.464588 -0.371760 0.000000 
0.429420 -0.423801 0.000000 
0.458977 -0.460876 0.000000 
0.026061 -0.332526 0.000000 
0.028809 -0.226820 0.000000 
0.054870 -0.272703 0.000000 
0.106992 -0.264471 0.000000 
0.029377 -0.124762 0.000000 
0.058186 -0.164940 0.000000 
0.114311 -0.149274 0.000000 
0.137056 -0.202921 0.000000 
0.186430 -0.200395 0.000000 
0.029568 -0.023708 0.000000 
0.058945 -0.061828 0.000000 
0.116563 -0.042183 0.000000 
0.143120 -0.089451 0.000000 
0.196633 -0.080742 0.000000 
0.217198 -0.138039 0.000000 
0.265318 -0.137239 0.000000 
0.029759 0.077346 0.000000 
0.059328 0.040280 0.000000 
0.117890 0.062986 0.000000 
0.145749 0.018643 0.000000 
0.201664 0.032117 0.000000 
0.225992 -0.020000 0.000000 
0.278030 -0.014134 0.000000 
0.296791 -0.074076 0.000000 
0.344206 -0.074084 0.000000 
VECTORS X_EC float 
0.338794 0.989102 0.000000 
-0.609100 0.070353 0.000000 
0.713312 0.181494 0.000000 
0.374519 -0.437935 0.000000 
0.423588 -0.794666 0.000000 
-0.218274 -0.760562 0.000000 
-0.513962 0.515199 0.000000 
0.756418 0.726685 0.000000 
0.381900 0.184293 0.000000 
-0.550868 0.352731 0.000000 
0.823577 0.363527 0.000000 
0.556234 -0.409977 0.000000 
-0.139443 -0.292409 0.000000 
-0.484677 -0.930533 0.000000 
0.766286 -0.665318 0.000000 
0.384386 0.820062 0.000000 
0.474677 -0.499872 0.000000 
-0.141715 -0.499969 0.000000 
-0.385608 0.690803 0.000000 
0.937896 0.769999 0.000000 
0.621631 0.066419 0.000000 
-0.105264 0.248318 0.000000 
-0.467428 -0.350308 0.000000 
0.771260 -0.043780 0.000000 
0.386873 -0.544169 0.000000 
0.761262 -0.460764 0.000000 
0.108942 -0.179387 0.000000 
-0.397202 -0.660226 0.000000 
-0.142083 0.678498 0.000000 
-0.595936 0.119724 0.000000 
0.978194 -0.380142 0.000000 
-0.660903 0.928233 0.000000 
0.724964 0.467713 0.000000 
0.899809 -0.174536 0.000000 
0.685384 0.420776 0.000000 
0.287229 -0.080383 0.000000 
0.702895 -0.779711 0.000000 
0.180633 0.728770 0.000000 
0.445811 0.050611 0.000000 
-0.220880 -0.392175 0.000000 
-0.071546 0.976899 0.000000 
-0.033296 0.721828 0.000000 
-0.417537 0.221318 0.000000 
0.039645 -0.481244 0.000000 
-0.441768 -0.981115 0.000000 
-0.109248 0.323434 0.000000 
-0.699407 -0.153322 0.000000 
-0.474522 -0.820601 0.000000 
0.820030 0.752406 0.000000 
0.957100 0.128334 0.000000 
0.610485 0.225243 0.000000 
-0.761092 -0.505138 0.000000 
-0.714655 0.784125 0.000000 
-0.057734 0.578957 0.000000 
-0.178789 0.732866 0.000000 
-0.067979 0.075440 0.000000 
0.677748 -0.062763 0.000000 
0.641556 -0.848508 0.000000 
-0.765897 0.893013 0.000000 
0.393446 -0.039125 0.000000 
0.522510 -0.674855 0.000000 
-0.691820 -0.773399 0.000000 
-0.647393 0.496119 0.000000 
0.028512 0.288592 0.000000 
-0.053800 -0.528768 0.000000 
0.514316 -0.800899 0.000000 
0.965681 -0.811116 0.000000 
-0.897068 0.564856 0.000000 
-0.083078 0.498003 0.000000 
-0.006893 -0.204522 0.000000 
0.724017 -0.368155 0.000000 
0.714996 0.855442 0.000000 
-0.642413 0.621984 0.000000 
-0.760780 -0.216996 0.000000 
-0.205471 -0.494812 0.000000 
0.000000 0.530544 0.000000 
-0.564049 -0.167643 0.000000 
0.000000 -0.573079 0.000000 
0.564049 -0.167643 0.000000 
0.866949 -0.922988 0.000000 
-0.569003 0.757081 0.000000 
0.000000 -0.723631 0.000000 
0.569003 0.757081 0.000000 
-0.866949 -0.922988 0.000000 
0.299194 0.307263 0.000000 
0.858290 0.015679 0.000000 
-0.577662 0.592124 0.000000 
0.000000 0.172746 0.000000 
0.577662 0.592124 0.000000 
-0.858290 0.015679 0.000000 
-0.299194 0.307263 0.000000 
-0.268560 -0.462487 0.000000 
0.286830 -0.740129 0.000000 
0.844677 -0.120931 0.000000 
-0.578910 -0.497094 0.000000 
0.000000 -0.005690 0.000000 
0.578910 -0.497094 0.000000 
-0.844677 -0.120931 0.000000 
-0.286830 -0.740129 0.000000 
0.268560 -0.462487 0.000000 
-0.610485 0.225243 0.000000 
0.057734 0.578957 0.000000 
0.714655 0.784125 0.000000 
0.761092 -0.505138 0.000000 
0.765897 0.893013 0.000000 
-0.641556 -0.848508 0.000000 
-0.677748 -0.062763 0.000000 
0.067979 0.075440 0.000000 
0.178789 0.732866 0.000000 
-0.514316 -0.800899 0.000000 
0.053800 -0.528768 0.000000 
-0.028512 0.288592 0.000000 
0.647393 0.496119 0.000000 
0.691820 -0.773399 0.000000 
-0.522510 -0.674855 0.000000 
-0.393446 -0.039125 0.000000 
0.205471 -0.494812 0.000000 
0.760780 -0.216996 0.000000 
0.642413 0.621984 0.000000 
-0.714996 0.855442 0.000000 
-0.724017 -0.368155 0.000000 
0.006894 -0.204522 0.000000 
0.083078 0.498003 0.000000 
0.897068 0.564856 0.000000 
-0.965681 -0.811116 0.000000 
-0.761262 -0.460764 0.000000 
0.142083 0.678498 0.000000 
0.397202 -0.660226 0.000000 
-0.108942 -0.179387 0.000000 
-0.899809 -0.174536 0.000000 
-0.724964 0.467713 0.000000 
0.660903 0.928233 0.000000 
-0.978194 -0.380142 0.000000 
0.595936 0.119724 0.000000 
0.071546 0.976899 0.000000 
0.220880 -0.392175 0.000000 
-0.445811 0.050611 0.000000 
-0.180633 0.728770 0.000000 
-0.702895 -0.779711 0.000000 
-0.287229 -0.080383 0.000000 
-0.685384 0.420776 0.000000 
-0.957100 0.128334 0.000000 
-0.820030 0.752406 0.000000 
0.474522 -0.820601 0.000000 
0.699407 -0.153321 0.000000 
0.109248 0.323434 0.000000 
0.441768 -0.981115 0.000000 
-0.039645 -0.481244 0.000000 
0.417537 0.221318 0.000000 
0.033296 0.721828 0.000000 
-0.338794 0.989102 0.000000 
-0.374519 -0.437935 0.000000 
-0.713312 0.181494 0.000000 
0.609100 0.070353 0.000000 
-0.381900 0.184293 0.000000 
-0.756418 0.726685 0.000000 
0.513962 0.515199 0.000000 
0.218274 -0.760562 0.000000 
-0.423588 -0.794666 0.000000 
-0.384386 0.820062 0.000000 
-0.766286 -0.665318 0.000000 
0.484677 -0.930533 0.000000 
0.139443 -0.292409 0.000000 
-0.556234 -0.409977 0.000000 
-0.823577 0.363527 0.000000 
0.550868 0.352731 0.000000 
-0.386873 -0.544169 0.000000 
-0.771260 -0.043780 0.000000 
0.467428 -0.350308 0.000000 
0.105264 0.248318 0.000000 
-0.621631 0.066419 0.000000 
-0.937896 0.769999 0.000000 
0.385608 0.690803 0.000000 
0.141715 -0.499969 0.000000 
-0.474677 -0.499872 0.000000 
CELL_DATA 175 
SCALARS MASS float 
LOOKUP_TABLE default 
0.078183 
0.086427 
0.094672 
0.086427 
0.088131 
0.092111 
0.085854 
0.092111 
0.088131 
0.088705 
0.091000 
0.086983 
0.091556 
0.086983 
0.091000 
0.088705 
0.089278 
0.091574 
0.089278 
0.092722 
0.089278 
0.092722 
0.089278 
0.091574 
0.089278 
0.078183 
0.086427 
0.094672 
0.086427 
0.088131 
0.092111 
0.085854 
0.092111 
0.088131 
0.088705 
0.091000 
0.086983 
0.091556 
0.086983 
0.091000 
0.088705 
0.089278 
0.091574 
0.089278 
0.092722 
0.089278 
0.092722 
0.089278 
0.091574 
0.089278 
0.078183 
0.086427 
0.094672 
0.086427 
0.088131 
0.092111 
0.085854 
0.092111 
0.088131 
0.088705 
0.091000 
0.086983 
0.091556 
0.086983 
0.091000 
0.088705 
0.089278 
0.091574 
0.089278 
0.092722 
0.089278 
0.092722 
0.089278 
0.091574 
0.089278 
0.078183 
0.086427 
0.094672 
0.086427 
0.088131 
0.092111 
0.085854 
0.092111 
0.088131 
0.088705 
0.091000 
0.086983 
0.091556 
0.086983 
0.091000 
0.088705 
0.089278 
0.091574 
0.089278 
0.092722 
0.089278 
0.092722 
0.089278 
0.091574 
0.089278 
0.078183 
0.086427 
0.094672 
0.086427 
0.088131 
0.092111 
0.085854 
0.092111 
0.088131 
0.088705 
0.091000 
0.086983 
0.091556 
0.086983 
0.091000 
0.088705 
0.089278 
0.091574 
0.089278 
0.092722 
0.089278 
0.092722 
0.089278 
0.091574 
0.089278 
0.078183 
0.086427 
0.094672 
0.086427 
0.088131 
0.092111 
0.085854 
0.092111 
0.088131 
0.088705 
0.091000 
0.086983 
0.091556 
0.086983 
0.091000 
0.088705 
0.089278 
0.091574 
0.089278 
0.092722 
0.089278 
0.092722 
0.089278 
0.091574 
0.089278 
0.078183 
0.086427 
0.094672 
0.086427 
0.088131 
0.092111 
0.085854 
0.092111 
0.088131 
0.088705 
0.091000 
0.086983 
0.091556 
0.086983 
0.091000 
0.088705 
0.089278 
0.091574 
0.089278 
0.092722 
0.089278 
0.092722 
0.089278 
0.091574 
0.089278 
SCALARS MASS float 
LOOKUP_TABLE default 
0.078183 
0.086427 
0.094672 
0.086427 
0.088131 
0.092111 
0.085854 
0.092111 
0.088131 
0.088705 
0.091000 
0.086983 
0.091556 
0.086983 
0.091000 
0.088705 
0.089278 
0.091574 
0.089278 
0.092722 
0.089278 
0.092722 
0.089278 
0.091574 
0.089278 
0.078183 
0.086427 
0.094672 
0.086427 
0.088131 
0.092111 
0.085854 
0.092111 
0.088131 
0.088705 
0.091000 
0.086983 
0.091556 
0.086983 
0.091000 
0.088705 
0.089278 
0.091574 
0.089278 
0.092722 
0.089278 
0.092722 
0.089278 
0.091574 
0.089278 
0.078183 
0.086427 
0.094672 
0.086427 
0.088131 
0.092111 
0.085854 
0.092111 
0.088131 
0.088705 
0.091000 
0.086983 
0.091556 
0.086983 
0.091000 
0.088705 
0.089278 
0.091574 
0.089278 
0.092722 
0.089278 
0.092722 
0.089278 
0.091574 
0.089278 
0.078183 
0.086427 
0.094672 
0.086427 
0.088131 
0.092111 
0.085854 
0.092111 
0.088131 
0.088705 
0.091000 
0.086983 
0.091556 
0.086983 
0.091000 
0.088705 
0.089278 
0.091574 
0.089278 
0.092722 
0.089278 
0.092722 
0.089278 
0.091574 
0.089278 
0.078183 
0.086427 
0.094672 
0.086427 
0.088131 
0.092111 
0.085854 
0.092111 
0.088131 
0.088705 
0.091000 
0.086983 
0.091556 
0.086983 
0.091000 
0.088705 
0.089278 
0.091574 
0.089278 
0.092722 
0.089278 
0.092722 
0.089278 
0.091574 
0.089278 
0.078183 
0.086427 
0.094672 
0.086427 
0.088131 
0.092111 
0.085854 
0.092111 
0.088131 
0.088705 
0.091000 
0.086983 
0.091556 
0.086983 
0.091000 
0.088705 
0.089278 
0.091574 
0.089278 
0.092722 
0.089278 
0.092722 
0.089278 
0.091574 
0.089278 
0.078183 
0.086427 
0.094672 
0.086427 
0.088131 
0.092111 
0.085854 
0.092111 
0.088131 
0.088705 
0.091000 
0.086983 
0.091556 
0.086983 
0.091000 
0.088705 
0.089278 
0.091574 
0.089278 
0.092722 
0.089278 
0.092722 
0.089278 
0.091574 
0.089278 
SCALARS DENSITY float 
LOOKUP_TABLE default 
20.000000 
20.000000 
20.000000 
20.000000 
20.000000 
20.000000 
20.000000 
20.000000 
20.000000 
20.000000 
20.000000 
20.000000 
20.000000 
20.000000 
20.000000 
20.000000 
20.000000 
20.000000 
20.000000 
20.000000 
20.000000 
20.000000 
20.000000 
20.000000 
20.000000 
20.000000 
20.000000 
20.000000 
20.000000 
20.000000 
20.000000 
20.000000 
20.000000 
20.000000 
20.000000 
20.000000 
20.000000 
20.000000 
20.000000 
20.000000 
20.000000 
20.000000 
20.000000 
20.000000 
20.000000 
20.000000 
20.000000 
20.000000 
20.000000 
20.000000 
20.000000 
20.000000 
20.000000 
20.000000 
20.000000 
20.000000 
20.000000 
20.000000 
20.000000 
20.000000 
20.000000 
20.000000 
20.000000 
20.000000 
20.000000 
20.000000 
20.000000 
20.000000 
20.000000 
20.000000 
20.000000 
20.000000 
20.000000 
20.000000 
20.000000 
20.000000 
20.000000 
20.000000 
20.000000 
20.000000 
20.000000 
20.000000 
20.000000 
20.000000 
20.000000 
20.000000 
20.000000 
20.000000 
20.000000 
20.000000 
20.000000 
20.000000 
20.000000 
20.000000 
20.000000 
20.000000 
20.000000 
20.000000 
20.000000 
20.000000 
20.000000 
20.000000 
20.000000 
20.000000 
20.000000 
20.000000 
20.000000 
20.000000 
20.000000 
20.000000 
20.000000 
20.000000 
20.000000 
20.000000 
20.000000 
20.000000 
20.000000 
20.000000 
20.000000 
20.000000 
20.000000 
20.000000 
20.000000 
20.000000 
20.000000 
20.000000 
20.000000 
20.000000 
20.000000 
20.000000 
20.000000 
20.000000 
20.000000 
20.000000 
20.000000 
20.000000 
20.000000 
20.000000 
20.000000 
20.000000 
20.000000 
20.000000 
20.000000 
20.000000 
20.000000 
20.000000 
20.000000 
20.000000 
20.000000 
20.000000 
20.000000 
20.000000 
20.000000 
20.000000 
20.000000 
20.000000 
20.000000 
20.000000 
20.000000 
20.000000 
20.000000 
20.000000 
20.000000 
20.000000 
20.000000 
20.000000 
20.000000 
20.000000 
20.000000 
20.000000 
20.000000 
20.000000 
20.000000 
20.000000 
20.000000 
SCALARS ELEM_i float 
LOOKUP_TABLE default 
180 
207 
180 
180 
207 
207 
208 
181 
181 
235 
208 
208 
208 
208 
181 
182 
235 
235 
236 
209 
209 
209 
209 
182 
182 
179 
206 
206 
207 
233 
206 
234 
207 
207 
233 
233 
233 
234 
234 
234 
235 
260 
260 
260 
260 
261 
261 
261 
235 
235 
179 
205 
206 
206 
205 
205 
205 
205 
233 
204 
204 
231 
232 
232 
232 
232 
203 
231 
231 
231 
231 
232 
259 
259 
259 
179 
178 
178 
178 
150 
178 
177 
178 
204 
150 
150 
177 
177 
177 
204 
204 
149 
149 
149 
176 
176 
176 
203 
203 
203 
179 
152 
152 
151 
125 
151 
151 
151 
151 
124 
124 
124 
124 
123 
150 
150 
97 
97 
97 
124 
123 
123 
123 
123 
149 
179 
153 
152 
152 
153 
153 
126 
152 
125 
127 
126 
126 
126 
125 
125 
125 
127 
127 
99 
99 
99 
98 
98 
98 
98 
180 
180 
180 
153 
181 
181 
154 
153 
153 
182 
181 
154 
154 
154 
154 
127 
182 
182 
155 
155 
155 
155 
128 
127 
127 
VECTORS VELOCITY float 
-0.000000 -2.753863 0.000000 
-0.000000 -2.753863 0.000000 
0.000000 -2.753863 0.000000 
0.000000 -2.753863 0.000000 
-0.000000 -2.753863 0.000000 
0.000000 -2.753863 0.000000 
-0.000000 -2.753863 0.000000 
0.000000 -2.753863 0.000000 
-0.000000 -2.753863 0.000000 
-0.000000 -2.753863 0.000000 
-0.000000 -2.753863 0.000000 
-0.000000 -2.753863 0.000000 
-0.000000 -2.753863 0.000000 
-0.000000 -2.753863 0.000000 
-0.000000 -2.753863 0.000000 
-0.000000 -2.753863 0.000000 
0.000000 -2.753863 0.000000 
-0.000000 -2.753863 0.000000 
0.000000 -2.753863 0.000000 
0.000000 -2.753863 0.000000 
0.000000 -2.753863 0.000000 
0.000000 -2.753863 0.000000 
-0.000000 -2.753863 0.000000 
-0.000000 -2.753863 0.000000 
0.000000 -2.753863 0.000000 
-0.000000 -2.753863 0.000000 
-0.000000 -2.753863 0.000000 
-0.000000 -2.753863 0.000000 
-0.000000 -2.753863 0.000000 
-0.000000 -2.753863 0.000000 
-0.000000 -2.753863 0.000000 
-0.000000 -2.753863 0.000000 
-0.000000 -2.753863 0.000000 
-0.000000 -2.753863 0.000000 
-0.000000 -2.753863 0.000000 
0.000000 -2.753863 0.000000 
0.000000 -2.753863 0.000000 
0.000000 -2.753863 0.000000 
0.000000 -2.753863 0.000000 
-0.000000 -2.753863 0.000000 
-0.000000 -2.753863 0.000000 
-0.000000 -2.753863 0.000000 
-0.000000 -2.753863 0.000000 
-0.000000 -2.753863 0.000000 
0.000000 -2.753863 0.000000 
0.000000 -2.753863 0.000000 
-0.000000 -2.753863 0.000000 
-0.000000 -2.753863 0.000000 
0.000000 -2.753863 0.000000 
0.000000 -2.753863 0.000000 
-0.000000 -2.753863 0.000000 
0.000000 -2.753863 0.000000 
-0.000000 -2.753863 0.000000 
-0.000000 -2.753863 0.000000 
0.000000 -2.753863 0.000000 
0.000000 -2.753863 0.000000 
-0.000000 -2.753863 0.000000 
-0.000000 -2.753863 0.000000 
-0.000000 -2.753863 0.000000 
0.000000 -2.753863 0.000000 
0.000000 -2.753863 0.000000 
0.000000 -2.753863 0.000000 
0.000000 -2.753863 0.000000 
-0.000000 -2.753863 0.000000 
-0.000000 -2.753863 0.000000 
-0.000000 -2.753863 0.000000 
-0.000000 -2.753863 0.000000 
-0.000000 -2.753863 0.000000 
-0.000000 -2.753863 0.000000 
-0.000000 -2.753863 0.000000 
-0.000000 -2.753863 0.000000 
-0.000000 -2.753863 0.000000 
-0.000000 -2.753863 0.000000 
-0.000000 -2.753863 0.000000 
0.000000 -2.753863 0.000000 
-0.000000 -2.753863 0.000000 
-0.000000 -2.753863 0.000000 
-0.000000 -2.753863 0.000000 
-0.000000 -2.753863 0.000000 
0.000000 -2.753863 0.000000 
0.000000 -2.753863 0.000000 
-0.000000 -2.753863 0.000000 
-0.000000 -2.753863 0.000000 
-0.000000 -2.753863 0.000000 
0.000000 -2.753863 0.000000 
0.000000 -2.753863 0.000000 
0.000000 -2.753863 0.000000 
0.000000 -2.753863 0.000000 
0.000000 -2.753863 0.000000 
-0.000000 -2.753863 0.000000 
0.000000 -2.753863 0.000000 
-0.000000 -2.753863 0.000000 
-0.000000 -2.753863 0.000000 
-0.000000 -2.753863 0.000000 
-0.000000 -2.753863 0.000000 
-0.000000 -2.753863 0.000000 
0.000000 -2.753863 0.000000 
-0.000000 -2.753863 0.000000 
0.000000 -2.753863 0.000000 
-0.000000 -2.753863 0.000000 
-0.000000 -2.753863 0.000000 
0.000000 -2.753863 0.000000 
-0.000000 -2.753863 0.000000 
-0.000000 -2.753863 0.000000 
-0.000000 -2.753863 0.000000 
-0.000000 -2.753863 0.000000 
0.000000 -2.753863 0.000000 
0.000000 -2.753863 0.000000 
0.000000 -2.753863 0.000000 
-0.000000 -2.753863 0.000000 
-0.000000 -2.753863 0.000000 
-0.000000 -2.753863 0.000000 
0.000000 -2.753863 0.000000 
0.000000 -2.753863 0.000000 
0.000000 -2.753863 0.000000 
0.000000 -2.753863 0.000000 
0.000000 -2.753863 0.000000 
-0.000000 -2.753863 0.000000 
0.000000 -2.753863 0.000000 
-0.000000 -2.753863 0.000000 
0.000000 -2.753863 0.000000 
0.000000 -2.753863 0.000000 
0.000000 -2.753863 0.000000 
-0.000000 -2.753863 0.000000 
-0.000000 -2.753863 0.000000 
-0.000000 -2.753863 0.000000 
0.000000 -2.753863 0.000000 
0.000000 -2.753863 0.000000 
0.000000 -2.753863 0.000000 
0.000000 -2.753863 0.000000 
0.000000 -2.753863 0.000000 
0.000000 -2.753863 0.000000 
0.000000 -2.753863 0.000000 
0.000000 -2.753863 0.000000 
0.000000 -2.753863 0.000000 
0.000000 -2.753863 0.000000 
-0.000000 -2.753863 0.000000 
-0.000000 -2.753863 0.000000 
0.000000 -2.753863 0.000000 
-0.000000 -2.753863 0.000000 
-0.000000 -2.753863 0.000000 
0.000000 -2.753863 0.000000 
-0.000000 -2.753863 0.000000 
0.000000 -2.753863 0.000000 
-0.000000 -2.753863 0.000000 
0.000000 -2.753863 0.000000 
0.000000 -2.753863 0.000000 
0.000000 -2.753863 0.000000 
-0.000000 -2.753863 0.000000 
-0.000000 -2.753863 0.000000 
-0.000000 -2.753863 0.000000 
0.000000 -2.753863 0.000000 
0.000000 -2.753863 0.000000 
0.000000 -2.753863 0.000000 
-0.000000 -2.753863 0.000000 
0.000000 -2.753863 0.000000 
0.000000 -2.753863 0.000000 
0.000000 -2.753863 0.000000 
0.000000 -2.753863 0.000000 
-0.000000 -2.753863 0.000000 
-0.000000 -2.753863 0.000000 
-0.000000 -2.753863 0.000000 
-0.000000 -2.753863 0.000000 
-0.000000 -2.753863 0.000000 
0.000000 -2.753863 0.000000 
0.000000 -2.753863 0.000000 
0.000000 -2.753863 0.000000 
0.000000 -2.753863 0.000000 
-0.000000 -2.753863 0.000000 
0.000000 -2.753863 0.000000 
0.000000 -2.753863 0.000000 
-0.000000 -2.753863 0.000000 
-0.000000 -2.753863 0.000000 
-0.000000 -2.753863 0.000000 
0.000000 -2.753863 0.000000 
TENSORS STRESS float 
0.000000 -0.000000 0.000000 
0.000000 0.000000 0.000000 
0.000000 0.000000 0.000000 

-0.000000 -0.000000 0.000000 
0.000000 0.000000 0.000000 
0.000000 0.000000 0.000000 

0.000000 -0.000000 0.000000 
0.000000 0.000000 0.000000 
0.000000 0.000000 0.000000 

-0.000000 0.000000 0.000000 
0.000000 0.000000 0.000000 
0.000000 0.000000 0.000000 

-0.000000 -0.000000 0.000000 
0.000000 -0.000000 0.000000 
0.000000 0.000000 0.000000 

-0.000000 -0.000000 0.000000 
0.000000 0.000000 0.000000 
0.000000 0.000000 0.000000 

-0.000000 -0.000000 0.000000 
0.000000 -0.000000 0.000000 
0.000000 0.000000 0.000000 

-0.000000 -0.000000 0.000000 
0.000000 -0.000000 0.000000 
0.000000 0.000000 0.000000 

-0.000000 -0.000000 0.000000 
0.000000 -0.000000 0.000000 
0.000000 0.000000 0.000000 

-0.000000 0.000000 0.000000 
0.000000 -0.000000 0.000000 
0.000000 0.000000 0.000000 

-0.000000 -0.000000 0.000000 
0.000000 -0.000000 0.000000 
0.000000 0.000000 0.000000 

-0.000000 0.000000 0.000000 
0.000000 -0.000000 0.000000 
0.000000 0.000000 0.000000 

-0.000000 -0.000000 0.000000 
0.000000 -0.000000 0.000000 
0.000000 0.000000 0.000000 

0.000000 -0.000000 0.000000 
0.000000 0.000000 0.000000 
0.000000 0.000000 0.000000 

-0.000000 0.000000 0.000000 
0.000000 -0.000000 0.000000 
0.000000 0.000000 0.000000 

0.000000 -0.000000 0.000000 
0.000000 0.000000 0.000000 
0.000000 0.000000 0.000000 

0.000000 -0.000000 0.000000 
0.000000 0.000000 0.000000 
0.000000 0.000000 0.000000 

-0.000000 -0.000000 0.000000 
0.000000 0.000000 0.000000 
0.000000 0.000000 0.000000 

0.000000 -0.000000 0.000000 
0.000000 0.000000 0.000000 
0.000000 0.000000 0.000000 

0.000000 0.000000 0.000000 
0.000000 0.000000 0.000000 
0.000000 0.000000 0.000000 

0.000000 0.000000 0.000000 
0.000000 -0.000000 0.000000 
0.000000 0.000000 0.000000 

0.000000 -0.000000 0.000000 
0.000000 0.000000 0.000000 
0.000000 0.000000 0.000000 

0.000000 -0.000000 0.000000 
0.000000 0.000000 0.000000 
0.000000 0.000000 0.000000 

-0.000000 0.000000 0.000000 
0.000000 -0.000000 0.000000 
0.000000 0.000000 0.000000 

0.000000 -0.000000 0.000000 
0.000000 0.000000 0.000000 
0.000000 0.000000 0.000000 

0.000000 -0.000000 0.000000 
0.000000 0.000000 0.000000 
0.000000 0.000000 0.000000 

0.000000 -0.000000 0.000000 
0.000000 0.000000 0.000000 
0.000000 0.000000 0.000000 

-0.000000 -0.000000 0.000000 
0.000000 0.000000 0.000000 
0.000000 0.000000 0.000000 

-0.000000 -0.000000 0.000000 
0.000000 -0.000000 0.000000 
0.000000 0.000000 0.000000 

0.000000 0.000000 0.000000 
0.000000 -0.000000 0.000000 
0.000000 0.000000 0.000000 

-0.000000 -0.000000 0.000000 
0.000000 -0.000000 0.000000 
0.000000 0.000000 0.000000 

0.000000 -0.000000 0.000000 
0.000000 -0.000000 0.000000 
0.000000 0.000000 0.000000 

-0.000000 -0.000000 0.000000 
0.000000 -0.000000 0.000000 
0.000000 0.000000 0.000000 

-0.000000 0.000000 0.000000 
0.000000 -0.000000 0.000000 
0.000000 0.000000 0.000000 

-0.000000 -0.000000 0.000000 
0.000000 -0.000000 0.000000 
0.000000 0.000000 0.000000 

0.000000 0.000000 0.000000 
0.000000 -0.000000 0.000000 
0.000000 0.000000 0.000000 

0.000000 0.000000 0.000000 
0.000000 0.000000 0.000000 
0.000000 0.000000 0.000000 

0.000000 0.000000 0.000000 
0.000000 -0.000000 0.000000 
0.000000 0.000000 0.000000 

0.000000 -0.000000 0.000000 
0.000000 -0.000000 0.000000 
0.000000 0.000000 0.000000 

-0.000000 0.000000 0.000000 
0.000000 -0.000000 0.000000 
0.000000 0.000000 0.000000 

-0.000000 -0.000000 0.000000 
0.000000 -0.000000 0.000000 
0.000000 0.000000 0.000000 

0.000000 -0.000000 0.000000 
0.000000 -0.000000 0.000000 
0.000000 0.000000 0.000000 

0.000000 -0.000000 0.000000 
0.000000 0.000000 0.000000 
0.000000 0.000000 0.000000 

0.000000 -0.000000 0.000000 
0.000000 -0.000000 0.000000 
0.000000 0.000000 0.000000 

0.000000 -0.000000 0.000000 
0.000000 0.000000 0.000000 
0.000000 0.000000 0.000000 

0.000000 -0.000000 0.000000 
0.000000 -0.000000 0.000000 
0.000000 0.000000 0.000000 

0.000000 -0.000000 0.000000 
0.000000 0.000000 0.000000 
0.000000 0.000000 0.000000 

0.000000 -0.000000 0.000000 
0.000000 0.000000 0.000000 
0.000000 0.000000 0.000000 

-0.000000 0.000000 0.000000 
0.000000 0.000000 0.000000 
0.000000 0.000000 0.000000 

-0.000000 -0.000000 0.000000 
0.000000 -0.000000 0.000000 
0.000000 0.000000 0.000000 

0.000000 0.000000 0.000000 
0.000000 0.000000 0.000000 
0.000000 0.000000 0.000000 

-0.000000 -0.000000 0.000000 
0.000000 -0.000000 0.000000 
0.000000 0.000000 0.000000 

0.000000 0.000000 0.000000 
0.000000 0.000000 0.000000 
0.000000 0.000000 0.000000 

0.000000 -0.000000 0.000000 
0.000000 0.000000 0.000000 
0.000000 0.000000 0.000000 

0.000000 -0.000000 0.000000 
0.000000 -0.000000 0.000000 
0.000000 0.000000 0.000000 

0.000000 -0.000000 0.000000 
0.000000 -0.000000 0.000000 
0.000000 0.000000 0.000000 

0.000000 -0.000000 0.000000 
0.000000 0.000000 0.000000 
0.000000 0.000000 0.000000 

0.000000 -0.000000 0.000000 
0.000000 0.000000 0.000000 
0.000000 0.000000 0.000000 

-0.000000 0.000000 0.000000 
0.000000 0.000000 0.000000 
0.000000 0.000000 0.000000 

0.000000 -0.000000 0.000000 
0.000000 0.000000 0.000000 
0.000000 0.000000 0.000000 

0.000000 -0.000000 0.000000 
0.000000 -0.000000 0.000000 
0.000000 0.000000 0.000000 

-0.000000 -0.000000 0.000000 
0.000000 -0.000000 0.000000 
0.000000 0.000000 0.000000 

-0.000000 -0.000000 0.000000 
0.000000 0.000000 0.000000 
0.000000 0.000000 0.000000 

-0.000000 -0.000000 0.000000 
0.000000 -0.000000 0.000000 
0.000000 0.000000 0.000000 

-0.000000 -0.000000 0.000000 
0.000000 -0.000000 0.000000 
0.000000 0.000000 0.000000 

-0.000000 -0.000000 0.000000 
0.000000 -0.000000 0.000000 
0.000000 0.000000 0.000000 

-0.000000 -0.000000 0.000000 
0.000000 -0.000000 0.000000 
0.000000 0.000000 0.000000 

-0.000000 -0.000000 0.000000 
0.000000 -0.000000 0.000000 
0.000000 0.000000 0.000000 

0.000000 -0.000000 0.000000 
0.000000 0.000000 0.000000 
0.000000 0.000000 0.000000 

-0.000000 -0.000000 0.000000 
0.000000 -0.000000 0.000000 
0.000000 0.000000 0.000000 

-0.000000 -0.000000 0.000000 
0.000000 -0.000000 0.000000 
0.000000 0.000000 0.000000 

-0.000000 -0.000000 0.000000 
0.000000 -0.000000 0.000000 
0.000000 0.000000 0.000000 

0.000000 -0.000000 0.000000 
0.000000 0.000000 0.000000 
0.000000 0.000000 0.000000 

-0.000000 0.000000 0.000000 
0.000000 -0.000000 0.000000 
0.000000 0.000000 0.000000 

-0.000000 0.000000 0.000000 
0.000000 -0.000000 0.000000 
0.000000 0.000000 0.000000 

0.000000 0.000000 0.000000 
0.000000 -0.000000 0.000000 
0.000000 0.000000 0.000000 

0.000000 -0.000000 0.000000 
0.000000 -0.000000 0.000000 
0.000000 0.000000 0.000000 

0.000000 0.000000 0.000000 
0.000000 0.000000 0.000000 
0.000000 0.000000 0.000000 

0.000000 -0.000000 0.000000 
0.000000 0.000000 0.000000 
0.000000 0.000000 0.000000 

-0.000000 0.000000 0.000000 
0.000000 -0.000000 0.000000 
0.000000 0.000000 0.000000 

-0.000000 -0.000000 0.000000 
0.000000 0.000000 0.000000 
0.000000 0.000000 0.000000 

-0.000000 -0.000000 0.000000 
0.000000 0.000000 0.000000 
0.000000 0.000000 0.000000 

-0.000000 -0.000000 0.000000 
0.000000 -0.000000 0.000000 
0.000000 0.000000 0.000000 

0.000000 0.000000 0.000000 
0.000000 0.000000 0.000000 
0.000000 0.000000 0.000000 

-0.000000 0.000000 0.000000 
0.000000 -0.000000 0.000000 
0.000000 0.000000 0.000000 

-0.000000 -0.000000 0.000000 
0.000000 -0.000000 0.000000 
0.000000 0.000000 0.000000 

0.000000 -0.000000 0.000000 
0.000000 -0.000000 0.000000 
0.000000 0.000000 0.000000 

-0.000000 -0.000000 0.000000 
0.000000 -0.000000 0.000000 
0.000000 0.000000 0.000000 

0.000000 -0.000000 0.000000 
0.000000 0.000000 0.000000 
0.000000 0.000000 0.000000 

0.000000 0.000000 0.000000 
0.000000 0.000000 0.000000 
0.000000 0.000000 0.000000 

-0.000000 0.000000 0.000000 
0.000000 -0.000000 0.000000 
0.000000 0.000000 0.000000 

-0.000000 0.000000 0.000000 
0.000000 -0.000000 0.000000 
0.000000 0.000000 0.000000 

-0.000000 0.000000 0.000000 
0.000000 -0.000000 0.000000 
0.000000 0.000000 0.000000 

-0.000000 -0.000000 0.000000 
0.000000 0.000000 0.000000 
0.000000 0.000000 0.000000 

-0.000000 -0.000000 0.000000 
0.000000 -0.000000 0.000000 
0.000000 0.000000 0.000000 

0.000000 0.000000 0.000000 
0.000000 -0.000000 0.000000 
0.000000 0.000000 0.000000 

-0.000000 0.000000 0.000000 
0.000000 -0.000000 0.000000 
0.000000 0.000000 0.000000 

-0.000000 -0.000000 0.000000 
0.000000 -0.000000 0.000000 
0.000000 0.000000 0.000000 

-0.000000 -0.000000 0.000000 
0.000000 -0.000000 0.000000 
0.000000 0.000000 0.000000 

-0.000000 -0.000000 0.000000 
0.000000 -0.000000 0.000000 
0.000000 0.000000 0.000000 

0.000000 0.000000 0.000000 
0.000000 -0.000000 0.000000 
0.000000 0.000000 0.000000 

-0.000000 0.000000 0.000000 
0.000000 -0.000000 0.000000 
0.000000 0.000000 0.000000 

-0.000000 -0.000000 0.000000 
0.000000 -0.000000 0.000000 
0.000000 0.000000 0.000000 

0.000000 0.000000 0.000000 
0.000000 0.000000 0.000000 
0.000000 0.000000 0.000000 

-0.000000 -0.000000 0.000000 
0.000000 -0.000000 0.000000 
0.000000 0.000000 0.000000 

0.000000 -0.000000 0.000000 
0.000000 -0.000000 0.000000 
0.000000 0.000000 0.000000 

-0.000000 0.000000 0.000000 
0.000000 -0.000000 0.000000 
0.000000 0.000000 0.000000 

-0.000000 -0.000000 0.000000 
0.000000 -0.000000 0.000000 
0.000000 0.000000 0.000000 

-0.000000 0.000000 0.000000 
0.000000 -0.000000 0.000000 
0.000000 0.000000 0.000000 

-0.000000 0.000000 0.000000 
0.000000 -0.000000 0.000000 
0.000000 0.000000 0.000000 

-0.000000 0.000000 0.000000 
0.000000 -0.000000 0.000000 
0.000000 0.000000 0.000000 

0.000000 0.000000 0.000000 
0.000000 0.000000 0.000000 
0.000000 0.000000 0.000000 

0.000000 0.000000 0.000000 
0.000000 0.000000 0.000000 
0.000000 0.000000 0.000000 

0.000000 -0.000000 0.000000 
0.000000 -0.000000 0.000000 
0.000000 0.000000 0.000000 

-0.000000 -0.000000 0.000000 
0.000000 0.000000 0.000000 
0.000000 0.000000 0.000000 

-0.000000 -0.000000 0.000000 
0.000000 0.000000 0.000000 
0.000000 0.000000 0.000000 

-0.000000 -0.000000 0.000000 
0.000000 -0.000000 0.000000 
0.000000 0.000000 0.000000 

0.000000 0.000000 0.000000 
0.000000 0.000000 0.000000 
0.000000 0.000000 0.000000 

0.000000 0.000000 0.000000 
0.000000 0.000000 0.000000 
0.000000 0.000000 0.000000 

0.000000 -0.000000 0.000000 
0.000000 0.000000 0.000000 
0.000000 0.000000 0.000000 

0.000000 0.000000 0.000000 
0.000000 -0.000000 0.000000 
0.000000 0.000000 0.000000 

0.000000 -0.000000 0.000000 
0.000000 0.000000 0.000000 
0.000000 0.000000 0.000000 

0.000000 -0.000000 0.000000 
0.000000 0.000000 0.000000 
0.000000 0.000000 0.000000 

0.000000 0.000000 0.000000 
0.000000 0.000000 0.000000 
0.000000 0.000000 0.000000 

0.000000 0.000000 0.000000 
0.000000 0.000000 0.000000 
0.000000 0.000000 0.000000 

-0.000000 -0.000000 0.000000 
0.000000 -0.000000 0.000000 
0.000000 0.000000 0.000000 

-0.000000 0.000000 0.000000 
0.000000 0.000000 0.000000 
0.000000 0.000000 0.000000 

-0.000000 0.000000 0.000000 
0.000000 -0.000000 0.000000 
0.000000 0.000000 0.000000 

-0.000000 0.000000 0.000000 
0.000000 0.000000 0.000000 
0.000000 0.000000 0.000000 

-0.000000 -0.000000 0.000000 
0.000000 -0.000000 0.000000 
0.000000 0.000000 0.000000 

-0.000000 -0.000000 0.000000 
0.000000 -0.000000 0.000000 
0.000000 0.000000 0.000000 

-0.000000 -0.000000 0.000000 
0.000000 -0.000000 0.000000 
0.000000 0.000000 0.000000 

-0.000000 0.000000 0.000000 
0.000000 0.000000 0.000000 
0.000000 0.000000 0.000000 

-0.000000 0.000000 0.000000 
0.000000 0.000000 0.000000 
0.000000 0.000000 0.000000 

-0.000000 -0.000000 0.000000 
0.000000 0.000000 0.000000 
0.000000 0.000000 0.000000 

0.000000 -0.000000 0.000000 
0.000000 0.000000 0.000000 
0.000000 0.000000 0.000000 

-0.000000 -0.000000 0.000000 
0.000000 -0.000000 0.000000 
0.000000 0.000000 0.000000 

-0.000000 -0.000000 0.000000 
0.000000 -0.000000 0.000000 
0.000000 0.000000 0.000000 

-0.000000 0.000000 0.000000 
0.000000 -0.000000 0.000000 
0.000000 0.000000 0.000000 

-0.000000 -0.000000 0.000000 
0.000000 -0.000000 0.000000 
0.000000 0.000000 0.000000 

-0.000000 -0.000000 0.000000 
0.000000 -0.000000 0.000000 
0.000000 0.000000 0.000000 

-0.000000 -0.000000 0.000000 
0.000000 -0.000000 0.000000 
0.000000 0.000000 0.000000 

-0.000000 0.000000 0.000000 
0.000000 -0.000000 0.000000 
0.000000 0.000000 0.000000 

0.000000 0.000000 0.000000 
0.000000 -0.000000 0.000000 
0.000000 0.000000 0.000000 

-0.000000 -0.000000 0.000000 
0.000000 0.000000 0.000000 
0.000000 0.000000 0.000000 

-0.000000 -0.000000 0.000000 
0.000000 -0.000000 0.000000 
0.000000 0.000000 0.000000 

-0.000000 0.000000 0.000000 
0.000000 -0.000000 0.000000 
0.000000 0.000000 0.000000 

0.000000 -0.000000 0.000000 
0.000000 -0.000000 0.000000 
0.000000 0.000000 0.000000 

0.000000 0.000000 0.000000 
0.000000 -0.000000 0.000000 
0.000000 0.000000 0.000000 

0.000000 -0.000000 0.000000 
0.000000 -0.000000 0.000000 
0.000000 0.000000 0.000000 

0.000000 -0.000000 0.000000 
0.000000 0.000000 0.000000 
0.000000 0.000000 0.000000 

0.000000 0.000000 0.000000 
0.000000 0.000000 0.000000 
0.000000 0.000000 0.000000 

0.000000 -0.000000 0.000000 
0.000000 0.000000 0.000000 
0.000000 0.000000 0.000000 

-0.000000 -0.000000 0.000000 
0.000000 -0.000000 0.000000 
0.000000 0.000000 0.000000 

-0.000000 -0.000000 0.000000 
0.000000 -0.000000 0.000000 
0.000000 0.000000 0.000000 

-0.000000 0.000000 0.000000 
0.000000 0.000000 0.000000 
0.000000 0.000000 0.000000 

0.000000 0.000000 0.000000 
0.000000 0.000000 0.000000 
0.000000 0.000000 0.000000 

0.000000 -0.000000 0.000000 
0.000000 0.000000 0.000000 
0.000000 0.000000 0.000000 

0.000000 0.000000 0.000000 
0.000000 0.000000 0.000000 
0.000000 0.000000 0.000000 

-0.000000 -0.000000 0.000000 
0.000000 -0.000000 0.000000 
0.000000 0.000000 0.000000 

0.000000 0.000000 0.000000 
0.000000 0.000000 0.000000 
0.000000 0.000000 0.000000 

-0.000000 -0.000000 0.000000 
0.000000 -0.000000 0.000000 
0.000000 0.000000 0.000000 

0.000000 -0.000000 0.000000 
0.000000 0.000000 0.000000 
0.000000 0.000000 0.000000 

0.000000 0.000000 0.000000 
0.000000 -0.000000 0.000000 
0.000000 0.000000 0.000000 

0.000000 -0.000000 0.000000 
0.000000 0.000000 0.000000 
0.000000 0.000000 0.000000 

-0.000000 -0.000000 0.000000 
0.000000 -0.000000 0.000000 
0.000000 0.000000 0.000000 

-0.000000 0.000000 0.000000 
0.000000 -0.000000 0.000000 
0.000000 0.000000 0.000000 

0.000000 0.000000 0.000000 
0.000000 0.000000 0.000000 
0.000000 0.000000 0.000000 

-0.000000 0.000000 0.000000 
0.000000 0.000000 0.000000 
0.000000 0.000000 0.000000 

-0.000000 -0.000000 0.000000 
0.000000 -0.000000 0.000000 
0.000000 0.000000 0.000000 

-0.000000 -0.000000 0.000000 
0.000000 -0.000000 0.000000 
0.000000 0.000000 0.000000 

-0.000000 -0.000000 0.000000 
0.000000 -0.000000 0.000000 
0.000000 0.000000 0.000000 

-0.000000 -0.000000 0.000000 
0.000000 -0.000000 0.000000 
0.000000 0.000000 0.000000 

-0.000000 -0.000000 0.000000 
0.000000 -0.000000 0.000000 
0.000000 0.000000 0.000000 

-0.000000 -0.000000 0.000000 
0.000000 0.000000 0.000000 
0.000000 0.000000 0.000000 

TENSORS STRAIN float 
0.000000 -0.000000 0.000000 
0.000000 0.000000 0.000000 
0.000000 0.000000 0.000000 

-0.000000 -0.000000 0.000000 
0.000000 0.000000 0.000000 
0.000000 0.000000 0.000000 

0.000000 -0.000000 0.000000 
0.000000 0.000000 0.000000 
0.000000 0.000000 0.000000 

-0.000000 0.000000 0.000000 
0.000000 0.000000 0.000000 
0.000000 0.000000 0.000000 

-0.000000 -0.000000 0.000000 
0.000000 -0.000000 0.000000 
0.000000 0.000000 0.000000 

-0.000000 -0.000000 0.000000 
0.000000 0.000000 0.000000 
0.000000 0.000000 0.000000 

-0.000000 -0.000000 0.000000 
0.000000 -0.000000 0.000000 
0.000000 0.000000 0.000000 

-0.000000 -0.000000 0.000000 
0.000000 -0.000000 0.000000 
0.000000 0.000000 0.000000 

-0.000000 -0.000000 0.000000 
0.000000 -0.000000 0.000000 
0.000000 0.000000 0.000000 

-0.000000 0.000000 0.000000 
0.000000 -0.000000 0.000000 
0.000000 0.000000 0.000000 

-0.000000 -0.000000 0.000000 
0.000000 -0.000000 0.000000 
0.000000 0.000000 0.000000 

-0.000000 0.000000 0.000000 
0.000000 -0.000000 0.000000 
0.000000 0.000000 0.000000 

-0.000000 -0.000000 0.000000 
0.000000 0.000000 0.000000 
0.000000 0.000000 0.000000 

-0.000000 -0.000000 0.000000 
0.000000 0.000000 0.000000 
0.000000 0.000000 0.000000 

-0.000000 0.000000 0.000000 
0.000000 -0.000000 0.000000 
0.000000 0.000000 0.000000 

-0.000000 -0.000000 0.000000 
0.000000 0.000000 0.000000 
0.000000 0.000000 0.000000 

-0.000000 -0.000000 0.000000 
0.000000 0.000000 0.000000 
0.000000 0.000000 0.000000 

-0.000000 -0.000000 0.000000 
0.000000 0.000000 0.000000 
0.000000 0.000000 0.000000 

-0.000000 -0.000000 0.000000 
0.000000 0.000000 0.000000 
0.000000 0.000000 0.000000 

0.000000 0.000000 0.000000 
0.000000 0.000000 0.000000 
0.000000 0.000000 0.000000 

0.000000 0.000000 0.000000 
0.000000 -0.000000 0.000000 
0.000000 0.000000 0.000000 

0.000000 -0.000000 0.000000 
0.000000 0.000000 0.000000 
0.000000 0.000000 0.000000 

-0.000000 -0.000000 0.000000 
0.000000 0.000000 0.000000 
0.000000 0.000000 0.000000 

-0.000000 0.000000 0.000000 
0.000000 -0.000000 0.000000 
0.000000 0.000000 0.000000 

-0.000000 -0.000000 0.000000 
0.000000 0.000000 0.000000 
0.000000 0.000000 0.000000 

0.000000 -0.000000 0.000000 
0.000000 0.000000 0.000000 
0.000000 0.000000 0.000000 

-0.000000 -0.000000 0.000000 
0.000000 0.000000 0.000000 
0.000000 0.000000 0.000000 

-0.000000 -0.000000 0.000000 
0.000000 0.000000 0.000000 
0.000000 0.000000 0.000000 

-0.000000 -0.000000 0.000000 
0.000000 -0.000000 0.000000 
0.000000 0.000000 0.000000 

0.000000 0.000000 0.000000 
0.000000 -0.000000 0.000000 
0.000000 0.000000 0.000000 

-0.000000 -0.000000 0.000000 
0.000000 -0.000000 0.000000 
0.000000 0.000000 0.000000 

0.000000 -0.000000 0.000000 
0.000000 -0.000000 0.000000 
0.000000 0.000000 0.000000 

-0.000000 -0.000000 0.000000 
0.000000 -0.000000 0.000000 
0.000000 0.000000 0.000000 

-0.000000 0.000000 0.000000 
0.000000 -0.000000 0.000000 
0.000000 0.000000 0.000000 

0.000000 -0.000000 0.000000 
0.000000 -0.000000 0.000000 
0.000000 0.000000 0.000000 

0.000000 0.000000 0.000000 
0.000000 -0.000000 0.000000 
0.000000 0.000000 0.000000 

0.000000 0.000000 0.000000 
0.000000 -0.000000 0.000000 
0.000000 0.000000 0.000000 

0.000000 0.000000 0.000000 
0.000000 -0.000000 0.000000 
0.000000 0.000000 0.000000 

0.000000 -0.000000 0.000000 
0.000000 -0.000000 0.000000 
0.000000 0.000000 0.000000 

-0.000000 0.000000 0.000000 
0.000000 -0.000000 0.000000 
0.000000 0.000000 0.000000 

-0.000000 -0.000000 0.000000 
0.000000 -0.000000 0.000000 
0.000000 0.000000 0.000000 

0.000000 -0.000000 0.000000 
0.000000 -0.000000 0.000000 
0.000000 0.000000 0.000000 

0.000000 -0.000000 0.000000 
0.000000 0.000000 0.000000 
0.000000 0.000000 0.000000 

0.000000 -0.000000 0.000000 
0.000000 -0.000000 0.000000 
0.000000 0.000000 0.000000 

0.000000 -0.000000 0.000000 
0.000000 0.000000 0.000000 
0.000000 0.000000 0.000000 

0.000000 -0.000000 0.000000 
0.000000 -0.000000 0.000000 
0.000000 0.000000 0.000000 

0.000000 -0.000000 0.000000 
0.000000 0.000000 0.000000 
0.000000 0.000000 0.000000 

0.000000 -0.000000 0.000000 
0.000000 0.000000 0.000000 
0.000000 0.000000 0.000000 

-0.000000 0.000000 0.000000 
0.000000 0.000000 0.000000 
0.000000 0.000000 0.000000 

-0.000000 -0.000000 0.000000 
0.000000 -0.000000 0.000000 
0.000000 0.000000 0.000000 

0.000000 0.000000 0.000000 
0.000000 0.000000 0.000000 
0.000000 0.000000 0.000000 

0.000000 -0.000000 0.000000 
0.000000 -0.000000 0.000000 
0.000000 0.000000 0.000000 

-0.000000 0.000000 0.000000 
0.000000 0.000000 0.000000 
0.000000 0.000000 0.000000 

-0.000000 -0.000000 0.000000 
0.000000 0.000000 0.000000 
0.000000 0.000000 0.000000 

0.000000 -0.000000 0.000000 
0.000000 -0.000000 0.000000 
0.000000 0.000000 0.000000 

0.000000 -0.000000 0.000000 
0.000000 -0.000000 0.000000 
0.000000 0.000000 0.000000 

0.000000 -0.000000 0.000000 
0.000000 0.000000 0.000000 
0.000000 0.000000 0.000000 

-0.000000 -0.000000 0.000000 
0.000000 0.000000 0.000000 
0.000000 0.000000 0.000000 

-0.000000 0.000000 0.000000 
0.000000 0.000000 0.000000 
0.000000 0.000000 0.000000 

0.000000 -0.000000 0.000000 
0.000000 0.000000 0.000000 
0.000000 0.000000 0.000000 

0.000000 -0.000000 0.000000 
0.000000 -0.000000 0.000000 
0.000000 0.000000 0.000000 

-0.000000 -0.000000 0.000000 
0.000000 -0.000000 0.000000 
0.000000 0.000000 0.000000 

-0.000000 -0.000000 0.000000 
0.000000 0.000000 0.000000 
0.000000 0.000000 0.000000 

-0.000000 -0.000000 0.000000 
0.000000 -0.000000 0.000000 
0.000000 0.000000 0.000000 

-0.000000 -0.000000 0.000000 
0.000000 0.000000 0.000000 
0.000000 0.000000 0.000000 

-0.000000 -0.000000 0.000000 
0.000000 -0.000000 0.000000 
0.000000 0.000000 0.000000 

-0.000000 -0.000000 0.000000 
0.000000 -0.000000 0.000000 
0.000000 0.000000 0.000000 

0.000000 -0.000000 0.000000 
0.000000 -0.000000 0.000000 
0.000000 0.000000 0.000000 

0.000000 -0.000000 0.000000 
0.000000 0.000000 0.000000 
0.000000 0.000000 0.000000 

0.000000 -0.000000 0.000000 
0.000000 -0.000000 0.000000 
0.000000 0.000000 0.000000 

0.000000 -0.000000 0.000000 
0.000000 -0.000000 0.000000 
0.000000 0.000000 0.000000 

-0.000000 -0.000000 0.000000 
0.000000 -0.000000 0.000000 
0.000000 0.000000 0.000000 

-0.000000 -0.000000 0.000000 
0.000000 0.000000 0.000000 
0.000000 0.000000 0.000000 

0.000000 0.000000 0.000000 
0.000000 -0.000000 0.000000 
0.000000 0.000000 0.000000 

-0.000000 0.000000 0.000000 
0.000000 -0.000000 0.000000 
0.000000 0.000000 0.000000 

0.000000 0.000000 0.000000 
0.000000 -0.000000 0.000000 
0.000000 0.000000 0.000000 

0.000000 -0.000000 0.000000 
0.000000 -0.000000 0.000000 
0.000000 0.000000 0.000000 

0.000000 0.000000 0.000000 
0.000000 0.000000 0.000000 
0.000000 0.000000 0.000000 

0.000000 -0.000000 0.000000 
0.000000 0.000000 0.000000 
0.000000 0.000000 0.000000 

-0.000000 0.000000 0.000000 
0.000000 -0.000000 0.000000 
0.000000 0.000000 0.000000 

-0.000000 -0.000000 0.000000 
0.000000 0.000000 0.000000 
0.000000 0.000000 0.000000 

-0.000000 -0.000000 0.000000 
0.000000 0.000000 0.000000 
0.000000 0.000000 0.000000 

-0.000000 -0.000000 0.000000 
0.000000 -0.000000 0.000000 
0.000000 0.000000 0.000000 

0.000000 0.000000 0.000000 
0.000000 0.000000 0.000000 
0.000000 0.000000 0.000000 

-0.000000 0.000000 0.000000 
0.000000 -0.000000 0.000000 
0.000000 0.000000 0.000000 

-0.000000 -0.000000 0.000000 
0.000000 -0.000000 0.000000 
0.000000 0.000000 0.000000 

0.000000 -0.000000 0.000000 
0.000000 -0.000000 0.000000 
0.000000 0.000000 0.000000 

0.000000 -0.000000 0.000000 
0.000000 -0.000000 0.000000 
0.000000 0.000000 0.000000 

0.000000 -0.000000 0.000000 
0.000000 0.000000 0.000000 
0.000000 0.000000 0.000000 

0.000000 0.000000 0.000000 
0.000000 0.000000 0.000000 
0.000000 0.000000 0.000000 

-0.000000 0.000000 0.000000 
0.000000 -0.000000 0.000000 
0.000000 0.000000 0.000000 

-0.000000 0.000000 0.000000 
0.000000 -0.000000 0.000000 
0.000000 0.000000 0.000000 

-0.000000 0.000000 0.000000 
0.000000 -0.000000 0.000000 
0.000000 0.000000 0.000000 

-0.000000 -0.000000 0.000000 
0.000000 0.000000 0.000000 
0.000000 0.000000 0.000000 

0.000000 -0.000000 0.000000 
0.000000 -0.000000 0.000000 
0.000000 0.000000 0.000000 

0.000000 0.000000 0.000000 
0.000000 -0.000000 0.000000 
0.000000 0.000000 0.000000 

0.000000 0.000000 0.000000 
0.000000 -0.000000 0.000000 
0.000000 0.000000 0.000000 

-0.000000 -0.000000 0.000000 
0.000000 -0.000000 0.000000 
0.000000 0.000000 0.000000 

-0.000000 -0.000000 0.000000 
0.000000 -0.000000 0.000000 
0.000000 0.000000 0.000000 

-0.000000 -0.000000 0.000000 
0.000000 -0.000000 0.000000 
0.000000 0.000000 0.000000 

0.000000 0.000000 0.000000 
0.000000 -0.000000 0.000000 
0.000000 0.000000 0.000000 

-0.000000 0.000000 0.000000 
0.000000 -0.000000 0.000000 
0.000000 0.000000 0.000000 

-0.000000 -0.000000 0.000000 
0.000000 -0.000000 0.000000 
0.000000 0.000000 0.000000 

0.000000 0.000000 0.000000 
0.000000 0.000000 0.000000 
0.000000 0.000000 0.000000 

-0.000000 -0.000000 0.000000 
0.000000 -0.000000 0.000000 
0.000000 0.000000 0.000000 

0.000000 -0.000000 0.000000 
0.000000 -0.000000 0.000000 
0.000000 0.000000 0.000000 

-0.000000 0.000000 0.000000 
0.000000 -0.000000 0.000000 
0.000000 0.000000 0.000000 

-0.000000 -0.000000 0.000000 
0.000000 -0.000000 0.000000 
0.000000 0.000000 0.000000 

-0.000000 0.000000 0.000000 
0.000000 -0.000000 0.000000 
0.000000 0.000000 0.000000 

-0.000000 0.000000 0.000000 
0.000000 -0.000000 0.000000 
0.000000 0.000000 0.000000 

-0.000000 0.000000 0.000000 
0.000000 -0.000000 0.000000 
0.000000 0.000000 0.000000 

0.000000 0.000000 0.000000 
0.000000 0.000000 0.000000 
0.000000 0.000000 0.000000 

0.000000 0.000000 0.000000 
0.000000 -0.000000 0.000000 
0.000000 0.000000 0.000000 

0.000000 -0.000000 0.000000 
0.000000 -0.000000 0.000000 
0.000000 0.000000 0.000000 

-0.000000 -0.000000 0.000000 
0.000000 0.000000 0.000000 
0.000000 0.000000 0.000000 

-0.000000 -0.000000 0.000000 
0.000000 0.000000 0.000000 
0.000000 0.000000 0.000000 

0.000000 -0.000000 0.000000 
0.000000 -0.000000 0.000000 
0.000000 0.000000 0.000000 

0.000000 0.000000 0.000000 
0.000000 0.000000 0.000000 
0.000000 0.000000 0.000000 

0.000000 0.000000 0.000000 
0.000000 -0.000000 0.000000 
0.000000 0.000000 0.000000 

0.000000 -0.000000 0.000000 
0.000000 -0.000000 0.000000 
0.000000 0.000000 0.000000 

0.000000 0.000000 0.000000 
0.000000 -0.000000 0.000000 
0.000000 0.000000 0.000000 

-0.000000 -0.000000 0.000000 
0.000000 0.000000 0.000000 
0.000000 0.000000 0.000000 

0.000000 -0.000000 0.000000 
0.000000 0.000000 0.000000 
0.000000 0.000000 0.000000 

0.000000 0.000000 0.000000 
0.000000 -0.000000 0.000000 
0.000000 0.000000 0.000000 

-0.000000 0.000000 0.000000 
0.000000 0.000000 0.000000 
0.000000 0.000000 0.000000 

0.000000 -0.000000 0.000000 
0.000000 -0.000000 0.000000 
0.000000 0.000000 0.000000 

-0.000000 0.000000 0.000000 
0.000000 0.000000 0.000000 
0.000000 0.000000 0.000000 

-0.000000 0.000000 0.000000 
0.000000 0.000000 0.000000 
0.000000 0.000000 0.000000 

-0.000000 0.000000 0.000000 
0.000000 0.000000 0.000000 
0.000000 0.000000 0.000000 

-0.000000 -0.000000 0.000000 
0.000000 -0.000000 0.000000 
0.000000 0.000000 0.000000 

-0.000000 -0.000000 0.000000 
0.000000 -0.000000 0.000000 
0.000000 0.000000 0.000000 

0.000000 -0.000000 0.000000 
0.000000 -0.000000 0.000000 
0.000000 0.000000 0.000000 

-0.000000 0.000000 0.000000 
0.000000 0.000000 0.000000 
0.000000 0.000000 0.000000 

-0.000000 0.000000 0.000000 
0.000000 0.000000 0.000000 
0.000000 0.000000 0.000000 

-0.000000 -0.000000 0.000000 
0.000000 0.000000 0.000000 
0.000000 0.000000 0.000000 

0.000000 -0.000000 0.000000 
0.000000 0.000000 0.000000 
0.000000 0.000000 0.000000 

0.000000 -0.000000 0.000000 
0.000000 -0.000000 0.000000 
0.000000 0.000000 0.000000 

0.000000 -0.000000 0.000000 
0.000000 -0.000000 0.000000 
0.000000 0.000000 0.000000 

-0.000000 0.000000 0.000000 
0.000000 -0.000000 0.000000 
0.000000 0.000000 0.000000 

-0.000000 -0.000000 0.000000 
0.000000 -0.000000 0.000000 
0.000000 0.000000 0.000000 

-0.000000 -0.000000 0.000000 
0.000000 -0.000000 0.000000 
0.000000 0.000000 0.000000 

-0.000000 -0.000000 0.000000 
0.000000 -0.000000 0.000000 
0.000000 0.000000 0.000000 

-0.000000 0.000000 0.000000 
0.000000 -0.000000 0.000000 
0.000000 0.000000 0.000000 

0.000000 0.000000 0.000000 
0.000000 -0.000000 0.000000 
0.000000 0.000000 0.000000 

-0.000000 -0.000000 0.000000 
0.000000 0.000000 0.000000 
0.000000 0.000000 0.000000 

-0.000000 -0.000000 0.000000 
0.000000 -0.000000 0.000000 
0.000000 0.000000 0.000000 

-0.000000 0.000000 0.000000 
0.000000 0.000000 0.000000 
0.000000 0.000000 0.000000 

0.000000 -0.000000 0.000000 
0.000000 -0.000000 0.000000 
0.000000 0.000000 0.000000 

0.000000 0.000000 0.000000 
0.000000 -0.000000 0.000000 
0.000000 0.000000 0.000000 

0.000000 -0.000000 0.000000 
0.000000 -0.000000 0.000000 
0.000000 0.000000 0.000000 

0.000000 -0.000000 0.000000 
0.000000 0.000000 0.000000 
0.000000 0.000000 0.000000 

-0.000000 0.000000 0.000000 
0.000000 0.000000 0.000000 
0.000000 0.000000 0.000000 

0.000000 -0.000000 0.000000 
0.000000 0.000000 0.000000 
0.000000 0.000000 0.000000 

-0.000000 -0.000000 0.000000 
0.000000 0.000000 0.000000 
0.000000 0.000000 0.000000 

-0.000000 -0.000000 0.000000 
0.000000 -0.000000 0.000000 
0.000000 0.000000 0.000000 

-0.000000 0.000000 0.000000 
0.000000 0.000000 0.000000 
0.000000 0.000000 0.000000 

0.000000 0.000000 0.000000 
0.000000 -0.000000 0.000000 
0.000000 0.000000 0.000000 

0.000000 -0.000000 0.000000 
0.000000 -0.000000 0.000000 
0.000000 0.000000 0.000000 

0.000000 0.000000 0.000000 
0.000000 0.000000 0.000000 
0.000000 0.000000 0.000000 

-0.000000 -0.000000 0.000000 
0.000000 -0.000000 0.000000 
0.000000 0.000000 0.000000 

-0.000000 0.000000 0.000000 
0.000000 0.000000 0.000000 
0.000000 0.000000 0.000000 

0.000000 -0.000000 0.000000 
0.000000 -0.000000 0.000000 
0.000000 0.000000 0.000000 

0.000000 -0.000000 0.000000 
0.000000 0.000000 0.000000 
0.000000 0.000000 0.000000 

0.000000 0.000000 0.000000 
0.000000 -0.000000 0.000000 
0.000000 0.000000 0.000000 

0.000000 -0.000000 0.000000 
0.000000 0.000000 0.000000 
0.000000 0.000000 0.000000 

-0.000000 -0.000000 0.000000 
0.000000 0.000000 0.000000 
0.000000 0.000000 0.000000 

-0.000000 0.000000 0.000000 
0.000000 -0.000000 0.000000 
0.000000 0.000000 0.000000 

-0.000000 0.000000 0.000000 
0.000000 0.000000 0.000000 
0.000000 0.000000 0.000000 

-0.000000 0.000000 0.000000 
0.000000 0.000000 0.000000 
0.000000 0.000000 0.000000 

-0.000000 -0.000000 0.000000 
0.000000 -0.000000 0.000000 
0.000000 0.000000 0.000000 

-0.000000 -0.000000 0.000000 
0.000000 0.000000 0.000000 
0.000000 0.000000 0.000000 

-0.000000 -0.000000 0.000000 
0.000000 -0.000000 0.000000 
0.000000 0.000000 0.000000 

-0.000000 -0.000000 0.000000 
0.000000 -0.000000 0.000000 
0.000000 0.000000 0.000000 

-0.000000 -0.000000 0.000000 
0.000000 -0.000000 0.000000 
0.000000 0.000000 0.000000 

-0.000000 -0.000000 0.000000 
0.000000 0.000000 0.000000 
0.000000 0.000000 0.000000 

